x	y	stress_xx
 1.0000000000e+00	 0.0000000000e+00	 6.6513277611e+00
 9.9996528199e-01	 8.3330488405e-03	 8.0538114685e+00
 9.9986065485e-01	 1.6693912862e-02	 8.3849746884e+00
 9.9968541457e-01	 2.5081865916e-02	 7.8560125216e+00
 9.9943886492e-01	 3.3496165499e-02	 6.6776644887e+00
 9.9912031795e-01	 4.1936052786e-02	 5.0599554364e+00
 9.9872909431e-01	 5.0400752668e-02	 3.2119304611e+00
 9.9826452377e-01	 5.8889473803e-02	 1.3413840758e+00
 9.9772594558e-01	 6.7401408683e-02	-3.4541612860e-01
 9.9711270890e-01	 7.5935733705e-02	-1.6440110589e+00
 9.9642417327e-01	 8.4491609256e-02	-2.3520366436e+00
 1.0088234573e+00	 0.0000000000e+00	 4.1946279823e+00
 1.0087884330e+00	 8.4065751451e-03	 5.4805441725e+00
 1.0086828827e+00	 1.6841210896e-02	 5.9269738024e+00
 1.0085060962e+00	 2.5303174698e-02	 5.6955986031e+00
 1.0082573711e+00	 3.3791717495e-02	 4.9475900129e+00
 1.0079360134e+00	 4.2306073768e-02	 3.8434077340e+00
 1.0075413379e+00	 5.0845461567e-02	 2.5425937918e+00
 1.0070726682e+00	 5.9409082570e-02	 1.2035622791e+00
 1.0065293379e+00	 6.7996122144e-02	-1.6615009617e-02
 1.0059106903e+00	 7.6605749417e-02	-9.6242683771e-01
 1.0052160794e+00	 8.5237117371e-02	-1.4801444451e+00
 1.0176467822e+00	 0.0000000000e+00	 2.5295981063e+00
 1.0176114515e+00	 8.4801003449e-03	 3.6182103541e+00
 1.0175049780e+00	 1.6988506717e-02	 4.0776825573e+00
 1.0173266453e+00	 2.5524480155e-02	 4.0270190660e+00
 1.0170757449e+00	 3.4087265052e-02	 3.5846878162e+00
 1.0167515765e+00	 4.2676089192e-02	 2.8684693260e+00
 1.0163534491e+00	 5.1290163788e-02	 1.9953024654e+00
 1.0158806804e+00	 5.9928683534e-02	 1.0811271454e+00
 1.0153325980e+00	 6.8590826674e-02	 2.4072408685e-01
 1.0147085397e+00	 7.7275755068e-02	-4.1244815642e-01
 1.0140078536e+00	 8.5982614290e-02	-7.6641873727e-01
 1.0264699920e+00	 0.0000000000e+00	 1.5578121092e+00
 1.0264343550e+00	 8.5536245858e-03	 2.3916878836e+00
 1.0263269584e+00	 1.7135800618e-02	 2.7833013762e+00
 1.0261470795e+00	 2.5745782726e-02	 2.8156342469e+00
 1.0258940037e+00	 3.4382808755e-02	 2.5711335097e+00
 1.0255670248e+00	 4.3046099791e-02	 2.1316038676e+00
 1.0251654454e+00	 5.1734860210e-02	 1.5780978837e+00
 1.0246885777e+00	 6.0448277725e-02	 9.9080409750e-01
 1.0241357434e+00	 6.9185523451e-02	 4.4893321443e-01
 1.0235062743e+00	 7.7945751986e-02	 3.0602498727e-02
 1.0227995132e+00	 8.6728101492e-02	-1.8728148561e-01
 1.0352931043e+00	 0.0000000000e+00	 1.1842113874e+00
 1.0352571610e+00	 8.6271480136e-03	 1.7284254631e+00
 1.0351488413e+00	 1.7283092889e-02	 1.9918726633e+00
 1.0349674162e+00	 2.5967082851e-02	 2.0279914990e+00
 1.0347121651e+00	 3.4678349190e-02	 1.8897148134e+00
 1.0343823756e+00	 4.3416106301e-02	 1.6293984643e+00
 1.0339773444e+00	 5.2179551718e-02	 1.2987486956e+00
 1.0334963778e+00	 6.0967866172e-02	 9.4874828051e-01
 1.0329387915e+00	 6.9780213656e-02	 6.2958152959e-01
 1.0323039118e+00	 7.8615741499e-02	 3.9055826366e-01
 1.0315910756e+00	 8.7473580456e-02	 2.8003685707e-01
 1.0441161367e+00	 0.0000000000e+00	 1.3169622634e+00
 1.0440798870e+00	 8.7006707743e-03	 1.5583337472e+00
 1.0439706441e+00	 1.7430383825e-02	 1.6532026937e+00
 1.0437876729e+00	 2.6188380968e-02	 1.6317747405e+00
 1.0435302465e+00	 3.4973886945e-02	 1.5238053908e+00
 1.0431976464e+00	 4.3786109454e-02	 1.3585581547e+00
 1.0427891635e+00	 5.2624239192e-02	 1.1647620285e+00
 1.0423040979e+00	 6.1487449908e-02	 9.7056837200e-01
 1.0417417598e+00	 7.0374898468e-02	 8.0350724850e-01
 1.0411014694e+00	 7.9285724937e-02	 6.9044330064e-01
 1.0403825583e+00	 8.8219052661e-02	 6.5753123708e-01
 1.0529391065e+00	 0.0000000000e+00	 1.8673206918e+00
 1.0529025505e+00	 8.7741930137e-03	 1.8136819658e+00
 1.0527923845e+00	 1.7577673716e-02	 1.7187874489e+00
 1.0526078672e+00	 2.6409677516e-02	 1.5957565516e+00
 1.0523482654e+00	 3.5269422605e-02	 1.4573400053e+00
 1.0520128549e+00	 4.4156109986e-02	 1.3159006736e+00
 1.0516009202e+00	 5.3068923516e-02	 1.1833941520e+00
 1.0511117557e+00	 6.2007029962e-02	 1.0713491912e+00
 1.0505446657e+00	 7.0969579067e-02	 9.9084799155e-01
 1.0498989648e+00	 7.9955703628e-02	 9.5250641655e-01
 1.0491739787e+00	 8.8964519584e-02	 9.6645417755e-01
 1.0617620313e+00	 0.0000000000e+00	 2.7495037449e+00
 1.0617251691e+00	 8.8477148777e-03	 2.4289997271e+00
 1.0616140799e+00	 1.7724962855e-02	 2.1417421701e+00
 1.0614280165e+00	 2.6630972935e-02	 1.8897526738e+00
 1.0611662394e+00	 3.5564956757e-02	 1.6747909226e+00
 1.0608280183e+00	 4.4526108629e-02	 1.4983514786e+00
 1.0604126319e+00	 5.3513605570e-02	 1.3616606096e+00
 1.0599193686e+00	 6.2526607365e-02	 1.2656731769e+00
 1.0593475267e+00	 7.1564256632e-02	 1.2110696098e+00
 1.0586964153e+00	 8.0625678901e-02	 1.1982529997e+00
 1.0579653543e+00	 8.9709982704e-02	 1.2273463477e+00
 1.0705849287e+00	 0.0000000000e+00	 3.8805674850e+00
 1.0705477601e+00	 8.9212365123e-03	 3.3409837001e+00
 1.0704357479e+00	 1.7872251535e-02	 2.8767344120e+00
 1.0702481382e+00	 2.6852267663e-02	 2.4845787692e+00
 1.0699841859e+00	 3.5860489987e-02	 2.1611454872e+00
 1.0696431543e+00	 4.4896106119e-02	 1.9029390243e+00
 1.0692243162e+00	 5.3958286238e-02	 1.7063458480e+00
 1.0687269540e+00	 6.3046183148e-02	 1.5676408002e+00
 1.0681503603e+00	 7.2158932343e-02	 1.4829935815e+00
 1.0674938383e+00	 8.1295652086e-02	 1.4484753727e+00
 1.0667567025e+00	 9.0455443500e-02	 1.4600656170e+00
 1.0794078160e+00	 0.0000000000e+00	 5.1802908548e+00
 1.0793703411e+00	 8.9947580632e-03	 4.4884088972e+00
 1.0792574058e+00	 1.8019540047e-02	 3.8799203958e+00
 1.0790682500e+00	 2.7073562140e-02	 3.3520093126e+00
 1.0788021224e+00	 3.6156022882e-02	 2.9018848032e+00
 1.0784582803e+00	 4.5266103188e-02	 2.5267902714e+00
 1.0780359905e+00	 5.4402966401e-02	 2.2240123733e+00
 1.0775345294e+00	 6.3565758341e-02	 1.9908899725e+00
 1.0769531839e+00	 7.2753607379e-02	 1.8248230602e+00
 1.0762912514e+00	 8.1965624510e-02	 1.7232816524e+00
 1.0755480407e+00	 9.1200903452e-02	 1.6838146804e+00
 1.0882307108e+00	 0.0000000000e+00	 6.5710652452e+00
 1.0881929296e+00	 9.0682796764e-03	 5.8120442931e+00
 1.0880790712e+00	 1.8166828684e-02	 5.1088844752e+00
 1.0878883693e+00	 2.7294856805e-02	 4.4647384929e+00
 1.0876200664e+00	 3.6451556027e-02	 3.8829634593e+00
 1.0872734138e+00	 4.5636100571e-02	 3.3671264151e+00
 1.0868476722e+00	 5.4847646941e-02	 2.9210094609e+00
 1.0863421123e+00	 6.4085333976e-02	 2.5486145073e+00
 1.0857560150e+00	 7.3348282920e-02	 2.2541676528e+00
 1.0850886720e+00	 8.2635597504e-02	 2.0421232017e+00
 1.0843393864e+00	 9.1946364036e-02	 1.9171673382e+00
 9.9642417327e-01	 8.4491609256e-02	-2.3520366436e+00
 9.9565957252e-01	 9.3069636226e-02	-2.5946950465e+00
 9.9481839835e-01	 1.0166747288e-01	-2.6585897556e+00
 9.9390004351e-01	 1.1028421068e-01	-2.5853215734e+00
 9.9290391285e-01	 1.1891892497e-01	-2.4163769750e+00
 9.9182942379e-01	 1.2757067517e-01	-2.1930829244e+00
 9.9067600676e-01	 1.3623850489e-01	-1.9565608996e+00
 9.8944310564e-01	 1.4492144212e-01	-1.7476801497e+00
 9.8813017818e-01	 1.5361849940e-01	-1.6070102069e+00
 9.8673669648e-01	 1.6232867404e-01	-1.5747726795e+00
 9.8526214738e-01	 1.7105094831e-01	-1.6907923532e+00
 1.0052160794e+00	 8.5237117371e-02	-1.4801444451e+00
 1.0044447323e+00	 9.3890832195e-02	-1.6603188507e+00
 1.0035961360e+00	 1.0256453149e-01	-1.7158141631e+00
 1.0026696781e+00	 1.1125729871e-01	-1.6778561074e+00
 1.0016647582e+00	 1.1996820103e-01	-1.5774895146e+00
 1.0005807884e+00	 1.2869628959e-01	-1.4455449620e+00
 9.9941719423e-01	 1.3744059953e-01	-1.3126049763e+00
 9.9817341465e-01	 1.4620015028e-01	-1.2089698108e+00
 9.9684890263e-01	 1.5497394568e-01	-1.1646228081e+00
 9.9544312560e-01	 1.6376097417e-01	-1.2091953638e+00
 9.9395556588e-01	 1.7256020906e-01	-1.3719315023e+00
 1.0140078536e+00	 8.5982614290e-02	-7.6641873727e-01
 1.0132297601e+00	 9.4712015832e-02	-8.8670401079e-01
 1.0123737419e+00	 1.0346157664e-01	-9.2777047403e-01
 1.0114391811e+00	 1.1223037213e-01	-9.1221781441e-01
 1.0104254719e+00	 1.2101746134e-01	-8.6241875321e-01
 1.0093320216e+00	 1.2982188710e-01	-8.0049585416e-01
 1.0081582504e+00	 1.3864267612e-01	-7.4829818370e-01
 1.0069035926e+00	 1.4747883925e-01	-7.2737782532e-01
 1.0055674962e+00	 1.5632937160e-01	-7.5896624970e-01
 1.0041494240e+00	 1.6519325279e-01	-8.6395054242e-01
 1.0026488538e+00	 1.7406944714e-01	-1.0628494907e+00
 1.0227995132e+00	 8.6728101492e-02	-1.8728148561e-01
 1.0220146734e+00	 9.5533188766e-02	-2.5316435661e-01
 1.0211512334e+00	 1.0435861009e-01	-2.7665035436e-01
 1.0202085697e+00	 1.1320343286e-01	-2.7341621393e-01
 1.0191860715e+00	 1.2206670797e-01	-2.5888571923e-01
 1.0180831407e+00	 1.3094746993e-01	-2.4821504896e-01
 1.0168991927e+00	 1.3984473704e-01	-2.5627820132e-01
 1.0156336567e+00	 1.4875751154e-01	-2.9765249084e-01
 1.0142859761e+00	 1.5768477986e-01	-3.8660410955e-01
 1.0128556089e+00	 1.6662551275e-01	-5.3707374384e-01
 1.0113420285e+00	 1.7557866555e-01	-7.6266223749e-01
 1.0315910756e+00	 8.7473580456e-02	 2.8003685707e-01
 1.0307994897e+00	 9.6354352626e-02	 2.6027468763e-01
 1.0299286279e+00	 1.0525563362e-01	 2.5473925913e-01
 1.0289778614e+00	 1.1417648284e-01	 2.5301812363e-01
 1.0279465742e+00	 1.2311594301e-01	 2.4495807638e-01
 1.0268341631e+00	 1.3207304034e-01	 2.2067287772e-01
 1.0256400384e+00	 1.4104678467e-01	 1.7055073076e-01
 1.0243636244e+00	 1.5003616971e-01	 8.5261529847e-02
 1.0230043596e+00	 1.5904017314e-01	-4.4236103723e-02
 1.0215616976e+00	 1.6805775688e-01	-2.2668798089e-01
 1.0200351071e+00	 1.7708786729e-01	-4.7053767941e-01
 1.0403825583e+00	 8.8219052661e-02	 6.5753123708e-01
 1.0395842263e+00	 9.7175509039e-02	 6.7290588984e-01
 1.0387059428e+00	 1.0615264903e-01	 6.8300187002e-01
 1.0377470737e+00	 1.1514952401e-01	 6.8105530343e-01
 1.0367069976e+00	 1.2416516854e-01	 6.6054853871e-01
 1.0355851062e+00	 1.3319860053e-01	 6.1521251769e-01
 1.0343808048e+00	 1.4224882141e-01	 5.3902879710e-01
 1.0330935129e+00	 1.5131481628e-01	 4.2623124386e-01
 1.0317226641e+00	 1.6039555413e-01	 2.7130742843e-01
 1.0302677074e+00	 1.6948998802e-01	 6.8999742363e-02
 1.0287281069e+00	 1.7859705534e-01	-1.8569373164e-01
 1.0491739787e+00	 8.8964519584e-02	 9.6645417755e-01
 1.0483689007e+00	 9.7996659635e-02	 1.0033684962e+00
 1.0474831955e+00	 1.0704965808e-01	 1.0241758400e+00
 1.0465162238e+00	 1.1612255827e-01	 1.0241867416e+00
 1.0454673588e+00	 1.2521438663e-01	 9.9892599139e-01
 1.0443359873e+00	 1.3432415275e-01	 9.4413121353e-01
 1.0431215094e+00	 1.4345084964e-01	 8.5575104835e-01
 1.0418233396e+00	 1.5259345380e-01	 7.2994297072e-01
 1.0404409069e+00	 1.6175092552e-01	 5.6307077561e-01
 1.0389736555e+00	 1.7092220902e-01	 3.5170176449e-01
 1.0374210451e+00	 1.8010623270e-01	 9.2603668251e-02
 1.0579653543e+00	 8.9709982704e-02	 1.2273463477e+00
 1.0571535302e+00	 9.8817806043e-02	 1.2696751046e+00
 1.0562604034e+00	 1.0794666255e-01	 1.2937575888e+00
 1.0552853291e+00	 1.1709558758e-01	 1.2954447734e+00
 1.0542276754e+00	 1.2626359937e-01	 1.2707513354e+00
 1.0530868237e+00	 1.3544969924e-01	 1.2158519707e+00
 1.0518621693e+00	 1.4465287173e-01	 1.1270773307e+00
 1.0505531217e+00	 1.5387208479e-01	 1.0009096148e+00
 1.0491591052e+00	 1.6310629000e-01	 8.3397785791e-01
 1.0476795592e+00	 1.7235442272e-01	 6.2305295075e-01
 1.0461139390e+00	 1.8161540236e-01	 3.6504243781e-01
 1.0667567025e+00	 9.0455443500e-02	 1.4600656170e+00
 1.0659381324e+00	 9.9638949891e-02	 1.4892372075e+00
 1.0650375840e+00	 1.0884366423e-01	 1.5067236469e+00
 1.0640544072e+00	 1.1806861385e-01	 1.5074212942e+00
 1.0629879647e+00	 1.2731280884e-01	 1.4863214130e+00
 1.0618376329e+00	 1.3657524221e-01	 1.4385057377e+00
 1.0606028020e+00	 1.4585489007e-01	 1.3591417331e+00
 1.0592828766e+00	 1.5515071180e-01	 1.2434775897e+00
 1.0578772763e+00	 1.6446165025e-01	 1.0868369963e+00
 1.0563854358e+00	 1.7378663194e-01	 8.8461373583e-01
 1.0548068057e+00	 1.8312456732e-01	 6.3226615309e-01
 1.0755480407e+00	 9.1200903452e-02	 1.6838146804e+00
 1.0747227247e+00	 1.0046009281e-01	 1.6788894803e+00
 1.0738147547e+00	 1.0974066489e-01	 1.6775516272e+00
 1.0728234753e+00	 1.1904163902e-01	 1.6722854880e+00
 1.0717482441e+00	 1.2836201712e-01	 1.6555836226e+00
 1.0705884322e+00	 1.3770078391e-01	 1.6199430901e+00
 1.0693434248e+00	 1.4705690705e-01	 1.5578615802e+00
 1.0680126217e+00	 1.5642933736e-01	 1.4618334136e+00
 1.0665954375e+00	 1.6581700897e-01	 1.3243454618e+00
 1.0650913025e+00	 1.7521883955e-01	 1.1378730336e+00
 1.0634996626e+00	 1.8463373057e-01	 8.9487578237e-01
 1.0843393864e+00	 9.1946364036e-02	 1.9171673382e+00
 1.0835073244e+00	 1.0128123642e-01	 1.8549128870e+00
 1.0825919328e+00	 1.1063766632e-01	 1.8202401766e+00
 1.0815925508e+00	 1.2001466501e-01	 1.8018006963e+00
 1.0805085309e+00	 1.2941122629e-01	 1.7881498267e+00
 1.0793392389e+00	 1.3882632656e-01	 1.7677453536e+00
 1.0780840550e+00	 1.4825892506e-01	 1.7289459961e+00
 1.0767423742e+00	 1.5770796401e-01	 1.6600099953e+00
 1.0753136062e+00	 1.6717236883e-01	 1.5490938170e+00
 1.0737971766e+00	 1.7665104837e-01	 1.3842510213e+00
 1.0721925270e+00	 1.8614289510e-01	 1.1534313541e+00
 9.8526214738e-01	 1.7105094831e-01	-1.6907923532e+00
 9.8370630427e-01	 1.7978280468e-01	-1.8898799863e+00
 9.8206844073e-01	 1.8852468015e-01	-2.0764380880e+00
 9.8034808995e-01	 1.9727551623e-01	-2.2440878214e+00
 9.7854480164e-01	 2.0603424041e-01	-2.3862389235e+00
 9.7665814235e-01	 2.1479976648e-01	-2.4960926549e+00
 9.7468769596e-01	 2.2357099480e-01	-2.5666448438e+00
 9.7263306406e-01	 2.3234681259e-01	-2.5906890011e+00
 9.7049386637e-01	 2.4112609427e-01	-2.5608194781e+00
 9.6826974115e-01	 2.4990770180e-01	-2.4694346442e+00
 9.6596034556e-01	 2.5869048500e-01	-2.3087400571e+00
 9.9395556588e-01	 1.7256020906e-01	-1.3719315023e+00
 9.9238599486e-01	 1.8136911059e-01	-1.5883663706e+00
 9.9073367969e-01	 1.9018811962e-01	-1.7730235759e+00
 9.8899814948e-01	 1.9901616833e-01	-1.9231071986e+00
 9.8717894993e-01	 2.0785217474e-01	-2.0356979777e+00
 9.8527564378e-01	 2.1669504306e-01	-2.1077534628e+00
 9.8328781124e-01	 2.2554366393e-01	-2.1361080699e+00
 9.8121505038e-01	 2.3439691478e-01	-2.1174730164e+00
 9.7905697758e-01	 2.4325366008e-01	-2.0484361058e+00
 9.7681322788e-01	 2.5211275175e-01	-1.9254613368e+00
 9.7448345545e-01	 2.6097302946e-01	-1.7448883115e+00
 1.0026488538e+00	 1.7406944714e-01	-1.0628494907e+00
 1.0010655551e+00	 1.8295539268e-01	-1.2920090542e+00
 9.9939878854e-01	 1.9185153412e-01	-1.4744567196e+00
 9.9764807911e-01	 2.0075679429e-01	-1.6102766245e+00
 9.9581296856e-01	 2.0967008177e-01	-1.6995014358e+00
 9.9389301581e-01	 2.1859029117e-01	-1.7421103007e+00
 9.9188779738e-01	 2.2751630344e-01	-1.7380265448e+00
 9.8979690784e-01	 2.3644698618e-01	-1.6871150872e+00
 9.8761996020e-01	 2.4538119393e-01	-1.5891795432e+00
 9.8535658633e-01	 2.5431776858e-01	-1.4439589890e+00
 9.8300643735e-01	 2.6325553964e-01	-1.2511243595e+00
 1.0113420285e+00	 1.7557866555e-01	-7.6266223749e-01
 1.0097450022e+00	 1.8454165409e-01	-1.0006560323e+00
 1.0080637845e+00	 1.9351492693e-01	-1.1810566972e+00
 1.0062978960e+00	 2.0249739757e-01	-1.3061432447e+00
 1.0044468747e+00	 2.1148796511e-01	-1.3781991977e+00
 1.0025102755e+00	 2.2048551459e-01	-1.3995089302e+00
 1.0004876714e+00	 2.2948891725e-01	-1.3723536290e+00
 9.9837865345e-01	 2.3849703086e-01	-1.2990068412e+00
 9.9618283122e-01	 2.4750870006e-01	-1.1817295792e+00
 9.9389983343e-01	 2.5652275667e-01	-1.0227649528e+00
 9.9152930816e-01	 2.6553802007e-01	-8.2433230144e-01
 1.0200351071e+00	 1.7708786729e-01	-4.7053767941e-01
 1.0184243535e+00	 1.8612789797e-01	-7.1418353657e-01
 1.0167286846e+00	 1.9517830137e-01	-8.9315583443e-01
 1.0149476173e+00	 2.0423798161e-01	-1.0112603464e+00
 1.0130806854e+00	 2.1330582836e-01	-1.0723477621e+00
 1.0111274400e+00	 2.2238071706e-01	-1.0803090022e+00
 1.0090874505e+00	 2.3146150925e-01	-1.0390700570e+00
 1.0069603042e+00	 2.4054705289e-01	-9.5258631191e-01
 1.0047456076e+00	 2.4963618268e-01	-8.2483632922e-01
 1.0024429861e+00	 2.5872772040e-01	-6.5981505296e-01
 1.0000520848e+00	 2.6782047528e-01	-4.6152640786e-01
 1.0287281069e+00	 1.7859705534e-01	-1.8569373164e-01
 1.0271036260e+00	 1.8771412747e-01	-4.3249494424e-01
 1.0253935062e+00	 1.9684166072e-01	-6.1109908339e-01
 1.0235972602e+00	 2.0597854987e-01	-7.2618705337e-01
 1.0217144178e+00	 2.1512367513e-01	-7.8250981064e-01
 1.0197445264e+00	 2.2427590234e-01	-7.8488322992e-01
 1.0176871515e+00	 2.3343408337e-01	-7.3818242656e-01
 1.0155418772e+00	 2.4259705633e-01	-6.4733549801e-01
 1.0133083064e+00	 2.5176364600e-01	-5.1731664862e-01
 1.0109860614e+00	 2.6093266413e-01	-3.5313866359e-01
 1.0085747842e+00	 2.7010290979e-01	-1.5984470006e-01
 1.0374210451e+00	 1.8010623270e-01	 9.2603668251e-02
 1.0357828370e+00	 1.8930034574e-01	-1.5551971973e-01
 1.0340582665e+00	 1.9850500829e-01	-3.3524350197e-01
 1.0322468419e+00	 2.0771910580e-01	-4.5148800804e-01
 1.0303480891e+00	 2.1694150902e-01	-5.0925378201e-01
 1.0283615517e+00	 2.2617107421e-01	-5.1361656999e-01
 1.0262867917e+00	 2.3540664351e-01	-4.6972172746e-01
 1.0241233894e+00	 2.4464704525e-01	-3.8277800628e-01
 1.0218709445e+00	 2.5389109426e-01	-2.5805068215e-01
 1.0195290761e+00	 2.6313759225e-01	-1.0085398572e-01
 1.0170974231e+00	 2.7238532814e-01	 8.3457197994e-02
 1.0461139390e+00	 1.8161540236e-01	 3.6504243781e-01
 1.0444620038e+00	 1.9088655592e-01	 1.1678761221e-01
 1.0427229825e+00	 2.0016834737e-01	-6.5957735358e-02
 1.0408963794e+00	 2.0945965286e-01	-1.8773304251e-01
 1.0389817163e+00	 2.1875933364e-01	-2.5315343712e-01
 1.0369785331e+00	 2.2806623640e-01	-2.6690541095e-01
 1.0348863879e+00	 2.3737919359e-01	-2.3374190615e-01
 1.0327048578e+00	 2.4669702371e-01	-1.5847677090e-01
 1.0304335389e+00	 2.5601853167e-01	-4.5978541729e-02
 1.0280720472e+00	 2.6534250911e-01	 9.8836488182e-02
 1.0256200187e+00	 2.7466773484e-01	 2.7101195300e-01
 1.0548068057e+00	 1.8312456732e-01	 6.3226615309e-01
 1.0531411436e+00	 1.9247276115e-01	 3.8444846439e-01
 1.0513876715e+00	 2.0183168127e-01	 1.9637850140e-01
 1.0495458899e+00	 2.1120019449e-01	 6.4503161736e-02
 1.0476153166e+00	 2.2057715259e-01	-1.4787415491e-02
 1.0455954876e+00	 2.2996139269e-01	-4.5156768193e-02
 1.0434859574e+00	 2.3935173753e-01	-3.0318464930e-02
 1.0412862995e+00	 2.4874699579e-01	 2.5968154139e-02
 1.0389961067e+00	 2.5814596244e-01	 1.1990289525e-01
 1.0366149917e+00	 2.6754741911e-01	 2.4765033255e-01
 1.0341425876e+00	 2.7695013443e-01	 4.0534617551e-01
 1.0634996626e+00	 1.8463373057e-01	 8.9487578237e-01
 1.0618202734e+00	 1.9405896458e-01	 6.4746115728e-01
 1.0600523507e+00	 2.0349501329e-01	 4.5137493950e-01
 1.0581953907e+00	 2.1294073414e-01	 3.0464142422e-01
 1.0562489071e+00	 2.2239496948e-01	 2.0526121655e-01
 1.0542124324e+00	 2.3185654683e-01	 1.5121251454e-01
 1.0520855171e+00	 2.4132427923e-01	 1.4045290650e-01
 1.0498677314e+00	 2.5079696554e-01	 1.7092173438e-01
 1.0475586647e+00	 2.6027339081e-01	 2.4054307393e-01
 1.0451579266e+00	 2.6975232661e-01	 3.4722938042e-01
 1.0426651469e+00	 2.7923253144e-01	 4.8888584689e-01
 1.0721925270e+00	 1.8614289510e-01	 1.1534313541e+00
 1.0704994107e+00	 1.9564516936e-01	 9.0580186329e-01
 1.0687170373e+00	 2.0515834672e-01	 6.9863127127e-01
 1.0668448987e+00	 2.1468127528e-01	 5.3209842565e-01
 1.0648825050e+00	 2.2421278792e-01	 4.0640542549e-01
 1.0628293844e+00	 2.3375170258e-01	 3.2177655774e-01
 1.0606850842e+00	 2.4329682261e-01	 2.7845766909e-01
 1.0584491706e+00	 2.5284693703e-01	 2.7671602954e-01
 1.0561212300e+00	 2.6240082098e-01	 3.1684074290e-01
 1.0537008686e+00	 2.7195723598e-01	 3.9914375808e-01
 1.0511877135e+00	 2.8151493038e-01	 5.2396153297e-01
 9.6596034556e-01	 2.5869048500e-01	-2.3087400571e+00
 9.6356535632e-01	 2.6747328204e-01	-2.0925840942e+00
 9.6108447067e-01	 2.7625492019e-01	-1.8452492441e+00
 9.5851740614e-01	 2.8503421588e-01	-1.5746220360e+00
 9.5586390071e-01	 2.9380997494e-01	-1.2888102051e+00
 9.5312371316e-01	 3.0258099304e-01	-9.9613088466e-01
 9.5029662344e-01	 3.1134605611e-01	-7.0509786163e-01
 9.4738243296e-01	 3.2010394073e-01	-4.2440788985e-01
 9.4438096497e-01	 3.2885341468e-01	-1.6292605900e-01
 9.4129206486e-01	 3.3759323727e-01	 7.0329777994e-02
 9.3811560045e-01	 3.4632215993e-01	 2.6620551163e-01
 9.7448345545e-01	 2.6097302946e-01	-1.7448883115e+00
 9.7206733412e-01	 2.6983332113e-01	-1.5266692594e+00
 9.6956455848e-01	 2.7869244369e-01	-1.2967029754e+00
 9.6697484357e-01	 2.8754920312e-01	-1.0602329550e+00
 9.6429792505e-01	 2.9640239472e-01	-8.2259865989e-01
 9.6153355958e-01	 3.0525080353e-01	-5.8922515196e-01
 9.5868152515e-01	 3.1409320475e-01	-3.6561194900e-01
 9.5574162144e-01	 3.2292836420e-01	-1.5732109557e-01
 9.5271367013e-01	 3.3175503876e-01	 3.0035552998e-02
 9.4959751524e-01	 3.4057197680e-01	 1.9080983099e-01
 9.4639302343e-01	 3.4937791874e-01	 3.1933154045e-01
 9.8300643735e-01	 2.6325553964e-01	-1.2511243595e+00
 9.8056918426e-01	 2.7219332478e-01	-1.0346516348e+00
 9.7804451896e-01	 2.8112993059e-01	-8.2084186844e-01
 9.7543215400e-01	 2.9006415260e-01	-6.1280120848e-01
 9.7273182274e-01	 2.9899477557e-01	-4.1363029943e-01
 9.6994327971e-01	 3.0792057392e-01	-2.2641508939e-01
 9.6706630095e-01	 3.1684031214e-01	-5.4216978950e-02
 9.6410068439e-01	 3.2575274526e-01	 9.9937694845e-02
 9.6104625015e-01	 3.3465661926e-01	 2.3306884206e-01
 9.5790284089e-01	 3.4355067160e-01	 3.4225446922e-01
 9.5467032212e-01	 3.5243363166e-01	 4.2464318824e-01
 9.9152930816e-01	 2.6553802007e-01	-8.2433230144e-01
 9.8907092358e-01	 2.7455329767e-01	-6.1267018731e-01
 9.8652436891e-01	 2.8356738572e-01	-4.1356548265e-01
 9.8388935420e-01	 2.9257906930e-01	-2.2848036390e-01
 9.8116561051e-01	 3.0158712263e-01	-5.8793400378e-02
 9.7835289023e-01	 3.1059030952e-01	 9.4208730573e-02
 9.7545096747e-01	 3.1958738373e-01	 2.2934010369e-01
 9.7245963839e-01	 3.2857708950e-01	 3.4552498849e-01
 9.6937872157e-01	 3.3755816195e-01	 4.4180787787e-01
 9.6620805830e-01	 3.4652932758e-01	 5.1736410179e-01
 9.6294751292e-01	 3.5548930476e-01	 5.7151102040e-01
 1.0000520848e+00	 2.6782047528e-01	-4.6152640786e-01
 9.9757256896e-01	 2.7691324449e-01	-2.5701843086e-01
 9.9500412515e-01	 2.8600481391e-01	-7.0934829611e-02
 9.9234646095e-01	 2.9509395820e-01	 9.6424711635e-02
 9.8959930508e-01	 3.0417944105e-01	 2.4489924216e-01
 9.8676240782e-01	 3.1326001561e-01	 3.7447418291e-01
 9.8383554133e-01	 3.2233442496e-01	 4.8528949344e-01
 9.8081850002e-01	 3.3140140253e-01	 5.7764837638e-01
 9.7771110092e-01	 3.4045967257e-01	 6.5202652350e-01
 9.7451318394e-01	 3.4950795064e-01	 7.0908190355e-01
 9.7122461225e-01	 3.5854494408e-01	 7.4966508723e-01
 1.0085747842e+00	 2.7010290979e-01	-1.5984470006e-01
 1.0060741373e+00	 2.7927316990e-01	 3.5863189587e-02
 1.0034838045e+00	 2.8844222001e-01	 2.1083571095e-01
 1.0008034910e+00	 2.9760882431e-01	 3.6546569239e-01
 9.9803292319e-01	 3.0677173596e-01	 5.0031721986e-01
 9.9517184916e-01	 3.1592969750e-01	 6.1613288556e-01
 9.9222003916e-01	 3.2508144128e-01	 7.1384155561e-01
 9.8917728587e-01	 3.3422568995e-01	 7.9456666658e-01
 9.8604340471e-01	 3.4336115689e-01	 8.5963505658e-01
 9.8281823426e-01	 3.5248654669e-01	 9.1058633197e-01
 9.7950163653e-01	 3.6160055570e-01	 9.4918276603e-01
 1.0170974231e+00	 2.7238532814e-01	 8.3457197994e-02
 1.0145756453e+00	 2.8163307860e-01	 2.6939458726e-01
 1.0119634238e+00	 2.9087960883e-01	 4.3538612953e-01
 1.0092604612e+00	 3.0012367260e-01	 5.8205830651e-01
 1.0064664815e+00	 3.0936401251e-01	 7.1021914017e-01
 1.0035812309e+00	 3.1859936047e-01	 8.2086530542e-01
 1.0006044776e+00	 3.2782843815e-01	 9.1518978810e-01
 9.9753601250e-01	 3.3704995737e-01	 9.9459009976e-01
 9.9437564948e-01	 3.4626262065e-01	 1.0606770564e+00
 9.9112322576e-01	 3.5546512164e-01	 1.1152841235e+00
 9.8777860218e-01	 3.6465614567e-01	 1.1604773251e+00
 1.0256200187e+00	 2.7466773484e-01	 2.7101195300e-01
 1.0230771100e+00	 2.8399297526e-01	 4.4686301514e-01
 1.0204429998e+00	 2.9331698523e-01	 6.0621819966e-01
 1.0177173882e+00	 3.0263850806e-01	 7.4948953922e-01
 1.0148999969e+00	 3.1195627583e-01	 8.7725899550e-01
 1.0119905698e+00	 3.2126900983e-01	 9.9028568597e-01
 1.0089888733e+00	 3.3057542100e-01	 1.0895137178e+00
 1.0058946965e+00	 3.3987421038e-01	 1.1760806427e+00
 1.0027078517e+00	 3.4916406961e-01	 1.2513265412e+00
 9.9942817490e-01	 3.5844368140e-01	 1.3168037410e+00
 9.9605552561e-01	 3.6771172006e-01	 1.3742871672e+00
 1.0341425876e+00	 2.7695013443e-01	 4.0534617551e-01
 1.0315785482e+00	 2.8635286457e-01	 5.7142975773e-01
 1.0289225495e+00	 2.9575435403e-01	 7.2670258432e-01
 1.0261742889e+00	 3.0515333568e-01	 8.7092454477e-01
 1.0233334860e+00	 3.1454853108e-01	 1.0039922875e+00
 1.0203998825e+00	 3.2393865087e-01	 1.1259468070e+00
 1.0173732428e+00	 3.3332239529e-01	 1.2369817355e+00
 1.0142533544e+00	 3.4269845458e-01	 1.3374523552e+00
 1.0110400280e+00	 3.5206550952e-01	 1.4278853422e+00
 1.0077330981e+00	 3.6142223187e-01	 1.5089892473e+00
 1.0043324232e+00	 3.7076728492e-01	 1.5816771688e+00
 1.0426651469e+00	 2.7923253144e-01	 4.8888584689e-01
 1.0400799768e+00	 2.8871275120e-01	 6.4613654989e-01
 1.0374020895e+00	 2.9819172007e-01	 8.0008565337e-01
 1.0346311799e+00	 3.0766816045e-01	 9.4941328396e-01
 1.0317669655e+00	 3.1714078338e-01	 1.0928819209e+00
 1.0288091856e+00	 3.2660828888e-01	 1.2293445864e+00
 1.0257576029e+00	 3.3606936646e-01	 1.3577538728e+00
 1.0226120029e+00	 3.4552269558e-01	 1.4771718265e+00
 1.0193721949e+00	 3.5496694615e-01	 1.5867806996e+00
 1.0160380120e+00	 3.6440077897e-01	 1.6858945794e+00
 1.0126093115e+00	 3.7382284632e-01	 1.7750442686e+00
 1.0511877135e+00	 2.8151493038e-01	 5.2396153297e-01
 1.0485814126e+00	 2.9107263984e-01	 6.7391173829e-01
 1.0458816367e+00	 3.0062908817e-01	 8.2949602888e-01
 1.0430880782e+00	 3.1018298736e-01	 9.8789690307e-01
 1.0402004521e+00	 3.1973303789e-01	 1.1463038800e+00
 1.0372184959e+00	 3.2927792916e-01	 1.3019225326e+00
 1.0341419700e+00	 3.3881633997e-01	 1.4519845251e+00
 1.0309706585e+00	 3.4834693899e-01	 1.5937586771e+00
 1.0277043688e+00	 3.5786838524e-01	 1.7245630693e+00
 1.0243429329e+00	 3.6737932860e-01	 1.8417782011e+00
 1.0208862068e+00	 3.7687841031e-01	 1.9469641186e+00
 9.3811560045e-01	 3.4632215993e-01	 2.6620551163e-01
 9.3485089983e-01	 3.5504040738e-01	 4.2536203979e-01
 9.3149840861e-01	 3.6374523066e-01	 5.5328572671e-01
 9.2805806304e-01	 3.7243535926e-01	 6.4854429113e-01
 9.2452982293e-01	 3.8110951670e-01	 7.1579961905e-01
 9.2091367195e-01	 3.8976642107e-01	 7.5849264232e-01
 9.1720961780e-01	 3.9840478557e-01	 7.7825489556e-01
 9.1341769248e-01	 4.0702331907e-01	 7.7699290399e-01
 9.0953795245e-01	 4.1562072663e-01	 7.5689151978e-01
 9.0557047888e-01	 4.2419571008e-01	 7.2041674016e-01
 9.0151537777e-01	 4.3274696861e-01	 6.7031798879e-01
 9.4639302343e-01	 3.4937791874e-01	 3.1933154045e-01
 9.4309951687e-01	 3.5817309127e-01	 4.2265942404e-01
 9.3971744509e-01	 3.6695472120e-01	 5.1019398647e-01
 9.3624674377e-01	 3.7572152678e-01	 5.8163409947e-01
 9.3268737239e-01	 3.8447222027e-01	 6.4289440458e-01
 9.2903931446e-01	 3.9320550847e-01	 6.9539887130e-01
 9.2530257775e-01	 4.0192009321e-01	 7.4005018729e-01
 9.2147719453e-01	 4.1061467198e-01	 7.7786302135e-01
 9.1756322178e-01	 4.1928793839e-01	 8.0996643923e-01
 9.1356074138e-01	 4.2793858285e-01	 8.3760599679e-01
 9.0946986025e-01	 4.3656529304e-01	 8.6214549601e-01
 9.5467032212e-01	 3.5243363166e-01	 4.2464318824e-01
 9.5134801004e-01	 3.6130572813e-01	 4.9044863993e-01
 9.4793635814e-01	 3.7016416353e-01	 5.5023503673e-01
 9.4443530154e-01	 3.7900764494e-01	 6.0662709572e-01
 9.4084479935e-01	 3.8783487335e-01	 6.6446302574e-01
 9.3716483494e-01	 3.9664454422e-01	 7.2412589835e-01
 9.3339541616e-01	 4.0543534806e-01	 7.8597397632e-01
 9.2953657555e-01	 4.1420597095e-01	 8.5034582134e-01
 9.2558837060e-01	 4.2295509508e-01	 9.1756192159e-01
 9.2155088388e-01	 4.3168139940e-01	 9.8792615084e-01
 9.1742422329e-01	 4.4038356013e-01	 1.0617270481e+00
 9.6294751292e-01	 3.5548930476e-01	 5.7151102040e-01
 9.5959639570e-01	 3.6443832415e-01	 6.1495950497e-01
 9.5615516407e-01	 3.7337356404e-01	 6.5784149369e-01
 9.5262375257e-01	 3.8229372027e-01	 7.0617816305e-01
 9.4900211999e-01	 3.9119748259e-01	 7.6233872927e-01
 9.4529024952e-01	 4.0008353515e-01	 8.2643924006e-01
 9.4148814909e-01	 4.0895055710e-01	 8.9847413029e-01
 9.3759585153e-01	 4.1779722311e-01	 9.7831723618e-01
 9.3361341482e-01	 4.2662220398e-01	 1.0657227644e+00
 9.2954092225e-01	 4.3542416717e-01	 1.1603262063e+00
 9.2537848265e-01	 4.4420177745e-01	 1.2616451882e+00
 9.7122461225e-01	 3.5854494408e-01	 7.4966508723e-01
 9.6784469021e-01	 3.6757088555e-01	 7.8289182883e-01
 9.6437387917e-01	 3.7658292907e-01	 8.1843059713e-01
 9.6081211312e-01	 3.8557975929e-01	 8.6356036266e-01
 9.5715935048e-01	 3.9456005467e-01	 9.1900227886e-01
 9.5341557431e-01	 4.0352248808e-01	 9.8475549886e-01
 9.4958079259e-01	 4.1246572728e-01	 1.0606275287e+00
 9.4565503845e-01	 4.2138843558e-01	 1.1462346389e+00
 9.4163837035e-01	 4.3028927234e-01	 1.2410023030e+00
 9.3753087232e-01	 4.3916689358e-01	 1.3441656531e+00
 9.3333265411e-01	 4.4801995257e-01	 1.4547699482e+00
 9.7950163653e-01	 3.6160055570e-01	 9.4918276603e-01
 9.7609290993e-01	 3.7070341855e-01	 9.8140548425e-01
 9.7259251976e-01	 3.7979226501e-01	 1.0173422414e+00
 9.6900039943e-01	 3.8886576851e-01	 1.0626394946e+00
 9.6531650701e-01	 3.9792259627e-01	 1.1175552309e+00
 9.6154082542e-01	 4.0696140982e-01	 1.1821154406e+00
 9.5767336271e-01	 4.1598086559e-01	 1.2561140239e+00
 9.5371415229e-01	 4.2497961549e-01	 1.3391127635e+00
 9.4966325312e-01	 4.3395630746e-01	 1.4304413577e+00
 9.4552074994e-01	 4.4290958605e-01	 1.5291975033e+00
 9.4128675344e-01	 4.5183809307e-01	 1.6342470248e+00
 9.8777860218e-01	 3.6465614567e-01	 1.1604773251e+00
 9.8434107123e-01	 3.7383592935e-01	 1.1990010325e+00
 9.8081110212e-01	 3.8300157821e-01	 1.2404309570e+00
 9.7718862773e-01	 3.9215175446e-01	 1.2878499011e+00
 9.7347360575e-01	 4.0128511404e-01	 1.3416945149e+00
 9.6966601897e-01	 4.1040030719e-01	 1.4021583846e+00
 9.6576587551e-01	 4.1949597900e-01	 1.4691916674e+00
 9.6177320904e-01	 4.2857076996e-01	 1.5425007884e+00
 9.5768807905e-01	 4.3762331660e-01	 1.6215481894e+00
 9.5351057097e-01	 4.4665225201e-01	 1.7055521240e+00
 9.4924079643e-01	 4.5565620653e-01	 1.7934864906e+00
 9.9605552561e-01	 3.6771172006e-01	 1.3742871672e+00
 9.9258919045e-01	 3.7696842418e-01	 1.4245942389e+00
 9.8902964256e-01	 3.8621087504e-01	 1.4740483555e+00
 9.8537681426e-01	 3.9543772364e-01	 1.5241714387e+00
 9.8163066289e-01	 4.0464761466e-01	 1.5756882426e+00
 9.7779117108e-01	 4.1383918703e-01	 1.6290978287e+00
 9.7385834702e-01	 4.2301107448e-01	 1.6846731271e+00
 9.6983222469e-01	 4.3216190611e-01	 1.7424605148e+00
 9.6571286404e-01	 4.4129030703e-01	 1.8022794031e+00
 9.6150035124e-01	 4.5039489888e-01	 1.8637218240e+00
 9.5719479885e-01	 4.5947430050e-01	 1.9261520110e+00
 1.0043324232e+00	 3.7076728492e-01	 1.5816771688e+00
 1.0008372840e+00	 3.8010090925e-01	 1.6469797945e+00
 9.9724815739e-01	 3.8942016187e-01	 1.7050232479e+00
 9.9356497527e-01	 3.9872368258e-01	 1.7571075535e+00
 9.8978769460e-01	 4.0801010480e-01	 1.8043526737e+00
 9.8591629786e-01	 4.1727805615e-01	 1.8476982386e+00
 9.8195079332e-01	 4.2652615900e-01	 1.8879032259e+00
 9.7789121521e-01	 4.3575303107e-01	 1.9255455782e+00
 9.7373762401e-01	 4.4495728603e-01	 1.9610217461e+00
 9.6949010660e-01	 4.5413753408e-01	 1.9945461474e+00
 9.6514877647e-01	 4.6329238258e-01	 2.0261505358e+00
 1.0126093115e+00	 3.7382284632e-01	 1.7750442686e+00
 1.0090853681e+00	 3.8323339076e-01	 1.8553451892e+00
 1.0054666629e+00	 3.9262944505e-01	 1.9206427029e+00
 1.0017531270e+00	 4.0200963779e-01	 1.9726643937e+00
 9.9794471706e-01	 4.1137259112e-01	 2.0130302733e+00
 9.9404141543e-01	 4.2071692137e-01	 2.0432529342e+00
 9.9004323043e-01	 4.3004123953e-01	 2.0647375392e+00
 9.8595019660e-01	 4.3934415195e-01	 2.0787816309e+00
 9.8176237489e-01	 4.4862426087e-01	 2.0865747479e+00
 9.7747985291e-01	 4.5788016503e-01	 2.0891978351e+00
 9.7310274507e-01	 4.6711046032e-01	 2.0876224387e+00
 1.0208862068e+00	 3.7687841031e-01	 1.9469641186e+00
 1.0173334593e+00	 3.8636587493e-01	 2.0392553582e+00
 1.0136851754e+00	 3.9583873097e-01	 2.1086339918e+00
 1.0099412857e+00	 4.0529559579e-01	 2.1573309019e+00
 1.0061017465e+00	 4.1473508031e-01	 2.1875687968e+00
 1.0021665399e+00	 4.2415578950e-01	 2.2015630102e+00
 9.9813567443e-01	 4.3355632305e-01	 2.2015219882e+00
 9.9400918483e-01	 4.4293527589e-01	 2.1896474429e+00
 9.8978713259e-01	 4.5229123883e-01	 2.1681341556e+00
 9.8546960600e-01	 4.6162279917e-01	 2.1391694156e+00
 9.8105672044e-01	 4.7092854131e-01	 2.1049320800e+00
 9.0151537777e-01	 4.3274696861e-01	 6.7031798879e-01
 8.9737349163e-01	 4.4127175214e-01	 6.0361587608e-01
 8.9314429419e-01	 4.4977021217e-01	 5.1982625008e-01
 8.8882796619e-01	 4.5824104362e-01	 4.2555431429e-01
 8.8442471375e-01	 4.6668294105e-01	 3.2722399017e-01
 8.7993476851e-01	 4.7509459936e-01	 2.3106667383e-01
 8.7535838762e-01	 4.8347471433e-01	 1.4310992576e-01
 8.7069585389e-01	 4.9182198323e-01	 6.9166114590e-02
 8.6594747579e-01	 5.0013510550e-01	 1.4821037892e-02
 8.6111358749e-01	 5.0841278331e-01	-1.4577455407e-02
 8.5619454885e-01	 5.1665372221e-01	-1.3930814926e-02
 9.0946986025e-01	 4.3656529304e-01	 8.6214549601e-01
 9.0529142836e-01	 4.4516529463e-01	 8.7467972378e-01
 9.0102491477e-01	 4.5373874046e-01	 8.6893623447e-01
 8.9667050184e-01	 4.6228431392e-01	 8.5022751917e-01
 8.9222839749e-01	 4.7080069808e-01	 8.2375482424e-01
 8.8769883541e-01	 4.7928657630e-01	 7.9459904566e-01
 8.8308207502e-01	 4.8774063285e-01	 7.6771146536e-01
 8.7837840162e-01	 4.9616155352e-01	 7.4790434655e-01
 8.7358812641e-01	 5.0454802626e-01	 7.3984140704e-01
 8.6871158650e-01	 5.1289874181e-01	 7.4802819152e-01
 8.6374914493e-01	 5.2121239428e-01	 7.7680236552e-01
 9.1742422329e-01	 4.4038356013e-01	 1.0617270481e+00
 9.1320924619e-01	 4.4905877865e-01	 1.1269869483e+00
 9.0890541702e-01	 4.5770720916e-01	 1.1743433922e+00
 9.0451291972e-01	 4.6632752351e-01	 1.2079231964e+00
 9.0003196405e-01	 4.7491839327e-01	 1.2318007407e+00
 8.9546278571e-01	 4.8347849028e-01	 1.2499907929e+00
 8.9080564643e-01	 4.9200648731e-01	 1.2664410984e+00
 8.8606083398e-01	 5.0050105864e-01	 1.2850247459e+00
 8.8122866229e-01	 5.0896088076e-01	 1.3095323257e+00
 8.7630947141e-01	 5.1738463294e-01	 1.3436638990e+00
 8.7130362757e-01	 5.2577099790e-01	 1.3910207966e+00
 9.2537848265e-01	 4.4420177745e-01	 1.2616451882e+00
 9.2112696081e-01	 4.5295221193e-01	 1.3569655491e+00
 9.1678581655e-01	 4.6167562613e-01	 1.4360199304e+00
 9.1235523538e-01	 4.7037068041e-01	 1.5018545883e+00
 9.0783542889e-01	 4.7903603480e-01	 1.5575111355e+00
 9.0322663483e-01	 4.8767034963e-01	 1.6060210941e+00
 8.9852911717e-01	 4.9627228617e-01	 1.6504001459e+00
 8.9374316621e-01	 5.0484050721e-01	 1.6936420901e+00
 8.8886909858e-01	 5.1337367775e-01	 1.7387125225e+00
 8.8390725729e-01	 5.2187046562e-01	 1.7885422494e+00
 8.7885801174e-01	 5.3032954210e-01	 1.8460204547e+00
 9.3333265411e-01	 4.4801995257e-01	 1.4547699482e+00
 9.2904458795e-01	 4.5684560217e-01	 1.5612007100e+00
 9.2466612900e-01	 4.6564399924e-01	 1.6539751252e+00
 9.2019746438e-01	 4.7441379262e-01	 1.7351621465e+00
 9.1563880750e-01	 4.8315363082e-01	 1.8068630717e+00
 9.1099039814e-01	 4.9186216266e-01	 1.8712076229e+00
 9.0625250257e-01	 5.0053803789e-01	 1.9303496688e+00
 9.0142541355e-01	 5.0917990782e-01	 1.9864625989e+00
 8.9650945044e-01	 5.1778642597e-01	 2.0417343599e+00
 8.9150495921e-01	 5.2635624872e-01	 2.0983621651e+00
 8.8641231243e-01	 5.3488803594e-01	 2.1585468948e+00
 9.4128675344e-01	 4.5183809307e-01	 1.6342470248e+00
 9.3696214329e-01	 4.6073895712e-01	 1.7364284215e+00
 9.3254636999e-01	 4.6961233637e-01	 1.8282539558e+00
 9.2803962227e-01	 4.7845686817e-01	 1.9109167424e+00
 9.2344211535e-01	 4.8727118950e-01	 1.9856686266e+00
 9.1875409106e-01	 4.9605393768e-01	 2.0538175911e+00
 9.1397581793e-01	 5.0480375093e-01	 2.1167247648e+00
 9.0910759122e-01	 5.1351926909e-01	 2.1758010399e+00
 9.0414973303e-01	 5.2219913419e-01	 2.2325033032e+00
 8.9910259224e-01	 5.3084199115e-01	 2.2883302952e+00
 8.9396654463e-01	 5.3944648844e-01	 2.3448181088e+00
 9.4924079643e-01	 4.5565620653e-01	 1.7934864906e+00
 9.4487964254e-01	 4.6463228448e-01	 1.8795293601e+00
 9.4042655516e-01	 4.7358064539e-01	 1.9589357412e+00
 9.3588172461e-01	 4.8249991508e-01	 2.0321226459e+00
 9.3124536793e-01	 4.9138871902e-01	 2.0995817952e+00
 9.2651772899e-01	 5.0024568300e-01	 2.1618781583e+00
 9.2169907858e-01	 5.0906943376e-01	 2.2196480640e+00
 9.1678971448e-01	 5.1785859961e-01	 2.2735968880e+00
 9.1178996149e-01	 5.2661181114e-01	 2.3244963219e+00
 9.0670017145e-01	 5.3532770181e-01	 2.3731812346e+00
 9.0152072331e-01	 5.4400490865e-01	 2.4205461374e+00
 9.5719479885e-01	 4.5947430050e-01	 1.9261520110e+00
 9.5279710140e-01	 4.6852559198e-01	 1.9875230121e+00
 9.4830670014e-01	 4.7754893417e-01	 2.0461327785e+00
 9.4372378695e-01	 4.8654294136e-01	 2.1017202845e+00
 9.3904858070e-01	 4.9550622753e-01	 2.1541049753e+00
 9.3428132731e-01	 5.0443740694e-01	 2.2031862451e+00
 9.2942229984e-01	 5.1333509482e-01	 2.2489424699e+00
 9.2447179856e-01	 5.2219790801e-01	 2.2914295949e+00
 9.1943015098e-01	 5.3102446559e-01	 2.3307792846e+00
 9.1429771191e-01	 5.3981338958e-01	 2.3671966420e+00
 9.0907486346e-01	 5.4856330561e-01	 2.4009575094e+00
 9.6514877647e-01	 4.6329238258e-01	 2.0261505358e+00
 9.6071453559e-01	 4.7241888735e-01	 2.0575620245e+00
 9.5618682055e-01	 4.8151721057e-01	 2.0899889820e+00
 9.5156582484e-01	 4.9058595505e-01	 2.1225887970e+00
 9.4685176915e-01	 4.9962372321e-01	 2.1545950587e+00
 9.4204490143e-01	 5.0862911782e-01	 2.1853177838e+00
 9.3714549703e-01	 5.1760074259e-01	 2.2141431903e+00
 9.3215385868e-01	 5.2653720287e-01	 2.2405330185e+00
 9.2707031665e-01	 5.3543710628e-01	 2.2640234061e+00
 9.2189522869e-01	 5.4429906338e-01	 2.2842233226e+00
 9.1662898006e-01	 5.5312168836e-01	 2.3008125762e+00
 9.7310274507e-01	 4.6711046032e-01	 2.0876224387e+00
 9.6863196080e-01	 4.7631217830e-01	 2.0869267730e+00
 9.6406693203e-01	 4.8548548248e-01	 2.0906785255e+00
 9.5940785384e-01	 4.9462896414e-01	 2.0975483932e+00
 9.5465494875e-01	 5.0374121422e-01	 2.1062691511e+00
 9.4980846675e-01	 5.1282082394e-01	 2.1156364387e+00
 9.4486868545e-01	 5.2186638553e-01	 2.1245090979e+00
 9.3983591010e-01	 5.3087649282e-01	 2.1318090621e+00
 9.3471047367e-01	 5.3984974197e-01	 2.1365208016e+00
 9.2949273685e-01	 5.4878473208e-01	 2.1376903334e+00
 9.2418308810e-01	 5.5768006594e-01	 2.1344238052e+00
 9.8105672044e-01	 4.7092854131e-01	 2.1049320800e+00
 9.7654939274e-01	 4.8020547255e-01	 2.0730201325e+00
 9.7194705020e-01	 4.8945375776e-01	 2.0484044841e+00
 9.6724988951e-01	 4.9867197668e-01	 2.0293625300e+00
 9.6245813498e-01	 5.0785870872e-01	 2.0142099416e+00
 9.5757203867e-01	 5.1701253362e-01	 2.0013018275e+00
 9.5259188044e-01	 5.2613203208e-01	 1.9890334598e+00
 9.4751796805e-01	 5.3521578645e-01	 1.9758405668e+00
 9.4235063717e-01	 5.4426238140e-01	 1.9601991980e+00
 9.3709025147e-01	 5.5327040460e-01	 1.9406251678e+00
 9.3173720256e-01	 5.6223844740e-01	 1.9156730905e+00
 8.5619454885e-01	 5.1665372221e-01	-1.3930814926e-02
 8.5119074566e-01	 5.2485663194e-01	 7.5911759191e-03
 8.4610259018e-01	 5.3302022751e-01	 3.6403460106e-02
 8.4093052051e-01	 5.4114322943e-01	 7.0707019777e-02
 8.3567500029e-01	 5.4922436409e-01	 1.0859363646e-01
 8.3033651862e-01	 5.5726236447e-01	 1.4804423007e-01
 8.2491558997e-01	 5.6525597072e-01	 1.8692722151e-01
 8.1941275406e-01	 5.7320393083e-01	 2.2299693718e-01
 8.1382857572e-01	 5.8110500120e-01	 2.5389207494e-01
 8.0816364470e-01	 5.8895794732e-01	 2.7713425171e-01
 8.0241857555e-01	 5.9676154436e-01	 2.9012665335e-01
 8.6374914493e-01	 5.2121239428e-01	 7.7680236552e-01
 8.5870119090e-01	 5.2948768203e-01	 8.1847149121e-01
 8.5356814030e-01	 5.3772330874e-01	 8.5966706681e-01
 8.4835043509e-01	 5.4591798361e-01	 8.9609377941e-01
 8.4304854300e-01	 5.5407042182e-01	 9.2347569207e-01
 8.3766295747e-01	 5.6217934515e-01	 9.3755887932e-01
 8.3219419749e-01	 5.7024348265e-01	 9.3411392840e-01
 8.2664280754e-01	 5.7826157124e-01	 9.0893831758e-01
 8.2100935744e-01	 5.8623235637e-01	 8.5785868387e-01
 8.1529444214e-01	 5.9415459263e-01	 7.7673299388e-01
 8.0949868162e-01	 6.0202704437e-01	 6.6145263213e-01
 8.7130362757e-01	 5.2577099790e-01	 1.3910207966e+00
 8.6621152335e-01	 5.3411866258e-01	 1.4459459724e+00
 8.6103357830e-01	 5.4242631935e-01	 1.4962379962e+00
 8.5577023824e-01	 5.5069266610e-01	 1.5356898779e+00
 8.5042197499e-01	 5.5891640678e-01	 1.5582159693e+00
 8.4498928630e-01	 5.6709625200e-01	 1.5578579211e+00
 8.3947269570e-01	 5.7523091968e-01	 1.5287903770e+00
 8.3387275245e-01	 5.8331913571e-01	 1.4653264124e+00
 8.2819003132e-01	 5.9135963455e-01	 1.3619227222e+00
 8.2242513250e-01	 5.9935115990e-01	 1.2131845696e+00
 8.1657868137e-01	 6.0729246531e-01	 1.0138705034e+00
 8.7885801174e-01	 5.3032954210e-01	 1.8460204547e+00
 8.7372175792e-01	 5.3874958278e-01	 1.9079029992e+00
 8.6849891900e-01	 5.4712926866e-01	 1.9639150028e+00
 8.6318994468e-01	 5.5546728636e-01	 2.0065068022e+00
 8.5779531088e-01	 5.6376232859e-01	 2.0283258916e+00
 8.5231551964e-01	 5.7201309477e-01	 2.0222252400e+00
 8.4675109905e-01	 5.8021829172e-01	 1.9812712476e+00
 8.4110260312e-01	 5.8837663426e-01	 1.8987513423e+00
 8.3537061162e-01	 5.9648684590e-01	 1.7681812217e+00
 8.2955572993e-01	 6.0454765944e-01	 1.5833117444e+00
 8.2365858884e-01	 6.1255781763e-01	 1.3381354796e+00
 8.8641231243e-01	 5.3488803594e-01	 2.1585468948e+00
 8.8123190949e-01	 5.4338045181e-01	 2.2216604611e+00
 8.7596417721e-01	 5.5183216601e-01	 2.2799294883e+00
 8.7060956914e-01	 5.6024185387e-01	 2.3250155635e+00
 8.6516856529e-01	 5.6860819685e-01	 2.3488275416e+00
 8.5964167202e-01	 5.7692988321e-01	 2.3435312764e+00
 8.5402942198e-01	 5.8520560864e-01	 2.3015589196e+00
 8.4833237391e-01	 5.9343407693e-01	 2.2156177888e+00
 8.4255111257e-01	 6.0161400060e-01	 2.0786988056e+00
 8.3668624855e-01	 6.0974410157e-01	 1.8840845105e+00
 8.3073841808e-01	 6.1782311177e-01	 1.6253566573e+00
 8.9396654463e-01	 5.3944648844e-01	 2.3448181088e+00
 8.8874199297e-01	 5.4801127884e-01	 2.4039893792e+00
 8.8342936772e-01	 5.5653502071e-01	 2.4609689047e+00
 8.7802912632e-01	 5.6501637808e-01	 2.5071688771e+00
 8.7254175284e-01	 5.7345402118e-01	 2.5342735920e+00
 8.6696775798e-01	 5.8184662707e-01	 2.5342496592e+00
 8.6130767891e-01	 5.9019288035e-01	 2.4993557391e+00
 8.5556207914e-01	 5.9849147375e-01	 2.4221518061e+00
 8.4973154842e-01	 6.0674110882e-01	 2.2955079398e+00
 8.4381670253e-01	 6.1494049658e-01	 2.1126126521e+00
 8.3781818312e-01	 6.2308835817e-01	 1.8669807528e+00
 9.0152072331e-01	 5.4400490865e-01	 2.4205461374e+00
 8.9625202324e-01	 5.5264207308e-01	 2.4711362407e+00
 8.9089450536e-01	 5.6123784211e-01	 2.5231988785e+00
 8.8544863094e-01	 5.6979086847e-01	 2.5684221224e+00
 8.7991488817e-01	 5.7829981118e-01	 2.5987661258e+00
 8.7429379204e-01	 5.8676333611e-01	 2.6064728925e+00
 8.6858588428e-01	 5.9518011673e-01	 2.5840755570e+00
 8.6279173315e-01	 6.0354883474e-01	 2.5244071794e+00
 8.5691193340e-01	 6.1186818072e-01	 2.4206090583e+00
 8.5094710599e-01	 6.2013685478e-01	 2.2661385695e+00
 8.4489789802e-01	 6.2835356728e-01	 2.0547765399e+00
 9.0907486346e-01	 5.4856330561e-01	 2.4009575094e+00
 9.0376201521e-01	 5.5727284370e-01	 2.4388441213e+00
 8.9835960492e-01	 5.6594063951e-01	 2.4822841310e+00
 8.9286809771e-01	 5.7456533452e-01	 2.5237531547e+00
 8.8728798588e-01	 5.8314557646e-01	 2.5559744137e+00
 8.8161978874e-01	 5.9168002007e-01	 2.5719271530e+00
 8.7586405253e-01	 6.0016732768e-01	 2.5648545830e+00
 8.7002135030e-01	 6.0860616994e-01	 2.5282713539e+00
 8.6409228175e-01	 6.1699522646e-01	 2.4559705689e+00
 8.5807747309e-01	 6.2533318649e-01	 2.3420303472e+00
 8.5197757680e-01	 6.3361874953e-01	 2.1808199501e+00
 9.1662898006e-01	 5.5312168836e-01	 2.3008125762e+00
 9.1127198378e-01	 5.6190359988e-01	 2.3223726664e+00
 9.0582468120e-01	 5.7064342226e-01	 2.3534082636e+00
 9.0028754136e-01	 5.7933978568e-01	 2.3876810332e+00
 8.9466106062e-01	 5.8799132664e-01	 2.4191517060e+00
 8.8894576260e-01	 5.9659668870e-01	 2.4419862477e+00
 8.8314219809e-01	 6.0515452308e-01	 2.4505615934e+00
 8.7725094490e-01	 6.1366348937e-01	 2.4394709598e+00
 8.7127260773e-01	 6.2212225623e-01	 2.4035287479e+00
 8.6520781796e-01	 6.3052950199e-01	 2.3377750525e+00
 8.5905723351e-01	 6.3888391537e-01	 2.2374797962e+00
 9.2418308810e-01	 5.5768006594e-01	 2.1344238052e+00
 9.1878194382e-01	 5.6653435081e-01	 2.1365169959e+00
 9.1328974903e-01	 5.7534619968e-01	 2.1512924740e+00
 9.0770697660e-01	 5.8411423142e-01	 2.1742837307e+00
 9.0203412699e-01	 5.9283707133e-01	 2.2011510976e+00
 8.9627172815e-01	 6.0151335176e-01	 2.2276847810e+00
 8.9042033540e-01	 6.1014171282e-01	 2.2498075305e+00
 8.8448053131e-01	 6.1872080308e-01	 2.2635769576e+00
 8.7845292556e-01	 6.2724928019e-01	 2.2651875284e+00
 8.7233815474e-01	 6.3572581161e-01	 2.2509722510e+00
 8.6613688220e-01	 6.4414907524e-01	 2.2174040827e+00
 9.3173720256e-01	 5.6223844740e-01	 1.9156730905e+00
 9.2629191025e-01	 5.7116510568e-01	 1.8956255941e+00
 9.2075482320e-01	 5.8004898109e-01	 1.8902132636e+00
 9.1512641814e-01	 5.8888868122e-01	 1.8972148795e+00
 9.0940719963e-01	 5.9768282013e-01	 1.9144405179e+00
 9.0359769993e-01	 6.0643001899e-01	 1.9397305768e+00
 8.9769847889e-01	 6.1512890680e-01	 1.9709545278e+00
 8.9171012387e-01	 6.2377812107e-01	 2.0060094235e+00
 8.8563324950e-01	 6.3237630850e-01	 2.0428181884e+00
 8.7946849759e-01	 6.4092212563e-01	 2.0793277252e+00
 8.7321653691e-01	 6.4941423958e-01	 2.1135068707e+00
 8.0241857555e-01	 5.9676154436e-01	 2.9012665335e-01
 7.9659301098e-01	 6.0451589078e-01	 3.2278010100e-01
 7.9068858747e-01	 6.1221844773e-01	 3.9679463715e-01
 7.8470599631e-01	 6.1986801809e-01	 4.9772152678e-01
 7.7864595270e-01	 6.2746341682e-01	 6.1186393276e-01
 7.7250919548e-01	 6.3500347160e-01	 7.2629891579e-01
 7.6629648686e-01	 6.4248702340e-01	 8.2889849607e-01
 7.6000861212e-01	 6.4991292707e-01	 9.0834975635e-01
 7.5364637927e-01	 6.5728005194e-01	 9.5417396660e-01
 7.4721061873e-01	 6.6458728233e-01	 9.5674471279e-01
 7.4070218296e-01	 6.7183351817e-01	 9.0730501267e-01
 8.0949868162e-01	 6.0202704437e-01	 6.6145263213e-01
 8.0362171543e-01	 6.0984981093e-01	 5.4964742145e-01
 7.9766519449e-01	 6.1762033107e-01	 4.7938226514e-01
 7.9162981619e-01	 6.2533739709e-01	 4.4740459036e-01
 7.8551630204e-01	 6.3299981350e-01	 4.5079316328e-01
 7.7932539740e-01	 6.4060639762e-01	 4.8696302296e-01
 7.7305787122e-01	 6.4815598022e-01	 5.5367001660e-01
 7.6671451568e-01	 6.5564740604e-01	 6.4901494629e-01
 7.6029614594e-01	 6.6307953443e-01	 7.7144733804e-01
 7.5380359974e-01	 6.7045123986e-01	 9.1976884409e-01
 7.4723773707e-01	 6.7776141254e-01	 1.0931362902e+00
 8.1657868137e-01	 6.0729246531e-01	 1.0138705034e+00
 8.1065031433e-01	 6.1518365099e-01	 8.0314924935e-01
 8.0464169675e-01	 6.2302213329e-01	 6.2760980128e-01
 7.9855353210e-01	 6.3080669396e-01	 4.9313678402e-01
 7.9238654822e-01	 6.3853612703e-01	 4.0559867167e-01
 7.8614149698e-01	 6.4620923952e-01	 3.7083859024e-01
 7.7981915404e-01	 6.5382485192e-01	 3.9466516950e-01
 7.7342031854e-01	 6.6138179891e-01	 4.8284348009e-01
 7.6694581276e-01	 6.6887892983e-01	 6.4108609191e-01
 7.6039648175e-01	 6.7631510933e-01	 8.7504428925e-01
 7.5377319304e-01	 6.8368921791e-01	 1.1902994773e+00
 8.2365858884e-01	 6.1255781763e-01	 1.3381354796e+00
 8.1767882162e-01	 6.2051742153e-01	 1.0684586544e+00
 8.1161810807e-01	 6.2842386512e-01	 8.2287796099e-01
 8.0547715777e-01	 6.3627591954e-01	 6.1440884003e-01
 7.9925670485e-01	 6.4407236842e-01	 4.5577486891e-01
 7.9295750771e-01	 6.5181200839e-01	 3.5938732251e-01
 7.8658034874e-01	 6.5949364974e-01	 3.3732514068e-01
 7.8012603401e-01	 6.6711611703e-01	 4.0131535966e-01
 7.7359539291e-01	 6.7467824964e-01	 5.6271406363e-01
 7.6698927784e-01	 6.8217890237e-01	 8.3248791177e-01
 7.6030856382e-01	 6.8961694601e-01	 1.2211962943e+00
 8.3073841808e-01	 6.1782311177e-01	 1.6253566573e+00
 8.2470725125e-01	 6.2585113314e-01	 1.3312926834e+00
 8.1859444231e-01	 6.3382553725e-01	 1.0472598349e+00
 8.1240070693e-01	 6.4174508470e-01	 7.9144880059e-01
 8.0612678556e-01	 6.4960854863e-01	 5.8155322178e-01
 7.9977344313e-01	 6.5741471535e-01	 4.3474085666e-01
 7.9334146873e-01	 6.6516238492e-01	 3.6762542009e-01
 7.8683167537e-01	 6.7285037179e-01	 3.9623917170e-01
 7.8024489958e-01	 6.8047750537e-01	 5.3600632461e-01
 7.7358200107e-01	 6.8804263062e-01	 8.0171734497e-01
 7.6684386240e-01	 6.9554460861e-01	 1.2075042104e+00
 8.3781818312e-01	 6.2308835817e-01	 1.8669807528e+00
 8.3173561715e-01	 6.3118479639e-01	 1.5778879668e+00
 8.2557071329e-01	 6.3922716041e-01	 1.2834709778e+00
 8.1932419332e-01	 6.4721420026e-01	 1.0051892763e+00
 8.1299680399e-01	 6.5514467864e-01	 7.6386944194e-01
 8.0658931674e-01	 6.6301737151e-01	 5.7967071473e-01
 8.0010252742e-01	 6.7083106870e-01	 4.7205142234e-01
 7.9353725594e-01	 6.7858457456e-01	 4.5973634760e-01
 7.8689434596e-01	 6.8627670852e-01	 5.6068511936e-01
 7.8017466452e-01	 6.9390630570e-01	 7.9206170786e-01
 7.7337910171e-01	 7.0147221747e-01	 1.1702051029e+00
 8.4489789802e-01	 6.2835356728e-01	 2.0547765399e+00
 8.3876393326e-01	 6.3651842186e-01	 1.7949774365e+00
 8.3254693485e-01	 6.4462874530e-01	 1.5148408852e+00
 8.2624763066e-01	 6.5268327709e-01	 1.2372362328e+00
 8.1986677375e-01	 6.6068076944e-01	 9.8433220435e-01
 8.1340514208e-01	 6.6861998798e-01	 7.7755964432e-01
 8.0686353822e-01	 6.7649971233e-01	 6.3757520628e-01
 8.0024278900e-01	 6.8431873672e-01	 5.8422608374e-01
 7.9354374523e-01	 6.9207587060e-01	 6.3651587089e-01
 7.8676728128e-01	 6.9976993924e-01	 8.1257164088e-01
 7.7991429473e-01	 7.0739978433e-01	 1.1296123259e+00
 8.5197757680e-01	 6.3361874953e-01	 2.1808199501e+00
 8.4579221352e-01	 6.4185202013e-01	 1.9697680900e+00
 8.3952312083e-01	 6.5003030265e-01	 1.7252857766e+00
 8.3317103268e-01	 6.5815232602e-01	 1.4698392161e+00
 8.2673670846e-01	 6.6621683200e-01	 1.2251933055e+00
 8.2022093265e-01	 6.7422257588e-01	 1.0123742653e+00
 8.1362451452e-01	 6.8216832704e-01	 8.5163322906e-01
 8.0694828787e-01	 6.9005286962e-01	 7.6241088339e-01
 8.0019311059e-01	 6.9787500309e-01	 7.6330325042e-01
 7.9335986441e-01	 7.0563354288e-01	 8.7202870084e-01
 7.8644945442e-01	 7.1332732096e-01	 1.1053962847e+00
 8.5905723351e-01	 6.3888391537e-01	 2.2374797962e+00
 8.5282047188e-01	 6.4718560177e-01	 2.0899197394e+00
 8.4649928506e-01	 6.5543184316e-01	 1.8992826081e+00
 8.4009441313e-01	 6.6362135790e-01	 1.6858629331e+00
 8.3360662177e-01	 6.7175287731e-01	 1.4693191780e+00
 8.2703670197e-01	 6.7982514632e-01	 1.2686389471e+00
 8.2038546976e-01	 6.8783692409e-01	 1.1021050747e+00
 8.1365376583e-01	 6.9578698465e-01	 9.8726268405e-01
 8.0684245523e-01	 7.0367411751e-01	 9.4088730744e-01
 7.9995242698e-01	 7.1149712824e-01	 9.7895415252e-01
 7.9298459374e-01	 7.1925483912e-01	 1.1166085997e+00
 8.6613688220e-01	 6.4414907524e-01	 2.2174040827e+00
 8.5984872227e-01	 6.5251917737e-01	 2.1435246898e+00
 8.5347544139e-01	 6.6083337755e-01	 2.0218442462e+00
 8.4701778573e-01	 6.6909038359e-01	 1.8687601095e+00
 8.4047652728e-01	 6.7728891634e-01	 1.7001636828e+00
 8.3385246357e-01	 6.8542771040e-01	 1.5314108448e+00
 8.2714641733e-01	 6.9350551471e-01	 1.3772931009e+00
 8.2035923619e-01	 7.0152109318e-01	 1.2520095365e+00
 8.1349179232e-01	 7.0947322535e-01	 1.1691396566e+00
 8.0654498209e-01	 7.1736070696e-01	 1.1416171910e+00
 7.9951972565e-01	 7.2518235056e-01	 1.1817049425e+00
 8.7321653691e-01	 6.4941423958e-01	 2.1135068707e+00
 8.6687697863e-01	 6.5785275749e-01	 2.1190882927e+00
 8.6045160364e-01	 6.6623491653e-01	 2.0784957333e+00
 8.5394116421e-01	 6.7455941392e-01	 2.0025455510e+00
 8.4734643864e-01	 6.8282496008e-01	 1.9017421072e+00
 8.4066823096e-01	 6.9103027925e-01	 1.7862560295e+00
 8.3390737064e-01	 6.9917411015e-01	 1.6659029519e+00
 8.2706471224e-01	 7.0725520659e-01	 1.5501228036e+00
 8.2014113507e-01	 7.1527233812e-01	 1.4479597178e+00
 8.1313754280e-01	 7.2322429065e-01	 1.3680426275e+00
 8.0605486311e-01	 7.3110986703e-01	 1.3185666193e+00
 7.4070218296e-01	 6.7183351817e-01	 9.0730501267e-01
 7.3412306872e-01	 6.7901646159e-01	 7.5101282245e-01
 7.2747306107e-01	 6.8613629255e-01	 4.6264769356e-01
 7.2075306414e-01	 6.9319197316e-01	 7.7169879355e-02
 7.1396400252e-01	 7.0018248325e-01	-3.7238084660e-01
 7.0710682082e-01	 7.0710682082e-01	-8.5492996416e-01
 7.0018248325e-01	 7.1396400252e-01	-1.3414102594e+00
 6.9319197316e-01	 7.2075306414e-01	-1.8048011073e+00
 6.8613629255e-01	 7.2747306107e-01	-2.2201649388e+00
 6.7901646159e-01	 7.3412306872e-01	-2.5646808535e+00
 6.7183351817e-01	 7.4070218296e-01	-2.8176753412e+00
 7.4723773707e-01	 6.7776141254e-01	 1.0931362902e+00
 7.4060057230e-01	 6.8500773437e-01	 1.2154780402e+00
 7.3389188859e-01	 6.9219038685e-01	 1.2215622773e+00
 7.2711259805e-01	 6.9930832296e-01	 1.1264523713e+00
 7.2026363343e-01	 7.0636051352e-01	 9.4513361544e-01
 7.1334594768e-01	 7.1334594768e-01	 6.9142636732e-01
 7.0636051352e-01	 7.2026363343e-01	 3.7796861605e-01
 6.9930832296e-01	 7.2711259805e-01	 1.6200140437e-02
 6.9219038685e-01	 7.3389188859e-01	-3.8365173754e-01
 6.8500773437e-01	 7.4060057230e-01	-8.1258480202e-01
 6.7776141254e-01	 7.4723773707e-01	-1.2630142928e+00
 7.5377319304e-01	 6.8368921791e-01	 1.1902994773e+00
 7.4707797860e-01	 6.9099891717e-01	 1.5014379597e+00
 7.4031061972e-01	 6.9824439023e-01	 1.7204785940e+00
 7.3347203646e-01	 7.0542458091e-01	 1.8467972762e+00
 7.2656316974e-01	 7.1253845101e-01	 1.8791594107e+00
 7.1958498085e-01	 7.1958498085e-01	 1.8170315483e+00
 7.1253845101e-01	 7.2656316974e-01	 1.6593936122e+00
 7.0542458091e-01	 7.3347203646e-01	 1.4047427932e+00
 6.9824439023e-01	 7.4031061972e-01	 1.0510980081e+00
 6.9099891717e-01	 7.4707797860e-01	 5.9580389446e-01
 6.8368921791e-01	 7.5377319304e-01	 3.5727304704e-02
 7.6030856382e-01	 6.8961694601e-01	 1.2211962943e+00
 7.5355530049e-01	 6.9699002189e-01	 1.6445681558e+00
 7.4672926719e-01	 7.0429831472e-01	 2.0040072533e+00
 7.3983139199e-01	 7.1154075915e-01	 2.2880061614e+00
 7.3286262395e-01	 7.1871630798e-01	 2.4828878943e+00
 7.2582393271e-01	 7.2582393271e-01	 2.5753798855e+00
 7.1871630798e-01	 7.3286262395e-01	 2.5535038986e+00
 7.1154075915e-01	 7.3983139199e-01	 2.4053839557e+00
 7.0429831472e-01	 7.4672926719e-01	 2.1190601698e+00
 6.9699002189e-01	 7.5355530049e-01	 1.6826178536e+00
 6.8961694601e-01	 7.6030856382e-01	 1.0846835924e+00
 7.6684386240e-01	 6.9554460861e-01	 1.2075042104e+00
 7.6003255079e-01	 7.0298106041e-01	 1.6783216271e+00
 7.5314784373e-01	 7.1035217231e-01	 2.1159613009e+00
 7.4619067724e-01	 7.1765686980e-01	 2.4993538643e+00
 7.3916200855e-01	 7.2489409669e-01	 2.8077518792e+00
 7.3206281563e-01	 7.3206281563e-01	 3.0181990987e+00
 7.2489409669e-01	 7.3916200855e-01	 3.1092715182e+00
 7.1765686980e-01	 7.4619067724e-01	 3.0610299858e+00
 7.1035217231e-01	 7.5314784373e-01	 2.8539070630e+00
 7.0298106041e-01	 7.6003255079e-01	 2.4694169155e+00
 6.9554460861e-01	 7.6684386240e-01	 1.8897950747e+00
 7.7337910171e-01	 7.0147221747e-01	 1.1702051029e+00
 7.6650974237e-01	 7.0897204461e-01	 1.6350582029e+00
 7.5956636207e-01	 7.1640597500e-01	 2.0974169120e+00
 7.5254990483e-01	 7.2377292499e-01	 2.5295457105e+00
 7.4546133604e-01	 7.3107182938e-01	 2.9044226329e+00
 7.3830164197e-01	 7.3830164197e-01	 3.1955294500e+00
 7.3107182938e-01	 7.4546133604e-01	 3.3739145963e+00
 7.2377292499e-01	 7.5254990483e-01	 3.4129509634e+00
 7.1640597500e-01	 7.5956636207e-01	 3.2883876369e+00
 7.0897204461e-01	 7.6650974237e-01	 2.9770480319e+00
 7.0147221747e-01	 7.7337910171e-01	 2.4568168491e+00
 7.7991429473e-01	 7.0739978433e-01	 1.1296123259e+00
 7.7298688807e-01	 7.1496298637e-01	 1.5460885553e+00
 7.6598483495e-01	 7.2245973482e-01	 1.9881050915e+00
 7.5890908738e-01	 7.2988893686e-01	 2.4241127387e+00
 7.5176061890e-01	 7.3724951831e-01	 2.8234615809e+00
 7.4454042413e-01	 7.4454042413e-01	 3.1563241547e+00
 7.3724951831e-01	 7.5176061890e-01	 3.3927881771e+00
 7.2988893686e-01	 7.5890908738e-01	 3.5012877665e+00
 7.2245973482e-01	 7.6598483495e-01	 3.4541700272e+00
 7.1496298637e-01	 7.7298688807e-01	 3.2256751534e+00
 7.0739978433e-01	 7.7991429473e-01	 2.7913263971e+00
 7.8644945442e-01	 7.1332732096e-01	 1.1053962847e+00
 7.7946400072e-01	 7.2095389757e-01	 1.4417155707e+00
 7.7240327509e-01	 7.2851346375e-01	 1.8264700684e+00
 7.6526823749e-01	 7.3600491754e-01	 2.2270813029e+00
 7.5805986963e-01	 7.4342717574e-01	 2.6118810386e+00
 7.5077917446e-01	 7.5077917446e-01	 2.9495635538e+00
 7.4342717574e-01	 7.5805986963e-01	 3.2103706400e+00
 7.3600491754e-01	 7.6526823749e-01	 3.3648675360e+00
 7.2851346375e-01	 7.7240327509e-01	 3.3818857714e+00
 7.2095389757e-01	 7.7946400072e-01	 3.2348076457e+00
 7.1332732096e-01	 7.8644945442e-01	 2.8987309623e+00
 7.9298459374e-01	 7.1925483912e-01	 1.1166085997e+00
 7.8594109319e-01	 7.2694479010e-01	 1.3512735250e+00
 7.7882169522e-01	 7.3456717382e-01	 1.6497199517e+00
 7.7162736778e-01	 7.4212087915e-01	 1.9810401319e+00
 7.6435910073e-01	 7.4960481390e-01	 2.3145685419e+00
 7.5701790534e-01	 7.5701790534e-01	 2.6209100369e+00
 7.4960481390e-01	 7.6435910073e-01	 2.8721066745e+00
 7.4212087915e-01	 7.7162736778e-01	 3.0413501867e+00
 7.3456717382e-01	 7.7882169522e-01	 3.1011725598e+00
 7.2694479010e-01	 7.8594109319e-01	 3.0233272712e+00
 7.1925483912e-01	 7.9298459374e-01	 2.7842745386e+00
 7.9951972565e-01	 7.2518235056e-01	 1.1817049425e+00
 7.9241817832e-01	 7.3293567584e-01	 1.3031651891e+00
 7.8524010808e-01	 7.4062087702e-01	 1.4938747502e+00
 7.7798649087e-01	 7.4823683383e-01	 1.7266935308e+00
 7.7065832468e-01	 7.5578244507e-01	 1.9751665710e+00
 7.6325662916e-01	 7.6325662916e-01	 2.2143184147e+00
 7.5578244507e-01	 7.7065832468e-01	 2.4201346121e+00
 7.4823683383e-01	 7.7798649087e-01	 2.5695966036e+00
 7.4062087702e-01	 7.8524010808e-01	 2.6407148587e+00
 7.3293567584e-01	 7.9241817832e-01	 2.6095138189e+00
 7.2518235056e-01	 7.9951972565e-01	 2.4530444922e+00
 8.0605486311e-01	 7.3110986703e-01	 1.3185666193e+00
 7.9889526895e-01	 7.3892656667e-01	 1.3248969828e+00
 7.9165852639e-01	 7.4667458537e-01	 1.3934134488e+00
 7.8434561935e-01	 7.5435279371e-01	 1.5035078459e+00
 7.7695755399e-01	 7.6196008148e-01	 1.6359712081e+00
 7.6949535827e-01	 7.6949535827e-01	 1.7722998527e+00
 7.6196008148e-01	 7.7695755399e-01	 1.8946897511e+00
 7.5435279371e-01	 7.8434561935e-01	 1.9860631029e+00
 7.4667458537e-01	 7.9165852639e-01	 2.0300938472e+00
 7.3892656667e-01	 7.9889526895e-01	 2.0110694594e+00
 7.3110986703e-01	 8.0605486311e-01	 1.9099778369e+00
 6.7183351817e-01	 7.4070218296e-01	-2.8176753412e+00
 6.6458728233e-01	 7.4721061873e-01	-2.9155756626e+00
 6.5728005194e-01	 7.5364637927e-01	-2.8353200812e+00
 6.4991292707e-01	 7.6000861212e-01	-2.6169198296e+00
 6.4248702340e-01	 7.6629648686e-01	-2.2979343139e+00
 6.3500347160e-01	 7.7250919548e-01	-1.9134276515e+00
 6.2746341682e-01	 7.7864595270e-01	-1.4959289251e+00
 6.1986801809e-01	 7.8470599631e-01	-1.0753961960e+00
 6.1221844773e-01	 7.9068858747e-01	-6.7918430794e-01
 6.0451589078e-01	 7.9659301098e-01	-3.3201651008e-01
 5.9676154436e-01	 8.0241857555e-01	-5.5959916054e-02
 6.7776141254e-01	 7.4723773707e-01	-1.2630142928e+00
 6.7045123986e-01	 7.5380359974e-01	-1.6361438015e+00
 6.6307953443e-01	 7.6029614594e-01	-1.8537768520e+00
 6.5564740604e-01	 7.6671451568e-01	-1.9392351132e+00
 6.4815598022e-01	 7.7305787122e-01	-1.9141709970e+00
 6.4060639762e-01	 7.7932539740e-01	-1.7985432696e+00
 6.3299981350e-01	 7.8551630204e-01	-1.6105951977e+00
 6.2533739709e-01	 7.9162981619e-01	-1.3668352437e+00
 6.1762033107e-01	 7.9766519449e-01	-1.0820203217e+00
 6.0984981093e-01	 8.0362171543e-01	-7.6914161965e-01
 6.0202704437e-01	 8.0949868162e-01	-4.3941298875e-01
 6.8368921791e-01	 7.5377319304e-01	 3.5727304704e-02
 6.7631510933e-01	 7.6039648175e-01	-5.1125822211e-01
 6.6887892983e-01	 7.6694581276e-01	-9.3159340591e-01
 6.6138179891e-01	 7.7342031854e-01	-1.2345028065e+00
 6.5382485192e-01	 7.7981915404e-01	-1.4282117000e+00
 6.4620923952e-01	 7.8614149698e-01	-1.5199379214e+00
 6.3853612703e-01	 7.9238654822e-01	-1.5158852261e+00
 6.3080669396e-01	 7.9855353210e-01	-1.4212381643e+00
 6.2302213329e-01	 8.0464169675e-01	-1.2401584582e+00
 6.1518365099e-01	 8.1065031433e-01	-9.7578287240e-01
 6.0729246531e-01	 8.1657868137e-01	-6.3022256126e-01
 6.8961694601e-01	 7.6030856382e-01	 1.0846835924e+00
 6.8217890237e-01	 7.6698927784e-01	 4.4857791287e-01
 6.7467824964e-01	 7.7359539291e-01	-9.3340331038e-02
 6.6711611703e-01	 7.8012603401e-01	-5.3873026631e-01
 6.5949364974e-01	 7.8658034874e-01	-8.8481119002e-01
 6.5181200839e-01	 7.9295750771e-01	-1.1283678419e+00
 6.4407236842e-01	 7.9925670485e-01	-1.2657563457e+00
 6.3627591954e-01	 8.0547715777e-01	-1.2929107945e+00
 6.2842386512e-01	 8.1161810807e-01	-1.2053504556e+00
 6.2051742153e-01	 8.1767882162e-01	-9.9818756847e-01
 6.1255781763e-01	 8.2365858884e-01	-6.6613570911e-01
 6.9554460861e-01	 7.6684386240e-01	 1.8897950747e+00
 6.8804263062e-01	 7.7358200107e-01	 1.2332344685e+00
 6.8047750537e-01	 7.8024489958e-01	 6.3726376199e-01
 6.7285037179e-01	 7.8683167537e-01	 1.1331631435e-01
 6.6516238492e-01	 7.9334146873e-01	-3.2718562603e-01
 6.5741471535e-01	 7.9977344313e-01	-6.7284686346e-01
 6.4960854863e-01	 8.0612678556e-01	-9.1231517805e-01
 6.4174508470e-01	 8.1240070693e-01	-1.0342971917e+00
 6.3382553725e-01	 8.1859444231e-01	-1.0275741386e+00
 6.2585113314e-01	 8.2470725125e-01	-8.8101750264e-01
 6.1782311177e-01	 8.3073841808e-01	-5.8360448532e-01
 7.0147221747e-01	 7.7337910171e-01	 2.4568168491e+00
 6.9390630570e-01	 7.8017466452e-01	 1.8329385686e+00
 6.8627670852e-01	 7.8689434596e-01	 1.2373161782e+00
 6.7858457456e-01	 7.9353725594e-01	 6.8805934612e-01
 6.7083106870e-01	 8.0010252742e-01	 2.0292226207e-01
 6.6301737151e-01	 8.0658931674e-01	-2.0072025186e-01
 6.5514467864e-01	 8.1299680399e-01	-5.0589608576e-01
 6.4721420026e-01	 8.1932419332e-01	-6.9605859185e-01
 6.3922716041e-01	 8.2557071329e-01	-7.5510869199e-01
 6.3118479639e-01	 8.3173561715e-01	-6.6741629643e-01
 6.2308835817e-01	 8.3781818312e-01	-4.1784098952e-01
 7.0739978433e-01	 7.7991429473e-01	 2.7913263971e+00
 6.9976993924e-01	 7.8676728128e-01	 2.2382595994e+00
 6.9207587060e-01	 7.9354374523e-01	 1.6846958748e+00
 6.8431873672e-01	 8.0024278900e-01	 1.1530599150e+00
 6.7649971233e-01	 8.0686353822e-01	 6.6518126358e-01
 6.6861998798e-01	 8.1340514208e-01	 2.4226516259e-01
 6.6068076944e-01	 8.1986677375e-01	-9.5135688228e-02
 6.5268327709e-01	 8.2624763066e-01	-3.2714840281e-01
 6.4462874530e-01	 8.3254693485e-01	-4.3460615593e-01
 6.3651842186e-01	 8.3876393326e-01	-3.9907335399e-01
 6.2835356728e-01	 8.4489789802e-01	-2.0286968038e-01
 7.1332732096e-01	 7.8644945442e-01	 2.8987309623e+00
 7.0563354288e-01	 7.9335986441e-01	 2.4400949425e+00
 6.9787500309e-01	 8.0019311059e-01	 1.9580308909e+00
 6.9005286962e-01	 8.0694828787e-01	 1.4769703317e+00
 6.8216832704e-01	 8.1362451452e-01	 1.0206128546e+00
 6.7422257588e-01	 8.2022093265e-01	 6.1189434380e-01
 6.6621683200e-01	 8.2673670846e-01	 2.7295633134e-01
 6.5815232602e-01	 8.3317103268e-01	 2.5116534460e-02
 6.5003030265e-01	 8.3952312083e-01	-1.1115936424e-01
 6.4185202013e-01	 8.4579221352e-01	-1.1628463887e-01
 6.3361874953e-01	 8.5197757680e-01	 2.8422907302e-02
 7.1925483912e-01	 7.9298459374e-01	 2.7842745386e+00
 7.1149712824e-01	 7.9995242698e-01	 2.4296563924e+00
 7.0367411751e-01	 8.0684245523e-01	 2.0366673720e+00
 6.9578698465e-01	 8.1365376583e-01	 1.6294890150e+00
 6.8783692409e-01	 8.2038546976e-01	 1.2315352651e+00
 6.7982514632e-01	 8.2703670197e-01	 8.6542069554e-01
 6.7175287731e-01	 8.3360662177e-01	 5.5292991266e-01
 6.6362135790e-01	 8.4009441313e-01	 3.1498820094e-01
 6.5543184316e-01	 8.4649928506e-01	 1.7163346778e-01
 6.4718560177e-01	 8.5282047188e-01	 1.4198954379e-01
 6.3888391537e-01	 8.5905723351e-01	 2.4424089039e-01
 7.2518235056e-01	 7.9951972565e-01	 2.4530444922e+00
 7.1736070696e-01	 8.0654498209e-01	 2.1984572214e+00
 7.0947322535e-01	 8.1349179232e-01	 1.9006400981e+00
 7.0152109318e-01	 8.2035923619e-01	 1.5813175748e+00
 6.9350551471e-01	 8.2714641733e-01	 1.2615102784e+00
 6.8542771040e-01	 8.3385246357e-01	 9.6150580500e-01
 6.7728891634e-01	 8.4047652728e-01	 7.0083059793e-01
 6.6909038359e-01	 8.4701778573e-01	 4.9822296834e-01
 6.6083337755e-01	 8.5347544139e-01	 3.7160731371e-01
 6.5251917737e-01	 8.5984872227e-01	 3.3806958752e-01
 6.4414907524e-01	 8.6613688220e-01	 4.1383406967e-01
 7.3110986703e-01	 8.0605486311e-01	 1.9099778369e+00
 7.2322429065e-01	 8.1313754280e-01	 1.7382998537e+00
 7.1527233812e-01	 8.2014113507e-01	 1.5306444290e+00
 7.0725520659e-01	 8.2706471224e-01	 1.3041199697e+00
 6.9917411015e-01	 8.3390737064e-01	 1.0752926073e+00
 6.9103027925e-01	 8.4066823096e-01	 8.6016210775e-01
 6.8282496008e-01	 8.4734643864e-01	 6.7413861636e-01
 6.7455941392e-01	 8.5394116421e-01	 5.3202029276e-01
 6.6623491653e-01	 8.6045160364e-01	 4.4797188425e-01
 6.5785275749e-01	 8.6687697863e-01	 4.3550428629e-01
 6.4941423958e-01	 8.7321653691e-01	 5.0745513483e-01
 5.9676154436e-01	 8.0241857555e-01	-5.5959916054e-02
 5.8895794732e-01	 8.0816364470e-01	 1.1753526155e-01
 5.8110500120e-01	 8.1382857572e-01	 1.8637258646e-01
 5.7320393083e-01	 8.1941275406e-01	 1.7340630700e-01
 5.6525597072e-01	 8.2491558997e-01	 1.0014525235e-01
 5.5726236447e-01	 8.3033651862e-01	-1.3268897535e-02
 5.4922436409e-01	 8.3567500029e-01	-1.4808121201e-01
 5.4114322943e-01	 8.4093052051e-01	-2.8694095670e-01
 5.3302022751e-01	 8.4610259018e-01	-4.1391686976e-01
 5.2485663194e-01	 8.5119074566e-01	-5.1451025432e-01
 5.1665372221e-01	 8.5619454885e-01	-5.7566587934e-01
 6.0202704437e-01	 8.0949868162e-01	-4.3941298875e-01
 5.9415459263e-01	 8.1529444214e-01	-1.5562202351e-01
 5.8623235637e-01	 8.2100935744e-01	 3.6806728300e-02
 5.7826157124e-01	 8.2664280754e-01	 1.5314161614e-01
 5.7024348265e-01	 8.3219419749e-01	 2.0766432362e-01
 5.6217934515e-01	 8.3766295747e-01	 2.1365499592e-01
 5.5407042182e-01	 8.4304854300e-01	 1.8337894610e-01
 5.4591798361e-01	 8.4835043509e-01	 1.2807495771e-01
 5.3772330874e-01	 8.5356814030e-01	 5.7945196842e-02
 5.2948768203e-01	 8.5870119090e-01	-1.7853256733e-02
 5.2121239428e-01	 8.6374914493e-01	-9.1215253835e-02
 6.0729246531e-01	 8.1657868137e-01	-6.3022256126e-01
 5.9935115990e-01	 8.2242513250e-01	-2.8582473495e-01
 5.9135963455e-01	 8.2819003132e-01	-1.7671734715e-02
 5.8331913571e-01	 8.3387275245e-01	 1.8309487352e-01
 5.7523091968e-01	 8.3947269570e-01	 3.2465896086e-01
 5.6709625200e-01	 8.4498928630e-01	 4.1452069421e-01
 5.5891640678e-01	 8.5042197499e-01	 4.5948849608e-01
 5.5069266610e-01	 8.5577023824e-01	 4.6567211823e-01
 5.4242631935e-01	 8.6103357830e-01	 4.3847683892e-01
 5.3411866258e-01	 8.6621152335e-01	 3.8259879080e-01
 5.2577099790e-01	 8.7130362757e-01	 3.0202142324e-01
 6.1255781763e-01	 8.2365858884e-01	-6.6613570911e-01
 6.0454765944e-01	 8.2955572993e-01	-3.0131452194e-01
 5.9648684590e-01	 8.3537061162e-01	 3.1718025412e-03
 5.8837663426e-01	 8.4110260312e-01	 2.5092133500e-01
 5.8021829172e-01	 8.4675109905e-01	 4.4512390961e-01
 5.7201309477e-01	 8.5231551964e-01	 5.8855660365e-01
 5.6376232859e-01	 8.5779531088e-01	 6.8357991252e-01
 5.5546728636e-01	 8.6318994468e-01	 7.3213462956e-01
 5.4712926866e-01	 8.6849891900e-01	 7.3573943806e-01
 5.3874958278e-01	 8.7372175792e-01	 6.9548922045e-01
 5.3032954210e-01	 8.7885801174e-01	 6.1205408792e-01
 6.1782311177e-01	 8.3073841808e-01	-5.8360448532e-01
 6.0974410157e-01	 8.3668624855e-01	-2.2936269019e-01
 6.0161400060e-01	 8.4255111257e-01	 8.0252769698e-02
 5.9343407693e-01	 8.4833237391e-01	 3.4470361573e-01
 5.8520560864e-01	 8.5402942198e-01	 5.6326472717e-01
 5.7692988321e-01	 8.5964167202e-01	 7.3502314624e-01
 5.6860819685e-01	 8.6516856529e-01	 8.5887744426e-01
 5.6024185387e-01	 8.7060956914e-01	 9.3353745598e-01
 5.5183216601e-01	 8.7596417721e-01	 9.5752438794e-01
 5.4338045181e-01	 8.8123190949e-01	 9.2917130492e-01
 5.3488803594e-01	 8.8641231243e-01	 8.4662399736e-01
 6.2308835817e-01	 8.3781818312e-01	-4.1784098952e-01
 6.1494049658e-01	 8.4381670253e-01	-9.6311556941e-02
 6.0674110882e-01	 8.4973154842e-01	 1.9513829670e-01
 5.9849147375e-01	 8.5556207914e-01	 4.5293327503e-01
 5.9019288035e-01	 8.6130767891e-01	 6.7348851782e-01
 5.8184662707e-01	 8.6696775798e-01	 8.5321105085e-01
 5.7345402118e-01	 8.7254175284e-01	 9.8850133271e-01
 5.6501637808e-01	 8.7802912632e-01	 1.0757549048e+00
 5.5653502071e-01	 8.8342936772e-01	 1.1113641494e+00
 5.4801127884e-01	 8.8874199297e-01	 1.0917201601e+00
 5.3944648844e-01	 8.9396654463e-01	 1.0132147271e+00
 6.2835356728e-01	 8.4489789802e-01	-2.0286968038e-01
 6.2013685478e-01	 8.5094710599e-01	 7.2386257647e-02
 6.1186818072e-01	 8.5691193340e-01	 3.3001953500e-01
 6.0354883474e-01	 8.6279173315e-01	 5.6449330544e-01
 5.9518011673e-01	 8.6858588428e-01	 7.7039510987e-01
 5.8676333611e-01	 8.7429379204e-01	 9.4243970438e-01
 5.7829981118e-01	 8.7991488817e-01	 1.0754717907e+00
 5.6979086847e-01	 8.8544863094e-01	 1.1644686551e+00
 5.6123784211e-01	 8.9089450536e-01	 1.2045427209e+00
 5.5264207308e-01	 8.9625202324e-01	 1.1909440201e+00
 5.4400490865e-01	 9.0152072331e-01	 1.1190625866e+00
 6.3361874953e-01	 8.5197757680e-01	 2.8422907302e-02
 6.2533318649e-01	 8.5807747309e-01	 2.5213048188e-01
 6.1699522646e-01	 8.6409228175e-01	 4.6768533966e-01
 6.0860616994e-01	 8.7002135030e-01	 6.6864147316e-01
 6.0016732768e-01	 8.7586405253e-01	 8.4876864866e-01
 5.9168002007e-01	 8.8161978874e-01	 1.0020555595e+00
 5.8314557646e-01	 8.8728798588e-01	 1.1227127558e+00
 5.7456533452e-01	 8.9286809771e-01	 1.2051753577e+00
 5.6594063951e-01	 8.9835960492e-01	 1.2441055581e+00
 5.5727284370e-01	 9.0376201521e-01	 1.2343949220e+00
 5.4856330561e-01	 9.0907486346e-01	 1.1711664878e+00
 6.3888391537e-01	 8.5905723351e-01	 2.4424089039e-01
 6.3052950199e-01	 8.6520781796e-01	 4.1913767414e-01
 6.2212225623e-01	 8.7127260773e-01	 5.9149723336e-01
 6.1366348937e-01	 8.7725094490e-01	 7.5499446042e-01
 6.0515452308e-01	 8.8314219809e-01	 9.0356958146e-01
 5.9659668870e-01	 8.8894576260e-01	 1.0314305955e+00
 5.8799132664e-01	 8.9466106062e-01	 1.1330554315e+00
 5.7933978568e-01	 9.0028754136e-01	 1.2031938324e+00
 5.7064342226e-01	 9.0582468120e-01	 1.2368689747e+00
 5.6190359988e-01	 9.1127198378e-01	 1.2293788332e+00
 5.5312168836e-01	 9.1662898006e-01	 1.1762972967e+00
 6.4414907524e-01	 8.6613688220e-01	 4.1383406967e-01
 6.3572581161e-01	 8.7233815474e-01	 5.5040742941e-01
 6.2724928019e-01	 8.7845292556e-01	 6.8536557873e-01
 6.1872080308e-01	 8.8448053131e-01	 8.1351276365e-01
 6.1014171282e-01	 8.9042033540e-01	 9.2992701160e-01
 6.0151335176e-01	 8.9627172815e-01	 1.0299608294e+00
 5.9283707133e-01	 9.0203412699e-01	 1.1092416277e+00
 5.8411423142e-01	 9.0770697660e-01	 1.1636718839e+00
 5.7534619968e-01	 9.1328974903e-01	 1.1894290554e+00
 5.6653435081e-01	 9.1878194382e-01	 1.1829652553e+00
 5.5768006594e-01	 9.2418308810e-01	 1.1410067001e+00
 6.4941423958e-01	 8.7321653691e-01	 5.0745513483e-01
 6.4092212563e-01	 8.7946849759e-01	 6.2369021237e-01
 6.3237630850e-01	 8.8563324950e-01	 7.3372688987e-01
 6.2377812107e-01	 8.9171012387e-01	 8.3448630441e-01
 6.1512890680e-01	 8.9769847889e-01	 9.2313140080e-01
 6.0643001899e-01	 9.0359769993e-01	 9.9706487406e-01
 5.9768282013e-01	 9.0940719963e-01	 1.0539269129e+00
 5.8888868122e-01	 9.1512641814e-01	 1.0915927600e+00
 5.8004898109e-01	 9.2075482320e-01	 1.1081701062e+00
 5.7116510568e-01	 9.2629191025e-01	 1.1019963320e+00
 5.6223844740e-01	 9.3173720256e-01	 1.0716356127e+00
 5.1665372221e-01	 8.5619454885e-01	-5.7566587934e-01
 5.0841278331e-01	 8.6111358749e-01	-6.0099678378e-01
 5.0013510550e-01	 8.6594747579e-01	-6.0643688147e-01
 4.9182198323e-01	 8.7069585389e-01	-5.9828105230e-01
 4.8347471433e-01	 8.7535838762e-01	-5.8252860779e-01
 4.7509459936e-01	 8.7993476851e-01	-5.6487953208e-01
 4.6668294105e-01	 8.8442471375e-01	-5.5073107677e-01
 4.5824104362e-01	 8.8882796619e-01	-5.4517470888e-01
 4.4977021217e-01	 8.9314429419e-01	-5.5299341167e-01
 4.4127175214e-01	 8.9737349163e-01	-5.7865933735e-01
 4.3274696861e-01	 9.0151537777e-01	-6.2633181106e-01
 5.2121239428e-01	 8.6374914493e-01	-9.1215253835e-02
 5.1289874181e-01	 8.6871158650e-01	-1.5197072978e-01
 5.0454802626e-01	 8.7358812641e-01	-1.9730157861e-01
 4.9616155352e-01	 8.7837840162e-01	-2.3075573830e-01
 4.8774063285e-01	 8.8308207502e-01	-2.5565754051e-01
 4.7928657630e-01	 8.8769883541e-01	-2.7510687031e-01
 4.7080069808e-01	 8.9222839749e-01	-2.9197854011e-01
 4.6228431392e-01	 8.9667050184e-01	-3.0892187429e-01
 4.5373874046e-01	 9.0102491477e-01	-3.2836050152e-01
 4.4516529463e-01	 9.0529142836e-01	-3.5249235202e-01
 4.3656529304e-01	 9.0946986025e-01	-3.8328985684e-01
 5.2577099790e-01	 8.7130362757e-01	 3.0202142324e-01
 5.1738463294e-01	 8.7630947141e-01	 2.1648142624e-01
 5.0896088076e-01	 8.8122866229e-01	 1.4243001523e-01
 5.0050105864e-01	 8.8606083398e-01	 7.8507535821e-02
 4.9200648731e-01	 8.9080564643e-01	 2.3514809815e-02
 4.8347849028e-01	 8.9546278571e-01	-2.3588310066e-02
 4.7491839327e-01	 9.0003196405e-01	-6.3684478974e-02
 4.6632752351e-01	 9.0451291972e-01	-9.7500486827e-02
 4.5770720916e-01	 9.0890541702e-01	-1.2560896845e-01
 4.4905877865e-01	 9.1320924619e-01	-1.4843019256e-01
 4.4038356013e-01	 9.1742422329e-01	-1.6623392579e-01
 5.3032954210e-01	 8.7885801174e-01	 6.1205408792e-01
 5.2187046562e-01	 8.8390725729e-01	 5.1118934780e-01
 5.1337367775e-01	 8.8886909858e-01	 4.1855104686e-01
 5.0484050721e-01	 8.9374316621e-01	 3.3442296829e-01
 4.9627228617e-01	 8.9852911717e-01	 2.5919489237e-01
 4.8767034963e-01	 9.0322663483e-01	 1.9335948979e-01
 4.7903603480e-01	 9.0783542889e-01	 1.3750922320e-01
 4.7037068041e-01	 9.1235523538e-01	 9.2333263886e-02
 4.6167562613e-01	 9.1678581655e-01	 5.8614429382e-02
 4.5295221193e-01	 9.2112696081e-01	 3.7226147305e-02
 4.4420177745e-01	 9.2537848265e-01	 2.9129449832e-02
 5.3488803594e-01	 8.8641231243e-01	 8.4662399736e-01
 5.2635624872e-01	 8.9150495921e-01	 7.3875405666e-01
 5.1778642597e-01	 8.9650945044e-01	 6.3666117094e-01
 5.0917990782e-01	 9.0142541355e-01	 5.4174106109e-01
 5.0053803789e-01	 9.0625250257e-01	 4.5544944206e-01
 4.9186216266e-01	 9.1099039814e-01	 3.7929786993e-01
 4.8315363082e-01	 9.1563880750e-01	 3.1484968059e-01
 4.7441379262e-01	 9.2019746438e-01	 2.6371602740e-01
 4.6564399924e-01	 9.2466612900e-01	 2.2755202417e-01
 4.5684560217e-01	 9.2904458795e-01	 2.0805299877e-01
 4.4801995257e-01	 9.3333265411e-01	 2.0695086182e-01
 5.3944648844e-01	 8.9396654463e-01	 1.0132147271e+00
 5.3084199115e-01	 8.9910259224e-01	 9.0555723584e-01
 5.2219913419e-01	 9.0414973303e-01	 8.0217436629e-01
 5.1351926909e-01	 9.0910759122e-01	 7.0505517698e-01
 5.0480375093e-01	 9.1397581793e-01	 6.1621102424e-01
 4.9605393768e-01	 9.1875409106e-01	 5.3767096955e-01
 4.8727118950e-01	 9.2344211535e-01	 4.7147734384e-01
 4.7845686817e-01	 9.2803962227e-01	 4.1968147563e-01
 4.6961233637e-01	 9.3254636999e-01	 3.8433958912e-01
 4.6073895712e-01	 9.3696214329e-01	 3.6750887714e-01
 4.5183809307e-01	 9.4128675344e-01	 3.7124375276e-01
 5.4400490865e-01	 9.0152072331e-01	 1.1190625866e+00
 5.3532770181e-01	 9.0670017145e-01	 1.0177700369e+00
 5.2661181114e-01	 9.1178996149e-01	 9.2032633178e-01
 5.1785859961e-01	 9.1678971448e-01	 8.2880773992e-01
 5.0906943376e-01	 9.2169907858e-01	 7.4528327430e-01
 5.0024568300e-01	 9.2651772899e-01	 6.7181025819e-01
 4.9138871902e-01	 9.3124536793e-01	 6.1043009544e-01
 4.8249991508e-01	 9.3588172461e-01	 5.6316425079e-01
 4.7358064539e-01	 9.4042655516e-01	 5.3201044557e-01
 4.6463228448e-01	 9.4487964254e-01	 5.1893907223e-01
 4.5565620653e-01	 9.4924079643e-01	 5.2588983063e-01
 5.4856330561e-01	 9.0907486346e-01	 1.1711664878e+00
 5.3981338958e-01	 9.1429771191e-01	 1.0813614206e+00
 5.3102446559e-01	 9.1943015098e-01	 9.9618148637e-01
 5.2219790801e-01	 9.2447179856e-01	 9.1729609979e-01
 5.1333509482e-01	 9.2942229984e-01	 8.4634585003e-01
 5.0443740694e-01	 9.3428132731e-01	 7.8493881612e-01
 4.9550622753e-01	 9.3904858070e-01	 7.3464711567e-01
 4.8654294136e-01	 9.4372378695e-01	 6.9700369173e-01
 4.7754893417e-01	 9.4830670014e-01	 6.7349934104e-01
 4.6852559198e-01	 9.5279710140e-01	 6.6557998582e-01
 4.5947430050e-01	 9.5719479885e-01	 6.7464418964e-01
 5.5312168836e-01	 9.1662898006e-01	 1.1762972967e+00
 5.4429906338e-01	 9.2189522869e-01	 1.1021060572e+00
 5.3543710628e-01	 9.2707031665e-01	 1.0346395962e+00
 5.2653720287e-01	 9.3215385868e-01	 9.7467808086e-01
 5.1760074259e-01	 9.3714549703e-01	 9.2295911328e-01
 5.0862911782e-01	 9.4204490143e-01	 8.8017537767e-01
 4.9962372321e-01	 9.4685176915e-01	 8.4697253261e-01
 4.9058595505e-01	 9.5156582484e-01	 8.2394735144e-01
 4.8151721057e-01	 9.5618682055e-01	 8.1164611132e-01
 4.7241888735e-01	 9.6071453559e-01	 8.1056323080e-01
 4.6329238258e-01	 9.6514877647e-01	 8.2114015419e-01
 5.5768006594e-01	 9.2418308810e-01	 1.1410067001e+00
 5.4878473208e-01	 9.2949273685e-01	 1.0855918134e+00
 5.3984974197e-01	 9.3471047367e-01	 1.0404420503e+00
 5.3087649282e-01	 9.3983591010e-01	 1.0049772321e+00
 5.2186638553e-01	 9.4486868545e-01	 9.7856855641e-01
 5.1282082394e-01	 9.4980846675e-01	 9.6053815116e-01
 5.0374121422e-01	 9.5465494875e-01	 9.5015886836e-01
 4.9462896414e-01	 9.5940785384e-01	 9.4665431791e-01
 4.8548548248e-01	 9.6406693203e-01	 9.4919913898e-01
 4.7631217830e-01	 9.6863196080e-01	 9.5691950561e-01
 4.6711046032e-01	 9.7310274507e-01	 9.6889386186e-01
 5.6223844740e-01	 9.3173720256e-01	 1.0716356127e+00
 5.5327040460e-01	 9.3709025147e-01	 1.0372268471e+00
 5.4426238140e-01	 9.4235063717e-01	 1.0181778045e+00
 5.3521578645e-01	 9.4751796805e-01	 1.0120877963e+00
 5.2613203208e-01	 9.5259188044e-01	 1.0165089883e+00
 5.1701253362e-01	 9.5757203867e-01	 1.0289484283e+00
 5.0785870872e-01	 9.6245813498e-01	 1.0468702933e+00
 4.9867197668e-01	 9.6724988951e-01	 1.0676983493e+00
 4.8945375776e-01	 9.7194705020e-01	 1.0888186201e+00
 4.8020547255e-01	 9.7654939274e-01	 1.1075822568e+00
 4.7092854131e-01	 9.8105672044e-01	 1.1213086003e+00
 4.3274696861e-01	 9.0151537777e-01	-6.2633181106e-01
 4.2419571008e-01	 9.0557047888e-01	-6.8434338484e-01
 4.1562072663e-01	 9.0953795245e-01	-7.3601495657e-01
 4.0702331907e-01	 9.1341769248e-01	-7.7793513078e-01
 3.9840478557e-01	 9.1720961780e-01	-8.0689700602e-01
 3.8976642107e-01	 9.2091367195e-01	-8.1990043442e-01
 3.8110951670e-01	 9.2452982293e-01	-8.1415387599e-01
 3.7243535926e-01	 9.2805806304e-01	-7.8707585357e-01
 3.6374523066e-01	 9.3149840861e-01	-7.3447159782e-01
 3.5504040738e-01	 9.3485089983e-01	-6.5008544173e-01
 3.4632215993e-01	 9.3811560045e-01	-5.3204913389e-01
 4.3656529304e-01	 9.0946986025e-01	-3.8328985684e-01
 4.2793858285e-01	 9.1356074138e-01	-4.1258340866e-01
 4.1928793839e-01	 9.1756322178e-01	-4.3004121755e-01
 4.1061467198e-01	 9.2147719453e-01	-4.3435475938e-01
 4.0192009321e-01	 9.2530257775e-01	-4.2436723294e-01
 3.9320550847e-01	 9.2903931446e-01	-3.9907377016e-01
 3.8447222027e-01	 9.3268737239e-01	-3.5762133877e-01
 3.7572152678e-01	 9.3624674377e-01	-2.9930834527e-01
 3.6695472120e-01	 9.3971744509e-01	-2.2309741731e-01
 3.5817309127e-01	 9.4309951687e-01	-1.2401691958e-01
 3.4937791874e-01	 9.4639302343e-01	-8.9818120527e-04
 4.4038356013e-01	 9.1742422329e-01	-1.6623392579e-01
 4.3168139940e-01	 9.2155088388e-01	-1.7337481518e-01
 4.2295509508e-01	 9.2558837060e-01	-1.6427061543e-01
 4.1420597095e-01	 9.2953657555e-01	-1.3926162392e-01
 4.0543534806e-01	 9.3339541616e-01	-9.8793567894e-02
 3.9664454422e-01	 9.3716483494e-01	-4.3416257866e-02
 3.8783487335e-01	 9.4084479935e-01	 2.6217985027e-02
 3.7900764494e-01	 9.4443530154e-01	 1.0935611856e-01
 3.7016416353e-01	 9.4793635814e-01	 2.0514865702e-01
 3.6130572813e-01	 9.5134801004e-01	 3.1595290015e-01
 3.5243363166e-01	 9.5467032212e-01	 4.4351679214e-01
 4.4420177745e-01	 9.2537848265e-01	 2.9129449832e-02
 4.3542416717e-01	 9.2954092225e-01	 3.8261970867e-02
 4.2662220398e-01	 9.3361341482e-01	 6.6881191098e-02
 4.1779722311e-01	 9.3759585153e-01	 1.1344078660e-01
 4.0895055710e-01	 9.4148814909e-01	 1.7632895168e-01
 4.0008353515e-01	 9.4529024952e-01	 2.5387081674e-01
 3.9119748259e-01	 9.4900211999e-01	 3.4433102703e-01
 3.8229372027e-01	 9.5262375257e-01	 4.4591647198e-01
 3.7337356404e-01	 9.5615516407e-01	 5.5677915485e-01
 3.6443832415e-01	 9.5959639570e-01	 6.7643066348e-01
 3.5548930476e-01	 9.6294751292e-01	 8.0737207702e-01
 4.4801995257e-01	 9.3333265411e-01	 2.0695086182e-01
 4.3916689358e-01	 9.3753087232e-01	 2.2714036840e-01
 4.3028927234e-01	 9.4163837035e-01	 2.6881192065e-01
 4.2138843558e-01	 9.4565503845e-01	 3.2964508611e-01
 4.1246572728e-01	 9.4958079259e-01	 4.0728768188e-01
 4.0352248808e-01	 9.5341557431e-01	 4.9935878547e-01
 3.9456005467e-01	 9.5715935048e-01	 6.0345185696e-01
 3.8557975929e-01	 9.6081211312e-01	 7.1713796216e-01
 3.7658292907e-01	 9.6437387917e-01	 8.3796908585e-01
 3.6757088555e-01	 9.6784469021e-01	 9.6379633172e-01
 3.5854494408e-01	 9.7122461225e-01	 1.0966326898e+00
 4.5183809307e-01	 9.4128675344e-01	 3.7124375276e-01
 4.4290958605e-01	 9.4552074994e-01	 3.9791436677e-01
 4.3395630746e-01	 9.4966325312e-01	 4.4674027908e-01
 4.2497961549e-01	 9.5371415229e-01	 5.1504835109e-01
 4.1598086559e-01	 9.5767336271e-01	 6.0016133244e-01
 4.0696140982e-01	 9.6154082542e-01	 6.9940099289e-01
 3.9792259627e-01	 9.6531650701e-01	 8.1009133213e-01
 3.8886576851e-01	 9.6900039943e-01	 9.2956185679e-01
 3.7979226501e-01	 9.7259251976e-01	 1.0551509143e+00
 3.7070341855e-01	 9.7609290993e-01	 1.1842090722e+00
 3.6160055570e-01	 9.7950163653e-01	 1.3170611926e+00
 4.5565620653e-01	 9.4924079643e-01	 5.2588983063e-01
 4.4665225201e-01	 9.5351057097e-01	 5.5508489053e-01
 4.3762331660e-01	 9.5768807905e-01	 6.0571316305e-01
 4.2857076996e-01	 9.6177320904e-01	 6.7516003661e-01
 4.1949597900e-01	 9.6576587551e-01	 7.6082845322e-01
 4.1040030719e-01	 9.6966601897e-01	 8.6014169658e-01
 4.0128511404e-01	 9.7347360575e-01	 9.7054623963e-01
 3.9215175446e-01	 9.7718862773e-01	 1.0895146420e+00
 3.8300157821e-01	 9.8081110212e-01	 1.2145484870e+00
 3.7383592935e-01	 9.8434107123e-01	 1.3431813480e+00
 3.6465614567e-01	 9.8777860218e-01	 1.4742260648e+00
 4.5947430050e-01	 9.5719479885e-01	 6.7464418964e-01
 4.5039489888e-01	 9.6150035124e-01	 7.0300582307e-01
 4.4129030703e-01	 9.6571286404e-01	 7.5061248120e-01
 4.3216190611e-01	 9.6983222469e-01	 8.1530947454e-01
 4.2301107448e-01	 9.7385834702e-01	 8.9497547502e-01
 4.1383918703e-01	 9.7779117108e-01	 9.8752450134e-01
 4.0464761466e-01	 9.8163066289e-01	 1.0909079610e+00
 3.9543772364e-01	 9.8537681426e-01	 1.2031167403e+00
 3.8621087504e-01	 9.8902964256e-01	 1.3221833333e+00
 3.7696842418e-01	 9.9258919045e-01	 1.4461839994e+00
 3.6771172006e-01	 9.9605552561e-01	 1.5735096492e+00
 4.6329238258e-01	 9.6514877647e-01	 8.2114015419e-01
 4.5413753408e-01	 9.6949010660e-01	 8.4588970908e-01
 4.4495728603e-01	 9.7373762401e-01	 8.8616161472e-01
 4.3575303107e-01	 9.7789121521e-01	 9.4065297827e-01
 4.2652615900e-01	 9.8195079332e-01	 1.0081043303e+00
 4.1727805615e-01	 9.8591629786e-01	 1.0873003545e+00
 4.0801010480e-01	 9.8978769460e-01	 1.1770706869e+00
 3.9872368258e-01	 9.9356497527e-01	 1.2762907768e+00
 3.8942016187e-01	 9.9724815739e-01	 1.3838828006e+00
 3.8010090925e-01	 1.0008372840e+00	 1.4988166230e+00
 3.7076728492e-01	 1.0043324232e+00	 1.6201107941e+00
 4.6711046032e-01	 9.7310274507e-01	 9.6889386186e-01
 4.5788016503e-01	 9.7747985291e-01	 9.8781315424e-01
 4.4862426087e-01	 9.8176237489e-01	 1.0169315384e+00
 4.3934415195e-01	 9.8595019660e-01	 1.0561805764e+00
 4.3004123953e-01	 9.9004323043e-01	 1.1055396778e+00
 4.2071692137e-01	 9.9404141543e-01	 1.1650351271e+00
 4.1137259112e-01	 9.9794471706e-01	 1.2347392079e+00
 4.0200963779e-01	 1.0017531270e+00	 1.3147694187e+00
 3.9262944505e-01	 1.0054666629e+00	 1.4052877720e+00
 3.8323339076e-01	 1.0090853681e+00	 1.5065001732e+00
 3.7382284632e-01	 1.0126093115e+00	 1.6186558697e+00
 4.7092854131e-01	 9.8105672044e-01	 1.1213086003e+00
 4.6162279917e-01	 9.8546960600e-01	 1.1327219392e+00
 4.5229123883e-01	 9.8978713259e-01	 1.1473466211e+00
 4.4293527589e-01	 9.9400918483e-01	 1.1667223968e+00
 4.3355632305e-01	 9.9813567443e-01	 1.1924357547e+00
 4.2415578950e-01	 1.0021665399e+00	 1.2261168053e+00
 4.1473508031e-01	 1.0061017465e+00	 1.2694363049e+00
 4.0529559579e-01	 1.0099412857e+00	 1.3241028141e+00
 3.9583873097e-01	 1.0136851754e+00	 1.3918599878e+00
 3.8636587493e-01	 1.0173334593e+00	 1.4744839923e+00
 3.7687841031e-01	 1.0208862068e+00	 1.5737810436e+00
 3.4632215993e-01	 9.3811560045e-01	-5.3204913389e-01
 3.3759323727e-01	 9.4129206486e-01	-4.0586015090e-01
 3.2885341468e-01	 9.4438096497e-01	-2.9917232962e-01
 3.2010394073e-01	 9.4738243296e-01	-2.1367920223e-01
 3.1134605611e-01	 9.5029662344e-01	-1.5097649968e-01
 3.0258099304e-01	 9.5312371316e-01	-1.1256171192e-01
 2.9380997494e-01	 9.5586390071e-01	-9.9833874718e-02
 2.8503421588e-01	 9.5851740614e-01	-1.1409357744e-01
 2.7625492019e-01	 9.6108447067e-01	-1.5654318572e-01
 2.6747328204e-01	 9.6356535632e-01	-2.2828727218e-01
 2.5869048500e-01	 9.6596034556e-01	-3.3033324774e-01
 3.4937791874e-01	 9.4639302343e-01	-8.9818120527e-04
 3.4057197680e-01	 9.4959751524e-01	 1.2247464012e-01
 3.3175503876e-01	 9.5271367013e-01	 2.2158575079e-01
 3.2292836420e-01	 9.5574162144e-01	 2.9522260215e-01
 3.1409320475e-01	 9.5868152515e-01	 3.4226816394e-01
 3.0525080353e-01	 9.6153355958e-01	 3.6170087224e-01
 2.9640239472e-01	 9.6429792505e-01	 3.5259435696e-01
 2.8754920312e-01	 9.6697484357e-01	 3.1411695533e-01
 2.7869244369e-01	 9.6956455848e-01	 2.4553101819e-01
 2.6983332113e-01	 9.7206733412e-01	 1.4619201663e-01
 2.6097302946e-01	 9.7448345545e-01	 1.5547457005e-02
 3.5243363166e-01	 9.5467032212e-01	 4.4351679214e-01
 3.4355067160e-01	 9.5790284089e-01	 5.6543667378e-01
 3.3465661926e-01	 9.6104625015e-01	 6.5965912450e-01
 3.2575274526e-01	 9.6410068439e-01	 7.2532794132e-01
 3.1684031214e-01	 9.6706630095e-01	 7.6167791674e-01
 3.0792057392e-01	 9.6994327971e-01	 7.6803448389e-01
 2.9899477557e-01	 9.7273182274e-01	 7.4381314681e-01
 2.9006415260e-01	 9.7543215400e-01	 6.8851870255e-01
 2.8112993059e-01	 9.7804451896e-01	 6.0174426242e-01
 2.7219332478e-01	 9.8056918426e-01	 4.8317008048e-01
 2.6325553964e-01	 9.8300643735e-01	 3.3256219760e-01
 3.5548930476e-01	 9.6294751292e-01	 8.0737207702e-01
 3.4652932758e-01	 9.6620805830e-01	 9.2864091527e-01
 3.3755816195e-01	 9.6937872157e-01	 1.0200158604e+00
 3.2857708950e-01	 9.7245963839e-01	 1.0808754779e+00
 3.1958738373e-01	 9.7545096747e-01	 1.1106825991e+00
 3.1059030952e-01	 9.7835289023e-01	 1.1089838500e+00
 3.0158712263e-01	 9.8116561051e-01	 1.0754089703e+00
 2.9257906930e-01	 9.8388935420e-01	 1.0096699282e+00
 2.8356738572e-01	 9.8652436891e-01	 9.1155984059e-01
 2.7455329767e-01	 9.8907092358e-01	 7.8095170469e-01
 2.6553802007e-01	 9.9152930816e-01	 6.1779695138e-01
 3.5854494408e-01	 9.7122461225e-01	 1.0966326898e+00
 3.4950795064e-01	 9.7451318394e-01	 1.2175108722e+00
 3.4045967257e-01	 9.7771110092e-01	 1.3074552456e+00
 3.3140140253e-01	 9.8081850002e-01	 1.3659605234e+00
 3.2233442496e-01	 9.8383554133e-01	 1.3925967813e+00
 3.1326001561e-01	 9.8676240782e-01	 1.3870090536e+00
 3.0417944105e-01	 9.8959930508e-01	 1.3489167236e+00
 2.9509395820e-01	 9.9234646095e-01	 1.2781127141e+00
 2.8600481391e-01	 9.9500412515e-01	 1.1744624860e+00
 2.7691324449e-01	 9.9757256896e-01	 1.0379028530e+00
 2.6782047528e-01	 1.0000520848e+00	 8.6844062120e-01
 3.6160055570e-01	 9.7950163653e-01	 1.3170611926e+00
 3.5248654669e-01	 9.8281823426e-01	 1.4372866012e+00
 3.4336115689e-01	 9.8604340471e-01	 1.5266148546e+00
 3.3422568995e-01	 9.8917728587e-01	 1.5845410518e+00
 3.2508144128e-01	 9.9222003916e-01	 1.6106246077e+00
 3.1592969750e-01	 9.9517184916e-01	 1.6044890991e+00
 3.0677173596e-01	 9.9803292319e-01	 1.5658219063e+00
 2.9760882431e-01	 1.0008034910e+00	 1.4943736588e+00
 2.8844222001e-01	 1.0034838045e+00	 1.3899574911e+00
 2.7927316990e-01	 1.0060741373e+00	 1.2524481163e+00
 2.7010290979e-01	 1.0085747842e+00	 1.0817807278e+00
 3.6465614567e-01	 9.8777860218e-01	 1.4742260648e+00
 3.5546512164e-01	 9.9112322576e-01	 1.5930323055e+00
 3.4626262065e-01	 9.9437564948e-01	 1.6819772581e+00
 3.3704995737e-01	 9.9753601250e-01	 1.7404434068e+00
 3.2782843815e-01	 1.0006044776e+00	 1.7678643945e+00
 3.1859936047e-01	 1.0035812309e+00	 1.7637252962e+00
 3.0936401251e-01	 1.0064664815e+00	 1.7275626909e+00
 3.0012367260e-01	 1.0092604612e+00	 1.6589645386e+00
 2.9087960883e-01	 1.0119634238e+00	 1.5575698690e+00
 2.8163307860e-01	 1.0145756453e+00	 1.4230682892e+00
 2.7238532814e-01	 1.0170974231e+00	 1.2551993186e+00
 3.6771172006e-01	 9.9605552561e-01	 1.5735096492e+00
 3.5844368140e-01	 9.9942817490e-01	 1.6896435490e+00
 3.4916406961e-01	 1.0027078517e+00	 1.7778763920e+00
 3.3987421038e-01	 1.0058946965e+00	 1.8373677194e+00
 3.3057542100e-01	 1.0089888733e+00	 1.8673129927e+00
 3.2126900983e-01	 1.0119905698e+00	 1.8669444706e+00
 3.1195627583e-01	 1.0148999969e+00	 1.8355318869e+00
 3.0263850806e-01	 1.0177173882e+00	 1.7723829338e+00
 2.9331698523e-01	 1.0204429998e+00	 1.6768435564e+00
 2.8399297526e-01	 1.0230771100e+00	 1.5482980663e+00
 2.7466773484e-01	 1.0256200187e+00	 1.3861690797e+00
 3.7076728492e-01	 1.0043324232e+00	 1.6201107941e+00
 3.6142223187e-01	 1.0077330981e+00	 1.7318541075e+00
 3.5206550952e-01	 1.0110400280e+00	 1.8185036067e+00
 3.4269845458e-01	 1.0142533544e+00	 1.8788930539e+00
 3.3332239529e-01	 1.0173732428e+00	 1.9118699330e+00
 3.2393865087e-01	 1.0203998825e+00	 1.9163020131e+00
 3.1454853108e-01	 1.0233334860e+00	 1.8910788049e+00
 3.0515333568e-01	 1.0261742889e+00	 1.8351128220e+00
 2.9575435403e-01	 1.0289225495e+00	 1.7473406533e+00
 2.8635286457e-01	 1.0315785482e+00	 1.6267238510e+00
 2.7695013443e-01	 1.0341425876e+00	 1.4722496406e+00
 3.7382284632e-01	 1.0126093115e+00	 1.6186558697e+00
 3.6440077897e-01	 1.0160380120e+00	 1.7242424790e+00
 3.5496694615e-01	 1.0193721949e+00	 1.8079134154e+00
 3.4552269558e-01	 1.0226120029e+00	 1.8684822964e+00
 3.3606936646e-01	 1.0257576029e+00	 1.9043413628e+00
 3.2660828888e-01	 1.0288091856e+00	 1.9138847765e+00
 3.1714078338e-01	 1.0317669655e+00	 1.8955110267e+00
 3.0766816045e-01	 1.0346311799e+00	 1.8476251401e+00
 2.9819172007e-01	 1.0374020895e+00	 1.7686406991e+00
 2.8871275120e-01	 1.0400799768e+00	 1.6569816716e+00
 2.7923253144e-01	 1.0426651469e+00	 1.5110840588e+00
 3.7687841031e-01	 1.0208862068e+00	 1.5737810436e+00
 3.6737932860e-01	 1.0243429329e+00	 1.6712380719e+00
 3.5786838524e-01	 1.0277043688e+00	 1.7500289568e+00
 3.4834693899e-01	 1.0309706585e+00	 1.8094868023e+00
 3.3881633997e-01	 1.0341419700e+00	 1.8474437888e+00
 3.2927792916e-01	 1.0372184959e+00	 1.8617138276e+00
 3.1973303789e-01	 1.0402004521e+00	 1.8500960866e+00
 3.1018298736e-01	 1.0430880782e+00	 1.8103783167e+00
 3.0062908817e-01	 1.0458816367e+00	 1.7403399821e+00
 2.9107263984e-01	 1.0485814126e+00	 1.6377551974e+00
 2.8151493038e-01	 1.0511877135e+00	 1.5003954761e+00
 2.5869048500e-01	 9.6596034556e-01	-3.3033324774e-01
 2.4990770180e-01	 9.6826974115e-01	-4.3342118712e-01
 2.4112609427e-01	 9.7049386637e-01	-5.0936430510e-01
 2.3234681259e-01	 9.7263306406e-01	-5.6063224453e-01
 2.2357099480e-01	 9.7468769596e-01	-5.8959333327e-01
 2.1479976648e-01	 9.7665814235e-01	-5.9851328086e-01
 2.0603424041e-01	 9.7854480164e-01	-5.8955411212e-01
 1.9727551623e-01	 9.8034808995e-01	-5.6477332991e-01
 1.8852468015e-01	 9.8206844073e-01	-5.2612329887e-01
 1.7978280468e-01	 9.8370630427e-01	-4.7545084189e-01
 1.7105094831e-01	 9.8526214738e-01	-4.1449704041e-01
 2.6097302946e-01	 9.7448345545e-01	 1.5547457005e-02
 2.5211275175e-01	 9.7681322788e-01	-1.1682458721e-01
 2.4325366008e-01	 9.7905697758e-01	-2.2209393697e-01
 2.3439691478e-01	 9.8121505038e-01	-3.0182859511e-01
 2.2554366393e-01	 9.8328781124e-01	-3.5754478414e-01
 2.1669504306e-01	 9.8527564378e-01	-3.9070578532e-01
 2.0785217474e-01	 9.8717894993e-01	-4.0272095149e-01
 1.9901616833e-01	 9.8899814948e-01	-3.9494488711e-01
 1.9018811962e-01	 9.9073367969e-01	-3.6867678834e-01
 1.8136911059e-01	 9.9238599486e-01	-3.2515993599e-01
 1.7256020906e-01	 9.9395556588e-01	-2.6558133402e-01
 2.6325553964e-01	 9.8300643735e-01	 3.3256219760e-01
 2.5431776858e-01	 9.8535658633e-01	 1.7924547590e-01
 2.4538119393e-01	 9.8761996020e-01	 5.2119054750e-02
 2.3644698618e-01	 9.8979690784e-01	-4.9617715864e-02
 2.2751630344e-01	 9.9188779738e-01	-1.2675334359e-01
 2.1859029117e-01	 9.9389301581e-01	-1.8006321350e-01
 2.0967008177e-01	 9.9581296856e-01	-2.1030873049e-01
 2.0075679429e-01	 9.9764807911e-01	-2.1823657830e-01
 1.9185153412e-01	 9.9939878854e-01	-2.0457808890e-01
 1.8295539268e-01	 1.0010655551e+00	-1.7004871594e-01
 1.7406944714e-01	 1.0026488538e+00	-1.1534760554e-01
 2.6553802007e-01	 9.9152930816e-01	 6.1779695138e-01
 2.5652275667e-01	 9.9389983343e-01	 4.5074054284e-01
 2.4750870006e-01	 9.9618283122e-01	 3.0832050729e-01
 2.3849703086e-01	 9.9837865345e-01	 1.9037191618e-01
 2.2948891725e-01	 1.0004876714e+00	 9.6712068889e-02
 2.2048551459e-01	 1.0025102755e+00	 2.7141254558e-02
 2.1148796511e-01	 1.0044468747e+00	-1.8556569283e-02
 2.0249739757e-01	 1.0062978960e+00	-4.0613175605e-02
 1.9351492693e-01	 1.0080637845e+00	-3.9275538504e-02
 1.8454165409e-01	 1.0097450022e+00	-1.4805369586e-02
 1.7557866555e-01	 1.0113420285e+00	 3.2521285912e-02
 2.6782047528e-01	 1.0000520848e+00	 8.6844062120e-01
 2.5872772040e-01	 1.0024429861e+00	 6.9375390583e-01
 2.4963618268e-01	 1.0047456076e+00	 5.4172899523e-01
 2.4054705289e-01	 1.0069603042e+00	 4.1270761864e-01
 2.3146150925e-01	 1.0090874505e+00	 3.0699337506e-01
 2.2238071706e-01	 1.0111274400e+00	 2.2485223969e-01
 2.1330582836e-01	 1.0130806854e+00	 1.6651301499e-01
 2.0423798161e-01	 1.0149476173e+00	 1.3216773196e-01
 1.9517830137e-01	 1.0167286846e+00	 1.2197200744e-01
 1.8612789797e-01	 1.0184243535e+00	 1.3604536337e-01
 1.7708786729e-01	 1.0200351071e+00	 1.7447151380e-01
 2.7010290979e-01	 1.0085747842e+00	 1.0817807278e+00
 2.6093266413e-01	 1.0109860614e+00	 9.0451466667e-01
 2.5176364600e-01	 1.0133083064e+00	 7.4772858458e-01
 2.4259705633e-01	 1.0155418772e+00	 6.1214428812e-01
 2.3343408337e-01	 1.0176871515e+00	 4.9843449029e-01
 2.2427590234e-01	 1.0197445264e+00	 4.0722302507e-01
 2.1512367513e-01	 1.0217144178e+00	 3.3908502303e-01
 2.0597854987e-01	 1.0235972602e+00	 2.9454705371e-01
 1.9684166072e-01	 1.0253935062e+00	 2.7408724107e-01
 1.8771412747e-01	 1.0271036260e+00	 2.7813535809e-01
 1.7859705534e-01	 1.0287281069e+00	 3.0707290666e-01
 2.7238532814e-01	 1.0170974231e+00	 1.2551993186e+00
 2.6313759225e-01	 1.0195290761e+00	 1.0793820939e+00
 2.5389109426e-01	 1.0218709445e+00	 9.2186195196e-01
 2.4464704525e-01	 1.0241233894e+00	 7.8361659885e-01
 2.3540664351e-01	 1.0262867917e+00	 6.6557292235e-01
 2.2617107421e-01	 1.0283615517e+00	 5.6860687899e-01
 2.1694150902e-01	 1.0303480891e+00	 4.9354334685e-01
 2.0771910580e-01	 1.0322468419e+00	 4.4115595091e-01
 1.9850500829e-01	 1.0340582665e+00	 4.1216686778e-01
 1.8930034574e-01	 1.0357828370e+00	 4.0724661650e-01
 1.8010623270e-01	 1.0374210451e+00	 4.2701384220e-01
 2.7466773484e-01	 1.0256200187e+00	 1.3861690797e+00
 2.6534250911e-01	 1.0280720472e+00	 1.2148402614e+00
 2.5601853167e-01	 1.0304335389e+00	 1.0598238477e+00
 2.4669702371e-01	 1.0327048578e+00	 9.2223159139e-01
 2.3737919359e-01	 1.0348863879e+00	 8.0313179044e-01
 2.2806623640e-01	 1.0369785331e+00	 7.0354881181e-01
 2.1875933364e-01	 1.0389817163e+00	 6.2446257505e-01
 2.0945965286e-01	 1.0408963794e+00	 5.6680800329e-01
 2.0016834737e-01	 1.0427229825e+00	 5.3147444922e-01
 1.9088655592e-01	 1.0444620038e+00	 5.1930510408e-01
 1.8161540236e-01	 1.0461139390e+00	 5.3109639711e-01
 2.7695013443e-01	 1.0341425876e+00	 1.4722496406e+00
 2.6754741911e-01	 1.0366149917e+00	 1.3074929526e+00
 2.5814596244e-01	 1.0389961067e+00	 1.1574548826e+00
 2.4874699579e-01	 1.0412862995e+00	 1.0232616288e+00
 2.3935173753e-01	 1.0434859574e+00	 9.0601224017e-01
 2.2996139269e-01	 1.0455954876e+00	 8.0677774200e-01
 2.2057715259e-01	 1.0476153166e+00	 7.2660020492e-01
 2.1120019449e-01	 1.0495458899e+00	 6.6649176451e-01
 2.0183168127e-01	 1.0513876715e+00	 6.2743360170e-01
 1.9247276115e-01	 1.0531411436e+00	 6.1037489273e-01
 1.8312456732e-01	 1.0548068057e+00	 6.1623173780e-01
 2.7923253144e-01	 1.0426651469e+00	 1.5110840588e+00
 2.6975232661e-01	 1.0451579266e+00	 1.3540588143e+00
 2.6027339081e-01	 1.0475586647e+00	 1.2107356202e+00
 2.5079696554e-01	 1.0498677314e+00	 1.0821376995e+00
 2.4132427923e-01	 1.0520855171e+00	 9.6928623169e-01
 2.3185654683e-01	 1.0542124324e+00	 8.7319904781e-01
 2.2239496948e-01	 1.0562489071e+00	 7.9488923790e-01
 2.1294073414e-01	 1.0581953907e+00	 7.3536368419e-01
 2.0349501329e-01	 1.0600523507e+00	 6.9562152952e-01
 1.9405896458e-01	 1.0618202734e+00	 6.7665259224e-01
 1.8463373057e-01	 1.0634996626e+00	 6.7943573827e-01
 2.8151493038e-01	 1.0511877135e+00	 1.5003954761e+00
 2.7195723598e-01	 1.0537008686e+00	 1.3513667467e+00
 2.6240082098e-01	 1.0561212300e+00	 1.2157809570e+00
 2.5284693703e-01	 1.0584491706e+00	 1.0944430457e+00
 2.4329682261e-01	 1.0606850842e+00	 9.8818967973e-01
 2.3375170258e-01	 1.0628293844e+00	 8.9788748236e-01
 2.2421278792e-01	 1.0648825050e+00	 8.2443113657e-01
 2.1468127528e-01	 1.0668448987e+00	 7.6874137559e-01
 2.0515834672e-01	 1.0687170373e+00	 7.3176287427e-01
 1.9564516936e-01	 1.0704994107e+00	 7.1446205370e-01
 1.8614289510e-01	 1.0721925270e+00	 7.1782481199e-01
 1.7105094831e-01	 9.8526214738e-01	-4.1449704041e-01
 1.6232867404e-01	 9.8673669648e-01	-3.6057394412e-01
 1.5361849940e-01	 9.8813017818e-01	-3.2882751979e-01
 1.4492144212e-01	 9.8944310564e-01	-3.1754695376e-01
 1.3623850489e-01	 9.9067600676e-01	-3.2490534054e-01
 1.2757067517e-01	 9.9182942379e-01	-3.4896464769e-01
 1.1891892497e-01	 9.9290391285e-01	-3.8768073442e-01
 1.1028421068e-01	 9.9390004351e-01	-4.3890841080e-01
 1.0166747288e-01	 9.9481839835e-01	-5.0040652514e-01
 9.3069636226e-02	 9.9565957252e-01	-5.6984306724e-01
 8.4491609256e-02	 9.9642417327e-01	-6.4480027561e-01
 1.7256020906e-01	 9.9395556588e-01	-2.6558133402e-01
 1.6376097417e-01	 9.9544312560e-01	-2.0609099546e-01
 1.5497394568e-01	 9.9684890263e-01	-1.6153136242e-01
 1.4620015028e-01	 9.9817341465e-01	-1.3096389069e-01
 1.3744059953e-01	 9.9941719423e-01	-1.1333651181e-01
 1.2869628959e-01	 1.0005807884e+00	-1.0748771152e-01
 1.1996820103e-01	 1.0016647582e+00	-1.1215068132e-01
 1.1125729871e-01	 1.0026696781e+00	-1.2595753071e-01
 1.0256453149e-01	 1.0035961360e+00	-1.4744354799e-01
 9.3890832195e-02	 1.0044447323e+00	-1.7505149769e-01
 8.5237117371e-02	 1.0052160794e+00	-2.0713594335e-01
 1.7406944714e-01	 1.0026488538e+00	-1.1534760554e-01
 1.6519325279e-01	 1.0041494240e+00	-5.5131694916e-02
 1.5632937160e-01	 1.0055674962e+00	-3.4709710987e-03
 1.4747883925e-01	 1.0069035926e+00	 3.9943699853e-02
 1.3864267612e-01	 1.0081582504e+00	 7.5528877089e-02
 1.2982188710e-01	 1.0093320216e+00	 1.0380526951e-01
 1.2101746134e-01	 1.0104254719e+00	 1.2539437411e-01
 1.1223037213e-01	 1.0114391811e+00	 1.4101503996e-01
 1.0346157664e-01	 1.0123737419e+00	 1.5147996962e-01
 9.4712015832e-02	 1.0132297601e+00	 1.5769216910e-01
 8.5982614290e-02	 1.0140078536e+00	 1.6064135746e-01
 1.7557866555e-01	 1.0113420285e+00	 3.2521285912e-02
 1.6662551275e-01	 1.0128556089e+00	 8.9726557009e-02
 1.5768477986e-01	 1.0142859761e+00	 1.4383343781e-01
 1.4875751154e-01	 1.0156336567e+00	 1.9466143950e-01
 1.3984473704e-01	 1.0168991927e+00	 2.4212793244e-01
 1.3094746993e-01	 1.0180831407e+00	 2.8624559123e-01
 1.2206670797e-01	 1.0191860715e+00	 3.2711974673e-01
 1.1320343286e-01	 1.0202085697e+00	 3.6494565635e-01
 1.0435861009e-01	 1.0211512334e+00	 4.0000570372e-01
 9.5533188766e-02	 1.0220146734e+00	 4.3266653842e-01
 8.6728101492e-02	 1.0227995132e+00	 4.6337616637e-01
 1.7708786729e-01	 1.0200351071e+00	 1.7447151380e-01
 1.6805775688e-01	 1.0215616976e+00	 2.2599754274e-01
 1.5904017314e-01	 1.0230043596e+00	 2.7891660761e-01
 1.5003616971e-01	 1.0243636244e+00	 3.3269541838e-01
 1.4104678467e-01	 1.0256400384e+00	 3.8688557369e-01
 1.3207304034e-01	 1.0268341631e+00	 4.4112164474e-01
 1.2311594301e-01	 1.0279465742e+00	 4.9511916563e-01
 1.1417648284e-01	 1.0289778614e+00	 5.4867254062e-01
 1.0525563362e-01	 1.0299286279e+00	 6.0165287894e-01
 9.6354352626e-02	 1.0307994897e+00	 6.5400576722e-01
 8.7473580456e-02	 1.0315910756e+00	 7.0574898935e-01
 1.7859705534e-01	 1.0287281069e+00	 3.0707290666e-01
 1.6948998802e-01	 1.0302677074e+00	 3.5128245071e-01
 1.6039555413e-01	 1.0317226641e+00	 4.0036599570e-01
 1.5131481628e-01	 1.0330935129e+00	 4.5357140740e-01
 1.4224882141e-01	 1.0343808048e+00	 5.1021512555e-01
 1.3319860053e-01	 1.0355851062e+00	 5.6968080598e-01
 1.2416516854e-01	 1.0367069976e+00	 6.3141787452e-01
 1.1514952401e-01	 1.0377470737e+00	 6.9494000270e-01
 1.0615264903e-01	 1.0387059428e+00	 7.5982351508e-01
 9.7175509039e-02	 1.0395842263e+00	 8.2570573780e-01
 8.8219052661e-02	 1.0403825583e+00	 8.9228329736e-01
 1.8010623270e-01	 1.0374210451e+00	 4.2701384220e-01
 1.7092220902e-01	 1.0389736555e+00	 4.6326628914e-01
 1.6175092552e-01	 1.0404409069e+00	 5.0681964150e-01
 1.5259345380e-01	 1.0418233396e+00	 5.5683411024e-01
 1.4345084964e-01	 1.0431215094e+00	 6.1251888008e-01
 1.3432415275e-01	 1.0443359873e+00	 6.7313122977e-01
 1.2521438663e-01	 1.0454673588e+00	 7.3797557567e-01
 1.1612255827e-01	 1.0465162238e+00	 8.0640244794e-01
 1.0704965808e-01	 1.0474831955e+00	 8.7780740854e-01
 9.7996659635e-02	 1.0483689007e+00	 9.5162991965e-01
 8.8964519584e-02	 1.0491739787e+00	 1.0273521713e+00
 1.8161540236e-01	 1.0461139390e+00	 5.3109639711e-01
 1.7235442272e-01	 1.0476795592e+00	 5.5971447955e-01
 1.6310629000e-01	 1.0491591052e+00	 5.9696414116e-01
 1.5387208479e-01	 1.0505531217e+00	 6.4204645300e-01
 1.4465287173e-01	 1.0518621693e+00	 6.9418863080e-01
 1.3544969924e-01	 1.0530868237e+00	 7.5264355410e-01
 1.2626359937e-01	 1.0542276754e+00	 8.1668922629e-01
 1.1709558758e-01	 1.0552853291e+00	 8.8562818402e-01
 1.0794666255e-01	 1.0562604034e+00	 9.5878686434e-01
 9.8817806043e-02	 1.0571535302e+00	 1.0355149376e+00
 8.9709982704e-02	 1.0579653543e+00	 1.1151846141e+00
 1.8312456732e-01	 1.0548068057e+00	 6.1623173780e-01
 1.7378663194e-01	 1.0563854358e+00	 6.3846961947e-01
 1.6446165025e-01	 1.0578772763e+00	 6.6953272295e-01
 1.5515071180e-01	 1.0592828766e+00	 7.0878890912e-01
 1.4585489007e-01	 1.0606028020e+00	 7.5560618027e-01
 1.3657524221e-01	 1.0618376329e+00	 8.0935251982e-01
 1.2731280884e-01	 1.0629879647e+00	 8.6939569620e-01
 1.1806861385e-01	 1.0640544072e+00	 9.3510303873e-01
 1.0884366423e-01	 1.0650375840e+00	 1.0058411931e+00
 9.9638949891e-02	 1.0659381324e+00	 1.0809758636e+00
 9.0455443500e-02	 1.0667567025e+00	 1.1598715491e+00
 1.8463373057e-01	 1.0634996626e+00	 6.7943573827e-01
 1.7521883955e-01	 1.0650913025e+00	 6.9744840461e-01
 1.6581700897e-01	 1.0665954375e+00	 7.2330341753e-01
 1.5642933736e-01	 1.0680126217e+00	 7.5665885758e-01
 1.4705690705e-01	 1.0693434248e+00	 7.9714382270e-01
 1.3770078391e-01	 1.0705884322e+00	 8.4435851057e-01
 1.2836201712e-01	 1.0717482441e+00	 8.9787429451e-01
 1.1904163902e-01	 1.0728234753e+00	 9.5723379965e-01
 1.0974066489e-01	 1.0738147547e+00	 1.0219509864e+00
 1.0046009281e-01	 1.0747227247e+00	 1.0915112473e+00
 9.1200903452e-02	 1.0755480407e+00	 1.1653715236e+00
 1.8614289510e-01	 1.0721925270e+00	 7.1782481199e-01
 1.7665104837e-01	 1.0737971766e+00	 7.3463870153e-01
 1.6717236883e-01	 1.0753136062e+00	 7.5709731759e-01
 1.5770796401e-01	 1.0767423742e+00	 7.8526997260e-01
 1.4825892506e-01	 1.0780840550e+00	 8.1916480306e-01
 1.3882632656e-01	 1.0793392389e+00	 8.5872901751e-01
 1.2941122629e-01	 1.0805085309e+00	 9.0384917291e-01
 1.2001466501e-01	 1.0815925508e+00	 9.5435148573e-01
 1.1063766632e-01	 1.0825919328e+00	 1.0100021834e+00
 1.0128123642e-01	 1.0835073244e+00	 1.0705079015e+00
 9.1946364036e-02	 1.0843393864e+00	 1.1355161323e+00
 8.4491609256e-02	 9.9642417327e-01	-6.4480027561e-01
 7.5935733705e-02	 9.9711270890e-01	-6.9472468683e-01
 6.7401408683e-02	 9.9772594558e-01	-6.8973193200e-01
 5.8889473803e-02	 9.9826452377e-01	-6.2889725572e-01
 5.0400752668e-02	 9.9872909431e-01	-5.1206851872e-01
 4.1936052786e-02	 9.9912031795e-01	-3.3984848149e-01
 3.3496165499e-02	 9.9943886492e-01	-1.1357658881e-01
 2.5081865916e-02	 9.9968541457e-01	 1.6468970731e-01
 1.6693912862e-02	 9.9986065485e-01	 4.9219404937e-01
 8.3330488405e-03	 9.9996528199e-01	 8.6550066369e-01
 0.0000000000e+00	 1.0000000000e+00	 1.2805142010e+00
 8.5237117371e-02	 1.0052160794e+00	-2.0713594335e-01
 7.6605749417e-02	 1.0059106903e+00	-2.2535644531e-01
 6.7996122144e-02	 1.0065293379e+00	-2.1075650697e-01
 5.9409082570e-02	 1.0070726682e+00	-1.6116860490e-01
 5.0845461567e-02	 1.0075413379e+00	-7.5058995610e-02
 4.2306073768e-02	 1.0079360134e+00	 4.8485062039e-02
 3.3791717495e-02	 1.0082573711e+00	 2.0976854320e-01
 2.5303174698e-02	 1.0085060962e+00	 4.0850232340e-01
 1.6841210896e-02	 1.0086828827e+00	 6.4381724589e-01
 8.4065751451e-03	 1.0087884330e+00	 9.1427856125e-01
 0.0000000000e+00	 1.0088234573e+00	 1.2179007105e+00
 8.5982614290e-02	 1.0140078536e+00	 1.6064135746e-01
 7.7275755068e-02	 1.0147085397e+00	 1.6887314677e-01
 6.8590826674e-02	 1.0153325980e+00	 1.9256857898e-01
 5.9928683534e-02	 1.0158806804e+00	 2.3484827422e-01
 5.1290163788e-02	 1.0163534491e+00	 2.9832696102e-01
 4.2676089192e-02	 1.0167515765e+00	 3.8512190351e-01
 3.4087265052e-02	 1.0170757449e+00	 4.9686174523e-01
 2.5524480155e-02	 1.0173266453e+00	 6.3469574803e-01
 1.6988506717e-02	 1.0175049780e+00	 7.9930340505e-01
 8.4801003449e-03	 1.0176114515e+00	 9.9090440599e-01
 0.0000000000e+00	 1.0176467822e+00	 1.2092689331e+00
 8.6728101492e-02	 1.0227995132e+00	 4.6337616637e-01
 7.7945751986e-02	 1.0235062743e+00	 4.9309792584e-01
 6.9185523451e-02	 1.0241357434e+00	 5.2519166348e-01
 6.0448277725e-02	 1.0246885777e+00	 5.6344997766e-01
 5.1734860210e-02	 1.0251654454e+00	 6.1127670585e-01
 4.3046099791e-02	 1.0255670248e+00	 6.7169158029e-01
 3.4382808755e-02	 1.0258940037e+00	 7.4733525582e-01
 2.5745782726e-02	 1.0261470795e+00	 8.4047469541e-01
 1.7135800618e-02	 1.0263269584e+00	 9.5300889895e-01
 8.5536245858e-03	 1.0264343550e+00	 1.0864749602e+00
 0.0000000000e+00	 1.0264699920e+00	 1.2420544372e+00
 8.7473580456e-02	 1.0315910756e+00	 7.0574898935e-01
 7.8615741499e-02	 1.0323039118e+00	 7.5227753582e-01
 6.9780213656e-02	 1.0329387915e+00	 7.9189292024e-01
 6.0967866172e-02	 1.0334963778e+00	 8.2878686698e-01
 5.2179551718e-02	 1.0339773444e+00	 8.6686889624e-01
 4.3416106301e-02	 1.0343823756e+00	 9.0976777774e-01
 3.4678349190e-02	 1.0347121651e+00	 9.6083330997e-01
 2.5967082851e-02	 1.0349674162e+00	 1.0231384170e+00
 1.7283092889e-02	 1.0351488413e+00	 1.0994815543e+00
 8.6271480136e-03	 1.0352571610e+00	 1.1923894141e+00
 0.0000000000e+00	 1.0352931043e+00	 1.3041199223e+00
 8.8219052661e-02	 1.0403825583e+00	 8.9228329736e-01
 7.9285724937e-02	 1.0411014694e+00	 9.5120485218e-01
 7.0374898468e-02	 1.0417417598e+00	 9.9729152348e-01
 6.1487449908e-02	 1.0423040979e+00	 1.0348693010e+00
 5.2624239192e-02	 1.0427891635e+00	 1.0680781308e+00
 4.3786109454e-02	 1.0431976464e+00	 1.1008707272e+00
 3.4973886945e-02	 1.0435302465e+00	 1.1370116621e+00
 2.6188380968e-02	 1.0437876729e+00	 1.1800767284e+00
 1.7430383825e-02	 1.0439706441e+00	 1.2334525755e+00
 8.7006707743e-03	 1.0440798870e+00	 1.3003366114e+00
 0.0000000000e+00	 1.0441161367e+00	 1.3837371684e+00
 8.8964519584e-02	 1.0491739787e+00	 1.0273521713e+00
 7.9955703628e-02	 1.0498989648e+00	 1.0945130310e+00
 7.0969579067e-02	 1.0505446657e+00	 1.1458524504e+00
 6.2007029962e-02	 1.0511117557e+00	 1.1855735529e+00
 5.3068923516e-02	 1.0516009202e+00	 1.2177793539e+00
 4.4156109986e-02	 1.0520128549e+00	 1.2464694831e+00
 3.5269422605e-02	 1.0523482654e+00	 1.2755371330e+00
 2.6409677516e-02	 1.0526078672e+00	 1.3087662368e+00
 1.7577673716e-02	 1.0527923845e+00	 1.3498288763e+00
 8.7741930137e-03	 1.0529025505e+00	 1.4022829205e+00
 0.0000000000e+00	 1.0529391065e+00	 1.4695698958e+00
 8.9709982704e-02	 1.0579653543e+00	 1.1151846141e+00
 8.0625678901e-02	 1.0586964153e+00	 1.1866822050e+00
 7.1564256632e-02	 1.0593475267e+00	 1.2418929428e+00
 6.2526607365e-02	 1.0599193686e+00	 1.2846474302e+00
 5.3513605570e-02	 1.0604126319e+00	 1.3187520390e+00
 4.4526108629e-02	 1.0608280183e+00	 1.3479840853e+00
 3.5564956757e-02	 1.0611662394e+00	 1.3760871799e+00
 2.6630972935e-02	 1.0614280165e+00	 1.4067667577e+00
 1.7724962855e-02	 1.0616140799e+00	 1.4436857947e+00
 8.8477148777e-03	 1.0617251691e+00	 1.4904607134e+00
 0.0000000000e+00	 1.0617620313e+00	 1.5506574848e+00
 9.0455443500e-02	 1.0667567025e+00	 1.1598715491e+00
 8.1295652086e-02	 1.0674938383e+00	 1.2320458467e+00
 7.2158932343e-02	 1.0681503603e+00	 1.2895886479e+00
 6.3046183148e-02	 1.0687269540e+00	 1.3357156166e+00
 5.3958286238e-02	 1.0692243162e+00	 1.3736841645e+00
 4.4896106119e-02	 1.0696431543e+00	 1.4067876151e+00
 3.5860489987e-02	 1.0699841859e+00	 1.4383494874e+00
 2.6852267663e-02	 1.0702481382e+00	 1.4717179096e+00
 1.7872251535e-02	 1.0704357479e+00	 1.5102601705e+00
 8.9212365123e-03	 1.0705477601e+00	 1.5573574168e+00
 0.0000000000e+00	 1.0705849287e+00	 1.6163995037e+00
 9.1200903452e-02	 1.0755480407e+00	 1.1653715236e+00
 8.1965624510e-02	 1.0762912514e+00	 1.2347968180e+00
 7.2753607379e-02	 1.0769531839e+00	 1.2929794562e+00
 6.3565758341e-02	 1.0775345294e+00	 1.3422847496e+00
 5.4402966401e-02	 1.0780359905e+00	 1.3851759940e+00
 4.5266103188e-02	 1.0784582803e+00	 1.4242081485e+00
 3.6156022882e-02	 1.0788021224e+00	 1.4620215787e+00
 2.7073562140e-02	 1.0790682500e+00	 1.5013358761e+00
 1.8019540047e-02	 1.0792574058e+00	 1.5449437643e+00
 8.9947580632e-03	 1.0793703411e+00	 1.5957051030e+00
 0.0000000000e+00	 1.0794078160e+00	 1.6565409993e+00
 9.1946364036e-02	 1.0843393864e+00	 1.1355161323e+00
 8.2635597504e-02	 1.0850886720e+00	 1.1989931248e+00
 7.3348282920e-02	 1.0857560150e+00	 1.2559750544e+00
 6.4085333976e-02	 1.0863421123e+00	 1.3077482505e+00
 5.4847646941e-02	 1.0868476722e+00	 1.3557436710e+00
 4.5636100571e-02	 1.0872734138e+00	 1.4015306156e+00
 3.6451556027e-02	 1.0876200664e+00	 1.4468104462e+00
 2.7294856805e-02	 1.0878883693e+00	 1.4934103269e+00
 1.8166828684e-02	 1.0880790712e+00	 1.5432769970e+00
 9.0682796764e-03	 1.0881929296e+00	 1.5984705894e+00
 0.0000000000e+00	 1.0882307108e+00	 1.6611585068e+00
 1.0882307108e+00	 0.0000000000e+00	 6.5710652452e+00
 1.0881929296e+00	 9.0682796764e-03	 5.8120442931e+00
 1.0880790712e+00	 1.8166828684e-02	 5.1088844752e+00
 1.0878883693e+00	 2.7294856805e-02	 4.4647384929e+00
 1.0876200664e+00	 3.6451556027e-02	 3.8829634593e+00
 1.0872734138e+00	 4.5636100571e-02	 3.3671264151e+00
 1.0868476722e+00	 5.4847646941e-02	 2.9210094609e+00
 1.0863421123e+00	 6.4085333976e-02	 2.5486145073e+00
 1.0857560150e+00	 7.3348282920e-02	 2.2541676528e+00
 1.0850886720e+00	 8.2635597504e-02	 2.0421232017e+00
 1.0843393864e+00	 9.1946364036e-02	 1.9171673382e+00
 1.0970551273e+00	 0.0000000000e+00	 7.8954079646e+00
 1.0970170397e+00	 9.1418139695e-03	 7.1115175267e+00
 1.0969022580e+00	 1.8314142723e-02	 6.3435379632e+00
 1.0967100097e+00	 2.7516189635e-02	 5.6023792197e+00
 1.0964395312e+00	 3.6747140141e-02	 4.8993244486e+00
 1.0960900676e+00	 4.6006161766e-02	 4.2460293979e+00
 1.0956608737e+00	 5.5292404174e-02	 3.6545210322e+00
 1.0951512142e+00	 6.4604999219e-02	 3.1371953849e+00
 1.0945603642e+00	 7.3943061023e-02	 2.7068146548e+00
 1.0938876098e+00	 8.3305686045e-02	 2.3765035607e+00
 1.0931322483e+00	 9.2691953187e-02	 2.1597449719e+00
 1.1058795663e+00	 0.0000000000e+00	 9.0491868524e+00
 1.1058411723e+00	 9.2153484500e-03	 8.2289729276e+00
 1.1057254673e+00	 1.8461457137e-02	 7.3961173990e+00
 1.1055316727e+00	 2.7737523030e-02	 6.5674409672e+00
 1.1052590185e+00	 3.7042725009e-02	 5.7602627356e+00
 1.1049067439e+00	 4.6376223905e-02	 4.9923946482e+00
 1.1044740977e+00	 5.5737162540e-02	 4.2821348563e+00
 1.1039603386e+00	 6.5124665788e-02	 3.6482600158e+00
 1.1033647360e+00	 7.4537840642e-02	 3.1100165293e+00
 1.1026865701e+00	 8.3975776295e-02	 2.6871107469e+00
 1.1019251326e+00	 9.3437544239e-02	 2.3996981490e+00
 1.1147040253e+00	 0.0000000000e+00	 1.0032267461e+01
 1.1146653250e+00	 9.2888830972e-03	 9.1661488909e+00
 1.1145486967e+00	 1.8608771886e-02	 8.2698602553e+00
 1.1143533556e+00	 2.7958856926e-02	 7.3642942018e+00
 1.1140785257e+00	 3.7338310547e-02	 6.4709125220e+00
 1.1137234401e+00	 4.6746286882e-02	 5.6117388522e+00
 1.1132873416e+00	 5.6181921914e-02	 4.8093502629e+00
 1.1127694829e+00	 6.5644333534e-02	 4.0868677157e+00
 1.1121691277e+00	 7.5132621609e-02	 3.4679453755e+00
 1.1114855503e+00	 8.4645868064e-02	 2.9767587652e+00
 1.1107180368e+00	 9.4183136981e-02	 2.6380327193e+00
 1.1235285018e+00	 0.0000000000e+00	 1.0804249195e+01
 1.1234894951e+00	 9.3624178902e-03	 9.8855410150e+00
 1.1233719435e+00	 1.8756086927e-02	 8.9297493029e+00
 1.1231750561e+00	 2.8180191261e-02	 7.9600687755e+00
 1.1228980505e+00	 3.7633896670e-02	 7.0003008783e+00
 1.1225401539e+00	 4.7116350593e-02	 6.0748441708e+00
 1.1221006030e+00	 5.6626682171e-02	 5.2086834787e+00
 1.1215786448e+00	 6.6164002311e-02	 4.4273777939e+00
 1.1209735368e+00	 7.5727403755e-02	 3.7570469075e+00
 1.1202845479e+00	 8.5315961161e-02	 3.2243567673e+00
 1.1195109585e+00	 9.4928731201e-02	 2.8565035525e+00
 1.1323529932e+00	 0.0000000000e+00	 1.1358855191e+01
 1.1323136802e+00	 9.4359528082e-03	 1.0382600953e+01
 1.1321952054e+00	 1.8903402218e-02	 9.3721412886e+00
 1.1319967715e+00	 2.8401525972e-02	 8.3512495863e+00
 1.1317175903e+00	 3.7929483297e-02	 7.3443021224e+00
 1.1313568826e+00	 4.7486414933e-02	 6.3762672838e+00
 1.1309138794e+00	 5.7071443183e-02	 5.4726935137e+00
 1.1303878216e+00	 6.6683671971e-02	 4.6596959652e+00
 1.1297779609e+00	 7.6322186913e-02	 3.9639418502e+00
 1.1290835605e+00	 8.5986055398e-02	 3.4126344736e+00
 1.1283038952e+00	 9.5674326689e-02	 3.0334959504e+00
 1.1411774972e+00	 0.0000000000e+00	 1.1700323704e+01
 1.1411378778e+00	 9.5094878304e-03	 1.0663109191e+01
 1.1410184797e+00	 1.9050717718e-02	 9.6038410504e+00
 1.1408184994e+00	 2.8622860997e-02	 8.5451878463e+00
 1.1405371425e+00	 3.8225070342e-02	 7.5103764922e+00
 1.1401736239e+00	 4.7856479797e-02	 6.5231814411e+00
 1.1397271683e+00	 5.7516204826e-02	 5.6079126414e+00
 1.1391970108e+00	 6.7203342368e-02	 4.7894022401e+00
 1.1385823975e+00	 7.6916970913e-02	 4.0929900221e+00
 1.1378825856e+00	 8.6656150583e-02	 3.5445075805e+00
 1.1370968443e+00	 9.6419923233e-02	 3.1702612117e+00
 1.1500020112e+00	 0.0000000000e+00	 1.1832765447e+01
 1.1499620855e+00	 9.5830229361e-03	 1.0732672668e+01
 1.1498417640e+00	 1.9198033385e-02	 9.6314496229e+00
 1.1496402374e+00	 2.8844196273e-02	 8.5490152439e+00
 1.1493567048e+00	 3.8520657722e-02	 7.5057622699e+00
 1.1489903751e+00	 4.8226545081e-02	 6.5225475276e+00
 1.1485404671e+00	 5.7960966972e-02	 5.6206810978e+00
 1.1480062101e+00	 6.7723013353e-02	 4.8219143474e+00
 1.1473868441e+00	 7.7511755587e-02	 4.1484268195e+00
 1.1466816207e+00	 8.7326246528e-02	 3.6228119771e+00
 1.1458898033e+00	 9.7165520622e-02	 3.2680617975e+00
 1.1588265327e+00	 0.0000000000e+00	 1.1760168436e+01
 1.1587863006e+00	 9.6565581045e-03	 1.0596731365e+01
 1.1586650559e+00	 1.9345349177e-02	 9.4613719762e+00
 1.1584619828e+00	 2.9065531737e-02	 8.3696522721e+00
 1.1581762745e+00	 3.8816245354e-02	 7.3374841926e+00
 1.1578071338e+00	 4.8596610680e-02	 6.3811220977e+00
 1.1573537735e+00	 5.8405729497e-02	 5.5171543294e+00
 1.1568154168e+00	 6.8242684780e-02	 4.7624938375e+00
 1.1561912981e+00	 7.8106540766e-02	 4.1343678636e+00
 1.1554806632e+00	 8.7996343042e-02	 3.6503066799e+00
 1.1546827698e+00	 9.7911118644e-02	 3.3281313831e+00
 1.1676510592e+00	 0.0000000000e+00	 1.1486402629e+01
 1.1676105207e+00	 9.7300933146e-03	 1.0260564605e+01
 1.1674883527e+00	 1.9492665053e-02	 9.0998244045e+00
 1.1672837332e+00	 2.9286867327e-02	 8.0138161798e+00
 1.1669958493e+00	 3.9111833154e-02	 7.0123614828e+00
 1.1666238976e+00	 4.8966676488e-02	 6.1054650464e+00
 1.1661670849e+00	 5.8850492274e-02	 5.3033099141e+00
 1.1656246286e+00	 6.8762356501e-02	 4.6162519091e+00
 1.1649957572e+00	 7.8701326282e-02	 4.0548134388e+00
 1.1642797107e+00	 8.8666439936e-02	 3.6296766344e+00
 1.1634757414e+00	 9.8656717088e-02	 3.3516758277e+00
 1.1764755882e+00	 0.0000000000e+00	 1.1015224341e+01
 1.1764347433e+00	 9.8036285459e-03	 9.7292970633e+00
 1.1763116521e+00	 1.9639980971e-02	 8.5528415820e+00
 1.1761054862e+00	 2.9508202981e-02	 7.4880285653e+00
 1.1758154265e+00	 3.9407421038e-02	 6.5370155167e+00
 1.1754406638e+00	 4.9336742402e-02	 5.7019469348e+00
 1.1749803987e+00	 5.9295255177e-02	 4.9849541703e+00
 1.1744338428e+00	 6.9282028370e-02	 4.3881549733e+00
 1.1738002187e+00	 7.9296111967e-02	 3.9136527299e+00
 1.1730787607e+00	 8.9336537019e-02	 3.5635353916e+00
 1.1722687154e+00	 9.9402315743e-02	 3.3398741007e+00
 1.0843393864e+00	 9.1946364036e-02	 1.9171673382e+00
 1.0835073244e+00	 1.0128123642e-01	 1.8549128870e+00
 1.0825919328e+00	 1.1063766632e-01	 1.8202401766e+00
 1.0815925508e+00	 1.2001466501e-01	 1.8018006963e+00
 1.0805085309e+00	 1.2941122629e-01	 1.7881498267e+00
 1.0793392389e+00	 1.3882632656e-01	 1.7677453536e+00
 1.0780840550e+00	 1.4825892506e-01	 1.7289459961e+00
 1.0767423742e+00	 1.5770796401e-01	 1.6600099953e+00
 1.0753136062e+00	 1.6717236883e-01	 1.5490938170e+00
 1.0737971766e+00	 1.7665104837e-01	 1.3842510213e+00
 1.0721925270e+00	 1.8614289510e-01	 1.1534313541e+00
 1.0931322483e+00	 9.2691953187e-02	 2.1597449719e+00
 1.0922934391e+00	 1.0210252166e-01	 2.0355895300e+00
 1.0913706247e+00	 1.1153482244e-01	 1.9638422363e+00
 1.0903631388e+00	 1.2098785882e-01	 1.9291560876e+00
 1.0892703285e+00	 1.3046061641e-01	 1.9159877533e+00
 1.0880915548e+00	 1.3995206333e-01	 1.9085986179e+00
 1.0868261927e+00	 1.4946115037e-01	 1.8910560280e+00
 1.0854736322e+00	 1.5898681117e-01	 1.8472347939e+00
 1.0840332784e+00	 1.6852796246e-01	 1.7608190039e+00
 1.0825045521e+00	 1.7808350420e-01	 1.6153042055e+00
 1.0808868905e+00	 1.8765231991e-01	 1.3940000141e+00
 1.1019251326e+00	 9.3437544239e-02	 2.3996981490e+00
 1.1010795762e+00	 1.0292380898e-01	 2.2280545167e+00
 1.1001493389e+00	 1.1243198086e-01	 2.1268111904e+00
 1.0991337491e+00	 1.2196105511e-01	 2.0776733390e+00
 1.0980321485e+00	 1.3151000921e-01	 2.0620748673e+00
 1.0968438930e+00	 1.4107780297e-01	 2.0611811765e+00
 1.0955683527e+00	 1.5066337875e-01	 2.0558922691e+00
 1.0942049125e+00	 1.6026566160e-01	 2.0268462529e+00
 1.0927529729e+00	 1.6988355953e-01	 1.9544233054e+00
 1.0912119499e+00	 1.7951596368e-01	 1.8187501564e+00
 1.0895812762e+00	 1.8916174857e-01	 1.5997051537e+00
 1.1107180368e+00	 9.4183136981e-02	 2.6380327193e+00
 1.1098657333e+00	 1.0374509817e-01	 2.4315666046e+00
 1.1089280731e+00	 1.1332914130e-01	 2.3070102830e+00
 1.1079043792e+00	 1.2293425361e-01	 2.2441472131e+00
 1.1067939884e+00	 1.3255940439e-01	 2.2224394877e+00
 1.1055962511e+00	 1.4220354517e-01	 2.2210315098e+00
 1.1043105325e+00	 1.5186560985e-01	 2.2187541030e+00
 1.1029362126e+00	 1.6154451493e-01	 2.1941291171e+00
 1.1014726871e+00	 1.7123915968e-01	 2.1253745915e+00
 1.0999193674e+00	 1.8094842641e-01	 1.9904105399e+00
 1.0982756816e+00	 1.9067118065e-01	 1.7668654240e+00
 1.1195109585e+00	 9.4928731201e-02	 2.8565035525e+00
 1.1186519078e+00	 1.0456638899e-01	 2.6306361461e+00
 1.1177068246e+00	 1.1422630353e-01	 2.4916181909e+00
 1.1166750268e+00	 1.2390745403e-01	 2.4182114368e+00
 1.1155558456e+00	 1.3360880165e-01	 2.3888452422e+00
 1.1143486265e+00	 1.4332928959e-01	 2.3816232437e+00
 1.1130527296e+00	 1.5306784333e-01	 2.3743303220e+00
 1.1116675300e+00	 1.6282337079e-01	 2.3444398839e+00
 1.1101924186e+00	 1.7259476252e-01	 2.2692633558e+00
 1.1086268022e+00	 1.8238089199e-01	 2.1262176518e+00
 1.1069701042e+00	 1.9218061573e-01	 1.8918938414e+00
 1.1283038952e+00	 9.5674326689e-02	 3.0334959504e+00
 1.1274380972e+00	 1.0538768121e-01	 2.7999501584e+00
 1.1264855911e+00	 1.1512346728e-01	 2.6527919710e+00
 1.1254456893e+00	 1.2488065612e-01	 2.5707800282e+00
 1.1243177177e+00	 1.3465820069e-01	 2.5323401477e+00
 1.1231010168e+00	 1.4445503593e-01	 2.5155717839e+00
 1.1217949416e+00	 1.5427007886e-01	 2.4982547733e+00
 1.1203988623e+00	 1.6410222882e-01	 2.4578563847e+00
 1.1189121650e+00	 1.7395036767e-01	 2.3715386900e+00
 1.1173342518e+00	 1.8381335999e-01	 2.2161662775e+00
 1.1156645417e+00	 1.9369005337e-01	 1.9683143258e+00
 1.1370968443e+00	 9.6419923233e-02	 3.1702612117e+00
 1.1362242991e+00	 1.0620897458e-01	 2.9388689563e+00
 1.1352643700e+00	 1.1602063230e-01	 2.7879040144e+00
 1.1342163642e+00	 1.2585385957e-01	 2.6970732825e+00
 1.1330796023e+00	 1.3570760123e-01	 2.6457741087e+00
 1.1318534195e+00	 1.4558078387e-01	 2.6130997909e+00
 1.1305371660e+00	 1.5547231610e-01	 2.5778453038e+00
 1.1291302069e+00	 1.6538108867e-01	 2.5185132708e+00
 1.1276319237e+00	 1.7530597473e-01	 2.4133202025e+00
 1.1260417137e+00	 1.8524583003e-01	 2.2402030193e+00
 1.1243589914e+00	 1.9519949315e-01	 1.9768258818e+00
 1.1458898033e+00	 9.7165520622e-02	 3.2680617975e+00
 1.1450105109e+00	 1.0703026889e-01	 3.0471701382e+00
 1.1440431589e+00	 1.1691779834e-01	 2.8955551934e+00
 1.1429870490e+00	 1.2682706414e-01	 2.7948016678e+00
 1.1418414967e+00	 1.3675700294e-01	 2.7262313079e+00
 1.1406058321e+00	 1.4670653308e-01	 2.6709066987e+00
 1.1392794002e+00	 1.5667455469e-01	 2.6096351816e+00
 1.1378615615e+00	 1.6665994997e-01	 2.5229729138e+00
 1.1363516922e+00	 1.7666158333e-01	 2.3912290877e+00
 1.1347491855e+00	 1.8667830168e-01	 2.1944703332e+00
 1.1330534510e+00	 1.9670893464e-01	 1.9125253265e+00
 1.1546827698e+00	 9.7911118644e-02	 3.3281313831e+00
 1.1537967302e+00	 1.0785156390e-01	 3.1246477983e+00
 1.1528219553e+00	 1.1781496514e-01	 2.9743986728e+00
 1.1517577413e+00	 1.2780026952e-01	 2.8617549302e+00
 1.1506033987e+00	 1.3780640555e-01	 2.7708940669e+00
 1.1493582522e+00	 1.4783228325e-01	 2.6858015134e+00
 1.1480216420e+00	 1.5787679431e-01	 2.5902719634e+00
 1.1465929234e+00	 1.6793881235e-01	 2.4679106913e+00
 1.1450714682e+00	 1.7801719308e-01	 2.3021348795e+00
 1.1434566647e+00	 1.8811077456e-01	 2.0761749789e+00
 1.1417479180e+00	 1.9821837741e-01	 1.7730761270e+00
 1.1634757414e+00	 9.8656717088e-02	 3.3516758277e+00
 1.1625829545e+00	 1.0867285937e-01	 3.1711117694e+00
 1.1616007566e+00	 1.1871213245e-01	 3.0231377840e+00
 1.1605284386e+00	 1.2877347546e-01	 2.8957989320e+00
 1.1593653055e+00	 1.3885580876e-01	 2.7770389550e+00
 1.1581106772e+00	 1.4895803405e-01	 2.6546984746e+00
 1.1567638886e+00	 1.5907903460e-01	 2.5165129604e+00
 1.1553242903e+00	 1.6921767546e-01	 2.3501104869e+00
 1.1537912492e+00	 1.7937280360e-01	 2.1430093031e+00
 1.1521641488e+00	 1.8954324825e-01	 1.8826152388e+00
 1.1504423900e+00	 1.9972782104e-01	 1.5562189760e+00
 1.1722687154e+00	 9.9402315743e-02	 3.3398741007e+00
 1.1713691813e+00	 1.0949415507e-01	 3.1863869004e+00
 1.1703795604e+00	 1.1960930001e-01	 3.0405239947e+00
 1.1692991383e+00	 1.2974668168e-01	 2.8948726321e+00
 1.1681272149e+00	 1.3990521226e-01	 2.7420330737e+00
 1.1668631048e+00	 1.5008378517e-01	 2.5746129116e+00
 1.1655061378e+00	 1.6028127524e-01	 2.3852209107e+00
 1.1640556597e+00	 1.7049653892e-01	 2.1664603951e+00
 1.1625110326e+00	 1.8072841450e-01	 1.9109222023e+00
 1.1608716354e+00	 1.9097572234e-01	 1.6111772343e+00
 1.1591368644e+00	 2.0123726509e-01	 1.2597686329e+00
 1.0721925270e+00	 1.8614289510e-01	 1.1534313541e+00
 1.0704994107e+00	 1.9564516936e-01	 9.0580186329e-01
 1.0687170373e+00	 2.0515834672e-01	 6.9863127127e-01
 1.0668448987e+00	 2.1468127528e-01	 5.3209842565e-01
 1.0648825050e+00	 2.2421278792e-01	 4.0640542549e-01
 1.0628293844e+00	 2.3375170258e-01	 3.2177655774e-01
 1.0606850842e+00	 2.4329682261e-01	 2.7845766909e-01
 1.0584491706e+00	 2.5284693703e-01	 2.7671602954e-01
 1.0561212300e+00	 2.6240082098e-01	 3.1684074290e-01
 1.0537008686e+00	 2.7195723598e-01	 3.9914375808e-01
 1.0511877135e+00	 2.8151493038e-01	 5.2396153297e-01
 1.0808868905e+00	 1.8765231991e-01	 1.3940000141e+00
 1.0791800448e+00	 1.9723164771e-01	 1.1437201336e+00
 1.0773832182e+00	 2.0682196701e-01	 9.2388884432e-01
 1.0754958986e+00	 2.1642211660e-01	 7.3678385011e-01
 1.0735175919e+00	 2.2603091987e-01	 5.8475305181e-01
 1.0714478226e+00	 2.3564718519e-01	 4.7021116290e-01
 1.0692861343e+00	 2.4526970618e-01	 3.9563668322e-01
 1.0670320899e+00	 2.5489726208e-01	 3.6356929169e-01
 1.0646852721e+00	 2.6452861806e-01	 3.7660771833e-01
 1.0622452841e+00	 2.7416252562e-01	 4.3740815394e-01
 1.0597117498e+00	 2.8379772296e-01	 5.4868325467e-01
 1.0895812762e+00	 1.8916174857e-01	 1.5997051537e+00
 1.0878607011e+00	 1.9881813010e-01	 1.3432262274e+00
 1.0860494213e+00	 2.0848559156e-01	 1.1111144121e+00
 1.0841469205e+00	 2.1816296236e-01	 9.0707707358e-01
 1.0821527008e+00	 2.2784905645e-01	 7.3492515693e-01
 1.0800662828e+00	 2.3754267262e-01	 5.9856807209e-01
 1.0778872064e+00	 2.4724259478e-01	 5.0200889095e-01
 1.0756150310e+00	 2.5694759235e-01	 4.4933992198e-01
 1.0732493360e+00	 2.6665642057e-01	 4.4473872695e-01
 1.0707897214e+00	 2.7636782089e-01	 4.9246464312e-01
 1.0682358080e+00	 2.8608052136e-01	 5.9685587258e-01
 1.0982756816e+00	 1.9067118065e-01	 1.7668654240e+00
 1.0965413770e+00	 2.0040461609e-01	 1.5011130504e+00
 1.0947156439e+00	 2.1014921987e-01	 1.2574159557e+00
 1.0927979620e+00	 2.1990381206e-01	 1.0402582965e+00
 1.0907878292e+00	 2.2966719716e-01	 8.5424784357e-01
 1.0886847625e+00	 2.3943816435e-01	 7.0410971858e-01
 1.0864882980e+00	 2.4921548786e-01	 5.9468042647e-01
 1.0841979916e+00	 2.5899792727e-01	 5.3090225456e-01
 1.0818134193e+00	 2.6878422790e-01	 5.1781810695e-01
 1.0793341780e+00	 2.7857312116e-01	 5.6056684237e-01
 1.0767598854e+00	 2.8836332494e-01	 6.6437918153e-01
 1.1069701042e+00	 1.9218061573e-01	 1.8918938414e+00
 1.1052220702e+00	 2.0199110523e-01	 1.6142525702e+00
 1.1033818838e+00	 2.1181285148e-01	 1.3599704780e+00
 1.1014490207e+00	 2.2164466522e-01	 1.1336714652e+00
 1.0994229748e+00	 2.3148534148e-01	 9.4010994236e-01
 1.0973032594e+00	 2.4133365985e-01	 7.8416398940e-01
 1.0950894067e+00	 2.5118838485e-01	 6.7082882585e-01
 1.0927809692e+00	 2.6104826626e-01	 6.0521066702e-01
 1.0903775196e+00	 2.7091203946e-01	 5.9252103904e-01
 1.0878786515e+00	 2.8077842580e-01	 6.3807162521e-01
 1.0852839798e+00	 2.9064613305e-01	 7.4726971382e-01
 1.1156645417e+00	 1.9369005337e-01	 1.9683143258e+00
 1.1139027781e+00	 2.0357759706e-01	 1.6785668433e+00
 1.1120481384e+00	 2.1347648592e-01	 1.4159157105e+00
 1.1101000940e+00	 2.2338552134e-01	 1.1847220842e+00
 1.1080581351e+00	 2.3330348888e-01	 9.8996097585e-01
 1.1059217708e+00	 2.4322915856e-01	 8.3612220680e-01
 1.1036905300e+00	 2.5316128520e-01	 7.2770091207e-01
 1.1013639614e+00	 2.6309860874e-01	 6.6929727597e-01
 1.0989416345e+00	 2.7303985463e-01	 6.6561098079e-01
 1.0964231396e+00	 2.8298373420e-01	 7.2143624426e-01
 1.0938080886e+00	 2.9292894504e-01	 8.4165752001e-01
 1.1243589914e+00	 1.9519949315e-01	 1.9768258818e+00
 1.1225834983e+00	 2.0516409114e-01	 1.6771540195e+00
 1.1207144053e+00	 2.1514012271e-01	 1.4120802633e+00
 1.1187511797e+00	 2.2512637992e-01	 1.1847344709e+00
 1.1166933076e+00	 2.3512163886e-01	 9.9839245579e-01
 1.1145402945e+00	 2.4512465996e-01	 8.5646905890e-01
 1.1122916654e+00	 2.5513418834e-01	 7.6251089924e-01
 1.1099469657e+00	 2.6514895412e-01	 7.2026977846e-01
 1.1075057615e+00	 2.7516767281e-01	 7.3393726233e-01
 1.1049676398e+00	 2.8518904571e-01	 8.0721563299e-01
 1.1023322096e+00	 2.9521176026e-01	 9.4378314902e-01
 1.1330534510e+00	 1.9670893464e-01	 1.9125253265e+00
 1.1312642283e+00	 2.0675058702e-01	 1.6034344325e+00
 1.1293806820e+00	 2.1680376139e-01	 1.3395683993e+00
 1.1274022751e+00	 2.2686724048e-01	 1.1223385400e+00
 1.1253284899e+00	 2.3693979090e-01	 9.5327685682e-01
 1.1231588279e+00	 2.4702016351e-01	 8.3403050827e-01
 1.1208928106e+00	 2.5710709371e-01	 7.6635601974e-01
 1.1185299798e+00	 2.6719930182e-01	 7.5211326863e-01
 1.1160698982e+00	 2.7729549341e-01	 7.9325927709e-01
 1.1135121497e+00	 2.8739435973e-01	 8.9184184693e-01
 1.1108563401e+00	 2.9749457807e-01	 1.0499948168e+00
 1.1417479180e+00	 1.9821837741e-01	 1.7730761270e+00
 1.1399449658e+00	 2.0833708425e-01	 1.4555058481e+00
 1.1380469660e+00	 2.1846740149e-01	 1.1967730826e+00
 1.1360533779e+00	 2.2860810251e-01	 9.9598879758e-01
 1.1339636796e+00	 2.3875794449e-01	 8.5234744163e-01
 1.1317773687e+00	 2.4891566867e-01	 7.6512336842e-01
 1.1294939632e+00	 2.5908000077e-01	 7.3366709544e-01
 1.1271130012e+00	 2.6924965126e-01	 7.5740142916e-01
 1.1246340422e+00	 2.7942331581e-01	 8.3581749025e-01
 1.1220566669e+00	 2.8959967562e-01	 9.6847067344e-01
 1.1193804780e+00	 2.9977739782e-01	 1.1549765776e+00
 1.1504423900e+00	 1.9972782104e-01	 1.5562189760e+00
 1.1486257081e+00	 2.0992358237e-01	 1.2315296295e+00
 1.1467132550e+00	 2.2013104253e-01	 9.8214145225e-01
 1.1447044856e+00	 2.3034896554e-01	 8.0429672484e-01
 1.1425988741e+00	 2.4057609910e-01	 6.9427225299e-01
 1.1403959144e+00	 2.5081117490e-01	 6.4837830104e-01
 1.1380951206e+00	 2.6105290894e-01	 6.6295747902e-01
 1.1356960275e+00	 2.7130000187e-01	 7.3438361550e-01
 1.1331981910e+00	 2.8155113943e-01	 8.5906064961e-01
 1.1306011888e+00	 2.9180499276e-01	 1.0334215765e+00
 1.1279046207e+00	 3.0206021886e-01	 1.2539274817e+00
 1.1591368644e+00	 2.0123726509e-01	 1.2597686329e+00
 1.1573064529e+00	 2.1151008095e-01	 9.2972808138e-01
 1.1553795464e+00	 2.2179468403e-01	 6.9417251259e-01
 1.1533555958e+00	 2.3208982905e-01	 5.4592024491e-01
 1.1512340711e+00	 2.4239425423e-01	 4.7776360285e-01
 1.1490144625e+00	 2.5270668167e-01	 4.8247090634e-01
 1.1466962804e+00	 2.6302581766e-01	 5.5278855944e-01
 1.1442790561e+00	 2.7335035306e-01	 6.8144327071e-01
 1.1417623423e+00	 2.8367896364e-01	 8.6114443819e-01
 1.1391457133e+00	 2.9401031052e-01	 1.0845867331e+00
 1.1364287657e+00	 3.0434304055e-01	 1.3444529166e+00
 1.0511877135e+00	 2.8151493038e-01	 5.2396153297e-01
 1.0485814126e+00	 2.9107263984e-01	 6.7391173829e-01
 1.0458816367e+00	 3.0062908817e-01	 8.2949602888e-01
 1.0430880782e+00	 3.1018298736e-01	 9.8789690307e-01
 1.0402004521e+00	 3.1973303789e-01	 1.1463038800e+00
 1.0372184959e+00	 3.2927792916e-01	 1.3019225326e+00
 1.0341419700e+00	 3.3881633997e-01	 1.4519845251e+00
 1.0309706585e+00	 3.4834693899e-01	 1.5937586771e+00
 1.0277043688e+00	 3.5786838524e-01	 1.7245630693e+00
 1.0243429329e+00	 3.6737932860e-01	 1.8417782011e+00
 1.0208862068e+00	 3.7687841031e-01	 1.9469641186e+00
 1.0597117498e+00	 2.8379772296e-01	 5.4868325467e-01
 1.0570843146e+00	 2.9343293548e-01	 6.9414752582e-01
 1.0543626463e+00	 3.0306687665e-01	 8.5284106470e-01
 1.0515464350e+00	 3.1269824800e-01	 1.0204484385e+00
 1.0486353933e+00	 3.2232573948e-01	 1.1925832597e+00
 1.0456292565e+00	 3.3194802986e-01	 1.3647980352e+00
 1.0425277832e+00	 3.4156378724e-01	 1.5325951937e+00
 1.0393307556e+00	 3.5117166948e-01	 1.6914393155e+00
 1.0360379798e+00	 3.6077032473e-01	 1.8367705846e+00
 1.0326492861e+00	 3.7035839192e-01	 1.9640194738e+00
 1.0291645295e+00	 3.7993450129e-01	 2.0780701268e+00
 1.0682358080e+00	 2.8608052136e-01	 5.9685587258e-01
 1.0655872383e+00	 2.9579323714e-01	 7.4140155162e-01
 1.0628436776e+00	 3.0550467133e-01	 9.0312534838e-01
 1.0600048134e+00	 3.1521351505e-01	 1.0766191511e+00
 1.0570703559e+00	 3.2491844768e-01	 1.2563411855e+00
 1.0540400385e+00	 3.3461813737e-01	 1.4366263918e+00
 1.0509136178e+00	 3.4431124151e-01	 1.6116981301e+00
 1.0476908741e+00	 3.5399640717e-01	 1.7756812440e+00
 1.0443716120e+00	 3.6367227163e-01	 1.9226165023e+00
 1.0409556605e+00	 3.7333746285e-01	 2.0473715467e+00
 1.0374428734e+00	 3.8299060006e-01	 2.1586238198e+00
 1.0767598854e+00	 2.8836332494e-01	 6.6437918153e-01
 1.0740901813e+00	 2.9815354415e-01	 8.1136809782e-01
 1.0713247281e+00	 3.0794247155e-01	 9.7613960186e-01
 1.0684632109e+00	 3.1772878780e-01	 1.1525890201e+00
 1.0655053377e+00	 3.2751116175e-01	 1.3344302856e+00
 1.0624508397e+00	 3.3728825094e-01	 1.5152065571e+00
 1.0592994714e+00	 3.4705870202e-01	 1.6883022948e+00
 1.0560510115e+00	 3.5682115127e-01	 1.8469568278e+00
 1.0527052631e+00	 3.6657422510e-01	 1.9842794345e+00
 1.0492620537e+00	 3.7631654053e-01	 2.0971082721e+00
 1.0457212360e+00	 3.8604670575e-01	 2.1952261215e+00
 1.0852839798e+00	 2.9064613305e-01	 7.4726971382e-01
 1.0825931411e+00	 3.0051385584e-01	 8.9986734946e-01
 1.0798057954e+00	 3.1038027660e-01	 1.0678004762e+00
 1.0769216252e+00	 3.2024406554e-01	 1.2446551294e+00
 1.0739403363e+00	 3.3010388097e-01	 1.4238029140e+00
 1.0708616575e+00	 3.3995836980e-01	 1.5984115812e+00
 1.0676853416e+00	 3.4980616797e-01	 1.7614571723e+00
 1.0644111655e+00	 3.5964590097e-01	 1.9057377618e+00
 1.0610389307e+00	 3.6947618433e-01	 2.0238888303e+00
 1.0575684634e+00	 3.7929562411e-01	 2.1175543500e+00
 1.0539996151e+00	 3.8910281751e-01	 2.1942976580e+00
 1.0938080886e+00	 2.9292894504e-01	 8.4165752001e-01
 1.0910961154e+00	 3.0287417155e-01	 1.0028420142e+00
 1.0882868771e+00	 3.1281808580e-01	 1.1741473784e+00
 1.0853800539e+00	 3.2275934755e-01	 1.3492290589e+00
 1.0823753491e+00	 3.3269660460e-01	 1.5215094506e+00
 1.0792724896e+00	 3.4262849320e-01	 1.6841881534e+00
 1.0760712260e+00	 3.5255363860e-01	 1.8302538795e+00
 1.0727713337e+00	 3.6247065548e-01	 1.9524980523e+00
 1.0693726125e+00	 3.7237814849e-01	 2.0439806537e+00
 1.0658748872e+00	 3.8227471277e-01	 2.1129257202e+00
 1.0622780082e+00	 3.9215893447e-01	 2.1620862108e+00
 1.1023322096e+00	 2.9521176026e-01	 9.4378314902e-01
 1.0995991017e+00	 3.0523449060e-01	 1.1163541527e+00
 1.0967679709e+00	 3.1525589845e-01	 1.2913395041e+00
 1.0938384946e+00	 3.2527463313e-01	 1.4628344589e+00
 1.0908103739e+00	 3.3528933190e-01	 1.6246967492e+00
 1.0876833336e+00	 3.4529862039e-01	 1.7705562394e+00
 1.0844571224e+00	 3.5530111312e-01	 1.8938263005e+00
 1.0811315138e+00	 3.6529541398e-01	 1.9877169436e+00
 1.0777063061e+00	 3.7528011676e-01	 2.0481287691e+00
 1.0741813228e+00	 3.8525380564e-01	 2.0873343781e+00
 1.0705564131e+00	 3.9521505575e-01	 2.1046737912e+00
 1.1108563401e+00	 2.9749457807e-01	 1.0499948168e+00
 1.1081020977e+00	 3.0759481232e-01	 1.2365822092e+00
 1.1052490742e+00	 3.1769371386e-01	 1.4156530639e+00
 1.1022969449e+00	 3.2778992156e-01	 1.5821047994e+00
 1.0992454083e+00	 3.3788206214e-01	 1.7306067222e+00
 1.0960941871e+00	 3.4796875060e-01	 1.8556088078e+00
 1.0928430283e+00	 3.5804859075e-01	 1.9513522453e+00
 1.0894917034e+00	 3.6812017569e-01	 2.0118817905e+00
 1.0860400091e+00	 3.7818208832e-01	 2.0387190569e+00
 1.0824877678e+00	 3.8823290189e-01	 2.0447927689e+00
 1.0788348274e+00	 3.9827118050e-01	 2.0279833540e+00
 1.1193804780e+00	 2.9977739782e-01	 1.1549765776e+00
 1.1166051009e+00	 3.0995513605e-01	 1.3593112372e+00
 1.1137301848e+00	 3.2013153135e-01	 1.5434224402e+00
 1.1107554023e+00	 3.3030521213e-01	 1.7037812835e+00
 1.1076804498e+00	 3.4047479458e-01	 1.8365750575e+00
 1.1045050478e+00	 3.5063888308e-01	 1.9375116390e+00
 1.1012289412e+00	 3.6079607072e-01	 2.0020546320e+00
 1.0978519000e+00	 3.7094493980e-01	 2.0255280970e+00
 1.0943737193e+00	 3.8108406235e-01	 2.0179998016e+00
 1.0907942199e+00	 3.9121200067e-01	 1.9892179483e+00
 1.0871132486e+00	 4.0132730785e-01	 1.9377851719e+00
 1.1279046207e+00	 3.0206021886e-01	 1.2539274817e+00
 1.1251081089e+00	 3.1231546112e-01	 1.4796045907e+00
 1.1222113002e+00	 3.2256935021e-01	 1.6705718621e+00
 1.1192138646e+00	 3.3282050413e-01	 1.8248395684e+00
 1.1161154962e+00	 3.4306752849e-01	 1.9402667696e+00
 1.1129159133e+00	 3.5330901707e-01	 2.0145567696e+00
 1.1096148590e+00	 3.6354355225e-01	 2.0452026906e+00
 1.1062121014e+00	 3.7376970551e-01	 2.0305434766e+00
 1.1027074341e+00	 3.8398603803e-01	 1.9881773268e+00
 1.0991006766e+00	 3.9419110114e-01	 1.9244355244e+00
 1.0953916746e+00	 4.0438343693e-01	 1.8397028867e+00
 1.1364287657e+00	 3.0434304055e-01	 1.3444529166e+00
 1.1336111194e+00	 3.1467578686e-01	 1.5947295728e+00
 1.1306924180e+00	 3.2500716977e-01	 1.7942572850e+00
 1.1276723292e+00	 3.3533579683e-01	 1.9429271049e+00
 1.1245505449e+00	 3.4566026314e-01	 2.0405372145e+00
 1.1213267811e+00	 3.5597915182e-01	 2.0867864598e+00
 1.1180007791e+00	 3.6629103455e-01	 2.0812682759e+00
 1.1145723051e+00	 3.7659447202e-01	 2.0286893664e+00
 1.1110411513e+00	 3.8688801453e-01	 1.9514179235e+00
 1.1074071358e+00	 3.9717020246e-01	 1.8541833899e+00
 1.1036701029e+00	 4.0743956688e-01	 1.7392192564e+00
 1.0208862068e+00	 3.7687841031e-01	 1.9469641186e+00
 1.0173334593e+00	 3.8636587493e-01	 2.0392553582e+00
 1.0136851754e+00	 3.9583873097e-01	 2.1086339918e+00
 1.0099412857e+00	 4.0529559579e-01	 2.1573309019e+00
 1.0061017465e+00	 4.1473508031e-01	 2.1875687968e+00
 1.0021665399e+00	 4.2415578950e-01	 2.2015630102e+00
 9.9813567443e-01	 4.3355632305e-01	 2.2015219882e+00
 9.9400918483e-01	 4.4293527589e-01	 2.1896474429e+00
 9.8978713259e-01	 4.5229123883e-01	 2.1681341556e+00
 9.8546960600e-01	 4.6162279917e-01	 2.1391694156e+00
 9.8105672044e-01	 4.7092854131e-01	 2.1049320800e+00
 1.0291645295e+00	 3.7993450129e-01	 2.0780701268e+00
 1.0255829730e+00	 3.8949889935e-01	 2.1740843814e+00
 1.0219051053e+00	 3.9904857037e-01	 2.2412538200e+00
 1.0181308566e+00	 4.0858212051e-01	 2.2822763552e+00
 1.0142601827e+00	 4.1809814941e-01	 2.2999434133e+00
 1.0102930657e+00	 4.2759525073e-01	 2.2971414551e+00
 1.0062295141e+00	 4.3707201281e-01	 2.2768530299e+00
 1.0020695630e+00	 4.4652701917e-01	 2.2421573396e+00
 9.9781327428e-01	 4.5595884921e-01	 2.1962302919e+00
 9.9346073706e-01	 4.6536607878e-01	 2.1423440240e+00
 9.8901206759e-01	 4.7474728079e-01	 2.0838658819e+00
 1.0374428734e+00	 3.8299060006e-01	 2.1586238198e+00
 1.0338325077e+00	 3.9263193177e-01	 2.2477966292e+00
 1.0301250562e+00	 4.0225841797e-01	 2.3055876924e+00
 1.0263204483e+00	 4.1186865362e-01	 2.3350167234e+00
 1.0224186397e+00	 4.2146122708e-01	 2.3392767963e+00
 1.0184196122e+00	 4.3103472073e-01	 2.3217365138e+00
 1.0143233744e+00	 4.4058771152e-01	 2.2859415841e+00
 1.0101299617e+00	 4.5011877161e-01	 2.2356157778e+00
 1.0058394364e+00	 4.5962646895e-01	 2.1746612425e+00
 1.0014518885e+00	 4.6910936794e-01	 2.1071581515e+00
 9.9696743504e-01	 4.7856603001e-01	 2.0373636713e+00
 1.0457212360e+00	 3.8604670575e-01	 2.1952261215e+00
 1.0420820611e+00	 3.9576497128e-01	 2.2690143002e+00
 1.0383450257e+00	 4.0546827284e-01	 2.3117879130e+00
 1.0345100586e+00	 4.1515519417e-01	 2.3267462826e+00
 1.0305771152e+00	 4.2482431238e-01	 2.3173204662e+00
 1.0265461771e+00	 4.3447419853e-01	 2.2871760016e+00
 1.0224172531e+00	 4.4410341821e-01	 2.2402149625e+00
 1.0181903786e+00	 4.5371053220e-01	 2.1805772927e+00
 1.0138656168e+00	 4.6329409701e-01	 2.1126413923e+00
 1.0094430580e+00	 4.7285266558e-01	 2.0410239327e+00
 1.0049228205e+00	 4.8238478788e-01	 1.9705788803e+00
 1.0539996151e+00	 3.8910281751e-01	 2.1942976580e+00
 1.0503316309e+00	 3.9889801701e-01	 2.2461168237e+00
 1.0465650115e+00	 4.0867813407e-01	 2.2697168678e+00
 1.0426996852e+00	 4.1844174124e-01	 2.2683374660e+00
 1.0387356069e+00	 4.2818740435e-01	 2.2454872914e+00
 1.0346727582e+00	 4.3791368315e-01	 2.2049472677e+00
 1.0305111478e+00	 4.4761913188e-01	 2.1507730612e+00
 1.0262508116e+00	 4.5730229990e-01	 2.0872967756e+00
 1.0218918131e+00	 4.6696173234e-01	 2.0191278230e+00
 1.0174342434e+00	 4.7659597065e-01	 1.9511529440e+00
 1.0128782218e+00	 4.8620355333e-01	 1.8885353561e+00
 1.0622780082e+00	 3.9215893447e-01	 2.1620862108e+00
 1.0585812147e+00	 4.0203106806e-01	 2.1872506951e+00
 1.0547850113e+00	 4.1188800077e-01	 2.1889586398e+00
 1.0508893257e+00	 4.2172829390e-01	 2.1703536626e+00
 1.0468941124e+00	 4.3155050204e-01	 2.1348648767e+00
 1.0427993530e+00	 4.4135317361e-01	 2.0862105858e+00
 1.0386050562e+00	 4.5113485152e-01	 2.0284011694e+00
 1.0343112582e+00	 4.6089407372e-01	 1.9657411247e+00
 1.0299180230e+00	 4.7062937390e-01	 1.9028302339e+00
 1.0254254424e+00	 4.8033928208e-01	 1.8445638296e+00
 1.0208336366e+00	 4.9002232527e-01	 1.7961321355e+00
 1.0705564131e+00	 3.9521505575e-01	 2.1046737912e+00
 1.0668308102e+00	 4.0516412356e-01	 2.1003388182e+00
 1.0630050227e+00	 4.1509787201e-01	 2.0788300482e+00
 1.0590789777e+00	 4.2501485122e-01	 2.0430613815e+00
 1.0550526295e+00	 4.3491360449e-01	 1.9962282886e+00
 1.0509259594e+00	 4.4479266895e-01	 1.9418118782e+00
 1.0466989762e+00	 4.5465057614e-01	 1.8835821374e+00
 1.0423717163e+00	 4.6448585262e-01	 1.8256003054e+00
 1.0379442443e+00	 4.7429702066e-01	 1.7722203503e+00
 1.0334166527e+00	 4.8408259882e-01	 1.7280895193e+00
 1.0287890626e+00	 4.9384110262e-01	 1.6981479389e+00
 1.0788348274e+00	 3.9827118050e-01	 2.0279833540e+00
 1.0750804151e+00	 4.0829718260e-01	 1.9930893828e+00
 1.0712250434e+00	 4.1830774689e-01	 1.9483911402e+00
 1.0672686391e+00	 4.2830141226e-01	 1.8964418168e+00
 1.0632111559e+00	 4.3827671075e-01	 1.8400521515e+00
 1.0590525750e+00	 4.4823216819e-01	 1.7822948096e+00
 1.0547929053e+00	 4.5816630474e-01	 1.7265079366e+00
 1.0504321835e+00	 4.6807763560e-01	 1.6762978517e+00
 1.0459704747e+00	 4.7796467158e-01	 1.6355408463e+00
 1.0414078721e+00	 4.8782591980e-01	 1.6083840588e+00
 1.0367444977e+00	 4.9765988430e-01	 1.5992454018e+00
 1.0871132486e+00	 4.0132730785e-01	 1.9377851719e+00
 1.0833300269e+00	 4.1143024431e-01	 1.8730043000e+00
 1.0794450712e+00	 4.2151762450e-01	 1.8064551668e+00
 1.0754583074e+00	 4.3158797609e-01	 1.7402018433e+00
 1.0713696892e+00	 4.4163981988e-01	 1.6765221505e+00
 1.0671791975e+00	 4.5167167035e-01	 1.6179122844e+00
 1.0628868413e+00	 4.6168203634e-01	 1.5670906456e+00
 1.0584926576e+00	 4.7166942163e-01	 1.5270008392e+00
 1.0539967119e+00	 4.8163232562e-01	 1.5008138084e+00
 1.0493990983e+00	 4.9156924396e-01	 1.4919290740e+00
 1.0446999395e+00	 5.0147866923e-01	 1.5039750542e+00
 1.0953916746e+00	 4.0438343693e-01	 1.8397028867e+00
 1.0915796435e+00	 4.1456330780e-01	 1.7473872200e+00
 1.0876651036e+00	 4.2472750393e-01	 1.6615980683e+00
 1.0836479804e+00	 4.3487454179e-01	 1.5837844747e+00
 1.0795282271e+00	 4.4500293091e-01	 1.5155459694e+00
 1.0753058246e+00	 4.5511117446e-01	 1.4586373780e+00
 1.0709807819e+00	 4.6519776993e-01	 1.4149728909e+00
 1.0665531362e+00	 4.7526120969e-01	 1.3866293565e+00
 1.0620229537e+00	 4.8529998173e-01	 1.3758487642e+00
 1.0573903290e+00	 4.9531257024e-01	 1.3850398881e+00
 1.0526553859e+00	 5.0529745632e-01	 1.4167790649e+00
 1.1036701029e+00	 4.0743956688e-01	 1.7392192564e+00
 1.0998292624e+00	 4.1769637217e-01	 1.6233511549e+00
 1.0958851383e+00	 4.2793738427e-01	 1.5221674960e+00
 1.0918376557e+00	 4.3816110842e-01	 1.4363788121e+00
 1.0876867674e+00	 4.4836604289e-01	 1.3667636961e+00
 1.0834324540e+00	 4.5855067955e-01	 1.3141737329e+00
 1.0790747247e+00	 4.6871350451e-01	 1.2795377718e+00
 1.0746136171e+00	 4.7885299878e-01	 1.2638655019e+00
 1.0700491977e+00	 4.8896763889e-01	 1.2682502986e+00
 1.0653815619e+00	 4.9905589759e-01	 1.2938713101e+00
 1.0606108344e+00	 5.0911624449e-01	 1.3419947599e+00
 9.8105672044e-01	 4.7092854131e-01	 2.1049320800e+00
 9.7654939274e-01	 4.8020547255e-01	 2.0730201325e+00
 9.7194705020e-01	 4.8945375776e-01	 2.0484044841e+00
 9.6724988951e-01	 4.9867197668e-01	 2.0293625300e+00
 9.6245813498e-01	 5.0785870872e-01	 2.0142099416e+00
 9.5757203867e-01	 5.1701253362e-01	 2.0013018275e+00
 9.5259188044e-01	 5.2613203208e-01	 1.9890334598e+00
 9.4751796805e-01	 5.3521578645e-01	 1.9758405668e+00
 9.4235063717e-01	 5.4426238140e-01	 1.9601991980e+00
 9.3709025147e-01	 5.5327040460e-01	 1.9406251678e+00
 9.3173720256e-01	 5.6223844740e-01	 1.9156730905e+00
 9.8901206759e-01	 4.7474728079e-01	 2.0838658819e+00
 9.8446819017e-01	 4.8409943827e-01	 2.0295494707e+00
 9.7982852743e-01	 4.9342271743e-01	 1.9844805119e+00
 9.7509327766e-01	 5.0271568649e-01	 1.9466347717e+00
 9.7026266700e-01	 5.1197691336e-01	 1.9140018488e+00
 9.6533694954e-01	 5.2120496623e-01	 1.8845865778e+00
 9.6031640743e-01	 5.3039841432e-01	 1.8564100110e+00
 9.5520135089e-01	 5.3955582847e-01	 1.8275099814e+00
 9.4999211835e-01	 5.4867578187e-01	 1.7959412521e+00
 9.4468907640e-01	 5.5775685075e-01	 1.7597752592e+00
 9.3929261984e-01	 5.6679761502e-01	 1.7170994618e+00
 9.9696743504e-01	 4.7856603001e-01	 2.0373636713e+00
 9.9238700779e-01	 4.8799341392e-01	 1.9737706999e+00
 9.8771002475e-01	 4.9739168722e-01	 1.9204333925e+00
 9.8293668581e-01	 5.0675940662e-01	 1.8751150532e+00
 9.7806721892e-01	 5.1609512849e-01	 1.8355765807e+00
 9.7310188022e-01	 5.2539740954e-01	 1.7995780355e+00
 9.6804095411e-01	 5.3466480743e-01	 1.7648797877e+00
 9.6288475333e-01	 5.4389588155e-01	 1.7292432445e+00
 9.5763361901e-01	 5.5308919359e-01	 1.6904311664e+00
 9.5228792071e-01	 5.6224330833e-01	 1.6462075795e+00
 9.4684805640e-01	 5.7135679427e-01	 1.5943372956e+00
 1.0049228205e+00	 4.8238478788e-01	 1.9705788803e+00
 1.0003058434e+00	 4.9188739840e-01	 1.9084379397e+00
 9.9559153995e-01	 5.0136066601e-01	 1.8567865926e+00
 9.9078011175e-01	 5.1080313591e-01	 1.8132620907e+00
 9.8587178854e-01	 5.2021335296e-01	 1.7754911248e+00
 9.8086682850e-01	 5.2958986234e-01	 1.7410914797e+00
 9.7576551830e-01	 5.3893121022e-01	 1.7076732559e+00
 9.7056817318e-01	 5.4823594446e-01	 1.6728396601e+00
 9.6527513700e-01	 5.5750261532e-01	 1.6341873709e+00
 9.5988678225e-01	 5.6672977608e-01	 1.5893064900e+00
 9.5440351008e-01	 5.7591598385e-01	 1.5357800909e+00
 1.0128782218e+00	 4.8620355333e-01	 1.8885353561e+00
 1.0082246946e+00	 4.9578139060e-01	 1.8362510072e+00
 1.0034730708e+00	 5.0532965267e-01	 1.7940791545e+00
 9.9862355324e-01	 5.1484687322e-01	 1.7596147409e+00
 9.9367637363e-01	 5.2433158560e-01	 1.7304419568e+00
 9.8863179217e-01	 5.3378232346e-01	 1.7041359065e+00
 9.8349009781e-01	 5.4319762147e-01	 1.6782638146e+00
 9.7825160827e-01	 5.5257601599e-01	 1.6503857765e+00
 9.7291667014e-01	 5.6191604579e-01	 1.6180550581e+00
 9.6748565886e-01	 5.7121625274e-01	 1.5788179577e+00
 9.6195897875e-01	 5.8047518247e-01	 1.5302132414e+00
 1.0208336366e+00	 4.9002232527e-01	 1.7961321355e+00
 1.0161435594e+00	 4.9967538942e-01	 1.7598571673e+00
 1.0113546150e+00	 5.0929864608e-01	 1.7328646306e+00
 1.0064670081e+00	 5.1889061741e-01	 1.7127883241e+00
 1.0014809720e+00	 5.2844982524e-01	 1.6972589525e+00
 9.9639676905e-01	 5.3797479171e-01	 1.6839057281e+00
 9.9121469045e-01	 5.4746403997e-01	 1.6703574740e+00
 9.8593505643e-01	 5.5691609490e-01	 1.6542432323e+00
 9.8055821627e-01	 5.6632948378e-01	 1.6331923836e+00
 9.7508454838e-01	 5.7570273701e-01	 1.6048342912e+00
 9.6951446026e-01	 5.8503438884e-01	 1.5667974834e+00
 1.0287890626e+00	 4.9384110262e-01	 1.6981479389e+00
 1.0240624354e+00	 5.0356939376e-01	 1.6818527423e+00
 1.0192361704e+00	 5.1326764511e-01	 1.6737100050e+00
 1.0143104740e+00	 5.2293436733e-01	 1.6714710523e+00
 1.0092855814e+00	 5.3256807072e-01	 1.6728995135e+00
 1.0041617569e+00	 5.4216726590e-01	 1.6757727840e+00
 9.9893929404e-01	 5.5173046451e-01	 1.6778829376e+00
 9.9361851547e-01	 5.6125617995e-01	 1.6770370905e+00
 9.8819977323e-01	 5.7074292801e-01	 1.6710572276e+00
 9.8268344868e-01	 5.8018922765e-01	 1.6577795022e+00
 9.7706995248e-01	 5.8959360168e-01	 1.6350530258e+00
 1.0367444977e+00	 4.9765988430e-01	 1.5992454018e+00
 1.0319813203e+00	 5.0746340251e-01	 1.6047845859e+00
 1.0271177347e+00	 5.1723664864e-01	 1.6171946007e+00
 1.0221539488e+00	 5.2697812183e-01	 1.6344205555e+00
 1.0170901997e+00	 5.3668632086e-01	 1.6544428955e+00
 1.0119267536e+00	 5.4635974484e-01	 1.6752786506e+00
 1.0066639064e+00	 5.5599689390e-01	 1.6949820677e+00
 1.0013019832e+00	 5.6559626992e-01	 1.7116446319e+00
 9.9584133886e-01	 5.7515637725e-01	 1.7233944859e+00
 9.9028235758e-01	 5.8467572337e-01	 1.7283952590e+00
 9.8462545326e-01	 5.9415281968e-01	 1.7248443265e+00
 1.0446999395e+00	 5.0147866923e-01	 1.5039750542e+00
 1.0399002120e+00	 5.1135741457e-01	 1.5311514321e+00
 1.0349993057e+00	 5.2120565554e-01	 1.5639089758e+00
 1.0299974303e+00	 5.3102187977e-01	 1.6004605023e+00
 1.0248948246e+00	 5.4080457451e-01	 1.6390847282e+00
 1.0196917569e+00	 5.5055222734e-01	 1.6781272305e+00
 1.0143885253e+00	 5.6026332690e-01	 1.7160007133e+00
 1.0089854575e+00	 5.6993636358e-01	 1.7511845863e+00
 1.0034829110e+00	 5.7956983023e-01	 1.7822238637e+00
 9.9788127295e-01	 5.8916222290e-01	 1.8077274000e+00
 9.9218096046e-01	 5.9871204156e-01	 1.8263654793e+00
 1.0526553859e+00	 5.0529745632e-01	 1.4167790649e+00
 1.0478191081e+00	 5.1525142884e-01	 1.4634051223e+00
 1.0428808812e+00	 5.2517466470e-01	 1.5144538073e+00
 1.0378409163e+00	 5.3506564000e-01	 1.5684773096e+00
 1.0326994539e+00	 5.4492283048e-01	 1.6241317159e+00
 1.0274567646e+00	 5.5474471222e-01	 1.6801776088e+00
 1.0221131486e+00	 5.6452976233e-01	 1.7354798816e+00
 1.0166689361e+00	 5.7427645971e-01	 1.7890067748e+00
 1.0111244874e+00	 5.8398328573e-01	 1.8398281447e+00
 1.0054801926e+00	 5.9364872498e-01	 1.8871129789e+00
 9.9973647194e-01	 6.0327126602e-01	 1.9301261815e+00
 1.0606108344e+00	 5.0911624449e-01	 1.3419947599e+00
 1.0557380065e+00	 5.1914544421e-01	 1.4039517195e+00
 1.0507624590e+00	 5.2914367498e-01	 1.4694387639e+00
 1.0456844044e+00	 5.3910940138e-01	 1.5374169361e+00
 1.0405040854e+00	 5.4904108763e-01	 1.6069965112e+00
 1.0352217745e+00	 5.5893719829e-01	 1.6774371617e+00
 1.0298377741e+00	 5.6879619897e-01	 1.7481472342e+00
 1.0243524169e+00	 5.7861655706e-01	 1.8186821459e+00
 1.0187660660e+00	 5.8839674247e-01	 1.8887419106e+00
 1.0130791144e+00	 5.9813522833e-01	 1.9581678124e+00
 1.0072919856e+00	 6.0783049177e-01	 2.0269382493e+00
 9.3173720256e-01	 5.6223844740e-01	 1.9156730905e+00
 9.2629191025e-01	 5.7116510568e-01	 1.8956255941e+00
 9.2075482320e-01	 5.8004898109e-01	 1.8902132636e+00
 9.1512641814e-01	 5.8888868122e-01	 1.8972148795e+00
 9.0940719963e-01	 5.9768282013e-01	 1.9144405179e+00
 9.0359769993e-01	 6.0643001899e-01	 1.9397305768e+00
 8.9769847889e-01	 6.1512890680e-01	 1.9709545278e+00
 8.9171012387e-01	 6.2377812107e-01	 2.0060094235e+00
 8.8563324950e-01	 6.3237630850e-01	 2.0428181884e+00
 8.7946849759e-01	 6.4092212563e-01	 2.0793277252e+00
 8.7321653691e-01	 6.4941423958e-01	 2.1135068707e+00
 9.3929261984e-01	 5.6679761502e-01	 1.7170994618e+00
 9.3380317190e-01	 5.7579665919e-01	 1.6778435270e+00
 9.2822118484e-01	 5.8475257357e-01	 1.6532503638e+00
 9.2254713929e-01	 5.9366395446e-01	 1.6433421810e+00
 9.1678154388e-01	 6.0252940466e-01	 1.6480752210e+00
 9.1092493519e-01	 6.1134753419e-01	 1.6673347116e+00
 9.0497787762e-01	 6.2011696091e-01	 1.7009296391e+00
 8.9894096328e-01	 6.2883631129e-01	 1.7485873826e+00
 8.9281481179e-01	 6.3750422105e-01	 1.8099482441e+00
 8.8660007018e-01	 6.4611933585e-01	 1.8845599188e+00
 8.8029741261e-01	 6.5468031199e-01	 1.9718719447e+00
 9.4684805640e-01	 5.7135679427e-01	 1.5943372956e+00
 9.4131445269e-01	 5.8042822451e-01	 1.5436414140e+00
 9.3568756552e-01	 5.8945617804e-01	 1.5057019402e+00
 9.2996787936e-01	 5.9843923987e-01	 1.4823223060e+00
 9.2415590693e-01	 6.0737600155e-01	 1.4751621878e+00
 9.1825218913e-01	 6.1626506192e-01	 1.4857291154e+00
 9.1225729491e-01	 6.2510502773e-01	 1.5153699764e+00
 9.0617182113e-01	 6.3389451440e-01	 1.5652624620e+00
 8.9999639240e-01	 6.4263214667e-01	 1.6364064987e+00
 8.9373166095e-01	 6.5131655932e-01	 1.7296157148e+00
 8.8737830637e-01	 6.5994639782e-01	 1.8455089928e+00
 9.5440351008e-01	 5.7591598385e-01	 1.5357800909e+00
 9.4882575052e-01	 5.8505980033e-01	 1.4807173376e+00
 9.4315396313e-01	 5.9415979318e-01	 1.4350285799e+00
 9.3738863625e-01	 6.0321453610e-01	 1.4018477142e+00
 9.3153028670e-01	 6.1222260943e-01	 1.3841062612e+00
 9.2557945969e-01	 6.2118260080e-01	 1.3845223534e+00
 9.1953672871e-01	 6.3009310586e-01	 1.4055896690e+00
 9.1340269537e-01	 6.3895272898e-01	 1.4495663633e+00
 9.0717798930e-01	 6.4776008392e-01	 1.5184640523e+00
 9.0086326789e-01	 6.5651379457e-01	 1.6140369004e+00
 8.9445921619e-01	 6.6521249560e-01	 1.7377708715e+00
 9.6195897875e-01	 5.8047518247e-01	 1.5302132414e+00
 9.5633706324e-01	 5.8969138534e-01	 1.4771822356e+00
 9.5062037554e-01	 5.9886341764e-01	 1.4291102614e+00
 9.4480940786e-01	 6.0798984180e-01	 1.3900220158e+00
 9.3890468109e-01	 6.1706922691e-01	 1.3637000765e+00
 9.3290674478e-01	 6.2610014943e-01	 1.3536719769e+00
 9.2681617694e-01	 6.3508119388e-01	 1.3631972558e+00
 9.2063358396e-01	 6.4401095359e-01	 1.3952545413e+00
 9.1435960043e-01	 6.5288803134e-01	 1.4525287236e+00
 9.0799488897e-01	 6.6171104013e-01	 1.5373982798e+00
 9.0154014004e-01	 6.7047860381e-01	 1.6519228102e+00
 9.6951446026e-01	 5.8503438884e-01	 1.5667974834e+00
 9.6384838874e-01	 5.9432297822e-01	 1.5215424237e+00
 9.5808680065e-01	 6.0356705010e-01	 1.4762285127e+00
 9.5223019208e-01	 6.1276515563e-01	 1.4353423426e+00
 9.4627908802e-01	 6.2191585264e-01	 1.4031072344e+00
 9.4023404232e-01	 6.3101770642e-01	 1.3834690991e+00
 9.3409563755e-01	 6.4006929039e-01	 1.3800822812e+00
 9.2786448484e-01	 6.4906918680e-01	 1.3962954472e+00
 9.2154122378e-01	 6.5801598748e-01	 1.4351375798e+00
 9.1512652218e-01	 6.6690829452e-01	 1.4993041421e+00
 9.0862107594e-01	 6.7574472098e-01	 1.5911434791e+00
 9.7706995248e-01	 5.8959360168e-01	 1.6350530258e+00
 9.7135972488e-01	 5.9895457766e-01	 1.6026828401e+00
 9.6555323634e-01	 6.0827068923e-01	 1.5650493071e+00
 9.5965098682e-01	 6.1754047621e-01	 1.5266824428e+00
 9.5365350540e-01	 6.2676248523e-01	 1.4918461570e+00
 9.4756135025e-01	 6.3593527038e-01	 1.4645235888e+00
 9.4137510847e-01	 6.4505739396e-01	 1.4484024108e+00
 9.3509539596e-01	 6.5412742717e-01	 1.4468601667e+00
 9.2872285730e-01	 6.6314395088e-01	 1.4629497062e+00
 9.2225816550e-01	 6.7210555628e-01	 1.4993847846e+00
 9.1570202187e-01	 6.8101084561e-01	 1.5585258977e+00
 9.8462545326e-01	 5.9415281968e-01	 1.7248443265e+00
 9.7887106952e-01	 6.0358618236e-01	 1.7098509747e+00
 9.7301968049e-01	 6.1297433368e-01	 1.6846066560e+00
 9.6707178997e-01	 6.2231580221e-01	 1.6532764619e+00
 9.6102793114e-01	 6.3160912332e-01	 1.6197745928e+00
 9.5488866648e-01	 6.4085283991e-01	 1.5877498468e+00
 9.4865458764e-01	 6.5004550318e-01	 1.5605710409e+00
 9.4232631528e-01	 6.5918567328e-01	 1.5413124325e+00
 9.3590449895e-01	 6.6827192009e-01	 1.5327392049e+00
 9.2938981689e-01	 6.7730282392e-01	 1.5372930893e+00
 9.2278297582e-01	 6.8627697621e-01	 1.5570781919e+00
 9.9218096046e-01	 5.9871204156e-01	 1.8263654793e+00
 9.8638242056e-01	 6.0821779099e-01	 1.8326414453e+00
 9.8048613099e-01	 6.1767798214e-01	 1.8242868621e+00
 9.7449259942e-01	 6.2709113227e-01	 1.8047033721e+00
 9.6840236314e-01	 6.3645576553e-01	 1.7770747347e+00
 9.6221598894e-01	 6.4577041363e-01	 1.7443531357e+00
 9.5593407300e-01	 6.5503361664e-01	 1.7092453741e+00
 9.4955724074e-01	 6.6424392369e-01	 1.6741989907e+00
 9.4308614672e-01	 6.7339989367e-01	 1.6413884077e+00
 9.3652147435e-01	 6.8250009599e-01	 1.6127011479e+00
 9.2986393579e-01	 6.9154311128e-01	 1.5897242070e+00
 9.9973647194e-01	 6.0327126602e-01	 1.9301261815e+00
 9.9389377585e-01	 6.1284940224e-01	 1.9609811876e+00
 9.8795258571e-01	 6.2238163326e-01	 1.9738133977e+00
 9.8191341308e-01	 6.3186646504e-01	 1.9708720171e+00
 9.7577679933e-01	 6.4130241048e-01	 1.9542389189e+00
 9.6954331555e-01	 6.5068799013e-01	 1.9258164332e+00
 9.6321356248e-01	 6.6002173293e-01	 1.8873149363e+00
 9.5678817031e-01	 6.6930217696e-01	 1.8402403035e+00
 9.5026779855e-01	 6.7852787015e-01	 1.7858812939e+00
 9.4365313585e-01	 6.8769737100e-01	 1.7252969356e+00
 9.3694489977e-01	 6.9680924934e-01	 1.6593039854e+00
 1.0072919856e+00	 6.0783049177e-01	 2.0269382493e+00
 1.0014051333e+00	 6.1748101481e-01	 2.0851152262e+00
 9.9541904256e-01	 6.2708528571e-01	 2.1232323758e+00
 9.8933422885e-01	 6.3664179916e-01	 2.1420067387e+00
 9.8315123760e-01	 6.4614905681e-01	 2.1420558745e+00
 9.7687064424e-01	 6.5560556802e-01	 2.1238877808e+00
 9.7049305402e-01	 6.6500985064e-01	 2.0878905133e+00
 9.6401910192e-01	 6.7436043167e-01	 2.0343215694e+00
 9.5744945241e-01	 6.8365584808e-01	 1.9632971014e+00
 9.5078479937e-01	 6.9289464749e-01	 1.8747810279e+00
 9.4402586576e-01	 7.0207538890e-01	 1.7685741153e+00
 8.7321653691e-01	 6.4941423958e-01	 2.1135068707e+00
 8.6687697863e-01	 6.5785275749e-01	 2.1190882927e+00
 8.6045160364e-01	 6.6623491653e-01	 2.0784957333e+00
 8.5394116421e-01	 6.7455941392e-01	 2.0025455510e+00
 8.4734643864e-01	 6.8282496008e-01	 1.9017421072e+00
 8.4066823096e-01	 6.9103027925e-01	 1.7862560295e+00
 8.3390737064e-01	 6.9917411015e-01	 1.6659029519e+00
 8.2706471224e-01	 7.0725520659e-01	 1.5501228036e+00
 8.2014113507e-01	 7.1527233812e-01	 1.4479597178e+00
 8.1313754280e-01	 7.2322429065e-01	 1.3680426275e+00
 8.0605486311e-01	 7.3110986703e-01	 1.3185666193e+00
 8.8029741261e-01	 6.5468031199e-01	 1.9718719447e+00
 8.7390644713e-01	 6.6318725748e-01	 2.0439343095e+00
 8.6742896905e-01	 6.7163738709e-01	 2.0765369530e+00
 8.6086573674e-01	 6.8002938747e-01	 2.0746385262e+00
 8.5421753482e-01	 6.8836195859e-01	 2.0430914587e+00
 8.4748517384e-01	 6.9663381435e-01	 1.9866285552e+00
 8.4066948999e-01	 7.0484368322e-01	 1.9098498104e+00
 8.3377134477e-01	 7.1299030893e-01	 1.8172095005e+00
 8.2679162460e-01	 7.2107245104e-01	 1.7130036104e+00
 8.1973124050e-01	 7.2908888562e-01	 1.6013576546e+00
 8.1259112766e-01	 7.3703840580e-01	 1.4862149473e+00
 8.8737830637e-01	 6.5994639782e-01	 1.8455089928e+00
 8.8093593355e-01	 6.6852177107e-01	 1.9576461592e+00
 8.7440635224e-01	 6.7703987142e-01	 2.0393251641e+00
 8.6779032693e-01	 6.8549937497e-01	 2.0907352302e+00
 8.6108864852e-01	 6.9389897123e-01	 2.1121259491e+00
 8.5430213410e-01	 7.0223736374e-01	 2.1038006368e+00
 8.4743162659e-01	 7.1051327076e-01	 2.0661096976e+00
 8.4047799440e-01	 7.1872542590e-01	 1.9994440469e+00
 8.3344213109e-01	 7.2687257876e-01	 1.9042286395e+00
 8.2632495501e-01	 7.3495349554e-01	 1.7809161562e+00
 8.1912740888e-01	 7.4296695969e-01	 1.6299176633e+00
 8.9445921619e-01	 6.6521249560e-01	 1.7377708715e+00
 8.8796543591e-01	 6.7385629676e-01	 1.8672270830e+00
 8.8138375126e-01	 6.8244236800e-01	 1.9766278913e+00
 8.7471493281e-01	 6.9096937488e-01	 2.0624562068e+00
 8.6795977780e-01	 6.9943599641e-01	 2.1213833471e+00
 8.6111910982e-01	 7.0784092583e-01	 2.1502675974e+00
 8.5419377851e-01	 7.1618287114e-01	 2.1461526199e+00
 8.4718465923e-01	 7.2446055587e-01	 2.1062657531e+00
 8.4009265266e-01	 7.3267271962e-01	 2.0280162455e+00
 8.3291868447e-01	 7.4081811876e-01	 1.9089933069e+00
 8.2566370492e-01	 7.4889552701e-01	 1.7460372110e+00
 9.0154014004e-01	 6.7047860381e-01	 1.6519228102e+00
 8.9499495221e-01	 6.7919083302e-01	 1.7794771417e+00
 8.8836116411e-01	 6.8784487530e-01	 1.8979218192e+00
 8.8163955243e-01	 6.9643938563e-01	 2.0010721940e+00
 8.7483092070e-01	 7.0497303258e-01	 2.0830221247e+00
 8.6793609906e-01	 7.1344449903e-01	 2.1381462088e+00
 8.6095594385e-01	 7.2185248277e-01	 2.1611017509e+00
 8.5389133736e-01	 7.3019569721e-01	 2.1468305066e+00
 8.4674318742e-01	 7.3847287198e-01	 2.0905602398e+00
 8.3951242701e-01	 7.4668275360e-01	 1.9872934007e+00
 8.3220001392e-01	 7.5482410610e-01	 1.8313137847e+00
 9.0862107594e-01	 6.7574472098e-01	 1.5911434791e+00
 9.0202448046e-01	 6.8452537835e-01	 1.7009986894e+00
 8.9533858883e-01	 6.9324739178e-01	 1.8124015868e+00
 8.8856418382e-01	 7.0190940568e-01	 1.9175151251e+00
 8.8170207529e-01	 7.1051007816e-01	 2.0088335212e+00
 8.7475309988e-01	 7.1904808176e-01	 2.0791866428e+00
 8.6771812068e-01	 7.2752210404e-01	 2.1217440701e+00
 8.6059802689e-01	 7.3593084830e-01	 2.1300188670e+00
 8.5339373348e-01	 7.4427303421e-01	 2.0976830157e+00
 8.4610618077e-01	 7.5254739842e-01	 2.0172832627e+00
 8.3873633404e-01	 7.6075269526e-01	 1.8827127712e+00
 9.1570202187e-01	 6.8101084561e-01	 1.5585258977e+00
 9.0905401867e-01	 6.8985993124e-01	 1.6382014802e+00
 9.0231602343e-01	 6.9864991592e-01	 1.7289880594e+00
 8.9548882502e-01	 7.0737943348e-01	 1.8223885028e+00
 8.8857323962e-01	 7.1604713159e-01	 1.9102529275e+00
 8.8157011037e-01	 7.2465167243e-01	 1.9847837484e+00
 8.7448030709e-01	 7.3319173335e-01	 2.0385403846e+00
 8.6730472593e-01	 7.4166600752e-01	 2.0644297482e+00
 8.6004428897e-01	 7.5007320465e-01	 2.0543464137e+00
 8.5269994386e-01	 7.5841205155e-01	 2.0007314586e+00
 8.4527266341e-01	 7.6668129283e-01	 1.8972737134e+00
 9.2278297582e-01	 6.8627697621e-01	 1.5570781919e+00
 9.1608356484e-01	 6.9519449018e-01	 1.5973074275e+00
 9.0929346594e-01	 7.0405244618e-01	 1.6563361051e+00
 9.0241347407e-01	 7.1284946748e-01	 1.7259771793e+00
 8.9544441173e-01	 7.2158419129e-01	 1.7983706289e+00
 8.8838712858e-01	 7.3025526945e-01	 1.8659876883e+00
 8.8124250117e-01	 7.3886136908e-01	 1.9216347669e+00
 8.7401143257e-01	 7.4740117324e-01	 1.9577090020e+00
 8.6669485199e-01	 7.5587338167e-01	 1.9658202034e+00
 8.5929371442e-01	 7.6427671132e-01	 1.9393326345e+00
 8.5180900020e-01	 7.7260989711e-01	 1.8721073324e+00
 9.2986393579e-01	 6.9154311128e-01	 1.5897242070e+00
 9.2311311700e-01	 7.0052905365e-01	 1.5843550354e+00
 9.1627091438e-01	 7.0945498103e-01	 1.6028419032e+00
 9.0933812901e-01	 7.1831950613e-01	 1.6382565740e+00
 9.0231558968e-01	 7.2712125570e-01	 1.6839419390e+00
 8.9520415258e-01	 7.3585887124e-01	 1.7335139703e+00
 8.8800470099e-01	 7.4453100962e-01	 1.7806155642e+00
 8.8071814491e-01	 7.5313634384e-01	 1.8173343227e+00
 8.7334542067e-01	 7.6167356361e-01	 1.8372583777e+00
 8.6588749059e-01	 7.7014137608e-01	 1.8347102215e+00
 8.5834534253e-01	 7.7853850643e-01	 1.8043927298e+00
 9.3694489977e-01	 6.9680924934e-01	 1.6593039854e+00
 9.3014267313e-01	 7.0586362015e-01	 1.6052035188e+00
 9.2324836677e-01	 7.1485751894e-01	 1.5766498088e+00
 9.1626278787e-01	 7.2378954788e-01	 1.5689013596e+00
 9.0918677152e-01	 7.3265832325e-01	 1.5773967581e+00
 9.0202118045e-01	 7.4146247620e-01	 1.5977431452e+00
 8.9476690465e-01	 7.5020065339e-01	 1.6240935234e+00
 8.8742486104e-01	 7.5887151769e-01	 1.6508390549e+00
 8.7999599312e-01	 7.6747374885e-01	 1.6736396320e+00
 8.7248127050e-01	 7.7600604416e-01	 1.6884190623e+00
 8.6488168858e-01	 7.8446711912e-01	 1.6913747628e+00
 9.4402586576e-01	 7.0207538890e-01	 1.7685741153e+00
 9.3717223126e-01	 7.1119818816e-01	 1.6655366285e+00
 9.3022582114e-01	 7.2026005839e-01	 1.5856587968e+00
 9.2318744869e-01	 7.2925959118e-01	 1.5272936428e+00
 9.1605795531e-01	 7.3819539237e-01	 1.4888485857e+00
 9.0883821025e-01	 7.4706608275e-01	 1.4680233563e+00
 9.0152911022e-01	 7.5587029875e-01	 1.4609560355e+00
 8.9413157908e-01	 7.6460669316e-01	 1.4655111369e+00
 8.8664656745e-01	 7.7327393573e-01	 1.4797738952e+00
 8.7907505228e-01	 7.8187071391e-01	 1.5019479640e+00
 8.7141803647e-01	 7.9039573348e-01	 1.5303615807e+00
 8.0605486311e-01	 7.3110986703e-01	 1.3185666193e+00
 7.9889526895e-01	 7.3892656667e-01	 1.3248969828e+00
 7.9165852639e-01	 7.4667458537e-01	 1.3934134488e+00
 7.8434561935e-01	 7.5435279371e-01	 1.5035078459e+00
 7.7695755399e-01	 7.6196008148e-01	 1.6359712081e+00
 7.6949535827e-01	 7.6949535827e-01	 1.7722998527e+00
 7.6196008148e-01	 7.7695755399e-01	 1.8946897511e+00
 7.5435279371e-01	 7.8434561935e-01	 1.9860631029e+00
 7.4667458537e-01	 7.9165852639e-01	 2.0300938472e+00
 7.3892656667e-01	 7.9889526895e-01	 2.0110694594e+00
 7.3110986703e-01	 8.0605486311e-01	 1.9099778369e+00
 8.1259112766e-01	 7.3703840580e-01	 1.4862149473e+00
 8.0537347665e-01	 7.4491849072e-01	 1.3986100788e+00
 7.9807805166e-01	 7.5272933778e-01	 1.3578549552e+00
 7.9070584457e-01	 7.6046980838e-01	 1.3515558578e+00
 7.8325786970e-01	 7.6813878332e-01	 1.3678379806e+00
 7.7573516335e-01	 7.7573516335e-01	 1.3952160643e+00
 7.6813878332e-01	 7.8325786970e-01	 1.4226123443e+00
 7.6046980838e-01	 7.9070584457e-01	 1.4393739034e+00
 7.5272933778e-01	 7.9807805166e-01	 1.4352893885e+00
 7.4491849072e-01	 8.0537347665e-01	 1.4006050531e+00
 7.3703840580e-01	 8.1259112766e-01	 1.3253377656e+00
 8.1912740888e-01	 7.4296695969e-01	 1.6299176633e+00
 8.1185170088e-01	 7.5091043005e-01	 1.4824211590e+00
 8.0449759330e-01	 7.5878410563e-01	 1.3658805244e+00
 7.9706608601e-01	 7.6658683865e-01	 1.2742987138e+00
 7.8955820148e-01	 7.7431750092e-01	 1.2018229986e+00
 7.8197498435e-01	 7.8197498435e-01	 1.1427551597e+00
 7.7431750092e-01	 7.8955820148e-01	 1.0915614577e+00
 7.6658683865e-01	 7.9706608601e-01	 1.0428823537e+00
 7.5878410563e-01	 8.0449759330e-01	 9.9154194931e-01
 7.5091043005e-01	 8.1185170088e-01	 9.3255712080e-01
 7.4296695969e-01	 8.1912740888e-01	 8.6114631934e-01
 8.2566370492e-01	 7.4889552701e-01	 1.7460372110e+00
 8.1832993980e-01	 7.5690238297e-01	 1.5678470248e+00
 8.1091714950e-01	 7.6483888720e-01	 1.4047691624e+00
 8.0342634186e-01	 7.7270388279e-01	 1.2557607485e+00
 7.9585854754e-01	 7.8049623253e-01	 1.1197414835e+00
 7.8821481949e-01	 7.8821481949e-01	 9.9559722847e-01
 7.8049623253e-01	 7.9585854754e-01	 8.8218363361e-01
 7.7270388279e-01	 8.0342634186e-01	 7.7832979266e-01
 7.6483888720e-01	 8.1091714950e-01	 6.8284190391e-01
 7.5690238297e-01	 8.1832993980e-01	 5.9450691909e-01
 7.4889552701e-01	 8.2566370492e-01	 5.1209616210e-01
 8.3220001392e-01	 7.5482410610e-01	 1.8313137847e+00
 8.2480819156e-01	 7.6289434777e-01	 1.6466834496e+00
 8.1733671842e-01	 7.7089368078e-01	 1.4621797184e+00
 8.0978661033e-01	 7.7882093906e-01	 1.2804482995e+00
 8.0215890609e-01	 7.8667497639e-01	 1.1039599745e+00
 7.9445466701e-01	 7.9445466701e-01	 9.3500925163e-01
 7.8667497639e-01	 8.0215890609e-01	 7.7571326634e-01
 7.7882093906e-01	 8.0978661033e-01	 6.2801091582e-01
 7.7089368078e-01	 8.1733671842e-01	 4.9366221625e-01
 7.6289434777e-01	 8.2480819156e-01	 3.7424787050e-01
 7.5482410610e-01	 8.3220001392e-01	 2.7116903428e-01
 8.3873633404e-01	 7.6075269526e-01	 1.8827127712e+00
 8.3128645434e-01	 7.6888632276e-01	 1.7109621836e+00
 8.2375629826e-01	 7.7694848466e-01	 1.5261358973e+00
 8.1614688962e-01	 7.8493800573e-01	 1.3333307588e+00
 8.0845927536e-01	 7.9285373076e-01	 1.1373746962e+00
 8.0069452513e-01	 8.0069452513e-01	 9.4282209761e-01
 7.9285373076e-01	 8.0845927536e-01	 7.5394957512e-01
 7.8493800573e-01	 8.1614688962e-01	 5.7475210476e-01
 7.7694848466e-01	 8.2375629826e-01	 4.0893953646e-01
 7.6888632276e-01	 8.3128645434e-01	 2.5993346535e-01
 7.6075269526e-01	 8.3873633404e-01	 1.3086445636e-01
 8.4527266341e-01	 7.6668129283e-01	 1.8972737134e+00
 8.3776472629e-01	 7.7487830623e-01	 1.7529416712e+00
 8.3017588720e-01	 7.8300329711e-01	 1.5850120147e+00
 8.2250717791e-01	 7.9105508106e-01	 1.3998225490e+00
 8.1475965355e-01	 7.9903249388e-01	 1.2033909762e+00
 8.0693439210e-01	 8.0693439210e-01	 1.0014086342e+00
 7.9903249388e-01	 8.1475965355e-01	 7.9923469378e-01
 7.9105508106e-01	 8.2250717791e-01	 6.0189081042e-01
 7.8300329711e-01	 8.3017588720e-01	 4.1405622376e-01
 7.7487830623e-01	 8.3776472629e-01	 2.4006329920e-01
 7.6668129283e-01	 8.4527266341e-01	 8.3893504544e-02
 8.5180900020e-01	 7.7260989711e-01	 1.8721073324e+00
 8.4424300559e-01	 7.8087029650e-01	 1.7650982416e+00
 8.3659548341e-01	 7.8905811643e-01	 1.6275194536e+00
 8.2886747342e-01	 7.9717216333e-01	 1.4657659767e+00
 8.2106003889e-01	 8.0521126400e-01	 1.2859036584e+00
 8.1317426614e-01	 8.1317426614e-01	 1.0936628954e+00
 8.0521126400e-01	 8.2106003889e-01	 8.9443281716e-01
 7.9717216333e-01	 8.2886747342e-01	 6.9325593411e-01
 7.8905811643e-01	 8.3659548341e-01	 4.9482324606e-01
 7.8087029650e-01	 8.4424300559e-01	 3.0346980274e-01
 7.7260989711e-01	 8.5180900020e-01	 1.2317070942e-01
 8.5834534253e-01	 7.7853850643e-01	 1.8043927298e+00
 8.5072129039e-01	 7.8686229187e-01	 1.7401177479e+00
 8.4301508508e-01	 7.9511294089e-01	 1.6426937857e+00
 8.3522777433e-01	 8.0328925080e-01	 1.5174149161e+00
 8.2736042958e-01	 8.1139003938e-01	 1.3692784570e+00
 8.1941414548e-01	 8.1941414548e-01	 1.2029802476e+00
 8.1139003938e-01	 8.2736042958e-01	 1.0229103481e+00
 8.0328925080e-01	 8.3522777433e-01	 8.3314915311e-01
 7.9511294089e-01	 8.4301508508e-01	 6.3746390936e-01
 7.8686229187e-01	 8.5072129039e-01	 4.3930562690e-01
 7.7853850643e-01	 8.5834534253e-01	 2.4180637430e-01
 8.6488168858e-01	 7.8446711912e-01	 1.6913747628e+00
 8.5719957887e-01	 7.9285429062e-01	 1.6708876295e+00
 8.4943469038e-01	 8.0116776879e-01	 1.6198825225e+00
 8.4158807884e-01	 8.0940634174e-01	 1.5414192772e+00
 8.3366082384e-01	 8.1756881826e-01	 1.4383342035e+00
 8.2565402836e-01	 8.2565402836e-01	 1.3132385017e+00
 8.1756881826e-01	 8.3366082384e-01	 1.1685169918e+00
 8.0940634174e-01	 8.4158807884e-01	 1.0063271408e+00
 8.0116776879e-01	 8.4943469038e-01	 8.2859837328e-01
 7.9285429062e-01	 8.5719957887e-01	 6.3703164884e-01
 7.8446711912e-01	 8.6488168858e-01	 4.3309929113e-01
 8.7141803647e-01	 7.9039573348e-01	 1.5303615807e+00
 8.6367786918e-01	 7.9884629108e-01	 1.5504893776e+00
 8.5585429751e-01	 8.0722259840e-01	 1.5487334633e+00
 8.4794838516e-01	 8.1552343441e-01	 1.5248102203e+00
 8.3996121988e-01	 8.2374759889e-01	 1.4783259382e+00
 8.3189391300e-01	 8.3189391300e-01	 1.4087799225e+00
 8.2374759889e-01	 8.3996121988e-01	 1.3155677484e+00
 8.1552343441e-01	 8.4794838516e-01	 1.1979846344e+00
 8.0722259840e-01	 8.5585429751e-01	 1.0552289114e+00
 7.9884629108e-01	 8.6367786918e-01	 8.8640556607e-01
 7.9039573348e-01	 8.7141803647e-01	 6.9052983299e-01
 7.3110986703e-01	 8.0605486311e-01	 1.9099778369e+00
 7.2322429065e-01	 8.1313754280e-01	 1.7382998537e+00
 7.1527233812e-01	 8.2014113507e-01	 1.5306444290e+00
 7.0725520659e-01	 8.2706471224e-01	 1.3041199697e+00
 6.9917411015e-01	 8.3390737064e-01	 1.0752926073e+00
 6.9103027925e-01	 8.4066823096e-01	 8.6016210775e-01
 6.8282496008e-01	 8.4734643864e-01	 6.7413861636e-01
 6.7455941392e-01	 8.5394116421e-01	 5.3202029276e-01
 6.6623491653e-01	 8.6045160364e-01	 4.4797188425e-01
 6.5785275749e-01	 8.6687697863e-01	 4.3550428629e-01
 6.4941423958e-01	 8.7321653691e-01	 5.0745513483e-01
 7.3703840580e-01	 8.1259112766e-01	 1.3253377656e+00
 7.2908888562e-01	 8.1973124050e-01	 1.2097745973e+00
 7.2107245104e-01	 8.2679162460e-01	 1.0722307470e+00
 7.1299030893e-01	 8.3377134477e-01	 9.2459500705e-01
 7.0484368322e-01	 8.4066948999e-01	 7.7840858414e-01
 6.9663381435e-01	 8.4748517384e-01	 6.4484685173e-01
 6.8836195859e-01	 8.5421753482e-01	 5.3470163986e-01
 6.8002938747e-01	 8.6086573674e-01	 4.5836410852e-01
 6.7163738709e-01	 8.6742896905e-01	 4.2580824816e-01
 6.6318725748e-01	 8.7390644713e-01	 4.4657504917e-01
 6.5468031199e-01	 8.8029741261e-01	 5.2975737997e-01
 7.4296695969e-01	 8.1912740888e-01	 8.6114631934e-01
 7.3495349554e-01	 8.2632495501e-01	 7.7685236031e-01
 7.2687257876e-01	 8.3344213109e-01	 6.8447383698e-01
 7.1872542590e-01	 8.4047799440e-01	 5.9131985450e-01
 7.1051327076e-01	 8.4743162659e-01	 5.0478553259e-01
 7.0223736374e-01	 8.5430213410e-01	 4.3206948008e-01
 6.9389897123e-01	 8.6108864852e-01	 3.8016061822e-01
 6.8549937497e-01	 8.6779032693e-01	 3.5582533012e-01
 6.7703987142e-01	 8.7440635224e-01	 3.6559497497e-01
 6.6852177107e-01	 8.8093593355e-01	 4.1575380422e-01
 6.5994639782e-01	 8.8737830637e-01	 5.1232731543e-01
 7.4889552701e-01	 8.2566370492e-01	 5.1209616210e-01
 7.4081811876e-01	 8.3291868447e-01	 4.3640621798e-01
 7.3267271962e-01	 8.4009265266e-01	 3.6856159424e-01
 7.2446055587e-01	 8.4718465923e-01	 3.0915801661e-01
 7.1618287114e-01	 8.5419377851e-01	 2.6230354562e-01
 7.0784092583e-01	 8.6111910982e-01	 2.3204902269e-01
 6.9943599641e-01	 8.6795977780e-01	 2.2237777827e-01
 6.9096937488e-01	 8.7471493281e-01	 2.3719610702e-01
 6.8244236800e-01	 8.8138375126e-01	 2.8032389449e-01
 6.7385629676e-01	 8.8796543591e-01	 3.5548542905e-01
 6.6521249560e-01	 8.9445921619e-01	 4.6630043205e-01
 7.5482410610e-01	 8.3220001392e-01	 2.7116903428e-01
 7.4668275360e-01	 8.3951242701e-01	 1.8731974309e-01
 7.3847287198e-01	 8.4674318742e-01	 1.2565353685e-01
 7.3019569721e-01	 8.5389133736e-01	 8.2828388826e-02
 7.2185248277e-01	 8.6095594385e-01	 5.8602587120e-02
 7.1344449903e-01	 8.6793609906e-01	 5.4690162191e-02
 7.0497303258e-01	 8.7483092070e-01	 7.2848655559e-02
 6.9643938563e-01	 8.8163955243e-01	 1.1487198261e-01
 6.8784487530e-01	 8.8836116411e-01	 1.8258328192e-01
 6.7919083302e-01	 8.9499495221e-01	 2.7782778304e-01
 6.7047860381e-01	 9.0154014004e-01	 4.0246572356e-01
 7.6075269526e-01	 8.3873633404e-01	 1.3086445636e-01
 7.5254739842e-01	 8.4610618077e-01	 2.8472063298e-02
 7.4427303421e-01	 8.5339373348e-01	-4.2441398681e-02
 7.3593084830e-01	 8.6059802689e-01	-8.3089480065e-02
 7.2752210404e-01	 8.6771812068e-01	-9.8908549554e-02
 7.1904808176e-01	 8.7475309988e-01	-9.0404940315e-02
 7.1051007816e-01	 8.8170207529e-01	-5.7284063534e-02
 7.0190940568e-01	 8.8856418382e-01	 8.6688026479e-04
 6.9324739178e-01	 8.9533858883e-01	 8.4573094686e-02
 6.8452537835e-01	 9.0202448046e-01	 1.9446628148e-01
 6.7574472098e-01	 9.0862107594e-01	 3.3127866548e-01
 7.6668129283e-01	 8.4527266341e-01	 8.3893504544e-02
 7.5841205155e-01	 8.5269994386e-01	-4.2934907681e-02
 7.5007320465e-01	 8.6004428897e-01	-1.3197331742e-01
 7.4166600752e-01	 8.6730472593e-01	-1.8410182560e-01
 7.3319173335e-01	 8.7448030709e-01	-2.0304372133e-01
 7.2465167243e-01	 8.8157011037e-01	-1.9392539089e-01
 7.1604713159e-01	 8.8857323962e-01	-1.5721736478e-01
 7.0737943348e-01	 8.9548882502e-01	-9.3172628869e-02
 6.9864991592e-01	 9.0231602343e-01	-1.8805209875e-03
 6.8985993124e-01	 9.0905401867e-01	 1.1672777012e-01
 6.8101084561e-01	 9.1570202187e-01	 2.6287356801e-01
 7.7260989711e-01	 8.5180900020e-01	 1.2317070942e-01
 7.6427671132e-01	 8.5929371442e-01	-2.9633779583e-02
 7.5587338167e-01	 8.6669485199e-01	-1.4160297739e-01
 7.4740117324e-01	 8.7401143257e-01	-2.1367449836e-01
 7.3886136908e-01	 8.8124250117e-01	-2.4683132982e-01
 7.3025526945e-01	 8.8838712858e-01	-2.4684084909e-01
 7.2158419129e-01	 8.9544441173e-01	-2.1647535848e-01
 7.1284946748e-01	 9.0241347407e-01	-1.5595373802e-01
 7.0405244618e-01	 9.0929346594e-01	-6.5311414422e-02
 6.9519449018e-01	 9.1608356484e-01	 5.5593737670e-02
 6.8627697621e-01	 9.2278297582e-01	 2.0707533691e-01
 7.7853850643e-01	 8.5834534253e-01	 2.4180637430e-01
 7.7014137608e-01	 8.6588749059e-01	 6.5705891108e-02
 7.6167356361e-01	 8.7334542067e-01	-7.0309448617e-02
 7.5313634384e-01	 8.8071814491e-01	-1.6643636079e-01
 7.4453100962e-01	 8.8800470099e-01	-2.2274688089e-01
 7.3585887124e-01	 8.9520415258e-01	-2.4039132627e-01
 7.2712125570e-01	 9.0231558968e-01	-2.2489732776e-01
 7.1831950613e-01	 9.0933812901e-01	-1.7652446044e-01
 7.0945498103e-01	 9.1627091438e-01	-9.4600269022e-02
 7.0052905365e-01	 9.2311311700e-01	 2.1712901423e-02
 6.9154311128e-01	 9.2986393579e-01	 1.7341067356e-01
 7.8446711912e-01	 8.6488168858e-01	 4.3309929113e-01
 7.7600604416e-01	 8.7248127050e-01	 2.4047533739e-01
 7.6747374885e-01	 8.7999599312e-01	 8.2877274075e-02
 7.5887151769e-01	 8.8742486104e-01	-3.8368663147e-02
 7.5020065339e-01	 8.9476690465e-01	-1.2184616945e-01
 7.4146247620e-01	 9.0202118045e-01	-1.6604843120e-01
 7.3265832325e-01	 9.0918677152e-01	-1.7262634119e-01
 7.2378954788e-01	 9.1626278787e-01	-1.4426129462e-01
 7.1485751894e-01	 9.2324836677e-01	-7.8962060404e-02
 7.0586362015e-01	 9.3014267313e-01	 2.5413199303e-02
 6.9680924934e-01	 9.3694489977e-01	 1.7111874411e-01
 7.9039573348e-01	 8.7141803647e-01	 6.9052983299e-01
 7.8187071391e-01	 8.7907505228e-01	 4.9212446911e-01
 7.7327393573e-01	 8.8664656745e-01	 3.1887835162e-01
 7.6460669316e-01	 8.9413157908e-01	 1.7440685354e-01
 7.5587029875e-01	 9.0152911022e-01	 6.2354388097e-02
 7.4706608275e-01	 9.0883821025e-01	-1.3607929973e-02
 7.3819539237e-01	 9.1605795531e-01	-5.0098400225e-02
 7.2925959118e-01	 9.2318744869e-01	-4.8857467138e-02
 7.2026005839e-01	 9.3022582114e-01	-7.9341016044e-03
 7.1119818816e-01	 9.3717223126e-01	 7.6713219341e-02
 7.0207538890e-01	 9.4402586576e-01	 2.0916134542e-01
 6.4941423958e-01	 8.7321653691e-01	 5.0745513483e-01
 6.4092212563e-01	 8.7946849759e-01	 6.2369021237e-01
 6.3237630850e-01	 8.8563324950e-01	 7.3372688987e-01
 6.2377812107e-01	 8.9171012387e-01	 8.3448630441e-01
 6.1512890680e-01	 8.9769847889e-01	 9.2313140080e-01
 6.0643001899e-01	 9.0359769993e-01	 9.9706487406e-01
 5.9768282013e-01	 9.0940719963e-01	 1.0539269129e+00
 5.8888868122e-01	 9.1512641814e-01	 1.0915927600e+00
 5.8004898109e-01	 9.2075482320e-01	 1.1081701062e+00
 5.7116510568e-01	 9.2629191025e-01	 1.1019963320e+00
 5.6223844740e-01	 9.3173720256e-01	 1.0716356127e+00
 6.5468031199e-01	 8.8029741261e-01	 5.2975737997e-01
 6.4611933585e-01	 8.8660007018e-01	 6.4067463301e-01
 6.3750422105e-01	 8.9281481179e-01	 7.3827090428e-01
 6.2883631129e-01	 8.9894096328e-01	 8.2181944841e-01
 6.2011696091e-01	 9.0497787762e-01	 8.9078684407e-01
 6.1134753419e-01	 9.1092493519e-01	 9.4482797688e-01
 6.0252940466e-01	 9.1678154388e-01	 9.8378092323e-01
 5.9366395446e-01	 9.2254713929e-01	 1.0076617559e+00
 5.8475257357e-01	 9.2822118484e-01	 1.0166592916e+00
 5.7579665919e-01	 9.3380317190e-01	 1.0111297984e+00
 5.6679761502e-01	 9.3929261984e-01	 9.9159168239e-01
 6.5994639782e-01	 8.8737830637e-01	 5.1232731543e-01
 6.5131655932e-01	 8.9373166095e-01	 6.2398690800e-01
 6.4263214667e-01	 8.9999639240e-01	 7.1623587869e-01
 6.3389451440e-01	 9.0617182113e-01	 7.9020288349e-01
 6.2510502773e-01	 9.1225729491e-01	 8.4716829956e-01
 6.1626506192e-01	 9.1825218913e-01	 8.8855684201e-01
 6.0737600155e-01	 9.2415590693e-01	 9.1593016775e-01
 5.9843923987e-01	 9.2996787936e-01	 9.3097949102e-01
 5.8945617804e-01	 9.3568756552e-01	 9.3551823353e-01
 5.8042822451e-01	 9.4131445269e-01	 9.3147473119e-01
 5.7135679427e-01	 9.4684805640e-01	 9.2088501781e-01
 6.6521249560e-01	 8.9445921619e-01	 4.6630043205e-01
 6.5651379457e-01	 9.0086326789e-01	 5.8311898978e-01
 6.4776008392e-01	 9.0717798930e-01	 6.7558154252e-01
 6.3895272898e-01	 9.1340269537e-01	 7.4618662507e-01
 6.3009310586e-01	 9.1953672871e-01	 7.9754964166e-01
 6.2118260080e-01	 9.2557945969e-01	 8.3239370182e-01
 6.1222260943e-01	 9.3153028670e-01	 8.5354051584e-01
 6.0321453610e-01	 9.3738863625e-01	 8.6390137719e-01
 5.9415979318e-01	 9.4315396313e-01	 8.6646825716e-01
 5.8505980033e-01	 9.4882575052e-01	 8.6430503608e-01
 5.7591598385e-01	 9.5440351008e-01	 8.6053889354e-01
 6.7047860381e-01	 9.0154014004e-01	 4.0246572356e-01
 6.6171104013e-01	 9.0799488897e-01	 5.2726738772e-01
 6.5288803134e-01	 9.1435960043e-01	 6.2401977582e-01
 6.4401095359e-01	 9.2063358396e-01	 6.9611662242e-01
 6.3508119388e-01	 9.2681617694e-01	 7.4704030498e-01
 6.2610014943e-01	 9.3290674478e-01	 7.8035147612e-01
 6.1706922691e-01	 9.3890468109e-01	 7.9967881461e-01
 6.0798984180e-01	 9.4480940786e-01	 8.0870892400e-01
 5.9886341764e-01	 9.5062037554e-01	 8.1117640634e-01
 5.8969138534e-01	 9.5633706324e-01	 8.1085413639e-01
 5.8047518247e-01	 9.6195897875e-01	 8.1154376034e-01
 6.7574472098e-01	 9.0862107594e-01	 3.3127866548e-01
 6.6690829452e-01	 9.1512652218e-01	 4.6534414301e-01
 6.5801598748e-01	 9.2154122378e-01	 5.6902371676e-01
 6.4906918680e-01	 9.2786448484e-01	 6.4614214891e-01
 6.4006929039e-01	 9.3409563755e-01	 7.0059112098e-01
 6.3101770642e-01	 9.4023404232e-01	 7.3631823226e-01
 6.2191585264e-01	 9.4627908802e-01	 7.5731616248e-01
 6.1276515563e-01	 9.5223019208e-01	 7.6761202897e-01
 6.0356705010e-01	 9.5808680065e-01	 7.7125696670e-01
 5.9432297822e-01	 9.6384838874e-01	 7.7231595722e-01
 5.8503438884e-01	 9.6951446026e-01	 7.7485793139e-01
 6.8101084561e-01	 9.1570202187e-01	 2.6287356801e-01
 6.7210555628e-01	 9.2225816550e-01	 4.0598727042e-01
 6.6314395088e-01	 9.2872285730e-01	 5.1783642249e-01
 6.5412742717e-01	 9.3509539596e-01	 6.0222282517e-01
 6.4505739396e-01	 9.4137510847e-01	 6.6299985967e-01
 6.3593527038e-01	 9.4756135025e-01	 7.0406141409e-01
 6.2676248523e-01	 9.5365350540e-01	 7.2933100686e-01
 6.1754047621e-01	 9.5965098682e-01	 7.4275113763e-01
 6.0827068923e-01	 9.6555323634e-01	 7.4827289392e-01
 5.9895457766e-01	 9.7135972488e-01	 7.4984584004e-01
 5.8959360168e-01	 9.7706995248e-01	 7.5140821268e-01
 6.8627697621e-01	 9.2278297582e-01	 2.0707533691e-01
 6.7730282392e-01	 9.2938981689e-01	 3.5757069579e-01
 6.6827192009e-01	 9.3590449895e-01	 4.7747910748e-01
 6.5918567328e-01	 9.4232631528e-01	 5.7013529509e-01
 6.5004550318e-01	 9.4865458764e-01	 6.3891649211e-01
 6.4085283991e-01	 9.5488866648e-01	 6.8723185212e-01
 6.3160912332e-01	 9.6102793114e-01	 7.1851207506e-01
 6.2231580221e-01	 9.6707178997e-01	 7.3619928001e-01
 6.1297433368e-01	 9.7301968049e-01	 7.4373715234e-01
 6.0358618236e-01	 9.7887106952e-01	 7.4456139116e-01
 5.9415281968e-01	 9.8462545326e-01	 7.4209048064e-01
 6.9154311128e-01	 9.2986393579e-01	 1.7341067356e-01
 6.8250009599e-01	 9.3652147435e-01	 3.2821371587e-01
 6.7339989367e-01	 9.4308614672e-01	 4.5475898181e-01
 6.6424392369e-01	 9.4955724074e-01	 5.5547957298e-01
 6.5503361664e-01	 9.5593407300e-01	 6.3284818868e-01
 6.4577041363e-01	 9.6221598894e-01	 6.8936756667e-01
 6.3645576553e-01	 9.6840236314e-01	 7.2756114740e-01
 6.2709113227e-01	 9.7449259942e-01	 7.4996399023e-01
 6.1767798214e-01	 9.8048613099e-01	 7.5911396850e-01
 6.0821779099e-01	 9.8638242056e-01	 7.5754326783e-01
 5.9871204156e-01	 9.9218096046e-01	 7.4777020988e-01
 6.9680924934e-01	 9.3694489977e-01	 1.7111874411e-01
 6.8769737100e-01	 9.4365313585e-01	 3.2579000597e-01
 6.7852787015e-01	 9.5026779855e-01	 4.5627671060e-01
 6.6930217696e-01	 9.5678817031e-01	 5.6368507934e-01
 6.6002173293e-01	 9.6321356248e-01	 6.4916406699e-01
 6.5068799013e-01	 9.6954331555e-01	 7.1389737477e-01
 6.4130241048e-01	 9.7577679933e-01	 7.5909568088e-01
 6.3186646504e-01	 9.8191341308e-01	 7.8598911543e-01
 6.2238163326e-01	 9.8795258571e-01	 7.9582000440e-01
 6.1284940224e-01	 9.9389377585e-01	 7.8983590514e-01
 6.0327126602e-01	 9.9973647194e-01	 7.6928295352e-01
 7.0207538890e-01	 9.4402586576e-01	 2.0916134542e-01
 6.9289464749e-01	 9.5078479937e-01	 3.5793619897e-01
 6.8365584808e-01	 9.5744945241e-01	 4.8843351436e-01
 6.7436043167e-01	 9.6401910192e-01	 6.0001638160e-01
 6.6500985064e-01	 9.7049305402e-01	 6.9209970275e-01
 6.5560556802e-01	 9.7687064424e-01	 7.6414431132e-01
 6.4614905681e-01	 9.8315123760e-01	 8.1565129134e-01
 6.3664179916e-01	 9.8933422885e-01	 8.4615651975e-01
 6.2708528571e-01	 9.9541904256e-01	 8.5522545436e-01
 6.1748101481e-01	 1.0014051333e+00	 8.4244818691e-01
 6.0783049177e-01	 1.0072919856e+00	 8.0743477884e-01
 5.6223844740e-01	 9.3173720256e-01	 1.0716356127e+00
 5.5327040460e-01	 9.3709025147e-01	 1.0372268471e+00
 5.4426238140e-01	 9.4235063717e-01	 1.0181778045e+00
 5.3521578645e-01	 9.4751796805e-01	 1.0120877963e+00
 5.2613203208e-01	 9.5259188044e-01	 1.0165089883e+00
 5.1701253362e-01	 9.5757203867e-01	 1.0289484283e+00
 5.0785870872e-01	 9.6245813498e-01	 1.0468702933e+00
 4.9867197668e-01	 9.6724988951e-01	 1.0676983493e+00
 4.8945375776e-01	 9.7194705020e-01	 1.0888186201e+00
 4.8020547255e-01	 9.7654939274e-01	 1.1075822568e+00
 4.7092854131e-01	 9.8105672044e-01	 1.1213086003e+00
 5.6679761502e-01	 9.3929261984e-01	 9.9159168239e-01
 5.5775685075e-01	 9.4468907640e-01	 9.7688081798e-01
 5.4867578187e-01	 9.4999211835e-01	 9.8262896168e-01
 5.3955582847e-01	 9.5520135089e-01	 1.0046331568e+00
 5.3039841432e-01	 9.6031640743e-01	 1.0386490807e+00
 5.2120496623e-01	 9.6533694954e-01	 1.0803954974e+00
 5.1197691336e-01	 9.7026266700e-01	 1.1255589009e+00
 5.0271568649e-01	 9.7509327766e-01	 1.1697983424e+00
 4.9342271743e-01	 9.7982852743e-01	 1.2087504308e+00
 4.8409943827e-01	 9.8446819017e-01	 1.2380344967e+00
 4.7474728079e-01	 9.8901206759e-01	 1.2532579079e+00
 5.7135679427e-01	 9.4684805640e-01	 9.2088501781e-01
 5.6224330833e-01	 9.5228792071e-01	 9.2155654347e-01
 5.5308919359e-01	 9.5763361901e-01	 9.4622616656e-01
 5.4389588155e-01	 9.6288475333e-01	 9.8937105819e-01
 5.3466480743e-01	 9.6804095411e-01	 1.0454339575e+00
 5.2539740954e-01	 9.7310188022e-01	 1.1088293903e+00
 5.1609512849e-01	 9.7806721892e-01	 1.1739500583e+00
 5.0675940662e-01	 9.8293668581e-01	 1.2351733888e+00
 4.9739168722e-01	 9.8771002475e-01	 1.2868682313e+00
 4.8799341392e-01	 9.9238700779e-01	 1.3234016907e+00
 4.7856603001e-01	 9.9696743504e-01	 1.3391460792e+00
 5.7591598385e-01	 9.5440351008e-01	 8.6053889354e-01
 5.6672977608e-01	 9.5988678225e-01	 8.7217657102e-01
 5.5750261532e-01	 9.6527513700e-01	 9.0987996425e-01
 5.4823594446e-01	 9.7056817318e-01	 9.6727729838e-01
 5.3893121022e-01	 9.7576551830e-01	 1.0379704456e+00
 5.2958986234e-01	 9.8086682850e-01	 1.1155422607e+00
 5.2021335296e-01	 9.8587178854e-01	 1.1935640737e+00
 5.1080313591e-01	 9.9078011175e-01	 1.2656033263e+00
 5.0136066601e-01	 9.9559153995e-01	 1.3252313392e+00
 4.9188739840e-01	 1.0003058434e+00	 1.3660311948e+00
 4.8238478788e-01	 1.0049228205e+00	 1.3816057199e+00
 5.8047518247e-01	 9.6195897875e-01	 8.1154376034e-01
 5.7121625274e-01	 9.6748565886e-01	 8.2963361534e-01
 5.6191604579e-01	 9.7291667014e-01	 8.7447131285e-01
 5.5257601599e-01	 9.7825160827e-01	 9.3929594911e-01
 5.4319762147e-01	 9.8349009781e-01	 1.0173294826e+00
 5.3378232346e-01	 9.8863179217e-01	 1.1017845461e+00
 5.2433158560e-01	 9.9367637363e-01	 1.1858724084e+00
 5.1484687322e-01	 9.9862355324e-01	 1.2628110713e+00
 5.0532965267e-01	 1.0034730708e+00	 1.3258334883e+00
 4.9578139060e-01	 1.0082246946e+00	 1.3681958891e+00
 4.8620355333e-01	 1.0128782218e+00	 1.3831861934e+00
 5.8503438884e-01	 9.6951446026e-01	 7.7485793139e-01
 5.7570273701e-01	 9.7508454838e-01	 7.9479112998e-01
 5.6632948378e-01	 9.8055821627e-01	 8.4085214884e-01
 5.5691609490e-01	 9.8593505643e-01	 9.0634000995e-01
 5.4746403997e-01	 9.9121469045e-01	 9.8454693984e-01
 5.3797479171e-01	 9.9639676905e-01	 1.0687660263e+00
 5.2844982524e-01	 1.0014809720e+00	 1.1522990231e+00
 5.1889061741e-01	 1.0064670081e+00	 1.2284642895e+00
 5.0929864608e-01	 1.0113546150e+00	 1.2906048502e+00
 4.9967538942e-01	 1.0161435594e+00	 1.3320965607e+00
 4.9002232527e-01	 1.0208336366e+00	 1.3463563601e+00
 5.8959360168e-01	 9.7706995248e-01	 7.5140821268e-01
 5.8018922765e-01	 9.8268344868e-01	 7.6848382850e-01
 5.7074292801e-01	 9.8819977323e-01	 8.0984590278e-01
 5.6125617995e-01	 9.9361851547e-01	 8.6929200846e-01
 5.5173046451e-01	 9.9893929404e-01	 9.4062438367e-01
 5.4216726590e-01	 1.0041617569e+00	 1.0176568090e+00
 5.3256807072e-01	 1.0092855814e+00	 1.0942216379e+00
 5.2293436733e-01	 1.0143104740e+00	 1.1641769681e+00
 5.1326764511e-01	 1.0192361704e+00	 1.2214139411e+00
 5.0356939376e-01	 1.0240624354e+00	 1.2598641542e+00
 4.9384110262e-01	 1.0287890626e+00	 1.2735071702e+00
 5.9415281968e-01	 9.8462545326e-01	 7.4209048064e-01
 5.8467572337e-01	 9.9028235758e-01	 7.5151815821e-01
 5.7515637725e-01	 9.9584133886e-01	 7.8224796783e-01
 5.6559626992e-01	 1.0013019832e+00	 8.2900454963e-01
 5.5599689390e-01	 1.0066639064e+00	 8.8652977895e-01
 5.4635974484e-01	 1.0119267536e+00	 9.4958824816e-01
 5.3668632086e-01	 1.0170901997e+00	 1.0129729131e+00
 5.2697812183e-01	 1.0221539488e+00	 1.0715108937e+00
 5.1723664864e-01	 1.0271177347e+00	 1.1200694183e+00
 5.0746340251e-01	 1.0319813203e+00	 1.1535618975e+00
 4.9765988430e-01	 1.0367444977e+00	 1.1669541146e+00
 5.9871204156e-01	 9.9218096046e-01	 7.4777020988e-01
 5.8916222290e-01	 9.9788127295e-01	 7.4467272883e-01
 5.7956983023e-01	 1.0034829110e+00	 7.5882612369e-01
 5.6993636358e-01	 1.0089854575e+00	 7.8630081719e-01
 5.6026332690e-01	 1.0143885253e+00	 8.2319813780e-01
 5.5055222734e-01	 1.0196917569e+00	 8.6565379776e-01
 5.4080457451e-01	 1.0248948246e+00	 9.0984155327e-01
 5.3102187977e-01	 1.0299974303e+00	 9.5197703981e-01
 5.2120565554e-01	 1.0349993057e+00	 9.8832177366e-01
 5.1135741457e-01	 1.0399002120e+00	 1.0151873098e+00
 5.0147866923e-01	 1.0446999395e+00	 1.0289395445e+00
 6.0327126602e-01	 9.9973647194e-01	 7.6928295352e-01
 5.9364872498e-01	 1.0054801926e+00	 7.4869869850e-01
 5.8398328573e-01	 1.0111244874e+00	 7.4032091835e-01
 5.7427645971e-01	 1.0166689361e+00	 7.4197502952e-01
 5.6452976233e-01	 1.0221131486e+00	 7.5153211634e-01
 5.5474471222e-01	 1.0274567646e+00	 7.6690980441e-01
 5.4492283048e-01	 1.0326994539e+00	 7.8607333981e-01
 5.3506564000e-01	 1.0378409163e+00	 8.0703687118e-01
 5.2517466470e-01	 1.0428808812e+00	 8.2786492926e-01
 5.1525142884e-01	 1.0478191081e+00	 8.4667409743e-01
 5.0529745632e-01	 1.0526553859e+00	 8.6163486496e-01
 6.0783049177e-01	 1.0072919856e+00	 8.0743477884e-01
 5.9813522833e-01	 1.0130791144e+00	 7.6432011940e-01
 5.8839674247e-01	 1.0187660660e+00	 7.2744600976e-01
 5.7861655706e-01	 1.0243524169e+00	 6.9679285229e-01
 5.6879619897e-01	 1.0298377741e+00	 6.7240256223e-01
 5.5893719829e-01	 1.0352217745e+00	 6.5437624253e-01
 5.4904108763e-01	 1.0405040854e+00	 6.4287209472e-01
 5.3910940138e-01	 1.0456844044e+00	 6.3810356712e-01
 5.2914367498e-01	 1.0507624590e+00	 6.4033773969e-01
 5.1914544421e-01	 1.0557380065e+00	 6.4989394330e-01
 5.0911624449e-01	 1.0606108344e+00	 6.6714260912e-01
 4.7092854131e-01	 9.8105672044e-01	 1.1213086003e+00
 4.6162279917e-01	 9.8546960600e-01	 1.1327219392e+00
 4.5229123883e-01	 9.8978713259e-01	 1.1473466211e+00
 4.4293527589e-01	 9.9400918483e-01	 1.1667223968e+00
 4.3355632305e-01	 9.9813567443e-01	 1.1924357547e+00
 4.2415578950e-01	 1.0021665399e+00	 1.2261168053e+00
 4.1473508031e-01	 1.0061017465e+00	 1.2694363049e+00
 4.0529559579e-01	 1.0099412857e+00	 1.3241028141e+00
 3.9583873097e-01	 1.0136851754e+00	 1.3918599878e+00
 3.8636587493e-01	 1.0173334593e+00	 1.4744839923e+00
 3.7687841031e-01	 1.0208862068e+00	 1.5737810436e+00
 4.7474728079e-01	 9.8901206759e-01	 1.2532579079e+00
 4.6536607878e-01	 9.9346073706e-01	 1.2572124913e+00
 4.5595884921e-01	 9.9781327428e-01	 1.2576817401e+00
 4.4652701917e-01	 1.0020695630e+00	 1.2577918383e+00
 4.3707201281e-01	 1.0062295141e+00	 1.2607095018e+00
 4.2759525073e-01	 1.0102930657e+00	 1.2696368033e+00
 4.1809814941e-01	 1.0142601827e+00	 1.2878061824e+00
 4.0858212051e-01	 1.0181308566e+00	 1.3184756427e+00
 3.9904857037e-01	 1.0219051053e+00	 1.3649241314e+00
 3.8949889935e-01	 1.0255829730e+00	 1.4304471002e+00
 3.7993450129e-01	 1.0291645295e+00	 1.5183522433e+00
 4.7856603001e-01	 9.9696743504e-01	 1.3391460792e+00
 4.6910936794e-01	 1.0014518885e+00	 1.3371929199e+00
 4.5962646895e-01	 1.0058394364e+00	 1.3272328584e+00
 4.5011877161e-01	 1.0101299617e+00	 1.3135731230e+00
 4.4058771152e-01	 1.0143233744e+00	 1.3005505799e+00
 4.3103472073e-01	 1.0184196122e+00	 1.2925250941e+00
 4.2146122708e-01	 1.0224186397e+00	 1.2938731228e+00
 4.1186865362e-01	 1.0263204483e+00	 1.3089815406e+00
 4.0225841797e-01	 1.0301250562e+00	 1.3422416966e+00
 3.9263193177e-01	 1.0338325077e+00	 1.3980437006e+00
 3.8299060006e-01	 1.0374428734e+00	 1.4807709371e+00
 4.8238478788e-01	 1.0049228205e+00	 1.3816057199e+00
 4.7285266558e-01	 1.0094430580e+00	 1.3754880064e+00
 4.6329409701e-01	 1.0138656168e+00	 1.3588474863e+00
 4.5371053220e-01	 1.0181903786e+00	 1.3367767895e+00
 4.4410341821e-01	 1.0224172531e+00	 1.3143826515e+00
 4.3447419853e-01	 1.0265461771e+00	 1.2967784005e+00
 4.2482431238e-01	 1.0305771152e+00	 1.2890767195e+00
 4.1515519417e-01	 1.0345100586e+00	 1.2963826850e+00
 4.0546827284e-01	 1.0383450257e+00	 1.3237870794e+00
 3.9576497128e-01	 1.0420820611e+00	 1.3763599787e+00
 3.8604670575e-01	 1.0457212360e+00	 1.4591446089e+00
 4.8620355333e-01	 1.0128782218e+00	 1.3831861934e+00
 4.7659597065e-01	 1.0174342434e+00	 1.3748334827e+00
 4.6696173234e-01	 1.0218918131e+00	 1.3552836346e+00
 4.5730229990e-01	 1.0262508116e+00	 1.3300284742e+00
 4.4761913188e-01	 1.0305111478e+00	 1.3045538113e+00
 4.3791368315e-01	 1.0346727582e+00	 1.2843316346e+00
 4.2818740435e-01	 1.0387356069e+00	 1.2748126233e+00
 4.1844174124e-01	 1.0426996852e+00	 1.2814189732e+00
 4.0867813407e-01	 1.0465650115e+00	 1.3095375394e+00
 3.9889801701e-01	 1.0503316309e+00	 1.3645132895e+00
 3.8910281751e-01	 1.0539996151e+00	 1.4516430661e+00
 4.9002232527e-01	 1.0208336366e+00	 1.3463563601e+00
 4.8033928208e-01	 1.0254254424e+00	 1.3378790149e+00
 4.7062937390e-01	 1.0299180230e+00	 1.3192128342e+00
 4.6089407372e-01	 1.0343112582e+00	 1.2958717715e+00
 4.5113485152e-01	 1.0386050562e+00	 1.2733391026e+00
 4.4135317361e-01	 1.0427993530e+00	 1.2570599012e+00
 4.3155050204e-01	 1.0468941124e+00	 1.2524338714e+00
 4.2172829390e-01	 1.0508893257e+00	 1.2648085323e+00
 4.1188800077e-01	 1.0547850113e+00	 1.2994727528e+00
 4.0203106806e-01	 1.0585812147e+00	 1.3616506332e+00
 3.9215893447e-01	 1.0622780082e+00	 1.4564957265e+00
 4.9384110262e-01	 1.0287890626e+00	 1.2735071702e+00
 4.8408259882e-01	 1.0334166527e+00	 1.2671910277e+00
 4.7429702066e-01	 1.0379442443e+00	 1.2532229952e+00
 4.6448585262e-01	 1.0423717163e+00	 1.2367709416e+00
 4.5465057614e-01	 1.0466989762e+00	 1.2229428991e+00
 4.4479266895e-01	 1.0509259594e+00	 1.2167803887e+00
 4.3491360449e-01	 1.0550526295e+00	 1.2232521379e+00
 4.2501485122e-01	 1.0590789777e+00	 1.2472481858e+00
 4.1509787201e-01	 1.0630050227e+00	 1.2935743691e+00
 4.0516412356e-01	 1.0668308102e+00	 1.3669471839e+00
 3.9521505575e-01	 1.0705564131e+00	 1.4719890139e+00
 4.9765988430e-01	 1.0367444977e+00	 1.1669541146e+00
 4.8782591980e-01	 1.0414078721e+00	 1.1652553782e+00
 4.7796467158e-01	 1.0459704747e+00	 1.1598211147e+00
 4.6807763560e-01	 1.0504321835e+00	 1.1551134738e+00
 4.5816630474e-01	 1.0547929053e+00	 1.1555011572e+00
 4.4823216819e-01	 1.0590525750e+00	 1.1652541549e+00
 4.3827671075e-01	 1.0632111559e+00	 1.1885389068e+00
 4.2830141226e-01	 1.0672686391e+00	 1.2294138827e+00
 4.1830774689e-01	 1.0712250434e+00	 1.2918255716e+00
 4.0829718260e-01	 1.0750804151e+00	 1.3796048698e+00
 3.9827118050e-01	 1.0788348274e+00	 1.4964638577e+00
 5.0147866923e-01	 1.0446999395e+00	 1.0289395445e+00
 4.9156924396e-01	 1.0493990983e+00	 1.0344798879e+00
 4.8163232562e-01	 1.0539967119e+00	 1.0414358413e+00
 4.7166942163e-01	 1.0584926576e+00	 1.0532125138e+00
 4.6168203634e-01	 1.0628868413e+00	 1.0730835467e+00
 4.5167167035e-01	 1.0671791975e+00	 1.1041878128e+00
 4.4163981988e-01	 1.0713696892e+00	 1.1495265748e+00
 4.3158797609e-01	 1.0754583074e+00	 1.2119610886e+00
 4.2151762450e-01	 1.0794450712e+00	 1.2942106404e+00
 4.1143024431e-01	 1.0833300269e+00	 1.3988510022e+00
 4.0132730785e-01	 1.0871132486e+00	 1.5283132912e+00
 5.0529745632e-01	 1.0526553859e+00	 8.6163486496e-01
 4.9531257024e-01	 1.0573903290e+00	 8.7719673925e-01
 4.8529998173e-01	 1.0620229537e+00	 9.0041990259e-01
 4.7526120969e-01	 1.0665531362e+00	 9.3330916163e-01
 4.6519776993e-01	 1.0709807819e+00	 9.7769546644e-01
 4.5511117446e-01	 1.0753058246e+00	 1.0352351218e+00
 4.4500293091e-01	 1.0795282271e+00	 1.1074094862e+00
 4.3487454179e-01	 1.0836479804e+00	 1.1955251420e+00
 4.2472750393e-01	 1.0876651036e+00	 1.3007145186e+00
 4.1456330780e-01	 1.0915796435e+00	 1.4239369494e+00
 4.0438343693e-01	 1.0953916746e+00	 1.5659801421e+00
 5.0911624449e-01	 1.0606108344e+00	 6.6714260912e-01
 4.9905589759e-01	 1.0653815619e+00	 6.9566474505e-01
 4.8896763889e-01	 1.0700491977e+00	 7.3905240569e-01
 4.7885299878e-01	 1.0746136171e+00	 7.9757464677e-01
 4.6871350451e-01	 1.0790747247e+00	 8.7127995033e-01
 4.5855067955e-01	 1.0834324540e+00	 9.5999848844e-01
 4.4836604289e-01	 1.0876867674e+00	 1.0633449028e+00
 4.3816110842e-01	 1.0918376557e+00	 1.1807215776e+00
 4.2793738427e-01	 1.0958851383e+00	 1.3113223816e+00
 4.1769637217e-01	 1.0998292624e+00	 1.4541368548e+00
 4.0743956688e-01	 1.1036701029e+00	 1.6079548122e+00
 3.7687841031e-01	 1.0208862068e+00	 1.5737810436e+00
 3.6737932860e-01	 1.0243429329e+00	 1.6712380719e+00
 3.5786838524e-01	 1.0277043688e+00	 1.7500289568e+00
 3.4834693899e-01	 1.0309706585e+00	 1.8094868023e+00
 3.3881633997e-01	 1.0341419700e+00	 1.8474437888e+00
 3.2927792916e-01	 1.0372184959e+00	 1.8617138276e+00
 3.1973303789e-01	 1.0402004521e+00	 1.8500960866e+00
 3.1018298736e-01	 1.0430880782e+00	 1.8103783167e+00
 3.0062908817e-01	 1.0458816367e+00	 1.7403399821e+00
 2.9107263984e-01	 1.0485814126e+00	 1.6377551974e+00
 2.8151493038e-01	 1.0511877135e+00	 1.5003954761e+00
 3.7993450129e-01	 1.0291645295e+00	 1.5183522433e+00
 3.7035839192e-01	 1.0326492861e+00	 1.6094518371e+00
 3.6077032473e-01	 1.0360379798e+00	 1.6839297075e+00
 3.5117166948e-01	 1.0393307556e+00	 1.7422605047e+00
 3.4156378724e-01	 1.0425277832e+00	 1.7817405453e+00
 3.3194802986e-01	 1.0456292565e+00	 1.7996307281e+00
 3.2232573948e-01	 1.0486353933e+00	 1.7931610955e+00
 3.1269824800e-01	 1.0515464350e+00	 1.7595351919e+00
 3.0306687665e-01	 1.0543626463e+00	 1.6959342194e+00
 2.9343293548e-01	 1.0570843146e+00	 1.5995209924e+00
 2.8379772296e-01	 1.0597117498e+00	 1.4674436941e+00
 3.8299060006e-01	 1.0374428734e+00	 1.4807709371e+00
 3.7333746285e-01	 1.0409556605e+00	 1.5704122940e+00
 3.6367227163e-01	 1.0443716120e+00	 1.6437624287e+00
 3.5399640717e-01	 1.0476908741e+00	 1.7022752453e+00
 3.4431124151e-01	 1.0509136178e+00	 1.7431461644e+00
 3.3461813737e-01	 1.0540400385e+00	 1.7632399274e+00
 3.2491844768e-01	 1.0570703559e+00	 1.7593818011e+00
 3.1521351505e-01	 1.0600048134e+00	 1.7283626341e+00
 3.0550467133e-01	 1.0628436776e+00	 1.6669437006e+00
 2.9579323714e-01	 1.0655872383e+00	 1.5718613325e+00
 2.8608052136e-01	 1.0682358080e+00	 1.4398313418e+00
 3.8604670575e-01	 1.0457212360e+00	 1.4591446089e+00
 3.7631654053e-01	 1.0492620537e+00	 1.5510008152e+00
 3.6657422510e-01	 1.0527052631e+00	 1.6259999464e+00
 3.5682115127e-01	 1.0560510115e+00	 1.6855333948e+00
 3.4705870202e-01	 1.0592994714e+00	 1.7274016031e+00
 3.3728825094e-01	 1.0624508397e+00	 1.7482258129e+00
 3.2751116175e-01	 1.0655053377e+00	 1.7445865624e+00
 3.1772878780e-01	 1.0684632109e+00	 1.7130291132e+00
 3.0794247155e-01	 1.0713247281e+00	 1.6500686491e+00
 2.9815354415e-01	 1.0740901813e+00	 1.5521952501e+00
 2.8836332494e-01	 1.0767598854e+00	 1.4158786423e+00
 3.8910281751e-01	 1.0539996151e+00	 1.4516430661e+00
 3.7929562411e-01	 1.0575684634e+00	 1.5485059447e+00
 3.6947618433e-01	 1.0610389307e+00	 1.6272248659e+00
 3.5964590097e-01	 1.0644111655e+00	 1.6881625777e+00
 3.4980616797e-01	 1.0676853416e+00	 1.7303819237e+00
 3.3995836980e-01	 1.0708616575e+00	 1.7504092362e+00
 3.3010388097e-01	 1.0739403363e+00	 1.7447362059e+00
 3.2024406554e-01	 1.0769216252e+00	 1.7098253528e+00
 3.1038027660e-01	 1.0798057954e+00	 1.6421152532e+00
 3.0051385584e-01	 1.0825931411e+00	 1.5380255237e+00
 2.9064613305e-01	 1.0852839798e+00	 1.3939615646e+00
 3.9215893447e-01	 1.0622780082e+00	 1.4564957265e+00
 3.8227471277e-01	 1.0658748872e+00	 1.5603037960e+00
 3.7237814849e-01	 1.0693726125e+00	 1.6440072279e+00
 3.6247065548e-01	 1.0727713337e+00	 1.7064106900e+00
 3.5255363860e-01	 1.0760712260e+00	 1.7480909851e+00
 3.4262849320e-01	 1.0792724896e+00	 1.7657421315e+00
 3.3269660460e-01	 1.0823753491e+00	 1.7559188161e+00
 3.2275934755e-01	 1.0853800539e+00	 1.7151595338e+00
 3.1281808580e-01	 1.0882868771e+00	 1.6399915183e+00
 3.0287417155e-01	 1.0910961154e+00	 1.5269354085e+00
 2.9292894504e-01	 1.0938080886e+00	 1.3725096560e+00
 3.9521505575e-01	 1.0705564131e+00	 1.4719890139e+00
 3.8525380564e-01	 1.0741813228e+00	 1.5838543332e+00
 3.7528011676e-01	 1.0777063061e+00	 1.6727924071e+00
 3.6529541398e-01	 1.0811315138e+00	 1.7366411441e+00
 3.5530111312e-01	 1.0844571224e+00	 1.7766563786e+00
 3.4529862039e-01	 1.0876833336e+00	 1.7903023802e+00
 3.3528933190e-01	 1.0908103739e+00	 1.7743447651e+00
 3.2527463313e-01	 1.0938384946e+00	 1.7255527187e+00
 3.1525589845e-01	 1.0967679709e+00	 1.6407033097e+00
 3.0523449060e-01	 1.0995991017e+00	 1.5165855167e+00
 2.9521176026e-01	 1.1023322096e+00	 1.3500039745e+00
 3.9827118050e-01	 1.0788348274e+00	 1.4964638577e+00
 3.8823290189e-01	 1.0824877678e+00	 1.6166978668e+00
 3.7818208832e-01	 1.0860400091e+00	 1.7104856302e+00
 3.6812017569e-01	 1.0894917034e+00	 1.7753283305e+00
 3.5804859075e-01	 1.0928430283e+00	 1.8123245933e+00
 3.4796875060e-01	 1.0960941871e+00	 1.8202889102e+00
 3.3788206214e-01	 1.0992454083e+00	 1.7963419690e+00
 3.2778992156e-01	 1.1022969449e+00	 1.7376344836e+00
 3.1769371386e-01	 1.1052490742e+00	 1.6413505753e+00
 3.0759481232e-01	 1.1081020977e+00	 1.5047108409e+00
 2.9749457807e-01	 1.1108563401e+00	 1.3249751147e+00
 4.0132730785e-01	 1.0871132486e+00	 1.5283132912e+00
 3.9121200067e-01	 1.0907942199e+00	 1.6564516943e+00
 3.8108406235e-01	 1.0943737193e+00	 1.7541146555e+00
 3.7094493980e-01	 1.0978519000e+00	 1.8190452696e+00
 3.6079607072e-01	 1.1012289412e+00	 1.8514563999e+00
 3.5063888308e-01	 1.1045050478e+00	 1.8520170159e+00
 3.4047479458e-01	 1.1076804498e+00	 1.8183513583e+00
 3.3030521213e-01	 1.1107554023e+00	 1.7481387488e+00
 3.2013153135e-01	 1.1137301848e+00	 1.6390692493e+00
 3.0995513605e-01	 1.1166051009e+00	 1.4888910953e+00
 2.9977739782e-01	 1.1193804780e+00	 1.2955201672e+00
 4.0438343693e-01	 1.0953916746e+00	 1.5659801421e+00
 3.9419110114e-01	 1.0991006766e+00	 1.7008068771e+00
 3.8398603803e-01	 1.1027074341e+00	 1.8007993438e+00
 3.7376970551e-01	 1.1062121014e+00	 1.8642026334e+00
 3.6354355225e-01	 1.1096148590e+00	 1.8905224414e+00
 3.5330901707e-01	 1.1129159133e+00	 1.8818840560e+00
 3.4306752849e-01	 1.1161154962e+00	 1.8366984702e+00
 3.3282050413e-01	 1.1192138646e+00	 1.7533299228e+00
 3.2256935021e-01	 1.1222113002e+00	 1.6302728573e+00
 3.1231546112e-01	 1.1251081089e+00	 1.4661290466e+00
 3.0206021886e-01	 1.1279046207e+00	 1.2596050816e+00
 4.0743956688e-01	 1.1036701029e+00	 1.6079548122e+00
 3.9717020246e-01	 1.1074071358e+00	 1.7475251481e+00
 3.8688801453e-01	 1.1110411513e+00	 1.8477479052e+00
 3.7659447202e-01	 1.1145723051e+00	 1.9073669721e+00
 3.6629103455e-01	 1.1180007791e+00	 1.9256443012e+00
 3.5597915182e-01	 1.1213267811e+00	 1.9055221922e+00
 3.4566026314e-01	 1.1245505449e+00	 1.8470224215e+00
 3.3533579683e-01	 1.1276723292e+00	 1.7493555348e+00
 3.2500716977e-01	 1.1306924180e+00	 1.6118842062e+00
 3.1467578686e-01	 1.1336111194e+00	 1.4341188476e+00
 3.0434304055e-01	 1.1364287657e+00	 1.2157131540e+00
 2.8151493038e-01	 1.0511877135e+00	 1.5003954761e+00
 2.7195723598e-01	 1.0537008686e+00	 1.3513667467e+00
 2.6240082098e-01	 1.0561212300e+00	 1.2157809570e+00
 2.5284693703e-01	 1.0584491706e+00	 1.0944430457e+00
 2.4329682261e-01	 1.0606850842e+00	 9.8818967973e-01
 2.3375170258e-01	 1.0628293844e+00	 8.9788748236e-01
 2.2421278792e-01	 1.0648825050e+00	 8.2443113657e-01
 2.1468127528e-01	 1.0668448987e+00	 7.6874137559e-01
 2.0515834672e-01	 1.0687170373e+00	 7.3176287427e-01
 1.9564516936e-01	 1.0704994107e+00	 7.1446205370e-01
 1.8614289510e-01	 1.0721925270e+00	 7.1782481199e-01
 2.8379772296e-01	 1.0597117498e+00	 1.4674436941e+00
 2.7416252562e-01	 1.0622452841e+00	 1.3234673764e+00
 2.6452861806e-01	 1.0646852721e+00	 1.1935950264e+00
 2.5489726208e-01	 1.0670320899e+00	 1.0783736586e+00
 2.4526970618e-01	 1.0692861343e+00	 9.7841630545e-01
 2.3564718519e-01	 1.0714478226e+00	 8.9439981762e-01
 2.2603091987e-01	 1.0735175919e+00	 8.2706249755e-01
 2.1642211660e-01	 1.0754958986e+00	 7.7720158224e-01
 2.0682196701e-01	 1.0773832182e+00	 7.4567058938e-01
 1.9723164771e-01	 1.0791800448e+00	 7.3337654204e-01
 1.8765231991e-01	 1.0808868905e+00	 7.4127708670e-01
 2.8608052136e-01	 1.0682358080e+00	 1.4398313418e+00
 2.7636782089e-01	 1.0707897214e+00	 1.2959482337e+00
 2.6665642057e-01	 1.0732493360e+00	 1.1676729988e+00
 2.5694759235e-01	 1.0756150310e+00	 1.0553293725e+00
 2.4724259478e-01	 1.0778872064e+00	 9.5933392998e-01
 2.3754267262e-01	 1.0800662828e+00	 8.8019356557e-01
 2.2784905645e-01	 1.0821527008e+00	 8.1850277200e-01
 2.1816296236e-01	 1.0841469205e+00	 7.7494073641e-01
 2.0848559156e-01	 1.0860494213e+00	 7.5026826926e-01
 1.9881813010e-01	 1.0878607011e+00	 7.4532458284e-01
 1.8916174857e-01	 1.0895812762e+00	 7.6102393613e-01
 2.8836332494e-01	 1.0767598854e+00	 1.4158786423e+00
 2.7857312116e-01	 1.0793341780e+00	 1.2680305888e+00
 2.6878422790e-01	 1.0818134193e+00	 1.1379575177e+00
 2.5899792727e-01	 1.0841979916e+00	 1.0257943838e+00
 2.4921548786e-01	 1.0864882980e+00	 9.3178845757e-01
 2.3943816435e-01	 1.0886847625e+00	 8.5629658947e-01
 2.2966719716e-01	 1.0907878292e+00	 7.9978224812e-01
 2.1990381206e-01	 1.0927979620e+00	 7.6281234867e-01
 2.1014921987e-01	 1.0947156439e+00	 7.4605389011e-01
 2.0040461609e-01	 1.0965413770e+00	 7.5027041938e-01
 1.9067118065e-01	 1.0982756816e+00	 7.7631834031e-01
 2.9064613305e-01	 1.0852839798e+00	 1.3939615646e+00
 2.8077842580e-01	 1.0878786515e+00	 1.2389634108e+00
 2.7091203946e-01	 1.0903775196e+00	 1.1043964749e+00
 2.6104826626e-01	 1.0927809692e+00	 9.9024128849e-01
 2.5118838485e-01	 1.0950894067e+00	 8.9660294741e-01
 2.4133365985e-01	 1.0973032594e+00	 8.2370826613e-01
 2.3148534148e-01	 1.0994229748e+00	 7.7190268467e-01
 2.2164466522e-01	 1.1014490207e+00	 7.4164694709e-01
 2.1181285148e-01	 1.1033818838e+00	 7.3351357087e-01
 2.0199110523e-01	 1.1052220702e+00	 7.4818312594e-01
 1.9218061573e-01	 1.1069701042e+00	 7.8644034286e-01
 2.9292894504e-01	 1.0938080886e+00	 1.3725096560e+00
 2.8298373420e-01	 1.0964231396e+00	 1.2080223040e+00
 2.7303985463e-01	 1.0989416345e+00	 1.0669428304e+00
 2.6309860874e-01	 1.1013639614e+00	 9.4913156591e-01
 2.5316128520e-01	 1.1036905300e+00	 8.5457854270e-01
 2.4322915856e-01	 1.1059217708e+00	 7.8340064063e-01
 2.3330348888e-01	 1.1080581351e+00	 7.3583847213e-01
 2.2338552134e-01	 1.1101000940e+00	 7.1225302633e-01
 2.1347648592e-01	 1.1120481384e+00	 7.1312127219e-01
 2.0357759706e-01	 1.1139027781e+00	 7.3903435362e-01
 1.9369005337e-01	 1.1156645417e+00	 7.9070369242e-01
 2.9521176026e-01	 1.1023322096e+00	 1.3500039745e+00
 2.8518904571e-01	 1.1049676398e+00	 1.1745084919e+00
 2.7516767281e-01	 1.1075057615e+00	 1.0255544393e+00
 2.6514895412e-01	 1.1099469657e+00	 9.0291603986e-01
 2.5513418834e-01	 1.1122916654e+00	 8.0648987829e-01
 2.4512465996e-01	 1.1145402945e+00	 7.3628124152e-01
 2.3512163886e-01	 1.1166933076e+00	 6.9245715430e-01
 2.2512637992e-01	 1.1187511797e+00	 6.7530645095e-01
 2.1514012271e-01	 1.1207144053e+00	 6.8522969330e-01
 2.0516409114e-01	 1.1225834983e+00	 7.2273511709e-01
 1.9519949315e-01	 1.1243589914e+00	 7.8843454714e-01
 2.9749457807e-01	 1.1108563401e+00	 1.3249751147e+00
 2.8739435973e-01	 1.1135121497e+00	 1.1377125969e+00
 2.7729549341e-01	 1.1160698982e+00	 9.8005788474e-01
 2.6719930182e-01	 1.1185299798e+00	 8.5176454054e-01
 2.5710709371e-01	 1.1208928106e+00	 7.5270384827e-01
 2.4702016351e-01	 1.1231588279e+00	 6.8286078017e-01
 2.3693979090e-01	 1.1253284899e+00	 6.4233032576e-01
 2.2686724048e-01	 1.1274022751e+00	 6.3131377965e-01
 2.1680376139e-01	 1.1293806820e+00	 6.5011499445e-01
 2.0675058702e-01	 1.1312642283e+00	 6.9913660499e-01
 1.9670893464e-01	 1.1330534510e+00	 7.7887622954e-01
 2.9977739782e-01	 1.1193804780e+00	 1.2955201672e+00
 2.8959967562e-01	 1.1220566669e+00	 1.0963104745e+00
 2.7942331581e-01	 1.1246340422e+00	 9.2974396113e-01
 2.6924965126e-01	 1.1271130012e+00	 7.9555979619e-01
 2.5908000077e-01	 1.1294939632e+00	 6.9359737059e-01
 2.4891566867e-01	 1.1317773687e+00	 6.2379301406e-01
 2.3875794449e-01	 1.1339636796e+00	 5.8617668220e-01
 2.2860810251e-01	 1.1360533779e+00	 5.8086861933e-01
 2.1846740149e-01	 1.1380469660e+00	 6.0807600254e-01
 2.0833708425e-01	 1.1399449658e+00	 6.6808957205e-01
 1.9821837741e-01	 1.1417479180e+00	 7.6128025236e-01
 3.0206021886e-01	 1.1279046207e+00	 1.2596050816e+00
 2.9180499276e-01	 1.1306011888e+00	 1.0492786812e+00
 2.8155113943e-01	 1.1331981910e+00	 8.7433761763e-01
 2.7130000187e-01	 1.1356960275e+00	 7.3453958976e-01
 2.6105290894e-01	 1.1380951206e+00	 6.2971862002e-01
 2.5081117490e-01	 1.1403959144e+00	 5.5978221239e-01
 2.4057609910e-01	 1.1425988741e+00	 5.2470850532e-01
 2.3034896554e-01	 1.1447044856e+00	 5.2454342403e-01
 2.2013104253e-01	 1.1467132550e+00	 5.5939783647e-01
 2.0992358237e-01	 1.1486257081e+00	 6.2944471643e-01
 1.9972782104e-01	 1.1504423900e+00	 7.3491631699e-01
 3.0434304055e-01	 1.1364287657e+00	 1.2157131540e+00
 2.9401031052e-01	 1.1391457133e+00	 9.9582730806e-01
 2.8367896364e-01	 1.1417623423e+00	 8.1363168898e-01
 2.7335035306e-01	 1.1442790561e+00	 6.6893572640e-01
 2.6302581766e-01	 1.1466962804e+00	 5.6159456056e-01
 2.5270668167e-01	 1.1490144625e+00	 4.9150674046e-01
 2.4239425423e-01	 1.1512340711e+00	 4.5861194903e-01
 2.3208982905e-01	 1.1533555958e+00	 4.6288875803e-01
 2.2179468403e-01	 1.1553795464e+00	 5.0435241507e-01
 2.1151008095e-01	 1.1573064529e+00	 5.8305266456e-01
 2.0123726509e-01	 1.1591368644e+00	 6.9907160412e-01
 1.8614289510e-01	 1.0721925270e+00	 7.1782481199e-01
 1.7665104837e-01	 1.0737971766e+00	 7.3463870153e-01
 1.6717236883e-01	 1.0753136062e+00	 7.5709731759e-01
 1.5770796401e-01	 1.0767423742e+00	 7.8526997260e-01
 1.4825892506e-01	 1.0780840550e+00	 8.1916480306e-01
 1.3882632656e-01	 1.0793392389e+00	 8.5872901751e-01
 1.2941122629e-01	 1.0805085309e+00	 9.0384917291e-01
 1.2001466501e-01	 1.0815925508e+00	 9.5435148573e-01
 1.1063766632e-01	 1.0825919328e+00	 1.0100021834e+00
 1.0128123642e-01	 1.0835073244e+00	 1.0705079015e+00
 9.1946364036e-02	 1.0843393864e+00	 1.1355161323e+00
 1.8765231991e-01	 1.0808868905e+00	 7.4127708670e-01
 1.7808350420e-01	 1.0825045521e+00	 7.6069916813e-01
 1.6852796246e-01	 1.0840332784e+00	 7.8267501460e-01
 1.5898681117e-01	 1.0854736322e+00	 8.0769767392e-01
 1.4946115037e-01	 1.0868261927e+00	 8.3616967015e-01
 1.3995206333e-01	 1.0880915548e+00	 8.6840333575e-01
 1.3046061641e-01	 1.0892703285e+00	 9.0462120567e-01
 1.2098785882e-01	 1.0903631388e+00	 9.4495647874e-01
 1.1153482244e-01	 1.0913706247e+00	 9.8945355164e-01
 1.0210252166e-01	 1.0922934391e+00	 1.0380686301e+00
 9.2691953187e-02	 1.0931322483e+00	 1.0906704215e+00
 1.8916174857e-01	 1.0895812762e+00	 7.6102393613e-01
 1.7951596368e-01	 1.0912119499e+00	 7.8659485276e-01
 1.6988355953e-01	 1.0927529729e+00	 8.1121582486e-01
 1.6026566160e-01	 1.0942049125e+00	 8.3571013401e-01
 1.5066337875e-01	 1.0955683527e+00	 8.6078983411e-01
 1.4107780297e-01	 1.0968438930e+00	 8.8705608234e-01
 1.3151000921e-01	 1.0980321485e+00	 9.1499955670e-01
 1.2196105511e-01	 1.0991337491e+00	 9.4500096518e-01
 1.1243198086e-01	 1.1001493389e+00	 9.7733165165e-01
 1.0292380898e-01	 1.1010795762e+00	 1.0121543025e+00
 9.3437544239e-02	 1.1019251326e+00	 1.0495237582e+00
 1.9067118065e-01	 1.0982756816e+00	 7.7631834031e-01
 1.8094842641e-01	 1.0999193674e+00	 8.1087588426e-01
 1.7123915968e-01	 1.1014726871e+00	 8.4076228949e-01
 1.6154451493e-01	 1.1029362126e+00	 8.6703917024e-01
 1.5186560985e-01	 1.1043105325e+00	 8.9064471506e-01
 1.4220354517e-01	 1.1055962511e+00	 9.1239393225e-01
 1.3255940439e-01	 1.1067939884e+00	 9.3297899784e-01
 1.2293425361e-01	 1.1079043792e+00	 9.5296971140e-01
 1.1332914130e-01	 1.1089280731e+00	 9.7281406456e-01
 1.0374509817e-01	 1.1098657333e+00	 9.9283892649e-01
 9.4183136981e-02	 1.1107180368e+00	 1.0132508503e+00
 1.9218061573e-01	 1.1069701042e+00	 7.8644034286e-01
 1.8238089199e-01	 1.1086268022e+00	 8.3214139273e-01
 1.7259476252e-01	 1.1101924186e+00	 8.6942172573e-01
 1.6282337079e-01	 1.1116675300e+00	 8.9949167830e-01
 1.5306784333e-01	 1.1130527296e+00	 9.2344213968e-01
 1.4332928959e-01	 1.1143486265e+00	 9.4223286141e-01
 1.3360880165e-01	 1.1155558456e+00	 9.5669290265e-01
 1.2390745403e-01	 1.1166750268e+00	 9.6752270293e-01
 1.1422630353e-01	 1.1177068246e+00	 9.7529481761e-01
 1.0456638899e-01	 1.1186519078e+00	 9.8045480763e-01
 9.4928731201e-02	 1.1195109585e+00	 9.8332227645e-01
 1.9369005337e-01	 1.1156645417e+00	 7.9070369242e-01
 1.8381335999e-01	 1.1173342518e+00	 8.4907598566e-01
 1.7395036767e-01	 1.1189121650e+00	 8.9546025095e-01
 1.6410222882e-01	 1.1203988623e+00	 9.3112854661e-01
 1.5427007886e-01	 1.1217949416e+00	 9.5722704652e-01
 1.4445503593e-01	 1.1231010168e+00	 9.7477612500e-01
 1.3465820069e-01	 1.1243177177e+00	 9.8467061693e-01
 1.2488065612e-01	 1.1254456893e+00	 9.8768024655e-01
 1.1512346728e-01	 1.1264855911e+00	 9.8445021814e-01
 1.0538768121e-01	 1.1274380972e+00	 9.7550196190e-01
 9.5674326689e-02	 1.1283038952e+00	 9.6123402780e-01
 1.9519949315e-01	 1.1243589914e+00	 7.8843454714e-01
 1.8524583003e-01	 1.1260417137e+00	 8.6042259899e-01
 1.7530597473e-01	 1.1276319237e+00	 9.1719071919e-01
 1.6538108867e-01	 1.1291302069e+00	 9.5997679235e-01
 1.5547231610e-01	 1.1305371660e+00	 9.8990483886e-01
 1.4558078387e-01	 1.1318534195e+00	 1.0079848788e+00
 1.3570760123e-01	 1.1330796023e+00	 1.0151129636e+00
 1.2585385957e-01	 1.1342163642e+00	 1.0120713695e+00
 1.1602063230e-01	 1.1352643700e+00	 9.9952894557e-01
 1.0620897458e-01	 1.1362242991e+00	 9.7804161113e-01
 9.6419923233e-02	 1.1370968443e+00	 9.4805299453e-01
 1.9670893464e-01	 1.1330534510e+00	 7.7887622954e-01
 1.8667830168e-01	 1.1347491855e+00	 8.6481103616e-01
 1.7666158333e-01	 1.1363516922e+00	 9.3279915363e-01
 1.6665994997e-01	 1.1378615615e+00	 9.8395710347e-01
 1.5667455469e-01	 1.1392794002e+00	 1.0193075108e+00
 1.4670653308e-01	 1.1406058321e+00	 1.0397786748e+00
 1.3675700294e-01	 1.1418414967e+00	 1.0462042919e+00
 1.2682706414e-01	 1.1429870490e+00	 1.0393233246e+00
 1.1691779834e-01	 1.1440431589e+00	 1.0197800118e+00
 1.0703026889e-01	 1.1450105109e+00	 9.8812401385e-01
 9.7165520622e-02	 1.1458898033e+00	 9.4481068646e-01
 1.9821837741e-01	 1.1417479180e+00	 7.6128025236e-01
 1.8811077456e-01	 1.1434566647e+00	 8.6090125833e-01
 1.7801719308e-01	 1.1450714682e+00	 9.4052128479e-01
 1.6793881235e-01	 1.1465929234e+00	 1.0010496142e+00
 1.5787679431e-01	 1.1480216420e+00	 1.0433294275e+00
 1.4783228325e-01	 1.1493582522e+00	 1.0681370105e+00
 1.3780640555e-01	 1.1506033987e+00	 1.0761810883e+00
 1.2780026952e-01	 1.1517577413e+00	 1.0681022842e+00
 1.1781496514e-01	 1.1528219553e+00	 1.0444726964e+00
 1.0785156390e-01	 1.1537967302e+00	 1.0057955898e+00
 9.7911118644e-02	 1.1546827698e+00	 9.5250519609e-01
 1.9972782104e-01	 1.1504423900e+00	 7.3491631699e-01
 1.8954324825e-01	 1.1521641488e+00	 8.4738945118e-01
 1.7937280360e-01	 1.1537912492e+00	 9.3864206783e-01
 1.6921767546e-01	 1.1553242903e+00	 1.0092916069e+00
 1.5907903460e-01	 1.1567638886e+00	 1.0599249122e+00
 1.4895803405e-01	 1.1581106772e+00	 1.0910970032e+00
 1.3885580876e-01	 1.1593653055e+00	 1.1033299442e+00
 1.2877347546e-01	 1.1605284386e+00	 1.0971118060e+00
 1.1871213245e-01	 1.1616007566e+00	 1.0728957171e+00
 1.0867285937e-01	 1.1625829545e+00	 1.0310990020e+00
 9.8656717088e-02	 1.1634757414e+00	 9.7210240015e-01
 2.0123726509e-01	 1.1591368644e+00	 6.9907160412e-01
 1.9097572234e-01	 1.1608716354e+00	 8.2300663062e-01
 1.8072841450e-01	 1.1625110326e+00	 9.2549379326e-01
 1.7049653892e-01	 1.1640556597e+00	 1.0067753196e+00
 1.6028127524e-01	 1.1655061378e+00	 1.0671059429e+00
 1.5008378517e-01	 1.1668631048e+00	 1.1067511718e+00
 1.3990521226e-01	 1.1681272149e+00	 1.1259856164e+00
 1.2974668168e-01	 1.1692991383e+00	 1.1250913690e+00
 1.1960930001e-01	 1.1703795604e+00	 1.1043564386e+00
 1.0949415507e-01	 1.1713691813e+00	 1.0640732359e+00
 9.9402315743e-02	 1.1722687154e+00	 1.0045371077e+00
 9.1946364036e-02	 1.0843393864e+00	 1.1355161323e+00
 8.2635597504e-02	 1.0850886720e+00	 1.1989931248e+00
 7.3348282920e-02	 1.0857560150e+00	 1.2559750544e+00
 6.4085333976e-02	 1.0863421123e+00	 1.3077482505e+00
 5.4847646941e-02	 1.0868476722e+00	 1.3557436710e+00
 4.5636100571e-02	 1.0872734138e+00	 1.4015306156e+00
 3.6451556027e-02	 1.0876200664e+00	 1.4468104462e+00
 2.7294856805e-02	 1.0878883693e+00	 1.4934103269e+00
 1.8166828684e-02	 1.0880790712e+00	 1.5432769970e+00
 9.0682796764e-03	 1.0881929296e+00	 1.5984705894e+00
 0.0000000000e+00	 1.0882307108e+00	 1.6611585068e+00
 9.2691953187e-02	 1.0931322483e+00	 1.0906704215e+00
 8.3305686045e-02	 1.0938876098e+00	 1.1446909989e+00
 7.3943061023e-02	 1.0945603642e+00	 1.1977570751e+00
 6.4604999219e-02	 1.0951512142e+00	 1.2500742692e+00
 5.5292404174e-02	 1.0956608737e+00	 1.3020273849e+00
 4.6006161766e-02	 1.0960900676e+00	 1.3541744691e+00
 3.6747140141e-02	 1.0964395312e+00	 1.4072408244e+00
 2.7516189635e-02	 1.0967100097e+00	 1.4621129930e+00
 1.8314142723e-02	 1.0969022580e+00	 1.5198327241e+00
 9.1418139695e-03	 1.0970170397e+00	 1.5815909400e+00
 0.0000000000e+00	 1.0970551273e+00	 1.6487217132e+00
 9.3437544239e-02	 1.1019251326e+00	 1.0495237582e+00
 8.3975776295e-02	 1.1026865701e+00	 1.0908397172e+00
 7.4537840642e-02	 1.1033647360e+00	 1.1369925202e+00
 6.5124665788e-02	 1.1039603386e+00	 1.1873255827e+00
 5.5737162540e-02	 1.1044740977e+00	 1.2413815297e+00
 4.6376223905e-02	 1.1049067439e+00	 1.2988967017e+00
 3.7042725009e-02	 1.1052590185e+00	 1.3597955786e+00
 2.7737523030e-02	 1.1055316727e+00	 1.4241851401e+00
 1.8461457137e-02	 1.1057254673e+00	 1.4923491744e+00
 9.2153484500e-03	 1.1058411723e+00	 1.5647425528e+00
 0.0000000000e+00	 1.1058795663e+00	 1.6419854820e+00
 9.4183136981e-02	 1.1107180368e+00	 1.0132508503e+00
 8.4645868064e-02	 1.1114855503e+00	 1.0396589795e+00
 7.5132621609e-02	 1.1121691277e+00	 1.0766302813e+00
 6.5644333534e-02	 1.1127694829e+00	 1.1228593300e+00
 5.6181921914e-02	 1.1132873416e+00	 1.1772448805e+00
 4.6746286882e-02	 1.1137234401e+00	 1.2388858411e+00
 3.7338310547e-02	 1.1140785257e+00	 1.3070764059e+00
 2.7958856926e-02	 1.1143533556e+00	 1.3813010630e+00
 1.8608771886e-02	 1.1145486967e+00	 1.4612294863e+00
 9.2888830972e-03	 1.1146653250e+00	 1.5467113225e+00
 0.0000000000e+00	 1.1147040253e+00	 1.6377708799e+00
 9.4928731201e-02	 1.1195109585e+00	 9.8332227645e-01
 8.5315961161e-02	 1.1202845479e+00	 9.9369765274e-01
 7.5727403755e-02	 1.1209735368e+00	 1.0199670800e+00
 6.6164002311e-02	 1.1215786448e+00	 1.0603841830e+00
 5.6626682171e-02	 1.1221006030e+00	 1.1133996740e+00
 4.7116350593e-02	 1.1225401539e+00	 1.1776573508e+00
 3.7633896670e-02	 1.1228980505e+00	 1.2519899505e+00
 2.8180191261e-02	 1.1231750561e+00	 1.3354148675e+00
 1.8756086927e-02	 1.1233719435e+00	 1.4271297427e+00
 9.3624178902e-03	 1.1234894951e+00	 1.5265079354e+00
 0.0000000000e+00	 1.1235285018e+00	 1.6330938840e+00
 9.5674326689e-02	 1.1283038952e+00	 9.6123402780e-01
 8.5986055398e-02	 1.1290835605e+00	 9.5538274761e-01
 7.6322186913e-02	 1.1297779609e+00	 9.7006470659e-01
 6.6683671971e-02	 1.1303878216e+00	 1.0032992965e+00
 5.7071443183e-02	 1.1309138794e+00	 1.0532813856e+00
 4.7486414933e-02	 1.1313568826e+00	 1.1183781514e+00
 3.7929483297e-02	 1.1317175903e+00	 1.1971257739e+00
 2.8401525972e-02	 1.1319967715e+00	 1.2882259943e+00
 1.8903402218e-02	 1.1321952054e+00	 1.3905425486e+00
 9.4359528082e-03	 1.1323136802e+00	 1.5030974815e+00
 0.0000000000e+00	 1.1323529932e+00	 1.6250673490e+00
 9.6419923233e-02	 1.1370968443e+00	 9.4805299453e-01
 8.6656150583e-02	 1.1378825856e+00	 9.2674103695e-01
 7.6916970913e-02	 1.1385823975e+00	 9.2961956739e-01
 6.7203342368e-02	 1.1391970108e+00	 9.5467615570e-01
 5.7516204826e-02	 1.1397271683e+00	 1.0000386417e+00
 4.7856479797e-02	 1.1401736239e+00	 1.0639729048e+00
 3.8225070342e-02	 1.1405371425e+00	 1.1448805123e+00
 2.8622860997e-02	 1.1408184994e+00	 1.2412962506e+00
 1.9050717718e-02	 1.1410184797e+00	 1.3518855444e+00
 9.5094878304e-03	 1.1411378778e+00	 1.4754417700e+00
 0.0000000000e+00	 1.1411774972e+00	 1.6108834675e+00
 9.7165520622e-02	 1.1458898033e+00	 9.4481068646e-01
 8.7326246528e-02	 1.1466816207e+00	 9.0973545413e-01
 7.7511755587e-02	 1.1473868441e+00	 9.0124400279e-01
 6.7723013353e-02	 1.1480062101e+00	 9.1749100072e-01
 5.7960966972e-02	 1.1485404671e+00	 9.5672279409e-01
 4.8226545081e-02	 1.1489903751e+00	 1.0172762140e+00
 3.8520657722e-02	 1.1493567048e+00	 1.0975772946e+00
 2.8844196273e-02	 1.1496402374e+00	 1.1961399045e+00
 1.9198033385e-02	 1.1498417640e+00	 1.3115642940e+00
 9.5830229361e-03	 1.1499620855e+00	 1.4425355606e+00
 0.0000000000e+00	 1.1500020112e+00	 1.5878220362e+00
 9.7911118644e-02	 1.1546827698e+00	 9.5250519609e-01
 8.7996343042e-02	 1.1554806632e+00	 9.0626746397e-01
 7.8106540766e-02	 1.1561912981e+00	 8.8746943198e-01
 6.8242684780e-02	 1.1568154168e+00	 8.9462840149e-01
 5.8405729497e-02	 1.1573537735e+00	 9.2629157767e-01
 4.8596610680e-02	 1.1578071338e+00	 9.8103601291e-01
 3.8816245354e-02	 1.1581762745e+00	 1.0574685080e+00
 2.9065531737e-02	 1.1584619828e+00	 1.1542254704e+00
 1.9345349177e-02	 1.1586650559e+00	 1.2699727281e+00
 9.6565581045e-03	 1.1587863006e+00	 1.4034053000e+00
 0.0000000000e+00	 1.1588265327e+00	 1.5532471211e+00
 9.8656717088e-02	 1.1634757414e+00	 9.7210240015e-01
 8.8666439936e-02	 1.1642797107e+00	 9.1817932688e-01
 7.8701326282e-02	 1.1649957572e+00	 8.9074935571e-01
 6.8762356501e-02	 1.1656246286e+00	 8.8888467101e-01
 5.8850492274e-02	 1.1661670849e+00	 9.1161260222e-01
 4.8966676488e-02	 1.1666238976e+00	 9.5791680123e-01
 3.9111833154e-02	 1.1669958493e+00	 1.0267384383e+00
 2.9286867327e-02	 1.1672837332e+00	 1.1169774114e+00
 1.9492665053e-02	 1.1674883527e+00	 1.2274935653e+00
 9.7300933146e-03	 1.1676105207e+00	 1.3571079155e+00
 0.0000000000e+00	 1.1676510592e+00	 1.5046038732e+00
 9.9402315743e-02	 1.1722687154e+00	 1.0045371077e+00
 8.9336537019e-02	 1.1730787607e+00	 9.4725626177e-01
 7.9296111967e-02	 1.1738002187e+00	 9.1346222443e-01
 6.9282028370e-02	 1.1744338428e+00	 9.0297112549e-01
 5.9295255177e-02	 1.1749803987e+00	 9.1546668779e-01
 4.9336742402e-02	 1.1754406638e+00	 9.5050273484e-01
 3.9407421038e-02	 1.1758154265e+00	 1.0075057912e+00
 2.9508202981e-02	 1.1761054862e+00	 1.0857777669e+00
 1.9639980971e-02	 1.1763116521e+00	 1.1844987162e+00
 9.8036285459e-03	 1.1764347433e+00	 1.3027296636e+00
 0.0000000000e+00	 1.1764755882e+00	 1.4394154880e+00
 1.1764755882e+00	 0.0000000000e+00	 1.1015224341e+01
 1.1764347433e+00	 9.8036285459e-03	 9.7292970633e+00
 1.1763116521e+00	 1.9639980971e-02	 8.5528415820e+00
 1.1761054862e+00	 2.9508202981e-02	 7.4880285653e+00
 1.1758154265e+00	 3.9407421038e-02	 6.5370155167e+00
 1.1754406638e+00	 4.9336742402e-02	 5.7019469348e+00
 1.1749803987e+00	 5.9295255177e-02	 4.9849541703e+00
 1.1744338428e+00	 6.9282028370e-02	 4.3881549733e+00
 1.1738002187e+00	 7.9296111967e-02	 3.9136527299e+00
 1.1730787607e+00	 8.9336537019e-02	 3.5635353916e+00
 1.1722687154e+00	 9.9402315743e-02	 3.3398741007e+00
 1.1852986176e+00	 0.0000000000e+00	 1.0401126294e+01
 1.1852574664e+00	 9.8771512812e-03	 9.0842594841e+00
 1.1851334520e+00	 1.9787271856e-02	 7.9154802832e+00
 1.1849257400e+00	 2.9729501022e-02	 6.8900615225e+00
 1.1846335050e+00	 3.9702958691e-02	 6.0030754195e+00
 1.1842559317e+00	 4.9706745429e-02	 5.2493977783e+00
 1.1837922149e+00	 5.9739942500e-02	 4.6237122093e+00
 1.1832415601e+00	 6.9801611929e-02	 4.1205143661e+00
 1.1826031841e+00	 7.9890796577e-02	 3.7341162023e+00
 1.1818763155e+00	 9.0006520230e-02	 3.4586502521e+00
 1.1810601952e+00	 1.0014778769e-01	 3.2880739420e+00
 1.1941216471e+00	 0.0000000000e+00	 9.6983474372e+00
 1.1940801895e+00	 9.9506740167e-03	 8.4034777099e+00
 1.1939552520e+00	 1.9934562741e-02	 7.2772699010e+00
 1.1937459938e+00	 2.9950799063e-02	 6.3107010161e+00
 1.1934515835e+00	 3.9998496345e-02	 5.4944230673e+00
 1.1930711997e+00	 5.0076748456e-02	 4.8187695755e+00
 1.1926040311e+00	 6.0184629823e-02	 4.2737622925e+00
 1.1920492773e+00	 7.0321195488e-02	 3.8491181424e+00
 1.1914061494e+00	 8.0485481187e-02	 3.5342563886e+00
 1.1906738703e+00	 9.0676503440e-02	 3.3183060322e+00
 1.1898516750e+00	 1.0089325965e-01	 3.1901134505e+00
 1.2029446765e+00	 0.0000000000e+00	 8.9103938451e+00
 1.2029029126e+00	 1.0024196752e-02	 7.6873210102e+00
 1.2027770520e+00	 2.0081853626e-02	 6.6361962171e+00
 1.2025662476e+00	 3.0172097105e-02	 5.7462452700e+00
 1.2022696620e+00	 4.0294033999e-02	 5.0063066410e+00
 1.2018864676e+00	 5.0446751484e-02	 4.4048385562e+00
 1.2014158472e+00	 6.0629317146e-02	 3.9299263795e+00
 1.2008569946e+00	 7.0840779046e-02	 3.5692902974e+00
 1.2002091148e+00	 8.1080165797e-02	 3.3102933101e+00
 1.1994714250e+00	 9.1346486650e-02	 3.1399495397e+00
 1.1986431547e+00	 1.0163873160e-01	 3.0449328634e+00
 1.2117677059e+00	 0.0000000000e+00	 8.0406720602e+00
 1.2117256357e+00	 1.0097719488e-02	 6.9361517219e+00
 1.2115988519e+00	 2.0229144511e-02	 5.9903085796e+00
 1.2113865014e+00	 3.0393395146e-02	 5.1931061506e+00
 1.2110877405e+00	 4.0589571654e-02	 4.5341193248e+00
 1.2107017356e+00	 5.0816754512e-02	 4.0025403355e+00
 1.2102276634e+00	 6.1074004469e-02	 3.5871849857e+00
 1.2096647118e+00	 7.1360362605e-02	 3.2764991356e+00
 1.2090120802e+00	 8.1674850407e-02	 3.0585654570e+00
 1.2082689798e+00	 9.2016469860e-02	 2.9211104663e+00
 1.2074346345e+00	 1.0238420355e-01	 2.8515118470e+00
 1.2205907353e+00	 0.0000000000e+00	 7.0924926914e+00
 1.2205483588e+00	 1.0171242224e-02	 6.1503254963e+00
 1.2204206519e+00	 2.0376435397e-02	 5.3377175948e+00
 1.2202067552e+00	 3.0614693188e-02	 4.6478050396e+00
 1.2199058190e+00	 4.0885109308e-02	 4.0733940349e+00
 1.2195170035e+00	 5.1186757540e-02	 3.6069641115e+00
 1.2190394796e+00	 6.1518691792e-02	 3.2406713974e+00
 1.2184724291e+00	 7.1879946164e-02	 2.9663519883e+00
 1.2178150455e+00	 8.2269535017e-02	 2.7755254259e+00
 1.2170665345e+00	 9.2686453070e-02	 2.6593982964e+00
 1.2162261143e+00	 1.0312967550e-01	 2.6088679617e+00
 1.2294137647e+00	 0.0000000000e+00	 6.0690738583e+00
 1.2293710819e+00	 1.0244764960e-02	 5.3301915346e+00
 1.2292424519e+00	 2.0523726282e-02	 4.6765929179e+00
 1.2290270091e+00	 3.0835991230e-02	 4.1069688846e+00
 1.2287238975e+00	 4.1180646962e-02	 3.6197983755e+00
 1.2283322715e+00	 5.1556760567e-02	 3.2133471133e+00
 1.2278512958e+00	 6.1963379116e-02	 2.8856661373e+00
 1.2272801463e+00	 7.2399529723e-02	 2.6345901583e+00
 1.2266180109e+00	 8.2864219627e-02	 2.4577357447e+00
 1.2258640893e+00	 9.3356436280e-02	 2.3524993491e+00
 1.2250175941e+00	 1.0387514745e-01	 2.3160551925e+00
 1.2382367941e+00	 0.0000000000e+00	 4.9735444879e+00
 1.2381938050e+00	 1.0318287695e-02	 4.4760928143e+00
 1.2380642518e+00	 2.0671017167e-02	 4.0051611382e+00
 1.2378472629e+00	 3.1057289272e-02	 3.5673264181e+00
 1.2375419760e+00	 4.1476184617e-02	 3.1691298108e+00
 1.2371475394e+00	 5.1926763595e-02	 2.8170692862e+00
 1.2366631119e+00	 6.2408066439e-02	 2.5175916649e+00
 1.2360878636e+00	 7.2919113282e-02	 2.2770840805e+00
 1.2354209763e+00	 8.3458904237e-02	 2.1018648763e+00
 1.2346616440e+00	 9.4026419490e-02	 1.9981739470e+00
 1.2338090739e+00	 1.0462061940e-01	 1.9721625434e+00
 1.2470598236e+00	 0.0000000000e+00	 3.8089474721e+00
 1.2470165281e+00	 1.0391810431e-02	 3.5883663056e+00
 1.2468860518e+00	 2.0818308052e-02	 3.3217037541e+00
 1.2466675167e+00	 3.1278587314e-02	 3.0257045375e+00
 1.2463600545e+00	 4.1771722271e-02	 2.7173110415e+00
 1.2459628074e+00	 5.2296766623e-02	 2.4136482021e+00
 1.2454749281e+00	 6.2852753762e-02	 2.1320073034e+00
 1.2448955809e+00	 7.3438696840e-02	 1.8898286886e+00
 1.2442239416e+00	 8.4053588847e-02	 1.7046833921e+00
 1.2434591988e+00	 9.4696402700e-02	 1.5942537051e+00
 1.2426005537e+00	 1.0536609135e-01	 1.5763126911e+00
 1.2558828530e+00	 0.0000000000e+00	 2.5782426911e+00
 1.2558392512e+00	 1.0465333166e-02	 2.6673431785e+00
 1.2557078518e+00	 2.0965598937e-02	 2.6245552334e+00
 1.2554877705e+00	 3.1499885355e-02	 2.4790248374e+00
 1.2551781330e+00	 4.2067259925e-02	 2.2603855766e+00
 1.2547780753e+00	 5.2666769650e-02	 1.9987341853e+00
 1.2542867443e+00	 6.3297441085e-02	 1.7246043797e+00
 1.2537032981e+00	 7.3958280399e-02	 1.4689389767e+00
 1.2530269070e+00	 8.4648273457e-02	 1.2630603074e+00
 1.2522567536e+00	 9.5366385910e-02	 1.1386389351e+00
 1.2513920335e+00	 1.0611156330e-01	 1.1276606962e+00
 1.2647058824e+00	 0.0000000000e+00	 1.2843099108e+00
 1.2646619743e+00	 1.0538855902e-02	 1.7133490014e+00
 1.2645296518e+00	 2.1112889822e-02	 1.9121011550e+00
 1.2643080243e+00	 3.1721183396e-02	 1.9243002869e+00
 1.2639962115e+00	 4.2362797579e-02	 1.7945134898e+00
 1.2635933433e+00	 5.3036772677e-02	 1.5681056419e+00
 1.2630985605e+00	 6.3742128408e-02	 1.2912015683e+00
 1.2625110154e+00	 7.4477863958e-02	 1.0106457473e+00
 1.2618298723e+00	 8.5242958067e-02	 7.7395956923e-01
 1.2610543083e+00	 9.6036369121e-02	 6.2929615708e-01
 1.2601835133e+00	 1.0685703526e-01	 6.2539276841e-01
 1.1722687154e+00	 9.9402315743e-02	 3.3398741007e+00
 1.1713691813e+00	 1.0949415507e-01	 3.1863869004e+00
 1.1703795604e+00	 1.1960930001e-01	 3.0405239947e+00
 1.1692991383e+00	 1.2974668168e-01	 2.8948726321e+00
 1.1681272149e+00	 1.3990521226e-01	 2.7420330737e+00
 1.1668631048e+00	 1.5008378517e-01	 2.5746129116e+00
 1.1655061378e+00	 1.6028127524e-01	 2.3852209107e+00
 1.1640556597e+00	 1.7049653892e-01	 2.1664603951e+00
 1.1625110326e+00	 1.8072841450e-01	 1.9109222023e+00
 1.1608716354e+00	 1.9097572234e-01	 1.6111772343e+00
 1.1591368644e+00	 2.0123726509e-01	 1.2597686329e+00
 1.1810601952e+00	 1.0014778769e-01	 3.2880739420e+00
 1.1801539149e+00	 1.1031531121e-01	 3.1614118193e+00
 1.1791568724e+00	 1.2050631511e-01	 3.0196096183e+00
 1.1780683476e+00	 1.3071972251e-01	 2.8594133222e+00
 1.1768876353e+00	 1.4095443743e-01	 2.6776910673e+00
 1.1756140449e+00	 1.5120934499e-01	 2.4714238912e+00
 1.1742469013e+00	 1.6148331157e-01	 2.2376957727e+00
 1.1727855453e+00	 1.7177518507e-01	 1.9736829835e+00
 1.1712293342e+00	 1.8208379504e-01	 1.6766427784e+00
 1.1695776423e+00	 1.9240795300e-01	 1.3439014516e+00
 1.1678298613e+00	 2.0274645264e-01	 9.7284179213e-01
 1.1898516750e+00	 1.0089325965e-01	 3.1901134505e+00
 1.1889386486e+00	 1.1113646734e-01	 3.0874788958e+00
 1.1879341844e+00	 1.2140333021e-01	 2.9552415803e+00
 1.1868375570e+00	 1.3169276334e-01	 2.7927100744e+00
 1.1856480558e+00	 1.4200366260e-01	 2.5993922739e+00
 1.1843649851e+00	 1.5233490480e-01	 2.3749839022e+00
 1.1829876649e+00	 1.6268534791e-01	 2.1193561419e+00
 1.1815154309e+00	 1.7305383121e-01	 1.8325424181e+00
 1.1799476358e+00	 1.8343917558e-01	 1.5147243590e+00
 1.1782836492e+00	 1.9384018366e-01	 1.1662169639e+00
 1.1765228582e+00	 2.0425564018e-01	 7.8745301327e-01
 1.1986431547e+00	 1.0163873160e-01	 3.0449328634e+00
 1.1977233823e+00	 1.1195762348e-01	 2.9649530677e+00
 1.1967114963e+00	 1.2230034531e-01	 2.8488714265e+00
 1.1956067663e+00	 1.3266580417e-01	 2.6969984241e+00
 1.1944084762e+00	 1.4305288777e-01	 2.5098896122e+00
 1.1931159253e+00	 1.5346046462e-01	 2.2883331734e+00
 1.1917284284e+00	 1.6388738424e-01	 2.0333365225e+00
 1.1902453166e+00	 1.7433247735e-01	 1.7461119683e+00
 1.1886659375e+00	 1.8479455611e-01	 1.4280614615e+00
 1.1869896561e+00	 1.9527241433e-01	 1.0807604609e+00
 1.1852158551e+00	 2.0576482773e-01	 7.0594095217e-01
 1.2074346345e+00	 1.0238420355e-01	 2.8515118470e+00
 1.2065081160e+00	 1.1277877961e-01	 2.7941971542e+00
 1.2054888083e+00	 1.2319736041e-01	 2.7019167964e+00
 1.2043759756e+00	 1.3363884500e-01	 2.5744569484e+00
 1.2031688966e+00	 1.4410211294e-01	 2.4118636860e+00
 1.2018668655e+00	 1.5458602443e-01	 2.2144309031e+00
 1.2004691920e+00	 1.6508942057e-01	 1.9826872437e+00
 1.1989752022e+00	 1.7561112350e-01	 1.7173820712e+00
 1.1973842391e+00	 1.8614993665e-01	 1.4194705034e+00
 1.1956956630e+00	 1.9670464499e-01	 1.0900975437e+00
 1.1939088520e+00	 2.0727401527e-01	 7.3058134418e-01
 1.2162261143e+00	 1.0312967550e-01	 2.6088679617e+00
 1.2152928497e+00	 1.1359993575e-01	 2.5755718070e+00
 1.2142661203e+00	 1.2409437551e-01	 2.5157625081e+00
 1.2131451849e+00	 1.3461188583e-01	 2.4272091692e+00
 1.2119293170e+00	 1.4515133811e-01	 2.3079252285e+00
 1.2106178056e+00	 1.5571158425e-01	 2.1561580050e+00
 1.2092099555e+00	 1.6629145690e-01	 1.9703773057e+00
 1.2077050878e+00	 1.7688976964e-01	 1.7492631166e+00
 1.2061025407e+00	 1.8750531718e-01	 1.4916924052e+00
 1.2044016699e+00	 1.9813687565e-01	 1.1967250656e+00
 1.2026018489e+00	 2.0878320282e-01	 8.6358904112e-01
 1.2250175941e+00	 1.0387514745e-01	 2.3160551925e+00
 1.2240775834e+00	 1.1442109188e-01	 2.3094354644e+00
 1.2230434323e+00	 1.2499139061e-01	 2.2917615977e+00
 1.2219143942e+00	 1.3558492667e-01	 2.2573253763e+00
 1.2206897375e+00	 1.4620056328e-01	 2.2006174426e+00
 1.2193687458e+00	 1.5683714407e-01	 2.1163197361e+00
 1.2179507190e+00	 1.6749349324e-01	 1.9992971047e+00
 1.2164349734e+00	 1.7816841578e-01	 1.8445881147e+00
 1.2148208423e+00	 1.8886069772e-01	 1.6473950842e+00
 1.2131076767e+00	 1.9956910631e-01	 1.4030733731e+00
 1.2112948458e+00	 2.1029239036e-01	 1.1071199628e+00
 1.2338090739e+00	 1.0462061940e-01	 1.9721625434e+00
 1.2328623171e+00	 1.1524224802e-01	 1.9961443068e+00
 1.2318207443e+00	 1.2588840571e-01	 2.0312363140e+00
 1.2306836035e+00	 1.3655796750e-01	 2.0668243716e+00
 1.2294501579e+00	 1.4724978844e-01	 2.0924182409e+00
 1.2281196860e+00	 1.5796270388e-01	 2.0976482135e+00
 1.2266914826e+00	 1.6869552957e-01	 2.0722610423e+00
 1.2251648591e+00	 1.7944706192e-01	 2.0061152500e+00
 1.2235391440e+00	 1.9021607825e-01	 1.8891758421e+00
 1.2218136836e+00	 2.0100133697e-01	 1.7115084539e+00
 1.2199878427e+00	 2.1180157791e-01	 1.4632729672e+00
 1.2426005537e+00	 1.0536609135e-01	 1.5763126911e+00
 1.2416470508e+00	 1.1606340415e-01	 1.6360522155e+00
 1.2405980563e+00	 1.2678542081e-01	 1.7354790716e+00
 1.2394528128e+00	 1.3753100833e-01	 1.8576751413e+00
 1.2382105783e+00	 1.4829901361e-01	 1.9857423923e+00
 1.2368706262e+00	 1.5908826370e-01	 2.1028048257e+00
 1.2354322461e+00	 1.6989756590e-01	 2.1920100249e+00
 1.2338947447e+00	 1.8072570807e-01	 2.2365303288e+00
 1.2322574456e+00	 1.9157145879e-01	 2.2195636536e+00
 1.2305196905e+00	 2.0243356764e-01	 2.1243339955e+00
 1.2286808396e+00	 2.1331076545e-01	 1.9340916441e+00
 1.2513920335e+00	 1.0611156330e-01	 1.1276606962e+00
 1.2504317845e+00	 1.1688456029e-01	 1.2295107327e+00
 1.2493753683e+00	 1.2768243591e-01	 1.4057533649e+00
 1.2482220222e+00	 1.3850404916e-01	 1.6317984570e+00
 1.2469709987e+00	 1.4934823878e-01	 1.8829435783e+00
 1.2456215664e+00	 1.6021382351e-01	 2.1343825427e+00
 1.2441730097e+00	 1.7109960223e-01	 2.3612138603e+00
 1.2426246303e+00	 1.8200435421e-01	 2.5384491245e+00
 1.2409757472e+00	 1.9292683932e-01	 2.6410213600e+00
 1.2392256974e+00	 2.0386579830e-01	 2.6437933586e+00
 1.2373738365e+00	 2.1481995300e-01	 2.5215660344e+00
 1.2601835133e+00	 1.0685703526e-01	 6.2539276841e-01
 1.2592165182e+00	 1.1770571642e-01	 7.7686902421e-01
 1.2581526803e+00	 1.2857945101e-01	 1.0432946439e+00
 1.2569912315e+00	 1.3947708999e-01	 1.3910684114e+00
 1.2557314192e+00	 1.5039746395e-01	 1.7863163644e+00
 1.2543725065e+00	 1.6133938333e-01	 2.1949081306e+00
 1.2529137732e+00	 1.7230163857e-01	 2.5824735529e+00
 1.2513545159e+00	 1.8328300036e-01	 2.9144196268e+00
 1.2496940488e+00	 1.9428221986e-01	 3.1559477726e+00
 1.2479317043e+00	 2.0529802896e-01	 3.2720714698e+00
 1.2460668334e+00	 2.1632914054e-01	 3.2276342805e+00
 1.1591368644e+00	 2.0123726509e-01	 1.2597686329e+00
 1.1573064529e+00	 2.1151008095e-01	 9.2972808138e-01
 1.1553795464e+00	 2.2179468403e-01	 6.9417251259e-01
 1.1533555958e+00	 2.3208982905e-01	 5.4592024491e-01
 1.1512340711e+00	 2.4239425423e-01	 4.7776360285e-01
 1.1490144625e+00	 2.5270668167e-01	 4.8247090634e-01
 1.1466962804e+00	 2.6302581766e-01	 5.5278855944e-01
 1.1442790561e+00	 2.7335035306e-01	 6.8144327071e-01
 1.1417623423e+00	 2.8367896364e-01	 8.6114443819e-01
 1.1391457133e+00	 2.9401031052e-01	 1.0845867331e+00
 1.1364287657e+00	 3.0434304055e-01	 1.3444529166e+00
 1.1678298613e+00	 2.0274645264e-01	 9.7284179213e-01
 1.1659857226e+00	 2.1309630992e-01	 6.4096526887e-01
 1.1640443652e+00	 2.2345804283e-01	 4.2054870139e-01
 1.1620052358e+00	 2.3383039673e-01	 3.0130698853e-01
 1.1598678006e+00	 2.4421210040e-01	 2.7287212641e-01
 1.1576315460e+00	 2.5460186633e-01	 3.2479792377e-01
 1.1552959786e+00	 2.6499839113e-01	 4.4656495193e-01
 1.1528606263e+00	 2.7540035582e-01	 6.2758576180e-01
 1.1503250382e+00	 2.8580642626e-01	 8.5721040129e-01
 1.1476887857e+00	 2.9621525352e-01	 1.1247322668e+00
 1.1449514623e+00	 3.0662547430e-01	 1.4193943228e+00
 1.1765228582e+00	 2.0425564018e-01	 7.8745301327e-01
 1.1746649922e+00	 2.1468253889e-01	 4.5858483231e-01
 1.1727091839e+00	 2.2512140163e-01	 2.5120674240e-01
 1.1706548758e+00	 2.3557096441e-01	 1.5309927281e-01
 1.1685015302e+00	 2.4602994656e-01	 1.5192157256e-01
 1.1662486295e+00	 2.5649705099e-01	 2.3521766116e-01
 1.1638956768e+00	 2.6697096459e-01	 3.9042300139e-01
 1.1614421964e+00	 2.7745035858e-01	 6.0487142794e-01
 1.1588877341e+00	 2.8793388888e-01	 8.6580246632e-01
 1.1562318581e+00	 2.9842019653e-01	 1.1603690765e+00
 1.1534741588e+00	 3.0890790806e-01	 1.4756458562e+00
 1.1852158551e+00	 2.0576482773e-01	 7.0594095217e-01
 1.1833442619e+00	 2.1626876786e-01	 3.8470280785e-01
 1.1813740027e+00	 2.2678476042e-01	 1.8818787564e-01
 1.1793045158e+00	 2.3731153209e-01	 1.0338564582e-01
 1.1771352598e+00	 2.4784779272e-01	 1.1714387686e-01
 1.1748657130e+00	 2.5839223564e-01	 2.1617520415e-01
 1.1724953750e+00	 2.6894353805e-01	 3.8706411144e-01
 1.1700237665e+00	 2.7950036134e-01	 6.1627430068e-01
 1.1674504301e+00	 2.9006135150e-01	 8.9015649659e-01
 1.1647749305e+00	 3.0062513953e-01	 1.1949567226e+00
 1.1619968554e+00	 3.1119034182e-01	 1.5168250849e+00
 1.1939088520e+00	 2.0727401527e-01	 7.3058134418e-01
 1.1920235315e+00	 2.1785499683e-01	 4.2137827723e-01
 1.1900388214e+00	 2.2844811922e-01	 2.3347805079e-01
 1.1879541559e+00	 2.3905209977e-01	 1.5419748533e-01
 1.1857689893e+00	 2.4966563888e-01	 1.7070914703e-01
 1.1834827965e+00	 2.6028742030e-01	 2.7004715042e-01
 1.1810950732e+00	 2.7091611151e-01	 4.3911331785e-01
 1.1786053367e+00	 2.8155036410e-01	 6.6468373417e-01
 1.1760131260e+00	 2.9218881412e-01	 9.3341573600e-01
 1.1733180029e+00	 3.0283008253e-01	 1.2318553753e+00
 1.1705195519e+00	 3.1347277557e-01	 1.5464453966e+00
 1.2026018489e+00	 2.0878320282e-01	 8.6358904112e-01
 1.2007028012e+00	 2.1944122580e-01	 5.7061518249e-01
 1.1987036401e+00	 2.3011147801e-01	 3.8900967698e-01
 1.1966037959e+00	 2.4079266745e-01	 3.0751081362e-01
 1.1944027189e+00	 2.5148348504e-01	 3.1472764536e-01
 1.1920998801e+00	 2.6218260495e-01	 3.9914383431e-01
 1.1896947714e+00	 2.7288868497e-01	 5.4912180178e-01
 1.1871869068e+00	 2.8360036685e-01	 7.5290722519e-01
 1.1845758219e+00	 2.9431627674e-01	 9.9863392531e-01
 1.1818610753e+00	 3.0503502553e-01	 1.2743291873e+00
 1.1790422484e+00	 3.1575520933e-01	 1.5679195596e+00
 1.2112948458e+00	 2.1029239036e-01	 1.1071199628e+00
 1.2093820709e+00	 2.2102745477e-01	 8.3436406515e-01
 1.2073684589e+00	 2.3177483681e-01	 6.5666330022e-01
 1.2052534359e+00	 2.4253323513e-01	 5.6524803761e-01
 1.2030364485e+00	 2.5330133120e-01	 5.5125168965e-01
 1.2007169636e+00	 2.6407778961e-01	 6.0571146008e-01
 1.1982944697e+00	 2.7486125843e-01	 7.1956929988e-01
 1.1957684769e+00	 2.8565036961e-01	 8.8367311737e-01
 1.1931385178e+00	 2.9644373936e-01	 1.0887782902e+00
 1.1904041477e+00	 3.0723996853e-01	 1.3255495284e+00
 1.1875649450e+00	 3.1803764309e-01	 1.5845631372e+00
 1.2199878427e+00	 2.1180157791e-01	 1.4632729672e+00
 1.2180613405e+00	 2.2261368374e-01	 1.2145237337e+00
 1.2160332776e+00	 2.3343819560e-01	 1.0382692120e+00
 1.2139030760e+00	 2.4427380281e-01	 9.2927961798e-01
 1.2116701780e+00	 2.5511917736e-01	 8.8227747677e-01
 1.2093340471e+00	 2.6597297426e-01	 8.9193414819e-01
 1.2068941679e+00	 2.7683383189e-01	 9.5286641611e-01
 1.2043500471e+00	 2.8770037237e-01	 1.0596331951e+00
 1.2017012138e+00	 2.9857120198e-01	 1.2067324078e+00
 1.1989472201e+00	 3.0944491153e-01	 1.3885980879e+00
 1.1960876415e+00	 3.2032007684e-01	 1.5995977644e+00
 1.2286808396e+00	 2.1331076545e-01	 1.9340916441e+00
 1.2267406102e+00	 2.2419991271e-01	 1.7129428628e+00
 1.2246980963e+00	 2.3510155439e-01	 1.5356089930e+00
 1.2225527160e+00	 2.4601437049e-01	 1.4014256709e+00
 1.2203039076e+00	 2.5693702352e-01	 1.3097468326e+00
 1.2179511306e+00	 2.6786815891e-01	 1.2599358992e+00
 1.2154938661e+00	 2.7880640535e-01	 1.2513568403e+00
 1.2129316172e+00	 2.8975037513e-01	 1.2833651729e+00
 1.2102639097e+00	 3.0069866460e-01	 1.3552989575e+00
 1.2074902925e+00	 3.1164985453e-01	 1.4664698528e+00
 1.2046103380e+00	 3.2260251060e-01	 1.6161542922e+00
 1.2373738365e+00	 2.1481995300e-01	 2.5215660344e+00
 1.2354198798e+00	 2.2578614168e-01	 2.3314215278e+00
 1.2333629151e+00	 2.3676491319e-01	 2.1504169937e+00
 1.2312023560e+00	 2.4775493816e-01	 1.9834575054e+00
 1.2289376372e+00	 2.5875486968e-01	 1.8355488919e+00
 1.2265682141e+00	 2.6976334357e-01	 1.7117824791e+00
 1.2240935643e+00	 2.8077897881e-01	 1.6173194780e+00
 1.2215131873e+00	 2.9180037789e-01	 1.5573750848e+00
 1.2188266056e+00	 3.0282612722e-01	 1.5372023614e+00
 1.2160333649e+00	 3.1385479753e-01	 1.5620759660e+00
 1.2131330346e+00	 3.2488494435e-01	 1.6372758067e+00
 1.2460668334e+00	 2.1632914054e-01	 3.2276342805e+00
 1.2440991495e+00	 2.2737237065e-01	 3.0717126776e+00
 1.2420277338e+00	 2.3842827199e-01	 2.8843817575e+00
 1.2398519961e+00	 2.4949550584e-01	 2.6770991002e+00
 1.2375713667e+00	 2.6057271584e-01	 2.4615217121e+00
 1.2351852976e+00	 2.7165852822e-01	 2.2494832299e+00
 1.2326932625e+00	 2.8275155227e-01	 2.0529704960e+00
 1.2300947574e+00	 2.9385038065e-01	 1.8840995798e+00
 1.2273893016e+00	 3.0495358983e-01	 1.7550913208e+00
 1.2245764373e+00	 3.1605974053e-01	 1.6782464722e+00
 1.2216557311e+00	 3.2716737810e-01	 1.6659205292e+00
 1.1364287657e+00	 3.0434304055e-01	 1.3444529166e+00
 1.1336111194e+00	 3.1467578686e-01	 1.5947295728e+00
 1.1306924180e+00	 3.2500716977e-01	 1.7942572850e+00
 1.1276723292e+00	 3.3533579683e-01	 1.9429271049e+00
 1.1245505449e+00	 3.4566026314e-01	 2.0405372145e+00
 1.1213267811e+00	 3.5597915182e-01	 2.0867864598e+00
 1.1180007791e+00	 3.6629103455e-01	 2.0812682759e+00
 1.1145723051e+00	 3.7659447202e-01	 2.0286893664e+00
 1.1110411513e+00	 3.8688801453e-01	 1.9514179235e+00
 1.1074071358e+00	 3.9717020246e-01	 1.8541833899e+00
 1.1036701029e+00	 4.0743956688e-01	 1.7392192564e+00
 1.1449514623e+00	 3.0662547430e-01	 1.4193943228e+00
 1.1421126848e+00	 3.1703571149e-01	 1.6908824767e+00
 1.1391720945e+00	 3.2744457506e-01	 1.8972021470e+00
 1.1361293565e+00	 3.3785066210e-01	 2.0400204954e+00
 1.1329841602e+00	 3.4825255719e-01	 2.1209696473e+00
 1.1297362197e+00	 3.5864883283e-01	 2.1416384060e+00
 1.1263852741e+00	 3.6903804996e-01	 2.1035642707e+00
 1.1229310882e+00	 3.7941875851e-01	 2.0197053520e+00
 1.1193734524e+00	 3.8978949788e-01	 1.9123685549e+00
 1.1157121833e+00	 4.0014879752e-01	 1.7869963839e+00
 1.1119471245e+00	 4.1049517748e-01	 1.6487666463e+00
 1.1534741588e+00	 3.0890790806e-01	 1.4756458562e+00
 1.1506142503e+00	 3.1939563612e-01	 1.7584355211e+00
 1.1476517711e+00	 3.2988198034e-01	 1.9661225786e+00
 1.1445863837e+00	 3.4036552737e-01	 2.1016128326e+00
 1.1414177755e+00	 3.5084485124e-01	 2.1678204118e+00
 1.1381456582e+00	 3.6131851383e-01	 2.1676581345e+00
 1.1347697692e+00	 3.7178506537e-01	 2.1042964656e+00
 1.1312898713e+00	 3.8224304499e-01	 2.0002824320e+00
 1.1277057534e+00	 3.9269098123e-01	 1.8733569902e+00
 1.1240172309e+00	 4.0312739258e-01	 1.7302198819e+00
 1.1202241460e+00	 4.1355078809e-01	 1.5775976474e+00
 1.1619968554e+00	 3.1119034182e-01	 1.5168250849e+00
 1.1591158158e+00	 3.2175556076e-01	 1.8010124450e+00
 1.1561314476e+00	 3.3231938563e-01	 2.0044367412e+00
 1.1530434110e+00	 3.4288039264e-01	 2.1307167622e+00
 1.1498513908e+00	 3.5343714529e-01	 2.1835087237e+00
 1.1465550968e+00	 3.6398819483e-01	 2.1664957448e+00
 1.1431542643e+00	 3.7453208078e-01	 2.0858482502e+00
 1.1396486543e+00	 3.8506733148e-01	 1.9702558549e+00
 1.1360380544e+00	 3.9559246458e-01	 1.8329760041e+00
 1.1323222785e+00	 4.0610598765e-01	 1.6816125200e+00
 1.1285011675e+00	 4.1660639869e-01	 1.5238255928e+00
 1.1705195519e+00	 3.1347277557e-01	 1.5464453966e+00
 1.1676173813e+00	 3.2411548539e-01	 1.8221325130e+00
 1.1646111242e+00	 3.3475679091e-01	 2.0154642758e+00
 1.1615004383e+00	 3.4539525791e-01	 2.1302582734e+00
 1.1582850061e+00	 3.5602943934e-01	 2.1703845695e+00
 1.1549645353e+00	 3.6665787583e-01	 2.1397547484e+00
 1.1515387593e+00	 3.7727909619e-01	 2.0493748300e+00
 1.1480074374e+00	 3.8789161796e-01	 1.9294580494e+00
 1.1443703554e+00	 3.9849394793e-01	 1.7898505988e+00
 1.1406273260e+00	 4.0908458271e-01	 1.6384686779e+00
 1.1367781891e+00	 4.1966200929e-01	 1.4833038021e+00
 1.1790422484e+00	 3.1575520933e-01	 1.5679195596e+00
 1.1761189468e+00	 3.2647541002e-01	 1.8252141051e+00
 1.1730908007e+00	 3.3719419620e-01	 2.0024296980e+00
 1.1699574655e+00	 3.4791012318e-01	 2.1030796883e+00
 1.1667186214e+00	 3.5862173339e-01	 2.1307310946e+00
 1.1633739739e+00	 3.6932755683e-01	 2.0889936696e+00
 1.1599232544e+00	 3.8002611160e-01	 1.9957471098e+00
 1.1563662205e+00	 3.9071590445e-01	 1.8777182699e+00
 1.1527026565e+00	 4.0139543128e-01	 1.7426365332e+00
 1.1489323736e+00	 4.1206317777e-01	 1.5981509981e+00
 1.1450552106e+00	 4.2271761990e-01	 1.4519945709e+00
 1.1875649450e+00	 3.1803764309e-01	 1.5845631372e+00
 1.1846205122e+00	 3.2883533466e-01	 1.8135781590e+00
 1.1815704773e+00	 3.3963160148e-01	 1.9684656558e+00
 1.1784144928e+00	 3.5042498845e-01	 2.0519425335e+00
 1.1751522367e+00	 3.6121402744e-01	 2.0667668986e+00
 1.1717834124e+00	 3.7199723783e-01	 2.0161158242e+00
 1.1683077494e+00	 3.8277312701e-01	 1.9258035702e+00
 1.1647250035e+00	 3.9354019093e-01	 1.8148622759e+00
 1.1610349575e+00	 4.0429691463e-01	 1.6900187985e+00
 1.1572374212e+00	 4.1504177283e-01	 1.5580875303e+00
 1.1533322321e+00	 4.2577323050e-01	 1.4259648707e+00
 1.1960876415e+00	 3.2032007684e-01	 1.5995977644e+00
 1.1931220777e+00	 3.3119525929e-01	 1.7904514739e+00
 1.1900501538e+00	 3.4206900677e-01	 1.9166160567e+00
 1.1868715201e+00	 3.5293985372e-01	 1.9795302981e+00
 1.1835858520e+00	 3.6380632149e-01	 1.9806482427e+00
 1.1801928510e+00	 3.7466691883e-01	 1.9242774659e+00
 1.1766922445e+00	 3.8552014242e-01	 1.8403509979e+00
 1.1730837866e+00	 3.9636447741e-01	 1.7407120441e+00
 1.1693672585e+00	 4.0719839798e-01	 1.6307101777e+00
 1.1655424687e+00	 4.1802036789e-01	 1.5157690185e+00
 1.1616092537e+00	 4.2882884110e-01	 1.4013822546e+00
 1.2046103380e+00	 3.2260251060e-01	 1.6161542922e+00
 1.2016236432e+00	 3.3355518392e-01	 1.7589698822e+00
 1.1985298304e+00	 3.4450641205e-01	 1.8498390708e+00
 1.1953285473e+00	 3.5545471899e-01	 1.8884510846e+00
 1.1920194673e+00	 3.6639861554e-01	 1.8744711748e+00
 1.1886022895e+00	 3.7733659983e-01	 1.8152509701e+00
 1.1850767395e+00	 3.8826715783e-01	 1.7401652025e+00
 1.1814425697e+00	 3.9918876390e-01	 1.6550855103e+00
 1.1776995595e+00	 4.1009988133e-01	 1.5634498868e+00
 1.1738475163e+00	 4.2099896296e-01	 1.4687463242e+00
 1.1698862752e+00	 4.3188445171e-01	 1.3745109598e+00
 1.2131330346e+00	 3.2488494435e-01	 1.6372758067e+00
 1.2101252087e+00	 3.3591510855e-01	 1.7221812953e+00
 1.2070095069e+00	 3.4694381733e-01	 1.7710100165e+00
 1.2037855746e+00	 3.5796958425e-01	 1.7812401568e+00
 1.2004530826e+00	 3.6899090959e-01	 1.7502735747e+00
 1.1970117281e+00	 3.8000628083e-01	 1.6905855634e+00
 1.1934612346e+00	 3.9101417324e-01	 1.6259917194e+00
 1.1898013527e+00	 4.0201305038e-01	 1.5577963420e+00
 1.1860318606e+00	 4.1300136468e-01	 1.4870022922e+00
 1.1821525639e+00	 4.2397755802e-01	 1.4146279792e+00
 1.1781632967e+00	 4.3494006231e-01	 1.3417081962e+00
 1.2216557311e+00	 3.2716737810e-01	 1.6659205292e+00
 1.2186267741e+00	 3.3827503318e-01	 1.6830486292e+00
 1.2154891835e+00	 3.4938122261e-01	 1.6829241339e+00
 1.2122426019e+00	 3.6048444952e-01	 1.6603623915e+00
 1.2088866979e+00	 3.7158320363e-01	 1.6102646953e+00
 1.2054211666e+00	 3.8267596183e-01	 1.5517793719e+00
 1.2018457296e+00	 3.9376118865e-01	 1.4985465022e+00
 1.1981601358e+00	 4.0483733686e-01	 1.4486537373e+00
 1.1943641616e+00	 4.1590284802e-01	 1.4001557014e+00
 1.1904576115e+00	 4.2695615308e-01	 1.3510778611e+00
 1.1864403182e+00	 4.3799567291e-01	 1.2994206114e+00
 1.1036701029e+00	 4.0743956688e-01	 1.7392192564e+00
 1.0998292624e+00	 4.1769637217e-01	 1.6233511549e+00
 1.0958851383e+00	 4.2793738427e-01	 1.5221674960e+00
 1.0918376557e+00	 4.3816110842e-01	 1.4363788121e+00
 1.0876867674e+00	 4.4836604289e-01	 1.3667636961e+00
 1.0834324540e+00	 4.5855067955e-01	 1.3141737329e+00
 1.0790747247e+00	 4.6871350451e-01	 1.2795377718e+00
 1.0746136171e+00	 4.7885299878e-01	 1.2638655019e+00
 1.0700491977e+00	 4.8896763889e-01	 1.2682502986e+00
 1.0653815619e+00	 4.9905589759e-01	 1.2938713101e+00
 1.0606108344e+00	 5.0911624449e-01	 1.3419947599e+00
 1.1119471245e+00	 4.1049517748e-01	 1.6487666463e+00
 1.1080774793e+00	 4.2082890413e-01	 1.5166171344e+00
 1.1041037761e+00	 4.3114671914e-01	 1.4056310118e+00
 1.1000259393e+00	 4.4144711655e-01	 1.3157719802e+00
 1.0958439212e+00	 4.5172858337e-01	 1.2470202394e+00
 1.0915577024e+00	 4.6198960015e-01	 1.1993464384e+00
 1.0871672922e+00	 4.7222864165e-01	 1.1727161232e+00
 1.0826727283e+00	 4.8244417749e-01	 1.1670935677e+00
 1.0780740778e+00	 4.9263467278e-01	 1.1824449527e+00
 1.0733714369e+00	 5.0279858882e-01	 1.2187408661e+00
 1.0685649311e+00	 5.1293438373e-01	 1.2759580986e+00
 1.1202241460e+00	 4.1355078809e-01	 1.5775976474e+00
 1.1163256963e+00	 4.2396143609e-01	 1.4354727153e+00
 1.1123224140e+00	 4.3435605401e-01	 1.3193491388e+00
 1.1082142229e+00	 4.4473312468e-01	 1.2286242701e+00
 1.1040010750e+00	 4.5509112384e-01	 1.1615859632e+00
 1.0996829508e+00	 4.6542852075e-01	 1.1174511269e+00
 1.0952598596e+00	 4.7574377880e-01	 1.0954416907e+00
 1.0907318395e+00	 4.8603535621e-01	 1.0947144753e+00
 1.0860989579e+00	 4.9630170668e-01	 1.1143646336e+00
 1.0813613118e+00	 5.0654128004e-01	 1.1534284647e+00
 1.0765190278e+00	 5.1675252296e-01	 1.2108855754e+00
 1.1285011675e+00	 4.1660639869e-01	 1.5238255928e+00
 1.1245739133e+00	 4.2709396805e-01	 1.3788827710e+00
 1.1205410518e+00	 4.3756538888e-01	 1.2607586397e+00
 1.1164025065e+00	 4.4801913281e-01	 1.1689792629e+00
 1.1121582288e+00	 4.5845366432e-01	 1.1028691668e+00
 1.1078081992e+00	 4.6886744135e-01	 1.0609606766e+00
 1.1033524270e+00	 4.7925891594e-01	 1.0406567104e+00
 1.0987909506e+00	 4.8962653493e-01	 1.0404805192e+00
 1.0941238380e+00	 4.9996874058e-01	 1.0589075048e+00
 1.0893511868e+00	 5.1028397127e-01	 1.0943088019e+00
 1.0844731245e+00	 5.2057066219e-01	 1.1449536812e+00
 1.1367781891e+00	 4.1966200929e-01	 1.4833038021e+00
 1.1328221303e+00	 4.3022650000e-01	 1.3418160575e+00
 1.1287596897e+00	 4.4077472375e-01	 1.2258621769e+00
 1.1245907900e+00	 4.5130514094e-01	 1.1348254695e+00
 1.1203153826e+00	 4.6181620480e-01	 1.0678546645e+00
 1.1159334476e+00	 4.7230636194e-01	 1.0238655530e+00
 1.1114449944e+00	 4.8277405308e-01	 1.0015430469e+00
 1.1068500618e+00	 4.9321771364e-01	 9.9835321839e-01
 1.1021487181e+00	 5.0363577447e-01	 1.0111469385e+00
 1.0973410618e+00	 5.1402666250e-01	 1.0378879969e+00
 1.0924272212e+00	 5.2438880143e-01	 1.0764169344e+00
 1.1450552106e+00	 4.2271761990e-01	 1.4519945709e+00
 1.1410703473e+00	 4.3335903196e-01	 1.3189568278e+00
 1.1369783275e+00	 4.4398405862e-01	 1.2084078978e+00
 1.1327790736e+00	 4.5459114907e-01	 1.1197482831e+00
 1.1284725364e+00	 4.6517874528e-01	 1.0521280614e+00
 1.1240586961e+00	 4.7574528254e-01	 1.0044483319e+00
 1.1195375619e+00	 4.8628919022e-01	 9.7536310773e-01
 1.1149091730e+00	 4.9680889236e-01	 9.6328165741e-01
 1.1101735982e+00	 5.0730280837e-01	 9.6632459628e-01
 1.1053309367e+00	 5.1776935373e-01	 9.8079815277e-01
 1.1003813179e+00	 5.2820694066e-01	 1.0036042664e+00
 1.1533322321e+00	 4.2577323050e-01	 1.4259648707e+00
 1.1493185642e+00	 4.3649156392e-01	 1.3051297846e+00
 1.1451969654e+00	 4.4719339349e-01	 1.2023103751e+00
 1.1409673572e+00	 4.5787715720e-01	 1.1170811023e+00
 1.1366296903e+00	 4.6854128575e-01	 1.0487671013e+00
 1.1321839445e+00	 4.7918420314e-01	 9.9644542772e-01
 1.1276301293e+00	 4.8980432737e-01	 9.5894675637e-01
 1.1229682841e+00	 5.0040007108e-01	 9.3485753802e-01
 1.1181984783e+00	 5.1096984227e-01	 9.2252261367e-01
 1.1133208117e+00	 5.2151204496e-01	 9.2004828575e-01
 1.1083354146e+00	 5.3202507990e-01	 9.2491550980e-01
 1.1616092537e+00	 4.2882884110e-01	 1.4013822546e+00
 1.1575667812e+00	 4.3962409588e-01	 1.2952947318e+00
 1.1534156033e+00	 4.5040272836e-01	 1.2016443545e+00
 1.1491556408e+00	 4.6116316533e-01	 1.1203332139e+00
 1.1447868441e+00	 4.7190382623e-01	 1.0510318727e+00
 1.1403091929e+00	 4.8262312374e-01	 9.9318040477e-01
 1.1357226967e+00	 4.9331946451e-01	 9.4598987372e-01
 1.1310273953e+00	 5.0399124980e-01	 9.0844425458e-01
 1.1262233584e+00	 5.1463687617e-01	 8.7930279843e-01
 1.1213106867e+00	 5.2525473618e-01	 8.5710283940e-01
 1.1162895113e+00	 5.3584321913e-01	 8.4016303973e-01
 1.1698862752e+00	 4.3188445171e-01	 1.3745109598e+00
 1.1658149982e+00	 4.4275662783e-01	 1.2845414768e+00
 1.1616342411e+00	 4.5361206322e-01	 1.2006387924e+00
 1.1573439244e+00	 4.6444917346e-01	 1.1231832991e+00
 1.1529439979e+00	 4.7526636670e-01	 1.0523581127e+00
 1.1484344413e+00	 4.8606204434e-01	 9.8814990234e-01
 1.1438152642e+00	 4.9683460165e-01	 9.3035012162e-01
 1.1390865064e+00	 5.0758242851e-01	 8.7855664589e-01
 1.1342482385e+00	 5.1830391006e-01	 8.3217581519e-01
 1.1293005616e+00	 5.2899742741e-01	 7.9042488170e-01
 1.1242436080e+00	 5.3966135836e-01	 7.5233485764e-01
 1.1781632967e+00	 4.3494006231e-01	 1.3417081962e+00
 1.1740632152e+00	 4.4588915979e-01	 1.2680849700e+00
 1.1698528790e+00	 4.5682139809e-01	 1.1936711700e+00
 1.1655322079e+00	 4.6773518159e-01	 1.1194732399e+00
 1.1611011517e+00	 4.7862890718e-01	 1.0463508214e+00
 1.1565596897e+00	 4.8950096493e-01	 9.7501736820e-01
 1.1519078316e+00	 5.0034973879e-01	 9.0604110366e-01
 1.1471456176e+00	 5.1117360723e-01	 8.3984632399e-01
 1.1422731186e+00	 5.2197094396e-01	 7.7671504827e-01
 1.1372904366e+00	 5.3274011864e-01	 7.1678901222e-01
 1.1321977046e+00	 5.4347949760e-01	 6.6007200158e-01
 1.1864403182e+00	 4.3799567291e-01	 1.2994206114e+00
 1.1823114322e+00	 4.4902169174e-01	 1.2412606724e+00
 1.1780715168e+00	 4.6003073296e-01	 1.1752620692e+00
 1.1737204915e+00	 4.7102118972e-01	 1.1032022100e+00
 1.1692583055e+00	 4.8199144765e-01	 1.0267781698e+00
 1.1646849381e+00	 4.9293988553e-01	 9.4760708293e-01
 1.1600003990e+00	 5.0386487593e-01	 8.6722680053e-01
 1.1552047288e+00	 5.1476478594e-01	 7.8709681144e-01
 1.1502979987e+00	 5.2563797785e-01	 7.0859942800e-01
 1.1452803116e+00	 5.3648280987e-01	 6.3304123287e-01
 1.1401518013e+00	 5.4729763683e-01	 5.6165478201e-01
 1.0606108344e+00	 5.0911624449e-01	 1.3419947599e+00
 1.0557380065e+00	 5.1914544421e-01	 1.4039517195e+00
 1.0507624590e+00	 5.2914367498e-01	 1.4694387639e+00
 1.0456844044e+00	 5.3910940138e-01	 1.5374169361e+00
 1.0405040854e+00	 5.4904108763e-01	 1.6069965112e+00
 1.0352217745e+00	 5.5893719829e-01	 1.6774371617e+00
 1.0298377741e+00	 5.6879619897e-01	 1.7481472342e+00
 1.0243524169e+00	 5.7861655706e-01	 1.8186821459e+00
 1.0187660660e+00	 5.8839674247e-01	 1.8887419106e+00
 1.0130791144e+00	 5.9813522833e-01	 1.9581678124e+00
 1.0072919856e+00	 6.0783049177e-01	 2.0269382493e+00
 1.0685649311e+00	 5.1293438373e-01	 1.2759580986e+00
 1.0636555592e+00	 5.2303879786e-01	 1.3456574168e+00
 1.0586426973e+00	 5.3311201079e-01	 1.4188727306e+00
 1.0535265597e+00	 5.4315247558e-01	 1.4949063040e+00
 1.0483073907e+00	 5.5315864495e-01	 1.5732540961e+00
 1.0429854648e+00	 5.6312897191e-01	 1.6536055548e+00
 1.0375610869e+00	 5.7306191059e-01	 1.7358424191e+00
 1.0320345921e+00	 5.8295591688e-01	 1.8200365394e+00
 1.0264063461e+00	 5.9280944921e-01	 1.9064467252e+00
 1.0206767449e+00	 6.0262096927e-01	 1.9955146400e+00
 1.0148462152e+00	 6.1238894276e-01	 2.0878597677e+00
 1.0765190278e+00	 5.1675252296e-01	 1.2108855754e+00
 1.0715731119e+00	 5.2693215151e-01	 1.2798095528e+00
 1.0665229357e+00	 5.3708034660e-01	 1.3535191422e+00
 1.0613687150e+00	 5.4719554979e-01	 1.4314579544e+00
 1.0561106960e+00	 5.5727620226e-01	 1.5132988588e+00
 1.0507491551e+00	 5.6732074554e-01	 1.5989436025e+00
 1.0452843996e+00	 5.7732762222e-01	 1.6885213490e+00
 1.0397167672e+00	 5.8729527671e-01	 1.7823861442e+00
 1.0340466261e+00	 5.9722215596e-01	 1.8811133212e+00
 1.0282743755e+00	 6.0710671021e-01	 1.9854948654e+00
 1.0224004449e+00	 6.1694739375e-01	 2.0965337637e+00
 1.0844731245e+00	 5.2057066219e-01	 1.1449536812e+00
 1.0794906646e+00	 5.3082550516e-01	 1.2064578414e+00
 1.0744031741e+00	 5.4104868241e-01	 1.2751260746e+00
 1.0692108703e+00	 5.5123862400e-01	 1.3503483058e+00
 1.0639140012e+00	 5.6139375958e-01	 1.4317705408e+00
 1.0585128455e+00	 5.7151251916e-01	 1.5192945050e+00
 1.0530077124e+00	 5.8159333384e-01	 1.6130761245e+00
 1.0473989423e+00	 5.9163463653e-01	 1.7135228569e+00
 1.0416869062e+00	 6.0163486271e-01	 1.8212898863e+00
 1.0358720060e+00	 6.1159245116e-01	 1.9372752013e+00
 1.0299546746e+00	 6.2150584473e-01	 2.0626135844e+00
 1.0924272212e+00	 5.2438880143e-01	 1.0764169344e+00
 1.0874082173e+00	 5.3471885881e-01	 1.1256744167e+00
 1.0822834125e+00	 5.4501701823e-01	 1.1854133830e+00
 1.0770530256e+00	 5.5528169821e-01	 1.2547797470e+00
 1.0717173065e+00	 5.6551131690e-01	 1.3331937383e+00
 1.0662765358e+00	 5.7570429279e-01	 1.4203497513e+00
 1.0607310252e+00	 5.8585904547e-01	 1.5162149725e+00
 1.0550811174e+00	 5.9597399636e-01	 1.6210267924e+00
 1.0493271862e+00	 6.0604756945e-01	 1.7352890179e+00
 1.0434696365e+00	 6.1607819210e-01	 1.8597669046e+00
 1.0375089043e+00	 6.2606429572e-01	 1.9954810376e+00
 1.1003813179e+00	 5.2820694066e-01	 1.0036042664e+00
 1.0953257700e+00	 5.3861221246e-01	 1.0375521205e+00
 1.0901636508e+00	 5.4898535404e-01	 1.0860727085e+00
 1.0848951808e+00	 5.5932477241e-01	 1.1478821851e+00
 1.0795206117e+00	 5.6962887421e-01	 1.2219808185e+00
 1.0740402261e+00	 5.7989606642e-01	 1.3076532380e+00
 1.0684543380e+00	 5.9012475710e-01	 1.4044674071e+00
 1.0627632926e+00	 6.0031335618e-01	 1.5122723303e+00
 1.0569674662e+00	 6.1046027620e-01	 1.6311945065e+00
 1.0510672670e+00	 6.2056393304e-01	 1.7616331521e+00
 1.0450631340e+00	 6.3062274671e-01	 1.9042542227e+00
 1.1083354146e+00	 5.3202507990e-01	 9.2491550980e-01
 1.1032433227e+00	 5.4250556611e-01	 9.4220280650e-01
 1.0980438892e+00	 5.5295368985e-01	 9.7876742481e-01
 1.0927373361e+00	 5.6336784662e-01	 1.0327144649e+00
 1.0873239170e+00	 5.7374643153e-01	 1.1024346475e+00
 1.0818039165e+00	 5.8408784004e-01	 1.1866051452e+00
 1.0761776508e+00	 5.9439046872e-01	 1.2841890994e+00
 1.0704454677e+00	 6.0465271601e-01	 1.3944338300e+00
 1.0646077463e+00	 6.1487298295e-01	 1.5168677520e+00
 1.0586648975e+00	 6.2504967398e-01	 1.6512960224e+00
 1.0526173637e+00	 6.3518119770e-01	 1.7977949455e+00
 1.1162895113e+00	 5.3584321913e-01	 8.4016303973e-01
 1.1111608755e+00	 5.4639891976e-01	 8.3975581040e-01
 1.1059241276e+00	 5.5692202566e-01	 8.6513253002e-01
 1.1005794914e+00	 5.6741092083e-01	 9.1226566761e-01
 1.0951272222e+00	 5.7786398885e-01	 9.7875113800e-01
 1.0895676068e+00	 5.8827961367e-01	 1.0624655816e+00
 1.0839009636e+00	 5.9865618035e-01	 1.1615664711e+00
 1.0781276428e+00	 6.0899207584e-01	 1.2744910310e+00
 1.0722480263e+00	 6.1928568970e-01	 1.3999538346e+00
 1.0662625280e+00	 6.2953541493e-01	 1.5369431035e+00
 1.0601715933e+00	 6.3973964869e-01	 1.6847157385e+00
 1.1242436080e+00	 5.3966135836e-01	 7.5233485764e-01
 1.1190784282e+00	 5.5029227341e-01	 7.3336633465e-01
 1.1138043659e+00	 5.6089036148e-01	 7.4710445709e-01
 1.1084216467e+00	 5.7145399504e-01	 7.8945629448e-01
 1.1029305275e+00	 5.8198154616e-01	 8.5502162719e-01
 1.0973312972e+00	 5.9247138729e-01	 9.4035800910e-01
 1.0916242764e+00	 6.0292189198e-01	 1.0426210259e+00
 1.0858098179e+00	 6.1333143566e-01	 1.1592341539e+00
 1.0798883064e+00	 6.2369839645e-01	 1.2878872535e+00
 1.0738601585e+00	 6.3402115587e-01	 1.4265337458e+00
 1.0677258230e+00	 6.4429809968e-01	 1.5733865053e+00
 1.1321977046e+00	 5.4347949760e-01	 6.6007200158e-01
 1.1269959809e+00	 5.5418562706e-01	 6.2586780070e-01
 1.1216846043e+00	 5.6485869729e-01	 6.3021759714e-01
 1.1162638020e+00	 5.7549706924e-01	 6.6825266900e-01
 1.1107338328e+00	 5.8609910348e-01	 7.3523509143e-01
 1.1050949875e+00	 5.9666316092e-01	 8.2527245925e-01
 1.0993475892e+00	 6.0718760360e-01	 9.3321343078e-01
 1.0934919930e+00	 6.1767079548e-01	 1.0552687173e+00
 1.0875285864e+00	 6.2811110319e-01	 1.1878973537e+00
 1.0814577890e+00	 6.3850689681e-01	 1.3278049762e+00
 1.0752800527e+00	 6.4885655067e-01	 1.4719408086e+00
 1.1401518013e+00	 5.4729763683e-01	 5.6165478201e-01
 1.1349135336e+00	 5.5807898070e-01	 5.1703472772e-01
 1.1295648427e+00	 5.6882703310e-01	 5.1684441463e-01
 1.1241059573e+00	 5.7954014345e-01	 5.5496590024e-01
 1.1185371380e+00	 5.9021666079e-01	 6.2537946396e-01
 1.1128586778e+00	 6.0085493454e-01	 7.2217695406e-01
 1.1070709020e+00	 6.1145331523e-01	 8.3904736109e-01
 1.1011741682e+00	 6.2201015531e-01	 9.6902008353e-01
 1.0951688665e+00	 6.3252380994e-01	 1.1070134528e+00
 1.0890554195e+00	 6.4299263775e-01	 1.2482770910e+00
 1.0828342824e+00	 6.5341500165e-01	 1.3882818178e+00
 1.0072919856e+00	 6.0783049177e-01	 2.0269382493e+00
 1.0014051333e+00	 6.1748101481e-01	 2.0851152262e+00
 9.9541904256e-01	 6.2708528571e-01	 2.1232323758e+00
 9.8933422885e-01	 6.3664179916e-01	 2.1420067387e+00
 9.8315123760e-01	 6.4614905681e-01	 2.1420558745e+00
 9.7687064424e-01	 6.5560556802e-01	 2.1238877808e+00
 9.7049305402e-01	 6.6500985064e-01	 2.0878905133e+00
 9.6401910192e-01	 6.7436043167e-01	 2.0343215694e+00
 9.5744945241e-01	 6.8365584808e-01	 1.9632971014e+00
 9.5078479937e-01	 6.9289464749e-01	 1.8747810279e+00
 9.4402586576e-01	 7.0207538890e-01	 1.7685741153e+00
 1.0148462152e+00	 6.1238894276e-01	 2.0878597677e+00
 1.0089152142e+00	 6.2211184031e-01	 2.1718330665e+00
 1.0028842306e+00	 6.3178813886e-01	 2.2348120130e+00
 9.9675378356e-01	 6.4141632179e-01	 2.2760680249e+00
 9.9052442270e-01	 6.5099487952e-01	 2.2948427213e+00
 9.8419672776e-01	 6.6052231025e-01	 2.2903398595e+00
 9.7777130853e-01	 6.6999712069e-01	 2.2617168712e+00
 9.7124880474e-01	 6.7941782681e-01	 2.2080760573e+00
 9.6462988587e-01	 6.8878295460e-01	 2.1284555066e+00
 9.5791525097e-01	 6.9809104078e-01	 2.0218198071e+00
 9.5110562845e-01	 7.0734063356e-01	 1.8870506182e+00
 1.0224004449e+00	 6.1694739375e-01	 2.0965337637e+00
 1.0164252952e+00	 6.2674266581e-01	 2.2010750120e+00
 1.0103494186e+00	 6.3649099200e-01	 2.2840853843e+00
 1.0041733383e+00	 6.4619084442e-01	 2.3439286958e+00
 9.9789760780e-01	 6.5584070224e-01	 2.3789953264e+00
 9.9152281128e-01	 6.6543905249e-01	 2.3876953196e+00
 9.8504956304e-01	 6.7498439075e-01	 2.3684509872e+00
 9.7847850757e-01	 6.8447522195e-01	 2.3196890841e+00
 9.7181031933e-01	 6.9391006112e-01	 2.2398326157e+00
 9.6504570257e-01	 7.0328743407e-01	 2.1272923466e+00
 9.5818539114e-01	 7.1260587821e-01	 1.9804580834e+00
 1.0299546746e+00	 6.2150584473e-01	 2.0626135844e+00
 1.0239353762e+00	 6.3137349132e-01	 2.1827658667e+00
 1.0178146067e+00	 6.4119384515e-01	 2.2809382218e+00
 1.0115928930e+00	 6.5096536705e-01	 2.3551129071e+00
 1.0052707929e+00	 6.6068652496e-01	 2.4033419942e+00
 9.9884889480e-01	 6.7035579472e-01	 2.4237407793e+00
 9.9232781755e-01	 6.7997166080e-01	 2.4144806230e+00
 9.8570821039e-01	 6.8953261710e-01	 2.3737812795e+00
 9.7899075278e-01	 6.9903716763e-01	 2.2999027851e+00
 9.7217615418e-01	 7.0848382736e-01	 2.1911369739e+00
 9.6526515383e-01	 7.1787112287e-01	 2.0457986964e+00
 1.0375089043e+00	 6.2606429572e-01	 1.9954810376e+00
 1.0314454572e+00	 6.3600431682e-01	 2.1265490301e+00
 1.0252797947e+00	 6.4589669830e-01	 2.2349739940e+00
 1.0190124477e+00	 6.5573988968e-01	 2.3188710597e+00
 1.0126439780e+00	 6.6553234768e-01	 2.3764555037e+00
 1.0061749783e+00	 6.7527253695e-01	 2.4060356327e+00
 9.9960607206e-01	 6.8495893086e-01	 2.4060050291e+00
 9.9293791322e-01	 6.9459001224e-01	 2.3748342231e+00
 9.8617118624e-01	 7.0416427415e-01	 2.3110618612e+00
 9.7930660578e-01	 7.1368022065e-01	 2.2132854457e+00
 9.7234491652e-01	 7.2313636753e-01	 2.0801517236e+00
 1.0450631340e+00	 6.3062274671e-01	 1.9042542227e+00
 1.0389555382e+00	 6.4063514232e-01	 2.0417945582e+00
 1.0327449827e+00	 6.5059955144e-01	 2.1555218720e+00
 1.0264320024e+00	 6.6051441231e-01	 2.2441873316e+00
 1.0200171631e+00	 6.7037817040e-01	 2.3066598569e+00
 1.0135010618e+00	 6.8018927919e-01	 2.3419176489e+00
 1.0068843266e+00	 6.8994620092e-01	 2.3490390224e+00
 1.0001676160e+00	 6.9964740738e-01	 2.3271926141e+00
 9.9335161969e-01	 7.0929138067e-01	 2.2756270415e+00
 9.8643705738e-01	 7.1887661395e-01	 2.1936600907e+00
 9.7942467921e-01	 7.2840161219e-01	 2.0806675184e+00
 1.0526173637e+00	 6.3518119770e-01	 1.7977949455e+00
 1.0464656191e+00	 6.4526596782e-01	 1.9376067959e+00
 1.0402101708e+00	 6.5530240459e-01	 2.0516442680e+00
 1.0338515571e+00	 6.6528893494e-01	 2.1397867988e+00
 1.0273903482e+00	 6.7522399312e-01	 2.2020366464e+00
 1.0208271454e+00	 6.8510602142e-01	 2.2385082406e+00
 1.0141625811e+00	 6.9493347097e-01	 2.2494167942e+00
 1.0073973189e+00	 7.0470480252e-01	 2.2350662493e+00
 1.0005320531e+00	 7.1441848719e-01	 2.1958366430e+00
 9.9356750898e-01	 7.2407300724e-01	 2.1321709773e+00
 9.8650444190e-01	 7.3366685685e-01	 2.0445616836e+00
 1.0601715933e+00	 6.3973964869e-01	 1.6847157385e+00
 1.0539757001e+00	 6.4989679333e-01	 1.8228316034e+00
 1.0476753588e+00	 6.6000525774e-01	 1.9321439691e+00
 1.0412711118e+00	 6.7006345757e-01	 2.0141421675e+00
 1.0347635333e+00	 6.8006981584e-01	 2.0704310635e+00
 1.0281532289e+00	 6.9002276365e-01	 2.1027174160e+00
 1.0214408356e+00	 6.9992074103e-01	 2.1127954640e+00
 1.0146270217e+00	 7.0976219767e-01	 2.1025318234e+00
 1.0077124866e+00	 7.1954559371e-01	 2.0738497839e+00
 1.0006979606e+00	 7.2926940053e-01	 2.0287131007e+00
 9.9358420459e-01	 7.3893210151e-01	 1.9691093802e+00
 1.0677258230e+00	 6.4429809968e-01	 1.5733865053e+00
 1.0614857811e+00	 6.5452761883e-01	 1.7060631953e+00
 1.0551405468e+00	 6.6470811088e-01	 1.8055708860e+00
 1.0486906665e+00	 6.7483798021e-01	 1.8754801346e+00
 1.0421367184e+00	 6.8491563856e-01	 1.9194575647e+00
 1.0354793124e+00	 6.9493950589e-01	 1.9412484313e+00
 1.0287190901e+00	 7.0490801109e-01	 1.9446583893e+00
 1.0218567245e+00	 7.1481959281e-01	 1.9335345578e+00
 1.0148929201e+00	 7.2467270023e-01	 1.9117459814e+00
 1.0078284122e+00	 7.3446579383e-01	 1.8831635915e+00
 1.0006639673e+00	 7.4419734617e-01	 1.8513704962e+00
 1.0752800527e+00	 6.4885655067e-01	 1.4719408086e+00
 1.0689958621e+00	 6.5915844433e-01	 1.5956506121e+00
 1.0626057349e+00	 6.6941096403e-01	 1.6802284345e+00
 1.0561102212e+00	 6.7961250284e-01	 1.7317873963e+00
 1.0495099035e+00	 6.8976146128e-01	 1.7565052111e+00
 1.0428053959e+00	 6.9985624812e-01	 1.7606021578e+00
 1.0359973446e+00	 7.0989528114e-01	 1.7503182445e+00
 1.0290864273e+00	 7.1987698795e-01	 1.7318896664e+00
 1.0220733535e+00	 7.2979980674e-01	 1.7115246710e+00
 1.0149588638e+00	 7.3966218712e-01	 1.6953789439e+00
 1.0077437300e+00	 7.4946259082e-01	 1.6877419070e+00
 1.0828342824e+00	 6.5341500165e-01	 1.3882818178e+00
 1.0765059431e+00	 6.6378926983e-01	 1.4997038427e+00
 1.0700709229e+00	 6.7411381717e-01	 1.5641795699e+00
 1.0635297760e+00	 6.8438702546e-01	 1.5908163216e+00
 1.0568830886e+00	 6.9460728400e-01	 1.5887426999e+00
 1.0501314794e+00	 7.0477299035e-01	 1.5670811784e+00
 1.0432755991e+00	 7.1488255120e-01	 1.5349198812e+00
 1.0363161302e+00	 7.2493438309e-01	 1.5012836683e+00
 1.0292537870e+00	 7.3492691326e-01	 1.4751046503e+00
 1.0220893154e+00	 7.4485858041e-01	 1.4647995034e+00
 1.0148234927e+00	 7.5472783548e-01	 1.4753859738e+00
 9.4402586576e-01	 7.0207538890e-01	 1.7685741153e+00
 9.3717223126e-01	 7.1119818816e-01	 1.6655366285e+00
 9.3022582114e-01	 7.2026005839e-01	 1.5856587968e+00
 9.2318744869e-01	 7.2925959118e-01	 1.5272936428e+00
 9.1605795531e-01	 7.3819539237e-01	 1.4888485857e+00
 9.0883821025e-01	 7.4706608275e-01	 1.4680233563e+00
 9.0152911022e-01	 7.5587029875e-01	 1.4609560355e+00
 8.9413157908e-01	 7.6460669316e-01	 1.4655111369e+00
 8.8664656745e-01	 7.7327393573e-01	 1.4797738952e+00
 8.7907505228e-01	 7.8187071391e-01	 1.5019479640e+00
 8.7141803647e-01	 7.9039573348e-01	 1.5303615807e+00
 9.5110562845e-01	 7.0734063356e-01	 1.8870506182e+00
 9.4420059482e-01	 7.1653184964e-01	 1.7464619347e+00
 9.3720208980e-01	 7.2566167976e-01	 1.6241915608e+00
 9.3011093277e-01	 7.3472870493e-01	 1.5216650258e+00
 9.2292797145e-01	 7.4373152055e-01	 1.4400629634e+00
 9.1565408160e-01	 7.5266873705e-01	 1.3782703689e+00
 9.0829016666e-01	 7.6153898066e-01	 1.3362141811e+00
 9.0083715742e-01	 7.7034089403e-01	 1.3144016481e+00
 8.9329601162e-01	 7.7907313695e-01	 1.3133081590e+00
 8.8566771354e-01	 7.8773438705e-01	 1.3333797462e+00
 8.7795327362e-01	 7.9632334037e-01	 1.3750357331e+00
 9.5818539114e-01	 7.1260587821e-01	 1.9804580834e+00
 9.5122895838e-01	 7.2186551113e-01	 1.8214386687e+00
 9.4417835846e-01	 7.3106330113e-01	 1.6759488020e+00
 9.3703441686e-01	 7.4019781868e-01	 1.5475627260e+00
 9.2979798759e-01	 7.4926764873e-01	 1.4381977296e+00
 9.2246995295e-01	 7.5827139136e-01	 1.3487996376e+00
 9.1505122310e-01	 7.6720766256e-01	 1.2817458397e+00
 9.0754273576e-01	 7.7607509490e-01	 1.2392775657e+00
 8.9994545579e-01	 7.8487233818e-01	 1.2234946894e+00
 8.9226037481e-01	 7.9359806018e-01	 1.2363557055e+00
 8.8448851077e-01	 8.0225094726e-01	 1.2796780049e+00
 9.6526515383e-01	 7.1787112287e-01	 2.0457986964e+00
 9.5825732195e-01	 7.2719917261e-01	 1.8846308794e+00
 9.5115462712e-01	 7.3646492250e-01	 1.7328739942e+00
 9.4395790094e-01	 7.4566693244e-01	 1.5948505800e+00
 9.3666800373e-01	 7.5480377691e-01	 1.4723000378e+00
 9.2928582430e-01	 7.6387404566e-01	 1.3685086159e+00
 9.2181227954e-01	 7.7287634446e-01	 1.2868842782e+00
 9.1424831410e-01	 7.8180929577e-01	 1.2306199882e+00
 9.0659489996e-01	 7.9067153941e-01	 1.2026919129e+00
 8.9885303607e-01	 7.9946173332e-01	 1.2058580495e+00
 8.9102374791e-01	 8.0817855415e-01	 1.2426572583e+00
 9.7234491652e-01	 7.2313636753e-01	 2.0801517236e+00
 9.6528568551e-01	 7.3253283410e-01	 1.9303605668e+00
 9.5813089578e-01	 7.4186654387e-01	 1.7871046079e+00
 9.5088138502e-01	 7.5113604620e-01	 1.6532878568e+00
 9.4353801987e-01	 7.6033990509e-01	 1.5318225770e+00
 9.3610169565e-01	 7.6947669997e-01	 1.4265993735e+00
 9.2857333598e-01	 7.7854502637e-01	 1.3412547785e+00
 9.2095389243e-01	 7.8754349664e-01	 1.2791686989e+00
 9.1324434413e-01	 7.9647074064e-01	 1.2434623683e+00
 9.0544569734e-01	 8.0532540646e-01	 1.2369967864e+00
 8.9755898506e-01	 8.1410616104e-01	 1.2623716249e+00
 9.7942467921e-01	 7.2840161219e-01	 2.0806675184e+00
 9.7231404907e-01	 7.3786649558e-01	 1.9530986543e+00
 9.6510716444e-01	 7.4726816524e-01	 1.8301712806e+00
 9.5780486910e-01	 7.5660515995e-01	 1.7134889345e+00
 9.5040803601e-01	 7.6587603327e-01	 1.6065043722e+00
 9.4291756700e-01	 7.7507935428e-01	 1.5125676725e+00
 9.3533439242e-01	 7.8421370827e-01	 1.4347641982e+00
 9.2765947077e-01	 7.9327769751e-01	 1.3759129583e+00
 9.1989378830e-01	 8.0226994187e-01	 1.3385654992e+00
 9.1203835861e-01	 8.1118907960e-01	 1.3250053025e+00
 9.0409422220e-01	 8.2003376793e-01	 1.3372476685e+00
 9.8650444190e-01	 7.3366685685e-01	 2.0445616836e+00
 9.7934241263e-01	 7.4320015707e-01	 1.9473246125e+00
 9.7208343310e-01	 7.5266978661e-01	 1.8540656706e+00
 9.6472835319e-01	 7.6207427371e-01	 1.7663238075e+00
 9.5727805215e-01	 7.7141216145e-01	 1.6863606034e+00
 9.4973343835e-01	 7.8068200858e-01	 1.6161925520e+00
 9.4209544886e-01	 7.8988239018e-01	 1.5575910189e+00
 9.3436504911e-01	 7.9901189838e-01	 1.5120827342e+00
 9.2654323247e-01	 8.0806914310e-01	 1.4809507977e+00
 9.1863101987e-01	 8.1705275274e-01	 1.4652361708e+00
 9.1062945935e-01	 8.2596137482e-01	 1.4657396272e+00
 9.9358420459e-01	 7.3893210151e-01	 1.9691093802e+00
 9.8637077619e-01	 7.4853381855e-01	 1.9067965284e+00
 9.7905970176e-01	 7.5807140798e-01	 1.8513141973e+00
 9.7165183727e-01	 7.6754338746e-01	 1.8029043964e+00
 9.6414806829e-01	 7.7694828963e-01	 1.7616728967e+00
 9.5654930970e-01	 7.8628466289e-01	 1.7275263969e+00
 9.4885650530e-01	 7.9555107208e-01	 1.7001758614e+00
 9.4107062744e-01	 8.0474609925e-01	 1.6791403467e+00
 9.3319267664e-01	 8.1386834433e-01	 1.6637512830e+00
 9.2522368114e-01	 8.2291642587e-01	 1.6531571812e+00
 9.1716469649e-01	 8.3188898171e-01	 1.6463287296e+00
 1.0006639673e+00	 7.4419734617e-01	 1.8513704962e+00
 9.9339913975e-01	 7.5386748004e-01	 1.8259994848e+00
 9.8603597042e-01	 7.6347302936e-01	 1.8146365799e+00
 9.7857532135e-01	 7.7301250122e-01	 1.8145761242e+00
 9.7101808443e-01	 7.8248441782e-01	 1.8229800666e+00
 9.6336518105e-01	 7.9188731720e-01	 1.8368854671e+00
 9.5561756174e-01	 8.0121975398e-01	 1.8532124413e+00
 9.4777620578e-01	 8.1048030012e-01	 1.8687725076e+00
 9.3984212081e-01	 8.1966754556e-01	 1.8802772964e+00
 9.3181634240e-01	 8.2878009901e-01	 1.8843475802e+00
 9.2369993364e-01	 8.3781658860e-01	 1.8775225817e+00
 1.0077437300e+00	 7.4946259082e-01	 1.6877419070e+00
 1.0004275033e+00	 7.5920114152e-01	 1.6997107779e+00
 9.9301223908e-01	 7.6887465073e-01	 1.7369391844e+00
 9.8549880543e-01	 7.7848161497e-01	 1.7929098853e+00
 9.7788810057e-01	 7.8802054600e-01	 1.8610692844e+00
 9.7018105241e-01	 7.9748997150e-01	 1.9348408635e+00
 9.6237861818e-01	 8.0688843589e-01	 2.0076389448e+00
 9.5448178412e-01	 8.1621450099e-01	 2.0728827353e+00
 9.4649156497e-01	 8.2546674679e-01	 2.1240105994e+00
 9.3840900366e-01	 8.3464377215e-01	 2.1544945099e+00
 9.3023517078e-01	 8.4374419549e-01	 2.1578546219e+00
 1.0148234927e+00	 7.5472783548e-01	 1.4753859738e+00
 1.0074558669e+00	 7.6453480300e-01	 1.5228355848e+00
 9.9998850774e-01	 7.7427627210e-01	 1.6113086860e+00
 9.9242228952e-01	 7.8395072873e-01	 1.7296943868e+00
 9.8475811671e-01	 7.9355667418e-01	 1.8669676550e+00
 9.7699692376e-01	 8.0309262581e-01	 2.0122099106e+00
 9.6913967462e-01	 8.1255711779e-01	 2.1546298053e+00
 9.6118736245e-01	 8.2194870185e-01	 2.2835841260e+00
 9.5314100914e-01	 8.3126594802e-01	 2.3885987573e+00
 9.4500166493e-01	 8.4050744529e-01	 2.4593896371e+00
 9.3677040792e-01	 8.4967180238e-01	 2.4858836391e+00
 8.7141803647e-01	 7.9039573348e-01	 1.5303615807e+00
 8.6367786918e-01	 7.9884629108e-01	 1.5504893776e+00
 8.5585429751e-01	 8.0722259840e-01	 1.5487334633e+00
 8.4794838516e-01	 8.1552343441e-01	 1.5248102203e+00
 8.3996121988e-01	 8.2374759889e-01	 1.4783259382e+00
 8.3189391300e-01	 8.3189391300e-01	 1.4087799225e+00
 8.2374759889e-01	 8.3996121988e-01	 1.3155677484e+00
 8.1552343441e-01	 8.4794838516e-01	 1.1979846344e+00
 8.0722259840e-01	 8.5585429751e-01	 1.0552289114e+00
 7.9884629108e-01	 8.6367786918e-01	 8.8640556607e-01
 7.9039573348e-01	 8.7141803647e-01	 6.9052983299e-01
 8.7795327362e-01	 7.9632334037e-01	 1.3750357331e+00
 8.7015505860e-01	 8.0483727329e-01	 1.4235728858e+00
 8.6227281372e-01	 8.1327639909e-01	 1.4615745180e+00
 8.5430761064e-01	 8.2163948758e-01	 1.4853469118e+00
 8.4626054528e-01	 8.2992532953e-01	 1.4912058212e+00
 8.3813273728e-01	 8.3813273728e-01	 1.4754844178e+00
 8.2992532953e-01	 8.4626054528e-01	 1.4345412013e+00
 8.2163948758e-01	 8.5430761064e-01	 1.3647678405e+00
 8.1327639909e-01	 8.6227281372e-01	 1.2625969149e+00
 8.0483727329e-01	 8.7015505860e-01	 1.1245095235e+00
 7.9632334037e-01	 8.7795327362e-01	 9.4704273176e-01
 8.8448851077e-01	 8.0225094726e-01	 1.2796780049e+00
 8.7663224803e-01	 8.1082825550e-01	 1.3405472825e+00
 8.6869132994e-01	 8.1933019978e-01	 1.4007762404e+00
 8.6066683613e-01	 8.2775554074e-01	 1.4542064950e+00
 8.5255987067e-01	 8.3610306017e-01	 1.4947815046e+00
 8.4437156156e-01	 8.4437156156e-01	 1.5165581062e+00
 8.3610306017e-01	 8.5255987067e-01	 1.5137178774e+00
 8.2775554074e-01	 8.6066683613e-01	 1.4805782824e+00
 8.1933019978e-01	 8.6869132994e-01	 1.4116035638e+00
 8.1082825550e-01	 8.7663224803e-01	 1.3014153440e+00
 8.0225094726e-01	 8.8448851077e-01	 1.1448028977e+00
 8.9102374791e-01	 8.0817855415e-01	 1.2426572583e+00
 8.8310943746e-01	 8.1681923771e-01	 1.3032932612e+00
 8.7510984615e-01	 8.2538400047e-01	 1.3711958656e+00
 8.6702606161e-01	 8.3387159391e-01	 1.4386676995e+00
 8.5885919606e-01	 8.4228079082e-01	 1.4981788325e+00
 8.5061038584e-01	 8.5061038584e-01	 1.5423806758e+00
 8.4228079082e-01	 8.5885919606e-01	 1.5641196052e+00
 8.3387159391e-01	 8.6702606161e-01	 1.5564502633e+00
 8.2538400047e-01	 8.7510984615e-01	 1.5126484968e+00
 8.1681923771e-01	 8.8310943746e-01	 1.4262238883e+00
 8.0817855415e-01	 8.9102374791e-01	 1.2909318410e+00
 8.9755898506e-01	 8.1410616104e-01	 1.2623716249e+00
 8.8958662689e-01	 8.2281021992e-01	 1.3136186024e+00
 8.8152836237e-01	 8.3143780115e-01	 1.3775311156e+00
 8.7338528709e-01	 8.3998764708e-01	 1.4457792954e+00
 8.6515852146e-01	 8.4845852146e-01	 1.5102399584e+00
 8.5684921011e-01	 8.5684921011e-01	 1.5630116551e+00
 8.4845852146e-01	 8.6515852146e-01	 1.5964293810e+00
 8.3998764708e-01	 8.7338528709e-01	 1.6030788997e+00
 8.3143780115e-01	 8.8152836237e-01	 1.5758106352e+00
 8.2281021992e-01	 8.8958662689e-01	 1.5077530863e+00
 8.1410616104e-01	 8.9755898506e-01	 1.3923257222e+00
 9.0409422220e-01	 8.2003376793e-01	 1.3372476685e+00
 8.9606381631e-01	 8.2880120213e-01	 1.3732610537e+00
 8.8794687858e-01	 8.3749160184e-01	 1.4243262312e+00
 8.7974451258e-01	 8.4610370024e-01	 1.4823686933e+00
 8.7145784685e-01	 8.5463625210e-01	 1.5395339061e+00
 8.6308803439e-01	 8.6308803439e-01	 1.5882023101e+00
 8.5463625210e-01	 8.7145784685e-01	 1.6210039571e+00
 8.4610370024e-01	 8.7974451258e-01	 1.6308327366e+00
 8.3749160184e-01	 8.8794687858e-01	 1.6108601433e+00
 8.2880120213e-01	 8.9606381631e-01	 1.5545485419e+00
 8.2003376793e-01	 9.0409422220e-01	 1.4556638839e+00
 9.1062945935e-01	 8.2596137482e-01	 1.4657396272e+00
 9.0254100574e-01	 8.3479218434e-01	 1.4838911289e+00
 8.9436539479e-01	 8.4354540253e-01	 1.5159777890e+00
 8.8610373806e-01	 8.5221975341e-01	 1.5550502172e+00
 8.7775717224e-01	 8.6081398275e-01	 1.5943667210e+00
 8.6932685867e-01	 8.6932685867e-01	 1.6274070738e+00
 8.6081398275e-01	 8.7775717224e-01	 1.6478859333e+00
 8.5221975341e-01	 8.8610373806e-01	 1.6497658645e+00
 8.4354540253e-01	 8.9436539479e-01	 1.6272699190e+00
 8.3479218434e-01	 9.0254100574e-01	 1.5748937274e+00
 8.2596137482e-01	 9.1062945935e-01	 1.4874170624e+00
 9.1716469649e-01	 8.3188898171e-01	 1.6463287296e+00
 9.0901819517e-01	 8.4078316656e-01	 1.6471148305e+00
 9.0078391101e-01	 8.4959920322e-01	 1.6567403118e+00
 8.9246296354e-01	 8.5833580657e-01	 1.6702330685e+00
 8.8405649763e-01	 8.6699171339e-01	 1.6827912309e+00
 8.7556568294e-01	 8.7556568294e-01	 1.6897945320e+00
 8.6699171339e-01	 8.8405649763e-01	 1.6868153762e+00
 8.5833580657e-01	 8.9246296354e-01	 1.6696295656e+00
 8.4959920322e-01	 9.0078391101e-01	 1.6342266399e+00
 8.4078316656e-01	 9.0901819517e-01	 1.5768197886e+00
 8.3188898171e-01	 9.1716469649e-01	 1.4938552946e+00
 9.2369993364e-01	 8.3781658860e-01	 1.8775225817e+00
 9.1549538459e-01	 8.4677414877e-01	 1.8644762984e+00
 9.0720242722e-01	 8.5565300391e-01	 1.8507316853e+00
 8.9882218902e-01	 8.6445185974e-01	 1.8341289952e+00
 8.9035582303e-01	 8.7316944403e-01	 1.8126164373e+00
 8.8180450722e-01	 8.8180450722e-01	 1.7842579877e+00
 8.7316944403e-01	 8.9035582303e-01	 1.7472409907e+00
 8.6445185974e-01	 8.9882218902e-01	 1.6998835091e+00
 8.5565300391e-01	 9.0720242722e-01	 1.6406413858e+00
 8.4677414877e-01	 9.1549538459e-01	 1.5681149792e+00
 8.3781658860e-01	 9.2369993364e-01	 1.4810555354e+00
 9.3023517078e-01	 8.4374419549e-01	 2.1578546219e+00
 9.2197257402e-01	 8.5276513098e-01	 2.1374603901e+00
 9.1362094343e-01	 8.6170680460e-01	 2.1019383876e+00
 9.0518141451e-01	 8.7056791291e-01	 2.0527596809e+00
 8.9665514842e-01	 8.7934717467e-01	 1.9914165544e+00
 8.8804333150e-01	 8.8804333150e-01	 1.9194256241e+00
 8.7934717467e-01	 8.9665514842e-01	 1.8383308654e+00
 8.7056791291e-01	 9.0518141451e-01	 1.7497065210e+00
 8.6170680460e-01	 9.1362094343e-01	 1.6551598587e+00
 8.5276513098e-01	 9.2197257402e-01	 1.5563337438e+00
 8.4374419549e-01	 9.3023517078e-01	 1.4549089998e+00
 9.3677040792e-01	 8.4967180238e-01	 2.4858836391e+00
 9.2844976344e-01	 8.5875611319e-01	 2.4674951940e+00
 9.2003945964e-01	 8.6776060528e-01	 2.4142205438e+00
 9.1154063999e-01	 8.7668396607e-01	 2.3319638673e+00
 9.0295447381e-01	 8.8552490531e-01	 2.2265397128e+00
 8.9428215577e-01	 8.9428215577e-01	 2.1036702858e+00
 8.8552490531e-01	 9.0295447381e-01	 1.9689828115e+00
 8.7668396607e-01	 9.1154063999e-01	 1.8280069473e+00
 8.6776060528e-01	 9.2003945964e-01	 1.6861722203e+00
 8.5875611319e-01	 9.2844976344e-01	 1.5488054656e+00
 8.4967180238e-01	 9.3677040792e-01	 1.4211282438e+00
 7.9039573348e-01	 8.7141803647e-01	 6.9052983299e-01
 7.8187071391e-01	 8.7907505228e-01	 4.9212446911e-01
 7.7327393573e-01	 8.8664656745e-01	 3.1887835162e-01
 7.6460669316e-01	 8.9413157908e-01	 1.7440685354e-01
 7.5587029875e-01	 9.0152911022e-01	 6.2354388097e-02
 7.4706608275e-01	 9.0883821025e-01	-1.3607929973e-02
 7.3819539237e-01	 9.1605795531e-01	-5.0098400225e-02
 7.2925959118e-01	 9.2318744869e-01	-4.8857467138e-02
 7.2026005839e-01	 9.3022582114e-01	-7.9341016044e-03
 7.1119818816e-01	 9.3717223126e-01	 7.6713219341e-02
 7.0207538890e-01	 9.4402586576e-01	 2.0916134542e-01
 7.9632334037e-01	 8.7795327362e-01	 9.4704273176e-01
 7.8773438705e-01	 8.8566771354e-01	 7.5346161733e-01
 7.7907313695e-01	 8.9329601162e-01	 5.7338121545e-01
 7.7034089403e-01	 9.0083715742e-01	 4.1278234367e-01
 7.6153898066e-01	 9.0829016666e-01	 2.7760652946e-01
 7.5266873705e-01	 9.1565408160e-01	 1.7375080116e-01
 7.4373152055e-01	 9.2292797145e-01	 1.0706236757e-01
 7.3472870493e-01	 9.3011093277e-01	 8.1607639757e-02
 7.2566167976e-01	 9.3720208980e-01	 9.7578588669e-02
 7.1653184964e-01	 9.4420059482e-01	 1.6049902245e-01
 7.0734063356e-01	 9.5110562845e-01	 2.7629304278e-01
 8.0225094726e-01	 8.8448851077e-01	 1.1448028977e+00
 7.9359806018e-01	 8.9226037481e-01	 9.6241068457e-01
 7.8487233818e-01	 8.9994545579e-01	 7.8354423923e-01
 7.7607509490e-01	 9.0754273576e-01	 6.1595580963e-01
 7.6720766256e-01	 9.1505122310e-01	 4.6730141775e-01
 7.5827139136e-01	 9.2246995295e-01	 3.4513352423e-01
 7.4926764873e-01	 9.2979798759e-01	 2.5689366188e-01
 7.4019781868e-01	 9.3703441686e-01	 2.0989265632e-01
 7.3106330113e-01	 9.4417835846e-01	 2.0702104869e-01
 7.2186551113e-01	 9.5122895838e-01	 2.5210633095e-01
 7.1260587821e-01	 9.5818539114e-01	 3.5242155719e-01
 8.0817855415e-01	 8.9102374791e-01	 1.2909318410e+00
 7.9946173332e-01	 8.9885303607e-01	 1.1238659800e+00
 7.9067153941e-01	 9.0659489996e-01	 9.5223911743e-01
 7.8180929577e-01	 9.1424831410e-01	 7.8499310872e-01
 7.7287634446e-01	 9.2181227954e-01	 6.3092786180e-01
 7.6387404566e-01	 9.2928582430e-01	 4.9869261055e-01
 7.5480377691e-01	 9.3666800373e-01	 3.9677721775e-01
 7.4566693244e-01	 9.4395790094e-01	 3.3350350967e-01
 7.3646492250e-01	 9.5115462712e-01	 3.1618809251e-01
 7.2719917261e-01	 9.5825732195e-01	 3.4706226718e-01
 7.1787112287e-01	 9.6526515383e-01	 4.3310329907e-01
 8.1410616104e-01	 8.9755898506e-01	 1.3923257222e+00
 8.0532540646e-01	 9.0544569734e-01	 1.2425612344e+00
 7.9647074064e-01	 9.1324434413e-01	 1.0822357495e+00
 7.8754349664e-01	 9.2095389243e-01	 9.2091074281e-01
 7.7854502637e-01	 9.2857333598e-01	 7.6797106036e-01
 7.6947669997e-01	 9.3610169565e-01	 6.3261552781e-01
 7.6033990509e-01	 9.4353801987e-01	 5.2384762995e-01
 7.5113604620e-01	 9.5088138502e-01	 4.5046626332e-01
 7.4186654387e-01	 9.5813089578e-01	 4.2105656550e-01
 7.3253283410e-01	 9.6528568551e-01	 4.4102211906e-01
 7.2313636753e-01	 9.7234491652e-01	 5.1402126954e-01
 8.2003376793e-01	 9.0409422220e-01	 1.4556638839e+00
 8.1118907960e-01	 9.1203835861e-01	 1.3230757972e+00
 8.0226994187e-01	 9.1989378830e-01	 1.1762063170e+00
 7.9327769751e-01	 9.2765947077e-01	 1.0246780425e+00
 7.8421370827e-01	 9.3533439242e-01	 8.7791313308e-01
 7.7507935428e-01	 9.4291756700e-01	 7.4512397009e-01
 7.6587603327e-01	 9.5040803601e-01	 6.3530391199e-01
 7.5660515995e-01	 9.5780486910e-01	 5.5721814342e-01
 7.4726816524e-01	 9.6510716444e-01	 5.1939462173e-01
 7.3786649558e-01	 9.7231404907e-01	 5.2976401585e-01
 7.2840161219e-01	 9.7942467921e-01	 5.9097977649e-01
 8.2596137482e-01	 9.1062945935e-01	 1.4874170624e+00
 8.1705275274e-01	 9.1863101987e-01	 1.3698406147e+00
 8.0806914310e-01	 9.2654323247e-01	 1.2367292325e+00
 7.9901189838e-01	 9.3436504911e-01	 1.0972193047e+00
 7.8988239018e-01	 9.4209544886e-01	 9.6023367614e-01
 7.8068200858e-01	 9.4973343835e-01	 8.3447307287e-01
 7.7141216145e-01	 9.5727805215e-01	 7.2840762357e-01
 7.6207427371e-01	 9.6472835319e-01	 6.5026847591e-01
 7.5266978661e-01	 9.7208343310e-01	 6.0803950978e-01
 7.4320015707e-01	 9.7934241263e-01	 6.0944914981e-01
 7.3366685685e-01	 9.8650444190e-01	 6.5989935595e-01
 8.3188898171e-01	 9.1716469649e-01	 1.4938552946e+00
 8.2291642587e-01	 9.2522368114e-01	 1.3871439984e+00
 8.1386834433e-01	 9.3319267664e-01	 1.2662929668e+00
 8.0474609925e-01	 9.4107062744e-01	 1.1394158859e+00
 7.9555107208e-01	 9.4885650530e-01	 1.0144103412e+00
 7.8628466289e-01	 9.5654930970e-01	 8.9895070869e-01
 7.7694828963e-01	 9.6414806829e-01	 8.0048112521e-01
 7.6754338746e-01	 9.7165183727e-01	 7.2620853556e-01
 7.5807140798e-01	 9.7905970176e-01	 6.8309581451e-01
 7.4853381855e-01	 9.8637077619e-01	 6.7785496409e-01
 7.3893210151e-01	 9.9358420459e-01	 7.1681188821e-01
 8.3781658860e-01	 9.2369993364e-01	 1.4810555354e+00
 8.2878009901e-01	 9.3181634240e-01	 1.3791371956e+00
 8.1966754556e-01	 9.3984212081e-01	 1.2672997598e+00
 8.1048030012e-01	 9.4777620578e-01	 1.1521082530e+00
 8.0121975398e-01	 9.5561756174e-01	 1.0399194366e+00
 7.9188731720e-01	 9.6336518105e-01	 9.3687685970e-01
 7.8248441782e-01	 9.7101808443e-01	 8.4890595387e-01
 7.7301250122e-01	 9.7857532135e-01	 7.8170916702e-01
 7.6347302936e-01	 9.8603597042e-01	 7.4076112919e-01
 7.5386748004e-01	 9.9339913975e-01	 7.3130384786e-01
 7.4419734617e-01	 1.0006639673e+00	 7.5834193084e-01
 8.4374419549e-01	 9.3023517078e-01	 1.4549089998e+00
 8.3464377215e-01	 9.3840900366e-01	 1.3498397713e+00
 8.2546674679e-01	 9.4649156497e-01	 1.2420692219e+00
 8.1621450099e-01	 9.5448178412e-01	 1.1360979946e+00
 8.0688843589e-01	 9.6237861818e-01	 1.0362365499e+00
 7.9748997150e-01	 9.7018105241e-01	 9.4660306312e-01
 7.8802054600e-01	 9.7788810057e-01	 8.7112131355e-01
 7.7848161497e-01	 9.8549880543e-01	 8.1351855271e-01
 7.6887465073e-01	 9.9301223908e-01	 7.7732334256e-01
 7.5920114152e-01	 1.0004275033e+00	 7.6586335519e-01
 7.4946259082e-01	 1.0077437300e+00	 7.8226312849e-01
 8.4967180238e-01	 9.3677040792e-01	 1.4211282438e+00
 8.4050744529e-01	 9.4500166493e-01	 1.3031448099e+00
 8.3126594802e-01	 9.5314100914e-01	 1.1928418298e+00
 8.2194870185e-01	 9.6118736245e-01	 1.0921497941e+00
 8.1255711779e-01	 9.6913967462e-01	 1.0028371900e+00
 8.0309262581e-01	 9.7699692376e-01	 9.2651192609e-01
 7.9355667418e-01	 9.8475811671e-01	 8.6462267521e-01
 7.8395072873e-01	 9.9242228952e-01	 8.1846012025e-01
 7.7427627210e-01	 9.9998850774e-01	 7.8915808560e-01
 7.6453480300e-01	 1.0074558669e+00	 7.7769454151e-01
 7.5472783548e-01	 1.0148234927e+00	 7.8489247008e-01
 7.0207538890e-01	 9.4402586576e-01	 2.0916134542e-01
 6.9289464749e-01	 9.5078479937e-01	 3.5793619897e-01
 6.8365584808e-01	 9.5744945241e-01	 4.8843351436e-01
 6.7436043167e-01	 9.6401910192e-01	 6.0001638160e-01
 6.6500985064e-01	 9.7049305402e-01	 6.9209970275e-01
 6.5560556802e-01	 9.7687064424e-01	 7.6414431132e-01
 6.4614905681e-01	 9.8315123760e-01	 8.1565129134e-01
 6.3664179916e-01	 9.8933422885e-01	 8.4615651975e-01
 6.2708528571e-01	 9.9541904256e-01	 8.5522545436e-01
 6.1748101481e-01	 1.0014051333e+00	 8.4244818691e-01
 6.0783049177e-01	 1.0072919856e+00	 8.0743477884e-01
 7.0734063356e-01	 9.5110562845e-01	 2.7629304278e-01
 6.9809104078e-01	 9.5791525097e-01	 4.1525239444e-01
 6.8878295460e-01	 9.6462988587e-01	 5.4216501914e-01
 6.7941782681e-01	 9.7124880474e-01	 6.5463079967e-01
 6.6999712069e-01	 9.7777130853e-01	 7.5031421403e-01
 6.6052231025e-01	 9.8419672776e-01	 8.2694057213e-01
 6.5099487952e-01	 9.9052442270e-01	 8.8229242878e-01
 6.4141632179e-01	 9.9675378356e-01	 9.1420619463e-01
 6.3178813886e-01	 1.0028842306e+00	 9.2056896392e-01
 6.2211184031e-01	 1.0089152142e+00	 8.9931557646e-01
 6.1238894276e-01	 1.0148462152e+00	 8.4842592849e-01
 7.1260587821e-01	 9.5818539114e-01	 3.5242155719e-01
 7.0328743407e-01	 9.6504570257e-01	 4.8049857044e-01
 6.9391006112e-01	 9.7181031933e-01	 6.0155778107e-01
 6.8447522195e-01	 9.7847850757e-01	 7.1180007724e-01
 6.7498439075e-01	 9.8504956304e-01	 8.0750525264e-01
 6.6543905249e-01	 9.9152281128e-01	 8.8502985635e-01
 6.5584070224e-01	 9.9789760780e-01	 9.4080519846e-01
 6.4619084442e-01	 1.0041733383e+00	 9.7133553111e-01
 6.3649099200e-01	 1.0103494186e+00	 9.7319642210e-01
 6.2674266581e-01	 1.0164252952e+00	 9.4303333645e-01
 6.1694739375e-01	 1.0224004449e+00	 8.7756043875e-01
 7.1787112287e-01	 9.6526515383e-01	 4.3310329907e-01
 7.0848382736e-01	 9.7217615418e-01	 5.4944476379e-01
 6.9903716763e-01	 9.7899075278e-01	 6.6265492723e-01
 6.8953261710e-01	 9.8570821039e-01	 7.6789204381e-01
 6.7997166080e-01	 9.9232781755e-01	 8.6040909205e-01
 6.7035579472e-01	 9.9884889480e-01	 9.3555273968e-01
 6.6068652496e-01	 1.0052707929e+00	 9.8876244648e-01
 6.5096536705e-01	 1.0115928930e+00	 1.0155697233e+00
 6.4119384515e-01	 1.0178146067e+00	 1.0115975633e+00
 6.3137349132e-01	 1.0239353762e+00	 9.7256006010e-01
 6.2150584473e-01	 1.0299546746e+00	 8.9426222399e-01
 7.2313636753e-01	 9.7234491652e-01	 5.1402126954e-01
 7.1368022065e-01	 9.7930660578e-01	 6.1798070413e-01
 7.0416427415e-01	 9.8617118624e-01	 7.2161069591e-01
 6.9459001224e-01	 9.9293791322e-01	 8.1937560571e-01
 6.8495893086e-01	 9.9960607206e-01	 9.0585182664e-01
 6.7527253695e-01	 1.0061749783e+00	 9.7572737253e-01
 6.6553234768e-01	 1.0126439780e+00	 1.0238015884e+00
 6.5573988968e-01	 1.0190124477e+00	 1.0449850011e+00
 6.4589669830e-01	 1.0252797947e+00	 1.0342993267e+00
 6.3600431682e-01	 1.0314454572e+00	 9.8687764683e-01
 6.2606429572e-01	 1.0375089043e+00	 8.9796476730e-01
 7.2840161219e-01	 9.7942467921e-01	 5.9097977649e-01
 7.1887661395e-01	 9.8643705738e-01	 6.8211076450e-01
 7.0929138067e-01	 9.9335161969e-01	 7.7468568440e-01
 6.9964740738e-01	 1.0001676160e+00	 8.6281634536e-01
 6.8994620092e-01	 1.0068843266e+00	 9.4074536837e-01
 6.8018927919e-01	 1.0135010618e+00	 1.0028459117e+00
 6.7037817040e-01	 1.0200171631e+00	 1.0436215052e+00
 6.6051441231e-01	 1.0264320024e+00	 1.0577060123e+00
 6.5059955144e-01	 1.0327449827e+00	 1.0398637362e+00
 6.4063514232e-01	 1.0389555382e+00	 9.8498968392e-01
 6.3062274671e-01	 1.0450631340e+00	 8.8811000052e-01
 7.3366685685e-01	 9.8650444190e-01	 6.5989935595e-01
 7.2407300724e-01	 9.9356750898e-01	 7.3794910698e-01
 7.1441848719e-01	 1.0005320531e+00	 8.1824227881e-01
 7.0470480252e-01	 1.0073973189e+00	 8.9487228734e-01
 6.9493347097e-01	 1.0141625811e+00	 9.6208359313e-01
 6.8510602142e-01	 1.0208271454e+00	 1.0142710831e+00
 6.7522399312e-01	 1.0273903482e+00	 1.0459795505e+00
 6.6528893494e-01	 1.0338515571e+00	 1.0519032933e+00
 6.5530240459e-01	 1.0402101708e+00	 1.0268858480e+00
 6.4526596782e-01	 1.0464656191e+00	 9.6591987559e-01
 6.3518119770e-01	 1.0526173637e+00	 8.6414721028e-01
 7.3893210151e-01	 9.9358420459e-01	 7.1681188821e-01
 7.2926940053e-01	 1.0006979606e+00	 7.8171501348e-01
 7.1954559371e-01	 1.0077124866e+00	 8.4874025690e-01
 7.0976219767e-01	 1.0146270217e+00	 9.1228982307e-01
 6.9992074103e-01	 1.0214408356e+00	 9.6693862946e-01
 6.9002276365e-01	 1.0281532289e+00	 1.0074328691e+00
 6.8006981584e-01	 1.0347635333e+00	 1.0286886634e+00
 6.7006345757e-01	 1.0412711118e+00	 1.0257908271e+00
 6.6000525774e-01	 1.0476753588e+00	 9.9399176477e-01
 6.4989679333e-01	 1.0539757001e+00	 9.2871051691e-01
 6.3973964869e-01	 1.0601715933e+00	 8.2553196867e-01
 7.4419734617e-01	 1.0006639673e+00	 7.5834193084e-01
 7.3446579383e-01	 1.0078284122e+00	 8.0972839255e-01
 7.2467270023e-01	 1.0148929201e+00	 8.6273255537e-01
 7.1481959281e-01	 1.0218567245e+00	 9.1189978619e-01
 7.0490801109e-01	 1.0287190901e+00	 9.5245728239e-01
 6.9493950589e-01	 1.0354793124e+00	 9.7982531387e-01
 6.8491563856e-01	 1.0421367184e+00	 9.8961458098e-01
 6.7483798021e-01	 1.0486906665e+00	 9.7762368181e-01
 6.6470811088e-01	 1.0551405468e+00	 9.3983671110e-01
 6.5452761883e-01	 1.0614857811e+00	 8.7242101052e-01
 6.4429809968e-01	 1.0677258230e+00	 7.7172508747e-01
 7.4946259082e-01	 1.0077437300e+00	 7.8226312849e-01
 7.3966218712e-01	 1.0149588638e+00	 8.1840545362e-01
 7.2979980674e-01	 1.0220733535e+00	 8.5686119335e-01
 7.1987698795e-01	 1.0290864273e+00	 8.9061367116e-01
 7.0989528114e-01	 1.0359973446e+00	 9.1585758595e-01
 6.9985624812e-01	 1.0428053959e+00	 9.2900344145e-01
 6.8976146128e-01	 1.0495099035e+00	 9.2667314685e-01
 6.7961250284e-01	 1.0561102212e+00	 9.0569572709e-01
 6.6941096403e-01	 1.0626057349e+00	 8.6310316867e-01
 6.5915844433e-01	 1.0689958621e+00	 7.9612642400e-01
 6.4885655067e-01	 1.0752800527e+00	 7.0219159465e-01
 7.5472783548e-01	 1.0148234927e+00	 7.8489247008e-01
 7.4485858041e-01	 1.0220893154e+00	 8.0489262123e-01
 7.3492691326e-01	 1.0292537870e+00	 8.2785334472e-01
 7.2493438309e-01	 1.0363161302e+00	 8.4541998824e-01
 7.1488255120e-01	 1.0432755991e+00	 8.5442547787e-01
 7.0477299035e-01	 1.0501314794e+00	 8.5258028077e-01
 6.9460728400e-01	 1.0568830886e+00	 8.3782771006e-01
 6.8438702546e-01	 1.0635297760e+00	 8.0833742380e-01
 6.7411381717e-01	 1.0700709229e+00	 7.6249906728e-01
 6.6378926983e-01	 1.0765059431e+00	 6.9891608580e-01
 6.5341500165e-01	 1.0828342824e+00	 6.1639973209e-01
 6.0783049177e-01	 1.0072919856e+00	 8.0743477884e-01
 5.9813522833e-01	 1.0130791144e+00	 7.6432011940e-01
 5.8839674247e-01	 1.0187660660e+00	 7.2744600976e-01
 5.7861655706e-01	 1.0243524169e+00	 6.9679285229e-01
 5.6879619897e-01	 1.0298377741e+00	 6.7240256223e-01
 5.5893719829e-01	 1.0352217745e+00	 6.5437624253e-01
 5.4904108763e-01	 1.0405040854e+00	 6.4287209472e-01
 5.3910940138e-01	 1.0456844044e+00	 6.3810356712e-01
 5.2914367498e-01	 1.0507624590e+00	 6.4033773969e-01
 5.1914544421e-01	 1.0557380065e+00	 6.4989394330e-01
 5.0911624449e-01	 1.0606108344e+00	 6.6714260912e-01
 6.1238894276e-01	 1.0148462152e+00	 8.4842592849e-01
 6.0262096927e-01	 1.0206767449e+00	 7.8175638146e-01
 5.9280944921e-01	 1.0264063461e+00	 7.1586960959e-01
 5.8295591688e-01	 1.0320345921e+00	 6.5289639026e-01
 5.7306191059e-01	 1.0375610869e+00	 5.9504171766e-01
 5.6312897191e-01	 1.0429854648e+00	 5.4457928839e-01
 5.5315864495e-01	 1.0483073907e+00	 5.0384625780e-01
 5.4315247558e-01	 1.0535265597e+00	 4.7523827310e-01
 5.3311201079e-01	 1.0586426973e+00	 4.6120478686e-01
 5.2303879786e-01	 1.0636555592e+00	 4.6424465286e-01
 5.1293438373e-01	 1.0685649311e+00	 4.8690200414e-01
 6.1694739375e-01	 1.0224004449e+00	 8.7756043875e-01
 6.0710671021e-01	 1.0282743755e+00	 7.9062241766e-01
 5.9722215596e-01	 1.0340466261e+00	 7.0076731728e-01
 5.8729527671e-01	 1.0397167672e+00	 6.1187998936e-01
 5.7732762222e-01	 1.0452843996e+00	 5.2792491433e-01
 5.6732074554e-01	 1.0507491551e+00	 4.5293809851e-01
 5.5727620226e-01	 1.0561106960e+00	 3.9101928036e-01
 5.4719554979e-01	 1.0613687150e+00	 3.4632445535e-01
 5.3708034660e-01	 1.0665229357e+00	 3.2305872658e-01
 5.2693215151e-01	 1.0715731119e+00	 3.2546948625e-01
 5.1675252296e-01	 1.0765190278e+00	 3.5783993067e-01
 6.2150584473e-01	 1.0299546746e+00	 8.9426222399e-01
 6.1159245116e-01	 1.0358720060e+00	 7.9070403103e-01
 6.0163486271e-01	 1.0416869062e+00	 6.8209464777e-01
 5.9163463653e-01	 1.0473989423e+00	 5.7368565724e-01
 5.8159333384e-01	 1.0530077124e+00	 4.7080648046e-01
 5.7151251916e-01	 1.0585128455e+00	 3.7885427843e-01
 5.6139375958e-01	 1.0639140012e+00	 3.0328420502e-01
 5.5123862400e-01	 1.0692108703e+00	 2.4960002296e-01
 5.4104868241e-01	 1.0744031741e+00	 2.2334509237e-01
 5.3082550516e-01	 1.0794906646e+00	 2.3009373916e-01
 5.2057066219e-01	 1.0844731245e+00	 2.7544300801e-01
 6.2606429572e-01	 1.0375089043e+00	 8.9796476730e-01
 6.1607819210e-01	 1.0434696365e+00	 7.8178592660e-01
 6.0604756945e-01	 1.0493271862e+00	 6.5980100622e-01
 5.9597399636e-01	 1.0550811174e+00	 5.3824967348e-01
 5.8585904547e-01	 1.0607310252e+00	 4.2344052702e-01
 5.7570429279e-01	 1.0662765358e+00	 3.2173958930e-01
 5.6551131690e-01	 1.0717173065e+00	 2.3955919553e-01
 5.5528169821e-01	 1.0770530256e+00	 1.8334729256e-01
 5.4501701823e-01	 1.0822834125e+00	 1.5957715886e-01
 5.3471885881e-01	 1.0874082173e+00	 1.7473755381e-01
 5.2438880143e-01	 1.0924272212e+00	 2.3532330230e-01
 6.3062274671e-01	 1.0450631340e+00	 8.8811000052e-01
 6.2056393304e-01	 1.0510672670e+00	 7.6365098056e-01
 6.1046027620e-01	 1.0569674662e+00	 6.3382914376e-01
 6.0031335618e-01	 1.0627632926e+00	 5.0550203883e-01
 5.9012475710e-01	 1.0684543380e+00	 3.8558020684e-01
 5.7989606642e-01	 1.0740402261e+00	 2.8101484290e-01
 5.6962887421e-01	 1.0795206117e+00	 1.9878590323e-01
 5.5932477241e-01	 1.0848951808e+00	 1.4589067169e-01
 5.4898535404e-01	 1.0901636508e+00	 1.2933279743e-01
 5.3861221246e-01	 1.0953257700e+00	 1.5611181199e-01
 5.2820694066e-01	 1.1003813179e+00	 2.3321313200e-01
 6.3518119770e-01	 1.0526173637e+00	 8.6414721028e-01
 6.2504967398e-01	 1.0586648975e+00	 7.3607951884e-01
 6.1487298295e-01	 1.0646077463e+00	 6.0411461493e-01
 6.0465271601e-01	 1.0704454677e+00	 4.7536592660e-01
 5.9439046872e-01	 1.0761776508e+00	 3.5697698426e-01
 5.8408784004e-01	 1.0818039165e+00	 2.5610882302e-01
 5.7374643153e-01	 1.0873239170e+00	 1.7992788302e-01
 5.6336784662e-01	 1.0927373361e+00	 1.3559442145e-01
 5.5295368985e-01	 1.0980438892e+00	 1.3025144705e-01
 5.4250556611e-01	 1.1032433227e+00	 1.7101418508e-01
 5.3202507990e-01	 1.1083354146e+00	 2.6496007772e-01
 6.3973964869e-01	 1.0601715933e+00	 8.2553196867e-01
 6.2953541493e-01	 1.0662625280e+00	 6.9884860470e-01
 6.1928568970e-01	 1.0722480263e+00	 5.7058523645e-01
 6.0899207584e-01	 1.0781276428e+00	 4.4775713591e-01
 5.9865618035e-01	 1.0839009636e+00	 3.3737991467e-01
 5.8827961367e-01	 1.0895676068e+00	 2.4645723191e-01
 5.7786398885e-01	 1.0951272222e+00	 1.8196905628e-01
 5.6741092083e-01	 1.1005794914e+00	 1.5086049433e-01
 5.5692202566e-01	 1.1059241276e+00	 1.6003119450e-01
 5.4639891976e-01	 1.1111608755e+00	 2.1632533076e-01
 5.3584321913e-01	 1.1162895113e+00	 3.2647173008e-01
 6.4429809968e-01	 1.0677258230e+00	 7.7172508747e-01
 6.3402115587e-01	 1.0738601585e+00	 6.5173133470e-01
 6.2369839645e-01	 1.0798883064e+00	 5.3316054754e-01
 6.1333143566e-01	 1.0858098179e+00	 4.2258354680e-01
 6.0292189198e-01	 1.0916242764e+00	 3.2653493351e-01
 5.9247138729e-01	 1.0973312972e+00	 2.5150166066e-01
 5.8198154616e-01	 1.1029305275e+00	 2.0391221846e-01
 5.7145399504e-01	 1.1084216467e+00	 1.9012644355e-01
 5.6089036148e-01	 1.1138043659e+00	 2.1642921902e-01
 5.5029227341e-01	 1.1190784282e+00	 2.8896262608e-01
 5.3966135836e-01	 1.1242436080e+00	 4.1365520310e-01
 6.4885655067e-01	 1.0752800527e+00	 7.0219159465e-01
 6.3850689681e-01	 1.0814577890e+00	 5.9449614282e-01
 6.2811110319e-01	 1.0875285864e+00	 4.9175127144e-01
 6.1767079548e-01	 1.0934919930e+00	 3.9974457716e-01
 6.0718760360e-01	 1.0993475892e+00	 3.2418415432e-01
 5.9666316092e-01	 1.1050949875e+00	 2.7068858219e-01
 5.8609910348e-01	 1.1107338328e+00	 2.4477758910e-01
 5.7549706924e-01	 1.1162638020e+00	 2.5191030804e-01
 5.6485869729e-01	 1.1216846043e+00	 2.9731213008e-01
 5.5418562706e-01	 1.1269959809e+00	 3.8595596311e-01
 5.4347949760e-01	 1.1321977046e+00	 5.2270291817e-01
 6.5341500165e-01	 1.0828342824e+00	 6.1639973209e-01
 6.4299263775e-01	 1.0890554195e+00	 5.2690611222e-01
 6.3252380994e-01	 1.0951688665e+00	 4.4625877828e-01
 6.2201015531e-01	 1.1011741682e+00	 3.7913064126e-01
 6.1145331523e-01	 1.1070709020e+00	 3.3006517524e-01
 6.0085493454e-01	 1.1128586778e+00	 3.0348150344e-01
 5.9021666079e-01	 1.1185371380e+00	 3.0377490498e-01
 5.7954014345e-01	 1.1241059573e+00	 3.3490938310e-01
 5.6882703310e-01	 1.1295648427e+00	 4.0061507312e-01
 5.5807898070e-01	 1.1349135336e+00	 5.0447626593e-01
 5.4729763683e-01	 1.1401518013e+00	 6.4993202447e-01
 5.0911624449e-01	 1.0606108344e+00	 6.6714260912e-01
 4.9905589759e-01	 1.0653815619e+00	 6.9566474505e-01
 4.8896763889e-01	 1.0700491977e+00	 7.3905240569e-01
 4.7885299878e-01	 1.0746136171e+00	 7.9757464677e-01
 4.6871350451e-01	 1.0790747247e+00	 8.7127995033e-01
 4.5855067955e-01	 1.0834324540e+00	 9.5999848844e-01
 4.4836604289e-01	 1.0876867674e+00	 1.0633449028e+00
 4.3816110842e-01	 1.0918376557e+00	 1.1807215776e+00
 4.2793738427e-01	 1.0958851383e+00	 1.3113223816e+00
 4.1769637217e-01	 1.0998292624e+00	 1.4541368548e+00
 4.0743956688e-01	 1.1036701029e+00	 1.6079548122e+00
 5.1293438373e-01	 1.0685649311e+00	 4.8690200414e-01
 5.0279858882e-01	 1.0733714369e+00	 5.3116290994e-01
 4.9263467278e-01	 1.0780740778e+00	 5.9645420336e-01
 4.8244417749e-01	 1.0826727283e+00	 6.8132946922e-01
 4.7222864165e-01	 1.0871672922e+00	 7.8407903425e-01
 4.6198960015e-01	 1.0915577024e+00	 9.0273522539e-01
 4.5172858337e-01	 1.0958439212e+00	 1.0350781677e+00
 4.4144711655e-01	 1.1000259393e+00	 1.1786420936e+00
 4.3114671914e-01	 1.1041037761e+00	 1.3307221342e+00
 4.2082890413e-01	 1.1080774793e+00	 1.4883815607e+00
 4.1049517748e-01	 1.1119471245e+00	 1.6484529816e+00
 5.1675252296e-01	 1.0765190278e+00	 3.5783993067e-01
 5.0654128004e-01	 1.0813613118e+00	 4.1972456255e-01
 4.9630170668e-01	 1.0860989579e+00	 5.0607508028e-01
 4.8603535621e-01	 1.0907318395e+00	 6.1409393307e-01
 4.7574377880e-01	 1.0952598596e+00	 7.4068986277e-01
 4.6542852075e-01	 1.0996829508e+00	 8.8248551024e-01
 4.5509112384e-01	 1.1040010750e+00	 1.0358255791e+00
 4.4473312468e-01	 1.1082142229e+00	 1.1967855239e+00
 4.3435605401e-01	 1.1123224140e+00	 1.3611682669e+00
 4.2396143609e-01	 1.1163256963e+00	 1.5243322239e+00
 4.1355078809e-01	 1.1202241460e+00	 1.6815140957e+00
 5.2057066219e-01	 1.0844731245e+00	 2.7544300801e-01
 5.1028397127e-01	 1.0893511868e+00	 3.5590324587e-01
 4.9996874058e-01	 1.0941238380e+00	 4.6185349443e-01
 4.8962653493e-01	 1.0987909506e+00	 5.8950069134e-01
 4.7925891594e-01	 1.1033524270e+00	 7.3473968087e-01
 4.6886744135e-01	 1.1078081992e+00	 8.9316253082e-01
 4.5845366432e-01	 1.1121582288e+00	 1.0600603347e+00
 4.4801913281e-01	 1.1164025065e+00	 1.2302496616e+00
 4.3756538888e-01	 1.1205410518e+00	 1.3983559105e+00
 4.2709396805e-01	 1.1245739133e+00	 1.5588365805e+00
 4.1660639869e-01	 1.1285011675e+00	 1.7059222241e+00
 5.2438880143e-01	 1.0924272212e+00	 2.3532330230e-01
 5.1402666250e-01	 1.0973410618e+00	 3.3440551719e-01
 5.0363577447e-01	 1.1021487181e+00	 4.5789926413e-01
 4.9321771364e-01	 1.1068500618e+00	 6.0136313240e-01
 4.8277405308e-01	 1.1114449944e+00	 7.6003645909e-01
 4.7230636194e-01	 1.1159334476e+00	 9.2869799634e-01
 4.6181620480e-01	 1.1203153826e+00	 1.1018140701e+00
 4.5130514094e-01	 1.1245907900e+00	 1.2736764120e+00
 4.4077472375e-01	 1.1287596897e+00	 1.4383258962e+00
 4.3022650000e-01	 1.1328221303e+00	 1.5895654415e+00
 4.1966200929e-01	 1.1367781891e+00	 1.7209729531e+00
 5.2820694066e-01	 1.1003813179e+00	 2.3321313200e-01
 5.1776935373e-01	 1.1053309367e+00	 3.5008477722e-01
 5.0730280837e-01	 1.1101735982e+00	 4.8848675510e-01
 4.9680889236e-01	 1.1149091730e+00	 6.4359639228e-01
 4.8628919022e-01	 1.1195375619e+00	 8.1014655661e-01
 4.7574528254e-01	 1.1240586961e+00	 9.8267609769e-01
 4.6517874528e-01	 1.1284725364e+00	 1.1554595012e+00
 4.5459114907e-01	 1.1327790736e+00	 1.3225165417e+00
 4.4398405862e-01	 1.1369783275e+00	 1.4776254777e+00
 4.3335903196e-01	 1.1410703473e+00	 1.6143362834e+00
 4.2271761990e-01	 1.1450552106e+00	 1.7259838966e+00
 5.3202507990e-01	 1.1083354146e+00	 2.6496007772e-01
 5.2151204496e-01	 1.1133208117e+00	 3.9792065696e-01
 5.1096984227e-01	 1.1181984783e+00	 5.4784653632e-01
 5.0040007108e-01	 1.1229682841e+00	 7.0986613563e-01
 4.8980432737e-01	 1.1276301293e+00	 8.7884855490e-01
 4.7918420314e-01	 1.1321839445e+00	 1.0494013271e+00
 4.6854128575e-01	 1.1366296903e+00	 1.2158832423e+00
 4.5787715720e-01	 1.1409673572e+00	 1.3724172266e+00
 4.4719339349e-01	 1.1451969654e+00	 1.5129032520e+00
 4.3649156392e-01	 1.1493185642e+00	 1.6310312583e+00
 4.2577323050e-01	 1.1533322321e+00	 1.7202940652e+00
 5.3584321913e-01	 1.1162895113e+00	 3.2647173008e-01
 5.2525473618e-01	 1.1213106867e+00	 4.7277970507e-01
 5.1463687617e-01	 1.1262233584e+00	 6.3025420861e-01
 5.0399124980e-01	 1.1310273953e+00	 7.9438919791e-01
 4.9331946451e-01	 1.1357226967e+00	 9.6043543626e-01
 4.8262312374e-01	 1.1403091929e+00	 1.1234124279e+00
 4.7190382623e-01	 1.1447868441e+00	 1.2781203948e+00
 4.6116316533e-01	 1.1491556408e+00	 1.4191522733e+00
 4.5040272836e-01	 1.1534156033e+00	 1.5409057123e+00
 4.3962409588e-01	 1.1575667812e+00	 1.6375950514e+00
 4.2882884110e-01	 1.1616092537e+00	 1.7032632628e+00
 5.3966135836e-01	 1.1242436080e+00	 4.1365520310e-01
 5.2899742741e-01	 1.1293005616e+00	 5.6984206266e-01
 5.1830391006e-01	 1.1342482385e+00	 7.3044858807e-01
 5.0758242851e-01	 1.1390865064e+00	 8.9163600169e-01
 4.9683460165e-01	 1.1438152642e+00	 1.0493648962e+00
 4.8606204434e-01	 1.1484344413e+00	 1.1994057525e+00
 4.7526636670e-01	 1.1529439979e+00	 1.3373494574e+00
 4.6444917346e-01	 1.1573439244e+00	 1.4586178026e+00
 4.5361206322e-01	 1.1616342411e+00	 1.5584739472e+00
 4.4275662783e-01	 1.1658149982e+00	 1.6320328294e+00
 4.3188445171e-01	 1.1698862752e+00	 1.6742715104e+00
 5.4347949760e-01	 1.1321977046e+00	 5.2270291817e-01
 5.3274011864e-01	 1.1372904366e+00	 6.8452498590e-01
 5.2197094396e-01	 1.1422731186e+00	 8.4332331298e-01
 5.1117360723e-01	 1.1471456176e+00	 9.9623583313e-01
 5.0034973879e-01	 1.1519078316e+00	 1.1402537196e+00
 4.8950096493e-01	 1.1565596897e+00	 1.2722298886e+00
 4.7862890718e-01	 1.1611011517e+00	 1.3888874537e+00
 4.6773518159e-01	 1.1655322079e+00	 1.4868281164e+00
 4.5682139809e-01	 1.1698528790e+00	 1.5625404806e+00
 4.4588915979e-01	 1.1740632152e+00	 1.6124082782e+00
 4.3494006231e-01	 1.1781632967e+00	 1.6327184956e+00
 5.4729763683e-01	 1.1401518013e+00	 6.4993202447e-01
 5.3648280987e-01	 1.1452803116e+00	 8.1237743399e-01
 5.2563797785e-01	 1.1502979987e+00	 9.6391823987e-01
 5.1476478594e-01	 1.1552047288e+00	 1.1029714606e+00
 5.0386487593e-01	 1.1600003990e+00	 1.2278723933e+00
 4.9293988553e-01	 1.1646849381e+00	 1.3368805123e+00
 4.8199144765e-01	 1.1692583055e+00	 1.4281852625e+00
 4.7102118972e-01	 1.1737204915e+00	 1.4999117388e+00
 4.6003073296e-01	 1.1780715168e+00	 1.5501262447e+00
 4.4902169174e-01	 1.1823114322e+00	 1.5768417218e+00
 4.3799567291e-01	 1.1864403182e+00	 1.5780230455e+00
 4.0743956688e-01	 1.1036701029e+00	 1.6079548122e+00
 3.9717020246e-01	 1.1074071358e+00	 1.7475251481e+00
 3.8688801453e-01	 1.1110411513e+00	 1.8477479052e+00
 3.7659447202e-01	 1.1145723051e+00	 1.9073669721e+00
 3.6629103455e-01	 1.1180007791e+00	 1.9256443012e+00
 3.5597915182e-01	 1.1213267811e+00	 1.9055221922e+00
 3.4566026314e-01	 1.1245505449e+00	 1.8470224215e+00
 3.3533579683e-01	 1.1276723292e+00	 1.7493555348e+00
 3.2500716977e-01	 1.1306924180e+00	 1.6118842062e+00
 3.1467578686e-01	 1.1336111194e+00	 1.4341188476e+00
 3.0434304055e-01	 1.1364287657e+00	 1.2157131540e+00
 4.1049517748e-01	 1.1119471245e+00	 1.6484529816e+00
 4.0014879752e-01	 1.1157121833e+00	 1.7873337589e+00
 3.8978949788e-01	 1.1193734524e+00	 1.8833351383e+00
 3.7941875851e-01	 1.1229310882e+00	 1.9358921454e+00
 3.6903804996e-01	 1.1263852741e+00	 1.9446404411e+00
 3.5864883283e-01	 1.1297362197e+00	 1.9124758458e+00
 3.4825255719e-01	 1.1329841602e+00	 1.8411523609e+00
 3.3785066210e-01	 1.1361293565e+00	 1.7306493622e+00
 3.2744457506e-01	 1.1391720945e+00	 1.5811392722e+00
 3.1703571149e-01	 1.1421126848e+00	 1.3929813284e+00
 3.0662547430e-01	 1.1449514623e+00	 1.1667152750e+00
 4.1355078809e-01	 1.1202241460e+00	 1.6815140957e+00
 4.0312739258e-01	 1.1240172309e+00	 1.8122680476e+00
 3.9269098123e-01	 1.1277057534e+00	 1.8992108589e+00
 3.8224304499e-01	 1.1312898713e+00	 1.9421469715e+00
 3.7178506537e-01	 1.1347697692e+00	 1.9410730565e+00
 3.6131851383e-01	 1.1381456582e+00	 1.8980622707e+00
 3.5084485124e-01	 1.1414177755e+00	 1.8165173009e+00
 3.4036552737e-01	 1.1445863837e+00	 1.6969827991e+00
 3.2988198034e-01	 1.1476517711e+00	 1.5401845075e+00
 3.1939563612e-01	 1.1506142503e+00	 1.3470658508e+00
 3.0890790806e-01	 1.1534741588e+00	 1.1187802505e+00
 4.1660639869e-01	 1.1285011675e+00	 1.7059222241e+00
 4.0610598765e-01	 1.1323222785e+00	 1.8230474152e+00
 3.9559246458e-01	 1.1360380544e+00	 1.8975188627e+00
 3.8506733148e-01	 1.1396486543e+00	 1.9293071570e+00
 3.7453208078e-01	 1.1431542643e+00	 1.9186009247e+00
 3.6398819483e-01	 1.1465550968e+00	 1.8667063312e+00
 3.5343714529e-01	 1.1498513908e+00	 1.7778135333e+00
 3.4288039264e-01	 1.1530434110e+00	 1.6530797872e+00
 3.3231938563e-01	 1.1561314476e+00	 1.4935338951e+00
 3.2175556076e-01	 1.1591158158e+00	 1.3004451101e+00
 3.1119034182e-01	 1.1619968554e+00	 1.0753145437e+00
 4.1966200929e-01	 1.1367781891e+00	 1.7209729531e+00
 4.0908458271e-01	 1.1406273260e+00	 1.8204932817e+00
 3.9849394793e-01	 1.1443703554e+00	 1.8803416021e+00
 3.8789161796e-01	 1.1480074374e+00	 1.9004567336e+00
 3.7727909619e-01	 1.1515387593e+00	 1.8810111081e+00
 3.6665787583e-01	 1.1549645353e+00	 1.8227016471e+00
 3.5602943934e-01	 1.1582850061e+00	 1.7295978739e+00
 3.4539525791e-01	 1.1615004383e+00	 1.6035236837e+00
 3.3475679091e-01	 1.1646111242e+00	 1.4455666708e+00
 3.2411548539e-01	 1.1676173813e+00	 1.2570696560e+00
 3.1347277557e-01	 1.1705195519e+00	 1.0396216519e+00
 4.2271761990e-01	 1.1450552106e+00	 1.7259838966e+00
 4.1206317777e-01	 1.1489323736e+00	 1.8054047522e+00
 4.0139543128e-01	 1.1527026565e+00	 1.8497025193e+00
 3.9071590445e-01	 1.1563662205e+00	 1.8585915209e+00
 3.8002611160e-01	 1.1599232544e+00	 1.8320251759e+00
 3.6932755683e-01	 1.1633739739e+00	 1.7702156384e+00
 3.5862173339e-01	 1.1667186214e+00	 1.6762929743e+00
 3.4791012318e-01	 1.1699574655e+00	 1.5527625856e+00
 3.3719419620e-01	 1.1730908007e+00	 1.4005324091e+00
 3.2647541002e-01	 1.1761189468e+00	 1.2207724960e+00
 3.1575520933e-01	 1.1790422484e+00	 1.0149059925e+00
 4.2577323050e-01	 1.1533322321e+00	 1.7202940652e+00
 4.1504177283e-01	 1.1572374212e+00	 1.7785595741e+00
 4.0429691463e-01	 1.1610349575e+00	 1.8075683167e+00
 3.9354019093e-01	 1.1647250035e+00	 1.8066224417e+00
 3.8277312701e-01	 1.1683077494e+00	 1.7752587156e+00
 3.7199723783e-01	 1.1717834124e+00	 1.7132456398e+00
 3.6121402744e-01	 1.1751522367e+00	 1.6221924159e+00
 3.5042498845e-01	 1.1784144928e+00	 1.5051144331e+00
 3.3963160148e-01	 1.1815704773e+00	 1.3625558985e+00
 3.2883533466e-01	 1.1846205122e+00	 1.1952735099e+00
 3.1803764309e-01	 1.1875649450e+00	 1.0042766294e+00
 4.2882884110e-01	 1.1616092537e+00	 1.7032632628e+00
 4.1802036789e-01	 1.1655424687e+00	 1.7407150542e+00
 4.0719839798e-01	 1.1693672585e+00	 1.7558511324e+00
 3.9636447741e-01	 1.1730837866e+00	 1.7473786968e+00
 3.8552014242e-01	 1.1766922445e+00	 1.7142252548e+00
 3.7466691883e-01	 1.1801928510e+00	 1.6555367784e+00
 3.6380632149e-01	 1.1835858520e+00	 1.5714655957e+00
 3.5293985372e-01	 1.1868715201e+00	 1.4647719054e+00
 3.4206900677e-01	 1.1900501538e+00	 1.3356418171e+00
 3.3119525929e-01	 1.1931220777e+00	 1.1841836836e+00
 3.2032007684e-01	 1.1960876415e+00	 1.0107508478e+00
 4.3188445171e-01	 1.1698862752e+00	 1.6742715104e+00
 4.2099896296e-01	 1.1738475163e+00	 1.6926089394e+00
 4.1009988133e-01	 1.1776995595e+00	 1.6964106239e+00
 3.9918876390e-01	 1.1814425697e+00	 1.6836108061e+00
 3.8826715783e-01	 1.1850767395e+00	 1.6523400183e+00
 3.7733659983e-01	 1.1886022895e+00	 1.6009247064e+00
 3.6639861554e-01	 1.1920194673e+00	 1.5281624147e+00
 3.5545471899e-01	 1.1953285473e+00	 1.4358071175e+00
 3.4450641205e-01	 1.1985298304e+00	 1.3236792193e+00
 3.3355518392e-01	 1.2016236432e+00	 1.1910091706e+00
 3.2260251060e-01	 1.2046103380e+00	 1.0372575850e+00
 4.3494006231e-01	 1.1781632967e+00	 1.6327184956e+00
 4.2397755802e-01	 1.1821525639e+00	 1.6349602601e+00
 4.1300136468e-01	 1.1860318606e+00	 1.6310559661e+00
 4.0201305038e-01	 1.1898013527e+00	 1.6179935228e+00
 3.9101417324e-01	 1.1934612346e+00	 1.5929235276e+00
 3.8000628083e-01	 1.1970117281e+00	 1.5531607748e+00
 3.6899090959e-01	 1.2004530826e+00	 1.4962177790e+00
 3.5796958425e-01	 1.2037855746e+00	 1.4221761281e+00
 3.4694381733e-01	 1.2070095069e+00	 1.3304458409e+00
 3.3591510855e-01	 1.2101252087e+00	 1.2191551919e+00
 3.2488494435e-01	 1.2131330346e+00	 1.0866407243e+00
 4.3799567291e-01	 1.1864403182e+00	 1.5780230455e+00
 4.2695615308e-01	 1.1904576115e+00	 1.5684701404e+00
 4.1590284802e-01	 1.1943641616e+00	 1.5615477658e+00
 4.0483733686e-01	 1.1981601358e+00	 1.5531286277e+00
 3.9376118865e-01	 1.2018457296e+00	 1.5392050514e+00
 3.8267596183e-01	 1.2054211666e+00	 1.5158927917e+00
 3.7158320363e-01	 1.2088866979e+00	 1.4794345104e+00
 3.6048444952e-01	 1.2122426019e+00	 1.4277232691e+00
 3.4938122261e-01	 1.2154891835e+00	 1.3596122342e+00
 3.3827503318e-01	 1.2186267741e+00	 1.2719297793e+00
 3.2716737810e-01	 1.2216557311e+00	 1.1616622578e+00
 3.0434304055e-01	 1.1364287657e+00	 1.2157131540e+00
 2.9401031052e-01	 1.1391457133e+00	 9.9582730806e-01
 2.8367896364e-01	 1.1417623423e+00	 8.1363168898e-01
 2.7335035306e-01	 1.1442790561e+00	 6.6893572640e-01
 2.6302581766e-01	 1.1466962804e+00	 5.6159456056e-01
 2.5270668167e-01	 1.1490144625e+00	 4.9150674046e-01
 2.4239425423e-01	 1.1512340711e+00	 4.5861194903e-01
 2.3208982905e-01	 1.1533555958e+00	 4.6288875803e-01
 2.2179468403e-01	 1.1553795464e+00	 5.0435241507e-01
 2.1151008095e-01	 1.1573064529e+00	 5.8305266456e-01
 2.0123726509e-01	 1.1591368644e+00	 6.9907160412e-01
 3.0662547430e-01	 1.1449514623e+00	 1.1667152750e+00
 2.9621525352e-01	 1.1476887857e+00	 9.4116983011e-01
 2.8580642626e-01	 1.1503250382e+00	 7.5465249557e-01
 2.7540035582e-01	 1.1528606263e+00	 6.0706461174e-01
 2.6499839113e-01	 1.1552959786e+00	 4.9832185388e-01
 2.5460186633e-01	 1.1576315460e+00	 4.2835243725e-01
 2.4421210040e-01	 1.1598678006e+00	 3.9709538329e-01
 2.3383039673e-01	 1.1620052358e+00	 4.0449884779e-01
 2.2345804283e-01	 1.1640443652e+00	 4.5051851192e-01
 2.1309630992e-01	 1.1659857226e+00	 5.3511603592e-01
 2.0274645264e-01	 1.1678298613e+00	 6.5825757541e-01
 3.0890790806e-01	 1.1534741588e+00	 1.1187802505e+00
 2.9842019653e-01	 1.1562318581e+00	 8.9285658604e-01
 2.8793388888e-01	 1.1588877341e+00	 7.0598462684e-01
 2.7745035858e-01	 1.1614421964e+00	 5.5820391539e-01
 2.6697096459e-01	 1.1638956768e+00	 4.4954202051e-01
 2.5649705099e-01	 1.1662486295e+00	 3.8001308559e-01
 2.4602994656e-01	 1.1685015302e+00	 3.4961646934e-01
 2.3557096441e-01	 1.1706548758e+00	 3.5833547862e-01
 2.2512140163e-01	 1.1727091839e+00	 4.0613619268e-01
 2.1468253889e-01	 1.1746649922e+00	 4.9296637727e-01
 2.0425564018e-01	 1.1765228582e+00	 6.1875448688e-01
 3.1119034182e-01	 1.1619968554e+00	 1.0753145437e+00
 3.0062513953e-01	 1.1647749305e+00	 8.5358262916e-01
 2.9006135150e-01	 1.1674504301e+00	 6.6974109324e-01
 2.7950036134e-01	 1.1700237665e+00	 5.2401254060e-01
 2.6894353805e-01	 1.1724953750e+00	 4.1658628687e-01
 2.5839223564e-01	 1.1748657130e+00	 3.4761708851e-01
 2.4784779272e-01	 1.1771352598e+00	 3.1722399399e-01
 2.3731153209e-01	 1.1793045158e+00	 3.2548931479e-01
 2.2678476042e-01	 1.1813740027e+00	 3.7245771438e-01
 2.1626876786e-01	 1.1833442619e+00	 4.5813541272e-01
 2.0576482773e-01	 1.1852158551e+00	 5.8248950290e-01
 3.1347277557e-01	 1.1705195519e+00	 1.0396216519e+00
 3.0283008253e-01	 1.1733180029e+00	 8.2596057097e-01
 2.9218881412e-01	 1.1760131260e+00	 6.4796924891e-01
 2.8155036410e-01	 1.1786053367e+00	 5.0609682330e-01
 2.7091611151e-01	 1.1810950732e+00	 4.0074274884e-01
 2.6028742030e-01	 1.1834827965e+00	 3.3225554931e-01
 2.4966563888e-01	 1.1857689893e+00	 3.0093171704e-01
 2.3905209977e-01	 1.1879541559e+00	 3.0701475797e-01
 2.2844811922e-01	 1.1900388214e+00	 3.5069437919e-01
 2.1785499683e-01	 1.1920235315e+00	 4.3210581579e-01
 2.0727401527e-01	 1.1939088520e+00	 5.5132929286e-01
 3.1575520933e-01	 1.1790422484e+00	 1.0149059925e+00
 3.0503502553e-01	 1.1818610753e+00	 8.1252370188e-01
 2.9431627674e-01	 1.1845758219e+00	 6.4265328347e-01
 2.8360036685e-01	 1.1871869068e+00	 5.0601253004e-01
 2.7288868497e-01	 1.1896947714e+00	 4.0325800923e-01
 2.6218260495e-01	 1.1920998801e+00	 3.3498368002e-01
 2.5148348504e-01	 1.1944027189e+00	 3.0171968080e-01
 2.4079266745e-01	 1.1966037959e+00	 3.0393128610e-01
 2.3011147801e-01	 1.1987036401e+00	 3.4201802880e-01
 2.1944122580e-01	 1.2007028012e+00	 4.1631298368e-01
 2.0878320282e-01	 1.2026018489e+00	 5.2708220766e-01
 3.1803764309e-01	 1.1875649450e+00	 1.0042766294e+00
 3.0723996853e-01	 1.1904041477e+00	 8.1572898477e-01
 2.9644373936e-01	 1.1931385178e+00	 6.5571661330e-01
 2.8565036961e-01	 1.1957684769e+00	 5.2526677609e-01
 2.7486125843e-01	 1.1982944697e+00	 4.2533875022e-01
 2.6407778961e-01	 1.2007169636e+00	 3.5682215452e-01
 2.5330133120e-01	 1.2030364485e+00	 3.2053546809e-01
 2.4253323513e-01	 1.2052534359e+00	 3.1722473884e-01
 2.3177483681e-01	 1.2073684589e+00	 3.4756247837e-01
 2.2102745477e-01	 1.2093820709e+00	 4.1214673868e-01
 2.1029239036e-01	 1.2112948458e+00	 5.1150036580e-01
 3.2032007684e-01	 1.1960876415e+00	 1.0107508478e+00
 3.0944491153e-01	 1.1989472201e+00	 8.3795992770e-01
 2.9857120198e-01	 1.2017012138e+00	 6.8902417723e-01
 2.8770037237e-01	 1.2043500471e+00	 5.6531986763e-01
 2.7683383189e-01	 1.2068941679e+00	 4.6815324444e-01
 2.6597297426e-01	 1.2093340471e+00	 3.9875840890e-01
 2.5511917736e-01	 1.2116701780e+00	 3.5829541115e-01
 2.4427380281e-01	 1.2139030760e+00	 3.4784855252e-01
 2.3343819560e-01	 1.2160332776e+00	 3.6842489314e-01
 2.2261368374e-01	 1.2180613405e+00	 4.2095296043e-01
 2.1180157791e-01	 1.2199878427e+00	 5.0628165334e-01
 3.2260251060e-01	 1.2046103380e+00	 1.0372575850e+00
 3.1164985453e-01	 1.2074902925e+00	 8.8152934180e-01
 3.0069866460e-01	 1.2102639097e+00	 7.4438464123e-01
 2.8975037513e-01	 1.2129316172e+00	 6.2758707188e-01
 2.7880640535e-01	 1.2154938661e+00	 5.3283280735e-01
 2.6786815891e-01	 1.2179511306e+00	 4.6174789182e-01
 2.5693702352e-01	 1.2203039076e+00	 4.1588575397e-01
 2.4601437049e-01	 1.2225527160e+00	 3.9672494686e-01
 2.3510155439e-01	 1.2246980963e+00	 4.0566711044e-01
 2.2419991271e-01	 1.2267406102e+00	 4.4403515238e-01
 2.1331076545e-01	 1.2286808396e+00	 5.1307164222e-01
 3.2488494435e-01	 1.2131330346e+00	 1.0866407243e+00
 3.1385479753e-01	 1.2160333649e+00	 9.4868198999e-01
 3.0282612722e-01	 1.2188266056e+00	 8.2355251695e-01
 2.9180037789e-01	 1.2215131873e+00	 7.1344031865e-01
 2.8077897881e-01	 1.2240935643e+00	 6.2047319406e-01
 2.6976334357e-01	 1.2265682141e+00	 5.4671526733e-01
 2.5875486968e-01	 1.2289376372e+00	 4.9416377031e-01
 2.4775493816e-01	 1.2312023560e+00	 4.6474606598e-01
 2.3676491319e-01	 1.2333629151e+00	 4.6031690987e-01
 2.2578614168e-01	 1.2354198798e+00	 4.8265594571e-01
 2.1481995300e-01	 1.2373738365e+00	 5.3346543085e-01
 3.2716737810e-01	 1.2216557311e+00	 1.1616622578e+00
 3.1605974053e-01	 1.2245764373e+00	 1.0415971319e+00
 3.0495358983e-01	 1.2273893016e+00	 9.2823019784e-01
 2.9385038065e-01	 1.2300947574e+00	 8.2420983666e-01
 2.8275155227e-01	 1.2326932625e+00	 7.3213594319e-01
 2.7165852822e-01	 1.2351852976e+00	 6.5455557227e-01
 2.6057271584e-01	 1.2375713667e+00	 5.9395883950e-01
 2.4949550584e-01	 1.2398519961e+00	 5.5277507588e-01
 2.3842827199e-01	 1.2420277338e+00	 5.3336923414e-01
 2.2737237065e-01	 1.2440991495e+00	 5.3803854377e-01
 2.1632914054e-01	 1.2460668334e+00	 5.6900941071e-01
 2.0123726509e-01	 1.1591368644e+00	 6.9907160412e-01
 1.9097572234e-01	 1.1608716354e+00	 8.2300663062e-01
 1.8072841450e-01	 1.1625110326e+00	 9.2549379326e-01
 1.7049653892e-01	 1.1640556597e+00	 1.0067753196e+00
 1.6028127524e-01	 1.1655061378e+00	 1.0671059429e+00
 1.5008378517e-01	 1.1668631048e+00	 1.1067511718e+00
 1.3990521226e-01	 1.1681272149e+00	 1.1259856164e+00
 1.2974668168e-01	 1.1692991383e+00	 1.1250913690e+00
 1.1960930001e-01	 1.1703795604e+00	 1.1043564386e+00
 1.0949415507e-01	 1.1713691813e+00	 1.0640732359e+00
 9.9402315743e-02	 1.1722687154e+00	 1.0045371077e+00
 2.0274645264e-01	 1.1678298613e+00	 6.5825757541e-01
 1.9240795300e-01	 1.1695776423e+00	 7.9041067403e-01
 1.8208379504e-01	 1.1712293342e+00	 9.0189871819e-01
 1.7177518507e-01	 1.1727855453e+00	 9.9258949006e-01
 1.6148331157e-01	 1.1742469013e+00	 1.0624059408e+00
 1.5120934499e-01	 1.1756140449e+00	 1.1113239655e+00
 1.4095443743e-01	 1.1768876353e+00	 1.1393701956e+00
 1.3071972251e-01	 1.1780683476e+00	 1.1466198082e+00
 1.2050631511e-01	 1.1791568724e+00	 1.1331943521e+00
 1.1031531121e-01	 1.1801539149e+00	 1.0992595903e+00
 1.0014778769e-01	 1.1810601952e+00	 1.0450233578e+00
 2.0425564018e-01	 1.1765228582e+00	 6.1875448688e-01
 1.9384018366e-01	 1.1782836492e+00	 7.5464233273e-01
 1.8343917558e-01	 1.1799476358e+00	 8.7145184438e-01
 1.7305383121e-01	 1.1815154309e+00	 9.6875941320e-01
 1.6268534791e-01	 1.1829876649e+00	 1.0462309619e+00
 1.5233490480e-01	 1.1843649851e+00	 1.1036193091e+00
 1.4200366260e-01	 1.1856480558e+00	 1.1407615199e+00
 1.3169276334e-01	 1.1868375570e+00	 1.1575762440e+00
 1.2140333021e-01	 1.1879341844e+00	 1.1540610416e+00
 1.1113646734e-01	 1.1889386486e+00	 1.1302896987e+00
 1.0089325965e-01	 1.1898516750e+00	 1.0864095312e+00
 2.0576482773e-01	 1.1852158551e+00	 5.8248950290e-01
 1.9527241433e-01	 1.1869896561e+00	 7.1799283809e-01
 1.8479455611e-01	 1.1886659375e+00	 8.3662994552e-01
 1.7433247735e-01	 1.1902453166e+00	 9.3776755228e-01
 1.6388738424e-01	 1.1917284284e+00	 1.0208881020e+00
 1.5346046462e-01	 1.1931159253e+00	 1.0855867915e+00
 1.4305288777e-01	 1.1944084762e+00	 1.1315685708e+00
 1.3266580417e-01	 1.1956067663e+00	 1.1586451090e+00
 1.2230034531e-01	 1.1967114963e+00	 1.1667317266e+00
 1.1195762348e-01	 1.1977233823e+00	 1.1558442977e+00
 1.0163873160e-01	 1.1986431547e+00	 1.1260961211e+00
 2.0727401527e-01	 1.1939088520e+00	 5.5132929286e-01
 1.9670464499e-01	 1.1956956630e+00	 6.8268242410e-01
 1.8614993665e-01	 1.1973842391e+00	 7.9983352252e-01
 1.7561112350e-01	 1.1989752022e+00	 9.0202008711e-01
 1.6508942057e-01	 1.2004691920e+00	 9.8861346126e-01
 1.5458602443e-01	 1.2018668655e+00	 1.0591156229e+00
 1.4410211294e-01	 1.2031688966e+00	 1.1131559240e+00
 1.3363884500e-01	 1.2043759756e+00	 1.1504877816e+00
 1.2319736041e-01	 1.2054888083e+00	 1.1709853226e+00
 1.1277877961e-01	 1.2065081160e+00	 1.1746399842e+00
 1.0238420355e-01	 1.2074346345e+00	 1.1615570730e+00
 2.0878320282e-01	 1.2026018489e+00	 5.2708220766e-01
 1.9813687565e-01	 1.2044016699e+00	 6.5086287352e-01
 1.8750531718e-01	 1.2061025407e+00	 7.6338953159e-01
 1.7688976964e-01	 1.2077050878e+00	 8.6384963503e-01
 1.6629145690e-01	 1.2092099555e+00	 9.5157466805e-01
 1.5571158425e-01	 1.2106178056e+00	 1.0260367701e+00
 1.4515133811e-01	 1.2119293170e+00	 1.0868453035e+00
 1.3461188583e-01	 1.2131451849e+00	 1.1337433661e+00
 1.2409437551e-01	 1.2142661203e+00	 1.1666042525e+00
 1.1359993575e-01	 1.2152928497e+00	 1.1854278646e+00
 1.0312967550e-01	 1.2162261143e+00	 1.1903370754e+00
 2.1029239036e-01	 1.2112948458e+00	 5.1150036580e-01
 1.9956910631e-01	 1.2131076767e+00	 6.2461995715e-01
 1.8886069772e-01	 1.2148208423e+00	 7.2955399733e-01
 1.7816841578e-01	 1.2164349734e+00	 8.2551785700e-01
 1.6749349324e-01	 1.2179507190e+00	 9.1187329603e-01
 1.5683714407e-01	 1.2193687458e+00	 9.8812500142e-01
 1.4620056328e-01	 1.2206897375e+00	 1.0539170702e+00
 1.3558492667e-01	 1.2219143942e+00	 1.1090294398e+00
 1.2499139061e-01	 1.2230434323e+00	 1.1533742677e+00
 1.1442109188e-01	 1.2240775834e+00	 1.1869922624e+00
 1.0387514745e-01	 1.2250175941e+00	 1.2100489684e+00
 2.1180157791e-01	 1.2199878427e+00	 5.0628165334e-01
 2.0100133697e-01	 1.2218136836e+00	 6.0597577177e-01
 1.9021607825e-01	 1.2235391440e+00	 7.0051451673e-01
 1.7944706192e-01	 1.2251648591e+00	 7.8921795449e-01
 1.6869552957e-01	 1.2266914826e+00	 8.7154717976e-01
 1.5796270388e-01	 1.2281196860e+00	 9.4710084561e-01
 1.4724978844e-01	 1.2294501579e+00	 1.0156116485e+00
 1.3655796750e-01	 1.2306836035e+00	 1.0769427700e+00
 1.2588840571e-01	 1.2318207443e+00	 1.1310842772e+00
 1.1524224802e-01	 1.2328623171e+00	 1.1781494820e+00
 1.0462061940e-01	 1.2338090739e+00	 1.2183712629e+00
 2.1331076545e-01	 1.2286808396e+00	 5.1307164222e-01
 2.0243356764e-01	 1.2305196905e+00	 5.9689098159e-01
 1.9157145879e-01	 1.2322574456e+00	 6.7839265926e-01
 1.8072570807e-01	 1.2338947447e+00	 7.5707706265e-01
 1.6989756590e-01	 1.2354322461e+00	 8.3257263396e-01
 1.5908826370e-01	 1.2368706262e+00	 9.0463246974e-01
 1.4829901361e-01	 1.2382105783e+00	 9.7313089339e-01
 1.3753100833e-01	 1.2394528128e+00	 1.0380600017e+00
 1.2678542081e-01	 1.2405980563e+00	 1.0995261856e+00
 1.1606340415e-01	 1.2416470508e+00	 1.1577466263e+00
 1.0536609135e-01	 1.2426005537e+00	 1.2130457665e+00
 2.1481995300e-01	 1.2373738365e+00	 5.3346543085e-01
 2.0386579830e-01	 1.2392256974e+00	 5.9926696802e-01
 1.9292683932e-01	 1.2409757472e+00	 6.6524626839e-01
 1.8200435421e-01	 1.2426246303e+00	 7.3115854472e-01
 1.7109960223e-01	 1.2441730097e+00	 7.9686658124e-01
 1.6021382351e-01	 1.2456215664e+00	 8.6233747927e-01
 1.4934823878e-01	 1.2469709987e+00	 9.2763940188e-01
 1.3850404916e-01	 1.2482220222e+00	 9.9293831701e-01
 1.2768243591e-01	 1.2493753683e+00	 1.0584947385e+00
 1.1688456029e-01	 1.2504317845e+00	 1.1246604642e+00
 1.0611156330e-01	 1.2513920335e+00	 1.1918753103e+00
 2.1632914054e-01	 1.2460668334e+00	 5.6900941071e-01
 2.0529802896e-01	 1.2479317043e+00	 6.1494789232e-01
 1.9428221986e-01	 1.2496940488e+00	 6.6307166919e-01
 1.8328300036e-01	 1.2513545159e+00	 7.1346419269e-01
 1.7230163857e-01	 1.2529137732e+00	 7.6628859258e-01
 1.6133938333e-01	 1.2543725065e+00	 8.2178464456e-01
 1.5039746395e-01	 1.2557314192e+00	 8.8026577046e-01
 1.3947708999e-01	 1.2569912315e+00	 9.4211606916e-01
 1.2857945101e-01	 1.2581526803e+00	 1.0077873758e+00
 1.1770571642e-01	 1.2592165182e+00	 1.0777963472e+00
 1.0685703526e-01	 1.2601835133e+00	 1.1527215704e+00
 9.9402315743e-02	 1.1722687154e+00	 1.0045371077e+00
 8.9336537019e-02	 1.1730787607e+00	 9.4725626177e-01
 7.9296111967e-02	 1.1738002187e+00	 9.1346222443e-01
 6.9282028370e-02	 1.1744338428e+00	 9.0297112549e-01
 5.9295255177e-02	 1.1749803987e+00	 9.1546668779e-01
 4.9336742402e-02	 1.1754406638e+00	 9.5050273484e-01
 3.9407421038e-02	 1.1758154265e+00	 1.0075057912e+00
 2.9508202981e-02	 1.1761054862e+00	 1.0857777669e+00
 1.9639980971e-02	 1.1763116521e+00	 1.1844987162e+00
 9.8036285459e-03	 1.1764347433e+00	 1.3027296636e+00
 0.0000000000e+00	 1.1764755882e+00	 1.4394154880e+00
 1.0014778769e-01	 1.1810601952e+00	 1.0450233578e+00
 9.0006520230e-02	 1.1818763155e+00	 9.8973429650e-01
 7.9890796577e-02	 1.1826031841e+00	 9.5295421940e-01
 6.9801611929e-02	 1.1832415601e+00	 9.3526028521e-01
 5.9739942500e-02	 1.1837922149e+00	 9.3701449338e-01
 4.9706745429e-02	 1.1842559317e+00	 9.5836738677e-01
 3.9702958691e-02	 1.1846335050e+00	 9.9926191940e-01
 2.9729501022e-02	 1.1849257400e+00	 1.0594374761e+00
 1.9787271856e-02	 1.1851334520e+00	 1.1384340311e+00
 9.8771512812e-03	 1.1852574664e+00	 1.2355964338e+00
 0.0000000000e+00	 1.1852986176e+00	 1.3500788083e+00
 1.0089325965e-01	 1.1898516750e+00	 1.0864095312e+00
 9.0676503440e-02	 1.1906738703e+00	 1.0381688274e+00
 8.0485481187e-02	 1.1914061494e+00	 1.0020945070e+00
 7.0321195488e-02	 1.1920492773e+00	 9.7937329633e-01
 6.0184629823e-02	 1.1926040311e+00	 9.7091601926e-01
 5.0076748456e-02	 1.1930711997e+00	 9.7736213364e-01
 3.9998496345e-02	 1.1934515835e+00	 9.9908448693e-01
 2.9950799063e-02	 1.1937459938e+00	 1.0361942755e+00
 1.9934562741e-02	 1.1939552520e+00	 1.0885461913e+00
 9.9506740167e-03	 1.1940801895e+00	 1.1557437412e+00
 0.0000000000e+00	 1.1941216471e+00	 1.2371447223e+00
 1.0163873160e-01	 1.1986431547e+00	 1.1260961211e+00
 9.1346486650e-02	 1.1994714250e+00	 1.0888452058e+00
 8.1080165797e-02	 1.2002091148e+00	 1.0565702783e+00
 7.0840779046e-02	 1.2008569946e+00	 1.0309177414e+00
 6.0629317146e-02	 1.2014158472e+00	 1.0132190292e+00
 5.0446751484e-02	 1.2018864676e+00	 1.0044956201e+00
 4.0294033999e-02	 1.2022696620e+00	 1.0054643076e+00
 3.0172097105e-02	 1.2025662476e+00	 1.0165427087e+00
 2.0081853626e-02	 1.2027770520e+00	 1.0378549934e+00
 1.0024196752e-02	 1.2029029126e+00	 1.0692378171e+00
 0.0000000000e+00	 1.2029446765e+00	 1.1102464391e+00
 1.0238420355e-01	 1.2074346345e+00	 1.1615570730e+00
 9.2016469860e-02	 1.2082689798e+00	 1.1381550336e+00
 8.1674850407e-02	 1.2090120802e+00	 1.1121927302e+00
 7.1360362605e-02	 1.2096647118e+00	 1.0856278737e+00
 6.1074004469e-02	 1.2102276634e+00	 1.0600854931e+00
 5.0816754512e-02	 1.2107017356e+00	 1.0368630755e+00
 4.0589571654e-02	 1.2110877405e+00	 1.0169359822e+00
 3.0393395146e-02	 1.2113865014e+00	 1.0009631228e+00
 2.0229144511e-02	 1.2115988519e+00	 9.8929286676e-01
 1.0097719488e-02	 1.2117256357e+00	 9.8196917607e-01
 0.0000000000e+00	 1.2117677059e+00	 9.7873793843e-01
 1.0312967550e-01	 1.2162261143e+00	 1.1903370754e+00
 9.2686453070e-02	 1.2170665345e+00	 1.1825922712e+00
 8.2269535017e-02	 1.2178150455e+00	 1.1648925343e+00
 7.1879946164e-02	 1.2184724291e+00	 1.1393599923e+00
 6.1518691792e-02	 1.2190394796e+00	 1.1077874177e+00
 5.1186757540e-02	 1.2195170035e+00	 1.0716431481e+00
 4.0885109308e-02	 1.2199058190e+00	 1.0320762857e+00
 3.0614693188e-02	 1.2202067552e+00	 9.8992215717e-01
 2.0376435397e-02	 1.2204206519e+00	 9.4570801450e-01
 1.0171242224e-02	 1.2205483588e+00	 8.9965895789e-01
 0.0000000000e+00	 1.2205907353e+00	 8.5170406338e-01
 1.0387514745e-01	 1.2250175941e+00	 1.2100489684e+00
 9.3356436280e-02	 1.2258640893e+00	 1.2187495119e+00
 8.2864219627e-02	 1.2266180109e+00	 1.2107154996e+00
 7.2399529723e-02	 1.2272801463e+00	 1.1880880171e+00
 6.1963379116e-02	 1.2278512958e+00	 1.1527028562e+00
 5.1556760567e-02	 1.2283322715e+00	 1.1060948751e+00
 4.1180646962e-02	 1.2287238975e+00	 1.0495026229e+00
 3.0835991230e-02	 1.2290270091e+00	 9.8387321221e-01
 2.0523726282e-02	 1.2292424519e+00	 9.0986741951e-01
 1.0244764960e-02	 1.2293710819e+00	 8.2786499681e-01
 0.0000000000e+00	 1.2294137647e+00	 7.3797017721e-01
 1.0462061940e-01	 1.2338090739e+00	 1.2183712629e+00
 9.4026419490e-02	 1.2346616440e+00	 1.2433144176e+00
 8.3458904237e-02	 1.2354209763e+00	 1.2458184228e+00
 7.2919113282e-02	 1.2360878636e+00	 1.2278992532e+00
 6.2408066439e-02	 1.2366631119e+00	 1.1913120896e+00
 5.1926763595e-02	 1.2371475394e+00	 1.1375547830e+00
 4.1476184617e-02	 1.2375419760e+00	 1.0678715515e+00
 3.1057289272e-02	 1.2378472629e+00	 9.8325689705e-01
 2.0671017167e-02	 1.2380642518e+00	 8.8445972176e-01
 1.0318287695e-02	 1.2381938050e+00	 7.7198763132e-01
 0.0000000000e+00	 1.2382367941e+00	 6.4611140826e-01
 1.0536609135e-01	 1.2426005537e+00	 1.2130457665e+00
 9.4696402700e-02	 1.2434591988e+00	 1.2530663056e+00
 8.4053588847e-02	 1.2442239416e+00	 1.2664651141e+00
 7.3438696840e-02	 1.2448955809e+00	 1.2549903353e+00
 6.2852753762e-02	 1.2454749281e+00	 1.2201939698e+00
 5.2296766623e-02	 1.2459628074e+00	 1.1634341108e+00
 4.1771722271e-02	 1.2463600545e+00	 1.0858773671e+00
 3.1278587314e-02	 1.2466675167e+00	 9.8850145906e-01
 2.0818308052e-02	 1.2468860518e+00	 8.7209797365e-01
 1.0391810431e-02	 1.2470165281e+00	 7.3727526724e-01
 0.0000000000e+00	 1.2470598236e+00	 5.8446150192e-01
 1.0611156330e-01	 1.2513920335e+00	 1.1918753103e+00
 9.5366385910e-02	 1.2522567536e+00	 1.2448728802e+00
 8.4648273457e-02	 1.2530269070e+00	 1.2690225911e+00
 7.3958280399e-02	 1.2537032981e+00	 1.2656633437e+00
 6.3297441085e-02	 1.2542867443e+00	 1.2360224172e+00
 5.2666769650e-02	 1.2547780753e+00	 1.1812161507e+00
 4.2067259925e-02	 1.2551781330e+00	 1.1022507481e+00
 3.1499885355e-02	 1.2554877705e+00	 1.0000231949e+00
 2.0965598937e-02	 1.2557078518e+00	 8.7532227917e-01
 1.0465333166e-02	 1.2558392512e+00	 7.2882970635e-01
 0.0000000000e+00	 1.2558828530e+00	 5.6112129972e-01
 1.0685703526e-01	 1.2601835133e+00	 1.1527215704e+00
 9.6036369121e-02	 1.2610543083e+00	 1.2156871011e+00
 8.5242958067e-02	 1.2618298723e+00	 1.2499574330e+00
 7.4477863958e-02	 1.2625110154e+00	 1.2563220827e+00
 6.3742128408e-02	 1.2630985605e+00	 1.2355630653e+00
 5.3036772677e-02	 1.2635933433e+00	 1.1884537001e+00
 4.2362797579e-02	 1.2639962115e+00	 1.1157574576e+00
 3.1721183396e-02	 1.2643080243e+00	 1.0182268448e+00
 2.1112889822e-02	 1.2645296518e+00	 8.9660232261e-01
 1.0538855902e-02	 1.2646619743e+00	 7.5161125196e-01
 0.0000000000e+00	 1.2647058824e+00	 5.8396686333e-01
 1.2647058824e+00	 0.0000000000e+00	 1.2843099108e+00
 1.2646619743e+00	 1.0538855902e-02	 1.7133490014e+00
 1.2645296518e+00	 2.1112889822e-02	 1.9121011550e+00
 1.2643080243e+00	 3.1721183396e-02	 1.9243002869e+00
 1.2639962115e+00	 4.2362797579e-02	 1.7945134898e+00
 1.2635933433e+00	 5.3036772677e-02	 1.5681056419e+00
 1.2630985605e+00	 6.3742128408e-02	 1.2912015683e+00
 1.2625110154e+00	 7.4477863958e-02	 1.0106457473e+00
 1.2618298723e+00	 8.5242958067e-02	 7.7395956923e-01
 1.2610543083e+00	 9.6036369121e-02	 6.2929615708e-01
 1.2601835133e+00	 1.0685703526e-01	 6.2539276841e-01
 1.2735289118e+00	 0.0000000000e+00	 4.7454723746e-02
 1.2734846974e+00	 1.0612378637e-02	 8.0484034966e-01
 1.2733514517e+00	 2.1260180706e-02	 1.2342522866e+00
 1.2731282781e+00	 3.1942481437e-02	 1.3941016424e+00
 1.2728142900e+00	 4.2658335232e-02	 1.3439799110e+00
 1.2724086113e+00	 5.3406775704e-02	 1.1446124001e+00
 1.2719103766e+00	 6.4186815730e-02	 8.5780846289e-01
 1.2713187326e+00	 7.4997447517e-02	 5.4640852447e-01
 1.2706328377e+00	 8.5837642678e-02	 2.7422790800e-01
 1.2698518631e+00	 9.6706352331e-02	 1.0599746928e-01
 1.2689749930e+00	 1.0760250721e-01	 1.0730106070e-01
 1.2823519412e+00	 0.0000000000e+00	-1.0179209311e+00
 1.2823074205e+00	 1.0685901372e-02	 1.8246755070e-02
 1.2821732517e+00	 2.1407471590e-02	 6.4191307663e-01
 1.2819485320e+00	 3.2163779477e-02	 9.2421597908e-01
 1.2816323685e+00	 4.2953872885e-02	 9.3776973865e-01
 1.2812238792e+00	 5.3776778731e-02	 7.5660829274e-01
 1.2807221928e+00	 6.4631503053e-02	 4.5612471599e-01
 1.2801264499e+00	 7.5517031075e-02	 1.1300683156e-01
 1.2794358031e+00	 8.6432327288e-02	-1.9483104052e-01
 1.2786494178e+00	 9.7376335543e-02	-3.8832018694e-01
 1.2777664728e+00	 1.0834797916e-01	-3.8731343543e-01
 1.2911749706e+00	 0.0000000000e+00	-1.9177256487e+00
 1.2911301436e+00	 1.0759424106e-02	-6.4909245904e-01
 1.2909950516e+00	 2.1554762474e-02	 1.3500203712e-01
 1.2907687858e+00	 3.2385077517e-02	 5.1651229269e-01
 1.2904504470e+00	 4.3249410537e-02	 5.7911458085e-01
 1.2900391472e+00	 5.4146781757e-02	 4.0814129968e-01
 1.2895340090e+00	 6.5076190375e-02	 9.0510852768e-02
 1.2889341671e+00	 7.6036614634e-02	-2.8534690597e-01
 1.2882387684e+00	 8.7027011899e-02	-6.2956966165e-01
 1.2874469726e+00	 9.8046318754e-02	-8.5094605003e-01
 1.2865579526e+00	 1.0909345111e-01	-8.5700346828e-01
 1.2999980000e+00	 0.0000000000e+00	-2.6577051968e+00
 1.2999528667e+00	 1.0832946841e-02	-1.1997622114e+00
 1.2998168516e+00	 2.1702053357e-02	-2.8655564190e-01
 1.2995890396e+00	 3.2606375557e-02	 1.7281408661e-01
 1.2992685255e+00	 4.3544948190e-02	 2.7116419185e-01
 1.2988544151e+00	 5.4516784784e-02	 1.0315587215e-01
 1.2983458252e+00	 6.5520877698e-02	-2.3478426222e-01
 1.2977418844e+00	 7.6556198193e-02	-6.4454767574e-01
 1.2970417338e+00	 8.7621696510e-02	-1.0264323108e+00
 1.2962445273e+00	 9.8716301966e-02	-1.2792358936e+00
 1.2953494324e+00	 1.0983892307e-01	-1.3003541173e+00
 1.3088210294e+00	 0.0000000000e+00	-3.2434480030e+00
 1.3087755898e+00	 1.0906469576e-02	-1.6362742200e+00
 1.3086386516e+00	 2.1849344241e-02	-6.2282832795e-01
 1.3084092934e+00	 3.2827673597e-02	-1.0509911325e-01
 1.3080866040e+00	 4.3840485843e-02	 1.6989203243e-02
 1.3076696830e+00	 5.4886787810e-02	-1.5450361632e-01
 1.3071576413e+00	 6.5965565021e-02	-5.1561971121e-01
 1.3065496016e+00	 7.7075781752e-02	-9.6059431987e-01
 1.3058446991e+00	 8.8216381121e-02	-1.3819522880e+00
 1.3050420821e+00	 9.9386285178e-02	-1.6706098711e+00
 1.3041409122e+00	 1.1058439502e-01	-1.7159818036e+00
 1.3176440588e+00	 0.0000000000e+00	-3.6803904204e+00
 1.3175983129e+00	 1.0979992310e-02	-1.9610694563e+00
 1.3174604515e+00	 2.1996635124e-02	-8.7387817215e-01
 1.3172295472e+00	 3.3048971637e-02	-3.1549030456e-01
 1.3169046825e+00	 4.4136023495e-02	-1.8041625496e-01
 1.3164849510e+00	 5.5256790837e-02	-3.6108955745e-01
 1.3159694575e+00	 6.6410252343e-02	-7.4795895855e-01
 1.3153573189e+00	 7.7595365311e-02	-1.2295861191e+00
 1.3146476645e+00	 8.8811065732e-02	-1.6927489335e+00
 1.3138396368e+00	 1.0005626839e-01	-2.0225504467e+00
 1.3129323920e+00	 1.1132986698e-01	-2.1025333400e+00
 1.3264670883e+00	 0.0000000000e+00	-3.9738217838e+00
 1.3264210360e+00	 1.1053515045e-02	-2.1765205019e+00
 1.3262822515e+00	 2.2143926008e-02	-1.0397613264e+00
 1.3260498010e+00	 3.3270269677e-02	-4.5666361278e-01
 1.3257227610e+00	 4.4431561148e-02	-3.1813203765e-01
 1.3253002189e+00	 5.5626793863e-02	-5.1294792793e-01
 1.3247812737e+00	 6.6854939666e-02	-9.2786642823e-01
 1.3241650361e+00	 7.8114948871e-02	-1.4477195135e+00
 1.3234506299e+00	 8.9405750344e-02	-1.9555248394e+00
 1.3226371916e+00	 1.0072625160e-01	-2.3326004088e+00
 1.3217238717e+00	 1.1207533893e-01	-2.4586850187e+00
 1.3352901177e+00	 0.0000000000e+00	-4.1288892654e+00
 1.3352437590e+00	 1.1127037780e-02	-2.2849338115e+00
 1.3351040515e+00	 2.2291216892e-02	-1.1205281516e+00
 1.3348700548e+00	 3.3491567718e-02	-5.2696295067e-01
 1.3345408395e+00	 4.4727098801e-02	-3.9330956783e-01
 1.3341154869e+00	 5.5996796890e-02	-6.0651523524e-01
 1.3335930898e+00	 6.7299626990e-02	-1.0515042171e+00
 1.3329727534e+00	 7.8634532431e-02	-1.6112849525e+00
 1.3322535952e+00	 9.0000434956e-02	-2.1670631721e+00
 1.3314347463e+00	 1.0139623482e-01	-2.5983609619e+00
 1.3305153515e+00	 1.1282081089e-01	-2.7831417348e+00
 1.3441131471e+00	 0.0000000000e+00	-4.1506025393e+00
 1.3440664821e+00	 1.1200560515e-02	-2.2885518869e+00
 1.3439258514e+00	 2.2438507776e-02	-1.1162234183e+00
 1.3436903087e+00	 3.3712865758e-02	-5.2477073058e-01
 1.3433589180e+00	 4.5022636455e-02	-4.0316951491e-01
 1.3429307548e+00	 5.6366799918e-02	-6.3831558370e-01
 1.3424049060e+00	 6.7744314314e-02	-1.1151289372e+00
 1.3417804706e+00	 7.9154115991e-02	-1.7166638695e+00
 1.3410565606e+00	 9.0595119568e-02	-2.3242250991e+00
 1.3402323011e+00	 1.0206621803e-01	-2.8174898935e+00
 1.3393068313e+00	 1.1356628284e-01	-3.0746361443e+00
 1.3529361765e+00	 0.0000000000e+00	-4.0438382627e+00
 1.3528892052e+00	 1.1274083250e-02	-2.1895553657e+00
 1.3527476514e+00	 2.2585798660e-02	-1.0268864988e+00
 1.3525105625e+00	 3.3934163799e-02	-4.4850662715e-01
 1.3521769965e+00	 4.5318174109e-02	-3.4499956390e-01
 1.3517460228e+00	 5.6736802946e-02	-6.0495785529e-01
 1.3512167222e+00	 6.8189001638e-02	-1.1150886823e+00
 1.3505881879e+00	 7.9673699552e-02	-1.7603257746e+00
 1.3498595259e+00	 9.1189804181e-02	-2.4239473170e+00
 1.3490298559e+00	 1.0273620124e-01	-2.9876998128e+00
 1.3480983111e+00	 1.1431175480e-01	-3.3319278546e+00
 1.2601835133e+00	 1.0685703526e-01	 6.2539276841e-01
 1.2592165182e+00	 1.1770571642e-01	 7.7686902421e-01
 1.2581526803e+00	 1.2857945101e-01	 1.0432946439e+00
 1.2569912315e+00	 1.3947708999e-01	 1.3910684114e+00
 1.2557314192e+00	 1.5039746395e-01	 1.7863163644e+00
 1.2543725065e+00	 1.6133938333e-01	 2.1949081306e+00
 1.2529137732e+00	 1.7230163857e-01	 2.5824735529e+00
 1.2513545159e+00	 1.8328300036e-01	 2.9144196268e+00
 1.2496940488e+00	 1.9428221986e-01	 3.1559477726e+00
 1.2479317043e+00	 2.0529802896e-01	 3.2720714698e+00
 1.2460668334e+00	 2.1632914054e-01	 3.2276342805e+00
 1.2689749930e+00	 1.0760250721e-01	 1.0730106070e-01
 1.2680012519e+00	 1.1852687256e-01	 3.0707230465e-01
 1.2669299922e+00	 1.2947646612e-01	 6.6200203266e-01
 1.2657604408e+00	 1.4045013082e-01	 1.1296288728e+00
 1.2644918396e+00	 1.5144668913e-01	 1.6670611761e+00
 1.2631234467e+00	 1.6246494315e-01	 2.2310011083e+00
 1.2616545368e+00	 1.7350367490e-01	 2.7777694044e+00
 1.2600844015e+00	 1.8456164650e-01	 3.2633308072e+00
 1.2584123505e+00	 1.9563760040e-01	 3.6433202113e+00
 1.2566377112e+00	 2.0673025963e-01	 3.8730695393e+00
 1.2547598303e+00	 2.1783832809e-01	 3.9076353741e+00
 1.2777664728e+00	 1.0834797916e-01	-3.8731343543e-01
 1.2767859856e+00	 1.1934802870e-01	-1.5102222327e-01
 1.2757073042e+00	 1.3037348122e-01	 2.7450189718e-01
 1.2745296501e+00	 1.4142317166e-01	 8.3953740339e-01
 1.2732522600e+00	 1.5249591430e-01	 1.4938082421e+00
 1.2718743869e+00	 1.6359050297e-01	 2.1865144069e+00
 1.2703953003e+00	 1.7470571124e-01	 2.8663634800e+00
 1.2688142872e+00	 1.8584029265e-01	 3.4816031580e+00
 1.2671306521e+00	 1.9699298093e-01	 3.9800547846e+00
 1.2653437181e+00	 2.0816249029e-01	 4.3091479133e+00
 1.2634528272e+00	 2.1934751563e-01	 4.4159559230e+00
 1.2865579526e+00	 1.0909345111e-01	-8.5700346828e-01
 1.2855707192e+00	 1.2016918483e-01	-5.9719844722e-01
 1.2844846162e+00	 1.3127049632e-01	-1.1988075562e-01
 1.2832988594e+00	 1.4239621249e-01	 5.1953569350e-01
 1.2820126804e+00	 1.5354513947e-01	 1.2649909690e+00
 1.2806253271e+00	 1.6471606279e-01	 2.0598149276e+00
 1.2791360639e+00	 1.7590774757e-01	 2.8467642148e+00
 1.2775441728e+00	 1.8711893879e-01	 3.5680604802e+00
 1.2758489537e+00	 1.9834836147e-01	 4.1654298294e+00
 1.2740497250e+00	 2.0959472096e-01	 4.5801435349e+00
 1.2721458241e+00	 2.2085670318e-01	 4.7530600276e+00
 1.2953494324e+00	 1.0983892307e-01	-1.3003541173e+00
 1.2943554529e+00	 1.2099034097e-01	-1.0312393502e+00
 1.2932619282e+00	 1.3216751143e-01	-5.2179608918e-01
 1.2920680687e+00	 1.4336925333e-01	 1.6840576263e-01
 1.2907731009e+00	 1.5459436464e-01	 9.7909106546e-01
 1.2893762672e+00	 1.6584162261e-01	 1.8493192330e+00
 1.2878768274e+00	 1.7710978391e-01	 2.7175253779e+00
 1.2862740584e+00	 1.8839758494e-01	 3.5215628326e+00
 1.2845672553e+00	 1.9970374201e-01	 4.1987470672e+00
 1.2827557319e+00	 2.1102695162e-01	 4.6859010249e+00
 1.2808388210e+00	 2.2236589073e-01	 4.9194018984e+00
 1.3041409122e+00	 1.1058439502e-01	-1.7159818036e+00
 1.3031401866e+00	 1.2181149711e-01	-1.4529271542e+00
 1.3020392402e+00	 1.3306452653e-01	-9.3187040032e-01
 1.3008372780e+00	 1.4434229416e-01	-2.1503153866e-01
 1.2995335213e+00	 1.5564358982e-01	 6.3463676373e-01
 1.2981272074e+00	 1.6696718243e-01	 1.5534917120e+00
 1.2966175909e+00	 1.7831182025e-01	 2.4772443725e+00
 1.2950039440e+00	 1.8967623109e-01	 3.3410051290e+00
 1.2932855569e+00	 2.0105912255e-01	 4.0793306270e+00
 1.2914617388e+00	 2.1245918229e-01	 4.6262722271e+00
 1.2895318179e+00	 2.2387507828e-01	 4.9154259901e+00
 1.3129323920e+00	 1.1132986698e-01	-2.1025333400e+00
 1.3119249203e+00	 1.2263265325e-01	-1.8620434582e+00
 1.3108165522e+00	 1.3396154164e-01	-1.3507070432e+00
 1.3096064874e+00	 1.4531533500e-01	-6.3191796596e-01
 1.3082939417e+00	 1.5669281499e-01	 2.3020111301e-01
 1.3068781476e+00	 1.6809274225e-01	 1.1708428185e+00
 1.3053583545e+00	 1.7951385658e-01	 2.1245606053e+00
 1.3037338296e+00	 1.9095487723e-01	 3.0253157926e+00
 1.3020038586e+00	 2.0241450309e-01	 3.8065261097e+00
 1.3001677457e+00	 2.1389141296e-01	 4.4011157753e+00
 1.2982248148e+00	 2.2538426583e-01	 4.7415671314e+00
 1.3217238717e+00	 1.1207533893e-01	-2.4586850187e+00
 1.3207096540e+00	 1.2345380939e-01	-2.2583693698e+00
 1.3195938641e+00	 1.3485855674e-01	-1.7788873160e+00
 1.3183756967e+00	 1.4628837584e-01	-1.0833592603e+00
 1.3170543621e+00	 1.5774204017e-01	-2.3559965799e-01
 1.3156290877e+00	 1.6921830207e-01	 6.9992738218e-01
 1.3140991180e+00	 1.8071589292e-01	 1.6581539225e+00
 1.3124637152e+00	 1.9223352338e-01	 2.5734554655e+00
 1.3107221602e+00	 2.0376988363e-01	 3.3796996901e+00
 1.3088737526e+00	 2.1532364362e-01	 4.0102966783e+00
 1.3069178117e+00	 2.2689345338e-01	 4.3982506526e+00
 1.3305153515e+00	 1.1282081089e-01	-2.7831417348e+00
 1.3294943877e+00	 1.2427496553e-01	-2.6416856314e+00
 1.3283711761e+00	 1.3575557185e-01	-2.2169713118e+00
 1.3271449060e+00	 1.4726141667e-01	-1.5704264719e+00
 1.3258147825e+00	 1.5879126534e-01	-7.6410771299e-01
 1.3243800279e+00	 1.7034386189e-01	 1.3934298601e-01
 1.3228398816e+00	 1.8191792926e-01	 1.0767431080e+00
 1.3211936009e+00	 1.9351216953e-01	 1.9844157711e+00
 1.3194404618e+00	 2.0512526417e-01	 2.7982372577e+00
 1.3175797595e+00	 2.1675587429e-01	 3.4536859234e+00
 1.3156108086e+00	 2.2840264093e-01	 3.8858925101e+00
 1.3393068313e+00	 1.1356628284e-01	-3.0746361443e+00
 1.3382791214e+00	 1.2509612167e-01	-3.0117727416e+00
 1.3371484881e+00	 1.3665258695e-01	-2.6654987356e+00
 1.3359141153e+00	 1.4823445751e-01	-2.0941572319e+00
 1.3345752030e+00	 1.5984049051e-01	-1.3566251174e+00
 1.3331309681e+00	 1.7146942171e-01	-5.1227159036e-01
 1.3315806451e+00	 1.8311996559e-01	 3.7908444288e-01
 1.3299234865e+00	 1.9479081568e-01	 1.2572181261e+00
 1.3281587634e+00	 2.0648064471e-01	 2.0615435908e+00
 1.3262857663e+00	 2.1818810496e-01	 2.7311600976e+00
 1.3243038055e+00	 2.2991182847e-01	 3.2048994074e+00
 1.3480983111e+00	 1.1431175480e-01	-3.3319278546e+00
 1.3470638551e+00	 1.2591727781e-01	-3.3684110704e+00
 1.3459258001e+00	 1.3754960206e-01	-3.1249896891e+00
 1.3446833246e+00	 1.4920749834e-01	-2.6555569730e+00
 1.3433356234e+00	 1.6088971569e-01	-2.0144152880e+00
 1.3418819083e+00	 1.7259498153e-01	-1.2562378661e+00
 1.3403214086e+00	 1.8432200193e-01	-4.3602967861e-01
 1.3386533721e+00	 1.9606946182e-01	 3.9091260019e-01
 1.3368770650e+00	 2.0783602525e-01	 1.1690415668e+00
 1.3349917732e+00	 2.1962033562e-01	 1.8426010251e+00
 1.3329968024e+00	 2.3142101602e-01	 2.3556689142e+00
 1.2460668334e+00	 2.1632914054e-01	 3.2276342805e+00
 1.2440991495e+00	 2.2737237065e-01	 3.0717126776e+00
 1.2420277338e+00	 2.3842827199e-01	 2.8843817575e+00
 1.2398519961e+00	 2.4949550584e-01	 2.6770991002e+00
 1.2375713667e+00	 2.6057271584e-01	 2.4615217121e+00
 1.2351852976e+00	 2.7165852822e-01	 2.2494832299e+00
 1.2326932625e+00	 2.8275155227e-01	 2.0529704960e+00
 1.2300947574e+00	 2.9385038065e-01	 1.8840995798e+00
 1.2273893016e+00	 3.0495358983e-01	 1.7550913208e+00
 1.2245764373e+00	 3.1605974053e-01	 1.6782464722e+00
 1.2216557311e+00	 3.2716737810e-01	 1.6659205292e+00
 1.2547598303e+00	 2.1783832809e-01	 3.9076353741e+00
 1.2527784191e+00	 2.2895859963e-01	 3.7883465425e+00
 1.2506925525e+00	 2.4009163078e-01	 3.5982592601e+00
 1.2485016361e+00	 2.5123607352e-01	 3.3551085953e+00
 1.2462050963e+00	 2.6239056200e-01	 3.0769222900e+00
 1.2438023811e+00	 2.7355371288e-01	 2.7819905894e+00
 1.2412929607e+00	 2.8472412573e-01	 2.4888351793e+00
 1.2386763276e+00	 2.9590038340e-01	 2.2161773133e+00
 1.2359519975e+00	 3.0708105245e-01	 1.9829052126e+00
 1.2331195097e+00	 3.1826468353e-01	 1.8080408289e+00
 1.2301784277e+00	 3.2944981186e-01	 1.7107060617e+00
 1.2634528272e+00	 2.1934751563e-01	 4.4159559230e+00
 1.2614576888e+00	 2.3054482860e-01	 4.3353750019e+00
 1.2593573713e+00	 2.4175498958e-01	 4.1525575779e+00
 1.2571512761e+00	 2.5297664121e-01	 3.8900179855e+00
 1.2548388259e+00	 2.6420840816e-01	 3.5706298528e+00
 1.2524194647e+00	 2.7544889753e-01	 3.2175899609e+00
 1.2498926589e+00	 2.8669669919e-01	 2.8543810105e+00
 1.2472578977e+00	 2.9795038616e-01	 2.5047333823e+00
 1.2445146934e+00	 3.0920851507e-01	 2.1925859859e+00
 1.2416625821e+00	 3.2046962653e-01	 1.9420462924e+00
 1.2387011242e+00	 3.3173224561e-01	 1.7773496522e+00
 1.2721458241e+00	 2.2085670318e-01	 4.7530600276e+00
 1.2701369584e+00	 2.3213105757e-01	 4.7137802383e+00
 1.2680221900e+00	 2.4341834838e-01	 4.5485349574e+00
 1.2658009162e+00	 2.5471720889e-01	 4.2831507397e+00
 1.2634725554e+00	 2.6602625432e-01	 3.9438538290e+00
 1.2610365482e+00	 2.7734408219e-01	 3.5572294333e+00
 1.2584923571e+00	 2.8866927265e-01	 3.1501797689e+00
 1.2558394678e+00	 3.0000038892e-01	 2.7498809657e+00
 1.2530773893e+00	 3.1133597769e-01	 2.3837389356e+00
 1.2502056545e+00	 3.2267456953e-01	 2.0793443069e+00
 1.2472238207e+00	 3.3401467937e-01	 1.8644265333e+00
 1.2808388210e+00	 2.2236589073e-01	 4.9194018984e+00
 1.2788162281e+00	 2.3371728655e-01	 4.9245199505e+00
 1.2766870088e+00	 2.4508170717e-01	 4.7874171584e+00
 1.2744505562e+00	 2.5645777657e-01	 4.5357955923e+00
 1.2721062850e+00	 2.6784410049e-01	 4.1977715720e+00
 1.2696536317e+00	 2.7923926685e-01	 3.8018317285e+00
 1.2670920553e+00	 2.9064184611e-01	 3.3767877559e+00
 1.2644210380e+00	 3.0205039168e-01	 2.9517299547e+00
 1.2616400853e+00	 3.1346344031e-01	 2.5559796732e+00
 1.2587487269e+00	 3.2487951253e-01	 2.2190407552e+00
 1.2557465173e+00	 3.3629711312e-01	 1.9705501118e+00
 1.2895318179e+00	 2.2387507828e-01	 4.9154259901e+00
 1.2874954977e+00	 2.3530351552e-01	 4.9685279757e+00
 1.2853518275e+00	 2.4674506597e-01	 4.8703983454e+00
 1.2831001962e+00	 2.5819834425e-01	 4.6492075116e+00
 1.2807400145e+00	 2.6966194665e-01	 4.3335292429e+00
 1.2782707152e+00	 2.8113445150e-01	 3.9522948642e+00
 1.2756917535e+00	 2.9261441957e-01	 3.5347461320e+00
 1.2730026081e+00	 3.0410039444e-01	 3.1103868906e+00
 1.2702027812e+00	 3.1559090293e-01	 2.7089336204e+00
 1.2672917993e+00	 3.2708445554e-01	 2.3602649939e+00
 1.2642692138e+00	 3.3857954688e-01	 2.0943705607e+00
 1.2982248148e+00	 2.2538426583e-01	 4.7415671314e+00
 1.2961747674e+00	 2.3688974449e-01	 4.8467148899e+00
 1.2940166462e+00	 2.4840842477e-01	 4.7986419460e+00
 1.2917498362e+00	 2.5993891193e-01	 4.6246086327e+00
 1.2893737441e+00	 2.7147979281e-01	 4.3522426604e+00
 1.2868877987e+00	 2.8302963616e-01	 4.0094927932e+00
 1.2842914517e+00	 2.9458699304e-01	 3.6245812459e+00
 1.2815841782e+00	 3.0615039720e-01	 3.2259549105e+00
 1.2787654771e+00	 3.1771836555e-01	 2.8422355292e+00
 1.2758348717e+00	 3.2928939854e-01	 2.5021689333e+00
 1.2727919104e+00	 3.4086198063e-01	 2.2345734750e+00
 1.3069178117e+00	 2.2689345338e-01	 4.3982506526e+00
 1.3048540370e+00	 2.3847597347e-01	 4.5599685864e+00
 1.3026814650e+00	 2.5007178357e-01	 4.5732814783e+00
 1.3003994763e+00	 2.6167947961e-01	 4.4631891566e+00
 1.2980074737e+00	 2.7329763897e-01	 4.2549981219e+00
 1.2955048822e+00	 2.8492482082e-01	 3.9742760227e+00
 1.2928911499e+00	 2.9655956650e-01	 3.6468049548e+00
 1.2901657484e+00	 3.0820039996e-01	 3.2985337007e+00
 1.2873281730e+00	 3.1984582817e-01	 2.9555290262e+00
 1.2843779441e+00	 3.3149434154e-01	 2.6439261605e+00
 1.2813146069e+00	 3.4314441439e-01	 2.3898785878e+00
 1.3156108086e+00	 2.2840264093e-01	 3.8858925101e+00
 1.3135333067e+00	 2.4006220244e-01	 4.1091548339e+00
 1.3113462837e+00	 2.5173514237e-01	 4.1954213478e+00
 1.3090491163e+00	 2.6342004730e-01	 4.1661082161e+00
 1.3066412032e+00	 2.7511548514e-01	 4.0428531945e+00
 1.3041219657e+00	 2.8682000547e-01	 3.8474722113e+00
 1.3014908481e+00	 2.9853213996e-01	 3.6019149361e+00
 1.2987473185e+00	 3.1025040272e-01	 3.3282194562e+00
 1.2958908690e+00	 3.2197329079e-01	 3.0484661812e+00
 1.2929210165e+00	 3.3369928454e-01	 2.7847311032e+00
 1.2898373034e+00	 3.4542684815e-01	 2.5590385450e+00
 1.3243038055e+00	 2.2991182847e-01	 3.2048994074e+00
 1.3222125763e+00	 2.4164843142e-01	 3.4951178150e+00
 1.3200111024e+00	 2.5339850116e-01	 3.6661376157e+00
 1.3176987563e+00	 2.6516061498e-01	 3.7344947115e+00
 1.3152749328e+00	 2.7693333130e-01	 3.7168374791e+00
 1.3127390492e+00	 2.8871519013e-01	 3.6298867482e+00
 1.3100905464e+00	 3.0050471342e-01	 3.4903949916e+00
 1.3073288886e+00	 3.1230040548e-01	 3.3151048476e+00
 1.3044535649e+00	 3.2410075341e-01	 3.1207070980e+00
 1.3014640889e+00	 3.3590422754e-01	 2.9237982329e+00
 1.2983600000e+00	 3.4770928190e-01	 2.7408377334e+00
 1.3329968024e+00	 2.3142101602e-01	 2.3556689142e+00
 1.3308918460e+00	 2.4323466039e-01	 2.7186806460e+00
 1.3286759212e+00	 2.5506185996e-01	 2.9864787402e+00
 1.3263483964e+00	 2.6690118266e-01	 3.1694481164e+00
 1.3239086624e+00	 2.7875117746e-01	 3.2779533473e+00
 1.3213561328e+00	 2.9061037479e-01	 3.3223033124e+00
 1.3186902446e+00	 3.0247728689e-01	 3.3127153448e+00
 1.3159104587e+00	 3.1435040825e-01	 3.2592789937e+00
 1.3130162608e+00	 3.2622821604e-01	 3.1719195267e+00
 1.3100071613e+00	 3.3810917055e-01	 3.0603613053e+00
 1.3068826965e+00	 3.4999171566e-01	 2.9340911634e+00
 1.2216557311e+00	 3.2716737810e-01	 1.6659205292e+00
 1.2186267741e+00	 3.3827503318e-01	 1.6830486292e+00
 1.2154891835e+00	 3.4938122261e-01	 1.6829241339e+00
 1.2122426019e+00	 3.6048444952e-01	 1.6603623915e+00
 1.2088866979e+00	 3.7158320363e-01	 1.6102646953e+00
 1.2054211666e+00	 3.8267596183e-01	 1.5517793719e+00
 1.2018457296e+00	 3.9376118865e-01	 1.4985465022e+00
 1.1981601358e+00	 4.0483733686e-01	 1.4486537373e+00
 1.1943641616e+00	 4.1590284802e-01	 1.4001557014e+00
 1.1904576115e+00	 4.2695615308e-01	 1.3510778611e+00
 1.1864403182e+00	 4.3799567291e-01	 1.2994206114e+00
 1.2301784277e+00	 3.2944981186e-01	 1.7107060617e+00
 1.2271283396e+00	 3.4063495781e-01	 1.6610974106e+00
 1.2239688600e+00	 3.5181862790e-01	 1.6116081123e+00
 1.2206996291e+00	 3.6299931479e-01	 1.5545575767e+00
 1.2173203133e+00	 3.7417549768e-01	 1.4844309050e+00
 1.2138306052e+00	 3.8534564283e-01	 1.4243114500e+00
 1.2102302247e+00	 3.9650820405e-01	 1.3784899361e+00
 1.2065189189e+00	 4.0766162334e-01	 1.3423252603e+00
 1.2026964626e+00	 4.1880433137e-01	 1.3110968490e+00
 1.1987626590e+00	 4.2993474813e-01	 1.2800114669e+00
 1.1947173398e+00	 4.4105128351e-01	 1.2442103659e+00
 1.2387011242e+00	 3.3173224561e-01	 1.7773496522e+00
 1.2356299051e+00	 3.4299488244e-01	 1.6726918669e+00
 1.2324485366e+00	 3.5425603318e-01	 1.5799178943e+00
 1.2291566564e+00	 3.6551418005e-01	 1.4896198855e+00
 1.2257539286e+00	 3.7676779173e-01	 1.3990226380e+00
 1.2222400438e+00	 3.8801532382e-01	 1.3317870952e+00
 1.2186147198e+00	 3.9925521946e-01	 1.2854324405e+00
 1.2148777020e+00	 4.1048590982e-01	 1.2534164467e+00
 1.2110287637e+00	 4.2170581472e-01	 1.2290842932e+00
 1.2070677066e+00	 4.3291334319e-01	 1.2056774203e+00
 1.2029943613e+00	 4.4410689411e-01	 1.1763428146e+00
 1.2472238207e+00	 3.3401467937e-01	 1.8644265333e+00
 1.2441314706e+00	 3.4535480707e-01	 1.7160284107e+00
 1.2409282131e+00	 3.5669343846e-01	 1.5858754315e+00
 1.2376136837e+00	 3.6802904532e-01	 1.4635856071e+00
 1.2341875439e+00	 3.7936008577e-01	 1.3523903222e+00
 1.2306494823e+00	 3.9068500482e-01	 1.2728774075e+00
 1.2269992148e+00	 4.0200223487e-01	 1.2185040755e+00
 1.2232364850e+00	 4.1331019630e-01	 1.1816380480e+00
 1.2193610647e+00	 4.2460729806e-01	 1.1545144419e+00
 1.2153727542e+00	 4.3589193825e-01	 1.1292457857e+00
 1.2112713829e+00	 4.4716250471e-01	 1.0978325256e+00
 1.2557465173e+00	 3.3629711312e-01	 1.9705501118e+00
 1.2526330361e+00	 3.4771473171e-01	 1.7893520048e+00
 1.2494078897e+00	 3.5913084374e-01	 1.6275561593e+00
 1.2460707109e+00	 3.7054391059e-01	 1.4745479444e+00
 1.2426211592e+00	 3.8195237982e-01	 1.3429210435e+00
 1.2390589209e+00	 3.9335468582e-01	 1.2462805930e+00
 1.2353837099e+00	 4.0474925027e-01	 1.1768487259e+00
 1.2315952681e+00	 4.1613448278e-01	 1.1266980797e+00
 1.2276933657e+00	 4.2750878141e-01	 1.0877615848e+00
 1.2236778018e+00	 4.3887053331e-01	 1.0518427673e+00
 1.2195484044e+00	 4.5021811531e-01	 1.0106265710e+00
 1.2642692138e+00	 3.3857954688e-01	 2.0943705607e+00
 1.2611346015e+00	 3.5007465634e-01	 1.8909544280e+00
 1.2578875662e+00	 3.6156824903e-01	 1.7030871237e+00
 1.2545277382e+00	 3.7305877585e-01	 1.5218719346e+00
 1.2510547745e+00	 3.8454467387e-01	 1.3690370062e+00
 1.2474683594e+00	 3.9602436682e-01	 1.2507207625e+00
 1.2437682049e+00	 4.0749626568e-01	 1.1596233651e+00
 1.2399540512e+00	 4.1895876926e-01	 1.0883016643e+00
 1.2360256667e+00	 4.3041026476e-01	 1.0291784120e+00
 1.2319828493e+00	 4.4184912837e-01	 9.7455198502e-01
 1.2278254259e+00	 4.5327372591e-01	 9.1660662636e-01
 1.2727919104e+00	 3.4086198063e-01	 2.2345734750e+00
 1.2696361670e+00	 3.5243458097e-01	 2.0191726183e+00
 1.2663672428e+00	 3.6400565431e-01	 1.8106451911e+00
 1.2629847655e+00	 3.7557364112e-01	 1.6048102965e+00
 1.2594883898e+00	 3.8713696792e-01	 1.4291940694e+00
 1.2558777980e+00	 3.9869404781e-01	 1.2849467935e+00
 1.2521527000e+00	 4.1024328109e-01	 1.1659973653e+00
 1.2483128342e+00	 4.2178305574e-01	 1.0661508977e+00
 1.2443579678e+00	 4.3331174810e-01	 9.7909653047e-01
 1.2402878969e+00	 4.4482772342e-01	 8.9841571867e-01
 1.2361024475e+00	 4.5632933651e-01	 8.1759100649e-01
 1.2813146069e+00	 3.4314441439e-01	 2.3898785878e+00
 1.2781377325e+00	 3.5479450560e-01	 2.1723870897e+00
 1.2748469193e+00	 3.6644305959e-01	 1.9484553380e+00
 1.2714417927e+00	 3.7808850639e-01	 1.7217054686e+00
 1.2679220051e+00	 3.8972926196e-01	 1.5218803565e+00
 1.2642872365e+00	 4.0136372881e-01	 1.3477312527e+00
 1.2605371951e+00	 4.1299029649e-01	 1.1951518518e+00
 1.2566716173e+00	 4.2460734222e-01	 1.0599447383e+00
 1.2526902688e+00	 4.3621323145e-01	 9.3782697800e-01
 1.2485929445e+00	 4.4780631848e-01	 8.2443612272e-01
 1.2443794690e+00	 4.5938494711e-01	 7.1533664077e-01
 1.2898373034e+00	 3.4542684815e-01	 2.5590385450e+00
 1.2866392980e+00	 3.5715443023e-01	 2.3490204199e+00
 1.2833265959e+00	 3.6888046488e-01	 2.1147890170e+00
 1.2798988200e+00	 3.8060337166e-01	 1.8709354670e+00
 1.2763556204e+00	 3.9232155601e-01	 1.6456149332e+00
 1.2726966751e+00	 4.0403340981e-01	 1.4378693766e+00
 1.2689216901e+00	 4.1573731190e-01	 1.2462790988e+00
 1.2650304004e+00	 4.2743162870e-01	 1.0693789188e+00
 1.2610225698e+00	 4.3911471479e-01	 9.0566073571e-01
 1.2568979920e+00	 4.5078491354e-01	 7.5357641199e-01
 1.2526564905e+00	 4.6244055771e-01	 6.1154099104e-01
 1.2983600000e+00	 3.4770928190e-01	 2.7408377334e+00
 1.2951408634e+00	 3.5951435487e-01	 2.5475358040e+00
 1.2918062724e+00	 3.7131787016e-01	 2.3081153448e+00
 1.2883558473e+00	 3.8311823692e-01	 2.0509124608e+00
 1.2847892357e+00	 3.9491385006e-01	 1.7989465524e+00
 1.2811061136e+00	 4.0670309081e-01	 1.5541781073e+00
 1.2773061852e+00	 4.1848432731e-01	 1.3185819652e+00
 1.2733891834e+00	 4.3025591518e-01	 1.0941458769e+00
 1.2693548709e+00	 4.4201619814e-01	 8.8286923834e-01
 1.2652030396e+00	 4.5376350860e-01	 6.8676202026e-01
 1.2609335121e+00	 4.6549616831e-01	 5.0784391450e-01
 1.3068826965e+00	 3.4999171566e-01	 2.9340911634e+00
 1.3036424289e+00	 3.6187427950e-01	 2.7664356732e+00
 1.3002859490e+00	 3.7375527545e-01	 2.5284080412e+00
 1.2968128745e+00	 3.8563310219e-01	 2.2600814157e+00
 1.2932228510e+00	 3.9750614411e-01	 1.9804524620e+00
 1.2895155522e+00	 4.0937277181e-01	 1.6954951812e+00
 1.2856906802e+00	 4.2123134272e-01	 1.4112733684e+00
 1.2817479665e+00	 4.3308020167e-01	 1.1339347076e+00
 1.2776871719e+00	 4.4491768149e-01	 8.6970488278e-01
 1.2735080872e+00	 4.5674210366e-01	 6.2488173279e-01
 1.2692105336e+00	 4.6855177891e-01	 4.0582947412e-01
 1.1864403182e+00	 4.3799567291e-01	 1.2994206114e+00
 1.1823114322e+00	 4.4902169174e-01	 1.2412606724e+00
 1.1780715168e+00	 4.6003073296e-01	 1.1752620692e+00
 1.1737204915e+00	 4.7102118972e-01	 1.1032022100e+00
 1.1692583055e+00	 4.8199144765e-01	 1.0267781698e+00
 1.1646849381e+00	 4.9293988553e-01	 9.4760708293e-01
 1.1600003990e+00	 5.0386487593e-01	 8.6722680053e-01
 1.1552047288e+00	 5.1476478594e-01	 7.8709681144e-01
 1.1502979987e+00	 5.2563797785e-01	 7.0859942800e-01
 1.1452803116e+00	 5.3648280987e-01	 6.3304123287e-01
 1.1401518013e+00	 5.4729763683e-01	 5.6165478201e-01
 1.1947173398e+00	 4.4105128351e-01	 1.2442103659e+00
 1.1905596492e+00	 4.5215422370e-01	 1.1968872288e+00
 1.1862901547e+00	 4.6324006783e-01	 1.1361551399e+00
 1.1819087751e+00	 4.7430719784e-01	 1.0644604261e+00
 1.1774154593e+00	 4.8535398812e-01	 9.8423748496e-01
 1.1728101865e+00	 4.9637880612e-01	 8.9790911821e-01
 1.1680929665e+00	 5.0738001307e-01	 8.0788704754e-01
 1.1632638399e+00	 5.1835596466e-01	 7.1657261407e-01
 1.1583228788e+00	 5.2930501175e-01	 6.2635765918e-01
 1.1532701865e+00	 5.4022550109e-01	 5.3962558306e-01
 1.1481058980e+00	 5.5111577606e-01	 4.5875257459e-01
 1.2029943613e+00	 4.4410689411e-01	 1.1763428146e+00
 1.1988078661e+00	 4.5528675565e-01	 1.1327410429e+00
 1.1945087925e+00	 4.6644940269e-01	 1.0729829773e+00
 1.1900970587e+00	 4.7759320597e-01	 9.9984152425e-01
 1.1855726132e+00	 4.8871652860e-01	 9.1613420560e-01
 1.1809354349e+00	 4.9981772672e-01	 8.2472375545e-01
 1.1761855339e+00	 5.1089515021e-01	 7.2851884030e-01
 1.1713229511e+00	 5.2194714337e-01	 6.3047490212e-01
 1.1663477589e+00	 5.3297204564e-01	 5.3359512109e-01
 1.1612600615e+00	 5.4396819232e-01	 4.4093149277e-01
 1.1560599947e+00	 5.5493391529e-01	 3.5558601228e-01
 1.2112713829e+00	 4.4716250471e-01	 1.0978325256e+00
 1.2070560831e+00	 4.5841928761e-01	 1.0516132185e+00
 1.2027274304e+00	 4.6965873756e-01	 9.8912229773e-01
 1.1982853423e+00	 4.8087921410e-01	 9.1312398422e-01
 1.1937297670e+00	 4.9207906907e-01	 8.2647196582e-01
 1.1890606833e+00	 5.0325664731e-01	 7.3211057751e-01
 1.1842781013e+00	 5.1441028735e-01	 6.3307606696e-01
 1.1793820623e+00	 5.2553832208e-01	 5.3249794322e-01
 1.1743726390e+00	 5.3663907953e-01	 4.3360040379e-01
 1.1692499365e+00	 5.4771088354e-01	 3.3970383333e-01
 1.1640140914e+00	 5.5875205452e-01	 2.5422636465e-01
 1.2195484044e+00	 4.5021811531e-01	 1.0106265710e+00
 1.2153043001e+00	 4.6155181956e-01	 9.5620560334e-01
 1.2109460682e+00	 4.7286807242e-01	 8.8784401581e-01
 1.2064736259e+00	 4.8416522222e-01	 8.0796896035e-01
 1.2018869208e+00	 4.9544160954e-01	 7.1913037574e-01
 1.1971859318e+00	 5.0669556791e-01	 6.2400306777e-01
 1.1923706688e+00	 5.1792542449e-01	 5.2538885766e-01
 1.1874411734e+00	 5.2912950080e-01	 4.2621879445e-01
 1.1823975192e+00	 5.4030611342e-01	 3.2955542508e-01
 1.1772398114e+00	 5.5145357476e-01	 2.3859511310e-01
 1.1719681881e+00	 5.6257019375e-01	 1.5667039506e-01
 1.2278254259e+00	 4.5327372591e-01	 9.1660662636e-01
 1.2235525171e+00	 4.6468435151e-01	 8.4913365102e-01
 1.2191647061e+00	 4.7607740729e-01	 7.7231669443e-01
 1.2146619095e+00	 4.8745123035e-01	 6.8792415222e-01
 1.2100440746e+00	 4.9880415001e-01	 5.9786915193e-01
 1.2053111802e+00	 5.1013448850e-01	 5.0421284655e-01
 1.2004632362e+00	 5.2144056162e-01	 4.0916777968e-01
 1.1955002846e+00	 5.3272067951e-01	 3.1510131617e-01
 1.1904223993e+00	 5.4397314732e-01	 2.2453912975e-01
 1.1852296864e+00	 5.5519626599e-01	 1.4016873656e-01
 1.1799222848e+00	 5.6638833298e-01	 6.4843061022e-02
 1.2361024475e+00	 4.5632933651e-01	 8.1759100649e-01
 1.2318007341e+00	 4.6781688346e-01	 7.3292918912e-01
 1.2273833439e+00	 4.7928674215e-01	 6.4560987886e-01
 1.2228501930e+00	 4.9073723847e-01	 5.5642754415e-01
 1.2182012284e+00	 5.0216669048e-01	 4.6633210798e-01
 1.2134364286e+00	 5.1357340909e-01	 3.7643376478e-01
 1.2085558036e+00	 5.2495569876e-01	 2.8800789296e-01
 1.2035593958e+00	 5.3631185822e-01	 2.0250005463e-01
 1.1984472794e+00	 5.4764018121e-01	 1.2153107179e-01
 1.1932195614e+00	 5.5893895721e-01	 4.6902165324e-02
 1.1878763815e+00	 5.7020647220e-01	-1.9399859463e-02
 1.2443794690e+00	 4.5938494711e-01	 7.1533664077e-01
 1.2400489511e+00	 4.7094941542e-01	 6.1004309939e-01
 1.2356019818e+00	 4.8249607701e-01	 5.1069732146e-01
 1.2310384766e+00	 4.9402324660e-01	 4.1681102027e-01
 1.2263583823e+00	 5.0552923095e-01	 3.2805101168e-01
 1.2215616770e+00	 5.1701232969e-01	 2.4424586142e-01
 1.2166483711e+00	 5.2847083590e-01	 1.6539267214e-01
 1.2116185069e+00	 5.3990303693e-01	 9.1663999650e-02
 1.2064721595e+00	 5.5130721510e-01	 2.3414884974e-02
 1.2012094364e+00	 5.6268164843e-01	-3.8810014218e-02
 1.1958304782e+00	 5.7402461143e-01	-9.4269212205e-02
 1.2526564905e+00	 4.6244055771e-01	 6.1154099104e-01
 1.2482971680e+00	 4.7408194737e-01	 4.8284791343e-01
 1.2438206197e+00	 4.8570541188e-01	 3.7046010158e-01
 1.2392267602e+00	 4.9730925472e-01	 2.7230386051e-01
 1.2345155361e+00	 5.0889177143e-01	 1.8644931503e-01
 1.2296869254e+00	 5.2045125028e-01	 1.1111919114e-01
 1.2247409385e+00	 5.3198597304e-01	 4.4697801654e-02
 1.2196776181e+00	 5.4349421564e-01	-1.4259776989e-02
 1.2144970396e+00	 5.5497424899e-01	-6.7018353039e-02
 1.2091993113e+00	 5.6642433966e-01	-1.1465311231e-01
 1.2037845749e+00	 5.7784275066e-01	-1.5803997849e-01
 1.2609335121e+00	 4.6549616831e-01	 5.0784391450e-01
 1.2565453850e+00	 4.7721447932e-01	 3.5364032804e-01
 1.2520392575e+00	 4.8891474675e-01	 2.2768964560e-01
 1.2474150438e+00	 5.0059526285e-01	 1.2603612329e-01
 1.2426726899e+00	 5.1225431190e-01	 4.4845762866e-02
 1.2378121738e+00	 5.2389017087e-01	-1.9582471993e-02
 1.2328335059e+00	 5.3550111017e-01	-7.0805150531e-02
 1.2277367293e+00	 5.4708539436e-01	-1.1222259684e-01
 1.2225219197e+00	 5.5864128289e-01	-1.4706685814e-01
 1.2171891863e+00	 5.7016703088e-01	-1.7838944225e-01
 1.2117386716e+00	 5.8166088989e-01	-2.0904885101e-01
 1.2692105336e+00	 4.6855177891e-01	 4.0582947412e-01
 1.2647936020e+00	 4.8034701128e-01	 2.2464364368e-01
 1.2602578954e+00	 4.9212408161e-01	 8.5090651678e-02
 1.2556033274e+00	 5.0388127097e-01	-1.8958080074e-02
 1.2508298437e+00	 5.1561685237e-01	-9.3542114301e-02
 1.2459374222e+00	 5.2732909147e-01	-1.4459804898e-01
 1.2409260734e+00	 5.3901624731e-01	-1.7794517490e-01
 1.2357958404e+00	 5.5067657307e-01	-1.9927075870e-01
 1.2305467998e+00	 5.6230831678e-01	-2.1411497413e-01
 1.2251790613e+00	 5.7390972211e-01	-2.2785550793e-01
 1.2196927683e+00	 5.8547902912e-01	-2.4569187111e-01
 1.1401518013e+00	 5.4729763683e-01	 5.6165478201e-01
 1.1349135336e+00	 5.5807898070e-01	 5.1703472772e-01
 1.1295648427e+00	 5.6882703310e-01	 5.1684441463e-01
 1.1241059573e+00	 5.7954014345e-01	 5.5496590024e-01
 1.1185371380e+00	 5.9021666079e-01	 6.2537946396e-01
 1.1128586778e+00	 6.0085493454e-01	 7.2217695406e-01
 1.1070709020e+00	 6.1145331523e-01	 8.3904736109e-01
 1.1011741682e+00	 6.2201015531e-01	 9.6902008353e-01
 1.0951688665e+00	 6.3252380994e-01	 1.1070134528e+00
 1.0890554195e+00	 6.4299263775e-01	 1.2482770910e+00
 1.0828342824e+00	 6.5341500165e-01	 1.3882818178e+00
 1.1481058980e+00	 5.5111577606e-01	 4.5875257459e-01
 1.1428310863e+00	 5.6197233435e-01	 4.0868193002e-01
 1.1374450811e+00	 5.7279536891e-01	 4.0793435915e-01
 1.1319481126e+00	 5.8358321765e-01	 4.4932157265e-01
 1.1263404433e+00	 5.9433421811e-01	 5.2571318538e-01
 1.1206223682e+00	 6.0504670816e-01	 6.3005148809e-01
 1.1147942148e+00	 6.1571902685e-01	 7.5536634637e-01
 1.1088563433e+00	 6.2634951513e-01	 8.9464859550e-01
 1.1028091465e+00	 6.3693651668e-01	 1.0398548543e+00
 1.0966530500e+00	 6.4747837869e-01	 1.1845202406e+00
 1.0903885121e+00	 6.5797345264e-01	 1.3227965985e+00
 1.1560599947e+00	 5.5493391529e-01	 3.5558601228e-01
 1.1507486390e+00	 5.6586568800e-01	 3.0370975280e-01
 1.1453253194e+00	 5.7676370472e-01	 3.0416357173e-01
 1.1397902678e+00	 5.8762629186e-01	 3.4920011483e-01
 1.1341437485e+00	 5.9845177542e-01	 4.3109308325e-01
 1.1283860585e+00	 6.0923848178e-01	 5.4215275886e-01
 1.1225175276e+00	 6.1998473847e-01	 6.7474172731e-01
 1.1165385184e+00	 6.3068887495e-01	 8.2129075523e-01
 1.1104494265e+00	 6.4134922343e-01	 9.7430469537e-01
 1.1042506805e+00	 6.5196411963e-01	 1.1254731151e+00
 1.0979427418e+00	 6.6253190362e-01	 1.2673705577e+00
 1.1640140914e+00	 5.5875205452e-01	 2.5422636465e-01
 1.1586661917e+00	 5.6975904164e-01	 2.0346814526e-01
 1.1532055578e+00	 5.8073204052e-01	 2.0618223632e-01
 1.1476324231e+00	 5.9166936606e-01	 2.5456274938e-01
 1.1419470538e+00	 6.0256933273e-01	 3.4079140728e-01
 1.1361497489e+00	 6.1343025541e-01	 4.5705315990e-01
 1.1302408404e+00	 6.2425045010e-01	 5.9555205743e-01
 1.1242206935e+00	 6.3502823477e-01	 7.4852733674e-01
 1.1180897066e+00	 6.4576193017e-01	 9.0826967347e-01
 1.1118483110e+00	 6.5644986057e-01	 1.0671375502e+00
 1.1054969714e+00	 6.6709035461e-01	 1.2170795870e+00
 1.1719681881e+00	 5.6257019375e-01	 1.5667039506e-01
 1.1665837444e+00	 5.7365239529e-01	 1.0925172128e-01
 1.1610857962e+00	 5.8470037633e-01	 1.1460380312e-01
 1.1554745784e+00	 5.9571244026e-01	 1.6535228619e-01
 1.1497503591e+00	 6.0668689005e-01	 2.5408032512e-01
 1.1439134392e+00	 6.1762202903e-01	 3.7334363465e-01
 1.1379641532e+00	 6.2851616172e-01	 5.1568584715e-01
 1.1319028687e+00	 6.3936759459e-01	 6.7365413219e-01
 1.1257299866e+00	 6.5017463691e-01	 8.3981503133e-01
 1.1194459415e+00	 6.6093560150e-01	 1.0067704580e+00
 1.1130512011e+00	 6.7164880559e-01	 1.1671738103e+00
 1.1799222848e+00	 5.6638833298e-01	 6.4843061022e-02
 1.1745012971e+00	 5.7754574893e-01	 2.2301858002e-02
 1.1689660346e+00	 5.8866871214e-01	 3.0006505473e-02
 1.1633167337e+00	 5.9975551447e-01	 8.1494067887e-02
 1.1575536643e+00	 6.1080444736e-01	 1.7023229683e-01
 1.1516771296e+00	 6.2181380265e-01	 2.8963347025e-01
 1.1456874660e+00	 6.3278187334e-01	 4.3306857609e-01
 1.1395850438e+00	 6.4370695442e-01	 5.9388179733e-01
 1.1333702667e+00	 6.5458734366e-01	 7.6540525266e-01
 1.1270435720e+00	 6.6542134244e-01	 9.4097394365e-01
 1.1206054308e+00	 6.7620725658e-01	 1.1139408569e+00
 1.1878763815e+00	 5.7020647220e-01	-1.9399859463e-02
 1.1824188498e+00	 5.8143910258e-01	-5.6191254042e-02
 1.1768462729e+00	 5.9263704795e-01	-4.7065146786e-02
 1.1711588890e+00	 6.0379858867e-01	 2.8969161953e-03
 1.1653569696e+00	 6.1492200467e-01	 8.8520474563e-02
 1.1594408199e+00	 6.2600557627e-01	 2.0455014131e-01
 1.1534107788e+00	 6.3704758496e-01	 3.4566196217e-01
 1.1472672189e+00	 6.4804631424e-01	 5.0647610626e-01
 1.1410105467e+00	 6.5900005040e-01	 6.8156984384e-01
 1.1346412025e+00	 6.6990708338e-01	 8.6549076435e-01
 1.1281596605e+00	 6.8076570756e-01	 1.0527701846e+00
 1.1958304782e+00	 5.7402461143e-01	-9.4269212205e-02
 1.1903364025e+00	 5.8533245622e-01	-1.2508660697e-01
 1.1847265113e+00	 5.9660538376e-01	-1.1609889658e-01
 1.1790010443e+00	 6.0784166287e-01	-7.0545920916e-02
 1.1731602748e+00	 6.1903956198e-01	 8.2191263928e-03
 1.1672045102e+00	 6.3019734989e-01	 1.1673920151e-01
 1.1611340916e+00	 6.4131329658e-01	 2.5146330284e-01
 1.1549493941e+00	 6.5238567406e-01	 4.0875671491e-01
 1.1486508268e+00	 6.6341275714e-01	 5.8491156244e-01
 1.1422388330e+00	 6.7439282432e-01	 7.7615763062e-01
 1.1357138902e+00	 6.8532415854e-01	 9.7867340414e-01
 1.2037845749e+00	 5.7784275066e-01	-1.5803997849e-01
 1.1982539552e+00	 5.8922580987e-01	-1.8329041565e-01
 1.1926067497e+00	 6.0057371956e-01	-1.7661329021e-01
 1.1868431996e+00	 6.1188473708e-01	-1.3895582136e-01
 1.1809635801e+00	 6.2315711930e-01	-7.1395916958e-02
 1.1749682006e+00	 6.3438912351e-01	 2.4864220730e-02
 1.1688574044e+00	 6.4557900820e-01	 1.4850488517e-01
 1.1626315692e+00	 6.5672503388e-01	 2.9809601783e-01
 1.1562911068e+00	 6.6782546389e-01	 4.7210468543e-01
 1.1498364636e+00	 6.7887856526e-01	 6.6890284157e-01
 1.1432681199e+00	 6.8988260953e-01	 8.8677532923e-01
 1.2117386716e+00	 5.8166088989e-01	-2.0904885101e-01
 1.2061715080e+00	 5.9311916351e-01	-2.2975419982e-01
 1.2004869881e+00	 6.0454205537e-01	-2.2815624855e-01
 1.1946853549e+00	 6.1592781128e-01	-2.0246784033e-01
 1.1887668854e+00	 6.2727467661e-01	-1.5104679342e-01
 1.1827318909e+00	 6.3858089713e-01	-7.2393234385e-02
 1.1765807172e+00	 6.4984471983e-01	 3.4853461570e-02
 1.1703137443e+00	 6.6106439370e-01	 1.7191809383e-01
 1.1639313869e+00	 6.7223817063e-01	 3.3989339089e-01
 1.1574340941e+00	 6.8336430619e-01	 5.3974406024e-01
 1.1508223496e+00	 6.9444106051e-01	 7.7231109460e-01
 1.2196927683e+00	 5.8547902912e-01	-2.4569187111e-01
 1.2140890607e+00	 5.9701251716e-01	-2.6347290632e-01
 1.2083672264e+00	 6.0851039118e-01	-2.7030365769e-01
 1.2025275101e+00	 6.1997088548e-01	-2.6122976097e-01
 1.1965701906e+00	 6.3139223392e-01	-2.3145312001e-01
 1.1904955813e+00	 6.4277267076e-01	-1.7633357840e-01
 1.1843040300e+00	 6.5411043145e-01	-9.1390211710e-02
 1.1779959194e+00	 6.6540375352e-01	 2.7697736531e-02
 1.1715716669e+00	 6.7665087737e-01	 1.8509024815e-01
 1.1650317246e+00	 6.8785004713e-01	 3.8478622256e-01
 1.1583765792e+00	 6.9899951150e-01	 6.3062343460e-01
 1.0828342824e+00	 6.5341500165e-01	 1.3882818178e+00
 1.0765059431e+00	 6.6378926983e-01	 1.4997038427e+00
 1.0700709229e+00	 6.7411381717e-01	 1.5641795699e+00
 1.0635297760e+00	 6.8438702546e-01	 1.5908163216e+00
 1.0568830886e+00	 6.9460728400e-01	 1.5887426999e+00
 1.0501314794e+00	 7.0477299035e-01	 1.5670811784e+00
 1.0432755991e+00	 7.1488255120e-01	 1.5349198812e+00
 1.0363161302e+00	 7.2493438309e-01	 1.5012836683e+00
 1.0292537870e+00	 7.3492691326e-01	 1.4751046503e+00
 1.0220893154e+00	 7.4485858041e-01	 1.4647995034e+00
 1.0148234927e+00	 7.5472783548e-01	 1.4753859738e+00
 1.0903885121e+00	 6.5797345264e-01	 1.3227965985e+00
 1.0840160240e+00	 6.6842009533e-01	 1.4244569080e+00
 1.0775361109e+00	 6.7881667031e-01	 1.4709507727e+00
 1.0709493307e+00	 6.8916154809e-01	 1.4740940330e+00
 1.0642562737e+00	 6.9945310671e-01	 1.4456818685e+00
 1.0574575630e+00	 7.0968973258e-01	 1.3974563429e+00
 1.0505538536e+00	 7.1986982125e-01	 1.3410731348e+00
 1.0435458330e+00	 7.2999177823e-01	 1.2880675849e+00
 1.0364342204e+00	 7.4005401978e-01	 1.2498201942e+00
 1.0292197670e+00	 7.5005497370e-01	 1.2354348943e+00
 1.0219032553e+00	 7.5999308014e-01	 1.2526115850e+00
 1.0979427418e+00	 6.6253190362e-01	 1.2673705577e+00
 1.0915261050e+00	 6.7305092083e-01	 1.3669677370e+00
 1.0850012990e+00	 6.8351952346e-01	 1.4046053601e+00
 1.0783688854e+00	 6.9393607072e-01	 1.3938054330e+00
 1.0716294588e+00	 7.0429892943e-01	 1.3480417090e+00
 1.0647836465e+00	 7.1460647481e-01	 1.2807036314e+00
 1.0578321081e+00	 7.2485709130e-01	 1.2050594488e+00
 1.0507755358e+00	 7.3504917337e-01	 1.1342186435e+00
 1.0436146539e+00	 7.4518112629e-01	 1.0806291590e+00
 1.0363502186e+00	 7.5525136699e-01	 1.0530941289e+00
 1.0289830180e+00	 7.6525832479e-01	 1.0623619812e+00
 1.1054969714e+00	 6.6709035461e-01	 1.2170795870e+00
 1.0990361860e+00	 6.7768174633e-01	 1.3215153536e+00
 1.0924664870e+00	 6.8822237660e-01	 1.3589511241e+00
 1.0857884401e+00	 6.9871059335e-01	 1.3436337760e+00
 1.0790026439e+00	 7.0914475215e-01	 1.2897485115e+00
 1.0721097300e+00	 7.1952321704e-01	 1.2113806234e+00
 1.0651103626e+00	 7.2984436136e-01	 1.1224764099e+00
 1.0580052387e+00	 7.4010656851e-01	 1.0368033844e+00
 1.0507950873e+00	 7.5030823281e-01	 9.6568378973e-01
 1.0434806702e+00	 7.6044776028e-01	 9.1901048386e-01
 1.0360627807e+00	 7.7052356945e-01	 9.0876180882e-01
 1.1130512011e+00	 6.7164880559e-01	 1.1671738103e+00
 1.1065462670e+00	 6.8231257183e-01	 1.2825179664e+00
 1.0999316750e+00	 6.9292522974e-01	 1.3279446790e+00
 1.0932079948e+00	 7.0348511597e-01	 1.3174113436e+00
 1.0863758290e+00	 7.1399057486e-01	 1.2648678132e+00
 1.0794358135e+00	 7.2443995927e-01	 1.1841638343e+00
 1.0723886171e+00	 7.3483163141e-01	 1.0890091574e+00
 1.0652349415e+00	 7.4516396364e-01	 9.9246872361e-01
 1.0579755208e+00	 7.5543533932e-01	 9.0381866969e-01
 1.0506111218e+00	 7.6564415357e-01	 8.3436660880e-01
 1.0431425434e+00	 7.7578881410e-01	 7.9580690372e-01
 1.1206054308e+00	 6.7620725658e-01	 1.1139408569e+00
 1.1140563480e+00	 6.8694339732e-01	 1.2446092668e+00
 1.1073968631e+00	 6.9762808288e-01	 1.3056835745e+00
 1.1006275495e+00	 7.0825963860e-01	 1.3091114100e+00
 1.0937490141e+00	 7.1883639758e-01	 1.2675965535e+00
 1.0867618971e+00	 7.2935670150e-01	 1.1938414157e+00
 1.0796668717e+00	 7.3981890146e-01	 1.1004240032e+00
 1.0724646443e+00	 7.5022135878e-01	 9.9757363553e-01
 1.0651559543e+00	 7.6056244583e-01	 8.9389190897e-01
 1.0577415734e+00	 7.7084054685e-01	 8.0029645950e-01
 1.0502223061e+00	 7.8105405876e-01	 7.2736889711e-01
 1.1281596605e+00	 6.8076570756e-01	 1.0527701846e+00
 1.1215664290e+00	 6.9157422282e-01	 1.2031007877e+00
 1.1148620511e+00	 7.0233093602e-01	 1.2864728034e+00
 1.1080471042e+00	 7.1303416123e-01	 1.3128404497e+00
 1.1011221992e+00	 7.2368222029e-01	 1.2922554609e+00
 1.0940879806e+00	 7.3427344373e-01	 1.2353060635e+00
 1.0869451262e+00	 7.4480617151e-01	 1.1521715556e+00
 1.0796943471e+00	 7.5527875392e-01	 1.0491985493e+00
 1.0723363877e+00	 7.6568955235e-01	 9.3477541215e-01
 1.0648720250e+00	 7.7603694014e-01	 8.1788718457e-01
 1.0573020688e+00	 7.8631930341e-01	 7.0719966862e-01
 1.1357138902e+00	 6.8532415854e-01	 9.7867340414e-01
 1.1290765099e+00	 6.9620504832e-01	 1.1525177457e+00
 1.1223272392e+00	 7.0703378917e-01	 1.2649286628e+00
 1.1154666590e+00	 7.1780868385e-01	 1.3228525120e+00
 1.1084953844e+00	 7.2852804301e-01	 1.3332816620e+00
 1.1014140641e+00	 7.3919018596e-01	 1.3035481254e+00
 1.0942233807e+00	 7.4979344156e-01	 1.2393676301e+00
 1.0869240500e+00	 7.6033614906e-01	 1.1444926961e+00
 1.0795168212e+00	 7.7081665886e-01	 1.0253546671e+00
 1.0720024766e+00	 7.8123333343e-01	 8.8818096856e-01
 1.0643818315e+00	 7.9158454807e-01	 7.3893565411e-01
 1.1432681199e+00	 6.8988260953e-01	 8.8677532923e-01
 1.1365865909e+00	 7.0083587382e-01	 1.0872857639e+00
 1.1297924272e+00	 7.1173664231e-01	 1.2351546647e+00
 1.1228862137e+00	 7.2258320648e-01	 1.3334083773e+00
 1.1158685695e+00	 7.3337386572e-01	 1.3851624345e+00
 1.1087401476e+00	 7.4410692819e-01	 1.3933846549e+00
 1.1015016352e+00	 7.5478071162e-01	 1.3579042064e+00
 1.0941537528e+00	 7.6539354420e-01	 1.2806642098e+00
 1.0866972546e+00	 7.7594376538e-01	 1.1645285725e+00
 1.0791329282e+00	 7.8642972672e-01	 1.0121768334e+00
 1.0714615942e+00	 7.9684979272e-01	 8.2610201482e-01
 1.1508223496e+00	 6.9444106051e-01	 7.7231109460e-01
 1.1440966719e+00	 7.0546669932e-01	 1.0019589837e+00
 1.1372576152e+00	 7.1643949545e-01	 1.1913011434e+00
 1.1303057684e+00	 7.2735772911e-01	 1.3385730055e+00
 1.1232417546e+00	 7.3821968844e-01	 1.4421645897e+00
 1.1160662312e+00	 7.4902367042e-01	 1.4990223748e+00
 1.1087798897e+00	 7.5976798167e-01	 1.5037820207e+00
 1.1013834556e+00	 7.7045093933e-01	 1.4549784587e+00
 1.0938776881e+00	 7.8107087189e-01	 1.3512093028e+00
 1.0862633799e+00	 7.9162612001e-01	 1.1908323997e+00
 1.0785413569e+00	 8.0211503738e-01	 9.7211667422e-01
 1.1583765792e+00	 6.9899951150e-01	 6.3062343460e-01
 1.1516067529e+00	 7.1009752482e-01	 8.9121680316e-01
 1.1447228033e+00	 7.2114234859e-01	 1.1276540892e+00
 1.1377253231e+00	 7.3213225174e-01	 1.3325260820e+00
 1.1306149397e+00	 7.4306551116e-01	 1.4985328122e+00
 1.1233923147e+00	 7.5394041265e-01	 1.6150087918e+00
 1.1160581442e+00	 7.6475525172e-01	 1.6728741971e+00
 1.1086131585e+00	 7.7550833447e-01	 1.6647564715e+00
 1.1010581216e+00	 7.8619797841e-01	 1.5843222082e+00
 1.0933938315e+00	 7.9682251330e-01	 1.4250656109e+00
 1.0856211196e+00	 8.0738028204e-01	 1.1802942287e+00
 1.0148234927e+00	 7.5472783548e-01	 1.4753859738e+00
 1.0074558669e+00	 7.6453480300e-01	 1.5228355848e+00
 9.9998850774e-01	 7.7427627210e-01	 1.6113086860e+00
 9.9242228952e-01	 7.8395072873e-01	 1.7296943868e+00
 9.8475811671e-01	 7.9355667418e-01	 1.8669676550e+00
 9.7699692376e-01	 8.0309262581e-01	 2.0122099106e+00
 9.6913967462e-01	 8.1255711779e-01	 2.1546298053e+00
 9.6118736245e-01	 8.2194870185e-01	 2.2835841260e+00
 9.5314100914e-01	 8.3126594802e-01	 2.3885987573e+00
 9.4500166493e-01	 8.4050744529e-01	 2.4593896371e+00
 9.3677040792e-01	 8.4967180238e-01	 2.4858836391e+00
 1.0219032553e+00	 7.5999308014e-01	 1.2526115850e+00
 1.0144842304e+00	 7.6986846449e-01	 1.3231616341e+00
 1.0069647764e+00	 7.7967789347e-01	 1.4519850368e+00
 9.9934577360e-01	 7.8941984248e-01	 1.6236798196e+00
 9.9162813285e-01	 7.9909280236e-01	 1.8230509408e+00
 9.8381279511e-01	 8.0869528011e-01	 2.0351376863e+00
 9.7590073106e-01	 8.1822579969e-01	 2.2452411092e+00
 9.6789294079e-01	 8.2768290272e-01	 2.4389514368e+00
 9.5979045331e-01	 8.3706514924e-01	 2.6021753659e+00
 9.5159432619e-01	 8.4637111842e-01	 2.7211631711e+00
 9.4330564507e-01	 8.5559940926e-01	 2.7825355436e+00
 1.0289830180e+00	 7.6525832479e-01	 1.0623619812e+00
 1.0215125940e+00	 7.7520212597e-01	 1.1365823018e+00
 1.0139410451e+00	 7.8507951483e-01	 1.2840770603e+00
 1.0062692577e+00	 7.9488895623e-01	 1.4865112183e+00
 9.9849814899e-01	 8.0462893054e-01	 1.7258497874e+00
 9.9062866646e-01	 8.1429793442e-01	 1.9843901052e+00
 9.8266178750e-01	 8.2389448159e-01	 2.2447940446e+00
 9.7459851912e-01	 8.3341710359e-01	 2.4901200711e+00
 9.6643989748e-01	 8.4286435047e-01	 2.7038550595e+00
 9.5818698745e-01	 8.5223479156e-01	 2.8699457826e+00
 9.4984088221e-01	 8.6152701615e-01	 2.9728299846e+00
 1.0360627807e+00	 7.7052356945e-01	 9.0876180882e-01
 1.0285409576e+00	 7.8053578745e-01	 9.7009522560e-01
 1.0209173137e+00	 7.9048113620e-01	 1.1168987450e+00
 1.0131927418e+00	 8.0035806999e-01	 1.3292349305e+00
 1.0053681651e+00	 8.1016505872e-01	 1.5875319494e+00
 9.9744453781e-01	 8.1990058872e-01	 1.8726188281e+00
 9.8942284394e-01	 8.2956316350e-01	 2.1657605644e+00
 9.8130409746e-01	 8.3915130446e-01	 2.4486930045e+00
 9.7308934164e-01	 8.4866355170e-01	 2.7036573890e+00
 9.6477964872e-01	 8.5809846470e-01	 2.9134344754e+00
 9.5637611935e-01	 8.6745462304e-01	 3.0613781408e+00
 1.0431425434e+00	 7.7578881410e-01	 7.9580690372e-01
 1.0355693211e+00	 7.8586944893e-01	 8.3049157218e-01
 1.0278935824e+00	 7.9588275757e-01	 9.5949507833e-01
 1.0201162258e+00	 8.0582718374e-01	 1.1625816425e+00
 1.0122381813e+00	 8.1570118689e-01	 1.4199194567e+00
 1.0042604092e+00	 8.2550324302e-01	 1.7121170416e+00
 9.9618390038e-01	 8.3523184540e-01	 2.0202594163e+00
 9.8800967579e-01	 8.4488550533e-01	 2.3259439862e+00
 9.7973878581e-01	 8.5446275293e-01	 2.6113160490e+00
 9.7137230998e-01	 8.6396213783e-01	 2.8591038217e+00
 9.6291135649e-01	 8.7338222993e-01	 3.0526528919e+00
 1.0502223061e+00	 7.8105405876e-01	 7.2736889711e-01
 1.0425976847e+00	 7.9120311041e-01	 7.2436329739e-01
 1.0348698510e+00	 8.0128437894e-01	 8.2065145166e-01
 1.0270397099e+00	 8.1129629749e-01	 9.9697739329e-01
 1.0191081974e+00	 8.2123731507e-01	 1.2345006781e+00
 1.0110762805e+00	 8.3110589733e-01	 1.5148319865e+00
 1.0029449568e+00	 8.4090052730e-01	 1.8200685277e+00
 9.9471525413e-01	 8.5061970620e-01	 2.1328291500e+00
 9.8638822998e-01	 8.6026195415e-01	 2.4362890575e+00
 9.7796497124e-01	 8.6982581097e-01	 2.7142140352e+00
 9.6944659363e-01	 8.7930983682e-01	 2.9509940843e+00
 1.0573020688e+00	 7.8631930341e-01	 7.0719966862e-01
 1.0496260483e+00	 7.9653677189e-01	 6.5811014869e-01
 1.0418461197e+00	 8.0668600031e-01	 7.0890272207e-01
 1.0339631940e+00	 8.1676541124e-01	 8.4255418188e-01
 1.0259782136e+00	 8.2677344325e-01	 1.0424419361e+00
 1.0178921519e+00	 8.3670855163e-01	 1.2923770195e+00
 1.0097060133e+00	 8.4656920920e-01	 1.5766369303e+00
 1.0014208325e+00	 8.5635390706e-01	 1.8799981946e+00
 9.9303767415e-01	 8.6606115538e-01	 2.1877685657e+00
 9.8455763250e-01	 8.7568948410e-01	 2.4858187586e+00
 9.7598183078e-01	 8.8523744370e-01	 2.7606136267e+00
 1.0643818315e+00	 7.9158454807e-01	 7.3893565411e-01
 1.0566544118e+00	 8.0187043338e-01	 6.3794642117e-01
 1.0488223884e+00	 8.1208762167e-01	 6.3254194609e-01
 1.0408866781e+00	 8.2223452499e-01	 7.0916018528e-01
 1.0328482297e+00	 8.3230957143e-01	 8.5459869296e-01
 1.0247080232e+00	 8.4231120594e-01	 1.0560432292e+00
 1.0164670697e+00	 8.5223789110e-01	 1.3010962452e+00
 1.0081264108e+00	 8.6208810793e-01	 1.5778051566e+00
 9.9968711831e-01	 8.7186035661e-01	 1.8746903139e+00
 9.9115029376e-01	 8.8155315724e-01	 2.1807725796e+00
 9.8251706792e-01	 8.9116505059e-01	 2.4856004207e+00
 1.0714615942e+00	 7.9684979272e-01	 8.2610201482e-01
 1.0636827754e+00	 8.0720409486e-01	 6.6990747860e-01
 1.0557986570e+00	 8.1748924304e-01	 5.9962880099e-01
 1.0478101622e+00	 8.2770363875e-01	 6.0636960615e-01
 1.0397182458e+00	 8.3784569961e-01	 6.8152632952e-01
 1.0315238946e+00	 8.4791386024e-01	 8.1681062765e-01
 1.0232281261e+00	 8.5790657300e-01	 1.0042717501e+00
 1.0148319891e+00	 8.6782230880e-01	 1.2363187930e+00
 1.0063365625e+00	 8.7765955784e-01	 1.5057427511e+00
 9.9774295503e-01	 8.8741683038e-01	 1.8057382874e+00
 9.8905230506e-01	 8.9709265748e-01	 2.1299251348e+00
 1.0785413569e+00	 8.0211503738e-01	 9.7211667422e-01
 1.0707111390e+00	 8.1253775634e-01	 7.5985605036e-01
 1.0627749257e+00	 8.2289086441e-01	 6.1799770784e-01
 1.0547336463e+00	 8.3317275250e-01	 5.4349216676e-01
 1.0465882620e+00	 8.4338182779e-01	 5.3349053340e-01
 1.0383397659e+00	 8.5351651454e-01	 5.8535893720e-01
 1.0299891826e+00	 8.6357525491e-01	 6.9669304632e-01
 1.0215375675e+00	 8.7355650967e-01	 8.6533259219e-01
 1.0129860066e+00	 8.8345875907e-01	 1.0893758325e+00
 1.0043356163e+00	 8.9328050351e-01	 1.3671938809e+00
 9.9558754220e-01	 9.0302026437e-01	 1.6974448303e+00
 1.0856211196e+00	 8.0738028204e-01	 1.1802942287e+00
 1.0777395025e+00	 8.1787141782e-01	 9.1348831455e-01
 1.0697511944e+00	 8.2829248578e-01	 6.9526567004e-01
 1.0616571303e+00	 8.3864186625e-01	 5.2958226553e-01
 1.0534582781e+00	 8.4891795597e-01	 4.2047731603e-01
 1.0451556373e+00	 8.5911916885e-01	 3.7207799008e-01
 1.0367502390e+00	 8.6924393681e-01	 3.8860434442e-01
 1.0282431458e+00	 8.7929071054e-01	 4.7437442969e-01
 1.0196354508e+00	 8.8925796029e-01	 6.3380951050e-01
 1.0109282776e+00	 8.9914417665e-01	 8.7143934195e-01
 1.0021227793e+00	 9.0894787126e-01	 1.1919074437e+00
 9.3677040792e-01	 8.4967180238e-01	 2.4858836391e+00
 9.2844976344e-01	 8.5875611319e-01	 2.4674951940e+00
 9.2003945964e-01	 8.6776060528e-01	 2.4142205438e+00
 9.1154063999e-01	 8.7668396607e-01	 2.3319638673e+00
 9.0295447381e-01	 8.8552490531e-01	 2.2265397128e+00
 8.9428215577e-01	 8.9428215577e-01	 2.1036702858e+00
 8.8552490531e-01	 9.0295447381e-01	 1.9689828115e+00
 8.7668396607e-01	 9.1154063999e-01	 1.8280069473e+00
 8.6776060528e-01	 9.2003945964e-01	 1.6861722203e+00
 8.5875611319e-01	 9.2844976344e-01	 1.5488054656e+00
 8.4967180238e-01	 9.3677040792e-01	 1.4211282438e+00
 9.4330564507e-01	 8.5559940926e-01	 2.7825355436e+00
 9.3492695287e-01	 8.6474709540e-01	 2.7792942365e+00
 9.2645797586e-01	 8.7381440597e-01	 2.7200676213e+00
 9.1789986547e-01	 8.8280001924e-01	 2.6150482888e+00
 9.0925379920e-01	 8.9170263595e-01	 2.4742254309e+00
 9.0052098005e-01	 9.0052098005e-01	 2.3073764619e+00
 8.9170263595e-01	 9.0925379920e-01	 2.1240588809e+00
 8.8280001924e-01	 9.1789986547e-01	 1.9336023561e+00
 8.7381440597e-01	 9.2645797586e-01	 1.7451010148e+00
 8.6474709540e-01	 9.3492695287e-01	 1.5674059231e+00
 8.5559940926e-01	 9.4330564507e-01	 1.4091177382e+00
 9.4984088221e-01	 8.6152701615e-01	 2.9728299846e+00
 9.4140414229e-01	 8.7073807760e-01	 2.9975345244e+00
 9.3287649207e-01	 8.7986820666e-01	 2.9483129698e+00
 9.2425909095e-01	 8.8891607240e-01	 2.8385792653e+00
 9.1555312459e-01	 8.9788036659e-01	 2.6814480470e+00
 9.0675980432e-01	 9.0675980432e-01	 2.4897220274e+00
 8.9788036659e-01	 9.1555312459e-01	 2.2758797589e+00
 8.8891607240e-01	 9.2425909095e-01	 2.0520637623e+00
 8.7986820666e-01	 9.3287649207e-01	 1.8300690102e+00
 8.7073807760e-01	 9.4140414229e-01	 1.6213317529e+00
 8.6152701615e-01	 9.4984088221e-01	 1.4369186773e+00
 9.5637611935e-01	 8.6745462304e-01	 3.0613781408e+00
 9.4788133172e-01	 8.7672905981e-01	 3.1235109445e+00
 9.3929500828e-01	 8.8592200735e-01	 3.0972661099e+00
 9.3061831643e-01	 8.9503212556e-01	 2.9982325792e+00
 9.2185244998e-01	 9.0405809723e-01	 2.8416216679e+00
 9.1299862859e-01	 9.1299862859e-01	 2.6422516264e+00
 9.0405809723e-01	 9.2185244998e-01	 2.4145326895e+00
 8.9503212556e-01	 9.3061831643e-01	 2.1724526072e+00
 8.8592200735e-01	 9.3929500828e-01	 1.9295626450e+00
 8.7672905981e-01	 9.4788133172e-01	 1.6989640494e+00
 8.6745462304e-01	 9.5637611935e-01	 1.4932949663e+00
 9.6291135649e-01	 8.7338222993e-01	 3.0526528919e+00
 9.5435852114e-01	 8.8272004202e-01	 3.1584704549e+00
 9.4571352449e-01	 8.9197580803e-01	 3.1652699985e+00
 9.3697754191e-01	 9.0114817873e-01	 3.0897892430e+00
 9.2815177537e-01	 9.1023582787e-01	 2.9483272947e+00
 9.1923745287e-01	 9.1923745287e-01	 2.7567277809e+00
 9.1023582787e-01	 9.2815177537e-01	 2.5303625568e+00
 9.0114817873e-01	 9.3697754191e-01	 2.2841159784e+00
 8.9197580803e-01	 9.4571352449e-01	 2.0323697323e+00
 8.8272004202e-01	 9.5435852114e-01	 1.7889882152e+00
 8.7338222993e-01	 9.6291135649e-01	 1.5673044552e+00
 9.6944659363e-01	 8.7930983682e-01	 2.9509940843e+00
 9.6083571056e-01	 8.8871102423e-01	 3.1036143338e+00
 9.5213204070e-01	 8.9802960872e-01	 3.1507005616e+00
 9.4333676739e-01	 9.0726423189e-01	 3.1091326365e+00
 9.3445110076e-01	 9.1641355851e-01	 2.9953079041e+00
 9.2547627714e-01	 9.2547627714e-01	 2.8251242754e+00
 9.1641355851e-01	 9.3445110076e-01	 2.6139639477e+00
 9.0726423189e-01	 9.4333676739e-01	 2.3766777465e+00
 8.9802960872e-01	 9.5213204070e-01	 2.1275700798e+00
 8.8871102423e-01	 9.6083571056e-01	 1.8803844956e+00
 8.7930983682e-01	 9.6944659363e-01	 1.6482898326e+00
 9.7598183078e-01	 8.8523744370e-01	 2.7606136267e+00
 9.6731289999e-01	 8.9470200644e-01	 2.9601003778e+00
 9.5855055691e-01	 9.0408340941e-01	 3.0519662856e+00
 9.4969599287e-01	 9.1338028506e-01	 3.0522458003e+00
 9.4075042615e-01	 9.2259128915e-01	 2.9764637692e+00
 9.3171510142e-01	 9.3171510142e-01	 2.8396198483e+00
 9.2259128915e-01	 9.4075042615e-01	 2.6561735763e+00
 9.1338028506e-01	 9.4969599287e-01	 2.4400300991e+00
 9.0408340941e-01	 9.5855055691e-01	 2.2045265305e+00
 8.9470200644e-01	 9.6731289999e-01	 1.9624189362e+00
 8.8523744370e-01	 9.7598183078e-01	 1.7258699289e+00
 9.8251706792e-01	 8.9116505059e-01	 2.4856004207e+00
 9.7379008941e-01	 9.0069298865e-01	 2.7290450523e+00
 9.6496907312e-01	 9.1013721009e-01	 2.8675078669e+00
 9.5605521835e-01	 9.1949633822e-01	 2.9152088782e+00
 9.4704975154e-01	 9.2876901979e-01	 2.8858480091e+00
 9.3795392569e-01	 9.3795392569e-01	 2.7925921777e+00
 9.2876901979e-01	 9.4704975154e-01	 2.6480630525e+00
 9.1949633822e-01	 9.5605521835e-01	 2.4643254565e+00
 9.1013721009e-01	 9.6496907312e-01	 2.2528764037e+00
 9.0069298865e-01	 9.7379008941e-01	 2.0246347453e+00
 8.9116505059e-01	 9.8251706792e-01	 1.7899314105e+00
 9.8905230506e-01	 8.9709265748e-01	 2.1299251348e+00
 9.8026727883e-01	 9.0668397086e-01	 2.4115255970e+00
 9.7138758933e-01	 9.1619101078e-01	 2.5957979138e+00
 9.6241444383e-01	 9.2561239139e-01	 2.6941967013e+00
 9.5334907693e-01	 9.3494675044e-01	 2.7176623546e+00
 9.4419274996e-01	 9.4419274996e-01	 2.6766121473e+00
 9.3494675044e-01	 9.5334907693e-01	 2.5809319796e+00
 9.2561239139e-01	 9.6241444383e-01	 2.4399687494e+00
 9.1619101078e-01	 9.7138758933e-01	 2.2625233176e+00
 9.0668397086e-01	 9.8026727883e-01	 2.0568440409e+00
 8.9709265748e-01	 9.8905230506e-01	 1.8306208459e+00
 9.9558754220e-01	 9.0302026437e-01	 1.6974448303e+00
 9.8674446826e-01	 9.1267495307e-01	 2.0085820873e+00
 9.7780610554e-01	 9.2224481147e-01	 2.2353407017e+00
 9.6877366931e-01	 9.3172844455e-01	 2.3854765087e+00
 9.5964840232e-01	 9.4112448108e-01	 2.4662531235e+00
 9.5043157424e-01	 9.5043157424e-01	 2.4844383785e+00
 9.4112448108e-01	 9.5964840232e-01	 2.4463013653e+00
 9.3172844455e-01	 9.6877366931e-01	 2.3576100433e+00
 9.2224481147e-01	 9.7780610554e-01	 2.2236293773e+00
 9.1267495307e-01	 9.8674446826e-01	 2.0491199664e+00
 9.0302026437e-01	 9.9558754220e-01	 1.8383371281e+00
 1.0021227793e+00	 9.0894787126e-01	 1.1919074437e+00
 9.9322165768e-01	 9.1866593528e-01	 1.5212194542e+00
 9.8422462175e-01	 9.2829861215e-01	 1.7846719763e+00
 9.7513289479e-01	 9.3784449771e-01	 1.9854057964e+00
 9.6594772771e-01	 9.4730221172e-01	 2.1261073921e+00
 9.5667039851e-01	 9.5667039851e-01	 2.2090120188e+00
 9.4730221172e-01	 9.6594772771e-01	 2.2359073321e+00
 9.3784449771e-01	 9.7513289479e-01	 2.2081374934e+00
 9.2829861215e-01	 9.8422462175e-01	 2.1266077095e+00
 9.1866593528e-01	 9.9322165768e-01	 1.9917891558e+00
 9.0894787126e-01	 1.0021227793e+00	 1.8037242349e+00
 8.4967180238e-01	 9.3677040792e-01	 1.4211282438e+00
 8.4050744529e-01	 9.4500166493e-01	 1.3031448099e+00
 8.3126594802e-01	 9.5314100914e-01	 1.1928418298e+00
 8.2194870185e-01	 9.6118736245e-01	 1.0921497941e+00
 8.1255711779e-01	 9.6913967462e-01	 1.0028371900e+00
 8.0309262581e-01	 9.7699692376e-01	 9.2651192609e-01
 7.9355667418e-01	 9.8475811671e-01	 8.6462267521e-01
 7.8395072873e-01	 9.9242228952e-01	 8.1846012025e-01
 7.7427627210e-01	 9.9998850774e-01	 7.8915808560e-01
 7.6453480300e-01	 1.0074558669e+00	 7.7769454151e-01
 7.5472783548e-01	 1.0148234927e+00	 7.8489247008e-01
 8.5559940926e-01	 9.4330564507e-01	 1.4091177382e+00
 8.4637111842e-01	 9.5159432619e-01	 1.2727816288e+00
 8.3706514924e-01	 9.5979045331e-01	 1.1549993220e+00
 8.2768290272e-01	 9.6789294079e-01	 1.0550931769e+00
 8.1822579969e-01	 9.7590073106e-01	 9.7226078223e-01
 8.0869528011e-01	 9.8381279511e-01	 9.0557995535e-01
 7.9909280236e-01	 9.9162813285e-01	 8.5401357594e-01
 7.8941984248e-01	 9.9934577360e-01	 8.1641422979e-01
 7.7967789347e-01	 1.0069647764e+00	 7.9152864141e-01
 7.6986846449e-01	 1.0144842304e+00	 7.7800187642e-01
 7.5999308014e-01	 1.0219032553e+00	 7.7438129791e-01
 8.6152701615e-01	 9.4984088221e-01	 1.4369186773e+00
 8.5223479156e-01	 9.5818698745e-01	 1.2827883745e+00
 8.4286435047e-01	 9.6643989748e-01	 1.1558989587e+00
 8.3341710359e-01	 9.7459851912e-01	 1.0533823248e+00
 8.2389448159e-01	 9.8266178750e-01	 9.7229087105e-01
 8.1429793442e-01	 9.9062866646e-01	 9.0960550212e-01
 8.0462893054e-01	 9.9849814899e-01	 8.6224337138e-01
 7.9488895623e-01	 1.0062692577e+00	 8.2706533318e-01
 7.8507951483e-01	 1.0139410451e+00	 8.0088307923e-01
 7.7520212597e-01	 1.0215125940e+00	 7.8046593562e-01
 7.6525832479e-01	 1.0289830180e+00	 7.6254730017e-01
 8.6745462304e-01	 9.5637611935e-01	 1.4932949663e+00
 8.5809846470e-01	 9.6477964872e-01	 1.3226407687e+00
 8.4866355170e-01	 9.7308934164e-01	 1.1858802821e+00
 8.3915130446e-01	 9.8130409746e-01	 1.0783642975e+00
 8.2956316350e-01	 9.8942284394e-01	 9.9541733840e-01
 8.1990058872e-01	 9.9744453781e-01	 9.3234810200e-01
 8.1016505872e-01	 1.0053681651e+00	 8.8445953572e-01
 8.0035806999e-01	 1.0131927418e+00	 8.4705851547e-01
 7.9048113620e-01	 1.0209173137e+00	 8.1546509572e-01
 7.8053578745e-01	 1.0285409576e+00	 7.8502130436e-01
 7.7052356945e-01	 1.0360627807e+00	 7.5109945916e-01
 8.7338222993e-01	 9.6291135649e-01	 1.5673044552e+00
 8.6396213783e-01	 9.7137230998e-01	 1.3820891351e+00
 8.5446275293e-01	 9.7973878581e-01	 1.2355339177e+00
 8.4488550533e-01	 9.8800967579e-01	 1.1216097694e+00
 8.3523184540e-01	 9.9618390038e-01	 1.0343224881e+00
 8.2550324302e-01	 1.0042604092e+00	 9.6772502493e-01
 8.1570118689e-01	 1.0122381813e+00	 9.1592932718e-01
 8.0582718374e-01	 1.0201162258e+00	 8.7311766682e-01
 7.9588275757e-01	 1.0278935824e+00	 8.3355342080e-01
 7.8586944893e-01	 1.0355693211e+00	 7.9159127423e-01
 7.7578881410e-01	 1.0431425434e+00	 7.4168682066e-01
 8.7930983682e-01	 9.6944659363e-01	 1.6482898326e+00
 8.6982581097e-01	 9.7796497124e-01	 1.4511499534e+00
 8.6026195415e-01	 9.8638822998e-01	 1.2956939277e+00
 8.5061970620e-01	 9.9471525413e-01	 1.1749063114e+00
 8.4090052730e-01	 1.0029449568e+00	 1.0818753797e+00
 8.3110589733e-01	 1.0110762805e+00	 1.0098067766e+00
 8.2123731507e-01	 1.0191081974e+00	 9.5203656478e-01
 8.1129629749e-01	 1.0270397099e+00	 9.0204363399e-01
 8.0128437894e-01	 1.0348698510e+00	 8.5346143575e-01
 7.9120311041e-01	 1.0425976847e+00	 8.0008901142e-01
 7.8105405876e-01	 1.0502223061e+00	 7.3590128804e-01
 8.8523744370e-01	 9.7598183078e-01	 1.7258699289e+00
 8.7568948410e-01	 9.8455763250e-01	 1.5200977960e+00
 8.6606115538e-01	 9.9303767415e-01	 1.3574305139e+00
 8.5635390706e-01	 1.0014208325e+00	 1.2302519867e+00
 8.4656920920e-01	 1.0097060133e+00	 1.1311264341e+00
 8.3670855163e-01	 1.0178921519e+00	 1.0528128253e+00
 8.2677344325e-01	 1.0259782136e+00	 9.8827857884e-01
 8.1676541124e-01	 1.0339631940e+00	 9.3071249049e-01
 8.0668600031e-01	 1.0418461197e+00	 8.7353685077e-01
 7.9653677189e-01	 1.0496260483e+00	 8.1041872211e-01
 7.8631930341e-01	 1.0573020688e+00	 7.3528034801e-01
 8.9116505059e-01	 9.8251706792e-01	 1.7899314105e+00
 8.8155315724e-01	 9.9115029376e-01	 1.5794576310e+00
 8.7186035661e-01	 9.9968711831e-01	 1.4120430568e+00
 8.6208810793e-01	 1.0081264108e+00	 1.2798492454e+00
 8.5223789110e-01	 1.0164670697e+00	 1.1753022991e+00
 8.4231120594e-01	 1.0247080232e+00	 1.0911075426e+00
 8.3230957143e-01	 1.0328482297e+00	 1.0202633273e+00
 8.2223452499e-01	 1.0408866781e+00	 9.5607391966e-01
 8.1208762167e-01	 1.0488223884e+00	 8.9216143941e-01
 8.0187043338e-01	 1.0566544118e+00	 8.2247681513e-01
 7.9158454807e-01	 1.0643818315e+00	 7.4130973120e-01
 8.9709265748e-01	 9.8905230506e-01	 1.8306208459e+00
 8.8741683038e-01	 9.9774295503e-01	 1.6199974733e+00
 8.7765955784e-01	 1.0063365625e+00	 1.4510534736e+00
 8.6782230880e-01	 1.0148319891e+00	 1.3160991061e+00
 8.5790657300e-01	 1.0232281261e+00	 1.2078009611e+00
 8.4791386024e-01	 1.0315238946e+00	 1.1191963500e+00
 8.3784569961e-01	 1.0397182458e+00	 1.0437066702e+00
 8.2770363875e-01	 1.0478101622e+00	 9.7514970571e-01
 8.1748924304e-01	 1.0557986570e+00	 9.0775082711e-01
 8.0720409486e-01	 1.0636827754e+00	 8.3615306208e-01
 7.9684979272e-01	 1.0714615942e+00	 7.5542601061e-01
 9.0302026437e-01	 9.9558754220e-01	 1.8383371281e+00
 8.9328050351e-01	 1.0043356163e+00	 1.6327213681e+00
 8.8345875907e-01	 1.0129860066e+00	 1.4661998815e+00
 8.7355650967e-01	 1.0215375675e+00	 1.3315956088e+00
 8.6357525491e-01	 1.0299891826e+00	 1.2221870940e+00
 8.5351651454e-01	 1.0383397659e+00	 1.1317220592e+00
 8.4338182779e-01	 1.0465882620e+00	 1.0544297948e+00
 8.3317275250e-01	 1.0547336463e+00	 9.8503232753e-01
 8.2289086441e-01	 1.0627749257e+00	 9.1875433147e-01
 8.1253775634e-01	 1.0707111390e+00	 8.5133175494e-01
 8.0211503738e-01	 1.0785413569e+00	 7.7901914079e-01
 9.0894787126e-01	 1.0021227793e+00	 1.8037242349e+00
 8.9914417665e-01	 1.0109282776e+00	 1.6088626921e+00
 8.8925796029e-01	 1.0196354508e+00	 1.4494305514e+00
 8.7929071054e-01	 1.0282431458e+00	 1.3191205290e+00
 8.6924393681e-01	 1.0367502390e+00	 1.2121876329e+00
 8.5911916885e-01	 1.0451556373e+00	 1.1234614005e+00
 8.4891795597e-01	 1.0534582781e+00	 1.0483567848e+00
 8.3864186625e-01	 1.0616571303e+00	 9.8288365073e-01
 8.2829248578e-01	 1.0697511944e+00	 9.2365485182e-01
 8.1787141782e-01	 1.0777395025e+00	 8.6789286142e-01
 8.0738028204e-01	 1.0856211196e+00	 8.1343494044e-01
 7.5472783548e-01	 1.0148234927e+00	 7.8489247008e-01
 7.4485858041e-01	 1.0220893154e+00	 8.0489262123e-01
 7.3492691326e-01	 1.0292537870e+00	 8.2785334472e-01
 7.2493438309e-01	 1.0363161302e+00	 8.4541998824e-01
 7.1488255120e-01	 1.0432755991e+00	 8.5442547787e-01
 7.0477299035e-01	 1.0501314794e+00	 8.5258028077e-01
 6.9460728400e-01	 1.0568830886e+00	 8.3782771006e-01
 6.8438702546e-01	 1.0635297760e+00	 8.0833742380e-01
 6.7411381717e-01	 1.0700709229e+00	 7.6249906728e-01
 6.6378926983e-01	 1.0765059431e+00	 6.9891608580e-01
 6.5341500165e-01	 1.0828342824e+00	 6.1639973209e-01
 7.5999308014e-01	 1.0219032553e+00	 7.7438129791e-01
 7.5005497370e-01	 1.0292197670e+00	 7.7690157071e-01
 7.4005401978e-01	 1.0364342204e+00	 7.8135941297e-01
 7.2999177823e-01	 1.0435458330e+00	 7.8195621173e-01
 7.1986982125e-01	 1.0505538536e+00	 7.7437283897e-01
 7.0968973258e-01	 1.0574575630e+00	 7.5770030268e-01
 6.9945310671e-01	 1.0642562737e+00	 7.3127487898e-01
 6.8916154809e-01	 1.0709493307e+00	 6.9466934177e-01
 6.7881667031e-01	 1.0775361109e+00	 6.4768435734e-01
 6.6842009533e-01	 1.0840160240e+00	 5.9034007515e-01
 6.5797345264e-01	 1.0903885121e+00	 5.2286794277e-01
 7.6525832479e-01	 1.0289830180e+00	 7.6254730017e-01
 7.5525136699e-01	 1.0363502186e+00	 7.4546183208e-01
 7.4518112629e-01	 1.0436146539e+00	 7.2910723726e-01
 7.3504917337e-01	 1.0507755358e+00	 7.1171563794e-01
 7.2485709130e-01	 1.0578321081e+00	 6.8797125380e-01
 7.1460647481e-01	 1.0647836465e+00	 6.5751982310e-01
 7.0429892943e-01	 1.0716294588e+00	 6.2093027397e-01
 6.9393607072e-01	 1.0783688854e+00	 5.7900018232e-01
 6.8351952346e-01	 1.0850012990e+00	 5.3274527442e-01
 6.7305092083e-01	 1.0915261050e+00	 4.8338917409e-01
 6.6253190362e-01	 1.0979427418e+00	 4.3235342562e-01
 7.7052356945e-01	 1.0360627807e+00	 7.5109945916e-01
 7.6044776028e-01	 1.0434806702e+00	 7.1391819134e-01
 7.5030823281e-01	 1.0507950873e+00	 6.7688225970e-01
 7.4010656851e-01	 1.0580052387e+00	 6.4039787958e-01
 7.2984436136e-01	 1.0651103626e+00	 6.0150427441e-01
 7.1952321704e-01	 1.0721097300e+00	 5.5856500954e-01
 7.0914475215e-01	 1.0790026439e+00	 5.1322512635e-01
 6.9871059335e-01	 1.0857884401e+00	 4.6733269476e-01
 6.8822237660e-01	 1.0924664870e+00	 4.2292677494e-01
 6.7768174633e-01	 1.0990361860e+00	 3.8222569469e-01
 6.6709035461e-01	 1.1054969714e+00	 3.4761567565e-01
 7.7578881410e-01	 1.0431425434e+00	 7.4168682066e-01
 7.6564415357e-01	 1.0506111218e+00	 6.8551057044e-01
 7.5543533932e-01	 1.0579755208e+00	 6.2918744938e-01
 7.4516396364e-01	 1.0652349415e+00	 5.7415952790e-01
 7.3483163141e-01	 1.0723886171e+00	 5.2107191852e-01
 7.2443995927e-01	 1.0794358135e+00	 4.6717139890e-01
 7.1399057486e-01	 1.0863758290e+00	 4.1440217471e-01
 7.0348511597e-01	 1.0932079948e+00	 3.6549240011e-01
 6.9292522974e-01	 1.0999316750e+00	 3.2331686395e-01
 6.8231257183e-01	 1.1065462670e+00	 2.9088416633e-01
 6.7164880559e-01	 1.1130512011e+00	 2.7136611268e-01
 7.8105405876e-01	 1.0502223061e+00	 7.3590128804e-01
 7.7084054685e-01	 1.0577415734e+00	 6.6337831965e-01
 7.6056244583e-01	 1.0651559543e+00	 5.9037599758e-01
 7.5022135878e-01	 1.0724646443e+00	 5.1926434120e-01
 7.3981890146e-01	 1.0796668717e+00	 4.5259593705e-01
 7.2935670150e-01	 1.0867618971e+00	 3.8948939715e-01
 7.1883639758e-01	 1.0937490141e+00	 3.3052108753e-01
 7.0825963860e-01	 1.1006275495e+00	 2.7913263110e-01
 6.9762808288e-01	 1.1073968631e+00	 2.3885095062e-01
 6.8694339732e-01	 1.1140563480e+00	 2.1338280864e-01
 6.7620725658e-01	 1.1206054308e+00	 2.0710241682e-01
 7.8631930341e-01	 1.0573020688e+00	 7.3528034801e-01
 7.7603694014e-01	 1.0648720250e+00	 6.5056438106e-01
 7.6568955235e-01	 1.0723363877e+00	 5.6467158190e-01
 7.5527875392e-01	 1.0796943471e+00	 4.8080647452e-01
 7.4480617151e-01	 1.0869451262e+00	 4.0231030420e-01
 7.3427344373e-01	 1.0940879806e+00	 3.3148953693e-01
 7.2368222029e-01	 1.1011221992e+00	 2.6746364685e-01
 7.1303416123e-01	 1.1080471042e+00	 2.1373934854e-01
 7.0233093602e-01	 1.1148620511e+00	 1.7451000949e-01
 6.9157422282e-01	 1.1215664290e+00	 1.5460403300e-01
 6.8076570756e-01	 1.1281596605e+00	 1.5783071514e-01
 7.9158454807e-01	 1.0643818315e+00	 7.4130973120e-01
 7.8123333343e-01	 1.0720024766e+00	 6.5001932947e-01
 7.7081665886e-01	 1.0795168212e+00	 5.5617348932e-01
 7.6033614906e-01	 1.0869240500e+00	 4.6372052440e-01
 7.4979344156e-01	 1.0942233807e+00	 3.7665875207e-01
 7.3919018596e-01	 1.1014140641e+00	 2.9896750436e-01
 7.2852804301e-01	 1.1084953844e+00	 2.3093870410e-01
 7.1780868385e-01	 1.1154666590e+00	 1.7492133866e-01
 7.0703378917e-01	 1.1223272392e+00	 1.3615866842e-01
 6.9620504832e-01	 1.1290765099e+00	 1.1865667226e-01
 6.8532415854e-01	 1.1357138902e+00	 1.2615808148e-01
 7.9684979272e-01	 1.0714615942e+00	 7.5542601061e-01
 7.8642972672e-01	 1.0791329282e+00	 6.6460529609e-01
 7.7594376538e-01	 1.0866972546e+00	 5.6886157919e-01
 7.6539354420e-01	 1.0941537528e+00	 4.7279890767e-01
 7.5478071162e-01	 1.1015016352e+00	 3.8096742730e-01
 7.4410692819e-01	 1.1087401476e+00	 2.9785744625e-01
 7.3337386572e-01	 1.1158685695e+00	 2.2685443983e-01
 7.2258320648e-01	 1.1228862137e+00	 1.6915582507e-01
 7.1173664231e-01	 1.1297924272e+00	 1.2868243070e-01
 7.0083587382e-01	 1.1365865909e+00	 1.0930426304e-01
 6.8988260953e-01	 1.1432681199e+00	 1.1462693117e-01
 8.0211503738e-01	 1.0785413569e+00	 7.7901914079e-01
 7.9162612001e-01	 1.0862633799e+00	 6.9709978064e-01
 7.8107087189e-01	 1.0938776881e+00	 6.0660109319e-01
 7.7045093933e-01	 1.1013834556e+00	 5.1269739684e-01
 7.5976798167e-01	 1.1087798897e+00	 4.2038823569e-01
 7.4902367042e-01	 1.1160662312e+00	 3.3491787911e-01
 7.3821968844e-01	 1.1232417546e+00	 2.6196647810e-01
 7.2735772911e-01	 1.1303057684e+00	 2.0180064589e-01
 7.1643949545e-01	 1.1372576152e+00	 1.5666576510e-01
 7.0546669932e-01	 1.1440966719e+00	 1.3021565115e-01
 6.9444106051e-01	 1.1508223496e+00	 1.2571720764e-01
 8.0738028204e-01	 1.0856211196e+00	 8.1343494044e-01
 7.9682251330e-01	 1.0933938315e+00	 7.5019935682e-01
 7.8619797841e-01	 1.1010581216e+00	 6.7314731951e-01
 7.7550833447e-01	 1.1086131585e+00	 5.8794048095e-01
 7.6475525172e-01	 1.1160581442e+00	 5.0037544666e-01
 7.5394041265e-01	 1.1233923147e+00	 4.1685174868e-01
 7.4306551116e-01	 1.1306149397e+00	 3.4195782888e-01
 7.3213225174e-01	 1.1377253231e+00	 2.7794622156e-01
 7.2114234859e-01	 1.1447228033e+00	 2.2457752619e-01
 7.1009752482e-01	 1.1516067529e+00	 1.8496813061e-01
 6.9899951150e-01	 1.1583765792e+00	 1.6184848204e-01
 6.5341500165e-01	 1.0828342824e+00	 6.1639973209e-01
 6.4299263775e-01	 1.0890554195e+00	 5.2690611222e-01
 6.3252380994e-01	 1.0951688665e+00	 4.4625877828e-01
 6.2201015531e-01	 1.1011741682e+00	 3.7913064126e-01
 6.1145331523e-01	 1.1070709020e+00	 3.3006517524e-01
 6.0085493454e-01	 1.1128586778e+00	 3.0348150344e-01
 5.9021666079e-01	 1.1185371380e+00	 3.0377490498e-01
 5.7954014345e-01	 1.1241059573e+00	 3.3490938310e-01
 5.6882703310e-01	 1.1295648427e+00	 4.0061507312e-01
 5.5807898070e-01	 1.1349135336e+00	 5.0447626593e-01
 5.4729763683e-01	 1.1401518013e+00	 6.4993202447e-01
 6.5797345264e-01	 1.0903885121e+00	 5.2286794277e-01
 6.4747837869e-01	 1.0966530500e+00	 4.5532181650e-01
 6.3693651668e-01	 1.1028091465e+00	 3.9989687917e-01
 6.2634951513e-01	 1.1088563433e+00	 3.6006266352e-01
 6.1571902685e-01	 1.1147942148e+00	 3.3919077965e-01
 6.0504670816e-01	 1.1206223682e+00	 3.4057537066e-01
 5.9433421811e-01	 1.1263404433e+00	 3.6692435919e-01
 5.8358321765e-01	 1.1319481126e+00	 4.2072815770e-01
 5.7279536891e-01	 1.1374450811e+00	 5.0429678331e-01
 5.6197233435e-01	 1.1428310863e+00	 6.1976277028e-01
 5.5111577606e-01	 1.1481058980e+00	 7.6908416780e-01
 6.6253190362e-01	 1.0979427418e+00	 4.3235342562e-01
 6.5196411963e-01	 1.1042506805e+00	 3.8718806536e-01
 6.4134922343e-01	 1.1104494265e+00	 3.5611053441e-01
 6.3068887495e-01	 1.1165385184e+00	 3.4174478101e-01
 6.1998473847e-01	 1.1225175276e+00	 3.4645042833e-01
 6.0923848178e-01	 1.1283860585e+00	 3.7195406050e-01
 5.9845177542e-01	 1.1341437485e+00	 4.1976789987e-01
 5.8762629186e-01	 1.1397902678e+00	 4.9119798879e-01
 5.7676370472e-01	 1.1453253194e+00	 5.8734895796e-01
 5.6586568800e-01	 1.1507486390e+00	 7.0912889444e-01
 5.5493391529e-01	 1.1560599947e+00	 8.5725429204e-01
 6.6709035461e-01	 1.1054969714e+00	 3.4761567565e-01
 6.5644986057e-01	 1.1118483110e+00	 3.2385600799e-01
 6.4576193017e-01	 1.1180897066e+00	 3.1554511669e-01
 6.3502823477e-01	 1.1242206935e+00	 3.2423449976e-01
 6.2425045010e-01	 1.1302408404e+00	 3.5090935856e-01
 6.1343025541e-01	 1.1361497489e+00	 3.9632665186e-01
 6.0256933273e-01	 1.1419470538e+00	 4.6102118513e-01
 5.9166936606e-01	 1.1476324231e+00	 5.4531182918e-01
 5.8073204052e-01	 1.1532055578e+00	 6.4930784637e-01
 5.6975904164e-01	 1.1586661917e+00	 7.7291530350e-01
 5.5875205452e-01	 1.1640140914e+00	 9.1584355190e-01
 6.7164880559e-01	 1.1130512011e+00	 2.7136611268e-01
 6.6093560150e-01	 1.1194459415e+00	 2.6730549498e-01
 6.5017463691e-01	 1.1257299866e+00	 2.7908022456e-01
 6.3936759460e-01	 1.1319028687e+00	 3.0710936814e-01
 6.2851616172e-01	 1.1379641532e+00	 3.5157746538e-01
 6.1762202903e-01	 1.1439134392e+00	 4.1244169866e-01
 6.0668689005e-01	 1.1497503591e+00	 4.8943919494e-01
 5.9571244026e-01	 1.1554745784e+00	 5.8209443446e-01
 5.8470037633e-01	 1.1610857962e+00	 6.8972674278e-01
 5.7365239529e-01	 1.1665837444e+00	 8.1145784318e-01
 5.6257019375e-01	 1.1719681881e+00	 9.4621944840e-01
 6.7620725658e-01	 1.1206054308e+00	 2.0710241682e-01
 6.6542134244e-01	 1.1270435720e+00	 2.1937575352e-01
 6.5458734366e-01	 1.1333702667e+00	 2.4706687852e-01
 6.4370695442e-01	 1.1395850438e+00	 2.8992935244e-01
 6.3278187334e-01	 1.1456874660e+00	 3.4749580929e-01
 6.2181380265e-01	 1.1516771296e+00	 4.1908601634e-01
 6.1080444736e-01	 1.1575536643e+00	 5.0381503008e-01
 5.9975551447e-01	 1.1633167337e+00	 6.0060142197e-01
 5.8866871214e-01	 1.1689660346e+00	 7.0817554891e-01
 5.7754574893e-01	 1.1745012971e+00	 8.2508784474e-01
 5.6638833298e-01	 1.1799222848e+00	 9.4971711048e-01
 6.8076570756e-01	 1.1281596605e+00	 1.5783071514e-01
 6.6990708338e-01	 1.1346412025e+00	 1.8144077863e-01
 6.5900005040e-01	 1.1410105467e+00	 2.1984764543e-01
 6.4804631424e-01	 1.1472672189e+00	 2.7227067739e-01
 6.3704758496e-01	 1.1534107788e+00	 3.3773568052e-01
 6.2600557627e-01	 1.1594408199e+00	 4.1508351652e-01
 6.1492200467e-01	 1.1653569696e+00	 5.0297875901e-01
 6.0379858867e-01	 1.1711588890e+00	 5.9991836758e-01
 5.9263704795e-01	 1.1768462729e+00	 7.0424035416e-01
 5.8143910258e-01	 1.1824188498e+00	 8.1413241783e-01
 5.7020647220e-01	 1.1878763815e+00	 9.2764052547e-01
 6.8532415854e-01	 1.1357138902e+00	 1.2615808148e-01
 6.7439282432e-01	 1.1422388330e+00	 1.5484234152e-01
 6.6341275714e-01	 1.1486508268e+00	 1.9776042160e-01
 6.5238567406e-01	 1.1549493941e+00	 2.5372538309e-01
 6.4131329658e-01	 1.1611340916e+00	 3.2139769999e-01
 6.3019734989e-01	 1.1672045102e+00	 3.9929408780e-01
 6.1903956198e-01	 1.1731602748e+00	 4.8579631042e-01
 6.0784166287e-01	 1.1790010443e+00	 5.7915993824e-01
 5.9660538376e-01	 1.1847265113e+00	 6.7752303243e-01
 5.8533245622e-01	 1.1903364025e+00	 7.7891473180e-01
 5.7402461143e-01	 1.1958304782e+00	 8.8126372059e-01
 6.8988260953e-01	 1.1432681199e+00	 1.1462693117e-01
 6.7887856526e-01	 1.1498364636e+00	 1.4089113101e-01
 6.6782546389e-01	 1.1562911068e+00	 1.8113867378e-01
 6.5672503388e-01	 1.1626315692e+00	 2.3390089858e-01
 6.4557900820e-01	 1.1688574044e+00	 2.9761095525e-01
 6.3438912351e-01	 1.1749682006e+00	 3.7061252039e-01
 6.2315711930e-01	 1.1809635801e+00	 4.5116840940e-01
 6.1188473708e-01	 1.1868431996e+00	 5.3746905888e-01
 6.0057371956e-01	 1.1926067497e+00	 6.2764085501e-01
 5.8922580987e-01	 1.1982539552e+00	 7.1975428598e-01
 5.7784275066e-01	 1.2037845749e+00	 8.1183189804e-01
 6.9444106051e-01	 1.1508223496e+00	 1.2571720764e-01
 6.8336430619e-01	 1.1574340941e+00	 1.4086784867e-01
 6.7223817063e-01	 1.1639313869e+00	 1.7031166969e-01
 6.6106439370e-01	 1.1703137443e+00	 2.1241963149e-01
 6.4984471983e-01	 1.1765807172e+00	 2.6553216990e-01
 6.3858089713e-01	 1.1827318909e+00	 3.2796747263e-01
 6.2727467661e-01	 1.1887668854e+00	 3.9802955523e-01
 6.1592781128e-01	 1.1946853549e+00	 4.7401611188e-01
 6.0454205537e-01	 1.2004869881e+00	 5.5422611870e-01
 5.9311916351e-01	 1.2061715080e+00	 6.3696716945e-01
 5.8166088989e-01	 1.2117386716e+00	 7.2056252556e-01
 6.9899951150e-01	 1.1583765792e+00	 1.6184848204e-01
 6.8785004713e-01	 1.1650317246e+00	 1.5602426004e-01
 6.7665087737e-01	 1.1715716669e+00	 1.6560469853e-01
 6.6540375352e-01	 1.1779959194e+00	 1.8891857286e-01
 6.5411043145e-01	 1.1843040300e+00	 2.2434490474e-01
 6.4277267076e-01	 1.1904955813e+00	 2.7032047756e-01
 6.3139223392e-01	 1.1965701906e+00	 3.2534703882e-01
 6.1997088548e-01	 1.2025275101e+00	 3.8799816778e-01
 6.0851039118e-01	 1.2083672264e+00	 4.5692578846e-01
 5.9701251716e-01	 1.2140890607e+00	 5.3086631078e-01
 5.8547902912e-01	 1.2196927683e+00	 6.0864638455e-01
 5.4729763683e-01	 1.1401518013e+00	 6.4993202447e-01
 5.3648280987e-01	 1.1452803116e+00	 8.1237743399e-01
 5.2563797785e-01	 1.1502979987e+00	 9.6391823987e-01
 5.1476478594e-01	 1.1552047288e+00	 1.1029714606e+00
 5.0386487593e-01	 1.1600003990e+00	 1.2278723933e+00
 4.9293988553e-01	 1.1646849381e+00	 1.3368805123e+00
 4.8199144765e-01	 1.1692583055e+00	 1.4281852625e+00
 4.7102118972e-01	 1.1737204915e+00	 1.4999117388e+00
 4.6003073296e-01	 1.1780715168e+00	 1.5501262447e+00
 4.4902169174e-01	 1.1823114322e+00	 1.5768417218e+00
 4.3799567291e-01	 1.1864403182e+00	 1.5780230455e+00
 5.5111577606e-01	 1.1481058980e+00	 7.6908416780e-01
 5.4022550109e-01	 1.1532701865e+00	 9.2718343768e-01
 5.2930501175e-01	 1.1583228788e+00	 1.0675345805e+00
 5.1835596466e-01	 1.1632638399e+00	 1.1898643115e+00
 5.0738001307e-01	 1.1680929665e+00	 1.2938824162e+00
 4.9637880612e-01	 1.1728101865e+00	 1.3792849868e+00
 4.8535398812e-01	 1.1774154593e+00	 1.4457574992e+00
 4.7430719784e-01	 1.1819087751e+00	 1.4929777273e+00
 4.6324006783e-01	 1.1862901547e+00	 1.5206184911e+00
 4.5215422370e-01	 1.1905596492e+00	 1.5283502371e+00
 4.4105128351e-01	 1.1947173398e+00	 1.5158434520e+00
 5.5493391529e-01	 1.1560599947e+00	 8.5725429204e-01
 5.4396819232e-01	 1.1612600615e+00	 1.0072986524e+00
 5.3297204564e-01	 1.1663477589e+00	 1.1349146977e+00
 5.2194714337e-01	 1.1713229511e+00	 1.2409059897e+00
 5.1089515021e-01	 1.1761855339e+00	 1.3261124789e+00
 4.9981772672e-01	 1.1809354349e+00	 1.3914115496e+00
 4.8871652860e-01	 1.1855726132e+00	 1.4377188582e+00
 4.7759320597e-01	 1.1900970587e+00	 1.4659889666e+00
 4.6644940269e-01	 1.1945087925e+00	 1.4772157711e+00
 4.5528675565e-01	 1.1988078661e+00	 1.4724327309e+00
 4.4410689411e-01	 1.2029943613e+00	 1.4527128989e+00
 5.5875205452e-01	 1.1640140914e+00	 9.1584355190e-01
 5.4771088354e-01	 1.1692499365e+00	 1.0551774583e+00
 5.3663907953e-01	 1.1743726390e+00	 1.1693021619e+00
 5.2553832208e-01	 1.1793820623e+00	 1.2598706296e+00
 5.1441028735e-01	 1.1842781013e+00	 1.3286142188e+00
 5.0325664731e-01	 1.1890606833e+00	 1.3773419941e+00
 4.9207906907e-01	 1.1937297670e+00	 1.4079397994e+00
 4.8087921410e-01	 1.1982853423e+00	 1.4223690890e+00
 4.6965873756e-01	 1.2027274304e+00	 1.4226655225e+00
 4.5841928761e-01	 1.2070560831e+00	 1.4109373307e+00
 4.4716250471e-01	 1.2112713829e+00	 1.3893634601e+00
 5.6257019375e-01	 1.1719681881e+00	 9.4621944840e-01
 5.5145357476e-01	 1.1772398114e+00	 1.0732119267e+00
 5.4030611342e-01	 1.1823975192e+00	 1.1738567284e+00
 5.2912950080e-01	 1.1874411734e+00	 1.2504340474e+00
 5.1792542449e-01	 1.1923706688e+00	 1.3053333034e+00
 5.0669556791e-01	 1.1971859318e+00	 1.3410511893e+00
 4.9544160954e-01	 1.2018869208e+00	 1.3601894423e+00
 4.8416522222e-01	 1.2064736259e+00	 1.3654523464e+00
 4.7286807242e-01	 1.2109460682e+00	 1.3596439720e+00
 4.6155181956e-01	 1.2153043001e+00	 1.3456651647e+00
 4.5021811531e-01	 1.2195484044e+00	 1.3265102902e+00
 5.6638833298e-01	 1.1799222848e+00	 9.4971711048e-01
 5.5519626599e-01	 1.1852296864e+00	 1.0637340713e+00
 5.4397314732e-01	 1.1904223993e+00	 1.1516573172e+00
 5.3272067951e-01	 1.1955002846e+00	 1.2161772124e+00
 5.2144056162e-01	 1.2004632362e+00	 1.2601131624e+00
 5.1013448850e-01	 1.2053111802e+00	 1.2864108454e+00
 4.9880415001e-01	 1.2100440746e+00	 1.2981391439e+00
 4.8745123035e-01	 1.2146619095e+00	 1.2984867847e+00
 4.7607740729e-01	 1.2191647061e+00	 1.2907586982e+00
 4.6468435151e-01	 1.2235525171e+00	 1.2783721068e+00
 4.5327372591e-01	 1.2278254259e+00	 1.2648523549e+00
 5.7020647220e-01	 1.1878763815e+00	 9.2764052547e-01
 5.5893895721e-01	 1.1932195614e+00	 1.0290180096e+00
 5.4764018121e-01	 1.1984472794e+00	 1.1057048744e+00
 5.3631185822e-01	 1.2035593958e+00	 1.1605895806e+00
 5.2495569876e-01	 1.2085558036e+00	 1.1966985701e+00
 5.1357340909e-01	 1.2134364286e+00	 1.2171931289e+00
 5.0216669048e-01	 1.2182012284e+00	 1.2253659339e+00
 4.9073723847e-01	 1.2228501930e+00	 1.2246372932e+00
 4.7928674215e-01	 1.2273833439e+00	 1.2185510918e+00
 4.6781688346e-01	 1.2318007341e+00	 1.2107704534e+00
 4.5632933651e-01	 1.2361024475e+00	 1.2050731325e+00
 5.7402461143e-01	 1.1958304782e+00	 8.8126372059e-01
 5.6268164843e-01	 1.2012094364e+00	 9.7128203923e-01
 5.5130721510e-01	 1.2064721595e+00	 1.0389251189e+00
 5.3990303693e-01	 1.2116185069e+00	 1.0870722943e+00
 5.2847083590e-01	 1.2166483711e+00	 1.1187390856e+00
 5.1701232969e-01	 1.2215616770e+00	 1.1370741339e+00
 5.0552923095e-01	 1.2263583823e+00	 1.1453558142e+00
 4.9402324660e-01	 1.2310384766e+00	 1.1469885322e+00
 4.8249607701e-01	 1.2356019818e+00	 1.1454987190e+00
 4.7094941542e-01	 1.2400489511e+00	 1.1445305339e+00
 4.5938494711e-01	 1.2443794690e+00	 1.1478412892e+00
 5.7784275066e-01	 1.2037845749e+00	 8.1183189804e-01
 5.6642433966e-01	 1.2091993113e+00	 8.9269063123e-01
 5.5497424899e-01	 1.2144970396e+00	 9.5417118095e-01
 5.4349421564e-01	 1.2196776181e+00	 9.9894125688e-01
 5.3198597304e-01	 1.2247409385e+00	 1.0297923574e+00
 5.2045125028e-01	 1.2296869254e+00	 1.0496372169e+00
 5.0889177143e-01	 1.2345155361e+00	 1.0615069277e+00
 4.9730925472e-01	 1.2392267602e+00	 1.0685477461e+00
 4.8570541188e-01	 1.2438206197e+00	 1.0740175928e+00
 4.7408194737e-01	 1.2482971680e+00	 1.0812822582e+00
 4.6244055771e-01	 1.2526564905e+00	 1.0938113282e+00
 5.8166088989e-01	 1.2117386716e+00	 7.2056252556e-01
 5.7016703088e-01	 1.2171891863e+00	 7.9535634590e-01
 5.5864128289e-01	 1.2225219197e+00	 8.5422613799e-01
 5.4708539436e-01	 1.2277367293e+00	 8.9943008608e-01
 5.3550111017e-01	 1.2328335059e+00	 9.3332729908e-01
 5.2389017087e-01	 1.2378121738e+00	 9.5837620114e-01
 5.1225431190e-01	 1.2426726899e+00	 9.7713260373e-01
 5.0059526285e-01	 1.2474150438e+00	 9.9224746629e-01
 4.8891474675e-01	 1.2520392575e+00	 1.0064643544e+00
 4.7721447932e-01	 1.2565453850e+00	 1.0226166056e+00
 4.6549616831e-01	 1.2609335121e+00	 1.0436242151e+00
 5.8547902912e-01	 1.2196927683e+00	 6.0864638455e-01
 5.7390972211e-01	 1.2251790613e+00	 6.8134167387e-01
 5.6230831678e-01	 1.2305467998e+00	 7.4180545083e-01
 5.5067657307e-01	 1.2357958404e+00	 7.9169295297e-01
 5.3901624731e-01	 1.2409260734e+00	 8.3272714004e-01
 5.2732909147e-01	 1.2459374222e+00	 8.6669845577e-01
 5.1561685237e-01	 1.2508298437e+00	 8.9546428477e-01
 5.0388127097e-01	 1.2556033274e+00	 9.2094810919e-01
 4.9212408161e-01	 1.2602578954e+00	 9.4513837192e-01
 4.8034701128e-01	 1.2647936020e+00	 9.7008705435e-01
 4.6855177891e-01	 1.2692105336e+00	 9.9790797846e-01
 4.3799567291e-01	 1.1864403182e+00	 1.5780230455e+00
 4.2695615308e-01	 1.1904576115e+00	 1.5684701404e+00
 4.1590284802e-01	 1.1943641616e+00	 1.5615477658e+00
 4.0483733686e-01	 1.1981601358e+00	 1.5531286277e+00
 3.9376118865e-01	 1.2018457296e+00	 1.5392050514e+00
 3.8267596183e-01	 1.2054211666e+00	 1.5158927917e+00
 3.7158320363e-01	 1.2088866979e+00	 1.4794345104e+00
 3.6048444952e-01	 1.2122426019e+00	 1.4277232691e+00
 3.4938122261e-01	 1.2154891835e+00	 1.3596122342e+00
 3.3827503318e-01	 1.2186267741e+00	 1.2719297793e+00
 3.2716737810e-01	 1.2216557311e+00	 1.1616622578e+00
 4.4105128351e-01	 1.1947173398e+00	 1.5158434520e+00
 4.2993474813e-01	 1.1987626590e+00	 1.5000602363e+00
 4.1880433137e-01	 1.2026964626e+00	 1.4946725511e+00
 4.0766162334e-01	 1.2065189189e+00	 1.4944816919e+00
 3.9650820405e-01	 1.2102302247e+00	 1.4943647462e+00
 3.8534564283e-01	 1.2138306052e+00	 1.4892806791e+00
 3.7417549768e-01	 1.2173203133e+00	 1.4742760949e+00
 3.6299931479e-01	 1.2206996291e+00	 1.4452867172e+00
 3.5181862790e-01	 1.2239688600e+00	 1.4002504168e+00
 3.4063495781e-01	 1.2271283396e+00	 1.3348965134e+00
 3.2944981186e-01	 1.2301784277e+00	 1.2448993032e+00
 4.4410689411e-01	 1.2029943613e+00	 1.4527128989e+00
 4.3291334319e-01	 1.2070677066e+00	 1.4359302119e+00
 4.2170581472e-01	 1.2110287637e+00	 1.4351840973e+00
 4.1048590982e-01	 1.2148777020e+00	 1.4444540716e+00
 3.9925521946e-01	 1.2186147198e+00	 1.4577594233e+00
 3.8801532382e-01	 1.2222400438e+00	 1.4691671126e+00
 3.7676779173e-01	 1.2257539286e+00	 1.4727993563e+00
 3.6551418005e-01	 1.2291566564e+00	 1.4631656067e+00
 3.5425603318e-01	 1.2324485366e+00	 1.4371509653e+00
 3.4299488244e-01	 1.2356299051e+00	 1.3898307764e+00
 3.3173224561e-01	 1.2387011242e+00	 1.3158619899e+00
 4.4716250471e-01	 1.2112713829e+00	 1.3893634601e+00
 4.3589193825e-01	 1.2153727542e+00	 1.3756952975e+00
 4.2460729806e-01	 1.2193610647e+00	 1.3817874820e+00
 4.1331019630e-01	 1.2232364850e+00	 1.4010416764e+00
 4.0200223487e-01	 1.2269992148e+00	 1.4268710081e+00
 3.9068500482e-01	 1.2306494823e+00	 1.4527093281e+00
 3.7936008577e-01	 1.2341875439e+00	 1.4720201610e+00
 3.6802904532e-01	 1.2376136837e+00	 1.4783765810e+00
 3.5669343846e-01	 1.2409282131e+00	 1.4675416248e+00
 3.4535480707e-01	 1.2441314706e+00	 1.4343366793e+00
 3.3401467937e-01	 1.2472238207e+00	 1.3726897955e+00
 4.5021811531e-01	 1.2195484044e+00	 1.3265102902e+00
 4.3887053331e-01	 1.2236778018e+00	 1.3189838925e+00
 4.2750878141e-01	 1.2276933657e+00	 1.3332254154e+00
 4.1613448278e-01	 1.2315952681e+00	 1.3622970438e+00
 4.0474925027e-01	 1.2353837099e+00	 1.3992517403e+00
 3.9335468582e-01	 1.2390589209e+00	 1.4371434135e+00
 3.8195237982e-01	 1.2426211592e+00	 1.4690367807e+00
 3.7054391059e-01	 1.2460707109e+00	 1.4880169221e+00
 3.5913084374e-01	 1.2494078897e+00	 1.4887247464e+00
 3.4771473171e-01	 1.2526330361e+00	 1.4660822180e+00
 3.3629711312e-01	 1.2557465173e+00	 1.4135710829e+00
 4.5327372591e-01	 1.2278254259e+00	 1.2648523549e+00
 4.4184912837e-01	 1.2319828493e+00	 1.2654372789e+00
 4.3041026476e-01	 1.2360256667e+00	 1.2882771266e+00
 4.1895876926e-01	 1.2399540512e+00	 1.3263275826e+00
 4.0749626568e-01	 1.2437682049e+00	 1.3725219521e+00
 3.9602436682e-01	 1.2474683594e+00	 1.4197817950e+00
 3.8454467387e-01	 1.2510547745e+00	 1.4610272546e+00
 3.7305877585e-01	 1.2545277382e+00	 1.4891870801e+00
 3.6156824903e-01	 1.2578875662e+00	 1.4980750574e+00
 3.5007465634e-01	 1.2611346015e+00	 1.4827973746e+00
 3.3857954688e-01	 1.2642692138e+00	 1.4367416789e+00
 4.5632933651e-01	 1.2361024475e+00	 1.2050731325e+00
 4.4482772342e-01	 1.2402878969e+00	 1.2147093474e+00
 4.3331174810e-01	 1.2443579678e+00	 1.2457572966e+00
 4.2178305574e-01	 1.2483128342e+00	 1.2912938877e+00
 4.1024328109e-01	 1.2521527000e+00	 1.3443679367e+00
 3.9869404781e-01	 1.2558777980e+00	 1.3980108260e+00
 3.8713696792e-01	 1.2594883898e+00	 1.4452468586e+00
 3.7557364112e-01	 1.2629847655e+00	 1.4791033052e+00
 3.6400565431e-01	 1.2663672428e+00	 1.4930375296e+00
 3.5243458097e-01	 1.2696361670e+00	 1.4822723034e+00
 3.4086198063e-01	 1.2727919104e+00	 1.4404835171e+00
 4.5938494711e-01	 1.2443794690e+00	 1.1478412892e+00
 4.4780631848e-01	 1.2485929445e+00	 1.1664663367e+00
 4.3621323145e-01	 1.2526902688e+00	 1.2045150340e+00
 4.2460734222e-01	 1.2566716173e+00	 1.2554081239e+00
 4.1299029649e-01	 1.2605371951e+00	 1.3125399037e+00
 4.0136372881e-01	 1.2642872365e+00	 1.3692884732e+00
 3.8972926196e-01	 1.2679220051e+00	 1.4190256768e+00
 3.7808850639e-01	 1.2714417927e+00	 1.4551267379e+00
 3.6644305959e-01	 1.2748469193e+00	 1.4711253402e+00
 3.5479450560e-01	 1.2781377325e+00	 1.4623555965e+00
 3.4314441439e-01	 1.2813146069e+00	 1.4231233428e+00
 4.6244055771e-01	 1.2526564905e+00	 1.0938113282e+00
 4.5078491354e-01	 1.2568979920e+00	 1.1203865831e+00
 4.3911471479e-01	 1.2610225698e+00	 1.1634328938e+00
 4.2743162870e-01	 1.2650304004e+00	 1.2169324745e+00
 4.1573731190e-01	 1.2689216901e+00	 1.2748500164e+00
 4.0403340981e-01	 1.2726966751e+00	 1.3311420956e+00
 3.9232155601e-01	 1.2763556204e+00	 1.3797662710e+00
 3.8060337166e-01	 1.2798988200e+00	 1.4146898729e+00
 3.6888046488e-01	 1.2833265959e+00	 1.4299179226e+00
 3.5715443023e-01	 1.2866392980e+00	 1.4209526261e+00
 3.4542684815e-01	 1.2898373034e+00	 1.3830314754e+00
 4.6549616831e-01	 1.2609335121e+00	 1.0436242151e+00
 4.5376350860e-01	 1.2652030396e+00	 1.0761602819e+00
 4.4201619814e-01	 1.2693548709e+00	 1.1214259351e+00
 4.3025591518e-01	 1.2733891834e+00	 1.1741776523e+00
 4.1848432731e-01	 1.2773061852e+00	 1.2291705073e+00
 4.0670309081e-01	 1.2811061136e+00	 1.2811663120e+00
 3.9491385006e-01	 1.2847892357e+00	 1.3249414426e+00
 3.8311823692e-01	 1.2883558473e+00	 1.3552943529e+00
 3.7131787016e-01	 1.2918062724e+00	 1.3670527778e+00
 3.5951435487e-01	 1.2951408634e+00	 1.3560239596e+00
 3.4770928190e-01	 1.2983600000e+00	 1.3186206273e+00
 4.6855177891e-01	 1.2692105336e+00	 9.9790797846e-01
 4.5674210366e-01	 1.2735080872e+00	 1.0334892586e+00
 4.4491768149e-01	 1.2776871719e+00	 1.0774408171e+00
 4.3308020167e-01	 1.2817479665e+00	 1.1255014705e+00
 4.2123134272e-01	 1.2856906802e+00	 1.1734318698e+00
 4.0937277181e-01	 1.2895155522e+00	 1.2170209544e+00
 3.9750614411e-01	 1.2932228510e+00	 1.2520920834e+00
 3.8563310219e-01	 1.2968128745e+00	 1.2745088505e+00
 3.7375527545e-01	 1.3002859490e+00	 1.2801805862e+00
 3.6187427950e-01	 1.3036424289e+00	 1.2655838443e+00
 3.4999171566e-01	 1.3068826965e+00	 1.2283447761e+00
 3.2716737810e-01	 1.2216557311e+00	 1.1616622578e+00
 3.1605974053e-01	 1.2245764373e+00	 1.0415971319e+00
 3.0495358983e-01	 1.2273893016e+00	 9.2823019784e-01
 2.9385038065e-01	 1.2300947574e+00	 8.2420983666e-01
 2.8275155227e-01	 1.2326932625e+00	 7.3213594319e-01
 2.7165852822e-01	 1.2351852976e+00	 6.5455557227e-01
 2.6057271584e-01	 1.2375713667e+00	 5.9395883950e-01
 2.4949550584e-01	 1.2398519961e+00	 5.5277507588e-01
 2.3842827199e-01	 1.2420277338e+00	 5.3336923414e-01
 2.2737237065e-01	 1.2440991495e+00	 5.3803854377e-01
 2.1632914054e-01	 1.2460668334e+00	 5.6900941071e-01
 3.2944981186e-01	 1.2301784277e+00	 1.2448993032e+00
 3.1826468353e-01	 1.2331195097e+00	 1.1406931436e+00
 3.0708105245e-01	 1.2359519975e+00	 1.0375837709e+00
 2.9590038340e-01	 1.2386763276e+00	 9.3864048109e-01
 2.8472412573e-01	 1.2412929607e+00	 8.4689599969e-01
 2.7355371288e-01	 1.2438023811e+00	 7.6534127360e-01
 2.6239056200e-01	 1.2462050963e+00	 6.9692052873e-01
 2.5123607352e-01	 1.2485016361e+00	 6.4452659347e-01
 2.4009163078e-01	 1.2506925525e+00	 6.1099648678e-01
 2.2895859963e-01	 1.2527784191e+00	 5.9910726832e-01
 2.1783832809e-01	 1.2547598303e+00	 6.1157214757e-01
 3.3173224561e-01	 1.2387011242e+00	 1.3158619899e+00
 3.2046962653e-01	 1.2416625821e+00	 1.2240813336e+00
 3.0920851507e-01	 1.2445146934e+00	 1.1290884666e+00
 2.9795038616e-01	 1.2472578977e+00	 1.0342613180e+00
 2.8669669919e-01	 1.2498926589e+00	 9.4294907887e-01
 2.7544889753e-01	 1.2524194647e+00	 8.5846636282e-01
 2.6420840816e-01	 1.2548388259e+00	 7.8408764522e-01
 2.5297664121e-01	 1.2571512761e+00	 7.2304198009e-01
 2.4175498958e-01	 1.2593573713e+00	 6.7850799448e-01
 2.3054482860e-01	 1.2614576888e+00	 6.5360915823e-01
 2.1934751563e-01	 1.2634528272e+00	 6.5140932598e-01
 3.3401467937e-01	 1.2472238207e+00	 1.3726897955e+00
 3.2267456953e-01	 1.2502056545e+00	 1.2904582884e+00
 3.1133597769e-01	 1.2530773893e+00	 1.2018884176e+00
 3.0000038892e-01	 1.2558394678e+00	 1.1105571172e+00
 2.8866927265e-01	 1.2584923571e+00	 1.0200163753e+00
 2.7734408219e-01	 1.2610365482e+00	 9.3378698498e-01
 2.6602625432e-01	 1.2634725554e+00	 8.5535258601e-01
 2.5471720889e-01	 1.2658009162e+00	 7.8815399785e-01
 2.4341834838e-01	 1.2680221900e+00	 7.3558384236e-01
 2.3213105757e-01	 1.2701369584e+00	 7.0098145494e-01
 2.2085670318e-01	 1.2721458241e+00	 6.8762808059e-01
 3.3629711312e-01	 1.2557465173e+00	 1.4135710829e+00
 3.2487951253e-01	 1.2587487269e+00	 1.3385539293e+00
 3.1346344031e-01	 1.2616400853e+00	 1.2551485556e+00
 3.0205039168e-01	 1.2644210380e+00	 1.1670238551e+00
 2.9064184611e-01	 1.2670920553e+00	 1.0778235688e+00
 2.7923926685e-01	 1.2696536317e+00	 9.9115984531e-01
 2.6784410049e-01	 1.2721062850e+00	 9.1060710469e-01
 2.5645777657e-01	 1.2744505562e+00	 8.3969620681e-01
 2.4508170717e-01	 1.2766870088e+00	 7.8190892233e-01
 2.3371728655e-01	 1.2788162281e+00	 7.4067270449e-01
 2.2236589073e-01	 1.2808388210e+00	 7.1935575802e-01
 3.3857954688e-01	 1.2642692138e+00	 1.4367416789e+00
 3.2708445554e-01	 1.2672917993e+00	 1.3671305880e+00
 3.1559090293e-01	 1.2702027812e+00	 1.2880540840e+00
 3.0410039444e-01	 1.2730026081e+00	 1.2031684867e+00
 2.9261441957e-01	 1.2756917535e+00	 1.1161007998e+00
 2.8113445150e-01	 1.2782707152e+00	 1.0304422957e+00
 2.6966194665e-01	 1.2807400145e+00	 9.4974241863e-01
 2.5819834425e-01	 1.2831001962e+00	 8.7750300523e-01
 2.4674506597e-01	 1.2853518275e+00	 8.1717282134e-01
 2.3530351552e-01	 1.2874954977e+00	 7.7214241137e-01
 2.2387507828e-01	 1.2895318179e+00	 7.4573925650e-01
 3.4086198063e-01	 1.2727919104e+00	 1.4404835171e+00
 3.2928939854e-01	 1.2758348717e+00	 1.3749821266e+00
 3.1771836555e-01	 1.2787654771e+00	 1.2998099781e+00
 3.0615039720e-01	 1.2815841782e+00	 1.2185087323e+00
 2.9458699304e-01	 1.2842914517e+00	 1.1345826512e+00
 2.8302963616e-01	 1.2868877987e+00	 1.0514924227e+00
 2.7147979281e-01	 1.2893737441e+00	 9.7264931642e-01
 2.5993891193e-01	 1.2917498362e+00	 9.0140967235e-01
 2.4840842477e-01	 1.2940166462e+00	 8.4106971786e-01
 2.3688974449e-01	 1.2961747674e+00	 7.9486070960e-01
 2.2538426583e-01	 1.2982248148e+00	 7.6594439506e-01
 3.4314441439e-01	 1.2813146069e+00	 1.4231233428e+00
 3.3149434154e-01	 1.2843779441e+00	 1.3609330986e+00
 3.1984582817e-01	 1.2873281730e+00	 1.2896405113e+00
 3.0820039996e-01	 1.2901657484e+00	 1.2125728782e+00
 2.9655956650e-01	 1.2928911499e+00	 1.1330081364e+00
 2.8492482082e-01	 1.2955048822e+00	 1.0541691366e+00
 2.7329763897e-01	 1.2980074737e+00	 9.7921826538e-01
 2.6167947961e-01	 1.3003994763e+00	 9.1125241344e-01
 2.5007178357e-01	 1.3026814650e+00	 8.5329828612e-01
 2.3847597347e-01	 1.3048540370e+00	 8.0830805020e-01
 2.2689345338e-01	 1.3069178117e+00	 7.7915531074e-01
 3.4542684815e-01	 1.2898373034e+00	 1.3830314754e+00
 3.3369928454e-01	 1.2929210165e+00	 1.3238379508e+00
 3.2197329079e-01	 1.2958908690e+00	 1.2567888059e+00
 3.1025040272e-01	 1.2987473185e+00	 1.1848995913e+00
 2.9853213996e-01	 1.3014908481e+00	 1.1111206924e+00
 2.8682000547e-01	 1.3041219657e+00	 1.0383322621e+00
 2.7511548514e-01	 1.3066412032e+00	 9.6933951924e-01
 2.6342004730e-01	 1.3090491163e+00	 9.0686840710e-01
 2.5173514237e-01	 1.3113462837e+00	 8.5356160781e-01
 2.4006220244e-01	 1.3135333067e+00	 8.1197490441e-01
 2.2840264093e-01	 1.3156108086e+00	 7.8457388281e-01
 3.4770928190e-01	 1.2983600000e+00	 1.3186206273e+00
 3.3590422754e-01	 1.3014640889e+00	 1.2625802622e+00
 3.2410075341e-01	 1.3044535649e+00	 1.2005164087e+00
 3.1230040548e-01	 1.3073288886e+00	 1.1350377468e+00
 3.0050471342e-01	 1.3100905464e+00	 1.0686681792e+00
 2.8871519013e-01	 1.3127390492e+00	 1.0038426300e+00
 2.7693333130e-01	 1.3152749328e+00	 9.4290322593e-01
 2.6516061498e-01	 1.3176987563e+00	 8.8809585466e-01
 2.5339850116e-01	 1.3200111024e+00	 8.4156709082e-01
 2.4164843142e-01	 1.3222125763e+00	 8.0536148180e-01
 2.2991182847e-01	 1.3243038055e+00	 7.8141918248e-01
 3.4999171566e-01	 1.3068826965e+00	 1.2283447761e+00
 3.3810917055e-01	 1.3100071613e+00	 1.1760720202e+00
 3.2622821604e-01	 1.3130162608e+00	 1.1201028879e+00
 3.1435040825e-01	 1.3159104587e+00	 1.0625462675e+00
 3.0247728689e-01	 1.3186902446e+00	 1.0054028840e+00
 2.9061037479e-01	 1.3213561328e+00	 9.5056216997e-01
 2.7875117746e-01	 1.3239086624e+00	 8.9979953555e-01
 2.6690118266e-01	 1.3263483964e+00	 8.5477403165e-01
 2.5506185996e-01	 1.3286759212e+00	 8.1702639482e-01
 2.4323466039e-01	 1.3308918460e+00	 7.8797746268e-01
 2.3142101602e-01	 1.3329968024e+00	 7.6892694711e-01
 2.1632914054e-01	 1.2460668334e+00	 5.6900941071e-01
 2.0529802896e-01	 1.2479317043e+00	 6.1494789232e-01
 1.9428221986e-01	 1.2496940488e+00	 6.6307166919e-01
 1.8328300036e-01	 1.2513545159e+00	 7.1346419269e-01
 1.7230163857e-01	 1.2529137732e+00	 7.6628859258e-01
 1.6133938333e-01	 1.2543725065e+00	 8.2178464456e-01
 1.5039746395e-01	 1.2557314192e+00	 8.8026577046e-01
 1.3947708999e-01	 1.2569912315e+00	 9.4211606916e-01
 1.2857945101e-01	 1.2581526803e+00	 1.0077873758e+00
 1.1770571642e-01	 1.2592165182e+00	 1.0777963472e+00
 1.0685703526e-01	 1.2601835133e+00	 1.1527215704e+00
 2.1783832809e-01	 1.2547598303e+00	 6.1157214757e-01
 2.0673025963e-01	 1.2566377112e+00	 6.3875991414e-01
 1.9563760040e-01	 1.2584123505e+00	 6.6950061144e-01
 1.8456164650e-01	 1.2600844015e+00	 7.0420259305e-01
 1.7350367490e-01	 1.2616545368e+00	 7.4332570967e-01
 1.6246494315e-01	 1.2631234467e+00	 7.8737851040e-01
 1.5144668913e-01	 1.2644918396e+00	 8.3691551073e-01
 1.4045013082e-01	 1.2657604408e+00	 8.9253452377e-01
 1.2947646612e-01	 1.2669299922e+00	 9.5487405062e-01
 1.1852687256e-01	 1.2680012519e+00	 1.0246107261e+00
 1.0760250721e-01	 1.2689749930e+00	 1.1024568154e+00
 2.1934751563e-01	 1.2634528272e+00	 6.5140932598e-01
 2.0816249029e-01	 1.2653437181e+00	 6.6351262542e-01
 1.9699298093e-01	 1.2671306521e+00	 6.7992903301e-01
 1.8584029265e-01	 1.2688142872e+00	 7.0131323671e-01
 1.7470571124e-01	 1.2703953003e+00	 7.2834994274e-01
 1.6359050297e-01	 1.2718743869e+00	 7.6175125967e-01
 1.5249591430e-01	 1.2732522600e+00	 8.0225417646e-01
 1.4142317166e-01	 1.2745296501e+00	 8.5061812949e-01
 1.3037348122e-01	 1.2757073042e+00	 9.0762265328e-01
 1.1934802870e-01	 1.2767859856e+00	 9.7406510944e-01
 1.0834797916e-01	 1.2777664728e+00	 1.0507584884e+00
 2.2085670318e-01	 1.2721458241e+00	 6.8762808059e-01
 2.0959472096e-01	 1.2740497250e+00	 6.8800562002e-01
 1.9834836147e-01	 1.2758489537e+00	 6.9298039720e-01
 1.8711893879e-01	 1.2775441728e+00	 7.0337604942e-01
 1.7590774757e-01	 1.2791360639e+00	 7.2003135915e-01
 1.6471606279e-01	 1.2806253271e+00	 7.4379777099e-01
 1.5354513947e-01	 1.2820126804e+00	 7.7553702299e-01
 1.4239621249e-01	 1.2832988594e+00	 8.1611888620e-01
 1.3127049632e-01	 1.2844846162e+00	 8.6641900592e-01
 1.2016918483e-01	 1.2855707192e+00	 9.2731683816e-01
 1.0909345111e-01	 1.2865579526e+00	 9.9969367455e-01
 2.2236589073e-01	 1.2808388210e+00	 7.1935575802e-01
 2.1102695162e-01	 1.2827557319e+00	 7.1106703830e-01
 1.9970374201e-01	 1.2845672553e+00	 7.0731151968e-01
 1.8839758494e-01	 1.2862740584e+00	 7.0900555331e-01
 1.7710978391e-01	 1.2878768274e+00	 7.1707227403e-01
 1.6584162261e-01	 1.2893762672e+00	 7.3243920128e-01
 1.5459436464e-01	 1.2907731009e+00	 7.5603596787e-01
 1.4336925333e-01	 1.2920680687e+00	 7.8879216976e-01
 1.3216751143e-01	 1.2932619282e+00	 8.3163532934e-01
 1.2099034097e-01	 1.2943554529e+00	 8.8548896474e-01
 1.0983892307e-01	 1.2953494324e+00	 9.5127075762e-01
 2.2387507828e-01	 1.2895318179e+00	 7.4573925650e-01
 2.1245918229e-01	 1.2914617388e+00	 7.3155261330e-01
 2.0105912255e-01	 1.2932855569e+00	 7.2161144156e-01
 1.8967623109e-01	 1.2950039440e+00	 7.1684968823e-01
 1.7831182025e-01	 1.2966175909e+00	 7.1820614245e-01
 1.6696718243e-01	 1.2981272074e+00	 7.2662207214e-01
 1.5564358982e-01	 1.2995335213e+00	 7.4303899557e-01
 1.4434229416e-01	 1.3008372780e+00	 7.6839658014e-01
 1.3306452653e-01	 1.3020392402e+00	 8.0363066019e-01
 1.2181149711e-01	 1.3031401866e+00	 8.4967136580e-01
 1.1058439502e-01	 1.3041409122e+00	 9.0744135433e-01
 2.2538426583e-01	 1.2982248148e+00	 7.6594439506e-01
 2.1389141296e-01	 1.3001677457e+00	 7.4834475789e-01
 2.0241450309e-01	 1.3020038586e+00	 7.3460035001e-01
 1.9095487723e-01	 1.3037338296e+00	 7.2558868263e-01
 1.7951385658e-01	 1.3053583545e+00	 7.2219649797e-01
 1.6809274225e-01	 1.3068781476e+00	 7.2531739453e-01
 1.5669281499e-01	 1.3082939417e+00	 7.3584958763e-01
 1.4531533500e-01	 1.3096064874e+00	 7.5469379691e-01
 1.3396154164e-01	 1.3108165522e+00	 7.8275125242e-01
 1.2263265325e-01	 1.3119249203e+00	 8.2092181070e-01
 1.1132986698e-01	 1.3129323920e+00	 8.7010217199e-01
 2.2689345338e-01	 1.3069178117e+00	 7.7915531074e-01
 2.1532364362e-01	 1.3088737526e+00	 7.6035169097e-01
 2.0376988363e-01	 1.3107221602e+00	 7.4502854450e-01
 1.9223352338e-01	 1.3124637152e+00	 7.3393397151e-01
 1.8071589292e-01	 1.3140991180e+00	 7.2783593534e-01
 1.6921830207e-01	 1.3156290877e+00	 7.2751983001e-01
 1.5774204017e-01	 1.3170543621e+00	 7.3378617684e-01
 1.4628837584e-01	 1.3183756967e+00	 7.4744844164e-01
 1.3485855674e-01	 1.3195938641e+00	 7.6933096377e-01
 1.2345380939e-01	 1.3207096540e+00	 8.0026698831e-01
 1.1207533893e-01	 1.3217238717e+00	 8.4109679242e-01
 2.2840264093e-01	 1.3156108086e+00	 7.8457388281e-01
 2.1675587429e-01	 1.3175797595e+00	 7.6650660106e-01
 2.0512526417e-01	 1.3194404618e+00	 7.5167544618e-01
 1.9351216953e-01	 1.3211936009e+00	 7.4062715941e-01
 1.8191792926e-01	 1.3228398816e+00	 7.3394513542e-01
 1.7034386189e-01	 1.3243800279e+00	 7.3224688672e-01
 1.5879126534e-01	 1.3258147825e+00	 7.3618162441e-01
 1.4726141667e-01	 1.3271449060e+00	 7.4642794690e-01
 1.3575557185e-01	 1.3283711761e+00	 7.6369162774e-01
 1.2427496553e-01	 1.3294943877e+00	 7.8870349396e-01
 1.1282081089e-01	 1.3305153515e+00	 8.2221738598e-01
 2.2991182847e-01	 1.3243038055e+00	 7.8141918248e-01
 2.1818810496e-01	 1.3262857663e+00	 7.6576684532e-01
 2.0648064471e-01	 1.3281587634e+00	 7.5334864874e-01
 1.9479081568e-01	 1.3299234865e+00	 7.4443902622e-01
 1.8311996559e-01	 1.3315806451e+00	 7.3937193020e-01
 1.7146942171e-01	 1.3331309681e+00	 7.3853814867e-01
 1.5984049051e-01	 1.3345752030e+00	 7.4238271913e-01
 1.4823445751e-01	 1.3359141153e+00	 7.5140243157e-01
 1.3665258695e-01	 1.3371484881e+00	 7.6614341205e-01
 1.2509612167e-01	 1.3382791214e+00	 7.8719877825e-01
 1.1356628284e-01	 1.3393068313e+00	 8.1520635856e-01
 2.3142101602e-01	 1.3329968024e+00	 7.6892694711e-01
 2.1962033562e-01	 1.3349917732e+00	 7.5711318262e-01
 2.0783602525e-01	 1.3368770650e+00	 7.4888300862e-01
 1.9606946182e-01	 1.3386533721e+00	 7.4416857400e-01
 1.8432200193e-01	 1.3403214086e+00	 7.4299040629e-01
 1.7259498153e-01	 1.3418819083e+00	 7.4545453675e-01
 1.6088971569e-01	 1.3433356234e+00	 7.5174969743e-01
 1.4920749834e-01	 1.3446833246e+00	 7.6214458220e-01
 1.3754960206e-01	 1.3459258001e+00	 7.7698516393e-01
 1.2591727781e-01	 1.3470638551e+00	 7.9669205953e-01
 1.1431175480e-01	 1.3480983111e+00	 8.2175793496e-01
 1.0685703526e-01	 1.2601835133e+00	 1.1527215704e+00
 9.6036369121e-02	 1.2610543083e+00	 1.2156871011e+00
 8.5242958067e-02	 1.2618298723e+00	 1.2499574330e+00
 7.4477863958e-02	 1.2625110154e+00	 1.2563220827e+00
 6.3742128408e-02	 1.2630985605e+00	 1.2355630653e+00
 5.3036772677e-02	 1.2635933433e+00	 1.1884537001e+00
 4.2362797579e-02	 1.2639962115e+00	 1.1157574576e+00
 3.1721183396e-02	 1.2643080243e+00	 1.0182268448e+00
 2.1112889822e-02	 1.2645296518e+00	 8.9660232261e-01
 1.0538855902e-02	 1.2646619743e+00	 7.5161125196e-01
 0.0000000000e+00	 1.2647058824e+00	 5.8396686333e-01
 1.0760250721e-01	 1.2689749930e+00	 1.1024568154e+00
 9.6706352331e-02	 1.2698518631e+00	 1.1714141793e+00
 8.5837642678e-02	 1.2706328377e+00	 1.2141312331e+00
 7.4997447517e-02	 1.2713187326e+00	 1.2308466866e+00
 6.4186815730e-02	 1.2719103766e+00	 1.2218945186e+00
 5.3406775704e-02	 1.2724086113e+00	 1.1877009367e+00
 4.2658335232e-02	 1.2728142900e+00	 1.1287813001e+00
 3.1942481437e-02	 1.2731282781e+00	 1.0457370041e+00
 2.1260180706e-02	 1.2733514517e+00	 9.3925232787e-01
 1.0612378637e-02	 1.2734846974e+00	 8.1009124377e-01
 0.0000000000e+00	 1.2735289118e+00	 6.5909419040e-01
 1.0834797916e-01	 1.2777664728e+00	 1.0507584884e+00
 9.7376335543e-02	 1.2786494178e+00	 1.1218580346e+00
 8.6432327288e-02	 1.2794358031e+00	 1.1707904440e+00
 7.5517031075e-02	 1.2801264499e+00	 1.1973792075e+00
 6.4631503053e-02	 1.2807221928e+00	 1.2016239453e+00
 5.3776778731e-02	 1.2812238792e+00	 1.1836958994e+00
 4.2953872885e-02	 1.2816323685e+00	 1.1439333267e+00
 3.2163779477e-02	 1.2819485320e+00	 1.0828367959e+00
 2.1407471590e-02	 1.2821732517e+00	 1.0010643910e+00
 1.0685901372e-02	 1.2823074205e+00	 8.9942682614e-01
 0.0000000000e+00	 1.2823519412e+00	 7.7888247497e-01
 1.0909345111e-01	 1.2865579526e+00	 9.9969367455e-01
 9.8046318754e-02	 1.2874469726e+00	 1.0698214330e+00
 8.7027011899e-02	 1.2882387684e+00	 1.1229861642e+00
 7.6036614634e-02	 1.2889341671e+00	 1.1587304342e+00
 6.5076190375e-02	 1.2895340090e+00	 1.1768321969e+00
 5.4146781757e-02	 1.2900391472e+00	 1.1772991936e+00
 4.3249410537e-02	 1.2904504470e+00	 1.1603632077e+00
 3.2385077517e-02	 1.2907687858e+00	 1.1264741792e+00
 2.1554762474e-02	 1.2909950516e+00	 1.0762941866e+00
 1.0759424106e-02	 1.2911301436e+00	 1.0106913015e+00
 0.0000000000e+00	 1.2911749706e+00	 9.3073332312e-01
 1.0983892307e-01	 1.2953494324e+00	 9.5127075762e-01
 9.8716301966e-02	 1.2962445273e+00	 1.0180287756e+00
 8.7621696510e-02	 1.2970417338e+00	 1.0736847177e+00
 7.6556198193e-02	 1.2977418844e+00	 1.1176332562e+00
 6.5520877698e-02	 1.2983458252e+00	 1.1495424106e+00
 5.4516784784e-02	 1.2988544151e+00	 1.1693472229e+00
 4.3544948190e-02	 1.2992685255e+00	 1.1772432582e+00
 3.2606375557e-02	 1.2995890396e+00	 1.1736799397e+00
 2.1702053357e-02	 1.2998168516e+00	 1.1593537241e+00
 1.0832946841e-02	 1.2999528667e+00	 1.1352011266e+00
 0.0000000000e+00	 1.2999980000e+00	 1.1023916025e+00
 1.1058439502e-01	 1.3041409122e+00	 9.0744135433e-01
 9.9386285178e-02	 1.3050420821e+00	 9.6912869665e-01
 8.8216381121e-02	 1.3058446991e+00	 1.0257704679e+00
 7.7075781752e-02	 1.3065496016e+00	 1.0767452485e+00
 6.5965565021e-02	 1.3071576413e+00	 1.1217219186e+00
 5.4886787810e-02	 1.3076696830e+00	 1.1606529726e+00
 4.3840485843e-02	 1.3080866040e+00	 1.1937676480e+00
 3.2827673597e-02	 1.3084092934e+00	 1.2215648762e+00
 2.1849344241e-02	 1.3086386516e+00	 1.2448060631e+00
 1.0906469576e-02	 1.3087755898e+00	 1.2645077083e+00
 0.0000000000e+00	 1.3088210294e+00	 1.2819338722e+00
 1.1132986698e-01	 1.3129323920e+00	 8.7010217199e-01
 1.0005626839e-01	 1.3138396368e+00	 9.2569655683e-01
 8.8811065732e-02	 1.3146476645e+00	 9.8204852074e-01
 7.7595365311e-02	 1.3153573189e+00	 1.0386511544e+00
 6.6410252343e-02	 1.3159694575e+00	 1.0952840793e+00
 5.5256790837e-02	 1.3164849510e+00	 1.1520067610e+00
 4.4136023495e-02	 1.3169046825e+00	 1.2091516421e+00
 3.3048971637e-02	 1.3172295472e+00	 1.2673171005e+00
 2.1996635124e-02	 1.3174604515e+00	 1.3273602413e+00
 1.0979992310e-02	 1.3175983129e+00	 1.3903895304e+00
 0.0000000000e+00	 1.3176440588e+00	 1.4577572777e+00
 1.1207533893e-01	 1.3217238717e+00	 8.4109679242e-01
 1.0072625160e-01	 1.3226371916e+00	 8.9023683829e-01
 8.9405750344e-02	 1.3234506299e+00	 9.4524731890e-01
 7.8114948871e-02	 1.3241650361e+00	 1.0058652681e+00
 6.6854939666e-02	 1.3247812737e+00	 1.0720900370e+00
 5.5626793863e-02	 1.3253002189e+00	 1.1441769618e+00
 4.4431561148e-02	 1.3257227610e+00	 1.2226308722e+00
 3.3270269677e-02	 1.3260498010e+00	 1.3081994441e+00
 2.2143926008e-02	 1.3262822515e+00	 1.4018664043e+00
 1.1053515045e-02	 1.3264210360e+00	 1.5048445927e+00
 0.0000000000e+00	 1.3264670883e+00	 1.6185688890e+00
 1.1282081089e-01	 1.3305153515e+00	 8.2221738598e-01
 1.0139623482e-01	 1.3314347463e+00	 8.6518544485e-01
 9.0000434956e-02	 1.3322535952e+00	 9.1802113459e-01
 7.8634532431e-02	 1.3329727534e+00	 9.8083372399e-01
 6.7299626990e-02	 1.3335930898e+00	 1.0539504111e+00
 5.5996796890e-02	 1.3341154869e+00	 1.1379106971e+00
 4.4727098801e-02	 1.3345408395e+00	 1.2334606369e+00
 3.3491567718e-02	 1.3348700548e+00	 1.3415469690e+00
 2.2291216892e-02	 1.3351040515e+00	 1.4633111293e+00
 1.1127037780e-02	 1.3352437590e+00	 1.6000831518e+00
 0.0000000000e+00	 1.3352901177e+00	 1.7533754609e+00
 1.1356628284e-01	 1.3393068313e+00	 8.1520635856e-01
 1.0206621803e-01	 1.3402323011e+00	 8.5291191227e-01
 9.0595119568e-02	 1.3410565606e+00	 9.0295246399e-01
 7.9154115991e-02	 1.3417804706e+00	 9.6593669576e-01
 6.7744314314e-02	 1.3424049060e+00	 1.0426269197e+00
 5.6366799918e-02	 1.3429307548e+00	 1.1339345042e+00
 4.5022636455e-02	 1.3433589180e+00	 1.2409152301e+00
 3.3712865758e-02	 1.3436903087e+00	 1.3647645759e+00
 2.2438507776e-02	 1.3439258514e+00	 1.5068129323e+00
 1.1200560515e-02	 1.3440664821e+00	 1.6685207465e+00
 0.0000000000e+00	 1.3441131471e+00	 1.8514735974e+00
 1.1431175480e-01	 1.3480983111e+00	 8.2175793496e-01
 1.0273620124e-01	 1.3490298559e+00	 8.5572153256e-01
 9.1189804181e-02	 1.3498595259e+00	 9.0255432860e-01
 7.9673699552e-02	 1.3505881879e+00	 9.6349051006e-01
 6.8189001638e-02	 1.3512167222e+00	 1.0398339392e+00
 5.6736802946e-02	 1.3517460228e+00	 1.1329549752e+00
 4.5318174109e-02	 1.3521769965e+00	 1.2442872948e+00
 3.3934163799e-02	 1.3525105625e+00	 1.3753247060e+00
 2.2585798660e-02	 1.3527476514e+00	 1.5276179513e+00
 1.1274083250e-02	 1.3528892052e+00	 1.7027714965e+00
 0.0000000000e+00	 1.3529361765e+00	 1.9024403005e+00
 1.3529361765e+00	 0.0000000000e+00	-4.0438382627e+00
 1.3528892052e+00	 1.1274083250e-02	-2.1895553657e+00
 1.3527476514e+00	 2.2585798660e-02	-1.0268864988e+00
 1.3525105625e+00	 3.3934163799e-02	-4.4850662715e-01
 1.3521769965e+00	 4.5318174109e-02	-3.4499956390e-01
 1.3517460228e+00	 5.6736802946e-02	-6.0495785529e-01
 1.3512167222e+00	 6.8189001638e-02	-1.1150886823e+00
 1.3505881879e+00	 7.9673699552e-02	-1.7603257746e+00
 1.3498595259e+00	 9.1189804181e-02	-2.4239473170e+00
 1.3490298559e+00	 1.0273620124e-01	-2.9876998128e+00
 1.3480983111e+00	 1.1431175480e-01	-3.3319278546e+00
 1.3617607059e+00	 0.0000000000e+00	-3.8530730962e+00
 1.3617134283e+00	 1.1347618485e-02	-2.0307891154e+00
 1.3615709511e+00	 2.2733114586e-02	-8.9231681328e-01
 1.3613323158e+00	 3.4155499464e-02	-3.3357997263e-01
 1.3609965742e+00	 4.5613762008e-02	-2.4852450898e-01
 1.3605627894e+00	 5.7106868879e-02	-5.2921867301e-01
 1.3600300364e+00	 6.8633764564e-02	-1.0659591756e+00
 1.3593974025e+00	 8.0193371447e-02	-1.7473832258e+00
 1.3586639879e+00	 9.1784589896e-02	-2.4605864584e+00
 1.3578289063e+00	 1.0340629836e-01	-3.0912467103e+00
 1.3568912855e+00	 1.1505735349e-01	-3.5237535919e+00
 1.3705852353e+00	 0.0000000000e+00	-3.6158432459e+00
 1.3705376513e+00	 1.1421153720e-02	-1.8517566142e+00
 1.3703942509e+00	 2.2880430512e-02	-7.5195903318e-01
 1.3701540692e+00	 3.4376835129e-02	-2.1741558423e-01
 1.3698161518e+00	 4.5909349907e-02	-1.4723476546e-01
 1.3693795561e+00	 5.7476934812e-02	-4.3876693020e-01
 1.3688433507e+00	 6.9078527490e-02	-9.8770849130e-01
 1.3682066172e+00	 8.0713043343e-02	-1.6882118792e+00
 1.3674684499e+00	 9.2379375611e-02	-2.4330012261e+00
 1.3666279567e+00	 1.0407639548e-01	-3.1134937348e+00
 1.3656842599e+00	 1.1580295218e-01	-3.6199266736e+00
 1.3794097647e+00	 0.0000000000e+00	-3.3265391313e+00
 1.3793618744e+00	 1.1494688955e-02	-1.6495591362e+00
 1.3792175507e+00	 2.3027746439e-02	-6.0525696108e-01
 1.3789758225e+00	 3.4598170794e-02	-1.0139485245e-01
 1.3786357295e+00	 4.6204937807e-02	-4.4007594858e-02
 1.3781963227e+00	 5.7847000746e-02	-3.3749712610e-01
 1.3776566650e+00	 6.9523290417e-02	-8.8473270062e-01
 1.3770158318e+00	 8.1232715239e-02	-1.5871565870e+00
 1.3762729118e+00	 9.2974161327e-02	-2.3448952709e+00
 1.3754270071e+00	 1.0474649260e-01	-3.0568761192e+00
 1.3744772344e+00	 1.1654855087e-01	-3.6209494484e+00
 1.3882342941e+00	 0.0000000000e+00	-2.9796915199e+00
 1.3881860974e+00	 1.1568224191e-02	-1.4213683909e+00
 1.3880408504e+00	 2.3175062365e-02	-4.5166445598e-01
 1.3877975758e+00	 3.4819506460e-02	 1.3140697116e-02
 1.3874553072e+00	 4.6500525707e-02	 5.8358143778e-02
 1.3870130893e+00	 5.8217066680e-02	-2.2919913338e-01
 1.3864699792e+00	 6.9968053344e-02	-7.6131026958e-01
 1.3858250465e+00	 8.1752387136e-02	-1.4484457982e+00
 1.3850773738e+00	 9.3568947043e-02	-2.1998721573e+00
 1.3842260576e+00	 1.0541658971e-01	-2.9237613792e+00
 1.3832702088e+00	 1.1729414957e-01	-3.5273059061e+00
 1.3970588236e+00	 0.0000000000e+00	-2.5699670935e+00
 1.3970103204e+00	 1.1641759426e-02	-1.1644243013e+00
 1.3968641502e+00	 2.3322378292e-02	-2.9064512555e-01
 1.3966193292e+00	 3.5040842126e-02	 1.2488812723e-01
 1.3962748848e+00	 4.6796113607e-02	 1.5713949147e-01
 1.3958298560e+00	 5.8587132614e-02	-1.1756153835e-01
 1.3952832935e+00	 7.0412816271e-02	-6.2160581972e-01
 1.3946342611e+00	 8.2272059032e-02	-1.2761952914e+00
 1.3938818357e+00	 9.4163732759e-02	-2.0014385928e+00
 1.3930251080e+00	 1.0608668683e-01	-2.7164515322e+00
 1.3920631832e+00	 1.1803974826e-01	-3.3394623489e+00
 1.4058833530e+00	 0.0000000000e+00	-2.0921641811e+00
 1.4058345435e+00	 1.1715294662e-02	-8.7603286755e-01
 1.4056874499e+00	 2.3469694219e-02	-1.2167202997e-01
 1.4054410825e+00	 3.5262177791e-02	 2.3258186055e-01
 1.4050944625e+00	 4.7091701508e-02	 2.4968698119e-01
 1.4046466226e+00	 5.8957198548e-02	-6.1748554104e-03
 1.4040966078e+00	 7.0857579198e-02	-4.6967374686e-01
 1.4034434758e+00	 8.2791730928e-02	-1.0744117682e+00
 1.4026862977e+00	 9.4758518475e-02	-1.7530075359e+00
 1.4018241584e+00	 1.0675678395e-01	-2.4371852323e+00
 1.4008561577e+00	 1.1878534695e-01	-3.0578680373e+00
 1.4147078824e+00	 0.0000000000e+00	-1.5412086513e+00
 1.4146587665e+00	 1.1788829897e-02	-5.5356410866e-01
 1.4145107497e+00	 2.3617010145e-02	 5.5772603042e-02
 1.4142628359e+00	 3.5483513457e-02	 3.3499249714e-01
 1.4139140402e+00	 4.7387289408e-02	 3.3342231990e-01
 1.4134633892e+00	 5.9327264481e-02	 1.0146537894e-01
 1.4129099221e+00	 7.1302342125e-02	-3.0946170444e-01
 1.4122526905e+00	 8.3311402825e-02	-8.4699631099e-01
 1.4114907596e+00	 9.5353304191e-02	-1.4579011872e+00
 1.4106232089e+00	 1.0742688107e-01	-2.0881398249e+00
 1.4096491321e+00	 1.1953094565e-01	-2.6829558115e+00
 1.4235324118e+00	 0.0000000000e+00	-9.1214995825e-01
 1.4234829896e+00	 1.1862365133e-02	-1.9445008220e-01
 1.4233340495e+00	 2.3764326072e-02	 2.4219765275e-01
 1.4230845892e+00	 3.5704849122e-02	 4.3092567593e-01
 1.4227336178e+00	 4.7682877308e-02	 4.0583615673e-01
 1.4222801559e+00	 5.9697330415e-02	 2.0195562709e-01
 1.4217232363e+00	 7.1747105052e-02	-1.4481395724e-01
 1.4210619051e+00	 8.3831074721e-02	-5.9774771294e-01
 1.4202952216e+00	 9.5948089907e-02	-1.1193538691e+00
 1.4194222593e+00	 1.0809697818e-01	-1.6714333251e+00
 1.4184421065e+00	 1.2027654434e-01	-2.2151426892e+00
 1.4323569412e+00	 0.0000000000e+00	-2.0015733255e-01
 1.4323072126e+00	 1.1935900368e-02	 2.0381702353e-01
 1.4321573492e+00	 2.3911641998e-02	 4.3810336963e-01
 1.4319063426e+00	 3.5926184787e-02	 5.1922097832e-01
 1.4315531955e+00	 4.7978465207e-02	 4.6448593379e-01
 1.4310969225e+00	 6.0067396348e-02	 2.9198148147e-01
 1.4305365506e+00	 7.2191867979e-02	 2.0525388968e-02
 1.4298711198e+00	 8.4350746617e-02	-3.3036568393e-01
 1.4290996835e+00	 9.6542875622e-02	-7.4051479942e-01
 1.4282213097e+00	 1.0876707530e-01	-1.1891263226e+00
 1.4272350809e+00	 1.2102214303e-01	-1.6548304416e+00
 1.4411814706e+00	 0.0000000000e+00	 5.9948388667e-01
 1.4411314357e+00	 1.2009435603e-02	 6.4368672696e-01
 1.4409806490e+00	 2.4058957924e-02	 6.4398163001e-01
 1.4407280959e+00	 3.6147520452e-02	 5.9875087203e-01
 1.4403727731e+00	 4.8274053106e-02	 5.0699381583e-01
 1.4399136891e+00	 6.0437462281e-02	 3.6831490120e-01
 1.4393498649e+00	 7.2636630905e-02	 1.8290927634e-01
 1.4386803344e+00	 8.4870418512e-02	-4.8453939312e-02
 1.4379041455e+00	 9.7137661338e-02	-3.2445076249e-01
 1.4370203602e+00	 1.0943717242e-01	-6.4322381644e-01
 1.4360280554e+00	 1.2176774173e-01	-1.0024061473e+00
 1.3480983111e+00	 1.1431175480e-01	-3.3319278546e+00
 1.3470638551e+00	 1.2591727781e-01	-3.3684110704e+00
 1.3459258001e+00	 1.3754960206e-01	-3.1249896891e+00
 1.3446833246e+00	 1.4920749834e-01	-2.6555569730e+00
 1.3433356234e+00	 1.6088971569e-01	-2.0144152880e+00
 1.3418819083e+00	 1.7259498153e-01	-1.2562378661e+00
 1.3403214086e+00	 1.8432200193e-01	-4.3602967861e-01
 1.3386533721e+00	 1.9606946182e-01	 3.9091260019e-01
 1.3368770650e+00	 2.0783602525e-01	 1.1690415668e+00
 1.3349917732e+00	 2.1962033562e-01	 1.8426010251e+00
 1.3329968024e+00	 2.3142101602e-01	 2.3556689142e+00
 1.3568912855e+00	 1.1505735349e-01	-3.5237535919e+00
 1.3558500822e+00	 1.2673857355e-01	-3.6653034216e+00
 1.3547046043e+00	 1.3844676966e-01	-3.5330210561e+00
 1.3534540248e+00	 1.5018070460e-01	-3.1756827823e+00
 1.3520975332e+00	 1.6193911924e-01	-2.6423434885e+00
 1.3506343362e+00	 1.7372073270e-01	-1.9823024608e+00
 1.3490636582e+00	 1.8552424262e-01	-1.2450685637e+00
 1.3473847419e+00	 1.9734832535e-01	-4.8032478044e-01
 1.3455968489e+00	 2.0919163622e-01	 2.6210791536e-01
 1.3436992602e+00	 2.2105280978e-01	 9.3230738498e-01
 1.3416912772e+00	 2.3293046015e-01	 1.4802878796e+00
 1.3656842599e+00	 1.1580295218e-01	-3.6199266736e+00
 1.3646363094e+00	 1.2755986929e-01	-3.8551096753e+00
 1.3634834085e+00	 1.3934393727e-01	-3.8244567146e+00
 1.3622247249e+00	 1.5115391087e-01	-3.5716425916e+00
 1.3608594430e+00	 1.6298852279e-01	-3.1405077147e+00
 1.3593867641e+00	 1.7484648388e-01	-2.5750283658e+00
 1.3578059078e+00	 1.8672648332e-01	-1.9192866098e+00
 1.3561161117e+00	 1.9862718888e-01	-1.2174398204e+00
 1.3543166327e+00	 2.1054724718e-01	-5.1368979200e-01
 1.3524067472e+00	 2.2248528394e-01	 1.4774859386e-01
 1.3503857520e+00	 2.3443990427e-01	 7.2267918677e-01
 1.3744772344e+00	 1.1654855087e-01	-3.6209494484e+00
 1.3734225366e+00	 1.2838116504e-01	-3.9362509743e+00
 1.3722622128e+00	 1.4024110487e-01	-3.9960303000e+00
 1.3709954251e+00	 1.5212711713e-01	-3.8388764517e+00
 1.3696213527e+00	 1.6403792634e-01	-3.5034483378e+00
 1.3681391920e+00	 1.7597223506e-01	-3.0284499125e+00
 1.3665481573e+00	 1.8792872401e-01	-2.4526052315e+00
 1.3648474815e+00	 1.9990605241e-01	-1.8146333694e+00
 1.3630364165e+00	 2.1190285815e-01	-1.1532231648e+00
 1.3611142342e+00	 2.2391775810e-01	-5.0700775339e-01
 1.3590802268e+00	 2.3594934840e-01	 8.5461150693e-02
 1.3832702088e+00	 1.1729414957e-01	-3.5273059061e+00
 1.3822087638e+00	 1.2920246078e-01	-3.9071833153e+00
 1.3810410170e+00	 1.4113827248e-01	-4.0445535749e+00
 1.3797661253e+00	 1.5310032339e-01	-3.9729358597e+00
 1.3783832625e+00	 1.6508732990e-01	-3.7258405288e+00
 1.3768916200e+00	 1.7709798623e-01	-3.3367496144e+00
 1.3752904069e+00	 1.8913096471e-01	-2.8390974391e+00
 1.3735788513e+00	 2.0118491594e-01	-2.2662513270e+00
 1.3717562003e+00	 2.1325846911e-01	-1.6514923700e+00
 1.3698217213e+00	 2.2535023226e-01	-1.0279962031e+00
 1.3677747016e+00	 2.3745879252e-01	-4.2881374273e-01
 1.3920631832e+00	 1.1803974826e-01	-3.3394623489e+00
 1.3909949910e+00	 1.3002375653e-01	-3.7663965503e+00
 1.3898198212e+00	 1.4203544009e-01	-3.9669140761e+00
 1.3885368255e+00	 1.5407352965e-01	-3.9694803637e+00
 1.3871451723e+00	 1.6613673345e-01	-3.8024901345e+00
 1.3856440479e+00	 1.7822373741e-01	-3.4942536298e+00
 1.3840326565e+00	 1.9033320540e-01	-3.0729832018e+00
 1.3823102211e+00	 2.0246377947e-01	-2.5667802181e+00
 1.3804759842e+00	 2.1461408008e-01	-2.0036222341e+00
 1.3785292083e+00	 2.2678270641e-01	-1.4113503826e+00
 1.3764691764e+00	 2.3896823664e-01	-8.1765692500e-01
 1.4008561577e+00	 1.1878534695e-01	-3.0578680373e+00
 1.3997812182e+00	 1.3084505227e-01	-3.5124134264e+00
 1.3985986254e+00	 1.4293260769e-01	-3.7600728488e+00
 1.3973075256e+00	 1.5504673591e-01	-3.8242742950e+00
 1.3959070821e+00	 1.6718613700e-01	-3.7283297096e+00
 1.3943964758e+00	 1.7934948858e-01	-3.4954273951e+00
 1.3927749060e+00	 1.9153544609e-01	-3.1486249844e+00
 1.3910415909e+00	 2.0374264300e-01	-2.7108429348e+00
 1.3891957680e+00	 2.1596969105e-01	-2.2048584903e+00
 1.3872366953e+00	 2.2821518057e-01	-1.6533000536e+00
 1.3851636512e+00	 2.4047768077e-01	-1.0786419031e+00
 1.4096491321e+00	 1.1953094565e-01	-2.6829558115e+00
 1.4085674454e+00	 1.3166634801e-01	-3.1437886607e+00
 1.4073774296e+00	 1.4382977530e-01	-3.4210622661e+00
 1.4060782258e+00	 1.5601994218e-01	-3.5331836214e+00
 1.4046689919e+00	 1.6823554055e-01	-3.4984146956e+00
 1.4031489038e+00	 1.8047523976e-01	-3.3348714202e+00
 1.4015171556e+00	 1.9273768679e-01	-3.0605234493e+00
 1.3997729606e+00	 2.0502150652e-01	-2.6931946362e+00
 1.3979155518e+00	 2.1732530201e-01	-2.2505641653e+00
 1.3959441823e+00	 2.2964765473e-01	-1.7501682736e+00
 1.3938581260e+00	 2.4198712489e-01	-1.2094024844e+00
 1.4184421065e+00	 1.2027654434e-01	-2.2151426892e+00
 1.4173536725e+00	 1.3248764376e-01	-2.6591080494e+00
 1.4161562339e+00	 1.4472694290e-01	-2.9469839280e+00
 1.4148489260e+00	 1.5699314844e-01	-3.0921729175e+00
 1.4134309017e+00	 1.6928494410e-01	-3.1079197415e+00
 1.4119013317e+00	 1.8160099093e-01	-3.0073172401e+00
 1.4102594052e+00	 1.9393992748e-01	-2.8033133188e+00
 1.4085043304e+00	 2.0630037005e-01	-2.5087187991e+00
 1.4066353356e+00	 2.1868091298e-01	-2.1362160983e+00
 1.4046516693e+00	 2.3108012889e-01	-1.6983686622e+00
 1.4025526008e+00	 2.4349656902e-01	-1.2076310661e+00
 1.4272350809e+00	 1.2102214303e-01	-1.6548304416e+00
 1.4261398997e+00	 1.3330893950e-01	-2.0569876094e+00
 1.4249350381e+00	 1.4562411051e-01	-2.3350066392e+00
 1.4236196261e+00	 1.5796635470e-01	-2.4973024466e+00
 1.4221928115e+00	 1.7033434766e-01	-2.5521351603e+00
 1.4206537596e+00	 1.8272674211e-01	-2.5076235144e+00
 1.4190016547e+00	 1.9514216818e-01	-2.3717593877e+00
 1.4172357002e+00	 2.0757923358e-01	-2.1524234143e+00
 1.4153551195e+00	 2.2003652394e-01	-1.8574015875e+00
 1.4133591563e+00	 2.3251260305e-01	-1.4944027654e+00
 1.4112470756e+00	 2.4500601314e-01	-1.0710769850e+00
 1.4360280554e+00	 1.2176774173e-01	-1.0024061473e+00
 1.4349261269e+00	 1.3413023525e-01	-1.3360727511e+00
 1.4337138423e+00	 1.4652127812e-01	-1.5823644588e+00
 1.4323903263e+00	 1.5893956096e-01	-1.7447253488e+00
 1.4309547213e+00	 1.7138375121e-01	-1.8264635138e+00
 1.4294061875e+00	 1.8385249329e-01	-1.8307722702e+00
 1.4277439043e+00	 1.9634440887e-01	-1.7607526823e+00
 1.4259670700e+00	 2.0885809711e-01	-1.6194373202e+00
 1.4240749033e+00	 2.2139213491e-01	-1.4098151587e+00
 1.4220666433e+00	 2.3394507721e-01	-1.1348575167e+00
 1.4199415504e+00	 2.4651545727e-01	-7.9754492715e-01
 1.3329968024e+00	 2.3142101602e-01	 2.3556689142e+00
 1.3308918460e+00	 2.4323466039e-01	 2.7186806460e+00
 1.3286759212e+00	 2.5506185996e-01	 2.9864787402e+00
 1.3263483964e+00	 2.6690118266e-01	 3.1694481164e+00
 1.3239086624e+00	 2.7875117746e-01	 3.2779533473e+00
 1.3213561328e+00	 2.9061037479e-01	 3.3223033124e+00
 1.3186902446e+00	 3.0247728689e-01	 3.3127153448e+00
 1.3159104587e+00	 3.1435040825e-01	 3.2592789937e+00
 1.3130162608e+00	 3.2622821604e-01	 3.1719195267e+00
 1.3100071613e+00	 3.3810917055e-01	 3.0603613053e+00
 1.3068826965e+00	 3.4999171566e-01	 2.9340911634e+00
 1.3416912772e+00	 2.3293046015e-01	 1.4802878796e+00
 1.3395725912e+00	 2.4482115904e-01	 1.9139908686e+00
 1.3373422130e+00	 2.5672550155e-01	 2.2776117459e+00
 1.3349995069e+00	 2.6864204626e-01	 2.5751845063e+00
 1.3325438597e+00	 2.8056933268e-01	 2.8105903146e+00
 1.3299746813e+00	 2.9250588165e-01	 2.9875271530e+00
 1.3272914048e+00	 3.0445019571e-01	 3.1094792504e+00
 1.3244934878e+00	 3.1640075953e-01	 3.1796864166e+00
 1.3215804125e+00	 3.2835604035e-01	 3.2011134090e+00
 1.3185516861e+00	 3.4031448841e-01	 3.1764194626e+00
 1.3154068420e+00	 3.5227453746e-01	 3.1079281174e+00
 1.3503857520e+00	 2.3443990427e-01	 7.2267918677e-01
 1.3482533364e+00	 2.4640765769e-01	 1.2157252987e+00
 1.3460085048e+00	 2.5838914313e-01	 1.6602672643e+00
 1.3436506175e+00	 2.7038290985e-01	 2.0548338011e+00
 1.3411790571e+00	 2.8238748789e-01	 2.3976922953e+00
 1.3385932298e+00	 2.9440138850e-01	 2.6868228135e+00
 1.3358925650e+00	 3.0642310453e-01	 2.9198921405e+00
 1.3330765169e+00	 3.1845111081e-01	 3.0942279690e+00
 1.3301445641e+00	 3.3048386466e-01	 3.2067933706e+00
 1.3270962110e+00	 3.4251980628e-01	 3.2541616790e+00
 1.3239309875e+00	 3.5455735925e-01	 3.2324919203e+00
 1.3590802268e+00	 2.3594934840e-01	 8.5461150693e-02
 1.3569340817e+00	 2.4799415633e-01	 6.2502612051e-01
 1.3546747967e+00	 2.6005278472e-01	 1.1344342145e+00
 1.3523017280e+00	 2.7212377345e-01	 1.6075389741e+00
 1.3498142545e+00	 2.8420564311e-01	 2.0378477477e+00
 1.3472117783e+00	 2.9629689536e-01	 2.4184994417e+00
 1.3444937253e+00	 3.0839601335e-01	 2.7422424987e+00
 1.3416595460e+00	 3.2050146209e-01	 3.0014132340e+00
 1.3387087158e+00	 3.3261168897e-01	 3.1879146561e+00
 1.3356407358e+00	 3.4472512415e-01	 3.2931959095e+00
 1.3324551329e+00	 3.5684018105e-01	 3.3082324705e+00
 1.3677747016e+00	 2.3745879252e-01	-4.2881374273e-01
 1.3656148269e+00	 2.4958065498e-01	 1.4300671278e-01
 1.3633410885e+00	 2.6171642630e-01	 7.0010156461e-01
 1.3609528386e+00	 2.7386463704e-01	 1.2324641391e+00
 1.3584494519e+00	 2.8602379832e-01	 1.7296800132e+00
 1.3558303268e+00	 2.9819240222e-01	 2.1809078843e+00
 1.3530948855e+00	 3.1036892217e-01	 2.5748608290e+00
 1.3502425751e+00	 3.2255181338e-01	 2.8997880792e+00
 1.3472728675e+00	 3.3473951329e-01	 3.1434574492e+00
 1.3441852606e+00	 3.4693044202e-01	 3.2931385471e+00
 1.3409792784e+00	 3.5912300284e-01	 3.3355869081e+00
 1.3764691764e+00	 2.3896823664e-01	-8.1765692500e-01
 1.3742955721e+00	 2.5116715363e-01	-2.2924760785e-01
 1.3720073804e+00	 2.6338006789e-01	 3.5725816653e-01
 1.3696039491e+00	 2.7560550064e-01	 9.2879372368e-01
 1.3670846493e+00	 2.8784195354e-01	 1.4718460621e+00
 1.3644488753e+00	 3.0008790908e-01	 1.9724392284e+00
 1.3616960458e+00	 3.1234183099e-01	 2.4161181985e+00
 1.3588256041e+00	 3.2460216466e-01	 2.7879333973e+00
 1.3558370191e+00	 3.3686733760e-01	 3.0724259898e+00
 1.3527297854e+00	 3.4913575988e-01	 3.2536140824e+00
 1.3495034239e+00	 3.6140582464e-01	 3.3149799696e+00
 1.3851636512e+00	 2.4047768077e-01	-1.0786419031e+00
 1.3829763173e+00	 2.5275365228e-01	-4.9067886974e-01
 1.3806736722e+00	 2.6504370947e-01	 1.0589259887e-01
 1.3782550597e+00	 2.7734636423e-01	 6.9573167600e-01
 1.3757198467e+00	 2.8966010875e-01	 1.2630352912e+00
 1.3730674238e+00	 3.0198341594e-01	 1.7915234009e+00
 1.3702972060e+00	 3.1431473981e-01	 2.2644248412e+00
 1.3674086332e+00	 3.2665251595e-01	 2.6644638983e+00
 1.3644011708e+00	 3.3899516191e-01	 2.9738477305e+00
 1.3612743102e+00	 3.5134107775e-01	 3.1742547834e+00
 1.3580275694e+00	 3.6368864644e-01	 3.2468243360e+00
 1.3938581260e+00	 2.4198712489e-01	-1.2094024844e+00
 1.3916570625e+00	 2.5434015092e-01	-6.4025575338e-01
 1.3893399641e+00	 2.6670735106e-01	-5.4006981291e-02
 1.3869061703e+00	 2.7908722783e-01	 5.3250070509e-01
 1.3843550441e+00	 2.9147826397e-01	 1.1019683690e+00
 1.3816859723e+00	 3.0387892280e-01	 1.6366278249e+00
 1.3788983662e+00	 3.1628764863e-01	 2.1182288171e+00
 1.3759916623e+00	 3.2870286723e-01	 2.5280269530e+00
 1.3729653225e+00	 3.4112298623e-01	 2.8467725293e+00
 1.3698188350e+00	 3.5354639562e-01	 3.0547003921e+00
 1.3665517149e+00	 3.6597146823e-01	 3.1315209740e+00
 1.4025526008e+00	 2.4349656902e-01	-1.2076310661e+00
 1.4003378077e+00	 2.5592664957e-01	-6.7697292203e-01
 1.3980062559e+00	 2.6837099264e-01	-1.2245297854e-01
 1.3955572808e+00	 2.8082809143e-01	 4.3834155184e-01
 1.3929902414e+00	 2.9329641918e-01	 9.8739612762e-01
 1.3903045208e+00	 3.0577442965e-01	 1.5062561298e+00
 1.3874995265e+00	 3.1826055745e-01	 1.9760147255e+00
 1.3845746914e+00	 3.3075321851e-01	 2.3773014828e+00
 1.3815294741e+00	 3.4325081054e-01	 2.6902718778e+00
 1.3783633598e+00	 3.5575171349e-01	 2.8945978390e+00
 1.3750758603e+00	 3.6825429003e-01	 2.9694594720e+00
 1.4112470756e+00	 2.4500601314e-01	-1.0710769850e+00
 1.4090185530e+00	 2.5751314822e-01	-5.9985037494e-01
 1.4066725477e+00	 2.7003463423e-01	-9.9458491520e-02
 1.4042083914e+00	 2.8256895502e-01	 4.1251229014e-01
 1.4016254388e+00	 2.9511457440e-01	 9.1809849874e-01
 1.3989230693e+00	 3.0766993651e-01	 1.3989469125e+00
 1.3961006867e+00	 3.2023346627e-01	 1.8363024712e+00
 1.3931577205e+00	 3.3280356980e-01	 2.2109968965e+00
 1.3900936258e+00	 3.4537863485e-01	 2.5034381637e+00
 1.3869078846e+00	 3.5795703135e-01	 2.6936009731e+00
 1.3836000058e+00	 3.7053711183e-01	 2.7610219957e+00
 1.4199415504e+00	 2.4651545727e-01	-7.9754492715e-01
 1.4176992982e+00	 2.5909964687e-01	-4.0793282192e-01
 1.4153388396e+00	 2.7169827581e-01	 1.4962562109e-02
 1.4128595019e+00	 2.8430981862e-01	 4.5428765660e-01
 1.4102606362e+00	 2.9693272962e-01	 8.9288349238e-01
 1.4075416178e+00	 3.0956544337e-01	 1.3132725479e+00
 1.4047018470e+00	 3.2220637509e-01	 1.6976460785e+00
 1.4017407496e+00	 3.3485392108e-01	 2.0278520699e+00
 1.3986577775e+00	 3.4750645917e-01	 2.2853839644e+00
 1.3954524094e+00	 3.6016234922e-01	 2.4513703086e+00
 1.3921241513e+00	 3.7281993362e-01	 2.5077184009e+00
 1.3068826965e+00	 3.4999171566e-01	 2.9340911634e+00
 1.3036424289e+00	 3.6187427950e-01	 2.7664356732e+00
 1.3002859490e+00	 3.7375527545e-01	 2.5284080412e+00
 1.2968128745e+00	 3.8563310219e-01	 2.2600814157e+00
 1.2932228510e+00	 3.9750614411e-01	 1.9804524620e+00
 1.2895155522e+00	 4.0937277181e-01	 1.6954951812e+00
 1.2856906802e+00	 4.2123134272e-01	 1.4112733684e+00
 1.2817479665e+00	 4.3308020167e-01	 1.1339347076e+00
 1.2776871719e+00	 4.4491768149e-01	 8.6970488278e-01
 1.2735080872e+00	 4.5674210366e-01	 6.2488173279e-01
 1.2692105336e+00	 4.6855177891e-01	 4.0582947412e-01
 1.3154068420e+00	 3.5227453746e-01	 3.1079281174e+00
 1.3121454398e+00	 3.6423460535e-01	 2.9670518205e+00
 1.3087670672e+00	 3.7619309512e-01	 2.7344058053e+00
 1.3052713396e+00	 3.8814839502e-01	 2.4576265235e+00
 1.3016579001e+00	 4.0009887888e-01	 2.1534006322e+00
 1.2979264204e+00	 4.1204290668e-01	 1.8316336914e+00
 1.2940766007e+00	 4.2397882515e-01	 1.5023950634e+00
 1.2901081707e+00	 4.3590496831e-01	 1.1759075832e+00
 1.2860208895e+00	 4.4781965812e-01	 8.6253709075e-01
 1.2818145467e+00	 4.5972120511e-01	 5.7278185604e-01
 1.2774889623e+00	 4.7160790899e-01	 3.1726192864e-01
 1.3239309875e+00	 3.5455735925e-01	 3.2324919203e+00
 1.3206484506e+00	 3.6659493119e-01	 3.1124835998e+00
 1.3172481853e+00	 3.7863091479e-01	 2.8867033321e+00
 1.3137298046e+00	 3.9066368784e-01	 2.6052876408e+00
 1.3100929492e+00	 4.0269161364e-01	 2.2836947891e+00
 1.3063372887e+00	 4.1471304156e-01	 1.9349349392e+00
 1.3024625212e+00	 4.2672630758e-01	 1.5722400957e+00
 1.2984683748e+00	 4.3872973495e-01	 1.2090501846e+00
 1.2943546071e+00	 4.5072163475e-01	 8.5899887586e-01
 1.2901210062e+00	 4.6270030656e-01	 5.3589918380e-01
 1.2857673910e+00	 4.7466403908e-01	 2.5372888231e-01
 1.3324551329e+00	 3.5684018105e-01	 3.3082324705e+00
 1.3291514614e+00	 3.6895525704e-01	 3.2040043500e+00
 1.3257293035e+00	 3.8106873446e-01	 2.9872582268e+00
 1.3221882696e+00	 3.9317898066e-01	 2.7054276892e+00
 1.3185279984e+00	 4.0528434841e-01	 2.3739277898e+00
 1.3147481569e+00	 4.1738317643e-01	 2.0080622216e+00
 1.3108484417e+00	 4.2947379001e-01	 1.6233988090e+00
 1.3068285789e+00	 4.4155450159e-01	 1.2357528210e+00
 1.3026883247e+00	 4.5362361139e-01	 8.6116994286e-01
 1.2984274657e+00	 4.6567940802e-01	 5.1590894708e-01
 1.2940458197e+00	 4.7772016917e-01	 2.1642410311e-01
 1.3409792784e+00	 3.5912300284e-01	 3.3355869081e+00
 1.3376544722e+00	 3.7131558289e-01	 3.2430126186e+00
 1.3342104217e+00	 3.8350655413e-01	 3.0379697705e+00
 1.3306467347e+00	 3.9569427349e-01	 2.7603402803e+00
 1.3269630475e+00	 4.0787708318e-01	 2.4266166953e+00
 1.3231590251e+00	 4.2005331131e-01	 2.0536006505e+00
 1.3192343622e+00	 4.3222127244e-01	 1.6583846638e+00
 1.3151887831e+00	 4.4437926823e-01	 1.2583334974e+00
 1.3110220423e+00	 4.5652558802e-01	 8.7106512998e-01
 1.3067339252e+00	 4.6865850947e-01	 5.1443138335e-01
 1.3023242484e+00	 4.8077629926e-01	 2.0649824492e-01
 1.3495034239e+00	 3.6140582464e-01	 3.3149799696e+00
 1.3461574831e+00	 3.7367590874e-01	 3.2322940796e+00
 1.3426915399e+00	 3.8594437380e-01	 3.0406805701e+00
 1.3391051997e+00	 3.9820956631e-01	 2.7722517330e+00
 1.3353980966e+00	 4.1046981795e-01	 2.4442050145e+00
 1.3315698934e+00	 4.2272344618e-01	 2.0740594974e+00
 1.3276202827e+00	 4.3496875488e-01	 1.6796365673e+00
 1.3235489872e+00	 4.4720403488e-01	 1.2790401292e+00
 1.3193557599e+00	 4.5942756465e-01	 8.9063642082e-01
 1.3150403847e+00	 4.7163761093e-01	 5.3303347053e-01
 1.3106026771e+00	 4.8383242935e-01	 2.2506024248e-01
 1.3580275694e+00	 3.6368864644e-01	 3.2468243360e+00
 1.3546604939e+00	 3.7603623458e-01	 3.1734778090e+00
 1.3511726581e+00	 3.8838219348e-01	 2.9971781580e+00
 1.3475636648e+00	 4.0072485914e-01	 2.7433230270e+00
 1.3438331457e+00	 4.1306255272e-01	 2.4290648773e+00
 1.3399807616e+00	 4.2539358106e-01	 2.0718744634e+00
 1.3360062032e+00	 4.3771623731e-01	 1.6895211319e+00
 1.3319091914e+00	 4.5002880152e-01	 1.3000526909e+00
 1.3276894775e+00	 4.6232954129e-01	 9.2177489784e-01
 1.3233468443e+00	 4.7461671238e-01	 5.7323061420e-01
 1.3188811058e+00	 4.8688855944e-01	 2.7317867350e-01
 1.3665517149e+00	 3.6597146823e-01	 3.1315209740e+00
 1.3631635047e+00	 3.7839656043e-01	 3.0677619407e+00
 1.3596537762e+00	 3.9082001315e-01	 2.9091965433e+00
 1.3560221298e+00	 4.0324015197e-01	 2.6756516955e+00
 1.3522681948e+00	 4.1565528749e-01	 2.3834991401e+00
 1.3483916299e+00	 4.2806371594e-01	 2.0494098795e+00
 1.3443921237e+00	 4.4046371974e-01	 1.6903348634e+00
 1.3402693955e+00	 4.5285356817e-01	 1.3234852996e+00
 1.3360231951e+00	 4.6523151792e-01	 9.6631264019e-01
 1.3316533038e+00	 4.7759581384e-01	 6.3648829018e-01
 1.3271595345e+00	 4.8994468953e-01	 3.5188308939e-01
 1.3750758603e+00	 3.6825429003e-01	 2.9694594720e+00
 1.3716665155e+00	 3.8075688628e-01	 2.9163065025e+00
 1.3681348944e+00	 3.9325783282e-01	 2.7784177165e+00
 1.3644805948e+00	 4.0575544479e-01	 2.5712736605e+00
 1.3607032439e+00	 4.1824802226e-01	 2.3097434256e+00
 1.3568024981e+00	 4.3073385081e-01	 2.0089608385e+00
 1.3527780442e+00	 4.4321120218e-01	 1.6843062839e+00
 1.3486295997e+00	 4.5567833481e-01	 1.3513882381e+00
 1.3443569127e+00	 4.6813349455e-01	 1.0260245682e+00
 1.3399597633e+00	 4.8057491529e-01	 7.2422364432e-01
 1.3354379633e+00	 4.9300081962e-01	 4.6216531595e-01
 1.3836000058e+00	 3.7053711183e-01	 2.7610219957e+00
 1.3801695264e+00	 3.8311721213e-01	 2.7202344281e+00
 1.3766160126e+00	 3.9569565249e-01	 2.6064731110e+00
 1.3729390599e+00	 4.0827073762e-01	 2.4321650118e+00
 1.3691382930e+00	 4.2084075703e-01	 2.2099681010e+00
 1.3652133663e+00	 4.3340398569e-01	 1.9527552628e+00
 1.3611639648e+00	 4.4595868461e-01	 1.6735979910e+00
 1.3569898038e+00	 4.5850310145e-01	 1.3857499186e+00
 1.3526906303e+00	 4.7103547119e-01	 1.1026302369e+00
 1.3482662228e+00	 4.8355401675e-01	 8.3780705142e-01
 1.3437163920e+00	 4.9605694971e-01	 6.0498072531e-01
 1.3921241513e+00	 3.7281993362e-01	 2.5077184009e+00
 1.3886725372e+00	 3.8547753797e-01	 2.4806325416e+00
 1.3850971308e+00	 3.9813347216e-01	 2.3949450211e+00
 1.3813975249e+00	 4.1078603044e-01	 2.2602437335e+00
 1.3775733421e+00	 4.2343349180e-01	 2.0862801964e+00
 1.3736242346e+00	 4.3607412057e-01	 1.8829559099e+00
 1.3695498853e+00	 4.4870616704e-01	 1.6603086561e+00
 1.3653500079e+00	 4.6132786810e-01	 1.4284987907e+00
 1.3610243479e+00	 4.7393744782e-01	 1.1977955805e+00
 1.3565726823e+00	 4.8653311820e-01	 9.7856363499e-01
 1.3519948207e+00	 4.9911307980e-01	 7.8124948034e-01
 1.2692105336e+00	 4.6855177891e-01	 4.0582947412e-01
 1.2647936020e+00	 4.8034701128e-01	 2.2464364368e-01
 1.2602578954e+00	 4.9212408161e-01	 8.5090651678e-02
 1.2556033274e+00	 5.0388127097e-01	-1.8958080074e-02
 1.2508298437e+00	 5.1561685237e-01	-9.3542114301e-02
 1.2459374222e+00	 5.2732909147e-01	-1.4459804898e-01
 1.2409260734e+00	 5.3901624731e-01	-1.7794517490e-01
 1.2357958404e+00	 5.5067657307e-01	-1.9927075870e-01
 1.2305467998e+00	 5.6230831678e-01	-2.1411497413e-01
 1.2251790613e+00	 5.7390972211e-01	-2.2785550793e-01
 1.2196927683e+00	 5.8547902912e-01	-2.4569187111e-01
 1.2774889623e+00	 4.7160790899e-01	 3.1726192864e-01
 1.2730432213e+00	 4.8348007580e-01	 1.1227429329e-01
 1.2684779305e+00	 4.9533396210e-01	-3.8416616710e-02
 1.2637930031e+00	 5.0716783776e-01	-1.4299390164e-01
 1.2589883843e+00	 5.1897996451e-01	-2.0958708830e-01
 1.2540640520e+00	 5.3076859672e-01	-2.4625561837e-01
 1.2490200166e+00	 5.4253198206e-01	-2.6097183659e-01
 1.2438563217e+00	 5.5426836232e-01	-2.6160349997e-01
 1.2385730442e+00	 5.6597597411e-01	-2.5589583387e-01
 1.2331702946e+00	 5.7765304963e-01	-2.5145316468e-01
 1.2276482172e+00	 5.8929781748e-01	-2.5572016368e-01
 1.2857673910e+00	 4.7466403908e-01	 2.5372888231e-01
 1.2812928405e+00	 4.8661314031e-01	 3.2027445378e-02
 1.2766979656e+00	 4.9854384259e-01	-1.2545781621e-01
 1.2719826787e+00	 5.1045440454e-01	-2.2844705151e-01
 1.2671469249e+00	 5.2234307665e-01	-2.8663717835e-01
 1.2621906818e+00	 5.3420810196e-01	-3.0968344275e-01
 1.2571139599e+00	 5.4604771681e-01	-3.0718038559e-01
 1.2519168030e+00	 5.5786015158e-01	-2.8864223968e-01
 1.2465992886e+00	 5.6964363144e-01	-2.6348278519e-01
 1.2411615279e+00	 5.8139637715e-01	-2.4099469571e-01
 1.2356036662e+00	 5.9311660583e-01	-2.3032841237e-01
 1.2940458197e+00	 4.7772016917e-01	 2.1642410311e-01
 1.2895424598e+00	 4.8974620483e-01	-1.5398252813e-02
 1.2849180007e+00	 5.0175372308e-01	-1.7579763097e-01
 1.2801723544e+00	 5.1374097132e-01	-2.7552390379e-01
 1.2753054656e+00	 5.2570618879e-01	-3.2532903932e-01
 1.2703173116e+00	 5.3764760721e-01	-3.3594735797e-01
 1.2652079031e+00	 5.4956345156e-01	-3.1807511844e-01
 1.2599772843e+00	 5.6145194083e-01	-2.8234945698e-01
 1.2546255330e+00	 5.7331128877e-01	-2.3932670905e-01
 1.2491527612e+00	 5.8513970467e-01	-1.9946014771e-01
 1.2435591152e+00	 5.9693539419e-01	-1.7307717778e-01
 1.3023242484e+00	 4.8077629926e-01	 2.0649824492e-01
 1.2977920791e+00	 4.9287926935e-01	-2.9334992537e-02
 1.2931380358e+00	 5.0496360357e-01	-1.8922006753e-01
 1.2883620301e+00	 5.1702753811e-01	-2.8443914120e-01
 1.2834640062e+00	 5.2906930094e-01	-3.2629686402e-01
 1.2784439414e+00	 5.4108711246e-01	-3.2609994966e-01
 1.2733018464e+00	 5.5307918632e-01	-2.9513601383e-01
 1.2680377656e+00	 5.6504373008e-01	-2.4465170276e-01
 1.2626517774e+00	 5.7697894610e-01	-1.8583014080e-01
 1.2571439946e+00	 5.8888303220e-01	-1.2976773234e-01
 1.2515145641e+00	 6.0075418255e-01	-8.7450358169e-02
 1.3106026771e+00	 4.8383242935e-01	 2.2506024248e-01
 1.3060416983e+00	 4.9601233388e-01	-9.1447578919e-03
 1.3013580709e+00	 5.0817348406e-01	-1.6552773249e-01
 1.2965517058e+00	 5.2031410489e-01	-2.5541533792e-01
 1.2916225468e+00	 5.3243241308e-01	-2.9017226172e-01
 1.2865705712e+00	 5.4452661771e-01	-2.8118072609e-01
 1.2813957896e+00	 5.5659492107e-01	-2.3981920676e-01
 1.2760982469e+00	 5.6863551934e-01	-1.7744039064e-01
 1.2706780219e+00	 5.8064660343e-01	-1.0534840187e-01
 1.2651352279e+00	 5.9262635972e-01	-3.4775331059e-02
 1.2594700131e+00	 6.0457297090e-01	 2.3142891526e-02
 1.3188811058e+00	 4.8688855944e-01	 2.7317867350e-01
 1.3142913176e+00	 4.9914539840e-01	 4.5781701296e-02
 1.3095781060e+00	 5.1138336455e-01	-1.0454111513e-01
 1.3047413814e+00	 5.2360067168e-01	-1.8868253495e-01
 1.2997810874e+00	 5.3579552522e-01	-2.1758411673e-01
 1.2946972009e+00	 5.4796612296e-01	-2.0221625873e-01
 1.2894897329e+00	 5.6011065582e-01	-1.5355741787e-01
 1.2841587282e+00	 5.7222730859e-01	-8.2572529936e-02
 1.2787042663e+00	 5.8431426076e-01	-1.9065932328e-04
 1.2731264612e+00	 5.9636968725e-01	 8.2718087547e-02
 1.2674254621e+00	 6.0839175926e-01	 1.5536634521e-01
 1.3271595345e+00	 4.8994468953e-01	 3.5188308939e-01
 1.3225409368e+00	 5.0227846292e-01	 1.3602587886e-01
 1.3177981411e+00	 5.1459324504e-01	-6.0978752364e-03
 1.3129310571e+00	 5.2688723847e-01	-8.4477808263e-02
 1.3079396280e+00	 5.3915863737e-01	-1.0915842807e-01
 1.3028238307e+00	 5.5140562821e-01	-9.0220292020e-02
 1.2975836761e+00	 5.6362639057e-01	-3.7760339867e-02
 1.2922192095e+00	 5.7581909785e-01	 3.8128597032e-02
 1.2867305107e+00	 5.8798191809e-01	 1.2737908369e-01
 1.2811176945e+00	 6.0011301477e-01	 2.1997113426e-01
 1.2753809110e+00	 6.1221054762e-01	 3.0595499120e-01
 1.3354379633e+00	 4.9300081962e-01	 4.6216531595e-01
 1.3307905561e+00	 5.0541152744e-01	 2.6214250471e-01
 1.3260181762e+00	 5.1780312553e-01	 1.2994786454e-01
 1.3211207328e+00	 5.3017380525e-01	 5.6955169944e-02
 1.3160981686e+00	 5.4252174951e-01	 3.4481869151e-02
 1.3109504605e+00	 5.5484513347e-01	 5.3806176249e-02
 1.3056776194e+00	 5.6714212532e-01	 1.0618501701e-01
 1.3002796908e+00	 5.7941088710e-01	 1.8287281061e-01
 1.2947567551e+00	 5.9164957542e-01	 2.7514106357e-01
 1.2891089279e+00	 6.0385634229e-01	 3.7429874586e-01
 1.2833363600e+00	 6.1602933597e-01	 4.7171341335e-01
 1.3437163920e+00	 4.9605694971e-01	 6.0498072531e-01
 1.3390401754e+00	 5.0854459196e-01	 4.2466052108e-01
 1.3342382113e+00	 5.2101300602e-01	 3.0372622164e-01
 1.3293104084e+00	 5.3346037204e-01	 2.3536657652e-01
 1.3242567092e+00	 5.4588486165e-01	 2.1271709968e-01
 1.3190770903e+00	 5.5828463872e-01	 2.2887484287e-01
 1.3137715626e+00	 5.7065786008e-01	 2.7691401884e-01
 1.3083401721e+00	 5.8300267636e-01	 3.4990246043e-01
 1.3027829995e+00	 5.9531723275e-01	 4.4091889511e-01
 1.2971001612e+00	 6.0759966982e-01	 5.4307100847e-01
 1.2912918090e+00	 6.1984812433e-01	 6.4951426381e-01
 1.3519948207e+00	 4.9911307980e-01	 7.8124948034e-01
 1.3472897946e+00	 5.1167765648e-01	 6.2408404314e-01
 1.3424582464e+00	 5.2422288651e-01	 5.1535225228e-01
 1.3375000841e+00	 5.3674693882e-01	 4.5050088895e-01
 1.3324152499e+00	 5.4924797379e-01	 4.2493106077e-01
 1.3272037201e+00	 5.6172414397e-01	 4.3401007409e-01
 1.3218655059e+00	 5.7417359483e-01	 4.7308413944e-01
 1.3164006534e+00	 5.8659446561e-01	 5.3749190059e-01
 1.3108092439e+00	 5.9898489008e-01	 6.2257877082e-01
 1.3050913945e+00	 6.1134299734e-01	 7.2371205428e-01
 1.2992472579e+00	 6.2366691268e-01	 8.3629682331e-01
 1.2196927683e+00	 5.8547902912e-01	-2.4569187111e-01
 1.2140890607e+00	 5.9701251716e-01	-2.6347290632e-01
 1.2083672264e+00	 6.0851039118e-01	-2.7030365769e-01
 1.2025275101e+00	 6.1997088548e-01	-2.6122976097e-01
 1.1965701906e+00	 6.3139223392e-01	-2.3145312001e-01
 1.1904955813e+00	 6.4277267076e-01	-1.7633357840e-01
 1.1843040300e+00	 6.5411043145e-01	-9.1390211710e-02
 1.1779959194e+00	 6.6540375352e-01	 2.7697736531e-02
 1.1715716669e+00	 6.7665087737e-01	 1.8509024815e-01
 1.1650317246e+00	 6.8785004713e-01	 3.8478622256e-01
 1.1583765792e+00	 6.9899951150e-01	 6.3062343460e-01
 1.2276482172e+00	 5.8929781748e-01	-2.5572016368e-01
 1.2220079594e+00	 6.0090653272e-01	-2.6986917913e-01
 1.2162488045e+00	 6.1247940165e-01	-2.8479590196e-01
 1.2103709987e+00	 6.2401464705e-01	-2.9251142376e-01
 1.2043748225e+00	 6.3551049127e-01	-2.8518935881e-01
 1.1982605915e+00	 6.4696515702e-01	-2.5517165278e-01
 1.1920286558e+00	 6.5837686829e-01	-1.9497402921e-01
 1.1856794006e+00	 6.6974385108e-01	-9.7291092064e-02
 1.1792132459e+00	 6.8106433433e-01	 4.4998894168e-02
 1.1726306468e+00	 6.9233655070e-01	 2.3882952134e-01
 1.1659320932e+00	 7.0355873747e-01	 4.9094202339e-01
 1.2356036662e+00	 5.9311660583e-01	-2.3032841237e-01
 1.2299268582e+00	 6.0480054828e-01	-2.3777142943e-01
 1.2241303826e+00	 6.1644841212e-01	-2.5662022184e-01
 1.2182144872e+00	 6.2805840862e-01	-2.7653576603e-01
 1.2121794544e+00	 6.3962874861e-01	-2.8734075195e-01
 1.2060256018e+00	 6.5115764329e-01	-2.7902852439e-01
 1.1997532817e+00	 6.6264330513e-01	-2.4177167792e-01
 1.1933628818e+00	 6.7408394864e-01	-1.6593032030e-01
 1.1868548249e+00	 6.8547779128e-01	-4.2060022484e-02
 1.1802295689e+00	 6.9682305426e-01	 1.3908052302e-01
 1.1734876072e+00	 7.0811796344e-01	 3.8652211039e-01
 1.2435591152e+00	 5.9693539419e-01	-1.7307717778e-01
 1.2378457570e+00	 6.0869456383e-01	-1.7125959457e-01
 1.2320119607e+00	 6.2041742259e-01	-1.9018653724e-01
 1.2260579757e+00	 6.3210217019e-01	-2.1783999467e-01
 1.2199840863e+00	 6.4374700595e-01	-2.4235588283e-01
 1.2137906120e+00	 6.5535012956e-01	-2.5203512466e-01
 1.2074779075e+00	 6.6690974197e-01	-2.3535439828e-01
 1.2010463630e+00	 6.7842404620e-01	-1.8097656612e-01
 1.1944964038e+00	 6.8989124823e-01	-7.7760801579e-02
 1.1878284911e+00	 7.0130955782e-01	 8.5227566938e-02
 1.1810431212e+00	 7.1267718941e-01	 3.1870747104e-01
 1.2515145641e+00	 6.0075418255e-01	-8.7450358169e-02
 1.2457646558e+00	 6.1258857939e-01	-7.4323648389e-02
 1.2398935388e+00	 6.2438643306e-01	-8.9806294565e-02
 1.2339014643e+00	 6.3614593177e-01	-1.2085946696e-01
 1.2277887182e+00	 6.4786526330e-01	-1.5458358351e-01
 1.2215556223e+00	 6.5954261583e-01	-1.7823054487e-01
 1.2152025334e+00	 6.7117617881e-01	-1.7921565063e-01
 1.2087298441e+00	 6.8276414376e-01	-1.4512920939e-01
 1.2021379828e+00	 6.9430470518e-01	-6.3747858975e-02
 1.1954274133e+00	 7.0579606139e-01	 7.6954383319e-02
 1.1885986352e+00	 7.1723641538e-01	 2.8879531683e-01
 1.2594700131e+00	 6.0457297090e-01	 2.3142891526e-02
 1.2536835545e+00	 6.1648259495e-01	 4.9134115047e-02
 1.2477751169e+00	 6.2835544353e-01	 4.0305037049e-02
 1.2417449528e+00	 6.4018969334e-01	 1.0069763893e-02
 1.2355933501e+00	 6.5198352064e-01	-2.8275356136e-02
 1.2293206325e+00	 6.6373510210e-01	-6.1564149259e-02
 1.2229271592e+00	 6.7544261565e-01	-7.6772725453e-02
 1.2164133253e+00	 6.8710424132e-01	-6.1031294433e-02
 1.2097795618e+00	 6.9871816214e-01	-1.6357062538e-03
 1.2030263355e+00	 7.1028256495e-01	 1.1394126187e-01
 1.1961541492e+00	 7.2179564136e-01	 2.9803884729e-01
 1.2674254621e+00	 6.0839175926e-01	 1.5536634521e-01
 1.2616024533e+00	 6.2037661051e-01	 1.9529691730e-01
 1.2556566950e+00	 6.3232445400e-01	 1.9602559861e-01
 1.2495884413e+00	 6.4423345491e-01	 1.7070853533e-01
 1.2433979820e+00	 6.5610177798e-01	 1.3241233462e-01
 1.2370856428e+00	 6.6792758837e-01	 9.4102430594e-02
 1.2306517850e+00	 6.7970905249e-01	 6.8631747568e-02
 1.2240968065e+00	 6.9144433889e-01	 6.8729643453e-02
 1.2174211408e+00	 7.0313161909e-01	 1.0699111231e-01
 1.2106252577e+00	 7.1476906852e-01	 1.9586622111e-01
 1.2037096631e+00	 7.2635486733e-01	 3.4764975212e-01
 1.2753809110e+00	 6.1221054762e-01	 3.0595499120e-01
 1.2695213521e+00	 6.2427062607e-01	 3.6043144589e-01
 1.2635382731e+00	 6.3629346447e-01	 3.7332489747e-01
 1.2574319299e+00	 6.4827721648e-01	 3.5691228869e-01
 1.2512026139e+00	 6.6022003533e-01	 3.2341589249e-01
 1.2448506530e+00	 6.7212007464e-01	 2.8499341503e-01
 1.2383764109e+00	 6.8397548933e-01	 2.5372838736e-01
 1.2317802877e+00	 6.9578443645e-01	 2.4162082413e-01
 1.2250627197e+00	 7.0754507604e-01	 2.6057812353e-01
 1.2182241799e+00	 7.1925557208e-01	 3.2240617853e-01
 1.2112651771e+00	 7.3091409330e-01	 4.3880066557e-01
 1.2833363600e+00	 6.1602933597e-01	 4.7171341335e-01
 1.2774402508e+00	 6.2816464163e-01	 5.4088591408e-01
 1.2714198512e+00	 6.4026247494e-01	 5.6826168166e-01
 1.2652754184e+00	 6.5232097805e-01	 5.6462890333e-01
 1.2590072458e+00	 6.6433829267e-01	 5.4076253853e-01
 1.2526156633e+00	 6.7631256091e-01	 5.0741710422e-01
 1.2461010367e+00	 6.8824192617e-01	 4.7531974187e-01
 1.2394637688e+00	 7.0012453401e-01	 4.5516353832e-01
 1.2327042987e+00	 7.1195853299e-01	 4.5760106818e-01
 1.2258231020e+00	 7.2374207564e-01	 4.9323812138e-01
 1.2188206911e+00	 7.3547331927e-01	 5.7262757517e-01
 1.2912918090e+00	 6.1984812433e-01	 6.4951426381e-01
 1.2853591496e+00	 6.3205865719e-01	 7.3308822538e-01
 1.2793014293e+00	 6.4423148541e-01	 7.7698192706e-01
 1.2731189069e+00	 6.5636473962e-01	 7.8989664664e-01
 1.2668118777e+00	 6.6845655001e-01	 7.8056837298e-01
 1.2603806735e+00	 6.8050504718e-01	 7.5776421005e-01
 1.2538256626e+00	 6.9250836301e-01	 7.3027905715e-01
 1.2471472500e+00	 7.0446463157e-01	 7.0693252980e-01
 1.2403458777e+00	 7.1637198995e-01	 6.9656608105e-01
 1.2334220242e+00	 7.2822857921e-01	 7.0804027832e-01
 1.2263762051e+00	 7.4003254524e-01	 7.5023218678e-01
 1.2992472579e+00	 6.2366691268e-01	 8.3629682331e-01
 1.2932780484e+00	 6.3595267275e-01	 9.3354423834e-01
 1.2871830074e+00	 6.4820049588e-01	 9.9571693279e-01
 1.2809623955e+00	 6.6040850119e-01	 1.0288422348e+00
 1.2746165096e+00	 6.7257480735e-01	 1.0390365452e+00
 1.2681456837e+00	 6.8469753345e-01	 1.0325062876e+00
 1.2615502884e+00	 6.9677479985e-01	 1.0155491312e+00
 1.2548307312e+00	 7.0880472913e-01	 9.9455544131e-01
 1.2479874567e+00	 7.2078544690e-01	 9.7600990691e-01
 1.2410209464e+00	 7.3271508277e-01	 9.6649329154e-01
 1.2339317191e+00	 7.4459177121e-01	 9.7242092746e-01
 1.1583765792e+00	 6.9899951150e-01	 6.3062343460e-01
 1.1516067529e+00	 7.1009752482e-01	 8.9121680316e-01
 1.1447228033e+00	 7.2114234859e-01	 1.1276540892e+00
 1.1377253231e+00	 7.3213225174e-01	 1.3325260820e+00
 1.1306149397e+00	 7.4306551116e-01	 1.4985328122e+00
 1.1233923147e+00	 7.5394041265e-01	 1.6150087918e+00
 1.1160581442e+00	 7.6475525172e-01	 1.6728741971e+00
 1.1086131585e+00	 7.7550833447e-01	 1.6647564715e+00
 1.1010581216e+00	 7.8619797841e-01	 1.5843222082e+00
 1.0933938315e+00	 7.9682251330e-01	 1.4250656109e+00
 1.0856211196e+00	 8.0738028204e-01	 1.1802942287e+00
 1.1659320932e+00	 7.0355873747e-01	 4.9094202339e-01
 1.1591181107e+00	 7.1472913760e-01	 7.7545771993e-01
 1.1521892605e+00	 7.2584600127e-01	 1.0533520429e+00
 1.1451461392e+00	 7.3690758608e-01	 1.3117177849e+00
 1.1379893783e+00	 7.4791215771e-01	 1.5367957090e+00
 1.1307196437e+00	 7.5885799078e-01	 1.7120315588e+00
 1.1233376361e+00	 7.6974336967e-01	 1.8243064156e+00
 1.1158440904e+00	 7.8056658942e-01	 1.8609937134e+00
 1.1082397758e+00	 7.9132595658e-01	 1.8097714964e+00
 1.1005254953e+00	 8.0201979003e-01	 1.6596673550e+00
 1.0927020859e+00	 8.1264642184e-01	 1.3994140300e+00
 1.1734876072e+00	 7.0811796344e-01	 3.8652211039e-01
 1.1666294684e+00	 7.1936075039e-01	 6.8064767791e-01
 1.1596557177e+00	 7.3054965395e-01	 9.8423355002e-01
 1.1525669553e+00	 7.4168292043e-01	 1.2799774247e+00
 1.1453638169e+00	 7.5275880427e-01	 1.5477703576e+00
 1.1380469728e+00	 7.6377556890e-01	 1.7682394481e+00
 1.1306171280e+00	 7.7473148761e-01	 1.9243613020e+00
 1.1230750224e+00	 7.8562484437e-01	 1.9993731200e+00
 1.1154214300e+00	 7.9645393476e-01	 1.9767955615e+00
 1.1076571592e+00	 8.0721706676e-01	 1.8406265847e+00
 1.0997830522e+00	 8.1791256164e-01	 1.5764779669e+00
 1.1810431212e+00	 7.1267718941e-01	 3.1870747104e-01
 1.1741408262e+00	 7.2399236318e-01	 6.0977682341e-01
 1.1671221749e+00	 7.3525330663e-01	 9.2460154532e-01
 1.1599877715e+00	 7.4645825478e-01	 1.2419196808e+00
 1.1527382555e+00	 7.5760545083e-01	 1.5373160526e+00
 1.1453743018e+00	 7.6869314703e-01	 1.7897090405e+00
 1.1378966199e+00	 7.7971960555e-01	 1.9789151831e+00
 1.1303059543e+00	 7.9068309932e-01	 2.0850678423e+00
 1.1226030842e+00	 8.0158191294e-01	 2.0886450550e+00
 1.1147888230e+00	 8.1241434350e-01	 1.9704972554e+00
 1.1068640185e+00	 8.2317870144e-01	 1.7121591596e+00
 1.1885986352e+00	 7.1723641538e-01	 2.8879531683e-01
 1.1816521840e+00	 7.2862397597e-01	 5.6574699138e-01
 1.1745886321e+00	 7.3995695931e-01	 8.7863735781e-01
 1.1674085876e+00	 7.5123358913e-01	 1.2023612621e+00
 1.1601126942e+00	 7.6245209739e-01	 1.5111557060e+00
 1.1527016308e+00	 7.7361072516e-01	 1.7823751756e+00
 1.1451761118e+00	 7.8470772349e-01	 1.9937079078e+00
 1.1375368863e+00	 7.9574135427e-01	 2.1231958150e+00
 1.1297847384e+00	 8.0670989112e-01	 2.1492657895e+00
 1.1219204869e+00	 8.1761162023e-01	 2.0507608512e+00
 1.1139449849e+00	 8.2844484125e-01	 1.8069711004e+00
 1.1961541492e+00	 7.2179564136e-01	 2.9803884729e-01
 1.1891635418e+00	 7.3325558876e-01	 5.5137563383e-01
 1.1820550893e+00	 7.4466061199e-01	 8.5008917034e-01
 1.1748294037e+00	 7.5600892348e-01	 1.1663094083e+00
 1.1674871328e+00	 7.6729874395e-01	 1.4748801820e+00
 1.1600289599e+00	 7.7852830329e-01	 1.7520354411e+00
 1.1524556037e+00	 7.8969584144e-01	 1.9743471566e+00
 1.1447678182e+00	 8.0079960923e-01	 2.1187586819e+00
 1.1369663926e+00	 8.1183786930e-01	 2.1626179912e+00
 1.1290521507e+00	 8.2280889696e-01	 2.0837107528e+00
 1.1210259512e+00	 8.3371098105e-01	 1.8602931948e+00
 1.2037096631e+00	 7.2635486733e-01	 3.4764975212e-01
 1.1966748995e+00	 7.3788720155e-01	 5.6939964779e-01
 1.1895215464e+00	 7.4936426467e-01	 8.4235895837e-01
 1.1822502198e+00	 7.6078425782e-01	 1.1386579840e+00
 1.1748615714e+00	 7.7214539051e-01	 1.4339524452e+00
 1.1673562889e+00	 7.8344588142e-01	 1.7043544679e+00
 1.1597350956e+00	 7.9468395938e-01	 1.9263125616e+00
 1.1519987502e+00	 8.0585786418e-01	 2.0766454037e+00
 1.1441480468e+00	 8.1696584748e-01	 2.1325755103e+00
 1.1361838146e+00	 8.2800617369e-01	 2.0717627505e+00
 1.1281069175e+00	 8.3897712086e-01	 1.8723376613e+00
 1.2112651771e+00	 7.3091409330e-01	 4.3880066557e-01
 1.2041862573e+00	 7.4251881434e-01	 6.2241652235e-01
 1.1969880036e+00	 7.5406791735e-01	 8.5932492908e-01
 1.1896710359e+00	 7.6555959217e-01	 1.1241910084e+00
 1.1822360100e+00	 7.7699203707e-01	 1.3937115262e+00
 1.1746836179e+00	 7.8836345955e-01	 1.6448680383e+00
 1.1670145874e+00	 7.9967207732e-01	 1.8549596464e+00
 1.1592296821e+00	 8.1091611913e-01	 2.0016357040e+00
 1.1513297010e+00	 8.2209382566e-01	 2.0629284325e+00
 1.1433154784e+00	 8.3320345043e-01	 2.0172854076e+00
 1.1351878838e+00	 8.4424326066e-01	 1.8436018752e+00
 1.2188206911e+00	 7.3547331927e-01	 5.7262757517e-01
 1.2116976151e+00	 7.4715042713e-01	 7.1242321710e-01
 1.2044544608e+00	 7.5877157003e-01	 9.0479239968e-01
 1.1970918520e+00	 7.7033492652e-01	 1.1275860296e+00
 1.1896104486e+00	 7.8183868363e-01	 1.3593763156e+00
 1.1820109470e+00	 7.9328103768e-01	 1.5789870153e+00
 1.1742940793e+00	 8.0466019527e-01	 1.7655235932e+00
 1.1664606141e+00	 8.1597437408e-01	 1.8984033607e+00
 1.1585113552e+00	 8.2722180383e-01	 1.9573855669e+00
 1.1504471423e+00	 8.3840072716e-01	 1.9226014027e+00
 1.1422688501e+00	 8.4950940046e-01	 1.7745838838e+00
 1.2263762051e+00	 7.4003254524e-01	 7.5023218678e-01
 1.2192089729e+00	 7.5178203992e-01	 8.4183401630e-01
 1.2119209180e+00	 7.6347522270e-01	 9.8248486532e-01
 1.2045126681e+00	 7.7511026087e-01	 1.1534173497e+00
 1.1969848873e+00	 7.8668533018e-01	 1.3360491927e+00
 1.1893382760e+00	 7.9819861581e-01	 1.5120011021e+00
 1.1815735712e+00	 8.0964831321e-01	 1.6631228444e+00
 1.1736915460e+00	 8.2103262903e-01	 1.7715193487e+00
 1.1656930094e+00	 8.3234978201e-01	 1.8195768146e+00
 1.1575788061e+00	 8.4359800389e-01	 1.7899887944e+00
 1.1493498165e+00	 8.5477554027e-01	 1.6657822247e+00
 1.2339317191e+00	 7.4459177121e-01	 9.7242092746e-01
 1.2267203306e+00	 7.5641365271e-01	 1.0131659525e+00
 1.2193873752e+00	 7.6817887538e-01	 1.0960464438e+00
 1.2119334843e+00	 7.7988559522e-01	 1.2061591064e+00
 1.2043593259e+00	 7.9153197674e-01	 1.3287194960e+00
 1.1966656050e+00	 8.0311619394e-01	 1.4490824374e+00
 1.1888530631e+00	 8.1463643115e-01	 1.5527625468e+00
 1.1809224780e+00	 8.2609088398e-01	 1.6254548419e+00
 1.1728746636e+00	 8.3747776019e-01	 1.6530554235e+00
 1.1647104700e+00	 8.4879528062e-01	 1.6216822125e+00
 1.1564307828e+00	 8.6004168007e-01	 1.5176957231e+00
 1.0856211196e+00	 8.0738028204e-01	 1.1802942287e+00
 1.0777395025e+00	 8.1787141782e-01	 9.1348831455e-01
 1.0697511944e+00	 8.2829248578e-01	 6.9526567004e-01
 1.0616571303e+00	 8.3864186625e-01	 5.2958226553e-01
 1.0534582781e+00	 8.4891795597e-01	 4.2047731603e-01
 1.0451556373e+00	 8.5911916885e-01	 3.7207799008e-01
 1.0367502390e+00	 8.6924393681e-01	 3.8860434442e-01
 1.0282431458e+00	 8.7929071054e-01	 4.7437442969e-01
 1.0196354508e+00	 8.8925796029e-01	 6.3380951050e-01
 1.0109282776e+00	 8.9914417665e-01	 8.7143934195e-01
 1.0021227793e+00	 9.0894787126e-01	 1.1919074437e+00
 1.0927020859e+00	 8.1264642184e-01	 1.3994140300e+00
 1.0847690610e+00	 8.2320598608e-01	 1.0888951922e+00
 1.0767286491e+00	 8.3369502548e-01	 8.0299883826e-01
 1.0685817915e+00	 8.4411190981e-01	 5.5264368928e-01
 1.0603294622e+00	 8.5445502535e-01	 3.4870755307e-01
 1.0519726674e+00	 8.6472277566e-01	 2.0202227310e-01
 1.0435124449e+00	 8.7491358244e-01	 1.2336906099e-01
 1.0349498642e+00	 8.8502588628e-01	 1.2347417199e-01
 1.0262860255e+00	 8.9505814745e-01	 2.1300488127e-01
 1.0175220596e+00	 9.0500884667e-01	 4.0256571664e-01
 1.0086591275e+00	 9.1487648590e-01	 7.0269490277e-01
 1.0997830522e+00	 8.1791256164e-01	 1.5764779669e+00
 1.0917986194e+00	 8.2854055434e-01	 1.2393377518e+00
 1.0837061038e+00	 8.3909756518e-01	 9.0535397019e-01
 1.0755064526e+00	 8.4958195337e-01	 5.9119179537e-01
 1.0672006463e+00	 8.5999209473e-01	 3.1336253657e-01
 1.0587896975e+00	 8.7032638248e-01	 8.8210499453e-02
 1.0502746508e+00	 8.8058322808e-01	-6.8099623224e-02
 1.0416565825e+00	 8.9076106202e-01	-1.3959485898e-01
 1.0329366001e+00	 9.0085833460e-01	-1.1050559212e-01
 1.0241158417e+00	 9.1087351669e-01	 3.4723237621e-02
 1.0151954757e+00	 9.2080510054e-01	 3.1142133976e-01
 1.1068640185e+00	 8.2317870144e-01	 1.7121591596e+00
 1.0988281779e+00	 8.3387512261e-01	 1.3632629916e+00
 1.0906835584e+00	 8.4450010489e-01	 9.9879198707e-01
 1.0824311138e+00	 8.5505199693e-01	 6.3996413763e-01
 1.0740718304e+00	 8.6552916411e-01	 3.0774166683e-01
 1.0656067276e+00	 8.7592998929e-01	 2.2811454786e-02
 1.0570368567e+00	 8.8625287372e-01	-1.9443386986e-01
 1.0483633009e+00	 8.9649623777e-01	-3.2391419044e-01
 1.0395871747e+00	 9.0665852175e-01	-3.4587953772e-01
 1.0307096238e+00	 9.1673818671e-01	-2.4092712477e-01
 1.0217318239e+00	 9.2673371519e-01	 9.9821917847e-03
 1.1139449849e+00	 8.2844484125e-01	 1.8069711004e+00
 1.1058577363e+00	 8.3920969087e-01	 1.4591462045e+00
 1.0976610131e+00	 8.4990264459e-01	 1.0798533180e+00
 1.0893557749e+00	 8.6052204049e-01	 6.9382232024e-01
 1.0809430146e+00	 8.7106623349e-01	 3.2530568853e-01
 1.0724237577e+00	 8.8153359611e-01	-1.8152581358e-03
 1.0637990626e+00	 8.9192251936e-01	-2.6405393995e-01
 1.0550700192e+00	 9.0223141351e-01	-4.3834131718e-01
 1.0462377494e+00	 9.1245870890e-01	-5.0204792748e-01
 1.0373034059e+00	 9.2260285674e-01	-4.3300517868e-01
 1.0282681722e+00	 9.3266232983e-01	-2.0952591854e-01
 1.1210259512e+00	 8.3371098105e-01	 1.8602931948e+00
 1.1128872948e+00	 8.4454425913e-01	 1.5254361595e+00
 1.1046384678e+00	 8.5530518429e-01	 1.1451560283e+00
 1.0962804361e+00	 8.6599208405e-01	 7.4774876095e-01
 1.0878141987e+00	 8.7660330287e-01	 3.5967231683e-01
 1.0792407878e+00	 8.8713720292e-01	 6.8755155652e-03
 1.0705612685e+00	 8.9759216499e-01	-2.8517408614e-01
 1.0617767376e+00	 9.0796658925e-01	-4.9151593942e-01
 1.0528883240e+00	 9.1825889606e-01	-5.8772136182e-01
 1.0438971880e+00	 9.2846752676e-01	-5.4991752569e-01
 1.0348045204e+00	 9.3859094447e-01	-3.5481059526e-01
 1.1281069175e+00	 8.3897712086e-01	 1.8723376613e+00
 1.1199168533e+00	 8.4987882739e-01	 1.5594754136e+00
 1.1116159225e+00	 8.6070772399e-01	 1.1913894000e+00
 1.1032050972e+00	 8.7146212762e-01	 7.9684360904e-01
 1.0946853828e+00	 8.8214037225e-01	 4.0461206164e-01
 1.0860578180e+00	 8.9274080974e-01	 4.1609450302e-02
 1.0773234743e+00	 9.0326181063e-01	-2.6580818814e-01
 1.0684834559e+00	 9.1370176499e-01	-4.9186593030e-01
 1.0595388987e+00	 9.2405908321e-01	-6.1139608138e-01
 1.0504909701e+00	 9.3433219678e-01	-5.9986331265e-01
 1.0413408686e+00	 9.4451955912e-01	-4.3338884024e-01
 1.1351878838e+00	 8.4424326066e-01	 1.8436018752e+00
 1.1269464117e+00	 8.5521339565e-01	 1.5592951061e+00
 1.1185933772e+00	 8.6611026369e-01	 1.2143266000e+00
 1.1101297584e+00	 8.7693217118e-01	 8.3632181116e-01
 1.1015565669e+00	 8.8767744163e-01	 4.5404424142e-01
 1.0928748481e+00	 8.9834441655e-01	 9.5287929751e-02
 1.0840856802e+00	 9.0893145627e-01	-2.1377514269e-01
 1.0751901743e+00	 9.1943694074e-01	-4.4761304477e-01
 1.0661894733e+00	 9.2985927036e-01	-5.8135971797e-01
 1.0570847521e+00	 9.4019686680e-01	-5.9083973179e-01
 1.0478772168e+00	 9.5044817376e-01	-4.5259199371e-01
 1.1422688501e+00	 8.4950940046e-01	 1.7745838838e+00
 1.1339759702e+00	 8.6054796392e-01	 1.5234420531e+00
 1.1255708319e+00	 8.7151280340e-01	 1.2100346261e+00
 1.1170544195e+00	 8.8240221474e-01	 8.6086181160e-01
 1.1084277510e+00	 8.9321451101e-01	 5.0203317839e-01
 1.0996918782e+00	 9.0394802337e-01	 1.6098344923e-01
 1.0908478861e+00	 9.1460110191e-01	-1.3670401866e-01
 1.0818968926e+00	 9.2517211648e-01	-3.6677838115e-01
 1.0728400480e+00	 9.3565945751e-01	-5.0569679600e-01
 1.0636785342e+00	 9.4606153682e-01	-5.3064727999e-01
 1.0544135650e+00	 9.5637678840e-01	-4.1957045438e-01
 1.1493498165e+00	 8.5477554027e-01	 1.6657822247e+00
 1.1410055286e+00	 8.6588253218e-01	 1.4505118087e+00
 1.1325482866e+00	 8.7691534310e-01	 1.1754117209e+00
 1.1239790807e+00	 8.8787225830e-01	 8.6480613747e-01
 1.1152989351e+00	 8.9875158039e-01	 5.4246033806e-01
 1.1065089083e+00	 9.0955163018e-01	 2.3193522157e-01
 1.0976100920e+00	 9.2027074754e-01	-4.2038987415e-02
 1.0886036110e+00	 9.3090729222e-01	-2.5718760598e-01
 1.0794906226e+00	 9.4145964467e-01	-3.9229399510e-01
 1.0702723163e+00	 9.5192620685e-01	-4.2689478778e-01
 1.0609499132e+00	 9.6230540305e-01	-3.4129818853e-01
 1.1564307828e+00	 8.6004168007e-01	 1.5176957231e+00
 1.1480350871e+00	 8.7121710044e-01	 1.3391469733e+00
 1.1395257413e+00	 8.8231788280e-01	 1.1074449146e+00
 1.1309037418e+00	 8.9334230186e-01	 8.4368857241e-01
 1.1221701192e+00	 9.0428864976e-01	 5.6839236538e-01
 1.1133259384e+00	 9.1515523699e-01	 3.0145442223e-01
 1.1043722979e+00	 9.2594039318e-01	 6.2955961959e-02
 1.0953103293e+00	 9.3664246796e-01	-1.2647595228e-01
 1.0861411972e+00	 9.4725983182e-01	-2.4884518424e-01
 1.0768660984e+00	 9.5779087687e-01	-2.8700422767e-01
 1.0674862614e+00	 9.6823401769e-01	-2.2457703709e-01
 1.0021227793e+00	 9.0894787126e-01	 1.1919074437e+00
 9.9322165768e-01	 9.1866593528e-01	 1.5212194542e+00
 9.8422462175e-01	 9.2829861215e-01	 1.7846719763e+00
 9.7513289479e-01	 9.3784449771e-01	 1.9854057964e+00
 9.6594772771e-01	 9.4730221172e-01	 2.1261073921e+00
 9.5667039851e-01	 9.5667039851e-01	 2.2090120188e+00
 9.4730221172e-01	 9.6594772771e-01	 2.2359073321e+00
 9.3784449771e-01	 9.7513289479e-01	 2.2081374934e+00
 9.2829861215e-01	 9.8422462175e-01	 2.1266077095e+00
 9.1866593528e-01	 9.9322165768e-01	 1.9917891558e+00
 9.0894787126e-01	 1.0021227793e+00	 1.8037242349e+00
 1.0086591275e+00	 9.1487648590e-01	 7.0269490277e-01
 9.9969994830e-01	 9.2465793602e-01	 1.0389169095e+00
 9.9064422918e-01	 9.3435344205e-01	 1.3290441891e+00
 9.8149320140e-01	 9.4396159067e-01	 1.5715052422e+00
 9.7224812405e-01	 9.5348099264e-01	 1.7643269805e+00
 9.6291028345e-01	 9.6291028345e-01	 1.9051446533e+00
 9.5348099264e-01	 9.7224812405e-01	 1.9912122175e+00
 9.4396159067e-01	 9.8149320140e-01	 2.0194130854e+00
 9.3435344205e-01	 9.9064422918e-01	 1.9862711886e+00
 9.2465793602e-01	 9.9969994830e-01	 1.8879622947e+00
 9.1487648590e-01	 1.0086591275e+00	 1.7203255154e+00
 1.0151954757e+00	 9.2080510054e-01	 3.1142133976e-01
 1.0061782389e+00	 9.3064993675e-01	 6.4589875266e-01
 9.9706383660e-01	 9.4040827195e-01	 9.5093423380e-01
 9.8785350802e-01	 9.5007868363e-01	 1.2209474050e+00
 9.7854852039e-01	 9.5965977355e-01	 1.4500227492e+00
 9.6915016839e-01	 9.6915016839e-01	 1.6319254588e+00
 9.5965977355e-01	 9.7854852039e-01	 1.7601176155e+00
 9.5007868363e-01	 9.8785350802e-01	 1.8277746251e+00
 9.4040827195e-01	 9.9706383660e-01	 1.8278018339e+00
 9.3064993675e-01	 1.0061782389e+00	 1.7528512513e+00
 9.2080510054e-01	 1.0151954757e+00	 1.5953383089e+00
 1.0217318239e+00	 9.2673371519e-01	 9.9821917847e-03
 1.0126565295e+00	 9.3664193749e-01	 3.3512630166e-01
 1.0034834440e+00	 9.4646310184e-01	 6.4459394453e-01
 9.9421381464e-01	 9.5619577659e-01	 9.2948613582e-01
 9.8484891673e-01	 9.6583855447e-01	 1.1806487768e+00
 9.7539005333e-01	 9.7539005333e-01	 1.3886935172e+00
 9.6583855447e-01	 9.8484891673e-01	 1.5440188188e+00
 9.5619577659e-01	 9.9421381464e-01	 1.6368311327e+00
 9.4646310184e-01	 1.0034834440e+00	 1.6571661073e+00
 9.3664193749e-01	 1.0126565295e+00	 1.5949097426e+00
 9.2673371519e-01	 1.0217318239e+00	 1.4398194109e+00
 1.0282681722e+00	 9.3266232983e-01	-2.0952591854e-01
 1.0191348201e+00	 9.4263393823e-01	 9.9735565013e-02
 1.0099030515e+00	 9.5251793174e-01	 4.0441760239e-01
 1.0005741213e+00	 9.6231286954e-01	 6.9298007011e-01
 9.9114931307e-01	 9.7201733539e-01	 9.5372117839e-01
 9.8162993827e-01	 9.8162993827e-01	 1.1748024515e+00
 9.7201733539e-01	 9.9114931307e-01	 1.3442737590e+00
 9.6231286954e-01	 1.0005741213e+00	 1.4500983029e+00
 9.5251793174e-01	 1.0099030515e+00	 1.4801774674e+00
 9.4263393823e-01	 1.0191348201e+00	 1.4223754405e+00
 9.3266232983e-01	 1.0282681722e+00	 1.2645435193e+00
 1.0348045204e+00	 9.3859094447e-01	-3.5481059526e-01
 1.0256131108e+00	 9.4862593897e-01	-6.6967302136e-02
 1.0163226589e+00	 9.5857276163e-01	 2.2493843969e-01
 1.0069344279e+00	 9.6842996250e-01	 5.0739034939e-01
 9.9744970941e-01	 9.7819611631e-01	 7.6681720331e-01
 9.8786982321e-01	 9.8786982321e-01	 9.8962104689e-01
 9.7819611631e-01	 9.9744970941e-01	 1.1622052887e+00
 9.6842996250e-01	 1.0069344279e+00	 1.2710025743e+00
 9.5857276163e-01	 1.0163226589e+00	 1.3025023398e+00
 9.4862593897e-01	 1.0256131108e+00	 1.2432779473e+00
 9.3859094447e-01	 1.0348045204e+00	 1.0800133087e+00
 1.0413408686e+00	 9.4451955912e-01	-4.3338884024e-01
 1.0320914014e+00	 9.5461793971e-01	-1.7151033303e-01
 1.0227422663e+00	 9.6462759153e-01	 1.0082531397e-01
 1.0132947345e+00	 9.7454705546e-01	 3.6877846713e-01
 1.0037501058e+00	 9.8437489723e-01	 6.1757440545e-01
 9.9410970815e-01	 9.9410970815e-01	 8.3253388821e-01
 9.8437489723e-01	 1.0037501058e+00	 9.9910341710e-01
 9.7454705546e-01	 1.0132947345e+00	 1.1028850847e+00
 9.6462759153e-01	 1.0227422663e+00	 1.1296659035e+00
 9.5461793971e-01	 1.0320914014e+00	 1.0654465130e+00
 9.4451955912e-01	 1.0413408686e+00	 8.9646916609e-01
 1.0478772168e+00	 9.5044817376e-01	-4.5259199371e-01
 1.0385696920e+00	 9.6060994045e-01	-2.2025988453e-01
 1.0291618737e+00	 9.7068242143e-01	 2.6879544657e-02
 1.0196550411e+00	 9.8066414842e-01	 2.7330423392e-01
 1.0100505021e+00	 9.9055367815e-01	 5.0368988380e-01
 1.0003495931e+00	 1.0003495931e+00	 7.0294201262e-01
 9.9055367815e-01	 1.0100505021e+00	 8.5622750214e-01
 9.8066414842e-01	 1.0196550411e+00	 9.4900551876e-01
 9.7068242143e-01	 1.0291618737e+00	 9.6705770027e-01
 9.6060994045e-01	 1.0385696920e+00	 8.9651750234e-01
 9.5044817376e-01	 1.0478772168e+00	 7.2389860273e-01
 1.0544135650e+00	 9.5637678840e-01	-4.1957045438e-01
 1.0450479826e+00	 9.6660194119e-01	-2.1942458129e-01
 1.0355814812e+00	 9.7673725132e-01	-1.9680950325e-03
 1.0260153477e+00	 9.8678124138e-01	 2.1722385648e-01
 1.0163508984e+00	 9.9673245907e-01	 4.2291958989e-01
 1.0065894780e+00	 1.0065894780e+00	 6.0026357719e-01
 9.9673245907e-01	 1.0163508984e+00	 7.3480840021e-01
 9.8678124138e-01	 1.0260153477e+00	 8.1254585253e-01
 9.7673725132e-01	 1.0355814812e+00	 8.1993707636e-01
 9.6660194119e-01	 1.0450479826e+00	 7.4394162640e-01
 9.5637678840e-01	 1.0544135650e+00	 5.7204535705e-01
 1.0609499132e+00	 9.6230540305e-01	-3.4129818853e-01
 1.0515262732e+00	 9.7259394193e-01	-1.7505907707e-01
 1.0420010886e+00	 9.8279208122e-01	 9.3397627191e-03
 1.0323756543e+00	 9.9289833433e-01	 1.9688812572e-01
 1.0226512948e+00	 1.0029112400e+00	 3.7307769924e-01
 1.0128293630e+00	 1.0128293630e+00	 5.2393454069e-01
 1.0029112400e+00	 1.0226512948e+00	 6.3605057573e-01
 9.9289833433e-01	 1.0323756543e+00	 6.9661399877e-01
 9.8279208122e-01	 1.0420010886e+00	 6.9343846225e-01
 9.7259394193e-01	 1.0515262732e+00	 6.1499094565e-01
 9.6230540305e-01	 1.0609499132e+00	 4.5041820097e-01
 1.0674862614e+00	 9.6823401769e-01	-2.2457703709e-01
 1.0580045638e+00	 9.7858594266e-01	-9.3067640995e-02
 1.0484206960e+00	 9.8884691112e-01	 5.5984363417e-02
 1.0387359610e+00	 9.9901542729e-01	 2.0874070912e-01
 1.0289516911e+00	 1.0090900209e+00	 3.5203604415e-01
 1.0190692479e+00	 1.0190692479e+00	 4.7340935887e-01
 1.0090900209e+00	 1.0289516911e+00	 5.6113417215e-01
 9.9901542729e-01	 1.0387359610e+00	 6.0424735789e-01
 9.8884691112e-01	 1.0484206960e+00	 5.9257649835e-01
 9.7858594266e-01	 1.0580045638e+00	 5.1676565616e-01
 9.6823401769e-01	 1.0674862614e+00	 3.6829946296e-01
 9.0894787126e-01	 1.0021227793e+00	 1.8037242349e+00
 8.9914417665e-01	 1.0109282776e+00	 1.6088626921e+00
 8.8925796029e-01	 1.0196354508e+00	 1.4494305514e+00
 8.7929071054e-01	 1.0282431458e+00	 1.3191205290e+00
 8.6924393681e-01	 1.0367502390e+00	 1.2121876329e+00
 8.5911916885e-01	 1.0451556373e+00	 1.1234614005e+00
 8.4891795597e-01	 1.0534582781e+00	 1.0483567848e+00
 8.3864186625e-01	 1.0616571303e+00	 9.8288365073e-01
 8.2829248578e-01	 1.0697511944e+00	 9.2365485182e-01
 8.1787141782e-01	 1.0777395025e+00	 8.6789286142e-01
 8.0738028204e-01	 1.0856211196e+00	 8.1343494044e-01
 9.1487648590e-01	 1.0086591275e+00	 1.7203255154e+00
 9.0500884667e-01	 1.0175220596e+00	 1.5349582320e+00
 8.9505814745e-01	 1.0262860255e+00	 1.3826117216e+00
 8.8502588628e-01	 1.0349498642e+00	 1.2579862085e+00
 8.7491358244e-01	 1.0435124449e+00	 1.1564311473e+00
 8.6472277566e-01	 1.0519726674e+00	 1.0739560206e+00
 8.5445502535e-01	 1.0603294622e+00	 1.0072396445e+00
 8.4411190981e-01	 1.0685817915e+00	 9.5363794422e-01
 8.3369502548e-01	 1.0767286491e+00	 9.1119017367e-01
 8.2320598608e-01	 1.0847690610e+00	 8.7862355608e-01
 8.1264642184e-01	 1.0927020859e+00	 8.5535633021e-01
 9.2080510054e-01	 1.0151954757e+00	 1.5953383089e+00
 9.1087351669e-01	 1.0241158417e+00	 1.4123435435e+00
 9.0085833460e-01	 1.0329366001e+00	 1.2629313642e+00
 8.9076106202e-01	 1.0416565825e+00	 1.1427335935e+00
 8.8058322808e-01	 1.0502746508e+00	 1.0480717224e+00
 8.7032638248e-01	 1.0587896975e+00	 9.7596657793e-01
 8.5999209473e-01	 1.0672006463e+00	 9.2414641863e-01
 8.4958195337e-01	 1.0755064526e+00	 8.9105342354e-01
 8.3909756518e-01	 1.0837061038e+00	 8.7584854891e-01
 8.2854055434e-01	 1.0917986194e+00	 8.7841473198e-01
 8.1791256164e-01	 1.0997830522e+00	 8.9935842880e-01
 9.2673371519e-01	 1.0217318239e+00	 1.4398194109e+00
 9.1673818671e-01	 1.0307096238e+00	 1.2543333987e+00
 9.0665852175e-01	 1.0395871747e+00	 1.1051659068e+00
 8.9649623777e-01	 1.0483633009e+00	 9.8880676063e-01
 8.8625287372e-01	 1.0570368567e+00	 9.0242999205e-01
 8.7592998929e-01	 1.0656067276e+00	 8.4390268149e-01
 8.6552916411e-01	 1.0740718304e+00	 8.1179221126e-01
 8.5505199693e-01	 1.0824311138e+00	 8.0537189670e-01
 8.4450010489e-01	 1.0906835584e+00	 8.2462496899e-01
 8.3387512261e-01	 1.0988281779e+00	 8.7024689056e-01
 8.2317870144e-01	 1.1068640185e+00	 9.4364599074e-01
 9.3266232983e-01	 1.0282681722e+00	 1.2645435193e+00
 9.2260285674e-01	 1.0373034059e+00	 1.0739031272e+00
 9.1245870890e-01	 1.0462377494e+00	 9.2371516734e-01
 9.0223141351e-01	 1.0550700192e+00	 8.1125612806e-01
 8.9192251936e-01	 1.0637990626e+00	 7.3443592524e-01
 8.8153359611e-01	 1.0724237577e+00	 6.9180622174e-01
 8.7106623349e-01	 1.0809430146e+00	 6.8256720224e-01
 8.6052204049e-01	 1.0893557749e+00	 7.0657277061e-01
 8.4990264459e-01	 1.0976610131e+00	 7.6433414301e-01
 8.3920969087e-01	 1.1058577363e+00	 8.5702181738e-01
 8.2844484125e-01	 1.1139449849e+00	 9.8663331806e-01
 9.3859094447e-01	 1.0348045204e+00	 1.0800133087e+00
 9.2846752676e-01	 1.0438971880e+00	 8.8370051059e-01
 9.1825889606e-01	 1.0528883240e+00	 7.3261542975e-01
 9.0796658925e-01	 1.0617767376e+00	 6.2475207336e-01
 8.9759216499e-01	 1.0705612685e+00	 5.5864235096e-01
 8.8713720292e-01	 1.0792407878e+00	 5.3336416971e-01
 8.7660330287e-01	 1.0878141987e+00	 5.4854809106e-01
 8.6599208405e-01	 1.0962804361e+00	 6.0438251412e-01
 8.5530518429e-01	 1.1046384678e+00	 7.0161735809e-01
 8.4454425913e-01	 1.1128872948e+00	 8.4163306599e-01
 8.3371098105e-01	 1.1210259512e+00	 1.0282188631e+00
 9.4451955912e-01	 1.0413408686e+00	 8.9646916609e-01
 9.3433219678e-01	 1.0504909701e+00	 6.9605727055e-01
 9.2405908321e-01	 1.0595388987e+00	 5.4555206800e-01
 9.1370176499e-01	 1.0684834559e+00	 4.4359808033e-01
 9.0326181063e-01	 1.0773234743e+00	 3.8923801572e-01
 8.9274080974e-01	 1.0860578180e+00	 3.8192093608e-01
 8.8214037225e-01	 1.0946853828e+00	 4.2150915165e-01
 8.7146212762e-01	 1.1032050972e+00	 5.0828380620e-01
 8.6070772399e-01	 1.1116159225e+00	 6.4295464722e-01
 8.4987882739e-01	 1.1199168533e+00	 8.2832280007e-01
 8.3897712086e-01	 1.1281069175e+00	 1.0673051000e+00
 9.5044817376e-01	 1.0478772168e+00	 7.2389860273e-01
 9.4019686680e-01	 1.0570847521e+00	 5.2300016753e-01
 9.2985927036e-01	 1.0661894733e+00	 3.7587173924e-01
 9.1943694074e-01	 1.0751901743e+00	 2.8174343491e-01
 9.0893145627e-01	 1.0840856802e+00	 2.4006019360e-01
 8.9834441655e-01	 1.0928748481e+00	 2.5049030898e-01
 8.8767744163e-01	 1.1015565669e+00	 3.1293291475e-01
 8.7693217118e-01	 1.1101297584e+00	 4.2752438314e-01
 8.6611026369e-01	 1.1185933772e+00	 5.9586969793e-01
 8.5521339565e-01	 1.1269464117e+00	 8.2054159990e-01
 8.4424326066e-01	 1.1351878838e+00	 1.1024780321e+00
 9.5637678840e-01	 1.0544135650e+00	 5.7204535705e-01
 9.4606153682e-01	 1.0636785342e+00	 3.7626172785e-01
 9.3565945751e-01	 1.0728400480e+00	 2.3659416415e-01
 9.2517211648e-01	 1.0818968926e+00	 1.5279549000e-01
 9.1460110191e-01	 1.0908478861e+00	 1.2460686831e-01
 9.0394802337e-01	 1.0996918782e+00	 1.5176698893e-01
 8.9321451101e-01	 1.1084277510e+00	 2.3402049405e-01
 8.8240221474e-01	 1.1170544195e+00	 3.7189914627e-01
 8.7151280340e-01	 1.1255708319e+00	 5.6757458111e-01
 8.6054796392e-01	 1.1339759702e+00	 8.2111512172e-01
 8.4950940046e-01	 1.1422688501e+00	 1.1323667407e+00
 9.6230540305e-01	 1.0609499132e+00	 4.5041820097e-01
 9.5192620685e-01	 1.0702723163e+00	 2.6729061452e-01
 9.4145964467e-01	 1.0794906226e+00	 1.4042351254e-01
 9.3090729222e-01	 1.0886036110e+00	 7.0031517596e-02
 9.2027074754e-01	 1.0976100920e+00	 5.6048505881e-02
 9.0955163018e-01	 1.1065089083e+00	 9.8137738253e-02
 8.9875158039e-01	 1.1152989351e+00	 1.9608330435e-01
 8.8787225830e-01	 1.1239790807e+00	 3.5161763319e-01
 8.7691534310e-01	 1.1325482866e+00	 5.6427295879e-01
 8.6588253218e-01	 1.1410055286e+00	 8.3280702638e-01
 8.5477554027e-01	 1.1493498165e+00	 1.1556417500e+00
 9.6823401769e-01	 1.0674862614e+00	 3.6829946296e-01
 9.5779087687e-01	 1.0768660984e+00	 2.0726165742e-01
 9.4725983182e-01	 1.0861411972e+00	 9.9759411070e-02
 9.3664246796e-01	 1.0953103293e+00	 4.6410166041e-02
 9.2594039318e-01	 1.1043722979e+00	 4.7239435329e-02
 9.1515523699e-01	 1.1133259384e+00	 1.0179777437e-01
 9.0428864976e-01	 1.1221701192e+00	 2.1137458455e-01
 8.9334230186e-01	 1.1309037418e+00	 3.7547231186e-01
 8.8231788280e-01	 1.1395257413e+00	 5.9202381557e-01
 8.7121710044e-01	 1.1480350871e+00	 8.5832055098e-01
 8.6004168007e-01	 1.1564307828e+00	 1.1710134344e+00
 8.0738028204e-01	 1.0856211196e+00	 8.1343494044e-01
 7.9682251330e-01	 1.0933938315e+00	 7.5019935682e-01
 7.8619797841e-01	 1.1010581216e+00	 6.7314731951e-01
 7.7550833447e-01	 1.1086131585e+00	 5.8794048095e-01
 7.6475525172e-01	 1.1160581442e+00	 5.0037544666e-01
 7.5394041265e-01	 1.1233923147e+00	 4.1685174868e-01
 7.4306551116e-01	 1.1306149397e+00	 3.4195782888e-01
 7.3213225174e-01	 1.1377253231e+00	 2.7794622156e-01
 7.2114234859e-01	 1.1447228033e+00	 2.2457752619e-01
 7.1009752482e-01	 1.1516067529e+00	 1.8496813061e-01
 6.9899951150e-01	 1.1583765792e+00	 1.6184848204e-01
 8.1264642184e-01	 1.0927020859e+00	 8.5535633021e-01
 8.0201979003e-01	 1.1005254953e+00	 8.2396121593e-01
 7.9132595658e-01	 1.1082397758e+00	 7.7127846964e-01
 7.8056658942e-01	 1.1158440904e+00	 7.0376392386e-01
 7.6974336967e-01	 1.1233376361e+00	 6.2856126672e-01
 7.5885799078e-01	 1.1307196437e+00	 5.5079221063e-01
 7.4791215771e-01	 1.1379893783e+00	 4.7488936967e-01
 7.3690758608e-01	 1.1451461392e+00	 4.0440029349e-01
 7.2584600127e-01	 1.1521892605e+00	 3.3846110881e-01
 7.1472913760e-01	 1.1591181107e+00	 2.7865059966e-01
 7.0355873747e-01	 1.1659320932e+00	 2.2716705303e-01
 8.1791256164e-01	 1.0997830522e+00	 8.9935842880e-01
 8.0721706676e-01	 1.1076571592e+00	 9.1224954717e-01
 7.9645393476e-01	 1.1154214300e+00	 8.9467234919e-01
 7.8562484437e-01	 1.1230750224e+00	 8.5458726445e-01
 7.7473148761e-01	 1.1306171280e+00	 7.9781320726e-01
 7.6377556890e-01	 1.1380469728e+00	 7.2933948871e-01
 7.5275880427e-01	 1.1453638169e+00	 6.5355307261e-01
 7.4168292043e-01	 1.1525669553e+00	 5.7423333671e-01
 7.3054965395e-01	 1.1596557177e+00	 4.9213800958e-01
 7.1936075039e-01	 1.1666294684e+00	 4.0645801878e-01
 7.0811796344e-01	 1.1734876072e+00	 3.1903855072e-01
 8.2317870144e-01	 1.1068640185e+00	 9.4364599074e-01
 8.1241434350e-01	 1.1147888230e+00	 1.0088447903e+00
 8.0158191294e-01	 1.1226030842e+00	 1.0346422109e+00
 7.9068309932e-01	 1.1303059543e+00	 1.0275766751e+00
 7.7971960555e-01	 1.1378966199e+00	 9.9321874000e-01
 7.6869314703e-01	 1.1453743018e+00	 9.3652489493e-01
 7.5760545083e-01	 1.1527382555e+00	 8.6183126786e-01
 7.4645825478e-01	 1.1599877715e+00	 7.7284847730e-01
 7.3525330663e-01	 1.1671221749e+00	 6.7197520799e-01
 7.2399236318e-01	 1.1741408262e+00	 5.5731699542e-01
 7.1267718941e-01	 1.1810431212e+00	 4.2984514647e-01
 8.2844484125e-01	 1.1139449849e+00	 9.8663331806e-01
 8.1761162023e-01	 1.1219204869e+00	 1.1090455434e+00
 8.0670989112e-01	 1.1297847384e+00	 1.1815354901e+00
 7.9574135427e-01	 1.1375368863e+00	 1.2101227601e+00
 7.8470772349e-01	 1.1451761118e+00	 1.2002540235e+00
 7.7361072516e-01	 1.1527016308e+00	 1.1567953801e+00
 7.6245209739e-01	 1.1601126942e+00	 1.0840258251e+00
 7.5123358913e-01	 1.1674085876e+00	 9.8563182891e-01
 7.3995695931e-01	 1.1745886321e+00	 8.6469033847e-01
 7.2862397597e-01	 1.1816521840e+00	 7.2043993034e-01
 7.1723641538e-01	 1.1885986352e+00	 5.5216714966e-01
 8.3371098105e-01	 1.1210259512e+00	 1.0282188631e+00
 8.2280889696e-01	 1.1290521507e+00	 1.2071254950e+00
 8.1183786930e-01	 1.1369663926e+00	 1.3257998428e+00
 8.0079960923e-01	 1.1447678182e+00	 1.3899438599e+00
 7.8969584144e-01	 1.1524556037e+00	 1.4047714091e+00
 7.7852830329e-01	 1.1600289599e+00	 1.3750001954e+00
 7.6729874395e-01	 1.1674871328e+00	 1.3048446998e+00
 7.5600892348e-01	 1.1748294037e+00	 1.1980101304e+00
 7.4466061199e-01	 1.1820550893e+00	 1.0576873971e+00
 7.3325558876e-01	 1.1891635418e+00	 8.8531603368e-01
 7.2179564136e-01	 1.1961541492e+00	 6.7877680396e-01
 8.3897712086e-01	 1.1281069175e+00	 1.0673051000e+00
 8.2800617369e-01	 1.1361838146e+00	 1.2972830901e+00
 8.1696584748e-01	 1.1441480468e+00	 1.4581315334e+00
 8.0585786418e-01	 1.1519987502e+00	 1.5550755224e+00
 7.9468395938e-01	 1.1597350956e+00	 1.5929873984e+00
 7.8344588142e-01	 1.1673562889e+00	 1.5763780373e+00
 7.7214539051e-01	 1.1748615714e+00	 1.5093889672e+00
 7.6078425782e-01	 1.1822502198e+00	 1.3957853364e+00
 7.4936426467e-01	 1.1895215464e+00	 1.2389497412e+00
 7.3788720155e-01	 1.1966748995e+00	 1.0417026777e+00
 7.2635486733e-01	 1.2037096631e+00	 8.0263231584e-01
 8.4424326066e-01	 1.1351878838e+00	 1.1024780321e+00
 8.3320345043e-01	 1.1433154784e+00	 1.3738699228e+00
 8.2209382566e-01	 1.1513297010e+00	 1.5694674156e+00
 8.1091611913e-01	 1.1592296821e+00	 1.6938603501e+00
 7.9967207732e-01	 1.1670145874e+00	 1.7514710310e+00
 7.8836345955e-01	 1.1746836179e+00	 1.7465446531e+00
 7.7699203707e-01	 1.1822360100e+00	 1.6831403212e+00
 7.6555959217e-01	 1.1896710359e+00	 1.5651226846e+00
 7.5406791735e-01	 1.1969880036e+00	 1.3961542021e+00
 7.4251881434e-01	 1.2041862573e+00	 1.1796880516e+00
 7.3091409330e-01	 1.2112651771e+00	 9.1687210531e-01
 8.4950940046e-01	 1.1422688501e+00	 1.1323667407e+00
 8.3840072716e-01	 1.1504471423e+00	 1.4313857023e+00
 8.2722180383e-01	 1.1585113552e+00	 1.6509771921e+00
 8.1597437408e-01	 1.1664606141e+00	 1.7949382040e+00
 8.0466019527e-01	 1.1742940793e+00	 1.8671326851e+00
 7.9328103768e-01	 1.1820109470e+00	 1.8714808895e+00
 7.8183868363e-01	 1.1896104486e+00	 1.8119490208e+00
 7.7033492652e-01	 1.1970918520e+00	 1.6925391877e+00
 7.5877157003e-01	 1.2044544608e+00	 1.5172796956e+00
 7.4715042713e-01	 1.2116976151e+00	 1.2902156911e+00
 7.3547331927e-01	 1.2188206911e+00	 1.0148092692e+00
 8.5477554027e-01	 1.1493498165e+00	 1.1556417500e+00
 8.4359800389e-01	 1.1575788061e+00	 1.4644733857e+00
 8.3234978201e-01	 1.1656930094e+00	 1.6940559411e+00
 8.2103262903e-01	 1.1736915460e+00	 1.8472367510e+00
 8.0964831321e-01	 1.1815735712e+00	 1.9272132732e+00
 7.9819861581e-01	 1.1893382760e+00	 1.9375211627e+00
 7.8668533018e-01	 1.1969848873e+00	 1.8820222610e+00
 7.7511026087e-01	 1.2045126681e+00	 1.7648925316e+00
 7.6347522270e-01	 1.2119209180e+00	 1.5906099703e+00
 7.5178203992e-01	 1.2192089729e+00	 1.3639425153e+00
 7.4003254524e-01	 1.2263762051e+00	 1.0899262475e+00
 8.6004168007e-01	 1.1564307828e+00	 1.1710134344e+00
 8.4879528062e-01	 1.1647104700e+00	 1.4679144703e+00
 8.3747776019e-01	 1.1728746636e+00	 1.6903168978e+00
 8.2609088398e-01	 1.1809224780e+00	 1.8399623390e+00
 8.1463643115e-01	 1.1888530631e+00	 1.9192738150e+00
 8.0311619394e-01	 1.1966656050e+00	 1.9313423338e+00
 7.9153197674e-01	 1.2043593259e+00	 1.8799129540e+00
 7.7988559522e-01	 1.2119334843e+00	 1.7693703632e+00
 7.6817887538e-01	 1.2193873752e+00	 1.6047240035e+00
 7.5641365271e-01	 1.2267203306e+00	 1.3915927814e+00
 7.4459177121e-01	 1.2339317191e+00	 1.1361893925e+00
 6.9899951150e-01	 1.1583765792e+00	 1.6184848204e-01
 6.8785004713e-01	 1.1650317246e+00	 1.5602426004e-01
 6.7665087737e-01	 1.1715716669e+00	 1.6560469853e-01
 6.6540375352e-01	 1.1779959194e+00	 1.8891857286e-01
 6.5411043145e-01	 1.1843040300e+00	 2.2434490474e-01
 6.4277267076e-01	 1.1904955813e+00	 2.7032047756e-01
 6.3139223392e-01	 1.1965701906e+00	 3.2534703882e-01
 6.1997088548e-01	 1.2025275101e+00	 3.8799816778e-01
 6.0851039118e-01	 1.2083672264e+00	 4.5692578846e-01
 5.9701251716e-01	 1.2140890607e+00	 5.3086631078e-01
 5.8547902912e-01	 1.2196927683e+00	 6.0864638455e-01
 7.0355873747e-01	 1.1659320932e+00	 2.2716705303e-01
 6.9233655070e-01	 1.1726306468e+00	 1.8985404289e-01
 6.8106433433e-01	 1.1792132459e+00	 1.7027390546e-01
 6.6974385108e-01	 1.1856794006e+00	 1.6681195253e-01
 6.5837686829e-01	 1.1920286558e+00	 1.7797567658e-01
 6.4696515702e-01	 1.1982605915e+00	 2.0240148026e-01
 6.3551049127e-01	 1.2043748225e+00	 2.3886099269e-01
 6.2401464705e-01	 1.2103709987e+00	 2.8626695301e-01
 6.1247940165e-01	 1.2162488045e+00	 3.4367864376e-01
 6.0090653272e-01	 1.2220079594e+00	 4.1030685938e-01
 5.8929781748e-01	 1.2276482172e+00	 4.8551839749e-01
 7.0811796344e-01	 1.1734876072e+00	 3.1903855072e-01
 6.9682305426e-01	 1.1802295689e+00	 2.4231439042e-01
 6.8547779128e-01	 1.1868548249e+00	 1.8676448891e-01
 6.7408394864e-01	 1.1933628818e+00	 1.5091218489e-01
 6.6264330513e-01	 1.1997532817e+00	 1.3344449139e-01
 6.5115764329e-01	 1.2060256018e+00	 1.3321830837e-01
 6.3962874861e-01	 1.2121794544e+00	 1.4926616037e-01
 6.2805840862e-01	 1.2182144872e+00	 1.8080144070e-01
 6.1644841212e-01	 1.2241303826e+00	 2.2722314628e-01
 6.0480054828e-01	 1.2299268582e+00	 2.8812008984e-01
 5.9311660583e-01	 1.2356036662e+00	 3.6327457891e-01
 7.1267718941e-01	 1.1810431212e+00	 4.2984514647e-01
 7.0130955782e-01	 1.1878284911e+00	 3.0942448049e-01
 6.8989124823e-01	 1.1944964038e+00	 2.1420243470e-01
 6.7842404620e-01	 1.2010463630e+00	 1.4292213612e-01
 6.6690974197e-01	 1.2074779075e+00	 9.4501830110e-02
 6.5535012956e-01	 1.2137906120e+00	 6.8040841973e-02
 6.4374700595e-01	 1.2199840863e+00	 6.2825039598e-02
 6.3210217019e-01	 1.2260579757e+00	 7.8331779033e-02
 6.2041742259e-01	 1.2320119607e+00	 1.1423431736e-01
 6.0869456383e-01	 1.2378457570e+00	 1.7040568015e-01
 5.9693539419e-01	 1.2435591152e+00	 2.4692197344e-01
 7.1723641538e-01	 1.1885986352e+00	 5.5216714966e-01
 7.0579606139e-01	 1.1954274133e+00	 3.8730934544e-01
 6.9430470518e-01	 1.2021379828e+00	 2.5174076463e-01
 6.8276414376e-01	 1.2087298441e+00	 1.4450634653e-01
 6.7117617881e-01	 1.2152025334e+00	 6.4807924649e-02
 6.5954261583e-01	 1.2215556223e+00	 1.2010199771e-02
 6.4786526330e-01	 1.2277887182e+00	-1.4353772202e-02
 6.3614593177e-01	 1.2339014643e+00	-1.4577596651e-02
 6.2438643306e-01	 1.2398935388e+00	 1.1222923000e-02
 6.1258857939e-01	 1.2457646558e+00	 6.3113714811e-02
 6.0075418255e-01	 1.2515145641e+00	 1.4134582360e-01
 7.2179564136e-01	 1.1961541492e+00	 6.7877680396e-01
 7.1028256495e-01	 1.2030263355e+00	 4.7219659429e-01
 6.9871816214e-01	 1.2097795618e+00	 2.9855875874e-01
 6.8710424132e-01	 1.2164133253e+00	 1.5729232746e-01
 6.7544261565e-01	 1.2229271592e+00	 4.7935704301e-02
 6.6373510210e-01	 1.2293206325e+00	-2.9857089086e-02
 6.5198352064e-01	 1.2355933501e+00	-7.6310603726e-02
 6.4018969334e-01	 1.2417449528e+00	-9.1522608811e-02
 6.2835544353e-01	 1.2477751169e+00	-7.5459210031e-02
 6.1648259495e-01	 1.2536835545e+00	-2.7950455680e-02
 6.0457297090e-01	 1.2594700131e+00	 5.1313557300e-02
 7.2635486733e-01	 1.2037096631e+00	 8.0263231584e-01
 7.1476906852e-01	 1.2106252577e+00	 5.6041325721e-01
 7.0313161909e-01	 1.2174211408e+00	 3.5386120597e-01
 6.9144433889e-01	 1.2240968065e+00	 1.8287180846e-01
 6.7970905249e-01	 1.2306517850e+00	 4.7373630559e-02
 6.6792758837e-01	 1.2370856428e+00	-5.2665070807e-02
 6.5610177798e-01	 1.2433979820e+00	-1.1722992327e-01
 6.4423345491e-01	 1.2495884413e+00	-1.4625438453e-01
 6.3232445400e-01	 1.2556566950e+00	-1.3961407830e-01
 6.2037661051e-01	 1.2616024533e+00	-9.7121538224e-02
 6.0839175926e-01	 1.2674254621e+00	-1.8521374564e-02
 7.3091409330e-01	 1.2112651771e+00	 9.1687210531e-01
 7.1925557208e-01	 1.2182241799e+00	 6.4838274693e-01
 7.0754507604e-01	 1.2250627197e+00	 4.1687768185e-01
 6.9578443645e-01	 1.2317802877e+00	 2.2280193709e-01
 6.8397548933e-01	 1.2383764109e+00	 6.6528425228e-02
 6.7212007464e-01	 1.2448506530e+00	-5.1634503425e-02
 6.6022003533e-01	 1.2512026139e+00	-1.3143573161e-01
 6.4827721648e-01	 1.2574319299e+00	-1.7267429531e-01
 6.3629346447e-01	 1.2635382731e+00	-1.7519257732e-01
 6.2427062607e-01	 1.2695213521e+00	-1.3886979544e-01
 6.1221054762e-01	 1.2753809110e+00	-6.3615803884e-02
 7.3547331927e-01	 1.2188206911e+00	 1.0148092692e+00
 7.2374207564e-01	 1.2258231020e+00	 7.3262193208e-01
 7.1195853299e-01	 1.2327042987e+00	 4.8686185210e-01
 7.0012453401e-01	 1.2394637688e+00	 2.7860643328e-01
 6.8824192617e-01	 1.2461010367e+00	 1.0872769645e-01
 6.7631256091e-01	 1.2526156633e+00	-2.2099137415e-02
 6.6433829267e-01	 1.2590072458e+00	-1.1338712657e-01
 6.5232097805e-01	 1.2652754184e+00	-1.6482918155e-01
 6.4026247494e-01	 1.2714198512e+00	-1.7628976028e-01
 6.2816464163e-01	 1.2774402508e+00	-1.4779671126e-01
 6.1602933597e-01	 1.2833363600e+00	-7.9533288286e-02
 7.4003254524e-01	 1.2263762051e+00	 1.0899262475e+00
 7.2822857921e-01	 1.2334220242e+00	 8.0973831753e-01
 7.1637198995e-01	 1.2403458777e+00	 5.6309080108e-01
 7.0446463157e-01	 1.2471472500e+00	 3.5177670026e-01
 6.9250836301e-01	 1.2538256626e+00	 1.7722246708e-01
 6.8050504718e-01	 1.2603806735e+00	 4.0497865762e-02
 6.6845655001e-01	 1.2668118777e+00	-5.7674031817e-02
 6.5636473962e-01	 1.2731189069e+00	-1.1690675366e-01
 6.4423148541e-01	 1.2793014293e+00	-1.3714027206e-01
 6.3205865719e-01	 1.2853591496e+00	-1.1863081665e-01
 6.1984812433e-01	 1.2912918090e+00	-6.1940685300e-02
 7.4459177121e-01	 1.2339317191e+00	 1.1361893925e+00
 7.3271508277e-01	 1.2410209464e+00	 8.7642732726e-01
 7.2078544690e-01	 1.2479874567e+00	 6.4486438392e-01
 7.0880472913e-01	 1.2548307312e+00	 4.4377289388e-01
 6.9677479985e-01	 1.2615502884e+00	 2.7518960954e-01
 6.8469753345e-01	 1.2681456837e+00	 1.4060738310e-01
 6.7257480735e-01	 1.2746165096e+00	 4.0986917184e-02
 6.6040850119e-01	 1.2809623955e+00	-2.3231162235e-02
 6.4820049588e-01	 1.2871830074e+00	-5.2113951029e-02
 6.3595267275e-01	 1.2932780484e+00	-4.6223668565e-02
 6.2366691268e-01	 1.2992472579e+00	-6.6048521496e-03
 5.8547902912e-01	 1.2196927683e+00	 6.0864638455e-01
 5.7390972211e-01	 1.2251790613e+00	 6.8134167387e-01
 5.6230831678e-01	 1.2305467998e+00	 7.4180545083e-01
 5.5067657307e-01	 1.2357958404e+00	 7.9169295297e-01
 5.3901624731e-01	 1.2409260734e+00	 8.3272714004e-01
 5.2732909147e-01	 1.2459374222e+00	 8.6669845577e-01
 5.1561685237e-01	 1.2508298437e+00	 8.9546428477e-01
 5.0388127097e-01	 1.2556033274e+00	 9.2094810919e-01
 4.9212408161e-01	 1.2602578954e+00	 9.4513837192e-01
 4.8034701128e-01	 1.2647936020e+00	 9.7008705435e-01
 4.6855177891e-01	 1.2692105336e+00	 9.9790797846e-01
 5.8929781748e-01	 1.2276482172e+00	 4.8551839749e-01
 5.7765304963e-01	 1.2331702946e+00	 5.6007733074e-01
 5.6597597411e-01	 1.2385730442e+00	 6.2570373813e-01
 5.5426836232e-01	 1.2438563217e+00	 6.8338345509e-01
 5.4253198206e-01	 1.2490200166e+00	 7.3413697988e-01
 5.3076859672e-01	 1.2540640520e+00	 7.7902070310e-01
 5.1897996451e-01	 1.2589883843e+00	 8.1912784386e-01
 5.0716783776e-01	 1.2637930031e+00	 8.5558909499e-01
 4.9533396210e-01	 1.2684779305e+00	 8.8957298160e-01
 4.8348007580e-01	 1.2730432213e+00	 9.2228593874e-01
 4.7160790899e-01	 1.2774889623e+00	 9.5497211572e-01
 5.9311660583e-01	 1.2356036662e+00	 3.6327457891e-01
 5.8139637715e-01	 1.2411615279e+00	 4.4223518812e-01
 5.6964363144e-01	 1.2465992886e+00	 5.1481334639e-01
 5.5786015158e-01	 1.2519168030e+00	 5.8138208212e-01
 5.4604771681e-01	 1.2571139599e+00	 6.4232649320e-01
 5.3420810196e-01	 1.2621906818e+00	 6.9804621405e-01
 5.2234307665e-01	 1.2671469249e+00	 7.4895758979e-01
 5.1045440454e-01	 1.2719826787e+00	 7.9549555823e-01
 4.9854384259e-01	 1.2766979656e+00	 8.3811524220e-01
 4.8661314031e-01	 1.2812928405e+00	 8.7729325616e-01
 4.7466403908e-01	 1.2857673910e+00	 9.1352873314e-01
 5.9693539419e-01	 1.2435591152e+00	 2.4692197344e-01
 5.8513970467e-01	 1.2491527612e+00	 3.3157156452e-01
 5.7331128877e-01	 1.2546255330e+00	 4.1183816319e-01
 5.6145194083e-01	 1.2599772843e+00	 4.8753678327e-01
 5.4956345156e-01	 1.2652079031e+00	 5.5848225318e-01
 5.3764760721e-01	 1.2703173116e+00	 6.2449269285e-01
 5.2570618879e-01	 1.2753054656e+00	 6.8539268745e-01
 5.1374097132e-01	 1.2801723544e+00	 7.4101615746e-01
 5.0175372308e-01	 1.2849180007e+00	 7.9120892600e-01
 4.8974620483e-01	 1.2895424598e+00	 8.3583098666e-01
 4.7772016917e-01	 1.2940458197e+00	 8.7475847647e-01
 6.0075418255e-01	 1.2515145641e+00	 1.4134582360e-01
 5.8888303220e-01	 1.2571439946e+00	 2.3175276379e-01
 5.7697894610e-01	 1.2626517774e+00	 3.1941878303e-01
 5.6504373008e-01	 1.2680377656e+00	 4.0365391636e-01
 5.5307918632e-01	 1.2733018464e+00	 4.8376597253e-01
 5.4108711246e-01	 1.2784439414e+00	 5.5906479593e-01
 5.2906930094e-01	 1.2834640062e+00	 6.2886620431e-01
 5.1702753811e-01	 1.2883620301e+00	 6.9249560073e-01
 5.0496360357e-01	 1.2931380358e+00	 7.4929126039e-01
 4.9287926935e-01	 1.2977920791e+00	 7.9860729468e-01
 4.8077629926e-01	 1.3023242484e+00	 8.3981629677e-01
 6.0457297090e-01	 1.2594700131e+00	 5.1313557300e-02
 5.9262635972e-01	 1.2651352279e+00	 1.4635806374e-01
 5.8064660343e-01	 1.2706780219e+00	 2.4013465642e-01
 5.6863551934e-01	 1.2760982469e+00	 3.3149971512e-01
 5.5659492107e-01	 1.2813957896e+00	 4.1931544534e-01
 5.4452661771e-01	 1.2865705712e+00	 5.0245470311e-01
 5.3243241308e-01	 1.2916225468e+00	 5.7980546360e-01
 5.2031410489e-01	 1.2965517058e+00	 6.5027493191e-01
 5.0817348406e-01	 1.3013580709e+00	 7.1279329637e-01
 4.9601233388e-01	 1.3060416983e+00	 7.6631712684e-01
 4.8383242935e-01	 1.3106026771e+00	 8.0983242248e-01
 6.0839175926e-01	 1.2674254621e+00	-1.8521374564e-02
 5.9636968725e-01	 1.2731264612e+00	 7.8882592571e-02
 5.8431426076e-01	 1.2787042663e+00	 1.7650615851e-01
 5.7222730859e-01	 1.2841587282e+00	 2.7280170189e-01
 5.6011065582e-01	 1.2894897329e+00	 3.6624545424e-01
 5.4796612296e-01	 1.2946972009e+00	 4.5534266789e-01
 5.3579552522e-01	 1.2997810874e+00	 5.3863238512e-01
 5.2360067168e-01	 1.3047413814e+00	 6.1469180724e-01
 5.1138336455e-01	 1.3095781060e+00	 6.8214026425e-01
 4.9914539840e-01	 1.3142913176e+00	 7.3964278828e-01
 4.8688855944e-01	 1.3188811058e+00	 7.8591329586e-01
 6.1221054762e-01	 1.2753809110e+00	-6.3615803884e-02
 6.0011301477e-01	 1.2811176945e+00	 3.2740098114e-02
 5.8798191809e-01	 1.2867305107e+00	 1.3099658071e-01
 5.7581909785e-01	 1.2922192095e+00	 2.2925004796e-01
 5.6362639057e-01	 1.2975836761e+00	 3.2564864423e-01
 5.5140562821e-01	 1.3028238307e+00	 4.1839754804e-01
 5.3915863737e-01	 1.3079396280e+00	 5.0576381403e-01
 5.2688723847e-01	 1.3129310571e+00	 5.8608076226e-01
 5.1459324504e-01	 1.3177981411e+00	 6.5775191693e-01
 5.0227846292e-01	 1.3225409368e+00	 7.1925449847e-01
 4.8994468953e-01	 1.3271595345e+00	 7.6914247552e-01
 6.1602933597e-01	 1.2833363600e+00	-7.9533288286e-02
 6.0385634229e-01	 1.2891089279e+00	 1.1265614325e-02
 5.9164957542e-01	 1.2947567551e+00	 1.0601404884e-01
 5.7941088710e-01	 1.3002796908e+00	 2.0249888396e-01
 5.6714212532e-01	 1.3056776194e+00	 2.9859636464e-01
 5.5484513347e-01	 1.3109504605e+00	 3.9227731715e-01
 5.4252174951e-01	 1.3160981686e+00	 4.8161183830e-01
 5.3017380525e-01	 1.3211207328e+00	 5.6477346988e-01
 5.1780312553e-01	 1.3260181762e+00	 6.4004286140e-01
 5.0541152744e-01	 1.3307905561e+00	 7.0581092728e-01
 4.9300081962e-01	 1.3354379633e+00	 7.6058150632e-01
 6.1984812433e-01	 1.2912918090e+00	-6.1940685300e-02
 6.0759966982e-01	 1.2971001612e+00	 1.7718029636e-02
 5.9531723275e-01	 1.3027829995e+00	 1.0391337070e-01
 5.8300267636e-01	 1.3083401721e+00	 1.9416756230e-01
 5.7065786008e-01	 1.3137715626e+00	 2.8613948076e-01
 5.5828463872e-01	 1.3190770903e+00	 3.7762955797e-01
 5.4588486165e-01	 1.3242567092e+00	 4.6658409522e-01
 5.3346037204e-01	 1.3293104084e+00	 5.5109898963e-01
 5.2101300602e-01	 1.3342382113e+00	 6.2942287892e-01
 5.0854459196e-01	 1.3390401754e+00	 6.9995971231e-01
 4.9605694971e-01	 1.3437163920e+00	 7.6127075825e-01
 6.2366691268e-01	 1.2992472579e+00	-6.6048521496e-03
 6.1134299734e-01	 1.3050913945e+00	 5.5282561300e-02
 5.9898489008e-01	 1.3108092439e+00	 1.2699781631e-01
 5.8659446561e-01	 1.3164006534e+00	 2.0584187388e-01
 5.7417359483e-01	 1.3218655059e+00	 2.8930915612e-01
 5.6172414397e-01	 1.3272037201e+00	 3.7509193847e-01
 5.4924797379e-01	 1.3324152499e+00	 4.6108406744e-01
 5.3674693882e-01	 1.3375000841e+00	 5.4538400880e-01
 5.2422288651e-01	 1.3424582464e+00	 6.2629723435e-01
 5.1167765648e-01	 1.3472897946e+00	 7.0233795813e-01
 4.9911307980e-01	 1.3519948207e+00	 7.7223023551e-01
 4.6855177891e-01	 1.2692105336e+00	 9.9790797846e-01
 4.5674210366e-01	 1.2735080872e+00	 1.0334892586e+00
 4.4491768149e-01	 1.2776871719e+00	 1.0774408171e+00
 4.3308020167e-01	 1.2817479665e+00	 1.1255014705e+00
 4.2123134272e-01	 1.2856906802e+00	 1.1734318698e+00
 4.0937277181e-01	 1.2895155522e+00	 1.2170209544e+00
 3.9750614411e-01	 1.2932228510e+00	 1.2520920834e+00
 3.8563310219e-01	 1.2968128745e+00	 1.2745088505e+00
 3.7375527545e-01	 1.3002859490e+00	 1.2801805862e+00
 3.6187427950e-01	 1.3036424289e+00	 1.2655838443e+00
 3.4999171566e-01	 1.3068826965e+00	 1.2283447761e+00
 4.7160790899e-01	 1.2774889623e+00	 9.5497211572e-01
 4.5972120511e-01	 1.2818145467e+00	 9.9131135561e-01
 4.4781965812e-01	 1.2860208895e+00	 1.0319663516e+00
 4.3590496831e-01	 1.2901081707e+00	 1.0736974390e+00
 4.2397882515e-01	 1.2940766007e+00	 1.1133099377e+00
 4.1204290668e-01	 1.2979264204e+00	 1.1476588496e+00
 4.0009887888e-01	 1.3016579001e+00	 1.1736532266e+00
 3.8814839502e-01	 1.3052713396e+00	 1.1882602188e+00
 3.7619309512e-01	 1.3087670672e+00	 1.1885088120e+00
 3.6423460535e-01	 1.3121454398e+00	 1.1717309821e+00
 3.5227453746e-01	 1.3154068420e+00	 1.1365955554e+00
 4.7466403908e-01	 1.2857673910e+00	 9.1352873314e-01
 4.6270030656e-01	 1.2901210062e+00	 9.4988950206e-01
 4.5072163475e-01	 1.2943546071e+00	 9.8751970952e-01
 4.3872973495e-01	 1.2984683748e+00	 1.0240761254e+00
 4.2672630758e-01	 1.3024625212e+00	 1.0572764640e+00
 4.1471304156e-01	 1.3063372887e+00	 1.0849026018e+00
 4.0269161364e-01	 1.3100929492e+00	 1.1048034645e+00
 3.9066368784e-01	 1.3137298046e+00	 1.1148975955e+00
 3.7863091479e-01	 1.3172481853e+00	 1.1131754151e+00
 3.6659493119e-01	 1.3206484506e+00	 1.0977795960e+00
 3.5455735925e-01	 1.3239309875e+00	 1.0681044476e+00
 4.7772016917e-01	 1.2940458197e+00	 8.7475847647e-01
 4.6567940802e-01	 1.2984274657e+00	 9.1087114194e-01
 4.5362361139e-01	 1.3026883247e+00	 9.4605477455e-01
 4.4155450159e-01	 1.3068285789e+00	 9.7874031995e-01
 4.2947379001e-01	 1.3108484417e+00	 1.0074285270e+00
 4.1738317643e-01	 1.3147481569e+00	 1.0306919610e+00
 4.0528434841e-01	 1.3185279984e+00	 1.0471766889e+00
 3.9317898066e-01	 1.3221882696e+00	 1.0556036482e+00
 3.8106873446e-01	 1.3257293035e+00	 1.0547697158e+00
 3.6895525704e-01	 1.3291514614e+00	 1.0435580748e+00
 3.5684018105e-01	 1.3324551329e+00	 1.0218334557e+00
 4.8077629926e-01	 1.3023242484e+00	 8.3981629677e-01
 4.6865850947e-01	 1.3067339252e+00	 8.7586591997e-01
 4.5652558802e-01	 1.3110220423e+00	 9.0947958646e-01
 4.4437926823e-01	 1.3151887831e+00	 9.3974291315e-01
 4.3222127244e-01	 1.3192343622e+00	 9.6581316642e-01
 4.2005331131e-01	 1.3231590251e+00	 9.8692034222e-01
 4.0787708318e-01	 1.3269630475e+00	 1.0023679236e+00
 3.9569427349e-01	 1.3306467347e+00	 1.0115333307e+00
 3.8350655413e-01	 1.3342104217e+00	 1.0138680797e+00
 3.7131558289e-01	 1.3376544722e+00	 1.0088976672e+00
 3.5912300284e-01	 1.3409792784e+00	 9.9677189997e-01
 4.8383242935e-01	 1.3106026771e+00	 8.0983242248e-01
 4.7163761093e-01	 1.3150403847e+00	 8.4644703440e-01
 4.5942756465e-01	 1.3193557599e+00	 8.7965794570e-01
 4.4720403488e-01	 1.3235489872e+00	 9.0908862627e-01
 4.3496875488e-01	 1.3276202827e+00	 9.3442911508e-01
 4.2272344618e-01	 1.3315698934e+00	 9.5543643495e-01
 4.1046981795e-01	 1.3353980966e+00	 9.7193469482e-01
 3.9820956631e-01	 1.3391051997e+00	 9.8381489595e-01
 3.8594437380e-01	 1.3426915399e+00	 9.9103445970e-01
 3.7367590874e-01	 1.3461574831e+00	 9.9361649499e-01
 3.6140582464e-01	 1.3495034239e+00	 9.9193583553e-01
 4.8688855944e-01	 1.3188811058e+00	 7.8591329586e-01
 4.7461671238e-01	 1.3233468443e+00	 8.2415253991e-01
 4.6232954129e-01	 1.3276894775e+00	 8.5841095874e-01
 4.5002880152e-01	 1.3319091914e+00	 8.8873567710e-01
 4.3771623731e-01	 1.3360062032e+00	 9.1522846556e-01
 4.2539358106e-01	 1.3399807616e+00	 9.3804575483e-01
 4.1306255272e-01	 1.3438331457e+00	 9.5739835154e-01
 4.0072485914e-01	 1.3475636648e+00	 9.7355087302e-01
 3.8838219348e-01	 1.3511726581e+00	 9.8682091936e-01
 3.7603623458e-01	 1.3546604939e+00	 9.9757800187e-01
 3.6368864644e-01	 1.3580275694e+00	 1.0063674994e+00
 4.8994468953e-01	 1.3271595345e+00	 7.6914247552e-01
 4.7759581384e-01	 1.3316533038e+00	 8.1048660276e-01
 4.6523151792e-01	 1.3360231951e+00	 8.4751852667e-01
 4.5285356817e-01	 1.3402693955e+00	 8.8059738478e-01
 4.4046371974e-01	 1.3443921237e+00	 9.1011827626e-01
 4.2806371594e-01	 1.3483916299e+00	 9.3651213745e-01
 4.1565528749e-01	 1.3522681948e+00	 9.6024533693e-01
 4.0324015197e-01	 1.3560221298e+00	 9.8181900803e-01
 3.9082001315e-01	 1.3596537762e+00	 1.0017681375e+00
 3.7839656043e-01	 1.3631635047e+00	 1.0206604294e+00
 3.6597146823e-01	 1.3665517149e+00	 1.0391347845e+00
 4.9300081962e-01	 1.3354379633e+00	 7.6058150632e-01
 4.8057491529e-01	 1.3399597633e+00	 8.0692071048e-01
 4.6813349455e-01	 1.3443569127e+00	 8.4872077960e-01
 4.5567833481e-01	 1.3486295997e+00	 8.8654371608e-01
 4.4321120218e-01	 1.3527780442e+00	 9.2096211868e-01
 4.3073385081e-01	 1.3568024981e+00	 9.5255917810e-01
 4.1824802226e-01	 1.3607032439e+00	 9.8192841403e-01
 4.0575544479e-01	 1.3644805948e+00	 1.0096731715e+00
 3.9325783282e-01	 1.3681348944e+00	 1.0364058950e+00
 3.8075688628e-01	 1.3716665155e+00	 1.0627472002e+00
 3.6825429003e-01	 1.3750758603e+00	 1.0893307398e+00
 4.9605694971e-01	 1.3437163920e+00	 7.6127075825e-01
 4.8355401675e-01	 1.3482662228e+00	 8.1489483778e-01
 4.7103547119e-01	 1.3526906303e+00	 8.6371945908e-01
 4.5850310145e-01	 1.3569898038e+00	 9.0840277555e-01
 4.4595868461e-01	 1.3611639648e+00	 9.4958156865e-01
 4.3340398569e-01	 1.3652133663e+00	 9.8787161944e-01
 4.2084075703e-01	 1.3691382930e+00	 1.0238678473e+00
 4.0827073762e-01	 1.3729390599e+00	 1.0581442331e+00
 3.9569565249e-01	 1.3766160126e+00	 1.0912535454e+00
 3.8311721213e-01	 1.3801695264e+00	 1.1237268874e+00
 3.7053711183e-01	 1.3836000058e+00	 1.1560730857e+00
 4.9911307980e-01	 1.3519948207e+00	 7.7223023551e-01
 4.8653311820e-01	 1.3565726823e+00	 8.3581857077e-01
 4.7393744782e-01	 1.3610243479e+00	 8.9417925090e-01
 4.6132786810e-01	 1.3653500079e+00	 9.4796224216e-01
 4.4870616704e-01	 1.3695498853e+00	 9.9775764397e-01
 4.3607412057e-01	 1.3736242346e+00	 1.0440966892e+00
 4.2343349180e-01	 1.3775733421e+00	 1.0874525416e+00
 4.1078603044e-01	 1.3813975249e+00	 1.1282409058e+00
 3.9813347216e-01	 1.3850971308e+00	 1.1668204684e+00
 3.8547753797e-01	 1.3886725372e+00	 1.2034931867e+00
 3.7281993362e-01	 1.3921241513e+00	 1.2385044438e+00
 3.4999171566e-01	 1.3068826965e+00	 1.2283447761e+00
 3.3810917055e-01	 1.3100071613e+00	 1.1760720202e+00
 3.2622821604e-01	 1.3130162608e+00	 1.1201028879e+00
 3.1435040825e-01	 1.3159104587e+00	 1.0625462675e+00
 3.0247728689e-01	 1.3186902446e+00	 1.0054028840e+00
 2.9061037479e-01	 1.3213561328e+00	 9.5056216997e-01
 2.7875117746e-01	 1.3239086624e+00	 8.9979953555e-01
 2.6690118266e-01	 1.3263483964e+00	 8.5477403165e-01
 2.5506185996e-01	 1.3286759212e+00	 8.1702639482e-01
 2.4323466039e-01	 1.3308918460e+00	 7.8797746268e-01
 2.3142101602e-01	 1.3329968024e+00	 7.6892694711e-01
 3.5227453746e-01	 1.3154068420e+00	 1.1365955554e+00
 3.4031448841e-01	 1.3185516861e+00	 1.0901571164e+00
 3.2835604035e-01	 1.3215804125e+00	 1.0419618485e+00
 3.1640075953e-01	 1.3244934878e+00	 9.9359881701e-01
 3.0445019571e-01	 1.3272914048e+00	 9.4652825698e-01
 2.9250588165e-01	 1.3299746813e+00	 9.0207949198e-01
 2.8056933268e-01	 1.3325438597e+00	 8.6144926906e-01
 2.6864204626e-01	 1.3349995069e+00	 8.2570049925e-01
 2.5672550155e-01	 1.3373422130e+00	 7.9576139118e-01
 2.4482115904e-01	 1.3395725912e+00	 7.7242496396e-01
 2.3293046015e-01	 1.3416912772e+00	 7.5634892448e-01
 3.5455735925e-01	 1.3239309875e+00	 1.0681044476e+00
 3.4251980628e-01	 1.3270962110e+00	 1.0301512632e+00
 3.3048386466e-01	 1.3301445641e+00	 9.9130032786e-01
 3.1845111081e-01	 1.3330765169e+00	 9.5267141756e-01
 3.0642310453e-01	 1.3358925650e+00	 9.1524392684e-01
 2.9440138850e-01	 1.3385932298e+00	 8.7985558931e-01
 2.8238748789e-01	 1.3411790571e+00	 8.4720162445e-01
 2.7038290985e-01	 1.3436506175e+00	 8.1783429761e-01
 2.5838914313e-01	 1.3460085048e+00	 7.9216287926e-01
 2.4640765769e-01	 1.3482533364e+00	 7.7045398779e-01
 2.3443990427e-01	 1.3503857520e+00	 7.5283229916e-01
 3.5684018105e-01	 1.3324551329e+00	 1.0218334557e+00
 3.4472512415e-01	 1.3356407358e+00	 9.9418102261e-01
 3.3261168897e-01	 1.3387087158e+00	 9.6560283665e-01
 3.2050146209e-01	 1.3416595460e+00	 9.3679834164e-01
 3.0839601335e-01	 1.3444937253e+00	 9.0832404760e-01
 2.9629689536e-01	 1.3472117783e+00	 8.8059281001e-01
 2.8420564311e-01	 1.3498142545e+00	 8.5387353866e-01
 2.7212377345e-01	 1.3523017280e+00	 8.2829132226e-01
 2.6005278472e-01	 1.3546747967e+00	 8.0382795333e-01
 2.4799415633e-01	 1.3569340817e+00	 7.8032283654e-01
 2.3594934840e-01	 1.3590802268e+00	 7.5747426242e-01
 3.5912300284e-01	 1.3409792784e+00	 9.9677189997e-01
 3.4693044202e-01	 1.3441852606e+00	 9.8042083920e-01
 3.3473951329e-01	 1.3472728675e+00	 9.6241746885e-01
 3.2255181338e-01	 1.3502425751e+00	 9.4308832125e-01
 3.1036892217e-01	 1.3530948855e+00	 9.2262332828e-01
 2.9819240222e-01	 1.3558303268e+00	 9.0107541832e-01
 2.8602379832e-01	 1.3584494519e+00	 8.7836054065e-01
 2.7386463704e-01	 1.3609528386e+00	 8.5425810261e-01
 2.6171642630e-01	 1.3633410885e+00	 8.2841180331e-01
 2.4958065498e-01	 1.3656148269e+00	 8.0033084627e-01
 2.3745879252e-01	 1.3677747016e+00	 7.6939151195e-01
 3.6140582464e-01	 1.3495034239e+00	 9.9193583553e-01
 3.4913575988e-01	 1.3527297854e+00	 9.8709177877e-01
 3.3686733760e-01	 1.3558370191e+00	 9.7935411537e-01
 3.2460216466e-01	 1.3588256041e+00	 9.6872239077e-01
 3.1234183099e-01	 1.3616960458e+00	 9.5507465759e-01
 3.0008790908e-01	 1.3644488753e+00	 9.3816715231e-01
 2.8784195354e-01	 1.3670846493e+00	 9.1763439149e-01
 2.7560550064e-01	 1.3696039491e+00	 8.9298967245e-01
 2.6338006789e-01	 1.3720073804e+00	 8.6362596197e-01
 2.5116715363e-01	 1.3742955721e+00	 8.2881715489e-01
 2.3896823664e-01	 1.3764691764e+00	 7.8771968356e-01
 3.6368864644e-01	 1.3580275694e+00	 1.0063674994e+00
 3.5134107775e-01	 1.3612743102e+00	 1.0124603201e+00
 3.3899516191e-01	 1.3644011708e+00	 1.0140827508e+00
 3.2665251595e-01	 1.3674086332e+00	 1.0109518166e+00
 3.1431473981e-01	 1.3702972060e+00	 1.0026868232e+00
 3.0198341594e-01	 1.3730674238e+00	 9.8880887818e-01
 2.8966010875e-01	 1.3757198467e+00	 9.6874081763e-01
 2.7734636423e-01	 1.3782550597e+00	 9.4180752456e-01
 2.6504370947e-01	 1.3806736722e+00	 9.0723662149e-01
 2.5275365228e-01	 1.3829763173e+00	 8.6415951986e-01
 2.4047768077e-01	 1.3851636512e+00	 8.1161280723e-01
 3.6597146823e-01	 1.3665517149e+00	 1.0391347845e+00
 3.5354639562e-01	 1.3698188350e+00	 1.0548371988e+00
 3.4112298623e-01	 1.3729653225e+00	 1.0643317900e+00
 3.2870286723e-01	 1.3759916623e+00	 1.0670961094e+00
 3.1628764863e-01	 1.3788983662e+00	 1.0625423213e+00
 3.0387892280e-01	 1.3816859723e+00	 1.0500163368e+00
 2.9147826397e-01	 1.3843550441e+00	 1.0287973331e+00
 2.7908722783e-01	 1.3869061703e+00	 9.9809764558e-01
 2.6670735106e-01	 1.3893399641e+00	 9.5706301655e-01
 2.5434015092e-01	 1.3916570625e+00	 9.0477318316e-01
 2.4198712489e-01	 1.3938581260e+00	 8.4024278614e-01
 3.6825429003e-01	 1.3750758603e+00	 1.0893307398e+00
 3.5575171349e-01	 1.3783633598e+00	 1.1125762995e+00
 3.4325081054e-01	 1.3815294741e+00	 1.1278865120e+00
 3.3075321851e-01	 1.3845746914e+00	 1.1345411162e+00
 3.1826055745e-01	 1.3874995265e+00	 1.1317952525e+00
 3.0577442965e-01	 1.3903045208e+00	 1.1188779788e+00
 2.9329641918e-01	 1.3929902414e+00	 1.0949911469e+00
 2.8082809143e-01	 1.3955572808e+00	 1.0593086277e+00
 2.6837099264e-01	 1.3980062559e+00	 1.0109758709e+00
 2.5592664957e-01	 1.4003378077e+00	 9.4910978169e-01
 2.4349656902e-01	 1.4025526008e+00	 8.7279889801e-01
 3.7053711183e-01	 1.3836000058e+00	 1.1560730857e+00
 3.5795703135e-01	 1.3869078846e+00	 1.1840735966e+00
 3.4537863485e-01	 1.3900936258e+00	 1.2025875473e+00
 3.3280356980e-01	 1.3931577205e+00	 1.2107371874e+00
 3.2023346627e-01	 1.3961006867e+00	 1.2076693002e+00
 3.0766993651e-01	 1.3989230693e+00	 1.1925528837e+00
 2.9511457440e-01	 1.4016254388e+00	 1.1645771516e+00
 2.8256895502e-01	 1.4042083914e+00	 1.1229498540e+00
 2.7003463423e-01	 1.4066725477e+00	 1.0668959048e+00
 2.5751314822e-01	 1.4090185530e+00	 9.9565630088e-01
 2.4500601314e-01	 1.4112470756e+00	 9.0848731749e-01
 3.7281993362e-01	 1.3921241513e+00	 1.2385044438e+00
 3.6016234922e-01	 1.3954524094e+00	 1.2677661383e+00
 3.4750645917e-01	 1.3986577775e+00	 1.2863294268e+00
 3.3485392108e-01	 1.4017407496e+00	 1.2931974175e+00
 3.2220637509e-01	 1.4047018470e+00	 1.2874557886e+00
 3.0956544337e-01	 1.4075416178e+00	 1.2682687603e+00
 2.9693272962e-01	 1.4102606362e+00	 1.2348759904e+00
 2.8430981862e-01	 1.4128595019e+00	 1.1865897542e+00
 2.7169827581e-01	 1.4153388396e+00	 1.1227924006e+00
 2.5909964687e-01	 1.4176992982e+00	 1.0429340699e+00
 2.4651545727e-01	 1.4199415504e+00	 9.4653065894e-01
 2.3142101602e-01	 1.3329968024e+00	 7.6892694711e-01
 2.1962033562e-01	 1.3349917732e+00	 7.5711318262e-01
 2.0783602525e-01	 1.3368770650e+00	 7.4888300862e-01
 1.9606946182e-01	 1.3386533721e+00	 7.4416857400e-01
 1.8432200193e-01	 1.3403214086e+00	 7.4299040629e-01
 1.7259498153e-01	 1.3418819083e+00	 7.4545453675e-01
 1.6088971569e-01	 1.3433356234e+00	 7.5174969743e-01
 1.4920749834e-01	 1.3446833246e+00	 7.6214458220e-01
 1.3754960206e-01	 1.3459258001e+00	 7.7698516393e-01
 1.2591727781e-01	 1.3470638551e+00	 7.9669205953e-01
 1.1431175480e-01	 1.3480983111e+00	 8.2175793496e-01
 2.3293046015e-01	 1.3416912772e+00	 7.5634892448e-01
 2.2105280978e-01	 1.3436992602e+00	 7.4647324593e-01
 2.0919163622e-01	 1.3455968489e+00	 7.4105031833e-01
 1.9734832535e-01	 1.3473847419e+00	 7.3968728174e-01
 1.8552424262e-01	 1.3490636582e+00	 7.4210673176e-01
 1.7372073270e-01	 1.3506343362e+00	 7.4814367821e-01
 1.6193911924e-01	 1.3520975332e+00	 7.5774255221e-01
 1.5018070460e-01	 1.3534540248e+00	 7.7095425385e-01
 1.3844676966e-01	 1.3547046043e+00	 7.8793323304e-01
 1.2673857355e-01	 1.3558500822e+00	 8.0893459569e-01
 1.1505735349e-01	 1.3568912855e+00	 8.3431122752e-01
 2.3443990427e-01	 1.3503857520e+00	 7.5283229916e-01
 2.2248528394e-01	 1.3524067472e+00	 7.4040834512e-01
 2.1054724718e-01	 1.3543166327e+00	 7.3380776840e-01
 1.9862718888e-01	 1.3561161117e+00	 7.3241582390e-01
 1.8672648332e-01	 1.3578059078e+00	 7.3575086056e-01
 1.7484648388e-01	 1.3593867641e+00	 7.4346120655e-01
 1.6298852279e-01	 1.3608594430e+00	 7.5532208895e-01
 1.5115391087e-01	 1.3622247249e+00	 7.7123258014e-01
 1.3934393727e-01	 1.3634834085e+00	 7.9121256329e-01
 1.2755986929e-01	 1.3646363094e+00	 8.1539970902e-01
 1.1580295218e-01	 1.3656842599e+00	 8.4404645576e-01
 2.3594934840e-01	 1.3590802268e+00	 7.5747426242e-01
 2.2391775810e-01	 1.3611142342e+00	 7.3885864501e-01
 2.1190285815e-01	 1.3630364165e+00	 7.2776933039e-01
 1.9990605241e-01	 1.3648474815e+00	 7.2347148954e-01
 1.8792872401e-01	 1.3665481573e+00	 7.2537170400e-01
 1.7597223506e-01	 1.3681391920e+00	 7.3301486955e-01
 1.6403792634e-01	 1.3696213527e+00	 7.4608113004e-01
 1.5212711713e-01	 1.3709954251e+00	 7.6438283337e-01
 1.4024110487e-01	 1.3722622128e+00	 7.8786150130e-01
 1.2838116504e-01	 1.3734225366e+00	 8.1658480494e-01
 1.1654855087e-01	 1.3744772344e+00	 8.5074353761e-01
 2.3745879252e-01	 1.3677747016e+00	 7.6939151195e-01
 2.2535023226e-01	 1.3698217213e+00	 7.4176223731e-01
 2.1325846911e-01	 1.3717562003e+00	 7.2352967521e-01
 2.0118491594e-01	 1.3735788513e+00	 7.1393942381e-01
 1.8913096471e-01	 1.3752904069e+00	 7.1237759986e-01
 1.7709798623e-01	 1.3768916200e+00	 7.1836785160e-01
 1.6508732990e-01	 1.3783832625e+00	 7.3156840745e-01
 1.5310032339e-01	 1.3797661253e+00	 7.5176915125e-01
 1.4113827248e-01	 1.3810410170e+00	 7.7888871506e-01
 1.2920246078e-01	 1.3822087638e+00	 8.1297158025e-01
 1.1729414957e-01	 1.3832702088e+00	 8.5418517787e-01
 2.3896823664e-01	 1.3764691764e+00	 7.8771968356e-01
 2.2678270641e-01	 1.3785292083e+00	 7.4905523916e-01
 2.1461408008e-01	 1.3804759842e+00	 7.2166480245e-01
 2.0246377947e-01	 1.3823102211e+00	 7.0487365125e-01
 1.9033320540e-01	 1.3840326565e+00	 6.9813759160e-01
 1.7822373741e-01	 1.3856440479e+00	 7.0104017004e-01
 1.6613673345e-01	 1.3871451723e+00	 7.1328993666e-01
 1.5407352965e-01	 1.3885368255e+00	 7.3471774833e-01
 1.4203544009e-01	 1.3898198212e+00	 7.6527410185e-01
 1.3002375653e-01	 1.3909949910e+00	 8.0502648644e-01
 1.1803974826e-01	 1.3920631832e+00	 8.5415674512e-01
 2.4047768077e-01	 1.3851636512e+00	 8.1161280723e-01
 2.2821518057e-01	 1.3872366953e+00	 7.6067189044e-01
 2.1596969105e-01	 1.3891957680e+00	 7.2273264833e-01
 2.0374264300e-01	 1.3910415909e+00	 6.9729806242e-01
 1.9153544609e-01	 1.3927749060e+00	 6.8398266109e-01
 1.7934948858e-01	 1.3943964758e+00	 6.8251002047e-01
 1.6718613700e-01	 1.3959070821e+00	 6.9271034027e-01
 1.5504673591e-01	 1.3973075256e+00	 7.1451808287e-01
 1.4293260769e-01	 1.3985986254e+00	 7.4796966306e-01
 1.3084505227e-01	 1.3997812182e+00	 7.9320117638e-01
 1.1878534695e-01	 1.4008561577e+00	 8.5044615404e-01
 2.4198712489e-01	 1.3938581260e+00	 8.4024278614e-01
 2.2964765473e-01	 1.3959441823e+00	 7.7654464998e-01
 2.1732530201e-01	 1.3979155518e+00	 7.2727367308e-01
 2.0502150652e-01	 1.3997729606e+00	 6.9220736565e-01
 1.9273768679e-01	 1.4015171556e+00	 6.7120691700e-01
 1.8047523976e-01	 1.4031489038e+00	 6.6421507312e-01
 1.6823554055e-01	 1.4046689919e+00	 6.7125412322e-01
 1.5601994218e-01	 1.4060782258e+00	 6.9242398114e-01
 1.4382977530e-01	 1.4073774296e+00	 7.2790034703e-01
 1.3166634801e-01	 1.4085674454e+00	 7.7793293501e-01
 1.1953094565e-01	 1.4096491321e+00	 8.4284375263e-01
 2.4349656902e-01	 1.4025526008e+00	 8.7279889801e-01
 2.3108012889e-01	 1.4046516693e+00	 7.9660429066e-01
 2.1868091298e-01	 1.4066353356e+00	 7.3581142866e-01
 2.0630037005e-01	 1.4085043304e+00	 6.9056800534e-01
 1.9393992748e-01	 1.4102594052e+00	 6.6106874058e-01
 1.8160099093e-01	 1.4119013317e+00	 6.4755372259e-01
 1.6928494410e-01	 1.4134309017e+00	 6.5030690194e-01
 1.5699314844e-01	 1.4148489260e+00	 6.6965472096e-01
 1.4472694290e-01	 1.4161562339e+00	 7.0596486160e-01
 1.3248764376e-01	 1.4173536725e+00	 7.5964509476e-01
 1.2027654434e-01	 1.4184421065e+00	 8.3114221431e-01
 2.4500601314e-01	 1.4112470756e+00	 9.0848731749e-01
 2.3251260305e-01	 1.4133591563e+00	 8.2077999341e-01
 2.2003652394e-01	 1.4153551195e+00	 7.4885310767e-01
 2.0757923358e-01	 1.4172357002e+00	 6.9331904812e-01
 1.9514216818e-01	 1.4190016547e+00	 6.5479189083e-01
 1.8272674211e-01	 1.4206537596e+00	 6.3388629280e-01
 1.7033434766e-01	 1.4221928115e+00	 6.3121658932e-01
 1.5796635470e-01	 1.4236196261e+00	 6.4739607631e-01
 1.4562411051e-01	 1.4249350381e+00	 6.8303645743e-01
 1.3330893950e-01	 1.4261398997e+00	 7.3874743644e-01
 1.2102214303e-01	 1.4272350809e+00	 8.1513643464e-01
 2.4651545727e-01	 1.4199415504e+00	 9.4653065894e-01
 2.3394507721e-01	 1.4220666433e+00	 8.4899944026e-01
 2.2139213491e-01	 1.4240749033e+00	 7.6689007436e-01
 2.0885809711e-01	 1.4259670700e+00	 7.0137303858e-01
 1.9634440887e-01	 1.4277439043e+00	 6.5356657082e-01
 1.8385249329e-01	 1.4294061875e+00	 6.2453619910e-01
 1.7138375121e-01	 1.4309547213e+00	 6.1529453738e-01
 1.5893956096e-01	 1.4323903263e+00	 6.2680132459e-01
 1.4652127812e-01	 1.4337138423e+00	 6.5996368347e-01
 1.3413023525e-01	 1.4349261269e+00	 7.1563657604e-01
 1.2176774173e-01	 1.4360280554e+00	 7.9462343239e-01
 1.1431175480e-01	 1.3480983111e+00	 8.2175793496e-01
 1.0273620124e-01	 1.3490298559e+00	 8.5572153256e-01
 9.1189804181e-02	 1.3498595259e+00	 9.0255432860e-01
 7.9673699552e-02	 1.3505881879e+00	 9.6349051006e-01
 6.8189001638e-02	 1.3512167222e+00	 1.0398339392e+00
 5.6736802946e-02	 1.3517460228e+00	 1.1329549752e+00
 4.5318174109e-02	 1.3521769965e+00	 1.2442872948e+00
 3.3934163799e-02	 1.3525105625e+00	 1.3753247060e+00
 2.2585798660e-02	 1.3527476514e+00	 1.5276179513e+00
 1.1274083250e-02	 1.3528892052e+00	 1.7027714965e+00
 0.0000000000e+00	 1.3529361765e+00	 1.9024403005e+00
 1.1505735349e-01	 1.3568912855e+00	 8.3431122752e-01
 1.0340629836e-01	 1.3578289063e+00	 8.6722278758e-01
 9.1784589896e-02	 1.3586639879e+00	 9.1178884925e-01
 8.0193371447e-02	 1.3593974025e+00	 9.6984915867e-01
 6.8633764564e-02	 1.3600300364e+00	 1.0432280356e+00
 5.7106868879e-02	 1.3605627894e+00	 1.1337326505e+00
 4.5613762008e-02	 1.3609965742e+00	 1.2431513687e+00
 3.4155499464e-02	 1.3613323158e+00	 1.3732521535e+00
 2.2733114586e-02	 1.3615709511e+00	 1.5257810179e+00
 1.1347618485e-02	 1.3617134283e+00	 1.7024605172e+00
 0.0000000000e+00	 1.3617607059e+00	 1.9049882740e+00
 1.1580295218e-01	 1.3656842599e+00	 8.4404645576e-01
 1.0407639548e-01	 1.3666279567e+00	 8.7893355302e-01
 9.2379375611e-02	 1.3674684499e+00	 9.2319005936e-01
 8.0713043343e-02	 1.3682066172e+00	 9.7909710284e-01
 6.9078527490e-02	 1.3688433507e+00	 1.0488523539e+00
 5.7476934812e-02	 1.3693795561e+00	 1.1345695378e+00
 4.5909349907e-02	 1.3698161518e+00	 1.2382780689e+00
 3.4376835129e-02	 1.3701540692e+00	 1.3619227934e+00
 2.2880430512e-02	 1.3703942509e+00	 1.5073638262e+00
 1.1421153720e-02	 1.3705376513e+00	 1.6763764722e+00
 0.0000000000e+00	 1.3705852353e+00	 1.8706512180e+00
 1.1654855087e-01	 1.3744772344e+00	 8.5074353761e-01
 1.0474649260e-01	 1.3754270071e+00	 8.8999677687e-01
 9.2974161327e-02	 1.3762729118e+00	 9.3560296193e-01
 8.1232715239e-02	 1.3770158318e+00	 9.9012237836e-01
 6.9523290417e-02	 1.3776566650e+00	 1.0559806629e+00
 5.7847000746e-02	 1.3781963227e+00	 1.1354693356e+00
 4.6204937807e-02	 1.3786357295e+00	 1.2307464926e+00
 3.4598170794e-02	 1.3789758225e+00	 1.3438376424e+00
 2.3027746439e-02	 1.3792175507e+00	 1.4766366702e+00
 1.1494688955e-02	 1.3793618744e+00	 1.6309069143e+00
 0.0000000000e+00	 1.3794097647e+00	 1.8082823405e+00
 1.1729414957e-01	 1.3832702088e+00	 8.5418517787e-01
 1.0541658971e-01	 1.3842260576e+00	 8.9957467615e-01
 9.3568947043e-02	 1.3850773738e+00	 9.4789972267e-01
 8.1752387136e-02	 1.3858250465e+00	 1.0018394366e+00
 6.9968053344e-02	 1.3864699792e+00	 1.0639037130e+00
 5.8217066680e-02	 1.3870130893e+00	 1.1364345618e+00
 4.6500525707e-02	 1.3874553072e+00	 1.2216076308e+00
 3.4819506460e-02	 1.3877975758e+00	 1.3214338941e+00
 2.3175062365e-02	 1.3880408504e+00	 1.4377614870e+00
 1.1568224191e-02	 1.3881860974e+00	 1.5722776702e+00
 0.0000000000e+00	 1.3882342941e+00	 1.7265109061e+00
 1.1803974826e-01	 1.3920631832e+00	 8.5415674512e-01
 1.0608668683e-01	 1.3930251080e+00	 9.0684809237e-01
 9.4163732759e-02	 1.3938818357e+00	 9.5897877619e-01
 8.2272059032e-02	 1.3946342611e+00	 1.0131882754e+00
 7.0412816271e-02	 1.3952832935e+00	 1.0719286669e+00
 5.8587132614e-02	 1.3958298560e+00	 1.1374665612e+00
 4.6796113607e-02	 1.3962748848e+00	 1.2118852313e+00
 3.5040842126e-02	 1.3966193292e+00	 1.2970869143e+00
 2.3322378292e-02	 1.3968641502e+00	 1.3947952647e+00
 1.1641759426e-02	 1.3970103204e+00	 1.5065579414e+00
 0.0000000000e+00	 1.3970588236e+00	 1.6337493089e+00
 1.1878534695e-01	 1.4008561577e+00	 8.5044615404e-01
 1.0675678395e-01	 1.4018241584e+00	 9.1101587170e-01
 9.4758518475e-02	 1.4026862977e+00	 9.6776396627e-01
 8.2791730928e-02	 1.4034434758e+00	 1.0231336033e+00
 7.0857579198e-02	 1.4040966078e+00	 1.0793785527e+00
 5.8957198548e-02	 1.4046466226e+00	 1.1385655139e+00
 4.7091701508e-02	 1.4050944625e+00	 1.2025766291e+00
 3.5262177791e-02	 1.4054410825e+00	 1.2731121621e+00
 2.3469694219e-02	 1.4056874499e+00	 1.3516933221e+00
 1.1715294662e-02	 1.4058345435e+00	 1.4396652115e+00
 0.0000000000e+00	 1.4058833530e+00	 1.5381998787e+00
 1.1953094565e-01	 1.4096491321e+00	 8.4284375263e-01
 1.0742688107e-01	 1.4106232089e+00	 9.1129426884e-01
 9.5353304191e-02	 1.4114907596e+00	 9.7320371877e-01
 8.3311402825e-02	 1.4122526905e+00	 1.0306640353e+00
 7.1302342125e-02	 1.4129099221e+00	 1.0855917377e+00
 5.9327264481e-02	 1.4134633892e+00	 1.1397304430e+00
 4.7387289408e-02	 1.4139140402e+00	 1.1946535452e+00
 3.5483513457e-02	 1.4142628359e+00	 1.2517670385e+00
 2.3617010145e-02	 1.4145107497e+00	 1.3123124662e+00
 1.1788829897e-02	 1.4146587665e+00	 1.3773699714e+00
 0.0000000000e+00	 1.4147078824e+00	 1.4478614323e+00
 1.2027654434e-01	 1.4184421065e+00	 8.3114221431e-01
 1.0809697818e-01	 1.4194222593e+00	 9.0691637357e-01
 9.5948089907e-02	 1.4202952216e+00	 9.7427024558e-01
 8.3831074721e-02	 1.4210619051e+00	 1.0347913182e+00
 7.1747105052e-02	 1.4217232363e+00	 1.0899214212e+00
 5.9697330415e-02	 1.4222801559e+00	 1.1409592225e+00
 4.7682877308e-02	 1.4227336178e+00	 1.1890628569e+00
 3.5704849122e-02	 1.4230845892e+00	 1.2352526667e+00
 2.3764326072e-02	 1.4233340495e+00	 1.2804140314e+00
 1.1862365133e-02	 1.4234829896e+00	 1.3253002679e+00
 0.0000000000e+00	 1.4235324118e+00	 1.3705355817e+00
 1.2102214303e-01	 1.4272350809e+00	 8.1513643464e-01
 1.0876707530e-01	 1.4282213097e+00	 8.9713155904e-01
 9.6542875622e-02	 1.4290996835e+00	 9.6995877844e-01
 8.4350746617e-02	 1.4298711198e+00	 1.0345495861e+00
 7.2191867979e-02	 1.4305365506e+00	 1.0917351477e+00
 6.0067396348e-02	 1.4310969225e+00	 1.1422485842e+00
 4.7978465207e-02	 1.4315531955e+00	 1.1867273386e+00
 3.5926184787e-02	 1.4319063426e+00	 1.2257156062e+00
 2.3911641998e-02	 1.4321573492e+00	 1.2596668072e+00
 1.1935900368e-02	 1.4323072126e+00	 1.2889460847e+00
 0.0000000000e+00	 1.4323569412e+00	 1.3138328086e+00
 1.2176774173e-01	 1.4360280554e+00	 7.9462343239e-01
 1.0943717242e-01	 1.4370203602e+00	 8.8120495072e-01
 9.7137661338e-02	 1.4379041455e+00	 9.5928683132e-01
 8.4870418512e-02	 1.4386803344e+00	 1.0289946423e+00
 7.2636630905e-02	 1.4393498649e+00	 1.0904143365e+00
 6.0437462281e-02	 1.4399136891e+00	 1.1435941258e+00
 4.8274053106e-02	 1.4403727731e+00	 1.1885463763e+00
 3.6147520452e-02	 1.4407280959e+00	 1.2252495046e+00
 2.4058957924e-02	 1.4409806490e+00	 1.2536498580e+00
 1.2009435603e-02	 1.4411314357e+00	 1.2736635616e+00
 0.0000000000e+00	 1.4411814706e+00	 1.2851783160e+00
 1.4411814706e+00	 0.0000000000e+00	 5.9948388667e-01
 1.4411314357e+00	 1.2009435603e-02	 6.4368672696e-01
 1.4409806490e+00	 2.4058957924e-02	 6.4398163001e-01
 1.4407280959e+00	 3.6147520452e-02	 5.9875087203e-01
 1.4403727731e+00	 4.8274053106e-02	 5.0699381583e-01
 1.4399136891e+00	 6.0437462281e-02	 3.6831490120e-01
 1.4393498649e+00	 7.2636630905e-02	 1.8290927634e-01
 1.4386803344e+00	 8.4870418512e-02	-4.8453939312e-02
 1.4379041455e+00	 9.7137661338e-02	-3.2445076249e-01
 1.4370203602e+00	 1.0943717242e-01	-6.4322381644e-01
 1.4360280554e+00	 1.2176774173e-01	-1.0024061473e+00
 1.4500045000e+00	 0.0000000000e+00	 1.4191381807e+00
 1.4499541587e+00	 1.2082958338e-02	 1.1099118122e+00
 1.4498024489e+00	 2.4206248808e-02	 8.7579127296e-01
 1.4495483497e+00	 3.6368818493e-02	 6.9861244759e-01
 1.4491908516e+00	 4.8569590760e-02	 5.6066808895e-01
 1.4487289571e+00	 6.0807465309e-02	 4.4471206879e-01
 1.4481616810e+00	 7.3081318229e-02	 3.3396184039e-01
 1.4474880517e+00	 8.5390002073e-02	 2.1209909671e-01
 1.4467071109e+00	 9.7732345950e-02	 6.3268614312e-02
 1.4458179149e+00	 1.1010715563e-01	-1.2792471868e-01
 1.4448195352e+00	 1.2251321368e-01	-3.7642068402e-01
 1.4588275294e+00	 0.0000000000e+00	 2.1821585604e+00
 1.4587768818e+00	 1.2156481073e-02	 1.5821676684e+00
 1.4586242489e+00	 2.4353539692e-02	 1.1479487367e+00
 1.4583686035e+00	 3.6590116533e-02	 8.4941129393e-01
 1.4580089301e+00	 4.8865128414e-02	 6.5680672152e-01
 1.4575442250e+00	 6.1177468337e-02	 5.4074414100e-01
 1.4569734972e+00	 7.3526005553e-02	 4.7220491069e-01
 1.4562957689e+00	 8.5909585633e-02	 4.2255571138e-01
 1.4555100762e+00	 9.8327030562e-02	 3.6356020568e-01
 1.4546154697e+00	 1.1077713885e-01	 2.6738926284e-01
 1.4536110149e+00	 1.2325868564e-01	 1.0662974903e-01
 1.4676505588e+00	 0.0000000000e+00	 2.8793963136e+00
 1.4675996049e+00	 1.2230003808e-02	 2.0551102323e+00
 1.4674460489e+00	 2.4500830576e-02	 1.4585562899e+00
 1.4671888574e+00	 3.6811414574e-02	 1.0522515699e+00
 1.4668270086e+00	 4.9160666067e-02	 7.9898452929e-01
 1.4663594930e+00	 6.1547471364e-02	 6.6183794483e-01
 1.4657853134e+00	 7.3970692876e-02	 6.0421069473e-01
 1.4651034862e+00	 8.6429169193e-02	 5.8983835397e-01
 1.4643130416e+00	 9.8921715174e-02	 5.8281258424e-01
 1.4634130244e+00	 1.1144712206e-01	 5.4759930745e-01
 1.4624024947e+00	 1.2400415759e-01	 4.4905565874e-01
 1.4764735882e+00	 0.0000000000e+00	 3.5019235698e+00
 1.4764223280e+00	 1.2303526542e-02	 2.5235262187e+00
 1.4762678488e+00	 2.4648121460e-02	 1.8057653081e+00
 1.4760091112e+00	 3.7032712614e-02	 1.3082153304e+00
 1.4756450871e+00	 4.9456203720e-02	 9.9069555831e-01
 1.4751747609e+00	 6.1917474391e-02	 8.1329551613e-01
 1.4745971296e+00	 7.4415380199e-02	 7.3639934545e-01
 1.4739112034e+00	 8.6948752753e-02	 7.2070904010e-01
 1.4731160069e+00	 9.9516399786e-02	 7.2726653238e-01
 1.4722105792e+00	 1.1211710527e-01	 7.1747461831e-01
 1.4711939745e+00	 1.2474962954e-01	 6.5311671783e-01
 1.4852966177e+00	 0.0000000000e+00	 4.0502050628e+00
 1.4852450511e+00	 1.2377049277e-02	 2.9906577744e+00
 1.4850896488e+00	 2.4795412343e-02	 2.1948974274e+00
 1.4848293650e+00	 3.7254010654e-02	 1.6240557386e+00
 1.4844631656e+00	 4.9751741372e-02	 1.2395367274e+00
 1.4839900289e+00	 6.2287477417e-02	 1.0030307404e+00
 1.4834089457e+00	 7.4860067522e-02	 8.7652843690e-01
 1.4827189207e+00	 8.7468336312e-02	 8.2233470985e-01
 1.4819189723e+00	 1.0011108440e-01	 8.0308250909e-01
 1.4810081339e+00	 1.1278708848e-01	 7.8167567474e-01
 1.4799854543e+00	 1.2549510150e-01	 7.2102319108e-01
 1.4941196471e+00	 0.0000000000e+00	 4.5889836595e+00
 1.4940677742e+00	 1.2450572012e-02	 3.5197269829e+00
 1.4939114487e+00	 2.4942703227e-02	 2.6873552012e+00
 1.4936496188e+00	 3.7475308694e-02	 2.0589135565e+00
 1.4932812441e+00	 5.0047279025e-02	 1.6017625982e+00
 1.4928052968e+00	 6.2657480444e-02	 1.2835858882e+00
 1.4922207619e+00	 7.5304754845e-02	 1.0723974708e+00
 1.4915266379e+00	 8.7987919871e-02	 9.3654908324e-01
 1.4907219377e+00	 1.0070576901e-01	 8.4473707955e-01
 1.4898056887e+00	 1.1345707170e-01	 7.6600903496e-01
 1.4887769341e+00	 1.2624057345e-01	 6.6976999963e-01
 1.5029426765e+00	 0.0000000000e+00	 5.1254617649e+00
 1.5028904973e+00	 1.2524094746e-02	 4.1205484505e+00
 1.5027332487e+00	 2.5089994111e-02	 3.2958398216e+00
 1.5024698726e+00	 3.7696606734e-02	 2.6285034855e+00
 1.5020993226e+00	 5.0342816678e-02	 2.0961065790e+00
 1.5016205648e+00	 6.3027483470e-02	 1.6766127756e+00
 1.5010325781e+00	 7.5749442167e-02	 1.3483786982e+00
 1.5003343552e+00	 8.8507503430e-02	 1.0901497198e+00
 1.4995249030e+00	 1.0130045362e-01	 8.8105512763e-01
 1.4986032435e+00	 1.1412705491e-01	 7.0060262800e-01
 1.4975684139e+00	 1.2698604541e-01	 5.2867216304e-01
 1.5117657059e+00	 0.0000000000e+00	 5.6511197858e+00
 1.5117132204e+00	 1.2597617481e-02	 4.7878989927e+00
 1.5115550487e+00	 2.5237284994e-02	 4.0181152768e+00
 1.5112901264e+00	 3.7917904774e-02	 3.3331907673e+00
 1.5109174011e+00	 5.0638354330e-02	 2.7250719540e+00
 1.5104358327e+00	 6.3397486497e-02	 2.1862116588e+00
 1.5098443942e+00	 7.6194129490e-02	 1.7095498947e+00
 1.5091420724e+00	 8.9027086989e-02	 1.2884935998e+00
 1.5083278684e+00	 1.0189513823e-01	 9.1689523199e-01
 1.5074007982e+00	 1.1479703812e-01	 5.8903020762e-01
 1.5063598937e+00	 1.2773151736e-01	 2.9957316702e-01
 1.5205887353e+00	 0.0000000000e+00	 6.1576283917e+00
 1.5205359435e+00	 1.2671140216e-02	 5.5166688519e+00
 1.5203768486e+00	 2.5384575878e-02	 4.8519894526e+00
 1.5201103802e+00	 3.8139202814e-02	 4.1733240927e+00
 1.5197354796e+00	 5.0933891983e-02	 3.4910958758e+00
 1.5192511007e+00	 6.3767489523e-02	 2.8163797498e+00
 1.5186562104e+00	 7.6638816813e-02	 2.1608633582e+00
 1.5179497897e+00	 8.9546670548e-02	 1.5368060962e+00
 1.5171308337e+00	 1.0248982284e-01	 9.5699636968e-01
 1.5161983530e+00	 1.1546702133e-01	 4.3470705001e-01
 1.5151513734e+00	 1.2847698931e-01	-1.6350878247e-02
 1.5294117647e+00	 0.0000000000e+00	 6.6368430275e+00
 1.5293586666e+00	 1.2744662951e-02	 6.3018584435e+00
 1.5291986486e+00	 2.5531866762e-02	 5.7953129025e+00
 1.5289306340e+00	 3.8360500855e-02	 5.1492361343e+00
 1.5285535581e+00	 5.1229429637e-02	 4.3965513468e+00
 1.5280663686e+00	 6.4137492550e-02	 3.5710142808e+00
 1.5274680266e+00	 7.7083504135e-02	 2.7071496394e+00
 1.5267575069e+00	 9.0066254107e-02	 1.8401848992e+00
 1.5259337991e+00	 1.0308450745e-01	 1.0059815114e+00
 1.5249959077e+00	 1.1613700454e-01	 2.4096350171e-01
 1.5239428532e+00	 1.2922246127e-01	-4.1795651931e-01
 1.4360280554e+00	 1.2176774173e-01	-1.0024061473e+00
 1.4349261269e+00	 1.3413023525e-01	-1.3360727511e+00
 1.4337138423e+00	 1.4652127812e-01	-1.5823644588e+00
 1.4323903263e+00	 1.5893956096e-01	-1.7447253488e+00
 1.4309547213e+00	 1.7138375121e-01	-1.8264635138e+00
 1.4294061875e+00	 1.8385249329e-01	-1.8307722702e+00
 1.4277439043e+00	 1.9634440887e-01	-1.7607526823e+00
 1.4259670700e+00	 2.0885809711e-01	-1.6194373202e+00
 1.4240749033e+00	 2.2139213491e-01	-1.4098151587e+00
 1.4220666433e+00	 2.3394507721e-01	-1.1348575167e+00
 1.4199415504e+00	 2.4651545727e-01	-7.9754492715e-01
 1.4448195352e+00	 1.2251321368e-01	-3.7642068402e-01
 1.4437108606e+00	 1.3495139139e-01	-6.3265714208e-01
 1.4424911543e+00	 1.4741829322e-01	-8.3675723585e-01
 1.4411595356e+00	 1.5991260180e-01	-9.8789440194e-01
 1.4397151417e+00	 1.7243297638e-01	-1.0851298668e+00
 1.4381571277e+00	 1.8497805311e-01	-1.1274409571e+00
 1.4364846678e+00	 1.9754644521e-01	-1.1137508752e+00
 1.4346969556e+00	 2.1013674326e-01	-1.0429598457e+00
 1.4327932049e+00	 2.2274751545e-01	-9.1397753021e-01
 1.4307726502e+00	 2.3537730787e-01	-7.2575659929e-01
 1.4286345473e+00	 2.4802464481e-01	-4.7732733850e-01
 1.4536110149e+00	 1.2325868564e-01	 1.0662974903e-01
 1.4524955943e+00	 1.3577254752e-01	-8.4073673183e-02
 1.4512684663e+00	 1.4831530833e-01	-2.4951422355e-01
 1.4499287449e+00	 1.6088564264e-01	-3.8595850925e-01
 1.4484755621e+00	 1.7348220156e-01	-4.8957909128e-01
 1.4469080679e+00	 1.8610361293e-01	-5.5648808081e-01
 1.4452254314e+00	 1.9874848154e-01	-5.8277231466e-01
 1.4434268413e+00	 2.1141538940e-01	-5.6453000816e-01
 1.4415115065e+00	 2.2410289599e-01	-4.9790877358e-01
 1.4394786571e+00	 2.3680953854e-01	-3.7914488242e-01
 1.4373275442e+00	 2.4953383236e-01	-2.0460364039e-01
 1.4624024947e+00	 1.2400415759e-01	 4.4905565874e-01
 1.4612803280e+00	 1.3659370366e-01	 3.0906804213e-01
 1.4600457783e+00	 1.4921232343e-01	 1.7627796719e-01
 1.4586979543e+00	 1.6185868347e-01	 5.5988343044e-02
 1.4572359825e+00	 1.7453142673e-01	-4.6416457592e-02
 1.4556590081e+00	 1.8722917275e-01	-1.2550768421e-01
 1.4539661949e+00	 1.9995051788e-01	-1.7585095429e-01
 1.4521567269e+00	 2.1269403555e-01	-1.9204655059e-01
 1.4502298082e+00	 2.2545827653e-01	-1.6877115100e-01
 1.4481846640e+00	 2.3824176920e-01	-1.0082086176e-01
 1.4460205411e+00	 2.5104301991e-01	 1.6844585069e-02
 1.4711939745e+00	 1.2474962954e-01	 6.5311671783e-01
 1.4700650617e+00	 1.3741485980e-01	 5.4617697537e-01
 1.4688230902e+00	 1.5010933854e-01	 4.3761007401e-01
 1.4674671636e+00	 1.6283172431e-01	 3.3297700382e-01
 1.4659964030e+00	 1.7558065191e-01	 2.3791318871e-01
 1.4644099482e+00	 1.8835473257e-01	 1.5808968785e-01
 1.4627069585e+00	 2.0115255422e-01	 9.9172689787e-02
 1.4608866125e+00	 2.1397268170e-01	 6.6781412375e-02
 1.4589481098e+00	 2.2681365707e-01	 6.6444532849e-02
 1.4568906709e+00	 2.3967399987e-01	 1.0355528276e-01
 1.4547135380e+00	 2.5255220746e-01	 1.8332535286e-01
 1.4799854543e+00	 1.2549510150e-01	 7.2102319108e-01
 1.4788497954e+00	 1.3823601594e-01	 6.2668003754e-01
 1.4776004022e+00	 1.5100635364e-01	 5.3154778275e-01
 1.4762363729e+00	 1.6380476514e-01	 4.4015933775e-01
 1.4747568234e+00	 1.7662987708e-01	 3.5712054242e-01
 1.4731608884e+00	 1.8948029239e-01	 2.8707141202e-01
 1.4714477220e+00	 2.0235459056e-01	 2.3464566182e-01
 1.4696164981e+00	 2.1525132785e-01	 2.0442862616e-01
 1.4676664114e+00	 2.2816903761e-01	 2.0091369975e-01
 1.4655966777e+00	 2.4110623054e-01	 2.2845743946e-01
 1.4634065349e+00	 2.5406139501e-01	 2.9123347580e-01
 1.4887769341e+00	 1.2624057345e-01	 6.6976999963e-01
 1.4876345291e+00	 1.3905717208e-01	 5.5956740442e-01
 1.4863777142e+00	 1.5190336875e-01	 4.6067139928e-01
 1.4850055822e+00	 1.6477780598e-01	 3.7532822123e-01
 1.4835172438e+00	 1.7767910225e-01	 3.0581538495e-01
 1.4819118286e+00	 1.9060585221e-01	 2.5440637919e-01
 1.4801884855e+00	 2.0355662689e-01	 2.2309689843e-01
 1.4783463837e+00	 2.1652997400e-01	 2.1354813358e-01
 1.4763847130e+00	 2.2952441815e-01	 2.2797295361e-01
 1.4743026846e+00	 2.4253846121e-01	 2.6848946968e-01
 1.4720995319e+00	 2.5557058256e-01	 3.3704786636e-01
 1.4975684139e+00	 1.2698604541e-01	 5.2867216304e-01
 1.4964192628e+00	 1.3987832822e-01	 3.7156382265e-01
 1.4951550262e+00	 1.5280038385e-01	 2.4801614167e-01
 1.4937747915e+00	 1.6575084681e-01	 1.5679231645e-01
 1.4922776642e+00	 1.7872832743e-01	 9.6683858592e-02
 1.4906627688e+00	 1.9173141203e-01	 6.6479646512e-02
 1.4889292491e+00	 2.0475866323e-01	 6.4934094826e-02
 1.4870762694e+00	 2.1780862014e-01	 9.0734440087e-02
 1.4851030147e+00	 2.3087979869e-01	 1.4246714261e-01
 1.4830086915e+00	 2.4397069187e-01	 2.1858340559e-01
 1.4807925288e+00	 2.5707977011e-01	 3.1732893541e-01
 1.5063598937e+00	 1.2773151736e-01	 2.9957316702e-01
 1.5052039965e+00	 1.4069948436e-01	 6.3051961130e-02
 1.5039323382e+00	 1.5369739896e-01	-1.0653834748e-01
 1.5025440008e+00	 1.6672388765e-01	-2.1513911348e-01
 1.5010380847e+00	 1.7977755260e-01	-2.6866133870e-01
 1.4994137089e+00	 1.9285697185e-01	-2.7301050954e-01
 1.4976700126e+00	 2.0596069957e-01	-2.3411218060e-01
 1.4958061550e+00	 2.1908726629e-01	-1.5793831440e-01
 1.4938213163e+00	 2.3223517923e-01	-5.0534385775e-02
 1.4917146984e+00	 2.4540292254e-01	 8.1952740958e-02
 1.4894855257e+00	 2.5858895766e-01	 2.3324615541e-01
 1.5151513734e+00	 1.2847698931e-01	-1.6350878247e-02
 1.5139887301e+00	 1.4152064050e-01	-3.6732836079e-01
 1.5127096502e+00	 1.5459441406e-01	-6.0649908228e-01
 1.5113132102e+00	 1.6769692849e-01	-7.4570787272e-01
 1.5097985051e+00	 1.8082677778e-01	-7.9676220183e-01
 1.5081646491e+00	 1.9398253167e-01	-7.7144916523e-01
 1.5064107762e+00	 2.0716273591e-01	-6.8155304777e-01
 1.5045360406e+00	 2.2036591244e-01	-5.3887348344e-01
 1.5025396179e+00	 2.3359055977e-01	-3.5524423147e-01
 1.5004207053e+00	 2.4683515321e-01	-1.4255258783e-01
 1.4981785226e+00	 2.6009814521e-01	 8.7240549488e-02
 1.5239428532e+00	 1.2922246127e-01	-4.1795651931e-01
 1.5227734638e+00	 1.4234179663e-01	-9.2091078785e-01
 1.5214869622e+00	 1.5549142916e-01	-1.2552962798e+00
 1.5200824195e+00	 1.6866996932e-01	-1.4400381676e+00
 1.5185589255e+00	 1.8187600295e-01	-1.4940123158e+00
 1.5169155893e+00	 1.9510809149e-01	-1.4360526906e+00
 1.5151515397e+00	 2.0836477224e-01	-1.2849591457e+00
 1.5132659262e+00	 2.2164455859e-01	-1.0595056123e+00
 1.5112579195e+00	 2.3494594031e-01	-7.7844872911e-01
 1.5091267122e+00	 2.4826738388e-01	-4.6053694250e-01
 1.5068715195e+00	 2.6160733276e-01	-1.2452010970e-01
 1.4199415504e+00	 2.4651545727e-01	-7.9754492715e-01
 1.4176992982e+00	 2.5909964687e-01	-4.0793282192e-01
 1.4153388396e+00	 2.7169827581e-01	 1.4962562109e-02
 1.4128595019e+00	 2.8430981862e-01	 4.5428765660e-01
 1.4102606362e+00	 2.9693272962e-01	 8.9288349238e-01
 1.4075416178e+00	 3.0956544337e-01	 1.3132725479e+00
 1.4047018470e+00	 3.2220637509e-01	 1.6976460785e+00
 1.4017407496e+00	 3.3485392108e-01	 2.0278520699e+00
 1.3986577775e+00	 3.4750645917e-01	 2.2853839644e+00
 1.3954524094e+00	 3.6016234922e-01	 2.4513703086e+00
 1.3921241513e+00	 3.7281993362e-01	 2.5077184009e+00
 1.4286345473e+00	 2.4802464481e-01	-4.7732733850e-01
 1.4263785678e+00	 2.6068587584e-01	-1.7492921852e-01
 1.4240036583e+00	 2.7336163461e-01	 1.6427322152e-01
 1.4215091420e+00	 2.8605038630e-01	 5.2447467720e-01
 1.4188943658e+00	 2.9875057578e-01	 8.8963735715e-01
 1.4161587013e+00	 3.1146062803e-01	 1.2434769100e+00
 1.4133015452e+00	 3.2417894856e-01	 1.5694487364e+00
 1.4103223197e+00	 3.3690392384e-01	 1.8507348335e+00
 1.4072204734e+00	 3.4963392179e-01	 2.0702313227e+00
 1.4039954818e+00	 3.6236729222e-01	 2.2105368153e+00
 1.4006468478e+00	 3.7510236738e-01	 2.2583259093e+00
 1.4373275442e+00	 2.4953383236e-01	-2.0460364039e-01
 1.4350578375e+00	 2.6227210481e-01	 2.3825232538e-02
 1.4326684771e+00	 2.7502499341e-01	 2.9216332391e-01
 1.4301587820e+00	 2.8779095398e-01	 5.8556254092e-01
 1.4275280953e+00	 3.0056842194e-01	 8.8899656485e-01
 1.4247757848e+00	 3.1335581269e-01	 1.1872455975e+00
 1.4219012434e+00	 3.2615152202e-01	 1.4648814172e+00
 1.4189038898e+00	 3.3895392660e-01	 1.7062528965e+00
 1.4157831693e+00	 3.5176138441e-01	 1.8954721361e+00
 1.4125385542e+00	 3.6457223523e-01	 2.0164013756e+00
 1.4091695444e+00	 3.7738480114e-01	 2.0623732680e+00
 1.4460205411e+00	 2.5104301991e-01	 1.6844585069e-02
 1.4437371071e+00	 2.6385833379e-01	 1.8672951140e-01
 1.4413332958e+00	 2.7668835221e-01	 3.9887123619e-01
 1.4388084220e+00	 2.8953152166e-01	 6.3928954131e-01
 1.4361618249e+00	 3.0238626810e-01	 8.9386182025e-01
 1.4333928683e+00	 3.1525099734e-01	 1.1483063864e+00
 1.4305009416e+00	 3.2812409548e-01	 1.3881660358e+00
 1.4274854599e+00	 3.4100392936e-01	 1.5987920209e+00
 1.4243458653e+00	 3.5388884703e-01	 1.7653285970e+00
 1.4210816266e+00	 3.6677717823e-01	 1.8726983052e+00
 1.4176922409e+00	 3.7966723490e-01	 1.9228134057e+00
 1.4547135380e+00	 2.5255220746e-01	 1.8332535286e-01
 1.4524163768e+00	 2.6544456276e-01	 3.1221961238e-01
 1.4499981145e+00	 2.7835171101e-01	 4.8462797073e-01
 1.4474580620e+00	 2.9127208935e-01	 6.8735043365e-01
 1.4447955545e+00	 3.0420411427e-01	 9.0706225590e-01
 1.4420099519e+00	 3.1714618200e-01	 1.1302955555e+00
 1.4391006398e+00	 3.3009666894e-01	 1.3434211465e+00
 1.4360670301e+00	 3.4305393212e-01	 1.5326307541e+00
 1.4329085612e+00	 3.5601630965e-01	 1.6839197789e+00
 1.4296246990e+00	 3.6898212123e-01	 1.7830707819e+00
 1.4262149375e+00	 3.8194966865e-01	 1.8425203137e+00
 1.4634065349e+00	 2.5406139501e-01	 2.9123347580e-01
 1.4610956464e+00	 2.6703079174e-01	 3.9876730974e-01
 1.4586629333e+00	 2.8001506981e-01	 5.4965727468e-01
 1.4561077021e+00	 2.9301265703e-01	 7.3139760701e-01
 1.4534292840e+00	 3.0602196043e-01	 9.3135744753e-01
 1.4506270354e+00	 3.1904136666e-01	 1.1367605066e+00
 1.4477003380e+00	 3.3206924241e-01	 1.3346649324e+00
 1.4446486002e+00	 3.4510393488e-01	 1.5119435519e+00
 1.4414712571e+00	 3.5814377228e-01	 1.6552646609e+00
 1.4381677714e+00	 3.7118706424e-01	 1.7511978704e+00
 1.4347376340e+00	 3.8423210241e-01	 1.8242912723e+00
 1.4720995319e+00	 2.5557058256e-01	 3.3704786636e-01
 1.4697749161e+00	 2.6861702071e-01	 4.4487896953e-01
 1.4673277520e+00	 2.8167842861e-01	 5.9417571856e-01
 1.4647573421e+00	 2.9475322471e-01	 7.7304221766e-01
 1.4620630136e+00	 3.0783980660e-01	 9.6943936123e-01
 1.4592441189e+00	 3.2093655132e-01	 1.1711622965e+00
 1.4563000362e+00	 3.3404181587e-01	 1.3658180927e+00
 1.4532301703e+00	 3.4715393765e-01	 1.5408037955e+00
 1.4500339530e+00	 3.6027123490e-01	 1.6832850494e+00
 1.4467108438e+00	 3.7339200724e-01	 1.7819832205e+00
 1.4432603305e+00	 3.8651453617e-01	 1.8708490098e+00
 1.4807925288e+00	 2.5707977011e-01	 3.1732893541e-01
 1.4784541858e+00	 2.7020324969e-01	 4.4909440532e-01
 1.4759925707e+00	 2.8334178740e-01	 6.1839278422e-01
 1.4734069821e+00	 2.9649379240e-01	 8.1385528532e-01
 1.4706967432e+00	 3.0965765276e-01	 1.0239342353e+00
 1.4678612024e+00	 3.2283173597e-01	 1.2368780823e+00
 1.4648997344e+00	 3.3601438933e-01	 1.4407066331e+00
 1.4618117405e+00	 3.4920394041e-01	 1.6231867073e+00
 1.4585966490e+00	 3.6239869752e-01	 1.7718084020e+00
 1.4552539162e+00	 3.7559695024e-01	 1.8792381951e+00
 1.4517830271e+00	 3.8879696993e-01	 1.9848437929e+00
 1.4894855257e+00	 2.5858895766e-01	 2.3324615541e-01
 1.4871334554e+00	 2.7178947866e-01	 4.1180128525e-01
 1.4846573895e+00	 2.8500514620e-01	 6.2295404352e-01
 1.4820566222e+00	 2.9823436008e-01	 8.5537919242e-01
 1.4793304727e+00	 3.1147549892e-01	 1.0974043995e+00
 1.4764782859e+00	 3.2472692063e-01	 1.3372034858e+00
 1.4734994326e+00	 3.3798696279e-01	 1.5630645611e+00
 1.4703933106e+00	 3.5125394317e-01	 1.7629721681e+00
 1.4671593449e+00	 3.6452616014e-01	 1.9245705583e+00
 1.4637969887e+00	 3.7780189324e-01	 2.0462835467e+00
 1.4603057236e+00	 3.9107940368e-01	 2.1688554549e+00
 1.4981785226e+00	 2.6009814521e-01	 8.7240549488e-02
 1.4958127251e+00	 2.7337570764e-01	 3.3755474394e-01
 1.4933222082e+00	 2.8666850500e-01	 6.1271507203e-01
 1.4907062622e+00	 2.9997492776e-01	 9.0170561005e-01
 1.4879642023e+00	 3.1329334509e-01	 1.1931894714e+00
 1.4850953694e+00	 3.2662210529e-01	 1.4754842142e+00
 1.4820991308e+00	 3.3995953626e-01	 1.7365367379e+00
 1.4789748807e+00	 3.5330394593e-01	 1.9639474414e+00
 1.4757220408e+00	 3.6665362276e-01	 2.1452183792e+00
 1.4723400611e+00	 3.8000683624e-01	 2.2863548198e+00
 1.4688284202e+00	 3.9336183744e-01	 2.4253953611e+00
 1.5068715195e+00	 2.6160733276e-01	-1.2452010970e-01
 1.5044919947e+00	 2.7496193661e-01	 2.2490227193e-01
 1.5019870269e+00	 2.8833186380e-01	 5.8864828860e-01
 1.4993559022e+00	 3.0171549544e-01	 9.5592273826e-01
 1.4965979319e+00	 3.1511119125e-01	 1.3155203316e+00
 1.4937124529e+00	 3.2851728995e-01	 1.6557991258e+00
 1.4906988290e+00	 3.4193210972e-01	 1.9646534989e+00
 1.4875564508e+00	 3.5535394869e-01	 2.2294866729e+00
 1.4842847367e+00	 3.6878108538e-01	 2.4371827938e+00
 1.4808831335e+00	 3.8221177925e-01	 2.6026047183e+00
 1.4773511167e+00	 3.9564427119e-01	 2.7569083160e+00
 1.3921241513e+00	 3.7281993362e-01	 2.5077184009e+00
 1.3886725372e+00	 3.8547753797e-01	 2.4806325416e+00
 1.3850971308e+00	 3.9813347216e-01	 2.3949450211e+00
 1.3813975249e+00	 4.1078603044e-01	 2.2602437335e+00
 1.3775733421e+00	 4.2343349180e-01	 2.0862801964e+00
 1.3736242346e+00	 4.3607412057e-01	 1.8829559099e+00
 1.3695498853e+00	 4.4870616704e-01	 1.6603086561e+00
 1.3653500079e+00	 4.6132786810e-01	 1.4284987907e+00
 1.3610243479e+00	 4.7393744782e-01	 1.1977955805e+00
 1.3565726823e+00	 4.8653311820e-01	 9.7856363499e-01
 1.3519948207e+00	 4.9911307980e-01	 7.8124948034e-01
 1.4006468478e+00	 3.7510236738e-01	 2.2583259093e+00
 1.3971741027e+00	 3.8783746261e-01	 2.2467973698e+00
 1.3935768073e+00	 4.0057087745e-01	 2.1910737088e+00
 1.3898545522e+00	 4.1330089571e-01	 2.0978275740e+00
 1.3860069574e+00	 4.2602578585e-01	 1.9738257746e+00
 1.3820336731e+00	 4.3874380157e-01	 1.8259181809e+00
 1.3779343803e+00	 4.5145318246e-01	 1.6610267267e+00
 1.3737087910e+00	 4.6415215458e-01	 1.4861345666e+00
 1.3693566489e+00	 4.7683893117e-01	 1.3082754419e+00
 1.3648777299e+00	 4.8951171327e-01	 1.1345233034e+00
 1.3602718422e+00	 5.0216869040e-01	 9.7198223800e-01
 1.4091695444e+00	 3.7738480114e-01	 2.0623732680e+00
 1.4056756681e+00	 3.9019738724e-01	 2.0686120146e+00
 1.4020564839e+00	 4.0300828274e-01	 2.0418352158e+00
 1.3983115795e+00	 4.1581576098e-01	 1.9863116400e+00
 1.3944405727e+00	 4.2861807990e-01	 1.9063461358e+00
 1.3904431117e+00	 4.4141348257e-01	 1.8062705697e+00
 1.3863188754e+00	 4.5420019787e-01	 1.6904350056e+00
 1.3820675741e+00	 4.6697644107e-01	 1.5631991815e+00
 1.3776889500e+00	 4.7974041452e-01	 1.4289243350e+00
 1.3731827774e+00	 4.9249030833e-01	 1.2919654265e+00
 1.3685488637e+00	 5.0522430101e-01	 1.1566638089e+00
 1.4176922409e+00	 3.7966723490e-01	 1.9228134057e+00
 1.4141772336e+00	 3.9255731188e-01	 1.9481057335e+00
 1.4105361604e+00	 4.0544568802e-01	 1.9484673127e+00
 1.4067686067e+00	 4.1833062625e-01	 1.9262651797e+00
 1.4028741880e+00	 4.3121037395e-01	 1.8838555902e+00
 1.3988525502e+00	 4.4408316357e-01	 1.8235764976e+00
 1.3947033704e+00	 4.5694721328e-01	 1.7477403898e+00
 1.3904263571e+00	 4.6980072755e-01	 1.6586275425e+00
 1.3860212510e+00	 4.8264189788e-01	 1.5584797409e+00
 1.3814878250e+00	 4.9546890339e-01	 1.4494945202e+00
 1.3768258853e+00	 5.0827991161e-01	 1.3338199723e+00
 1.4262149375e+00	 3.8194966865e-01	 1.8425203137e+00
 1.4226787991e+00	 3.9491723651e-01	 1.8872503996e+00
 1.4190158370e+00	 4.0788309331e-01	 1.9121688350e+00
 1.4152256340e+00	 4.2084549152e-01	 1.9182340741e+00
 1.4113078033e+00	 4.3380266800e-01	 1.9063579950e+00
 1.4072619888e+00	 4.4675284457e-01	 1.8773994239e+00
 1.4030878655e+00	 4.5969422869e-01	 1.8321581145e+00
 1.3987851402e+00	 4.7262501404e-01	 1.7713692408e+00
 1.3943535520e+00	 4.8554338123e-01	 1.6956984569e+00
 1.3897928726e+00	 4.9844749846e-01	 1.6057375757e+00
 1.3851029068e+00	 5.1133552222e-01	 1.5020009145e+00
 1.4347376340e+00	 3.8423210241e-01	 1.8242912723e+00
 1.4311803646e+00	 3.9727716114e-01	 1.8879621112e+00
 1.4274955135e+00	 4.1032049859e-01	 1.9341007689e+00
 1.4236826613e+00	 4.2336035679e-01	 1.9627414882e+00
 1.4197414186e+00	 4.3639496205e-01	 1.9738470517e+00
 1.4156714273e+00	 4.4942252558e-01	 1.9673028631e+00
 1.4114723605e+00	 4.6244124410e-01	 1.9429115587e+00
 1.4071439233e+00	 4.7544930052e-01	 1.9003882068e+00
 1.4026858530e+00	 4.8844486458e-01	 1.8393561534e+00
 1.3980979202e+00	 5.0142609352e-01	 1.7593435652e+00
 1.3933799283e+00	 5.1439113282e-01	 1.6597807211e+00
 1.4432603305e+00	 3.8651453617e-01	 1.8708490098e+00
 1.4396819301e+00	 3.9963708578e-01	 1.9521027543e+00
 1.4359751901e+00	 4.1275790388e-01	 2.0153873105e+00
 1.4321396885e+00	 4.2587522206e-01	 2.0602885109e+00
 1.4281750339e+00	 4.3898725610e-01	 2.0863066057e+00
 1.4240808659e+00	 4.5209220658e-01	 2.0928504165e+00
 1.4198568556e+00	 4.6518825951e-01	 2.0792320731e+00
 1.4155027064e+00	 4.7827358701e-01	 2.0446623928e+00
 1.4110181541e+00	 4.9134634793e-01	 1.9882469632e+00
 1.4064029677e+00	 5.0440468858e-01	 1.9089829821e+00
 1.4016569499e+00	 5.1744674343e-01	 1.8057569064e+00
 1.4517830271e+00	 3.8879696993e-01	 1.9848437929e+00
 1.4481834955e+00	 4.0199701041e-01	 2.0814815205e+00
 1.4444548666e+00	 4.1519530916e-01	 2.1571168977e+00
 1.4405967158e+00	 4.2839008733e-01	 2.2113547835e+00
 1.4366086492e+00	 4.4157955015e-01	 2.2437109472e+00
 1.4324903045e+00	 4.5476188758e-01	 2.2536058146e+00
 1.4282413507e+00	 4.6793527492e-01	 2.2403588279e+00
 1.4238614894e+00	 4.8109787349e-01	 2.2031834822e+00
 1.4193504551e+00	 4.9424783128e-01	 2.1411831020e+00
 1.4147080153e+00	 5.0738328364e-01	 2.0533474153e+00
 1.4099339714e+00	 5.2050235403e-01	 1.9385499775e+00
 1.4603057236e+00	 3.9107940368e-01	 2.1688554549e+00
 1.4566850610e+00	 4.0435693504e-01	 2.2778563815e+00
 1.4529345432e+00	 4.1763271445e-01	 2.3603432177e+00
 1.4490537431e+00	 4.3090495260e-01	 2.4163991189e+00
 1.4450422646e+00	 4.4417184420e-01	 2.4460251150e+00
 1.4408997430e+00	 4.5743156858e-01	 2.4491329729e+00
 1.4366258457e+00	 4.7068229033e-01	 2.4255386806e+00
 1.4322202725e+00	 4.8392215997e-01	 2.3749566237e+00
 1.4276827561e+00	 4.9714931463e-01	 2.2969945173e+00
 1.4230130629e+00	 5.1036187871e-01	 2.1911491550e+00
 1.4182109929e+00	 5.2355796463e-01	 2.0568030321e+00
 1.4688284202e+00	 3.9336183744e-01	 2.4253953611e+00
 1.4651866265e+00	 4.0671685968e-01	 2.5429355222e+00
 1.4614142197e+00	 4.2007011973e-01	 2.6260861891e+00
 1.4575107703e+00	 4.3341981787e-01	 2.6758601096e+00
 1.4534758799e+00	 4.4676413825e-01	 2.6932052016e+00
 1.4493091816e+00	 4.6010124958e-01	 2.6789960578e+00
 1.4450103408e+00	 4.7342930574e-01	 2.6340260622e+00
 1.4405790556e+00	 4.8674644646e-01	 2.5590001910e+00
 1.4360150572e+00	 5.0005079798e-01	 2.4545285668e+00
 1.4313181105e+00	 5.1334047377e-01	 2.3211208301e+00
 1.4264880145e+00	 5.2661357524e-01	 2.1591813884e+00
 1.4773511167e+00	 3.9564427119e-01	 2.7569083160e+00
 1.4736881920e+00	 4.0907678431e-01	 2.8783787347e+00
 1.4698938963e+00	 4.2250752502e-01	 2.9553329219e+00
 1.4659677976e+00	 4.3593468314e-01	 2.9901567275e+00
 1.4619094952e+00	 4.4935643230e-01	 2.9851986601e+00
 1.4577186201e+00	 4.6277093058e-01	 2.9427595646e+00
 1.4533948358e+00	 4.7617632115e-01	 2.8650828819e+00
 1.4489378386e+00	 4.8957073294e-01	 2.7543455644e+00
 1.4443473582e+00	 5.0295228133e-01	 2.6126497236e+00
 1.4396231580e+00	 5.1631906883e-01	 2.4420150747e+00
 1.4347650360e+00	 5.2966918584e-01	 2.2443722455e+00
 1.3519948207e+00	 4.9911307980e-01	 7.8124948034e-01
 1.3472897946e+00	 5.1167765648e-01	 6.2408404314e-01
 1.3424582464e+00	 5.2422288651e-01	 5.1535225228e-01
 1.3375000841e+00	 5.3674693882e-01	 4.5050088895e-01
 1.3324152499e+00	 5.4924797379e-01	 4.2493106077e-01
 1.3272037201e+00	 5.6172414397e-01	 4.3401007409e-01
 1.3218655059e+00	 5.7417359483e-01	 4.7308413944e-01
 1.3164006534e+00	 5.8659446561e-01	 5.3749190059e-01
 1.3108092439e+00	 5.9898489008e-01	 6.2257877082e-01
 1.3050913945e+00	 6.1134299734e-01	 7.2371205428e-01
 1.2992472579e+00	 6.2366691268e-01	 8.3629682331e-01
 1.3602718422e+00	 5.0216869040e-01	 9.7198223800e-01
 1.3555380116e+00	 5.1481018844e-01	 8.3665608494e-01
 1.3506768843e+00	 5.2743222138e-01	 7.3836604441e-01
 1.3456883677e+00	 5.4003294695e-01	 6.7484883155e-01
 1.3405724037e+00	 5.5261051427e-01	 6.4380602421e-01
 1.3353289685e+00	 5.6516306456e-01	 6.4291300501e-01
 1.3299580733e+00	 5.7768873197e-01	 6.6982871676e-01
 1.3244597645e+00	 5.9018564433e-01	 7.2220622558e-01
 1.3188341240e+00	 6.0265192397e-01	 7.9770408005e-01
 1.3130812695e+00	 6.1508568857e-01	 8.9399844794e-01
 1.3072013546e+00	 6.2748505191e-01	 1.0087960058e+00
 1.3685488637e+00	 5.0522430101e-01	 1.1566638089e+00
 1.3637862286e+00	 5.1794272040e-01	 1.0373607470e+00
 1.3588955221e+00	 5.3064155625e-01	 9.4534431281e-01
 1.3538766513e+00	 5.4331895508e-01	 8.8027302244e-01
 1.3487295575e+00	 5.5597305475e-01	 8.4178230342e-01
 1.3434542169e+00	 5.6860198516e-01	 8.2949102198e-01
 1.3380506407e+00	 5.8120386911e-01	 8.4300880993e-01
 1.3325188757e+00	 5.9377682304e-01	 8.8194418913e-01
 1.3268590041e+00	 6.0631895787e-01	 9.4591348524e-01
 1.3210711445e+00	 6.1882837979e-01	 1.0345505158e+00
 1.3151554513e+00	 6.3130319115e-01	 1.1475170312e+00
 1.3768258853e+00	 5.0827991161e-01	 1.3338199723e+00
 1.3720344456e+00	 5.2107525236e-01	 1.2247035969e+00
 1.3671141600e+00	 5.3385089112e-01	 1.1348467687e+00
 1.3620649349e+00	 5.4660496321e-01	 1.0654686059e+00
 1.3568867113e+00	 5.5933559522e-01	 1.0177786753e+00
 1.3515794653e+00	 5.7204090576e-01	 9.9298161374e-01
 1.3461432082e+00	 5.8471900625e-01	 9.9228254347e-01
 1.3405779869e+00	 5.9736800176e-01	 1.0168932794e+00
 1.3348838842e+00	 6.0998599176e-01	 1.0680393243e+00
 1.3290610194e+00	 6.2257107102e-01	 1.1469676383e+00
 1.3231095480e+00	 6.3512133038e-01	 1.2549551650e+00
 1.3851029068e+00	 5.1133552222e-01	 1.5020009145e+00
 1.3802826626e+00	 5.2420778431e-01	 1.3972152096e+00
 1.3753327978e+00	 5.3706022599e-01	 1.3054570205e+00
 1.3702532185e+00	 5.4989097134e-01	 1.2291516366e+00
 1.3650438651e+00	 5.6269813570e-01	 1.1707297954e+00
 1.3597047137e+00	 5.7547982635e-01	 1.1326309050e+00
 1.3542357756e+00	 5.8823414339e-01	 1.1173070576e+00
 1.3486370980e+00	 6.0095918047e-01	 1.1272278368e+00
 1.3429087643e+00	 6.1365302566e-01	 1.1648859149e+00
 1.3370508944e+00	 6.2631376224e-01	 1.2328034302e+00
 1.3310636447e+00	 6.3893946961e-01	 1.3335391258e+00
 1.3933799283e+00	 5.1439113282e-01	 1.6597807211e+00
 1.3885308796e+00	 5.2734031627e-01	 1.5534506889e+00
 1.3835514357e+00	 5.4026956085e-01	 1.4557821784e+00
 1.3784415020e+00	 5.5317697947e-01	 1.3700588233e+00
 1.3732010190e+00	 5.6606067617e-01	 1.2995861447e+00
 1.3678299621e+00	 5.7891874695e-01	 1.2476938737e+00
 1.3623283430e+00	 5.9174928053e-01	 1.2177390688e+00
 1.3566962092e+00	 6.0455035919e-01	 1.2131100346e+00
 1.3509336445e+00	 6.1732005955e-01	 1.2372310385e+00
 1.3450407694e+00	 6.3005645347e-01	 1.2935678145e+00
 1.3390177414e+00	 6.4275760884e-01	 1.3856338394e+00
 1.4016569499e+00	 5.1744674343e-01	 1.8057569064e+00
 1.3967790965e+00	 5.3047284823e-01	 1.6919892259e+00
 1.3917700735e+00	 5.4347889572e-01	 1.5844524920e+00
 1.3866297856e+00	 5.5646298760e-01	 1.4869473036e+00
 1.3813581728e+00	 5.6942321665e-01	 1.4033140017e+00
 1.3759552106e+00	 5.8235766755e-01	 1.3374345854e+00
 1.3704209105e+00	 5.9526441767e-01	 1.2932354358e+00
 1.3647553204e+00	 6.0814153790e-01	 1.2746908522e+00
 1.3589585246e+00	 6.2098709344e-01	 1.2858273984e+00
 1.3530306443e+00	 6.3379914469e-01	 1.3307290498e+00
 1.3469718381e+00	 6.4657574807e-01	 1.4135431248e+00
 1.4099339714e+00	 5.2050235403e-01	 1.9385499775e+00
 1.4050273135e+00	 5.3360538019e-01	 1.8114336926e+00
 1.3999887114e+00	 5.4668823059e-01	 1.6901210232e+00
 1.3948180692e+00	 5.5974899573e-01	 1.5785944492e+00
 1.3895153266e+00	 5.7278575712e-01	 1.4808954375e+00
 1.3840804590e+00	 5.8579658814e-01	 1.4011264423e+00
 1.3785134779e+00	 5.9877955481e-01	 1.3434537310e+00
 1.3728144315e+00	 6.1173271662e-01	 1.3121110395e+00
 1.3669834047e+00	 6.2465412734e-01	 1.3114040549e+00
 1.3610205193e+00	 6.3754183592e-01	 1.3457157166e+00
 1.3549259348e+00	 6.5039388730e-01	 1.4195123165e+00
 1.4182109929e+00	 5.2355796463e-01	 2.0568030321e+00
 1.4132755305e+00	 5.3673791214e-01	 1.9104102682e+00
 1.4082073493e+00	 5.4989756546e-01	 1.7714633494e+00
 1.4030063528e+00	 5.6303500386e-01	 1.6437976979e+00
 1.3976724804e+00	 5.7614829760e-01	 1.5313283346e+00
 1.3922057074e+00	 5.8923550874e-01	 1.4380524487e+00
 1.3866060454e+00	 6.0229469195e-01	 1.3680528168e+00
 1.3808735427e+00	 6.1532389533e-01	 1.3255020745e+00
 1.3750082848e+00	 6.2832116123e-01	 1.3146678378e+00
 1.3690103943e+00	 6.4128452714e-01	 1.3399186628e+00
 1.3628800315e+00	 6.5421202653e-01	 1.4057308247e+00
 1.4264880145e+00	 5.2661357524e-01	 2.1591813884e+00
 1.4215237475e+00	 5.3987044410e-01	 1.9875680987e+00
 1.4164259871e+00	 5.5310690033e-01	 1.8271772983e+00
 1.4111946364e+00	 5.6632101199e-01	 1.6813744143e+00
 1.4058296342e+00	 5.7951083807e-01	 1.5536264271e+00
 1.4003309558e+00	 5.9267442934e-01	 1.4475054898e+00
 1.3946986128e+00	 6.0580982910e-01	 1.3666934266e+00
 1.3889326539e+00	 6.1891507405e-01	 1.3149871137e+00
 1.3830331649e+00	 6.3198819513e-01	 1.2963047363e+00
 1.3770002693e+00	 6.4502721837e-01	 1.3146929085e+00
 1.3708341282e+00	 6.5803016576e-01	 1.3743346358e+00
 1.4347650360e+00	 5.2966918584e-01	 2.2443722455e+00
 1.4297719645e+00	 5.4300297606e-01	 2.0415789872e+00
 1.4246446250e+00	 5.5631623520e-01	 1.8559827119e+00
 1.4193829200e+00	 5.6960702012e-01	 1.6901617761e+00
 1.4139867881e+00	 5.8287337855e-01	 1.5468193625e+00
 1.4084562042e+00	 5.9611334994e-01	 1.4287886252e+00
 1.4027911802e+00	 6.0932496624e-01	 1.3390387508e+00
 1.3969917650e+00	 6.2250625276e-01	 1.2806819350e+00
 1.3910580450e+00	 6.3565522902e-01	 1.2569812687e+00
 1.3849901442e+00	 6.4876990960e-01	 1.2713595154e+00
 1.3787882249e+00	 6.6184830499e-01	 1.3274087567e+00
 1.2992472579e+00	 6.2366691268e-01	 8.3629682331e-01
 1.2932780484e+00	 6.3595267275e-01	 9.3354423834e-01
 1.2871830074e+00	 6.4820049588e-01	 9.9571693279e-01
 1.2809623955e+00	 6.6040850119e-01	 1.0288422348e+00
 1.2746165096e+00	 6.7257480735e-01	 1.0390365452e+00
 1.2681456837e+00	 6.8469753345e-01	 1.0325062876e+00
 1.2615502884e+00	 6.9677479985e-01	 1.0155491312e+00
 1.2548307312e+00	 7.0880472913e-01	 9.9455544131e-01
 1.2479874567e+00	 7.2078544690e-01	 9.7600990691e-01
 1.2410209464e+00	 7.3271508277e-01	 9.6649329154e-01
 1.2339317191e+00	 7.4459177121e-01	 9.7242092746e-01
 1.3072013546e+00	 6.2748505191e-01	 1.0087960058e+00
 1.3011956011e+00	 6.3984602640e-01	 1.1165083883e+00
 1.2950632458e+00	 6.5216883169e-01	 1.1952026467e+00
 1.2888045507e+00	 6.6445157540e-01	 1.2481391387e+00
 1.2824198149e+00	 6.7669236467e-01	 1.2787191355e+00
 1.2759093741e+00	 6.8888930707e-01	 1.2904904764e+00
 1.2692736012e+00	 7.0104051148e-01	 1.2871534978e+00
 1.2625129063e+00	 7.1314408895e-01	 1.2725671832e+00
 1.2556277367e+00	 7.2519815364e-01	 1.2507554723e+00
 1.2486185769e+00	 7.3720082371e-01	 1.2259136666e+00
 1.2414859488e+00	 7.4915022220e-01	 1.2012049400e+00
 1.3151554513e+00	 6.3130319115e-01	 1.1475170312e+00
 1.3091131538e+00	 6.4373938004e-01	 1.2608718727e+00
 1.3029434842e+00	 6.5613716750e-01	 1.3514240579e+00
 1.2966467060e+00	 6.6849464960e-01	 1.4200548192e+00
 1.2902231202e+00	 6.8080992198e-01	 1.4678268340e+00
 1.2836730644e+00	 6.9308108069e-01	 1.4959939837e+00
 1.2769969140e+00	 7.0530622310e-01	 1.5060114007e+00
 1.2701950814e+00	 7.1748344877e-01	 1.4995457394e+00
 1.2632680168e+00	 7.2961086039e-01	 1.4784856022e+00
 1.2562162074e+00	 7.4168656465e-01	 1.4449364883e+00
 1.2490401784e+00	 7.5370867318e-01	 1.3985288295e+00
 1.3231095480e+00	 6.3512133038e-01	 1.2549551650e+00
 1.3170307065e+00	 6.4763273369e-01	 1.3699826437e+00
 1.3108237225e+00	 6.6010550331e-01	 1.4683576389e+00
 1.3044888613e+00	 6.7253772380e-01	 1.5489629179e+00
 1.2980264254e+00	 6.8492747930e-01	 1.6108920414e+00
 1.2914367548e+00	 6.9727285432e-01	 1.6534626345e+00
 1.2847202268e+00	 7.0957193472e-01	 1.6762299695e+00
 1.2778772566e+00	 7.2182280859e-01	 1.6790007869e+00
 1.2709082968e+00	 7.3402356713e-01	 1.6618472807e+00
 1.2638138379e+00	 7.4617230559e-01	 1.6246523476e+00
 1.2565944081e+00	 7.5826712417e-01	 1.5645715571e+00
 1.3310636447e+00	 6.3893946961e-01	 1.3335391258e+00
 1.3249482592e+00	 6.5152608734e-01	 1.4471023957e+00
 1.3187039609e+00	 6.6407383912e-01	 1.5498792849e+00
 1.3123310166e+00	 6.7658079801e-01	 1.6391277372e+00
 1.3058297307e+00	 6.8904503661e-01	 1.7123347776e+00
 1.2992004451e+00	 7.0146462794e-01	 1.7672327107e+00
 1.2924435396e+00	 7.1383764634e-01	 1.8018156629e+00
 1.2855594317e+00	 7.2616216841e-01	 1.8143563913e+00
 1.2785485769e+00	 7.3843627387e-01	 1.8034232753e+00
 1.2714114684e+00	 7.5065804652e-01	 1.7663993134e+00
 1.2641486378e+00	 7.6282557515e-01	 1.6995189335e+00
 1.3390177414e+00	 6.4275760884e-01	 1.3856338394e+00
 1.3328658119e+00	 6.5541944098e-01	 1.4954099698e+00
 1.3265841993e+00	 6.6804217492e-01	 1.5997682096e+00
 1.3201731719e+00	 6.8062387221e-01	 1.6947084629e+00
 1.3136330360e+00	 6.9316259392e-01	 1.7764670622e+00
 1.3069641355e+00	 7.0565640156e-01	 1.8415353150e+00
 1.3001668524e+00	 7.1810335797e-01	 1.8866784384e+00
 1.2932416068e+00	 7.3050152823e-01	 1.9089547975e+00
 1.2861888569e+00	 7.4284898062e-01	 1.9056686494e+00
 1.2790090990e+00	 7.5514378746e-01	 1.8716953106e+00
 1.2717028675e+00	 7.6738402614e-01	 1.8035632836e+00
 1.3469718381e+00	 6.4657574807e-01	 1.4135431248e+00
 1.3407833646e+00	 6.5931279463e-01	 1.5180046684e+00
 1.3344644377e+00	 6.7201051073e-01	 1.6217107353e+00
 1.3280153272e+00	 6.8466694641e-01	 1.7197632714e+00
 1.3214363412e+00	 6.9728015123e-01	 1.8074971746e+00
 1.3147278258e+00	 7.0984817518e-01	 1.8805006174e+00
 1.3078901652e+00	 7.2236906959e-01	 1.9346358113e+00
 1.3009237820e+00	 7.3484088805e-01	 1.9660601258e+00
 1.2938291369e+00	 7.4726168736e-01	 1.9706478451e+00
 1.2866067295e+00	 7.5962952840e-01	 1.9420331988e+00
 1.2792570972e+00	 7.7194247712e-01	 1.8769031008e+00
 1.3549259348e+00	 6.5039388730e-01	 1.4195123165e+00
 1.3487009174e+00	 6.6320614827e-01	 1.5179094855e+00
 1.3423446760e+00	 6.7597884654e-01	 1.6193039820e+00
 1.3358574825e+00	 6.8871002062e-01	 1.7182533257e+00
 1.3292396465e+00	 7.0139770855e-01	 1.8095338007e+00
 1.3224915161e+00	 7.1403994880e-01	 1.8881619889e+00
 1.3156134780e+00	 7.2663478121e-01	 1.9494168101e+00
 1.3086059571e+00	 7.3918024787e-01	 1.9888619765e+00
 1.3014694170e+00	 7.5167439410e-01	 2.0007633481e+00
 1.2942043600e+00	 7.6411526934e-01	 1.9788813564e+00
 1.2868113269e+00	 7.7650092810e-01	 1.9197426927e+00
 1.3628800315e+00	 6.5421202653e-01	 1.4057308247e+00
 1.3566184701e+00	 6.6709950192e-01	 1.4980742539e+00
 1.3502249144e+00	 6.7994718235e-01	 1.5960594607e+00
 1.3436996378e+00	 6.9275309482e-01	 1.6940466661e+00
 1.3370429517e+00	 7.0551526586e-01	 1.7865900680e+00
 1.3302552065e+00	 7.1823172242e-01	 1.8684600263e+00
 1.3233367908e+00	 7.3090049283e-01	 1.9346658295e+00
 1.3162881322e+00	 7.4351960770e-01	 1.9803763621e+00
 1.3091096970e+00	 7.5608710085e-01	 1.9984481166e+00
 1.3018019905e+00	 7.6860101028e-01	 1.9836842239e+00
 1.2943655566e+00	 7.8105937909e-01	 1.9322918161e+00
 1.3708341282e+00	 6.5803016576e-01	 1.3743346358e+00
 1.3645360228e+00	 6.7099285557e-01	 1.4613787150e+00
 1.3581051528e+00	 6.8391551816e-01	 1.5554065727e+00
 1.3515417930e+00	 6.9679616903e-01	 1.6509219979e+00
 1.3448462570e+00	 7.0963282317e-01	 1.7425874763e+00
 1.3380188968e+00	 7.2242349604e-01	 1.8252464739e+00
 1.3310601036e+00	 7.3516620445e-01	 1.8939463884e+00
 1.3239703073e+00	 7.4785896752e-01	 1.9433292051e+00
 1.3167499771e+00	 7.6049980759e-01	 1.9660888739e+00
 1.3093996210e+00	 7.7308675121e-01	 1.9578628064e+00
 1.3019197862e+00	 7.8561783007e-01	 1.9147653045e+00
 1.3787882249e+00	 6.6184830499e-01	 1.3274087567e+00
 1.3724535755e+00	 6.7488620921e-01	 1.4106355126e+00
 1.3659853912e+00	 6.8788385397e-01	 1.5006960211e+00
 1.3593839483e+00	 7.0083924323e-01	 1.5925723830e+00
 1.3526495623e+00	 7.1375038049e-01	 1.6813597264e+00
 1.3457825872e+00	 7.2661526967e-01	 1.7622880443e+00
 1.3387834164e+00	 7.3943191608e-01	 1.8307447934e+00
 1.3316524825e+00	 7.5219832734e-01	 1.8807442844e+00
 1.3243902571e+00	 7.6491251433e-01	 1.9060272551e+00
 1.3169972515e+00	 7.7757249215e-01	 1.9028151378e+00
 1.3094740159e+00	 7.9017628106e-01	 1.8673826863e+00
 1.2339317191e+00	 7.4459177121e-01	 9.7242092746e-01
 1.2267203306e+00	 7.5641365271e-01	 1.0131659525e+00
 1.2193873752e+00	 7.6817887538e-01	 1.0960464438e+00
 1.2119334843e+00	 7.7988559522e-01	 1.2061591064e+00
 1.2043593259e+00	 7.9153197674e-01	 1.3287194960e+00
 1.1966656050e+00	 8.0311619394e-01	 1.4490824374e+00
 1.1888530631e+00	 8.1463643115e-01	 1.5527625468e+00
 1.1809224780e+00	 8.2609088398e-01	 1.6254548419e+00
 1.1728746636e+00	 8.3747776019e-01	 1.6530554235e+00
 1.1647104700e+00	 8.4879528062e-01	 1.6216822125e+00
 1.1564307828e+00	 8.6004168007e-01	 1.5176957231e+00
 1.2414859488e+00	 7.4915022220e-01	 1.2012049400e+00
 1.2342304116e+00	 7.6104447821e-01	 1.1967052746e+00
 1.2268525633e+00	 7.7288172853e-01	 1.2255064551e+00
 1.2193530390e+00	 7.8466011784e-01	 1.2768026940e+00
 1.2117325110e+00	 7.9637779946e-01	 1.3398462255e+00
 1.2039916885e+00	 8.0803293617e-01	 1.4039617109e+00
 1.1961313176e+00	 8.1962370120e-01	 1.4585607975e+00
 1.1881521808e+00	 8.3114827912e-01	 1.4931568249e+00
 1.1800550971e+00	 8.4260486670e-01	 1.4973796755e+00
 1.1718409216e+00	 8.5399167391e-01	 1.4609907618e+00
 1.1635105455e+00	 8.6530692473e-01	 1.3738981438e+00
 1.2490401784e+00	 7.5370867318e-01	 1.3985288295e+00
 1.2417404926e+00	 7.6567530371e-01	 1.3602803048e+00
 1.2343177513e+00	 7.7758458167e-01	 1.3468027618e+00
 1.2267725937e+00	 7.8943464047e-01	 1.3509237483e+00
 1.2191056961e+00	 8.0122362217e-01	 1.3654760524e+00
 1.2113177721e+00	 8.1294967840e-01	 1.3833067321e+00
 1.2034095721e+00	 8.2461097126e-01	 1.3972863408e+00
 1.1953818836e+00	 8.3620567426e-01	 1.4003183532e+00
 1.1872355305e+00	 8.4773197322e-01	 1.3853487969e+00
 1.1789713732e+00	 8.5918806720e-01	 1.3453760943e+00
 1.1705903082e+00	 8.7057216938e-01	 1.2734611160e+00
 1.2565944081e+00	 7.5826712417e-01	 1.5645715571e+00
 1.2492505736e+00	 7.7030612921e-01	 1.5026172624e+00
 1.2417829393e+00	 7.8228743481e-01	 1.4573721777e+00
 1.2341921484e+00	 7.9420916310e-01	 1.4248411179e+00
 1.2264788812e+00	 8.0606944489e-01	 1.4009893022e+00
 1.2186438556e+00	 8.1786642063e-01	 1.3817466393e+00
 1.2106878266e+00	 8.2959824131e-01	 1.3630122418e+00
 1.2026115865e+00	 8.4126306939e-01	 1.3406591874e+00
 1.1944159640e+00	 8.5285907973e-01	 1.3105395387e+00
 1.1861018248e+00	 8.6438446049e-01	 1.2684896351e+00
 1.1776700709e+00	 8.7583741404e-01	 1.2103356696e+00
 1.2641486378e+00	 7.6282557515e-01	 1.6995189335e+00
 1.2567606546e+00	 7.7493695470e-01	 1.6224839071e+00
 1.2492481274e+00	 7.8699028795e-01	 1.5547238464e+00
 1.2416117031e+00	 7.9898368572e-01	 1.4949726771e+00
 1.2338520663e+00	 8.1091526761e-01	 1.4418877411e+00
 1.2259699391e+00	 8.2278316286e-01	 1.3940499583e+00
 1.2179660812e+00	 8.3458551136e-01	 1.3499642480e+00
 1.2098412893e+00	 8.4632046453e-01	 1.3080602336e+00
 1.2015963974e+00	 8.5798618625e-01	 1.2666932499e+00
 1.1932322764e+00	 8.6958085378e-01	 1.2241456759e+00
 1.1847498336e+00	 8.8110265869e-01	 1.1786286126e+00
 1.2717028675e+00	 7.6738402614e-01	 1.8035632836e+00
 1.2642707355e+00	 7.7956778020e-01	 1.7186881518e+00
 1.2567133154e+00	 7.9169314109e-01	 1.6364369182e+00
 1.2490312578e+00	 8.0375820835e-01	 1.5578321908e+00
 1.2412252514e+00	 8.1576109032e-01	 1.4837907548e+00
 1.2332960227e+00	 8.2769990509e-01	 1.4151202290e+00
 1.2252443357e+00	 8.3957278141e-01	 1.3525160033e+00
 1.2170709921e+00	 8.5137785967e-01	 1.2965584883e+00
 1.2087768309e+00	 8.6311329276e-01	 1.2477107038e+00
 1.2003627280e+00	 8.7477724707e-01	 1.2063162363e+00
 1.1918295963e+00	 8.8636790335e-01	 1.1725975897e+00
 1.2792570972e+00	 7.7194247712e-01	 1.8769031008e+00
 1.2717808165e+00	 7.8419860570e-01	 1.7900767022e+00
 1.2641785035e+00	 7.9639599424e-01	 1.7001582878e+00
 1.2564508126e+00	 8.0853273098e-01	 1.6100262659e+00
 1.2485984365e+00	 8.2060691304e-01	 1.5224316389e+00
 1.2406221062e+00	 8.3261664732e-01	 1.4399917632e+00
 1.2325225902e+00	 8.4456005147e-01	 1.3651844063e+00
 1.2243006949e+00	 8.5643525481e-01	 1.3003421369e+00
 1.2159572644e+00	 8.6824039928e-01	 1.2476470813e+00
 1.2074931796e+00	 8.7997364036e-01	 1.2091260817e+00
 1.1989093590e+00	 8.9163314800e-01	 1.1866462880e+00
 1.2868113269e+00	 7.7650092810e-01	 1.9197426927e+00
 1.2792908975e+00	 7.8882943120e-01	 1.8355337224e+00
 1.2716436915e+00	 8.0109884738e-01	 1.7436003877e+00
 1.2638703673e+00	 8.1330725360e-01	 1.6482513879e+00
 1.2559716216e+00	 8.2545273575e-01	 1.5536539961e+00
 1.2479481897e+00	 8.3753338955e-01	 1.4638255266e+00
 1.2398008447e+00	 8.4954732152e-01	 1.3826251076e+00
 1.2315303978e+00	 8.6149264994e-01	 1.3137458004e+00
 1.2231376978e+00	 8.7336750579e-01	 1.2607071052e+00
 1.2146236312e+00	 8.8517003365e-01	 1.2268478904e+00
 1.2059891216e+00	 8.9689839266e-01	 1.2153197858e+00
 1.2943655566e+00	 7.8105937909e-01	 1.9322918161e+00
 1.2868009785e+00	 7.9346025670e-01	 1.8539795245e+00
 1.2791088795e+00	 8.0580170052e-01	 1.7645390369e+00
 1.2712899220e+00	 8.1808177623e-01	 1.6692910372e+00
 1.2633448067e+00	 8.3029855847e-01	 1.5734082362e+00
 1.2552742732e+00	 8.4245013178e-01	 1.4819051421e+00
 1.2470790992e+00	 8.5453459157e-01	 1.3996281399e+00
 1.2387601006e+00	 8.6655004508e-01	 1.3312459228e+00
 1.2303181313e+00	 8.7849461231e-01	 1.2812403202e+00
 1.2217540829e+00	 8.9036642693e-01	 1.2538975645e+00
 1.2130688843e+00	 9.0216363731e-01	 1.2533000384e+00
 1.3019197862e+00	 7.8561783007e-01	 1.9147653045e+00
 1.2943110595e+00	 7.9809108220e-01	 1.8443692820e+00
 1.2865740676e+00	 8.1050455366e-01	 1.7608113414e+00
 1.2787094767e+00	 8.2285629886e-01	 1.6700128836e+00
 1.2707179918e+00	 8.3514438118e-01	 1.5777481739e+00
 1.2626003568e+00	 8.4736687401e-01	 1.4896330071e+00
 1.2543573537e+00	 8.5952186162e-01	 1.4111136765e+00
 1.2459898034e+00	 8.7160744022e-01	 1.3474562945e+00
 1.2374985648e+00	 8.8362171882e-01	 1.3037365113e+00
 1.2288845345e+00	 8.9556282022e-01	 1.2848296774e+00
 1.2201486470e+00	 9.0742888197e-01	 1.2954014946e+00
 1.3094740159e+00	 7.9017628106e-01	 1.8673826863e+00
 1.3018211405e+00	 8.0272190770e-01	 1.8056917662e+00
 1.2940392556e+00	 8.1520740681e-01	 1.7303136455e+00
 1.2861290314e+00	 8.2763082149e-01	 1.6473660540e+00
 1.2780911770e+00	 8.3999020390e-01	 1.5628277216e+00
 1.2699264403e+00	 8.5228361624e-01	 1.4825265222e+00
 1.2616356082e+00	 8.6450913168e-01	 1.4121279114e+00
 1.2532195063e+00	 8.7666483536e-01	 1.3571237059e+00
 1.2446789982e+00	 8.8874882534e-01	 1.3228212556e+00
 1.2360149861e+00	 9.0075921351e-01	 1.3143330547e+00
 1.2272284097e+00	 9.1269412663e-01	 1.3365668388e+00
 1.1564307828e+00	 8.6004168007e-01	 1.5176957231e+00
 1.1480350871e+00	 8.7121710044e-01	 1.3391469733e+00
 1.1395257413e+00	 8.8231788280e-01	 1.1074449146e+00
 1.1309037418e+00	 8.9334230186e-01	 8.4368857241e-01
 1.1221701192e+00	 9.0428864976e-01	 5.6839236538e-01
 1.1133259384e+00	 9.1515523699e-01	 3.0145442223e-01
 1.1043722979e+00	 9.2594039318e-01	 6.2955961959e-02
 1.0953103293e+00	 9.3664246796e-01	-1.2647595228e-01
 1.0861411972e+00	 9.4725983182e-01	-2.4884518424e-01
 1.0768660984e+00	 9.5779087687e-01	-2.8700422767e-01
 1.0674862614e+00	 9.6823401769e-01	-2.2457703709e-01
 1.1635105455e+00	 8.6530692473e-01	 1.3738981438e+00
 1.1550634506e+00	 8.7655076192e-01	 1.2295536760e+00
 1.1465020100e+00	 8.8771950417e-01	 1.0400618774e+00
 1.1378272259e+00	 8.9881141561e-01	 8.2293731165e-01
 1.1290401354e+00	 9.0982477794e-01	 5.9509550113e-01
 1.1201418098e+00	 9.2075789130e-01	 3.7282590320e-01
 1.1111333543e+00	 9.3160907508e-01	 1.7176594260e-01
 1.1020159077e+00	 9.4237666883e-01	 8.3648325965e-03
 1.0927906414e+00	 9.5305903305e-01	-1.0159225865e-01
 1.0834587597e+00	 9.6365455001e-01	-1.4455831042e-01
 1.0740214985e+00	 9.7416162458e-01	-1.0774309454e-01
 1.1705903082e+00	 8.7057216938e-01	 1.2734611160e+00
 1.1620918142e+00	 8.8188442340e-01	 1.1590103384e+00
 1.1534782787e+00	 8.9312112554e-01	 1.0058382479e+00
 1.1447507100e+00	 9.0428052936e-01	 8.2818809017e-01
 1.1359101515e+00	 9.1536090612e-01	 6.3970207964e-01
 1.1269576812e+00	 9.2636054560e-01	 4.5339867685e-01
 1.1178944108e+00	 9.3727775698e-01	 2.8165094999e-01
 1.1087214860e+00	 9.4811086970e-01	 1.3626730874e-01
 1.0994400856e+00	 9.5885823428e-01	 3.0365684801e-02
 1.0900514209e+00	 9.6951822314e-01	-2.4898646532e-02
 1.0805567357e+00	 9.8008923147e-01	-1.9930435094e-02
 1.1776700709e+00	 8.7583741404e-01	 1.2103356696e+00
 1.1691201778e+00	 8.8721808488e-01	 1.1219796613e+00
 1.1604545473e+00	 8.9852274690e-01	 9.9993924812e-01
 1.1516741941e+00	 9.0974964312e-01	 8.5549420291e-01
 1.1427801677e+00	 9.2089703430e-01	 6.9933357229e-01
 1.1337735525e+00	 9.3196319991e-01	 5.4153689965e-01
 1.1246554672e+00	 9.4294643889e-01	 3.9155654248e-01
 1.1154270644e+00	 9.5384507057e-01	 2.5820112975e-01
 1.1060895298e+00	 9.6465743550e-01	 1.5005787290e-01
 1.0966440822e+00	 9.7538189628e-01	 7.6885397951e-02
 1.0870919728e+00	 9.8601683836e-01	 4.5796951593e-02
 1.1847498336e+00	 8.8110265869e-01	 1.1786286126e+00
 1.1761485413e+00	 8.9255174637e-01	 1.1130679897e+00
 1.1674308160e+00	 9.0392436827e-01	 1.0176570717e+00
 1.1585976782e+00	 9.1521875687e-01	 9.0101483423e-01
 1.1496501838e+00	 9.2643316248e-01	 7.7119197955e-01
 1.1405894239e+00	 9.3756585421e-01	 6.3565575346e-01
 1.1314165237e+00	 9.4861512079e-01	 5.0127584902e-01
 1.1221326427e+00	 9.5957927144e-01	 3.7431143793e-01
 1.1127389739e+00	 9.7045663673e-01	 2.6039936617e-01
 1.1032367435e+00	 9.8124556942e-01	 1.6559204747e-01
 1.0936272100e+00	 9.9194444525e-01	 9.6215192039e-02
 1.1918295963e+00	 8.8636790335e-01	 1.1725975897e+00
 1.1831769049e+00	 8.9788540785e-01	 1.1270207172e+00
 1.1744070847e+00	 9.0932598964e-01	 1.0544067714e+00
 1.1655211622e+00	 9.2068787062e-01	 9.6101156057e-01
 1.1565202000e+00	 9.3196929066e-01	 8.5255707700e-01
 1.1474052952e+00	 9.4316850852e-01	 7.3421955939e-01
 1.1381775801e+00	 9.5428380269e-01	 6.1061861710e-01
 1.1288382210e+00	 9.6531347231e-01	 4.8580745261e-01
 1.1193884181e+00	 9.7625583796e-01	 3.6326421410e-01
 1.1098294047e+00	 9.8710924255e-01	 2.4591165629e-01
 1.1001624471e+00	 9.9787205214e-01	 1.3794651479e-01
 1.1989093590e+00	 8.9163314800e-01	 1.1866462880e+00
 1.1902052685e+00	 9.0321906933e-01	 1.1587178268e+00
 1.1813833533e+00	 9.1472761101e-01	 1.1057222654e+00
 1.1724446463e+00	 9.2615698437e-01	 1.0318449495e+00
 1.1633902161e+00	 9.3750541884e-01	 9.4078373115e-01
 1.1542211666e+00	 9.4877116282e-01	 8.3573993035e-01
 1.1449386366e+00	 9.5995248459e-01	 7.1941031807e-01
 1.1355437994e+00	 9.7104767318e-01	 5.9398015051e-01
 1.1260378623e+00	 9.8205503919e-01	 4.6111728309e-01
 1.1164220660e+00	 9.9297291569e-01	 3.2196738806e-01
 1.1066976842e+00	 1.0037996590e+00	 1.7746505921e-01
 1.2059891216e+00	 8.9689839266e-01	 1.2153197858e+00
 1.1972336320e+00	 9.0855273081e-01	 1.2031695617e+00
 1.1883596220e+00	 9.2012923238e-01	 1.1672524564e+00
 1.1793681304e+00	 9.3162609812e-01	 1.1099712512e+00
 1.1702602322e+00	 9.4304154702e-01	 1.0332992820e+00
 1.1610370379e+00	 9.5437381712e-01	 9.3877396054e-01
 1.1516996930e+00	 9.6562116649e-01	 8.2749125565e-01
 1.1422493777e+00	 9.7678187404e-01	 7.0010116423e-01
 1.1326873064e+00	 9.8785424042e-01	 5.5680419494e-01
 1.1230147273e+00	 9.9883658883e-01	 3.9734888545e-01
 1.1132329214e+00	 1.0097272659e+00	 2.2103036930e-01
 1.2130688843e+00	 9.0216363731e-01	 1.2533000384e+00
 1.2042619956e+00	 9.1388639229e-01	 1.2555122214e+00
 1.1953358906e+00	 9.2553085375e-01	 1.2347574612e+00
 1.1862916145e+00	 9.3709521188e-01	 1.1919391782e+00
 1.1771302484e+00	 9.4857767520e-01	 1.1276009899e+00
 1.1678529093e+00	 9.5997647143e-01	 1.0419224506e+00
 1.1584607494e+00	 9.7128984840e-01	 9.3471567754e-01
 1.1489549560e+00	 9.8251607491e-01	 8.0542288478e-01
 1.1393367506e+00	 9.9365344164e-01	 6.5311484927e-01
 1.1296073885e+00	 1.0047002620e+00	 4.7649032421e-01
 1.1197681585e+00	 1.0156548728e+00	 2.7387641386e-01
 1.2201486470e+00	 9.0742888197e-01	 1.2954014946e+00
 1.2112903592e+00	 9.1922005377e-01	 1.3110040778e+00
 1.2023121593e+00	 9.3093247511e-01	 1.3041049428e+00
 1.1932150986e+00	 9.4256432563e-01	 1.2743867707e+00
 1.1840002645e+00	 9.5411380338e-01	 1.2212535431e+00
 1.1746687806e+00	 9.6557912573e-01	 1.1438281668e+00
 1.1652218059e+00	 9.7695853030e-01	 1.0409508900e+00
 1.1556605344e+00	 9.8825027578e-01	 9.1117853222e-01
 1.1459861948e+00	 9.9945264287e-01	 7.5278454742e-01
 1.1362000498e+00	 1.0105639351e+00	 5.6375993375e-01
 1.1263033957e+00	 1.0215824797e+00	 3.4181500220e-01
 1.2272284097e+00	 9.1269412663e-01	 1.3365668388e+00
 1.2183187227e+00	 9.2455371526e-01	 1.3650214055e+00
 1.2092884280e+00	 9.3633409648e-01	 1.3712665445e+00
 1.2001385827e+00	 9.4803343938e-01	 1.3540383428e+00
 1.1908702807e+00	 9.5964993156e-01	 1.3118866259e+00
 1.1814846520e+00	 9.7118178004e-01	 1.2431741329e+00
 1.1719828623e+00	 9.8262721220e-01	 1.1460763752e+00
 1.1623661127e+00	 9.9398447665e-01	 1.0185821960e+00
 1.1526356390e+00	 1.0052518441e+00	 8.5849504921e-01
 1.1427927111e+00	 1.0164276082e+00	 6.6343501034e-01
 1.1328386328e+00	 1.0275100866e+00	 4.3084152770e-01
 1.0674862614e+00	 9.6823401769e-01	-2.2457703709e-01
 1.0580045638e+00	 9.7858594266e-01	-9.3067640995e-02
 1.0484206960e+00	 9.8884691112e-01	 5.5984363417e-02
 1.0387359610e+00	 9.9901542729e-01	 2.0874070912e-01
 1.0289516911e+00	 1.0090900209e+00	 3.5203604415e-01
 1.0190692479e+00	 1.0190692479e+00	 4.7340935887e-01
 1.0090900209e+00	 1.0289516911e+00	 5.6113417215e-01
 9.9901542729e-01	 1.0387359610e+00	 6.0424735789e-01
 9.8884691112e-01	 1.0484206960e+00	 5.9257649835e-01
 9.7858594266e-01	 1.0580045638e+00	 5.1676565616e-01
 9.6823401769e-01	 1.0674862614e+00	 3.6829946296e-01
 1.0740214985e+00	 9.7416162458e-01	-1.0774309454e-01
 1.0644817533e+00	 9.8457692488e-01	-1.3590651033e-02
 1.0548392122e+00	 9.9490071181e-01	 9.8666048239e-02
 1.0450951864e+00	 1.0051314805e+00	 2.1662163009e-01
 1.0352510165e+00	 1.0152677516e+00	 3.2869669704e-01
 1.0253080722e+00	 1.0253080722e+00	 4.2416785939e-01
 1.0152677516e+00	 1.0352510165e+00	 4.9319628973e-01
 1.0051314805e+00	 1.0450951864e+00	 5.2685468122e-01
 9.9490071181e-01	 1.0548392122e+00	 5.1715249665e-01
 9.8457692488e-01	 1.0644817533e+00	 4.5705940135e-01
 9.7416162458e-01	 1.0740214985e+00	 3.4052677951e-01
 1.0805567357e+00	 9.8008923147e-01	-1.9930435094e-02
 1.0709589427e+00	 9.9056790709e-01	 3.2993152744e-02
 1.0612577285e+00	 1.0009545125e+00	 1.0775846793e-01
 1.0514544119e+00	 1.0112475336e+00	 1.9331669154e-01
 1.0415503419e+00	 1.0214454822e+00	 2.7955006950e-01
 1.0315468965e+00	 1.0315468965e+00	 3.5730069032e-01
 1.0214454822e+00	 1.0415503419e+00	 4.1839761631e-01
 1.0112475336e+00	 1.0514544119e+00	 4.5568224936e-01
 1.0009545125e+00	 1.0612577285e+00	 4.6303181833e-01
 9.9056790709e-01	 1.0709589427e+00	 4.3538088150e-01
 9.8008923147e-01	 1.0805567357e+00	 3.6874074472e-01
 1.0870919728e+00	 9.8601683836e-01	 4.5796951593e-02
 1.0774361321e+00	 9.9655888930e-01	 5.5327953598e-02
 1.0676762447e+00	 1.0070083132e+00	 9.2841323073e-02
 1.0578136374e+00	 1.0173635868e+00	 1.4856995333e-01
 1.0478496673e+00	 1.0276232128e+00	 2.1373551381e-01
 1.0377857207e+00	 1.0377857207e+00	 2.8057611344e-01
 1.0276232128e+00	 1.0478496673e+00	 3.4237221563e-01
 1.0173635868e+00	 1.0578136374e+00	 3.9347068524e-01
 1.0070083132e+00	 1.0676762447e+00	 4.2930685415e-01
 9.9655888930e-01	 1.0774361321e+00	 4.4642449849e-01
 9.8601683836e-01	 1.0870919728e+00	 4.4249362879e-01
 1.0936272100e+00	 9.9194444525e-01	 9.6215192039e-02
 1.0839133215e+00	 1.0025498715e+00	 6.1858111338e-02
 1.0740947609e+00	 1.0130621139e+00	 6.3272967188e-02
 1.0641728629e+00	 1.0234796400e+00	 9.1900979674e-02
 1.0541489927e+00	 1.0338009435e+00	 1.4018305798e-01
 1.0440245450e+00	 1.0440245450e+00	 2.0158648870e-01
 1.0338009435e+00	 1.0541489927e+00	 2.7062984035e-01
 1.0234796400e+00	 1.0641728629e+00	 3.4290596330e-01
 1.0130621139e+00	 1.0740947609e+00	 4.1510297055e-01
 1.0025498715e+00	 1.0839133215e+00	 4.8502309202e-01
 9.9194444525e-01	 1.0936272100e+00	 5.5159930262e-01
 1.1001624471e+00	 9.9787205214e-01	 1.3794651479e-01
 1.0903905110e+00	 1.0085408537e+00	 6.0835369087e-02
 1.0805132771e+00	 1.0191159146e+00	 2.8198285505e-02
 1.0705320884e+00	 1.0295956931e+00	 3.2612842005e-02
 1.0604483181e+00	 1.0399786741e+00	 6.7620986386e-02
 1.0502633693e+00	 1.0502633693e+00	 1.2775488827e-01
 1.0399786741e+00	 1.0604483181e+00	 2.0856103760e-01
 1.0295956931e+00	 1.0705320884e+00	 3.0662246725e-01
 1.0191159146e+00	 1.0805132771e+00	 4.1957898377e-01
 1.0085408537e+00	 1.0903905110e+00	 5.4614529750e-01
 9.9787205214e-01	 1.1001624471e+00	 6.8612695099e-01
 1.1066976842e+00	 1.0037996590e+00	 1.7746505921e-01
 1.0968677004e+00	 1.0145318359e+00	 6.0325840204e-02
 1.0869317933e+00	 1.0251697153e+00	-3.4436695161e-03
 1.0768913139e+00	 1.0357117463e+00	-2.0200125338e-02
 1.0667476435e+00	 1.0461564048e+00	 4.5831886814e-03
 1.0565021936e+00	 1.0565021936e+00	 6.6341513592e-02
 1.0461564048e+00	 1.0667476435e+00	 1.6144211123e-01
 1.0357117463e+00	 1.0768913139e+00	 2.8720597750e-01
 1.0251697153e+00	 1.0869317933e+00	 4.4192765522e-01
 1.0145318359e+00	 1.0968677004e+00	 6.2489303591e-01
 1.0037996590e+00	 1.1066976842e+00	 8.3639504714e-01
 1.1132329214e+00	 1.0097272659e+00	 2.2103036930e-01
 1.1033448898e+00	 1.0205228181e+00	 6.8216784420e-02
 1.0933503095e+00	 1.0312235159e+00	-2.2912275804e-02
 1.0832505393e+00	 1.0418277995e+00	-5.7644806342e-02
 1.0730469689e+00	 1.0523341354e+00	-4.0583713506e-02
 1.0627410179e+00	 1.0627410179e+00	 2.4449923334e-02
 1.0523341354e+00	 1.0730469689e+00	 1.3443994667e-01
 1.0418277995e+00	 1.0832505393e+00	 2.8719659094e-01
 1.0312235159e+00	 1.0933503095e+00	 4.8137620739e-01
 1.0205228181e+00	 1.1033448898e+00	 7.1649913022e-01
 1.0097272659e+00	 1.1132329214e+00	 9.9305023640e-01
 1.1197681585e+00	 1.0156548728e+00	 2.7387641386e-01
 1.1098220793e+00	 1.0265138003e+00	 9.2223181778e-02
 1.0997688257e+00	 1.0372773166e+00	-2.1658162952e-02
 1.0896097648e+00	 1.0479438526e+00	-7.1022011856e-02
 1.0793462943e+00	 1.0585118661e+00	-5.9713453051e-02
 1.0689798421e+00	 1.0689798421e+00	 9.0330800564e-03
 1.0585118661e+00	 1.0793462943e+00	 1.3261670386e-01
 1.0479438526e+00	 1.0896097648e+00	 3.0909157596e-01
 1.0372773166e+00	 1.0997688257e+00	 5.3718685945e-01
 1.0265138003e+00	 1.1098220793e+00	 8.1632504338e-01
 1.0156548728e+00	 1.1197681585e+00	 1.1480597392e+00
 1.1263033957e+00	 1.0215824797e+00	 3.4181500220e-01
 1.1162992687e+00	 1.0325047826e+00	 1.3948130012e-01
 1.1061873419e+00	 1.0433311173e+00	 8.6837519454e-03
 1.0959689903e+00	 1.0540599058e+00	-5.1819406175e-02
 1.0856456197e+00	 1.0646895967e+00	-4.4813408285e-02
 1.0752186664e+00	 1.0752186664e+00	 2.6899222957e-02
 1.0646895967e+00	 1.0856456197e+00	 1.6093438388e-01
 1.0540599058e+00	 1.0959689903e+00	 3.5534816531e-01
 1.0433311173e+00	 1.1061873419e+00	 6.0865738166e-01
 1.0325047826e+00	 1.1162992687e+00	 9.2033828814e-01
 1.0215824797e+00	 1.1263033957e+00	 1.2928671404e+00
 1.1328386328e+00	 1.0275100866e+00	 4.3084152770e-01
 1.1227764581e+00	 1.0384957648e+00	 2.1656370314e-01
 1.1126058582e+00	 1.0493849180e+00	 7.6267195739e-02
 1.1023282158e+00	 1.0601759590e+00	 8.2953571289e-03
 1.0919449451e+00	 1.0708673273e+00	 1.1941909830e-02
 1.0814574907e+00	 1.0814574907e+00	 8.4717573708e-02
 1.0708673273e+00	 1.0919449451e+00	 2.2425927406e-01
 1.0601759590e+00	 1.1023282158e+00	 4.2838628931e-01
 1.0493849180e+00	 1.1126058582e+00	 6.9515887856e-01
 1.0384957648e+00	 1.1227764581e+00	 1.0251515083e+00
 1.0275100866e+00	 1.1328386328e+00	 1.4187672787e+00
 9.6823401769e-01	 1.0674862614e+00	 3.6829946296e-01
 9.5779087687e-01	 1.0768660984e+00	 2.0726165742e-01
 9.4725983182e-01	 1.0861411972e+00	 9.9759411070e-02
 9.3664246796e-01	 1.0953103293e+00	 4.6410166041e-02
 9.2594039318e-01	 1.1043722979e+00	 4.7239435329e-02
 9.1515523699e-01	 1.1133259384e+00	 1.0179777437e-01
 9.0428864976e-01	 1.1221701192e+00	 2.1137458455e-01
 8.9334230186e-01	 1.1309037418e+00	 3.7547231186e-01
 8.8231788280e-01	 1.1395257413e+00	 5.9202381557e-01
 8.7121710044e-01	 1.1480350871e+00	 8.5832055098e-01
 8.6004168007e-01	 1.1564307828e+00	 1.1710134344e+00
 9.7416162458e-01	 1.0740214985e+00	 3.4052677951e-01
 9.6365455001e-01	 1.0834587597e+00	 2.1649136898e-01
 9.5305903305e-01	 1.0927906414e+00	 1.3853476688e-01
 9.4237666883e-01	 1.1020159077e+00	 1.0758154376e-01
 9.3160907508e-01	 1.1111333543e+00	 1.2367602376e-01
 9.2075789130e-01	 1.1201418098e+00	 1.8778938418e-01
 9.0982477794e-01	 1.1290401354e+00	 3.0022257654e-01
 8.9881141561e-01	 1.1378272259e+00	 4.5869655207e-01
 8.8771950417e-01	 1.1465020100e+00	 6.6000356462e-01
 8.7655076192e-01	 1.1550634506e+00	 9.0000928039e-01
 8.6530692473e-01	 1.1635105455e+00	 1.1736563926e+00
 9.8008923147e-01	 1.0805567357e+00	 3.6874074472e-01
 9.6951822314e-01	 1.0900514209e+00	 2.9759762115e-01
 9.5885823428e-01	 1.0994400856e+00	 2.5985967909e-01
 9.4811086970e-01	 1.1087214860e+00	 2.5662545685e-01
 9.3727775698e-01	 1.1178944108e+00	 2.8890312803e-01
 9.2636054560e-01	 1.1269576812e+00	 3.5832549420e-01
 9.1536090612e-01	 1.1359101515e+00	 4.6322169295e-01
 9.0428052936e-01	 1.1447507100e+00	 6.0067117008e-01
 8.9312112554e-01	 1.1534782787e+00	 7.6662194777e-01
 8.8188442340e-01	 1.1620918142e+00	 9.5589439517e-01
 8.7057216938e-01	 1.1705903082e+00	 1.1621867973e+00
 9.8601683836e-01	 1.0870919728e+00	 4.4249362879e-01
 9.7538189628e-01	 1.0966440822e+00	 4.3531277821e-01
 9.6465743550e-01	 1.1060895298e+00	 4.4503393304e-01
 9.5384507057e-01	 1.1154270644e+00	 4.7318771397e-01
 9.4294643889e-01	 1.1246554672e+00	 5.2258488261e-01
 9.3196319991e-01	 1.1337735525e+00	 5.9287663690e-01
 9.2089703430e-01	 1.1427801677e+00	 6.8196210289e-01
 9.0974964312e-01	 1.1516741941e+00	 7.8648723600e-01
 8.9852274690e-01	 1.1604545473e+00	 9.0184760832e-01
 8.8721808488e-01	 1.1691201778e+00	 1.0221931653e+00
 8.7583741404e-01	 1.1776700709e+00	 1.1404349609e+00
 9.9194444525e-01	 1.0936272100e+00	 5.5159930262e-01
 9.8124556942e-01	 1.1032367435e+00	 6.1474617662e-01
 9.7045663673e-01	 1.1127389739e+00	 6.7587031496e-01
 9.5957927144e-01	 1.1221326427e+00	 7.3845707825e-01
 9.4861512079e-01	 1.1314165237e+00	 8.0397116418e-01
 9.3756585421e-01	 1.1405894239e+00	 8.7140983672e-01
 9.2643316248e-01	 1.1496501838e+00	 9.3847972469e-01
 9.1521875687e-01	 1.1585976782e+00	 1.0015978354e+00
 9.0392436827e-01	 1.1674308160e+00	 1.0558945908e+00
 8.9255174637e-01	 1.1761485413e+00	 1.0952189019e+00
 8.8110265869e-01	 1.1847498336e+00	 1.1121452906e+00
 9.9787205214e-01	 1.1001624471e+00	 6.8612695099e-01
 9.8710924255e-01	 1.1098294047e+00	 8.2137442225e-01
 9.7625583796e-01	 1.1193884181e+00	 9.3582572090e-01
 9.6531347231e-01	 1.1288382210e+00	 1.0329202462e+00
 9.5428380269e-01	 1.1381775801e+00	 1.1128103351e+00
 9.4316850852e-01	 1.1474052952e+00	 1.1743734583e+00
 9.3196929066e-01	 1.1565202000e+00	 1.2152425780e+00
 9.2068787062e-01	 1.1655211622e+00	 1.2318069062e+00
 9.0932598964e-01	 1.1744070847e+00	 1.2192146405e+00
 8.9788540785e-01	 1.1831769049e+00	 1.1713776939e+00
 8.8636790335e-01	 1.1918295963e+00	 1.0809784303e+00
 1.0037996590e+00	 1.1066976842e+00	 8.3639504714e-01
 9.9297291569e-01	 1.1164220660e+00	 1.0415889877e+00
 9.8205503919e-01	 1.1260378623e+00	 1.2081371316e+00
 9.7104767318e-01	 1.1355437994e+00	 1.3374164211e+00
 9.5995248459e-01	 1.1449386366e+00	 1.4293341082e+00
 9.4877116282e-01	 1.1542211666e+00	 1.4826825729e+00
 9.3750541884e-01	 1.1633902161e+00	 1.4951376005e+00
 9.2615698437e-01	 1.1724446463e+00	 1.4632584526e+00
 9.1472761101e-01	 1.1813833533e+00	 1.3824897576e+00
 9.0321906933e-01	 1.1902052685e+00	 1.2471652407e+00
 8.9163314800e-01	 1.1989093590e+00	 1.0505133078e+00
 1.0097272659e+00	 1.1132329214e+00	 9.9305023640e-01
 9.9883658883e-01	 1.1230147273e+00	 1.2627396169e+00
 9.8785424042e-01	 1.1326873064e+00	 1.4759536191e+00
 9.7678187404e-01	 1.1422493777e+00	 1.6332394099e+00
 9.6562116649e-01	 1.1516996930e+00	 1.7342429252e+00
 9.5437381712e-01	 1.1610370379e+00	 1.7777048210e+00
 9.4304154702e-01	 1.1702602322e+00	 1.7614579106e+00
 9.3162609812e-01	 1.1793681304e+00	 1.6824261198e+00
 9.2012923238e-01	 1.1883596220e+00	 1.5366249940e+00
 9.0855273081e-01	 1.1972336320e+00	 1.3191637783e+00
 8.9689839266e-01	 1.2059891216e+00	 1.0242490912e+00
 1.0156548728e+00	 1.1197681585e+00	 1.1480597392e+00
 1.0047002620e+00	 1.1296073885e+00	 1.4714496549e+00
 9.9365344164e-01	 1.1393367506e+00	 1.7228220087e+00
 9.8251607491e-01	 1.1489549560e+00	 1.9021239136e+00
 9.7128984840e-01	 1.1584607494e+00	 2.0086918297e+00
 9.5997647143e-01	 1.1678529093e+00	 2.0412467524e+00
 9.4857767520e-01	 1.1771302484e+00	 1.9978904968e+00
 9.3709521188e-01	 1.1862916145e+00	 1.8761031152e+00
 9.2553085375e-01	 1.1953358906e+00	 1.6727414846e+00
 9.1388639229e-01	 1.2042619956e+00	 1.3840390944e+00
 9.0216363731e-01	 1.2130688843e+00	 1.0056070583e+00
 1.0215824797e+00	 1.1263033957e+00	 1.2928671404e+00
 1.0105639351e+00	 1.1362000498e+00	 1.6546261834e+00
 9.9945264287e-01	 1.1459861948e+00	 1.9326748871e+00
 9.8825027578e-01	 1.1556605344e+00	 2.1262322766e+00
 9.7695853030e-01	 1.1652218059e+00	 2.2342768129e+00
 9.6557912573e-01	 1.1746687806e+00	 2.2555406223e+00
 9.5411380338e-01	 1.1840002645e+00	 2.1885043185e+00
 9.4256432563e-01	 1.1932150986e+00	 2.0313924623e+00
 9.3093247511e-01	 1.2023121593e+00	 1.7821697019e+00
 9.1922005377e-01	 1.2112903592e+00	 1.4385376286e+00
 9.0742888197e-01	 1.2201486470e+00	 9.9793238267e-01
 1.0275100866e+00	 1.1328386328e+00	 1.4187672787e+00
 1.0164276082e+00	 1.1427927111e+00	 1.7994820210e+00
 1.0052518441e+00	 1.1526356390e+00	 2.0898190072e+00
 9.9398447665e-01	 1.1623661127e+00	 2.2881416764e+00
 9.8262721220e-01	 1.1719828623e+00	 2.3930216140e+00
 9.7118178004e-01	 1.1814846520e+00	 2.4032316271e+00
 9.5964993156e-01	 1.1908702807e+00	 2.3177387984e+00
 9.4803343938e-01	 1.2001385827e+00	 2.1356975733e+00
 9.3633409648e-01	 1.2092884280e+00	 1.8564429264e+00
 9.2455371526e-01	 1.2183187227e+00	 1.4794836546e+00
 9.1269412663e-01	 1.2272284097e+00	 1.0044958387e+00
 8.6004168007e-01	 1.1564307828e+00	 1.1710134344e+00
 8.4879528062e-01	 1.1647104700e+00	 1.4679144703e+00
 8.3747776019e-01	 1.1728746636e+00	 1.6903168978e+00
 8.2609088398e-01	 1.1809224780e+00	 1.8399623390e+00
 8.1463643115e-01	 1.1888530631e+00	 1.9192738150e+00
 8.0311619394e-01	 1.1966656050e+00	 1.9313423338e+00
 7.9153197674e-01	 1.2043593259e+00	 1.8799129540e+00
 7.7988559522e-01	 1.2119334843e+00	 1.7693703632e+00
 7.6817887538e-01	 1.2193873752e+00	 1.6047240035e+00
 7.5641365271e-01	 1.2267203306e+00	 1.3915927814e+00
 7.4459177121e-01	 1.2339317191e+00	 1.1361893925e+00
 8.6530692473e-01	 1.1635105455e+00	 1.1736563926e+00
 8.5399167391e-01	 1.1718409216e+00	 1.4301046583e+00
 8.4260486670e-01	 1.1800550971e+00	 1.6224054312e+00
 8.3114827912e-01	 1.1881521808e+00	 1.7512529166e+00
 8.1962370120e-01	 1.1961313176e+00	 1.8183308872e+00
 8.0803293617e-01	 1.2039916885e+00	 1.8262978886e+00
 7.9637779946e-01	 1.2117325110e+00	 1.7787715122e+00
 7.8466011784e-01	 1.2193530390e+00	 1.6803117793e+00
 7.7288172853e-01	 1.2268525633e+00	 1.5364036788e+00
 7.6104447821e-01	 1.2342304116e+00	 1.3534388993e+00
 7.4915022220e-01	 1.2414859488e+00	 1.1386967970e+00
 8.7057216938e-01	 1.1705903082e+00	 1.1621867973e+00
 8.5918806720e-01	 1.1789713732e+00	 1.3505647323e+00
 8.4773197322e-01	 1.1872355305e+00	 1.4902621913e+00
 8.3620567426e-01	 1.1953818836e+00	 1.5811967759e+00
 8.2461097126e-01	 1.2034095721e+00	 1.6244907635e+00
 8.1294967840e-01	 1.2113177721e+00	 1.6224553381e+00
 8.0122362217e-01	 1.2191056961e+00	 1.5785736063e+00
 7.8943464047e-01	 1.2267725937e+00	 1.4974824469e+00
 7.7758458167e-01	 1.2343177513e+00	 1.3849532408e+00
 7.6567530371e-01	 1.2417404926e+00	 1.2478715285e+00
 7.5370867318e-01	 1.2490401784e+00	 1.0942156417e+00
 8.7583741404e-01	 1.1776700709e+00	 1.1404349609e+00
 8.6438446049e-01	 1.1861018248e+00	 1.2406673926e+00
 8.5285907973e-01	 1.1944159640e+00	 1.3113028129e+00
 8.4126306939e-01	 1.2026115865e+00	 1.3517516585e+00
 8.2959824131e-01	 1.2106878266e+00	 1.3627522150e+00
 8.1786642063e-01	 1.2186438556e+00	 1.3463542742e+00
 8.0606944489e-01	 1.2264788812e+00	 1.3059014215e+00
 7.9420916310e-01	 1.2341921484e+00	 1.2460120016e+00
 7.8228743481e-01	 1.2417829393e+00	 1.1725588147e+00
 7.7030612921e-01	 1.2492505736e+00	 1.0926475917e+00
 7.5826712417e-01	 1.2565944081e+00	 1.0145942985e+00
 8.8110265869e-01	 1.1847498336e+00	 1.1121452906e+00
 8.6958085378e-01	 1.1932322764e+00	 1.1115192042e+00
 8.5798618625e-01	 1.2015963974e+00	 1.1025324331e+00
 8.4632046453e-01	 1.2098412893e+00	 1.0843563477e+00
 8.3458551136e-01	 1.2179660812e+00	 1.0575225001e+00
 8.2278316286e-01	 1.2259699391e+00	 1.0239061072e+00
 8.1091526761e-01	 1.2338520663e+00	 9.8670812880e-01
 7.9898368572e-01	 1.2416117031e+00	 9.5043599535e-01
 7.8699028795e-01	 1.2492481274e+00	 9.2088303410e-01
 7.7493695470e-01	 1.2567606546e+00	 9.0510664537e-01
 7.6282557515e-01	 1.2641486378e+00	 9.1140527906e-01
 8.8636790335e-01	 1.1918295963e+00	 1.0809784303e+00
 8.7477724707e-01	 1.2003627280e+00	 9.7396809366e-01
 8.6311329276e-01	 1.2087768309e+00	 8.8055748083e-01
 8.5137785967e-01	 1.2170709921e+00	 7.9994568388e-01
 8.3957278141e-01	 1.2252443357e+00	 7.3263454199e-01
 8.2769990509e-01	 1.2332960227e+00	 6.8041233972e-01
 8.1576109032e-01	 1.2412252514e+00	 6.4633619360e-01
 8.0375820835e-01	 1.2490312578e+00	 6.3471317734e-01
 7.9169314109e-01	 1.2567133154e+00	 6.5108023544e-01
 7.7956778020e-01	 1.2642707355e+00	 7.0218293431e-01
 7.6738402614e-01	 1.2717028675e+00	 7.9595309971e-01
 8.9163314800e-01	 1.1989093590e+00	 1.0505133078e+00
 8.7997364036e-01	 1.2074931796e+00	 8.3861056333e-01
 8.6824039928e-01	 1.2159572644e+00	 6.6159702977e-01
 8.5643525481e-01	 1.2243006949e+00	 5.1896503097e-01
 8.4456005147e-01	 1.2325225902e+00	 4.1136347893e-01
 8.3261664732e-01	 1.2406221062e+00	 3.4058217553e-01
 8.2060691304e-01	 1.2485984365e+00	 3.0953501628e-01
 8.0853273098e-01	 1.2564508126e+00	 3.2224214368e-01
 7.9639599424e-01	 1.2641785035e+00	 3.8381109663e-01
 7.8419860570e-01	 1.2717808165e+00	 5.0041700164e-01
 7.7194247712e-01	 1.2792570972e+00	 6.7928184997e-01
 8.9689839266e-01	 1.2059891216e+00	 1.0242490912e+00
 8.8517003365e-01	 1.2146236312e+00	 7.1579863155e-01
 8.7336750579e-01	 1.2231376978e+00	 4.6149373352e-01
 8.6149264994e-01	 1.2315303978e+00	 2.6138421356e-01
 8.4954732152e-01	 1.2398008447e+00	 1.1644261377e-01
 8.3753338955e-01	 1.2479481897e+00	 2.8549489469e-02
 8.2545273575e-01	 1.2559716216e+00	 4.7793389732e-04
 8.1330725360e-01	 1.2638703673e+00	 3.5877383050e-02
 8.0109884738e-01	 1.2716436915e+00	 1.3925674197e-01
 7.8882943120e-01	 1.2792908975e+00	 3.1596687211e-01
 7.7650092810e-01	 1.2868113269e+00	 5.7218247754e-01
 9.0216363731e-01	 1.2130688843e+00	 1.0056070583e+00
 8.9036642693e-01	 1.2217540829e+00	 6.1564651200e-01
 8.7849461231e-01	 1.2303181313e+00	 2.9572435866e-01
 8.6655004508e-01	 1.2387601006e+00	 4.6710948252e-02
 8.5453459157e-01	 1.2470790992e+00	-1.2992121372e-01
 8.4245013178e-01	 1.2552742732e+00	-2.3211081480e-01
 8.3029855847e-01	 1.2633448067e+00	-2.5722139173e-01
 8.1808177623e-01	 1.2712899220e+00	-2.0205525740e-01
 8.0580170052e-01	 1.2791088795e+00	-6.2867664375e-02
 7.9346025670e-01	 1.2868009785e+00	 1.6461882641e-01
 7.8105937909e-01	 1.2943655566e+00	 4.8519980070e-01
 9.0742888197e-01	 1.2201486470e+00	 9.9793238267e-01
 8.9556282022e-01	 1.2288845345e+00	 5.4803704177e-01
 8.8362171882e-01	 1.2374985648e+00	 1.7940993317e-01
 8.7160744022e-01	 1.2459898034e+00	-1.0599621100e-01
 8.5952186162e-01	 1.2543573537e+00	-3.0603280774e-01
 8.4736687401e-01	 1.2626003568e+00	-4.1836703466e-01
 8.3514438118e-01	 1.2707179918e+00	-4.4049317427e-01
 8.2285629886e-01	 1.2787094767e+00	-3.6974366242e-01
 8.1050455366e-01	 1.2865740676e+00	-2.0329981575e-01
 7.9809108220e-01	 1.2943110595e+00	 6.1797783011e-02
 7.8561783007e-01	 1.3019197862e+00	 4.2863925942e-01
 9.1269412663e-01	 1.2272284097e+00	 1.0044958387e+00
 9.0075921351e-01	 1.2360149861e+00	 5.2262786876e-01
 8.8874882534e-01	 1.2446789982e+00	 1.2732552520e-01
 8.7666483536e-01	 1.2532195063e+00	-1.7811539383e-01
 8.6450913168e-01	 1.2616356082e+00	-3.9069432837e-01
 8.5228361624e-01	 1.2699264403e+00	-5.0771546217e-01
 8.3999020390e-01	 1.2780911770e+00	-5.2679626781e-01
 8.2763082149e-01	 1.2861290314e+00	-4.4587507263e-01
 8.1520740681e-01	 1.2940392556e+00	-2.6321763135e-01
 8.0272190770e-01	 1.3018211405e+00	 2.2577303304e-02
 7.9017628106e-01	 1.3094740159e+00	 4.1257341575e-01
 7.4459177121e-01	 1.2339317191e+00	 1.1361893925e+00
 7.3271508277e-01	 1.2410209464e+00	 8.7642732726e-01
 7.2078544690e-01	 1.2479874567e+00	 6.4486438392e-01
 7.0880472913e-01	 1.2548307312e+00	 4.4377289388e-01
 6.9677479985e-01	 1.2615502884e+00	 2.7518960954e-01
 6.8469753345e-01	 1.2681456837e+00	 1.4060738310e-01
 6.7257480735e-01	 1.2746165096e+00	 4.0986917184e-02
 6.6040850119e-01	 1.2809623955e+00	-2.3231162235e-02
 6.4820049588e-01	 1.2871830074e+00	-5.2113951029e-02
 6.3595267275e-01	 1.2932780484e+00	-4.6223668565e-02
 6.2366691268e-01	 1.2992472579e+00	-6.6048521496e-03
 7.4915022220e-01	 1.2414859488e+00	 1.1386967970e+00
 7.3720082371e-01	 1.2486185769e+00	 9.2169326716e-01
 7.2519815364e-01	 1.2556277367e+00	 7.2530805491e-01
 7.1314408895e-01	 1.2625129063e+00	 5.5135311383e-01
 7.0104051148e-01	 1.2692736012e+00	 4.0240955916e-01
 6.8888930707e-01	 1.2759093741e+00	 2.8034187416e-01
 6.7669236467e-01	 1.2824198149e+00	 1.8631134084e-01
 6.6445157540e-01	 1.2888045507e+00	 1.2078999936e-01
 6.5216883169e-01	 1.2950632458e+00	 8.3575089668e-02
 6.3984602640e-01	 1.3011956011e+00	 7.3803930702e-02
 6.2748505191e-01	 1.3072013546e+00	 8.9969194391e-02
 7.5370867318e-01	 1.2490401784e+00	 1.0942156417e+00
 7.4168656465e-01	 1.2562162074e+00	 9.4058842364e-01
 7.2961086039e-01	 1.2632680168e+00	 7.9828901464e-01
 7.1748344877e-01	 1.2701950814e+00	 6.6763561819e-01
 7.0530622310e-01	 1.2769969140e+00	 5.5154581260e-01
 6.9308108069e-01	 1.2836730644e+00	 4.5212372989e-01
 6.8080992198e-01	 1.2902231202e+00	 3.7065437740e-01
 6.6849464960e-01	 1.2966467060e+00	 3.0761898776e-01
 6.5613716750e-01	 1.3029434842e+00	 2.6271098173e-01
 6.4373938004e-01	 1.3091131538e+00	 2.3485249461e-01
 6.3130319115e-01	 1.3151554513e+00	 2.2221141875e-01
 7.5826712417e-01	 1.2565944081e+00	 1.0145942985e+00
 7.4617230559e-01	 1.2638138379e+00	 9.3935288776e-01
 7.3402356713e-01	 1.2709082968e+00	 8.6419036203e-01
 7.2182280859e-01	 1.2778772566e+00	 7.8862358161e-01
 7.0957193472e-01	 1.2847202268e+00	 7.1512913283e-01
 6.9727285432e-01	 1.2914367548e+00	 6.4591866240e-01
 6.8492747930e-01	 1.2980264254e+00	 5.8232323726e-01
 6.7253772380e-01	 1.3044888613e+00	 5.2480959537e-01
 6.6010550331e-01	 1.3108237225e+00	 4.7299707069e-01
 6.4763273369e-01	 1.3170307065e+00	 4.2567514025e-01
 6.3512133038e-01	 1.3231095480e+00	 3.8082154323e-01
 7.6282557515e-01	 1.2641486378e+00	 9.1140527906e-01
 7.5065804652e-01	 1.2714114684e+00	 9.2377679858e-01
 7.3843627387e-01	 1.2785485769e+00	 9.2339123965e-01
 7.2616216841e-01	 1.2855594317e+00	 9.1042117026e-01
 7.1383764634e-01	 1.2924435396e+00	 8.8587450648e-01
 7.0146462794e-01	 1.2992004451e+00	 8.5193812610e-01
 6.8904503661e-01	 1.3058297307e+00	 8.0991069662e-01
 6.7658079801e-01	 1.3123310166e+00	 7.6021934281e-01
 6.6407383912e-01	 1.3187039609e+00	 7.0243698125e-01
 6.5152608734e-01	 1.3249482592e+00	 6.3530026866e-01
 6.3893946961e-01	 1.3310636447e+00	 5.5672811296e-01
 7.6738402614e-01	 1.2717028675e+00	 7.9595309971e-01
 7.5514378746e-01	 1.2790090990e+00	 8.9926358099e-01
 7.4284898062e-01	 1.2861888569e+00	 9.7636528561e-01
 7.3050152823e-01	 1.2932416068e+00	 1.0292306161e+00
 7.1810335797e-01	 1.3001668524e+00	 1.0566757566e+00
 7.0565640156e-01	 1.3069641355e+00	 1.0606321134e+00
 6.9316259392e-01	 1.3136330360e+00	 1.0422867198e+00
 6.8062387221e-01	 1.3201731719e+00	 1.0020005705e+00
 6.6804217492e-01	 1.3265841993e+00	 9.3932581941e-01
 6.5541944098e-01	 1.3328658119e+00	 8.5302351654e-01
 6.4275760884e-01	 1.3390177414e+00	 7.4108183421e-01
 7.7194247712e-01	 1.2792570972e+00	 6.7928184997e-01
 7.5962952840e-01	 1.2866067295e+00	 8.7109593785e-01
 7.4726168736e-01	 1.2938291369e+00	 1.0241075747e+00
 7.3484088805e-01	 1.3009237820e+00	 1.1413493939e+00
 7.2236906959e-01	 1.3078901652e+00	 1.2206003459e+00
 7.0984817518e-01	 1.3147278258e+00	 1.2626822053e+00
 6.9728015123e-01	 1.3214363412e+00	 1.2685903781e+00
 6.8466694641e-01	 1.3280153272e+00	 1.2385918458e+00
 6.7201051073e-01	 1.3344644377e+00	 1.1722416862e+00
 6.5931279463e-01	 1.3407833646e+00	 1.0683999934e+00
 6.4657574807e-01	 1.3469718381e+00	 9.2524914896e-01
 7.7650092810e-01	 1.2868113269e+00	 5.7218247754e-01
 7.6411526934e-01	 1.2942043600e+00	 8.4443904843e-01
 7.5167439410e-01	 1.3014694170e+00	 1.0670916520e+00
 7.3918024787e-01	 1.3086059571e+00	 1.2431674974e+00
 7.2663478121e-01	 1.3156134780e+00	 1.3708843623e+00
 7.1403994880e-01	 1.3224915161e+00	 1.4489948663e+00
 7.0139770855e-01	 1.3292396465e+00	 1.4782220530e+00
 6.8871002062e-01	 1.3358574825e+00	 1.4587096724e+00
 6.7597884654e-01	 1.3423446760e+00	 1.3900374902e+00
 6.6320614827e-01	 1.3487009174e+00	 1.2712367919e+00
 6.5039388730e-01	 1.3549259348e+00	 1.1008060360e+00
 7.8105937909e-01	 1.2943655566e+00	 4.8519980070e-01
 7.6860101028e-01	 1.3018019905e+00	 8.2434363786e-01
 7.5608710085e-01	 1.3091096970e+00	 1.1056782385e+00
 7.4351960770e-01	 1.3162881322e+00	 1.3313374593e+00
 7.3090049283e-01	 1.3233367908e+00	 1.5009276796e+00
 7.1823172242e-01	 1.3302552065e+00	 1.6106949736e+00
 7.0551526586e-01	 1.3370429517e+00	 1.6608359124e+00
 6.9275309482e-01	 1.3436996378e+00	 1.6513404905e+00
 6.7994718235e-01	 1.3502249144e+00	 1.5818330474e+00
 6.6709950192e-01	 1.3566184701e+00	 1.4515857611e+00
 6.5421202653e-01	 1.3628800315e+00	 1.2595320295e+00
 7.8561783007e-01	 1.3019197862e+00	 4.2863925942e-01
 7.7308675121e-01	 1.3093996210e+00	 8.1574892284e-01
 7.6049980759e-01	 1.3167499771e+00	 1.1402257746e+00
 7.4785896752e-01	 1.3239703073e+00	 1.4030238301e+00
 7.3516620445e-01	 1.3310601036e+00	 1.6042892858e+00
 7.2242349604e-01	 1.3380188968e+00	 1.7391195717e+00
 7.0963282317e-01	 1.3448462570e+00	 1.8063326479e+00
 6.9679616903e-01	 1.3515417930e+00	 1.8057329549e+00
 6.8391551816e-01	 1.3581051528e+00	 1.7370074549e+00
 6.7099285557e-01	 1.3645360228e+00	 1.5997365312e+00
 6.5803016576e-01	 1.3708341282e+00	 1.3934044456e+00
 7.9017628106e-01	 1.3094740159e+00	 4.1257341575e-01
 7.7757249215e-01	 1.3169972515e+00	 8.2348543842e-01
 7.6491251433e-01	 1.3243902571e+00	 1.1710901118e+00
 7.5219832734e-01	 1.3316524825e+00	 1.4549270833e+00
 7.3943191608e-01	 1.3387834164e+00	 1.6746827732e+00
 7.2661526967e-01	 1.3457825872e+00	 1.8258118414e+00
 7.1375038049e-01	 1.3526495623e+00	 1.9048524640e+00
 7.0083924323e-01	 1.3593839483e+00	 1.9113904799e+00
 6.8788385397e-01	 1.3659853912e+00	 1.8451917301e+00
 6.7488620921e-01	 1.3724535755e+00	 1.7062097794e+00
 6.6184830499e-01	 1.3787882249e+00	 1.4945928097e+00
 6.2366691268e-01	 1.2992472579e+00	-6.6048521496e-03
 6.1134299734e-01	 1.3050913945e+00	 5.5282561300e-02
 5.9898489008e-01	 1.3108092439e+00	 1.2699781631e-01
 5.8659446561e-01	 1.3164006534e+00	 2.0584187388e-01
 5.7417359483e-01	 1.3218655059e+00	 2.8930915612e-01
 5.6172414397e-01	 1.3272037201e+00	 3.7509193847e-01
 5.4924797379e-01	 1.3324152499e+00	 4.6108406744e-01
 5.3674693882e-01	 1.3375000841e+00	 5.4538400880e-01
 5.2422288651e-01	 1.3424582464e+00	 6.2629723435e-01
 5.1167765648e-01	 1.3472897946e+00	 7.0233795813e-01
 4.9911307980e-01	 1.3519948207e+00	 7.7223023551e-01
 6.2748505191e-01	 1.3072013546e+00	 8.9969194391e-02
 6.1508568857e-01	 1.3130812695e+00	 1.2637132215e-01
 6.0265192397e-01	 1.3188341240e+00	 1.7660817612e-01
 5.9018564433e-01	 1.3244597645e+00	 2.3784047407e-01
 5.7768873197e-01	 1.3299580733e+00	 3.0747455797e-01
 5.6516306456e-01	 1.3353289685e+00	 3.8316623681e-01
 5.5261051427e-01	 1.3405724037e+00	 4.6282387639e-01
 5.4003294695e-01	 1.3456883677e+00	 5.4461074366e-01
 5.2743222138e-01	 1.3506768843e+00	 6.2694661607e-01
 5.1481018844e-01	 1.3555380116e+00	 7.0850866964e-01
 5.0216869040e-01	 1.3602718422e+00	 7.8823166194e-01
 6.3130319115e-01	 1.3151554513e+00	 2.2221141875e-01
 6.1882837979e-01	 1.3210711445e+00	 2.2653191326e-01
 6.0631895787e-01	 1.3268590041e+00	 2.4910667538e-01
 5.9377682304e-01	 1.3325188757e+00	 2.8707515677e-01
 5.8120386911e-01	 1.3380506407e+00	 3.3785601572e-01
 5.6860198516e-01	 1.3434542169e+00	 3.9915054184e-01
 5.5597305475e-01	 1.3487295575e+00	 4.6894527182e-01
 5.4331895508e-01	 1.3538766513e+00	 5.4551380570e-01
 5.3064155625e-01	 1.3588955221e+00	 6.2741783608e-01
 5.1794272040e-01	 1.3637862286e+00	 7.1350740594e-01
 5.0522430101e-01	 1.3685488637e+00	 8.0292041361e-01
 6.3512133038e-01	 1.3231095480e+00	 3.8082154323e-01
 6.2257107102e-01	 1.3290610194e+00	 3.4870593777e-01
 6.0998599176e-01	 1.3348838842e+00	 3.3937156442e-01
 5.9736800176e-01	 1.3405779869e+00	 3.5005469799e-01
 5.8471900625e-01	 1.3461432082e+00	 3.7828605009e-01
 5.7204090576e-01	 1.3515794653e+00	 4.2189390519e-01
 5.5933559522e-01	 1.3568867113e+00	 4.7900641422e-01
 5.4660496321e-01	 1.3620649349e+00	 5.4805305641e-01
 5.3385089112e-01	 1.3671141600e+00	 6.2776528311e-01
 5.2107525236e-01	 1.3720344456e+00	 7.1717636076e-01
 5.0827991161e-01	 1.3768258853e+00	 8.1562043298e-01
 6.3893946961e-01	 1.3310636447e+00	 5.5672811296e-01
 6.2631376224e-01	 1.3370508944e+00	 4.8601027343e-01
 6.1365302566e-01	 1.3429087643e+00	 4.4241008666e-01
 6.0095918047e-01	 1.3486370980e+00	 4.2337787317e-01
 5.8823414339e-01	 1.3542357756e+00	 4.2665549138e-01
 5.7547982635e-01	 1.3597047137e+00	 4.5027931272e-01
 5.6269813570e-01	 1.3650438651e+00	 4.9258234296e-01
 5.4989097134e-01	 1.3702532185e+00	 5.5219550105e-01
 5.3706022599e-01	 1.3753327978e+00	 6.2804807005e-01
 5.2420778431e-01	 1.3802826626e+00	 7.1936733797e-01
 5.1133552222e-01	 1.3851029068e+00	 8.2567744938e-01
 6.4275760884e-01	 1.3390177414e+00	 7.4108183421e-01
 6.3005645347e-01	 1.3450407694e+00	 6.3173200725e-01
 6.1732005955e-01	 1.3509336445e+00	 5.5335479291e-01
 6.0455035919e-01	 1.3566962092e+00	 5.0373093404e-01
 5.9174928053e-01	 1.3623283430e+00	 4.8091190129e-01
 5.7891874695e-01	 1.3678299621e+00	 4.8322283330e-01
 5.6606067617e-01	 1.3732010190e+00	 5.0926463380e-01
 5.5317697947e-01	 1.3784415020e+00	 5.5791523685e-01
 5.4026956085e-01	 1.3835514357e+00	 6.2833005485e-01
 5.2734031627e-01	 1.3885308796e+00	 7.1994162752e-01
 5.1439113282e-01	 1.3933799283e+00	 8.3245849284e-01
 6.4657574807e-01	 1.3469718381e+00	 9.2524914896e-01
 6.3379914469e-01	 1.3530306443e+00	 7.7932354986e-01
 6.2098709344e-01	 1.3589585246e+00	 6.6745998682e-01
 6.0814153790e-01	 1.3647553204e+00	 5.8788517556e-01
 5.9526441767e-01	 1.3704209105e+00	 5.3905805127e-01
 5.8235766755e-01	 1.3759552106e+00	 5.1967279838e-01
 5.6942321665e-01	 1.3813581728e+00	 5.2866106943e-01
 5.5646298760e-01	 1.3866297856e+00	 5.6519340398e-01
 5.4347889572e-01	 1.3917700735e+00	 6.2867986159e-01
 5.3047284823e-01	 1.3967790965e+00	 7.1876988674e-01
 5.1744674343e-01	 1.4016569499e+00	 8.3535142603e-01
 6.5039388730e-01	 1.3549259348e+00	 1.1008060360e+00
 6.3754183592e-01	 1.3610205193e+00	 9.2239792245e-01
 6.2465412734e-01	 1.3669834047e+00	 7.8009829591e-01
 6.1173271662e-01	 1.3728144315e+00	 6.7269458894e-01
 5.9877955481e-01	 1.3785134779e+00	 5.9915045513e-01
 5.8579658814e-01	 1.3840804590e+00	 5.5860901124e-01
 5.7278575712e-01	 1.3895153266e+00	 5.5039532221e-01
 5.5974899573e-01	 1.3948180692e+00	 5.7401813889e-01
 5.4668823059e-01	 1.3999887114e+00	 6.2917090171e-01
 5.3360538019e-01	 1.4050273135e+00	 7.1573202674e-01
 5.2050235403e-01	 1.4099339714e+00	 8.3376449382e-01
 6.5421202653e-01	 1.3628800315e+00	 1.2595320295e+00
 6.4128452714e-01	 1.3690103943e+00	 1.0547242089e+00
 6.2832116123e-01	 1.3750082848e+00	 8.8675736314e-01
 6.1532389533e-01	 1.3808735427e+00	 7.5509359754e-01
 6.0229469195e-01	 1.3866060454e+00	 6.5929795364e-01
 5.8923550874e-01	 1.3922057074e+00	 5.9904198461e-01
 5.7614829760e-01	 1.3976724804e+00	 5.7410664895e-01
 5.6303500386e-01	 1.4030063528e+00	 5.8438453035e-01
 5.4989756546e-01	 1.4082073493e+00	 6.2988139537e-01
 5.3673791214e-01	 1.4132755305e+00	 7.1071710377e-01
 5.2355796463e-01	 1.4182109929e+00	 8.2712588940e-01
 6.5803016576e-01	 1.3708341282e+00	 1.3934044456e+00
 6.4502721837e-01	 1.3770002693e+00	 1.1702231669e+00
 6.3198819513e-01	 1.3830331649e+00	 9.8303665410e-01
 6.1891507405e-01	 1.3889326539e+00	 8.3209487201e-01
 6.0580982910e-01	 1.3946986128e+00	 7.1766034899e-01
 5.9267442934e-01	 1.4003309558e+00	 6.4001220546e-01
 5.7951083807e-01	 1.4058296342e+00	 5.9944959700e-01
 5.6632101199e-01	 1.4111946364e+00	 5.9629457766e-01
 5.5310690033e-01	 1.4164259871e+00	 6.3089439298e-01
 5.3987044410e-01	 1.4215237475e+00	 7.0362321527e-01
 5.2661357524e-01	 1.4264880145e+00	 8.1488333671e-01
 6.6184830499e-01	 1.3787882249e+00	 1.4945928097e+00
 6.4876990960e-01	 1.3849901442e+00	 1.2629629909e+00
 6.3565522902e-01	 1.3910580450e+00	 1.0646443751e+00
 6.2250625276e-01	 1.3969917650e+00	 9.0078722165e-01
 6.0932496624e-01	 1.4027911802e+00	 7.7244708722e-01
 5.9611334994e-01	 1.4084562042e+00	 6.8058942606e-01
 5.8287337855e-01	 1.4139867881e+00	 6.2609372131e-01
 5.6960702012e-01	 1.4193829200e+00	 6.0975715124e-01
 5.5631623520e-01	 1.4246446250e+00	 6.3229779683e-01
 5.4300297606e-01	 1.4297719645e+00	 6.9435740042e-01
 5.2966918584e-01	 1.4347650360e+00	 7.9650368806e-01
 4.9911307980e-01	 1.3519948207e+00	 7.7223023551e-01
 4.8653311820e-01	 1.3565726823e+00	 8.3581857077e-01
 4.7393744782e-01	 1.3610243479e+00	 8.9417925090e-01
 4.6132786810e-01	 1.3653500079e+00	 9.4796224216e-01
 4.4870616704e-01	 1.3695498853e+00	 9.9775764397e-01
 4.3607412057e-01	 1.3736242346e+00	 1.0440966892e+00
 4.2343349180e-01	 1.3775733421e+00	 1.0874525416e+00
 4.1078603044e-01	 1.3813975249e+00	 1.1282409058e+00
 3.9813347216e-01	 1.3850971308e+00	 1.1668204684e+00
 3.8547753797e-01	 1.3886725372e+00	 1.2034931867e+00
 3.7281993362e-01	 1.3921241513e+00	 1.2385044438e+00
 5.0216869040e-01	 1.3602718422e+00	 7.8823166194e-01
 4.8951171327e-01	 1.3648777299e+00	 8.6347319968e-01
 4.7683893117e-01	 1.3693566489e+00	 9.3263135341e-01
 4.6415215458e-01	 1.3737087910e+00	 9.9628138105e-01
 4.5145318246e-01	 1.3779343803e+00	 1.0549025296e+00
 4.3874380157e-01	 1.3820336731e+00	 1.1088797126e+00
 4.2602578585e-01	 1.3860069574e+00	 1.1585050099e+00
 4.1330089571e-01	 1.3898545522e+00	 1.2039790051e+00
 4.0057087745e-01	 1.3935768073e+00	 1.2454119765e+00
 3.8783746261e-01	 1.3971741027e+00	 1.2828249591e+00
 3.7510236738e-01	 1.4006468478e+00	 1.3161506945e+00
 5.0522430101e-01	 1.3685488637e+00	 8.0292041361e-01
 4.9249030833e-01	 1.3731827774e+00	 8.8987243794e-01
 4.7974041452e-01	 1.3776889500e+00	 9.6941621794e-01
 4.6697644107e-01	 1.3820675741e+00	 1.0420220673e+00
 4.5420019787e-01	 1.3863188754e+00	 1.1080392202e+00
 4.4141348257e-01	 1.3904431117e+00	 1.1676980328e+00
 4.2861807990e-01	 1.3944405727e+00	 1.2211120203e+00
 4.1581576098e-01	 1.3983115795e+00	 1.2682797438e+00
 4.0300828274e-01	 1.4020564839e+00	 1.3090865640e+00
 3.9019738724e-01	 1.4056756681e+00	 1.3433062768e+00
 3.7738480114e-01	 1.4091695444e+00	 1.3706026487e+00
 5.0827991161e-01	 1.3768258853e+00	 8.1562043298e-01
 4.9546890339e-01	 1.3814878250e+00	 9.1376518505e-01
 4.8264189788e-01	 1.3860212510e+00	 1.0028995058e+00
 4.6980072755e-01	 1.3904263571e+00	 1.0833585948e+00
 4.5694721328e-01	 1.3947033704e+00	 1.1553424489e+00
 4.4408316357e-01	 1.3988525502e+00	 1.2189184354e+00
 4.3121037395e-01	 1.4028741880e+00	 1.2740237033e+00
 4.1833062625e-01	 1.4067686067e+00	 1.3204674444e+00
 4.0544568802e-01	 1.4105361604e+00	 1.3579330224e+00
 3.9255731188e-01	 1.4141772336e+00	 1.3859799859e+00
 3.7966723490e-01	 1.4176922409e+00	 1.4040459815e+00
 5.1133552222e-01	 1.3851029068e+00	 8.2567744938e-01
 4.9844749846e-01	 1.3897928726e+00	 9.3393563805e-01
 4.8554338123e-01	 1.3943535520e+00	 1.0314910794e+00
 4.7262501404e-01	 1.3987851402e+00	 1.1185137553e+00
 4.5969422869e-01	 1.4030878655e+00	 1.1950351389e+00
 4.4675284457e-01	 1.4072619888e+00	 1.2609509910e+00
 4.3380266800e-01	 1.4113078033e+00	 1.3160239815e+00
 4.2084549152e-01	 1.4152256340e+00	 1.3598861524e+00
 4.0788309331e-01	 1.4190158370e+00	 1.3920412372e+00
 3.9491723651e-01	 1.4226787991e+00	 1.4118668558e+00
 3.8194966865e-01	 1.4262149375e+00	 1.4186166012e+00
 5.1439113282e-01	 1.3933799283e+00	 8.3245849284e-01
 5.0142609352e-01	 1.3980979202e+00	 9.4920240284e-01
 4.8844486458e-01	 1.4026858530e+00	 1.0536438475e+00
 4.7544930052e-01	 1.4071439233e+00	 1.1457575532e+00
 4.6244124410e-01	 1.4114723605e+00	 1.2253871253e+00
 4.4942252558e-01	 1.4156714273e+00	 1.2922479189e+00
 4.3639496205e-01	 1.4197414186e+00	 1.3459297108e+00
 4.2336035679e-01	 1.4236826613e+00	 1.3858991911e+00
 4.1032049859e-01	 1.4274955135e+00	 1.4115022911e+00
 3.9727716114e-01	 1.4311803646e+00	 1.4219663663e+00
 3.8423210241e-01	 1.4347376340e+00	 1.4164022530e+00
 5.1744674343e-01	 1.4016569499e+00	 8.3535142603e-01
 5.0440468858e-01	 1.4064029677e+00	 9.5841763811e-01
 4.9134634793e-01	 1.4110181541e+00	 1.0678526524e+00
 4.7827358701e-01	 1.4155027064e+00	 1.1634059676e+00
 4.6518825951e-01	 1.4198568556e+00	 1.2447139224e+00
 4.5209220658e-01	 1.4240808659e+00	 1.3113024924e+00
 4.3898725610e-01	 1.4281750339e+00	 1.3625898539e+00
 4.2587522206e-01	 1.4321396885e+00	 1.3978887341e+00
 4.1275790388e-01	 1.4359751901e+00	 1.4164085659e+00
 3.9963708578e-01	 1.4396819301e+00	 1.4172574673e+00
 3.8651453617e-01	 1.4432603305e+00	 1.3994440666e+00
 5.2050235403e-01	 1.4099339714e+00	 8.3376449382e-01
 5.0738328364e-01	 1.4147080153e+00	 9.6046623033e-01
 4.9424783128e-01	 1.4193504551e+00	 1.0726531970e+00
 4.8109787349e-01	 1.4238614894e+00	 1.1698197590e+00
 4.6793527492e-01	 1.4282413507e+00	 1.2513755366e+00
 4.5476188758e-01	 1.4324903045e+00	 1.3166479832e+00
 4.4157955015e-01	 1.4366086492e+00	 1.3648846837e+00
 4.2839008733e-01	 1.4405967158e+00	 1.3952553933e+00
 4.1519530916e-01	 1.4444548666e+00	 1.4068538405e+00
 4.0199701041e-01	 1.4481834955e+00	 1.3986993127e+00
 3.8879696993e-01	 1.4517830271e+00	 1.3697380509e+00
 5.2355796463e-01	 1.4182109929e+00	 8.2712588940e-01
 5.1036187871e-01	 1.4230130629e+00	 9.5426499878e-01
 4.9714931463e-01	 1.4276827561e+00	 1.0666210113e+00
 4.8392215997e-01	 1.4322202725e+00	 1.1634033181e+00
 4.7068229033e-01	 1.4366258457e+00	 1.2437753207e+00
 4.5743156858e-01	 1.4408997430e+00	 1.3068566446e+00
 4.4417184420e-01	 1.4450422646e+00	 1.3517250158e+00
 4.3090495260e-01	 1.4490537431e+00	 1.3774178228e+00
 4.1763271445e-01	 1.4529345432e+00	 1.3829333876e+00
 4.0435693504e-01	 1.4566850610e+00	 1.3672319708e+00
 3.9107940368e-01	 1.4603057236e+00	 1.3292365370e+00
 5.2661357524e-01	 1.4264880145e+00	 8.1488333671e-01
 5.1334047377e-01	 1.4313181105e+00	 9.3876192914e-01
 5.0005079798e-01	 1.4360150572e+00	 1.0483704549e+00
 4.8674644646e-01	 1.4405790556e+00	 1.1426035571e+00
 4.7342930574e-01	 1.4450103408e+00	 1.2203588707e+00
 4.6010124958e-01	 1.4493091816e+00	 1.2805387302e+00
 4.4676413825e-01	 1.4534758799e+00	 1.3220514690e+00
 4.3341981787e-01	 1.4575107703e+00	 1.3438123375e+00
 4.2007011973e-01	 1.4614142197e+00	 1.3447440676e+00
 4.0671685968e-01	 1.4651866265e+00	 1.3237771093e+00
 3.9336183744e-01	 1.4688284202e+00	 1.2798495716e+00
 5.2966918584e-01	 1.4347650360e+00	 7.9650368806e-01
 5.1631906883e-01	 1.4396231580e+00	 9.1293543469e-01
 5.0295228133e-01	 1.4443473582e+00	 1.0165537560e+00
 4.8957073294e-01	 1.4489378386e+00	 1.1059088386e+00
 4.7617632115e-01	 1.4533948358e+00	 1.1796129604e+00
 4.6277093058e-01	 1.4577186201e+00	 1.2363415490e+00
 4.4935643230e-01	 1.4619094952e+00	 1.2748337518e+00
 4.3593468314e-01	 1.4659677976e+00	 1.2938925460e+00
 4.2250752502e-01	 1.4698938963e+00	 1.2923844202e+00
 4.0907678431e-01	 1.4736881920e+00	 1.2692386593e+00
 3.9564427119e-01	 1.4773511167e+00	 1.2234462643e+00
 3.7281993362e-01	 1.3921241513e+00	 1.2385044438e+00
 3.6016234922e-01	 1.3954524094e+00	 1.2677661383e+00
 3.4750645917e-01	 1.3986577775e+00	 1.2863294268e+00
 3.3485392108e-01	 1.4017407496e+00	 1.2931974175e+00
 3.2220637509e-01	 1.4047018470e+00	 1.2874557886e+00
 3.0956544337e-01	 1.4075416178e+00	 1.2682687603e+00
 2.9693272962e-01	 1.4102606362e+00	 1.2348759904e+00
 2.8430981862e-01	 1.4128595019e+00	 1.1865897542e+00
 2.7169827581e-01	 1.4153388396e+00	 1.1227924006e+00
 2.5909964687e-01	 1.4176992982e+00	 1.0429340699e+00
 2.4651545727e-01	 1.4199415504e+00	 9.4653065894e-01
 3.7510236738e-01	 1.4006468478e+00	 1.3161506945e+00
 3.6236729222e-01	 1.4039954818e+00	 1.3423550727e+00
 3.4963392179e-01	 1.4072204734e+00	 1.3575426433e+00
 3.3690392384e-01	 1.4103223197e+00	 1.3606212658e+00
 3.2417894856e-01	 1.4133015452e+00	 1.3506519889e+00
 3.1146062803e-01	 1.4161587013e+00	 1.3268274341e+00
 2.9875057578e-01	 1.4188943658e+00	 1.2884676006e+00
 2.8605038630e-01	 1.4215091420e+00	 1.2350159265e+00
 2.7336163461e-01	 1.4240036583e+00	 1.1660355970e+00
 2.6068587584e-01	 1.4263785678e+00	 1.0812060889e+00
 2.4802464481e-01	 1.4286345473e+00	 9.8031993937e-01
 3.7738480114e-01	 1.4091695444e+00	 1.3706026487e+00
 3.6457223523e-01	 1.4125385542e+00	 1.3898122943e+00
 3.5176138441e-01	 1.4157831693e+00	 1.3988534358e+00
 3.3895392660e-01	 1.4189038898e+00	 1.3965445654e+00
 3.2615152202e-01	 1.4219012434e+00	 1.3819489484e+00
 3.1335581269e-01	 1.4247757848e+00	 1.3543000255e+00
 3.0056842194e-01	 1.4275280953e+00	 1.3129963859e+00
 2.8779095398e-01	 1.4301587820e+00	 1.2575969801e+00
 2.7502499341e-01	 1.4326684771e+00	 1.1878165667e+00
 2.6227210481e-01	 1.4350578375e+00	 1.1035213799e+00
 2.4953383236e-01	 1.4373275442e+00	 1.0047250091e+00
 3.7966723490e-01	 1.4176922409e+00	 1.4040459815e+00
 3.6677717823e-01	 1.4210816266e+00	 1.4134076348e+00
 3.5388884703e-01	 1.4243458653e+00	 1.4143707853e+00
 3.4100392936e-01	 1.4274854599e+00	 1.4056524905e+00
 3.2812409548e-01	 1.4305009416e+00	 1.3863454242e+00
 3.1525099734e-01	 1.4333928683e+00	 1.3557367741e+00
 3.0238626810e-01	 1.4361618249e+00	 1.3133026390e+00
 2.8953152166e-01	 1.4388084220e+00	 1.2587026636e+00
 2.7668835221e-01	 1.4413332958e+00	 1.1917749031e+00
 2.6385833379e-01	 1.4437371071e+00	 1.1125309096e+00
 2.5104301991e-01	 1.4460205411e+00	 1.0211510267e+00
 3.8194966865e-01	 1.4262149375e+00	 1.4186166012e+00
 3.6898212123e-01	 1.4296246990e+00	 1.4163356385e+00
 3.5601630965e-01	 1.4329085612e+00	 1.4081074489e+00
 3.4305393212e-01	 1.4360670301e+00	 1.3925194055e+00
 3.3009666894e-01	 1.4391006398e+00	 1.3687211199e+00
 3.1714618200e-01	 1.4420099519e+00	 1.3360669532e+00
 3.0420411427e-01	 1.4447955545e+00	 1.2941100900e+00
 2.9127208935e-01	 1.4474580620e+00	 1.2425968607e+00
 2.7835171101e-01	 1.4499981145e+00	 1.1814613045e+00
 2.6544456276e-01	 1.4524163768e+00	 1.1108199634e+00
 2.5255220746e-01	 1.4547135380e+00	 1.0309668949e+00
 3.8423210241e-01	 1.4347376340e+00	 1.4164022530e+00
 3.7118706424e-01	 1.4381677714e+00	 1.4017196473e+00
 3.5814377228e-01	 1.4414712571e+00	 1.3839830812e+00
 3.4510393488e-01	 1.4446486002e+00	 1.3616123892e+00
 3.3206924241e-01	 1.4477003380e+00	 1.3338404269e+00
 3.1904136666e-01	 1.4506270354e+00	 1.3001026421e+00
 3.0602196043e-01	 1.4534292840e+00	 1.2600295218e+00
 2.9301265703e-01	 1.4561077021e+00	 1.2134408658e+00
 2.8001506981e-01	 1.4586629333e+00	 1.1603403238e+00
 2.6703079174e-01	 1.4610956464e+00	 1.1009101853e+00
 2.5406139501e-01	 1.4634065349e+00	 1.0355064089e+00
 3.8651453617e-01	 1.4432603305e+00	 1.3994440666e+00
 3.7339200724e-01	 1.4467108438e+00	 1.3726337363e+00
 3.6027123490e-01	 1.4500339530e+00	 1.3458272509e+00
 3.4715393765e-01	 1.4532301703e+00	 1.3172946407e+00
 3.3404181587e-01	 1.4563000362e+00	 1.2863560389e+00
 3.2093655132e-01	 1.4592441189e+00	 1.2525423692e+00
 3.0783980660e-01	 1.4620630136e+00	 1.2155622633e+00
 2.9475322471e-01	 1.4647573421e+00	 1.1752965471e+00
 2.8167842861e-01	 1.4673277520e+00	 1.1317930249e+00
 2.6861702071e-01	 1.4697749161e+00	 1.0852615499e+00
 2.5557058256e-01	 1.4720995319e+00	 1.0360693667e+00
 3.8879696993e-01	 1.4517830271e+00	 1.3697380509e+00
 3.7559695024e-01	 1.4552539162e+00	 1.3320801458e+00
 3.6239869752e-01	 1.4585966490e+00	 1.2973823567e+00
 3.4920394041e-01	 1.4618117405e+00	 1.2638287697e+00
 3.3601438933e-01	 1.4648997344e+00	 1.2308124429e+00
 3.2283173597e-01	 1.4678612024e+00	 1.1979746302e+00
 3.0965765276e-01	 1.4706967432e+00	 1.1651035621e+00
 2.9649379240e-01	 1.4734069821e+00	 1.1321294018e+00
 2.8334178740e-01	 1.4759925707e+00	 1.0991195476e+00
 2.7020324969e-01	 1.4784541858e+00	 1.0662742666e+00
 2.5707977011e-01	 1.4807925288e+00	 1.0339226427e+00
 3.9107940368e-01	 1.4603057236e+00	 1.3292365370e+00
 3.7780189324e-01	 1.4637969887e+00	 1.2829897129e+00
 3.6452616014e-01	 1.4671593449e+00	 1.2423064466e+00
 3.5125394317e-01	 1.4703933106e+00	 1.2053799767e+00
 3.3798696279e-01	 1.4734994326e+00	 1.1716492927e+00
 3.2472692063e-01	 1.4764782859e+00	 1.1408812882e+00
 3.1147549892e-01	 1.4793304727e+00	 1.1129458434e+00
 2.9823436008e-01	 1.4820566222e+00	 1.0878137742e+00
 2.8500514620e-01	 1.4846573895e+00	 1.0656087517e+00
 2.7178947866e-01	 1.4871334554e+00	 1.0464925928e+00
 2.5858895766e-01	 1.4894855257e+00	 1.0306820002e+00
 3.9336183744e-01	 1.4688284202e+00	 1.2798495716e+00
 3.8000683624e-01	 1.4723400611e+00	 1.2282278833e+00
 3.6665362276e-01	 1.4757220408e+00	 1.1841759436e+00
 3.5330394593e-01	 1.4789748807e+00	 1.1460191275e+00
 3.3995953626e-01	 1.4820991308e+00	 1.1132076426e+00
 3.2662210529e-01	 1.4850953694e+00	 1.0857425594e+00
 3.1329334509e-01	 1.4879642023e+00	 1.0636016275e+00
 2.9997492776e-01	 1.4907062622e+00	 1.0467510308e+00
 2.8666850500e-01	 1.4933222082e+00	 1.0351952143e+00
 2.7337570764e-01	 1.4958127251e+00	 1.0289764321e+00
 2.6009814521e-01	 1.4981785226e+00	 1.0281743856e+00
 3.9564427119e-01	 1.4773511167e+00	 1.2234462643e+00
 3.8221177925e-01	 1.4808831335e+00	 1.1705967186e+00
 3.6878108538e-01	 1.4842847367e+00	 1.1265530012e+00
 3.5535394869e-01	 1.4875564508e+00	 1.0900322100e+00
 3.4193210972e-01	 1.4906988290e+00	 1.0604215370e+00
 3.2851728995e-01	 1.4937124529e+00	 1.0377541898e+00
 3.1511119125e-01	 1.4965979319e+00	 1.0220345677e+00
 3.0171549544e-01	 1.4993559022e+00	 1.0132388613e+00
 2.8833186380e-01	 1.5019870269e+00	 1.0113158270e+00
 2.7496193661e-01	 1.5044919947e+00	 1.0161877208e+00
 2.6160733276e-01	 1.5068715195e+00	 1.0277513764e+00
 2.4651545727e-01	 1.4199415504e+00	 9.4653065894e-01
 2.3394507721e-01	 1.4220666433e+00	 8.4899944026e-01
 2.2139213491e-01	 1.4240749033e+00	 7.6689007436e-01
 2.0885809711e-01	 1.4259670700e+00	 7.0137303858e-01
 1.9634440887e-01	 1.4277439043e+00	 6.5356657082e-01
 1.8385249329e-01	 1.4294061875e+00	 6.2453619910e-01
 1.7138375121e-01	 1.4309547213e+00	 6.1529453738e-01
 1.5893956096e-01	 1.4323903263e+00	 6.2680132459e-01
 1.4652127812e-01	 1.4337138423e+00	 6.5996368347e-01
 1.3413023525e-01	 1.4349261269e+00	 7.1563657604e-01
 1.2176774173e-01	 1.4360280554e+00	 7.9462343239e-01
 2.4802464481e-01	 1.4286345473e+00	 9.8031993937e-01
 2.3537730787e-01	 1.4307726502e+00	 8.7785132820e-01
 2.2274751545e-01	 1.4327932049e+00	 7.8958760281e-01
 2.1013674326e-01	 1.4346969556e+00	 7.1724042242e-01
 1.9754644521e-01	 1.4364846678e+00	 6.6241729956e-01
 1.8497805311e-01	 1.4381571277e+00	 6.2662174299e-01
 1.7243297638e-01	 1.4397151417e+00	 6.1125372713e-01
 1.5991260180e-01	 1.4411595356e+00	 6.1761046165e-01
 1.4741829322e-01	 1.4424911543e+00	 6.4688743434e-01
 1.3495139139e-01	 1.4437108606e+00	 7.0017970084e-01
 1.2251321368e-01	 1.4448195352e+00	 7.7848339464e-01
 2.4953383236e-01	 1.4373275442e+00	 1.0047250091e+00
 2.3680953854e-01	 1.4394786571e+00	 9.0408032320e-01
 2.2410289599e-01	 1.4415115065e+00	 8.1568529414e-01
 2.1141538940e-01	 1.4434268413e+00	 7.4166735980e-01
 1.9874848154e-01	 1.4452254314e+00	 6.8401034612e-01
 1.8610361293e-01	 1.4469080679e+00	 6.4455509272e-01
 1.7348220156e-01	 1.4484755621e+00	 6.2500045335e-01
 1.6088564264e-01	 1.4499287449e+00	 6.2690464192e-01
 1.4831530833e-01	 1.4512684663e+00	 6.5168689445e-01
 1.3577254752e-01	 1.4524955943e+00	 7.0062941766e-01
 1.2325868564e-01	 1.4536110149e+00	 7.7487959463e-01
 2.5104301991e-01	 1.4460205411e+00	 1.0211510267e+00
 2.3824176920e-01	 1.4481846640e+00	 9.2782670168e-01
 2.2545827653e-01	 1.4502298082e+00	 8.4427804238e-01
 2.1269403555e-01	 1.4521567269e+00	 7.7292414285e-01
 1.9995051788e-01	 1.4539661949e+00	 7.1601330679e-01
 1.8722917275e-01	 1.4556590081e+00	 6.7562402712e-01
 1.7453142673e-01	 1.4572359825e+00	 6.5366637692e-01
 1.6185868347e-01	 1.4586979543e+00	 6.5188378000e-01
 1.4921232343e-01	 1.4600457783e+00	 6.7185512922e-01
 1.3659370366e-01	 1.4612803280e+00	 7.1499722075e-01
 1.2400415759e-01	 1.4624024947e+00	 7.8256747263e-01
 2.5255220746e-01	 1.4547135380e+00	 1.0309668949e+00
 2.3967399987e-01	 1.4568906709e+00	 9.4922442965e-01
 2.2681365707e-01	 1.4589481098e+00	 8.7447919255e-01
 2.1397268170e-01	 1.4608866125e+00	 8.0931906007e-01
 2.0115255422e-01	 1.4627069585e+00	 7.5614607508e-01
 1.8835473257e-01	 1.4644099482e+00	 7.1717765356e-01
 1.7558065191e-01	 1.4659964030e+00	 6.9444822751e-01
 1.6283172431e-01	 1.4674671636e+00	 6.8981129024e-01
 1.5010933854e-01	 1.4688230902e+00	 7.0494181059e-01
 1.3741485980e-01	 1.4700650617e+00	 7.4133898216e-01
 1.2474962954e-01	 1.4711939745e+00	 8.0032927409e-01
 2.5406139501e-01	 1.4634065349e+00	 1.0355064089e+00
 2.4110623054e-01	 1.4655966777e+00	 9.6840140497e-01
 2.2816903761e-01	 1.4676664114e+00	 9.0542003241e-01
 2.1525132785e-01	 1.4696164981e+00	 8.4919729402e-01
 2.0235459056e-01	 1.4714477220e+00	 8.0217930268e-01
 1.8948029239e-01	 1.4731608884e+00	 7.6662459024e-01
 1.7662987708e-01	 1.4747568234e+00	 7.4460586575e-01
 1.6380476514e-01	 1.4762363729e+00	 7.3801218796e-01
 1.5100635364e-01	 1.4776004022e+00	 7.4855151700e-01
 1.3823601594e-01	 1.4788497954e+00	 7.7775361014e-01
 1.2549510150e-01	 1.4799854543e+00	 8.2697322656e-01
 2.5557058256e-01	 1.4720995319e+00	 1.0360693667e+00
 2.4253846121e-01	 1.4743026846e+00	 9.8547969329e-01
 2.2952441815e-01	 1.4763847130e+00	 9.3624930419e-01
 2.1652997400e-01	 1.4783463837e+00	 8.9093985987e-01
 2.0355662689e-01	 1.4801884855e+00	 8.5193291656e-01
 1.9060585221e-01	 1.4819118286e+00	 8.2143177674e-01
 1.7767910225e-01	 1.4835172438e+00	 8.0147159888e-01
 1.6477780598e-01	 1.4850055822e+00	 7.9390009884e-01
 1.5190336875e-01	 1.4863777142e+00	 8.0038929603e-01
 1.3905717208e-01	 1.4876345291e+00	 8.2244420425e-01
 1.2624057345e-01	 1.4887769341e+00	 8.6140576536e-01
 2.5707977011e-01	 1.4807925288e+00	 1.0339226427e+00
 2.4397069187e-01	 1.4830086915e+00	 1.0005877164e+00
 2.3087979869e-01	 1.4851030147e+00	 9.6619473233e-01
 2.1780862014e-01	 1.4870762694e+00	 9.3309713292e-01
 2.0475866323e-01	 1.4889292491e+00	 9.0348895107e-01
 1.9173141203e-01	 1.4906627688e+00	 8.7940902605e-01
 1.7872832743e-01	 1.4922776642e+00	 8.6274277636e-01
 1.6575084681e-01	 1.4937747915e+00	 8.5522420064e-01
 1.5280038385e-01	 1.4951550262e+00	 8.5843809166e-01
 1.3987832822e-01	 1.4964192628e+00	 8.7382244918e-01
 1.2698604541e-01	 1.4975684139e+00	 9.0267107758e-01
 2.5858895766e-01	 1.4894855257e+00	 1.0306820002e+00
 2.4540292254e-01	 1.4917146984e+00	 1.0143801905e+00
 2.3223517923e-01	 1.4938213163e+00	 9.9502947920e-01
 2.1908726629e-01	 1.4958061550e+00	 9.7467041464e-01
 2.0596069957e-01	 1.4976700126e+00	 9.5522011458e-01
 1.9285697185e-01	 1.4994137089e+00	 9.3847343201e-01
 1.7977755260e-01	 1.5010380847e+00	 9.2610433125e-01
 1.6672388765e-01	 1.5025440008e+00	 9.1966746015e-01
 1.5369739896e-01	 1.5039323382e+00	 9.2059990493e-01
 1.4069948436e-01	 1.5052039965e+00	 9.3022311474e-01
 1.2773151736e-01	 1.5063598937e+00	 9.4974498313e-01
 2.6009814521e-01	 1.4981785226e+00	 1.0281743856e+00
 2.4683515321e-01	 1.5004207053e+00	 1.0273814873e+00
 2.3359055977e-01	 1.5025396179e+00	 1.0222332025e+00
 2.2036591244e-01	 1.5045360406e+00	 1.0143434583e+00
 2.0716273591e-01	 1.5064107762e+00	 1.0052476012e+00
 1.9398253167e-01	 1.5081646491e+00	 9.9640307478e-01
 1.8082677778e-01	 1.5097985051e+00	 9.8919026238e-01
 1.6769692849e-01	 1.5113132102e+00	 9.8491348327e-01
 1.5459441406e-01	 1.5127096502e+00	 9.8480212986e-01
 1.4152064050e-01	 1.5139887301e+00	 9.9001193536e-01
 1.2847698931e-01	 1.5151513734e+00	 1.0016263609e+00
 2.6160733276e-01	 1.5068715195e+00	 1.0277513764e+00
 2.4826738388e-01	 1.5091267122e+00	 1.0398651040e+00
 2.3494594031e-01	 1.5112579195e+00	 1.0471889686e+00
 2.2164455859e-01	 1.5132659262e+00	 1.0507949605e+00
 2.0836477224e-01	 1.5151515397e+00	 1.0517327708e+00
 1.9510809149e-01	 1.5169155893e+00	 1.0510298572e+00
 1.8187600295e-01	 1.5185589255e+00	 1.0496916184e+00
 1.6866996932e-01	 1.5200824195e+00	 1.0487016686e+00
 1.5549142916e-01	 1.5214869622e+00	 1.0490221997e+00
 1.4234179663e-01	 1.5227734638e+00	 1.0515944261e+00
 1.2922246127e-01	 1.5239428532e+00	 1.0573391010e+00
 1.2176774173e-01	 1.4360280554e+00	 7.9462343239e-01
 1.0943717242e-01	 1.4370203602e+00	 8.8120495072e-01
 9.7137661338e-02	 1.4379041455e+00	 9.5928683132e-01
 8.4870418512e-02	 1.4386803344e+00	 1.0289946423e+00
 7.2636630905e-02	 1.4393498649e+00	 1.0904143365e+00
 6.0437462281e-02	 1.4399136891e+00	 1.1435941258e+00
 4.8274053106e-02	 1.4403727731e+00	 1.1885463763e+00
 3.6147520452e-02	 1.4407280959e+00	 1.2252495046e+00
 2.4058957924e-02	 1.4409806490e+00	 1.2536498580e+00
 1.2009435603e-02	 1.4411314357e+00	 1.2736635616e+00
 0.0000000000e+00	 1.4411814706e+00	 1.2851783160e+00
 1.2251321368e-01	 1.4448195352e+00	 7.7848339464e-01
 1.1010715563e-01	 1.4458179149e+00	 8.6645760946e-01
 9.7732345950e-02	 1.4467071109e+00	 9.4771911153e-01
 8.5390002073e-02	 1.4474880517e+00	 1.0215966283e+00
 7.3081318229e-02	 1.4481616810e+00	 1.0874410366e+00
 6.0807465309e-02	 1.4487289571e+00	 1.1446267993e+00
 4.8569590760e-02	 1.4491908516e+00	 1.1925533585e+00
 3.6368818493e-02	 1.4495483497e+00	 1.2306464683e+00
 2.4206248808e-02	 1.4498024489e+00	 1.2583594512e+00
 1.2082958338e-02	 1.4499541587e+00	 1.2751743628e+00
 0.0000000000e+00	 1.4500045000e+00	 1.2806030504e+00
 1.2325868564e-01	 1.4536110149e+00	 7.7487959463e-01
 1.1077713885e-01	 1.4546154697e+00	 8.6034730535e-01
 9.8327030562e-02	 1.4555100762e+00	 9.4137008247e-01
 8.5909585633e-02	 1.4562957689e+00	 1.0166450683e+00
 7.3526005553e-02	 1.4569734972e+00	 1.0849403018e+00
 6.1177468337e-02	 1.4575442250e+00	 1.1450958510e+00
 4.8865128414e-02	 1.4580089301e+00	 1.1960248522e+00
 3.6590116533e-02	 1.4583686035e+00	 1.2367144378e+00
 2.4353539692e-02	 1.4586242489e+00	 1.2662265389e+00
 1.2156481073e-02	 1.4587768818e+00	 1.2836985489e+00
 0.0000000000e+00	 1.4588275294e+00	 1.2883438354e+00
 1.2400415759e-01	 1.4624024947e+00	 7.8256747263e-01
 1.1144712206e-01	 1.4634130244e+00	 8.6237270323e-01
 9.8921715174e-02	 1.4643130416e+00	 9.4025333245e-01
 8.6429169193e-02	 1.4651034862e+00	 1.0144379813e+00
 7.3970692876e-02	 1.4657853134e+00	 1.0832620587e+00
 6.1547471364e-02	 1.4663594930e+00	 1.1451687235e+00
 4.9160666067e-02	 1.4668270086e+00	 1.1987097146e+00
 3.6811414574e-02	 1.4671888574e+00	 1.2425460306e+00
 2.4500830576e-02	 1.4674460489e+00	 1.2754484485e+00
 1.2230003808e-02	 1.4675996049e+00	 1.2962978646e+00
 0.0000000000e+00	 1.4676505588e+00	 1.3040854492e+00
 1.2474962954e-01	 1.4711939745e+00	 8.0032927409e-01
 1.1211710527e-01	 1.4722105792e+00	 8.7204176173e-01
 9.9516399786e-02	 1.4731160069e+00	 9.4437973049e-01
 8.6948752753e-02	 1.4739112034e+00	 1.0152642015e+00
 7.4415380199e-02	 1.4745971296e+00	 1.0827461775e+00
 6.1917474391e-02	 1.4751747609e+00	 1.1450075666e+00
 4.9456203720e-02	 1.4756450871e+00	 1.2003619458e+00
 3.7032712614e-02	 1.4760091112e+00	 1.2472551505e+00
 2.4648121460e-02	 1.4762678488e+00	 1.2842656739e+00
 1.2303526542e-02	 1.4764223280e+00	 1.3101048644e+00
 0.0000000000e+00	 1.4764735882e+00	 1.3236169100e+00
 1.2549510150e-01	 1.4799854543e+00	 8.2697322656e-01
 1.1278708848e-01	 1.4810081339e+00	 8.8887142811e-01
 1.0011108440e-01	 1.4819189723e+00	 9.5375763462e-01
 8.7468336312e-02	 1.4827189207e+00	 1.0194047910e+00
 7.4860067522e-02	 1.4834089457e+00	 1.0837255864e+00
 6.2287477417e-02	 1.4839900289e+00	 1.1447746919e+00
 4.9751741372e-02	 1.4844631656e+00	 1.2007495260e+00
 3.7254010654e-02	 1.4848293650e+00	 1.2499906364e+00
 2.4795412343e-02	 1.4850896488e+00	 1.2909819251e+00
 1.2377049277e-02	 1.4852450511e+00	 1.3223507170e+00
 0.0000000000e+00	 1.4852966177e+00	 1.3428676767e+00
 1.2624057345e-01	 1.4887769341e+00	 8.6140576536e-01
 1.1345707170e-01	 1.4898056887e+00	 9.1246662222e-01
 1.0070576901e-01	 1.4907219377e+00	 9.6847527606e-01
 8.7987919871e-02	 1.4915266379e+00	 1.0272149713e+00
 7.5304754845e-02	 1.4922207619e+00	 1.0866084781e+00
 6.2657480444e-02	 1.4928052968e+00	 1.1447188662e+00
 5.0047279025e-02	 1.4932812441e+00	 1.1997501192e+00
 3.7475308694e-02	 1.4936496188e+00	 1.2500475894e+00
 2.4942703227e-02	 1.4939114487e+00	 1.2940982942e+00
 1.2450572012e-02	 1.4940677742e+00	 1.3305310566e+00
 0.0000000000e+00	 1.4941196471e+00	 1.3581164895e+00
 1.2698604541e-01	 1.4975684139e+00	 9.0267107758e-01
 1.1412705491e-01	 1.4986032435e+00	 9.4250722212e-01
 1.0130045362e-01	 1.4995249030e+00	 9.8864711856e-01
 8.8507503430e-02	 1.5003343552e+00	 1.0390425559e+00
 7.5749442167e-02	 1.5010325781e+00	 1.0917706582e+00
 6.3027483470e-02	 1.5016205648e+00	 1.1450348528e+00
 5.0342816678e-02	 1.5020993226e+00	 1.1971656895e+00
 3.7696606734e-02	 1.5024698726e+00	 1.2466215103e+00
 2.5089994111e-02	 1.5027332487e+00	 1.2919889713e+00
 1.2524094746e-02	 1.5028904973e+00	 1.3319834166e+00
 0.0000000000e+00	 1.5029426765e+00	 1.3654491055e+00
 1.2773151736e-01	 1.5063598937e+00	 9.4974498313e-01
 1.1479703812e-01	 1.5074007982e+00	 9.7861370874e-01
 1.0189513823e-01	 1.5083278684e+00	 1.0143373807e+00
 8.9027086989e-02	 1.5091420724e+00	 1.0551906966e+00
 7.6194129490e-02	 1.5098443942e+00	 1.0995474386e+00
 6.3397486497e-02	 1.5104358327e+00	 1.1458817518e+00
 5.0638354330e-02	 1.5109174011e+00	 1.1927692980e+00
 3.7917904774e-02	 1.5112901264e+00	 1.2388882810e+00
 2.5237284994e-02	 1.5115550487e+00	 1.2830203443e+00
 1.2597617481e-02	 1.5117132204e+00	 1.3240513405e+00
 0.0000000000e+00	 1.5117657059e+00	 1.3609719734e+00
 1.2847698931e-01	 1.5151513734e+00	 1.0016263609e+00
 1.1546702133e-01	 1.5161983530e+00	 1.0204168689e+00
 1.0248982284e-01	 1.5171308337e+00	 1.0456103162e+00
 8.9546670548e-02	 1.5179497897e+00	 1.0759568277e+00
 7.6638816813e-02	 1.5186562104e+00	 1.1102674440e+00
 6.3767489523e-02	 1.5192511007e+00	 1.1474158276e+00
 5.0933891983e-02	 1.5197354796e+00	 1.1863398769e+00
 3.8139202814e-02	 1.5201103802e+00	 1.2260432462e+00
 2.5384575878e-02	 1.5203768486e+00	 1.2655967692e+00
 1.2671140216e-02	 1.5205359435e+00	 1.3041397832e+00
 0.0000000000e+00	 1.5205887353e+00	 1.3408813552e+00
 1.2922246127e-01	 1.5239428532e+00	 1.0573391010e+00
 1.1613700454e-01	 1.5249959077e+00	 1.0675577434e+00
 1.0308450745e-01	 1.5259337991e+00	 1.0825302392e+00
 9.0066254107e-02	 1.5267575069e+00	 1.1016328553e+00
 7.7083504135e-02	 1.5274680266e+00	 1.1242528285e+00
 6.4137492550e-02	 1.5280663686e+00	 1.1497906122e+00
 5.1229429637e-02	 1.5285535581e+00	 1.1776620781e+00
 3.8360500855e-02	 1.5289306340e+00	 1.2073006671e+00
 2.5531866762e-02	 1.5291986486e+00	 1.2381594860e+00
 1.2744662951e-02	 1.5293586666e+00	 1.2697133452e+00
 0.0000000000e+00	 1.5294117647e+00	 1.3014607357e+00
 1.5294117647e+00	 0.0000000000e+00	 6.6368430275e+00
 1.5293586666e+00	 1.2744662951e-02	 6.3018584435e+00
 1.5291986486e+00	 2.5531866762e-02	 5.7953129025e+00
 1.5289306340e+00	 3.8360500855e-02	 5.1492361343e+00
 1.5285535581e+00	 5.1229429637e-02	 4.3965513468e+00
 1.5280663686e+00	 6.4137492550e-02	 3.5710142808e+00
 1.5274680266e+00	 7.7083504135e-02	 2.7071496394e+00
 1.5267575069e+00	 9.0066254107e-02	 1.8401848992e+00
 1.5259337991e+00	 1.0308450745e-01	 1.0059815114e+00
 1.5249959077e+00	 1.1613700454e-01	 2.4096350171e-01
 1.5239428532e+00	 1.2922246127e-01	-4.1795651931e-01
 1.5382347941e+00	 0.0000000000e+00	 7.0524767085e+00
 1.5381813897e+00	 1.2818185686e-02	 7.0274669329e+00
 1.5380204486e+00	 2.5679157647e-02	 6.6884079024e+00
 1.5377508879e+00	 3.8581798896e-02	 6.0881201538e+00
 1.5373716366e+00	 5.1524967290e-02	 5.2805121368e+00
 1.5368816366e+00	 6.4507495578e-02	 4.3204971393e+00
 1.5362798428e+00	 7.7528191458e-02	 3.2639068004e+00
 1.5355652242e+00	 9.0585837666e-02	 2.1674012281e+00
 1.5347367645e+00	 1.0367919206e-01	 1.0883757413e+00
 1.5337934625e+00	 1.1680698775e-01	 8.4864256885e-02
 1.5327343330e+00	 1.2996793322e-01	-7.8456065095e-01
 1.5470578235e+00	 0.0000000000e+00	 7.3883559881e+00
 1.5470041127e+00	 1.2891708422e-02	 7.5906356599e+00
 1.5468422485e+00	 2.5826448532e-02	 7.3784222582e+00
 1.5465711417e+00	 3.8803096937e-02	 6.8184631831e+00
 1.5461897151e+00	 5.1820504944e-02	 5.9787300251e+00
 1.5456969045e+00	 6.4877498605e-02	 4.9283204581e+00
 1.5450916589e+00	 7.7972878782e-02	 3.7373561832e+00
 1.5443729414e+00	 9.1105421225e-02	 2.4768769482e+00
 1.5435397298e+00	 1.0427387667e-01	 1.2187306671e+00
 1.5425910172e+00	 1.1747697097e-01	 3.5459670015e-02
 1.5415258128e+00	 1.3071340517e-01	-9.9981687995e-01
 1.5558808529e+00	 0.0000000000e+00	 7.6662595154e+00
 1.5558268358e+00	 1.2965231157e-02	 8.0059016875e+00
 1.5556640485e+00	 2.5973739417e-02	 7.8733322118e+00
 1.5553913955e+00	 3.9024394979e-02	 7.3424826239e+00
 1.5550077936e+00	 5.2116042599e-02	 6.4885876120e+00
 1.5545121725e+00	 6.5247501633e-02	 5.3880789076e+00
 1.5539034751e+00	 7.8417566105e-02	 4.1184749385e+00
 1.5531806587e+00	 9.1625004784e-02	 2.7582662716e+00
 1.5523426952e+00	 1.0486856128e-01	 1.3867968739e+00
 1.5513885720e+00	 1.1814695418e-01	 8.4141224593e-02
 1.5503172926e+00	 1.3145887712e-01	-1.0690226824e+00
 1.5647038823e+00	 0.0000000000e+00	 7.9074674603e+00
 1.5646495589e+00	 1.3038753893e-02	 8.2874667019e+00
 1.5644858484e+00	 2.6121030302e-02	 8.1809265052e+00
 1.5642116493e+00	 3.9245693021e-02	 7.6623382870e+00
 1.5638258721e+00	 5.2411580253e-02	 6.8075190879e+00
 1.5633274404e+00	 6.5617504661e-02	 5.6935044234e+00
 1.5627152913e+00	 7.8862253428e-02	 4.3984368558e+00
 1.5619883759e+00	 9.2144588344e-02	 3.0014503135e+00
 1.5611456605e+00	 1.0546324589e-01	 1.5825501835e+00
 1.5601861267e+00	 1.1881693739e-01	 2.2248920973e-01
 1.5591087724e+00	 1.3220434908e-01	-9.9736076490e-01
 1.5735269117e+00	 0.0000000000e+00	 8.1327754891e+00
 1.5734722820e+00	 1.3112276629e-02	 8.4492064334e+00
 1.5733076484e+00	 2.6268321188e-02	 8.3088116726e+00
 1.5730319031e+00	 3.9466991063e-02	 7.7801340605e+00
 1.5726439506e+00	 5.2707117907e-02	 6.9330088584e+00
 1.5721427084e+00	 6.5987507689e-02	 5.8384624461e+00
 1.5715271074e+00	 7.9306940752e-02	 4.5686069563e+00
 1.5707960932e+00	 9.2664171903e-02	 3.1965308530e+00
 1.5699486259e+00	 1.0605793051e-01	 1.7961854765e+00
 1.5689836815e+00	 1.1948692060e-01	 4.4226757888e-01
 1.5679002521e+00	 1.3294982103e-01	-7.8990211714e-01
 1.5823499412e+00	 0.0000000000e+00	 8.3625082729e+00
 1.5822950051e+00	 1.3185799365e-02	 8.5046797613e+00
 1.5821294484e+00	 2.6415612073e-02	 8.2644171557e+00
 1.5818521569e+00	 3.9688289105e-02	 7.6979195214e+00
 1.5814620291e+00	 5.3002655562e-02	 6.8625902142e+00
 1.5809579763e+00	 6.6357510716e-02	 5.8169482873e+00
 1.5803389236e+00	 7.9751628075e-02	 4.6205362658e+00
 1.5796038104e+00	 9.3183755462e-02	 3.3338243018e+00
 1.5787515913e+00	 1.0665261512e-01	 2.0181107217e+00
 1.5777812362e+00	 1.2015690381e-01	 7.3541897961e-01
 1.5766917319e+00	 1.3369529298e-01	-4.5160896323e-01
 1.5911729706e+00	 0.0000000000e+00	 8.6165325465e+00
 1.5911177282e+00	 1.3259322100e-02	 8.4671375162e+00
 1.5909512483e+00	 2.6562902958e-02	 8.0550002482e+00
 1.5906724107e+00	 3.9909587147e-02	 7.4176914941e+00
 1.5902801076e+00	 5.3298193216e-02	 6.5938440463e+00
 1.5897732442e+00	 6.6727513744e-02	 5.6230836157e+00
 1.5891507398e+00	 8.0196315399e-02	 4.5459567615e+00
 1.5884115277e+00	 9.3703339021e-02	 3.4038558730e+00
 1.5875545566e+00	 1.0724729973e-01	 2.2389412026e+00
 1.5865787910e+00	 1.2082688702e-01	 1.0940599478e+00
 1.5854832117e+00	 1.3444076493e-01	 1.2662383680e-02
 1.5999960000e+00	 0.0000000000e+00	 8.9142697355e+00
 1.5999404513e+00	 1.3332844836e-02	 8.3495309913e+00
 1.5997730483e+00	 2.6710193843e-02	 7.6876508776e+00
 1.5994926645e+00	 4.0130885188e-02	 6.9413955570e+00
 1.5990981861e+00	 5.3593730871e-02	 6.1243976025e+00
 1.5985885122e+00	 6.7097516772e-02	 5.2511130600e+00
 1.5979625559e+00	 8.0641002722e-02	 4.3367764858e+00
 1.5972192449e+00	 9.4222922580e-02	 3.3973539427e+00
 1.5963575220e+00	 1.0784198434e-01	 2.4494939345e+00
 1.5953763457e+00	 1.2149687023e-01	 1.5104762598e+00
 1.5942746915e+00	 1.3518623688e-01	 5.9815876020e-01
 1.6088190294e+00	 0.0000000000e+00	 9.2747081671e+00
 1.6087631744e+00	 1.3406367572e-02	 8.1645201732e+00
 1.6085948482e+00	 2.6857484728e-02	 7.1692962285e+00
 1.6083129183e+00	 4.0352183230e-02	 6.2709274994e+00
 1.6079162646e+00	 5.3889268525e-02	 5.4519232852e+00
 1.6074037801e+00	 6.7467519799e-02	 4.6954009221e+00
 1.6067743721e+00	 8.1085690045e-02	 3.9850748199e+00
 1.6060269622e+00	 9.4742506139e-02	 3.3052445958e+00
 1.6051604873e+00	 1.0843666895e-01	 2.6407822643e+00
 1.6041739005e+00	 1.2216685344e-01	 1.9771184368e+00
 1.6030661713e+00	 1.3593170884e-01	 1.3002274811e+00
 1.6176420588e+00	 0.0000000000e+00	 9.7164148823e+00
 1.6175858975e+00	 1.3479890307e-02	 7.9244817033e+00
 1.6174166482e+00	 2.7004775613e-02	 6.5067052154e+00
 1.6171331722e+00	 4.0573481271e-02	 5.4081347307e+00
 1.6167343431e+00	 5.4184806178e-02	 4.5741374884e+00
 1.6162190481e+00	 6.7837522827e-02	 3.9504279989e+00
 1.6155861883e+00	 8.1530377368e-02	 3.4830979119e+00
 1.6148346794e+00	 9.5262089698e-02	 3.1186463509e+00
 1.6139634527e+00	 1.0903135356e-01	 2.8040106469e+00
 1.6129714553e+00	 1.2283683665e-01	 2.4865973953e+00
 1.6118576511e+00	 1.3667718079e-01	 2.1143137538e+00
 1.5239428532e+00	 1.2922246127e-01	-4.1795651931e-01
 1.5227734638e+00	 1.4234179663e-01	-9.2091078785e-01
 1.5214869622e+00	 1.5549142916e-01	-1.2552962798e+00
 1.5200824195e+00	 1.6866996932e-01	-1.4400381676e+00
 1.5185589255e+00	 1.8187600295e-01	-1.4940123158e+00
 1.5169155893e+00	 1.9510809149e-01	-1.4360526906e+00
 1.5151515397e+00	 2.0836477224e-01	-1.2849591457e+00
 1.5132659262e+00	 2.2164455859e-01	-1.0595056123e+00
 1.5112579195e+00	 2.3494594031e-01	-7.7844872911e-01
 1.5091267122e+00	 2.4826738388e-01	-4.6053694250e-01
 1.5068715195e+00	 2.6160733276e-01	-1.2452010970e-01
 1.5327343330e+00	 1.2996793322e-01	-7.8456065095e-01
 1.5315581975e+00	 1.4316295277e-01	-1.4464596328e+00
 1.5302642742e+00	 1.5638844427e-01	-1.8834862519e+00
 1.5288516288e+00	 1.6964301015e-01	-2.1212196361e+00
 1.5273193459e+00	 1.8292522812e-01	-2.1851781038e+00
 1.5256665295e+00	 1.9623365131e-01	-2.1008174601e+00
 1.5238923033e+00	 2.0956680858e-01	-1.8935294760e+00
 1.5219958118e+00	 2.2292320474e-01	-1.5886405922e+00
 1.5199762211e+00	 2.3630132085e-01	-1.2114108929e+00
 1.5178327191e+00	 2.4969961454e-01	-7.8703339465e-01
 1.5155645164e+00	 2.6311652031e-01	-3.4063369658e-01
 1.5415258128e+00	 1.3071340517e-01	-9.9981687995e-01
 1.5403429312e+00	 1.4398410891e-01	-1.7927965991e+00
 1.5390415861e+00	 1.5728545937e-01	-2.3180362615e+00
 1.5376208381e+00	 1.7061605099e-01	-2.6057780879e+00
 1.5360797664e+00	 1.8397445329e-01	-2.6861977860e+00
 1.5344174696e+00	 1.9735921113e-01	-2.5893963558e+00
 1.5326330668e+00	 2.1076884491e-01	-2.3453919357e+00
 1.5307256975e+00	 2.2420185088e-01	-1.9841117439e+00
 1.5286945228e+00	 2.3765670139e-01	-1.5353841679e+00
 1.5265387260e+00	 2.5113184521e-01	-1.0289310578e+00
 1.5242575133e+00	 2.6462570786e-01	-4.9436028085e-01
 1.5503172926e+00	 1.3145887712e-01	-1.0690226824e+00
 1.5491276649e+00	 1.4480526504e-01	-1.9613011780e+00
 1.5478188981e+00	 1.5818247447e-01	-2.5569733314e+00
 1.5463900474e+00	 1.7158909182e-01	-2.8889894775e+00
 1.5448401868e+00	 1.8502367847e-01	-2.9902335109e+00
 1.5431684098e+00	 1.9848477095e-01	-2.8935107937e+00
 1.5413738303e+00	 2.1197088125e-01	-2.6315360176e+00
 1.5394555831e+00	 2.2548049703e-01	-2.2369210786e+00
 1.5374128244e+00	 2.3901208193e-01	-1.7421630259e+00
 1.5352447329e+00	 2.5256407588e-01	-1.1796321477e+00
 1.5329505102e+00	 2.6613489541e-01	-5.8156025843e-01
 1.5591087724e+00	 1.3220434908e-01	-9.9736076490e-01
 1.5579123986e+00	 1.4562642118e-01	-1.9533257608e+00
 1.5565962101e+00	 1.5907948957e-01	-2.5983722503e+00
 1.5551592567e+00	 1.7256213266e-01	-2.9662387878e+00
 1.5536006072e+00	 1.8607290364e-01	-3.0906033126e+00
 1.5519193500e+00	 1.9961033077e-01	-3.0050697289e+00
 1.5501145939e+00	 2.1317291759e-01	-2.7431544050e+00
 1.5481854687e+00	 2.2675914318e-01	-2.3382726513e+00
 1.5461311260e+00	 2.4036746247e-01	-1.8237252447e+00
 1.5439507398e+00	 2.5399630654e-01	-1.2326850674e+00
 1.5416435071e+00	 2.6764408295e-01	-5.9818392706e-01
 1.5679002521e+00	 1.3294982103e-01	-7.8990211714e-01
 1.5666971323e+00	 1.4644757732e-01	-1.7701962215e+00
 1.5653735221e+00	 1.5997650467e-01	-2.4403540473e+00
 1.5639284660e+00	 1.7353517349e-01	-2.8330167787e+00
 1.5623610276e+00	 1.8712212881e-01	-2.9807765399e+00
 1.5606702902e+00	 2.0073589059e-01	-2.9161641933e+00
 1.5588553574e+00	 2.1437495392e-01	-2.6716370691e+00
 1.5569153543e+00	 2.2803778932e-01	-2.2795666912e+00
 1.5548494276e+00	 2.4172284301e-01	-1.7722265679e+00
 1.5526567467e+00	 2.5542853721e-01	-1.1817801146e+00
 1.5503365040e+00	 2.6915327050e-01	-5.4026878204e-01
 1.5766917319e+00	 1.3369529298e-01	-4.5160896323e-01
 1.5754818660e+00	 1.4726873345e-01	-1.4132124818e+00
 1.5741508341e+00	 1.6087351978e-01	-2.0810845185e+00
 1.5726976753e+00	 1.7450821432e-01	-2.4849168455e+00
 1.5711214480e+00	 1.8817135398e-01	-2.6543694400e+00
 1.5694212303e+00	 2.0186145041e-01	-2.6190620182e+00
 1.5675961210e+00	 2.1557699026e-01	-2.4085655664e+00
 1.5656452400e+00	 2.2931643547e-01	-2.0523939330e+00
 1.5635677293e+00	 2.4307822355e-01	-1.5799955481e+00
 1.5613627536e+00	 2.5686076787e-01	-1.0207453384e+00
 1.5590295009e+00	 2.7066245805e-01	-4.0393690852e-01
 1.5854832117e+00	 1.3444076493e-01	 1.2662383680e-02
 1.5842665997e+00	 1.4808988959e-01	-8.8364905886e-01
 1.5829281461e+00	 1.6177053488e-01	-1.5187728042e+00
 1.5814668847e+00	 1.7548125515e-01	-1.9176319854e+00
 1.5798818685e+00	 1.8922057915e-01	-2.1051408920e+00
 1.5781721705e+00	 2.0298701022e-01	-2.1062027362e+00
 1.5763368845e+00	 2.1677902659e-01	-1.9457075307e+00
 1.5743751256e+00	 2.3059508161e-01	-1.6485301399e+00
 1.5722860309e+00	 2.4443360408e-01	-1.2395285666e+00
 1.5700687605e+00	 2.5829299854e-01	-7.4354253899e-01
 1.5677224978e+00	 2.7217164560e-01	-1.8539246659e-01
 1.5942746915e+00	 1.3518623688e-01	 5.9815876020e-01
 1.5930513333e+00	 1.4891104572e-01	-1.8275559559e-01
 1.5917054580e+00	 1.6266754998e-01	-7.5167001608e-01
 1.5902360940e+00	 1.7645429599e-01	-1.1269518659e+00
 1.5886422889e+00	 1.9026980432e-01	-1.3269882841e+00
 1.5869231107e+00	 2.0411257004e-01	-1.3701926542e+00
 1.5850776481e+00	 2.1798106293e-01	-1.2750113498e+00
 1.5831050112e+00	 2.3187372776e-01	-1.0599308132e+00
 1.5810043325e+00	 2.4578898462e-01	-7.4348502200e-01
 1.5787747674e+00	 2.5972522920e-01	-3.4426340508e-01
 1.5764154947e+00	 2.7368083315e-01	 1.1908073444e-01
 1.6030661713e+00	 1.3593170884e-01	 1.3002274811e+00
 1.6018360670e+00	 1.4973220186e-01	 6.8824262395e-01
 1.6004827700e+00	 1.6356456508e-01	 2.2193209014e-01
 1.5990053033e+00	 1.7742733682e-01	-1.0875999113e-01
 1.5974027093e+00	 1.9131902949e-01	-3.1394352902e-01
 1.5956740509e+00	 2.0523812986e-01	-4.0380009246e-01
 1.5938184116e+00	 2.1918309926e-01	-3.8860102190e-01
 1.5918348968e+00	 2.3315237390e-01	-2.7872607892e-01
 1.5897226341e+00	 2.4714436516e-01	-8.4682682741e-02
 1.5874807743e+00	 2.6115745987e-01	 1.8287421627e-01
 1.5851084916e+00	 2.7519002070e-01	 5.1312157587e-01
 1.6118576511e+00	 1.3667718079e-01	 2.1143137538e+00
 1.6106208007e+00	 1.5055335800e-01	 1.7281441752e+00
 1.6092600820e+00	 1.6446158018e-01	 1.4037023955e+00
 1.6077745126e+00	 1.7840037765e-01	 1.1409690352e+00
 1.6061631297e+00	 1.9236825466e-01	 9.3983078730e-01
 1.6044249910e+00	 2.0636368968e-01	 8.0004921843e-01
 1.6025591752e+00	 2.2038513559e-01	 7.2122881743e-01
 1.6005647824e+00	 2.3443102005e-01	 7.0278425328e-01
 1.5984409358e+00	 2.4849974570e-01	 7.4390680467e-01
 1.5961867811e+00	 2.6258969053e-01	 8.4352992251e-01
 1.5938014885e+00	 2.7669920824e-01	 1.0002938870e+00
 1.5068715195e+00	 2.6160733276e-01	-1.2452010970e-01
 1.5044919947e+00	 2.7496193661e-01	 2.2490227193e-01
 1.5019870269e+00	 2.8833186380e-01	 5.8864828860e-01
 1.4993559022e+00	 3.0171549544e-01	 9.5592273826e-01
 1.4965979319e+00	 3.1511119125e-01	 1.3155203316e+00
 1.4937124529e+00	 3.2851728995e-01	 1.6557991258e+00
 1.4906988290e+00	 3.4193210972e-01	 1.9646534989e+00
 1.4875564508e+00	 3.5535394869e-01	 2.2294866729e+00
 1.4842847367e+00	 3.6878108538e-01	 2.4371827938e+00
 1.4808831335e+00	 3.8221177925e-01	 2.6026047183e+00
 1.4773511167e+00	 3.9564427119e-01	 2.7569083160e+00
 1.5155645164e+00	 2.6311652031e-01	-3.4063369658e-01
 1.5131712644e+00	 2.7654816559e-01	 1.1291827354e-01
 1.5106518457e+00	 2.8999522260e-01	 5.6885336175e-01
 1.5080055422e+00	 3.0345606313e-01	 1.0166638024e+00
 1.5052316614e+00	 3.1692903741e-01	 1.4453460525e+00
 1.5023295364e+00	 3.3041247460e-01	 1.8433722344e+00
 1.4992985273e+00	 3.4390468318e-01	 2.1986611665e+00
 1.4961380210e+00	 3.5740395145e-01	 2.4985489874e+00
 1.4928474327e+00	 3.7090854800e-01	 2.7298121650e+00
 1.4894262059e+00	 3.8441672225e-01	 2.9185934608e+00
 1.4858738132e+00	 3.9792670495e-01	 3.0850013685e+00
 1.5242575133e+00	 2.6462570786e-01	-4.9436028085e-01
 1.5218505340e+00	 2.7813439456e-01	 4.2953926847e-02
 1.5193166644e+00	 2.9165858140e-01	 5.7109868856e-01
 1.5166551823e+00	 3.0519663081e-01	 1.0800726769e+00
 1.5138653910e+00	 3.1874688358e-01	 1.5593164535e+00
 1.5109466200e+00	 3.3230765926e-01	 1.9976820723e+00
 1.5078982255e+00	 3.4587725664e-01	 2.3834022860e+00
 1.5047195911e+00	 3.5945395421e-01	 2.7040593637e+00
 1.5014101286e+00	 3.7303601062e-01	 2.9479784418e+00
 1.4979692783e+00	 3.8662166525e-01	 3.1509947328e+00
 1.4943965098e+00	 4.0020913871e-01	 3.3230697508e+00
 1.5329505102e+00	 2.6613489541e-01	-5.8156025843e-01
 1.5305298037e+00	 2.7972062354e-01	 1.6450468967e-02
 1.5279814831e+00	 2.9332194020e-01	 5.9451741781e-01
 1.5253048223e+00	 3.0693719849e-01	 1.1433613024e+00
 1.5224991205e+00	 3.2056472974e-01	 1.6531054760e+00
 1.5195637035e+00	 3.3420284392e-01	 2.1132438441e+00
 1.5164979237e+00	 3.4784983011e-01	 2.5126083664e+00
 1.5133011612e+00	 3.6150395697e-01	 2.8393361587e+00
 1.5099728245e+00	 3.7516347324e-01	 3.0854973491e+00
 1.5065123507e+00	 3.8882660825e-01	 3.2933699042e+00
 1.5029192063e+00	 4.0249157246e-01	 3.4648115788e+00
 1.5416435071e+00	 2.6764408295e-01	-5.9818392706e-01
 1.5392090733e+00	 2.8130685251e-01	 3.4820916164e-02
 1.5366463019e+00	 2.9498529900e-01	 6.3826732765e-01
 1.5339544623e+00	 3.0867776617e-01	 1.2038103392e+00
 1.5311328501e+00	 3.2238257590e-01	 1.7224911888e+00
 1.5281807870e+00	 3.3609802858e-01	 2.1847036908e+00
 1.5250976219e+00	 3.4982240357e-01	 2.5801601545e+00
 1.5218827314e+00	 3.6355395973e-01	 2.8978568580e+00
 1.5185355205e+00	 3.7729093586e-01	 3.1358036921e+00
 1.5150554231e+00	 3.9103155125e-01	 3.3394379087e+00
 1.5114419029e+00	 4.0477400622e-01	 3.5045767474e+00
 1.5503365040e+00	 2.6915327050e-01	-5.4026878204e-01
 1.5478883430e+00	 2.8289308149e-01	 9.9451025443e-02
 1.5453111206e+00	 2.9664865780e-01	 7.0153028865e-01
 1.5426041024e+00	 3.1041833386e-01	 1.2587673740e+00
 1.5397665797e+00	 3.2420042207e-01	 1.7633529775e+00
 1.5367978705e+00	 3.3799321323e-01	 2.2068351002e+00
 1.5336973201e+00	 3.5179497703e-01	 2.5800835005e+00
 1.5304643015e+00	 3.6560396249e-01	 2.8732536296e+00
 1.5270982164e+00	 3.7941839848e-01	 3.0924831747e+00
 1.5235984955e+00	 3.9323649426e-01	 3.2830625027e+00
 1.5199645994e+00	 4.0705643998e-01	 3.4368461137e+00
 1.5590295009e+00	 2.7066245805e-01	-4.0393690852e-01
 1.5565676126e+00	 2.8447931046e-01	 2.1170021712e-01
 1.5539759394e+00	 2.9831201659e-01	 7.8351173723e-01
 1.5512537424e+00	 3.1215890154e-01	 1.3056451775e+00
 1.5484003092e+00	 3.2601826823e-01	 1.7716688197e+00
 1.5454149540e+00	 3.3988839789e-01	 2.1745354275e+00
 1.5422970183e+00	 3.5376755049e-01	 2.5065453513e+00
 1.5390458716e+00	 3.6765396525e-01	 2.7593090131e+00
 1.5356609123e+00	 3.8154586110e-01	 2.9492682678e+00
 1.5321415679e+00	 3.9544143726e-01	 3.1182482941e+00
 1.5284872959e+00	 4.0933887373e-01	 3.2562279038e+00
 1.5677224978e+00	 2.7217164560e-01	-1.8539246659e-01
 1.5652468823e+00	 2.8606553943e-01	 3.7290245993e-01
 1.5626407581e+00	 2.9997537539e-01	 8.8344015894e-01
 1.5599033824e+00	 3.1389946922e-01	 1.3419200127e+00
 1.5570340388e+00	 3.2783611439e-01	 1.7435126405e+00
 1.5540320375e+00	 3.4178358255e-01	 2.0828225210e+00
 1.5508967165e+00	 3.5574012396e-01	 2.3538498657e+00
 1.5476274418e+00	 3.6970396801e-01	 2.5499517408e+00
 1.5442236082e+00	 3.8367332372e-01	 2.7000342107e+00
 1.5406846403e+00	 3.9764638026e-01	 2.8391368996e+00
 1.5370099925e+00	 4.1162130749e-01	 2.9574542334e+00
 1.5764154947e+00	 2.7368083315e-01	 1.1908073444e-01
 1.5739261520e+00	 2.8765176841e-01	 5.8436712003e-01
 1.5713055768e+00	 3.0163873419e-01	 1.0005665814e+00
 1.5685530225e+00	 3.1564003690e-01	 1.3651299897e+00
 1.5656677684e+00	 3.2965396056e-01	 1.6750517469e+00
 1.5626491211e+00	 3.4367876720e-01	 1.9268314495e+00
 1.5594964147e+00	 3.5771269742e-01	 2.1164346462e+00
 1.5562090119e+00	 3.7175397077e-01	 2.2396317145e+00
 1.5527863042e+00	 3.8580078635e-01	 2.3387951399e+00
 1.5492277127e+00	 3.9985132326e-01	 2.4400032230e+00
 1.5455326890e+00	 4.1390374125e-01	 2.5353777389e+00
 1.5851084916e+00	 2.7519002070e-01	 5.1312157587e-01
 1.5826054216e+00	 2.8923799738e-01	 8.4737977541e-01
 1.5799703956e+00	 3.0330209299e-01	 1.1341640762e+00
 1.5772026625e+00	 3.1738060459e-01	 1.3728734667e+00
 1.5743014979e+00	 3.3147180672e-01	 1.5625443370e+00
 1.5712662046e+00	 3.4557395186e-01	 1.7018113268e+00
 1.5680961129e+00	 3.5968527088e-01	 1.7888670840e+00
 1.5647905820e+00	 3.7380397353e-01	 1.8238174877e+00
 1.5613490001e+00	 3.8792824897e-01	 1.8597003399e+00
 1.5577707851e+00	 4.0205626627e-01	 1.9152518505e+00
 1.5540553856e+00	 4.1618617500e-01	 1.9849683125e+00
 1.5938014885e+00	 2.7669920824e-01	 1.0002938870e+00
 1.5912846913e+00	 2.9082422635e-01	 1.1632029970e+00
 1.5886352143e+00	 3.0496545179e-01	 1.2835272700e+00
 1.5858523025e+00	 3.1912117227e-01	 1.3628074954e+00
 1.5829352275e+00	 3.3328965288e-01	 1.4023370814e+00
 1.5798832881e+00	 3.4746913652e-01	 1.4031222302e+00
 1.5766958111e+00	 3.6165784435e-01	 1.3658408128e+00
 1.5733721522e+00	 3.7585397630e-01	 1.2969482237e+00
 1.5699116960e+00	 3.9005571159e-01	 1.2570306127e+00
 1.5663138575e+00	 4.0426120927e-01	 1.2594135597e+00
 1.5625780821e+00	 4.1846860876e-01	 1.3013099395e+00
 1.4773511167e+00	 3.9564427119e-01	 2.7569083160e+00
 1.4736881920e+00	 4.0907678431e-01	 2.8783787347e+00
 1.4698938963e+00	 4.2250752502e-01	 2.9553329219e+00
 1.4659677976e+00	 4.3593468314e-01	 2.9901567275e+00
 1.4619094952e+00	 4.4935643230e-01	 2.9851986601e+00
 1.4577186201e+00	 4.6277093058e-01	 2.9427595646e+00
 1.4533948358e+00	 4.7617632115e-01	 2.8650828819e+00
 1.4489378386e+00	 4.8957073294e-01	 2.7543455644e+00
 1.4443473582e+00	 5.0295228133e-01	 2.6126497236e+00
 1.4396231580e+00	 5.1631906883e-01	 2.4420150747e+00
 1.4347650360e+00	 5.2966918584e-01	 2.2443722455e+00
 1.4858738132e+00	 3.9792670495e-01	 3.0850013685e+00
 1.4821897575e+00	 4.1143670894e-01	 3.2069358942e+00
 1.4783735728e+00	 4.2494493030e-01	 3.2745933090e+00
 1.4744248249e+00	 4.3844954841e-01	 3.2921464615e+00
 1.4703431105e+00	 4.5194872635e-01	 3.2632370022e+00
 1.4661280587e+00	 4.6544061158e-01	 3.1914665041e+00
 1.4617793309e+00	 4.7892333656e-01	 3.0804031585e+00
 1.4572966217e+00	 4.9239501943e-01	 2.9335709635e+00
 1.4526796592e+00	 5.0585376468e-01	 2.7544396226e+00
 1.4479282056e+00	 5.1929766389e-01	 2.5464152272e+00
 1.4430420576e+00	 5.3272479644e-01	 2.3128317913e+00
 1.4943965098e+00	 4.0020913871e-01	 3.3230697508e+00
 1.4906913229e+00	 4.1379663358e-01	 3.4439530008e+00
 1.4868532494e+00	 4.2738233559e-01	 3.5057383483e+00
 1.4828818521e+00	 4.4096441368e-01	 3.5119781947e+00
 1.4787767258e+00	 4.5454102040e-01	 3.4666401311e+00
 1.4745374972e+00	 4.6811029258e-01	 3.3748741411e+00
 1.4701638260e+00	 4.8167035197e-01	 3.2409555291e+00
 1.4656554048e+00	 4.9521930591e-01	 3.0690380190e+00
 1.4610119603e+00	 5.0875524803e-01	 2.8632345976e+00
 1.4562332532e+00	 5.2227625896e-01	 2.6276073009e+00
 1.4513190791e+00	 5.3578040705e-01	 2.3661578657e+00
 1.5029192063e+00	 4.0249157246e-01	 3.4648115788e+00
 1.4991928884e+00	 4.1615655821e-01	 3.5822269049e+00
 1.4953329259e+00	 4.2981974087e-01	 3.6401140029e+00
 1.4913388794e+00	 4.4347927894e-01	 3.6418438035e+00
 1.4872103411e+00	 4.5713331445e-01	 3.5908321164e+00
 1.4829469358e+00	 4.7077997358e-01	 3.4905341222e+00
 1.4785483210e+00	 4.8441736738e-01	 3.3449435520e+00
 1.4740141879e+00	 4.9804359239e-01	 3.1594780564e+00
 1.4693442613e+00	 5.1165673138e-01	 2.9383000231e+00
 1.4645383008e+00	 5.2525485402e-01	 2.6854096675e+00
 1.4595961006e+00	 5.3883601765e-01	 2.4047535193e+00
 1.5114419029e+00	 4.0477400622e-01	 3.5045767474e+00
 1.5076944539e+00	 4.1851648284e-01	 3.6168729237e+00
 1.5038126025e+00	 4.3225714616e-01	 3.6731267140e+00
 1.4997959067e+00	 4.4599414421e-01	 3.6758650882e+00
 1.4956439564e+00	 4.5972560850e-01	 3.6276573962e+00
 1.4913563743e+00	 4.7344965458e-01	 3.5311109318e+00
 1.4869328161e+00	 4.8716438279e-01	 3.3888665544e+00
 1.4823729709e+00	 5.0086787888e-01	 3.2035943754e+00
 1.4776765623e+00	 5.1455821473e-01	 2.9789095420e+00
 1.4728433483e+00	 5.2823344908e-01	 2.7196369205e+00
 1.4678731222e+00	 5.4189162826e-01	 2.4290053526e+00
 1.5199645994e+00	 4.0705643998e-01	 3.4368461137e+00
 1.5161960194e+00	 4.2087640747e-01	 3.5431204549e+00
 1.5122922790e+00	 4.3469455144e-01	 3.6006893318e+00
 1.5082529339e+00	 4.4850900948e-01	 3.6105847036e+00
 1.5040775717e+00	 4.6231790255e-01	 3.5738687645e+00
 1.4997658129e+00	 4.7611933558e-01	 3.4916313348e+00
 1.4953173111e+00	 4.8991139820e-01	 3.3649873549e+00
 1.4907317540e+00	 5.0369216536e-01	 3.1950744896e+00
 1.4860088634e+00	 5.1745969808e-01	 2.9830508518e+00
 1.4811483959e+00	 5.3121204414e-01	 2.7301003105e+00
 1.4761501437e+00	 5.4494723886e-01	 2.4392843574e+00
 1.5284872959e+00	 4.0933887373e-01	 3.2562279038e+00
 1.5246975849e+00	 4.2323633211e-01	 3.3563098451e+00
 1.5207719556e+00	 4.3713195673e-01	 3.4188106809e+00
 1.5167099612e+00	 4.5102387475e-01	 3.4426274957e+00
 1.5125111870e+00	 4.6491019660e-01	 3.4266659376e+00
 1.5081752515e+00	 4.7878901658e-01	 3.3698401839e+00
 1.5037018062e+00	 4.9265841361e-01	 3.2710730800e+00
 1.4990905371e+00	 5.0651645185e-01	 3.1292964596e+00
 1.4943411644e+00	 5.2036118143e-01	 2.9434516499e+00
 1.4894534435e+00	 5.3419063921e-01	 2.7124901673e+00
 1.4844271652e+00	 5.4800284947e-01	 2.4353746094e+00
 1.5370099925e+00	 4.1162130749e-01	 2.9574542334e+00
 1.5331991503e+00	 4.2559625674e-01	 3.0518893554e+00
 1.5292516321e+00	 4.3956936201e-01	 3.1235929307e+00
 1.5251669885e+00	 4.5353874002e-01	 3.1686982429e+00
 1.5209448024e+00	 4.6750249064e-01	 3.1833160589e+00
 1.5165846900e+00	 4.8145869758e-01	 3.1635379079e+00
 1.5120863013e+00	 4.9540542902e-01	 3.1054396327e+00
 1.5074493201e+00	 5.0934073833e-01	 3.0050852152e+00
 1.5026734654e+00	 5.2326266478e-01	 2.8585308774e+00
 1.4977584911e+00	 5.3716923427e-01	 2.6618294605e+00
 1.4927041868e+00	 5.5105846007e-01	 2.4110350817e+00
 1.5455326890e+00	 4.1390374125e-01	 2.5353777389e+00
 1.5417007158e+00	 4.2795618137e-01	 2.6254122220e+00
 1.5377313087e+00	 4.4200676730e-01	 2.7112290460e+00
 1.5336240157e+00	 4.5605360529e-01	 2.7855794647e+00
 1.5293784177e+00	 4.7009478469e-01	 2.8411518396e+00
 1.5249941286e+00	 4.8412837858e-01	 2.8705789664e+00
 1.5204707963e+00	 4.9815244443e-01	 2.8664457974e+00
 1.5158081032e+00	 5.1216502481e-01	 2.8212975559e+00
 1.5110057664e+00	 5.2616414813e-01	 2.7276482405e+00
 1.5060635386e+00	 5.4014782933e-01	 2.5779895161e+00
 1.5009812083e+00	 5.5411407067e-01	 2.3647999883e+00
 1.5540553856e+00	 4.1618617500e-01	 1.9849683125e+00
 1.5502022813e+00	 4.3031610601e-01	 2.0725338072e+00
 1.5462109852e+00	 4.4444417258e-01	 2.1780003155e+00
 1.5420810430e+00	 4.5856847056e-01	 2.2901292959e+00
 1.5378120330e+00	 4.7268707874e-01	 2.3975697544e+00
 1.5334035671e+00	 4.8679805958e-01	 2.4888703480e+00
 1.5288552914e+00	 5.0089945984e-01	 2.5524920297e+00
 1.5241668863e+00	 5.1498931130e-01	 2.5768212284e+00
 1.5193380675e+00	 5.2906563148e-01	 2.5501835566e+00
 1.5143685862e+00	 5.4312642439e-01	 2.4608580359e+00
 1.5092582298e+00	 5.5716968127e-01	 2.2970918331e+00
 1.5625780821e+00	 4.1846860876e-01	 1.3013099395e+00
 1.5587038468e+00	 4.3267603064e-01	 1.3890088379e+00
 1.5546906618e+00	 4.4688157787e-01	 1.5202739554e+00
 1.5505380703e+00	 4.6108333583e-01	 1.6792794235e+00
 1.5462456483e+00	 4.7527937279e-01	 1.8500282881e+00
 1.5418130057e+00	 4.8946774058e-01	 2.0163701096e+00
 1.5372397864e+00	 5.0364647525e-01	 2.1620192772e+00
 1.5325256694e+00	 5.1781359778e-01	 2.2705740246e+00
 1.5276703685e+00	 5.3196711483e-01	 2.3255361329e+00
 1.5226736338e+00	 5.4610501945e-01	 2.3103313076e+00
 1.5175352514e+00	 5.6022529188e-01	 2.2083302116e+00
 1.4347650360e+00	 5.2966918584e-01	 2.2443722455e+00
 1.4297719645e+00	 5.4300297606e-01	 2.0415789872e+00
 1.4246446250e+00	 5.5631623520e-01	 1.8559827119e+00
 1.4193829200e+00	 5.6960702012e-01	 1.6901617761e+00
 1.4139867881e+00	 5.8287337855e-01	 1.5468193625e+00
 1.4084562042e+00	 5.9611334994e-01	 1.4287886252e+00
 1.4027911802e+00	 6.0932496624e-01	 1.3390387508e+00
 1.3969917650e+00	 6.2250625276e-01	 1.2806819350e+00
 1.3910580450e+00	 6.3565522902e-01	 1.2569812687e+00
 1.3849901442e+00	 6.4876990960e-01	 1.2713595154e+00
 1.3787882249e+00	 6.6184830499e-01	 1.3274087567e+00
 1.4430420576e+00	 5.3272479644e-01	 2.3128317913e+00
 1.4380201815e+00	 5.4613550802e-01	 2.0786700588e+00
 1.4328632628e+00	 5.5952557007e-01	 1.8679542213e+00
 1.4275712036e+00	 5.7289302825e-01	 1.6825057924e+00
 1.4221439419e+00	 5.8623591903e-01	 1.5242924288e+00
 1.4165814526e+00	 5.9955227053e-01	 1.3954345550e+00
 1.4108837477e+00	 6.1284010338e-01	 1.2982129434e+00
 1.4050508762e+00	 6.2609743148e-01	 1.2350772484e+00
 1.3990829251e+00	 6.3932226292e-01	 1.2086554854e+00
 1.3929800192e+00	 6.5251260082e-01	 1.2217644345e+00
 1.3867423216e+00	 6.6566644422e-01	 1.2774209425e+00
 1.4513190791e+00	 5.3578040705e-01	 2.3661578657e+00
 1.4462683985e+00	 5.4926803997e-01	 2.1065894304e+00
 1.4410819007e+00	 5.6273490494e-01	 1.8749412646e+00
 1.4357594872e+00	 5.7617903638e-01	 1.6726473457e+00
 1.4303010957e+00	 5.8959845950e-01	 1.5013039264e+00
 1.4247067010e+00	 6.0299119113e-01	 1.3626770748e+00
 1.4189763151e+00	 6.1635524052e-01	 1.2587112127e+00
 1.4131099874e+00	 6.2968861020e-01	 1.1915386469e+00
 1.4071078052e+00	 6.4298929682e-01	 1.1634900847e+00
 1.4009698942e+00	 6.5625529205e-01	 1.1771061122e+00
 1.3946964183e+00	 6.6948458346e-01	 1.2351496037e+00
 1.4595961006e+00	 5.3883601765e-01	 2.4047535193e+00
 1.4545166154e+00	 5.5240057193e-01	 2.1262853586e+00
 1.4493005385e+00	 5.6594423981e-01	 1.8783136195e+00
 1.4439477707e+00	 5.7946504451e-01	 1.6622475840e+00
 1.4384582495e+00	 5.9296099998e-01	 1.4796697974e+00
 1.4328319495e+00	 6.0643011173e-01	 1.3323439674e+00
 1.4270688825e+00	 6.1987037766e-01	 1.2222239034e+00
 1.4211690985e+00	 6.3327978891e-01	 1.1514634925e+00
 1.4151326853e+00	 6.4665633071e-01	 1.1224277002e+00
 1.4089597691e+00	 6.5999798328e-01	 1.1377045757e+00
 1.4026505149e+00	 6.7330272269e-01	 1.2001182283e+00
 1.4678731222e+00	 5.4189162826e-01	 2.4290053526e+00
 1.4627648324e+00	 5.5553310389e-01	 2.1386779545e+00
 1.4575191764e+00	 5.6915357468e-01	 1.8794040990e+00
 1.4521360543e+00	 5.8275105264e-01	 1.6529248906e+00
 1.4466154033e+00	 5.9632354046e-01	 1.4611605813e+00
 1.4409571979e+00	 6.0986903233e-01	 1.3062182768e+00
 1.4351614500e+00	 6.2338551481e-01	 1.1904007272e+00
 1.4292282097e+00	 6.3687096763e-01	 1.1162161984e+00
 1.4231575654e+00	 6.5032336461e-01	 1.0863894138e+00
 1.4169496441e+00	 6.6374067451e-01	 1.1038735451e+00
 1.4106046116e+00	 6.7712086192e-01	 1.1718632192e+00
 1.4761501437e+00	 5.4494723886e-01	 2.4392843574e+00
 1.4710130494e+00	 5.5866563585e-01	 2.1446604082e+00
 1.4657378143e+00	 5.7236290955e-01	 1.8795100802e+00
 1.4603243379e+00	 5.8603706077e-01	 1.6462566350e+00
 1.4547725572e+00	 5.9968608093e-01	 1.4475033006e+00
 1.4490824463e+00	 6.1330795293e-01	 1.2860402393e+00
 1.4432540174e+00	 6.2690065195e-01	 1.1648526439e+00
 1.4372873208e+00	 6.4046214635e-01	 1.0871299620e+00
 1.4311824455e+00	 6.5399039851e-01	 1.0562762393e+00
 1.4249395191e+00	 6.6748336574e-01	 1.0759215600e+00
 1.4185587083e+00	 6.8093900116e-01	 1.1499345539e+00
 1.4844271652e+00	 5.4800284947e-01	 2.4353746094e+00
 1.4792612664e+00	 5.6179816781e-01	 2.1451001915e+00
 1.4739564521e+00	 5.7557224442e-01	 1.8798950018e+00
 1.4685126215e+00	 5.8932306890e-01	 1.6437808853e+00
 1.4629297110e+00	 6.0304862141e-01	 1.4403833058e+00
 1.4572076947e+00	 6.1674687353e-01	 1.2735091728e+00
 1.4513465848e+00	 6.3041578909e-01	 1.1471537040e+00
 1.4453464320e+00	 6.4405332506e-01	 1.0655084655e+00
 1.4392073256e+00	 6.5765743241e-01	 1.0329705813e+00
 1.4329293940e+00	 6.7122605697e-01	 1.0541530949e+00
 1.4265128050e+00	 6.8475714039e-01	 1.1338964508e+00
 1.4927041868e+00	 5.5105846007e-01	 2.4110350817e+00
 1.4875094834e+00	 5.6493069976e-01	 2.1384154296e+00
 1.4821750900e+00	 5.7878157929e-01	 1.8817579101e+00
 1.4767009051e+00	 5.9260907703e-01	 1.6469980847e+00
 1.4710868648e+00	 6.0641116189e-01	 1.4414460802e+00
 1.4653329431e+00	 6.2018579413e-01	 1.2702853257e+00
 1.4594391523e+00	 6.3393092623e-01	 1.1388428538e+00
 1.4534055432e+00	 6.4764450378e-01	 1.0526275444e+00
 1.4472322057e+00	 6.6132446630e-01	 1.0173376726e+00
 1.4409192690e+00	 6.7496874819e-01	 1.0388696658e+00
 1.4344669017e+00	 6.8857527963e-01	 1.1233280407e+00
 1.5009812083e+00	 5.5411407067e-01	 2.3647999883e+00
 1.4957577004e+00	 5.6806323172e-01	 2.1191447814e+00
 1.4903937278e+00	 5.8199091416e-01	 1.8810731975e+00
 1.4848891887e+00	 5.9589508516e-01	 1.6565936910e+00
 1.4792440186e+00	 6.0977370236e-01	 1.4522990065e+00
 1.4734581915e+00	 6.2362471472e-01	 1.2779916873e+00
 1.4675317197e+00	 6.3744606338e-01	 1.1414257036e+00
 1.4614646543e+00	 6.5123568250e-01	 1.0497368261e+00
 1.4552570858e+00	 6.6499150020e-01	 1.0102269896e+00
 1.4489091440e+00	 6.7871143942e-01	 1.0303709267e+00
 1.4424209984e+00	 6.9239341886e-01	 1.1178240458e+00
 1.5092582298e+00	 5.5716968127e-01	 2.2970918331e+00
 1.5040059173e+00	 5.7119576368e-01	 2.0878776884e+00
 1.4986123657e+00	 5.8520024903e-01	 1.8753107626e+00
 1.4930774723e+00	 5.9918109329e-01	 1.6673475194e+00
 1.4874011724e+00	 6.1313624284e-01	 1.4721762497e+00
 1.4815834399e+00	 6.2706363532e-01	 1.2982151430e+00
 1.4756242871e+00	 6.4096120052e-01	 1.1563762624e+00
 1.4695237655e+00	 6.5482686121e-01	 1.0580613389e+00
 1.4632819659e+00	 6.6865853409e-01	 1.0124736468e+00
 1.4568990189e+00	 6.8245413065e-01	 1.0289557567e+00
 1.4503750951e+00	 6.9621155809e-01	 1.1169954637e+00
 1.5175352514e+00	 5.6022529188e-01	 2.2083302116e+00
 1.5122541343e+00	 5.7432829563e-01	 2.0455225606e+00
 1.5068310035e+00	 5.8840958390e-01	 1.8657613611e+00
 1.5012657558e+00	 6.0246710142e-01	 1.6792699216e+00
 1.4955583263e+00	 6.1649878331e-01	 1.4964847632e+00
 1.4897086883e+00	 6.3050255592e-01	 1.3280502993e+00
 1.4837168546e+00	 6.4447633766e-01	 1.1848133967e+00
 1.4775828767e+00	 6.5841803993e-01	 1.0788030929e+00
 1.4713068460e+00	 6.7232556799e-01	 1.0248997718e+00
 1.4648888939e+00	 6.8619682187e-01	 1.0349233392e+00
 1.4583291918e+00	 7.0002969732e-01	 1.1204702570e+00
 1.3787882249e+00	 6.6184830499e-01	 1.3274087567e+00
 1.3724535755e+00	 6.7488620921e-01	 1.4106355126e+00
 1.3659853912e+00	 6.8788385397e-01	 1.5006960211e+00
 1.3593839483e+00	 7.0083924323e-01	 1.5925723830e+00
 1.3526495623e+00	 7.1375038049e-01	 1.6813597264e+00
 1.3457825872e+00	 7.2661526967e-01	 1.7622880443e+00
 1.3387834164e+00	 7.3943191608e-01	 1.8307447934e+00
 1.3316524825e+00	 7.5219832734e-01	 1.8807442844e+00
 1.3243902571e+00	 7.6491251433e-01	 1.9060272551e+00
 1.3169972515e+00	 7.7757249215e-01	 1.9028151378e+00
 1.3094740159e+00	 7.9017628106e-01	 1.8673826863e+00
 1.3867423216e+00	 6.6566644422e-01	 1.2774209425e+00
 1.3803711282e+00	 6.7877956286e-01	 1.3597855269e+00
 1.3738656295e+00	 6.9185218978e-01	 1.4479254553e+00
 1.3672261036e+00	 7.0488231744e-01	 1.5373729193e+00
 1.3604528675e+00	 7.1786793780e-01	 1.6237268258e+00
 1.3535462775e+00	 7.3080704329e-01	 1.7026740952e+00
 1.3465067292e+00	 7.4369762770e-01	 1.7699077239e+00
 1.3393346576e+00	 7.5653768716e-01	 1.8188738866e+00
 1.3320305372e+00	 7.6932522108e-01	 1.8449174101e+00
 1.3245948820e+00	 7.8205823309e-01	 1.8445605349e+00
 1.3170282456e+00	 7.9473473205e-01	 1.8143064038e+00
 1.3946964183e+00	 6.6948458346e-01	 1.2351496037e+00
 1.3882886809e+00	 6.8267291651e-01	 1.3200565898e+00
 1.3817458679e+00	 6.9582052559e-01	 1.4095905937e+00
 1.3750682589e+00	 7.0892539164e-01	 1.4996487780e+00
 1.3682561728e+00	 7.2198549512e-01	 1.5861576652e+00
 1.3613099679e+00	 7.3499881692e-01	 1.6650942527e+00
 1.3542300420e+00	 7.4796333933e-01	 1.7319247506e+00
 1.3470168327e+00	 7.6087704699e-01	 1.7802524111e+00
 1.3396708172e+00	 7.7373792783e-01	 1.8064360182e+00
 1.3321925125e+00	 7.8654397404e-01	 1.8071552941e+00
 1.3245824753e+00	 7.9929318304e-01	 1.7790292982e+00
 1.4026505149e+00	 6.7330272269e-01	 1.2001182283e+00
 1.3962062336e+00	 6.8656627016e-01	 1.2901673879e+00
 1.3896261063e+00	 6.9978886140e-01	 1.3837684933e+00
 1.3829104142e+00	 7.1296846585e-01	 1.4770015769e+00
 1.3760594780e+00	 7.2610305243e-01	 1.5659475181e+00
 1.3690736582e+00	 7.3919059054e-01	 1.6467093291e+00
 1.3619533548e+00	 7.5222905095e-01	 1.7140374532e+00
 1.3546990078e+00	 7.6521640681e-01	 1.7623637164e+00
 1.3473110973e+00	 7.7815063457e-01	 1.7884688784e+00
 1.3397901430e+00	 7.9102971498e-01	 1.7890691868e+00
 1.3321367050e+00	 8.0385163402e-01	 1.7607895368e+00
 1.4106046116e+00	 6.7712086192e-01	 1.1718632192e+00
 1.4041237863e+00	 6.9045962381e-01	 1.2688689795e+00
 1.3975063447e+00	 7.0375719722e-01	 1.3685844012e+00
 1.3907525695e+00	 7.1701154006e-01	 1.4670932283e+00
 1.3838627833e+00	 7.3022060975e-01	 1.5604602702e+00
 1.3768373485e+00	 7.4338236417e-01	 1.6446767613e+00
 1.3696766676e+00	 7.5649476258e-01	 1.7135783816e+00
 1.3623811830e+00	 7.6955576664e-01	 1.7627575025e+00
 1.3549513773e+00	 7.8256334132e-01	 1.7889583048e+00
 1.3473877735e+00	 7.9551545592e-01	 1.7888150659e+00
 1.3396909347e+00	 8.0841008501e-01	 1.7588507759e+00
 1.4185587083e+00	 6.8093900116e-01	 1.1499345539e+00
 1.4120413390e+00	 6.9435297746e-01	 1.2549449819e+00
 1.4053865830e+00	 7.0772553303e-01	 1.3622115726e+00
 1.3985947248e+00	 7.2105461427e-01	 1.4676454933e+00
 1.3916660885e+00	 7.3433816707e-01	 1.5671278173e+00
 1.3846010389e+00	 7.4757413779e-01	 1.6560511485e+00
 1.3773999804e+00	 7.6076047421e-01	 1.7279489766e+00
 1.3700633581e+00	 7.7389512646e-01	 1.7790472098e+00
 1.3625916574e+00	 7.8697604807e-01	 1.8059012613e+00
 1.3549854040e+00	 8.0000119686e-01	 1.8049473510e+00
 1.3472451643e+00	 8.1296853600e-01	 1.7725011134e+00
 1.4265128050e+00	 6.8475714039e-01	 1.1338964508e+00
 1.4199588917e+00	 6.9824633111e-01	 1.2472117826e+00
 1.4132668214e+00	 7.1169386884e-01	 1.3628711263e+00
 1.4064368800e+00	 7.2509768847e-01	 1.4764395835e+00
 1.3994693938e+00	 7.3845572439e-01	 1.5834495166e+00
 1.3923647292e+00	 7.5176591142e-01	 1.6782331858e+00
 1.3851232932e+00	 7.6502618583e-01	 1.7546174031e+00
 1.3777455332e+00	 7.7823448629e-01	 1.8089079695e+00
 1.3702319374e+00	 7.9138875482e-01	 1.8373475386e+00
 1.3625830345e+00	 8.0448693781e-01	 1.8360605437e+00
 1.3547993940e+00	 8.1752698699e-01	 1.8010520563e+00
 1.4344669017e+00	 6.8857527963e-01	 1.1233280407e+00
 1.4278764444e+00	 7.0213968476e-01	 1.2445187725e+00
 1.4211470598e+00	 7.1566220466e-01	 1.3688319366e+00
 1.4142790353e+00	 7.2914076268e-01	 1.4913158085e+00
 1.4072726991e+00	 7.4257328170e-01	 1.6069561109e+00
 1.4001284195e+00	 7.5595768504e-01	 1.7087151547e+00
 1.3928466060e+00	 7.6929189746e-01	 1.7911164370e+00
 1.3854277083e+00	 7.8257384612e-01	 1.8500746025e+00
 1.3778722174e+00	 7.9580146157e-01	 1.8813979724e+00
 1.3701806650e+00	 8.0897267875e-01	 1.8807877726e+00
 1.3623536237e+00	 8.2208543798e-01	 1.8438375011e+00
 1.4424209984e+00	 6.9239341886e-01	 1.1178240458e+00
 1.4357939971e+00	 7.0603303841e-01	 1.2457486017e+00
 1.4290272981e+00	 7.1963054047e-01	 1.3784105578e+00
 1.4221211906e+00	 7.3318383689e-01	 1.5101732657e+00
 1.4150760043e+00	 7.4669083902e-01	 1.6350341199e+00
 1.4078921099e+00	 7.6014945867e-01	 1.7450531283e+00
 1.4005699188e+00	 7.7355760909e-01	 1.8350414035e+00
 1.3931098834e+00	 7.8691320594e-01	 1.9003396664e+00
 1.3855124975e+00	 8.0021416831e-01	 1.9362027005e+00
 1.3777782955e+00	 8.1345841969e-01	 1.9377993660e+00
 1.3699078534e+00	 8.2664388897e-01	 1.9002127282e+00
 1.4503750951e+00	 6.9621155809e-01	 1.1169954637e+00
 1.4437115498e+00	 7.0992639206e-01	 1.2498174551e+00
 1.4369075365e+00	 7.2359887628e-01	 1.3899711837e+00
 1.4299633459e+00	 7.3722691109e-01	 1.5309695738e+00
 1.4228793096e+00	 7.5080839633e-01	 1.6653616757e+00
 1.4156558002e+00	 7.6434123229e-01	 1.7848649525e+00
 1.4082932316e+00	 7.7782332071e-01	 1.8840481651e+00
 1.4007920586e+00	 7.9125256577e-01	 1.9575515469e+00
 1.3931527775e+00	 8.0462687506e-01	 1.9999594591e+00
 1.3853759260e+00	 8.1794416063e-01	 2.0058014525e+00
 1.3774620831e+00	 8.3120233995e-01	 1.9695534083e+00
 1.4583291918e+00	 7.0002969732e-01	 1.1204702570e+00
 1.4516291026e+00	 7.1381974571e-01	 1.2556753496e+00
 1.4447877749e+00	 7.2756721209e-01	 1.4019256370e+00
 1.4378055012e+00	 7.4126998530e-01	 1.5517173660e+00
 1.4306826148e+00	 7.5492595365e-01	 1.6957283975e+00
 1.4234194906e+00	 7.6853300592e-01	 1.8258282764e+00
 1.4160165444e+00	 7.8208903234e-01	 1.9358511572e+00
 1.4084742337e+00	 7.9559192559e-01	 2.0196125941e+00
 1.4007930576e+00	 8.0903958181e-01	 2.0709119143e+00
 1.3929735565e+00	 8.2242990157e-01	 2.0835345866e+00
 1.3850163128e+00	 8.3576079094e-01	 2.0512546223e+00
 1.3094740159e+00	 7.9017628106e-01	 1.8673826863e+00
 1.3018211405e+00	 8.0272190770e-01	 1.8056917662e+00
 1.2940392556e+00	 8.1520740681e-01	 1.7303136455e+00
 1.2861290314e+00	 8.2763082149e-01	 1.6473660540e+00
 1.2780911770e+00	 8.3999020390e-01	 1.5628277216e+00
 1.2699264403e+00	 8.5228361624e-01	 1.4825265222e+00
 1.2616356082e+00	 8.6450913168e-01	 1.4121279114e+00
 1.2532195063e+00	 8.7666483536e-01	 1.3571237059e+00
 1.2446789982e+00	 8.8874882534e-01	 1.3228212556e+00
 1.2360149861e+00	 9.0075921351e-01	 1.3143330547e+00
 1.2272284097e+00	 9.1269412663e-01	 1.3365668388e+00
 1.3170282456e+00	 7.9473473205e-01	 1.8143064038e+00
 1.3093312214e+00	 8.0735273320e-01	 1.7590575426e+00
 1.3015044437e+00	 8.1991025995e-01	 1.6902242681e+00
 1.2935485861e+00	 8.3240534412e-01	 1.6139675797e+00
 1.2854643621e+00	 8.4483602662e-01	 1.5363190185e+00
 1.2772525238e+00	 8.5720035847e-01	 1.4631685014e+00
 1.2689138627e+00	 8.6949640173e-01	 1.4002524380e+00
 1.2604492091e+00	 8.8172223050e-01	 1.3531421792e+00
 1.2518594317e+00	 8.9387593185e-01	 1.3272328520e+00
 1.2431454377e+00	 9.0595560681e-01	 1.3277326261e+00
 1.2343081724e+00	 9.1795937128e-01	 1.3596524635e+00
 1.3245824753e+00	 7.9929318304e-01	 1.7790292982e+00
 1.3168413024e+00	 8.1198355870e-01	 1.7262738176e+00
 1.3089696317e+00	 8.2461311310e-01	 1.6596442387e+00
 1.3009681408e+00	 8.3717986675e-01	 1.5854376936e+00
 1.2928375472e+00	 8.4968184934e-01	 1.5098270013e+00
 1.2845786073e+00	 8.6211710070e-01	 1.4388480356e+00
 1.2761921173e+00	 8.7448367179e-01	 1.3783873682e+00
 1.2676789119e+00	 8.8677962564e-01	 1.3341702428e+00
 1.2590398651e+00	 8.9900303837e-01	 1.3117489307e+00
 1.2502758893e+00	 9.1115200010e-01	 1.3164915209e+00
 1.2413879351e+00	 9.2322461594e-01	 1.3535711948e+00
 1.3321367050e+00	 8.0385163402e-01	 1.7607895368e+00
 1.3243513834e+00	 8.1661438420e-01	 1.7074040609e+00
 1.3164348197e+00	 8.2931596624e-01	 1.6393892820e+00
 1.3083876956e+00	 8.4195438938e-01	 1.5632700051e+00
 1.3002107323e+00	 8.5452767206e-01	 1.4854475213e+00
 1.2919046909e+00	 8.6703384293e-01	 1.4121863525e+00
 1.2834703718e+00	 8.7947094184e-01	 1.3496012723e+00
 1.2749086148e+00	 8.9183702078e-01	 1.3036446581e+00
 1.2662202986e+00	 9.0413014489e-01	 1.2800942305e+00
 1.2574063409e+00	 9.1634839339e-01	 1.2845412336e+00
 1.2484676978e+00	 9.2848986060e-01	 1.3223791090e+00
 1.3396909347e+00	 8.0841008501e-01	 1.7588507759e+00
 1.3318614644e+00	 8.2124520970e-01	 1.7025183595e+00
 1.3239000078e+00	 8.3401881939e-01	 1.6302645233e+00
 1.3158072503e+00	 8.4672891201e-01	 1.5489319953e+00
 1.3075839174e+00	 8.5937349478e-01	 1.4652364917e+00
 1.2992307744e+00	 8.7195058517e-01	 1.3857526832e+00
 1.2907486263e+00	 8.8445821190e-01	 1.3169004438e+00
 1.2821383176e+00	 8.9689441593e-01	 1.2649314375e+00
 1.2734007321e+00	 9.0925725141e-01	 1.2359161033e+00
 1.2645367925e+00	 9.2154478668e-01	 1.2357310935e+00
 1.2555474605e+00	 9.3375510526e-01	 1.2700472221e+00
 1.3472451643e+00	 8.1296853600e-01	 1.7725011134e+00
 1.3393715454e+00	 8.2587603520e-01	 1.7116928744e+00
 1.3313651958e+00	 8.3872167253e-01	 1.6330644030e+00
 1.3232268050e+00	 8.5150343464e-01	 1.5438653430e+00
 1.3149571025e+00	 8.6421931750e-01	 1.4512105781e+00
 1.3065568579e+00	 8.7686732740e-01	 1.3620652674e+00
 1.2980268808e+00	 8.8944548196e-01	 1.2832301720e+00
 1.2893680204e+00	 9.0195181107e-01	 1.2213273342e+00
 1.2805811655e+00	 9.1438435792e-01	 1.1827861702e+00
 1.2716672441e+00	 9.2674117998e-01	 1.1738300357e+00
 1.2626272232e+00	 9.3902034992e-01	 1.2004633240e+00
 1.3547993940e+00	 8.1752698699e-01	 1.8010520563e+00
 1.3468816263e+00	 8.3050686071e-01	 1.7350092943e+00
 1.3388303838e+00	 8.4342452568e-01	 1.6485725731e+00
 1.3306463597e+00	 8.5627795727e-01	 1.5494862181e+00
 1.3223302876e+00	 8.6906514022e-01	 1.4453478433e+00
 1.3138829414e+00	 8.8178406963e-01	 1.3435923030e+00
 1.3053051353e+00	 8.9443275201e-01	 1.2514759487e+00
 1.2965977232e+00	 9.0700920621e-01	 1.1760612577e+00
 1.2877615990e+00	 9.1951146444e-01	 1.1242018974e+00
 1.2787976957e+00	 9.3193757327e-01	 1.1025282883e+00
 1.2697069859e+00	 9.4428559458e-01	 1.1174337282e+00
 1.3623536237e+00	 8.2208543798e-01	 1.8438375011e+00
 1.3543917073e+00	 8.3513768621e-01	 1.7725542862e+00
 1.3462955719e+00	 8.4812737883e-01	 1.6775617746e+00
 1.3380659144e+00	 8.6105247990e-01	 1.5671855427e+00
 1.3297034727e+00	 8.7391096294e-01	 1.4495883476e+00
 1.3212090249e+00	 8.8670081187e-01	 1.3327528411e+00
 1.3125833898e+00	 8.9942002207e-01	 1.2244646112e+00
 1.3038274261e+00	 9.1206660135e-01	 1.1322956185e+00
 1.2949420324e+00	 9.2463857096e-01	 1.0635880959e+00
 1.2859281473e+00	 9.3713396656e-01	 1.0254389798e+00
 1.2767867486e+00	 9.4955083923e-01	 1.0246849363e+00
 1.3699078534e+00	 8.2664388897e-01	 1.9002127282e+00
 1.3619017883e+00	 8.3976851171e-01	 1.8244189438e+00
 1.3537607599e+00	 8.5283023197e-01	 1.7207936985e+00
 1.3454854691e+00	 8.6582700253e-01	 1.5983292230e+00
 1.3370766578e+00	 8.7875678566e-01	 1.4658347074e+00
 1.3285351085e+00	 8.9161755410e-01	 1.3319176277e+00
 1.3198616443e+00	 9.0440729213e-01	 1.2049654243e+00
 1.3110571289e+00	 9.1712399650e-01	 1.0931276053e+00
 1.3021224659e+00	 9.2976567748e-01	 1.0042983479e+00
 1.2930585989e+00	 9.4233035985e-01	 9.4609966737e-01
 1.2838665113e+00	 9.5481608389e-01	 9.2586522450e-01
 1.3774620831e+00	 8.3120233995e-01	 1.9695534083e+00
 1.3694118693e+00	 8.4439933721e-01	 1.8906982329e+00
 1.3612259479e+00	 8.5753308512e-01	 1.7790188297e+00
 1.3529050238e+00	 8.7060152516e-01	 1.6442583498e+00
 1.3444498429e+00	 8.8360260837e-01	 1.4959526131e+00
 1.3358611920e+00	 8.9653429633e-01	 1.3434098963e+00
 1.3271398988e+00	 9.0939456218e-01	 1.1956911033e+00
 1.3182868317e+00	 9.2218139164e-01	 1.0615903958e+00
 1.3093028993e+00	 9.3489278400e-01	 9.4961636117e-01
 1.3001890505e+00	 9.4752675315e-01	 8.6797379192e-01
 1.2909462740e+00	 9.6008132855e-01	 8.2454615183e-01
 1.3850163128e+00	 8.3576079094e-01	 2.0512546223e+00
 1.3769219503e+00	 8.4903016271e-01	 1.9714904338e+00
 1.3686911360e+00	 8.6223593826e-01	 1.8529762744e+00
 1.3603245785e+00	 8.7537604779e-01	 1.7062893725e+00
 1.3518230280e+00	 8.8844843109e-01	 1.5417713078e+00
 1.3431872755e+00	 9.0145103856e-01	 1.3695061110e+00
 1.3344181533e+00	 9.1438183224e-01	 1.1992987813e+00
 1.3255165345e+00	 9.2723878678e-01	 1.0406543052e+00
 1.3164833328e+00	 9.4001989051e-01	 9.0275725674e-01
 1.3073195021e+00	 9.5272314644e-01	 7.9445206074e-01
 1.2980260367e+00	 9.6534657321e-01	 7.2422399540e-01
 1.2272284097e+00	 9.1269412663e-01	 1.3365668388e+00
 1.2183187227e+00	 9.2455371526e-01	 1.3650214055e+00
 1.2092884280e+00	 9.3633409648e-01	 1.3712665445e+00
 1.2001385827e+00	 9.4803343938e-01	 1.3540383428e+00
 1.1908702807e+00	 9.5964993156e-01	 1.3118866259e+00
 1.1814846520e+00	 9.7118178004e-01	 1.2431741329e+00
 1.1719828623e+00	 9.8262721220e-01	 1.1460763752e+00
 1.1623661127e+00	 9.9398447665e-01	 1.0185821960e+00
 1.1526356390e+00	 1.0052518441e+00	 8.5849504921e-01
 1.1427927111e+00	 1.0164276082e+00	 6.6343501034e-01
 1.1328386328e+00	 1.0275100866e+00	 4.3084152770e-01
 1.2343081724e+00	 9.1795937128e-01	 1.3596524635e+00
 1.2253470863e+00	 9.2988737674e-01	 1.3990212585e+00
 1.2162646966e+00	 9.4173571785e-01	 1.4172998616e+00
 1.2070620668e+00	 9.5350255314e-01	 1.4124471110e+00
 1.1977402968e+00	 9.6518605974e-01	 1.3823266915e+00
 1.1883005233e+00	 9.7678443434e-01	 1.3247076241e+00
 1.1787439188e+00	 9.8829589410e-01	 1.2372653294e+00
 1.1690716911e+00	 9.9971867752e-01	 1.1175832841e+00
 1.1592850831e+00	 1.0110510453e+00	 9.6315528304e-01
 1.1493853723e+00	 1.0222912814e+00	 7.7138832129e-01
 1.1393738700e+00	 1.0334376935e+00	 5.3960610245e-01
 1.2413879351e+00	 9.2322461594e-01	 1.3535711948e+00
 1.2323754499e+00	 9.3522103822e-01	 1.4002175234e+00
 1.2232409653e+00	 9.4713733922e-01	 1.4284690589e+00
 1.2139855508e+00	 9.5897166689e-01	 1.4355739641e+00
 1.2046103130e+00	 9.7072218792e-01	 1.4187625534e+00
 1.1951163947e+00	 9.8238708865e-01	 1.3752489531e+00
 1.1855049752e+00	 9.9396457601e-01	 1.3022332469e+00
 1.1757772694e+00	 1.0054528784e+00	 1.1969041231e+00
 1.1659345273e+00	 1.0168502466e+00	 1.0564420369e+00
 1.1559780336e+00	 1.0281549545e+00	 8.7802289845e-01
 1.1459091071e+00	 1.0393653004e+00	 6.5882229337e-01
 1.2484676978e+00	 9.2848986060e-01	 1.3223791090e+00
 1.2394038134e+00	 9.4055469971e-01	 1.3726433257e+00
 1.2302172340e+00	 9.5253896060e-01	 1.4085710353e+00
 1.2209090349e+00	 9.6444078065e-01	 1.4267649704e+00
 1.2114803291e+00	 9.7625831610e-01	 1.4238736705e+00
 1.2019322660e+00	 9.8798974295e-01	 1.3965941724e+00
 1.1922660317e+00	 9.9963325791e-01	 1.3416751147e+00
 1.1824828477e+00	 1.0111870793e+00	 1.2559202723e+00
 1.1725839715e+00	 1.0226494478e+00	 1.1361925346e+00
 1.1625706949e+00	 1.0340186276e+00	 9.7941833577e-01
 1.1524443443e+00	 1.0452929072e+00	 7.8259254464e-01
 1.2555474605e+00	 9.3375510526e-01	 1.2700472221e+00
 1.2464321770e+00	 9.4588836119e-01	 1.3202471946e+00
 1.2371935026e+00	 9.5794058197e-01	 1.3613234033e+00
 1.2278325190e+00	 9.6990989440e-01	 1.3892970976e+00
 1.2183503452e+00	 9.8179444428e-01	 1.4002854924e+00
 1.2087481374e+00	 9.9359239726e-01	 1.3905053463e+00
 1.1990270881e+00	 1.0053019398e+00	 1.3562769033e+00
 1.1891884261e+00	 1.0169212801e+00	 1.2940282129e+00
 1.1792334156e+00	 1.0284486490e+00	 1.2002998406e+00
 1.1691633561e+00	 1.0398823008e+00	 1.0717499777e+00
 1.1589795814e+00	 1.0512205141e+00	 9.0515995599e-01
 1.2626272232e+00	 9.3902034992e-01	 1.2004633240e+00
 1.2534605406e+00	 9.5122202268e-01	 1.2468948696e+00
 1.2441697713e+00	 9.6334220334e-01	 1.2903661307e+00
 1.2347560031e+00	 9.7537900816e-01	 1.3263795562e+00
 1.2252203614e+00	 9.8733057246e-01	 1.3505703676e+00
 1.2155640087e+00	 9.9919505157e-01	 1.3587108862e+00
 1.2057881445e+00	 1.0109706217e+00	 1.3467151920e+00
 1.1958940044e+00	 1.0226554810e+00	 1.3106441265e+00
 1.1858828598e+00	 1.0342478502e+00	 1.2467106543e+00
 1.1757560174e+00	 1.0457459739e+00	 1.1512855891e+00
 1.1655148185e+00	 1.0571481210e+00	 1.0209036907e+00
 1.2697069859e+00	 9.4428559458e-01	 1.1174337282e+00
 1.2604889041e+00	 9.5655568416e-01	 1.1563710195e+00
 1.2511460399e+00	 9.6874382471e-01	 1.1992631022e+00
 1.2416794872e+00	 9.8084812191e-01	 1.2411550710e+00
 1.2320903775e+00	 9.9286670064e-01	 1.2772483935e+00
 1.2223798801e+00	 1.0047977059e+00	 1.3029058484e+00
 1.2125492010e+00	 1.0166393036e+00	 1.3136567807e+00
 1.2025995827e+00	 1.0283896819e+00	 1.3052026880e+00
 1.1925323040e+00	 1.0400470515e+00	 1.2734231499e+00
 1.1823486786e+00	 1.0516096471e+00	 1.2143821094e+00
 1.1720500557e+00	 1.0630757279e+00	 1.1243345097e+00
 1.2767867486e+00	 9.4955083923e-01	 1.0246849363e+00
 1.2675172677e+00	 9.6188934565e-01	 1.0523808810e+00
 1.2581223086e+00	 9.7414544608e-01	 1.0915036034e+00
 1.2486029713e+00	 9.8631723567e-01	 1.1367010848e+00
 1.2389603937e+00	 9.9840282883e-01	 1.1827882132e+00
 1.2291957514e+00	 1.0104003602e+00	 1.2247521950e+00
 1.2193102574e+00	 1.0223079855e+00	 1.2577582880e+00
 1.2093051611e+00	 1.0341238827e+00	 1.2771558708e+00
 1.1991817481e+00	 1.0458462527e+00	 1.2784848605e+00
 1.1889413399e+00	 1.0574733202e+00	 1.2574824867e+00
 1.1785852928e+00	 1.0690033348e+00	 1.2100904261e+00
 1.2838665113e+00	 9.5481608389e-01	 9.2586522450e-01
 1.2745456313e+00	 9.6722300713e-01	 9.3855181587e-01
 1.2650985773e+00	 9.7954706745e-01	 9.7050372935e-01
 1.2555264553e+00	 9.9178634942e-01	 1.0160308964e+00
 1.2458304098e+00	 1.0039389570e+00	 1.0696077592e+00
 1.2360116228e+00	 1.0160030145e+00	 1.1258790202e+00
 1.2260713138e+00	 1.0279766674e+00	 1.1796657350e+00
 1.2160107394e+00	 1.0398580836e+00	 1.2259717659e+00
 1.2058311923e+00	 1.0516454539e+00	 1.2599906069e+00
 1.1955340012e+00	 1.0633369933e+00	 1.2771125901e+00
 1.1851205300e+00	 1.0749309417e+00	 1.2729324772e+00
 1.2909462740e+00	 9.6008132855e-01	 8.2454615183e-01
 1.2815739948e+00	 9.7255666862e-01	 8.1843479369e-01
 1.2720748459e+00	 9.8494868882e-01	 8.3960772299e-01
 1.2624499394e+00	 9.9725546318e-01	 8.8209473558e-01
 1.2527004259e+00	 1.0094750852e+00	 9.4007494678e-01
 1.2428274941e+00	 1.0216056688e+00	 1.0078827429e+00
 1.2328323703e+00	 1.0336453493e+00	 1.0800141178e+00
 1.2227163177e+00	 1.0455922845e+00	 1.1511334119e+00
 1.2124806365e+00	 1.0574446552e+00	 1.2160804654e+00
 1.2021266624e+00	 1.0692006665e+00	 1.2698781964e+00
 1.1916557671e+00	 1.0808585486e+00	 1.3077406075e+00
 1.2980260367e+00	 9.6534657321e-01	 7.2422399540e-01
 1.2886023584e+00	 9.7789033010e-01	 6.9550580003e-01
 1.2790511146e+00	 9.9035031019e-01	 7.0208924316e-01
 1.2693734235e+00	 1.0027245769e+00	 7.3778077747e-01
 1.2595704421e+00	 1.0150112134e+00	 7.9650831899e-01
 1.2496433655e+00	 1.0272083231e+00	 8.7232726668e-01
 1.2395934267e+00	 1.0393140312e+00	 9.5942696652e-01
 1.2294218961e+00	 1.0513264853e+00	 1.0521376381e+00
 1.2191300806e+00	 1.0632438564e+00	 1.1449377778e+00
 1.2087193237e+00	 1.0750643396e+00	 1.2324620481e+00
 1.1981910043e+00	 1.0867861555e+00	 1.3095096596e+00
 1.1328386328e+00	 1.0275100866e+00	 4.3084152770e-01
 1.1227764581e+00	 1.0384957648e+00	 2.1656370314e-01
 1.1126058582e+00	 1.0493849180e+00	 7.6267195739e-02
 1.1023282158e+00	 1.0601759590e+00	 8.2953571289e-03
 1.0919449451e+00	 1.0708673273e+00	 1.1941909830e-02
 1.0814574907e+00	 1.0814574907e+00	 8.4717573708e-02
 1.0708673273e+00	 1.0919449451e+00	 2.2425927406e-01
 1.0601759590e+00	 1.1023282158e+00	 4.2838628931e-01
 1.0493849180e+00	 1.1126058582e+00	 6.9515887856e-01
 1.0384957648e+00	 1.1227764581e+00	 1.0251515083e+00
 1.0275100866e+00	 1.1328386328e+00	 1.4187672787e+00
 1.1393738700e+00	 1.0334376935e+00	 5.3960610245e-01
 1.1292536475e+00	 1.0444867470e+00	 3.2426355280e-01
 1.1190243744e+00	 1.0554387187e+00	 1.8222773538e-01
 1.1086874413e+00	 1.0662920121e+00	 1.1142813497e-01
 1.0982442704e+00	 1.0770450580e+00	 1.1170821529e-01
 1.0876963150e+00	 1.0876963150e+00	 1.8161723455e-01
 1.0770450580e+00	 1.0982442704e+00	 3.1867822962e-01
 1.0662920121e+00	 1.1086874413e+00	 5.2034296491e-01
 1.0554387187e+00	 1.1190243744e+00	 7.8505440381e-01
 1.0444867470e+00	 1.1292536475e+00	 1.1129950789e+00
 1.0334376935e+00	 1.1393738700e+00	 1.5024027829e+00
 1.1459091071e+00	 1.0393653004e+00	 6.5882229337e-01
 1.1357308370e+00	 1.0504777292e+00	 4.5335486119e-01
 1.1254428906e+00	 1.0614925194e+00	 3.1700213664e-01
 1.1150466667e+00	 1.0724080653e+00	 2.4803949673e-01
 1.1045435958e+00	 1.0832227886e+00	 2.4495571052e-01
 1.0939351392e+00	 1.0939351392e+00	 3.0771871504e-01
 1.0832227886e+00	 1.1045435958e+00	 4.3389269115e-01
 1.0724080653e+00	 1.1150466667e+00	 6.2077379367e-01
 1.0614925194e+00	 1.1254428906e+00	 8.6787510064e-01
 1.0504777292e+00	 1.1357308370e+00	 1.1731938467e+00
 1.0393653004e+00	 1.1459091071e+00	 1.5339263931e+00
 1.1524443443e+00	 1.0452929072e+00	 7.8259254464e-01
 1.1422080264e+00	 1.0564687114e+00	 5.9623302579e-01
 1.1318614068e+00	 1.0675463201e+00	 4.7204047725e-01
 1.1214058922e+00	 1.0785241184e+00	 4.0850302951e-01
 1.1108429212e+00	 1.0894005193e+00	 4.0351817747e-01
 1.1001739635e+00	 1.1001739635e+00	 4.5621269676e-01
 1.0894005193e+00	 1.1108429212e+00	 5.6522068581e-01
 1.0785241184e+00	 1.1214058922e+00	 7.2879218635e-01
 1.0675463201e+00	 1.1318614068e+00	 9.4549242314e-01
 1.0564687114e+00	 1.1422080264e+00	 1.2120547597e+00
 1.0452929072e+00	 1.1524443443e+00	 1.5248537897e+00
 1.1589795814e+00	 1.0512205141e+00	 9.0515995599e-01
 1.1486852158e+00	 1.0624596936e+00	 7.4547295700e-01
 1.1382799230e+00	 1.0736001208e+00	 6.3899406892e-01
 1.1277651177e+00	 1.0846401716e+00	 5.8420736454e-01
 1.1171422466e+00	 1.0955782499e+00	 5.7889247866e-01
 1.1064127878e+00	 1.1064127878e+00	 6.2046746813e-01
 1.0955782499e+00	 1.1171422466e+00	 7.0860593041e-01
 1.0846401716e+00	 1.1277651177e+00	 8.4273998901e-01
 1.0736001208e+00	 1.1382799230e+00	 1.0197380458e+00
 1.0624596936e+00	 1.1486852158e+00	 1.2357446252e+00
 1.0512205141e+00	 1.1589795814e+00	 1.4864427360e+00
 1.1655148185e+00	 1.0571481210e+00	 1.0209036907e+00
 1.1551624052e+00	 1.0684506758e+00	 8.9382339532e-01
 1.1446984392e+00	 1.0796539214e+00	 8.0970916580e-01
 1.1341243432e+00	 1.0907562248e+00	 7.6682756810e-01
 1.1234415720e+00	 1.1017559805e+00	 7.6267591568e-01
 1.1126516121e+00	 1.1126516121e+00	 7.9401751775e-01
 1.1017559805e+00	 1.1234415720e+00	 8.6017712172e-01
 1.0907562248e+00	 1.1341243432e+00	 9.6091153849e-01
 1.0796539214e+00	 1.1446984392e+00	 1.0924044766e+00
 1.0684506758e+00	 1.1551624052e+00	 1.2502935251e+00
 1.0571481210e+00	 1.1655148185e+00	 1.4296997844e+00
 1.1720500557e+00	 1.0630757279e+00	 1.1243345097e+00
 1.1616395947e+00	 1.0744416580e+00	 1.0342013909e+00
 1.1511169554e+00	 1.0857077221e+00	 9.7622085552e-01
 1.1404835687e+00	 1.0968722779e+00	 9.4823180040e-01
 1.1297408974e+00	 1.1079337112e+00	 9.4728646208e-01
 1.1188904363e+00	 1.1188904363e+00	 9.7036897897e-01
 1.1079337112e+00	 1.1297408974e+00	 1.0155724234e+00
 1.0968722779e+00	 1.1404835687e+00	 1.0816409649e+00
 1.0857077221e+00	 1.1511169554e+00	 1.1652456329e+00
 1.0744416580e+00	 1.1616395947e+00	 1.2615980996e+00
 1.0630757279e+00	 1.1720500557e+00	 1.3653867407e+00
 1.1785852928e+00	 1.0690033348e+00	 1.2100904261e+00
 1.1681167841e+00	 1.0804326402e+00	 1.1596869388e+00
 1.1575354716e+00	 1.0917615228e+00	 1.1307471257e+00
 1.1468427941e+00	 1.1029883311e+00	 1.1204752657e+00
 1.1360402228e+00	 1.1141114418e+00	 1.1254094401e+00
 1.1251292606e+00	 1.1251292606e+00	 1.1432169452e+00
 1.1141114418e+00	 1.1360402228e+00	 1.1703791118e+00
 1.1029883311e+00	 1.1468427941e+00	 1.2033005710e+00
 1.0917615228e+00	 1.1575354716e+00	 1.2399773807e+00
 1.0804326402e+00	 1.1681167841e+00	 1.2754247041e+00
 1.0690033348e+00	 1.1785852928e+00	 1.3040268967e+00
 1.1851205300e+00	 1.0749309417e+00	 1.2729324772e+00
 1.1745939735e+00	 1.0864236224e+00	 1.2635177651e+00
 1.1639539878e+00	 1.0978153235e+00	 1.2656830992e+00
 1.1532020196e+00	 1.1091043843e+00	 1.2757943347e+00
 1.1423395482e+00	 1.1202891725e+00	 1.2903510145e+00
 1.1313680849e+00	 1.1313680849e+00	 1.3064432628e+00
 1.1202891725e+00	 1.1423395482e+00	 1.3194633389e+00
 1.1091043843e+00	 1.1532020196e+00	 1.3242992493e+00
 1.0978153235e+00	 1.1639539878e+00	 1.3182780401e+00
 1.0864236224e+00	 1.1745939735e+00	 1.2974124453e+00
 1.0749309417e+00	 1.1851205300e+00	 1.2559110388e+00
 1.1916557671e+00	 1.0808585486e+00	 1.3077406075e+00
 1.1810711629e+00	 1.0924146047e+00	 1.3390842559e+00
 1.1703725041e+00	 1.1038691242e+00	 1.3735954314e+00
 1.1595612451e+00	 1.1152204374e+00	 1.4067352968e+00
 1.1486388736e+00	 1.1264669031e+00	 1.4350411064e+00
 1.1376069092e+00	 1.1376069092e+00	 1.4540464800e+00
 1.1264669031e+00	 1.1486388736e+00	 1.4585092705e+00
 1.1152204374e+00	 1.1595612451e+00	 1.4427776943e+00
 1.1038691242e+00	 1.1703725041e+00	 1.4017888564e+00
 1.0924146047e+00	 1.1810711629e+00	 1.3330761004e+00
 1.0808585486e+00	 1.1916557671e+00	 1.2311032422e+00
 1.1981910043e+00	 1.0867861555e+00	 1.3095096596e+00
 1.1875483523e+00	 1.0984055869e+00	 1.3799245261e+00
 1.1767910203e+00	 1.1099229249e+00	 1.4472168640e+00
 1.1659204706e+00	 1.1213364906e+00	 1.5062541694e+00
 1.1549381990e+00	 1.1326446337e+00	 1.5524440537e+00
 1.1438457334e+00	 1.1438457334e+00	 1.5801389136e+00
 1.1326446337e+00	 1.1549381990e+00	 1.5834370424e+00
 1.1213364906e+00	 1.1659204706e+00	 1.5562043616e+00
 1.1099229249e+00	 1.1767910203e+00	 1.4921144404e+00
 1.0984055869e+00	 1.1875483523e+00	 1.3878089237e+00
 1.0867861555e+00	 1.1981910043e+00	 1.2394464593e+00
 1.0275100866e+00	 1.1328386328e+00	 1.4187672787e+00
 1.0164276082e+00	 1.1427927111e+00	 1.7994820210e+00
 1.0052518441e+00	 1.1526356390e+00	 2.0898190072e+00
 9.9398447665e-01	 1.1623661127e+00	 2.2881416764e+00
 9.8262721220e-01	 1.1719828623e+00	 2.3930216140e+00
 9.7118178004e-01	 1.1814846520e+00	 2.4032316271e+00
 9.5964993156e-01	 1.1908702807e+00	 2.3177387984e+00
 9.4803343938e-01	 1.2001385827e+00	 2.1356975733e+00
 9.3633409648e-01	 1.2092884280e+00	 1.8564429264e+00
 9.2455371526e-01	 1.2183187227e+00	 1.4794836546e+00
 9.1269412663e-01	 1.2272284097e+00	 1.0044958387e+00
 1.0334376935e+00	 1.1393738700e+00	 1.5024027829e+00
 1.0222912814e+00	 1.1493853723e+00	 1.8776467250e+00
 1.0110510453e+00	 1.1592850831e+00	 2.1622910030e+00
 9.9971867752e-01	 1.1690716911e+00	 2.3539744302e+00
 9.8829589410e-01	 1.1787439188e+00	 2.4509836423e+00
 9.7678443434e-01	 1.1883005233e+00	 2.4522448569e+00
 9.6518605974e-01	 1.1977402968e+00	 2.3573150110e+00
 9.5350255314e-01	 1.2070620668e+00	 2.1663723377e+00
 9.4173571785e-01	 1.2162646966e+00	 1.8802064366e+00
 9.2988737674e-01	 1.2253470863e+00	 1.5002078919e+00
 9.1795937128e-01	 1.2343081724e+00	 1.0283574926e+00
 1.0393653004e+00	 1.1459091071e+00	 1.5339263931e+00
 1.0281549545e+00	 1.1559780336e+00	 1.8802406397e+00
 1.0168502466e+00	 1.1659345273e+00	 2.1418479563e+00
 1.0054528784e+00	 1.1757772694e+00	 2.3160484034e+00
 9.9396457601e-01	 1.1855049752e+00	 2.4011341757e+00
 9.8238708865e-01	 1.1951163947e+00	 2.3963799162e+00
 9.7072218792e-01	 1.2046103130e+00	 2.3020319439e+00
 9.5897166689e-01	 1.2139855508e+00	 2.1192964583e+00
 9.4713733922e-01	 1.2232409653e+00	 1.8503267850e+00
 9.3522103822e-01	 1.2323754499e+00	 1.4982097237e+00
 9.2322461594e-01	 1.2413879351e+00	 1.0669510603e+00
 1.0452929072e+00	 1.1524443443e+00	 1.5248537897e+00
 1.0340186276e+00	 1.1625706949e+00	 1.8236543372e+00
 1.0226494478e+00	 1.1725839715e+00	 2.0483094754e+00
 1.0111870793e+00	 1.1824828477e+00	 2.1961616773e+00
 9.9963325791e-01	 1.1922660317e+00	 2.2657955924e+00
 9.8798974295e-01	 1.2019322660e+00	 2.2570267892e+00
 9.7625831610e-01	 1.2114803291e+00	 2.1708890749e+00
 9.6444078065e-01	 1.2209090349e+00	 2.0096204668e+00
 9.5253896060e-01	 1.2302172340e+00	 1.7766478810e+00
 9.4055469971e-01	 1.2394038134e+00	 1.4765706100e+00
 9.2848986060e-01	 1.2484676978e+00	 1.1151426548e+00
 1.0512205141e+00	 1.1589795814e+00	 1.4864427360e+00
 1.0398823008e+00	 1.1691633561e+00	 1.7239102526e+00
 1.0284486490e+00	 1.1792334156e+00	 1.9010494520e+00
 1.0169212801e+00	 1.1891884261e+00	 2.0156217845e+00
 1.0053019398e+00	 1.1990270881e+00	 2.0667877227e+00
 9.9359239726e-01	 1.2087481374e+00	 2.0550938014e+00
 9.8179444428e-01	 1.2183503452e+00	 1.9824580359e+00
 9.6990989440e-01	 1.2278325190e+00	 1.8521537935e+00
 9.5794058197e-01	 1.2371935026e+00	 1.6687921921e+00
 9.4588836119e-01	 1.2464321770e+00	 1.4383031014e+00
 9.3375510526e-01	 1.2555474605e+00	 1.1679148209e+00
 1.0571481210e+00	 1.1655148185e+00	 1.4296997844e+00
 1.0457459739e+00	 1.1757560174e+00	 1.5966724705e+00
 1.0342478502e+00	 1.1858828598e+00	 1.7190080137e+00
 1.0226554810e+00	 1.1958940044e+00	 1.7952589127e+00
 1.0109706217e+00	 1.2057881445e+00	 1.8254413819e+00
 9.9919505157e-01	 1.2155640087e+00	 1.8110205630e+00
 9.8733057246e-01	 1.2252203614e+00	 1.7548940440e+00
 9.7537900816e-01	 1.2347560031e+00	 1.6613737640e+00
 9.6334220334e-01	 1.2441697713e+00	 1.5361663839e+00
 9.5122202268e-01	 1.2534605406e+00	 1.3863522043e+00
 9.3902034992e-01	 1.2626272232e+00	 1.2203627061e+00
 1.0630757279e+00	 1.1720500557e+00	 1.3653867407e+00
 1.0516096471e+00	 1.1823486786e+00	 1.4572561665e+00
 1.0400470515e+00	 1.1925323040e+00	 1.5207030605e+00
 1.0283896819e+00	 1.2025995827e+00	 1.5554386474e+00
 1.0166393036e+00	 1.2125492010e+00	 1.5626114330e+00
 1.0047977059e+00	 1.2223798801e+00	 1.5447904607e+00
 9.9286670064e-01	 1.2320903775e+00	 1.5059469320e+00
 9.8084812191e-01	 1.2416794872e+00	 1.4514342764e+00
 9.6874382471e-01	 1.2511460399e+00	 1.3879667555e+00
 9.5655568416e-01	 1.2604889041e+00	 1.3235966826e+00
 9.4428559458e-01	 1.2697069859e+00	 1.2676903414e+00
 1.0690033348e+00	 1.1785852928e+00	 1.3040268967e+00
 1.0574733202e+00	 1.1889413399e+00	 1.3206367181e+00
 1.0458462527e+00	 1.1991817481e+00	 1.3242413987e+00
 1.0341238827e+00	 1.2093051611e+00	 1.3160742739e+00
 1.0223079855e+00	 1.2193102574e+00	 1.2986893977e+00
 1.0104003602e+00	 1.2291957514e+00	 1.2759427165e+00
 9.9840282883e-01	 1.2389603937e+00	 1.2529717935e+00
 9.8631723567e-01	 1.2486029713e+00	 1.2361741732e+00
 9.7414544608e-01	 1.2581223086e+00	 1.2331844747e+00
 9.6188934565e-01	 1.2675172677e+00	 1.2528502977e+00
 9.4955083923e-01	 1.2767867486e+00	 1.3052070283e+00
 1.0749309417e+00	 1.1851205300e+00	 1.2559110388e+00
 1.0633369933e+00	 1.1955340012e+00	 1.2014584958e+00
 1.0516454539e+00	 1.2058311923e+00	 1.1473294902e+00
 1.0398580836e+00	 1.2160107394e+00	 1.0966386553e+00
 1.0279766674e+00	 1.2260713138e+00	 1.0536156316e+00
 1.0160030145e+00	 1.2360116228e+00	 1.0235840298e+00
 1.0039389570e+00	 1.2458304098e+00	 1.0129392596e+00
 9.9178634942e-01	 1.2555264553e+00	 1.0291253177e+00
 9.7954706745e-01	 1.2650985773e+00	 1.0806106232e+00
 9.6722300713e-01	 1.2745456313e+00	 1.1768629911e+00
 9.5481608389e-01	 1.2838665113e+00	 1.3283238280e+00
 1.0808585486e+00	 1.1916557671e+00	 1.2311032422e+00
 1.0692006665e+00	 1.2021266624e+00	 1.1140433488e+00
 1.0574446552e+00	 1.2124806365e+00	 1.0072838297e+00
 1.0455922845e+00	 1.2227163177e+00	 9.1617570151e-01
 1.0336453493e+00	 1.2328323703e+00	 8.4689108257e-01
 1.0216056688e+00	 1.2428274941e+00	 8.0639981913e-01
 1.0094750852e+00	 1.2527004259e+00	 8.0244541897e-01
 9.9725546318e-01	 1.2624499394e+00	 8.4352038740e-01
 9.8494868882e-01	 1.2720748459e+00	 9.3884105826e-01
 9.7255666862e-01	 1.2815739948e+00	 1.0983220093e+00
 9.6008132855e-01	 1.2909462740e+00	 1.3325501484e+00
 1.0867861555e+00	 1.1981910043e+00	 1.2394464593e+00
 1.0750643396e+00	 1.2087193237e+00	 1.0723987956e+00
 1.0632438564e+00	 1.2191300806e+00	 9.2104096675e-01
 1.0513264853e+00	 1.2294218961e+00	 7.9331144637e-01
 1.0393140312e+00	 1.2395934267e+00	 6.9758864614e-01
 1.0272083231e+00	 1.2496433655e+00	 6.4266507891e-01
 1.0150112134e+00	 1.2595704421e+00	 6.3772139584e-01
 1.0027245769e+00	 1.2693734235e+00	 6.9230039529e-01
 9.9035031019e-01	 1.2790511146e+00	 8.1628109766e-01
 9.7789033010e-01	 1.2886023584e+00	 1.0198529757e+00
 9.6534657321e-01	 1.2980260367e+00	 1.3134904257e+00
 9.1269412663e-01	 1.2272284097e+00	 1.0044958387e+00
 9.0075921351e-01	 1.2360149861e+00	 5.2262786876e-01
 8.8874882534e-01	 1.2446789982e+00	 1.2732552520e-01
 8.7666483536e-01	 1.2532195063e+00	-1.7811539383e-01
 8.6450913168e-01	 1.2616356082e+00	-3.9069432837e-01
 8.5228361624e-01	 1.2699264403e+00	-5.0771546217e-01
 8.3999020390e-01	 1.2780911770e+00	-5.2679626781e-01
 8.2763082149e-01	 1.2861290314e+00	-4.4587507263e-01
 8.1520740681e-01	 1.2940392556e+00	-2.6321763135e-01
 8.0272190770e-01	 1.3018211405e+00	 2.2577303304e-02
 7.9017628106e-01	 1.3094740159e+00	 4.1257341575e-01
 9.1795937128e-01	 1.2343081724e+00	 1.0283574926e+00
 9.0595560681e-01	 1.2431454377e+00	 5.5209389287e-01
 8.9387593185e-01	 1.2518594317e+00	 1.6047146066e-01
 8.8172223050e-01	 1.2604492091e+00	-1.4198117044e-01
 8.6949640173e-01	 1.2689138627e+00	-3.5150946507e-01
 8.5720035847e-01	 1.2772525238e+00	-4.6514032321e-01
 8.4483602662e-01	 1.2854643621e+00	-4.8068777894e-01
 8.3240534412e-01	 1.2935485861e+00	-3.9675705163e-01
 8.1991025995e-01	 1.3015044437e+00	-2.1274694647e-01
 8.0735273320e-01	 1.3093312214e+00	 7.1149391839e-02
 7.9473473205e-01	 1.3170282456e+00	 4.5394536265e-01
 9.2322461594e-01	 1.2413879351e+00	 1.0669510603e+00
 9.1115200010e-01	 1.2502758893e+00	 6.3379215470e-01
 8.9900303837e-01	 1.2590398651e+00	 2.7678328402e-01
 8.8677962564e-01	 1.2676789119e+00	 1.2085000447e-03
 8.7448367179e-01	 1.2761921173e+00	-1.8879333099e-01
 8.6211710070e-01	 1.2845786073e+00	-2.9023393625e-01
 8.4968184934e-01	 1.2928375472e+00	-3.0127887477e-01
 8.3717986675e-01	 1.3009681408e+00	-2.2124860519e-01
 8.2461311310e-01	 1.3089696317e+00	-5.0617388773e-02
 8.1198355870e-01	 1.3168413024e+00	 2.0898995859e-01
 7.9929318304e-01	 1.3245824753e+00	 5.5480344444e-01
 9.2848986060e-01	 1.2484676978e+00	 1.1151426548e+00
 9.1634839339e-01	 1.2574063409e+00	 7.5446849159e-01
 9.0413014489e-01	 1.2662202986e+00	 4.5652760685e-01
 8.9183702078e-01	 1.2749086148e+00	 2.2688642467e-01
 8.7947094184e-01	 1.2834703718e+00	 6.9701618881e-02
 8.6703384293e-01	 1.2919046909e+00	-1.2283601199e-02
 8.5452767206e-01	 1.3002107323e+00	-1.7740650236e-02
 8.4195438938e-01	 1.3083876956e+00	 5.3245823681e-02
 8.2931596624e-01	 1.3164348197e+00	 1.9918186647e-01
 8.1661438420e-01	 1.3243513834e+00	 4.1717066090e-01
 8.0385163402e-01	 1.3321367050e+00	 7.0292145537e-01
 9.3375510526e-01	 1.2555474605e+00	 1.1679148209e+00
 9.2154478668e-01	 1.2645367925e+00	 9.0116840765e-01
 9.0925725141e-01	 1.2734007321e+00	 6.8041696619e-01
 8.9689441593e-01	 1.2821383176e+00	 5.1104051956e-01
 8.8445821190e-01	 1.2907486263e+00	 3.9685007623e-01
 8.7195058517e-01	 1.2992307744e+00	 3.4008537721e-01
 8.5937349478e-01	 1.3075839174e+00	 3.4141543907e-01
 8.4672891201e-01	 1.3158072503e+00	 3.9994188357e-01
 8.3401881939e-01	 1.3239000078e+00	 5.1320503566e-01
 8.2124520970e-01	 1.3318614644e+00	 6.7719276296e-01
 8.0841008501e-01	 1.3396909347e+00	 8.8635202101e-01
 9.3902034992e-01	 1.2626272232e+00	 1.2203627061e+00
 9.2674117998e-01	 1.2716672441e+00	 1.0612281104e+00
 9.1438435792e-01	 1.2805811655e+00	 9.2959676515e-01
 9.0195181107e-01	 1.2893680204e+00	 8.3019769526e-01
 8.8944548196e-01	 1.2980268808e+00	 7.6613575220e-01
 8.7686732740e-01	 1.3065568579e+00	 7.3889059360e-01
 8.6421931750e-01	 1.3149571025e+00	 7.4831855680e-01
 8.5150343464e-01	 1.3232268050e+00	 7.9265741415e-01
 8.3872167253e-01	 1.3313651958e+00	 8.6853398885e-01
 8.2587603520e-01	 1.3393715454e+00	 9.7097460108e-01
 8.1296853600e-01	 1.3472451643e+00	 1.0934183050e+00
 9.4428559458e-01	 1.2697069859e+00	 1.2676903414e+00
 9.3193757327e-01	 1.2787976957e+00	 1.2222658296e+00
 9.1951146444e-01	 1.2877615990e+00	 1.1856326328e+00
 9.0700920621e-01	 1.2965977232e+00	 1.1614082637e+00
 8.9443275201e-01	 1.3053051353e+00	 1.1516338392e+00
 8.8178406963e-01	 1.3138829414e+00	 1.1567740677e+00
 8.6906514022e-01	 1.3223302876e+00	 1.1757200849e+00
 8.5627795727e-01	 1.3306463597e+00	 1.2057951275e+00
 8.4342452568e-01	 1.3388303838e+00	 1.2427630213e+00
 8.3050686071e-01	 1.3468816263e+00	 1.2808394516e+00
 8.1752698699e-01	 1.3547993940e+00	 1.3127059766e+00
 9.4955083923e-01	 1.2767867486e+00	 1.3052070283e+00
 9.3713396656e-01	 1.2859281473e+00	 1.3721734071e+00
 9.2463857096e-01	 1.2949420324e+00	 1.4304981871e+00
 9.1206660135e-01	 1.3038274261e+00	 1.4822308463e+00
 8.9942002207e-01	 1.3125833898e+00	 1.5279940390e+00
 8.8670081187e-01	 1.3212090249e+00	 1.5669843674e+00
 8.7391096294e-01	 1.3297034727e+00	 1.5969758175e+00
 8.6105247990e-01	 1.3380659144e+00	 1.6143258488e+00
 8.4812737883e-01	 1.3462955719e+00	 1.6139841150e+00
 8.3513768621e-01	 1.3543917073e+00	 1.5895037857e+00
 8.2208543798e-01	 1.3623536237e+00	 1.5330554295e+00
 9.5481608389e-01	 1.2838665113e+00	 1.3283238280e+00
 9.4233035985e-01	 1.2930585989e+00	 1.4991081479e+00
 9.2976567748e-01	 1.3021224659e+00	 1.6465631852e+00
 9.1712399650e-01	 1.3110571289e+00	 1.7707177644e+00
 9.0440729213e-01	 1.3198616443e+00	 1.8704241348e+00
 8.9161755410e-01	 1.3285351085e+00	 1.9433593063e+00
 8.7875678566e-01	 1.3370766578e+00	 1.9860287275e+00
 8.6582700253e-01	 1.3454854691e+00	 1.9937722943e+00
 8.5283023197e-01	 1.3537607599e+00	 1.9607726709e+00
 8.3976851171e-01	 1.3619017883e+00	 1.8800658968e+00
 8.2664388897e-01	 1.3699078534e+00	 1.7435542414e+00
 9.6008132855e-01	 1.2909462740e+00	 1.3325501484e+00
 9.4752675315e-01	 1.3001890505e+00	 1.5914849215e+00
 9.3489278400e-01	 1.3093028993e+00	 1.8165820462e+00
 9.2218139164e-01	 1.3182868317e+00	 2.0054008929e+00
 9.0939456218e-01	 1.3271398988e+00	 2.1546740868e+00
 8.9653429633e-01	 1.3358611920e+00	 2.2603091935e+00
 8.8360260837e-01	 1.3444498429e+00	 2.3173922829e+00
 8.7060152516e-01	 1.3529050238e+00	 2.3201933669e+00
 8.5753308512e-01	 1.3612259479e+00	 2.2621736946e+00
 8.4439933721e-01	 1.3694118693e+00	 2.1359948849e+00
 8.3120233995e-01	 1.3774620831e+00	 1.9335298655e+00
 9.6534657321e-01	 1.2980260367e+00	 1.3134904257e+00
 9.5272314644e-01	 1.3073195021e+00	 1.6379685044e+00
 9.4001989051e-01	 1.3164833328e+00	 1.9236827327e+00
 9.2723878678e-01	 1.3255165345e+00	 2.1652779596e+00
 9.1438183224e-01	 1.3344181533e+00	 2.3570206317e+00
 9.0145103856e-01	 1.3431872755e+00	 2.4928006142e+00
 8.8844843109e-01	 1.3518230280e+00	 2.5661342920e+00
 8.7537604779e-01	 1.3603245785e+00	 2.5701689484e+00
 8.6223593826e-01	 1.3686911360e+00	 2.4976884166e+00
 8.4903016271e-01	 1.3769219503e+00	 2.3411199861e+00
 8.3576079094e-01	 1.3850163128e+00	 2.0925425452e+00
 7.9017628106e-01	 1.3094740159e+00	 4.1257341575e-01
 7.7757249215e-01	 1.3169972515e+00	 8.2348543842e-01
 7.6491251433e-01	 1.3243902571e+00	 1.1710901118e+00
 7.5219832734e-01	 1.3316524825e+00	 1.4549270833e+00
 7.3943191608e-01	 1.3387834164e+00	 1.6746827732e+00
 7.2661526967e-01	 1.3457825872e+00	 1.8258118414e+00
 7.1375038049e-01	 1.3526495623e+00	 1.9048524640e+00
 7.0083924323e-01	 1.3593839483e+00	 1.9113904799e+00
 6.8788385397e-01	 1.3659853912e+00	 1.8451917301e+00
 6.7488620921e-01	 1.3724535755e+00	 1.7062097794e+00
 6.6184830499e-01	 1.3787882249e+00	 1.4945928097e+00
 7.9473473205e-01	 1.3170282456e+00	 4.5394536265e-01
 7.8205823309e-01	 1.3245948820e+00	 8.5665236479e-01
 7.6932522108e-01	 1.3320305372e+00	 1.1999004488e+00
 7.5653768716e-01	 1.3393346576e+00	 1.4818975904e+00
 7.4369762770e-01	 1.3465067292e+00	 1.7013297219e+00
 7.3080704329e-01	 1.3535462775e+00	 1.8551084351e+00
 7.1786793780e-01	 1.3604528675e+00	 1.9373320750e+00
 7.0488231744e-01	 1.3672261036e+00	 1.9472153906e+00
 6.9185218978e-01	 1.3738656295e+00	 1.8846417064e+00
 6.7877956286e-01	 1.3803711282e+00	 1.7499676588e+00
 6.6566644422e-01	 1.3867423216e+00	 1.5440265685e+00
 7.9929318304e-01	 1.3245824753e+00	 5.5480344444e-01
 7.8654397404e-01	 1.3321925125e+00	 9.1763911071e-01
 7.7373792783e-01	 1.3396708172e+00	 1.2285574018e+00
 7.6087704699e-01	 1.3470168327e+00	 1.4848316611e+00
 7.4796333933e-01	 1.3542300420e+00	 1.6844401531e+00
 7.3499881692e-01	 1.3613099679e+00	 1.8253141069e+00
 7.2198549512e-01	 1.3682561728e+00	 1.9008223279e+00
 7.0892539164e-01	 1.3750682589e+00	 1.9091609086e+00
 6.9582052559e-01	 1.3817458679e+00	 1.8503931761e+00
 6.8267291651e-01	 1.3882886809e+00	 1.7252760734e+00
 6.6948458346e-01	 1.3946964183e+00	 1.5352607285e+00
 8.0385163402e-01	 1.3321367050e+00	 7.0292145537e-01
 7.9102971498e-01	 1.3397901430e+00	 1.0012249857e+00
 7.7815063457e-01	 1.3473110973e+00	 1.2578121009e+00
 7.6521640681e-01	 1.3546990078e+00	 1.4694152517e+00
 7.5222905095e-01	 1.3619533548e+00	 1.6336317165e+00
 7.3919059054e-01	 1.3690736582e+00	 1.7488649411e+00
 7.2610305243e-01	 1.3760594780e+00	 1.8095687187e+00
 7.1296846585e-01	 1.3829104142e+00	 1.8122389719e+00
 6.9978886140e-01	 1.3896261063e+00	 1.7571821223e+00
 6.8656627016e-01	 1.3962062336e+00	 1.6455539818e+00
 6.7330272269e-01	 1.4026505149e+00	 1.4793582299e+00
 8.0841008501e-01	 1.3396909347e+00	 8.8635202101e-01
 7.9551545592e-01	 1.3473877735e+00	 1.1023105395e+00
 7.8256334132e-01	 1.3549513773e+00	 1.2884026651e+00
 7.6955576664e-01	 1.3623811830e+00	 1.4412104678e+00
 7.5649476258e-01	 1.3696766676e+00	 1.5582744503e+00
 7.4338236417e-01	 1.3768373485e+00	 1.6380866574e+00
 7.3022060975e-01	 1.3838627833e+00	 1.6775021401e+00
 7.1701154006e-01	 1.3907525695e+00	 1.6711298615e+00
 7.0375719722e-01	 1.3975063447e+00	 1.6194192956e+00
 6.9045962381e-01	 1.4041237863e+00	 1.5239249828e+00
 6.7712086192e-01	 1.4106046116e+00	 1.3871399253e+00
 8.1296853600e-01	 1.3472451643e+00	 1.0934183050e+00
 8.0000119686e-01	 1.3549854040e+00	 1.2159137020e+00
 7.8697604807e-01	 1.3625916574e+00	 1.3210541228e+00
 7.7389512646e-01	 1.3700633581e+00	 1.4056586101e+00
 7.6076047421e-01	 1.3773999804e+00	 1.4675326822e+00
 7.4757413779e-01	 1.3846010389e+00	 1.5054607916e+00
 7.3433816707e-01	 1.3916660885e+00	 1.5182477972e+00
 7.2105461427e-01	 1.3985947248e+00	 1.5001916051e+00
 7.0772553303e-01	 1.4053865830e+00	 1.4511994470e+00
 6.9435297746e-01	 1.4120413390e+00	 1.3732257179e+00
 6.8093900116e-01	 1.4185587083e+00	 1.2691914972e+00
 8.1752698699e-01	 1.3547993940e+00	 1.3127059766e+00
 8.0448693781e-01	 1.3625830345e+00	 1.3371660370e+00
 7.9138875482e-01	 1.3702319374e+00	 1.3564783191e+00
 7.7823448629e-01	 1.3777455332e+00	 1.3680831021e+00
 7.6502618583e-01	 1.3851232932e+00	 1.3703703436e+00
 7.5176591142e-01	 1.3923647292e+00	 1.3626717652e+00
 7.3845572439e-01	 1.3994693938e+00	 1.3451338250e+00
 7.2509768847e-01	 1.4064368800e+00	 1.3134690656e+00
 7.1169386884e-01	 1.4132668214e+00	 1.2663102504e+00
 6.9824633111e-01	 1.4199588917e+00	 1.2060139934e+00
 6.8475714039e-01	 1.4265128050e+00	 1.1358701421e+00
 8.2208543798e-01	 1.3623536237e+00	 1.5330554295e+00
 8.0897267875e-01	 1.3701806650e+00	 1.4613091038e+00
 7.9580146157e-01	 1.3778722174e+00	 1.3953738105e+00
 7.8257384612e-01	 1.3854277083e+00	 1.3336923054e+00
 7.6929189746e-01	 1.3928466060e+00	 1.2755560907e+00
 7.5595768504e-01	 1.4001284195e+00	 1.2210974039e+00
 7.4257328170e-01	 1.4072726991e+00	 1.1712807342e+00
 7.2914076268e-01	 1.4142790353e+00	 1.1247027273e+00
 7.1566220466e-01	 1.4211470598e+00	 1.0782409291e+00
 7.0213968476e-01	 1.4278764444e+00	 1.0345766317e+00
 6.8857527963e-01	 1.4344669017e+00	 9.9731103458e-01
 8.2664388897e-01	 1.3699078534e+00	 1.7435542414e+00
 8.1345841969e-01	 1.3777782955e+00	 1.5836909232e+00
 8.0021416831e-01	 1.3855124975e+00	 1.4384257472e+00
 7.8691320594e-01	 1.3931098834e+00	 1.3075822254e+00
 7.7355760909e-01	 1.4005699188e+00	 1.1916682410e+00
 7.6014945867e-01	 1.4078921099e+00	 1.0918682118e+00
 7.4669083902e-01	 1.4150760043e+00	 1.0100350266e+00
 7.3318383689e-01	 1.4221211906e+00	 9.4733719086e-01
 7.1963054047e-01	 1.4290272981e+00	 9.0019059691e-01
 7.0603303841e-01	 1.4357939971e+00	 8.7093706299e-01
 6.9239341886e-01	 1.4424209984e+00	 8.6343357614e-01
 8.3120233995e-01	 1.3774620831e+00	 1.9335298655e+00
 8.1794416063e-01	 1.3853759260e+00	 1.6997625434e+00
 8.0462687506e-01	 1.3931527775e+00	 1.4863057426e+00
 7.9125256577e-01	 1.4007920586e+00	 1.2947391132e+00
 7.7782332071e-01	 1.4082932316e+00	 1.1270995328e+00
 7.6434123229e-01	 1.4156558002e+00	 9.8587371294e-01
 7.5080839633e-01	 1.4228793096e+00	 8.7399090957e-01
 7.3722691109e-01	 1.4299633459e+00	 7.9452938953e-01
 7.2359887628e-01	 1.4369075365e+00	 7.4507632457e-01
 7.0992639206e-01	 1.4437115498e+00	 7.2686266780e-01
 6.9621155809e-01	 1.4503750951e+00	 7.4394743950e-01
 8.3576079094e-01	 1.3850163128e+00	 2.0925425452e+00
 8.2242990157e-01	 1.3929735565e+00	 1.8050747035e+00
 8.0903958181e-01	 1.4007930576e+00	 1.5396717328e+00
 7.9559192559e-01	 1.4084742337e+00	 1.3000419664e+00
 7.8208903234e-01	 1.4160165444e+00	 1.0900617126e+00
 7.6853300592e-01	 1.4234194906e+00	 9.1376857045e-01
 7.5492595365e-01	 1.4306826148e+00	 7.7535526334e-01
 7.4126998530e-01	 1.4378055012e+00	 6.7916397318e-01
 7.2756721209e-01	 1.4447877749e+00	 6.2554094195e-01
 7.1381974571e-01	 1.4516291026e+00	 6.1387187883e-01
 7.0002969732e-01	 1.4583291918e+00	 6.4835841499e-01
 6.6184830499e-01	 1.3787882249e+00	 1.4945928097e+00
 6.4876990960e-01	 1.3849901442e+00	 1.2629629909e+00
 6.3565522902e-01	 1.3910580450e+00	 1.0646443751e+00
 6.2250625276e-01	 1.3969917650e+00	 9.0078722165e-01
 6.0932496624e-01	 1.4027911802e+00	 7.7244708722e-01
 5.9611334994e-01	 1.4084562042e+00	 6.8058942606e-01
 5.8287337855e-01	 1.4139867881e+00	 6.2609372131e-01
 5.6960702012e-01	 1.4193829200e+00	 6.0975715124e-01
 5.5631623520e-01	 1.4246446250e+00	 6.3229779683e-01
 5.4300297606e-01	 1.4297719645e+00	 6.9435740042e-01
 5.2966918584e-01	 1.4347650360e+00	 7.9650368806e-01
 6.6566644422e-01	 1.3867423216e+00	 1.5440265685e+00
 6.5251260082e-01	 1.3929800192e+00	 1.3166575087e+00
 6.3932226292e-01	 1.3990829251e+00	 1.1184148580e+00
 6.2609743148e-01	 1.4050508762e+00	 9.5128867854e-01
 6.1284010338e-01	 1.4108837477e+00	 8.1707057646e-01
 5.9955227053e-01	 1.4165814526e+00	 7.1735890262e-01
 5.8623591903e-01	 1.4221439419e+00	 6.5356359632e-01
 5.7289302825e-01	 1.4275712036e+00	 6.2691067296e-01
 5.5952557007e-01	 1.4328632628e+00	 6.3844635943e-01
 5.4613550802e-01	 1.4380201815e+00	 6.8904088416e-01
 5.3272479644e-01	 1.4430420576e+00	 7.7939193153e-01
 6.6948458346e-01	 1.3946964183e+00	 1.5352607285e+00
 6.5625529205e-01	 1.4009698942e+00	 1.3245716019e+00
 6.4298929682e-01	 1.4071078052e+00	 1.1380684264e+00
 6.2968861020e-01	 1.4131099874e+00	 9.7834980681e-01
 6.1635524052e-01	 1.4189763151e+00	 8.4773574866e-01
 6.0299119113e-01	 1.4247067010e+00	 7.4827340119e-01
 5.8959845950e-01	 1.4303010957e+00	 6.8174252443e-01
 5.7617903638e-01	 1.4357594872e+00	 6.4966067823e-01
 5.6273490494e-01	 1.4410819007e+00	 6.5328813523e-01
 5.4926803997e-01	 1.4462683985e+00	 6.9363252264e-01
 5.3578040705e-01	 1.4513190791e+00	 7.7145320060e-01
 6.7330272269e-01	 1.4026505149e+00	 1.4793582299e+00
 6.5999798328e-01	 1.4089597691e+00	 1.2950691035e+00
 6.4665633071e-01	 1.4151326853e+00	 1.1296236170e+00
 6.3327978891e-01	 1.4211690985e+00	 9.8600011370e-01
 6.1987037766e-01	 1.4270688825e+00	 8.6684153711e-01
 6.0643011173e-01	 1.4328319495e+00	 7.7446165996e-01
 5.9296099998e-01	 1.4384582495e+00	 7.1085108650e-01
 5.7946504451e-01	 1.4439477707e+00	 6.7768302424e-01
 5.6594423981e-01	 1.4493005385e+00	 6.7631882613e-01
 5.5240057193e-01	 1.4545166154e+00	 7.0781330643e-01
 5.3883601765e-01	 1.4595961006e+00	 7.7291983686e-01
 6.7712086192e-01	 1.4106046116e+00	 1.3871399253e+00
 6.6374067451e-01	 1.4169496441e+00	 1.2363327355e+00
 6.5032336461e-01	 1.4231575654e+00	 1.0989708168e+00
 6.3687096763e-01	 1.4292282097e+00	 9.7818584721e-01
 6.2338551481e-01	 1.4351614500e+00	 8.7674038660e-01
 6.0986903233e-01	 1.4409571979e+00	 7.9703453660e-01
 5.9632354046e-01	 1.4466154033e+00	 7.4111239108e-01
 5.8275105264e-01	 1.4521360543e+00	 7.1066827368e-01
 5.6915357468e-01	 1.4575191764e+00	 7.0705276223e-01
 5.5553310389e-01	 1.4627648324e+00	 7.3127850307e-01
 5.4189162826e-01	 1.4678731222e+00	 7.8402582101e-01
 6.8093900116e-01	 1.4185587083e+00	 1.2691914972e+00
 6.6748336574e-01	 1.4249395191e+00	 1.1563693226e+00
 6.5399039851e-01	 1.4311824455e+00	 1.0518759976e+00
 6.4046214635e-01	 1.4372873208e+00	 9.5877247711e-01
 6.2690065195e-01	 1.4432540174e+00	 8.7973970782e-01
 6.1330795293e-01	 1.4490824463e+00	 8.1708566407e-01
 5.9968608093e-01	 1.4547725572e+00	 7.7275216097e-01
 5.8603706077e-01	 1.4603243379e+00	 7.4832144194e-01
 5.7236290955e-01	 1.4657378143e+00	 7.4502254031e-01
 5.5866563585e-01	 1.4710130494e+00	 7.6373741815e-01
 5.4494723886e-01	 1.4761501437e+00	 8.0500688822e-01
 6.8475714039e-01	 1.4265128050e+00	 1.1358701421e+00
 6.7122605697e-01	 1.4329293940e+00	 1.0630148315e+00
 6.5765743241e-01	 1.4392073256e+00	 9.9398432598e-01
 6.4405332506e-01	 1.4453464320e+00	 9.3154709348e-01
 6.3041578909e-01	 1.4513465848e+00	 8.7810328371e-01
 6.1674687353e-01	 1.4572076947e+00	 8.3569208530e-01
 6.0304862141e-01	 1.4629297110e+00	 8.0599881751e-01
 5.8932306890e-01	 1.4685126215e+00	 7.9036175343e-01
 5.7557224442e-01	 1.4739564521e+00	 7.8977867520e-01
 5.6179816781e-01	 1.4792612664e+00	 8.0491316527e-01
 5.4800284947e-01	 1.4844271652e+00	 8.3612037079e-01
 6.8857527963e-01	 1.4344669017e+00	 9.9731103458e-01
 6.7496874819e-01	 1.4409192690e+00	 9.6393924316e-01
 6.6132446630e-01	 1.4472322057e+00	 9.3082365340e-01
 6.4764450378e-01	 1.4534055432e+00	 9.0022072593e-01
 6.3393092623e-01	 1.4594391523e+00	 8.7405262959e-01
 6.2018579413e-01	 1.4653329431e+00	 8.5391486731e-01
 6.0641116189e-01	 1.4710868648e+00	 8.4108356289e-01
 5.9260907703e-01	 1.4767009051e+00	 8.3652240693e-01
 5.7878157929e-01	 1.4821750900e+00	 8.4088947073e-01
 5.6493069976e-01	 1.4875094834e+00	 8.5459036800e-01
 5.5105846007e-01	 1.4927041868e+00	 8.7782477934e-01
 6.9239341886e-01	 1.4424209984e+00	 8.6343357614e-01
 6.7871143942e-01	 1.4489091440e+00	 8.6665126380e-01
 6.6499150020e-01	 1.4552570858e+00	 8.6780789175e-01
 6.5123568250e-01	 1.4614646543e+00	 8.6843058657e-01
 6.3744606338e-01	 1.4675317197e+00	 8.6976830888e-01
 6.2362471472e-01	 1.4734581915e+00	 8.7279969574e-01
 6.0977370236e-01	 1.4792440186e+00	 8.7824046041e-01
 5.9589508516e-01	 1.4848891887e+00	 8.8654344542e-01
 5.8199091416e-01	 1.4903937278e+00	 8.9796347930e-01
 5.6806323172e-01	 1.4957577004e+00	 9.1262201492e-01
 5.5411407067e-01	 1.5009812083e+00	 9.3039539333e-01
 6.9621155809e-01	 1.4503750951e+00	 7.4394743950e-01
 6.8245413065e-01	 1.4568990189e+00	 7.7850288146e-01
 6.6865853409e-01	 1.4632819659e+00	 8.1024027775e-01
 6.5482686121e-01	 1.4695237655e+00	 8.3974223978e-01
 6.4096120052e-01	 1.4756242871e+00	 8.6739120613e-01
 6.2706363532e-01	 1.4815834399e+00	 8.9337742684e-01
 6.1313624284e-01	 1.4874011724e+00	 9.1764812360e-01
 5.9918109329e-01	 1.4930774723e+00	 9.4010256832e-01
 5.8520024903e-01	 1.4986123657e+00	 9.6057691028e-01
 5.7119576368e-01	 1.5040059173e+00	 9.7872824917e-01
 5.5716968127e-01	 1.5092582298e+00	 9.9403457634e-01
 7.0002969732e-01	 1.4583291918e+00	 6.4835841499e-01
 6.8619682187e-01	 1.4648888939e+00	 7.0669377369e-01
 6.7232556799e-01	 1.4713068460e+00	 7.6331653120e-01
 6.5841803993e-01	 1.4775828767e+00	 8.1765170132e-01
 6.4447633766e-01	 1.4837168546e+00	 8.6900577111e-01
 6.3050255592e-01	 1.4897086883e+00	 9.1647752819e-01
 6.1649878331e-01	 1.4955583263e+00	 9.5934958837e-01
 6.0246710142e-01	 1.5012657558e+00	 9.9688962384e-01
 5.8840958390e-01	 1.5068310035e+00	 1.0282819428e+00
 5.7432829563e-01	 1.5122541343e+00	 1.0526265760e+00
 5.6022529188e-01	 1.5175352514e+00	 1.0689385804e+00
 5.2966918584e-01	 1.4347650360e+00	 7.9650368806e-01
 5.1631906883e-01	 1.4396231580e+00	 9.1293543469e-01
 5.0295228133e-01	 1.4443473582e+00	 1.0165537560e+00
 4.8957073294e-01	 1.4489378386e+00	 1.1059088386e+00
 4.7617632115e-01	 1.4533948358e+00	 1.1796129604e+00
 4.6277093058e-01	 1.4577186201e+00	 1.2363415490e+00
 4.4935643230e-01	 1.4619094952e+00	 1.2748337518e+00
 4.3593468314e-01	 1.4659677976e+00	 1.2938925460e+00
 4.2250752502e-01	 1.4698938963e+00	 1.2923844202e+00
 4.0907678431e-01	 1.4736881920e+00	 1.2692386593e+00
 3.9564427119e-01	 1.4773511167e+00	 1.2234462643e+00
 5.3272479644e-01	 1.4430420576e+00	 7.7939193153e-01
 5.1929766389e-01	 1.4479282056e+00	 8.8511443130e-01
 5.0585376468e-01	 1.4526796592e+00	 9.8024631423e-01
 4.9239501943e-01	 1.4572966217e+00	 1.0630255561e+00
 4.7892333656e-01	 1.4617793309e+00	 1.1318102959e+00
 4.6544061158e-01	 1.4661280587e+00	 1.1850792171e+00
 4.5194872635e-01	 1.4703431105e+00	 1.2214313602e+00
 4.3844954841e-01	 1.4744248249e+00	 1.2395853990e+00
 4.2494493030e-01	 1.4783735728e+00	 1.2383784159e+00
 4.1143670894e-01	 1.4821897575e+00	 1.2167680794e+00
 3.9792670495e-01	 1.4858738132e+00	 1.1739682855e+00
 5.3578040705e-01	 1.4513190791e+00	 7.7145320060e-01
 5.2227625896e-01	 1.4562332532e+00	 8.6488133662e-01
 5.0875524803e-01	 1.4610119603e+00	 9.5029374474e-01
 4.9521930591e-01	 1.4656554048e+00	 1.0257096861e+00
 4.8167035197e-01	 1.4701638260e+00	 1.0893146544e+00
 4.6811029258e-01	 1.4745374972e+00	 1.1394601629e+00
 4.5454102040e-01	 1.4787767258e+00	 1.1746628968e+00
 4.4096441368e-01	 1.4828818521e+00	 1.1936171631e+00
 4.2738233559e-01	 1.4868532494e+00	 1.1953432643e+00
 4.1379663358e-01	 1.4906913229e+00	 1.1789076336e+00
 4.0020913871e-01	 1.4943965098e+00	 1.1434671197e+00
 5.3883601765e-01	 1.4595961006e+00	 7.7291983686e-01
 5.2525485402e-01	 1.4645383008e+00	 8.5310713659e-01
 5.1165673138e-01	 1.4693442613e+00	 9.2801344703e-01
 4.9804359239e-01	 1.4740141879e+00	 9.9553183960e-01
 4.8441736738e-01	 1.4785483210e+00	 1.0537558291e+00
 4.7077997358e-01	 1.4829469358e+00	 1.1009916443e+00
 4.5713331445e-01	 1.4872103411e+00	 1.1359122099e+00
 4.4347927894e-01	 1.4913388794e+00	 1.1572923461e+00
 4.2981974087e-01	 1.4953329259e+00	 1.1640345335e+00
 4.1615655821e-01	 1.4991928884e+00	 1.1552123927e+00
 4.0249157246e-01	 1.5029192063e+00	 1.1300672165e+00
 5.4189162826e-01	 1.4678731222e+00	 7.8402582101e-01
 5.2823344908e-01	 1.4728433483e+00	 8.5064982087e-01
 5.1455821473e-01	 1.4776765623e+00	 9.1469949758e-01
 5.0086787888e-01	 1.4823729709e+00	 9.7403704163e-01
 4.8716438279e-01	 1.4869328161e+00	 1.0268955746e+00
 4.7344965458e-01	 1.4913563743e+00	 1.0717042550e+00
 4.5972560850e-01	 1.4956439564e+00	 1.1070344638e+00
 4.4599414421e-01	 1.4997959067e+00	 1.1316542190e+00
 4.3225714616e-01	 1.5038126025e+00	 1.1445245613e+00
 4.1851648284e-01	 1.5076944539e+00	 1.1447958058e+00
 4.0477400622e-01	 1.5114419029e+00	 1.1318036667e+00
 5.4494723886e-01	 1.4761501437e+00	 8.0500688822e-01
 5.3121204414e-01	 1.4811483959e+00	 8.5835490783e-01
 5.1745969808e-01	 1.4860088634e+00	 9.1170506144e-01
 5.0369216536e-01	 1.4907317540e+00	 9.6313617978e-01
 4.8991139820e-01	 1.4953173111e+00	 1.0108765846e+00
 4.7611933558e-01	 1.4997658129e+00	 1.0533656436e+00
 4.6231790255e-01	 1.5040775717e+00	 1.0892505729e+00
 4.4850900948e-01	 1.5082529339e+00	 1.1173827245e+00
 4.3469455144e-01	 1.5122922790e+00	 1.1368137264e+00
 4.2087640747e-01	 1.5161960194e+00	 1.1467914851e+00
 4.0705643998e-01	 1.5199645994e+00	 1.1467560561e+00
 5.4800284947e-01	 1.4844271652e+00	 8.3612037079e-01
 5.3419063921e-01	 1.4894534435e+00	 8.7725522088e-01
 5.2036118143e-01	 1.4943411644e+00	 9.2069366984e-01
 5.0651645185e-01	 1.4990905371e+00	 9.6458936561e-01
 4.9265841361e-01	 1.5037018062e+00	 1.0073073965e+00
 4.7878901658e-01	 1.5081752515e+00	 1.0474207478e+00
 4.6491019660e-01	 1.5125111870e+00	 1.0837066071e+00
 4.5102387475e-01	 1.5167099612e+00	 1.1151425246e+00
 4.3713195673e-01	 1.5207719556e+00	 1.1409024361e+00
 4.2323633211e-01	 1.5246975849e+00	 1.1603525551e+00
 4.0933887373e-01	 1.5284872959e+00	 1.1730471408e+00
 5.5105846007e-01	 1.4927041868e+00	 8.7782477934e-01
 5.3716923427e-01	 1.4977584911e+00	 9.0839477434e-01
 5.2326266478e-01	 1.5026734654e+00	 9.4294574027e-01
 5.0934073833e-01	 1.5074493201e+00	 9.7985946987e-01
 4.9540542902e-01	 1.5120863013e+00	 1.0177143829e+00
 4.8145869758e-01	 1.5165846900e+00	 1.0552819261e+00
 4.6750249065e-01	 1.5209448024e+00	 1.0915228434e+00
 4.5353874002e-01	 1.5251669885e+00	 1.1255833236e+00
 4.3956936201e-01	 1.5292516321e+00	 1.1567910301e+00
 4.2559625674e-01	 1.5331991503e+00	 1.1846510211e+00
 4.1162130749e-01	 1.5370099925e+00	 1.2088415652e+00
 5.5411407067e-01	 1.5009812083e+00	 9.3039539333e-01
 5.4014782933e-01	 1.5060635386e+00	 9.5256102284e-01
 5.2616414813e-01	 1.5110057664e+00	 9.7965571354e-01
 5.1216502481e-01	 1.5158081032e+00	 1.0103761333e+00
 4.9815244443e-01	 1.5204707963e+00	 1.0435894470e+00
 4.8412837858e-01	 1.5249941286e+00	 1.0783297439e+00
 4.7009478469e-01	 1.5293784177e+00	 1.1137943713e+00
 4.5605360529e-01	 1.5336240157e+00	 1.1493401801e+00
 4.4200676730e-01	 1.5377313087e+00	 1.1844796870e+00
 4.2795618137e-01	 1.5417007158e+00	 1.2188771584e+00
 4.1390374125e-01	 1.5455326890e+00	 1.2523446222e+00
 5.5716968127e-01	 1.5092582298e+00	 9.9403457634e-01
 5.4312642439e-01	 1.5143685862e+00	 1.0105223846e+00
 5.2906563148e-01	 1.5193380675e+00	 1.0319905844e+00
 5.1498931130e-01	 1.5241668863e+00	 1.0575365554e+00
 5.0089945984e-01	 1.5288552914e+00	 1.0863908505e+00
 4.8679805958e-01	 1.5334035671e+00	 1.1179137340e+00
 4.7268707874e-01	 1.5378120330e+00	 1.1515916763e+00
 4.5856847056e-01	 1.5420810430e+00	 1.1870338072e+00
 4.4444417258e-01	 1.5462109852e+00	 1.2239683330e+00
 4.3031610601e-01	 1.5502022813e+00	 1.2622389207e+00
 4.1618617500e-01	 1.5540553856e+00	 1.3018010529e+00
 5.6022529188e-01	 1.5175352514e+00	 1.0689385804e+00
 5.4610501945e-01	 1.5226736338e+00	 1.0830289807e+00
 5.3196711483e-01	 1.5276703685e+00	 1.1010905213e+00
 5.1781359778e-01	 1.5325256694e+00	 1.1227062556e+00
 5.0364647525e-01	 1.5372397864e+00	 1.1475440128e+00
 4.8946774058e-01	 1.5418130057e+00	 1.1753531302e+00
 4.7527937279e-01	 1.5462456483e+00	 1.2059612043e+00
 4.6108333583e-01	 1.5505380703e+00	 1.2392708613e+00
 4.4688157787e-01	 1.5546906618e+00	 1.2752565514e+00
 4.3267603064e-01	 1.5587038468e+00	 1.3139613665e+00
 4.1846860876e-01	 1.5625780821e+00	 1.3554938844e+00
 3.9564427119e-01	 1.4773511167e+00	 1.2234462643e+00
 3.8221177925e-01	 1.4808831335e+00	 1.1705967186e+00
 3.6878108538e-01	 1.4842847367e+00	 1.1265530012e+00
 3.5535394869e-01	 1.4875564508e+00	 1.0900322100e+00
 3.4193210972e-01	 1.4906988290e+00	 1.0604215370e+00
 3.2851728995e-01	 1.4937124529e+00	 1.0377541898e+00
 3.1511119125e-01	 1.4965979319e+00	 1.0220345677e+00
 3.0171549544e-01	 1.4993559022e+00	 1.0132388613e+00
 2.8833186380e-01	 1.5019870269e+00	 1.0113158270e+00
 2.7496193661e-01	 1.5044919947e+00	 1.0161877208e+00
 2.6160733276e-01	 1.5068715195e+00	 1.0277513764e+00
 3.9792670495e-01	 1.4858738132e+00	 1.1739682855e+00
 3.8441672225e-01	 1.4894262059e+00	 1.1249147732e+00
 3.7090854800e-01	 1.4928474327e+00	 1.0848275841e+00
 3.5740395145e-01	 1.4961380210e+00	 1.0526786553e+00
 3.4390468318e-01	 1.4992985273e+00	 1.0277178828e+00
 3.3041247460e-01	 1.5023295364e+00	 1.0101202547e+00
 3.1692903741e-01	 1.5052316614e+00	 9.9996569573e-01
 3.0345606313e-01	 1.5080055422e+00	 9.9723975183e-01
 2.8999522260e-01	 1.5106518457e+00	 1.0018356831e+00
 2.7654816559e-01	 1.5131712644e+00	 1.0135567735e+00
 2.6311652031e-01	 1.5155645164e+00	 1.0321188387e+00
 4.0020913871e-01	 1.4943965098e+00	 1.1434671197e+00
 3.8662166525e-01	 1.4979692783e+00	 1.1022294323e+00
 3.7303601062e-01	 1.5014101286e+00	 1.0688671454e+00
 3.5945395421e-01	 1.5047195911e+00	 1.0427279149e+00
 3.4587725664e-01	 1.5078982255e+00	 1.0228990873e+00
 3.3230765926e-01	 1.5109466200e+00	 1.0096449125e+00
 3.1874688358e-01	 1.5138653910e+00	 1.0031143287e+00
 3.0519663081e-01	 1.5166551823e+00	 1.0033097959e+00
 2.9165858140e-01	 1.5193166644e+00	 1.0100904331e+00
 2.7813439456e-01	 1.5218505340e+00	 1.0231754168e+00
 2.6462570786e-01	 1.5242575133e+00	 1.0421476190e+00
 4.0249157246e-01	 1.5029192063e+00	 1.1300672165e+00
 3.8882660825e-01	 1.5065123507e+00	 1.0994585661e+00
 3.7516347324e-01	 1.5099728245e+00	 1.0747773998e+00
 3.6150395697e-01	 1.5133011612e+00	 1.0556950724e+00
 3.4784983011e-01	 1.5164979237e+00	 1.0411633281e+00
 3.3420284392e-01	 1.5195637035e+00	 1.0314631824e+00
 3.2056472974e-01	 1.5224991205e+00	 1.0268055450e+00
 3.0693719849e-01	 1.5253048223e+00	 1.0272166609e+00
 2.9332194020e-01	 1.5279814831e+00	 1.0325420194e+00
 2.7972062354e-01	 1.5305298037e+00	 1.0424505562e+00
 2.6613489541e-01	 1.5329505102e+00	 1.0564391271e+00
 4.0477400622e-01	 1.5114419029e+00	 1.1318036667e+00
 3.9103155125e-01	 1.5150554231e+00	 1.1135873155e+00
 3.7729093586e-01	 1.5185355205e+00	 1.0987419551e+00
 3.6355395973e-01	 1.5218827314e+00	 1.0871987372e+00
 3.4982240357e-01	 1.5250976219e+00	 1.0778195296e+00
 3.3609802858e-01	 1.5281807870e+00	 1.0708223198e+00
 3.2238257590e-01	 1.5311328501e+00	 1.0664724296e+00
 3.0867776617e-01	 1.5339544623e+00	 1.0648260863e+00
 2.9498529900e-01	 1.5366463019e+00	 1.0657348339e+00
 2.8130685251e-01	 1.5392090733e+00	 1.0688502587e+00
 2.6764408295e-01	 1.5416435071e+00	 1.0736290055e+00
 4.0705643998e-01	 1.5199645994e+00	 1.1467560561e+00
 3.9323649426e-01	 1.5235984955e+00	 1.1416690083e+00
 3.7941839848e-01	 1.5270982164e+00	 1.1370307245e+00
 3.6560396249e-01	 1.5304643015e+00	 1.1329580484e+00
 3.5179497703e-01	 1.5336973201e+00	 1.1282841747e+00
 3.3799321323e-01	 1.5367978705e+00	 1.1230785984e+00
 3.2420042207e-01	 1.5397665797e+00	 1.1176529854e+00
 3.1041833386e-01	 1.5426041024e+00	 1.1120990828e+00
 2.9664865780e-01	 1.5453111206e+00	 1.1062933652e+00
 2.8289308149e-01	 1.5478883430e+00	 1.0999020055e+00
 2.6915327050e-01	 1.5503365040e+00	 1.0923861446e+00
 4.0933887373e-01	 1.5284872959e+00	 1.1730471408e+00
 3.9544143726e-01	 1.5321415679e+00	 1.1808231797e+00
 3.8154586110e-01	 1.5356609123e+00	 1.1859974458e+00
 3.6765396525e-01	 1.5390458716e+00	 1.1887897752e+00
 3.5376755049e-01	 1.5422970183e+00	 1.1880782219e+00
 3.3988839789e-01	 1.5454149540e+00	 1.1836941968e+00
 3.2601826823e-01	 1.5484003092e+00	 1.1759871446e+00
 3.1215890154e-01	 1.5512537424e+00	 1.1650892231e+00
 2.9831201659e-01	 1.5539759394e+00	 1.1509199216e+00
 2.8447931046e-01	 1.5565676126e+00	 1.1331910009e+00
 2.7066245805e-01	 1.5590295009e+00	 1.1114117300e+00
 4.1162130749e-01	 1.5370099925e+00	 1.2088415652e+00
 3.9764638026e-01	 1.5406846403e+00	 1.2282336561e+00
 3.8367332372e-01	 1.5442236082e+00	 1.2420772829e+00
 3.6970396801e-01	 1.5476274418e+00	 1.2506055114e+00
 3.5574012396e-01	 1.5508967165e+00	 1.2528241208e+00
 3.4178358255e-01	 1.5540320375e+00	 1.2482341860e+00
 3.2783611439e-01	 1.5570340388e+00	 1.2372138772e+00
 3.1389946922e-01	 1.5599033824e+00	 1.2199400207e+00
 2.9997537539e-01	 1.5626407581e+00	 1.1963924285e+00
 2.8606553943e-01	 1.5652468823e+00	 1.1663585353e+00
 2.7217164560e-01	 1.5677224978e+00	 1.1294383194e+00
 4.1390374125e-01	 1.5455326890e+00	 1.2523446222e+00
 3.9985132326e-01	 1.5492277127e+00	 1.2811467030e+00
 3.8580078635e-01	 1.5527863042e+00	 1.3017845056e+00
 3.7175397077e-01	 1.5562090119e+00	 1.3144193764e+00
 3.5771269742e-01	 1.5594964147e+00	 1.3182429234e+00
 3.4367876720e-01	 1.5626491211e+00	 1.3123636139e+00
 3.2965396056e-01	 1.5656677684e+00	 1.2971683927e+00
 3.1564003690e-01	 1.5685530225e+00	 1.2728823922e+00
 3.0163873419e-01	 1.5713055768e+00	 1.2395622954e+00
 2.8765176841e-01	 1.5739261520e+00	 1.1971004013e+00
 2.7368083315e-01	 1.5764154947e+00	 1.1452289481e+00
 4.1618617500e-01	 1.5540553856e+00	 1.3018010529e+00
 4.0205626627e-01	 1.5577707851e+00	 1.3368692322e+00
 3.8792824897e-01	 1.5613490001e+00	 1.3617102447e+00
 3.7380397353e-01	 1.5647905820e+00	 1.3763608684e+00
 3.5968527088e-01	 1.5680961129e+00	 1.3801514881e+00
 3.4557395186e-01	 1.5712662046e+00	 1.3718446823e+00
 3.3147180672e-01	 1.5743014979e+00	 1.3517794311e+00
 3.1738060459e-01	 1.5772026625e+00	 1.3202322015e+00
 3.0330209299e-01	 1.5799703956e+00	 1.2773523524e+00
 2.8923799738e-01	 1.5826054216e+00	 1.2231653589e+00
 2.7519002070e-01	 1.5851084916e+00	 1.1575762623e+00
 4.1846860876e-01	 1.5625780821e+00	 1.3554938844e+00
 4.0426120927e-01	 1.5663138575e+00	 1.3927670667e+00
 3.9005571159e-01	 1.5699116960e+00	 1.4185203203e+00
 3.7585397630e-01	 1.5733721522e+00	 1.4326156685e+00
 3.6165784435e-01	 1.5766958111e+00	 1.4344597717e+00
 3.4746913652e-01	 1.5798832881e+00	 1.4225340149e+00
 3.3328965288e-01	 1.5829352275e+00	 1.3970666400e+00
 3.1912117227e-01	 1.5858523025e+00	 1.3583878822e+00
 3.0496545179e-01	 1.5886352143e+00	 1.3067548504e+00
 2.9082422635e-01	 1.5912846913e+00	 1.2423536493e+00
 2.7669920824e-01	 1.5938014885e+00	 1.1653016786e+00
 2.6160733276e-01	 1.5068715195e+00	 1.0277513764e+00
 2.4826738388e-01	 1.5091267122e+00	 1.0398651040e+00
 2.3494594031e-01	 1.5112579195e+00	 1.0471889686e+00
 2.2164455859e-01	 1.5132659262e+00	 1.0507949605e+00
 2.0836477224e-01	 1.5151515397e+00	 1.0517327708e+00
 1.9510809149e-01	 1.5169155893e+00	 1.0510298572e+00
 1.8187600295e-01	 1.5185589255e+00	 1.0496916184e+00
 1.6866996932e-01	 1.5200824195e+00	 1.0487016686e+00
 1.5549142916e-01	 1.5214869622e+00	 1.0490221997e+00
 1.4234179663e-01	 1.5227734638e+00	 1.0515944261e+00
 1.2922246127e-01	 1.5239428532e+00	 1.0573391010e+00
 2.6311652031e-01	 1.5155645164e+00	 1.0321188387e+00
 2.4969961454e-01	 1.5178327191e+00	 1.0517148447e+00
 2.3630132085e-01	 1.5199762211e+00	 1.0670901517e+00
 2.2292320474e-01	 1.5219958118e+00	 1.0787617082e+00
 2.0956680858e-01	 1.5238923033e+00	 1.0872798713e+00
 1.9623365131e-01	 1.5256665295e+00	 1.0932278922e+00
 1.8292522812e-01	 1.5273193459e+00	 1.0972214524e+00
 1.6964301015e-01	 1.5288516288e+00	 1.0999082456e+00
 1.5638844427e-01	 1.5302642742e+00	 1.1019675962e+00
 1.4316295277e-01	 1.5315581975e+00	 1.1041101088e+00
 1.2996793322e-01	 1.5327343330e+00	 1.1070773429e+00
 2.6462570786e-01	 1.5242575133e+00	 1.0421476190e+00
 2.5113184521e-01	 1.5265387260e+00	 1.0625069481e+00
 2.3765670139e-01	 1.5286945228e+00	 1.0800851472e+00
 2.2420185088e-01	 1.5307256975e+00	 1.0949320881e+00
 2.1076884491e-01	 1.5326330668e+00	 1.1071743607e+00
 1.9735921113e-01	 1.5344174696e+00	 1.1170143593e+00
 1.8397445329e-01	 1.5360797664e+00	 1.1247293749e+00
 1.7061605099e-01	 1.5376208381e+00	 1.1306706873e+00
 1.5728545937e-01	 1.5390415861e+00	 1.1352626531e+00
 1.4398410891e-01	 1.5403429312e+00	 1.1390017824e+00
 1.3071340517e-01	 1.5415258128e+00	 1.1424558021e+00
 2.6613489541e-01	 1.5329505102e+00	 1.0564391271e+00
 2.5256407588e-01	 1.5352447329e+00	 1.0720561999e+00
 2.3901208193e-01	 1.5374128244e+00	 1.0869902239e+00
 2.2548049703e-01	 1.5394555831e+00	 1.1009113389e+00
 2.1197088125e-01	 1.5413738303e+00	 1.1135974545e+00
 1.9848477095e-01	 1.5431684098e+00	 1.1249331174e+00
 1.8502367847e-01	 1.5448401868e+00	 1.1349083506e+00
 1.7158909182e-01	 1.5463900474e+00	 1.1436174580e+00
 1.5818247447e-01	 1.5478188981e+00	 1.1512577911e+00
 1.4480526504e-01	 1.5491276649e+00	 1.1581284739e+00
 1.3145887712e-01	 1.5503172926e+00	 1.1646290837e+00
 2.6764408295e-01	 1.5416435071e+00	 1.0736290055e+00
 2.5399630654e-01	 1.5439507398e+00	 1.0801842503e+00
 2.4036746247e-01	 1.5461311260e+00	 1.0886059116e+00
 2.2675914318e-01	 1.5481854687e+00	 1.0982711350e+00
 2.1317291759e-01	 1.5501145939e+00	 1.1086837670e+00
 1.9961033077e-01	 1.5519193500e+00	 1.1194731826e+00
 1.8607290364e-01	 1.5536006072e+00	 1.1303930599e+00
 1.7256213266e-01	 1.5551592567e+00	 1.1413200960e+00
 1.5907948957e-01	 1.5565962101e+00	 1.1522526620e+00
 1.4562642118e-01	 1.5579123986e+00	 1.1633093933e+00
 1.3220434908e-01	 1.5591087724e+00	 1.1747277134e+00
 2.6915327050e-01	 1.5503365040e+00	 1.0923861446e+00
 2.5542853721e-01	 1.5526567467e+00	 1.0867194040e+00
 2.4172284301e-01	 1.5548494276e+00	 1.0857174324e+00
 2.2803778932e-01	 1.5569153543e+00	 1.0885505240e+00
 2.1437495392e-01	 1.5588553574e+00	 1.0945226203e+00
 2.0073589059e-01	 1.5606702902e+00	 1.1030702736e+00
 1.8712212881e-01	 1.5623610276e+00	 1.1137615443e+00
 1.7353517349e-01	 1.5639284660e+00	 1.1262948252e+00
 1.5997650467e-01	 1.5653735221e+00	 1.1404975915e+00
 1.4644757732e-01	 1.5666971323e+00	 1.1563250710e+00
 1.3294982103e-01	 1.5679002521e+00	 1.1738588360e+00
 2.7066245805e-01	 1.5590295009e+00	 1.1114117300e+00
 2.5686076787e-01	 1.5613627536e+00	 1.0914964171e+00
 2.4307822355e-01	 1.5635677293e+00	 1.0790951162e+00
 2.2931643547e-01	 1.5656452400e+00	 1.0732568321e+00
 2.1557699026e-01	 1.5675961210e+00	 1.0731593086e+00
 2.0186145041e-01	 1.5694212303e+00	 1.0781083044e+00
 1.8817135398e-01	 1.5711214480e+00	 1.0875367973e+00
 1.7450821432e-01	 1.5726976753e+00	 1.1010041128e+00
 1.6087351978e-01	 1.5741508341e+00	 1.1181949719e+00
 1.4726873345e-01	 1.5754818660e+00	 1.1389184565e+00
 1.3369529298e-01	 1.5766917319e+00	 1.1631068893e+00
 2.7217164560e-01	 1.5677224978e+00	 1.1294383194e+00
 2.5829299854e-01	 1.5700687605e+00	 1.0943562979e+00
 2.4443360408e-01	 1.5722860309e+00	 1.0694948018e+00
 2.3059508161e-01	 1.5743751256e+00	 1.0538665376e+00
 2.1677902659e-01	 1.5763368845e+00	 1.0465963187e+00
 2.0298701022e-01	 1.5781721705e+00	 1.0469208257e+00
 1.8922057915e-01	 1.5798818685e+00	 1.0541883008e+00
 1.7548125515e-01	 1.5814668847e+00	 1.0678581733e+00
 1.6177053488e-01	 1.5829281461e+00	 1.0875006091e+00
 1.4808988959e-01	 1.5842665997e+00	 1.1127959807e+00
 1.3444076493e-01	 1.5854832117e+00	 1.1435342554e+00
 2.7368083315e-01	 1.5764154947e+00	 1.1452289481e+00
 2.5972522920e-01	 1.5787747674e+00	 1.0951461137e+00
 2.4578898462e-01	 1.5810043325e+00	 1.0576582219e+00
 2.3187372776e-01	 1.5831050112e+00	 1.0318261146e+00
 2.1798106293e-01	 1.5850776481e+00	 1.0167945102e+00
 2.0411257004e-01	 1.5869231107e+00	 1.0117924187e+00
 1.9026980432e-01	 1.5886422889e+00	 1.0161335094e+00
 1.7645429599e-01	 1.5902360940e+00	 1.0292164230e+00
 1.6266754998e-01	 1.5917054580e+00	 1.0505250234e+00
 1.4891104572e-01	 1.5930513333e+00	 1.0796285818e+00
 1.3518623688e-01	 1.5942746915e+00	 1.1161818899e+00
 2.7519002070e-01	 1.5851084916e+00	 1.1575762623e+00
 2.6115745987e-01	 1.5874807743e+00	 1.0937188014e+00
 2.4714436516e-01	 1.5897226341e+00	 1.0443133751e+00
 2.3315237390e-01	 1.5918348968e+00	 1.0085528473e+00
 2.1918309926e-01	 1.5938184116e+00	 9.8567425377e-01
 2.0523812986e-01	 1.5956740509e+00	 9.7496004096e-01
 1.9131902949e-01	 1.5974027093e+00	 9.7573928579e-01
 1.7742733682e-01	 1.5990053033e+00	 9.8738888512e-01
 1.6356456508e-01	 1.6004827700e+00	 1.0093347072e+00
 1.4973220186e-01	 1.6018360670e+00	 1.0410526972e+00
 1.3593170884e-01	 1.6030661713e+00	 1.0820699302e+00
 2.7669920824e-01	 1.5938014885e+00	 1.1653016786e+00
 2.6258969053e-01	 1.5961867811e+00	 1.0899329835e+00
 2.4849974570e-01	 1.5984409358e+00	 1.0301748836e+00
 2.3443102005e-01	 1.6005647824e+00	 9.8543561678e-01
 2.2038513559e-01	 1.6025591752e+00	 9.5511653328e-01
 2.0636368968e-01	 1.6044249910e+00	 9.3861432767e-01
 1.9236825466e-01	 1.6061631297e+00	 9.3532328777e-01
 1.7840037765e-01	 1.6077745126e+00	 9.4463754877e-01
 1.6446158018e-01	 1.6092600820e+00	 9.6595334120e-01
 1.5055335800e-01	 1.6106208007e+00	 9.9867122254e-01
 1.3667718079e-01	 1.6118576511e+00	 1.0421982833e+00
 1.2922246127e-01	 1.5239428532e+00	 1.0573391010e+00
 1.1613700454e-01	 1.5249959077e+00	 1.0675577434e+00
 1.0308450745e-01	 1.5259337991e+00	 1.0825302392e+00
 9.0066254107e-02	 1.5267575069e+00	 1.1016328553e+00
 7.7083504135e-02	 1.5274680266e+00	 1.1242528285e+00
 6.4137492550e-02	 1.5280663686e+00	 1.1497906122e+00
 5.1229429637e-02	 1.5285535581e+00	 1.1776620781e+00
 3.8360500855e-02	 1.5289306340e+00	 1.2073006671e+00
 2.5531866762e-02	 1.5291986486e+00	 1.2381594860e+00
 1.2744662951e-02	 1.5293586666e+00	 1.2697133452e+00
 0.0000000000e+00	 1.5294117647e+00	 1.3014607357e+00
 1.2996793322e-01	 1.5327343330e+00	 1.1070773429e+00
 1.1680698775e-01	 1.5337934625e+00	 1.1117751845e+00
 1.0367919206e-01	 1.5347367645e+00	 1.1186487191e+00
 9.0585837666e-02	 1.5355652242e+00	 1.1277382333e+00
 7.7528191458e-02	 1.5362798428e+00	 1.1390445444e+00
 6.4507495578e-02	 1.5368816366e+00	 1.1525317531e+00
 5.1524967290e-02	 1.5373716366e+00	 1.1681299987e+00
 3.8581798896e-02	 1.5377508879e+00	 1.1857382100e+00
 2.5679157647e-02	 1.5380204486e+00	 1.2052268444e+00
 1.2818185686e-02	 1.5381813897e+00	 1.2264406113e+00
 0.0000000000e+00	 1.5382347941e+00	 1.2492011720e+00
 1.3071340517e-01	 1.5415258128e+00	 1.1424558021e+00
 1.1747697097e-01	 1.5425910172e+00	 1.1453398001e+00
 1.0427387667e-01	 1.5435397298e+00	 1.1474177777e+00
 9.1105421225e-02	 1.5443729414e+00	 1.1493205904e+00
 7.7972878782e-02	 1.5450916589e+00	 1.1515998020e+00
 6.4877498605e-02	 1.5456969045e+00	 1.1547307611e+00
 5.1820504944e-02	 1.5461897151e+00	 1.1591157204e+00
 3.8803096937e-02	 1.5465711417e+00	 1.1650869886e+00
 2.5826448532e-02	 1.5468422485e+00	 1.1729101081e+00
 1.2891708422e-02	 1.5470041127e+00	 1.1827870496e+00
 0.0000000000e+00	 1.5470578235e+00	 1.1948594182e+00
 1.3145887712e-01	 1.5503172926e+00	 1.1646290837e+00
 1.1814695418e-01	 1.5513885720e+00	 1.1686915417e+00
 1.0486856128e-01	 1.5523426952e+00	 1.1687551105e+00
 9.1625004784e-02	 1.5531806587e+00	 1.1659682464e+00
 7.8417566105e-02	 1.5539034751e+00	 1.1613707858e+00
 6.5247501633e-02	 1.5545121725e+00	 1.1558971676e+00
 5.2116042599e-02	 1.5550077936e+00	 1.1503797266e+00
 3.9024394979e-02	 1.5553913955e+00	 1.1455520522e+00
 2.5973739417e-02	 1.5556640485e+00	 1.1420523996e+00
 1.2965231157e-02	 1.5558268358e+00	 1.1404271472e+00
 0.0000000000e+00	 1.5558808529e+00	 1.1411342919e+00
 1.3220434908e-01	 1.5591087724e+00	 1.1747277134e+00
 1.1881693739e-01	 1.5601861267e+00	 1.1822622325e+00
 1.0546324589e-01	 1.5611456605e+00	 1.1825818774e+00
 9.2144588344e-02	 1.5619883759e+00	 1.1772802084e+00
 7.8862253428e-02	 1.5627152913e+00	 1.1678232146e+00
 6.5617504661e-02	 1.5633274404e+00	 1.1555525024e+00
 5.2411580253e-02	 1.5638258721e+00	 1.1416885793e+00
 3.9245693021e-02	 1.5642116493e+00	 1.1273342230e+00
 2.6121030302e-02	 1.5644858484e+00	 1.1134779274e+00
 1.3038753893e-02	 1.5646495589e+00	 1.1009974136e+00
 0.0000000000e+00	 1.5647038823e+00	 1.0906632002e+00
 1.3294982103e-01	 1.5679002521e+00	 1.1738588360e+00
 1.1948692060e-01	 1.5689836815e+00	 1.1864758187e+00
 1.0605793051e-01	 1.5699486259e+00	 1.1888226287e+00
 9.2664171903e-02	 1.5707960932e+00	 1.1828658951e+00
 7.9306940752e-02	 1.5715271074e+00	 1.1704359842e+00
 6.5987507689e-02	 1.5721427084e+00	 1.1532299783e+00
 5.2707117907e-02	 1.5726439506e+00	 1.1328147655e+00
 3.9466991063e-02	 1.5730319031e+00	 1.1106302290e+00
 2.6268321188e-02	 1.5733076484e+00	 1.0879925265e+00
 1.3112276629e-02	 1.5734722820e+00	 1.0660974505e+00
 0.0000000000e+00	 1.5735269117e+00	 1.0460238614e+00
 1.3369529298e-01	 1.5766917319e+00	 1.1631068893e+00
 1.2015690381e-01	 1.5777812362e+00	 1.1817486125e+00
 1.0665261512e-01	 1.5787515913e+00	 1.1874052348e+00
 9.3183755462e-02	 1.5796038104e+00	 1.1823448695e+00
 7.9751628075e-02	 1.5803389236e+00	 1.1687008218e+00
 6.6357510716e-02	 1.5809579763e+00	 1.1484741844e+00
 5.3002655562e-02	 1.5814620291e+00	 1.1235365504e+00
 3.9688289105e-02	 1.5818521569e+00	 1.0956328326e+00
 2.6415612073e-02	 1.5821294484e+00	 1.0663841806e+00
 1.3185799365e-02	 1.5822950051e+00	 1.0372909863e+00
 0.0000000000e+00	 1.5823499412e+00	 1.0097359690e+00
 1.3444076493e-01	 1.5854832117e+00	 1.1435342554e+00
 1.2082688702e-01	 1.5865787910e+00	 1.1684895265e+00
 1.0724729973e-01	 1.5875545566e+00	 1.1782608168e+00
 9.3703339021e-02	 1.5884115277e+00	 1.1753465802e+00
 8.0196315399e-02	 1.5891507398e+00	 1.1621219524e+00
 6.6727513744e-02	 1.5897732442e+00	 1.1408407915e+00
 5.3298193216e-02	 1.5902801076e+00	 1.1136378333e+00
 3.9909587147e-02	 1.5906724107e+00	 1.0825309537e+00
 2.6562902958e-02	 1.5909512483e+00	 1.0494235272e+00
 1.3259322100e-02	 1.5911177282e+00	 1.0161068761e+00
 0.0000000000e+00	 1.5911729706e+00	 9.8426280054e-01
 1.3518623688e-01	 1.5942746915e+00	 1.1161818899e+00
 1.2149687023e-01	 1.5953763457e+00	 1.1471003003e+00
 1.0784198434e-01	 1.5963575220e+00	 1.1613236800e+00
 9.4222922580e-02	 1.5972192449e+00	 1.1615101112e+00
 8.0641002722e-02	 1.5979625559e+00	 1.1502157747e+00
 6.7097516772e-02	 1.5985885122e+00	 1.1298962650e+00
 5.3593730871e-02	 1.5990981861e+00	 1.1029080103e+00
 4.0130885188e-02	 1.5994926645e+00	 1.0715097905e+00
 2.6710193843e-02	 1.5997730483e+00	 1.0378643456e+00
 1.3332844836e-02	 1.5999404513e+00	 1.0040400682e+00
 0.0000000000e+00	 1.5999960000e+00	 9.7201277308e-01
 1.3593170884e-01	 1.6030661713e+00	 1.0820699302e+00
 1.2216685344e-01	 1.6041739005e+00	 1.1179757185e+00
 1.0843666895e-01	 1.6051604873e+00	 1.1365312486e+00
 9.4742506139e-02	 1.6060269622e+00	 1.1404839400e+00
 8.1085690045e-02	 1.6067743721e+00	 1.1325105491e+00
 6.7467519799e-02	 1.6074037801e+00	 1.1152175894e+00
 5.3889268525e-02	 1.6079162646e+00	 1.0911418397e+00
 4.0352183230e-02	 1.6083129183e+00	 1.0627509343e+00
 2.6857484728e-02	 1.6085948482e+00	 1.0324440290e+00
 1.3406367572e-02	 1.6087631744e+00	 1.0025525396e+00
 0.0000000000e+00	 1.6088190294e+00	 9.7534094749e-01
 1.3667718079e-01	 1.6118576511e+00	 1.0421982833e+00
 1.2283683665e-01	 1.6129714553e+00	 1.0815038221e+00
 1.0903135356e-01	 1.6139634527e+00	 1.1038240025e+00
 9.5262089698e-02	 1.6148346794e+00	 1.1119257030e+00
 8.1530377368e-02	 1.6155861883e+00	 1.1085460945e+00
 6.7837522827e-02	 1.6162190481e+00	 1.0963919995e+00
 5.4184806178e-02	 1.6167343431e+00	 1.0781393131e+00
 4.0573481271e-02	 1.6171331722e+00	 1.0564324822e+00
 2.7004775613e-02	 1.6174166482e+00	 1.0338840412e+00
 1.3479890307e-02	 1.6175858975e+00	 1.0130742001e+00
 0.0000000000e+00	 1.6176420588e+00	 9.9655048355e-01
 1.6176420588e+00	 0.0000000000e+00	 9.7164148823e+00
 1.6175858975e+00	 1.3479890307e-02	 7.9244817033e+00
 1.6174166482e+00	 2.7004775613e-02	 6.5067052154e+00
 1.6171331722e+00	 4.0573481271e-02	 5.4081347307e+00
 1.6167343431e+00	 5.4184806178e-02	 4.5741374884e+00
 1.6162190481e+00	 6.7837522827e-02	 3.9504279989e+00
 1.6155861883e+00	 8.1530377368e-02	 3.4830979119e+00
 1.6148346794e+00	 9.5262089698e-02	 3.1186463509e+00
 1.6139634527e+00	 1.0903135356e-01	 2.8040106469e+00
 1.6129714553e+00	 1.2283683665e-01	 2.4865973953e+00
 1.6118576511e+00	 1.3667718079e-01	 2.1143137538e+00
 1.6264665874e+00	 0.0000000000e+00	 1.0094889418e+01
 1.6264101197e+00	 1.3553425535e-02	 7.6525583576e+00
 1.6262399471e+00	 2.7152091524e-02	 5.8302119545e+00
 1.6259549247e+00	 4.0794816914e-02	 4.5387688662e+00
 1.6255539199e+00	 5.4480394048e-02	 3.6891888567e+00
 1.6250358139e+00	 6.8207588723e-02	 3.1925390648e+00
 1.6243995017e+00	 8.1975140250e-02	 2.9600620984e+00
 1.6236438933e+00	 9.5781761542e-02	 2.9032458775e+00
 1.6227679138e+00	 1.0962613921e-01	 2.9338951317e+00
 1.6217705049e+00	 1.2350693370e-01	 2.9642044499e+00
 1.6206506247e+00	 1.3742277941e-01	 2.9068327677e+00
 1.6352911109e+00	 0.0000000000e+00	 1.0234928775e+01
 1.6352343369e+00	 1.3626960720e-02	 7.3526069001e+00
 1.6350632411e+00	 2.7299407352e-02	 5.2611286825e+00
 1.6347766722e+00	 4.1016152430e-02	 3.8484894234e+00
 1.6343734917e+00	 5.4775981750e-02	 3.0025461365e+00
 1.6338525747e+00	 6.8577654409e-02	 2.6111092067e+00
 1.6332128102e+00	 8.2419902880e-02	 2.5620367674e+00
 1.6324531021e+00	 9.6301433091e-02	 2.7433317040e+00
 1.6315723700e+00	 1.1022092453e-01	 3.0432411726e+00
 1.6305695495e+00	 1.2417703037e-01	 3.3503585084e+00
 1.6294435933e+00	 1.3816837761e-01	 3.5537273893e+00
 1.6441156245e+00	 0.0000000000e+00	 1.0109423545e+01
 1.6440585441e+00	 1.3700495823e-02	 7.0079990599e+00
 1.6438865250e+00	 2.7446723012e-02	 4.7923133955e+00
 1.6435984097e+00	 4.1237487696e-02	 3.3384575085e+00
 1.6431930536e+00	 5.5071569116e-02	 2.5223007584e+00
 1.6426693255e+00	 6.8947719676e-02	 2.2195965275e+00
 1.6420261086e+00	 8.2864665005e-02	 2.3060910482e+00
 1.6412623009e+00	 9.6821104052e-02	 2.6576353330e+00
 1.6403768161e+00	 1.1081570918e-01	 3.1503000859e+00
 1.6393685841e+00	 1.2484712629e-01	 3.6604934581e+00
 1.6382365519e+00	 1.3891397496e-01	 4.0650814976e+00
 1.6529401231e+00	 0.0000000000e+00	 9.6918349194e+00
 1.6528827363e+00	 1.3774030800e-02	 6.6024541300e+00
 1.6527097939e+00	 2.7594038422e-02	 4.4167697228e+00
 1.6524201322e+00	 4.1458822586e-02	 3.0098030836e+00
 1.6520126004e+00	 5.5367155980e-02	 2.2563654613e+00
 1.6514860613e+00	 6.9317784313e-02	 2.0311662251e+00
 1.6508393921e+00	 8.3309426375e-02	 2.2089244133e+00
 1.6500714848e+00	 9.7340774129e-02	 2.6644834675e+00
 1.6491812473e+00	 1.1141049281e-01	 3.2729290240e+00
 1.6481676038e+00	 1.2551722106e-01	 3.9097096214e+00
 1.6470294956e+00	 1.3965957104e-01	 4.4507601668e+00
 1.6617646017e+00	 0.0000000000e+00	 8.9561795036e+00
 1.6617069085e+00	 1.3847565611e-02	 6.1200297422e+00
 1.6615330428e+00	 2.7741353497e-02	 4.1276430951e+00
 1.6612418347e+00	 4.1680156973e-02	 2.8636258543e+00
 1.6608321273e+00	 5.5662742174e-02	 2.2124791195e+00
 1.6603027772e+00	 6.9687848112e-02	 2.0586984675e+00
 1.6596526556e+00	 8.3754186736e-02	 2.2868766022e+00
 1.6588806487e+00	 9.7860443028e-02	 2.7818088770e+00
 1.6579856585e+00	 1.1200527510e-01	 3.4286015658e+00
 1.6569666035e+00	 1.2618731431e-01	 4.1127827417e+00
 1.6558224194e+00	 1.4040516544e-01	 4.7204156099e+00
 1.6705890552e+00	 0.0000000000e+00	 7.8770146113e+00
 1.6705310557e+00	 1.3921100213e-02	 5.5451129334e+00
 1.6703562668e+00	 2.7888668156e-02	 3.9182170338e+00
 1.6700635123e+00	 4.1901490734e-02	 2.9009961301e+00
 1.6696516291e+00	 5.5958327531e-02	 2.3982114156e+00
 1.6691194680e+00	 7.0057910862e-02	 2.3147960186e+00
 1.6684658941e+00	 8.4198945838e-02	 2.5559372327e+00
 1.6676897876e+00	 9.8380110455e-02	 3.0271609207e+00
 1.6667900448e+00	 1.1260005570e-01	 3.6344179719e+00
 1.6657655783e+00	 1.2685740567e-01	 4.2841726850e+00
 1.6646153182e+00	 1.4115075772e-01	 4.8834929329e+00
 1.6794134788e+00	 0.0000000000e+00	 6.4294240192e+00
 1.6793551729e+00	 1.3994634565e-02	 4.8624114917e+00
 1.6791794607e+00	 2.8035982313e-02	 3.7819095575e+00
 1.6788851598e+00	 4.2122823742e-02	 3.1229556573e+00
 1.6784711010e+00	 5.6253911883e-02	 2.8209673678e+00
 1.6779361289e+00	 7.0427972354e-02	 2.8117916233e+00
 1.6772791027e+00	 8.4643703427e-02	 3.0317551089e+00
 1.6764988966e+00	 9.8899776116e-02	 3.4177157387e+00
 1.6755944012e+00	 1.1319483428e-01	 3.9071151168e+00
 1.6745645232e+00	 1.2752749475e-01	 4.4380318669e+00
 1.6734081872e+00	 1.4189634747e-01	 4.9492357072e+00
 1.6882378674e+00	 0.0000000000e+00	 4.5890041684e+00
 1.6881792551e+00	 1.4068168626e-02	 4.0569455749e+00
 1.6880026196e+00	 2.8183295887e-02	 3.7122697001e+00
 1.6877067723e+00	 4.2344155872e-02	 3.5305184254e+00
 1.6872905379e+00	 5.6549495062e-02	 3.4879917141e+00
 1.6867527548e+00	 7.0798032378e-02	 3.5617551630e+00
 1.6860922763e+00	 8.5088459253e-02	 3.7296472378e+00
 1.6853079707e+00	 9.9419439715e-02	 3.9702861238e+00
 1.6843987226e+00	 1.1378961050e-01	 4.2630761099e+00
 1.6833634332e+00	 1.2819758117e-01	 4.5882134156e+00
 1.6822010213e+00	 1.4264193426e-01	 4.9266913665e+00
 1.6970622159e+00	 0.0000000000e+00	 2.3318507948e+00
 1.6970032973e+00	 1.4141702353e-02	 3.1140395885e+00
 1.6968257385e+00	 2.8330608793e-02	 3.7029741376e+00
 1.6965283449e+00	 4.2565487000e-02	 4.1246714494e+00
 1.6961099348e+00	 5.6845076902e-02	 4.4063731616e+00
 1.6955693408e+00	 7.1168090725e-02	 4.5765005866e+00
 1.6949054099e+00	 8.5533213062e-02	 4.6646075654e+00
 1.6941170048e+00	 9.9939100959e-02	 4.7013310867e+00
 1.6932030041e+00	 1.1438438402e-01	 4.7183396163e+00
 1.6921623033e+00	 1.2886766455e-01	 4.7482790797e+00
 1.6909938155e+00	 1.4338751767e-01	 4.8247164351e+00
 1.7058865195e+00	 0.0000000000e+00	-3.6545402669e-01
 1.7058272945e+00	 1.4215235706e-02	 2.0193143150e+00
 1.7056488125e+00	 2.8477920947e-02	 3.7478239196e+00
 1.7053498724e+00	 4.2786816999e-02	 4.9063755269e+00
 1.7049292867e+00	 5.7140657235e-02	 5.5830485028e+00
 1.7043858817e+00	 7.1538147186e-02	 5.8675926282e+00
 1.7037184986e+00	 8.5977964604e-02	 5.8513154423e+00
 1.7029259940e+00	 1.0045875955e-01	 5.6269651236e+00
 1.7020072407e+00	 1.1497915452e-01	 5.2886088890e+00
 1.7009611285e+00	 1.2953774452e-01	 4.9315068906e+00
 1.6997865649e+00	 1.4413309728e-01	 4.6519815930e+00
 1.6118576511e+00	 1.3667718079e-01	 2.1143137538e+00
 1.6106208007e+00	 1.5055335800e-01	 1.7281441752e+00
 1.6092600820e+00	 1.6446158018e-01	 1.4037023955e+00
 1.6077745126e+00	 1.7840037765e-01	 1.1409690352e+00
 1.6061631297e+00	 1.9236825466e-01	 9.3983078730e-01
 1.6044249910e+00	 2.0636368968e-01	 8.0004921843e-01
 1.6025591752e+00	 2.2038513559e-01	 7.2122881743e-01
 1.6005647824e+00	 2.3443102005e-01	 7.0278425328e-01
 1.5984409358e+00	 2.4849974570e-01	 7.4390680467e-01
 1.5961867811e+00	 2.6258969053e-01	 8.4352992251e-01
 1.5938014885e+00	 2.7669920824e-01	 1.0002938870e+00
 1.6206506247e+00	 1.3742277941e-01	 2.9068327677e+00
 1.6194070271e+00	 1.5137465366e-01	 2.7616650718e+00
 1.6180388854e+00	 1.6535874770e-01	 2.5930434011e+00
 1.6165452119e+00	 1.7937358382e-01	 2.4105688142e+00
 1.6149250387e+00	 1.9341765812e-01	 2.2237134233e+00
 1.6131774181e+00	 2.0748944074e-01	 2.0417761751e+00
 1.6113014239e+00	 2.2158737617e-01	 1.8738376228e+00
 1.6092961514e+00	 2.3570988346e-01	 1.7287136598e+00
 1.6071607188e+00	 2.4985535653e-01	 1.6149081880e+00
 1.6048942673e+00	 2.6402216456e-01	 1.5405646918e+00
 1.6024959625e+00	 2.7820865222e-01	 1.5134166913e+00
 1.6294435933e+00	 1.3816837761e-01	 3.5537273893e+00
 1.6281932485e+00	 1.5219594886e-01	 3.6165064925e+00
 1.6268176838e+00	 1.6625591471e-01	 3.5867118416e+00
 1.6253159063e+00	 1.8034678944e-01	 3.4810530627e+00
 1.6236869427e+00	 1.9446706097e-01	 3.3160911037e+00
 1.6219298403e+00	 2.0861519117e-01	 3.1081845050e+00
 1.6200436677e+00	 2.2278961607e-01	 2.8734344638e+00
 1.6180275154e+00	 2.3698874614e-01	 2.6276286685e+00
 1.6158804968e+00	 2.5121096660e-01	 2.3861838832e+00
 1.6136017486e+00	 2.6545463777e-01	 2.1640872576e+00
 1.6111904315e+00	 2.7971809535e-01	 1.9758363445e+00
 1.6382365519e+00	 1.3891397496e-01	 4.0650814976e+00
 1.6369794599e+00	 1.5301724313e-01	 4.2964711100e+00
 1.6355964723e+00	 1.6715308071e-01	 4.3830604957e+00
 1.6340865907e+00	 1.8131999395e-01	 4.3461984394e+00
 1.6324488368e+00	 1.9551646264e-01	 4.2070804871e+00
 1.6306822525e+00	 2.0974094033e-01	 3.9866891846e+00
 1.6287859015e+00	 2.2399185461e-01	 3.7057329710e+00
 1.6267588695e+00	 2.3826760737e-01	 3.3845837084e+00
 1.6246002650e+00	 2.5256657514e-01	 3.0432128259e+00
 1.6223092199e+00	 2.6688710935e-01	 2.7011260578e+00
 1.6198848907e+00	 2.8122753676e-01	 2.3772967598e+00
 1.6470294956e+00	 1.3965957104e-01	 4.4507601668e+00
 1.6457656564e+00	 1.5383853600e-01	 4.8052775375e+00
 1.6443752458e+00	 1.6805024518e-01	 4.9804751632e+00
 1.6428572603e+00	 1.8229319681e-01	 4.9999131160e+00
 1.6412107159e+00	 1.9656586252e-01	 4.8870087263e+00
 1.6394346498e+00	 2.1086668757e-01	 4.6649742357e+00
 1.6375281206e+00	 2.2519409110e-01	 4.3567530282e+00
 1.6354902088e+00	 2.3954646643e-01	 3.9849544157e+00
 1.6333200183e+00	 2.5392218136e-01	 3.5717869550e+00
 1.6310166765e+00	 2.6831957851e-01	 3.1389902742e+00
 1.6285793351e+00	 2.8273697561e-01	 2.7077653891e+00
 1.6558224194e+00	 1.4040516544e-01	 4.7204156099e+00
 1.6545518329e+00	 1.5465982701e-01	 5.1465626982e+00
 1.6531539995e+00	 1.6894740761e-01	 5.3773739293e+00
 1.6516279099e+00	 1.8326639746e-01	 5.4362334294e+00
 1.6499725752e+00	 1.9761526003e-01	 5.3464080248e+00
 1.6481870273e+00	 2.1199243226e-01	 5.1309857284e+00
 1.6462703197e+00	 2.2639632486e-01	 4.8128127851e+00
 1.6442215283e+00	 2.4082532259e-01	 4.4144292449e+00
 1.6420397519e+00	 2.5527778452e-01	 3.9580030349e+00
 1.6397241134e+00	 2.6975204441e-01	 3.4652625016e+00
 1.6372737599e+00	 2.8424641104e-01	 2.9574273975e+00
 1.6646153182e+00	 1.4115075772e-01	 4.8834929329e+00
 1.6633379846e+00	 1.5548111569e-01	 5.3238841182e+00
 1.6619327282e+00	 1.6984456751e-01	 5.5722064510e+00
 1.6603985347e+00	 1.8423959536e-01	 5.6493206380e+00
 1.6587344097e+00	 1.9866465456e-01	 5.5760103638e+00
 1.6569393800e+00	 2.1311817376e-01	 5.3729250014e+00
 1.6550124942e+00	 2.2759855522e-01	 5.0605209191e+00
 1.6529528230e+00	 2.4210417513e-01	 4.6590013423e+00
 1.6507594608e+00	 2.5663338383e-01	 4.1882547326e+00
 1.6484315255e+00	 2.7118450626e-01	 3.6677916436e+00
 1.6459681599e+00	 2.8575584219e-01	 3.1166800166e+00
 1.6734081872e+00	 1.4189634747e-01	 4.9492357072e+00
 1.6721241064e+00	 1.5630240158e-01	 5.3407221467e+00
 1.6707114272e+00	 1.7074172435e-01	 5.5634532636e+00
 1.6691691297e+00	 1.8521278995e-01	 5.6334577769e+00
 1.6674962144e+00	 1.9971404552e-01	 5.5667423912e+00
 1.6656917030e+00	 2.1424391143e-01	 5.3792420929e+00
 1.6637546389e+00	 2.2880078150e-01	 5.0867691366e+00
 1.6616840881e+00	 2.4338302331e-01	 4.7049606695e+00
 1.6594791400e+00	 2.5798897854e-01	 4.2492249384e+00
 1.6571389081e+00	 2.7261696323e-01	 3.7346860271e+00
 1.6546625304e+00	 2.8726526821e-01	 3.1761270697e+00
 1.6822010213e+00	 1.4264193426e-01	 4.9266913665e+00
 1.6809101933e+00	 1.5712368422e-01	 5.2004821045e+00
 1.6794900913e+00	 1.7163887763e-01	 5.3496251071e+00
 1.6779396898e+00	 1.8618598067e-01	 5.3830466101e+00
 1.6762579843e+00	 2.0076343232e-01	 5.3097204690e+00
 1.6744439912e+00	 2.1536964464e-01	 5.1386293734e+00
 1.6724967489e+00	 2.3000300300e-01	 4.8787249058e+00
 1.6704153185e+00	 2.4466186643e-01	 4.5388863703e+00
 1.6681987847e+00	 2.5934456787e-01	 4.1278783225e+00
 1.6658462561e+00	 2.7404941453e-01	 3.6543067259e+00
 1.6633568665e+00	 2.8877468824e-01	 3.1265736616e+00
 1.6909938155e+00	 1.4338751767e-01	 4.8247164351e+00
 1.6896962404e+00	 1.5794496313e-01	 4.9064963650e+00
 1.6882687155e+00	 1.7253602685e-01	 4.9292622721e+00
 1.6867102102e+00	 1.8715916699e-01	 4.8926046755e+00
 1.6850197145e+00	 2.0181281437e-01	 4.7962458713e+00
 1.6831962397e+00	 2.1649537274e-01	 4.6400153748e+00
 1.6812388193e+00	 2.3120521906e-01	 4.4238244118e+00
 1.6791465094e+00	 2.4594070375e-01	 4.1476393708e+00
 1.6769183898e+00	 2.6070015105e-01	 3.8114541191e+00
 1.6745535646e+00	 2.7548185933e-01	 3.4152610878e+00
 1.6720511631e+00	 2.9028410143e-01	 2.9590210288e+00
 1.6997865649e+00	 1.4413309728e-01	 4.6519815930e+00
 1.6984822427e+00	 1.5876623785e-01	 4.4620263691e+00
 1.6970472951e+00	 1.7343317150e-01	 4.3009339645e+00
 1.6954806859e+00	 1.8813234834e-01	 4.1567624183e+00
 1.6937814001e+00	 2.0286219106e-01	 4.0178001297e+00
 1.6919484436e+00	 2.1762109510e-01	 3.8725588060e+00
 1.6899808451e+00	 2.3240742898e-01	 3.7097657266e+00
 1.6878776557e+00	 2.4721953454e-01	 3.5183552047e+00
 1.6856379504e+00	 2.6205572732e-01	 3.2874591286e+00
 1.6832608288e+00	 2.7691429682e-01	 3.0063964568e+00
 1.6807454153e+00	 2.9179350692e-01	 2.6646615430e+00
 1.5938014885e+00	 2.7669920824e-01	 1.0002938870e+00
 1.5912846913e+00	 2.9082422635e-01	 1.1632029970e+00
 1.5886352143e+00	 3.0496545179e-01	 1.2835272700e+00
 1.5858523025e+00	 3.1912117227e-01	 1.3628074954e+00
 1.5829352275e+00	 3.3328965288e-01	 1.4023370814e+00
 1.5798832881e+00	 3.4746913652e-01	 1.4031222302e+00
 1.5766958111e+00	 3.6165784435e-01	 1.3658408128e+00
 1.5733721522e+00	 3.7585397630e-01	 1.2969482237e+00
 1.5699116960e+00	 3.9005571159e-01	 1.2570306127e+00
 1.5663138575e+00	 4.0426120927e-01	 1.2594135597e+00
 1.5625780821e+00	 4.1846860876e-01	 1.3013099395e+00
 1.6024959625e+00	 2.7820865222e-01	 1.5134166913e+00
 1.5999654357e+00	 2.9241072485e-01	 1.4929680072e+00
 1.5973015053e+00	 3.0662909321e-01	 1.4363016329e+00
 1.5945034123e+00	 3.2086203570e-01	 1.3471058049e+00
 1.5915704241e+00	 3.3510780793e-01	 1.2289348900e+00
 1.5885018358e+00	 3.4936464320e-01	 1.0851688542e+00
 1.5852969706e+00	 3.6363075298e-01	 9.1897121983e-01
 1.5819551804e+00	 3.7790432738e-01	 7.4487173437e-01
 1.5784758469e+00	 3.9218353570e-01	 6.2758187947e-01
 1.5748583815e+00	 4.0646652693e-01	 5.7662892633e-01
 1.5711022268e+00	 4.2075143034e-01	 5.9193228007e-01
 1.6111904315e+00	 2.7971809535e-01	 1.9758363445e+00
 1.6086461751e+00	 2.9399722245e-01	 1.7920156642e+00
 1.6059677914e+00	 3.0829273370e-01	 1.5775343980e+00
 1.6031545171e+00	 3.2260289814e-01	 1.3380486481e+00
 1.6002056158e+00	 3.3692596194e-01	 1.0791697062e+00
 1.5971203786e+00	 3.5126014880e-01	 8.0642261112e-01
 1.5938981251e+00	 3.6560366050e-01	 5.2520300744e-01
 1.5905382038e+00	 3.7995467731e-01	 2.5954918437e-01
 1.5870399929e+00	 3.9431135861e-01	 7.4580584504e-02
 1.5834029007e+00	 4.0867184334e-01	-2.2677791219e-02
 1.5796263666e+00	 4.2303425063e-01	-2.9957090409e-02
 1.6198848907e+00	 2.8122753676e-01	 2.3772967598e+00
 1.6173269048e+00	 2.9558371825e-01	 2.0532018243e+00
 1.6146340677e+00	 3.0995637230e-01	 1.7027957633e+00
 1.6118056121e+00	 3.2434375861e-01	 1.3335253723e+00
 1.6088407976e+00	 3.3874411389e-01	 9.5285753751e-01
 1.6057389116e+00	 3.5315565226e-01	 5.6823667789e-01
 1.6024992699e+00	 3.6757656578e-01	 1.8704033021e-01
 1.5991212175e+00	 3.8200502492e-01	-1.5576361788e-01
 1.5956041292e+00	 3.9643917910e-01	-3.9834611540e-01
 1.5919474102e+00	 4.1087715725e-01	-5.3488240121e-01
 1.5881504968e+00	 4.2531706833e-01	-5.6110669802e-01
 1.6285793351e+00	 2.8273697561e-01	 2.7077653891e+00
 1.6260076197e+00	 2.9717021135e-01	 2.2695401496e+00
 1.6233003293e+00	 3.1162000807e-01	 1.8077564209e+00
 1.6204566925e+00	 3.2608461613e-01	 1.3314768705e+00
 1.6174759649e+00	 3.4056226275e-01	 8.4982528606e-01
 1.6143574300e+00	 3.5505115249e-01	 3.7194270319e-01
 1.6111004001e+00	 3.6954946770e-01	-9.3058457118e-02
 1.6077042166e+00	 3.8405536903e-01	-4.9787634287e-01
 1.6041682509e+00	 3.9856699598e-01	-7.8764422671e-01
 1.6004919051e+00	 4.1308246741e-01	-9.5643359110e-01
 1.5966746125e+00	 4.2759988214e-01	-9.9832979369e-01
 1.6372737599e+00	 2.8424641104e-01	 2.9574273975e+00
 1.6346883149e+00	 2.9875670086e-01	 2.4341980111e+00
 1.6319665712e+00	 3.1328364007e-01	 1.8881849613e+00
 1.6291077532e+00	 3.2782546969e-01	 1.3298942596e+00
 1.6261111125e+00	 3.4238040749e-01	 7.6991047734e-01
 1.6229759289e+00	 3.5694664843e-01	 2.1885136313e-01
 1.6197015108e+00	 3.7152236516e-01	-3.1241856964e-01
 1.6162871963e+00	 3.8610570850e-01	-7.6366235260e-01
 1.6127323533e+00	 4.0069480803e-01	-1.0898309370e+00
 1.6090363807e+00	 4.1528777257e-01	-1.2838509635e+00
 1.6051987089e+00	 4.2988269079e-01	-1.3385026173e+00
 1.6459681599e+00	 2.8575584219e-01	 3.1166800166e+00
 1.6433689855e+00	 3.0034318587e-01	 2.5404925147e+00
 1.6406327886e+00	 3.1494726736e-01	 1.9399453519e+00
 1.6377587894e+00	 3.2956631833e-01	 1.3268175928e+00
 1.6347462357e+00	 3.4419854708e-01	 7.1296098826e-01
 1.6315944033e+00	 3.5884213900e-01	 1.1025288965e-01
 1.6283025971e+00	 3.7349525702e-01	-4.6746989222e-01
 1.6248701516e+00	 3.8815604216e-01	-9.5005697406e-01
 1.6212964313e+00	 4.0282261406e-01	-1.3014927004e+00
 1.6175808321e+00	 4.1749307148e-01	-1.5137231389e+00
 1.6137227811e+00	 4.3216549296e-01	-1.5785627219e+00
 1.6546625304e+00	 2.8726526821e-01	 3.1761270697e+00
 1.6520496266e+00	 3.0192966549e-01	 2.5818866463e+00
 1.6492989764e+00	 3.1661088899e-01	 1.9589944879e+00
 1.6464097962e+00	 3.3130716104e-01	 1.3203346041e+00
 1.6433813295e+00	 3.4601668049e-01	 6.7883477494e-01
 1.6402128484e+00	 3.6073762312e-01	 4.7417572353e-02
 1.6369036542e+00	 3.7546814218e-01	-5.5574661681e-01
 1.6334530777e+00	 3.9020636885e-01	-1.0540558313e+00
 1.6298604803e+00	 4.0495041285e-01	-1.4192833872e+00
 1.6261252544e+00	 4.1969836290e-01	-1.6427059239e+00
 1.6222468243e+00	 4.3444828738e-01	-1.7155073565e+00
 1.6633568665e+00	 2.8877468824e-01	 3.1265736616e+00
 1.6607302332e+00	 3.0351613881e-01	 2.5519855298e+00
 1.6579651300e+00	 3.1827450402e-01	 1.9413798119e+00
 1.6550607686e+00	 3.3304799685e-01	 1.3085794840e+00
 1.6520163890e+00	 3.4783480668e-01	 6.6739960014e-01
 1.6488312594e+00	 3.6263309972e-01	 3.1596234926e-02
 1.6455046771e+00	 3.7744101951e-01	-5.7497822555e-01
 1.6420359698e+00	 3.9225668741e-01	-1.0727132340e+00
 1.6384244952e+00	 4.0707820320e-01	-1.4399224970e+00
 1.6346696428e+00	 4.2190364556e-01	-1.6675205407e+00
 1.6307708338e+00	 4.3673107273e-01	-1.7463919041e+00
 1.6720511631e+00	 2.9028410143e-01	 2.9590210288e+00
 1.6694108005e+00	 3.0510260495e-01	 2.4445327963e+00
 1.6666312442e+00	 3.1993811150e-01	 1.8832370012e+00
 1.6637117019e+00	 3.3478882476e-01	 1.2897316854e+00
 1.6606514094e+00	 3.4965292463e-01	 6.7853276024e-01
 1.6574496312e+00	 3.6452856773e-01	 6.4020686931e-02
 1.6541056611e+00	 3.7941388789e-01	-5.2293750607e-01
 1.6506188229e+00	 3.9430699667e-01	-1.0031406204e+00
 1.6469884714e+00	 4.0920598390e-01	-1.3601934311e+00
 1.6432139925e+00	 4.2410891823e-01	-1.5849519170e+00
 1.6392948045e+00	 4.3901384774e-01	-1.6683283738e+00
 1.6807454153e+00	 2.9179350692e-01	 2.6646615430e+00
 1.6780913235e+00	 3.0668906299e-01	 2.2534070581e+00
 1.6752973142e+00	 3.2160171051e-01	 1.7807877191e+00
 1.6723625910e+00	 3.3652964380e-01	 1.2620147588e+00
 1.6692863858e+00	 3.5147103331e-01	 7.1212081197e-01
 1.6660679591e+00	 3.6642402607e-01	 1.4590415197e-01
 1.6627066012e+00	 3.8138674621e-01	-3.9743939514e-01
 1.6592016323e+00	 3.9635729548e-01	-8.4250505274e-01
 1.6555524039e+00	 4.1133375375e-01	-1.1769418233e+00
 1.6517582986e+00	 4.2631417965e-01	-1.3918470343e+00
 1.6478187318e+00	 4.4129661111e-01	-1.4784839454e+00
 1.5625780821e+00	 4.1846860876e-01	 1.3013099395e+00
 1.5587038468e+00	 4.3267603064e-01	 1.3890088379e+00
 1.5546906618e+00	 4.4688157787e-01	 1.5202739554e+00
 1.5505380703e+00	 4.6108333583e-01	 1.6792794235e+00
 1.5462456483e+00	 4.7527937279e-01	 1.8500282881e+00
 1.5418130057e+00	 4.8946774058e-01	 2.0163701096e+00
 1.5372397864e+00	 5.0364647525e-01	 2.1620192772e+00
 1.5325256694e+00	 5.1781359778e-01	 2.2705740246e+00
 1.5276703685e+00	 5.3196711483e-01	 2.3255361329e+00
 1.5226736338e+00	 5.4610501945e-01	 2.3103313076e+00
 1.5175352514e+00	 5.6022529188e-01	 2.2083302116e+00
 1.5711022268e+00	 4.2075143034e-01	 5.9193228007e-01
 1.5672068568e+00	 4.3503635627e-01	 6.8149415107e-01
 1.5631717792e+00	 4.4931939731e-01	 8.3997687981e-01
 1.5589965345e+00	 4.6359862841e-01	 1.0470748110e+00
 1.5546806966e+00	 4.7787210732e-01	 1.2822538600e+00
 1.5502238731e+00	 4.9213787521e-01	 1.5247745328e+00
 1.5456257061e+00	 5.0639395742e-01	 1.7537158293e+00
 1.5408858727e+00	 5.2063836415e-01	 1.9480000110e+00
 1.5360040853e+00	 5.3486909118e-01	 2.0864182140e+00
 1.5309800925e+00	 5.4908412062e-01	 2.1476568872e+00
 1.5258136793e+00	 5.6328142167e-01	 2.1103250320e+00
 1.5796263666e+00	 4.2303425063e-01	-2.9957090409e-02
 1.5757098620e+00	 4.3739668055e-01	 6.1535537972e-02
 1.5716528918e+00	 4.5175721537e-01	 2.4321577896e-01
 1.5674549940e+00	 4.6611391957e-01	 4.9109687075e-01
 1.5631157401e+00	 4.8046484037e-01	 7.8091778914e-01
 1.5586347358e+00	 4.9480800831e-01	 1.0881708190e+00
 1.5540116211e+00	 5.0914143803e-01	 1.3881301473e+00
 1.5492460713e+00	 5.2346312893e-01	 1.6558814539e+00
 1.5443377974e+00	 5.3777106590e-01	 1.8663524784e+00
 1.5392865465e+00	 5.5206322010e-01	 1.9943445340e+00
 1.5340921025e+00	 5.6633754974e-01	 2.0145649429e+00
 1.5881504968e+00	 4.2531706833e-01	-5.6110669802e-01
 1.5842128576e+00	 4.3975700216e-01	-4.6812964373e-01
 1.5801339947e+00	 4.5419503066e-01	-2.6771100139e-01
 1.5759134438e+00	 4.6862920788e-01	 1.3266939595e-02
 1.5715507741e+00	 4.8305757048e-01	 3.4761316854e-01
 1.5670455889e+00	 4.9747813840e-01	 7.0785921538e-01
 1.5623975266e+00	 5.1188891553e-01	 1.0662915424e+00
 1.5576062605e+00	 5.2628789050e-01	 1.3949850392e+00
 1.5526715001e+00	 5.4067303732e-01	 1.6658375934e+00
 1.5475929911e+00	 5.5504231621e-01	 1.8506057052e+00
 1.5423705164e+00	 5.6939367434e-01	 1.9209411160e+00
 1.5966746125e+00	 4.2759988214e-01	-9.9832979369e-01
 1.5927158387e+00	 4.4211731976e-01	-9.0481761336e-01
 1.5886150833e+00	 4.5663284181e-01	-6.9054917231e-01
 1.5843718793e+00	 4.7114449192e-01	-3.8452952723e-01
 1.5799857937e+00	 4.8565029619e-01	-1.6095674772e-02
 1.5754564278e+00	 5.0014826394e-01	 3.8511754784e-01
 1.5707834178e+00	 5.1463638836e-01	 7.8921277059e-01
 1.5659664354e+00	 5.2911264727e-01	 1.1660665776e+00
 1.5610051885e+00	 5.4357500381e-01	 1.4853671416e+00
 1.5558994216e+00	 5.5802140725e-01	 1.7166529729e+00
 1.5506489162e+00	 5.7244979375e-01	 1.8293527467e+00
 1.6051987089e+00	 4.2988269079e-01	-1.3385026173e+00
 1.6012188005e+00	 4.4447763201e-01	-1.2458967402e+00
 1.5970961526e+00	 4.5907064744e-01	-1.0230873414e+00
 1.5928302956e+00	 4.7365977025e-01	-7.0044202805e-01
 1.5884207942e+00	 4.8824301602e-01	-3.0867245640e-01
 1.5838672476e+00	 5.0281838343e-01	 1.2120175965e-01
 1.5791692900e+00	 5.1738385496e-01	 5.5789039744e-01
 1.5743265914e+00	 5.3193739763e-01	 9.6987120035e-01
 1.5693388581e+00	 5.4647696372e-01	 1.3254296450e+00
 1.5642058333e+00	 5.6100049153e-01	 1.5926998650e+00
 1.5589272972e+00	 5.7550590622e-01	 1.7397066927e+00
 1.6137227811e+00	 4.3216549296e-01	-1.5785627219e+00
 1.6097217383e+00	 4.4683793757e-01	-1.4887861674e+00
 1.6055771979e+00	 4.6150844616e-01	-1.2631558954e+00
 1.6012886880e+00	 4.7617504145e-01	-9.3265412243e-01
 1.5968557708e+00	 4.9083572850e-01	-5.2860824108e-01
 1.5922780435e+00	 5.0548849535e-01	-8.2653575008e-02
 1.5875551384e+00	 5.2013131378e-01	 3.7330514374e-01
 1.5826867237e+00	 5.3476213999e-01	 8.0713354159e-01
 1.5776725041e+00	 5.4937891540e-01	 1.1865085795e+00
 1.5725122214e+00	 5.6397956738e-01	 1.4789607012e+00
 1.5672056547e+00	 5.7856201004e-01	 1.6519171130e+00
 1.6222468243e+00	 4.3444828738e-01	-1.7155073565e+00
 1.6182246471e+00	 4.4919823510e-01	-1.6309544846e+00
 1.6140582143e+00	 4.6394623659e-01	-1.4086259241e+00
 1.6097470516e+00	 4.7869030411e-01	-1.0793825734e+00
 1.6052907188e+00	 4.9342843217e-01	-6.7442077783e-01
 1.6006888109e+00	 5.0815859820e-01	-2.2523476069e-01
 1.5959409583e+00	 5.2287876325e-01	 2.3642221270e-01
 1.5910468275e+00	 5.3758687275e-01	 6.7857790583e-01
 1.5860061218e+00	 5.5228085722e-01	 1.0690823802e+00
 1.5808185813e+00	 5.6695863310e-01	 1.3756504256e+00
 1.5754839841e+00	 5.8161810347e-01	 1.5659051104e+00
 1.6307708338e+00	 4.3673107273e-01	-1.7463919041e+00
 1.6267275222e+00	 4.5155852327e-01	-1.6699184483e+00
 1.6225391971e+00	 4.6638401734e-01	-1.4574081836e+00
 1.6182053816e+00	 4.8120555678e-01	-1.1388765231e+00
 1.6137256332e+00	 4.9602112555e-01	-7.4465386276e-01
 1.6090995449e+00	 5.1082869045e-01	-3.0534851290e-01
 1.6043267450e+00	 5.2562620183e-01	 1.4819159914e-01
 1.5994068982e+00	 5.4041159430e-01	 5.8491842276e-01
 1.5943397063e+00	 5.5518278753e-01	 9.7362443854e-01
 1.5891249082e+00	 5.6993768700e-01	 1.2829844359e+00
 1.5837622807e+00	 5.8467418477e-01	 1.4815983748e+00
 1.6392948045e+00	 4.3901384774e-01	-1.6683283738e+00
 1.6352303588e+00	 4.5391880074e-01	-1.6032417473e+00
 1.6310201415e+00	 4.6882178705e-01	-1.4074520984e+00
 1.6266636733e+00	 4.8372079805e-01	-1.1094167001e+00
 1.6221605095e+00	 4.9861380718e-01	-7.3787672843e-01
 1.6175102407e+00	 5.1349877060e-01	-3.2182151203e-01
 1.6127124936e+00	 5.2837362795e-01	 1.0954838153e-01
 1.6077669310e+00	 5.4323630305e-01	 5.2685918900e-01
 1.6026732531e+00	 5.5808470469e-01	 9.0060309059e-01
 1.5974311975e+00	 5.7291672739e-01	 1.2011784088e+00
 1.5920405398e+00	 5.8773025222e-01	 1.3989308287e+00
 1.6478187318e+00	 4.4129661111e-01	-1.4784839454e+00
 1.6437331520e+00	 4.5627906618e-01	-1.4285338118e+00
 1.6395010426e+00	 4.7125954432e-01	-1.2567448001e+00
 1.6351219218e+00	 4.8623602649e-01	-9.8931465800e-01
 1.6305953427e+00	 5.0120647558e-01	-6.5268345901e-01
 1.6259208937e+00	 5.1616883713e-01	-2.7349997841e-01
 1.6210981995e+00	 5.3112104005e-01	 1.2141299734e-01
 1.6161269212e+00	 5.4606099739e-01	 5.0509439750e-01
 1.6110067574e+00	 5.6098660704e-01	 8.5048159786e-01
 1.6057374444e+00	 5.7589575259e-01	 1.1304481215e+00
 1.6003187566e+00	 5.9078630409e-01	 1.3178422742e+00
 1.5175352514e+00	 5.6022529188e-01	 2.2083302116e+00
 1.5122541343e+00	 5.7432829563e-01	 2.0455225606e+00
 1.5068310035e+00	 5.8840958390e-01	 1.8657613611e+00
 1.5012657558e+00	 6.0246710142e-01	 1.6792699216e+00
 1.4955583263e+00	 6.1649878331e-01	 1.4964847632e+00
 1.4897086883e+00	 6.3050255592e-01	 1.3280502993e+00
 1.4837168546e+00	 6.4447633766e-01	 1.1848133967e+00
 1.4775828767e+00	 6.5841803993e-01	 1.0788030929e+00
 1.4713068460e+00	 6.7232556799e-01	 1.0248997718e+00
 1.4648888939e+00	 6.8619682187e-01	 1.0349233392e+00
 1.4583291918e+00	 7.0002969732e-01	 1.1204702570e+00
 1.5258136793e+00	 5.6328142167e-01	 2.1103250320e+00
 1.5205037528e+00	 5.7746135985e-01	 1.9970001120e+00
 1.5150510379e+00	 5.9161946408e-01	 1.8527546931e+00
 1.5094554307e+00	 6.0575366789e-01	 1.6900009406e+00
 1.5037168661e+00	 6.1986189513e-01	 1.5213437696e+00
 1.4978353174e+00	 6.3394206084e-01	 1.3595721879e+00
 1.4918107970e+00	 6.4799207207e-01	 1.2176505043e+00
 1.4856433572e+00	 6.6200982884e-01	 1.1087094207e+00
 1.4793330897e+00	 6.7599322497e-01	 1.0463300007e+00
 1.4728801265e+00	 6.8994014904e-01	 1.0476661094e+00
 1.4662846400e+00	 7.0384848532e-01	 1.1274407028e+00
 1.5340921025e+00	 5.6633754974e-01	 2.0145649429e+00
 1.5287533666e+00	 5.8059442230e-01	 1.9463610491e+00
 1.5232710675e+00	 5.9482934244e-01	 1.8353217967e+00
 1.5176451010e+00	 6.0904023250e-01	 1.6955813919e+00
 1.5118754013e+00	 6.2322500505e-01	 1.5414471221e+00
 1.5059619418e+00	 6.3738156381e-01	 1.3873879957e+00
 1.4999047349e+00	 6.5150780450e-01	 1.2480232383e+00
 1.4937038332e+00	 6.6560161572e-01	 1.1381106671e+00
 1.4873593288e+00	 6.7966087987e-01	 1.0725349689e+00
 1.4808713545e+00	 6.9368347409e-01	 1.0663192173e+00
 1.4742400837e+00	 7.0766727115e-01	 1.1376624369e+00
 1.5423705164e+00	 5.6939367434e-01	 1.9209411160e+00
 1.5370029711e+00	 5.8372748119e-01	 1.8931858022e+00
 1.5314910879e+00	 5.9803921717e-01	 1.8127990564e+00
 1.5258347620e+00	 6.1232679338e-01	 1.6951779865e+00
 1.5200339273e+00	 6.2658811115e-01	 1.5558739034e+00
 1.5140885570e+00	 6.4082106288e-01	 1.4105788839e+00
 1.5079986637e+00	 6.5502353294e-01	 1.2751121873e+00
 1.5017643000e+00	 6.6919339852e-01	 1.1654065545e+00
 1.4953855588e+00	 6.8332853062e-01	 1.0974944150e+00
 1.4888625735e+00	 6.9742679489e-01	 1.0874940309e+00
 1.4821955184e+00	 7.1148605264e-01	 1.1515956067e+00
 1.5506489162e+00	 5.7244979375e-01	 1.8293527467e+00
 1.5452525615e+00	 5.8686053476e-01	 1.8370695374e+00
 1.5397110943e+00	 6.0124908643e-01	 1.7845428855e+00
 1.5340244090e+00	 6.1561334867e-01	 1.6879811764e+00
 1.5281924394e+00	 6.2995121153e-01	 1.5637289045e+00
 1.5222151584e+00	 6.4426055611e-01	 1.4282517793e+00
 1.5160925786e+00	 6.5853925540e-01	 1.2981216921e+00
 1.5098247531e+00	 6.7278517522e-01	 1.1900015721e+00
 1.5034117752e+00	 6.8699617512e-01	 1.1206301634e+00
 1.4968537789e+00	 7.0117010933e-01	 1.1068067529e+00
 1.4901509396e+00	 7.1530482765e-01	 1.1653758829e+00
 1.5589272972e+00	 5.7550590622e-01	 1.7397066927e+00
 1.5535021333e+00	 5.8999358122e-01	 1.7776215960e+00
 1.5479310820e+00	 6.0445894843e-01	 1.7499290066e+00
 1.5422140375e+00	 6.1889989652e-01	 1.6732043173e+00
 1.5363509330e+00	 6.3331430430e-01	 1.5641417148e+00
 1.5303417413e+00	 6.4770004154e-01	 1.4395384448e+00
 1.5241864753e+00	 6.6205496989e-01	 1.3162789496e+00
 1.5178851880e+00	 6.7637694377e-01	 1.2113189107e+00
 1.5114379733e+00	 6.9066381132e-01	 1.1416692281e+00
 1.5048449662e+00	 7.0491341528e-01	 1.1243799718e+00
 1.4981063427e+00	 7.1912359400e-01	 1.1765243374e+00
 1.5672056547e+00	 5.7856201004e-01	 1.6519171130e+00
 1.5617516816e+00	 5.9312661881e-01	 1.7144649433e+00
 1.5561510465e+00	 6.0766880132e-01	 1.7083517448e+00
 1.5504036428e+00	 6.2218643505e-01	 1.6500828464e+00
 1.5445094035e+00	 6.3667738753e-01	 1.5562658305e+00
 1.5384683013e+00	 6.5113951722e-01	 1.4435945657e+00
 1.5322803489e+00	 6.6557067442e-01	 1.3288331319e+00
 1.5259456000e+00	 6.7996870215e-01	 1.2287996711e+00
 1.5194641488e+00	 6.9433143712e-01	 1.1603501980e+00
 1.5128361308e+00	 7.0865671063e-01	 1.1403624057e+00
 1.5060617233e+00	 7.2294234953e-01	 1.1857195016e+00
 1.5754839841e+00	 5.8161810347e-01	 1.5659051104e+00
 1.5700012019e+00	 5.9625964575e-01	 1.6472356244e+00
 1.5643709830e+00	 6.1087864331e-01	 1.6592233323e+00
 1.5585932203e+00	 6.2547296241e-01	 1.6178734759e+00
 1.5526678463e+00	 6.4004045933e-01	 1.5392777799e+00
 1.5465948336e+00	 6.5457898121e-01	 1.4395988551e+00
 1.5403741951e+00	 6.6908636699e-01	 1.3350545220e+00
 1.5340059846e+00	 6.8356044832e-01	 1.2419020866e+00
 1.5274902969e+00	 6.9799905045e-01	 1.1764226042e+00
 1.5208272683e+00	 7.1239999324e-01	 1.1549051656e+00
 1.5140170769e+00	 7.2676109208e-01	 1.1936312435e+00
 1.5837622807e+00	 5.8467418477e-01	 1.4815983748e+00
 1.5782506895e+00	 5.9939266026e-01	 1.5755822268e+00
 1.5725908869e+00	 6.1408847256e-01	 1.6019732248e+00
 1.5667827652e+00	 6.2875947673e-01	 1.5758534011e+00
 1.5608262567e+00	 6.4340351778e-01	 1.5123762646e+00
 1.5547213337e+00	 6.5801843155e-01	 1.4267521739e+00
 1.5484680092e+00	 6.7260204562e-01	 1.3342336635e+00
 1.5420663372e+00	 6.8715218024e-01	 1.2501007560e+00
 1.5355164132e+00	 7.0166664924e-01	 1.1896462949e+00
 1.5288183741e+00	 7.1614326101e-01	 1.1681613335e+00
 1.5219723988e+00	 7.3057981947e-01	 1.2009206137e+00
 1.5920405398e+00	 5.8773025222e-01	 1.3989308287e+00
 1.5865001397e+00	 6.0252566056e-01	 1.4991653504e+00
 1.5808107535e+00	 6.1729828726e-01	 1.5360474292e+00
 1.5749722730e+00	 6.3204597615e-01	 1.5233195218e+00
 1.5689846301e+00	 6.4676656100e-01	 1.4747813166e+00
 1.5628477969e+00	 6.6145786631e-01	 1.4042766681e+00
 1.5565617865e+00	 6.7611770832e-01	 1.3256805257e+00
 1.5501266533e+00	 6.9074389587e-01	 1.2528858884e+00
 1.5435424931e+00	 7.0533423139e-01	 1.1997908168e+00
 1.5368094436e+00	 7.1988651181e-01	 1.1802855391e+00
 1.5299276848e+00	 7.3439852956e-01	 1.2082396827e+00
 1.6003187566e+00	 5.9078630409e-01	 1.3178422742e+00
 1.5947495478e+00	 6.0565864489e-01	 1.4176570847e+00
 1.5890305782e+00	 6.2050808558e-01	 1.4609078415e+00
 1.5831617391e+00	 6.3533245882e-01	 1.4595876781e+00
 1.5771429619e+00	 6.5012958706e-01	 1.4257334701e+00
 1.5709742187e+00	 6.6489728352e-01	 1.3714149200e+00
 1.5646555226e+00	 6.7963335308e-01	 1.3087236823e+00
 1.5581869283e+00	 6.9433559319e-01	 1.2497625598e+00
 1.5515685321e+00	 7.0900179485e-01	 1.2066348022e+00
 1.5448004724e+00	 7.2362974352e-01	 1.1914335372e+00
 1.5378829301e+00	 7.3821722017e-01	 1.2162313686e+00
 1.4583291918e+00	 7.0002969732e-01	 1.1204702570e+00
 1.4516291026e+00	 7.1381974571e-01	 1.2556753496e+00
 1.4447877749e+00	 7.2756721209e-01	 1.4019256370e+00
 1.4378055012e+00	 7.4126998530e-01	 1.5517173660e+00
 1.4306826148e+00	 7.5492595365e-01	 1.6957283975e+00
 1.4234194906e+00	 7.6853300592e-01	 1.8258282764e+00
 1.4160165444e+00	 7.8208903234e-01	 1.9358511572e+00
 1.4084742337e+00	 7.9559192559e-01	 2.0196125941e+00
 1.4007930576e+00	 8.0903958181e-01	 2.0709119143e+00
 1.3929735565e+00	 8.2242990157e-01	 2.0835345866e+00
 1.3850163128e+00	 8.3576079094e-01	 2.0512546223e+00
 1.4662846400e+00	 7.0384848532e-01	 1.1274407028e+00
 1.4595480006e+00	 7.1771376089e-01	 1.2613842776e+00
 1.4526693522e+00	 7.3153622218e-01	 1.4105171287e+00
 1.4456489890e+00	 7.4531374649e-01	 1.5661861264e+00
 1.4384872460e+00	 7.5904421060e-01	 1.7176395567e+00
 1.4311845001e+00	 7.7272549179e-01	 1.8569588881e+00
 1.4237411695e+00	 7.8635546877e-01	 1.9771966344e+00
 1.4161577141e+00	 7.9993202274e-01	 2.0714252270e+00
 1.4084346358e+00	 8.1345303834e-01	 2.1327406267e+00
 1.4005724780e+00	 8.2691640471e-01	 2.1542658841e+00
 1.3925718260e+00	 8.4032001648e-01	 2.1291546827e+00
 1.4742400837e+00	 7.0766727115e-01	 1.1376624369e+00
 1.4674668941e+00	 7.2160777388e-01	 1.2663935739e+00
 1.4605509251e+00	 7.3550523002e-01	 1.4140158894e+00
 1.4534924723e+00	 7.4935750538e-01	 1.5707159897e+00
 1.4462918727e+00	 7.6316246522e-01	 1.7253237396e+00
 1.4389495052e+00	 7.7691797528e-01	 1.8700518274e+00
 1.4314657902e+00	 7.9062190279e-01	 1.9974627189e+00
 1.4238411902e+00	 8.0427211742e-01	 2.1001685679e+00
 1.4160762097e+00	 8.1786649237e-01	 2.1708355725e+00
 1.4081713952e+00	 8.3140290530e-01	 2.2021882412e+00
 1.4001273350e+00	 8.4487923943e-01	 2.1870136001e+00
 1.4821955184e+00	 7.1148605264e-01	 1.1515956067e+00
 1.4753857787e+00	 7.2550178244e-01	 1.2717565456e+00
 1.4684324891e+00	 7.3947423337e-01	 1.4139038742e+00
 1.4613359468e+00	 7.5340125969e-01	 1.5670829677e+00
 1.4540964906e+00	 7.6728071517e-01	 1.7206870799e+00
 1.4467145015e+00	 7.8111045402e-01	 1.8669923258e+00
 1.4391904022e+00	 7.9488833197e-01	 1.9983579004e+00
 1.4315246576e+00	 8.0861220719e-01	 2.1072138014e+00
 1.4237177750e+00	 8.2227994140e-01	 2.1860654416e+00
 1.4157703037e+00	 8.3588940081e-01	 2.2274981366e+00
 1.4076828354e+00	 8.4943845722e-01	 2.2241815042e+00
 1.4901509396e+00	 7.1530482765e-01	 1.1653758829e+00
 1.4833046498e+00	 7.2939578439e-01	 1.2783275129e+00
 1.4763140396e+00	 7.4344322996e-01	 1.4115643732e+00
 1.4691794079e+00	 7.5744500713e-01	 1.5570324757e+00
 1.4619010953e+00	 7.7139895812e-01	 1.7056018421e+00
 1.4544794846e+00	 7.8530292564e-01	 1.8496316836e+00
 1.4469150010e+00	 7.9915475390e-01	 1.9815599937e+00
 1.4392081119e+00	 8.1295228958e-01	 2.0939081180e+00
 1.4313593273e+00	 8.2669338292e-01	 2.1792851374e+00
 1.4233691993e+00	 8.4037588869e-01	 2.2303920998e+00
 1.4152383230e+00	 8.5399766725e-01	 2.2400261398e+00
 1.4981063427e+00	 7.1912359400e-01	 1.1765243374e+00
 1.4912235029e+00	 7.3328977751e-01	 1.2822714741e+00
 1.4841955723e+00	 7.4741221756e-01	 1.4077836056e+00
 1.4770228512e+00	 7.6148874540e-01	 1.5422798399e+00
 1.4697056822e+00	 7.7551719173e-01	 1.6819069851e+00
 1.4622444501e+00	 7.8949538775e-01	 1.8197878049e+00
 1.4546395824e+00	 8.0342116615e-01	 1.9487165571e+00
 1.4468915489e+00	 8.1729236213e-01	 2.0615749246e+00
 1.4390008622e+00	 8.3110681444e-01	 2.1513356871e+00
 1.4309680777e+00	 8.4486236640e-01	 2.2110662234e+00
 1.4227937935e+00	 8.5855686695e-01	 2.2339318840e+00
 1.5060617233e+00	 7.2294234953e-01	 1.1857195016e+00
 1.4991423336e+00	 7.3718375960e-01	 1.2826211484e+00
 1.4920770827e+00	 7.5138119391e-01	 1.3989577869e+00
 1.4848662724e+00	 7.6553247221e-01	 1.5238894938e+00
 1.4775102470e+00	 7.7963541367e-01	 1.6514086926e+00
 1.4700093936e+00	 7.9368783798e-01	 1.7792456994e+00
 1.4623641418e+00	 8.0768756632e-01	 1.9014452806e+00
 1.4545749640e+00	 8.2163242239e-01	 2.0115140308e+00
 1.4466423755e+00	 8.3552023346e-01	 2.1030441357e+00
 1.4385669346e+00	 8.4934883140e-01	 2.1697156730e+00
 1.4303492425e+00	 8.6311605373e-01	 2.2052987764e+00
 1.5140170769e+00	 7.2676109208e-01	 1.1936312435e+00
 1.5070611374e+00	 7.4107772844e-01	 1.2805637642e+00
 1.4999585662e+00	 7.5535015677e-01	 1.3851296411e+00
 1.4927096668e+00	 7.6957618527e-01	 1.4985777858e+00
 1.4853147853e+00	 7.8375362161e-01	 1.6151092297e+00
 1.4777743108e+00	 7.9788027396e-01	 1.7297579504e+00
 1.4700886750e+00	 8.1195395198e-01	 1.8413343431e+00
 1.4622583530e+00	 8.2597246788e-01	 1.9450018113e+00
 1.4542838628e+00	 8.3993363747e-01	 2.0352234250e+00
 1.4461657657e+00	 8.5383528115e-01	 2.1065341932e+00
 1.4379046659e+00	 8.6767522501e-01	 2.1535415589e+00
 1.5219723988e+00	 7.3057981947e-01	 1.2009206137e+00
 1.5149799098e+00	 7.4497168184e-01	 1.2770302635e+00
 1.5078400185e+00	 7.5931910388e-01	 1.3678182947e+00
 1.5005530302e+00	 7.7361988229e-01	 1.4670150387e+00
 1.4931192927e+00	 7.8787181322e-01	 1.5699861806e+00
 1.4855391971e+00	 8.0207269330e-01	 1.6722088574e+00
 1.4778131775e+00	 8.1622032071e-01	 1.7699427421e+00
 1.4699417115e+00	 8.3031249616e-01	 1.8632913448e+00
 1.4619253198e+00	 8.4434702397e-01	 1.9486722581e+00
 1.4537645665e+00	 8.5832171309e-01	 2.0217136095e+00
 1.4454600592e+00	 8.7223437821e-01	 2.0780887266e+00
 1.5299276848e+00	 7.3439852956e-01	 1.2082396827e+00
 1.5228986463e+00	 7.4886561759e-01	 1.2729803051e+00
 1.5157214351e+00	 7.6328803300e-01	 1.3485052654e+00
 1.5083963579e+00	 7.7766356098e-01	 1.4309213196e+00
 1.5009237646e+00	 7.9198998615e-01	 1.5170314252e+00
 1.4933040482e+00	 8.0626509364e-01	 1.6037279509e+00
 1.4855376451e+00	 8.2048667011e-01	 1.6879935019e+00
 1.4776250352e+00	 8.3465250477e-01	 1.7676125312e+00
 1.4695667422e+00	 8.4876039046e-01	 1.8441749494e+00
 1.4613633330e+00	 8.6280812470e-01	 1.9154433277e+00
 1.4530154184e+00	 8.7679351073e-01	 1.9783815897e+00
 1.5378829301e+00	 7.3821722017e-01	 1.2162313686e+00
 1.5308173424e+00	 7.5275953348e-01	 1.2695040688e+00
 1.5236028115e+00	 7.6725694188e-01	 1.3286355093e+00
 1.5162396457e+00	 7.8170721905e-01	 1.3919753073e+00
 1.5087281967e+00	 7.9610813808e-01	 1.4580319227e+00
 1.5010688597e+00	 8.1045747260e-01	 1.5253741060e+00
 1.4932620732e+00	 8.2475299774e-01	 1.5926290369e+00
 1.4853083198e+00	 8.3899249124e-01	 1.6584795948e+00
 1.4772081256e+00	 8.5317373444e-01	 1.7225012615e+00
 1.4689620607e+00	 8.6729451342e-01	 1.7879098297e+00
 1.4605707390e+00	 8.8135262000e-01	 1.8538733442e+00
 1.3850163128e+00	 8.3576079094e-01	 2.0512546223e+00
 1.3769219503e+00	 8.4903016271e-01	 1.9714904338e+00
 1.3686911360e+00	 8.6223593826e-01	 1.8529762744e+00
 1.3603245785e+00	 8.7537604779e-01	 1.7062893725e+00
 1.3518230280e+00	 8.8844843109e-01	 1.5417713078e+00
 1.3431872755e+00	 9.0145103856e-01	 1.3695061110e+00
 1.3344181533e+00	 9.1438183224e-01	 1.1992987813e+00
 1.3255165345e+00	 9.2723878678e-01	 1.0406543052e+00
 1.3164833328e+00	 9.4001989051e-01	 9.0275725674e-01
 1.3073195021e+00	 9.5272314644e-01	 7.9445206074e-01
 1.2980260367e+00	 9.6534657321e-01	 7.2422399540e-01
 1.3925718260e+00	 8.4032001648e-01	 2.1291546827e+00
 1.3844333073e+00	 8.5366177506e-01	 2.0522331680e+00
 1.3761575925e+00	 8.6693959049e-01	 1.9305326025e+00
 1.3677453940e+00	 8.8015138169e-01	 1.7753577022e+00
 1.3591974659e+00	 8.9329507719e-01	 1.5977518458e+00
 1.3505146039e+00	 9.0636861623e-01	 1.4084736341e+00
 1.3416976445e+00	 9.1936994971e-01	 1.2179739009e+00
 1.3327474658e+00	 9.3229704125e-01	 1.0363732637e+00
 1.3236649863e+00	 9.4514786821e-01	 8.7344029753e-01
 1.3144511653e+00	 9.5792042268e-01	 7.3857041826e-01
 1.3051070023e+00	 9.7061271251e-01	 6.4076555759e-01
 1.4001273350e+00	 8.4487923943e-01	 2.1870136001e+00
 1.3919446601e+00	 8.5829338479e-01	 2.1172414124e+00
 1.3836240447e+00	 8.7164324006e-01	 1.9975324470e+00
 1.3751662052e+00	 8.8492671287e-01	 1.8396261885e+00
 1.3665718997e+00	 8.9814172054e-01	 1.6549842922e+00
 1.3578419280e+00	 9.1128619110e-01	 1.4547660480e+00
 1.3489771316e+00	 9.2435806435e-01	 1.2498043199e+00
 1.3399783930e+00	 9.3735529285e-01	 1.0505820505e+00
 1.3308466358e+00	 9.5027584299e-01	 8.6720942167e-01
 1.3215828244e+00	 9.6311769597e-01	 7.0940175872e-01
 1.3121879639e+00	 9.7587884883e-01	 5.8645826420e-01
 1.4076828354e+00	 8.4943845722e-01	 2.2241815042e+00
 1.3994560044e+00	 8.6292498926e-01	 2.1650040924e+00
 1.3910904885e+00	 8.7634688430e-01	 2.0517540392e+00
 1.3825870080e+00	 8.8970203865e-01	 1.8963175854e+00
 1.3739463250e+00	 9.0298835840e-01	 1.7102957466e+00
 1.3651692439e+00	 9.1620376040e-01	 1.5049791210e+00
 1.3562566104e+00	 9.2934617334e-01	 1.2913231862e+00
 1.3472093120e+00	 9.4241353872e-01	 1.0799241784e+00
 1.3380282771e+00	 9.5540381196e-01	 8.8099564682e-01
 1.3287144755e+00	 9.6831496337e-01	 7.0434577474e-01
 1.3192689176e+00	 9.8114497918e-01	 5.5935555608e-01
 1.4152383230e+00	 8.5399766725e-01	 2.2400261398e+00
 1.4069673359e+00	 8.6755658586e-01	 2.1940456438e+00
 1.3985569196e+00	 8.8105052053e-01	 2.0910258178e+00
 1.3900077981e+00	 8.9447735630e-01	 1.9427162564e+00
 1.3813207379e+00	 9.0783498802e-01	 1.7605829296e+00
 1.3724965473e+00	 9.2112132134e-01	 1.5557827687e+00
 1.3635360769e+00	 9.3433427384e-01	 1.3391387468e+00
 1.3544402186e+00	 9.4747177599e-01	 1.1211155469e+00
 1.3452099062e+00	 9.6053177222e-01	 9.1179591406e-01
 1.3358461144e+00	 9.7351222194e-01	 7.2085778529e-01
 1.3263498591e+00	 9.8641110058e-01	 5.5755228831e-01
 1.4227937935e+00	 8.5855686695e-01	 2.2339318840e+00
 1.4144786504e+00	 8.7218817196e-01	 2.2029245267e+00
 1.4060233338e+00	 8.8575414611e-01	 2.1132245257e+00
 1.3974285715e+00	 8.9925266314e-01	 1.9761659422e+00
 1.3886951340e+00	 9.1268160665e-01	 1.8028097111e+00
 1.3798238342e+00	 9.2603887114e-01	 1.6039184379e+00
 1.3708155268e+00	 9.3932236304e-01	 1.3899316819e+00
 1.3616711089e+00	 9.5253000179e-01	 1.1709418248e+00
 1.3523915190e+00	 9.6565972085e-01	 9.5667062042e-01
 1.3429777372e+00	 9.7870946872e-01	 7.5644652082e-01
 1.3334307847e+00	 9.9167721004e-01	 5.7918287291e-01
 1.4303492425e+00	 8.6311605373e-01	 2.2052987764e+00
 1.4219899437e+00	 8.7681974494e-01	 2.1902317670e+00
 1.4134897268e+00	 8.9045775835e-01	 2.1162733464e+00
 1.4048493238e+00	 9.0402795644e-01	 1.9940675767e+00
 1.3960695093e+00	 9.1752821154e-01	 1.8340046959e+00
 1.3871511002e+00	 9.3095640699e-01	 1.6461965506e+00
 1.3780949562e+00	 9.4431043811e-01	 1.4404525007e+00
 1.3689019787e+00	 9.5758821326e-01	 1.2262558934e+00
 1.3595731115e+00	 9.7078765495e-01	 1.0127412065e+00
 1.3501093398e+00	 9.8390670078e-01	 8.0867195494e-01
 1.3405116901e+00	 9.9694330458e-01	 6.2241945663e-01
 1.4379046659e+00	 8.6767522501e-01	 2.1535415589e+00
 1.4295012113e+00	 8.8145130217e-01	 2.1545895239e+00
 1.4209560945e+00	 8.9516135461e-01	 2.0981400787e+00
 1.4122700509e+00	 9.0880323350e-01	 1.9938771526e+00
 1.4034438594e+00	 9.2237479996e-01	 1.8512588632e+00
 1.3944783414e+00	 9.3587392613e-01	 1.6794940072e+00
 1.3853743607e+00	 9.4929849621e-01	 1.4875189976e+00
 1.3761328239e+00	 9.6264640754e-01	 1.2839753474e+00
 1.3667546796e+00	 9.7591557161e-01	 1.0771877970e+00
 1.3572409181e+00	 9.8910391517e-01	 8.7514318128e-01
 1.3475925715e+00	 1.0022093812e+00	 6.8547013252e-01
 1.4454600592e+00	 8.7223437821e-01	 2.0780887266e+00
 1.4370124492e+00	 8.8608284102e-01	 2.0946496818e+00
 1.4284224325e+00	 8.9986493220e-01	 2.0568353474e+00
 1.4196907486e+00	 9.1357849162e-01	 1.9731036311e+00
 1.4108181803e+00	 9.2722136915e-01	 1.8517232596e+00
 1.4018055534e+00	 9.4079142576e-01	 1.7007517453e+00
 1.3926537364e+00	 9.5428653453e-01	 1.5280137652e+00
 1.3833636405e+00	 9.6770458174e-01	 1.3410800519e+00
 1.3739362191e+00	 9.8104346793e-01	 1.1472468925e+00
 1.3643724681e+00	 9.9430110894e-01	 9.5351633353e-01
 1.3546734248e+00	 1.0074754370e+00	 7.6657718403e-01
 1.4530154184e+00	 8.7679351073e-01	 1.9783815897e+00
 1.4445236530e+00	 8.9071435888e-01	 2.0090924670e+00
 1.4358887366e+00	 9.0456848847e-01	 1.9904108509e+00
 1.4271114126e+00	 9.1835372809e-01	 1.9293068977e+00
 1.4181924678e+00	 9.3206791637e-01	 1.8326067424e+00
 1.4091327323e+00	 9.4570890310e-01	 1.7069723545e+00
 1.3999330791e+00	 9.5927455024e-01	 1.5588817639e+00
 1.3905944242e+00	 9.7276273302e-01	 1.3946097526e+00
 1.3811177262e+00	 9.8617134101e-01	 1.2202091103e+00
 1.3715039858e+00	 9.9949827915e-01	 1.0414925474e+00
 1.3617542460e+00	 1.0127414688e+00	 8.6401536049e-01
 1.4605707390e+00	 8.8135262000e-01	 1.8538733442e+00
 1.4520348186e+00	 8.9534585312e-01	 1.8966250873e+00
 1.4433550027e+00	 9.0927202075e-01	 1.8969576421e+00
 1.4345320388e+00	 9.2312894020e-01	 1.8600957600e+00
 1.4255667177e+00	 9.3691443887e-01	 1.7911737716e+00
 1.4164598738e+00	 9.5062635536e-01	 1.6952177423e+00
 1.4072123847e+00	 9.6426254050e-01	 1.5771279440e+00
 1.3978251711e+00	 9.7782085850e-01	 1.4416617393e+00
 1.3882991966e+00	 9.9129918793e-01	 1.2934169731e+00
 1.3786354671e+00	 1.0046954228e+00	 1.1368159629e+00
 1.3688350311e+00	 1.0180074738e+00	 9.7609018295e-01
 1.2980260367e+00	 9.6534657321e-01	 7.2422399540e-01
 1.2886023584e+00	 9.7789033010e-01	 6.9550580003e-01
 1.2790511146e+00	 9.9035031019e-01	 7.0208924316e-01
 1.2693734235e+00	 1.0027245769e+00	 7.3778077747e-01
 1.2595704421e+00	 1.0150112134e+00	 7.9650831899e-01
 1.2496433655e+00	 1.0272083231e+00	 8.7232726668e-01
 1.2395934267e+00	 1.0393140312e+00	 9.5942696652e-01
 1.2294218961e+00	 1.0513264853e+00	 1.0521376381e+00
 1.2191300806e+00	 1.0632438564e+00	 1.1449377778e+00
 1.2087193237e+00	 1.0750643396e+00	 1.2324620481e+00
 1.1981910043e+00	 1.0867861555e+00	 1.3095096596e+00
 1.3051070023e+00	 9.7061271251e-01	 6.4076555759e-01
 1.2956319162e+00	 9.8322489786e-01	 5.8780649599e-01
 1.2860285686e+00	 9.9575284938e-01	 5.7741712071e-01
 1.2762980840e+00	 1.0081946200e+00	 6.0323047444e-01
 1.2664416255e+00	 1.0205482822e+00	 6.5896710996e-01
 1.2564603950e+00	 1.0328119294e+00	 7.3844108590e-01
 1.2463556320e+00	 1.0449836763e+00	 8.3556647543e-01
 1.2361286138e+00	 1.0570616605e+00	 9.4436440745e-01
 1.2257806546e+00	 1.0690440430e+00	 1.0589706553e+00
 1.2153131052e+00	 1.0809290091e+00	 1.1736437843e+00
 1.2047273518e+00	 1.0927147695e+00	 1.2827738635e+00
 1.3121879639e+00	 9.7587884883e-01	 5.8645826420e-01
 1.3026614700e+00	 9.8855946259e-01	 5.1033047615e-01
 1.2930060187e+00	 1.0011553855e+00	 4.8266563616e-01
 1.2832227406e+00	 1.0136646599e+00	 4.9696700117e-01
 1.2733128051e+00	 1.0260853479e+00	 5.4679177522e-01
 1.2632774206e+00	 1.0384155325e+00	 6.2575703095e-01
 1.2531178334e+00	 1.0506533182e+00	 7.2754621284e-01
 1.2428353277e+00	 1.0627968325e+00	 8.4591624321e-01
 1.2324312249e+00	 1.0748442263e+00	 9.7470524754e-01
 1.2219068829e+00	 1.0867936752e+00	 1.1078409111e+00
 1.2112636957e+00	 1.0986433803e+00	 1.2393494740e+00
 1.3192689176e+00	 9.8114497918e-01	 5.5935555608e-01
 1.3096910158e+00	 9.9389402128e-01	 4.6188310126e-01
 1.2999834609e+00	 1.0065579155e+00	 4.1740030895e-01
 1.2901473893e+00	 1.0191346937e+00	 4.1932390685e-01
 1.2801839769e+00	 1.0316224074e+00	 4.6109138749e-01
 1.2700944385e+00	 1.0440191292e+00	 5.3616680505e-01
 1.2598800271e+00	 1.0563229537e+00	 6.3804722316e-01
 1.2495420340e+00	 1.0685319979e+00	 7.6026983609e-01
 1.2390817876e+00	 1.0806444031e+00	 8.9641978164e-01
 1.2285006531e+00	 1.0926583347e+00	 1.0401386586e+00
 1.2178000322e+00	 1.1045719843e+00	 1.1851337572e+00
 1.3263498591e+00	 9.8641110058e-01	 5.5755228831e-01
 1.3167205497e+00	 9.9922857089e-01	 4.4129487706e-01
 1.3069608912e+00	 1.0119604363e+00	 3.8119540050e-01
 1.2970720262e+00	 1.0246047181e+00	 3.7062695625e-01
 1.2870551370e+00	 1.0371594574e+00	 4.0295059561e-01
 1.2769114448e+00	 1.0496227165e+00	 4.7152094552e-01
 1.2666422094e+00	 1.0619925795e+00	 5.6969255070e-01
 1.2562487290e+00	 1.0742671536e+00	 6.9082696067e-01
 1.2457323390e+00	 1.0864445699e+00	 8.2830058107e-01
 1.2350944122e+00	 1.0985229842e+00	 9.7551330394e-01
 1.2243363575e+00	 1.1105005782e+00	 1.1258979258e+00
 1.3334307847e+00	 9.9167721004e-01	 5.7918287291e-01
 1.3237500677e+00	 1.0045631084e+00	 4.4742001052e-01
 1.3139383057e+00	 1.0173629449e+00	 3.7363288875e-01
 1.3039966475e+00	 1.0300747301e+00	 3.5119352710e-01
 1.2939262815e+00	 1.0426964949e+00	 3.7342944935e-01
 1.2837284356e+00	 1.0552262910e+00	 4.3362908013e-01
 1.2734043763e+00	 1.0676621925e+00	 5.2504793153e-01
 1.2629554087e+00	 1.0800022963e+00	 6.4091560635e-01
 1.2523828753e+00	 1.0922447237e+00	 7.7444363912e-01
 1.2416881563e+00	 1.1043876205e+00	 9.1883419088e-01
 1.2308726681e+00	 1.1164291587e+00	 1.0673176392e+00
 1.3405116901e+00	 9.9694330458e-01	 6.2241945663e-01
 1.3307795657e+00	 1.0098976308e+00	 4.7913498777e-01
 1.3209157004e+00	 1.0227654382e+00	 3.9430145084e-01
 1.3109212491e+00	 1.0355447267e+00	 3.6133200211e-01
 1.3007974066e+00	 1.0482335167e+00	 3.7356320488e-01
 1.2905454071e+00	 1.0608298497e+00	 4.2426015018e-01
 1.2801665241e+00	 1.0733317894e+00	 5.0662243796e-01
 1.2696620694e+00	 1.0857374228e+00	 6.1379104705e-01
 1.2590333928e+00	 1.0980448610e+00	 7.3885611710e-01
 1.2482818817e+00	 1.1102522401e+00	 8.7486565986e-01
 1.2374089601e+00	 1.1223577224e+00	 1.0148704905e+00
 1.3475925715e+00	 1.0022093812e+00	 6.8547013252e-01
 1.3378090399e+00	 1.0152321351e+00	 5.3533717277e-01
 1.3278930714e+00	 1.0281679131e+00	 4.4279545357e-01
 1.3178458272e+00	 1.0410147046e+00	 4.0134115557e-01
 1.3076685083e+00	 1.0537705196e+00	 4.0436211169e-01
 1.2973623555e+00	 1.0664333893e+00	 4.4514260165e-01
 1.2869286489e+00	 1.0790013670e+00	 5.1686907768e-01
 1.2763687073e+00	 1.0914725297e+00	 6.1263685176e-01
 1.2656838877e+00	 1.1038449785e+00	 7.2545776976e-01
 1.2548755847e+00	 1.1161168398e+00	 8.4823518182e-01
 1.2439452299e+00	 1.1282862659e+00	 9.7380886726e-01
 1.3546734248e+00	 1.0074754370e+00	 7.6657718403e-01
 1.3448384861e+00	 1.0205666182e+00	 6.1494342626e-01
 1.3348704148e+00	 1.0335703665e+00	 5.1871395155e-01
 1.3247703778e+00	 1.0464846609e+00	 4.7150953485e-01
 1.3145395827e+00	 1.0593075006e+00	 4.6681118157e-01
 1.3041792768e+00	 1.0720369066e+00	 4.9796454554e-01
 1.2936907468e+00	 1.0846709222e+00	 5.5818534910e-01
 1.2830753186e+00	 1.0972076139e+00	 6.4056583838e-01
 1.2723343562e+00	 1.1096450731e+00	 7.3808230080e-01
 1.2614692615e+00	 1.1219814162e+00	 8.4335756751e-01
 1.2504814738e+00	 1.1342147859e+00	 9.4926056218e-01
 1.3617542460e+00	 1.0127414688e+00	 8.6401536049e-01
 1.3518679005e+00	 1.0259010771e+00	 7.1688874398e-01
 1.3418477265e+00	 1.0389727955e+00	 6.2165969252e-01
 1.3316948970e+00	 1.0519545923e+00	 5.7211483700e-01
 1.3214106260e+00	 1.0648444565e+00	 5.6186994040e-01
 1.3109961672e+00	 1.0776403986e+00	 5.8437388850e-01
 1.3004528141e+00	 1.0903404516e+00	 6.3291375446e-01
 1.2897818995e+00	 1.1029426721e+00	 7.0062097259e-01
 1.2789847945e+00	 1.1154451414e+00	 7.8041092673e-01
 1.2680629085e+00	 1.1278459660e+00	 8.6453638455e-01
 1.2570176880e+00	 1.1401432791e+00	 9.4623302209e-01
 1.3688350311e+00	 1.0180074738e+00	 9.7609018295e-01
 1.3588972790e+00	 1.0312355088e+00	 8.4012491376e-01
 1.3488250026e+00	 1.0443751969e+00	 7.5123812981e-01
 1.3386193810e+00	 1.0574244959e+00	 7.0342328066e-01
 1.3282816342e+00	 1.0703813842e+00	 6.9047216329e-01
 1.3178130228e+00	 1.0832438620e+00	 7.0597843498e-01
 1.3072148469e+00	 1.0960099521e+00	 7.4334227233e-01
 1.2964884462e+00	 1.1086777011e+00	 7.9577621410e-01
 1.2856351989e+00	 1.1212451801e+00	 8.5586571766e-01
 1.2746565218e+00	 1.1337104859e+00	 9.1597322157e-01
 1.2635538689e+00	 1.1460717420e+00	 9.6961689335e-01
 1.1981910043e+00	 1.0867861555e+00	 1.3095096596e+00
 1.1875483523e+00	 1.0984055869e+00	 1.3799245261e+00
 1.1767910203e+00	 1.1099229249e+00	 1.4472168640e+00
 1.1659204706e+00	 1.1213364906e+00	 1.5062541694e+00
 1.1549381990e+00	 1.1326446337e+00	 1.5524440537e+00
 1.1438457334e+00	 1.1438457334e+00	 1.5801389136e+00
 1.1326446337e+00	 1.1549381990e+00	 1.5834370424e+00
 1.1213364906e+00	 1.1659204706e+00	 1.5562043616e+00
 1.1099229249e+00	 1.1767910203e+00	 1.4921144404e+00
 1.0984055869e+00	 1.1875483523e+00	 1.3878089237e+00
 1.0867861555e+00	 1.1981910043e+00	 1.2394464593e+00
 1.2047273518e+00	 1.0927147695e+00	 1.2827738635e+00
 1.1940266423e+00	 1.1043975870e+00	 1.3861073160e+00
 1.1832106271e+00	 1.1159777542e+00	 1.4826403413e+00
 1.1722807766e+00	 1.1274535830e+00	 1.5667472434e+00
 1.1612385947e+00	 1.1388234141e+00	 1.6323225388e+00
 1.1500856178e+00	 1.1500856178e+00	 1.6729771577e+00
 1.1388234141e+00	 1.1612385947e+00	 1.6822592445e+00
 1.1274535830e+00	 1.1722807766e+00	 1.6536683687e+00
 1.1159777542e+00	 1.1832106271e+00	 1.5806694623e+00
 1.1043975870e+00	 1.1940266423e+00	 1.4576467676e+00
 1.0927147695e+00	 1.2047273518e+00	 1.2826643275e+00
 1.2112636957e+00	 1.0986433803e+00	 1.2393494740e+00
 1.2005049287e+00	 1.1103895838e+00	 1.3663260360e+00
 1.1896302303e+00	 1.1220325801e+00	 1.4852630748e+00
 1.1786410790e+00	 1.1335706719e+00	 1.5896726605e+00
 1.1675389869e+00	 1.1450021909e+00	 1.6726686596e+00
 1.1563254986e+00	 1.1563254986e+00	 1.7274350393e+00
 1.1450021909e+00	 1.1675389869e+00	 1.7472433700e+00
 1.1335706719e+00	 1.1786410790e+00	 1.7254678355e+00
 1.1220325801e+00	 1.1896302303e+00	 1.6555997361e+00
 1.1103895838e+00	 1.2005049287e+00	 1.5312724391e+00
 1.0986433803e+00	 1.2112636957e+00	 1.3497345843e+00
 1.2178000322e+00	 1.1045719843e+00	 1.1851337572e+00
 1.2069832077e+00	 1.1163815738e+00	 1.3271622713e+00
 1.1960498262e+00	 1.1280873991e+00	 1.4615821780e+00
 1.1850013742e+00	 1.1396877539e+00	 1.5811873106e+00
 1.1738393719e+00	 1.1511809607e+00	 1.6788450459e+00
 1.1625653723e+00	 1.1625653723e+00	 1.7476128756e+00
 1.1511809607e+00	 1.1738393719e+00	 1.7807544472e+00
 1.1396877539e+00	 1.1850013742e+00	 1.7717549677e+00
 1.1280873991e+00	 1.1960498262e+00	 1.7143359098e+00
 1.1163815738e+00	 1.2069832077e+00	 1.6024689708e+00
 1.1045719843e+00	 1.2178000322e+00	 1.4313821455e+00
 1.2243363575e+00	 1.1105005782e+00	 1.1258979258e+00
 1.2134614756e+00	 1.1223735536e+00	 1.2750273047e+00
 1.2024694112e+00	 1.1341422079e+00	 1.4179317188e+00
 1.1913616586e+00	 1.1458048255e+00	 1.5473009045e+00
 1.1801397462e+00	 1.1573597201e+00	 1.6560841421e+00
 1.1688052355e+00	 1.1688052355e+00	 1.7375077633e+00
 1.1573597201e+00	 1.1801397462e+00	 1.7850913268e+00
 1.1458048255e+00	 1.1913616586e+00	 1.7926630107e+00
 1.1341422079e+00	 1.2024694112e+00	 1.7543741646e+00
 1.1223735536e+00	 1.2134614756e+00	 1.6647129673e+00
 1.1105005782e+00	 1.2243363575e+00	 1.5185258907e+00
 1.2308726681e+00	 1.1164291587e+00	 1.0673176392e+00
 1.2199397289e+00	 1.1283655198e+00	 1.2159868697e+00
 1.2088889816e+00	 1.1401970029e+00	 1.3604958941e+00
 1.1977219286e+00	 1.1519218832e+00	 1.4938802338e+00
 1.1864401063e+00	 1.1635384654e+00	 1.6094920206e+00
 1.1750450845e+00	 1.1750450845e+00	 1.7010166819e+00
 1.1635384654e+00	 1.1864401063e+00	 1.7624888050e+00
 1.1519218832e+00	 1.1977219286e+00	 1.7883071217e+00
 1.1401970029e+00	 1.2088889816e+00	 1.7732485497e+00
 1.1283655198e+00	 1.2199397289e+00	 1.7124812409e+00
 1.1164291587e+00	 1.2308726681e+00	 1.6015765838e+00
 1.2374089601e+00	 1.1223577224e+00	 1.0148704905e+00
 1.2264179639e+00	 1.1343574691e+00	 1.1559615648e+00
 1.2153085339e+00	 1.1462517807e+00	 1.2953133545e+00
 1.2040821805e+00	 1.1580389236e+00	 1.4266533184e+00
 1.1927404485e+00	 1.1697171932e+00	 1.5440521004e+00
 1.1812849158e+00	 1.1812849158e+00	 1.6419395229e+00
 1.1697171932e+00	 1.1927404485e+00	 1.7151197043e+00
 1.1580389236e+00	 1.2040821805e+00	 1.7587852382e+00
 1.1462517807e+00	 1.2153085339e+00	 1.7685303748e+00
 1.1343574691e+00	 1.2264179639e+00	 1.7403631508e+00
 1.1223577224e+00	 1.2374089601e+00	 1.6707164202e+00
 1.2439452299e+00	 1.1282862659e+00	 9.7380886726e-01
 1.2328961768e+00	 1.1403493979e+00	 1.1007330333e+00
 1.2217280643e+00	 1.1523065380e+00	 1.2282814158e+00
 1.2104424109e+00	 1.1641559431e+00	 1.3512134489e+00
 1.1990407692e+00	 1.1758959000e+00	 1.4646287706e+00
 1.1875247259e+00	 1.1875247259e+00	 1.5639820476e+00
 1.1758959000e+00	 1.1990407692e+00	 1.6450969121e+00
 1.1641559431e+00	 1.2104424109e+00	 1.7041789441e+00
 1.1523065380e+00	 1.2217280643e+00	 1.7378276449e+00
 1.1403493979e+00	 1.2328961768e+00	 1.7430473452e+00
 1.1282862659e+00	 1.2439452299e+00	 1.7172570046e+00
 1.2504814738e+00	 1.1342147859e+00	 9.4926056218e-01
 1.2393743640e+00	 1.1463413030e+00	 1.0559479957e+00
 1.2281475693e+00	 1.1583612713e+00	 1.1651601630e+00
 1.2168026160e+00	 1.1702729385e+00	 1.2730231253e+00
 1.2053410650e+00	 1.1820745823e+00	 1.3759709261e+00
 1.1937645112e+00	 1.1937645112e+00	 1.4707587766e+00
 1.1820745823e+00	 1.2053410650e+00	 1.5544753802e+00
 1.1702729385e+00	 1.2168026160e+00	 1.6245543319e+00
 1.1583612713e+00	 1.2281475693e+00	 1.6787845377e+00
 1.1463413030e+00	 1.2393743640e+00	 1.7153196018e+00
 1.1342147859e+00	 1.2504814738e+00	 1.7326861367e+00
 1.2570176880e+00	 1.1401432791e+00	 9.4623302209e-01
 1.2458525218e+00	 1.1523331810e+00	 1.0271221803e+00
 1.2345670451e+00	 1.1644159771e+00	 1.1115764497e+00
 1.2231627922e+00	 1.1763899060e+00	 1.1974178964e+00
 1.2116413322e+00	 1.1882532366e+00	 1.2827154158e+00
 1.2000042683e+00	 1.2000042683e+00	 1.3657958124e+00
 1.1882532366e+00	 1.2116413322e+00	 1.4452540857e+00
 1.1763899060e+00	 1.2231627922e+00	 1.5199628621e+00
 1.1644159771e+00	 1.2345670451e+00	 1.5890809206e+00
 1.1523331810e+00	 1.2458525218e+00	 1.6520607594e+00
 1.1401432791e+00	 1.2570176880e+00	 1.7086551639e+00
 1.2635538689e+00	 1.1460717420e+00	 9.6961689335e-01
 1.2523306466e+00	 1.1583250283e+00	 1.0196441539e+00
 1.2409864882e+00	 1.1704706520e+00	 1.0730277970e+00
 1.2295229360e+00	 1.1825068424e+00	 1.1296101046e+00
 1.2179415673e+00	 1.1944318594e+00	 1.1893904082e+00
 1.2062439935e+00	 1.2062439935e+00	 1.2525335992e+00
 1.1944318594e+00	 1.2179415673e+00	 1.3193779544e+00
 1.1825068424e+00	 1.2295229360e+00	 1.3904422204e+00
 1.1704706520e+00	 1.2409864882e+00	 1.4664319067e+00
 1.1583250283e+00	 1.2523306466e+00	 1.5482447378e+00
 1.1460717420e+00	 1.2635538689e+00	 1.6369752270e+00
 1.0867861555e+00	 1.1981910043e+00	 1.2394464593e+00
 1.0750643396e+00	 1.2087193237e+00	 1.0723987956e+00
 1.0632438564e+00	 1.2191300806e+00	 9.2104096675e-01
 1.0513264853e+00	 1.2294218961e+00	 7.9331144637e-01
 1.0393140312e+00	 1.2395934267e+00	 6.9758864614e-01
 1.0272083231e+00	 1.2496433655e+00	 6.4266507891e-01
 1.0150112134e+00	 1.2595704421e+00	 6.3772139584e-01
 1.0027245769e+00	 1.2693734235e+00	 6.9230039529e-01
 9.9035031019e-01	 1.2790511146e+00	 8.1628109766e-01
 9.7789033010e-01	 1.2886023584e+00	 1.0198529757e+00
 9.6534657321e-01	 1.2980260367e+00	 1.3134904257e+00
 1.0927147695e+00	 1.2047273518e+00	 1.2826643275e+00
 1.0809290091e+00	 1.2153131052e+00	 1.0847080897e+00
 1.0690440430e+00	 1.2257806546e+00	 9.0288246255e-01
 1.0570616605e+00	 1.2361286138e+00	 7.4755427045e-01
 1.0449836763e+00	 1.2463556320e+00	 6.2914224501e-01
 1.0328119294e+00	 1.2564603950e+00	 5.5808895633e-01
 1.0205482822e+00	 1.2664416255e+00	 5.4483319545e-01
 1.0081946200e+00	 1.2762980840e+00	 5.9978290860e-01
 9.9575284938e-01	 1.2860285686e+00	 7.3328877810e-01
 9.8322489786e-01	 1.2956319162e+00	 9.5561853967e-01
 9.7061271251e-01	 1.3051070023e+00	 1.2769321196e+00
 1.0986433803e+00	 1.2112636957e+00	 1.3497345843e+00
 1.0867936752e+00	 1.2219068829e+00	 1.1413855898e+00
 1.0748442263e+00	 1.2324312249e+00	 9.4580800632e-01
 1.0627968325e+00	 1.2428353277e+00	 7.7513582135e-01
 1.0506533182e+00	 1.2531178334e+00	 6.4123940945e-01
 1.0384155325e+00	 1.2632774206e+00	 5.5569581663e-01
 1.0260853479e+00	 1.2733128051e+00	 5.2975997100e-01
 1.0136646599e+00	 1.2832227406e+00	 5.7433692173e-01
 1.0011553855e+00	 1.2930060187e+00	 6.9995520212e-01
 9.8855946259e-01	 1.3026614700e+00	 9.1674140649e-01
 9.7587884883e-01	 1.3121879639e+00	 1.2343960628e+00
 1.1045719843e+00	 1.2178000322e+00	 1.4313821455e+00
 1.0926583347e+00	 1.2285006531e+00	 1.2297517839e+00
 1.0806444031e+00	 1.2390817876e+00	 1.0347678712e+00
 1.0685319979e+00	 1.2495420340e+00	 8.5967982948e-01
 1.0563229537e+00	 1.2598800271e+00	 7.1722965282e-01
 1.0440191292e+00	 1.2700944385e+00	 6.1962112590e-01
 1.0316224074e+00	 1.2801839769e+00	 5.7849034074e-01
 1.0191346937e+00	 1.2901473893e+00	 6.0487761625e-01
 1.0065579155e+00	 1.2999834609e+00	 7.0920091686e-01
 9.9389402128e-01	 1.3096910158e+00	 9.0123085969e-01
 9.8114497918e-01	 1.3192689176e+00	 1.1900673913e+00
 1.1105005782e+00	 1.2243363575e+00	 1.5185258907e+00
 1.0985229842e+00	 1.2350944122e+00	 1.3373934900e+00
 1.0864445699e+00	 1.2457323390e+00	 1.1550289851e+00
 1.0742671536e+00	 1.2562487290e+00	 9.8515475976e-01
 1.0619925795e+00	 1.2666422094e+00	 8.4081287381e-01
 1.0496227165e+00	 1.2769114448e+00	 7.3433378968e-01
 1.0371594574e+00	 1.2870551370e+00	 6.7730666967e-01
 1.0246047181e+00	 1.2970720262e+00	 6.8055134822e-01
 1.0119604363e+00	 1.3069608912e+00	 7.5409207688e-01
 9.9922857089e-01	 1.3167205497e+00	 9.0713313078e-01
 9.8641110058e-01	 1.3263498591e+00	 1.1480363571e+00
 1.1164291587e+00	 1.2308726681e+00	 1.6015765838e+00
 1.1043876205e+00	 1.2416881563e+00	 1.4521561109e+00
 1.0922447237e+00	 1.2523828753e+00	 1.2921658399e+00
 1.0800022963e+00	 1.2629554087e+00	 1.1358639687e+00
 1.0676621925e+00	 1.2734043763e+00	 9.9602935759e-01
 1.0552262910e+00	 1.2837284356e+00	 8.8462659952e-01
 1.0426964949e+00	 1.2939262815e+00	 8.1277656666e-01
 1.0300747301e+00	 1.3039966475e+00	 7.9072880469e-01
 1.0173629449e+00	 1.3139383057e+00	 8.2783587192e-01
 1.0045631084e+00	 1.3237500677e+00	 9.3252971256e-01
 9.9167721004e-01	 1.3334307847e+00	 1.1123001436e+00
 1.1223577224e+00	 1.2374089601e+00	 1.6707164202e+00
 1.1102522401e+00	 1.2482818817e+00	 1.5621361172e+00
 1.0980448610e+00	 1.2590333928e+00	 1.4320516725e+00
 1.0857374228e+00	 1.2696620694e+00	 1.2964361557e+00
 1.0733317894e+00	 1.2801665241e+00	 1.1672500762e+00
 1.0608298497e+00	 1.2905454071e+00	 1.0556069646e+00
 1.0482335167e+00	 1.3007974066e+00	 9.7174463362e-01
 1.0355447267e+00	 1.3109212491e+00	 9.2499835972e-01
 1.0227654382e+00	 1.3209157004e+00	 9.2377608225e-01
 1.0098976308e+00	 1.3307795657e+00	 9.7553570886e-01
 9.9694330458e-01	 1.3405116901e+00	 1.0867646067e+00
 1.1282862659e+00	 1.2439452299e+00	 1.7172570046e+00
 1.1161168398e+00	 1.2548755847e+00	 1.6549891398e+00
 1.1038449785e+00	 1.2656838877e+00	 1.5608499059e+00
 1.0914725297e+00	 1.2763687073e+00	 1.4518160983e+00
 1.0790013670e+00	 1.2869286489e+00	 1.3391672775e+00
 1.0664333893e+00	 1.2973623555e+00	 1.2326879184e+00
 1.0537705196e+00	 1.3076685083e+00	 1.1413244572e+00
 1.0410147046e+00	 1.3178458272e+00	 1.0731596226e+00
 1.0281679131e+00	 1.3278930714e+00	 1.0353887572e+00
 1.0152321351e+00	 1.3378090399e+00	 1.0342982197e+00
 1.0022093812e+00	 1.3475925715e+00	 1.0752459450e+00
 1.1342147859e+00	 1.2504814738e+00	 1.7326861367e+00
 1.1219814162e+00	 1.2614692615e+00	 1.7180364579e+00
 1.1096450731e+00	 1.2723343562e+00	 1.6650058417e+00
 1.0972076139e+00	 1.2830753186e+00	 1.5872556607e+00
 1.0846709222e+00	 1.2936907468e+00	 1.4967853514e+00
 1.0720369066e+00	 1.3041792768e+00	 1.4015793894e+00
 1.0593075006e+00	 1.3145395827e+00	 1.3088908348e+00
 1.0464846609e+00	 1.3247703778e+00	 1.2252171714e+00
 1.0335703665e+00	 1.3348704148e+00	 1.1562780124e+00
 1.0205666182e+00	 1.3448384861e+00	 1.1069947601e+00
 1.0074754370e+00	 1.3546734248e+00	 1.0814723006e+00
 1.1401432791e+00	 1.2570176880e+00	 1.7086551639e+00
 1.1278459660e+00	 1.2680629085e+00	 1.7399157028e+00
 1.1154451414e+00	 1.2789847945e+00	 1.7306725133e+00
 1.1029426721e+00	 1.2897818995e+00	 1.6883050655e+00
 1.0903404516e+00	 1.3004528141e+00	 1.6254119649e+00
 1.0776403986e+00	 1.3109961672e+00	 1.5482797281e+00
 1.0648444565e+00	 1.3214106260e+00	 1.4620722252e+00
 1.0519545923e+00	 1.3316948970e+00	 1.3713744647e+00
 1.0389727955e+00	 1.3418477265e+00	 1.2801719407e+00
 1.0259010771e+00	 1.3518679005e+00	 1.1918317122e+00
 1.0127414688e+00	 1.3617542460e+00	 1.1090852943e+00
 1.1460717420e+00	 1.2635538689e+00	 1.6369752270e+00
 1.1337104859e+00	 1.2746565218e+00	 1.7095054514e+00
 1.1212451801e+00	 1.2856351989e+00	 1.7433670453e+00
 1.1086777011e+00	 1.2964884462e+00	 1.7408044195e+00
 1.0960099521e+00	 1.3072148469e+00	 1.7106494538e+00
 1.0832438620e+00	 1.3178130228e+00	 1.6590674786e+00
 1.0703813842e+00	 1.3282816342e+00	 1.5887434175e+00
 1.0574244959e+00	 1.3386193810e+00	 1.5020279257e+00
 1.0443751969e+00	 1.3488250026e+00	 1.4009186345e+00
 1.0312355088e+00	 1.3588972790e+00	 1.2870428085e+00
 1.0180074738e+00	 1.3688350311e+00	 1.1616414970e+00
 9.6534657321e-01	 1.2980260367e+00	 1.3134904257e+00
 9.5272314644e-01	 1.3073195021e+00	 1.6379685044e+00
 9.4001989051e-01	 1.3164833328e+00	 1.9236827327e+00
 9.2723878678e-01	 1.3255165345e+00	 2.1652779596e+00
 9.1438183224e-01	 1.3344181533e+00	 2.3570206317e+00
 9.0145103856e-01	 1.3431872755e+00	 2.4928006142e+00
 8.8844843109e-01	 1.3518230280e+00	 2.5661342920e+00
 8.7537604779e-01	 1.3603245785e+00	 2.5701689484e+00
 8.6223593826e-01	 1.3686911360e+00	 2.4976884166e+00
 8.4903016271e-01	 1.3769219503e+00	 2.3411199861e+00
 8.3576079094e-01	 1.3850163128e+00	 2.0925425452e+00
 9.7061271251e-01	 1.3051070023e+00	 1.2769321196e+00
 9.5792042268e-01	 1.3144511653e+00	 1.6348908097e+00
 9.4514786821e-01	 1.3236649863e+00	 1.9550987549e+00
 9.3229704125e-01	 1.3327474658e+00	 2.2294001143e+00
 9.1936994971e-01	 1.3416976445e+00	 2.4497147843e+00
 9.0636861623e-01	 1.3505146039e+00	 2.6080401483e+00
 8.9329507719e-01	 1.3591974659e+00	 2.6964534983e+00
 8.8015138169e-01	 1.3677453940e+00	 2.7071151358e+00
 8.6693959049e-01	 1.3761575925e+00	 2.6322721493e+00
 8.5366177506e-01	 1.3844333073e+00	 2.4642628618e+00
 8.4032001648e-01	 1.3925718260e+00	 2.1955219380e+00
 9.7587884883e-01	 1.3121879639e+00	 1.2343960628e+00
 9.6311769597e-01	 1.3215828244e+00	 1.5929919730e+00
 9.5027584299e-01	 1.3308466358e+00	 1.9194014519e+00
 9.3735529285e-01	 1.3399783930e+00	 2.2033339531e+00
 9.2435806435e-01	 1.3489771316e+00	 2.4349430572e+00
 9.1128619110e-01	 1.3578419280e+00	 2.6048279466e+00
 8.9814172054e-01	 1.3665718997e+00	 2.7040350678e+00
 8.8492671287e-01	 1.3751662052e+00	 2.7240599921e+00
 8.7164324006e-01	 1.3836240447e+00	 2.6568494791e+00
 8.5829338479e-01	 1.3919446601e+00	 2.4948037432e+00
 8.4487923943e-01	 1.4001273350e+00	 2.2307789185e+00
 9.8114497918e-01	 1.3192689176e+00	 1.1900673913e+00
 9.6831496337e-01	 1.3287144755e+00	 1.5225699070e+00
 9.5540381196e-01	 1.3380282771e+00	 1.8317827009e+00
 9.4241353872e-01	 1.3472093120e+00	 2.1059385893e+00
 9.2934617334e-01	 1.3562566104e+00	 2.3339980939e+00
 9.1620376040e-01	 1.3651692439e+00	 2.5056504393e+00
 9.0298835840e-01	 1.3739463250e+00	 2.6113143739e+00
 8.8970203865e-01	 1.3825870080e+00	 2.6421388296e+00
 8.7634688430e-01	 1.3910904885e+00	 2.5900034275e+00
 8.6292498926e-01	 1.3994560044e+00	 2.4475188388e+00
 8.4943845722e-01	 1.4076828354e+00	 2.2080269984e+00
 9.8641110058e-01	 1.3263498591e+00	 1.1480363571e+00
 9.7351222194e-01	 1.3358461144e+00	 1.4336971989e+00
 9.6053177222e-01	 1.3452099062e+00	 1.7071046838e+00
 9.4747177599e-01	 1.3544402186e+00	 1.9556653148e+00
 9.3433427384e-01	 1.3635360769e+00	 2.1677129841e+00
 9.2112132134e-01	 1.3724965473e+00	 2.3325092928e+00
 9.0783498802e-01	 1.3813207379e+00	 2.4402434489e+00
 8.9447735630e-01	 1.3900077981e+00	 2.4820317621e+00
 8.8105052053e-01	 1.3985569196e+00	 2.4499167492e+00
 8.6755658586e-01	 1.4069673359e+00	 2.3368658589e+00
 8.5399766725e-01	 1.4152383230e+00	 2.1367698221e+00
 9.9167721004e-01	 1.3334307847e+00	 1.1123001436e+00
 9.7870946872e-01	 1.3429777372e+00	 1.3362263916e+00
 9.6565972085e-01	 1.3523915190e+00	 1.5599079444e+00
 9.5253000179e-01	 1.3616711089e+00	 1.7705677370e+00
 9.3932236304e-01	 1.3708155268e+00	 1.9564727808e+00
 9.2603887114e-01	 1.3798238342e+00	 2.1069336053e+00
 9.1268160665e-01	 1.3886951340e+00	 2.2123031512e+00
 8.9925266314e-01	 1.3974285715e+00	 2.2639751376e+00
 8.8575414611e-01	 1.4060233338e+00	 2.2543819189e+00
 8.7218817196e-01	 1.4144786504e+00	 2.1769918444e+00
 8.5855686695e-01	 1.4227937935e+00	 2.0263061276e+00
 9.9694330458e-01	 1.3405116901e+00	 1.0867646067e+00
 9.8390670078e-01	 1.3501093398e+00	 1.2397950819e+00
 9.7078765495e-01	 1.3595731115e+00	 1.4044191741e+00
 9.5758821326e-01	 1.3689019787e+00	 1.5683115792e+00
 9.4431043811e-01	 1.3780949562e+00	 1.7202256381e+00
 9.3095640699e-01	 1.3871511002e+00	 1.8499917007e+00
 9.1752821154e-01	 1.3960695093e+00	 1.9485149331e+00
 9.0402795644e-01	 1.4048493238e+00	 2.0077725921e+00
 8.9045775835e-01	 1.4134897268e+00	 2.0208107858e+00
 8.7681974494e-01	 1.4219899437e+00	 1.9817407336e+00
 8.6311605373e-01	 1.4303492425e+00	 1.8857345351e+00
 1.0022093812e+00	 1.3475925715e+00	 1.0752459450e+00
 9.8910391517e-01	 1.3572409181e+00	 1.1538308421e+00
 9.7591557161e-01	 1.3667546796e+00	 1.2545587370e+00
 9.6264640754e-01	 1.3761328239e+00	 1.3661841567e+00
 9.4929849621e-01	 1.3853743607e+00	 1.4784935821e+00
 9.3587392613e-01	 1.3944783414e+00	 1.5823025358e+00
 9.2237479996e-01	 1.4034438594e+00	 1.6694522216e+00
 9.0880323350e-01	 1.4122700509e+00	 1.7328057416e+00
 8.9516135461e-01	 1.4209560945e+00	 1.7662439096e+00
 8.8145130217e-01	 1.4295012113e+00	 1.7646606752e+00
 8.6767522501e-01	 1.4379046659e+00	 1.7239581690e+00
 1.0074754370e+00	 1.3546734248e+00	 1.0814723006e+00
 9.9430110894e-01	 1.3643724681e+00	 1.0875559705e+00
 9.8104346793e-01	 1.3739362191e+00	 1.1239479426e+00
 9.6770458174e-01	 1.3833636405e+00	 1.1811035399e+00
 9.5428653453e-01	 1.3926537364e+00	 1.2503829291e+00
 9.4079142576e-01	 1.4018055534e+00	 1.3240467344e+00
 9.2722136915e-01	 1.4108181803e+00	 1.3952514281e+00
 9.1357849162e-01	 1.4196907486e+00	 1.4580445232e+00
 8.9986493220e-01	 1.4284224325e+00	 1.5073595882e+00
 8.8608284102e-01	 1.4370124492e+00	 1.5390110969e+00
 8.7223437821e-01	 1.4454600592e+00	 1.5496891216e+00
 1.0127414688e+00	 1.3617542460e+00	 1.1090852943e+00
 9.9949827915e-01	 1.3715039858e+00	 1.0499920788e+00
 9.8617134101e-01	 1.3811177262e+00	 1.0259160767e+00
 9.7276273302e-01	 1.3905944242e+00	 1.0296274164e+00
 9.5927455024e-01	 1.3999330791e+00	 1.0545943635e+00
 9.4570890310e-01	 1.4091327323e+00	 1.0949772629e+00
 9.3206791637e-01	 1.4181924678e+00	 1.1456225993e+00
 9.1835372809e-01	 1.4271114126e+00	 1.2020571985e+00
 9.0456848847e-01	 1.4358887366e+00	 1.2604825897e+00
 8.9071435888e-01	 1.4445236530e+00	 1.3177695388e+00
 8.7679351073e-01	 1.4530154184e+00	 1.3714527607e+00
 1.0180074738e+00	 1.3688350311e+00	 1.1616414970e+00
 1.0046954228e+00	 1.3786354671e+00	 1.0499645206e+00
 9.9129918793e-01	 1.3882991966e+00	 9.7350719793e-01
 9.7782085850e-01	 1.3978251711e+00	 9.2796166285e-01
 9.6426254050e-01	 1.4072123847e+00	 9.0943268765e-01
 9.5062635536e-01	 1.4164598738e+00	 9.1442975852e-01
 9.3691443887e-01	 1.4255667177e+00	 9.3985972306e-01
 9.2312894020e-01	 1.4345320388e+00	 9.8302003292e-01
 9.0927202075e-01	 1.4433550027e+00	 1.0415925980e+00
 8.9534585312e-01	 1.4520348186e+00	 1.1136382604e+00
 8.8135262000e-01	 1.4605707390e+00	 1.1975918906e+00
 8.3576079094e-01	 1.3850163128e+00	 2.0925425452e+00
 8.2242990157e-01	 1.3929735565e+00	 1.8050747035e+00
 8.0903958181e-01	 1.4007930576e+00	 1.5396717328e+00
 7.9559192559e-01	 1.4084742337e+00	 1.3000419664e+00
 7.8208903234e-01	 1.4160165444e+00	 1.0900617126e+00
 7.6853300592e-01	 1.4234194906e+00	 9.1376857045e-01
 7.5492595365e-01	 1.4306826148e+00	 7.7535526334e-01
 7.4126998530e-01	 1.4378055012e+00	 6.7916397318e-01
 7.2756721209e-01	 1.4447877749e+00	 6.2554094195e-01
 7.1381974571e-01	 1.4516291026e+00	 6.1387187883e-01
 7.0002969732e-01	 1.4583291918e+00	 6.4835841499e-01
 8.4032001648e-01	 1.3925718260e+00	 2.1955219380e+00
 8.2691640471e-01	 1.4005724780e+00	 1.8819327875e+00
 8.1345303834e-01	 1.4084346358e+00	 1.5883015656e+00
 7.9993202274e-01	 1.4161577141e+00	 1.3204327020e+00
 7.8635546877e-01	 1.4237411695e+00	 1.0840052892e+00
 7.7272549179e-01	 1.4311845001e+00	 8.8456720540e-01
 7.5904421060e-01	 1.4384872460e+00	 7.2753017946e-01
 7.4531374649e-01	 1.4456489890e+00	 6.1816576772e-01
 7.3153622218e-01	 1.4526693522e+00	 5.5960059154e-01
 7.1771376089e-01	 1.4595480006e+00	 5.5001587132e-01
 7.0384848532e-01	 1.4662846400e+00	 5.9321853328e-01
 8.4487923943e-01	 1.4001273350e+00	 2.2307789185e+00
 8.3140290530e-01	 1.4081713952e+00	 1.9185110765e+00
 8.1786649237e-01	 1.4160762097e+00	 1.6214278970e+00
 8.0427211742e-01	 1.4238411902e+00	 1.3469961392e+00
 7.9062190279e-01	 1.4314657902e+00	 1.1023171746e+00
 7.7691797528e-01	 1.4389495052e+00	 8.9412185548e-01
 7.6316246522e-01	 1.4462918727e+00	 7.2876667541e-01
 7.4935750538e-01	 1.4534924723e+00	 6.1223118543e-01
 7.3550523002e-01	 1.4605509251e+00	 5.4947815903e-01
 7.2160777388e-01	 1.4674668941e+00	 5.3889508758e-01
 7.0766727115e-01	 1.4742400837e+00	 5.8308129443e-01
 8.4943845722e-01	 1.4076828354e+00	 2.2080269984e+00
 8.3588940081e-01	 1.4157703037e+00	 1.9192135379e+00
 8.2227994140e-01	 1.4237177750e+00	 1.6389109094e+00
 8.0861220719e-01	 1.4315246576e+00	 1.3758186751e+00
 7.9488833197e-01	 1.4391904022e+00	 1.1380836296e+00
 7.8111045402e-01	 1.4467145015e+00	 9.3329535273e-01
 7.6728071517e-01	 1.4540964906e+00	 7.6848333317e-01
 7.5340125969e-01	 1.4613359468e+00	 6.5011562290e-01
 7.3947423337e-01	 1.4684324891e+00	 5.8406344757e-01
 7.2550178244e-01	 1.4753857787e+00	 5.7029481146e-01
 7.1148605264e-01	 1.4821955184e+00	 6.0940635357e-01
 8.5399766725e-01	 1.4152383230e+00	 2.1367698221e+00
 8.4037588869e-01	 1.4233691993e+00	 1.8883482161e+00
 8.2669338292e-01	 1.4313593273e+00	 1.6406124908e+00
 8.1295228958e-01	 1.4392081119e+00	 1.4030696315e+00
 7.9915475390e-01	 1.4469150010e+00	 1.1845385669e+00
 7.8530292564e-01	 1.4544794846e+00	 9.9314634639e-01
 7.7139895812e-01	 1.4619010953e+00	 8.3632609845e-01
 7.5744500713e-01	 1.4691794079e+00	 7.2081672378e-01
 7.4344322996e-01	 1.4763140396e+00	 6.5266426964e-01
 7.2939578439e-01	 1.4833046498e+00	 6.3419877534e-01
 7.1530482765e-01	 1.4901509396e+00	 6.6326993695e-01
 8.5855686695e-01	 1.4227937935e+00	 2.0263061276e+00
 8.4486236640e-01	 1.4309680777e+00	 1.8301291847e+00
 8.3110681444e-01	 1.4390008622e+00	 1.6263956135e+00
 8.1729236213e-01	 1.4468915489e+00	 1.4249984963e+00
 8.0342116615e-01	 1.4546395824e+00	 1.2350590936e+00
 7.8949538775e-01	 1.4622444501e+00	 1.0649235879e+00
 7.7551719173e-01	 1.4697056822e+00	 9.2216175023e-01
 7.6148874540e-01	 1.4770228512e+00	 8.1356747584e-01
 7.4741221756e-01	 1.4841955723e+00	 7.4509311397e-01
 7.3328977751e-01	 1.4912235029e+00	 7.2008717650e-01
 7.1912359400e-01	 1.4981063427e+00	 7.3599244112e-01
 8.6311605373e-01	 1.4303492425e+00	 1.8857345351e+00
 8.4934883140e-01	 1.4385669346e+00	 1.7486784217e+00
 8.3552023346e-01	 1.4466423755e+00	 1.5961237167e+00
 8.2163242239e-01	 1.4545749640e+00	 1.4379322368e+00
 8.0768756632e-01	 1.4623641418e+00	 1.2831611803e+00
 7.9368783798e-01	 1.4700093936e+00	 1.1400603823e+00
 7.7963541367e-01	 1.4775102470e+00	 1.0160715624e+00
 7.6553247221e-01	 1.4848662724e+00	 9.1771464720e-01
 7.5138119391e-01	 1.4920770827e+00	 8.5007764638e-01
 7.3718375960e-01	 1.4991423336e+00	 8.1795308890e-01
 7.2294234953e-01	 1.5060617233e+00	 8.1943875217e-01
 8.6767522501e-01	 1.4379046659e+00	 1.7239581690e+00
 8.5383528115e-01	 1.4461657657e+00	 1.6480276110e+00
 8.3993363747e-01	 1.4542838628e+00	 1.5496600938e+00
 8.2597246788e-01	 1.4622583530e+00	 1.4382726824e+00
 8.1195395198e-01	 1.4700886750e+00	 1.3224954518e+00
 7.9788027396e-01	 1.4777743108e+00	 1.2101691990e+00
 7.8375362161e-01	 1.4853147853e+00	 1.1081875040e+00
 7.6957618527e-01	 1.4927096668e+00	 1.0219641154e+00
 7.5535015677e-01	 1.4999585662e+00	 9.5701504424e-01
 7.4107772844e-01	 1.5070611374e+00	 9.1829061000e-01
 7.2676109208e-01	 1.5140170769e+00	 9.0564045045e-01
 8.7223437821e-01	 1.4454600592e+00	 1.5496891216e+00
 8.5832171309e-01	 1.4537645665e+00	 1.5321198718e+00
 8.4434702397e-01	 1.4619253198e+00	 1.4868672837e+00
 8.3031249616e-01	 1.4699417115e+00	 1.4224939748e+00
 8.1622032071e-01	 1.4778131775e+00	 1.3468430941e+00
 8.0207269330e-01	 1.4855391971e+00	 1.2668497440e+00
 7.8787181322e-01	 1.4931192927e+00	 1.1879574547e+00
 7.7361988229e-01	 1.5005530302e+00	 1.1158575790e+00
 7.5931910388e-01	 1.5078400185e+00	 1.0557460101e+00
 7.4497168184e-01	 1.5149799098e+00	 1.0121754970e+00
 7.3057981947e-01	 1.5219723988e+00	 9.8679125858e-01
 8.7679351073e-01	 1.4530154184e+00	 1.3714527607e+00
 8.6280812470e-01	 1.4613633330e+00	 1.4048114195e+00
 8.4876039046e-01	 1.4695667422e+00	 1.4076064663e+00
 8.3465250477e-01	 1.4776250352e+00	 1.3871400828e+00
 8.2048667011e-01	 1.4855376451e+00	 1.3499168498e+00
 8.0626509364e-01	 1.4933040482e+00	 1.3009658260e+00
 7.9198998615e-01	 1.5009237646e+00	 1.2457390929e+00
 7.7766356098e-01	 1.5083963579e+00	 1.1893320482e+00
 7.6328803300e-01	 1.5157214351e+00	 1.1363124597e+00
 7.4886561759e-01	 1.5228986463e+00	 1.0907266393e+00
 7.3439852956e-01	 1.5299276848e+00	 1.0552426293e+00
 8.8135262000e-01	 1.4605707390e+00	 1.1975918906e+00
 8.6729451342e-01	 1.4689620607e+00	 1.2698731601e+00
 8.5317373444e-01	 1.4772081256e+00	 1.3117368620e+00
 8.3899249124e-01	 1.4853083198e+00	 1.3286426754e+00
 8.2475299774e-01	 1.4932620732e+00	 1.3246209568e+00
 8.1045747260e-01	 1.5010688597e+00	 1.3043189822e+00
 7.9610813808e-01	 1.5087281967e+00	 1.2722394917e+00
 7.8170721905e-01	 1.5162396457e+00	 1.2325228552e+00
 7.6725694188e-01	 1.5236028115e+00	 1.1889524381e+00
 7.5275953348e-01	 1.5308173424e+00	 1.1449599798e+00
 7.3821722017e-01	 1.5378829301e+00	 1.1034994682e+00
 7.0002969732e-01	 1.4583291918e+00	 6.4835841499e-01
 6.8619682187e-01	 1.4648888939e+00	 7.0669377369e-01
 6.7232556799e-01	 1.4713068460e+00	 7.6331653120e-01
 6.5841803993e-01	 1.4775828767e+00	 8.1765170132e-01
 6.4447633766e-01	 1.4837168546e+00	 8.6900577111e-01
 6.3050255592e-01	 1.4897086883e+00	 9.1647752819e-01
 6.1649878331e-01	 1.4955583263e+00	 9.5934958837e-01
 6.0246710142e-01	 1.5012657558e+00	 9.9688962384e-01
 5.8840958390e-01	 1.5068310035e+00	 1.0282819428e+00
 5.7432829563e-01	 1.5122541343e+00	 1.0526265760e+00
 5.6022529188e-01	 1.5175352514e+00	 1.0689385804e+00
 7.0384848532e-01	 1.4662846400e+00	 5.9321853328e-01
 6.8994014904e-01	 1.4728801265e+00	 6.6521237982e-01
 6.7599322497e-01	 1.4793330897e+00	 7.3798980295e-01
 6.6200982884e-01	 1.4856433572e+00	 8.0972924588e-01
 6.4799207207e-01	 1.4918107970e+00	 8.7852112903e-01
 6.3394206084e-01	 1.4978353174e+00	 9.4282842402e-01
 6.1986189513e-01	 1.5037168661e+00	 1.0011563351e+00
 6.0575366789e-01	 1.5094554307e+00	 1.0520253125e+00
 5.9161946408e-01	 1.5150510379e+00	 1.0939694940e+00
 5.7746135985e-01	 1.5205037528e+00	 1.1255352443e+00
 5.6328142167e-01	 1.5258136793e+00	 1.1452797937e+00
 7.0766727115e-01	 1.4742400837e+00	 5.8308129443e-01
 6.9368347409e-01	 1.4808713545e+00	 6.5887249556e-01
 6.7966087987e-01	 1.4873593288e+00	 7.3829518601e-01
 6.6560161572e-01	 1.4937038332e+00	 8.1848999871e-01
 6.5150780450e-01	 1.4999047349e+00	 8.9706181634e-01
 6.3738156381e-01	 1.5059619418e+00	 9.7171707961e-01
 6.2322500505e-01	 1.5118754013e+00	 1.0402594407e+00
 6.0904023250e-01	 1.5176451010e+00	 1.1005878681e+00
 5.9482934244e-01	 1.5232710675e+00	 1.1506947476e+00
 5.8059442230e-01	 1.5287533666e+00	 1.1886639828e+00
 5.6633754974e-01	 1.5340921025e+00	 1.2126690958e+00
 7.1148605264e-01	 1.4821955184e+00	 6.0940635357e-01
 6.9742679489e-01	 1.4888625735e+00	 6.8071149780e-01
 6.8332853062e-01	 1.4953855588e+00	 7.5875493541e-01
 6.6919339852e-01	 1.5017643000e+00	 8.4029378897e-01
 6.5502353294e-01	 1.5079986637e+00	 9.2224930114e-01
 6.4082106288e-01	 1.5140885570e+00	 1.0017049419e+00
 6.2658811115e-01	 1.5200339273e+00	 1.0759044240e+00
 6.1232679338e-01	 1.5258347620e+00	 1.1422496316e+00
 5.9803921717e-01	 1.5314910879e+00	 1.1982984647e+00
 5.8372748119e-01	 1.5370029711e+00	 1.2417626061e+00
 5.6939367434e-01	 1.5423705164e+00	 1.2705052106e+00
 7.1530482765e-01	 1.4901509396e+00	 6.6326993695e-01
 7.0117010933e-01	 1.4968537789e+00	 7.2370372966e-01
 6.8699617512e-01	 1.5034117752e+00	 7.9442751429e-01
 6.7278517522e-01	 1.5098247531e+00	 8.7164064817e-01
 6.5853925540e-01	 1.5160925786e+00	 9.5175260569e-01
 6.4426055611e-01	 1.5222151584e+00	 1.0313810877e+00
 6.2995121153e-01	 1.5281924394e+00	 1.1073499801e+00
 6.1561334867e-01	 1.5340244090e+00	 1.1766871661e+00
 6.0124908643e-01	 1.5397110943e+00	 1.2366221980e+00
 5.8686053476e-01	 1.5452525615e+00	 1.2845838336e+00
 5.7244979375e-01	 1.5506489162e+00	 1.3181974409e+00
 7.1912359400e-01	 1.4981063427e+00	 7.3599244112e-01
 7.0491341528e-01	 1.5048449662e+00	 7.8140481735e-01
 6.9066381132e-01	 1.5114379733e+00	 8.4049745885e-01
 6.7637694377e-01	 1.5178851880e+00	 9.0910140974e-01
 6.6205496989e-01	 1.5241864753e+00	 9.8328686983e-01
 6.4770004154e-01	 1.5303417413e+00	 1.0593613211e+00
 6.3331430430e-01	 1.5363509330e+00	 1.1338674662e+00
 6.1889989652e-01	 1.5422140375e+00	 1.2035809852e+00
 6.0445894843e-01	 1.5479310820e+00	 1.2655081160e+00
 5.8999358122e-01	 1.5535021333e+00	 1.3168830632e+00
 5.7550590622e-01	 1.5589272972e+00	 1.3551652426e+00
 7.2294234953e-01	 1.5060617233e+00	 8.1943875217e-01
 7.0865671063e-01	 1.5128361308e+00	 8.4750497096e-01
 6.9433143712e-01	 1.5194641488e+00	 8.9224720462e-01
 6.7996870215e-01	 1.5259456000e+00	 9.4931565949e-01
 6.6557067442e-01	 1.5322803489e+00	 1.0146119581e+00
 6.5113951722e-01	 1.5384683013e+00	 1.0842872967e+00
 6.3667738753e-01	 1.5445094035e+00	 1.1547404016e+00
 6.2218643505e-01	 1.5504036428e+00	 1.2226152882e+00
 6.0766880132e-01	 1.5561510465e+00	 1.2847988314e+00
 5.9312661881e-01	 1.5617516816e+00	 1.3384181499e+00
 5.7856201004e-01	 1.5672056547e+00	 1.3808378119e+00
 7.2676109208e-01	 1.5140170769e+00	 9.0564045045e-01
 7.1239999324e-01	 1.5208272683e+00	 9.1582286615e-01
 6.9799905045e-01	 1.5274902969e+00	 9.4505432931e-01
 6.8356044832e-01	 1.5340059846e+00	 9.8898974887e-01
 6.6908636699e-01	 1.5403741951e+00	 1.0435311087e+00
 6.5457898121e-01	 1.5465948336e+00	 1.1048256703e+00
 6.4004045933e-01	 1.5526678463e+00	 1.1692639823e+00
 6.2547296241e-01	 1.5585932203e+00	 1.2334777018e+00
 6.1087864331e-01	 1.5643709830e+00	 1.2943372335e+00
 5.9625964575e-01	 1.5700012019e+00	 1.3489491905e+00
 5.8161810347e-01	 1.5754839841e+00	 1.3946536836e+00
 7.3057981947e-01	 1.5219723988e+00	 9.8679125858e-01
 7.1614326101e-01	 1.5288183741e+00	 9.8030209598e-01
 7.0166664924e-01	 1.5355164132e+00	 9.9438888003e-01
 6.8715218024e-01	 1.5420663372e+00	 1.0248948685e+00
 6.7260204562e-01	 1.5484680092e+00	 1.0678896235e+00
 6.5801843155e-01	 1.5547213337e+00	 1.1196672728e+00
 6.4340351778e-01	 1.5608262567e+00	 1.1767446089e+00
 6.2875947673e-01	 1.5667827652e+00	 1.2358590293e+00
 6.1408847256e-01	 1.5725908869e+00	 1.2939663242e+00
 5.9939266026e-01	 1.5782506895e+00	 1.3482383138e+00
 5.8467418477e-01	 1.5837622807e+00	 1.3960603412e+00
 7.3439852956e-01	 1.5299276848e+00	 1.0552426293e+00
 7.1988651181e-01	 1.5368094436e+00	 1.0350077311e+00
 7.0533423139e-01	 1.5435424931e+00	 1.0358107820e+00
 6.9074389587e-01	 1.5501266533e+00	 1.0538651800e+00
 6.7611770832e-01	 1.5565617865e+00	 1.0855735965e+00
 6.6145786631e-01	 1.5628477969e+00	 1.1275263097e+00
 6.4676656100e-01	 1.5689846301e+00	 1.1764994275e+00
 6.3204597615e-01	 1.5749722730e+00	 1.2294530050e+00
 6.1729828726e-01	 1.5808107535e+00	 1.2835290576e+00
 6.0252566056e-01	 1.5865001397e+00	 1.3360494751e+00
 5.8773025222e-01	 1.5920405398e+00	 1.3845138367e+00
 7.3821722017e-01	 1.5378829301e+00	 1.1034994682e+00
 7.2362974352e-01	 1.5448004724e+00	 1.0741229849e+00
 7.0900179485e-01	 1.5515685321e+00	 1.0649673256e+00
 6.9433559319e-01	 1.5581869283e+00	 1.0727960038e+00
 6.7963335308e-01	 1.5646555226e+00	 1.0945086808e+00
 6.6489728352e-01	 1.5709742187e+00	 1.1271395827e+00
 6.5012958706e-01	 1.5771429619e+00	 1.1678558836e+00
 6.3533245882e-01	 1.5831617391e+00	 1.2139560550e+00
 6.2050808558e-01	 1.5890305782e+00	 1.2628681832e+00
 6.0565864489e-01	 1.5947495478e+00	 1.3121482565e+00
 5.9078630409e-01	 1.6003187566e+00	 1.3594784218e+00
 5.6022529188e-01	 1.5175352514e+00	 1.0689385804e+00
 5.4610501945e-01	 1.5226736338e+00	 1.0830289807e+00
 5.3196711483e-01	 1.5276703685e+00	 1.1010905213e+00
 5.1781359778e-01	 1.5325256694e+00	 1.1227062556e+00
 5.0364647525e-01	 1.5372397864e+00	 1.1475440128e+00
 4.8946774058e-01	 1.5418130057e+00	 1.1753531302e+00
 4.7527937279e-01	 1.5462456483e+00	 1.2059612043e+00
 4.6108333583e-01	 1.5505380703e+00	 1.2392708613e+00
 4.4688157787e-01	 1.5546906618e+00	 1.2752565514e+00
 4.3267603064e-01	 1.5587038468e+00	 1.3139613665e+00
 4.1846860876e-01	 1.5625780821e+00	 1.3554938844e+00
 5.6328142167e-01	 1.5258136793e+00	 1.1452797937e+00
 5.4908412062e-01	 1.5309800925e+00	 1.1597018392e+00
 5.3486909118e-01	 1.5360040853e+00	 1.1762919104e+00
 5.2063836415e-01	 1.5408858727e+00	 1.1951238153e+00
 5.0639395742e-01	 1.5456257061e+00	 1.2163065369e+00
 4.9213787521e-01	 1.5502238731e+00	 1.2399811738e+00
 4.7787210732e-01	 1.5546806966e+00	 1.2663179646e+00
 4.6359862841e-01	 1.5589965345e+00	 1.2955133933e+00
 4.4931939731e-01	 1.5631717792e+00	 1.3277873794e+00
 4.3503635627e-01	 1.5672068568e+00	 1.3633805500e+00
 4.2075143034e-01	 1.5711022268e+00	 1.4025515952e+00
 5.6633754974e-01	 1.5340921025e+00	 1.2126690958e+00
 5.5206322010e-01	 1.5392865465e+00	 1.2289541615e+00
 5.3777106590e-01	 1.5443377974e+00	 1.2452713181e+00
 5.2346312893e-01	 1.5492460713e+00	 1.2621112733e+00
 5.0914143803e-01	 1.5540116211e+00	 1.2799588511e+00
 4.9480800831e-01	 1.5586347358e+00	 1.2992900882e+00
 4.8046484037e-01	 1.5631157401e+00	 1.3205694681e+00
 4.6611391957e-01	 1.5674549940e+00	 1.3442472898e+00
 4.5175721537e-01	 1.5716528918e+00	 1.3707571707e+00
 4.3739668055e-01	 1.5757098620e+00	 1.4005136815e+00
 4.2303425063e-01	 1.5796263666e+00	 1.4339101122e+00
 5.6939367434e-01	 1.5423705164e+00	 1.2705052106e+00
 5.5504231621e-01	 1.5475929911e+00	 1.2897668089e+00
 5.4067303732e-01	 1.5526715001e+00	 1.3067191930e+00
 5.2628789050e-01	 1.5576062605e+00	 1.3221969307e+00
 5.1188891553e-01	 1.5623975266e+00	 1.3369960927e+00
 4.9747813840e-01	 1.5670455889e+00	 1.3518714547e+00
 4.8305757048e-01	 1.5715507741e+00	 1.3675338789e+00
 4.6862920788e-01	 1.5759134438e+00	 1.3846478741e+00
 4.5419503066e-01	 1.5801339947e+00	 1.4038293300e+00
 4.3975700216e-01	 1.5842128576e+00	 1.4256434248e+00
 4.2531706833e-01	 1.5881504968e+00	 1.4506027007e+00
 5.7244979375e-01	 1.5506489162e+00	 1.3181974409e+00
 5.5802140725e-01	 1.5558994216e+00	 1.3411403246e+00
 5.4357500381e-01	 1.5610051885e+00	 1.3593520521e+00
 5.2911264727e-01	 1.5659664354e+00	 1.3739388064e+00
 5.1463638836e-01	 1.5707834178e+00	 1.3859440141e+00
 5.0014826394e-01	 1.5754564278e+00	 1.3963456007e+00
 4.8565029619e-01	 1.5799857937e+00	 1.4060534596e+00
 4.7114449192e-01	 1.5843718793e+00	 1.4159071318e+00
 4.5663284181e-01	 1.5886150833e+00	 1.4266736920e+00
 4.4211731976e-01	 1.5927158387e+00	 1.4390458378e+00
 4.2759988214e-01	 1.5966746125e+00	 1.4536401774e+00
 5.7550590622e-01	 1.5589272972e+00	 1.3551652426e+00
 5.6100049153e-01	 1.5642058333e+00	 1.3820942730e+00
 5.4647696372e-01	 1.5693388581e+00	 1.4019116551e+00
 5.3193739763e-01	 1.5743265914e+00	 1.4159237206e+00
 5.1738385496e-01	 1.5791692900e+00	 1.4253580477e+00
 5.0281838343e-01	 1.5838672476e+00	 1.4313607195e+00
 4.8824301602e-01	 1.5884207942e+00	 1.4349938199e+00
 4.7365977025e-01	 1.5928302956e+00	 1.4372331625e+00
 4.5907064744e-01	 1.5970961526e+00	 1.4389662491e+00
 4.4447763201e-01	 1.6012188005e+00	 1.4409904523e+00
 4.2988269079e-01	 1.6051987089e+00	 1.4440114169e+00
 5.7856201004e-01	 1.5672056547e+00	 1.3808378119e+00
 5.6397956738e-01	 1.5725122214e+00	 1.4116665974e+00
 5.4937891540e-01	 1.5776725041e+00	 1.4331642033e+00
 5.3476213999e-01	 1.5826867237e+00	 1.4467664047e+00
 5.2013131378e-01	 1.5875551384e+00	 1.4538223987e+00
 5.0548849535e-01	 1.5922780435e+00	 1.4555920170e+00
 4.9083572850e-01	 1.5968557708e+00	 1.4532431881e+00
 4.7617504145e-01	 1.6012886880e+00	 1.4478496475e+00
 4.6150844616e-01	 1.6055771979e+00	 1.4403888887e+00
 4.4683793757e-01	 1.6097217383e+00	 1.4317403515e+00
 4.3216549296e-01	 1.6137227811e+00	 1.4226838409e+00
 5.8161810347e-01	 1.5754839841e+00	 1.3946536836e+00
 5.6695863310e-01	 1.5808185813e+00	 1.4289129966e+00
 5.5228085722e-01	 1.5860061218e+00	 1.4518995629e+00
 5.3758687275e-01	 1.5910468275e+00	 1.4651086390e+00
 5.2287876325e-01	 1.5959409583e+00	 1.4699491654e+00
 5.0815859820e-01	 1.6006888109e+00	 1.4677408830e+00
 4.9342843217e-01	 1.6052907188e+00	 1.4597117040e+00
 4.7869030411e-01	 1.6097470516e+00	 1.4469953336e+00
 4.6394623659e-01	 1.6140582143e+00	 1.4306291362e+00
 4.4919823510e-01	 1.6182246471e+00	 1.4115522427e+00
 4.3444828738e-01	 1.6222468243e+00	 1.3906038912e+00
 5.8467418477e-01	 1.5837622807e+00	 1.3960603412e+00
 5.6993768700e-01	 1.5891249082e+00	 1.4329063206e+00
 5.5518278753e-01	 1.5943397063e+00	 1.4569305108e+00
 5.4041159430e-01	 1.5994068982e+00	 1.4696184157e+00
 5.2562620183e-01	 1.6043267450e+00	 1.4723774856e+00
 5.1082869045e-01	 1.6090995449e+00	 1.4665340888e+00
 4.9602112555e-01	 1.6137256332e+00	 1.4533307331e+00
 4.8120555678e-01	 1.6182053816e+00	 1.4339235312e+00
 4.6638401734e-01	 1.6225391971e+00	 1.4093799056e+00
 4.5155852327e-01	 1.6267275222e+00	 1.3806765281e+00
 4.3673107273e-01	 1.6307708338e+00	 1.3486974876e+00
 5.8773025222e-01	 1.5920405398e+00	 1.3845138367e+00
 5.7291672739e-01	 1.5974311975e+00	 1.4227359825e+00
 5.5808470469e-01	 1.6026732531e+00	 1.4470920028e+00
 5.4323630305e-01	 1.6077669310e+00	 1.4589891270e+00
 5.2837362795e-01	 1.6127124936e+00	 1.4597727088e+00
 5.1349877060e-01	 1.6175102407e+00	 1.4507230075e+00
 4.9861380718e-01	 1.6221605095e+00	 1.4330522010e+00
 4.8372079805e-01	 1.6266636733e+00	 1.4079016285e+00
 4.6882178705e-01	 1.6310201415e+00	 1.3763392577e+00
 4.5391880074e-01	 1.6352303588e+00	 1.3393573714e+00
 4.3901384774e-01	 1.6392948045e+00	 1.2978704696e+00
 5.9078630409e-01	 1.6003187566e+00	 1.3594784218e+00
 5.7589575259e-01	 1.6057374444e+00	 1.3975073879e+00
 5.6098660704e-01	 1.6110067574e+00	 1.4212404636e+00
 5.4606099739e-01	 1.6161269212e+00	 1.4319387766e+00
 5.3112104005e-01	 1.6210981995e+00	 1.4308255927e+00
 5.1616883713e-01	 1.6259208937e+00	 1.4190828579e+00
 5.0120647558e-01	 1.6305953427e+00	 1.3978479472e+00
 4.8623602649e-01	 1.6351219218e+00	 1.3682106178e+00
 4.7125954432e-01	 1.6395010426e+00	 1.3312101630e+00
 4.5627906618e-01	 1.6437331520e+00	 1.2878327626e+00
 4.4129661111e-01	 1.6478187318e+00	 1.2390090248e+00
 4.1846860876e-01	 1.5625780821e+00	 1.3554938844e+00
 4.0426120927e-01	 1.5663138575e+00	 1.3927670667e+00
 3.9005571159e-01	 1.5699116960e+00	 1.4185203203e+00
 3.7585397630e-01	 1.5733721522e+00	 1.4326156685e+00
 3.6165784435e-01	 1.5766958111e+00	 1.4344597717e+00
 3.4746913652e-01	 1.5798832881e+00	 1.4225340149e+00
 3.3328965288e-01	 1.5829352275e+00	 1.3970666400e+00
 3.1912117227e-01	 1.5858523025e+00	 1.3583878822e+00
 3.0496545179e-01	 1.5886352143e+00	 1.3067548504e+00
 2.9082422635e-01	 1.5912846913e+00	 1.2423536493e+00
 2.7669920824e-01	 1.5938014885e+00	 1.1653016786e+00
 4.2075143034e-01	 1.5711022268e+00	 1.4025515952e+00
 4.0646652693e-01	 1.5748583815e+00	 1.4377971309e+00
 3.9218353570e-01	 1.5784758469e+00	 1.4612082441e+00
 3.7790432738e-01	 1.5819551804e+00	 1.4724604582e+00
 3.6363075298e-01	 1.5852969706e+00	 1.4709947946e+00
 3.4936464320e-01	 1.5885018358e+00	 1.4550985173e+00
 3.3510780793e-01	 1.5915704241e+00	 1.4248278186e+00
 3.2086203570e-01	 1.5945034123e+00	 1.3805609522e+00
 3.0662909321e-01	 1.5973015053e+00	 1.3226585673e+00
 2.9241072485e-01	 1.5999654357e+00	 1.2514647016e+00
 2.7820865222e-01	 1.6024959625e+00	 1.1673079035e+00
 4.2303425063e-01	 1.5796263666e+00	 1.4339101122e+00
 4.0867184334e-01	 1.5834029007e+00	 1.4638215796e+00
 3.9431135861e-01	 1.5870399929e+00	 1.4825150975e+00
 3.7995467731e-01	 1.5905382038e+00	 1.4895065504e+00
 3.6560366050e-01	 1.5938981251e+00	 1.4842514987e+00
 3.5126014880e-01	 1.5971203786e+00	 1.4649506247e+00
 3.3692596194e-01	 1.6002056158e+00	 1.4314300280e+00
 3.2260289814e-01	 1.6031545171e+00	 1.3841027843e+00
 3.0829273370e-01	 1.6059677914e+00	 1.3234104601e+00
 2.9399722245e-01	 1.6086461751e+00	 1.2498231867e+00
 2.7971809535e-01	 1.6111904315e+00	 1.1638398250e+00
 4.2531706833e-01	 1.5881504968e+00	 1.4506027007e+00
 4.1087715725e-01	 1.5919474102e+00	 1.4726063639e+00
 3.9643917910e-01	 1.5956041292e+00	 1.4847723062e+00
 3.8200502492e-01	 1.5991212175e+00	 1.4864837588e+00
 3.6757656578e-01	 1.6024992699e+00	 1.4771877539e+00
 3.5315565226e-01	 1.6057389116e+00	 1.4551092367e+00
 3.3874411389e-01	 1.6088407976e+00	 1.4197871942e+00
 3.2434375861e-01	 1.6118056121e+00	 1.3716568626e+00
 3.0995637230e-01	 1.6146340677e+00	 1.3112187398e+00
 2.9558371825e-01	 1.6173269048e+00	 1.2390379512e+00
 2.8122753676e-01	 1.6198848907e+00	 1.1557436719e+00
 4.2759988214e-01	 1.5966746125e+00	 1.4536401774e+00
 4.1308246741e-01	 1.6004919051e+00	 1.4658795241e+00
 3.9856699598e-01	 1.6041682509e+00	 1.4702614901e+00
 3.8405536903e-01	 1.6077042166e+00	 1.4660637613e+00
 3.6954946770e-01	 1.6111004001e+00	 1.4526996417e+00
 3.5505115249e-01	 1.6143574300e+00	 1.4285303394e+00
 3.4056226275e-01	 1.6174759649e+00	 1.3927527380e+00
 3.2608461613e-01	 1.6204566925e+00	 1.3458120936e+00
 3.1162000807e-01	 1.6233003293e+00	 1.2882464728e+00
 2.9717021135e-01	 1.6260076197e+00	 1.2206856171e+00
 2.8273697561e-01	 1.6285793351e+00	 1.1438498366e+00
 4.2988269079e-01	 1.6051987089e+00	 1.4440114169e+00
 4.1528777257e-01	 1.6090363807e+00	 1.4453321115e+00
 4.0069480803e-01	 1.6127323533e+00	 1.4412157066e+00
 3.8610570850e-01	 1.6162871963e+00	 1.4308615692e+00
 3.7152236516e-01	 1.6197015108e+00	 1.4136301051e+00
 3.5694664843e-01	 1.6229759289e+00	 1.3881085805e+00
 3.4238040749e-01	 1.6261111125e+00	 1.3531210980e+00
 3.2782546969e-01	 1.6291077532e+00	 1.3091041835e+00
 3.1328364007e-01	 1.6319665712e+00	 1.2566127180e+00
 2.9875670086e-01	 1.6346883149e+00	 1.1963113861e+00
 2.8424641104e-01	 1.6372737599e+00	 1.1289732547e+00
 4.3216549296e-01	 1.6137227811e+00	 1.4226838409e+00
 4.1749307148e-01	 1.6175808321e+00	 1.4126190807e+00
 4.0282261406e-01	 1.6212964313e+00	 1.3998206535e+00
 3.8815604216e-01	 1.6248701516e+00	 1.3834369496e+00
 3.7349525702e-01	 1.6283025971e+00	 1.3627889895e+00
 3.5884213900e-01	 1.6315944033e+00	 1.3366787913e+00
 3.4419854708e-01	 1.6347462357e+00	 1.3036292025e+00
 3.2956631833e-01	 1.6377587894e+00	 1.2640169696e+00
 3.1494726736e-01	 1.6406327886e+00	 1.2183936265e+00
 3.0034318587e-01	 1.6433689855e+00	 1.1674298175e+00
 2.8575584219e-01	 1.6459681599e+00	 1.1119137703e+00
 4.3444828738e-01	 1.6222468243e+00	 1.3906038912e+00
 4.1969836290e-01	 1.6261252544e+00	 1.3693601527e+00
 4.0495041285e-01	 1.6298604803e+00	 1.3482158336e+00
 3.9020636885e-01	 1.6334530777e+00	 1.3262958026e+00
 3.7546814218e-01	 1.6369036542e+00	 1.3028995135e+00
 3.6073762312e-01	 1.6402128484e+00	 1.2770174588e+00
 3.4601668049e-01	 1.6433813295e+00	 1.2469578934e+00
 3.3130716104e-01	 1.6464097962e+00	 1.2129837067e+00
 3.1661088899e-01	 1.6492989764e+00	 1.1756235042e+00
 3.0192966549e-01	 1.6520496266e+00	 1.1355255794e+00
 2.8726526821e-01	 1.6546625304e+00	 1.0934564892e+00
 4.3673107273e-01	 1.6307708338e+00	 1.3486974876e+00
 4.2190364556e-01	 1.6346696428e+00	 1.3171406507e+00
 4.0707820320e-01	 1.6384244952e+00	 1.2884956820e+00
 3.9225668741e-01	 1.6420359698e+00	 1.2618914939e+00
 3.7744101951e-01	 1.6455046771e+00	 1.2366240009e+00
 3.6263309972e-01	 1.6488312594e+00	 1.2118441483e+00
 3.4783480668e-01	 1.6520163890e+00	 1.1857333028e+00
 3.3304799685e-01	 1.6550607686e+00	 1.1583883125e+00
 3.1827450402e-01	 1.6579651300e+00	 1.1302958397e+00
 3.0351613881e-01	 1.6607302332e+00	 1.1020541741e+00
 2.8877468824e-01	 1.6633568665e+00	 1.0743721181e+00
 4.3901384774e-01	 1.6392948045e+00	 1.2978704696e+00
 4.2410891823e-01	 1.6432139925e+00	 1.2575123083e+00
 4.0920598390e-01	 1.6469884714e+00	 1.2227106575e+00
 3.9430699667e-01	 1.6506188229e+00	 1.1926261459e+00
 3.7941388789e-01	 1.6541056611e+00	 1.1665693800e+00
 3.6452856773e-01	 1.6574496312e+00	 1.1438228803e+00
 3.4965292463e-01	 1.6606514094e+00	 1.1225281839e+00
 3.3478882476e-01	 1.6637117019e+00	 1.1025665706e+00
 3.1993811150e-01	 1.6666312442e+00	 1.0843642975e+00
 3.0510260495e-01	 1.6694108005e+00	 1.0684426401e+00
 2.9028410143e-01	 1.6720511631e+00	 1.0554172924e+00
 4.4129661111e-01	 1.6478187318e+00	 1.2390090248e+00
 4.2631417965e-01	 1.6517582986e+00	 1.1919940525e+00
 4.1133375375e-01	 1.6555524039e+00	 1.1528682996e+00
 3.9635729548e-01	 1.6592016323e+00	 1.1208518879e+00
 3.8138674621e-01	 1.6627066012e+00	 1.0952885468e+00
 3.6642402607e-01	 1.6660679591e+00	 1.0755634610e+00
 3.5147103331e-01	 1.6692863858e+00	 1.0598631991e+00
 3.3652964380e-01	 1.6723625910e+00	 1.0478072950e+00
 3.2160171051e-01	 1.6752973142e+00	 1.0397436789e+00
 3.0668906299e-01	 1.6780913235e+00	 1.0360902294e+00
 2.9179350692e-01	 1.6807454153e+00	 1.0373348920e+00
 2.7669920824e-01	 1.5938014885e+00	 1.1653016786e+00
 2.6258969053e-01	 1.5961867811e+00	 1.0899329835e+00
 2.4849974570e-01	 1.5984409358e+00	 1.0301748836e+00
 2.3443102005e-01	 1.6005647824e+00	 9.8543561678e-01
 2.2038513559e-01	 1.6025591752e+00	 9.5511653328e-01
 2.0636368968e-01	 1.6044249910e+00	 9.3861432767e-01
 1.9236825466e-01	 1.6061631297e+00	 9.3532328777e-01
 1.7840037765e-01	 1.6077745126e+00	 9.4463754877e-01
 1.6446158018e-01	 1.6092600820e+00	 9.6595334120e-01
 1.5055335800e-01	 1.6106208007e+00	 9.9867122254e-01
 1.3667718079e-01	 1.6118576511e+00	 1.0421982833e+00
 2.7820865222e-01	 1.6024959625e+00	 1.1673079035e+00
 2.6402216456e-01	 1.6048942673e+00	 1.0848009779e+00
 2.4985535653e-01	 1.6071607188e+00	 1.0181749361e+00
 2.3570988346e-01	 1.6092961514e+00	 9.6708223139e-01
 2.2158737617e-01	 1.6113014239e+00	 9.3111605543e-01
 2.0748944074e-01	 1.6131774181e+00	 9.0981356322e-01
 1.9341765812e-01	 1.6149250387e+00	 9.0265915363e-01
 1.7937358382e-01	 1.6165452119e+00	 9.0908779135e-01
 1.6535874770e-01	 1.6180388854e+00	 9.2848835632e-01
 1.5137465366e-01	 1.6194070271e+00	 9.6020700788e-01
 1.3742277941e-01	 1.6206506247e+00	 1.0035505518e+00
 2.7971809535e-01	 1.6111904315e+00	 1.1638398250e+00
 2.6545463777e-01	 1.6136017486e+00	 1.0794785518e+00
 2.5121096660e-01	 1.6158804968e+00	 1.0104089892e+00
 2.3698874614e-01	 1.6180275154e+00	 9.5650227053e-01
 2.2278961607e-01	 1.6200436677e+00	 9.1752649780e-01
 2.0861519117e-01	 1.6219298403e+00	 8.9315079402e-01
 1.9446706097e-01	 1.6236869427e+00	 8.8294944333e-01
 1.8034678944e-01	 1.6253159063e+00	 8.8640610242e-01
 1.6625591471e-01	 1.6268176838e+00	 9.0291806699e-01
 1.5219594886e-01	 1.6281932485e+00	 9.3180057842e-01
 1.3816837761e-01	 1.6294435933e+00	 9.7229115653e-01
 2.8122753676e-01	 1.6198848907e+00	 1.1557436719e+00
 2.6688710935e-01	 1.6223092199e+00	 1.0740416546e+00
 2.5256657514e-01	 1.6246002650e+00	 1.0063302376e+00
 2.3826760737e-01	 1.6267588695e+00	 9.5267350556e-01
 2.2399185461e-01	 1.6287859015e+00	 9.1299725674e-01
 2.0974094033e-01	 1.6306822525e+00	 8.8709371885e-01
 1.9551646264e-01	 1.6324488368e+00	 8.7462637894e-01
 1.8131999395e-01	 1.6340865907e+00	 8.7513490758e-01
 1.6715308071e-01	 1.6355964723e+00	 8.8804015983e-01
 1.5301724313e-01	 1.6369794599e+00	 9.1264923617e-01
 1.3891397496e-01	 1.6382365519e+00	 9.4816058789e-01
 2.8273697561e-01	 1.6285793351e+00	 1.1438498366e+00
 2.6831957851e-01	 1.6310166765e+00	 1.0685669320e+00
 2.5392218136e-01	 1.6333200183e+00	 1.0054059347e+00
 2.3954646643e-01	 1.6354902088e+00	 9.5459796187e-01
 2.2519409110e-01	 1.6375281206e+00	 9.1620901536e-01
 2.1086668757e-01	 1.6394346498e+00	 8.9014520098e-01
 1.9656586252e-01	 1.6412107159e+00	 8.7615807886e-01
 1.8229319681e-01	 1.6428572603e+00	 8.7385012576e-01
 1.6805024518e-01	 1.6443752458e+00	 8.8268028975e-01
 1.5383853600e-01	 1.6457656564e+00	 9.0196961921e-01
 1.3965957104e-01	 1.6470294956e+00	 9.3090694938e-01
 2.8424641104e-01	 1.6372737599e+00	 1.1289732547e+00
 2.6975204441e-01	 1.6397241134e+00	 1.0631316759e+00
 2.5527778452e-01	 1.6420397519e+00	 1.0071169966e+00
 2.4082532259e-01	 1.6442215283e+00	 9.6130125911e-01
 2.2639632486e-01	 1.6462703197e+00	 9.2587290414e-01
 2.1199243226e-01	 1.6481870273e+00	 9.0084233213e-01
 1.9761526003e-01	 1.6499725752e+00	 8.8604760788e-01
 1.8326639746e-01	 1.6516279099e+00	 8.8116028778e-01
 1.6894740761e-01	 1.6531539995e+00	 8.8569134925e-01
 1.5465982701e-01	 1.6545518329e+00	 8.9899720338e-01
 1.4040516544e-01	 1.6558224194e+00	 9.2028577302e-01
 2.8575584219e-01	 1.6459681599e+00	 1.1119137703e+00
 2.7118450626e-01	 1.6484315255e+00	 1.0578137742e+00
 2.5663338383e-01	 1.6507594608e+00	 1.0109576157e+00
 2.4210417513e-01	 1.6529528230e+00	 9.7183197111e-01
 2.2759855522e-01	 1.6550124942e+00	 9.4072968690e-01
 2.1311817376e-01	 1.6569393800e+00	 9.1775552493e-01
 1.9866465456e-01	 1.6587344097e+00	 9.0283205628e-01
 1.8423959536e-01	 1.6603985347e+00	 8.9570568200e-01
 1.6984456751e-01	 1.6619327282e+00	 8.9595276012e-01
 1.5548111569e-01	 1.6633379846e+00	 9.0298581916e-01
 1.4115075772e-01	 1.6646153182e+00	 9.1605984016e-01
 2.8726526821e-01	 1.6546625304e+00	 1.0934564892e+00
 2.7261696323e-01	 1.6571389081e+00	 1.0526916602e+00
 2.5798897854e-01	 1.6594791400e+00	 1.0164348863e+00
 2.4338302331e-01	 1.6616840881e+00	 9.8526100464e-01
 2.2880078150e-01	 1.6637546389e+00	 9.5954897125e-01
 2.1424391143e-01	 1.6656917030e+00	 9.3948763295e-01
 1.9971404552e-01	 1.6674962144e+00	 9.2508164707e-01
 1.8521278995e-01	 1.6691691297e+00	 9.1615752612e-01
 1.7074172435e-01	 1.6707114272e+00	 9.1236978674e-01
 1.5630240158e-01	 1.6721241064e+00	 9.1320718322e-01
 1.4189634747e-01	 1.6734081872e+00	 9.1799900741e-01
 2.8877468824e-01	 1.6633568665e+00	 1.0743721181e+00
 2.7404941453e-01	 1.6658462561e+00	 1.0478442624e+00
 2.5934456787e-01	 1.6681987847e+00	 1.0230684396e+00
 2.4466186643e-01	 1.6704153185e+00	 1.0006809963e+00
 2.3000300300e-01	 1.6724967489e+00	 9.8112844262e-01
 2.1536964464e-01	 1.6744439912e+00	 9.6467309723e-01
 2.0076343232e-01	 1.6762579843e+00	 9.5139887027e-01
 1.8618598067e-01	 1.6779396898e+00	 9.4121716408e-01
 1.7163887763e-01	 1.6794900913e+00	 9.3387287030e-01
 1.5712368422e-01	 1.6809101933e+00	 9.2895044409e-01
 1.4264193426e-01	 1.6822010213e+00	 9.2588003764e-01
 2.9028410143e-01	 1.6720511631e+00	 1.0554172924e+00
 2.7548185933e-01	 1.6745535646e+00	 1.0433509539e+00
 2.6070015105e-01	 1.6769183898e+00	 1.0303900897e+00
 2.4594070375e-01	 1.6791465094e+00	 1.0172057269e+00
 2.3120521906e-01	 1.6812388193e+00	 1.0042931210e+00
 2.1649537274e-01	 1.6831962397e+00	 9.9197711848e-01
 2.0181281437e-01	 1.6850197145e+00	 9.8041764327e-01
 1.8715916699e-01	 1.6867102102e+00	 9.6961528725e-01
 1.7253602685e-01	 1.6882687155e+00	 9.5941698302e-01
 1.5794496313e-01	 1.6896962404e+00	 9.4952174136e-01
 1.4338751767e-01	 1.6909938155e+00	 9.3948643576e-01
 2.9179350692e-01	 1.6807454153e+00	 1.0373348920e+00
 2.7691429682e-01	 1.6832608288e+00	 1.0392915029e+00
 2.6205572732e-01	 1.6856379504e+00	 1.0379434877e+00
 2.4721953454e-01	 1.6878776557e+00	 1.0339695528e+00
 2.3240742898e-01	 1.6899808451e+00	 1.0278946397e+00
 2.1762109510e-01	 1.6919484436e+00	 1.0200948537e+00
 2.0286219106e-01	 1.6937814001e+00	 1.0108024963e+00
 1.8813234834e-01	 1.6954806859e+00	 1.0001111789e+00
 1.7343317150e-01	 1.6970472951e+00	 9.8798100177e-01
 1.5876623785e-01	 1.6984822427e+00	 9.7424377810e-01
 1.4413309728e-01	 1.6997865649e+00	 9.5860828913e-01
 1.3667718079e-01	 1.6118576511e+00	 1.0421982833e+00
 1.2283683665e-01	 1.6129714553e+00	 1.0815038221e+00
 1.0903135356e-01	 1.6139634527e+00	 1.1038240025e+00
 9.5262089698e-02	 1.6148346794e+00	 1.1119257030e+00
 8.1530377368e-02	 1.6155861883e+00	 1.1085460945e+00
 6.7837522827e-02	 1.6162190481e+00	 1.0963919995e+00
 5.4184806178e-02	 1.6167343431e+00	 1.0781393131e+00
 4.0573481271e-02	 1.6171331722e+00	 1.0564324822e+00
 2.7004775613e-02	 1.6174166482e+00	 1.0338840412e+00
 1.3479890307e-02	 1.6175858975e+00	 1.0130742001e+00
 0.0000000000e+00	 1.6176420588e+00	 9.9655048355e-01
 1.3742277941e-01	 1.6206506247e+00	 1.0035505518e+00
 1.2350693370e-01	 1.6217705049e+00	 1.0437088411e+00
 1.0962613921e-01	 1.6227679138e+00	 1.0681780581e+00
 9.5781761542e-02	 1.6236438933e+00	 1.0796821368e+00
 8.1975140250e-02	 1.6243995017e+00	 1.0809571018e+00
 6.8207588723e-02	 1.6250358139e+00	 1.0747494168e+00
 5.4480394048e-02	 1.6255539199e+00	 1.0638143668e+00
 4.0794816914e-02	 1.6259549247e+00	 1.0509144719e+00
 2.7152091524e-02	 1.6262399471e+00	 1.0388179342e+00
 1.3553425535e-02	 1.6264101197e+00	 1.0302971161e+00
 0.0000000000e+00	 1.6264665874e+00	 1.0281270510e+00
 1.3816837761e-01	 1.6294435933e+00	 9.7229115653e-01
 1.2417703037e-01	 1.6305695495e+00	 1.0105567347e+00
 1.1022092453e-01	 1.6315723700e+00	 1.0350525863e+00
 9.6301433091e-02	 1.6324531021e+00	 1.0484055060e+00
 8.2419902880e-02	 1.6332128102e+00	 1.0532882562e+00
 6.8577654409e-02	 1.6338525747e+00	 1.0524171694e+00
 5.4775981750e-02	 1.6343734917e+00	 1.0485497596e+00
 4.1016152430e-02	 1.6347766722e+00	 1.0444823416e+00
 2.7299407352e-02	 1.6350632411e+00	 1.0430476610e+00
 1.3626960720e-02	 1.6352343369e+00	 1.0471125358e+00
 0.0000000000e+00	 1.6352911109e+00	 1.0595755125e+00
 1.3891397496e-01	 1.6382365519e+00	 9.4816058789e-01
 1.2484712629e-01	 1.6393685841e+00	 9.8231979875e-01
 1.1081570918e-01	 1.6403768161e+00	 1.0050870573e+00
 9.6821104052e-02	 1.6412623009e+00	 1.0189393005e+00
 8.2864665005e-02	 1.6420261086e+00	 1.0264254729e+00
 6.8947719676e-02	 1.6426693255e+00	 1.0301636474e+00
 5.5071569116e-02	 1.6431930536e+00	 1.0328381304e+00
 4.1237487696e-02	 1.6435984097e+00	 1.0371965539e+00
 2.7446723012e-02	 1.6438865250e+00	 1.0460469583e+00
 1.3700495823e-02	 1.6440585441e+00	 1.0622548682e+00
 0.0000000000e+00	 1.6441156245e+00	 1.0887403649e+00
 1.3965957104e-01	 1.6470294956e+00	 9.3090694938e-01
 1.2551722106e-01	 1.6481676038e+00	 9.5926643736e-01
 1.1141049281e-01	 1.6491812473e+00	 9.7890903600e-01
 9.7340774129e-02	 1.6500714848e+00	 9.9211054940e-01
 8.3309426375e-02	 1.6508393921e+00	 1.0012370771e+00
 6.9317784313e-02	 1.6514860613e+00	 1.0087419123e+00
 5.5367155980e-02	 1.6520126004e+00	 1.0171624038e+00
 4.1458822586e-02	 1.6524201322e+00	 1.0291167866e+00
 2.7594038422e-02	 1.6527097939e+00	 1.0473009832e+00
 1.3774030800e-02	 1.6528827363e+00	 1.0744853816e+00
 0.0000000000e+00	 1.6529401231e+00	 1.1135115938e+00
 1.4040516544e-01	 1.6558224194e+00	 9.2028577302e-01
 1.2618731431e-01	 1.6569666035e+00	 9.4166128577e-01
 1.1200527510e-01	 1.6579856585e+00	 9.5713451790e-01
 9.7860443028e-02	 1.6588806487e+00	 9.6873027900e-01
 8.3754186736e-02	 1.6596526556e+00	 9.7857429105e-01
 6.9687848112e-02	 1.6603027772e+00	 9.8889012173e-01
 5.5662742174e-02	 1.6608321273e+00	 1.0019960641e+00
 4.1680156973e-02	 1.6612418347e+00	 1.0203019669e+00
 2.7741353498e-02	 1.6615330428e+00	 1.0463060190e+00
 1.3847565611e-02	 1.6617069085e+00	 1.0825914952e+00
 0.0000000000e+00	 1.6617646017e+00	 1.1318234656e+00
 1.4115075772e-01	 1.6646153182e+00	 9.1605984016e-01
 1.2685740567e-01	 1.6657655783e+00	 9.2976532852e-01
 1.1260005570e-01	 1.6667900448e+00	 9.4036825465e-01
 9.8380110455e-02	 1.6676897876e+00	 9.4959395495e-01
 8.4198945838e-02	 1.6684658941e+00	 9.5927170460e-01
 7.0057910862e-02	 1.6691194680e+00	 9.7133194135e-01
 5.5958327531e-02	 1.6696516291e+00	 9.8780342030e-01
 4.1901490734e-02	 1.6700635123e+00	 1.0108103037e+00
 2.7888668156e-02	 1.6703562668e+00	 1.0425691908e+00
 1.3921100213e-02	 1.6705310557e+00	 1.0853860924e+00
 0.0000000000e+00	 1.6705890552e+00	 1.1416533563e+00
 1.4189634747e-01	 1.6734081872e+00	 9.1799900741e-01
 1.2752749475e-01	 1.6745645232e+00	 9.2383601371e-01
 1.1319483428e-01	 1.6755944012e+00	 9.2920406877e-01
 9.8899776116e-02	 1.6764988966e+00	 9.3548191091e-01
 8.4643703427e-02	 1.6772791027e+00	 9.4414773177e-01
 7.0427972354e-02	 1.6779361289e+00	 9.5677694331e-01
 5.6253911883e-02	 1.6784711010e+00	 9.7503986282e-01
 4.2122823742e-02	 1.6788851598e+00	 1.0006993198e+00
 2.8035982313e-02	 1.6791794607e+00	 1.0356081893e+00
 1.3994634565e-02	 1.6793551729e+00	 1.0817068566e+00
 0.0000000000e+00	 1.6794134788e+00	 1.1410206188e+00
 1.4264193426e-01	 1.6822010213e+00	 9.2588003764e-01
 1.2819758117e-01	 1.6833634332e+00	 9.2412736330e-01
 1.1378961050e-01	 1.6843987226e+00	 9.2422515835e-01
 9.9419439715e-02	 1.6853079707e+00	 9.2715976343e-01
 8.5088459253e-02	 1.6860922763e+00	 9.3400505229e-01
 7.0798032378e-02	 1.6867527548e+00	 9.4592099228e-01
 5.6549495062e-02	 1.6872905379e+00	 9.6415211234e-01
 4.2344155872e-02	 1.6877067723e+00	 9.9002588177e-01
 2.8183295887e-02	 1.6880026196e+00	 1.0249510037e+00
 1.4068168626e-02	 1.6881792551e+00	 1.0704156273e+00
 0.0000000000e+00	 1.6882378674e+00	 1.1279854843e+00
 1.4338751767e-01	 1.6909938155e+00	 9.3948643576e-01
 1.2886766455e-01	 1.6921623033e+00	 9.3089007960e-01
 1.1438438402e-01	 1.6932030041e+00	 9.2600439195e-01
 9.9939100959e-02	 1.6941170048e+00	 9.2537881369e-01
 8.5533213062e-02	 1.6949054099e+00	 9.2963103944e-01
 7.1168090725e-02	 1.6955693408e+00	 9.3944661933e-01
 5.6845076902e-02	 1.6961099348e+00	 9.5557846048e-01
 4.2565487000e-02	 1.6965283449e+00	 9.7884623009e-01
 2.8330608793e-02	 1.6968257385e+00	 1.0101356629e+00
 1.4141702353e-02	 1.6970032973e+00	 1.0503977766e+00
 0.0000000000e+00	 1.6970622159e+00	 1.1006479983e+00
 1.4413309728e-01	 1.6997865649e+00	 9.5860828913e-01
 1.2953774452e-01	 1.7009611285e+00	 9.4437164816e-01
 1.1497915452e-01	 1.7020072407e+00	 9.3510459411e-01
 1.0045875955e-01	 1.7029259940e+00	 9.3087643662e-01
 8.5977964604e-02	 1.7037184986e+00	 9.3179817441e-01
 7.1538147186e-02	 1.7043858817e+00	 9.3802338410e-01
 5.7140657235e-02	 1.7049292867e+00	 9.4974900318e-01
 4.2786816999e-02	 1.7053498724e+00	 9.6721600745e-01
 2.8477920947e-02	 1.7056488125e+00	 9.9070998437e-01
 1.4215235706e-02	 1.7058272945e+00	 1.0205616040e+00
 0.0000000000e+00	 1.7058865195e+00	 1.0571469902e+00
 1.7058865195e+00	 0.0000000000e+00	-3.6545402669e-01
 1.7058272945e+00	 1.4215235706e-02	 2.0193143150e+00
 1.7056488125e+00	 2.8477920947e-02	 3.7478239196e+00
 1.7053498724e+00	 4.2786816999e-02	 4.9063755269e+00
 1.7049292867e+00	 5.7140657235e-02	 5.5830485028e+00
 1.7043858817e+00	 7.1538147186e-02	 5.8675926282e+00
 1.7037184986e+00	 8.5977964604e-02	 5.8513154423e+00
 1.7029259940e+00	 1.0045875955e-01	 5.6269651236e+00
 1.7020072407e+00	 1.1497915452e-01	 5.2886088890e+00
 1.7009611285e+00	 1.2953774452e-01	 4.9315068906e+00
 1.6997865649e+00	 1.4413309728e-01	 4.6519815930e+00
 1.7147092756e+00	 0.0000000000e+00	-3.1034219139e+00
 1.7146497443e+00	 1.4288756164e-02	 8.7283125818e-01
 1.7144703392e+00	 2.8625207270e-02	 3.7400826486e+00
 1.7141698530e+00	 4.3008108185e-02	 5.6422239886e+00
 1.7137470921e+00	 5.7436185734e-02	 6.7254440015e+00
 1.7132008766e+00	 7.1908138752e-02	 7.1380590121e+00
 1.7125300418e+00	 8.6422638153e-02	 7.0303369484e+00
 1.7117334384e+00	 1.0097832702e-01	 6.5543147488e+00
 1.7108099334e+00	 1.1557382071e-01	 5.8636091860e+00
 1.7097584107e+00	 1.3020770698e-01	 5.1132211259e+00
 1.7085777723e+00	 1.4487854614e-01	 4.4593332465e+00
 1.7235319917e+00	 0.0000000000e+00	-5.4545132364e+00
 1.7234721541e+00	 1.4362276288e-02	-2.0932295414e-01
 1.7232918259e+00	 2.8772492924e-02	 3.5779436043e+00
 1.7229897936e+00	 4.3229398368e-02	 6.0938637526e+00
 1.7225648574e+00	 5.7731712894e-02	 7.5276737289e+00
 1.7220158315e+00	 7.2278128642e-02	 8.0710528575e+00
 1.7213415451e+00	 8.6867309687e-02	 7.9178995040e+00
 1.7205408429e+00	 1.0149789213e-01	 7.2640988594e+00
 1.7196125861e+00	 1.1616848420e-01	 6.3072825909e+00
 1.7185556531e+00	 1.3087766640e-01	 5.2465804056e+00
 1.7173689399e+00	 1.4562399163e-01	 4.2823635837e+00
 1.7323546778e+00	 0.0000000000e+00	-7.3985403364e+00
 1.7322945339e+00	 1.4435796163e-02	-1.2168378576e+00
 1.7321132826e+00	 2.8919778079e-02	 3.2626353085e+00
 1.7318097042e+00	 4.3450687800e-02	 6.2544732998e+00
 1.7313825928e+00	 5.8027239050e-02	 7.9761366171e+00
 1.7308307565e+00	 7.2648117275e-02	 8.6477044411e+00
 1.7301530184e+00	 8.7311979709e-02	 8.4916177053e+00
 1.7293482174e+00	 1.0201745547e-01	 7.7324129736e+00
 1.7284152090e+00	 1.1676314568e-01	 6.5964471796e+00
 1.7273528655e+00	 1.3154762354e-01	 5.3116132928e+00
 1.7261600776e+00	 1.4636943457e-01	 4.1070469907e+00
 1.7411773439e+00	 0.0000000000e+00	-8.9157337450e+00
 1.7411168937e+00	 1.4509315872e-02	-2.1396185902e+00
 1.7409347193e+00	 2.9067062899e-02	 2.7953565827e+00
 1.7406295949e+00	 4.3671976730e-02	 6.1173659115e+00
 1.7402003082e+00	 5.8322764537e-02	 8.0575047397e+00
 1.7396456614e+00	 7.3018105069e-02	 8.8495245709e+00
 1.7389644717e+00	 8.7756648724e-02	 8.7295582927e+00
 1.7381555720e+00	 1.0253701764e-01	 7.9358357330e+00
 1.7372178118e+00	 1.1735780580e-01	 6.7083896118e+00
 1.7361500580e+00	 1.3221757917e-01	 5.2887519660e+00
 1.7349511954e+00	 1.4711487583e-01	 3.9196411390e+00
 1.7500000000e+00	 0.0000000000e+00	-9.9867317069e+00
 1.7499392435e+00	 1.4582835497e-02	-2.9677804492e+00
 1.7497561460e+00	 2.9214347553e-02	 2.1772773609e+00
 1.7494494755e+00	 4.3893265410e-02	 5.6759863741e+00
 1.7490180136e+00	 5.8618289688e-02	 7.7587165563e+00
 1.7484605564e+00	 7.3388092444e-02	 8.6583951387e+00
 1.7477759150e+00	 8.8201317235e-02	 8.6102289040e+00
 1.7469629166e+00	 1.0305657922e-01	 7.8514168738e+00
 1.7460204047e+00	 1.1795246526e-01	 6.6208534629e+00
 1.7449472406e+00	 1.3288753404e-01	 5.1588221813e+00
 1.7437423032e+00	 1.4786031625e-01	 3.7066799754e+00
 1.7588226561e+00	 0.0000000000e+00	-1.0592570022e+01
 1.7587615933e+00	 1.4656355122e-02	-3.6916436136e+00
 1.7585775727e+00	 2.9361632207e-02	 1.4095394771e+00
 1.7582693561e+00	 4.4114554089e-02	 4.9239077849e+00
 1.7578357190e+00	 5.8913814840e-02	 7.0669703609e+00
 1.7572754514e+00	 7.3758079819e-02	 8.0565599582e+00
 1.7565873584e+00	 8.8645985747e-02	 8.1125671676e+00
 1.7557702612e+00	 1.0357614080e-01	 7.4566655615e+00
 1.7548229977e+00	 1.1854712471e-01	 6.3120279097e+00
 1.7537444231e+00	 1.3355748891e-01	 4.9030335389e+00
 1.7525334110e+00	 1.4860575666e-01	 3.4549669215e+00
 1.7676453222e+00	 0.0000000000e+00	-1.0714672194e+01
 1.7675839531e+00	 1.4729874830e-02	-4.3017280262e+00
 1.7673990094e+00	 2.9508917028e-02	 4.9325742883e-01
 1.7670892468e+00	 4.4335843020e-02	 3.8548284535e+00
 1.7666534344e+00	 5.9209340326e-02	 5.9697179285e+00
 1.7660903563e+00	 7.4128067613e-02	 7.0266158790e+00
 1.7653988117e+00	 8.9090654762e-02	 7.2159301238e+00
 1.7645776158e+00	 1.0409570297e-01	 6.7295390773e+00
 1.7636256005e+00	 1.1914178483e-01	 5.7605367554e+00
 1.7625416156e+00	 1.3422744453e-01	 4.5029700413e+00
 1.7613245288e+00	 1.4935119792e-01	 3.1515682788e+00
 1.7764680083e+00	 0.0000000000e+00	-1.0334839876e+01
 1.7764063329e+00	 1.4803394705e-02	-4.7887484281e+00
 1.7762204661e+00	 2.9656202182e-02	-5.7048088197e-01
 1.7759091574e+00	 4.4557132451e-02	 2.4625688953e+00
 1.7754711698e+00	 5.9504866482e-02	 4.4546583520e+00
 1.7749052813e+00	 7.4498056245e-02	 5.5515041678e+00
 1.7742102850e+00	 8.9535324784e-02	 5.9000839642e+00
 1.7733849903e+00	 1.0461526631e-01	 5.6484318433e+00
 1.7724282234e+00	 1.1973644631e-01	 4.9454277846e+00
 1.7713388280e+00	 1.3489740168e-01	 3.9405809350e+00
 1.7701156665e+00	 1.5009664087e-01	 2.7838068296e+00
 1.7852907244e+00	 0.0000000000e+00	-9.4352435974e+00
 1.7852287427e+00	 1.4876914830e-02	-5.1436095437e+00
 1.7850419528e+00	 2.9803487837e-02	-1.7806134310e+00
 1.7847290980e+00	 4.4778422635e-02	 7.4106891611e-01
 1.7842889352e+00	 5.9800393642e-02	 2.5097320625e+00
 1.7837202362e+00	 7.4868046135e-02	 3.6145021454e+00
 1.7830217883e+00	 8.9979996318e-02	 4.1451940767e+00
 1.7821923948e+00	 1.0513483142e-01	 4.1921647754e+00
 1.7812308761e+00	 1.2033110980e-01	 3.8461624347e+00
 1.7801360704e+00	 1.3556736110e-01	 3.1981718241e+00
 1.7789068341e+00	 1.5084208636e-01	 2.3392556288e+00
 1.7941134805e+00	 0.0000000000e+00	-7.9984137732e+00
 1.7940511925e+00	 1.4950435288e-02	-5.3574014065e+00
 1.7938634795e+00	 2.9950774159e-02	-3.1361033744e+00
 1.7935490786e+00	 4.4999713821e-02	-1.3156152185e+00
 1.7931067405e+00	 6.0095922142e-02	 1.2311502730e-01
 1.7925352311e+00	 7.5238037701e-02	 1.1992150733e+00
 1.7918333315e+00	 9.0424669867e-02	 1.9318153854e+00
 1.7909998392e+00	 1.0565439889e-01	 2.3399749515e+00
 1.7900335688e+00	 1.2092577599e-01	 2.4426057741e+00
 1.7889333526e+00	 1.3623732356e-01	 2.2583960480e+00
 1.7876980416e+00	 1.5158753522e-01	 1.8057319785e+00
 1.6997865649e+00	 1.4413309728e-01	 4.6519815930e+00
 1.6984822427e+00	 1.5876623785e-01	 4.4620263691e+00
 1.6970472951e+00	 1.7343317150e-01	 4.3009339645e+00
 1.6954806859e+00	 1.8813234834e-01	 4.1567624183e+00
 1.6937814001e+00	 2.0286219106e-01	 4.0178001297e+00
 1.6919484436e+00	 2.1762109510e-01	 3.8725588060e+00
 1.6899808451e+00	 2.3240742898e-01	 3.7097657266e+00
 1.6878776557e+00	 2.4721953454e-01	 3.5183552047e+00
 1.6856379504e+00	 2.6205572732e-01	 3.2874591286e+00
 1.6832608288e+00	 2.7691429682e-01	 3.0063964568e+00
 1.6807454153e+00	 2.9179350692e-01	 2.6646615430e+00
 1.7085777723e+00	 1.4487854614e-01	 4.4593332465e+00
 1.7072667043e+00	 1.5958736855e-01	 3.9737956824e+00
 1.7058243352e+00	 1.7433015881e-01	 3.6084401733e+00
 1.7042496236e+00	 1.8910535904e-01	 3.3401413453e+00
 1.7025415491e+00	 2.0391138373e-01	 3.1461021755e+00
 1.7006991127e+00	 2.1874662005e-01	 3.0038641411e+00
 1.6987213379e+00	 2.3360942808e-01	 2.8913169420e+00
 1.6966072709e+00	 2.4849814108e-01	 2.7867076547e+00
 1.6943559820e+00	 2.6341106587e-01	 2.6686491726e+00
 1.6919665660e+00	 2.7834648312e-01	 2.5161277797e+00
 1.6894381429e+00	 2.9330264772e-01	 2.3085097063e+00
 1.7173689399e+00	 1.4562399163e-01	 4.2823635837e+00
 1.7160511260e+00	 1.6040849553e-01	 3.5414454437e+00
 1.7146013355e+00	 1.7522714206e-01	 2.9956535192e+00
 1.7130185215e+00	 1.9007836532e-01	 2.6135147748e+00
 1.7113016584e+00	 2.0496057165e-01	 2.3639670842e+00
 1.7094497422e+00	 2.1987213991e-01	 2.2163827352e+00
 1.7074617910e+00	 2.3481142173e-01	 2.1405916974e+00
 1.7053368465e+00	 2.4977674182e-01	 2.1069044905e+00
 1.7030739740e+00	 2.6476639828e-01	 2.0861344848e+00
 1.7006722637e+00	 2.7977866292e-01	 2.0496194603e+00
 1.6981308311e+00	 2.9481178167e-01	 1.9692422460e+00
 1.7261600776e+00	 1.4636943457e-01	 4.1070469907e+00
 1.7248355179e+00	 1.6122961972e-01	 3.1579345720e+00
 1.7233783059e+00	 1.7612412227e-01	 2.4616610799e+00
 1.7217873896e+00	 1.9105136829e-01	 1.9811958641e+00
 1.7200617380e+00	 2.0600975600e-01	 1.6799864183e+00
 1.7182003418e+00	 2.2099765593e-01	 1.5219914309e+00
 1.7162022144e+00	 2.3601341129e-01	 1.4717137204e+00
 1.7140663924e+00	 2.5105533822e-01	 1.4942328763e+00
 1.7117919364e+00	 2.6612172608e-01	 1.5552374183e+00
 1.7093779318e+00	 2.8121083786e-01	 1.6210562827e+00
 1.7068234898e+00	 2.9632091050e-01	 1.6586894384e+00
 1.7349511954e+00	 1.4711487583e-01	 3.9196411390e+00
 1.7336198899e+00	 1.6205074205e-01	 2.8163640334e+00
 1.7321552565e+00	 1.7702110044e-01	 2.0055682338e+00
 1.7305562378e+00	 1.9202436906e-01	 1.4474107139e+00
 1.7288217977e+00	 2.0705893797e-01	 1.1025786115e+00
 1.7269509217e+00	 2.2212316940e-01	 9.3232804888e-01
 1.7249426181e+00	 2.3721539814e-01	 8.9852289301e-01
 1.7227959186e+00	 2.5233393171e-01	 9.6367326243e-01
 1.7205098790e+00	 2.6747705081e-01	 1.0909735803e+00
 1.7180835802e+00	 2.8264300955e-01	 1.2443399670e+00
 1.7155161287e+00	 2.9783003590e-01	 1.3884467614e+00
 1.7437423032e+00	 1.4786031625e-01	 3.7066799754e+00
 1.7424042519e+00	 1.6287186345e-01	 2.5099733861e+00
 1.7409321971e+00	 1.7791807759e-01	 1.6264983192e+00
 1.7393250761e+00	 1.9299736873e-01	 1.0163006794e+00
 1.7375818474e+00	 2.0810811875e-01	 6.3999344591e-01
 1.7357014916e+00	 2.2324868160e-01	 4.5879752126e-01
 1.7336830118e+00	 2.3841738361e-01	 4.3458250770e-01
 1.7315254348e+00	 2.5361252376e-01	 5.2990720867e-01
 1.7292278118e+00	 2.6883237400e-01	 7.0805964508e-01
 1.7267892188e+00	 2.8407517962e-01	 9.3309636996e-01
 1.7242087578e+00	 2.9933915960e-01	 1.1698808588e+00
 1.7525334110e+00	 1.4860575666e-01	 3.4549669215e+00
 1.7511886139e+00	 1.6369298484e-01	 2.2321374272e+00
 1.7497091377e+00	 1.7881505474e-01	 1.3235923027e+00
 1.7480939144e+00	 1.9397036840e-01	 6.9192461005e-01
 1.7463418972e+00	 2.0915729953e-01	 3.0031639113e-01
 1.7444520615e+00	 2.2437419380e-01	 1.1257783610e-01
 1.7424234055e+00	 2.3961936909e-01	 9.3186301220e-02
 1.7402549511e+00	 2.5489111581e-01	 2.0732496774e-01
 1.7379457445e+00	 2.7018769720e-01	 4.2092092604e-01
 1.7354948573e+00	 2.8550734969e-01	 7.0068246218e-01
 1.7329013869e+00	 3.0084828329e-01	 1.0141353184e+00
 1.7613245288e+00	 1.4935119792e-01	 3.1515682788e+00
 1.7599729859e+00	 1.6451410717e-01	 1.9763629404e+00
 1.7584860883e+00	 1.7971203291e-01	 1.0960084557e+00
 1.7568627626e+00	 1.9494336917e-01	 4.7826101982e-01
 1.7551019569e+00	 2.1020648150e-01	 9.1472810531e-02
 1.7532026413e+00	 2.2549970728e-01	-9.5374199924e-02
 1.7511638091e+00	 2.4082135594e-01	-1.1263472764e-01
 1.7489844772e+00	 2.5616970931e-01	 1.0032835942e-02
 1.7466636871e+00	 2.7154302193e-01	 2.4369871452e-01
 1.7442005057e+00	 2.8693952138e-01	 5.6019309031e-01
 1.7415940259e+00	 3.0235740870e-01	 9.3213627002e-01
 1.7701156665e+00	 1.5009664087e-01	 2.7838068296e+00
 1.7687573777e+00	 1.6533523136e-01	 1.7362855401e+00
 1.7672630587e+00	 1.8060901311e-01	 9.4292203926e-01
 1.7656316307e+00	 1.9591637214e-01	 3.7921019001e-01
 1.7638620365e+00	 2.1125566585e-01	 2.1232038624e-02
 1.7619532410e+00	 2.2662522330e-01	-1.5431737461e-01
 1.7599042326e+00	 2.4202334550e-01	-1.7010570767e-01
 1.7577140231e+00	 2.5744830570e-01	-4.8139720302e-02
 1.7553816495e+00	 2.7289834973e-01	 1.9025739493e-01
 1.7529061738e+00	 2.8837169632e-01	 5.2446753156e-01
 1.7502866845e+00	 3.0386653752e-01	 9.3459781063e-01
 1.7789068341e+00	 1.5084208636e-01	 2.3392556288e+00
 1.7775417995e+00	 1.6615635834e-01	 1.5056666074e+00
 1.7760400590e+00	 1.8150599636e-01	 8.6352499633e-01
 1.7744005286e+00	 1.9688937842e-01	 3.9859620779e-01
 1.7726221458e+00	 2.1230485376e-01	 9.7211334636e-02
 1.7707038704e+00	 2.2775074315e-01	-5.3720652737e-02
 1.7686446857e+00	 2.4322533915e-01	-6.6701485473e-02
 1.7664435988e+00	 2.5872690644e-01	 4.6366845698e-02
 1.7640996415e+00	 2.7425368214e-01	 2.7419134290e-01
 1.7616118716e+00	 2.8980387613e-01	 6.0609584778e-01
 1.7589793727e+00	 3.0537567148e-01	 1.0320272618e+00
 1.7876980416e+00	 1.5158753522e-01	 1.8057319785e+00
 1.7863262610e+00	 1.6697748904e-01	 1.2783903170e+00
 1.7848170991e+00	 1.8240298368e-01	 8.5702565227e-01
 1.7831694663e+00	 1.9786238912e-01	 5.4016894208e-01
 1.7813822948e+00	 2.1335404644e-01	 3.2687971631e-01
 1.7794545395e+00	 2.2887626810e-01	 2.1674207783e-01
 1.7773851785e+00	 2.4442733825e-01	 2.0985959083e-01
 1.7751732139e+00	 2.6000551298e-01	 3.0684886215e-01
 1.7728176731e+00	 2.7560902069e-01	 5.0883161455e-01
 1.7703176088e+00	 2.9123606242e-01	 8.1742504608e-01
 1.7676721003e+00	 3.0688481227e-01	 1.2347302658e+00
 1.6807454153e+00	 2.9179350692e-01	 2.6646615430e+00
 1.6780913235e+00	 3.0668906299e-01	 2.2534070581e+00
 1.6752973142e+00	 3.2160171051e-01	 1.7807877191e+00
 1.6723625910e+00	 3.3652964380e-01	 1.2620147588e+00
 1.6692863858e+00	 3.5147103331e-01	 7.1212081197e-01
 1.6660679591e+00	 3.6642402607e-01	 1.4590415197e-01
 1.6627066012e+00	 3.8138674621e-01	-3.9743939514e-01
 1.6592016323e+00	 3.9635729548e-01	-8.4250505274e-01
 1.6555524039e+00	 4.1133375375e-01	-1.1769418233e+00
 1.6517582986e+00	 4.2631417965e-01	-1.3918470343e+00
 1.6478187318e+00	 4.4129661111e-01	-1.4784839454e+00
 1.6894381429e+00	 2.9330264772e-01	 2.3085097063e+00
 1.6867703243e+00	 3.0827524282e-01	 2.0226583166e+00
 1.6839618645e+00	 3.2326501778e-01	 1.6594197355e+00
 1.6810119631e+00	 3.3827015757e-01	 1.2343713051e+00
 1.6779198479e+00	 3.5328882316e-01	 7.6281251297e-01
 1.6746847757e+00	 3.6831915202e-01	 2.5970707163e-01
 1.6713060330e+00	 3.8335925857e-01	-2.2615711801e-01
 1.6677829366e+00	 3.9840723473e-01	-6.2652864578e-01
 1.6641148345e+00	 4.1346115047e-01	-9.3184572445e-01
 1.6603011064e+00	 4.2851905435e-01	-1.1337085763e+00
 1.6563411643e+00	 4.4357897416e-01	-1.2239943146e+00
 1.6981308311e+00	 2.9481178167e-01	 1.9692422460e+00
 1.6954492858e+00	 3.0986141547e-01	 1.8063710858e+00
 1.6926263755e+00	 3.2492831751e-01	 1.5513669669e+00
 1.6896612960e+00	 3.4001066344e-01	 1.2198433197e+00
 1.6865532709e+00	 3.5510660477e-01	 8.2705283990e-01
 1.6833015532e+00	 3.7021426938e-01	 3.8782815163e-01
 1.6799054258e+00	 3.8533176199e-01	-3.8236249016e-02
 1.6763642020e+00	 4.0045716469e-01	-3.9336500184e-01
 1.6726772264e+00	 4.1558853754e-01	-6.6952557902e-01
 1.6688438754e+00	 4.3072391905e-01	-8.5904405008e-01
 1.6648635582e+00	 4.4586132687e-01	-9.5461405343e-01
 1.7068234898e+00	 2.9632091050e-01	 1.6586894384e+00
 1.7041282177e+00	 3.1144758272e-01	 1.6135590210e+00
 1.7012908571e+00	 3.2659161159e-01	 1.4631508569e+00
 1.6983105994e+00	 3.4175116339e-01	 1.2227894822e+00
 1.6951866645e+00	 3.5692438020e-01	 9.0737204070e-01
 1.6919183014e+00	 3.7210938029e-01	 5.3191056032e-01
 1.6885047894e+00	 3.8730425869e-01	 1.6619046248e-01
 1.6849454382e+00	 4.0250708769e-01	-1.4395744879e-01
 1.6812395891e+00	 4.1771591738e-01	-3.9138209526e-01
 1.6773866154e+00	 4.3292877626e-01	-5.6935423052e-01
 1.6733859231e+00	 4.4814367181e-01	-6.7158277506e-01
 1.7155161287e+00	 2.9783003590e-01	 1.3884467614e+00
 1.7128071300e+00	 3.1303374638e-01	 1.4530585085e+00
 1.7099553191e+00	 3.2825490189e-01	 1.4011664218e+00
 1.7069598833e+00	 3.4349165940e-01	 1.2474860912e+00
 1.7038200385e+00	 3.5874215151e-01	 1.0062551307e+00
 1.7005350301e+00	 3.7400448691e-01	 6.9384241946e-01
 1.6971041335e+00	 3.8927675093e-01	 3.8699646730e-01
 1.6935266550e+00	 4.0455700604e-01	 1.2077343155e-01
 1.6898019324e+00	 4.1984329240e-01	-9.8783873131e-02
 1.6859293360e+00	 4.3513362847e-01	-2.6610568716e-01
 1.6819082687e+00	 4.5042601159e-01	-3.7611113348e-01
 1.7242087578e+00	 2.9933915960e-01	 1.1698808588e+00
 1.7214860324e+00	 3.1461990824e-01	 1.3335331550e+00
 1.7186197712e+00	 3.2991819031e-01	 1.3716854300e+00
 1.7156091573e+00	 3.4523215344e-01	 1.2981291015e+00
 1.7124534028e+00	 3.6055992076e-01	 1.1261429558e+00
 1.7091517490e+00	 3.7589959138e-01	 8.7462322828e-01
 1.7057034678e+00	 3.9124924093e-01	 6.2406126458e-01
 1.7021078620e+00	 4.0660692206e-01	 3.9992922263e-01
 1.6983642661e+00	 4.2197066501e-01	 2.0693176616e-01
 1.6944720469e+00	 4.3733847818e-01	 4.9268319511e-02
 1.6904306047e+00	 4.5270834877e-01	-6.9381601784e-02
 1.7329013869e+00	 3.0084828329e-01	 1.0141353184e+00
 1.7301649348e+00	 3.1620607010e-01	 1.2634781356e+00
 1.7272842233e+00	 3.3158147874e-01	 1.3808594791e+00
 1.7242584314e+00	 3.4697264748e-01	 1.3788360915e+00
 1.7210867670e+00	 3.6237769001e-01	 1.2694332142e+00
 1.7177684679e+00	 3.7779469586e-01	 1.0752287196e+00
 1.7143028022e+00	 3.9322173094e-01	 8.7727025082e-01
 1.7106890691e+00	 4.0865683809e-01	 6.9263310608e-01
 1.7069265997e+00	 4.2409803761e-01	 5.2445797143e-01
 1.7030147579e+00	 4.3954332789e-01	 3.7536696461e-01
 1.6989529406e+00	 4.5499068596e-01	 2.4745076805e-01
 1.7415940259e+00	 3.0235740870e-01	 9.3213627002e-01
 1.7388438471e+00	 3.1779223376e-01	 1.2512244042e+00
 1.7359486853e+00	 3.3324476904e-01	 1.4347229728e+00
 1.7329077153e+00	 3.4871314349e-01	 1.4936481634e+00
 1.7297201411e+00	 3.6419546132e-01	 1.4384814406e+00
 1.7263851966e+00	 3.7968980247e-01	 1.2966184963e+00
 1.7229021463e+00	 3.9519422317e-01	 1.1465145697e+00
 1.7192702858e+00	 4.1070675643e-01	 9.9802930753e-01
 1.7154889430e+00	 4.2622541263e-01	 8.5251757291e-01
 1.7115574785e+00	 4.4174818010e-01	 7.1082100695e-01
 1.7074752862e+00	 4.5727302573e-01	 5.7325760336e-01
 1.7502866845e+00	 3.0386653752e-01	 9.3459781063e-01
 1.7475227790e+00	 3.1937840101e-01	 1.3049427719e+00
 1.7446131668e+00	 3.3490806312e-01	 1.5391960020e+00
 1.7415570187e+00	 3.5045364345e-01	 1.6465317797e+00
 1.7383535347e+00	 3.6601323675e-01	 1.6356019504e+00
 1.7350019448e+00	 3.8158491339e-01	 1.5397364362e+00
 1.7315015099e+00	 3.9716671988e-01	 1.4316909628e+00
 1.7278515220e+00	 4.1275667943e-01	 1.3152825552e+00
 1.7240513058e+00	 4.2835279247e-01	 1.1898623129e+00
 1.7201002185e+00	 4.4395303731e-01	 1.0542919581e+00
 1.7159976511e+00	 4.5955537068e-01	 9.0693648628e-01
 1.7589793727e+00	 3.0537567148e-01	 1.0320272618e+00
 1.7562017405e+00	 3.2096457366e-01	 1.4326478571e+00
 1.7532776779e+00	 3.3657136285e-01	 1.7000871334e+00
 1.7502063516e+00	 3.5219414932e-01	 1.8413805365e+00
 1.7469869577e+00	 3.6783101836e-01	 1.8630687495e+00
 1.7436187224e+00	 3.8348003074e-01	 1.8055110818e+00
 1.7401009027e+00	 3.9913922329e-01	 1.7327016208e+00
 1.7364327874e+00	 4.1480660939e-01	 1.6435775506e+00
 1.7326136976e+00	 4.3048017954e-01	 1.5352720950e+00
 1.7286429875e+00	 4.4615790201e-01	 1.4044712717e+00
 1.7245200450e+00	 4.6183772338e-01	 1.2474102458e+00
 1.7676721003e+00	 3.0688481227e-01	 1.2347302658e+00
 1.7648807413e+00	 3.2255075349e-01	 1.6422019130e+00
 1.7619422282e+00	 3.3823467012e-01	 1.9230961080e+00
 1.7588557237e+00	 3.5393466308e-01	 2.0820168776e+00
 1.7556204198e+00	 3.6964880820e-01	 2.1231164075e+00
 1.7522355389e+00	 3.8537515669e-01	 2.0948560149e+00
 1.7487003345e+00	 4.0111173565e-01	 2.0494540361e+00
 1.7450140917e+00	 4.1685654864e-01	 1.9821184511e+00
 1.7411761283e+00	 4.3260757626e-01	 1.8875542519e+00
 1.7371857953e+00	 4.4836277670e-01	 1.7600795519e+00
 1.7330424775e+00	 4.6412008643e-01	 1.5936262662e+00
 1.6478187318e+00	 4.4129661111e-01	-1.4784839454e+00
 1.6437331520e+00	 4.5627906618e-01	-1.4285338118e+00
 1.6395010426e+00	 4.7125954432e-01	-1.2567448001e+00
 1.6351219218e+00	 4.8623602649e-01	-9.8931465800e-01
 1.6305953427e+00	 5.0120647558e-01	-6.5268345901e-01
 1.6259208937e+00	 5.1616883713e-01	-2.7349997841e-01
 1.6210981995e+00	 5.3112104005e-01	 1.2141299734e-01
 1.6161269212e+00	 5.4606099739e-01	 5.0509439750e-01
 1.6110067574e+00	 5.6098660704e-01	 8.5048159786e-01
 1.6057374444e+00	 5.7589575259e-01	 1.1304481215e+00
 1.6003187566e+00	 5.9078630409e-01	 1.3178422742e+00
 1.6563411643e+00	 4.4357897416e-01	-1.2239943146e+00
 1.6522344541e+00	 4.5863891770e-01	-1.1922497211e+00
 1.6479804565e+00	 4.7369687410e-01	-1.0489491154e+00
 1.6435786871e+00	 4.8875081386e-01	-8.1774417882e-01
 1.6390286967e+00	 5.0379868933e-01	-5.2248429593e-01
 1.6343300717e+00	 5.1883843543e-01	-1.8718542253e-01
 1.6294824348e+00	 5.3386797037e-01	 1.6400200655e-01
 1.6244854453e+00	 5.4888519638e-01	 5.0682610169e-01
 1.6193388003e+00	 5.6388800051e-01	 8.1696744458e-01
 1.6140422347e+00	 5.7887425538e-01	 1.0700738852e+00
 1.6085955217e+00	 5.9384182003e-01	 1.2417961768e+00
 1.6648635582e+00	 4.4586132687e-01	-9.5461405343e-01
 1.6607357177e+00	 4.6099875853e-01	-9.4289733489e-01
 1.6564598319e+00	 4.7613419283e-01	-8.2929611804e-01
 1.6520354140e+00	 4.9126558982e-01	-6.3503480766e-01
 1.6474620126e+00	 5.0639089132e-01	-3.8149517094e-01
 1.6427392117e+00	 5.2150802163e-01	-9.0187623352e-02
 1.6378666321e+00	 5.3661488823e-01	 2.1727834613e-01
 1.6328439316e+00	 5.5170938257e-01	 5.1922458395e-01
 1.6276708055e+00	 5.6678938082e-01	 7.9393548741e-01
 1.6223469873e+00	 5.8185274467e-01	 1.0196899982e+00
 1.6168722493e+00	 5.9689732213e-01	 1.1747943444e+00
 1.6733859231e+00	 4.4814367181e-01	-6.7158277506e-01
 1.6692369523e+00	 4.6335859134e-01	-6.8130013417e-01
 1.6649391785e+00	 4.7857150328e-01	-5.9824576361e-01
 1.6604921122e+00	 4.9378035724e-01	-4.4133376212e-01
 1.6558952997e+00	 5.0898308450e-01	-2.2959948158e-01
 1.6511483230e+00	 5.2417759875e-01	 1.7826843048e-02
 1.6462508009e+00	 5.3936179675e-01	 2.8174723102e-01
 1.6412023894e+00	 5.5453355916e-01	 5.4292383595e-01
 1.6360027823e+00	 5.6969075127e-01	 7.8210754352e-01
 1.6306517117e+00	 5.8483122383e-01	 9.8006726099e-01
 1.6251489488e+00	 5.9995281383e-01	 1.1176198720e+00
 1.6819082687e+00	 4.5042601159e-01	-3.7611113348e-01
 1.6777381677e+00	 4.6571841880e-01	-4.0826104764e-01
 1.6734185059e+00	 4.8100880820e-01	-3.5624481437e-01
 1.6689487913e+00	 4.9629511895e-01	-2.3678141367e-01
 1.6643285677e+00	 5.1157527181e-01	-6.6679151182e-02
 1.6595574153e+00	 5.2684716982e-01	 1.3718844067e-01
 1.6546349507e+00	 5.4210869904e-01	 3.5790738167e-01
 1.6495608283e+00	 5.5735772935e-01	 5.7854868069e-01
 1.6443347402e+00	 5.7259211515e-01	 7.8219440771e-01
 1.6389564173e+00	 5.8780969624e-01	 9.5196437765e-01
 1.6334256295e+00	 6.0300829862e-01	 1.0710434226e+00
 1.6904306047e+00	 4.5270834877e-01	-6.9381601784e-02
 1.6862393735e+00	 4.6807824359e-01	-1.2456303326e-01
 1.6818978236e+00	 4.8344611036e-01	-1.0372725172e-01
 1.6774054607e+00	 4.9880987782e-01	-2.1511557230e-02
 1.6727618262e+00	 5.1416745618e-01	 1.0738521914e-01
 1.6679664980e+00	 5.2951673787e-01	 2.6822461491e-01
 1.6630190910e+00	 5.4485559823e-01	 4.4625103524e-01
 1.6579192577e+00	 5.6018189633e-01	 6.2671483134e-01
 1.6526666887e+00	 5.7549347574e-01	 7.9489593767e-01
 1.6472611135e+00	 5.9078816528e-01	 9.3612804744e-01
 1.6417023008e+00	 6.0606377994e-01	 1.0358233058e+00
 1.6989529406e+00	 4.5499068596e-01	 2.4745076805e-01
 1.6947405793e+00	 4.7043806837e-01	 1.6903035221e-01
 1.6903771414e+00	 4.8588341251e-01	 1.5888531806e-01
 1.6858621302e+00	 5.0132463668e-01	 2.0434832143e-01
 1.6811950847e+00	 5.1675964055e-01	 2.9271419674e-01
 1.6763755808e+00	 5.3218630591e-01	 4.1125972875e-01
 1.6714032313e+00	 5.4760249741e-01	 5.4726394926e-01
 1.6662776871e+00	 5.6300606332e-01	 6.8802894070e-01
 1.6609986372e+00	 5.7839483632e-01	 8.2090112865e-01
 1.6555658097e+00	 5.9376663432e-01	 9.3329304523e-01
 1.6499789722e+00	 6.0911926126e-01	 1.0127055459e+00
 1.7074752862e+00	 4.5727302573e-01	 5.7325760336e-01
 1.7032417947e+00	 4.7279789583e-01	 4.7177439555e-01
 1.6988564688e+00	 4.8832071743e-01	 4.3118326470e-01
 1.6943188092e+00	 5.0383939840e-01	 4.4067678017e-01
 1.6896283527e+00	 5.1935182786e-01	 4.8942936173e-01
 1.6847846730e+00	 5.3485587698e-01	 5.6661499408e-01
 1.6797873811e+00	 5.5034939971e-01	 6.6142539785e-01
 1.6746361260e+00	 5.6583023351e-01	 7.6308864143e-01
 1.6693305951e+00	 5.8129620020e-01	 8.6088817773e-01
 1.6638705153e+00	 5.9674510673e-01	 9.4418229092e-01
 1.6582556529e+00	 6.1217474604e-01	 1.0024239380e+00
 1.7159976511e+00	 4.5955537068e-01	 9.0693648628e-01
 1.7117430294e+00	 4.7515772864e-01	 7.8294268080e-01
 1.7073358154e+00	 4.9075802788e-01	 7.1276854097e-01
 1.7027755074e+00	 5.0635416581e-01	 6.8735815691e-01
 1.6980616399e+00	 5.2194402104e-01	 6.9765314966e-01
 1.6931937844e+00	 5.3752545410e-01	 7.3460839822e-01
 1.6881715499e+00	 5.5309630823e-01	 7.8920816094e-01
 1.6829945838e+00	 5.6865441010e-01	 8.5248257750e-01
 1.6776625720e+00	 5.8419757065e-01	 9.1552453826e-01
 1.6721752397e+00	 5.9972358590e-01	 9.6950690840e-01
 1.6665323523e+00	 6.1523023775e-01	 1.0057000948e+00
 1.7245200450e+00	 4.6183772338e-01	 1.2474102458e+00
 1.7202442929e+00	 4.7751756946e-01	 1.1018265540e+00
 1.7158151908e+00	 4.9319534661e-01	 1.0032542959e+00
 1.7112322343e+00	 5.0886894177e-01	 9.4428230790e-01
 1.7064949557e+00	 5.2453622303e-01	 9.1750869234e-01
 1.7016029243e+00	 5.4019504030e-01	 9.1555462585e-01
 1.6965557473e+00	 5.5584322609e-01	 9.3107850649e-01
 1.6913530700e+00	 5.7147859629e-01	 9.5679042714e-01
 1.6859945771e+00	 5.8709895097e-01	 9.8546696457e-01
 1.6804799924e+00	 6.0270207519e-01	 1.0099662743e+00
 1.6748090800e+00	 6.1828573985e-01	 1.0232434820e+00
 1.7330424775e+00	 4.6412008643e-01	 1.5936262662e+00
 1.7287455951e+00	 4.7987742099e-01	 1.4277345986e+00
 1.7242946047e+00	 4.9563267639e-01	 1.3022644936e+00
 1.7196889996e+00	 5.1138372914e-01	 1.2113443478e+00
 1.7149283098e+00	 5.2712843678e-01	 1.1491196571e+00
 1.7100121024e+00	 5.4286463860e-01	 1.1097649765e+00
 1.7049399826e+00	 5.5859015640e-01	 1.0874961662e+00
 1.6997115942e+00	 5.7430279528e-01	 1.0765829175e+00
 1.6943266200e+00	 5.9000034444e-01	 1.0713615475e+00
 1.6887847827e+00	 6.0568057798e-01	 1.0662480569e+00
 1.6830858451e+00	 6.2134125579e-01	 1.0557514447e+00
 1.6003187566e+00	 5.9078630409e-01	 1.3178422742e+00
 1.5947495478e+00	 6.0565864489e-01	 1.4176570847e+00
 1.5890305782e+00	 6.2050808558e-01	 1.4609078415e+00
 1.5831617391e+00	 6.3533245882e-01	 1.4595876781e+00
 1.5771429619e+00	 6.5012958706e-01	 1.4257334701e+00
 1.5709742187e+00	 6.6489728352e-01	 1.3714149200e+00
 1.5646555226e+00	 6.7963335308e-01	 1.3087236823e+00
 1.5581869283e+00	 6.9433559319e-01	 1.2497625598e+00
 1.5515685321e+00	 7.0900179485e-01	 1.2066348022e+00
 1.5448004724e+00	 7.2362974352e-01	 1.1914335372e+00
 1.5378829301e+00	 7.3821722017e-01	 1.2162313686e+00
 1.6085955217e+00	 5.9384182003e-01	 1.2417961768e+00
 1.6029975093e+00	 6.0879107980e-01	 1.3370211591e+00
 1.5972489615e+00	 6.2371732103e-01	 1.3835562479e+00
 1.5913497690e+00	 6.3861836515e-01	 1.3915475569e+00
 1.5852998630e+00	 6.5349202336e-01	 1.3711713773e+00
 1.5790992154e+00	 6.6833609758e-01	 1.3326255581e+00
 1.5727478394e+00	 6.8314838133e-01	 1.2861209761e+00
 1.5662457898e+00	 6.9792666066e-01	 1.2418731247e+00
 1.5595931636e+00	 7.1266871514e-01	 1.2100938486e+00
 1.5527900999e+00	 7.2737231881e-01	 1.2009832549e+00
 1.5458367804e+00	 7.4203524112e-01	 1.2246932280e+00
 1.6168722493e+00	 5.9689732213e-01	 1.1747943444e+00
 1.6112454334e+00	 6.1192350052e-01	 1.2639201189e+00
 1.6054673075e+00	 6.2692654193e-01	 1.3117964621e+00
 1.5995377618e+00	 6.4190425659e-01	 1.3269296103e+00
 1.5934567272e+00	 6.5685444443e-01	 1.3178415073e+00
 1.5872241753e+00	 6.7177489606e-01	 1.2930631916e+00
 1.5808401194e+00	 6.8666339364e-01	 1.2611283199e+00
 1.5743046148e+00	 7.0151771185e-01	 1.2305668527e+00
 1.5676177588e+00	 7.1633561882e-01	 1.2098989301e+00
 1.5607796911e+00	 7.3111487713e-01	 1.2076289631e+00
 1.5537905946e+00	 7.4585324477e-01	 1.2317961793e+00
 1.6251489488e+00	 5.9995281383e-01	 1.1176198720e+00
 1.6194933294e+00	 6.1505591059e-01	 1.1991163879e+00
 1.6136856256e+00	 6.3013575192e-01	 1.2463373631e+00
 1.6077257268e+00	 6.4519013686e-01	 1.2663530407e+00
 1.6016135636e+00	 6.6021685407e-01	 1.2662340022e+00
 1.5953491075e+00	 6.7521368285e-01	 1.2530462754e+00
 1.5889323720e+00	 6.9017839401e-01	 1.2338466213e+00
 1.5823634124e+00	 7.0510875083e-01	 1.2156780253e+00
 1.5756423266e+00	 7.2000251003e-01	 1.2055654193e+00
 1.5687692552e+00	 7.3485742272e-01	 1.2105116581e+00
 1.5617443818e+00	 7.4967123543e-01	 1.2361003966e+00
 1.6334256295e+00	 6.0300829862e-01	 1.0710434226e+00
 1.6277412067e+00	 6.1818831355e-01	 1.1433602867e+00
 1.6219039250e+00	 6.3334495464e-01	 1.1878767198e+00
 1.6159136732e+00	 6.4847600968e-01	 1.2104276641e+00
 1.6097703815e+00	 6.6357925609e-01	 1.2168321391e+00
 1.6034740214e+00	 6.7865246184e-01	 1.2128897846e+00
 1.5970246062e+00	 6.9369338641e-01	 1.2043776248e+00
 1.5904221917e+00	 7.0869978167e-01	 1.1970470748e+00
 1.5836668763e+00	 7.2366939293e-01	 1.1966212170e+00
 1.5767588012e+00	 7.3859995984e-01	 1.2087923702e+00
 1.5696981510e+00	 7.5348921745e-01	 1.2362850883e+00
 1.6417023008e+00	 6.0606377994e-01	 1.0358233058e+00
 1.6359890748e+00	 6.2132071297e-01	 1.0973900819e+00
 1.6301222151e+00	 6.3655415373e-01	 1.1371011930e+00
 1.6241016104e+00	 6.5176187878e-01	 1.1597538470e+00
 1.6179271902e+00	 6.6694165429e-01	 1.1701121810e+00
 1.6115989260e+00	 6.8209123694e-01	 1.1729049584e+00
 1.6051168312e+00	 6.9720837482e-01	 1.1728235241e+00
 1.5984809619e+00	 7.1229080845e-01	 1.1745200394e+00
 1.5916914169e+00	 7.2733627167e-01	 1.1826060236e+00
 1.5847483381e+00	 7.4234249271e-01	 1.2015969947e+00
 1.5776519112e+00	 7.5730719513e-01	 1.2310505118e+00
 1.6499789722e+00	 6.0911926126e-01	 1.0127055459e+00
 1.6442369428e+00	 6.2445311239e-01	 1.0619320246e+00
 1.6383405052e+00	 6.3976335281e-01	 1.0946863285e+00
 1.6322895475e+00	 6.5504774788e-01	 1.1149224350e+00
 1.6260839989e+00	 6.7030405250e-01	 1.1265432221e+00
 1.6197238306e+00	 6.8553001204e-01	 1.1333990401e+00
 1.6132090563e+00	 7.0072336324e-01	 1.1392865742e+00
 1.6065397321e+00	 7.1588183522e-01	 1.1479480238e+00
 1.5997159574e+00	 7.3100315041e-01	 1.1630706208e+00
 1.5927378750e+00	 7.4608502559e-01	 1.1876792165e+00
 1.5856056713e+00	 7.6112517282e-01	 1.2191175539e+00
 1.6582556529e+00	 6.1217474604e-01	 1.0024239380e+00
 1.6524848201e+00	 6.2758551536e-01	 1.0377003780e+00
 1.6465588047e+00	 6.4297255553e-01	 1.0612965399e+00
 1.6404774939e+00	 6.5833362070e-01	 1.0765146735e+00
 1.6342408168e+00	 6.7366645452e-01	 1.0865870270e+00
 1.6278487445e+00	 6.8896879103e-01	 1.0946750138e+00
 1.6213012905e+00	 7.0423835564e-01	 1.1038687040e+00
 1.6145985114e+00	 7.1947286606e-01	 1.1171866630e+00
 1.6077405071e+00	 7.3467003331e-01	 1.1375761626e+00
 1.6007274210e+00	 7.4982756270e-01	 1.1661048610e+00
 1.5935594405e+00	 7.6494315484e-01	 1.1992273322e+00
 1.6665323523e+00	 6.1523023775e-01	 1.0057000948e+00
 1.6607327161e+00	 6.3071792543e-01	 1.0253974357e+00
 1.6547771228e+00	 6.4618176552e-01	 1.0375850825e+00
 1.6486654589e+00	 6.6161950097e-01	 1.0451021210e+00
 1.6423976532e+00	 6.7702886416e-01	 1.0506978639e+00
 1.6359736767e+00	 6.9240757782e-01	 1.0570313389e+00
 1.6293935430e+00	 7.0775335601e-01	 1.0666711292e+00
 1.6226573090e+00	 7.2306390505e-01	 1.0820955911e+00
 1.6157650750e+00	 7.3833692452e-01	 1.1056934749e+00
 1.6087169851e+00	 7.5357010830e-01	 1.1360382632e+00
 1.6015132277e+00	 7.6876114550e-01	 1.1701408176e+00
 1.6748090800e+00	 6.1828573985e-01	 1.0232434820e+00
 1.6689806402e+00	 6.3385034615e-01	 1.0257135291e+00
 1.6629954688e+00	 6.4939098642e-01	 1.0241940186e+00
 1.6568534517e+00	 6.6490539241e-01	 1.0212465540e+00
 1.6505545174e+00	 6.8039128522e-01	 1.0193223327e+00
 1.6440986366e+00	 6.9584637630e-01	 1.0207616804e+00
 1.6374858231e+00	 7.1126836832e-01	 1.0277939650e+00
 1.6307161340e+00	 7.2665495624e-01	 1.0425379139e+00
 1.6237896701e+00	 7.4200382820e-01	 1.0669603155e+00
 1.6167065763e+00	 7.5731266662e-01	 1.0966550470e+00
 1.6094670419e+00	 7.7257914915e-01	 1.1306384768e+00
 1.6830858451e+00	 6.2134125579e-01	 1.0557514447e+00
 1.6772286017e+00	 6.3698278107e-01	 1.0393270264e+00
 1.6712138520e+00	 6.5260022188e-01	 1.0217541733e+00
 1.6650414817e+00	 6.6819129874e-01	 1.0054998656e+00
 1.6587114185e+00	 6.8375372154e-01	 9.9289918728e-01
 1.6522236333e+00	 6.9928519036e-01	 9.8615463691e-01
 1.6455781398e+00	 7.1478339657e-01	 9.8733583896e-01
 1.6387749955e+00	 7.3024602370e-01	 9.9837968492e-01
 1.6318143016e+00	 7.4567074850e-01	 1.0204540103e+00
 1.6246962038e+00	 7.6105524190e-01	 1.0471419763e+00
 1.6174208922e+00	 7.7639717010e-01	 1.0795199343e+00
 1.5378829301e+00	 7.3821722017e-01	 1.2162313686e+00
 1.5308173424e+00	 7.5275953348e-01	 1.2695040688e+00
 1.5236028115e+00	 7.6725694188e-01	 1.3286355093e+00
 1.5162396457e+00	 7.8170721905e-01	 1.3919753073e+00
 1.5087281967e+00	 7.9610813808e-01	 1.4580319227e+00
 1.5010688597e+00	 8.1045747260e-01	 1.5253741060e+00
 1.4932620732e+00	 8.2475299774e-01	 1.5926290369e+00
 1.4853083198e+00	 8.3899249124e-01	 1.6584795948e+00
 1.4772081256e+00	 8.5317373444e-01	 1.7225012615e+00
 1.4689620607e+00	 8.6729451342e-01	 1.7879098297e+00
 1.4605707390e+00	 8.8135262000e-01	 1.8538733442e+00
 1.5458367804e+00	 7.4203524112e-01	 1.2246932280e+00
 1.5387346498e+00	 7.5665276651e-01	 1.2679307288e+00
 1.5314828057e+00	 7.7122515476e-01	 1.3119097116e+00
 1.5240815581e+00	 7.8575016800e-01	 1.3568028767e+00
 1.5165312603e+00	 8.0022556784e-01	 1.4028181632e+00
 1.5088323095e+00	 8.1464911637e-01	 1.4501950667e+00
 1.5009851467e+00	 8.2901857722e-01	 1.4992000882e+00
 1.4929902569e+00	 8.4333171663e-01	 1.5501212998e+00
 1.4848481689e+00	 8.5758630449e-01	 1.6032620179e+00
 1.4765594558e+00	 8.7178011540e-01	 1.6600034998e+00
 1.4681247347e+00	 8.8591092977e-01	 1.7250247070e+00
 1.5537905946e+00	 7.4585324477e-01	 1.2317961793e+00
 1.5466519214e+00	 7.6054598190e-01	 1.2676875300e+00
 1.5393627643e+00	 7.7519334965e-01	 1.2996891963e+00
 1.5319234349e+00	 7.8979309863e-01	 1.3294182308e+00
 1.5243342884e+00	 8.0434297893e-01	 1.3585081587e+00
 1.5165957242e+00	 8.1884074113e-01	 1.3886030729e+00
 1.5087081853e+00	 8.3328413736e-01	 1.4213508358e+00
 1.5006721592e+00	 8.4767092236e-01	 1.4583953777e+00
 1.4924881777e+00	 8.6199885453e-01	 1.5013680820e+00
 1.4841568165e+00	 8.7626569704e-01	 1.5518782582e+00
 1.4756786961e+00	 8.9046921888e-01	 1.6129254727e+00
 1.5617443818e+00	 7.4967123543e-01	 1.2361003966e+00
 1.5545691660e+00	 7.6443918406e-01	 1.2670147993e+00
 1.5472426960e+00	 7.7916153105e-01	 1.2899207627e+00
 1.5397652850e+00	 7.9383601552e-01	 1.3076028229e+00
 1.5321372901e+00	 8.0846037603e-01	 1.3228504500e+00
 1.5243591124e+00	 8.2303235165e-01	 1.3384503657e+00
 1.5164311976e+00	 8.3754968300e-01	 1.3571779391e+00
 1.5083540355e+00	 8.5201011333e-01	 1.3817876485e+00
 1.5001281604e+00	 8.6641138957e-01	 1.4150026047e+00
 1.4917541514e+00	 8.8075126344e-01	 1.4595031378e+00
 1.4832326318e+00	 8.9502749249e-01	 1.5179144543e+00
 1.5696981510e+00	 7.5348921745e-01	 1.2362850883e+00
 1.5624863927e+00	 7.6833237739e-01	 1.2641829807e+00
 1.5551226099e+00	 7.8312970346e-01	 1.2805874271e+00
 1.5476071174e+00	 7.9787892324e-01	 1.2891778100e+00
 1.5399402740e+00	 8.1257776380e-01	 1.2936340676e+00
 1.5321224831e+00	 8.2722395267e-01	 1.2976276778e+00
 1.5241541924e+00	 8.4181521898e-01	 1.3048116817e+00
 1.5160358943e+00	 8.5634929447e-01	 1.3188097390e+00
 1.5077681259e+00	 8.7082391461e-01	 1.3432042110e+00
 1.4993514691e+00	 8.8523681966e-01	 1.3815232723e+00
 1.4907865505e+00	 8.9958575577e-01	 1.4372270629e+00
 1.5776519112e+00	 7.5730719513e-01	 1.2310505118e+00
 1.5704036104e+00	 7.7222556631e-01	 1.2574919860e+00
 1.5630025149e+00	 7.8709787137e-01	 1.2697076301e+00
 1.5554489409e+00	 8.0192182639e-01	 1.2720031814e+00
 1.5477432491e+00	 8.1669514690e-01	 1.2686876507e+00
 1.5398858449e+00	 8.3141554894e-01	 1.2640634102e+00
 1.5318771784e+00	 8.4608075012e-01	 1.2624152782e+00
 1.5237177443e+00	 8.6068847069e-01	 1.2679985938e+00
 1.5154080827e+00	 8.7523643465e-01	 1.2850262752e+00
 1.5069487781e+00	 8.8972237081e-01	 1.3176548675e+00
 1.4983404605e+00	 9.0414401388e-01	 1.3699695883e+00
 1.5856056713e+00	 7.6112517282e-01	 1.2191175539e+00
 1.5783208281e+00	 7.7611875523e-01	 1.2452705748e+00
 1.5708824199e+00	 7.9106603928e-01	 1.2553344776e+00
 1.5632907644e+00	 8.0596472953e-01	 1.2539769242e+00
 1.5555462242e+00	 8.2081253000e-01	 1.2458786006e+00
 1.5476492068e+00	 8.3560714521e-01	 1.2357228429e+00
 1.5396001644e+00	 8.5034628126e-01	 1.2281842122e+00
 1.5313995944e+00	 8.6502764692e-01	 1.2279160102e+00
 1.5230480395e+00	 8.7964895470e-01	 1.2395367276e+00
 1.5145460872e+00	 8.9420792196e-01	 1.2676154331e+00
 1.5058943706e+00	 9.0870227200e-01	 1.3166561095e+00
 1.5935594405e+00	 7.6494315484e-01	 1.1992273322e+00
 1.5862380548e+00	 7.8001194856e-01	 1.2258757624e+00
 1.5787623338e+00	 7.9503421169e-01	 1.2355550133e+00
 1.5711325967e+00	 8.1000763725e-01	 1.2330342224e+00
 1.5633492082e+00	 8.2492991776e-01	 1.2231122708e+00
 1.5554125775e+00	 8.3979874622e-01	 1.2106073802e+00
 1.5473231592e+00	 8.5461181723e-01	 1.2003456032e+00
 1.5390814532e+00	 8.6936682806e-01	 1.1971481975e+00
 1.5306880049e+00	 8.8406147974e-01	 1.2058178767e+00
 1.5221434049e+00	 8.9869347818e-01	 1.2311239413e+00
 1.5134482892e+00	 9.1326053528e-01	 1.2777862989e+00
 1.6015132277e+00	 7.6876114550e-01	 1.1701408176e+00
 1.5941552995e+00	 7.8390515072e-01	 1.1976922539e+00
 1.5866422655e+00	 7.9900239309e-01	 1.2084895232e+00
 1.5789744469e+00	 8.1405055414e-01	 1.2071466898e+00
 1.5711522098e+00	 8.2904731486e-01	 1.1983311900e+00
 1.5631759657e+00	 8.4399035674e-01	 1.1867538277e+00
 1.5550461715e+00	 8.5887736287e-01	 1.1771576030e+00
 1.5467633295e+00	 8.7370601903e-01	 1.1743053601e+00
 1.5383279877e+00	 8.8847401478e-01	 1.1829662477e+00
 1.5297407397e+00	 9.0317904458e-01	 1.2079009910e+00
 1.5210022250e+00	 9.1781880889e-01	 1.2538459860e+00
 1.6094670419e+00	 7.7257914915e-01	 1.1306384768e+00
 1.6020725710e+00	 7.8779836611e-01	 1.1591319046e+00
 1.5945222240e+00	 8.0297058798e-01	 1.1722908694e+00
 1.5868163237e+00	 8.1809348477e-01	 1.1743216358e+00
 1.5789552380e+00	 8.3316472596e-01	 1.1695143184e+00
 1.5709393804e+00	 8.4818198151e-01	 1.1622337006e+00
 1.5627692100e+00	 8.6314292302e-01	 1.1569088199e+00
 1.5544452318e+00	 8.7804522476e-01	 1.1580213021e+00
 1.5459679964e+00	 8.9288656483e-01	 1.1700924346e+00
 1.5373381004e+00	 9.0766462623e-01	 1.1976689771e+00
 1.5285561864e+00	 9.2237709800e-01	 1.2453077139e+00
 1.6174208922e+00	 7.7639717010e-01	 1.0795199343e+00
 1.6099898785e+00	 7.9169159915e-01	 1.1086332058e+00
 1.6024022183e+00	 8.0693880086e-01	 1.1251438526e+00
 1.5946582360e+00	 8.2213643373e-01	 1.1326013609e+00
 1.5867583015e+00	 8.3728215572e-01	 1.1346763350e+00
 1.5787028302e+00	 8.5237362528e-01	 1.1351525621e+00
 1.5704922835e+00	 8.6740850250e-01	 1.1379177694e+00
 1.5621271689e+00	 8.8238445016e-01	 1.1469530537e+00
 1.5536080398e+00	 8.9729913487e-01	 1.1663209683e+00
 1.5449354956e+00	 9.1215022821e-01	 1.2001522649e+00
 1.5361101821e+00	 9.2693540778e-01	 1.2526312886e+00
 1.4605707390e+00	 8.8135262000e-01	 1.8538733442e+00
 1.4520348186e+00	 8.9534585312e-01	 1.8966250873e+00
 1.4433550027e+00	 9.0927202075e-01	 1.8969576421e+00
 1.4345320388e+00	 9.2312894020e-01	 1.8600957600e+00
 1.4255667177e+00	 9.3691443887e-01	 1.7911737716e+00
 1.4164598738e+00	 9.5062635536e-01	 1.6952177423e+00
 1.4072123847e+00	 9.6426254050e-01	 1.5771279440e+00
 1.3978251711e+00	 9.7782085850e-01	 1.4416617393e+00
 1.3882991966e+00	 9.9129918793e-01	 1.2934169731e+00
 1.3786354671e+00	 1.0046954228e+00	 1.1368159629e+00
 1.3688350311e+00	 1.0180074738e+00	 9.7609018295e-01
 1.4681247347e+00	 8.8591092977e-01	 1.7250247070e+00
 1.4595446669e+00	 8.9997653516e-01	 1.7760350224e+00
 1.4508199595e+00	 9.1397472821e-01	 1.7926080788e+00
 1.4419513637e+00	 9.2790331492e-01	 1.7782103462e+00
 1.4329396744e+00	 9.4176011147e-01	 1.7362696440e+00
 1.4237857304e+00	 9.5554294527e-01	 1.6701596049e+00
 1.4144904137e+00	 9.6924965605e-01	 1.5831844059e+00
 1.4050546500e+00	 9.8287809696e-01	 1.4785638587e+00
 1.3954794076e+00	 9.9642613561e-01	 1.3594189546e+00
 1.3857656978e+00	 1.0098916552e+00	 1.2287579537e+00
 1.3759145745e+00	 1.0232725554e+00	 1.0894631095e+00
 1.4756786961e+00	 8.9046921888e-01	 1.6129254727e+00
 1.4670544812e+00	 9.0460719621e-01	 1.6677982866e+00
 1.4582848825e+00	 9.1867741434e-01	 1.6960398571e+00
 1.4493706549e+00	 9.3267766800e-01	 1.6995847412e+00
 1.4403125977e+00	 9.4660576211e-01	 1.6803686735e+00
 1.4311115537e+00	 9.6045951290e-01	 1.6403149533e+00
 1.4217684098e+00	 9.7423674900e-01	 1.5813210622e+00
 1.4122840961e+00	 9.8793531250e-01	 1.5052456063e+00
 1.4026595860e+00	 1.0015530601e+00	 1.4138956738e+00
 1.3928958962e+00	 1.0150878639e+00	 1.3090147000e+00
 1.3829940857e+00	 1.0285376131e+00	 1.1922709276e+00
 1.4832326318e+00	 8.9502749249e-01	 1.5179144543e+00
 1.4745642700e+00	 9.0923784152e-01	 1.5732166624e+00
 1.4657497800e+00	 9.2338008449e-01	 1.6092125587e+00
 1.4567899209e+00	 9.3745200484e-01	 1.6266555923e+00
 1.4476854959e+00	 9.5145139626e-01	 1.6262006874e+00
 1.4384373522e+00	 9.6537606381e-01	 1.6085198808e+00
 1.4290463811e+00	 9.7922382499e-01	 1.5742904589e+00
 1.4195135176e+00	 9.9299251085e-01	 1.5241833969e+00
 1.4098397401e+00	 1.0066799671e+00	 1.4588521934e+00
 1.4000260704e+00	 1.0202840550e+00	 1.3789221889e+00
 1.3900735730e+00	 1.0338026528e+00	 1.2849804595e+00
 1.4907865505e+00	 8.9958575577e-01	 1.4372270629e+00
 1.4820740417e+00	 9.1386847633e-01	 1.4935487560e+00
 1.4732146607e+00	 9.2808274398e-01	 1.5340422789e+00
 1.4642091701e+00	 9.4222633087e-01	 1.5618056731e+00
 1.4550583774e+00	 9.5629701944e-01	 1.5764350087e+00
 1.4457631341e+00	 9.7029260358e-01	 1.5775471685e+00
 1.4363243359e+00	 9.8421088968e-01	 1.5647829052e+00
 1.4267429227e+00	 9.9804969774e-01	 1.5377964281e+00
 1.4170198779e+00	 1.0118068625e+00	 1.4962453777e+00
 1.4071562284e+00	 1.0254802343e+00	 1.4397812816e+00
 1.3971530441e+00	 1.0390676807e+00	 1.3680405787e+00
 1.4983404605e+00	 9.0414401388e-01	 1.3699695883e+00
 1.4895838049e+00	 9.1849910590e-01	 1.4274768720e+00
 1.4806795329e+00	 9.3278539815e-01	 1.4724019839e+00
 1.4716284109e+00	 9.4700065148e-01	 1.5073644731e+00
 1.4624312505e+00	 9.6114263713e-01	 1.5336811851e+00
 1.4530889076e+00	 9.7520913778e-01	 1.5501070571e+00
 1.4436022825e+00	 9.8919794872e-01	 1.5554271927e+00
 1.4339723197e+00	 1.0031068789e+00	 1.5484472462e+00
 1.4242000076e+00	 1.0169337520e+00	 1.5279842071e+00
 1.4142863783e+00	 1.0306764078e+00	 1.4928576744e+00
 1.4042325073e+00	 1.0443327026e+00	 1.4418817149e+00
 1.5058943706e+00	 9.0870227200e-01	 1.3166561095e+00
 1.4970935682e+00	 9.2312973546e-01	 1.3743761516e+00
 1.4881444050e+00	 9.3748805231e-01	 1.4244536572e+00
 1.4790476517e+00	 9.5177497210e-01	 1.4656087501e+00
 1.4698041237e+00	 9.6598825482e-01	 1.5004896749e+00
 1.4604146812e+00	 9.8012567198e-01	 1.5288479747e+00
 1.4508802291e+00	 9.9418500776e-01	 1.5487912692e+00
 1.4412017166e+00	 1.0081640601e+00	 1.5584422734e+00
 1.4313801372e+00	 1.0220606416e+00	 1.5559300596e+00
 1.4214165282e+00	 1.0358725812e+00	 1.5393818386e+00
 1.4113119704e+00	 1.0495977244e+00	 1.5069153527e+00
 1.5134482892e+00	 9.1326053528e-01	 1.2777862989e+00
 1.5046033399e+00	 9.2776037028e-01	 1.3355191834e+00
 1.4956092857e+00	 9.4219071180e-01	 1.3895389110e+00
 1.4864669009e+00	 9.5654929812e-01	 1.4378828469e+00
 1.4771770052e+00	 9.7083387800e-01	 1.4793524924e+00
 1.4677404630e+00	 9.8504221176e-01	 1.5163572212e+00
 1.4581581839e+00	 9.9917207245e-01	 1.5473828728e+00
 1.4484311217e+00	 1.0132212469e+00	 1.5700322967e+00
 1.4385602750e+00	 1.0271875370e+00	 1.5818969632e+00
 1.4285466862e+00	 1.0410687605e+00	 1.5805489392e+00
 1.4183914416e+00	 1.0548627523e+00	 1.5635335214e+00
 1.5210022250e+00	 9.1781880889e-01	 1.2538459860e+00
 1.5121131287e+00	 9.3239101559e-01	 1.3121493792e+00
 1.5030741833e+00	 9.4689338195e-01	 1.3694732380e+00
 1.4938861669e+00	 9.6132363497e-01	 1.4235906520e+00
 1.4845499034e+00	 9.7567951216e-01	 1.4723919515e+00
 1.4750662615e+00	 9.8995876267e-01	 1.5151616114e+00
 1.4654361552e+00	 1.0041591484e+00	 1.5536501242e+00
 1.4556605433e+00	 1.0182784453e+00	 1.5854129212e+00
 1.4457404291e+00	 1.0323144440e+00	 1.6076518179e+00
 1.4356768604e+00	 1.0462649516e+00	 1.6175187346e+00
 1.4254709288e+00	 1.0601277921e+00	 1.6121082788e+00
 1.5285561864e+00	 9.2237709800e-01	 1.2453077139e+00
 1.5196229430e+00	 9.3702167664e-01	 1.3054819133e+00
 1.5105391062e+00	 9.5159606809e-01	 1.3660568255e+00
 1.5013054582e+00	 9.6609798805e-01	 1.4247437406e+00
 1.4919228267e+00	 9.8052516279e-01	 1.4793371326e+00
 1.4823920849e+00	 9.9487533030e-01	 1.5277027843e+00
 1.4727141512e+00	 1.0091462414e+00	 1.5699820813e+00
 1.4628899893e+00	 1.0233356608e+00	 1.6067249881e+00
 1.4529206076e+00	 1.0374413685e+00	 1.6349145888e+00
 1.4428070588e+00	 1.0514611604e+00	 1.6514154564e+00
 1.4325504401e+00	 1.0653928498e+00	 1.6529911864e+00
 1.5361101821e+00	 9.2693540778e-01	 1.2526312886e+00
 1.5271327913e+00	 9.4165235869e-01	 1.3167046439e+00
 1.5180040630e+00	 9.5629877555e-01	 1.3810510443e+00
 1.5087247831e+00	 9.7087236277e-01	 1.4435195172e+00
 1.4992957834e+00	 9.8537083540e-01	 1.5019974377e+00
 1.4897179414e+00	 9.9979192022e-01	 1.5543978787e+00
 1.4799921803e+00	 1.0141333570e+00	 1.5987092553e+00
 1.4701194682e+00	 1.0283928993e+00	 1.6360549585e+00
 1.4601008186e+00	 1.0425683162e+00	 1.6653584727e+00
 1.4499372895e+00	 1.0566573927e+00	 1.6833276704e+00
 1.4396299835e+00	 1.0706579313e+00	 1.6865127784e+00
 1.3688350311e+00	 1.0180074738e+00	 9.7609018295e-01
 1.3588972790e+00	 1.0312355088e+00	 8.4012491376e-01
 1.3488250026e+00	 1.0443751969e+00	 7.5123812981e-01
 1.3386193810e+00	 1.0574244959e+00	 7.0342328066e-01
 1.3282816342e+00	 1.0703813842e+00	 6.9047216329e-01
 1.3178130228e+00	 1.0832438620e+00	 7.0597843498e-01
 1.3072148469e+00	 1.0960099521e+00	 7.4334227233e-01
 1.2964884462e+00	 1.1086777011e+00	 7.9577621410e-01
 1.2856351989e+00	 1.1212451801e+00	 8.5586571766e-01
 1.2746565218e+00	 1.1337104859e+00	 9.1597322157e-01
 1.2635538689e+00	 1.1460717420e+00	 9.6961689335e-01
 1.3759145745e+00	 1.0232725554e+00	 1.0894631095e+00
 1.3659254249e+00	 1.0365690051e+00	 9.6946061832e-01
 1.3558010551e+00	 1.0497766510e+00	 8.9114070392e-01
 1.3455426506e+00	 1.0628934402e+00	 8.4873465546e-01
 1.3351514376e+00	 1.0759173409e+00	 8.3624588670e-01
 1.3246286830e+00	 1.0888463427e+00	 8.4745293083e-01
 1.3139756939e+00	 1.1016784584e+00	 8.7591364771e-01
 1.3031938168e+00	 1.1144117243e+00	 9.1490812278e-01
 1.2922844371e+00	 1.1270442017e+00	 9.5646364128e-01
 1.2812489788e+00	 1.1395739774e+00	 9.9367191545e-01
 1.2700889036e+00	 1.1519991652e+00	 1.0201706797e+00
 1.3829940857e+00	 1.0285376131e+00	 1.1922709276e+00
 1.3729535388e+00	 1.0419024772e+00	 1.0901461920e+00
 1.3627770760e+00	 1.0551780805e+00	 1.0245437058e+00
 1.3524658888e+00	 1.0683623597e+00	 9.8995362415e-01
 1.3420212097e+00	 1.0814532724e+00	 9.8062074326e-01
 1.3314443123e+00	 1.0944487981e+00	 9.9054694612e-01
 1.3207365103e+00	 1.1073469390e+00	 1.0134949160e+00
 1.3098991570e+00	 1.1201457216e+00	 1.0424652998e+00
 1.2989336452e+00	 1.1328431970e+00	 1.0695765714e+00
 1.2878414060e+00	 1.1454374423e+00	 1.0885610545e+00
 1.2766239087e+00	 1.1579265616e+00	 1.0932279641e+00
 1.3900735730e+00	 1.0338026528e+00	 1.2849804595e+00
 1.3799816289e+00	 1.0472359311e+00	 1.2017402390e+00
 1.3697530733e+00	 1.0605794917e+00	 1.1502210715e+00
 1.3593891035e+00	 1.0738312607e+00	 1.1251925281e+00
 1.3488909586e+00	 1.0869891852e+00	 1.1211699761e+00
 1.3382599185e+00	 1.1000512344e+00	 1.1324164457e+00
 1.3274973037e+00	 1.1130154003e+00	 1.1529178082e+00
 1.3166044744e+00	 1.1258796993e+00	 1.1749569697e+00
 1.3055828306e+00	 1.1386421726e+00	 1.1916774538e+00
 1.2944338107e+00	 1.1513008873e+00	 1.1971647334e+00
 1.2831588916e+00	 1.1638539379e+00	 1.1854795961e+00
 1.3971530441e+00	 1.0390676807e+00	 1.3680405787e+00
 1.3870097031e+00	 1.0525693730e+00	 1.3038014338e+00
 1.3767290547e+00	 1.0659808906e+00	 1.2669623777e+00
 1.3663123025e+00	 1.0793001492e+00	 1.2525924822e+00
 1.3557606918e+00	 1.0925250854e+00	 1.2555063122e+00
 1.3450755092e+00	 1.1056536580e+00	 1.2702651813e+00
 1.3342580817e+00	 1.1186838488e+00	 1.2906984024e+00
 1.3233097767e+00	 1.1316136641e+00	 1.3089800921e+00
 1.3122320010e+00	 1.1444411350e+00	 1.3192991823e+00
 1.3010262005e+00	 1.1571643190e+00	 1.3160662223e+00
 1.2896938596e+00	 1.1697813007e+00	 1.2936724505e+00
 1.4042325073e+00	 1.0443327026e+00	 1.4418817149e+00
 1.3940377693e+00	 1.0579028088e+00	 1.3958875523e+00
 1.3837050282e+00	 1.0713822835e+00	 1.3735714607e+00
 1.3732354936e+00	 1.0847690316e+00	 1.3703216453e+00
 1.3626304173e+00	 1.0980609794e+00	 1.3812799457e+00
 1.3518910922e+00	 1.1112560752e+00	 1.4013422377e+00
 1.3410188521e+00	 1.1243522909e+00	 1.4235682597e+00
 1.3300150713e+00	 1.1373476223e+00	 1.4411889634e+00
 1.3188811638e+00	 1.1502400909e+00	 1.4490335871e+00
 1.3076185829e+00	 1.1630277441e+00	 1.4419069879e+00
 1.2962288203e+00	 1.1757086568e+00	 1.4146085416e+00
 1.4113119704e+00	 1.0495977244e+00	 1.5069153527e+00
 1.4010658355e+00	 1.0632362446e+00	 1.4775545087e+00
 1.3906810017e+00	 1.0767836763e+00	 1.4688650536e+00
 1.3801586848e+00	 1.0902379140e+00	 1.4765735182e+00
 1.3695001428e+00	 1.1035968733e+00	 1.4961765591e+00
 1.3587066751e+00	 1.1168584925e+00	 1.5226078282e+00
 1.3477796225e+00	 1.1300207330e+00	 1.5484098798e+00
 1.3367203659e+00	 1.1430815806e+00	 1.5682942827e+00
 1.3255303266e+00	 1.1560390467e+00	 1.5775304759e+00
 1.3142109652e+00	 1.1688911691e+00	 1.5713857671e+00
 1.3027637809e+00	 1.1816360129e+00	 1.5451441852e+00
 1.4183914416e+00	 1.0548627523e+00	 1.5635335214e+00
 1.4080939096e+00	 1.0685696865e+00	 1.5483553983e+00
 1.3976569831e+00	 1.0821850752e+00	 1.5516714416e+00
 1.3870818838e+00	 1.0957068025e+00	 1.5695652704e+00
 1.3763698760e+00	 1.1091327735e+00	 1.5979153792e+00
 1.3655222658e+00	 1.1224609161e+00	 1.6310140225e+00
 1.3545404005e+00	 1.1356891814e+00	 1.6621574842e+00
 1.3434256681e+00	 1.1488155453e+00	 1.6870622664e+00
 1.3321794970e+00	 1.1618380092e+00	 1.7014967248e+00
 1.3208033550e+00	 1.1747546008e+00	 1.7012576898e+00
 1.3092987489e+00	 1.1875633757e+00	 1.6821892085e+00
 1.4254709288e+00	 1.0601277921e+00	 1.6121082788e+00
 1.4151219997e+00	 1.0739031404e+00	 1.6078395469e+00
 1.4046329803e+00	 1.0875864864e+00	 1.6208291336e+00
 1.3940050985e+00	 1.1011757035e+00	 1.6475360929e+00
 1.3832396249e+00	 1.1146686863e+00	 1.6841017562e+00
 1.3723378720e+00	 1.1280633524e+00	 1.7238177373e+00
 1.3613011939e+00	 1.1413576428e+00	 1.7617962560e+00
 1.3501309856e+00	 1.1545495231e+00	 1.7943138112e+00
 1.3388286824e+00	 1.1676369847e+00	 1.8176954182e+00
 1.3273957597e+00	 1.1806180458e+00	 1.8283334498e+00
 1.3158337318e+00	 1.1934907519e+00	 1.8227062050e+00
 1.4325504401e+00	 1.0653928498e+00	 1.6529911864e+00
 1.4221501137e+00	 1.0792366125e+00	 1.6555515640e+00
 1.4116090012e+00	 1.0929879160e+00	 1.6751855511e+00
 1.4009283367e+00	 1.1066446230e+00	 1.7087455765e+00
 1.3901093970e+00	 1.1202046179e+00	 1.7519571337e+00
 1.3791535013e+00	 1.1336658078e+00	 1.7983203370e+00
 1.3680620102e+00	 1.1470261234e+00	 1.8443616231e+00
 1.3568363258e+00	 1.1602835203e+00	 1.8869237024e+00
 1.3454778905e+00	 1.1734359800e+00	 1.9229450354e+00
 1.3339881869e+00	 1.1864815107e+00	 1.9494785215e+00
 1.3223687369e+00	 1.1994181483e+00	 1.9637098336e+00
 1.4396299835e+00	 1.0706579313e+00	 1.6865127784e+00
 1.4291782595e+00	 1.0845701087e+00	 1.6910304028e+00
 1.4185850537e+00	 1.0983893700e+00	 1.7135957325e+00
 1.4078516063e+00	 1.1121135673e+00	 1.7514593828e+00
 1.3969792004e+00	 1.1257405746e+00	 1.7991487700e+00
 1.3859691615e+00	 1.1392682885e+00	 1.8518670835e+00
 1.3748228572e+00	 1.1526946297e+00	 1.9069385844e+00
 1.3635416964e+00	 1.1660175436e+00	 1.9618198676e+00
 1.3521271287e+00	 1.1792350016e+00	 2.0141186827e+00
 1.3405806439e+00	 1.1923450022e+00	 2.0616124221e+00
 1.3289037716e+00	 1.2053455716e+00	 2.1022661603e+00
 1.2635538689e+00	 1.1460717420e+00	 9.6961689335e-01
 1.2523306466e+00	 1.1583250283e+00	 1.0196441539e+00
 1.2409864882e+00	 1.1704706520e+00	 1.0730277970e+00
 1.2295229360e+00	 1.1825068424e+00	 1.1296101046e+00
 1.2179415673e+00	 1.1944318594e+00	 1.1893904082e+00
 1.2062439935e+00	 1.2062439935e+00	 1.2525335992e+00
 1.1944318594e+00	 1.2179415673e+00	 1.3193779544e+00
 1.1825068424e+00	 1.2295229360e+00	 1.3904422204e+00
 1.1704706520e+00	 1.2409864882e+00	 1.4664319067e+00
 1.1583250283e+00	 1.2523306466e+00	 1.5482447378e+00
 1.1460717420e+00	 1.2635538689e+00	 1.6369752270e+00
 1.2700889036e+00	 1.1519991652e+00	 1.0201706797e+00
 1.2588076354e+00	 1.1643158249e+00	 1.0396002010e+00
 1.2474048056e+00	 1.1765242651e+00	 1.0610442575e+00
 1.2358819645e+00	 1.1886227061e+00	 1.0863395933e+00
 1.2242406976e+00	 1.2006093986e+00	 1.1173810718e+00
 1.2124826245e+00	 1.2124826245e+00	 1.1561276500e+00
 1.2006093986e+00	 1.2242406976e+00	 1.2046077907e+00
 1.1886227061e+00	 1.2358819645e+00	 1.2649242590e+00
 1.1765242651e+00	 1.2474048056e+00	 1.3392582546e+00
 1.1643158249e+00	 1.2588076354e+00	 1.4298728340e+00
 1.1519991652e+00	 1.2700889036e+00	 1.5391155865e+00
 1.2766239087e+00	 1.1579265616e+00	 1.0932279641e+00
 1.2652845948e+00	 1.1703065944e+00	 1.0875100324e+00
 1.2538230939e+00	 1.1825778509e+00	 1.0817950982e+00
 1.2422409642e+00	 1.1947385421e+00	 1.0795466749e+00
 1.2305397993e+00	 1.2067869099e+00	 1.0841974867e+00
 1.2187212272e+00	 1.2187212272e+00	 1.0991534321e+00
 1.2067869099e+00	 1.2305397993e+00	 1.1277970917e+00
 1.1947385421e+00	 1.2422409642e+00	 1.1734907299e+00
 1.1825778509e+00	 1.2538230939e+00	 1.2395787423e+00
 1.1703065944e+00	 1.2652845948e+00	 1.3293895070e+00
 1.1579265616e+00	 1.2766239087e+00	 1.4462366020e+00
 1.2831588916e+00	 1.1638539379e+00	 1.1854795961e+00
 1.2717615322e+00	 1.1762973435e+00	 1.1603549177e+00
 1.2602413604e+00	 1.1886314160e+00	 1.1326885611e+00
 1.2485999422e+00	 1.2008543573e+00	 1.1072088670e+00
 1.2368388796e+00	 1.2129644002e+00	 1.0885343995e+00
 1.2249598088e+00	 1.2249598088e+00	 1.0811764175e+00
 1.2129644002e+00	 1.2368388796e+00	 1.0895409837e+00
 1.2008543573e+00	 1.2485999422e+00	 1.1179306602e+00
 1.1886314160e+00	 1.2602413604e+00	 1.1705457442e+00
 1.1762973435e+00	 1.2717615322e+00	 1.2514850013e+00
 1.1638539379e+00	 1.2831588916e+00	 1.3647458614e+00
 1.2896938596e+00	 1.1697813007e+00	 1.2936724505e+00
 1.2782384550e+00	 1.1822880790e+00	 1.2551664603e+00
 1.2666596123e+00	 1.1946849674e+00	 1.2111747260e+00
 1.2549589059e+00	 1.2069701586e+00	 1.1673341091e+00
 1.2431379456e+00	 1.2191418765e+00	 1.1291025275e+00
 1.2311983762e+00	 1.2311983762e+00	 1.1017604511e+00
 1.2191418765e+00	 1.2431379456e+00	 1.0904121123e+00
 1.2069701586e+00	 1.2549589059e+00	 1.0999863809e+00
 1.1946849674e+00	 1.2666596123e+00	 1.1352372554e+00
 1.1822880790e+00	 1.2782384550e+00	 1.2007439301e+00
 1.1697813007e+00	 1.2896938596e+00	 1.3009104013e+00
 1.2962288203e+00	 1.1757086568e+00	 1.4146085416e+00
 1.2847153703e+00	 1.1882788078e+00	 1.3690258653e+00
 1.2730778569e+00	 1.2007385120e+00	 1.3147450020e+00
 1.2613178623e+00	 1.2130859530e+00	 1.2579605495e+00
 1.2494370044e+00	 1.2253193457e+00	 1.2046287175e+00
 1.2374369365e+00	 1.2374369365e+00	 1.1604683592e+00
 1.2253193457e+00	 1.2494370044e+00	 1.1309617815e+00
 1.2130859530e+00	 1.2613178623e+00	 1.1213552782e+00
 1.2007385120e+00	 1.2730778569e+00	 1.1366593430e+00
 1.1882788078e+00	 1.2847153703e+00	 1.1816485157e+00
 1.1757086568e+00	 1.2962288203e+00	 1.2608608277e+00
 1.3027637809e+00	 1.1816360129e+00	 1.5451441852e+00
 1.2911922857e+00	 1.1942695365e+00	 1.4990632517e+00
 1.2794961016e+00	 1.2067920565e+00	 1.4409316577e+00
 1.2676768187e+00	 1.2192017474e+00	 1.3771563629e+00
 1.2557360633e+00	 1.2314968150e+00	 1.3138561224e+00
 1.2436754968e+00	 1.2436754968e+00	 1.2568625623e+00
 1.2314968150e+00	 1.2557360633e+00	 1.2117210800e+00
 1.2192017474e+00	 1.2676768187e+00	 1.1836915162e+00
 1.2067920565e+00	 1.2794961016e+00	 1.1777485470e+00
 1.1942695365e+00	 1.2911922857e+00	 1.1985817540e+00
 1.1816360129e+00	 1.3027637809e+00	 1.2505953341e+00
 1.3092987489e+00	 1.1875633757e+00	 1.6821892085e+00
 1.2976692084e+00	 1.2002602720e+00	 1.6424570085e+00
 1.2859143535e+00	 1.2128456079e+00	 1.5873073869e+00
 1.2740357824e+00	 1.2253175488e+00	 1.5230195950e+00
 1.2620351293e+00	 1.2376742913e+00	 1.4555443964e+00
 1.2499140642e+00	 1.2499140642e+00	 1.3905056915e+00
 1.2376742913e+00	 1.2620351293e+00	 1.3332019972e+00
 1.2253175488e+00	 1.2740357824e+00	 1.2886077290e+00
 1.2128456079e+00	 1.2859143535e+00	 1.2613742307e+00
 1.2002602720e+00	 1.2976692084e+00	 1.2558305076e+00
 1.1875633757e+00	 1.3092987489e+00	 1.2759836211e+00
 1.3158337318e+00	 1.1934907519e+00	 1.8227062050e+00
 1.3041461458e+00	 1.2062510211e+00	 1.7964331903e+00
 1.2923326200e+00	 1.2188991731e+00	 1.7514849101e+00
 1.2803947604e+00	 1.2314333640e+00	 1.6936780338e+00
 1.2683342096e+00	 1.2438517815e+00	 1.6284699046e+00
 1.2561526457e+00	 1.2561526457e+00	 1.5609612100e+00
 1.2438517815e+00	 1.2683342096e+00	 1.4958985275e+00
 1.2314333640e+00	 1.2803947604e+00	 1.4376766853e+00
 1.2188991731e+00	 1.2923326200e+00	 1.3903408841e+00
 1.2062510211e+00	 1.3041461458e+00	 1.3575885278e+00
 1.1934907519e+00	 1.3158337318e+00	 1.3427707218e+00
 1.3223687369e+00	 1.1994181483e+00	 1.9637098336e+00
 1.3106231052e+00	 1.2122417906e+00	 1.9582649547e+00
 1.2987509083e+00	 1.2249527588e+00	 1.9311166092e+00
 1.2867537601e+00	 1.2375492000e+00	 1.8872891082e+00
 1.2746333113e+00	 1.2500292928e+00	 1.8314259507e+00
 1.2623912484e+00	 1.2623912484e+00	 1.7677940377e+00
 1.2500292928e+00	 1.2746333113e+00	 1.7002877644e+00
 1.2375492000e+00	 1.2867537601e+00	 1.6324329262e+00
 1.2249527588e+00	 1.2987509083e+00	 1.5673903806e+00
 1.2122417906e+00	 1.3106231052e+00	 1.5079594096e+00
 1.1994181483e+00	 1.3223687369e+00	 1.4565807351e+00
 1.3289037716e+00	 1.2053455716e+00	 2.1022661603e+00
 1.3171000940e+00	 1.2182325872e+00	 2.1252720364e+00
 1.3051692256e+00	 1.2310063719e+00	 2.1238941962e+00
 1.2931127885e+00	 1.2436650637e+00	 2.1020398102e+00
 1.2809324416e+00	 1.2562068321e+00	 2.0632230187e+00
 1.2686298794e+00	 1.2686298794e+00	 2.0105711795e+00
 1.2562068321e+00	 1.2809324416e+00	 1.9468309849e+00
 1.2436650637e+00	 1.2931127885e+00	 1.8743743759e+00
 1.2310063719e+00	 1.3051692256e+00	 1.7952041894e+00
 1.2182325872e+00	 1.3171000940e+00	 1.7109594811e+00
 1.2053455716e+00	 1.3289037716e+00	 1.6229204706e+00
 1.1460717420e+00	 1.2635538689e+00	 1.6369752270e+00
 1.1337104859e+00	 1.2746565218e+00	 1.7095054514e+00
 1.1212451801e+00	 1.2856351989e+00	 1.7433670453e+00
 1.1086777011e+00	 1.2964884462e+00	 1.7408044195e+00
 1.0960099521e+00	 1.3072148469e+00	 1.7106494538e+00
 1.0832438620e+00	 1.3178130228e+00	 1.6590674786e+00
 1.0703813842e+00	 1.3282816342e+00	 1.5887434175e+00
 1.0574244959e+00	 1.3386193810e+00	 1.5020279257e+00
 1.0443751969e+00	 1.3488250026e+00	 1.4009186345e+00
 1.0312355088e+00	 1.3588972790e+00	 1.2870428085e+00
 1.0180074738e+00	 1.3688350311e+00	 1.1616414970e+00
 1.1519991652e+00	 1.2700889036e+00	 1.5391155865e+00
 1.1395739774e+00	 1.2812489788e+00	 1.6420602956e+00
 1.1270442017e+00	 1.2922844371e+00	 1.7113629080e+00
 1.1144117243e+00	 1.3031938168e+00	 1.7458475936e+00
 1.1016784584e+00	 1.3139756939e+00	 1.7473520657e+00
 1.0888463427e+00	 1.3246286830e+00	 1.7231160393e+00
 1.0759173409e+00	 1.3351514376e+00	 1.6737480745e+00
 1.0628934402e+00	 1.3455426506e+00	 1.5994210007e+00
 1.0497766510e+00	 1.3558010551e+00	 1.5002143536e+00
 1.0365690051e+00	 1.3659254249e+00	 1.3760984814e+00
 1.0232725554e+00	 1.3759145745e+00	 1.2269198069e+00
 1.1579265616e+00	 1.2766239087e+00	 1.4462366020e+00
 1.1454374423e+00	 1.2878414060e+00	 1.5655160876e+00
 1.1328431970e+00	 1.2989336452e+00	 1.6577358519e+00
 1.1201457216e+00	 1.3098991570e+00	 1.7190719842e+00
 1.1073469390e+00	 1.3207365103e+00	 1.7463848223e+00
 1.0944487981e+00	 1.3314443123e+00	 1.7448019653e+00
 1.0814532724e+00	 1.3420212097e+00	 1.7153501832e+00
 1.0683623597e+00	 1.3524658888e+00	 1.6564506038e+00
 1.0551780805e+00	 1.3627770760e+00	 1.5666499795e+00
 1.0419024772e+00	 1.3729535388e+00	 1.4446058261e+00
 1.0285376131e+00	 1.3829940857e+00	 1.2890724414e+00
 1.1638539379e+00	 1.2831588916e+00	 1.3647458614e+00
 1.1513008873e+00	 1.2944338107e+00	 1.4878348976e+00
 1.1386421726e+00	 1.3055828306e+00	 1.5914876546e+00
 1.1258796993e+00	 1.3166044744e+00	 1.6698065444e+00
 1.1130154003e+00	 1.3274973037e+00	 1.7172636028e+00
 1.1000512344e+00	 1.3382599185e+00	 1.7332186664e+00
 1.0869891852e+00	 1.3488909586e+00	 1.7215464344e+00
 1.0738312607e+00	 1.3593891035e+00	 1.6794658318e+00
 1.0605794917e+00	 1.3697530733e+00	 1.6043699351e+00
 1.0472359311e+00	 1.3799816289e+00	 1.4939417274e+00
 1.0338026528e+00	 1.3900735730e+00	 1.3461405217e+00
 1.1697813007e+00	 1.2896938596e+00	 1.3009104013e+00
 1.1571643190e+00	 1.3010262005e+00	 1.4168065971e+00
 1.1444411350e+00	 1.3122320010e+00	 1.5214266499e+00
 1.1316136641e+00	 1.3233097767e+00	 1.6073655722e+00
 1.1186838488e+00	 1.3342580817e+00	 1.6677293251e+00
 1.1056536580e+00	 1.3450755092e+00	 1.6972627528e+00
 1.0925250854e+00	 1.3557606918e+00	 1.7001588237e+00
 1.0793001492e+00	 1.3663123025e+00	 1.6746744099e+00
 1.0659808906e+00	 1.3767290547e+00	 1.6174219395e+00
 1.0525693730e+00	 1.3870097031e+00	 1.5254424946e+00
 1.0390676807e+00	 1.3971530441e+00	 1.3961922891e+00
 1.1757086568e+00	 1.2962288203e+00	 1.2608608277e+00
 1.1630277441e+00	 1.3076185829e+00	 1.3600537749e+00
 1.1502400909e+00	 1.3188811638e+00	 1.4561731756e+00
 1.1373476223e+00	 1.3300150713e+00	 1.5408649560e+00
 1.1243522909e+00	 1.3410188521e+00	 1.6063902739e+00
 1.1112560752e+00	 1.3518910922e+00	 1.6456373073e+00
 1.0980609794e+00	 1.3626304173e+00	 1.6588382299e+00
 1.0847690316e+00	 1.3732354936e+00	 1.6481454285e+00
 1.0713822835e+00	 1.3837050282e+00	 1.6097586186e+00
 1.0579028088e+00	 1.3940377693e+00	 1.5404040572e+00
 1.0443327026e+00	 1.4042325073e+00	 1.4373215951e+00
 1.1816360129e+00	 1.3027637809e+00	 1.2505953341e+00
 1.1688911691e+00	 1.3142109652e+00	 1.3250365278e+00
 1.1560390467e+00	 1.3255303266e+00	 1.4041648802e+00
 1.1430815806e+00	 1.3367203659e+00	 1.4792277380e+00
 1.1300207330e+00	 1.3477796225e+00	 1.5421553067e+00
 1.1168584925e+00	 1.3587066751e+00	 1.5855728005e+00
 1.1035968733e+00	 1.3695001428e+00	 1.6050678690e+00
 1.0902379140e+00	 1.3801586848e+00	 1.6058119806e+00
 1.0767836763e+00	 1.3906810017e+00	 1.5852390489e+00
 1.0632362446e+00	 1.4010658355e+00	 1.5400821367e+00
 1.0495977244e+00	 1.4113119704e+00	 1.4676464204e+00
 1.1875633757e+00	 1.3092987489e+00	 1.2759836211e+00
 1.1747546008e+00	 1.3208033550e+00	 1.3190571284e+00
 1.1618380092e+00	 1.3321794970e+00	 1.3736618923e+00
 1.1488155453e+00	 1.3434256681e+00	 1.4311895313e+00
 1.1356891814e+00	 1.3545404005e+00	 1.4837458767e+00
 1.1224609161e+00	 1.3655222658e+00	 1.5241628756e+00
 1.1091327735e+00	 1.3763698760e+00	 1.5461666271e+00
 1.0957068025e+00	 1.3870818838e+00	 1.5534737028e+00
 1.0821850752e+00	 1.3976569831e+00	 1.5476302397e+00
 1.0685696865e+00	 1.4080939096e+00	 1.5256923985e+00
 1.0548627523e+00	 1.4183914416e+00	 1.4853074222e+00
 1.1934907519e+00	 1.3158337318e+00	 1.3427707218e+00
 1.1806180458e+00	 1.3273957597e+00	 1.3492645771e+00
 1.1676369847e+00	 1.3388286824e+00	 1.3727518571e+00
 1.1545495231e+00	 1.3501309856e+00	 1.4053037979e+00
 1.1413576428e+00	 1.3613011939e+00	 1.4397013033e+00
 1.1280633524e+00	 1.3723378720e+00	 1.4694459965e+00
 1.1146686863e+00	 1.3832396249e+00	 1.4887692546e+00
 1.1011757035e+00	 1.3940050985e+00	 1.4967992244e+00
 1.0875864864e+00	 1.4046329803e+00	 1.5006085531e+00
 1.0739031404e+00	 1.4151219997e+00	 1.4984105822e+00
 1.0601277921e+00	 1.4254709288e+00	 1.4884665095e+00
 1.1994181483e+00	 1.3223687369e+00	 1.4565807351e+00
 1.1864815107e+00	 1.3339881869e+00	 1.4226590394e+00
 1.1734359800e+00	 1.3454778905e+00	 1.4093548452e+00
 1.1602835203e+00	 1.3568363258e+00	 1.4099469917e+00
 1.1470261234e+00	 1.3680620102e+00	 1.4183839078e+00
 1.1336658078e+00	 1.3791535013e+00	 1.4292932149e+00
 1.1202046179e+00	 1.3901093970e+00	 1.4379893368e+00
 1.1066446230e+00	 1.4009283367e+00	 1.4413285263e+00
 1.0929879160e+00	 1.4116090012e+00	 1.4477610668e+00
 1.0792366125e+00	 1.4221501137e+00	 1.4593726110e+00
 1.0653928498e+00	 1.4325504401e+00	 1.4753054439e+00
 1.2053455716e+00	 1.3289037716e+00	 1.6229204706e+00
 1.1923450022e+00	 1.3405806439e+00	 1.5460961748e+00
 1.1792350016e+00	 1.3521271287e+00	 1.4912281386e+00
 1.1660175436e+00	 1.3635416964e+00	 1.4533235707e+00
 1.1526946297e+00	 1.3748228572e+00	 1.4279840192e+00
 1.1392682885e+00	 1.3859691615e+00	 1.4114129323e+00
 1.1257405746e+00	 1.3969792004e+00	 1.4004213006e+00
 1.1121135673e+00	 1.4078516063e+00	 1.3924313762e+00
 1.0983893700e+00	 1.4185850537e+00	 1.3925868794e+00
 1.0845701087e+00	 1.4291782595e+00	 1.4096746838e+00
 1.0706579313e+00	 1.4396299835e+00	 1.4440244667e+00
 1.0180074738e+00	 1.3688350311e+00	 1.1616414970e+00
 1.0046954228e+00	 1.3786354671e+00	 1.0499645206e+00
 9.9129918793e-01	 1.3882991966e+00	 9.7350719793e-01
 9.7782085850e-01	 1.3978251711e+00	 9.2796166285e-01
 9.6426254050e-01	 1.4072123847e+00	 9.0943268765e-01
 9.5062635536e-01	 1.4164598738e+00	 9.1442975852e-01
 9.3691443887e-01	 1.4255667177e+00	 9.3985972306e-01
 9.2312894020e-01	 1.4345320388e+00	 9.8302003292e-01
 9.0927202075e-01	 1.4433550027e+00	 1.0415925980e+00
 8.9534585312e-01	 1.4520348186e+00	 1.1136382604e+00
 8.8135262000e-01	 1.4605707390e+00	 1.1975918906e+00
 1.0232725554e+00	 1.3759145745e+00	 1.2269198069e+00
 1.0098916552e+00	 1.3857656978e+00	 1.0814172071e+00
 9.9642613561e-01	 1.3954794076e+00	 9.6749188827e-01
 9.8287809696e-01	 1.4050546500e+00	 8.8380556537e-01
 9.6924965605e-01	 1.4144904137e+00	 8.2913209850e-01
 9.5554294527e-01	 1.4237857304e+00	 8.0234774407e-01
 9.4176011147e-01	 1.4329396744e+00	 8.0242245542e-01
 9.2790331492e-01	 1.4419513637e+00	 8.2841225467e-01
 9.1397472821e-01	 1.4508199595e+00	 8.7945268947e-01
 8.9997653516e-01	 1.4595446669e+00	 9.5475337988e-01
 8.8591092977e-01	 1.4681247347e+00	 1.0535936523e+00
 1.0285376131e+00	 1.3829940857e+00	 1.2890724414e+00
 1.0150878639e+00	 1.3928958962e+00	 1.1289598937e+00
 1.0015530601e+00	 1.4026595860e+00	 9.9472481675e-01
 9.8793531250e-01	 1.4122840961e+00	 8.8749617421e-01
 9.7423674900e-01	 1.4217684098e+00	 8.0826239818e-01
 9.6045951290e-01	 1.4311115537e+00	 7.5786009545e-01
 9.4660576211e-01	 1.4403125977e+00	 7.3696421248e-01
 9.3267766800e-01	 1.4493706549e+00	 7.4607968039e-01
 9.1867741434e-01	 1.4582848825e+00	 7.8553455142e-01
 9.0460719621e-01	 1.4670544812e+00	 8.5547462911e-01
 8.9046921888e-01	 1.4756786961e+00	 9.5585958488e-01
 1.0338026528e+00	 1.3900735730e+00	 1.3461405217e+00
 1.0202840550e+00	 1.4000260704e+00	 1.1873336216e+00
 1.0066799671e+00	 1.4098397401e+00	 1.0472930146e+00
 9.9299251085e-01	 1.4195135176e+00	 9.2911871473e-01
 9.7922382499e-01	 1.4290463811e+00	 8.3556483163e-01
 9.6537606381e-01	 1.4384373522e+00	 7.6902700816e-01
 9.5145139626e-01	 1.4476854959e+00	 7.3153165975e-01
 9.3745200484e-01	 1.4567899209e+00	 7.2472703575e-01
 9.2338008449e-01	 1.4657497800e+00	 7.4987611252e-01
 9.0923784152e-01	 1.4745642700e+00	 8.0785131764e-01
 8.9502749249e-01	 1.4832326318e+00	 8.9909153086e-01
 1.0390676807e+00	 1.3971530441e+00	 1.3961922891e+00
 1.0254802343e+00	 1.4071562284e+00	 1.2513735743e+00
 1.0118068625e+00	 1.4170198779e+00	 1.1174316336e+00
 9.9804969774e-01	 1.4267429227e+00	 9.9894734618e-01
 9.8421088968e-01	 1.4363243359e+00	 8.9999711368e-01
 9.7029260358e-01	 1.4457631341e+00	 8.2413930410e-01
 9.5629701944e-01	 1.4550583774e+00	 7.7440277391e-01
 9.4222633087e-01	 1.4642091701e+00	 7.5327748830e-01
 9.2808274398e-01	 1.4732146607e+00	 7.6270724745e-01
 9.1386847633e-01	 1.4820740417e+00	 8.0408003473e-01
 8.9958575577e-01	 1.4907865505e+00	 8.7709052132e-01
 1.0443327026e+00	 1.4042325073e+00	 1.4373215951e+00
 1.0306764078e+00	 1.4142863783e+00	 1.3160058802e+00
 1.0169337520e+00	 1.4242000076e+00	 1.1975193921e+00
 1.0031068789e+00	 1.4339723197e+00	 1.0874395841e+00
 9.8919794872e-01	 1.4436022825e+00	 9.9072716447e-01
 9.7520913778e-01	 1.4530889076e+00	 9.1171181891e-01
 9.6114263713e-01	 1.4624312505e+00	 8.5408022338e-01
 9.4700065148e-01	 1.4716284109e+00	 8.2086636460e-01
 9.3278539815e-01	 1.4806795329e+00	 8.1444417590e-01
 9.1849910590e-01	 1.4895838049e+00	 8.3564550028e-01
 9.0414401388e-01	 1.4983404605e+00	 8.8423121938e-01
 1.0495977244e+00	 1.4113119704e+00	 1.4676464204e+00
 1.0358725812e+00	 1.4214165282e+00	 1.3762444953e+00
 1.0220606416e+00	 1.4313801372e+00	 1.2800741423e+00
 1.0081640601e+00	 1.4412017166e+00	 1.1852308759e+00
 9.9418500776e-01	 1.4508802291e+00	 1.0971270187e+00
 9.8012567198e-01	 1.4604146812e+00	 1.0204769739e+00
 9.6598825482e-01	 1.4698041237e+00	 9.5928493382e-01
 9.5177497210e-01	 1.4790476517e+00	 9.1683504230e-01
 9.3748805231e-01	 1.4881444050e+00	 8.9509552839e-01
 9.2312973546e-01	 1.4970935682e+00	 8.9430951435e-01
 9.0870227200e-01	 1.5058943706e+00	 9.1540875678e-01
 1.0548627523e+00	 1.4183914416e+00	 1.4853074222e+00
 1.0410687605e+00	 1.4285466862e+00	 1.4271881651e+00
 1.0271875370e+00	 1.4385602750e+00	 1.3577485558e+00
 1.0132212469e+00	 1.4484311217e+00	 1.2831293236e+00
 9.9917207245e-01	 1.4581581839e+00	 1.2087669029e+00
 9.8504221176e-01	 1.4677404630e+00	 1.1393785259e+00
 9.7083387800e-01	 1.4771770052e+00	 1.0789498319e+00
 9.5654929812e-01	 1.4864669009e+00	 1.0304005885e+00
 9.4219071180e-01	 1.4956092857e+00	 9.9448575476e-01
 9.2776037028e-01	 1.5046033399e+00	 9.7258365308e-01
 9.1326053528e-01	 1.5134482892e+00	 9.6561246093e-01
 1.0601277921e+00	 1.4254709288e+00	 1.4884665095e+00
 1.0462649516e+00	 1.4356768604e+00	 1.4640174596e+00
 1.0323144440e+00	 1.4457404291e+00	 1.4233259221e+00
 1.0182784453e+00	 1.4556605433e+00	 1.3721105492e+00
 1.0041591484e+00	 1.4654361552e+00	 1.3154094739e+00
 9.8995876267e-01	 1.4750662615e+00	 1.2575654891e+00
 9.7567951216e-01	 1.4845499034e+00	 1.2020937401e+00
 9.6132363497e-01	 1.4938861669e+00	 1.1502163164e+00
 9.4689338195e-01	 1.5030741833e+00	 1.1034451930e+00
 9.3239101559e-01	 1.5121131287e+00	 1.0631209287e+00
 9.1781880889e-01	 1.5210022250e+00	 1.0299238280e+00
 1.0653928498e+00	 1.4325504401e+00	 1.4753054439e+00
 1.0514611604e+00	 1.4428070588e+00	 1.4819918828e+00
 1.0374413685e+00	 1.4529206076e+00	 1.4697160563e+00
 1.0233356608e+00	 1.4628899893e+00	 1.4433126974e+00
 1.0091462414e+00	 1.4727141512e+00	 1.4070042142e+00
 9.9487533030e-01	 1.4823920849e+00	 1.3643760499e+00
 9.8052516279e-01	 1.4919228267e+00	 1.3169954078e+00
 9.6609798805e-01	 1.5013054582e+00	 1.2660405917e+00
 9.5159606809e-01	 1.5105391062e+00	 1.2129867981e+00
 9.3702167664e-01	 1.5196229430e+00	 1.1587126300e+00
 9.2237709800e-01	 1.5285561864e+00	 1.1035145695e+00
 1.0706579313e+00	 1.4396299835e+00	 1.4440244667e+00
 1.0566573927e+00	 1.4499372895e+00	 1.4764470501e+00
 1.0425683162e+00	 1.4601008186e+00	 1.4899513131e+00
 1.0283928993e+00	 1.4701194682e+00	 1.4880315709e+00
 1.0141333570e+00	 1.4799921803e+00	 1.4736819780e+00
 9.9979192022e-01	 1.4897179414e+00	 1.4485278659e+00
 9.8537083540e-01	 1.4992957834e+00	 1.4128798608e+00
 9.7087236277e-01	 1.5087247831e+00	 1.3679012933e+00
 9.5629877555e-01	 1.5180040630e+00	 1.3142937813e+00
 9.4165235869e-01	 1.5271327913e+00	 1.2522852695e+00
 9.2693540778e-01	 1.5361101821e+00	 1.1816447300e+00
 8.8135262000e-01	 1.4605707390e+00	 1.1975918906e+00
 8.6729451342e-01	 1.4689620607e+00	 1.2698731601e+00
 8.5317373444e-01	 1.4772081256e+00	 1.3117368620e+00
 8.3899249124e-01	 1.4853083198e+00	 1.3286426754e+00
 8.2475299774e-01	 1.4932620732e+00	 1.3246209568e+00
 8.1045747260e-01	 1.5010688597e+00	 1.3043189822e+00
 7.9610813808e-01	 1.5087281967e+00	 1.2722394917e+00
 7.8170721905e-01	 1.5162396457e+00	 1.2325228552e+00
 7.6725694188e-01	 1.5236028115e+00	 1.1889524381e+00
 7.5275953348e-01	 1.5308173424e+00	 1.1449599798e+00
 7.3821722017e-01	 1.5378829301e+00	 1.1034994682e+00
 8.8591092977e-01	 1.4681247347e+00	 1.0535936523e+00
 8.7178011540e-01	 1.4765594558e+00	 1.1487563075e+00
 8.5758630449e-01	 1.4848481689e+00	 1.2160619601e+00
 8.4333171663e-01	 1.4929902569e+00	 1.2581556733e+00
 8.2901857722e-01	 1.5009851467e+00	 1.2784496196e+00
 8.1464911637e-01	 1.5088323095e+00	 1.2804655593e+00
 8.0022556784e-01	 1.5165312603e+00	 1.2675383131e+00
 7.8575016800e-01	 1.5240815581e+00	 1.2428207577e+00
 7.7122515476e-01	 1.5314828057e+00	 1.2092885775e+00
 7.5665276651e-01	 1.5387346498e+00	 1.1697447742e+00
 7.4203524112e-01	 1.5458367804e+00	 1.1268239405e+00
 8.9046921888e-01	 1.4756786961e+00	 9.5585958488e-01
 8.7626569704e-01	 1.4841568165e+00	 1.0586624355e+00
 8.6199885453e-01	 1.4924881777e+00	 1.1364369661e+00
 8.4767092236e-01	 1.5006721592e+00	 1.1912167985e+00
 8.3328413736e-01	 1.5087081853e+00	 1.2254129461e+00
 8.1884074113e-01	 1.5165957242e+00	 1.2413953212e+00
 8.0434297893e-01	 1.5243342884e+00	 1.2414979439e+00
 7.8979309863e-01	 1.5319234349e+00	 1.2280236824e+00
 7.7519334965e-01	 1.5393627643e+00	 1.2032485290e+00
 7.6054598190e-01	 1.5466519214e+00	 1.1694254175e+00
 7.4585324477e-01	 1.5537905946e+00	 1.1287875934e+00
 8.9502749249e-01	 1.4832326318e+00	 8.9909153086e-01
 8.8075126344e-01	 1.4917541514e+00	 9.9603999603e-01
 8.6641138957e-01	 1.5001281604e+00	 1.0724848829e+00
 8.5201011333e-01	 1.5083540355e+00	 1.1296841389e+00
 8.3754968300e-01	 1.5164311976e+00	 1.1689703136e+00
 8.2303235165e-01	 1.5243591124e+00	 1.1917564533e+00
 8.0846037603e-01	 1.5321372901e+00	 1.1995413383e+00
 7.9383601552e-01	 1.5397652850e+00	 1.1939140663e+00
 7.7916153105e-01	 1.5472426960e+00	 1.1765579896e+00
 7.6443918406e-01	 1.5545691660e+00	 1.1492540151e+00
 7.4967123543e-01	 1.5617443818e+00	 1.1138832823e+00
 8.9958575577e-01	 1.4907865505e+00	 8.7709052132e-01
 8.8523681966e-01	 1.4993514691e+00	 9.5805652905e-01
 8.7082391461e-01	 1.5077681259e+00	 1.0240462604e+00
 8.5634929447e-01	 1.5160358943e+00	 1.0753693299e+00
 8.4181521898e-01	 1.5241541924e+00	 1.1125021448e+00
 8.2722395267e-01	 1.5321224831e+00	 1.1360940347e+00
 8.1257776380e-01	 1.5399402740e+00	 1.1469725751e+00
 7.9787892324e-01	 1.5476071174e+00	 1.1461481116e+00
 7.8312970346e-01	 1.5551226099e+00	 1.1348174921e+00
 7.6833237739e-01	 1.5624863927e+00	 1.1143670227e+00
 7.5348921745e-01	 1.5696981510e+00	 1.0863746619e+00
 9.0414401388e-01	 1.4983404605e+00	 8.8423121938e-01
 8.8972237081e-01	 1.5069487781e+00	 9.4222395599e-01
 8.7523643465e-01	 1.5154080827e+00	 9.9095640817e-01
 8.6068847069e-01	 1.5237177443e+00	 1.0300389698e+00
 8.4608075012e-01	 1.5318771784e+00	 1.0593121301e+00
 8.3141554894e-01	 1.5398858449e+00	 1.0788528561e+00
 8.1669514690e-01	 1.5477432491e+00	 1.0889800605e+00
 8.0192182639e-01	 1.5554489409e+00	 1.0902591601e+00
 7.8709787137e-01	 1.5630025149e+00	 1.0835057376e+00
 7.7222556631e-01	 1.5704036104e+00	 1.0697883232e+00
 7.5730719513e-01	 1.5776519112e+00	 1.0504303127e+00
 9.0870227200e-01	 1.5058943706e+00	 9.1540875678e-01
 8.9420792196e-01	 1.5145460872e+00	 9.4609602286e-01
 8.7964895470e-01	 1.5230480395e+00	 9.7304579418e-01
 8.6502764692e-01	 1.5313995944e+00	 9.9541600437e-01
 8.5034628126e-01	 1.5396001644e+00	 1.0126293943e+00
 8.3560714521e-01	 1.5476492068e+00	 1.0243801653e+00
 8.2081253000e-01	 1.5555462242e+00	 1.0306396450e+00
 8.0596472953e-01	 1.5632907644e+00	 1.0316609758e+00
 7.9106603928e-01	 1.5708824199e+00	 1.0279828374e+00
 7.7611875523e-01	 1.5783208281e+00	 1.0204322218e+00
 7.6112517282e-01	 1.5856056713e+00	 1.0101262809e+00
 9.1326053528e-01	 1.5134482892e+00	 9.6561246093e-01
 8.9869347818e-01	 1.5221434049e+00	 9.6726754580e-01
 8.8406147974e-01	 1.5306880049e+00	 9.7014044300e-01
 8.6936682806e-01	 1.5390814532e+00	 9.7318108171e-01
 8.5461181723e-01	 1.5473231592e+00	 9.7561061129e-01
 8.3979874622e-01	 1.5554125775e+00	 9.7692834059e-01
 8.2492991776e-01	 1.5633492082e+00	 9.7691765793e-01
 8.1000763725e-01	 1.5711325967e+00	 9.7565094079e-01
 7.9503421169e-01	 1.5787623338e+00	 9.7349346932e-01
 7.8001194856e-01	 1.5862380548e+00	 9.7110636157e-01
 7.6494315484e-01	 1.5935594405e+00	 9.6944855279e-01
 9.1781880889e-01	 1.5210022250e+00	 1.0299238280e+00
 9.0317904458e-01	 1.5297407397e+00	 1.0033736921e+00
 8.8847401478e-01	 1.5383279877e+00	 9.8206233534e-01
 8.7370601903e-01	 1.5467633295e+00	 9.6497387942e-01
 8.5887736287e-01	 1.5550461715e+00	 9.5134206580e-01
 8.4399035674e-01	 1.5631759657e+00	 9.4065749690e-01
 8.2904731486e-01	 1.5711522098e+00	 9.3267386325e-01
 8.1405055414e-01	 1.5789744469e+00	 9.2741316610e-01
 7.9900239309e-01	 1.5866422655e+00	 9.2516994972e-01
 7.8390515072e-01	 1.5941552995e+00	 9.2651456181e-01
 7.6876114550e-01	 1.6015132277e+00	 9.3229546461e-01
 9.2237709800e-01	 1.5285561864e+00	 1.1035145695e+00
 9.0766462623e-01	 1.5373381004e+00	 1.0520892955e+00
 8.9288656483e-01	 1.5459679964e+00	 1.0086298080e+00
 8.7804522476e-01	 1.5544452318e+00	 9.7239440399e-01
 8.6314292302e-01	 1.5627692100e+00	 9.4284166701e-01
 8.4818198151e-01	 1.5709393804e+00	 9.1963802512e-01
 8.3316472596e-01	 1.5789552380e+00	 9.0266433768e-01
 8.1809348477e-01	 1.5868163237e+00	 8.9202152075e-01
 8.0297058798e-01	 1.5945222240e+00	 8.8803522478e-01
 7.8779836611e-01	 1.6020725710e+00	 8.9125958285e-01
 7.7257914915e-01	 1.6094670419e+00	 9.0248005178e-01
 9.2693540778e-01	 1.5361101821e+00	 1.1816447300e+00
 9.1215022821e-01	 1.5449354956e+00	 1.1111282045e+00
 8.9729913487e-01	 1.5536080398e+00	 1.0496579546e+00
 8.8238445016e-01	 1.5621271689e+00	 9.9700426415e-01
 8.6740850250e-01	 1.5704922835e+00	 9.5306091364e-01
 8.5237362528e-01	 1.5787028302e+00	 9.1785306811e-01
 8.3728215572e-01	 1.5867583015e+00	 8.9154427533e-01
 8.2213643373e-01	 1.5946582360e+00	 8.7444258245e-01
 8.0693880086e-01	 1.6024022183e+00	 8.6700578405e-01
 7.9169159915e-01	 1.6099898785e+00	 8.6984581909e-01
 7.7639717010e-01	 1.6174208922e+00	 8.8373233795e-01
 7.3821722017e-01	 1.5378829301e+00	 1.1034994682e+00
 7.2362974352e-01	 1.5448004724e+00	 1.0741229849e+00
 7.0900179485e-01	 1.5515685321e+00	 1.0649673256e+00
 6.9433559319e-01	 1.5581869283e+00	 1.0727960038e+00
 6.7963335308e-01	 1.5646555226e+00	 1.0945086808e+00
 6.6489728352e-01	 1.5709742187e+00	 1.1271395827e+00
 6.5012958706e-01	 1.5771429619e+00	 1.1678558836e+00
 6.3533245882e-01	 1.5831617391e+00	 1.2139560550e+00
 6.2050808558e-01	 1.5890305782e+00	 1.2628681832e+00
 6.0565864489e-01	 1.5947495478e+00	 1.3121482565e+00
 5.9078630409e-01	 1.6003187566e+00	 1.3594784218e+00
 7.4203524112e-01	 1.5458367804e+00	 1.1268239405e+00
 7.2737231881e-01	 1.5527900999e+00	 1.0939322312e+00
 7.1266871514e-01	 1.5595931636e+00	 1.0795198675e+00
 6.9792666066e-01	 1.5662457898e+00	 1.0809167890e+00
 6.8314838133e-01	 1.5727478394e+00	 1.0955692896e+00
 6.6833609758e-01	 1.5790992154e+00	 1.1210019856e+00
 6.5349202336e-01	 1.5852998630e+00	 1.1548163415e+00
 6.3861836515e-01	 1.5913497690e+00	 1.1946892407e+00
 6.2371732103e-01	 1.5972489615e+00	 1.2383716010e+00
 6.0879107980e-01	 1.6029975093e+00	 1.2836870328e+00
 5.9384182003e-01	 1.6085955217e+00	 1.3285305404e+00
 7.4585324477e-01	 1.5537905946e+00	 1.1287875934e+00
 7.3111487713e-01	 1.5607796911e+00	 1.0968335296e+00
 7.1633561882e-01	 1.5676177588e+00	 1.0816663801e+00
 7.0151771185e-01	 1.5743046148e+00	 1.0806483497e+00
 6.8666339364e-01	 1.5808401194e+00	 1.0917093521e+00
 6.7177489606e-01	 1.5872241753e+00	 1.1128108642e+00
 6.5685444443e-01	 1.5934567272e+00	 1.1419445289e+00
 6.4190425659e-01	 1.5995377618e+00	 1.1771308697e+00
 6.2692654193e-01	 1.6054673075e+00	 1.2164181146e+00
 6.1192350052e-01	 1.6112454334e+00	 1.2578811265e+00
 5.9689732213e-01	 1.6168722493e+00	 1.2996204382e+00
 7.4967123543e-01	 1.5617443818e+00	 1.1138832823e+00
 7.3485742272e-01	 1.5687692552e+00	 1.0861960463e+00
 7.2000251003e-01	 1.5756423266e+00	 1.0738700694e+00
 7.0510875083e-01	 1.5823634124e+00	 1.0736813602e+00
 6.9017839401e-01	 1.5889323720e+00	 1.0839808834e+00
 6.7521368285e-01	 1.5953491075e+00	 1.1031137916e+00
 6.6021685407e-01	 1.6016135636e+00	 1.1294180413e+00
 6.4519013686e-01	 1.6077257268e+00	 1.1612231732e+00
 6.3013575192e-01	 1.6136856256e+00	 1.1968492576e+00
 6.1505591059e-01	 1.6194933294e+00	 1.2346059981e+00
 5.9995281383e-01	 1.6251489488e+00	 1.2727919904e+00
 7.5348921745e-01	 1.5696981510e+00	 1.0863746619e+00
 7.3859995984e-01	 1.5767588012e+00	 1.0653153334e+00
 7.2366939293e-01	 1.5836668763e+00	 1.0585390606e+00
 7.0869978167e-01	 1.5904221917e+00	 1.0616672505e+00
 6.9369338641e-01	 1.5970246062e+00	 1.0734097839e+00
 6.7865246184e-01	 1.6034740214e+00	 1.0924426431e+00
 6.6357925609e-01	 1.6097703815e+00	 1.1174064736e+00
 6.4847600968e-01	 1.6159136732e+00	 1.1469053570e+00
 6.3334495464e-01	 1.6219039250e+00	 1.1795057895e+00
 6.1818831355e-01	 1.6277412067e+00	 1.2137358612e+00
 6.0300829862e-01	 1.6334256295e+00	 1.2480846311e+00
 7.5730719513e-01	 1.5776519112e+00	 1.0504303127e+00
 7.4234249271e-01	 1.5847483381e+00	 1.0374643995e+00
 7.2733627167e-01	 1.5916914169e+00	 1.0380275969e+00
 7.1229080845e-01	 1.5984809619e+00	 1.0462190099e+00
 6.9720837482e-01	 1.6051168312e+00	 1.0609963178e+00
 6.8209123694e-01	 1.6115989260e+00	 1.0813138158e+00
 6.6694165429e-01	 1.6179271902e+00	 1.1060714512e+00
 6.5176187878e-01	 1.6241016104e+00	 1.1341135124e+00
 6.3655415373e-01	 1.6301222151e+00	 1.1642275548e+00
 6.2132071297e-01	 1.6359890748e+00	 1.1951435592e+00
 6.0606377994e-01	 1.6417023008e+00	 1.2255333163e+00
 7.6112517282e-01	 1.5856056713e+00	 1.0101262809e+00
 7.4608502559e-01	 1.5927378750e+00	 1.0061652700e+00
 7.3100315041e-01	 1.5997159574e+00	 1.0146372000e+00
 7.1588183522e-01	 1.6065397321e+00	 1.0289119655e+00
 7.0072336324e-01	 1.6132090563e+00	 1.0477155738e+00
 6.8553001204e-01	 1.6197238306e+00	 1.0702284406e+00
 6.7030405250e-01	 1.6260839989e+00	 1.0955666586e+00
 6.5504774788e-01	 1.6322895475e+00	 1.1227805279e+00
 6.3976335281e-01	 1.6383405052e+00	 1.1508533450e+00
 6.2445311239e-01	 1.6442369428e+00	 1.1787004445e+00
 6.0911926126e-01	 1.6499789722e+00	 1.2051684864e+00
 7.6494315484e-01	 1.5935594405e+00	 9.6944855279e-01
 7.4982756270e-01	 1.6007274210e+00	 9.7453555006e-01
 7.3467003331e-01	 1.6077405071e+00	 9.9061779326e-01
 7.1947286606e-01	 1.6145985114e+00	 1.0112845340e+00
 7.0423835564e-01	 1.6213012905e+00	 1.0345179112e+00
 6.8896879103e-01	 1.6278487445e+00	 1.0596725857e+00
 6.7366645452e-01	 1.6342408168e+00	 1.0860378648e+00
 6.5833362070e-01	 1.6404774939e+00	 1.1128360018e+00
 6.4297255553e-01	 1.6465588047e+00	 1.1392207633e+00
 6.2758551536e-01	 1.6524848201e+00	 1.1642762591e+00
 6.1217474604e-01	 1.6582556529e+00	 1.1870160279e+00
 7.6876114550e-01	 1.6015132277e+00	 9.3229546461e-01
 7.5357010830e-01	 1.6087169851e+00	 9.4553927028e-01
 7.3833692452e-01	 1.6157650750e+00	 9.6816879037e-01
 7.2306390505e-01	 1.6226573090e+00	 9.9483895040e-01
 7.0775335601e-01	 1.6293935430e+00	 1.0223293906e+00
 6.9240757782e-01	 1.6359736767e+00	 1.0501174518e+00
 6.7702886416e-01	 1.6423976532e+00	 1.0776229470e+00
 6.6161950097e-01	 1.6486654589e+00	 1.1042061567e+00
 6.4618176552e-01	 1.6547771228e+00	 1.1291660917e+00
 6.3071792543e-01	 1.6607327161e+00	 1.1517390179e+00
 6.1523023775e-01	 1.6665323523e+00	 1.1710972359e+00
 7.7257914915e-01	 1.6094670419e+00	 9.0248005178e-01
 7.5731266662e-01	 1.6167065763e+00	 9.2207346200e-01
 7.4200382820e-01	 1.6237896701e+00	 9.4946679168e-01
 7.2665495624e-01	 1.6307161340e+00	 9.8104197211e-01
 7.1126836832e-01	 1.6374858231e+00	 1.0120521897e+00
 6.9584637630e-01	 1.6440986366e+00	 1.0420195608e+00
 6.8039128522e-01	 1.6505545174e+00	 1.0704519115e+00
 6.6490539241e-01	 1.6568534517e+00	 1.0968137537e+00
 6.4939098642e-01	 1.6629954688e+00	 1.1205241606e+00
 6.3385034615e-01	 1.6689806402e+00	 1.1409548940e+00
 6.1828573985e-01	 1.6748090800e+00	 1.1574287751e+00
 7.7639717010e-01	 1.6174208922e+00	 8.8373233795e-01
 7.6105524190e-01	 1.6246962038e+00	 9.0696998002e-01
 7.4567074850e-01	 1.6318143016e+00	 9.3690773901e-01
 7.3024602370e-01	 1.6387749955e+00	 9.7132556095e-01
 7.1478339657e-01	 1.6455781398e+00	 1.0045650049e+00
 6.9928519036e-01	 1.6522236333e+00	 1.0358209361e+00
 6.8375372154e-01	 1.6587114185e+00	 1.0646469125e+00
 6.6819129874e-01	 1.6650414817e+00	 1.0905780082e+00
 6.5260022188e-01	 1.6712138520e+00	 1.1131282202e+00
 6.3698278107e-01	 1.6772286017e+00	 1.1317881053e+00
 6.2134125579e-01	 1.6830858451e+00	 1.1460226409e+00
 5.9078630409e-01	 1.6003187566e+00	 1.3594784218e+00
 5.7589575259e-01	 1.6057374444e+00	 1.3975073879e+00
 5.6098660704e-01	 1.6110067574e+00	 1.4212404636e+00
 5.4606099739e-01	 1.6161269212e+00	 1.4319387766e+00
 5.3112104005e-01	 1.6210981995e+00	 1.4308255927e+00
 5.1616883713e-01	 1.6259208937e+00	 1.4190828579e+00
 5.0120647558e-01	 1.6305953427e+00	 1.3978479472e+00
 4.8623602649e-01	 1.6351219218e+00	 1.3682106178e+00
 4.7125954432e-01	 1.6395010426e+00	 1.3312101630e+00
 4.5627906618e-01	 1.6437331520e+00	 1.2878327626e+00
 4.4129661111e-01	 1.6478187318e+00	 1.2390090248e+00
 5.9384182003e-01	 1.6085955217e+00	 1.3285305404e+00
 5.7887425538e-01	 1.6140422347e+00	 1.3649853591e+00
 5.6388800051e-01	 1.6193388003e+00	 1.3872409057e+00
 5.4888519638e-01	 1.6244854453e+00	 1.3963755946e+00
 5.3386797037e-01	 1.6294824348e+00	 1.3934564359e+00
 5.1883843543e-01	 1.6343300717e+00	 1.3795353452e+00
 5.0379868933e-01	 1.6390286967e+00	 1.3556456320e+00
 4.8875081386e-01	 1.6435786871e+00	 1.3227986641e+00
 4.7369687410e-01	 1.6479804565e+00	 1.2819807055e+00
 4.5863891770e-01	 1.6522344541e+00	 1.2341499233e+00
 4.4357897416e-01	 1.6563411643e+00	 1.1802335614e+00
 5.9689732213e-01	 1.6168722493e+00	 1.2996204382e+00
 5.8185274467e-01	 1.6223469873e+00	 1.3336875954e+00
 5.6678938082e-01	 1.6276708055e+00	 1.3539875963e+00
 5.5170938257e-01	 1.6328439316e+00	 1.3614103750e+00
 5.3661488823e-01	 1.6378666321e+00	 1.3568580535e+00
 5.2150802163e-01	 1.6427392117e+00	 1.3412410810e+00
 5.0639089132e-01	 1.6474620126e+00	 1.3154745253e+00
 4.9126558982e-01	 1.6520354140e+00	 1.2804745148e+00
 4.7613419283e-01	 1.6564598319e+00	 1.2371548282e+00
 4.6099875853e-01	 1.6607357177e+00	 1.1864236294e+00
 4.4586132687e-01	 1.6648635582e+00	 1.1291803450e+00
 5.9995281383e-01	 1.6251489488e+00	 1.2727919904e+00
 5.8483122383e-01	 1.6306517117e+00	 1.3038708884e+00
 5.6969075127e-01	 1.6360027823e+00	 1.3219051067e+00
 5.5453355916e-01	 1.6412023894e+00	 1.3275905474e+00
 5.3936179675e-01	 1.6462508009e+00	 1.3216560574e+00
 5.2417759875e-01	 1.6511483230e+00	 1.3048594573e+00
 5.0898308450e-01	 1.6558952997e+00	 1.2779836995e+00
 4.9378035724e-01	 1.6604921122e+00	 1.2418331528e+00
 4.7857150328e-01	 1.6649391785e+00	 1.1972300119e+00
 4.6335859134e-01	 1.6692369523e+00	 1.1450108307e+00
 4.4814367181e-01	 1.6733859231e+00	 1.0860231751e+00
 6.0300829862e-01	 1.6334256295e+00	 1.2480846311e+00
 5.8780969624e-01	 1.6389564173e+00	 1.2757834965e+00
 5.7259211515e-01	 1.6443347402e+00	 1.2914063004e+00
 5.5735772935e-01	 1.6495608283e+00	 1.2954495719e+00
 5.4210869904e-01	 1.6546349507e+00	 1.2884607356e+00
 5.2684716982e-01	 1.6595574153e+00	 1.2710340894e+00
 5.1157527181e-01	 1.6643285677e+00	 1.2438068919e+00
 4.9629511895e-01	 1.6689487913e+00	 1.2074555545e+00
 4.8100880820e-01	 1.6734185059e+00	 1.1626919390e+00
 4.6571841880e-01	 1.6777381677e+00	 1.1102597577e+00
 4.5042601159e-01	 1.6819082687e+00	 1.0509310737e+00
 6.0606377994e-01	 1.6417023008e+00	 1.2255333163e+00
 5.9078816528e-01	 1.6472611135e+00	 1.2496652163e+00
 5.7549347574e-01	 1.6526666887e+00	 1.2628924899e+00
 5.6018189633e-01	 1.6579192577e+00	 1.2655071590e+00
 5.4485559823e-01	 1.6630190910e+00	 1.2578673122e+00
 5.2951673787e-01	 1.6679664980e+00	 1.2403930926e+00
 5.1416745618e-01	 1.6727618262e+00	 1.2135627755e+00
 4.9880987782e-01	 1.6774054607e+00	 1.1779089331e+00
 4.8344611036e-01	 1.6818978236e+00	 1.1340146869e+00
 4.6807824359e-01	 1.6862393735e+00	 1.0825100433e+00
 4.5270834877e-01	 1.6904306047e+00	 1.0240683129e+00
 6.0911926126e-01	 1.6499789722e+00	 1.2051684864e+00
 5.9376663432e-01	 1.6555658097e+00	 1.2257474506e+00
 5.7839483632e-01	 1.6609986372e+00	 1.2367535887e+00
 5.6300606332e-01	 1.6662776871e+00	 1.2382694818e+00
 5.4760249741e-01	 1.6714032313e+00	 1.2304561983e+00
 5.3218630591e-01	 1.6763755808e+00	 1.2135493499e+00
 5.1675964055e-01	 1.6811950847e+00	 1.1878552218e+00
 5.0132463668e-01	 1.6858621302e+00	 1.1537469742e+00
 4.8588341251e-01	 1.6903771414e+00	 1.1116609149e+00
 4.7043806837e-01	 1.6947405793e+00	 1.0620928398e+00
 4.5499068596e-01	 1.6989529406e+00	 1.0055944412e+00
 6.1217474604e-01	 1.6582556529e+00	 1.1870160279e+00
 5.9674510673e-01	 1.6638705153e+00	 1.2042532729e+00
 5.8129620020e-01	 1.6693305951e+00	 1.2133682558e+00
 5.6583023351e-01	 1.6746361260e+00	 1.2142293803e+00
 5.5034939971e-01	 1.6797873811e+00	 1.2067932336e+00
 5.3485587698e-01	 1.6847846730e+00	 1.1911007699e+00
 5.1935182786e-01	 1.6896283527e+00	 1.1672735538e+00
 5.0383939840e-01	 1.6943188092e+00	 1.1355100626e+00
 4.8832071743e-01	 1.6988564688e+00	 1.0960820441e+00
 4.7279789583e-01	 1.7032417947e+00	 1.0493309312e+00
 4.5727302573e-01	 1.7074752862e+00	 9.9566430730e-01
 6.1523023775e-01	 1.6665323523e+00	 1.1710972359e+00
 5.9972358590e-01	 1.6721752397e+00	 1.1853974889e+00
 5.8419757065e-01	 1.6776625720e+00	 1.1931040358e+00
 5.6865441010e-01	 1.6829945838e+00	 1.1938665582e+00
 5.5309630823e-01	 1.6881715499e+00	 1.1874299199e+00
 5.3752545410e-01	 1.6931937844e+00	 1.1736305360e+00
 5.2194402104e-01	 1.6980616399e+00	 1.1523927905e+00
 5.0635416581e-01	 1.7027755074e+00	 1.1237255015e+00
 4.9075802788e-01	 1.7073358154e+00	 1.0877184316e+00
 4.7515772864e-01	 1.7117430294e+00	 1.0445388413e+00
 4.5955537068e-01	 1.7159976511e+00	 9.9442808335e-01
 6.1828573985e-01	 1.6748090800e+00	 1.1574287751e+00
 6.0270207519e-01	 1.6804799924e+00	 1.1693866941e+00
 5.8709895097e-01	 1.6859945771e+00	 1.1763174928e+00
 5.7147859629e-01	 1.6913530700e+00	 1.1776477731e+00
 5.5584322609e-01	 1.6965557473e+00	 1.1729036468e+00
 5.4019504030e-01	 1.7016029243e+00	 1.1617073475e+00
 5.2453622303e-01	 1.7064949557e+00	 1.1437738825e+00
 5.0886894177e-01	 1.7112322343e+00	 1.1189077244e+00
 4.9319534661e-01	 1.7158151908e+00	 1.0869995375e+00
 4.7751756946e-01	 1.7202442929e+00	 1.0480229381e+00
 4.6183772338e-01	 1.7245200450e+00	 1.0020312857e+00
 6.2134125579e-01	 1.6830858451e+00	 1.1460226409e+00
 6.0568057798e-01	 1.6887847827e+00	 1.1564193293e+00
 5.9000034444e-01	 1.6943266200e+00	 1.1633543391e+00
 5.7430279528e-01	 1.6997115942e+00	 1.1660270188e+00
 5.5859015640e-01	 1.7049399826e+00	 1.1637379085e+00
 5.4286463860e-01	 1.7100121024e+00	 1.1558856512e+00
 5.2712843678e-01	 1.7149283098e+00	 1.1419639406e+00
 5.1138372914e-01	 1.7196889996e+00	 1.1215584991e+00
 4.9563267639e-01	 1.7242946047e+00	 1.0943440866e+00
 4.7987742099e-01	 1.7287455951e+00	 1.0600815331e+00
 4.6412008643e-01	 1.7330424775e+00	 1.0186147947e+00
 4.4129661111e-01	 1.6478187318e+00	 1.2390090248e+00
 4.2631417965e-01	 1.6517582986e+00	 1.1919940525e+00
 4.1133375375e-01	 1.6555524039e+00	 1.1528682996e+00
 3.9635729548e-01	 1.6592016323e+00	 1.1208518879e+00
 3.8138674621e-01	 1.6627066012e+00	 1.0952885468e+00
 3.6642402607e-01	 1.6660679591e+00	 1.0755634610e+00
 3.5147103331e-01	 1.6692863858e+00	 1.0598631991e+00
 3.3652964380e-01	 1.6723625910e+00	 1.0478072950e+00
 3.2160171051e-01	 1.6752973142e+00	 1.0397436789e+00
 3.0668906299e-01	 1.6780913235e+00	 1.0360902294e+00
 2.9179350692e-01	 1.6807454153e+00	 1.0373348920e+00
 4.4357897416e-01	 1.6563411643e+00	 1.1802335614e+00
 4.2851905435e-01	 1.6603011064e+00	 1.1286861758e+00
 4.1346115047e-01	 1.6641148345e+00	 1.0868518878e+00
 3.9840723473e-01	 1.6677829366e+00	 1.0540392496e+00
 3.8335925857e-01	 1.6713060330e+00	 1.0296504428e+00
 3.6831915202e-01	 1.6746847757e+00	 1.0131573585e+00
 3.5328882316e-01	 1.6779198479e+00	 1.0028904447e+00
 3.3827015757e-01	 1.6810119631e+00	 9.9818824376e-01
 3.2326501778e-01	 1.6839618645e+00	 9.9933102135e-01
 3.0827524282e-01	 1.6867703243e+00	 1.0066405546e+00
 2.9330264772e-01	 1.6894381429e+00	 1.0204810295e+00
 4.4586132687e-01	 1.6648635582e+00	 1.1291803450e+00
 4.3072391905e-01	 1.6688438754e+00	 1.0746624614e+00
 4.1558853754e-01	 1.6726772264e+00	 1.0310974663e+00
 4.0045716469e-01	 1.6763642020e+00	 9.9791199948e-01
 3.8533176199e-01	 1.6799054258e+00	 9.7459839830e-01
 3.7021426938e-01	 1.6833015532e+00	 9.6071237324e-01
 3.5510660477e-01	 1.6865532709e+00	 9.5483915334e-01
 3.4001066344e-01	 1.6896612960e+00	 9.5604368605e-01
 3.2492831751e-01	 1.6926263755e+00	 9.6457696293e-01
 3.0986141547e-01	 1.6954492858e+00	 9.8070469805e-01
 2.9481178167e-01	 1.6981308311e+00	 1.0047089267e+00
 4.4814367181e-01	 1.6733859231e+00	 1.0860231751e+00
 4.3292877626e-01	 1.6773866154e+00	 1.0299120195e+00
 4.1771591738e-01	 1.6812395891e+00	 9.8544833079e-01
 4.0250708769e-01	 1.6849454382e+00	 9.5220590893e-01
 3.8730425869e-01	 1.6885047894e+00	 9.2979834586e-01
 3.7210938029e-01	 1.6919183014e+00	 9.1787723154e-01
 3.5692438020e-01	 1.6951866645e+00	 9.1534505040e-01
 3.4175116339e-01	 1.6983105994e+00	 9.2104583235e-01
 3.2659161159e-01	 1.7012908571e+00	 9.3522519467e-01
 3.1144758272e-01	 1.7041282177e+00	 9.5813211158e-01
 2.9632091050e-01	 1.7068234898e+00	 9.9000734687e-01
 4.5042601159e-01	 1.6819082687e+00	 1.0509310737e+00
 4.3513362847e-01	 1.6859293360e+00	 9.9442315334e-01
 4.1984329240e-01	 1.6898019324e+00	 9.4975015006e-01
 4.0455700604e-01	 1.6935266550e+00	 9.1666152282e-01
 3.8927675093e-01	 1.6971041335e+00	 8.9492262340e-01
 3.7400448691e-01	 1.7005350301e+00	 8.8431318787e-01
 3.5874215151e-01	 1.7038200385e+00	 8.8405198303e-01
 3.4349165940e-01	 1.7069598833e+00	 8.9287453929e-01
 3.2825490189e-01	 1.7099553191e+00	 9.1102584802e-01
 3.1303374638e-01	 1.7128071300e+00	 9.3877676432e-01
 2.9783003590e-01	 1.7155161287e+00	 9.7636694372e-01
 4.5270834877e-01	 1.6904306047e+00	 1.0240683129e+00
 4.3733847818e-01	 1.6944720469e+00	 9.6818329259e-01
 4.2197066501e-01	 1.6983642661e+00	 9.2385082467e-01
 4.0660692206e-01	 1.7021078620e+00	 8.9102396285e-01
 3.9124924093e-01	 1.7057034678e+00	 8.6964974174e-01
 3.7589959138e-01	 1.7091517490e+00	 8.5966787778e-01
 3.6055992076e-01	 1.7124534028e+00	 8.6061161379e-01
 3.4523215344e-01	 1.7156091573e+00	 8.7121702813e-01
 3.2991819031e-01	 1.7186197712e+00	 8.9173525598e-01
 3.1461990824e-01	 1.7214860324e+00	 9.2249696404e-01
 2.9933915960e-01	 1.7242087578e+00	 9.6378015964e-01
 4.5499068596e-01	 1.6989529406e+00	 1.0055944412e+00
 4.3954332789e-01	 1.7030147579e+00	 9.5117892760e-01
 4.2409803761e-01	 1.7069265997e+00	 9.0760034872e-01
 4.0865683809e-01	 1.7106890691e+00	 8.7504273597e-01
 3.9322173094e-01	 1.7143028022e+00	 8.5366415844e-01
 3.7779469586e-01	 1.7177684679e+00	 8.4359555762e-01
 3.6237769001e-01	 1.7210867670e+00	 8.4468312121e-01
 3.4697264748e-01	 1.7242584314e+00	 8.5576760957e-01
 3.3158147874e-01	 1.7272842233e+00	 8.7711571948e-01
 3.1620607010e-01	 1.7301649348e+00	 9.0915518201e-01
 3.0084828329e-01	 1.7329013869e+00	 9.5224112563e-01
 4.5727302573e-01	 1.7074752862e+00	 9.9566430730e-01
 4.4174818010e-01	 1.7115574785e+00	 9.4339554484e-01
 4.2622541263e-01	 1.7154889430e+00	 9.0085067516e-01
 4.1070675643e-01	 1.7192702858e+00	 8.6847154801e-01
 3.9519422317e-01	 1.7229021463e+00	 8.4665605773e-01
 3.7968980247e-01	 1.7263851966e+00	 8.3575703702e-01
 3.6419546132e-01	 1.7297201411e+00	 8.3593290700e-01
 3.4871314349e-01	 1.7329077153e+00	 8.4622741472e-01
 3.3324476904e-01	 1.7359486853e+00	 8.6693527885e-01
 3.1779223376e-01	 1.7388438471e+00	 8.9861788136e-01
 3.0235740870e-01	 1.7415940259e+00	 9.4174556259e-01
 4.5955537068e-01	 1.7159976511e+00	 9.9442808335e-01
 4.4395303731e-01	 1.7201002185e+00	 9.4481756343e-01
 4.2835279247e-01	 1.7240513058e+00	 9.0345558430e-01
 4.1275667943e-01	 1.7278515220e+00	 8.7106812206e-01
 3.9716671988e-01	 1.7315015099e+00	 8.4832113644e-01
 3.8158491339e-01	 1.7350019448e+00	 8.3581944964e-01
 3.6601323675e-01	 1.7383535347e+00	 8.3403430965e-01
 3.5045364345e-01	 1.7415570187e+00	 8.4230413203e-01
 3.3490806312e-01	 1.7446131668e+00	 8.6096749016e-01
 3.1937840101e-01	 1.7475227790e+00	 8.9075534879e-01
 3.0386653752e-01	 1.7502866845e+00	 9.3229068401e-01
 4.6183772338e-01	 1.7245200450e+00	 1.0020312857e+00
 4.4615790201e-01	 1.7286429875e+00	 9.5542827273e-01
 4.3048017954e-01	 1.7326136976e+00	 9.1527055551e-01
 4.1480660939e-01	 1.7364327874e+00	 8.8259402158e-01
 3.9913922329e-01	 1.7401009027e+00	 8.5836039562e-01
 3.8348003074e-01	 1.7436187224e+00	 8.4345603005e-01
 3.6783101836e-01	 1.7469869577e+00	 8.3866732438e-01
 3.5219414932e-01	 1.7502063516e+00	 8.4371174990e-01
 3.3657136285e-01	 1.7532776779e+00	 8.5899120637e-01
 3.2096457366e-01	 1.7562017405e+00	 8.8544152956e-01
 3.0537567148e-01	 1.7589793727e+00	 9.2387509989e-01
 4.6412008643e-01	 1.7330424775e+00	 1.0186147947e+00
 4.4836277670e-01	 1.7371857953e+00	 9.7520977099e-01
 4.3260757626e-01	 1.7411761283e+00	 9.3615264192e-01
 4.1685654864e-01	 1.7450140917e+00	 9.0281447803e-01
 4.0111173565e-01	 1.7487003345e+00	 8.7647993765e-01
 3.8537515669e-01	 1.7522355389e+00	 8.5834589668e-01
 3.6964880820e-01	 1.7556204198e+00	 8.4951832898e-01
 3.5393466308e-01	 1.7588557237e+00	 8.5017030481e-01
 3.3823467012e-01	 1.7619422282e+00	 8.6079036292e-01
 3.2255075349e-01	 1.7648807413e+00	 8.8255386565e-01
 3.0688481227e-01	 1.7676721003e+00	 9.1649872198e-01
 2.9179350692e-01	 1.6807454153e+00	 1.0373348920e+00
 2.7691429682e-01	 1.6832608288e+00	 1.0392915029e+00
 2.6205572732e-01	 1.6856379504e+00	 1.0379434877e+00
 2.4721953454e-01	 1.6878776557e+00	 1.0339695528e+00
 2.3240742898e-01	 1.6899808451e+00	 1.0278946397e+00
 2.1762109510e-01	 1.6919484436e+00	 1.0200948537e+00
 2.0286219106e-01	 1.6937814001e+00	 1.0108024963e+00
 1.8813234834e-01	 1.6954806859e+00	 1.0001111789e+00
 1.7343317150e-01	 1.6970472951e+00	 9.8798100177e-01
 1.5876623785e-01	 1.6984822427e+00	 9.7424377810e-01
 1.4413309728e-01	 1.6997865649e+00	 9.5860828913e-01
 2.9330264772e-01	 1.6894381429e+00	 1.0204810295e+00
 2.7834648312e-01	 1.6919665660e+00	 1.0348396790e+00
 2.6341106587e-01	 1.6943559820e+00	 1.0439378728e+00
 2.4849814108e-01	 1.6966072709e+00	 1.0484328816e+00
 2.3360942808e-01	 1.6987213379e+00	 1.0488531274e+00
 2.1874662005e-01	 1.7006991127e+00	 1.0456026458e+00
 2.0391138373e-01	 1.7025415491e+00	 1.0389656280e+00
 1.8910535904e-01	 1.7042496236e+00	 1.0291110216e+00
 1.7433015881e-01	 1.7058243352e+00	 1.0160971725e+00
 1.5958736855e-01	 1.7072667043e+00	 9.9987649367e-01
 1.4487854614e-01	 1.7085777723e+00	 9.8030014264e-01
 2.9481178167e-01	 1.6981308311e+00	 1.0047089267e+00
 2.7977866292e-01	 1.7006722637e+00	 1.0291970004e+00
 2.6476639828e-01	 1.7030739740e+00	 1.0470279006e+00
 2.4977674182e-01	 1.7053368465e+00	 1.0588067228e+00
 2.3481142173e-01	 1.7074617910e+00	 1.0650325787e+00
 2.1987213991e-01	 1.7094497422e+00	 1.0661026793e+00
 2.0496057165e-01	 1.7113016584e+00	 1.0623164729e+00
 1.9007836532e-01	 1.7130185215e+00	 1.0538798190e+00
 1.7522714206e-01	 1.7146013355e+00	 1.0409091818e+00
 1.6040849553e-01	 1.7160511260e+00	 1.0234358271e+00
 1.4562399163e-01	 1.7173689399e+00	 1.0014100107e+00
 2.9632091050e-01	 1.7068234898e+00	 9.9000734687e-01
 2.8121083786e-01	 1.7093779318e+00	 1.0224865887e+00
 2.6612172608e-01	 1.7117919364e+00	 1.0474283906e+00
 2.5105533822e-01	 1.7140663924e+00	 1.0653554866e+00
 2.3601341129e-01	 1.7162022144e+00	 1.0767054636e+00
 2.2099765593e-01	 1.7182003418e+00	 1.0818345512e+00
 2.0600975600e-01	 1.7200617380e+00	 1.0810214418e+00
 1.9105136829e-01	 1.7217873896e+00	 1.0744711234e+00
 1.7612412227e-01	 1.7233783059e+00	 1.0623187095e+00
 1.6122961972e-01	 1.7248355179e+00	 1.0446332517e+00
 1.4636943457e-01	 1.7261600776e+00	 1.0214215227e+00
 2.9783003590e-01	 1.7155161287e+00	 9.7636694372e-01
 2.8264300955e-01	 1.7180835802e+00	 1.0148309039e+00
 2.6747705081e-01	 1.7205098790e+00	 1.0453517866e+00
 2.5233393171e-01	 1.7227959186e+00	 1.0683403195e+00
 2.3721539814e-01	 1.7249426181e+00	 1.0841409145e+00
 2.2212316940e-01	 1.7269509217e+00	 1.0930352483e+00
 2.0705893797e-01	 1.7288217977e+00	 1.0952458507e+00
 1.9202436906e-01	 1.7305562378e+00	 1.0909396812e+00
 1.7702110044e-01	 1.7321552565e+00	 1.0802316805e+00
 1.6205074205e-01	 1.7336198899e+00	 1.0631882834e+00
 1.4711487583e-01	 1.7349511954e+00	 1.0398308814e+00
 2.9933915960e-01	 1.7242087578e+00	 9.6378015964e-01
 2.8407517962e-01	 1.7267892188e+00	 1.0063517169e+00
 2.6883237400e-01	 1.7292278118e+00	 1.0410081821e+00
 2.5361252376e-01	 1.7315254348e+00	 1.0680191616e+00
 2.3841738361e-01	 1.7336830118e+00	 1.0876047930e+00
 2.2324868160e-01	 1.7357014916e+00	 1.0999392023e+00
 2.0810811875e-01	 1.7375818474e+00	 1.1051539437e+00
 1.9299736873e-01	 1.7393250761e+00	 1.1033414046e+00
 1.7791807759e-01	 1.7409321971e+00	 1.0945581638e+00
 1.6287186345e-01	 1.7424042519e+00	 1.0788282884e+00
 1.4786031625e-01	 1.7437423032e+00	 1.0561465592e+00
 3.0084828329e-01	 1.7329013869e+00	 9.5224112563e-01
 2.8550734969e-01	 1.7354948573e+00	 9.9717008223e-01
 2.7018769720e-01	 1.7379457445e+00	 1.0346053445e+00
 2.5489111581e-01	 1.7402549511e+00	 1.0646468001e+00
 2.3961936909e-01	 1.7424234055e+00	 1.0873597536e+00
 2.2437419380e-01	 1.7444520615e+00	 1.1027783431e+00
 2.0915729953e-01	 1.7463418972e+00	 1.1109089151e+00
 1.9397036840e-01	 1.7480939144e+00	 1.1117333432e+00
 1.7881505474e-01	 1.7497091377e+00	 1.1052122746e+00
 1.6369298484e-01	 1.7511886139e+00	 1.0912882956e+00
 1.4860575666e-01	 1.7525334110e+00	 1.0698890031e+00
 3.0235740870e-01	 1.7415940259e+00	 9.4174556259e-01
 2.8693952138e-01	 1.7442005057e+00	 9.8740630993e-01
 2.7154302193e-01	 1.7466636871e+00	 1.0263487364e+00
 2.5616970931e-01	 1.7489844772e+00	 1.0584749209e+00
 2.4082135594e-01	 1.7511638091e+00	 1.0836653044e+00
 2.2549970728e-01	 1.7532026413e+00	 1.1017821487e+00
 2.1020648150e-01	 1.7551019569e+00	 1.1126729307e+00
 1.9494336917e-01	 1.7568627626e+00	 1.1161736558e+00
 1.7971203291e-01	 1.7584860883e+00	 1.1121120779e+00
 1.6451410717e-01	 1.7599729859e+00	 1.1003108147e+00
 1.4935119792e-01	 1.7613245288e+00	 1.0805903480e+00
 3.0386653752e-01	 1.7502866845e+00	 9.3229068401e-01
 2.8837169632e-01	 1.7529061738e+00	 9.7717993641e-01
 2.7289834973e-01	 1.7553816495e+00	 1.0164415353e+00
 2.5744830570e-01	 1.7577140231e+00	 1.0497521569e+00
 2.4202334550e-01	 1.7599042326e+00	 1.0767778646e+00
 2.2662522330e-01	 1.7619532410e+00	 1.0971776938e+00
 2.1125566585e-01	 1.7638620365e+00	 1.1106071464e+00
 1.9591637214e-01	 1.7656316307e+00	 1.1167215824e+00
 1.8060901311e-01	 1.7672630587e+00	 1.1151794953e+00
 1.6533523136e-01	 1.7687573777e+00	 1.1056456591e+00
 1.5009664087e-01	 1.7701156665e+00	 1.0877941391e+00
 3.0537567148e-01	 1.7589793727e+00	 9.2387509989e-01
 2.8980387613e-01	 1.7616118716e+00	 9.6660969525e-01
 2.7425368214e-01	 1.7640996415e+00	 1.0050846518e+00
 2.5872690644e-01	 1.7664435988e+00	 1.0387241337e+00
 2.4322533915e-01	 1.7686446857e+00	 1.0669508201e+00
 2.2775074315e-01	 1.7707038704e+00	 1.0891896952e+00
 2.1230485376e-01	 1.7726221458e+00	 1.1048717265e+00
 1.9688937842e-01	 1.7744005286e+00	 1.1134374164e+00
 1.8150599636e-01	 1.7760400590e+00	 1.1143402135e+00
 1.6615635834e-01	 1.7775417995e+00	 1.1070497736e+00
 1.5084208636e-01	 1.7789068341e+00	 1.0910550613e+00
 3.0688481227e-01	 1.7676721003e+00	 9.1649872198e-01
 2.9123606242e-01	 1.7703176088e+00	 9.5581348719e-01
 2.7560902069e-01	 1.7728176731e+00	 9.9247674496e-01
 2.6000551298e-01	 1.7751732139e+00	 1.0256335137e+00
 2.4442733825e-01	 1.7773851785e+00	 1.0544345757e+00
 2.2887626810e-01	 1.7794545395e+00	 1.0780405550e+00
 2.1335404644e-01	 1.7813822948e+00	 1.0956258604e+00
 1.9786238912e-01	 1.7831694663e+00	 1.1063824770e+00
 1.8240298368e-01	 1.7848170991e+00	 1.1095235954e+00
 1.6697748904e-01	 1.7863262610e+00	 1.1042870668e+00
 1.5158753522e-01	 1.7876980416e+00	 1.0899386763e+00
 1.4413309728e-01	 1.6997865649e+00	 9.5860828913e-01
 1.2953774452e-01	 1.7009611285e+00	 9.4437164816e-01
 1.1497915452e-01	 1.7020072407e+00	 9.3510459411e-01
 1.0045875955e-01	 1.7029259940e+00	 9.3087643662e-01
 8.5977964604e-02	 1.7037184986e+00	 9.3179817441e-01
 7.1538147186e-02	 1.7043858817e+00	 9.3802338410e-01
 5.7140657235e-02	 1.7049292867e+00	 9.4974900318e-01
 4.2786816999e-02	 1.7053498724e+00	 9.6721600745e-01
 2.8477920947e-02	 1.7056488125e+00	 9.9070998437e-01
 1.4215235706e-02	 1.7058272945e+00	 1.0205616040e+00
 0.0000000000e+00	 1.7058865195e+00	 1.0571469902e+00
 1.4487854614e-01	 1.7085777723e+00	 9.8030014264e-01
 1.3020770698e-01	 1.7097584107e+00	 9.6187218258e-01
 1.1557382071e-01	 1.7108099334e+00	 9.4898802155e-01
 1.0097832702e-01	 1.7117334384e+00	 9.4128218246e-01
 8.6422638153e-02	 1.7125300418e+00	 9.3840247487e-01
 7.1908138752e-02	 1.7132008766e+00	 9.4001216948e-01
 5.7436185734e-02	 1.7137470921e+00	 9.4579206328e-01
 4.3008108185e-02	 1.7141698530e+00	 9.5544243429e-01
 2.8625207270e-02	 1.7144703392e+00	 9.6868488553e-01
 1.4288756164e-02	 1.7146497443e+00	 9.8526407854e-01
 0.0000000000e+00	 1.7147092756e+00	 1.0049493579e+00
 1.4562399163e-01	 1.7173689399e+00	 1.0014100107e+00
 1.3087766640e-01	 1.7185556531e+00	 9.8004932599e-01
 1.1616848420e-01	 1.7196125861e+00	 9.6419626634e-01
 1.0149789213e-01	 1.7205408429e+00	 9.5318192201e-01
 8.6867309687e-02	 1.7213415451e+00	 9.4632579821e-01
 7.2278128642e-02	 1.7220158315e+00	 9.4293903020e-01
 5.7731712894e-02	 1.7225648574e+00	 9.4232748757e-01
 4.3229398368e-02	 1.7229897936e+00	 9.4379476530e-01
 2.8772492924e-02	 1.7232918259e+00	 9.4664505985e-01
 1.4362276288e-02	 1.7234721541e+00	 9.5018592959e-01
 0.0000000000e+00	 1.7235319917e+00	 9.5373093961e-01
 1.4636943457e-01	 1.7261600776e+00	 1.0214215227e+00
 1.3154762354e-01	 1.7273528655e+00	 9.9818847716e-01
 1.1676314568e-01	 1.7284152090e+00	 9.7991127994e-01
 1.0201745547e-01	 1.7293482174e+00	 9.6574663463e-01
 8.7311979709e-02	 1.7301530184e+00	 9.5481828906e-01
 7.2648117275e-02	 1.7308307565e+00	 9.4622104824e-01
 5.8027239050e-02	 1.7313825928e+00	 9.3902467686e-01
 4.3450687800e-02	 1.7318097042e+00	 9.3227768772e-01
 2.8919778079e-02	 1.7321132826e+00	 9.2501101358e-01
 1.4435796163e-02	 1.7322945339e+00	 9.1624156076e-01
 0.0000000000e+00	 1.7323546778e+00	 9.0497564355e-01
 1.4711487583e-01	 1.7349511954e+00	 1.0398308814e+00
 1.3221757917e-01	 1.7361500580e+00	 1.0155915085e+00
 1.1735780580e-01	 1.7372178118e+00	 9.9533343588e-01
 1.0253701764e-01	 1.7381555720e+00	 9.7816576411e-01
 8.7756648724e-02	 1.7389644717e+00	 9.6314673954e-01
 7.3018105069e-02	 1.7396456614e+00	 9.4928832422e-01
 5.8322764537e-02	 1.7402003082e+00	 9.3556065766e-01
 4.3671976730e-02	 1.7406295949e+00	 9.2089640595e-01
 2.9067062899e-02	 1.7409347193e+00	 9.0419499494e-01
 1.4509315872e-02	 1.7411168937e+00	 8.8432672520e-01
 0.0000000000e+00	 1.7411773439e+00	 8.6013676746e-01
 1.4786031625e-01	 1.7437423032e+00	 1.0561465592e+00
 1.3288753404e-01	 1.7449472406e+00	 1.0315763664e+00
 1.1795246526e-01	 1.7460204047e+00	 1.0096810822e+00
 1.0305657922e-01	 1.7469629166e+00	 9.8964677082e-01
 8.8201317235e-02	 1.7477759150e+00	 9.7059418721e-01
 7.3388092444e-02	 1.7484605564e+00	 9.5158366587e-01
 5.8618289688e-02	 1.7490180136e+00	 9.3161990484e-01
 4.3893265410e-02	 1.7494494755e+00	 9.0965664076e-01
 2.9214347553e-02	 1.7497561460e+00	 8.8460121091e-01
 1.4582835497e-02	 1.7499392435e+00	 8.5531899994e-01
 0.0000000000e+00	 1.7500000000e+00	 8.2063776920e-01
 1.4860575666e-01	 1.7525334110e+00	 1.0698890031e+00
 1.3355748891e-01	 1.7537444231e+00	 1.0454766829e+00
 1.1854712471e-01	 1.7548229977e+00	 1.0221901075e+00
 1.0357614080e-01	 1.7557702612e+00	 9.9941469735e-01
 8.8645985747e-02	 1.7565873584e+00	 9.7645952501e-01
 7.3758079819e-02	 1.7572754514e+00	 9.5256228581e-01
 5.8913814840e-02	 1.7578357190e+00	 9.2689416952e-01
 4.4114554089e-02	 1.7582693561e+00	 8.9856462833e-01
 2.9361632207e-02	 1.7585775727e+00	 8.6662603752e-01
 1.4656355122e-02	 1.7587615933e+00	 8.3007824582e-01
 0.0000000000e+00	 1.7588226561e+00	 7.8787301388e-01
 1.4935119792e-01	 1.7613245288e+00	 1.0805903480e+00
 1.3422744453e-01	 1.7625416156e+00	 1.0566413992e+00
 1.1914178483e-01	 1.7636256005e+00	 1.0321135195e+00
 1.0409570297e-01	 1.7645776158e+00	 1.0067117471e+00
 8.9090654762e-02	 1.7653988117e+00	 9.8005712288e-01
 7.4128067613e-02	 1.7660903563e+00	 9.5169150844e-01
 5.9209340326e-02	 1.7666534344e+00	 9.2108231214e-01
 4.4335843020e-02	 1.7670892468e+00	 8.8762711951e-01
 2.9508917028e-02	 1.7673990094e+00	 8.5065822366e-01
 1.4729874830e-02	 1.7675839531e+00	 8.0944705356e-01
 0.0000000000e+00	 1.7676453222e+00	 7.6320849842e-01
 1.5009664087e-01	 1.7701156665e+00	 1.0877941391e+00
 1.3489740168e-01	 1.7713388280e+00	 1.0644344004e+00
 1.1973644631e-01	 1.7724282234e+00	 1.0387210364e+00
 1.0461526631e-01	 1.7733849903e+00	 1.0107968751e+00
 8.9535324784e-02	 1.7742102850e+00	 9.8071646064e-01
 7.4498056245e-02	 1.7749052813e+00	 9.4845048546e-01
 5.9504866482e-02	 1.7754711698e+00	 9.1389014057e-01
 4.4557132451e-02	 1.7759091574e+00	 8.7685137886e-01
 2.9656202182e-02	 1.7762204661e+00	 8.3707908885e-01
 1.4803394705e-02	 1.7764063329e+00	 7.9425117651e-01
 0.0000000000e+00	 1.7764680083e+00	 7.4798255434e-01
 1.5084208636e-01	 1.7789068341e+00	 1.0910550613e+00
 1.3556736110e-01	 1.7801360704e+00	 1.0682341601e+00
 1.2033110980e-01	 1.7812308761e+00	 1.0412986899e+00
 1.0513483142e-01	 1.7821923948e+00	 1.0109453915e+00
 8.9979996318e-02	 1.7830217883e+00	 9.7778177170e-01
 7.4868046135e-02	 1.7837202362e+00	 9.4232991993e-01
 5.9800393642e-02	 1.7842889352e+00	 9.0503025288e-01
 4.4778422635e-02	 1.7847290980e+00	 8.6624518391e-01
 2.9803487837e-02	 1.7850419528e+00	 8.2626271507e-01
 1.4876914830e-02	 1.7852287427e+00	 7.8529995035e-01
 0.0000000000e+00	 1.7852907244e+00	 7.4350652962e-01
 1.5158753522e-01	 1.7876980416e+00	 1.0899386763e+00
 1.3623732356e-01	 1.7889333526e+00	 1.0674333958e+00
 1.2092577599e-01	 1.7900335688e+00	 1.0391484403e+00
 1.0565439889e-01	 1.7909998392e+00	 1.0064485759e+00
 9.0424669867e-02	 1.7918333315e+00	 9.7061169725e-01
 7.5238037701e-02	 1.7925352311e+00	 9.3283179834e-01
 6.0095922142e-02	 1.7931067405e+00	 8.9422188484e-01
 4.4999713821e-02	 1.7935490786e+00	 8.5581682421e-01
 2.9950774159e-02	 1.7938634795e+00	 8.1857613292e-01
 1.4950435288e-02	 1.7940511925e+00	 7.8338670038e-01
 0.0000000000e+00	 1.7941134805e+00	 7.5106545020e-01
 1.7941134805e+00	 0.0000000000e+00	-7.9984137732e+00
 1.7940511925e+00	 1.4950435288e-02	-5.3574014065e+00
 1.7938634795e+00	 2.9950774159e-02	-3.1361033744e+00
 1.7935490786e+00	 4.4999713821e-02	-1.3156152185e+00
 1.7931067405e+00	 6.0095922142e-02	 1.2311502730e-01
 1.7925352311e+00	 7.5238037701e-02	 1.1992150733e+00
 1.7918333315e+00	 9.0424669867e-02	 1.9318153854e+00
 1.7909998392e+00	 1.0565439889e-01	 2.3399749515e+00
 1.7900335688e+00	 1.2092577599e-01	 2.4426057741e+00
 1.7889333526e+00	 1.3623732356e-01	 2.2583960480e+00
 1.7876980416e+00	 1.5158753522e-01	 1.8057319785e+00
 1.8029377841e+00	 0.0000000000e+00	-6.3261697702e+00
 1.8028751897e+00	 1.5023968640e-02	-5.4324382441e+00
 1.8026865534e+00	 3.0098086314e-02	-4.4308400837e+00
 1.8023706061e+00	 4.5221043820e-02	-3.3720079218e+00
 1.8019260924e+00	 6.0391502475e-02	-2.3072605836e+00
 1.8013517720e+00	 7.5608094162e-02	-1.2886060223e+00
 1.8006464202e+00	 9.0869421409e-02	-3.6874266310e-01
 1.7998088284e+00	 1.0617405748e-01	 3.9894079825e-01
 1.7988378054e+00	 1.2152054649e-01	 9.6036707372e-01
 1.7977321778e+00	 1.3690740352e-01	 1.2607733581e+00
 1.7964907909e+00	 1.5233311483e-01	 1.2447157057e+00
 1.8117621326e+00	 0.0000000000e+00	-4.7432134974e+00
 1.8116992318e+00	 1.5097502368e-02	-5.3834399737e+00
 1.8115096724e+00	 3.0245399219e-02	-5.4615414740e+00
 1.8111921787e+00	 4.5442374947e-02	-5.0870040591e+00
 1.8107454893e+00	 6.0687084314e-02	-4.3707151307e+00
 1.8101683580e+00	 7.5978152509e-02	-3.4249076754e+00
 1.8094595538e+00	 9.1314175218e-02	-2.3631004965e+00
 1.8086178625e+00	 1.0669371872e-01	-1.3000345061e+00
 1.8076420869e+00	 1.2211532001e-01	-3.5160517617e-01
 1.8065310479e+00	 1.3757748691e-01	 3.6520873345e-01
 1.8052835851e+00	 1.5307869824e-01	 7.3242003331e-01
 1.8205865212e+00	 0.0000000000e+00	-3.2655600060e+00
 1.8205233140e+00	 1.5171036428e-02	-5.2201733854e+00
 1.8203328313e+00	 3.0392712793e-02	-6.2321065657e+00
 1.8200137912e+00	 4.5663707077e-02	-6.4591771313e+00
 1.8195649262e+00	 6.0982667494e-02	-6.0612020301e+00
 1.8189849839e+00	 7.6348212533e-02	-5.1998931739e+00
 1.8182727274e+00	 9.1758931044e-02	-4.0387470022e+00
 1.8174269365e+00	 1.0721338232e-01	-2.7429281018e+00
 1.8164464083e+00	 1.2271009623e-01	-1.4791470078e+00
 1.8153299579e+00	 1.3824757333e-01	-4.1553233517e-01
 1.8140764192e+00	 1.5382428503e-01	 2.7850258691e-01
 1.8294109448e+00	 0.0000000000e+00	-1.9089222077e+00
 1.8293474312e+00	 1.5244570780e-02	-4.9522227095e+00
 1.8291560252e+00	 3.0540026950e-02	-6.7463641651e+00
 1.8288354387e+00	 4.5885040085e-02	-7.4871324012e+00
 1.8283843981e+00	 6.1278251845e-02	-7.3727949004e+00
 1.8278016448e+00	 7.6718274025e-02	-6.6039577233e+00
 1.8270859360e+00	 9.2203688633e-02	-5.3834147597e+00
 1.8262360455e+00	 1.0773304798e-01	-3.9159894188e+00
 1.8252507647e+00	 1.2330487481e-01	-2.4083689063e+00
 1.8241289028e+00	 1.3891766241e-01	-1.0689312621e+00
 1.8228692882e+00	 1.5456987478e-01	-1.0756536189e-01
 1.8382353983e+00	 0.0000000000e+00	-6.8871813825e-01
 1.8381715784e+00	 1.5318105382e-02	-4.5889939769e+00
 1.8379792491e+00	 3.0687341608e-02	-7.0080745022e+00
 1.8376571162e+00	 4.6106373845e-02	-8.1695060617e+00
 1.8372039000e+00	 6.1573837201e-02	-8.2996845914e+00
 1.8366183356e+00	 7.7088336774e-02	-7.6276837419e+00
 1.8358991745e+00	 9.2648447734e-02	-6.3850740851e+00
 1.8350451845e+00	 1.0825271541e-01	-4.8057335298e+00
 1.8340551510e+00	 1.2389965541e-01	-3.1256491076e+00
 1.8329278776e+00	 1.3958775376e-01	-1.5827103251e+00
 1.8316621870e+00	 1.5531546706e-01	-4.1649430700e-01
 1.8470598769e+00	 0.0000000000e+00	 3.7992198597e-01
 1.8469957507e+00	 1.5391640192e-02	-4.1397192550e+00
 1.8468024981e+00	 3.0834656683e-02	-7.0209308203e+00
 1.8464788188e+00	 4.6327708232e-02	-8.5049644270e+00
 1.8460234268e+00	 6.1869423394e-02	-8.8361762981e+00
 1.8454350515e+00	 7.7458400572e-02	-8.2618362909e+00
 1.8447124380e+00	 9.3093208094e-02	-7.0319272459e+00
 1.8438543484e+00	 1.0877238431e-01	-5.3989346929e+00
 1.8428595622e+00	 1.2449443770e-01	-3.6176270886e+00
 1.8417268773e+00	 1.4025784702e-01	-1.9448267965e+00
 1.8404551108e+00	 1.5606106146e-01	-6.3917205138e-01
 1.8558843755e+00	 0.0000000000e+00	 1.2765044980e+00
 1.8558199429e+00	 1.5465175169e-02	-3.6185334677e+00
 1.8556257670e+00	 3.0981972092e-02	-6.7928081022e+00
 1.8553005413e+00	 4.6549043120e-02	-8.4954760894e+00
 1.8548429736e+00	 6.2165010257e-02	-8.9789503278e+00
 1.8542517873e+00	 7.7828465208e-02	-8.4986914420e+00
 1.8535257214e+00	 9.3537969462e-02	-7.3129902048e+00
 1.8526635322e+00	 1.0929205438e-01	-5.6827409558e+00
 1.8516639934e+00	 1.2508922133e-01	-3.8711972424e+00
 1.8505258970e+00	 1.4092794179e-01	-2.1434672427e+00
 1.8492480545e+00	 1.5680665754e-01	-7.6665937831e-01
 1.8647088891e+00	 0.0000000000e+00	 1.9455845435e+00
 1.8646441501e+00	 1.5538710271e-02	-3.0722260806e+00
 1.8644490509e+00	 3.1129287751e-02	-6.3622291114e+00
 1.8641222788e+00	 4.6770378385e-02	-8.1717658391e+00
 1.8636625355e+00	 6.2460597622e-02	-8.7514532937e+00
 1.8630685381e+00	 7.8198530473e-02	-8.3549765711e+00
 1.8623390199e+00	 9.3982731586e-02	-7.2388720259e+00
 1.8614727311e+00	 1.0981172534e-01	-5.6623014165e+00
 1.8604684395e+00	 1.2568400597e-01	-3.8868171208e+00
 1.8593249316e+00	 1.4159803770e-01	-2.1761185631e+00
 1.8580410131e+00	 1.5755225489e-01	-7.9580002194e-01
 1.8735334126e+00	 0.0000000000e+00	 2.3652677222e+00
 1.8734683673e+00	 1.5612245456e-02	-2.5167483810e+00
 1.8732723448e+00	 3.1276603577e-02	-5.7399392882e+00
 1.8729440263e+00	 4.6991713900e-02	-7.5402118588e+00
 1.8724821073e+00	 6.2756185322e-02	-8.1566587079e+00
 1.8718852989e+00	 7.8568596157e-02	-7.8313609474e+00
 1.8711523283e+00	 9.4427494214e-02	-6.8091821283e+00
 1.8702819399e+00	 1.1033139689e-01	-5.3375534635e+00
 1.8692728957e+00	 1.2627879129e-01	-3.6662504451e+00
 1.8681239762e+00	 1.4226813437e-01	-2.0471609904e+00
 1.8668339817e+00	 1.5829785309e-01	-7.3404527657e-01
 1.8823579412e+00	 0.0000000000e+00	 2.5221715434e+00
 1.8822925895e+00	 1.5685780682e-02	-1.9600284884e+00
 1.8820956438e+00	 3.1423919486e-02	-4.9287486106e+00
 1.8817657788e+00	 4.7213049540e-02	-6.5989832036e+00
 1.8813016841e+00	 6.3051773189e-02	-7.1887141525e+00
 1.8807020647e+00	 7.8938662051e-02	-6.9187335298e+00
 1.8799656418e+00	 9.4872257094e-02	-6.0124581871e+00
 1.8790911537e+00	 1.1085106873e-01	-4.6957363291e+00
 1.8780773568e+00	 1.2687357695e-01	-3.1966461695e+00
 1.8769230258e+00	 1.4293823142e-01	-1.7452867948e+00
 1.8756269553e+00	 1.5904345171e-01	-5.7356138059e-01
 1.7876980416e+00	 1.5158753522e-01	 1.8057319785e+00
 1.7863262610e+00	 1.6697748904e-01	 1.2783903170e+00
 1.7848170991e+00	 1.8240298368e-01	 8.5702565227e-01
 1.7831694663e+00	 1.9786238912e-01	 5.4016894208e-01
 1.7813822948e+00	 2.1335404644e-01	 3.2687971631e-01
 1.7794545395e+00	 2.2887626810e-01	 2.1674207783e-01
 1.7773851785e+00	 2.4442733825e-01	 2.0985959083e-01
 1.7751732139e+00	 2.6000551298e-01	 3.0684886215e-01
 1.7728176731e+00	 2.7560902069e-01	 5.0883161455e-01
 1.7703176088e+00	 2.9123606242e-01	 8.1742504608e-01
 1.7676721003e+00	 3.0688481227e-01	 1.2347302658e+00
 1.7964907909e+00	 1.5233311483e-01	 1.2447157057e+00
 1.7951122633e+00	 1.6779876376e-01	 1.0550096870e+00
 1.7935956786e+00	 1.8330012833e-01	 8.7935079525e-01
 1.7919399420e+00	 1.9883557047e-01	 7.2938528708e-01
 1.7901439804e+00	 2.1440342313e-01	 6.1724541989e-01
 1.7882067434e+00	 2.3000199047e-01	 5.5552861928e-01
 1.7861272043e+00	 2.4562954817e-01	 5.5727518870e-01
 1.7839043603e+00	 2.6128434378e-01	 6.3594437605e-01
 1.7815372337e+00	 2.7696459696e-01	 8.0538860626e-01
 1.7790248729e+00	 2.9266849992e-01	 1.0798256849e+00
 1.7763663526e+00	 3.0839421776e-01	 1.4738087749e+00
 1.8052835851e+00	 1.5307869824e-01	 7.3242003331e-01
 1.8038983104e+00	 1.6862004267e-01	 8.4412006569e-01
 1.8023743029e+00	 1.8419727754e-01	 8.8857986533e-01
 1.8007104624e+00	 1.9980875679e-01	 8.8880577459e-01
 1.7989057106e+00	 2.1545280517e-01	 8.6825119054e-01
 1.7969589920e+00	 2.3112771857e-01	 8.5078118012e-01
 1.7948692747e+00	 2.4683176423e-01	 8.6063533833e-01
 1.7926355511e+00	 2.6256318109e-01	 9.2238871101e-01
 1.7902568388e+00	 2.7832018014e-01	 1.0609105989e+00
 1.7877321814e+00	 2.9410094472e-01	 1.3013210560e+00
 1.7850606492e+00	 3.0990363095e-01	 1.6689448934e+00
 1.8140764192e+00	 1.5382428503e-01	 2.7850258691e-01
 1.8126843974e+00	 1.6944132531e-01	 6.5155766306e-01
 1.8111529670e+00	 1.8509443083e-01	 8.8714245340e-01
 1.8094810226e+00	 2.0078194751e-01	 1.0178945054e+00
 1.8076674805e+00	 2.1650219197e-01	 1.0768630918e+00
 1.8057112802e+00	 2.3225345178e-01	 1.0974615372e+00
 1.8036113847e+00	 2.4803398573e-01	 1.1134175336e+00
 1.8013667815e+00	 2.6384202421e-01	 1.1587212730e+00
 1.7989764835e+00	 2.7967576947e-01	 1.2675712158e+00
 1.7964395295e+00	 2.9553339601e-01	 1.4743173161e+00
 1.7937549852e+00	 3.1141305098e-01	 1.8134015192e+00
 1.8228692882e+00	 1.5456987478e-01	-1.0756536189e-01
 1.8214705192e+00	 1.7026261120e-01	 4.8304668768e-01
 1.8199316659e+00	 1.8599158767e-01	 8.7742252041e-01
 1.8182516175e+00	 2.0175514210e-01	 1.1161278154e+00
 1.8164292852e+00	 2.1755158294e-01	 1.2401082559e+00
 1.8144636031e+00	 2.3337918945e-01	 1.2906318130e+00
 1.8123535294e+00	 2.4923621200e-01	 1.3092288121e+00
 1.8100980466e+00	 2.6512087240e-01	 1.3376296085e+00
 1.8076961627e+00	 2.8103136417e-01	 1.4176996971e+00
 1.8051469120e+00	 2.9696585299e-01	 1.5913720771e+00
 1.8024493558e+00	 3.1292247700e-01	 1.9005766918e+00
 1.8316621870e+00	 1.5531546706e-01	-4.1649430700e-01
 1.8302566708e+00	 1.7108389988e-01	 3.4420214943e-01
 1.8287103947e+00	 1.8688874757e-01	 8.6175960455e-01
 1.8270222423e+00	 2.0272834000e-01	 1.1829940895e+00
 1.8251911197e+00	 2.1860097747e-01	 1.3550735183e+00
 1.8232159558e+00	 2.3450493095e-01	 1.4254521591e+00
 1.8210957038e+00	 2.5043844236e-01	 1.4418027255e+00
 1.8188293413e+00	 2.6639972493e-01	 1.4519459135e+00
 1.8164158716e+00	 2.8238696349e-01	 1.5037772105e+00
 1.8138543242e+00	 2.9839831483e-01	 1.6451907942e+00
 1.8111437558e+00	 3.1443190815e-01	 1.9240003451e+00
 1.8404551108e+00	 1.5606106146e-01	-6.3917205138e-01
 1.8390428474e+00	 1.7190519089e-01	 2.4053258096e-01
 1.8374891483e+00	 1.8778591000e-01	 8.4244999241e-01
 1.8357928920e+00	 2.0370154065e-01	 1.2179935790e+00
 1.8339529790e+00	 2.1965037497e-01	 1.4189040905e+00
 1.8319683333e+00	 2.3563067564e-01	 1.4971785031e+00
 1.8298379030e+00	 2.5164067613e-01	 1.5049963933e+00
 1.8275606608e+00	 2.6767858109e-01	 1.4946436384e+00
 1.8251356052e+00	 2.8374256664e-01	 1.5184332630e+00
 1.8225617610e+00	 2.9983078073e-01	 1.6286232524e+00
 1.8198381805e+00	 3.1594134357e-01	 1.8773311475e+00
 1.8492480545e+00	 1.5680665754e-01	-7.6665937831e-01
 1.8478290439e+00	 1.7272648376e-01	 1.7744268061e-01
 1.8462679219e+00	 1.8868307447e-01	 8.2174785525e-01
 1.8445635615e+00	 2.0467474351e-01	 1.2206382219e+00
 1.8427148581e+00	 2.2069977486e-01	 1.4288022665e+00
 1.8407207307e+00	 2.3675642288e-01	 1.5011603560e+00
 1.8385801220e+00	 2.5284291262e-01	 1.4927876376e+00
 1.8362920001e+00	 2.6895744015e-01	 1.4588341855e+00
 1.8338553585e+00	 2.8509817287e-01	 1.4544422107e+00
 1.8312692176e+00	 3.0126324989e-01	 1.5346601475e+00
 1.8285326250e+00	 3.1745078242e-01	 1.7543534264e+00
 1.8580410131e+00	 1.5755225489e-01	-7.9580002194e-01
 1.8566152553e+00	 1.7354777803e-01	 1.5725593679e-01
 1.8550467103e+00	 1.8958024046e-01	 8.0067630890e-01
 1.8533342459e+00	 2.0564794802e-01	 1.1902294609e+00
 1.8514767522e+00	 2.2174917652e-01	 1.3820261651e+00
 1.8494731429e+00	 2.3788217203e-01	 1.4328386807e+00
 1.8473223559e+00	 2.5404515116e-01	 1.3992721949e+00
 1.8450233542e+00	 2.7023630138e-01	 1.3377636969e+00
 1.8425751267e+00	 2.8645378140e-01	 1.3047198629e+00
 1.8399766890e+00	 3.0269572147e-01	 1.3564297599e+00
 1.8372270842e+00	 3.1896022383e-01	 1.5489741750e+00
 1.8668339817e+00	 1.5829785309e-01	-7.3404527657e-01
 1.8654014767e+00	 1.7436907323e-01	 1.6994288108e-01
 1.8638255088e+00	 1.9047740747e-01	 7.6811896922e-01
 1.8621049403e+00	 2.0662115364e-01	 1.1160032645e+00
 1.8602386562e+00	 2.2279857938e-01	 1.2694358646e+00
 1.8582255650e+00	 2.3900792246e-01	 1.2845005516e+00
 1.8560645997e+00	 2.5524739105e-01	 1.2174458707e+00
 1.8537547182e+00	 2.7151516407e-01	 1.1246033799e+00
 1.8512949048e+00	 2.8780939147e-01	 1.0623201778e+00
 1.8486841702e+00	 3.0412819468e-01	 1.0871947175e+00
 1.8459215532e+00	 3.2046966696e-01	 1.2552201373e+00
 1.8756269553e+00	 1.5904345171e-01	-5.7356138059e-01
 1.8741877030e+00	 1.7519036889e-01	 2.1880283739e-01
 1.8726043121e+00	 1.9137457499e-01	 7.2279574425e-01
 1.8708756396e+00	 2.0759435981e-01	 9.9213750327e-01
 1.8690005651e+00	 2.2384798283e-01	 1.0808645704e+00
 1.8669779921e+00	 2.4013367353e-01	 1.0432557704e+00
 1.8648068484e+00	 2.5644963163e-01	 9.3375564617e-01
 1.8624860872e+00	 2.7279402747e-01	 8.0689503173e-01
 1.8600146878e+00	 2.8916500231e-01	 7.1720879906e-01
 1.8573916564e+00	 3.0556066871e-01	 7.1915072796e-01
 1.8546160272e+00	 3.2197911094e-01	 8.6700544880e-01
 1.7676721003e+00	 3.0688481227e-01	 1.2347302658e+00
 1.7648807413e+00	 3.2255075349e-01	 1.6422019130e+00
 1.7619422282e+00	 3.3823467012e-01	 1.9230961080e+00
 1.7588557237e+00	 3.5393466308e-01	 2.0820168776e+00
 1.7556204198e+00	 3.6964880820e-01	 2.1231164075e+00
 1.7522355389e+00	 3.8537515669e-01	 2.0948560149e+00
 1.7487003345e+00	 4.0111173565e-01	 2.0494540361e+00
 1.7450140917e+00	 4.1685654864e-01	 1.9821184511e+00
 1.7411761283e+00	 4.3260757626e-01	 1.8875542519e+00
 1.7371857953e+00	 4.4836277670e-01	 1.7600795519e+00
 1.7330424775e+00	 4.6412008643e-01	 1.5936262662e+00
 1.7763663526e+00	 3.0839421776e-01	 1.4738087749e+00
 1.7735612643e+00	 3.2413721153e-01	 1.8728768688e+00
 1.7706082982e+00	 3.3989826912e-01	 2.1544182018e+00
 1.7675066128e+00	 3.5567548212e-01	 2.3204780863e+00
 1.7642553962e+00	 3.7146691688e-01	 2.3729300260e+00
 1.7608538668e+00	 3.8727061503e-01	 2.3688329911e+00
 1.7573012746e+00	 4.0308459397e-01	 2.3464896785e+00
 1.7535969011e+00	 4.1890684744e-01	 2.2984023410e+00
 1.7497400608e+00	 4.3473534610e-01	 2.2167481149e+00
 1.7457301014e+00	 4.5056803812e-01	 2.0933836783e+00
 1.7415664048e+00	 4.6640284979e-01	 1.9198505261e+00
 1.7850606492e+00	 3.0990363095e-01	 1.6689448934e+00
 1.7822418316e+00	 3.2572367766e-01	 2.0548962135e+00
 1.7792744124e+00	 3.4156187660e-01	 2.3333207942e+00
 1.7761575461e+00	 3.5741631003e-01	 2.5037407829e+00
 1.7728904166e+00	 3.7328503483e-01	 2.5670076325e+00
 1.7694722387e+00	 3.8916608304e-01	 2.5864038312e+00
 1.7659022585e+00	 4.0505746235e-01	 2.5873407768e+00
 1.7621797543e+00	 4.2095715670e-01	 2.5597461544e+00
 1.7583040369e+00	 4.3686312680e-01	 2.4932786085e+00
 1.7542744511e+00	 4.5277331079e-01	 2.3773369068e+00
 1.7500903756e+00	 4.6868562480e-01	 2.2010697261e+00
 1.7937549852e+00	 3.1141305098e-01	 1.8134015192e+00
 1.7909224383e+00	 3.2731015098e-01	 2.1826533310e+00
 1.7879405660e+00	 3.4322549163e-01	 2.4552337339e+00
 1.7848085185e+00	 3.5915714584e-01	 2.6281765492e+00
 1.7815254761e+00	 3.7510316102e-01	 2.7026627244e+00
 1.7780906496e+00	 3.9106155964e-01	 2.7455078311e+00
 1.7745032815e+00	 4.0703033968e-01	 2.7705937567e+00
 1.7707626464e+00	 4.2300747525e-01	 2.7652884642e+00
 1.7668680519e+00	 4.3899091715e-01	 2.7167412666e+00
 1.7628188395e+00	 4.5497859345e-01	 2.6118964090e+00
 1.7586143850e+00	 4.7096841015e-01	 2.4375072807e+00
 1.8024493558e+00	 3.1292247700e-01	 1.9005766918e+00
 1.7996030793e+00	 3.2889663060e-01	 2.2506550292e+00
 1.7966067538e+00	 3.4488911326e-01	 2.5156802571e+00
 1.7934595253e+00	 3.6089798855e-01	 2.6902320050e+00
 1.7901605699e+00	 3.7692129443e-01	 2.7771499988e+00
 1.7867090948e+00	 3.9295704375e-01	 2.8441272689e+00
 1.7831043386e+00	 4.0900322483e-01	 2.8948655593e+00
 1.7793455725e+00	 4.2505780194e-01	 2.9141876941e+00
 1.7754321008e+00	 4.4111871593e-01	 2.8867426171e+00
 1.7713632618e+00	 4.5718388486e-01	 2.7970233032e+00
 1.7671384283e+00	 4.7325120456e-01	 2.6293853146e+00
 1.8111437558e+00	 3.1443190815e-01	 1.9240003451e+00
 1.8082837500e+00	 3.3048311561e-01	 2.2535187827e+00
 1.8052729712e+00	 3.4655274055e-01	 2.5102746761e+00
 1.8021105615e+00	 3.6263883718e-01	 2.6864268972e+00
 1.7987956931e+00	 3.7873943401e-01	 2.7877800192e+00
 1.7953275692e+00	 3.9485253432e-01	 2.8802863549e+00
 1.7917054249e+00	 4.1097611669e-01	 2.9588028769e+00
 1.7879285278e+00	 4.2710813559e-01	 3.0056215970e+00
 1.7839961789e+00	 4.4324652196e-01	 3.0028998569e+00
 1.7799077132e+00	 4.5938918377e-01	 2.9326824818e+00
 1.7756625005e+00	 4.7553400674e-01	 2.7769245999e+00
 1.8198381805e+00	 3.1594134357e-01	 1.8773311475e+00
 1.8169644452e+00	 3.3206960512e-01	 2.1859700490e+00
 1.8139392131e+00	 3.4821637254e-01	 2.4347201278e+00
 1.8107616222e+00	 3.6437969074e-01	 2.6133522366e+00
 1.8074308407e+00	 3.8055757875e-01	 2.7319178722e+00
 1.8039460681e+00	 3.9674803025e-01	 2.8520502081e+00
 1.8003065356e+00	 4.1294901414e-01	 2.9610814069e+00
 1.7965115075e+00	 4.2915847506e-01	 3.0387867430e+00
 1.7925602812e+00	 4.4537433401e-01	 3.0648405318e+00
 1.7884521888e+00	 4.6159448893e-01	 3.0188424406e+00
 1.7841865969e+00	 4.7781681538e-01	 2.8803444895e+00
 1.8285326250e+00	 3.1745078242e-01	 1.7543534264e+00
 1.8256451600e+00	 3.3365609822e-01	 2.0428396542e+00
 1.8226054747e+00	 3.4988000831e-01	 2.2848063787e+00
 1.8194127026e+00	 3.6612054825e-01	 2.4676684801e+00
 1.8160660079e+00	 3.8237572761e-01	 2.6069818579e+00
 1.8125645864e+00	 3.9864353048e-01	 2.7575238583e+00
 1.8089076658e+00	 4.1492191607e-01	 2.9004051237e+00
 1.8050945065e+00	 4.3120881918e-01	 3.0128980189e+00
 1.8011244030e+00	 4.4750215088e-01	 3.0722022218e+00
 1.7969966837e+00	 4.6379979908e-01	 3.0554751068e+00
 1.7927107126e+00	 4.8009962919e-01	 2.9398628478e+00
 1.8372270842e+00	 3.1896022383e-01	 1.5489741750e+00
 1.8343258897e+00	 3.3524259402e-01	 1.8190612477e+00
 1.8312717510e+00	 3.5154364691e-01	 2.0564076861e+00
 1.8280637976e+00	 3.6786140872e-01	 2.2461037573e+00
 1.8247011898e+00	 3.8419387956e-01	 2.4104422153e+00
 1.8211831195e+00	 4.0053903394e-01	 2.5948512729e+00
 1.8175088106e+00	 4.1689482134e-01	 2.7755055668e+00
 1.8136775202e+00	 4.3325916678e-01	 2.9271881374e+00
 1.8096885393e+00	 4.4962997137e-01	 3.0246322306e+00
 1.8055411932e+00	 4.6600511299e-01	 3.0425556690e+00
 1.8012348428e+00	 4.8238244689e-01	 2.9556959790e+00
 1.8459215532e+00	 3.2046966696e-01	 1.2552201373e+00
 1.8430066292e+00	 3.3682909162e-01	 1.5096688220e+00
 1.8399380371e+00	 3.5320728740e-01	 1.7454807127e+00
 1.8367149024e+00	 3.6960227117e-01	 1.9454521394e+00
 1.8333363815e+00	 3.8601203357e-01	 2.1398198800e+00
 1.8298016623e+00	 4.0243453954e-01	 2.3622144082e+00
 1.8261099651e+00	 4.1886772886e-01	 2.5851411459e+00
 1.8222605436e+00	 4.3530951671e-01	 2.7809071566e+00
 1.8182526853e+00	 4.5175779428e-01	 2.9217872796e+00
 1.8140857124e+00	 4.6821042940e-01	 2.9800624059e+00
 1.8097589826e+00	 4.8466526717e-01	 2.9280585518e+00
 1.8546160272e+00	 3.2197911094e-01	 8.6700544880e-01
 1.8516873736e+00	 3.3841559011e-01	 1.1097942964e+00
 1.8486043281e+00	 3.5487092882e-01	 1.3480624934e+00
 1.8453660122e+00	 3.7134313460e-01	 1.5627501081e+00
 1.8419715781e+00	 3.8783018861e-01	 1.7926852736e+00
 1.8384202100e+00	 4.0433004622e-01	 2.0578322834e+00
 1.8347111246e+00	 4.2084063749e-01	 2.3280964616e+00
 1.8308435719e+00	 4.3735986779e-01	 2.5733220089e+00
 1.8268168362e+00	 4.5388561839e-01	 2.7633332066e+00
 1.8226302364e+00	 4.7041574706e-01	 2.8679765163e+00
 1.8182831273e+00	 4.8694808875e-01	 2.8571635222e+00
 1.7330424775e+00	 4.6412008643e-01	 1.5936262662e+00
 1.7287455951e+00	 4.7987742099e-01	 1.4277345986e+00
 1.7242946047e+00	 4.9563267639e-01	 1.3022644936e+00
 1.7196889996e+00	 5.1138372914e-01	 1.2113443478e+00
 1.7149283098e+00	 5.2712843678e-01	 1.1491196571e+00
 1.7100121024e+00	 5.4286463860e-01	 1.1097649765e+00
 1.7049399826e+00	 5.5859015640e-01	 1.0874961662e+00
 1.6997115942e+00	 5.7430279528e-01	 1.0765829175e+00
 1.6943266200e+00	 5.9000034444e-01	 1.0713615475e+00
 1.6887847827e+00	 6.0568057798e-01	 1.0662480569e+00
 1.6830858451e+00	 6.2134125579e-01	 1.0557514447e+00
 1.7415664048e+00	 4.6640284979e-01	 1.9198505261e+00
 1.7372483882e+00	 4.8223768642e-01	 1.7366374157e+00
 1.7327755058e+00	 4.9807043366e-01	 1.5871289369e+00
 1.7281472482e+00	 5.1389895758e-01	 1.4669875918e+00
 1.7233631430e+00	 5.2972110518e-01	 1.3718973179e+00
 1.7184227553e+00	 5.4553470513e-01	 1.2975735355e+00
 1.7133256884e+00	 5.6133756851e-01	 1.2397734362e+00
 1.7080715843e+00	 5.7712748962e-01	 1.1943065041e+00
 1.7026601243e+00	 5.9290224679e-01	 1.1570452653e+00
 1.6970910296e+00	 6.0865960318e-01	 1.1239362608e+00
 1.6913640619e+00	 6.2439730766e-01	 1.0910112387e+00
 1.7500903756e+00	 4.6868562480e-01	 2.2010697261e+00
 1.7457512248e+00	 4.8459796389e-01	 2.0051247120e+00
 1.7412564501e+00	 5.0050820336e-01	 1.8356886700e+00
 1.7366055398e+00	 5.1641419885e-01	 1.6900499585e+00
 1.7317980192e+00	 5.3231378681e-01	 1.5655196008e+00
 1.7268334512e+00	 5.4820478528e-01	 1.4594392317e+00
 1.7217114371e+00	 5.6408499463e-01	 1.3691892364e+00
 1.7164316171e+00	 5.7995219837e-01	 1.2921970804e+00
 1.7109936711e+00	 5.9580416395e-01	 1.2259458245e+00
 1.7053973189e+00	 6.1163864358e-01	 1.1679828261e+00
 1.6996423210e+00	 6.2745337511e-01	 1.1159286249e+00
 1.7586143850e+00	 4.7096841015e-01	 2.4375072807e+00
 1.7542540999e+00	 4.8695825206e-01	 2.2336104177e+00
 1.7497374329e+00	 5.0294598412e-01	 2.0484911158e+00
 1.7450638699e+00	 5.1892945152e-01	 1.8811538959e+00
 1.7402329337e+00	 5.3490648019e-01	 1.7306240991e+00
 1.7352441852e+00	 5.5087487753e-01	 1.5959535431e+00
 1.7300972237e+00	 5.6683243321e-01	 1.4762263247e+00
 1.7247916878e+00	 5.8277691993e-01	 1.3705647692e+00
 1.7193272557e+00	 5.9870609426e-01	 1.2781355255e+00
 1.7137036458e+00	 6.1461769748e-01	 1.1981558096e+00
 1.7079206175e+00	 6.3050945642e-01	 1.1298998009e+00
 1.7671384283e+00	 4.7325120456e-01	 2.6293853146e+00
 1.7627570088e+00	 4.8931854959e-01	 2.4225033700e+00
 1.7582184494e+00	 5.0538377454e-01	 2.2260758744e+00
 1.7535222335e+00	 5.2144471417e-01	 2.0409124019e+00
 1.7486678816e+00	 5.3749918386e-01	 1.8678384596e+00
 1.7436549525e+00	 5.5354498038e-01	 1.7076986654e+00
 1.7384830437e+00	 5.6957988268e-01	 1.5613600281e+00
 1.7331517917e+00	 5.8560165268e-01	 1.4297153294e+00
 1.7276608733e+00	 6.0160803608e-01	 1.3136866136e+00
 1.7220100057e+00	 6.1759676320e-01	 1.2142287897e+00
 1.7161989469e+00	 6.3356554985e-01	 1.1323333551e+00
 1.7756625005e+00	 4.7553400674e-01	 2.7769245999e+00
 1.7712599465e+00	 4.9167885515e-01	 2.5722073235e+00
 1.7666994947e+00	 5.0782157326e-01	 2.3689747797e+00
 1.7619806258e+00	 5.2395998537e-01	 2.1699291004e+00
 1.7571028582e+00	 5.4009189634e-01	 1.9777804506e+00
 1.7520657485e+00	 5.5621509230e-01	 1.7952475429e+00
 1.7468688921e+00	 5.7232734150e-01	 1.6250582078e+00
 1.7415119240e+00	 5.8842639505e-01	 1.4699500245e+00
 1.7359945193e+00	 6.0450998777e-01	 1.3326710205e+00
 1.7303163938e+00	 6.2057583905e-01	 1.2159804498e+00
 1.7244773045e+00	 6.3662165367e-01	 1.1226496622e+00
 1.7841865969e+00	 4.7781681538e-01	 2.8803444895e+00
 1.7797629084e+00	 4.9403916739e-01	 2.6831209549e+00
 1.7751805640e+00	 5.1025937888e-01	 2.4777119495e+00
 1.7704390421e+00	 5.2647526371e-01	 2.2687983095e+00
 1.7655378587e+00	 5.4268461617e-01	 2.0610580218e+00
 1.7604765683e+00	 5.5888521179e-01	 1.8591638913e+00
 1.7552547643e+00	 5.7507480810e-01	 1.6677812168e+00
 1.7498720800e+00	 5.9125114541e-01	 1.4915654867e+00
 1.7443281889e+00	 6.0741194768e-01	 1.3351601055e+00
 1.7386228055e+00	 6.2355492334e-01	 1.2031941667e+00
 1.7327556855e+00	 6.3967776615e-01	 1.1002802870e+00
 1.7927107126e+00	 4.8009962919e-01	 2.9398628478e+00
 1.7882658895e+00	 4.9639948499e-01	 2.7556378620e+00
 1.7836616526e+00	 5.1269719003e-01	 2.5528038283e+00
 1.7788974776e+00	 5.2899054774e-01	 2.3381051021e+00
 1.7739728784e+00	 5.4527734187e-01	 2.1182693558e+00
 1.7688874071e+00	 5.6155533733e-01	 1.9000022139e+00
 1.7636406555e+00	 5.7782228093e-01	 1.6899818530e+00
 1.7582322549e+00	 5.9407590218e-01	 1.4948535784e+00
 1.7526618774e+00	 6.1031391417e-01	 1.3212243968e+00
 1.7469292360e+00	 6.2653401438e-01	 1.1756576019e+00
 1.7410340853e+00	 6.4273388556e-01	 1.0646673964e+00
 1.8012348428e+00	 4.8238244689e-01	 2.9556959790e+00
 1.7967688850e+00	 4.9875980660e-01	 2.7901465586e+00
 1.7921427555e+00	 5.1513500533e-01	 2.5947592233e+00
 1.7873559275e+00	 5.3150583605e-01	 2.3784253589e+00
 1.7824079123e+00	 5.4787007199e-01	 2.1500029119e+00
 1.7772982603e+00	 5.6422546742e-01	 1.9183078106e+00
 1.7720265610e+00	 5.8056975843e-01	 1.6921053061e+00
 1.7665924441e+00	 5.9690066376e-01	 1.4801012500e+00
 1.7609955800e+00	 6.1321588560e-01	 1.2909333314e+00
 1.7552356806e+00	 6.2951311049e-01	 1.1331622968e+00
 1.7493124992e+00	 6.4579001016e-01	 1.0152631805e+00
 1.8097589826e+00	 4.8466526717e-01	 2.9280585518e+00
 1.8052718903e+00	 5.0112013088e-01	 2.7870304630e+00
 1.8006238681e+00	 5.1757282338e-01	 2.6040793339e+00
 1.7958143869e+00	 5.3402112720e-01	 2.3903258139e+00
 1.7908429559e+00	 5.5046280504e-01	 2.1568374634e+00
 1.7857091230e+00	 5.6689560052e-01	 1.9146167798e+00
 1.7804124759e+00	 5.8331723904e-01	 1.6745890993e+00
 1.7749526427e+00	 5.9972542853e-01	 1.4475903945e+00
 1.7693292921e+00	 6.1611786031e-01	 1.2443549965e+00
 1.7635421346e+00	 6.3249220997e-01	 1.0755032711e+00
 1.7575909224e+00	 6.4884613823e-01	 9.5152928084e-01
 1.8182831273e+00	 4.8694808875e-01	 2.8571635222e+00
 1.8137749003e+00	 5.0348045650e-01	 2.7466678832e+00
 1.8091049855e+00	 5.2001064282e-01	 2.5812577755e+00
 1.8042728512e+00	 5.3653641979e-01	 2.3743640933e+00
 1.7992780042e+00	 5.5305553956e-01	 2.1393421268e+00
 1.7941199904e+00	 5.6956573515e-01	 1.8894560148e+00
 1.7887983956e+00	 5.8606472121e-01	 1.6378630260e+00
 1.7833128461e+00	 6.0255019490e-01	 1.3975976985e+00
 1.7776630090e+00	 6.1901983667e-01	 1.1815558685e+00
 1.7718485933e+00	 6.3547131114e-01	 1.0024786246e+00
 1.7658693503e+00	 6.5190226803e-01	 8.7293622652e-01
 1.6830858451e+00	 6.2134125579e-01	 1.0557514447e+00
 1.6772286017e+00	 6.3698278107e-01	 1.0393270264e+00
 1.6712138520e+00	 6.5260022188e-01	 1.0217541733e+00
 1.6650414817e+00	 6.6819129874e-01	 1.0054998656e+00
 1.6587114185e+00	 6.8375372154e-01	 9.9289918728e-01
 1.6522236333e+00	 6.9928519036e-01	 9.8615463691e-01
 1.6455781398e+00	 7.1478339657e-01	 9.8733583896e-01
 1.6387749955e+00	 7.3024602370e-01	 9.9837968492e-01
 1.6318143016e+00	 7.4567074850e-01	 1.0204540103e+00
 1.6246962038e+00	 7.6105524190e-01	 1.0471419763e+00
 1.6174208922e+00	 7.7639717010e-01	 1.0795199343e+00
 1.6913640619e+00	 6.2439730766e-01	 1.0910112387e+00
 1.6854780098e+00	 6.4011576540e-01	 1.0567497500e+00
 1.6794336767e+00	 6.5581002021e-01	 1.0238910690e+00
 1.6732309477e+00	 6.7147778141e-01	 9.9479710488e-01
 1.6668697503e+00	 6.8711674760e-01	 9.7167846573e-01
 1.6603500551e+00	 7.0272460758e-01	 9.5659357570e-01
 1.6536718759e+00	 7.1829904134e-01	 9.5144821288e-01
 1.6468352705e+00	 7.3383772102e-01	 9.5799549868e-01
 1.6398403406e+00	 7.4933831195e-01	 9.7584662063e-01
 1.6326872326e+00	 7.6479847361e-01	 9.9790830567e-01
 1.6253761376e+00	 7.8021586071e-01	 1.0267372730e+00
 1.6996423210e+00	 6.2745337511e-01	 1.1159286249e+00
 1.6937274600e+00	 6.4324876571e-01	 1.0673863398e+00
 1.6876535434e+00	 6.5901983491e-01	 1.0229758728e+00
 1.6814204555e+00	 6.7476428084e-01	 9.8475419113e-01
 1.6750281237e+00	 6.9047979081e-01	 9.5461255656e-01
 1.6684765183e+00	 7.0616404233e-01	 9.3427577812e-01
 1.6617656533e+00	 7.2181470403e-01	 9.2530190403e-01
 1.6548955866e+00	 7.3742943666e-01	 9.2908238381e-01
 1.6478664205e+00	 7.5300589411e-01	 9.4267062145e-01
 1.6406783021e+00	 7.6854172442e-01	 9.5959893971e-01
 1.6333314235e+00	 7.8403457080e-01	 9.8309814323e-01
 1.7079206175e+00	 6.3050945642e-01	 1.1298998009e+00
 1.7019769476e+00	 6.4638178022e-01	 1.0702706430e+00
 1.6958734473e+00	 6.6222966416e-01	 1.0177696497e+00
 1.6896100005e+00	 6.7805079516e-01	 9.7395197521e-01
 1.6831865341e+00	 6.9384284927e-01	 9.4019761946e-01
 1.6766030184e+00	 7.0960349268e-01	 9.1771114409e-01
 1.6698594673e+00	 7.2533038267e-01	 9.0752184247e-01
 1.6629559392e+00	 7.4102116858e-01	 9.1048142831e-01
 1.6558925368e+00	 7.5667349290e-01	 9.2002235071e-01
 1.6486694079e+00	 7.7228499219e-01	 9.3173801513e-01
 1.6412867455e+00	 7.8785329820e-01	 9.4866631290e-01
 1.7161989469e+00	 6.3356554985e-01	 1.1323333551e+00
 1.7102264679e+00	 6.4951480716e-01	 1.0644555750e+00
 1.7040933838e+00	 6.6543950615e-01	 1.0070574752e+00
 1.6977995779e+00	 6.8133732252e-01	 9.6099846872e-01
 1.6913449769e+00	 6.9720592107e-01	 9.2695827870e-01
 1.6847295507e+00	 7.1304295667e-01	 9.0543744130e-01
 1.6779533135e+00	 7.2884607524e-01	 8.9675827535e-01
 1.6710163238e+00	 7.4461291475e-01	 9.0059286560e-01
 1.6639186849e+00	 7.6034110623e-01	 9.0701092918e-01
 1.6566605454e+00	 7.7602827481e-01	 9.1385450432e-01
 1.6492420990e+00	 7.9167204075e-01	 9.2350026797e-01
 1.7244773045e+00	 6.3662165367e-01	 1.1226496622e+00
 1.7184760163e+00	 6.5264784475e-01	 1.0490123299e+00
 1.7123133482e+00	 6.6864935905e-01	 9.8964750170e-01
 1.7059891832e+00	 6.8462386106e-01	 9.4452780990e-01
 1.6995034474e+00	 7.0056900431e-01	 9.1344653229e-01
 1.6928561106e+00	 7.1648243236e-01	 8.9601920285e-01
 1.6860471872e+00	 7.3236177978e-01	 8.9168569986e-01
 1.6790767358e+00	 7.4820467313e-01	 8.9791711775e-01
 1.6719448604e+00	 7.6400873204e-01	 9.0275810866e-01
 1.6646517100e+00	 7.7977157016e-01	 9.0548226786e-01
 1.6571974796e+00	 7.9549079628e-01	 9.0765352089e-01
 1.7327556855e+00	 6.3967776615e-01	 1.1002802870e+00
 1.7267255880e+00	 6.5578089122e-01	 1.0230296043e+00
 1.7205333360e+00	 6.7185922104e-01	 9.6437004272e-01
 1.7141788117e+00	 6.8791040891e-01	 9.2319924939e-01
 1.7076619410e+00	 7.0393209707e-01	 8.9824068202e-01
 1.7009826936e+00	 7.1992191779e-01	 8.8804664579e-01
 1.6941410838e+00	 7.3587749427e-01	 8.9100181553e-01
 1.6871371707e+00	 7.5179644169e-01	 9.0128697761e-01
 1.6799710586e+00	 7.6767636823e-01	 9.0639813292e-01
 1.6726428973e+00	 7.8351487611e-01	 9.0616011404e-01
 1.6651528827e+00	 7.9930956263e-01	 9.0117491860e-01
 1.7410340853e+00	 6.4273388556e-01	 1.0646673964e+00
 1.7349751784e+00	 6.5891394479e-01	 9.8561283458e-01
 1.7287533424e+00	 6.7506909032e-01	 9.3007667389e-01
 1.7223684588e+00	 6.9119696421e-01	 8.9569615508e-01
 1.7158204531e+00	 7.0729519746e-01	 8.7994428392e-01
 1.7091092950e+00	 7.2336141102e-01	 8.8013460996e-01
 1.7022349988e+00	 7.3939321673e-01	 8.9342649562e-01
 1.6951976238e+00	 7.5538821839e-01	 9.0955298219e-01
 1.6879972749e+00	 7.7134401274e-01	 9.1707761066e-01
 1.6806341027e+00	 7.8725819055e-01	 9.1543186498e-01
 1.6731083039e+00	 8.0312833764e-01	 9.0410895042e-01
 1.7493124992e+00	 6.4579001016e-01	 1.0152631805e+00
 1.7432247829e+00	 6.6204700368e-01	 9.3588344681e-01
 1.7369733627e+00	 6.7827896504e-01	 8.8563935001e-01
 1.7305581198e+00	 6.9448352509e-01	 8.6072503554e-01
 1.7239789791e+00	 7.1065830357e-01	 8.5718511837e-01
 1.7172359102e+00	 7.2680091010e-01	 8.7092151640e-01
 1.7103289275e+00	 7.4290894517e-01	 8.9752495257e-01
 1.7032580906e+00	 7.5898000120e-01	 9.2158315565e-01
 1.6960235049e+00	 7.7501166349e-01	 9.3395540029e-01
 1.6886253217e+00	 7.9100151136e-01	 9.3284642933e-01
 1.6810637386e+00	 8.0694711914e-01	 9.1649605576e-01
 1.7575909224e+00	 6.4884613823e-01	 9.5152928084e-01
 1.7514743967e+00	 6.6518006613e-01	 8.7297811893e-01
 1.7451933924e+00	 6.8148884341e-01	 8.2994953781e-01
 1.7387477900e+00	 6.9777008970e-01	 8.1701458137e-01
 1.7321375143e+00	 7.1402141348e-01	 8.2861417925e-01
 1.7253625346e+00	 7.3024041307e-01	 8.5906834471e-01
 1.7184228654e+00	 7.4642467760e-01	 9.0137086491e-01
 1.7113185666e+00	 7.6257178807e-01	 9.3626276749e-01
 1.7040497440e+00	 7.7867931839e-01	 9.5620250613e-01
 1.6966165497e+00	 7.9474483640e-01	 9.5795788118e-01
 1.6890191823e+00	 8.1076590497e-01	 9.3837293168e-01
 1.7658693503e+00	 6.5190226803e-01	 8.7293622652e-01
 1.7597240152e+00	 6.6831313035e-01	 7.9604805511e-01
 1.7534134267e+00	 6.8469872359e-01	 7.6191736397e-01
 1.7469374649e+00	 7.0105665617e-01	 7.6331472390e-01
 1.7402960542e+00	 7.1738452531e-01	 7.9290468146e-01
 1.7334891636e+00	 7.3367991799e-01	 8.4325762879e-01
 1.7265168079e+00	 7.4994041202e-01	 9.0361792547e-01
 1.7193790471e+00	 7.6616357699e-01	 9.5249410532e-01
 1.7120759877e+00	 7.8234697537e-01	 9.8300198552e-01
 1.7046077823e+00	 7.9848816357e-01	 9.9032554502e-01
 1.6969746305e+00	 8.1458469296e-01	 9.6977284021e-01
 1.6174208922e+00	 7.7639717010e-01	 1.0795199343e+00
 1.6099898785e+00	 7.9169159915e-01	 1.1086332058e+00
 1.6024022183e+00	 8.0693880086e-01	 1.1251438526e+00
 1.5946582360e+00	 8.2213643373e-01	 1.1326013609e+00
 1.5867583015e+00	 8.3728215572e-01	 1.1346763350e+00
 1.5787028302e+00	 8.5237362528e-01	 1.1351525621e+00
 1.5704922835e+00	 8.6740850250e-01	 1.1379177694e+00
 1.5621271689e+00	 8.8238445016e-01	 1.1469530537e+00
 1.5536080398e+00	 8.9729913487e-01	 1.1663209683e+00
 1.5449354956e+00	 9.1215022821e-01	 1.2001522649e+00
 1.5361101821e+00	 9.2693540778e-01	 1.2526312886e+00
 1.6253761376e+00	 7.8021586071e-01	 1.0267372730e+00
 1.6179085745e+00	 7.9558551504e-01	 1.0545878513e+00
 1.6102835947e+00	 8.1090770974e-01	 1.0730156548e+00
 1.6025015238e+00	 8.2618009180e-01	 1.0849231903e+00
 1.5945627336e+00	 8.4140030765e-01	 1.0933712058e+00
 1.5864676417e+00	 8.5656600424e-01	 1.1015719972e+00
 1.5782167117e+00	 8.7167483014e-01	 1.1128813338e+00
 1.5698104534e+00	 8.8672443663e-01	 1.1307889778e+00
 1.5612494232e+00	 9.0171247886e-01	 1.1589077810e+00
 1.5525342233e+00	 9.1663661694e-01	 1.2009613489e+00
 1.5436655027e+00	 9.3149451705e-01	 1.2607702729e+00
 1.6333314235e+00	 7.8403457080e-01	 9.8309814323e-01
 1.6258273110e+00	 7.9947945079e-01	 1.0068446290e+00
 1.6181650112e+00	 8.1487663886e-01	 1.0237811849e+00
 1.6103448516e+00	 8.3022377049e-01	 1.0364270433e+00
 1.6023672056e+00	 8.4551848059e-01	 1.0474897924e+00
 1.5942324928e+00	 8.6075840458e-01	 1.0598595023e+00
 1.5859411792e+00	 8.7594117953e-01	 1.0766013991e+00
 1.5774937771e+00	 8.9106444524e-01	 1.1009470609e+00
 1.5688908455e+00	 9.0612584536e-01	 1.1362841142e+00
 1.5601329897e+00	 9.2112302855e-01	 1.1861444212e+00
 1.5512208618e+00	 9.3605364958e-01	 1.2541907522e+00
 1.6412867455e+00	 7.8785329820e-01	 9.4866631290e-01
 1.6337460834e+00	 8.0337340419e-01	 9.6600639368e-01
 1.6260464635e+00	 8.1884558597e-01	 9.7846534771e-01
 1.6181882149e+00	 8.3426746751e-01	 9.8843887805e-01
 1.6101717129e+00	 8.4963667220e-01	 9.9853422527e-01
 1.6019973791e+00	 8.6495082393e-01	 1.0115646915e+00
 1.5936656817e+00	 8.8020754827e-01	 1.0305426484e+00
 1.5851771357e+00	 8.9540447352e-01	 1.0586709988e+00
 1.5765323025e+00	 9.1053923186e-01	 1.0993330690e+00
 1.5677317906e+00	 9.2560946050e-01	 1.1560809196e+00
 1.5587762552e+00	 9.4061280278e-01	 1.2326220690e+00
 1.6492420990e+00	 7.9167204075e-01	 9.2350026797e-01
 1.6416648872e+00	 8.0726737304e-01	 9.3266059574e-01
 1.6339279471e+00	 8.2281454883e-01	 9.3806976093e-01
 1.6260316094e+00	 8.3831118058e-01	 9.4225579878e-01
 1.6179762512e+00	 8.5375488014e-01	 9.4797460206e-01
 1.6097622962e+00	 8.6914325991e-01	 9.5820442761e-01
 1.6013902149e+00	 8.8447393394e-01	 9.7613882596e-01
 1.5928605247e+00	 8.9974451902e-01	 1.0051779618e+00
 1.5841737898e+00	 9.1495263588e-01	 1.0489183014e+00
 1.5753306217e+00	 9.3009591025e-01	 1.1111406523e+00
 1.5663316785e+00	 9.4517197406e-01	 1.1957965496e+00
 1.6571974796e+00	 7.9549079628e-01	 9.0765352089e-01
 1.6495837179e+00	 8.1116135513e-01	 9.0737984435e-01
 1.6418094574e+00	 8.2678352519e-01	 9.0357351955e-01
 1.6338750305e+00	 8.4235490739e-01	 8.9914696390e-01
 1.6257808160e+00	 8.5787310209e-01	 8.9724998226e-01
 1.6175272397e+00	 8.7333571015e-01	 9.0126384361e-01
 1.6091147744e+00	 8.8874033411e-01	 9.1479372416e-01
 1.6005439398e+00	 9.0408457928e-01	 9.4165948348e-01
 1.5918153031e+00	 9.1936605489e-01	 9.8588474913e-01
 1.5829294785e+00	 9.3458237525e-01	 1.0516842944e+00
 1.5738871276e+00	 9.4973116085e-01	 1.1434497034e+00
 1.6651528827e+00	 7.9930956263e-01	 9.0117491860e-01
 1.6575025710e+00	 8.1505534825e-01	 8.9072246365e-01
 1.6496909901e+00	 8.3075251279e-01	 8.7593394703e-01
 1.6417184739e+00	 8.4639864566e-01	 8.6035447797e-01
 1.6335854030e+00	 8.6199133570e-01	 8.4776936311e-01
 1.6252922052e+00	 8.7752817226e-01	 8.4219734449e-01
 1.6168393557e+00	 8.9300674637e-01	 8.4788215152e-01
 1.6082273767e+00	 9.0842465183e-01	 8.6928233315e-01
 1.5994568381e+00	 9.2377948642e-01	 9.1105934556e-01
 1.5905283569e+00	 9.3906885296e-01	 9.7806388001e-01
 1.5814425980e+00	 9.5429036055e-01	 1.0753204260e+00
 1.6731083039e+00	 8.0312833764e-01	 9.0410895042e-01
 1.6654214421e+00	 8.1894935020e-01	 8.8323304182e-01
 1.6575725407e+00	 8.3472150939e-01	 8.5608733414e-01
 1.6495619350e+00	 8.5044239310e-01	 8.2709426715e-01
 1.6413900076e+00	 8.6610957865e-01	 8.0091263695e-01
 1.6330571883e+00	 8.8172064388e-01	 7.8242958996e-01
 1.6245639546e+00	 8.9727316830e-01	 7.7675088273e-01
 1.6159108311e+00	 9.1276473423e-01	 7.8918937394e-01
 1.6070983903e+00	 9.2819292795e-01	 8.2525172432e-01
 1.5981272526e+00	 9.4355534085e-01	 8.9062329021e-01
 1.5889980856e+00	 9.5884957059e-01	 9.9115120671e-01
 1.6810637386e+00	 8.0694711914e-01	 9.1649605576e-01
 1.6733403267e+00	 8.2284335877e-01	 8.8544297332e-01
 1.6654541046e+00	 8.3869051273e-01	 8.4494966578e-01
 1.6574054094e+00	 8.5448614741e-01	 8.0055693899e-01
 1.6491946255e+00	 8.7022782860e-01	 7.5803153066e-01
 1.6408221847e+00	 8.8591312262e-01	 7.2335645869e-01
 1.6322885665e+00	 9.0153959748e-01	 7.0271959124e-01
 1.6235942984e+00	 9.1710482400e-01	 7.0250040558e-01
 1.6147399556e+00	 9.3260637698e-01	 7.2925491298e-01
 1.6057261611e+00	 9.4804183636e-01	 7.8969873661e-01
 1.5965535860e+00	 9.6340878838e-01	 8.9068834017e-01
 1.6890191823e+00	 8.1076590497e-01	 9.3837293168e-01
 1.6812592202e+00	 8.2673737175e-01	 8.9787099453e-01
 1.6733356775e+00	 8.4265952057e-01	 8.4341733617e-01
 1.6652488928e+00	 8.5852990631e-01	 7.8190862693e-01
 1.6569992522e+00	 8.7434608322e-01	 7.2045052775e-01
 1.6485871898e+00	 8.9010560612e-01	 6.6634599471e-01
 1.6400131873e+00	 9.0580603150e-01	 6.2708176498e-01
 1.6312777745e+00	 9.2144491869e-01	 6.1031299318e-01
 1.6223815295e+00	 9.3701983101e-01	 6.2384601703e-01
 1.6133250783e+00	 9.5252833696e-01	 6.7561924142e-01
 1.6041090950e+00	 9.6796801134e-01	 7.7368214120e-01
 1.6969746305e+00	 8.1458469296e-01	 9.6977284021e-01
 1.6891781183e+00	 8.3063138694e-01	 9.2102371300e-01
 1.6812172549e+00	 8.4662853067e-01	 8.5236785276e-01
 1.6730923806e+00	 8.6257366750e-01	 7.7229182009e-01
 1.6648038834e+00	 8.7846434017e-01	 6.8946777374e-01
 1.6563521993e+00	 8.9429809199e-01	 6.1273933639e-01
 1.6477378124e+00	 9.1007246793e-01	 5.5110560578e-01
 1.6389612550e+00	 9.2578501584e-01	 5.1370328224e-01
 1.6300231078e+00	 9.4143328755e-01	 5.0978689419e-01
 1.6209239997e+00	 9.5701484010e-01	 5.4870711348e-01
 1.6116646083e+00	 9.7252723688e-01	 6.3988716392e-01
 1.5361101821e+00	 9.2693540778e-01	 1.2526312886e+00
 1.5271327913e+00	 9.4165235869e-01	 1.3167046439e+00
 1.5180040630e+00	 9.5629877555e-01	 1.3810510443e+00
 1.5087247831e+00	 9.7087236277e-01	 1.4435195172e+00
 1.4992957834e+00	 9.8537083540e-01	 1.5019974377e+00
 1.4897179414e+00	 9.9979192022e-01	 1.5543978787e+00
 1.4799921803e+00	 1.0141333570e+00	 1.5987092553e+00
 1.4701194682e+00	 1.0283928993e+00	 1.6360549585e+00
 1.4601008186e+00	 1.0425683162e+00	 1.6653584727e+00
 1.4499372895e+00	 1.0566573927e+00	 1.6833276704e+00
 1.4396299835e+00	 1.0706579313e+00	 1.6865127784e+00
 1.5436655027e+00	 9.3149451705e-01	 1.2607702729e+00
 1.5346439568e+00	 9.4628385293e-01	 1.3311343636e+00
 1.5254703291e+00	 9.6100230784e-01	 1.4009028792e+00
 1.5161454092e+00	 9.7564757489e-01	 1.4680383457e+00
 1.5066700332e+00	 9.9021735790e-01	 1.5304986989e+00
 1.4970450829e+00	 1.0047093725e+00	 1.5862239004e+00
 1.4872714859e+00	 1.0191213472e+00	 1.6331214131e+00
 1.4773502151e+00	 1.0334510248e+00	 1.6694918156e+00
 1.4672822890e+00	 1.0476961631e+00	 1.6965592032e+00
 1.4570687708e+00	 1.0618545364e+00	 1.7117991259e+00
 1.4467107686e+00	 1.0759239363e+00	 1.7115387316e+00
 1.5512208618e+00	 9.3605364958e-01	 1.2541907522e+00
 1.5421551607e+00	 9.5091537079e-01	 1.3326967778e+00
 1.5329366332e+00	 9.6570586411e-01	 1.4100010396e+00
 1.5235660733e+00	 9.8042281137e-01	 1.4839358426e+00
 1.5140443207e+00	 9.9506390513e-01	 1.5523003900e+00
 1.5043722618e+00	 1.0096268498e+00	 1.6128470942e+00
 1.4945508286e+00	 1.0241093629e+00	 1.6632667461e+00
 1.4845809988e+00	 1.0385091761e+00	 1.7011726004e+00
 1.4744637960e+00	 1.0528240362e+00	 1.7252195735e+00
 1.4642002885e+00	 1.0670517066e+00	 1.7356005619e+00
 1.4537915898e+00	 1.0811899682e+00	 1.7285279615e+00
 1.5587762552e+00	 9.4061280278e-01	 1.2326220690e+00
 1.5496663985e+00	 9.5554690965e-01	 1.3204950468e+00
 1.5404029713e+00	 9.7040944171e-01	 1.4070214275e+00
 1.5309867709e+00	 9.8519806950e-01	 1.4896631853e+00
 1.5214186416e+00	 9.9991047433e-01	 1.5658349750e+00
 1.5116994739e+00	 1.0145443495e+00	 1.6328905616e+00
 1.5018302042e+00	 1.0290974013e+00	 1.6881080908e+00
 1.4918118154e+00	 1.0435673503e+00	 1.7286742553e+00
 1.4816453355e+00	 1.0579519325e+00	 1.7516674237e+00
 1.4713318385e+00	 1.0722489004e+00	 1.7561169987e+00
 1.4608724430e+00	 1.0864560239e+00	 1.7401474920e+00
 1.5663316785e+00	 9.4517197406e-01	 1.1957965496e+00
 1.5571776662e+00	 9.6017846689e-01	 1.2936474392e+00
 1.5478693389e+00	 9.7511303797e-01	 1.3906633106e+00
 1.5384074980e+00	 9.8997334657e-01	 1.4836992368e+00
 1.5287929918e+00	 1.0047570627e+00	 1.5695629168e+00
 1.5190267150e+00	 1.0194618686e+00	 1.6450016457e+00
 1.5091096088e+00	 1.0340854594e+00	 1.7066880877e+00
 1.4990426606e+00	 1.0486255446e+00	 1.7512049084e+00
 1.4888269036e+00	 1.0630798492e+00	 1.7750283312e+00
 1.4784634168e+00	 1.0774461148e+00	 1.7746892590e+00
 1.4679533244e+00	 1.0917221006e+00	 1.7489947488e+00
 1.5738871276e+00	 9.4973116085e-01	 1.1434497034e+00
 1.5646889594e+00	 9.6481003987e-01	 1.2512872446e+00
 1.5553357319e+00	 9.7981665023e-01	 1.3596490404e+00
 1.5458282504e+00	 9.9474863987e-01	 1.4645501624e+00
 1.5361673670e+00	 1.0096036677e+00	 1.5619722889e+00
 1.5263539811e+00	 1.0243794045e+00	 1.6478516334e+00
 1.5163890381e+00	 1.0390735344e+00	 1.7180656197e+00
 1.5062735304e+00	 1.0536837560e+00	 1.7684183598e+00
 1.4960084961e+00	 1.0682077833e+00	 1.7946249991e+00
 1.4855950194e+00	 1.0826433468e+00	 1.7922950036e+00
 1.4750342299e+00	 1.0969881951e+00	 1.7575981105e+00
 1.5814425980e+00	 9.5429036055e-01	 1.0753204260e+00
 1.5722002739e+00	 9.6944162597e-01	 1.1925626987e+00
 1.5628021461e+00	 9.8452027581e-01	 1.3127237889e+00
 1.5532490237e+00	 9.9952394671e-01	 1.4307490683e+00
 1.5435417632e+00	 1.0144502863e+00	 1.5415784077e+00
 1.5336812679e+00	 1.0292969543e+00	 1.6401354762e+00
 1.5236684881e+00	 1.0440616236e+00	 1.7213157155e+00
 1.5135044207e+00	 1.0587419819e+00	 1.7799730410e+00
 1.5031901089e+00	 1.0733357319e+00	 1.8109053322e+00
 1.4927266421e+00	 1.0878405936e+00	 1.8088387877e+00
 1.4821151554e+00	 1.1022543046e+00	 1.7684112267e+00
 1.5889980856e+00	 9.5884957059e-01	 9.9115120671e-01
 1.5797116054e+00	 9.7407322258e-01	 1.1166369206e+00
 1.5702685772e+00	 9.8922391205e-01	 1.2486553017e+00
 1.5606698139e+00	 1.0042992644e+00	 1.3808556602e+00
 1.5509161760e+00	 1.0192969159e+00	 1.5069234856e+00
 1.5410085713e+00	 1.0342145152e+00	 1.6205715289e+00
 1.5309479545e+00	 1.0490497242e+00	 1.7155294681e+00
 1.5207353274e+00	 1.0638002191e+00	 1.7855322056e+00
 1.5103717380e+00	 1.0784636922e+00	 1.8243068603e+00
 1.4998582811e+00	 1.0930378522e+00	 1.8255585227e+00
 1.4891960970e+00	 1.1075204260e+00	 1.7829548585e+00
 1.5965535860e+00	 9.6340878838e-01	 8.9068834017e-01
 1.5872229497e+00	 9.7870482706e-01	 1.0226878617e+00
 1.5777350210e+00	 9.9392755629e-01	 1.1662336690e+00
 1.5680906167e+00	 1.0090745901e+00	 1.3134559208e+00
 1.5582906014e+00	 1.0241435538e+00	 1.4565763039e+00
 1.5483358872e+00	 1.0391320845e+00	 1.5879013064e+00
 1.5382274334e+00	 1.0540378332e+00	 1.6998139635e+00
 1.5279662463e+00	 1.0688584650e+00	 1.7847641234e+00
 1.5175533793e+00	 1.0835916612e+00	 1.8352572903e+00
 1.5069899321e+00	 1.0982351196e+00	 1.8438421132e+00
 1.4962770506e+00	 1.1127865563e+00	 1.8030585497e+00
 1.6041090950e+00	 9.6796801134e-01	 7.7368214120e-01
 1.5947343026e+00	 9.8333643678e-01	 9.0990826595e-01
 1.5852014733e+00	 9.9863120585e-01	 1.0642711129e+00
 1.5755114279e+00	 1.0138499213e+00	 1.2271618078e+00
 1.5656650352e+00	 1.0289901971e+00	 1.3891319053e+00
 1.5556632114e+00	 1.0440496594e+00	 1.5408892568e+00
 1.5455069204e+00	 1.0590259478e+00	 1.6732922237e+00
 1.5351971735e+00	 1.0739167166e+00	 1.7773422795e+00
 1.5247350288e+00	 1.0887196359e+00	 1.8441750525e+00
 1.5141215913e+00	 1.1034323929e+00	 1.8650498758e+00
 1.5033580123e+00	 1.1180526927e+00	 1.8306892863e+00
 1.6116646083e+00	 9.7252723688e-01	 6.3988716392e-01
 1.6022456596e+00	 9.8796804913e-01	 7.7750564072e-01
 1.5926679297e+00	 1.0033348581e+00	 9.4160178971e-01
 1.5829322433e+00	 1.0186252552e+00	 1.1206109691e+00
 1.5730394731e+00	 1.0338368432e+00	 1.3032113043e+00
 1.5629905397e+00	 1.0489672371e+00	 1.4783225508e+00
 1.5527864116e+00	 1.0640140653e+00	 1.6351031593e+00
 1.5424281048e+00	 1.0789749711e+00	 1.7629455780e+00
 1.5319166823e+00	 1.0938476136e+00	 1.8514698413e+00
 1.5212532544e+00	 1.1086296691e+00	 1.8905155066e+00
 1.5104389779e+00	 1.1233188320e+00	 1.8681380131e+00
 1.4396299835e+00	 1.0706579313e+00	 1.6865127784e+00
 1.4291782595e+00	 1.0845701087e+00	 1.6910304028e+00
 1.4185850537e+00	 1.0983893700e+00	 1.7135957325e+00
 1.4078516063e+00	 1.1121135673e+00	 1.7514593828e+00
 1.3969792004e+00	 1.1257405746e+00	 1.7991487700e+00
 1.3859691615e+00	 1.1392682885e+00	 1.8518670835e+00
 1.3748228572e+00	 1.1526946297e+00	 1.9069385844e+00
 1.3635416964e+00	 1.1660175436e+00	 1.9618198676e+00
 1.3521271287e+00	 1.1792350016e+00	 2.0141186827e+00
 1.3405806439e+00	 1.1923450022e+00	 2.0616124221e+00
 1.3289037716e+00	 1.2053455716e+00	 2.1022661603e+00
 1.4467107686e+00	 1.0759239363e+00	 1.7115387316e+00
 1.4362076381e+00	 1.0899045405e+00	 1.7128094814e+00
 1.4255623298e+00	 1.1037917714e+00	 1.7337372657e+00
 1.4147760902e+00	 1.1175834709e+00	 1.7715483676e+00
 1.4038502086e+00	 1.1312775022e+00	 1.8202862443e+00
 1.3927860171e+00	 1.1448717519e+00	 1.8770568347e+00
 1.3815848900e+00	 1.1583641302e+00	 1.9398137692e+00
 1.3702482431e+00	 1.1717525725e+00	 2.0066903814e+00
 1.3587775331e+00	 1.1850350403e+00	 2.0760183063e+00
 1.3471742572e+00	 1.1982095221e+00	 2.1463456665e+00
 1.3354399525e+00	 1.2112740345e+00	 2.2164547226e+00
 1.4537915898e+00	 1.0811899682e+00	 1.7285279615e+00
 1.4432370525e+00	 1.0952389994e+00	 1.7223772379e+00
 1.4325396415e+00	 1.1091942004e+00	 1.7373256863e+00
 1.4217006094e+00	 1.1230534023e+00	 1.7699112526e+00
 1.4107212519e+00	 1.1368144581e+00	 1.8153527052e+00
 1.3996029075e+00	 1.1504752439e+00	 1.8721021308e+00
 1.3883469573e+00	 1.1640336596e+00	 1.9388442043e+00
 1.3769548240e+00	 1.1774876307e+00	 2.0144663725e+00
 1.3654279714e+00	 1.1908351086e+00	 2.0980770410e+00
 1.3537679042e+00	 1.2040740719e+00	 2.1890232992e+00
 1.3419761667e+00	 1.2172025276e+00	 2.2869080602e+00
 1.4608724430e+00	 1.0864560239e+00	 1.7401474920e+00
 1.4502664987e+00	 1.1005734825e+00	 1.7236439076e+00
 1.4395169849e+00	 1.1145966539e+00	 1.7290420663e+00
 1.4286251600e+00	 1.1285233586e+00	 1.7519533169e+00
 1.4175923263e+00	 1.1423514391e+00	 1.7900729514e+00
 1.4064198288e+00	 1.1560787612e+00	 1.8427327817e+00
 1.3951090553e+00	 1.1697032148e+00	 1.9094484631e+00
 1.3836614353e+00	 1.1832227149e+00	 1.9899374321e+00
 1.3720784399e+00	 1.1966352032e+00	 2.0841364921e+00
 1.3603615810e+00	 1.2099386484e+00	 2.1922189233e+00
 1.3485124106e+00	 1.2231310476e+00	 2.3146109896e+00
 1.4679533244e+00	 1.0917221006e+00	 1.7489947488e+00
 1.4572959729e+00	 1.1059079868e+00	 1.7204255378e+00
 1.4464943559e+00	 1.1199991288e+00	 1.7130172465e+00
 1.4355497381e+00	 1.1339933365e+00	 1.7229676888e+00
 1.4244634280e+00	 1.1478884421e+00	 1.7500540177e+00
 1.4132367772e+00	 1.1616823008e+00	 1.7945612638e+00
 1.4018711800e+00	 1.1753727924e+00	 1.8569342914e+00
 1.3903680732e+00	 1.1889578219e+00	 1.9377949292e+00
 1.3787289348e+00	 1.2024353208e+00	 2.0379587705e+00
 1.3669552840e+00	 1.2158032480e+00	 2.1584515132e+00
 1.3550486804e+00	 1.2290595912e+00	 2.3005247145e+00
 1.4750342299e+00	 1.0969881951e+00	 1.7575981105e+00
 1.4643254709e+00	 1.1112425092e+00	 1.7164448475e+00
 1.4534717506e+00	 1.1254016221e+00	 1.6937780339e+00
 1.4424743398e+00	 1.1394633331e+00	 1.6881386245e+00
 1.4313345531e+00	 1.1534254639e+00	 1.7007886091e+00
 1.4200537487e+00	 1.1672858595e+00	 1.7330861651e+00
 1.4086333278e+00	 1.1810423893e+00	 1.7865019148e+00
 1.3970747339e+00	 1.1946929483e+00	 1.8626350344e+00
 1.3853794522e+00	 1.2082354581e+00	 1.9632290834e+00
 1.3735490094e+00	 1.2216678676e+00	 2.0901874243e+00
 1.3615849724e+00	 1.2349881549e+00	 2.2455881060e+00
 1.4821151554e+00	 1.1022543046e+00	 1.7684112267e+00
 1.4713549888e+00	 1.1165770467e+00	 1.7149167177e+00
 1.4604491651e+00	 1.1308041306e+00	 1.6758049372e+00
 1.4493989610e+00	 1.1449333451e+00	 1.6525447130e+00
 1.4382056976e+00	 1.1589625014e+00	 1.6476584582e+00
 1.4268707396e+00	 1.1728894340e+00	 1.6636955512e+00
 1.4153954947e+00	 1.1867120023e+00	 1.7032472724e+00
 1.4037814136e+00	 1.2004280910e+00	 1.7689616770e+00
 1.3920299886e+00	 1.2140356118e+00	 1.8635582718e+00
 1.3801427535e+00	 1.2275325039e+00	 1.9898423662e+00
 1.3681212829e+00	 1.2409167354e+00	 2.1507189661e+00
 1.4891960970e+00	 1.1075204260e+00	 1.7829548585e+00
 1.4783845227e+00	 1.1219115964e+00	 1.7189898619e+00
 1.4674265954e+00	 1.1362066515e+00	 1.6634866744e+00
 1.4563235979e+00	 1.1504033696e+00	 1.6211620081e+00
 1.4450768577e+00	 1.1644995514e+00	 1.5959376047e+00
 1.4336877458e+00	 1.1784930213e+00	 1.5916702562e+00
 1.4221576770e+00	 1.1923816281e+00	 1.6121651790e+00
 1.4104881085e+00	 1.2061632467e+00	 1.6611894388e+00
 1.3986805400e+00	 1.2198357787e+00	 1.7424852965e+00
 1.3867365125e+00	 1.2333971534e+00	 1.8597833403e+00
 1.3746576083e+00	 1.2468453293e+00	 2.0168152772e+00
 1.4962770506e+00	 1.1127865563e+00	 1.8030585497e+00
 1.4854140686e+00	 1.1272461550e+00	 1.7319274500e+00
 1.4744040376e+00	 1.1416091815e+00	 1.6611229584e+00
 1.4632482467e+00	 1.1558734033e+00	 1.5988670926e+00
 1.4519480295e+00	 1.1700366109e+00	 1.5507956035e+00
 1.4405047637e+00	 1.1840966180e+00	 1.5221870995e+00
 1.4289198707e+00	 1.1980512636e+00	 1.5181524164e+00
 1.4171948148e+00	 1.2118984122e+00	 1.5436463865e+00
 1.4053311027e+00	 1.2256359554e+00	 1.6034796736e+00
 1.3933302828e+00	 1.2392618129e+00	 1.7023305433e+00
 1.3811939448e+00	 1.2527739333e+00	 1.8447564362e+00
 1.5033580123e+00	 1.1180526927e+00	 1.8306892863e+00
 1.4924436224e+00	 1.1325807198e+00	 1.7563507209e+00
 1.4813814877e+00	 1.1470117176e+00	 1.6729272239e+00
 1.4701729032e+00	 1.1613434433e+00	 1.5904400739e+00
 1.4588192090e+00	 1.1755736766e+00	 1.5173006605e+00
 1.4473217893e+00	 1.1897002211e+00	 1.4603220320e+00
 1.4356820722e+00	 1.2037209055e+00	 1.4260107597e+00
 1.4239015287e+00	 1.2176335841e+00	 1.4205768435e+00
 1.4119816729e+00	 1.2314361387e+00	 1.4499438626e+00
 1.3999240605e+00	 1.2451264790e+00	 1.5197592376e+00
 1.3877302886e+00	 1.2587025440e+00	 1.6354044750e+00
 1.5104389779e+00	 1.1233188320e+00	 1.8681380131e+00
 1.4994731802e+00	 1.1379152875e+00	 1.7957013217e+00
 1.4883589417e+00	 1.1524142568e+00	 1.7026971627e+00
 1.4770975637e+00	 1.1668134863e+00	 1.6005675154e+00
 1.4656903925e+00	 1.1811107454e+00	 1.5004227006e+00
 1.4541388188e+00	 1.1953038274e+00	 1.4110532140e+00
 1.4424442774e+00	 1.2093905506e+00	 1.3404499363e+00
 1.4306082465e+00	 1.2233687593e+00	 1.2961441053e+00
 1.4186322469e+00	 1.2372363253e+00	 1.2852156071e+00
 1.4065178420e+00	 1.2509911485e+00	 1.3143015897e+00
 1.3942666362e+00	 1.2646311581e+00	 1.3896052669e+00
 1.3289037716e+00	 1.2053455716e+00	 2.1022661603e+00
 1.3171000940e+00	 1.2182325872e+00	 2.1252720364e+00
 1.3051692256e+00	 1.2310063719e+00	 2.1238941962e+00
 1.2931127885e+00	 1.2436650637e+00	 2.1020398102e+00
 1.2809324416e+00	 1.2562068321e+00	 2.0632230187e+00
 1.2686298794e+00	 1.2686298794e+00	 2.0105711795e+00
 1.2562068321e+00	 1.2809324416e+00	 1.9468309849e+00
 1.2436650637e+00	 1.2931127885e+00	 1.8743743759e+00
 1.2310063719e+00	 1.3051692256e+00	 1.7952041894e+00
 1.2182325872e+00	 1.3171000940e+00	 1.7109594811e+00
 1.2053455716e+00	 1.3289037716e+00	 1.6229204706e+00
 1.3354399525e+00	 1.2112740345e+00	 2.2164547226e+00
 1.3235782188e+00	 1.2242244346e+00	 2.2717066438e+00
 1.3115886688e+00	 1.2370610469e+00	 2.3001495230e+00
 1.2994729324e+00	 1.2497820000e+00	 2.3044469789e+00
 1.2872326766e+00	 1.2623854548e+00	 2.2868702924e+00
 1.2748696047e+00	 1.2748696047e+00	 2.2493068770e+00
 1.2623854548e+00	 1.2872326766e+00	 2.1932685878e+00
 1.2497820000e+00	 1.2994729324e+00	 2.1198997909e+00
 1.2370610469e+00	 1.3115886688e+00	 2.0299851252e+00
 1.2242244346e+00	 1.3235782188e+00	 1.9239568913e+00
 1.2112740345e+00	 1.3354399525e+00	 1.8019020123e+00
 1.3419761667e+00	 1.2172025276e+00	 2.2869080602e+00
 1.3300563767e+00	 1.2302163125e+00	 2.3730839333e+00
 1.3180081446e+00	 1.2431157527e+00	 2.4302520539e+00
 1.3058331086e+00	 1.2558989676e+00	 2.4599005112e+00
 1.2935329439e+00	 1.2685641091e+00	 2.4631422602e+00
 1.2811093617e+00	 1.2811093617e+00	 2.4407257009e+00
 1.2685641091e+00	 1.2935329439e+00	 2.3930450400e+00
 1.2558989676e+00	 1.3058331086e+00	 2.3201503517e+00
 1.2431157527e+00	 1.3180081446e+00	 2.2217572650e+00
 1.2302163125e+00	 1.3300563767e+00	 2.0972562080e+00
 1.2172025276e+00	 1.3419761667e+00	 1.9457211472e+00
 1.3485124106e+00	 1.2231310476e+00	 2.3146109896e+00
 1.3365345639e+00	 1.2362082176e+00	 2.4287447568e+00
 1.3244276496e+00	 1.2491704859e+00	 2.5121079033e+00
 1.3121933137e+00	 1.2620159630e+00	 2.5650793993e+00
 1.2998332396e+00	 1.2747427914e+00	 2.5876966414e+00
 1.2873491471e+00	 1.2873491471e+00	 2.5796680277e+00
 1.2747427914e+00	 1.2998332396e+00	 2.5403852341e+00
 1.2620159630e+00	 1.3121933137e+00	 2.4689351051e+00
 1.2491704859e+00	 1.3244276496e+00	 2.3641110803e+00
 1.2362082176e+00	 1.3365345639e+00	 2.2244240834e+00
 1.2231310476e+00	 1.3485124106e+00	 2.0481128066e+00
 1.3550486804e+00	 1.2290595912e+00	 2.3005247145e+00
 1.3430127768e+00	 1.2422001465e+00	 2.4380383927e+00
 1.3308471800e+00	 1.2552252432e+00	 2.5436595698e+00
 1.3185535440e+00	 1.2681329825e+00	 2.6167229253e+00
 1.3061335604e+00	 1.2809214982e+00	 2.6562713313e+00
 1.2935889571e+00	 1.2935889571e+00	 2.6610703113e+00
 1.2809214982e+00	 1.3061335604e+00	 2.6296220962e+00
 1.2681329825e+00	 1.3185535440e+00	 2.5601791841e+00
 1.2552252432e+00	 1.3308471800e+00	 2.4507573228e+00
 1.2422001465e+00	 1.3430127768e+00	 2.2991478338e+00
 1.2290595912e+00	 1.3550486804e+00	 2.1029292119e+00
 1.3615849724e+00	 1.2349881549e+00	 2.2455881060e+00
 1.3494910117e+00	 1.2481920957e+00	 2.4003230696e+00
 1.3372667322e+00	 1.2612800210e+00	 2.5228858006e+00
 1.3249137960e+00	 1.2742500229e+00	 2.6116299621e+00
 1.3124339026e+00	 1.2871002260e+00	 2.6646832327e+00
 1.2998287885e+00	 1.2998287885e+00	 2.6799635401e+00
 1.2871002260e+00	 1.3124339026e+00	 2.6551947610e+00
 1.2742500229e+00	 1.3249137960e+00	 2.5879217937e+00
 1.2612800210e+00	 1.3372667322e+00	 2.4755249113e+00
 1.2481920957e+00	 1.3494910117e+00	 2.3152333181e+00
 1.2349881549e+00	 1.3615849724e+00	 2.1041378321e+00
 1.3681212829e+00	 1.2409167354e+00	 2.1507189661e+00
 1.3559692650e+00	 1.2541840620e+00	 2.3149664960e+00
 1.3436863027e+00	 1.2673348161e+00	 2.4478014806e+00
 1.3312740660e+00	 1.2803670806e+00	 2.5466583143e+00
 1.3187342626e+00	 1.2932789713e+00	 2.6088271423e+00
 1.3060686374e+00	 1.3060686374e+00	 2.6314717589e+00
 1.2932789713e+00	 1.3187342626e+00	 2.6116468212e+00
 1.2803670806e+00	 1.3312740660e+00	 2.5463142750e+00
 1.2673348161e+00	 1.3436863027e+00	 2.4323589014e+00
 1.2541840620e+00	 1.3559692650e+00	 2.2666028988e+00
 1.2409167354e+00	 1.3681212829e+00	 2.0458194228e+00
 1.3746576083e+00	 1.2468453293e+00	 2.0168152772e+00
 1.3624475330e+00	 1.2601760418e+00	 2.1813463961e+00
 1.3501058877e+00	 1.2733896248e+00	 2.3164575457e+00
 1.3376343504e+00	 1.2864841522e+00	 2.4187241007e+00
 1.3250346370e+00	 1.2994577307e+00	 2.4846746900e+00
 1.3123085006e+00	 1.3123085006e+00	 2.5108106556e+00
 1.2994577307e+00	 1.3250346370e+00	 2.4936246470e+00
 1.2864841522e+00	 1.3376343504e+00	 2.4296182473e+00
 1.2733896248e+00	 1.3501058877e+00	 2.3153185332e+00
 1.2601760418e+00	 1.3624475330e+00	 2.1472934816e+00
 1.2468453293e+00	 1.3746576083e+00	 1.9221661415e+00
 1.3811939448e+00	 1.2527739333e+00	 1.8447564362e+00
 1.3689258119e+00	 1.2661680317e+00	 1.9988510509e+00
 1.3565254836e+00	 1.2794444438e+00	 2.1269409205e+00
 1.3439946455e+00	 1.2926012342e+00	 2.2248011740e+00
 1.3313350220e+00	 1.3056365005e+00	 2.2882733298e+00
 1.3185483743e+00	 1.3185483743e+00	 2.3132862077e+00
 1.3056365005e+00	 1.3313350220e+00	 2.2958757758e+00
 1.2926012342e+00	 1.3439946455e+00	 2.2322038233e+00
 1.2794444438e+00	 1.3565254836e+00	 2.1185753573e+00
 1.2661680317e+00	 1.3689258119e+00	 1.9514546338e+00
 1.2527739333e+00	 1.3811939448e+00	 1.7274797382e+00
 1.3877302886e+00	 1.2587025440e+00	 1.6354044750e+00
 1.3754040983e+00	 1.2721600285e+00	 1.7668798462e+00
 1.3629450867e+00	 1.2854992697e+00	 1.8773744774e+00
 1.3503549480e+00	 1.2987183231e+00	 1.9619205791e+00
 1.3376354142e+00	 1.3118152773e+00	 2.0157453800e+00
 1.3247882551e+00	 1.3247882551e+00	 2.0342933894e+00
 1.3118152773e+00	 1.3376354142e+00	 2.0132473680e+00
 1.2987183231e+00	 1.3503549480e+00	 1.9485478964e+00
 1.2854992697e+00	 1.3629450867e+00	 1.8364114339e+00
 1.2721600285e+00	 1.3754040983e+00	 1.6733467751e+00
 1.2587025440e+00	 1.3877302886e+00	 1.4561698191e+00
 1.3942666362e+00	 1.2646311581e+00	 1.3896052669e+00
 1.3818823883e+00	 1.2781520287e+00	 1.4848438241e+00
 1.3693646936e+00	 1.2915540990e+00	 1.5659170189e+00
 1.3567152540e+00	 1.3048354155e+00	 1.6271700467e+00
 1.3439358099e+00	 1.3179940577e+00	 1.6632871117e+00
 1.3310281395e+00	 1.3310281395e+00	 1.6693149355e+00
 1.3179940577e+00	 1.3439358099e+00	 1.6406847273e+00
 1.3048354155e+00	 1.3567152540e+00	 1.5732324972e+00
 1.2915540990e+00	 1.3693646936e+00	 1.4632176042e+00
 1.2781520287e+00	 1.3818823883e+00	 1.3073394424e+00
 1.2646311581e+00	 1.3942666362e+00	 1.1027521794e+00
 1.2053455716e+00	 1.3289037716e+00	 1.6229204706e+00
 1.1923450022e+00	 1.3405806439e+00	 1.5460961748e+00
 1.1792350016e+00	 1.3521271287e+00	 1.4912281386e+00
 1.1660175436e+00	 1.3635416964e+00	 1.4533235707e+00
 1.1526946297e+00	 1.3748228572e+00	 1.4279840192e+00
 1.1392682885e+00	 1.3859691615e+00	 1.4114129323e+00
 1.1257405746e+00	 1.3969792004e+00	 1.4004213006e+00
 1.1121135673e+00	 1.4078516063e+00	 1.3924313762e+00
 1.0983893700e+00	 1.4185850537e+00	 1.3925868794e+00
 1.0845701087e+00	 1.4291782595e+00	 1.4096746838e+00
 1.0706579313e+00	 1.4396299835e+00	 1.4440244667e+00
 1.2112740345e+00	 1.3354399525e+00	 1.8019020123e+00
 1.1982095221e+00	 1.3471742572e+00	 1.6838705461e+00
 1.1850350403e+00	 1.3587775331e+00	 1.5877283210e+00
 1.1717525725e+00	 1.3702482431e+00	 1.5103394061e+00
 1.1583641302e+00	 1.3815848900e+00	 1.4490733289e+00
 1.1448717519e+00	 1.3927860171e+00	 1.4018104664e+00
 1.1312775022e+00	 1.4038502086e+00	 1.3669456125e+00
 1.1175834709e+00	 1.4147760902e+00	 1.3433897184e+00
 1.1037917714e+00	 1.4255623298e+00	 1.3329409812e+00
 1.0899045405e+00	 1.4362076381e+00	 1.3486510516e+00
 1.0759239363e+00	 1.4467107686e+00	 1.3938070755e+00
 1.2172025276e+00	 1.3419761667e+00	 1.9457211472e+00
 1.2040740719e+00	 1.3537679042e+00	 1.7916980327e+00
 1.1908351086e+00	 1.3654279714e+00	 1.6593271363e+00
 1.1774876307e+00	 1.3769548240e+00	 1.5470723226e+00
 1.1640336596e+00	 1.3883469573e+00	 1.4538216910e+00
 1.1504752439e+00	 1.3996029075e+00	 1.3788911320e+00
 1.1368144581e+00	 1.4107212519e+00	 1.3220261408e+00
 1.1230534023e+00	 1.4217006094e+00	 1.2834018866e+00
 1.1091942004e+00	 1.4325396415e+00	 1.2637846809e+00
 1.0952389994e+00	 1.4432370525e+00	 1.2751060295e+00
 1.0811899682e+00	 1.4537915898e+00	 1.3260733219e+00
 1.2231310476e+00	 1.3485124106e+00	 2.0481128066e+00
 1.2099386484e+00	 1.3603615810e+00	 1.8636218490e+00
 1.1966352032e+00	 1.3720784399e+00	 1.7004683911e+00
 1.1832227149e+00	 1.3836614353e+00	 1.5584629493e+00
 1.1697032148e+00	 1.3951090553e+00	 1.4377666369e+00
 1.1560787612e+00	 1.4064198288e+00	 1.3388932173e+00
 1.1423514391e+00	 1.4175923263e+00	 1.2627094821e+00
 1.1285233586e+00	 1.4286251600e+00	 1.2104339549e+00
 1.1145966539e+00	 1.4395169849e+00	 1.1836339370e+00
 1.1005734825e+00	 1.4502664987e+00	 1.1892645508e+00
 1.0864560239e+00	 1.4608724430e+00	 1.2423328429e+00
 1.2290595912e+00	 1.3550486804e+00	 2.1029292119e+00
 1.2158032480e+00	 1.3669552840e+00	 1.8937963715e+00
 1.2024353208e+00	 1.3787289348e+00	 1.7056990934e+00
 1.1889578219e+00	 1.3903680732e+00	 1.5395452475e+00
 1.1753727924e+00	 1.4018711800e+00	 1.3965271778e+00
 1.1616823008e+00	 1.4132367772e+00	 1.2781225827e+00
 1.1478884421e+00	 1.4244634280e+00	 1.1860937725e+00
 1.1339933365e+00	 1.4355497381e+00	 1.1224853100e+00
 1.1199991288e+00	 1.4464943559e+00	 1.0896200503e+00
 1.1059079868e+00	 1.4572959729e+00	 1.0913263107e+00
 1.0917221006e+00	 1.4679533244e+00	 1.1440453547e+00
 1.2349881549e+00	 1.3615849724e+00	 2.1041378321e+00
 1.2216678676e+00	 1.3735490094e+00	 1.8764852413e+00
 1.2082354581e+00	 1.3853794522e+00	 1.6696677420e+00
 1.1946929483e+00	 1.3970747339e+00	 1.4854450304e+00
 1.1810423893e+00	 1.4086333278e+00	 1.3258026019e+00
 1.1672858595e+00	 1.4200537487e+00	 1.1929517831e+00
 1.1534254639e+00	 1.4313345531e+00	 1.0893281834e+00
 1.1394633331e+00	 1.4424743398e+00	 1.0175885713e+00
 1.1254016221e+00	 1.4534717506e+00	 9.8060619410e-01
 1.1112425092e+00	 1.4643254709e+00	 9.8146456676e-01
 1.0969881951e+00	 1.4750342299e+00	 1.0326209072e+00
 1.2409167354e+00	 1.3681212829e+00	 2.0458194228e+00
 1.2275325039e+00	 1.3801427535e+00	 1.8060595424e+00
 1.2140356118e+00	 1.3920299886e+00	 1.5871226861e+00
 1.2004280910e+00	 1.4037814136e+00	 1.3913785480e+00
 1.1867120023e+00	 1.4153954947e+00	 1.2213713272e+00
 1.1728894340e+00	 1.4268707396e+00	 1.0798192355e+00
 1.1589625014e+00	 1.4382056976e+00	 9.6961245254e-01
 1.1449333451e+00	 1.4493989610e+00	 8.9380953542e-01
 1.1308041306e+00	 1.4604491651e+00	 8.5563230040e-01
 1.1165770467e+00	 1.4713549888e+00	 8.5845920607e-01
 1.1022543046e+00	 1.4821151554e+00	 9.0941645079e-01
 1.2468453293e+00	 1.3746576083e+00	 1.9221661415e+00
 1.2333971534e+00	 1.3867365125e+00	 1.6769960543e+00
 1.2198357787e+00	 1.3986805400e+00	 1.4529105539e+00
 1.2061632467e+00	 1.4104881085e+00	 1.2526511326e+00
 1.1923816281e+00	 1.4221576770e+00	 1.0790898091e+00
 1.1784930213e+00	 1.4336877458e+00	 9.3522843275e-01
 1.1644995514e+00	 1.4450768577e+00	 8.2419645028e-01
 1.1504033696e+00	 1.4563235979e+00	 7.4924714238e-01
 1.1362066515e+00	 1.4674265954e+00	 7.1375234860e-01
 1.1219115964e+00	 1.4783845227e+00	 7.2119571019e-01
 1.1075204260e+00	 1.4891960970e+00	 7.7521189777e-01
 1.2527739333e+00	 1.3811939448e+00	 1.7274797382e+00
 1.2392618129e+00	 1.3933302828e+00	 1.4838755748e+00
 1.2256359554e+00	 1.4053311027e+00	 1.2619747468e+00
 1.2118984122e+00	 1.4171948148e+00	 1.0646559050e+00
 1.1980512636e+00	 1.4289198707e+00	 8.9489149986e-01
 1.1840966180e+00	 1.4405047637e+00	 7.5574720069e-01
 1.1700366109e+00	 1.4519480295e+00	 6.5037977927e-01
 1.1558734033e+00	 1.4632482467e+00	 5.8203346527e-01
 1.1416091815e+00	 1.4744040376e+00	 5.5403479211e-01
 1.1272461550e+00	 1.4854140686e+00	 5.6965948291e-01
 1.1127865563e+00	 1.4962770506e+00	 6.3080290501e-01
 1.2587025440e+00	 1.3877302886e+00	 1.4561698191e+00
 1.2451264790e+00	 1.3999240605e+00	 1.2213813116e+00
 1.2314361387e+00	 1.4119816729e+00	 1.0093539974e+00
 1.2176335841e+00	 1.4239015287e+00	 8.2287253825e-01
 1.2037209055e+00	 1.4356820722e+00	 6.6478585897e-01
 1.1897002211e+00	 1.4473217893e+00	 5.3800699719e-01
 1.1755736766e+00	 1.4588192090e+00	 4.4551140659e-01
 1.1613434433e+00	 1.4701729032e+00	 3.9033372044e-01
 1.1470117176e+00	 1.4813814877e+00	 3.7556299399e-01
 1.1325807198e+00	 1.4924436224e+00	 4.0338340940e-01
 1.1180526927e+00	 1.5033580123e+00	 4.7566901850e-01
 1.2646311581e+00	 1.3942666362e+00	 1.1027521794e+00
 1.2509911485e+00	 1.4065178420e+00	 8.8429734083e-01
 1.2372363253e+00	 1.4186322469e+00	 6.9018098957e-01
 1.2233687593e+00	 1.4306082465e+00	 5.2286607745e-01
 1.2093905506e+00	 1.4424442774e+00	 3.8485741252e-01
 1.1953038274e+00	 1.4541388188e+00	 2.7870225240e-01
 1.1811107454e+00	 1.4656903925e+00	 2.0698932731e-01
 1.1668134863e+00	 1.4770975637e+00	 1.7234629868e-01
 1.1524142568e+00	 1.4883589417e+00	 1.7710811833e-01
 1.1379152875e+00	 1.4994731802e+00	 2.2247570643e-01
 1.1233188320e+00	 1.5104389779e+00	 3.1052571049e-01
 1.0706579313e+00	 1.4396299835e+00	 1.4440244667e+00
 1.0566573927e+00	 1.4499372895e+00	 1.4764470501e+00
 1.0425683162e+00	 1.4601008186e+00	 1.4899513131e+00
 1.0283928993e+00	 1.4701194682e+00	 1.4880315709e+00
 1.0141333570e+00	 1.4799921803e+00	 1.4736819780e+00
 9.9979192022e-01	 1.4897179414e+00	 1.4485278659e+00
 9.8537083540e-01	 1.4992957834e+00	 1.4128798608e+00
 9.7087236277e-01	 1.5087247831e+00	 1.3679012933e+00
 9.5629877555e-01	 1.5180040630e+00	 1.3142937813e+00
 9.4165235869e-01	 1.5271327913e+00	 1.2522852695e+00
 9.2693540778e-01	 1.5361101821e+00	 1.1816447300e+00
 1.0759239363e+00	 1.4467107686e+00	 1.3938070755e+00
 1.0618545364e+00	 1.4570687708e+00	 1.4450684633e+00
 1.0476961631e+00	 1.4672822890e+00	 1.4795317395e+00
 1.0334510248e+00	 1.4773502151e+00	 1.4992212840e+00
 1.0191213472e+00	 1.4872714859e+00	 1.5053797992e+00
 1.0047093725e+00	 1.4970450829e+00	 1.4973838097e+00
 9.9021735790e-01	 1.5066700332e+00	 1.4756184045e+00
 9.7564757489e-01	 1.5161454092e+00	 1.4402951624e+00
 9.6100230784e-01	 1.5254703291e+00	 1.3912719121e+00
 9.4628385293e-01	 1.5346439568e+00	 1.3280679483e+00
 9.3149451705e-01	 1.5436655027e+00	 1.2498789575e+00
 1.0811899682e+00	 1.4537915898e+00	 1.3260733219e+00
 1.0670517066e+00	 1.4642002885e+00	 1.3904770298e+00
 1.0528240362e+00	 1.4744637960e+00	 1.4410483206e+00
 1.0385091761e+00	 1.4845809988e+00	 1.4784242408e+00
 1.0241093629e+00	 1.4945508286e+00	 1.5013218468e+00
 1.0096268498e+00	 1.5043722618e+00	 1.5090777589e+00
 9.9506390513e-01	 1.5140443207e+00	 1.5012915476e+00
 9.8042281137e-01	 1.5235660733e+00	 1.4773073356e+00
 9.6570586411e-01	 1.5329366332e+00	 1.4362299211e+00
 9.5091537079e-01	 1.5421551607e+00	 1.3769404575e+00
 9.3605364958e-01	 1.5512208618e+00	 1.2981116527e+00
 1.0864560239e+00	 1.4608724430e+00	 1.2423328429e+00
 1.0722489004e+00	 1.4713318385e+00	 1.3154018245e+00
 1.0579519325e+00	 1.4816453355e+00	 1.3781921135e+00
 1.0435673503e+00	 1.4918118154e+00	 1.4291296755e+00
 1.0290974013e+00	 1.5018302042e+00	 1.4662866551e+00
 1.0145443495e+00	 1.5116994739e+00	 1.4885901169e+00
 9.9991047433e-01	 1.5214186416e+00	 1.4947880566e+00
 9.8519806950e-01	 1.5309867709e+00	 1.4834667378e+00
 9.7040944171e-01	 1.5404029713e+00	 1.4530674634e+00
 9.5554690965e-01	 1.5496663985e+00	 1.4019027396e+00
 9.4061280278e-01	 1.5587762552e+00	 1.3281717962e+00
 1.0917221006e+00	 1.4679533244e+00	 1.1440453547e+00
 1.0774461148e+00	 1.4784634168e+00	 1.2224986502e+00
 1.0630798492e+00	 1.4888269036e+00	 1.2939774166e+00
 1.0486255446e+00	 1.4990426606e+00	 1.3554177797e+00
 1.0340854594e+00	 1.5091096088e+00	 1.4049819640e+00
 1.0194618686e+00	 1.5190267150e+00	 1.4408004169e+00
 1.0047570627e+00	 1.5287929918e+00	 1.4608976030e+00
 9.8997334657e-01	 1.5384074980e+00	 1.4632101201e+00
 9.7511303797e-01	 1.5478693389e+00	 1.4456041123e+00
 9.6017846689e-01	 1.5571776662e+00	 1.4058919389e+00
 9.4517197406e-01	 1.5663316785e+00	 1.3418480627e+00
 1.0969881951e+00	 1.4750342299e+00	 1.0326209072e+00
 1.0826433468e+00	 1.4855950194e+00	 1.1141802462e+00
 1.0682077833e+00	 1.4960084961e+00	 1.1913817856e+00
 1.0536837560e+00	 1.5062735304e+00	 1.2614779458e+00
 1.0390735344e+00	 1.5163890381e+00	 1.3220207749e+00
 1.0243794045e+00	 1.5263539811e+00	 1.3704901849e+00
 1.0096036677e+00	 1.5361673670e+00	 1.4043135759e+00
 9.9474863987e-01	 1.5458282504e+00	 1.4208846972e+00
 9.7981665023e-01	 1.5553357319e+00	 1.4175816967e+00
 9.6481003987e-01	 1.5646889594e+00	 1.3917843136e+00
 9.4973116085e-01	 1.5738871276e+00	 1.3408901818e+00
 1.1022543046e+00	 1.4821151554e+00	 9.0941645079e-01
 1.0878405936e+00	 1.4927266421e+00	 9.9220441738e-01
 1.0733357319e+00	 1.5031901089e+00	 1.0738465706e+00
 1.0587419819e+00	 1.5135044207e+00	 1.1514155919e+00
 1.0440616236e+00	 1.5236684881e+00	 1.2219240750e+00
 1.0292969543e+00	 1.5336812679e+00	 1.2823457350e+00
 1.0144502863e+00	 1.5435417632e+00	 1.3296358275e+00
 9.9952394671e-01	 1.5532490237e+00	 1.3607507233e+00
 9.8452027581e-01	 1.5628021461e+00	 1.3726665852e+00
 9.6944162597e-01	 1.5722002739e+00	 1.3623971064e+00
 9.5429036055e-01	 1.5814425980e+00	 1.3270102730e+00
 1.1075204260e+00	 1.4891960970e+00	 7.7521189777e-01
 1.0930378522e+00	 1.4998582811e+00	 8.5895716347e-01
 1.0784636922e+00	 1.5103717380e+00	 9.4474417050e-01
 1.0638002191e+00	 1.5207353274e+00	 1.0292546379e+00
 1.0490497242e+00	 1.5309479545e+00	 1.1091234983e+00
 1.0342145152e+00	 1.5410085713e+00	 1.1809608984e+00
 1.0192969159e+00	 1.5509161760e+00	 1.2413733548e+00
 1.0042992644e+00	 1.5606698139e+00	 1.2869840073e+00
 9.8922391205e-01	 1.5702685772e+00	 1.3144519183e+00
 9.7407322258e-01	 1.5797116054e+00	 1.3204903745e+00
 9.5884957059e-01	 1.5889980856e+00	 1.3018841553e+00
 1.1127865563e+00	 1.4962770506e+00	 6.3080290501e-01
 1.0982351196e+00	 1.5069899321e+00	 7.1686743306e-01
 1.0835916612e+00	 1.5175533793e+00	 8.0738016054e-01
 1.0688584650e+00	 1.5279662463e+00	 8.9893992480e-01
 1.0540378332e+00	 1.5382274334e+00	 9.8796392401e-01
 1.0391320845e+00	 1.5483358872e+00	 1.0708396892e+00
 1.0241435538e+00	 1.5582906014e+00	 1.1439469173e+00
 1.0090745901e+00	 1.5680906167e+00	 1.2036783703e+00
 9.9392755629e-01	 1.5777350210e+00	 1.2464597897e+00
 9.7870482706e-01	 1.5872229497e+00	 1.2687687808e+00
 9.6340878838e-01	 1.5965535860e+00	 1.2671526321e+00
 1.1180526927e+00	 1.5033580123e+00	 4.7566901850e-01
 1.1034323929e+00	 1.5141215913e+00	 5.6831584022e-01
 1.0887196359e+00	 1.5247350288e+00	 6.6499537439e-01
 1.0739167166e+00	 1.5351971735e+00	 7.6433957947e-01
 1.0590259478e+00	 1.5455069204e+00	 8.6270601567e-01
 1.0440496594e+00	 1.5556632114e+00	 9.5639890779e-01
 1.0289901971e+00	 1.5656650352e+00	 1.0416915957e+00
 1.0138499213e+00	 1.5755114279e+00	 1.1148480472e+00
 9.9863120585e-01	 1.5852014733e+00	 1.1721433798e+00
 9.8333643678e-01	 1.5947343026e+00	 1.2098833472e+00
 9.6796801134e-01	 1.6041090950e+00	 1.2244227524e+00
 1.1233188320e+00	 1.5104389779e+00	 3.1052571049e-01
 1.1086296691e+00	 1.5212532544e+00	 4.1563632143e-01
 1.0938476136e+00	 1.5319166823e+00	 5.2076794113e-01
 1.0789749711e+00	 1.5424281048e+00	 6.2924732698e-01
 1.0640140653e+00	 1.5527864116e+00	 7.3752870288e-01
 1.0489672371e+00	 1.5629905397e+00	 8.4197068493e-01
 1.0338368432e+00	 1.5730394731e+00	 9.3885929089e-01
 1.0186252552e+00	 1.5829322433e+00	 1.0244300333e+00
 1.0033348581e+00	 1.5926679297e+00	 1.0948890423e+00
 9.8796804913e-01	 1.6022456596e+00	 1.1464331714e+00
 9.7252723688e-01	 1.6116646083e+00	 1.1752690496e+00
 9.2693540778e-01	 1.5361101821e+00	 1.1816447300e+00
 9.1215022821e-01	 1.5449354956e+00	 1.1111282045e+00
 8.9729913487e-01	 1.5536080398e+00	 1.0496579546e+00
 8.8238445016e-01	 1.5621271689e+00	 9.9700426415e-01
 8.6740850250e-01	 1.5704922835e+00	 9.5306091364e-01
 8.5237362528e-01	 1.5787028302e+00	 9.1785306811e-01
 8.3728215572e-01	 1.5867583015e+00	 8.9154427533e-01
 8.2213643373e-01	 1.5946582360e+00	 8.7444258245e-01
 8.0693880086e-01	 1.6024022183e+00	 8.6700578405e-01
 7.9169159915e-01	 1.6099898785e+00	 8.6984581909e-01
 7.7639717010e-01	 1.6174208922e+00	 8.8373233795e-01
 9.3149451705e-01	 1.5436655027e+00	 1.2498789575e+00
 9.1663661694e-01	 1.5525342233e+00	 1.1680840889e+00
 9.0171247886e-01	 1.5612494232e+00	 1.0949810140e+00
 8.8672443663e-01	 1.5698104534e+00	 1.0309340727e+00
 8.7167483014e-01	 1.5782167117e+00	 9.7634773066e-01
 8.5656600424e-01	 1.5864676417e+00	 9.3167476518e-01
 8.4140030765e-01	 1.5945627336e+00	 8.9742365084e-01
 8.2618009180e-01	 1.6025015238e+00	 8.7416515328e-01
 8.1090770974e-01	 1.6102835947e+00	 8.6253814247e-01
 7.9558551504e-01	 1.6179085745e+00	 8.6325464219e-01
 7.8021586071e-01	 1.6253761376e+00	 8.7710413589e-01
 9.3605364958e-01	 1.5512208618e+00	 1.2981116527e+00
 9.2112302855e-01	 1.5601329897e+00	 1.2124518876e+00
 9.0612584536e-01	 1.5688908455e+00	 1.1342617514e+00
 8.9106444524e-01	 1.5774937771e+00	 1.0644274928e+00
 8.7594117953e-01	 1.5859411792e+00	 1.0038061699e+00
 8.6075840458e-01	 1.5942324928e+00	 9.5323405543e-01
 8.4551848059e-01	 1.6023672056e+00	 9.1353431270e-01
 8.3022377049e-01	 1.6103448516e+00	 8.8552395068e-01
 8.1487663886e-01	 1.6181650112e+00	 8.7002006860e-01
 7.9947945079e-01	 1.6258273110e+00	 8.6784540669e-01
 7.8403457080e-01	 1.6333314235e+00	 8.7983322243e-01
 9.4061280278e-01	 1.5587762552e+00	 1.3281717962e+00
 9.2560946050e-01	 1.5677317906e+00	 1.2448453832e+00
 9.1053923186e-01	 1.5765323025e+00	 1.1670823412e+00
 8.9540447352e-01	 1.5851771357e+00	 1.0962191471e+00
 8.8020754827e-01	 1.5936656817e+00	 1.0335076907e+00
 8.6495082393e-01	 1.6019973791e+00	 9.8012382133e-01
 8.4963667220e-01	 1.6101717129e+00	 9.3717521773e-01
 8.3426746751e-01	 1.6181882149e+00	 9.0570858927e-01
 8.1884558597e-01	 1.6260464635e+00	 8.8671621912e-01
 8.0337340419e-01	 1.6337460834e+00	 8.8114186586e-01
 7.8785329820e-01	 1.6412867455e+00	 8.8988604305e-01
 9.4517197406e-01	 1.5663316785e+00	 1.3418480627e+00
 9.3009591025e-01	 1.5753306217e+00	 1.2658613749e+00
 9.1495263588e-01	 1.5841737898e+00	 1.1930277330e+00
 8.9974451902e-01	 1.5928605247e+00	 1.1250626207e+00
 8.8447393394e-01	 1.6013902149e+00	 1.0635553261e+00
 8.6914325991e-01	 1.6097622962e+00	 1.0099775525e+00
 8.5375488014e-01	 1.6179762512e+00	 9.6569138631e-01
 8.3831118058e-01	 1.6260316094e+00	 9.3195663031e-01
 8.2281454883e-01	 1.6339279471e+00	 9.0993751317e-01
 8.0726737304e-01	 1.6416648872e+00	 9.0070879295e-01
 7.9167204075e-01	 1.6492420990e+00	 9.0526127377e-01
 9.4973116085e-01	 1.5738871276e+00	 1.3408901818e+00
 9.3458237525e-01	 1.5829294785e+00	 1.2760804672e+00
 9.1936605489e-01	 1.5918153031e+00	 1.2116859533e+00
 9.0408457928e-01	 1.6005439398e+00	 1.1497303607e+00
 8.8874033411e-01	 1.6091147744e+00	 1.0920832653e+00
 8.7333571015e-01	 1.6175272397e+00	 1.0404686962e+00
 8.5787310209e-01	 1.6257808160e+00	 9.9647310645e-01
 8.4235490739e-01	 1.6338750305e+00	 9.6155272420e-01
 8.2678352519e-01	 1.6418094574e+00	 9.3704029844e-01
 8.1116135513e-01	 1.6495837179e+00	 9.2415125568e-01
 7.9549079628e-01	 1.6571974796e+00	 9.2398928893e-01
 9.5429036055e-01	 1.5814425980e+00	 1.3270102730e+00
 9.3906885296e-01	 1.5905283569e+00	 1.2760678499e+00
 9.2377948642e-01	 1.5994568381e+00	 1.2226484114e+00
 9.0842465183e-01	 1.6082273767e+00	 1.1690135909e+00
 8.9300674637e-01	 1.6168393557e+00	 1.1172564602e+00
 8.7752817226e-01	 1.6252922052e+00	 1.0693100387e+00
 8.6199133570e-01	 1.6335854030e+00	 1.0269551719e+00
 8.4639864566e-01	 1.6417184739e+00	 9.9182778855e-01
 8.3075251279e-01	 1.6496909901e+00	 9.6542555181e-01
 8.1505534825e-01	 1.6575025710e+00	 9.4911392208e-01
 7.9930956263e-01	 1.6651528827e+00	 9.4413165435e-01
 9.5884957059e-01	 1.5889980856e+00	 1.3018841553e+00
 9.4355534085e-01	 1.5981272526e+00	 1.2663740664e+00
 9.2819292795e-01	 1.6070983903e+00	 1.2255102084e+00
 9.1276473423e-01	 1.6159108311e+00	 1.1817222411e+00
 8.9727316830e-01	 1.6245639546e+00	 1.1372702548e+00
 8.8172064388e-01	 1.6330571883e+00	 1.0942531148e+00
 8.6610957865e-01	 1.6413900076e+00	 1.0546161531e+00
 8.5044239310e-01	 1.6495619350e+00	 1.0201582206e+00
 8.3472150939e-01	 1.6575725407e+00	 9.9253811352e-01
 8.1894935020e-01	 1.6654214421e+00	 9.7328039643e-01
 8.0312833764e-01	 1.6731083039e+00	 9.6378064510e-01
 9.6340878838e-01	 1.5965535860e+00	 1.2671526321e+00
 9.4804183636e-01	 1.6057261611e+00	 1.2475357745e+00
 9.3260637698e-01	 1.6147399556e+00	 1.2198704499e+00
 9.1710482400e-01	 1.6235942984e+00	 1.1866848901e+00
 9.0153959748e-01	 1.6322885665e+00	 1.1503500368e+00
 8.8591312262e-01	 1.6408221847e+00	 1.1130876458e+00
 8.7022782860e-01	 1.6491946255e+00	 1.0769776999e+00
 8.5448614741e-01	 1.6574054094e+00	 1.0439651427e+00
 8.3869051273e-01	 1.6654541046e+00	 1.0158659535e+00
 8.2284335877e-01	 1.6733403267e+00	 9.9437258441e-01
 8.0694711914e-01	 1.6810637386e+00	 9.8105878701e-01
 9.6796801134e-01	 1.6041090950e+00	 1.2244227524e+00
 9.5252833696e-01	 1.6133250783e+00	 1.2200764965e+00
 9.3701983101e-01	 1.6223815295e+00	 1.2053325613e+00
 9.2144491869e-01	 1.6312777745e+00	 1.1827487215e+00
 9.0580603150e-01	 1.6400131873e+00	 1.1547509096e+00
 8.9010560612e-01	 1.6485871898e+00	 1.1236410052e+00
 8.7434608322e-01	 1.6569992522e+00	 1.0916038750e+00
 8.5852990631e-01	 1.6652488928e+00	 1.0607136800e+00
 8.4265952057e-01	 1.6733356775e+00	 1.0329394691e+00
 8.2673737175e-01	 1.6812592202e+00	 1.0101500864e+00
 8.1076590497e-01	 1.6890191823e+00	 9.9411842119e-01
 9.7252723688e-01	 1.6116646083e+00	 1.1752690496e+00
 9.5701484010e-01	 1.6209239997e+00	 1.1845073616e+00
 9.4143328755e-01	 1.6300231078e+00	 1.1815046072e+00
 9.2578501584e-01	 1.6389612550e+00	 1.1687794939e+00
 9.1007246793e-01	 1.6477378124e+00	 1.1487573870e+00
 8.9429809199e-01	 1.6563521993e+00	 1.1237777094e+00
 8.7846434017e-01	 1.6648038834e+00	 1.0961005174e+00
 8.6257366750e-01	 1.6730923806e+00	 1.0679122693e+00
 8.4662853067e-01	 1.6812172549e+00	 1.0413308129e+00
 8.3063138694e-01	 1.6891781183e+00	 1.0184096181e+00
 8.1458469296e-01	 1.6969746305e+00	 1.0011412908e+00
 7.7639717010e-01	 1.6174208922e+00	 8.8373233795e-01
 7.6105524190e-01	 1.6246962038e+00	 9.0696998002e-01
 7.4567074850e-01	 1.6318143016e+00	 9.3690773901e-01
 7.3024602370e-01	 1.6387749955e+00	 9.7132556095e-01
 7.1478339657e-01	 1.6455781398e+00	 1.0045650049e+00
 6.9928519036e-01	 1.6522236333e+00	 1.0358209361e+00
 6.8375372154e-01	 1.6587114185e+00	 1.0646469125e+00
 6.6819129874e-01	 1.6650414817e+00	 1.0905780082e+00
 6.5260022188e-01	 1.6712138520e+00	 1.1131282202e+00
 6.3698278107e-01	 1.6772286017e+00	 1.1317881053e+00
 6.2134125579e-01	 1.6830858451e+00	 1.1460226409e+00
 7.8021586071e-01	 1.6253761376e+00	 8.7710413589e-01
 7.6479847361e-01	 1.6326872326e+00	 9.0108229774e-01
 7.4933831195e-01	 1.6398403406e+00	 9.3117589458e-01
 7.3383772102e-01	 1.6468352705e+00	 9.6603461501e-01
 7.1829904134e-01	 1.6536718759e+00	 9.9989895747e-01
 7.0272460758e-01	 1.6603500551e+00	 1.0312402434e+00
 6.8711674760e-01	 1.6668697503e+00	 1.0596247463e+00
 6.7147778141e-01	 1.6732309477e+00	 1.0846276379e+00
 6.5581002021e-01	 1.6794336767e+00	 1.1058299317e+00
 6.4011576540e-01	 1.6854780098e+00	 1.1228156304e+00
 6.2439730766e-01	 1.6913640619e+00	 1.1351690741e+00
 7.8403457080e-01	 1.6333314235e+00	 8.7983322243e-01
 7.6854172442e-01	 1.6406783021e+00	 9.0238292243e-01
 7.5300589411e-01	 1.6478664205e+00	 9.3080365703e-01
 7.3742943666e-01	 1.6548955866e+00	 9.6416602925e-01
 7.2181470403e-01	 1.6617656533e+00	 9.9733643526e-01
 7.0616404233e-01	 1.6684765183e+00	 1.0277356047e+00
 6.9047979081e-01	 1.6750281237e+00	 1.0549189796e+00
 6.7476428084e-01	 1.6814204555e+00	 1.0784748444e+00
 6.5901983491e-01	 1.6876535434e+00	 1.0980208949e+00
 6.4324876571e-01	 1.6937274600e+00	 1.1132009899e+00
 6.2745337511e-01	 1.6996423210e+00	 1.1236820825e+00
 7.8785329820e-01	 1.6412867455e+00	 8.8988604305e-01
 7.7228499219e-01	 1.6486694079e+00	 9.0934618270e-01
 7.5667349290e-01	 1.6558925368e+00	 9.3472051892e-01
 7.4102116858e-01	 1.6629559392e+00	 9.6510581272e-01
 7.2533038267e-01	 1.6698594673e+00	 9.9661185943e-01
 7.0960349268e-01	 1.6766030184e+00	 1.0253397921e+00
 6.9384284927e-01	 1.6831865341e+00	 1.0508099191e+00
 6.7805079516e-01	 1.6896100005e+00	 1.0725972072e+00
 6.6222966416e-01	 1.6958734473e+00	 1.0903262870e+00
 6.4638178022e-01	 1.7019769476e+00	 1.1036679013e+00
 6.3050945642e-01	 1.7079206175e+00	 1.1123355145e+00
 7.9167204075e-01	 1.6492420990e+00	 9.0526127377e-01
 7.7602827481e-01	 1.6566605454e+00	 9.2046858855e-01
 7.6034110623e-01	 1.6639186849e+00	 9.4186912296e-01
 7.4461291475e-01	 1.6710163238e+00	 9.6842776676e-01
 7.2884607524e-01	 1.6779533135e+00	 9.9745840395e-01
 7.1304295667e-01	 1.6847295507e+00	 1.0240788113e+00
 6.9720592107e-01	 1.6913449769e+00	 1.0475665739e+00
 6.8133732252e-01	 1.6977995779e+00	 1.0674574533e+00
 6.6543950615e-01	 1.7040933838e+00	 1.0833538422e+00
 6.4951480716e-01	 1.7102264679e+00	 1.0949210000e+00
 6.3356554985e-01	 1.7161989469e+00	 1.1018834355e+00
 7.9549079628e-01	 1.6571974796e+00	 9.2398928893e-01
 7.7977157016e-01	 1.6646517100e+00	 9.3426852226e-01
 7.6400873204e-01	 1.6719448604e+00	 9.5120515121e-01
 7.4820467313e-01	 1.6790767358e+00	 9.7362137080e-01
 7.3236177978e-01	 1.6860471872e+00	 9.9960783701e-01
 7.1648243236e-01	 1.6928561106e+00	 1.0239718810e+00
 7.0056900431e-01	 1.6995034474e+00	 1.0454467485e+00
 6.8462386106e-01	 1.7059891832e+00	 1.0635036412e+00
 6.6864935905e-01	 1.7123133482e+00	 1.0776941031e+00
 6.5264784475e-01	 1.7184760163e+00	 1.0876461358e+00
 6.3662165367e-01	 1.7244773045e+00	 1.0930604469e+00
 7.9930956263e-01	 1.6651528827e+00	 9.4413165435e-01
 7.8351487611e-01	 1.6726428973e+00	 9.4928594796e-01
 7.6767636823e-01	 1.6799710586e+00	 9.6169722726e-01
 7.5179644169e-01	 1.6871371707e+00	 9.8003463647e-01
 7.3587749427e-01	 1.6941410838e+00	 1.0027903653e+00
 7.1992191779e-01	 1.7009826936e+00	 1.0250314104e+00
 7.0393209707e-01	 1.7076619410e+00	 1.0446971323e+00
 6.8791040891e-01	 1.7141788117e+00	 1.0611693381e+00
 6.7185922104e-01	 1.7205333360e+00	 1.0739206643e+00
 6.5578089122e-01	 1.7267255880e+00	 1.0825106599e+00
 6.3967776615e-01	 1.7327556855e+00	 1.0865819951e+00
 8.0312833764e-01	 1.6731083039e+00	 9.6378064510e-01
 7.8725819055e-01	 1.6806341027e+00	 9.6408213944e-01
 7.7134401274e-01	 1.6879972749e+00	 9.7232683070e-01
 7.5538821839e-01	 1.6951976238e+00	 9.8702091759e-01
 7.3939321673e-01	 1.7022349988e+00	 1.0067344812e+00
 7.2336141102e-01	 1.7091092950e+00	 1.0272629769e+00
 7.0729519746e-01	 1.7158204531e+00	 1.0455533838e+00
 6.9119696421e-01	 1.7223684588e+00	 1.0608737907e+00
 6.7506909032e-01	 1.7287533424e+00	 1.0725904068e+00
 6.5891394479e-01	 1.7349751784e+00	 1.0801637026e+00
 6.4273388556e-01	 1.7410340853e+00	 1.0831446705e+00
 8.0694711914e-01	 1.6810637386e+00	 9.8105878701e-01
 7.9100151136e-01	 1.6886253217e+00	 9.7723942546e-01
 7.7501166349e-01	 1.6960235049e+00	 9.8208822365e-01
 7.5898000120e-01	 1.7032580906e+00	 9.9393899551e-01
 7.4290894517e-01	 1.7103289275e+00	 1.0112121446e+00
 7.2680091010e-01	 1.7172359102e+00	 1.0306653026e+00
 7.1065830357e-01	 1.7239789791e+00	 1.0482402127e+00
 6.9448352509e-01	 1.7305581198e+00	 1.0630220900e+00
 6.7827896504e-01	 1.7369733627e+00	 1.0742437253e+00
 6.6204700368e-01	 1.7432247829e+00	 1.0812364412e+00
 6.4579001016e-01	 1.7493124992e+00	 1.0834264965e+00
 8.1076590497e-01	 1.6890191823e+00	 9.9411842119e-01
 7.9474483640e-01	 1.6966165497e+00	 9.8736095211e-01
 7.7867931839e-01	 1.7040497440e+00	 9.8998838887e-01
 7.6257178807e-01	 1.7113185666e+00	 1.0001531712e+00
 7.4642467760e-01	 1.7184228654e+00	 1.0160963602e+00
 7.3024041307e-01	 1.7253625346e+00	 1.0352302294e+00
 7.1402141348e-01	 1.7321375143e+00	 1.0529714568e+00
 6.9777008970e-01	 1.7387477900e+00	 1.0680053296e+00
 6.8148884341e-01	 1.7451933924e+00	 1.0794047471e+00
 6.6518006613e-01	 1.7514743967e+00	 1.0863423599e+00
 6.4884613823e-01	 1.7575909224e+00	 1.0880872096e+00
 8.1458469296e-01	 1.6969746305e+00	 1.0011412908e+00
 7.9848816357e-01	 1.7046077823e+00	 9.9307046150e-01
 7.8234697537e-01	 1.7120759877e+00	 9.9504697911e-01
 7.6616357699e-01	 1.7193790471e+00	 1.0050333639e+00
 7.4994041202e-01	 1.7265168079e+00	 1.0210794444e+00
 7.3367991799e-01	 1.7334891636e+00	 1.0409426946e+00
 7.1738452531e-01	 1.7402960542e+00	 1.0599501565e+00
 7.0105665617e-01	 1.7469374649e+00	 1.0762007592e+00
 6.8469872359e-01	 1.7534134267e+00	 1.0885815441e+00
 6.6831313035e-01	 1.7597240152e+00	 1.0960775005e+00
 6.5190226803e-01	 1.7658693503e+00	 1.0977685295e+00
 6.2134125579e-01	 1.6830858451e+00	 1.1460226409e+00
 6.0568057798e-01	 1.6887847827e+00	 1.1564193293e+00
 5.9000034444e-01	 1.6943266200e+00	 1.1633543391e+00
 5.7430279528e-01	 1.6997115942e+00	 1.1660270188e+00
 5.5859015640e-01	 1.7049399826e+00	 1.1637379085e+00
 5.4286463860e-01	 1.7100121024e+00	 1.1558856512e+00
 5.2712843678e-01	 1.7149283098e+00	 1.1419639406e+00
 5.1138372914e-01	 1.7196889996e+00	 1.1215584991e+00
 4.9563267639e-01	 1.7242946047e+00	 1.0943440866e+00
 4.7987742099e-01	 1.7287455951e+00	 1.0600815331e+00
 4.6412008643e-01	 1.7330424775e+00	 1.0186147947e+00
 6.2439730766e-01	 1.6913640619e+00	 1.1351690741e+00
 6.0865960318e-01	 1.6970910296e+00	 1.1444157776e+00
 5.9290224679e-01	 1.7026601243e+00	 1.1516497524e+00
 5.7712748962e-01	 1.7080715843e+00	 1.1558787321e+00
 5.6133756851e-01	 1.7133256884e+00	 1.1562107779e+00
 5.4553470513e-01	 1.7184227553e+00	 1.1518514914e+00
 5.2972110518e-01	 1.7233631430e+00	 1.1421012608e+00
 5.1389895758e-01	 1.7281472482e+00	 1.1263525351e+00
 4.9807043366e-01	 1.7327755058e+00	 1.1040871239e+00
 4.8223768642e-01	 1.7372483882e+00	 1.0748735181e+00
 4.6640284979e-01	 1.7415664048e+00	 1.0383642274e+00
 6.2745337511e-01	 1.6996423210e+00	 1.1236820825e+00
 6.1163864358e-01	 1.7053973189e+00	 1.1317075145e+00
 5.9580416395e-01	 1.7109936711e+00	 1.1389460157e+00
 5.7995219837e-01	 1.7164316171e+00	 1.1442884039e+00
 5.6408499463e-01	 1.7217114371e+00	 1.1467225156e+00
 5.4820478528e-01	 1.7268334512e+00	 1.1453306656e+00
 5.3231378681e-01	 1.7317980192e+00	 1.1392871406e+00
 5.1641419885e-01	 1.7366055398e+00	 1.1278557229e+00
 5.0050820336e-01	 1.7412564501e+00	 1.1103872404e+00
 4.8459796389e-01	 1.7457512248e+00	 1.0863171363e+00
 4.6868562480e-01	 1.7500903756e+00	 1.0551630556e+00
 6.3050945642e-01	 1.7079206175e+00	 1.1123355145e+00
 6.1461769748e-01	 1.7137036458e+00	 1.1190826865e+00
 5.9870609426e-01	 1.7193272557e+00	 1.1260211670e+00
 5.8277691993e-01	 1.7247916878e+00	 1.1319985071e+00
 5.6683243321e-01	 1.7300972237e+00	 1.1359535480e+00
 5.5087487753e-01	 1.7352441852e+00	 1.1369140720e+00
 5.3490648019e-01	 1.7402329337e+00	 1.1339944943e+00
 5.1892945152e-01	 1.7450638699e+00	 1.1263935902e+00
 5.0294598412e-01	 1.7497374329e+00	 1.1133922534e+00
 4.8695825206e-01	 1.7542540999e+00	 1.0943512772e+00
 4.7096841015e-01	 1.7586143850e+00	 1.0687091573e+00
 6.3356554985e-01	 1.7161989469e+00	 1.1018834355e+00
 6.1759676320e-01	 1.7220100057e+00	 1.1073096506e+00
 6.0160803608e-01	 1.7276608733e+00	 1.1136339224e+00
 5.8560165268e-01	 1.7331517917e+00	 1.1197331538e+00
 5.6957988268e-01	 1.7384830437e+00	 1.1245674136e+00
 5.5354498038e-01	 1.7436549525e+00	 1.1271777254e+00
 5.3749918386e-01	 1.7486678816e+00	 1.1266839071e+00
 5.2144471417e-01	 1.7535222335e+00	 1.1222824570e+00
 5.0538377454e-01	 1.7582184494e+00	 1.1132444779e+00
 4.8931854959e-01	 1.7627570088e+00	 1.0989136347e+00
 4.7325120456e-01	 1.7671384283e+00	 1.0787041386e+00
 6.3662165367e-01	 1.7244773045e+00	 1.0930604469e+00
 6.2057583905e-01	 1.7303163938e+00	 1.0971372998e+00
 6.0450998777e-01	 1.7359945193e+00	 1.1025239958e+00
 5.8842639505e-01	 1.7415119240e+00	 1.1081983971e+00
 5.7232734150e-01	 1.7468688921e+00	 1.1132110361e+00
 5.5621509230e-01	 1.7520657485e+00	 1.1166829881e+00
 5.4009189634e-01	 1.7571028582e+00	 1.1178038106e+00
 5.2395998537e-01	 1.7619806258e+00	 1.1158295415e+00
 5.0782157326e-01	 1.7666994947e+00	 1.1100807501e+00
 4.9167885515e-01	 1.7712599465e+00	 1.0999406326e+00
 4.7553400674e-01	 1.7756625005e+00	 1.0848531467e+00
 6.3967776615e-01	 1.7327556855e+00	 1.0865819951e+00
 6.2355492334e-01	 1.7386228055e+00	 1.0892953776e+00
 6.0741194768e-01	 1.7443281889e+00	 1.0934124085e+00
 5.9125114541e-01	 1.7498720800e+00	 1.0980825247e+00
 5.7507480810e-01	 1.7552547643e+00	 1.1025149887e+00
 5.5888521179e-01	 1.7604765683e+00	 1.1059767937e+00
 5.4268461617e-01	 1.7655378587e+00	 1.1077906522e+00
 5.2647526371e-01	 1.7704390421e+00	 1.1073330632e+00
 5.1025937888e-01	 1.7751805640e+00	 1.1040324488e+00
 4.9403916739e-01	 1.7797629084e+00	 1.0973673519e+00
 4.7781681538e-01	 1.7841865969e+00	 1.0868646886e+00
 6.4273388556e-01	 1.7410340853e+00	 1.0831446705e+00
 6.2653401438e-01	 1.7469292360e+00	 1.0844947825e+00
 6.1031391417e-01	 1.7526618774e+00	 1.0870017889e+00
 5.9407590218e-01	 1.7582322549e+00	 1.0900563417e+00
 5.7782228093e-01	 1.7636406555e+00	 1.0930937499e+00
 5.6155533733e-01	 1.7688874071e+00	 1.0955918622e+00
 5.4527734187e-01	 1.7739728784e+00	 1.0970690585e+00
 5.2899054774e-01	 1.7788974776e+00	 1.0970823410e+00
 5.1269719003e-01	 1.7836616526e+00	 1.0952255162e+00
 4.9639948499e-01	 1.7882658895e+00	 1.0911274594e+00
 4.8009962919e-01	 1.7927107126e+00	 1.0844504529e+00
 6.4579001016e-01	 1.7493124992e+00	 1.0834264965e+00
 6.2951311049e-01	 1.7552356806e+00	 1.0834278630e+00
 6.1321588560e-01	 1.7609955800e+00	 1.0839766618e+00
 5.9690066376e-01	 1.7665924441e+00	 1.0847734453e+00
 5.8056975843e-01	 1.7720265610e+00	 1.0855459505e+00
 5.6422546742e-01	 1.7772982603e+00	 1.0860469094e+00
 5.4787007199e-01	 1.7824079123e+00	 1.0860519942e+00
 5.3150583605e-01	 1.7873559275e+00	 1.0853578886e+00
 5.1513500533e-01	 1.7921427555e+00	 1.0837804766e+00
 4.9875980660e-01	 1.7967688850e+00	 1.0811531371e+00
 4.8238244689e-01	 1.8012348428e+00	 1.0773251369e+00
 6.4884613823e-01	 1.7575909224e+00	 1.0880872096e+00
 6.3249220997e-01	 1.7635421346e+00	 1.0867687026e+00
 6.1611786031e-01	 1.7693292921e+00	 1.0850037301e+00
 5.9972542853e-01	 1.7749526427e+00	 1.0828704901e+00
 5.8331723904e-01	 1.7804124759e+00	 1.0804546135e+00
 5.6689560052e-01	 1.7857091230e+00	 1.0778468487e+00
 5.5046280504e-01	 1.7908429559e+00	 1.0751409138e+00
 5.3402112720e-01	 1.7958143869e+00	 1.0724315055e+00
 5.1757282338e-01	 1.8006238681e+00	 1.0698124536e+00
 5.0112013088e-01	 1.8052718903e+00	 1.0673750126e+00
 4.8466526717e-01	 1.8097589826e+00	 1.0652062771e+00
 6.5190226803e-01	 1.7658693503e+00	 1.0977685295e+00
 6.3547131114e-01	 1.7718485933e+00	 1.0951733962e+00
 6.1901983667e-01	 1.7776630090e+00	 1.0907321454e+00
 6.0255019490e-01	 1.7833128461e+00	 1.0849674453e+00
 5.8606472121e-01	 1.7887983956e+00	 1.0783873854e+00
 5.6956573515e-01	 1.7941199904e+00	 1.0714829862e+00
 5.5305553956e-01	 1.7992780042e+00	 1.0647259100e+00
 5.3653641979e-01	 1.8042728512e+00	 1.0585663649e+00
 5.2001064282e-01	 1.8091049855e+00	 1.0534311868e+00
 5.0348045650e-01	 1.8137749003e+00	 1.0497220917e+00
 4.8694808875e-01	 1.8182831273e+00	 1.0478140839e+00
 4.6412008643e-01	 1.7330424775e+00	 1.0186147947e+00
 4.4836277670e-01	 1.7371857953e+00	 9.7520977099e-01
 4.3260757626e-01	 1.7411761283e+00	 9.3615264192e-01
 4.1685654864e-01	 1.7450140917e+00	 9.0281447803e-01
 4.0111173565e-01	 1.7487003345e+00	 8.7647993765e-01
 3.8537515669e-01	 1.7522355389e+00	 8.5834589668e-01
 3.6964880820e-01	 1.7556204198e+00	 8.4951832898e-01
 3.5393466308e-01	 1.7588557237e+00	 8.5017030481e-01
 3.3823467012e-01	 1.7619422282e+00	 8.6079036292e-01
 3.2255075349e-01	 1.7648807413e+00	 8.8255386565e-01
 3.0688481227e-01	 1.7676721003e+00	 9.1649872198e-01
 4.6640284979e-01	 1.7415664048e+00	 1.0383642274e+00
 4.5056803812e-01	 1.7457301014e+00	 9.9863537889e-01
 4.3473534610e-01	 1.7497400608e+00	 9.6111715573e-01
 4.1890684744e-01	 1.7535969011e+00	 9.2748375870e-01
 4.0308459397e-01	 1.7573012746e+00	 8.9931359124e-01
 3.8727061503e-01	 1.7608538668e+00	 8.7808770967e-01
 3.7146691688e-01	 1.7642553962e+00	 8.6518846746e-01
 3.5567548212e-01	 1.7675066128e+00	 8.6124920327e-01
 3.3989826912e-01	 1.7706082982e+00	 8.6683202860e-01
 3.2413721153e-01	 1.7735612643e+00	 8.8333200770e-01
 3.0839421776e-01	 1.7763663526e+00	 9.1199916673e-01
 4.6868562480e-01	 1.7500903756e+00	 1.0551630556e+00
 4.5277331079e-01	 1.7542744511e+00	 1.0198193566e+00
 4.3686312680e-01	 1.7583040369e+00	 9.8477102666e-01
 4.2095715670e-01	 1.7621797543e+00	 9.5190696479e-01
 4.0505746235e-01	 1.7659022585e+00	 9.2301470805e-01
 3.8916608304e-01	 1.7694722387e+00	 8.9977873712e-01
 3.7328503483e-01	 1.7728904166e+00	 8.8377898592e-01
 3.5741631003e-01	 1.7761575461e+00	 8.7600977922e-01
 3.4156187660e-01	 1.7792744124e+00	 8.7709096752e-01
 3.2572367766e-01	 1.7822418316e+00	 8.8855302812e-01
 3.0990363095e-01	 1.7850606492e+00	 9.1179602471e-01
 4.7096841015e-01	 1.7586143850e+00	 1.0687091573e+00
 4.5497859345e-01	 1.7628188395e+00	 1.0382233067e+00
 4.3899091715e-01	 1.7668680519e+00	 1.0063824346e+00
 4.2300747525e-01	 1.7707626464e+00	 9.7520277793e-01
 4.0703033968e-01	 1.7745032815e+00	 9.4659742933e-01
 3.9106155964e-01	 1.7780906496e+00	 9.2237453280e-01
 3.7510316102e-01	 1.7815254761e+00	 9.0423568767e-01
 3.5915714584e-01	 1.7848085185e+00	 8.9343398294e-01
 3.4322549163e-01	 1.7879405660e+00	 8.9063232268e-01
 3.2731015098e-01	 1.7909224383e+00	 8.9741457483e-01
 3.1141305098e-01	 1.7937549852e+00	 9.1526953798e-01
 4.7325120456e-01	 1.7671384283e+00	 1.0787041386e+00
 4.5718388486e-01	 1.7713632618e+00	 1.0533173895e+00
 4.4111871593e-01	 1.7754321008e+00	 1.0252321164e+00
 4.2505780194e-01	 1.7793455725e+00	 9.9650558394e-01
 4.0900322483e-01	 1.7831043386e+00	 9.6909387492e-01
 3.9295704375e-01	 1.7867090948e+00	 9.4485001051e-01
 3.7692129443e-01	 1.7901605699e+00	 9.2552227765e-01
 3.6089798855e-01	 1.7934595253e+00	 9.1252342564e-01
 3.4488911326e-01	 1.7966067538e+00	 9.0653964659e-01
 3.2889663060e-01	 1.7996030793e+00	 9.0913047454e-01
 3.1292247700e-01	 1.8024493558e+00	 9.2181290049e-01
 4.7553400674e-01	 1.7756625005e+00	 1.0848531467e+00
 4.5938918377e-01	 1.7799077132e+00	 1.0645800260e+00
 4.4324652196e-01	 1.7839961789e+00	 1.0406129788e+00
 4.2710813559e-01	 1.7879285278e+00	 1.0149650160e+00
 4.1097611669e-01	 1.7917054249e+00	 9.8955363735e-01
 3.9485253432e-01	 1.7953275692e+00	 9.6619891037e-01
 3.7873943401e-01	 1.7987956931e+00	 9.4662175017e-01
 3.6263883718e-01	 1.8021105615e+00	 9.3229880174e-01
 3.4655274055e-01	 1.8052729712e+00	 9.2391436686e-01
 3.3048311561e-01	 1.8082837500e+00	 9.2293026441e-01
 3.1443190815e-01	 1.8111437558e+00	 9.3083187913e-01
 4.7781681538e-01	 1.7841865969e+00	 1.0868646886e+00
 4.6159448893e-01	 1.7884521888e+00	 1.0714976094e+00
 4.4537433401e-01	 1.7925602812e+00	 1.0518297219e+00
 4.2915847506e-01	 1.7965115075e+00	 1.0297455102e+00
 4.1294901414e-01	 1.8003065356e+00	 1.0070432897e+00
 3.9674803025e-01	 1.8039460681e+00	 9.8543327977e-01
 3.8055757875e-01	 1.8074308407e+00	 9.6653586408e-01
 3.6437969074e-01	 1.8107616222e+00	 9.5179932551e-01
 3.4821637254e-01	 1.8139392131e+00	 9.4187526520e-01
 3.3206960512e-01	 1.8169644452e+00	 9.3805873545e-01
 3.1594134357e-01	 1.8198381805e+00	 9.4174444409e-01
 4.8009962919e-01	 1.7927107126e+00	 1.0844504529e+00
 4.6379979908e-01	 1.7969966837e+00	 1.0735642235e+00
 4.4750215088e-01	 1.8011244030e+00	 1.0581984728e+00
 4.3120881918e-01	 1.8050945065e+00	 1.0400258729e+00
 4.1492191607e-01	 1.8089076658e+00	 1.0206459069e+00
 3.9864353048e-01	 1.8125645864e+00	 1.0015829685e+00
 3.8237572761e-01	 1.8160660079e+00	 9.8428463233e-01
 3.6612054825e-01	 1.8194127026e+00	 9.7008218180e-01
 3.4988000831e-01	 1.8226054747e+00	 9.5955796925e-01
 3.3365609822e-01	 1.8256451600e+00	 9.5377548717e-01
 3.1745078242e-01	 1.8285326250e+00	 9.5398040804e-01
 4.8238244689e-01	 1.8012348428e+00	 1.0773251369e+00
 4.6600511299e-01	 1.8055411932e+00	 1.0702813684e+00
 4.4962997137e-01	 1.8096885393e+00	 1.0590464282e+00
 4.3325916678e-01	 1.8136775202e+00	 1.0449988601e+00
 4.1689482134e-01	 1.8175088106e+00	 1.0294605999e+00
 4.0053903394e-01	 1.8211831195e+00	 1.0136951376e+00
 3.8419387956e-01	 1.8247011898e+00	 9.9890582537e-01
 3.6786140872e-01	 1.8280637976e+00	 9.8622199015e-01
 3.5154364691e-01	 1.8312717510e+00	 9.7611445704e-01
 3.3524259402e-01	 1.8343258897e+00	 9.6935449310e-01
 3.1896022383e-01	 1.8372270842e+00	 9.6698107405e-01
 4.8466526717e-01	 1.8097589826e+00	 1.0652062771e+00
 4.6821042940e-01	 1.8140857124e+00	 1.0611576932e+00
 4.5175779428e-01	 1.8182526853e+00	 1.0537115075e+00
 4.3530951671e-01	 1.8222605436e+00	 1.0438707674e+00
 4.1886772886e-01	 1.8261099651e+00	 1.0326020624e+00
 4.0243453954e-01	 1.8298016623e+00	 1.0208337815e+00
 3.8601203357e-01	 1.8333363815e+00	 1.0094544880e+00
 3.6960227117e-01	 1.8367149024e+00	 9.9931028204e-01
 3.5320728740e-01	 1.8399380371e+00	 9.9071257346e-01
 3.3682909162e-01	 1.8430066292e+00	 9.8408367684e-01
 3.2046966696e-01	 1.8459215532e+00	 9.8019889185e-01
 4.8694808875e-01	 1.8182831273e+00	 1.0478140839e+00
 4.7041574706e-01	 1.8226302364e+00	 1.0457087357e+00
 4.5388561839e-01	 1.8268168362e+00	 1.0415420136e+00
 4.3735986779e-01	 1.8308435719e+00	 1.0358610313e+00
 4.2084063749e-01	 1.8347111246e+00	 1.0292001295e+00
 4.0433004622e-01	 1.8384202100e+00	 1.0220792627e+00
 3.8783018861e-01	 1.8419715781e+00	 1.0150024695e+00
 3.7134313460e-01	 1.8453660122e+00	 1.0084564162e+00
 3.5487092882e-01	 1.8486043281e+00	 1.0025355584e+00
 3.3841559011e-01	 1.8516873736e+00	 9.9726449833e-01
 3.2197911094e-01	 1.8546160272e+00	 9.9309324974e-01
 3.0688481227e-01	 1.7676721003e+00	 9.1649872198e-01
 2.9123606242e-01	 1.7703176088e+00	 9.5581348719e-01
 2.7560902069e-01	 1.7728176731e+00	 9.9247674496e-01
 2.6000551298e-01	 1.7751732139e+00	 1.0256335137e+00
 2.4442733825e-01	 1.7773851785e+00	 1.0544345757e+00
 2.2887626810e-01	 1.7794545395e+00	 1.0780405550e+00
 2.1335404644e-01	 1.7813822948e+00	 1.0956258604e+00
 1.9786238912e-01	 1.7831694663e+00	 1.1063824770e+00
 1.8240298368e-01	 1.7848170991e+00	 1.1095235954e+00
 1.6697748904e-01	 1.7863262610e+00	 1.1042870668e+00
 1.5158753522e-01	 1.7876980416e+00	 1.0899386763e+00
 3.0839421776e-01	 1.7763663526e+00	 9.1199916673e-01
 2.9266849992e-01	 1.7790248729e+00	 9.4698795331e-01
 2.7696459696e-01	 1.7815372337e+00	 9.8093580717e-01
 2.6128434378e-01	 1.7839043603e+00	 1.0127321530e+00
 2.4562954817e-01	 1.7861272043e+00	 1.0412776518e+00
 2.3000199047e-01	 1.7882067434e+00	 1.0654885844e+00
 2.1440342313e-01	 1.7901439804e+00	 1.0843010764e+00
 1.9883557047e-01	 1.7919399420e+00	 1.0966751514e+00
 1.8330012833e-01	 1.7935956786e+00	 1.1015985987e+00
 1.6779876376e-01	 1.7951122633e+00	 1.0980906452e+00
 1.5233311483e-01	 1.7964907909e+00	 1.0852054241e+00
 3.0990363095e-01	 1.7850606492e+00	 9.1179602471e-01
 2.9410094472e-01	 1.7877321814e+00	 9.4197151054e-01
 2.7832018014e-01	 1.7902568388e+00	 9.7249590611e-01
 2.6256318109e-01	 1.7926355511e+00	 1.0020759019e+00
 2.4683176423e-01	 1.7948692747e+00	 1.0294332217e+00
 2.3112771857e-01	 1.7969589920e+00	 1.0533092641e+00
 2.1545280517e-01	 1.7989057106e+00	 1.0724695680e+00
 1.9980875679e-01	 1.8007104624e+00	 1.0857080859e+00
 1.8419727754e-01	 1.8023743029e+00	 1.0918512525e+00
 1.6862004267e-01	 1.8038983104e+00	 1.0897618395e+00
 1.5307869824e-01	 1.8052835851e+00	 1.0783425875e+00
 3.1141305098e-01	 1.7937549852e+00	 9.1526953798e-01
 2.9553339601e-01	 1.7964395295e+00	 9.4034570807e-01
 2.7967576947e-01	 1.7989764835e+00	 9.6692599688e-01
 2.6384202421e-01	 1.8013667815e+00	 9.9360623424e-01
 2.4803398573e-01	 1.8036113847e+00	 1.0189994254e+00
 2.3225345178e-01	 1.8057112802e+00	 1.0417406059e+00
 2.1650219197e-01	 1.8076674805e+00	 1.0604915035e+00
 2.0078194751e-01	 1.8094810226e+00	 1.0739449916e+00
 1.8509443083e-01	 1.8111529670e+00	 1.0808293226e+00
 1.6944132531e-01	 1.8126843974e+00	 1.0799121300e+00
 1.5382428503e-01	 1.8140764192e+00	 1.0700041916e+00
 3.1292247700e-01	 1.8024493558e+00	 9.2181290049e-01
 2.9696585299e-01	 1.8051469120e+00	 9.4170142810e-01
 2.8103136417e-01	 1.8076961627e+00	 9.6400098457e-01
 2.6512087240e-01	 1.8100980466e+00	 9.8726744448e-01
 2.4923621200e-01	 1.8123535294e+00	 1.0100743668e+00
 2.3337918945e-01	 1.8144636031e+00	 1.0310180175e+00
 2.1755158294e-01	 1.8164292852e+00	 1.0487221852e+00
 2.0175514210e-01	 1.8182516175e+00	 1.0618427758e+00
 1.8599158767e-01	 1.8199316659e+00	 1.0690721725e+00
 1.7026261120e-01	 1.8214705192e+00	 1.0691433513e+00
 1.5456987478e-01	 1.8228692882e+00	 1.0608337451e+00
 3.1443190815e-01	 1.8111437558e+00	 9.3083187913e-01
 2.9839831483e-01	 1.8138543242e+00	 9.4563860474e-01
 2.8238696349e-01	 1.8164158716e+00	 9.6350153473e-01
 2.6639972493e-01	 1.8188293413e+00	 9.8300654343e-01
 2.5043844236e-01	 1.8210957038e+00	 1.0027560862e+00
 2.3450493095e-01	 1.8232159558e+00	 1.0213743444e+00
 2.1860097747e-01	 1.8251911197e+00	 1.0375121535e+00
 2.0272834000e-01	 1.8270222423e+00	 1.0498516981e+00
 1.8688874757e-01	 1.8287103947e+00	 1.0571109629e+00
 1.7108389988e-01	 1.8302566708e+00	 1.0580479277e+00
 1.5531546706e-01	 1.8316621870e+00	 1.0514644998e+00
 3.1594134357e-01	 1.8198381805e+00	 9.4174444409e-01
 2.9983078073e-01	 1.8225617610e+00	 9.5176594975e-01
 2.8374256664e-01	 1.8251356052e+00	 9.6521388819e-01
 2.6767858109e-01	 1.8275606608e+00	 9.8077315521e-01
 2.5164067613e-01	 1.8298379030e+00	 9.9714253248e-01
 2.3563067564e-01	 1.8319683333e+00	 1.0130399105e+00
 2.1965037497e-01	 1.8339529790e+00	 1.0272072866e+00
 2.0370154065e-01	 1.8357928920e+00	 1.0384155221e+00
 1.8778591000e-01	 1.8374891483e+00	 1.0454688471e+00
 1.7190519089e-01	 1.8390428474e+00	 1.0472091010e+00
 1.5606106146e-01	 1.8404551108e+00	 1.0425197032e+00
 3.1745078242e-01	 1.8285326250e+00	 9.5398040804e-01
 3.0126324989e-01	 1.8312692176e+00	 9.5970068448e-01
 2.8509817287e-01	 1.8338553585e+00	 9.6892967967e-01
 2.6895744015e-01	 1.8362920001e+00	 9.8051941612e-01
 2.5284291262e-01	 1.8385801220e+00	 9.9333153562e-01
 2.3675642288e-01	 1.8407207307e+00	 1.0062425559e+00
 2.2069977486e-01	 1.8427148581e+00	 1.0181488971e+00
 2.0467474351e-01	 1.8445635615e+00	 1.0279716619e+00
 1.8868307447e-01	 1.8462679219e+00	 1.0346611580e+00
 1.7272648376e-01	 1.8478290439e+00	 1.0372011511e+00
 1.5680665754e-01	 1.8492480545e+00	 1.0346128424e+00
 3.1896022383e-01	 1.8372270842e+00	 9.6698107405e-01
 3.0269572147e-01	 1.8399766890e+00	 9.6906827811e-01
 2.8645378140e-01	 1.8425751267e+00	 9.7444576042e-01
 2.7023630138e-01	 1.8450233542e+00	 9.8219987530e-01
 2.5404515116e-01	 1.8473223559e+00	 9.9142077842e-01
 2.3788217203e-01	 1.8494731429e+00	 1.0012076732e+00
 2.2174917652e-01	 1.8514767522e+00	 1.0106738246e+00
 2.0564794802e-01	 1.8533342459e+00	 1.0189482900e+00
 1.8958024046e-01	 1.8550467103e+00	 1.0251794158e+00
 1.7354777803e-01	 1.8566152553e+00	 1.0285499494e+00
 1.5755225489e-01	 1.8580410131e+00	 1.0282757160e+00
 3.2046966696e-01	 1.8459215532e+00	 9.8019889185e-01
 3.0412819468e-01	 1.8486841702e+00	 9.7950219176e-01
 2.8780939147e-01	 1.8512949048e+00	 9.8156402447e-01
 2.7151516407e-01	 1.8537547182e+00	 9.8576833616e-01
 2.5524739105e-01	 1.8560645997e+00	 9.9148885520e-01
 2.3900792246e-01	 1.8582255650e+00	 9.9810658637e-01
 2.2279857938e-01	 1.8602386562e+00	 1.0050114006e+00
 2.0662115364e-01	 1.8621049403e+00	 1.0116065546e+00
 1.9047740747e-01	 1.8638255088e+00	 1.0173130200e+00
 1.7436907323e-01	 1.8654014767e+00	 1.0215734163e+00
 1.5829785309e-01	 1.8668339817e+00	 1.0238555739e+00
 3.2197911094e-01	 1.8546160272e+00	 9.9309324974e-01
 3.0556066871e-01	 1.8573916564e+00	 9.9062203970e-01
 2.8916500231e-01	 1.8600146878e+00	 9.9003088316e-01
 2.7279402747e-01	 1.8624860872e+00	 9.9106745497e-01
 2.5644963163e-01	 1.8648068484e+00	 9.9346933856e-01
 2.4013367353e-01	 1.8669779921e+00	 9.9696940081e-01
 2.2384798283e-01	 1.8690005651e+00	 1.0013007014e+00
 2.0759435981e-01	 1.8708756396e+00	 1.0062009652e+00
 1.9137457499e-01	 1.8726043121e+00	 1.0114166445e+00
 1.7519036889e-01	 1.8741877030e+00	 1.0167066009e+00
 1.5904345171e-01	 1.8756269553e+00	 1.0218454308e+00
 1.5158753522e-01	 1.7876980416e+00	 1.0899386763e+00
 1.3623732356e-01	 1.7889333526e+00	 1.0674333958e+00
 1.2092577599e-01	 1.7900335688e+00	 1.0391484403e+00
 1.0565439889e-01	 1.7909998392e+00	 1.0064485759e+00
 9.0424669867e-02	 1.7918333315e+00	 9.7061169725e-01
 7.5238037701e-02	 1.7925352311e+00	 9.3283179834e-01
 6.0095922142e-02	 1.7931067405e+00	 8.9422188484e-01
 4.4999713821e-02	 1.7935490786e+00	 8.5581682421e-01
 2.9950774159e-02	 1.7938634795e+00	 8.1857613292e-01
 1.4950435288e-02	 1.7940511925e+00	 7.8338670038e-01
 0.0000000000e+00	 1.7941134805e+00	 7.5106545020e-01
 1.5233311483e-01	 1.7964907909e+00	 1.0852054241e+00
 1.3690740352e-01	 1.7977321778e+00	 1.0630473036e+00
 1.2152054649e-01	 1.7988378054e+00	 1.0337044988e+00
 1.0617405748e-01	 1.7998088284e+00	 9.9918100790e-01
 9.0869421409e-02	 1.8006464202e+00	 9.6139830739e-01
 7.5608094162e-02	 1.8013517720e+00	 9.2219745801e-01
 6.0391502475e-02	 1.8019260924e+00	 8.8334116161e-01
 4.5221043820e-02	 1.8023706061e+00	 8.4651576766e-01
 3.0098086314e-02	 1.8026865534e+00	 8.1333322921e-01
 1.5023968640e-02	 1.8028751897e+00	 7.8533300919e-01
 0.0000000000e+00	 1.8029377841e+00	 7.6398393867e-01
 1.5307869824e-01	 1.8052835851e+00	 1.0783425875e+00
 1.3757748691e-01	 1.8065310479e+00	 1.0569423523e+00
 1.2211532001e-01	 1.8076420869e+00	 1.0273034240e+00
 1.0669371872e-01	 1.8086178625e+00	 9.9190011600e-01
 9.1314175218e-02	 1.8094595538e+00	 9.5312924375e-01
 7.5978152509e-02	 1.8101683580e+00	 9.1331155148e-01
 6.0687084314e-02	 1.8107454893e+00	 8.7469309466e-01
 4.5442374947e-02	 1.8111921787e+00	 8.3944657715e-01
 3.0245399219e-02	 1.8115096724e+00	 8.0967264411e-01
 1.5097502368e-02	 1.8116992318e+00	 7.8740113271e-01
 0.0000000000e+00	 1.8117621326e+00	 7.7459228326e-01
 1.5382428503e-01	 1.8140764192e+00	 1.0700041916e+00
 1.3824757333e-01	 1.8153299579e+00	 1.0497886145e+00
 1.2271009623e-01	 1.8164464083e+00	 1.0206017490e+00
 1.0721338232e-01	 1.8174269365e+00	 9.8522183338e-01
 9.1758931044e-02	 1.8182727274e+00	 9.4635529643e-01
 7.6348212533e-02	 1.8189849839e+00	 9.0663769116e-01
 6.0982667494e-02	 1.8195649262e+00	 8.6863458119e-01
 4.5663707077e-02	 1.8200137912e+00	 8.3484238144e-01
 3.0392712793e-02	 1.8203328313e+00	 8.0768915479e-01
 1.5171036428e-02	 1.8205233140e+00	 7.8953536780e-01
 0.0000000000e+00	 1.8205865212e+00	 7.8267460904e-01
 1.5456987478e-01	 1.8228692882e+00	 1.0608337451e+00
 1.3891766241e-01	 1.8241289028e+00	 1.0422452495e+00
 1.2330487481e-01	 1.8252507647e+00	 1.0142452309e+00
 1.0773304798e-01	 1.8262360455e+00	 9.7975193781e-01
 9.2203688633e-02	 1.8270859360e+00	 9.4161815654e-01
 7.6718274025e-02	 1.8278016448e+00	 9.0263183357e-01
 6.1278251845e-02	 1.8283843981e+00	 8.6551664393e-01
 4.5885040085e-02	 1.8288354387e+00	 8.3293250661e-01
 3.0540026950e-02	 1.8291560252e+00	 8.0747605038e-01
 1.5244570780e-02	 1.8293474312e+00	 7.9168103354e-01
 0.0000000000e+00	 1.8294109448e+00	 7.8801872252e-01
 1.5531546706e-01	 1.8316621870e+00	 1.0514644998e+00
 1.3958775376e-01	 1.8329278776e+00	 1.0349607760e+00
 1.2389965541e-01	 1.8340551510e+00	 1.0088691214e+00
 1.0825271541e-01	 1.8350451845e+00	 9.7608630967e-01
 9.2648447734e-02	 1.8358991745e+00	 9.3945064937e-01
 7.7088336774e-02	 1.8366183356e+00	 9.0174247751e-01
 6.1573837201e-02	 1.8372039000e+00	 8.6568458534e-01
 4.6106373845e-02	 1.8376571162e+00	 8.3394257856e-01
 3.0687341608e-02	 1.8379792491e+00	 8.0912517597e-01
 1.5318105382e-02	 1.8381715784e+00	 7.9378445117e-01
 0.0000000000e+00	 1.8382353983e+00	 7.9041602294e-01
 1.5606106146e-01	 1.8404551108e+00	 1.0425197032e+00
 1.4025784702e-01	 1.8417268773e+00	 1.0285733363e+00
 1.2449443770e-01	 1.8428595622e+00	 1.0050984309e+00
 1.0877238431e-01	 1.8438543484e+00	 9.7481118227e-01
 9.3093208094e-02	 1.8447124380e+00	 9.4037696069e-01
 7.7458400572e-02	 1.8454350515e+00	 9.0441085645e-01
 6.1869423394e-02	 1.8460234268e+00	 8.6947813743e-01
 4.6327708232e-02	 1.8464788188e+00	 8.3809462245e-01
 3.0834656683e-02	 1.8468024981e+00	 8.1272697525e-01
 1.5391640193e-02	 1.8469957507e+00	 7.9579292447e-01
 0.0000000000e+00	 1.8470598769e+00	 7.8966141612e-01
 1.5680665754e-01	 1.8492480545e+00	 1.0346128424e+00
 1.4092794179e-01	 1.8505258970e+00	 1.0237109527e+00
 1.2508922133e-01	 1.8516639934e+00	 1.0035481838e+00
 1.0929205438e-01	 1.8526635322e+00	 9.7650216010e-01
 9.3537969462e-02	 1.8535257214e+00	 9.4490732030e-01
 7.7828465208e-02	 1.8542517873e+00	 9.1105959789e-01
 6.2165010257e-02	 1.8548429736e+00	 8.7721390673e-01
 4.6549043120e-02	 1.8553005413e+00	 8.4558440822e-01
 3.0981972092e-02	 1.8556257670e+00	 8.1834481222e-01
 1.5465175169e-02	 1.8558199429e+00	 7.9762863064e-01
 0.0000000000e+00	 1.8558843755e+00	 7.8552939675e-01
 1.5755225489e-01	 1.8580410131e+00	 1.0282757160e+00
 1.4159803770e-01	 1.8593249316e+00	 1.0208805111e+00
 1.2568400597e-01	 1.8604684395e+00	 1.0046698937e+00
 1.0981172534e-01	 1.8614727311e+00	 9.8153453006e-01
 9.3982731586e-02	 1.8623390199e+00	 9.5333155489e-01
 7.8198530473e-02	 1.8630685381e+00	 9.2188543509e-01
 6.2460597622e-02	 1.8636625355e+00	 8.8898872031e-01
 4.6770378385e-02	 1.8641222788e+00	 8.5640269872e-01
 3.1129287751e-02	 1.8644490509e+00	 8.2585797387e-01
 1.5538710271e-02	 1.8646441501e+00	 7.9905497751e-01
 0.0000000000e+00	 1.8647088891e+00	 7.7766443201e-01
 1.5829785309e-01	 1.8668339817e+00	 1.0238555739e+00
 1.4226813437e-01	 1.8681239762e+00	 1.0204536290e+00
 1.2627879129e-01	 1.8692728957e+00	 1.0088490092e+00
 1.1033139689e-01	 1.8702819399e+00	 9.9029155258e-01
 9.4427494214e-02	 1.8711523283e+00	 9.6600665324e-01
 7.8568596157e-02	 1.8718852989e+00	 9.3719662750e-01
 6.2756185322e-02	 1.8724821073e+00	 9.0504194403e-01
 4.6991713900e-02	 1.8729440263e+00	 8.7070233629e-01
 3.1276603577e-02	 1.8732723448e+00	 8.3531781371e-01
 1.5612245456e-02	 1.8734683673e+00	 8.0000958682e-01
 0.0000000000e+00	 1.8735334126e+00	 7.6588092030e-01
 1.5904345171e-01	 1.8756269553e+00	 1.0218454308e+00
 1.4293823142e-01	 1.8769230258e+00	 1.0229534385e+00
 1.2687357695e-01	 1.8780773568e+00	 1.0166083810e+00
 1.1085106873e-01	 1.8790911537e+00	 1.0032696735e+00
 9.4872257094e-02	 1.8799656418e+00	 9.8338189314e-01
 7.8938662051e-02	 1.8807020647e+00	 9.5737681999e-01
 6.3051773189e-02	 1.8813016841e+00	 9.2567531434e-01
 4.7213049540e-02	 1.8817657788e+00	 8.8868904827e-01
 3.1423919486e-02	 1.8820956438e+00	 8.4682210827e-01
 1.5685780682e-02	 1.8822925895e+00	 8.0047248445e-01
 0.0000000000e+00	 1.8823579412e+00	 7.5003346060e-01
 1.8823579412e+00	 0.0000000000e+00	 2.5221715434e+00
 1.8822925895e+00	 1.5685780682e-02	-1.9600284884e+00
 1.8820956438e+00	 3.1423919486e-02	-4.9287486106e+00
 1.8817657788e+00	 4.7213049540e-02	-6.5989832036e+00
 1.8813016841e+00	 6.3051773189e-02	-7.1887141525e+00
 1.8807020647e+00	 7.8938662051e-02	-6.9187335298e+00
 1.8799656418e+00	 9.4872257094e-02	-6.0124581871e+00
 1.8790911537e+00	 1.1085106873e-01	-4.6957363291e+00
 1.8780773568e+00	 1.2687357695e-01	-3.1966461695e+00
 1.8769230258e+00	 1.4293823142e-01	-1.7452867948e+00
 1.8756269553e+00	 1.5904345171e-01	-5.7356138059e-01
 1.8911809706e+00	 0.0000000000e+00	 2.5541533692e+00
 1.8911153126e+00	 1.5759303416e-02	-1.4221924555e+00
 1.8909174437e+00	 3.1571210368e-02	-4.0590260622e+00
 1.8905860326e+00	 4.7434347578e-02	-5.5470864388e+00
 1.8901197626e+00	 6.3347310839e-02	-6.0798640973e+00
 1.8895173326e+00	 7.9308665075e-02	-5.8534471934e+00
 1.8887774579e+00	 9.5316944414e-02	-5.0663604008e+00
 1.8878988710e+00	 1.1137065229e-01	-3.9193966005e+00
 1.8868803221e+00	 1.2746826155e-01	-2.6154414749e+00
 1.8857205806e+00	 1.4360821463e-01	-1.3592911165e+00
 1.8844184351e+00	 1.5978892366e-01	-3.5746278264e-01
 1.9000040000e+00	 0.0000000000e+00	 2.6141635945e+00
 1.8999380357e+00	 1.5832826150e-02	-9.1311926260e-01
 1.8997392437e+00	 3.1718501251e-02	-3.2555329870e+00
 1.8994062864e+00	 4.7655645616e-02	-4.5822261833e+00
 1.8989378411e+00	 6.3642848489e-02	-5.0648946757e+00
 1.8983326006e+00	 7.9678668098e-02	-4.8776486022e+00
 1.8975892741e+00	 9.5761631733e-02	-4.1968730063e+00
 1.8967065882e+00	 1.1189023584e-01	-3.2010819781e+00
 1.8956832875e+00	 1.2806294616e-01	-2.0707664231e+00
 1.8945181354e+00	 1.4427819784e-01	-9.8823555505e-01
 1.8932099149e+00	 1.6053439561e-01	-1.3745223168e-01
 1.9088270294e+00	 0.0000000000e+00	 2.7115148865e+00
 1.9087607588e+00	 1.5906348884e-02	-4.2563086562e-01
 1.9085610437e+00	 3.1865792133e-02	-2.5131550516e+00
 1.9082265403e+00	 4.7876943654e-02	-3.7012426612e+00
 1.9077559196e+00	 6.3938386140e-02	-4.1424529385e+00
 1.9071478685e+00	 8.0048671122e-02	-3.9916050072e+00
 1.9064010903e+00	 9.6206319053e-02	-3.4056576361e+00
 1.9055143055e+00	 1.1240981940e-01	-2.5435831895e+00
 1.9044862529e+00	 1.2865763077e-01	-1.5662358288e+00
 1.9033156901e+00	 1.4494818105e-01	-6.3621405235e-01
 1.9020013947e+00	 1.6127986756e-01	 8.2282322298e-02
 1.9176500588e+00	 0.0000000000e+00	 2.8553547936e+00
 1.9175834819e+00	 1.5979871618e-02	 4.7323691359e-02
 1.9173828436e+00	 3.2013083015e-02	-1.8268681718e+00
 1.9170467941e+00	 4.8098241692e-02	-2.9010314042e+00
 1.9165739981e+00	 6.4233923790e-02	-3.3112089113e+00
 1.9159631365e+00	 8.0418674146e-02	-3.1955776279e+00
 1.9152129065e+00	 9.6651006372e-02	-2.6943449353e+00
 1.9143220227e+00	 1.1292940296e-01	-1.9496397978e+00
 1.9132892182e+00	 1.2925231538e-01	-1.1053986786e+00
 1.9121132449e+00	 1.4561816426e-01	-3.0724631015e-01
 1.9107928745e+00	 1.6202533951e-01	 2.9762858703e-01
 1.9264730883e+00	 0.0000000000e+00	 3.0546695271e+00
 1.9264062049e+00	 1.6053394352e-02	 5.1267117152e-01
 1.9262046436e+00	 3.2160373898e-02	-1.1917364741e+00
 1.9258670479e+00	 4.8319539731e-02	-2.1785420238e+00
 1.9253920766e+00	 6.4529461441e-02	-2.5698551148e+00
 1.9247784044e+00	 8.0788677170e-02	-2.4898218430e+00
 1.9240247226e+00	 9.7095693692e-02	-2.0645353273e+00
 1.9231297400e+00	 1.1344898651e-01	-1.4219414317e+00
 1.9220921836e+00	 1.2984699999e-01	-6.9173969698e-01
 1.9209107996e+00	 1.4628814746e-01	-5.2795473228e-03
 1.9195843543e+00	 1.6277081146e-01	 5.0454814157e-01
 1.9352961177e+00	 0.0000000000e+00	 3.3182876379e+00
 1.9352289280e+00	 1.6126917087e-02	 9.7721696153e-01
 1.9350264435e+00	 3.2307664781e-02	-6.0291031169e-01
 1.9346873017e+00	 4.8540837769e-02	-1.5307770152e+00
 1.9342101551e+00	 6.4824999092e-02	-1.9171060979e+00
 1.9335936724e+00	 8.1158680194e-02	-1.8745873755e+00
 1.9328365388e+00	 9.7540381012e-02	-1.5177997593e+00
 1.9319374572e+00	 1.1396857007e-01	-9.6312898253e-01
 1.9308951489e+00	 1.3044168459e-01	-3.2868086968e-01
 1.9297083544e+00	 1.4695813067e-01	 2.6580979155e-01
 1.9283758340e+00	 1.6351628341e-01	 6.9907469973e-01
 1.9441191471e+00	 0.0000000000e+00	 3.6548835951e+00
 1.9440516511e+00	 1.6200439821e-02	 1.4476478110e+00
 1.9438482435e+00	 3.2454955664e-02	-5.5624335216e-02
 1.9435075555e+00	 4.8762135809e-02	-9.5479059586e-01
 1.9430282336e+00	 6.5120536743e-02	-1.3516979836e+00
 1.9424089403e+00	 8.1528683219e-02	-1.3501184727e+00
 1.9416483550e+00	 9.7985068333e-02	-1.0556804265e+00
 1.9407451745e+00	 1.1448815362e-01	-5.7579576673e-01
 1.9396981143e+00	 1.3103636920e-01	-1.9582924494e-02
 1.9385059091e+00	 1.4762811388e-01	 5.0221437483e-01
 1.9371673138e+00	 1.6426175536e-01	 8.7731242170e-01
 1.9529421765e+00	 0.0000000000e+00	 4.0729812657e+00
 1.9528743742e+00	 1.6273962556e-02	 1.9305344978e+00
 1.9526700435e+00	 3.2602246547e-02	 4.5480438432e-01
 1.9523278093e+00	 4.8983433848e-02	-4.4768757341e-01
 1.9518463121e+00	 6.5416074395e-02	-8.7238802662e-01
 1.9512242083e+00	 8.1898686244e-02	-9.1665408084e-01
 1.9504601711e+00	 9.8429755654e-02	-6.7969147611e-01
 1.9495528917e+00	 1.1500773718e-01	-2.6248865777e-01
 1.9485010797e+00	 1.3163105381e-01	 2.3225322848e-01
 1.9473034639e+00	 1.4829809709e-01	 7.0019436823e-01
 1.9459587936e+00	 1.6500722731e-01	 1.0354342722e+00
 1.9617652059e+00	 0.0000000000e+00	 4.5809573020e+00
 1.9616970973e+00	 1.6347485291e-02	 2.4323344214e+00
 1.9614918434e+00	 3.2749537431e-02	 9.3297818217e-01
 1.9611480631e+00	 4.9204731888e-02	-6.6222455417e-03
 1.9606643906e+00	 6.5711612047e-02	-4.7795418332e-01
 1.9600394762e+00	 8.2268689270e-02	-5.7442801512e-01
 1.9592719873e+00	 9.8874442976e-02	-3.9131969301e-01
 1.9583606090e+00	 1.1552732074e-01	-2.5709186281e-02
 1.9573040450e+00	 1.3222573842e-01	 4.2358509599e-01
 1.9561010187e+00	 1.4896808030e-01	 8.5607586362e-01
 1.9547502734e+00	 1.6575269926e-01	 1.1696804240e+00
 1.9705882353e+00	 0.0000000000e+00	 5.1870444366e+00
 1.9705198204e+00	 1.6421008026e-02	 2.9593941264e+00
 1.9703136434e+00	 3.2896828315e-02	 1.3834205774e+00
 1.9699683169e+00	 4.9426029929e-02	 3.7120267140e-01
 1.9694824691e+00	 6.6007149700e-02	-1.6719469259e-01
 1.9688547442e+00	 8.2638692297e-02	-3.2366912465e-01
 1.9680838035e+00	 9.9319130298e-02	-1.9202516560e-01
 1.9671683262e+00	 1.1604690430e-01	 1.3208538952e-01
 1.9661070104e+00	 1.3282042303e-01	 5.5122723911e-01
 1.9648985734e+00	 1.4963806351e-01	 9.6624935058e-01
 1.9635417532e+00	 1.6649817121e-01	 1.2763567051e+00
 1.8756269553e+00	 1.5904345171e-01	-5.7356138059e-01
 1.8741877030e+00	 1.7519036889e-01	 2.1880283739e-01
 1.8726043121e+00	 1.9137457499e-01	 7.2279574425e-01
 1.8708756396e+00	 2.0759435981e-01	 9.9213750327e-01
 1.8690005651e+00	 2.2384798283e-01	 1.0808645704e+00
 1.8669779921e+00	 2.4013367353e-01	 1.0432557704e+00
 1.8648068484e+00	 2.5644963163e-01	 9.3375564617e-01
 1.8624860872e+00	 2.7279402747e-01	 8.0689503173e-01
 1.8600146878e+00	 2.8916500231e-01	 7.1720879906e-01
 1.8573916564e+00	 3.0556066871e-01	 7.1915072796e-01
 1.8546160272e+00	 3.2197911094e-01	 8.6700544880e-01
 1.8844184351e+00	 1.5978892366e-01	-3.5746278264e-01
 1.8829724367e+00	 1.7601152503e-01	 2.9891277142e-01
 1.8813816241e+00	 1.9227159009e-01	 6.9072678881e-01
 1.8796448489e+00	 2.0856740064e-01	 8.6900957058e-01
 1.8777609856e+00	 2.2489720800e-01	 8.8510707793e-01
 1.8757289323e+00	 2.4125923334e-01	 7.9061046542e-01
 1.8735476120e+00	 2.5765166797e-01	 6.3728297070e-01
 1.8712159728e+00	 2.7407267362e-01	 4.7698410537e-01
 1.8687329894e+00	 2.9052038284e-01	 3.6159109053e-01
 1.8660976633e+00	 3.0699289937e-01	 3.4291747941e-01
 1.8633090241e+00	 3.2348829849e-01	 4.7262890936e-01
 1.8932099149e+00	 1.6053439561e-01	-1.3745223168e-01
 1.8917571704e+00	 1.7683268116e-01	 3.9902579071e-01
 1.8901589361e+00	 1.9316860519e-01	 6.9369433669e-01
 1.8884140582e+00	 2.0954044147e-01	 7.9465256101e-01
 1.8865214060e+00	 2.2594643317e-01	 7.5031692099e-01
 1.8844798725e+00	 2.4238479316e-01	 6.0935455911e-01
 1.8822883755e+00	 2.5885370430e-01	 4.2061413274e-01
 1.8799458584e+00	 2.7535131976e-01	 2.3305402923e-01
 1.8774512910e+00	 2.9187576338e-01	 9.5667902826e-02
 1.8748036702e+00	 3.0842513004e-01	 5.7407468447e-02
 1.8720020210e+00	 3.2499748604e-01	 1.6710248651e-01
 1.9020013947e+00	 1.6127986756e-01	 8.2282322298e-02
 1.9005419041e+00	 1.7765383730e-01	 5.1510321350e-01
 1.8989362481e+00	 1.9406562030e-01	 7.2788576715e-01
 1.8971832676e+00	 2.1051348230e-01	 7.6556009382e-01
 1.8952818264e+00	 2.2699565834e-01	 6.7337750850e-01
 1.8932308127e+00	 2.4351035298e-01	 4.9684815270e-01
 1.8910291390e+00	 2.6005574064e-01	 2.8167616158e-01
 1.8886757441e+00	 2.7662996591e-01	 7.3692307461e-02
 1.8861695926e+00	 2.9323114392e-01	-8.1215951412e-02
 1.8835096771e+00	 3.0985736070e-01	-1.3717708978e-01
 1.8806950179e+00	 3.2650667358e-01	-4.8410876338e-02
 1.9107928745e+00	 1.6202533951e-01	 2.9762858703e-01
 1.9093266378e+00	 1.7847499343e-01	 6.4317904523e-01
 1.9077135601e+00	 1.9496263540e-01	 7.8955684804e-01
 1.9059524769e+00	 2.1148652314e-01	 7.7828848343e-01
 1.9040422468e+00	 2.2804488351e-01	 6.5122778952e-01
 1.9019817528e+00	 2.4463591280e-01	 4.5049820427e-01
 1.8997699026e+00	 2.6125777697e-01	 2.1843266534e-01
 1.8974056297e+00	 2.7790861205e-01	-2.4889160066e-03
 1.8948878943e+00	 2.9458652446e-01	-1.6970468593e-01
 1.8922156840e+00	 3.1128959137e-01	-2.4063846553e-01
 1.8893880148e+00	 3.2801586113e-01	-1.7277003836e-01
 1.9195843543e+00	 1.6277081146e-01	 5.0454814157e-01
 1.9181113715e+00	 1.7929614957e-01	 7.7935826549e-01
 1.9164908721e+00	 1.9585965050e-01	 8.7503012812e-01
 1.9147216862e+00	 2.1245956397e-01	 8.2945527054e-01
 1.9128026673e+00	 2.2909410868e-01	 6.8086095814e-01
 1.9107326930e+00	 2.4576147262e-01	 4.6775744389e-01
 1.9085106661e+00	 2.6245981331e-01	 2.2888299416e-01
 1.9061355153e+00	 2.7918725820e-01	 3.1465929832e-03
 1.9036061959e+00	 2.9594190500e-01	-1.7043176247e-01
 1.9009216909e+00	 3.1272182203e-01	-2.5278326604e-01
 1.8980810117e+00	 3.2952504868e-01	-2.0485509949e-01
 1.9283758340e+00	 1.6351628341e-01	 6.9907469973e-01
 1.9268961052e+00	 1.8011730570e-01	 9.1981516281e-01
 1.9252681841e+00	 1.9675666560e-01	 9.8069337447e-01
 1.9234908955e+00	 2.1343260480e-01	 9.1573779485e-01
 1.9215630877e+00	 2.3014333386e-01	 7.5932319552e-01
 1.9194836332e+00	 2.4688703243e-01	 5.4612332035e-01
 1.9172514297e+00	 2.6366184964e-01	 3.1106142841e-01
 1.9148654009e+00	 2.8046590435e-01	 8.9258626738e-02
 1.9123244975e+00	 2.9729728554e-01	-8.4020103600e-02
 1.9096276978e+00	 3.1415405270e-01	-1.7342228825e-01
 1.9067740086e+00	 3.3103423623e-01	-1.4356685074e-01
 1.9371673138e+00	 1.6426175536e-01	 8.7731242170e-01
 1.9356808389e+00	 1.8093846184e-01	 1.0607917160e+00
 1.9340454961e+00	 1.9765368070e-01	 1.1029980539e+00
 1.9322601048e+00	 2.1440564563e-01	 1.0338718082e+00
 1.9303235081e+00	 2.3119255903e-01	 8.8371244791e-01
 1.9282345734e+00	 2.4801259225e-01	 6.8313697846e-01
 1.9259921932e+00	 2.6486388598e-01	 4.6303639120e-01
 1.9235952865e+00	 2.8174455049e-01	 2.5453002051e-01
 1.9210427991e+00	 2.9865266608e-01	 8.8917702861e-02
 1.9183337047e+00	 3.1558628337e-01	-2.3703725836e-03
 1.9154670055e+00	 3.3254342378e-01	 1.2173763812e-02
 1.9459587936e+00	 1.6500722731e-01	 1.0354342722e+00
 1.9444655726e+00	 1.8175961797e-01	 1.1985960201e+00
 1.9428228080e+00	 1.9855069580e-01	 1.2384578564e+00
 1.9410293141e+00	 2.1537868647e-01	 1.1806501266e+00
 1.9390839285e+00	 2.3224178420e-01	 1.0511772393e+00
 1.9369855135e+00	 2.4913815207e-01	 8.7638226603e-01
 1.9347329568e+00	 2.6606592231e-01	 6.8290968431e-01
 1.9323251722e+00	 2.8302319664e-01	 4.9766615364e-01
 1.9297611007e+00	 3.0000804662e-01	 3.4777920765e-01
 1.9270397115e+00	 3.1701851403e-01	 2.6055374222e-01
 1.9241600024e+00	 3.3405261133e-01	 2.6342617352e-01
 1.9547502734e+00	 1.6575269926e-01	 1.1696804240e+00
 1.9532503062e+00	 1.8258077411e-01	 1.3296007566e+00
 1.9516001200e+00	 1.9944771090e-01	 1.3836472603e+00
 1.9497985234e+00	 2.1635172730e-01	 1.3529213204e+00
 1.9478443490e+00	 2.3329100937e-01	 1.2589155181e+00
 1.9457364537e+00	 2.5026371189e-01	 1.1234847694e+00
 1.9434737203e+00	 2.6726795865e-01	 9.6881574694e-01
 1.9410550578e+00	 2.8430184279e-01	 8.1739446656e-01
 1.9384794024e+00	 3.0136342716e-01	 6.9197191175e-01
 1.9357457184e+00	 3.1845074470e-01	 6.1552756323e-01
 1.9328529993e+00	 3.3556179888e-01	 6.1123069671e-01
 1.9635417532e+00	 1.6649817121e-01	 1.2763567051e+00
 1.9620350399e+00	 1.8340193024e-01	 1.4502417047e+00
 1.9603774320e+00	 2.0034472601e-01	 1.5352001367e+00
 1.9585677328e+00	 2.1732476813e-01	 1.5475884405e+00
 1.9566047694e+00	 2.3434023454e-01	 1.5041735360e+00
 1.9544873939e+00	 2.5138927171e-01	 1.4221108771e+00
 1.9522144839e+00	 2.6846999499e-01	 1.3189209364e+00
 1.9497849434e+00	 2.8558048894e-01	 1.2124639931e+00
 1.9471977040e+00	 3.0271880770e-01	 1.1209130858e+00
 1.9444517253e+00	 3.1988297537e-01	 1.0627249865e+00
 1.9415459962e+00	 3.3707098643e-01	 1.0566090455e+00
 1.8546160272e+00	 3.2197911094e-01	 8.6700544880e-01
 1.8516873736e+00	 3.3841559011e-01	 1.1097942964e+00
 1.8486043281e+00	 3.5487092882e-01	 1.3480624934e+00
 1.8453660122e+00	 3.7134313460e-01	 1.5627501081e+00
 1.8419715781e+00	 3.8783018861e-01	 1.7926852736e+00
 1.8384202100e+00	 4.0433004622e-01	 2.0578322834e+00
 1.8347111246e+00	 4.2084063749e-01	 2.3280964616e+00
 1.8308435719e+00	 4.3735986779e-01	 2.5733220089e+00
 1.8268168362e+00	 4.5388561839e-01	 2.7633332066e+00
 1.8226302364e+00	 4.7041574706e-01	 2.8679765163e+00
 1.8182831273e+00	 4.8694808875e-01	 2.8571635222e+00
 1.8633090241e+00	 3.2348829849e-01	 4.7262890936e-01
 1.8603666432e+00	 3.4000181909e-01	 7.0435885271e-01
 1.8572691468e+00	 3.5653428762e-01	 9.4362059072e-01
 1.8540156522e+00	 3.7308370228e-01	 1.1709477345e+00
 1.8506053077e+00	 3.8964803478e-01	 1.4325121337e+00
 1.8470372935e+00	 4.0622523088e-01	 1.7362194764e+00
 1.8433108228e+00	 4.2281321096e-01	 2.0499522674e+00
 1.8394251420e+00	 4.3940987056e-01	 2.3415024325e+00
 1.8353795321e+00	 4.5601308101e-01	 2.5786474860e+00
 1.8311733088e+00	 4.7262069006e-01	 2.7291958107e+00
 1.8268058238e+00	 4.8923052251e-01	 2.7610328211e+00
 1.8720020210e+00	 3.2499748604e-01	 1.6710248651e-01
 1.8690459129e+00	 3.4158804806e-01	 3.8259118323e-01
 1.8659339656e+00	 3.5819764642e-01	 6.1479244582e-01
 1.8626652922e+00	 3.7482426996e-01	 8.4568137451e-01
 1.8592390372e+00	 3.9146588094e-01	 1.1267008714e+00
 1.8556543770e+00	 4.0812041554e-01	 1.4555902069e+00
 1.8519105210e+00	 4.2478578442e-01	 1.7994840932e+00
 1.8480067122e+00	 4.4145987332e-01	 2.1252017610e+00
 1.8439422280e+00	 4.5814054363e-01	 2.3991667981e+00
 1.8397163812e+00	 4.7482563307e-01	 2.5879311382e+00
 1.8353285204e+00	 4.9151295627e-01	 2.6581249308e+00
 1.8806950179e+00	 3.2650667358e-01	-4.8410876338e-02
 1.8777251825e+00	 3.4317427704e-01	 1.4658204613e-01
 1.8745987843e+00	 3.5986100522e-01	 3.6426290282e-01
 1.8713149323e+00	 3.7656483765e-01	 5.9002549466e-01
 1.8678727668e+00	 3.9328372711e-01	 8.7896592418e-01
 1.8642714605e+00	 4.1001560020e-01	 1.2205196666e+00
 1.8605102192e+00	 4.2675835788e-01	 1.5813857258e+00
 1.8565882823e+00	 4.4350987608e-01	 1.9282287393e+00
 1.8525049239e+00	 4.6026800626e-01	 2.2277193209e+00
 1.8482594536e+00	 4.7703057607e-01	 2.4461788035e+00
 1.8438512169e+00	 4.9379539003e-01	 2.5493422788e+00
 1.8893880148e+00	 3.2801586113e-01	-1.7277003836e-01
 1.8864044522e+00	 3.4476050601e-01	-1.6154121167e-03
 1.8832636031e+00	 3.6152436402e-01	 1.9482325534e-01
 1.8799645723e+00	 3.7830540533e-01	 4.0730234164e-01
 1.8765064963e+00	 3.9510157327e-01	 6.9297812064e-01
 1.8728885440e+00	 4.1191078486e-01	 1.0349743273e+00
 1.8691099174e+00	 4.2873093135e-01	 1.4003385761e+00
 1.8651698524e+00	 4.4555987884e-01	 1.7560702978e+00
 1.8610676199e+00	 4.6239546888e-01	 2.0691606305e+00
 1.8568025260e+00	 4.7923551908e-01	 2.3066325211e+00
 1.8523739134e+00	 4.9607782379e-01	 2.4355809568e+00
 1.8980810117e+00	 3.2952504868e-01	-2.0485509949e-01
 1.8950837218e+00	 3.4634673499e-01	-5.9985576346e-02
 1.8919284218e+00	 3.6318772282e-01	 1.0921419197e-01
 1.8886142123e+00	 3.8004597302e-01	 3.0077311518e-01
 1.8851402259e+00	 3.9691941944e-01	 5.7234075969e-01
 1.8815056276e+00	 4.1380596952e-01	 9.0269362372e-01
 1.8777096156e+00	 4.3070350481e-01	 1.2600009488e+00
 1.8737514226e+00	 4.4760988161e-01	 1.6123630139e+00
 1.8696303158e+00	 4.6452293151e-01	 1.9278494199e+00
 1.8653455984e+00	 4.8144046208e-01	 2.1745375670e+00
 1.8608966100e+00	 4.9836025755e-01	 2.3205512488e+00
 1.9067740086e+00	 3.3103423623e-01	-1.4356685074e-01
 1.9037629915e+00	 3.4793296396e-01	-2.6549423734e-02
 1.9005932405e+00	 3.6485108162e-01	 1.1012705173e-01
 1.8972638524e+00	 3.8178654070e-01	 2.7363934359e-01
 1.8937739555e+00	 3.9873726560e-01	 5.2059115337e-01
 1.8901227111e+00	 4.1570115418e-01	 8.2734843210e-01
 1.8863093138e+00	 4.3267607828e-01	 1.1639639664e+00
 1.8823329927e+00	 4.4965988437e-01	 1.5003938848e+00
 1.8781930117e+00	 4.6665039413e-01	 1.8065331867e+00
 1.8738886708e+00	 4.8364540509e-01	 2.0522514353e+00
 1.8694193065e+00	 5.0064269131e-01	 2.2074285405e+00
 1.9154670055e+00	 3.3254342378e-01	 1.2173763812e-02
 1.9124422611e+00	 3.4951919294e-01	 1.0063639303e-01
 1.9092580593e+00	 3.6651444042e-01	 2.0020504917e-01
 1.9059134924e+00	 3.8352710838e-01	 3.2904422267e-01
 1.9024076850e+00	 4.0055511177e-01	 5.4120210982e-01
 1.8987397946e+00	 4.1759633884e-01	 8.1254261176e-01
 1.8949090120e+00	 4.3464865175e-01	 1.1157530812e+00
 1.8909145628e+00	 4.5170988714e-01	 1.4233896429e+00
 1.8867557076e+00	 4.6877785675e-01	 1.7079088278e+00
 1.8824317432e+00	 4.8585034809e-01	 1.9416993292e+00
 1.8779420031e+00	 5.0292512507e-01	 2.0971138092e+00
 1.9241600024e+00	 3.3405261133e-01	 2.6342617352e-01
 1.9211215308e+00	 3.5110542191e-01	 3.2348044121e-01
 1.9179228780e+00	 3.6817779922e-01	 3.8204446999e-01
 1.9145631324e+00	 3.8526767607e-01	 4.7007391909e-01
 1.9110414146e+00	 4.0237295794e-01	 6.3758337705e-01
 1.9073568781e+00	 4.1949152350e-01	 8.6181450669e-01
 1.9035087102e+00	 4.3662122521e-01	 1.1188295470e+00
 1.8994961330e+00	 4.5375988990e-01	 1.3845181067e+00
 1.8953184036e+00	 4.7090531938e-01	 1.6346237732e+00
 1.8909748156e+00	 4.8805529110e-01	 1.8447707870e+00
 1.8864646996e+00	 5.0520755883e-01	 1.9904907173e+00
 1.9328529993e+00	 3.3556179888e-01	 6.1123069671e-01
 1.9298008004e+00	 3.5269165089e-01	 6.4385738278e-01
 1.9265876967e+00	 3.6984115802e-01	 6.5819583815e-01
 1.9232127724e+00	 3.8700824375e-01	 6.9975883946e-01
 1.9196751442e+00	 4.0419080410e-01	 8.1308304850e-01
 1.9159739616e+00	 4.2138670816e-01	 9.7863840735e-01
 1.9121084084e+00	 4.3859379868e-01	 1.1765918524e+00
 1.9080777031e+00	 4.5580989266e-01	 1.3868894961e+00
 1.9038810995e+00	 4.7303278200e-01	 1.5892770889e+00
 1.8995178880e+00	 4.9026023410e-01	 1.7633204761e+00
 1.8949873961e+00	 5.0748999259e-01	 1.8884259952e+00
 1.9415459962e+00	 3.3707098643e-01	 1.0566090455e+00
 1.9384800701e+00	 3.5427787987e-01	 1.0636088291e+00
 1.9352525155e+00	 3.7150451682e-01	 1.0314036476e+00
 1.9318624125e+00	 3.8874881144e-01	 1.0210748662e+00
 1.9283088737e+00	 4.0600865027e-01	 1.0709889319e+00
 1.9245910451e+00	 4.2328189282e-01	 1.1664259741e+00
 1.9207081067e+00	 4.4056637214e-01	 1.2923771162e+00
 1.9166592732e+00	 4.5785989543e-01	 1.4335577134e+00
 1.9124437954e+00	 4.7516024463e-01	 1.5744205530e+00
 1.9080609604e+00	 4.9246517711e-01	 1.6991689678e+00
 1.9035100927e+00	 5.0977242635e-01	 1.7917698145e+00
 1.8182831273e+00	 4.8694808875e-01	 2.8571635222e+00
 1.8137749003e+00	 5.0348045650e-01	 2.7466678832e+00
 1.8091049855e+00	 5.2001064282e-01	 2.5812577755e+00
 1.8042728512e+00	 5.3653641979e-01	 2.3743640933e+00
 1.7992780042e+00	 5.5305553956e-01	 2.1393421268e+00
 1.7941199904e+00	 5.6956573515e-01	 1.8894560148e+00
 1.7887983956e+00	 5.8606472121e-01	 1.6378630260e+00
 1.7833128461e+00	 6.0255019490e-01	 1.3975976985e+00
 1.7776630090e+00	 6.1901983667e-01	 1.1815558685e+00
 1.7718485933e+00	 6.3547131114e-01	 1.0024786246e+00
 1.7658693503e+00	 6.5190226803e-01	 8.7293622652e-01
 1.8268058238e+00	 4.8923052251e-01	 2.7610328211e+00
 1.8222764658e+00	 5.0584038114e-01	 2.6841220811e+00
 1.8175846620e+00	 5.2244804811e-01	 2.5401104158e+00
 1.8127298785e+00	 5.3905128506e-01	 2.3444335277e+00
 1.8077116195e+00	 5.5564783361e-01	 2.1124316664e+00
 1.8025294290e+00	 5.7223541615e-01	 1.8593309347e+00
 1.7971828907e+00	 5.8881173662e-01	 1.6002243817e+00
 1.7916716291e+00	 6.0537448139e-01	 1.3500529157e+00
 1.7859953100e+00	 6.2192132001e-01	 1.1235860754e+00
 1.7801536409e+00	 6.3844990620e-01	 9.3540269874e-01
 1.7741463719e+00	 6.5495787863e-01	 7.9987153399e-01
 1.8353285204e+00	 4.9151295627e-01	 2.6581249308e+00
 1.8307780312e+00	 5.0820030577e-01	 2.6140259848e+00
 1.8260643386e+00	 5.2488545340e-01	 2.4933166187e+00
 1.8211869057e+00	 5.4156615033e-01	 2.3127537036e+00
 1.8161452348e+00	 5.5824012766e-01	 2.0889869372e+00
 1.8109388675e+00	 5.7490509715e-01	 1.8385380301e+00
 1.8055673857e+00	 5.9155875203e-01	 1.5777796440e+00
 1.8000304122e+00	 6.0819876787e-01	 1.3229141172e+00
 1.7943276110e+00	 6.2482280336e-01	 1.0899520178e+00
 1.7884586885e+00	 6.4142850126e-01	 8.9469056897e-01
 1.7824233934e+00	 6.5801348923e-01	 7.5269199443e-01
 1.8438512169e+00	 4.9379539003e-01	 2.5493422788e+00
 1.8392795967e+00	 5.1056023041e-01	 2.5361431876e+00
 1.8345440151e+00	 5.2732285868e-01	 2.4396969367e+00
 1.8296439330e+00	 5.4408101560e-01	 2.2774076812e+00
 1.8245788501e+00	 5.6083242171e-01	 2.0665687475e+00
 1.8193483061e+00	 5.7757477815e-01	 1.8243407207e+00
 1.8139518808e+00	 5.9430576744e-01	 1.5677292528e+00
 1.8083891953e+00	 6.1102305435e-01	 1.3135626295e+00
 1.8026599120e+00	 6.2772428671e-01	 1.0784691385e+00
 1.7967637360e+00	 6.4440709632e-01	 8.7885428446e-01
 1.7907004149e+00	 6.6106909983e-01	 7.3087790183e-01
 1.8523739134e+00	 4.9607782379e-01	 2.4355809568e+00
 1.8477811622e+00	 5.1292015504e-01	 2.4502432020e+00
 1.8430236917e+00	 5.2976026397e-01	 2.3780948464e+00
 1.8381009602e+00	 5.4659588087e-01	 2.2365146344e+00
 1.8330124654e+00	 5.6342471576e-01	 2.0427832184e+00
 1.8277577446e+00	 5.8024445915e-01	 1.8140527718e+00
 1.8223363759e+00	 5.9705278285e-01	 1.5673246850e+00
 1.8167479783e+00	 6.1384734083e-01	 1.3194269953e+00
 1.8109922131e+00	 6.3062577006e-01	 1.0869915935e+00
 1.8050687836e+00	 6.4738569138e-01	 8.8643125392e-01
 1.7989774365e+00	 6.6412471043e-01	 7.3391653949e-01
 1.8608966100e+00	 4.9836025755e-01	 2.3205512488e+00
 1.8562827277e+00	 5.1528007968e-01	 2.3568691864e+00
 1.8515033682e+00	 5.3219766926e-01	 2.3073760474e+00
 1.8465579875e+00	 5.4911074614e-01	 2.1882288266e+00
 1.8414460807e+00	 5.6601700981e-01	 2.0152805255e+00
 1.8361671832e+00	 5.8291414015e-01	 1.8050368961e+00
 1.8307208709e+00	 5.9979979826e-01	 1.5738670167e+00
 1.8251067614e+00	 6.1667162732e-01	 1.3379815982e+00
 1.8193245141e+00	 6.3352725341e-01	 1.1134110451e+00
 1.8133738312e+00	 6.5036428644e-01	 9.1598331785e-01
 1.8072544580e+00	 6.6718032103e-01	 7.6130164594e-01
 1.8694193065e+00	 5.0064269131e-01	 2.2074285405e+00
 1.8647842931e+00	 5.1764000431e-01	 2.2601250443e+00
 1.8599830448e+00	 5.3463507454e-01	 2.2293087231e+00
 1.8550150148e+00	 5.5162561141e-01	 2.1312057651e+00
 1.8498796960e+00	 5.6860930386e-01	 1.9817536692e+00
 1.8445766217e+00	 5.8558382115e-01	 1.7947033886e+00
 1.8391053660e+00	 6.0254681367e-01	 1.5847055178e+00
 1.8334655445e+00	 6.1949591380e-01	 1.3667453171e+00
 1.8276568151e+00	 6.3642873675e-01	 1.1556554806e+00
 1.8216788787e+00	 6.5334288150e-01	 9.6609583853e-01
 1.8155314795e+00	 6.7023593163e-01	 8.1253288734e-01
 1.8779420031e+00	 5.0292512507e-01	 2.0971138092e+00
 1.8732858586e+00	 5.1999992895e-01	 2.1605123509e+00
 1.8684627213e+00	 5.3707247983e-01	 2.1462578642e+00
 1.8634720420e+00	 5.5414047668e-01	 2.0686783230e+00
 1.8583133113e+00	 5.7120159791e-01	 1.9420512375e+00
 1.8529860603e+00	 5.8825350215e-01	 1.7805744912e+00
 1.8474898610e+00	 6.0529382908e-01	 1.5972362782e+00
 1.8418243275e+00	 6.2232020028e-01	 1.4032802112e+00
 1.8359891162e+00	 6.3933022010e-01	 1.2116880559e+00
 1.8299839263e+00	 6.5632147656e-01	 1.0353768070e+00
 1.8238085011e+00	 6.7329154224e-01	 8.8711533618e-01
 1.8864646996e+00	 5.0520755883e-01	 1.9904907173e+00
 1.8817874241e+00	 5.2235985359e-01	 2.0578675815e+00
 1.8769423979e+00	 5.3950988512e-01	 2.0571974043e+00
 1.8719290693e+00	 5.5665534195e-01	 2.0002833602e+00
 1.8667469266e+00	 5.7379389196e-01	 1.8989186708e+00
 1.8613954988e+00	 5.9092318315e-01	 1.7648612367e+00
 1.8558743561e+00	 6.0804084449e-01	 1.6098069951e+00
 1.8501831106e+00	 6.2514448676e-01	 1.4451902331e+00
 1.8443214172e+00	 6.4223170345e-01	 1.2795059628e+00
 1.8382889739e+00	 6.5930007162e-01	 1.1224559665e+00
 1.8320855226e+00	 6.7634715284e-01	 9.8455895598e-01
 1.8949873961e+00	 5.0748999259e-01	 1.8884259952e+00
 1.8902889896e+00	 5.2471977822e-01	 1.9520289447e+00
 1.8854220744e+00	 5.4194729040e-01	 1.9611120623e+00
 1.8803860966e+00	 5.5917020722e-01	 1.9243358538e+00
 1.8751805420e+00	 5.7638618601e-01	 1.8503991407e+00
 1.8698049374e+00	 5.9359286415e-01	 1.7480184637e+00
 1.8642588511e+00	 6.1078785990e-01	 1.6259062091e+00
 1.8585418937e+00	 6.2796877325e-01	 1.4927474527e+00
 1.8526537182e+00	 6.4513318680e-01	 1.3571755210e+00
 1.8465940215e+00	 6.6227866668e-01	 1.2259839523e+00
 1.8403625441e+00	 6.7940276344e-01	 1.1043780920e+00
 1.9035100927e+00	 5.0977242635e-01	 1.7917698145e+00
 1.8987905551e+00	 5.2707970286e-01	 1.8428363391e+00
 1.8939017510e+00	 5.4438469569e-01	 1.8570033437e+00
 1.8888431238e+00	 5.6168507249e-01	 1.8391793568e+00
 1.8836141573e+00	 5.7897848006e-01	 1.7943671915e+00
 1.8782143759e+00	 5.9626254515e-01	 1.7276490925e+00
 1.8726433462e+00	 6.1353487531e-01	 1.6441706079e+00
 1.8669006767e+00	 6.3079305973e-01	 1.5491231692e+00
 1.8609860192e+00	 6.4803467015e-01	 1.4477253735e+00
 1.8548990690e+00	 6.6525726174e-01	 1.3452029592e+00
 1.8486395656e+00	 6.8245837404e-01	 1.2460909675e+00
 1.7658693503e+00	 6.5190226803e-01	 8.7293622652e-01
 1.7597240152e+00	 6.6831313035e-01	 7.9604805511e-01
 1.7534134267e+00	 6.8469872359e-01	 7.6191736397e-01
 1.7469374649e+00	 7.0105665617e-01	 7.6331472390e-01
 1.7402960542e+00	 7.1738452531e-01	 7.9290468146e-01
 1.7334891636e+00	 7.3367991799e-01	 8.4325762879e-01
 1.7265168079e+00	 7.4994041202e-01	 9.0361792547e-01
 1.7193790471e+00	 7.6616357699e-01	 9.5249410532e-01
 1.7120759877e+00	 7.8234697537e-01	 9.8300198552e-01
 1.7046077823e+00	 7.9848816357e-01	 9.9032554502e-01
 1.6969746305e+00	 8.1458469296e-01	 9.6977284021e-01
 1.7741463719e+00	 6.5495787863e-01	 7.9987153399e-01
 1.7679722322e+00	 6.7144566231e-01	 7.2316980732e-01
 1.7616320646e+00	 6.8790805846e-01	 6.9619868334e-01
 1.7551257485e+00	 7.0434266430e-01	 7.1011878372e-01
 1.7484532080e+00	 7.2074706578e-01	 7.5600643297e-01
 1.7416144121e+00	 7.3711883859e-01	 8.2486791677e-01
 1.7346093753e+00	 7.5345554916e-01	 9.0132735101e-01
 1.7274381583e+00	 7.6975475570e-01	 9.6373826179e-01
 1.7201008678e+00	 7.8601400927e-01	 1.0051949844e+00
 1.7125976573e+00	 8.0223085480e-01	 1.0194675027e+00
 1.7049287272e+00	 8.1840283220e-01	 1.0004938500e+00
 1.7824233934e+00	 6.5801348923e-01	 7.5269199443e-01
 1.7762204492e+00	 6.7457819426e-01	 6.7329092800e-01
 1.7698507024e+00	 6.9111739332e-01	 6.4905395504e-01
 1.7633140321e+00	 7.0762867243e-01	 6.7008259658e-01
 1.7566103618e+00	 7.2410960625e-01	 7.2640649365e-01
 1.7497396605e+00	 7.4055775918e-01	 8.0799918722e-01
 1.7427019428e+00	 7.5697068630e-01	 8.9426959294e-01
 1.7354972695e+00	 7.7334593442e-01	 9.6594626202e-01
 1.7281257479e+00	 7.8968104316e-01	 1.0156811218e+00
 1.7205875322e+00	 8.0597354602e-01	 1.0363097741e+00
 1.7128828239e+00	 8.2222097143e-01	 1.0208655747e+00
 1.7907004149e+00	 6.6106909983e-01	 7.3087790183e-01
 1.7844686661e+00	 6.7771072622e-01	 6.4691332017e-01
 1.7780693403e+00	 6.9432672819e-01	 6.2183020288e-01
 1.7715023157e+00	 7.1091468055e-01	 6.4521413391e-01
 1.7647675156e+00	 7.2747214673e-01	 7.0658200811e-01
 1.7578649089e+00	 7.4399667978e-01	 7.9494308182e-01
 1.7507945102e+00	 7.6048582344e-01	 8.8519621706e-01
 1.7435563806e+00	 7.7693711313e-01	 9.6172035143e-01
 1.7361506280e+00	 7.9334807706e-01	 1.0166919149e+00
 1.7285774072e+00	 8.0971623725e-01	 1.0424844973e+00
 1.7208369206e+00	 8.2603911066e-01	 1.0316850033e+00
 1.7989774365e+00	 6.6412471043e-01	 7.3391653949e-01
 1.7927168831e+00	 6.8084325817e-01	 6.4452650921e-01
 1.7862879781e+00	 6.9753606306e-01	 6.1584594224e-01
 1.7796905993e+00	 7.1420068868e-01	 6.3748010851e-01
 1.7729246694e+00	 7.3083468720e-01	 6.9895963573e-01
 1.7659901573e+00	 7.4743560037e-01	 7.8781513681e-01
 1.7588870776e+00	 7.6400096058e-01	 8.7680460295e-01
 1.7516154918e+00	 7.8052829185e-01	 9.5361178217e-01
 1.7441755081e+00	 7.9701511095e-01	 1.0104151485e+00
 1.7365672822e+00	 8.1345892847e-01	 1.0395915351e+00
 1.7287910173e+00	 8.2985724989e-01	 1.0337326323e+00
 1.8072544580e+00	 6.6718032103e-01	 7.6130164594e-01
 1.8009651001e+00	 6.8397579012e-01	 6.6660752469e-01
 1.7945066160e+00	 7.0074539792e-01	 6.3239140338e-01
 1.7878788828e+00	 7.1748669681e-01	 6.4880646163e-01
 1.7810818232e+00	 7.3419722767e-01	 7.0591622033e-01
 1.7741154057e+00	 7.5087452097e-01	 7.8919578354e-01
 1.7669796451e+00	 7.6751609772e-01	 8.7173937928e-01
 1.7596746030e+00	 7.8411947056e-01	 9.4412219101e-01
 1.7522003882e+00	 8.0068214485e-01	 9.9899610092e-01
 1.7445571572e+00	 8.1720161970e-01	 1.0291994546e+00
 1.7367451140e+00	 8.3367538912e-01	 1.0277730977e+00
 1.8155314795e+00	 6.7023593163e-01	 8.1253288734e-01
 1.8092133171e+00	 6.8710832208e-01	 7.1362077697e-01
 1.8027252539e+00	 7.0395473279e-01	 6.7272873979e-01
 1.7960671664e+00	 7.2077270493e-01	 6.8107882730e-01
 1.7892389771e+00	 7.3755976815e-01	 7.2977943191e-01
 1.7822406541e+00	 7.5431344156e-01	 8.0161570739e-01
 1.7750722125e+00	 7.7103123486e-01	 8.7259382742e-01
 1.7677337141e+00	 7.8771064928e-01	 9.3570494726e-01
 1.7602252683e+00	 8.0434917874e-01	 9.8453874607e-01
 1.7525470321e+00	 8.2094431093e-01	 1.0128464873e+00
 1.7446992107e+00	 8.3749352836e-01	 1.0145557979e+00
 1.8238085011e+00	 6.7329154224e-01	 8.8711533618e-01
 1.8174615341e+00	 6.9024085403e-01	 7.8601792872e-01
 1.8109438917e+00	 7.0716406766e-01	 7.3809222193e-01
 1.8042554500e+00	 7.2405871306e-01	 7.3614297489e-01
 1.7973961309e+00	 7.4092230862e-01	 7.7282623768e-01
 1.7903659025e+00	 7.5775236216e-01	 8.2755626469e-01
 1.7831647799e+00	 7.7454637200e-01	 8.8191125418e-01
 1.7757928253e+00	 7.9130182799e-01	 9.3076647155e-01
 1.7682501484e+00	 8.0801621264e-01	 9.6910692908e-01
 1.7605369071e+00	 8.2468700215e-01	 9.9204147143e-01
 1.7526533074e+00	 8.4131166759e-01	 9.9481550737e-01
 1.8320855226e+00	 6.7634715284e-01	 9.8455895598e-01
 1.8257097511e+00	 6.9337338599e-01	 8.8423776139e-01
 1.8191625296e+00	 7.1037340252e-01	 8.2968841700e-01
 1.8124437336e+00	 7.2734472119e-01	 8.1580523037e-01
 1.8055532847e+00	 7.4428484909e-01	 8.3669180877e-01
 1.7984911509e+00	 7.6119128276e-01	 8.6945079458e-01
 1.7912573474e+00	 7.7806150914e-01	 9.0218633479e-01
 1.7838519365e+00	 7.9489300671e-01	 9.3166752645e-01
 1.7762750285e+00	 8.1168324653e-01	 9.5472551871e-01
 1.7685267821e+00	 8.2842969338e-01	 9.6826477672e-01
 1.7606074041e+00	 8.4512980682e-01	 9.6927298267e-01
 1.8403625441e+00	 6.7940276344e-01	 1.1043780920e+00
 1.8339579680e+00	 6.9650591794e-01	 1.0087060370e+00
 1.8273811674e+00	 7.1358273739e-01	 9.4869635496e-01
 1.8206320172e+00	 7.3063072931e-01	 9.2183287715e-01
 1.8137104385e+00	 7.4764738957e-01	 9.2306391491e-01
 1.8066163993e+00	 7.6463020335e-01	 9.2968590280e-01
 1.7993499148e+00	 7.8157664628e-01	 9.3586642696e-01
 1.7919110476e+00	 7.9848418542e-01	 9.4072447986e-01
 1.7842999086e+00	 8.1535028043e-01	 9.4338153610e-01
 1.7765166570e+00	 8.3217238461e-01	 9.4296921204e-01
 1.7685615008e+00	 8.4894794605e-01	 9.3863555938e-01
 1.8486395656e+00	 6.8245837404e-01	 1.2460909675e+00
 1.8422061850e+00	 6.9963844990e-01	 1.1598353553e+00
 1.8355998053e+00	 7.1679207226e-01	 1.0962676815e+00
 1.8288203008e+00	 7.3391673744e-01	 1.0559545369e+00
 1.8218675923e+00	 7.5100993004e-01	 1.0340417723e+00
 1.8147416478e+00	 7.6806912395e-01	 1.0106027180e+00
 1.8074424822e+00	 7.8509178342e-01	 9.8535285699e-01
 1.7999701588e+00	 8.0207536413e-01	 9.6021054197e-01
 1.7923247887e+00	 8.1901731432e-01	 9.3702526093e-01
 1.7845065320e+00	 8.3591507583e-01	 9.1758091653e-01
 1.7765155975e+00	 8.5276608528e-01	 9.0359774151e-01
 1.6969746305e+00	 8.1458469296e-01	 9.6977284021e-01
 1.6891781183e+00	 8.3063138694e-01	 9.2102371300e-01
 1.6812172549e+00	 8.4662853067e-01	 8.5236785276e-01
 1.6730923806e+00	 8.6257366750e-01	 7.7229182009e-01
 1.6648038834e+00	 8.7846434017e-01	 6.8946777374e-01
 1.6563521993e+00	 8.9429809199e-01	 6.1273933639e-01
 1.6477378124e+00	 9.1007246793e-01	 5.5110560578e-01
 1.6389612550e+00	 9.2578501584e-01	 5.1370328224e-01
 1.6300231078e+00	 9.4143328755e-01	 5.0978689419e-01
 1.6209239997e+00	 9.5701484010e-01	 5.4870711348e-01
 1.6116646083e+00	 9.7252723688e-01	 6.3988716392e-01
 1.7049287272e+00	 8.1840283220e-01	 1.0004938500e+00
 1.6970956710e+00	 8.3452474059e-01	 9.4671094459e-01
 1.6890974932e+00	 8.5059686648e-01	 8.6699967754e-01
 1.6809345359e+00	 8.6661674170e-01	 7.7124865223e-01
 1.6726071886e+00	 8.8258189749e-01	 6.6951097718e-01
 1.6641158896e+00	 8.9848986561e-01	 5.7198796615e-01
 1.6554611252e+00	 9.1433817956e-01	 4.8901094604e-01
 1.6466434301e+00	 9.3012437566e-01	 4.3102114552e-01
 1.6376633878e+00	 9.4584599429e-01	 4.0854764775e-01
 1.6285216302e+00	 9.6150058104e-01	 4.3218340163e-01
 1.6192188380e+00	 9.7708568786e-01	 5.1255929740e-01
 1.7128828239e+00	 8.2222097143e-01	 1.0208655747e+00
 1.7050132237e+00	 8.3841809423e-01	 9.6637278517e-01
 1.6969777316e+00	 8.5456520229e-01	 8.8142621277e-01
 1.6887766911e+00	 8.7065981591e-01	 7.7671524862e-01
 1.6804104939e+00	 8.8669945480e-01	 6.6308363289e-01
 1.6718795800e+00	 9.0268163924e-01	 5.5151192239e-01
 1.6631844380e+00	 9.1860389118e-01	 4.5309802162e-01
 1.6543256052e+00	 9.3446373548e-01	 3.7903575057e-01
 1.6453036679e+00	 9.5025870104e-01	 3.4059143294e-01
 1.6361192607e+00	 9.6598632197e-01	 3.4907849973e-01
 1.6267730677e+00	 9.8164413885e-01	 4.1583011533e-01
 1.7208369206e+00	 8.2603911066e-01	 1.0316850033e+00
 1.7129307764e+00	 8.4231144788e-01	 9.7993760926e-01
 1.7048579700e+00	 8.5853353810e-01	 8.9488597836e-01
 1.6966188464e+00	 8.7470289011e-01	 7.8742731916e-01
 1.6882137992e+00	 8.9081701212e-01	 6.6861388021e-01
 1.6796432703e+00	 9.0687341286e-01	 5.4963511109e-01
 1.6709077508e+00	 9.2286960280e-01	 4.4179783625e-01
 1.6620077804e+00	 9.3880309530e-01	 3.5650441306e-01
 1.6529439479e+00	 9.5467140778e-01	 3.0522885679e-01
 1.6437168913e+00	 9.7047206291e-01	 2.9949092641e-01
 1.6343272974e+00	 9.8620258983e-01	 3.5082817753e-01
 1.7287910173e+00	 8.2985724989e-01	 1.0337326323e+00
 1.7208483291e+00	 8.4620480153e-01	 9.8733368015e-01
 1.7127382084e+00	 8.6250187391e-01	 9.0663045397e-01
 1.7044610017e+00	 8.7874596432e-01	 8.0214313907e-01
 1.6960171044e+00	 8.9493456943e-01	 6.8455841033e-01
 1.6874069607e+00	 9.1106518648e-01	 5.6471220619e-01
 1.6786310636e+00	 9.2713531443e-01	 4.5357045780e-01
 1.6696899555e+00	 9.4314245513e-01	 3.6220774194e-01
 1.6605842280e+00	 9.5908411453e-01	 3.0178383711e-01
 1.6513145218e+00	 9.7495780385e-01	 2.8351817456e-01
 1.6418815270e+00	 9.9076104082e-01	 3.1866218806e-01
 1.7367451140e+00	 8.3367538912e-01	 1.0277730977e+00
 1.7287658818e+00	 8.5009815518e-01	 9.8848942021e-01
 1.7206184467e+00	 8.6647020972e-01	 9.1592406292e-01
 1.7123031570e+00	 8.8278903852e-01	 8.1964332488e-01
 1.7038204097e+00	 8.9905212675e-01	 7.0940211659e-01
 1.6951706510e+00	 9.1525696011e-01	 5.9512825959e-01
 1.6863543764e+00	 9.3140102605e-01	 4.8690467708e-01
 1.6773721306e+00	 9.4748181495e-01	 3.9494943929e-01
 1.6682245080e+00	 9.6349682127e-01	 3.2959363876e-01
 1.6589121523e+00	 9.7944354479e-01	 3.0125708289e-01
 1.6494357567e+00	 9.9531949180e-01	 3.2042180395e-01
 1.7446992107e+00	 8.3749352836e-01	 1.0145557979e+00
 1.7366834345e+00	 8.5399150883e-01	 9.8333368213e-01
 1.7284986851e+00	 8.7043854553e-01	 9.2204416495e-01
 1.7201453123e+00	 8.8683211273e-01	 8.3873062525e-01
 1.7116237150e+00	 9.0316968406e-01	 7.4165776311e-01
 1.7029343414e+00	 9.1944873373e-01	 6.3929833091e-01
 1.6940776892e+00	 9.3566673768e-01	 5.4031768499e-01
 1.6850543058e+00	 9.5182117477e-01	 4.5355611468e-01
 1.6758647881e+00	 9.6790952801e-01	 3.8800891819e-01
 1.6665097828e+00	 9.8392928573e-01	 3.5280420668e-01
 1.6569899864e+00	 9.9987794279e-01	 3.5717843128e-01
 1.7526533074e+00	 8.4131166759e-01	 9.9481550737e-01
 1.7446009872e+00	 8.5788486247e-01	 9.7179602121e-01
 1.7363789235e+00	 8.7440688134e-01	 9.2428105768e-01
 1.7279874676e+00	 8.9087518693e-01	 8.5822972608e-01
 1.7194270202e+00	 9.0728724138e-01	 7.7986567124e-01
 1.7106980317e+00	 9.2364050735e-01	 6.9566713616e-01
 1.7018010020e+00	 9.3993244930e-01	 6.1235476760e-01
 1.6927364809e+00	 9.5616053459e-01	 5.3687711386e-01
 1.6835050681e+00	 9.7232223476e-01	 4.7639377613e-01
 1.6741074133e+00	 9.8841502667e-01	 4.3825618776e-01
 1.6645442161e+00	 1.0044363938e+00	 4.2998600899e-01
 1.7606074041e+00	 8.4512980682e-01	 9.6927298267e-01
 1.7525185399e+00	 8.6177821612e-01	 9.5380696845e-01
 1.7442591619e+00	 8.7837521715e-01	 9.2193798658e-01
 1.7358296229e+00	 8.9491826114e-01	 8.7698706954e-01
 1.7272303255e+00	 9.1140479869e-01	 8.2259342328e-01
 1.7184617220e+00	 9.2783228098e-01	 7.6270871477e-01
 1.7095243148e+00	 9.4419816092e-01	 7.0158901843e-01
 1.7004186560e+00	 9.6049989442e-01	 6.4378436112e-01
 1.6911453482e+00	 9.7673494150e-01	 5.9412581791e-01
 1.6817050438e+00	 9.9290076761e-01	 5.5771012385e-01
 1.6720984458e+00	 1.0089948448e+00	 5.3988178084e-01
 1.7685615008e+00	 8.4894794605e-01	 9.3863555938e-01
 1.7604360926e+00	 8.6567156977e-01	 9.2929830459e-01
 1.7521394003e+00	 8.8234355296e-01	 9.1433116293e-01
 1.7436717782e+00	 8.9896133535e-01	 8.9387068652e-01
 1.7350336307e+00	 9.1552235600e-01	 8.6843558283e-01
 1.7262254124e+00	 9.3202405460e-01	 8.3892611455e-01
 1.7172476276e+00	 9.4846387255e-01	 8.0662106743e-01
 1.7081008311e+00	 9.6483925424e-01	 7.7317221500e-01
 1.6987856282e+00	 9.8114764825e-01	 7.4059622141e-01
 1.6893026743e+00	 9.9738650855e-01	 7.1126393706e-01
 1.6796526755e+00	 1.0135532957e+00	 6.8788705591e-01
 1.7765155975e+00	 8.5276608528e-01	 9.0359774151e-01
 1.7683536454e+00	 8.6956492342e-01	 8.9820333499e-01
 1.7600196386e+00	 8.8631188877e-01	 9.0078978980e-01
 1.7515139334e+00	 9.0300440955e-01	 9.0777004209e-01
 1.7428369360e+00	 9.1963991332e-01	 9.1601343138e-01
 1.7339891027e+00	 9.3621582822e-01	 9.2285109380e-01
 1.7249709404e+00	 9.5272958417e-01	 9.2607882618e-01
 1.7157830063e+00	 9.6917861406e-01	 9.2395733689e-01
 1.7064259082e+00	 9.8556035499e-01	 9.1520981234e-01
 1.6969003048e+00	 1.0018722495e+00	 8.9901674188e-01
 1.6872069052e+00	 1.0181117467e+00	 8.7500795795e-01
 1.6116646083e+00	 9.7252723688e-01	 6.3988716392e-01
 1.6022456596e+00	 9.8796804913e-01	 7.7750564072e-01
 1.5926679297e+00	 1.0033348581e+00	 9.4160178971e-01
 1.5829322433e+00	 1.0186252552e+00	 1.1206109691e+00
 1.5730394731e+00	 1.0338368432e+00	 1.3032113043e+00
 1.5629905397e+00	 1.0489672371e+00	 1.4783225508e+00
 1.5527864116e+00	 1.0640140653e+00	 1.6351031593e+00
 1.5424281048e+00	 1.0789749711e+00	 1.7629455780e+00
 1.5319166823e+00	 1.0938476136e+00	 1.8514698413e+00
 1.5212532544e+00	 1.1086296691e+00	 1.8905155066e+00
 1.5104389779e+00	 1.1233188320e+00	 1.8681380131e+00
 1.6192188380e+00	 9.7708568786e-01	 5.1255929740e-01
 1.6097557406e+00	 9.9259887463e-01	 6.4693426867e-01
 1.6001331178e+00	 1.0080377112e+00	 8.1646772817e-01
 1.5903517980e+00	 1.0233997779e+00	 1.0078924062e+00
 1.5804126582e+00	 1.0386826659e+00	 1.2082624418e+00
 1.5703166233e+00	 1.0538839793e+00	 1.4049548756e+00
 1.5600646662e+00	 1.0690013353e+00	 1.5856692006e+00
 1.5496578076e+00	 1.0840323662e+00	 1.7384250021e+00
 1.5390971158e+00	 1.0989747202e+00	 1.8515577313e+00
 1.5283837060e+00	 1.1138260624e+00	 1.9136210195e+00
 1.5175187406e+00	 1.1285840766e+00	 1.9097888367e+00
 1.6267730677e+00	 9.8164413885e-01	 4.1583011533e-01
 1.6172658216e+00	 9.9722970013e-01	 5.4156620464e-01
 1.6075983058e+00	 1.0127405644e+00	 7.0976089134e-01
 1.5977713528e+00	 1.0281743005e+00	 9.0615778931e-01
 1.5877858433e+00	 1.0435284887e+00	 1.1168799738e+00
 1.5776427068e+00	 1.0588007215e+00	 1.3284329790e+00
 1.5673429207e+00	 1.0739886054e+00	 1.5277057298e+00
 1.5568875104e+00	 1.0890897614e+00	 1.7019694370e+00
 1.5462775492e+00	 1.1041018267e+00	 1.8388744968e+00
 1.5355141577e+00	 1.1190224557e+00	 1.9256822606e+00
 1.5245985033e+00	 1.1338493213e+00	 1.9463016678e+00
 1.6343272974e+00	 9.8620258983e-01	 3.5082817753e-01
 1.6247759026e+00	 1.0018605256e+00	 4.6353981041e-01
 1.6150634939e+00	 1.0174434175e+00	 6.2433516139e-01
 1.6051909075e+00	 1.0329488231e+00	 8.1867228029e-01
 1.5951590284e+00	 1.0483743114e+00	 1.0324263415e+00
 1.5849687903e+00	 1.0637174638e+00	 1.2518930301e+00
 1.5746211752e+00	 1.0789758754e+00	 1.4637897590e+00
 1.5641172133e+00	 1.0941471565e+00	 1.6552547437e+00
 1.5534579827e+00	 1.1092289332e+00	 1.8138439790e+00
 1.5426446093e+00	 1.1242188490e+00	 1.9254747019e+00
 1.5316782660e+00	 1.1391145659e+00	 1.9745618878e+00
 1.6418815270e+00	 9.9076104082e-01	 3.1866218806e-01
 1.6322859836e+00	 1.0064913511e+00	 4.1495509593e-01
 1.6225286819e+00	 1.0221462707e+00	 5.6299294910e-01
 1.6126104622e+00	 1.0377233457e+00	 7.4864200919e-01
 1.6025322135e+00	 1.0532201341e+00	 9.5820313235e-01
 1.5922948738e+00	 1.0686342060e+00	 1.1784144367e+00
 1.5818994297e+00	 1.0839631455e+00	 1.3964517163e+00
 1.5713469161e+00	 1.0992045516e+00	 1.5999266311e+00
 1.5606384162e+00	 1.1143560397e+00	 1.7767705327e+00
 1.5497750609e+00	 1.1294152423e+00	 1.9118851660e+00
 1.5387580287e+00	 1.1443798106e+00	 1.9915253920e+00
 1.6494357567e+00	 9.9531949180e-01	 3.2042180395e-01
 1.6397960645e+00	 1.0111221766e+00	 3.9787495657e-01
 1.6299938699e+00	 1.0268491238e+00	 5.2848673550e-01
 1.6200300169e+00	 1.0424978684e+00	 6.9921579199e-01
 1.6099053986e+00	 1.0580659568e+00	 8.9745284137e-01
 1.5996209574e+00	 1.0735509482e+00	 1.1110215129e+00
 1.5891776842e+00	 1.0889504155e+00	 1.3281768813e+00
 1.5785766189e+00	 1.1042619468e+00	 1.5376017140e+00
 1.5678188496e+00	 1.1194831462e+00	 1.7276805551e+00
 1.5569055125e+00	 1.1346116356e+00	 1.8838338881e+00
 1.5458377914e+00	 1.1496450553e+00	 1.9942167400e+00
 1.6569899864e+00	 9.9987794279e-01	 3.5717843128e-01
 1.6473061455e+00	 1.0157530021e+00	 4.1432638612e-01
 1.6374590580e+00	 1.0315519769e+00	 5.2352058101e-01
 1.6274495716e+00	 1.0472723910e+00	 6.7348681099e-01
 1.6172785837e+00	 1.0629117795e+00	 8.5336059391e-01
 1.6069470409e+00	 1.0784676904e+00	 1.0526851121e+00
 1.5964559387e+00	 1.0939376856e+00	 1.2614067906e+00
 1.5858063218e+00	 1.1093193419e+00	 1.4698685513e+00
 1.5749992831e+00	 1.1246102527e+00	 1.6670017290e+00
 1.5640359641e+00	 1.1398080289e+00	 1.8402735199e+00
 1.5529175541e+00	 1.1549102999e+00	 1.9797273419e+00
 1.6645442161e+00	 1.0044363938e+00	 4.2998600899e-01
 1.6548162265e+00	 1.0203838276e+00	 4.6630166622e-01
 1.6449242460e+00	 1.0362548301e+00	 5.5075160304e-01
 1.6348691263e+00	 1.0520469136e+00	 6.7449425917e-01
 1.6246517688e+00	 1.0677576022e+00	 8.2905583148e-01
 1.6142731244e+00	 1.0833844327e+00	 1.0063242251e+00
 1.6037341932e+00	 1.0989249556e+00	 1.1985406153e+00
 1.5930360246e+00	 1.1143767371e+00	 1.3981999169e+00
 1.5821797165e+00	 1.1297373592e+00	 1.5952043926e+00
 1.5711664157e+00	 1.1450044221e+00	 1.7801881457e+00
 1.5599973168e+00	 1.1601755446e+00	 1.9452136808e+00
 1.6720984458e+00	 1.0089948448e+00	 5.3988178084e-01
 1.6623263075e+00	 1.0250146531e+00	 5.5575953301e-01
 1.6523894341e+00	 1.0409576832e+00	 6.1279142304e-01
 1.6422886811e+00	 1.0568214363e+00	 7.0522494946e-01
 1.6320249539e+00	 1.0726034250e+00	 8.2761396127e-01
 1.6215992079e+00	 1.0883011749e+00	 9.7480754406e-01
 1.6110124477e+00	 1.1039122257e+00	 1.1419365104e+00
 1.6002657274e+00	 1.1194341322e+00	 1.3238558615e+00
 1.5893601500e+00	 1.1348644658e+00	 1.5127626610e+00
 1.5782968673e+00	 1.1502008154e+00	 1.7025923120e+00
 1.5670770795e+00	 1.1654407892e+00	 1.8878955687e+00
 1.6796526755e+00	 1.0135532957e+00	 6.8788705591e-01
 1.6698363885e+00	 1.0296454786e+00	 6.8462632175e-01
 1.6598546221e+00	 1.0456605364e+00	 7.1220758398e-01
 1.6497082358e+00	 1.0615959589e+00	 7.6861489019e-01
 1.6393981391e+00	 1.0774492477e+00	 8.5205797083e-01
 1.6289252915e+00	 1.0932179171e+00	 9.6095499419e-01
 1.6182907023e+00	 1.1088994957e+00	 1.0939129376e+00
 1.6074954302e+00	 1.1244915273e+00	 1.2483978780e+00
 1.5965405835e+00	 1.1399915723e+00	 1.4201540816e+00
 1.5854273189e+00	 1.1553972087e+00	 1.6065300691e+00
 1.5741568421e+00	 1.1707060339e+00	 1.8050544360e+00
 1.6872069052e+00	 1.0181117467e+00	 8.7500795795e-01
 1.6773464695e+00	 1.0342763041e+00	 8.5479709003e-01
 1.6673198101e+00	 1.0503633895e+00	 8.5152493924e-01
 1.6571277905e+00	 1.0663704815e+00	 8.6755082760e-01
 1.6467713242e+00	 1.0822950704e+00	 9.0536000886e-01
 1.6362513750e+00	 1.0981346594e+00	 9.6753923375e-01
 1.6255689568e+00	 1.1138867658e+00	 1.0567071111e+00
 1.6147251331e+00	 1.1295489225e+00	 1.1733987617e+00
 1.6037210169e+00	 1.1451186788e+00	 1.3178592862e+00
 1.5925577705e+00	 1.1605936020e+00	 1.4910740254e+00
 1.5812366048e+00	 1.1759712785e+00	 1.6940316527e+00
 1.5104389779e+00	 1.1233188320e+00	 1.8681380131e+00
 1.4994731802e+00	 1.1379152875e+00	 1.7957013217e+00
 1.4883589417e+00	 1.1524142568e+00	 1.7026971627e+00
 1.4770975637e+00	 1.1668134863e+00	 1.6005675154e+00
 1.4656903925e+00	 1.1811107454e+00	 1.5004227006e+00
 1.4541388188e+00	 1.1953038274e+00	 1.4110532140e+00
 1.4424442774e+00	 1.2093905506e+00	 1.3404499363e+00
 1.4306082465e+00	 1.2233687593e+00	 1.2961441053e+00
 1.4186322469e+00	 1.2372363253e+00	 1.2852156071e+00
 1.4065178420e+00	 1.2509911485e+00	 1.3143015897e+00
 1.3942666362e+00	 1.2646311581e+00	 1.3896052669e+00
 1.5175187406e+00	 1.1285840766e+00	 1.9097888367e+00
 1.5065015437e+00	 1.1432489490e+00	 1.8471612976e+00
 1.4953352104e+00	 1.1578158782e+00	 1.7514579320e+00
 1.4840210478e+00	 1.1722826001e+00	 1.6358159627e+00
 1.4725604086e+00	 1.1866468736e+00	 1.5128819968e+00
 1.4609546902e+00	 1.2009064817e+00	 1.3936461052e+00
 1.4492053338e+00	 1.2150592325e+00	 1.2873929205e+00
 1.4373138248e+00	 1.2291029602e+00	 1.2027708779e+00
 1.4252816911e+00	 1.2430355266e+00	 1.1478201122e+00
 1.4131105032e+00	 1.2568548217e+00	 1.1299797329e+00
 1.4008018734e+00	 1.2705587650e+00	 1.1560954896e+00
 1.5245985033e+00	 1.1338493213e+00	 1.9463016678e+00
 1.5135299073e+00	 1.1485826105e+00	 1.9021616064e+00
 1.5023114790e+00	 1.1632174995e+00	 1.8133735919e+00
 1.4909445319e+00	 1.1777517138e+00	 1.6942428966e+00
 1.4794304248e+00	 1.1921830018e+00	 1.5584271294e+00
 1.4677705615e+00	 1.2065091360e+00	 1.4183058275e+00
 1.4559663903e+00	 1.2207279144e+00	 1.2841150311e+00
 1.4440194031e+00	 1.2348371611e+00	 1.1651520848e+00
 1.4319311353e+00	 1.2488347278e+00	 1.0699872891e+00
 1.4197031645e+00	 1.2627184948e+00	 1.0064705975e+00
 1.4073371105e+00	 1.2764863719e+00	 9.8173884897e-01
 1.5316782660e+00	 1.1391145659e+00	 1.9745618878e+00
 1.5205582709e+00	 1.1539162720e+00	 1.9556532855e+00
 1.5092877477e+00	 1.1686191209e+00	 1.8819055238e+00
 1.4978680160e+00	 1.1832208276e+00	 1.7681906590e+00
 1.4863004409e+00	 1.1977191300e+00	 1.6286558751e+00
 1.4745864329e+00	 1.2121117903e+00	 1.4764896090e+00
 1.4627274467e+00	 1.2263965963e+00	 1.3224437168e+00
 1.4507249815e+00	 1.2405713619e+00	 1.1759671124e+00
 1.4385805794e+00	 1.2546339290e+00	 1.0457365195e+00
 1.4262958258e+00	 1.2685821679e+00	 9.3962760291e-01
 1.4138723476e+00	 1.2824139788e+00	 8.6472247062e-01
 1.5387580287e+00	 1.1443798106e+00	 1.9915253920e+00
 1.5275866344e+00	 1.1592499335e+00	 2.0026933873e+00
 1.5162640164e+00	 1.1740207423e+00	 1.9506484561e+00
 1.5047915001e+00	 1.1886899413e+00	 1.8502362010e+00
 1.4931704571e+00	 1.2032552581e+00	 1.7155319525e+00
 1.4814023042e+00	 1.2177144446e+00	 1.5598123900e+00
 1.4694885032e+00	 1.2320652782e+00	 1.3943580113e+00
 1.4574305598e+00	 1.2463055628e+00	 1.2280318978e+00
 1.4452300236e+00	 1.2604331303e+00	 1.0691996746e+00
 1.4328884870e+00	 1.2744458411e+00	 9.2538345727e-01
 1.4204075848e+00	 1.2883415856e+00	 8.0327032039e-01
 1.5458377914e+00	 1.1496450553e+00	 1.9942167400e+00
 1.5346149980e+00	 1.1645835949e+00	 2.0384423050e+00
 1.5232402850e+00	 1.1794223636e+00	 2.0133271519e+00
 1.5117149841e+00	 1.1941590551e+00	 1.9331050758e+00
 1.5000404732e+00	 1.2087913863e+00	 1.8112278274e+00
 1.4882181756e+00	 1.2233170989e+00	 1.6603372279e+00
 1.4762495596e+00	 1.2377339601e+00	 1.4919858739e+00
 1.4641361381e+00	 1.2520397637e+00	 1.3142966340e+00
 1.4518794678e+00	 1.2662323315e+00	 1.1346193903e+00
 1.4394811483e+00	 1.2803095142e+00	 9.5974920914e-01
 1.4269428219e+00	 1.2942691925e+00	 7.9564324367e-01
 1.5529175541e+00	 1.1549102999e+00	 1.9797273419e+00
 1.5416433616e+00	 1.1699172564e+00	 2.0581611558e+00
 1.5302165537e+00	 1.1848239850e+00	 2.0637931733e+00
 1.5186384682e+00	 1.1996281688e+00	 2.0096677692e+00
 1.5069104894e+00	 1.2143275145e+00	 1.9080688167e+00
 1.4950340469e+00	 1.2289197532e+00	 1.7704931500e+00
 1.4830106161e+00	 1.2434026420e+00	 1.6076255643e+00
 1.4708417165e+00	 1.2577739645e+00	 1.4278435569e+00
 1.4585289119e+00	 1.2720315327e+00	 1.2363474078e+00
 1.4460738096e+00	 1.2861731873e+00	 1.0388133449e+00
 1.4334780591e+00	 1.3001967994e+00	 8.4013902355e-01
 1.5599973168e+00	 1.1601755446e+00	 1.9452136808e+00
 1.5486717251e+00	 1.1752509179e+00	 2.0572092224e+00
 1.5371928223e+00	 1.1902256064e+00	 2.0960217187e+00
 1.5255619523e+00	 1.2050972826e+00	 2.0729361143e+00
 1.5137805055e+00	 1.2198636427e+00	 1.9985314031e+00
 1.5018499183e+00	 1.2345224075e+00	 1.8826563234e+00
 1.4897716725e+00	 1.2490713239e+00	 1.7344065402e+00
 1.4775472948e+00	 1.2635081654e+00	 1.5618848121e+00
 1.4651783561e+00	 1.2778307339e+00	 1.3688429799e+00
 1.4526664708e+00	 1.2920368605e+00	 1.1587409305e+00
 1.4400132962e+00	 1.3061244063e+00	 9.3509245730e-01
 1.5670770795e+00	 1.1654407892e+00	 1.8878955687e+00
 1.5557000887e+00	 1.1805845794e+00	 2.0310414489e+00
 1.5441690910e+00	 1.1956272277e+00	 2.1041085321e+00
 1.5324854364e+00	 1.2105663963e+00	 2.1160597900e+00
 1.5206505216e+00	 1.2253997709e+00	 2.0752395012e+00
 1.5086657896e+00	 1.2401250618e+00	 1.9893520564e+00
 1.4965327289e+00	 1.2547400058e+00	 1.8654421569e+00
 1.4842528732e+00	 1.2692423663e+00	 1.7098765031e+00
 1.4718278003e+00	 1.2836299352e+00	 1.5266713394e+00
 1.4592591321e+00	 1.2979005336e+00	 1.3157727960e+00
 1.4465485334e+00	 1.3120520132e+00	 1.0788754506e+00
 1.5741568421e+00	 1.1707060339e+00	 1.8050544360e+00
 1.5627284523e+00	 1.1859182409e+00	 1.9752059901e+00
 1.5511453597e+00	 1.2010288491e+00	 2.0822668805e+00
 1.5394089205e+00	 1.2160355101e+00	 2.1323228981e+00
 1.5275205378e+00	 1.2309358990e+00	 2.1309608093e+00
 1.5154816610e+00	 1.2457277162e+00	 2.0832511404e+00
 1.5032937854e+00	 1.2604086877e+00	 1.9937322222e+00
 1.4909584515e+00	 1.2749765672e+00	 1.8663955812e+00
 1.4784772445e+00	 1.2894291364e+00	 1.7045022281e+00
 1.4658517934e+00	 1.3037642067e+00	 1.5062247618e+00
 1.4530837705e+00	 1.3179796201e+00	 1.2698971289e+00
 1.5812366048e+00	 1.1759712785e+00	 1.6940316527e+00
 1.5697568158e+00	 1.1912519024e+00	 1.8853418132e+00
 1.5581216283e+00	 1.2064304705e+00	 2.0248245992e+00
 1.5463324046e+00	 1.2215046238e+00	 2.1151406195e+00
 1.5343905539e+00	 1.2364720272e+00	 2.1586032449e+00
 1.5222975323e+00	 1.2513303705e+00	 2.1571662383e+00
 1.5100548418e+00	 1.2660773696e+00	 2.1124124644e+00
 1.4976640298e+00	 1.2807107680e+00	 2.0255437629e+00
 1.4851266886e+00	 1.2952283376e+00	 1.8973720585e+00
 1.4724444546e+00	 1.3096278799e+00	 1.7264869049e+00
 1.4596190077e+00	 1.3239072270e+00	 1.5066039655e+00
 1.3942666362e+00	 1.2646311581e+00	 1.3896052669e+00
 1.3818823883e+00	 1.2781520287e+00	 1.4848438241e+00
 1.3693646936e+00	 1.2915540990e+00	 1.5659170189e+00
 1.3567152540e+00	 1.3048354155e+00	 1.6271700467e+00
 1.3439358099e+00	 1.3179940577e+00	 1.6632871117e+00
 1.3310281395e+00	 1.3310281395e+00	 1.6693149355e+00
 1.3179940577e+00	 1.3439358099e+00	 1.6406847273e+00
 1.3048354155e+00	 1.3567152540e+00	 1.5732324972e+00
 1.2915540990e+00	 1.3693646936e+00	 1.4632176042e+00
 1.2781520287e+00	 1.3818823883e+00	 1.3073394424e+00
 1.2646311581e+00	 1.3942666362e+00	 1.1027521794e+00
 1.4008018734e+00	 1.2705587650e+00	 1.1560954896e+00
 1.3883595777e+00	 1.2841430109e+00	 1.2054172848e+00
 1.3757832098e+00	 1.2976078997e+00	 1.2485631209e+00
 1.3630744795e+00	 1.3109514686e+00	 1.2793066416e+00
 1.3502351353e+00	 1.3241717883e+00	 1.2918978170e+00
 1.3372669638e+00	 1.3372669638e+00	 1.2810875613e+00
 1.3241717883e+00	 1.3502351353e+00	 1.2421505717e+00
 1.3109514686e+00	 1.3630744795e+00	 1.1709062651e+00
 1.2976078997e+00	 1.3757832098e+00	 1.0637377023e+00
 1.2841430109e+00	 1.3883595777e+00	 9.1760839917e-01
 1.2705587650e+00	 1.4008018734e+00	 7.3007693814e-01
 1.4073371105e+00	 1.2764863719e+00	 9.8173884897e-01
 1.3948367671e+00	 1.2901339931e+00	 9.8195693637e-01
 1.3822017260e+00	 1.3036617004e+00	 9.8418695065e-01
 1.3694337049e+00	 1.3170675218e+00	 9.8180552878e-01
 1.3565344607e+00	 1.3303495190e+00	 9.6877457557e-01
 1.3435057880e+00	 1.3435057880e+00	 9.3966681756e-01
 1.3303495190e+00	 1.3565344607e+00	 8.8968937656e-01
 1.3170675218e+00	 1.3694337049e+00	 8.1470523646e-01
 1.3036617004e+00	 1.3822017260e+00	 7.1125248917e-01
 1.2901339931e+00	 1.3948367671e+00	 5.7656125738e-01
 1.2764863719e+00	 1.4073371105e+00	 4.0856820507e-01
 1.4138723476e+00	 1.2824139788e+00	 8.6472247062e-01
 1.4013139566e+00	 1.2961249753e+00	 8.1505729312e-01
 1.3886202422e+00	 1.3097155011e+00	 7.7543410397e-01
 1.3757929304e+00	 1.3231835750e+00	 7.3900531712e-01
 1.3628337861e+00	 1.3365272496e+00	 6.9958946189e-01
 1.3497446123e+00	 1.3497446123e+00	 6.5169750141e-01
 1.3365272496e+00	 1.3628337861e+00	 5.9055700866e-01
 1.3231835750e+00	 1.3757929304e+00	 5.1213407058e-01
 1.3097155011e+00	 1.3886202422e+00	 4.1315280271e-01
 1.2961249753e+00	 1.4013139566e+00	 2.9111236988e-01
 1.2824139788e+00	 1.4138723476e+00	 1.4430142188e-01
 1.4204075848e+00	 1.2883415856e+00	 8.0327032039e-01
 1.4077911460e+00	 1.3021159575e+00	 7.0530585049e-01
 1.3950387584e+00	 1.3157693018e+00	 6.2490579902e-01
 1.3821521559e+00	 1.3292996281e+00	 5.5516940912e-01
 1.3691331115e+00	 1.3427049802e+00	 4.8991507020e-01
 1.3559834366e+00	 1.3559834366e+00	 4.2370723091e-01
 1.3427049802e+00	 1.3691331115e+00	 3.5188104692e-01
 1.3292996281e+00	 1.3821521559e+00	 2.7056463053e-01
 1.3157693018e+00	 1.3950387584e+00	 1.7669878155e-01
 1.3021159575e+00	 1.4077911460e+00	 6.8054092757e-02
 1.2883415856e+00	 1.4204075848e+00	-5.6754663276e-02
 1.4269428219e+00	 1.2942691925e+00	 7.9564324367e-01
 1.4142683354e+00	 1.3081069397e+00	 6.5328414278e-01
 1.4014572746e+00	 1.3218231025e+00	 5.3516080191e-01
 1.3885113814e+00	 1.3354156813e+00	 4.3448864325e-01
 1.3754324369e+00	 1.3488827109e+00	 3.4522772195e-01
 1.3622222609e+00	 1.3622222609e+00	 2.6211006539e-01
 1.3488827109e+00	 1.3754324369e+00	 1.8066466313e-01
 1.3354156813e+00	 1.3885113814e+00	 9.7239971169e-02
 1.3218231025e+00	 1.4014572746e+00	 9.0238074529e-03
 1.3081069397e+00	 1.4142683354e+00	-8.5939470934e-02
 1.2942691925e+00	 1.4269428219e+00	-1.8873460357e-01
 1.4334780591e+00	 1.3001967994e+00	 8.4013902355e-01
 1.4207455248e+00	 1.3140979220e+00	 6.5956879205e-01
 1.4078757908e+00	 1.3278769032e+00	 5.0871731993e-01
 1.3948706069e+00	 1.3415317345e+00	 3.8108388448e-01
 1.3817317623e+00	 1.3550604415e+00	 2.7091060615e-01
 1.3684610851e+00	 1.3684610851e+00	 1.7321004752e-01
 1.3550604415e+00	 1.3817317623e+00	 8.3790417163e-02
 1.3415317345e+00	 1.3948706069e+00	-7.2176108570e-04
 1.3278769032e+00	 1.4078757908e+00	-8.2861639316e-02
 1.3140979220e+00	 1.4207455248e+00	-1.6430880895e-01
 1.3001967994e+00	 1.4334780591e+00	-2.4587293319e-01
 1.4400132962e+00	 1.3061244063e+00	 9.3509245730e-01
 1.4272227143e+00	 1.3200889042e+00	 7.2473254840e-01
 1.4142943071e+00	 1.3339307039e+00	 5.4805486345e-01
 1.4012298324e+00	 1.3476477876e+00	 3.9900856475e-01
 1.3880310877e+00	 1.3612381722e+00	 2.7225685468e-01
 1.3746999094e+00	 1.3746999094e+00	 1.6320466936e-01
 1.3612381722e+00	 1.3880310877e+00	 6.8023969516e-02
 1.3476477876e+00	 1.4012298324e+00	-1.6323514057e-02
 1.3339307039e+00	 1.4142943071e+00	-9.2066208795e-02
 1.3200889042e+00	 1.4272227143e+00	-1.6060541658e-01
 1.3061244063e+00	 1.4400132962e+00	-2.2250091670e-01
 1.4465485334e+00	 1.3120520132e+00	 1.0788754506e+00
 1.4336999037e+00	 1.3260798864e+00	 8.4934532210e-01
 1.4207128233e+00	 1.3399845045e+00	 6.5561607740e-01
 1.4075890578e+00	 1.3537638408e+00	 4.9225117468e-01
 1.3943304130e+00	 1.3674159028e+00	 3.5447255452e-01
 1.3809387337e+00	 1.3809387337e+00	 2.3818826499e-01
 1.3674159028e+00	 1.3943304130e+00	 1.4001771367e-01
 1.3537638408e+00	 1.4075890578e+00	 5.7314401653e-02
 1.3399845045e+00	 1.4207128233e+00	-1.1813991749e-02
 1.3260798864e+00	 1.4336999037e+00	-6.8488289809e-02
 1.3120520132e+00	 1.4465485334e+00	-1.1304336577e-01
 1.4530837705e+00	 1.3179796201e+00	 1.2698971289e+00
 1.4401770931e+00	 1.3320708686e+00	 1.0339752078e+00
 1.4271313395e+00	 1.3460383052e+00	 8.3380854346e-01
 1.4139482833e+00	 1.3598798940e+00	 6.6473770826e-01
 1.4006297384e+00	 1.3735936335e+00	 5.2267969908e-01
 1.3871775580e+00	 1.3871775580e+00	 4.0415533195e-01
 1.3735936335e+00	 1.4006297384e+00	 3.0631433097e-01
 1.3598798940e+00	 1.4139482833e+00	 2.2695796392e-01
 1.3460383052e+00	 1.4271313395e+00	 1.6455909091e-01
 1.3320708686e+00	 1.4401770931e+00	 1.1827950742e-01
 1.3179796201e+00	 1.4530837705e+00	 8.7984478714e-02
 1.4596190077e+00	 1.3239072270e+00	 1.5066039655e+00
 1.4466542826e+00	 1.3380618508e+00	 1.2791895008e+00
 1.4335498557e+00	 1.3520921059e+00	 1.0850065537e+00
 1.4203075088e+00	 1.3659959471e+00	 9.2033406198e-01
 1.4069290638e+00	 1.3797713641e+00	 7.8191908033e-01
 1.3934163822e+00	 1.3934163822e+00	 6.6700378371e-01
 1.3797713641e+00	 1.4069290638e+00	 5.7335027028e-01
 1.3659959471e+00	 1.4203075088e+00	 4.9926301268e-01
 1.3520921059e+00	 1.4335498557e+00	 4.4360882213e-01
 1.3380618508e+00	 1.4466542826e+00	 4.0583420423e-01
 1.3239072270e+00	 1.4596190077e+00	 3.8598000127e-01
 1.2646311581e+00	 1.3942666362e+00	 1.1027521794e+00
 1.2509911485e+00	 1.4065178420e+00	 8.8429734083e-01
 1.2372363253e+00	 1.4186322469e+00	 6.9018098957e-01
 1.2233687593e+00	 1.4306082465e+00	 5.2286607745e-01
 1.2093905506e+00	 1.4424442774e+00	 3.8485741252e-01
 1.1953038274e+00	 1.4541388188e+00	 2.7870225240e-01
 1.1811107454e+00	 1.4656903925e+00	 2.0698932731e-01
 1.1668134863e+00	 1.4770975637e+00	 1.7234629868e-01
 1.1524142568e+00	 1.4883589417e+00	 1.7710811833e-01
 1.1379152875e+00	 1.4994731802e+00	 2.2247570643e-01
 1.1233188320e+00	 1.5104389779e+00	 3.1052571049e-01
 1.2705587650e+00	 1.4008018734e+00	 7.3007693814e-01
 1.2568548217e+00	 1.4131105032e+00	 5.3332306445e-01
 1.2430355266e+00	 1.4252816911e+00	 3.6229477903e-01
 1.2291029602e+00	 1.4373138248e+00	 2.1906759015e-01
 1.2150592325e+00	 1.4492053338e+00	 1.0574206729e-01
 1.2009064817e+00	 1.4609546902e+00	 2.4445250094e-02
 1.1866468736e+00	 1.4725604086e+00	-2.2669546319e-02
 1.1722826001e+00	 1.4840210478e+00	-3.3462626157e-02
 1.1578158782e+00	 1.4953352104e+00	-6.8842018753e-03
 1.1432489490e+00	 1.5065015437e+00	 5.8373948022e-02
 1.1285840766e+00	 1.5175187406e+00	 1.6395491420e-01
 1.2764863719e+00	 1.4073371105e+00	 4.0856820507e-01
 1.2627184948e+00	 1.4197031645e+00	 2.3588990364e-01
 1.2488347278e+00	 1.4319311353e+00	 8.9405578184e-02
 1.2348371611e+00	 1.4440194031e+00	-2.9103958799e-02
 1.2207279144e+00	 1.4559663903e+00	-1.1784551826e-01
 1.2065091360e+00	 1.4677705615e+00	-1.7501147616e-01
 1.1921830018e+00	 1.4794304248e+00	-1.9877935846e-01
 1.1777517138e+00	 1.4909445319e+00	-1.8780843633e-01
 1.1632174995e+00	 1.5023114790e+00	-1.4146061499e-01
 1.1485826105e+00	 1.5135299073e+00	-5.8445047309e-02
 1.1338493213e+00	 1.5245985033e+00	 6.2441458291e-02
 1.2824139788e+00	 1.4138723476e+00	 1.4430142188e-01
 1.2685821679e+00	 1.4262958258e+00	-2.9217473908e-03
 1.2546339290e+00	 1.4385805794e+00	-1.2435214480e-01
 1.2405713619e+00	 1.4507249815e+00	-2.1841254093e-01
 1.2263965963e+00	 1.4627274467e+00	-2.8352192871e-01
 1.2121117903e+00	 1.4745864329e+00	-3.1809298041e-01
 1.1977191300e+00	 1.4863004409e+00	-3.2063556478e-01
 1.1832208276e+00	 1.4978680160e+00	-2.9060982065e-01
 1.1686191209e+00	 1.5092877477e+00	-2.2709721471e-01
 1.1539162720e+00	 1.5205582709e+00	-1.2909845289e-01
 1.1391145659e+00	 1.5316782660e+00	 4.2630375940e-03
 1.2883415856e+00	 1.4204075848e+00	-5.6754663276e-02
 1.2744458411e+00	 1.4328884870e+00	-1.7812008055e-01
 1.2604331303e+00	 1.4452300236e+00	-2.7491537356e-01
 1.2463055628e+00	 1.4574305598e+00	-3.4567738764e-01
 1.2320652782e+00	 1.4694885032e+00	-3.8894372758e-01
 1.2177144446e+00	 1.4814023042e+00	-4.0324989335e-01
 1.2032552581e+00	 1.4931704571e+00	-3.8768119496e-01
 1.1886899413e+00	 1.5047915001e+00	-3.4165124964e-01
 1.1740207423e+00	 1.5162640164e+00	-2.6424491565e-01
 1.1592499335e+00	 1.5275866344e+00	-1.5466648903e-01
 1.1443798106e+00	 1.5387580287e+00	-1.2254567135e-02
 1.2942691925e+00	 1.4269428219e+00	-1.8873460357e-01
 1.2803095142e+00	 1.4394811483e+00	-2.8479889917e-01
 1.2662323315e+00	 1.4518794678e+00	-3.5828996584e-01
 1.2520397637e+00	 1.4641361381e+00	-4.0777078980e-01
 1.2377339601e+00	 1.4762495596e+00	-4.3180561494e-01
 1.2233170989e+00	 1.4882181756e+00	-4.2909345628e-01
 1.2087913863e+00	 1.5000404732e+00	-3.9901687569e-01
 1.1941590551e+00	 1.5117149841e+00	-3.4070498364e-01
 1.1794223636e+00	 1.5232402850e+00	-2.5333025426e-01
 1.1645835949e+00	 1.5346149980e+00	-1.3619348811e-01
 1.1496450553e+00	 1.5458377914e+00	 1.1261197330e-02
 1.3001967994e+00	 1.4334780591e+00	-2.4587293319e-01
 1.2861731873e+00	 1.4460738096e+00	-3.1813470387e-01
 1.2720315327e+00	 1.4585289119e+00	-3.7054812561e-01
 1.2577739645e+00	 1.4708417165e+00	-4.0161593669e-01
 1.2434026420e+00	 1.4830106161e+00	-4.0984328724e-01
 1.2289197532e+00	 1.4950340469e+00	-3.9417358294e-01
 1.2143275145e+00	 1.5069104894e+00	-3.5372322415e-01
 1.1996281688e+00	 1.5186384682e+00	-2.8753159644e-01
 1.1848239850e+00	 1.5302165537e+00	-1.9475618547e-01
 1.1699172564e+00	 1.5416433616e+00	-7.4688948102e-02
 1.1549102999e+00	 1.5529175541e+00	 7.3228361713e-02
 1.3061244063e+00	 1.4400132962e+00	-2.2250091670e-01
 1.2920368605e+00	 1.4526664708e+00	-2.7338383696e-01
 1.2778307339e+00	 1.4651783561e+00	-3.0782592313e-01
 1.2635081654e+00	 1.4775472948e+00	-3.2418479315e-01
 1.2490713239e+00	 1.4897716725e+00	-3.2091133724e-01
 1.2345224075e+00	 1.5018499183e+00	-2.9686577951e-01
 1.2198636427e+00	 1.5137805055e+00	-2.5088198505e-01
 1.2050972826e+00	 1.5255619523e+00	-1.8188050237e-01
 1.1902256064e+00	 1.5371928223e+00	-8.8902875262e-02
 1.1752509179e+00	 1.5486717251e+00	 2.8871425169e-02
 1.1601755446e+00	 1.5599973168e+00	 1.7210915719e-01
 1.3120520132e+00	 1.4465485334e+00	-1.1304336577e-01
 1.2979005336e+00	 1.4592591321e+00	-1.4587968358e-01
 1.2836299352e+00	 1.4718278003e+00	-1.6632086167e-01
 1.2692423663e+00	 1.4842528732e+00	-1.7250009701e-01
 1.2547400058e+00	 1.4965327289e+00	-1.6273517015e-01
 1.2401250618e+00	 1.5086657896e+00	-1.3555959519e-01
 1.2253997709e+00	 1.5206505216e+00	-8.9576286793e-02
 1.2105663963e+00	 1.5324854364e+00	-2.3490486613e-02
 1.1956272277e+00	 1.5441690910e+00	 6.3871510872e-02
 1.1805845794e+00	 1.5557000887e+00	 1.7354468662e-01
 1.1654407892e+00	 1.5670770795e+00	 3.0640875570e-01
 1.3179796201e+00	 1.4530837705e+00	 8.7984478714e-02
 1.3037642067e+00	 1.4658517934e+00	 6.8970072160e-02
 1.2894291364e+00	 1.4784772445e+00	 5.7710510662e-02
 1.2749765672e+00	 1.4909584515e+00	 5.6386343286e-02
 1.2604086877e+00	 1.5032937854e+00	 6.7001643505e-02
 1.2457277162e+00	 1.5154816610e+00	 9.1341369011e-02
 1.2309358990e+00	 1.5275205378e+00	 1.3110909181e-01
 1.2160355101e+00	 1.5394089205e+00	 1.8790976127e-01
 1.2010288491e+00	 1.5511453597e+00	 2.6323002322e-01
 1.1859182409e+00	 1.5627284523e+00	 3.5841963103e-01
 1.1707060339e+00	 1.5741568421e+00	 4.7467402707e-01
 1.3239072270e+00	 1.4596190077e+00	 3.8598000127e-01
 1.3096278799e+00	 1.4724444546e+00	 3.7568613788e-01
 1.2952283376e+00	 1.4851266886e+00	 3.6796691815e-01
 1.2807107680e+00	 1.4976640298e+00	 3.6549469103e-01
 1.2660773696e+00	 1.5100548418e+00	 3.7058868575e-01
 1.2513303705e+00	 1.5222975323e+00	 3.8541945855e-01
 1.2364720272e+00	 1.5343905539e+00	 4.1208744442e-01
 1.2215046238e+00	 1.5463324046e+00	 4.5260111072e-01
 1.2064304705e+00	 1.5581216283e+00	 5.0885614696e-01
 1.1912519024e+00	 1.5697568158e+00	 5.8261578239e-01
 1.1759712785e+00	 1.5812366048e+00	 6.7549231239e-01
 1.1233188320e+00	 1.5104389779e+00	 3.1052571049e-01
 1.1086296691e+00	 1.5212532544e+00	 4.1563632143e-01
 1.0938476136e+00	 1.5319166823e+00	 5.2076794113e-01
 1.0789749711e+00	 1.5424281048e+00	 6.2924732698e-01
 1.0640140653e+00	 1.5527864116e+00	 7.3752870288e-01
 1.0489672371e+00	 1.5629905397e+00	 8.4197068493e-01
 1.0338368432e+00	 1.5730394731e+00	 9.3885929089e-01
 1.0186252552e+00	 1.5829322433e+00	 1.0244300333e+00
 1.0033348581e+00	 1.5926679297e+00	 1.0948890423e+00
 9.8796804913e-01	 1.6022456596e+00	 1.1464331714e+00
 9.7252723688e-01	 1.6116646083e+00	 1.1752690496e+00
 1.1285840766e+00	 1.5175187406e+00	 1.6395491420e-01
 1.1138260624e+00	 1.5283837060e+00	 2.8467994608e-01
 1.0989747202e+00	 1.5390971158e+00	 3.9884219933e-01
 1.0840323662e+00	 1.5496578076e+00	 5.1597141240e-01
 1.0690013353e+00	 1.5600646662e+00	 6.3301874339e-01
 1.0538839793e+00	 1.5703166233e+00	 7.4646301805e-01
 1.0386826659e+00	 1.5804126582e+00	 8.5266458434e-01
 1.0233997779e+00	 1.5903517980e+00	 9.4788793181e-01
 1.0080377112e+00	 1.6001331178e+00	 1.0283233664e+00
 9.9259887463e-01	 1.6097557406e+00	 1.0901076932e+00
 9.7708568786e-01	 1.6192188380e+00	 1.1293438696e+00
 1.1338493213e+00	 1.5245985033e+00	 6.2441458291e-02
 1.1190224557e+00	 1.5355141577e+00	 1.9669089833e-01
 1.1041018267e+00	 1.5462775492e+00	 3.1939133046e-01
 1.0890897614e+00	 1.5568875104e+00	 4.4227147191e-01
 1.0739886054e+00	 1.5673429207e+00	 5.6487331300e-01
 1.0588007215e+00	 1.5776427068e+00	 6.8379085931e-01
 1.0435284887e+00	 1.5877858433e+00	 7.9546389177e-01
 1.0281743005e+00	 1.5977713528e+00	 8.9620103742e-01
 1.0127405644e+00	 1.6075983058e+00	 9.8220190676e-01
 9.9722970013e-01	 1.6172658216e+00	 1.0495782503e+00
 9.8164413885e-01	 1.6267730677e+00	 1.0943740945e+00
 1.1391145659e+00	 1.5316782660e+00	 4.2630375940e-03
 1.1242188490e+00	 1.5426446093e+00	 1.4914604026e-01
 1.1092289332e+00	 1.5534579827e+00	 2.7970243551e-01
 1.0941471565e+00	 1.5641172133e+00	 4.0517400447e-01
 1.0789758754e+00	 1.5746211752e+00	 5.2998389083e-01
 1.0637174638e+00	 1.5849687903e+00	 6.5083614797e-01
 1.0483743114e+00	 1.5951590284e+00	 7.6425490168e-01
 1.0329488231e+00	 1.6051909075e+00	 8.6660779780e-01
 1.0174434175e+00	 1.6150634939e+00	 9.5412851364e-01
 1.0018605256e+00	 1.6247759026e+00	 1.0229382850e+00
 9.8620258983e-01	 1.6343272974e+00	 1.0690664093e+00
 1.1443798106e+00	 1.5387580287e+00	-1.2254567135e-02
 1.1294152423e+00	 1.5497750609e+00	 1.3985601383e-01
 1.1143560397e+00	 1.5606384162e+00	 2.7666327417e-01
 1.0992045516e+00	 1.5713469161e+00	 4.0176059565e-01
 1.0839631455e+00	 1.5818994297e+00	 5.2529952636e-01
 1.0686342060e+00	 1.5922948738e+00	 6.4453852923e-01
 1.0532201341e+00	 1.6025322135e+00	 7.5609080018e-01
 1.0377233457e+00	 1.6126104622e+00	 8.5639761230e-01
 1.0221462707e+00	 1.6225286819e+00	 9.4175111323e-01
 1.0064913511e+00	 1.6322859836e+00	 1.0083161206e+00
 9.9076104082e-01	 1.6418815270e+00	 1.0521508760e+00
 1.1496450553e+00	 1.5458377914e+00	 1.1261197330e-02
 1.1346116356e+00	 1.5569055125e+00	 1.6668769417e-01
 1.1194831462e+00	 1.5678188496e+00	 3.0606818127e-01
 1.1042619468e+00	 1.5785766189e+00	 4.2916722391e-01
 1.0889504155e+00	 1.5891776842e+00	 5.4782608186e-01
 1.0735509482e+00	 1.5996209574e+00	 6.6189458541e-01
 1.0580659568e+00	 1.6099053986e+00	 7.6807954361e-01
 1.0424978684e+00	 1.6200300169e+00	 8.6291019849e-01
 1.0268491238e+00	 1.6299938699e+00	 9.4276122070e-01
 1.0111221766e+00	 1.6397960645e+00	 1.0038746720e+00
 9.9531949180e-01	 1.6494357567e+00	 1.0423808954e+00
 1.1549102999e+00	 1.5529175541e+00	 7.3228361713e-02
 1.1398080289e+00	 1.5640359641e+00	 2.2756268669e-01
 1.1246102527e+00	 1.5749992831e+00	 3.6530947576e-01
 1.1093193419e+00	 1.5858063218e+00	 4.8458359906e-01
 1.0939376856e+00	 1.5964559387e+00	 5.9462550850e-01
 1.0784676904e+00	 1.6069470409e+00	 6.9995710100e-01
 1.0629117795e+00	 1.6172785837e+00	 7.9738316380e-01
 1.0472723910e+00	 1.6274495716e+00	 8.8353498861e-01
 1.0315519769e+00	 1.6374590580e+00	 9.5489347877e-01
 1.0157530021e+00	 1.6473061455e+00	 1.0078111779e+00
 9.9987794279e-01	 1.6569899864e+00	 1.0385331818e+00
 1.1601755446e+00	 1.5599973168e+00	 1.7210915719e-01
 1.1450044221e+00	 1.5711664157e+00	 3.2045584793e-01
 1.1297373592e+00	 1.5821797165e+00	 4.5199160981e-01
 1.1143767371e+00	 1.5930360246e+00	 5.6482815146e-01
 1.0989249556e+00	 1.6037341932e+00	 6.6281515514e-01
 1.0833844327e+00	 1.6142731244e+00	 7.5583436067e-01
 1.0677576022e+00	 1.6246517688e+00	 8.4121710488e-01
 1.0520469136e+00	 1.6348691263e+00	 9.1571055497e-01
 1.0362548301e+00	 1.6449242460e+00	 9.7592522115e-01
 1.0203838276e+00	 1.6548162265e+00	 1.0183569513e+00
 1.0044363938e+00	 1.6645442161e+00	 1.0394077506e+00
 1.1654407892e+00	 1.5670770795e+00	 3.0640875570e-01
 1.1502008154e+00	 1.5782968673e+00	 4.4339382938e-01
 1.1348644658e+00	 1.5893601500e+00	 5.6377759377e-01
 1.1194341322e+00	 1.6002657274e+00	 6.6577409415e-01
 1.1039122257e+00	 1.6110124477e+00	 7.4956710884e-01
 1.0883011749e+00	 1.6215992079e+00	 8.2668947897e-01
 1.0726034250e+00	 1.6320249539e+00	 8.9684959073e-01
 1.0568214363e+00	 1.6422886811e+00	 9.5692406343e-01
 1.0409576832e+00	 1.6523894341e+00	 1.0036760602e+00
 1.0250146531e+00	 1.6623263075e+00	 1.0337771492e+00
 1.0089948448e+00	 1.6720984458e+00	 1.0438279179e+00
 1.1707060339e+00	 1.5741568421e+00	 4.7467402707e-01
 1.1553972087e+00	 1.5854273189e+00	 5.9445364353e-01
 1.1399915723e+00	 1.5965405835e+00	 6.9838741932e-01
 1.1244915273e+00	 1.6074954302e+00	 7.8476829126e-01
 1.1088994957e+00	 1.6182907023e+00	 8.5210756588e-01
 1.0932179171e+00	 1.6289252915e+00	 9.0973976086e-01
 1.0774492477e+00	 1.6393981391e+00	 9.6160102206e-01
 1.0615959589e+00	 1.6497082358e+00	 1.0047107540e+00
 1.0456605364e+00	 1.6598546221e+00	 1.0360074980e+00
 1.0296454786e+00	 1.6698363885e+00	 1.0523705611e+00
 1.0135532957e+00	 1.6796526755e+00	 1.0506403126e+00
 1.1759712785e+00	 1.5812366048e+00	 6.7549231239e-01
 1.1605936020e+00	 1.5925577705e+00	 7.7176125151e-01
 1.1451186788e+00	 1.6037210169e+00	 8.5359650809e-01
 1.1295489225e+00	 1.6147251331e+00	 9.1934651650e-01
 1.1138867658e+00	 1.6255689568e+00	 9.6743684276e-01
 1.0981346594e+00	 1.6362513750e+00	 1.0022560921e+00
 1.0822950704e+00	 1.6467713242e+00	 1.0328434022e+00
 1.0663704815e+00	 1.6571277905e+00	 1.0566534476e+00
 1.0503633895e+00	 1.6673198101e+00	 1.0708225598e+00
 1.0342763041e+00	 1.6773464695e+00	 1.0724694144e+00
 1.0181117467e+00	 1.6872069052e+00	 1.0587148991e+00
 9.7252723688e-01	 1.6116646083e+00	 1.1752690496e+00
 9.5701484010e-01	 1.6209239997e+00	 1.1845073616e+00
 9.4143328755e-01	 1.6300231078e+00	 1.1815046072e+00
 9.2578501584e-01	 1.6389612550e+00	 1.1687794939e+00
 9.1007246793e-01	 1.6477378124e+00	 1.1487573870e+00
 8.9429809199e-01	 1.6563521993e+00	 1.1237777094e+00
 8.7846434017e-01	 1.6648038834e+00	 1.0961005174e+00
 8.6257366750e-01	 1.6730923806e+00	 1.0679122693e+00
 8.4662853067e-01	 1.6812172549e+00	 1.0413308129e+00
 8.3063138694e-01	 1.6891781183e+00	 1.0184096181e+00
 8.1458469296e-01	 1.6969746305e+00	 1.0011412908e+00
 9.7708568786e-01	 1.6192188380e+00	 1.1293438696e+00
 9.6150058104e-01	 1.6285216302e+00	 1.1485035890e+00
 9.4584599429e-01	 1.6376633878e+00	 1.1543122689e+00
 9.3012437566e-01	 1.6466434301e+00	 1.1491959863e+00
 9.1433817956e-01	 1.6554611252e+00	 1.1355292722e+00
 8.9848986561e-01	 1.6641158896e+00	 1.1156421504e+00
 8.8258189749e-01	 1.6726071886e+00	 1.0918262699e+00
 8.6661674170e-01	 1.6809345359e+00	 1.0663401526e+00
 8.5059686648e-01	 1.6890974932e+00	 1.0414135835e+00
 8.3452474059e-01	 1.6970956710e+00	 1.0192511749e+00
 8.1840283220e-01	 1.7049287272e+00	 1.0020351431e+00
 9.8164413885e-01	 1.6267730677e+00	 1.0943740945e+00
 9.6598632197e-01	 1.6361192607e+00	 1.1189451008e+00
 9.5025870104e-01	 1.6453036679e+00	 1.1298516405e+00
 9.3446373548e-01	 1.6543256052e+00	 1.1293889321e+00
 9.1860389118e-01	 1.6631844380e+00	 1.1198361209e+00
 9.0268163924e-01	 1.6718795800e+00	 1.1034630838e+00
 8.8669945480e-01	 1.6804104939e+00	 1.0825362536e+00
 8.7065981591e-01	 1.6887766911e+00	 1.0593234850e+00
 8.5456520229e-01	 1.6969777316e+00	 1.0360979948e+00
 8.3841809423e-01	 1.7050132237e+00	 1.0151414098e+00
 8.2222097143e-01	 1.7128828239e+00	 9.9874596271e-01
 9.8620258983e-01	 1.6343272974e+00	 1.0690664093e+00
 9.7047206291e-01	 1.6437168913e+00	 1.0951698524e+00
 9.5467140778e-01	 1.6529439479e+00	 1.1080053061e+00
 9.3880309530e-01	 1.6620077804e+00	 1.1096997796e+00
 9.2286960280e-01	 1.6709077508e+00	 1.1023934200e+00
 9.0687341286e-01	 1.6796432703e+00	 1.0882462108e+00
 8.9081701212e-01	 1.6882137992e+00	 1.0694436202e+00
 8.7470289011e-01	 1.6966188464e+00	 1.0482012254e+00
 8.5853353810e-01	 1.7048579700e+00	 1.0267683471e+00
 8.4231144788e-01	 1.7129307764e+00	 1.0074307309e+00
 8.2603911066e-01	 1.7208369206e+00	 9.9251231862e-01
 9.9076104082e-01	 1.6418815270e+00	 1.0521508760e+00
 9.7495780385e-01	 1.6513145218e+00	 1.0765273093e+00
 9.5908411453e-01	 1.6605842280e+00	 1.0886570602e+00
 9.4314245513e-01	 1.6696899555e+00	 1.0904624387e+00
 9.2713531443e-01	 1.6786310636e+00	 1.0839019059e+00
 9.1106518648e-01	 1.6874069607e+00	 1.0709767902e+00
 8.9493456943e-01	 1.6960171044e+00	 1.0537368914e+00
 8.7874596432e-01	 1.7044610017e+00	 1.0342850012e+00
 8.6250187391e-01	 1.7127382084e+00	 1.0147803743e+00
 8.4620480153e-01	 1.7208483291e+00	 9.9744119237e-01
 8.2985724989e-01	 1.7287910173e+00	 9.8454606548e-01
 9.9531949180e-01	 1.6494357567e+00	 1.0423808954e+00
 9.7944354479e-01	 1.6589121523e+00	 1.0623786678e+00
 9.6349682127e-01	 1.6682245080e+00	 1.0716923479e+00
 9.4748181495e-01	 1.6773721306e+00	 1.0720039060e+00
 9.3140102605e-01	 1.6863543764e+00	 1.0650483386e+00
 9.1525696011e-01	 1.6951706510e+00	 1.0526205267e+00
 8.9905212675e-01	 1.7038204097e+00	 1.0365809261e+00
 8.8278903852e-01	 1.7123031570e+00	 1.0188601188e+00
 8.6647020972e-01	 1.7206184467e+00	 1.0014622641e+00
 8.5009815518e-01	 1.7287658818e+00	 9.8646749108e-01
 8.3367538912e-01	 1.7367451140e+00	 9.7603328231e-01
 9.9987794279e-01	 1.6569899864e+00	 1.0385331818e+00
 9.8392928573e-01	 1.6665097828e+00	 1.0520970797e+00
 9.6790952801e-01	 1.6758647881e+00	 1.0569987058e+00
 9.5182117477e-01	 1.6850543058e+00	 1.0546448851e+00
 9.3566673768e-01	 1.6940776892e+00	 1.0465062664e+00
 9.1944873373e-01	 1.7029343414e+00	 1.0341244456e+00
 9.0316968406e-01	 1.7116237150e+00	 1.0191178700e+00
 8.8683211273e-01	 1.7201453123e+00	 1.0031865562e+00
 8.7043854553e-01	 1.7284986851e+00	 9.8811566017e-01
 8.5399150883e-01	 1.7366834345e+00	 9.7577794471e-01
 8.3749352836e-01	 1.7446992107e+00	 9.6813519545e-01
 1.0044363938e+00	 1.6645442161e+00	 1.0394077506e+00
 9.8841502667e-01	 1.6741074133e+00	 1.0450678838e+00
 9.7232223476e-01	 1.6835050681e+00	 1.0444662016e+00
 9.5616053459e-01	 1.6927364809e+00	 1.0387004009e+00
 9.3993244930e-01	 1.7018010020e+00	 1.0289367811e+00
 9.2364050735e-01	 1.7106980317e+00	 1.0164177545e+00
 9.0728724138e-01	 1.7194270202e+00	 1.0024680919e+00
 8.9087518693e-01	 1.7279874676e+00	 9.8849993961e-01
 8.7440688134e-01	 1.7363789235e+00	 9.7601664712e-01
 8.5788486247e-01	 1.7446009872e+00	 9.6661545384e-01
 8.4131166759e-01	 1.7526533074e+00	 9.6198908606e-01
 1.0089948448e+00	 1.6720984458e+00	 1.0438279179e+00
 9.9290076761e-01	 1.6817050438e+00	 1.0406888421e+00
 9.7673494150e-01	 1.6911453482e+00	 1.0339878741e+00
 9.6049989442e-01	 1.7004186560e+00	 1.0244804088e+00
 9.4419816092e-01	 1.7095243148e+00	 1.0129892632e+00
 9.2783228098e-01	 1.7184617220e+00	 1.0004126928e+00
 9.1140479869e-01	 1.7272303255e+00	 9.8773110435e-01
 8.9491826114e-01	 1.7358296229e+00	 9.7601250379e-01
 8.7837521715e-01	 1.7442591619e+00	 9.6641671911e-01
 8.6177821612e-01	 1.7525185399e+00	 9.6019844776e-01
 8.4512980682e-01	 1.7606074041e+00	 9.5870918266e-01
 1.0135532957e+00	 1.6796526755e+00	 1.0506403126e+00
 9.9738650855e-01	 1.6893026743e+00	 1.0383703821e+00
 9.8114764825e-01	 1.6987856282e+00	 1.0254601717e+00
 9.6483925424e-01	 1.7081008311e+00	 1.0122903984e+00
 9.4846387255e-01	 1.7172476276e+00	 9.9930211864e-01
 9.3202405460e-01	 1.7262254124e+00	 9.8700536860e-01
 9.1552235600e-01	 1.7350336307e+00	 9.7598646973e-01
 8.9896133535e-01	 1.7436717782e+00	 9.6691403693e-01
 8.8234355296e-01	 1.7521394003e+00	 9.6054373232e-01
 8.6567156977e-01	 1.7604360926e+00	 9.5772181451e-01
 8.4894794605e-01	 1.7685615008e+00	 9.5938753920e-01
 1.0181117467e+00	 1.6872069052e+00	 1.0587148991e+00
 1.0018722495e+00	 1.6969003048e+00	 1.0375358435e+00
 9.8556035499e-01	 1.7064259082e+00	 1.0187833918e+00
 9.6917861406e-01	 1.7157830063e+00	 1.0024319928e+00
 9.5272958417e-01	 1.7249709404e+00	 9.8850350629e-01
 9.3621582822e-01	 1.7339891027e+00	 9.7707658455e-01
 9.1963991332e-01	 1.7428369360e+00	 9.6829469349e-01
 9.0300440955e-01	 1.7515139334e+00	 9.6237281028e-01
 8.8631188877e-01	 1.7600196386e+00	 9.5960284195e-01
 8.6956492342e-01	 1.7683536454e+00	 9.6035781583e-01
 8.5276608528e-01	 1.7765155975e+00	 9.6509489902e-01
 8.1458469296e-01	 1.6969746305e+00	 1.0011412908e+00
 7.9848816357e-01	 1.7046077823e+00	 9.9307046150e-01
 7.8234697537e-01	 1.7120759877e+00	 9.9504697911e-01
 7.6616357699e-01	 1.7193790471e+00	 1.0050333639e+00
 7.4994041202e-01	 1.7265168079e+00	 1.0210794444e+00
 7.3367991799e-01	 1.7334891636e+00	 1.0409426946e+00
 7.1738452531e-01	 1.7402960542e+00	 1.0599501565e+00
 7.0105665617e-01	 1.7469374649e+00	 1.0762007592e+00
 6.8469872359e-01	 1.7534134267e+00	 1.0885815441e+00
 6.6831313035e-01	 1.7597240152e+00	 1.0960775005e+00
 6.5190226803e-01	 1.7658693503e+00	 1.0977685295e+00
 8.1840283220e-01	 1.7049287272e+00	 1.0020351431e+00
 8.0223085480e-01	 1.7125976573e+00	 9.9404367496e-01
 7.8601400927e-01	 1.7201008678e+00	 9.9660928424e-01
 7.6975475570e-01	 1.7274381583e+00	 1.0075333691e+00
 7.5345554916e-01	 1.7346093753e+00	 1.0247012240e+00
 7.3711883859e-01	 1.7416144121e+00	 1.0459939143e+00
 7.2074706578e-01	 1.7484532080e+00	 1.0670311956e+00
 7.0434266430e-01	 1.7551257485e+00	 1.0852265693e+00
 6.8790805846e-01	 1.7616320646e+00	 1.0992979810e+00
 6.7144566231e-01	 1.7679722322e+00	 1.1080573636e+00
 6.5495787863e-01	 1.7741463719e+00	 1.1104079397e+00
 8.2222097143e-01	 1.7128828239e+00	 9.9874596271e-01
 8.0597354602e-01	 1.7205875322e+00	 9.9160114352e-01
 7.8968104316e-01	 1.7281257479e+00	 9.9529916554e-01
 7.7334593442e-01	 1.7354972695e+00	 1.0075455027e+00
 7.5697068630e-01	 1.7427019428e+00	 1.0261252471e+00
 7.4055775918e-01	 1.7497396605e+00	 1.0489066920e+00
 7.2410960625e-01	 1.7566103618e+00	 1.0721347999e+00
 7.0762867243e-01	 1.7633140321e+00	 1.0925224333e+00
 6.9111739332e-01	 1.7698507024e+00	 1.1086769254e+00
 6.7457819426e-01	 1.7762204492e+00	 1.1192943352e+00
 6.5801348923e-01	 1.7824233934e+00	 1.1231570282e+00
 8.2603911066e-01	 1.7208369206e+00	 9.9251231862e-01
 8.0971623725e-01	 1.7285774072e+00	 9.8682884698e-01
 7.9334807706e-01	 1.7361506280e+00	 9.9204504864e-01
 7.7693711313e-01	 1.7435563806e+00	 1.0058348128e+00
 7.6048582344e-01	 1.7507945102e+00	 1.0259465122e+00
 7.4399667978e-01	 1.7578649089e+00	 1.0502067080e+00
 7.2747214673e-01	 1.7647675156e+00	 1.0755403448e+00
 7.1091468055e-01	 1.7715023157e+00	 1.0981759302e+00
 6.9432672819e-01	 1.7780693403e+00	 1.1166037774e+00
 6.7771072622e-01	 1.7844686661e+00	 1.1294603697e+00
 6.6106909983e-01	 1.7907004149e+00	 1.1354621639e+00
 8.2985724989e-01	 1.7287910173e+00	 9.8454606548e-01
 8.1345892847e-01	 1.7365672822e+00	 9.8078843466e-01
 7.9701511095e-01	 1.7441755081e+00	 9.8775350222e-01
 7.8052829185e-01	 1.7516154918e+00	 1.0031470724e+00
 7.6400096058e-01	 1.7588870776e+00	 1.0247434526e+00
 7.4743560037e-01	 1.7659901573e+00	 1.0503890471e+00
 7.3083468720e-01	 1.7729246694e+00	 1.0775146808e+00
 7.1420068868e-01	 1.7796905993e+00	 1.1022659379e+00
 6.9753606306e-01	 1.7862879781e+00	 1.1229592579e+00
 6.8084325817e-01	 1.7927168831e+00	 1.1382269772e+00
 6.6412471043e-01	 1.7989774365e+00	 1.1467737361e+00
 8.3367538912e-01	 1.7367451140e+00	 9.7603328231e-01
 8.1720161970e-01	 1.7445571572e+00	 9.7451808986e-01
 8.0068214485e-01	 1.7522003882e+00	 9.8331002585e-01
 7.8411947056e-01	 1.7596746030e+00	 1.0002094880e+00
 7.6751609772e-01	 1.7669796451e+00	 1.0230785620e+00
 7.5087452097e-01	 1.7741154057e+00	 1.0498444158e+00
 7.3419722767e-01	 1.7810818232e+00	 1.0783122366e+00
 7.1748669681e-01	 1.7878788828e+00	 1.1048626545e+00
 7.0074539792e-01	 1.7945066160e+00	 1.1276193435e+00
 6.8397579012e-01	 1.8009651001e+00	 1.1452650682e+00
 6.6718032103e-01	 1.8072544580e+00	 1.1565459019e+00
 8.3749352836e-01	 1.7446992107e+00	 9.6813519545e-01
 8.2094431093e-01	 1.7525470321e+00	 9.6903338024e-01
 8.0434917874e-01	 1.7602252683e+00	 9.7957982532e-01
 7.8771064928e-01	 1.7677337141e+00	 9.9773139767e-01
 7.7103123486e-01	 1.7750722125e+00	 1.0214990119e+00
 7.5431344156e-01	 1.7822406541e+00	 1.0489507382e+00
 7.3755976815e-01	 1.7892389771e+00	 1.0781751175e+00
 7.2077270493e-01	 1.7960671664e+00	 1.1060276168e+00
 7.0395473279e-01	 1.8027252539e+00	 1.1304552013e+00
 6.8710832208e-01	 1.8092133171e+00	 1.1502447992e+00
 6.7023593163e-01	 1.8155314795e+00	 1.1642363392e+00
 8.4131166759e-01	 1.7526533074e+00	 9.6198908606e-01
 8.2468700215e-01	 1.7605369071e+00	 9.6532809430e-01
 8.0801621264e-01	 1.7682501484e+00	 9.7740857611e-01
 7.9130182799e-01	 1.7757928253e+00	 9.9640495844e-01
 7.7454637200e-01	 1.7831647799e+00	 1.0205372606e+00
 7.5775236216e-01	 1.7903659025e+00	 1.0480738291e+00
 7.4092230862e-01	 1.7973961309e+00	 1.0773333587e+00
 7.2405871306e-01	 1.8042554500e+00	 1.1058137180e+00
 7.0716406766e-01	 1.8109438917e+00	 1.1313331249e+00
 6.9024085403e-01	 1.8174615341e+00	 1.1528354230e+00
 6.7329154224e-01	 1.8238085011e+00	 1.1693060052e+00
 8.4512980682e-01	 1.7606074041e+00	 9.5870918266e-01
 8.2842969338e-01	 1.7685267821e+00	 9.6437506473e-01
 8.1168324653e-01	 1.7762750285e+00	 9.7762317525e-01
 7.9489300671e-01	 1.7838519365e+00	 9.9690582443e-01
 7.7806150914e-01	 1.7912573474e+00	 1.0207116547e+00
 7.6119128276e-01	 1.7984911509e+00	 1.0475679152e+00
 7.4428484909e-01	 1.8055532847e+00	 1.0760420288e+00
 7.2734472119e-01	 1.8124437336e+00	 1.1042652226e+00
 7.1037340252e-01	 1.8191625296e+00	 1.1301144701e+00
 6.9337338599e-01	 1.8257097511e+00	 1.1527051406e+00
 6.7634715284e-01	 1.8320855226e+00	 1.1712189005e+00
 8.4894794605e-01	 1.7685615008e+00	 9.5938753920e-01
 8.3217238461e-01	 1.7765166570e+00	 9.6712697876e-01
 8.1535028043e-01	 1.7842999086e+00	 9.8103248197e-01
 7.9848418542e-01	 1.7919110476e+00	 9.9989381531e-01
 7.8157664628e-01	 1.7993499148e+00	 1.0225270221e+00
 7.6463020335e-01	 1.8066163993e+00	 1.0477761505e+00
 7.4764738957e-01	 1.8137104385e+00	 1.0745142807e+00
 7.3063072931e-01	 1.8206320172e+00	 1.1014177800e+00
 7.1358273739e-01	 1.8273811674e+00	 1.1266555913e+00
 6.9650591794e-01	 1.8339579680e+00	 1.1495209563e+00
 6.7940276344e-01	 1.8403625441e+00	 1.1694418377e+00
 8.5276608528e-01	 1.7765155975e+00	 9.6509489902e-01
 8.3591507583e-01	 1.7845065320e+00	 9.7451717610e-01
 8.1901731432e-01	 1.7923247887e+00	 9.8842804741e-01
 8.0207536413e-01	 1.7999701588e+00	 1.0060135754e+00
 7.8509178342e-01	 1.8074424822e+00	 1.0264752587e+00
 7.6806912395e-01	 1.8147416478e+00	 1.0490311261e+00
 7.5100993004e-01	 1.8218675923e+00	 1.0729161414e+00
 7.3391673744e-01	 1.8288203008e+00	 1.0972984364e+00
 7.1679207226e-01	 1.8355998053e+00	 1.1208077786e+00
 6.9963844990e-01	 1.8422061850e+00	 1.1429485354e+00
 6.8245837404e-01	 1.8486395656e+00	 1.1634442157e+00
 6.5190226803e-01	 1.7658693503e+00	 1.0977685295e+00
 6.3547131114e-01	 1.7718485933e+00	 1.0951733962e+00
 6.1901983667e-01	 1.7776630090e+00	 1.0907321454e+00
 6.0255019490e-01	 1.7833128461e+00	 1.0849674453e+00
 5.8606472121e-01	 1.7887983956e+00	 1.0783873854e+00
 5.6956573515e-01	 1.7941199904e+00	 1.0714829862e+00
 5.5305553956e-01	 1.7992780042e+00	 1.0647259100e+00
 5.3653641979e-01	 1.8042728512e+00	 1.0585663649e+00
 5.2001064282e-01	 1.8091049855e+00	 1.0534311868e+00
 5.0348045650e-01	 1.8137749003e+00	 1.0497220917e+00
 4.8694808875e-01	 1.8182831273e+00	 1.0478140839e+00
 6.5495787863e-01	 1.7741463719e+00	 1.1104079397e+00
 6.3844990620e-01	 1.7801536409e+00	 1.1071691666e+00
 6.2192132001e-01	 1.7859953100e+00	 1.1004980308e+00
 6.0537448139e-01	 1.7916716291e+00	 1.0913467795e+00
 5.8881173662e-01	 1.7971828907e+00	 1.0806323081e+00
 5.7223541615e-01	 1.8025294290e+00	 1.0692334905e+00
 5.5564783361e-01	 1.8077116195e+00	 1.0579887452e+00
 5.3905128506e-01	 1.8127298785e+00	 1.0476938261e+00
 5.2244804811e-01	 1.8175846620e+00	 1.0390998258e+00
 5.0584038114e-01	 1.8222764658e+00	 1.0329113784e+00
 4.8923052251e-01	 1.8268058238e+00	 1.0297850504e+00
 6.5801348923e-01	 1.7824233934e+00	 1.1231570282e+00
 6.4142850126e-01	 1.7884586885e+00	 1.1203479642e+00
 6.2482280336e-01	 1.7943276110e+00	 1.1126020003e+00
 6.0819876787e-01	 1.8000304122e+00	 1.1012058764e+00
 5.9155875203e-01	 1.8055673857e+00	 1.0873948896e+00
 5.7490509715e-01	 1.8109388675e+00	 1.0723500888e+00
 5.5824012766e-01	 1.8161452348e+00	 1.0571957322e+00
 5.4156615033e-01	 1.8211869057e+00	 1.0429969957e+00
 5.2488545340e-01	 1.8260643386e+00	 1.0307579197e+00
 5.0820030577e-01	 1.8307780312e+00	 1.0214195796e+00
 4.9151295627e-01	 1.8353285204e+00	 1.0158584679e+00
 6.6106909983e-01	 1.7907004149e+00	 1.1354621639e+00
 6.4440709632e-01	 1.7967637360e+00	 1.1339502617e+00
 6.2772428671e-01	 1.8026599120e+00	 1.1261314074e+00
 6.1102305435e-01	 1.8083891953e+00	 1.1135328575e+00
 5.9430576744e-01	 1.8139518808e+00	 1.0976189716e+00
 5.7757477815e-01	 1.8193483061e+00	 1.0797883136e+00
 5.6083242171e-01	 1.8245788501e+00	 1.0613710381e+00
 5.4408101560e-01	 1.8296439330e+00	 1.0436265463e+00
 5.2732285868e-01	 1.8345440151e+00	 1.0277413985e+00
 5.1056023041e-01	 1.8392795967e+00	 1.0148274687e+00
 4.9379539003e-01	 1.8438512169e+00	 1.0059203284e+00
 6.6412471043e-01	 1.7989774365e+00	 1.1467737361e+00
 6.4738569138e-01	 1.8050687836e+00	 1.1472246588e+00
 6.3062577006e-01	 1.8109922131e+00	 1.1401848707e+00
 6.1384734083e-01	 1.8167479783e+00	 1.1273292590e+00
 5.9705278285e-01	 1.8223363759e+00	 1.1102629500e+00
 5.8024445915e-01	 1.8277577446e+00	 1.0905183625e+00
 5.6342471576e-01	 1.8330124654e+00	 1.0695525585e+00
 5.4659588087e-01	 1.8381009602e+00	 1.0487448761e+00
 5.2976026397e-01	 1.8430236917e+00	 1.0293948313e+00
 5.1292015504e-01	 1.8477811622e+00	 1.0127202734e+00
 4.9607782379e-01	 1.8523739134e+00	 9.9985563613e-01
 6.6718032103e-01	 1.8072544580e+00	 1.1565459019e+00
 6.5036428644e-01	 1.8133738312e+00	 1.1594275407e+00
 6.3352725341e-01	 1.8193245141e+00	 1.1538718677e+00
 6.1667162732e-01	 1.8251067614e+00	 1.1416095821e+00
 5.9979979826e-01	 1.8307208709e+00	 1.1242993061e+00
 5.8291414015e-01	 1.8361671832e+00	 1.1035246332e+00
 5.6601700981e-01	 1.8414460807e+00	 1.0807914790e+00
 5.4911074614e-01	 1.8465579875e+00	 1.0575257223e+00
 5.3219766926e-01	 1.8515033682e+00	 1.0350711177e+00
 5.1528007968e-01	 1.8562827277e+00	 1.0146723309e+00
 4.9836025755e-01	 1.8608966100e+00	 9.9748729601e-01
 6.7023593163e-01	 1.8155314795e+00	 1.1642363392e+00
 6.5334288150e-01	 1.8216788787e+00	 1.1698227465e+00
 6.3642873675e-01	 1.8276568151e+00	 1.1663123381e+00
 6.1949591380e-01	 1.8334655445e+00	 1.1554008550e+00
 6.0254681367e-01	 1.8391053660e+00	 1.1387141489e+00
 5.8558382115e-01	 1.8445766217e+00	 1.1178052687e+00
 5.6860930386e-01	 1.8498796960e+00	 1.0941518486e+00
 5.5162561141e-01	 1.8550150148e+00	 1.0691439871e+00
 5.3463507454e-01	 1.8599830448e+00	 1.0440685368e+00
 5.1764000431e-01	 1.8647842931e+00	 1.0201681567e+00
 5.0064269131e-01	 1.8694193065e+00	 9.9860083256e-01
 6.7329154224e-01	 1.8238085011e+00	 1.1693060052e+00
 6.5632147656e-01	 1.8299839263e+00	 1.1776812441e+00
 6.3933022010e-01	 1.8359891162e+00	 1.1766362974e+00
 6.2232020028e-01	 1.8418243275e+00	 1.1677422052e+00
 6.0529382908e-01	 1.8474898610e+00	 1.1525067684e+00
 5.8825350215e-01	 1.8529860603e+00	 1.1323702388e+00
 5.7120159791e-01	 1.8583133113e+00	 1.1086623641e+00
 5.5414047668e-01	 1.8634720420e+00	 1.0826751708e+00
 5.3707247983e-01	 1.8684627213e+00	 1.0556463902e+00
 5.1999992895e-01	 1.8732858586e+00	 1.0287333321e+00
 5.0292512507e-01	 1.8779420031e+00	 1.0030119299e+00
 6.7634715284e-01	 1.8320855226e+00	 1.1712189005e+00
 6.5930007162e-01	 1.8382889739e+00	 1.1822808134e+00
 6.4223170345e-01	 1.8443214172e+00	 1.1839834590e+00
 6.2514448676e-01	 1.8501831106e+00	 1.1776844430e+00
 6.0804084449e-01	 1.8558743561e+00	 1.1646677604e+00
 5.9092318315e-01	 1.8613954988e+00	 1.1461316803e+00
 5.7379389196e-01	 1.8667469266e+00	 1.1232798049e+00
 5.5665534195e-01	 1.8719290693e+00	 1.0972540182e+00
 5.3950988512e-01	 1.8769423979e+00	 1.0691290862e+00
 5.2235985359e-01	 1.8817874241e+00	 1.0399115147e+00
 5.0520755883e-01	 1.8864646996e+00	 1.0105385543e+00
 6.7940276344e-01	 1.8403625441e+00	 1.1694418377e+00
 6.6227866668e-01	 1.8465940215e+00	 1.1829057364e+00
 6.4513318680e-01	 1.8526537182e+00	 1.1875019738e+00
 6.2796877325e-01	 1.8585418937e+00	 1.1842256026e+00
 6.1078785990e-01	 1.8642588511e+00	 1.1740725024e+00
 5.9359286415e-01	 1.8698049374e+00	 1.1580368744e+00
 5.7638618601e-01	 1.8751805420e+00	 1.1370651868e+00
 5.5917020722e-01	 1.8803860966e+00	 1.1120547625e+00
 5.4194729040e-01	 1.8854220744e+00	 1.0838524905e+00
 5.2471977822e-01	 1.8902889896e+00	 1.0532536649e+00
 5.0748999259e-01	 1.8949873961e+00	 1.0210009561e+00
 6.8245837404e-01	 1.8486395656e+00	 1.1634442157e+00
 6.6525726174e-01	 1.8548990690e+00	 1.1788322826e+00
 6.4803467015e-01	 1.8609860192e+00	 1.1862276350e+00
 6.3079305973e-01	 1.8669006767e+00	 1.1863007571e+00
 6.1353487531e-01	 1.8726433462e+00	 1.1797157148e+00
 5.9626254515e-01	 1.8782143759e+00	 1.1671113901e+00
 5.7897848006e-01	 1.8836141573e+00	 1.1491000134e+00
 5.6168507249e-01	 1.8888431238e+00	 1.1262657886e+00
 5.4438469569e-01	 1.8939017510e+00	 1.0991636198e+00
 5.2707970286e-01	 1.8987905551e+00	 1.0683179439e+00
 5.0977242635e-01	 1.9035100927e+00	 1.0342216736e+00
 4.8694808875e-01	 1.8182831273e+00	 1.0478140839e+00
 4.7041574706e-01	 1.8226302364e+00	 1.0457087357e+00
 4.5388561839e-01	 1.8268168362e+00	 1.0415420136e+00
 4.3735986779e-01	 1.8308435719e+00	 1.0358610313e+00
 4.2084063749e-01	 1.8347111246e+00	 1.0292001295e+00
 4.0433004622e-01	 1.8384202100e+00	 1.0220792627e+00
 3.8783018861e-01	 1.8419715781e+00	 1.0150024695e+00
 3.7134313460e-01	 1.8453660122e+00	 1.0084564162e+00
 3.5487092882e-01	 1.8486043281e+00	 1.0025355584e+00
 3.3841559011e-01	 1.8516873736e+00	 9.9726449833e-01
 3.2197911094e-01	 1.8546160272e+00	 9.9309324974e-01
 4.8923052251e-01	 1.8268058238e+00	 1.0297850504e+00
 4.7262069006e-01	 1.8311733088e+00	 1.0281438798e+00
 4.5601308101e-01	 1.8353795321e+00	 1.0260530888e+00
 4.3940987056e-01	 1.8394251420e+00	 1.0236045642e+00
 4.2281321096e-01	 1.8433108228e+00	 1.0209009376e+00
 4.0622523088e-01	 1.8470372935e+00	 1.0180541083e+00
 3.8964803478e-01	 1.8506053077e+00	 1.0151838161e+00
 3.7308370228e-01	 1.8540156522e+00	 1.0124149684e+00
 3.5653428762e-01	 1.8572691468e+00	 1.0095971667e+00
 3.4000181909e-01	 1.8603666432e+00	 1.0063792767e+00
 3.2348829849e-01	 1.8633090241e+00	 1.0028754863e+00
 4.9151295627e-01	 1.8353285204e+00	 1.0158584679e+00
 4.7482563307e-01	 1.8397163812e+00	 1.0131225031e+00
 4.5814054363e-01	 1.8439422280e+00	 1.0115037710e+00
 4.4145987332e-01	 1.8480067122e+00	 1.0107193716e+00
 4.2478578442e-01	 1.8519105210e+00	 1.0105168529e+00
 4.0812041554e-01	 1.8556543770e+00	 1.0106683944e+00
 3.9146588094e-01	 1.8592390372e+00	 1.0109700872e+00
 3.7482426996e-01	 1.8626652922e+00	 1.0112444495e+00
 3.5819764642e-01	 1.8659339656e+00	 1.0111430389e+00
 3.4158804806e-01	 1.8690459129e+00	 1.0100329520e+00
 3.2499748604e-01	 1.8720020210e+00	 1.0077438872e+00
 4.9379539003e-01	 1.8438512169e+00	 1.0059203284e+00
 4.7703057607e-01	 1.8482594536e+00	 1.0008449504e+00
 4.6026800626e-01	 1.8525049239e+00	 9.9836535031e-01
 4.4350987608e-01	 1.8565882823e+00	 9.9789450558e-01
 4.2675835788e-01	 1.8605102192e+00	 9.9889357261e-01
 4.1001560020e-01	 1.8642714605e+00	 1.0008700134e+00
 3.9328372711e-01	 1.8678727668e+00	 1.0033715718e+00
 3.7656483765e-01	 1.8713149323e+00	 1.0059855502e+00
 3.5986100522e-01	 1.8745987843e+00	 1.0082071054e+00
 3.4317427704e-01	 1.8777251825e+00	 1.0092031441e+00
 3.2650667358e-01	 1.8806950179e+00	 1.0085682880e+00
 4.9607782379e-01	 1.8523739134e+00	 9.9985563613e-01
 4.7923551908e-01	 1.8568025260e+00	 9.9149114364e-01
 4.6239546888e-01	 1.8610676199e+00	 9.8704898664e-01
 4.4555987884e-01	 1.8651698524e+00	 9.8573213507e-01
 4.2873093135e-01	 1.8691099174e+00	 9.8679774963e-01
 4.1191078486e-01	 1.8728885440e+00	 9.8955655525e-01
 3.9510157327e-01	 1.8765064963e+00	 9.9337217074e-01
 3.7830540533e-01	 1.8799645723e+00	 9.9766039383e-01
 3.6152436402e-01	 1.8832636031e+00	 1.0018046710e+00
 3.4476050601e-01	 1.8864044522e+00	 1.0048480187e+00
 3.2801586113e-01	 1.8893880148e+00	 1.0062010802e+00
 4.9836025755e-01	 1.8608966100e+00	 9.9748729601e-01
 4.8144046208e-01	 1.8653455984e+00	 9.8515389060e-01
 4.6452293151e-01	 1.8696303158e+00	 9.7790891215e-01
 4.4760988161e-01	 1.8737514226e+00	 9.7481145373e-01
 4.3070350481e-01	 1.8777096156e+00	 9.7498362351e-01
 4.1380596952e-01	 1.8815056276e+00	 9.7760993040e-01
 3.9691941944e-01	 1.8851402259e+00	 9.8193661871e-01
 3.8004597302e-01	 1.8886142123e+00	 9.8727095108e-01
 3.6318772282e-01	 1.8919284218e+00	 9.9293093659e-01
 3.4634673499e-01	 1.8950837218e+00	 9.9790672491e-01
 3.2952504868e-01	 1.8980810117e+00	 1.0014776138e+00
 5.0064269131e-01	 1.8694193065e+00	 9.9860083256e-01
 4.8364540509e-01	 1.8738886708e+00	 9.8193470488e-01
 4.6665039413e-01	 1.8781930117e+00	 9.7130464663e-01
 4.4965988437e-01	 1.8823329927e+00	 9.6570302062e-01
 4.3267607828e-01	 1.8863093138e+00	 9.6419032894e-01
 4.1570115418e-01	 1.8901227111e+00	 9.6589458986e-01
 3.9873726560e-01	 1.8937739555e+00	 9.7001066208e-01
 3.8178654070e-01	 1.8972638524e+00	 9.7579951555e-01
 3.6485108162e-01	 1.9005932405e+00	 9.8256146533e-01
 3.4793296396e-01	 1.9037629915e+00	 9.8929983471e-01
 3.3103423623e-01	 1.9067740086e+00	 9.9521659041e-01
 5.0292512507e-01	 1.8779420031e+00	 1.0030119299e+00
 4.8585034809e-01	 1.8824317432e+00	 9.8193732272e-01
 4.6877785675e-01	 1.8867557076e+00	 9.6758795637e-01
 4.5170988714e-01	 1.8909145628e+00	 9.5896576231e-01
 4.3464865175e-01	 1.8949090120e+00	 9.5514226841e-01
 4.1759633884e-01	 1.8987397946e+00	 9.5525794653e-01
 4.0055511177e-01	 1.9024076850e+00	 9.5852151099e-01
 3.8352710838e-01	 1.9059134924e+00	 9.6420916716e-01
 3.6651444042e-01	 1.9092580593e+00	 9.7165263672e-01
 3.4951919294e-01	 1.9124422611e+00	 9.7992977096e-01
 3.3254342378e-01	 1.9154670055e+00	 9.8822044475e-01
 5.0520755883e-01	 1.8864646996e+00	 1.0105385543e+00
 4.8805529110e-01	 1.8909748156e+00	 9.8526248693e-01
 4.7090531938e-01	 1.8953184036e+00	 9.6710307047e-01
 4.5375988990e-01	 1.8994961330e+00	 9.5514727144e-01
 4.3662122521e-01	 1.9035087102e+00	 9.4854947579e-01
 4.1949152350e-01	 1.9073568781e+00	 9.4653078621e-01
 4.0237295794e-01	 1.9110414146e+00	 9.4837827966e-01
 3.8526767607e-01	 1.9145631324e+00	 9.5344422380e-01
 3.6817779922e-01	 1.9179228780e+00	 9.6114208900e-01
 3.5110542191e-01	 1.9211215308e+00	 9.7068122444e-01
 3.3405261133e-01	 1.9241600024e+00	 9.8127571766e-01
 5.0748999259e-01	 1.8949873961e+00	 1.0210009561e+00
 4.9026023410e-01	 1.8995178880e+00	 9.9200806189e-01
 4.7303278200e-01	 1.9038810995e+00	 9.7018689225e-01
 4.5580989266e-01	 1.9080777031e+00	 9.5478409828e-01
 4.3859379868e-01	 1.9121084084e+00	 9.4510797106e-01
 4.2138670816e-01	 1.9159739616e+00	 9.4052766831e-01
 4.0419080410e-01	 1.9196751442e+00	 9.4047241577e-01
 3.8700824375e-01	 1.9232127724e+00	 9.4443068148e-01
 3.6984115802e-01	 1.9265876967e+00	 9.5194915030e-01
 3.5269165089e-01	 1.9298008004e+00	 9.6242156016e-01
 3.3556179888e-01	 1.9328529993e+00	 9.7515341887e-01
 5.0977242635e-01	 1.9035100927e+00	 1.0342216736e+00
 4.9246517711e-01	 1.9080609604e+00	 1.0022691466e+00
 4.7516024463e-01	 1.9124437954e+00	 9.7716920632e-01
 4.5785989543e-01	 1.9166592732e+00	 9.5840203546e-01
 4.4056637214e-01	 1.9207081067e+00	 9.4550010645e-01
 4.2328189282e-01	 1.9245910451e+00	 9.3804731678e-01
 4.0600865027e-01	 1.9283088737e+00	 9.3567811908e-01
 3.8874881144e-01	 1.9318624125e+00	 9.3807664342e-01
 3.7150451682e-01	 1.9352525155e+00	 9.4497580895e-01
 3.5427787987e-01	 1.9384800701e+00	 9.5600121341e-01
 3.3707098643e-01	 1.9415459962e+00	 9.7060938072e-01
 3.2197911094e-01	 1.8546160272e+00	 9.9309324974e-01
 3.0556066871e-01	 1.8573916564e+00	 9.9062203970e-01
 2.8916500231e-01	 1.8600146878e+00	 9.9003088316e-01
 2.7279402747e-01	 1.8624860872e+00	 9.9106745497e-01
 2.5644963163e-01	 1.8648068484e+00	 9.9346933856e-01
 2.4013367353e-01	 1.8669779921e+00	 9.9696940081e-01
 2.2384798283e-01	 1.8690005651e+00	 1.0013007014e+00
 2.0759435981e-01	 1.8708756396e+00	 1.0062009652e+00
 1.9137457499e-01	 1.8726043121e+00	 1.0114166445e+00
 1.7519036889e-01	 1.8741877030e+00	 1.0167066009e+00
 1.5904345171e-01	 1.8756269553e+00	 1.0218454308e+00
 3.2348829849e-01	 1.8633090241e+00	 1.0028754863e+00
 3.0699289937e-01	 1.8660976633e+00	 9.9966372997e-01
 2.9052038284e-01	 1.8687329894e+00	 9.9735219381e-01
 2.7407267362e-01	 1.8712159728e+00	 9.9605675177e-01
 2.5765166797e-01	 1.8735476120e+00	 9.9587496459e-01
 2.4125923334e-01	 1.8757289323e+00	 9.9689115136e-01
 2.2489720800e-01	 1.8777609856e+00	 9.9918100805e-01
 2.0856740064e-01	 1.8796448489e+00	 1.0028158023e+00
 1.9227159009e-01	 1.8813816241e+00	 1.0078661731e+00
 1.7601152503e-01	 1.8829724367e+00	 1.0144055638e+00
 1.5978892366e-01	 1.8844184351e+00	 1.0225133157e+00
 3.2499748604e-01	 1.8720020210e+00	 1.0077438872e+00
 3.0842513004e-01	 1.8748036702e+00	 1.0046878050e+00
 2.9187576338e-01	 1.8774512910e+00	 1.0016819267e+00
 2.7535131976e-01	 1.8799458584e+00	 9.9914610446e-01
 2.5885370430e-01	 1.8822883755e+00	 9.9747443408e-01
 2.4238479316e-01	 1.8844798725e+00	 9.9704007804e-01
 2.2594643317e-01	 1.8865214060e+00	 9.9819964566e-01
 2.0954044147e-01	 1.8884140582e+00	 1.0012971607e+00
 1.9316860519e-01	 1.8901589361e+00	 1.0066676461e+00
 1.7683268116e-01	 1.8917571704e+00	 1.0146403542e+00
 1.6053439561e-01	 1.8932099149e+00	 1.0255416719e+00
 3.2650667358e-01	 1.8806950179e+00	 1.0085682880e+00
 3.0985736070e-01	 1.8835096771e+00	 1.0064308496e+00
 2.9323114392e-01	 1.8861695926e+00	 1.0036230780e+00
 2.7662996591e-01	 1.8886757441e+00	 1.0008054463e+00
 2.6005574064e-01	 1.8910291390e+00	 9.9860599768e-01
 2.4351035298e-01	 1.8932308127e+00	 9.9762497485e-01
 2.2699565834e-01	 1.8952818264e+00	 9.9843901338e-01
 2.1051348230e-01	 1.8971832676e+00	 1.0016049321e+00
 1.9406562030e-01	 1.8989362481e+00	 1.0076631501e+00
 1.7765383730e-01	 1.9005419041e+00	 1.0171407596e+00
 1.6127986756e-01	 1.9020013947e+00	 1.0305542853e+00
 3.2801586113e-01	 1.8893880148e+00	 1.0062010802e+00
 3.1128959137e-01	 1.8922156840e+00	 1.0056144942e+00
 2.9458652446e-01	 1.8948878943e+00	 1.0037661854e+00
 2.7790861205e-01	 1.8974056297e+00	 1.0014947383e+00
 2.6125777697e-01	 1.8997699026e+00	 9.9960039658e-01
 2.4463591280e-01	 1.9019817528e+00	 9.9884955069e-01
 2.2804488351e-01	 1.9040422468e+00	 9.9997879721e-01
 2.1148652314e-01	 1.9059524769e+00	 1.0036986005e+00
 1.9496263540e-01	 1.9077135601e+00	 1.0106965888e+00
 1.7847499343e-01	 1.9093266378e+00	 1.0216405153e+00
 1.6202533951e-01	 1.9107928745e+00	 1.0371809131e+00
 3.2952504868e-01	 1.8980810117e+00	 1.0014776138e+00
 3.1272182203e-01	 1.9009216909e+00	 1.0029457596e+00
 2.9594190500e-01	 1.9036061959e+00	 1.0026896132e+00
 2.7918725820e-01	 1.9061355153e+00	 1.0016641962e+00
 2.6245981331e-01	 1.9085106661e+00	 1.0007810309e+00
 2.4576147262e-01	 1.9107326930e+00	 1.0009125408e+00
 2.2909410868e-01	 1.9128026673e+00	 1.0028960256e+00
 2.1245956397e-01	 1.9147216862e+00	 1.0075372436e+00
 1.9585965050e-01	 1.9164908721e+00	 1.0156136329e+00
 1.7929614957e-01	 1.9181113715e+00	 1.0278772047e+00
 1.6277081146e-01	 1.9195843543e+00	 1.0450571366e+00
 3.3103423623e-01	 1.9067740086e+00	 9.9521659041e-01
 3.1415405270e-01	 1.9096276978e+00	 9.9911739147e-01
 2.9729728554e-01	 1.9123244975e+00	 1.0009598301e+00
 2.8046590435e-01	 1.9148654009e+00	 1.0017545103e+00
 2.6366184964e-01	 1.9172514297e+00	 1.0024641236e+00
 2.4688703243e-01	 1.9194836332e+00	 1.0040078150e+00
 2.3014333386e-01	 1.9215630877e+00	 1.0072651240e+00
 2.1343260480e-01	 1.9234908955e+00	 1.0130795351e+00
 1.9675666560e-01	 1.9252681841e+00	 1.0222616712e+00
 1.8011730570e-01	 1.9268961052e+00	 1.0355921623e+00
 1.6351628341e-01	 1.9283758340e+00	 1.0538242187e+00
 3.3254342378e-01	 1.9154670055e+00	 9.8822044475e-01
 3.1558628337e-01	 1.9183337047e+00	 9.9480818698e-01
 2.9865266608e-01	 1.9210427991e+00	 9.9913167964e-01
 2.8174455049e-01	 1.9235952865e+00	 1.0021970608e+00
 2.6486388598e-01	 1.9259921932e+00	 1.0049588808e+00
 2.4801259225e-01	 1.9282345734e+00	 1.0083244844e+00
 2.3119255903e-01	 1.9303235081e+00	 1.0131579679e+00
 2.1440564563e-01	 1.9322601048e+00	 1.0202837463e+00
 1.9765368070e-01	 1.9340454961e+00	 1.0304897636e+00
 1.8093846184e-01	 1.9356808389e+00	 1.0445303795e+00
 1.6426175536e-01	 1.9371673138e+00	 1.0631289653e+00
 3.3405261133e-01	 1.9241600024e+00	 9.8127571766e-01
 3.1701851403e-01	 1.9270397115e+00	 9.9068331307e-01
 3.0000804662e-01	 1.9297611007e+00	 9.9774864393e-01
 2.8302319664e-01	 1.9323251722e+00	 1.0034141277e+00
 2.6606592231e-01	 1.9347329568e+00	 1.0085676477e+00
 2.4913815207e-01	 1.9369855135e+00	 1.0140470039e+00
 2.3224178420e-01	 1.9390839285e+00	 1.0206439349e+00
 2.1537868647e-01	 1.9410293141e+00	 1.0291077489e+00
 1.9855069580e-01	 1.9428228080e+00	 1.0401485951e+00
 1.8175961797e-01	 1.9444655726e+00	 1.0544404132e+00
 1.6500722731e-01	 1.9459587936e+00	 1.0726235904e+00
 3.3556179888e-01	 1.9328529993e+00	 9.7515341887e-01
 3.1845074470e-01	 1.9357457184e+00	 9.8739461634e-01
 3.0136342716e-01	 1.9384794024e+00	 9.9734310084e-01
 2.8430184279e-01	 1.9410550578e+00	 1.0058190945e+00
 2.6726795865e-01	 1.9434737203e+00	 1.0135860606e+00
 2.5026371189e-01	 1.9457364537e+00	 1.0213552737e+00
 2.3329100937e-01	 1.9478443490e+00	 1.0297899559e+00
 2.1635172730e-01	 1.9497985234e+00	 1.0395090167e+00
 1.9944771090e-01	 1.9516001200e+00	 1.0510904320e+00
 1.8258077411e-01	 1.9532503062e+00	 1.0650742969e+00
 1.6575269926e-01	 1.9547502734e+00	 1.0819655854e+00
 3.3707098643e-01	 1.9415459962e+00	 9.7060938072e-01
 3.1988297537e-01	 1.9444517253e+00	 9.8558092528e-01
 3.0271880770e-01	 1.9471977040e+00	 9.9843657448e-01
 2.8558048894e-01	 1.9497849434e+00	 1.0098166478e+00
 2.6846999499e-01	 1.9522144839e+00	 1.0203031956e+00
 2.5138927171e-01	 1.9544873939e+00	 1.0304247381e+00
 2.3434023454e-01	 1.9566047694e+00	 1.0406605646e+00
 2.1732476813e-01	 1.9585677328e+00	 1.0514446288e+00
 2.0034472601e-01	 1.9603774320e+00	 1.0631690787e+00
 1.8340193024e-01	 1.9620350399e+00	 1.0761874546e+00
 1.6649817121e-01	 1.9635417532e+00	 1.0908175918e+00
 1.5904345171e-01	 1.8756269553e+00	 1.0218454308e+00
 1.4293823142e-01	 1.8769230258e+00	 1.0229534385e+00
 1.2687357695e-01	 1.8780773568e+00	 1.0166083810e+00
 1.1085106873e-01	 1.8790911537e+00	 1.0032696735e+00
 9.4872257094e-02	 1.8799656418e+00	 9.8338189314e-01
 7.8938662051e-02	 1.8807020647e+00	 9.5737681999e-01
 6.3051773189e-02	 1.8813016841e+00	 9.2567531434e-01
 4.7213049540e-02	 1.8817657788e+00	 8.8868904827e-01
 3.1423919486e-02	 1.8820956438e+00	 8.4682210827e-01
 1.5685780682e-02	 1.8822925895e+00	 8.0047248445e-01
 0.0000000000e+00	 1.8823579412e+00	 7.5003346060e-01
 1.5978892366e-01	 1.8844184351e+00	 1.0225133157e+00
 1.4360821463e-01	 1.8857205806e+00	 1.0281689893e+00
 1.2746826155e-01	 1.8868803221e+00	 1.0270822218e+00
 1.1137065229e-01	 1.8878988710e+00	 1.0189234216e+00
 9.5316944414e-02	 1.8887774579e+00	 1.0033578142e+00
 7.9308665075e-02	 1.8895173326e+00	 9.8004815773e-01
 6.3347310839e-02	 1.8901197626e+00	 9.4865726579e-01
 4.7434347578e-02	 1.8905860326e+00	 9.0885035721e-01
 3.1571210368e-02	 1.8909174437e+00	 8.6029724896e-01
 1.5759303416e-02	 1.8911153126e+00	 8.0267440850e-01
 0.0000000000e+00	 1.8911809706e+00	 7.3566687996e-01
 1.6053439561e-01	 1.8932099149e+00	 1.0255416719e+00
 1.4427819784e-01	 1.8945181354e+00	 1.0352310193e+00
 1.2806294616e-01	 1.8956832875e+00	 1.0387079178e+00
 1.1189023584e-01	 1.8967065882e+00	 1.0350029936e+00
 9.5761631733e-02	 1.8975892741e+00	 1.0231509429e+00
 7.9678668098e-02	 1.8983326006e+00	 1.0021937482e+00
 6.3642848489e-02	 1.8989378411e+00	 9.7118367864e-01
 4.7655645616e-02	 1.8994062864e+00	 9.2918609565e-01
 3.1718501251e-02	 1.8997392437e+00	 8.7528207838e-01
 1.5832826150e-02	 1.8999380357e+00	 8.0857088740e-01
 0.0000000000e+00	 1.9000040000e+00	 7.2817228055e-01
 1.6127986756e-01	 1.9020013947e+00	 1.0305542853e+00
 1.4494818105e-01	 1.9033156901e+00	 1.0436743547e+00
 1.2865763077e-01	 1.9044862529e+00	 1.0509571364e+00
 1.1240981940e-01	 1.9055143055e+00	 1.0509405638e+00
 9.6206319053e-02	 1.9064010903e+00	 1.0421754979e+00
 8.0048671122e-02	 1.9071478685e+00	 1.0232292724e+00
 6.3938386140e-02	 1.9077559196e+00	 9.9268900560e-01
 4.7876943654e-02	 1.9082265403e+00	 9.4916469919e-01
 3.1865792133e-02	 1.9085610437e+00	 8.9129214079e-01
 1.5906348884e-02	 1.9087607588e+00	 8.1773562789e-01
 0.0000000000e+00	 1.9088270294e+00	 7.2719052803e-01
 1.6202533951e-01	 1.9107928745e+00	 1.0371809131e+00
 1.4561816426e-01	 1.9121132449e+00	 1.0530415114e+00
 1.2925231538e-01	 1.9132892182e+00	 1.0633104887e+00
 1.1292940296e-01	 1.9143220227e+00	 1.0661780795e+00
 9.6651006372e-02	 1.9152129065e+00	 1.0598559155e+00
 8.0418674146e-02	 1.9159631365e+00	 1.0425807295e+00
 6.4233923790e-02	 1.9165739981e+00	 1.0126178126e+00
 4.8098241692e-02	 1.9170467941e+00	 9.6826424598e-01
 3.2013083015e-02	 1.9173828436e+00	 9.0785192566e-01
 1.5979871618e-02	 1.9175834819e+00	 8.2975039657e-01
 0.0000000000e+00	 1.9176500588e+00	 7.3236951305e-01
 1.6277081146e-01	 1.9195843543e+00	 1.0450571366e+00
 1.4628814746e-01	 1.9209107996e+00	 1.0628825083e+00
 1.2984699999e-01	 1.9220921836e+00	 1.0752573140e+00
 1.1344898651e-01	 1.9231297400e+00	 1.0801670266e+00
 9.7095693692e-02	 1.9240247226e+00	 1.0756266061e+00
 8.0788677170e-02	 1.9247784044e+00	 1.0596841914e+00
 6.4529461441e-02	 1.9253920766e+00	 1.0304245391e+00
 4.8319539731e-02	 1.9258670479e+00	 9.8597222948e-01
 3.2160373898e-02	 1.9262046436e+00	 9.2449465818e-01
 1.6053394352e-02	 1.9264062049e+00	 8.4420483289e-01
 0.0000000000e+00	 1.9264730883e+00	 7.4336399038e-01
 1.6351628341e-01	 1.9283758340e+00	 1.0538242187e+00
 1.4695813067e-01	 1.9297083544e+00	 1.0727546862e+00
 1.3044168459e-01	 1.9308951489e+00	 1.0862954703e+00
 1.1396857007e-01	 1.9319374572e+00	 1.0923682024e+00
 9.7540381012e-02	 1.9328365388e+00	 1.0889317169e+00
 8.1158680194e-02	 1.9335936724e+00	 1.0739855639e+00
 6.4824999092e-02	 1.9342101551e+00	 1.0455732655e+00
 4.8540837769e-02	 1.9346873017e+00	 1.0017853373e+00
 3.2307664781e-02	 1.9350264435e+00	 9.4076209546e-01
 1.6126917087e-02	 1.9352289280e+00	 8.6069626710e-01
 0.0000000000e+00	 1.9352961177e+00	 7.5983542244e-01
 1.6426175536e-01	 1.9371673138e+00	 1.0631289653e+00
 1.4762811388e-01	 1.9385059091e+00	 1.0822225316e+00
 1.3103636920e-01	 1.9396981143e+00	 1.0959311312e+00
 1.1448815362e-01	 1.9407451745e+00	 1.1022514938e+00
 9.7985068333e-02	 1.9416483550e+00	 1.0992249015e+00
 8.1528683219e-02	 1.9424089403e+00	 1.0849403553e+00
 6.5120536743e-02	 1.9430282336e+00	 1.0575374863e+00
 4.8762135809e-02	 1.9435075555e+00	 1.0152092365e+00
 3.2454955664e-02	 1.9438482435e+00	 9.5620432831e-01
 1.6200439821e-02	 1.9440516511e+00	 8.7882954330e-01
 0.0000000000e+00	 1.9441191471e+00	 7.8145182710e-01
 1.6500722731e-01	 1.9459587936e+00	 1.0726235904e+00
 1.4829809709e-01	 1.9473034639e+00	 1.0908575051e+00
 1.3163105381e-01	 1.9485010797e+00	 1.1036785877e+00
 1.1500773718e-01	 1.9495528917e+00	 1.1092956622e+00
 9.8429755654e-02	 1.9504601711e+00	 1.1059690955e+00
 8.1898686244e-02	 1.9512242083e+00	 1.0920134499e+00
 6.5416074395e-02	 1.9518463121e+00	 1.0657998896e+00
 4.8983433848e-02	 1.9523278093e+00	 1.0257583637e+00
 3.2602246547e-02	 1.9526700435e+00	 9.7037958840e-01
 1.6273962556e-02	 1.9528743742e+00	 8.9821684719e-01
 0.0000000000e+00	 1.9529421765e+00	 8.0788762958e-01
 1.6575269926e-01	 1.9547502734e+00	 1.0819655854e+00
 1.4896808030e-01	 1.9561010187e+00	 1.0982378751e+00
 1.3222573842e-01	 1.9573040450e+00	 1.1090600555e+00
 1.1552732074e-01	 1.9583606090e+00	 1.1129881343e+00
 9.8874442976e-02	 1.9592719873e+00	 1.1086362984e+00
 8.2268689270e-02	 1.9600394762e+00	 1.0946788892e+00
 6.5711612047e-02	 1.9606643906e+00	 1.0698521430e+00
 4.9204731888e-02	 1.9611480631e+00	 1.0329557226e+00
 3.2749537431e-02	 1.9614918434e+00	 9.8285406063e-01
 1.6347485291e-02	 1.9616970973e+00	 9.1847753851e-01
 0.0000000000e+00	 1.9617652059e+00	 8.3882351839e-01
 1.6649817121e-01	 1.9635417532e+00	 1.0908175918e+00
 1.4963806351e-01	 1.9648985734e+00	 1.1039485556e+00
 1.3282042303e-01	 1.9661070104e+00	 1.1116054884e+00
 1.1604690430e-01	 1.9671683262e+00	 1.1128247980e+00
 9.9319130298e-02	 1.9680838035e+00	 1.1067073613e+00
 8.2638692297e-02	 1.9688547442e+00	 1.0924196576e+00
 6.6007149700e-02	 1.9694824691e+00	 1.0691946849e+00
 4.9426029929e-02	 1.9699683169e+00	 1.0363326850e+00
 3.2896828315e-02	 1.9703136434e+00	 9.9320170052e-01
 1.6421008026e-02	 1.9705198204e+00	 9.3923798799e-01
 0.0000000000e+00	 1.9705882353e+00	 8.7394630509e-01
 1.9705882353e+00	 0.0000000000e+00	 5.1870444366e+00
 1.9705198204e+00	 1.6421008026e-02	 2.9593941264e+00
 1.9703136434e+00	 3.2896828315e-02	 1.3834205774e+00
 1.9699683169e+00	 4.9426029929e-02	 3.7120267140e-01
 1.9694824691e+00	 6.6007149700e-02	-1.6719469259e-01
 1.9688547442e+00	 8.2638692297e-02	-3.2366912465e-01
 1.9680838035e+00	 9.9319130298e-02	-1.9202516560e-01
 1.9671683262e+00	 1.1604690430e-01	 1.3208538952e-01
 1.9661070104e+00	 1.3282042303e-01	 5.5122723911e-01
 1.9648985734e+00	 1.4963806351e-01	 9.6624935058e-01
 1.9635417532e+00	 1.6649817121e-01	 1.2763567051e+00
 1.9794112647e+00	 0.0000000000e+00	 5.7738184428e+00
 1.9793425435e+00	 1.6494530761e-02	 3.4528686445e+00
 1.9791354434e+00	 3.3044119200e-02	 1.7920975340e+00
 1.9787885708e+00	 4.9647327970e-02	 7.0416305067e-01
 1.9783005476e+00	 6.6302687354e-02	 9.9672176814e-02
 1.9776700121e+00	 8.3008695325e-02	-1.1276825521e-01
 1.9768956197e+00	 9.9763817621e-02	-2.6496580112e-02
 1.9759760435e+00	 1.1656648786e-01	 2.6326285533e-01
 1.9749099758e+00	 1.3341510764e-01	 6.5946299353e-01
 1.9736961282e+00	 1.5030804672e-01	 1.0633014717e+00
 1.9723332330e+00	 1.6724364317e-01	 1.3742920735e+00
 1.9882342941e+00	 0.0000000000e+00	 6.2185957104e+00
 1.9881652666e+00	 1.6568053497e-02	 3.8487968450e+00
 1.9879572433e+00	 3.3191410085e-02	 2.1402305595e+00
 1.9876088246e+00	 4.9868626012e-02	 1.0064656582e+00
 1.9871186261e+00	 6.6598225009e-02	 3.5901282074e-01
 1.9864852801e+00	 8.3378698353e-02	 1.0737501407e-01
 1.9857074358e+00	 1.0020850495e-01	 1.5910212273e-01
 1.9847837608e+00	 1.1708607142e-01	 4.1984979515e-01
 1.9837129411e+00	 1.3400979225e-01	 7.9344247938e-01
 1.9824936829e+00	 1.5097802994e-01	 1.1819406070e+00
 1.9811247128e+00	 1.6798911512e-01	 1.4857118664e+00
 1.9970573235e+00	 0.0000000000e+00	 6.5216152568e+00
 1.9969879897e+00	 1.6641576232e-02	 4.1457915620e+00
 1.9967790433e+00	 3.3338700970e-02	 2.4252061656e+00
 1.9964290784e+00	 5.0089924054e-02	 1.2746665126e+00
 1.9959367046e+00	 6.6893762664e-02	 6.0694428361e-01
 1.9953005480e+00	 8.3748701382e-02	 3.3282568165e-01
 1.9945192520e+00	 1.0065319227e-01	 3.6116595100e-01
 1.9935914780e+00	 1.1760565498e-01	 5.9894812524e-01
 1.9925159065e+00	 1.3460447687e-01	 9.5134597721e-01
 1.9912912377e+00	 1.5164801315e-01	 1.3217911282e+00
 1.9899161926e+00	 1.6873458708e-01	 1.6120442561e+00
 2.0058803529e+00	 0.0000000000e+00	 6.6831178882e+00
 2.0058107128e+00	 1.6715098968e-02	 4.3424946884e+00
 2.0056008432e+00	 3.3485991856e-02	 2.6444602878e+00
 2.0052493322e+00	 5.0311222096e-02	 1.5053845852e+00
 2.0047547831e+00	 6.7189300319e-02	 8.3965332959e-01
 2.0041158160e+00	 8.4118704411e-02	 5.5971854958e-01
 2.0033310682e+00	 1.0109787960e-01	 5.7615319973e-01
 2.0023991953e+00	 1.1812523854e-01	 7.9771001947e-01
 2.0013188718e+00	 1.3519916148e-01	 1.1313845753e+00
 2.0000887924e+00	 1.5231799636e-01	 1.4824824413e+00
 1.9987076723e+00	 1.6948005903e-01	 1.7546904543e+00
 2.0147033823e+00	 0.0000000000e+00	 6.7033461606e+00
 2.0146334358e+00	 1.6788621704e-02	 4.4375765250e+00
 2.0144226432e+00	 3.3633282741e-02	 2.7954771767e+00
 2.0140695860e+00	 5.0532520139e-02	 1.6953003857e+00
 2.0135728616e+00	 6.7484837975e-02	 1.0533948731e+00
 2.0129310839e+00	 8.4488707440e-02	 7.8425664702e-01
 2.0121428843e+00	 1.0154256692e-01	 8.0058401415e-01
 2.0112069125e+00	 1.1864482210e-01	 1.0133367569e+00
 2.0101218372e+00	 1.3579384609e-01	 1.3317994445e+00
 2.0088863472e+00	 1.5298797958e-01	 1.6636488290e+00
 2.0074991521e+00	 1.7022553099e-01	 1.9150252601e+00
 2.0235264118e+00	 0.0000000000e+00	 6.5825443416e+00
 2.0234561589e+00	 1.6862144440e-02	 4.4297351479e+00
 2.0232444432e+00	 3.3780573627e-02	 2.8757883189e+00
 2.0228898398e+00	 5.0753818181e-02	 1.8411545857e+00
 2.0223909401e+00	 6.7780375630e-02	 1.2444904506e+00
 2.0217463519e+00	 8.4858710470e-02	 1.0027096952e+00
 2.0209547005e+00	 1.0198725425e-01	 1.0310389908e+00
 2.0200146298e+00	 1.1916440566e-01	 1.2430776000e+00
 2.0189248026e+00	 1.3638853071e-01	 1.5508611317e+00
 2.0176839020e+00	 1.5365796279e-01	 1.8649292972e+00
 2.0162906319e+00	 1.7097100294e-01	 2.0943975934e+00
 2.0323494412e+00	 0.0000000000e+00	 6.3209583736e+00
 2.0322788820e+00	 1.6935667176e-02	 4.3176957910e+00
 2.0320662431e+00	 3.3927864512e-02	 2.8829713864e+00
 2.0317100936e+00	 5.0975116224e-02	 1.9397466771e+00
 2.0312090186e+00	 6.8075913286e-02	 1.4093267323e+00
 2.0305616198e+00	 8.5228713499e-02	 1.2114126128e+00
 2.0297665167e+00	 1.0243194157e-01	 1.2641578155e+00
 2.0288223470e+00	 1.1968398923e-01	 1.4842287023e+00
 2.0277277679e+00	 1.3698321532e-01	 1.7868688737e+00
 2.0264814567e+00	 1.5432794601e-01	 2.0859674263e+00
 2.0250821117e+00	 1.7171647490e-01	 2.2941310161e+00
 2.0411724706e+00	 0.0000000000e+00	 5.9188358371e+00
 2.0411016051e+00	 1.7009189911e-02	 4.1002102453e+00
 2.0408880431e+00	 3.4075155398e-02	 2.8146492125e+00
 2.0405303474e+00	 5.1196414266e-02	 1.9879336669e+00
 2.0400270971e+00	 6.8371450941e-02	 1.5443540723e+00
 2.0393768878e+00	 8.5598716529e-02	 1.4067640600e+00
 2.0385783329e+00	 1.0287662890e-01	 1.4966379367e+00
 2.0376300643e+00	 1.2020357279e-01	 1.7341320452e+00
 2.0365307333e+00	 1.3757789993e-01	 2.0381499279e+00
 2.0352790115e+00	 1.5499792922e-01	 2.3264112278e+00
 2.0338735915e+00	 1.7246194685e-01	 2.5155242403e+00
 2.0499955000e+00	 0.0000000000e+00	 5.3764259156e+00
 2.0499243282e+00	 1.7082712647e-02	 3.7760562738e+00
 2.0497098431e+00	 3.4222446283e-02	 2.6684887949e+00
 2.0493506013e+00	 5.1417712308e-02	 1.9826288041e+00
 2.0488451756e+00	 6.8666988596e-02	 1.6460850971e+00
 2.0481921557e+00	 8.5968719558e-02	 1.5852250204e+00
 2.0473901490e+00	 1.0332131622e-01	 1.7252332738e+00
 2.0464377815e+00	 1.2072315635e-01	 1.9901744022e+00
 2.0453336986e+00	 1.3817258455e-01	 2.3030589218e+00
 2.0440765662e+00	 1.5566791243e-01	 2.5859130039e+00
 2.0426650713e+00	 1.7320741881e-01	 2.7598516240e+00
 2.0588185294e+00	 0.0000000000e+00	 4.6939793615e+00
 2.0587470513e+00	 1.7156235382e-02	 3.3440370408e+00
 2.0585316430e+00	 3.4369737168e-02	 2.4422003238e+00
 2.0581708551e+00	 5.1639010350e-02	 1.9208003408e+00
 2.0576632541e+00	 6.8962526251e-02	 1.7110933297e+00
 2.0570074237e+00	 8.6338722586e-02	 1.7433174202e+00
 2.0562019652e+00	 1.0376600355e-01	 1.9467529585e+00
 2.0552454988e+00	 1.2124273991e-01	 2.2497863305e+00
 2.0541366640e+00	 1.3876726916e-01	 2.5799772195e+00
 2.0528741210e+00	 1.5633789565e-01	 2.8641292128e+00
 2.0514565511e+00	 1.7395289077e-01	 3.0283636556e+00
 1.9635417532e+00	 1.6649817121e-01	 1.2763567051e+00
 1.9620350399e+00	 1.8340193024e-01	 1.4502417047e+00
 1.9603774320e+00	 2.0034472601e-01	 1.5352001367e+00
 1.9585677328e+00	 2.1732476813e-01	 1.5475884405e+00
 1.9566047694e+00	 2.3434023454e-01	 1.5041735360e+00
 1.9544873939e+00	 2.5138927171e-01	 1.4221108771e+00
 1.9522144839e+00	 2.6846999499e-01	 1.3189209364e+00
 1.9497849434e+00	 2.8558048894e-01	 1.2124639931e+00
 1.9471977040e+00	 3.0271880770e-01	 1.1209130858e+00
 1.9444517253e+00	 3.1988297537e-01	 1.0627249865e+00
 1.9415459962e+00	 3.3707098643e-01	 1.0566090455e+00
 1.9723332330e+00	 1.6724364317e-01	 1.3742920735e+00
 1.9708197736e+00	 1.8422308638e-01	 1.5647337774e+00
 1.9691547440e+00	 2.0124174111e-01	 1.6823701165e+00
 1.9673369421e+00	 2.1829780897e-01	 1.7391071310e+00
 1.9653651898e+00	 2.3538945972e-01	 1.7472737418e+00
 1.9632383341e+00	 2.5251483153e-01	 1.7196062545e+00
 1.9609552474e+00	 2.6967203132e-01	 1.6692314432e+00
 1.9585148290e+00	 2.8685913508e-01	 1.6096480752e+00
 1.9559160056e+00	 3.0407418824e-01	 1.5547067284e+00
 1.9531577322e+00	 3.2131520604e-01	 1.5185877461e+00
 1.9502389931e+00	 3.3858017398e-01	 1.5157771679e+00
 1.9811247128e+00	 1.6798911512e-01	 1.4857118664e+00
 1.9796045073e+00	 1.8504424252e-01	 1.6818208086e+00
 1.9779320560e+00	 2.0213875621e-01	 1.8197798230e+00
 1.9761061514e+00	 2.1927084980e-01	 1.9078399610e+00
 1.9741256102e+00	 2.3643868489e-01	 1.9546717179e+00
 1.9719892742e+00	 2.5364039135e-01	 1.9693546937e+00
 1.9696960109e+00	 2.7087406766e-01	 1.9613659713e+00
 1.9672447146e+00	 2.8813778123e-01	 1.9405670678e+00
 1.9646343072e+00	 3.0542956878e-01	 1.9171892997e+00
 1.9618637391e+00	 3.2274743671e-01	 1.9018173988e+00
 1.9589319900e+00	 3.4008936153e-01	 1.9053712072e+00
 1.9899161926e+00	 1.6873458708e-01	 1.6120442561e+00
 1.9883892410e+00	 1.8586539866e-01	 1.8047335196e+00
 1.9867093680e+00	 2.0303577132e-01	 1.9520961127e+00
 1.9848753607e+00	 2.2024389064e-01	 2.0595120591e+00
 1.9828860307e+00	 2.3748791006e-01	 2.1327616632e+00
 1.9807402144e+00	 2.5476595117e-01	 2.1780190422e+00
 1.9784367745e+00	 2.7207610400e-01	 2.2018445070e+00
 1.9759746003e+00	 2.8941642738e-01	 2.2111756389e+00
 1.9733526089e+00	 3.0678494932e-01	 2.2133168976e+00
 1.9705697460e+00	 3.2417966737e-01	 2.2159275890e+00
 1.9676249869e+00	 3.4159854908e-01	 2.2270080129e+00
 1.9987076723e+00	 1.6948005903e-01	 1.7546904543e+00
 1.9971739747e+00	 1.8668655480e-01	 1.9366438014e+00
 1.9954866800e+00	 2.0393278642e-01	 2.0839016863e+00
 1.9936445700e+00	 2.2121693148e-01	 2.1997458141e+00
 1.9916464511e+00	 2.3853713524e-01	 2.2878233876e+00
 1.9894911546e+00	 2.5589151099e-01	 2.3521432370e+00
 1.9871775380e+00	 2.7327814034e-01	 2.3970709208e+00
 1.9847044859e+00	 2.9069507353e-01	 2.4273226382e+00
 1.9820709105e+00	 3.0814032986e-01	 2.4479577853e+00
 1.9792757529e+00	 3.2561189804e-01	 2.4643699769e+00
 1.9763179838e+00	 3.4310773663e-01	 2.4822763456e+00
 2.0074991521e+00	 1.7022553099e-01	 1.9150252601e+00
 2.0059587084e+00	 1.8750771094e-01	 2.0806659661e+00
 2.0042639920e+00	 2.0482980153e-01	 2.2196969035e+00
 2.0024137793e+00	 2.2218997231e-01	 2.3340631068e+00
 2.0004068715e+00	 2.3958636041e-01	 2.4260248111e+00
 1.9982420948e+00	 2.5701707081e-01	 2.4981549155e+00
 1.9959183016e+00	 2.7448017667e-01	 2.5533355311e+00
 1.9934343715e+00	 2.9197371968e-01	 2.5947534507e+00
 1.9907892121e+00	 3.0949571040e-01	 2.6258943687e+00
 1.9879817598e+00	 3.2704412871e-01	 2.6505356679e+00
 1.9850109807e+00	 3.4461692418e-01	 2.6727375826e+00
 2.0162906319e+00	 1.7097100294e-01	 2.0943975934e+00
 2.0147434421e+00	 1.8832886708e-01	 2.2398579679e+00
 2.0130413039e+00	 2.0572681663e-01	 2.3639015519e+00
 2.0111829887e+00	 2.2316301315e-01	 2.4678874847e+00
 2.0091672920e+00	 2.4063558559e-01	 2.5534243980e+00
 2.0069930350e+00	 2.5814263063e-01	 2.6223679591e+00
 2.0046590651e+00	 2.7568221301e-01	 2.6768176033e+00
 2.0021642571e+00	 2.9325236582e-01	 2.7191122924e+00
 1.9995075137e+00	 3.1085109094e-01	 2.7518251241e+00
 1.9966877667e+00	 3.2847635937e-01	 2.7777566072e+00
 1.9937039777e+00	 3.4612611173e-01	 2.7999264087e+00
 2.0250821117e+00	 1.7171647490e-01	 2.2941310161e+00
 2.0235281758e+00	 1.8915002322e-01	 2.4172225921e+00
 2.0218186159e+00	 2.0662383174e-01	 2.5208565705e+00
 2.0199521980e+00	 2.2413605399e-01	 2.6065462820e+00
 2.0179277124e+00	 2.4168481076e-01	 2.6759735309e+00
 2.0157439751e+00	 2.5926819046e-01	 2.7309849740e+00
 2.0133998287e+00	 2.7688424935e-01	 2.7735877859e+00
 2.0108941428e+00	 2.9453101197e-01	 2.8059444472e+00
 2.0082258154e+00	 3.1220647148e-01	 2.8303664793e+00
 2.0053937736e+00	 3.2990859004e-01	 2.8493069410e+00
 2.0023969746e+00	 3.4763529928e-01	 2.8653514912e+00
 2.0338735915e+00	 1.7246194685e-01	 2.5155242403e+00
 2.0323129095e+00	 1.8997117936e-01	 2.6157086146e+00
 2.0305959279e+00	 2.0752084685e-01	 2.6948257304e+00
 2.0287214073e+00	 2.2510909482e-01	 2.7552726859e+00
 2.0266881328e+00	 2.4273403594e-01	 2.7995188230e+00
 2.0244949153e+00	 2.6039375028e-01	 2.8300997077e+00
 2.0221405922e+00	 2.7808628569e-01	 2.8496104852e+00
 2.0196240284e+00	 2.9580965812e-01	 2.8606984490e+00
 2.0169441170e+00	 3.1356185202e-01	 2.8660546472e+00
 2.0140997805e+00	 3.3134082071e-01	 2.8684043446e+00
 2.0110899715e+00	 3.4914448683e-01	 2.8704961413e+00
 2.0426650713e+00	 1.7320741881e-01	 2.7598516240e+00
 2.0410976432e+00	 1.9079233550e-01	 2.8382119333e+00
 2.0393732399e+00	 2.0841786195e-01	 2.8899972726e+00
 2.0374906166e+00	 2.2608213566e-01	 2.9192077503e+00
 2.0354485532e+00	 2.4378326111e-01	 2.9298043736e+00
 2.0332458555e+00	 2.6151931010e-01	 2.9256994063e+00
 2.0308813558e+00	 2.7928832202e-01	 2.9107461810e+00
 2.0283539140e+00	 2.9708830427e-01	 2.8887282089e+00
 2.0256624186e+00	 3.1491723256e-01	 2.8633474158e+00
 2.0228057874e+00	 3.3277305137e-01	 2.8382113201e+00
 2.0197829684e+00	 3.5065367438e-01	 2.8168189610e+00
 2.0514565511e+00	 1.7395289077e-01	 3.0283636556e+00
 2.0498823769e+00	 1.9161349164e-01	 3.0875766702e+00
 2.0481505519e+00	 2.0931487706e-01	 3.1104855055e+00
 2.0462598259e+00	 2.2705517649e-01	 3.1034023598e+00
 2.0442089737e+00	 2.4483248629e-01	 3.0724739666e+00
 2.0419967957e+00	 2.6264486992e-01	 3.0236671123e+00
 2.0396221193e+00	 2.8049035836e-01	 2.9627536841e+00
 2.0370837996e+00	 2.9836695041e-01	 2.8952950910e+00
 2.0343807202e+00	 3.1627261310e-01	 2.8266258933e+00
 2.0315117943e+00	 3.3420528204e-01	 2.7618364620e+00
 2.0284759653e+00	 3.5216286193e-01	 2.7057544762e+00
 1.9415459962e+00	 3.3707098643e-01	 1.0566090455e+00
 1.9384800701e+00	 3.5427787987e-01	 1.0636088291e+00
 1.9352525155e+00	 3.7150451682e-01	 1.0314036476e+00
 1.9318624125e+00	 3.8874881144e-01	 1.0210748662e+00
 1.9283088737e+00	 4.0600865027e-01	 1.0709889319e+00
 1.9245910451e+00	 4.2328189282e-01	 1.1664259741e+00
 1.9207081067e+00	 4.4056637214e-01	 1.2923771162e+00
 1.9166592732e+00	 4.5785989543e-01	 1.4335577134e+00
 1.9124437954e+00	 4.7516024463e-01	 1.5744205530e+00
 1.9080609604e+00	 4.9246517711e-01	 1.6991689678e+00
 1.9035100927e+00	 5.0977242635e-01	 1.7917698145e+00
 1.9502389931e+00	 3.3858017398e-01	 1.5157771679e+00
 1.9471593398e+00	 3.5586410884e-01	 1.5023496432e+00
 1.9439173342e+00	 3.7316787562e-01	 1.4284829345e+00
 1.9405120525e+00	 3.9048937912e-01	 1.3687311141e+00
 1.9369426033e+00	 4.0782649643e-01	 1.3562255697e+00
 1.9332081286e+00	 4.2517707748e-01	 1.3811100539e+00
 1.9293078049e+00	 4.4253894561e-01	 1.4331982226e+00
 1.9252408433e+00	 4.5990989819e-01	 1.5019797947e+00
 1.9210064914e+00	 4.7728770725e-01	 1.5766265756e+00
 1.9166040328e+00	 4.9467012011e-01	 1.6459983041e+00
 1.9120327892e+00	 5.1205486010e-01	 1.6986482825e+00
 1.9589319900e+00	 3.4008936153e-01	 1.9053712072e+00
 1.9558386094e+00	 3.5745033782e-01	 1.8782502391e+00
 1.9525821529e+00	 3.7483123442e-01	 1.7725367813e+00
 1.9491616925e+00	 3.9222994681e-01	 1.6732697906e+00
 1.9455763329e+00	 4.0964434260e-01	 1.6087217537e+00
 1.9418252122e+00	 4.2707226214e-01	 1.5731720012e+00
 1.9379075031e+00	 4.4451151907e-01	 1.5605475709e+00
 1.9338224135e+00	 4.6195990095e-01	 1.5644235614e+00
 1.9295691873e+00	 4.7941516987e-01	 1.5780232513e+00
 1.9251471052e+00	 4.9687506312e-01	 1.5942179494e+00
 1.9205554858e+00	 5.1433729386e-01	 1.6055265422e+00
 1.9676249869e+00	 3.4159854908e-01	 2.2270080129e+00
 1.9645178791e+00	 3.5903656679e-01	 2.1909665309e+00
 1.9612469717e+00	 3.7649459322e-01	 2.0615763249e+00
 1.9578113326e+00	 3.9397051449e-01	 1.9314199696e+00
 1.9542100624e+00	 4.1146218876e-01	 1.8242833246e+00
 1.9504422957e+00	 4.2896744680e-01	 1.7378635533e+00
 1.9465072013e+00	 4.4648409254e-01	 1.6695020756e+00
 1.9424039836e+00	 4.6400990371e-01	 1.6161803774e+00
 1.9381318832e+00	 4.8154263249e-01	 1.5745154880e+00
 1.9336901776e+00	 4.9908000612e-01	 1.5407550942e+00
 1.9290781823e+00	 5.1661972762e-01	 1.5107722619e+00
 1.9763179838e+00	 3.4310773663e-01	 2.4822763456e+00
 1.9731971487e+00	 3.6062279577e-01	 2.4401614107e+00
 1.9699117904e+00	 3.7815795202e-01	 2.2936474617e+00
 1.9664609726e+00	 3.9571108217e-01	 2.1399679869e+00
 1.9628437920e+00	 4.1328003493e-01	 1.9987895625e+00
 1.9590593792e+00	 4.3086263145e-01	 1.8705195583e+00
 1.9551068995e+00	 4.4845666600e-01	 1.7552247472e+00
 1.9509855537e+00	 4.6605990648e-01	 1.6526238252e+00
 1.9466945791e+00	 4.8367009512e-01	 1.5620794990e+00
 1.9422332501e+00	 5.0128494912e-01	 1.4825901152e+00
 1.9376008788e+00	 5.1890216138e-01	 1.4127808026e+00
 1.9850109807e+00	 3.4461692418e-01	 2.6727375826e+00
 1.9818764184e+00	 3.6220902474e-01	 2.6255047061e+00
 1.9785766092e+00	 3.7982131082e-01	 2.4668300769e+00
 1.9751106126e+00	 3.9745164986e-01	 2.2957561779e+00
 1.9714775216e+00	 4.1509788109e-01	 2.1281915720e+00
 1.9676764627e+00	 4.3275781611e-01	 1.9665561488e+00
 1.9637065977e+00	 4.5042923946e-01	 1.8129628020e+00
 1.9595671239e+00	 4.6810990924e-01	 1.6692079023e+00
 1.9552572751e+00	 4.8579755774e-01	 1.5367612399e+00
 1.9507763225e+00	 5.0348989212e-01	 1.4167554097e+00
 1.9461235754e+00	 5.2118459513e-01	 1.3099746129e+00
 1.9937039777e+00	 3.4612611173e-01	 2.7999264087e+00
 1.9905556880e+00	 3.6379525372e-01	 2.7466731426e+00
 1.9872414279e+00	 3.8148466962e-01	 2.5792372953e+00
 1.9837602527e+00	 3.9919221754e-01	 2.3956816494e+00
 1.9801112511e+00	 4.1691572725e-01	 2.2085107099e+00
 1.9762935462e+00	 4.3465300077e-01	 2.0214689660e+00
 1.9723062959e+00	 4.5240181292e-01	 1.8380458238e+00
 1.9681486940e+00	 4.7015991200e-01	 1.6614652667e+00
 1.9638199710e+00	 4.8792502036e-01	 1.4946748877e+00
 1.9593193949e+00	 5.0569483513e-01	 1.3403342632e+00
 1.9546462719e+00	 5.2346702889e-01	 1.2008026410e+00
 2.0023969746e+00	 3.4763529928e-01	 2.8653514912e+00
 1.9992349577e+00	 3.6538148269e-01	 2.8033503093e+00
 1.9959062466e+00	 3.8314802842e-01	 2.6290147516e+00
 1.9924098927e+00	 4.0093278522e-01	 2.4366950841e+00
 1.9887449807e+00	 4.1873357342e-01	 2.2358370555e+00
 1.9849106297e+00	 4.3654818543e-01	 2.0308314297e+00
 1.9809059941e+00	 4.5437438639e-01	 1.8258839731e+00
 1.9767302641e+00	 4.7220991476e-01	 1.6250055283e+00
 1.9723826669e+00	 4.9005248298e-01	 1.4320013610e+00
 1.9678624673e+00	 5.0789977813e-01	 1.2504597461e+00
 1.9631689684e+00	 5.2574946265e-01	 1.0837397624e+00
 2.0110899715e+00	 3.4914448683e-01	 2.8704961413e+00
 2.0079142273e+00	 3.6696771167e-01	 2.7952266302e+00
 2.0045710654e+00	 3.8481138722e-01	 2.6143398805e+00
 2.0010595327e+00	 4.0267335290e-01	 2.4157995772e+00
 1.9973787103e+00	 4.2055141958e-01	 2.2063279208e+00
 1.9935277133e+00	 4.3844337008e-01	 1.9902930544e+00
 1.9895056923e+00	 4.5634695985e-01	 1.7719662448e+00
 1.9853118343e+00	 4.7425991752e-01	 1.5555135863e+00
 1.9809453628e+00	 4.9217994560e-01	 1.3449868788e+00
 1.9764055397e+00	 5.1010472113e-01	 1.1443136416e+00
 1.9716916650e+00	 5.2803189640e-01	 9.5728622445e-01
 2.0197829684e+00	 3.5065367438e-01	 2.8168189610e+00
 2.0165934970e+00	 3.6855394064e-01	 2.7219993382e+00
 2.0132358841e+00	 3.8647474601e-01	 2.5334212260e+00
 2.0097091728e+00	 4.0441392058e-01	 2.3300495031e+00
 2.0060124398e+00	 4.2236926574e-01	 2.1162064006e+00
 2.0021447968e+00	 4.4033855474e-01	 1.8955778106e+00
 1.9981053905e+00	 4.5831953331e-01	 1.6718587716e+00
 1.9938934044e+00	 4.7630992028e-01	 1.4487480102e+00
 1.9895080588e+00	 4.9430740822e-01	 1.2299415586e+00
 1.9849486121e+00	 5.1230966413e-01	 1.0191254017e+00
 1.9802143615e+00	 5.3031433016e-01	 8.1996710655e-01
 2.0284759653e+00	 3.5216286193e-01	 2.7057544762e+00
 2.0252727667e+00	 3.7014016961e-01	 2.5833724541e+00
 2.0219007028e+00	 3.8813810481e-01	 2.3844977693e+00
 2.0183588128e+00	 4.0615448827e-01	 2.1765494132e+00
 2.0146461694e+00	 4.2418711190e-01	 1.9617599599e+00
 2.0107618803e+00	 4.4223373939e-01	 1.7424825277e+00
 2.0067050887e+00	 4.6029210677e-01	 1.5212031714e+00
 2.0024749745e+00	 4.7835992304e-01	 1.3005394636e+00
 1.9980707547e+00	 4.9643487084e-01	 1.0832380511e+00
 1.9934916845e+00	 5.1451460713e-01	 8.7217113120e-01
 1.9887370581e+00	 5.3259676391e-01	 6.7033179502e-01
 1.9035100927e+00	 5.0977242635e-01	 1.7917698145e+00
 1.8987905551e+00	 5.2707970286e-01	 1.8428363391e+00
 1.8939017510e+00	 5.4438469569e-01	 1.8570033437e+00
 1.8888431238e+00	 5.6168507249e-01	 1.8391793568e+00
 1.8836141573e+00	 5.7897848006e-01	 1.7943671915e+00
 1.8782143759e+00	 5.9626254515e-01	 1.7276490925e+00
 1.8726433462e+00	 6.1353487531e-01	 1.6441706079e+00
 1.8669006767e+00	 6.3079305973e-01	 1.5491231692e+00
 1.8609860192e+00	 6.4803467015e-01	 1.4477253735e+00
 1.8548990690e+00	 6.6525726174e-01	 1.3452029592e+00
 1.8486395656e+00	 6.8245837404e-01	 1.2460909675e+00
 1.9120327892e+00	 5.1205486010e-01	 1.6986482825e+00
 1.9072921205e+00	 5.2943962749e-01	 1.7298711560e+00
 1.9023814275e+00	 5.4682210098e-01	 1.7434444864e+00
 1.8973001511e+00	 5.6419993776e-01	 1.7405335617e+00
 1.8920477726e+00	 5.8157077411e-01	 1.7224494220e+00
 1.8866238145e+00	 5.9893222615e-01	 1.6906397030e+00
 1.8810278413e+00	 6.1628189072e-01	 1.6466782103e+00
 1.8752594598e+00	 6.3361734621e-01	 1.5922532006e+00
 1.8693183203e+00	 6.5093615350e-01	 1.5291543509e+00
 1.8632041166e+00	 6.6823585680e-01	 1.4592583999e+00
 1.8569165872e+00	 6.8551398464e-01	 1.3845134540e+00
 1.9205554858e+00	 5.1433729386e-01	 1.6055265422e+00
 1.9157936860e+00	 5.3179955213e-01	 1.6127372661e+00
 1.9108611041e+00	 5.4925950626e-01	 1.6204021898e+00
 1.9057571784e+00	 5.6671480303e-01	 1.6265587768e+00
 1.9004813879e+00	 5.8416306816e-01	 1.6294251389e+00
 1.8950332530e+00	 6.0160190715e-01	 1.6273955215e+00
 1.8894123363e+00	 6.1902890613e-01	 1.6190345304e+00
 1.8836182429e+00	 6.3644163270e-01	 1.6030700687e+00
 1.8776506213e+00	 6.5383763685e-01	 1.5783849567e+00
 1.8715091642e+00	 6.7121445186e-01	 1.5440072109e+00
 1.8651936087e+00	 6.8856959524e-01	 1.4990989666e+00
 1.9290781823e+00	 5.1661972762e-01	 1.5107722619e+00
 1.9242952515e+00	 5.3415947676e-01	 1.4913102897e+00
 1.9193407806e+00	 5.5169691155e-01	 1.4889648456e+00
 1.9142142056e+00	 5.6922966830e-01	 1.4992524928e+00
 1.9089150032e+00	 5.8675536221e-01	 1.5178889094e+00
 1.9034426916e+00	 6.0427158815e-01	 1.5407879693e+00
 1.8977968314e+00	 6.2177592154e-01	 1.5640595794e+00
 1.8919770259e+00	 6.3926591918e-01	 1.5840062360e+00
 1.8859829223e+00	 6.5673912020e-01	 1.5971182660e+00
 1.8798142117e+00	 6.7419304692e-01	 1.6000677244e+00
 1.8734706302e+00	 6.9162520584e-01	 1.5897009235e+00
 1.9376008788e+00	 5.1890216138e-01	 1.4127808026e+00
 1.9327968170e+00	 5.3651940139e-01	 1.3654668437e+00
 1.9278204572e+00	 5.5413431683e-01	 1.3502003231e+00
 1.9226712329e+00	 5.7174453357e-01	 1.3605754844e+00
 1.9173486185e+00	 5.8934765626e-01	 1.3903878627e+00
 1.9118521302e+00	 6.0694126915e-01	 1.4336359234e+00
 1.9061813264e+00	 6.2452293695e-01	 1.4845214751e+00
 1.9003358090e+00	 6.4209020566e-01	 1.5374488175e+00
 1.8943152234e+00	 6.5964060354e-01	 1.5870225828e+00
 1.8881192593e+00	 6.7717164198e-01	 1.6280442394e+00
 1.8817476518e+00	 6.9468081645e-01	 1.6555072282e+00
 1.9461235754e+00	 5.2118459513e-01	 1.3099746129e+00
 1.9412983825e+00	 5.3887932603e-01	 1.2350845223e+00
 1.9363001337e+00	 5.5657172212e-01	 1.2051564216e+00
 1.9311282602e+00	 5.7425939884e-01	 1.2124526178e+00
 1.9257822338e+00	 5.9193995031e-01	 1.2494227336e+00
 1.9202615687e+00	 6.0961095015e-01	 1.3087068730e+00
 1.9145658215e+00	 6.2726995236e-01	 1.3831375848e+00
 1.9086945921e+00	 6.4491449215e-01	 1.4657405806e+00
 1.9026475244e+00	 6.6254208689e-01	 1.5497341641e+00
 1.8964243069e+00	 6.8015023704e-01	 1.6285273365e+00
 1.8900246733e+00	 6.9773642705e-01	 1.6957165466e+00
 1.9546462719e+00	 5.2346702889e-01	 1.2008026410e+00
 1.9497999479e+00	 5.4123925066e-01	 1.1000418792e+00
 1.9447798103e+00	 5.5900912740e-01	 1.0548613126e+00
 1.9395852874e+00	 5.7677426411e-01	 1.0567736399e+00
 1.9342158491e+00	 5.9453224436e-01	 1.0974488807e+00
 1.9286710073e+00	 6.1228063115e-01	 1.1687180473e+00
 1.9229503165e+00	 6.3001696777e-01	 1.2625756396e+00
 1.9170533751e+00	 6.4773877863e-01	 1.3711809205e+00
 1.9109798254e+00	 6.6544357024e-01	 1.4868579279e+00
 1.9047293545e+00	 6.8312883210e-01	 1.6020941855e+00
 1.8983016948e+00	 7.0079203765e-01	 1.7095380811e+00
 1.9631689684e+00	 5.2574946265e-01	 1.0837397624e+00
 1.9583015134e+00	 5.4359917529e-01	 9.6021841106e-01
 1.9532594868e+00	 5.6144653269e-01	 9.0032397215e-01
 1.9480423147e+00	 5.7928912938e-01	 8.9539394714e-01
 1.9426494644e+00	 5.9712453841e-01	 9.3687727947e-01
 1.9370804458e+00	 6.1495031215e-01	 1.0163375155e+00
 1.9313348116e+00	 6.3276398318e-01	 1.1254548217e+00
 1.9254121582e+00	 6.5056306511e-01	 1.2560268119e+00
 1.9193121264e+00	 6.6834505359e-01	 1.3999681441e+00
 1.9130344020e+00	 6.8610742717e-01	 1.5493088479e+00
 1.9065787164e+00	 7.0384764826e-01	 1.6961913531e+00
 1.9716916650e+00	 5.2803189640e-01	 9.5728622445e-01
 1.9668030789e+00	 5.4595909993e-01	 8.1549454385e-01
 1.9617391634e+00	 5.6388393797e-01	 7.4253460250e-01
 1.9564993420e+00	 5.8180399465e-01	 7.3013533696e-01
 1.9510830797e+00	 5.9971683246e-01	 7.7007549096e-01
 1.9454898844e+00	 6.1761999316e-01	 8.5418525969e-01
 1.9397193067e+00	 6.3551099859e-01	 9.7434682500e-01
 1.9337709413e+00	 6.5338735160e-01	 1.1224937379e+00
 1.9276444275e+00	 6.7124653694e-01	 1.2906091090e+00
 1.9213394496e+00	 6.8908602223e-01	 1.4707225725e+00
 1.9148557379e+00	 7.0690325886e-01	 1.6549059925e+00
 1.9802143615e+00	 5.3031433016e-01	 8.1996710655e-01
 1.9753046444e+00	 5.4831902456e-01	 6.6575161977e-01
 1.9702188399e+00	 5.6632134326e-01	 5.8246504537e-01
 1.9649563692e+00	 5.8431885992e-01	 5.6278674048e-01
 1.9595166950e+00	 6.0230912651e-01	 5.9936860745e-01
 1.9538993229e+00	 6.2028967416e-01	 6.8483422183e-01
 1.9481038017e+00	 6.3825801400e-01	 8.1177688996e-01
 1.9421297244e+00	 6.5621163808e-01	 9.7275659629e-01
 1.9359767285e+00	 6.7414802029e-01	 1.1602958051e+00
 1.9296444972e+00	 6.9206461729e-01	 1.3668740858e+00
 1.9231327594e+00	 7.0995886946e-01	 1.5849215351e+00
 1.9887370581e+00	 5.3259676391e-01	 6.7033179502e-01
 1.9838062098e+00	 5.5067894919e-01	 5.1087188653e-01
 1.9786985165e+00	 5.6875874854e-01	 4.2106918523e-01
 1.9734133965e+00	 5.8683372519e-01	 3.9510493832e-01
 1.9679503103e+00	 6.0490142056e-01	 4.2704017493e-01
 1.9623087615e+00	 6.2295935516e-01	 5.1081132558e-01
 1.9564882968e+00	 6.4100502941e-01	 6.4022481374e-01
 1.9504885074e+00	 6.5903592457e-01	 8.0895058508e-01
 1.9443090295e+00	 6.7704950364e-01	 1.0105145447e+00
 1.9379495447e+00	 6.9504321235e-01	 1.2382898767e+00
 1.9314097810e+00	 7.1301448007e-01	 1.4854872265e+00
 1.8486395656e+00	 6.8245837404e-01	 1.2460909675e+00
 1.8422061850e+00	 6.9963844990e-01	 1.1598353553e+00
 1.8355998053e+00	 7.1679207226e-01	 1.0962676815e+00
 1.8288203008e+00	 7.3391673744e-01	 1.0559545369e+00
 1.8218675923e+00	 7.5100993004e-01	 1.0340417723e+00
 1.8147416478e+00	 7.6806912395e-01	 1.0106027180e+00
 1.8074424822e+00	 7.8509178342e-01	 9.8535285699e-01
 1.7999701588e+00	 8.0207536413e-01	 9.6021054197e-01
 1.7923247887e+00	 8.1901731432e-01	 9.3702526093e-01
 1.7845065320e+00	 8.3591507583e-01	 9.1758091653e-01
 1.7765155975e+00	 8.5276608528e-01	 9.0359774151e-01
 1.8569165872e+00	 6.8551398464e-01	 1.3845134540e+00
 1.8504544020e+00	 7.0277098185e-01	 1.3134964806e+00
 1.8438184431e+00	 7.2000140712e-01	 1.2527293181e+00
 1.8370085843e+00	 7.3720274557e-01	 1.2041537203e+00
 1.8300247461e+00	 7.5437247051e-01	 1.1618718897e+00
 1.8228668962e+00	 7.7150804454e-01	 1.1108435254e+00
 1.8155350497e+00	 7.8860692056e-01	 1.0552431404e+00
 1.8080292700e+00	 8.0566654285e-01	 9.9972303057e-01
 1.8003496688e+00	 8.2268434822e-01	 9.4880124412e-01
 1.7924964070e+00	 8.3965776706e-01	 9.0686063065e-01
 1.7844696941e+00	 8.5658422452e-01	 8.7814652161e-01
 1.8651936087e+00	 6.8856959524e-01	 1.4990989666e+00
 1.8587026190e+00	 7.0590351381e-01	 1.4467811203e+00
 1.8520370810e+00	 7.2321074199e-01	 1.3953313082e+00
 1.8451968679e+00	 7.4048875370e-01	 1.3483762115e+00
 1.8381819000e+00	 7.5773501099e-01	 1.2941360883e+00
 1.8309921446e+00	 7.7494696514e-01	 1.2240896646e+00
 1.8236276171e+00	 7.9212205770e-01	 1.1452235041e+00
 1.8160883811e+00	 8.0925772156e-01	 1.0643532860e+00
 1.8083745489e+00	 8.2635138211e-01	 9.8811856843e-01
 1.8004862819e+00	 8.4340045828e-01	 9.2297867432e-01
 1.7924237908e+00	 8.6040236375e-01	 8.7520718525e-01
 1.8734706302e+00	 6.9162520584e-01	 1.5897009235e+00
 1.8669508360e+00	 7.0903604576e-01	 1.5630968686e+00
 1.8602557188e+00	 7.2642007686e-01	 1.5252198773e+00
 1.8533851515e+00	 7.4377476183e-01	 1.4839878397e+00
 1.8463390538e+00	 7.6109755146e-01	 1.4259694155e+00
 1.8391173930e+00	 7.7838588573e-01	 1.3452740291e+00
 1.8317201845e+00	 7.9563719483e-01	 1.2503597825e+00
 1.8241474923e+00	 8.1284890028e-01	 1.1496431620e+00
 1.8163994290e+00	 8.3001841600e-01	 1.0513459768e+00
 1.8084761569e+00	 8.4714314951e-01	 9.6348914312e-01
 1.8003778875e+00	 8.6422050298e-01	 8.9388503049e-01
 1.8817476518e+00	 6.9468081645e-01	 1.6555072282e+00
 1.8751990530e+00	 7.1216857772e-01	 1.6603141596e+00
 1.8684743567e+00	 7.2962941173e-01	 1.6432541199e+00
 1.8615734351e+00	 7.4706076995e-01	 1.6118508251e+00
 1.8544962076e+00	 7.6446009194e-01	 1.5530379191e+00
 1.8472426414e+00	 7.8182480633e-01	 1.4694168741e+00
 1.8398127520e+00	 7.9915233197e-01	 1.3658034249e+00
 1.8322066034e+00	 8.1644007899e-01	 1.2512123359e+00
 1.8244243091e+00	 8.3368544990e-01	 1.1349160602e+00
 1.8164660319e+00	 8.5088584073e-01	 1.0259896822e+00
 1.8083319842e+00	 8.6803864221e-01	 9.3330215040e-01
 1.8900246733e+00	 6.9773642705e-01	 1.6957165466e+00
 1.8834472699e+00	 7.1530110968e-01	 1.7362059265e+00
 1.8766929945e+00	 7.3283874660e-01	 1.7460707369e+00
 1.8697617187e+00	 7.5034677808e-01	 1.7306934449e+00
 1.8626533614e+00	 7.6782263241e-01	 1.6769043538e+00
 1.8553678898e+00	 7.8526372693e-01	 1.5924144886e+00
 1.8479053194e+00	 8.0266746911e-01	 1.4867898785e+00
 1.8402657146e+00	 8.2003125771e-01	 1.3647568794e+00
 1.8324491893e+00	 8.3735248379e-01	 1.2353241501e+00
 1.8244559068e+00	 8.5462853196e-01	 1.1081208392e+00
 1.8162860809e+00	 8.7185678144e-01	 9.9259738724e-01
 1.8983016948e+00	 7.0079203765e-01	 1.7095380811e+00
 1.8916954869e+00	 7.1843364163e-01	 1.7885801556e+00
 1.8849116324e+00	 7.3604808146e-01	 1.8303609301e+00
 1.8779500023e+00	 7.5363278621e-01	 1.8363720593e+00
 1.8708105152e+00	 7.7118517289e-01	 1.7949392300e+00
 1.8634931382e+00	 7.8870264752e-01	 1.7158521325e+00
 1.8559978868e+00	 8.0618260625e-01	 1.6097245448e+00
 1.8483248258e+00	 8.2362243642e-01	 1.4860478738e+00
 1.8404740694e+00	 8.4101951769e-01	 1.3491272481e+00
 1.8324457818e+00	 8.5837122318e-01	 1.2075654424e+00
 1.8242401776e+00	 8.7567492067e-01	 1.0709262957e+00
 1.9065787164e+00	 7.0384764826e-01	 1.6961913531e+00
 1.8999437039e+00	 7.2156617359e-01	 1.8152791366e+00
 1.8931302703e+00	 7.3925741633e-01	 1.8928692290e+00
 1.8861382859e+00	 7.5691879434e-01	 1.9248166391e+00
 1.8789676691e+00	 7.7454771336e-01	 1.9025722367e+00
 1.8716183866e+00	 7.9214156812e-01	 1.8363701334e+00
 1.8640904543e+00	 8.0969774340e-01	 1.7363035443e+00
 1.8563839369e+00	 8.2721361514e-01	 1.6122071542e+00
 1.8484989495e+00	 8.4468655158e-01	 1.4729429908e+00
 1.8404356568e+00	 8.6211391441e-01	 1.3220480018e+00
 1.8321942743e+00	 8.7949305990e-01	 1.1674611147e+00
 1.9148557379e+00	 7.0690325886e-01	 1.6549059925e+00
 1.9081919209e+00	 7.2469870555e-01	 1.8141787337e+00
 1.9013489081e+00	 7.4246675120e-01	 1.9302296501e+00
 1.8943265694e+00	 7.6020480247e-01	 1.9920291545e+00
 1.8871248229e+00	 7.7791025384e-01	 1.9953136258e+00
 1.8797436350e+00	 7.9558048872e-01	 1.9492859943e+00
 1.8721830217e+00	 8.1321288054e-01	 1.8629786179e+00
 1.8644430481e+00	 8.3080479385e-01	 1.7452484908e+00
 1.8565238296e+00	 8.4835358548e-01	 1.6047738119e+00
 1.8484255317e+00	 8.6585660563e-01	 1.4493341342e+00
 1.8401483710e+00	 8.8331119913e-01	 1.2813907481e+00
 1.9231327594e+00	 7.0995886946e-01	 1.5849215351e+00
 1.9164401379e+00	 7.2783123751e-01	 1.7831876774e+00
 1.9095675460e+00	 7.4567608607e-01	 1.9384791703e+00
 1.9025148530e+00	 7.6349081060e-01	 2.0340820041e+00
 1.8952819767e+00	 7.8127279431e-01	 2.0687524531e+00
 1.8878688835e+00	 7.9901940931e-01	 2.0499992591e+00
 1.8802755891e+00	 8.1672801768e-01	 1.9852611233e+00
 1.8725021593e+00	 8.3439597257e-01	 1.8819054665e+00
 1.8645487097e+00	 8.5202061937e-01	 1.7472284922e+00
 1.8564154067e+00	 8.6959929686e-01	 1.5884565997e+00
 1.8481024677e+00	 8.8712933836e-01	 1.4119207532e+00
 1.9314097810e+00	 7.1301448007e-01	 1.4854872265e+00
 1.9246883549e+00	 7.3096376946e-01	 1.7202468771e+00
 1.9177861838e+00	 7.4888542094e-01	 1.9144051950e+00
 1.9107031366e+00	 7.6677681873e-01	 2.0471164824e+00
 1.9034391305e+00	 7.8463533479e-01	 2.1185548635e+00
 1.8959941319e+00	 8.0245832991e-01	 2.1339897245e+00
 1.8883681565e+00	 8.2024315482e-01	 2.0987406801e+00
 1.8805612704e+00	 8.3798715128e-01	 2.0181808933e+00
 1.8725735898e+00	 8.5568765327e-01	 1.8977416328e+00
 1.8644052817e+00	 8.7334198809e-01	 1.7429181034e+00
 1.8560565644e+00	 8.9094747759e-01	 1.5592765784e+00
 1.7765155975e+00	 8.5276608528e-01	 9.0359774151e-01
 1.7683536454e+00	 8.6956492342e-01	 8.9820333499e-01
 1.7600196386e+00	 8.8631188877e-01	 9.0078978980e-01
 1.7515139334e+00	 9.0300440955e-01	 9.0777004209e-01
 1.7428369360e+00	 9.1963991332e-01	 9.1601343138e-01
 1.7339891027e+00	 9.3621582822e-01	 9.2285109380e-01
 1.7249709404e+00	 9.5272958417e-01	 9.2607882618e-01
 1.7157830063e+00	 9.6917861406e-01	 9.2395733689e-01
 1.7064259082e+00	 9.8556035499e-01	 9.1520981234e-01
 1.6969003048e+00	 1.0018722495e+00	 8.9901674188e-01
 1.6872069052e+00	 1.0181117467e+00	 8.7500795795e-01
 1.7844696941e+00	 8.5658422452e-01	 8.7814652161e-01
 1.7762711981e+00	 8.7345827706e-01	 8.7118260853e-01
 1.7678998770e+00	 8.9028022458e-01	 8.8666423569e-01
 1.7593560887e+00	 9.0704748376e-01	 9.1738630988e-01
 1.7506402413e+00	 9.2375747063e-01	 9.5667014156e-01
 1.7417527931e+00	 9.4040760185e-01	 9.9837468768e-01
 1.7326942532e+00	 9.5699529580e-01	 1.0369051711e+00
 1.7234651814e+00	 9.7351797389e-01	 1.0672189800e+00
 1.7140661883e+00	 9.8997306174e-01	 1.0848287641e+00
 1.7044979353e+00	 1.0063579904e+00	 1.0858026584e+00
 1.6947611348e+00	 1.0226701977e+00	 1.0667615794e+00
 1.7924237908e+00	 8.6040236375e-01	 8.7520718525e-01
 1.7841887508e+00	 8.7735163071e-01	 8.5941509443e-01
 1.7757801154e+00	 8.9424856039e-01	 8.7910947267e-01
 1.7671982440e+00	 9.1109055796e-01	 9.2420605003e-01
 1.7584435465e+00	 9.2787502795e-01	 9.8519836513e-01
 1.7495164834e+00	 9.4459937547e-01	 1.0531736988e+00
 1.7404175660e+00	 9.6126100742e-01	 1.1198263025e+00
 1.7311473565e+00	 9.7785733371e-01	 1.1774678153e+00
 1.7217064683e+00	 9.9438576848e-01	 1.2190347743e+00
 1.7120955658e+00	 1.0108437314e+00	 1.2380931411e+00
 1.7023153645e+00	 1.0272286487e+00	 1.2288397791e+00
 1.8003778875e+00	 8.6422050298e-01	 8.9388503049e-01
 1.7921063035e+00	 8.8124498436e-01	 8.6360457916e-01
 1.7836603537e+00	 8.9821689620e-01	 8.8014559814e-01
 1.7750403993e+00	 9.1513363217e-01	 9.3127360745e-01
 1.7662468518e+00	 9.3199258526e-01	 1.0053649154e+00
 1.7572801737e+00	 9.4879114909e-01	 1.0914260936e+00
 1.7481408788e+00	 9.6552671904e-01	 1.1791106773e+00
 1.7388295316e+00	 9.8219669353e-01	 1.2587329770e+00
 1.7293467484e+00	 9.9879847523e-01	 1.3212788980e+00
 1.7196931963e+00	 1.0153294723e+00	 1.3584136814e+00
 1.7098695942e+00	 1.0317870997e+00	 1.3624864946e+00
 1.8083319842e+00	 8.6803864221e-01	 9.3330215040e-01
 1.8000238562e+00	 8.8513833800e-01	 8.8444403493e-01
 1.7915405921e+00	 9.0218523201e-01	 8.9175922438e-01
 1.7828825546e+00	 9.1917670637e-01	 9.4158228039e-01
 1.7740501570e+00	 9.3611014258e-01	 1.0208732748e+00
 1.7650438641e+00	 9.5298292272e-01	 1.1172396655e+00
 1.7558641916e+00	 9.6979243067e-01	 1.2189553409e+00
 1.7465117068e+00	 9.8653605336e-01	 1.3149767128e+00
 1.7369870284e+00	 1.0032111820e+00	 1.3949557466e+00
 1.7272908268e+00	 1.0198152133e+00	 1.4492498390e+00
 1.7174238239e+00	 1.0363455507e+00	 1.4689284629e+00
 1.8162860809e+00	 8.7185678144e-01	 9.9259738724e-01
 1.8079414089e+00	 8.8903169165e-01	 9.2261619283e-01
 1.7994208305e+00	 9.0615356782e-01	 9.1590456202e-01
 1.7907247099e+00	 9.2321978058e-01	 9.5807580144e-01
 1.7818534623e+00	 9.4022769989e-01	 1.0353653569e+00
 1.7728075544e+00	 9.5717469634e-01	 1.1346539581e+00
 1.7635875044e+00	 9.7405814229e-01	 1.2434878889e+00
 1.7541938819e+00	 9.9087541318e-01	 1.3500962552e+00
 1.7446273085e+00	 1.0076238887e+00	 1.4434051389e+00
 1.7348884573e+00	 1.0243009542e+00	 1.5130485400e+00
 1.7249780536e+00	 1.0409040017e+00	 1.5493760261e+00
 1.8242401776e+00	 8.7567492067e-01	 1.0709262957e+00
 1.8158589616e+00	 8.9292504530e-01	 9.7879410913e-01
 1.8073010689e+00	 9.1012190363e-01	 9.5450448321e-01
 1.7985668651e+00	 9.2726285478e-01	 9.8364978807e-01
 1.7896567675e+00	 9.4434525721e-01	 1.0524232308e+00
 1.7805712447e+00	 9.6136646996e-01	 1.1476421467e+00
 1.7713108171e+00	 9.7832385392e-01	 1.2567683844e+00
 1.7618760570e+00	 9.9521477300e-01	 1.3679256529e+00
 1.7522675885e+00	 1.0120365955e+00	 1.4699137184e+00
 1.7424860878e+00	 1.0287866951e+00	 1.5522193490e+00
 1.7325322833e+00	 1.0454624527e+00	 1.6050239257e+00
 1.8321942743e+00	 8.7949305990e-01	 1.1674611147e+00
 1.8237765143e+00	 8.9681839894e-01	 1.0536417247e+00
 1.8151813072e+00	 9.1409023944e-01	 1.0094515654e+00
 1.8064090204e+00	 9.3130592898e-01	 1.0211531637e+00
 1.7974600728e+00	 9.4846281452e-01	 1.0755708095e+00
 1.7883349351e+00	 9.6555824359e-01	 1.1601128799e+00
 1.7790341299e+00	 9.8258956554e-01	 1.2627912361e+00
 1.7695582321e+00	 9.9955413283e-01	 1.3722375633e+00
 1.7599078685e+00	 1.0164493022e+00	 1.4777165370e+00
 1.7500837184e+00	 1.0332724361e+00	 1.5691357170e+00
 1.7400865129e+00	 1.0500209036e+00	 1.6370520853e+00
 1.8401483710e+00	 8.8331119913e-01	 1.2813907481e+00
 1.8316940670e+00	 9.0071175259e-01	 1.1478144177e+00
 1.8230615456e+00	 9.1805857525e-01	 1.0826091158e+00
 1.8142511757e+00	 9.3534900319e-01	 1.0733895501e+00
 1.8052633781e+00	 9.5258037184e-01	 1.1082755027e+00
 1.7960986254e+00	 9.6975001721e-01	 1.1759120810e+00
 1.7867574427e+00	 9.8685527717e-01	 1.2654870346e+00
 1.7772404072e+00	 1.0038934927e+00	 1.3667450065e+00
 1.7675481486e+00	 1.0208620090e+00	 1.4699986064e+00
 1.7576813489e+00	 1.0377581770e+00	 1.5661362067e+00
 1.7476407426e+00	 1.0545793546e+00	 1.6466263815e+00
 1.8481024677e+00	 8.8712933836e-01	 1.4119207532e+00
 1.8396116197e+00	 9.0460510624e-01	 1.2619595505e+00
 1.8309417840e+00	 9.2202691106e-01	 1.1758121781e+00
 1.8220933310e+00	 9.3939207740e-01	 1.1431186321e+00
 1.8130666833e+00	 9.5669792915e-01	 1.1539498342e+00
 1.8038623158e+00	 9.7394179083e-01	 1.1988247122e+00
 1.7944807555e+00	 9.9112098879e-01	 1.2687243509e+00
 1.7849225824e+00	 1.0082328525e+00	 1.3551030840e+00
 1.7751884286e+00	 1.0252747157e+00	 1.4498964184e+00
 1.7652789794e+00	 1.0422439180e+00	 1.5455256941e+00
 1.7551949723e+00	 1.0591378056e+00	 1.6348994042e+00
 1.8560565644e+00	 8.9094747759e-01	 1.5592765784e+00
 1.8475291724e+00	 9.0849845989e-01	 1.3967170097e+00
 1.8388220224e+00	 9.2599524687e-01	 1.2908685204e+00
 1.8299354863e+00	 9.4343515160e-01	 1.2330574953e+00
 1.8208699886e+00	 9.6081548646e-01	 1.2159530277e+00
 1.8116260061e+00	 9.7813356446e-01	 1.2325765012e+00
 1.8022040683e+00	 9.9538670041e-01	 1.2763114962e+00
 1.7926047575e+00	 1.0125722123e+00	 1.3409106604e+00
 1.7828287087e+00	 1.0296874225e+00	 1.4204994349e+00
 1.7728766099e+00	 1.0467296589e+00	 1.5095765482e+00
 1.7627492020e+00	 1.0636962566e+00	 1.6030112064e+00
 1.6872069052e+00	 1.0181117467e+00	 8.7500795795e-01
 1.6773464695e+00	 1.0342763041e+00	 8.5479709003e-01
 1.6673198101e+00	 1.0503633895e+00	 8.5152493924e-01
 1.6571277905e+00	 1.0663704815e+00	 8.6755082760e-01
 1.6467713242e+00	 1.0822950704e+00	 9.0536000886e-01
 1.6362513750e+00	 1.0981346594e+00	 9.6753923375e-01
 1.6255689568e+00	 1.1138867658e+00	 1.0567071111e+00
 1.6147251331e+00	 1.1295489225e+00	 1.1733987617e+00
 1.6037210169e+00	 1.1451186788e+00	 1.3178592862e+00
 1.5925577705e+00	 1.1605936020e+00	 1.4910740254e+00
 1.5812366048e+00	 1.1759712785e+00	 1.6940316527e+00
 1.6947611348e+00	 1.0226701977e+00	 1.0667615794e+00
 1.6848565504e+00	 1.0389071296e+00	 1.0353422990e+00
 1.6747849982e+00	 1.0550662427e+00	 1.0055823758e+00
 1.6645473452e+00	 1.0711450041e+00	 9.8415310338e-01
 1.6541445093e+00	 1.0871408931e+00	 9.7775238541e-01
 1.6435774585e+00	 1.1030514016e+00	 9.9307315360e-01
 1.6328472113e+00	 1.1188740358e+00	 1.0364701115e+00
 1.6219548359e+00	 1.1346063176e+00	 1.1119933774e+00
 1.6109014504e+00	 1.1502457853e+00	 1.2240606076e+00
 1.5996882221e+00	 1.1657899953e+00	 1.3772030792e+00
 1.5883163675e+00	 1.1812365232e+00	 1.5758086940e+00
 1.7023153645e+00	 1.0272286487e+00	 1.2288397791e+00
 1.6923666314e+00	 1.0435379551e+00	 1.1940222461e+00
 1.6822501862e+00	 1.0597690958e+00	 1.1467743467e+00
 1.6719668999e+00	 1.0759195268e+00	 1.0973264469e+00
 1.6615176944e+00	 1.0919867158e+00	 1.0558559163e+00
 1.6509035420e+00	 1.1079681438e+00	 1.0324495295e+00
 1.6401254658e+00	 1.1238613059e+00	 1.0363538713e+00
 1.6291845387e+00	 1.1396637127e+00	 1.0748933764e+00
 1.6180818838e+00	 1.1553728918e+00	 1.1557393398e+00
 1.6068186737e+00	 1.1709863886e+00	 1.2863498205e+00
 1.5953961302e+00	 1.1865017678e+00	 1.4739186239e+00
 1.7098695942e+00	 1.0317870997e+00	 1.3624864946e+00
 1.6998767124e+00	 1.0481687806e+00	 1.3307485544e+00
 1.6897153742e+00	 1.0644719489e+00	 1.2739468396e+00
 1.6793864546e+00	 1.0806940494e+00	 1.2051277589e+00
 1.6688908795e+00	 1.0968325385e+00	 1.1372246666e+00
 1.6582296256e+00	 1.1128848861e+00	 1.0830074990e+00
 1.6474037203e+00	 1.1288485760e+00	 1.0538981551e+00
 1.6364142416e+00	 1.1447211079e+00	 1.0600599238e+00
 1.6252623173e+00	 1.1604999983e+00	 1.1116020411e+00
 1.6139491253e+00	 1.1761827819e+00	 1.2182989676e+00
 1.6024758929e+00	 1.1917670125e+00	 1.3895656341e+00
 1.7174238239e+00	 1.0363455507e+00	 1.4689284629e+00
 1.7073867934e+00	 1.0527996061e+00	 1.4454392223e+00
 1.6971805623e+00	 1.0691748021e+00	 1.3859710546e+00
 1.6868060093e+00	 1.0854685720e+00	 1.3056530750e+00
 1.6762640646e+00	 1.1016783613e+00	 1.2194606736e+00
 1.6655557091e+00	 1.1178016283e+00	 1.1420866244e+00
 1.6546819748e+00	 1.1338358460e+00	 1.0866967950e+00
 1.6436439444e+00	 1.1497785030e+00	 1.0655005588e+00
 1.6324427508e+00	 1.1656271049e+00	 1.0903882610e+00
 1.6210795769e+00	 1.1813791752e+00	 1.1728490056e+00
 1.6095556556e+00	 1.1970322572e+00	 1.3239424712e+00
 1.7249780536e+00	 1.0409040017e+00	 1.5493760261e+00
 1.7148968744e+00	 1.0574304316e+00	 1.5380189199e+00
 1.7046457503e+00	 1.0738776552e+00	 1.4817432919e+00
 1.6942255640e+00	 1.0902430947e+00	 1.3970371518e+00
 1.6836372497e+00	 1.1065241840e+00	 1.3002133405e+00
 1.6728817926e+00	 1.1227183705e+00	 1.2072005338e+00
 1.6619602293e+00	 1.1388231161e+00	 1.1323962082e+00
 1.6508736472e+00	 1.1548358982e+00	 1.0892678634e+00
 1.6396231842e+00	 1.1707542114e+00	 1.0908694863e+00
 1.6282100286e+00	 1.1865755685e+00	 1.1498115391e+00
 1.6166354183e+00	 1.2022975018e+00	 1.2782303262e+00
 1.7325322833e+00	 1.0454624527e+00	 1.6050239257e+00
 1.7224069553e+00	 1.0620612571e+00	 1.6084192849e+00
 1.7121109383e+00	 1.0785805084e+00	 1.5601848508e+00
 1.7016451188e+00	 1.0950176173e+00	 1.4774530723e+00
 1.6910104348e+00	 1.1113700067e+00	 1.3771789084e+00
 1.6802078761e+00	 1.1276351128e+00	 1.2759467631e+00
 1.6692384838e+00	 1.1438103861e+00	 1.1886939393e+00
 1.6581033501e+00	 1.1598932933e+00	 1.1294581536e+00
 1.6468036177e+00	 1.1758813179e+00	 1.1118481018e+00
 1.6353404802e+00	 1.1917719618e+00	 1.1490106480e+00
 1.6237151810e+00	 1.2075627465e+00	 1.2535987139e+00
 1.7400865129e+00	 1.0500209036e+00	 1.6370520853e+00
 1.7299170363e+00	 1.0666920826e+00	 1.6565792214e+00
 1.7195761264e+00	 1.0832833615e+00	 1.6202419416e+00
 1.7090646735e+00	 1.0997921399e+00	 1.5451118717e+00
 1.6983836199e+00	 1.1162158294e+00	 1.4481364505e+00
 1.6875339596e+00	 1.1325518550e+00	 1.3459746165e+00
 1.6765167384e+00	 1.1487976562e+00	 1.2533372293e+00
 1.6653330529e+00	 1.1649506885e+00	 1.1842101918e+00
 1.6539840511e+00	 1.1810084244e+00	 1.1521563655e+00
 1.6424709318e+00	 1.1969683551e+00	 1.1702822467e+00
 1.6307949437e+00	 1.2128279911e+00	 1.2512053423e+00
 1.7476407426e+00	 1.0545793546e+00	 1.6466263815e+00
 1.7374271173e+00	 1.0713229081e+00	 1.6824451991e+00
 1.7270413144e+00	 1.0879862147e+00	 1.6608856078e+00
 1.7164842282e+00	 1.1045666626e+00	 1.5982621819e+00
 1.7057568050e+00	 1.1210616521e+00	 1.5109710871e+00
 1.6948600432e+00	 1.1374685972e+00	 1.4149837315e+00
 1.6837949929e+00	 1.1537849262e+00	 1.3241216081e+00
 1.6725627557e+00	 1.1700080836e+00	 1.2517039192e+00
 1.6611644846e+00	 1.1861355309e+00	 1.2106553968e+00
 1.6496013834e+00	 1.2021647484e+00	 1.2134734473e+00
 1.6378747064e+00	 1.2180932358e+00	 1.2721959712e+00
 1.7551949723e+00	 1.0591378056e+00	 1.6348994042e+00
 1.7449371983e+00	 1.0759537336e+00	 1.6859715543e+00
 1.7345065024e+00	 1.0926890678e+00	 1.6811116602e+00
 1.7239037829e+00	 1.1093411852e+00	 1.6351898935e+00
 1.7131299901e+00	 1.1259074749e+00	 1.5636127718e+00
 1.7021861267e+00	 1.1423853395e+00	 1.4807226698e+00
 1.6910732474e+00	 1.1587721963e+00	 1.3988895115e+00
 1.6797924585e+00	 1.1750654787e+00	 1.3301592091e+00
 1.6683449181e+00	 1.1912626374e+00	 1.2862341780e+00
 1.6567318350e+00	 1.2073611416e+00	 1.2784419254e+00
 1.6449544691e+00	 1.2233584805e+00	 1.3177042619e+00
 1.7627492020e+00	 1.0636962566e+00	 1.6030112064e+00
 1.7524472793e+00	 1.0805845591e+00	 1.6671207919e+00
 1.7419716905e+00	 1.0973919210e+00	 1.6799406211e+00
 1.7313233376e+00	 1.1141157078e+00	 1.6542600593e+00
 1.7205031752e+00	 1.1307532976e+00	 1.6040362788e+00
 1.7095122102e+00	 1.1473020817e+00	 1.5409875311e+00
 1.6983515019e+00	 1.1637594664e+00	 1.4755289209e+00
 1.6870221614e+00	 1.1801228739e+00	 1.4178346389e+00
 1.6755253515e+00	 1.1963897440e+00	 1.3778085691e+00
 1.6638622866e+00	 1.2125575349e+00	 1.3650552894e+00
 1.6520342318e+00	 1.2286237251e+00	 1.3888516172e+00
 1.5812366048e+00	 1.1759712785e+00	 1.6940316527e+00
 1.5697568158e+00	 1.1912519024e+00	 1.8853418132e+00
 1.5581216283e+00	 1.2064304705e+00	 2.0248245992e+00
 1.5463324046e+00	 1.2215046238e+00	 2.1151406195e+00
 1.5343905539e+00	 1.2364720272e+00	 2.1586032449e+00
 1.5222975323e+00	 1.2513303705e+00	 2.1571662383e+00
 1.5100548418e+00	 1.2660773696e+00	 2.1124124644e+00
 1.4976640298e+00	 1.2807107680e+00	 2.0255437629e+00
 1.4851266886e+00	 1.2952283376e+00	 1.8973720585e+00
 1.4724444546e+00	 1.3096278799e+00	 1.7264869049e+00
 1.4596190077e+00	 1.3239072270e+00	 1.5066039655e+00
 1.5883163675e+00	 1.1812365232e+00	 1.5758086940e+00
 1.5767851794e+00	 1.1965855638e+00	 1.7795414237e+00
 1.5650978970e+00	 1.2118320918e+00	 1.9447248099e+00
 1.5532558887e+00	 1.2269737376e+00	 2.0705952509e+00
 1.5412605701e+00	 1.2420081554e+00	 2.1561983547e+00
 1.5291134037e+00	 1.2569330248e+00	 2.2003814433e+00
 1.5168158983e+00	 1.2717460515e+00	 2.2017869522e+00
 1.5043696082e+00	 1.2864449689e+00	 2.1588468009e+00
 1.4917761328e+00	 1.3010275389e+00	 2.0697778023e+00
 1.4790371159e+00	 1.3154915530e+00	 1.9324379867e+00
 1.4661542448e+00	 1.3298348339e+00	 1.7390018265e+00
 1.5953961302e+00	 1.1865017678e+00	 1.4739186239e+00
 1.5838135430e+00	 1.2019192253e+00	 1.6805519688e+00
 1.5720741657e+00	 1.2172337132e+00	 1.8612213625e+00
 1.5601793728e+00	 1.2324428513e+00	 2.0122795750e+00
 1.5481305862e+00	 1.2475442836e+00	 2.1300225660e+00
 1.5359292751e+00	 1.2625356791e+00	 2.2106860653e+00
 1.5235769547e+00	 1.2774147334e+00	 2.2504428943e+00
 1.5110751865e+00	 1.2921791698e+00	 2.2454010978e+00
 1.4984255770e+00	 1.3068267401e+00	 2.1916029498e+00
 1.4856297772e+00	 1.3213552262e+00	 2.0850248925e+00
 1.4726894820e+00	 1.3357624408e+00	 1.9195186222e+00
 1.6024758929e+00	 1.1917670125e+00	 1.3895656341e+00
 1.5908419065e+00	 1.2072528868e+00	 1.5910328443e+00
 1.5790504343e+00	 1.2226353346e+00	 1.7781482208e+00
 1.5671028568e+00	 1.2379119651e+00	 1.9449146502e+00
 1.5550006024e+00	 1.2530804118e+00	 2.0853899216e+00
 1.5427451464e+00	 1.2681383334e+00	 2.1936865926e+00
 1.5303380112e+00	 1.2830834153e+00	 2.2639724700e+00
 1.5177807649e+00	 1.2979133706e+00	 2.2904717722e+00
 1.5050750212e+00	 1.3126259413e+00	 2.2674670323e+00
 1.4922224384e+00	 1.3272188993e+00	 2.1893017989e+00
 1.4792247191e+00	 1.3416900476e+00	 2.0502429802e+00
 1.6095556556e+00	 1.1970322572e+00	 1.3239424712e+00
 1.5978702701e+00	 1.2125865483e+00	 1.5136061782e+00
 1.5860267030e+00	 1.2280369560e+00	 1.6992812178e+00
 1.5740263409e+00	 1.2433810789e+00	 1.8731476219e+00
 1.5618706185e+00	 1.2586165399e+00	 2.0275299698e+00
 1.5495610178e+00	 1.2737409877e+00	 2.1548997528e+00
 1.5370990676e+00	 1.2887520972e+00	 2.2478782581e+00
 1.5244863432e+00	 1.3036475715e+00	 2.2992400355e+00
 1.5117244653e+00	 1.3184251425e+00	 2.3019170048e+00
 1.4988150997e+00	 1.3330825724e+00	 2.2490032577e+00
 1.4857599563e+00	 1.3476176545e+00	 2.1337605998e+00
 1.6166354183e+00	 1.2022975018e+00	 1.2782303262e+00
 1.6048986337e+00	 1.2179202098e+00	 1.4508572726e+00
 1.5930029717e+00	 1.2334385773e+00	 1.6283389411e+00
 1.5809498250e+00	 1.2488501926e+00	 1.8015529421e+00
 1.5687406347e+00	 1.2641526681e+00	 1.9615892044e+00
 1.5563768891e+00	 1.2793436420e+00	 2.0997540581e+00
 1.5438601240e+00	 1.2944207791e+00	 2.2075747698e+00
 1.5311919215e+00	 1.3093817724e+00	 2.2768045931e+00
 1.5183739095e+00	 1.3242243438e+00	 2.2994283915e+00
 1.5054077610e+00	 1.3389462456e+00	 2.2676688863e+00
 1.4922951934e+00	 1.3535452614e+00	 2.1739935746e+00
 1.6237151810e+00	 1.2075627465e+00	 1.2535987139e+00
 1.6119269972e+00	 1.2232538713e+00	 1.4053350202e+00
 1.5999792403e+00	 1.2388401987e+00	 1.5689835821e+00
 1.5878733091e+00	 1.2543193064e+00	 1.7346335432e+00
 1.5756106508e+00	 1.2696887963e+00	 1.8926324537e+00
 1.5631927605e+00	 1.2849462963e+00	 2.0335912965e+00
 1.5506211805e+00	 1.3000894610e+00	 2.1483899274e+00
 1.5378974999e+00	 1.3151159732e+00	 2.2281829931e+00
 1.5250233537e+00	 1.3300235450e+00	 2.2644063860e+00
 1.5120004222e+00	 1.3448099187e+00	 2.2487842881e+00
 1.4988304306e+00	 1.3594728683e+00	 2.1733368476e+00
 1.6307949437e+00	 1.2128279911e+00	 1.2512053423e+00
 1.6189553608e+00	 1.2285875327e+00	 1.3795522968e+00
 1.6069555090e+00	 1.2442418201e+00	 1.5248217493e+00
 1.5947967932e+00	 1.2597884201e+00	 1.6768219672e+00
 1.5824806669e+00	 1.2752249245e+00	 1.8256442185e+00
 1.5700086318e+00	 1.2905489506e+00	 1.9616679697e+00
 1.5573822369e+00	 1.3057581429e+00	 2.0755664898e+00
 1.5446030782e+00	 1.3208501741e+00	 2.1583129257e+00
 1.5316727978e+00	 1.3358227462e+00	 2.2011869092e+00
 1.5185930835e+00	 1.3506735918e+00	 2.1957817499e+00
 1.5053656677e+00	 1.3654004752e+00	 2.1340122605e+00
 1.6378747064e+00	 1.2180932358e+00	 1.2721959712e+00
 1.6259837244e+00	 1.2339211942e+00	 1.3759863293e+00
 1.6139317777e+00	 1.2496434414e+00	 1.4994052456e+00
 1.6017202773e+00	 1.2652575339e+00	 1.6324814516e+00
 1.5893506831e+00	 1.2807610527e+00	 1.7655299616e+00
 1.5768245032e+00	 1.2961516049e+00	 1.8891566790e+00
 1.5641432934e+00	 1.3114268248e+00	 1.9942634269e+00
 1.5513086566e+00	 1.3265843750e+00	 2.0720534749e+00
 1.5383222420e+00	 1.3416219475e+00	 2.1140376237e+00
 1.5251857448e+00	 1.3565372650e+00	 2.1120409057e+00
 1.5119009048e+00	 1.3713280821e+00	 2.0582099505e+00
 1.6449544691e+00	 1.2233584805e+00	 1.3177042619e+00
 1.6330120879e+00	 1.2392548557e+00	 1.3970790412e+00
 1.6209080463e+00	 1.2550450628e+00	 1.4962318137e+00
 1.6086437614e+00	 1.2707266476e+00	 1.6059069733e+00
 1.5962206992e+00	 1.2862971808e+00	 1.7171173497e+00
 1.5836403745e+00	 1.3017542592e+00	 1.8211474617e+00
 1.5709043498e+00	 1.3170955067e+00	 1.9095572438e+00
 1.5580142349e+00	 1.3323185759e+00	 1.9741863225e+00
 1.5449716862e+00	 1.3474211487e+00	 2.0071589091e+00
 1.5317784060e+00	 1.3624009381e+00	 2.0008893694e+00
 1.5184361420e+00	 1.3772556890e+00	 1.9480885272e+00
 1.6520342318e+00	 1.2286237251e+00	 1.3888516172e+00
 1.6400404515e+00	 1.2445885172e+00	 1.4452373755e+00
 1.6278843150e+00	 1.2604466842e+00	 1.5187458468e+00
 1.6155672454e+00	 1.2761957614e+00	 1.6013262521e+00
 1.6030907154e+00	 1.2918333090e+00	 1.6851574496e+00
 1.5904562459e+00	 1.3073569135e+00	 1.7626490787e+00
 1.5776654063e+00	 1.3227641886e+00	 1.8264432566e+00
 1.5647198132e+00	 1.3380527767e+00	 1.8694169074e+00
 1.5516211303e+00	 1.3532203499e+00	 1.8846847959e+00
 1.5383710673e+00	 1.3682646113e+00	 1.8656033358e+00
 1.5249713791e+00	 1.3831832959e+00	 1.8057752297e+00
 1.4596190077e+00	 1.3239072270e+00	 1.5066039655e+00
 1.4466542826e+00	 1.3380618508e+00	 1.2791895008e+00
 1.4335498557e+00	 1.3520921059e+00	 1.0850065537e+00
 1.4203075088e+00	 1.3659959471e+00	 9.2033406198e-01
 1.4069290638e+00	 1.3797713641e+00	 7.8191908033e-01
 1.3934163822e+00	 1.3934163822e+00	 6.6700378371e-01
 1.3797713641e+00	 1.4069290638e+00	 5.7335027028e-01
 1.3659959471e+00	 1.4203075088e+00	 4.9926301268e-01
 1.3520921059e+00	 1.4335498557e+00	 4.4360882213e-01
 1.3380618508e+00	 1.4466542826e+00	 4.0583420423e-01
 1.3239072270e+00	 1.4596190077e+00	 3.8598000127e-01
 1.4661542448e+00	 1.3298348339e+00	 1.7390018265e+00
 1.4531314720e+00	 1.3440528330e+00	 1.5304058531e+00
 1.4399683719e+00	 1.3581459066e+00	 1.3509806468e+00
 1.4266667343e+00	 1.3721120003e+00	 1.1979719242e+00
 1.4132283892e+00	 1.3859490947e+00	 1.0689792258e+00
 1.3996552065e+00	 1.3996552065e+00	 9.6198251069e-01
 1.3859490947e+00	 1.4132283892e+00	 8.7536666239e-01
 1.3721120003e+00	 1.4266667343e+00	 8.0794375327e-01
 1.3581459066e+00	 1.4399683719e+00	 7.5897292845e-01
 1.3440528330e+00	 1.4531314720e+00	 7.2817778641e-01
 1.3298348339e+00	 1.4661542448e+00	 7.1576114876e-01
 1.4726894820e+00	 1.3357624408e+00	 1.9195186222e+00
 1.4596086614e+00	 1.3500438152e+00	 1.7331368401e+00
 1.4463868881e+00	 1.3641997073e+00	 1.5715872210e+00
 1.4330259598e+00	 1.3782280535e+00	 1.4329794225e+00
 1.4195277146e+00	 1.3921268254e+00	 1.3156766666e+00
 1.4058940308e+00	 1.4058940308e+00	 1.2183220488e+00
 1.3921268254e+00	 1.4195277146e+00	 1.1398628480e+00
 1.3782280535e+00	 1.4330259598e+00	 1.0795726831e+00
 1.3641997073e+00	 1.4463868881e+00	 1.0370713735e+00
 1.3500438152e+00	 1.4596086614e+00	 1.0123423805e+00
 1.3357624408e+00	 1.4726894820e+00	 1.0057477166e+00
 1.4792247191e+00	 1.3416900476e+00	 2.0502429802e+00
 1.4660858508e+00	 1.3560347974e+00	 1.8880920893e+00
 1.4528054044e+00	 1.3702535080e+00	 1.7463220576e+00
 1.4393851853e+00	 1.3843441066e+00	 1.6238044653e+00
 1.4258270400e+00	 1.3983045560e+00	 1.5195781110e+00
 1.4121328551e+00	 1.4121328551e+00	 1.4328751572e+00
 1.3983045560e+00	 1.4258270400e+00	 1.3631453447e+00
 1.3843441066e+00	 1.4393851853e+00	 1.3100781208e+00
 1.3702535080e+00	 1.4528054044e+00	 1.2736225340e+00
 1.3560347974e+00	 1.4660858508e+00	 1.2540047705e+00
 1.3416900476e+00	 1.4792247191e+00	 1.2517432167e+00
 1.4857599563e+00	 1.3476176545e+00	 2.1337605998e+00
 1.4725630403e+00	 1.3620257796e+00	 1.9959819817e+00
 1.4592239206e+00	 1.3763073087e+00	 1.8747035458e+00
 1.4457444107e+00	 1.3904601598e+00	 1.7689364304e+00
 1.4321263654e+00	 1.4044822867e+00	 1.6783075902e+00
 1.4183716794e+00	 1.4183716794e+00	 1.6025647503e+00
 1.4044822867e+00	 1.4321263654e+00	 1.5416006272e+00
 1.3904601598e+00	 1.4457444107e+00	 1.4954751062e+00
 1.3763073087e+00	 1.4592239206e+00	 1.4644352285e+00
 1.3620257796e+00	 1.4725630403e+00	 1.4489328575e+00
 1.3476176545e+00	 1.4857599563e+00	 1.4497039668e+00
 1.4922951934e+00	 1.3535452614e+00	 2.1739935746e+00
 1.4790402297e+00	 1.3680167618e+00	 2.0575186864e+00
 1.4656424368e+00	 1.3823611094e+00	 1.9562732528e+00
 1.4521036362e+00	 1.3965762130e+00	 1.8669063337e+00
 1.4384256908e+00	 1.4106600173e+00	 1.7895462889e+00
 1.4246105036e+00	 1.4246105036e+00	 1.7243834560e+00
 1.4106600173e+00	 1.4384256908e+00	 1.6716944773e+00
 1.3965762130e+00	 1.4521036362e+00	 1.6318646065e+00
 1.3823611094e+00	 1.4656424368e+00	 1.6054078452e+00
 1.3680167618e+00	 1.4790402297e+00	 1.5929847738e+00
 1.3535452614e+00	 1.4922951934e+00	 1.5958824657e+00
 1.4988304306e+00	 1.3594728683e+00	 2.1733368476e+00
 1.4855174191e+00	 1.3740077441e+00	 2.0739416795e+00
 1.4720609530e+00	 1.3884149101e+00	 1.9905964971e+00
 1.4584628617e+00	 1.4026922661e+00	 1.9162870118e+00
 1.4447250162e+00	 1.4168377480e+00	 1.8510324008e+00
 1.4308493279e+00	 1.4308493279e+00	 1.7953932049e+00
 1.4168377480e+00	 1.4447250162e+00	 1.7499713704e+00
 1.4026922661e+00	 1.4584628617e+00	 1.7154327633e+00
 1.3884149101e+00	 1.4720609530e+00	 1.6925275119e+00
 1.3740077441e+00	 1.4855174191e+00	 1.6821828823e+00
 1.3594728683e+00	 1.4988304306e+00	 1.6864774085e+00
 1.5053656677e+00	 1.3654004752e+00	 2.1340122605e+00
 1.4919946085e+00	 1.3799987263e+00	 2.0480530477e+00
 1.4784794692e+00	 1.3944687107e+00	 1.9772629273e+00
 1.4648220872e+00	 1.4088083193e+00	 1.9156933203e+00
 1.4510243416e+00	 1.4230154786e+00	 1.8605610061e+00
 1.4370881522e+00	 1.4370881522e+00	 1.8127248499e+00
 1.4230154786e+00	 1.4510243416e+00	 1.7730538979e+00
 1.4088083193e+00	 1.4648220872e+00	 1.7424501785e+00
 1.3944687107e+00	 1.4784794692e+00	 1.7218693082e+00
 1.3799987263e+00	 1.4919946085e+00	 1.7128933846e+00
 1.3654004752e+00	 1.5053656677e+00	 1.7177505392e+00
 1.5119009048e+00	 1.3713280821e+00	 2.0582099505e+00
 1.4984717980e+00	 1.3859897085e+00	 1.9809656921e+00
 1.4848979854e+00	 1.4005225114e+00	 1.9163004064e+00
 1.4711813127e+00	 1.4149243725e+00	 1.8637823455e+00
 1.4573236670e+00	 1.4291932092e+00	 1.8159839730e+00
 1.4433269765e+00	 1.4433269765e+00	 1.7735778157e+00
 1.4291932092e+00	 1.4573236670e+00	 1.7376422245e+00
 1.4149243725e+00	 1.4711813127e+00	 1.7092712396e+00
 1.4005225114e+00	 1.4848979854e+00	 1.6896598397e+00
 1.3859897085e+00	 1.4984717980e+00	 1.6813644988e+00
 1.3713280821e+00	 1.5119009048e+00	 1.6860400212e+00
 1.5184361420e+00	 1.3772556890e+00	 1.9480885272e+00
 1.5049489874e+00	 1.3919806907e+00	 1.8735946628e+00
 1.4913165016e+00	 1.4065763121e+00	 1.8096092234e+00
 1.4775405382e+00	 1.4210404256e+00	 1.7592536306e+00
 1.4636229924e+00	 1.4353709399e+00	 1.7152098805e+00
 1.4495658007e+00	 1.4495658007e+00	 1.6752197761e+00
 1.4353709399e+00	 1.4636229924e+00	 1.6405135781e+00
 1.4210404256e+00	 1.4775405382e+00	 1.6123334804e+00
 1.4065763121e+00	 1.4913165016e+00	 1.5925226930e+00
 1.3919806907e+00	 1.5049489874e+00	 1.5838960253e+00
 1.3772556890e+00	 1.5184361420e+00	 1.5877583437e+00
 1.5249713791e+00	 1.3831832959e+00	 1.8057752297e+00
 1.5114261768e+00	 1.3979716729e+00	 1.7268450066e+00
 1.4977350178e+00	 1.4126301128e+00	 1.6573347187e+00
 1.4838997636e+00	 1.4271564788e+00	 1.6010715297e+00
 1.4699223178e+00	 1.4415486705e+00	 1.5562039619e+00
 1.4558046250e+00	 1.4558046250e+00	 1.5149863592e+00
 1.4415486705e+00	 1.4699223178e+00	 1.4785217730e+00
 1.4271564788e+00	 1.4838997636e+00	 1.4481933231e+00
 1.4126301128e+00	 1.4977350178e+00	 1.4269187661e+00
 1.3979716729e+00	 1.5114261768e+00	 1.4168622364e+00
 1.3831832959e+00	 1.5249713791e+00	 1.4193902643e+00
 1.3239072270e+00	 1.4596190077e+00	 3.8598000127e-01
 1.3096278799e+00	 1.4724444546e+00	 3.7568613788e-01
 1.2952283376e+00	 1.4851266886e+00	 3.6796691815e-01
 1.2807107680e+00	 1.4976640298e+00	 3.6549469103e-01
 1.2660773696e+00	 1.5100548418e+00	 3.7058868575e-01
 1.2513303705e+00	 1.5222975323e+00	 3.8541945855e-01
 1.2364720272e+00	 1.5343905539e+00	 4.1208744442e-01
 1.2215046238e+00	 1.5463324046e+00	 4.5260111072e-01
 1.2064304705e+00	 1.5581216283e+00	 5.0885614696e-01
 1.1912519024e+00	 1.5697568158e+00	 5.8261578239e-01
 1.1759712785e+00	 1.5812366048e+00	 6.7549231239e-01
 1.3298348339e+00	 1.4661542448e+00	 7.1576114876e-01
 1.3154915530e+00	 1.4790371159e+00	 7.1049931954e-01
 1.3010275389e+00	 1.4917761328e+00	 7.0286481839e-01
 1.2864449689e+00	 1.5043696082e+00	 6.9589830982e-01
 1.2717460515e+00	 1.5168158983e+00	 6.9219271271e-01
 1.2569330248e+00	 1.5291134037e+00	 6.9429563320e-01
 1.2420081554e+00	 1.5412605701e+00	 7.0469590147e-01
 1.2269737376e+00	 1.5532558887e+00	 7.2580054515e-01
 1.2118320918e+00	 1.5650978970e+00	 7.5991282816e-01
 1.1965855638e+00	 1.5767851794e+00	 8.0921144952e-01
 1.1812365232e+00	 1.5883163675e+00	 8.7573098585e-01
 1.3357624408e+00	 1.4726894820e+00	 1.0057477166e+00
 1.3213552262e+00	 1.4856297772e+00	 1.0040129348e+00
 1.3068267401e+00	 1.4984255770e+00	 9.9591029021e-01
 1.2921791698e+00	 1.5110751865e+00	 9.8446276994e-01
 1.2774147334e+00	 1.5235769547e+00	 9.7250429132e-01
 1.2625356791e+00	 1.5359292751e+00	 9.6285032157e-01
 1.2475442836e+00	 1.5481305862e+00	 9.5827282384e-01
 1.2324428513e+00	 1.5601793728e+00	 9.6147618500e-01
 1.2172337132e+00	 1.5720741657e+00	 9.7507423288e-01
 1.2019192253e+00	 1.5838135430e+00	 1.0015684404e+00
 1.1865017678e+00	 1.5953961302e+00	 1.0433274029e+00
 1.3416900476e+00	 1.4792247191e+00	 1.2517432167e+00
 1.3272188993e+00	 1.4922224384e+00	 1.2524622215e+00
 1.3126259413e+00	 1.5050750212e+00	 1.2435397460e+00
 1.2979133706e+00	 1.5177807649e+00	 1.2279368965e+00
 1.2830834153e+00	 1.5303380112e+00	 1.2086277698e+00
 1.2681383334e+00	 1.5427451464e+00	 1.1885880973e+00
 1.2530804118e+00	 1.5550006024e+00	 1.1707692621e+00
 1.2379119651e+00	 1.5671028568e+00	 1.1580733152e+00
 1.2226353346e+00	 1.5790504343e+00	 1.1533290985e+00
 1.2072528868e+00	 1.5908419065e+00	 1.1592695780e+00
 1.1917670125e+00	 1.6024758929e+00	 1.1785104730e+00
 1.3476176545e+00	 1.4857599563e+00	 1.4497039668e+00
 1.3330825724e+00	 1.4988150997e+00	 1.4521040836e+00
 1.3184251425e+00	 1.5117244653e+00	 1.4422655447e+00
 1.3036475715e+00	 1.5244863432e+00	 1.4231398057e+00
 1.2887520972e+00	 1.5370990676e+00	 1.3977314050e+00
 1.2737409877e+00	 1.5495610178e+00	 1.3690703055e+00
 1.2586165399e+00	 1.5618706185e+00	 1.3401851201e+00
 1.2433810789e+00	 1.5740263409e+00	 1.3140773475e+00
 1.2280369560e+00	 1.5860267030e+00	 1.2936967292e+00
 1.2125865483e+00	 1.5978702701e+00	 1.2819178329e+00
 1.1970322572e+00	 1.6095556556e+00	 1.2815179508e+00
 1.3535452614e+00	 1.4922951934e+00	 1.5958824657e+00
 1.3389462456e+00	 1.5054077610e+00	 1.5992636399e+00
 1.3242243438e+00	 1.5183739095e+00	 1.5886739335e+00
 1.3093817724e+00	 1.5311919215e+00	 1.5669589690e+00
 1.2944207791e+00	 1.5438601240e+00	 1.5370455662e+00
 1.2793436420e+00	 1.5563768891e+00	 1.5019134245e+00
 1.2641526681e+00	 1.5687406347e+00	 1.4645676923e+00
 1.2488501926e+00	 1.5809498250e+00	 1.4280125531e+00
 1.2334385773e+00	 1.5930029717e+00	 1.3952259431e+00
 1.2179202098e+00	 1.6048986337e+00	 1.3691355049e+00
 1.2022975018e+00	 1.6166354183e+00	 1.3525958718e+00
 1.3594728683e+00	 1.4988304306e+00	 1.6864774085e+00
 1.3448099187e+00	 1.5120004222e+00	 1.6903426242e+00
 1.3300235450e+00	 1.5250233537e+00	 1.6794230273e+00
 1.3151159732e+00	 1.5378974999e+00	 1.6563483117e+00
 1.3000894610e+00	 1.5506211805e+00	 1.6238609698e+00
 1.2849462963e+00	 1.5631927605e+00	 1.5847874536e+00
 1.2696887963e+00	 1.5756106508e+00	 1.5420102228e+00
 1.2543193064e+00	 1.5878733091e+00	 1.4984408112e+00
 1.2388401987e+00	 1.5999792403e+00	 1.4569940290e+00
 1.2232538713e+00	 1.6119269972e+00	 1.4205634084e+00
 1.2075627465e+00	 1.6237151810e+00	 1.3919979863e+00
 1.3654004752e+00	 1.5053656677e+00	 1.7177505392e+00
 1.3506735918e+00	 1.5185930835e+00	 1.7218172986e+00
 1.3358227462e+00	 1.5316727978e+00	 1.7112408223e+00
 1.3208501741e+00	 1.5446030782e+00	 1.6883263433e+00
 1.3057581429e+00	 1.5573822369e+00	 1.6555269421e+00
 1.2905489506e+00	 1.5700086318e+00	 1.6154143253e+00
 1.2752249245e+00	 1.5824806669e+00	 1.5706504847e+00
 1.2597884201e+00	 1.5947967932e+00	 1.5239603730e+00
 1.2442418201e+00	 1.6069555090e+00	 1.4781057149e+00
 1.2285875327e+00	 1.6189553608e+00	 1.4358600624e+00
 1.2128279911e+00	 1.6307949437e+00	 1.3999851923e+00
 1.3713280821e+00	 1.5119009048e+00	 1.6860400212e+00
 1.3565372650e+00	 1.5251857448e+00	 1.6902364050e+00
 1.3416219475e+00	 1.5383222420e+00	 1.6809232457e+00
 1.3265843750e+00	 1.5513086566e+00	 1.6599743195e+00
 1.3114268248e+00	 1.5641432934e+00	 1.6294497107e+00
 1.2961516049e+00	 1.5768245032e+00	 1.5915663422e+00
 1.2807610527e+00	 1.5893506831e+00	 1.5486693794e+00
 1.2652575339e+00	 1.6017202773e+00	 1.5032046417e+00
 1.2496434414e+00	 1.6139317777e+00	 1.4576921449e+00
 1.2339211942e+00	 1.6259837244e+00	 1.4147008857e+00
 1.2180932358e+00	 1.6378747064e+00	 1.3768249651e+00
 1.3772556890e+00	 1.5184361420e+00	 1.5877583437e+00
 1.3624009381e+00	 1.5317784060e+00	 1.5922191521e+00
 1.3474211487e+00	 1.5449716862e+00	 1.5853322373e+00
 1.3323185759e+00	 1.5580142349e+00	 1.5684344350e+00
 1.3170955067e+00	 1.5709043498e+00	 1.5430907224e+00
 1.3017542592e+00	 1.5836403745e+00	 1.5110646373e+00
 1.2862971808e+00	 1.5962206992e+00	 1.4742895557e+00
 1.2707266476e+00	 1.6086437614e+00	 1.4348409665e+00
 1.2550450628e+00	 1.6209080463e+00	 1.3949098676e+00
 1.2392548557e+00	 1.6330120879e+00	 1.3567773952e+00
 1.2233584805e+00	 1.6449544691e+00	 1.3227907865e+00
 1.3831832959e+00	 1.5249713791e+00	 1.4193902643e+00
 1.3682646113e+00	 1.5383710673e+00	 1.4244532369e+00
 1.3532203499e+00	 1.5516211303e+00	 1.4213938647e+00
 1.3380527767e+00	 1.5647198132e+00	 1.4109080454e+00
 1.3227641886e+00	 1.5776654063e+00	 1.3939649889e+00
 1.3073569135e+00	 1.5904562459e+00	 1.3717776572e+00
 1.2918333090e+00	 1.6030907154e+00	 1.3457740469e+00
 1.2761957614e+00	 1.6155672454e+00	 1.3175694516e+00
 1.2604466842e+00	 1.6278843150e+00	 1.2889398325e+00
 1.2445885172e+00	 1.6400404515e+00	 1.2617964090e+00
 1.2286237251e+00	 1.6520342318e+00	 1.2381615718e+00
 1.1759712785e+00	 1.5812366048e+00	 6.7549231239e-01
 1.1605936020e+00	 1.5925577705e+00	 7.7176125151e-01
 1.1451186788e+00	 1.6037210169e+00	 8.5359650809e-01
 1.1295489225e+00	 1.6147251331e+00	 9.1934651650e-01
 1.1138867658e+00	 1.6255689568e+00	 9.6743684276e-01
 1.0981346594e+00	 1.6362513750e+00	 1.0022560921e+00
 1.0822950704e+00	 1.6467713242e+00	 1.0328434022e+00
 1.0663704815e+00	 1.6571277905e+00	 1.0566534476e+00
 1.0503633895e+00	 1.6673198101e+00	 1.0708225598e+00
 1.0342763041e+00	 1.6773464695e+00	 1.0724694144e+00
 1.0181117467e+00	 1.6872069052e+00	 1.0587148991e+00
 1.1812365232e+00	 1.5883163675e+00	 8.7573098585e-01
 1.1657899953e+00	 1.5996882221e+00	 9.4579077241e-01
 1.1502457853e+00	 1.6109014504e+00	 1.0033268074e+00
 1.1346063176e+00	 1.6219548359e+00	 1.0467349426e+00
 1.1188740358e+00	 1.6328472113e+00	 1.0745269282e+00
 1.1030514016e+00	 1.6435774585e+00	 1.0875302625e+00
 1.0871408931e+00	 1.6541445093e+00	 1.0967481424e+00
 1.0711450041e+00	 1.6645473452e+00	 1.1016267420e+00
 1.0550662427e+00	 1.6747849982e+00	 1.0994916108e+00
 1.0389071296e+00	 1.6848565504e+00	 1.0876924518e+00
 1.0226701977e+00	 1.6947611348e+00	 1.0636225682e+00
 1.1865017678e+00	 1.5953961302e+00	 1.0433274029e+00
 1.1709863886e+00	 1.6068186737e+00	 1.0888061256e+00
 1.1553728918e+00	 1.6180818838e+00	 1.1238612892e+00
 1.1396637127e+00	 1.6291845387e+00	 1.1469434728e+00
 1.1238613059e+00	 1.6401254658e+00	 1.1566484344e+00
 1.1079681438e+00	 1.6509035420e+00	 1.1520313663e+00
 1.0919867158e+00	 1.6615176944e+00	 1.1426421893e+00
 1.0759195268e+00	 1.6719668999e+00	 1.1314918461e+00
 1.0597690958e+00	 1.6822501862e+00	 1.1160561784e+00
 1.0435379551e+00	 1.6923666314e+00	 1.0938683410e+00
 1.0272286487e+00	 1.7023153645e+00	 1.0625379539e+00
 1.1917670125e+00	 1.6024758929e+00	 1.1785104730e+00
 1.1761827819e+00	 1.6139491253e+00	 1.2016526059e+00
 1.1604999983e+00	 1.6252623173e+00	 1.2165496382e+00
 1.1447211079e+00	 1.6364142416e+00	 1.2217143474e+00
 1.1288485760e+00	 1.6474037203e+00	 1.2158245617e+00
 1.1128848861e+00	 1.6582296256e+00	 1.1977111856e+00
 1.0968325385e+00	 1.6688908795e+00	 1.1726449495e+00
 1.0806940494e+00	 1.6793864546e+00	 1.1483230787e+00
 1.0644719489e+00	 1.6897153742e+00	 1.1224350427e+00
 1.0481687806e+00	 1.6998767124e+00	 1.0926505870e+00
 1.0317870997e+00	 1.7098695942e+00	 1.0567403497e+00
 1.1970322572e+00	 1.6095556556e+00	 1.2815179508e+00
 1.1813791752e+00	 1.6210795769e+00	 1.2851736031e+00
 1.1656271049e+00	 1.6324427508e+00	 1.2827308833e+00
 1.1497785030e+00	 1.6436439444e+00	 1.2727723954e+00
 1.1338358460e+00	 1.6546819748e+00	 1.2540563328e+00
 1.1178016283e+00	 1.6655557091e+00	 1.2255041624e+00
 1.1016783613e+00	 1.6762640646e+00	 1.1888445459e+00
 1.0854685720e+00	 1.6868060093e+00	 1.1541640534e+00
 1.0691748021e+00	 1.6971805623e+00	 1.1205187565e+00
 1.0527996061e+00	 1.7073867934e+00	 1.0856688343e+00
 1.0363455507e+00	 1.7174238239e+00	 1.0474914318e+00
 1.2022975018e+00	 1.6166354183e+00	 1.3525958718e+00
 1.1865755685e+00	 1.6282100286e+00	 1.3402102815e+00
 1.1707542114e+00	 1.6396231842e+00	 1.3237332789e+00
 1.1548358982e+00	 1.6508736472e+00	 1.3018250742e+00
 1.1388231161e+00	 1.6619602293e+00	 1.2733227492e+00
 1.1227183705e+00	 1.6728817926e+00	 1.2372276689e+00
 1.1065241840e+00	 1.6836372497e+00	 1.1932991444e+00
 1.0902430947e+00	 1.6942255640e+00	 1.1510289820e+00
 1.0738776552e+00	 1.7046457503e+00	 1.1121708823e+00
 1.0574304316e+00	 1.7148968744e+00	 1.0745299947e+00
 1.0409040017e+00	 1.7249780536e+00	 1.0360362353e+00
 1.2075627465e+00	 1.6237151810e+00	 1.3919979863e+00
 1.1917719618e+00	 1.6353404802e+00	 1.3676012521e+00
 1.1758813179e+00	 1.6468036177e+00	 1.3408741728e+00
 1.1598932933e+00	 1.6581033501e+00	 1.3105624933e+00
 1.1438103861e+00	 1.6692384838e+00	 1.2755809282e+00
 1.1276351128e+00	 1.6802078761e+00	 1.2350003707e+00
 1.1113700067e+00	 1.6910104348e+00	 1.1880363160e+00
 1.0950176173e+00	 1.7016451188e+00	 1.1409039553e+00
 1.0785805084e+00	 1.7121109383e+00	 1.0992292083e+00
 1.0620612571e+00	 1.7224069553e+00	 1.0608193569e+00
 1.0454624527e+00	 1.7325322833e+00	 1.0236041175e+00
 1.2128279911e+00	 1.6307949437e+00	 1.3999851923e+00
 1.1969683551e+00	 1.6424709318e+00	 1.3681822366e+00
 1.1810084244e+00	 1.6539840511e+00	 1.3354598614e+00
 1.1649506885e+00	 1.6653330529e+00	 1.3006574198e+00
 1.1487976562e+00	 1.6765167384e+00	 1.2627662192e+00
 1.1325518550e+00	 1.6875339596e+00	 1.2209165991e+00
 1.1162158294e+00	 1.6983836199e+00	 1.1743662937e+00
 1.0997921399e+00	 1.7090646735e+00	 1.1257482031e+00
 1.0832833615e+00	 1.7195761264e+00	 1.0835069450e+00
 1.0666920826e+00	 1.7299170363e+00	 1.0461016799e+00
 1.0500209036e+00	 1.7400865129e+00	 1.0114097066e+00
 1.2180932358e+00	 1.6378747064e+00	 1.3768249651e+00
 1.2021647484e+00	 1.6496013834e+00	 1.3427857230e+00
 1.1861355309e+00	 1.6611644846e+00	 1.3087854329e+00
 1.1700080836e+00	 1.6725627557e+00	 1.2737652687e+00
 1.1537849262e+00	 1.6837949929e+00	 1.2367923022e+00
 1.1374685972e+00	 1.6948600432e+00	 1.1970465171e+00
 1.1210616521e+00	 1.7057568050e+00	 1.1538091951e+00
 1.1045666626e+00	 1.7164842282e+00	 1.1074953330e+00
 1.0879862147e+00	 1.7270413144e+00	 1.0667939018e+00
 1.0713229081e+00	 1.7374271173e+00	 1.0319222685e+00
 1.0545793546e+00	 1.7476407426e+00	 1.0006538381e+00
 1.2233584805e+00	 1.6449544691e+00	 1.3227907865e+00
 1.2073611416e+00	 1.6567318350e+00	 1.2922406153e+00
 1.1912626374e+00	 1.6683449181e+00	 1.2621345973e+00
 1.1750654787e+00	 1.6797924585e+00	 1.2315240773e+00
 1.1587721963e+00	 1.6910732474e+00	 1.1995512672e+00
 1.1423853395e+00	 1.7021861267e+00	 1.1654362670e+00
 1.1259074749e+00	 1.7131299901e+00	 1.1284655561e+00
 1.1093411852e+00	 1.7239037829e+00	 1.0880545495e+00
 1.0926890678e+00	 1.7345065024e+00	 1.0508576460e+00
 1.0759537336e+00	 1.7449371983e+00	 1.0198080329e+00
 1.0591378056e+00	 1.7551949723e+00	 9.9252447776e-01
 1.2286237251e+00	 1.6520342318e+00	 1.2381615718e+00
 1.2125575349e+00	 1.6638622866e+00	 1.2173718745e+00
 1.1963897440e+00	 1.6755253515e+00	 1.1967795057e+00
 1.1801228739e+00	 1.6870221614e+00	 1.1755544634e+00
 1.1637594664e+00	 1.6983515019e+00	 1.1529136759e+00
 1.1473020817e+00	 1.7095122102e+00	 1.1281080981e+00
 1.1307532976e+00	 1.7205031752e+00	 1.1004113906e+00
 1.1141157078e+00	 1.7313233376e+00	 1.0691101831e+00
 1.0973919210e+00	 1.7419716905e+00	 1.0374446424e+00
 1.0805845591e+00	 1.7524472793e+00	 1.0112685335e+00
 1.0636962566e+00	 1.7627492020e+00	 9.8819763270e-01
 1.0181117467e+00	 1.6872069052e+00	 1.0587148991e+00
 1.0018722495e+00	 1.6969003048e+00	 1.0375358435e+00
 9.8556035499e-01	 1.7064259082e+00	 1.0187833918e+00
 9.6917861406e-01	 1.7157830063e+00	 1.0024319928e+00
 9.5272958417e-01	 1.7249709404e+00	 9.8850350629e-01
 9.3621582822e-01	 1.7339891027e+00	 9.7707658455e-01
 9.1963991332e-01	 1.7428369360e+00	 9.6829469349e-01
 9.0300440955e-01	 1.7515139334e+00	 9.6237281028e-01
 8.8631188877e-01	 1.7600196386e+00	 9.5960284195e-01
 8.6956492342e-01	 1.7683536454e+00	 9.6035781583e-01
 8.5276608528e-01	 1.7765155975e+00	 9.6509489902e-01
 1.0226701977e+00	 1.6947611348e+00	 1.0636225682e+00
 1.0063579904e+00	 1.7044979353e+00	 1.0353100934e+00
 9.8997306174e-01	 1.7140661883e+00	 1.0122076781e+00
 9.7351797389e-01	 1.7234651814e+00	 9.9390704785e-01
 9.5699529580e-01	 1.7326942532e+00	 9.8003302366e-01
 9.4040760185e-01	 1.7417527931e+00	 9.7025362784e-01
 9.2375747063e-01	 1.7506402413e+00	 9.6428880397e-01
 9.0704748376e-01	 1.7593560887e+00	 9.6191778894e-01
 8.9028022458e-01	 1.7678998770e+00	 9.6298518266e-01
 8.7345827706e-01	 1.7762711981e+00	 9.6740576765e-01
 8.5658422452e-01	 1.7844696941e+00	 9.7516813668e-01
 1.0272286487e+00	 1.7023153645e+00	 1.0625379539e+00
 1.0108437314e+00	 1.7120955658e+00	 1.0297824318e+00
 9.9438576848e-01	 1.7217064683e+00	 1.0043855390e+00
 9.7785733371e-01	 1.7311473565e+00	 9.8563366690e-01
 9.6126100742e-01	 1.7404175660e+00	 9.7283501024e-01
 9.4459937547e-01	 1.7495164834e+00	 9.6533024573e-01
 9.2787502795e-01	 1.7584435465e+00	 9.6250179595e-01
 9.1109055796e-01	 1.7671982440e+00	 9.6378171841e-01
 8.9424856039e-01	 1.7757801154e+00	 9.6865826648e-01
 8.7735163071e-01	 1.7841887508e+00	 9.7668117594e-01
 8.6040236375e-01	 1.7924237908e+00	 9.8746573710e-01
 1.0317870997e+00	 1.7098695942e+00	 1.0567403497e+00
 1.0153294723e+00	 1.7196931963e+00	 1.0218240776e+00
 9.9879847523e-01	 1.7293467484e+00	 9.9582000135e-01
 9.8219669353e-01	 1.7388295316e+00	 9.7778542679e-01
 9.6552671904e-01	 1.7481408788e+00	 9.6679117599e-01
 9.4879114909e-01	 1.7572801737e+00	 9.6193268749e-01
 9.3199258526e-01	 1.7662468518e+00	 9.6233967053e-01
 9.1513363217e-01	 1.7750403993e+00	 9.6718435436e-01
 8.9821689620e-01	 1.7836603537e+00	 9.7568838130e-01
 8.8124498436e-01	 1.7921063035e+00	 9.8712839897e-01
 8.6422050298e-01	 1.8003778875e+00	 1.0008404138e+00
 1.0363455507e+00	 1.7174238239e+00	 1.0474914318e+00
 1.0198152133e+00	 1.7272908268e+00	 1.0122954324e+00
 1.0032111820e+00	 1.7369870284e+00	 9.8700933743e-01
 9.8653605336e-01	 1.7465117068e+00	 9.7053649783e-01
 9.6979243067e-01	 1.7558641916e+00	 9.6178848030e-01
 9.5298292272e-01	 1.7650438641e+00	 9.5969643938e-01
 9.3611014258e-01	 1.7740501570e+00	 9.6322100888e-01
 9.1917670637e-01	 1.7828825546e+00	 9.7136075565e-01
 9.0218523201e-01	 1.7915405921e+00	 9.8315924617e-01
 8.8513833800e-01	 1.8000238562e+00	 9.9771078412e-01
 8.6803864221e-01	 1.8083319842e+00	 1.0141648829e+00
 1.0409040017e+00	 1.7249780536e+00	 1.0360362353e+00
 1.0243009542e+00	 1.7348884573e+00	 1.0020468932e+00
 1.0076238887e+00	 1.7446273085e+00	 9.7844772918e-01
 9.9087541318e-01	 1.7541938819e+00	 9.6406217382e-01
 9.7405814229e-01	 1.7635875044e+00	 9.5771954233e-01
 9.5717469634e-01	 1.7728075544e+00	 9.5826652927e-01
 9.4022769989e-01	 1.7818534623e+00	 9.6457718478e-01
 9.2321978058e-01	 1.7907247099e+00	 9.7556141761e-01
 9.0615356782e-01	 1.7994208305e+00	 9.9017207776e-01
 8.8903169165e-01	 1.8079414089e+00	 1.0074106794e+00
 8.7185678144e-01	 1.8162860809e+00	 1.0263318310e+00
 1.0454624527e+00	 1.7325322833e+00	 1.0236041175e+00
 1.0287866951e+00	 1.7424860878e+00	 9.9191965551e-01
 1.0120365955e+00	 1.7522675885e+00	 9.7062592585e-01
 9.9521477300e-01	 1.7618760570e+00	 9.5853939907e-01
 9.7832385392e-01	 1.7713108171e+00	 9.5448305146e-01
 9.6136646996e-01	 1.7805712447e+00	 9.5729783398e-01
 9.4434525721e-01	 1.7896567675e+00	 9.6585258175e-01
 9.2726285478e-01	 1.7985668651e+00	 9.7905241180e-01
 9.1012190363e-01	 1.8073010689e+00	 9.9584566485e-01
 8.9292504530e-01	 1.8158589616e+00	 1.0152294545e+00
 8.7567492067e-01	 1.8242401776e+00	 1.0362538941e+00
 1.0500209036e+00	 1.7400865129e+00	 1.0114097066e+00
 1.0332724361e+00	 1.7500837184e+00	 9.8274650630e-01
 1.0164493022e+00	 1.7599078685e+00	 9.6403189571e-01
 9.9955413283e-01	 1.7695582321e+00	 9.5414729268e-01
 9.8258956554e-01	 1.7790341299e+00	 9.5198417764e-01
 9.6555824359e-01	 1.7883349351e+00	 9.5645538898e-01
 9.4846281452e-01	 1.7974600728e+00	 9.6650481491e-01
 9.3130592898e-01	 1.8064090204e+00	 9.8111553215e-01
 9.1409023944e-01	 1.8151813072e+00	 9.9931645062e-01
 8.9681839894e-01	 1.8237765143e+00	 1.0201875305e+00
 8.7949305990e-01	 1.8321942743e+00	 1.0428636455e+00
 1.0545793546e+00	 1.7476407426e+00	 1.0006538381e+00
 1.0377581770e+00	 1.7576813489e+00	 9.7535260803e-01
 1.0208620090e+00	 1.7675481486e+00	 9.5915147189e-01
 1.0038934927e+00	 1.7772404072e+00	 9.5106767001e-01
 9.8685527717e-01	 1.7867574427e+00	 9.5013498179e-01
 9.6975001721e-01	 1.7960986254e+00	 9.5541470050e-01
 9.5258037184e-01	 1.8052633781e+00	 9.6600495718e-01
 9.3534900319e-01	 1.8142511757e+00	 9.8104844728e-01
 9.1805857525e-01	 1.8230615456e+00	 9.9973862256e-01
 9.0071175259e-01	 1.8316940670e+00	 1.0213244184e+00
 8.8331119913e-01	 1.8401483710e+00	 1.0451135938e+00
 1.0591378056e+00	 1.7551949723e+00	 9.9252447776e-01
 1.0422439180e+00	 1.7652789794e+00	 9.7055627346e-01
 1.0252747157e+00	 1.7751884286e+00	 9.5646899257e-01
 1.0082328525e+00	 1.7849225824e+00	 9.4948556151e-01
 9.9112098879e-01	 1.7944807555e+00	 9.4885482620e-01
 9.7394179083e-01	 1.8038623158e+00	 9.5386205995e-01
 9.5669792915e-01	 1.8130666833e+00	 9.6383776983e-01
 9.3939207740e-01	 1.8220933310e+00	 9.7816485875e-01
 9.2202691106e-01	 1.8309417840e+00	 9.9628420972e-01
 9.0460510624e-01	 1.8396116197e+00	 1.0176987661e+00
 8.8712933836e-01	 1.8481024677e+00	 1.0419761897e+00
 1.0636962566e+00	 1.7627492020e+00	 9.8819763270e-01
 1.0467296589e+00	 1.7728766099e+00	 9.6916973171e-01
 1.0296874225e+00	 1.7828287087e+00	 9.5646793564e-01
 1.0125722123e+00	 1.7926047575e+00	 9.4958972893e-01
 9.9538670041e-01	 1.8022040683e+00	 9.4807078484e-01
 9.7813356446e-01	 1.8116260061e+00	 9.5149486057e-01
 9.6081548646e-01	 1.8208699886e+00	 9.5950193716e-01
 9.4343515160e-01	 1.8299354863e+00	 9.7179466522e-01
 9.2599524687e-01	 1.8388220224e+00	 9.8814318711e-01
 9.0849845989e-01	 1.8475291724e+00	 1.0083884138e+00
 8.9094747759e-01	 1.8560565644e+00	 1.0324473147e+00
 8.5276608528e-01	 1.7765155975e+00	 9.6509489902e-01
 8.3591507583e-01	 1.7845065320e+00	 9.7451717610e-01
 8.1901731432e-01	 1.7923247887e+00	 9.8842804741e-01
 8.0207536413e-01	 1.7999701588e+00	 1.0060135754e+00
 7.8509178342e-01	 1.8074424822e+00	 1.0264752587e+00
 7.6806912395e-01	 1.8147416478e+00	 1.0490311261e+00
 7.5100993004e-01	 1.8218675923e+00	 1.0729161414e+00
 7.3391673744e-01	 1.8288203008e+00	 1.0972984364e+00
 7.1679207226e-01	 1.8355998053e+00	 1.1208077786e+00
 6.9963844990e-01	 1.8422061850e+00	 1.1429485354e+00
 6.8245837404e-01	 1.8486395656e+00	 1.1634442157e+00
 8.5658422452e-01	 1.7844696941e+00	 9.7516813668e-01
 8.3965776706e-01	 1.7924964070e+00	 9.8613617740e-01
 8.2268434822e-01	 1.8003496688e+00	 9.9985370315e-01
 8.0566654285e-01	 1.8080292700e+00	 1.0158946872e+00
 7.8860692056e-01	 1.8155350497e+00	 1.0338388950e+00
 7.7150804454e-01	 1.8228668962e+00	 1.0532723236e+00
 7.5437247051e-01	 1.8300247461e+00	 1.0737869595e+00
 7.3720274557e-01	 1.8370085843e+00	 1.0949623810e+00
 7.2000140712e-01	 1.8438184431e+00	 1.1159454832e+00
 7.0277098185e-01	 1.8504544020e+00	 1.1364538941e+00
 6.8551398464e-01	 1.8569165872e+00	 1.1564638012e+00
 8.6040236375e-01	 1.7924237908e+00	 9.8746573710e-01
 8.4340045828e-01	 1.8004862819e+00	 1.0001456220e+00
 8.2635138211e-01	 1.8083745489e+00	 1.0139983512e+00
 8.0925772156e-01	 1.8160883811e+00	 1.0289113737e+00
 7.9212205770e-01	 1.8236276171e+00	 1.0447714415e+00
 7.7494696514e-01	 1.8309921446e+00	 1.0614644361e+00
 7.5773501099e-01	 1.8381819000e+00	 1.0788745177e+00
 7.4048875370e-01	 1.8451968679e+00	 1.0968826251e+00
 7.2321074199e-01	 1.8520370810e+00	 1.1151060462e+00
 7.0590351381e-01	 1.8587026190e+00	 1.1333716121e+00
 6.8856959524e-01	 1.8651936087e+00	 1.1518812664e+00
 8.6422050298e-01	 1.8003778875e+00	 1.0008404138e+00
 8.4714314951e-01	 1.8084761569e+00	 1.0153368890e+00
 8.3001841600e-01	 1.8163994290e+00	 1.0296239405e+00
 8.1284890028e-01	 1.8241474923e+00	 1.0438290891e+00
 7.9563719483e-01	 1.8317201845e+00	 1.0580757957e+00
 7.7838588573e-01	 1.8391173930e+00	 1.0724827175e+00
 7.6109755146e-01	 1.8463390538e+00	 1.0871622838e+00
 7.4377476183e-01	 1.8533851515e+00	 1.1022153447e+00
 7.2642007686e-01	 1.8602557188e+00	 1.1175322210e+00
 7.0903604576e-01	 1.8669508360e+00	 1.1331648776e+00
 6.9162520584e-01	 1.8734706302e+00	 1.1495547943e+00
 8.6803864221e-01	 1.8083319842e+00	 1.0141648829e+00
 8.5088584073e-01	 1.8164660319e+00	 1.0305218315e+00
 8.3368544990e-01	 1.8244243091e+00	 1.0455127999e+00
 8.1644007899e-01	 1.8322066034e+00	 1.0594329929e+00
 7.9915233197e-01	 1.8398127520e+00	 1.0725732918e+00
 7.8182480633e-01	 1.8472426414e+00	 1.0852189810e+00
 7.6446009194e-01	 1.8544962076e+00	 1.0976387431e+00
 7.4706076995e-01	 1.8615734351e+00	 1.1100041444e+00
 7.2962941173e-01	 1.8684743567e+00	 1.1225160037e+00
 7.1216857772e-01	 1.8751990530e+00	 1.1354521016e+00
 6.9468081645e-01	 1.8817476518e+00	 1.1493627776e+00
 8.7185678144e-01	 1.8162860809e+00	 1.0263318310e+00
 8.5462853196e-01	 1.8244559068e+00	 1.0445327134e+00
 8.3735248379e-01	 1.8324491893e+00	 1.0604675552e+00
 8.2003125771e-01	 1.8402657146e+00	 1.0745278594e+00
 8.0266746911e-01	 1.8479053194e+00	 1.0871036151e+00
 7.8526372693e-01	 1.8553678898e+00	 1.0985678537e+00
 7.6782263241e-01	 1.8626533614e+00	 1.1092125274e+00
 7.5034677808e-01	 1.8697617187e+00	 1.1193970592e+00
 7.3283874660e-01	 1.8766929945e+00	 1.1294720201e+00
 7.1530110968e-01	 1.8834472699e+00	 1.1398627901e+00
 6.9773642705e-01	 1.8900246733e+00	 1.1511866762e+00
 8.7567492067e-01	 1.8242401776e+00	 1.0362538941e+00
 8.5837122318e-01	 1.8324457818e+00	 1.0562221566e+00
 8.4101951769e-01	 1.8404740694e+00	 1.0733110563e+00
 8.2362243642e-01	 1.8483248258e+00	 1.0879379983e+00
 8.0618260625e-01	 1.8559978868e+00	 1.1005095909e+00
 7.8870264752e-01	 1.8634931382e+00	 1.1113748708e+00
 7.7118517289e-01	 1.8708105152e+00	 1.1209472732e+00
 7.5363278621e-01	 1.8779500023e+00	 1.1296347497e+00
 7.3604808146e-01	 1.8849116324e+00	 1.1378265728e+00
 7.1843364163e-01	 1.8916954869e+00	 1.1460341786e+00
 7.0079203765e-01	 1.8983016948e+00	 1.1549110888e+00
 8.7949305990e-01	 1.8321942743e+00	 1.0428636455e+00
 8.6211391441e-01	 1.8404356568e+00	 1.0644630980e+00
 8.4468655158e-01	 1.8484989495e+00	 1.0828863163e+00
 8.2721361514e-01	 1.8563839369e+00	 1.0984942892e+00
 8.0969774340e-01	 1.8640904543e+00	 1.1116182977e+00
 7.9214156812e-01	 1.8716183866e+00	 1.1226481470e+00
 7.7454771336e-01	 1.8789676691e+00	 1.1319746363e+00
 7.5691879434e-01	 1.8861382859e+00	 1.1399767658e+00
 7.3925741633e-01	 1.8931302703e+00	 1.1470175457e+00
 7.2156617359e-01	 1.8999437039e+00	 1.1536112139e+00
 7.0384764826e-01	 1.9065787164e+00	 1.1604238255e+00
 8.8331119913e-01	 1.8401483710e+00	 1.0451135938e+00
 8.6585660563e-01	 1.8484255317e+00	 1.0681487579e+00
 8.4835358548e-01	 1.8565238296e+00	 1.0880486397e+00
 8.3080479385e-01	 1.8644430481e+00	 1.1050423034e+00
 8.1321288054e-01	 1.8721830217e+00	 1.1194108246e+00
 7.9558048872e-01	 1.8797436350e+00	 1.1314473947e+00
 7.7791025384e-01	 1.8871248229e+00	 1.1414469970e+00
 7.6020480247e-01	 1.8943265694e+00	 1.1497011244e+00
 7.4246675120e-01	 1.9013489081e+00	 1.1564929407e+00
 7.2469870555e-01	 1.9081919209e+00	 1.1622465385e+00
 7.0690325886e-01	 1.9148557379e+00	 1.1676159797e+00
 8.8712933836e-01	 1.8481024677e+00	 1.0419761897e+00
 8.6959929686e-01	 1.8564154067e+00	 1.0661909359e+00
 8.5202061937e-01	 1.8645487097e+00	 1.0876936061e+00
 8.3439597257e-01	 1.8725021593e+00	 1.1065642687e+00
 8.1672801768e-01	 1.8802755891e+00	 1.1229093951e+00
 7.9901940931e-01	 1.8878688835e+00	 1.1368542034e+00
 7.8127279431e-01	 1.8952819767e+00	 1.1485369868e+00
 7.6349081060e-01	 1.9025148530e+00	 1.1581038934e+00
 7.4567608607e-01	 1.9095675460e+00	 1.1657041373e+00
 7.2783123751e-01	 1.9164401379e+00	 1.1716004774e+00
 7.0995886946e-01	 1.9231327594e+00	 1.1763820021e+00
 8.9094747759e-01	 1.8560565644e+00	 1.0324473147e+00
 8.7334198809e-01	 1.8644052817e+00	 1.0575630588e+00
 8.5568765327e-01	 1.8725735898e+00	 1.0808321063e+00
 8.3798715128e-01	 1.8805612704e+00	 1.1020768721e+00
 8.2024315482e-01	 1.8883681565e+00	 1.1211586329e+00
 8.0245832991e-01	 1.8959941319e+00	 1.1379715294e+00
 7.8463533479e-01	 1.9034391305e+00	 1.1524370222e+00
 7.6677681873e-01	 1.9107031366e+00	 1.1644987823e+00
 7.4888542094e-01	 1.9177861838e+00	 1.1741179959e+00
 7.3096376946e-01	 1.9246883549e+00	 1.1813410283e+00
 7.1301448007e-01	 1.9314097810e+00	 1.1866197728e+00
 6.8245837404e-01	 1.8486395656e+00	 1.1634442157e+00
 6.6525726174e-01	 1.8548990690e+00	 1.1788322826e+00
 6.4803467015e-01	 1.8609860192e+00	 1.1862276350e+00
 6.3079305973e-01	 1.8669006767e+00	 1.1863007571e+00
 6.1353487531e-01	 1.8726433462e+00	 1.1797157148e+00
 5.9626254515e-01	 1.8782143759e+00	 1.1671113901e+00
 5.7897848006e-01	 1.8836141573e+00	 1.1491000134e+00
 5.6168507249e-01	 1.8888431238e+00	 1.1262657886e+00
 5.4438469569e-01	 1.8939017510e+00	 1.0991636198e+00
 5.2707970286e-01	 1.8987905551e+00	 1.0683179439e+00
 5.0977242635e-01	 1.9035100927e+00	 1.0342216736e+00
 6.8551398464e-01	 1.8569165872e+00	 1.1564638012e+00
 6.6823585680e-01	 1.8632041166e+00	 1.1727044597e+00
 6.5093615350e-01	 1.8693183203e+00	 1.1821767887e+00
 6.3361734621e-01	 1.8752594598e+00	 1.1851604845e+00
 6.1628189072e-01	 1.8810278413e+00	 1.1819327722e+00
 5.9893222615e-01	 1.8866238145e+00	 1.1727669483e+00
 5.8157077411e-01	 1.8920477726e+00	 1.1579309834e+00
 5.6419993776e-01	 1.8973001511e+00	 1.1376861957e+00
 5.4682210098e-01	 1.9023814275e+00	 1.1122860024e+00
 5.2943962749e-01	 1.9072921205e+00	 1.0819747545e+00
 5.1205486010e-01	 1.9120327892e+00	 1.0469866609e+00
 6.8856959524e-01	 1.8651936087e+00	 1.1518812664e+00
 6.7121445186e-01	 1.8715091642e+00	 1.1678407200e+00
 6.5383763685e-01	 1.8776506213e+00	 1.1782452975e+00
 6.3644163270e-01	 1.8836182429e+00	 1.1830302562e+00
 6.1902890613e-01	 1.8894123363e+00	 1.1821456988e+00
 6.0160190715e-01	 1.8950332530e+00	 1.1755551958e+00
 5.8416306816e-01	 1.9004813879e+00	 1.1632344498e+00
 5.6671480303e-01	 1.9057571784e+00	 1.1451700125e+00
 5.4925950626e-01	 1.9108611041e+00	 1.1213580618e+00
 5.3179955213e-01	 1.9157936860e+00	 1.0918032466e+00
 5.1433729386e-01	 1.9205554858e+00	 1.0565176027e+00
 6.9162520584e-01	 1.8734706302e+00	 1.1495547943e+00
 6.7419304692e-01	 1.8798142117e+00	 1.1643760621e+00
 6.5673912020e-01	 1.8859829223e+00	 1.1747848853e+00
 6.3926591918e-01	 1.8919770259e+00	 1.1804349937e+00
 6.2177592154e-01	 1.8977968314e+00	 1.1810084691e+00
 6.0427158815e-01	 1.9034426916e+00	 1.1762144329e+00
 5.8675536221e-01	 1.9089150032e+00	 1.1657877619e+00
 5.6922966830e-01	 1.9142142056e+00	 1.1494878444e+00
 5.5169691155e-01	 1.9193407806e+00	 1.1270973853e+00
 5.3415947676e-01	 1.9242952515e+00	 1.0984212659e+00
 5.1661972762e-01	 1.9290781823e+00	 1.0632854650e+00
 6.9468081645e-01	 1.8817476518e+00	 1.1493627776e+00
 6.7717164198e-01	 1.8881192593e+00	 1.1624437361e+00
 6.5964060354e-01	 1.8943152234e+00	 1.1721415416e+00
 6.4209020566e-01	 1.9003358090e+00	 1.1778906691e+00
 6.2452293695e-01	 1.9061813264e+00	 1.1791636761e+00
 6.0694126915e-01	 1.9118521302e+00	 1.1754699395e+00
 5.8934765626e-01	 1.9173486185e+00	 1.1663544131e+00
 5.7174453357e-01	 1.9226712329e+00	 1.1513964197e+00
 5.5413431683e-01	 1.9278204572e+00	 1.1302084838e+00
 5.3651940139e-01	 1.9327968170e+00	 1.1024352140e+00
 5.1890216138e-01	 1.9376008788e+00	 1.0677522398e+00
 6.9773642705e-01	 1.8900246733e+00	 1.1511866762e+00
 6.8015023704e-01	 1.8964243069e+00	 1.1621754100e+00
 6.6254208689e-01	 1.9026475244e+00	 1.1706557668e+00
 6.4491449215e-01	 1.9086945921e+00	 1.1759046128e+00
 6.2726995236e-01	 1.9145658215e+00	 1.1772428839e+00
 6.0961095015e-01	 1.9202615687e+00	 1.1740343555e+00
 5.9193995031e-01	 1.9257822338e+00	 1.1656844330e+00
 5.7425939884e-01	 1.9311282602e+00	 1.1516389742e+00
 5.5657172212e-01	 1.9363001337e+00	 1.1313831522e+00
 5.3887932603e-01	 1.9412983825e+00	 1.1044403655e+00
 5.2118459513e-01	 1.9461235754e+00	 1.0703712022e+00
 7.0079203765e-01	 1.8983016948e+00	 1.1549110888e+00
 6.8312883210e-01	 1.9047293545e+00	 1.1637013344e+00
 6.6544357024e-01	 1.9109798254e+00	 1.1706628132e+00
 6.4773877863e-01	 1.9170533751e+00	 1.1749758148e+00
 6.3001696777e-01	 1.9229503165e+00	 1.1758669728e+00
 6.1228063115e-01	 1.9286710073e+00	 1.1726080536e+00
 5.9453224436e-01	 1.9342158491e+00	 1.1645147694e+00
 5.7677426411e-01	 1.9395852874e+00	 1.1509456270e+00
 5.5900912740e-01	 1.9447798103e+00	 1.1313008208e+00
 5.4123925066e-01	 1.9497999479e+00	 1.1050211780e+00
 5.2346702889e-01	 1.9546462719e+00	 1.0715871607e+00
 7.0384764826e-01	 1.9065787164e+00	 1.1604238255e+00
 6.8610742717e-01	 1.9130344020e+00	 1.1671505043e+00
 6.6834505359e-01	 1.9193121264e+00	 1.1724929221e+00
 6.5056306511e-01	 1.9254121582e+00	 1.1755952201e+00
 6.3276398318e-01	 1.9313348116e+00	 1.1756464776e+00
 6.1495031215e-01	 1.9370804458e+00	 1.1718795037e+00
 5.9712453841e-01	 1.9426494644e+00	 1.1635696633e+00
 5.7928912938e-01	 1.9480423147e+00	 1.1500337478e+00
 5.6144653269e-01	 1.9532594868e+00	 1.1306288992e+00
 5.4359917529e-01	 1.9583015134e+00	 1.1047515956e+00
 5.2574946265e-01	 1.9631689684e+00	 1.0718367034e+00
 7.0690325886e-01	 1.9148557379e+00	 1.1676159797e+00
 6.8908602223e-01	 1.9213394496e+00	 1.1726508196e+00
 6.7124653694e-01	 1.9276444275e+00	 1.1764715559e+00
 6.5338735160e-01	 1.9337709413e+00	 1.1782460183e+00
 6.3551099859e-01	 1.9397193067e+00	 1.1771819183e+00
 6.1761999316e-01	 1.9454898844e+00	 1.1725256292e+00
 5.9971683246e-01	 1.9510830797e+00	 1.1635610147e+00
 5.8180399465e-01	 1.9564993420e+00	 1.1496083170e+00
 5.6388393797e-01	 1.9617391634e+00	 1.1300231129e+00
 5.4595909993e-01	 1.9668030789e+00	 1.1041953458e+00
 5.2803189640e-01	 1.9716916650e+00	 1.0715484380e+00
 7.0995886946e-01	 1.9231327594e+00	 1.1763820021e+00
 6.9206461729e-01	 1.9296444972e+00	 1.1803292434e+00
 6.7414802029e-01	 1.9359767285e+00	 1.1829196275e+00
 6.5621163808e-01	 1.9421297244e+00	 1.1834039283e+00
 6.3825801400e-01	 1.9481038017e+00	 1.1810641253e+00
 6.2028967416e-01	 1.9538993229e+00	 1.1752121568e+00
 6.0230912651e-01	 1.9595166950e+00	 1.1651887410e+00
 5.8431885992e-01	 1.9649563692e+00	 1.1503622769e+00
 5.6632134326e-01	 1.9702188399e+00	 1.1301278327e+00
 5.4831902456e-01	 1.9753046444e+00	 1.1039062301e+00
 5.3031433016e-01	 1.9802143615e+00	 1.0711432278e+00
 7.1301448007e-01	 1.9314097810e+00	 1.1866197728e+00
 6.9504321235e-01	 1.9379495447e+00	 1.1903119581e+00
 6.7704950364e-01	 1.9443090295e+00	 1.1921537248e+00
 6.5903592457e-01	 1.9504885074e+00	 1.1915374764e+00
 6.4100502941e-01	 1.9564882968e+00	 1.1878745565e+00
 6.2295935516e-01	 1.9623087615e+00	 1.1805939582e+00
 6.0490142056e-01	 1.9679503103e+00	 1.1691411284e+00
 5.8683372519e-01	 1.9734133965e+00	 1.1529768767e+00
 5.6875874854e-01	 1.9786985165e+00	 1.1315763968e+00
 5.5067894919e-01	 1.9838062098e+00	 1.1044284084e+00
 5.3259676391e-01	 1.9887370581e+00	 1.0710344225e+00
 5.0977242635e-01	 1.9035100927e+00	 1.0342216736e+00
 4.9246517711e-01	 1.9080609604e+00	 1.0022691466e+00
 4.7516024463e-01	 1.9124437954e+00	 9.7716920632e-01
 4.5785989543e-01	 1.9166592732e+00	 9.5840203546e-01
 4.4056637214e-01	 1.9207081067e+00	 9.4550010645e-01
 4.2328189282e-01	 1.9245910451e+00	 9.3804731678e-01
 4.0600865027e-01	 1.9283088737e+00	 9.3567811908e-01
 3.8874881144e-01	 1.9318624125e+00	 9.3807664342e-01
 3.7150451682e-01	 1.9352525155e+00	 9.4497580895e-01
 3.5427787987e-01	 1.9384800701e+00	 9.5600121341e-01
 3.3707098643e-01	 1.9415459962e+00	 9.7060938072e-01
 5.1205486010e-01	 1.9120327892e+00	 1.0469866609e+00
 4.9467012011e-01	 1.9166040328e+00	 1.0130098550e+00
 4.7728770725e-01	 1.9210064914e+00	 9.8538253893e-01
 4.5990989819e-01	 1.9252408433e+00	 9.6383780318e-01
 4.4253894561e-01	 1.9293078049e+00	 9.4815060582e-01
 4.2517707748e-01	 1.9332081286e+00	 9.3813681299e-01
 4.0782649643e-01	 1.9369426033e+00	 9.3365225521e-01
 3.9048937912e-01	 1.9405120525e+00	 9.3459179715e-01
 3.7316787562e-01	 1.9439173342e+00	 9.4088841694e-01
 3.5586410884e-01	 1.9471593398e+00	 9.5240148570e-01
 3.3858017398e-01	 1.9502389931e+00	 9.6876593261e-01
 5.1433729386e-01	 1.9205554858e+00	 1.0565176027e+00
 4.9687506312e-01	 1.9251471052e+00	 1.0213405492e+00
 4.7941516987e-01	 1.9295691873e+00	 9.9205112746e-01
 4.6195990095e-01	 1.9338224135e+00	 9.6860101233e-01
 4.4451151907e-01	 1.9379075031e+00	 9.5097472169e-01
 4.2707226214e-01	 1.9418252122e+00	 9.3918857404e-01
 4.0964434260e-01	 1.9455763329e+00	 9.3328968174e-01
 3.9222994681e-01	 1.9491616925e+00	 9.3335497670e-01
 3.7483123442e-01	 1.9525821529e+00	 9.3949026437e-01
 3.5745033782e-01	 1.9558386094e+00	 9.5175297432e-01
 3.4008936153e-01	 1.9589319900e+00	 9.6994496592e-01
 5.1661972762e-01	 1.9290781823e+00	 1.0632854650e+00
 4.9908000612e-01	 1.9336901776e+00	 1.0275689242e+00
 4.8154263249e-01	 1.9381318832e+00	 9.9733426147e-01
 4.6400990371e-01	 1.9424039836e+00	 9.7271777439e-01
 4.4648409254e-01	 1.9465072013e+00	 9.5388096189e-01
 4.2896744680e-01	 1.9504422957e+00	 9.4100941094e-01
 4.1146218876e-01	 1.9542100624e+00	 9.3431173698e-01
 3.9397051449e-01	 1.9578113326e+00	 9.3401857434e-01
 3.7649459322e-01	 1.9612469717e+00	 9.4038161176e-01
 3.5903656679e-01	 1.9645178791e+00	 9.5362238911e-01
 3.4159854908e-01	 1.9676249869e+00	 9.7369552840e-01
 5.1890216138e-01	 1.9376008788e+00	 1.0677522398e+00
 5.0128494912e-01	 1.9422332501e+00	 1.0319964698e+00
 4.8367009512e-01	 1.9466945791e+00	 1.0013875420e+00
 4.6605990648e-01	 1.9509855537e+00	 9.7621277119e-01
 4.4845666600e-01	 1.9551068995e+00	 9.5677839978e-01
 4.3086263145e-01	 1.9590593792e+00	 9.4340842582e-01
 4.1328003493e-01	 1.9628437920e+00	 9.3644350096e-01
 3.9571108217e-01	 1.9664609726e+00	 9.3623989428e-01
 3.7815795202e-01	 1.9699117904e+00	 9.4316851631e-01
 3.6062279577e-01	 1.9731971487e+00	 9.5758272995e-01
 3.4310773663e-01	 1.9763179838e+00	 9.7957328618e-01
 5.2118459513e-01	 1.9461235754e+00	 1.0703712022e+00
 5.0348989212e-01	 1.9507763225e+00	 1.0349186602e+00
 4.8579755774e-01	 1.9552572751e+00	 1.0043630100e+00
 4.6810990924e-01	 1.9595671239e+00	 9.7910932809e-01
 4.5042923946e-01	 1.9637065977e+00	 9.5957669830e-01
 4.3275781611e-01	 1.9676764627e+00	 9.4619699316e-01
 4.1509788109e-01	 1.9714775216e+00	 9.3941374015e-01
 3.9745164986e-01	 1.9751106126e+00	 9.3968106736e-01
 3.7982131082e-01	 1.9785766092e+00	 9.4746272306e-01
 3.6220902474e-01	 1.9818764184e+00	 9.6321315977e-01
 3.4461692418e-01	 1.9850109807e+00	 9.8714038733e-01
 5.2346702889e-01	 1.9546462719e+00	 1.0715871607e+00
 5.0569483513e-01	 1.9593193949e+00	 1.0366251390e+00
 4.8792502036e-01	 1.9638199710e+00	 1.0064092720e+00
 4.7015991200e-01	 1.9681486940e+00	 9.8142948629e-01
 4.5240181292e-01	 1.9723062959e+00	 9.6218613439e-01
 4.3465300077e-01	 1.9762935462e+00	 9.4918874242e-01
 4.1691572725e-01	 1.9801112511e+00	 9.4295485438e-01
 3.9919221754e-01	 1.9837602527e+00	 9.4400896856e-01
 3.8148466962e-01	 1.9872414279e+00	 9.5288155947e-01
 3.6379525372e-01	 1.9905556880e+00	 9.7009888161e-01
 3.4612611173e-01	 1.9937039777e+00	 9.9596532964e-01
 5.2574946265e-01	 1.9631689684e+00	 1.0718367034e+00
 5.0789977813e-01	 1.9678624673e+00	 1.0373999021e+00
 4.9005248298e-01	 1.9723826669e+00	 1.0076716248e+00
 4.7220991476e-01	 1.9767302641e+00	 9.8319407421e-01
 4.5437438639e-01	 1.9809059941e+00	 9.6451762368e-01
 4.3654818543e-01	 1.9849106297e+00	 9.5219954186e-01
 4.1873357342e-01	 1.9887449807e+00	 9.4680282596e-01
 4.0093278522e-01	 1.9924098927e+00	 9.4889513746e-01
 3.8314802842e-01	 1.9959062466e+00	 9.5904783350e-01
 3.6538148269e-01	 1.9992349577e+00	 9.7783101930e-01
 3.4763529928e-01	 2.0023969746e+00	 1.0056228323e+00
 5.2803189640e-01	 1.9716916650e+00	 1.0715484380e+00
 5.1010472113e-01	 1.9764055397e+00	 1.0375214758e+00
 4.9217994560e-01	 1.9809453628e+00	 1.0082921763e+00
 4.7425991752e-01	 1.9853118343e+00	 9.8442277809e-01
 4.5634695985e-01	 1.9895056923e+00	 9.6648274552e-01
 4.3844337008e-01	 1.9935277133e+00	 9.5504748378e-01
 4.2055141958e-01	 1.9973787103e+00	 9.5069717088e-01
 4.0267335290e-01	 2.0010595327e+00	 9.5401570152e-01
 3.8481138722e-01	 2.0045710654e+00	 9.6558973489e-01
 3.6696771167e-01	 2.0079142273e+00	 9.8600650189e-01
 3.4914448683e-01	 2.0110899715e+00	 1.0156937113e+00
 5.3031433016e-01	 1.9802143615e+00	 1.0711432278e+00
 5.1230966413e-01	 1.9849486121e+00	 1.0372630916e+00
 4.9430740822e-01	 1.9895080588e+00	 1.0084099661e+00
 4.7630992028e-01	 1.9938934044e+00	 9.8513421176e-01
 4.5831953331e-01	 1.9981053905e+00	 9.6799376828e-01
 4.4033855474e-01	 2.0021447968e+00	 9.5755287091e-01
 4.2236926574e-01	 2.0060124398e+00	 9.5438089209e-01
 4.0441392058e-01	 2.0097091728e+00	 9.5905130196e-01
 3.8647474601e-01	 2.0132358841e+00	 9.7214073970e-01
 3.6855394064e-01	 2.0165934970e+00	 9.9422795159e-01
 3.5065367438e-01	 2.0197829684e+00	 1.0257647591e+00
 5.3259676391e-01	 1.9887370581e+00	 1.0710344225e+00
 5.1451460713e-01	 1.9934916845e+00	 1.0368928583e+00
 4.9643487084e-01	 1.9980707547e+00	 1.0081610825e+00
 4.7835992304e-01	 2.0024749745e+00	 9.8534598558e-01
 4.6029210677e-01	 2.0067050887e+00	 9.6896367487e-01
 4.4223373939e-01	 2.0107618803e+00	 9.5953820405e-01
 4.2418711190e-01	 2.0146461694e+00	 9.5760043474e-01
 4.0615448827e-01	 2.0183588128e+00	 9.6368702232e-01
 3.8813810481e-01	 2.0219007028e+00	 9.7833951795e-01
 3.7014016961e-01	 2.0252727667e+00	 1.0021035751e+00
 3.5216286193e-01	 2.0284759653e+00	 1.0354286268e+00
 3.3707098643e-01	 1.9415459962e+00	 9.7060938072e-01
 3.1988297537e-01	 1.9444517253e+00	 9.8558092528e-01
 3.0271880770e-01	 1.9471977040e+00	 9.9843657448e-01
 2.8558048894e-01	 1.9497849434e+00	 1.0098166478e+00
 2.6846999499e-01	 1.9522144839e+00	 1.0203031956e+00
 2.5138927171e-01	 1.9544873939e+00	 1.0304247381e+00
 2.3434023454e-01	 1.9566047694e+00	 1.0406605646e+00
 2.1732476813e-01	 1.9585677328e+00	 1.0514446288e+00
 2.0034472601e-01	 1.9603774320e+00	 1.0631690787e+00
 1.8340193024e-01	 1.9620350399e+00	 1.0761874546e+00
 1.6649817121e-01	 1.9635417532e+00	 1.0908175918e+00
 3.3858017398e-01	 1.9502389931e+00	 9.6876593261e-01
 3.2131520604e-01	 1.9531577322e+00	 9.8632588554e-01
 3.0407418824e-01	 1.9559160056e+00	 1.0019397498e+00
 2.8685913508e-01	 1.9585148290e+00	 1.0160506386e+00
 2.6967203132e-01	 1.9609552474e+00	 1.0290426320e+00
 2.5251483153e-01	 1.9632383341e+00	 1.0412456869e+00
 2.3538945972e-01	 1.9653651898e+00	 1.0529400966e+00
 2.1829780897e-01	 1.9673369421e+00	 1.0643605410e+00
 2.0124174111e-01	 1.9691547440e+00	 1.0756997639e+00
 1.8422308638e-01	 1.9708197736e+00	 1.0871119144e+00
 1.6724364317e-01	 1.9723332330e+00	 1.0987155868e+00
 3.4008936153e-01	 1.9589319900e+00	 9.6994496592e-01
 3.2274743671e-01	 1.9618637391e+00	 9.8998856007e-01
 3.0542956878e-01	 1.9646343072e+00	 1.0081246597e+00
 2.8813778123e-01	 1.9672447146e+00	 1.0246215676e+00
 2.7087406766e-01	 1.9696960109e+00	 1.0396885716e+00
 2.5364039135e-01	 1.9719892742e+00	 1.0534809737e+00
 2.3643868489e-01	 1.9741256102e+00	 1.0661046628e+00
 2.1927084980e-01	 1.9761061514e+00	 1.0776202697e+00
 2.0213875621e-01	 1.9779320560e+00	 1.0880469439e+00
 1.8504424252e-01	 1.9796045073e+00	 1.0973657896e+00
 1.6798911512e-01	 1.9811247128e+00	 1.1055229959e+00
 3.4159854908e-01	 1.9676249869e+00	 9.7369552840e-01
 3.2417966737e-01	 1.9705697460e+00	 9.9611639999e-01
 3.0678494932e-01	 1.9733526089e+00	 1.0165517782e+00
 2.8941642738e-01	 1.9759746003e+00	 1.0351172598e+00
 2.7207610400e-01	 1.9784367745e+00	 1.0518702197e+00
 2.5476595117e-01	 1.9807402144e+00	 1.0668149113e+00
 2.3748791006e-01	 1.9828860307e+00	 1.0799071016e+00
 2.2024389064e-01	 1.9848753607e+00	 1.0910582829e+00
 2.0303577132e-01	 1.9867093680e+00	 1.1001395012e+00
 1.8586539866e-01	 1.9883892410e+00	 1.1069848378e+00
 1.6873458708e-01	 1.9899161926e+00	 1.1113945832e+00
 3.4310773663e-01	 1.9763179838e+00	 9.7957328618e-01
 3.2561189804e-01	 1.9792757529e+00	 1.0042635190e+00
 3.0814032986e-01	 1.9820709105e+00	 1.0267880288e+00
 2.9069507353e-01	 1.9847044859e+00	 1.0471315253e+00
 2.7327814034e-01	 1.9871775380e+00	 1.0652220594e+00
 2.5589151099e-01	 1.9894911546e+00	 1.0809361445e+00
 2.3853713524e-01	 1.9916464511e+00	 1.0941034064e+00
 2.2121693148e-01	 1.9936445700e+00	 1.1045108029e+00
 2.0393278642e-01	 1.9954866800e+00	 1.1119064541e+00
 1.8668655480e-01	 1.9971739747e+00	 1.1160031240e+00
 1.6948005903e-01	 1.9987076723e+00	 1.1164813889e+00
 3.4461692418e-01	 1.9850109807e+00	 9.8714038733e-01
 3.2704412871e-01	 1.9879817598e+00	 1.0139905539e+00
 3.0949571040e-01	 1.9907892121e+00	 1.0384066476e+00
 2.9197371968e-01	 1.9934343715e+00	 1.0602640313e+00
 2.7448017667e-01	 1.9959183016e+00	 1.0793837355e+00
 2.5701707081e-01	 1.9982420948e+00	 1.0955375529e+00
 2.3958636041e-01	 2.0004068715e+00	 1.1084526532e+00
 2.2218997231e-01	 2.0024137793e+00	 1.1178157625e+00
 2.0482980153e-01	 2.0042639920e+00	 1.1232769481e+00
 1.8750771094e-01	 2.0059587084e+00	 1.1244530507e+00
 1.7022553099e-01	 2.0074991521e+00	 1.1209308025e+00
 3.4612611173e-01	 1.9937039777e+00	 9.9596532964e-01
 3.2847635937e-01	 1.9966877667e+00	 1.0248645290e+00
 3.1085109094e-01	 1.9995075137e+00	 1.0509870501e+00
 2.9325236582e-01	 2.0021642571e+00	 1.0741201761e+00
 2.7568221301e-01	 2.0046590651e+00	 1.0939999428e+00
 2.5814263063e-01	 2.0069930350e+00	 1.1103161574e+00
 2.4063558559e-01	 2.0091672920e+00	 1.1227169300e+00
 2.2316301315e-01	 2.0111829887e+00	 1.1308127638e+00
 2.0572681663e-01	 2.0130413039e+00	 1.1341802467e+00
 1.8832886708e-01	 2.0147434421e+00	 1.1323653872e+00
 1.7097100294e-01	 2.0162906319e+00	 1.1248866347e+00
 3.4763529928e-01	 2.0023969746e+00	 1.0056228323e+00
 3.2990859004e-01	 2.0053937736e+00	 1.0364587248e+00
 3.1220647148e-01	 2.0082258154e+00	 1.0641147021e+00
 2.9453101197e-01	 2.0108941428e+00	 1.0883109679e+00
 2.7688424935e-01	 2.0133998287e+00	 1.1087203172e+00
 2.5926819046e-01	 2.0157439751e+00	 1.1249730295e+00
 2.4168481076e-01	 2.0179277124e+00	 1.1366612689e+00
 2.2413605399e-01	 2.0199521980e+00	 1.1433430369e+00
 2.0662383174e-01	 2.0218186159e+00	 1.1445457232e+00
 1.8915002322e-01	 2.0235281758e+00	 1.1397692979e+00
 1.7171647490e-01	 2.0250821117e+00	 1.1284891869e+00
 3.4914448683e-01	 2.0110899715e+00	 1.0156937113e+00
 3.3134082071e-01	 2.0140997805e+00	 1.0483525504e+00
 3.1356185202e-01	 2.0169441170e+00	 1.0773809940e+00
 2.9580965812e-01	 2.0196240284e+00	 1.1024529068e+00
 2.7808628569e-01	 2.0221405922e+00	 1.1231993301e+00
 2.6039375028e-01	 2.0244949153e+00	 1.1392132026e+00
 2.4273403594e-01	 2.0266881328e+00	 1.1500535795e+00
 2.2510909482e-01	 2.0287214073e+00	 1.1552494009e+00
 2.0752084685e-01	 2.0305959279e+00	 1.1543028531e+00
 1.8997117936e-01	 2.0323129095e+00	 1.1466923706e+00
 1.7246194685e-01	 2.0338735915e+00	 1.1318753199e+00
 3.5065367438e-01	 2.0197829684e+00	 1.0257647591e+00
 3.3277305137e-01	 2.0228057874e+00	 1.0601314197e+00
 3.1491723256e-01	 2.0256624186e+00	 1.0903831200e+00
 2.9708830427e-01	 2.0283539140e+00	 1.1161678702e+00
 2.7928832202e-01	 2.0308813558e+00	 1.1370961860e+00
 2.6151931010e-01	 2.0332458555e+00	 1.1527455864e+00
 2.4378326111e-01	 2.0354485532e+00	 1.1626645854e+00
 2.2608213566e-01	 2.0374906166e+00	 1.1663762259e+00
 2.0841786195e-01	 2.0393732399e+00	 1.1633812063e+00
 1.9079233550e-01	 2.0410976432e+00	 1.1531606437e+00
 1.7320741881e-01	 2.0426650713e+00	 1.1351785200e+00
 3.5216286193e-01	 2.0284759653e+00	 1.0354286268e+00
 3.3420528204e-01	 2.0315117943e+00	 1.0713866315e+00
 3.1627261310e-01	 2.0343807202e+00	 1.1027239588e+00
 2.9836695041e-01	 2.0370837996e+00	 1.1290830015e+00
 2.8049035836e-01	 2.0396221193e+00	 1.1500747226e+00
 2.6264486992e-01	 2.0419967957e+00	 1.1652828842e+00
 2.4483248629e-01	 2.0442089737e+00	 1.1742677613e+00
 2.2705517649e-01	 2.0462598259e+00	 1.1765693963e+00
 2.0931487706e-01	 2.0481505519e+00	 1.1717104404e+00
 1.9161349164e-01	 2.0498823769e+00	 1.1591986333e+00
 1.7395289077e-01	 2.0514565511e+00	 1.1385289647e+00
 1.6649817121e-01	 1.9635417532e+00	 1.0908175918e+00
 1.4963806351e-01	 1.9648985734e+00	 1.1039485556e+00
 1.3282042303e-01	 1.9661070104e+00	 1.1116054884e+00
 1.1604690430e-01	 1.9671683262e+00	 1.1128247980e+00
 9.9319130298e-02	 1.9680838035e+00	 1.1067073613e+00
 8.2638692297e-02	 1.9688547442e+00	 1.0924196576e+00
 6.6007149700e-02	 1.9694824691e+00	 1.0691946849e+00
 4.9426029929e-02	 1.9699683169e+00	 1.0363326850e+00
 3.2896828315e-02	 1.9703136434e+00	 9.9320170052e-01
 1.6421008026e-02	 1.9705198204e+00	 9.3923798799e-01
 0.0000000000e+00	 1.9705882353e+00	 8.7394630509e-01
 1.6724364317e-01	 1.9723332330e+00	 1.0987155868e+00
 1.5030804672e-01	 1.9736961282e+00	 1.1079353640e+00
 1.3341510764e-01	 1.9749099758e+00	 1.1118002149e+00
 1.1656648786e-01	 1.9759760435e+00	 1.1098564371e+00
 9.9763817621e-02	 1.9768956197e+00	 1.1017201390e+00
 8.3008695325e-02	 1.9776700121e+00	 1.0870775107e+00
 6.6302687354e-02	 1.9783005476e+00	 1.0656848967e+00
 4.9647327970e-02	 1.9787885708e+00	 1.0373686969e+00
 3.3044119200e-02	 1.9791354434e+00	 1.0020251222e+00
 1.6494530761e-02	 1.9793425435e+00	 9.5961982745e-01
 0.0000000000e+00	 1.9794112647e+00	 9.1018744291e-01
 1.6798911512e-01	 1.9811247128e+00	 1.1055229959e+00
 1.5097802994e-01	 1.9824936829e+00	 1.1105937546e+00
 1.3400979225e-01	 1.9837129411e+00	 1.1106603636e+00
 1.1708607142e-01	 1.9847837608e+00	 1.1057067602e+00
 1.0020850495e-01	 1.9857074358e+00	 1.0957904888e+00
 8.3378698353e-02	 1.9864852801e+00	 1.0810422289e+00
 6.6598225009e-02	 1.9871186261e+00	 1.0616651429e+00
 4.9868626012e-02	 1.9876088246e+00	 1.0379340714e+00
 3.3191410085e-02	 1.9879572433e+00	 1.0101946032e+00
 1.6568053497e-02	 1.9881652666e+00	 9.7886204384e-01
 0.0000000000e+00	 1.9882342941e+00	 9.4442030425e-01
 1.6873458708e-01	 1.9899161926e+00	 1.1113945832e+00
 1.5164801315e-01	 1.9912912377e+00	 1.1121837903e+00
 1.3460447687e-01	 1.9925159065e+00	 1.1085127541e+00
 1.1760565498e-01	 1.9935914780e+00	 1.1007319233e+00
 1.0065319227e-01	 1.9945192520e+00	 1.0892676139e+00
 8.3748701382e-02	 1.9953005480e+00	 1.0746209133e+00
 6.6893762664e-02	 1.9959367046e+00	 1.0573664211e+00
 5.0089924054e-02	 1.9964290784e+00	 1.0381508559e+00
 3.3338700970e-02	 1.9967790433e+00	 1.0176915548e+00
 1.6641576232e-02	 1.9969879897e+00	 9.9677489143e-01
 0.0000000000e+00	 1.9970573235e+00	 9.7625463468e-01
 1.6948005903e-01	 1.9987076723e+00	 1.1164813889e+00
 1.5231799636e-01	 2.0000887924e+00	 1.1129600306e+00
 1.3519916148e-01	 2.0013188718e+00	 1.1056776141e+00
 1.1812523854e-01	 2.0023991953e+00	 1.0952810732e+00
 1.0109787960e-01	 2.0033310682e+00	 1.0824939435e+00
 8.4118704411e-02	 2.0041158160e+00	 1.0681147598e+00
 6.7189300319e-02	 2.0047547831e+00	 1.0530153074e+00
 5.0311222096e-02	 2.0052493322e+00	 1.0381387549e+00
 3.3485991856e-02	 2.0056008432e+00	 1.0244976988e+00
 1.6715098968e-02	 2.0058107128e+00	 1.0131721438e+00
 0.0000000000e+00	 2.0058803529e+00	 1.0053074433e+00
 1.7022553099e-01	 2.0074991521e+00	 1.1209308025e+00
 1.5298797958e-01	 2.0088863472e+00	 1.1131716436e+00
 1.3579384609e-01	 2.0101218372e+00	 1.1024687139e+00
 1.1864482210e-01	 2.0112069125e+00	 1.0896964913e+00
 1.0154256692e-01	 2.0121428843e+00	 1.0758052723e+00
 8.4488707440e-02	 2.0129310839e+00	 1.0618191811e+00
 6.7484837975e-02	 2.0135728616e+00	 1.0488340463e+00
 5.0532520139e-02	 2.0140695860e+00	 1.0380151751e+00
 3.3633282741e-02	 2.0144226432e+00	 1.0305950561e+00
 1.6788621704e-02	 2.0146334358e+00	 1.0278710143e+00
 0.0000000000e+00	 2.0147033823e+00	 1.0312028437e+00
 1.7097100294e-01	 2.0162906319e+00	 1.1248866347e+00
 1.5365796279e-01	 2.0176839020e+00	 1.1130625144e+00
 1.3638853071e-01	 2.0189248026e+00	 1.0991934988e+00
 1.1916440566e-01	 2.0200146298e+00	 1.0843137344e+00
 1.0198725425e-01	 2.0209547005e+00	 1.0695308962e+00
 8.4858710470e-02	 2.0217463519e+00	 1.0560239236e+00
 6.7780375630e-02	 2.0223909401e+00	 1.0450406374e+00
 5.0753818181e-02	 2.0228898398e+00	 1.0378952696e+00
 3.3780573627e-02	 2.0232444432e+00	 1.0359659363e+00
 1.6862144440e-02	 2.0234561589e+00	 1.0406920790e+00
 0.0000000000e+00	 2.0235264118e+00	 1.0535718991e+00
 1.7171647490e-01	 2.0250821117e+00	 1.1284891869e+00
 1.5432794601e-01	 2.0264814567e+00	 1.1128713521e+00
 1.3698321532e-01	 2.0277277679e+00	 1.0961532174e+00
 1.1968398923e-01	 2.0288223470e+00	 1.0794617720e+00
 1.0243194157e-01	 2.0297665167e+00	 1.0639937450e+00
 8.5228713499e-02	 2.0305616198e+00	 1.0510131830e+00
 6.8075913286e-02	 2.0312090186e+00	 1.0418489209e+00
 5.0975116224e-02	 2.0317100936e+00	 1.0378919808e+00
 3.3927864512e-02	 2.0320662431e+00	 1.0405929265e+00
 1.6935667176e-02	 2.0322788820e+00	 1.0514592009e+00
 0.0000000000e+00	 2.0323494412e+00	 1.0720524714e+00
 1.7246194685e-01	 2.0338735915e+00	 1.1318753199e+00
 1.5499792922e-01	 2.0352790115e+00	 1.1128317927e+00
 1.3757789993e-01	 2.0365307333e+00	 1.0936430468e+00
 1.2020357279e-01	 2.0376300643e+00	 1.0754631198e+00
 1.0287662890e-01	 2.0385783329e+00	 1.0595105114e+00
 8.5598716529e-02	 2.0393768878e+00	 1.0470657156e+00
 6.8371450941e-02	 2.0400270971e+00	 1.0394686597e+00
 5.1196414266e-02	 2.0405303474e+00	 1.0381160824e+00
 3.4075155398e-02	 2.0408880431e+00	 1.0444588815e+00
 1.7009189911e-02	 2.0411016051e+00	 1.0599994568e+00
 0.0000000000e+00	 2.0411724706e+00	 1.0862890743e+00
 1.7320741881e-01	 2.0426650713e+00	 1.1351785200e+00
 1.5566791243e-01	 2.0440765662e+00	 1.1131725006e+00
 1.3817258455e-01	 2.0453336986e+00	 1.0919522148e+00
 1.2072315635e-01	 2.0464377815e+00	 1.0726339700e+00
 1.0332131622e-01	 2.0473901490e+00	 1.0563917765e+00
 8.5968719558e-02	 2.0481921557e+00	 1.0444549482e+00
 6.8666988596e-02	 2.0488451756e+00	 1.0381056205e+00
 5.1417712308e-02	 2.0493506013e+00	 1.0386762199e+00
 3.4222446283e-02	 2.0497098431e+00	 1.0475469133e+00
 1.7082712647e-02	 2.0499243282e+00	 1.0661430657e+00
 0.0000000000e+00	 2.0499955000e+00	 1.0959327301e+00
 1.7395289077e-01	 2.0514565511e+00	 1.1385289647e+00
 1.5633789565e-01	 2.0528741210e+00	 1.1141172669e+00
 1.3876726916e-01	 2.0541366640e+00	 1.0913641189e+00
 1.2124273991e-01	 2.0552454988e+00	 1.0712843179e+00
 1.0376600355e-01	 2.0562019652e+00	 1.0549421326e+00
 8.6338722586e-02	 2.0570074237e+00	 1.0434490837e+00
 6.8962526251e-02	 2.0576632541e+00	 1.0379616524e+00
 5.1639010350e-02	 2.0581708551e+00	 1.0396789506e+00
 3.4369737168e-02	 2.0585316430e+00	 1.0498403814e+00
 1.7156235382e-02	 2.0587470513e+00	 1.0697233191e+00
 0.0000000000e+00	 2.0588185294e+00	 1.1006408306e+00
 2.0588185294e+00	 0.0000000000e+00	 4.6939793615e+00
 2.0587470513e+00	 1.7156235382e-02	 3.3440370408e+00
 2.0585316430e+00	 3.4369737168e-02	 2.4422003238e+00
 2.0581708551e+00	 5.1639010350e-02	 1.9208003408e+00
 2.0576632541e+00	 6.8962526251e-02	 1.7110933297e+00
 2.0570074237e+00	 8.6338722586e-02	 1.7433174202e+00
 2.0562019652e+00	 1.0376600355e-01	 1.9467529585e+00
 2.0552454988e+00	 1.2124273991e-01	 2.2497863305e+00
 2.0541366640e+00	 1.3876726916e-01	 2.5799772195e+00
 2.0528741210e+00	 1.5633789565e-01	 2.8641292128e+00
 2.0514565511e+00	 1.7395289077e-01	 3.0283636556e+00
 2.0676430588e+00	 0.0000000000e+00	 3.9649846000e+00
 2.0675712743e+00	 1.7229770617e-02	 2.8859691003e+00
 2.0673549428e+00	 3.4517053093e-02	 2.2019923062e+00
 2.0669926084e+00	 5.1860346014e-02	 1.8503072008e+00
 2.0664828318e+00	 6.9258114149e-02	 1.7673338300e+00
 2.0658241903e+00	 8.6708788518e-02	 1.8887163827e+00
 2.0650152795e+00	 1.0421076647e-01	 2.1493835693e+00
 2.0640547134e+00	 1.2176241180e-01	 2.4836122496e+00
 2.0629411260e+00	 1.3936205487e-01	 2.8250942347e+00
 2.0616731714e+00	 1.5700799276e-01	 3.1070061716e+00
 2.0602495255e+00	 1.7469848946e-01	 3.2620823982e+00
 2.0764675882e+00	 0.0000000000e+00	 3.2821163244e+00
 2.0763954974e+00	 1.7303305852e-02	 2.4851187712e+00
 2.0761782425e+00	 3.4664369019e-02	 2.0173379633e+00
 2.0758143618e+00	 5.2081681678e-02	 1.8236165599e+00
 2.0753024094e+00	 6.9553702047e-02	 1.8482191365e+00
 2.0746409569e+00	 8.7078854450e-02	 2.0348865047e+00
 2.0738285937e+00	 1.0465552940e-01	 2.3268929970e+00
 2.0728639281e+00	 1.2228208370e-01	 2.6671066599e+00
 2.0717455879e+00	 1.3995684059e-01	 2.9980522737e+00
 2.0704722218e+00	 1.5767808988e-01	 3.2619771020e+00
 2.0690424999e+00	 1.7544408815e-01	 3.4009192517e+00
 2.0852921176e+00	 0.0000000000e+00	 2.6440436052e+00
 2.0852197204e+00	 1.7376841086e-02	 2.1422282937e+00
 2.0850015423e+00	 3.4811684943e-02	 1.8907106859e+00
 2.0846361151e+00	 5.2303017341e-02	 1.8445553917e+00
 2.0841219871e+00	 6.9849289945e-02	 1.9585165099e+00
 2.0834577236e+00	 8.7448920382e-02	 2.1870861555e+00
 2.0826419080e+00	 1.0510029232e-01	 2.4845455244e+00
 2.0816731427e+00	 1.2280175559e-01	 2.8050184360e+00
 2.0805500499e+00	 1.4055162630e-01	 3.1025272676e+00
 2.0792712723e+00	 1.5834818700e-01	 3.3310511801e+00
 2.0778354743e+00	 1.7618968684e-01	 3.4445865117e+00
 2.0941166470e+00	 0.0000000000e+00	 2.0494636925e+00
 2.0940439435e+00	 1.7450376320e-02	 1.8580317202e+00
 2.0938248420e+00	 3.4959000868e-02	 1.8245452239e+00
 2.0934578684e+00	 5.2524353004e-02	 1.9168880847e+00
 2.0929415647e+00	 7.0144877842e-02	 2.1029137920e+00
 2.0922744902e+00	 8.7818986313e-02	 2.3504851638e+00
 2.0914552223e+00	 1.0554505525e-01	 2.6275160884e+00
 2.0904823574e+00	 1.2332142749e-01	 2.9020152228e+00
 2.0893545118e+00	 1.4114641202e-01	 3.1421315622e+00
 2.0880703227e+00	 1.5901828411e-01	 3.3162017762e+00
 2.0866284488e+00	 1.7693528553e-01	 3.3927991901e+00
 2.1029411764e+00	 0.0000000000e+00	 1.4971014248e+00
 2.1028681665e+00	 1.7523911554e-02	 1.6332550747e+00
 2.1026481418e+00	 3.5106316793e-02	 1.8212384720e+00
 2.1022796218e+00	 5.2745688667e-02	 2.0443177223e+00
 2.1017611424e+00	 7.0440465740e-02	 2.2860210322e+00
 2.1010912568e+00	 8.8189052244e-02	 2.5301666316e+00
 2.1002685365e+00	 1.0598981817e-01	 2.7608921086e+00
 2.0992915720e+00	 1.2384109938e-01	 2.9626850942e+00
 2.0981589738e+00	 1.4174119773e-01	 3.1204152085e+00
 2.0968693731e+00	 1.5968838123e-01	 3.2193671671e+00
 2.0954214232e+00	 1.7768088423e-01	 3.2452749260e+00
 2.1117657059e+00	 0.0000000000e+00	 9.8570865269e-01
 2.1116923896e+00	 1.7597446789e-02	 1.4686165063e+00
 2.1114714416e+00	 3.5253632717e-02	 1.8831502361e+00
 2.1111013751e+00	 5.2967024330e-02	 2.2304873302e+00
 2.1105807201e+00	 7.0736053637e-02	 2.5123720739e+00
 2.1099080235e+00	 8.8559118175e-02	 2.7311287028e+00
 2.1090818508e+00	 1.0643458110e-01	 2.8896752708e+00
 2.1081007867e+00	 1.2436077128e-01	 2.9915381705e+00
 2.1069634357e+00	 1.4233598344e-01	 3.0408672220e+00
 2.1056684235e+00	 1.6035847835e-01	 3.0424512308e+00
 2.1042143976e+00	 1.7842648292e-01	 3.0017338981e+00
 2.1205902353e+00	 0.0000000000e+00	 5.1406367644e-01
 2.1205166126e+00	 1.7670982023e-02	 1.3648264401e+00
 2.1202947413e+00	 3.5400948642e-02	 2.0126039813e+00
 2.1199231285e+00	 5.3188359993e-02	 2.4789810934e+00
 2.1194002977e+00	 7.1031641534e-02	 2.7864261001e+00
 2.1187247901e+00	 8.8929184106e-02	 2.9582862878e+00
 2.1178951651e+00	 1.0687934402e-01	 3.0187832658e+00
 2.1169100013e+00	 1.2488044317e-01	 2.9930081957e+00
 2.1157678977e+00	 1.4293076916e-01	 2.9069168099e+00
 2.1144674740e+00	 1.6102857546e-01	 2.7873241249e+00
 2.1130073720e+00	 1.7917208161e-01	 2.6618987415e+00
 2.1294147647e+00	 0.0000000000e+00	 8.0970698297e-02
 2.1293408356e+00	 1.7744517257e-02	 1.3225877240e+00
 2.1291180411e+00	 3.5548264567e-02	 2.2118875604e+00
 2.1287448818e+00	 5.3409695656e-02	 2.7933255431e+00
 2.1282198754e+00	 7.1327229432e-02	 3.1125691427e+00
 2.1275415567e+00	 8.9299250037e-02	 3.2164727454e+00
 2.1267084793e+00	 1.0732410695e-01	 3.1530514853e+00
 2.1257192160e+00	 1.2540011506e-01	 2.9714540766e+00
 2.1245723596e+00	 1.4352555487e-01	 2.7219345697e+00
 2.1232665244e+00	 1.6169867258e-01	 2.4558229485e+00
 2.1218003465e+00	 1.7991768030e-01	 2.2254944659e+00
 2.1382392941e+00	 0.0000000000e+00	-3.1474071212e-01
 2.1381650587e+00	 1.7818052492e-02	 1.3425957717e+00
 2.1379413408e+00	 3.5695580492e-02	 2.4832539246e+00
 2.1375666352e+00	 5.3631031320e-02	 3.1769907132e+00
 2.1370394530e+00	 7.1622817330e-02	 3.4951155526e+00
 2.1363583234e+00	 8.9669315969e-02	 3.5104415232e+00
 2.1355217936e+00	 1.0776886987e-01	 3.2972346766e+00
 2.1345284306e+00	 1.2591978696e-01	 2.9311613830e+00
 2.1333768216e+00	 1.4412034059e-01	 2.4892336578e+00
 2.1320655748e+00	 1.6236876970e-01	 2.0497523886e+00
 2.1305933209e+00	 1.8066327899e-01	 1.6922483780e+00
 2.1470638235e+00	 0.0000000000e+00	-6.7421613912e-01
 2.1469892817e+00	 1.7891587727e-02	 1.4255387025e+00
 2.1467646406e+00	 3.5842896417e-02	 2.8289218174e+00
 2.1463883885e+00	 5.3852366984e-02	 3.6333912699e+00
 2.1458590307e+00	 7.1918405228e-02	 3.9383094348e+00
 2.1451750900e+00	 9.0039381901e-02	 3.8448677581e+00
 2.1443351079e+00	 1.0821363280e-01	 3.4560085558e+00
 2.1433376453e+00	 1.2643945885e-01	 2.8763438129e+00
 2.1421812835e+00	 1.4471512630e-01	 2.2120709297e+00
 2.1408646252e+00	 1.6303886681e-01	 1.5708853509e+00
 2.1393862953e+00	 1.8140887769e-01	 1.0618900057e+00
 2.0514565511e+00	 1.7395289077e-01	 3.0283636556e+00
 2.0498823769e+00	 1.9161349164e-01	 3.0875766702e+00
 2.0481505519e+00	 2.0931487706e-01	 3.1104855055e+00
 2.0462598259e+00	 2.2705517649e-01	 3.1034023598e+00
 2.0442089737e+00	 2.4483248629e-01	 3.0724739666e+00
 2.0419967957e+00	 2.6264486992e-01	 3.0236671123e+00
 2.0396221193e+00	 2.8049035836e-01	 2.9627536841e+00
 2.0370837996e+00	 2.9836695041e-01	 2.8952950910e+00
 2.0343807202e+00	 3.1627261310e-01	 2.8266258933e+00
 2.0315117943e+00	 3.3420528204e-01	 2.7618364620e+00
 2.0284759653e+00	 3.5216286193e-01	 2.7057544762e+00
 2.0602495255e+00	 1.7469848946e-01	 3.2620823982e+00
 2.0586686040e+00	 1.9243478738e-01	 3.3057751212e+00
 2.0569293561e+00	 2.1021204466e-01	 3.3041732500e+00
 2.0550305261e+00	 2.2802838276e-01	 3.2655058094e+00
 2.0529708834e+00	 2.4588188984e-01	 3.1977082050e+00
 2.0507492236e+00	 2.6377062109e-01	 3.1084033826e+00
 2.0483643689e+00	 2.8169259905e-01	 3.0048826036e+00
 2.0458151694e+00	 2.9964581394e-01	 2.8940856875e+00
 2.0431005041e+00	 3.1762822406e-01	 2.7825805570e+00
 2.0402192813e+00	 3.3563775620e-01	 2.6765419131e+00
 2.0371704401e+00	 3.5367230605e-01	 2.5817288500e+00
 2.0690424999e+00	 1.7544408815e-01	 3.4009192517e+00
 2.0674548312e+00	 1.9325608313e-01	 3.4309923773e+00
 2.0657081603e+00	 2.1110921227e-01	 3.4129821014e+00
 2.0638012263e+00	 2.2900158902e-01	 3.3555537452e+00
 2.0617327932e+00	 2.4693129339e-01	 3.2669622234e+00
 2.0595016515e+00	 2.6489637227e-01	 3.1550310056e+00
 2.0571066184e+00	 2.8289483975e-01	 3.0271308188e+00
 2.0545465392e+00	 3.0092467747e-01	 2.8901579419e+00
 2.0518202879e+00	 3.1898383503e-01	 2.7505119312e+00
 2.0489267683e+00	 3.3707023036e-01	 2.6140726022e+00
 2.0458649149e+00	 3.5518175017e-01	 2.4861760816e+00
 2.0778354743e+00	 1.7618968684e-01	 3.4445865117e+00
 2.0762410584e+00	 1.9407737887e-01	 3.4605212203e+00
 2.0744869645e+00	 2.1200637987e-01	 3.4322084521e+00
 2.0725719264e+00	 2.2997479528e-01	 3.3672889735e+00
 2.0704947030e+00	 2.4798069694e-01	 3.2728876425e+00
 2.0682540794e+00	 2.6602212344e-01	 3.1555923190e+00
 2.0658488680e+00	 2.8409708044e-01	 3.0214326770e+00
 2.0632779090e+00	 3.0220354100e-01	 2.8758587688e+00
 2.0605400717e+00	 3.2033944599e-01	 2.7237191783e+00
 2.0576342553e+00	 3.3850270451e-01	 2.5692385882e+00
 2.0545593897e+00	 3.5669119430e-01	 2.4159945708e+00
 2.0866284488e+00	 1.7693528553e-01	 3.3927991901e+00
 2.0850272856e+00	 1.9489867461e-01	 3.3916978545e+00
 2.0832657688e+00	 2.1290354748e-01	 3.3572258020e+00
 2.0813426266e+00	 2.3094800154e-01	 3.2945577348e+00
 2.0792566128e+00	 2.4903010049e-01	 3.2082581494e+00
 2.0770065074e+00	 2.6714787462e-01	 3.1022623287e+00
 2.0745911176e+00	 2.8529932113e-01	 2.9798574325e+00
 2.0720092788e+00	 3.0348240453e-01	 2.8436635332e+00
 2.0692598555e+00	 3.2169505696e-01	 2.6956144314e+00
 2.0663417423e+00	 3.3993517867e-01	 2.5369380692e+00
 2.0632538645e+00	 3.5820063842e-01	 2.3681363485e+00
 2.0954214232e+00	 1.7768088423e-01	 3.2452749260e+00
 2.0938135128e+00	 1.9571997035e-01	 3.2219009713e+00
 2.0920445730e+00	 2.1380071508e-01	 3.1834831261e+00
 2.0901133268e+00	 2.3192120780e-01	 3.1313075300e+00
 2.0880185226e+00	 2.5007950404e-01	 3.0659669454e+00
 2.0857589353e+00	 2.6827362580e-01	 2.9873459492e+00
 2.0833333671e+00	 2.8650156183e-01	 2.8946064561e+00
 2.0807406486e+00	 3.0476126806e-01	 2.7861734140e+00
 2.0779796393e+00	 3.2305066793e-01	 2.6597204999e+00
 2.0750492293e+00	 3.4136765283e-01	 2.5121556282e+00
 2.0719483393e+00	 3.5971008254e-01	 2.3396060685e+00
 2.1042143976e+00	 1.7842648292e-01	 3.0017338981e+00
 2.1025997400e+00	 1.9654126610e-01	 2.9485508373e+00
 2.1008233772e+00	 2.1469788269e-01	 2.9065032833e+00
 2.0988840269e+00	 2.3289441406e-01	 2.8715850030e+00
 2.0967804324e+00	 2.5112890760e-01	 2.8390242609e+00
 2.0945113632e+00	 2.6939937697e-01	 2.8032753159e+00
 2.0920756167e+00	 2.8770380252e-01	 2.7580105174e+00
 2.0894720184e+00	 3.0604013158e-01	 2.6961128343e+00
 2.0866994232e+00	 3.2440627889e-01	 2.6096686359e+00
 2.0837567163e+00	 3.4280012699e-01	 2.4899605275e+00
 2.0806428141e+00	 3.6121952667e-01	 2.3274600265e+00
 2.1130073720e+00	 1.7917208161e-01	 2.6618987415e+00
 2.1113859671e+00	 1.9736256184e-01	 2.5691084064e+00
 2.1096021814e+00	 2.1559505030e-01	 2.5218814668e+00
 2.1076547271e+00	 2.3386762033e-01	 2.5095338768e+00
 2.1055423421e+00	 2.5217831115e-01	 2.5205549325e+00
 2.1032637911e+00	 2.7052512815e-01	 2.5426071652e+00
 2.1008178662e+00	 2.8890604321e-01	 2.5625271362e+00
 2.0982033881e+00	 3.0731899511e-01	 2.5663269595e+00
 2.0954192070e+00	 3.2576188986e-01	 2.5391963584e+00
 2.0924642033e+00	 3.4423260114e-01	 2.4655050467e+00
 2.0893372889e+00	 3.6272897079e-01	 2.3288052077e+00
 2.1218003465e+00	 1.7991768030e-01	 2.2254944659e+00
 2.1201721943e+00	 1.9818385758e-01	 2.0810744555e+00
 2.1183809856e+00	 2.1649221790e-01	 2.0252836939e+00
 2.1164254273e+00	 2.3484082659e-01	 2.0393929425e+00
 2.1143042519e+00	 2.5322771470e-01	 2.1037960429e+00
 2.1120162190e+00	 2.7165087932e-01	 2.1980202823e+00
 2.1095601158e+00	 2.9010828391e-01	 2.3007380021e+00
 2.1069347579e+00	 3.0859785864e-01	 2.3897792587e+00
 2.1041389908e+00	 3.2711750082e-01	 2.4421453338e+00
 2.1011716903e+00	 3.4566507530e-01	 2.4340228657e+00
 2.0980317637e+00	 3.6423841491e-01	 2.3407983602e+00
 2.1305933209e+00	 1.8066327899e-01	 1.6922483780e+00
 2.1289584215e+00	 1.9900515333e-01	 1.4819887418e+00
 2.1271597898e+00	 2.1738938551e-01	 1.4124453340e+00
 2.1251961274e+00	 2.3581403285e-01	 1.4554940999e+00
 2.1230661617e+00	 2.5427711825e-01	 1.5820946200e+00
 2.1207686470e+00	 2.7277663050e-01	 1.7623130137e+00
 2.1183023654e+00	 2.9131052460e-01	 1.9653464597e+00
 2.1156661277e+00	 3.0987672217e-01	 2.1595491293e+00
 2.1128587746e+00	 3.2847311179e-01	 2.3124593123e+00
 2.1098791773e+00	 3.4709754946e-01	 2.3908274899e+00
 2.1067262385e+00	 3.6574785904e-01	 2.3606450945e+00
 2.1393862953e+00	 1.8140887769e-01	 1.0618900057e+00
 2.1377446487e+00	 1.9982644907e-01	 7.6942918231e-01
 2.1359385941e+00	 2.1828655311e-01	 6.7916967476e-01
 2.1339668276e+00	 2.3678723911e-01	 7.5226044673e-01
 2.1318280715e+00	 2.5532652180e-01	 9.4890539485e-01
 2.1295210749e+00	 2.7390238167e-01	 1.2284008423e+00
 2.1270446149e+00	 2.9251276530e-01	 1.5491750580e+00
 2.1243974975e+00	 3.1115558570e-01	 1.8688295819e+00
 2.1215785585e+00	 3.2982872276e-01	 2.1441821161e+00
 2.1185866643e+00	 3.4853002362e-01	 2.3313107174e+00
 2.1154207133e+00	 3.6725730316e-01	 2.3855990081e+00
 2.0284759653e+00	 3.5216286193e-01	 2.7057544762e+00
 2.0252727667e+00	 3.7014016961e-01	 2.5833724541e+00
 2.0219007028e+00	 3.8813810481e-01	 2.3844977693e+00
 2.0183588128e+00	 4.0615448827e-01	 2.1765494132e+00
 2.0146461694e+00	 4.2418711190e-01	 1.9617599599e+00
 2.0107618803e+00	 4.4223373939e-01	 1.7424825277e+00
 2.0067050887e+00	 4.6029210677e-01	 1.5212031714e+00
 2.0024749745e+00	 4.7835992304e-01	 1.3005394636e+00
 1.9980707547e+00	 4.9643487084e-01	 1.0832380511e+00
 1.9934916845e+00	 5.1451460713e-01	 8.7217113120e-01
 1.9887370581e+00	 5.3259676391e-01	 6.7033179502e-01
 2.0371704401e+00	 3.5367230605e-01	 2.5817288500e+00
 2.0339535119e+00	 3.7172666826e-01	 2.4273910438e+00
 2.0305669947e+00	 3.8980174639e-01	 2.2153100473e+00
 2.0270099233e+00	 4.0789535186e-01	 2.0005515332e+00
 2.0232813668e+00	 4.2600526711e-01	 1.7838938575e+00
 2.0193804288e+00	 4.4412924625e-01	 1.5663669065e+00
 2.0153062490e+00	 4.6226501559e-01	 1.3492557486e+00
 2.0110580036e+00	 4.8041027432e-01	 1.1341032309e+00
 2.0066349064e+00	 4.9856269515e-01	 9.2271145379e-01
 2.0020362093e+00	 5.1671992500e-01	 7.1714205846e-01
 1.9972612035e+00	 5.3487958570e-01	 5.1971526390e-01
 2.0458649149e+00	 3.5518175017e-01	 2.4861760816e+00
 2.0426342571e+00	 3.7331316691e-01	 2.3020080059e+00
 2.0392332865e+00	 3.9146538798e-01	 2.0754517517e+00
 2.0356610339e+00	 4.0963621545e-01	 1.8509182609e+00
 2.0319165642e+00	 4.2782342233e-01	 1.6284220524e+00
 2.0279989773e+00	 4.4602475310e-01	 1.4083278450e+00
 2.0239074092e+00	 4.6423792440e-01	 1.1913570787e+00
 2.0196410327e+00	 4.8246062560e-01	 9.7859329375e-01
 2.0151990580e+00	 5.0069051946e-01	 7.7148629257e-01
 2.0105807341e+00	 5.1892524286e-01	 5.7185501189e-01
 2.0057853490e+00	 5.3716240750e-01	 3.8188903416e-01
 2.0545593897e+00	 3.5669119430e-01	 2.4159945708e+00
 2.0513150023e+00	 3.7489966555e-01	 2.2063197178e+00
 2.0478995784e+00	 3.9312902956e-01	 1.9658581951e+00
 2.0443121444e+00	 4.1137707905e-01	 1.7300788562e+00
 2.0405517615e+00	 4.2964157754e-01	 1.4989007021e+00
 2.0366175258e+00	 4.4792025996e-01	 1.2726722903e+00
 2.0325085695e+00	 4.6621083322e-01	 1.0521799010e+00
 2.0282240618e+00	 4.8451097688e-01	 8.3865447376e-01
 2.0237632097e+00	 5.0281834376e-01	 6.3377723472e-01
 2.0191252589e+00	 5.2113056072e-01	 4.3968393636e-01
 2.0143094945e+00	 5.3944522929e-01	 2.5896763320e-01
 2.0632538645e+00	 3.5820063842e-01	 2.3681363485e+00
 2.0599957475e+00	 3.7648616420e-01	 2.1394249044e+00
 2.0565658702e+00	 3.9479267114e-01	 1.8874486421e+00
 2.0529632550e+00	 4.1311794264e-01	 1.6404213115e+00
 2.0491869589e+00	 4.3145973275e-01	 1.3988256532e+00
 2.0452360743e+00	 4.4981576681e-01	 1.1636341643e+00
 2.0411097297e+00	 4.6818374204e-01	 9.3631769314e-01
 2.0368070908e+00	 4.8656132815e-01	 7.1885271765e-01
 2.0323273614e+00	 5.0494616807e-01	 5.1372722562e-01
 2.0276697837e+00	 5.2333587859e-01	 3.2394511380e-01
 2.0228336400e+00	 5.4172805108e-01	 1.5302902660e-01
 2.0719483393e+00	 3.5971008254e-01	 2.3396060685e+00
 2.0686764927e+00	 3.7807266284e-01	 2.1004371621e+00
 2.0652321620e+00	 3.9645631273e-01	 1.8411266438e+00
 2.0616143656e+00	 4.1485880623e-01	 1.5842932169e+00
 2.0578221563e+00	 4.3327788796e-01	 1.3316337088e+00
 2.0538546228e+00	 4.5171127367e-01	 1.0853759000e+00
 2.0497108899e+00	 4.7015665086e-01	 8.4828633962e-01
 2.0453901199e+00	 4.8861167943e-01	 6.2367675947e-01
 2.0408915130e+00	 5.0707399238e-01	 4.1540900287e-01
 2.0362143085e+00	 5.2554119645e-01	 2.2789838430e-01
 2.0313577855e+00	 5.4401087287e-01	 6.6115398359e-02
 2.0806428141e+00	 3.6121952667e-01	 2.3274600265e+00
 2.0773572379e+00	 3.7965916149e-01	 2.0884846445e+00
 2.0738984539e+00	 3.9811995431e-01	 1.8277803647e+00
 2.0702654761e+00	 4.1659966983e-01	 1.5640026051e+00
 2.0664573537e+00	 4.3509604318e-01	 1.3007038646e+00
 2.0624731713e+00	 4.5360678052e-01	 1.0419899391e+00
 2.0583120502e+00	 4.7212955967e-01	 7.9252575938e-01
 2.0539731490e+00	 4.9066203071e-01	 5.5753974226e-01
 2.0494556647e+00	 5.0920181669e-01	 3.4282657365e-01
 2.0447588333e+00	 5.2774651431e-01	 1.5474833780e-01
 2.0398819309e+00	 5.4629369467e-01	 2.3391288864e-04
 2.0893372889e+00	 3.6272897079e-01	 2.3288052077e+00
 2.0860379832e+00	 3.8124566014e-01	 2.1027097576e+00
 2.0825647457e+00	 3.9978359589e-01	 1.8482829027e+00
 2.0789165867e+00	 4.1834053342e-01	 1.5818187760e+00
 2.0750925511e+00	 4.3691419839e-01	 1.3093585150e+00
 2.0710917198e+00	 4.5550228738e-01	 1.0375001941e+00
 2.0669132104e+00	 4.7410246849e-01	 7.7340149374e-01
 2.0625561781e+00	 4.9271238200e-01	 5.2478080032e-01
 2.0580198164e+00	 5.1132964100e-01	 2.9991665620e-01
 2.0533033581e+00	 5.2995183218e-01	 1.0764547714e-01
 2.0484060764e+00	 5.4857651646e-01	-4.2642540935e-02
 2.0980317637e+00	 3.6423841491e-01	 2.3407983602e+00
 2.0947187284e+00	 3.8283215878e-01	 2.1422688625e+00
 2.0912310376e+00	 4.0144723748e-01	 1.9034926011e+00
 2.0875676972e+00	 4.2008139701e-01	 1.6399731009e+00
 2.0837277484e+00	 4.3873235360e-01	 1.3608646298e+00
 2.0797102683e+00	 4.5739779424e-01	 1.0758634740e+00
 2.0755143707e+00	 4.7607537731e-01	 7.9520625587e-01
 2.0711392072e+00	 4.9476273328e-01	 5.2966660305e-01
 2.0665839680e+00	 5.1345746531e-01	 2.9055008659e-01
 2.0618478829e+00	 5.3215715004e-01	 8.9687353335e-02
 2.0569302219e+00	 5.5085933825e-01	-6.0574622922e-02
 2.1067262385e+00	 3.6574785904e-01	 2.3606450945e+00
 2.1033994736e+00	 3.8441865743e-01	 2.2063319861e+00
 2.0998973294e+00	 4.0311087906e-01	 1.9942533538e+00
 2.0962188078e+00	 4.2182226061e-01	 1.7406598083e+00
 2.0923629458e+00	 4.4055050882e-01	 1.4584349033e+00
 2.0883288168e+00	 4.5929330109e-01	 1.1609708761e+00
 2.0841155309e+00	 4.7804828613e-01	 8.6216144270e-01
 2.0797222362e+00	 4.9681308456e-01	 5.7639286162e-01
 2.0751481197e+00	 5.1558528963e-01	 3.1853319167e-01
 2.0703924078e+00	 5.3436246791e-01	 1.0391967390e-01
 2.0654543674e+00	 5.5314216005e-01	-5.1655831546e-02
 2.1154207133e+00	 3.6725730316e-01	 2.3855990081e+00
 2.1120802188e+00	 3.8600515608e-01	 2.2940825403e+00
 2.1085636212e+00	 4.0477452065e-01	 2.1213949038e+00
 2.1048699183e+00	 4.2356312421e-01	 1.8860367507e+00
 2.1009981432e+00	 4.4236866403e-01	 1.6052288746e+00
 2.0969473653e+00	 4.6118880795e-01	 1.2966491444e+00
 2.0927166911e+00	 4.8002119495e-01	 9.7841861061e-01
 2.0883052653e+00	 4.9886343584e-01	 6.6908579945e-01
 2.0837122714e+00	 5.1771311394e-01	 3.8760912931e-01
 2.0789369326e+00	 5.3656778577e-01	 1.5333738496e-01
 2.0739785129e+00	 5.5542498184e-01	-1.4011810230e-02
 1.9887370581e+00	 5.3259676391e-01	 6.7033179502e-01
 1.9838062098e+00	 5.5067894919e-01	 5.1087188653e-01
 1.9786985165e+00	 5.6875874854e-01	 4.2106918523e-01
 1.9734133965e+00	 5.8683372519e-01	 3.9510493832e-01
 1.9679503103e+00	 6.0490142056e-01	 4.2704017493e-01
 1.9623087615e+00	 6.2295935516e-01	 5.1081132558e-01
 1.9564882968e+00	 6.4100502941e-01	 6.4022481374e-01
 1.9504885074e+00	 6.5903592457e-01	 8.0895058508e-01
 1.9443090295e+00	 6.7704950364e-01	 1.0105145447e+00
 1.9379495447e+00	 6.9504321235e-01	 1.2382898767e+00
 1.9314097810e+00	 7.1301448007e-01	 1.4854872265e+00
 1.9972612035e+00	 5.3487958570e-01	 5.1971526390e-01
 1.9923092207e+00	 5.5303927503e-01	 3.6177991233e-01
 1.9871796347e+00	 5.7119656821e-01	 2.7028410604e-01
 1.9818718615e+00	 5.8934901801e-01	 2.4098529698e-01
 1.9763853595e+00	 6.0749415532e-01	 2.6942937974e-01
 1.9707196297e+00	 6.2562949003e-01	 3.5094271098e-01
 1.9648742173e+00	 6.4375251184e-01	 4.8062313996e-01
 1.9588487116e+00	 6.6186069121e-01	 6.5333002127e-01
 1.9526427471e+00	 6.7995148028e-01	 8.6367318555e-01
 1.9462560043e+00	 6.9802231381e-01	 1.1060008484e+00
 1.9396882097e+00	 7.1607061016e-01	 1.3743864433e+00
 2.0057853490e+00	 5.3716240750e-01	 3.8188903416e-01
 2.0008122315e+00	 5.5539960088e-01	 2.3005857018e-01
 1.9956607529e+00	 5.7363438788e-01	 1.4128616587e-01
 1.9903303266e+00	 5.9186431083e-01	 1.1251056412e-01
 1.9848204086e+00	 6.1008689009e-01	 1.4038581191e-01
 1.9791304980e+00	 6.2829962490e-01	 2.2127048199e-01
 1.9732601378e+00	 6.4649999427e-01	 3.5121593335e-01
 1.9672089157e+00	 6.6468545785e-01	 5.2595358617e-01
 1.9609764647e+00	 6.8285345691e-01	 7.4088119062e-01
 1.9545624638e+00	 7.0100141526e-01	 9.9104807431e-01
 1.9479666384e+00	 7.1912674025e-01	 1.2711393579e+00
 2.0143094945e+00	 5.3944522929e-01	 2.5896763320e-01
 2.0093152423e+00	 5.5775992672e-01	 1.1648707572e-01
 2.0041418710e+00	 5.7607220754e-01	 3.3795095905e-02
 1.9987887916e+00	 5.9437960365e-01	 8.6221196645e-03
 1.9932554577e+00	 6.1267962486e-01	 3.8358791884e-02
 1.9875413662e+00	 6.3096975978e-01	 1.2004319653e-01
 1.9816460583e+00	 6.4924747670e-01	 2.5034713273e-01
 1.9755691199e+00	 6.6751022449e-01	 4.2556142468e-01
 1.9693101823e+00	 6.8575543354e-01	 6.4158024780e-01
 1.9628689233e+00	 7.0398051672e-01	 8.9388445824e-01
 1.9562450671e+00	 7.2218287034e-01	 1.1775239183e+00
 2.0228336400e+00	 5.4172805108e-01	 1.5302902660e-01
 2.0178182531e+00	 5.6012025256e-01	 2.1830447062e-02
 2.0126229892e+00	 5.7851002721e-01	-5.2465872067e-02
 2.0072472567e+00	 5.9689489647e-01	-7.1722213980e-02
 2.0016905068e+00	 6.1527235962e-01	-3.8177819542e-02
 1.9959522344e+00	 6.3363989465e-01	 4.5537121969e-02
 1.9900319788e+00	 6.5199495913e-01	 1.7638654424e-01
 1.9839293240e+00	 6.7033499113e-01	 3.5091261639e-01
 1.9776438999e+00	 6.8865741017e-01	 5.6521887994e-01
 1.9711753828e+00	 7.0695961817e-01	 8.1495239883e-01
 1.9645234958e+00	 7.2523900043e-01	 1.0952849159e+00
 2.0313577855e+00	 5.4401087287e-01	 6.6115398359e-02
 2.0263212640e+00	 5.6248057841e-01	-5.3160182369e-02
 2.0211041074e+00	 5.8094784688e-01	-1.1777006241e-01
 2.0157057217e+00	 5.9941018929e-01	-1.2954849863e-01
 2.0101255559e+00	 6.1786509439e-01	-9.0726116200e-02
 2.0043631027e+00	 6.3631002952e-01	-3.9443250372e-03
 1.9984178993e+00	 6.5474244156e-01	 1.2772932115e-01
 1.9922895281e+00	 6.7315975777e-01	 3.0078480188e-01
 1.9859776175e+00	 6.9155938681e-01	 5.1125232598e-01
 1.9794818423e+00	 7.0993871962e-01	 7.5468403504e-01
 1.9728019245e+00	 7.2829513052e-01	 1.0261347074e+00
 2.0398819309e+00	 5.4629369467e-01	 2.3391288864e-04
 2.0348242748e+00	 5.6484090425e-01	-1.0774725754e-01
 2.0295852256e+00	 5.8338566655e-01	-1.6238740961e-01
 2.0241641867e+00	 6.0192548211e-01	-1.6586699735e-01
 2.0185606050e+00	 6.2045782915e-01	-1.2076462770e-01
 2.0127739709e+00	 6.3898016440e-01	-3.0071123027e-02
 2.0068038198e+00	 6.5748992399e-01	 1.0279545831e-01
 2.0006497323e+00	 6.7598452442e-01	 2.7397382015e-01
 1.9943113351e+00	 6.9446136344e-01	 4.7914242679e-01
 1.9877883018e+00	 7.1291782108e-01	 7.1350148756e-01
 1.9810803532e+00	 7.3135126060e-01	 9.7175391960e-01
 2.0484060764e+00	 5.4857651646e-01	-4.2642540935e-02
 2.0433272856e+00	 5.6720123010e-01	-1.4120650191e-01
 2.0380663437e+00	 5.8582348622e-01	-1.8658450955e-01
 2.0326226518e+00	 6.0444077494e-01	-1.8167248213e-01
 2.0269956541e+00	 6.2305056392e-01	-1.2974878703e-01
 2.0211848391e+00	 6.4165029927e-01	-3.4487175110e-02
 2.0151897403e+00	 6.6023740642e-01	 1.0002930082e-01
 2.0090099364e+00	 6.7880929106e-01	 2.6929335678e-01
 2.0026450527e+00	 6.9736334007e-01	 4.6835751567e-01
 1.9960947613e+00	 7.1589692253e-01	 6.9181709589e-01
 1.9893587819e+00	 7.3440739069e-01	 9.3379213895e-01
 2.0569302219e+00	 5.5085933825e-01	-6.0574622922e-02
 2.0518302965e+00	 5.6956155594e-01	-1.5282662365e-01
 2.0465474619e+00	 5.8826130589e-01	-1.9062466819e-01
 2.0410811168e+00	 6.0695606776e-01	-1.7794453256e-01
 2.0354307032e+00	 6.2564329869e-01	-1.1911138512e-01
 2.0295957074e+00	 6.4432043415e-01	-1.8810823615e-02
 2.0235756608e+00	 6.6298488885e-01	 1.1789906666e-01
 2.0173701406e+00	 6.8163405770e-01	 2.8557460246e-01
 2.0109787703e+00	 7.0026531671e-01	 4.7837231327e-01
 2.0044012208e+00	 7.1887602399e-01	 6.9003365149e-01
 1.9976372106e+00	 7.3746352078e-01	 9.1386858611e-01
 2.0654543674e+00	 5.5314216005e-01	-5.1655831546e-02
 2.0603333073e+00	 5.7192188179e-01	-1.4190902794e-01
 2.0550285801e+00	 5.9069912556e-01	-1.7476794762e-01
 2.0495395819e+00	 6.0947136058e-01	-1.5564782566e-01
 2.0438657523e+00	 6.2823603346e-01	-9.0263012579e-02
 2.0380065756e+00	 6.4699056902e-01	 1.5364649544e-02
 2.0319615813e+00	 6.6573237129e-01	 1.5489638255e-01
 2.0257303447e+00	 6.8445882434e-01	 3.2166592177e-01
 2.0193124879e+00	 7.0316729334e-01	 5.0866782696e-01
 2.0127076804e+00	 7.2185512544e-01	 7.0854462683e-01
 2.0059156394e+00	 7.4051965087e-01	 9.1357277518e-01
 2.0739785129e+00	 5.5542498184e-01	-1.4011810230e-02
 2.0688363181e+00	 5.7428220763e-01	-1.0776753505e-01
 2.0635096983e+00	 5.9313694523e-01	-1.3927120981e-01
 2.0579980469e+00	 6.1198665341e-01	-1.1573241715e-01
 2.0523008014e+00	 6.3082876822e-01	-4.4592489144e-02
 2.0464174439e+00	 6.4966070390e-01	 6.6470536379e-02
 2.0403475018e+00	 6.6847985372e-01	 2.0953583305e-01
 2.0340905489e+00	 6.8728359099e-01	 3.7643253171e-01
 2.0276462055e+00	 7.0606926997e-01	 5.5873125429e-01
 2.0210141399e+00	 7.2483422690e-01	 7.4773440068e-01
 2.0141940681e+00	 7.4357578096e-01	 9.3404802283e-01
 1.9314097810e+00	 7.1301448007e-01	 1.4854872265e+00
 1.9246883549e+00	 7.3096376946e-01	 1.7202468771e+00
 1.9177861838e+00	 7.4888542094e-01	 1.9144051950e+00
 1.9107031366e+00	 7.6677681873e-01	 2.0471164824e+00
 1.9034391305e+00	 7.8463533479e-01	 2.1185548635e+00
 1.8959941319e+00	 8.0245832991e-01	 2.1339897245e+00
 1.8883681565e+00	 8.2024315482e-01	 2.0987406801e+00
 1.8805612704e+00	 8.3798715128e-01	 2.0181808933e+00
 1.8725735898e+00	 8.5568765327e-01	 1.8977416328e+00
 1.8644052817e+00	 8.7334198809e-01	 1.7429181034e+00
 1.8560565644e+00	 8.9094747759e-01	 1.5592765784e+00
 1.9396882097e+00	 7.1607061016e-01	 1.3743864433e+00
 1.9329379741e+00	 7.3409683398e-01	 1.6380342242e+00
 1.9260062189e+00	 7.5209530143e-01	 1.8643252702e+00
 1.9188928123e+00	 7.7006338551e-01	 2.0303771781e+00
 1.9115976711e+00	 7.8799844693e-01	 2.1366928193e+00
 1.9041207617e+00	 8.0589783516e-01	 2.1862569601e+00
 1.8964620998e+00	 8.2375888957e-01	 2.1822233942e+00
 1.8886217517e+00	 8.4157894054e-01	 2.1279228863e+00
 1.8805998342e+00	 8.5935531060e-01	 2.0268722883e+00
 1.8723965150e+00	 8.7708531561e-01	 1.8827848569e+00
 1.8640120133e+00	 8.9476626595e-01	 1.6995817944e+00
 1.9479666384e+00	 7.1912674025e-01	 1.2711393579e+00
 1.9411875934e+00	 7.3722989850e-01	 1.5527170706e+00
 1.9342262540e+00	 7.5530518192e-01	 1.7994286975e+00
 1.9270824880e+00	 7.7334995230e-01	 1.9889731696e+00
 1.9197562117e+00	 7.9136155907e-01	 2.1216019614e+00
 1.9122473914e+00	 8.0933734041e-01	 2.1984617139e+00
 1.9045560431e+00	 8.2727462432e-01	 2.2209644026e+00
 1.8966822330e+00	 8.4517072979e-01	 2.1907990278e+00
 1.8886260786e+00	 8.6302296792e-01	 2.1099444322e+00
 1.8803877483e+00	 8.8082864313e-01	 1.9806832696e+00
 1.8719674623e+00	 8.9858505431e-01	 1.8056171413e+00
 1.9562450671e+00	 7.2218287034e-01	 1.1775239183e+00
 1.9494372126e+00	 7.4036296303e-01	 1.4674108863e+00
 1.9424462891e+00	 7.5851506241e-01	 1.7238884383e+00
 1.9352721636e+00	 7.7663651908e-01	 1.9278296342e+00
 1.9279147524e+00	 7.9472467122e-01	 2.0786514000e+00
 1.9203740212e+00	 8.1277684566e-01	 2.1761027621e+00
 1.9126499863e+00	 8.3079035907e-01	 2.2202720783e+00
 1.9047427143e+00	 8.4876251904e-01	 2.2116016034e+00
 1.8966523230e+00	 8.6669062525e-01	 2.1509031573e+00
 1.8883789816e+00	 8.8457197066e-01	 2.0393749145e+00
 1.8799229113e+00	 9.0240384266e-01	 1.8786193303e+00
 1.9645234958e+00	 7.2523900043e-01	 1.0952849159e+00
 1.9576868319e+00	 7.4349602755e-01	 1.3847661984e+00
 1.9506663242e+00	 7.6172494290e-01	 1.6418086532e+00
 1.9434618393e+00	 7.7992308587e-01	 1.8517901593e+00
 1.9360732930e+00	 7.9808778336e-01	 2.0131210702e+00
 1.9285006510e+00	 8.1621635091e-01	 2.1245874271e+00
 1.9207439296e+00	 8.3430609383e-01	 2.1853664673e+00
 1.9128031956e+00	 8.5235430830e-01	 2.1950432003e+00
 1.9046785674e+00	 8.7035828259e-01	 2.1536280806e+00
 1.8963702150e+00	 8.8831529818e-01	 2.0615757952e+00
 1.8878783602e+00	 9.0622263102e-01	 1.9198051774e+00
 1.9728019245e+00	 7.2829513052e-01	 1.0261347074e+00
 1.9659364512e+00	 7.4662909207e-01	 1.3071792032e+00
 1.9588863593e+00	 7.6493482339e-01	 1.5572261144e+00
 1.9516515150e+00	 7.8320965266e-01	 1.7656184199e+00
 1.9442318336e+00	 8.0145089550e-01	 1.9302035657e+00
 1.9366272808e+00	 8.1965585616e-01	 2.0492334565e+00
 1.9288378728e+00	 8.3782182858e-01	 2.1213811003e+00
 1.9208636769e+00	 8.5594609755e-01	 2.1457583360e+00
 1.9127048118e+00	 8.7402593992e-01	 2.1219346726e+00
 1.9043614483e+00	 8.9205862570e-01	 2.0499572559e+00
 1.8958338092e+00	 9.1004141937e-01	 1.9303719748e+00
 1.9810803532e+00	 7.3135126060e-01	 9.7175391960e-01
 1.9741860704e+00	 7.4976215659e-01	 1.2376126141e+00
 1.9671063944e+00	 7.6814470388e-01	 1.4741115815e+00
 1.9598411907e+00	 7.8649621944e-01	 1.6739998122e+00
 1.9523903742e+00	 8.0481400765e-01	 1.8350059250e+00
 1.9447539106e+00	 8.2309536141e-01	 1.9552708534e+00
 1.9369318161e+00	 8.4133756333e-01	 2.0333647560e+00
 1.9289241582e+00	 8.5953788681e-01	 2.0683050437e+00
 1.9207310563e+00	 8.7769359725e-01	 2.0595755501e+00
 1.9123526816e+00	 8.9580195323e-01	 2.0071468659e+00
 1.9037892582e+00	 9.1386020773e-01	 1.9114978493e+00
 1.9893587819e+00	 7.3440739069e-01	 9.3379213895e-01
 1.9824356897e+00	 7.5289522111e-01	 1.1789875343e+00
 1.9753264296e+00	 7.7135458437e-01	 1.3963711398e+00
 1.9680308663e+00	 7.8978278623e-01	 1.5815430444e+00
 1.9605489148e+00	 8.0817711979e-01	 1.7325513700e+00
 1.9528805404e+00	 8.2653486666e-01	 1.8478436574e+00
 1.9450257593e+00	 8.4485329808e-01	 1.9262831788e+00
 1.9369846395e+00	 8.6312967606e-01	 1.9671664157e+00
 1.9287573007e+00	 8.8136125458e-01	 1.9702417343e+00
 1.9203439150e+00	 8.9954528075e-01	 1.9357292808e+00
 1.9117447071e+00	 9.1767899609e-01	 1.8643421111e+00
 1.9976372106e+00	 7.3746352078e-01	 9.1386858611e-01
 1.9906853090e+00	 7.5602828563e-01	 1.1341781524e+00
 1.9835464647e+00	 7.7456446486e-01	 1.3278475038e+00
 1.9762205420e+00	 7.9306935301e-01	 1.4927816854e+00
 1.9687074554e+00	 8.1154023193e-01	 1.6277809997e+00
 1.9610071702e+00	 8.2997437191e-01	 1.7320116810e+00
 1.9531197026e+00	 8.4836903283e-01	 1.8050207509e+00
 1.9450451208e+00	 8.6672146532e-01	 1.8467521062e+00
 1.9367835451e+00	 8.8502891191e-01	 1.8575638763e+00
 1.9283351483e+00	 9.0328860828e-01	 1.8382470787e+00
 1.9197001561e+00	 9.2149778444e-01	 1.7900455900e+00
 2.0059156394e+00	 7.4051965087e-01	 9.1357277518e-01
 1.9989349282e+00	 7.5916135015e-01	 1.1060126754e+00
 1.9917664998e+00	 7.7777434535e-01	 1.2723212864e+00
 1.9844102177e+00	 7.9635591980e-01	 1.4121756736e+00
 1.9768659961e+00	 8.1490334408e-01	 1.5255554399e+00
 1.9691337999e+00	 8.3341387716e-01	 1.6127521992e+00
 1.9612136458e+00	 8.5188476759e-01	 1.6743821216e+00
 1.9531056021e+00	 8.7031325457e-01	 1.7113997951e+00
 1.9448097895e+00	 8.8869656924e-01	 1.7251134493e+00
 1.9363263816e+00	 9.0703193580e-01	 1.7172015747e+00
 1.9276556051e+00	 9.2531657280e-01	 1.6897309624e+00
 2.0141940681e+00	 7.4357578096e-01	 9.3404802283e-01
 2.0071845475e+00	 7.6229441467e-01	 1.0972742372e+00
 1.9999865349e+00	 7.8098422584e-01	 1.2335122344e+00
 1.9925998934e+00	 7.9964248658e-01	 1.3441127859e+00
 1.9850245367e+00	 8.1826645622e-01	 1.4306564498e+00
 1.9772604297e+00	 8.3685338241e-01	 1.4949615964e+00
 1.9693075891e+00	 8.5540050234e-01	 1.5390937935e+00
 1.9611660834e+00	 8.7390504382e-01	 1.5653766130e+00
 1.9528360339e+00	 8.9236422656e-01	 1.5764039090e+00
 1.9443176149e+00	 9.1077526332e-01	 1.5750536119e+00
 1.9356110540e+00	 9.2913536115e-01	 1.5645030676e+00
 1.8560565644e+00	 8.9094747759e-01	 1.5592765784e+00
 1.8475291724e+00	 9.0849845989e-01	 1.3967170097e+00
 1.8388220224e+00	 9.2599524687e-01	 1.2908685204e+00
 1.8299354863e+00	 9.4343515160e-01	 1.2330574953e+00
 1.8208699886e+00	 9.6081548646e-01	 1.2159530277e+00
 1.8116260061e+00	 9.7813356446e-01	 1.2325765012e+00
 1.8022040683e+00	 9.9538670041e-01	 1.2763114962e+00
 1.7926047575e+00	 1.0125722123e+00	 1.3409106604e+00
 1.7828287087e+00	 1.0296874225e+00	 1.4204994349e+00
 1.7728766099e+00	 1.0467296589e+00	 1.5095765482e+00
 1.7627492020e+00	 1.0636962566e+00	 1.6030112064e+00
 1.8640120133e+00	 8.9476626595e-01	 1.6995817944e+00
 1.8554480712e+00	 9.1239247544e-01	 1.5272174670e+00
 1.8467036004e+00	 9.2996425734e-01	 1.4077718703e+00
 1.8377789748e+00	 9.4747891317e-01	 1.3299774395e+00
 1.8286746205e+00	 9.6493374381e-01	 1.2884521293e+00
 1.8193910164e+00	 9.8232605072e-01	 1.2787725678e+00
 1.8099286942e+00	 9.9965313725e-01	 1.2967780067e+00
 1.8002882387e+00	 1.0169123099e+00	 1.3385728788e+00
 1.7904702876e+00	 1.0341008794e+00	 1.4005262350e+00
 1.7804755321e+00	 1.0512161625e+00	 1.4792679765e+00
 1.7703047160e+00	 1.0682554826e+00	 1.5716818170e+00
 1.8719674623e+00	 8.9858505431e-01	 1.8056171413e+00
 1.8633669700e+00	 9.1628649100e-01	 1.6324033343e+00
 1.8545851785e+00	 9.3393326781e-01	 1.5046179928e+00
 1.8456224633e+00	 9.5152267474e-01	 1.4170629280e+00
 1.8364792524e+00	 9.6905200115e-01	 1.3610761785e+00
 1.8271560266e+00	 9.8651853699e-01	 1.3338918492e+00
 1.8176533200e+00	 1.0039195741e+00	 1.3333108394e+00
 1.8079717198e+00	 1.0212524074e+00	 1.3573162870e+00
 1.7981118666e+00	 1.0385143364e+00	 1.4040695698e+00
 1.7880744542e+00	 1.0557026660e+00	 1.4719031102e+00
 1.7778602299e+00	 1.0728147085e+00	 1.5593099180e+00
 1.8799229113e+00	 9.0240384266e-01	 1.8786193303e+00
 1.8712858687e+00	 9.2018050656e-01	 1.7129907512e+00
 1.8624667566e+00	 9.3790227828e-01	 1.5845672357e+00
 1.8534659519e+00	 9.5556643631e-01	 1.4918334597e+00
 1.8442838843e+00	 9.7317025849e-01	 1.4304233677e+00
 1.8349210368e+00	 9.9071102326e-01	 1.3940038279e+00
 1.8253779458e+00	 1.0081860109e+00	 1.3817253328e+00
 1.8156552010e+00	 1.0255925050e+00	 1.3929827756e+00
 1.8057534456e+00	 1.0429277933e+00	 1.4272845417e+00
 1.7956733764e+00	 1.0601891696e+00	 1.4842427105e+00
 1.7854157439e+00	 1.0773739345e+00	 1.5635599821e+00
 1.8878783602e+00	 9.0622263102e-01	 1.9198051774e+00
 1.8792047675e+00	 9.2407452212e-01	 1.7686484804e+00
 1.8703483347e+00	 9.4187128875e-01	 1.6474068769e+00
 1.8613094404e+00	 9.5961019788e-01	 1.5557483756e+00
 1.8520885162e+00	 9.7728851583e-01	 1.4931579622e+00
 1.8426860471e+00	 9.9490350953e-01	 1.4552515331e+00
 1.8331025717e+00	 1.0124524478e+00	 1.4379151005e+00
 1.8233386822e+00	 1.0299326025e+00	 1.4414924610e+00
 1.8133950246e+00	 1.0473412503e+00	 1.4663995468e+00
 1.8032722986e+00	 1.0646756731e+00	 1.5131109179e+00
 1.7929712579e+00	 1.0819331605e+00	 1.5821448704e+00
 1.8958338092e+00	 9.1004141937e-01	 1.9303719748e+00
 1.8871236663e+00	 9.2796853768e-01	 1.7990517321e+00
 1.8782299128e+00	 9.4584029922e-01	 1.6915309804e+00
 1.8691529289e+00	 9.6365395945e-01	 1.6081335590e+00
 1.8598931481e+00	 9.8140677317e-01	 1.5489661608e+00
 1.8504510573e+00	 9.9909599579e-01	 1.5138504503e+00
 1.8408271975e+00	 1.0167188846e+00	 1.4978508542e+00
 1.8310221634e+00	 1.0342727001e+00	 1.4988425186e+00
 1.8210366035e+00	 1.0517547072e+00	 1.5177152208e+00
 1.8108712208e+00	 1.0691621767e+00	 1.5553944155e+00
 1.8005267719e+00	 1.0864923864e+00	 1.6128253158e+00
 1.9037892582e+00	 9.1386020773e-01	 1.9114978493e+00
 1.8950425651e+00	 9.3186255324e-01	 1.8038819805e+00
 1.8861114909e+00	 9.4980930969e-01	 1.7153612928e+00
 1.8769964175e+00	 9.6769772102e-01	 1.6463944805e+00
 1.8676977800e+00	 9.8552503052e-01	 1.5972061254e+00
 1.8582160676e+00	 1.0032884821e+00	 1.5678080693e+00
 1.8485518234e+00	 1.0209853214e+00	 1.5575792635e+00
 1.8387056445e+00	 1.0386127976e+00	 1.5611060538e+00
 1.8286781825e+00	 1.0561681642e+00	 1.5776034201e+00
 1.8184701430e+00	 1.0736486803e+00	 1.6080416202e+00
 1.8080822859e+00	 1.0910516124e+00	 1.6534094292e+00
 1.9117447071e+00	 9.1767899609e-01	 1.8643421111e+00
 1.9029614638e+00	 9.3575656880e-01	 1.7828267823e+00
 1.8939930690e+00	 9.5377832015e-01	 1.7173466173e+00
 1.8848399060e+00	 9.7174148259e-01	 1.6679806058e+00
 1.8755024119e+00	 9.8964328786e-01	 1.6345736716e+00
 1.8659810778e+00	 1.0074809683e+00	 1.6167589474e+00
 1.8562764492e+00	 1.0252517583e+00	 1.6139822229e+00
 1.8463891257e+00	 1.0429528952e+00	 1.6244310105e+00
 1.8363197615e+00	 1.0605816211e+00	 1.6425062371e+00
 1.8260690651e+00	 1.0781351838e+00	 1.6680619037e+00
 1.8156377998e+00	 1.0956108384e+00	 1.7017522256e+00
 1.9197001561e+00	 9.2149778444e-01	 1.7900455900e+00
 1.9108803626e+00	 9.3965058435e-01	 1.7355795982e+00
 1.9018746471e+00	 9.5774733062e-01	 1.6959621999e+00
 1.8926833945e+00	 9.7578524416e-01	 1.6703844332e+00
 1.8833070438e+00	 9.9376154520e-01	 1.6578201823e+00
 1.8737460881e+00	 1.0116734546e+00	 1.6570502176e+00
 1.8640010751e+00	 1.0295181951e+00	 1.6666884532e+00
 1.8540726069e+00	 1.0472929928e+00	 1.6852103740e+00
 1.8439613405e+00	 1.0649950781e+00	 1.7089350482e+00
 1.8336679873e+00	 1.0826216874e+00	 1.7325248414e+00
 1.8231933138e+00	 1.1001700644e+00	 1.7557551714e+00
 1.9276556051e+00	 9.2531657280e-01	 1.6897309624e+00
 1.9187992614e+00	 9.4354459991e-01	 1.6618396157e+00
 1.9097562252e+00	 9.6171634109e-01	 1.6497091298e+00
 1.9005268831e+00	 9.7982900573e-01	 1.6511405513e+00
 1.8911116757e+00	 9.9787980254e-01	 1.6637514091e+00
 1.8815110983e+00	 1.0158659409e+00	 1.6850023735e+00
 1.8717257009e+00	 1.0337846320e+00	 1.7122261659e+00
 1.8617560881e+00	 1.0516330903e+00	 1.7426586658e+00
 1.8516029194e+00	 1.0694085350e+00	 1.7734695939e+00
 1.8412669095e+00	 1.0871081909e+00	 1.7985594876e+00
 1.8307488278e+00	 1.1047292903e+00	 1.8133657511e+00
 1.9356110540e+00	 9.2913536115e-01	 1.5645030676e+00
 1.9267181602e+00	 9.4743861547e-01	 1.5613115751e+00
 1.9176378033e+00	 9.6568535156e-01	 1.5771137516e+00
 1.9083703716e+00	 9.8387276730e-01	 1.6078247189e+00
 1.8989163076e+00	 1.0019980599e+00	 1.6492263004e+00
 1.8892761086e+00	 1.0200584271e+00	 1.6969971478e+00
 1.8794503267e+00	 1.0380510688e+00	 1.7467451393e+00
 1.8694395692e+00	 1.0559731879e+00	 1.7940419877e+00
 1.8592444984e+00	 1.0738219920e+00	 1.8344599845e+00
 1.8488658317e+00	 1.0915946945e+00	 1.8633536782e+00
 1.8383043418e+00	 1.1092885163e+00	 1.8725770531e+00
 1.7627492020e+00	 1.0636962566e+00	 1.6030112064e+00
 1.7524472793e+00	 1.0805845591e+00	 1.6671207919e+00
 1.7419716905e+00	 1.0973919210e+00	 1.6799406211e+00
 1.7313233376e+00	 1.1141157078e+00	 1.6542600593e+00
 1.7205031752e+00	 1.1307532976e+00	 1.6040362788e+00
 1.7095122102e+00	 1.1473020817e+00	 1.5409875311e+00
 1.6983515019e+00	 1.1637594664e+00	 1.4755289209e+00
 1.6870221614e+00	 1.1801228739e+00	 1.4178346389e+00
 1.6755253515e+00	 1.1963897440e+00	 1.3778085691e+00
 1.6638622866e+00	 1.2125575349e+00	 1.3650552894e+00
 1.6520342318e+00	 1.2286237251e+00	 1.3888516172e+00
 1.7703047160e+00	 1.0682554826e+00	 1.5716818170e+00
 1.7599586370e+00	 1.0852161719e+00	 1.6437510191e+00
 1.7494381477e+00	 1.1020955736e+00	 1.6703822440e+00
 1.7387441537e+00	 1.1188910422e+00	 1.6624342828e+00
 1.7278776138e+00	 1.1355999441e+00	 1.6320369963e+00
 1.7168395392e+00	 1.1522196598e+00	 1.5882518333e+00
 1.7056309938e+00	 1.1687475843e+00	 1.5394760366e+00
 1.6942530933e+00	 1.1851811288e+00	 1.4939408263e+00
 1.6827070057e+00	 1.2015177221e+00	 1.4596846295e+00
 1.6709939504e+00	 1.2177548117e+00	 1.4445266223e+00
 1.6591151981e+00	 1.2338898649e+00	 1.4560407327e+00
 1.7778602299e+00	 1.0728147085e+00	 1.5593099180e+00
 1.7674699948e+00	 1.0898477847e+00	 1.6328346482e+00
 1.7569046049e+00	 1.1067992263e+00	 1.6657418013e+00
 1.7461649698e+00	 1.1236663765e+00	 1.6677947683e+00
 1.7352520524e+00	 1.1404465907e+00	 1.6492671260e+00
 1.7241668683e+00	 1.1571372379e+00	 1.6172094172e+00
 1.7129104857e+00	 1.1737357022e+00	 1.5784612104e+00
 1.7014840253e+00	 1.1902393838e+00	 1.5397582559e+00
 1.6898886599e+00	 1.2066457003e+00	 1.5077076218e+00
 1.6781256143e+00	 1.2229520884e+00	 1.4887630751e+00
 1.6661961644e+00	 1.2391560047e+00	 1.4892008565e+00
 1.7854157439e+00	 1.0773739345e+00	 1.5635599821e+00
 1.7749813526e+00	 1.0944793975e+00	 1.6330207136e+00
 1.7643710621e+00	 1.1115028790e+00	 1.6655099878e+00
 1.7535857859e+00	 1.1284417108e+00	 1.6706109870e+00
 1.7426264911e+00	 1.1452932372e+00	 1.6565324864e+00
 1.7314941973e+00	 1.1620548161e+00	 1.6290413274e+00
 1.7201899775e+00	 1.1787238202e+00	 1.5938738619e+00
 1.7087149572e+00	 1.1952976387e+00	 1.5567122451e+00
 1.6970703141e+00	 1.2117736785e+00	 1.5231607675e+00
 1.6852572781e+00	 1.2281493651e+00	 1.4987223777e+00
 1.6732771307e+00	 1.2444221445e+00	 1.4887755479e+00
 1.7929712579e+00	 1.0819331605e+00	 1.5821448704e+00
 1.7824927103e+00	 1.0991110103e+00	 1.6429902278e+00
 1.7718375193e+00	 1.1162065317e+00	 1.6694092771e+00
 1.7610066021e+00	 1.1332170452e+00	 1.6711561462e+00
 1.7500009297e+00	 1.1501398838e+00	 1.6546331243e+00
 1.7388215263e+00	 1.1669723942e+00	 1.6249160526e+00
 1.7274694694e+00	 1.1837119381e+00	 1.5870868933e+00
 1.7159458892e+00	 1.2003558937e+00	 1.5462105536e+00
 1.7042519683e+00	 1.2169016567e+00	 1.5073117077e+00
 1.6923889420e+00	 1.2333466419e+00	 1.4753517687e+00
 1.6803580971e+00	 1.2496882843e+00	 1.4552061665e+00
 1.8005267719e+00	 1.0864923864e+00	 1.6128253158e+00
 1.7900040681e+00	 1.1037426231e+00	 1.6614560160e+00
 1.7793039765e+00	 1.1209101843e+00	 1.6771806832e+00
 1.7684274182e+00	 1.1379923795e+00	 1.6697067592e+00
 1.7573753683e+00	 1.1549865304e+00	 1.6443630649e+00
 1.7461488554e+00	 1.1718899723e+00	 1.6059893988e+00
 1.7347489613e+00	 1.1887000561e+00	 1.5594566273e+00
 1.7231768211e+00	 1.2054141486e+00	 1.5096433255e+00
 1.7114336225e+00	 1.2220296348e+00	 1.4614123866e+00
 1.6995206058e+00	 1.2385439186e+00	 1.4195877550e+00
 1.6874390634e+00	 1.2549544241e+00	 1.3889314432e+00
 1.8080822859e+00	 1.0910516124e+00	 1.6534094292e+00
 1.7975154259e+00	 1.1083742359e+00	 1.6871625631e+00
 1.7867704336e+00	 1.1256138370e+00	 1.6884476476e+00
 1.7758482343e+00	 1.1427677139e+00	 1.6665422147e+00
 1.7647498069e+00	 1.1598331769e+00	 1.6265100560e+00
 1.7534761844e+00	 1.1768075504e+00	 1.5734043535e+00
 1.7420284532e+00	 1.1936881740e+00	 1.5123227344e+00
 1.7304077531e+00	 1.2104724036e+00	 1.4483830202e+00
 1.7186152767e+00	 1.2271576130e+00	 1.3866989245e+00
 1.7066522697e+00	 1.2437411953e+00	 1.3323558646e+00
 1.6945200297e+00	 1.2602205639e+00	 1.2903870472e+00
 1.8156377998e+00	 1.0956108384e+00	 1.7017522256e+00
 1.8050267837e+00	 1.1130058486e+00	 1.7189261939e+00
 1.7942368908e+00	 1.1303174897e+00	 1.7028474995e+00
 1.7832690504e+00	 1.1475430482e+00	 1.6619443446e+00
 1.7721242455e+00	 1.1646798235e+00	 1.6018553070e+00
 1.7608035134e+00	 1.1817251286e+00	 1.5282909412e+00
 1.7493079451e+00	 1.1986762919e+00	 1.4470081493e+00
 1.7376386850e+00	 1.2155306585e+00	 1.3637843319e+00
 1.7257969309e+00	 1.2322855912e+00	 1.2843914821e+00
 1.7137839336e+00	 1.2489384720e+00	 1.2145703938e+00
 1.7016009960e+00	 1.2654867037e+00	 1.1600051529e+00
 1.8231933138e+00	 1.1001700644e+00	 1.7557551714e+00
 1.8125381414e+00	 1.1176374614e+00	 1.7559328874e+00
 1.8017033480e+00	 1.1350211424e+00	 1.7200308067e+00
 1.7906898665e+00	 1.1523183826e+00	 1.6561969924e+00
 1.7794986842e+00	 1.1695264700e+00	 1.5711732230e+00
 1.7681308425e+00	 1.1866427067e+00	 1.4717660714e+00
 1.7565874370e+00	 1.2036644099e+00	 1.3648189781e+00
 1.7448696170e+00	 1.2205889135e+00	 1.2571841005e+00
 1.7329785851e+00	 1.2374135694e+00	 1.1556941151e+00
 1.7209155974e+00	 1.2541357488e+00	 1.0671341467e+00
 1.7086819623e+00	 1.2707528435e+00	 9.9821400283e-01
 1.8307488278e+00	 1.1047292903e+00	 1.8133657511e+00
 1.8200494992e+00	 1.1222690742e+00	 1.7971676287e+00
 1.8091698052e+00	 1.1397247950e+00	 1.7396607319e+00
 1.7981106826e+00	 1.1570937169e+00	 1.6495855804e+00
 1.7868731228e+00	 1.1743731166e+00	 1.5352311335e+00
 1.7754581715e+00	 1.1915602848e+00	 1.4049333783e+00
 1.7638669289e+00	 1.2086525278e+00	 1.2670443952e+00
 1.7521005489e+00	 1.2256471684e+00	 1.1299012106e+00
 1.7401602394e+00	 1.2425415475e+00	 1.0017946205e+00
 1.7280472613e+00	 1.2593330255e+00	 8.9093816905e-01
 1.7157629287e+00	 1.2760189833e+00	 8.0543746969e-01
 1.8383043418e+00	 1.1092885163e+00	 1.8725770531e+00
 1.8275608570e+00	 1.1269006870e+00	 1.8415612950e+00
 1.8166362624e+00	 1.1444284477e+00	 1.7614123934e+00
 1.8055314987e+00	 1.1618690513e+00	 1.6423966759e+00
 1.7942475614e+00	 1.1792197631e+00	 1.4947890170e+00
 1.7827855005e+00	 1.1964778629e+00	 1.3288830520e+00
 1.7711464208e+00	 1.2136406457e+00	 1.1549565312e+00
 1.7593314809e+00	 1.2307054234e+00	 9.8323648241e-01
 1.7473418936e+00	 1.2476695257e+00	 8.2386437419e-01
 1.7351789251e+00	 1.2645303022e+00	 6.8686147682e-01
 1.7228438950e+00	 1.2812851231e+00	 5.8209461621e-01
 1.6520342318e+00	 1.2286237251e+00	 1.3888516172e+00
 1.6400404515e+00	 1.2445885172e+00	 1.4452373755e+00
 1.6278843150e+00	 1.2604466842e+00	 1.5187458468e+00
 1.6155672454e+00	 1.2761957614e+00	 1.6013262521e+00
 1.6030907154e+00	 1.2918333090e+00	 1.6851574496e+00
 1.5904562459e+00	 1.3073569135e+00	 1.7626490787e+00
 1.5776654063e+00	 1.3227641886e+00	 1.8264432566e+00
 1.5647198132e+00	 1.3380527767e+00	 1.8694169074e+00
 1.5516211303e+00	 1.3532203499e+00	 1.8846847959e+00
 1.5383710673e+00	 1.3682646113e+00	 1.8656033358e+00
 1.5249713791e+00	 1.3831832959e+00	 1.8057752297e+00
 1.6591151981e+00	 1.2338898649e+00	 1.4560407327e+00
 1.6470700099e+00	 1.2499230855e+00	 1.4924432044e+00
 1.6348617697e+00	 1.2658492239e+00	 1.5424343511e+00
 1.6224919066e+00	 1.2816658049e+00	 1.5992670670e+00
 1.6099618995e+00	 1.2973703784e+00	 1.6563771860e+00
 1.5972732760e+00	 1.3129605203e+00	 1.7073823354e+00
 1.5844276121e+00	 1.3284338343e+00	 1.7460814325e+00
 1.5714265316e+00	 1.3437879525e+00	 1.7664549071e+00
 1.5582717050e+00	 1.3590205371e+00	 1.7626657327e+00
 1.5449648494e+00	 1.3741292813e+00	 1.7290613385e+00
 1.5315077273e+00	 1.3891119105e+00	 1.6601764665e+00
 1.6661961644e+00	 1.2391560047e+00	 1.4892008565e+00
 1.6540995684e+00	 1.2552576537e+00	 1.5089761254e+00
 1.6418392244e+00	 1.2712517636e+00	 1.5400626057e+00
 1.6294165677e+00	 1.2871358485e+00	 1.5767312703e+00
 1.6168330836e+00	 1.3029074478e+00	 1.6133943535e+00
 1.6040903061e+00	 1.3185641271e+00	 1.6446023040e+00
 1.5911898180e+00	 1.3341034799e+00	 1.6650414609e+00
 1.5781332499e+00	 1.3495231282e+00	 1.6695325486e+00
 1.5649222796e+00	 1.3648207242e+00	 1.6530300742e+00
 1.5515586315e+00	 1.3799939513e+00	 1.6106227056e+00
 1.5380440755e+00	 1.3950405252e+00	 1.5375347027e+00
 1.6732771307e+00	 1.2444221445e+00	 1.4887755479e+00
 1.6611291269e+00	 1.2605922220e+00	 1.4947012741e+00
 1.6488166791e+00	 1.2766543033e+00	 1.5109835628e+00
 1.6363412289e+00	 1.2926058921e+00	 1.5326294280e+00
 1.6237042677e+00	 1.3084445172e+00	 1.5547504359e+00
 1.6109073362e+00	 1.3241677340e+00	 1.5725581395e+00
 1.5979520239e+00	 1.3397731255e+00	 1.5813603154e+00
 1.5848399683e+00	 1.3552583039e+00	 1.5765581023e+00
 1.5715728543e+00	 1.3706209114e+00	 1.5536441320e+00
 1.5581524135e+00	 1.3858586213e+00	 1.5082017349e+00
 1.5445804237e+00	 1.4009691398e+00	 1.4359052962e+00
 1.6803580971e+00	 1.2496882843e+00	 1.4552061665e+00
 1.6681586853e+00	 1.2659267902e+00	 1.4494909881e+00
 1.6557941338e+00	 1.2820568430e+00	 1.4545656899e+00
 1.6432658900e+00	 1.2980759356e+00	 1.4658947898e+00
 1.6305754518e+00	 1.3139815865e+00	 1.4790155664e+00
 1.6177243663e+00	 1.3297713408e+00	 1.4895323555e+00
 1.6047142298e+00	 1.3454427712e+00	 1.4931117234e+00
 1.5915466866e+00	 1.3609934797e+00	 1.4854786203e+00
 1.5782234289e+00	 1.3764210985e+00	 1.4624136076e+00
 1.5647461956e+00	 1.3917232913e+00	 1.4197512488e+00
 1.5511167719e+00	 1.4068977544e+00	 1.3533797397e+00
 1.6874390634e+00	 1.2549544241e+00	 1.3889314432e+00
 1.6751882438e+00	 1.2712613585e+00	 1.3732241649e+00
 1.6627715885e+00	 1.2874593827e+00	 1.3701921393e+00
 1.6501905512e+00	 1.3035459792e+00	 1.3754822952e+00
 1.6374466359e+00	 1.3195186559e+00	 1.3847873972e+00
 1.6245413965e+00	 1.3353749476e+00	 1.3938395826e+00
 1.6114764357e+00	 1.3511124168e+00	 1.3984048440e+00
 1.5982534050e+00	 1.3667286554e+00	 1.3942785633e+00
 1.5848740035e+00	 1.3822212857e+00	 1.3772821982e+00
 1.5713399777e+00	 1.3975879614e+00	 1.3432612112e+00
 1.5576531201e+00	 1.4128263691e+00	 1.2880843224e+00
 1.6945200297e+00	 1.2602205639e+00	 1.2903870472e+00
 1.6822178022e+00	 1.2765959267e+00	 1.2657856230e+00
 1.6697490431e+00	 1.2928619224e+00	 1.2572599254e+00
 1.6571152123e+00	 1.3090160227e+00	 1.2603675906e+00
 1.6443178200e+00	 1.3250557253e+00	 1.2706899826e+00
 1.6313584266e+00	 1.3409785544e+00	 1.2838253455e+00
 1.6182386416e+00	 1.3567820624e+00	 1.2953829649e+00
 1.6049601233e+00	 1.3724638312e+00	 1.3009784472e+00
 1.5915245782e+00	 1.3880214728e+00	 1.2962302231e+00
 1.5779337598e+00	 1.4034526314e+00	 1.2767573658e+00
 1.5641894683e+00	 1.4187549837e+00	 1.2381788110e+00
 1.7016009960e+00	 1.2654867037e+00	 1.1600051529e+00
 1.6892473607e+00	 1.2819304950e+00	 1.1270654656e+00
 1.6767264978e+00	 1.2982644621e+00	 1.1151791093e+00
 1.6640398735e+00	 1.3144860663e+00	 1.1195460588e+00
 1.6511890041e+00	 1.3305927947e+00	 1.1353726774e+00
 1.6381754567e+00	 1.3465821612e+00	 1.1578648557e+00
 1.6250008475e+00	 1.3624517081e+00	 1.1822222182e+00
 1.6116668417e+00	 1.3781990069e+00	 1.2036335098e+00
 1.5981751528e+00	 1.3938216600e+00	 1.2172732706e+00
 1.5845275419e+00	 1.4093173014e+00	 1.2182998928e+00
 1.5707258165e+00	 1.4246835984e+00	 1.2018551493e+00
 1.7086819623e+00	 1.2707528435e+00	 9.9821400283e-01
 1.6962769191e+00	 1.2872650633e+00	 9.5695844756e-01
 1.6837039525e+00	 1.3036670018e+00	 9.4337198995e-01
 1.6709645346e+00	 1.3199561098e+00	 9.5203185803e-01
 1.6580601882e+00	 1.3361298640e+00	 9.7750904848e-01
 1.6449924868e+00	 1.3521857680e+00	 1.0143618212e+00
 1.6317630533e+00	 1.3681213537e+00	 1.0571303142e+00
 1.6183735600e+00	 1.3839341827e+00	 1.1003323961e+00
 1.6048257275e+00	 1.3996218471e+00	 1.1384608640e+00
 1.5911213239e+00	 1.4151819714e+00	 1.1659820860e+00
 1.5772621647e+00	 1.4306122130e+00	 1.1773361759e+00
 1.7157629287e+00	 1.2760189833e+00	 8.0543746969e-01
 1.7033064776e+00	 1.2925996315e+00	 7.5536334419e-01
 1.6906814072e+00	 1.3090695415e+00	 7.4127230259e-01
 1.6778891957e+00	 1.3254261534e+00	 7.5685697190e-01
 1.6649313724e+00	 1.3416669334e+00	 7.9579580021e-01
 1.6518095169e+00	 1.3577893748e+00	 8.5174727204e-01
 1.6385252592e+00	 1.3737909994e+00	 9.1834529301e-01
 1.6250802784e+00	 1.3896693584e+00	 9.8919586297e-01
 1.6114763021e+00	 1.4054220343e+00	 1.0578751475e+00
 1.5977151060e+00	 1.4210466414e+00	 1.1179290481e+00
 1.5837985129e+00	 1.4365408276e+00	 1.1628743600e+00
 1.7228438950e+00	 1.2812851231e+00	 5.8209461621e-01
 1.7103360360e+00	 1.2979341998e+00	 5.2218232362e-01
 1.6976588619e+00	 1.3144720812e+00	 5.0832442386e-01
 1.6848138569e+00	 1.3308961970e+00	 5.3307026977e-01
 1.6718025565e+00	 1.3472040028e+00	 5.8895171266e-01
 1.6586265470e+00	 1.3633929816e+00	 6.6847840103e-01
 1.6452874651e+00	 1.3794606450e+00	 7.6413429282e-01
 1.6317869967e+00	 1.3954045341e+00	 8.6837550183e-01
 1.6181268767e+00	 1.4112222214e+00	 9.7362958963e-01
 1.6043088881e+00	 1.4269113115e+00	 1.0722964039e+00
 1.5903348611e+00	 1.4424694423e+00	 1.1567505532e+00
 1.5249713791e+00	 1.3831832959e+00	 1.8057752297e+00
 1.5114261768e+00	 1.3979716729e+00	 1.7268450066e+00
 1.4977350178e+00	 1.4126301128e+00	 1.6573347187e+00
 1.4838997636e+00	 1.4271564788e+00	 1.6010715297e+00
 1.4699223178e+00	 1.4415486705e+00	 1.5562039619e+00
 1.4558046250e+00	 1.4558046250e+00	 1.5149863592e+00
 1.4415486705e+00	 1.4699223178e+00	 1.4785217730e+00
 1.4271564788e+00	 1.4838997636e+00	 1.4481933231e+00
 1.4126301128e+00	 1.4977350178e+00	 1.4269187661e+00
 1.3979716729e+00	 1.5114261768e+00	 1.4168622364e+00
 1.3831832959e+00	 1.5249713791e+00	 1.4193902643e+00
 1.5315077273e+00	 1.3891119105e+00	 1.6601764665e+00
 1.5179044674e+00	 1.4039636736e+00	 1.5748022525e+00
 1.5041546253e+00	 1.4186849427e+00	 1.4980468227e+00
 1.4902600703e+00	 1.4332735718e+00	 1.4337857665e+00
 1.4762227141e+00	 1.4477274514e+00	 1.3843606893e+00
 1.4620445099e+00	 1.4620445099e+00	 1.3407832070e+00
 1.4477274514e+00	 1.4762227141e+00	 1.3014443827e+00
 1.4332735718e+00	 1.4902600703e+00	 1.2682545782e+00
 1.4186849427e+00	 1.5041546253e+00	 1.2445204818e+00
 1.4039636736e+00	 1.5179044674e+00	 1.2318771057e+00
 1.3891119105e+00	 1.5315077273e+00	 1.2318309320e+00
 1.5380440755e+00	 1.3950405252e+00	 1.5375347027e+00
 1.5243827581e+00	 1.4099556744e+00	 1.4498320224e+00
 1.5105742327e+00	 1.4247397726e+00	 1.3694618843e+00
 1.4966203769e+00	 1.4393906647e+00	 1.3002981841e+00
 1.4825231104e+00	 1.4539062324e+00	 1.2457818023e+00
 1.4682843949e+00	 1.4682843949e+00	 1.2018109951e+00
 1.4539062324e+00	 1.4825231104e+00	 1.1609142783e+00
 1.4393906647e+00	 1.4966203769e+00	 1.1260029951e+00
 1.4247397726e+00	 1.5105742327e+00	 1.0997068714e+00
 1.4099556744e+00	 1.5243827581e+00	 1.0835815580e+00
 1.3950405252e+00	 1.5380440755e+00	 1.0792460836e+00
 1.5445804237e+00	 1.4009691398e+00	 1.4359052962e+00
 1.5308610487e+00	 1.4159476751e+00	 1.3501924072e+00
 1.5169938401e+00	 1.4307946025e+00	 1.2700694991e+00
 1.5029806835e+00	 1.4455077577e+00	 1.1993593659e+00
 1.4888235068e+00	 1.4600850133e+00	 1.1414555148e+00
 1.4745242798e+00	 1.4745242798e+00	 1.0973290328e+00
 1.4600850133e+00	 1.4888235068e+00	 1.0568880299e+00
 1.4455077577e+00	 1.5029806835e+00	 1.0214651098e+00
 1.4307946025e+00	 1.5169938401e+00	 9.9290574630e-01
 1.4159476751e+00	 1.5308610487e+00	 9.7283738500e-01
 1.4009691398e+00	 1.5445804237e+00	 9.6296480356e-01
 1.5511167719e+00	 1.4068977544e+00	 1.3533797397e+00
 1.5373393393e+00	 1.4219396759e+00	 1.2741742482e+00
 1.5234134475e+00	 1.4368494324e+00	 1.1983881902e+00
 1.5093409901e+00	 1.4516248506e+00	 1.1297445490e+00
 1.4951239031e+00	 1.4662637942e+00	 1.0715431002e+00
 1.4807641648e+00	 1.4807641648e+00	 1.0266346751e+00
 1.4662637942e+00	 1.4951239031e+00	 9.8921959429e-01
 1.4516248506e+00	 1.5093409901e+00	 9.5467659272e-01
 1.4368494324e+00	 1.5234134475e+00	 9.2454692528e-01
 1.4219396759e+00	 1.5373393393e+00	 9.0050074500e-01
 1.4068977544e+00	 1.5511167719e+00	 8.8430237850e-01
 1.5576531201e+00	 1.4128263691e+00	 1.2880843224e+00
 1.5438176299e+00	 1.4279316766e+00	 1.2200998656e+00
 1.5298330550e+00	 1.4429042623e+00	 1.1529642137e+00
 1.5157012967e+00	 1.4577419436e+00	 1.0902525177e+00
 1.5014242995e+00	 1.4724425751e+00	 1.0351251244e+00
 1.4870040497e+00	 1.4870040497e+00	 9.9053654636e-01
 1.4724425751e+00	 1.5014242995e+00	 9.5759697037e-01
 1.4577419436e+00	 1.5157012967e+00	 9.2568153827e-01
 1.4429042623e+00	 1.5298330550e+00	 8.9506166698e-01
 1.4279316766e+00	 1.5438176299e+00	 8.6742174848e-01
 1.4128263691e+00	 1.5576531201e+00	 8.4456004867e-01
 1.5641894683e+00	 1.4187549837e+00	 1.2381788110e+00
 1.5502959205e+00	 1.4339236773e+00	 1.1863218046e+00
 1.5362526624e+00	 1.4489590922e+00	 1.1323703796e+00
 1.5220616033e+00	 1.4638590365e+00	 1.0797045101e+00
 1.5077246958e+00	 1.4786213560e+00	 1.0313000663e+00
 1.4932439346e+00	 1.4932439346e+00	 9.9069383431e-01
 1.4786213560e+00	 1.5077246958e+00	 9.6172223732e-01
 1.4638590365e+00	 1.5220616033e+00	 9.3453175753e-01
 1.4489590922e+00	 1.5362526624e+00	 9.0488209998e-01
 1.4339236773e+00	 1.5502959205e+00	 8.7444403831e-01
 1.4187549837e+00	 1.5641894683e+00	 8.4502475016e-01
 1.5707258165e+00	 1.4246835984e+00	 1.2018551493e+00
 1.5567742111e+00	 1.4399156781e+00	 1.1712215981e+00
 1.5426722698e+00	 1.4550139221e+00	 1.1352048878e+00
 1.5284219099e+00	 1.4699761295e+00	 1.0969431372e+00
 1.5140250921e+00	 1.4848001369e+00	 1.0592584632e+00
 1.4994838196e+00	 1.4994838196e+00	 1.0265387996e+00
 1.4848001369e+00	 1.5140250921e+00	 1.0017658261e+00
 1.4699761295e+00	 1.5284219099e+00	 9.8128607163e-01
 1.4550139221e+00	 1.5426722698e+00	 9.5444065089e-01
 1.4399156781e+00	 1.5567742111e+00	 9.2240436393e-01
 1.4246835984e+00	 1.5707258165e+00	 8.8696884677e-01
 1.5772621647e+00	 1.4306122130e+00	 1.1773361759e+00
 1.5632525017e+00	 1.4459076788e+00	 1.1732085461e+00
 1.5490918772e+00	 1.4610687520e+00	 1.1600901788e+00
 1.5347822165e+00	 1.4760932225e+00	 1.1408313150e+00
 1.5203254885e+00	 1.4909789179e+00	 1.1185141253e+00
 1.5057237045e+00	 1.5057237045e+00	 1.0974726840e+00
 1.4909789179e+00	 1.5203254885e+00	 1.0798160000e+00
 1.4760932225e+00	 1.5347822165e+00	 1.0660096067e+00
 1.4610687520e+00	 1.5490918772e+00	 1.0441694705e+00
 1.4459076788e+00	 1.5632525017e+00	 1.0121321498e+00
 1.4306122130e+00	 1.5772621647e+00	 9.7164985248e-01
 1.5837985129e+00	 1.4365408276e+00	 1.1628743600e+00
 1.5697307923e+00	 1.4518996795e+00	 1.1907185110e+00
 1.5555114847e+00	 1.4671235819e+00	 1.2056717984e+00
 1.5411425232e+00	 1.4822103154e+00	 1.2102545867e+00
 1.5266258848e+00	 1.4971576988e+00	 1.2082396798e+00
 1.5119635895e+00	 1.5119635895e+00	 1.2028911488e+00
 1.4971576988e+00	 1.5266258848e+00	 1.1959172291e+00
 1.4822103154e+00	 1.5411425232e+00	 1.1887944099e+00
 1.4671235819e+00	 1.5555114847e+00	 1.1744998581e+00
 1.4518996795e+00	 1.5697307923e+00	 1.1444490587e+00
 1.4365408276e+00	 1.5837985129e+00	 1.1003101444e+00
 1.5903348611e+00	 1.4424694423e+00	 1.1567505532e+00
 1.5762090829e+00	 1.4578916803e+00	 1.2222127284e+00
 1.5619310921e+00	 1.4731784118e+00	 1.2706172761e+00
 1.5475028298e+00	 1.4883274084e+00	 1.3043964216e+00
 1.5329262812e+00	 1.5033364797e+00	 1.3275502909e+00
 1.5182034744e+00	 1.5182034744e+00	 1.3421845399e+00
 1.5033364797e+00	 1.5329262812e+00	 1.3497626569e+00
 1.4883274084e+00	 1.5475028298e+00	 1.3515454328e+00
 1.4731784118e+00	 1.5619310921e+00	 1.3458616837e+00
 1.4578916803e+00	 1.5762090829e+00	 1.3201685491e+00
 1.4424694423e+00	 1.5903348611e+00	 1.2741766668e+00
 1.3831832959e+00	 1.5249713791e+00	 1.4193902643e+00
 1.3682646113e+00	 1.5383710673e+00	 1.4244532369e+00
 1.3532203499e+00	 1.5516211303e+00	 1.4213938647e+00
 1.3380527767e+00	 1.5647198132e+00	 1.4109080454e+00
 1.3227641886e+00	 1.5776654063e+00	 1.3939649889e+00
 1.3073569135e+00	 1.5904562459e+00	 1.3717776572e+00
 1.2918333090e+00	 1.6030907154e+00	 1.3457740469e+00
 1.2761957614e+00	 1.6155672454e+00	 1.3175694516e+00
 1.2604466842e+00	 1.6278843150e+00	 1.2889398325e+00
 1.2445885172e+00	 1.6400404515e+00	 1.2617964090e+00
 1.2286237251e+00	 1.6520342318e+00	 1.2381615718e+00
 1.3891119105e+00	 1.5315077273e+00	 1.2318309320e+00
 1.3741292813e+00	 1.5449648494e+00	 1.2364042857e+00
 1.3590205371e+00	 1.5582717050e+00	 1.2364873456e+00
 1.3437879525e+00	 1.5714265316e+00	 1.2321648652e+00
 1.3284338343e+00	 1.5844276121e+00	 1.2238369247e+00
 1.3129605203e+00	 1.5972732760e+00	 1.2121893636e+00
 1.2973703784e+00	 1.6099618995e+00	 1.1981650437e+00
 1.2816658049e+00	 1.6224919066e+00	 1.1829360822e+00
 1.2658492239e+00	 1.6348617697e+00	 1.1678771845e+00
 1.2499230855e+00	 1.6470700099e+00	 1.1545401912e+00
 1.2338898649e+00	 1.6591151981e+00	 1.1446299415e+00
 1.3950405252e+00	 1.5380440755e+00	 1.0792460836e+00
 1.3799939513e+00	 1.5515586315e+00	 1.0809675342e+00
 1.3648207242e+00	 1.5649222796e+00	 1.0814863462e+00
 1.3495231282e+00	 1.5781332499e+00	 1.0804377444e+00
 1.3341034799e+00	 1.5911898180e+00	 1.0778047063e+00
 1.3185641271e+00	 1.6040903061e+00	 1.0738881974e+00
 1.3029074478e+00	 1.6168330836e+00	 1.0692782383e+00
 1.2871358485e+00	 1.6294165677e+00	 1.0648259500e+00
 1.2712517636e+00	 1.6418392244e+00	 1.0616167062e+00
 1.2552576537e+00	 1.6540995684e+00	 1.0609445097e+00
 1.2391560047e+00	 1.6661961644e+00	 1.0642876966e+00
 1.4009691398e+00	 1.5445804237e+00	 9.6296480356e-01
 1.3858586213e+00	 1.5581524135e+00	 9.5990541897e-01
 1.3706209114e+00	 1.5715728543e+00	 9.5848366087e-01
 1.3552583039e+00	 1.5848399683e+00	 9.5804502719e-01
 1.3397731255e+00	 1.5979520239e+00	 9.5830568266e-01
 1.3241677340e+00	 1.6109073362e+00	 9.5932230461e-01
 1.3084445172e+00	 1.6237042677e+00	 9.6146278198e-01
 1.2926058921e+00	 1.6363412289e+00	 9.6537791352e-01
 1.2766543033e+00	 1.6488166791e+00	 9.7197423787e-01
 1.2605922220e+00	 1.6611291269e+00	 9.8238811409e-01
 1.2444221445e+00	 1.6732771307e+00	 9.9796115687e-01
 1.4068977544e+00	 1.5511167719e+00	 8.8430237850e-01
 1.3917232913e+00	 1.5647461956e+00	 8.7495902571e-01
 1.3764210985e+00	 1.5782234289e+00	 8.6954495733e-01
 1.3609934797e+00	 1.5915466866e+00	 8.6727396512e-01
 1.3454427712e+00	 1.6047142298e+00	 8.6774398200e-01
 1.3297713408e+00	 1.6177243663e+00	 8.7090635049e-01
 1.3139815865e+00	 1.6305754518e+00	 8.7703597960e-01
 1.2980759356e+00	 1.6432658900e+00	 8.8670253901e-01
 1.2820568430e+00	 1.6557941338e+00	 9.0074282571e-01
 1.2659267902e+00	 1.6681586853e+00	 9.2023442360e-01
 1.2496882843e+00	 1.6803580971e+00	 9.4647076198e-01
 1.4128263691e+00	 1.5576531201e+00	 8.4456004867e-01
 1.3975879614e+00	 1.5713399777e+00	 8.2784799573e-01
 1.3822212857e+00	 1.5848740035e+00	 8.1670880238e-01
 1.3667286554e+00	 1.5982534050e+00	 8.1038082387e-01
 1.3511124168e+00	 1.6114764357e+00	 8.0849066412e-01
 1.3353749476e+00	 1.6245413965e+00	 8.1102167876e-01
 1.3195186559e+00	 1.6374466359e+00	 8.1828341755e-01
 1.3035459792e+00	 1.6501905512e+00	 8.3088215825e-01
 1.2874593827e+00	 1.6627715885e+00	 8.4969266939e-01
 1.2712613585e+00	 1.6751882438e+00	 8.7583132507e-01
 1.2549544241e+00	 1.6874390634e+00	 9.1063067908e-01
 1.4187549837e+00	 1.5641894683e+00	 8.4502475016e-01
 1.4034526314e+00	 1.5779337598e+00	 8.2027041873e-01
 1.3880214728e+00	 1.5915245782e+00	 8.0198666986e-01
 1.3724638312e+00	 1.6049601233e+00	 7.8959097168e-01
 1.3567820624e+00	 1.6182386416e+00	 7.8288385222e-01
 1.3409785544e+00	 1.6313584266e+00	 7.8201645023e-01
 1.3250557253e+00	 1.6443178200e+00	 7.8745907174e-01
 1.3090160227e+00	 1.6571152123e+00	 7.9997090794e-01
 1.2928619224e+00	 1.6697490431e+00	 8.2057105481e-01
 1.2765959267e+00	 1.6822178022e+00	 8.5051095974e-01
 1.2602205639e+00	 1.6945200297e+00	 8.9124840453e-01
 1.4246835984e+00	 1.5707258165e+00	 8.8696884677e-01
 1.4093173014e+00	 1.5845275419e+00	 8.5390271158e-01
 1.3938216600e+00	 1.5981751528e+00	 8.2736293238e-01
 1.3781990069e+00	 1.6116668417e+00	 8.0709894889e-01
 1.3624517081e+00	 1.6250008475e+00	 7.9322884509e-01
 1.3465821612e+00	 1.6381754567e+00	 7.8620576177e-01
 1.3305927947e+00	 1.6511890041e+00	 7.8678539678e-01
 1.3144860663e+00	 1.6640398735e+00	 7.9599475224e-01
 1.2982644621e+00	 1.6767264978e+00	 8.1510227236e-01
 1.2819304950e+00	 1.6892473607e+00	 8.4558949944e-01
 1.2654867037e+00	 1.7016009960e+00	 8.8912435962e-01
 1.4306122130e+00	 1.5772621647e+00	 9.7164985248e-01
 1.4151819714e+00	 1.5911213239e+00	 9.3039948393e-01
 1.3996218471e+00	 1.6048257275e+00	 8.9479483681e-01
 1.3839341827e+00	 1.6183735600e+00	 8.6506851955e-01
 1.3681213537e+00	 1.6317630533e+00	 8.4179821033e-01
 1.3521857680e+00	 1.6449924868e+00	 8.2587174606e-01
 1.3361298640e+00	 1.6580601882e+00	 8.1845339681e-01
 1.3199561098e+00	 1.6709645346e+00	 8.2095148855e-01
 1.3036670018e+00	 1.6837039525e+00	 8.3498752120e-01
 1.2872650633e+00	 1.6962769191e+00	 8.6236691241e-01
 1.2707528435e+00	 1.7086819623e+00	 9.0505148059e-01
 1.4365408276e+00	 1.5837985129e+00	 1.1003101444e+00
 1.4210466414e+00	 1.5977151060e+00	 1.0513933909e+00
 1.4054220343e+00	 1.6114763021e+00	 1.0062124641e+00
 1.3896693584e+00	 1.6250802784e+00	 9.6563270548e-01
 1.3737909994e+00	 1.6385252592e+00	 9.3083185898e-01
 1.3577893748e+00	 1.6518095169e+00	 9.0326365267e-01
 1.3416669334e+00	 1.6649313724e+00	 8.8462267840e-01
 1.3254261534e+00	 1.6778891957e+00	 8.7681073707e-01
 1.3090695415e+00	 1.6906814072e+00	 8.8190479990e-01
 1.2925996315e+00	 1.7033064776e+00	 9.0212671896e-01
 1.2760189833e+00	 1.7157629287e+00	 9.3981480286e-01
 1.4424694423e+00	 1.5903348611e+00	 1.2741766668e+00
 1.4269113115e+00	 1.6043088881e+00	 1.2184949733e+00
 1.4112222214e+00	 1.6181268767e+00	 1.1635186742e+00
 1.3954045341e+00	 1.6317869967e+00	 1.1108938033e+00
 1.3794606450e+00	 1.6452874651e+00	 1.0625371022e+00
 1.3633929816e+00	 1.6586265470e+00	 1.0205979111e+00
 1.3472040028e+00	 1.6718025565e+00	 9.8742148608e-01
 1.3308961970e+00	 1.6848138569e+00	 9.6551391467e-01
 1.3144720812e+00	 1.6976588619e+00	 9.5750878389e-01
 1.2979341998e+00	 1.7103360360e+00	 9.6613573744e-01
 1.2812851231e+00	 1.7228438950e+00	 9.9419103996e-01
 1.2286237251e+00	 1.6520342318e+00	 1.2381615718e+00
 1.2125575349e+00	 1.6638622866e+00	 1.2173718745e+00
 1.1963897440e+00	 1.6755253515e+00	 1.1967795057e+00
 1.1801228739e+00	 1.6870221614e+00	 1.1755544634e+00
 1.1637594664e+00	 1.6983515019e+00	 1.1529136759e+00
 1.1473020817e+00	 1.7095122102e+00	 1.1281080981e+00
 1.1307532976e+00	 1.7205031752e+00	 1.1004113906e+00
 1.1141157078e+00	 1.7313233376e+00	 1.0691101831e+00
 1.0973919210e+00	 1.7419716905e+00	 1.0374446424e+00
 1.0805845591e+00	 1.7524472793e+00	 1.0112685335e+00
 1.0636962566e+00	 1.7627492020e+00	 9.8819763270e-01
 1.2338898649e+00	 1.6591151981e+00	 1.1446299415e+00
 1.2177548117e+00	 1.6709939504e+00	 1.1370247078e+00
 1.2015177221e+00	 1.6827070057e+00	 1.1289084062e+00
 1.1851811288e+00	 1.6942530933e+00	 1.1195595797e+00
 1.1687475843e+00	 1.7056309938e+00	 1.1082592677e+00
 1.1522196598e+00	 1.7168395392e+00	 1.0942781968e+00
 1.1355999441e+00	 1.7278776138e+00	 1.0768656716e+00
 1.1188910422e+00	 1.7387441537e+00	 1.0552401597e+00
 1.1020955736e+00	 1.7494381477e+00	 1.0302007073e+00
 1.0852161719e+00	 1.7599586370e+00	 1.0085712182e+00
 1.0682554826e+00	 1.7703047160e+00	 9.8883527008e-01
 1.2391560047e+00	 1.6661961644e+00	 1.0642876966e+00
 1.2229520884e+00	 1.6781256143e+00	 1.0696984439e+00
 1.2066457003e+00	 1.6898886599e+00	 1.0737460211e+00
 1.1902393838e+00	 1.7014840253e+00	 1.0757887382e+00
 1.1737357022e+00	 1.7129104857e+00	 1.0751507979e+00
 1.1571372379e+00	 1.7241668683e+00	 1.0711095556e+00
 1.1404465907e+00	 1.7352520524e+00	 1.0628845833e+00
 1.1236663765e+00	 1.7461649698e+00	 1.0496285325e+00
 1.1067992263e+00	 1.7569046049e+00	 1.0307703891e+00
 1.0898477847e+00	 1.7674699948e+00	 1.0122502891e+00
 1.0728147085e+00	 1.7778602299e+00	 9.9425870436e-01
 1.2444221445e+00	 1.6732771307e+00	 9.9796115687e-01
 1.2281493651e+00	 1.6852572781e+00	 1.0156550113e+00
 1.2117736785e+00	 1.6970703141e+00	 1.0310819849e+00
 1.1952976387e+00	 1.7087149572e+00	 1.0436514458e+00
 1.1787238202e+00	 1.7201899775e+00	 1.0527098058e+00
 1.1620548161e+00	 1.7314941973e+00	 1.0575278218e+00
 1.1452932372e+00	 1.7426264911e+00	 1.0572897981e+00
 1.1284417108e+00	 1.7535857859e+00	 1.0510846811e+00
 1.1115028790e+00	 1.7643710621e+00	 1.0378990262e+00
 1.0944793975e+00	 1.7749813526e+00	 1.0212220300e+00
 1.0773739345e+00	 1.7854157439e+00	 1.0036420068e+00
 1.2496882843e+00	 1.6803580971e+00	 9.4647076198e-01
 1.2333466419e+00	 1.6923889420e+00	 9.7516015108e-01
 1.2169016567e+00	 1.7042519683e+00	 1.0007179244e+00
 1.2003558937e+00	 1.7159458892e+00	 1.0225758665e+00
 1.1837119381e+00	 1.7274694694e+00	 1.0400816345e+00
 1.1669723942e+00	 1.7388215263e+00	 1.0524860757e+00
 1.1501398838e+00	 1.7500009297e+00	 1.0589325323e+00
 1.1332170452e+00	 1.7610066021e+00	 1.0584481237e+00
 1.1162065317e+00	 1.7718375193e+00	 1.0499369842e+00
 1.0991110103e+00	 1.7824927103e+00	 1.0344323437e+00
 1.0819331605e+00	 1.7929712579e+00	 1.0161840506e+00
 1.2549544241e+00	 1.6874390634e+00	 9.1063067908e-01
 1.2385439186e+00	 1.6995206058e+00	 9.4848283055e-01
 1.2220296348e+00	 1.7114336225e+00	 9.8246671172e-01
 1.2054141486e+00	 1.7231768211e+00	 1.0120079457e+00
 1.1887000561e+00	 1.7347489613e+00	 1.0364344610e+00
 1.1718899723e+00	 1.7461488554e+00	 1.0549637989e+00
 1.1549865304e+00	 1.7573753683e+00	 1.0666924858e+00
 1.1379923795e+00	 1.7684274182e+00	 1.0705874608e+00
 1.1209101843e+00	 1.7793039765e+00	 1.0654795305e+00
 1.1037426231e+00	 1.7900040681e+00	 1.0508568238e+00
 1.0864923864e+00	 1.8005267719e+00	 1.0311086680e+00
 1.2602205639e+00	 1.6945200297e+00	 8.9124840453e-01
 1.2437411953e+00	 1.7066522697e+00	 9.3589465618e-01
 1.2271576130e+00	 1.7186152767e+00	 9.7615172055e-01
 1.2104724036e+00	 1.7304077531e+00	 1.0114105429e+00
 1.1936881740e+00	 1.7420284532e+00	 1.0409583363e+00
 1.1768075504e+00	 1.7534761844e+00	 1.0639658534e+00
 1.1598331769e+00	 1.7647498069e+00	 1.0794767935e+00
 1.1427677139e+00	 1.7758482343e+00	 1.0863993307e+00
 1.1256138370e+00	 1.7867704336e+00	 1.0834997359e+00
 1.1083742359e+00	 1.7975154259e+00	 1.0695008355e+00
 1.0910516124e+00	 1.8080822859e+00	 1.0476648153e+00
 1.2654867037e+00	 1.7016009960e+00	 8.8912435962e-01
 1.2489384720e+00	 1.7137839336e+00	 9.3766928529e-01
 1.2322855912e+00	 1.7257969309e+00	 9.8160608516e-01
 1.2155306585e+00	 1.7376386850e+00	 1.0202625688e+00
 1.1986762919e+00	 1.7493079451e+00	 1.0528642325e+00
 1.1817251286e+00	 1.7608035134e+00	 1.0785214717e+00
 1.1646798235e+00	 1.7721242455e+00	 1.0962189879e+00
 1.1475430482e+00	 1.7832690504e+00	 1.1048073764e+00
 1.1303174897e+00	 1.7942368908e+00	 1.1029968644e+00
 1.1130058486e+00	 1.8050267837e+00	 1.0893531539e+00
 1.0956108384e+00	 1.8156377998e+00	 1.0651267440e+00
 1.2707528435e+00	 1.7086819623e+00	 9.0505148059e-01
 1.2541357488e+00	 1.7209155974e+00	 9.5408183667e-01
 1.2374135694e+00	 1.7329785851e+00	 9.9867196233e-01
 1.2205889135e+00	 1.7448696170e+00	 1.0380581294e+00
 1.2036644099e+00	 1.7565874370e+00	 1.0713831002e+00
 1.1866427067e+00	 1.7681308425e+00	 1.0976832563e+00
 1.1695264700e+00	 1.7794986842e+00	 1.1158779726e+00
 1.1523183826e+00	 1.7906898665e+00	 1.1247612236e+00
 1.1350211424e+00	 1.8017033480e+00	 1.1229953865e+00
 1.1176374614e+00	 1.8125381414e+00	 1.1091071966e+00
 1.1001700644e+00	 1.8231933138e+00	 1.0827941793e+00
 1.2760189833e+00	 1.7157629287e+00	 9.3981480286e-01
 1.2593330255e+00	 1.7280472613e+00	 9.8540830012e-01
 1.2425415475e+00	 1.7401602394e+00	 1.0271997960e+00
 1.2256471684e+00	 1.7521005489e+00	 1.0643056756e+00
 1.2086525278e+00	 1.7638669289e+00	 1.0957649325e+00
 1.1915602848e+00	 1.7754581715e+00	 1.1205261889e+00
 1.1743731166e+00	 1.7868731228e+00	 1.1374370065e+00
 1.1570937169e+00	 1.7981106826e+00	 1.1452354686e+00
 1.1397247950e+00	 1.8091698052e+00	 1.1425440010e+00
 1.1222690742e+00	 1.8200494992e+00	 1.1278653810e+00
 1.1047292903e+00	 1.8307488278e+00	 1.0999925046e+00
 1.2812851231e+00	 1.7228438950e+00	 9.9419103996e-01
 1.2645303022e+00	 1.7351789251e+00	 1.0319249450e+00
 1.2476695257e+00	 1.7473418936e+00	 1.0670475846e+00
 1.2307054234e+00	 1.7593314809e+00	 1.0985271588e+00
 1.2136406457e+00	 1.7711464208e+00	 1.1252778375e+00
 1.1964778629e+00	 1.7827855005e+00	 1.1461466495e+00
 1.1792197631e+00	 1.7942475614e+00	 1.1599026976e+00
 1.1618690513e+00	 1.8055314987e+00	 1.1652286776e+00
 1.1444284477e+00	 1.8166362624e+00	 1.1607146678e+00
 1.1269006870e+00	 1.8275608570e+00	 1.1448541353e+00
 1.1092885163e+00	 1.8383043418e+00	 1.1160729524e+00
 1.0636962566e+00	 1.7627492020e+00	 9.8819763270e-01
 1.0467296589e+00	 1.7728766099e+00	 9.6916973171e-01
 1.0296874225e+00	 1.7828287087e+00	 9.5646793564e-01
 1.0125722123e+00	 1.7926047575e+00	 9.4958972893e-01
 9.9538670041e-01	 1.8022040683e+00	 9.4807078484e-01
 9.7813356446e-01	 1.8116260061e+00	 9.5149486057e-01
 9.6081548646e-01	 1.8208699886e+00	 9.5950193716e-01
 9.4343515160e-01	 1.8299354863e+00	 9.7179466522e-01
 9.2599524687e-01	 1.8388220224e+00	 9.8814318711e-01
 9.0849845989e-01	 1.8475291724e+00	 1.0083884138e+00
 8.9094747759e-01	 1.8560565644e+00	 1.0324473147e+00
 1.0682554826e+00	 1.7703047160e+00	 9.8883527008e-01
 1.0512161625e+00	 1.7804755321e+00	 9.7159493926e-01
 1.0341008794e+00	 1.7904702876e+00	 9.5913912467e-01
 1.0169123099e+00	 1.8002882387e+00	 9.5124806136e-01
 9.9965313725e-01	 1.8099286942e+00	 9.4775300771e-01
 9.8232605072e-01	 1.8193910164e+00	 9.4854549851e-01
 9.6493374381e-01	 1.8286746205e+00	 9.5358478761e-01
 9.4747891317e-01	 1.8377789748e+00	 9.6290354523e-01
 9.2996425734e-01	 1.8467036004e+00	 9.7661188481e-01
 9.1239247544e-01	 1.8554480712e+00	 9.9490581739e-01
 8.9476626595e-01	 1.8640120133e+00	 1.0181124797e+00
 1.0728147085e+00	 1.7778602299e+00	 9.9425870436e-01
 1.0557026660e+00	 1.7880744542e+00	 9.7732697472e-01
 1.0385143364e+00	 1.7981118666e+00	 9.6395926457e-01
 1.0212524074e+00	 1.8079717198e+00	 9.5416720505e-01
 1.0039195741e+00	 1.8176533200e+00	 9.4802454621e-01
 9.8651853699e-01	 1.8271560266e+00	 9.4567585432e-01
 9.6905200115e-01	 1.8364792524e+00	 9.4734334374e-01
 9.5152267474e-01	 1.8456224633e+00	 9.5333191263e-01
 9.3393326781e-01	 1.8545851785e+00	 9.6403781522e-01
 9.1628649100e-01	 1.8633669700e+00	 9.8002607091e-01
 8.9858505431e-01	 1.8719674623e+00	 1.0018990989e+00
 1.0773739345e+00	 1.7854157439e+00	 1.0036420068e+00
 1.0601891696e+00	 1.7956733764e+00	 9.8582835929e-01
 1.0429277933e+00	 1.8057534456e+00	 9.7065179745e-01
 1.0255925050e+00	 1.8156552010e+00	 9.5830486415e-01
 1.0081860109e+00	 1.8253779458e+00	 9.4905159905e-01
 9.9071102326e-01	 1.8349210368e+00	 9.4323576526e-01
 9.7317025849e-01	 1.8442838843e+00	 9.4128715580e-01
 9.5556643631e-01	 1.8534659519e+00	 9.4372849047e-01
 9.3790227828e-01	 1.8624667566e+00	 9.5128123685e-01
 9.2018050656e-01	 1.8712858687e+00	 9.6472065353e-01
 9.0240384266e-01	 1.8799229113e+00	 9.8485143005e-01
 1.0819331605e+00	 1.7929712579e+00	 1.0161840506e+00
 1.0646756731e+00	 1.8032722986e+00	 9.9658103610e-01
 1.0473412503e+00	 1.8133950246e+00	 9.7895462832e-01
 1.0299326025e+00	 1.8233386822e+00	 9.6362865577e-01
 1.0124524478e+00	 1.8331025717e+00	 9.5100612507e-01
 9.9490350953e-01	 1.8426860471e+00	 9.4157706084e-01
 9.7728851583e-01	 1.8520885162e+00	 9.3592442032e-01
 9.5961019788e-01	 1.8613094404e+00	 9.3483945837e-01
 9.4187128875e-01	 1.8703483347e+00	 9.3921668136e-01
 9.2407452212e-01	 1.8792047675e+00	 9.4994667394e-01
 9.0622263102e-01	 1.8878783602e+00	 9.6800131374e-01
 1.0864923864e+00	 1.8005267719e+00	 1.0311086680e+00
 1.0691621767e+00	 1.8108712208e+00	 1.0090866242e+00
 1.0517547072e+00	 1.8210366035e+00	 9.8862046590e-01
 1.0342727001e+00	 1.8310221634e+00	 9.7011652805e-01
 1.0167188846e+00	 1.8408271975e+00	 9.5406632939e-01
 9.9909599579e-01	 1.8504510573e+00	 9.4105410832e-01
 9.8140677317e-01	 1.8598931481e+00	 9.3185555602e-01
 9.6365395945e-01	 1.8691529289e+00	 9.2743236976e-01
 9.4584029922e-01	 1.8782299128e+00	 9.2869747432e-01
 9.2796853768e-01	 1.8871236663e+00	 9.3665018835e-01
 9.1004141937e-01	 1.8958338092e+00	 9.5236832185e-01
 1.0910516124e+00	 1.8080822859e+00	 1.0476648153e+00
 1.0736486803e+00	 1.8184701430e+00	 1.0228666772e+00
 1.0561681642e+00	 1.8286781825e+00	 9.9941716548e-01
 1.0386127976e+00	 1.8387056445e+00	 9.7775717824e-01
 1.0209853214e+00	 1.8485518234e+00	 9.5841714785e-01
 1.0032884821e+00	 1.8582160676e+00	 9.4208911079e-01
 9.8552503052e-01	 1.8676977800e+00	 9.2973533552e-01
 9.6769772102e-01	 1.8769964175e+00	 9.2224017269e-01
 9.4980930969e-01	 1.8861114909e+00	 9.2056749824e-01
 9.3186255324e-01	 1.8950425651e+00	 9.2576630403e-01
 9.1386020773e-01	 1.9037892582e+00	 9.3895989596e-01
 1.0956108384e+00	 1.8156377998e+00	 1.0651267440e+00
 1.0781351838e+00	 1.8260690651e+00	 1.0374629459e+00
 1.0605816211e+00	 1.8363197615e+00	 1.0111280739e+00
 1.0429528952e+00	 1.8463891257e+00	 9.8655047081e-01
 1.0252517583e+00	 1.8562764492e+00	 9.6428426491e-01
 1.0074809683e+00	 1.8659810778e+00	 9.4521512872e-01
 9.8964328786e-01	 1.8755024119e+00	 9.3015980788e-01
 9.7174148259e-01	 1.8848399060e+00	 9.1998822447e-01
 9.5377832015e-01	 1.8939930690e+00	 9.1566124695e-01
 9.3575656880e-01	 1.9029614638e+00	 9.1821927469e-01
 9.1767899609e-01	 1.9117447071e+00	 9.2877147723e-01
 1.1001700644e+00	 1.8231933138e+00	 1.0827941793e+00
 1.0826216874e+00	 1.8336679873e+00	 1.0524376456e+00
 1.0649950781e+00	 1.8439613405e+00	 1.0235523767e+00
 1.0472929928e+00	 1.8540726069e+00	 9.9651656992e-01
 1.0295181951e+00	 1.8640010751e+00	 9.7205084674e-01
 1.0116734546e+00	 1.8737460881e+00	 9.5087772984e-01
 9.9376154520e-01	 1.8833070438e+00	 9.3371952395e-01
 9.7578524416e-01	 1.8926833945e+00	 9.2139429210e-01
 9.5774733062e-01	 1.9018746471e+00	 9.1480387286e-01
 9.3965058435e-01	 1.9108803626e+00	 9.1492258793e-01
 9.2149778444e-01	 1.9197001561e+00	 9.2278662756e-01
 1.1047292903e+00	 1.8307488278e+00	 1.0999925046e+00
 1.0871081909e+00	 1.8412669095e+00	 1.0673737273e+00
 1.0694085350e+00	 1.8516029194e+00	 1.0365054470e+00
 1.0516330903e+00	 1.8617560881e+00	 1.0078455329e+00
 1.0337846320e+00	 1.8717257009e+00	 9.8200705208e-01
 1.0158659409e+00	 1.8815110983e+00	 9.5951647861e-01
 9.9787980254e-01	 1.8911116757e+00	 9.4099947832e-01
 9.7982900573e-01	 1.9005268831e+00	 9.2716854688e-01
 9.6171634109e-01	 1.9097562252e+00	 9.1881122748e-01
 9.4354459991e-01	 1.9187992614e+00	 9.1677904504e-01
 9.2531657280e-01	 1.9276556051e+00	 9.2197714242e-01
 1.1092885163e+00	 1.8383043418e+00	 1.1160729524e+00
 1.0915946945e+00	 1.8488658317e+00	 1.0818751532e+00
 1.0738219920e+00	 1.8592444984e+00	 1.0499260817e+00
 1.0559731879e+00	 1.8694395692e+00	 1.0206746244e+00
 1.0380510688e+00	 1.8794503267e+00	 9.9442540978e-01
 1.0200584271e+00	 1.8892761086e+00	 9.7156765005e-01
 1.0019980599e+00	 1.8989163076e+00	 9.5257904672e-01
 9.8387276730e-01	 1.9083703716e+00	 9.3801355331e-01
 9.6568535156e-01	 1.9176378033e+00	 9.2848989515e-01
 9.4743861547e-01	 1.9267181602e+00	 9.2468083327e-01
 9.2913536115e-01	 1.9356110540e+00	 9.2730315553e-01
 8.9094747759e-01	 1.8560565644e+00	 1.0324473147e+00
 8.7334198809e-01	 1.8644052817e+00	 1.0575630588e+00
 8.5568765327e-01	 1.8725735898e+00	 1.0808321063e+00
 8.3798715128e-01	 1.8805612704e+00	 1.1020768721e+00
 8.2024315482e-01	 1.8883681565e+00	 1.1211586329e+00
 8.0245832991e-01	 1.8959941319e+00	 1.1379715294e+00
 7.8463533479e-01	 1.9034391305e+00	 1.1524370222e+00
 7.6677681873e-01	 1.9107031366e+00	 1.1644987823e+00
 7.4888542094e-01	 1.9177861838e+00	 1.1741179959e+00
 7.3096376946e-01	 1.9246883549e+00	 1.1813410283e+00
 7.1301448007e-01	 1.9314097810e+00	 1.1866197728e+00
 8.9476626595e-01	 1.8640120133e+00	 1.0181124797e+00
 8.7708531561e-01	 1.8723965150e+00	 1.0436669798e+00
 8.5935531060e-01	 1.8805998342e+00	 1.0684349373e+00
 8.4157894054e-01	 1.8886217517e+00	 1.0919749504e+00
 8.2375888957e-01	 1.8964620998e+00	 1.1138983815e+00
 8.0589783516e-01	 1.9041207617e+00	 1.1338635140e+00
 7.8799844693e-01	 1.9115976711e+00	 1.1515701481e+00
 7.7006338551e-01	 1.9188928123e+00	 1.1667546159e+00
 7.5209530143e-01	 1.9260062189e+00	 1.1791851942e+00
 7.3409683398e-01	 1.9329379741e+00	 1.1886927054e+00
 7.1607061016e-01	 1.9396882097e+00	 1.1955517200e+00
 8.9858505431e-01	 1.8719674623e+00	 1.0018990989e+00
 8.8082864313e-01	 1.8803877483e+00	 1.0272735327e+00
 8.6302296792e-01	 1.8886260786e+00	 1.0528709776e+00
 8.4517072979e-01	 1.8966822330e+00	 1.0780448765e+00
 8.2727462432e-01	 1.9045560431e+00	 1.1022123723e+00
 8.0933734041e-01	 1.9122473914e+00	 1.1248485875e+00
 7.9136155907e-01	 1.9197562117e+00	 1.1454813339e+00
 7.7334995230e-01	 1.9270824880e+00	 1.1636862283e+00
 7.5530518192e-01	 1.9342262540e+00	 1.1790821951e+00
 7.3722989850e-01	 1.9411875934e+00	 1.1913371245e+00
 7.1912674025e-01	 1.9479666384e+00	 1.2005460651e+00
 9.0240384266e-01	 1.8799229113e+00	 9.8485143005e-01
 8.8457197066e-01	 1.8883789816e+00	 1.0094783797e+00
 8.6669062525e-01	 1.8966523230e+00	 1.0352569340e+00
 8.4876251904e-01	 1.9047427143e+00	 1.0613933406e+00
 8.3079035907e-01	 1.9126499863e+00	 1.0871655419e+00
 8.1277684566e-01	 1.9203740212e+00	 1.1119175476e+00
 7.9472467122e-01	 1.9279147524e+00	 1.1350542299e+00
 7.7663651908e-01	 1.9352721636e+00	 1.1560365194e+00
 7.5851506241e-01	 1.9424462891e+00	 1.1743769777e+00
 7.4036296303e-01	 1.9494372126e+00	 1.1896358192e+00
 7.2218287034e-01	 1.9562450671e+00	 1.2017275470e+00
 9.0622263102e-01	 1.8878783602e+00	 9.6800131374e-01
 8.8831529818e-01	 1.8963702150e+00	 9.9136392974e-01
 8.7035828259e-01	 1.9046785674e+00	 1.0166959362e+00
 8.5235430830e-01	 1.9128031956e+00	 1.0431136536e+00
 8.3430609383e-01	 1.9207439296e+00	 1.0698101782e+00
 8.1621635091e-01	 1.9285006510e+00	 1.0960498150e+00
 7.9808778336e-01	 1.9360732930e+00	 1.1211629330e+00
 7.7992308587e-01	 1.9434618393e+00	 1.1445412182e+00
 7.6172494290e-01	 1.9506663242e+00	 1.1656333001e+00
 7.4349602755e-01	 1.9576868319e+00	 1.1839407275e+00
 7.2523900043e-01	 1.9645234958e+00	 1.1992209907e+00
 9.1004141937e-01	 1.8958338092e+00	 9.5236832185e-01
 8.9205862570e-01	 1.9043614483e+00	 9.7399951410e-01
 8.7402593992e-01	 1.9127048118e+00	 9.9827772783e-01
 8.5594609755e-01	 1.9208636769e+00	 1.0242859445e+00
 8.3782182858e-01	 1.9288378728e+00	 1.0511861122e+00
 8.1965585616e-01	 1.9366272808e+00	 1.0782136093e+00
 8.0145089550e-01	 1.9442318336e+00	 1.1046721333e+00
 7.8320965266e-01	 1.9516515150e+00	 1.1299289895e+00
 7.6493482339e-01	 1.9588863593e+00	 1.1534107542e+00
 7.4662909207e-01	 1.9659364512e+00	 1.1745992860e+00
 7.2829513052e-01	 1.9728019245e+00	 1.1931514583e+00
 9.1386020773e-01	 1.9037892582e+00	 9.3895989596e-01
 8.9580195323e-01	 1.9123526816e+00	 9.5844155139e-01
 8.7769359725e-01	 1.9207310563e+00	 9.8107884903e-01
 8.5953788681e-01	 1.9289241582e+00	 1.0059773481e+00
 8.4133756333e-01	 1.9369318161e+00	 1.0323209005e+00
 8.2309536141e-01	 1.9447539106e+00	 1.0593661147e+00
 8.0481400765e-01	 1.9523903742e+00	 1.0864372528e+00
 7.8649621944e-01	 1.9598411907e+00	 1.1129215333e+00
 7.6814470388e-01	 1.9671063944e+00	 1.1382648143e+00
 7.4976215659e-01	 1.9741860704e+00	 1.1619676279e+00
 7.3135126060e-01	 1.9810803532e+00	 1.1836443995e+00
 9.1767899609e-01	 1.9117447071e+00	 9.2877147723e-01
 8.9954528075e-01	 1.9203439150e+00	 9.4573370378e-01
 8.8136125458e-01	 1.9287573007e+00	 9.6616280813e-01
 8.6312967606e-01	 1.9369846395e+00	 9.8924218286e-01
 8.4485329808e-01	 1.9450257593e+00	 1.0142299984e+00
 8.2653486666e-01	 1.9528805404e+00	 1.0404536377e+00
 8.0817711979e-01	 1.9605489148e+00	 1.0673045761e+00
 7.8978278623e-01	 1.9680308663e+00	 1.0942336776e+00
 7.7135458437e-01	 1.9753264296e+00	 1.1207468809e+00
 7.5289522111e-01	 1.9824356897e+00	 1.1464012445e+00
 7.3440739069e-01	 1.9893587819e+00	 1.1708257997e+00
 9.2149778444e-01	 1.9197001561e+00	 9.2278662756e-01
 9.0328860828e-01	 1.9283351483e+00	 9.3690702391e-01
 8.8502891191e-01	 1.9367835451e+00	 9.5458024467e-01
 8.6672146532e-01	 1.9450451208e+00	 9.7512211942e-01
 8.4836903283e-01	 1.9531197026e+00	 9.9791692386e-01
 8.2997437191e-01	 1.9610071702e+00	 1.0224117560e+00
 8.1154023193e-01	 1.9687074554e+00	 1.0481113738e+00
 7.9306935301e-01	 1.9762205420e+00	 1.0745734649e+00
 7.7456446486e-01	 1.9835464647e+00	 1.1014043185e+00
 7.5602828563e-01	 1.9906853090e+00	 1.1282548699e+00
 7.3746352078e-01	 1.9976372106e+00	 1.1548223267e+00
 9.2531657280e-01	 1.9276556051e+00	 9.2197714242e-01
 9.0703193580e-01	 1.9363263816e+00	 9.3298009297e-01
 8.8869656924e-01	 1.9448097895e+00	 9.4736908310e-01
 8.7031325457e-01	 1.9531056021e+00	 9.6464634026e-01
 8.5188476759e-01	 1.9612136458e+00	 9.8437341288e-01
 8.3341387716e-01	 1.9691337999e+00	 1.0061654592e+00
 8.1490334408e-01	 1.9768659961e+00	 1.0296860181e+00
 7.9635591980e-01	 1.9844102177e+00	 1.0546422322e+00
 7.7777434535e-01	 1.9917664998e+00	 1.0807804899e+00
 7.5916135015e-01	 1.9989349282e+00	 1.1078824568e+00
 7.4051965087e-01	 2.0059156394e+00	 1.1357614769e+00
 9.2913536115e-01	 1.9356110540e+00	 9.2730315553e-01
 9.1077526332e-01	 1.9443176149e+00	 9.3495915024e-01
 8.9236422656e-01	 1.9528360339e+00	 9.4555467770e-01
 8.7390504382e-01	 1.9611660834e+00	 9.5883169040e-01
 8.5540050234e-01	 1.9693075891e+00	 9.7457956619e-01
 8.3685338241e-01	 1.9772604297e+00	 9.9262928133e-01
 8.1826645622e-01	 1.9850245367e+00	 1.0128480910e+00
 7.9964248658e-01	 1.9925998934e+00	 1.0351346846e+00
 7.8098422584e-01	 1.9999865349e+00	 1.0594147837e+00
 7.6229441467e-01	 2.0071845475e+00	 1.0856371484e+00
 7.4357578096e-01	 2.0141940681e+00	 1.1137699600e+00
 7.1301448007e-01	 1.9314097810e+00	 1.1866197728e+00
 6.9504321235e-01	 1.9379495447e+00	 1.1903119581e+00
 6.7704950364e-01	 1.9443090295e+00	 1.1921537248e+00
 6.5903592457e-01	 1.9504885074e+00	 1.1915374764e+00
 6.4100502941e-01	 1.9564882968e+00	 1.1878745565e+00
 6.2295935516e-01	 1.9623087615e+00	 1.1805939582e+00
 6.0490142056e-01	 1.9679503103e+00	 1.1691411284e+00
 5.8683372519e-01	 1.9734133965e+00	 1.1529768767e+00
 5.6875874854e-01	 1.9786985165e+00	 1.1315763968e+00
 5.5067894919e-01	 1.9838062098e+00	 1.1044284084e+00
 5.3259676391e-01	 1.9887370581e+00	 1.0710344225e+00
 7.1607061016e-01	 1.9396882097e+00	 1.1955517200e+00
 6.9802231381e-01	 1.9462560043e+00	 1.2000454452e+00
 6.7995148028e-01	 1.9526427471e+00	 1.2020092055e+00
 6.6186069121e-01	 1.9588487116e+00	 1.2009856294e+00
 6.4375251184e-01	 1.9648742173e+00	 1.1965237463e+00
 6.2562949003e-01	 1.9707196297e+00	 1.1881776434e+00
 6.0749415532e-01	 1.9763853595e+00	 1.1755052431e+00
 5.8934901801e-01	 1.9818718615e+00	 1.1580672113e+00
 5.7119656821e-01	 1.9871796347e+00	 1.1354260044e+00
 5.5303927503e-01	 1.9923092207e+00	 1.1071450617e+00
 5.3487958570e-01	 1.9972612035e+00	 1.0727881474e+00
 7.1912674025e-01	 1.9479666384e+00	 1.2005460651e+00
 7.0100141526e-01	 1.9545624638e+00	 1.2068113414e+00
 6.8285345691e-01	 1.9609764647e+00	 1.2098937377e+00
 6.6468545785e-01	 1.9672089157e+00	 1.2094451943e+00
 6.4649999427e-01	 1.9732601378e+00	 1.2051145255e+00
 6.2829962490e-01	 1.9791304980e+00	 1.1965460174e+00
 6.1008689009e-01	 1.9848204086e+00	 1.1833781705e+00
 5.9186431083e-01	 1.9903303266e+00	 1.1652425948e+00
 5.7363438788e-01	 1.9956607529e+00	 1.1417630665e+00
 5.5539960088e-01	 2.0008122315e+00	 1.1125547527e+00
 5.3716240750e-01	 2.0057853490e+00	 1.0772236065e+00
 7.2218287034e-01	 1.9562450671e+00	 1.2017275470e+00
 7.0398051672e-01	 1.9628689233e+00	 1.2104966094e+00
 6.8575543354e-01	 1.9693101823e+00	 1.2154900159e+00
 6.6751022449e-01	 1.9755691199e+00	 1.2164285025e+00
 6.4924747670e-01	 1.9816460583e+00	 1.2130231350e+00
 6.3096975978e-01	 1.9875413662e+00	 1.2049738442e+00
 6.1267962486e-01	 1.9932554577e+00	 1.1919681233e+00
 5.9437960365e-01	 1.9987887916e+00	 1.1736798989e+00
 5.7607220754e-01	 2.0041418710e+00	 1.1497685810e+00
 5.5775992672e-01	 2.0093152423e+00	 1.1198783017e+00
 5.3944522929e-01	 2.0143094945e+00	 1.0836373413e+00
 7.2523900043e-01	 1.9645234958e+00	 1.1992209907e+00
 7.0695961817e-01	 1.9711753828e+00	 1.2109920474e+00
 6.8865741017e-01	 1.9776438999e+00	 1.2184877616e+00
 6.7033499113e-01	 1.9839293240e+00	 1.2214575386e+00
 6.5199495913e-01	 1.9900319788e+00	 1.2196375258e+00
 6.3363989465e-01	 1.9959522344e+00	 1.2127490790e+00
 6.1527235962e-01	 2.0016905068e+00	 1.2004974074e+00
 5.9689489647e-01	 2.0072472567e+00	 1.1825704066e+00
 5.7851002721e-01	 2.0126229892e+00	 1.1586376883e+00
 5.6012025256e-01	 2.0178182531e+00	 1.1283498125e+00
 5.4172805108e-01	 2.0228336400e+00	 1.0913377236e+00
 7.2829513052e-01	 1.9728019245e+00	 1.1931514583e+00
 7.0993871962e-01	 1.9794818423e+00	 1.2081923532e+00
 6.9155938681e-01	 1.9859776175e+00	 1.2185837106e+00
 6.7315975777e-01	 1.9922895281e+00	 1.2240638639e+00
 6.5474244156e-01	 1.9984178993e+00	 1.2243572295e+00
 6.3631002952e-01	 2.0043631027e+00	 1.2191726997e+00
 6.1786509439e-01	 2.0101255559e+00	 1.2082022260e+00
 5.9941018929e-01	 2.0157057217e+00	 1.1911196024e+00
 5.8094784688e-01	 2.0211041074e+00	 1.1675794593e+00
 5.6248057841e-01	 2.0263212640e+00	 1.1372164702e+00
 5.4401087287e-01	 2.0313577855e+00	 1.0996447776e+00
 7.3135126060e-01	 1.9810803532e+00	 1.1836443995e+00
 7.1291782108e-01	 1.9877883018e+00	 1.2019961878e+00
 6.9446136344e-01	 1.9943113351e+00	 1.2154816027e+00
 6.7598452442e-01	 2.0006497323e+00	 1.2237885433e+00
 6.5748992399e-01	 2.0068038198e+00	 1.2265932353e+00
 6.3898016440e-01	 2.0127739709e+00	 1.2235585449e+00
 6.2045782915e-01	 2.0185606050e+00	 1.2143324910e+00
 6.0192548211e-01	 2.0241641867e+00	 1.1985469687e+00
 5.8338566655e-01	 2.0295852256e+00	 1.1758166893e+00
 5.6484090425e-01	 2.0348242748e+00	 1.1457383464e+00
 5.4629369467e-01	 2.0398819309e+00	 1.1078900064e+00
 7.3440739069e-01	 1.9893587819e+00	 1.1708257997e+00
 7.1589692253e-01	 1.9960947613e+00	 1.1923062403e+00
 6.9736334007e-01	 2.0026450527e+00	 1.2088921734e+00
 6.7880929106e-01	 2.0090099364e+00	 1.2201820761e+00
 6.6023740642e-01	 2.0151897403e+00	 1.2257678710e+00
 6.4165029927e-01	 2.0211848391e+00	 1.2252331565e+00
 6.2305056392e-01	 2.0269956541e+00	 1.2181516402e+00
 6.0444077494e-01	 2.0326226518e+00	 1.2040857884e+00
 5.8582348622e-01	 2.0380663437e+00	 1.1825856997e+00
 5.6720123010e-01	 2.0433272856e+00	 1.1531882092e+00
 5.4857651646e-01	 2.0484060764e+00	 1.1154162254e+00
 7.3746352078e-01	 1.9976372106e+00	 1.1548223267e+00
 7.1887602399e-01	 2.0044012208e+00	 1.1790292924e+00
 7.0026531671e-01	 2.0109787703e+00	 1.1985331485e+00
 6.8163405770e-01	 2.0173701406e+00	 1.2128043304e+00
 6.6298488885e-01	 2.0235756608e+00	 1.2213146887e+00
 6.4432043415e-01	 2.0295957074e+00	 1.2235356295e+00
 6.2564329869e-01	 2.0354307032e+00	 1.2189364604e+00
 6.0695606776e-01	 2.0410811168e+00	 1.2069829551e+00
 5.8826130589e-01	 2.0465474619e+00	 1.1871361442e+00
 5.6956155594e-01	 2.0518302965e+00	 1.1588513407e+00
 5.5085933825e-01	 2.0569302219e+00	 1.1215773999e+00
 7.4051965087e-01	 2.0059156394e+00	 1.1357614769e+00
 7.2185512544e-01	 2.0127076804e+00	 1.1620762844e+00
 7.0316729334e-01	 2.0193124879e+00	 1.1841292396e+00
 6.8445882434e-01	 2.0257303447e+00	 1.2012244809e+00
 6.6573237129e-01	 2.0319615813e+00	 1.2126783556e+00
 6.4699056902e-01	 2.0380065756e+00	 1.2178174655e+00
 6.2823603346e-01	 2.0438657523e+00	 1.2159769171e+00
 6.0947136058e-01	 2.0495395819e+00	 1.2064987883e+00
 5.9069912556e-01	 2.0550285801e+00	 1.1887308233e+00
 5.7192188179e-01	 2.0603333073e+00	 1.1620253588e+00
 5.5314216005e-01	 2.0654543674e+00	 1.1257384885e+00
 7.4357578096e-01	 2.0141940681e+00	 1.1137699600e+00
 7.2483422690e-01	 2.0210141399e+00	 1.1413623804e+00
 7.0606926997e-01	 2.0276462055e+00	 1.1654121429e+00
 6.8728359099e-01	 2.0340905489e+00	 1.1850209502e+00
 6.6847985372e-01	 2.0403475018e+00	 1.1993145488e+00
 6.4966070390e-01	 2.0464174439e+00	 1.2074424329e+00
 6.3082876822e-01	 2.0523008014e+00	 1.2085759891e+00
 6.1198665341e-01	 2.0579980469e+00	 1.2019068554e+00
 5.9313694523e-01	 2.0635096983e+00	 1.1866455026e+00
 5.7428220763e-01	 2.0688363181e+00	 1.1620200462e+00
 5.5542498184e-01	 2.0739785129e+00	 1.1272752917e+00
 5.3259676391e-01	 1.9887370581e+00	 1.0710344225e+00
 5.1451460713e-01	 1.9934916845e+00	 1.0368928583e+00
 4.9643487084e-01	 1.9980707547e+00	 1.0081610825e+00
 4.7835992304e-01	 2.0024749745e+00	 9.8534598558e-01
 4.6029210677e-01	 2.0067050887e+00	 9.6896367487e-01
 4.4223373939e-01	 2.0107618803e+00	 9.5953820405e-01
 4.2418711190e-01	 2.0146461694e+00	 9.5760043474e-01
 4.0615448827e-01	 2.0183588128e+00	 9.6368702232e-01
 3.8813810481e-01	 2.0219007028e+00	 9.7833951795e-01
 3.7014016961e-01	 2.0252727667e+00	 1.0021035751e+00
 3.5216286193e-01	 2.0284759653e+00	 1.0354286268e+00
 5.3487958570e-01	 1.9972612035e+00	 1.0727881474e+00
 5.1671992500e-01	 2.0020362093e+00	 1.0380197055e+00
 4.9856269515e-01	 2.0066349064e+00	 1.0090918674e+00
 4.8041027432e-01	 2.0110580036e+00	 9.8645906916e-01
 4.6226501559e-01	 2.0153062490e+00	 9.7058694117e-01
 4.4412924625e-01	 2.0193804288e+00	 9.6195105533e-01
 4.2600526711e-01	 2.0232813668e+00	 9.6103581036e-01
 4.0789535186e-01	 2.0270099233e+00	 9.6833344676e-01
 3.8980174639e-01	 2.0305669947e+00	 9.8434318278e-01
 3.7172666826e-01	 2.0339535119e+00	 1.0095704615e+00
 3.5367230605e-01	 2.0371704401e+00	 1.0444507434e+00
 5.3716240750e-01	 2.0057853490e+00	 1.0772236065e+00
 5.1892524286e-01	 2.0105807341e+00	 1.0416631142e+00
 5.0069051946e-01	 2.0151990580e+00	 1.0123043056e+00
 4.8246062560e-01	 2.0196410327e+00	 9.8956251284e-01
 4.6423792440e-01	 2.0239074092e+00	 9.7386564573e-01
 4.4602475310e-01	 2.0279989773e+00	 9.6565295364e-01
 4.2782342233e-01	 2.0319165642e+00	 9.6537393188e-01
 4.0963621545e-01	 2.0356610339e+00	 9.7348736442e-01
 3.9146538798e-01	 2.0392332865e+00	 9.9046049370e-01
 3.7331316691e-01	 2.0426342571e+00	 1.0167683069e+00
 3.5518175017e-01	 2.0458649149e+00	 1.0528365605e+00
 5.3944522929e-01	 2.0143094945e+00	 1.0836373413e+00
 5.2113056072e-01	 2.0191252589e+00	 1.0472107969e+00
 5.0281834376e-01	 2.0237632097e+00	 1.0172720809e+00
 4.8451097688e-01	 2.0282240618e+00	 9.9421065254e-01
 4.6621083322e-01	 2.0325085695e+00	 9.7842934145e-01
 4.4792025996e-01	 2.0366175258e+00	 9.7034312048e-01
 4.2964157754e-01	 2.0405517615e+00	 9.7037803081e-01
 4.1137707905e-01	 2.0443121444e+00	 9.7897025114e-01
 3.9312902956e-01	 2.0478995784e+00	 9.9656530110e-01
 3.7489966555e-01	 2.0513150023e+00	 1.0236173675e+00
 3.5669119430e-01	 2.0545593897e+00	 1.0605474535e+00
 5.4172805108e-01	 2.0228336400e+00	 1.0913377236e+00
 5.2333587859e-01	 2.0276697837e+00	 1.0540605956e+00
 5.0494616807e-01	 2.0323273614e+00	 1.0234774055e+00
 4.8656132815e-01	 2.0368070908e+00	 9.9996485384e-01
 4.6818374204e-01	 2.0411097297e+00	 9.8391321672e-01
 4.4981576681e-01	 2.0452360743e+00	 9.7572512529e-01
 4.3145973275e-01	 2.0491869589e+00	 9.7581450761e-01
 4.1311794264e-01	 2.0529632550e+00	 9.8460568305e-01
 3.9479267114e-01	 2.0565658702e+00	 1.0025325991e+00
 3.7648616420e-01	 2.0599957475e+00	 1.0300381984e+00
 3.5820063842e-01	 2.0632538645e+00	 1.0675442924e+00
 5.4401087287e-01	 2.0313577855e+00	 1.0996447776e+00
 5.2554119645e-01	 2.0362143085e+00	 1.0616203320e+00
 5.0707399238e-01	 2.0408915130e+00	 1.0304108970e+00
 4.8861167943e-01	 2.0453901199e+00	 1.0063934145e+00
 4.7015665086e-01	 2.0497108899e+00	 9.8995802129e-01
 4.5171127367e-01	 2.0538546228e+00	 9.8150683270e-01
 4.3327788796e-01	 2.0578221563e+00	 9.8145289839e-01
 4.1485880623e-01	 2.0616143656e+00	 9.9021932077e-01
 3.9645631273e-01	 2.0652321620e+00	 1.0082385251e+00
 3.7807266284e-01	 2.0686764927e+00	 1.0359516684e+00
 3.5971008254e-01	 2.0719483393e+00	 1.0737874662e+00
 5.4629369467e-01	 2.0398819309e+00	 1.1078900064e+00
 5.2774651431e-01	 2.0447588333e+00	 1.0693076629e+00
 5.0920181669e-01	 2.0494556647e+00	 1.0375714605e+00
 4.9066203071e-01	 2.0539731490e+00	 1.0130714704e+00
 4.7212955967e-01	 2.0583120502e+00	 9.9620999483e-01
 4.5360678052e-01	 2.0624731713e+00	 9.8740035197e-01
 4.3509604318e-01	 2.0664573537e+00	 9.8706584323e-01
 4.1659966983e-01	 2.0702654761e+00	 9.9563889468e-01
 3.9811995431e-01	 2.0738984539e+00	 1.0135603602e+00
 3.7965916149e-01	 2.0773572379e+00	 1.0412789736e+00
 3.6121952667e-01	 2.0806428141e+00	 1.0792369063e+00
 5.4857651646e-01	 2.0484060764e+00	 1.1154162254e+00
 5.2995183218e-01	 2.0533033581e+00	 1.0765499395e+00
 5.1132964100e-01	 2.0580198164e+00	 1.0444661736e+00
 4.9271238200e-01	 2.0625561781e+00	 1.0195809047e+00
 4.7410246849e-01	 2.0669132104e+00	 1.0023207982e+00
 4.5550228738e-01	 2.0710917198e+00	 9.9312198841e-01
 4.3691419839e-01	 2.0750925511e+00	 9.9242905603e-01
 4.1834053342e-01	 2.0789165867e+00	 1.0006941913e+00
 3.9978359589e-01	 2.0825647457e+00	 1.0183765304e+00
 3.8124566014e-01	 2.0860379832e+00	 1.0459416509e+00
 3.6272897079e-01	 2.0893372889e+00	 1.0838521102e+00
 5.5085933825e-01	 2.0569302219e+00	 1.1215773999e+00
 5.3215715004e-01	 2.0618478829e+00	 1.0827840730e+00
 5.1345746531e-01	 2.0665839680e+00	 1.0506101756e+00
 4.9476273328e-01	 2.0711392072e+00	 1.0255102606e+00
 4.7607537731e-01	 2.0755143707e+00	 1.0079474474e+00
 4.5739779424e-01	 2.0797102683e+00	 9.9839219694e-01
 4.3873235360e-01	 2.0837277484e+00	 9.9732129587e-01
 4.2008139701e-01	 2.0875676972e+00	 1.0052170408e+00
 4.0144723748e-01	 2.0912310376e+00	 1.0225666074e+00
 3.8283215878e-01	 2.0947187284e+00	 1.0498615917e+00
 3.6423841491e-01	 2.0980317637e+00	 1.0875921651e+00
 5.5314216005e-01	 2.0654543674e+00	 1.1257384885e+00
 5.3436246791e-01	 2.0703924078e+00	 1.0874564026e+00
 5.1558528963e-01	 2.0751481197e+00	 1.0555265611e+00
 4.9681308456e-01	 2.0797222362e+00	 1.0304546564e+00
 4.7804828613e-01	 2.0841155309e+00	 1.0127522499e+00
 4.5929330109e-01	 2.0883288168e+00	 1.0029355376e+00
 4.4055050882e-01	 2.0923629458e+00	 1.0015243399e+00
 4.2182226061e-01	 2.0962188078e+00	 1.0090413050e+00
 4.0311087906e-01	 2.0998973294e+00	 1.0260113117e+00
 3.8441865743e-01	 2.1033994736e+00	 1.0529610562e+00
 3.6574785904e-01	 2.1067262385e+00	 1.0904157715e+00
 5.5542498184e-01	 2.0739785129e+00	 1.1272752917e+00
 5.3656778577e-01	 2.0789369326e+00	 1.0900225694e+00
 5.1771311394e-01	 2.0837122714e+00	 1.0587462768e+00
 4.9886343584e-01	 2.0883052653e+00	 1.0340157050e+00
 4.8002119495e-01	 2.0927166911e+00	 1.0164027436e+00
 4.6118880795e-01	 2.0969473653e+00	 1.0064806329e+00
 4.4236866403e-01	 2.1009981432e+00	 1.0048229574e+00
 4.2356312421e-01	 2.1048699183e+00	 1.0120028672e+00
 4.0477452065e-01	 2.1085636212e+00	 1.0285925146e+00
 3.8600515608e-01	 2.1120802188e+00	 1.0551626876e+00
 3.6725730316e-01	 2.1154207133e+00	 1.0922812664e+00
 3.5216286193e-01	 2.0284759653e+00	 1.0354286268e+00
 3.3420528204e-01	 2.0315117943e+00	 1.0713866315e+00
 3.1627261310e-01	 2.0343807202e+00	 1.1027239588e+00
 2.9836695041e-01	 2.0370837996e+00	 1.1290830015e+00
 2.8049035836e-01	 2.0396221193e+00	 1.1500747226e+00
 2.6264486992e-01	 2.0419967957e+00	 1.1652828842e+00
 2.4483248629e-01	 2.0442089737e+00	 1.1742677613e+00
 2.2705517649e-01	 2.0462598259e+00	 1.1765693963e+00
 2.0931487706e-01	 2.0481505519e+00	 1.1717104404e+00
 1.9161349164e-01	 2.0498823769e+00	 1.1591986333e+00
 1.7395289077e-01	 2.0514565511e+00	 1.1385289647e+00
 3.5367230605e-01	 2.0371704401e+00	 1.0444507434e+00
 3.3563775620e-01	 2.0402192813e+00	 1.0817704053e+00
 3.1762822406e-01	 2.0431005041e+00	 1.1139946050e+00
 2.9964581394e-01	 2.0458151694e+00	 1.1407703747e+00
 2.8169259905e-01	 2.0483643689e+00	 1.1617195362e+00
 2.6377062109e-01	 2.0507492236e+00	 1.1764426362e+00
 2.4588188984e-01	 2.0529708834e+00	 1.1845223616e+00
 2.2802838276e-01	 2.0550305261e+00	 1.1855264904e+00
 2.1021204466e-01	 2.0569293561e+00	 1.1790104281e+00
 1.9243478738e-01	 2.0586686040e+00	 1.1645193812e+00
 1.7469848946e-01	 2.0602495255e+00	 1.1415902144e+00
 3.5518175017e-01	 2.0458649149e+00	 1.0528365605e+00
 3.3707023036e-01	 2.0489267683e+00	 1.0911984101e+00
 3.1898383503e-01	 2.0518202879e+00	 1.1240601954e+00
 3.0092467747e-01	 2.0545465392e+00	 1.1510740730e+00
 2.8289483975e-01	 2.0571066184e+00	 1.1718727830e+00
 2.6489637227e-01	 2.0595016515e+00	 1.1860732928e+00
 2.4693129339e-01	 2.0617327932e+00	 1.1932799168e+00
 2.2900158902e-01	 2.0638012263e+00	 1.1930869667e+00
 2.1110921227e-01	 2.0657081603e+00	 1.1850809877e+00
 1.9325608313e-01	 2.0674548312e+00	 1.1688426297e+00
 1.7544408815e-01	 2.0690424999e+00	 1.1439482049e+00
 3.5669119430e-01	 2.0545593897e+00	 1.0605474535e+00
 3.3850270451e-01	 2.0576342553e+00	 1.0996661636e+00
 3.2033944599e-01	 2.0605400717e+00	 1.1329437320e+00
 3.0220354100e-01	 2.0632779090e+00	 1.1600379933e+00
 2.8409708044e-01	 2.0658488680e+00	 1.1805927369e+00
 2.6602212344e-01	 2.0682540794e+00	 1.1942410625e+00
 2.4798069694e-01	 2.0704947030e+00	 1.2006082061e+00
 2.2997479528e-01	 2.0725719264e+00	 1.1993138937e+00
 2.1200637987e-01	 2.0744869645e+00	 1.1899742794e+00
 1.9407737887e-01	 2.0762410584e+00	 1.1722035198e+00
 1.7618968684e-01	 2.0778354743e+00	 1.1456150363e+00
 3.5820063842e-01	 2.0632538645e+00	 1.0675442924e+00
 3.3993517867e-01	 2.0663417423e+00	 1.1071680949e+00
 3.2169505696e-01	 2.0692598555e+00	 1.1406666579e+00
 3.0348240453e-01	 2.0720092788e+00	 1.1677041158e+00
 2.8529932113e-01	 2.0745911176e+00	 1.1879355111e+00
 2.6714787462e-01	 2.0770065074e+00	 1.2010098629e+00
 2.4903010049e-01	 2.0792566128e+00	 1.2065727018e+00
 2.3094800154e-01	 2.0813426266e+00	 1.2042681300e+00
 2.1290354748e-01	 2.0832657688e+00	 1.1937404646e+00
 1.9489867461e-01	 2.0850272856e+00	 1.1746355188e+00
 1.7693528553e-01	 2.0866284488e+00	 1.1466015734e+00
 3.5971008254e-01	 2.0719483393e+00	 1.0737874662e+00
 3.4136765283e-01	 2.0750492293e+00	 1.1136975784e+00
 3.2305066793e-01	 2.0779796393e+00	 1.1472488981e+00
 3.0476126806e-01	 2.0807406486e+00	 1.1741125506e+00
 2.8650156183e-01	 2.0833333671e+00	 1.1939551074e+00
 2.6827362580e-01	 2.0857589353e+00	 1.2064413705e+00
 2.5007950404e-01	 2.0880185226e+00	 1.2112366169e+00
 2.3192120780e-01	 2.0901133268e+00	 1.2080083685e+00
 2.1380071508e-01	 2.0920445730e+00	 1.1964277441e+00
 1.9571997035e-01	 2.0938135128e+00	 1.1761704500e+00
 1.7768088423e-01	 2.0954214232e+00	 1.1469174654e+00
 3.6121952667e-01	 2.0806428141e+00	 1.0792369063e+00
 3.4280012699e-01	 2.0837567163e+00	 1.1192469665e+00
 3.2440627889e-01	 2.0866994232e+00	 1.1527088999e+00
 3.0604013158e-01	 2.0894720184e+00	 1.1793015825e+00
 2.8770380252e-01	 2.0920756167e+00	 1.1987034644e+00
 2.6939937697e-01	 2.0945113632e+00	 1.2105950691e+00
 2.5112890760e-01	 2.0967804324e+00	 1.2146609518e+00
 2.3289441406e-01	 2.0988840269e+00	 1.2105911797e+00
 2.1469788269e-01	 2.1008233772e+00	 1.1980823954e+00
 1.9654126610e-01	 2.1025997400e+00	 1.1768385219e+00
 1.7842648292e-01	 2.1042143976e+00	 1.1465711647e+00
 3.6272897079e-01	 2.0893372889e+00	 1.0838521102e+00
 3.4423260114e-01	 2.0924642033e+00	 1.1238076228e+00
 3.2576188986e-01	 2.0954192070e+00	 1.1570636724e+00
 3.0731899511e-01	 2.0982033881e+00	 1.1833077158e+00
 2.8890604321e-01	 2.1008178662e+00	 1.2022305039e+00
 2.7052512815e-01	 2.1032637911e+00	 1.2135282977e+00
 2.5217831115e-01	 2.1055423421e+00	 1.2169045408e+00
 2.3386762033e-01	 2.1076547271e+00	 1.2120710533e+00
 2.1559505030e-01	 2.1096021814e+00	 1.1987488092e+00
 1.9736256184e-01	 2.1113859671e+00	 1.1766683575e+00
 1.7917208161e-01	 2.1130073720e+00	 1.1455699459e+00
 3.6423841491e-01	 2.0980317637e+00	 1.0875921651e+00
 3.4566507530e-01	 2.1011716903e+00	 1.1273699543e+00
 3.2711750082e-01	 2.1041389908e+00	 1.1603288259e+00
 3.0859785864e-01	 2.1069347579e+00	 1.1861657181e+00
 2.9010828391e-01	 2.1095601158e+00	 1.2045841781e+00
 2.7165087932e-01	 2.1120162190e+00	 1.2152962968e+00
 2.5322771470e-01	 2.1143042519e+00	 1.2180240969e+00
 2.3484082659e-01	 2.1164254273e+00	 1.2125004407e+00
 2.1649221790e-01	 2.1183809856e+00	 1.1984695250e+00
 1.9818385758e-01	 2.1201721943e+00	 1.1756870215e+00
 1.7991768030e-01	 2.1218003465e+00	 1.1439199244e+00
 3.6574785904e-01	 2.1067262385e+00	 1.0904157715e+00
 3.4709754946e-01	 2.1098791773e+00	 1.1299234434e+00
 3.2847311179e-01	 2.1128587746e+00	 1.1625186106e+00
 3.0987672217e-01	 2.1156661277e+00	 1.1879086630e+00
 2.9131052460e-01	 2.1183023654e+00	 1.2058105143e+00
 2.7277663050e-01	 2.1207686470e+00	 1.2159522549e+00
 2.5427711825e-01	 2.1230661617e+00	 1.2180742561e+00
 2.3581403285e-01	 2.1251961274e+00	 1.2119297949e+00
 2.1738938551e-01	 2.1271597898e+00	 1.1972852668e+00
 1.9900515333e-01	 2.1289584215e+00	 1.1739200490e+00
 1.8066327899e-01	 2.1305933209e+00	 1.1416260748e+00
 3.6725730316e-01	 2.1154207133e+00	 1.0922812664e+00
 3.4853002362e-01	 2.1185866643e+00	 1.1314566801e+00
 3.2982872276e-01	 2.1215785585e+00	 1.1636459543e+00
 3.1115558570e-01	 2.1243974975e+00	 1.1885679729e+00
 2.9251276530e-01	 2.1270446149e+00	 1.2059536602e+00
 2.7390238167e-01	 2.1295210749e+00	 1.2155473530e+00
 2.5532652180e-01	 2.1318280715e+00	 1.2171076212e+00
 2.3678723911e-01	 2.1339668276e+00	 1.2104076108e+00
 2.1828655311e-01	 2.1359385941e+00	 1.1952349771e+00
 1.9982644907e-01	 2.1377446487e+00	 1.1713914717e+00
 1.8140887769e-01	 2.1393862953e+00	 1.1386922485e+00
 1.7395289077e-01	 2.0514565511e+00	 1.1385289647e+00
 1.5633789565e-01	 2.0528741210e+00	 1.1141172669e+00
 1.3876726916e-01	 2.0541366640e+00	 1.0913641189e+00
 1.2124273991e-01	 2.0552454988e+00	 1.0712843179e+00
 1.0376600355e-01	 2.0562019652e+00	 1.0549421326e+00
 8.6338722586e-02	 2.0570074237e+00	 1.0434490837e+00
 6.8962526251e-02	 2.0576632541e+00	 1.0379616524e+00
 5.1639010350e-02	 2.0581708551e+00	 1.0396789506e+00
 3.4369737168e-02	 2.0585316430e+00	 1.0498403814e+00
 1.7156235382e-02	 2.0587470513e+00	 1.0697233191e+00
 0.0000000000e+00	 2.0588185294e+00	 1.1006408306e+00
 1.7469848946e-01	 2.0602495255e+00	 1.1415902144e+00
 1.5700799276e-01	 2.0616731714e+00	 1.1152150151e+00
 1.3936205487e-01	 2.0629411260e+00	 1.0912569322e+00
 1.2176241180e-01	 2.0640547134e+00	 1.0706000489e+00
 1.0421076647e-01	 2.0650152795e+00	 1.0541695490e+00
 8.6708788518e-02	 2.0658241903e+00	 1.0429297140e+00
 6.9258114149e-02	 2.0664828318e+00	 1.0378818575e+00
 5.1860346014e-02	 2.0669926084e+00	 1.0400622307e+00
 3.4517053093e-02	 2.0673549428e+00	 1.0505399295e+00
 1.7229770617e-02	 2.0675712743e+00	 1.0704148290e+00
 0.0000000000e+00	 2.0676430588e+00	 1.1008155708e+00
 1.7544408815e-01	 2.0690424999e+00	 1.1439482049e+00
 1.5767808988e-01	 2.0704722218e+00	 1.1158650921e+00
 1.3995684059e-01	 2.0717455879e+00	 1.0908225079e+00
 1.2228208370e-01	 2.0728639281e+00	 1.0695785297e+00
 1.0465552940e-01	 2.0738285937e+00	 1.0529251497e+00
 8.7078854450e-02	 2.0746409569e+00	 1.0416864478e+00
 6.9553702047e-02	 2.0753024094e+00	 1.0367167134e+00
 5.2081681678e-02	 2.0758143618e+00	 1.0388985471e+00
 3.4664369019e-02	 2.0761782425e+00	 1.0491409738e+00
 1.7303305852e-02	 2.0763954974e+00	 1.0683775936e+00
 0.0000000000e+00	 2.0764675882e+00	 1.0975647946e+00
 1.7618968684e-01	 2.0778354743e+00	 1.1456150363e+00
 1.5834818700e-01	 2.0792712723e+00	 1.1160633210e+00
 1.4055162630e-01	 2.0805500499e+00	 1.0900598283e+00
 1.2280175559e-01	 2.0816731427e+00	 1.0682412665e+00
 1.0510029232e-01	 2.0826419080e+00	 1.0512722436e+00
 8.7448920382e-02	 2.0834577236e+00	 1.0398435795e+00
 6.9849289945e-02	 2.0841219871e+00	 1.0346705743e+00
 5.2303017341e-02	 2.0846361151e+00	 1.0364912678e+00
 3.4811684943e-02	 2.0850015423e+00	 1.0460647196e+00
 1.7376841086e-02	 2.0852197204e+00	 1.0641693363e+00
 0.0000000000e+00	 2.0852921176e+00	 1.0916012714e+00
 1.7693528553e-01	 2.0866284488e+00	 1.1466015734e+00
 1.5901828411e-01	 2.0880703227e+00	 1.1158046269e+00
 1.4114641202e-01	 2.0893545118e+00	 1.0889670028e+00
 1.2332142749e-01	 2.0904823574e+00	 1.0666086059e+00
 1.0554505525e-01	 2.0914552223e+00	 1.0492723860e+00
 8.7818986313e-02	 2.0922744902e+00	 1.0375227499e+00
 7.0144877842e-02	 2.0929415647e+00	 1.0319439379e+00
 5.2524353004e-02	 2.0934578684e+00	 1.0331384022e+00
 3.4959000868e-02	 2.0938248420e+00	 1.0417252142e+00
 1.7450376320e-02	 2.0940439435e+00	 1.0583385299e+00
 0.0000000000e+00	 2.0941166470e+00	 1.0836261371e+00
 1.7768088423e-01	 2.0954214232e+00	 1.1469174654e+00
 1.5968838123e-01	 2.0968693731e+00	 1.1150830490e+00
 1.4174119773e-01	 2.0981589738e+00	 1.0875412781e+00
 1.2384109938e-01	 2.0992915720e+00	 1.0646997516e+00
 1.0598981817e-01	 2.1002685365e+00	 1.0469854073e+00
 8.8189052244e-02	 2.1010912568e+00	 1.0348429941e+00
 7.0440465740e-02	 2.1017611424e+00	 1.0287335198e+00
 5.2745688667e-02	 2.1022796218e+00	 1.0291327077e+00
 3.5106316793e-02	 2.1026481418e+00	 1.0365294932e+00
 1.7523911554e-02	 2.1028681665e+00	 1.0514245886e+00
 0.0000000000e+00	 2.1029411764e+00	 1.0743291382e+00
 1.7842648292e-01	 2.1042143976e+00	 1.1465711647e+00
 1.6035847835e-01	 2.1056684235e+00	 1.1138917518e+00
 1.4233598344e-01	 2.1069634357e+00	 1.0857790487e+00
 1.2436077128e-01	 2.1081007867e+00	 1.0625327804e+00
 1.0643458110e-01	 2.1090818508e+00	 1.0444694411e+00
 8.8559118175e-02	 2.1099080235e+00	 1.0319207892e+00
 7.0736053637e-02	 2.1105807201e+00	 1.0252323261e+00
 5.2967024330e-02	 2.1111013751e+00	 1.0247617941e+00
 3.5253632717e-02	 2.1114714416e+00	 1.0308777230e+00
 1.7597446789e-02	 2.1116923896e+00	 1.0439580548e+00
 0.0000000000e+00	 2.1117657059e+00	 1.0643888696e+00
 1.7917208161e-01	 2.1130073720e+00	 1.1455699459e+00
 1.6102857546e-01	 2.1144674740e+00	 1.1122230364e+00
 1.4293076916e-01	 2.1157678977e+00	 1.0836758671e+00
 1.2488044317e-01	 2.1169100013e+00	 1.0601246575e+00
 1.0687934402e-01	 2.1178951651e+00	 1.0417809521e+00
 8.8929184106e-02	 2.1187247901e+00	 1.0288700992e+00
 7.1031641534e-02	 2.1194002977e+00	 1.0216297234e+00
 5.3188359993e-02	 2.1199231285e+00	 1.0203082250e+00
 3.5400948642e-02	 2.1202947413e+00	 1.0251633391e+00
 1.7670982023e-02	 2.1205166126e+00	 1.0364607815e+00
 0.0000000000e+00	 2.1205902353e+00	 1.0544730069e+00
 1.7991768030e-01	 2.1218003465e+00	 1.1439199244e+00
 1.6169867258e-01	 2.1232665244e+00	 1.1100683520e+00
 1.4352555487e-01	 2.1245723596e+00	 1.0812264541e+00
 1.2540011506e-01	 2.1257192160e+00	 1.0574912524e+00
 1.0732410695e-01	 2.1267084793e+00	 1.0389747628e+00
 8.9299250037e-02	 2.1275415567e+00	 1.0258024206e+00
 7.1327229432e-02	 2.1282198754e+00	 1.0181115078e+00
 5.3409695656e-02	 2.1287448818e+00	 1.0160496167e+00
 3.5548264567e-02	 2.1291180411e+00	 1.0197731819e+00
 1.7744517257e-02	 2.1293408356e+00	 1.0294461102e+00
 0.0000000000e+00	 2.1294147647e+00	 1.0452385323e+00
 1.8066327899e-01	 2.1305933209e+00	 1.1416260748e+00
 1.6236876970e-01	 2.1320655748e+00	 1.1074183061e+00
 1.4412034059e-01	 2.1333768216e+00	 1.0784247083e+00
 1.2591978696e-01	 2.1345284306e+00	 1.0546473534e+00
 1.0776886987e-01	 2.1355217936e+00	 1.0361040797e+00
 8.9669315969e-02	 2.1363583234e+00	 1.0228268254e+00
 7.1622817330e-02	 2.1370394530e+00	 1.0148599722e+00
 5.3631031320e-02	 2.1375666352e+00	 1.0122587348e+00
 3.5695580492e-02	 2.1379413408e+00	 1.0150876285e+00
 1.7818052492e-02	 2.1381650587e+00	 1.0234190441e+00
 0.0000000000e+00	 2.1382392941e+00	 1.0373319556e+00
 1.8140887769e-01	 2.1393862953e+00	 1.1386922485e+00
 1.6303886681e-01	 2.1408646252e+00	 1.1042626763e+00
 1.4471512630e-01	 2.1421812835e+00	 1.0752637162e+00
 1.2643945885e-01	 2.1433376453e+00	 1.0516066826e+00
 1.0821363280e-01	 2.1443351079e+00	 1.0332205193e+00
 9.0039381901e-02	 2.1451750900e+00	 1.0200500041e+00
 7.1918405228e-02	 2.1458590307e+00	 1.0120539714e+00
 5.3852366984e-02	 2.1463883885e+00	 1.0092035886e+00
 3.5842896417e-02	 2.1467646406e+00	 1.0114807216e+00
 1.7891587727e-02	 2.1469892817e+00	 1.0188764173e+00
 0.0000000000e+00	 2.1470638235e+00	 1.0313895291e+00
 2.1470638235e+00	 0.0000000000e+00	-6.7421613912e-01
 2.1469892817e+00	 1.7891587727e-02	 1.4255387025e+00
 2.1467646406e+00	 3.5842896417e-02	 2.8289218174e+00
 2.1463883885e+00	 5.3852366984e-02	 3.6333912699e+00
 2.1458590307e+00	 7.1918405228e-02	 3.9383094348e+00
 2.1451750900e+00	 9.0039381901e-02	 3.8448677581e+00
 2.1443351079e+00	 1.0821363280e-01	 3.4560085558e+00
 2.1433376453e+00	 1.2643945885e-01	 2.8763438129e+00
 2.1421812835e+00	 1.4471512630e-01	 2.2120709297e+00
 2.1408646252e+00	 1.6303886681e-01	 1.5708853509e+00
 2.1393862953e+00	 1.8140887769e-01	 1.0618900057e+00
 2.1558868529e+00	 0.0000000000e+00	-9.5126536118e-01
 2.1558120048e+00	 1.7965110462e-02	 1.5479149731e+00
 2.1555864406e+00	 3.5990187302e-02	 3.1852904680e+00
 2.1552086423e+00	 5.4073665026e-02	 4.0837853605e+00
 2.1546771092e+00	 7.2213942883e-02	 4.3685330937e+00
 2.1539903579e+00	 9.0409384930e-02	 4.1667761757e+00
 2.1531469241e+00	 1.0865832012e-01	 3.6077621230e+00
 2.1521453625e+00	 1.2695904241e-01	 2.8226354623e+00
 2.1509842489e+00	 1.4530981091e-01	 1.9443257464e+00
 2.1496621800e+00	 1.6370885003e-01	 1.1074315348e+00
 2.1481777751e+00	 1.8215434964e-01	 4.4810027916e-01
 2.1647098823e+00	 0.0000000000e+00	-1.1003070611e+00
 2.1646347279e+00	 1.8038633198e-02	 1.6845672617e+00
 2.1644082405e+00	 3.6137478187e-02	 3.4860589140e+00
 2.1640288961e+00	 5.4294963068e-02	 4.4457769086e+00
 2.1634951877e+00	 7.2509480538e-02	 4.7077397643e+00
 2.1628056259e+00	 9.0779387959e-02	 4.4182564129e+00
 2.1619587402e+00	 1.0910300745e-01	 3.7258025217e+00
 2.1609530798e+00	 1.2747862598e-01	 2.7808922115e+00
 2.1597872142e+00	 1.4590449553e-01	 1.7359451363e+00
 2.1584597348e+00	 1.6437883324e-01	 7.4514888563e-01
 2.1569692549e+00	 1.8289982160e-01	-3.5683338363e-02
 2.1735329117e+00	 0.0000000000e+00	-1.1231807094e+00
 2.1734574510e+00	 1.8112155933e-02	 1.8336618477e+00
 2.1732300405e+00	 3.6284769073e-02	 3.7292018067e+00
 2.1728491500e+00	 5.4516261110e-02	 4.7170364249e+00
 2.1723132662e+00	 7.2805018193e-02	 4.9532691434e+00
 2.1716208938e+00	 9.1149390988e-02	 4.5963774533e+00
 2.1707705564e+00	 1.0954769477e-01	 3.8070757888e+00
 2.1697607970e+00	 1.2799820954e-01	 2.7481734316e+00
 2.1685901796e+00	 1.4649918014e-01	 1.5844274034e+00
 2.1672572895e+00	 1.6504881646e-01	 4.8239031368e-01
 2.1657607347e+00	 1.8364529355e-01	-3.8974687566e-01
 2.1823559412e+00	 0.0000000000e+00	-1.0216905201e+00
 2.1822801741e+00	 1.8185678669e-02	 1.9933986820e+00
 2.1820518404e+00	 3.6432059958e-02	 3.9127292406e+00
 2.1816694038e+00	 5.4737559153e-02	 4.8952736175e+00
 2.1811313447e+00	 7.3100555849e-02	 5.1025044714e+00
 2.1804361618e+00	 9.1519394018e-02	 4.6982553561e+00
 2.1795823726e+00	 1.0999238210e-01	 3.8485763330e+00
 2.1785685143e+00	 1.2851779310e-01	 2.7215844911e+00
 2.1773931450e+00	 1.4709386476e-01	 1.4873093553e+00
 2.1760548443e+00	 1.6571879967e-01	 3.1753315734e-01
 2.1745522145e+00	 1.8439076551e-01	-6.1437406300e-01
 2.1911789706e+00	 0.0000000000e+00	-7.9760616029e-01
 2.1911028972e+00	 1.8259201405e-02	 2.1620106955e+00
 2.1908736404e+00	 3.6579350844e-02	 4.0346860158e+00
 2.1904896576e+00	 5.4958857195e-02	 4.9782365709e+00
 2.1899494232e+00	 7.3396093504e-02	 5.1528716190e+00
 2.1892514297e+00	 9.1889397047e-02	 4.7210522683e+00
 2.1883941887e+00	 1.1043706942e-01	 3.8473459204e+00
 2.1873762315e+00	 1.2903737666e-01	 2.6982757904e+00
 2.1861961103e+00	 1.4768854937e-01	 1.4421654913e+00
 2.1848523990e+00	 1.6638878288e-01	 2.4897866026e-01
 2.1833436942e+00	 1.8513623746e-01	-7.0984640210e-01
 2.2000020000e+00	 0.0000000000e+00	-4.5266344277e-01
 2.1999256203e+00	 1.8332724141e-02	 2.3377631258e+00
 2.1996954404e+00	 3.6726641730e-02	 4.0931509198e+00
 2.1993099114e+00	 5.5180155238e-02	 4.9637109466e+00
 2.1987675017e+00	 7.3691631160e-02	 5.1018381956e+00
 2.1980666977e+00	 9.2259400077e-02	 4.6619754610e+00
 2.1972060049e+00	 1.1088175675e-01	 3.8004726840e+00
 2.1961839488e+00	 1.2955696022e-01	 2.6754418190e+00
 2.1949990757e+00	 1.4828323398e-01	 1.4466072105e+00
 2.1936499538e+00	 1.6705876610e-01	 2.7515146158e-01
 2.1921351740e+00	 1.8588170942e-01	-6.7644323372e-01
 2.2088250294e+00	 0.0000000000e+00	 1.1434997581e-02
 2.2087483434e+00	 1.8406246877e-02	 2.5189528584e+00
 2.2085172403e+00	 3.6873932615e-02	 4.0862360252e+00
 2.2081301652e+00	 5.5401453280e-02	 4.8495192007e+00
 2.2075855802e+00	 7.3987168815e-02	 4.9469126799e+00
 2.2068819656e+00	 9.2629403106e-02	 4.5182763885e+00
 2.2060178211e+00	 1.1132644407e-01	 3.7050901574e+00
 2.2049916661e+00	 1.3007654378e-01	 2.6503202367e+00
 2.2038020411e+00	 1.4887791859e-01	 1.4982820400e+00
 2.2024475085e+00	 1.6772874931e-01	 3.9449909904e-01
 2.2009266538e+00	 1.8662718137e-01	-5.1444180283e-01
 2.2176480588e+00	 0.0000000000e+00	 5.9301904388e-01
 2.2175710665e+00	 1.8479769612e-02	 2.7039077853e+00
 2.2173390403e+00	 3.7021223500e-02	 4.0120860049e+00
 2.2169504190e+00	 5.5622751322e-02	 4.6335198223e+00
 2.2164036587e+00	 7.4282706470e-02	 4.6856435703e+00
 2.2156972336e+00	 9.2999406135e-02	 4.2872497707e+00
 2.2148296373e+00	 1.1177113140e-01	 3.5583763320e+00
 2.2137993833e+00	 1.3059612734e-01	 2.6201909760e+00
 2.2126050064e+00	 1.4947260321e-01	 1.5948728815e+00
 2.2112450633e+00	 1.6839873252e-01	 6.0549152459e-01
 2.2097181336e+00	 1.8737265333e-01	-2.2411732138e-01
 2.2264710882e+00	 0.0000000000e+00	 1.2918244380e+00
 2.2263937896e+00	 1.8553292348e-02	 2.8922244589e+00
 2.2261608403e+00	 3.7168514385e-02	 3.8699109488e+00
 2.2257706728e+00	 5.5844049364e-02	 4.3143932682e+00
 2.2252217372e+00	 7.4578244125e-02	 4.3161468593e+00
 2.2245125015e+00	 9.3369409163e-02	 3.9665233081e+00
 2.2236414534e+00	 1.1221581872e-01	 3.3576591995e+00
 2.2226071006e+00	 1.3111571090e-01	 2.5823836406e+00
 2.2214079718e+00	 1.5006728782e-01	 1.7340972760e+00
 2.2200426181e+00	 1.6906871573e-01	 9.0662063218e-01
 2.2185096134e+00	 1.8811812528e-01	 1.9425697109e-01
 2.2352941176e+00	 0.0000000000e+00	 2.1147008493e+00
 2.2352165126e+00	 1.8626815083e-02	 3.0902122731e+00
 2.2349826402e+00	 3.7315805270e-02	 3.6653336262e+00
 2.2345909267e+00	 5.6065347405e-02	 3.8969751058e+00
 2.2340398157e+00	 7.4873781778e-02	 3.8424062480e+00
 2.2333277695e+00	 9.3739412190e-02	 3.5591941626e+00
 2.2324532696e+00	 1.1266050604e-01	 3.1051420496e+00
 2.2314148178e+00	 1.3163529446e-01	 2.5382278621e+00
 2.2302109371e+00	 1.5066197243e-01	 1.9165429621e+00
 2.2288401728e+00	 1.6973869895e-01	 1.2982306007e+00
 2.2273010932e+00	 1.8886359723e-01	 7.4142404078e-01
 2.1393862953e+00	 1.8140887769e-01	 1.0618900057e+00
 2.1377446487e+00	 1.9982644907e-01	 7.6942918231e-01
 2.1359385941e+00	 2.1828655311e-01	 6.7916967476e-01
 2.1339668276e+00	 2.3678723911e-01	 7.5226044673e-01
 2.1318280715e+00	 2.5532652180e-01	 9.4890539485e-01
 2.1295210749e+00	 2.7390238167e-01	 1.2284008423e+00
 2.1270446149e+00	 2.9251276530e-01	 1.5491750580e+00
 2.1243974975e+00	 3.1115558570e-01	 1.8688295819e+00
 2.1215785585e+00	 3.2982872276e-01	 2.1441821161e+00
 2.1185866643e+00	 3.4853002362e-01	 2.3313107174e+00
 2.1154207133e+00	 3.6725730316e-01	 2.3855990081e+00
 2.1481777751e+00	 1.8215434964e-01	 4.4810027916e-01
 2.1465293824e+00	 2.0064760521e-01	 7.0208846881e-02
 2.1447159060e+00	 2.1918356822e-01	-4.5797213914e-02
 2.1427360369e+00	 2.3776027995e-01	 5.1152961958e-02
 2.1405884919e+00	 2.5637574698e-01	 3.1117054718e-01
 2.1382720151e+00	 2.7502794149e-01	 6.8345867877e-01
 2.1357853785e+00	 2.9371480163e-01	 1.1163665237e+00
 2.1331273831e+00	 3.1243423184e-01	 1.5574455175e+00
 2.1302968601e+00	 3.3118410329e-01	 1.9535075147e+00
 2.1272926712e+00	 3.4996225428e-01	 2.2506845700e+00
 2.1241137102e+00	 3.6876649071e-01	 2.3944900412e+00
 2.1569692549e+00	 1.8289982160e-01	-3.5683338363e-02
 2.1553141161e+00	 2.0146876135e-01	-4.8666020325e-01
 2.1534932180e+00	 2.2008058332e-01	-6.2941527404e-01
 2.1515052462e+00	 2.3873332078e-01	-5.2036335199e-01
 2.1493489123e+00	 2.5742497215e-01	-2.1687623900e-01
 2.1470229552e+00	 2.7615350131e-01	 2.2278020554e-01
 2.1445261420e+00	 2.9491683797e-01	 7.3951171338e-01
 2.1418572687e+00	 3.1371287799e-01	 1.2734637101e+00
 2.1390151617e+00	 3.3253948383e-01	 1.7640915956e+00
 2.1359986781e+00	 3.5139448495e-01	 2.1502329005e+00
 2.1328067071e+00	 3.7027567826e-01	 2.3701809932e+00
 2.1657607347e+00	 1.8364529355e-01	-3.8974687566e-01
 2.1640988498e+00	 2.0228991749e-01	-8.9989825325e-01
 2.1622705300e+00	 2.2097759843e-01	-1.0690193132e+00
 2.1602744555e+00	 2.3970636162e-01	-9.5845089633e-01
 2.1581093328e+00	 2.5847419733e-01	-6.3047103471e-01
 2.1557738954e+00	 2.7727906114e-01	-1.4822357841e-01
 2.1532669055e+00	 2.9611887431e-01	 4.2435609324e-01
 2.1505871544e+00	 3.1499152414e-01	 1.0226180119e+00
 2.1477334633e+00	 3.3389486437e-01	 1.5812769207e+00
 2.1447046850e+00	 3.5282671562e-01	 2.0344936188e+00
 2.1414997040e+00	 3.7178486581e-01	 2.3162829976e+00
 2.1745522145e+00	 1.8439076551e-01	-6.1437406300e-01
 2.1728835834e+00	 2.0311107363e-01	-1.1682485992e+00
 2.1710478420e+00	 2.2187461353e-01	-1.3619894198e+00
 2.1690436649e+00	 2.4067940246e-01	-1.2593360596e+00
 2.1668697532e+00	 2.5952342250e-01	-9.2492851385e-01
 2.1645248356e+00	 2.7840462096e-01	-4.2423027228e-01
 2.1620076691e+00	 2.9732091064e-01	 1.7655168835e-01
 2.1593170400e+00	 3.1627017029e-01	 8.1054967591e-01
 2.1564517649e+00	 3.3525024491e-01	 1.4103205170e+00
 2.1534106919e+00	 3.5425894628e-01	 1.9079329228e+00
 2.1501927009e+00	 3.7329405336e-01	 2.2364551110e+00
 2.1833436942e+00	 1.8513623746e-01	-7.0984640210e-01
 2.1816683171e+00	 2.0393222977e-01	-1.2904770993e+00
 2.1798251540e+00	 2.2277162864e-01	-1.5057500548e+00
 2.1778128742e+00	 2.4165244329e-01	-1.4193079195e+00
 2.1756301736e+00	 2.6057264767e-01	-1.0956403465e+00
 2.1732757758e+00	 2.7953018078e-01	-6.0000424944e-01
 2.1707484326e+00	 2.9852294698e-01	 1.6590214338e-03
 2.1680469256e+00	 3.1754881644e-01	 6.4280929811e-01
 2.1651700666e+00	 3.3660562545e-01	 1.2563956964e+00
 2.1621166988e+00	 3.5569117695e-01	 1.7749468597e+00
 2.1588856978e+00	 3.7480324091e-01	 2.1338488760e+00
 2.1921351740e+00	 1.8588170942e-01	-6.7644323372e-01
 2.1904530508e+00	 2.0475338591e-01	-1.2653717346e+00
 2.1886024660e+00	 2.2366864375e-01	-1.4977691642e+00
 2.1865820835e+00	 2.4262548413e-01	-1.4347169752e+00
 2.1843905940e+00	 2.6162187285e-01	-1.1380736293e+00
 2.1820267160e+00	 2.8065574060e-01	-6.7039487562e-01
 2.1794891962e+00	 2.9972498332e-01	-9.4850992694e-02
 2.1767768112e+00	 3.1882746258e-01	 5.2485871310e-01
 2.1738883682e+00	 3.3796100599e-01	 1.1245938327e+00
 2.1708227057e+00	 3.5712340762e-01	 1.6398628531e+00
 2.1675786947e+00	 3.7631242846e-01	 2.0115623741e+00
 2.2009266538e+00	 1.8662718137e-01	-5.1444180283e-01
 2.1992377845e+00	 2.0557454205e-01	-1.0917421801e+00
 2.1973797780e+00	 2.2456565885e-01	-1.3355573113e+00
 2.1953512928e+00	 2.4359852496e-01	-1.3019739087e+00
 2.1931510145e+00	 2.6267109802e-01	-1.0477693525e+00
 2.1907776561e+00	 2.8178130042e-01	-6.3033476810e-01
 2.1882299597e+00	 3.0092701966e-01	-1.0759519639e-01
 2.1855066969e+00	 3.2010610873e-01	 4.6207284747e-01
 2.1826066698e+00	 3.3931638653e-01	 1.0199260986e+00
 2.1795287126e+00	 3.5855563829e-01	 1.5069411957e+00
 2.1762716916e+00	 3.7782161601e-01	 1.8726439423e+00
 2.2097181336e+00	 1.8737265333e-01	-2.2411732138e-01
 2.2080225182e+00	 2.0639569819e-01	-7.6841938414e-01
 2.2061570900e+00	 2.2546267395e-01	-1.0166668290e+00
 2.2041205021e+00	 2.4457156580e-01	-1.0175483737e+00
 2.2019114349e+00	 2.6372032320e-01	-8.2034090101e-01
 2.1995285963e+00	 2.8290686024e-01	-4.7483809486e-01
 2.1969707233e+00	 3.0212905599e-01	-3.1276380669e-02
 2.1942365825e+00	 3.2138475488e-01	 4.5974153067e-01
 2.1913249715e+00	 3.4067176707e-01	 9.4732516419e-01
 2.1882347194e+00	 3.5998786895e-01	 1.3803765090e+00
 2.1849646885e+00	 3.7933080355e-01	 1.7200931652e+00
 2.2185096134e+00	 1.8811812528e-01	 1.9425697109e-01
 2.2168072519e+00	 2.0721685432e-01	-2.9425515773e-01
 2.2149344020e+00	 2.2635968906e-01	-5.3869099101e-01
 2.2128897114e+00	 2.4554460663e-01	-5.7796781299e-01
 2.2106718553e+00	 2.6476954837e-01	-4.5147259106e-01
 2.2082795365e+00	 2.8403242006e-01	-1.9899891240e-01
 2.2057114868e+00	 3.0333109233e-01	 1.3931848218e-01
 2.2029664681e+00	 3.2266340102e-01	 5.2307126495e-01
 2.2000432731e+00	 3.4202714761e-01	 9.1164685677e-01
 2.1969407263e+00	 3.6142009962e-01	 1.2642991709e+00
 2.1936576854e+00	 3.8083999110e-01	 1.5568618434e+00
 2.2273010932e+00	 1.8886359723e-01	 7.4142404078e-01
 2.2255919856e+00	 2.0803801046e-01	 3.3229892447e-01
 2.2237117139e+00	 2.2725670416e-01	 1.0081542910e-01
 2.2216589208e+00	 2.4651764747e-01	 2.0183697907e-02
 2.2194322757e+00	 2.6581877354e-01	 6.3081761108e-02
 2.2170304767e+00	 2.8515797987e-01	 2.0201045866e-01
 2.2144522504e+00	 3.0453312866e-01	 4.0931996594e-01
 2.2116963537e+00	 3.2394204717e-01	 6.5718695550e-01
 2.2087615747e+00	 3.4338252815e-01	 9.1767178380e-01
 2.2056467332e+00	 3.6285233028e-01	 1.1627767123e+00
 2.2023506823e+00	 3.8234917865e-01	 1.3858549402e+00
 2.1154207133e+00	 3.6725730316e-01	 2.3855990081e+00
 2.1120802188e+00	 3.8600515608e-01	 2.2940825403e+00
 2.1085636212e+00	 4.0477452065e-01	 2.1213949038e+00
 2.1048699183e+00	 4.2356312421e-01	 1.8860367507e+00
 2.1009981432e+00	 4.4236866403e-01	 1.6052288746e+00
 2.0969473653e+00	 4.6118880795e-01	 1.2966491444e+00
 2.0927166911e+00	 4.8002119495e-01	 9.7841861061e-01
 2.0883052653e+00	 4.9886343584e-01	 6.6908579945e-01
 2.0837122714e+00	 5.1771311394e-01	 3.8760912931e-01
 2.0789369326e+00	 5.3656778577e-01	 1.5333738496e-01
 2.0739785129e+00	 5.5542498184e-01	-1.4011810230e-02
 2.1241137102e+00	 3.6876649071e-01	 2.3944900412e+00
 2.1207594885e+00	 3.8759138505e-01	 2.3736994458e+00
 2.1172284400e+00	 4.0643787945e-01	 2.2475264223e+00
 2.1135195584e+00	 4.2530369189e-01	 2.0372964050e+00
 2.1096318728e+00	 4.4418651020e-01	 1.7642847953e+00
 2.1055644488e+00	 4.6308399261e-01	 1.4501649210e+00
 2.1013163893e+00	 4.8199376841e-01	 1.1169876601e+00
 2.0968868355e+00	 5.0091343860e-01	 7.8715918494e-01
 2.0922749673e+00	 5.1984057656e-01	 4.8341676999e-01
 2.0874800050e+00	 5.3877272878e-01	 2.2880260556e-01
 2.0825012094e+00	 5.5770741560e-01	 4.6635566440e-02
 2.1328067071e+00	 3.7027567826e-01	 2.3701809932e+00
 2.1294387581e+00	 3.8917761403e-01	 2.4151709390e+00
 2.1258932587e+00	 4.0810123824e-01	 2.3351598137e+00
 2.1221691984e+00	 4.2704425957e-01	 2.1539585582e+00
 2.1182656023e+00	 4.4600435636e-01	 1.8957407039e+00
 2.1141815323e+00	 4.6497917727e-01	 1.5850216365e+00
 2.1099160876e+00	 4.8396634188e-01	 1.2466332970e+00
 2.1054684056e+00	 5.0296344137e-01	 9.0569696404e-01
 2.1008376632e+00	 5.2196803918e-01	 5.8759406555e-01
 2.0960230774e+00	 5.4097767178e-01	 3.1793496790e-01
 2.0910239059e+00	 5.5998984936e-01	 1.2252569767e-01
 2.1414997040e+00	 3.7178486581e-01	 2.3162829976e+00
 2.1381180278e+00	 3.9076384300e-01	 2.4203308281e+00
 2.1345580774e+00	 4.0976459704e-01	 2.3848867392e+00
 2.1308188384e+00	 4.2878482725e-01	 2.2355647426e+00
 2.1268993319e+00	 4.4782220253e-01	 1.9982944922e+00
 2.1227986158e+00	 4.6687436193e-01	 1.6992944917e+00
 2.1185157858e+00	 4.8593891534e-01	 1.3650434234e+00
 2.1140499757e+00	 5.0501344413e-01	 1.0222495456e+00
 2.1094003591e+00	 5.2409550181e-01	 6.9781810960e-01
 2.1045661498e+00	 5.4318261479e-01	 4.1881674965e-01
 2.0995466025e+00	 5.6227228312e-01	 2.1243880312e-01
 2.1501927009e+00	 3.7329405336e-01	 2.2364551110e+00
 2.1467972974e+00	 3.9235007198e-01	 2.3909830141e+00
 2.1432228962e+00	 4.1142795584e-01	 2.3972890324e+00
 2.1394684784e+00	 4.3052539494e-01	 2.2816636289e+00
 2.1355330615e+00	 4.4964004869e-01	 2.0706648077e+00
 2.1314156994e+00	 4.6876954659e-01	 1.7910894776e+00
 2.1271154840e+00	 4.8791148881e-01	 1.4699429481e+00
 2.1226315458e+00	 5.0706344689e-01	 1.1344065095e+00
 2.1179630551e+00	 5.2622296443e-01	 8.1180304599e-01
 2.1131092222e+00	 5.4538755780e-01	 5.2956064010e-01
 2.1080692990e+00	 5.6455471688e-01	 3.1517412599e-01
 2.1588856978e+00	 3.7480324091e-01	 2.1338488760e+00
 2.1554765671e+00	 3.9393630095e-01	 2.3289020960e+00
 2.1518877149e+00	 4.1309131464e-01	 2.3729389014e+00
 2.1481181185e+00	 4.3226596262e-01	 2.2918108892e+00
 2.1441667910e+00	 4.5145789486e-01	 2.1115906454e+00
 2.1400327829e+00	 4.7066473125e-01	 1.8585427668e+00
 2.1357151822e+00	 4.8988406227e-01	 1.5590930553e+00
 2.1312131160e+00	 5.0911344966e-01	 1.2397958348e+00
 2.1265257510e+00	 5.2835042706e-01	 9.2729934229e-01
 2.1216522946e+00	 5.4759250080e-01	 6.4830914976e-01
 2.1165919955e+00	 5.6683715064e-01	 4.2954957436e-01
 2.1675786947e+00	 3.7631242846e-01	 2.0115623741e+00
 2.1641558367e+00	 3.9552252993e-01	 2.2358339613e+00
 2.1605525337e+00	 4.1475467344e-01	 2.3123991283e+00
 2.1567677585e+00	 4.3400653031e-01	 2.2655690649e+00
 2.1528005206e+00	 4.5327574102e-01	 2.1198309497e+00
 2.1486498664e+00	 4.7255991591e-01	 1.8998201220e+00
 2.1443148804e+00	 4.9185663574e-01	 1.6302904932e+00
 2.1397946861e+00	 5.1116345242e-01	 1.3360831477e+00
 2.1350884469e+00	 5.3047788968e-01	 1.0420930818e+00
 2.1301953670e+00	 5.4979744381e-01	 7.7323403531e-01
 2.1251146921e+00	 5.6911958440e-01	 5.5440137233e-01
 2.1762716916e+00	 3.7782161601e-01	 1.8726439423e+00
 2.1728351064e+00	 3.9710875890e-01	 2.1134963636e+00
 2.1692173524e+00	 4.1641803224e-01	 2.2162232629e+00
 2.1654173985e+00	 4.3574709799e-01	 2.2025074375e+00
 2.1614342502e+00	 4.5509358719e-01	 2.0941642272e+00
 2.1572669499e+00	 4.7445510057e-01	 1.9131163176e+00
 2.1529145786e+00	 4.9382920920e-01	 1.6813668793e+00
 2.1483762562e+00	 5.1321345518e-01	 1.4209709885e+00
 2.1436511428e+00	 5.3260535231e-01	 1.1540052736e+00
 2.1387384394e+00	 5.5200238681e-01	 9.0253573937e-01
 2.1336373886e+00	 5.7140201817e-01	 6.8858372070e-01
 2.1849646885e+00	 3.7933080355e-01	 1.7200931652e+00
 2.1815143761e+00	 3.9869498788e-01	 1.9635794864e+00
 2.1778821711e+00	 4.1808139104e-01	 2.0849558133e+00
 2.1740670386e+00	 4.3748766567e-01	 2.1022019044e+00
 2.1700679797e+00	 4.5691143335e-01	 2.0333881695e+00
 2.1658840334e+00	 4.7635028523e-01	 1.8966545776e+00
 2.1615142768e+00	 4.9580178267e-01	 1.7101880241e+00
 2.1569578264e+00	 5.1526345795e-01	 1.4921980967e+00
 2.1522138388e+00	 5.3473281493e-01	 1.2608911801e+00
 2.1472815118e+00	 5.5420732982e-01	 1.0344428448e+00
 2.1421600852e+00	 5.7368445192e-01	 8.3096846686e-01
 2.1936576854e+00	 3.8083999110e-01	 1.5568618434e+00
 2.1901936457e+00	 4.0028121685e-01	 1.7877464948e+00
 2.1865469899e+00	 4.1974474984e-01	 1.9191324327e+00
 2.1827166786e+00	 4.3922823336e-01	 1.9642348573e+00
 2.1787017093e+00	 4.5872927951e-01	 1.9363192853e+00
 2.1745011169e+00	 4.7824546988e-01	 1.8486860269e+00
 2.1701139750e+00	 4.9777435613e-01	 1.7146532714e+00
 2.1655393965e+00	 5.1731346071e-01	 1.5475387144e+00
 2.1607765347e+00	 5.3686027755e-01	 1.3606396612e+00
 2.1558245842e+00	 5.5641227282e-01	 1.1672115431e+00
 2.1506827817e+00	 5.7596688568e-01	 9.8044478374e-01
 2.2023506823e+00	 3.8234917865e-01	 1.3858549402e+00
 2.1988729154e+00	 4.0186744582e-01	 1.5876340740e+00
 2.1952118086e+00	 4.2140810864e-01	 1.7192801024e+00
 2.1913663186e+00	 4.4096880104e-01	 1.7881950649e+00
 2.1873354389e+00	 4.6054712568e-01	 1.8017925424e+00
 2.1831182005e+00	 4.8014065454e-01	 1.7674891566e+00
 2.1787136732e+00	 4.9974692960e-01	 1.6926948549e+00
 2.1741209666e+00	 5.1936346347e-01	 1.5848019068e+00
 2.1693392306e+00	 5.3898774018e-01	 1.4511725362e+00
 2.1643676566e+00	 5.5861721583e-01	 1.2991251164e+00
 2.1592054782e+00	 5.7824931944e-01	 1.1359188575e+00
 2.0739785129e+00	 5.5542498184e-01	-1.4011810230e-02
 2.0688363181e+00	 5.7428220763e-01	-1.0776753505e-01
 2.0635096983e+00	 5.9313694523e-01	-1.3927120981e-01
 2.0579980469e+00	 6.1198665341e-01	-1.1573241715e-01
 2.0523008014e+00	 6.3082876822e-01	-4.4592489144e-02
 2.0464174439e+00	 6.4966070390e-01	 6.6470536379e-02
 2.0403475018e+00	 6.6847985372e-01	 2.0953583305e-01
 2.0340905489e+00	 6.8728359099e-01	 3.7643253171e-01
 2.0276462055e+00	 7.0606926997e-01	 5.5873125429e-01
 2.0210141399e+00	 7.2483422690e-01	 7.4773440068e-01
 2.0141940681e+00	 7.4357578096e-01	 9.3404802283e-01
 2.0825012094e+00	 5.5770741560e-01	 4.6635566440e-02
 2.0773378836e+00	 5.7664213227e-01	-5.4873338929e-02
 2.0719893748e+00	 5.9557435052e-01	-8.9023471255e-02
 2.0664550742e+00	 6.1450151868e-01	-6.4690799083e-02
 2.0607344167e+00	 6.3342106228e-01	 9.0897595984e-03
 2.0548268824e+00	 6.5233038490e-01	 1.2312273005e-01
 2.0487319969e+00	 6.7122686913e-01	 2.6804928011e-01
 2.0424493319e+00	 6.9010787747e-01	 4.3434317332e-01
 2.0359785066e+00	 7.0897075332e-01	 6.1230542796e-01
 2.0293191874e+00	 7.2781282196e-01	 7.9205763901e-01
 2.0224710896e+00	 7.4663139157e-01	 9.6177236779e-01
 2.0910239059e+00	 5.5998984936e-01	 1.2252569767e-01
 2.0858394491e+00	 5.7900205690e-01	 1.1569883071e-02
 2.0804690514e+00	 5.9801175580e-01	-2.8596764997e-02
 2.0749121014e+00	 6.1701638395e-01	-7.9146578803e-03
 2.0691680320e+00	 6.3601335633e-01	 6.3583566040e-02
 2.0632363210e+00	 6.5500006590e-01	 1.7577389197e-01
 2.0571164919e+00	 6.7397388454e-01	 3.1844051151e-01
 2.0508081150e+00	 6.9293216396e-01	 4.8127407842e-01
 2.0443108076e+00	 7.1187223668e-01	 6.5386858298e-01
 2.0376242350e+00	 7.3079141703e-01	 8.2571679579e-01
 2.0307481111e+00	 7.4968700217e-01	 9.8220015557e-01
 2.0995466025e+00	 5.6227228312e-01	 2.1243880312e-01
 2.0943410145e+00	 5.8136198154e-01	 9.1121781969e-02
 2.0889487279e+00	 6.0044916109e-01	 4.2203686408e-02
 2.0833691287e+00	 6.1953124922e-01	 5.5274053192e-02
 2.0776016473e+00	 6.3860565038e-01	 1.1989088428e-01
 2.0716457595e+00	 6.5766974691e-01	 2.2558307061e-01
 2.0655009870e+00	 6.7672089996e-01	 3.6185146614e-01
 2.0591668981e+00	 6.9575645045e-01	 5.1816854795e-01
 2.0526431086e+00	 7.1477372003e-01	 6.8397660260e-01
 2.0459292826e+00	 7.3377001209e-01	 8.4868438489e-01
 2.0390251327e+00	 7.5274261278e-01	 9.9455218219e-01
 2.1080692990e+00	 5.6455471688e-01	 3.1517412599e-01
 2.1028425800e+00	 5.8372190618e-01	 1.8334831046e-01
 2.0974284045e+00	 6.0288656638e-01	 1.2356855698e-01
 2.0918261560e+00	 6.2204611450e-01	 1.2554131039e-01
 2.0860352626e+00	 6.4119794444e-01	 1.7899618950e-01
 2.0800551981e+00	 6.6033942791e-01	 2.7368910538e-01
 2.0738854820e+00	 6.7946791537e-01	 3.9940394087e-01
 2.0675256811e+00	 6.9858073693e-01	 5.4595272282e-01
 2.0609754097e+00	 7.1767520338e-01	 7.0317422364e-01
 2.0542343302e+00	 7.3674860715e-01	 8.6093093440e-01
 2.0473021542e+00	 7.5579822338e-01	 9.9806323406e-01
 2.1165919955e+00	 5.6683715064e-01	 4.2954957436e-01
 2.1113441455e+00	 5.8608183082e-01	 2.8782162280e-01
 2.1059080810e+00	 6.0532397167e-01	 2.1568452898e-01
 2.1002831832e+00	 6.2456097977e-01	 2.0354129379e-01
 2.0944688779e+00	 6.4379023849e-01	 2.4186686324e-01
 2.0884646366e+00	 6.6300910891e-01	 3.2121106894e-01
 2.0822699771e+00	 6.8221493078e-01	 4.3220003336e-01
 2.0758844642e+00	 7.0140502342e-01	 5.6553596839e-01
 2.0693077107e+00	 7.2057668673e-01	 7.1199530140e-01
 2.0625393777e+00	 7.3972720222e-01	 8.6242506851e-01
 2.0555791757e+00	 7.5885383399e-01	 9.9198176459e-01
 2.1251146921e+00	 5.6911958440e-01	 5.5440137233e-01
 2.1198457110e+00	 5.8844175545e-01	 4.0411997826e-01
 2.1143877576e+00	 6.0776137696e-01	 3.1873440322e-01
 2.1087402105e+00	 6.2707584504e-01	 2.8991665640e-01
 2.1029024933e+00	 6.4638253254e-01	 3.0945357095e-01
 2.0968740752e+00	 6.6567878992e-01	 3.6924870037e-01
 2.0906544721e+00	 6.8496194619e-01	 4.6132257579e-01
 2.0842432473e+00	 7.0422930990e-01	 5.7781125129e-01
 2.0776400117e+00	 7.2347817008e-01	 7.1096306996e-01
 2.0708444253e+00	 7.4270579728e-01	 8.5294476659e-01
 2.0638561973e+00	 7.6190944459e-01	 9.7556957655e-01
 2.1336373886e+00	 5.7140201817e-01	 6.8858372070e-01
 2.1283472765e+00	 5.9080168009e-01	 5.3182764825e-01
 2.1228674341e+00	 6.1019878225e-01	 4.3289720798e-01
 2.1171972378e+00	 6.2959071031e-01	 3.8529878809e-01
 2.1113361086e+00	 6.4897482659e-01	 3.8269063182e-01
 2.1052835137e+00	 6.6834847092e-01	 4.1888282939e-01
 2.0990389672e+00	 6.8770896161e-01	 4.8783555973e-01
 2.0926020303e+00	 7.0705359639e-01	 5.8365550897e-01
 2.0859723127e+00	 7.2637965343e-01	 7.0059039790e-01
 2.0791494729e+00	 7.4568439234e-01	 8.3186792440e-01
 2.0721332188e+00	 7.6496505519e-01	 9.4810151018e-01
 2.1421600852e+00	 5.7368445192e-01	 8.3096846686e-01
 2.1368488419e+00	 5.9316160473e-01	 6.7053482674e-01
 2.1313471107e+00	 6.1263618754e-01	 5.5834830665e-01
 2.1256542650e+00	 6.3210557559e-01	 4.9030807469e-01
 2.1197697239e+00	 6.5156712065e-01	 4.6249638126e-01
 2.1136929523e+00	 6.7101815192e-01	 4.7117579203e-01
 2.1074234623e+00	 6.9045597702e-01	 5.1278455250e-01
 2.1009608134e+00	 7.0987788287e-01	 5.8393001186e-01
 2.0943046138e+00	 7.2928113678e-01	 6.8138003959e-01
 2.0874545204e+00	 7.4866298740e-01	 7.9915131147e-01
 2.0804102403e+00	 7.6802066580e-01	 9.0886513682e-01
 2.1506827817e+00	 5.7596688568e-01	 9.8044478374e-01
 2.1453504074e+00	 5.9552152936e-01	 8.1983754414e-01
 2.1398267872e+00	 6.1507359282e-01	 6.9525950405e-01
 2.1341112923e+00	 6.3462044086e-01	 6.0555415216e-01
 2.1282033392e+00	 6.5415941470e-01	 5.4977352612e-01
 2.1221023909e+00	 6.7368783293e-01	 5.2717183784e-01
 2.1158079573e+00	 6.9320299243e-01	 5.3719710505e-01
 2.1093195965e+00	 7.1270216936e-01	 5.7948071872e-01
 2.1026369148e+00	 7.3218262013e-01	 6.5382488219e-01
 2.0957595680e+00	 7.5164158246e-01	 7.5479905019e-01
 2.0886872619e+00	 7.7107627640e-01	 8.5716045784e-01
 2.1592054782e+00	 5.7824931944e-01	 1.1359188575e+00
 2.1538519729e+00	 5.9788145400e-01	 9.7933758437e-01
 2.1483064638e+00	 6.1751099811e-01	 8.4379915158e-01
 2.1425683196e+00	 6.3713530613e-01	 7.3163615621e-01
 2.1366369545e+00	 6.5675170875e-01	 6.4540949300e-01
 2.1305118294e+00	 6.7635751393e-01	 5.8789752895e-01
 2.1241924524e+00	 6.9595000784e-01	 5.6208315180e-01
 2.1176783796e+00	 7.1552645584e-01	 5.7113862498e-01
 2.1109692158e+00	 7.3508410348e-01	 6.1840818849e-01
 2.1040646156e+00	 7.5462017753e-01	 6.9881646312e-01
 2.0969642834e+00	 7.7413188700e-01	 7.9229960889e-01
 2.0141940681e+00	 7.4357578096e-01	 9.3404802283e-01
 2.0071845475e+00	 7.6229441467e-01	 1.0972742372e+00
 1.9999865349e+00	 7.8098422584e-01	 1.2335122344e+00
 1.9925998934e+00	 7.9964248658e-01	 1.3441127859e+00
 1.9850245367e+00	 8.1826645622e-01	 1.4306564498e+00
 1.9772604297e+00	 8.3685338241e-01	 1.4949615964e+00
 1.9693075891e+00	 8.5540050234e-01	 1.5390937935e+00
 1.9611660834e+00	 8.7390504382e-01	 1.5653766130e+00
 1.9528360339e+00	 8.9236422656e-01	 1.5764039090e+00
 1.9443176149e+00	 9.1077526332e-01	 1.5750536119e+00
 1.9356110540e+00	 9.2913536115e-01	 1.5645030676e+00
 2.0224710896e+00	 7.4663139157e-01	 9.6177236779e-01
 2.0154327645e+00	 7.6542694663e-01	 1.0993760786e+00
 2.0082051727e+00	 7.8419356071e-01	 1.2085136416e+00
 2.0007881769e+00	 8.0292849471e-01	 1.2921353412e+00
 1.9931816905e+00	 8.2162899669e-01	 1.3533453534e+00
 1.9853856781e+00	 8.4029230301e-01	 1.3954065360e+00
 1.9774001565e+00	 8.5891563948e-01	 1.4217466827e+00
 1.9692251945e+00	 8.7749622254e-01	 1.4359663076e+00
 1.9608609140e+00	 8.9603126046e-01	 1.4418480217e+00
 1.9523074899e+00	 9.1451795455e-01	 1.4433675519e+00
 1.9435651507e+00	 9.3295350038e-01	 1.4447064413e+00
 2.0307481111e+00	 7.4968700217e-01	 9.8220015557e-01
 2.0236809814e+00	 7.6855947859e-01	 1.1008321853e+00
 2.0164238106e+00	 7.8740289558e-01	 1.1904607816e+00
 2.0089764605e+00	 8.0621450284e-01	 1.2550591074e+00
 2.0013388443e+00	 8.2499153717e-01	 1.2986876632e+00
 1.9935109265e+00	 8.4373122361e-01	 1.3254967332e+00
 1.9854927239e+00	 8.6243077662e-01	 1.3397303981e+00
 1.9772843057e+00	 8.8108740126e-01	 1.3457321887e+00
 1.9688857941e+00	 8.9969829436e-01	 1.3479524483e+00
 1.9602973649e+00	 9.1826064577e-01	 1.3509574611e+00
 1.9515192474e+00	 9.3677163962e-01	 1.3594403928e+00
 2.0390251327e+00	 7.5274261278e-01	 9.9455218219e-01
 2.0319291984e+00	 7.7169201055e-01	 1.1000630133e+00
 2.0246424484e+00	 7.9061223045e-01	 1.1771345652e+00
 2.0171647441e+00	 8.0950051097e-01	 1.2301934730e+00
 2.0094959981e+00	 8.2835407765e-01	 1.2636964191e+00
 2.0016361750e+00	 8.4717014421e-01	 1.2821311206e+00
 1.9935852914e+00	 8.6594591376e-01	 1.2900189844e+00
 1.9853434169e+00	 8.8467857997e-01	 1.2919195141e+00
 1.9769106742e+00	 9.0336532825e-01	 1.2924365400e+00
 1.9682872398e+00	 9.2200333700e-01	 1.2962263346e+00
 1.9594733441e+00	 9.4058977885e-01	 1.3080076667e+00
 2.0473021542e+00	 7.5579822338e-01	 9.9806323406e-01
 2.0401774154e+00	 7.7482454250e-01	 1.0955157964e+00
 2.0328610863e+00	 7.9382156532e-01	 1.1663528758e+00
 2.0253530277e+00	 8.1278651910e-01	 1.2148922853e+00
 2.0176531519e+00	 8.3171661812e-01	 1.2454337844e+00
 2.0097614234e+00	 8.5060906480e-01	 1.2622594838e+00
 2.0016778588e+00	 8.6946105090e-01	 1.2696360230e+00
 1.9934025280e+00	 8.8826975869e-01	 1.2718186066e+00
 1.9849355543e+00	 9.0703236214e-01	 1.2730569769e+00
 1.9762771148e+00	 9.2574602823e-01	 1.2776033897e+00
 1.9674274408e+00	 9.4440791808e-01	 1.2897226466e+00
 2.0555791757e+00	 7.5885383399e-01	 9.9198176459e-01
 2.0484256324e+00	 7.7795707446e-01	 1.0856639620e+00
 2.0410797241e+00	 7.9703090019e-01	 1.1559697757e+00
 2.0335413113e+00	 8.1607252723e-01	 1.2065529028e+00
 2.0258103058e+00	 8.3507915860e-01	 1.2410100001e+00
 2.0178866718e+00	 8.5404798540e-01	 1.2628813786e+00
 2.0097704262e+00	 8.7297618804e-01	 1.2756535736e+00
 2.0014616392e+00	 8.9186093740e-01	 1.2827638831e+00
 1.9929604344e+00	 9.1069939604e-01	 1.2876069516e+00
 1.9842669898e+00	 9.2948871945e-01	 1.2935434714e+00
 1.9753815375e+00	 9.4822605731e-01	 1.3039110546e+00
 2.0638561973e+00	 7.6190944459e-01	 9.7556957655e-01
 2.0566738494e+00	 7.8108960642e-01	 1.0690065575e+00
 2.0492983620e+00	 8.0024023506e-01	 1.1438747285e+00
 2.0417295949e+00	 8.1935853536e-01	 1.2026152666e+00
 2.0339674596e+00	 8.3844169907e-01	 1.2475823632e+00
 2.0260119202e+00	 8.5748690600e-01	 1.2810450717e+00
 2.0178629937e+00	 8.7649132518e-01	 1.3051911382e+00
 2.0095207504e+00	 8.9545211611e-01	 1.3221329049e+00
 2.0009853145e+00	 9.1436642993e-01	 1.3339153698e+00
 1.9922568647e+00	 9.3323141068e-01	 1.3425264712e+00
 1.9833356342e+00	 9.5204419654e-01	 1.3499096552e+00
 2.0721332188e+00	 7.6496505519e-01	 9.4810151018e-01
 2.0649220664e+00	 7.8422213838e-01	 1.0440676891e+00
 2.0575169999e+00	 8.0344956993e-01	 1.1279918387e+00
 2.0499178784e+00	 8.2264454349e-01	 1.2005609937e+00
 2.0421246134e+00	 8.4180423954e-01	 1.2623542259e+00
 2.0341371686e+00	 8.6092582659e-01	 1.3138465050e+00
 2.0259555611e+00	 8.8000646232e-01	 1.3554146482e+00
 2.0175798615e+00	 8.9904329483e-01	 1.3873454491e+00
 2.0090101946e+00	 9.1803346383e-01	 1.4098460684e+00
 2.0002467397e+00	 9.3697410190e-01	 1.4230567565e+00
 1.9912897309e+00	 9.5586233577e-01	 1.4270659643e+00
 2.0804102403e+00	 7.6802066580e-01	 9.0886513682e-01
 2.0731702834e+00	 7.8735467033e-01	 1.0093959726e+00
 2.0657356377e+00	 8.0665890480e-01	 1.1062791080e+00
 2.0581061620e+00	 8.2593055162e-01	 1.1979124889e+00
 2.0502817672e+00	 8.4516678002e-01	 1.2825740179e+00
 2.0422624170e+00	 8.6436474719e-01	 1.3584282820e+00
 2.0340481285e+00	 8.8352159946e-01	 1.4235354738e+00
 2.0256389727e+00	 9.0263447354e-01	 1.4758625990e+00
 2.0170350748e+00	 9.2170049772e-01	 1.5132970498e+00
 2.0082366147e+00	 9.4071679313e-01	 1.5336626122e+00
 1.9992438276e+00	 9.5968047500e-01	 1.5347379634e+00
 2.0886872619e+00	 7.7107627640e-01	 8.5716045784e-01
 2.0814185003e+00	 7.9048720229e-01	 9.6356399412e-01
 2.0739542756e+00	 8.0986823966e-01	 1.0767277059e+00
 2.0662944456e+00	 8.2921655974e-01	 1.1922320757e+00
 2.0584389210e+00	 8.4852932049e-01	 1.3055342896e+00
 2.0503876654e+00	 8.6780366778e-01	 1.4119786772e+00
 2.0421406960e+00	 8.8703673660e-01	 1.5068094544e+00
 2.0336980839e+00	 9.0622565226e-01	 1.5851858551e+00
 2.0250599549e+00	 9.2536753162e-01	 1.6421997324e+00
 2.0162264897e+00	 9.4445948435e-01	 1.6728956931e+00
 2.0071979243e+00	 9.6349861423e-01	 1.6722938175e+00
 2.0969642834e+00	 7.7413188700e-01	 7.9229960889e-01
 2.0896667173e+00	 7.9361973424e-01	 9.0516778249e-01
 2.0821729134e+00	 8.1307757453e-01	 1.0373612568e+00
 2.0744827292e+00	 8.3250256787e-01	 1.1811211469e+00
 2.0665960749e+00	 8.5189186097e-01	 1.3285707750e+00
 2.0585129138e+00	 8.7124258838e-01	 1.4717306659e+00
 2.0502332634e+00	 8.9055187374e-01	 1.6025359503e+00
 2.0417571950e+00	 9.0981683097e-01	 1.7128562644e+00
 2.0330848350e+00	 9.2903456551e-01	 1.7945182170e+00
 2.0242163646e+00	 9.4820217558e-01	 1.8393304872e+00
 2.0151520210e+00	 9.6731675346e-01	 1.8391115986e+00
 1.9356110540e+00	 9.2913536115e-01	 1.5645030676e+00
 1.9267181602e+00	 9.4743861547e-01	 1.5613115751e+00
 1.9176378033e+00	 9.6568535156e-01	 1.5771137516e+00
 1.9083703716e+00	 9.8387276730e-01	 1.6078247189e+00
 1.8989163076e+00	 1.0019980599e+00	 1.6492263004e+00
 1.8892761086e+00	 1.0200584271e+00	 1.6969971478e+00
 1.8794503267e+00	 1.0380510688e+00	 1.7467451393e+00
 1.8694395692e+00	 1.0559731879e+00	 1.7940419877e+00
 1.8592444984e+00	 1.0738219920e+00	 1.8344599845e+00
 1.8488658317e+00	 1.0915946945e+00	 1.8633536782e+00
 1.8383043418e+00	 1.1092885163e+00	 1.8725770531e+00
 1.9435651507e+00	 9.3295350038e-01	 1.4447064413e+00
 1.9346357129e+00	 9.5133196912e-01	 1.4607219185e+00
 1.9255180417e+00	 9.6965368737e-01	 1.4995175243e+00
 1.9162125269e+00	 9.8791584150e-01	 1.5552267469e+00
 1.9067196129e+00	 1.0061156172e+00	 1.6219030052e+00
 1.8970397989e+00	 1.0242502008e+00	 1.6935531434e+00
 1.8871736395e+00	 1.0423167804e+00	 1.7641732096e+00
 1.8771217444e+00	 1.0603125477e+00	 1.8277864557e+00
 1.8668847785e+00	 1.0782346987e+00	 1.8784834757e+00
 1.8564634622e+00	 1.0960804354e+00	 1.9104643840e+00
 1.8458585715e+00	 1.1138469673e+00	 1.9173043175e+00
 1.9515192474e+00	 9.3677163962e-01	 1.3594403928e+00
 1.9425532656e+00	 9.5522532277e-01	 1.3871118044e+00
 1.9333982801e+00	 9.7362202318e-01	 1.4398855260e+00
 1.9240546822e+00	 9.9195891571e-01	 1.5108074922e+00
 1.9145229181e+00	 1.0102331745e+00	 1.5928863994e+00
 1.9048034893e+00	 1.0284419744e+00	 1.6791295234e+00
 1.8948969523e+00	 1.0465824920e+00	 1.7625808432e+00
 1.8848039195e+00	 1.0646519075e+00	 1.8363613990e+00
 1.8745250585e+00	 1.0826474054e+00	 1.8937118027e+00
 1.8640610927e+00	 1.1005661764e+00	 1.9280367947e+00
 1.8534128012e+00	 1.1184054183e+00	 1.9337134872e+00
 1.9594733441e+00	 9.4058977885e-01	 1.3080076667e+00
 1.9504708183e+00	 9.5911867641e-01	 1.3407176440e+00
 1.9412785184e+00	 9.7759035899e-01	 1.3992299428e+00
 1.9318968375e+00	 9.9600198991e-01	 1.4761885947e+00
 1.9223262234e+00	 1.0143507318e+00	 1.5642328991e+00
 1.9125671796e+00	 1.0326337480e+00	 1.6560345300e+00
 1.9026202651e+00	 1.0508482037e+00	 1.7443369719e+00
 1.8924860946e+00	 1.0689912674e+00	 1.8219972138e+00
 1.8821653385e+00	 1.0870601122e+00	 1.8820296144e+00
 1.8716587232e+00	 1.1050519173e+00	 1.9176518330e+00
 1.8609670309e+00	 1.1229638693e+00	 1.9243942723e+00
 1.9674274408e+00	 9.4440791808e-01	 1.2897226466e+00
 1.9583883710e+00	 9.6301203006e-01	 1.3217723759e+00
 1.9491587568e+00	 9.8155869480e-01	 1.3785469508e+00
 1.9397389928e+00	 1.0000450641e+00	 1.4529658567e+00
 1.9301295287e+00	 1.0184682891e+00	 1.5379661021e+00
 1.9203308700e+00	 1.0368255216e+00	 1.6265395854e+00
 1.9103435779e+00	 1.0551139153e+00	 1.7117728187e+00
 1.9001682698e+00	 1.0733306272e+00	 1.7868889413e+00
 1.8898056186e+00	 1.0914728189e+00	 1.8452919305e+00
 1.8792563537e+00	 1.1095376583e+00	 1.8806129073e+00
 1.8685212605e+00	 1.1275223202e+00	 1.8907997402e+00
 1.9753815375e+00	 9.4822605731e-01	 1.3039110546e+00
 1.9663059237e+00	 9.6690538371e-01	 1.3305054699e+00
 1.9570389952e+00	 9.8552703061e-01	 1.3788169721e+00
 1.9475811480e+00	 1.0040881383e+00	 1.4427096982e+00
 1.9379328339e+00	 1.0225858465e+00	 1.5160773848e+00
 1.9280945603e+00	 1.0410172952e+00	 1.5928799715e+00
 1.9180668907e+00	 1.0593796269e+00	 1.6671825978e+00
 1.9078504449e+00	 1.0776699870e+00	 1.7331969234e+00
 1.8974458986e+00	 1.0958855257e+00	 1.7853246849e+00
 1.8868539842e+00	 1.1140233992e+00	 1.8183373544e+00
 1.8760754902e+00	 1.1320807712e+00	 1.8334849927e+00
 1.9833356342e+00	 9.5204419654e-01	 1.3499096552e+00
 1.9742234764e+00	 9.7079873735e-01	 1.3671429280e+00
 1.9649192336e+00	 9.8949536642e-01	 1.4010049228e+00
 1.9554233033e+00	 1.0081312125e+00	 1.4469655990e+00
 1.9457361392e+00	 1.0267034038e+00	 1.5005264823e+00
 1.9358582506e+00	 1.0452090689e+00	 1.5572554911e+00
 1.9257902035e+00	 1.0636453385e+00	 1.6128241951e+00
 1.9155326200e+00	 1.0820093468e+00	 1.6630474402e+00
 1.9050861787e+00	 1.1002982324e+00	 1.7039252548e+00
 1.8944516148e+00	 1.1185091402e+00	 1.7325621193e+00
 1.8836297199e+00	 1.1366392222e+00	 1.7529905907e+00
 1.9912897309e+00	 9.5586233577e-01	 1.4270659643e+00
 1.9821410291e+00	 9.7469209100e-01	 1.4319072826e+00
 1.9727994719e+00	 9.9346370223e-01	 1.4460604525e+00
 1.9632654586e+00	 1.0121742867e+00	 1.4672545271e+00
 1.9535394444e+00	 1.0308209611e+00	 1.4932420530e+00
 1.9436219410e+00	 1.0494008425e+00	 1.5218311107e+00
 1.9335135163e+00	 1.0679110502e+00	 1.5509198315e+00
 1.9232147951e+00	 1.0863487066e+00	 1.5785333307e+00
 1.9127264587e+00	 1.1047109392e+00	 1.6028629744e+00
 1.9020492453e+00	 1.1229948811e+00	 1.6245935276e+00
 1.8911839496e+00	 1.1411976732e+00	 1.6498429233e+00
 1.9992438276e+00	 9.5968047500e-01	 1.5347379634e+00
 1.9900585818e+00	 9.7858544465e-01	 1.5250175938e+00
 1.9806797103e+00	 9.9743203804e-01	 1.5149181760e+00
 1.9711076139e+00	 1.0162173609e+00	 1.5050733558e+00
 1.9613427497e+00	 1.0349385184e+00	 1.4961222273e+00
 1.9513856313e+00	 1.0535926161e+00	 1.4887375859e+00
 1.9412368291e+00	 1.0721767618e+00	 1.4836567070e+00
 1.9308969703e+00	 1.0906880665e+00	 1.4817145958e+00
 1.9203667388e+00	 1.1091236459e+00	 1.4838796352e+00
 1.9096468758e+00	 1.1274806220e+00	 1.4956741892e+00
 1.8987381793e+00	 1.1457561242e+00	 1.5245545723e+00
 2.0071979243e+00	 9.6349861423e-01	 1.6722938175e+00
 1.9979761345e+00	 9.8247879829e-01	 1.6466894437e+00
 1.9885599487e+00	 1.0014003738e+00	 1.6084978978e+00
 1.9789497692e+00	 1.0202604351e+00	 1.5618952683e+00
 1.9691460550e+00	 1.0390560757e+00	 1.5110351413e+00
 1.9591493217e+00	 1.0577843897e+00	 1.4600720707e+00
 1.9489601419e+00	 1.0764424734e+00	 1.4131876278e+00
 1.9385791454e+00	 1.0950274263e+00	 1.3746189859e+00
 1.9280070188e+00	 1.1135363527e+00	 1.3487886256e+00
 1.9172445063e+00	 1.1319663630e+00	 1.3470216308e+00
 1.9062924090e+00	 1.1503145752e+00	 1.3776246724e+00
 2.0151520210e+00	 9.6731675346e-01	 1.8391115986e+00
 2.0058936872e+00	 9.8637215194e-01	 1.7971349288e+00
 1.9964401871e+00	 1.0053687097e+00	 1.7277048284e+00
 1.9867919245e+00	 1.0243035093e+00	 1.6391701506e+00
 1.9769493602e+00	 1.0431736330e+00	 1.5398194557e+00
 1.9669130120e+00	 1.0619761634e+00	 1.4378987088e+00
 1.9566834547e+00	 1.0807081850e+00	 1.3416316174e+00
 1.9462613205e+00	 1.0993667861e+00	 1.2592425715e+00
 1.9356472989e+00	 1.1179490594e+00	 1.1997680206e+00
 1.9248421368e+00	 1.1364521039e+00	 1.1798288744e+00
 1.9138466387e+00	 1.1548730262e+00	 1.2095392677e+00
 1.8383043418e+00	 1.1092885163e+00	 1.8725770531e+00
 1.8275608570e+00	 1.1269006870e+00	 1.8415612950e+00
 1.8166362624e+00	 1.1444284477e+00	 1.7614123934e+00
 1.8055314987e+00	 1.1618690513e+00	 1.6423966759e+00
 1.7942475614e+00	 1.1792197631e+00	 1.4947890170e+00
 1.7827855005e+00	 1.1964778629e+00	 1.3288830520e+00
 1.7711464208e+00	 1.2136406457e+00	 1.1549565312e+00
 1.7593314809e+00	 1.2307054234e+00	 9.8323648241e-01
 1.7473418936e+00	 1.2476695257e+00	 8.2386437419e-01
 1.7351789251e+00	 1.2645303022e+00	 6.8686147682e-01
 1.7228438950e+00	 1.2812851231e+00	 5.8209461621e-01
 1.8458585715e+00	 1.1138469673e+00	 1.9173043175e+00
 1.8350709380e+00	 1.1315315125e+00	 1.8765675088e+00
 1.8241014505e+00	 1.1491313009e+00	 1.7785202337e+00
 1.8129510535e+00	 1.1666435739e+00	 1.6352435648e+00
 1.8016207465e+00	 1.1840655858e+00	 1.4588464871e+00
 1.7901115841e+00	 1.2013946052e+00	 1.2614280911e+00
 1.7784246753e+00	 1.2186279158e+00	 1.0550393936e+00
 1.7665611837e+00	 1.2357628185e+00	 8.5164498873e-01
 1.7545223270e+00	 1.2527966322e+00	 6.6308473321e-01
 1.7423093767e+00	 1.2697266955e+00	 5.0103567135e-01
 1.7299236577e+00	 1.2865503678e+00	 3.7697440662e-01
 1.8534128012e+00	 1.1184054183e+00	 1.9337134872e+00
 1.8425810190e+00	 1.1361623380e+00	 1.8903359918e+00
 1.8315666385e+00	 1.1538341540e+00	 1.7839297210e+00
 1.8203706082e+00	 1.1714180965e+00	 1.6276392007e+00
 1.8089939316e+00	 1.1889114086e+00	 1.4346754396e+00
 1.7974376676e+00	 1.2063113474e+00	 1.2182205019e+00
 1.7857029298e+00	 1.2236151859e+00	 9.9138684364e-01
 1.7737908865e+00	 1.2408202136e+00	 7.6717649562e-01
 1.7617027605e+00	 1.2579237387e+00	 5.5844030482e-01
 1.7494398283e+00	 1.2749230888e+00	 3.7783744834e-01
 1.7370034204e+00	 1.2918156124e+00	 2.3779543497e-01
 1.8609670309e+00	 1.1229638693e+00	 1.9243942723e+00
 1.8500910999e+00	 1.1407931635e+00	 1.8828413641e+00
 1.8390318265e+00	 1.1585370072e+00	 1.7768925875e+00
 1.8277901629e+00	 1.1761926191e+00	 1.6182438892e+00
 1.8163671167e+00	 1.1937572313e+00	 1.4204851912e+00
 1.8047637511e+00	 1.2112280896e+00	 1.1971679484e+00
 1.7929811843e+00	 1.2286024559e+00	 9.6176304339e-01
 1.7810205893e+00	 1.2458776088e+00	 7.2761853574e-01
 1.7688831939e+00	 1.2630508453e+00	 5.0791748625e-01
 1.7565702799e+00	 1.2801194821e+00	 3.1563607657e-01
 1.7440831831e+00	 1.2970808571e+00	 1.6350224597e-01
 1.8685212605e+00	 1.1275223202e+00	 1.8907997402e+00
 1.8576011809e+00	 1.1454239890e+00	 1.8546825901e+00
 1.8464970146e+00	 1.1632398603e+00	 1.7566773728e+00
 1.8352097176e+00	 1.1809671418e+00	 1.6057436530e+00
 1.8237403018e+00	 1.1986030540e+00	 1.4145174221e+00
 1.8120898346e+00	 1.2161448319e+00	 1.1962147023e+00
 1.8002594388e+00	 1.2335897260e+00	 9.6397046527e-01
 1.7882502922e+00	 1.2509350039e+00	 7.3079597579e-01
 1.7760636274e+00	 1.2681779518e+00	 5.0953621750e-01
 1.7637007315e+00	 1.2853158754e+00	 3.1282762740e-01
 1.7511629458e+00	 1.3023461018e+00	 1.5305636530e-01
 1.8760754902e+00	 1.1320807712e+00	 1.8334849927e+00
 1.8651112619e+00	 1.1500548145e+00	 1.8071706471e+00
 1.8539622026e+00	 1.1679427135e+00	 1.7226332015e+00
 1.8426292723e+00	 1.1857416644e+00	 1.5888492669e+00
 1.8311134869e+00	 1.2034488767e+00	 1.4150450567e+00
 1.8194159182e+00	 1.2210615741e+00	 1.2133404173e+00
 1.8075376933e+00	 1.2385769960e+00	 9.9584861190e-01
 1.7954799950e+00	 1.2559923991e+00	 7.7456973660e-01
 1.7832440609e+00	 1.2733050583e+00	 5.6134875932e-01
 1.7708311831e+00	 1.2905122687e+00	 3.6783387068e-01
 1.7582427084e+00	 1.3076113464e+00	 2.0543537637e-01
 1.8836297199e+00	 1.1366392222e+00	 1.7529905907e+00
 1.8726213429e+00	 1.1546856400e+00	 1.7401025201e+00
 1.8614273907e+00	 1.1726455666e+00	 1.6751580365e+00
 1.8500488270e+00	 1.1905161870e+00	 1.5662953039e+00
 1.8384866720e+00	 1.2082946994e+00	 1.4203711583e+00
 1.8267420017e+00	 1.2259783163e+00	 1.2465589208e+00
 1.8148159478e+00	 1.2435642661e+00	 1.0552727549e+00
 1.8027096978e+00	 1.2610497942e+00	 8.5683553222e-01
 1.7904244943e+00	 1.2784321648e+00	 6.6143848846e-01
 1.7779616348e+00	 1.2957086620e+00	 4.7910118501e-01
 1.7653224711e+00	 1.3128765911e+00	 3.1963200685e-01
 1.8911839496e+00	 1.1411976732e+00	 1.6498429233e+00
 1.8801314239e+00	 1.1593164655e+00	 1.6532106492e+00
 1.8688925787e+00	 1.1773484197e+00	 1.6137622302e+00
 1.8574683818e+00	 1.1952907097e+00	 1.5371585552e+00
 1.8458598571e+00	 1.2131405222e+00	 1.4288278406e+00
 1.8340680852e+00	 1.2308950586e+00	 1.2939170236e+00
 1.8220942023e+00	 1.2485515361e+00	 1.1401526925e+00
 1.8099394007e+00	 1.2661071893e+00	 9.7552262735e-01
 1.7976049278e+00	 1.2835592713e+00	 8.0791870985e-01
 1.7850920864e+00	 1.3009050553e+00	 6.4509948184e-01
 1.7724022338e+00	 1.3181418357e+00	 4.9465322479e-01
 1.8987381793e+00	 1.1457561242e+00	 1.5245545723e+00
 1.8876415049e+00	 1.1639472910e+00	 1.5462263592e+00
 1.8763577667e+00	 1.1820512729e+00	 1.5375092439e+00
 1.8648879365e+00	 1.2000652323e+00	 1.5008576930e+00
 1.8532330423e+00	 1.2179863449e+00	 1.4387868013e+00
 1.8413941687e+00	 1.2358118008e+00	 1.3534933461e+00
 1.8293724569e+00	 1.2535388062e+00	 1.2484315247e+00
 1.8171691035e+00	 1.2711645845e+00	 1.1285926127e+00
 1.8047853612e+00	 1.2886863779e+00	 9.9893148513e-01
 1.7922225380e+00	 1.3061014486e+00	 8.6432114324e-01
 1.7794819965e+00	 1.3234070804e+00	 7.2951934385e-01
 1.9062924090e+00	 1.1503145752e+00	 1.3776246724e+00
 1.8951515858e+00	 1.1685781165e+00	 1.4188799753e+00
 1.8838229548e+00	 1.1867541260e+00	 1.4454721875e+00
 1.8723074912e+00	 1.2048397549e+00	 1.4559655149e+00
 1.8606062274e+00	 1.2228321676e+00	 1.4490250731e+00
 1.8487202523e+00	 1.2407285430e+00	 1.4233971617e+00
 1.8366507114e+00	 1.2585260763e+00	 1.3780844468e+00
 1.8243988063e+00	 1.2762219796e+00	 1.3140381978e+00
 1.8119657947e+00	 1.2938134844e+00	 1.2326464772e+00
 1.7993529896e+00	 1.3112978419e+00	 1.1352799726e+00
 1.7865617592e+00	 1.3286723250e+00	 1.0232631376e+00
 1.9138466387e+00	 1.1548730262e+00	 1.2095392677e+00
 1.9026616668e+00	 1.1732089420e+00	 1.2709009413e+00
 1.8912881428e+00	 1.1914569792e+00	 1.3367337347e+00
 1.8797270459e+00	 1.2096142776e+00	 1.4010357127e+00
 1.8679794125e+00	 1.2276779903e+00	 1.4579541456e+00
 1.8560463358e+00	 1.2456452853e+00	 1.5017992559e+00
 1.8439289659e+00	 1.2635133463e+00	 1.5271175597e+00
 1.8316285092e+00	 1.2812793748e+00	 1.5298820206e+00
 1.8191462282e+00	 1.2989405909e+00	 1.5072598100e+00
 1.8064834412e+00	 1.3164942352e+00	 1.4565101585e+00
 1.7936415219e+00	 1.3339375697e+00	 1.3749289625e+00
 1.7228438950e+00	 1.2812851231e+00	 5.8209461621e-01
 1.7103360360e+00	 1.2979341998e+00	 5.2218232362e-01
 1.6976588619e+00	 1.3144720812e+00	 5.0832442386e-01
 1.6848138569e+00	 1.3308961970e+00	 5.3307026977e-01
 1.6718025565e+00	 1.3472040028e+00	 5.8895171266e-01
 1.6586265470e+00	 1.3633929816e+00	 6.6847840103e-01
 1.6452874651e+00	 1.3794606450e+00	 7.6413429282e-01
 1.6317869967e+00	 1.3954045341e+00	 8.6837550183e-01
 1.6181268767e+00	 1.4112222214e+00	 9.7362958963e-01
 1.6043088881e+00	 1.4269113115e+00	 1.0722964039e+00
 1.5903348611e+00	 1.4424694423e+00	 1.1567505532e+00
 1.7299236577e+00	 1.2865503678e+00	 3.7697440662e-01
 1.7173643996e+00	 1.3032678613e+00	 3.0628340592e-01
 1.7046351306e+00	 1.3198737025e+00	 2.9119622101e-01
 1.6917373410e+00	 1.3363653107e+00	 3.2322924411e-01
 1.6786725726e+00	 1.3527401310e+00	 3.9387831214e-01
 1.6654424184e+00	 1.3689956359e+00	 4.9461492812e-01
 1.6520485216e+00	 1.3851293269e+00	 6.1688374031e-01
 1.6384925751e+00	 1.4011387350e+00	 7.5210140184e-01
 1.6247763209e+00	 1.4170214227e+00	 8.9165692349e-01
 1.6109015494e+00	 1.4327749846e+00	 1.0269136222e+00
 1.5968700983e+00	 1.4483970492e+00	 1.1492127560e+00
 1.7370034204e+00	 1.2918156124e+00	 2.3779543497e-01
 1.7243927632e+00	 1.3086015228e+00	 1.5624080653e-01
 1.7116113993e+00	 1.3252753239e+00	 1.3696906034e-01
 1.6986608251e+00	 1.3418344245e+00	 1.7093670411e-01
 1.6855425888e+00	 1.3582762592e+00	 2.4907260028e-01
 1.6722582897e+00	 1.3745982903e+00	 3.6227443081e-01
 1.6588095780e+00	 1.3907980088e+00	 5.0140646931e-01
 1.6451981534e+00	 1.4068729359e+00	 6.5729878582e-01
 1.6314257651e+00	 1.4228206239e+00	 8.2074800021e-01
 1.6174942106e+00	 1.4386386577e+00	 9.8251968870e-01
 1.6034053354e+00	 1.4543246561e+00	 1.1333525368e+00
 1.7440831831e+00	 1.2970808571e+00	 1.6350224597e-01
 1.7314211267e+00	 1.3139351842e+00	 7.1650043820e-02
 1.7185876679e+00	 1.3306769453e+00	 4.5838995906e-02
 1.7055843091e+00	 1.3473035382e+00	 7.6933327821e-02
 1.6924126049e+00	 1.3638123873e+00	 1.5575852299e-01
 1.6790741611e+00	 1.3802009446e+00	 2.7309735599e-01
 1.6655706344e+00	 1.3964666907e+00	 4.1968728745e-01
 1.6519037317e+00	 1.4126071367e+00	 5.8621935031e-01
 1.6380752093e+00	 1.4286198251e+00	 7.6333864716e-01
 1.6240868719e+00	 1.4445023309e+00	 9.4164656710e-01
 1.6099405725e+00	 1.4602522630e+00	 1.1117048184e+00
 1.7511629458e+00	 1.3023461018e+00	 1.5305636530e-01
 1.7384494903e+00	 1.3192688457e+00	 5.2112604546e-02
 1.7255639366e+00	 1.3360785667e+00	 1.7997889731e-02
 1.7125077932e+00	 1.3527726520e+00	 4.1946384267e-02
 1.6992826210e+00	 1.3693485155e+00	 1.1513843453e-01
 1.6858900324e+00	 1.3858035989e+00	 2.2869550056e-01
 1.6723316909e+00	 1.4021353726e+00	 3.7367650770e-01
 1.6586093101e+00	 1.4183413376e+00	 5.4107575437e-01
 1.6447246534e+00	 1.4344190263e+00	 7.2182250089e-01
 1.6306795332e+00	 1.4503660040e+00	 9.0678235264e-01
 1.6164758097e+00	 1.4661798698e+00	 1.0867605382e+00
 1.7582427084e+00	 1.3076113464e+00	 2.0543537637e-01
 1.7454778539e+00	 1.3246025072e+00	 9.7235226386e-02
 1.7325402052e+00	 1.3414801880e+00	 5.3632883755e-02
 1.7194312773e+00	 1.3582417657e+00	 6.6689376911e-02
 1.7061526372e+00	 1.3748846437e+00	 1.2839289257e-01
 1.6927059038e+00	 1.3914062532e+00	 2.3065193663e-01
 1.6790927473e+00	 1.4078040545e+00	 3.6528998027e-01
 1.6653148884e+00	 1.4240755385e+00	 5.2404173328e-01
 1.6513740976e+00	 1.4402182276e+00	 6.9855117568e-01
 1.6372721944e+00	 1.4562296772e+00	 8.8037146706e-01
 1.6230110468e+00	 1.4721074767e+00	 1.0609668398e+00
 1.7653224711e+00	 1.3128765911e+00	 3.1963200685e-01
 1.7525062174e+00	 1.3299361687e+00	 2.0662918505e-01
 1.7395164739e+00	 1.3468818094e+00	 1.5292587173e-01
 1.7263547614e+00	 1.3637108795e+00	 1.5186168272e-01
 1.7130226533e+00	 1.3804207719e+00	 1.9668044519e-01
 1.6995217752e+00	 1.3970089075e+00	 2.8052092532e-01
 1.6858538038e+00	 1.4134727364e+00	 3.9640911053e-01
 1.6720204668e+00	 1.4298097394e+00	 5.3725219603e-01
 1.6580235418e+00	 1.4460174288e+00	 6.9583441449e-01
 1.6438648557e+00	 1.4620933503e+00	 8.6481483516e-01
 1.6295462840e+00	 1.4780350836e+00	 1.0367272454e+00
 1.7724022338e+00	 1.3181418357e+00	 4.9465322479e-01
 1.7595345810e+00	 1.3352698302e+00	 3.7990958595e-01
 1.7464927426e+00	 1.3522834308e+00	 3.1605297106e-01
 1.7332782455e+00	 1.3691799933e+00	 2.9814818702e-01
 1.7198926695e+00	 1.3859569001e+00	 3.2113740986e-01
 1.7063376465e+00	 1.4026115618e+00	 3.7982781942e-01
 1.6926148602e+00	 1.4191414183e+00	 4.6888086307e-01
 1.6787260451e+00	 1.4355439402e+00	 5.8280330700e-01
 1.6646729859e+00	 1.4518166300e+00	 7.1594022277e-01
 1.6504575170e+00	 1.4679570234e+00	 8.6247004360e-01
 1.6360815211e+00	 1.4839626905e+00	 1.0164231231e+00
 1.7794819965e+00	 1.3234070804e+00	 7.2951934385e-01
 1.7665629446e+00	 1.3406034917e+00	 6.1669466023e-01
 1.7534690112e+00	 1.3576850521e+00	 5.4318399448e-01
 1.7402017296e+00	 1.3746491070e+00	 5.0621891419e-01
 1.7267626856e+00	 1.3914930283e+00	 5.0287764475e-01
 1.7131535179e+00	 1.4082142161e+00	 5.3006895526e-01
 1.6993759167e+00	 1.4248101002e+00	 5.8451775253e-01
 1.6854316234e+00	 1.4412781411e+00	 6.6275255239e-01
 1.6713224301e+00	 1.4576158313e+00	 7.6109498557e-01
 1.6570501782e+00	 1.4738206966e+00	 8.7565148226e-01
 1.6426167583e+00	 1.4898902974e+00	 1.0025232913e+00
 1.7865617592e+00	 1.3286723250e+00	 1.0232631376e+00
 1.7735913081e+00	 1.3459371531e+00	 9.1660506509e-01
 1.7604452799e+00	 1.3630866735e+00	 8.3448192183e-01
 1.7471252137e+00	 1.3801182208e+00	 7.7672865437e-01
 1.7336327017e+00	 1.3970291564e+00	 7.4299231257e-01
 1.7199693892e+00	 1.4138168704e+00	 7.3271153408e-01
 1.7061369731e+00	 1.4304787821e+00	 7.4509782137e-01
 1.6921372018e+00	 1.4470123420e+00	 7.7911879171e-01
 1.6779718743e+00	 1.4634150325e+00	 8.3348356852e-01
 1.6636428395e+00	 1.4796843697e+00	 9.0663046880e-01
 1.6491519954e+00	 1.4958179043e+00	 9.9725709362e-01
 1.7936415219e+00	 1.3339375697e+00	 1.3749289625e+00
 1.7806196717e+00	 1.3512708146e+00	 1.2792631883e+00
 1.7674215486e+00	 1.3684882949e+00	 1.1901023716e+00
 1.7540486977e+00	 1.3855873345e+00	 1.1103165863e+00
 1.7405027179e+00	 1.4025652846e+00	 1.0425496371e+00
 1.7267852606e+00	 1.4194195247e+00	 9.8919349322e-01
 1.7128980295e+00	 1.4361474640e+00	 9.5236460508e-01
 1.6988427801e+00	 1.4527465428e+00	 9.3388229481e-01
 1.6846213184e+00	 1.4692142337e+00	 9.3524940295e-01
 1.6702355008e+00	 1.4855480428e+00	 9.5766826339e-01
 1.6556872326e+00	 1.5017455112e+00	 1.0027600832e+00
 1.5903348611e+00	 1.4424694423e+00	 1.1567505532e+00
 1.5762090829e+00	 1.4578916803e+00	 1.2222127284e+00
 1.5619310921e+00	 1.4731784118e+00	 1.2706172761e+00
 1.5475028298e+00	 1.4883274084e+00	 1.3043964216e+00
 1.5329262812e+00	 1.5033364797e+00	 1.3275502909e+00
 1.5182034744e+00	 1.5182034744e+00	 1.3421845399e+00
 1.5033364797e+00	 1.5329262812e+00	 1.3497626569e+00
 1.4883274084e+00	 1.5475028298e+00	 1.3515454328e+00
 1.4731784118e+00	 1.5619310921e+00	 1.3458616837e+00
 1.4578916803e+00	 1.5762090829e+00	 1.3201685491e+00
 1.4424694423e+00	 1.5903348611e+00	 1.2741766668e+00
 1.5968700983e+00	 1.4483970492e+00	 1.1492127560e+00
 1.5826862724e+00	 1.4638826625e+00	 1.2511315603e+00
 1.5683496083e+00	 1.4792322124e+00	 1.3323780497e+00
 1.5538620553e+00	 1.4944434615e+00	 1.3956960240e+00
 1.5392256065e+00	 1.5095142103e+00	 1.4443638052e+00
 1.5244422987e+00	 1.5244422987e+00	 1.4797885891e+00
 1.5095142103e+00	 1.5392256065e+00	 1.5031560216e+00
 1.4944434615e+00	 1.5538620553e+00	 1.5154778123e+00
 1.4792322124e+00	 1.5683496083e+00	 1.5174090008e+00
 1.4638826625e+00	 1.5826862724e+00	 1.4983467002e+00
 1.4483970492e+00	 1.5968700983e+00	 1.4530413132e+00
 1.6034053354e+00	 1.4543246561e+00	 1.1333525368e+00
 1.5891634618e+00	 1.4698736447e+00	 1.2636110972e+00
 1.5747681245e+00	 1.4852860131e+00	 1.3709913983e+00
 1.5602212807e+00	 1.5005595147e+00	 1.4586583399e+00
 1.5455249319e+00	 1.5156919410e+00	 1.5285789162e+00
 1.5306811229e+00	 1.5306811229e+00	 1.5817982580e+00
 1.5156919410e+00	 1.5455249319e+00	 1.6191942591e+00
 1.5005595147e+00	 1.5602212807e+00	 1.6414963431e+00
 1.4852860131e+00	 1.5747681245e+00	 1.6493038152e+00
 1.4698736447e+00	 1.5891634618e+00	 1.6379877496e+00
 1.4543246561e+00	 1.6034053354e+00	 1.5961007655e+00
 1.6099405725e+00	 1.4602522630e+00	 1.1117048184e+00
 1.5956406512e+00	 1.4758646269e+00	 1.2621227871e+00
 1.5811866407e+00	 1.4913398138e+00	 1.3891019697e+00
 1.5665805062e+00	 1.5066755679e+00	 1.4954485614e+00
 1.5518242573e+00	 1.5218696716e+00	 1.5821779064e+00
 1.5369199472e+00	 1.5369199472e+00	 1.6499766129e+00
 1.5218696716e+00	 1.5518242573e+00	 1.6993851614e+00
 1.5066755679e+00	 1.5665805062e+00	 1.7308177641e+00
 1.4913398138e+00	 1.5811866407e+00	 1.7445817476e+00
 1.4758646269e+00	 1.5956406512e+00	 1.7397149301e+00
 1.4602522630e+00	 1.6099405725e+00	 1.7035764741e+00
 1.6164758097e+00	 1.4661798698e+00	 1.0867605382e+00
 1.6021178406e+00	 1.4818556091e+00	 1.2490957579e+00
 1.5876051569e+00	 1.4973936145e+00	 1.3889993973e+00
 1.5729397317e+00	 1.5127916210e+00	 1.5081824953e+00
 1.5581235827e+00	 1.5280474023e+00	 1.6070966920e+00
 1.5431587715e+00	 1.5431587715e+00	 1.6860439410e+00
 1.5280474023e+00	 1.5581235827e+00	 1.7451978917e+00
 1.5127916210e+00	 1.5729397317e+00	 1.7846248937e+00
 1.4973936145e+00	 1.5876051569e+00	 1.8043044661e+00
 1.4818556091e+00	 1.6021178406e+00	 1.8041490821e+00
 1.4661798698e+00	 1.6164758097e+00	 1.7756886702e+00
 1.6230110468e+00	 1.4721074767e+00	 1.0609668398e+00
 1.6085950301e+00	 1.4878465913e+00	 1.2270934496e+00
 1.5940236731e+00	 1.5034474152e+00	 1.3728928360e+00
 1.5792989572e+00	 1.5189076742e+00	 1.4989277594e+00
 1.5644229081e+00	 1.5342251329e+00	 1.6052259637e+00
 1.5493975958e+00	 1.5493975958e+00	 1.6916788244e+00
 1.5342251329e+00	 1.5644229081e+00	 1.7580639799e+00
 1.5189076742e+00	 1.5792989572e+00	 1.8040675336e+00
 1.5034474152e+00	 1.5940236731e+00	 1.8293056671e+00
 1.4878465913e+00	 1.6085950301e+00	 1.8333455067e+00
 1.4721074767e+00	 1.6230110468e+00	 1.8126557167e+00
 1.6295462840e+00	 1.4780350836e+00	 1.0367272454e+00
 1.6150722195e+00	 1.4938375735e+00	 1.1985422341e+00
 1.6004421894e+00	 1.5095012159e+00	 1.3429420700e+00
 1.5856581827e+00	 1.5250237274e+00	 1.4697049624e+00
 1.5707222335e+00	 1.5404028635e+00	 1.5784123142e+00
 1.5556364200e+00	 1.5556364200e+00	 1.6685192024e+00
 1.5404028635e+00	 1.5707222335e+00	 1.7393783069e+00
 1.5250237274e+00	 1.5856581827e+00	 1.7902633646e+00
 1.5095012159e+00	 1.6004421894e+00	 1.8203919816e+00
 1.4938375735e+00	 1.6150722195e+00	 1.8289476422e+00
 1.4780350836e+00	 1.6295462840e+00	 1.8146934595e+00
 1.6360815211e+00	 1.4839626905e+00	 1.0164231231e+00
 1.6215494089e+00	 1.4998285557e+00	 1.1656561116e+00
 1.6068607056e+00	 1.5155550166e+00	 1.3012587178e+00
 1.5920174081e+00	 1.5311397805e+00	 1.4224888690e+00
 1.5770215589e+00	 1.5465805942e+00	 1.5284593513e+00
 1.5618752443e+00	 1.5618752443e+00	 1.6181634207e+00
 1.5465805942e+00	 1.5770215589e+00	 1.6905000791e+00
 1.5311397805e+00	 1.5920174081e+00	 1.7442988336e+00
 1.5155550166e+00	 1.6068607056e+00	 1.7783437640e+00
 1.4998285557e+00	 1.6215494089e+00	 1.7913967336e+00
 1.4839626905e+00	 1.6360815211e+00	 1.7822195881e+00
 1.6426167583e+00	 1.4898902974e+00	 1.0025232913e+00
 1.6280265984e+00	 1.5058195380e+00	 1.1306003525e+00
 1.6132792218e+00	 1.5216088173e+00	 1.2499074208e+00
 1.5983766336e+00	 1.5372558337e+00	 1.3592095496e+00
 1.5833208843e+00	 1.5527583248e+00	 1.4571287969e+00
 1.5681140686e+00	 1.5681140686e+00	 1.5421712686e+00
 1.5527583248e+00	 1.5833208843e+00	 1.6127537920e+00
 1.5372558337e+00	 1.5983766336e+00	 1.6672300327e+00
 1.5216088173e+00	 1.6132792218e+00	 1.7039158748e+00
 1.5058195380e+00	 1.6280265984e+00	 1.7211138924e+00
 1.4898902974e+00	 1.6426167583e+00	 1.7171367541e+00
 1.6491519954e+00	 1.4958179043e+00	 9.9725709362e-01
 1.6345037878e+00	 1.5118105202e+00	 1.0954926968e+00
 1.6196977380e+00	 1.5276626180e+00	 1.1909070162e+00
 1.6047358591e+00	 1.5433718869e+00	 1.2817535152e+00
 1.5896202097e+00	 1.5589360555e+00	 1.3661415730e+00
 1.5743528929e+00	 1.5743528929e+00	 1.4420650048e+00
 1.5589360555e+00	 1.5896202097e+00	 1.5074301840e+00
 1.5433718869e+00	 1.6047358591e+00	 1.5600835702e+00
 1.5276626180e+00	 1.6196977380e+00	 1.5978384579e+00
 1.5118105202e+00	 1.6345037878e+00	 1.6185007691e+00
 1.4958179043e+00	 1.6491519954e+00	 1.6198937246e+00
 1.6556872326e+00	 1.5017455112e+00	 1.0027600832e+00
 1.6409809772e+00	 1.5178015024e+00	 1.0624045383e+00
 1.6261162542e+00	 1.5337164186e+00	 1.1262316949e+00
 1.6110950846e+00	 1.5494879400e+00	 1.1919648391e+00
 1.5959195351e+00	 1.5651137861e+00	 1.2571788748e+00
 1.5805917172e+00	 1.5805917172e+00	 1.3193303710e+00
 1.5651137861e+00	 1.5959195351e+00	 1.3757871807e+00
 1.5494879400e+00	 1.6110950846e+00	 1.4238574342e+00
 1.5337164186e+00	 1.6261162542e+00	 1.4608177133e+00
 1.5178015024e+00	 1.6409809772e+00	 1.4839402234e+00
 1.5017455112e+00	 1.6556872326e+00	 1.4905187956e+00
 1.4424694423e+00	 1.5903348611e+00	 1.2741766668e+00
 1.4269113115e+00	 1.6043088881e+00	 1.2184949733e+00
 1.4112222214e+00	 1.6181268767e+00	 1.1635186742e+00
 1.3954045341e+00	 1.6317869967e+00	 1.1108938033e+00
 1.3794606450e+00	 1.6452874651e+00	 1.0625371022e+00
 1.3633929816e+00	 1.6586265470e+00	 1.0205979111e+00
 1.3472040028e+00	 1.6718025565e+00	 9.8742148608e-01
 1.3308961970e+00	 1.6848138569e+00	 9.6551391467e-01
 1.3144720812e+00	 1.6976588619e+00	 9.5750878389e-01
 1.2979341998e+00	 1.7103360360e+00	 9.6613573744e-01
 1.2812851231e+00	 1.7228438950e+00	 9.9419103996e-01
 1.4483970492e+00	 1.5968700983e+00	 1.4530413132e+00
 1.4327749846e+00	 1.6109015494e+00	 1.3929905066e+00
 1.4170214227e+00	 1.6247763209e+00	 1.3300847286e+00
 1.4011387350e+00	 1.6384925751e+00	 1.2667549084e+00
 1.3851293269e+00	 1.6520485216e+00	 1.2056597943e+00
 1.3689956359e+00	 1.6654424184e+00	 1.1496461333e+00
 1.3527401310e+00	 1.6786725726e+00	 1.1017104101e+00
 1.3363653107e+00	 1.6917373410e+00	 1.0649623205e+00
 1.3198737025e+00	 1.7046351306e+00	 1.0425901374e+00
 1.3032678613e+00	 1.7173643996e+00	 1.0378281100e+00
 1.2865503678e+00	 1.7299236577e+00	 1.0539260150e+00
 1.4543246561e+00	 1.6034053354e+00	 1.5961007655e+00
 1.4386386577e+00	 1.6174942106e+00	 1.5350578247e+00
 1.4228206239e+00	 1.6314257651e+00	 1.4677674714e+00
 1.4068729359e+00	 1.6451981534e+00	 1.3973083958e+00
 1.3907980088e+00	 1.6588095780e+00	 1.3269507540e+00
 1.3745982903e+00	 1.6722582897e+00	 1.2601147785e+00
 1.3582762592e+00	 1.6855425888e+00	 1.2003310723e+00
 1.3418344245e+00	 1.6986608251e+00	 1.1512027660e+00
 1.3252753239e+00	 1.7116113993e+00	 1.1163696996e+00
 1.3086015228e+00	 1.7243927632e+00	 1.0994747715e+00
 1.2918156124e+00	 1.7370034204e+00	 1.1041325774e+00
 1.4602522630e+00	 1.6099405725e+00	 1.7035764741e+00
 1.4445023309e+00	 1.6240868719e+00	 1.6445348726e+00
 1.4286198251e+00	 1.6380752093e+00	 1.5760931107e+00
 1.4126071367e+00	 1.6519037317e+00	 1.5018420937e+00
 1.3964666907e+00	 1.6655706344e+00	 1.4255343085e+00
 1.3802009446e+00	 1.6790741611e+00	 1.3510410064e+00
 1.3638123873e+00	 1.6924126049e+00	 1.2823111854e+00
 1.3473035382e+00	 1.7055843091e+00	 1.2233325547e+00
 1.3306769453e+00	 1.7185876679e+00	 1.1780946490e+00
 1.3139351842e+00	 1.7314211267e+00	 1.1505542354e+00
 1.2970808571e+00	 1.7440831831e+00	 1.1446031397e+00
 1.4661798698e+00	 1.6164758097e+00	 1.7756886702e+00
 1.4503660040e+00	 1.6306795332e+00	 1.7212643015e+00
 1.4344190263e+00	 1.6447246534e+00	 1.6545973789e+00
 1.4183413376e+00	 1.6586093101e+00	 1.5796570400e+00
 1.4021353726e+00	 1.6723316909e+00	 1.5005505242e+00
 1.3858035989e+00	 1.6858900324e+00	 1.4214790674e+00
 1.3693485155e+00	 1.6992826210e+00	 1.3466957027e+00
 1.3527726520e+00	 1.7125077932e+00	 1.2804651581e+00
 1.3360785667e+00	 1.7255639366e+00	 1.2270260167e+00
 1.3192688457e+00	 1.7384494903e+00	 1.1905552901e+00
 1.3023461018e+00	 1.7511629458e+00	 1.1751355299e+00
 1.4721074767e+00	 1.6230110468e+00	 1.8126557167e+00
 1.4562296772e+00	 1.6372721944e+00	 1.7650926966e+00
 1.4402182276e+00	 1.6513740976e+00	 1.7028246606e+00
 1.4240755385e+00	 1.6653148884e+00	 1.6300665355e+00
 1.4078040545e+00	 1.6790927473e+00	 1.5511542102e+00
 1.3914062532e+00	 1.6927059038e+00	 1.4704992796e+00
 1.3748846437e+00	 1.7061526372e+00	 1.3925457959e+00
 1.3582417657e+00	 1.7194312773e+00	 1.3217292197e+00
 1.3414801880e+00	 1.7325402052e+00	 1.2624377432e+00
 1.3246025072e+00	 1.7454778539e+00	 1.2189761345e+00
 1.3076113464e+00	 1.7582427084e+00	 1.1955322334e+00
 1.4780350836e+00	 1.6295462840e+00	 1.8146934595e+00
 1.4620933503e+00	 1.6438648557e+00	 1.7758698079e+00
 1.4460174288e+00	 1.6580235418e+00	 1.7203271264e+00
 1.4298097394e+00	 1.6720204668e+00	 1.6523952040e+00
 1.4134727364e+00	 1.6858538038e+00	 1.5765139282e+00
 1.3970089075e+00	 1.6995217752e+00	 1.4971870152e+00
 1.3804207719e+00	 1.7130226533e+00	 1.4189378407e+00
 1.3637108795e+00	 1.7263547614e+00	 1.3462675671e+00
 1.3468818094e+00	 1.7395164739e+00	 1.2836157419e+00
 1.3299361687e+00	 1.7525062174e+00	 1.2353235197e+00
 1.3128765911e+00	 1.7653224711e+00	 1.2055996397e+00
 1.4839626905e+00	 1.6360815211e+00	 1.7822195881e+00
 1.4679570234e+00	 1.6504575170e+00	 1.7534477839e+00
 1.4518166300e+00	 1.6646729859e+00	 1.7066638718e+00
 1.4355439402e+00	 1.6787260451e+00	 1.6459780595e+00
 1.4191414183e+00	 1.6926148602e+00	 1.5758110119e+00
 1.4026115618e+00	 1.7063376465e+00	 1.5006416947e+00
 1.3859569001e+00	 1.7198926695e+00	 1.4249624124e+00
 1.3691799933e+00	 1.7332782455e+00	 1.3532362319e+00
 1.3522834308e+00	 1.7464927426e+00	 1.2898569696e+00
 1.3352698302e+00	 1.7595345810e+00	 1.2391118957e+00
 1.3181418357e+00	 1.7724022338e+00	 1.2051472900e+00
 1.4898902974e+00	 1.6426167583e+00	 1.7171367541e+00
 1.4738206966e+00	 1.6570501782e+00	 1.6976804072e+00
 1.4576158313e+00	 1.6713224301e+00	 1.6614000603e+00
 1.4412781411e+00	 1.6854316234e+00	 1.6101595791e+00
 1.4248101002e+00	 1.6993759167e+00	 1.5482385934e+00
 1.4082142161e+00	 1.7131535179e+00	 1.4799757907e+00
 1.3914930283e+00	 1.7267626856e+00	 1.4097232893e+00
 1.3746491070e+00	 1.7402017296e+00	 1.3418034782e+00
 1.3576850521e+00	 1.7534690112e+00	 1.2804685040e+00
 1.3406034917e+00	 1.7665629446e+00	 1.2298625628e+00
 1.3234070804e+00	 1.7794819965e+00	 1.1939871292e+00
 1.4958179043e+00	 1.6491519954e+00	 1.6198937246e+00
 1.4796843697e+00	 1.6636428395e+00	 1.6084223335e+00
 1.4634150325e+00	 1.6779718743e+00	 1.5841060720e+00
 1.4470123420e+00	 1.6921372018e+00	 1.5442927838e+00
 1.4304787821e+00	 1.7061369731e+00	 1.4930006375e+00
 1.4138168704e+00	 1.7199693892e+00	 1.4343138387e+00
 1.3970291564e+00	 1.7336327017e+00	 1.3723364644e+00
 1.3801182208e+00	 1.7471252137e+00	 1.3111488381e+00
 1.3630866735e+00	 1.7604452799e+00	 1.2547666279e+00
 1.3459371531e+00	 1.7735913081e+00	 1.2071028282e+00
 1.3286723250e+00	 1.7865617592e+00	 1.1719327596e+00
 1.5017455112e+00	 1.6556872326e+00	 1.4905187956e+00
 1.4855480428e+00	 1.6702355008e+00	 1.4860158523e+00
 1.4692142337e+00	 1.6846213184e+00	 1.4743566566e+00
 1.4527465428e+00	 1.6988427801e+00	 1.4477383246e+00
 1.4361474640e+00	 1.7128980295e+00	 1.4093109834e+00
 1.4194195247e+00	 1.7267852606e+00	 1.3627914566e+00
 1.4025652846e+00	 1.7405027179e+00	 1.3119291652e+00
 1.3855873345e+00	 1.7540486977e+00	 1.2604621556e+00
 1.3684882949e+00	 1.7674215486e+00	 1.2120759194e+00
 1.3512708146e+00	 1.7806196717e+00	 1.1703651680e+00
 1.3339375697e+00	 1.7936415219e+00	 1.1387986972e+00
 1.2812851231e+00	 1.7228438950e+00	 9.9419103996e-01
 1.2645303022e+00	 1.7351789251e+00	 1.0319249450e+00
 1.2476695257e+00	 1.7473418936e+00	 1.0670475846e+00
 1.2307054234e+00	 1.7593314809e+00	 1.0985271588e+00
 1.2136406457e+00	 1.7711464208e+00	 1.1252778375e+00
 1.1964778629e+00	 1.7827855005e+00	 1.1461466495e+00
 1.1792197631e+00	 1.7942475614e+00	 1.1599026976e+00
 1.1618690513e+00	 1.8055314987e+00	 1.1652286776e+00
 1.1444284477e+00	 1.8166362624e+00	 1.1607146678e+00
 1.1269006870e+00	 1.8275608570e+00	 1.1448541353e+00
 1.1092885163e+00	 1.8383043418e+00	 1.1160729524e+00
 1.2865503678e+00	 1.7299236577e+00	 1.0539260150e+00
 1.2697266955e+00	 1.7423093767e+00	 1.0813633897e+00
 1.2527966322e+00	 1.7545223270e+00	 1.1076938856e+00
 1.2357628185e+00	 1.7665611837e+00	 1.1317455670e+00
 1.2186279158e+00	 1.7784246753e+00	 1.1523165803e+00
 1.2013946052e+00	 1.7901115841e+00	 1.1681618970e+00
 1.1840655858e+00	 1.8016207465e+00	 1.1779824152e+00
 1.1666435739e+00	 1.8129510535e+00	 1.1804164021e+00
 1.1491313009e+00	 1.8241014505e+00	 1.1740332362e+00
 1.1315315125e+00	 1.8350709380e+00	 1.1573293985e+00
 1.1138469673e+00	 1.8458585715e+00	 1.1287266398e+00
 1.2918156124e+00	 1.7370034204e+00	 1.1041325774e+00
 1.2749230888e+00	 1.7494398283e+00	 1.1213688611e+00
 1.2579237387e+00	 1.7617027605e+00	 1.1389853808e+00
 1.2408202136e+00	 1.7737908865e+00	 1.1557140766e+00
 1.2236151859e+00	 1.7857029298e+00	 1.1702754227e+00
 1.2063113474e+00	 1.7974376676e+00	 1.1813650125e+00
 1.1889114086e+00	 1.8089939316e+00	 1.1876425491e+00
 1.1714180965e+00	 1.8203706082e+00	 1.1877232182e+00
 1.1538341540e+00	 1.8315666385e+00	 1.1801714043e+00
 1.1361623380e+00	 1.8425810190e+00	 1.1634966923e+00
 1.1184054183e+00	 1.8534128012e+00	 1.1361563202e+00
 1.2970808571e+00	 1.7440831831e+00	 1.1446031397e+00
 1.2801194821e+00	 1.7565702799e+00	 1.1520609362e+00
 1.2630508453e+00	 1.7688831939e+00	 1.1613118866e+00
 1.2458776088e+00	 1.7810205893e+00	 1.1710353752e+00
 1.2286024559e+00	 1.7929811843e+00	 1.1799121478e+00
 1.2112280896e+00	 1.8047637511e+00	 1.1866107299e+00
 1.1937572313e+00	 1.8163671167e+00	 1.1897763056e+00
 1.1761926191e+00	 1.8277901629e+00	 1.1880220317e+00
 1.1585370072e+00	 1.8390318265e+00	 1.1799227450e+00
 1.1407931635e+00	 1.8500910999e+00	 1.1640110055e+00
 1.1229638693e+00	 1.8609670309e+00	 1.1389243336e+00
 1.3023461018e+00	 1.7511629458e+00	 1.1751355299e+00
 1.2853158754e+00	 1.7637007315e+00	 1.1735595857e+00
 1.2681779518e+00	 1.7760636274e+00	 1.1750595623e+00
 1.2509350039e+00	 1.7882502922e+00	 1.1783054189e+00
 1.2335897260e+00	 1.8002594388e+00	 1.1819757144e+00
 1.2161448319e+00	 1.8120898346e+00	 1.1847438503e+00
 1.1986030540e+00	 1.8237403018e+00	 1.1852668374e+00
 1.1809671418e+00	 1.8352097176e+00	 1.1821765614e+00
 1.1632398603e+00	 1.8464970146e+00	 1.1740735022e+00
 1.1454239890e+00	 1.8576011809e+00	 1.1595753992e+00
 1.1275223202e+00	 1.8685212605e+00	 1.1375447261e+00
 1.3076113464e+00	 1.7582427084e+00	 1.1955322334e+00
 1.2905122687e+00	 1.7708311831e+00	 1.1859845275e+00
 1.2733050583e+00	 1.7832440609e+00	 1.1806103573e+00
 1.2559923991e+00	 1.7954799950e+00	 1.1781129549e+00
 1.2385769960e+00	 1.8075376933e+00	 1.1772058360e+00
 1.2210615741e+00	 1.8194159182e+00	 1.1765988584e+00
 1.2034488767e+00	 1.8311134869e+00	 1.1749868780e+00
 1.1857416644e+00	 1.8426292723e+00	 1.1710409758e+00
 1.1679427135e+00	 1.8539622026e+00	 1.1634081689e+00
 1.1500548145e+00	 1.8651112619e+00	 1.1509459091e+00
 1.1320807712e+00	 1.8760754902e+00	 1.1324521094e+00
 1.3128765911e+00	 1.7653224711e+00	 1.2055996397e+00
 1.2957086620e+00	 1.7779616348e+00	 1.1894545818e+00
 1.2784321648e+00	 1.7904244943e+00	 1.1783414569e+00
 1.2610497942e+00	 1.8027096978e+00	 1.1710390401e+00
 1.2435642661e+00	 1.8148159478e+00	 1.1663325541e+00
 1.2259783163e+00	 1.8267420017e+00	 1.1629995336e+00
 1.2082946994e+00	 1.8384866720e+00	 1.1597983725e+00
 1.1905161870e+00	 1.8500488270e+00	 1.1554595224e+00
 1.1726455666e+00	 1.8614273907e+00	 1.1487944777e+00
 1.1546856400e+00	 1.8726213429e+00	 1.1387355006e+00
 1.1366392222e+00	 1.8836297199e+00	 1.1240675215e+00
 1.3181418357e+00	 1.7724022338e+00	 1.2051472900e+00
 1.3009050553e+00	 1.7850920864e+00	 1.1840870255e+00
 1.2835592713e+00	 1.7976049278e+00	 1.1686247260e+00
 1.2661071893e+00	 1.8099394007e+00	 1.1576565571e+00
 1.2485515361e+00	 1.8220942023e+00	 1.1500758083e+00
 1.2308950586e+00	 1.8340680852e+00	 1.1447585558e+00
 1.2131405222e+00	 1.8458598571e+00	 1.1405521012e+00
 1.1952907097e+00	 1.8574683818e+00	 1.1362967347e+00
 1.1773484197e+00	 1.8688925787e+00	 1.1309947206e+00
 1.1593164655e+00	 1.8801314239e+00	 1.1235355016e+00
 1.1411976732e+00	 1.8911839496e+00	 1.1127987365e+00
 1.3234070804e+00	 1.7794819965e+00	 1.1939871292e+00
 1.3061014486e+00	 1.7922225380e+00	 1.1699969476e+00
 1.2886863779e+00	 1.8047853612e+00	 1.1518261513e+00
 1.2711645845e+00	 1.8171691035e+00	 1.1385297258e+00
 1.2535388062e+00	 1.8293724569e+00	 1.1291450012e+00
 1.2358118008e+00	 1.8413941687e+00	 1.1226771060e+00
 1.2179863449e+00	 1.8532330423e+00	 1.1180885462e+00
 1.2000652323e+00	 1.8648879365e+00	 1.1144224114e+00
 1.1820512729e+00	 1.8763577667e+00	 1.1107101574e+00
 1.1639472910e+00	 1.8876415049e+00	 1.1059213423e+00
 1.1457561242e+00	 1.8987381793e+00	 1.0990405719e+00
 1.3286723250e+00	 1.7865617592e+00	 1.1719327596e+00
 1.3112978419e+00	 1.7993529896e+00	 1.1472966051e+00
 1.2938134844e+00	 1.8119657947e+00	 1.1283052825e+00
 1.2762219796e+00	 1.8243988063e+00	 1.1142136129e+00
 1.2585260763e+00	 1.8366507114e+00	 1.1042385591e+00
 1.2407285430e+00	 1.8487202523e+00	 1.0975444623e+00
 1.2228321676e+00	 1.8606062274e+00	 1.0932690905e+00
 1.2048397549e+00	 1.8723074912e+00	 1.0905940421e+00
 1.1867541260e+00	 1.8838229548e+00	 1.0886245048e+00
 1.1685781165e+00	 1.8951515858e+00	 1.0864529249e+00
 1.1503145752e+00	 1.9062924090e+00	 1.0831751949e+00
 1.3339375697e+00	 1.7936415219e+00	 1.1387986972e+00
 1.3164942352e+00	 1.8064834412e+00	 1.1160947781e+00
 1.2989405909e+00	 1.8191462282e+00	 1.0984146706e+00
 1.2812793748e+00	 1.8316285092e+00	 1.0852536379e+00
 1.2635133463e+00	 1.8439289659e+00	 1.0760434892e+00
 1.2456452853e+00	 1.8560463358e+00	 1.0701406585e+00
 1.2276779903e+00	 1.8679794125e+00	 1.0668765007e+00
 1.2096142776e+00	 1.8797270459e+00	 1.0655470406e+00
 1.1914569792e+00	 1.8912881428e+00	 1.0654043481e+00
 1.1732089420e+00	 1.9026616668e+00	 1.0656749895e+00
 1.1548730262e+00	 1.9138466387e+00	 1.0655724261e+00
 1.1092885163e+00	 1.8383043418e+00	 1.1160729524e+00
 1.0915946945e+00	 1.8488658317e+00	 1.0818751532e+00
 1.0738219920e+00	 1.8592444984e+00	 1.0499260817e+00
 1.0559731879e+00	 1.8694395692e+00	 1.0206746244e+00
 1.0380510688e+00	 1.8794503267e+00	 9.9442540978e-01
 1.0200584271e+00	 1.8892761086e+00	 9.7156765005e-01
 1.0019980599e+00	 1.8989163076e+00	 9.5257904672e-01
 9.8387276730e-01	 1.9083703716e+00	 9.3801355331e-01
 9.6568535156e-01	 1.9176378033e+00	 9.2848989515e-01
 9.4743861547e-01	 1.9267181602e+00	 9.2468083327e-01
 9.2913536115e-01	 1.9356110540e+00	 9.2730315553e-01
 1.1138469673e+00	 1.8458585715e+00	 1.1287266398e+00
 1.0960804354e+00	 1.8564634622e+00	 1.0941572433e+00
 1.0782346987e+00	 1.8668847785e+00	 1.0623727867e+00
 1.0603125477e+00	 1.8771217444e+00	 1.0335525022e+00
 1.0423167804e+00	 1.8871736395e+00	 1.0078491931e+00
 1.0242502008e+00	 1.8970397989e+00	 9.8550593867e-01
 1.0061156172e+00	 1.9067196129e+00	 9.6684335245e-01
 9.8791584150e-01	 1.9162125269e+00	 9.5224763860e-01
 9.6965368737e-01	 1.9255180417e+00	 9.4215943473e-01
 9.5133196912e-01	 1.9346357129e+00	 9.3706342656e-01
 9.3295350038e-01	 1.9435651507e+00	 9.3747871532e-01
 1.1184054183e+00	 1.8534128012e+00	 1.1361563202e+00
 1.1005661764e+00	 1.8640610927e+00	 1.1029141936e+00
 1.0826474054e+00	 1.8745250585e+00	 1.0723408508e+00
 1.0646519075e+00	 1.8848039195e+00	 1.0448110489e+00
 1.0465824920e+00	 1.8948969523e+00	 1.0203717881e+00
 1.0284419744e+00	 1.9048034893e+00	 9.9915070549e-01
 1.0102331745e+00	 1.9145229181e+00	 9.8134353782e-01
 9.9195891571e-01	 1.9240546822e+00	 9.6720241313e-01
 9.7362202318e-01	 1.9333982801e+00	 9.5702495799e-01
 9.5522532277e-01	 1.9425532656e+00	 9.5114420318e-01
 9.3677163962e-01	 1.9515192474e+00	 9.4991926654e-01
 1.1229638693e+00	 1.8609670309e+00	 1.1389243336e+00
 1.1050519173e+00	 1.8716587232e+00	 1.1083171050e+00
 1.0870601122e+00	 1.8821653385e+00	 1.0797779669e+00
 1.0689912674e+00	 1.8924860946e+00	 1.0542125476e+00
 1.0508482037e+00	 1.9026202651e+00	 1.0315906944e+00
 1.0326337480e+00	 1.9125671796e+00	 1.0119548139e+00
 1.0143507318e+00	 1.9223262234e+00	 9.9540748331e-01
 9.9600198991e-01	 1.9318968375e+00	 9.8209992001e-01
 9.7759035899e-01	 1.9412785184e+00	 9.7222129516e-01
 9.5911867641e-01	 1.9504708183e+00	 9.6598887113e-01
 9.4058977885e-01	 1.9594733441e+00	 9.6363893998e-01
 1.1275223202e+00	 1.8685212605e+00	 1.1375447261e+00
 1.1095376583e+00	 1.8792563537e+00	 1.1105204849e+00
 1.0914728189e+00	 1.8898056186e+00	 1.0846355282e+00
 1.0733306272e+00	 1.9001682698e+00	 1.0615260416e+00
 1.0551139153e+00	 1.9103435779e+00	 1.0411129120e+00
 1.0368255216e+00	 1.9203308700e+00	 1.0233830543e+00
 1.0184682891e+00	 1.9301295287e+00	 1.0083771161e+00
 1.0000450641e+00	 1.9397389928e+00	 9.9617806866e-01
 9.8155869480e-01	 1.9491587568e+00	 9.8690066905e-01
 9.6301203006e-01	 1.9583883710e+00	 9.8068177100e-01
 9.4440791808e-01	 1.9674274408e+00	 9.7767145982e-01
 1.1320807712e+00	 1.8760754902e+00	 1.1324521094e+00
 1.1140233992e+00	 1.8868539842e+00	 1.1096327617e+00
 1.0958855257e+00	 1.8974458986e+00	 1.0868683143e+00
 1.0776699870e+00	 1.9078504449e+00	 1.0665269677e+00
 1.0593796269e+00	 1.9180668907e+00	 1.0485545280e+00
 1.0410172952e+00	 1.9280945603e+00	 1.0329116915e+00
 1.0225858465e+00	 1.9379328339e+00	 1.0196079249e+00
 1.0040881383e+00	 1.9475811480e+00	 1.0086901232e+00
 9.8552703061e-01	 1.9570389952e+00	 1.0002321632e+00
 9.6690538371e-01	 1.9663059237e+00	 9.9432532963e-01
 9.4822605731e-01	 1.9753815375e+00	 9.9106958875e-01
 1.1366392222e+00	 1.8836297199e+00	 1.1240675215e+00
 1.1185091402e+00	 1.8944516148e+00	 1.1056760150e+00
 1.1002982324e+00	 1.9050861787e+00	 1.0864341780e+00
 1.0820093468e+00	 1.9155326200e+00	 1.0689967910e+00
 1.0636453385e+00	 1.9257902035e+00	 1.0535403080e+00
 1.0452090689e+00	 1.9358582506e+00	 1.0400280177e+00
 1.0267034038e+00	 1.9457361392e+00	 1.0284684809e+00
 1.0081312125e+00	 1.9554233033e+00	 1.0189041978e+00
 9.8949536642e-01	 1.9649192336e+00	 1.0114011971e+00
 9.7079873735e-01	 1.9742234764e+00	 1.0060395217e+00
 9.5204419654e-01	 1.9833356342e+00	 1.0029045812e+00
 1.1411976732e+00	 1.8911839496e+00	 1.1127987365e+00
 1.1229948811e+00	 1.9020492453e+00	 1.0988422025e+00
 1.1047109392e+00	 1.9127264587e+00	 1.0832937333e+00
 1.0863487066e+00	 1.9232147951e+00	 1.0687226440e+00
 1.0679110502e+00	 1.9335135163e+00	 1.0557032900e+00
 1.0494008425e+00	 1.9436219410e+00	 1.0442299100e+00
 1.0308209611e+00	 1.9535394444e+00	 1.0343399642e+00
 1.0121742867e+00	 1.9632654586e+00	 1.0261027575e+00
 9.9346370223e-01	 1.9727994719e+00	 1.0196090088e+00
 9.7469209100e-01	 1.9821410291e+00	 1.0149613385e+00
 9.5586233577e-01	 1.9912897309e+00	 1.0122656445e+00
 1.1457561242e+00	 1.8987381793e+00	 1.0990405719e+00
 1.1274806220e+00	 1.9096468758e+00	 1.0893281463e+00
 1.1091236459e+00	 1.9203667388e+00	 1.0774100443e+00
 1.0906880665e+00	 1.9308969703e+00	 1.0654969662e+00
 1.0721767618e+00	 1.9412368291e+00	 1.0546843831e+00
 1.0535926161e+00	 1.9513856313e+00	 1.0450253921e+00
 1.0349385184e+00	 1.9613427497e+00	 1.0366156958e+00
 1.0162173609e+00	 1.9711076139e+00	 1.0295821271e+00
 9.9743203804e-01	 1.9806797103e+00	 1.0240721443e+00
 9.7858544465e-01	 1.9900585818e+00	 1.0202442648e+00
 9.5968047500e-01	 1.9992438276e+00	 1.0182594079e+00
 1.1503145752e+00	 1.9062924090e+00	 1.0831751949e+00
 1.1319663630e+00	 1.9172445063e+00	 1.0773211665e+00
 1.1135363527e+00	 1.9280070188e+00	 1.0687290111e+00
 1.0950274263e+00	 1.9385791454e+00	 1.0591171476e+00
 1.0764424734e+00	 1.9489601419e+00	 1.0501319692e+00
 1.0577843897e+00	 1.9591493217e+00	 1.0419322015e+00
 1.0390560757e+00	 1.9691460550e+00	 1.0347006749e+00
 1.0202604351e+00	 1.9789497692e+00	 1.0286520042e+00
 1.0014003738e+00	 1.9885599487e+00	 1.0240219532e+00
 9.8247879829e-01	 1.9979761345e+00	 1.0210577619e+00
 9.6349861423e-01	 2.0071979243e+00	 1.0200093985e+00
 1.1548730262e+00	 1.9138466387e+00	 1.0655724261e+00
 1.1364521039e+00	 1.9248421368e+00	 1.0629993180e+00
 1.1179490594e+00	 1.9356472989e+00	 1.0571364380e+00
 1.0993667861e+00	 1.9462613205e+00	 1.0493851737e+00
 1.0807081850e+00	 1.9566834547e+00	 1.0417015081e+00
 1.0619761634e+00	 1.9669130120e+00	 1.0344773599e+00
 1.0431736330e+00	 1.9769493602e+00	 1.0280111220e+00
 1.0243035093e+00	 1.9867919245e+00	 1.0226349792e+00
 1.0053687097e+00	 1.9964401871e+00	 1.0187040918e+00
 9.8637215194e-01	 2.0058936872e+00	 1.0165867585e+00
 9.6731675346e-01	 2.0151520210e+00	 1.0166555253e+00
 9.2913536115e-01	 1.9356110540e+00	 9.2730315553e-01
 9.1077526332e-01	 1.9443176149e+00	 9.3495915024e-01
 8.9236422656e-01	 1.9528360339e+00	 9.4555467770e-01
 8.7390504382e-01	 1.9611660834e+00	 9.5883169040e-01
 8.5540050234e-01	 1.9693075891e+00	 9.7457956619e-01
 8.3685338241e-01	 1.9772604297e+00	 9.9262928133e-01
 8.1826645622e-01	 1.9850245367e+00	 1.0128480910e+00
 7.9964248658e-01	 1.9925998934e+00	 1.0351346846e+00
 7.8098422584e-01	 1.9999865349e+00	 1.0594147837e+00
 7.6229441467e-01	 2.0071845475e+00	 1.0856371484e+00
 7.4357578096e-01	 2.0141940681e+00	 1.1137699600e+00
 9.3295350038e-01	 1.9435651507e+00	 9.3747871532e-01
 9.1451795455e-01	 1.9523074899e+00	 9.4202710566e-01
 8.9603126046e-01	 1.9608609140e+00	 9.4893584617e-01
 8.7749622254e-01	 1.9692251945e+00	 9.5818460687e-01
 8.5891563948e-01	 1.9774001565e+00	 9.6978833184e-01
 8.4029230301e-01	 1.9853856781e+00	 9.8379130803e-01
 8.2162899669e-01	 1.9931816905e+00	 1.0002617669e+00
 8.0292849471e-01	 2.0007881769e+00	 1.0192869852e+00
 7.8419356071e-01	 2.0082051727e+00	 1.0409688494e+00
 7.6542694663e-01	 2.0154327645e+00	 1.0654198503e+00
 7.4663139157e-01	 2.0224710896e+00	 1.0927594719e+00
 9.3677163962e-01	 1.9515192474e+00	 9.4991926654e-01
 9.1826064577e-01	 1.9602973649e+00	 9.5201462344e-01
 8.9969829436e-01	 1.9688857941e+00	 9.5593739942e-01
 8.8108740126e-01	 1.9772843057e+00	 9.6184856124e-01
 8.6243077662e-01	 1.9854927239e+00	 9.6993442433e-01
 8.4373122361e-01	 1.9935109265e+00	 9.8040066856e-01
 8.2499153717e-01	 2.0013388443e+00	 9.9346690865e-01
 8.0621450284e-01	 2.0089764605e+00	 1.0093617834e+00
 7.8740289558e-01	 2.0164238106e+00	 1.0283185275e+00
 7.6855947859e-01	 2.0236809814e+00	 1.0505709893e+00
 7.4968700217e-01	 2.0307481111e+00	 1.0763500588e+00
 9.4058977885e-01	 1.9594733441e+00	 9.6363893998e-01
 9.2200333700e-01	 1.9682872398e+00	 9.6390323301e-01
 9.0336532825e-01	 1.9769106742e+00	 9.6552947299e-01
 8.8467857997e-01	 1.9853434169e+00	 9.6880411278e-01
 8.6594591376e-01	 1.9935852914e+00	 9.7403123476e-01
 8.4717014421e-01	 2.0016361750e+00	 9.8152656462e-01
 8.2835407765e-01	 2.0094959981e+00	 9.9161205793e-01
 8.0950051097e-01	 2.0171647441e+00	 1.0046110217e+00
 7.9061223045e-01	 2.0246424484e+00	 1.0208437330e+00
 7.7169201055e-01	 2.0319291984e+00	 1.0406235163e+00
 7.5274261278e-01	 2.0390251327e+00	 1.0642532417e+00
 9.4440791808e-01	 1.9674274408e+00	 9.7767145982e-01
 9.2574602823e-01	 1.9762771148e+00	 9.7669471406e-01
 9.0703236214e-01	 1.9849355543e+00	 9.7670276773e-01
 8.8826975869e-01	 1.9934025280e+00	 9.7805234783e-01
 8.6946105090e-01	 2.0016778588e+00	 9.8111227838e-01
 8.5060906480e-01	 2.0097614234e+00	 9.8625754355e-01
 8.3171661812e-01	 2.0176531519e+00	 9.9386393767e-01
 8.1278651910e-01	 2.0253530277e+00	 1.0043032627e+00
 7.9382156532e-01	 2.0328610863e+00	 1.0179390336e+00
 7.7482454250e-01	 2.0401774154e+00	 1.0351226509e+00
 7.5579822338e-01	 2.0473021542e+00	 1.0561900020e+00
 9.4822605731e-01	 1.9753815375e+00	 9.9106958875e-01
 9.2948871945e-01	 1.9842669898e+00	 9.8941053930e-01
 9.1069939604e-01	 1.9929604344e+00	 9.8846799729e-01
 8.9186093740e-01	 2.0014616392e+00	 9.8861433902e-01
 8.7297618804e-01	 2.0097704262e+00	 9.9023067306e-01
 8.5404798540e-01	 2.0178866718e+00	 9.9370100362e-01
 8.3507915860e-01	 2.0258103058e+00	 9.9940699146e-01
 8.1607252723e-01	 2.0335413113e+00	 1.0077232710e+00
 7.9703090019e-01	 2.0410797241e+00	 1.0190132817e+00
 7.7795707446e-01	 2.0484256324e+00	 1.0336255730e+00
 7.5885383399e-01	 2.0555791757e+00	 1.0518905396e+00
 9.5204419654e-01	 1.9833356342e+00	 1.0029045812e+00
 9.3323141068e-01	 1.9922568647e+00	 1.0010913256e+00
 9.1436642993e-01	 2.0009853145e+00	 9.9985534386e-01
 8.9545211611e-01	 2.0095207504e+00	 9.9953061283e-01
 8.7649132518e-01	 2.0178629937e+00	 1.0004586257e+00
 8.5748690600e-01	 2.0260119202e+00	 1.0029827067e+00
 8.3844169907e-01	 2.0339674596e+00	 1.0074429301e+00
 8.1935853536e-01	 2.0417295949e+00	 1.0141716010e+00
 8.0024023506e-01	 2.0492983620e+00	 1.0234892524e+00
 7.8108960642e-01	 2.0566738494e+00	 1.0357011177e+00
 7.6190944459e-01	 2.0638561973e+00	 1.0510940337e+00
 9.5586233577e-01	 1.9912897309e+00	 1.0122656445e+00
 9.3697410190e-01	 2.0002467397e+00	 1.0107962932e+00
 9.1803346383e-01	 2.0090101946e+00	 1.0099139222e+00
 8.9904329483e-01	 2.0175798615e+00	 1.0098606251e+00
 8.8000646232e-01	 2.0259555611e+00	 1.0108869263e+00
 8.6092582659e-01	 2.0341371686e+00	 1.0132462980e+00
 8.4180423954e-01	 2.0421246134e+00	 1.0171902849e+00
 8.2264454349e-01	 2.0499178784e+00	 1.0229641912e+00
 8.0344956993e-01	 2.0575169999e+00	 1.0308032851e+00
 7.8422213838e-01	 2.0649220664e+00	 1.0409294737e+00
 7.6496505519e-01	 2.0721332188e+00	 1.0535484055e+00
 9.5968047500e-01	 1.9992438276e+00	 1.0182594079e+00
 9.4071679313e-01	 2.0082366147e+00	 1.0176027330e+00
 9.2170049772e-01	 2.0170350748e+00	 1.0177112515e+00
 9.0263447354e-01	 2.0256389727e+00	 1.0186822444e+00
 8.8352159946e-01	 2.0340481285e+00	 1.0206244498e+00
 8.6436474719e-01	 2.0422624170e+00	 1.0236528336e+00
 8.4516678002e-01	 2.0502817672e+00	 1.0278839668e+00
 8.2593055162e-01	 2.0581061620e+00	 1.0334319635e+00
 8.0665890480e-01	 2.0657356377e+00	 1.0404049311e+00
 7.8735467033e-01	 2.0731702834e+00	 1.0489018850e+00
 7.6802066580e-01	 2.0804102403e+00	 1.0590100828e+00
 9.6349861423e-01	 2.0071979243e+00	 1.0200093985e+00
 9.4445948435e-01	 2.0162264897e+00	 1.0206054809e+00
 9.2536753162e-01	 2.0250599549e+00	 1.0223327351e+00
 9.0622565226e-01	 2.0336980839e+00	 1.0250912431e+00
 8.8703673660e-01	 2.0421406960e+00	 1.0287976651e+00
 8.6780366778e-01	 2.0503876654e+00	 1.0333803137e+00
 8.4852932049e-01	 2.0584389210e+00	 1.0387748327e+00
 8.2921655974e-01	 2.0662944456e+00	 1.0449204280e+00
 8.0986823966e-01	 2.0739542756e+00	 1.0517566045e+00
 7.9048720229e-01	 2.0814185003e+00	 1.0592203568e+00
 7.7107627640e-01	 2.0886872619e+00	 1.0672437670e+00
 9.6731675346e-01	 2.0151520210e+00	 1.0166555253e+00
 9.4820217558e-01	 2.0242163646e+00	 1.0189164009e+00
 9.2903456551e-01	 2.0330848350e+00	 1.0228811475e+00
 9.0981683097e-01	 2.0417571950e+00	 1.0282007956e+00
 8.9055187374e-01	 2.0502332634e+00	 1.0345501507e+00
 8.7124258838e-01	 2.0585129138e+00	 1.0416232239e+00
 8.5189186097e-01	 2.0665960749e+00	 1.0491292572e+00
 8.3250256787e-01	 2.0744827292e+00	 1.0567892933e+00
 8.1307757453e-01	 2.0821729134e+00	 1.0643332380e+00
 7.9361973424e-01	 2.0896667173e+00	 1.0714973635e+00
 7.7413188700e-01	 2.0969642834e+00	 1.0780222020e+00
 7.4357578096e-01	 2.0141940681e+00	 1.1137699600e+00
 7.2483422690e-01	 2.0210141399e+00	 1.1413623804e+00
 7.0606926997e-01	 2.0276462055e+00	 1.1654121429e+00
 6.8728359099e-01	 2.0340905489e+00	 1.1850209502e+00
 6.6847985372e-01	 2.0403475018e+00	 1.1993145488e+00
 6.4966070390e-01	 2.0464174439e+00	 1.2074424329e+00
 6.3082876822e-01	 2.0523008014e+00	 1.2085759891e+00
 6.1198665341e-01	 2.0579980469e+00	 1.2019068554e+00
 5.9313694523e-01	 2.0635096983e+00	 1.1866455026e+00
 5.7428220763e-01	 2.0688363181e+00	 1.1620200462e+00
 5.5542498184e-01	 2.0739785129e+00	 1.1272752917e+00
 7.4663139157e-01	 2.0224710896e+00	 1.0927594719e+00
 7.2781282196e-01	 2.0293191874e+00	 1.1205941517e+00
 7.0897075332e-01	 2.0359785066e+00	 1.1457199267e+00
 6.9010787747e-01	 2.0424493319e+00	 1.1670420569e+00
 6.7122686913e-01	 2.0487319969e+00	 1.1835038217e+00
 6.5233038490e-01	 2.0548268824e+00	 1.1940861279e+00
 6.3342106228e-01	 2.0607344167e+00	 1.1978055303e+00
 6.1450151868e-01	 2.0664550742e+00	 1.1937124602e+00
 5.9557435052e-01	 2.0719893748e+00	 1.1808896755e+00
 5.7664213227e-01	 2.0773378836e+00	 1.1584509365e+00
 5.5770741560e-01	 2.0825012094e+00	 1.1255399141e+00
 7.4968700217e-01	 2.0307481111e+00	 1.0763500588e+00
 7.3079141703e-01	 2.0376242350e+00	 1.1034470959e+00
 7.1187223668e-01	 2.0443108076e+00	 1.1285956718e+00
 6.9293216396e-01	 2.0508081150e+00	 1.1505454729e+00
 6.7397388454e-01	 2.0571164919e+00	 1.1681080564e+00
 6.5500006590e-01	 2.0632363210e+00	 1.1801444991e+00
 6.3601335633e-01	 2.0691680320e+00	 1.1855632599e+00
 6.1701638395e-01	 2.0749121014e+00	 1.1833182513e+00
 5.9801175580e-01	 2.0804690514e+00	 1.1724071311e+00
 5.7900205690e-01	 2.0858394491e+00	 1.1518698214e+00
 5.5998984936e-01	 2.0910239059e+00	 1.1207872611e+00
 7.5274261278e-01	 2.0390251327e+00	 1.0642532417e+00
 7.3377001209e-01	 2.0459292826e+00	 1.0898083440e+00
 7.1477372003e-01	 2.0526431086e+00	 1.1140960146e+00
 6.9575645045e-01	 2.0591668981e+00	 1.1357394475e+00
 6.7672089996e-01	 2.0655009870e+00	 1.1534687359e+00
 6.5766974691e-01	 2.0716457595e+00	 1.1660734115e+00
 6.3860565038e-01	 2.0776016473e+00	 1.1724001171e+00
 6.1953124922e-01	 2.0833691287e+00	 1.1713504909e+00
 6.0044916109e-01	 2.0889487279e+00	 1.1618792762e+00
 5.8136198154e-01	 2.0943410145e+00	 1.1429926614e+00
 5.6227228312e-01	 2.0995466025e+00	 1.1137468586e+00
 7.5579822338e-01	 2.0473021542e+00	 1.0561900020e+00
 7.3674860715e-01	 2.0542343302e+00	 1.0795701807e+00
 7.1767520338e-01	 2.0609754097e+00	 1.1022796695e+00
 6.9858073693e-01	 2.0675256811e+00	 1.1228315299e+00
 6.7946791537e-01	 2.0738854820e+00	 1.1399241718e+00
 6.6033942791e-01	 2.0800551981e+00	 1.1523234033e+00
 6.4119794444e-01	 2.0860352626e+00	 1.1588598813e+00
 6.2204611450e-01	 2.0918261560e+00	 1.1584267806e+00
 6.0288656638e-01	 2.0974284045e+00	 1.1499776955e+00
 5.8372190618e-01	 2.1028425800e+00	 1.1325247798e+00
 5.6455471688e-01	 2.1080692990e+00	 1.1051371334e+00
 7.5885383399e-01	 2.0555791757e+00	 1.0518905396e+00
 7.3972720222e-01	 2.0625393777e+00	 1.0726300996e+00
 7.2057668673e-01	 2.0693077107e+00	 1.0932075357e+00
 7.0140502342e-01	 2.0758844642e+00	 1.1120287224e+00
 6.8221493078e-01	 2.0822699771e+00	 1.1278096975e+00
 6.6300910891e-01	 2.0884646366e+00	 1.1393399125e+00
 6.4379023849e-01	 2.0944688779e+00	 1.1454794277e+00
 6.2456097977e-01	 2.1002831832e+00	 1.1451563385e+00
 6.0532397167e-01	 2.1059080810e+00	 1.1373644435e+00
 5.8608183082e-01	 2.1113441455e+00	 1.1211611631e+00
 5.6683715064e-01	 2.1165919955e+00	 1.0956657159e+00
 7.6190944459e-01	 2.0638561973e+00	 1.0510940337e+00
 7.4270579728e-01	 2.0708444253e+00	 1.0688943834e+00
 7.2347817008e-01	 2.0776400117e+00	 1.0869428028e+00
 7.0422930990e-01	 2.0842432473e+00	 1.1035376307e+00
 6.8496194619e-01	 2.0906544721e+00	 1.1174578586e+00
 6.6567878992e-01	 2.0968740752e+00	 1.1275635008e+00
 6.4638253254e-01	 2.1029024933e+00	 1.1327889780e+00
 6.2707584504e-01	 2.1087402105e+00	 1.1321402711e+00
 6.0776137696e-01	 2.1143877576e+00	 1.1246923311e+00
 5.8844175545e-01	 2.1198457110e+00	 1.1095867555e+00
 5.6911958440e-01	 2.1251146921e+00	 1.0860297354e+00
 7.6496505519e-01	 2.0721332188e+00	 1.0535484055e+00
 7.4568439234e-01	 2.0791494729e+00	 1.0682878271e+00
 7.2637965343e-01	 2.0859723127e+00	 1.0835510563e+00
 7.0705359639e-01	 2.0926020303e+00	 1.0975646138e+00
 6.8770896161e-01	 2.0990389672e+00	 1.1091986001e+00
 6.6834847092e-01	 2.1052835137e+00	 1.1174300736e+00
 6.4897482659e-01	 2.1113361086e+00	 1.1213123469e+00
 6.2959071031e-01	 2.1171972378e+00	 1.1199718399e+00
 6.1019878225e-01	 2.1228674341e+00	 1.1126052067e+00
 5.9080168009e-01	 2.1283472765e+00	 1.0984767477e+00
 5.7140201817e-01	 2.1336373886e+00	 1.0769161108e+00
 7.6802066580e-01	 2.0804102403e+00	 1.0590100828e+00
 7.4866298740e-01	 2.0874545204e+00	 1.0707364403e+00
 7.2928113678e-01	 2.0943046138e+00	 1.0831003819e+00
 7.0987788287e-01	 2.1009608134e+00	 1.0943159311e+00
 6.9045597702e-01	 2.1074234623e+00	 1.1033594515e+00
 6.7101815192e-01	 2.1136929523e+00	 1.1093710962e+00
 6.5156712065e-01	 2.1197697239e+00	 1.1115671841e+00
 6.3210557559e-01	 2.1256542650e+00	 1.1092367234e+00
 6.1263618754e-01	 2.1313471107e+00	 1.1017382313e+00
 5.9316160473e-01	 2.1368488419e+00	 1.0884968601e+00
 5.7368445192e-01	 2.1421600852e+00	 1.0690018345e+00
 7.7107627640e-01	 2.0886872619e+00	 1.0672437670e+00
 7.5164158246e-01	 2.0957595680e+00	 1.0761713019e+00
 7.3218262013e-01	 2.1026369148e+00	 1.0856614700e+00
 7.1270216936e-01	 2.1093195965e+00	 1.0939978880e+00
 6.9320299243e-01	 2.1158079573e+00	 1.1002657082e+00
 6.7368783293e-01	 2.1221023909e+00	 1.1038138063e+00
 6.5415941470e-01	 2.1282033392e+00	 1.1040652117e+00
 6.3462044086e-01	 2.1341112923e+00	 1.1005132739e+00
 6.1507359282e-01	 2.1398267872e+00	 1.0927181493e+00
 5.9552152936e-01	 2.1453504074e+00	 1.0803036203e+00
 5.7596688568e-01	 2.1506827817e+00	 1.0629542510e+00
 7.7413188700e-01	 2.0969642834e+00	 1.0780222020e+00
 7.5462017753e-01	 2.1040646156e+00	 1.0845290333e+00
 7.3508410348e-01	 2.1109692158e+00	 1.0913077189e+00
 7.1552645584e-01	 2.1176783796e+00	 1.0968169801e+00
 6.9595000784e-01	 2.1241924524e+00	 1.1002406111e+00
 6.7635751393e-01	 2.1305118294e+00	 1.1011814232e+00
 6.5675170875e-01	 2.1366369545e+00	 1.0993124584e+00
 6.3713530613e-01	 2.1425683196e+00	 1.0943727700e+00
 6.1751099811e-01	 2.1483064638e+00	 1.0861635533e+00
 5.9788145400e-01	 2.1538519729e+00	 1.0745446351e+00
 5.7824931944e-01	 2.1592054782e+00	 1.0594313307e+00
 5.5542498184e-01	 2.0739785129e+00	 1.1272752917e+00
 5.3656778577e-01	 2.0789369326e+00	 1.0900225694e+00
 5.1771311394e-01	 2.0837122714e+00	 1.0587462768e+00
 4.9886343584e-01	 2.0883052653e+00	 1.0340157050e+00
 4.8002119495e-01	 2.0927166911e+00	 1.0164027436e+00
 4.6118880795e-01	 2.0969473653e+00	 1.0064806329e+00
 4.4236866403e-01	 2.1009981432e+00	 1.0048229574e+00
 4.2356312421e-01	 2.1048699183e+00	 1.0120028672e+00
 4.0477452065e-01	 2.1085636212e+00	 1.0285925146e+00
 3.8600515608e-01	 2.1120802188e+00	 1.0551626876e+00
 3.6725730316e-01	 2.1154207133e+00	 1.0922812664e+00
 5.5770741560e-01	 2.0825012094e+00	 1.1255399141e+00
 5.3877272878e-01	 2.0874800050e+00	 1.0897067171e+00
 5.1984057656e-01	 2.0922749673e+00	 1.0594762308e+00
 5.0091343860e-01	 2.0968868355e+00	 1.0354760133e+00
 4.8199376841e-01	 2.1013163893e+00	 1.0183322239e+00
 4.6308399261e-01	 2.1055644488e+00	 1.0086683843e+00
 4.4418651020e-01	 2.1096318728e+00	 1.0071043968e+00
 4.2530369189e-01	 2.1135195584e+00	 1.0142558080e+00
 4.0643787945e-01	 2.1172284400e+00	 1.0307333023e+00
 3.8759138505e-01	 2.1207594885e+00	 1.0571424066e+00
 3.6876649071e-01	 2.1241137102e+00	 1.0940830228e+00
 5.5998984936e-01	 2.0910239059e+00	 1.1207872611e+00
 5.4097767178e-01	 2.0960230774e+00	 1.0865815138e+00
 5.2196803918e-01	 2.1008376632e+00	 1.0577118310e+00
 5.0296344137e-01	 2.1054684056e+00	 1.0348412124e+00
 4.8396634188e-01	 2.1099160876e+00	 1.0186263826e+00
 4.6497917727e-01	 2.1141815323e+00	 1.0097166061e+00
 4.4600435636e-01	 2.1182656023e+00	 1.0087527778e+00
 4.2704425957e-01	 2.1221691984e+00	 1.0163667753e+00
 4.0810123824e-01	 2.1258932587e+00	 1.0331810562e+00
 3.8917761403e-01	 2.1294387581e+00	 1.0598084827e+00
 3.7027567826e-01	 2.1328067071e+00	 1.0968523519e+00
 5.6227228312e-01	 2.0995466025e+00	 1.1137468586e+00
 5.4318261479e-01	 2.1045661498e+00	 1.0813729748e+00
 5.2409550181e-01	 2.1094003591e+00	 1.0541628790e+00
 5.0501344413e-01	 2.1140499757e+00	 1.0327924927e+00
 4.8593891534e-01	 2.1185157858e+00	 1.0179257098e+00
 4.6687436193e-01	 2.1227986158e+00	 1.0102133115e+00
 4.4782220253e-01	 2.1268993319e+00	 1.0102921751e+00
 4.2878482725e-01	 2.1308188384e+00	 1.0187847614e+00
 4.0976459704e-01	 2.1345580774e+00	 1.0362988627e+00
 3.9076384300e-01	 2.1381180278e+00	 1.0634275943e+00
 3.7178486581e-01	 2.1414997040e+00	 1.1007496068e+00
 5.6455471688e-01	 2.1080692990e+00	 1.1051371334e+00
 5.4538755780e-01	 2.1131092222e+00	 1.0747958460e+00
 5.2622296443e-01	 2.1179630551e+00	 1.0495279568e+00
 5.0706344689e-01	 2.1226315458e+00	 1.0300000901e+00
 4.8791148881e-01	 2.1271154840e+00	 1.0168602176e+00
 4.6876954659e-01	 2.1314156994e+00	 1.0107367188e+00
 4.4964004869e-01	 2.1355330615e+00	 1.0122377530e+00
 4.3052539494e-01	 2.1394684784e+00	 1.0219509286e+00
 4.1142795584e-01	 2.1432228962e+00	 1.0404432493e+00
 3.9235007198e-01	 2.1467972974e+00	 1.0682613184e+00
 3.7329405336e-01	 2.1501927009e+00	 1.1059317783e+00
 5.6683715064e-01	 2.1165919955e+00	 1.0956657159e+00
 5.4759250080e-01	 2.1216522946e+00	 1.0675539019e+00
 5.2835042706e-01	 2.1265257510e+00	 1.0444947162e+00
 5.0911344966e-01	 2.1312131160e+00	 1.0271235638e+00
 4.8988406227e-01	 2.1357151822e+00	 1.0160497026e+00
 4.7066473125e-01	 2.1400327829e+00	 1.0118554937e+00
 4.5145789486e-01	 2.1441667910e+00	 1.0150959837e+00
 4.3226596262e-01	 2.1481181185e+00	 1.0262988010e+00
 4.1309131464e-01	 2.1518877149e+00	 1.0459643464e+00
 3.9393630095e-01	 2.1554765671e+00	 1.0745662577e+00
 3.7480324091e-01	 2.1588856978e+00	 1.1125521234e+00
 5.6911958440e-01	 2.1251146921e+00	 1.0860297354e+00
 5.4979744381e-01	 2.1301953670e+00	 1.0603402373e+00
 5.3047788968e-01	 2.1350884469e+00	 1.0397401634e+00
 5.1116345242e-01	 2.1397946861e+00	 1.0248120692e+00
 4.9185663574e-01	 2.1443148804e+00	 1.0161040021e+00
 4.7255991591e-01	 2.1486498664e+00	 1.0141289867e+00
 4.5327574102e-01	 2.1528005206e+00	 1.0193648620e+00
 4.3400653031e-01	 2.1567677585e+00	 1.0322544516e+00
 4.1475467344e-01	 2.1605525337e+00	 1.0532060442e+00
 3.9552252993e-01	 2.1641558367e+00	 1.0825941652e+00
 3.7631242846e-01	 2.1675786947e+00	 1.1207606109e+00
 5.7140201817e-01	 2.1336373886e+00	 1.0769161108e+00
 5.5200238681e-01	 2.1387384394e+00	 1.0538375537e+00
 5.3260535231e-01	 2.1436511428e+00	 1.0359309368e+00
 5.1321345518e-01	 2.1483762562e+00	 1.0237046238e+00
 4.9382920920e-01	 2.1529145786e+00	 1.0176232453e+00
 4.7445510057e-01	 2.1572669499e+00	 1.0181074645e+00
 4.5509358719e-01	 2.1614342502e+00	 1.0255341144e+00
 4.3574709799e-01	 2.1654173985e+00	 1.0402366862e+00
 4.1641803224e-01	 2.1692173524e+00	 1.0625061475e+00
 3.9710875890e-01	 2.1728351064e+00	 1.0925920654e+00
 3.7782161601e-01	 2.1762716916e+00	 1.1307040097e+00
 5.7368445192e-01	 2.1421600852e+00	 1.0690018345e+00
 5.5420732982e-01	 2.1472815118e+00	 1.0487184398e+00
 5.3473281493e-01	 2.1522138388e+00	 1.0337235801e+00
 5.1526345795e-01	 2.1569578264e+00	 1.0244303684e+00
 4.9580178267e-01	 2.1615142768e+00	 1.0211980993e+00
 4.7635028523e-01	 2.1658840334e+00	 1.0243323384e+00
 4.5691143335e-01	 2.1700679797e+00	 1.0340854048e+00
 4.3748766567e-01	 2.1740670386e+00	 1.0506572237e+00
 4.1808139104e-01	 2.1778821711e+00	 1.0741965268e+00
 3.9869498788e-01	 2.1815143761e+00	 1.1048023748e+00
 3.7933080355e-01	 2.1849646885e+00	 1.1425259733e+00
 5.7596688568e-01	 2.1506827817e+00	 1.0629542510e+00
 5.5641227282e-01	 2.1558245842e+00	 1.0456456458e+00
 5.3686027755e-01	 2.1607765347e+00	 1.0337648090e+00
 5.1731346071e-01	 2.1655393965e+00	 1.0276088236e+00
 4.9777435613e-01	 2.1701139750e+00	 1.0274100105e+00
 4.7824546988e-01	 2.1745011169e+00	 1.0333363864e+00
 4.5872927951e-01	 2.1787017093e+00	 1.0454925355e+00
 4.3922823336e-01	 2.1827166786e+00	 1.0639208716e+00
 4.1974474984e-01	 2.1865469899e+00	 1.0886032669e+00
 4.0028121685e-01	 2.1901936457e+00	 1.1194630182e+00
 3.8083999110e-01	 2.1936576854e+00	 1.1563671238e+00
 5.7824931944e-01	 2.1592054782e+00	 1.0594313307e+00
 5.5861721583e-01	 2.1643676566e+00	 1.0452723533e+00
 5.3898774018e-01	 2.1693392306e+00	 1.0366917734e+00
 5.1936346347e-01	 2.1741209666e+00	 1.0338501399e+00
 4.9974692960e-01	 2.1787136732e+00	 1.0368314406e+00
 4.8014065454e-01	 2.1831182005e+00	 1.0456439719e+00
 4.6054712568e-01	 2.1873354389e+00	 1.0602216444e+00
 4.4096880104e-01	 2.1913663186e+00	 1.0804256998e+00
 4.2140810864e-01	 2.1952118086e+00	 1.1060468120e+00
 4.0186744582e-01	 2.1988729154e+00	 1.1368075446e+00
 3.8234917865e-01	 2.2023506823e+00	 1.1723651325e+00
 3.6725730316e-01	 2.1154207133e+00	 1.0922812664e+00
 3.4853002362e-01	 2.1185866643e+00	 1.1314566801e+00
 3.2982872276e-01	 2.1215785585e+00	 1.1636459543e+00
 3.1115558570e-01	 2.1243974975e+00	 1.1885679729e+00
 2.9251276530e-01	 2.1270446149e+00	 1.2059536602e+00
 2.7390238167e-01	 2.1295210749e+00	 1.2155473530e+00
 2.5532652180e-01	 2.1318280715e+00	 1.2171076212e+00
 2.3678723911e-01	 2.1339668276e+00	 1.2104076108e+00
 2.1828655311e-01	 2.1359385941e+00	 1.1952349771e+00
 1.9982644907e-01	 2.1377446487e+00	 1.1713914717e+00
 1.8140887769e-01	 2.1393862953e+00	 1.1386922485e+00
 3.6876649071e-01	 2.1241137102e+00	 1.0940830228e+00
 3.4996225428e-01	 2.1272926712e+00	 1.1330352134e+00
 3.3118410329e-01	 2.1302968601e+00	 1.1649002019e+00
 3.1243423184e-01	 2.1331273831e+00	 1.1894117379e+00
 2.9371480163e-01	 2.1357853785e+00	 1.2063185428e+00
 2.7502794149e-01	 2.1382720151e+00	 1.2153853775e+00
 2.5637574698e-01	 2.1405884919e+00	 1.2163935591e+00
 2.3776027995e-01	 2.1427360369e+00	 1.2091409992e+00
 2.1918356822e-01	 2.1447159060e+00	 1.1934418351e+00
 2.0064760521e-01	 2.1465293824e+00	 1.1691257207e+00
 1.8215434964e-01	 2.1481777751e+00	 1.1360368408e+00
 3.7027567826e-01	 2.1328067071e+00	 1.0968523519e+00
 3.5139448495e-01	 2.1359986781e+00	 1.1357720048e+00
 3.3253948383e-01	 2.1390151617e+00	 1.1674432743e+00
 3.1371287799e-01	 2.1418572687e+00	 1.1916203797e+00
 2.9491683797e-01	 2.1445261420e+00	 1.2080766627e+00
 2.7615350131e-01	 2.1470229552e+00	 1.2166053062e+00
 2.5742497215e-01	 2.1493489123e+00	 1.2170195018e+00
 2.3873332078e-01	 2.1515052462e+00	 1.2091521386e+00
 2.2008058332e-01	 2.1534932180e+00	 1.1928550875e+00
 2.0146876135e-01	 2.1553141161e+00	 1.1679981501e+00
 1.8289982160e-01	 2.1569692549e+00	 1.1344677366e+00
 3.7178486581e-01	 2.1414997040e+00	 1.1007496068e+00
 3.5282671562e-01	 2.1447046850e+00	 1.1397241230e+00
 3.3389486437e-01	 2.1477334633e+00	 1.1712452675e+00
 3.1499152414e-01	 2.1505871544e+00	 1.1950929731e+00
 2.9611887431e-01	 2.1532669055e+00	 1.2110719372e+00
 2.7727906114e-01	 2.1557738954e+00	 1.2190116662e+00
 2.5847419733e-01	 2.1581093328e+00	 1.2187662480e+00
 2.3970636162e-01	 2.1602744555e+00	 1.2102136470e+00
 2.2097759843e-01	 2.1622705300e+00	 1.1932545966e+00
 2.0228991749e-01	 2.1640988498e+00	 1.1678111599e+00
 1.8364529355e-01	 2.1657607347e+00	 1.1338250262e+00
 3.7329405336e-01	 2.1501927009e+00	 1.1059317783e+00
 3.5425894628e-01	 2.1534106919e+00	 1.1449467203e+00
 3.3525024491e-01	 2.1564517649e+00	 1.1762757357e+00
 3.1627017029e-01	 2.1593170400e+00	 1.1997291698e+00
 2.9732091064e-01	 2.1620076691e+00	 1.2151497272e+00
 2.7840462096e-01	 2.1645248356e+00	 1.2224110460e+00
 2.5952342250e-01	 2.1668697532e+00	 1.2214170305e+00
 2.4067940246e-01	 2.1690436649e+00	 1.2121007078e+00
 2.2187461353e-01	 2.1710478420e+00	 1.1944226826e+00
 2.0311107363e-01	 2.1728835834e+00	 1.1683692654e+00
 1.8439076551e-01	 2.1745522145e+00	 1.1339503423e+00
 3.7480324091e-01	 2.1588856978e+00	 1.1125521234e+00
 3.5569117695e-01	 2.1621166988e+00	 1.1514930864e+00
 3.3660562545e-01	 2.1651700666e+00	 1.1825037134e+00
 3.1754881644e-01	 2.1680469256e+00	 1.2054291955e+00
 2.9852294698e-01	 2.1707484326e+00	 1.2201568148e+00
 2.7953018078e-01	 2.1732757758e+00	 1.2266120588e+00
 2.6057264767e-01	 2.1756301736e+00	 1.2247574700e+00
 2.4165244329e-01	 2.1778128742e+00	 1.2145910178e+00
 2.2277162864e-01	 2.1798251540e+00	 1.1961440718e+00
 2.0393222977e-01	 2.1816683171e+00	 1.1694790512e+00
 1.8513623746e-01	 2.1833436942e+00	 1.1346868235e+00
 3.7631242846e-01	 2.1675786947e+00	 1.1207606109e+00
 3.5712340762e-01	 2.1708227057e+00	 1.1594147007e+00
 3.3796100599e-01	 2.1738883682e+00	 1.1898977385e+00
 3.1882746258e-01	 2.1767768112e+00	 1.2120938483e+00
 2.9972498332e-01	 2.1794891962e+00	 1.2259413814e+00
 2.8065574060e-01	 2.1820267160e+00	 1.2314253060e+00
 2.6162187285e-01	 2.1843905940e+00	 1.2285755288e+00
 2.4262548413e-01	 2.1865820835e+00	 1.2174647376e+00
 2.2366864375e-01	 2.1886024660e+00	 1.1982058473e+00
 2.0475338591e-01	 2.1904530508e+00	 1.1709491266e+00
 1.8588170942e-01	 2.1921351740e+00	 1.1358790800e+00
 3.7782161601e-01	 2.1762716916e+00	 1.1307040097e+00
 3.5855563829e-01	 2.1795287126e+00	 1.1687612838e+00
 3.3931638653e-01	 2.1826066698e+00	 1.1984258748e+00
 3.2010610873e-01	 2.1855066969e+00	 1.2196244971e+00
 3.0092701966e-01	 2.1882299597e+00	 1.2323529876e+00
 2.8178130042e-01	 2.1907776561e+00	 1.2366633428e+00
 2.6267109802e-01	 2.1931510145e+00	 1.2326614671e+00
 2.4359852496e-01	 2.1953512928e+00	 1.2205044422e+00
 2.2456565885e-01	 2.1973797780e+00	 1.2003974000e+00
 2.0557454205e-01	 2.1992377845e+00	 1.1725900821e+00
 1.8662718137e-01	 2.2009266538e+00	 1.1373731594e+00
 3.7933080355e-01	 2.1849646885e+00	 1.1425259733e+00
 3.5998786895e-01	 2.1882347194e+00	 1.1795808485e+00
 3.4067176707e-01	 2.1913249715e+00	 1.2080557345e+00
 3.2138475488e-01	 2.1942365825e+00	 1.2279230805e+00
 3.0212905599e-01	 2.1969707233e+00	 1.2392425531e+00
 2.8290686024e-01	 2.1995285963e+00	 1.2421406439e+00
 2.6372032320e-01	 2.2019114349e+00	 1.2368077999e+00
 2.4457156580e-01	 2.2041205021e+00	 1.2234950742e+00
 2.2546267395e-01	 2.2061570900e+00	 1.2025103821e+00
 2.0639569819e-01	 2.2080225182e+00	 1.1742144471e+00
 1.8737265333e-01	 2.2097181336e+00	 1.1390165141e+00
 3.8083999110e-01	 2.1936576854e+00	 1.1563671238e+00
 3.6142009962e-01	 2.1969407263e+00	 1.1919197497e+00
 3.4202714761e-01	 2.2000432731e+00	 1.2187545002e+00
 3.2266340102e-01	 2.2029664681e+00	 1.2368921058e+00
 3.0333109233e-01	 2.2057114868e+00	 1.2464623378e+00
 2.8403242006e-01	 2.2082795365e+00	 1.2476735715e+00
 2.6476954837e-01	 2.2106718553e+00	 1.2408092554e+00
 2.4554460663e-01	 2.2128897114e+00	 1.2262238976e+00
 2.2635968906e-01	 2.2149344020e+00	 1.2043386607e+00
 2.0721685432e-01	 2.2168072519e+00	 1.1756366488e+00
 1.8811812528e-01	 2.2185096134e+00	 1.1406579695e+00
 3.8234917865e-01	 2.2023506823e+00	 1.1723651325e+00
 3.6285233028e-01	 2.2056467332e+00	 1.2058227338e+00
 3.4338252815e-01	 2.2087615747e+00	 1.2304889473e+00
 3.2394204717e-01	 2.2116963537e+00	 1.2464346492e+00
 3.0453312866e-01	 2.2144522504e+00	 1.2538659232e+00
 2.8515797987e-01	 2.2170304767e+00	 1.2530803431e+00
 2.6581877354e-01	 2.2194322757e+00	 1.2444627344e+00
 2.4651764747e-01	 2.2216589208e+00	 1.2284804533e+00
 2.2725670416e-01	 2.2237117139e+00	 1.2056757429e+00
 2.0803801046e-01	 2.2255919856e+00	 1.1766632913e+00
 1.8886359723e-01	 2.2273010932e+00	 1.1421319800e+00
 1.8140887769e-01	 2.1393862953e+00	 1.1386922485e+00
 1.6303886681e-01	 2.1408646252e+00	 1.1042626763e+00
 1.4471512630e-01	 2.1421812835e+00	 1.0752637162e+00
 1.2643945885e-01	 2.1433376453e+00	 1.0516066826e+00
 1.0821363280e-01	 2.1443351079e+00	 1.0332205193e+00
 9.0039381901e-02	 2.1451750900e+00	 1.0200500041e+00
 7.1918405228e-02	 2.1458590307e+00	 1.0120539714e+00
 5.3852366984e-02	 2.1463883885e+00	 1.0092035886e+00
 3.5842896417e-02	 2.1467646406e+00	 1.0114807216e+00
 1.7891587727e-02	 2.1469892817e+00	 1.0188764173e+00
 0.0000000000e+00	 2.1470638235e+00	 1.0313895291e+00
 1.8215434964e-01	 2.1481777751e+00	 1.1360368408e+00
 1.6370885003e-01	 2.1496621800e+00	 1.1014199819e+00
 1.4530981091e-01	 2.1509842489e+00	 1.0724767125e+00
 1.2695904241e-01	 2.1521453625e+00	 1.0490313882e+00
 1.0865832012e-01	 2.1531469241e+00	 1.0309277150e+00
 9.0409384930e-02	 2.1539903579e+00	 1.0180268177e+00
 7.2213942883e-02	 2.1546771092e+00	 1.0102053344e+00
 5.4073665026e-02	 2.1552086423e+00	 1.0073535760e+00
 3.5990187302e-02	 2.1555864406e+00	 1.0093737839e+00
 1.7965110462e-02	 2.1558120048e+00	 1.0161785153e+00
 0.0000000000e+00	 2.1558868529e+00	 1.0276891831e+00
 1.8289982160e-01	 2.1569692549e+00	 1.1344677366e+00
 1.6437883324e-01	 2.1584597348e+00	 1.0996319614e+00
 1.4590449553e-01	 2.1597872142e+00	 1.0707306439e+00
 1.2747862598e-01	 2.1609530798e+00	 1.0475046424e+00
 1.0910300745e-01	 2.1619587402e+00	 1.0297145234e+00
 9.0779387959e-02	 2.1628056259e+00	 1.0171385184e+00
 7.2509480538e-02	 2.1634951877e+00	 1.0095705158e+00
 5.4294963068e-02	 2.1640288961e+00	 1.0068181293e+00
 3.6137478187e-02	 2.1644082405e+00	 1.0087008758e+00
 1.8038633198e-02	 2.1646347279e+00	 1.0150484927e+00
 0.0000000000e+00	 2.1647098823e+00	 1.0256994228e+00
 1.8364529355e-01	 2.1657607347e+00	 1.1338250262e+00
 1.6504881646e-01	 2.1672572895e+00	 1.0987751135e+00
 1.4649918014e-01	 2.1685901796e+00	 1.0699208564e+00
 1.2799820954e-01	 2.1697607970e+00	 1.0469231496e+00
 1.0954769477e-01	 2.1707705564e+00	 1.0294616003e+00
 9.1149390988e-02	 2.1716208938e+00	 1.0172323954e+00
 7.2805018193e-02	 2.1723132662e+00	 1.0099462172e+00
 5.4516261110e-02	 2.1728491500e+00	 1.0073262464e+00
 3.6284769073e-02	 2.1732300405e+00	 1.0091062874e+00
 1.8112155933e-02	 2.1734574510e+00	 1.0150290473e+00
 0.0000000000e+00	 2.1735329117e+00	 1.0248445937e+00
 1.8439076551e-01	 2.1745522145e+00	 1.1339503423e+00
 1.6571879967e-01	 2.1760548443e+00	 1.0987269415e+00
 1.4709386476e-01	 2.1773931450e+00	 1.0699434638e+00
 1.2851779310e-01	 2.1785685143e+00	 1.0471844469e+00
 1.0999238210e-01	 2.1795823726e+00	 1.0300507990e+00
 9.1519394018e-02	 2.1804361618e+00	 1.0181576008e+00
 7.3100555849e-02	 2.1811313447e+00	 1.0111319687e+00
 5.4737559153e-02	 2.1816694038e+00	 1.0086110186e+00
 3.6432059958e-02	 2.1820518404e+00	 1.0102399662e+00
 1.8185678669e-02	 2.1822801741e+00	 1.0156703945e+00
 0.0000000000e+00	 2.1823559412e+00	 1.0245587160e+00
 1.8513623746e-01	 2.1833436942e+00	 1.1346868235e+00
 1.6638878288e-01	 2.1848523990e+00	 1.0993659275e+00
 1.4768854937e-01	 2.1861961103e+00	 1.0706953263e+00
 1.2903737666e-01	 2.1873762315e+00	 1.0481868799e+00
 1.1043706942e-01	 2.1883941887e+00	 1.0313651391e+00
 9.1889397047e-02	 2.1892514297e+00	 1.0197651056e+00
 7.3396093504e-02	 2.1899494232e+00	 1.0129300661e+00
 5.4958857195e-02	 2.1904896576e+00	 1.0104095436e+00
 3.6579350844e-02	 2.1908736404e+00	 1.0117573985e+00
 1.8259201405e-02	 2.1911028972e+00	 1.0165301137e+00
 0.0000000000e+00	 2.1911789706e+00	 1.0242852892e+00
 1.8588170942e-01	 2.1921351740e+00	 1.1358790800e+00
 1.6705876610e-01	 2.1936499538e+00	 1.1005715069e+00
 1.4828323398e-01	 2.1949990757e+00	 1.0720740287e+00
 1.2955696022e-01	 2.1961839488e+00	 1.0498295798e+00
 1.1088175675e-01	 2.1972060049e+00	 1.0332887764e+00
 9.2259400077e-02	 2.1980666977e+00	 1.0219076561e+00
 7.3691631160e-02	 2.1987675017e+00	 1.0151455089e+00
 5.5180155238e-02	 2.1993099114e+00	 1.0124628389e+00
 3.6726641730e-02	 2.1996954404e+00	 1.0133194946e+00
 1.8332724141e-02	 2.1999256203e+00	 1.0171729985e+00
 0.0000000000e+00	 2.2000020000e+00	 1.0234771026e+00
 1.8662718137e-01	 2.2009266538e+00	 1.1373731594e+00
 1.6772874931e-01	 2.2024475085e+00	 1.1022240440e+00
 1.4887791859e-01	 2.2038020411e+00	 1.0739778599e+00
 1.3007654378e-01	 2.2049916661e+00	 1.0520124412e+00
 1.1132644407e-01	 2.2060178211e+00	 1.0357069729e+00
 9.2629403106e-02	 2.2068819656e+00	 1.0244397324e+00
 7.3987168815e-02	 2.2075855802e+00	 1.0175859403e+00
 5.5401453280e-02	 2.2081301652e+00	 1.0145157590e+00
 3.6873932615e-02	 2.2085172403e+00	 1.0145924770e+00
 1.8406246877e-02	 2.2087483434e+00	 1.0171709106e+00
 0.0000000000e+00	 2.2088250294e+00	 1.0215960493e+00
 1.8737265333e-01	 2.2097181336e+00	 1.1390165141e+00
 1.6839873252e-01	 2.2112450633e+00	 1.1042048081e+00
 1.4947260321e-01	 2.2126050064e+00	 1.0763057925e+00
 1.3059612734e-01	 2.2137993833e+00	 1.0546361000e+00
 1.1177113140e-01	 2.2148296373e+00	 1.0385060681e+00
 9.2999406135e-02	 2.2156972336e+00	 1.0272175062e+00
 7.4282706470e-02	 2.2164036587e+00	 1.0200615885e+00
 5.5622751322e-02	 2.2169504190e+00	 1.0163169137e+00
 3.7021223500e-02	 2.2173390403e+00	 1.0152477704e+00
 1.8479769612e-02	 2.2175710665e+00	 1.0161026367e+00
 0.0000000000e+00	 2.2176480588e+00	 1.0181129453e+00
 1.8811812528e-01	 2.2185096134e+00	 1.1406579695e+00
 1.6906871573e-01	 2.2200426181e+00	 1.1063959503e+00
 1.5006728782e-01	 2.2214079718e+00	 1.0789574635e+00
 1.3111571090e-01	 2.2226071006e+00	 1.0576018837e+00
 1.1221581872e-01	 2.2236414534e+00	 1.0415732531e+00
 9.3369409163e-02	 2.2245125015e+00	 1.0300982992e+00
 7.4578244125e-02	 2.2252217372e+00	 1.0223836659e+00
 5.5844049364e-02	 2.2257706728e+00	 1.0176144048e+00
 3.7168514385e-02	 2.2261608403e+00	 1.0149528085e+00
 1.8553292348e-02	 2.2263937896e+00	 1.0135373972e+00
 0.0000000000e+00	 2.2264710882e+00	 1.0124820445e+00
 1.8886359723e-01	 2.2273010932e+00	 1.1421319800e+00
 1.6973869895e-01	 2.2288401728e+00	 1.1086629020e+00
 1.5066197243e-01	 2.2302109371e+00	 1.0818180873e+00
 1.3163529446e-01	 2.2314148178e+00	 1.0608016280e+00
 1.1266050604e-01	 2.2324532696e+00	 1.0447904372e+00
 9.3739412190e-02	 2.2333277695e+00	 1.0329328920e+00
 7.4873781778e-02	 2.2340398157e+00	 1.0243476791e+00
 5.6065347405e-02	 2.2345909267e+00	 1.0181228241e+00
 3.7315805270e-02	 2.2349826402e+00	 1.0133148921e+00
 1.8626815083e-02	 2.2352165126e+00	 1.0089483388e+00
 0.0000000000e+00	 2.2352941176e+00	 1.0040150030e+00
 2.2352941176e+00	 0.0000000000e+00	 2.1147008493e+00
 2.2352165126e+00	 1.8626815083e-02	 3.0902122731e+00
 2.2349826402e+00	 3.7315805270e-02	 3.6653336262e+00
 2.2345909267e+00	 5.6065347405e-02	 3.8969751058e+00
 2.2340398157e+00	 7.4873781778e-02	 3.8424062480e+00
 2.2333277695e+00	 9.3739412190e-02	 3.5591941626e+00
 2.2324532696e+00	 1.1266050604e-01	 3.1051420496e+00
 2.2314148178e+00	 1.3163529446e-01	 2.5382278621e+00
 2.2302109371e+00	 1.5066197243e-01	 1.9165429621e+00
 2.2288401728e+00	 1.6973869895e-01	 1.2982306007e+00
 2.2273010932e+00	 1.8886359723e-01	 7.4142404078e-01
 2.2441171470e+00	 0.0000000000e+00	 2.9334428299e+00
 2.2440392357e+00	 1.8700337818e-02	 3.2772530887e+00
 2.2438044402e+00	 3.7463096154e-02	 3.4463087597e+00
 2.2434111805e+00	 5.6286645446e-02	 3.4644556467e+00
 2.2428578942e+00	 7.5169319431e-02	 3.3552988159e+00
 2.2421430375e+00	 9.4109415217e-02	 3.1421700039e+00
 2.2412650858e+00	 1.1310519337e-01	 2.8480968149e+00
 2.2402225351e+00	 1.3215487802e-01	 2.4957735603e+00
 2.2390139025e+00	 1.5125665704e-01	 2.1075335716e+00
 2.2376377276e+00	 1.7040868216e-01	 1.7053228014e+00
 2.2360925730e+00	 1.8960906919e-01	 1.3106745109e+00
 2.2529401764e+00	 0.0000000000e+00	 3.6231556750e+00
 2.2528619588e+00	 1.8773860553e-02	 3.4343862014e+00
 2.2526262402e+00	 3.7610387038e-02	 3.2612056212e+00
 2.2522314343e+00	 5.6507943486e-02	 3.0995212020e+00
 2.2516759727e+00	 7.5464857084e-02	 2.9445083431e+00
 2.2509583054e+00	 9.4479418243e-02	 2.7906034994e+00
 2.2500769020e+00	 1.1354988069e-01	 2.6315001721e+00
 2.2490302523e+00	 1.3267446158e-01	 2.4601478093e+00
 2.2478168679e+00	 1.5185134165e-01	 2.2687534307e+00
 2.2464352823e+00	 1.7107866537e-01	 2.0487857744e+00
 2.2448840528e+00	 1.9035454114e-01	 1.7909817418e+00
 2.2617632059e+00	 0.0000000000e+00	 4.1887388372e+00
 2.2616846819e+00	 1.8847383288e-02	 3.5640747135e+00
 2.2614480401e+00	 3.7757677922e-02	 3.1106330885e+00
 2.2610516881e+00	 5.6729241526e-02	 2.8014471428e+00
 2.2604940512e+00	 7.5760394736e-02	 2.6084350449e+00
 2.2597735734e+00	 9.4849421268e-02	 2.5024147566e+00
 2.2588887181e+00	 1.1399456801e-01	 2.4531229592e+00
 2.2578379696e+00	 1.3319404514e-01	 2.4292379267e+00
 2.2566198332e+00	 1.5244602626e-01	 2.3984061475e+00
 2.2552328371e+00	 1.7174864857e-01	 2.3272724719e+00
 2.2536755325e+00	 1.9110001309e-01	 2.1815135428e+00
 2.2705862353e+00	 0.0000000000e+00	 4.6350086465e+00
 2.2705074050e+00	 1.8920906022e-02	 3.6687382504e+00
 2.2702698401e+00	 3.7904968805e-02	 2.9951870719e+00
 2.2698719419e+00	 5.6950539565e-02	 2.5695181887e+00
 2.2693121297e+00	 7.6055932387e-02	 2.3455035634e+00
 2.2685888413e+00	 9.5219424293e-02	 2.2755571240e+00
 2.2677005343e+00	 1.1443925533e-01	 2.3107727909e+00
 2.2666456868e+00	 1.3371362869e-01	 2.4009672648e+00
 2.2654227986e+00	 1.5304071086e-01	 2.4947273588e+00
 2.2640303919e+00	 1.7241863178e-01	 2.5394616334e+00
 2.2624670123e+00	 1.9184548504e-01	 2.4814560722e+00
 2.2794092647e+00	 0.0000000000e+00	 4.9666999187e+00
 2.2793301281e+00	 1.8994428757e-02	 3.7507538212e+00
 2.2790916401e+00	 3.8052259688e-02	 2.9154508009e+00
 2.2786921957e+00	 5.7171837604e-02	 2.4030282749e+00
 2.2781302082e+00	 7.6351470039e-02	 2.1541625531e+00
 2.2774041093e+00	 9.5589427318e-02	 2.1080166113e+00
 2.2765123505e+00	 1.1488394265e-01	 2.2022934123e+00
 2.2754534041e+00	 1.3423321225e-01	 2.3732945768e+00
 2.2742257640e+00	 1.5363539547e-01	 2.5559841683e+00
 2.2728279466e+00	 1.7308861499e-01	 2.6840573338e+00
 2.2712584921e+00	 1.9259095699e-01	 2.6900135150e+00
 2.2882322941e+00	 0.0000000000e+00	 5.1884675273e+00
 2.2881528512e+00	 1.9067951492e-02	 3.8124566602e+00
 2.2879134400e+00	 3.8199550571e-02	 2.8719951048e+00
 2.2875124496e+00	 5.7393135643e-02	 2.3012804232e+00
 2.2869482867e+00	 7.6647007690e-02	 2.0328842753e+00
 2.2862193772e+00	 9.5959430343e-02	 1.9978113232e+00
 2.2853241667e+00	 1.1532862997e-01	 2.1255640680e+00
 2.2842611214e+00	 1.3475279581e-01	 2.3442133973e+00
 2.2830287293e+00	 1.5423008008e-01	 2.5804745966e+00
 2.2816255014e+00	 1.7375859820e-01	 2.7597885411e+00
 2.2800499719e+00	 1.9333642894e-01	 2.8064077665e+00
 2.2970553235e+00	 0.0000000000e+00	 5.3048879389e+00
 2.2969755743e+00	 1.9141474226e-02	 3.8561410481e+00
 2.2967352400e+00	 3.8346841455e-02	 2.8653786854e+00
 2.2963327034e+00	 5.7614433683e-02	 2.2635866160e+00
 2.2957663652e+00	 7.6942545342e-02	 1.9801642022e+00
 2.2950346452e+00	 9.6329433368e-02	 1.9429909061e+00
 2.2941359828e+00	 1.1577331729e-01	 2.0784988840e+00
 2.2930688386e+00	 1.3527237936e-01	 2.3117514363e+00
 2.2918316947e+00	 1.5482476469e-01	 2.5665270425e+00
 2.2904230561e+00	 1.7442858141e-01	 2.7654086829e+00
 2.2888414517e+00	 1.9408190089e-01	 2.8298781214e+00
 2.3058783529e+00	 0.0000000000e+00	 5.3204607128e+00
 2.3057982974e+00	 1.9214996961e-02	 3.8840611152e+00
 2.3055570400e+00	 3.8494132338e-02	 2.8961483850e+00
 2.3051529572e+00	 5.7835731722e-02	 2.2892676722e+00
 2.3045844437e+00	 7.7238082994e-02	 1.9945206301e+00
 2.3038499131e+00	 9.6699436393e-02	 1.9416360061e+00
 2.3029477990e+00	 1.1621800461e-01	 2.0590462645e+00
 2.3018765559e+00	 1.3579196292e-01	 2.2739699862e+00
 2.3006346601e+00	 1.5541944930e-01	 2.5124997563e+00
 2.2992206109e+00	 1.7509856462e-01	 2.6996952215e+00
 2.2976329315e+00	 1.9482737284e-01	 2.7596809689e+00
 2.3147013824e+00	 0.0000000000e+00	 5.2396099669e+00
 2.3146210205e+00	 1.9288519696e-02	 3.8984316252e+00
 2.3143788399e+00	 3.8641423222e-02	 2.9648394473e+00
 2.3139732110e+00	 5.8057029762e-02	 2.3776531265e+00
 2.3134025222e+00	 7.7533620647e-02	 2.0744943001e+00
 2.3126651811e+00	 9.7069439419e-02	 1.9918577404e+00
 2.3117596152e+00	 1.1666269193e-01	 2.0651883011e+00
 2.3106842731e+00	 1.3631154648e-01	 2.2289633418e+00
 2.3094376254e+00	 1.5601413391e-01	 2.4167803238e+00
 2.3080181656e+00	 1.7576854783e-01	 2.5614492375e+00
 2.3064244113e+00	 1.9557284479e-01	 2.5950894927e+00
 2.3235244118e+00	 0.0000000000e+00	 5.0666858104e+00
 2.3234437436e+00	 1.9362042431e-02	 3.9014287423e+00
 2.3232006399e+00	 3.8788714106e-02	 3.0719757723e+00
 2.3227934648e+00	 5.8278327803e-02	 2.5280811112e+00
 2.3222206007e+00	 7.7829158300e-02	 2.2186480282e+00
 2.3214804490e+00	 9.7439442445e-02	 2.0917971792e+00
 2.3205714314e+00	 1.1710737926e-01	 2.0949401950e+00
 2.3194919904e+00	 1.3683113004e-01	 2.1748582325e+00
 2.3182405908e+00	 1.5660881852e-01	 2.2777851608e+00
 2.3168157204e+00	 1.7643853104e-01	 2.3494950218e+00
 2.3152158911e+00	 1.9631831674e-01	 2.3353933764e+00
 2.2273010932e+00	 1.8886359723e-01	 7.4142404078e-01
 2.2255919856e+00	 2.0803801046e-01	 3.3229892447e-01
 2.2237117139e+00	 2.2725670416e-01	 1.0081542910e-01
 2.2216589208e+00	 2.4651764747e-01	 2.0183697907e-02
 2.2194322757e+00	 2.6581877354e-01	 6.3081761108e-02
 2.2170304767e+00	 2.8515797987e-01	 2.0201045866e-01
 2.2144522504e+00	 3.0453312866e-01	 4.0931996594e-01
 2.2116963537e+00	 3.2394204717e-01	 6.5718695550e-01
 2.2087615747e+00	 3.4338252815e-01	 9.1767178380e-01
 2.2056467332e+00	 3.6285233028e-01	 1.1627767123e+00
 2.2023506823e+00	 3.8234917865e-01	 1.3858549402e+00
 2.2360925730e+00	 1.8960906919e-01	 1.3106745109e+00
 2.2343767193e+00	 2.0885916660e-01	 9.8603324095e-01
 2.2324890259e+00	 2.2815371926e-01	 7.7032753304e-01
 2.2304281301e+00	 2.4749068830e-01	 6.4911164998e-01
 2.2281926962e+00	 2.6686799871e-01	 6.0772223650e-01
 2.2257814168e+00	 2.8628353969e-01	 6.3131547381e-01
 2.2231930139e+00	 3.0573516500e-01	 7.0490498017e-01
 2.2204262394e+00	 3.2522069331e-01	 8.1333072570e-01
 2.2174798763e+00	 3.4473790869e-01	 9.4120436307e-01
 2.2143527401e+00	 3.6428456095e-01	 1.0733935396e+00
 2.2110436792e+00	 3.8385836620e-01	 1.2213364370e+00
 2.2448840528e+00	 1.9035454114e-01	 1.7909817418e+00
 2.2431614530e+00	 2.0968032273e-01	 1.5376500216e+00
 2.2412663379e+00	 2.2905073436e-01	 1.3351277620e+00
 2.2391973394e+00	 2.4846372913e-01	 1.1794000033e+00
 2.2369531166e+00	 2.6791722388e-01	 1.0663296783e+00
 2.2345323570e+00	 2.8740909951e-01	 9.9168511979e-01
 2.2319337775e+00	 3.0693720133e-01	 9.5116788554e-01
 2.2291561250e+00	 3.2649933946e-01	 9.4044056942e-01
 2.2261981779e+00	 3.4609328922e-01	 9.5515425947e-01
 2.2230587470e+00	 3.6571679161e-01	 9.9097530712e-01
 2.2197366761e+00	 3.8536755374e-01	 1.0755392679e+00
 2.2536755325e+00	 1.9110001309e-01	 2.1815135428e+00
 2.2519461867e+00	 2.1050147887e-01	 1.9867639657e+00
 2.2500436499e+00	 2.2994774946e-01	 1.7951361361e+00
 2.2479665487e+00	 2.4943676996e-01	 1.6111635971e+00
 2.2457135370e+00	 2.6896644905e-01	 1.4393208690e+00
 2.2432832972e+00	 2.8853465932e-01	 1.2840430375e+00
 2.2406745410e+00	 3.0813923766e-01	 1.1497453108e+00
 2.2378860106e+00	 3.2777798560e-01	 1.0408422062e+00
 2.2349164796e+00	 3.4744866976e-01	 9.6176602032e-01
 2.2317647539e+00	 3.6714902227e-01	 9.1698424204e-01
 2.2284296730e+00	 3.8687674129e-01	 9.4887568973e-01
 2.2624670123e+00	 1.9184548504e-01	 2.4814560722e+00
 2.2607309204e+00	 2.1132263500e-01	 2.3330015527e+00
 2.2588209619e+00	 2.3084476456e-01	 2.1502798911e+00
 2.2567357580e+00	 2.5040981079e-01	 1.9445127180e+00
 2.2544739575e+00	 2.7001567422e-01	 1.7268936058e+00
 2.2520342374e+00	 2.8966021914e-01	 1.5086014579e+00
 2.2494153045e+00	 3.0934127399e-01	 1.3008135955e+00
 2.2466158962e+00	 3.2905663174e-01	 1.1147181922e+00
 2.2436347812e+00	 3.4880405029e-01	 9.6152570652e-01
 2.2404707608e+00	 3.6858125293e-01	 8.5247896078e-01
 2.2371226699e+00	 3.8838592883e-01	 8.4282432184e-01
 2.2712584921e+00	 1.9259095699e-01	 2.6900135150e+00
 2.2695156541e+00	 2.1214379113e-01	 2.5760008278e+00
 2.2675982739e+00	 2.3174177966e-01	 2.4004933294e+00
 2.2655049673e+00	 2.5138285162e-01	 2.1795618340e+00
 2.2632343779e+00	 2.7106489939e-01	 1.9292482463e+00
 2.2607851776e+00	 2.9078577895e-01	 1.6655744617e+00
 2.2581560681e+00	 3.1054331033e-01	 1.4045507695e+00
 2.2553457818e+00	 3.3033527789e-01	 1.1621834006e+00
 2.2523530828e+00	 3.5015943083e-01	 9.5448085967e-01
 2.2491767677e+00	 3.7001348360e-01	 7.9745868308e-01
 2.2458156668e+00	 3.8989511638e-01	 7.5740694957e-01
 2.2800499719e+00	 1.9333642894e-01	 2.8064077665e+00
 2.2783003878e+00	 2.1296494727e-01	 2.7154111912e+00
 2.2763755859e+00	 2.3263879476e-01	 2.5457176711e+00
 2.2742741767e+00	 2.5235589245e-01	 2.3164294732e+00
 2.2719947983e+00	 2.7211412455e-01	 2.0465875856e+00
 2.2695361177e+00	 2.9191133877e-01	 1.7551778310e+00
 2.2668968316e+00	 3.1174534666e-01	 1.4611363646e+00
 2.2640756675e+00	 3.3161392403e-01	 1.1833541883e+00
 2.2610713844e+00	 3.5151481136e-01	 9.4068031096e-01
 2.2578827746e+00	 3.7144571426e-01	 7.5207162026e-01
 2.2545086637e+00	 3.9140430392e-01	 6.9255439877e-01
 2.2888414517e+00	 1.9408190089e-01	 2.8298781214e+00
 2.2870851215e+00	 2.1378610340e-01	 2.7508931892e+00
 2.2851528979e+00	 2.3353580986e-01	 2.5859009068e+00
 2.2830433860e+00	 2.5332893328e-01	 2.3552381020e+00
 2.2807552187e+00	 2.7316334972e-01	 2.0791167316e+00
 2.2782870579e+00	 2.9303689858e-01	 1.7776289011e+00
 2.2756375952e+00	 3.1294738299e-01	 1.4707512267e+00
 2.2728055531e+00	 3.3289257017e-01	 1.1783481604e+00
 2.2697896861e+00	 3.5287019190e-01	 9.2017389543e-01
 2.2665887815e+00	 3.7287794492e-01	 7.1668319015e-01
 2.2632016606e+00	 3.9291349147e-01	 6.4819566965e-01
 2.2976329315e+00	 1.9482737284e-01	 2.7596809689e+00
 2.2958698551e+00	 2.1460725954e-01	 2.6821183089e+00
 2.2939302098e+00	 2.3443282496e-01	 2.5209976511e+00
 2.2918125953e+00	 2.5430197411e-01	 2.2961140039e+00
 2.2895156391e+00	 2.7421257489e-01	 2.0270429808e+00
 2.2870379981e+00	 2.9416245840e-01	 1.7331464114e+00
 2.2843783587e+00	 3.1414941932e-01	 1.4335773278e+00
 2.2815354387e+00	 3.3417121631e-01	 1.1472839343e+00
 2.2785079877e+00	 3.5422557243e-01	 8.9301216734e-01
 2.2752947884e+00	 3.7431017558e-01	 6.9126587748e-01
 2.2718946575e+00	 3.9442267901e-01	 6.2425792790e-01
 2.3064244113e+00	 1.9557284479e-01	 2.5950894927e+00
 2.3046545888e+00	 2.1542841567e-01	 2.5087687755e+00
 2.3027075218e+00	 2.3532984006e-01	 2.3509689973e+00
 2.3005818046e+00	 2.5527501495e-01	 2.1391871579e+00
 2.2982760596e+00	 2.7526180006e-01	 1.8905756936e+00
 2.2957889383e+00	 2.9528801822e-01	 1.6219503567e+00
 2.2931191223e+00	 3.1535145565e-01	 1.3497975778e+00
 2.2902653243e+00	 3.3544986246e-01	 1.0902809049e+00
 2.2872262893e+00	 3.5558095297e-01	 8.5924611655e-01
 2.2840007953e+00	 3.7574240624e-01	 6.7576929251e-01
 2.2805876544e+00	 3.9593186656e-01	 6.2066649710e-01
 2.3152158911e+00	 1.9631831674e-01	 2.3353933764e+00
 2.3134393225e+00	 2.1624957181e-01	 2.2305373519e+00
 2.3114848338e+00	 2.3622685516e-01	 2.0757823730e+00
 2.3093510139e+00	 2.5624805578e-01	 1.8845911170e+00
 2.3070364800e+00	 2.7631102523e-01	 1.6699261688e+00
 2.3045398784e+00	 2.9641357803e-01	 1.4442618375e+00
 2.3018598858e+00	 3.1655349199e-01	 1.2195956365e+00
 2.2989952099e+00	 3.3672850860e-01	 1.0074590100e+00
 2.2959445909e+00	 3.5693633350e-01	 8.1892688587e-01
 2.2927068022e+00	 3.7717463691e-01	 6.7014113915e-01
 2.2892806513e+00	 3.9744105410e-01	 6.3734485258e-01
 2.2023506823e+00	 3.8234917865e-01	 1.3858549402e+00
 2.1988729154e+00	 4.0186744582e-01	 1.5876340740e+00
 2.1952118086e+00	 4.2140810864e-01	 1.7192801024e+00
 2.1913663186e+00	 4.4096880104e-01	 1.7881950649e+00
 2.1873354389e+00	 4.6054712568e-01	 1.8017925424e+00
 2.1831182005e+00	 4.8014065454e-01	 1.7674891566e+00
 2.1787136732e+00	 4.9974692960e-01	 1.6926948549e+00
 2.1741209666e+00	 5.1936346347e-01	 1.5848019068e+00
 2.1693392306e+00	 5.3898774018e-01	 1.4511725362e+00
 2.1643676566e+00	 5.5861721583e-01	 1.2991251164e+00
 2.1592054782e+00	 5.7824931944e-01	 1.1359188575e+00
 2.2110436792e+00	 3.8385836620e-01	 1.2213364370e+00
 2.2075521850e+00	 4.0345367480e-01	 1.3876809161e+00
 2.2038766273e+00	 4.2307146744e-01	 1.5141979521e+00
 2.2000159587e+00	 4.4270936872e-01	 1.6024705346e+00
 2.1959691684e+00	 4.6236497184e-01	 1.6540615140e+00
 2.1917352840e+00	 4.8203583920e-01	 1.6705123048e+00
 2.1873133714e+00	 5.0171950306e-01	 1.6533405480e+00
 2.1827025368e+00	 5.2141346623e-01	 1.6040366464e+00
 2.1779019266e+00	 5.4111520280e-01	 1.5240590902e+00
 2.1729107290e+00	 5.6082215883e-01	 1.4148284892e+00
 2.1677281748e+00	 5.8053175320e-01	 1.2777202297e+00
 2.2197366761e+00	 3.8536755374e-01	 1.0755392679e+00
 2.2162314547e+00	 4.0503990377e-01	 1.2111590628e+00
 2.2125414461e+00	 4.2473482623e-01	 1.3322929011e+00
 2.2086655987e+00	 4.4444993640e-01	 1.4357248185e+00
 2.2046028980e+00	 4.6418281800e-01	 1.5181995833e+00
 2.2003523675e+00	 4.8393102385e-01	 1.5764275269e+00
 2.1959130696e+00	 5.0369207652e-01	 1.6070884657e+00
 2.1912841069e+00	 5.2346346899e-01	 1.6068346225e+00
 2.1864646225e+00	 5.4324266542e-01	 1.5722924553e+00
 2.1814538014e+00	 5.6302710183e-01	 1.5000633000e+00
 2.1762508713e+00	 5.8281418696e-01	 1.3867227376e+00
 2.2284296730e+00	 3.8687674129e-01	 9.4887568973e-01
 2.2249107243e+00	 4.0662613274e-01	 1.0580273598e+00
 2.2212062648e+00	 4.2639818503e-01	 1.1734978745e+00
 2.2173152387e+00	 4.4619050408e-01	 1.2879645046e+00
 2.2132366276e+00	 4.6600066416e-01	 1.3942840187e+00
 2.2089694510e+00	 4.8582620851e-01	 1.4853673885e+00
 2.2045127678e+00	 5.0566464998e-01	 1.5540985915e+00
 2.1998656770e+00	 5.2551347175e-01	 1.5933427721e+00
 2.1950273184e+00	 5.4537012804e-01	 1.5959533909e+00
 2.1899968738e+00	 5.6523204483e-01	 1.5547782611e+00
 2.1847735679e+00	 5.8509662071e-01	 1.4626643732e+00
 2.2371226699e+00	 3.8838592883e-01	 8.4282432184e-01
 2.2335899940e+00	 4.0821236171e-01	 9.2949348791e-01
 2.2298710835e+00	 4.2806154382e-01	 1.0383000027e+00
 2.2259648788e+00	 4.4793107176e-01	 1.1592861587e+00
 2.2218703571e+00	 4.6781851032e-01	 1.2823907242e+00
 2.2175865345e+00	 4.8772139316e-01	 1.3974622232e+00
 2.2131124661e+00	 5.0763722344e-01	 1.4945282325e+00
 2.2084472472e+00	 5.2756347451e-01	 1.5637055287e+00
 2.2035900143e+00	 5.4749759066e-01	 1.5951211393e+00
 2.1985399462e+00	 5.6743698783e-01	 1.5789225637e+00
 2.1932962644e+00	 5.8737905447e-01	 1.5052868121e+00
 2.2458156668e+00	 3.8989511638e-01	 7.5740694957e-01
 2.2422692636e+00	 4.0979859068e-01	 8.2593778501e-01
 2.2385359023e+00	 4.2972490262e-01	 9.2751652246e-01
 2.2346145188e+00	 4.4967163944e-01	 1.0504175103e+00
 2.2305040867e+00	 4.6963635648e-01	 1.1828235362e+00
 2.2262036180e+00	 4.8961657782e-01	 1.3128434854e+00
 2.2217121643e+00	 5.0960979690e-01	 1.4285320941e+00
 2.2170288173e+00	 5.2961347727e-01	 1.5180648964e+00
 2.2121527103e+00	 5.4962505327e-01	 1.5698734835e+00
 2.2070830186e+00	 5.6964193084e-01	 1.5724459007e+00
 2.2018189609e+00	 5.8966148822e-01	 1.5143353764e+00
 2.2545086637e+00	 3.9140430392e-01	 6.9255439877e-01
 2.2509485333e+00	 4.1138481965e-01	 7.4731245367e-01
 2.2472007210e+00	 4.3138826141e-01	 8.4115144062e-01
 2.2432641588e+00	 4.5141220712e-01	 9.6155442718e-01
 2.2391378163e+00	 4.7145420264e-01	 1.0959364130e+00
 2.2348207015e+00	 4.9151176247e-01	 1.2316631388e+00
 2.2303118625e+00	 5.1158237036e-01	 1.3560713697e+00
 2.2256103874e+00	 5.3166348003e-01	 1.4564907575e+00
 2.2207154062e+00	 5.5175251589e-01	 1.5202868049e+00
 2.2156260910e+00	 5.7184687384e-01	 1.5352984892e+00
 2.2103416575e+00	 5.9194392198e-01	 1.4895590003e+00
 2.2632016606e+00	 3.9291349147e-01	 6.4819566965e-01
 2.2596278029e+00	 4.1297104862e-01	 6.9356725156e-01
 2.2558655397e+00	 4.3305162021e-01	 7.7919649604e-01
 2.2519137988e+00	 4.5315277479e-01	 8.9274051247e-01
 2.2477715458e+00	 4.7327204880e-01	 1.0218235831e+00
 2.2434377850e+00	 4.9340694713e-01	 1.1540560530e+00
 2.2389115607e+00	 5.1355494382e-01	 1.2770546914e+00
 2.2341919575e+00	 5.3371348279e-01	 1.3784646350e+00
 2.2292781021e+00	 5.5387997851e-01	 1.4459830131e+00
 2.2241691634e+00	 5.7405181684e-01	 1.4673843519e+00
 2.2188643540e+00	 5.9422635573e-01	 1.4307101975e+00
 2.2718946575e+00	 3.9442267901e-01	 6.2425792790e-01
 2.2683070726e+00	 4.1455727759e-01	 6.6464950043e-01
 2.2645303585e+00	 4.3471497900e-01	 7.4164010772e-01
 2.2605634389e+00	 4.5489334247e-01	 8.4401505822e-01
 2.2564052754e+00	 4.7508989496e-01	 9.6057371246e-01
 2.2520548686e+00	 4.9530213178e-01	 1.0801473895e+00
 2.2475112589e+00	 5.1552751728e-01	 1.1916187083e+00
 2.2427735277e+00	 5.3576348554e-01	 1.2839424754e+00
 2.2378407980e+00	 5.5600744113e-01	 1.3461682272e+00
 2.2327122358e+00	 5.7625675983e-01	 1.3674645235e+00
 2.2273870506e+00	 5.9650878948e-01	 1.3371450858e+00
 2.2805876544e+00	 3.9593186656e-01	 6.2066649710e-01
 2.2769863422e+00	 4.1614350656e-01	 6.6050409626e-01
 2.2731951772e+00	 4.3637833780e-01	 7.2846740892e-01
 2.2692130789e+00	 4.5663391015e-01	 8.1541310671e-01
 2.2650390049e+00	 4.7690774112e-01	 9.1227032252e-01
 2.2606719521e+00	 4.9719731644e-01	 1.0100565161e+00
 2.2561109571e+00	 5.1750009074e-01	 1.0998947012e+00
 2.2513550978e+00	 5.3781348830e-01	 1.1730321514e+00
 2.2464034940e+00	 5.5813490375e-01	 1.2208606968e+00
 2.2412553082e+00	 5.7846170283e-01	 1.2349387139e+00
 2.2359097471e+00	 5.9879122324e-01	 1.2070149075e+00
 2.2892806513e+00	 3.9744105410e-01	 6.3734485258e-01
 2.2856656119e+00	 4.1772973553e-01	 6.8107352049e-01
 2.2818599959e+00	 4.3804169659e-01	 7.3966028209e-01
 2.2778627189e+00	 4.5837447783e-01	 8.0696551200e-01
 2.2736727345e+00	 4.7872558728e-01	 8.7699187855e-01
 2.2692890356e+00	 4.9909250109e-01	 9.4389711666e-01
 2.2647106553e+00	 5.1947266420e-01	 1.0020080540e+00
 2.2599366679e+00	 5.3986349106e-01	 1.0458360135e+00
 2.2549661899e+00	 5.6026236637e-01	 1.0700937094e+00
 2.2497983806e+00	 5.8066664583e-01	 1.0697137476e+00
 2.2444324436e+00	 6.0107365699e-01	 1.0398688322e+00
 2.1592054782e+00	 5.7824931944e-01	 1.1359188575e+00
 2.1538519729e+00	 5.9788145400e-01	 9.7933758437e-01
 2.1483064638e+00	 6.1751099811e-01	 8.4379915158e-01
 2.1425683196e+00	 6.3713530613e-01	 7.3163615621e-01
 2.1366369545e+00	 6.5675170875e-01	 6.4540949300e-01
 2.1305118294e+00	 6.7635751393e-01	 5.8789752895e-01
 2.1241924524e+00	 6.9595000784e-01	 5.6208315180e-01
 2.1176783796e+00	 7.1552645584e-01	 5.7113862498e-01
 2.1109692158e+00	 7.3508410348e-01	 6.1840818849e-01
 2.1040646156e+00	 7.5462017753e-01	 6.9881646312e-01
 2.0969642834e+00	 7.7413188700e-01	 7.9229960889e-01
 2.1677281748e+00	 5.8053175320e-01	 1.2777202297e+00
 2.1623535384e+00	 6.0024137863e-01	 1.1282724422e+00
 2.1567861403e+00	 6.1994840339e-01	 9.8481332371e-01
 2.1510253468e+00	 6.3965017140e-01	 8.5305540773e-01
 2.1450705698e+00	 6.5934400280e-01	 7.3895531186e-01
 2.1389212680e+00	 6.7902719493e-01	 6.4869852755e-01
 2.1325769474e+00	 6.9869702325e-01	 5.8868195715e-01
 2.1260371626e+00	 7.1835074232e-01	 5.6549413404e-01
 2.1193015169e+00	 7.3798558683e-01	 5.8589306891e-01
 2.1123696632e+00	 7.5759877259e-01	 6.4437892845e-01
 2.1052413049e+00	 7.7718749760e-01	 7.2740374301e-01
 2.1762508713e+00	 5.8281418696e-01	 1.3867227376e+00
 2.1708551038e+00	 6.0260130326e-01	 1.2458084620e+00
 2.1652658169e+00	 6.2238580868e-01	 1.0985790733e+00
 2.1594823741e+00	 6.4216503667e-01	 9.5337440760e-01
 2.1535041851e+00	 6.6193629684e-01	 8.1879195784e-01
 2.1473307065e+00	 6.8169687593e-01	 7.0366824531e-01
 2.1409614425e+00	 7.0144403866e-01	 6.1705783040e-01
 2.1343959457e+00	 7.2117502881e-01	 5.6820990140e-01
 2.1276338179e+00	 7.4088707018e-01	 5.6654100725e-01
 2.1206747107e+00	 7.6057736764e-01	 6.0478209605e-01
 2.1135183265e+00	 7.8024310820e-01	 6.7653322223e-01
 2.1847735679e+00	 5.8509662071e-01	 1.4626643732e+00
 2.1793566693e+00	 6.0496122789e-01	 1.3314504483e+00
 2.1737454935e+00	 6.2482321396e-01	 1.1844162800e+00
 2.1679394014e+00	 6.4467990193e-01	 1.0317853397e+00
 2.1619378004e+00	 6.6452859089e-01	 8.8405014596e-01
 2.1557401451e+00	 6.8436655692e-01	 7.5195117709e-01
 2.1493459376e+00	 7.0419105406e-01	 6.4645333522e-01
 2.1427547288e+00	 7.2399931529e-01	 5.7871990050e-01
 2.1359661189e+00	 7.4378855353e-01	 5.5968662860e-01
 2.1289797583e+00	 7.6355596270e-01	 5.8021118959e-01
 2.1217953480e+00	 7.8329871880e-01	 6.4041005284e-01
 2.1932962644e+00	 5.8737905447e-01	 1.5052868121e+00
 2.1878582348e+00	 6.0732115253e-01	 1.3847104267e+00
 2.1822251700e+00	 6.2726061925e-01	 1.2416548148e+00
 2.1763964286e+00	 6.4719476720e-01	 1.0874922429e+00
 2.1703714157e+00	 6.6712088494e-01	 9.3387326146e-01
 2.1641495836e+00	 6.8703623792e-01	 7.9270411381e-01
 2.1577304326e+00	 7.0693806947e-01	 6.7612162639e-01
 2.1511135119e+00	 7.2682360177e-01	 5.9646551878e-01
 2.1442984200e+00	 7.4669003687e-01	 5.6478184774e-01
 2.1372848059e+00	 7.6653455776e-01	 5.7084960021e-01
 2.1300723696e+00	 7.8635432940e-01	 6.1974586676e-01
 2.2018189609e+00	 5.8966148822e-01	 1.5143353764e+00
 2.1963598003e+00	 6.0968107716e-01	 1.4051075416e+00
 2.1907048466e+00	 6.2969802453e-01	 1.2696343881e+00
 2.1848534559e+00	 6.4970963247e-01	 1.1197108252e+00
 2.1788050310e+00	 6.6971317899e-01	 9.6741716059e-01
 2.1725590222e+00	 6.8970591892e-01	 8.2509595296e-01
 2.1661149277e+00	 7.0968508488e-01	 7.0532629576e-01
 2.1594722949e+00	 7.2964788825e-01	 6.2089546738e-01
 2.1526307210e+00	 7.4959152022e-01	 5.8160591490e-01
 2.1455898535e+00	 7.6951315282e-01	 5.7687886783e-01
 2.1383493911e+00	 7.8940994000e-01	 6.1524206342e-01
 2.2103416575e+00	 5.9194392198e-01	 1.4895590003e+00
 2.2048613658e+00	 6.1204100179e-01	 1.3921679578e+00
 2.1991845231e+00	 6.3213542981e-01	 1.2677044008e+00
 2.1933104832e+00	 6.5222449773e-01	 1.1276682830e+00
 2.1872386464e+00	 6.7230547303e-01	 9.8384997727e-01
 2.1809684607e+00	 6.9237559992e-01	 8.4830751497e-01
 2.1744994227e+00	 7.1243210028e-01	 7.3334122333e-01
 2.1678310780e+00	 7.3247217473e-01	 6.5146569455e-01
 2.1609630220e+00	 7.5249300356e-01	 6.0994262593e-01
 2.1538949010e+00	 7.7249174788e-01	 5.9847866107e-01
 2.1466264126e+00	 7.9246555060e-01	 6.2758994657e-01
 2.2188643540e+00	 5.9422635573e-01	 1.4307101975e+00
 2.2133629312e+00	 6.1440092642e-01	 1.3454247655e+00
 2.2076641997e+00	 6.3457283509e-01	 1.2352238012e+00
 2.2017675104e+00	 6.5473936300e-01	 1.1106031258e+00
 2.1956722617e+00	 6.7489776708e-01	 9.8235193570e-01
 2.1893778993e+00	 6.9504528091e-01	 8.6153136525e-01
 2.1828839178e+00	 7.1517911569e-01	 7.5945043317e-01
 2.1761898611e+00	 7.3529646121e-01	 6.8763930260e-01
 2.1692953231e+00	 7.5539448691e-01	 6.4958018260e-01
 2.1621999486e+00	 7.7547034294e-01	 6.3582675579e-01
 2.1549034342e+00	 7.9552116120e-01	 6.5747085600e-01
 2.2273870506e+00	 5.9650878948e-01	 1.3371450858e+00
 2.2218644967e+00	 6.1676085105e-01	 1.2644178880e+00
 2.2161438762e+00	 6.3701024038e-01	 1.1715609460e+00
 2.2102245377e+00	 6.5725422827e-01	 1.0677650068e+00
 2.2041058770e+00	 6.7749006113e-01	 9.6211516855e-01
 2.1977873378e+00	 6.9771496191e-01	 8.6397164175e-01
 2.1912684129e+00	 7.1792613110e-01	 7.8294795420e-01
 2.1845486441e+00	 7.3812074769e-01	 7.2888646831e-01
 2.1776276241e+00	 7.5829597026e-01	 7.0031105439e-01
 2.1705049962e+00	 7.7844893799e-01	 6.8909901239e-01
 2.1631804557e+00	 7.9857677180e-01	 7.0555629446e-01
 2.2359097471e+00	 5.9879122324e-01	 1.2070149075e+00
 2.2303660622e+00	 6.1912077568e-01	 1.1475204174e+00
 2.2246235528e+00	 6.3944764566e-01	 1.0759749608e+00
 2.2186815650e+00	 6.5976909353e-01	 9.9841455821e-01
 2.2125394923e+00	 6.8008235517e-01	 9.2234354068e-01
 2.2061967764e+00	 7.0038464291e-01	 8.5484388787e-01
 2.1996529079e+00	 7.2067314650e-01	 8.0313768566e-01
 2.1929074272e+00	 7.4094503417e-01	 7.7468230981e-01
 2.1859599251e+00	 7.6119745360e-01	 7.6193184174e-01
 2.1788100438e+00	 7.8142753305e-01	 7.5846935172e-01
 2.1714574772e+00	 8.0163238240e-01	 7.7250804982e-01
 2.2444324436e+00	 6.0107365699e-01	 1.0398688322e+00
 2.2388676277e+00	 6.2148070031e-01	 9.9288806912e-01
 2.2331032293e+00	 6.4188505094e-01	 9.4581045416e-01
 2.2271385922e+00	 6.6228395880e-01	 9.0127565237e-01
 2.2209731076e+00	 6.8267464922e-01	 8.6225247826e-01
 2.2146062150e+00	 7.0305432391e-01	 8.3337489059e-01
 2.2080374030e+00	 7.2342016191e-01	 8.1933326708e-01
 2.2012662103e+00	 7.4376932065e-01	 8.2418475219e-01
 2.1942922261e+00	 7.6409893695e-01	 8.3424314058e-01
 2.1871150913e+00	 7.8440612811e-01	 8.4410972985e-01
 2.1797344988e+00	 8.0468799300e-01	 8.5897831255e-01
 2.0969642834e+00	 7.7413188700e-01	 7.9229960889e-01
 2.0896667173e+00	 7.9361973424e-01	 9.0516778249e-01
 2.0821729134e+00	 8.1307757453e-01	 1.0373612568e+00
 2.0744827292e+00	 8.3250256787e-01	 1.1811211469e+00
 2.0665960749e+00	 8.5189186097e-01	 1.3285707750e+00
 2.0585129138e+00	 8.7124258838e-01	 1.4717306659e+00
 2.0502332634e+00	 8.9055187374e-01	 1.6025359503e+00
 2.0417571950e+00	 9.0981683097e-01	 1.7128562644e+00
 2.0330848350e+00	 9.2903456551e-01	 1.7945182170e+00
 2.0242163646e+00	 9.4820217558e-01	 1.8393304872e+00
 2.0151520210e+00	 9.6731675346e-01	 1.8391115986e+00
 2.1052413049e+00	 7.7718749760e-01	 7.2740374301e-01
 2.0979149343e+00	 7.9675226620e-01	 8.4455613386e-01
 2.0903915513e+00	 8.1628690940e-01	 9.9360332929e-01
 2.0826710128e+00	 8.3578857600e-01	 1.1635849908e+00
 2.0747532287e+00	 8.5525440144e-01	 1.3434305312e+00
 2.0666381623e+00	 8.7468150897e-01	 1.5219785168e+00
 2.0583258308e+00	 8.9406701088e-01	 1.6879985837e+00
 2.0498163062e+00	 9.1340800969e-01	 1.8302159477e+00
 2.0411097151e+00	 9.3270159940e-01	 1.9373385819e+00
 2.0322062396e+00	 9.5194486680e-01	 1.9980871165e+00
 2.0231061177e+00	 9.7113489269e-01	 2.0012275036e+00
 2.1135183265e+00	 7.8024310820e-01	 6.7653322223e-01
 2.1061631513e+00	 7.9988479815e-01	 7.9385842107e-01
 2.0986101891e+00	 8.1949624426e-01	 9.5332921415e-01
 2.0908592964e+00	 8.3907458413e-01	 1.1415710363e+00
 2.0829103825e+00	 8.5861694191e-01	 1.3451020015e+00
 2.0747634107e+00	 8.7812042957e-01	 1.5503555868e+00
 2.0664183983e+00	 8.9758214802e-01	 1.7437059242e+00
 2.0578754174e+00	 9.1699918840e-01	 1.9114957831e+00
 2.0491345952e+00	 9.3636863330e-01	 2.0400673106e+00
 2.0401961146e+00	 9.5568755803e-01	 2.1157955858e+00
 2.0310602143e+00	 9.7495303193e-01	 2.1251250264e+00
 2.1217953480e+00	 7.8329871880e-01	 6.4041005284e-01
 2.1144113683e+00	 8.0301733011e-01	 7.5434431229e-01
 2.1068288270e+00	 8.2270557913e-01	 9.1824424891e-01
 2.0990475800e+00	 8.4236059225e-01	 1.1170990463e+00
 2.0910675363e+00	 8.6197948239e-01	 1.3357889020e+00
 2.0828886591e+00	 8.8155935017e-01	 1.5591098734e+00
 2.0745109657e+00	 9.0109728516e-01	 1.7718014185e+00
 2.0659345285e+00	 9.2059036712e-01	 1.9585767158e+00
 2.0571594753e+00	 9.4003566719e-01	 2.1041558305e+00
 2.0481859895e+00	 9.5943024926e-01	 2.1933017817e+00
 2.0390143110e+00	 9.7877117116e-01	 2.2108595490e+00
 2.1300723696e+00	 7.8635432940e-01	 6.1974586676e-01
 2.1226595853e+00	 8.0614986206e-01	 7.2726439793e-01
 2.1150474649e+00	 8.2591491400e-01	 8.9002774063e-01
 2.1072358636e+00	 8.4564660038e-01	 1.0921576971e+00
 2.0992246901e+00	 8.6534202286e-01	 1.3176608480e+00
 2.0910139075e+00	 8.8499827076e-01	 1.5504544464e+00
 2.0826035331e+00	 9.0461242230e-01	 1.7743950887e+00
 2.0739936397e+00	 9.2418154583e-01	 1.9733102444e+00
 2.0651843554e+00	 9.4370270109e-01	 2.1310327172e+00
 2.0561758645e+00	 9.6317294048e-01	 2.2314380915e+00
 2.0469684077e+00	 9.8258931039e-01	 2.2584852045e+00
 2.1383493911e+00	 7.8940994000e-01	 6.1524206342e-01
 2.1309078023e+00	 8.0928239402e-01	 7.1385049666e-01
 2.1232661027e+00	 8.2912424886e-01	 8.7033340240e-01
 2.1154241471e+00	 8.4893260851e-01	 1.0687051093e+00
 2.1073818440e+00	 8.6870456333e-01	 1.2928539395e+00
 2.0991391559e+00	 8.8843719136e-01	 1.5265680462e+00
 2.0906961006e+00	 9.0812755944e-01	 1.7535640997e+00
 2.0820527509e+00	 9.2777272455e-01	 1.9575189091e+00
 2.0732092355e+00	 9.4736973498e-01	 2.1221040531e+00
 2.0641657395e+00	 9.6691563171e-01	 2.2310235796e+00
 2.0549225044e+00	 9.8640744962e-01	 2.2680548158e+00
 2.1466264126e+00	 7.9246555060e-01	 6.2758994657e-01
 2.1391560192e+00	 8.1241492597e-01	 7.1531595232e-01
 2.1314847406e+00	 8.3233358373e-01	 8.6078977772e-01
 2.1236124307e+00	 8.5221861663e-01	 1.0486693635e+00
 2.1155389978e+00	 8.7206710381e-01	 1.2634713314e+00
 2.1072644043e+00	 8.9187611195e-01	 1.4895956663e+00
 2.0987886680e+00	 9.1164269658e-01	 1.7113533111e+00
 2.0901118620e+00	 9.3136390326e-01	 1.9129967666e+00
 2.0812341156e+00	 9.5103676888e-01	 2.0787537762e+00
 2.0721556144e+00	 9.7065832294e-01	 2.1928641583e+00
 2.0628766011e+00	 9.9022558885e-01	 2.2396198342e+00
 2.1549034342e+00	 7.9552116120e-01	 6.5747085600e-01
 2.1474042362e+00	 8.1554745792e-01	 7.3285592222e-01
 2.1397033784e+00	 8.3554291859e-01	 8.6300065322e-01
 2.1318007143e+00	 8.5550462476e-01	 1.0339490033e+00
 2.1236961516e+00	 8.7542964428e-01	 1.2315837885e+00
 2.1153896527e+00	 8.9531503255e-01	 1.4416491213e+00
 2.1068812354e+00	 9.1515783372e-01	 1.6497758141e+00
 2.0981709732e+00	 9.3495508198e-01	 1.8415098515e+00
 2.0892589957e+00	 9.5470380277e-01	 2.0023440184e+00
 2.0801454894e+00	 9.7440101416e-01	 2.1177527525e+00
 2.0708306978e+00	 9.9404372809e-01	 2.1732302772e+00
 2.1631804557e+00	 7.9857677180e-01	 7.0555629446e-01
 2.1556524532e+00	 8.1867998988e-01	 7.6764765686e-01
 2.1479220163e+00	 8.3875225346e-01	 8.7854545994e-01
 2.1399889979e+00	 8.5879063289e-01	 1.0264135240e+00
 2.1318533054e+00	 8.7879218475e-01	 1.1992302255e+00
 2.1235149012e+00	 8.9875395314e-01	 1.3848075989e+00
 2.1149738029e+00	 9.1867297086e-01	 1.5708134547e+00
 2.1062300844e+00	 9.3854626069e-01	 1.7447966256e+00
 2.0972838758e+00	 9.5837083667e-01	 1.8942154337e+00
 2.0881353644e+00	 9.7814370539e-01	 2.0064694583e+00
 2.0787847945e+00	 9.9786186732e-01	 2.0689346658e+00
 2.1714574772e+00	 8.0163238240e-01	 7.7250804982e-01
 2.1639006702e+00	 8.2181252183e-01	 8.2085077134e-01
 2.1561406541e+00	 8.4196158833e-01	 9.0897966355e-01
 2.1481772815e+00	 8.6207664101e-01	 1.0279038485e+00
 2.1400104593e+00	 8.8215472523e-01	 1.1684182331e+00
 2.1316401496e+00	 9.0219287374e-01	 1.3211181975e+00
 2.1230663703e+00	 9.2218810800e-01	 1.4764173421e+00
 2.1142891955e+00	 9.4213743941e-01	 1.6245684143e+00
 2.1053087559e+00	 9.6203787056e-01	 1.7556875178e+00
 2.0961252394e+00	 9.8188639661e-01	 1.8597816961e+00
 2.0867388912e+00	 1.0016800066e+00	 1.9267799603e+00
 2.1797344988e+00	 8.0468799300e-01	 8.5897831255e-01
 2.1721488872e+00	 8.2494505378e-01	 8.9360750882e-01
 2.1643592920e+00	 8.4517092319e-01	 9.5583514376e-01
 2.1563655651e+00	 8.6536264914e-01	 1.0402327907e+00
 2.1481676131e+00	 8.8551726570e-01	 1.1411245896e+00
 2.1397653980e+00	 9.0563179433e-01	 1.2525964496e+00
 2.1311589378e+00	 9.2570324514e-01	 1.3685083443e+00
 2.1223483067e+00	 9.4572861812e-01	 1.4825098318e+00
 2.1133336360e+00	 9.6570490446e-01	 1.5880589172e+00
 2.1041151143e+00	 9.8562908784e-01	 1.6784443581e+00
 2.0946929879e+00	 1.0054981458e+00	 1.7468114971e+00
 2.0151520210e+00	 9.6731675346e-01	 1.8391115986e+00
 2.0058936872e+00	 9.8637215194e-01	 1.7971349288e+00
 1.9964401871e+00	 1.0053687097e+00	 1.7277048284e+00
 1.9867919245e+00	 1.0243035093e+00	 1.6391701506e+00
 1.9769493602e+00	 1.0431736330e+00	 1.5398194557e+00
 1.9669130120e+00	 1.0619761634e+00	 1.4378987088e+00
 1.9566834547e+00	 1.0807081850e+00	 1.3416316174e+00
 1.9462613205e+00	 1.0993667861e+00	 1.2592425715e+00
 1.9356472989e+00	 1.1179490594e+00	 1.1997680206e+00
 1.9248421368e+00	 1.1364521039e+00	 1.1798288744e+00
 1.9138466387e+00	 1.1548730262e+00	 1.2095392677e+00
 2.0231061177e+00	 9.7113489269e-01	 2.0012275036e+00
 2.0138112399e+00	 9.9026550559e-01	 1.9464315007e+00
 2.0043204254e+00	 1.0093370455e+00	 1.8491170044e+00
 1.9946340798e+00	 1.0283465836e+00	 1.7216592123e+00
 1.9847526655e+00	 1.0472911903e+00	 1.5763346107e+00
 1.9746767024e+00	 1.0661679370e+00	 1.4253330735e+00
 1.9644067675e+00	 1.0849738967e+00	 1.2807726631e+00
 1.9539434956e+00	 1.1037061459e+00	 1.1547171086e+00
 1.9432875789e+00	 1.1223617662e+00	 1.0613295730e+00
 1.9324397673e+00	 1.1409378449e+00	 1.0210988979e+00
 1.9214008684e+00	 1.1594314772e+00	 1.0464256954e+00
 2.0310602143e+00	 9.7495303193e-01	 2.1251250264e+00
 2.0217287927e+00	 9.9415885924e-01	 2.0640046171e+00
 2.0122006638e+00	 1.0133053813e+00	 1.9477541281e+00
 2.0024762350e+00	 1.0323896578e+00	 1.7918641210e+00
 1.9925559707e+00	 1.0514087477e+00	 1.6116965239e+00
 1.9824403927e+00	 1.0703597106e+00	 1.4224924539e+00
 1.9721300803e+00	 1.0892396083e+00	 1.2393828108e+00
 1.9616256708e+00	 1.1080455058e+00	 1.0774016196e+00
 1.9509278590e+00	 1.1267744729e+00	 9.5564524537e-01
 1.9400373978e+00	 1.1454235858e+00	 8.9633976337e-01
 1.9289550980e+00	 1.1639899281e+00	 9.1398341131e-01
 2.0390143110e+00	 9.7877117116e-01	 2.2108595490e+00
 2.0296463454e+00	 9.9805221288e-01	 2.1490945066e+00
 2.0200809022e+00	 1.0172737171e+00	 2.0221897346e+00
 2.0103183903e+00	 1.0364327320e+00	 1.8478508898e+00
 2.0003592760e+00	 1.0555263050e+00	 1.6436334976e+00
 1.9902040830e+00	 1.0745514842e+00	 1.4269478160e+00
 1.9798533931e+00	 1.0935053199e+00	 1.2150665382e+00
 1.9693078459e+00	 1.1123848656e+00	 1.0251629753e+00
 1.9585681390e+00	 1.1311871796e+00	 8.8099633953e-01
 1.9476350283e+00	 1.1499093267e+00	 8.0449287856e-01
 1.9365093277e+00	 1.1685483791e+00	 8.1204534164e-01
 2.0469684077e+00	 9.8258931039e-01	 2.2584852045e+00
 2.0375638981e+00	 1.0019455665e+00	 2.2009528059e+00
 2.0279611406e+00	 1.0212420529e+00	 2.0710191422e+00
 2.0181605456e+00	 1.0404758062e+00	 1.8877152400e+00
 2.0081625813e+00	 1.0596438623e+00	 1.6699088545e+00
 1.9979677734e+00	 1.0787432579e+00	 1.4363076796e+00
 1.9875767059e+00	 1.0977710315e+00	 1.2054654705e+00
 1.9769900210e+00	 1.1167242254e+00	 9.9632316376e-01
 1.9662084191e+00	 1.1355998864e+00	 8.3568594204e-01
 1.9552326588e+00	 1.1543950677e+00	 7.4451127696e-01
 1.9440635574e+00	 1.1731068301e+00	 7.4044228250e-01
 2.0549225044e+00	 9.8640744962e-01	 2.2680548158e+00
 2.0454814508e+00	 1.0058389202e+00	 2.2188422540e+00
 2.0358413790e+00	 1.0252103887e+00	 2.0928589452e+00
 2.0260027009e+00	 1.0445188804e+00	 1.9095819427e+00
 2.0159658865e+00	 1.0637614196e+00	 1.6883201774e+00
 2.0057314637e+00	 1.0829350315e+00	 1.4482173118e+00
 1.9953000187e+00	 1.1020367432e+00	 1.2082575836e+00
 1.9846721962e+00	 1.1210635852e+00	 9.8893971697e-01
 1.9738486991e+00	 1.1400125931e+00	 8.1803859768e-01
 1.9628302893e+00	 1.1588808086e+00	 7.1535949582e-01
 1.9516177871e+00	 1.1776652811e+00	 6.9900305182e-01
 2.0628766011e+00	 9.9022558885e-01	 2.2396198342e+00
 2.0533990035e+00	 1.0097322738e+00	 2.2020363916e+00
 2.0437216173e+00	 1.0291787245e+00	 2.0863465179e+00
 2.0338448562e+00	 1.0485619546e+00	 1.9116041731e+00
 2.0237691918e+00	 1.0678789769e+00	 1.6966985649e+00
 2.0134951541e+00	 1.0871268051e+00	 1.4603579366e+00
 2.0030233315e+00	 1.1063024548e+00	 1.2211564246e+00
 1.9923543713e+00	 1.1254029451e+00	 1.0009393432e+00
 1.9814889792e+00	 1.1444252999e+00	 8.2639999474e-01
 1.9704279198e+00	 1.1633665496e+00	 7.1601346143e-01
 1.9591720168e+00	 1.1822237321e+00	 6.8755464253e-01
 2.0708306978e+00	 9.9404372809e-01	 2.1732302772e+00
 2.0613165562e+00	 1.0136256275e+00	 2.1498192642e+00
 2.0516018557e+00	 1.0331470603e+00	 2.0501395272e+00
 2.0416870115e+00	 1.0526050288e+00	 1.8919628781e+00
 2.0315724971e+00	 1.0719965342e+00	 1.6929079022e+00
 2.0212588444e+00	 1.0913185787e+00	 1.4704459609e+00
 2.0107466443e+00	 1.1105681664e+00	 1.2419103479e+00
 2.0000365464e+00	 1.1297423049e+00	 1.0302759052e+00
 1.9891292592e+00	 1.1488380066e+00	 8.5913666170e-01
 1.9780255504e+00	 1.1678522905e+00	 7.4546038126e-01
 1.9667262465e+00	 1.1867821831e+00	 7.0592237640e-01
 2.0787847945e+00	 9.9786186732e-01	 2.0689346658e+00
 2.0692341089e+00	 1.0175189811e+00	 2.0614851316e+00
 2.0594820941e+00	 1.0371153961e+00	 1.9829154545e+00
 2.0495291668e+00	 1.0566481030e+00	 1.8488661560e+00
 2.0393758023e+00	 1.0761140915e+00	 1.6748441466e+00
 2.0290225348e+00	 1.0955103524e+00	 1.4762322166e+00
 2.0184699571e+00	 1.1148338780e+00	 1.2685285167e+00
 2.0077187215e+00	 1.1340816647e+00	 1.0749299987e+00
 1.9967695393e+00	 1.1532507134e+00	 9.1463567497e-01
 1.9856231809e+00	 1.1723380314e+00	 8.0269864272e-01
 1.9742804762e+00	 1.1913406340e+00	 7.5393005876e-01
 2.0867388912e+00	 1.0016800066e+00	 1.9267799603e+00
 2.0771516616e+00	 1.0214123348e+00	 1.9363381808e+00
 2.0673623325e+00	 1.0410837320e+00	 1.8833711264e+00
 2.0573713221e+00	 1.0606911772e+00	 1.7805486482e+00
 2.0471791076e+00	 1.0802316489e+00	 1.6404346272e+00
 2.0367862251e+00	 1.0997021260e+00	 1.4755012173e+00
 2.0261932699e+00	 1.1190995897e+00	 1.2991783497e+00
 2.0154008967e+00	 1.1384210245e+00	 1.1329085448e+00
 2.0044098193e+00	 1.1576634201e+00	 9.9130437739e-01
 1.9932208114e+00	 1.1768237724e+00	 8.8673771854e-01
 1.9818347058e+00	 1.1958990850e+00	 8.3140013393e-01
 2.0946929879e+00	 1.0054981458e+00	 1.7468114971e+00
 2.0850692143e+00	 1.0253056884e+00	 1.7736922435e+00
 2.0752425708e+00	 1.0450520678e+00	 1.7502222542e+00
 2.0652134774e+00	 1.0647342514e+00	 1.6852709437e+00
 2.0549824128e+00	 1.0843492062e+00	 1.5876373586e+00
 2.0445499154e+00	 1.1038938996e+00	 1.4660704302e+00
 2.0339165827e+00	 1.1233653013e+00	 1.3316925131e+00
 2.0230830718e+00	 1.1427603843e+00	 1.2022443954e+00
 2.0120500994e+00	 1.1620761269e+00	 1.0875701073e+00
 2.0008184419e+00	 1.1813095133e+00	 9.9659807841e-01
 1.9893889355e+00	 1.2004575360e+00	 9.3815384143e-01
 1.9138466387e+00	 1.1548730262e+00	 1.2095392677e+00
 1.9026616668e+00	 1.1732089420e+00	 1.2709009413e+00
 1.8912881428e+00	 1.1914569792e+00	 1.3367337347e+00
 1.8797270459e+00	 1.2096142776e+00	 1.4010357127e+00
 1.8679794125e+00	 1.2276779903e+00	 1.4579541456e+00
 1.8560463358e+00	 1.2456452853e+00	 1.5017992559e+00
 1.8439289659e+00	 1.2635133463e+00	 1.5271175597e+00
 1.8316285092e+00	 1.2812793748e+00	 1.5298820206e+00
 1.8191462282e+00	 1.2989405909e+00	 1.5072598100e+00
 1.8064834412e+00	 1.3164942352e+00	 1.4565101585e+00
 1.7936415219e+00	 1.3339375697e+00	 1.3749289625e+00
 1.9214008684e+00	 1.1594314772e+00	 1.0464256954e+00
 1.9101717478e+00	 1.1778397675e+00	 1.1237771568e+00
 1.8987533309e+00	 1.1961598323e+00	 1.2250322095e+00
 1.8871466006e+00	 1.2143888002e+00	 1.3397437794e+00
 1.8753525976e+00	 1.2325238130e+00	 1.4576612470e+00
 1.8633724193e+00	 1.2505620275e+00	 1.5687509919e+00
 1.8512072204e+00	 1.2685006164e+00	 1.6632173123e+00
 1.8388582120e+00	 1.2863367699e+00	 1.7322602179e+00
 1.8263266616e+00	 1.3040676974e+00	 1.7688697590e+00
 1.8136138928e+00	 1.3216906284e+00	 1.7663098616e+00
 1.8007212846e+00	 1.3392028144e+00	 1.7179619632e+00
 1.9289550980e+00	 1.1639899281e+00	 9.1398341131e-01
 1.9176818288e+00	 1.1824705930e+00	 9.9970345100e-01
 1.9062185189e+00	 1.2008626855e+00	 1.1257801692e+00
 1.8945661553e+00	 1.2191633228e+00	 1.2782269008e+00
 1.8827257827e+00	 1.2373696358e+00	 1.4432906678e+00
 1.8706985028e+00	 1.2554787697e+00	 1.6074782339e+00
 1.8584854749e+00	 1.2734878864e+00	 1.7575817104e+00
 1.8460879148e+00	 1.2913941650e+00	 1.8808763956e+00
 1.8335070951e+00	 1.3091948039e+00	 1.9668481854e+00
 1.8207443444e+00	 1.3268870217e+00	 2.0057054286e+00
 1.8078010473e+00	 1.3444680590e+00	 1.9877270862e+00
 1.9365093277e+00	 1.1685483791e+00	 8.1204534164e-01
 1.9251919098e+00	 1.1871014185e+00	 8.9945628174e-01
 1.9136837069e+00	 1.2055655386e+00	 1.0405565391e+00
 1.9019857101e+00	 1.2239378454e+00	 1.2187148842e+00
 1.8900989678e+00	 1.2422154585e+00	 1.4175610718e+00
 1.8780245864e+00	 1.2603955120e+00	 1.6210161228e+00
 1.8657637294e+00	 1.2784751565e+00	 1.8133221416e+00
 1.8533176176e+00	 1.2964515602e+00	 1.9790715551e+00
 1.8406875285e+00	 1.3143219104e+00	 2.1042809046e+00
 1.8278747960e+00	 1.3320834150e+00	 2.1773032927e+00
 1.8148808100e+00	 1.3497333037e+00	 2.1861296525e+00
 1.9440635574e+00	 1.1731068301e+00	 7.4044228250e-01
 1.9327019908e+00	 1.1917322440e+00	 8.2379541074e-01
 1.9211488950e+00	 1.2102683917e+00	 9.7091117198e-01
 1.9094052648e+00	 1.2287123681e+00	 1.1633984409e+00
 1.8974721529e+00	 1.2470612812e+00	 1.3831445150e+00
 1.8853506699e+00	 1.2653122542e+00	 1.6123483532e+00
 1.8730419839e+00	 1.2834624265e+00	 1.8335533367e+00
 1.8605473205e+00	 1.3015089553e+00	 2.0296794336e+00
 1.8478679620e+00	 1.3194490169e+00	 2.1842009082e+00
 1.8350052476e+00	 1.3372798083e+00	 2.2836638081e+00
 1.8219605727e+00	 1.3549985483e+00	 2.3150391320e+00
 1.9516177871e+00	 1.1776652811e+00	 6.9900305182e-01
 1.9402120717e+00	 1.1963630695e+00	 7.7346434528e-01
 1.9286140830e+00	 1.2149712449e+00	 9.1836553738e-01
 1.9168248195e+00	 1.2334868907e+00	 1.1144300756e+00
 1.9048453380e+00	 1.2519071039e+00	 1.3426674884e+00
 1.8926767534e+00	 1.2702289964e+00	 1.5844083163e+00
 1.8803202384e+00	 1.2884496966e+00	 1.8213385591e+00
 1.8677770233e+00	 1.3065663505e+00	 2.0355335140e+00
 1.8550483954e+00	 1.3245761235e+00	 2.2094908844e+00
 1.8421356992e+00	 1.3424762016e+00	 2.3273014804e+00
 1.8290403354e+00	 1.3602637930e+00	 2.3762891582e+00
 1.9591720168e+00	 1.1822237321e+00	 6.8755464253e-01
 1.9477221527e+00	 1.2009938950e+00	 7.4919077439e-01
 1.9360792710e+00	 1.2196740980e+00	 8.8441339875e-01
 1.9242443742e+00	 1.2382614133e+00	 1.0739249611e+00
 1.9122185231e+00	 1.2567529266e+00	 1.2987119413e+00
 1.9000028369e+00	 1.2751457386e+00	 1.5400802220e+00
 1.8875984929e+00	 1.2934369666e+00	 1.7796899722e+00
 1.8750067261e+00	 1.3116237456e+00	 1.9995899184e+00
 1.8622288289e+00	 1.3297032300e+00	 2.1822508779e+00
 1.8492661508e+00	 1.3476725949e+00	 2.3106851808e+00
 1.8361200981e+00	 1.3655290376e+00	 2.3716775311e+00
 1.9667262465e+00	 1.1867821831e+00	 7.0592237640e-01
 1.9552322337e+00	 1.2056247205e+00	 7.5168699926e-01
 1.9435444591e+00	 1.2243769512e+00	 8.7052148017e-01
 1.9316639289e+00	 1.2430359359e+00	 1.0439617972e+00
 1.9195917082e+00	 1.2615987493e+00	 1.2538162859e+00
 1.9073289205e+00	 1.2800624809e+00	 1.4822001991e+00
 1.8948767475e+00	 1.2984242367e+00	 1.7115697846e+00
 1.8822364290e+00	 1.3166811407e+00	 1.9247557555e+00
 1.8694092624e+00	 1.3348303365e+00	 2.1049960252e+00
 1.8563966024e+00	 1.3528689882e+00	 2.2359675834e+00
 1.8431998607e+00	 1.3707942823e+00	 2.3029662076e+00
 1.9742804762e+00	 1.1913406340e+00	 7.5393005876e-01
 1.9627423147e+00	 1.2102555460e+00	 7.8165035830e-01
 1.9510096471e+00	 1.2290798043e+00	 8.7813012195e-01
 1.9390834836e+00	 1.2478104586e+00	 1.0265836541e+00
 1.9269648933e+00	 1.2664445720e+00	 1.2104763835e+00
 1.9146550040e+00	 1.2849792231e+00	 1.4135573755e+00
 1.9021550020e+00	 1.3034115067e+00	 1.6198913718e+00
 1.8894661318e+00	 1.3217385359e+00	 1.8138902329e+00
 1.8765896958e+00	 1.3399574430e+00	 1.9803436589e+00
 1.8635270540e+00	 1.3580653815e+00	 2.1044490644e+00
 1.8502796234e+00	 1.3760595269e+00	 2.1718812810e+00
 1.9818347058e+00	 1.1958990850e+00	 8.3140013393e-01
 1.9702523957e+00	 1.2148863715e+00	 8.3976364685e-01
 1.9584748352e+00	 1.2337826575e+00	 9.0865392583e-01
 1.9465030383e+00	 1.2525849812e+00	 1.0237988016e+00
 1.9343380784e+00	 1.2712903948e+00	 1.1711465127e+00
 1.9219810875e+00	 1.2898959653e+00	 1.3368949391e+00
 1.9094332565e+00	 1.3083987768e+00	 1.5075203790e+00
 1.8966958346e+00	 1.3267959310e+00	 1.6698057469e+00
 1.8837701293e+00	 1.3450845495e+00	 1.8108680704e+00
 1.8706575056e+00	 1.3632617747e+00	 1.9181851675e+00
 1.8573593861e+00	 1.3813247716e+00	 1.9796213858e+00
 1.9893889355e+00	 1.2004575360e+00	 9.3815384143e-01
 1.9777624767e+00	 1.2195171970e+00	 9.2669553170e-01
 1.9659400232e+00	 1.2384855106e+00	 9.6348238997e-01
 1.9539225930e+00	 1.2573595038e+00	 1.0375815241e+00
 1.9417112635e+00	 1.2761362175e+00	 1.1382403205e+00
 1.9293071710e+00	 1.2948127076e+00	 1.2549111778e+00
 1.9167115110e+00	 1.3133860468e+00	 1.3772758030e+00
 1.9039255374e+00	 1.3318533261e+00	 1.4952689545e+00
 1.8909505627e+00	 1.3502116560e+00	 1.5991015161e+00
 1.8777879572e+00	 1.3684581680e+00	 1.6792827866e+00
 1.8644391488e+00	 1.3865900162e+00	 1.7266418740e+00
 1.7936415219e+00	 1.3339375697e+00	 1.3749289625e+00
 1.7806196717e+00	 1.3512708146e+00	 1.2792631883e+00
 1.7674215486e+00	 1.3684882949e+00	 1.1901023716e+00
 1.7540486977e+00	 1.3855873345e+00	 1.1103165863e+00
 1.7405027179e+00	 1.4025652846e+00	 1.0425496371e+00
 1.7267852606e+00	 1.4194195247e+00	 9.8919349322e-01
 1.7128980295e+00	 1.4361474640e+00	 9.5236460508e-01
 1.6988427801e+00	 1.4527465428e+00	 9.3388229481e-01
 1.6846213184e+00	 1.4692142337e+00	 9.3524940295e-01
 1.6702355008e+00	 1.4855480428e+00	 9.5766826339e-01
 1.6556872326e+00	 1.5017455112e+00	 1.0027600832e+00
 1.8007212846e+00	 1.3392028144e+00	 1.7179619632e+00
 1.7876480353e+00	 1.3566044761e+00	 1.6366396597e+00
 1.7743978172e+00	 1.3738899163e+00	 1.5435579269e+00
 1.7609721818e+00	 1.3910564483e+00	 1.4445617701e+00
 1.7473727340e+00	 1.4081014128e+00	 1.3452324087e+00
 1.7336011319e+00	 1.4250221790e+00	 1.2508567071e+00
 1.7196590860e+00	 1.4418161459e+00	 1.1663985752e+00
 1.7055483585e+00	 1.4584807437e+00	 1.0964725472e+00
 1.6912707626e+00	 1.4750134349e+00	 1.0453197297e+00
 1.6768281620e+00	 1.4914117160e+00	 1.0169381088e+00
 1.6622224697e+00	 1.5076731181e+00	 1.0154974388e+00
 1.8078010473e+00	 1.3444680590e+00	 1.9877270862e+00
 1.7946763988e+00	 1.3619381376e+00	 1.9217175177e+00
 1.7813740859e+00	 1.3792915376e+00	 1.8285440300e+00
 1.7678956659e+00	 1.3965255620e+00	 1.7164818739e+00
 1.7542427502e+00	 1.4136375410e+00	 1.5935104764e+00
 1.7404170033e+00	 1.4306248333e+00	 1.4672786010e+00
 1.7264201424e+00	 1.4474848278e+00	 1.3450715653e+00
 1.7122539368e+00	 1.4642149446e+00	 1.2337807308e+00
 1.6979202068e+00	 1.4808126362e+00	 1.1398754702e+00
 1.6834208233e+00	 1.4972753891e+00	 1.0696474122e+00
 1.6687577069e+00	 1.5136007250e+00	 1.0291627808e+00
 1.8148808100e+00	 1.3497333037e+00	 2.1861296525e+00
 1.8017047624e+00	 1.3672717991e+00	 2.1356205278e+00
 1.7883503545e+00	 1.3846931590e+00	 2.0454746021e+00
 1.7748191500e+00	 1.4019946758e+00	 1.9258589872e+00
 1.7611127663e+00	 1.4191736692e+00	 1.7866183548e+00
 1.7472328746e+00	 1.4362274876e+00	 1.6372365575e+00
 1.7331811989e+00	 1.4531535097e+00	 1.4868003863e+00
 1.7189595151e+00	 1.4699491454e+00	 1.3439656915e+00
 1.7045696510e+00	 1.4866118374e+00	 1.2169376743e+00
 1.6900134846e+00	 1.5031390623e+00	 1.1136741097e+00
 1.6752929440e+00	 1.5195283319e+00	 1.0417143895e+00
 1.8219605727e+00	 1.3549985483e+00	 2.3150391320e+00
 1.8087331259e+00	 1.3726054606e+00	 2.2794481236e+00
 1.7953266232e+00	 1.3900947804e+00	 2.1947496816e+00
 1.7817426341e+00	 1.4074637895e+00	 2.0724706003e+00
 1.7679827825e+00	 1.4247097973e+00	 1.9237939853e+00
 1.7540487460e+00	 1.4418301419e+00	 1.7595180588e+00
 1.7399422553e+00	 1.4588221916e+00	 1.5900171769e+00
 1.7256650935e+00	 1.4756833463e+00	 1.4252052960e+00
 1.7112190951e+00	 1.4924110386e+00	 1.2744992687e+00
 1.6966061458e+00	 1.5090027354e+00	 1.1469170990e+00
 1.6818281812e+00	 1.5254559387e+00	 1.0511304684e+00
 1.8290403354e+00	 1.3602637930e+00	 2.3762891582e+00
 1.8157614895e+00	 1.3779391220e+00	 2.3542751817e+00
 1.8023028919e+00	 1.3954964017e+00	 2.2767549805e+00
 1.7886661182e+00	 1.4129329033e+00	 2.1560889666e+00
 1.7748527986e+00	 1.4302459255e+00	 2.0042779280e+00
 1.7608646173e+00	 1.4474327962e+00	 1.8329197368e+00
 1.7467033117e+00	 1.4644908735e+00	 1.6531683415e+00
 1.7323706718e+00	 1.4814175472e+00	 1.4756952867e+00
 1.7178685393e+00	 1.4982102399e+00	 1.3105175036e+00
 1.7031988071e+00	 1.5148664085e+00	 1.1672961152e+00
 1.6883634183e+00	 1.5313835456e+00	 1.0554090507e+00
 1.8361200981e+00	 1.3655290376e+00	 2.3716775311e+00
 1.8227898531e+00	 1.3832727835e+00	 2.3611517896e+00
 1.8092791605e+00	 1.4008980231e+00	 2.2918614392e+00
 1.7955896022e+00	 1.4184020170e+00	 2.1764804669e+00
 1.7817228147e+00	 1.4357820537e+00	 2.0273125606e+00
 1.7676804887e+00	 1.4530354505e+00	 1.8562464334e+00
 1.7534643682e+00	 1.4701595554e+00	 1.6747134996e+00
 1.7390762501e+00	 1.4871517480e+00	 1.4936128280e+00
 1.7245179835e+00	 1.5040094411e+00	 1.3229691257e+00
 1.7097914684e+00	 1.5207300817e+00	 1.1727516220e+00
 1.6948986554e+00	 1.5373111525e+00	 1.0525679202e+00
 1.8431998607e+00	 1.3707942823e+00	 2.3029662076e+00
 1.8298182166e+00	 1.3886064450e+00	 2.3011030069e+00
 1.8162554292e+00	 1.4062996445e+00	 2.2404247785e+00
 1.8025130863e+00	 1.4238711308e+00	 2.1334049753e+00
 1.7885928309e+00	 1.4413181819e+00	 1.9921412829e+00
 1.7744963600e+00	 1.4586381048e+00	 1.8283102690e+00
 1.7602254246e+00	 1.4758282373e+00	 1.6531244462e+00
 1.7457818285e+00	 1.4928859489e+00	 1.4770903323e+00
 1.7311674276e+00	 1.5098086423e+00	 1.3098507002e+00
 1.7163841296e+00	 1.5265937548e+00	 1.1612447171e+00
 1.7014338926e+00	 1.5432387594e+00	 1.0406445463e+00
 1.8502796234e+00	 1.3760595269e+00	 2.1718812810e+00
 1.8368465802e+00	 1.3939401065e+00	 2.1751286204e+00
 1.8232316979e+00	 1.4117012658e+00	 2.1227850509e+00
 1.8094365704e+00	 1.4293402445e+00	 2.0266152282e+00
 1.7954628470e+00	 1.4468543100e+00	 1.8980077272e+00
 1.7813122314e+00	 1.4642407591e+00	 1.7479297200e+00
 1.7669864811e+00	 1.4814969192e+00	 1.5868841238e+00
 1.7524874068e+00	 1.4986201498e+00	 1.4242836132e+00
 1.7378168718e+00	 1.5156078435e+00	 1.2691785341e+00
 1.7229767909e+00	 1.5324574279e+00	 1.1307570519e+00
 1.7079691297e+00	 1.5491663663e+00	 1.0176960322e+00
 1.8573593861e+00	 1.3813247716e+00	 1.9796213858e+00
 1.8438749438e+00	 1.3992737680e+00	 1.9842028920e+00
 1.8302079665e+00	 1.4171028872e+00	 1.9392661892e+00
 1.8163600545e+00	 1.4348093583e+00	 1.8558561950e+00
 1.8023328632e+00	 1.4523904382e+00	 1.7441549742e+00
 1.7881281027e+00	 1.4698434134e+00	 1.6139287047e+00
 1.7737475375e+00	 1.4871656011e+00	 1.4744033833e+00
 1.7591929851e+00	 1.5043543506e+00	 1.3333657424e+00
 1.7444663160e+00	 1.5214070448e+00	 1.1989886135e+00
 1.7295694522e+00	 1.5383211011e+00	 1.0792907643e+00
 1.7145043669e+00	 1.5550939732e+00	 9.8179907580e-01
 1.8644391488e+00	 1.3865900162e+00	 1.7266418740e+00
 1.8509033073e+00	 1.4046074294e+00	 1.7292743011e+00
 1.8371842352e+00	 1.4225045086e+00	 1.6901755533e+00
 1.8232835386e+00	 1.4402784720e+00	 1.6208644509e+00
 1.8092028793e+00	 1.4579265664e+00	 1.5298247743e+00
 1.7949439741e+00	 1.4754460677e+00	 1.4251356781e+00
 1.7805085939e+00	 1.4928342830e+00	 1.3140496503e+00
 1.7658985635e+00	 1.5100885515e+00	 1.2025270306e+00
 1.7511157601e+00	 1.5272062460e+00	 1.0973365538e+00
 1.7361621134e+00	 1.5441847742e+00	 1.0048684249e+00
 1.7210396040e+00	 1.5610215801e+00	 9.3104994435e-01
 1.6556872326e+00	 1.5017455112e+00	 1.0027600832e+00
 1.6409809772e+00	 1.5178015024e+00	 1.0624045383e+00
 1.6261162542e+00	 1.5337164186e+00	 1.1262316949e+00
 1.6110950846e+00	 1.5494879400e+00	 1.1919648391e+00
 1.5959195351e+00	 1.5651137861e+00	 1.2571788748e+00
 1.5805917172e+00	 1.5805917172e+00	 1.3193303710e+00
 1.5651137861e+00	 1.5959195351e+00	 1.3757871807e+00
 1.5494879400e+00	 1.6110950846e+00	 1.4238574342e+00
 1.5337164186e+00	 1.6261162542e+00	 1.4608177133e+00
 1.5178015024e+00	 1.6409809772e+00	 1.4839402234e+00
 1.5017455112e+00	 1.6556872326e+00	 1.4905187956e+00
 1.6622224697e+00	 1.5076731181e+00	 1.0154974388e+00
 1.6474581666e+00	 1.5237924846e+00	 1.0351434481e+00
 1.6325347704e+00	 1.5397702193e+00	 1.0659193809e+00
 1.6174543101e+00	 1.5556039932e+00	 1.1050503291e+00
 1.6022188605e+00	 1.5712915168e+00	 1.1496076295e+00
 1.5868305414e+00	 1.5868305414e+00	 1.1965404137e+00
 1.5712915168e+00	 1.6022188605e+00	 1.2427067046e+00
 1.5556039932e+00	 1.6174543101e+00	 1.2849038527e+00
 1.5397702193e+00	 1.6325347704e+00	 1.3198981156e+00
 1.5237924846e+00	 1.6474581666e+00	 1.3444531905e+00
 1.5076731181e+00	 1.6622224697e+00	 1.3553575260e+00
 1.6687577069e+00	 1.5136007250e+00	 1.0291627808e+00
 1.6539353561e+00	 1.5297834668e+00	 1.0148865809e+00
 1.6389532867e+00	 1.5458240200e+00	 1.0175469412e+00
 1.6238135356e+00	 1.5617200464e+00	 1.0339525774e+00
 1.6085181859e+00	 1.5774692474e+00	 1.0607541136e+00
 1.5930693657e+00	 1.5930693657e+00	 1.0944770442e+00
 1.5774692474e+00	 1.6085181859e+00	 1.1315542146e+00
 1.5617200464e+00	 1.6238135356e+00	 1.1683576076e+00
 1.5458240200e+00	 1.6389532867e+00	 1.2012292298e+00
 1.5297834668e+00	 1.6539353561e+00	 1.2265109064e+00
 1.5136007250e+00	 1.6687577069e+00	 1.2405728019e+00
 1.6752929440e+00	 1.5195283319e+00	 1.0417143895e+00
 1.6604125455e+00	 1.5357744490e+00	 9.9973905496e-01
 1.6453718029e+00	 1.5518778207e+00	 9.7937586404e-01
 1.6301727611e+00	 1.5678360995e+00	 9.7709800422e-01
 1.6148175113e+00	 1.5836469781e+00	 9.8921726902e-01
 1.5993081900e+00	 1.5993081900e+00	 1.0119183440e+00
 1.5836469781e+00	 1.6148175113e+00	 1.0412925804e+00
 1.5678360995e+00	 1.6301727611e+00	 1.0733710367e+00
 1.5518778207e+00	 1.6453718029e+00	 1.1041565778e+00
 1.5357744490e+00	 1.6604125455e+00	 1.1296548334e+00
 1.5195283319e+00	 1.6752929440e+00	 1.1459038279e+00
 1.6818281812e+00	 1.5254559387e+00	 1.0511304684e+00
 1.6668897349e+00	 1.5417654312e+00	 9.8782382049e-01
 1.6517903191e+00	 1.5579316214e+00	 9.4968320994e-01
 1.6365319865e+00	 1.5739521527e+00	 9.3292618532e-01
 1.6211168367e+00	 1.5898247087e+00	 9.3360663349e-01
 1.6055470143e+00	 1.6055470143e+00	 9.4765030143e-01
 1.5898247087e+00	 1.6211168367e+00	 9.7088977241e-01
 1.5739521527e+00	 1.6365319865e+00	 9.9909867053e-01
 1.5579316214e+00	 1.6517903191e+00	 1.0280248776e+00
 1.5417654312e+00	 1.6668897349e+00	 1.0534225584e+00
 1.5254559387e+00	 1.6818281812e+00	 1.0710828018e+00
 1.6883634183e+00	 1.5313835456e+00	 1.0554090507e+00
 1.6733669244e+00	 1.5477564134e+00	 9.7728161684e-01
 1.6582088353e+00	 1.5639854221e+00	 9.2676162052e-01
 1.6428912120e+00	 1.5800682059e+00	 8.9988991571e-01
 1.6274161620e+00	 1.5960024393e+00	 8.9254246075e-01
 1.6117858385e+00	 1.6117858385e+00	 9.0046698920e-01
 1.5960024393e+00	 1.6274161620e+00	 9.1931909927e-01
 1.5800682059e+00	 1.6428912120e+00	 9.4469752984e-01
 1.5639854221e+00	 1.6582088353e+00	 9.7217840157e-01
 1.5477564134e+00	 1.6733669244e+00	 9.9734821302e-01
 1.5313835456e+00	 1.6883634183e+00	 1.0158353952e+00
 1.6948986554e+00	 1.5373111525e+00	 1.0525679202e+00
 1.6798441138e+00	 1.5537473956e+00	 9.6627094218e-01
 1.6646273515e+00	 1.5700392228e+00	 9.0891933986e-01
 1.6492504375e+00	 1.5861842590e+00	 8.7645528419e-01
 1.6337154874e+00	 1.6021801700e+00	 8.6465585020e-01
 1.6180246628e+00	 1.6180246628e+00	 8.6917075086e-01
 1.6021801700e+00	 1.6337154874e+00	 8.8555945178e-01
 1.5861842590e+00	 1.6492504375e+00	 9.0932742841e-01
 1.5700392228e+00	 1.6646273515e+00	 9.3596133854e-01
 1.5537473956e+00	 1.6798441138e+00	 9.6096289475e-01
 1.5373111525e+00	 1.6948986554e+00	 9.7988123547e-01
 1.7014338926e+00	 1.5432387594e+00	 1.0406445463e+00
 1.6863213032e+00	 1.5597383779e+00	 9.5296803631e-01
 1.6710458677e+00	 1.5760930235e+00	 8.9448024737e-01
 1.6556096630e+00	 1.5923003122e+00	 8.6110175859e-01
 1.6400148128e+00	 1.6083579006e+00	 8.4858888604e-01
 1.6242634871e+00	 1.6242634871e+00	 8.5257239526e-01
 1.6083579006e+00	 1.6400148128e+00	 8.6859555410e-01
 1.5923003122e+00	 1.6556096630e+00	 8.9215128168e-01
 1.5760930235e+00	 1.6710458677e+00	 9.1871816075e-01
 1.5597383779e+00	 1.6863213032e+00	 9.4379509277e-01
 1.5432387594e+00	 1.7014338926e+00	 9.6293438947e-01
 1.7079691297e+00	 1.5491663663e+00	 1.0176960322e+00
 1.6927984926e+00	 1.5657293601e+00	 9.3556687577e-01
 1.6774643839e+00	 1.5821468241e+00	 8.8178390222e-01
 1.6619688885e+00	 1.5984163654e+00	 8.5232228113e-01
 1.6463141382e+00	 1.6145356313e+00	 8.4299478548e-01
 1.6305023114e+00	 1.6305023114e+00	 8.4949139908e-01
 1.6145356313e+00	 1.6463141382e+00	 8.6741822152e-01
 1.5984163654e+00	 1.6619688885e+00	 8.9233542076e-01
 1.5821468241e+00	 1.6774643839e+00	 9.1979399460e-01
 1.5657293601e+00	 1.6927984926e+00	 9.4537111569e-01
 1.5491663663e+00	 1.7079691297e+00	 9.6470384876e-01
 1.7145043669e+00	 1.5550939732e+00	 9.8179907580e-01
 1.6992756821e+00	 1.5717203423e+00	 9.1227918120e-01
 1.6838829001e+00	 1.5882006248e+00	 8.6918559874e-01
 1.6683281139e+00	 1.6045324185e+00	 8.4862337401e-01
 1.6526134636e+00	 1.6207133619e+00	 8.4653805602e-01
 1.6367411356e+00	 1.6367411356e+00	 8.5875611703e-01
 1.6207133619e+00	 1.6526134636e+00	 8.8102462489e-01
 1.6045324185e+00	 1.6683281139e+00	 9.0904991181e-01
 1.5882006248e+00	 1.6838829001e+00	 9.3853499556e-01
 1.5717203423e+00	 1.6992756821e+00	 9.6521552246e-01
 1.5550939732e+00	 1.7145043669e+00	 9.8489401638e-01
 1.7210396040e+00	 1.5610215801e+00	 9.3104994435e-01
 1.7057528715e+00	 1.5777113245e+00	 8.8133443646e-01
 1.6903014164e+00	 1.5942544255e+00	 8.5505643274e-01
 1.6746873394e+00	 1.6106484717e+00	 8.4852525471e-01
 1.6589127890e+00	 1.6268910925e+00	 8.5789466126e-01
 1.6429799599e+00	 1.6429799599e+00	 8.7920399966e-01
 1.6268910925e+00	 1.6589127890e+00	 9.0841856132e-01
 1.6106484717e+00	 1.6746873394e+00	 9.4146888060e-01
 1.5942544255e+00	 1.6903014164e+00	 9.7428872709e-01
 1.5777113245e+00	 1.7057528715e+00	 1.0028515558e+00
 1.5610215801e+00	 1.7210396040e+00	 1.0232051950e+00
 1.5017455112e+00	 1.6556872326e+00	 1.4905187956e+00
 1.4855480428e+00	 1.6702355008e+00	 1.4860158523e+00
 1.4692142337e+00	 1.6846213184e+00	 1.4743566566e+00
 1.4527465428e+00	 1.6988427801e+00	 1.4477383246e+00
 1.4361474640e+00	 1.7128980295e+00	 1.4093109834e+00
 1.4194195247e+00	 1.7267852606e+00	 1.3627914566e+00
 1.4025652846e+00	 1.7405027179e+00	 1.3119291652e+00
 1.3855873345e+00	 1.7540486977e+00	 1.2604621556e+00
 1.3684882949e+00	 1.7674215486e+00	 1.2120759194e+00
 1.3512708146e+00	 1.7806196717e+00	 1.1703651680e+00
 1.3339375697e+00	 1.7936415219e+00	 1.1387986972e+00
 1.5076731181e+00	 1.6622224697e+00	 1.3553575260e+00
 1.4914117160e+00	 1.6768281620e+00	 1.3571252669e+00
 1.4750134349e+00	 1.6912707626e+00	 1.3558190926e+00
 1.4584807437e+00	 1.7055483585e+00	 1.3422301006e+00
 1.4418161459e+00	 1.7196590860e+00	 1.3167671523e+00
 1.4250221790e+00	 1.7336011319e+00	 1.2827611499e+00
 1.4081014128e+00	 1.7473727340e+00	 1.2435896249e+00
 1.3910564483e+00	 1.7609721818e+00	 1.2026324294e+00
 1.3738899163e+00	 1.7743978172e+00	 1.1632302890e+00
 1.3566044761e+00	 1.7876480353e+00	 1.1286463812e+00
 1.3392028144e+00	 1.8007212846e+00	 1.1020310762e+00
 1.5136007250e+00	 1.6687577069e+00	 1.2405728019e+00
 1.4972753891e+00	 1.6834208233e+00	 1.2471399583e+00
 1.4808126362e+00	 1.6979202068e+00	 1.2526148045e+00
 1.4642149446e+00	 1.7122539368e+00	 1.2501765647e+00
 1.4474848278e+00	 1.7264201424e+00	 1.2357962486e+00
 1.4306248333e+00	 1.7404170033e+00	 1.2124932797e+00
 1.4136375410e+00	 1.7542427502e+00	 1.1833441217e+00
 1.3965255620e+00	 1.7678956659e+00	 1.1514375374e+00
 1.3792915376e+00	 1.7813740859e+00	 1.1198327873e+00
 1.3619381376e+00	 1.7946763988e+00	 1.0915209313e+00
 1.3444680590e+00	 1.8078010473e+00	 1.0693893745e+00
 1.5195283319e+00	 1.6752929440e+00	 1.1459038279e+00
 1.5031390623e+00	 1.6900134846e+00	 1.1559823641e+00
 1.4866118374e+00	 1.7045696510e+00	 1.1656606803e+00
 1.4699491454e+00	 1.7189595151e+00	 1.1719471964e+00
 1.4531535097e+00	 1.7331811989e+00	 1.1668540382e+00
 1.4362274876e+00	 1.7472328746e+00	 1.1524980182e+00
 1.4191736692e+00	 1.7611127663e+00	 1.1317245996e+00
 1.4019946758e+00	 1.7748191500e+00	 1.1073978231e+00
 1.3846931590e+00	 1.7883503545e+00	 1.0823580628e+00
 1.3672717991e+00	 1.8017047624e+00	 1.0593829732e+00
 1.3497333037e+00	 1.8148808100e+00	 1.0411517675e+00
 1.5254559387e+00	 1.6818281812e+00	 1.0710828018e+00
 1.5090027354e+00	 1.6966061458e+00	 1.0835649763e+00
 1.4924110386e+00	 1.7112190951e+00	 1.0961185944e+00
 1.4756833463e+00	 1.7256650935e+00	 1.1079001010e+00
 1.4588221916e+00	 1.7399422553e+00	 1.1103834667e+00
 1.4418301419e+00	 1.7540487460e+00	 1.1032718342e+00
 1.4247097973e+00	 1.7679827825e+00	 1.0892489919e+00
 1.4074637895e+00	 1.7817426341e+00	 1.0710198983e+00
 1.3900947804e+00	 1.7953266232e+00	 1.0512679096e+00
 1.3726054606e+00	 1.8087331259e+00	 1.0326152920e+00
 1.3549985483e+00	 1.8219605727e+00	 1.0175871623e+00
 1.5313835456e+00	 1.6883634183e+00	 1.0158353952e+00
 1.5148664085e+00	 1.7031988071e+00	 1.0297908778e+00
 1.4982102399e+00	 1.7178685393e+00	 1.0440510097e+00
 1.4814175472e+00	 1.7323706718e+00	 1.0583814229e+00
 1.4644908735e+00	 1.7467033117e+00	 1.0668141009e+00
 1.4474327962e+00	 1.7608646173e+00	 1.0652969543e+00
 1.4302459255e+00	 1.7748527986e+00	 1.0564206916e+00
 1.4129329033e+00	 1.7886661182e+00	 1.0427961140e+00
 1.3954964017e+00	 1.8023028919e+00	 1.0270107273e+00
 1.3779391220e+00	 1.8157614895e+00	 1.0115887421e+00
 1.3602637930e+00	 1.8290403354e+00	 9.9895460627e-01
 1.5373111525e+00	 1.6948986554e+00	 9.7988123547e-01
 1.5207300817e+00	 1.7097914684e+00	 9.9455427998e-01
 1.5040094411e+00	 1.7245179835e+00	 1.0094971986e+00
 1.4871517480e+00	 1.7390762501e+00	 1.0243956699e+00
 1.4701595554e+00	 1.7534643682e+00	 1.0365615691e+00
 1.4530354505e+00	 1.7676804887e+00	 1.0390408214e+00
 1.4357820537e+00	 1.7817228147e+00	 1.0337280197e+00
 1.4184020170e+00	 1.7955896022e+00	 1.0232040276e+00
 1.4008980231e+00	 1.8092791605e+00	 1.0100209786e+00
 1.3832727835e+00	 1.8227898531e+00	 9.9666168530e-01
 1.3655290376e+00	 1.8361200981e+00	 9.8550269412e-01
 1.5432387594e+00	 1.7014338926e+00	 9.6293438947e-01
 1.5265937548e+00	 1.7163841296e+00	 9.7774106015e-01
 1.5098086423e+00	 1.7311674276e+00	 9.9248574363e-01
 1.4928859489e+00	 1.7457818285e+00	 1.0068494682e+00
 1.4758282373e+00	 1.7602254246e+00	 1.0200269983e+00
 1.4586381048e+00	 1.7744963600e+00	 1.0249555506e+00
 1.4413181819e+00	 1.7885928309e+00	 1.0216436901e+00
 1.4238711308e+00	 1.8025130863e+00	 1.0127058687e+00
 1.4062996445e+00	 1.8162554292e+00	 1.0007186449e+00
 1.3886064450e+00	 1.8298182166e+00	 9.8817942623e-01
 1.3707942823e+00	 1.8431998607e+00	 9.7746897470e-01
 1.5491663663e+00	 1.7079691297e+00	 9.6470384876e-01
 1.5324574279e+00	 1.7229767909e+00	 9.7922929962e-01
 1.5156078435e+00	 1.7378168718e+00	 9.9303511906e-01
 1.4986201498e+00	 1.7524874068e+00	 1.0058723144e+00
 1.4814969192e+00	 1.7669864811e+00	 1.0175964519e+00
 1.4642407591e+00	 1.7813122314e+00	 1.0234773831e+00
 1.4468543100e+00	 1.7954628470e+00	 1.0206242726e+00
 1.4293402445e+00	 1.8094365704e+00	 1.0117480008e+00
 1.4117012658e+00	 1.8232316979e+00	 9.9950867960e-01
 1.3939401065e+00	 1.8368465802e+00	 9.8647364691e-01
 1.3760595269e+00	 1.8502796234e+00	 9.7507935636e-01
 1.5550939732e+00	 1.7145043669e+00	 9.8489401638e-01
 1.5383211011e+00	 1.7295694522e+00	 9.9888982188e-01
 1.5214070448e+00	 1.7444663160e+00	 1.0111542717e+00
 1.5043543506e+00	 1.7591929851e+00	 1.0215822140e+00
 1.4871656011e+00	 1.7737475375e+00	 1.0301741814e+00
 1.4698434134e+00	 1.7881281027e+00	 1.0350261371e+00
 1.4523904382e+00	 1.8023328632e+00	 1.0311096525e+00
 1.4348093583e+00	 1.8163600545e+00	 1.0207603822e+00
 1.4171028872e+00	 1.8302079665e+00	 1.0067804584e+00
 1.3992737680e+00	 1.8438749438e+00	 9.9186183899e-01
 1.3813247716e+00	 1.8573593861e+00	 9.7848369932e-01
 1.5610215801e+00	 1.7210396040e+00	 1.0232051950e+00
 1.5441847742e+00	 1.7361621134e+00	 1.0365867312e+00
 1.5272062460e+00	 1.7511157601e+00	 1.0468432011e+00
 1.5100885515e+00	 1.7658985635e+00	 1.0540863999e+00
 1.4928342830e+00	 1.7805085939e+00	 1.0585323184e+00
 1.4754460677e+00	 1.7949439741e+00	 1.0600046564e+00
 1.4579265664e+00	 1.8092028793e+00	 1.0535224885e+00
 1.4402784720e+00	 1.8232835386e+00	 1.0401560229e+00
 1.4225045086e+00	 1.8371842352e+00	 1.0229072286e+00
 1.4046074294e+00	 1.8509033073e+00	 1.0046467346e+00
 1.3865900162e+00	 1.8644391488e+00	 9.8771051613e-01
 1.3339375697e+00	 1.7936415219e+00	 1.1387986972e+00
 1.3164942352e+00	 1.8064834412e+00	 1.1160947781e+00
 1.2989405909e+00	 1.8191462282e+00	 1.0984146706e+00
 1.2812793748e+00	 1.8316285092e+00	 1.0852536379e+00
 1.2635133463e+00	 1.8439289659e+00	 1.0760434892e+00
 1.2456452853e+00	 1.8560463358e+00	 1.0701406585e+00
 1.2276779903e+00	 1.8679794125e+00	 1.0668765007e+00
 1.2096142776e+00	 1.8797270459e+00	 1.0655470406e+00
 1.1914569792e+00	 1.8912881428e+00	 1.0654043481e+00
 1.1732089420e+00	 1.9026616668e+00	 1.0656749895e+00
 1.1548730262e+00	 1.9138466387e+00	 1.0655724261e+00
 1.3392028144e+00	 1.8007212846e+00	 1.1020310762e+00
 1.3216906284e+00	 1.8136138928e+00	 1.0825741674e+00
 1.3040676974e+00	 1.8263266616e+00	 1.0672955983e+00
 1.2863367699e+00	 1.8388582120e+00	 1.0559403453e+00
 1.2685006164e+00	 1.8512072204e+00	 1.0481623640e+00
 1.2505620275e+00	 1.8633724193e+00	 1.0435043428e+00
 1.2325238130e+00	 1.8753525976e+00	 1.0414622163e+00
 1.2143888002e+00	 1.8871466006e+00	 1.0414978103e+00
 1.1961598323e+00	 1.8987533309e+00	 1.0430161253e+00
 1.1778397675e+00	 1.9101717478e+00	 1.0453785120e+00
 1.1594314772e+00	 1.9214008684e+00	 1.0479151567e+00
 1.3444680590e+00	 1.8078010473e+00	 1.0693893745e+00
 1.3268870217e+00	 1.8207443444e+00	 1.0529529609e+00
 1.3091948039e+00	 1.8335070951e+00	 1.0398936143e+00
 1.2913941650e+00	 1.8460879148e+00	 1.0301843121e+00
 1.2734878864e+00	 1.8584854749e+00	 1.0236649446e+00
 1.2554787697e+00	 1.8706985028e+00	 1.0200147396e+00
 1.2373696358e+00	 1.8827257827e+00	 1.0189253919e+00
 1.2191633228e+00	 1.8945661553e+00	 1.0200163842e+00
 1.2008626855e+00	 1.9062185189e+00	 1.0228339804e+00
 1.1824705930e+00	 1.9176818288e+00	 1.0268645494e+00
 1.1639899281e+00	 1.9289550980e+00	 1.0315471321e+00
 1.3497333037e+00	 1.8148808100e+00	 1.0411517675e+00
 1.3320834150e+00	 1.8278747960e+00	 1.0273853182e+00
 1.3143219104e+00	 1.8406875285e+00	 1.0162587731e+00
 1.2964515602e+00	 1.8533176176e+00	 1.0079501267e+00
 1.2784751565e+00	 1.8657637294e+00	 1.0023863961e+00
 1.2603955120e+00	 1.8780245864e+00	 9.9945573166e-01
 1.2422154585e+00	 1.8900989678e+00	 9.9902357525e-01
 1.2239378454e+00	 1.9019857101e+00	 1.0008535657e+00
 1.2055655386e+00	 1.9136837069e+00	 1.0046216820e+00
 1.1871014185e+00	 1.9251919098e+00	 1.0099296489e+00
 1.1685483791e+00	 1.9365093277e+00	 1.0163175840e+00
 1.3549985483e+00	 1.8219605727e+00	 1.0175871623e+00
 1.3372798083e+00	 1.8350052476e+00	 1.0060184209e+00
 1.3194490169e+00	 1.8478679620e+00	 9.9643619508e-01
 1.3015089553e+00	 1.8605473205e+00	 9.8913637158e-01
 1.2834624265e+00	 1.8730419839e+00	 9.8415299522e-01
 1.2653122542e+00	 1.8853506699e+00	 9.8160860387e-01
 1.2470612812e+00	 1.8974721529e+00	 9.8151214375e-01
 1.2287123681e+00	 1.9094052648e+00	 9.8375810255e-01
 1.2102683917e+00	 1.9211488950e+00	 9.8814074201e-01
 1.1917322440e+00	 1.9327019908e+00	 9.9436758533e-01
 1.1731068301e+00	 1.9440635574e+00	 1.0020721392e+00
 1.3602637930e+00	 1.8290403354e+00	 9.9895460627e-01
 1.3424762016e+00	 1.8421356992e+00	 9.8899184841e-01
 1.3245761235e+00	 1.8550483954e+00	 9.8045331578e-01
 1.3065663505e+00	 1.8677770233e+00	 9.7361419577e-01
 1.2884496966e+00	 1.8803202384e+00	 9.6878791778e-01
 1.2702289964e+00	 1.8926767534e+00	 9.6625219832e-01
 1.2519071039e+00	 1.9048453380e+00	 9.6614444759e-01
 1.2334868907e+00	 1.9168248195e+00	 9.6847682252e-01
 1.2149712449e+00	 1.9286140830e+00	 9.7315055094e-01
 1.1963630695e+00	 1.9402120717e+00	 9.7996950006e-01
 1.1776652811e+00	 1.9516177871e+00	 9.8865296967e-01
 1.3655290376e+00	 1.8361200981e+00	 9.8550269412e-01
 1.3476725949e+00	 1.8492661508e+00	 9.7643695259e-01
 1.3297032300e+00	 1.8622288289e+00	 9.6822614190e-01
 1.3116237456e+00	 1.8750067261e+00	 9.6126581781e-01
 1.2934369666e+00	 1.8875984929e+00	 9.5611135037e-01
 1.2751457386e+00	 1.9000028369e+00	 9.5316307189e-01
 1.2567529266e+00	 1.9122185231e+00	 9.5267195454e-01
 1.2382614133e+00	 1.9242443742e+00	 9.5475477133e-01
 1.2196740980e+00	 1.9360792710e+00	 9.5940851413e-01
 1.2009938950e+00	 1.9477221527e+00	 9.6652404236e-01
 1.1822237321e+00	 1.9591720168e+00	 9.7589894329e-01
 1.3707942823e+00	 1.8431998607e+00	 9.7746897470e-01
 1.3528689882e+00	 1.8563966024e+00	 9.6844162018e-01
 1.3348303365e+00	 1.8694092624e+00	 9.5969629252e-01
 1.3166811407e+00	 1.8822364290e+00	 9.5196966331e-01
 1.2984242367e+00	 1.8948767475e+00	 9.4594066733e-01
 1.2800624809e+00	 1.9073289205e+00	 9.4211565567e-01
 1.2615987493e+00	 1.9195917082e+00	 9.4084439724e-01
 1.2430359359e+00	 1.9316639289e+00	 9.4233535319e-01
 1.2243769512e+00	 1.9435444591e+00	 9.4667019105e-01
 1.2056247205e+00	 1.9552322337e+00	 9.5381751251e-01
 1.1867821831e+00	 1.9667262465e+00	 9.6364577677e-01
 1.3760595269e+00	 1.8502796234e+00	 9.7507935636e-01
 1.3580653815e+00	 1.8635270540e+00	 9.6496396819e-01
 1.3399574430e+00	 1.8765896958e+00	 9.5481636696e-01
 1.3217385359e+00	 1.8894661318e+00	 9.4560056608e-01
 1.3034115067e+00	 1.9021550020e+00	 9.3809060949e-01
 1.2849792231e+00	 1.9146550040e+00	 9.3288241643e-01
 1.2664445720e+00	 1.9269648933e+00	 9.3040992261e-01
 1.2478104586e+00	 1.9390834836e+00	 9.3096047350e-01
 1.2290798043e+00	 1.9510096471e+00	 9.3468943653e-01
 1.2102555460e+00	 1.9627423147e+00	 9.4163400706e-01
 1.1913406340e+00	 1.9742804762e+00	 9.5172619027e-01
 1.3813247716e+00	 1.8573593861e+00	 9.7848369932e-01
 1.3632617747e+00	 1.8706575056e+00	 9.6603557655e-01
 1.3450845495e+00	 1.8837701293e+00	 9.5353435649e-01
 1.3267959310e+00	 1.8966958346e+00	 9.4202997047e-01
 1.3083987768e+00	 1.9094332565e+00	 9.3237346444e-01
 1.2898959653e+00	 1.9219810875e+00	 9.2523401989e-01
 1.2712903948e+00	 1.9343380784e+00	 9.2111524334e-01
 1.2525849812e+00	 1.9465030383e+00	 9.2037068360e-01
 1.2337826575e+00	 1.9584748352e+00	 9.2321854416e-01
 1.2148863715e+00	 1.9702523957e+00	 9.2975556598e-01
 1.1958990850e+00	 1.9818347058e+00	 9.3997006360e-01
 1.3865900162e+00	 1.8644391488e+00	 9.8771051613e-01
 1.3684581680e+00	 1.8777879572e+00	 9.7169237241e-01
 1.3502116560e+00	 1.8909505627e+00	 9.5579387425e-01
 1.3318533261e+00	 1.9039255374e+00	 9.4112613476e-01
 1.3133860468e+00	 1.9167115110e+00	 9.2859924833e-01
 1.2948127076e+00	 1.9293071710e+00	 9.1893949596e-01
 1.2761362175e+00	 1.9417112635e+00	 9.1270579145e-01
 1.2573595038e+00	 1.9539225930e+00	 9.1030532784e-01
 1.2384855106e+00	 1.9659400232e+00	 9.1200839176e-01
 1.2195171970e+00	 1.9777624767e+00	 9.1796232177e-01
 1.2004575360e+00	 1.9893889355e+00	 9.2820459408e-01
 1.1548730262e+00	 1.9138466387e+00	 1.0655724261e+00
 1.1364521039e+00	 1.9248421368e+00	 1.0629993180e+00
 1.1179490594e+00	 1.9356472989e+00	 1.0571364380e+00
 1.0993667861e+00	 1.9462613205e+00	 1.0493851737e+00
 1.0807081850e+00	 1.9566834547e+00	 1.0417015081e+00
 1.0619761634e+00	 1.9669130120e+00	 1.0344773599e+00
 1.0431736330e+00	 1.9769493602e+00	 1.0280111220e+00
 1.0243035093e+00	 1.9867919245e+00	 1.0226349792e+00
 1.0053687097e+00	 1.9964401871e+00	 1.0187040918e+00
 9.8637215194e-01	 2.0058936872e+00	 1.0165867585e+00
 9.6731675346e-01	 2.0151520210e+00	 1.0166555253e+00
 1.1594314772e+00	 1.9214008684e+00	 1.0479151567e+00
 1.1409378449e+00	 1.9324397673e+00	 1.0480246682e+00
 1.1223617662e+00	 1.9432875789e+00	 1.0443504082e+00
 1.1037061459e+00	 1.9539434956e+00	 1.0381234929e+00
 1.0849738967e+00	 1.9644067675e+00	 1.0313679118e+00
 1.0661679370e+00	 1.9746767024e+00	 1.0247891448e+00
 1.0472911903e+00	 1.9847526655e+00	 1.0187982334e+00
 1.0283465836e+00	 1.9946340798e+00	 1.0138428337e+00
 1.0093370455e+00	 2.0043204254e+00	 1.0103962170e+00
 9.9026550559e-01	 2.0138112399e+00	 1.0089472687e+00
 9.7113489269e-01	 2.0231061177e+00	 1.0099914501e+00
 1.1639899281e+00	 1.9289550980e+00	 1.0315471321e+00
 1.1454235858e+00	 1.9400373978e+00	 1.0338887259e+00
 1.1267744729e+00	 1.9509278590e+00	 1.0320887009e+00
 1.1080455058e+00	 1.9616256708e+00	 1.0272919987e+00
 1.0892396083e+00	 1.9721300803e+00	 1.0213766896e+00
 1.0703597106e+00	 1.9824403927e+00	 1.0153887668e+00
 1.0514087477e+00	 1.9925559707e+00	 1.0098182114e+00
 1.0323896578e+00	 2.0024762350e+00	 1.0051947231e+00
 1.0133053813e+00	 2.0122006638e+00	 1.0020765872e+00
 9.9415885924e-01	 2.0217287927e+00	 1.0010405612e+00
 9.7495303193e-01	 2.0310602143e+00	 1.0026727392e+00
 1.1685483791e+00	 1.9365093277e+00	 1.0163175840e+00
 1.1499093267e+00	 1.9476350283e+00	 1.0205033559e+00
 1.1311871796e+00	 1.9585681390e+00	 1.0203260480e+00
 1.1123848656e+00	 1.9693078459e+00	 1.0168990706e+00
 1.0935053199e+00	 1.9798533931e+00	 1.0117940082e+00
 1.0745514842e+00	 1.9902040830e+00	 1.0063985607e+00
 1.0555263050e+00	 2.0003592760e+00	 1.0012515883e+00
 1.0364327320e+00	 2.0103183903e+00	 9.9693177710e-01
 1.0172737171e+00	 2.0200809022e+00	 9.9404969696e-01
 9.9805221288e-01	 2.0296463454e+00	 9.9323762424e-01
 9.7877117116e-01	 2.0390143110e+00	 9.9514035947e-01
 1.1731068301e+00	 1.9440635574e+00	 1.0020721392e+00
 1.1543950677e+00	 1.9552326588e+00	 1.0077758260e+00
 1.1355998864e+00	 1.9662084191e+00	 1.0090315837e+00
 1.1167242254e+00	 1.9769900210e+00	 1.0069076847e+00
 1.0977710315e+00	 1.9875767059e+00	 1.0026854754e+00
 1.0787432579e+00	 1.9979677734e+00	 9.9793961261e-01
 1.0596438623e+00	 2.0081625813e+00	 9.9327693846e-01
 1.0404758062e+00	 2.0181605456e+00	 9.8929243418e-01
 1.0212420529e+00	 2.0279611406e+00	 9.8661658291e-01
 1.0019455665e+00	 2.0375638981e+00	 9.8590518073e-01
 9.8258931039e-01	 2.0469684077e+00	 9.8783015701e-01
 1.1776652811e+00	 1.9516177871e+00	 9.8865296967e-01
 1.1588808086e+00	 1.9628302893e+00	 9.9560896934e-01
 1.1400125931e+00	 1.9738486991e+00	 9.9816901990e-01
 1.1210635852e+00	 1.9846721962e+00	 9.9732278235e-01
 1.1020367432e+00	 1.9953000187e+00	 9.9411587921e-01
 1.0829350315e+00	 2.0057314637e+00	 9.9013152175e-01
 1.0637614196e+00	 2.0159658865e+00	 9.8607066642e-01
 1.0445188804e+00	 2.0260027009e+00	 9.8251225423e-01
 1.0252103887e+00	 2.0358413790e+00	 9.8007466251e-01
 1.0058389202e+00	 2.0454814508e+00	 9.7940555432e-01
 9.8640744962e-01	 2.0549225044e+00	 9.8117275148e-01
 1.1822237321e+00	 1.9591720168e+00	 9.7589894329e-01
 1.1633665496e+00	 1.9704279198e+00	 9.8390134870e-01
 1.1444252999e+00	 1.9814889792e+00	 9.8769682289e-01
 1.1254029451e+00	 1.9923543713e+00	 9.8816336984e-01
 1.1063024548e+00	 2.0030233315e+00	 9.8614892631e-01
 1.0871268051e+00	 2.0134951541e+00	 9.8309216360e-01
 1.0678789769e+00	 2.0237691918e+00	 9.7980679313e-01
 1.0485619546e+00	 2.0338448562e+00	 9.7682373019e-01
 1.0291787245e+00	 2.0437216173e+00	 9.7471757150e-01
 1.0097322738e+00	 2.0533990035e+00	 9.7409653356e-01
 9.9022558885e-01	 2.0628766011e+00	 9.7559342831e-01
 1.1867821831e+00	 1.9667262465e+00	 9.6364577677e-01
 1.1678522905e+00	 1.9780255504e+00	 9.7254742128e-01
 1.1488380066e+00	 1.9891292592e+00	 9.7756839045e-01
 1.1297423049e+00	 2.0000365464e+00	 9.7944240832e-01
 1.1105681664e+00	 2.0107466443e+00	 9.7884698178e-01
 1.0913185787e+00	 2.0212588444e+00	 9.7693745194e-01
 1.0719965342e+00	 2.0315724971e+00	 9.7465674205e-01
 1.0526050288e+00	 2.0416870115e+00	 9.7245609850e-01
 1.0331470603e+00	 2.0516018557e+00	 9.7083499969e-01
 1.0136256275e+00	 2.0613165562e+00	 9.7033123404e-01
 9.9404372809e-01	 2.0708306978e+00	 9.7151202813e-01
 1.1913406340e+00	 1.9742804762e+00	 9.5172619027e-01
 1.1723380314e+00	 1.9856231809e+00	 9.6143770538e-01
 1.1532507134e+00	 1.9967695393e+00	 9.6773223034e-01
 1.1340816647e+00	 2.0077187215e+00	 9.7116700371e-01
 1.1148338780e+00	 2.0184699571e+00	 9.7225083673e-01
 1.0955103524e+00	 2.0290225348e+00	 9.7178110090e-01
 1.0761140915e+00	 2.0393758023e+00	 9.7078912455e-01
 1.0566481030e+00	 2.0495291668e+00	 9.6963514854e-01
 1.0371153961e+00	 2.0594820941e+00	 9.6871252530e-01
 1.0175189811e+00	 2.0692341089e+00	 9.6845795855e-01
 9.9786186732e-01	 2.0787847945e+00	 9.6934283386e-01
 1.1958990850e+00	 1.9818347058e+00	 9.3997006360e-01
 1.1768237724e+00	 1.9932208114e+00	 9.5045894818e-01
 1.1576634201e+00	 2.0044098193e+00	 9.5813213959e-01
 1.1384210245e+00	 2.0154008967e+00	 9.6333859745e-01
 1.1190995897e+00	 2.0261932699e+00	 9.6638735148e-01
 1.0997021260e+00	 2.0367862251e+00	 9.6773438678e-01
 1.0802316489e+00	 2.0471791076e+00	 9.6836952461e-01
 1.0606911772e+00	 2.0573713221e+00	 9.6858303105e-01
 1.0410837320e+00	 2.0673623325e+00	 9.6863144786e-01
 1.0214123348e+00	 2.0771516616e+00	 9.6882005537e-01
 1.0016800066e+00	 2.0867388912e+00	 9.6949445537e-01
 1.2004575360e+00	 1.9893889355e+00	 9.2820459408e-01
 1.1813095133e+00	 2.0008184419e+00	 9.3949429480e-01
 1.1620761269e+00	 2.0120500994e+00	 9.4870738459e-01
 1.1427603843e+00	 2.0230830718e+00	 9.5595315778e-01
 1.1233653013e+00	 2.0339165827e+00	 9.6130976348e-01
 1.1038938996e+00	 2.0445499154e+00	 9.6490590968e-01
 1.0843492062e+00	 2.0549824128e+00	 9.6756028299e-01
 1.0647342514e+00	 2.0652134774e+00	 9.6951806547e-01
 1.0450520678e+00	 2.0752425708e+00	 9.7086861962e-01
 1.0253056884e+00	 2.0850692143e+00	 9.7175577467e-01
 1.0054981458e+00	 2.0946929879e+00	 9.7236971192e-01
 9.6731675346e-01	 2.0151520210e+00	 1.0166555253e+00
 9.4820217558e-01	 2.0242163646e+00	 1.0189164009e+00
 9.2903456551e-01	 2.0330848350e+00	 1.0228811475e+00
 9.0981683097e-01	 2.0417571950e+00	 1.0282007956e+00
 8.9055187374e-01	 2.0502332634e+00	 1.0345501507e+00
 8.7124258838e-01	 2.0585129138e+00	 1.0416232239e+00
 8.5189186097e-01	 2.0665960749e+00	 1.0491292572e+00
 8.3250256787e-01	 2.0744827292e+00	 1.0567892933e+00
 8.1307757453e-01	 2.0821729134e+00	 1.0643332380e+00
 7.9361973424e-01	 2.0896667173e+00	 1.0714973635e+00
 7.7413188700e-01	 2.0969642834e+00	 1.0780222020e+00
 9.7113489269e-01	 2.0231061177e+00	 1.0099914501e+00
 9.5194486680e-01	 2.0322062396e+00	 1.0138270533e+00
 9.3270159940e-01	 2.0411097151e+00	 1.0200051188e+00
 9.1340800969e-01	 2.0498163062e+00	 1.0279277005e+00
 8.9406701088e-01	 2.0583258308e+00	 1.0370280587e+00
 8.7468150897e-01	 2.0666381623e+00	 1.0467664521e+00
 8.5525440144e-01	 2.0747532287e+00	 1.0566265186e+00
 8.3578857600e-01	 2.0826710128e+00	 1.0661121888e+00
 8.1628690940e-01	 2.0903915513e+00	 1.0747450803e+00
 7.9675226620e-01	 2.0979149343e+00	 1.0820623185e+00
 7.7718749760e-01	 2.1052413049e+00	 1.0876147315e+00
 9.7495303193e-01	 2.0310602143e+00	 1.0026727392e+00
 9.5568755803e-01	 2.0401961146e+00	 1.0075533629e+00
 9.3636863330e-01	 2.0491345952e+00	 1.0153188045e+00
 9.1699918840e-01	 2.0578754174e+00	 1.0251733884e+00
 8.9758214802e-01	 2.0664183983e+00	 1.0363584874e+00
 8.7812042957e-01	 2.0747634107e+00	 1.0481486410e+00
 8.5861694191e-01	 2.0829103825e+00	 1.0598482567e+00
 8.3907458413e-01	 2.0908592964e+00	 1.0707888375e+00
 8.1949624426e-01	 2.0986101891e+00	 1.0803266796e+00
 7.9988479815e-01	 2.1061631513e+00	 1.0878409853e+00
 7.8024310820e-01	 2.1135183265e+00	 1.0927323358e+00
 9.7877117116e-01	 2.0390143110e+00	 9.9514035947e-01
 9.5943024926e-01	 2.0481859895e+00	 1.0006018220e+00
 9.4003566719e-01	 2.0571594753e+00	 1.0093811633e+00
 9.2059036712e-01	 2.0659345285e+00	 1.0205356219e+00
 9.0109728516e-01	 2.0745109657e+00	 1.0331637501e+00
 8.8155935017e-01	 2.0828886591e+00	 1.0464018235e+00
 8.6197948239e-01	 2.0910675363e+00	 1.0594208298e+00
 8.4236059225e-01	 2.0990475800e+00	 1.0714239795e+00
 8.2270557913e-01	 2.1068288270e+00	 1.0816446800e+00
 8.0301733011e-01	 2.1144113683e+00	 1.0893449151e+00
 7.8329871880e-01	 2.1217953480e+00	 1.0938139736e+00
 9.8258931039e-01	 2.0469684077e+00	 9.8783015701e-01
 9.6317294048e-01	 2.0561758645e+00	 9.9347302008e-01
 9.4370270109e-01	 2.0651843554e+00	 1.0027446744e+00
 9.2418154583e-01	 2.0739936397e+00	 1.0146053194e+00
 9.0461242230e-01	 2.0826035331e+00	 1.0280591711e+00
 8.8499827076e-01	 2.0910139075e+00	 1.0421511257e+00
 8.6534202286e-01	 2.0992246901e+00	 1.0559640048e+00
 8.4564660038e-01	 2.1072358636e+00	 1.0686163193e+00
 8.2591491400e-01	 2.1150474649e+00	 1.0792604921e+00
 8.0614986206e-01	 2.1226595853e+00	 1.0870814805e+00
 7.8635432940e-01	 2.1300723696e+00	 1.0912957382e+00
 9.8640744962e-01	 2.0549225044e+00	 9.8117275148e-01
 9.6691563171e-01	 2.0641657395e+00	 9.8666156528e-01
 9.4736973498e-01	 2.0732092355e+00	 9.9595528180e-01
 9.2777272455e-01	 2.0820527509e+00	 1.0079665197e+00
 9.0812755944e-01	 2.0906961006e+00	 1.0216530653e+00
 8.8843719136e-01	 2.0991391559e+00	 1.0360147570e+00
 8.6870456333e-01	 2.1073818440e+00	 1.0500909537e+00
 8.4893260851e-01	 2.1154241471e+00	 1.0629585232e+00
 8.2912424886e-01	 2.1232661027e+00	 1.0737302868e+00
 8.0928239402e-01	 2.1309078023e+00	 1.0815538604e+00
 7.8940994000e-01	 2.1383493911e+00	 1.0856108283e+00
 9.9022558885e-01	 2.0628766011e+00	 9.7559342831e-01
 9.7065832294e-01	 2.0721556144e+00	 9.8065600322e-01
 9.5103676888e-01	 2.0812341156e+00	 9.8955233639e-01
 9.3136390326e-01	 2.0901118620e+00	 1.0011963418e+00
 9.1164269658e-01	 2.0987886680e+00	 1.0145467133e+00
 8.9187611195e-01	 2.1072644043e+00	 1.0286039957e+00
 8.7206710381e-01	 2.1155389978e+00	 1.0424082451e+00
 8.5221861663e-01	 2.1236124307e+00	 1.0550372126e+00
 8.3233358373e-01	 2.1314847406e+00	 1.0656049854e+00
 8.1241492597e-01	 2.1391560192e+00	 1.0732610219e+00
 7.9246555060e-01	 2.1466264126e+00	 1.0771895173e+00
 9.9404372809e-01	 2.0708306978e+00	 9.7151202813e-01
 9.7440101416e-01	 2.0801454894e+00	 9.7593873261e-01
 9.5470380277e-01	 2.0892589957e+00	 9.8406853379e-01
 9.3495508198e-01	 2.0981709732e+00	 9.9486494203e-01
 9.1515783372e-01	 2.1068812354e+00	 1.0073343328e+00
 8.9531503255e-01	 2.1153896527e+00	 1.0205231708e+00
 8.7542964428e-01	 2.1236961516e+00	 1.0335158319e+00
 8.5550462476e-01	 2.1318007143e+00	 1.0454329533e+00
 8.3554291859e-01	 2.1397033784e+00	 1.0554302454e+00
 8.1554745792e-01	 2.1474042362e+00	 1.0626976986e+00
 7.9552116120e-01	 2.1549034342e+00	 1.0664591184e+00
 9.9786186732e-01	 2.0787847945e+00	 9.6934283386e-01
 9.7814370539e-01	 2.0881353644e+00	 9.7298591800e-01
 9.5837083667e-01	 2.0972838758e+00	 9.8002984934e-01
 9.3854626069e-01	 2.1062300844e+00	 9.8953546708e-01
 9.1867297086e-01	 2.1149738029e+00	 1.0006030458e+00
 8.9875395314e-01	 2.1235149012e+00	 1.0123696399e+00
 8.7879218475e-01	 2.1318533054e+00	 1.0240070356e+00
 8.5879063289e-01	 2.1399889979e+00	 1.0347202413e+00
 8.3875225346e-01	 2.1479220163e+00	 1.0437464444e+00
 8.1867998988e-01	 2.1556524532e+00	 1.0503543661e+00
 7.9857677180e-01	 2.1631804557e+00	 1.0538439479e+00
 1.0016800066e+00	 2.0867388912e+00	 9.6949445537e-01
 9.8188639661e-01	 2.0961252394e+00	 9.7226739976e-01
 9.6203787056e-01	 2.1053087559e+00	 9.7795546977e-01
 9.4213743941e-01	 2.1142891955e+00	 9.8576400402e-01
 9.2218810800e-01	 2.1230663703e+00	 9.9493284355e-01
 9.0219287374e-01	 2.1316401496e+00	 1.0047337635e+00
 8.8215472523e-01	 2.1400104593e+00	 1.0144685267e+00
 8.6207664101e-01	 2.1481772815e+00	 1.0234674854e+00
 8.4196158833e-01	 2.1561406541e+00	 1.0310886588e+00
 8.2181252183e-01	 2.1639006702e+00	 1.0367172147e+00
 8.0163238240e-01	 2.1714574772e+00	 1.0397652858e+00
 1.0054981458e+00	 2.0946929879e+00	 9.7236971192e-01
 9.8562908784e-01	 2.1041151143e+00	 9.7424660134e-01
 9.6570490446e-01	 2.1133336360e+00	 9.7835772185e-01
 9.4572861812e-01	 2.1223483067e+00	 9.8409952661e-01
 9.2570324514e-01	 2.1311589378e+00	 9.9089654618e-01
 9.0563179433e-01	 2.1397653980e+00	 9.9819887598e-01
 8.8551726570e-01	 2.1481676131e+00	 1.0054803014e+00
 8.6536264914e-01	 2.1563655651e+00	 1.0122369852e+00
 8.4517092319e-01	 2.1643592920e+00	 1.0179866406e+00
 8.2494505378e-01	 2.1721488872e+00	 1.0222681185e+00
 8.0468799300e-01	 2.1797344988e+00	 1.0246413334e+00
 7.7413188700e-01	 2.0969642834e+00	 1.0780222020e+00
 7.5462017753e-01	 2.1040646156e+00	 1.0845290333e+00
 7.3508410348e-01	 2.1109692158e+00	 1.0913077189e+00
 7.1552645584e-01	 2.1176783796e+00	 1.0968169801e+00
 6.9595000784e-01	 2.1241924524e+00	 1.1002406111e+00
 6.7635751393e-01	 2.1305118294e+00	 1.1011814232e+00
 6.5675170875e-01	 2.1366369545e+00	 1.0993124584e+00
 6.3713530613e-01	 2.1425683196e+00	 1.0943727700e+00
 6.1751099811e-01	 2.1483064638e+00	 1.0861635533e+00
 5.9788145400e-01	 2.1538519729e+00	 1.0745446351e+00
 5.7824931944e-01	 2.1592054782e+00	 1.0594313307e+00
 7.7718749760e-01	 2.1052413049e+00	 1.0876147315e+00
 7.5759877259e-01	 2.1123696632e+00	 1.0922473933e+00
 7.3798558683e-01	 2.1193015169e+00	 1.0968155124e+00
 7.1835074232e-01	 2.1260371626e+00	 1.1000378575e+00
 6.9869702325e-01	 2.1325769474e+00	 1.1011308060e+00
 6.7902719493e-01	 2.1389212680e+00	 1.0999533038e+00
 6.5934400280e-01	 2.1450705698e+00	 1.0964295632e+00
 6.3965017140e-01	 2.1510253468e+00	 1.0905444693e+00
 6.1994840339e-01	 2.1567861403e+00	 1.0823393643e+00
 6.0024137863e-01	 2.1623535384e+00	 1.0719082236e+00
 5.8053175320e-01	 2.1677281748e+00	 1.0593942275e+00
 7.8024310820e-01	 2.1135183265e+00	 1.0927323358e+00
 7.6057736764e-01	 2.1206747107e+00	 1.0960402163e+00
 7.4088707018e-01	 2.1276338179e+00	 1.0990774990e+00
 7.2117502881e-01	 2.1343959457e+00	 1.1008875308e+00
 7.0144403866e-01	 2.1409614425e+00	 1.1005985262e+00
 6.8169687593e-01	 2.1473307065e+00	 1.0982852769e+00
 6.6193629684e-01	 2.1535041851e+00	 1.0940827674e+00
 6.4216503667e-01	 2.1594823741e+00	 1.0881811830e+00
 6.2238580868e-01	 2.1652658169e+00	 1.0808213985e+00
 6.0260130326e-01	 2.1708551038e+00	 1.0722908872e+00
 5.8281418696e-01	 2.1762508713e+00	 1.0629200561e+00
 7.8329871880e-01	 2.1217953480e+00	 1.0938139736e+00
 7.6355596270e-01	 2.1289797583e+00	 1.0962612896e+00
 7.4378855353e-01	 2.1359661189e+00	 1.0983665179e+00
 7.2399931529e-01	 2.1427547288e+00	 1.0995174140e+00
 7.0419105406e-01	 2.1493459376e+00	 1.0986910439e+00
 6.8436655692e-01	 2.1557401451e+00	 1.0961154685e+00
 6.6452859089e-01	 2.1619378004e+00	 1.0920965254e+00
 6.4467990193e-01	 2.1679394014e+00	 1.0869896460e+00
 6.2482321396e-01	 2.1737454935e+00	 1.0811950963e+00
 6.0496122789e-01	 2.1793566693e+00	 1.0751536670e+00
 5.8509662071e-01	 2.1847735679e+00	 1.0693428204e+00
 7.8635432940e-01	 2.1300723696e+00	 1.0912957382e+00
 7.6653455776e-01	 2.1372848059e+00	 1.0932630287e+00
 7.4669003687e-01	 2.1442984200e+00	 1.0949589152e+00
 7.2682360177e-01	 2.1511135119e+00	 1.0960805493e+00
 7.0693806947e-01	 2.1577304326e+00	 1.0954584792e+00
 6.8703623792e-01	 2.1641495836e+00	 1.0933861622e+00
 6.6712088494e-01	 2.1703714157e+00	 1.0903008428e+00
 6.4719476720e-01	 2.1763964286e+00	 1.0866836150e+00
 6.2726061925e-01	 2.1822251700e+00	 1.0830544616e+00
 6.0732115253e-01	 2.1878582348e+00	 1.0799677742e+00
 5.8737905447e-01	 2.1932962644e+00	 1.0780083577e+00
 7.8940994000e-01	 2.1383493911e+00	 1.0856108283e+00
 7.6951315282e-01	 2.1455898535e+00	 1.0873964305e+00
 7.4959152022e-01	 2.1526307210e+00	 1.0891165853e+00
 7.2964788825e-01	 2.1594722949e+00	 1.0907317269e+00
 7.0968508488e-01	 2.1661149277e+00	 1.0909538860e+00
 6.8970591892e-01	 2.1725590222e+00	 1.0900438497e+00
 6.6971317899e-01	 2.1788050310e+00	 1.0885312907e+00
 6.4970963247e-01	 2.1848534559e+00	 1.0869838453e+00
 6.2969802453e-01	 2.1907048466e+00	 1.0860020000e+00
 6.0968107716e-01	 2.1963598003e+00	 1.0862144873e+00
 5.8966148822e-01	 2.2018189609e+00	 1.0882741963e+00
 7.9246555060e-01	 2.1466264126e+00	 1.0771895173e+00
 7.7249174788e-01	 2.1538949010e+00	 1.0790110255e+00
 7.5249300356e-01	 2.1609630220e+00	 1.0811015041e+00
 7.3247217473e-01	 2.1678310780e+00	 1.0836276031e+00
 7.1243210028e-01	 2.1744994227e+00	 1.0852333368e+00
 6.9237559992e-01	 2.1809684607e+00	 1.0860392821e+00
 6.7230547303e-01	 2.1872386464e+00	 1.0866290208e+00
 6.5222449773e-01	 2.1933104832e+00	 1.0876180694e+00
 6.3213542981e-01	 2.1991845231e+00	 1.0896486592e+00
 6.1204100179e-01	 2.2048613658e+00	 1.0933850551e+00
 5.9194392198e-01	 2.2103416575e+00	 1.0995094180e+00
 7.9552116120e-01	 2.1549034342e+00	 1.0664591184e+00
 7.7547034294e-01	 2.1621999486e+00	 1.0684548269e+00
 7.5539448691e-01	 2.1692953231e+00	 1.0711756604e+00
 7.3529646121e-01	 2.1761898611e+00	 1.0749268174e+00
 7.1517911569e-01	 2.1828839178e+00	 1.0783560085e+00
 6.9504528091e-01	 2.1893778993e+00	 1.0813275210e+00
 6.7489776708e-01	 2.1956722617e+00	 1.0844407819e+00
 6.5473936300e-01	 2.2017675104e+00	 1.0883209773e+00
 6.3457283509e-01	 2.2076641997e+00	 1.0936137727e+00
 6.1440092642e-01	 2.2133629312e+00	 1.1009806013e+00
 5.9422635573e-01	 2.2188643540e+00	 1.1110945248e+00
 7.9857677180e-01	 2.1631804557e+00	 1.0538439479e+00
 7.7844893799e-01	 2.1705049962e+00	 1.0560742780e+00
 7.5829597026e-01	 2.1776276241e+00	 1.0596009853e+00
 7.3812074769e-01	 2.1845486441e+00	 1.0647901090e+00
 7.1792613110e-01	 2.1912684129e+00	 1.0703842667e+00
 6.9771496191e-01	 2.1977873378e+00	 1.0758679906e+00
 6.7749006113e-01	 2.2041058770e+00	 1.0818189379e+00
 6.5725422827e-01	 2.2102245377e+00	 1.0888341991e+00
 6.3701024038e-01	 2.2161438762e+00	 1.0975250056e+00
 6.1676085105e-01	 2.2218644967e+00	 1.1085120337e+00
 5.9650878948e-01	 2.2273870506e+00	 1.1224537783e+00
 8.0163238240e-01	 2.1714574772e+00	 1.0397652858e+00
 7.8142753305e-01	 2.1788100438e+00	 1.0422141976e+00
 7.6119745360e-01	 2.1859599251e+00	 1.0466392800e+00
 7.4094503417e-01	 2.1929074272e+00	 1.0533806348e+00
 7.2067314650e-01	 2.1996529079e+00	 1.0613837503e+00
 7.0038464291e-01	 2.2061967764e+00	 1.0696245300e+00
 6.8008235517e-01	 2.2125394923e+00	 1.0786214861e+00
 6.5976909353e-01	 2.2186815650e+00	 1.0889062884e+00
 6.3944764566e-01	 2.2246235528e+00	 1.1010304198e+00
 6.1912077568e-01	 2.2303660622e+00	 1.1156127390e+00
 5.9879122324e-01	 2.2359097471e+00	 1.1331423157e+00
 8.0468799300e-01	 2.1797344988e+00	 1.0246413334e+00
 7.8440612811e-01	 2.1871150913e+00	 1.0272177225e+00
 7.6409893695e-01	 2.1942922261e+00	 1.0325521428e+00
 7.4376932065e-01	 2.2012662103e+00	 1.0408981900e+00
 7.2342016191e-01	 2.2080374030e+00	 1.0514234555e+00
 7.0305432391e-01	 2.2146062150e+00	 1.0625654450e+00
 6.8267464922e-01	 2.2209731076e+00	 1.0747120766e+00
 6.6228395880e-01	 2.2271385922e+00	 1.0883533142e+00
 6.4188505094e-01	 2.2331032293e+00	 1.1039927979e+00
 6.2148070031e-01	 2.2388676277e+00	 1.1219743006e+00
 6.0107365699e-01	 2.2444324436e+00	 1.1426387888e+00
 5.7824931944e-01	 2.1592054782e+00	 1.0594313307e+00
 5.5861721583e-01	 2.1643676566e+00	 1.0452723533e+00
 5.3898774018e-01	 2.1693392306e+00	 1.0366917734e+00
 5.1936346347e-01	 2.1741209666e+00	 1.0338501399e+00
 4.9974692960e-01	 2.1787136732e+00	 1.0368314406e+00
 4.8014065454e-01	 2.1831182005e+00	 1.0456439719e+00
 4.6054712568e-01	 2.1873354389e+00	 1.0602216444e+00
 4.4096880104e-01	 2.1913663186e+00	 1.0804256998e+00
 4.2140810864e-01	 2.1952118086e+00	 1.1060468120e+00
 4.0186744582e-01	 2.1988729154e+00	 1.1368075446e+00
 3.8234917865e-01	 2.2023506823e+00	 1.1723651325e+00
 5.8053175320e-01	 2.1677281748e+00	 1.0593942275e+00
 5.6082215883e-01	 2.1729107290e+00	 1.0486605842e+00
 5.4111520280e-01	 2.1779019266e+00	 1.0435133555e+00
 5.2141346623e-01	 2.1827025368e+00	 1.0439789137e+00
 5.0171950306e-01	 2.1873133714e+00	 1.0499961433e+00
 4.8203583920e-01	 2.1917352840e+00	 1.0614177017e+00
 4.6236497184e-01	 2.1959691684e+00	 1.0780117385e+00
 4.4270936872e-01	 2.2000159587e+00	 1.0994640456e+00
 4.2307146744e-01	 2.2038766273e+00	 1.1253806106e+00
 4.0345367480e-01	 2.2075521850e+00	 1.1552905435e+00
 3.8385836620e-01	 2.2110436792e+00	 1.1886493423e+00
 5.8281418696e-01	 2.1762508713e+00	 1.0629200561e+00
 5.6302710183e-01	 2.1814538014e+00	 1.0559174599e+00
 5.4324266542e-01	 2.1864646225e+00	 1.0542442643e+00
 5.2346346899e-01	 2.1912841069e+00	 1.0578174436e+00
 5.0369207652e-01	 2.1959130696e+00	 1.0664581401e+00
 4.8393102385e-01	 2.2003523675e+00	 1.0798932327e+00
 4.6418281800e-01	 2.2046028980e+00	 1.0977573845e+00
 4.4444993640e-01	 2.2086655987e+00	 1.1195955398e+00
 4.2473482623e-01	 2.2125414461e+00	 1.1448658436e+00
 4.0503990377e-01	 2.2162314547e+00	 1.1729429490e+00
 3.8536755374e-01	 2.2197366761e+00	 1.2031216794e+00
 5.8509662071e-01	 2.1847735679e+00	 1.0693428204e+00
 5.6523204483e-01	 2.1899968738e+00	 1.0662668413e+00
 5.4537012804e-01	 2.1950273184e+00	 1.0680340916e+00
 5.2551347175e-01	 2.1998656770e+00	 1.0744765423e+00
 5.0566464998e-01	 2.2045127678e+00	 1.0853245487e+00
 4.8582620851e-01	 2.2089694510e+00	 1.1002086440e+00
 4.6600066416e-01	 2.2132366276e+00	 1.1186618297e+00
 4.4619050408e-01	 2.2173152387e+00	 1.1401223357e+00
 4.2639818503e-01	 2.2212062648e+00	 1.1639368176e+00
 4.0662613274e-01	 2.2249107243e+00	 1.1893485424e+00
 3.8687674129e-01	 2.2284296730e+00	 1.2154950686e+00
 5.8737905447e-01	 2.1932962644e+00	 1.0780083577e+00
 5.6743698783e-01	 2.1985399462e+00	 1.0789458410e+00
 5.4749759066e-01	 2.2035900143e+00	 1.0840465591e+00
 5.2756347451e-01	 2.2084472472e+00	 1.0930814972e+00
 5.0763722344e-01	 2.2131124661e+00	 1.1057167797e+00
 4.8772139316e-01	 2.2175865345e+00	 1.1215156054e+00
 4.6781851032e-01	 2.2218703571e+00	 1.1399406976e+00
 4.4793107176e-01	 2.2259648788e+00	 1.1603340728e+00
 4.2806154382e-01	 2.2298710835e+00	 1.1819297794e+00
 4.0821236171e-01	 2.2335899940e+00	 1.2039076975e+00
 3.8838592883e-01	 2.2371226699e+00	 1.2253738071e+00
 5.8966148822e-01	 2.2018189609e+00	 1.0882741963e+00
 5.6964193084e-01	 2.2070830186e+00	 1.0932046455e+00
 5.4962505327e-01	 2.2121527103e+00	 1.1014593164e+00
 5.2961347727e-01	 2.2170288173e+00	 1.1127718547e+00
 5.0960979690e-01	 2.2217121643e+00	 1.1267703172e+00
 4.8961657782e-01	 2.2262036180e+00	 1.1429635741e+00
 4.6963635648e-01	 2.2305040867e+00	 1.1607361780e+00
 4.4967163944e-01	 2.2346145188e+00	 1.1793969738e+00
 4.2972490262e-01	 2.2385359023e+00	 1.1981745259e+00
 4.0979859068e-01	 2.2422692636e+00	 1.2162203372e+00
 3.8989511638e-01	 2.2458156668e+00	 1.2326122880e+00
 5.9194392198e-01	 2.2103416575e+00	 1.0995094180e+00
 5.7184687384e-01	 2.2156260910e+00	 1.1083063431e+00
 5.5175251589e-01	 2.2207154062e+00	 1.1194637444e+00
 5.3166348003e-01	 2.2256103874e+00	 1.1326991997e+00
 5.1158237036e-01	 2.2303118625e+00	 1.1476011699e+00
 4.9151176247e-01	 2.2348207015e+00	 1.1636483007e+00
 4.7145420264e-01	 2.2391378163e+00	 1.1802345745e+00
 4.5141220712e-01	 2.2432641588e+00	 1.1966728842e+00
 4.3138826141e-01	 2.2472007210e+00	 1.2121982880e+00
 4.1138481965e-01	 2.2509485333e+00	 1.2259713348e+00
 3.9140430392e-01	 2.2545086637e+00	 1.2370814542e+00
 5.9422635573e-01	 2.2188643540e+00	 1.1110945248e+00
 5.7405181684e-01	 2.2241691634e+00	 1.1235294902e+00
 5.5387997851e-01	 2.2292781021e+00	 1.1372813441e+00
 5.3371348279e-01	 2.2341919575e+00	 1.1520339301e+00
 5.1355494382e-01	 2.2389115607e+00	 1.1673741821e+00
 4.9340694713e-01	 2.2434377850e+00	 1.1828068813e+00
 4.7327204880e-01	 2.2477715458e+00	 1.1977576287e+00
 4.5315277479e-01	 2.2519137988e+00	 1.2115759021e+00
 4.3305162021e-01	 2.2558655397e+00	 1.2235381862e+00
 4.1297104862e-01	 2.2596278029e+00	 1.2328511680e+00
 3.9291349147e-01	 2.2632016606e+00	 1.2386549881e+00
 5.9650878948e-01	 2.2273870506e+00	 1.1224537783e+00
 5.7625675983e-01	 2.2327122358e+00	 1.1382465207e+00
 5.5600744113e-01	 2.2378407980e+00	 1.1541965547e+00
 5.3576348554e-01	 2.2427735277e+00	 1.1700143848e+00
 5.1552751728e-01	 2.2475112589e+00	 1.1853333404e+00
 4.9530213178e-01	 2.2520548686e+00	 1.1997122720e+00
 4.7508989496e-01	 2.2564052754e+00	 1.2126383335e+00
 4.5489334247e-01	 2.2605634389e+00	 1.2235298380e+00
 4.3471497900e-01	 2.2645303585e+00	 1.2317391791e+00
 4.1455727759e-01	 2.2683070726e+00	 1.2365558076e+00
 3.9442267901e-01	 2.2718946575e+00	 1.2372092574e+00
 5.9879122324e-01	 2.2359097471e+00	 1.1331423157e+00
 5.7846170283e-01	 2.2412553082e+00	 1.1518410812e+00
 5.5813490375e-01	 2.2464034940e+00	 1.1695031310e+00
 5.3781348830e-01	 2.2513550978e+00	 1.1858996303e+00
 5.1750009074e-01	 2.2561109571e+00	 1.2007349711e+00
 4.9719731644e-01	 2.2606719521e+00	 1.2136492084e+00
 4.7690774112e-01	 2.2650390049e+00	 1.2242205686e+00
 4.5663391015e-01	 2.2692130789e+00	 1.2319680216e+00
 4.3637833780e-01	 2.2731951772e+00	 1.2363539074e+00
 4.1614350656e-01	 2.2769863422e+00	 1.2367866082e+00
 3.9593186656e-01	 2.2805876544e+00	 1.2326232605e+00
 6.0107365699e-01	 2.2444324436e+00	 1.1426387888e+00
 5.8066664583e-01	 2.2497983806e+00	 1.1636829856e+00
 5.6026236637e-01	 2.2549661899e+00	 1.1825057260e+00
 5.3986349106e-01	 2.2599366679e+00	 1.1989605961e+00
 5.1947266420e-01	 2.2647106553e+00	 1.2128473427e+00
 4.9909250109e-01	 2.2692890356e+00	 1.2239139676e+00
 4.7872558728e-01	 2.2736727345e+00	 1.2318588821e+00
 4.5837447783e-01	 2.2778627189e+00	 1.2363331113e+00
 4.3804169659e-01	 2.2818599959e+00	 1.2369425413e+00
 4.1772973553e-01	 2.2856656119e+00	 1.2332502010e+00
 3.9744105410e-01	 2.2892806513e+00	 1.2247785740e+00
 3.8234917865e-01	 2.2023506823e+00	 1.1723651325e+00
 3.6285233028e-01	 2.2056467332e+00	 1.2058227338e+00
 3.4338252815e-01	 2.2087615747e+00	 1.2304889473e+00
 3.2394204717e-01	 2.2116963537e+00	 1.2464346492e+00
 3.0453312866e-01	 2.2144522504e+00	 1.2538659232e+00
 2.8515797987e-01	 2.2170304767e+00	 1.2530803431e+00
 2.6581877354e-01	 2.2194322757e+00	 1.2444627344e+00
 2.4651764747e-01	 2.2216589208e+00	 1.2284804533e+00
 2.2725670416e-01	 2.2237117139e+00	 1.2056757429e+00
 2.0803801046e-01	 2.2255919856e+00	 1.1766632913e+00
 1.8886359723e-01	 2.2273010932e+00	 1.1421319800e+00
 3.8385836620e-01	 2.2110436792e+00	 1.1886493423e+00
 3.6428456095e-01	 2.2143527401e+00	 1.2191990160e+00
 3.4473790869e-01	 2.2174798763e+00	 1.2410567693e+00
 3.2522069331e-01	 2.2204262394e+00	 1.2543350373e+00
 3.0573516500e-01	 2.2231930139e+00	 1.2593088188e+00
 2.8628353969e-01	 2.2257814168e+00	 1.2563420616e+00
 2.6686799871e-01	 2.2281926962e+00	 1.2459218032e+00
 2.4749068830e-01	 2.2304281301e+00	 1.2286330633e+00
 2.2815371926e-01	 2.2324890259e+00	 1.2051450042e+00
 2.0885916660e-01	 2.2343767193e+00	 1.1762041732e+00
 1.8960906919e-01	 2.2360925730e+00	 1.1426280417e+00
 3.8536755374e-01	 2.2197366761e+00	 1.2031216794e+00
 3.6571679161e-01	 2.2230587470e+00	 1.2299217370e+00
 3.4609328922e-01	 2.2261981779e+00	 1.2483458412e+00
 3.2649933946e-01	 2.2291561250e+00	 1.2585301013e+00
 3.0693720133e-01	 2.2319337775e+00	 1.2608233518e+00
 2.8740909951e-01	 2.2345323570e+00	 1.2556873359e+00
 2.6791722388e-01	 2.2369531166e+00	 1.2436887355e+00
 2.4846372913e-01	 2.2391973394e+00	 1.2254915462e+00
 2.2905073436e-01	 2.2412663379e+00	 1.2018497835e+00
 2.0968032273e-01	 2.2431614530e+00	 1.1736004998e+00
 1.9035454114e-01	 2.2448840528e+00	 1.1416571011e+00
 3.8687674129e-01	 2.2284296730e+00	 1.2154950686e+00
 3.6714902227e-01	 2.2317647539e+00	 1.2377919985e+00
 3.4744866976e-01	 2.2349164796e+00	 1.2522808187e+00
 3.2777798560e-01	 2.2378860106e+00	 1.2591224702e+00
 3.0813923766e-01	 2.2406745410e+00	 1.2587077813e+00
 2.8853465932e-01	 2.2432832972e+00	 1.2515445256e+00
 2.6896644905e-01	 2.2457135370e+00	 1.2382493079e+00
 2.4943676996e-01	 2.2479665487e+00	 1.2195397988e+00
 2.2994774946e-01	 2.2500436499e+00	 1.1962273004e+00
 2.1050147887e-01	 2.2519461867e+00	 1.1692096266e+00
 1.9110001309e-01	 2.2536755325e+00	 1.1394642830e+00
 3.8838592883e-01	 2.2371226699e+00	 1.2253738071e+00
 3.6858125293e-01	 2.2404707608e+00	 1.2427165475e+00
 3.4880405029e-01	 2.2436347812e+00	 1.2530206947e+00
 3.2905663174e-01	 2.2466158962e+00	 1.2564369704e+00
 3.0934127399e-01	 2.2494153045e+00	 1.2533805314e+00
 2.8966021914e-01	 2.2520342374e+00	 1.2443850154e+00
 2.7001567422e-01	 2.2544739575e+00	 1.2300943667e+00
 2.5040981079e-01	 2.2567357580e+00	 1.2112550137e+00
 2.3084476456e-01	 2.2588209619e+00	 1.1887083801e+00
 2.1132263500e-01	 2.2607309204e+00	 1.1633837139e+00
 1.9184548504e-01	 2.2624670123e+00	 1.1362912171e+00
 3.8989511638e-01	 2.2458156668e+00	 1.2326122880e+00
 3.7001348360e-01	 2.2491767677e+00	 1.2447501742e+00
 3.5015943083e-01	 2.2523530828e+00	 1.2507734036e+00
 3.3033527789e-01	 2.2553457818e+00	 1.2508006671e+00
 3.1054331033e-01	 2.2581560681e+00	 1.2452541110e+00
 2.9078577895e-01	 2.2607851776e+00	 1.2346734159e+00
 2.7106489939e-01	 2.2632343779e+00	 1.2197076434e+00
 2.5138285162e-01	 2.2655049673e+00	 1.2011074407e+00
 2.3174177966e-01	 2.2675982739e+00	 1.1797175821e+00
 2.1214379113e-01	 2.2695156541e+00	 1.1564698322e+00
 1.9259095699e-01	 2.2712584921e+00	 1.1323761114e+00
 3.9140430392e-01	 2.2545086637e+00	 1.2370814542e+00
 3.7144571426e-01	 2.2578827746e+00	 1.2439482728e+00
 3.5151481136e-01	 2.2610713844e+00	 1.2457443183e+00
 3.3161392403e-01	 2.2640756675e+00	 1.2425361861e+00
 3.1174534666e-01	 2.2668968316e+00	 1.2347352330e+00
 2.9191133877e-01	 2.2695361177e+00	 1.2228676992e+00
 2.7211412455e-01	 2.2719947983e+00	 1.2075658972e+00
 2.5235589245e-01	 2.2742741767e+00	 1.1895605256e+00
 2.3263879476e-01	 2.2763755859e+00	 1.1696733261e+00
 2.1296494727e-01	 2.2783003878e+00	 1.1488100654e+00
 1.9333642894e-01	 2.2800499719e+00	 1.1279538222e+00
 3.9291349147e-01	 2.2632016606e+00	 1.2386549881e+00
 3.7287794492e-01	 2.2665887815e+00	 1.2403675330e+00
 3.5287019190e-01	 2.2697896861e+00	 1.2381363038e+00
 3.3289257017e-01	 2.2728055531e+00	 1.2319618047e+00
 3.1294738299e-01	 2.2756375952e+00	 1.2222249307e+00
 2.9303689858e-01	 2.2782870579e+00	 1.2094193316e+00
 2.7316334972e-01	 2.2807552187e+00	 1.1941390537e+00
 2.5332893328e-01	 2.2830433860e+00	 1.1770710458e+00
 2.3353580986e-01	 2.2851528979e+00	 1.1589880151e+00
 2.1378610340e-01	 2.2870851215e+00	 1.1407416118e+00
 1.9408190089e-01	 2.2888414517e+00	 1.1232559241e+00
 3.9442267901e-01	 2.2718946575e+00	 1.2372092574e+00
 3.7431017558e-01	 2.2752947884e+00	 1.2340628401e+00
 3.5422557243e-01	 2.2785079877e+00	 1.2281497702e+00
 3.3417121631e-01	 2.2815354387e+00	 1.2193915391e+00
 3.1414941932e-01	 2.2843783587e+00	 1.2081186708e+00
 2.9416245840e-01	 2.2870379981e+00	 1.1947734027e+00
 2.7421257489e-01	 2.2895156391e+00	 1.1798903410e+00
 2.5430197411e-01	 2.2918125953e+00	 1.1640892432e+00
 2.3443282496e-01	 2.2939302098e+00	 1.1480681549e+00
 2.1460725954e-01	 2.2958698551e+00	 1.1325968819e+00
 1.9482737284e-01	 2.2976329315e+00	 1.1185107771e+00
 3.9593186656e-01	 2.2805876544e+00	 1.2326232605e+00
 3.7574240624e-01	 2.2840007953e+00	 1.2250888818e+00
 3.5558095297e-01	 2.2872262893e+00	 1.2159827241e+00
 3.3544986246e-01	 2.2902653243e+00	 1.2051352305e+00
 3.1535145565e-01	 2.2931191223e+00	 1.1928064650e+00
 2.9528801822e-01	 2.2957889383e+00	 1.1793687516e+00
 2.7526180006e-01	 2.2982760596e+00	 1.1652764217e+00
 2.5527501495e-01	 2.3005818046e+00	 1.1510589533e+00
 2.3532984006e-01	 2.3027075218e+00	 1.1373144720e+00
 2.1542841567e-01	 2.3046545888e+00	 1.1247035950e+00
 1.9557284479e-01	 2.3064244113e+00	 1.1139435928e+00
 3.9744105410e-01	 2.2892806513e+00	 1.2247785740e+00
 3.7717463691e-01	 2.2927068022e+00	 1.2135002481e+00
 3.5693633350e-01	 2.2959445909e+00	 1.2018308184e+00
 3.3672850860e-01	 2.2989952099e+00	 1.1894986291e+00
 3.1655349199e-01	 2.3018598858e+00	 1.1766729774e+00
 2.9641357803e-01	 2.3045398784e+00	 1.1636380906e+00
 2.7631102523e-01	 2.3070364800e+00	 1.1507475227e+00
 2.5624805578e-01	 2.3093510139e+00	 1.1384177316e+00
 2.3622685516e-01	 2.3114848338e+00	 1.1271220280e+00
 2.1624957181e-01	 2.3134393225e+00	 1.1173848727e+00
 1.9631831674e-01	 2.3152158911e+00	 1.1097764987e+00
 1.8886359723e-01	 2.2273010932e+00	 1.1421319800e+00
 1.6973869895e-01	 2.2288401728e+00	 1.1086629020e+00
 1.5066197243e-01	 2.2302109371e+00	 1.0818180873e+00
 1.3163529446e-01	 2.2314148178e+00	 1.0608016280e+00
 1.1266050604e-01	 2.2324532696e+00	 1.0447904372e+00
 9.3739412190e-02	 2.2333277695e+00	 1.0329328920e+00
 7.4873781778e-02	 2.2340398157e+00	 1.0243476791e+00
 5.6065347405e-02	 2.2345909267e+00	 1.0181228241e+00
 3.7315805270e-02	 2.2349826402e+00	 1.0133148921e+00
 1.8626815083e-02	 2.2352165126e+00	 1.0089483388e+00
 0.0000000000e+00	 2.2352941176e+00	 1.0040150030e+00
 1.8960906919e-01	 2.2360925730e+00	 1.1426280417e+00
 1.7040868216e-01	 2.2376377276e+00	 1.1104312093e+00
 1.5125665704e-01	 2.2390139025e+00	 1.0844934405e+00
 1.3215487802e-01	 2.2402225351e+00	 1.0639706484e+00
 1.1310519337e-01	 2.2412650858e+00	 1.0479818889e+00
 9.4109415217e-02	 2.2421430375e+00	 1.0356083409e+00
 7.5169319431e-02	 2.2428578942e+00	 1.0258924916e+00
 5.6286645446e-02	 2.2434111805e+00	 1.0178375094e+00
 3.7463096154e-02	 2.2438044402e+00	 1.0104067869e+00
 1.8700337818e-02	 2.2440392357e+00	 1.0025236369e+00
 0.0000000000e+00	 2.2441171470e+00	 9.9307112744e-01
 1.9035454114e-01	 2.2448840528e+00	 1.1416571011e+00
 1.7107866537e-01	 2.2464352823e+00	 1.1113283769e+00
 1.5185134165e-01	 2.2478168679e+00	 1.0867061377e+00
 1.3267446158e-01	 2.2490302523e+00	 1.0669160752e+00
 1.1354988069e-01	 2.2500769020e+00	 1.0510395135e+00
 9.4479418243e-02	 2.2509583054e+00	 1.0381126526e+00
 7.5464857084e-02	 2.2516759727e+00	 1.0271260192e+00
 5.6507943486e-02	 2.2522314343e+00	 1.0170241063e+00
 3.7610387038e-02	 2.2526262402e+00	 1.0067051832e+00
 1.8773860553e-02	 2.2528619588e+00	 9.9502125944e-01
 0.0000000000e+00	 2.2529401764e+00	 9.8077818634e-01
 1.9110001309e-01	 2.2536755325e+00	 1.1394642830e+00
 1.7174864857e-01	 2.2552328371e+00	 1.1114877860e+00
 1.5244602626e-01	 2.2566198332e+00	 1.0885105952e+00
 1.3319404514e-01	 2.2578379696e+00	 1.0696457969e+00
 1.1399456801e-01	 2.2588887181e+00	 1.0539567519e+00
 9.4849421268e-02	 2.2597735734e+00	 1.0404565288e+00
 7.5760394736e-02	 2.2604940512e+00	 1.0281075455e+00
 5.6729241526e-02	 2.2610516881e+00	 1.0158214002e+00
 3.7757677922e-02	 2.2614480401e+00	 1.0024588741e+00
 1.8847383288e-02	 2.2616846819e+00	 9.8683008593e-01
 0.0000000000e+00	 2.2617632059e+00	 9.6769478407e-01
 1.9184548504e-01	 2.2624670123e+00	 1.1362912171e+00
 1.7241863178e-01	 2.2640303919e+00	 1.1110410140e+00
 1.5304071086e-01	 2.2654227986e+00	 1.0899606042e+00
 1.3371362869e-01	 2.2666456868e+00	 1.0721677487e+00
 1.1443925533e-01	 2.2677005343e+00	 1.0567272620e+00
 9.5219424293e-02	 2.2685888413e+00	 1.0426505616e+00
 7.6055932387e-02	 2.2693121297e+00	 1.0288954270e+00
 5.6950539565e-02	 2.2698719419e+00	 1.0143659480e+00
 3.7904968805e-02	 2.2702698401e+00	 9.9791264359e-01
 1.8920906022e-02	 2.2705074050e+00	 9.7833273345e-01
 0.0000000000e+00	 2.2705862353e+00	 9.5437054381e-01
 1.9259095699e-01	 2.2712584921e+00	 1.1323761114e+00
 1.7308861499e-01	 2.2728279466e+00	 1.1101178741e+00
 1.5363539547e-01	 2.2742257640e+00	 1.0911093476e+00
 1.3423321225e-01	 2.2754534041e+00	 1.0744899163e+00
 1.1488394265e-01	 2.2765123505e+00	 1.0593449183e+00
 9.5589427318e-02	 2.2774041093e+00	 1.0447052392e+00
 7.6351470039e-02	 2.2781302082e+00	 1.0295471148e+00
 5.7171837604e-02	 2.2786921957e+00	 1.0127921230e+00
 3.8052259688e-02	 2.2790916401e+00	 9.9330734537e-01
 1.8994428757e-02	 2.2793301281e+00	 9.6990567875e-01
 0.0000000000e+00	 2.2794092647e+00	 9.4134628149e-01
 1.9333642894e-01	 2.2800499719e+00	 1.1279538222e+00
 1.7375859820e-01	 2.2816255014e+00	 1.1088464541e+00
 1.5423008008e-01	 2.2830287293e+00	 1.0920094165e+00
 1.3475279581e-01	 2.2842611214e+00	 1.0766203389e+00
 1.1532862997e-01	 2.2853241667e+00	 1.0618038116e+00
 9.5959430343e-02	 2.2862193772e+00	 1.0466309511e+00
 7.6647007690e-02	 2.2869482867e+00	 1.0301191742e+00
 5.7393135643e-02	 2.2875124496e+00	 1.0112321602e+00
 3.8199550571e-02	 2.2879134400e+00	 9.8887998048e-01
 1.9067951492e-02	 2.2881528512e+00	 9.6191937756e-01
 0.0000000000e+00	 2.2882322941e+00	 9.2915417552e-01
 1.9408190089e-01	 2.2888414517e+00	 1.1232559241e+00
 1.7442858141e-01	 2.2904230561e+00	 1.1073531545e+00
 1.5482476469e-01	 2.2918316947e+00	 1.0927128256e+00
 1.3527237936e-01	 2.2930688386e+00	 1.0785671125e+00
 1.1577331729e-01	 2.2941359828e+00	 1.0640982490e+00
 9.6329433368e-02	 2.2950346452e+00	 1.0484379940e+00
 7.6942545342e-02	 2.2957663652e+00	 1.0306673054e+00
 5.7614433683e-02	 2.2963327034e+00	 1.0098161988e+00
 3.8346841455e-02	 2.2967352400e+00	 9.8486377291e-01
 1.9141474226e-02	 2.2969755743e+00	 9.5473838106e-01
 0.0000000000e+00	 2.2970553235e+00	 9.1831793269e-01
 1.9482737284e-01	 2.2976329315e+00	 1.1185107771e+00
 1.7509856462e-01	 2.2992206109e+00	 1.1057627248e+00
 1.5541944930e-01	 2.3006346601e+00	 1.0932710291e+00
 1.3579196292e-01	 2.3018765559e+00	 1.0803383930e+00
 1.1621800461e-01	 2.3029477990e+00	 1.0662227530e+00
 9.6699436393e-02	 2.3038499131e+00	 1.0501365765e+00
 7.7238082994e-02	 2.3045844437e+00	 1.0312463623e+00
 5.7835731722e-02	 2.3051529572e+00	 1.0086723253e+00
 3.8494132338e-02	 2.3055570400e+00	 9.8148824350e-01
 1.9214996961e-02	 2.3057982974e+00	 9.4872144975e-01
 0.0000000000e+00	 2.3058783529e+00	 9.0935295027e-01
 1.9557284479e-01	 2.3064244113e+00	 1.1139435928e+00
 1.7576854783e-01	 2.3080181656e+00	 1.1041983003e+00
 1.5601413391e-01	 2.3094376254e+00	 1.0937349355e+00
 1.3631154648e-01	 2.3106842731e+00	 1.0819423988e+00
 1.1666269193e-01	 2.3117596152e+00	 1.0681720617e+00
 9.7069439419e-02	 2.3126651811e+00	 1.0517368242e+00
 7.7533620647e-02	 2.3134025222e+00	 1.0319103721e+00
 5.8057029762e-02	 2.3139732110e+00	 1.0079266146e+00
 3.8641423222e-02	 2.3143788399e+00	 9.7897928215e-01
 1.9288519696e-02	 2.3146210205e+00	 9.4422166462e-01
 0.0000000000e+00	 2.3147013824e+00	 9.0276647436e-01
 1.9631831674e-01	 2.3152158911e+00	 1.1097764987e+00
 1.7643853104e-01	 2.3168157204e+00	 1.1027814367e+00
 1.5660881852e-01	 2.3182405908e+00	 1.0941549225e+00
 1.3683113004e-01	 2.3194919904e+00	 1.0833874143e+00
 1.1710737926e-01	 2.3205714314e+00	 1.0699411283e+00
 9.7439442445e-02	 2.3214804490e+00	 1.0532487849e+00
 7.7829158300e-02	 2.3222206007e+00	 1.0327125532e+00
 5.8278327803e-02	 2.3227934648e+00	 1.0077031706e+00
 3.8788714106e-02	 2.3232006399e+00	 9.7755921837e-01
 1.9362042431e-02	 2.3234437436e+00	 9.4158653594e-01
 0.0000000000e+00	 2.3235244118e+00	 8.9905775465e-01
 2.3235244118e+00	 0.0000000000e+00	 5.0666858104e+00
 2.3234437436e+00	 1.9362042431e-02	 3.9014287423e+00
 2.3232006399e+00	 3.8788714106e-02	 3.0719757723e+00
 2.3227934648e+00	 5.8278327803e-02	 2.5280811112e+00
 2.3222206007e+00	 7.7829158300e-02	 2.2186480282e+00
 2.3214804490e+00	 9.7439442445e-02	 2.0917971792e+00
 2.3205714314e+00	 1.1710737926e-01	 2.0949401950e+00
 2.3194919904e+00	 1.3683113004e-01	 2.1748582325e+00
 2.3182405908e+00	 1.5660881852e-01	 2.2777851608e+00
 2.3168157204e+00	 1.7643853104e-01	 2.3494950218e+00
 2.3152158911e+00	 1.9631831674e-01	 2.3353933764e+00
 2.3323489408e+00	 0.0000000000e+00	 4.8670506545e+00
 2.3322679662e+00	 1.9435577662e-02	 3.8953601922e+00
 2.3320239393e+00	 3.8936030025e-02	 3.1797815100e+00
 2.3316152178e+00	 5.8499663457e-02	 2.6824415355e+00
 2.3310401780e+00	 7.8124746184e-02	 2.3649780741e+00
 2.3302972153e+00	 9.7809508360e-02	 2.1886038117e+00
 2.3293847452e+00	 1.1755214216e-01	 2.1141750234e+00
 2.3283012046e+00	 1.3735080190e-01	 2.1022646743e+00
 2.3270450523e+00	 1.5720360420e-01	 2.1132395621e+00
 2.3256147704e+00	 1.7710862812e-01	 2.1073411218e+00
 2.3240088651e+00	 1.9706391539e-01	 2.0447694828e+00
 2.3411734673e+00	 0.0000000000e+00	 4.6993494836e+00
 2.3410921864e+00	 1.9509112873e-02	 3.8795746226e+00
 2.3408472361e+00	 3.9083345902e-02	 3.2505229594e+00
 2.3404369682e+00	 5.8720999048e-02	 2.7849548677e+00
 2.3398597527e+00	 7.8420333985e-02	 2.4554319802e+00
 2.3391139790e+00	 9.8179574170e-02	 2.2343773876e+00
 2.3381980566e+00	 1.1799690494e-01	 2.0941400922e+00
 2.3371104164e+00	 1.3787047363e-01	 2.0070633874e+00
 2.3358495114e+00	 1.5779838972e-01	 1.9455567889e+00
 2.3344138179e+00	 1.7777872501e-01	 1.8821711227e+00
 2.3328018366e+00	 1.9780951384e-01	 1.7896763430e+00
 2.3499979888e+00	 0.0000000000e+00	 4.5577519689e+00
 2.3499164015e+00	 1.9582648042e-02	 3.8518022239e+00
 2.3496705279e+00	 3.9230661696e-02	 3.2848338190e+00
 2.3492587136e+00	 5.8942334515e-02	 2.8385197285e+00
 2.3486793225e+00	 7.8715921619e-02	 2.4945537127e+00
 2.3479307377e+00	 9.8549639771e-02	 2.2347072340e+00
 2.3470113629e+00	 1.1844166747e-01	 2.0408902812e+00
 2.3459196231e+00	 1.3839014506e-01	 1.8952157515e+00
 2.3446539654e+00	 1.5839317490e-01	 1.7800670031e+00
 2.3432128605e+00	 1.7844882153e-01	 1.6781681641e+00
 2.3415948031e+00	 1.9855511186e-01	 1.5726567529e+00
 2.3588225028e+00	 0.0000000000e+00	 4.4365083090e+00
 2.3587406091e+00	 1.9656183149e-02	 3.8098022920e+00
 2.3584938123e+00	 3.9377977365e-02	 3.2833352036e+00
 2.3580804516e+00	 5.9163669793e-02	 2.8459899071e+00
 2.3574988847e+00	 7.9011509003e-02	 2.4868192990e+00
 2.3567474889e+00	 9.8919705058e-02	 2.1951004647e+00
 2.3558246618e+00	 1.1888642962e-01	 1.9603924957e+00
 2.3547288224e+00	 1.3890981604e-01	 1.7725975996e+00
 2.3534584120e+00	 1.5898795958e-01	 1.6220251032e+00
 2.3520118955e+00	 1.7911891748e-01	 1.4994579159e+00
 2.3503877622e+00	 1.9930070925e-01	 1.3962209949e+00
 2.3676470068e+00	 0.0000000000e+00	 4.3299477313e+00
 2.3675648068e+00	 1.9729718173e-02	 3.7513627051e+00
 2.3673170866e+00	 3.9525292868e-02	 3.2466359127e+00
 2.3669021795e+00	 5.9385004822e-02	 2.8101752420e+00
 2.3663184370e+00	 7.9307096051e-02	 2.4366381476e+00
 2.3655642302e+00	 9.9289769926e-02	 2.1209835696e+00
 2.3646379507e+00	 1.1933119126e-01	 1.8585273642e+00
 2.3635380116e+00	 1.3942948644e-01	 1.6450008670e+00
 2.3622628486e+00	 1.5958274358e-01	 1.4766121724e+00
 2.3608109206e+00	 1.7978901266e-01	 1.3501096839e+00
 2.3591807113e+00	 2.0004630580e-01	 1.2628474616e+00
 2.3764714982e+00	 0.0000000000e+00	 4.2324770251e+00
 2.3763889919e+00	 1.9803253093e-02	 3.6742994113e+00
 2.3761403485e+00	 3.9672608162e-02	 3.1753326924e+00
 2.3757238949e+00	 5.9606339536e-02	 2.7338424814e+00
 2.3751379767e+00	 7.9602682682e-02	 2.3483543371e+00
 2.3743809589e+00	 9.9659834270e-02	 2.0177039679e+00
 2.3734512271e+00	 1.1977595228e-01	 1.7410908974e+00
 2.3723471884e+00	 1.3994915611e-01	 1.5181352024e+00
 2.3710672727e+00	 1.6017752674e-01	 1.3489368951e+00
 2.3696099332e+00	 1.8045910690e-01	 1.2341374889e+00
 2.3679736479e+00	 2.0079190129e-01	 1.1749832636e+00
 2.3852959747e+00	 0.0000000000e+00	 4.1385791089e+00
 2.3852131620e+00	 1.9876787888e-02	 3.5764559289e+00
 2.3849635953e+00	 3.9819923205e-02	 3.0700104920e+00
 2.3845455954e+00	 5.9827673875e-02	 2.6197161252e+00
 2.3839575015e+00	 7.9898268809e-02	 2.2262478775e+00
 2.3831976727e+00	 1.0002989798e-01	 1.8905315282e+00
 2.3822644885e+00	 1.2022071254e-01	 1.6137961099e+00
 2.3811563502e+00	 1.4046882489e-01	 1.3976295424e+00
 2.3798716818e+00	 1.6077230889e-01	 1.2440369400e+00
 2.3784089309e+00	 1.8112920000e-01	 1.1555011212e+00
 2.3767665696e+00	 2.0153749551e-01	 1.1350448218e+00
 2.3941204337e+00	 0.0000000000e+00	 4.0428116275e+00
 2.3940373146e+00	 1.9950322536e-02	 3.4557028563e+00
 2.3937868247e+00	 3.9967237957e-02	 2.9312427140e+00
 2.3933672783e+00	 6.0049007775e-02	 2.4704792482e+00
 2.3927770088e+00	 8.0193854351e-02	 2.0745359424e+00
 2.3920143689e+00	 1.0039996097e-01	 1.7446600526e+00
 2.3910777324e+00	 1.2066547192e-01	 1.4822746058e+00
 2.3899654946e+00	 1.4098849264e-01	 1.2890336510e+00
 2.3886760735e+00	 1.6136708986e-01	 1.1668803128e+00
 2.3872079111e+00	 1.8179929177e-01	 1.1181071698e+00
 2.3855594738e+00	 2.0228308825e-01	 1.1454184458e+00
 2.4029448727e+00	 0.0000000000e+00	 3.9398055816e+00
 2.4028614472e+00	 2.0023857018e-02	 3.3099373937e+00
 2.4026100340e+00	 4.0114552374e-02	 2.7595914597e+00
 2.4021889412e+00	 6.0270341172e-02	 2.2887743041e+00
 2.4015964960e+00	 8.0489439222e-02	 1.8973740750e+00
 2.4008310452e+00	 1.0077002311e-01	 1.5852087297e+00
 2.3998909564e+00	 1.2111023029e-01	 1.3520781290e+00
 2.3987746190e+00	 1.4150815921e-01	 1.1978196239e+00
 2.3974804453e+00	 1.6196186948e-01	 1.1223666766e+00
 2.3960068713e+00	 1.8246938203e-01	 1.1258100289e+00
 2.3943523582e+00	 2.0302867931e-01	 1.2084608977e+00
 2.4117692892e+00	 0.0000000000e+00	 3.8242639863e+00
 2.4116855573e+00	 2.0097391313e-02	 3.1370828750e+00
 2.4114332208e+00	 4.0261866415e-02	 2.5556077687e+00
 2.4110105817e+00	 6.0491674005e-02	 2.0772039135e+00
 2.4104159608e+00	 8.0785023340e-02	 1.6988573668e+00
 2.4096476990e+00	 1.0114008431e-01	 1.4172235542e+00
 2.4087041578e+00	 1.2155498752e-01	 1.2286800785e+00
 2.4075837209e+00	 1.4202782445e-01	 1.1293833601e+00
 2.4062847945e+00	 1.6255664758e-01	 1.1153286442e+00
 2.4048058091e+00	 1.8313947057e-01	 1.1824128796e+00
 2.4031452201e+00	 2.0377426846e-01	 1.3264999419e+00
 2.3152158911e+00	 1.9631831674e-01	 2.3353933764e+00
 2.3134393225e+00	 2.1624957181e-01	 2.2305373519e+00
 2.3114848338e+00	 2.3622685516e-01	 2.0757823730e+00
 2.3093510139e+00	 2.5624805578e-01	 1.8845911170e+00
 2.3070364800e+00	 2.7631102523e-01	 1.6699261688e+00
 2.3045398784e+00	 2.9641357803e-01	 1.4442618375e+00
 2.3018598858e+00	 3.1655349199e-01	 1.2195956365e+00
 2.2989952099e+00	 3.3672850860e-01	 1.0074590100e+00
 2.2959445909e+00	 3.5693633350e-01	 8.1892688587e-01
 2.2927068022e+00	 3.7717463691e-01	 6.7014113915e-01
 2.2892806513e+00	 3.9744105410e-01	 6.3734485258e-01
 2.3240088651e+00	 1.9706391539e-01	 2.0447694828e+00
 2.3222255493e+00	 2.1707086751e-01	 1.9241616170e+00
 2.3202636376e+00	 2.3712402272e-01	 1.7770109780e+00
 2.3181217137e+00	 2.5722126199e-01	 1.6122699164e+00
 2.3157983894e+00	 2.7736042873e-01	 1.4382367818e+00
 2.3132923059e+00	 2.9753932915e-01	 1.2625723943e+00
 2.3106021349e+00	 3.1775573262e-01	 1.0923163718e+00
 2.3077265793e+00	 3.3800737207e-01	 9.3390288276e-01
 2.3046643743e+00	 3.5829194440e-01	 7.9317538859e-01
 2.3014142887e+00	 3.7860711100e-01	 6.8322035990e-01
 2.2979751257e+00	 3.9895049815e-01	 6.7408921328e-01
 2.3328018366e+00	 1.9780951384e-01	 1.7896763430e+00
 2.3310117736e+00	 2.1789216298e-01	 1.6672365911e+00
 2.3290424389e+00	 2.3802119003e-01	 1.5359354697e+00
 2.3268924109e+00	 2.5819446793e-01	 1.4009818430e+00
 2.3245602962e+00	 2.7840983194e-01	 1.2668099777e+00
 2.3220447310e+00	 2.9866507996e-01	 1.1371004410e+00
 2.3193443816e+00	 3.1895797292e-01	 1.0148009978e+00
 2.3164579462e+00	 3.3928623517e-01	 9.0214705859e-01
 2.3133841553e+00	 3.5964755492e-01	 8.0068122691e-01
 2.3101217729e+00	 3.8003958468e-01	 7.2167822738e-01
 2.3066695976e+00	 4.0045994178e-01	 7.2892028388e-01
 2.3415948031e+00	 1.9855511186e-01	 1.5726567529e+00
 2.3397979929e+00	 2.1871345799e-01	 1.4605753691e+00
 2.3378212353e+00	 2.3891835683e-01	 1.3519333625e+00
 2.3356631032e+00	 2.5916767332e-01	 1.2489539974e+00
 2.3333221982e+00	 2.7945923455e-01	 1.1529984173e+00
 2.3307971510e+00	 2.9979083012e-01	 1.0645907471e+00
 2.3280866233e+00	 3.2016021254e-01	 9.8344328451e-01
 2.3251893082e+00	 3.4056509756e-01	 9.0848131647e-01
 2.3221039313e+00	 3.6100316467e-01	 8.3786709144e-01
 2.3188292521e+00	 3.8147205756e-01	 7.8224431042e-01
 2.3153640646e+00	 4.0196938455e-01	 7.9913897383e-01
 2.3503877622e+00	 1.9930070925e-01	 1.3962209949e+00
 2.3485842047e+00	 2.1953475230e-01	 1.3049845926e+00
 2.3466000241e+00	 2.3981552287e-01	 1.2243971351e+00
 2.3444337881e+00	 2.6014087788e-01	 1.1544453439e+00
 2.3420840926e+00	 2.8050863627e-01	 1.0941991388e+00
 2.3395495637e+00	 3.0091657933e-01	 1.0418407224e+00
 2.3368288576e+00	 3.2136245113e-01	 9.9469379464e-01
 2.3339206627e+00	 3.4184395885e-01	 9.4925241401e-01
 2.3308236998e+00	 3.6235877327e-01	 9.0120901842e-01
 2.3275367238e+00	 3.8290452922e-01	 8.6169433404e-01
 2.3240585242e+00	 4.0347882604e-01	 8.8208350648e-01
 2.3591807113e+00	 2.0004630580e-01	 1.2628474616e+00
 2.3573704066e+00	 2.2035604567e-01	 1.2012645666e+00
 2.3553788031e+00	 2.4071268789e-01	 1.1527339198e+00
 2.3532044630e+00	 2.6111408134e-01	 1.1157460538e+00
 2.3508459772e+00	 2.8155803680e-01	 1.0878526316e+00
 2.3483019664e+00	 3.0204232727e-01	 1.0656992959e+00
 2.3455710820e+00	 3.2256468836e-01	 1.0450586384e+00
 2.3426520073e+00	 3.4312281870e-01	 1.0208627863e+00
 2.3395434585e+00	 3.6371438034e-01	 9.8723509934e-01
 2.3362441858e+00	 3.8433699925e-01	 9.5684927899e-01
 2.3327529740e+00	 4.0498826582e-01	 9.7512868919e-01
 2.3679736479e+00	 2.0079190129e-01	 1.1749832636e+00
 2.3661565960e+00	 2.2117733789e-01	 1.1502093702e+00
 2.3641575696e+00	 2.4160985164e-01	 1.1363651976e+00
 2.3619751254e+00	 2.6208728342e-01	 1.1311768614e+00
 2.3596078493e+00	 2.8260743584e-01	 1.1314419281e+00
 2.3570543567e+00	 3.0316807361e-01	 1.1330658152e+00
 2.3543132940e+00	 3.2376692389e-01	 1.1310982508e+00
 2.3513833396e+00	 3.4440167673e-01	 1.1197692690e+00
 2.3482632049e+00	 3.6506998548e-01	 1.0925242140e+00
 2.3449516353e+00	 3.8576946725e-01	 1.0645745023e+00
 2.3414474114e+00	 4.0649770346e-01	 1.0756852007e+00
 2.3767665696e+00	 2.0153749551e-01	 1.1350448218e+00
 2.3749427705e+00	 2.2199862871e-01	 1.1526069638e+00
 2.3729363211e+00	 2.4250701387e-01	 1.1747264975e+00
 2.3707457730e+00	 2.6306048385e-01	 1.1990884306e+00
 2.3683697065e+00	 2.8365683310e-01	 1.2224917110e+00
 2.3658067321e+00	 3.0429381804e-01	 1.2408889664e+00
 2.3630554911e+00	 3.2496915738e-01	 1.2494261924e+00
 2.3601146570e+00	 3.4568053260e-01	 1.2424818450e+00
 2.3569829364e+00	 3.6642558832e-01	 1.2137047862e+00
 2.3536590701e+00	 3.8720193283e-01	 1.1817788783e+00
 2.3501418341e+00	 4.0800713853e-01	 1.1811988958e+00
 2.3855594738e+00	 2.0228308825e-01	 1.1454184458e+00
 2.3837289275e+00	 2.2281991790e-01	 1.2092392915e+00
 2.3817150553e+00	 2.4340417432e-01	 1.2672670995e+00
 2.3795164032e+00	 2.6403368235e-01	 1.3178607334e+00
 2.3771315464e+00	 2.8470622828e-01	 1.3585674389e+00
 2.3745590902e+00	 3.0541956023e-01	 1.3861657148e+00
 2.3717976709e+00	 3.2617138848e-01	 1.3967079720e+00
 2.3688459571e+00	 3.4695938592e-01	 1.3855624137e+00
 2.3657026506e+00	 3.6778118847e-01	 1.3474535616e+00
 2.3623664876e+00	 3.8863439555e-01	 1.3054139598e+00
 2.3588362395e+00	 4.0951657061e-01	 1.2891501255e+00
 2.3943523582e+00	 2.0302867931e-01	 1.2084608977e+00
 2.3925150647e+00	 2.2364120523e-01	 1.3208823800e+00
 2.3904937695e+00	 2.4430133273e-01	 1.4134497428e+00
 2.3882870135e+00	 2.6500687864e-01	 1.4859024390e+00
 2.3858933664e+00	 2.8575562108e-01	 1.5372744865e+00
 2.3833114284e+00	 3.0654529987e-01	 1.5659402647e+00
 2.3805398309e+00	 3.2737361686e-01	 1.5696598913e+00
 2.3775772374e+00	 3.4823823635e-01	 1.5456235834e+00
 2.3744223451e+00	 3.6913678555e-01	 1.4904944075e+00
 2.3710738854e+00	 3.9006685504e-01	 1.4324731586e+00
 2.3675306252e+00	 4.1102599927e-01	 1.3970530752e+00
 2.4031452201e+00	 2.0377426846e-01	 1.3264999419e+00
 2.4013011794e+00	 2.2446249046e-01	 1.4883064327e+00
 2.3992724614e+00	 2.4519848886e-01	 1.6127503373e+00
 2.3970576014e+00	 2.6598007245e-01	 1.7016503141e+00
 2.3946551640e+00	 2.8680501121e-01	 1.7562573013e+00
 2.3920637443e+00	 3.0767103664e-01	 1.7773030391e+00
 2.3892819685e+00	 3.2857584217e-01	 1.7650479106e+00
 2.3863084955e+00	 3.4951708351e-01	 1.7193274844e+00
 2.3831420173e+00	 3.7049237917e-01	 1.6395978446e+00
 2.3797812609e+00	 3.9149931087e-01	 1.5599909450e+00
 2.3762249887e+00	 4.1253542408e-01	 1.5024551161e+00
 2.2892806513e+00	 3.9744105410e-01	 6.3734485258e-01
 2.2856656119e+00	 4.1772973553e-01	 6.8107352049e-01
 2.2818599959e+00	 4.3804169659e-01	 7.3966028209e-01
 2.2778627189e+00	 4.5837447783e-01	 8.0696551200e-01
 2.2736727345e+00	 4.7872558728e-01	 8.7699187855e-01
 2.2692890356e+00	 4.9909250109e-01	 9.4389711666e-01
 2.2647106553e+00	 5.1947266420e-01	 1.0020080540e+00
 2.2599366679e+00	 5.3986349106e-01	 1.0458360135e+00
 2.2549661899e+00	 5.6026236637e-01	 1.0700937094e+00
 2.2497983806e+00	 5.8066664583e-01	 1.0697137476e+00
 2.2444324436e+00	 6.0107365699e-01	 1.0398688322e+00
 2.2979751257e+00	 3.9895049815e-01	 6.7408921328e-01
 2.2943463567e+00	 4.1931623410e-01	 7.2138738546e-01
 2.2905262874e+00	 4.3970533810e-01	 7.6935129030e-01
 2.2865138291e+00	 4.6011534134e-01	 8.1502934986e-01
 2.2823079315e+00	 4.8054374241e-01	 8.5568156679e-01
 2.2779075837e+00	 5.0098800786e-01	 8.8878892197e-01
 2.2733118151e+00	 5.2144557292e-01	 9.1206391310e-01
 2.2685196966e+00	 5.4191384224e-01	 9.2346236376e-01
 2.2635303412e+00	 5.6239019058e-01	 9.2119662650e-01
 2.2583429051e+00	 5.8287196359e-01	 9.0375029708e-01
 2.2529565887e+00	 6.0335647868e-01	 8.6989454894e-01
 2.3066695976e+00	 4.0045994178e-01	 7.2892028388e-01
 2.3030270990e+00	 4.2090273223e-01	 7.7511560304e-01
 2.2991925764e+00	 4.4136897913e-01	 8.1066828219e-01
 2.2951649368e+00	 4.6185620436e-01	 8.3526145436e-01
 2.2909431260e+00	 4.8236189702e-01	 8.4884671507e-01
 2.2865261293e+00	 5.0288351409e-01	 8.5165062613e-01
 2.2819129725e+00	 5.2341848109e-01	 8.4418227559e-01
 2.2771027228e+00	 5.4396419285e-01	 8.2724202924e-01
 2.2720944900e+00	 5.6451801418e-01	 8.0193160363e-01
 2.2668874270e+00	 5.8507728073e-01	 7.6966558432e-01
 2.2614807314e+00	 6.0563929971e-01	 7.3218450459e-01
 2.3153640646e+00	 4.0196938455e-01	 7.9913897383e-01
 2.3117078365e+00	 4.2248922945e-01	 8.4019705842e-01
 2.3078588604e+00	 4.4303261922e-01	 8.6211001565e-01
 2.3038160396e+00	 4.6359706640e-01	 8.6664882021e-01
 2.2995783156e+00	 4.8418005061e-01	 8.5589748170e-01
 2.2951446701e+00	 5.0477901924e-01	 8.3225713275e-01
 2.2905141251e+00	 5.2539138814e-01	 7.9845111537e-01
 2.2856857442e+00	 5.4601454229e-01	 7.5753120711e-01
 2.2806586340e+00	 5.6664583658e-01	 7.1288512328e-01
 2.2754319442e+00	 5.8728259661e-01	 6.6824542495e-01
 2.2700048692e+00	 6.0792211946e-01	 6.2769995442e-01
 2.3240585242e+00	 4.0347882604e-01	 8.8208350648e-01
 2.3203885665e+00	 4.2407572533e-01	 9.1459816117e-01
 2.3165251371e+00	 4.4469625790e-01	 9.2219420369e-01
 2.3124671350e+00	 4.6533792695e-01	 9.0818995259e-01
 2.3082134979e+00	 4.8599820264e-01	 8.7624911821e-01
 2.3037632036e+00	 5.0667452279e-01	 8.3038294971e-01
 2.2991152703e+00	 5.2736429351e-01	 7.7495334945e-01
 2.2942687583e+00	 5.4806488999e-01	 7.1467710233e-01
 2.2892227707e+00	 5.6877365718e-01	 6.5463136252e-01
 2.2839764541e+00	 5.8948791062e-01	 6.0026053324e-01
 2.2785289998e+00	 6.1020493726e-01	 5.5738466737e-01
 2.3327529740e+00	 4.0498826582e-01	 9.7512868919e-01
 2.3290692867e+00	 4.2566221941e-01	 9.9631230458e-01
 2.3251914040e+00	 4.4635989470e-01	 9.8945714147e-01
 2.3211182206e+00	 4.6707878553e-01	 9.5889464209e-01
 2.3168486704e+00	 4.8781635262e-01	 9.0932187404e-01
 2.3123817272e+00	 5.0857002419e-01	 8.4580220746e-01
 2.3077164057e+00	 5.2933719665e-01	 7.7376695554e-01
 2.3028517627e+00	 5.5011523536e-01	 6.9901813197e-01
 2.2977868977e+00	 5.7090147536e-01	 6.2773247367e-01
 2.2925209543e+00	 5.9169322214e-01	 5.6646687052e-01
 2.2870531207e+00	 6.1248775248e-01	 5.2216533547e-01
 2.3414474114e+00	 4.0649770346e-01	 1.0756852007e+00
 2.3377499946e+00	 4.2724871124e-01	 1.0833593383e+00
 2.3338576586e+00	 4.4802352914e-01	 1.0624533431e+00
 2.3297692940e+00	 4.6881964165e-01	 1.0177837461e+00
 2.3254838307e+00	 4.8963450003e-01	 9.5454090499e-01
 2.3210002387e+00	 5.1046552290e-01	 8.7828867870e-01
 2.3163175290e+00	 5.3131009699e-01	 7.9496508902e-01
 2.3114347549e+00	 5.5216557783e-01	 7.1088412732e-01
 2.3063510126e+00	 5.7302929053e-01	 6.3273886121e-01
 2.3010654424e+00	 5.9389853053e-01	 5.6760598846e-01
 2.2955772296e+00	 6.1477056446e-01	 5.2295197703e-01
 2.3501418341e+00	 4.0800713853e-01	 1.1811988958e+00
 2.3464306878e+00	 4.2883520038e-01	 1.1737850541e+00
 2.3425238984e+00	 4.4968716075e-01	 1.1397551877e+00
 2.3384203527e+00	 4.7056049481e-01	 1.0838889768e+00
 2.3341189763e+00	 4.9145264434e-01	 1.0113361856e+00
 2.3296187355e+00	 5.1236101839e-01	 9.2761579976e-01
 2.3249186377e+00	 5.3328299398e-01	 8.3861619951e-01
 2.3200177325e+00	 5.5421591682e-01	 7.5059653382e-01
 2.3149151129e+00	 5.7515710208e-01	 6.7018945502e-01
 2.3096099159e+00	 5.9610383517e-01	 6.0440536740e-01
 2.3041013239e+00	 6.1705337257e-01	 5.6063833383e-01
 2.3588362395e+00	 4.0951657061e-01	 1.2891501255e+00
 2.3551113637e+00	 4.3042168637e-01	 1.2656606841e+00
 2.3511901211e+00	 4.5135078906e-01	 1.2199525753e+00
 2.3470713942e+00	 4.7230134451e-01	 1.1562526953e+00
 2.3427541048e+00	 4.9327078505e-01	 1.0791424253e+00
 2.3382372152e+00	 5.1425651012e-01	 9.9355669327e-01
 2.3335197293e+00	 5.3525588706e-01	 9.0478414693e-01
 2.3286006931e+00	 5.5626625174e-01	 8.1846860884e-01
 2.3234791962e+00	 5.7728490941e-01	 7.4061198003e-01
 2.3181543725e+00	 5.9830913543e-01	 6.7757874993e-01
 2.3126254014e+00	 6.1933617614e-01	 6.3610226227e-01
 2.3675306252e+00	 4.1102599927e-01	 1.3970530752e+00
 2.3637920200e+00	 4.3200816876e-01	 1.3570824113e+00
 2.3598563242e+00	 4.5301441360e-01	 1.3016525910e+00
 2.3557224161e+00	 4.7404219027e-01	 1.2339277118e+00
 2.3513892137e+00	 4.9508892163e-01	 1.1573989875e+00
 2.3468556754e+00	 5.1615199756e-01	 1.0758841923e+00
 2.3421208014e+00	 5.3722877566e-01	 9.9352831707e-01
 2.3371836342e+00	 5.5831658201e-01	 9.1480561738e-01
 2.3320432601e+00	 5.7941271192e-01	 8.4452322245e-01
 2.3266988098e+00	 6.0051443070e-01	 7.8782646974e-01
 2.3211494595e+00	 6.2161897455e-01	 7.5020611900e-01
 2.3762249887e+00	 4.1253542408e-01	 1.5024551161e+00
 2.3724726541e+00	 4.3359464711e-01	 1.4461708925e+00
 2.3685225051e+00	 4.5467803390e-01	 1.3834791784e+00
 2.3643734159e+00	 4.7578303159e-01	 1.3159770920e+00
 2.3600243005e+00	 4.9690705358e-01	 1.2455498136e+00
 2.3554741136e+00	 5.1804748016e-01	 1.1743708659e+00
 2.3507218515e+00	 5.3920165923e-01	 1.1049037368e+00
 2.3457665534e+00	 5.6036690706e-01	 1.0399050257e+00
 2.3406073021e+00	 5.8154050900e-01	 9.8242929263e-01
 2.3352432252e+00	 6.0271972034e-01	 9.3583577602e-01
 2.3296734959e+00	 6.2390176713e-01	 9.0379714072e-01
 2.2444324436e+00	 6.0107365699e-01	 1.0398688322e+00
 2.2388676277e+00	 6.2148070031e-01	 9.9288806912e-01
 2.2331032293e+00	 6.4188505094e-01	 9.4581045416e-01
 2.2271385922e+00	 6.6228395880e-01	 9.0127565237e-01
 2.2209731076e+00	 6.8267464922e-01	 8.6225247826e-01
 2.2146062150e+00	 7.0305432391e-01	 8.3337489059e-01
 2.2080374030e+00	 7.2342016191e-01	 8.1933326708e-01
 2.2012662103e+00	 7.4376932065e-01	 8.2418475219e-01
 2.1942922261e+00	 7.6409893695e-01	 8.3424314058e-01
 2.1871150913e+00	 7.8440612811e-01	 8.4410972985e-01
 2.1797344988e+00	 8.0468799300e-01	 8.5897831255e-01
 2.2529565887e+00	 6.0335647868e-01	 8.6989454894e-01
 2.2473706381e+00	 6.2384102604e-01	 8.3399507611e-01
 2.2415843471e+00	 6.4432287049e-01	 8.1059137353e-01
 2.2355970569e+00	 6.6479925150e-01	 7.9913545286e-01
 2.2294081563e+00	 6.8526738386e-01	 7.9935547598e-01
 2.2230170828e+00	 7.0572445865e-01	 8.1127968029e-01
 2.2164233231e+00	 7.2616764421e-01	 8.3617728171e-01
 2.2096264140e+00	 7.4659408716e-01	 8.7532683166e-01
 2.2026259434e+00	 7.6700091344e-01	 9.1013075532e-01
 2.1954215505e+00	 7.8738522942e-01	 9.3542475938e-01
 2.1880129271e+00	 8.0774412295e-01	 9.5331698531e-01
 2.2614807314e+00	 6.0563929971e-01	 7.3218450459e-01
 2.2558736461e+00	 6.2620135111e-01	 7.0545508837e-01
 2.2500654625e+00	 6.4676068935e-01	 7.0186959441e-01
 2.2440555191e+00	 6.6731454349e-01	 7.1823888834e-01
 2.2378432026e+00	 6.8786011777e-01	 7.5163281199e-01
 2.2314279483e+00	 7.0839459264e-01	 7.9940761457e-01
 2.2248092408e+00	 7.2891512573e-01	 8.5923565767e-01
 2.2179866154e+00	 7.4941885286e-01	 9.2710444013e-01
 2.2109596582e+00	 7.6990288911e-01	 9.8287381167e-01
 2.2037280072e+00	 7.9036432989e-01	 1.0216656720e+00
 2.1962913531e+00	 8.1080025202e-01	 1.0430381087e+00
 2.2700048692e+00	 6.0792211946e-01	 6.2769995442e-01
 2.2643766493e+00	 6.2856167483e-01	 6.0837229645e-01
 2.2585465730e+00	 6.4919850683e-01	 6.2084218680e-01
 2.2525139766e+00	 6.6982983405e-01	 6.5981953567e-01
 2.2462782442e+00	 6.9045285021e-01	 7.2025591023e-01
 2.2398388090e+00	 7.1106472512e-01	 7.9737475623e-01
 2.2331951538e+00	 7.3166260569e-01	 8.8670404258e-01
 2.2263468121e+00	 7.5224361697e-01	 9.7979394613e-01
 2.2192933683e+00	 7.7280486314e-01	 1.0529010166e+00
 2.2120344593e+00	 7.9334342867e-01	 1.1028211838e+00
 2.2045697743e+00	 8.1385637937e-01	 1.1275885957e+00
 2.2785289998e+00	 6.1020493726e-01	 5.5738466737e-01
 2.2728796453e+00	 6.3092199655e-01	 5.4383155869e-01
 2.2670276764e+00	 6.5163632224e-01	 5.6868584452e-01
 2.2609724268e+00	 6.7234512248e-01	 6.2509044840e-01
 2.2547132785e+00	 6.9304558044e-01	 7.0641246821e-01
 2.2482496625e+00	 7.1373485532e-01	 8.0627547723e-01
 2.2415810597e+00	 7.3441008332e-01	 9.1859438740e-01
 2.2347070016e+00	 7.5506837867e-01	 1.0311333573e+00
 2.2276270714e+00	 7.7570683470e-01	 1.1197646739e+00
 2.2203409043e+00	 7.9632252491e-01	 1.1788805637e+00
 2.2128481886e+00	 8.1691250411e-01	 1.2064237787e+00
 2.2870531207e+00	 6.1248775248e-01	 5.2216533547e-01
 2.2813826316e+00	 6.3328231559e-01	 5.1289886263e-01
 2.2755087702e+00	 6.5407413489e-01	 5.4655738468e-01
 2.2694308675e+00	 6.7486040805e-01	 6.1524467858e-01
 2.2631483033e+00	 6.9563830774e-01	 7.1127103125e-01
 2.2566605065e+00	 7.1640498251e-01	 8.2718691369e-01
 2.2499669560e+00	 7.3715755784e-01	 9.5581934640e-01
 2.2430671817e+00	 7.5789313717e-01	 1.0813361864e+00
 2.2359607650e+00	 7.7860880297e-01	 1.1809006545e+00
 2.2286473399e+00	 7.9930161779e-01	 1.2485918000e+00
 2.2211265934e+00	 8.1996862540e-01	 1.2790071779e+00
 2.2955772296e+00	 6.1477056446e-01	 5.2295197703e-01
 2.2898856059e+00	 6.3564263130e-01	 5.1662177919e-01
 2.2839898519e+00	 6.5651194408e-01	 5.5559423937e-01
 2.2778892962e+00	 6.7737569007e-01	 6.3145579047e-01
 2.2715833162e+00	 6.9823103136e-01	 7.3598151117e-01
 2.2650713386e+00	 7.1907510590e-01	 8.6116947073e-01
 2.2583528405e+00	 7.3990502846e-01	 9.9927788469e-01
 2.2514273499e+00	 7.6071789168e-01	 1.1311127099e+00
 2.2442944468e+00	 7.8151076713e-01	 1.2364536829e+00
 2.2369537637e+00	 8.0228070644e-01	 1.3091756245e+00
 2.2294049866e+00	 8.2302474235e-01	 1.3432614379e+00
 2.3041013239e+00	 6.1705337257e-01	 5.6063833383e-01
 2.2983885658e+00	 6.3800294299e-01	 5.5602991006e-01
 2.2924709192e+00	 6.5894974913e-01	 5.9691493973e-01
 2.2863477105e+00	 6.7989096780e-01	 6.7487836646e-01
 2.2800183147e+00	 7.0082375058e-01	 7.8167569724e-01
 2.2734821564e+00	 7.2174522476e-01	 9.0926732012e-01
 2.2667387107e+00	 7.4265249441e-01	 1.0497472465e+00
 2.2597875039e+00	 7.6354264138e-01	 1.1811642029e+00
 2.2526281144e+00	 7.8441272636e-01	 1.2868106279e+00
 2.2452601734e+00	 8.0525979002e-01	 1.3605128866e+00
 2.2376833656e+00	 8.2608085411e-01	 1.3961733164e+00
 2.3126254014e+00	 6.1933617614e-01	 6.3610226227e-01
 2.3068915087e+00	 6.4036324999e-01	 6.3213532810e-01
 2.3009519697e+00	 6.6138754934e-01	 6.7161959272e-01
 2.2948061081e+00	 6.8240624055e-01	 7.4664850530e-01
 2.2884532965e+00	 7.0341646466e-01	 8.4946775970e-01
 2.2818929575e+00	 7.2441533833e-01	 9.7250889098e-01
 2.2751245643e+00	 7.4539995492e-01	 1.1078170293e+00
 2.2681476413e+00	 7.6636738547e-01	 1.2321831099e+00
 2.2609617655e+00	 7.8731467983e-01	 1.3323542036e+00
 2.2535665666e+00	 8.0823886770e-01	 1.4025878627e+00
 2.2459617283e+00	 8.2913695981e-01	 1.4372005369e+00
 2.3211494595e+00	 6.2161897455e-01	 7.5020611900e-01
 2.3153944324e+00	 6.4272355165e-01	 7.4593301131e-01
 2.3094330010e+00	 6.6382534403e-01	 7.8079035058e-01
 2.3032644864e+00	 6.8492150760e-01	 8.4788431298e-01
 2.2968882592e+00	 7.0600917285e-01	 9.4045474587e-01
 2.2903037396e+00	 7.2708544584e-01	 1.0519073536e+00
 2.2835103988e+00	 7.4814740919e-01	 1.1743753894e+00
 2.2765077598e+00	 7.6919212317e-01	 1.2848532096e+00
 2.2692953977e+00	 7.9021662672e-01	 1.3734630468e+00
 2.2618729410e+00	 8.1121793862e-01	 1.4353866347e+00
 2.2542400721e+00	 8.3219305857e-01	 1.4658434646e+00
 2.3296734959e+00	 6.2390176713e-01	 9.0379714072e-01
 2.3238973344e+00	 6.4508384729e-01	 8.9840127021e-01
 2.3179140106e+00	 6.6626313250e-01	 9.2549187342e-01
 2.3117228432e+00	 6.8743676824e-01	 9.7968638622e-01
 2.3053232003e+00	 7.0860187444e-01	 1.0557170692e+00
 2.2987145002e+00	 7.2975554654e-01	 1.1484610968e+00
 2.2918962120e+00	 7.5089485646e-01	 1.2503177855e+00
 2.2848678569e+00	 7.7201685366e-01	 1.3398497767e+00
 2.2776290086e+00	 7.9311856621e-01	 1.4105117907e+00
 2.2701792942e+00	 8.1419700195e-01	 1.4588970528e+00
 2.2625183949e+00	 8.3524914955e-01	 1.4816113612e+00
 2.1797344988e+00	 8.0468799300e-01	 8.5897831255e-01
 2.1721488872e+00	 8.2494505378e-01	 8.9360750882e-01
 2.1643592920e+00	 8.4517092319e-01	 9.5583514376e-01
 2.1563655651e+00	 8.6536264914e-01	 1.0402327907e+00
 2.1481676131e+00	 8.8551726570e-01	 1.1411245896e+00
 2.1397653980e+00	 9.0563179433e-01	 1.2525964496e+00
 2.1311589378e+00	 9.2570324514e-01	 1.3685083443e+00
 2.1223483067e+00	 9.4572861812e-01	 1.4825098318e+00
 2.1133336360e+00	 9.6570490446e-01	 1.5880589172e+00
 2.1041151143e+00	 9.8562908784e-01	 1.6784443581e+00
 2.0946929879e+00	 1.0054981458e+00	 1.7468114971e+00
 2.1880129271e+00	 8.0774412295e-01	 9.5331698531e-01
 2.1803985061e+00	 8.2807811815e-01	 9.7596999332e-01
 2.1725793267e+00	 8.4838080353e-01	 1.0131233144e+00
 2.1645552404e+00	 8.6864921577e-01	 1.0629928402e+00
 2.1563261533e+00	 8.8888037768e-01	 1.1235143819e+00
 2.1478920274e+00	 9.0907129942e-01	 1.1923472460e+00
 2.1392528806e+00	 9.2921897972e-01	 1.2668809356e+00
 2.1304087876e+00	 9.4932040720e-01	 1.3442451210e+00
 2.1213598801e+00	 9.6937256161e-01	 1.4213230100e+00
 2.1121063473e+00	 9.8937241519e-01	 1.4947682312e+00
 2.1026484365e+00	 1.0093169340e+00	 1.5610253257e+00
 2.1962913531e+00	 8.1080025202e-01	 1.0430381087e+00
 2.1886481226e+00	 8.3121118164e-01	 1.0564693169e+00
 2.1807993591e+00	 8.5159068295e-01	 1.0727912851e+00
 2.1727449133e+00	 8.7193578146e-01	 1.0933192217e+00
 2.1644846912e+00	 8.9224348871e-01	 1.1190611654e+00
 2.1560186545e+00	 9.1251080353e-01	 1.1507167210e+00
 2.1473468212e+00	 9.3273471331e-01	 1.1886789556e+00
 2.1384692662e+00	 9.5291219527e-01	 1.2330396137e+00
 2.1293861218e+00	 9.7304021773e-01	 1.2835977916e+00
 2.1200975780e+00	 9.9311574147e-01	 1.3398721944e+00
 2.1106038828e+00	 1.0131357210e+00	 1.4011170836e+00
 2.2045697743e+00	 8.1385637937e-01	 1.1275885957e+00
 2.1968977345e+00	 8.3434424334e-01	 1.1340080737e+00
 2.1890193868e+00	 8.5480056056e-01	 1.1333026852e+00
 2.1809345817e+00	 8.7522234530e-01	 1.1293483114e+00
 2.1726432245e+00	 8.9560659783e-01	 1.1256920886e+00
 2.1641452770e+00	 9.1595030569e-01	 1.1255470835e+00
 2.1554407572e+00	 9.3625044490e-01	 1.1317901699e+00
 2.1465297403e+00	 9.5650398129e-01	 1.1469632765e+00
 2.1374123590e+00	 9.7670787176e-01	 1.1732781543e+00
 2.1280888041e+00	 9.9685906563e-01	 1.2126247995e+00
 2.1185593247e+00	 1.0169545060e+00	 1.2665836476e+00
 2.2128481886e+00	 8.1691250411e-01	 1.2064237787e+00
 2.2051473393e+00	 8.3747730239e-01	 1.2075051957e+00
 2.1972394076e+00	 8.5801043544e-01	 1.1931438398e+00
 2.1891242430e+00	 8.7850890634e-01	 1.1692438850e+00
 2.1808017509e+00	 8.9896970409e-01	 1.1413646555e+00
 2.1722718926e+00	 9.1938980493e-01	 1.1147120146e+00
 2.1635346863e+00	 9.3976617351e-01	 1.0941330024e+00
 2.1545902075e+00	 9.6009576427e-01	 1.0841138970e+00
 2.1454385894e+00	 9.8037552268e-01	 1.0887818616e+00
 2.1360800235e+00	 1.0006023866e+00	 1.1119103178e+00
 2.1265147597e+00	 1.0207732877e+00	 1.1569281716e+00
 2.2211265934e+00	 8.1996862540e-01	 1.2790071779e+00
 2.2133969348e+00	 8.4061035788e-01	 1.2758955683e+00
 2.2054594190e+00	 8.6122030668e-01	 1.2508232625e+00
 2.1973138951e+00	 8.8179546365e-01	 1.2111965193e+00
 2.1889602680e+00	 9.0233280655e-01	 1.1640660694e+00
 2.1803984990e+00	 9.2282930027e-01	 1.1161159884e+00
 2.1716286062e+00	 9.4328189813e-01	 1.0736558676e+00
 2.1626506656e+00	 9.6368754317e-01	 1.0426164675e+00
 2.1534648107e+00	 9.8404316944e-01	 1.0285490226e+00
 2.1440712338e+00	 1.0043457033e+00	 1.0366283461e+00
 2.1344701858e+00	 1.0245920650e+00	 1.0716598682e+00
 2.2294049866e+00	 8.2302474235e-01	 1.3432614379e+00
 2.2216465186e+00	 8.4374340893e-01	 1.3381296531e+00
 2.2136794188e+00	 8.6443017337e-01	 1.3048711583e+00
 2.2055035356e+00	 8.8508201631e-01	 1.2534230051e+00
 2.1971187736e+00	 9.0569590423e-01	 1.1918125889e+00
 2.1885250938e+00	 9.2626879073e-01	 1.1276936039e+00
 2.1797225147e+00	 9.4679761777e-01	 1.0683365158e+00
 2.1707111122e+00	 9.6727931699e-01	 1.0206225796e+00
 2.1614910207e+00	 9.8771081101e-01	 9.9104157524e-01
 2.1520624328e+00	 1.0080890148e+00	 9.8569341998e-01
 2.1424256006e+00	 1.0284108369e+00	 1.0102937933e+00
 2.2376833656e+00	 8.2608085411e-01	 1.3961733164e+00
 2.2298960884e+00	 8.4687645466e-01	 1.3914277281e+00
 2.2218994046e+00	 8.6764003461e-01	 1.3538389350e+00
 2.2136931621e+00	 8.8836856338e-01	 1.2941657716e+00
 2.2052772652e+00	 9.0905899620e-01	 1.2226488961e+00
 2.1966516749e+00	 9.2970827535e-01	 1.1474089311e+00
 2.1878164094e+00	 9.5031333143e-01	 1.0761813913e+00
 2.1787715452e+00	 9.7087108470e-01	 1.0163098306e+00
 2.1695172169e+00	 9.9137844633e-01	 9.7474277965e-01
 2.1600536182e+00	 1.0118323198e+00	 9.5803463328e-01
 2.1503810018e+00	 1.0322296024e+00	 9.7235063346e-01
 2.2459617283e+00	 8.2913695981e-01	 1.4372005369e+00
 2.2381456418e+00	 8.5000949417e-01	 1.4325348398e+00
 2.2301193741e+00	 8.7084988948e-01	 1.3944930193e+00
 2.2218827725e+00	 8.9165510393e-01	 1.3316923215e+00
 2.2134357407e+00	 9.1242208150e-01	 1.2546474768e+00
 2.2047782398e+00	 9.3314775314e-01	 1.1732548690e+00
 2.1959102881e+00	 9.5382903812e-01	 1.0952250016e+00
 2.1868319622e+00	 9.7446284528e-01	 1.0278812417e+00
 2.1775433973e+00	 9.9504607439e-01	 9.7815672063e-01
 2.1680447877e+00	 1.0155756175e+00	 9.5259526407e-01
 2.1583363873e+00	 1.0360483603e+00	 9.5735649564e-01
 2.2542400721e+00	 8.3219305857e-01	 1.4658434646e+00
 2.2463951765e+00	 8.5314252659e-01	 1.4604545173e+00
 2.2383393250e+00	 8.7405973707e-01	 1.4233721853e+00
 2.2300723642e+00	 8.9494163704e-01	 1.3625699001e+00
 2.2215941978e+00	 9.1578515917e-01	 1.2859080129e+00
 2.2129047863e+00	 9.3658722314e-01	 1.2032525158e+00
 2.2040041484e+00	 9.5734473684e-01	 1.1235293002e+00
 2.1948923609e+00	 9.7805459772e-01	 1.0535646854e+00
 2.1855695595e+00	 9.9871369413e-01	 9.9980781884e-01
 2.1760359392e+00	 1.0193189067e+00	 9.6833240688e-01
 2.1662917548e+00	 1.0398671095e+00	 9.6484269993e-01
 2.2625183949e+00	 8.3524914955e-01	 1.4816113612e+00
 2.2546446902e+00	 8.5627555101e-01	 1.4742149972e+00
 2.2465592549e+00	 8.7726957648e-01	 1.4391158846e+00
 2.2382619351e+00	 8.9822816176e-01	 1.3831451369e+00
 2.2297526340e+00	 9.1914822827e-01	 1.3130388051e+00
 2.2210313121e+00	 9.4002668437e-01	 1.2354505513e+00
 2.2120979880e+00	 9.6086042659e-01	 1.1591830795e+00
 2.2029527390e+00	 9.8164634100e-01	 1.0916123253e+00
 2.1935957011e+00	 1.0023813045e+00	 1.0382403509e+00
 2.1840270702e+00	 1.0230621863e+00	 1.0042166110e+00
 2.1742471019e+00	 1.0436858490e+00	 9.9434557470e-01
 2.0946929879e+00	 1.0054981458e+00	 1.7468114971e+00
 2.0850692143e+00	 1.0253056884e+00	 1.7736922435e+00
 2.0752425708e+00	 1.0450520678e+00	 1.7502222542e+00
 2.0652134774e+00	 1.0647342514e+00	 1.6852709437e+00
 2.0549824128e+00	 1.0843492062e+00	 1.5876373586e+00
 2.0445499154e+00	 1.1038938996e+00	 1.4660704302e+00
 2.0339165827e+00	 1.1233653013e+00	 1.3316925131e+00
 2.0230830718e+00	 1.1427603843e+00	 1.2022443954e+00
 2.0120500994e+00	 1.1620761269e+00	 1.0875701073e+00
 2.0008184419e+00	 1.1813095133e+00	 9.9659807841e-01
 1.9893889355e+00	 1.2004575360e+00	 9.3815384143e-01
 2.1026484365e+00	 1.0093169340e+00	 1.5610253257e+00
 2.0929881127e+00	 1.0291997038e+00	 1.6023375296e+00
 2.0831241486e+00	 1.0490210780e+00	 1.6067446351e+00
 2.0730569655e+00	 1.0687780128e+00	 1.5791718179e+00
 2.0627870444e+00	 1.0884674633e+00	 1.5245095051e+00
 2.0523149253e+00	 1.1080863857e+00	 1.4476398721e+00
 2.0416412082e+00	 1.1276317379e+00	 1.3577739362e+00
 2.0307665526e+00	 1.1471004817e+00	 1.2676923083e+00
 2.0196916780e+00	 1.1664895836e+00	 1.1829066593e+00
 2.0084173637e+00	 1.1857960167e+00	 1.1087627564e+00
 1.9969444491e+00	 1.2050167618e+00	 1.0505826224e+00
 2.1106038828e+00	 1.0131357210e+00	 1.4011170836e+00
 2.1009070089e+00	 1.0330937181e+00	 1.4516817327e+00
 2.0910057241e+00	 1.0529900872e+00	 1.4775832259e+00
 2.0809004515e+00	 1.0728217730e+00	 1.4803357218e+00
 2.0705916737e+00	 1.0925857193e+00	 1.4614463848e+00
 2.0600799330e+00	 1.1122788705e+00	 1.4224683811e+00
 2.0493658315e+00	 1.1318981733e+00	 1.3716576618e+00
 2.0384500312e+00	 1.1514405778e+00	 1.3163261578e+00
 2.0273332544e+00	 1.1709030391e+00	 1.2586750883e+00
 2.0160162834e+00	 1.1902825187e+00	 1.2009428357e+00
 2.0044999606e+00	 1.2095759862e+00	 1.1454110032e+00
 2.1185593247e+00	 1.0169545060e+00	 1.2665836476e+00
 2.1088259006e+00	 1.0369877301e+00	 1.3218767098e+00
 2.0988872951e+00	 1.0569590941e+00	 1.3634358261e+00
 2.0887439330e+00	 1.0768655310e+00	 1.3898913764e+00
 2.0783962986e+00	 1.0967039729e+00	 1.3998866834e+00
 2.0678449363e+00	 1.1164713531e+00	 1.3925476138e+00
 2.0570904504e+00	 1.1361646064e+00	 1.3749860717e+00
 2.0461335055e+00	 1.1557806715e+00	 1.3496939815e+00
 2.0349748265e+00	 1.1753164921e+00	 1.3161845054e+00
 2.0236151987e+00	 1.1947690183e+00	 1.2740582826e+00
 2.0120554678e+00	 1.2141352081e+00	 1.2230140368e+00
 2.1265147597e+00	 1.0207732877e+00	 1.1569281716e+00
 2.1167447855e+00	 1.0408817389e+00	 1.2130707788e+00
 2.1067688594e+00	 1.0609280976e+00	 1.2649885374e+00
 2.0965874078e+00	 1.0809092855e+00	 1.3089493941e+00
 2.0862009169e+00	 1.1008222231e+00	 1.3412464065e+00
 2.0756099330e+00	 1.1206638320e+00	 1.3595887372e+00
 2.0648150627e+00	 1.1404310357e+00	 1.3693729604e+00
 2.0538169733e+00	 1.1601207615e+00	 1.3693168099e+00
 2.0426163921e+00	 1.1797299413e+00	 1.3567207616e+00
 2.0312141076e+00	 1.1992555140e+00	 1.3290118014e+00
 2.0196109686e+00	 1.2186944261e+00	 1.2837578448e+00
 2.1344701858e+00	 1.0245920650e+00	 1.0716598682e+00
 2.1246636615e+00	 1.0447757432e+00	 1.1254086829e+00
 2.1146504148e+00	 1.0648970967e+00	 1.1829158799e+00
 2.1044308737e+00	 1.0849530354e+00	 1.2386025165e+00
 2.0940055263e+00	 1.1049404686e+00	 1.2869192038e+00
 2.0833749208e+00	 1.1248563062e+00	 1.3251340689e+00
 2.0725396663e+00	 1.1446974603e+00	 1.3564041821e+00
 2.0615004323e+00	 1.1644608465e+00	 1.3766892928e+00
 2.0502579491e+00	 1.1841433856e+00	 1.3815470134e+00
 2.0388130079e+00	 1.2037420046e+00	 1.3666892959e+00
 2.0271664608e+00	 1.2232536390e+00	 1.3279999321e+00
 2.1424256006e+00	 1.0284108369e+00	 1.0102937933e+00
 2.1325825262e+00	 1.0486697420e+00	 1.0590315532e+00
 2.1225319590e+00	 1.0688660901e+00	 1.1178809050e+00
 2.1122743285e+00	 1.0889967796e+00	 1.1799258439e+00
 2.1018101246e+00	 1.1090587082e+00	 1.2382766841e+00
 2.0911398977e+00	 1.1290487744e+00	 1.2906990890e+00
 2.0802642590e+00	 1.1489638788e+00	 1.3376382872e+00
 2.0691838805e+00	 1.1688009254e+00	 1.3732803153e+00
 2.0578994952e+00	 1.1885568235e+00	 1.3919042789e+00
 2.0464118975e+00	 1.2082284889e+00	 1.3879603259e+00
 2.0347219423e+00	 1.2278128453e+00	 1.3560894995e+00
 2.1503810018e+00	 1.0322296024e+00	 9.7235063346e-01
 2.1405013775e+00	 1.0525637342e+00	 1.0140768717e+00
 2.1304134899e+00	 1.0728350767e+00	 1.0705353030e+00
 2.1201177700e+00	 1.0930405169e+00	 1.1339770588e+00
 2.1096147097e+00	 1.1131769409e+00	 1.1967270408e+00
 2.0989048614e+00	 1.1332412356e+00	 1.2577730482e+00
 2.0879888385e+00	 1.1532302900e+00	 1.3146071479e+00
 2.0768673155e+00	 1.1731409969e+00	 1.3605336043e+00
 2.0655410284e+00	 1.1929702540e+00	 1.3890119862e+00
 2.0540107741e+00	 1.2127149656e+00	 1.3936785560e+00
 2.0422774110e+00	 1.2323720440e+00	 1.3683677535e+00
 2.1583363873e+00	 1.0360483603e+00	 9.5735649564e-01
 2.1484202131e+00	 1.0564577187e+00	 9.9067843148e-01
 2.1382950050e+00	 1.0768040555e+00	 1.0415195063e+00
 2.1279611960e+00	 1.0970842462e+00	 1.1017966413e+00
 2.1174192793e+00	 1.1172951653e+00	 1.1639326917e+00
 2.1066698097e+00	 1.1374336884e+00	 1.2278195665e+00
 2.0957134027e+00	 1.1574966928e+00	 1.2888165747e+00
 2.0845507354e+00	 1.1774810599e+00	 1.3398683252e+00
 2.0731825464e+00	 1.1973836758e+00	 1.3740685133e+00
 2.0616096356e+00	 1.2172014333e+00	 1.3846822004e+00
 2.0498328647e+00	 1.2369312335e+00	 1.3651682130e+00
 2.1662917548e+00	 1.0398671095e+00	 9.6484269993e-01
 2.1563390307e+00	 1.0603516944e+00	 9.8896629692e-01
 2.1461765024e+00	 1.0807730253e+00	 1.0314627891e+00
 2.1358046041e+00	 1.1011279663e+00	 1.0844080789e+00
 2.1252238313e+00	 1.1214133805e+00	 1.1412270016e+00
 2.1144347404e+00	 1.1416261317e+00	 1.2022772226e+00
 2.1034379494e+00	 1.1617630859e+00	 1.2617469220e+00
 2.0922341378e+00	 1.1818211130e+00	 1.3126796700e+00
 2.0808240470e+00	 1.2017970875e+00	 1.3482517200e+00
 2.0692084799e+00	 1.2216878909e+00	 1.3617944603e+00
 2.0573883012e+00	 1.2414904128e+00	 1.3468170142e+00
 2.1742471019e+00	 1.0436858490e+00	 9.9434557470e-01
 2.1642578281e+00	 1.0642456601e+00	 1.0090667622e+00
 2.1540579796e+00	 1.0847419850e+00	 1.0409833619e+00
 2.1436479923e+00	 1.1051716761e+00	 1.0828180690e+00
 2.1330283633e+00	 1.1255315851e+00	 1.1298628548e+00
 2.1221996512e+00	 1.1458185643e+00	 1.1825601338e+00
 2.1111624763e+00	 1.1660294682e+00	 1.2348536853e+00
 2.0999175207e+00	 1.1861611550e+00	 1.2803394353e+00
 2.0884655282e+00	 1.2062104879e+00	 1.3127194728e+00
 2.0768073048e+00	 1.2261743371e+00	 1.3258239571e+00
 2.0649437185e+00	 1.2460495804e+00	 1.3136332122e+00
 1.9893889355e+00	 1.2004575360e+00	 9.3815384143e-01
 1.9777624767e+00	 1.2195171970e+00	 9.2669553170e-01
 1.9659400232e+00	 1.2384855106e+00	 9.6348238997e-01
 1.9539225930e+00	 1.2573595038e+00	 1.0375815241e+00
 1.9417112635e+00	 1.2761362175e+00	 1.1382403205e+00
 1.9293071710e+00	 1.2948127076e+00	 1.2549111778e+00
 1.9167115110e+00	 1.3133860468e+00	 1.3772758030e+00
 1.9039255374e+00	 1.3318533261e+00	 1.4952689545e+00
 1.8909505627e+00	 1.3502116560e+00	 1.5991015161e+00
 1.8777879572e+00	 1.3684581680e+00	 1.6792827866e+00
 1.8644391488e+00	 1.3865900162e+00	 1.7266418740e+00
 1.9969444491e+00	 1.2050167618e+00	 1.0505826224e+00
 1.9852738341e+00	 1.2241488096e+00	 1.0219168281e+00
 1.9734064800e+00	 1.2431891631e+00	 1.0277792817e+00
 1.9613434088e+00	 1.2621348379e+00	 1.0607615201e+00
 1.9490857018e+00	 1.2809828638e+00	 1.1135936861e+00
 1.9366344997e+00	 1.2997302855e+00	 1.1791644768e+00
 1.9239910025e+00	 1.3183741645e+00	 1.2505406763e+00
 1.9111564690e+00	 1.3369115809e+00	 1.3209861608e+00
 1.8981322166e+00	 1.3553396340e+00	 1.3839802661e+00
 1.8849196207e+00	 1.3736554445e+00	 1.4332354101e+00
 1.8715201148e+00	 1.3918561558e+00	 1.4627138629e+00
 2.0044999606e+00	 1.2095759862e+00	 1.1454110032e+00
 1.9927851894e+00	 1.2287804208e+00	 1.1042844834e+00
 1.9808729348e+00	 1.2478928142e+00	 1.0852904114e+00
 1.9687642225e+00	 1.2669101707e+00	 1.0840975723e+00
 1.9564601380e+00	 1.2858295088e+00	 1.0964779458e+00
 1.9439618263e+00	 1.3046478620e+00	 1.1183225172e+00
 1.9312704920e+00	 1.3233622808e+00	 1.1456566893e+00
 1.9183873986e+00	 1.3419698341e+00	 1.1746551860e+00
 1.9053138684e+00	 1.3604676104e+00	 1.2016563452e+00
 1.8920512822e+00	 1.3788527195e+00	 1.2231756946e+00
 1.8786010788e+00	 1.3971222939e+00	 1.2359187118e+00
 2.0120554678e+00	 1.2141352081e+00	 1.2230140368e+00
 2.0002965404e+00	 1.2334120295e+00	 1.1735877267e+00
 1.9883393853e+00	 1.2525964626e+00	 1.1353000816e+00
 1.9761850319e+00	 1.2716855008e+00	 1.1064548664e+00
 1.9638345700e+00	 1.2906761510e+00	 1.0854298420e+00
 1.9512891488e+00	 1.3095654357e+00	 1.0706890845e+00
 1.9385499774e+00	 1.3283503943e+00	 1.0607949141e+00
 1.9256183241e+00	 1.3470280845e+00	 1.0544193323e+00
 1.9124955162e+00	 1.3655955840e+00	 1.0503548645e+00
 1.8991829397e+00	 1.3840499916e+00	 1.0475247090e+00
 1.8856820388e+00	 1.4023884289e+00	 1.0449920947e+00
 2.0196109686e+00	 1.2186944261e+00	 1.2837578448e+00
 2.0078078850e+00	 1.2380436342e+00	 1.2296157980e+00
 1.9958058294e+00	 1.2573001071e+00	 1.1771003375e+00
 1.9836058351e+00	 1.2764608268e+00	 1.1267127739e+00
 1.9712089957e+00	 1.2955227890e+00	 1.0790053836e+00
 1.9586164650e+00	 1.3144830052e+00	 1.0345908743e+00
 1.9458294565e+00	 1.3333385035e+00	 9.9415146740e-01
 1.9328492434e+00	 1.3520863306e+00	 9.5844749747e-01
 1.9196771578e+00	 1.3707235532e+00	 9.2832542819e-01
 1.9063145911e+00	 1.3892472592e+00	 9.0472518829e-01
 1.8927629927e+00	 1.4076545595e+00	 8.8868673226e-01
 2.0271664608e+00	 1.2232536390e+00	 1.3279999321e+00
 2.0153192212e+00	 1.2426752336e+00	 1.2721581062e+00
 2.0032722651e+00	 1.2620037462e+00	 1.2099909879e+00
 1.9910266298e+00	 1.2812361474e+00	 1.1437647619e+00
 1.9785834131e+00	 1.3003694216e+00	 1.0757796691e+00
 1.9659437729e+00	 1.3194005692e+00	 1.0083772556e+00
 1.9531089275e+00	 1.3383266071e+00	 9.4394724025e-01
 1.9400801545e+00	 1.3571445710e+00	 8.8493390200e-01
 1.9268587914e+00	 1.3758515166e+00	 8.3384188796e-01
 1.9134462344e+00	 1.3944445210e+00	 7.9324134731e-01
 1.8998439386e+00	 1.4129206842e+00	 7.6577229696e-01
 2.0347219423e+00	 1.2278128453e+00	 1.3560894995e+00
 2.0228305467e+00	 1.2473068265e+00	 1.3010043862e+00
 2.0107386902e+00	 1.2667073787e+00	 1.2332796309e+00
 1.9984474140e+00	 1.2860114612e+00	 1.1565183087e+00
 1.9859578200e+00	 1.3052160474e+00	 1.0743467173e+00
 1.9732710705e+00	 1.3243181262e+00	 9.9042004265e-01
 1.9603883881e+00	 1.3433147036e+00	 9.0842763912e-01
 1.9473110554e+00	 1.3622028042e+00	 8.3209782680e-01
 1.9340404147e+00	 1.3809794728e+00	 7.6520210746e-01
 1.9205778676e+00	 1.3996417754e+00	 7.1155870340e-01
 1.9069248745e+00	 1.4181868013e+00	 6.7503532628e-01
 2.0422774110e+00	 1.2323720440e+00	 1.3683677535e+00
 2.0303418594e+00	 1.2519384115e+00	 1.3159448580e+00
 2.0182051026e+00	 1.2714110031e+00	 1.2462816827e+00
 2.0058681856e+00	 1.2907867669e+00	 1.1638948259e+00
 1.9933322144e+00	 1.3100626649e+00	 1.0733193072e+00
 1.9805983556e+00	 1.3292356748e+00	 9.7911327753e-01
 1.9676678363e+00	 1.3483027916e+00	 8.8586233730e-01
 1.9545419440e+00	 1.3672610288e+00	 7.9818336197e-01
 1.9412220258e+00	 1.3861074202e+00	 7.2072773747e-01
 1.9277094887e+00	 1.4048390209e+00	 6.5818390792e-01
 1.9140057984e+00	 1.4234529095e+00	 6.1527914223e-01
 2.0498328647e+00	 1.2369312335e+00	 1.3651682130e+00
 2.0378531572e+00	 1.2565699873e+00	 1.3167703858e+00
 2.0256715002e+00	 1.2761146183e+00	 1.2483204103e+00
 2.0132889425e+00	 1.2955620631e+00	 1.1648295873e+00
 2.0007065942e+00	 1.3149092727e+00	 1.0713288254e+00
 1.9879256261e+00	 1.3341532137e+00	 9.7287302147e-01
 1.9749472701e+00	 1.3532908697e+00	 8.7454503658e-01
 1.9617728182e+00	 1.3723192434e+00	 7.8145916572e-01
 1.9484036227e+00	 1.3912353574e+00	 6.9876400056e-01
 1.9348410956e+00	 1.4100362562e+00	 6.3164458642e-01
 1.9210867082e+00	 1.4287190073e+00	 5.8532377795e-01
 2.0573883012e+00	 1.2414904128e+00	 1.3468170142e+00
 2.0453644380e+00	 1.2612015526e+00	 1.3032726384e+00
 2.0331378809e+00	 1.2808182228e+00	 1.2387269680e+00
 2.0207096826e+00	 1.3003373485e+00	 1.1582716628e+00
 2.0080809572e+00	 1.3197558696e+00	 1.0670251217e+00
 1.9952528801e+00	 1.3390707414e+00	 9.7013715572e-01
 1.9822266874e+00	 1.3582789366e+00	 8.7279323877e-01
 1.9690036761e+00	 1.3773774465e+00	 7.8021823336e-01
 1.9555852033e+00	 1.3963632831e+00	 6.9767948539e-01
 1.9419726864e+00	 1.4152334797e+00	 6.3048918735e-01
 1.9281676020e+00	 1.4339850932e+00	 5.8400591083e-01
 2.0649437185e+00	 1.2460495804e+00	 1.3136332122e+00
 2.0528756997e+00	 1.2658331062e+00	 1.2752442497e+00
 2.0406042425e+00	 1.2855218152e+00	 1.2168404371e+00
 2.0281304037e+00	 1.3051126218e+00	 1.1431838588e+00
 2.0154553015e+00	 1.3246024542e+00	 1.0590763722e+00
 2.0025801153e+00	 1.3439882566e+00	 9.6936519127e-01
 1.9895060861e+00	 1.3632669907e+00	 8.7894802692e-01
 1.9762345155e+00	 1.3824356367e+00	 7.9277767611e-01
 1.9627667656e+00	 1.4014911956e+00	 7.1586595041e-01
 1.9491042590e+00	 1.4204306899e+00	 6.5328683887e-01
 1.9352484777e+00	 1.4392511656e+00	 6.1017880210e-01
 1.8644391488e+00	 1.3865900162e+00	 1.7266418740e+00
 1.8509033073e+00	 1.4046074294e+00	 1.7292743011e+00
 1.8371842352e+00	 1.4225045086e+00	 1.6901755533e+00
 1.8232835386e+00	 1.4402784720e+00	 1.6208644509e+00
 1.8092028793e+00	 1.4579265664e+00	 1.5298247743e+00
 1.7949439741e+00	 1.4754460677e+00	 1.4251356781e+00
 1.7805085939e+00	 1.4928342830e+00	 1.3140496503e+00
 1.7658985635e+00	 1.5100885515e+00	 1.2025270306e+00
 1.7511157601e+00	 1.5272062460e+00	 1.0973365538e+00
 1.7361621134e+00	 1.5441847742e+00	 1.0048684249e+00
 1.7210396040e+00	 1.5610215801e+00	 9.3104994435e-01
 1.8715201148e+00	 1.3918561558e+00	 1.4627138629e+00
 1.8579328654e+00	 1.4099419974e+00	 1.4613883914e+00
 1.8441616895e+00	 1.4279070480e+00	 1.4267867215e+00
 1.8302081994e+00	 1.4457485153e+00	 1.3705733698e+00
 1.8160740631e+00	 1.4634636355e+00	 1.3000947420e+00
 1.8017610039e+00	 1.4810496743e+00	 1.2216098636e+00
 1.7872707995e+00	 1.4985039284e+00	 1.1399736132e+00
 1.7726052815e+00	 1.5158237270e+00	 1.0596163492e+00
 1.7577663345e+00	 1.5330064329e+00	 9.8563279462e-01
 1.7427558952e+00	 1.5500494440e+00	 9.2265569843e-01
 1.7275759519e+00	 1.5669501944e+00	 8.7488662408e-01
 1.8786010788e+00	 1.3971222939e+00	 1.2359187118e+00
 1.8649624216e+00	 1.4152765639e+00	 1.2300044383e+00
 1.8511391419e+00	 1.4333095859e+00	 1.1999768901e+00
 1.8371328582e+00	 1.4512185571e+00	 1.1540915746e+00
 1.8229452449e+00	 1.4690007031e+00	 1.1007154125e+00
 1.8085780317e+00	 1.4866532792e+00	 1.0444004522e+00
 1.7940330032e+00	 1.5041735722e+00	 9.8776081707e-01
 1.7793119977e+00	 1.5215589008e+00	 9.3416734778e-01
 1.7644169069e+00	 1.5388066181e+00	 8.8713079033e-01
 1.7493496751e+00	 1.5559141120e+00	 8.4972351001e-01
 1.7341122980e+00	 1.5728788071e+00	 8.2461436795e-01
 1.8856820388e+00	 1.4023884289e+00	 1.0449920947e+00
 1.8719919737e+00	 1.4206111274e+00	 1.0342022951e+00
 1.8581165904e+00	 1.4387121208e+00	 1.0084791114e+00
 1.8440575132e+00	 1.4566885957e+00	 9.7126621143e-01
 1.8298164229e+00	 1.4745377675e+00	 9.3179876168e-01
 1.8153950557e+00	 1.4922568810e+00	 8.9367264627e-01
 1.8007952030e+00	 1.5098432127e+00	 8.5788806427e-01
 1.7860187100e+00	 1.5272940714e+00	 8.2681887340e-01
 1.7710674756e+00	 1.5446068001e+00	 8.0258972717e-01
 1.7559434513e+00	 1.5617787768e+00	 7.8690739480e-01
 1.7406486403e+00	 1.5788074164e+00	 7.8109881911e-01
 1.8927629927e+00	 1.4076545595e+00	 8.8868673226e-01
 1.8790215199e+00	 1.4259456863e+00	 8.7309137668e-01
 1.8650940329e+00	 1.4441146510e+00	 8.5055521577e-01
 1.8509821622e+00	 1.4621586297e+00	 8.2193149300e-01
 1.8366875950e+00	 1.4800748272e+00	 7.9343925715e-01
 1.8222120739e+00	 1.4978604780e+00	 7.6968729398e-01
 1.8075573971e+00	 1.5155128484e+00	 7.5081566674e-01
 1.7927254166e+00	 1.5330292371e+00	 7.3819122499e-01
 1.7777180386e+00	 1.5504069771e+00	 7.3274879096e-01
 1.7625372218e+00	 1.5676434366e+00	 7.3502207205e-01
 1.7471849771e+00	 1.5847360207e+00	 7.4518465738e-01
 1.8998439386e+00	 1.4129206842e+00	 7.6577229696e-01
 1.8860510581e+00	 1.4312802392e+00	 7.4579280616e-01
 1.8720714675e+00	 1.4495171752e+00	 7.2563860997e-01
 1.8579068034e+00	 1.4676286575e+00	 7.0509295673e-01
 1.8435587593e+00	 1.4856118806e+00	 6.8563068109e-01
 1.8290290844e+00	 1.5034640687e+00	 6.7269263965e-01
 1.8143195835e+00	 1.5211824777e+00	 6.6698810287e-01
 1.7994321157e+00	 1.5387643964e+00	 6.6888686208e-01
 1.7843685941e+00	 1.5562071475e+00	 6.7832791560e-01
 1.7691309849e+00	 1.5735080897e+00	 6.9486222073e-01
 1.7537213064e+00	 1.5906646183e+00	 7.1769638872e-01
 1.9069248745e+00	 1.4181868013e+00	 6.7503532628e-01
 1.8930805864e+00	 1.4366147846e+00	 6.5143943082e-01
 1.8790488922e+00	 1.4549196916e+00	 6.3318119052e-01
 1.8648314348e+00	 1.4730986776e+00	 6.1919989676e-01
 1.8504299139e+00	 1.4911489262e+00	 6.0820103313e-01
 1.8358460853e+00	 1.5090676514e+00	 6.0292425296e-01
 1.8210817603e+00	 1.5268520990e+00	 6.0683467065e-01
 1.8061388052e+00	 1.5444995475e+00	 6.1949110885e-01
 1.7910191401e+00	 1.5620073097e+00	 6.4002852622e-01
 1.7757247387e+00	 1.5793727345e+00	 6.6720324941e-01
 1.7602576265e+00	 1.5965932074e+00	 6.9943912872e-01
 1.9140057984e+00	 1.4234529095e+00	 6.1527914223e-01
 1.9001101027e+00	 1.4419493208e+00	 5.8917584247e-01
 1.8860263050e+00	 1.4603221989e+00	 5.7264194055e-01
 1.8717560544e+00	 1.4785686883e+00	 5.6397843538e-01
 1.8573010568e+00	 1.4966859623e+00	 5.6045780303e-01
 1.8426630745e+00	 1.5146712247e+00	 5.6060561792e-01
 1.8278439256e+00	 1.5325217106e+00	 5.7077013740e-01
 1.8128454833e+00	 1.5502346888e+00	 5.9057285381e-01
 1.7976696749e+00	 1.5678074621e+00	 6.1853427718e-01
 1.7823184812e+00	 1.5852373694e+00	 6.5280206050e-01
 1.7667939355e+00	 1.6025217865e+00	 6.9119938038e-01
 1.9210867082e+00	 1.4287190073e+00	 5.8532377795e-01
 1.9071396050e+00	 1.4472838465e+00	 5.5815840259e-01
 1.8930037041e+00	 1.4657246955e+00	 5.4348704601e-01
 1.8786806603e+00	 1.4840386882e+00	 5.3913952842e-01
 1.8641721861e+00	 1.5022229875e+00	 5.4091917874e-01
 1.8494800502e+00	 1.5202747867e+00	 5.4594871963e-01
 1.8346060775e+00	 1.5381913110e+00	 5.5919538622e-01
 1.8195521481e+00	 1.5559698188e+00	 5.8268524514e-01
 1.8043201965e+00	 1.5736076030e+00	 6.1451178516e-01
 1.7889122106e+00	 1.5911019926e+00	 6.5239780909e-01
 1.7733302316e+00	 1.6084503539e+00	 6.9374580622e-01
 1.9281676020e+00	 1.4339850932e+00	 5.8400591083e-01
 1.9141690914e+00	 1.4526183601e+00	 5.5755527202e-01
 1.8999810872e+00	 1.4711271799e+00	 5.4519001451e-01
 1.8856052505e+00	 1.4895086757e+00	 5.4417295011e-01
 1.8710432998e+00	 1.5077600002e+00	 5.4951043983e-01
 1.8562970105e+00	 1.5258783361e+00	 5.5870218231e-01
 1.8413682141e+00	 1.5438608986e+00	 5.7249805912e-01
 1.8262587978e+00	 1.5617049357e+00	 5.9636638196e-01
 1.8109707030e+00	 1.5794077307e+00	 6.2861135729e-01
 1.7955059252e+00	 1.5969666025e+00	 6.6671265639e-01
 1.7798665128e+00	 1.6143789077e+00	 7.0782999494e-01
 1.9352484777e+00	 1.4392511656e+00	 6.1017880210e-01
 1.9211985599e+00	 1.4579528601e+00	 5.8654644500e-01
 1.9069584527e+00	 1.4765296504e+00	 5.7723179664e-01
 1.8925298230e+00	 1.4949786493e+00	 5.7876137911e-01
 1.8779143959e+00	 1.5132969987e+00	 5.8621435961e-01
 1.8631139533e+00	 1.5314818712e+00	 5.9749264143e-01
 1.8481303335e+00	 1.5495304716e+00	 6.1105319706e-01
 1.8329654303e+00	 1.5674400381e+00	 6.3214000135e-01
 1.8176211925e+00	 1.5852078436e+00	 6.6146771460e-01
 1.8020996229e+00	 1.6028311975e+00	 6.9645251814e-01
 1.7864027773e+00	 1.6203074465e+00	 7.3418722269e-01
 1.7210396040e+00	 1.5610215801e+00	 9.3104994435e-01
 1.7057528715e+00	 1.5777113245e+00	 8.8133443646e-01
 1.6903014164e+00	 1.5942544255e+00	 8.5505643274e-01
 1.6746873394e+00	 1.6106484717e+00	 8.4852525471e-01
 1.6589127890e+00	 1.6268910925e+00	 8.5789466126e-01
 1.6429799599e+00	 1.6429799599e+00	 8.7920399966e-01
 1.6268910925e+00	 1.6589127890e+00	 9.0841856132e-01
 1.6106484717e+00	 1.6746873394e+00	 9.4146888060e-01
 1.5942544255e+00	 1.6903014164e+00	 9.7428872709e-01
 1.5777113245e+00	 1.7057528715e+00	 1.0028515558e+00
 1.5610215801e+00	 1.7210396040e+00	 1.0232051950e+00
 1.7275759519e+00	 1.5669501944e+00	 8.7488662408e-01
 1.7122311618e+00	 1.5837033249e+00	 8.4718026651e-01
 1.6967210235e+00	 1.6003092551e+00	 8.3957360082e-01
 1.6810476457e+00	 1.6167655644e+00	 8.4861806406e-01
 1.6652131850e+00	 1.6330698732e+00	 8.7071330804e-01
 1.6492198446e+00	 1.6492198446e+00	 9.0214905039e-01
 1.6330698732e+00	 1.6652131850e+00	 9.3914608193e-01
 1.6167655644e+00	 1.6810476457e+00	 9.7789616259e-01
 1.6003092551e+00	 1.6967210235e+00	 1.0146005509e+00
 1.5837033249e+00	 1.7122311618e+00	 1.0455069267e+00
 1.5669501944e+00	 1.7275759519e+00	 1.0669444815e+00
 1.7341122980e+00	 1.5728788071e+00	 8.2461436795e-01
 1.7187094503e+00	 1.5896953237e+00	 8.1603492025e-01
 1.7031406288e+00	 1.6063640830e+00	 8.2457428150e-01
 1.6874079503e+00	 1.6228826553e+00	 8.4702771771e-01
 1.6715135793e+00	 1.6392486520e+00	 8.8004114856e-01
 1.6554597274e+00	 1.6554597274e+00	 9.2015371730e-01
 1.6392486520e+00	 1.6715135793e+00	 9.6383946910e-01
 1.6228826553e+00	 1.6874079503e+00	 1.0075478639e+00
 1.6063640830e+00	 1.7031406288e+00	 1.0477428634e+00
 1.5896953237e+00	 1.7187094503e+00	 1.0809403465e+00
 1.5728788071e+00	 1.7341122980e+00	 1.1037436231e+00
 1.7406486403e+00	 1.5788074164e+00	 7.8109881911e-01
 1.7251877351e+00	 1.5956873191e+00	 7.8876313848e-01
 1.7095602304e+00	 1.6124189075e+00	 8.1090794072e-01
 1.6937682512e+00	 1.6289997428e+00	 8.4457393062e-01
 1.6778139700e+00	 1.6454274274e+00	 8.8665358302e-01
 1.6616996068e+00	 1.6616996068e+00	 9.3393445085e-01
 1.6454274274e+00	 1.6778139700e+00	 9.8314153421e-01
 1.6289997428e+00	 1.6937682512e+00	 1.0309784305e+00
 1.6124189075e+00	 1.7095602304e+00	 1.0741669992e+00
 1.5956873191e+00	 1.7251877351e+00	 1.1094852910e+00
 1.5788074164e+00	 1.7406486403e+00	 1.1338035059e+00
 1.7471849771e+00	 1.5847360207e+00	 7.4518465738e-01
 1.7316660144e+00	 1.6016793093e+00	 7.6620898880e-01
 1.7159798267e+00	 1.6184737268e+00	 7.9940384762e-01
 1.7001285467e+00	 1.6351168250e+00	 8.4205688282e-01
 1.6841143553e+00	 1.6516061975e+00	 8.9130732322e-01
 1.6679394808e+00	 1.6679394808e+00	 9.4419004342e-01
 1.6516061975e+00	 1.6841143553e+00	 9.9767864380e-01
 1.6351168250e+00	 1.7001285467e+00	 1.0487272585e+00
 1.6184737268e+00	 1.7159798267e+00	 1.0943108191e+00
 1.6016793093e+00	 1.7316660144e+00	 1.1314635184e+00
 1.5847360207e+00	 1.7471849771e+00	 1.1573152335e+00
 1.7537213064e+00	 1.5906646183e+00	 7.1769638872e-01
 1.7381442863e+00	 1.6076712928e+00	 7.4919665992e-01
 1.7223994156e+00	 1.6245285393e+00	 7.9087186925e-01
 1.7064888350e+00	 1.6412339004e+00	 8.4025801011e-01
 1.6904147335e+00	 1.6577849607e+00	 8.9474117484e-01
 1.6741793478e+00	 1.6741793478e+00	 9.5160239869e-01
 1.6577849607e+00	 1.6904147335e+00	 1.0080614715e+00
 1.6412339004e+00	 1.7064888350e+00	 1.0613194246e+00
 1.6245285393e+00	 1.7223994156e+00	 1.1085994145e+00
 1.6076712928e+00	 1.7381442863e+00	 1.1471857425e+00
 1.5906646183e+00	 1.7537213064e+00	 1.1744607646e+00
 1.7602576265e+00	 1.5965932074e+00	 6.9943912872e-01
 1.7446225491e+00	 1.6136632678e+00	 7.3853124997e-01
 1.7288189954e+00	 1.6305833431e+00	 7.8610325940e-01
 1.7128491142e+00	 1.6473509670e+00	 8.3994078910e-01
 1.6967151028e+00	 1.6639637150e+00	 8.9767681424e-01
 1.6804192059e+00	 1.6804192059e+00	 9.5683729592e-01
 1.6639637150e+00	 1.6967151028e+00	 1.0148857456e+00
 1.6473509670e+00	 1.7128491142e+00	 1.0692664121e+00
 1.6305833431e+00	 1.7288189954e+00	 1.1174458073e+00
 1.6136632678e+00	 1.7446225491e+00	 1.1569523031e+00
 1.5965932074e+00	 1.7602576265e+00	 1.1854135495e+00
 1.7667939355e+00	 1.6025217865e+00	 6.9119938038e-01
 1.7511008008e+00	 1.6196552326e+00	 7.3499954908e-01
 1.7352385643e+00	 1.6366381367e+00	 7.8587144180e-01
 1.7192093827e+00	 1.6534680233e+00	 8.4185151669e-01
 1.7030154613e+00	 1.6701424589e+00	 9.0081956013e-01
 1.6866590534e+00	 1.6866590534e+00	 9.6054514946e-01
 1.6701424589e+00	 1.7030154613e+00	 1.0187329918e+00
 1.6534680233e+00	 1.7192093827e+00	 1.0730668331e+00
 1.6366381367e+00	 1.7352385643e+00	 1.1212516477e+00
 1.6196552326e+00	 1.7511008008e+00	 1.1610538343e+00
 1.6025217865e+00	 1.7667939355e+00	 1.1903391645e+00
 1.7733302316e+00	 1.6084503539e+00	 6.9374580622e-01
 1.7575790397e+00	 1.6256471855e+00	 7.3937081634e-01
 1.7416581205e+00	 1.6426929183e+00	 7.9093278771e-01
 1.7255696386e+00	 1.6595850674e+00	 8.4672008432e-01
 1.7093158074e+00	 1.6763211905e+00	 9.0485914010e-01
 1.6928988885e+00	 1.6928988885e+00	 9.6336176339e-01
 1.6763211905e+00	 1.7093158074e+00	 1.0201712721e+00
 1.6595850674e+00	 1.7255696386e+00	 1.0732071470e+00
 1.6426929183e+00	 1.7416581205e+00	 1.1204079076e+00
 1.6256471855e+00	 1.7575790397e+00	 1.1597719291e+00
 1.6084503539e+00	 1.7733302316e+00	 1.1893959440e+00
 1.7798665128e+00	 1.6143789077e+00	 7.0782999494e-01
 1.7640572640e+00	 1.6316391248e+00	 7.5239755129e-01
 1.7480776622e+00	 1.6487476861e+00	 8.0202738824e-01
 1.7319298800e+00	 1.6657020977e+00	 8.5526074681e-01
 1.7156161392e+00	 1.6824999081e+00	 9.1047045210e-01
 1.6991387095e+00	 1.6991387095e+00	 9.6590908156e-01
 1.6824999081e+00	 1.7156161392e+00	 1.0197559190e+00
 1.6657020977e+00	 1.7319298800e+00	 1.0701623753e+00
 1.6487476861e+00	 1.7480776622e+00	 1.1152955717e+00
 1.6316391248e+00	 1.7640572640e+00	 1.1533798028e+00
 1.6143789077e+00	 1.7798665128e+00	 1.1827356111e+00
 1.7864027773e+00	 1.6203074465e+00	 7.3418722269e-01
 1.7705354717e+00	 1.6376310489e+00	 7.7481625999e-01
 1.7544971874e+00	 1.6548024385e+00	 8.1987982125e-01
 1.7382901052e+00	 1.6718191124e+00	 8.6817288627e-01
 1.7219164549e+00	 1.6886786099e+00	 9.1831432115e-01
 1.7053785146e+00	 1.7053785146e+00	 9.6879593305e-01
 1.6886786099e+00	 1.7219164549e+00	 1.0180302661e+00
 1.6718191124e+00	 1.7382901052e+00	 1.0643968120e+00
 1.6548024385e+00	 1.7544971874e+00	 1.1062863254e+00
 1.6376310489e+00	 1.7705354717e+00	 1.1421429532e+00
 1.6203074465e+00	 1.7864027773e+00	 1.1705039071e+00
 1.5610215801e+00	 1.7210396040e+00	 1.0232051950e+00
 1.5441847742e+00	 1.7361621134e+00	 1.0365867312e+00
 1.5272062460e+00	 1.7511157601e+00	 1.0468432011e+00
 1.5100885515e+00	 1.7658985635e+00	 1.0540863999e+00
 1.4928342830e+00	 1.7805085939e+00	 1.0585323184e+00
 1.4754460677e+00	 1.7949439741e+00	 1.0600046564e+00
 1.4579265664e+00	 1.8092028793e+00	 1.0535224885e+00
 1.4402784720e+00	 1.8232835386e+00	 1.0401560229e+00
 1.4225045086e+00	 1.8371842352e+00	 1.0229072286e+00
 1.4046074294e+00	 1.8509033073e+00	 1.0046467346e+00
 1.3865900162e+00	 1.8644391488e+00	 9.8771051613e-01
 1.5669501944e+00	 1.7275759519e+00	 1.0669444815e+00
 1.5500494440e+00	 1.7427558952e+00	 1.0800472769e+00
 1.5330064329e+00	 1.7577663345e+00	 1.0885231552e+00
 1.5158237270e+00	 1.7726052815e+00	 1.0927153199e+00
 1.4985039284e+00	 1.7872707995e+00	 1.0930692588e+00
 1.4810496743e+00	 1.8017610039e+00	 1.0901488469e+00
 1.4634636355e+00	 1.8160740631e+00	 1.0808274128e+00
 1.4457485153e+00	 1.8302081994e+00	 1.0641334781e+00
 1.4279070480e+00	 1.8441616895e+00	 1.0432795875e+00
 1.4099419974e+00	 1.8579328654e+00	 1.0212340664e+00
 1.3918561558e+00	 1.8715201148e+00	 1.0001782038e+00
 1.5728788071e+00	 1.7341122980e+00	 1.1037436231e+00
 1.5559141120e+00	 1.7493496751e+00	 1.1171257436e+00
 1.5388066181e+00	 1.7644169069e+00	 1.1245728205e+00
 1.5215589008e+00	 1.7793119977e+00	 1.1266159973e+00
 1.5041735722e+00	 1.7940330032e+00	 1.1238885365e+00
 1.4866532792e+00	 1.8085780317e+00	 1.1171446380e+00
 1.4690007031e+00	 1.8229452449e+00	 1.1055551346e+00
 1.4512185571e+00	 1.8371328582e+00	 1.0864376488e+00
 1.4333095859e+00	 1.8511391419e+00	 1.0628468478e+00
 1.4152765639e+00	 1.8649624216e+00	 1.0375487760e+00
 1.3971222939e+00	 1.8786010788e+00	 1.0129994155e+00
 1.5788074164e+00	 1.7406486403e+00	 1.1338035059e+00
 1.5617787768e+00	 1.7559434513e+00	 1.1478896047e+00
 1.5446068001e+00	 1.7710674756e+00	 1.1549396710e+00
 1.5272940714e+00	 1.7860187100e+00	 1.1556297674e+00
 1.5098432127e+00	 1.8007952030e+00	 1.1507396541e+00
 1.4922568810e+00	 1.8153950557e+00	 1.1411718395e+00
 1.4745377675e+00	 1.8298164229e+00	 1.1274713338e+00
 1.4566885957e+00	 1.8440575132e+00	 1.1067938144e+00
 1.4387121208e+00	 1.8581165904e+00	 1.0812068767e+00
 1.4206111274e+00	 1.8719919737e+00	 1.0532530493e+00
 1.4023884289e+00	 1.8856820388e+00	 1.0258538450e+00
 1.5847360207e+00	 1.7471849771e+00	 1.1573152335e+00
 1.5676434366e+00	 1.7625372218e+00	 1.1723984564e+00
 1.5504069771e+00	 1.7777180386e+00	 1.1795649652e+00
 1.5330292371e+00	 1.7927254166e+00	 1.1795931623e+00
 1.5155128484e+00	 1.8075573971e+00	 1.1733684671e+00
 1.4978604780e+00	 1.8222120739e+00	 1.1619026547e+00
 1.4800748272e+00	 1.8366875950e+00	 1.1463312576e+00
 1.4621586297e+00	 1.8509821622e+00	 1.1249175759e+00
 1.4441146510e+00	 1.8650940329e+00	 1.0978819347e+00
 1.4259456863e+00	 1.8790215199e+00	 1.0680117125e+00
 1.4076545595e+00	 1.8927629927e+00	 1.0384214233e+00
 1.5906646183e+00	 1.7537213064e+00	 1.1744607646e+00
 1.5735080897e+00	 1.7691309849e+00	 1.1907046196e+00
 1.5562071475e+00	 1.7843685941e+00	 1.1983843163e+00
 1.5387643964e+00	 1.7994321157e+00	 1.1983384524e+00
 1.5211824777e+00	 1.8143195835e+00	 1.1915176994e+00
 1.5034640687e+00	 1.8290290844e+00	 1.1790044874e+00
 1.4856118806e+00	 1.8435587593e+00	 1.1620297171e+00
 1.4676286575e+00	 1.8579068034e+00	 1.1404119408e+00
 1.4495171752e+00	 1.8720714675e+00	 1.1125375147e+00
 1.4312802392e+00	 1.8860510581e+00	 1.0814901627e+00
 1.4129206842e+00	 1.8998439386e+00	 1.0503824882e+00
 1.5965932074e+00	 1.7602576265e+00	 1.1854135495e+00
 1.5793727345e+00	 1.7757247387e+00	 1.2028537413e+00
 1.5620073097e+00	 1.7910191401e+00	 1.2113282616e+00
 1.5444995475e+00	 1.8061388052e+00	 1.2116941868e+00
 1.5268520990e+00	 1.8210817603e+00	 1.2049274601e+00
 1.5090676514e+00	 1.8358460853e+00	 1.1921429773e+00
 1.4911489262e+00	 1.8504299139e+00	 1.1746116063e+00
 1.4730986776e+00	 1.8648314348e+00	 1.1528020415e+00
 1.4549196916e+00	 1.8790488922e+00	 1.1248412033e+00
 1.4366147846e+00	 1.8930805864e+00	 1.0933545380e+00
 1.4181868013e+00	 1.9069248745e+00	 1.0614179562e+00
 1.6025217865e+00	 1.7667939355e+00	 1.1903391645e+00
 1.5852373694e+00	 1.7823184812e+00	 1.2088853945e+00
 1.5678074621e+00	 1.7976696749e+00	 1.2183228314e+00
 1.5502346888e+00	 1.8128454833e+00	 1.2194857358e+00
 1.5325217106e+00	 1.8278439256e+00	 1.2133357610e+00
 1.5146712247e+00	 1.8426630745e+00	 1.2009824970e+00
 1.4966859623e+00	 1.8573010568e+00	 1.1836191212e+00
 1.4785686883e+00	 1.8717560544e+00	 1.1617710102e+00
 1.4603221989e+00	 1.8860263050e+00	 1.1344614052e+00
 1.4419493208e+00	 1.9001101027e+00	 1.1032718905e+00
 1.4234529095e+00	 1.9140057984e+00	 1.0712094953e+00
 1.6084503539e+00	 1.7733302316e+00	 1.1893959440e+00
 1.5911019926e+00	 1.7889122106e+00	 1.2088336774e+00
 1.5736076030e+00	 1.8043201965e+00	 1.2192901182e+00
 1.5559698188e+00	 1.8195521481e+00	 1.2215358319e+00
 1.5381913110e+00	 1.8346060775e+00	 1.2164790343e+00
 1.5202747867e+00	 1.8494800502e+00	 1.2051866497e+00
 1.5022229875e+00	 1.8641721861e+00	 1.1884892249e+00
 1.4840386882e+00	 1.8786806603e+00	 1.1670435050e+00
 1.4657246955e+00	 1.8930037041e+00	 1.1410675213e+00
 1.4472838465e+00	 1.9071396050e+00	 1.1109103610e+00
 1.4287190073e+00	 1.9210867082e+00	 1.0794397009e+00
 1.6143789077e+00	 1.7798665128e+00	 1.1827356111e+00
 1.5969666025e+00	 1.7955059252e+00	 1.2027278113e+00
 1.5794077307e+00	 1.8109707030e+00	 1.2141488448e+00
 1.5617049357e+00	 1.8262587978e+00	 1.2176651121e+00
 1.5438608986e+00	 1.8413682141e+00	 1.2140926515e+00
 1.5258783361e+00	 1.8562970105e+00	 1.2043676446e+00
 1.5077600002e+00	 1.8710432998e+00	 1.1888427844e+00
 1.4895086757e+00	 1.8856052505e+00	 1.1685389594e+00
 1.4711271799e+00	 1.8999810872e+00	 1.1443301293e+00
 1.4526183601e+00	 1.9141690914e+00	 1.1159393552e+00
 1.4339850932e+00	 1.9281676020e+00	 1.0857922729e+00
 1.6203074465e+00	 1.7864027773e+00	 1.1705039071e+00
 1.6028311975e+00	 1.8020996229e+00	 1.1905927377e+00
 1.5852078436e+00	 1.8176211925e+00	 1.2028149324e+00
 1.5674400381e+00	 1.8329654303e+00	 1.2076926599e+00
 1.5495304716e+00	 1.8481303335e+00	 1.2059114433e+00
 1.5314818712e+00	 1.8631139533e+00	 1.1980253895e+00
 1.5132969987e+00	 1.8779143959e+00	 1.1843182026e+00
 1.4949786493e+00	 1.8925298230e+00	 1.1659131538e+00
 1.4765296504e+00	 1.9069584527e+00	 1.1439211645e+00
 1.4579528601e+00	 1.9211985599e+00	 1.1180297224e+00
 1.4392511656e+00	 1.9352484777e+00	 1.0899521941e+00
 1.3865900162e+00	 1.8644391488e+00	 9.8771051613e-01
 1.3684581680e+00	 1.8777879572e+00	 9.7169237241e-01
 1.3502116560e+00	 1.8909505627e+00	 9.5579387425e-01
 1.3318533261e+00	 1.9039255374e+00	 9.4112613476e-01
 1.3133860468e+00	 1.9167115110e+00	 9.2859924833e-01
 1.2948127076e+00	 1.9293071710e+00	 9.1893949596e-01
 1.2761362175e+00	 1.9417112635e+00	 9.1270579145e-01
 1.2573595038e+00	 1.9539225930e+00	 9.1030532784e-01
 1.2384855106e+00	 1.9659400232e+00	 9.1200839176e-01
 1.2195171970e+00	 1.9777624767e+00	 9.1796232177e-01
 1.2004575360e+00	 1.9893889355e+00	 9.2820459408e-01
 1.3918561558e+00	 1.8715201148e+00	 1.0001782038e+00
 1.3736554445e+00	 1.8849196207e+00	 9.8019242393e-01
 1.3553396340e+00	 1.8981322166e+00	 9.6056252020e-01
 1.3369115809e+00	 1.9111564690e+00	 9.4244620700e-01
 1.3183741645e+00	 1.9239910025e+00	 9.2679919205e-01
 1.2997302855e+00	 1.9366344997e+00	 9.1439257754e-01
 1.2809828638e+00	 1.9490857018e+00	 9.0582947199e-01
 1.2621348379e+00	 1.9613434088e+00	 9.0156077235e-01
 1.2431891631e+00	 1.9734064800e+00	 9.0190008450e-01
 1.2241488096e+00	 1.9852738341e+00	 9.0703775879e-01
 1.2050167618e+00	 1.9969444491e+00	 9.1705402494e-01
 1.3971222939e+00	 1.8786010788e+00	 1.0129994155e+00
 1.3788527195e+00	 1.8920512822e+00	 9.8957369332e-01
 1.3604676104e+00	 1.9053138684e+00	 9.6666980818e-01
 1.3419698341e+00	 1.9183873986e+00	 9.4548259381e-01
 1.3233622808e+00	 1.9312704920e+00	 9.2700440840e-01
 1.3046478620e+00	 1.9439618263e+00	 9.1204274253e-01
 1.2858295088e+00	 1.9564601380e+00	 9.0123700594e-01
 1.2669101707e+00	 1.9687642225e+00	 8.9507445316e-01
 1.2478928142e+00	 1.9808729348e+00	 8.9390521653e-01
 1.2287804208e+00	 1.9927851894e+00	 8.9795642365e-01
 1.2095759862e+00	 2.0044999606e+00	 9.0734538496e-01
 1.4023884289e+00	 1.8856820388e+00	 1.0258538450e+00
 1.3840499916e+00	 1.8991829397e+00	 9.9954160301e-01
 1.3655955840e+00	 1.9124955162e+00	 9.7385063433e-01
 1.3470280845e+00	 1.9256183241e+00	 9.5000351751e-01
 1.3283503943e+00	 1.9385499774e+00	 9.2902040606e-01
 1.3095654357e+00	 1.9512891488e+00	 9.1173685376e-01
 1.2906761510e+00	 1.9638345700e+00	 8.9882078564e-01
 1.2716855008e+00	 1.9761850319e+00	 8.9078857486e-01
 1.2525964626e+00	 1.9883393853e+00	 8.8802019418e-01
 1.2334120295e+00	 2.0002965404e+00	 8.9077342027e-01
 1.2141352081e+00	 2.0120554678e+00	 8.9919707686e-01
 1.4076545595e+00	 1.8927629927e+00	 1.0384214233e+00
 1.3892472592e+00	 1.9063145911e+00	 1.0098014754e+00
 1.3707235532e+00	 1.9196771578e+00	 9.8183938537e-01
 1.3520863306e+00	 1.9328492434e+00	 9.5577620850e-01
 1.3333385035e+00	 1.9458294565e+00	 9.3265114493e-01
 1.3144830052e+00	 1.9586164650e+00	 9.1331959313e-01
 1.2955227890e+00	 1.9712089957e+00	 8.9847031424e-01
 1.2764608268e+00	 1.9836058351e+00	 8.8864166746e-01
 1.2573001071e+00	 1.9958058294e+00	 8.8423688624e-01
 1.2380436342e+00	 2.0078078850e+00	 8.8553837367e-01
 1.2186944261e+00	 2.0196109686e+00	 8.9272100427e-01
 1.4129206842e+00	 1.8998439386e+00	 1.0503824882e+00
 1.3944445210e+00	 1.9134462344e+00	 1.0200587059e+00
 1.3758515166e+00	 1.9268587914e+00	 9.9037011630e-01
 1.3571445710e+00	 1.9400801545e+00	 9.6256708830e-01
 1.3383266071e+00	 1.9531089275e+00	 9.3769922551e-01
 1.3194005692e+00	 1.9659437729e+00	 9.1663365835e-01
 1.3003694216e+00	 1.9785834131e+00	 9.0007241056e-01
 1.2812361474e+00	 1.9910266298e+00	 8.8856880065e-01
 1.2620037462e+00	 2.0032722651e+00	 8.8254284847e-01
 1.2426752336e+00	 2.0153192212e+00	 8.8229566592e-01
 1.2232536390e+00	 2.0271664608e+00	 8.8802282033e-01
 1.4181868013e+00	 1.9069248745e+00	 1.0614179562e+00
 1.3996417754e+00	 1.9205778676e+00	 1.0300189382e+00
 1.3809794728e+00	 1.9340404147e+00	 9.9917672980e-01
 1.3622028042e+00	 1.9473110554e+00	 9.7014195420e-01
 1.3433147036e+00	 1.9603883881e+00	 9.4396607972e-01
 1.3243181262e+00	 1.9732710705e+00	 9.2151996068e-01
 1.3052160474e+00	 1.9859578200e+00	 9.0351141496e-01
 1.2860114612e+00	 1.9984474140e+00	 8.9050179862e-01
 1.2667073787e+00	 2.0107386902e+00	 8.8292154842e-01
 1.2473068265e+00	 2.0228305467e+00	 8.8108467210e-01
 1.2278128453e+00	 2.0347219423e+00	 8.8520217575e-01
 1.4234529095e+00	 1.9140057984e+00	 1.0712094953e+00
 1.4048390209e+00	 1.9277094887e+00	 1.0393882410e+00
 1.3861074202e+00	 1.9412220258e+00	 1.0079931573e+00
 1.3672610288e+00	 1.9545419440e+00	 9.7826616534e-01
 1.3483027916e+00	 1.9676678363e+00	 9.5125216281e-01
 1.3292356748e+00	 1.9805983556e+00	 9.2781782379e-01
 1.3100626649e+00	 1.9933322144e+00	 9.0866939593e-01
 1.2907867669e+00	 2.0058681856e+00	 8.9436945536e-01
 1.2714110031e+00	 2.0182051026e+00	 8.8535259057e-01
 1.2519384115e+00	 2.0303418594e+00	 8.8193999612e-01
 1.2323720440e+00	 2.0422774110e+00	 8.8435296644e-01
 1.4287190073e+00	 1.9210867082e+00	 1.0794397009e+00
 1.4100362562e+00	 1.9348410956e+00	 1.0478732867e+00
 1.3912353574e+00	 1.9484036227e+00	 1.0165535415e+00
 1.3723192434e+00	 1.9617728182e+00	 9.8670483024e-01
 1.3532908697e+00	 1.9749472701e+00	 9.5935714672e-01
 1.3341532137e+00	 1.9879256261e+00	 9.3536518363e-01
 1.3149092727e+00	 2.0007065942e+00	 9.1542635746e-01
 1.2955620631e+00	 2.0132889425e+00	 9.0009775054e-01
 1.2761146183e+00	 2.0256715002e+00	 8.8981194156e-01
 1.2565699873e+00	 2.0378531572e+00	 8.8489170644e-01
 1.2369312335e+00	 2.0498328647e+00	 8.8556358075e-01
 1.4339850932e+00	 1.9281676020e+00	 1.0857922729e+00
 1.4152334797e+00	 1.9419726864e+00	 1.0551815314e+00
 1.3963632831e+00	 1.9555852033e+00	 1.0245924210e+00
 1.3773774465e+00	 1.9690036761e+00	 9.9522299578e-01
 1.3582789366e+00	 1.9822266874e+00	 9.6808011449e-01
 1.3390707414e+00	 1.9952528801e+00	 9.4399878930e-01
 1.3197558696e+00	 2.0080809572e+00	 9.2366044722e-01
 1.3003373485e+00	 2.0207096826e+00	 9.0761006586e-01
 1.2808182228e+00	 2.0331378809e+00	 8.9627215573e-01
 1.2612015526e+00	 2.0453644380e+00	 8.8996557176e-01
 1.2414904128e+00	 2.0573883012e+00	 8.8891714624e-01
 1.4392511656e+00	 1.9352484777e+00	 1.0899521941e+00
 1.4204306899e+00	 1.9491042590e+00	 1.0610213974e+00
 1.4014911956e+00	 1.9627667656e+00	 1.0318449155e+00
 1.3824356367e+00	 1.9762345155e+00	 1.0035858374e+00
 1.3632669907e+00	 1.9895060861e+00	 9.7721975596e-01
 1.3439882566e+00	 2.0025801153e+00	 9.5355440493e-01
 1.3246024542e+00	 2.0154553015e+00	 9.3324816547e-01
 1.3051126218e+00	 2.0281304037e+00	 9.1682740193e-01
 1.2855218152e+00	 2.0406042425e+00	 9.0470260089e-01
 1.2658331062e+00	 2.0528756997e+00	 8.9718329654e-01
 1.2460495804e+00	 2.0649437185e+00	 8.9449177607e-01
 1.2004575360e+00	 1.9893889355e+00	 9.2820459408e-01
 1.1813095133e+00	 2.0008184419e+00	 9.3949429480e-01
 1.1620761269e+00	 2.0120500994e+00	 9.4870738459e-01
 1.1427603843e+00	 2.0230830718e+00	 9.5595315778e-01
 1.1233653013e+00	 2.0339165827e+00	 9.6130976348e-01
 1.1038938996e+00	 2.0445499154e+00	 9.6490590968e-01
 1.0843492062e+00	 2.0549824128e+00	 9.6756028299e-01
 1.0647342514e+00	 2.0652134774e+00	 9.6951806547e-01
 1.0450520678e+00	 2.0752425708e+00	 9.7086861962e-01
 1.0253056884e+00	 2.0850692143e+00	 9.7175577467e-01
 1.0054981458e+00	 2.0946929879e+00	 9.7236971192e-01
 1.2050167618e+00	 1.9969444491e+00	 9.1705402494e-01
 1.1857960167e+00	 2.0084173637e+00	 9.2890402531e-01
 1.1664895836e+00	 2.0196916780e+00	 9.3946806833e-01
 1.1471004817e+00	 2.0307665526e+00	 9.4861652925e-01
 1.1276317379e+00	 2.0416412082e+00	 9.5619693633e-01
 1.1080863857e+00	 2.0523149253e+00	 9.6205552331e-01
 1.0884674633e+00	 2.0627870444e+00	 9.6673291230e-01
 1.0687780128e+00	 2.0730569655e+00	 9.7048984384e-01
 1.0490210780e+00	 2.0831241486e+00	 9.7324596495e-01
 1.0291997038e+00	 2.0929881127e+00	 9.7498051517e-01
 1.0093169340e+00	 2.1026484365e+00	 9.7572453625e-01
 1.2095759862e+00	 2.0044999606e+00	 9.0734538496e-01
 1.1902825187e+00	 2.0160162834e+00	 9.1925447671e-01
 1.1709030391e+00	 2.0273332544e+00	 9.3062530816e-01
 1.1514405778e+00	 2.0384500312e+00	 9.4112182856e-01
 1.1318981733e+00	 2.0493658315e+00	 9.5039218391e-01
 1.1122788705e+00	 2.0600799330e+00	 9.5807698829e-01
 1.0925857193e+00	 2.0705916737e+00	 9.6435339614e-01
 1.0728217730e+00	 2.0809004515e+00	 9.6959065109e-01
 1.0529900872e+00	 2.0910057241e+00	 9.7356574983e-01
 1.0330937181e+00	 2.1009070089e+00	 9.7611673235e-01
 1.0131357210e+00	 2.1106038828e+00	 9.7713734718e-01
 1.2141352081e+00	 2.0120554678e+00	 8.9919707686e-01
 1.1947690183e+00	 2.0236151987e+00	 9.1072390737e-01
 1.1753164921e+00	 2.0349748265e+00	 9.2240545422e-01
 1.1557806715e+00	 2.0461335055e+00	 9.3373143326e-01
 1.1361646064e+00	 2.0570904504e+00	 9.4418155857e-01
 1.1164713531e+00	 2.0678449363e+00	 9.5323397501e-01
 1.0967039729e+00	 2.0783962986e+00	 9.6071863098e-01
 1.0768655310e+00	 2.0887439330e+00	 9.6709673021e-01
 1.0569590941e+00	 2.0988872951e+00	 9.7207016264e-01
 1.0369877301e+00	 2.1088259006e+00	 9.7535883650e-01
 1.0169545060e+00	 2.1185593247e+00	 9.7674074081e-01
 1.2186944261e+00	 2.0196109686e+00	 8.9272100427e-01
 1.1992555140e+00	 2.0312141076e+00	 9.0348309918e-01
 1.1797299413e+00	 2.0426163921e+00	 9.1502657133e-01
 1.1601207615e+00	 2.0538169733e+00	 9.2669880107e-01
 1.1404310357e+00	 2.0648150627e+00	 9.3784173852e-01
 1.1206638320e+00	 2.0756099330e+00	 9.4780046313e-01
 1.1008222231e+00	 2.0862009169e+00	 9.5611922005e-01
 1.0809092855e+00	 2.0965874078e+00	 9.6327865396e-01
 1.0609280976e+00	 2.1067688594e+00	 9.6899655731e-01
 1.0408817389e+00	 2.1167447855e+00	 9.7289745474e-01
 1.0207732877e+00	 2.1265147597e+00	 9.7466479928e-01
 1.2232536390e+00	 2.0271664608e+00	 8.8802282033e-01
 1.2037420046e+00	 2.0388130079e+00	 8.9769561753e-01
 1.1841433856e+00	 2.0502579491e+00	 9.0869870691e-01
 1.1644608465e+00	 2.0615004323e+00	 9.2026874228e-01
 1.1446974603e+00	 2.0725396663e+00	 9.3164030095e-01
 1.1248563062e+00	 2.0833749208e+00	 9.4205453610e-01
 1.1049404686e+00	 2.0940055263e+00	 9.5083929489e-01
 1.0849530354e+00	 2.1044308737e+00	 9.5840114688e-01
 1.0648970967e+00	 2.1146504148e+00	 9.6457727219e-01
 1.0447757432e+00	 2.1246636615e+00	 9.6891924286e-01
 1.0245920650e+00	 2.1344701858e+00	 9.7103689185e-01
 1.2278128453e+00	 2.0347219423e+00	 8.8520217575e-01
 1.2082284889e+00	 2.0464118975e+00	 8.9351807044e-01
 1.1885568235e+00	 2.0578994952e+00	 9.0362415780e-01
 1.1688009254e+00	 2.0691838805e+00	 9.1467769079e-01
 1.1489638788e+00	 2.0802642590e+00	 9.2583599383e-01
 1.1290487744e+00	 2.0911398977e+00	 9.3626517372e-01
 1.1090587082e+00	 2.1018101246e+00	 9.4515633552e-01
 1.0889967796e+00	 2.1122743285e+00	 9.5272290616e-01
 1.0688660901e+00	 2.1225319590e+00	 9.5903944786e-01
 1.0486697420e+00	 2.1325825262e+00	 9.6360669652e-01
 1.0284108369e+00	 2.1424256006e+00	 9.6598147554e-01
 1.2323720440e+00	 2.0422774110e+00	 8.8435296644e-01
 1.2127149656e+00	 2.0540107741e+00	 8.9110036700e-01
 1.1929702540e+00	 2.0655410284e+00	 8.9999773611e-01
 1.1731409969e+00	 2.0768673155e+00	 9.1015397400e-01
 1.1532302900e+00	 2.0879888385e+00	 9.2067900635e-01
 1.1332412356e+00	 2.0989048614e+00	 9.3069251959e-01
 1.1131769409e+00	 2.1096147097e+00	 9.3933162506e-01
 1.0930405169e+00	 2.1201177700e+00	 9.4649642116e-01
 1.0728350767e+00	 2.1304134899e+00	 9.5260484391e-01
 1.0525637342e+00	 2.1405013775e+00	 9.5713796160e-01
 1.0322296024e+00	 2.1503810018e+00	 9.5961989544e-01
 1.2369312335e+00	 2.0498328647e+00	 8.8556358075e-01
 1.2172014333e+00	 2.0616096356e+00	 8.9058597491e-01
 1.1973836758e+00	 2.0731825464e+00	 8.9800703398e-01
 1.1774810599e+00	 2.0845507354e+00	 9.0691808141e-01
 1.1574966928e+00	 2.0957134027e+00	 9.1641123802e-01
 1.1374336884e+00	 2.1066698097e+00	 9.2558814725e-01
 1.1172951653e+00	 2.1174192793e+00	 9.3356760543e-01
 1.0970842462e+00	 2.1279611960e+00	 9.3996779182e-01
 1.0768040555e+00	 2.1382950050e+00	 9.4548965473e-01
 1.0564577187e+00	 2.1484202131e+00	 9.4968664383e-01
 1.0360483603e+00	 2.1583363873e+00	 9.5207018461e-01
 1.2414904128e+00	 2.0573883012e+00	 8.8891714624e-01
 1.2216878909e+00	 2.0692084799e+00	 8.9211217741e-01
 1.2017970875e+00	 2.0808240470e+00	 8.9783268738e-01
 1.1818211130e+00	 2.0922341378e+00	 9.0518293214e-01
 1.1617630859e+00	 2.1034379494e+00	 9.1326656654e-01
 1.1416261317e+00	 2.1144347404e+00	 9.2119532500e-01
 1.1214133805e+00	 2.1252238313e+00	 9.2809658517e-01
 1.1011279663e+00	 2.1358046041e+00	 9.3337654582e-01
 1.0807730253e+00	 2.1461765024e+00	 9.3790432427e-01
 1.0603516944e+00	 2.1563390307e+00	 9.4142161777e-01
 1.0398671095e+00	 2.1662917548e+00	 9.4344686367e-01
 1.2460495804e+00	 2.0649437185e+00	 8.9449177607e-01
 1.2261743371e+00	 2.0768073048e+00	 8.9581032944e-01
 1.2062104879e+00	 2.0884655282e+00	 8.9964863897e-01
 1.1861611550e+00	 2.0999175207e+00	 9.0515414127e-01
 1.1660294682e+00	 2.1111624763e+00	 9.1147111435e-01
 1.1458185643e+00	 2.1221996512e+00	 9.1774927945e-01
 1.1255315851e+00	 2.1330283633e+00	 9.2315126498e-01
 1.1051716761e+00	 2.1436479923e+00	 9.2695545466e-01
 1.0847419850e+00	 2.1540579796e+00	 9.3005335993e-01
 1.0642456601e+00	 2.1642578281e+00	 9.3250683505e-01
 1.0436858490e+00	 2.1742471019e+00	 9.3386074000e-01
 1.0054981458e+00	 2.0946929879e+00	 9.7236971192e-01
 9.8562908784e-01	 2.1041151143e+00	 9.7424660134e-01
 9.6570490446e-01	 2.1133336360e+00	 9.7835772185e-01
 9.4572861812e-01	 2.1223483067e+00	 9.8409952661e-01
 9.2570324514e-01	 2.1311589378e+00	 9.9089654618e-01
 9.0563179433e-01	 2.1397653980e+00	 9.9819887598e-01
 8.8551726570e-01	 2.1481676131e+00	 1.0054803014e+00
 8.6536264914e-01	 2.1563655651e+00	 1.0122369852e+00
 8.4517092319e-01	 2.1643592920e+00	 1.0179866406e+00
 8.2494505378e-01	 2.1721488872e+00	 1.0222681185e+00
 8.0468799300e-01	 2.1797344988e+00	 1.0246413334e+00
 1.0093169340e+00	 2.1026484365e+00	 9.7572453625e-01
 9.8937241519e-01	 2.1121063473e+00	 9.7687760432e-01
 9.6937256161e-01	 2.1213598801e+00	 9.7951557099e-01
 9.4932040720e-01	 2.1304087876e+00	 9.8323657868e-01
 9.2921897972e-01	 2.1392528806e+00	 9.8766012497e-01
 9.0907129942e-01	 2.1478920274e+00	 9.9242460441e-01
 8.8888037768e-01	 2.1563261533e+00	 9.9718550491e-01
 8.6864921577e-01	 2.1645552404e+00	 1.0016141799e+00
 8.4838080353e-01	 2.1725793267e+00	 1.0053971185e+00
 8.2807811815e-01	 2.1803985061e+00	 1.0082356369e+00
 8.0774412295e-01	 2.1880129271e+00	 1.0098459172e+00
 1.0131357210e+00	 2.1106038828e+00	 9.7713734718e-01
 9.9311574147e-01	 2.1200975780e+00	 9.7785317103e-01
 9.7304021773e-01	 2.1293861218e+00	 9.7937621657e-01
 9.5291219527e-01	 2.1384692662e+00	 9.8148126282e-01
 9.3273471331e-01	 2.1473468212e+00	 9.8395860851e-01
 9.1251080353e-01	 2.1560186545e+00	 9.8661169782e-01
 8.9224348871e-01	 2.1644846912e+00	 9.8925541573e-01
 8.7193578146e-01	 2.1727449133e+00	 9.9171497144e-01
 8.5159068295e-01	 2.1807993591e+00	 9.9382528937e-01
 8.3121118164e-01	 2.1886481226e+00	 9.9543082853e-01
 8.1080025202e-01	 2.1962913531e+00	 9.9638575337e-01
 1.0169545060e+00	 2.1185593247e+00	 9.7674074081e-01
 9.9685906563e-01	 2.1280888041e+00	 9.7724088464e-01
 9.7670787176e-01	 2.1374123590e+00	 9.7795021401e-01
 9.5650398129e-01	 2.1465297403e+00	 9.7879526561e-01
 9.3625044490e-01	 2.1554407572e+00	 9.7971313966e-01
 9.1595030569e-01	 2.1641452770e+00	 9.8064923926e-01
 8.9560659783e-01	 2.1726432245e+00	 9.8155569268e-01
 8.7522234530e-01	 2.1809345817e+00	 9.8239037445e-01
 8.5480056056e-01	 2.1890193868e+00	 9.8311644188e-01
 8.3434424334e-01	 2.1968977345e+00	 9.8370230517e-01
 8.1385637937e-01	 2.2045697743e+00	 9.8412195158e-01
 1.0207732877e+00	 2.1265147597e+00	 9.7466479928e-01
 1.0006023866e+00	 2.1360800235e+00	 9.7510713723e-01
 9.8037552268e-01	 2.1454385894e+00	 9.7524813436e-01
 9.6009576427e-01	 2.1545902075e+00	 9.7514137501e-01
 9.3976617351e-01	 2.1635346863e+00	 9.7484692263e-01
 9.1938980493e-01	 2.1722718926e+00	 9.7442920256e-01
 8.9896970409e-01	 2.1808017509e+00	 9.7395557962e-01
 8.7850890634e-01	 2.1891242430e+00	 9.7349554348e-01
 8.5801043544e-01	 2.1972394076e+00	 9.7312041548e-01
 8.3747730239e-01	 2.2051473393e+00	 9.7290349262e-01
 8.1691250411e-01	 2.2128481886e+00	 9.7292054632e-01
 1.0245920650e+00	 2.1344701858e+00	 9.7103689185e-01
 1.0043457033e+00	 2.1440712338e+00	 9.7151691917e-01
 9.8404316944e-01	 2.1534648107e+00	 9.7128034437e-01
 9.6368754317e-01	 2.1626506656e+00	 9.7048325338e-01
 9.4328189813e-01	 2.1716286062e+00	 9.6928499123e-01
 9.2282930027e-01	 2.1803984990e+00	 9.6784621833e-01
 9.0233280655e-01	 2.1889602680e+00	 9.6632767184e-01
 8.8179546365e-01	 2.1973138951e+00	 9.6488954211e-01
 8.6122030668e-01	 2.2054594190e+00	 9.6369137504e-01
 8.4061035788e-01	 2.2133969348e+00	 9.6289241310e-01
 8.1996862540e-01	 2.2211265934e+00	 9.6265229022e-01
 1.0284108369e+00	 2.1424256006e+00	 9.6598147554e-01
 1.0080890148e+00	 2.1520624328e+00	 9.6653360849e-01
 9.8771081101e-01	 2.1614910207e+00	 9.6605678676e-01
 9.6727931699e-01	 2.1707111122e+00	 9.6478521101e-01
 9.4679761777e-01	 2.1797225147e+00	 9.6295397810e-01
 9.2626879073e-01	 2.1885250938e+00	 9.6079734119e-01
 9.0569590423e-01	 2.1971187736e+00	 9.5854768362e-01
 8.8508201631e-01	 2.2055035356e+00	 9.5643511347e-01
 8.6443017337e-01	 2.2136794188e+00	 9.5468758676e-01
 8.4374340893e-01	 2.2216465186e+00	 9.5353146915e-01
 8.2302474235e-01	 2.2294049866e+00	 9.5338027331e-01
 1.0322296024e+00	 2.1503810018e+00	 9.5961989544e-01
 1.0118323198e+00	 2.1600536182e+00	 9.6021876030e-01
 9.9137844633e-01	 2.1695172169e+00	 9.5958676099e-01
 9.7087108470e-01	 2.1787715452e+00	 9.5801198040e-01
 9.5031333143e-01	 2.1878164094e+00	 9.5578188478e-01
 9.2970827535e-01	 2.1966516749e+00	 9.5318181802e-01
 9.0905899620e-01	 2.2052772652e+00	 9.5049421710e-01
 8.8836856338e-01	 2.2136931621e+00	 9.4799845201e-01
 8.6764003461e-01	 2.2218994046e+00	 9.4597119544e-01
 8.4687645466e-01	 2.2298960884e+00	 9.4489472295e-01
 8.2608085411e-01	 2.2376833656e+00	 9.4526213593e-01
 1.0360483603e+00	 2.1583363873e+00	 9.5207018461e-01
 1.0155756175e+00	 2.1680447877e+00	 9.5263189623e-01
 9.9504607439e-01	 2.1775433973e+00	 9.5187870426e-01
 9.7446284528e-01	 2.1868319622e+00	 9.5012849116e-01
 9.5382903812e-01	 2.1959102881e+00	 9.4769785266e-01
 9.3314775314e-01	 2.2047782398e+00	 9.4490085726e-01
 9.1242208150e-01	 2.2134357407e+00	 9.4204853221e-01
 8.9165510393e-01	 2.2218827725e+00	 9.3944897656e-01
 8.7084988948e-01	 2.2301193741e+00	 9.3761752934e-01
 8.5000949417e-01	 2.2381456418e+00	 9.3708901816e-01
 8.2913695981e-01	 2.2459617283e+00	 9.3814155822e-01
 1.0398671095e+00	 2.1662917548e+00	 9.4344686367e-01
 1.0193189067e+00	 2.1760359392e+00	 9.4383029380e-01
 9.9871369413e-01	 2.1855695595e+00	 9.4293997297e-01
 9.7805459772e-01	 2.1948923609e+00	 9.4109964547e-01
 9.5734473684e-01	 2.2040041484e+00	 9.3863193480e-01
 9.3658722314e-01	 2.2129047863e+00	 9.3585739921e-01
 9.1578515917e-01	 2.2215941978e+00	 9.3309431787e-01
 8.9494163704e-01	 2.2300723642e+00	 9.3085373778e-01
 8.7405973707e-01	 2.2383393250e+00	 9.2970097278e-01
 8.5314252659e-01	 2.2463951765e+00	 9.2993858003e-01
 8.3219305857e-01	 2.2542400721e+00	 9.3185867928e-01
 1.0436858490e+00	 2.1742471019e+00	 9.3386074000e-01
 1.0230621863e+00	 2.1840270702e+00	 9.3386877591e-01
 1.0023813045e+00	 2.1935957011e+00	 9.3277662436e-01
 9.8164634100e-01	 2.2029527390e+00	 9.3089009422e-01
 9.6086042659e-01	 2.2120979880e+00	 9.2851486852e-01
 9.4002668437e-01	 2.2210313121e+00	 9.2595588746e-01
 9.1914822827e-01	 2.2297526340e+00	 9.2368355143e-01
 8.9822816176e-01	 2.2382619351e+00	 9.2227523118e-01
 8.7726957648e-01	 2.2465592549e+00	 9.2203788483e-01
 8.5627555101e-01	 2.2546446902e+00	 9.2326744989e-01
 8.3524914955e-01	 2.2625183949e+00	 9.2625427382e-01
 8.0468799300e-01	 2.1797344988e+00	 1.0246413334e+00
 7.8440612811e-01	 2.1871150913e+00	 1.0272177225e+00
 7.6409893695e-01	 2.1942922261e+00	 1.0325521428e+00
 7.4376932065e-01	 2.2012662103e+00	 1.0408981900e+00
 7.2342016191e-01	 2.2080374030e+00	 1.0514234555e+00
 7.0305432391e-01	 2.2146062150e+00	 1.0625654450e+00
 6.8267464922e-01	 2.2209731076e+00	 1.0747120766e+00
 6.6228395880e-01	 2.2271385922e+00	 1.0883533142e+00
 6.4188505094e-01	 2.2331032293e+00	 1.1039927979e+00
 6.2148070031e-01	 2.2388676277e+00	 1.1219743006e+00
 6.0107365699e-01	 2.2444324436e+00	 1.1426387888e+00
 8.0774412295e-01	 2.1880129271e+00	 1.0098459172e+00
 7.8738522942e-01	 2.1954215505e+00	 1.0124634128e+00
 7.6700091344e-01	 2.2026259434e+00	 1.0186022312e+00
 7.4659408716e-01	 2.2096264140e+00	 1.0284166062e+00
 7.2616764421e-01	 2.2164233231e+00	 1.0412614549e+00
 7.0572445865e-01	 2.2230170828e+00	 1.0551215046e+00
 6.8526738386e-01	 2.2294081563e+00	 1.0703202882e+00
 6.6479925150e-01	 2.2355970569e+00	 1.0871932336e+00
 6.4432287049e-01	 2.2415843471e+00	 1.1059591515e+00
 6.2384102604e-01	 2.2473706381e+00	 1.1268328251e+00
 6.0335647868e-01	 2.2529565887e+00	 1.1500253482e+00
 8.1080025202e-01	 2.1962913531e+00	 9.9638575337e-01
 7.9036432989e-01	 2.2037280072e+00	 9.9902531757e-01
 7.6990288911e-01	 2.2109596582e+00	 1.0058179316e+00
 7.4941885286e-01	 2.2179866154e+00	 1.0168302161e+00
 7.2891512573e-01	 2.2248092408e+00	 1.0316075958e+00
 7.0839459264e-01	 2.2314279483e+00	 1.0480037890e+00
 6.8786011777e-01	 2.2378432026e+00	 1.0659091328e+00
 6.6731454349e-01	 2.2440555191e+00	 1.0854466732e+00
 6.4676068935e-01	 2.2500654625e+00	 1.1067299003e+00
 6.2620135111e-01	 2.2558736461e+00	 1.1298632764e+00
 6.0563929971e-01	 2.2614807314e+00	 1.1549428455e+00
 8.1385637937e-01	 2.2045697743e+00	 9.8412195158e-01
 7.9334342867e-01	 2.2120344593e+00	 9.8678442885e-01
 7.7280486314e-01	 2.2192933683e+00	 9.9410551308e-01
 7.5224361697e-01	 2.2263468121e+00	 1.0061373998e+00
 7.3166260569e-01	 2.2331951538e+00	 1.0227662801e+00
 7.1106472512e-01	 2.2398388090e+00	 1.0414023418e+00
 6.9045285021e-01	 2.2462782442e+00	 1.0615449878e+00
 6.6982983405e-01	 2.2525139766e+00	 1.0832309755e+00
 6.4919850683e-01	 2.2585465730e+00	 1.1064825519e+00
 6.2856167483e-01	 2.2643766493e+00	 1.1313082350e+00
 6.0792211946e-01	 2.2700048692e+00	 1.1577036751e+00
 8.1691250411e-01	 2.2128481886e+00	 9.7292054632e-01
 7.9632252491e-01	 2.2203409043e+00	 9.7562664728e-01
 7.7570683470e-01	 2.2276270714e+00	 9.8348406286e-01
 7.5506837867e-01	 2.2347070016e+00	 9.9664906394e-01
 7.3441008332e-01	 2.2415810597e+00	 1.0148181094e+00
 7.1373485532e-01	 2.2482496625e+00	 1.0353293094e+00
 6.9304558044e-01	 2.2547132785e+00	 1.0572891963e+00
 6.7234512248e-01	 2.2609724268e+00	 1.0806618361e+00
 6.5163632224e-01	 2.2670276764e+00	 1.1053921477e+00
 6.3092199655e-01	 2.2728796453e+00	 1.1314069178e+00
 6.1020493726e-01	 2.2785289998e+00	 1.1586158944e+00
 8.1996862540e-01	 2.2211265934e+00	 9.6265229022e-01
 7.9930161779e-01	 2.2286473399e+00	 9.6559539874e-01
 7.7860880297e-01	 2.2359607650e+00	 9.7422758612e-01
 7.5789313717e-01	 2.2430671817e+00	 9.8836066089e-01
 7.3715755784e-01	 2.2499669560e+00	 1.0077316133e+00
 7.1640498251e-01	 2.2566605065e+00	 1.0297965432e+00
 6.9563830774e-01	 2.2631483033e+00	 1.0532021648e+00
 6.7486040805e-01	 2.2694308675e+00	 1.0778532918e+00
 6.5407413489e-01	 2.2755087702e+00	 1.1036312697e+00
 6.3328231559e-01	 2.2813826316e+00	 1.1303952056e+00
 6.1248775248e-01	 2.2870531207e+00	 1.1579832730e+00
 8.2302474235e-01	 2.2294049866e+00	 9.5338027331e-01
 8.0228070644e-01	 2.2369537637e+00	 9.5690861858e-01
 7.8151076713e-01	 2.2442944468e+00	 9.6626179933e-01
 7.6071789168e-01	 2.2514273499e+00	 9.8120366050e-01
 7.3990502846e-01	 2.2583528405e+00	 1.0014755247e+00
 7.1907510590e-01	 2.2650713386e+00	 1.0248155532e+00
 6.9823103136e-01	 2.2715833162e+00	 1.0493433336e+00
 6.7737569007e-01	 2.2778892962e+00	 1.0749177089e+00
 6.5651194408e-01	 2.2839898519e+00	 1.1013700476e+00
 6.3564263130e-01	 2.2898856059e+00	 1.1285056690e+00
 6.1477056446e-01	 2.2955772296e+00	 1.1561053401e+00
 8.2608085411e-01	 2.2376833656e+00	 9.4526213593e-01
 8.0525979002e-01	 2.2452601734e+00	 9.4944291604e-01
 7.8441272636e-01	 2.2526281144e+00	 9.5948123648e-01
 7.6354264138e-01	 2.2597875039e+00	 9.7510886956e-01
 7.4265249441e-01	 2.2667387107e+00	 9.9603534215e-01
 7.2174522476e-01	 2.2734821564e+00	 1.0203974630e+00
 7.0082375058e-01	 2.2800183147e+00	 1.0457711465e+00
 6.7989096780e-01	 2.2863477105e+00	 1.0719657695e+00
 6.5894974913e-01	 2.2924709192e+00	 1.0987761636e+00
 6.3800294299e-01	 2.2983885658e+00	 1.1259675942e+00
 6.1705337257e-01	 2.3041013239e+00	 1.1532774310e+00
 8.2913695981e-01	 2.2459617283e+00	 9.3814155822e-01
 8.0823886770e-01	 2.2535665666e+00	 9.4306242460e-01
 7.8731467983e-01	 2.2609617655e+00	 9.5378028967e-01
 7.6636738547e-01	 2.2681476413e+00	 9.7000644192e-01
 7.4539995492e-01	 2.2751245643e+00	 9.9142779186e-01
 7.2441533833e-01	 2.2818929575e+00	 1.0165529645e+00
 7.0341646466e-01	 2.2884532965e+00	 1.0425430215e+00
 6.8240624055e-01	 2.2948061081e+00	 1.0691064591e+00
 6.6138754934e-01	 2.3009519697e+00	 1.0960148575e+00
 6.4036324999e-01	 2.3068915087e+00	 1.1230070066e+00
 6.1933617614e-01	 2.3126254014e+00	 1.1497907305e+00
 8.3219305857e-01	 2.2542400721e+00	 9.3185867928e-01
 8.1121793862e-01	 2.2618729410e+00	 9.3763156778e-01
 7.9021662672e-01	 2.2692953977e+00	 9.4905321319e-01
 7.6919212317e-01	 2.2765077598e+00	 9.6582588935e-01
 7.4814740919e-01	 2.2835103988e+00	 9.8762574049e-01
 7.2708544584e-01	 2.2903037396e+00	 1.0132922727e+00
 7.0600917285e-01	 2.2968882592e+00	 1.0397153204e+00
 6.8492150760e-01	 2.3032644864e+00	 1.0664470526e+00
 6.6382534403e-01	 2.3094330010e+00	 1.0932489305e+00
 6.4272355165e-01	 2.3153944324e+00	 1.1198466932e+00
 6.2161897455e-01	 2.3211494595e+00	 1.1459323167e+00
 8.3524914955e-01	 2.2625183949e+00	 9.2625427382e-01
 8.1419700195e-01	 2.2701792942e+00	 9.3301505908e-01
 7.9311856621e-01	 2.2776290086e+00	 9.4519412852e-01
 7.7201685366e-01	 2.2848678569e+00	 9.6249609299e-01
 7.5089485646e-01	 2.2918962120e+00	 9.8459805995e-01
 7.2975554654e-01	 2.2987145002e+00	 1.0106250811e+00
 7.0860187444e-01	 2.3053232003e+00	 1.0373433188e+00
 6.8743676824e-01	 2.3117228432e+00	 1.0640931000e+00
 6.6626313250e-01	 2.3179140106e+00	 1.0906387487e+00
 6.4508384729e-01	 2.3238973344e+00	 1.1167062250e+00
 6.2390176713e-01	 2.3296734959e+00	 1.1419852012e+00
 6.0107365699e-01	 2.2444324436e+00	 1.1426387888e+00
 5.8066664583e-01	 2.2497983806e+00	 1.1636829856e+00
 5.6026236637e-01	 2.2549661899e+00	 1.1825057260e+00
 5.3986349106e-01	 2.2599366679e+00	 1.1989605961e+00
 5.1947266420e-01	 2.2647106553e+00	 1.2128473427e+00
 4.9909250109e-01	 2.2692890356e+00	 1.2239139676e+00
 4.7872558728e-01	 2.2736727345e+00	 1.2318588821e+00
 4.5837447783e-01	 2.2778627189e+00	 1.2363331113e+00
 4.3804169659e-01	 2.2818599959e+00	 1.2369425413e+00
 4.1772973553e-01	 2.2856656119e+00	 1.2332502010e+00
 3.9744105410e-01	 2.2892806513e+00	 1.2247785740e+00
 6.0335647868e-01	 2.2529565887e+00	 1.1500253482e+00
 5.8287196359e-01	 2.2583429051e+00	 1.1728186791e+00
 5.6239019058e-01	 2.2635303412e+00	 1.1923379885e+00
 5.4191384224e-01	 2.2685196966e+00	 1.2085253192e+00
 5.2144557292e-01	 2.2733118151e+00	 1.2212822787e+00
 5.0098800786e-01	 2.2779075837e+00	 1.2304717749e+00
 4.8054374241e-01	 2.2823079315e+00	 1.2359197975e+00
 4.6011534134e-01	 2.2865138291e+00	 1.2374172370e+00
 4.3970533810e-01	 2.2905262874e+00	 1.2347217330e+00
 4.1931623410e-01	 2.2943463567e+00	 1.2275595476e+00
 3.9895049815e-01	 2.2979751257e+00	 1.2156274559e+00
 6.0563929971e-01	 2.2614807314e+00	 1.1549428455e+00
 5.8507728073e-01	 2.2668874270e+00	 1.1789582925e+00
 5.6451801418e-01	 2.2720944900e+00	 1.1988681525e+00
 5.4396419285e-01	 2.2771027228e+00	 1.2146935450e+00
 5.2341848109e-01	 2.2819129725e+00	 1.2264269832e+00
 5.0288351409e-01	 2.2865261293e+00	 1.2340337949e+00
 4.8236189702e-01	 2.2909431260e+00	 1.2374535770e+00
 4.6185620436e-01	 2.2951649368e+00	 1.2366016734e+00
 4.4136897913e-01	 2.2991925764e+00	 1.2313706727e+00
 4.2090273223e-01	 2.3030270990e+00	 1.2216319183e+00
 4.0045994178e-01	 2.3066695976e+00	 1.2072370273e+00
 6.0792211946e-01	 2.2700048692e+00	 1.1577036751e+00
 5.8728259661e-01	 2.2754319442e+00	 1.1824762651e+00
 5.6664583658e-01	 2.2806586340e+00	 1.2025126323e+00
 5.4601454229e-01	 2.2856857442e+00	 1.2179037475e+00
 5.2539138814e-01	 2.2905141251e+00	 1.2287222423e+00
 5.0477901924e-01	 2.2951446701e+00	 1.2350235593e+00
 4.8418005061e-01	 2.2995783156e+00	 1.2368471228e+00
 4.6359706640e-01	 2.3038160396e+00	 1.2342175229e+00
 4.4303261922e-01	 2.3078588604e+00	 1.2271457075e+00
 4.2248922945e-01	 2.3117078365e+00	 1.2156301771e+00
 4.0196938455e-01	 2.3153640646e+00	 1.1996581786e+00
 6.1020493726e-01	 2.2785289998e+00	 1.1586158944e+00
 5.8948791062e-01	 2.2839764541e+00	 1.1837418368e+00
 5.6877365718e-01	 2.2892227707e+00	 1.2036820748e+00
 5.4806488999e-01	 2.2942687583e+00	 1.2185883581e+00
 5.2736429351e-01	 2.2991152703e+00	 1.2286028143e+00
 5.0667452279e-01	 2.3037632036e+00	 1.2338588720e+00
 4.8599820264e-01	 2.3082134979e+00	 1.2344821930e+00
 4.6533792695e-01	 2.3124671350e+00	 1.2305916072e+00
 4.4469625790e-01	 2.3165251371e+00	 1.2223000447e+00
 4.2407572533e-01	 2.3203885665e+00	 1.2097154616e+00
 4.0347882604e-01	 2.3240585242e+00	 1.1929417567e+00
 6.1248775248e-01	 2.2870531207e+00	 1.1579832730e+00
 5.9169322214e-01	 2.2925209543e+00	 1.1831191170e+00
 5.7090147536e-01	 2.2977868977e+00	 1.2027814433e+00
 5.5011523536e-01	 2.3028517627e+00	 1.2171738572e+00
 5.2933719665e-01	 2.3077164057e+00	 1.2264975224e+00
 5.0857002419e-01	 2.3123817272e+00	 1.2309518996e+00
 4.8781635262e-01	 2.3168486704e+00	 1.2307354842e+00
 4.6707878553e-01	 2.3211182206e+00	 1.2260465368e+00
 4.4635989470e-01	 2.3251914040e+00	 1.2170838014e+00
 4.2566221941e-01	 2.3290692867e+00	 1.2040472087e+00
 4.0498826582e-01	 2.3327529740e+00	 1.1871385615e+00
 6.1477056446e-01	 2.2955772296e+00	 1.1561053401e+00
 5.9389853053e-01	 2.3010654424e+00	 1.1809671511e+00
 5.7302929053e-01	 2.3063510126e+00	 1.2002100965e+00
 5.5216557783e-01	 2.3114347549e+00	 1.2140808620e+00
 5.3131009699e-01	 2.3163175290e+00	 1.2228293465e+00
 5.1046552290e-01	 2.3210002387e+00	 1.2267092604e+00
 4.8963450003e-01	 2.3254838307e+00	 1.2259787118e+00
 4.6881964165e-01	 2.3297692940e+00	 1.2209007776e+00
 4.4802352914e-01	 2.3338576586e+00	 1.2117440534e+00
 4.2724871124e-01	 2.3377499946e+00	 1.1987831795e+00
 4.0649770346e-01	 2.3414474114e+00	 1.1822993422e+00
 6.1705337257e-01	 2.3041013239e+00	 1.1532774310e+00
 5.9610383517e-01	 2.3096099159e+00	 1.1776399853e+00
 5.7515710208e-01	 2.3149151129e+00	 1.1963618675e+00
 5.5421591682e-01	 2.3200177325e+00	 1.2097242127e+00
 5.3328299398e-01	 2.3249186377e+00	 1.2180155116e+00
 5.1236101839e-01	 2.3296187355e+00	 1.2215321099e+00
 4.9145264434e-01	 2.3341189763e+00	 1.2205786880e+00
 4.7056049481e-01	 2.3384203527e+00	 1.2154687166e+00
 4.4968716075e-01	 2.3425238984e+00	 1.2065248825e+00
 4.2883520038e-01	 2.3464306878e+00	 1.1940794840e+00
 4.0800713853e-01	 2.3501418341e+00	 1.1784747934e+00
 6.1933617614e-01	 2.3126254014e+00	 1.1497907305e+00
 5.9830913543e-01	 2.3181543725e+00	 1.1734867291e+00
 5.7728490941e-01	 2.3234791962e+00	 1.1916251389e+00
 5.5626625174e-01	 2.3286006931e+00	 1.2045130562e+00
 5.3525588706e-01	 2.3335197293e+00	 1.2124675736e+00
 5.1425651012e-01	 2.3382372152e+00	 1.2158162244e+00
 4.9327078505e-01	 2.3427541048e+00	 1.2148973982e+00
 4.7230134451e-01	 2.3470713942e+00	 1.2100607249e+00
 4.5135078906e-01	 2.3511901211e+00	 1.2016674219e+00
 4.3042168637e-01	 2.3551113637e+00	 1.1900906035e+00
 4.0951657061e-01	 2.3588362395e+00	 1.1757155510e+00
 6.2161897455e-01	 2.3211494595e+00	 1.1459323167e+00
 6.0051443070e-01	 2.3266988098e+00	 1.1688516159e+00
 5.7941271192e-01	 2.3320432601e+00	 1.1863829165e+00
 5.5831658201e-01	 2.3371836342e+00	 1.1988509266e+00
 5.3722877566e-01	 2.3421208014e+00	 1.2065915034e+00
 5.1615199756e-01	 2.3468556754e+00	 1.2099520829e+00
 4.9508892163e-01	 2.3513892137e+00	 1.2092920749e+00
 4.7404219027e-01	 2.3557224161e+00	 1.2049832199e+00
 4.5301441360e-01	 2.3598563242e+00	 1.1974099012e+00
 4.3200816876e-01	 2.3637920200e+00	 1.1869694140e+00
 4.1102599927e-01	 2.3675306252e+00	 1.1740721880e+00
 6.2390176713e-01	 2.3296734959e+00	 1.1419852012e+00
 6.0271972034e-01	 2.3352432252e+00	 1.1640740622e+00
 5.8154050900e-01	 2.3406073021e+00	 1.1810129005e+00
 5.6036690706e-01	 2.3457665534e+00	 1.1931358250e+00
 5.3920165923e-01	 2.3507218515e+00	 1.2007877686e+00
 5.1804748016e-01	 2.3554741136e+00	 1.2043249456e+00
 4.9690705358e-01	 2.3600243005e+00	 1.2041152695e+00
 4.7578303159e-01	 2.3643734159e+00	 1.2005387247e+00
 4.5467803390e-01	 2.3685225051e+00	 1.1939876892e+00
 4.3359464711e-01	 2.3724726541e+00	 1.1848672073e+00
 4.1253542408e-01	 2.3762249887e+00	 1.1735952100e+00
 3.9744105410e-01	 2.2892806513e+00	 1.2247785740e+00
 3.7717463691e-01	 2.2927068022e+00	 1.2135002481e+00
 3.5693633350e-01	 2.2959445909e+00	 1.2018308184e+00
 3.3672850860e-01	 2.2989952099e+00	 1.1894986291e+00
 3.1655349199e-01	 2.3018598858e+00	 1.1766729774e+00
 2.9641357803e-01	 2.3045398784e+00	 1.1636380906e+00
 2.7631102523e-01	 2.3070364800e+00	 1.1507475227e+00
 2.5624805578e-01	 2.3093510139e+00	 1.1384177316e+00
 2.3622685516e-01	 2.3114848338e+00	 1.1271220280e+00
 2.1624957181e-01	 2.3134393225e+00	 1.1173848727e+00
 1.9631831674e-01	 2.3152158911e+00	 1.1097764987e+00
 3.9895049815e-01	 2.2979751257e+00	 1.2156274559e+00
 3.7860711100e-01	 2.3014142887e+00	 1.2014863554e+00
 3.5829194440e-01	 2.3046643743e+00	 1.1879995243e+00
 3.3800737207e-01	 2.3077265793e+00	 1.1747939914e+00
 3.1775573262e-01	 2.3106021349e+00	 1.1619404703e+00
 2.9753932915e-01	 2.3132923059e+00	 1.1496318689e+00
 2.7736042873e-01	 2.3157983894e+00	 1.1381172862e+00
 2.5722126199e-01	 2.3181217137e+00	 1.1276960469e+00
 2.3712402272e-01	 2.3202636376e+00	 1.1187121167e+00
 2.1707086751e-01	 2.3222255493e+00	 1.1115488722e+00
 1.9706391539e-01	 2.3240088651e+00	 1.1066242025e+00
 4.0045994178e-01	 2.3066695976e+00	 1.2072370273e+00
 3.8003958468e-01	 2.3101217729e+00	 1.1911636914e+00
 3.5964755492e-01	 2.3133841553e+00	 1.1765676646e+00
 3.3928623517e-01	 2.3164579462e+00	 1.1629870846e+00
 3.1895797292e-01	 2.3193443816e+00	 1.1503984379e+00
 2.9866507996e-01	 2.3220447310e+00	 1.1389147357e+00
 2.7840983194e-01	 2.3245602962e+00	 1.1286934422e+00
 2.5819446793e-01	 2.3268924109e+00	 1.1199309221e+00
 2.3802119003e-01	 2.3290424389e+00	 1.1128572788e+00
 2.1789216298e-01	 2.3310117736e+00	 1.1077315531e+00
 1.9780951384e-01	 2.3328018366e+00	 1.1048372578e+00
 4.0196938455e-01	 2.3153640646e+00	 1.1996581786e+00
 3.8147205756e-01	 2.3188292521e+00	 1.1824720453e+00
 3.6100316467e-01	 2.3221039313e+00	 1.1673837232e+00
 3.4056509756e-01	 2.3251893082e+00	 1.1538556367e+00
 3.2016021254e-01	 2.3280866233e+00	 1.1417736308e+00
 2.9979083012e-01	 2.3307971510e+00	 1.1311820360e+00
 2.7945923455e-01	 2.3333221982e+00	 1.1221592825e+00
 2.5916767332e-01	 2.3356631032e+00	 1.1148127207e+00
 2.3891835683e-01	 2.3378212353e+00	 1.1092738370e+00
 2.1871345799e-01	 2.3397979929e+00	 1.1056938373e+00
 1.9855511186e-01	 2.3415948031e+00	 1.1042395711e+00
 4.0347882604e-01	 2.3240585242e+00	 1.1929417567e+00
 3.8290452922e-01	 2.3275367238e+00	 1.1753528258e+00
 3.6235877327e-01	 2.3308236998e+00	 1.1602991157e+00
 3.4184395885e-01	 2.3339206627e+00	 1.1471813280e+00
 3.2136245113e-01	 2.3368288576e+00	 1.1357974780e+00
 3.0091657933e-01	 2.3395495637e+00	 1.1261342249e+00
 2.8050863627e-01	 2.3420840926e+00	 1.1182033522e+00
 2.6014087788e-01	 2.3444337881e+00	 1.1120369155e+00
 2.3981552287e-01	 2.3466000241e+00	 1.1076827949e+00
 2.1953475230e-01	 2.3485842047e+00	 1.1052006192e+00
 1.9930070925e-01	 2.3503877622e+00	 1.1046580351e+00
 4.0498826582e-01	 2.3327529740e+00	 1.1871385615e+00
 3.8433699925e-01	 2.3362441858e+00	 1.1697490280e+00
 3.6371438034e-01	 2.3395434585e+00	 1.1551681390e+00
 3.4312281870e-01	 2.3426520073e+00	 1.1427497220e+00
 3.2256468836e-01	 2.3455710820e+00	 1.1322060028e+00
 3.0204232727e-01	 2.3483019664e+00	 1.1234767775e+00
 2.8155803680e-01	 2.3508459772e+00	 1.1165193559e+00
 2.6111408134e-01	 2.3532044630e+00	 1.1113039971e+00
 2.4071268789e-01	 2.3553788031e+00	 1.1078097540e+00
 2.2035604567e-01	 2.3573704066e+00	 1.1060206957e+00
 2.0004630580e-01	 2.3591807113e+00	 1.1059224775e+00
 4.0649770346e-01	 2.3414474114e+00	 1.1822993422e+00
 3.8576946725e-01	 2.3449516353e+00	 1.1656052016e+00
 3.6506998548e-01	 2.3482632049e+00	 1.1518479214e+00
 3.4440167673e-01	 2.3513833396e+00	 1.1403501966e+00
 3.2376692389e-01	 2.3543132940e+00	 1.1307397426e+00
 3.0316807361e-01	 2.3570543567e+00	 1.1229200992e+00
 2.8260743584e-01	 2.3596078493e+00	 1.1168060666e+00
 2.6208728342e-01	 2.3619751254e+00	 1.1123193857e+00
 2.4160985164e-01	 2.3641575696e+00	 1.1093848330e+00
 2.2117733789e-01	 2.3661565960e+00	 1.1079266981e+00
 2.0079190129e-01	 2.3679736479e+00	 1.1078656111e+00
 4.0800713853e-01	 2.3501418341e+00	 1.1784747934e+00
 3.8720193283e-01	 2.3536590701e+00	 1.1628674186e+00
 3.6642558832e-01	 2.3569829364e+00	 1.1501983743e+00
 3.4568053260e-01	 2.3601146570e+00	 1.1397758784e+00
 3.2496915738e-01	 2.3630554911e+00	 1.1311436687e+00
 3.0429381804e-01	 2.3658067321e+00	 1.1241794388e+00
 2.8365683310e-01	 2.3683697065e+00	 1.1187672358e+00
 2.6306048385e-01	 2.3707457730e+00	 1.1147933439e+00
 2.4250701387e-01	 2.3729363211e+00	 1.1121425887e+00
 2.2199862871e-01	 2.3749427705e+00	 1.1106950260e+00
 2.0153749551e-01	 2.3767665696e+00	 1.1103229846e+00
 4.0951657061e-01	 2.3588362395e+00	 1.1757155510e+00
 3.8863439555e-01	 2.3623664876e+00	 1.1614832423e+00
 3.6778118847e-01	 2.3657026506e+00	 1.1500821439e+00
 3.4695938592e-01	 2.3688459571e+00	 1.1408235764e+00
 3.2617138848e-01	 2.3717976709e+00	 1.1331671088e+00
 3.0541956023e-01	 2.3745590902e+00	 1.1269748036e+00
 2.8470622828e-01	 2.3771315464e+00	 1.1221115061e+00
 2.6403368235e-01	 2.3795164032e+00	 1.1184408920e+00
 2.4340417432e-01	 2.3817150553e+00	 1.1158219383e+00
 2.2281991790e-01	 2.3837289275e+00	 1.1141057818e+00
 2.0228308825e-01	 2.3855594738e+00	 1.1131329345e+00
 4.1102599927e-01	 2.3675306252e+00	 1.1740721880e+00
 3.9006685504e-01	 2.3710738854e+00	 1.1614016967e+00
 3.6913678555e-01	 2.3744223451e+00	 1.1513645651e+00
 3.4823823635e-01	 2.3775772374e+00	 1.1432937185e+00
 3.2737361686e-01	 2.3805398309e+00	 1.1365636711e+00
 3.0654529987e-01	 2.3833114284e+00	 1.1310308756e+00
 2.8575562108e-01	 2.3858933664e+00	 1.1265523254e+00
 2.6500687864e-01	 2.3882870135e+00	 1.1229817245e+00
 2.4430133273e-01	 2.3904937695e+00	 1.1201660835e+00
 2.2364120523e-01	 2.3925150647e+00	 1.1179427072e+00
 2.0302867931e-01	 2.3943523582e+00	 1.1161365388e+00
 4.1253542408e-01	 2.3762249887e+00	 1.1735952100e+00
 3.9149931087e-01	 2.3797812609e+00	 1.1625732357e+00
 3.7049237917e-01	 2.3831420173e+00	 1.1539136264e+00
 3.4951708351e-01	 2.3863084955e+00	 1.1469902889e+00
 3.2857584217e-01	 2.3892819685e+00	 1.1410911688e+00
 3.0767103664e-01	 2.3920637443e+00	 1.1360769298e+00
 2.8680501121e-01	 2.3946551640e+00	 1.1318078632e+00
 2.6598007245e-01	 2.3970576014e+00	 1.1281401289e+00
 2.4519848886e-01	 2.3992724614e+00	 1.1249224368e+00
 2.2446249046e-01	 2.4013011794e+00	 1.1219931205e+00
 2.0377426846e-01	 2.4031452201e+00	 1.1191775700e+00
 1.9631831674e-01	 2.3152158911e+00	 1.1097764987e+00
 1.7643853104e-01	 2.3168157204e+00	 1.1027814367e+00
 1.5660881852e-01	 2.3182405908e+00	 1.0941549225e+00
 1.3683113004e-01	 2.3194919904e+00	 1.0833874143e+00
 1.1710737926e-01	 2.3205714314e+00	 1.0699411283e+00
 9.7439442445e-02	 2.3214804490e+00	 1.0532487849e+00
 7.7829158300e-02	 2.3222206007e+00	 1.0327125532e+00
 5.8278327803e-02	 2.3227934648e+00	 1.0077031706e+00
 3.8788714106e-02	 2.3232006399e+00	 9.7755921837e-01
 1.9362042431e-02	 2.3234437436e+00	 9.4158653594e-01
 0.0000000000e+00	 2.3235244118e+00	 8.9905775465e-01
 1.9706391539e-01	 2.3240088651e+00	 1.1066242025e+00
 1.7710862812e-01	 2.3256147704e+00	 1.1018928411e+00
 1.5720360420e-01	 2.3270450523e+00	 1.0947511650e+00
 1.3735080190e-01	 2.3283012046e+00	 1.0847917247e+00
 1.1755214216e-01	 2.3293847452e+00	 1.0715886450e+00
 9.7809508360e-02	 2.3302972153e+00	 1.0546960496e+00
 7.8124746184e-02	 2.3310401780e+00	 1.0336466773e+00
 5.8499663457e-02	 2.3316152178e+00	 1.0079506704e+00
 3.8936030025e-02	 2.3320239393e+00	 9.7709451501e-01
 1.9435577662e-02	 2.3322679662e+00	 9.4054011536e-01
 0.0000000000e+00	 2.3323489408e+00	 8.9772398477e-01
 1.9780951384e-01	 2.3328018366e+00	 1.1048372578e+00
 1.7777872501e-01	 2.3344138179e+00	 1.1017578163e+00
 1.5779838972e-01	 2.3358495114e+00	 1.0956676017e+00
 1.3787047363e-01	 2.3371104164e+00	 1.0862472669e+00
 1.1799690494e-01	 2.3381980566e+00	 1.0731678795e+00
 9.8179574170e-02	 2.3391139790e+00	 1.0560890663e+00
 7.8420333985e-02	 2.3398597527e+00	 1.0346573466e+00
 5.8720999048e-02	 2.3404369682e+00	 1.0085046322e+00
 3.9083345902e-02	 2.3408472361e+00	 9.7724687466e-01
 1.9509112873e-02	 2.3410921864e+00	 9.4048284388e-01
 0.0000000000e+00	 2.3411734673e+00	 8.9779301817e-01
 1.9855511186e-01	 2.3415948031e+00	 1.1042395711e+00
 1.7844882153e-01	 2.3432128605e+00	 1.1022644875e+00
 1.5839317490e-01	 2.3446539654e+00	 1.0968409906e+00
 1.3839014506e-01	 2.3459196231e+00	 1.0877240474e+00
 1.1844166747e-01	 2.3470113629e+00	 1.0746669109e+00
 9.8549639771e-02	 2.3479307377e+00	 1.0574190281e+00
 7.8715921619e-02	 2.3486793225e+00	 1.0357241328e+00
 5.8942334515e-02	 2.3492587136e+00	 1.0093185004e+00
 3.9230661696e-02	 2.3496705279e+00	 9.7792934578e-01
 1.9582648042e-02	 2.3499164015e+00	 9.4127334789e-01
 0.0000000000e+00	 2.3499979888e+00	 8.9905528197e-01
 1.9930070925e-01	 2.3503877622e+00	 1.1046580351e+00
 1.7911891748e-01	 2.3520118955e+00	 1.1033029595e+00
 1.5898795958e-01	 2.3534584120e+00	 1.0982092924e+00
 1.3890981604e-01	 2.3547288224e+00	 1.0891927255e+00
 1.1888642962e-01	 2.3558246618e+00	 1.0760741452e+00
 9.8919705058e-02	 2.3567474889e+00	 1.0586773483e+00
 7.9011509003e-02	 2.3574988847e+00	 1.0368269367e+00
 5.9163669793e-02	 2.3580804516e+00	 1.0103463699e+00
 3.9377977365e-02	 2.3584938123e+00	 9.7905615659e-01
 1.9656183149e-02	 2.3587406091e+00	 9.4277216715e-01
 0.0000000000e+00	 2.3588225028e+00	 9.0130405045e-01
 2.0004630580e-01	 2.3591807113e+00	 1.1059224775e+00
 1.7978901266e-01	 2.3608109206e+00	 1.1047652838e+00
 1.5958274358e-01	 2.3622628486e+00	 1.0997116528e+00
 1.3942948644e-01	 2.3635380116e+00	 1.0906246057e+00
 1.1933119126e-01	 2.3646379507e+00	 1.0773783128e+00
 9.9289769926e-02	 2.3655642302e+00	 1.0598556593e+00
 7.9307096051e-02	 2.3663184370e+00	 1.0379459848e+00
 5.9385004822e-02	 2.3669021795e+00	 1.0115429761e+00
 3.9525292868e-02	 2.3673170866e+00	 9.8054269479e-01
 1.9729718173e-02	 2.3675648068e+00	 9.4484172002e-01
 0.0000000000e+00	 2.3676470068e+00	 9.0433539202e-01
 2.0079190129e-01	 2.3679736479e+00	 1.1078656111e+00
 1.8045910690e-01	 2.3696099332e+00	 1.1065454271e+00
 1.6017752674e-01	 2.3710672727e+00	 1.1012883843e+00
 1.3994915611e-01	 2.3723471884e+00	 1.0919916295e+00
 1.1977595228e-01	 2.3734512271e+00	 1.0785684662e+00
 9.9659834270e-02	 2.3743809589e+00	 1.0609458122e+00
 7.9602682682e-02	 2.3751379767e+00	 1.0390618265e+00
 5.9606339536e-02	 2.3757238949e+00	 1.0128636855e+00
 3.9672608162e-02	 2.3761403485e+00	 9.8230548757e-01
 1.9803253093e-02	 2.3763889919e+00	 9.4734626954e-01
 0.0000000000e+00	 2.3764714982e+00	 9.0794811741e-01
 2.0153749551e-01	 2.3767665696e+00	 1.1103229846e+00
 1.8112920000e-01	 2.3784089309e+00	 1.1085392399e+00
 1.6077230889e-01	 2.3798716818e+00	 1.1028809485e+00
 1.4046882489e-01	 2.3811563502e+00	 1.0932663673e+00
 1.2022071254e-01	 2.3822644885e+00	 1.0796339774e+00
 1.0002989798e-01	 2.3831976727e+00	 1.0619398754e+00
 7.9898268809e-02	 2.3839575015e+00	 1.0401553305e+00
 5.9827673875e-02	 2.3845455954e+00	 1.0142644858e+00
 3.9819923205e-02	 2.3849635953e+00	 9.8426218221e-01
 1.9876787888e-02	 2.3852131620e+00	 9.5015189007e-01
 0.0000000000e+00	 2.3852959747e+00	 9.1194372895e-01
 2.0228308825e-01	 2.3855594738e+00	 1.1131329345e+00
 1.8179929177e-01	 2.3872079111e+00	 1.1106444262e+00
 1.6136708986e-01	 2.3886760735e+00	 1.1044319394e+00
 1.4098849264e-01	 2.3899654946e+00	 1.0944220111e+00
 1.2066547192e-01	 2.3910777324e+00	 1.0805645359e+00
 1.0039996097e-01	 2.3920143689e+00	 1.0628301343e+00
 8.0193854351e-02	 2.3927770088e+00	 1.0412076820e+00
 6.0049007775e-02	 2.3933672783e+00	 1.0157019771e+00
 3.9967237957e-02	 2.3937868247e+00	 9.8633152702e-01
 1.9950322536e-02	 2.3940373146e+00	 9.5312643491e-01
 0.0000000000e+00	 2.3941204337e+00	 9.1612637102e-01
 2.0302867931e-01	 2.3943523582e+00	 1.1161365388e+00
 1.8246938203e-01	 2.3960068713e+00	 1.1127605135e+00
 1.6196186948e-01	 2.3974804453e+00	 1.1058850667e+00
 1.4150815921e-01	 2.3987746190e+00	 1.0954323664e+00
 1.2111023029e-01	 2.3998909564e+00	 1.0813501460e+00
 1.0077002311e-01	 2.4008310452e+00	 1.0636090904e+00
 8.0489439222e-02	 2.4015964960e+00	 1.0422003792e+00
 6.0270341172e-02	 2.4021889412e+00	 1.0171333630e+00
 4.0114552374e-02	 2.4026100340e+00	 9.8843335271e-01
 2.0023857018e-02	 2.4028614472e+00	 9.5613950438e-01
 0.0000000000e+00	 2.4029448727e+00	 9.2030278157e-01
 2.0377426846e-01	 2.4031452201e+00	 1.1191775700e+00
 1.8313947057e-01	 2.4048058091e+00	 1.1147888235e+00
 1.6255664758e-01	 2.4062847945e+00	 1.1071851387e+00
 1.4202782445e-01	 2.4075837209e+00	 1.0962718452e+00
 1.2155498752e-01	 2.4087041578e+00	 1.0819811251e+00
 1.0114008431e-01	 2.4096476990e+00	 1.0642694604e+00
 8.0785023340e-02	 2.4104159608e+00	 1.0431152309e+00
 6.0491674005e-02	 2.4110105817e+00	 1.0185164412e+00
 4.0261866415e-02	 2.4114332208e+00	 9.9048855422e-01
 2.0097391313e-02	 2.4116855573e+00	 9.5906241483e-01
 0.0000000000e+00	 2.4117692892e+00	 9.2428224467e-01
 2.4117692892e+00	 0.0000000000e+00	 3.8242639863e+00
 2.4116855573e+00	 2.0097391313e-02	 3.1370828750e+00
 2.4114332208e+00	 4.0261866415e-02	 2.5556077687e+00
 2.4110105817e+00	 6.0491674005e-02	 2.0772039135e+00
 2.4104159608e+00	 8.0785023340e-02	 1.6988573668e+00
 2.4096476990e+00	 1.0114008431e-01	 1.4172235542e+00
 2.4087041578e+00	 1.2155498752e-01	 1.2286800785e+00
 2.4075837209e+00	 1.4202782445e-01	 1.1293833601e+00
 2.4062847945e+00	 1.6255664758e-01	 1.1153286442e+00
 2.4048058091e+00	 1.8313947057e-01	 1.1824128796e+00
 2.4031452201e+00	 2.0377426846e-01	 1.3264999419e+00
 2.4205921840e+00	 0.0000000000e+00	 3.7650202250e+00
 2.4205081459e+00	 2.0170912927e-02	 2.9558073403e+00
 2.4202548862e+00	 4.0409155054e-02	 2.2987136884e+00
 2.4198307010e+00	 6.0712968673e-02	 1.7857276700e+00
 2.4192339048e+00	 8.1080556488e-02	 1.4081162950e+00
 2.4184628325e+00	 1.0151008169e-01	 1.1564757662e+00
 2.4175158396e+00	 1.2199966806e-01	 1.0207868041e+00
 2.4163913038e+00	 1.4254740009e-01	 9.9047428460e-01
 2.4150876256e+00	 1.6315132313e-01	 1.0544707245e+00
 2.4136032297e+00	 1.8380944356e-01	 1.2012831097e+00
 2.4119365657e+00	 2.0451972904e-01	 1.4190625306e+00
 2.4294150713e+00	 0.0000000000e+00	 3.8242526745e+00
 2.4293307269e+00	 2.0244434479e-02	 2.7784117636e+00
 2.4290765441e+00	 4.0556443568e-02	 1.9622837559e+00
 2.4286508127e+00	 6.0934263151e-02	 1.3586253308e+00
 2.4280518413e+00	 8.1376089384e-02	 9.4903385936e-01
 2.4272779585e+00	 1.0188007876e-01	 7.1400279590e-01
 2.4263275139e+00	 1.2244434823e-01	 6.3298248859e-01
 2.4251988792e+00	 1.4306697529e-01	 6.8444597956e-01
 2.4238904492e+00	 1.6374599816e-01	 8.4595932177e-01
 2.4224006428e+00	 1.8447941599e-01	 1.0942559032e+00
 2.4207279040e+00	 2.0526518900e-01	 1.4053142342e+00
 2.4382379687e+00	 0.0000000000e+00	 3.9869564686e+00
 2.4381533179e+00	 2.0317956114e-02	 2.5935050622e+00
 2.4378982120e+00	 4.0703732248e-02	 1.5379918757e+00
 2.4374709345e+00	 6.1155557880e-02	 7.9012935120e-01
 2.4368697878e+00	 8.1671622614e-02	 3.1793774978e-01
 2.4360930945e+00	 1.0225007625e-01	 8.7808118201e-02
 2.4351391981e+00	 1.2288902890e-01	 6.4571542995e-02
 2.4340064646e+00	 1.4358655107e-01	 2.1157425950e-01
 2.4326932828e+00	 1.6434067388e-01	 4.9075813881e-01
 2.4311980659e+00	 1.8514938917e-01	 8.6274603668e-01
 2.4295192521e+00	 2.0601064979e-01	 1.2869314521e+00
 2.4470608935e+00	 0.0000000000e+00	 4.2383348655e+00
 2.4469759364e+00	 2.0391477977e-02	 2.3898557660e+00
 2.4467199074e+00	 4.0851021386e-02	 1.0176304072e+00
 2.4462910838e+00	 6.1376853298e-02	 7.4556259043e-02
 2.4456877618e+00	 8.1967156765e-02	-4.8878846613e-01
 2.4449082579e+00	 1.0262007490e-01	-7.2407151792e-01
 2.4439509099e+00	 1.2333371095e-01	-6.8512596726e-01
 2.4428140775e+00	 1.4410612847e-01	-4.2786265639e-01
 2.4414961438e+00	 1.6493535144e-01	-1.0176220162e-02
 2.4399955163e+00	 1.8581936445e-01	 5.0815479925e-01
 2.4383106277e+00	 2.0675611291e-01	 1.0655731831e+00
 2.4558838633e+00	 0.0000000000e+00	 4.5637954722e+00
 2.4557985999e+00	 2.0465000216e-02	 2.1563891592e+00
 2.4555416478e+00	 4.0998311275e-02	 3.9310808057e-01
 2.4551112780e+00	 6.1598149844e-02	-7.9369478639e-01
 2.4545057808e+00	 8.2262692423e-02	-1.4747062615e+00
 2.4537234664e+00	 1.0299007542e-01	-1.7235665950e+00
 2.4527626665e+00	 1.2377839527e-01	-1.6167745117e+00
 2.4516217353e+00	 1.4462570852e-01	-1.2335841032e+00
 2.4502990498e+00	 1.6553003204e-01	-6.5589405188e-01
 2.4487930117e+00	 1.8648934314e-01	 3.1870285703e-02
 2.4471020481e+00	 2.0750157984e-01	 7.4288136407e-01
 2.4647068957e+00	 0.0000000000e+00	 4.9489465530e+00
 2.4646213259e+00	 2.0538522974e-02	 1.8821844853e+00
 2.4643634507e+00	 4.1145602207e-02	-3.4355204078e-01
 2.4639315348e+00	 6.1819447957e-02	-1.8201434039e+00
 2.4633238622e+00	 8.2558230173e-02	-2.6433230492e+00
 2.4625387372e+00	 1.0336007857e-01	-2.9125753215e+00
 2.4615744856e+00	 1.2422308274e-01	-2.7310232803e+00
 2.4604294554e+00	 1.4514529225e-01	-2.2053069310e+00
 2.4591020180e+00	 1.6612471684e-01	-1.4454523614e+00
 2.4575905694e+00	 1.8715932657e-01	-5.6473231785e-01
 2.4558935309e+00	 2.0824705204e-01	 3.2048120087e-01
 2.4735300080e+00	 0.0000000000e+00	 5.3795934182e+00
 2.4734441320e+00	 2.0612046399e-02	 1.5564722126e+00
 2.4731853336e+00	 4.1292894474e-02	-1.2002145542e+00
 2.4727518715e+00	 6.2040748075e-02	-3.0102293692e+00
 2.4721420236e+00	 8.2853770602e-02	-3.9980930607e+00
 2.4713540880e+00	 1.0373008508e-01	-4.2929641163e+00
 2.4703863846e+00	 1.2466777424e-01	-4.0285063661e+00
 2.4692372555e+00	 1.4566488070e-01	-3.3427454663e+00
 2.4679050661e+00	 1.6671940704e-01	-2.3779146744e+00
 2.4663882068e+00	 1.8782931608e-01	-1.2802904557e+00
 2.4646850933e+00	 2.0899253100e-01	-2.0001850992e-01
 2.4823532178e+00	 0.0000000000e+00	 5.8417348912e+00
 2.4822670355e+00	 2.0685570636e-02	 1.1686313602e+00
 2.4820073140e+00	 4.1440188367e-02	-2.1846336676e+00
 2.4815723057e+00	 6.2262050637e-02	-4.3693139639e+00
 2.4809602824e+00	 8.3149314295e-02	-5.5424182072e+00
 2.4801695363e+00	 1.0410009566e-01	-5.8665680823e+00
 2.4791983810e+00	 1.2511247065e-01	-5.5098429432e+00
 2.4780451528e+00	 1.4618447488e-01	-4.6456114764e+00
 2.4767082115e+00	 1.6731410382e-01	-3.4523508549e+00
 2.4751859415e+00	 1.8849931299e-01	-2.1134539313e+00
 2.4734767528e+00	 2.0973801820e-01	-8.1702506754e-01
 2.4911765427e+00	 0.0000000000e+00	 6.3215598536e+00
 2.4910900540e+00	 2.0759095830e-02	 7.0818688103e-01
 2.4908294093e+00	 4.1587484179e-02	-3.3044551075e+00
 2.4903928548e+00	 6.2483356083e-02	-5.9026812949e+00
 2.4897786561e+00	 8.3444861838e-02	-7.2796489208e+00
 2.4889850994e+00	 1.0447011108e-01	-7.6351914702e+00
 2.4880104922e+00	 1.2555717286e-01	-7.1756374425e+00
 2.4868531650e+00	 1.4670407583e-01	-6.1136141337e+00
 2.4855114716e+00	 1.6790880834e-01	-4.6678369270e+00
 2.4839837908e+00	 1.8916931864e-01	-3.0628846433e+00
 2.4822685270e+00	 2.1048351511e-01	-1.5289615617e+00
 2.5000000000e+00	 0.0000000000e+00	 6.8054438634e+00
 2.4999132050e+00	 2.0832622128e-02	 1.6480710235e-01
 2.4996516371e+00	 4.1734782201e-02	-4.5672179852e+00
 2.4992135364e+00	 6.2704664850e-02	-7.6155395859e+00
 2.4985971623e+00	 8.3740413818e-02	-9.2130849786e+00
 2.4978007949e+00	 1.0484013204e-01	-9.6006081332e+00
 2.4968227358e+00	 1.2600188175e-01	-9.0264797231e+00
 2.4956613094e+00	 1.4722368459e-01	-7.7464599822e+00
 2.4943148639e+00	 1.6850352179e-01	-6.0234549020e+00
 2.4927817722e+00	 1.8983933434e-01	-4.1272563285e+00
 2.4910604332e+00	 2.1122902322e-01	-2.3342665755e+00
 2.4031452201e+00	 2.0377426846e-01	 1.3264999419e+00
 2.4013011794e+00	 2.2446249046e-01	 1.4883064327e+00
 2.3992724614e+00	 2.4519848886e-01	 1.6127503373e+00
 2.3970576014e+00	 2.6598007245e-01	 1.7016503141e+00
 2.3946551640e+00	 2.8680501121e-01	 1.7562573013e+00
 2.3920637443e+00	 3.0767103664e-01	 1.7773030391e+00
 2.3892819685e+00	 3.2857584217e-01	 1.7650479106e+00
 2.3863084955e+00	 3.4951708351e-01	 1.7193274844e+00
 2.3831420173e+00	 3.7049237917e-01	 1.6395978446e+00
 2.3797812609e+00	 3.9149931087e-01	 1.5599909450e+00
 2.3762249887e+00	 4.1253542408e-01	 1.5024551161e+00
 2.4119365657e+00	 2.0451972904e-01	 1.4190625306e+00
 2.4100857791e+00	 2.2528363408e-01	 1.6379437775e+00
 2.4080496395e+00	 2.4609549028e-01	 1.7991615209e+00
 2.4058266769e+00	 2.6695309844e-01	 1.9070792137e+00
 2.4034154508e+00	 2.8785422038e-01	 1.9656472850e+00
 2.4008145510e+00	 3.0879657930e-01	 1.9784541744e+00
 2.3980225988e+00	 3.2977786017e-01	 1.9487763965e+00
 2.3950382479e+00	 3.5079571016e-01	 1.8796269878e+00
 2.3918601860e+00	 3.7184773904e-01	 1.7739710118e+00
 2.3884871350e+00	 3.9293151969e-01	 1.6717694525e+00
 2.3849178530e+00	 4.1404458862e-01	 1.5923607237e+00
 2.4207279040e+00	 2.0526518900e-01	 1.4053142342e+00
 2.4188703713e+00	 2.2610477700e-01	 1.6970234290e+00
 2.4168268101e+00	 2.4699249095e-01	 1.9084311815e+00
 2.4145957450e+00	 2.6792612361e-01	 2.0466822321e+00
 2.4121757302e+00	 2.8890342866e-01	 2.1186656222e+00
 2.4095653503e+00	 3.0992212099e-01	 2.1310680204e+00
 2.4067632215e+00	 3.3097987716e-01	 2.0904257759e+00
 2.4037679930e+00	 3.5207433572e-01	 2.0031750239e+00
 2.4005783472e+00	 3.7320309775e-01	 1.8763015649e+00
 2.3971930017e+00	 3.9436372730e-01	 1.7548489212e+00
 2.3936107099e+00	 4.1555375187e-01	 1.6565353101e+00
 2.4295192521e+00	 2.0601064979e-01	 1.2869314521e+00
 2.4276549735e+00	 2.2692592085e-01	 1.6673912010e+00
 2.4256039907e+00	 2.4788949262e-01	 1.9425453789e+00
 2.4233648231e+00	 2.6889914988e-01	 2.1225531586e+00
 2.4209360195e+00	 2.8995263813e-01	 2.2174779825e+00
 2.4183161594e+00	 3.1104766397e-01	 2.2373429651e+00
 2.4155038542e+00	 3.3218189550e-01	 2.1921847038e+00
 2.4124977479e+00	 3.5335296273e-01	 2.0921048011e+00
 2.4092965183e+00	 3.7455845801e-01	 1.9485730727e+00
 2.4058988783e+00	 3.9579593653e-01	 1.8110643512e+00
 2.4023035767e+00	 4.1706291683e-01	 1.6966191230e+00
 2.4383106277e+00	 2.0675611291e-01	 1.0655731831e+00
 2.4364396031e+00	 2.2774706725e-01	 1.5508727006e+00
 2.4343811987e+00	 2.4878649710e-01	 1.9034673555e+00
 2.4321339285e+00	 2.6987217919e-01	 2.1367605841e+00
 2.4296963361e+00	 2.9100185087e-01	 2.2642227228e+00
 2.4270669959e+00	 3.1217321045e-01	 2.2994482716e+00
 2.4242445142e+00	 3.3338391759e-01	 2.2562112385e+00
 2.4212275301e+00	 3.5463159372e-01	 2.1485178364e+00
 2.4180147166e+00	 3.7591382248e-01	 1.9927379139e+00
 2.4146047820e+00	 3.9722815022e-01	 1.8422214094e+00
 2.4109964706e+00	 4.1857208649e-01	 1.7142256669e+00
 2.4471020481e+00	 2.0750157984e-01	 7.4288136407e-01
 2.4452242775e+00	 2.2856821785e-01	 1.3492736897e+00
 2.4431584514e+00	 2.4968350615e-01	 1.7931379116e+00
 2.4409030786e+00	 2.7084521345e-01	 2.0913482827e+00
 2.4384566973e+00	 2.9205106896e-01	 2.2610112645e+00
 2.4358178770e+00	 3.1329876267e-01	 2.3195244424e+00
 2.4329852187e+00	 3.3458594582e-01	 2.2846331801e+00
 2.4299573567e+00	 3.5591023124e-01	 2.1744842572e+00
 2.4267329594e+00	 3.7726919388e-01	 2.0107178090e+00
 2.4233107301e+00	 3.9866037122e-01	 1.8500969326e+00
 2.4196894088e+00	 4.2008126385e-01	 1.7109421671e+00
 2.4558935309e+00	 2.0824705204e-01	 3.2048120087e-01
 2.4540090141e+00	 2.2938937426e-01	 1.0643804365e+00
 2.4519357663e+00	 2.5058052155e-01	 1.6134757709e+00
 2.4496722908e+00	 2.7181825461e-01	 1.9883355820e+00
 2.4472171207e+00	 2.9310029448e-01	 2.2099284604e+00
 2.4445688201e+00	 3.1442432287e-01	 2.2996835707e+00
 2.4417259852e+00	 3.3578798255e-01	 2.2795483975e+00
 2.4386872453e+00	 3.5718887781e-01	 2.1720430910e+00
 2.4354512639e+00	 3.7862457487e-01	 2.0044043426e+00
 2.4320167399e+00	 4.0009260236e-01	 1.8364394219e+00
 2.4283824086e+00	 4.2159045190e-01	 1.6883300239e+00
 2.4646850933e+00	 2.0899253100e-01	-2.0001850992e-01
 2.4627938304e+00	 2.3021053812e-01	 6.9796005820e-01
 2.4607131608e+00	 2.5147754509e-01	 1.3663779358e+00
 2.4584415825e+00	 2.7279130460e-01	 1.8297177226e+00
 2.4559776234e+00	 2.9414952952e-01	 2.1130329488e+00
 2.4533198425e+00	 3.1554989327e-01	 2.2420096808e+00
 2.4504668309e+00	 3.3699003019e-01	 2.2430251432e+00
 2.4474172129e+00	 3.5846753598e-01	 2.1432025443e+00
 2.4441696475e+00	 3.7997996815e-01	 1.9756594732e+00
 2.4407228286e+00	 4.0152484649e-01	 1.8029695262e+00
 2.4370754872e+00	 4.2309965364e-01	 1.6479252582e+00
 2.4734767528e+00	 2.0973801820e-01	-8.1702506754e-01
 2.4715787437e+00	 2.3103171105e-01	 2.5176085385e-01
 2.4694906523e+00	 2.5237457853e-01	 1.0537200326e+00
 2.4672109712e+00	 2.7376436533e-01	 1.6174662076e+00
 2.4647382230e+00	 2.9519877615e-01	 1.9723574987e+00
 2.4620709616e+00	 3.1667547611e-01	 2.1485590585e+00
 2.4592077732e+00	 3.3819209111e-01	 2.1771023585e+00
 2.4561472771e+00	 3.5974620828e-01	 2.0899402711e+00
 2.4528881274e+00	 3.8133537641e-01	 1.9263160346e+00
 2.4494290136e+00	 4.0295710645e-01	 1.7513805161e+00
 2.4457686619e+00	 4.2460887205e-01	 1.5912389479e+00
 2.4822685270e+00	 2.1048351511e-01	-1.5289615617e+00
 2.4803637715e+00	 2.3185289468e-01	-2.7248737135e-01
 2.4782682582e+00	 2.5327162367e-01	 6.7735664733e-01
 2.4759804741e+00	 2.7473743875e-01	 1.3535291418e+00
 2.4734989368e+00	 2.9624803646e-01	 1.7899093432e+00
 2.4708221948e+00	 3.1780107362e-01	 2.0213605688e+00
 2.4679488294e+00	 3.3939416770e-01	 2.0837899664e+00
 2.4648774550e+00	 3.6102489724e-01	 2.0142036295e+00
 2.4616067209e+00	 3.8269080233e-01	 1.8581782254e+00
 2.4581353120e+00	 4.0438938508e-01	 1.6833387491e+00
 2.4544619498e+00	 4.2611811014e-01	 1.5197576564e+00
 2.4910604332e+00	 2.1122902322e-01	-2.3342665755e+00
 2.4891489313e+00	 2.3267409065e-01	-8.7307299065e-01
 2.4870459959e+00	 2.5416868228e-01	 2.3912165190e-01
 2.4847501087e+00	 2.7571052678e-01	 1.0398315607e+00
 2.4822597821e+00	 2.9729731252e-01	 1.5676705026e+00
 2.4795735594e+00	 3.1892668803e-01	 1.8624159653e+00
 2.4766900169e+00	 3.4059626234e-01	 1.9650691552e+00
 2.4736077640e+00	 3.6230360541e-01	 1.9179099296e+00
 2.4703254454e+00	 3.8404624861e-01	 1.7730220900e+00
 2.4668417411e+00	 4.0582168521e-01	 1.6004841246e+00
 2.4631553684e+00	 4.2762737088e-01	 1.4349438526e+00
 2.3762249887e+00	 4.1253542408e-01	 1.5024551161e+00
 2.3724726541e+00	 4.3359464711e-01	 1.4461708925e+00
 2.3685225051e+00	 4.5467803390e-01	 1.3834791784e+00
 2.3643734159e+00	 4.7578303159e-01	 1.3159770920e+00
 2.3600243005e+00	 4.9690705358e-01	 1.2455498136e+00
 2.3554741136e+00	 5.1804748016e-01	 1.1743708659e+00
 2.3507218515e+00	 5.3920165923e-01	 1.1049037368e+00
 2.3457665534e+00	 5.6036690706e-01	 1.0399050257e+00
 2.3406073021e+00	 5.8154050900e-01	 9.8242929263e-01
 2.3352432252e+00	 6.0271972034e-01	 9.3583577602e-01
 2.3296734959e+00	 6.2390176713e-01	 9.0379714072e-01
 2.3849178530e+00	 4.1404458862e-01	 1.5923607237e+00
 2.3811517914e+00	 4.3518085189e-01	 1.5211949733e+00
 2.3771871917e+00	 4.5634136733e-01	 1.4531806191e+00
 2.3730229240e+00	 4.7752357273e-01	 1.3882297379e+00
 2.3686578984e+00	 4.9872487202e-01	 1.3264990957e+00
 2.3640910657e+00	 5.1994263591e-01	 1.2683913414e+00
 2.3593214186e+00	 5.4117420261e-01	 1.2145576802e+00
 2.3543479926e+00	 5.6241687855e-01	 1.1659022143e+00
 2.3491698675e+00	 5.8366793917e-01	 1.1235881347e+00
 2.3437861673e+00	 6.0492462972e-01	 1.0890459360e+00
 2.3381960624e+00	 6.2618416607e-01	 1.0639838203e+00
 2.3936107099e+00	 4.1555375187e-01	 1.6565353101e+00
 2.3898309212e+00	 4.3676705532e-01	 1.5726573616e+00
 2.3858518709e+00	 4.5800469934e-01	 1.5002676049e+00
 2.3816724248e+00	 4.7926411239e-01	 1.4378547895e+00
 2.3772914890e+00	 5.0054268891e-01	 1.3841119340e+00
 2.3727080104e+00	 5.2183779006e-01	 1.3379381348e+00
 2.3679209783e+00	 5.4314674432e-01	 1.2984419843e+00
 2.3629294246e+00	 5.6446684831e-01	 1.2649467906e+00
 2.3577324255e+00	 5.8579536754e-01	 1.2369977898e+00
 2.3523291022e+00	 6.0712953722e-01	 1.2143715288e+00
 2.3467186217e+00	 6.2846656308e-01	 1.1970875880e+00
 2.4023035767e+00	 4.1706291683e-01	 1.6966191230e+00
 2.3985100610e+00	 4.3835326056e-01	 1.6019849455e+00
 2.3945165599e+00	 4.5966803325e-01	 1.5259626744e+00
 2.3903219353e+00	 4.8100465402e-01	 1.4658766586e+00
 2.3859250893e+00	 5.0236050787e-01	 1.4192180122e+00
 2.3813249650e+00	 5.2373294635e-01	 1.3836467421e+00
 2.3765205478e+00	 5.4511928825e-01	 1.3569956045e+00
 2.3715108663e+00	 5.6651682039e-01	 1.3372758915e+00
 2.3662949932e+00	 5.8792279832e-01	 1.3226853427e+00
 2.3608720467e+00	 6.0933444722e-01	 1.3116183678e+00
 2.3552411907e+00	 6.3074896268e-01	 1.3026787537e+00
 2.4109964706e+00	 4.1857208649e-01	 1.7142256669e+00
 2.4071892278e+00	 4.3993947073e-01	 1.6105807958e+00
 2.4031812759e+00	 4.6133137233e-01	 1.5314674115e+00
 2.3989714728e+00	 4.8274520107e-01	 1.4733016405e+00
 2.3945587165e+00	 5.0417833249e-01	 1.4326317516e+00
 2.3899419463e+00	 5.2562810855e-01	 1.4061403059e+00
 2.3851201440e+00	 5.4709183834e-01	 1.3906481482e+00
 2.3800923347e+00	 5.6856679885e-01	 1.3831204478e+00
 2.3748575877e+00	 5.9005023573e-01	 1.3806749907e+00
 2.3694150178e+00	 6.1153936410e-01	 1.3805929153e+00
 2.3637637862e+00	 6.3303136939e-01	 1.3803320710e+00
 2.4196894088e+00	 4.2008126385e-01	 1.7109421671e+00
 2.4158684388e+00	 4.4152568900e-01	 1.5998245853e+00
 2.4118460362e+00	 4.6299471990e-01	 1.5179628213e+00
 2.4076210544e+00	 4.8448575701e-01	 1.4611182488e+00
 2.4031923878e+00	 5.0599616639e-01	 1.4251526053e+00
 2.3985589717e+00	 5.2752328041e-01	 1.4060298707e+00
 2.3937197842e+00	 5.4906439849e-01	 1.3998200897e+00
 2.3886738469e+00	 5.7061678778e-01	 1.4027053574e+00
 2.3834202258e+00	 5.9217768399e-01	 1.4109881736e+00
 2.3779580325e+00	 6.1374429222e-01	 1.4211023660e+00
 2.3722864252e+00	 6.3531378774e-01	 1.4296267701e+00
 2.4283824086e+00	 4.2159045190e-01	 1.6883300239e+00
 2.4245477113e+00	 4.4311191851e-01	 1.5710729986e+00
 2.4205108578e+00	 4.6465807926e-01	 1.4866096991e+00
 2.4162706973e+00	 4.8622632527e-01	 1.4302975446e+00
 2.4118261202e+00	 5.0781401316e-01	 1.3975653492e+00
 2.4071760580e+00	 5.2941846571e-01	 1.3839146344e+00
 2.4023194852e+00	 5.5103697261e-01	 1.3849229829e+00
 2.3972554198e+00	 5.7266679123e-01	 1.3962496575e+00
 2.3919829245e+00	 5.9430514733e-01	 1.4136437022e+00
 2.3865011078e+00	 6.1594923596e-01	 1.4329547300e+00
 2.3808091246e+00	 6.3759622226e-01	 1.4501465924e+00
 2.4370754872e+00	 4.2309965364e-01	 1.6479252582e+00
 2.4332270626e+00	 4.4469816239e-01	 1.5256601347e+00
 2.4291757579e+00	 4.6632145369e-01	 1.4385489921e+00
 2.4249204187e+00	 4.8796690932e-01	 1.3817934596e+00
 2.4204599309e+00	 5.0963187641e-01	 1.3506403665e+00
 2.4157932225e+00	 5.3131366818e-01	 1.3403821963e+00
 2.4109192643e+00	 5.5300956462e-01	 1.3463596703e+00
 2.4058370706e+00	 5.7471681326e-01	 1.3639666940e+00
 2.4005457009e+00	 5.9643262995e-01	 1.3886578877e+00
 2.3950442605e+00	 6.1815419969e-01	 1.4159589177e+00
 2.3893319012e+00	 6.3987867747e-01	 1.4414798272e+00
 2.4457686619e+00	 4.2460887205e-01	 1.5912389479e+00
 2.4419065097e+00	 4.4628442381e-01	 1.4648979024e+00
 2.4378407539e+00	 4.6798484651e-01	 1.3749021554e+00
 2.4335702356e+00	 4.8970751260e-01	 1.3165431141e+00
 2.4290938370e+00	 5.1144975975e-01	 1.2851339293e+00
 2.4244104823e+00	 5.3320889160e-01	 1.2760088005e+00
 2.4195191383e+00	 5.5498217842e-01	 1.2845244904e+00
 2.4144188162e+00	 5.7676685794e-01	 1.3060642905e+00
 2.4091085720e+00	 5.9856013608e-01	 1.3360446692e+00
 2.4035875076e+00	 6.2035918778e-01	 1.3699248245e+00
 2.3978547720e+00	 6.4216115791e-01	 1.4032193499e+00
 2.4544619498e+00	 4.2611811014e-01	 1.5197576564e+00
 2.4505860700e+00	 4.4787070589e-01	 1.3900764073e+00
 2.4465058627e+00	 4.6964826100e-01	 1.2967715007e+00
 2.4422201652e+00	 4.9144813856e-01	 1.2354671284e+00
 2.4377278557e+00	 5.1326766678e-01	 1.2017884739e+00
 2.4330278543e+00	 5.3510413971e-01	 1.1913595769e+00
 2.4281191245e+00	 5.5695481794e-01	 1.1998034813e+00
 2.4230006737e+00	 5.7881692935e-01	 1.2227449149e+00
 2.4176715546e+00	 6.0068766994e-01	 1.2558157416e+00
 2.4121308660e+00	 6.2256420462e-01	 1.2946634168e+00
 2.4063777539e+00	 6.4444366809e-01	 1.3349626631e+00
 2.4631553684e+00	 4.2762737088e-01	 1.4349438526e+00
 2.4592657606e+00	 4.4945701180e-01	 1.3024643319e+00
 2.4551711017e+00	 4.7131170048e-01	 1.2052405388e+00
 2.4508702248e+00	 4.9318879066e-01	 1.1394699305e+00
 2.4463620040e+00	 5.1508560111e-01	 1.1013328735e+00
 2.4416453558e+00	 5.3699941629e-01	 1.0869887781e+00
 2.4367192398e+00	 5.5892748707e-01	 1.0925745833e+00
 2.4315826600e+00	 5.8086703153e-01	 1.1142058452e+00
 2.4262346658e+00	 6.0281523574e-01	 1.1479806829e+00
 2.4206743528e+00	 6.2476925456e-01	 1.1899868186e+00
 2.4149008638e+00	 6.4672621255e-01	 1.2363119387e+00
 2.3296734959e+00	 6.2390176713e-01	 9.0379714072e-01
 2.3238973344e+00	 6.4508384729e-01	 8.9840127021e-01
 2.3179140106e+00	 6.6626313250e-01	 9.2549187342e-01
 2.3117228432e+00	 6.8743676824e-01	 9.7968638622e-01
 2.3053232003e+00	 7.0860187444e-01	 1.0557170692e+00
 2.2987145002e+00	 7.2975554654e-01	 1.1484610968e+00
 2.2918962120e+00	 7.5089485646e-01	 1.2503177855e+00
 2.2848678569e+00	 7.7201685366e-01	 1.3398497767e+00
 2.2776290086e+00	 7.9311856621e-01	 1.4105117907e+00
 2.2701792942e+00	 8.1419700195e-01	 1.4588970528e+00
 2.2625183949e+00	 8.3524914955e-01	 1.4816113612e+00
 2.3381960624e+00	 6.2618416607e-01	 1.0639838203e+00
 2.3323987702e+00	 6.4744373593e-01	 1.0580984236e+00
 2.3263935578e+00	 6.6870050062e-01	 1.0772622838e+00
 2.3201797415e+00	 6.8995159515e-01	 1.1177206085e+00
 2.3137566870e+00	 7.1119412895e-01	 1.1758153607e+00
 2.3071238104e+00	 7.3242518682e-01	 1.2480130976e+00
 2.3002805792e+00	 7.5364182997e-01	 1.3268266341e+00
 2.2932265125e+00	 7.7484109706e-01	 1.3932859153e+00
 2.2859611825e+00	 7.9602000531e-01	 1.4438069687e+00
 2.2784842151e+00	 8.1717555158e-01	 1.4765142636e+00
 2.2707952902e+00	 8.3830471354e-01	 1.4895199676e+00
 2.3467186217e+00	 6.2846656308e-01	 1.1970875880e+00
 2.3409001988e+00	 6.4980362257e-01	 1.1925606900e+00
 2.3348730978e+00	 6.7113786665e-01	 1.2064436864e+00
 2.3286366326e+00	 6.9246641992e-01	 1.2363503473e+00
 2.3221901665e+00	 7.1378638126e-01	 1.2799749451e+00
 2.3155331136e+00	 7.3509482484e-01	 1.3351182161e+00
 2.3086649392e+00	 7.5638880115e-01	 1.3939287945e+00
 2.3015851609e+00	 7.7766533807e-01	 1.4403435638e+00
 2.2942933494e+00	 7.9892144194e-01	 1.4730472584e+00
 2.2867891289e+00	 8.2015409868e-01	 1.4914539638e+00
 2.2790721784e+00	 8.4136027494e-01	 1.4949452114e+00
 2.3552411907e+00	 6.3074896268e-01	 1.3026787537e+00
 2.3494016370e+00	 6.5216351188e-01	 1.3011392575e+00
 2.3433526474e+00	 6.7357523546e-01	 1.3122191079e+00
 2.3370935332e+00	 6.9498124755e-01	 1.3346443221e+00
 2.3306236555e+00	 7.1637863651e-01	 1.3672069597e+00
 2.3239424262e+00	 7.3776446588e-01	 1.4087895766e+00
 2.3170493087e+00	 7.5913577544e-01	 1.4507472242e+00
 2.3099438189e+00	 7.8048958228e-01	 1.4802756218e+00
 2.3026255257e+00	 8.0182288185e-01	 1.4976818806e+00
 2.2950940522e+00	 8.2313264915e-01	 1.5034308435e+00
 2.2873490761e+00	 8.4441583981e-01	 1.4979391445e+00
 2.3637637862e+00	 6.3303136939e-01	 1.3803320710e+00
 2.3579031017e+00	 6.5452340855e-01	 1.3831933684e+00
 2.3518322235e+00	 6.7601261186e-01	 1.3937825562e+00
 2.3455504602e+00	 6.9749608302e-01	 1.4116844392e+00
 2.3390571709e+00	 7.1897089984e-01	 1.4365371729e+00
 2.3323517651e+00	 7.4043411524e-01	 1.4680555771e+00
 2.3254337044e+00	 7.6188275830e-01	 1.4964191230e+00
 2.3183025029e+00	 7.8331383529e-01	 1.5123473558e+00
 2.3109577280e+00	 8.0472433082e-01	 1.5171695824e+00
 2.3033990013e+00	 8.2611120891e-01	 1.5121652759e+00
 2.2956259995e+00	 8.4747141419e-01	 1.4985546198e+00
 2.3722864252e+00	 6.3531378774e-01	 1.4296267701e+00
 2.3664046098e+00	 6.5688331725e-01	 1.4380903047e+00
 2.3603118427e+00	 6.7845000069e-01	 1.4503389739e+00
 2.3540074304e+00	 7.0001093131e-01	 1.4665657262e+00
 2.3474907292e+00	 7.2156317639e-01	 1.4870059136e+00
 2.3407611469e+00	 7.4310377822e-01	 1.5118391538e+00
 2.3338181429e+00	 7.6462975516e-01	 1.5300956812e+00
 2.3266612295e+00	 7.8613810271e-01	 1.5358361770e+00
 2.3192899727e+00	 8.0762579458e-01	 1.5309784625e+00
 2.3117039928e+00	 8.2908978386e-01	 1.5173832086e+00
 2.3039029651e+00	 8.5052700417e-01	 1.4968452656e+00
 2.3808091246e+00	 6.3759622226e-01	 1.4501465924e+00
 2.3749061781e+00	 6.5924324268e-01	 1.4652053786e+00
 2.3687915221e+00	 6.8088740679e-01	 1.4811041959e+00
 2.3624644605e+00	 7.0252579742e-01	 1.4983962711e+00
 2.3559243474e+00	 7.2415547130e-01	 1.5176680067e+00
 2.3491705882e+00	 7.4577346011e-01	 1.5390472532e+00
 2.3422026407e+00	 7.6737677149e-01	 1.5509418340e+00
 2.3350200153e+00	 7.8896239013e-01	 1.5500314252e+00
 2.3276222765e+00	 8.1052727889e-01	 1.5385858011e+00
 2.3200090431e+00	 8.3206837992e-01	 1.5188160565e+00
 2.3121799894e+00	 8.5358261579e-01	 1.4928654612e+00
 2.3893319012e+00	 6.3987867747e-01	 1.4414798272e+00
 2.3834078235e+00	 6.6160318950e-01	 1.4639219250e+00
 2.3772712784e+00	 6.8332483499e-01	 1.4853049115e+00
 2.3709215672e+00	 7.0504068633e-01	 1.5062971664e+00
 2.3643580419e+00	 7.2674778972e-01	 1.5275927136e+00
 2.3575801058e+00	 7.4844316621e-01	 1.5487940296e+00
 2.3505872146e+00	 7.7012381272e-01	 1.5581360188e+00
 2.3433788770e+00	 7.9178670316e-01	 1.5542341553e+00
 2.3359546559e+00	 8.1342878952e-01	 1.5394778918e+00
 2.3283141687e+00	 8.3504700298e-01	 1.5162005965e+00
 2.3204570887e+00	 8.5663825511e-01	 1.4866703108e+00
 2.3978547720e+00	 6.4216115791e-01	 1.4032193499e+00
 2.3919095628e+00	 6.6396316239e-01	 1.4336312978e+00
 2.3857511283e+00	 6.8576229012e-01	 1.4621786301e+00
 2.3793787674e+00	 7.0755560303e-01	 1.4894024582e+00
 2.3727918297e+00	 7.2934013679e-01	 1.5158636776e+00
 2.3659897163e+00	 7.5111290181e-01	 1.5402094435e+00
 2.3589718811e+00	 7.7287088431e-01	 1.5508699395e+00
 2.3517378310e+00	 7.9461104741e-01	 1.5477569286e+00
 2.3442871273e+00	 8.1633033221e-01	 1.5331498771e+00
 2.3366193862e+00	 8.3802565895e-01	 1.5092788634e+00
 2.3287342795e+00	 8.5969392821e-01	 1.4783156181e+00
 2.4063777539e+00	 6.4444366809e-01	 1.3349626631e+00
 2.4004114129e+00	 6.6632316605e-01	 1.3737328690e+00
 2.3942310888e+00	 6.8819977702e-01	 1.4109736514e+00
 2.3878360779e+00	 7.1007055251e-01	 1.4468590997e+00
 2.3812257274e+00	 7.3193251764e-01	 1.4815788742e+00
 2.3743994365e+00	 7.5378267220e-01	 1.5124373733e+00
 2.3673566569e+00	 7.7561799170e-01	 1.5283483334e+00
 2.3600968939e+00	 7.9743542846e-01	 1.5299236081e+00
 2.3526197073e+00	 8.1923191271e-01	 1.5191055864e+00
 2.3449247118e+00	 8.4100435376e-01	 1.4977980476e+00
 2.3370115782e+00	 8.6274964113e-01	 1.4678578604e+00
 2.4149008638e+00	 6.4672621255e-01	 1.2363119387e+00
 2.4089133907e+00	 6.6868320514e-01	 1.2836340309e+00
 2.4027111766e+00	 6.9063730053e-01	 1.3309490389e+00
 2.3962935153e+00	 7.1258553976e-01	 1.3778269085e+00
 2.3896597517e+00	 7.3452493742e-01	 1.4238505666e+00
 2.3828092829e+00	 7.5645248269e-01	 1.4646353751e+00
 2.3757415586e+00	 7.7836514035e-01	 1.4897887436e+00
 2.3684560824e+00	 8.0025985193e-01	 1.5000691575e+00
 2.3609524125e+00	 8.2213353680e-01	 1.4968573773e+00
 2.3532301622e+00	 8.4398309329e-01	 1.4815103943e+00
 2.3452890012e+00	 8.6580539994e-01	 1.4553541626e+00
 2.2625183949e+00	 8.3524914955e-01	 1.4816113612e+00
 2.2546446902e+00	 8.5627555101e-01	 1.4742149972e+00
 2.2465592549e+00	 8.7726957648e-01	 1.4391158846e+00
 2.2382619351e+00	 8.9822816176e-01	 1.3831451369e+00
 2.2297526340e+00	 9.1914822827e-01	 1.3130388051e+00
 2.2210313121e+00	 9.4002668437e-01	 1.2354505513e+00
 2.2120979880e+00	 9.6086042659e-01	 1.1591830795e+00
 2.2029527390e+00	 9.8164634100e-01	 1.0916123253e+00
 2.1935957011e+00	 1.0023813045e+00	 1.0382403509e+00
 2.1840270702e+00	 1.0230621863e+00	 1.0042166110e+00
 2.1742471019e+00	 1.0436858490e+00	 9.9434557470e-01
 2.2707952902e+00	 8.3830471354e-01	 1.4895199676e+00
 2.2628927814e+00	 8.5940803518e-01	 1.4788089857e+00
 2.2547777674e+00	 8.8047886239e-01	 1.4453467284e+00
 2.2464500938e+00	 9.0151411976e-01	 1.3946664347e+00
 2.2379096633e+00	 9.2251071746e-01	 1.3322342307e+00
 2.2291564366e+00	 9.4346555251e-01	 1.2634299518e+00
 2.2201904320e+00	 9.6437551011e-01	 1.1936209767e+00
 2.2110117272e+00	 9.8523746494e-01	 1.1304199259e+00
 2.2016204588e+00	 1.0060482825e+00	 1.0794510943e+00
 2.1920168233e+00	 1.0268048204e+00	 1.0447925367e+00
 2.1822010773e+00	 1.0475039300e+00	 1.0302032100e+00
 2.2790721784e+00	 8.4136027494e-01	 1.4949452114e+00
 2.2711408655e+00	 8.6254051669e-01	 1.4801370223e+00
 2.2629962729e+00	 8.8368814558e-01	 1.4470395806e+00
 2.2546382455e+00	 9.0480007497e-01	 1.4000726749e+00
 2.2460666858e+00	 9.2587320378e-01	 1.3436123935e+00
 2.2372815541e+00	 9.4690441773e-01	 1.2819736114e+00
 2.2282828691e+00	 9.6789059065e-01	 1.2193911398e+00
 2.2190707086e+00	 9.8882858582e-01	 1.1602116271e+00
 2.2096452097e+00	 1.0097152573e+00	 1.1109744597e+00
 2.2000065696e+00	 1.0305474514e+00	 1.0757110031e+00
 2.1901550459e+00	 1.0513220077e+00	 1.0572825759e+00
 2.2873490761e+00	 8.4441583981e-01	 1.4979391445e+00
 2.2793889591e+00	 8.6567300176e-01	 1.4785945417e+00
 2.2712147877e+00	 8.8689743241e-01	 1.4448700774e+00
 2.2628264065e+00	 9.0808603391e-01	 1.4002544617e+00
 2.2542237175e+00	 9.2923569392e-01	 1.3482116155e+00
 2.2454066809e+00	 9.5034328684e-01	 1.2921645210e+00
 2.2363753154e+00	 9.7140567517e-01	 1.2354776915e+00
 2.2271296991e+00	 9.9241971078e-01	 1.1814382691e+00
 2.2176699697e+00	 1.0133822363e+00	 1.1336414889e+00
 2.2079963250e+00	 1.0342900865e+00	 1.0975801477e+00
 2.1981090235e+00	 1.0551400898e+00	 1.0758913778e+00
 2.2956259995e+00	 8.4747141419e-01	 1.4985546198e+00
 2.2876370783e+00	 8.6880549659e-01	 1.4745728088e+00
 2.2794333281e+00	 8.9010672924e-01	 1.4395056238e+00
 2.2710145930e+00	 9.1137200309e-01	 1.3960910427e+00
 2.2623807746e+00	 9.3259819454e-01	 1.3470567001e+00
 2.2535318330e+00	 9.5378216668e-01	 1.2951048011e+00
 2.2444677870e+00	 9.7492077064e-01	 1.2428956140e+00
 2.2351887148e+00	 9.9601084693e-01	 1.1930295458e+00
 2.2256947547e+00	 1.0170492267e+00	 1.1480278155e+00
 2.2159861053e+00	 1.0380327334e+00	 1.1109971553e+00
 2.2060630259e+00	 1.0589581837e+00	 1.0863306614e+00
 2.3039029651e+00	 8.5052700417e-01	 1.4968452656e+00
 2.2958852396e+00	 8.7193800740e-01	 1.4684589792e+00
 2.2876519105e+00	 8.9331604244e-01	 1.4316055223e+00
 2.2792028213e+00	 9.1465798904e-01	 1.3884504894e+00
 2.2705378734e+00	 9.3596071231e-01	 1.3411591471e+00
 2.2616570266e+00	 9.5722106406e-01	 1.2918821141e+00
 2.2525602997e+00	 9.7843588405e-01	 1.2427395801e+00
 2.2432477715e+00	 9.9960200140e-01	 1.1958040643e+00
 2.2337195806e+00	 1.0207162359e+00	 1.1530817288e+00
 2.2239759263e+00	 1.0417753994e+00	 1.1164922698e+00
 2.2140170689e+00	 1.0627762972e+00	 1.0888948147e+00
 2.3121799894e+00	 8.5358261579e-01	 1.4928654612e+00
 2.3041334593e+00	 8.7507054039e-01	 1.4606361573e+00
 2.2958705511e+00	 8.9652537837e-01	 1.4218210985e+00
 2.2873911076e+00	 9.1794399826e-01	 1.3781898735e+00
 2.2786950299e+00	 9.3932325391e-01	 1.3315173627e+00
 2.2697822777e+00	 9.6065998580e-01	 1.2835698899e+00
 2.2606528699e+00	 9.8195102236e-01	 1.2360898715e+00
 2.2513068854e+00	 1.0031931813e+00	 1.1907789664e+00
 2.2417444634e+00	 1.0243832710e+00	 1.1492797376e+00
 2.2319658039e+00	 1.0455180918e+00	 1.1131558500e+00
 2.2219711682e+00	 1.0665944377e+00	 1.0838715688e+00
 2.3204570887e+00	 8.5663825511e-01	 1.4866703108e+00
 2.3123817538e+00	 8.7820310180e-01	 1.4514834522e+00
 2.3040892662e+00	 8.9973474341e-01	 1.4107958232e+00
 2.2955794682e+00	 9.2123003728e-01	 1.3661554383e+00
 2.2868522604e+00	 9.4268582599e-01	 1.3191168639e+00
 2.2779076024e+00	 9.6409893872e-01	 1.2712275458e+00
 2.2687455134e+00	 9.8546619255e-01	 1.2240125971e+00
 2.2593660723e+00	 1.0067843938e+00	 1.1789580478e+00
 2.2497694189e+00	 1.0280503394e+00	 1.1374925661e+00
 2.2399557540e+00	 1.0492608182e+00	 1.1009676759e+00
 2.2299253397e+00	 1.0704126128e+00	 1.0706365043e+00
 2.3287342795e+00	 8.5969392821e-01	 1.4783156181e+00
 2.3206301395e+00	 8.8133569782e-01	 1.4413760319e+00
 2.3123080721e+00	 9.0294414392e-01	 1.3991654300e+00
 2.3037679192e+00	 9.2451611261e-01	 1.3531827656e+00
 2.2950095810e+00	 9.4604843524e-01	 1.3049304773e+00
 2.2860330170e+00	 9.6753792965e-01	 1.2559007009e+00
 2.2768382463e+00	 9.8898140158e-01	 1.2075599051e+00
 2.2674253482e+00	 1.0103756459e+00	 1.1613319506e+00
 2.2577944631e+00	 1.0317174483e+00	 1.1185795850e+00
 2.2479457923e+00	 1.0530035860e+00	 1.0805843946e+00
 2.2378795990e+00	 1.0742308301e+00	 1.0485252500e+00
 2.3370115782e+00	 8.6274964113e-01	 1.4678578604e+00
 2.3288786326e+00	 8.8446833467e-01	 1.4306851750e+00
 2.3205269851e+00	 9.0615358625e-01	 1.3875580306e+00
 2.3119564770e+00	 9.2780223078e-01	 1.3400969374e+00
 2.3031670080e+00	 9.4941108831e-01	 1.2899185322e+00
 2.2941585375e+00	 9.7097696541e-01	 1.2386213841e+00
 2.2849310847e+00	 9.9249665643e-01	 1.1877701886e+00
 2.2754847292e+00	 1.0139669449e+00	 1.1388783498e+00
 2.2658196119e+00	 1.0353846049e+00	 1.0933889611e+00
 2.2559359348e+00	 1.0567464026e+00	 1.0526542104e+00
 2.2458339620e+00	 1.0780490972e+00	 1.0179132430e+00
 2.3452890012e+00	 8.6580539994e-01	 1.4553541626e+00
 2.3371272496e+00	 8.8760101857e-01	 1.4197783209e+00
 2.3287460216e+00	 9.0936307679e-01	 1.3765942263e+00
 2.3201451577e+00	 9.3108839829e-01	 1.3277126941e+00
 2.3113245574e+00	 9.5277379189e-01	 1.2750290491e+00
 2.3022841800e+00	 9.7441605281e-01	 1.2204082366e+00
 2.2930240446e+00	 9.9601196407e-01	 1.1656682871e+00
 2.2835442313e+00	 1.0175582978e+00	 1.1125621348e+00
 2.2738448812e+00	 1.0390518167e+00	 1.0627578024e+00
 2.2639261973e+00	 1.0604892753e+00	 1.0178169759e+00
 2.2537884445e+00	 1.0818674217e+00	 9.7917200855e-01
 2.1742471019e+00	 1.0436858490e+00	 9.9434557470e-01
 2.1642578281e+00	 1.0642456601e+00	 1.0090667622e+00
 2.1540579796e+00	 1.0847419850e+00	 1.0409833619e+00
 2.1436479923e+00	 1.1051716761e+00	 1.0828180690e+00
 2.1330283633e+00	 1.1255315851e+00	 1.1298628548e+00
 2.1221996512e+00	 1.1458185643e+00	 1.1825601338e+00
 2.1111624763e+00	 1.1660294682e+00	 1.2348536853e+00
 2.0999175207e+00	 1.1861611550e+00	 1.2803394353e+00
 2.0884655282e+00	 1.2062104879e+00	 1.3127194728e+00
 2.0768073048e+00	 1.2261743371e+00	 1.3258239571e+00
 2.0649437185e+00	 1.2460495804e+00	 1.3136332122e+00
 2.1822010773e+00	 1.0475039300e+00	 1.0302032100e+00
 2.1721752601e+00	 1.0681389543e+00	 1.0364627275e+00
 2.1619380978e+00	 1.0887102603e+00	 1.0577752227e+00
 2.1514900279e+00	 1.1092146886e+00	 1.0877074876e+00
 2.1408315495e+00	 1.1296490796e+00	 1.1239639992e+00
 2.1299632231e+00	 1.1500102740e+00	 1.1664776932e+00
 2.1188856713e+00	 1.1702951147e+00	 1.2095716692e+00
 2.1075995786e+00	 1.1905004486e+00	 1.2475825968e+00
 2.0961056917e+00	 1.2106231274e+00	 1.2749241728e+00
 2.0844048195e+00	 1.2306600096e+00	 1.2861082027e+00
 2.0724978330e+00	 1.2506079619e+00	 1.2757659102e+00
 2.1901550459e+00	 1.0513220077e+00	 1.0572825759e+00
 2.1800926853e+00	 1.0720322453e+00	 1.0565612467e+00
 2.1698182093e+00	 1.0926785322e+00	 1.0689488544e+00
 2.1593320570e+00	 1.1132576977e+00	 1.0888213733e+00
 2.1486347291e+00	 1.1337665706e+00	 1.1163640273e+00
 2.1377267885e+00	 1.1542019801e+00	 1.1503602210e+00
 2.1266088598e+00	 1.1745607577e+00	 1.1857822960e+00
 2.1152816300e+00	 1.1948397385e+00	 1.2176352696e+00
 2.1037458487e+00	 1.2150357631e+00	 1.2409768570e+00
 2.0920023276e+00	 1.2351456783e+00	 1.2509378780e+00
 2.0800519410e+00	 1.2551663394e+00	 1.2427429239e+00
 2.1981090235e+00	 1.0551400898e+00	 1.0758913778e+00
 2.1880101195e+00	 1.0759255406e+00	 1.0693546131e+00
 2.1776983297e+00	 1.0966468086e+00	 1.0742303894e+00
 2.1671740948e+00	 1.1173007114e+00	 1.0859412447e+00
 2.1564379176e+00	 1.1378840663e+00	 1.1063720922e+00
 2.1454903626e+00	 1.1583936909e+00	 1.1334002144e+00
 2.1343320569e+00	 1.1788264054e+00	 1.1626136667e+00
 2.1229636902e+00	 1.1991790334e+00	 1.1896141810e+00
 2.1113860144e+00	 1.2194484037e+00	 1.2100366302e+00
 2.0995998444e+00	 1.2396313521e+00	 1.2195689071e+00
 2.0876060576e+00	 1.2597247222e+00	 1.2139720927e+00
 2.2060630259e+00	 1.0589581837e+00	 1.0863306614e+00
 2.1959275783e+00	 1.0798188481e+00	 1.0748329968e+00
 2.1855784746e+00	 1.1006150974e+00	 1.0733476913e+00
 2.1750161572e+00	 1.1213437377e+00	 1.0785913711e+00
 2.1642411303e+00	 1.1420015748e+00	 1.0933042839e+00
 2.1532539609e+00	 1.1625854149e+00	 1.1147990294e+00
 2.1420552782e+00	 1.1830920665e+00	 1.1392039119e+00
 2.1306457742e+00	 1.2035183418e+00	 1.1626464966e+00
 2.1190262039e+00	 1.2238610582e+00	 1.1812726688e+00
 2.1071973849e+00	 1.2441170398e+00	 1.1912661334e+00
 2.0951601978e+00	 1.2642831191e+00	 1.1888682270e+00
 2.2140170689e+00	 1.0627762972e+00	 1.0888948147e+00
 2.2038450776e+00	 1.0837121755e+00	 1.0729843648e+00
 2.1934586598e+00	 1.1045834064e+00	 1.0660302067e+00
 2.1828582595e+00	 1.1253867846e+00	 1.0662576163e+00
 2.1720443829e+00	 1.1461191043e+00	 1.0764836317e+00
 2.1610175988e+00	 1.1667771602e+00	 1.0937668579e+00
 2.1497785389e+00	 1.1873577493e+00	 1.1147011574e+00
 2.1383278975e+00	 1.2078576723e+00	 1.1358697867e+00
 2.1266664324e+00	 1.2282737351e+00	 1.1538642035e+00
 2.1147949641e+00	 1.2486027505e+00	 1.1653033326e+00
 2.1027143765e+00	 1.2688415393e+00	 1.1668531650e+00
 2.2219711682e+00	 1.0665944377e+00	 1.0838715688e+00
 2.2117626329e+00	 1.0876055305e+00	 1.0637944018e+00
 2.2013389008e+00	 1.1085517435e+00	 1.0520088183e+00
 2.1907004174e+00	 1.1294298602e+00	 1.0484302045e+00
 2.1798476908e+00	 1.1502366630e+00	 1.0552401092e+00
 2.1687812918e+00	 1.1709689352e+00	 1.0695227083e+00
 2.1575018542e+00	 1.1916234624e+00	 1.0882634933e+00
 2.1460100752e+00	 1.2121970336e+00	 1.1084319987e+00
 2.1343067149e+00	 1.2326864433e+00	 1.1270005069e+00
 2.1223925971e+00	 1.2530884929e+00	 1.1409632292e+00
 2.1102686087e+00	 1.2733999918e+00	 1.1473558328e+00
 2.2299253397e+00	 1.0704126128e+00	 1.0706365043e+00
 2.2196802600e+00	 1.0914989207e+00	 1.0472464303e+00
 2.2092192132e+00	 1.1125201166e+00	 1.0310348495e+00
 2.1985426464e+00	 1.1334729724e+00	 1.0246037651e+00
 2.1876510694e+00	 1.1543542590e+00	 1.0289106430e+00
 2.1765450551e+00	 1.1751607482e+00	 1.0412943904e+00
 2.1652252396e+00	 1.1958892141e+00	 1.0590589485e+00
 2.1536923225e+00	 1.2165364342e+00	 1.0794914322e+00
 2.1419470668e+00	 1.2370991916e+00	 1.0998808842e+00
 2.1299902990e+00	 1.2575742760e+00	 1.1175375163e+00
 2.1178229093e+00	 1.2779584857e+00	 1.1298123056e+00
 2.2378795990e+00	 1.0742308301e+00	 1.0485252500e+00
 2.2275979746e+00	 1.0953923540e+00	 1.0229431214e+00
 2.2170996128e+00	 1.1164885336e+00	 1.0030517434e+00
 2.2063849620e+00	 1.1375161293e+00	 9.9427738020e-01
 2.1954545342e+00	 1.1584719005e+00	 9.9683912484e-01
 2.1843089042e+00	 1.1793526076e+00	 1.0083185041e+00
 2.1729487103e+00	 1.2001550129e+00	 1.0262654681e+00
 2.1613746547e+00	 1.2208758827e+00	 1.0482167199e+00
 2.1495875031e+00	 1.2415119885e+00	 1.0717146691e+00
 2.1375880849e+00	 1.2620601087e+00	 1.0943268793e+00
 2.1253772935e+00	 1.2825170299e+00	 1.1136658740e+00
 2.2458339620e+00	 1.0780490972e+00	 1.0179132430e+00
 2.2355157924e+00	 1.0992858380e+00	 9.8975443746e-01
 2.2249801150e+00	 1.1204570023e+00	 9.6774330901e-01
 2.2142273799e+00	 1.1415593388e+00	 9.5695463419e-01
 2.2032581007e+00	 1.1625895957e+00	 9.5837642631e-01
 2.1920728544e+00	 1.1835445216e+00	 9.6984043205e-01
 2.1806722817e+00	 1.2044208674e+00	 9.8907089627e-01
 2.1690570871e+00	 1.2252153879e+00	 1.0137868119e+00
 2.1572280389e+00	 1.2459248430e+00	 1.0417212229e+00
 2.1451859698e+00	 1.2665459998e+00	 1.0706410228e+00
 2.1329317761e+00	 1.2870756335e+00	 1.0983671107e+00
 2.2537884445e+00	 1.0818674217e+00	 9.7917200855e-01
 2.2434337292e+00	 1.1031793805e+00	 9.4768583982e-01
 2.2328607355e+00	 1.1244255306e+00	 9.2387796518e-01
 2.2220699155e+00	 1.1456026092e+00	 9.1214366583e-01
 2.2110617844e+00	 1.1667073527e+00	 9.1288041714e-01
 2.1998369213e+00	 1.1877364985e+00	 9.2511433553e-01
 2.1883959691e+00	 1.2086867859e+00	 9.4667296192e-01
 2.1767396348e+00	 1.2295549582e+00	 9.7539096402e-01
 2.1648686895e+00	 1.2503377638e+00	 1.0091299376e+00
 2.1527839688e+00	 1.2710319583e+00	 1.0457987013e+00
 2.1404863722e+00	 1.2916343056e+00	 1.0833739418e+00
 2.0649437185e+00	 1.2460495804e+00	 1.3136332122e+00
 2.0528756997e+00	 1.2658331062e+00	 1.2752442497e+00
 2.0406042425e+00	 1.2855218152e+00	 1.2168404371e+00
 2.0281304037e+00	 1.3051126218e+00	 1.1431838588e+00
 2.0154553015e+00	 1.3246024542e+00	 1.0590763722e+00
 2.0025801153e+00	 1.3439882566e+00	 9.6936519127e-01
 1.9895060861e+00	 1.3632669907e+00	 8.7894802692e-01
 1.9762345155e+00	 1.3824356367e+00	 7.9277767611e-01
 1.9627667656e+00	 1.4014911956e+00	 7.1586595041e-01
 1.9491042590e+00	 1.4204306899e+00	 6.5328683887e-01
 1.9352484777e+00	 1.4392511656e+00	 6.1017880210e-01
 2.0724978330e+00	 1.2506079619e+00	 1.2757659102e+00
 2.0603856661e+00	 1.2704638610e+00	 1.2424941756e+00
 2.0480693167e+00	 1.2902245966e+00	 1.1911939365e+00
 2.0355498453e+00	 1.3098870716e+00	 1.1260918195e+00
 2.0228283741e+00	 1.3294482030e+00	 1.0514693554e+00
 2.0099060871e+00	 1.3489049238e+00	 9.7166978823e-01
 1.9967842296e+00	 1.3682541846e+00	 8.9110441980e-01
 1.9834641080e+00	 1.3874929547e+00	 8.1425837466e-01
 1.9699470896e+00	 1.4066182239e+00	 7.4569567296e-01
 1.9562346018e+00	 1.4256270039e+00	 6.9006350038e-01
 1.9423281324e+00	 1.4445163299e+00	 6.5209556775e-01
 2.0800519410e+00	 1.2551663394e+00	 1.2427429239e+00
 2.0678956261e+00	 1.2750946119e+00	 1.2146739641e+00
 2.0555343845e+00	 1.2949273741e+00	 1.1705680500e+00
 2.0429692805e+00	 1.3146615173e+00	 1.1141114557e+00
 2.0302014405e+00	 1.3342939476e+00	 1.0490588240e+00
 2.0172320527e+00	 1.3538215869e+00	 9.7924121760e-01
 2.0040623669e+00	 1.3732413744e+00	 9.0857368465e-01
 1.9906936944e+00	 1.3925502684e+00	 8.4106221983e-01
 1.9771274074e+00	 1.4117452479e+00	 7.8081000336e-01
 1.9633649386e+00	 1.4308233135e+00	 7.3202280222e-01
 1.9494077810e+00	 1.4497814898e+00	 6.9901342131e-01
 2.0876060576e+00	 1.2597247222e+00	 1.2139720927e+00
 2.0754055947e+00	 1.2797253681e+00	 1.1913624867e+00
 2.0629994608e+00	 1.2996301568e+00	 1.1546954161e+00
 2.0503887242e+00	 1.3194359685e+00	 1.1071119385e+00
 2.0375745152e+00	 1.3391396978e+00	 1.0518332934e+00
 2.0245580265e+00	 1.3587382555e+00	 9.9217021028e-01
 2.0113405125e+00	 1.3782285698e+00	 9.3153171343e-01
 1.9979232890e+00	 1.3976075879e+00	 8.7343329941e-01
 1.9843077334e+00	 1.4168722776e+00	 8.2150436438e-01
 1.9704952835e+00	 1.4360196290e+00	 7.7949476077e-01
 1.9564874378e+00	 1.4550466556e+00	 7.5128036646e-01
 2.0951601978e+00	 1.2642831191e+00	 1.1888682270e+00
 2.0829155867e+00	 1.2843561387e+00	 1.1721433591e+00
 2.0704645604e+00	 1.3043329542e+00	 1.1433114344e+00
 2.0578081910e+00	 1.3242104345e+00	 1.1049634598e+00
 2.0449476129e+00	 1.3439854631e+00	 1.0597807992e+00
 2.0318840232e+00	 1.3636549395e+00	 1.0105457543e+00
 2.0186186807e+00	 1.3832157807e+00	 9.6015162743e-01
 2.0051529062e+00	 1.4026649231e+00	 9.1161213535e-01
 1.9914880817e+00	 1.4219993234e+00	 8.6807004736e-01
 1.9776256506e+00	 1.4412159607e+00	 8.3280492224e-01
 1.9635671165e+00	 1.4603118379e+00	 8.0923982168e-01
 2.1027143765e+00	 1.2688415393e+00	 1.1668531650e+00
 2.0904256169e+00	 1.2889869330e+00	 1.1566050464e+00
 2.0779296980e+00	 1.3090357756e+00	 1.1361544155e+00
 2.0652276956e+00	 1.3289849249e+00	 1.1075374216e+00
 2.0523207483e+00	 1.3488312531e+00	 1.0728891215e+00
 2.0392100573e+00	 1.3685716485e+00	 1.0344553502e+00
 2.0258968861e+00	 1.3882030171e+00	 9.9460405902e-01
 2.0123825602e+00	 1.4077222841e+00	 9.5583598711e-01
 1.9986684667e+00	 1.4271263953e+00	 9.2079453296e-01
 1.9847560540e+00	 1.4464123189e+00	 8.9227469623e-01
 1.9706468314e+00	 1.4655770470e+00	 8.7323096219e-01
 2.1102686087e+00	 1.2733999918e+00	 1.1473558328e+00
 2.0979357004e+00	 1.2936177600e+00	 1.1443409710e+00
 2.0853948885e+00	 1.3137386303e+00	 1.1329657320e+00
 2.0726472528e+00	 1.3337594491e+00	 1.1147066257e+00
 2.0596939358e+00	 1.3536770774e+00	 1.0911460097e+00
 2.0465361432e+00	 1.3734883924e+00	 1.0639852656e+00
 2.0331751430e+00	 1.3931902888e+00	 1.0350574318e+00
 2.0196122654e+00	 1.4127796809e+00	 1.0063391532e+00
 2.0058489026e+00	 1.4322535035e+00	 9.7996180962e-01
 1.9918865080e+00	 1.4516087140e+00	 9.5822168687e-01
 1.9777265965e+00	 1.4708422934e+00	 9.4358905957e-01
 2.1178229093e+00	 1.2779584857e+00	 1.1298123056e+00
 2.1054458520e+00	 1.2982486290e+00	 1.1349496212e+00
 2.0928601467e+00	 1.3184415276e+00	 1.1334899699e+00
 2.0800668772e+00	 1.3385340166e+00	 1.1263454641e+00
 2.0670671902e+00	 1.3585229457e+00	 1.1145394064e+00
 2.0538622956e+00	 1.3784051808e+00	 1.0992207888e+00
 2.0404534659e+00	 1.3981776057e+00	 1.0816782394e+00
 2.0268420362e+00	 1.4178371236e+00	 1.0633532711e+00
 2.0130294035e+00	 1.4373806582e+00	 1.0458526900e+00
 1.9990170267e+00	 1.4568051561e+00	 1.0309600218e+00
 1.9848064257e+00	 1.4761075875e+00	 1.0206458189e+00
 2.1253772935e+00	 1.2825170299e+00	 1.1136658740e+00
 2.1129560865e+00	 1.3028795492e+00	 1.1280346629e+00
 2.1003254874e+00	 1.3231444770e+00	 1.1374750821e+00
 2.0874865836e+00	 1.3433086369e+00	 1.1423301092e+00
 2.0744405261e+00	 1.3633688675e+00	 1.1430576708e+00
 2.0611885290e+00	 1.3833220236e+00	 1.1402464813e+00
 2.0477318693e+00	 1.4031649778e+00	 1.1346313228e+00
 2.0340718869e+00	 1.4228946221e+00	 1.1271076148e+00
 2.0202099838e+00	 1.4425078696e+00	 1.1187451255e+00
 2.0061476241e+00	 1.4620016556e+00	 1.1108006786e+00
 1.9918863332e+00	 1.4813729399e+00	 1.1047297135e+00
 2.1329317761e+00	 1.2870756335e+00	 1.0983671107e+00
 2.1204664190e+00	 1.3075105298e+00	 1.1232050523e+00
 2.1077909254e+00	 1.3278474876e+00	 1.1446725420e+00
 2.0949063868e+00	 1.3480833194e+00	 1.1625387047e+00
 2.0818139581e+00	 1.3682148525e+00	 1.1766898023e+00
 2.0685148578e+00	 1.3882389304e+00	 1.1871464296e+00
 2.0550103675e+00	 1.4081524148e+00	 1.1940801468e+00
 2.0413018318e+00	 1.4279521866e+00	 1.1978293917e+00
 2.0273906577e+00	 1.4476351478e+00	 1.1989145184e+00
 2.0132783144e+00	 1.4671982229e+00	 1.1980518099e+00
 1.9989663329e+00	 1.4866383608e+00	 1.1960062697e+00
 2.1404863722e+00	 1.2916343056e+00	 1.0833739418e+00
 2.1279768642e+00	 1.3121415799e+00	 1.1200751506e+00
 2.1152564755e+00	 1.3325505688e+00	 1.1548374981e+00
 2.1023263013e+00	 1.3528580736e+00	 1.1868515561e+00
 2.0891875008e+00	 1.3730609102e+00	 1.2154256632e+00
 2.0758412966e+00	 1.3931559111e+00	 1.2400044961e+00
 2.0622889750e+00	 1.4131399268e+00	 1.2601870743e+00
 2.0485318853e+00	 1.4330098270e+00	 1.2757440370e+00
 2.0345714394e+00	 1.4527625030e+00	 1.2866340331e+00
 2.0204091119e+00	 1.4723948682e+00	 1.2930190654e+00
 2.0060464390e+00	 1.4919038608e+00	 1.2946329694e+00
 1.9352484777e+00	 1.4392511656e+00	 6.1017880210e-01
 1.9211985599e+00	 1.4579528601e+00	 5.8654644500e-01
 1.9069584527e+00	 1.4765296504e+00	 5.7723179664e-01
 1.8925298230e+00	 1.4949786493e+00	 5.7876137911e-01
 1.8779143959e+00	 1.5132969987e+00	 5.8621435961e-01
 1.8631139533e+00	 1.5314818712e+00	 5.9749264143e-01
 1.8481303335e+00	 1.5495304716e+00	 6.1105319706e-01
 1.8329654303e+00	 1.5674400381e+00	 6.3214000135e-01
 1.8176211925e+00	 1.5852078436e+00	 6.6146771460e-01
 1.8020996229e+00	 1.6028311975e+00	 6.9645251814e-01
 1.7864027773e+00	 1.6203074465e+00	 7.3418722269e-01
 1.9423281324e+00	 1.4445163299e+00	 6.5209556775e-01
 1.9282268163e+00	 1.4632864402e+00	 6.3225745487e-01
 1.9139346149e+00	 1.4819311894e+00	 6.2616775930e-01
 1.8994532015e+00	 1.5004476796e+00	 6.2936314868e-01
 1.8847843073e+00	 1.5188330424e+00	 6.3783626348e-01
 1.8699297207e+00	 1.5370844401e+00	 6.4968577139e-01
 1.8548912868e+00	 1.5551990671e+00	 6.6309798210e-01
 1.8396709063e+00	 1.5731741515e+00	 6.7963236820e-01
 1.8242705352e+00	 1.5910069564e+00	 7.0403708459e-01
 1.8086921836e+00	 1.6086947811e+00	 7.3398411055e-01
 1.7929379148e+00	 1.6262349630e+00	 7.6661124047e-01
 1.9494077810e+00	 1.4497814898e+00	 6.9901342131e-01
 1.9352550667e+00	 1.4686200158e+00	 6.8260767295e-01
 1.9209107712e+00	 1.4873327238e+00	 6.7894469553e-01
 1.9063765741e+00	 1.5059167053e+00	 6.8285239058e-01
 1.8916542128e+00	 1.5243690814e+00	 6.9142321937e-01
 1.8767454823e+00	 1.5426870042e+00	 7.0286388394e-01
 1.8616522344e+00	 1.5608676577e+00	 7.1546778115e-01
 1.8463763767e+00	 1.5789082600e+00	 7.2826340958e-01
 1.8309198723e+00	 1.5968060642e+00	 7.4695672432e-01
 1.8152847387e+00	 1.6145583599e+00	 7.7126048030e-01
 1.7994730467e+00	 1.6321624744e+00	 7.9840626072e-01
 1.9564874378e+00	 1.4550466556e+00	 7.5128036646e-01
 1.9422833250e+00	 1.4739535975e+00	 7.3795094019e-01
 1.9278869355e+00	 1.4927342643e+00	 7.3575683808e-01
 1.9132999545e+00	 1.5113857372e+00	 7.3956747439e-01
 1.8985241261e+00	 1.5299051268e+00	 7.4730324381e-01
 1.8835612516e+00	 1.5482895746e+00	 7.5733480715e-01
 1.8684131896e+00	 1.5665362547e+00	 7.6811767301e-01
 1.8530818547e+00	 1.5846423750e+00	 7.7817637179e-01
 1.8375692170e+00	 1.6026051786e+00	 7.9034521866e-01
 1.8218773012e+00	 1.6204219452e+00	 8.0833238653e-01
 1.8060081860e+00	 1.6380899926e+00	 8.2954227813e-01
 1.9635671165e+00	 1.4603118379e+00	 8.0923982168e-01
 1.9493116053e+00	 1.4792871957e+00	 7.9863655544e-01
 1.9348631214e+00	 1.4981358216e+00	 7.9694639514e-01
 1.9202233566e+00	 1.5168547861e+00	 7.9984950090e-01
 1.9053940608e+00	 1.5354411893e+00	 8.0580722752e-01
 1.8903770422e+00	 1.5538921625e+00	 8.1340953489e-01
 1.8751741659e+00	 1.5722048695e+00	 8.2132848856e-01
 1.8597873535e+00	 1.5903765079e+00	 8.2830157512e-01
 1.8442185823e+00	 1.6084043111e+00	 8.3431524096e-01
 1.8284698844e+00	 1.6262855489e+00	 8.4524610823e-01
 1.8125433457e+00	 1.6440175292e+00	 8.5998639072e-01
 1.9706468314e+00	 1.4655770470e+00	 8.7323096219e-01
 1.9563399214e+00	 1.4846208212e+00	 8.6494876478e-01
 1.9418393430e+00	 1.5035374065e+00	 8.6285816487e-01
 1.9271467939e+00	 1.5223238629e+00	 8.6404215824e-01
 1.9122640306e+00	 1.5409772801e+00	 8.6726878311e-01
 1.8971928675e+00	 1.5594947790e+00	 8.7140206363e-01
 1.8819351767e+00	 1.5778735131e+00	 8.7538449732e-01
 1.8664928866e+00	 1.5961106701e+00	 8.7821941431e-01
 1.8508679816e+00	 1.6142034732e+00	 8.7897412762e-01
 1.8350625011e+00	 1.6321491824e+00	 8.8204400623e-01
 1.8190785387e+00	 1.6499450961e+00	 8.8970334563e-01
 1.9777265965e+00	 1.4708422934e+00	 9.4358905957e-01
 1.9633682873e+00	 1.4899544845e+00	 9.3696779253e-01
 1.9488156140e+00	 1.5089390297e+00	 9.3383939550e-01
 1.9340702803e+00	 1.5277929785e+00	 9.3249157574e-01
 1.9191340490e+00	 1.5465134101e+00	 9.3202409055e-01
 1.9040087412e+00	 1.5650974351e+00	 9.3162922736e-01
 1.8886962354e+00	 1.5835421969e+00	 9.3057322924e-01
 1.8731984671e+00	 1.6018448729e+00	 9.2817760068e-01
 1.8575174280e+00	 1.6200026763e+00	 9.2380046985e-01
 1.8416551646e+00	 1.6380128575e+00	 9.1876508417e-01
 1.8256137780e+00	 1.6558727049e+00	 9.1865608424e-01
 1.9848064257e+00	 1.4761075875e+00	 1.0206458189e+00
 1.9703967169e+00	 1.4952881961e+00	 1.0150062427e+00
 1.9557919482e+00	 1.5143407018e+00	 1.0102396434e+00
 1.9409938295e+00	 1.5332621437e+00	 1.0055461757e+00
 1.9260041297e+00	 1.5520495904e+00	 1.0004117406e+00
 1.9108246766e+00	 1.5707001421e+00	 9.9441053052e-01
 1.8954573554e+00	 1.5892109321e+00	 9.8718529477e-01
 1.8799041085e+00	 1.6075791276e+00	 9.7842749513e-01
 1.8641669346e+00	 1.6258019321e+00	 9.6785753291e-01
 1.8482478878e+00	 1.6438765857e+00	 9.5544554831e-01
 1.8321490766e+00	 1.6618003675e+00	 9.4680628680e-01
 1.9918863332e+00	 1.4813729399e+00	 1.1047297135e+00
 1.9774252242e+00	 1.5006219666e+00	 1.0994089772e+00
 1.9627683595e+00	 1.5197424337e+00	 1.0924106287e+00
 1.9479174551e+00	 1.5387313693e+00	 1.0835565232e+00
 1.9328742864e+00	 1.5575858317e+00	 1.0727725765e+00
 1.9176406873e+00	 1.5763029110e+00	 1.0600679790e+00
 1.9022185501e+00	 1.5948797299e+00	 1.0455142032e+00
 1.8866098240e+00	 1.6133134458e+00	 1.0292239114e+00
 1.8708165148e+00	 1.6316012519e+00	 1.0113299524e+00
 1.8548406839e+00	 1.6497403788e+00	 9.9196463420e-01
 1.8386844474e+00	 1.6677280956e+00	 9.7411491648e-01
 1.9989663329e+00	 1.4866383608e+00	 1.1960062697e+00
 1.9844538231e+00	 1.5059558067e+00	 1.1905230233e+00
 1.9697448618e+00	 1.5251442359e+00	 1.1807060894e+00
 1.9548411710e+00	 1.5442006662e+00	 1.1668751734e+00
 1.9397445325e+00	 1.5631221453e+00	 1.1494495330e+00
 1.9244567869e+00	 1.5819057529e+00	 1.1289259096e+00
 1.9089798329e+00	 1.6005486016e+00	 1.1058561795e+00
 1.8933156268e+00	 1.6190478386e+00	 1.0808249178e+00
 1.8774661816e+00	 1.6374006473e+00	 1.0544270688e+00
 1.8614335659e+00	 1.6556042483e+00	 1.0272459173e+00
 1.8452199034e+00	 1.6736559010e+00	 1.0005427631e+00
 2.0060464390e+00	 1.4919038608e+00	 1.2946329694e+00
 1.9914825276e+00	 1.5112897269e+00	 1.2886974296e+00
 1.9767214688e+00	 1.5305461193e+00	 1.2754816326e+00
 1.9617649909e+00	 1.5496700452e+00	 1.2558565173e+00
 1.9466148819e+00	 1.5686585420e+00	 1.2307874741e+00
 1.9312729888e+00	 1.5875086789e+00	 1.2013108168e+00
 1.9157412173e+00	 1.6062175584e+00	 1.1685099792e+00
 1.9000215304e+00	 1.6247823176e+00	 1.1334916378e+00
 1.8841159483e+00	 1.6432001298e+00	 1.0973619621e+00
 1.8680265469e+00	 1.6614682058e+00	 1.0612031897e+00
 1.8517554575e+00	 1.6795837954e+00	 1.0260509860e+00
 1.7864027773e+00	 1.6203074465e+00	 7.3418722269e-01
 1.7705354717e+00	 1.6376310489e+00	 7.7481625999e-01
 1.7544971874e+00	 1.6548024385e+00	 8.1987982125e-01
 1.7382901052e+00	 1.6718191124e+00	 8.6817288627e-01
 1.7219164549e+00	 1.6886786099e+00	 9.1831432115e-01
 1.7053785146e+00	 1.7053785146e+00	 9.6879593305e-01
 1.6886786099e+00	 1.7219164549e+00	 1.0180302661e+00
 1.6718191124e+00	 1.7382901052e+00	 1.0643968120e+00
 1.6548024385e+00	 1.7544971874e+00	 1.1062863254e+00
 1.6376310489e+00	 1.7705354717e+00	 1.1421429532e+00
 1.6203074465e+00	 1.7864027773e+00	 1.1705039071e+00
 1.7929379148e+00	 1.6262349630e+00	 7.6661124047e-01
 1.7770125623e+00	 1.6436219397e+00	 8.0182240633e-01
 1.7609156057e+00	 1.6608561469e+00	 8.4104662756e-01
 1.7446492337e+00	 1.6779350722e+00	 8.8331058956e-01
 1.7282156842e+00	 1.6948562463e+00	 9.2745723578e-01
 1.7116172437e+00	 1.7116172437e+00	 9.7219576309e-01
 1.6948562463e+00	 1.7282156842e+00	 1.0161503119e+00
 1.6779350722e+00	 1.7446492337e+00	 1.0579070171e+00
 1.6608561469e+00	 1.7609156057e+00	 1.0960591042e+00
 1.6436219397e+00	 1.7770125623e+00	 1.1292497316e+00
 1.6262349630e+00	 1.7929379148e+00	 1.1562123050e+00
 1.7994730467e+00	 1.6321624744e+00	 7.9840626072e-01
 1.7834896474e+00	 1.6496128254e+00	 8.2806355596e-01
 1.7673340186e+00	 1.6669098501e+00	 8.6149393819e-01
 1.7510083568e+00	 1.6840510269e+00	 8.9791126707e-01
 1.7345149081e+00	 1.7010338775e+00	 9.3633936830e-01
 1.7178559675e+00	 1.7178559675e+00	 9.7566305483e-01
 1.7010338775e+00	 1.7345149081e+00	 1.0146777930e+00
 1.6840510269e+00	 1.7510083568e+00	 1.0521376725e+00
 1.6669098501e+00	 1.7673340186e+00	 1.0868013561e+00
 1.6496128254e+00	 1.7834896474e+00	 1.1174757065e+00
 1.6321624744e+00	 1.7994730467e+00	 1.1430568066e+00
 1.8060081860e+00	 1.6380899926e+00	 8.2954227813e-01
 1.7899667399e+00	 1.6556037180e+00	 8.5342756347e-01
 1.7737524387e+00	 1.6729635601e+00	 8.8103831031e-01
 1.7573674870e+00	 1.6901669885e+00	 9.1173137145e-01
 1.7408141392e+00	 1.7072115157e+00	 9.4466860752e-01
 1.7240946984e+00	 1.7240946984e+00	 9.7886901957e-01
 1.7072115157e+00	 1.7408141392e+00	 1.0132594732e+00
 1.6901669885e+00	 1.7573674870e+00	 1.0467236655e+00
 1.6729635601e+00	 1.7737524387e+00	 1.0781490032e+00
 1.6556037180e+00	 1.7899667399e+00	 1.1064710836e+00
 1.6380899926e+00	 1.8060081860e+00	 1.1307154867e+00
 1.8125433457e+00	 1.6440175292e+00	 8.5998639072e-01
 1.7964438525e+00	 1.6615946292e+00	 8.7780095210e-01
 1.7801708789e+00	 1.6790172891e+00	 8.9949633831e-01
 1.7637266372e+00	 1.6962829692e+00	 9.2452855712e-01
 1.7471133899e+00	 1.7133891731e+00	 9.5215499759e-01
 1.7303334488e+00	 1.7303334488e+00	 9.8148775972e-01
 1.7133891731e+00	 1.7471133899e+00	 1.0115455188e+00
 1.6962829692e+00	 1.7637266372e+00	 1.0413035673e+00
 1.6790172891e+00	 1.7801708789e+00	 1.0697416965e+00
 1.6615946292e+00	 1.7964438525e+00	 1.0958896005e+00
 1.6440175292e+00	 1.8125433457e+00	 1.1188695070e+00
 1.8190785387e+00	 1.6499450961e+00	 8.8970334563e-01
 1.8029209982e+00	 1.6675855709e+00	 9.0106944261e-01
 1.7865893517e+00	 1.6850710489e+00	 9.1668516820e-01
 1.7700858197e+00	 1.7023989811e+00	 9.3606218278e-01
 1.7534126728e+00	 1.7195668620e+00	 9.5851123129e-01
 1.7365722309e+00	 1.7365722309e+00	 9.8319675581e-01
 1.7195668620e+00	 1.7534126728e+00	 1.0091899822e+00
 1.7023989811e+00	 1.7700858197e+00	 1.0355201160e+00
 1.6850710489e+00	 1.7865893517e+00	 1.0612233012e+00
 1.6675855709e+00	 1.8029209982e+00	 1.0853890176e+00
 1.6499450961e+00	 1.8190785387e+00	 1.1072036166e+00
 1.8256137780e+00	 1.6558727049e+00	 9.1865608424e-01
 1.8093981898e+00	 1.6735765551e+00	 9.2311848200e-01
 1.7930078701e+00	 1.6911248516e+00	 9.3242301230e-01
 1.7764450473e+00	 1.7085150363e+00	 9.4609381461e-01
 1.7597120003e+00	 1.7257445947e+00	 9.6345314437e-01
 1.7428110573e+00	 1.7428110573e+00	 9.8367735451e-01
 1.7257445947e+00	 1.7597120003e+00	 1.0058512870e+00
 1.7085150363e+00	 1.7764450473e+00	 1.0290207009e+00
 1.6911248516e+00	 1.7930078701e+00	 1.0522423832e+00
 1.6735765551e+00	 1.8093981898e+00	 1.0746316102e+00
 1.6558727049e+00	 1.8256137780e+00	 1.0954066523e+00
 1.8321490766e+00	 1.6618003675e+00	 9.4680628680e-01
 1.8158754401e+00	 1.6795675937e+00	 9.4383377214e-01
 1.7994264466e+00	 1.6971787092e+00	 9.4652966430e-01
 1.7828043326e+00	 1.7146311469e+00	 9.5438773018e-01
 1.7660113849e+00	 1.7319223834e+00	 9.6670021082e-01
 1.7490499402e+00	 1.7490499402e+00	 9.8261525805e-01
 1.7319223834e+00	 1.7660113849e+00	 1.0011927135e+00
 1.7146311469e+00	 1.7828043326e+00	 1.0214578479e+00
 1.6971787092e+00	 1.7994264466e+00	 1.0424526977e+00
 1.6795675937e+00	 1.8158754401e+00	 1.0632846620e+00
 1.6618003675e+00	 1.8321490766e+00	 1.0831720413e+00
 1.8386844474e+00	 1.6677280956e+00	 9.7411491648e-01
 1.8223527620e+00	 1.6855586984e+00	 9.6310179839e-01
 1.8058450941e+00	 1.7032326337e+00	 9.5882701467e-01
 1.7891636881e+00	 1.7207473252e+00	 9.6071142307e-01
 1.7723108391e+00	 1.7381002404e+00	 9.6797603919e-01
 1.7552888920e+00	 1.7552888920e+00	 9.7970101470e-01
 1.7381002404e+00	 1.7723108391e+00	 9.9488288664e-01
 1.7207473252e+00	 1.7891636881e+00	 1.0124897065e+00
 1.7032326337e+00	 1.8058450941e+00	 1.0315136785e+00
 1.6855586984e+00	 1.8223527620e+00	 1.0510209603e+00
 1.6677280956e+00	 1.8386844474e+00	 1.0701983044e+00
 1.8452199034e+00	 1.6736559010e+00	 1.0005427631e+00
 1.8288301683e+00	 1.6915498812e+00	 9.8081035821e-01
 1.8122638252e+00	 1.7092866371e+00	 9.6913956648e-01
 1.7955231265e+00	 1.7268635831e+00	 9.6483610822e-01
 1.7786103754e+00	 1.7442781779e+00	 9.6700886990e-01
 1.7615279252e+00	 1.7615279252e+00	 9.7463051056e-01
 1.7442781779e+00	 1.7786103754e+00	 9.8659626440e-01
 1.7268635831e+00	 1.7955231265e+00	 1.0017805387e+00
 1.7092866371e+00	 1.8122638252e+00	 1.0190909286e+00
 1.6915498812e+00	 1.8288301683e+00	 1.0375192924e+00
 1.6736559010e+00	 1.8452199034e+00	 1.0561895600e+00
 1.8517554575e+00	 1.6795837954e+00	 1.0260509860e+00
 1.8353076719e+00	 1.6975411540e+00	 9.9684908980e-01
 1.8186826527e+00	 1.7153407314e+00	 9.7729495169e-01
 1.8018826604e+00	 1.7329799329e+00	 9.6653722810e-01
 1.7849100063e+00	 1.7504562081e+00	 9.6353207359e-01
 1.7677670521e+00	 1.7677670521e+00	 9.6710546258e-01
 1.7504562081e+00	 1.7849100063e+00	 9.7601362828e-01
 1.7329799329e+00	 1.8018826604e+00	 9.8900120895e-01
 1.7153407314e+00	 1.8186826527e+00	 1.0048567134e+00
 1.6975411540e+00	 1.8353076719e+00	 1.0224649426e+00
 1.6795837954e+00	 1.8517554575e+00	 1.0408560305e+00
 1.6203074465e+00	 1.7864027773e+00	 1.1705039071e+00
 1.6028311975e+00	 1.8020996229e+00	 1.1905927377e+00
 1.5852078436e+00	 1.8176211925e+00	 1.2028149324e+00
 1.5674400381e+00	 1.8329654303e+00	 1.2076926599e+00
 1.5495304716e+00	 1.8481303335e+00	 1.2059114433e+00
 1.5314818712e+00	 1.8631139533e+00	 1.1980253895e+00
 1.5132969987e+00	 1.8779143959e+00	 1.1843182026e+00
 1.4949786493e+00	 1.8925298230e+00	 1.1659131538e+00
 1.4765296504e+00	 1.9069584527e+00	 1.1439211645e+00
 1.4579528601e+00	 1.9211985599e+00	 1.1180297224e+00
 1.4392511656e+00	 1.9352484777e+00	 1.0899521941e+00
 1.6262349630e+00	 1.7929379148e+00	 1.1562123050e+00
 1.6086947811e+00	 1.8086921836e+00	 1.1760798503e+00
 1.5910069564e+00	 1.8242705352e+00	 1.1889247031e+00
 1.5731741515e+00	 1.8396709063e+00	 1.1951096976e+00
 1.5551990671e+00	 1.8548912868e+00	 1.1951543159e+00
 1.5370844401e+00	 1.8699297207e+00	 1.1890877709e+00
 1.5188330424e+00	 1.8847843073e+00	 1.1774716706e+00
 1.5004476796e+00	 1.8994532015e+00	 1.1612969885e+00
 1.4819311894e+00	 1.9139346149e+00	 1.1416135403e+00
 1.4632864402e+00	 1.9282268163e+00	 1.1185205154e+00
 1.4445163299e+00	 1.9423281324e+00	 1.0928465183e+00
 1.6321624744e+00	 1.7994730467e+00	 1.1430568066e+00
 1.6145583599e+00	 1.8152847387e+00	 1.1626271643e+00
 1.5968060642e+00	 1.8309198723e+00	 1.1759936669e+00
 1.5789082600e+00	 1.8463763767e+00	 1.1833693016e+00
 1.5608676577e+00	 1.8616522344e+00	 1.1849499645e+00
 1.5426870042e+00	 1.8767454823e+00	 1.1806033987e+00
 1.5243690814e+00	 1.8916542128e+00	 1.1710152931e+00
 1.5059167053e+00	 1.9063765741e+00	 1.1570169781e+00
 1.4873327238e+00	 1.9209107712e+00	 1.1395040966e+00
 1.4686200158e+00	 1.9352550667e+00	 1.1189809047e+00
 1.4497814898e+00	 1.9494077810e+00	 1.0956366674e+00
 1.6380899926e+00	 1.8060081860e+00	 1.1307154867e+00
 1.6204219452e+00	 1.8218773012e+00	 1.1499460033e+00
 1.6026051786e+00	 1.8375692170e+00	 1.1637632779e+00
 1.5846423750e+00	 1.8530818547e+00	 1.1722369717e+00
 1.5665362547e+00	 1.8684131896e+00	 1.1751033907e+00
 1.5482895746e+00	 1.8835612516e+00	 1.1724388166e+00
 1.5299051268e+00	 1.8985241261e+00	 1.1648391190e+00
 1.5113857372e+00	 1.9132999545e+00	 1.1529839675e+00
 1.4927342643e+00	 1.9278869355e+00	 1.1376224902e+00
 1.4739535975e+00	 1.9422833250e+00	 1.1194256510e+00
 1.4550466556e+00	 1.9564874378e+00	 1.0983563659e+00
 1.6440175292e+00	 1.8125433457e+00	 1.1188695070e+00
 1.6262855489e+00	 1.8284698844e+00	 1.1377502037e+00
 1.6084043111e+00	 1.8442185823e+00	 1.1519769226e+00
 1.5903765079e+00	 1.8597873535e+00	 1.1613778209e+00
 1.5722048695e+00	 1.8751741659e+00	 1.1654631117e+00
 1.5538921625e+00	 1.8903770422e+00	 1.1644682845e+00
 1.5354411893e+00	 1.9053940608e+00	 1.1588405606e+00
 1.5168547861e+00	 1.9202233566e+00	 1.1491158605e+00
 1.4981358216e+00	 1.9348631214e+00	 1.1359043840e+00
 1.4792871957e+00	 1.9493116053e+00	 1.1198668082e+00
 1.4603118379e+00	 1.9635671165e+00	 1.1010363950e+00
 1.6499450961e+00	 1.8190785387e+00	 1.1072036166e+00
 1.6321491824e+00	 1.8350625011e+00	 1.1257566254e+00
 1.6142034732e+00	 1.8508679816e+00	 1.1403804385e+00
 1.5961106701e+00	 1.8664928866e+00	 1.1505533818e+00
 1.5778735131e+00	 1.8819351767e+00	 1.1558855391e+00
 1.5594947790e+00	 1.8971928675e+00	 1.1565735647e+00
 1.5409772801e+00	 1.9122640306e+00	 1.1529241874e+00
 1.5223238629e+00	 1.9271467939e+00	 1.1453374204e+00
 1.5035374065e+00	 1.9418393430e+00	 1.1342920511e+00
 1.4846208212e+00	 1.9563399214e+00	 1.1203318092e+00
 1.4655770470e+00	 1.9706468314e+00	 1.1037048672e+00
 1.6558727049e+00	 1.8256137780e+00	 1.0954066523e+00
 1.6380128575e+00	 1.8416551646e+00	 1.1136856620e+00
 1.6200026763e+00	 1.8575174280e+00	 1.1286789411e+00
 1.6018448729e+00	 1.8731984671e+00	 1.1396003442e+00
 1.5835421969e+00	 1.8886962354e+00	 1.1462347579e+00
 1.5650974351e+00	 1.9040087412e+00	 1.1486437086e+00
 1.5465134101e+00	 1.9191340490e+00	 1.1470015203e+00
 1.5277929785e+00	 1.9340702803e+00	 1.1415800708e+00
 1.5089390297e+00	 1.9488156140e+00	 1.1327341820e+00
 1.4899544845e+00	 1.9633682873e+00	 1.1208877067e+00
 1.4708422934e+00	 1.9777265965e+00	 1.1063875019e+00
 1.6618003675e+00	 1.8321490766e+00	 1.0831720413e+00
 1.6438765857e+00	 1.8482478878e+00	 1.1012617527e+00
 1.6258019321e+00	 1.8641669346e+00	 1.1165846900e+00
 1.6075791276e+00	 1.8799041085e+00	 1.1283632727e+00
 1.5892109321e+00	 1.8954573554e+00	 1.1363823062e+00
 1.5707001421e+00	 1.9108246766e+00	 1.1405748443e+00
 1.5520495904e+00	 1.9260041297e+00	 1.1409908255e+00
 1.5332621437e+00	 1.9409938295e+00	 1.1377816966e+00
 1.5143407018e+00	 1.9557919482e+00	 1.1311856912e+00
 1.4952881961e+00	 1.9703967169e+00	 1.1215138260e+00
 1.4761075875e+00	 1.9848064257e+00	 1.1091078985e+00
 1.6677280956e+00	 1.8386844474e+00	 1.0701983044e+00
 1.6497403788e+00	 1.8548406839e+00	 1.0882059611e+00
 1.6316012519e+00	 1.8708165148e+00	 1.1039193959e+00
 1.6133134458e+00	 1.8866098240e+00	 1.1166943793e+00
 1.5948797299e+00	 1.9022185501e+00	 1.1262069561e+00
 1.5763029110e+00	 1.9176406873e+00	 1.1322699641e+00
 1.5575858317e+00	 1.9328742864e+00	 1.1348169095e+00
 1.5387313693e+00	 1.9479174551e+00	 1.1338864448e+00
 1.5197424337e+00	 1.9627683595e+00	 1.1296075242e+00
 1.5006219666e+00	 1.9774252242e+00	 1.1221853007e+00
 1.4813729399e+00	 1.9918863332e+00	 1.1118878112e+00
 1.6736559010e+00	 1.8452199034e+00	 1.0561895600e+00
 1.6556042483e+00	 1.8614335659e+00	 1.0742171633e+00
 1.6374006473e+00	 1.8774661816e+00	 1.0905143069e+00
 1.6190478386e+00	 1.8933156268e+00	 1.1044532963e+00
 1.6005486016e+00	 1.9089798329e+00	 1.1155944936e+00
 1.5819057529e+00	 1.9244567869e+00	 1.1236387126e+00
 1.5631221453e+00	 1.9397445325e+00	 1.1284109139e+00
 1.5442006662e+00	 1.9548411710e+00	 1.1298445258e+00
 1.5251442359e+00	 1.9697448618e+00	 1.1279664649e+00
 1.5059558067e+00	 1.9844538231e+00	 1.1228829243e+00
 1.4866383608e+00	 1.9989663329e+00	 1.1147659834e+00
 1.6795837954e+00	 1.8517554575e+00	 1.0408560305e+00
 1.6614682058e+00	 1.8680265469e+00	 1.0590887706e+00
 1.6432001298e+00	 1.8841159483e+00	 1.0762083072e+00
 1.6247823176e+00	 1.9000215304e+00	 1.0915068508e+00
 1.6062175584e+00	 1.9157412173e+00	 1.1044375008e+00
 1.5875086789e+00	 1.9312729888e+00	 1.1145971749e+00
 1.5686585420e+00	 1.9466148819e+00	 1.1217101102e+00
 1.5496700452e+00	 1.9617649909e+00	 1.1256120147e+00
 1.5305461193e+00	 1.9767214688e+00	 1.1262349426e+00
 1.5112897269e+00	 1.9914825276e+00	 1.1235929628e+00
 1.4919038608e+00	 2.0060464390e+00	 1.1177686756e+00
 1.4392511656e+00	 1.9352484777e+00	 1.0899521941e+00
 1.4204306899e+00	 1.9491042590e+00	 1.0610213974e+00
 1.4014911956e+00	 1.9627667656e+00	 1.0318449155e+00
 1.3824356367e+00	 1.9762345155e+00	 1.0035858374e+00
 1.3632669907e+00	 1.9895060861e+00	 9.7721975596e-01
 1.3439882566e+00	 2.0025801153e+00	 9.5355440493e-01
 1.3246024542e+00	 2.0154553015e+00	 9.3324816547e-01
 1.3051126218e+00	 2.0281304037e+00	 9.1682740193e-01
 1.2855218152e+00	 2.0406042425e+00	 9.0470260089e-01
 1.2658331062e+00	 2.0528756997e+00	 8.9718329654e-01
 1.2460495804e+00	 2.0649437185e+00	 8.9449177607e-01
 1.4445163299e+00	 1.9423281324e+00	 1.0928465183e+00
 1.4256270039e+00	 1.9562346018e+00	 1.0659399468e+00
 1.4066182239e+00	 1.9699470896e+00	 1.0385132815e+00
 1.3874929547e+00	 1.9834641080e+00	 1.0116923264e+00
 1.3682541846e+00	 1.9967842296e+00	 9.8641916617e-01
 1.3489049238e+00	 2.0099060871e+00	 9.6347209708e-01
 1.3294482030e+00	 2.0228283741e+00	 9.4348438002e-01
 1.3098870716e+00	 2.0355498453e+00	 9.2696177853e-01
 1.2902245966e+00	 2.0480693167e+00	 9.1429885533e-01
 1.2704638610e+00	 2.0603856661e+00	 9.0579401152e-01
 1.2506079619e+00	 2.0724978330e+00	 9.0166326332e-01
 1.4497814898e+00	 1.9494077810e+00	 1.0956366674e+00
 1.4308233135e+00	 1.9633649386e+00	 1.0707139187e+00
 1.4117452479e+00	 1.9771274074e+00	 1.0450192486e+00
 1.3925502684e+00	 1.9906936944e+00	 1.0196450846e+00
 1.3732413744e+00	 2.0040623669e+00	 9.9550355159e-01
 1.3538215869e+00	 2.0172320527e+00	 9.7334669385e-01
 1.3342939476e+00	 2.0302014405e+00	 9.5378547224e-01
 1.3146615173e+00	 2.0429692805e+00	 9.3730750161e-01
 1.2949273741e+00	 2.0555343845e+00	 9.2429350152e-01
 1.2750946119e+00	 2.0678956261e+00	 9.1503244586e-01
 1.2551663394e+00	 2.0800519410e+00	 9.0973540731e-01
 1.4550466556e+00	 1.9564874378e+00	 1.0983563659e+00
 1.4360196290e+00	 1.9704952835e+00	 1.0753920083e+00
 1.4168722776e+00	 1.9843077334e+00	 1.0514216069e+00
 1.3976075879e+00	 1.9979232890e+00	 1.0275080834e+00
 1.3782285698e+00	 2.0113405125e+00	 1.0045371213e+00
 1.3587382555e+00	 2.0245580265e+00	 9.8323767540e-01
 1.3391396978e+00	 2.0375745152e+00	 9.6420121134e-01
 1.3194359685e+00	 2.0503887242e+00	 9.4789963912e-01
 1.2996301568e+00	 2.0629994608e+00	 9.3470191470e-01
 1.2797253681e+00	 2.0754055947e+00	 9.2488929642e-01
 1.2597247222e+00	 2.0876060576e+00	 9.1866925327e-01
 1.4603118379e+00	 1.9635671165e+00	 1.1010363950e+00
 1.4412159607e+00	 1.9776256506e+00	 1.0800197679e+00
 1.4219993234e+00	 1.9914880817e+00	 1.0577758543e+00
 1.4026649231e+00	 2.0051529062e+00	 1.0353419045e+00
 1.3832157807e+00	 2.0186186807e+00	 1.0135806492e+00
 1.3636549395e+00	 2.0318840232e+00	 9.9320109464e-01
 1.3439854631e+00	 2.0449476129e+00	 9.7477800173e-01
 1.3242104345e+00	 2.0578081910e+00	 9.5877001219e-01
 1.3043329542e+00	 2.0704645604e+00	 9.4553639780e-01
 1.2843561387e+00	 2.0829155867e+00	 9.3535241976e-01
 1.2642831191e+00	 2.0951601978e+00	 9.2842329684e-01
 1.4655770470e+00	 1.9706468314e+00	 1.1037048672e+00
 1.4464123189e+00	 1.9847560540e+00	 1.0846398825e+00
 1.4271263953e+00	 1.9986684667e+00	 1.0641344716e+00
 1.4077222841e+00	 2.0123825602e+00	 1.0432040123e+00
 1.3882030171e+00	 2.0258968861e+00	 1.0226917429e+00
 1.3685716485e+00	 2.0392100573e+00	 1.0032898413e+00
 1.3488312531e+00	 2.0523207483e+00	 9.8555914064e-01
 1.3289849249e+00	 2.0652276956e+00	 9.6994744474e-01
 1.3090357756e+00	 2.0779296980e+00	 9.5680642158e-01
 1.2889869330e+00	 2.0904256169e+00	 9.4640706156e-01
 1.2688415393e+00	 2.1027143765e+00	 9.3895370123e-01
 1.4708422934e+00	 1.9777265965e+00	 1.1063875019e+00
 1.4516087140e+00	 1.9918865080e+00	 1.0892924450e+00
 1.4322535035e+00	 2.0058489026e+00	 1.0705471970e+00
 1.4127796809e+00	 2.0196122654e+00	 1.0511490265e+00
 1.3931902888e+00	 2.0331751430e+00	 1.0319251126e+00
 1.3734883924e+00	 2.0465361432e+00	 1.0135539057e+00
 1.3536770774e+00	 2.0596939358e+00	 9.9658507523e-01
 1.3337594491e+00	 2.0726472528e+00	 9.8145801276e-01
 1.3137386303e+00	 2.0853948885e+00	 9.6851886473e-01
 1.2936177600e+00	 2.0979357004e+00	 9.5803608594e-01
 1.2733999918e+00	 2.1102686087e+00	 9.5021451447e-01
 1.4761075875e+00	 1.9848064257e+00	 1.1091078985e+00
 1.4568051561e+00	 1.9990170267e+00	 1.0940152314e+00
 1.4373806582e+00	 2.0130294035e+00	 1.0770613000e+00
 1.4178371236e+00	 2.0268420362e+00	 1.0592289935e+00
 1.3981776057e+00	 2.0404534659e+00	 1.0413328393e+00
 1.3784051808e+00	 2.0538622956e+00	 1.0240406414e+00
 1.3585229457e+00	 2.0670671902e+00	 1.0078936593e+00
 1.3385340166e+00	 2.0800668772e+00	 9.9332529330e-01
 1.3184415276e+00	 2.0928601467e+00	 9.8067825365e-01
 1.2982486290e+00	 2.1054458520e+00	 9.7022020481e-01
 1.2779584857e+00	 2.1178229093e+00	 9.6215788682e-01
 1.4813729399e+00	 1.9918863332e+00	 1.1118878112e+00
 1.4620016556e+00	 2.0061476241e+00	 1.0988439747e+00
 1.4425078696e+00	 2.0202099838e+00	 1.0837218546e+00
 1.4228946221e+00	 2.0340718869e+00	 1.0674936579e+00
 1.4031649778e+00	 2.0477318693e+00	 1.0509646420e+00
 1.3833220236e+00	 2.0611885290e+00	 1.0347950285e+00
 1.3633688675e+00	 2.0744405261e+00	 1.0195204098e+00
 1.3433086369e+00	 2.0874865836e+00	 1.0055706131e+00
 1.3231444770e+00	 2.1003254874e+00	 9.9328700209e-01
 1.3028795492e+00	 2.1129560865e+00	 9.8293820704e-01
 1.2825170299e+00	 2.1253772935e+00	 9.7473428826e-01
 1.4866383608e+00	 1.9989663329e+00	 1.1147659834e+00
 1.4671982229e+00	 2.0132783144e+00	 1.1038126388e+00
 1.4476351478e+00	 2.0273906577e+00	 1.0905720124e+00
 1.4279521866e+00	 2.0413018318e+00	 1.0759907329e+00
 1.4081524148e+00	 2.0550103675e+00	 1.0608681449e+00
 1.3882389304e+00	 2.0685148578e+00	 1.0458599352e+00
 1.3682148525e+00	 2.0818139581e+00	 1.0314987625e+00
 1.3480833194e+00	 2.0949063868e+00	 1.0182132971e+00
 1.3278474876e+00	 2.1077909254e+00	 1.0063456506e+00
 1.3075105298e+00	 2.1204664190e+00	 9.9616718773e-01
 1.2870756335e+00	 2.1329317761e+00	 9.8789272613e-01
 1.4919038608e+00	 2.0060464390e+00	 1.1177686756e+00
 1.4723948682e+00	 2.0204091119e+00	 1.1089536920e+00
 1.4527625030e+00	 2.0345714394e+00	 1.0976532753e+00
 1.4330098270e+00	 2.0485318853e+00	 1.0847661707e+00
 1.4131399268e+00	 2.0622889750e+00	 1.0710891445e+00
 1.3931559111e+00	 2.0758412966e+00	 1.0572763801e+00
 1.3730609102e+00	 2.0891875008e+00	 1.0438603277e+00
 1.3528580736e+00	 2.1023263013e+00	 1.0312709162e+00
 1.3325505688e+00	 2.1152564755e+00	 1.0198531060e+00
 1.3121415799e+00	 2.1279768642e+00	 1.0098827774e+00
 1.2916343056e+00	 2.1404863722e+00	 1.0015809629e+00
 1.2460495804e+00	 2.0649437185e+00	 8.9449177607e-01
 1.2261743371e+00	 2.0768073048e+00	 8.9581032944e-01
 1.2062104879e+00	 2.0884655282e+00	 8.9964863897e-01
 1.1861611550e+00	 2.0999175207e+00	 9.0515414127e-01
 1.1660294682e+00	 2.1111624763e+00	 9.1147111435e-01
 1.1458185643e+00	 2.1221996512e+00	 9.1774927945e-01
 1.1255315851e+00	 2.1330283633e+00	 9.2315126498e-01
 1.1051716761e+00	 2.1436479923e+00	 9.2695545466e-01
 1.0847419850e+00	 2.1540579796e+00	 9.3005335993e-01
 1.0642456601e+00	 2.1642578281e+00	 9.3250683505e-01
 1.0436858490e+00	 2.1742471019e+00	 9.3386074000e-01
 1.2506079619e+00	 2.0724978330e+00	 9.0166326332e-01
 1.2306600096e+00	 2.0844048195e+00	 9.0125005163e-01
 1.2106231274e+00	 2.0961056917e+00	 9.0326502403e-01
 1.1905004486e+00	 2.1075995786e+00	 9.0691077184e-01
 1.1702951147e+00	 2.1188856713e+00	 9.1138404318e-01
 1.1500102740e+00	 2.1299632231e+00	 9.1588424437e-01
 1.1296490796e+00	 2.1408315495e+00	 9.1962078257e-01
 1.1092146886e+00	 2.1514900279e+00	 9.2182967920e-01
 1.0887102603e+00	 2.1619380978e+00	 9.2323415765e-01
 1.0681389543e+00	 2.1721752601e+00	 9.2435270178e-01
 1.0475039300e+00	 2.1822010773e+00	 9.2476505329e-01
 1.2551663394e+00	 2.0800519410e+00	 9.0973540731e-01
 1.2351456783e+00	 2.0920023276e+00	 9.0787426995e-01
 1.2150357631e+00	 2.1037458487e+00	 9.0832276349e-01
 1.1948397385e+00	 2.1152816300e+00	 9.1033258646e-01
 1.1745607577e+00	 2.1266088598e+00	 9.1314780286e-01
 1.1542019801e+00	 2.1377267885e+00	 9.1601323452e-01
 1.1337665706e+00	 2.1486347291e+00	 9.1818167221e-01
 1.1132576977e+00	 2.1593320570e+00	 9.1891996015e-01
 1.0926785322e+00	 2.1698182093e+00	 9.1858984174e-01
 1.0720322453e+00	 2.1800926853e+00	 9.1826506596e-01
 1.0513220077e+00	 2.1901550459e+00	 9.1757212900e-01
 1.2597247222e+00	 2.0876060576e+00	 9.1866925327e-01
 1.2396313521e+00	 2.0995998444e+00	 9.1561570298e-01
 1.2194484037e+00	 2.1113860144e+00	 9.1473392369e-01
 1.1991790334e+00	 2.1229636902e+00	 9.1531876527e-01
 1.1788264054e+00	 2.1343320569e+00	 9.1665654135e-01
 1.1583936909e+00	 2.1454903626e+00	 9.1803330382e-01
 1.1378840663e+00	 2.1564379176e+00	 9.1874191194e-01
 1.1173007114e+00	 2.1671740948e+00	 9.1808795315e-01
 1.0966468086e+00	 2.1776983297e+00	 9.1609044206e-01
 1.0759255406e+00	 2.1880101195e+00	 9.1424932402e-01
 1.0551400898e+00	 2.1981090235e+00	 9.1233088383e-01
 1.2642831191e+00	 2.0951601978e+00	 9.2842329684e-01
 1.2441170398e+00	 2.1071973849e+00	 9.2440477960e-01
 1.2238610582e+00	 2.1190262039e+00	 9.2240842025e-01
 1.2035183418e+00	 2.1306457742e+00	 9.2176635596e-01
 1.1830920665e+00	 2.1420552782e+00	 9.2180217212e-01
 1.1625854149e+00	 2.1532539609e+00	 9.2183904986e-01
 1.1420015748e+00	 2.1642411303e+00	 9.2120668237e-01
 1.1213437377e+00	 2.1750161572e+00	 9.1924701984e-01
 1.1006150974e+00	 2.1855784746e+00	 9.1570240142e-01
 1.0798188481e+00	 2.1959275783e+00	 9.1230722758e-01
 1.0589581837e+00	 2.2060630259e+00	 9.0908642395e-01
 1.2688415393e+00	 2.1027143765e+00	 9.3895370123e-01
 1.2486027505e+00	 2.1147949641e+00	 9.3416984406e-01
 1.2282737351e+00	 2.1266664324e+00	 9.3125421290e-01
 1.2078576723e+00	 2.1383278975e+00	 9.2957046030e-01
 1.1873577493e+00	 2.1497785389e+00	 9.2847455427e-01
 1.1667771602e+00	 2.1610175988e+00	 9.2732278941e-01
 1.1461191043e+00	 2.1720443829e+00	 9.2547853958e-01
 1.1253867846e+00	 2.1828582595e+00	 9.2231781428e-01
 1.1045834064e+00	 2.1934586598e+00	 9.1738832981e-01
 1.0837121755e+00	 2.2038450776e+00	 9.1243665232e-01
 1.0627762972e+00	 2.2140170689e+00	 9.0787983076e-01
 1.2733999918e+00	 2.1102686087e+00	 9.5021451447e-01
 1.2530884929e+00	 2.1223925971e+00	 9.4483736140e-01
 1.2326864433e+00	 2.1343067149e+00	 9.4117750078e-01
 1.2121970336e+00	 2.1460100752e+00	 9.3862442115e-01
 1.1916234624e+00	 2.1575018542e+00	 9.3656167306e-01
 1.1709689352e+00	 2.1687812918e+00	 9.3437473448e-01
 1.1502366630e+00	 2.1798476908e+00	 9.3145758844e-01
 1.1294298602e+00	 2.1907004174e+00	 9.2721807819e-01
 1.1085517435e+00	 2.2013389008e+00	 9.2110675877e-01
 1.0876055305e+00	 2.2117626329e+00	 9.1463136681e-01
 1.0665944377e+00	 2.2219711682e+00	 9.0874794625e-01
 1.2779584857e+00	 2.1178229093e+00	 9.6215788682e-01
 1.2575742760e+00	 2.1299902990e+00	 9.5633212306e-01
 1.2370991916e+00	 2.1419470668e+00	 9.5208291815e-01
 1.2165364342e+00	 2.1536923225e+00	 9.4882000992e-01
 1.1958892141e+00	 2.1652252396e+00	 9.4594982103e-01
 1.1751607482e+00	 2.1765450551e+00	 9.4288316877e-01
 1.1543542590e+00	 2.1876510694e+00	 9.3904165639e-01
 1.1334729724e+00	 2.1985426464e+00	 9.3386281384e-01
 1.1125201166e+00	 2.2092192132e+00	 9.2680406242e-01
 1.0914989207e+00	 2.2196802600e+00	 9.1888080141e-01
 1.0704126128e+00	 2.2299253397e+00	 9.1180086457e-01
 1.2825170299e+00	 2.1253772935e+00	 9.7473428826e-01
 1.2620601087e+00	 2.1375880849e+00	 9.6857745282e-01
 1.2415119885e+00	 2.1495875031e+00	 9.6387373042e-01
 1.2208758827e+00	 2.1613746547e+00	 9.6004761456e-01
 1.2001550129e+00	 2.1729487103e+00	 9.5652377956e-01
 1.1793526076e+00	 2.1843089042e+00	 9.5273462476e-01
 1.1584719005e+00	 2.1954545342e+00	 9.4812646769e-01
 1.1375161293e+00	 2.2063849620e+00	 9.4216445728e-01
 1.1164885336e+00	 2.2170996128e+00	 9.3433628440e-01
 1.0953923540e+00	 2.2275979746e+00	 9.2520278595e-01
 1.0742308301e+00	 2.2378795990e+00	 9.1712465048e-01
 1.2870756335e+00	 2.1329317761e+00	 9.8789272613e-01
 1.2665459998e+00	 2.1451859698e+00	 9.8149541306e-01
 1.2459248430e+00	 2.1572280389e+00	 9.7645203069e-01
 1.2252153879e+00	 2.1690570871e+00	 9.7219642801e-01
 1.2044208674e+00	 2.1806722817e+00	 9.6816700105e-01
 1.1835445216e+00	 2.1920728544e+00	 9.6381406114e-01
 1.1625895957e+00	 2.2032581007e+00	 9.5860581804e-01
 1.1415593388e+00	 2.2142273799e+00	 9.5203305196e-01
 1.1204570023e+00	 2.2249801150e+00	 9.4362030357e-01
 1.0992858380e+00	 2.2355157924e+00	 9.3366200232e-01
 1.0780490972e+00	 2.2458339620e+00	 9.2470167642e-01
 1.2916343056e+00	 2.1404863722e+00	 1.0015809629e+00
 1.2710319583e+00	 2.1527839688e+00	 9.9500701126e-01
 1.2503377638e+00	 2.1648686895e+00	 9.8971893658e-01
 1.2295549582e+00	 2.1767396348e+00	 9.8515463708e-01
 1.2086867859e+00	 2.1883959691e+00	 9.8076179149e-01
 1.1877364985e+00	 2.1998369213e+00	 9.7600504093e-01
 1.1667073527e+00	 2.2110617844e+00	 9.7037174977e-01
 1.1456026092e+00	 2.2220699155e+00	 9.6337642271e-01
 1.1244255306e+00	 2.2328607355e+00	 9.5466922130e-01
 1.1031793805e+00	 2.2434337292e+00	 9.4420887283e-01
 1.0818674217e+00	 2.2537884445e+00	 9.3451331698e-01
 1.0436858490e+00	 2.1742471019e+00	 9.3386074000e-01
 1.0230621863e+00	 2.1840270702e+00	 9.3386877591e-01
 1.0023813045e+00	 2.1935957011e+00	 9.3277662436e-01
 9.8164634100e-01	 2.2029527390e+00	 9.3089009422e-01
 9.6086042659e-01	 2.2120979880e+00	 9.2851486852e-01
 9.4002668437e-01	 2.2210313121e+00	 9.2595588746e-01
 9.1914822827e-01	 2.2297526340e+00	 9.2368355143e-01
 8.9822816176e-01	 2.2382619351e+00	 9.2227523118e-01
 8.7726957648e-01	 2.2465592549e+00	 9.2203788483e-01
 8.5627555101e-01	 2.2546446902e+00	 9.2326744989e-01
 8.3524914955e-01	 2.2625183949e+00	 9.2625427382e-01
 1.0475039300e+00	 2.1822010773e+00	 9.2476505329e-01
 1.0268048204e+00	 2.1920168233e+00	 9.2417402074e-01
 1.0060482825e+00	 2.2016204588e+00	 9.2273594180e-01
 9.8523746494e-01	 2.2110117272e+00	 9.2072778447e-01
 9.6437551011e-01	 2.2201904320e+00	 9.1842735128e-01
 9.4346555251e-01	 2.2291564366e+00	 9.1624189992e-01
 9.2251071746e-01	 2.2379096633e+00	 9.1474357521e-01
 9.0151411976e-01	 2.2464500938e+00	 9.1423223336e-01
 8.8047886239e-01	 2.2547777674e+00	 9.1499233985e-01
 8.5940803518e-01	 2.2628927814e+00	 9.1730501320e-01
 8.3830471354e-01	 2.2707952902e+00	 9.2144962670e-01
 1.0513220077e+00	 2.1901550459e+00	 9.1757212900e-01
 1.0305474514e+00	 2.2000065696e+00	 9.1619733353e-01
 1.0097152573e+00	 2.2096452097e+00	 9.1424500119e-01
 9.8882858582e-01	 2.2190707086e+00	 9.1196508759e-01
 9.6789059065e-01	 2.2282828691e+00	 9.0969742241e-01
 9.4690441773e-01	 2.2372815541e+00	 9.0799569837e-01
 9.2587320378e-01	 2.2460666858e+00	 9.0715321674e-01
 9.0480007497e-01	 2.2546382455e+00	 9.0743691786e-01
 8.8368814558e-01	 2.2629962729e+00	 9.0911171017e-01
 8.6254051669e-01	 2.2711408655e+00	 9.1244226647e-01
 8.4136027494e-01	 2.2790721784e+00	 9.1769457615e-01
 1.0551400898e+00	 2.1981090235e+00	 9.1233088383e-01
 1.0342900865e+00	 2.2079963250e+00	 9.1003102006e-01
 1.0133822363e+00	 2.2176699697e+00	 9.0743104913e-01
 9.9241971078e-01	 2.2271296991e+00	 9.0480775983e-01
 9.7140567517e-01	 2.2363753154e+00	 9.0267991815e-01
 9.5034328684e-01	 2.2454066809e+00	 9.0133888233e-01
 9.2923569392e-01	 2.2542237175e+00	 9.0103057442e-01
 9.0808603391e-01	 2.2628264065e+00	 9.0199921586e-01
 8.8689743241e-01	 2.2712147877e+00	 9.0448935506e-01
 8.6567300176e-01	 2.2793889591e+00	 9.0874762812e-01
 8.4441583981e-01	 2.2873490761e+00	 9.1502427191e-01
 1.0589581837e+00	 2.2060630259e+00	 9.0908642395e-01
 1.0380327334e+00	 2.2159861053e+00	 9.0576341907e-01
 1.0170492267e+00	 2.2256947547e+00	 9.0244043006e-01
 9.9601084693e-01	 2.2351887148e+00	 8.9958382708e-01
 9.7492077064e-01	 2.2444677870e+00	 8.9749100409e-01
 9.5378216668e-01	 2.2535318330e+00	 8.9638599859e-01
 9.3259819454e-01	 2.2623807746e+00	 8.9649044268e-01
 9.1137200309e-01	 2.2710145930e+00	 8.9802585804e-01
 8.9010672924e-01	 2.2794333281e+00	 9.0121566044e-01
 8.6880549659e-01	 2.2876370783e+00	 9.0628689407e-01
 8.4747141419e-01	 2.2956259995e+00	 9.1347171578e-01
 1.0627762972e+00	 2.2140170689e+00	 9.0787983076e-01
 1.0417753994e+00	 2.2239759263e+00	 9.0348393440e-01
 1.0207162359e+00	 2.2337195806e+00	 8.9955323510e-01
 9.9960200140e-01	 2.2432477715e+00	 8.9640179619e-01
 9.7843588405e-01	 2.2525602997e+00	 8.9423359088e-01
 9.5722106406e-01	 2.2616570266e+00	 8.9324839742e-01
 9.3596071231e-01	 2.2705378734e+00	 8.9364439649e-01
 9.1465798904e-01	 2.2792028213e+00	 8.9562045415e-01
 8.9331604244e-01	 2.2876519105e+00	 8.9937811132e-01
 8.7193800740e-01	 2.2958852396e+00	 9.0512330091e-01
 8.5052700417e-01	 2.3039029651e+00	 9.1306781319e-01
 1.0665944377e+00	 2.2219711682e+00	 9.0874794625e-01
 1.0455180918e+00	 2.2319658039e+00	 9.0340030785e-01
 1.0243832710e+00	 2.2417444634e+00	 8.9886988155e-01
 1.0031931813e+00	 2.2513068854e+00	 8.9534520242e-01
 9.8195102236e-01	 2.2606528699e+00	 8.9300762398e-01
 9.6065998580e-01	 2.2697822777e+00	 8.9203431914e-01
 9.3932325391e-01	 2.2786950299e+00	 8.9260087524e-01
 9.1794399826e-01	 2.2873911076e+00	 8.9488357191e-01
 8.9652537837e-01	 2.2958705511e+00	 8.9906136365e-01
 8.7507054039e-01	 2.3041334593e+00	 9.0531758850e-01
 8.5358261579e-01	 2.3121799894e+00	 9.1384142462e-01
 1.0704126128e+00	 2.2299253397e+00	 9.1180086457e-01
 1.0492608182e+00	 2.2399557540e+00	 9.0560546042e-01
 1.0280503394e+00	 2.2497694189e+00	 9.0044712706e-01
 1.0067843938e+00	 2.2593660723e+00	 8.9649496436e-01
 9.8546619255e-01	 2.2687455134e+00	 8.9391017015e-01
 9.6409893872e-01	 2.2779076024e+00	 8.9284898000e-01
 9.4268582599e-01	 2.2868522604e+00	 8.9346526577e-01
 9.2123003728e-01	 2.2955794682e+00	 8.9591281530e-01
 8.9973474341e-01	 2.3040892662e+00	 9.0034731566e-01
 8.7820310180e-01	 2.3123817538e+00	 9.0692806237e-01
 8.5663825511e-01	 2.3204570887e+00	 9.1581941680e-01
 1.0742308301e+00	 2.2378795990e+00	 9.1712465048e-01
 1.0530035860e+00	 2.2479457923e+00	 9.1012229928e-01
 1.0317174483e+00	 2.2577944631e+00	 9.0433957212e-01
 1.0103756459e+00	 2.2674253482e+00	 8.9992946849e-01
 9.8898140158e-01	 2.2768382463e+00	 8.9703550330e-01
 9.6753792965e-01	 2.2860330170e+00	 8.9579465730e-01
 9.4604843524e-01	 2.2950095810e+00	 8.9633998489e-01
 9.2451611261e-01	 2.3037679192e+00	 8.9880290217e-01
 9.0294414392e-01	 2.3123080721e+00	 9.0331517866e-01
 8.8133569782e-01	 2.3206301395e+00	 9.1001065558e-01
 8.5969392821e-01	 2.3287342795e+00	 9.1902671377e-01
 1.0780490972e+00	 2.2458339620e+00	 9.2470167642e-01
 1.0567464026e+00	 2.2559359348e+00	 9.1697213842e-01
 1.0353846049e+00	 2.2658196119e+00	 9.1059974056e-01
 1.0139669449e+00	 2.2754847292e+00	 9.0572465298e-01
 9.9249665643e-01	 2.2849310847e+00	 9.0247518964e-01
 9.7097696541e-01	 2.2941585375e+00	 9.0097077391e-01
 9.4941108831e-01	 2.3031670080e+00	 9.0132456106e-01
 9.2780223078e-01	 2.3119564770e+00	 9.0364574129e-01
 9.0615358625e-01	 2.3205269851e+00	 9.0804154735e-01
 8.8446833467e-01	 2.3288786326e+00	 9.1461899040e-01
 8.6274964113e-01	 2.3370115782e+00	 9.2348634778e-01
 1.0818674217e+00	 2.2537884445e+00	 9.3451331698e-01
 1.0604892753e+00	 2.2639261973e+00	 9.2617477360e-01
 1.0390518167e+00	 2.2738448812e+00	 9.1927815970e-01
 1.0175582978e+00	 2.2835442313e+00	 9.1395409106e-01
 9.9601196407e-01	 2.2930240446e+00	 9.1031817232e-01
 9.7441605281e-01	 2.3022841800e+00	 9.0847398209e-01
 9.5277379189e-01	 2.3113245574e+00	 9.0851571556e-01
 9.3108839829e-01	 2.3201451577e+00	 9.1053050881e-01
 9.0936307679e-01	 2.3287460216e+00	 9.1460046965e-01
 8.8760101857e-01	 2.3371272496e+00	 9.2080443945e-01
 8.6580539994e-01	 2.3452890012e+00	 9.2921951001e-01
 8.3524914955e-01	 2.2625183949e+00	 9.2625427382e-01
 8.1419700195e-01	 2.2701792942e+00	 9.3301505908e-01
 7.9311856621e-01	 2.2776290086e+00	 9.4519412852e-01
 7.7201685366e-01	 2.2848678569e+00	 9.6249609299e-01
 7.5089485646e-01	 2.2918962120e+00	 9.8459805995e-01
 7.2975554654e-01	 2.2987145002e+00	 1.0106250811e+00
 7.0860187444e-01	 2.3053232003e+00	 1.0373433188e+00
 6.8743676824e-01	 2.3117228432e+00	 1.0640931000e+00
 6.6626313250e-01	 2.3179140106e+00	 1.0906387487e+00
 6.4508384729e-01	 2.3238973344e+00	 1.1167062250e+00
 6.2390176713e-01	 2.3296734959e+00	 1.1419852012e+00
 8.3830471354e-01	 2.2707952902e+00	 9.2144962670e-01
 8.1717555158e-01	 2.2784842151e+00	 9.2925694804e-01
 7.9602000531e-01	 2.2859611825e+00	 9.4219771383e-01
 7.7484109706e-01	 2.2932265125e+00	 9.5998566068e-01
 7.5364182997e-01	 2.3002805792e+00	 9.8230613103e-01
 7.3242518682e-01	 2.3071238104e+00	 1.0085169750e+00
 7.1119412895e-01	 2.3137566870e+00	 1.0354056989e+00
 6.8995159515e-01	 2.3201797415e+00	 1.0620423542e+00
 6.6870050062e-01	 2.3263935578e+00	 1.0882030837e+00
 6.4744373593e-01	 2.3323987702e+00	 1.1136234377e+00
 6.2618416607e-01	 2.3381960624e+00	 1.1380005495e+00
 8.4136027494e-01	 2.2790721784e+00	 9.1769457615e-01
 8.2015409868e-01	 2.2867891289e+00	 9.2649144503e-01
 7.9892144194e-01	 2.2942933494e+00	 9.4011119364e-01
 7.7766533807e-01	 2.3015851609e+00	 9.5827896173e-01
 7.5638880115e-01	 2.3086649392e+00	 9.8069119118e-01
 7.3509482484e-01	 2.3155331136e+00	 1.0068796809e+00
 7.1378638126e-01	 2.3221901665e+00	 1.0337935950e+00
 6.9246641992e-01	 2.3286366326e+00	 1.0601723312e+00
 6.7113786665e-01	 2.3348730978e+00	 1.0858088282e+00
 6.4980362257e-01	 2.3409001988e+00	 1.1104537363e+00
 6.2846656308e-01	 2.3467186217e+00	 1.1338176782e+00
 8.4441583981e-01	 2.2873490761e+00	 9.1502427191e-01
 8.2313264915e-01	 2.2950940522e+00	 9.2471962490e-01
 8.0182288185e-01	 2.3026255257e+00	 9.3890821512e-01
 7.8048958228e-01	 2.3099438189e+00	 9.5732882134e-01
 7.5913577544e-01	 2.3170493087e+00	 9.7969180298e-01
 7.3776446588e-01	 2.3239424262e+00	 1.0056432488e+00
 7.1637863651e-01	 2.3306236555e+00	 1.0324317209e+00
 6.9498124755e-01	 2.3370935332e+00	 1.0584086184e+00
 6.7357523546e-01	 2.3433526474e+00	 1.0833885688e+00
 6.5216351188e-01	 2.3494016370e+00	 1.1071427449e+00
 6.3074896268e-01	 2.3552411907e+00	 1.1294011973e+00
 8.4747141419e-01	 2.2956259995e+00	 9.1347171578e-01
 8.2611120891e-01	 2.3033990013e+00	 9.2394090473e-01
 8.0472433082e-01	 2.3109577280e+00	 9.3856116647e-01
 7.8331383529e-01	 2.3183025029e+00	 9.5708711413e-01
 7.6188275830e-01	 2.3254337044e+00	 9.7924579752e-01
 7.4043411524e-01	 2.3323517651e+00	 1.0047381526e+00
 7.1897089984e-01	 2.3390571709e+00	 1.0312454180e+00
 6.9749608302e-01	 2.3455504602e+00	 1.0566775410e+00
 6.7601261186e-01	 2.3518322235e+00	 1.0808756463e+00
 6.5452340855e-01	 2.3579031017e+00	 1.1036367652e+00
 6.3303136939e-01	 2.3637637862e+00	 1.1247162255e+00
 8.5052700417e-01	 2.3039029651e+00	 9.1306781319e-01
 8.2908978386e-01	 2.3117039928e+00	 9.2415308368e-01
 8.0762579458e-01	 2.3192899727e+00	 9.3904120678e-01
 7.8613810271e-01	 2.3266612295e+00	 9.5750478572e-01
 7.6462975516e-01	 2.3338181429e+00	 9.7929028936e-01
 7.4310377822e-01	 2.3407611469e+00	 1.0041197497e+00
 7.2156317639e-01	 2.3474907292e+00	 1.0301605923e+00
 7.0001093131e-01	 2.3540074304e+00	 1.0549061009e+00
 6.7845000069e-01	 2.3603118427e+00	 1.0782040987e+00
 6.5688331725e-01	 2.3664046098e+00	 1.0998827252e+00
 6.3531378774e-01	 2.3722864252e+00	 1.1197283466e+00
 8.5358261579e-01	 2.3121799894e+00	 9.1384142462e-01
 8.3206837992e-01	 2.3200090431e+00	 9.2535238293e-01
 8.1052727889e-01	 2.3276222765e+00	 9.4031829609e-01
 7.8896239013e-01	 2.3350200153e+00	 9.5853187470e-01
 7.6737677149e-01	 2.3422026407e+00	 9.7976169206e-01
 7.4577346011e-01	 2.3491705882e+00	 1.0037537917e+00
 7.2415547130e-01	 2.3559243474e+00	 1.0291036522e+00
 7.0252579742e-01	 2.3624644605e+00	 1.0530219171e+00
 6.8088740679e-01	 2.3687915221e+00	 1.0753086048e+00
 6.5924324268e-01	 2.3749061781e+00	 1.0958281276e+00
 6.3759622226e-01	 2.3808091246e+00	 1.1144035640e+00
 8.5663825511e-01	 2.3204570887e+00	 9.1581941680e-01
 8.3504700298e-01	 2.3283141687e+00	 9.2753348555e-01
 8.1342878952e-01	 2.3359546559e+00	 9.4236122573e-01
 7.9178670316e-01	 2.3433788770e+00	 9.6011753486e-01
 7.7012381272e-01	 2.3505872146e+00	 9.8059573400e-01
 7.4844316621e-01	 2.3575801058e+00	 1.0035690694e+00
 7.2674778972e-01	 2.3643580419e+00	 1.0280014467e+00
 7.0504068633e-01	 2.3709215672e+00	 1.0509531656e+00
 6.8332483499e-01	 2.3772712784e+00	 1.0721244282e+00
 6.6160318950e-01	 2.3834078235e+00	 1.0914210000e+00
 6.3987867747e-01	 2.3893319012e+00	 1.1087082578e+00
 8.5969392821e-01	 2.3287342795e+00	 9.1902671377e-01
 8.3802565895e-01	 2.3366193862e+00	 9.3068957656e-01
 8.1633033221e-01	 2.3442871273e+00	 9.4513764875e-01
 7.9461104741e-01	 2.3517378310e+00	 9.6221005784e-01
 7.7287088431e-01	 2.3589718811e+00	 9.8172747474e-01
 7.5111290181e-01	 2.3659897163e+00	 1.0034934938e+00
 7.2934013679e-01	 2.3727918297e+00	 1.0267812040e+00
 7.0755560303e-01	 2.3793787674e+00	 1.0486285209e+00
 6.8576229012e-01	 2.3857511283e+00	 1.0685873627e+00
 6.6396316239e-01	 2.3919095628e+00	 1.0866098439e+00
 6.4216115791e-01	 2.3978547720e+00	 1.1026091405e+00
 8.6274964113e-01	 2.3370115782e+00	 9.2348634778e-01
 8.4100435376e-01	 2.3449247118e+00	 9.3481238282e-01
 8.1923191271e-01	 2.3526197073e+00	 9.4861411062e-01
 7.9743542846e-01	 2.3600968939e+00	 9.6475689602e-01
 7.7561799170e-01	 2.3673566569e+00	 9.8309132168e-01
 7.5378267220e-01	 2.3743994365e+00	 1.0034544309e+00
 7.3193251764e-01	 2.3812257274e+00	 1.0253704711e+00
 7.1007055251e-01	 2.3878360779e+00	 1.0459770972e+00
 6.8819977702e-01	 2.3942310888e+00	 1.0646336767e+00
 6.6632316605e-01	 2.4004114129e+00	 1.0813435856e+00
 6.4444366809e-01	 2.4063777539e+00	 1.0960732138e+00
 8.6580539994e-01	 2.3452890012e+00	 9.2921951001e-01
 8.4398309329e-01	 2.3532301622e+00	 9.3989221313e-01
 8.2213353680e-01	 2.3609524125e+00	 9.5275608009e-01
 8.0025985193e-01	 2.3684560824e+00	 9.6770468574e-01
 7.7836514035e-01	 2.3757415586e+00	 9.8462104720e-01
 7.5645248269e-01	 2.3828092829e+00	 1.0033787138e+00
 7.3452493742e-01	 2.3896597517e+00	 1.0236970532e+00
 7.1258553976e-01	 2.3962935153e+00	 1.0429283908e+00
 6.9063730053e-01	 2.4027111766e+00	 1.0602000594e+00
 6.6868320514e-01	 2.4089133907e+00	 1.0755715264e+00
 6.4672621255e-01	 2.4149008638e+00	 1.0890677257e+00
 6.2390176713e-01	 2.3296734959e+00	 1.1419852012e+00
 6.0271972034e-01	 2.3352432252e+00	 1.1640740622e+00
 5.8154050900e-01	 2.3406073021e+00	 1.1810129005e+00
 5.6036690706e-01	 2.3457665534e+00	 1.1931358250e+00
 5.3920165923e-01	 2.3507218515e+00	 1.2007877686e+00
 5.1804748016e-01	 2.3554741136e+00	 1.2043249456e+00
 4.9690705358e-01	 2.3600243005e+00	 1.2041152695e+00
 4.7578303159e-01	 2.3643734159e+00	 1.2005387247e+00
 4.5467803390e-01	 2.3685225051e+00	 1.1939876892e+00
 4.3359464711e-01	 2.3724726541e+00	 1.1848672073e+00
 4.1253542408e-01	 2.3762249887e+00	 1.1735952100e+00
 6.2618416607e-01	 2.3381960624e+00	 1.1380005495e+00
 6.0492462972e-01	 2.3437861673e+00	 1.1592000283e+00
 5.8366793917e-01	 2.3491698675e+00	 1.1755281453e+00
 5.6241687855e-01	 2.3543479926e+00	 1.1873224597e+00
 5.4117420261e-01	 2.3593214186e+00	 1.1949301971e+00
 5.1994263591e-01	 2.3640910657e+00	 1.1987087618e+00
 4.9872487202e-01	 2.3686578984e+00	 1.1990262024e+00
 4.7752357273e-01	 2.3730229240e+00	 1.1962616260e+00
 4.5634136733e-01	 2.3771871917e+00	 1.1908055584e+00
 4.3518085189e-01	 2.3811517914e+00	 1.1830602465e+00
 4.1404458862e-01	 2.3849178530e+00	 1.1734399057e+00
 6.2846656308e-01	 2.3467186217e+00	 1.1338176782e+00
 6.0712953722e-01	 2.3523291022e+00	 1.1540398525e+00
 5.8579536754e-01	 2.3577324255e+00	 1.1696924028e+00
 5.6446684831e-01	 2.3629294246e+00	 1.1811125893e+00
 5.4314674432e-01	 2.3679209783e+00	 1.1886459877e+00
 5.2183779006e-01	 2.3727080104e+00	 1.1926470668e+00
 5.0054268891e-01	 2.3772914890e+00	 1.1934797120e+00
 4.7926411239e-01	 2.3816724248e+00	 1.1915176936e+00
 4.5800469934e-01	 2.3858518709e+00	 1.1871450715e+00
 4.3676705532e-01	 2.3898309212e+00	 1.1807565401e+00
 4.1555375187e-01	 2.3936107099e+00	 1.1727577092e+00
 6.3074896268e-01	 2.3552411907e+00	 1.1294011973e+00
 6.0933444722e-01	 2.3608720467e+00	 1.1485786120e+00
 5.8792279832e-01	 2.3662949932e+00	 1.1635083211e+00
 5.6651682039e-01	 2.3715108663e+00	 1.1745235792e+00
 5.4511928825e-01	 2.3765205478e+00	 1.1819644149e+00
 5.2373294635e-01	 2.3813249650e+00	 1.1861782836e+00
 5.0236050787e-01	 2.3859250893e+00	 1.1875206604e+00
 4.8100465402e-01	 2.3903219353e+00	 1.1863555705e+00
 4.5966803325e-01	 2.3945165599e+00	 1.1830560508e+00
 4.3835326056e-01	 2.3985100610e+00	 1.1780045442e+00
 4.1706291683e-01	 2.4023035767e+00	 1.1715932255e+00
 6.3303136939e-01	 2.3637637862e+00	 1.1247162255e+00
 6.1153936410e-01	 2.3694150178e+00	 1.1428016966e+00
 5.9005023573e-01	 2.3748575877e+00	 1.1569786992e+00
 5.6856679885e-01	 2.3800923347e+00	 1.1675728174e+00
 5.4709183834e-01	 2.3851201440e+00	 1.1749146800e+00
 5.2562810855e-01	 2.3899419463e+00	 1.1793406985e+00
 5.0417833249e-01	 2.3945587165e+00	 1.1811937397e+00
 4.8274520107e-01	 2.3989714728e+00	 1.1808237278e+00
 4.6133137233e-01	 2.4031812759e+00	 1.1785881727e+00
 4.3993947073e-01	 2.4071892278e+00	 1.1748526240e+00
 4.1857208649e-01	 2.4109964706e+00	 1.1699910500e+00
 6.3531378774e-01	 2.3722864252e+00	 1.1197283466e+00
 6.1374429222e-01	 2.3779580325e+00	 1.1366947713e+00
 5.9217768399e-01	 2.3834202258e+00	 1.1501064552e+00
 5.7061678778e-01	 2.3886738469e+00	 1.1602776884e+00
 5.4906439849e-01	 2.3937197842e+00	 1.1675258904e+00
 5.2752328041e-01	 2.3985589717e+00	 1.1721724446e+00
 5.0599616639e-01	 2.4031923878e+00	 1.1745434595e+00
 4.8448575701e-01	 2.4076210544e+00	 1.1749704535e+00
 4.6299471990e-01	 2.4118460362e+00	 1.1737909593e+00
 4.4152568900e-01	 2.4158684388e+00	 1.1713490464e+00
 4.2008126385e-01	 2.4196894088e+00	 1.1679957633e+00
 6.3759622226e-01	 2.3808091246e+00	 1.1144035640e+00
 6.1594923596e-01	 2.3865011078e+00	 1.1302437389e+00
 5.9430514733e-01	 2.3919829245e+00	 1.1428945962e+00
 5.7266679123e-01	 2.3972554198e+00	 1.1526555484e+00
 5.5103697261e-01	 2.4023194852e+00	 1.1598270395e+00
 5.2941846571e-01	 2.4071760580e+00	 1.1647114852e+00
 5.0781401316e-01	 2.4118261202e+00	 1.1676141338e+00
 4.8622632527e-01	 2.4162706973e+00	 1.1688438432e+00
 4.6465807926e-01	 2.4205108578e+00	 1.1687137705e+00
 4.4311191851e-01	 2.4245477113e+00	 1.1675419735e+00
 4.2159045190e-01	 2.4283824086e+00	 1.1656519241e+00
 6.3987867747e-01	 2.3893319012e+00	 1.1087082578e+00
 6.1815419969e-01	 2.3950442605e+00	 1.1234347031e+00
 5.9643262995e-01	 2.4005457009e+00	 1.1353461868e+00
 5.7471681326e-01	 2.4058370706e+00	 1.1447236998e+00
 5.5300956462e-01	 2.4109192643e+00	 1.1518469856e+00
 5.3131366818e-01	 2.4157932225e+00	 1.1569955974e+00
 5.0963187641e-01	 2.4204599309e+00	 1.1604498679e+00
 4.8796690932e-01	 2.4249204187e+00	 1.1624917889e+00
 4.6632145369e-01	 2.4291757579e+00	 1.1634057954e+00
 4.4469816239e-01	 2.4332270626e+00	 1.1634794551e+00
 4.2309965364e-01	 2.4370754872e+00	 1.1630040632e+00
 6.4216115791e-01	 2.3978547720e+00	 1.1026091405e+00
 6.2035918778e-01	 2.4035875076e+00	 1.1162539316e+00
 5.9856013608e-01	 2.4091085720e+00	 1.1274643191e+00
 5.7676685794e-01	 2.4144188162e+00	 1.1364993661e+00
 5.5498217842e-01	 2.4195191383e+00	 1.1436144320e+00
 5.3320889160e-01	 2.4244104823e+00	 1.1490623558e+00
 5.1144975975e-01	 2.4290938370e+00	 1.1530945455e+00
 4.8970751260e-01	 2.4335702356e+00	 1.1559619690e+00
 4.6798484651e-01	 2.4378407539e+00	 1.1579160436e+00
 4.4628442381e-01	 2.4419065097e+00	 1.1592094220e+00
 4.2460887205e-01	 2.4457686619e+00	 1.1600966769e+00
 6.4444366809e-01	 2.4063777539e+00	 1.0960732138e+00
 6.2256420462e-01	 2.4121308660e+00	 1.1086878197e+00
 6.0068766994e-01	 2.4176715546e+00	 1.1192520816e+00
 5.7881692935e-01	 2.4230006737e+00	 1.1279996666e+00
 5.5695481794e-01	 2.4281191245e+00	 1.1351579060e+00
 5.3510413971e-01	 2.4330278543e+00	 1.1409491157e+00
 5.1326766678e-01	 2.4377278557e+00	 1.1455918146e+00
 4.9144813856e-01	 2.4422201652e+00	 1.1493018373e+00
 4.6964826100e-01	 2.4465058627e+00	 1.1522933369e+00
 4.4787070589e-01	 2.4505860700e+00	 1.1547796782e+00
 4.2611811014e-01	 2.4544619498e+00	 1.1569742207e+00
 6.4672621255e-01	 2.4149008638e+00	 1.0890677257e+00
 6.2476925456e-01	 2.4206743528e+00	 1.1007228540e+00
 6.0281523574e-01	 2.4262346658e+00	 1.1107125295e+00
 5.8086703153e-01	 2.4315826600e+00	 1.1192415914e+00
 5.5892748707e-01	 2.4367192398e+00	 1.1265057387e+00
 5.3699941629e-01	 2.4416453558e+00	 1.1326929968e+00
 5.1508560111e-01	 2.4463620040e+00	 1.1379850754e+00
 4.9318879066e-01	 2.4508702248e+00	 1.1425586124e+00
 4.7131170048e-01	 2.4551711017e+00	 1.1465863001e+00
 4.4945701180e-01	 2.4592657606e+00	 1.1502378937e+00
 4.2762737088e-01	 2.4631553684e+00	 1.1536811020e+00
 4.1253542408e-01	 2.3762249887e+00	 1.1735952100e+00
 3.9149931087e-01	 2.3797812609e+00	 1.1625732357e+00
 3.7049237917e-01	 2.3831420173e+00	 1.1539136264e+00
 3.4951708351e-01	 2.3863084955e+00	 1.1469902889e+00
 3.2857584217e-01	 2.3892819685e+00	 1.1410911688e+00
 3.0767103664e-01	 2.3920637443e+00	 1.1360769298e+00
 2.8680501121e-01	 2.3946551640e+00	 1.1318078632e+00
 2.6598007245e-01	 2.3970576014e+00	 1.1281401289e+00
 2.4519848886e-01	 2.3992724614e+00	 1.1249224368e+00
 2.2446249046e-01	 2.4013011794e+00	 1.1219931205e+00
 2.0377426846e-01	 2.4031452201e+00	 1.1191775700e+00
 4.1404458862e-01	 2.3849178530e+00	 1.1734399057e+00
 3.9293151969e-01	 2.3884871350e+00	 1.1640597421e+00
 3.7184773904e-01	 2.3918601860e+00	 1.1567413928e+00
 3.5079571016e-01	 2.3950382479e+00	 1.1509084095e+00
 3.2977786017e-01	 2.3980225988e+00	 1.1457647289e+00
 3.0879657930e-01	 2.4008145510e+00	 1.1411777508e+00
 2.8785422038e-01	 2.4034154508e+00	 1.1370171767e+00
 2.6695309844e-01	 2.4058266769e+00	 1.1331484827e+00
 2.4609549028e-01	 2.4080496395e+00	 1.1294296644e+00
 2.2528363408e-01	 2.4100857791e+00	 1.1257083750e+00
 2.0451972904e-01	 2.4119365657e+00	 1.1218194230e+00
 4.1555375187e-01	 2.3936107099e+00	 1.1727577092e+00
 3.9436372730e-01	 2.3971930017e+00	 1.1649833465e+00
 3.7320309775e-01	 2.4005783472e+00	 1.1589739815e+00
 3.5207433572e-01	 2.4037679930e+00	 1.1542019052e+00
 3.3097987716e-01	 2.4067632215e+00	 1.1497927169e+00
 3.0992212099e-01	 2.4095653503e+00	 1.1456162470e+00
 2.8890342866e-01	 2.4121757302e+00	 1.1415527914e+00
 2.6792612361e-01	 2.4145957450e+00	 1.1374785505e+00
 2.4699249095e-01	 2.4168268101e+00	 1.1332624328e+00
 2.2610477700e-01	 2.4188703713e+00	 1.1287632553e+00
 2.0526518900e-01	 2.4207279040e+00	 1.1238273016e+00
 4.1706291683e-01	 2.4023035767e+00	 1.1715932255e+00
 3.9579593653e-01	 2.4058988783e+00	 1.1653850681e+00
 3.7455845801e-01	 2.4092965183e+00	 1.1606517974e+00
 3.5335296273e-01	 2.4124977479e+00	 1.1569132934e+00
 3.3218189550e-01	 2.4155038542e+00	 1.1532232841e+00
 3.1104766397e-01	 2.4183161594e+00	 1.1494492996e+00
 2.8995263813e-01	 2.4209360195e+00	 1.1454833784e+00
 2.6889914988e-01	 2.4233648231e+00	 1.1412138140e+00
 2.4788949262e-01	 2.4256039907e+00	 1.1365220158e+00
 2.2692592085e-01	 2.4276549735e+00	 1.1312797667e+00
 2.0601064979e-01	 2.4295192521e+00	 1.1253468401e+00
 4.1857208649e-01	 2.4109964706e+00	 1.1699910500e+00
 3.9722815022e-01	 2.4146047820e+00	 1.1653059873e+00
 3.7591382248e-01	 2.4180147166e+00	 1.1618153246e+00
 3.5463159372e-01	 2.4212275301e+00	 1.1590851121e+00
 3.3338391759e-01	 2.4242445142e+00	 1.1561044867e+00
 3.1217321045e-01	 2.4270669959e+00	 1.1527335351e+00
 2.9100185087e-01	 2.4296963361e+00	 1.1488771491e+00
 2.6987217919e-01	 2.4321339285e+00	 1.1444370465e+00
 2.4878649710e-01	 2.4343811987e+00	 1.1393086850e+00
 2.2774706725e-01	 2.4364396031e+00	 1.1333785751e+00
 2.0675611291e-01	 2.4383106277e+00	 1.1265219512e+00
 4.2008126385e-01	 2.4196894088e+00	 1.1679957633e+00
 3.9866037122e-01	 2.4233107301e+00	 1.1647872393e+00
 3.7726919388e-01	 2.4267329594e+00	 1.1625051223e+00
 3.5591023124e-01	 2.4299573567e+00	 1.1607599229e+00
 3.3458594582e-01	 2.4329852187e+00	 1.1584842913e+00
 3.1329876267e-01	 2.4358178770e+00	 1.1555253328e+00
 2.9205106896e-01	 2.4384566973e+00	 1.1518018676e+00
 2.7084521345e-01	 2.4409030786e+00	 1.1472303296e+00
 2.4968350615e-01	 2.4431584514e+00	 1.1417217327e+00
 2.2856821785e-01	 2.4452242775e+00	 1.1351790350e+00
 2.0750157984e-01	 2.4471020481e+00	 1.1274948612e+00
 4.2159045190e-01	 2.4283824086e+00	 1.1656519241e+00
 4.0009260236e-01	 2.4320167399e+00	 1.1638700091e+00
 3.7862457487e-01	 2.4354512639e+00	 1.1627618206e+00
 3.5718887781e-01	 2.4386872453e+00	 1.1619803144e+00
 3.3578798255e-01	 2.4417259852e+00	 1.1604105798e+00
 3.1442432287e-01	 2.4445688201e+00	 1.1578808340e+00
 2.9310029448e-01	 2.4472171207e+00	 1.1543248624e+00
 2.7181825461e-01	 2.4496722908e+00	 1.1496750694e+00
 2.5058052155e-01	 2.4519357663e+00	 1.1438594929e+00
 2.2938937426e-01	 2.4540090141e+00	 1.1367992171e+00
 2.0824705204e-01	 2.4558935309e+00	 1.1284061441e+00
 4.2309965364e-01	 2.4370754872e+00	 1.1630040632e+00
 4.0152484649e-01	 2.4407228286e+00	 1.1625955256e+00
 3.7997996815e-01	 2.4441696475e+00	 1.1626261166e+00
 3.5846753598e-01	 2.4474172129e+00	 1.1627889043e+00
 3.3699003019e-01	 2.4504668309e+00	 1.1619311547e+00
 3.1554989327e-01	 2.4533198425e+00	 1.1598559488e+00
 2.9414952952e-01	 2.4559776234e+00	 1.1565130379e+00
 2.7279130460e-01	 2.4584415825e+00	 1.1518520125e+00
 2.5147754509e-01	 2.4607131608e+00	 1.1458193622e+00
 2.3021053812e-01	 2.4627938304e+00	 1.1383559353e+00
 2.0899253100e-01	 2.4646850933e+00	 1.1293947553e+00
 4.2460887205e-01	 2.4457686619e+00	 1.1600966769e+00
 4.0295710645e-01	 2.4494290136e+00	 1.1610050562e+00
 3.8133537641e-01	 2.4528881274e+00	 1.1621387697e+00
 3.5974620828e-01	 2.4561472771e+00	 1.1632283426e+00
 3.3819209111e-01	 2.4592077732e+00	 1.1630937436e+00
 3.1667547611e-01	 2.4620709616e+00	 1.1615063644e+00
 2.9519877615e-01	 2.4647382230e+00	 1.1584328859e+00
 2.7376436533e-01	 2.4672109712e+00	 1.1538412616e+00
 2.5237457853e-01	 2.4694906523e+00	 1.1476978210e+00
 2.3103171105e-01	 2.4715787437e+00	 1.1399647728e+00
 2.0973801820e-01	 2.4734767528e+00	 1.1305980640e+00
 4.2611811014e-01	 2.4544619498e+00	 1.1569742207e+00
 4.0438938508e-01	 2.4581353120e+00	 1.1591399003e+00
 3.8269080233e-01	 2.4616067209e+00	 1.1613405974e+00
 3.6102489724e-01	 2.4648774550e+00	 1.1633413141e+00
 3.3939416770e-01	 2.4679488294e+00	 1.1639460040e+00
 3.1780107362e-01	 2.4708221948e+00	 1.1628875523e+00
 2.9624803646e-01	 2.4734989368e+00	 1.1601504962e+00
 2.7473743875e-01	 2.4759804741e+00	 1.1557222905e+00
 2.5327162367e-01	 2.4782682582e+00	 1.1495904528e+00
 2.3185289468e-01	 2.4803637715e+00	 1.1417401076e+00
 2.1048351511e-01	 2.4822685270e+00	 1.1321518849e+00
 4.2762737088e-01	 2.4631553684e+00	 1.1536811020e+00
 4.0582168521e-01	 2.4668417411e+00	 1.1570413841e+00
 3.8404624861e-01	 2.4703254454e+00	 1.1602724708e+00
 3.6230360541e-01	 2.4736077640e+00	 1.1631705406e+00
 3.4059626234e-01	 2.4766900169e+00	 1.1645355275e+00
 3.1892668803e-01	 2.4795735594e+00	 1.1640547755e+00
 2.9729731252e-01	 2.4822597821e+00	 1.1617315672e+00
 2.7571052678e-01	 2.4847501087e+00	 1.1575739589e+00
 2.5416868228e-01	 2.4870459959e+00	 1.1515919644e+00
 2.3267409065e-01	 2.4891489313e+00	 1.1437951379e+00
 2.1122902322e-01	 2.4910604332e+00	 1.1341905102e+00
 2.0377426846e-01	 2.4031452201e+00	 1.1191775700e+00
 1.8313947057e-01	 2.4048058091e+00	 1.1147888235e+00
 1.6255664758e-01	 2.4062847945e+00	 1.1071851387e+00
 1.4202782445e-01	 2.4075837209e+00	 1.0962718452e+00
 1.2155498752e-01	 2.4087041578e+00	 1.0819811251e+00
 1.0114008431e-01	 2.4096476990e+00	 1.0642694604e+00
 8.0785023340e-02	 2.4104159608e+00	 1.0431152309e+00
 6.0491674005e-02	 2.4110105817e+00	 1.0185164412e+00
 4.0261866415e-02	 2.4114332208e+00	 9.9048855422e-01
 2.0097391313e-02	 2.4116855573e+00	 9.5906241483e-01
 0.0000000000e+00	 2.4117692892e+00	 9.2428224467e-01
 2.0451972904e-01	 2.4119365657e+00	 1.1218194230e+00
 1.8380944356e-01	 2.4136032297e+00	 1.1163855452e+00
 1.6315132313e-01	 2.4150876256e+00	 1.1080556414e+00
 1.4254740009e-01	 2.4163913038e+00	 1.0967166254e+00
 1.2199966806e-01	 2.4175158396e+00	 1.0822823683e+00
 1.0151008169e-01	 2.4184628325e+00	 1.0646912411e+00
 8.1080556488e-02	 2.4192339048e+00	 1.0439038031e+00
 6.0712968673e-02	 2.4198307010e+00	 1.0199006139e+00
 4.0409155054e-02	 2.4202548862e+00	 9.9268014802e-01
 2.0170912927e-02	 2.4205081459e+00	 9.6225679282e-01
 0.0000000000e+00	 2.4205921840e+00	 9.2865891199e-01
 2.0526518900e-01	 2.4207279040e+00	 1.1238273016e+00
 1.8447941599e-01	 2.4224006428e+00	 1.1173817346e+00
 1.6374599816e-01	 2.4238904492e+00	 1.1083661886e+00
 1.4306697529e-01	 2.4251988792e+00	 1.0966583087e+00
 1.2244434823e-01	 2.4263275139e+00	 1.0821613603e+00
 1.0188007876e-01	 2.4272779585e+00	 1.0648018933e+00
 8.1376089384e-02	 2.4280518413e+00	 1.0445275495e+00
 6.0934263151e-02	 2.4286508127e+00	 1.0213049901e+00
 4.0556443568e-02	 2.4290765441e+00	 9.9511792039e-01
 2.0244434479e-02	 2.4293307269e+00	 9.6596519359e-01
 0.0000000000e+00	 2.4294150713e+00	 9.3385897451e-01
 2.0601064979e-01	 2.4295192521e+00	 1.1253468401e+00
 1.8514938917e-01	 2.4311980659e+00	 1.1179398166e+00
 1.6434067388e-01	 2.4326932828e+00	 1.1082794115e+00
 1.4358655107e-01	 2.4340064646e+00	 1.0962430849e+00
 1.2288902890e-01	 2.4351391981e+00	 1.0817311482e+00
 1.0225007625e-01	 2.4360930945e+00	 1.0646645780e+00
 8.1671622614e-02	 2.4368697878e+00	 1.0449829712e+00
 6.1155557880e-02	 2.4374709345e+00	 1.0226426161e+00
 4.0703732248e-02	 2.4378982120e+00	 9.9761465837e-01
 2.0317956114e-02	 2.4381533179e+00	 9.6988334081e-01
 0.0000000000e+00	 2.4382379687e+00	 9.3944429921e-01
 2.0675611291e-01	 2.4383106277e+00	 1.1265219512e+00
 1.8581936445e-01	 2.4399955163e+00	 1.1182202082e+00
 1.6493535144e-01	 2.4414961438e+00	 1.1079558828e+00
 1.4410612847e-01	 2.4428140775e+00	 1.0956152699e+00
 1.2333371095e-01	 2.4439509099e+00	 1.0811033262e+00
 1.0262007490e-01	 2.4449082579e+00	 1.0643416612e+00
 8.1967156765e-02	 2.4456877618e+00	 1.0452666677e+00
 6.1376853298e-02	 2.4462910838e+00	 1.0238277664e+00
 4.0851021386e-02	 2.4467199074e+00	 9.9998574251e-01
 2.0391477977e-02	 2.4469759364e+00	 9.7371115249e-01
 0.0000000000e+00	 2.4470608935e+00	 9.4498278319e-01
 2.0750157984e-01	 2.4471020481e+00	 1.1274948612e+00
 1.8648934314e-01	 2.4487930117e+00	 1.1183813587e+00
 1.6553003204e-01	 2.4502990498e+00	 1.1075541575e+00
 1.4462570852e-01	 2.4516217353e+00	 1.0949173436e+00
 1.2377839527e-01	 2.4527626665e+00	 1.0803880659e+00
 1.0299007542e-01	 2.4537234664e+00	 1.0638947311e+00
 8.2262692423e-02	 2.4545057808e+00	 1.0453753377e+00
 6.1598149844e-02	 2.4551112780e+00	 1.0247759234e+00
 4.0998311275e-02	 2.4555416478e+00	 1.0020491015e+00
 2.0465000216e-02	 2.4557985999e+00	 9.7715266607e-01
 0.0000000000e+00	 2.4558838633e+00	 9.5004824490e-01
 2.0824705204e-01	 2.4558935309e+00	 1.1284061441e+00
 1.8715932657e-01	 2.4575905694e+00	 1.1185797888e+00
 1.6612471684e-01	 2.4591020180e+00	 1.1072308125e+00
 1.4514529225e-01	 2.4604294554e+00	 1.0942899860e+00
 1.2422308274e-01	 2.4615744856e+00	 1.0796941447e+00
 1.0336007857e-01	 2.4625387372e+00	 1.0633846150e+00
 8.2558230173e-02	 2.4633238622e+00	 1.0453057800e+00
 6.1819447957e-02	 2.4639315348e+00	 1.0254037576e+00
 4.1145602207e-02	 2.4643634507e+00	 1.0036251678e+00
 2.0538522974e-02	 2.4646213259e+00	 9.7991596510e-01
 0.0000000000e+00	 2.4647068957e+00	 9.5422031765e-01
 2.0899253100e-01	 2.4646850933e+00	 1.1293947553e+00
 1.8782931608e-01	 2.4663882068e+00	 1.1189701289e+00
 1.6671940704e-01	 2.4679050661e+00	 1.1071404860e+00
 1.4566488070e-01	 2.4692372555e+00	 1.0938721127e+00
 1.2466777424e-01	 2.4703863846e+00	 1.0791289735e+00
 1.0373008508e-01	 2.4713540880e+00	 1.0628713956e+00
 8.2853770602e-02	 2.4721420236e+00	 1.0450548937e+00
 6.2040748075e-02	 2.4727518715e+00	 1.0256291086e+00
 4.1292894474e-02	 2.4731853336e+00	 1.0045368341e+00
 2.0612046399e-02	 2.4734441320e+00	 9.8171310756e-01
 0.0000000000e+00	 2.4735300080e+00	 9.5708434550e-01
 2.0973801820e-01	 2.4734767528e+00	 1.1305980640e+00
 1.8849931299e-01	 2.4751859415e+00	 1.1197051567e+00
 1.6731410382e-01	 2.4767082115e+00	 1.1074359153e+00
 1.4618447488e-01	 2.4780451528e+00	 1.0938009102e+00
 1.2511247065e-01	 2.4791983810e+00	 1.0787986252e+00
 1.0410009566e-01	 2.4801695363e+00	 1.0624144274e+00
 8.3149314295e-02	 2.4809602824e+00	 1.0446196792e+00
 6.2262050637e-02	 2.4815723057e+00	 1.0253709660e+00
 4.1440188367e-02	 2.4820073140e+00	 1.0046094110e+00
 2.0685570636e-02	 2.4822670355e+00	 9.8226005570e-01
 0.0000000000e+00	 2.4823532178e+00	 9.5823128144e-01
 2.1048351511e-01	 2.4822685270e+00	 1.1321518849e+00
 1.8916931864e-01	 2.4839837908e+00	 1.1209358332e+00
 1.6790880834e-01	 2.4855114716e+00	 1.1082679746e+00
 1.4670407583e-01	 2.4868531650e+00	 1.0942118696e+00
 1.2555717286e-01	 2.4880104922e+00	 1.0788078605e+00
 1.0447011108e-01	 2.4889850994e+00	 1.0620723519e+00
 8.3444861838e-02	 2.4897786561e+00	 1.0439972389e+00
 6.2483356083e-02	 2.4903928548e+00	 1.0245494508e+00
 4.1587484179e-02	 2.4908294093e+00	 1.0036705855e+00
 2.0759095830e-02	 2.4910900540e+00	 9.8127660748e-01
 0.0000000000e+00	 2.4911765427e+00	 9.5725758772e-01
 2.1122902322e-01	 2.4910604332e+00	 1.1341905102e+00
 1.8983933434e-01	 2.4927817722e+00	 1.1228113393e+00
 1.6850352179e-01	 2.4943148639e+00	 1.1097857109e+00
 1.4722368459e-01	 2.4956613094e+00	 1.0952388204e+00
 1.2600188175e-01	 2.4968227358e+00	 1.0792601550e+00
 1.0484013204e-01	 2.4978007949e+00	 1.0619031138e+00
 8.3740413818e-02	 2.4985971623e+00	 1.0431847773e+00
 6.2704664850e-02	 2.4992135364e+00	 1.0230857976e+00
 4.1734782201e-02	 2.4996516371e+00	 1.0015503800e+00
 2.0832622128e-02	 2.4999132050e+00	 9.7848632940e-01
 0.0000000000e+00	 2.5000000000e+00	 9.5376513834e-01
