x	y	stress_xx
 4.3301270189e+00	 2.5000000000e+00	 5.6919231149e-02
 4.3301270189e+00	 2.5000000000e+00	-4.9013143680e+14
 4.3301270189e+00	 2.5000000000e+00	-1.4068849615e+15
 4.3301270189e+00	 2.5000000000e+00	 5.6919231149e-02
 4.3301270189e+00	 2.5000000000e+00	-7.2384480288e+14
 4.3301270189e+00	 2.5000000000e+00	 5.6919231149e-02
 4.3387872730e+00	 2.5050000000e+00	 3.5477905421e+00
 4.3377872730e+00	 2.5067320508e+00	 2.1464604062e+00
 4.3367872730e+00	 2.5084641016e+00	 9.2987259931e-01
 4.3357872730e+00	 2.5101961524e+00	-1.0197287861e-01
 4.3347872730e+00	 2.5119282032e+00	-9.4907602756e-01
 4.3337872730e+00	 2.5136602540e+00	-1.6114368475e+00
 4.3647680351e+00	 2.5200000000e+00	 1.6321537601e+00
 4.3607680351e+00	 2.5269282032e+00	 9.3621333621e-01
 4.3567680351e+00	 2.5338564065e+00	 3.3318042358e-01
 4.3527680351e+00	 2.5407846097e+00	-1.7694497781e-01
 4.3487680351e+00	 2.5477128129e+00	-5.9416286794e-01
 4.3447680351e+00	 2.5546410162e+00	-9.1847324683e-01
 4.4080693053e+00	 2.5450000000e+00	 9.9557615362e-01
 4.3990693053e+00	 2.5605884573e+00	 5.3176057484e-01
 4.3900693053e+00	 2.5761769145e+00	 1.3126572428e-01
 4.3810693053e+00	 2.5917653718e+00	-2.0590839806e-01
 4.3720693053e+00	 2.6073538291e+00	-4.7976179219e-01
 4.3630693053e+00	 2.6229422863e+00	-6.9029445809e-01
 4.4686910835e+00	 2.5800000000e+00	 6.7759313313e-01
 4.4526910835e+00	 2.6077128129e+00	 3.2929401046e-01
 4.4366910835e+00	 2.6354256258e+00	 2.9714326090e-02
 4.4206910835e+00	 2.6631384388e+00	-2.2114591999e-01
 4.4046910835e+00	 2.6908512517e+00	-4.2328672777e-01
 4.3886910835e+00	 2.7185640646e+00	-5.7670809727e-01
 4.5466333699e+00	 2.6250000000e+00	 4.8684288900e-01
 4.5216333699e+00	 2.6683012702e+00	 2.0769545415e-01
 4.4966333699e+00	 2.7116025404e+00	-3.1431931553e-02
 4.4716333699e+00	 2.7549038106e+00	-2.3053926810e-01
 4.4466333699e+00	 2.7982050808e+00	-3.8962655549e-01
 4.4216333699e+00	 2.8415063509e+00	-5.0869379374e-01
 4.5466333699e+00	 2.6250000000e+00	 4.8684288900e-01
 4.5216333699e+00	 2.6683012702e+00	 2.0769545415e-01
 4.4966333699e+00	 2.7116025404e+00	-3.1431931553e-02
 4.4716333699e+00	 2.7549038106e+00	-2.3053926810e-01
 4.4466333699e+00	 2.7982050808e+00	-3.8962655549e-01
 4.4216333699e+00	 2.8415063509e+00	-5.0869379374e-01
 4.6418961643e+00	 2.6800000000e+00	 3.8826394655e-01
 4.6058961643e+00	 2.7423538291e+00	 1.6311202623e-01
 4.5698961643e+00	 2.8047076581e+00	-2.4226590802e-02
 4.5338961643e+00	 2.8670614872e+00	-1.7375190455e-01
 4.4978961643e+00	 2.9294153163e+00	-2.8546391503e-01
 4.4618961643e+00	 2.9917691454e+00	-3.5936262222e-01
 4.7544794668e+00	 2.7450000000e+00	 3.1623438215e-01
 4.7054794668e+00	 2.8298704896e+00	 1.2418974739e-01
 4.6564794668e+00	 2.9147409791e+00	-3.3789653453e-02
 4.6074794668e+00	 2.9996114687e+00	-1.5770382039e-01
 4.5584794668e+00	 3.0844819583e+00	-2.4755275341e-01
 4.5094794668e+00	 3.1693524479e+00	-3.0333645253e-01
 4.8843832773e+00	 2.8200000000e+00	 2.6128020449e-01
 4.8203832773e+00	 2.9308512517e+00	 9.1094687059e-02
 4.7563832773e+00	 3.0417025034e+00	-4.9024574244e-02
 4.6923832773e+00	 3.1525537551e+00	-1.5907757942e-01
 4.6283832773e+00	 3.2634050067e+00	-2.3906432848e-01
 4.5643832773e+00	 3.3742562584e+00	-2.8898482140e-01
 5.0316075960e+00	 2.9050000000e+00	 2.1793925826e-01
 4.9506075960e+00	 3.0452961154e+00	 6.3009574944e-02
 4.8696075960e+00	 3.1855922308e+00	-6.5668378612e-02
 4.7886075960e+00	 3.3258883462e+00	-1.6809460240e-01
 4.7076075960e+00	 3.4661844617e+00	-2.4426909643e-01
 4.6266075960e+00	 3.6064805771e+00	-2.9419186069e-01
 5.1961524227e+00	 3.0000000000e+00	 1.8284389873e-01
 5.0961524227e+00	 3.1732050808e+00	 3.9034340787e-02
 4.9961524227e+00	 3.3464101615e+00	-8.2019059947e-02
 4.8961524227e+00	 3.5196152423e+00	-1.8031630348e-01
 4.7961524227e+00	 3.6928203230e+00	-2.5585738980e-01
 4.6961524227e+00	 3.8660254038e+00	-3.0864231892e-01
 4.3301270189e+00	 2.5000000000e+00	 5.6919231149e-02
 4.3301270189e+00	 2.5000000000e+00	-1.8978010572e+15
 4.3301270189e+00	 2.5000000000e+00	-2.0271196690e+15
 4.3301270189e+00	 2.5000000000e+00	 5.6919231149e-02
 4.3301270189e+00	 2.5000000000e+00	-1.5902298576e+15
 4.3301270189e+00	 2.5000000000e+00	 5.6919231149e-02
 4.3337872730e+00	 2.5136602540e+00	-2.8900823100e+00
 4.3320552222e+00	 2.5126602540e+00	-1.3060078344e+00
 4.3303231713e+00	 2.5116602540e+00	-3.1865052572e-01
 4.3285911205e+00	 2.5106602540e+00	 7.1989615961e-02
 4.3268590697e+00	 2.5096602540e+00	-1.3408740935e-01
 4.3251270189e+00	 2.5086602540e+00	-9.3688160165e-01
 4.3447680351e+00	 2.5546410162e+00	-1.5295076462e+00
 4.3378398318e+00	 2.5506410162e+00	-7.3661313187e-01
 4.3309116286e+00	 2.5466410162e+00	-2.4394490308e-01
 4.3239834254e+00	 2.5426410162e+00	-5.1502959793e-02
 4.3170552222e+00	 2.5386410162e+00	-1.5928730201e-01
 4.3101270189e+00	 2.5346410162e+00	-5.6729792973e-01
 4.3630693053e+00	 2.6229422863e+00	-1.0284743900e+00
 4.3474808480e+00	 2.6139422863e+00	-5.1596479599e-01
 4.3318923907e+00	 2.6049422863e+00	-2.0205926619e-01
 4.3163039335e+00	 2.5959422863e+00	-8.6757800615e-02
 4.3007154762e+00	 2.5869422863e+00	-1.7006039927e-01
 4.2851270189e+00	 2.5779422863e+00	-4.5196706214e-01
 4.3886910835e+00	 2.7185640646e+00	-7.6902627429e-01
 4.3609782706e+00	 2.7025640646e+00	-3.9982072577e-01
 4.3332654577e+00	 2.6865640646e+00	-1.7788481545e-01
 4.3055526448e+00	 2.6705640646e+00	-1.0321854334e-01
 4.2778398318e+00	 2.6545640646e+00	-1.7582190943e-01
 4.2501270189e+00	 2.6385640646e+00	-3.9569491372e-01
 4.4216333699e+00	 2.8415063509e+00	-6.1047587104e-01
 4.3783320997e+00	 2.8165063509e+00	-3.2823813750e-01
 4.3350308295e+00	 2.7915063509e+00	-1.6230221019e-01
 4.2917295593e+00	 2.7665063509e+00	-1.1266808913e-01
 4.2484282891e+00	 2.7415063509e+00	-1.7933577431e-01
 4.2051270189e+00	 2.7165063509e+00	-3.6230526574e-01
 4.4216333699e+00	 2.8415063509e+00	-6.1047587104e-01
 4.3783320997e+00	 2.8165063509e+00	-3.2823813750e-01
 4.3350308295e+00	 2.7915063509e+00	-1.6230221019e-01
 4.2917295593e+00	 2.7665063509e+00	-1.1266808913e-01
 4.2484282891e+00	 2.7415063509e+00	-1.7933577431e-01
 4.2051270189e+00	 2.7165063509e+00	-3.6230526574e-01
 4.4618961643e+00	 2.9917691454e+00	-5.4314837633e-01
 4.3995423352e+00	 2.9557691454e+00	-3.1068009467e-01
 4.3371885061e+00	 2.9197691454e+00	-1.7250833759e-01
 4.2748346771e+00	 2.8837691454e+00	-1.2863310509e-01
 4.2124808480e+00	 2.8477691454e+00	-1.7905439718e-01
 4.1501270189e+00	 2.8117691454e+00	-3.2377221385e-01
 4.5094794668e+00	 3.1693524479e+00	-4.8209390253e-01
 4.4246089772e+00	 3.1203524479e+00	-2.7776722455e-01
 4.3397384876e+00	 3.0713524479e+00	-1.5277593456e-01
 4.2548679981e+00	 3.0223524479e+00	-1.0712003257e-01
 4.1699975085e+00	 2.9733524479e+00	-1.4079951857e-01
 4.0851270189e+00	 2.9243524479e+00	-2.5381439257e-01
 4.5643832773e+00	 3.3742562584e+00	-4.2918850326e-01
 4.4535320257e+00	 3.3102562584e+00	-2.4191033604e-01
 4.3426807740e+00	 3.2462562584e+00	-1.2316132880e-01
 4.2318295223e+00	 3.1822562584e+00	-7.2941481540e-02
 4.1209782706e+00	 3.1182562584e+00	-9.1250794253e-02
 4.0101270189e+00	 3.0542562584e+00	-1.7808926694e-01
 4.6266075960e+00	 3.6064805771e+00	-3.8379740284e-01
 4.4863114806e+00	 3.5254805771e+00	-2.0736920503e-01
 4.3460153652e+00	 3.4444805771e+00	-9.1311851754e-02
 4.2057192497e+00	 3.3634805771e+00	-3.5625343022e-02
 4.0654231343e+00	 3.2824805771e+00	-4.0309678832e-02
 3.9251270189e+00	 3.2014805771e+00	-1.0536485918e-01
 4.6961524227e+00	 3.8660254038e+00	-3.4478386768e-01
 4.5229473419e+00	 3.7660254038e+00	-1.7551284283e-01
 4.3497422612e+00	 3.6660254038e+00	-6.0242293374e-02
 4.1765371804e+00	 3.5660254038e+00	 1.0277806824e-03
 4.0033320997e+00	 3.4660254038e+00	 8.2973793392e-03
 3.8301270189e+00	 3.3660254038e+00	-3.8433497403e-02
 4.3301270189e+00	 2.5000000000e+00	 5.6919231149e-02
 4.3301270189e+00	 2.5000000000e+00	-3.1951915817e+15
 4.3301270189e+00	 2.5000000000e+00	-1.6507128954e+15
 4.3301270189e+00	 2.5000000000e+00	 5.6919231149e-02
 4.3301270189e+00	 2.5000000000e+00	-2.7704198266e+15
 4.3301270189e+00	 2.5000000000e+00	 5.6919231149e-02
 4.3251270189e+00	 2.5086602540e+00	 1.7206552259e+00
 4.3233949681e+00	 2.5076602540e+00	 3.0851165709e-01
 4.3216629173e+00	 2.5066602540e+00	-8.6400338568e-01
 4.3199308665e+00	 2.5056602540e+00	-1.7968899024e+00
 4.3181988157e+00	 2.5046602540e+00	-2.4901478929e+00
 4.3164667649e+00	 2.5036602540e+00	-2.9437773574e+00
 4.3101270189e+00	 2.5346410162e+00	 7.7974261661e-01
 4.3031988157e+00	 2.5306410162e+00	 6.3070831734e-02
 4.2962706125e+00	 2.5266410162e+00	-5.2689886311e-01
 4.2893424092e+00	 2.5226410162e+00	-9.9016646793e-01
 4.2824142060e+00	 2.5186410162e+00	-1.3267319827e+00
 4.2754860028e+00	 2.5146410162e+00	-1.5365954075e+00
 4.2851270189e+00	 2.5779422863e+00	 4.7559490392e-01
 4.2695385617e+00	 2.5689422863e+00	 3.2247285805e-03
 4.2539501044e+00	 2.5599422863e+00	-3.8389764531e-01
 4.2383616471e+00	 2.5509422863e+00	-6.8577221774e-01
 4.2227731898e+00	 2.5419422863e+00	-9.0239898872e-01
 4.2071847326e+00	 2.5329422863e+00	-1.0337779582e+00
 4.2501270189e+00	 2.6385640646e+00	 3.2538154599e-01
 4.2224142060e+00	 2.6225640646e+00	-2.2487274783e-02
 4.1947013931e+00	 2.6065640646e+00	-3.0655038625e-01
 4.1669885802e+00	 2.5905640646e+00	-5.2680778842e-01
 4.1392757672e+00	 2.5745640646e+00	-6.8325948129e-01
 4.1115629543e+00	 2.5585640646e+00	-7.7590546486e-01
 4.2051270189e+00	 2.7165063509e+00	 2.3592110097e-01
 4.1618257487e+00	 2.6915063509e+00	-3.6485834337e-02
 4.1185244785e+00	 2.6665063509e+00	-2.5818138352e-01
 4.0752232084e+00	 2.6415063509e+00	-4.2916554659e-01
 4.0319219382e+00	 2.6165063509e+00	-5.4943832354e-01
 3.9886206680e+00	 2.5915063509e+00	-6.1899971437e-01
 4.2051270189e+00	 2.7165063509e+00	 2.3592110097e-01
 4.1618257487e+00	 2.6915063509e+00	-3.6485834337e-02
 4.1185244785e+00	 2.6665063509e+00	-2.5818138352e-01
 4.0752232084e+00	 2.6415063509e+00	-4.2916554659e-01
 4.0319219382e+00	 2.6165063509e+00	-5.4943832354e-01
 3.9886206680e+00	 2.5915063509e+00	-6.1899971437e-01
 4.1501270189e+00	 2.8117691454e+00	 1.7058786182e-01
 4.0877731898e+00	 2.7757691454e+00	-5.2851279974e-02
 4.0254193608e+00	 2.7397691454e+00	-2.3517994749e-01
 3.9630655317e+00	 2.7037691454e+00	-3.7639814074e-01
 3.9007117026e+00	 2.6677691454e+00	-4.7650585972e-01
 3.8383578736e+00	 2.6317691454e+00	-5.3550310442e-01
 4.0851270189e+00	 2.9243524479e+00	 1.3913931389e-01
 4.0002565294e+00	 2.8753524479e+00	-5.3419307750e-02
 3.9153860398e+00	 2.8263524479e+00	-2.1129794232e-01
 3.8305155502e+00	 2.7773524479e+00	-3.3449658983e-01
 3.7456450606e+00	 2.7283524479e+00	-4.2301525026e-01
 3.6607745711e+00	 2.6793524479e+00	-4.7685392364e-01
 4.0101270189e+00	 3.0542562584e+00	 1.2392582439e-01
 3.8992757672e+00	 2.9902562584e+00	-4.7709641868e-02
 3.7884245156e+00	 2.9262562584e+00	-1.8925498581e-01
 3.6775732639e+00	 2.8622562584e+00	-3.0071020743e-01
 3.5667220122e+00	 2.7982562584e+00	-3.8207530673e-01
 3.4558707605e+00	 2.7342562584e+00	-4.3335028371e-01
 3.9251270189e+00	 3.2014805771e+00	 1.1710014589e-01
 3.7848309035e+00	 3.1204805771e+00	-3.9586224714e-02
 3.6445347881e+00	 3.0394805771e+00	-1.6961511856e-01
 3.5042386727e+00	 2.9584805771e+00	-2.7298653564e-01
 3.3639425573e+00	 2.8774805771e+00	-3.4970047596e-01
 3.2236464419e+00	 2.7964805771e+00	-3.9975693953e-01
 3.8301270189e+00	 3.3660254038e+00	 1.1483480572e-01
 3.6569219382e+00	 3.2660254038e+00	-3.0727042215e-02
 3.4837168574e+00	 3.1660254038e+00	-1.5229203302e-01
 3.3105117767e+00	 3.0660254038e+00	-2.4986016668e-01
 3.1373066959e+00	 2.9660254038e+00	-3.2343144322e-01
 2.9641016151e+00	 2.8660254038e+00	-3.7300586261e-01
 4.3301270189e+00	 2.5000000000e+00	 5.6919231149e-02
 4.3301270189e+00	 2.5000000000e+00	-4.0562035694e+15
 4.3301270189e+00	 2.5000000000e+00	-8.9343387473e+14
 4.3301270189e+00	 2.5000000000e+00	 5.6919231149e-02
 4.3301270189e+00	 2.5000000000e+00	-2.4479595225e+15
 4.3301270189e+00	 2.5000000000e+00	 5.6919231149e-02
 4.3164667649e+00	 2.5036602540e+00	-2.6465745231e+00
 4.3174667649e+00	 2.5019282032e+00	-4.2139114410e+00
 4.3184667649e+00	 2.5001961524e+00	-5.8437727701e+00
 4.3194667649e+00	 2.4984641016e+00	-7.5361585104e+00
 4.3204667649e+00	 2.4967320508e+00	-9.2910686619e+00
 4.3214667649e+00	 2.4950000000e+00	-1.1108503225e+01
 4.2754860028e+00	 2.5146410162e+00	-1.4092049620e+00
 4.2794860028e+00	 2.5077128129e+00	-2.1874399376e+00
 4.2834860028e+00	 2.5007846097e+00	-2.9987472399e+00
 4.2874860028e+00	 2.4938564065e+00	-3.8431268690e+00
 4.2914860028e+00	 2.4869282032e+00	-4.7205788249e+00
 4.2954860028e+00	 2.4800000000e+00	-5.6311031075e+00
 4.2071847326e+00	 2.5329422863e+00	-1.0032567444e+00
 4.2161847326e+00	 2.5173538291e+00	-1.5210278406e+00
 4.2251847326e+00	 2.5017653718e+00	-2.0598823300e+00
 4.2341847326e+00	 2.4861769145e+00	-2.6198202126e+00
 4.2431847326e+00	 2.4705884573e+00	-3.2008414885e+00
 4.2521847326e+00	 2.4550000000e+00	-3.8029461576e+00
 4.1115629543e+00	 2.5585640646e+00	-8.0136857352e-01
 4.1275629543e+00	 2.5308512517e+00	-1.1894046044e+00
 4.1435629543e+00	 2.5031384388e+00	-1.5921224448e+00
 4.1595629543e+00	 2.4754256258e+00	-2.0095220946e+00
 4.1755629543e+00	 2.4477128129e+00	-2.4416035538e+00
 4.1915629543e+00	 2.4200000000e+00	-2.8883668224e+00
 3.9886206680e+00	 2.5915063509e+00	-6.8046932263e-01
 4.0136206680e+00	 2.5482050808e+00	-9.9083567493e-01
 4.0386206680e+00	 2.5049038106e+00	-1.3119126966e+00
 4.0636206680e+00	 2.4616025404e+00	-1.6437003877e+00
 4.0886206680e+00	 2.4183012702e+00	-1.9861987481e+00
 4.1136206680e+00	 2.3750000000e+00	-2.3394077779e+00
 3.9886206680e+00	 2.5915063509e+00	-6.8046932263e-01
 4.0136206680e+00	 2.5482050808e+00	-9.9083567493e-01
 4.0386206680e+00	 2.5049038106e+00	-1.3119126966e+00
 4.0636206680e+00	 2.4616025404e+00	-1.6437003877e+00
 4.0886206680e+00	 2.4183012702e+00	-1.9861987481e+00
 4.1136206680e+00	 2.3750000000e+00	-2.3394077779e+00
 3.8383578736e+00	 2.6317691454e+00	-5.7851338199e-01
 3.8743578736e+00	 2.5694153163e+00	-8.2866140972e-01
 3.9103578736e+00	 2.5070614872e+00	-1.0909437673e+00
 3.9463578736e+00	 2.4447076581e+00	-1.3653604546e+00
 3.9823578736e+00	 2.3823538291e+00	-1.6519114718e+00
 4.0183578736e+00	 2.3200000000e+00	-1.9505968188e+00
 3.6607745711e+00	 2.6793524479e+00	-4.9116005599e-01
 3.7097745711e+00	 2.5944819583e+00	-7.0679359363e-01
 3.7587745711e+00	 2.5096114687e+00	-9.3302638510e-01
 3.8077745711e+00	 2.4247409791e+00	-1.1698584304e+00
 3.8567745711e+00	 2.3398704896e+00	-1.4172897295e+00
 3.9057745711e+00	 2.2550000000e+00	-1.6753202825e+00
 3.4558707605e+00	 2.7342562584e+00	-4.1764140379e-01
 3.5198707605e+00	 2.6234050067e+00	-6.1204186073e-01
 3.5838707605e+00	 2.5125537551e+00	-8.1449486290e-01
 3.6478707605e+00	 2.4017025034e+00	-1.0250004103e+00
 3.7118707605e+00	 2.2908512517e+00	-1.2435585029e+00
 3.7758707605e+00	 2.1800000000e+00	-1.4701691407e+00
 3.2236464419e+00	 2.7964805771e+00	-3.5567377400e-01
 3.3046464419e+00	 2.6561844617e+00	-5.3631984483e-01
 3.3856464419e+00	 2.5158883462e+00	-7.2221103717e-01
 3.4666464419e+00	 2.3755922308e+00	-9.1334735102e-01
 3.5476464419e+00	 2.2352961154e+00	-1.1097287864e+00
 3.6286464419e+00	 2.0950000000e+00	-1.3113553433e+00
 2.9641016151e+00	 2.8660254038e+00	-3.0305482467e-01
 3.0641016151e+00	 2.6928203230e+00	-4.7443739091e-01
 3.1641016151e+00	 2.5196152423e+00	-6.4829864895e-01
 3.2641016151e+00	 2.3464101615e+00	-8.2463859877e-01
 3.3641016151e+00	 2.1732050808e+00	-1.0034572404e+00
 3.4641016151e+00	 2.0000000000e+00	-1.1847545738e+00
 4.3301270189e+00	 2.5000000000e+00	 5.6919231149e-02
 4.3301270189e+00	 2.5000000000e+00	 2.8057427873e+15
 4.3301270189e+00	 2.5000000000e+00	-2.0951224145e+14
 4.3301270189e+00	 2.5000000000e+00	 5.6919231149e-02
 4.3301270189e+00	 2.5000000000e+00	 1.8581981742e+15
 4.3301270189e+00	 2.5000000000e+00	 5.6919231149e-02
 4.3214667649e+00	 2.4950000000e+00	 7.7818477406e+00
 4.3224667649e+00	 2.4932679492e+00	 8.8035740253e+00
 4.3234667649e+00	 2.4915358984e+00	 8.9113190855e+00
 4.3244667649e+00	 2.4898038476e+00	 8.1050829212e+00
 4.3254667649e+00	 2.4880717968e+00	 6.3848655324e+00
 4.3264667649e+00	 2.4863397460e+00	 3.7506669192e+00
 4.2954860028e+00	 2.4800000000e+00	 3.7220652675e+00
 4.2994860028e+00	 2.4730717968e+00	 4.2301988068e+00
 4.3034860028e+00	 2.4661435935e+00	 4.2798333252e+00
 4.3074860028e+00	 2.4592153903e+00	 3.8709688227e+00
 4.3114860028e+00	 2.4522871871e+00	 3.0036052993e+00
 4.3154860028e+00	 2.4453589838e+00	 1.6777427550e+00
 4.2521847326e+00	 2.4550000000e+00	 2.3590949956e+00
 4.2611847326e+00	 2.4394115427e+00	 2.6970174482e+00
 4.2701847326e+00	 2.4238230855e+00	 2.7276583836e+00
 4.2791847326e+00	 2.4082346282e+00	 2.4510178018e+00
 4.2881847326e+00	 2.3926461709e+00	 1.8670957027e+00
 4.2971847326e+00	 2.3770577137e+00	 9.7589208637e-01
 4.1915629543e+00	 2.4200000000e+00	 1.6758482778e+00
 4.2075629543e+00	 2.3922871871e+00	 1.9288349109e+00
 4.2235629543e+00	 2.3645743742e+00	 1.9500343702e+00
 4.2395629543e+00	 2.3368615612e+00	 1.7394466555e+00
 4.2555629543e+00	 2.3091487483e+00	 1.2970717670e+00
 4.2715629543e+00	 2.2814359354e+00	 6.2290970459e-01
 4.1136206680e+00	 2.3750000000e+00	 1.2653877089e+00
 4.1386206680e+00	 2.3316987298e+00	 1.4674543628e+00
 4.1636206680e+00	 2.2883974596e+00	 1.4829937504e+00
 4.1886206680e+00	 2.2450961894e+00	 1.3120058718e+00
 4.2136206680e+00	 2.2017949192e+00	 9.5449072682e-01
 4.2386206680e+00	 2.1584936491e+00	 4.1044831560e-01
 4.1136206680e+00	 2.3750000000e+00	 1.2653877089e+00
 4.1386206680e+00	 2.3316987298e+00	 1.4674543628e+00
 4.1636206680e+00	 2.2883974596e+00	 1.4829937504e+00
 4.1886206680e+00	 2.2450961894e+00	 1.3120058718e+00
 4.2136206680e+00	 2.2017949192e+00	 9.5449072682e-01
 4.2386206680e+00	 2.1584936491e+00	 4.1044831560e-01
 4.0183578736e+00	 2.3200000000e+00	 9.7130061559e-01
 4.0543578736e+00	 2.2576461709e+00	 1.1418310924e+00
 4.0903578736e+00	 2.1952923419e+00	 1.1603824749e+00
 4.1263578736e+00	 2.1329385128e+00	 1.0269547631e+00
 4.1623578736e+00	 2.0705846837e+00	 7.4154795692e-01
 4.1983578736e+00	 2.0082308546e+00	 3.0416205643e-01
 3.9057745711e+00	 2.2550000000e+00	 7.6995490483e-01
 3.9547745711e+00	 2.1701295104e+00	 9.1213648817e-01
 4.0037745711e+00	 2.0852590209e+00	 9.2432057416e-01
 4.0527745711e+00	 2.0003885313e+00	 8.0650716282e-01
 4.1017745711e+00	 1.9155180417e+00	 5.5869625413e-01
 4.1507745711e+00	 1.8306475521e+00	 1.8088784811e-01
 3.7758707605e+00	 2.1800000000e+00	 6.2374362166e-01
 3.8398707605e+00	 2.0691487483e+00	 7.4147288520e-01
 3.9038707605e+00	 1.9582974966e+00	 7.4421644491e-01
 3.9678707605e+00	 1.8474462449e+00	 6.3197430077e-01
 4.0318707605e+00	 1.7365949933e+00	 4.0474645279e-01
 4.0958707605e+00	 1.6257437416e+00	 6.2532900965e-02
 3.6286464419e+00	 2.0950000000e+00	 5.1289287258e-01
 3.7096464419e+00	 1.9547038846e+00	 6.0970861312e-01
 3.7906464419e+00	 1.8144077692e+00	 6.0234051387e-01
 3.8716464419e+00	 1.6741116538e+00	 4.9078857483e-01
 3.9526464419e+00	 1.5338155383e+00	 2.7505279600e-01
 4.0336464419e+00	 1.3935194229e+00	-4.4866822616e-02
 3.4641016151e+00	 2.0000000000e+00	 4.2604092866e-01
 3.5641016151e+00	 1.8267949192e+00	 5.0492941511e-01
 3.6641016151e+00	 1.6535898385e+00	 4.8772464957e-01
 3.7641016151e+00	 1.4803847577e+00	 3.7442663204e-01
 3.8641016151e+00	 1.3071796770e+00	 1.6503536253e-01
 3.9641016151e+00	 1.1339745962e+00	-1.4044915897e-01
 4.3301270189e+00	 2.5000000000e+00	 5.6919231149e-02
 4.3301270189e+00	 2.5000000000e+00	 2.0012406585e+15
 4.3301270189e+00	 2.5000000000e+00	-3.8265582765e+14
 4.3301270189e+00	 2.5000000000e+00	 5.6919231149e-02
 4.3301270189e+00	 2.5000000000e+00	 9.9288058836e+14
 4.3301270189e+00	 2.5000000000e+00	 5.6919231149e-02
 4.3264667649e+00	 2.4863397460e+00	 4.6748639495e+00
 4.3281988157e+00	 2.4873397460e+00	 4.7457378073e+00
 4.3299308665e+00	 2.4883397460e+00	 4.7773989021e+00
 4.3316629173e+00	 2.4893397460e+00	 4.7698472339e+00
 4.3333949681e+00	 2.4903397460e+00	 4.7230828027e+00
 4.3351270189e+00	 2.4913397460e+00	 4.6371056085e+00
 4.3154860028e+00	 2.4453589838e+00	 2.1805977565e+00
 4.3224142060e+00	 2.4493589838e+00	 2.2040516654e+00
 4.3293424092e+00	 2.4533589838e+00	 2.2114207914e+00
 4.3362706125e+00	 2.4573589838e+00	 2.2027051346e+00
 4.3431988157e+00	 2.4613589838e+00	 2.1779046950e+00
 4.3501270189e+00	 2.4653589838e+00	 2.1370194725e+00
 4.2971847326e+00	 2.3770577137e+00	 1.4008499930e+00
 4.3127731898e+00	 2.3860577137e+00	 1.3980850206e+00
 4.3283616471e+00	 2.3950577137e+00	 1.3863098152e+00
 4.3439501044e+00	 2.4040577137e+00	 1.3655243769e+00
 4.3595385617e+00	 2.4130577137e+00	 1.3357287057e+00
 4.3751270189e+00	 2.4220577137e+00	 1.2969228015e+00
 4.2715629543e+00	 2.2814359354e+00	 1.0206472353e+00
 4.2992757672e+00	 2.2974359354e+00	 1.0028079375e+00
 4.3269885802e+00	 2.3134359354e+00	 9.7937649005e-01
 4.3547013931e+00	 2.3294359354e+00	 9.5035289294e-01
 4.3824142060e+00	 2.3454359354e+00	 9.1573714616e-01
 4.4101270189e+00	 2.3614359354e+00	 8.7552924970e-01
 4.2386206680e+00	 2.1584936491e+00	 7.9560663559e-01
 4.2819219382e+00	 2.1834936491e+00	 7.6808240905e-01
 4.3252232084e+00	 2.2084936491e+00	 7.3697845691e-01
 4.3685244785e+00	 2.2334936491e+00	 7.0229477916e-01
 4.4118257487e+00	 2.2584936491e+00	 6.6403137580e-01
 4.4551270189e+00	 2.2834936491e+00	 6.2218824683e-01
 4.2386206680e+00	 2.1584936491e+00	 7.9560663559e-01
 4.2819219382e+00	 2.1834936491e+00	 7.6808240905e-01
 4.3252232084e+00	 2.2084936491e+00	 7.3697845691e-01
 4.3685244785e+00	 2.2334936491e+00	 7.0229477916e-01
 4.4118257487e+00	 2.2584936491e+00	 6.6403137580e-01
 4.4551270189e+00	 2.2834936491e+00	 6.2218824683e-01
 4.1983578736e+00	 2.0082308546e+00	 5.8345223472e-01
 4.2607117026e+00	 2.0442308546e+00	 5.5484608848e-01
 4.3230655317e+00	 2.0802308546e+00	 5.2680188067e-01
 4.3854193608e+00	 2.1162308546e+00	 4.9931961129e-01
 4.4477731898e+00	 2.1522308546e+00	 4.7239928034e-01
 4.5101270189e+00	 2.1882308546e+00	 4.4604088781e-01
 4.1507745711e+00	 1.8306475521e+00	 3.8558820564e-01
 4.2356450606e+00	 1.8796475521e+00	 3.7358560186e-01
 4.3205155502e+00	 1.9286475521e+00	 3.6337031194e-01
 4.4053860398e+00	 1.9776475521e+00	 3.5494233588e-01
 4.4902565294e+00	 2.0266475521e+00	 3.4830167366e-01
 4.5751270189e+00	 2.0756475521e+00	 3.4344832530e-01
 4.0958707605e+00	 1.6257437416e+00	 2.1185432755e-01
 4.2067220122e+00	 1.6897437416e+00	 2.2179762708e-01
 4.3175732639e+00	 1.7537437416e+00	 2.3349887885e-01
 4.4284245156e+00	 1.8177437416e+00	 2.4695808288e-01
 4.5392757672e+00	 1.8817437416e+00	 2.6217523916e-01
 4.6501270189e+00	 1.9457437416e+00	 2.7915034770e-01
 4.0336464419e+00	 1.3935194229e+00	 6.1715989308e-02
 4.1739425573e+00	 1.4745194229e+00	 9.4344899905e-02
 4.3142386727e+00	 1.5555194229e+00	 1.2814608996e-01
 4.4545347881e+00	 1.6365194229e+00	 1.6311955948e-01
 4.5948309035e+00	 1.7175194229e+00	 1.9926530846e-01
 4.7351270189e+00	 1.7985194229e+00	 2.3658333691e-01
 3.9641016151e+00	 1.1339745962e+00	-6.7846889850e-02
 4.1373066959e+00	 1.2339745962e+00	-1.3539825435e-02
 4.3105117767e+00	 1.3339745962e+00	 4.1115423338e-02
 4.4837168574e+00	 1.4339745962e+00	 9.6118856469e-02
 4.6569219382e+00	 1.5339745962e+00	 1.5147047396e-01
 4.8301270189e+00	 1.6339745962e+00	 2.0717027580e-01
 4.3301270189e+00	 2.5000000000e+00	 5.6919231149e-02
 4.3301270189e+00	 2.5000000000e+00	 8.8075520369e+14
 4.3301270189e+00	 2.5000000000e+00	-2.3587308906e+14
 4.3301270189e+00	 2.5000000000e+00	 5.6919231149e-02
 4.3301270189e+00	 2.5000000000e+00	 5.1181979657e+14
 4.3301270189e+00	 2.5000000000e+00	 5.6919231149e-02
 4.3351270189e+00	 2.4913397460e+00	 5.4996502725e+00
 4.3368590697e+00	 2.4923397460e+00	 6.9554539341e+00
 4.3385911205e+00	 2.4933397460e+00	 7.8455023591e+00
 4.3403231713e+00	 2.4943397460e+00	 8.1697955475e+00
 4.3420552222e+00	 2.4953397460e+00	 7.9283334995e+00
 4.3437872730e+00	 2.4963397460e+00	 7.1211162149e+00
 4.3501270189e+00	 2.4653589838e+00	 2.5664959186e+00
 4.3570552222e+00	 2.4693589838e+00	 3.2898226163e+00
 4.3639834254e+00	 2.4733589838e+00	 3.7318171954e+00
 4.3709116286e+00	 2.4773589838e+00	 3.8924796558e+00
 4.3778398318e+00	 2.4813589838e+00	 3.7718099977e+00
 4.3847680351e+00	 2.4853589838e+00	 3.3698082209e+00
 4.3751270189e+00	 2.4220577137e+00	 1.5563031209e+00
 4.3907154762e+00	 2.4310577137e+00	 2.0465071017e+00
 4.4063039335e+00	 2.4400577137e+00	 2.3502115814e+00
 4.4218923907e+00	 2.4490577137e+00	 2.4674165598e+00
 4.4374808480e+00	 2.4580577137e+00	 2.3981220371e+00
 4.4530693053e+00	 2.4670577137e+00	 2.1423280132e+00
 4.4101270189e+00	 2.3614359354e+00	 1.0450352457e+00
 4.4378398318e+00	 2.3774359354e+00	 1.4207337225e+00
 4.4655526448e+00	 2.3934359354e+00	 1.6573535067e+00
 4.4932654577e+00	 2.4094359354e+00	 1.7548945984e+00
 4.5209782706e+00	 2.4254359354e+00	 1.7133569976e+00
 4.5486910835e+00	 2.4414359354e+00	 1.5327407041e+00
 4.4551270189e+00	 2.2834936491e+00	 7.3622524550e-01
 4.4984282891e+00	 2.3084936491e+00	 1.0438653000e+00
 4.5417295593e+00	 2.3334936491e+00	 1.2408803026e+00
 4.5850308295e+00	 2.3584936491e+00	 1.3272702531e+00
 4.6283320997e+00	 2.3834936491e+00	 1.3030351517e+00
 4.6716333699e+00	 2.4084936491e+00	 1.1681749982e+00
 4.4551270189e+00	 2.2834936491e+00	 7.3622524550e-01
 4.4984282891e+00	 2.3084936491e+00	 1.0438653000e+00
 4.5417295593e+00	 2.3334936491e+00	 1.2408803026e+00
 4.5850308295e+00	 2.3584936491e+00	 1.3272702531e+00
 4.6283320997e+00	 2.3834936491e+00	 1.3030351517e+00
 4.6716333699e+00	 2.4084936491e+00	 1.1681749982e+00
 4.5101270189e+00	 2.1882308546e+00	 5.2847733570e-01
 4.5724808480e+00	 2.2242308546e+00	 7.9022836494e-01
 4.6348346771e+00	 2.2602308546e+00	 9.6115875887e-01
 4.6971885061e+00	 2.2962308546e+00	 1.0412685175e+00
 4.7595423352e+00	 2.3322308546e+00	 1.0305576408e+00
 4.8218961643e+00	 2.3682308546e+00	 9.2902612881e-01
 4.5751270189e+00	 2.0756475521e+00	 4.1037198987e-01
 4.6599975085e+00	 2.1246475521e+00	 6.3216204780e-01
 4.7448679981e+00	 2.1736475521e+00	 7.7676559426e-01
 4.8297384876e+00	 2.2226475521e+00	 8.4418262926e-01
 4.9146089772e+00	 2.2716475521e+00	 8.3441315279e-01
 4.9994794668e+00	 2.3206475521e+00	 7.4745716485e-01
 4.6501270189e+00	 1.9457437416e+00	 3.3829983656e-01
 4.7609782706e+00	 2.0097437416e+00	 5.2617805540e-01
 4.8718295223e+00	 2.0737437416e+00	 6.4681473401e-01
 4.9826807740e+00	 2.1377437416e+00	 7.0020987241e-01
 5.0935320257e+00	 2.2017437416e+00	 6.8636347059e-01
 5.2043832773e+00	 2.2657437416e+00	 6.0527552855e-01
 4.7351270189e+00	 1.7985194229e+00	 2.9197389609e-01
 4.8754231343e+00	 1.8795194229e+00	 4.5112758866e-01
 5.0157192497e+00	 1.9605194229e+00	 5.5060759912e-01
 5.1560153652e+00	 2.0415194229e+00	 5.9041392748e-01
 5.2963114806e+00	 2.1225194229e+00	 5.7054657373e-01
 5.4366075960e+00	 2.2035194229e+00	 4.9100553788e-01
 4.8301270189e+00	 1.6339745962e+00	 2.6099491163e-01
 5.0033320997e+00	 1.7339745962e+00	 3.9567570440e-01
 5.1765371804e+00	 1.8339745962e+00	 4.7663084606e-01
 5.3497422612e+00	 1.9339745962e+00	 5.0386033661e-01
 5.5229473419e+00	 2.0339745962e+00	 4.7736417605e-01
 5.6961524227e+00	 2.1339745962e+00	 3.9714236437e-01
 4.3301270189e+00	 2.5000000000e+00	 5.6919231149e-02
 4.3301270189e+00	 2.5000000000e+00	 4.5953216770e+14
 4.3301270189e+00	 2.5000000000e+00	-4.9147582753e+14
 4.3301270189e+00	 2.5000000000e+00	 5.6919231149e-02
 4.3301270189e+00	 2.5000000000e+00	 1.4378180978e+14
 4.3301270189e+00	 2.5000000000e+00	 5.6919231149e-02
 4.3437872730e+00	 2.4963397460e+00	 6.7751529746e+00
 4.3427872730e+00	 2.4980717968e+00	 8.0973278827e+00
 4.3417872730e+00	 2.4998038476e+00	 8.4745469112e+00
 4.3407872730e+00	 2.5015358984e+00	 7.9068100603e+00
 4.3397872730e+00	 2.5032679492e+00	 6.3941173298e+00
 4.3387872730e+00	 2.5050000000e+00	 3.9364687198e+00
 4.3847680351e+00	 2.4853589838e+00	 3.2048808150e+00
 4.3807680351e+00	 2.4922871871e+00	 3.8625569122e+00
 4.3767680351e+00	 2.4992153903e+00	 4.0536449431e+00
 4.3727680351e+00	 2.5061435935e+00	 3.7781449077e+00
 4.3687680351e+00	 2.5130717968e+00	 3.0360568060e+00
 4.3647680351e+00	 2.5200000000e+00	 1.8273806379e+00
 4.4530693053e+00	 2.4670577137e+00	 2.0472342696e+00
 4.4440693053e+00	 2.4826461709e+00	 2.4747115114e+00
 4.4350693053e+00	 2.4982346282e+00	 2.5950270541e+00
 4.4260693053e+00	 2.5138230855e+00	 2.4081808979e+00
 4.4170693053e+00	 2.5294115427e+00	 1.9141730426e+00
 4.4080693053e+00	 2.5450000000e+00	 1.1130034883e+00
 4.5486910835e+00	 2.4414359354e+00	 1.4743428636e+00
 4.5326910835e+00	 2.4691487483e+00	 1.7851073136e+00
 4.5166910835e+00	 2.4968615612e+00	 1.8684176510e+00
 4.5006910835e+00	 2.5245743742e+00	 1.7242738759e+00
 4.4846910835e+00	 2.5522871871e+00	 1.3526759883e+00
 4.4686910835e+00	 2.5800000000e+00	 7.5362398814e-01
 4.6716333699e+00	 2.4084936491e+00	 1.1323640026e+00
 4.6466333699e+00	 2.4517949192e+00	 1.3726014629e+00
 4.6216333699e+00	 2.4950961894e+00	 1.4332074837e+00
 4.5966333699e+00	 2.5383974596e+00	 1.3141820651e+00
 4.5716333699e+00	 2.5816987298e+00	 1.0155252071e+00
 4.5466333699e+00	 2.6250000000e+00	 5.3723690962e-01
 4.6716333699e+00	 2.4084936491e+00	 1.1323640026e+00
 4.6466333699e+00	 2.4517949192e+00	 1.3726014629e+00
 4.6216333699e+00	 2.4950961894e+00	 1.4332074837e+00
 4.5966333699e+00	 2.5383974596e+00	 1.3141820651e+00
 4.5716333699e+00	 2.5816987298e+00	 1.0155252071e+00
 4.5466333699e+00	 2.6250000000e+00	 5.3723690962e-01
 4.8218961643e+00	 2.3682308546e+00	 8.7920937490e-01
 4.7858961643e+00	 2.4305846837e+00	 1.0796559450e+00
 4.7498961643e+00	 2.4929385128e+00	 1.1342619839e+00
 4.7138961643e+00	 2.5552923419e+00	 1.0430274915e+00
 4.6778961643e+00	 2.6176461709e+00	 8.0595246784e-01
 4.6418961643e+00	 2.6800000000e+00	 4.2303691294e-01
 4.9994794668e+00	 2.3206475521e+00	 7.0229954571e-01
 4.9504794668e+00	 2.4055180417e+00	 8.7596686500e-01
 4.9014794668e+00	 2.4903885313e+00	 9.2675999355e-01
 4.8524794668e+00	 2.5752590209e+00	 8.5467893135e-01
 4.8034794668e+00	 2.6601295104e+00	 6.5972367842e-01
 4.7544794668e+00	 2.7450000000e+00	 3.4189423474e-01
 5.2043832773e+00	 2.2657437416e+00	 5.7163122414e-01
 5.1403832773e+00	 2.3765949933e+00	 7.2612867534e-01
 5.0763832773e+00	 2.4874462449e+00	 7.7433662472e-01
 5.0123832773e+00	 2.5982974966e+00	 7.1625507227e-01
 4.9483832773e+00	 2.7091487483e+00	 5.5188401801e-01
 4.8843832773e+00	 2.8200000000e+00	 2.8122346192e-01
 5.4366075960e+00	 2.2035194229e+00	 4.7106801229e-01
 5.3556075960e+00	 2.3438155383e+00	 6.1121390156e-01
 5.2746075960e+00	 2.4841116538e+00	 6.5758993855e-01
 5.1936075960e+00	 2.6244077692e+00	 6.1019612326e-01
 5.1126075960e+00	 2.7647038846e+00	 4.6903245570e-01
 5.0316075960e+00	 2.9050000000e+00	 2.3409893586e-01
 5.6961524227e+00	 2.1339745962e+00	 3.9116400826e-01
 5.5961524227e+00	 2.3071796770e+00	 5.2019714431e-01
 5.4961524227e+00	 2.4803847577e+00	 5.6523673040e-01
 5.3961524227e+00	 2.6535898385e+00	 5.2628276651e-01
 5.2961524227e+00	 2.8267949192e+00	 4.0333525264e-01
 5.1961524227e+00	 3.0000000000e+00	 1.9639418880e-01
-4.3301270189e+00	-2.5000000000e+00	 5.6919231149e-02
-4.3301270189e+00	-2.5000000000e+00	 2.8057427873e+15
-4.3301270189e+00	-2.5000000000e+00	-2.0951224145e+14
-4.3301270189e+00	-2.5000000000e+00	 5.6919231149e-02
-4.3301270189e+00	-2.5000000000e+00	 1.8581981742e+15
-4.3301270189e+00	-2.5000000000e+00	 5.6919231149e-02
-4.3214667649e+00	-2.4950000000e+00	 7.7818477406e+00
-4.3224667649e+00	-2.4932679492e+00	 8.8035740253e+00
-4.3234667649e+00	-2.4915358984e+00	 8.9113190855e+00
-4.3244667649e+00	-2.4898038476e+00	 8.1050829212e+00
-4.3254667649e+00	-2.4880717968e+00	 6.3848655324e+00
-4.3264667649e+00	-2.4863397460e+00	 3.7506669192e+00
-4.2954860028e+00	-2.4800000000e+00	 3.7220652675e+00
-4.2994860028e+00	-2.4730717968e+00	 4.2301988068e+00
-4.3034860028e+00	-2.4661435935e+00	 4.2798333252e+00
-4.3074860028e+00	-2.4592153903e+00	 3.8709688227e+00
-4.3114860028e+00	-2.4522871871e+00	 3.0036052993e+00
-4.3154860028e+00	-2.4453589838e+00	 1.6777427550e+00
-4.2521847326e+00	-2.4550000000e+00	 2.3590949956e+00
-4.2611847326e+00	-2.4394115427e+00	 2.6970174482e+00
-4.2701847326e+00	-2.4238230855e+00	 2.7276583836e+00
-4.2791847326e+00	-2.4082346282e+00	 2.4510178018e+00
-4.2881847326e+00	-2.3926461709e+00	 1.8670957027e+00
-4.2971847326e+00	-2.3770577137e+00	 9.7589208637e-01
-4.1915629543e+00	-2.4200000000e+00	 1.6758482778e+00
-4.2075629543e+00	-2.3922871871e+00	 1.9288349109e+00
-4.2235629543e+00	-2.3645743742e+00	 1.9500343702e+00
-4.2395629543e+00	-2.3368615612e+00	 1.7394466555e+00
-4.2555629543e+00	-2.3091487483e+00	 1.2970717670e+00
-4.2715629543e+00	-2.2814359354e+00	 6.2290970459e-01
-4.1136206680e+00	-2.3750000000e+00	 1.2653877089e+00
-4.1386206680e+00	-2.3316987298e+00	 1.4674543628e+00
-4.1636206680e+00	-2.2883974596e+00	 1.4829937504e+00
-4.1886206680e+00	-2.2450961894e+00	 1.3120058718e+00
-4.2136206680e+00	-2.2017949192e+00	 9.5449072682e-01
-4.2386206680e+00	-2.1584936491e+00	 4.1044831560e-01
-4.1136206680e+00	-2.3750000000e+00	 1.2653877089e+00
-4.1386206680e+00	-2.3316987298e+00	 1.4674543628e+00
-4.1636206680e+00	-2.2883974596e+00	 1.4829937504e+00
-4.1886206680e+00	-2.2450961894e+00	 1.3120058718e+00
-4.2136206680e+00	-2.2017949192e+00	 9.5449072682e-01
-4.2386206680e+00	-2.1584936491e+00	 4.1044831560e-01
-4.0183578736e+00	-2.3200000000e+00	 9.7130061559e-01
-4.0543578736e+00	-2.2576461709e+00	 1.1418310924e+00
-4.0903578736e+00	-2.1952923419e+00	 1.1603824749e+00
-4.1263578736e+00	-2.1329385128e+00	 1.0269547631e+00
-4.1623578736e+00	-2.0705846837e+00	 7.4154795692e-01
-4.1983578736e+00	-2.0082308546e+00	 3.0416205643e-01
-3.9057745711e+00	-2.2550000000e+00	 7.6995490483e-01
-3.9547745711e+00	-2.1701295104e+00	 9.1213648817e-01
-4.0037745711e+00	-2.0852590209e+00	 9.2432057416e-01
-4.0527745711e+00	-2.0003885313e+00	 8.0650716282e-01
-4.1017745711e+00	-1.9155180417e+00	 5.5869625413e-01
-4.1507745711e+00	-1.8306475521e+00	 1.8088784811e-01
-3.7758707605e+00	-2.1800000000e+00	 6.2374362166e-01
-3.8398707605e+00	-2.0691487483e+00	 7.4147288520e-01
-3.9038707605e+00	-1.9582974966e+00	 7.4421644491e-01
-3.9678707605e+00	-1.8474462449e+00	 6.3197430077e-01
-4.0318707605e+00	-1.7365949933e+00	 4.0474645279e-01
-4.0958707605e+00	-1.6257437416e+00	 6.2532900965e-02
-3.6286464419e+00	-2.0950000000e+00	 5.1289287258e-01
-3.7096464419e+00	-1.9547038846e+00	 6.0970861312e-01
-3.7906464419e+00	-1.8144077692e+00	 6.0234051387e-01
-3.8716464419e+00	-1.6741116538e+00	 4.9078857483e-01
-3.9526464419e+00	-1.5338155383e+00	 2.7505279600e-01
-4.0336464419e+00	-1.3935194229e+00	-4.4866822616e-02
-3.4641016151e+00	-2.0000000000e+00	 4.2604092866e-01
-3.5641016151e+00	-1.8267949192e+00	 5.0492941511e-01
-3.6641016151e+00	-1.6535898385e+00	 4.8772464957e-01
-3.7641016151e+00	-1.4803847577e+00	 3.7442663204e-01
-3.8641016151e+00	-1.3071796770e+00	 1.6503536253e-01
-3.9641016151e+00	-1.1339745962e+00	-1.4044915897e-01
-4.3301270189e+00	-2.5000000000e+00	 5.6919231149e-02
-4.3301270189e+00	-2.5000000000e+00	 2.0012406585e+15
-4.3301270189e+00	-2.5000000000e+00	-3.8265582765e+14
-4.3301270189e+00	-2.5000000000e+00	 5.6919231149e-02
-4.3301270189e+00	-2.5000000000e+00	 9.9288058836e+14
-4.3301270189e+00	-2.5000000000e+00	 5.6919231149e-02
-4.3264667649e+00	-2.4863397460e+00	 4.6748639495e+00
-4.3281988157e+00	-2.4873397460e+00	 4.7457378073e+00
-4.3299308665e+00	-2.4883397460e+00	 4.7773989021e+00
-4.3316629173e+00	-2.4893397460e+00	 4.7698472339e+00
-4.3333949681e+00	-2.4903397460e+00	 4.7230828027e+00
-4.3351270189e+00	-2.4913397460e+00	 4.6371056085e+00
-4.3154860028e+00	-2.4453589838e+00	 2.1805977565e+00
-4.3224142060e+00	-2.4493589838e+00	 2.2040516654e+00
-4.3293424092e+00	-2.4533589838e+00	 2.2114207914e+00
-4.3362706125e+00	-2.4573589838e+00	 2.2027051346e+00
-4.3431988157e+00	-2.4613589838e+00	 2.1779046950e+00
-4.3501270189e+00	-2.4653589838e+00	 2.1370194725e+00
-4.2971847326e+00	-2.3770577137e+00	 1.4008499930e+00
-4.3127731898e+00	-2.3860577137e+00	 1.3980850206e+00
-4.3283616471e+00	-2.3950577137e+00	 1.3863098152e+00
-4.3439501044e+00	-2.4040577137e+00	 1.3655243769e+00
-4.3595385617e+00	-2.4130577137e+00	 1.3357287057e+00
-4.3751270189e+00	-2.4220577137e+00	 1.2969228015e+00
-4.2715629543e+00	-2.2814359354e+00	 1.0206472353e+00
-4.2992757672e+00	-2.2974359354e+00	 1.0028079375e+00
-4.3269885802e+00	-2.3134359354e+00	 9.7937649005e-01
-4.3547013931e+00	-2.3294359354e+00	 9.5035289294e-01
-4.3824142060e+00	-2.3454359354e+00	 9.1573714616e-01
-4.4101270189e+00	-2.3614359354e+00	 8.7552924970e-01
-4.2386206680e+00	-2.1584936491e+00	 7.9560663559e-01
-4.2819219382e+00	-2.1834936491e+00	 7.6808240905e-01
-4.3252232084e+00	-2.2084936491e+00	 7.3697845691e-01
-4.3685244785e+00	-2.2334936491e+00	 7.0229477916e-01
-4.4118257487e+00	-2.2584936491e+00	 6.6403137580e-01
-4.4551270189e+00	-2.2834936491e+00	 6.2218824683e-01
-4.2386206680e+00	-2.1584936491e+00	 7.9560663559e-01
-4.2819219382e+00	-2.1834936491e+00	 7.6808240905e-01
-4.3252232084e+00	-2.2084936491e+00	 7.3697845691e-01
-4.3685244785e+00	-2.2334936491e+00	 7.0229477916e-01
-4.4118257487e+00	-2.2584936491e+00	 6.6403137580e-01
-4.4551270189e+00	-2.2834936491e+00	 6.2218824683e-01
-4.1983578736e+00	-2.0082308546e+00	 5.8345223472e-01
-4.2607117026e+00	-2.0442308546e+00	 5.5484608848e-01
-4.3230655317e+00	-2.0802308546e+00	 5.2680188067e-01
-4.3854193608e+00	-2.1162308546e+00	 4.9931961129e-01
-4.4477731898e+00	-2.1522308546e+00	 4.7239928034e-01
-4.5101270189e+00	-2.1882308546e+00	 4.4604088781e-01
-4.1507745711e+00	-1.8306475521e+00	 3.8558820564e-01
-4.2356450606e+00	-1.8796475521e+00	 3.7358560186e-01
-4.3205155502e+00	-1.9286475521e+00	 3.6337031194e-01
-4.4053860398e+00	-1.9776475521e+00	 3.5494233588e-01
-4.4902565294e+00	-2.0266475521e+00	 3.4830167366e-01
-4.5751270189e+00	-2.0756475521e+00	 3.4344832530e-01
-4.0958707605e+00	-1.6257437416e+00	 2.1185432755e-01
-4.2067220122e+00	-1.6897437416e+00	 2.2179762708e-01
-4.3175732639e+00	-1.7537437416e+00	 2.3349887885e-01
-4.4284245156e+00	-1.8177437416e+00	 2.4695808288e-01
-4.5392757672e+00	-1.8817437416e+00	 2.6217523916e-01
-4.6501270189e+00	-1.9457437416e+00	 2.7915034770e-01
-4.0336464419e+00	-1.3935194229e+00	 6.1715989308e-02
-4.1739425573e+00	-1.4745194229e+00	 9.4344899905e-02
-4.3142386727e+00	-1.5555194229e+00	 1.2814608996e-01
-4.4545347881e+00	-1.6365194229e+00	 1.6311955948e-01
-4.5948309035e+00	-1.7175194229e+00	 1.9926530846e-01
-4.7351270189e+00	-1.7985194229e+00	 2.3658333691e-01
-3.9641016151e+00	-1.1339745962e+00	-6.7846889850e-02
-4.1373066959e+00	-1.2339745962e+00	-1.3539825435e-02
-4.3105117767e+00	-1.3339745962e+00	 4.1115423338e-02
-4.4837168574e+00	-1.4339745962e+00	 9.6118856469e-02
-4.6569219382e+00	-1.5339745962e+00	 1.5147047396e-01
-4.8301270189e+00	-1.6339745962e+00	 2.0717027580e-01
-4.3301270189e+00	-2.5000000000e+00	 5.6919231149e-02
-4.3301270189e+00	-2.5000000000e+00	 8.8075520369e+14
-4.3301270189e+00	-2.5000000000e+00	-2.3587308906e+14
-4.3301270189e+00	-2.5000000000e+00	 5.6919231149e-02
-4.3301270189e+00	-2.5000000000e+00	 5.1181979657e+14
-4.3301270189e+00	-2.5000000000e+00	 5.6919231149e-02
-4.3351270189e+00	-2.4913397460e+00	 5.4996502725e+00
-4.3368590697e+00	-2.4923397460e+00	 6.9554539341e+00
-4.3385911205e+00	-2.4933397460e+00	 7.8455023591e+00
-4.3403231713e+00	-2.4943397460e+00	 8.1697955475e+00
-4.3420552222e+00	-2.4953397460e+00	 7.9283334995e+00
-4.3437872730e+00	-2.4963397460e+00	 7.1211162149e+00
-4.3501270189e+00	-2.4653589838e+00	 2.5664959186e+00
-4.3570552222e+00	-2.4693589838e+00	 3.2898226163e+00
-4.3639834254e+00	-2.4733589838e+00	 3.7318171954e+00
-4.3709116286e+00	-2.4773589838e+00	 3.8924796558e+00
-4.3778398318e+00	-2.4813589838e+00	 3.7718099977e+00
-4.3847680351e+00	-2.4853589838e+00	 3.3698082209e+00
-4.3751270189e+00	-2.4220577137e+00	 1.5563031209e+00
-4.3907154762e+00	-2.4310577137e+00	 2.0465071017e+00
-4.4063039335e+00	-2.4400577137e+00	 2.3502115814e+00
-4.4218923907e+00	-2.4490577137e+00	 2.4674165598e+00
-4.4374808480e+00	-2.4580577137e+00	 2.3981220371e+00
-4.4530693053e+00	-2.4670577137e+00	 2.1423280132e+00
-4.4101270189e+00	-2.3614359354e+00	 1.0450352457e+00
-4.4378398318e+00	-2.3774359354e+00	 1.4207337225e+00
-4.4655526448e+00	-2.3934359354e+00	 1.6573535067e+00
-4.4932654577e+00	-2.4094359354e+00	 1.7548945984e+00
-4.5209782706e+00	-2.4254359354e+00	 1.7133569976e+00
-4.5486910835e+00	-2.4414359354e+00	 1.5327407041e+00
-4.4551270189e+00	-2.2834936491e+00	 7.3622524550e-01
-4.4984282891e+00	-2.3084936491e+00	 1.0438653000e+00
-4.5417295593e+00	-2.3334936491e+00	 1.2408803026e+00
-4.5850308295e+00	-2.3584936491e+00	 1.3272702531e+00
-4.6283320997e+00	-2.3834936491e+00	 1.3030351517e+00
-4.6716333699e+00	-2.4084936491e+00	 1.1681749982e+00
-4.4551270189e+00	-2.2834936491e+00	 7.3622524550e-01
-4.4984282891e+00	-2.3084936491e+00	 1.0438653000e+00
-4.5417295593e+00	-2.3334936491e+00	 1.2408803026e+00
-4.5850308295e+00	-2.3584936491e+00	 1.3272702531e+00
-4.6283320997e+00	-2.3834936491e+00	 1.3030351517e+00
-4.6716333699e+00	-2.4084936491e+00	 1.1681749982e+00
-4.5101270189e+00	-2.1882308546e+00	 5.2847733570e-01
-4.5724808480e+00	-2.2242308546e+00	 7.9022836494e-01
-4.6348346771e+00	-2.2602308546e+00	 9.6115875887e-01
-4.6971885061e+00	-2.2962308546e+00	 1.0412685175e+00
-4.7595423352e+00	-2.3322308546e+00	 1.0305576408e+00
-4.8218961643e+00	-2.3682308546e+00	 9.2902612881e-01
-4.5751270189e+00	-2.0756475521e+00	 4.1037198987e-01
-4.6599975085e+00	-2.1246475521e+00	 6.3216204780e-01
-4.7448679981e+00	-2.1736475521e+00	 7.7676559426e-01
-4.8297384876e+00	-2.2226475521e+00	 8.4418262926e-01
-4.9146089772e+00	-2.2716475521e+00	 8.3441315279e-01
-4.9994794668e+00	-2.3206475521e+00	 7.4745716485e-01
-4.6501270189e+00	-1.9457437416e+00	 3.3829983656e-01
-4.7609782706e+00	-2.0097437416e+00	 5.2617805540e-01
-4.8718295223e+00	-2.0737437416e+00	 6.4681473401e-01
-4.9826807740e+00	-2.1377437416e+00	 7.0020987241e-01
-5.0935320257e+00	-2.2017437416e+00	 6.8636347059e-01
-5.2043832773e+00	-2.2657437416e+00	 6.0527552855e-01
-4.7351270189e+00	-1.7985194229e+00	 2.9197389609e-01
-4.8754231343e+00	-1.8795194229e+00	 4.5112758866e-01
-5.0157192497e+00	-1.9605194229e+00	 5.5060759912e-01
-5.1560153652e+00	-2.0415194229e+00	 5.9041392748e-01
-5.2963114806e+00	-2.1225194229e+00	 5.7054657373e-01
-5.4366075960e+00	-2.2035194229e+00	 4.9100553788e-01
-4.8301270189e+00	-1.6339745962e+00	 2.6099491163e-01
-5.0033320997e+00	-1.7339745962e+00	 3.9567570440e-01
-5.1765371804e+00	-1.8339745962e+00	 4.7663084606e-01
-5.3497422612e+00	-1.9339745962e+00	 5.0386033661e-01
-5.5229473419e+00	-2.0339745962e+00	 4.7736417605e-01
-5.6961524227e+00	-2.1339745962e+00	 3.9714236437e-01
-4.3301270189e+00	-2.5000000000e+00	 5.6919231149e-02
-4.3301270189e+00	-2.5000000000e+00	 4.5953216770e+14
-4.3301270189e+00	-2.5000000000e+00	-4.9147582753e+14
-4.3301270189e+00	-2.5000000000e+00	 5.6919231149e-02
-4.3301270189e+00	-2.5000000000e+00	 1.4378180978e+14
-4.3301270189e+00	-2.5000000000e+00	 5.6919231149e-02
-4.3437872730e+00	-2.4963397460e+00	 6.7751529746e+00
-4.3427872730e+00	-2.4980717968e+00	 8.0973278827e+00
-4.3417872730e+00	-2.4998038476e+00	 8.4745469112e+00
-4.3407872730e+00	-2.5015358984e+00	 7.9068100603e+00
-4.3397872730e+00	-2.5032679492e+00	 6.3941173298e+00
-4.3387872730e+00	-2.5050000000e+00	 3.9364687198e+00
-4.3847680351e+00	-2.4853589838e+00	 3.2048808150e+00
-4.3807680351e+00	-2.4922871871e+00	 3.8625569122e+00
-4.3767680351e+00	-2.4992153903e+00	 4.0536449431e+00
-4.3727680351e+00	-2.5061435935e+00	 3.7781449077e+00
-4.3687680351e+00	-2.5130717968e+00	 3.0360568060e+00
-4.3647680351e+00	-2.5200000000e+00	 1.8273806379e+00
-4.4530693053e+00	-2.4670577137e+00	 2.0472342696e+00
-4.4440693053e+00	-2.4826461709e+00	 2.4747115114e+00
-4.4350693053e+00	-2.4982346282e+00	 2.5950270541e+00
-4.4260693053e+00	-2.5138230855e+00	 2.4081808979e+00
-4.4170693053e+00	-2.5294115427e+00	 1.9141730426e+00
-4.4080693053e+00	-2.5450000000e+00	 1.1130034883e+00
-4.5486910835e+00	-2.4414359354e+00	 1.4743428636e+00
-4.5326910835e+00	-2.4691487483e+00	 1.7851073136e+00
-4.5166910835e+00	-2.4968615612e+00	 1.8684176510e+00
-4.5006910835e+00	-2.5245743742e+00	 1.7242738759e+00
-4.4846910835e+00	-2.5522871871e+00	 1.3526759883e+00
-4.4686910835e+00	-2.5800000000e+00	 7.5362398814e-01
-4.6716333699e+00	-2.4084936491e+00	 1.1323640026e+00
-4.6466333699e+00	-2.4517949192e+00	 1.3726014629e+00
-4.6216333699e+00	-2.4950961894e+00	 1.4332074837e+00
-4.5966333699e+00	-2.5383974596e+00	 1.3141820651e+00
-4.5716333699e+00	-2.5816987298e+00	 1.0155252071e+00
-4.5466333699e+00	-2.6250000000e+00	 5.3723690962e-01
-4.6716333699e+00	-2.4084936491e+00	 1.1323640026e+00
-4.6466333699e+00	-2.4517949192e+00	 1.3726014629e+00
-4.6216333699e+00	-2.4950961894e+00	 1.4332074837e+00
-4.5966333699e+00	-2.5383974596e+00	 1.3141820651e+00
-4.5716333699e+00	-2.5816987298e+00	 1.0155252071e+00
-4.5466333699e+00	-2.6250000000e+00	 5.3723690962e-01
-4.8218961643e+00	-2.3682308546e+00	 8.7920937490e-01
-4.7858961643e+00	-2.4305846837e+00	 1.0796559450e+00
-4.7498961643e+00	-2.4929385128e+00	 1.1342619839e+00
-4.7138961643e+00	-2.5552923419e+00	 1.0430274915e+00
-4.6778961643e+00	-2.6176461709e+00	 8.0595246784e-01
-4.6418961643e+00	-2.6800000000e+00	 4.2303691294e-01
-4.9994794668e+00	-2.3206475521e+00	 7.0229954571e-01
-4.9504794668e+00	-2.4055180417e+00	 8.7596686500e-01
-4.9014794668e+00	-2.4903885313e+00	 9.2675999355e-01
-4.8524794668e+00	-2.5752590209e+00	 8.5467893135e-01
-4.8034794668e+00	-2.6601295104e+00	 6.5972367842e-01
-4.7544794668e+00	-2.7450000000e+00	 3.4189423474e-01
-5.2043832773e+00	-2.2657437416e+00	 5.7163122414e-01
-5.1403832773e+00	-2.3765949933e+00	 7.2612867534e-01
-5.0763832773e+00	-2.4874462449e+00	 7.7433662472e-01
-5.0123832773e+00	-2.5982974966e+00	 7.1625507227e-01
-4.9483832773e+00	-2.7091487483e+00	 5.5188401801e-01
-4.8843832773e+00	-2.8200000000e+00	 2.8122346192e-01
-5.4366075960e+00	-2.2035194229e+00	 4.7106801229e-01
-5.3556075960e+00	-2.3438155383e+00	 6.1121390156e-01
-5.2746075960e+00	-2.4841116538e+00	 6.5758993855e-01
-5.1936075960e+00	-2.6244077692e+00	 6.1019612326e-01
-5.1126075960e+00	-2.7647038846e+00	 4.6903245570e-01
-5.0316075960e+00	-2.9050000000e+00	 2.3409893586e-01
-5.6961524227e+00	-2.1339745962e+00	 3.9116400826e-01
-5.5961524227e+00	-2.3071796770e+00	 5.2019714431e-01
-5.4961524227e+00	-2.4803847577e+00	 5.6523673040e-01
-5.3961524227e+00	-2.6535898385e+00	 5.2628276651e-01
-5.2961524227e+00	-2.8267949192e+00	 4.0333525264e-01
-5.1961524227e+00	-3.0000000000e+00	 1.9639418880e-01
-4.3301270189e+00	-2.5000000000e+00	 5.6919231149e-02
-4.3301270189e+00	-2.5000000000e+00	-4.9013143680e+14
-4.3301270189e+00	-2.5000000000e+00	-1.4068849615e+15
-4.3301270189e+00	-2.5000000000e+00	 5.6919231149e-02
-4.3301270189e+00	-2.5000000000e+00	-7.2384480288e+14
-4.3301270189e+00	-2.5000000000e+00	 5.6919231149e-02
-4.3387872730e+00	-2.5050000000e+00	 3.5477905421e+00
-4.3377872730e+00	-2.5067320508e+00	 2.1464604062e+00
-4.3367872730e+00	-2.5084641016e+00	 9.2987259931e-01
-4.3357872730e+00	-2.5101961524e+00	-1.0197287861e-01
-4.3347872730e+00	-2.5119282032e+00	-9.4907602756e-01
-4.3337872730e+00	-2.5136602540e+00	-1.6114368475e+00
-4.3647680351e+00	-2.5200000000e+00	 1.6321537601e+00
-4.3607680351e+00	-2.5269282032e+00	 9.3621333621e-01
-4.3567680351e+00	-2.5338564065e+00	 3.3318042358e-01
-4.3527680351e+00	-2.5407846097e+00	-1.7694497781e-01
-4.3487680351e+00	-2.5477128129e+00	-5.9416286794e-01
-4.3447680351e+00	-2.5546410162e+00	-9.1847324683e-01
-4.4080693053e+00	-2.5450000000e+00	 9.9557615362e-01
-4.3990693053e+00	-2.5605884573e+00	 5.3176057484e-01
-4.3900693053e+00	-2.5761769145e+00	 1.3126572428e-01
-4.3810693053e+00	-2.5917653718e+00	-2.0590839806e-01
-4.3720693053e+00	-2.6073538291e+00	-4.7976179219e-01
-4.3630693053e+00	-2.6229422863e+00	-6.9029445809e-01
-4.4686910835e+00	-2.5800000000e+00	 6.7759313313e-01
-4.4526910835e+00	-2.6077128129e+00	 3.2929401046e-01
-4.4366910835e+00	-2.6354256258e+00	 2.9714326090e-02
-4.4206910835e+00	-2.6631384388e+00	-2.2114591999e-01
-4.4046910835e+00	-2.6908512517e+00	-4.2328672777e-01
-4.3886910835e+00	-2.7185640646e+00	-5.7670809727e-01
-4.5466333699e+00	-2.6250000000e+00	 4.8684288900e-01
-4.5216333699e+00	-2.6683012702e+00	 2.0769545415e-01
-4.4966333699e+00	-2.7116025404e+00	-3.1431931553e-02
-4.4716333699e+00	-2.7549038106e+00	-2.3053926810e-01
-4.4466333699e+00	-2.7982050808e+00	-3.8962655549e-01
-4.4216333699e+00	-2.8415063509e+00	-5.0869379374e-01
-4.5466333699e+00	-2.6250000000e+00	 4.8684288900e-01
-4.5216333699e+00	-2.6683012702e+00	 2.0769545415e-01
-4.4966333699e+00	-2.7116025404e+00	-3.1431931553e-02
-4.4716333699e+00	-2.7549038106e+00	-2.3053926810e-01
-4.4466333699e+00	-2.7982050808e+00	-3.8962655549e-01
-4.4216333699e+00	-2.8415063509e+00	-5.0869379374e-01
-4.6418961643e+00	-2.6800000000e+00	 3.8826394655e-01
-4.6058961643e+00	-2.7423538291e+00	 1.6311202623e-01
-4.5698961643e+00	-2.8047076581e+00	-2.4226590802e-02
-4.5338961643e+00	-2.8670614872e+00	-1.7375190455e-01
-4.4978961643e+00	-2.9294153163e+00	-2.8546391503e-01
-4.4618961643e+00	-2.9917691454e+00	-3.5936262222e-01
-4.7544794668e+00	-2.7450000000e+00	 3.1623438215e-01
-4.7054794668e+00	-2.8298704896e+00	 1.2418974739e-01
-4.6564794668e+00	-2.9147409791e+00	-3.3789653453e-02
-4.6074794668e+00	-2.9996114687e+00	-1.5770382039e-01
-4.5584794668e+00	-3.0844819583e+00	-2.4755275341e-01
-4.5094794668e+00	-3.1693524479e+00	-3.0333645253e-01
-4.8843832773e+00	-2.8200000000e+00	 2.6128020449e-01
-4.8203832773e+00	-2.9308512517e+00	 9.1094687059e-02
-4.7563832773e+00	-3.0417025034e+00	-4.9024574244e-02
-4.6923832773e+00	-3.1525537551e+00	-1.5907757942e-01
-4.6283832773e+00	-3.2634050067e+00	-2.3906432848e-01
-4.5643832773e+00	-3.3742562584e+00	-2.8898482140e-01
-5.0316075960e+00	-2.9050000000e+00	 2.1793925826e-01
-4.9506075960e+00	-3.0452961154e+00	 6.3009574944e-02
-4.8696075960e+00	-3.1855922308e+00	-6.5668378612e-02
-4.7886075960e+00	-3.3258883462e+00	-1.6809460240e-01
-4.7076075960e+00	-3.4661844617e+00	-2.4426909643e-01
-4.6266075960e+00	-3.6064805771e+00	-2.9419186069e-01
-5.1961524227e+00	-3.0000000000e+00	 1.8284389873e-01
-5.0961524227e+00	-3.1732050808e+00	 3.9034340787e-02
-4.9961524227e+00	-3.3464101615e+00	-8.2019059947e-02
-4.8961524227e+00	-3.5196152423e+00	-1.8031630348e-01
-4.7961524227e+00	-3.6928203230e+00	-2.5585738980e-01
-4.6961524227e+00	-3.8660254038e+00	-3.0864231892e-01
-4.3301270189e+00	-2.5000000000e+00	 5.6919231149e-02
-4.3301270189e+00	-2.5000000000e+00	-1.8978010572e+15
-4.3301270189e+00	-2.5000000000e+00	-2.0271196690e+15
-4.3301270189e+00	-2.5000000000e+00	 5.6919231149e-02
-4.3301270189e+00	-2.5000000000e+00	-1.5902298576e+15
-4.3301270189e+00	-2.5000000000e+00	 5.6919231149e-02
-4.3337872730e+00	-2.5136602540e+00	-2.8900823100e+00
-4.3320552222e+00	-2.5126602540e+00	-1.3060078344e+00
-4.3303231713e+00	-2.5116602540e+00	-3.1865052572e-01
-4.3285911205e+00	-2.5106602540e+00	 7.1989615961e-02
-4.3268590697e+00	-2.5096602540e+00	-1.3408740935e-01
-4.3251270189e+00	-2.5086602540e+00	-9.3688160165e-01
-4.3447680351e+00	-2.5546410162e+00	-1.5295076462e+00
-4.3378398318e+00	-2.5506410162e+00	-7.3661313187e-01
-4.3309116286e+00	-2.5466410162e+00	-2.4394490308e-01
-4.3239834254e+00	-2.5426410162e+00	-5.1502959793e-02
-4.3170552222e+00	-2.5386410162e+00	-1.5928730201e-01
-4.3101270189e+00	-2.5346410162e+00	-5.6729792973e-01
-4.3630693053e+00	-2.6229422863e+00	-1.0284743900e+00
-4.3474808480e+00	-2.6139422863e+00	-5.1596479599e-01
-4.3318923907e+00	-2.6049422863e+00	-2.0205926619e-01
-4.3163039335e+00	-2.5959422863e+00	-8.6757800615e-02
-4.3007154762e+00	-2.5869422863e+00	-1.7006039927e-01
-4.2851270189e+00	-2.5779422863e+00	-4.5196706214e-01
-4.3886910835e+00	-2.7185640646e+00	-7.6902627429e-01
-4.3609782706e+00	-2.7025640646e+00	-3.9982072577e-01
-4.3332654577e+00	-2.6865640646e+00	-1.7788481545e-01
-4.3055526448e+00	-2.6705640646e+00	-1.0321854334e-01
-4.2778398318e+00	-2.6545640646e+00	-1.7582190943e-01
-4.2501270189e+00	-2.6385640646e+00	-3.9569491372e-01
-4.4216333699e+00	-2.8415063509e+00	-6.1047587104e-01
-4.3783320997e+00	-2.8165063509e+00	-3.2823813750e-01
-4.3350308295e+00	-2.7915063509e+00	-1.6230221019e-01
-4.2917295593e+00	-2.7665063509e+00	-1.1266808913e-01
-4.2484282891e+00	-2.7415063509e+00	-1.7933577431e-01
-4.2051270189e+00	-2.7165063509e+00	-3.6230526574e-01
-4.4216333699e+00	-2.8415063509e+00	-6.1047587104e-01
-4.3783320997e+00	-2.8165063509e+00	-3.2823813750e-01
-4.3350308295e+00	-2.7915063509e+00	-1.6230221019e-01
-4.2917295593e+00	-2.7665063509e+00	-1.1266808913e-01
-4.2484282891e+00	-2.7415063509e+00	-1.7933577431e-01
-4.2051270189e+00	-2.7165063509e+00	-3.6230526574e-01
-4.4618961643e+00	-2.9917691454e+00	-5.4314837633e-01
-4.3995423352e+00	-2.9557691454e+00	-3.1068009467e-01
-4.3371885061e+00	-2.9197691454e+00	-1.7250833759e-01
-4.2748346771e+00	-2.8837691454e+00	-1.2863310509e-01
-4.2124808480e+00	-2.8477691454e+00	-1.7905439718e-01
-4.1501270189e+00	-2.8117691454e+00	-3.2377221385e-01
-4.5094794668e+00	-3.1693524479e+00	-4.8209390253e-01
-4.4246089772e+00	-3.1203524479e+00	-2.7776722455e-01
-4.3397384876e+00	-3.0713524479e+00	-1.5277593456e-01
-4.2548679981e+00	-3.0223524479e+00	-1.0712003257e-01
-4.1699975085e+00	-2.9733524479e+00	-1.4079951857e-01
-4.0851270189e+00	-2.9243524479e+00	-2.5381439257e-01
-4.5643832773e+00	-3.3742562584e+00	-4.2918850326e-01
-4.4535320257e+00	-3.3102562584e+00	-2.4191033604e-01
-4.3426807740e+00	-3.2462562584e+00	-1.2316132880e-01
-4.2318295223e+00	-3.1822562584e+00	-7.2941481540e-02
-4.1209782706e+00	-3.1182562584e+00	-9.1250794253e-02
-4.0101270189e+00	-3.0542562584e+00	-1.7808926694e-01
-4.6266075960e+00	-3.6064805771e+00	-3.8379740284e-01
-4.4863114806e+00	-3.5254805771e+00	-2.0736920503e-01
-4.3460153652e+00	-3.4444805771e+00	-9.1311851754e-02
-4.2057192497e+00	-3.3634805771e+00	-3.5625343022e-02
-4.0654231343e+00	-3.2824805771e+00	-4.0309678832e-02
-3.9251270189e+00	-3.2014805771e+00	-1.0536485918e-01
-4.6961524227e+00	-3.8660254038e+00	-3.4478386768e-01
-4.5229473419e+00	-3.7660254038e+00	-1.7551284283e-01
-4.3497422612e+00	-3.6660254038e+00	-6.0242293374e-02
-4.1765371804e+00	-3.5660254038e+00	 1.0277806824e-03
-4.0033320997e+00	-3.4660254038e+00	 8.2973793393e-03
-3.8301270189e+00	-3.3660254038e+00	-3.8433497403e-02
-4.3301270189e+00	-2.5000000000e+00	 5.6919231149e-02
-4.3301270189e+00	-2.5000000000e+00	-3.1951915817e+15
-4.3301270189e+00	-2.5000000000e+00	-1.6507128954e+15
-4.3301270189e+00	-2.5000000000e+00	 5.6919231149e-02
-4.3301270189e+00	-2.5000000000e+00	-2.7704198266e+15
-4.3301270189e+00	-2.5000000000e+00	 5.6919231149e-02
-4.3251270189e+00	-2.5086602540e+00	 1.7206552259e+00
-4.3233949681e+00	-2.5076602540e+00	 3.0851165709e-01
-4.3216629173e+00	-2.5066602540e+00	-8.6400338568e-01
-4.3199308665e+00	-2.5056602540e+00	-1.7968899024e+00
-4.3181988157e+00	-2.5046602540e+00	-2.4901478929e+00
-4.3164667649e+00	-2.5036602540e+00	-2.9437773574e+00
-4.3101270189e+00	-2.5346410162e+00	 7.7974261661e-01
-4.3031988157e+00	-2.5306410162e+00	 6.3070831734e-02
-4.2962706125e+00	-2.5266410162e+00	-5.2689886311e-01
-4.2893424092e+00	-2.5226410162e+00	-9.9016646793e-01
-4.2824142060e+00	-2.5186410162e+00	-1.3267319827e+00
-4.2754860028e+00	-2.5146410162e+00	-1.5365954075e+00
-4.2851270189e+00	-2.5779422863e+00	 4.7559490392e-01
-4.2695385617e+00	-2.5689422863e+00	 3.2247285805e-03
-4.2539501044e+00	-2.5599422863e+00	-3.8389764531e-01
-4.2383616471e+00	-2.5509422863e+00	-6.8577221774e-01
-4.2227731898e+00	-2.5419422863e+00	-9.0239898872e-01
-4.2071847326e+00	-2.5329422863e+00	-1.0337779582e+00
-4.2501270189e+00	-2.6385640646e+00	 3.2538154599e-01
-4.2224142060e+00	-2.6225640646e+00	-2.2487274783e-02
-4.1947013931e+00	-2.6065640646e+00	-3.0655038625e-01
-4.1669885802e+00	-2.5905640646e+00	-5.2680778842e-01
-4.1392757672e+00	-2.5745640646e+00	-6.8325948129e-01
-4.1115629543e+00	-2.5585640646e+00	-7.7590546486e-01
-4.2051270189e+00	-2.7165063509e+00	 2.3592110097e-01
-4.1618257487e+00	-2.6915063509e+00	-3.6485834337e-02
-4.1185244785e+00	-2.6665063509e+00	-2.5818138352e-01
-4.0752232084e+00	-2.6415063509e+00	-4.2916554659e-01
-4.0319219382e+00	-2.6165063509e+00	-5.4943832354e-01
-3.9886206680e+00	-2.5915063509e+00	-6.1899971437e-01
-4.2051270189e+00	-2.7165063509e+00	 2.3592110097e-01
-4.1618257487e+00	-2.6915063509e+00	-3.6485834337e-02
-4.1185244785e+00	-2.6665063509e+00	-2.5818138352e-01
-4.0752232084e+00	-2.6415063509e+00	-4.2916554659e-01
-4.0319219382e+00	-2.6165063509e+00	-5.4943832354e-01
-3.9886206680e+00	-2.5915063509e+00	-6.1899971437e-01
-4.1501270189e+00	-2.8117691454e+00	 1.7058786182e-01
-4.0877731898e+00	-2.7757691454e+00	-5.2851279974e-02
-4.0254193608e+00	-2.7397691454e+00	-2.3517994749e-01
-3.9630655317e+00	-2.7037691454e+00	-3.7639814074e-01
-3.9007117026e+00	-2.6677691454e+00	-4.7650585972e-01
-3.8383578736e+00	-2.6317691454e+00	-5.3550310442e-01
-4.0851270189e+00	-2.9243524479e+00	 1.3913931389e-01
-4.0002565294e+00	-2.8753524479e+00	-5.3419307750e-02
-3.9153860398e+00	-2.8263524479e+00	-2.1129794232e-01
-3.8305155502e+00	-2.7773524479e+00	-3.3449658983e-01
-3.7456450606e+00	-2.7283524479e+00	-4.2301525026e-01
-3.6607745711e+00	-2.6793524479e+00	-4.7685392364e-01
-4.0101270189e+00	-3.0542562584e+00	 1.2392582439e-01
-3.8992757672e+00	-2.9902562584e+00	-4.7709641868e-02
-3.7884245156e+00	-2.9262562584e+00	-1.8925498581e-01
-3.6775732639e+00	-2.8622562584e+00	-3.0071020743e-01
-3.5667220122e+00	-2.7982562584e+00	-3.8207530673e-01
-3.4558707605e+00	-2.7342562584e+00	-4.3335028371e-01
-3.9251270189e+00	-3.2014805771e+00	 1.1710014589e-01
-3.7848309035e+00	-3.1204805771e+00	-3.9586224714e-02
-3.6445347881e+00	-3.0394805771e+00	-1.6961511856e-01
-3.5042386727e+00	-2.9584805771e+00	-2.7298653564e-01
-3.3639425573e+00	-2.8774805771e+00	-3.4970047596e-01
-3.2236464419e+00	-2.7964805771e+00	-3.9975693953e-01
-3.8301270189e+00	-3.3660254038e+00	 1.1483480572e-01
-3.6569219382e+00	-3.2660254038e+00	-3.0727042215e-02
-3.4837168574e+00	-3.1660254038e+00	-1.5229203302e-01
-3.3105117767e+00	-3.0660254038e+00	-2.4986016668e-01
-3.1373066959e+00	-2.9660254038e+00	-3.2343144322e-01
-2.9641016151e+00	-2.8660254038e+00	-3.7300586261e-01
-4.3301270189e+00	-2.5000000000e+00	 5.6919231149e-02
-4.3301270189e+00	-2.5000000000e+00	-4.0562035694e+15
-4.3301270189e+00	-2.5000000000e+00	-8.9343387473e+14
-4.3301270189e+00	-2.5000000000e+00	 5.6919231149e-02
-4.3301270189e+00	-2.5000000000e+00	-2.4479595225e+15
-4.3301270189e+00	-2.5000000000e+00	 5.6919231149e-02
-4.3164667649e+00	-2.5036602540e+00	-2.6465745231e+00
-4.3174667649e+00	-2.5019282032e+00	-4.2139114410e+00
-4.3184667649e+00	-2.5001961524e+00	-5.8437727701e+00
-4.3194667649e+00	-2.4984641016e+00	-7.5361585104e+00
-4.3204667649e+00	-2.4967320508e+00	-9.2910686619e+00
-4.3214667649e+00	-2.4950000000e+00	-1.1108503225e+01
-4.2754860028e+00	-2.5146410162e+00	-1.4092049620e+00
-4.2794860028e+00	-2.5077128129e+00	-2.1874399376e+00
-4.2834860028e+00	-2.5007846097e+00	-2.9987472399e+00
-4.2874860028e+00	-2.4938564065e+00	-3.8431268690e+00
-4.2914860028e+00	-2.4869282032e+00	-4.7205788249e+00
-4.2954860028e+00	-2.4800000000e+00	-5.6311031075e+00
-4.2071847326e+00	-2.5329422863e+00	-1.0032567444e+00
-4.2161847326e+00	-2.5173538291e+00	-1.5210278406e+00
-4.2251847326e+00	-2.5017653718e+00	-2.0598823300e+00
-4.2341847326e+00	-2.4861769145e+00	-2.6198202126e+00
-4.2431847326e+00	-2.4705884573e+00	-3.2008414885e+00
-4.2521847326e+00	-2.4550000000e+00	-3.8029461576e+00
-4.1115629543e+00	-2.5585640646e+00	-8.0136857352e-01
-4.1275629543e+00	-2.5308512517e+00	-1.1894046044e+00
-4.1435629543e+00	-2.5031384388e+00	-1.5921224448e+00
-4.1595629543e+00	-2.4754256258e+00	-2.0095220946e+00
-4.1755629543e+00	-2.4477128129e+00	-2.4416035538e+00
-4.1915629543e+00	-2.4200000000e+00	-2.8883668224e+00
-3.9886206680e+00	-2.5915063509e+00	-6.8046932263e-01
-4.0136206680e+00	-2.5482050808e+00	-9.9083567493e-01
-4.0386206680e+00	-2.5049038106e+00	-1.3119126966e+00
-4.0636206680e+00	-2.4616025404e+00	-1.6437003877e+00
-4.0886206680e+00	-2.4183012702e+00	-1.9861987481e+00
-4.1136206680e+00	-2.3750000000e+00	-2.3394077779e+00
-3.9886206680e+00	-2.5915063509e+00	-6.8046932263e-01
-4.0136206680e+00	-2.5482050808e+00	-9.9083567493e-01
-4.0386206680e+00	-2.5049038106e+00	-1.3119126966e+00
-4.0636206680e+00	-2.4616025404e+00	-1.6437003877e+00
-4.0886206680e+00	-2.4183012702e+00	-1.9861987481e+00
-4.1136206680e+00	-2.3750000000e+00	-2.3394077779e+00
-3.8383578736e+00	-2.6317691454e+00	-5.7851338199e-01
-3.8743578736e+00	-2.5694153163e+00	-8.2866140972e-01
-3.9103578736e+00	-2.5070614872e+00	-1.0909437673e+00
-3.9463578736e+00	-2.4447076581e+00	-1.3653604546e+00
-3.9823578736e+00	-2.3823538291e+00	-1.6519114718e+00
-4.0183578736e+00	-2.3200000000e+00	-1.9505968188e+00
-3.6607745711e+00	-2.6793524479e+00	-4.9116005599e-01
-3.7097745711e+00	-2.5944819583e+00	-7.0679359363e-01
-3.7587745711e+00	-2.5096114687e+00	-9.3302638510e-01
-3.8077745711e+00	-2.4247409791e+00	-1.1698584304e+00
-3.8567745711e+00	-2.3398704896e+00	-1.4172897295e+00
-3.9057745711e+00	-2.2550000000e+00	-1.6753202825e+00
-3.4558707605e+00	-2.7342562584e+00	-4.1764140379e-01
-3.5198707605e+00	-2.6234050067e+00	-6.1204186073e-01
-3.5838707605e+00	-2.5125537551e+00	-8.1449486290e-01
-3.6478707605e+00	-2.4017025034e+00	-1.0250004103e+00
-3.7118707605e+00	-2.2908512517e+00	-1.2435585029e+00
-3.7758707605e+00	-2.1800000000e+00	-1.4701691407e+00
-3.2236464419e+00	-2.7964805771e+00	-3.5567377400e-01
-3.3046464419e+00	-2.6561844617e+00	-5.3631984483e-01
-3.3856464419e+00	-2.5158883462e+00	-7.2221103717e-01
-3.4666464419e+00	-2.3755922308e+00	-9.1334735102e-01
-3.5476464419e+00	-2.2352961154e+00	-1.1097287864e+00
-3.6286464419e+00	-2.0950000000e+00	-1.3113553433e+00
-2.9641016151e+00	-2.8660254038e+00	-3.0305482467e-01
-3.0641016151e+00	-2.6928203230e+00	-4.7443739091e-01
-3.1641016151e+00	-2.5196152423e+00	-6.4829864895e-01
-3.2641016151e+00	-2.3464101615e+00	-8.2463859877e-01
-3.3641016151e+00	-2.1732050808e+00	-1.0034572404e+00
-3.4641016151e+00	-2.0000000000e+00	-1.1847545738e+00
 5.1961524227e+00	 3.0000000000e+00	 1.4103337975e-01
 5.0961524227e+00	 3.1732050808e+00	 3.8790309856e-02
 4.9961524227e+00	 3.3464101615e+00	-4.7265491420e-02
 4.8961524227e+00	 3.5196152423e+00	-1.1713402408e-01
 4.7961524227e+00	 3.6928203230e+00	-1.7081528812e-01
 4.6961524227e+00	 3.8660254038e+00	-2.0830928355e-01
 5.5425625842e+00	 3.2000000000e+00	 1.3862076790e-01
 5.4425625842e+00	 3.3732050808e+00	 4.7422644785e-02
 5.3425625842e+00	 3.5464101615e+00	-3.1926790026e-02
 5.2425625842e+00	 3.7196152423e+00	-9.9427536531e-02
 5.1425625842e+00	 3.8928203230e+00	-1.5507959473e-01
 5.0425625842e+00	 4.0660254038e+00	-1.9888296463e-01
 5.8889727457e+00	 3.4000000000e+00	 1.3219400050e-01
 5.7889727457e+00	 3.5732050808e+00	 5.5645411650e-02
 5.6889727457e+00	 3.7464101615e+00	-1.3393069206e-02
 5.5889727457e+00	 3.9196152423e+00	-7.4921442068e-02
 5.4889727457e+00	 4.0928203230e+00	-1.2893970693e-01
 5.3889727457e+00	 4.2660254038e+00	-1.7544786381e-01
 6.2353829072e+00	 3.6000000000e+00	 1.2175307755e-01
 6.1353829072e+00	 3.7732050808e+00	 6.3458610451e-02
 6.0353829072e+00	 3.9464101615e+00	 8.3356710393e-03
 5.9353829072e+00	 4.1196152423e+00	-4.3615740688e-02
 5.8353829072e+00	 4.2928203230e+00	-9.2395624732e-02
 5.7353829072e+00	 4.4660254038e+00	-1.3800398109e-01
 6.5817930688e+00	 3.8000000000e+00	 1.0729799904e-01
 6.4817930688e+00	 3.9732050808e+00	 7.0862241188e-02
 6.3817930688e+00	 4.1464101615e+00	 3.3259430711e-02
 6.2817930688e+00	 4.3196152423e+00	-5.5104323931e-03
 6.1817930688e+00	 4.4928203230e+00	-4.5447348123e-02
 6.0817930688e+00	 4.6660254038e+00	-8.6551316480e-02
 6.9282032303e+00	 4.0000000000e+00	 8.8828764974e-02
 6.8282032303e+00	 4.1732050808e+00	 7.7856303860e-02
 6.7282032303e+00	 4.3464101615e+00	 6.1378209808e-02
 6.6282032303e+00	 4.5196152423e+00	 3.9394482818e-02
 6.5282032303e+00	 4.6928203230e+00	 1.1905122891e-02
 6.4282032303e+00	 4.8660254038e+00	-2.1089869974e-02
 6.9282032303e+00	 4.0000000000e+00	 8.8828764974e-02
 6.8282032303e+00	 4.1732050808e+00	 7.7856303860e-02
 6.7282032303e+00	 4.3464101615e+00	 6.1378209808e-02
 6.6282032303e+00	 4.5196152423e+00	 3.9394482818e-02
 6.5282032303e+00	 4.6928203230e+00	 1.1905122891e-02
 6.4282032303e+00	 4.8660254038e+00	-2.1089869974e-02
 7.2746133918e+00	 4.2000000000e+00	 8.8595890303e-02
 7.1746133918e+00	 4.3732050808e+00	 7.5633160081e-02
 7.0746133918e+00	 4.5464101615e+00	 5.9032765313e-02
 6.9746133918e+00	 4.7196152423e+00	 3.8794705998e-02
 6.8746133918e+00	 4.8928203230e+00	 1.4918982137e-02
 6.7746133918e+00	 5.0660254038e+00	-1.2594406271e-02
 7.6210235533e+00	 4.4000000000e+00	 9.0004011127e-02
 7.5210235533e+00	 4.5732050808e+00	 7.4731191185e-02
 7.4210235533e+00	 4.7464101615e+00	 5.7688675088e-02
 7.3210235533e+00	 4.9196152423e+00	 3.8876462835e-02
 7.2210235533e+00	 5.0928203230e+00	 1.8294554426e-02
 7.1210235533e+00	 5.2660254038e+00	-4.0570501388e-03
 7.9674337148e+00	 4.6000000000e+00	 9.3053127447e-02
 7.8674337148e+00	 4.7732050808e+00	 7.5150397172e-02
 7.7674337148e+00	 4.9464101615e+00	 5.7345939132e-02
 7.6674337148e+00	 5.1196152423e+00	 3.9639753327e-02
 7.5674337148e+00	 5.2928203230e+00	 2.2031839757e-02
 7.4674337148e+00	 5.4660254038e+00	 4.5221984227e-03
 8.3138438763e+00	 4.8000000000e+00	 9.7743239264e-02
 8.2138438763e+00	 4.9732050808e+00	 7.6890778042e-02
 8.1138438763e+00	 5.1464101615e+00	 5.8004557446e-02
 8.0138438763e+00	 5.3196152423e+00	 4.1084577476e-02
 7.9138438763e+00	 5.4928203230e+00	 2.6130838132e-02
 7.8138438763e+00	 5.6660254038e+00	 1.3143339414e-02
 8.6602540378e+00	 5.0000000000e+00	 1.0408991584e-01
 8.5602540378e+00	 5.1732050808e+00	 7.9944334437e-02
 8.4602540378e+00	 5.3464101615e+00	 5.9649459766e-02
 8.3602540378e+00	 5.5196152423e+00	 4.3205473959e-02
 8.2602540378e+00	 5.6928203230e+00	 3.0591549549e-02
 8.1602540378e+00	 5.8660254038e+00	 2.1806372834e-02
 4.6961524227e+00	 3.8660254038e+00	-1.2849978260e-01
 4.2461524227e+00	 4.6454482672e+00	-9.4890682090e-02
 3.7961524227e+00	 5.4248711306e+00	-7.2931396423e-02
 3.3461524227e+00	 6.2042939940e+00	-6.2621925601e-02
 2.8961524227e+00	 6.9837168574e+00	-6.3962269625e-02
 2.4461524227e+00	 7.7631397208e+00	-7.6952428495e-02
 5.0425625842e+00	 4.0660254038e+00	-1.0571192113e-01
 4.5925625842e+00	 4.8454482672e+00	-9.4320188898e-02
 4.1425625842e+00	 5.6248711306e+00	-8.5084505972e-02
 3.6925625842e+00	 6.4042939940e+00	-7.8004872352e-02
 3.2425625842e+00	 7.1837168574e+00	-7.3081288038e-02
 2.7925625842e+00	 7.9631397208e+00	-7.0313753031e-02
 5.3889727457e+00	 4.2660254038e+00	-7.7011523763e-02
 4.9389727457e+00	 5.0454482672e+00	-9.0545836192e-02
 4.4889727457e+00	 5.8248711306e+00	-9.6742432388e-02
 4.0389727457e+00	 6.6042939940e+00	-9.5601312350e-02
 3.5889727457e+00	 7.3837168574e+00	-8.7122476080e-02
 3.1389727457e+00	 8.1631397208e+00	-7.1305923577e-02
 5.7353829072e+00	 4.4660254038e+00	-4.2398590503e-02
 5.2853829072e+00	 5.2454482672e+00	-8.3567623973e-02
 4.8353829072e+00	 6.0248711306e+00	-1.0790517567e-01
 4.3853829072e+00	 6.8042939940e+00	-1.1541124560e-01
 3.9353829072e+00	 7.5837168574e+00	-1.0608583375e-01
 3.4853829072e+00	 8.3631397208e+00	-8.0141152318e-02
 6.0817930688e+00	 4.6660254038e+00	-1.8731213484e-03
 5.6317930688e+00	 5.4454482672e+00	-7.3385552241e-02
 5.1817930688e+00	 6.2248711306e+00	-1.1857273582e-01
 4.7317930688e+00	 7.0042939940e+00	-1.3743467209e-01
 4.2817930688e+00	 7.7837168574e+00	-1.2997136105e-01
 3.8317930688e+00	 8.5631397208e+00	-9.7807971309e-02
 6.4282032303e+00	 4.8660254038e+00	 4.4564883700e-02
 5.9782032303e+00	 5.6454482672e+00	-5.9999620995e-02
 5.5282032303e+00	 6.4248711306e+00	-1.2874511284e-01
 5.0782032303e+00	 7.2042939940e+00	-1.6167159183e-01
 4.6282032303e+00	 7.9837168574e+00	-1.5877905798e-01
 4.1782032303e+00	 8.7631397208e+00	-1.2308343155e-01
 2.4461524227e+00	 7.7631397208e+00	-7.6952428495e-02
 1.9961524227e+00	 8.5425625842e+00	-5.5406176458e-02
 1.5461524227e+00	 9.3219854476e+00	-4.4727565037e-02
 1.0961524227e+00	 1.0101408311e+01	-4.0760027481e-02
 6.4615242271e-01	 1.0880831174e+01	-4.3456476555e-02
 1.9615242271e-01	 1.1660254038e+01	-5.2769825015e-02
 2.7925625842e+00	 7.9631397208e+00	-7.0313753031e-02
 2.3425625842e+00	 8.7425625842e+00	-5.2549800767e-02
 1.8925625842e+00	 9.5219854476e+00	-4.3256919329e-02
 1.4425625842e+00	 1.0301408311e+01	-3.9727868996e-02
 9.9256258422e-01	 1.1080831174e+01	-4.1915562533e-02
 5.4256258422e-01	 1.1860254038e+01	-4.9772912698e-02
 3.1389727457e+00	 8.1631397208e+00	-7.1305923577e-02
 2.6889727457e+00	 8.9425625842e+00	-5.5592214532e-02
 2.2389727457e+00	 9.7219854476e+00	-4.5960089446e-02
 1.7889727457e+00	 1.0501408311e+01	-4.1144552704e-02
 1.3389727457e+00	 1.1280831174e+01	-4.1098517073e-02
 8.8897274573e-01	 1.2060254038e+01	-4.5774895312e-02
 3.4853829072e+00	 8.3631397208e+00	-8.0141152318e-02
 3.0353829072e+00	 9.1425625842e+00	-6.4528377140e-02
 2.5853829072e+00	 9.9219854476e+00	-5.2832034774e-02
 2.1353829072e+00	 1.0701408311e+01	-4.5005037993e-02
 1.6853829072e+00	 1.1480831174e+01	-4.1000299562e-02
 1.2353829072e+00	 1.2260254038e+01	-4.0770734232e-02
 3.8317930688e+00	 8.5631397208e+00	-9.7807971309e-02
 3.3817930688e+00	 9.3425625842e+00	-7.9353247981e-02
 2.9317930688e+00	 1.0121985448e+01	-6.3867714703e-02
 2.4817930688e+00	 1.0901408311e+01	-5.1304284249e-02
 2.0317930688e+00	 1.1680831174e+01	-4.1615869386e-02
 1.5817930688e+00	 1.2460254038e+01	-3.4755385064e-02
 4.1782032303e+00	 8.7631397208e+00	-1.2308343155e-01
 3.7282032303e+00	 9.5425625842e+00	-1.0006178644e-01
 3.2782032303e+00	 1.0321985448e+01	-7.9062088619e-02
 2.8282032303e+00	 1.1101408311e+01	-6.0037250861e-02
 2.3782032303e+00	 1.1880831174e+01	-4.2940185934e-02
 1.9282032303e+00	 1.2660254038e+01	-2.7723808992e-02
 6.4282032303e+00	 4.8660254038e+00	 4.4564883700e-02
 5.9782032303e+00	 5.6454482672e+00	-5.9999620995e-02
 5.5282032303e+00	 6.4248711306e+00	-1.2874511284e-01
 5.0782032303e+00	 7.2042939940e+00	-1.6167159183e-01
 4.6282032303e+00	 7.9837168574e+00	-1.5877905798e-01
 4.1782032303e+00	 8.7631397208e+00	-1.2308343155e-01
 6.7746133918e+00	 5.0660254038e+00	 3.1976905688e-02
 6.3246133918e+00	 5.8454482672e+00	-6.5632323180e-02
 5.8746133918e+00	 6.6248711306e+00	-1.2928665493e-01
 5.4246133918e+00	 7.4042939940e+00	-1.5898608957e-01
 4.9746133918e+00	 8.1837168574e+00	-1.5473062710e-01
 4.5246133918e+00	 8.9631397208e+00	-1.2089969410e-01
 7.1210235533e+00	 5.2660254038e+00	 2.3407065596e-02
 6.6710235533e+00	 6.0454482672e+00	-6.9155093146e-02
 6.2210235533e+00	 6.8248711306e+00	-1.2962647051e-01
 5.7710235533e+00	 7.6042939940e+00	-1.5800706650e-01
 5.3210235533e+00	 8.3837168574e+00	-1.5462907788e-01
 4.8710235533e+00	 9.1631397208e+00	-1.2420656125e-01
 7.4674337148e+00	 5.4660254038e+00	 1.8855363423e-02
 7.0174337148e+00	 6.2454482672e+00	-7.0567930894e-02
 6.5674337148e+00	 7.0248711306e+00	-1.2976455957e-01
 6.1174337148e+00	 7.8042939940e+00	-1.5873452261e-01
 5.6674337148e+00	 8.5837168574e+00	-1.5910516502e-01
 5.2174337148e+00	 9.3631397208e+00	-1.3299899238e-01
 7.8138438763e+00	 5.6660254038e+00	 1.8321799169e-02
 7.3638438763e+00	 6.4454482672e+00	-6.9870836423e-02
 6.9138438763e+00	 7.2248711306e+00	-1.2970092211e-01
 6.4638438763e+00	 8.0042939940e+00	-1.6116845790e-01
 6.0138438763e+00	 8.7837168574e+00	-1.6715483475e-01
 5.5638438763e+00	 9.5631397208e+00	-1.4727194690e-01
 8.1602540378e+00	 5.8660254038e+00	 2.1806372834e-02
 7.7102540378e+00	 6.6454482672e+00	-6.7063809734e-02
 7.2602540378e+00	 7.4248711306e+00	-1.2943555814e-01
 6.8102540378e+00	 8.2042939940e+00	-1.6530887237e-01
 6.3602540378e+00	 8.9837168574e+00	-1.7877304644e-01
 5.9102540378e+00	 9.7631397208e+00	-1.6702038418e-01
 4.1782032303e+00	 8.7631397208e+00	-1.2308343155e-01
 3.7282032303e+00	 9.5425625842e+00	-1.0006178644e-01
 3.2782032303e+00	 1.0321985448e+01	-7.9062088619e-02
 2.8282032303e+00	 1.1101408311e+01	-6.0037250861e-02
 2.3782032303e+00	 1.1880831174e+01	-4.2940185934e-02
 1.9282032303e+00	 1.2660254038e+01	-2.7723808992e-02
 4.5246133918e+00	 8.9631397208e+00	-1.2089969410e-01
 4.0746133918e+00	 9.7425625842e+00	-1.0004849227e-01
 3.6246133918e+00	 1.0521985448e+01	-7.9474830598e-02
 3.1746133918e+00	 1.1301408311e+01	-5.9131621847e-02
 2.7246133918e+00	 1.2080831174e+01	-3.8971780516e-02
 2.2746133918e+00	 1.2860254038e+01	-1.8948216789e-02
 4.8710235533e+00	 9.1631397208e+00	-1.2420656125e-01
 4.4210235533e+00	 9.9425625842e+00	-1.0393332072e-01
 3.9710235533e+00	 1.0721985448e+01	-8.2193213194e-02
 3.5210235533e+00	 1.1501408311e+01	-5.8939151457e-02
 3.0710235533e+00	 1.2280831174e+01	-3.4124050170e-02
 2.6210235533e+00	 1.3060254038e+01	-7.7008192265e-03
 5.2174337148e+00	 9.3631397208e+00	-1.3299899238e-01
 4.7674337148e+00	 1.0142562584e+01	-1.1171123115e-01
 4.3174337148e+00	 1.0921985448e+01	-8.7212195793e-02
 3.8674337148e+00	 1.1701408311e+01	-5.9454799078e-02
 3.4174337148e+00	 1.2480831174e+01	-2.8391955843e-02
 2.9674337148e+00	 1.3260254038e+01	 6.0234243107e-03
 5.5638438763e+00	 9.5631397208e+00	-1.4727194690e-01
 5.1138438763e+00	 1.0342562584e+01	-1.2337718298e-01
 4.6638438763e+00	 1.1121985448e+01	-9.4526737783e-02
 4.2138438763e+00	 1.1901408311e+01	-6.0673524095e-02
 3.7638438763e+00	 1.2680831174e+01	-2.1770456920e-02
 3.3138438763e+00	 1.3460254038e+01	 2.2229554438e-02
 5.9102540378e+00	 9.7631397208e+00	-1.6702038418e-01
 5.4602540378e+00	 1.0542562584e+01	-1.3892613557e-01
 5.0102540378e+00	 1.1321985448e+01	-1.0413179855e-01
 4.5602540378e+00	 1.2101408311e+01	-6.2590287463e-02
 4.1102540378e+00	 1.2880831174e+01	-1.4254512786e-02
 3.6602540378e+00	 1.3660254038e+01	 4.0922611770e-02
 3.8301270189e+00	 3.3660254038e+00	-4.8988080408e-02
 3.3801270189e+00	 4.1454482672e+00	-1.9817278365e-02
 2.9301270189e+00	 4.9248711306e+00	-4.0829325194e-03
 2.4801270189e+00	 5.7042939940e+00	-1.7850428719e-03
 2.0301270189e+00	 6.4837168574e+00	-1.2923609422e-02
 1.5801270189e+00	 7.2631397208e+00	-3.7498632170e-02
 4.0033320997e+00	 3.4660254038e+00	-4.1796133349e-02
 3.5533320997e+00	 4.2454482672e+00	-1.2515737591e-02
 3.1033320997e+00	 5.0248711306e+00	 1.6768992147e-03
 2.6533320997e+00	 5.8042939940e+00	 7.8177706869e-04
 2.2033320997e+00	 6.5837168574e+00	-1.5201104029e-02
 1.7533320997e+00	 7.3631397208e+00	-4.6271744079e-02
 4.1765371804e+00	 3.5660254038e+00	-5.3059415339e-02
 3.7265371804e+00	 4.3454482672e+00	-1.9548586646e-02
 3.2765371804e+00	 5.1248711306e+00	-2.7768196585e-03
 2.8265371804e+00	 5.9042939940e+00	-2.7441143775e-03
 2.3765371804e+00	 6.6837168574e+00	-1.9450470803e-02
 1.9265371804e+00	 7.4631397208e+00	-5.2895888934e-02
 4.3497422612e+00	 3.6660254038e+00	-8.2777926377e-02
 3.8997422612e+00	 4.4454482672e+00	-4.0915825528e-02
 3.4497422612e+00	 5.2248711306e+00	-1.7444089139e-02
 2.9997422612e+00	 6.0042939940e+00	-1.2362717210e-02
 2.5497422612e+00	 6.7837168574e+00	-2.5671709742e-02
 2.0997422612e+00	 7.5631397208e+00	-5.7371066734e-02
 4.5229473419e+00	 3.7660254038e+00	-1.3095166646e-01
 4.0729473419e+00	 4.5454482672e+00	-7.6617454238e-02
 3.6229473419e+00	 5.3248711306e+00	-4.2324909227e-02
 3.1729473419e+00	 6.1042939940e+00	-2.8074031430e-02
 2.7229473419e+00	 6.8837168574e+00	-3.3864820848e-02
 2.2729473419e+00	 7.6631397208e+00	-5.9697277479e-02
 4.6961524227e+00	 3.8660254038e+00	-1.9758063560e-01
 4.2461524227e+00	 4.6454482672e+00	-1.2665347278e-01
 3.7961524227e+00	 5.4248711306e+00	-7.7419279922e-02
 3.3461524227e+00	 6.2042939940e+00	-4.9878057036e-02
 2.8961524227e+00	 6.9837168574e+00	-4.4029804119e-02
 2.4461524227e+00	 7.7631397208e+00	-5.9874521170e-02
 1.5801270189e+00	 7.2631397208e+00	-3.7498632170e-02
 1.1301270189e+00	 8.0425625842e+00	-3.1594988355e-02
 6.8012701892e-01	 8.8219854476e+00	-3.4239094065e-02
 2.3012701892e-01	 9.6014083110e+00	-4.4079683792e-02
-2.1987298108e-01	 1.0380831174e+01	-5.8927494435e-02
-6.6987298108e-01	 1.1160254038e+01	-7.8735438750e-02
 1.7533320997e+00	 7.3631397208e+00	-4.6271744079e-02
 1.3033320997e+00	 8.1425625842e+00	-3.6710766671e-02
 8.5333209968e-01	 8.9219854476e+00	-3.6421172938e-02
 4.0333209968e-01	 9.7014083110e+00	-4.2567266364e-02
-4.6667900321e-02	 1.0480831174e+01	-5.3695089506e-02
-4.9666790032e-01	 1.1260254038e+01	-6.9757555120e-02
 1.9265371804e+00	 7.4631397208e+00	-5.2895888934e-02
 1.4765371804e+00	 8.2425625842e+00	-4.0485887727e-02
 1.0265371804e+00	 9.0219854476e+00	-3.8072281622e-02
 5.7653718044e-01	 9.8014083110e+00	-4.1331872315e-02
 1.2653718044e-01	 1.0580831174e+01	-4.9547701526e-02
-3.2346281956e-01	 1.1360254038e+01	-6.2672682008e-02
 2.0997422612e+00	 7.5631397208e+00	-5.7371066734e-02
 1.6497422612e+00	 8.3425625842e+00	-4.2988543066e-02
 1.1997422612e+00	 9.1219854476e+00	-3.9191790040e-02
 7.4974226119e-01	 9.9014083110e+00	-4.0372871570e-02
 2.9974226119e-01	 1.0680831174e+01	-4.6484700418e-02
-1.5025773881e-01	 1.1460254038e+01	-5.7480189338e-02
 2.2729473419e+00	 7.6631397208e+00	-5.9697277479e-02
 1.8229473419e+00	 8.4425625842e+00	-4.4820845538e-02
 1.3729473419e+00	 9.2219854476e+00	-3.9779068117e-02
 9.2294734195e-01	 1.0001408311e+01	-3.9689634053e-02
 4.7294734195e-01	 1.0780831174e+01	-4.4505456106e-02
 2.2947341950e-02	 1.1560254038e+01	-5.4179447032e-02
 2.4461524227e+00	 7.7631397208e+00	-5.9874521170e-02
 1.9961524227e+00	 8.5425625842e+00	-4.5312294022e-02
 1.5461524227e+00	 9.3219854476e+00	-3.9833485776e-02
 1.0961524227e+00	 1.0101408311e+01	-3.9281529686e-02
 6.4615242271e-01	 1.0880831174e+01	-4.3609338513e-02
 1.9615242271e-01	 1.1660254038e+01	-5.2769825015e-02
 2.9641016151e+00	 2.8660254038e+00	-1.5664741543e-01
 2.5141016151e+00	 3.6454482672e+00	-7.7932007281e-02
 2.0641016151e+00	 4.4248711306e+00	-2.2239986681e-02
 1.6141016151e+00	 5.2042939940e+00	 1.0428646374e-02
 1.1641016151e+00	 5.9837168574e+00	 2.0073891885e-02
 7.1410161514e-01	 6.7631397208e+00	 6.6957498512e-03
 3.1373066959e+00	 2.9660254038e+00	-1.2545648693e-01
 2.6873066959e+00	 3.7454482672e+00	-6.4392271449e-02
 2.2373066959e+00	 4.5248711306e+00	-2.1256142098e-02
 1.7873066959e+00	 5.3042939940e+00	 3.9519011234e-03
 1.3373066959e+00	 6.0837168574e+00	 1.1231858216e-02
 8.8730669589e-01	 6.8631397208e+00	 5.8372917818e-04
 3.3105117767e+00	 3.0660254038e+00	-8.3768258868e-02
 2.8605117767e+00	 3.8454482672e+00	-4.2904939991e-02
 2.4105117767e+00	 4.6248711306e+00	-1.4874405828e-02
 1.9605117767e+00	 5.4042939940e+00	 3.2334361998e-04
 1.5105117767e+00	 6.1837168574e+00	 2.6883083540e-03
 1.0605117767e+00	 6.9631397208e+00	-7.7795116262e-03
 3.4837168574e+00	 3.1660254038e+00	-3.1582731239e-02
 3.0337168574e+00	 3.9454482672e+00	-1.3470012906e-02
 2.5837168574e+00	 4.7248711306e+00	-3.0947778713e-03
 2.1337168574e+00	 5.5042939940e+00	-4.5702613580e-04
 1.6837168574e+00	 6.2837168574e+00	-5.5567576994e-03
 1.2337168574e+00	 7.0631397208e+00	-1.8393972562e-02
 3.6569219382e+00	 3.2660254038e+00	 3.1100095955e-02
 3.2069219382e+00	 4.0454482672e+00	 2.3912509806e-02
 2.7569219382e+00	 4.8248711306e+00	 1.4082741773e-02
 2.3069219382e+00	 5.6042939940e+00	 1.6107918560e-03
 1.8569219382e+00	 6.3837168574e+00	-1.3503339945e-02
 1.4069219382e+00	 7.1631397208e+00	-3.1259653629e-02
 3.8301270189e+00	 3.3660254038e+00	 1.0428022272e-01
 3.3801270189e+00	 4.1454482672e+00	 6.9242628144e-02
 2.9301270189e+00	 4.9248711306e+00	 3.6658153104e-02
 2.4801270189e+00	 5.7042939940e+00	 6.5267975954e-03
 2.0301270189e+00	 6.4837168574e+00	-2.1151438382e-02
 1.5801270189e+00	 7.2631397208e+00	-4.6376554828e-02
 7.1410161514e-01	 6.7631397208e+00	 6.6957498512e-03
 2.6410161514e-01	 7.5425625842e+00	-2.5380594486e-02
-1.8589838486e-01	 8.3219854476e+00	-5.2446250721e-02
-6.3589838486e-01	 9.1014083110e+00	-8.0230536169e-02
-1.0858983849e+00	 9.8808311744e+00	-1.0316651984e-01
-1.5358983849e+00	 1.0660254038e+01	-1.2112331274e-01
 8.8730669589e-01	 6.8631397208e+00	 5.8372917818e-04
 4.3730669589e-01	 7.6425625842e+00	-2.4105911295e-02
-1.2693304105e-02	 8.4219854476e+00	-4.6863243414e-02
-4.6269330411e-01	 9.2014083110e+00	-7.2218814862e-02
-9.1269330411e-01	 9.9808311744e+00	-9.5071676455e-02
-1.3626933041e+00	 1.0760254038e+01	-1.1537474094e-01
 1.0605117767e+00	 6.9631397208e+00	-7.7795116262e-03
 6.1051177665e-01	 7.7425625842e+00	-2.4358714128e-02
 1.6051177665e-01	 8.5219854476e+00	-4.2172317413e-02
-2.8948822335e-01	 9.3014083110e+00	-6.4291322797e-02
-7.3948822335e-01	 1.0080831174e+01	-8.6337011983e-02
-1.1894882233e+00	 1.0860254038e+01	-1.0826229772e-01
 1.2337168574e+00	 7.0631397208e+00	-1.8393972562e-02
 7.8371685741e-01	 7.8425625842e+00	-2.6139002985e-02
 3.3371685741e-01	 8.6219854476e+00	-3.8289040911e-02
-1.1628314259e-01	 9.4014083110e+00	-5.6447429898e-02
-5.6628314259e-01	 1.0180831174e+01	-7.6961896344e-02
-1.0162831426e+00	 1.0960254038e+01	-9.9785353000e-02
 1.4069219382e+00	 7.1631397208e+00	-3.1259653629e-02
 9.5692193817e-01	 7.9425625842e+00	-2.9446777867e-02
 5.0692193817e-01	 8.7219854476e+00	-3.5212783831e-02
 5.6921938165e-02	 9.5014083110e+00	-4.8686506089e-02
-3.9307806183e-01	 1.0280831174e+01	-6.6945699461e-02
-8.4307806183e-01	 1.1060254038e+01	-8.9943276701e-02
 1.5801270189e+00	 7.2631397208e+00	-4.6376554828e-02
 1.1301270189e+00	 8.0425625842e+00	-3.4282038772e-02
 6.8012701892e-01	 8.8219854476e+00	-3.2942916097e-02
 2.3012701892e-01	 9.6014083110e+00	-4.1007921292e-02
-2.1987298108e-01	 1.0380831174e+01	-5.6287791259e-02
-6.6987298108e-01	 1.1160254038e+01	-7.8735438750e-02
-5.0000000000e-01	 8.6602540378e-01	-3.3497059257e-01
-9.5000000000e-01	 1.6454482672e+00	-2.3084654597e-01
-1.4000000000e+00	 2.4248711306e+00	-1.5996620106e-01
-1.8500000000e+00	 3.2042939940e+00	-1.2232955786e-01
-2.3000000000e+00	 3.9837168574e+00	-1.1793661635e-01
-2.7500000000e+00	 4.7631397208e+00	-1.4678737654e-01
-1.5358983849e-01	 1.0660254038e+00	-3.6435159154e-01
-6.0358983849e-01	 1.8454482672e+00	-2.4203808447e-01
-1.0535898385e+00	 2.6248711306e+00	-1.5854439216e-01
-1.5035898385e+00	 3.4042939940e+00	-1.1387051462e-01
-1.9535898385e+00	 4.1837168574e+00	-1.0801645184e-01
-2.4035898385e+00	 4.9631397208e+00	-1.4098220382e-01
 1.9282032303e-01	 1.2660254038e+00	-3.9861923069e-01
-2.5717967697e-01	 2.0454482672e+00	-2.5588178014e-01
-7.0717967697e-01	 2.8248711306e+00	-1.5754025741e-01
-1.1571796770e+00	 3.6042939940e+00	-1.0359466250e-01
-1.6071796770e+00	 4.3837168574e+00	-9.4044995420e-02
-2.0571796770e+00	 5.1631397208e+00	-1.2889125616e-01
 5.3923048454e-01	 1.4660254038e+00	-4.3777351003e-01
 8.9230484541e-02	 2.2454482672e+00	-2.7237763296e-01
-3.6076951546e-01	 3.0248711306e+00	-1.5695379679e-01
-8.1076951546e-01	 3.8042939940e+00	-9.1502001499e-02
-1.2607695155e+00	 4.5837168574e+00	-7.6022247095e-02
-1.7107695155e+00	 5.3631397208e+00	-1.1051453358e-01
 8.8564064606e-01	 1.6660254038e+00	-4.8181442955e-01
 4.3564064606e-01	 2.4454482672e+00	-2.9152564296e-01
-1.4359353945e-02	 3.2248711306e+00	-1.5678501031e-01
-4.6435935394e-01	 4.0042939940e+00	-7.7592531611e-02
-9.1435935394e-01	 4.7837168574e+00	-5.3948206863e-02
-1.3643593539e+00	 5.5631397208e+00	-8.5852036063e-02
 1.2320508076e+00	 1.8660254038e+00	-5.3074198927e-01
 7.8205080757e-01	 2.6454482672e+00	-3.1332581011e-01
 3.3205080757e-01	 3.4248711306e+00	-1.5703389797e-01
-1.1794919243e-01	 4.2042939940e+00	-6.1866252840e-02
-5.6794919243e-01	 4.9837168574e+00	-2.7822874722e-02
-1.0179491924e+00	 5.7631397208e+00	-5.4903763616e-02
-2.7500000000e+00	 4.7631397208e+00	-1.4678737654e-01
-3.2000000000e+00	 5.5425625842e+00	-1.3356534391e-01
-3.6500000000e+00	 6.3219854476e+00	-1.3264079592e-01
-4.1000000000e+00	 7.1014083110e+00	-1.4401373257e-01
-4.5500000000e+00	 7.8808311744e+00	-1.6768415387e-01
-5.0000000000e+00	 8.6602540378e+00	-2.0568227046e-01
-2.4035898385e+00	 4.9631397208e+00	-1.4098220382e-01
-2.8535898385e+00	 5.7425625842e+00	-1.3112598588e-01
-3.3035898385e+00	 6.5219854476e+00	-1.3179925423e-01
-3.7535898385e+00	 7.3014083110e+00	-1.4300200886e-01
-4.2035898385e+00	 8.0808311744e+00	-1.6473424978e-01
-4.6535898385e+00	 8.8602540378e+00	-2.0035816831e-01
-2.0571796770e+00	 5.1631397208e+00	-1.2889125616e-01
-2.5071796770e+00	 5.9425625842e+00	-1.2338053879e-01
-2.9571796770e+00	 6.7219854476e+00	-1.2663130934e-01
-3.4071796770e+00	 7.5014083110e+00	-1.3864356782e-01
-3.8571796770e+00	 8.2808311744e+00	-1.5941731423e-01
-4.3071796770e+00	 9.0602540378e+00	-1.9370892230e-01
-1.7107695155e+00	 5.3631397208e+00	-1.1051453358e-01
-2.1607695155e+00	 6.1425625842e+00	-1.1032900264e-01
-2.6107695155e+00	 6.9219854476e+00	-1.1713696126e-01
-3.0607695155e+00	 7.7014083110e+00	-1.3093840946e-01
-3.5107695155e+00	 8.4808311744e+00	-1.5273038928e-01
-3.9607695155e+00	 9.2602540378e+00	-1.8572949181e-01
-1.3643593539e+00	 5.5631397208e+00	-8.5852036063e-02
-1.8143593539e+00	 6.3425625842e+00	-9.1971377419e-02
-2.2643593539e+00	 7.1219854476e+00	-1.0331620999e-01
-2.7143593539e+00	 7.9014083110e+00	-1.1988653376e-01
-3.1643593539e+00	 8.6808311744e+00	-1.4407727074e-01
-3.6143593539e+00	 9.4602540378e+00	-1.7641483624e-01
-1.0179491924e+00	 5.7631397208e+00	-5.4903763616e-02
-1.4679491924e+00	 6.5425625842e+00	-6.8307663139e-02
-1.9179491924e+00	 7.3219854476e+00	-8.5169055515e-02
-2.3679491924e+00	 8.1014083110e+00	-1.0548794074e-01
-2.8179491924e+00	 8.8808311744e+00	-1.3310546554e-01
-3.2679491924e+00	 9.6602540378e+00	-1.6575991498e-01
 1.2320508076e+00	 1.8660254038e+00	-5.3074198927e-01
 7.8205080757e-01	 2.6454482672e+00	-3.1332581011e-01
 3.3205080757e-01	 3.4248711306e+00	-1.5703389797e-01
-1.1794919243e-01	 4.2042939940e+00	-6.1866252840e-02
-5.6794919243e-01	 4.9837168574e+00	-2.7822874722e-02
-1.0179491924e+00	 5.7631397208e+00	-5.4903763616e-02
 1.5784609691e+00	 2.0660254038e+00	-5.0863523219e-01
 1.1284609691e+00	 2.8454482672e+00	-3.0172835047e-01
 6.7846096908e-01	 3.6248711306e+00	-1.5220627814e-01
 2.2846096908e-01	 4.4042939940e+00	-6.0069015197e-02
-2.2153903092e-01	 5.1837168574e+00	-2.5316561649e-02
-6.7153903092e-01	 5.9631397208e+00	-4.7948917493e-02
 1.9248711306e+00	 2.2660254038e+00	-4.7273453517e-01
 1.4748711306e+00	 3.0454482672e+00	-2.7794467384e-01
 1.0248711306e+00	 3.8248711306e+00	-1.3680016428e-01
 5.7487113060e-01	 4.6042939940e+00	-4.9301006496e-02
 1.2487113060e-01	 5.3837168574e+00	-1.5447200478e-02
-3.2512886940e-01	 6.1631397208e+00	-3.5238746231e-02
 2.2712812921e+00	 2.4660254038e+00	-4.2303989822e-01
 1.8212812921e+00	 3.2454482672e+00	-2.4197478025e-01
 1.3712812921e+00	 4.0248711306e+00	-1.1081555642e-01
 9.2128129211e-01	 4.8042939940e+00	-2.9562226738e-02
 4.7128129211e-01	 5.5837168574e+00	 1.7852087903e-03
 2.1281292110e-02	 6.3631397208e+00	-1.6773249831e-02
 2.6176914536e+00	 2.6660254038e+00	-3.5955132134e-01
 2.1676914536e+00	 3.4454482672e+00	-1.9381866967e-01
 1.7176914536e+00	 4.2248711306e+00	-7.4252454534e-02
 1.2676914536e+00	 5.0042939940e+00	-8.5267592399e-04
 8.1769145362e-01	 5.7837168574e+00	 2.6380666156e-02
 3.6769145362e-01	 6.5631397208e+00	 7.4475717076e-03
 2.9641016151e+00	 2.8660254038e+00	-2.8226880453e-01
 2.5141016151e+00	 3.6454482672e+00	-1.3347634213e-01
 2.0641016151e+00	 4.4248711306e+00	-2.7110858635e-02
 1.6141016151e+00	 5.2042939940e+00	 3.6827645947e-02
 1.1641016151e+00	 5.9837168574e+00	 5.8339171620e-02
 7.1410161514e-01	 6.7631397208e+00	 3.7423718385e-02
-1.0179491924e+00	 5.7631397208e+00	-5.4903763616e-02
-1.4679491924e+00	 6.5425625842e+00	-6.8307663139e-02
-1.9179491924e+00	 7.3219854476e+00	-8.5169055515e-02
-2.3679491924e+00	 8.1014083110e+00	-1.0548794074e-01
-2.8179491924e+00	 8.8808311744e+00	-1.3310546554e-01
-3.2679491924e+00	 9.6602540378e+00	-1.6575991498e-01
-6.7153903092e-01	 5.9631397208e+00	-4.7948917493e-02
-1.1215390309e+00	 6.7425625842e+00	-6.5418805861e-02
-1.5715390309e+00	 7.5219854476e+00	-8.3765069838e-02
-2.0215390309e+00	 8.3014083110e+00	-1.0298770942e-01
-2.4715390309e+00	 9.0808311744e+00	-1.2841740024e-01
-2.9215390309e+00	 9.8602540378e+00	-1.5491642384e-01
-3.2512886940e-01	 6.1631397208e+00	-3.5238746231e-02
-7.7512886940e-01	 6.9425625842e+00	-5.8110913929e-02
-1.2251288694e+00	 7.7219854476e+00	-7.9278339990e-02
-1.6751288694e+00	 8.5014083110e+00	-9.9955884393e-02
-2.1251288694e+00	 9.2808311744e+00	-1.2335743532e-01
-2.5751288694e+00	 1.0060254038e+01	-1.4503605866e-01
 2.1281292110e-02	 6.3631397208e+00	-1.6773249831e-02
-4.2871870789e-01	 7.1425625842e+00	-4.6383987341e-02
-8.7871870789e-01	 7.9219854476e+00	-7.1708865969e-02
-1.3287187079e+00	 8.7014083110e+00	-9.5439797753e-02
-1.7787187079e+00	 9.4808311744e+00	-1.1792053016e-01
-2.2287187079e+00	 1.0260254038e+01	-1.3611377883e-01
 3.6769145362e-01	 6.5631397208e+00	 7.4475717076e-03
-8.2308546376e-02	 7.3425625842e+00	-3.0238026098e-02
-5.3230854638e-01	 8.1219854476e+00	-6.1056647777e-02
-9.8230854638e-01	 8.9014083110e+00	-8.9206704681e-02
-1.4323085464e+00	 9.6808311744e+00	-1.1210164414e-01
-1.8823085464e+00	 1.0460254038e+01	-1.2814454373e-01
 7.1410161514e-01	 6.7631397208e+00	 3.7423718385e-02
 2.6410161514e-01	 7.5425625842e+00	-9.6730302007e-03
-1.8589838486e-01	 8.3219854476e+00	-4.7321685414e-02
-6.3589838486e-01	 9.1014083110e+00	-8.1251564568e-02
-1.0858983849e+00	 9.8808311744e+00	-1.0589573667e-01
-1.5358983849e+00	 1.0660254038e+01	-1.2112331274e-01
 0.0000000000e+00	 0.0000000000e+00	-2.5751704906e-01
-1.0000000000e-01	 1.7320508076e-01	-2.4964568154e-01
-2.0000000000e-01	 3.4641016151e-01	-2.4430601663e-01
-3.0000000000e-01	 5.1961524227e-01	-2.4149805434e-01
-4.0000000000e-01	 6.9282032303e-01	-2.4122179466e-01
-5.0000000000e-01	 8.6602540378e-01	-2.4347723760e-01
 3.4641016151e-01	 2.0000000000e-01	-3.1101489414e-01
 2.4641016151e-01	 3.7320508076e-01	-3.0026889985e-01
 1.4641016151e-01	 5.4641016151e-01	-2.9070650560e-01
 4.6410161514e-02	 7.1961524227e-01	-2.8232771139e-01
-5.3589838486e-02	 8.9282032303e-01	-2.7513251723e-01
-1.5358983849e-01	 1.0660254038e+00	-2.6912092311e-01
 6.9282032303e-01	 4.0000000000e-01	-3.6569732692e-01
 5.9282032303e-01	 5.7320508076e-01	-3.5334555417e-01
 4.9282032303e-01	 7.4641016151e-01	-3.4082927889e-01
 3.9282032303e-01	 9.1961524227e-01	-3.2814850109e-01
 2.9282032303e-01	 1.0928203230e+00	-3.1530322077e-01
 1.9282032303e-01	 1.2660254038e+00	-3.0229343792e-01
 1.0392304845e+00	 6.0000000000e-01	-4.2156434739e-01
 9.3923048454e-01	 7.7320508076e-01	-4.0887564450e-01
 8.3923048454e-01	 9.4641016151e-01	-3.9467433652e-01
 7.3923048454e-01	 1.1196152423e+00	-3.7896042345e-01
 6.3923048454e-01	 1.2928203230e+00	-3.6173390528e-01
 5.3923048454e-01	 1.4660254038e+00	-3.4299478201e-01
 1.3856406461e+00	 8.0000000000e-01	-4.7861595554e-01
 1.2856406461e+00	 9.7320508076e-01	-4.6685917084e-01
 1.1856406461e+00	 1.1464101615e+00	-4.5224167848e-01
 1.0856406461e+00	 1.3196152423e+00	-4.3476347845e-01
 9.8564064606e-01	 1.4928203230e+00	-4.1442457076e-01
 8.8564064606e-01	 1.6660254038e+00	-3.9122495541e-01
 1.7320508076e+00	 1.0000000000e+00	-5.3685215138e-01
 1.6320508076e+00	 1.1732050808e+00	-5.2729613319e-01
 1.5320508076e+00	 1.3464101615e+00	-5.1353130477e-01
 1.4320508076e+00	 1.5196152423e+00	-4.9555766611e-01
 1.3320508076e+00	 1.6928203230e+00	-4.7337521722e-01
 1.2320508076e+00	 1.8660254038e+00	-4.4698395810e-01
 1.7320508076e+00	 1.0000000000e+00	-5.3685215138e-01
 1.6320508076e+00	 1.1732050808e+00	-5.2729613319e-01
 1.5320508076e+00	 1.3464101615e+00	-5.1353130477e-01
 1.4320508076e+00	 1.5196152423e+00	-4.9555766611e-01
 1.3320508076e+00	 1.6928203230e+00	-4.7337521722e-01
 1.2320508076e+00	 1.8660254038e+00	-4.4698395810e-01
 2.0784609691e+00	 1.2000000000e+00	-6.2045617857e-01
 1.9784609691e+00	 1.3732050808e+00	-5.8650842863e-01
 1.8784609691e+00	 1.5464101615e+00	-5.5195458951e-01
 1.7784609691e+00	 1.7196152423e+00	-5.1679466121e-01
 1.6784609691e+00	 1.8928203230e+00	-4.8102864375e-01
 1.5784609691e+00	 2.0660254038e+00	-4.4465653710e-01
 2.4248711306e+00	 1.4000000000e+00	-7.1889053964e-01
 2.3248711306e+00	 1.5732050808e+00	-6.5947692260e-01
 2.2248711306e+00	 1.7464101615e+00	-6.0305993745e-01
 2.1248711306e+00	 1.9196152423e+00	-5.4963958418e-01
 2.0248711306e+00	 2.0928203230e+00	-4.9921586279e-01
 1.9248711306e+00	 2.2660254038e+00	-4.5178877329e-01
 2.7712812921e+00	 1.6000000000e+00	-8.3215523460e-01
 2.6712812921e+00	 1.7732050808e+00	-7.4620161512e-01
 2.5712812921e+00	 1.9464101615e+00	-6.6684734859e-01
 2.4712812921e+00	 2.1196152423e+00	-5.9409243500e-01
 2.3712812921e+00	 2.2928203230e+00	-5.2793687435e-01
 2.2712812921e+00	 2.4660254038e+00	-4.6838066665e-01
 3.1176914536e+00	 1.8000000000e+00	-9.6025026344e-01
 3.0176914536e+00	 1.9732050808e+00	-8.4668250619e-01
 2.9176914536e+00	 2.1464101615e+00	-7.4331682293e-01
 2.8176914536e+00	 2.3196152423e+00	-6.5015321368e-01
 2.7176914536e+00	 2.4928203230e+00	-5.6719167843e-01
 2.6176914536e+00	 2.6660254038e+00	-4.9443221719e-01
 3.4641016151e+00	 2.0000000000e+00	-1.1031756262e+00
 3.3641016151e+00	 2.1732050808e+00	-9.6091959580e-01
 3.2641016151e+00	 2.3464101615e+00	-8.3246836048e-01
 3.1641016151e+00	 2.5196152423e+00	-7.1782192023e-01
 3.0641016151e+00	 2.6928203230e+00	-6.1698027504e-01
 2.9641016151e+00	 2.8660254038e+00	-5.2994342491e-01
 5.0000000000e-01	-8.6602540378e-01	-2.5194757910e-01
 4.0000000000e-01	-6.9282032303e-01	-2.4650693004e-01
 3.0000000000e-01	-5.1961524227e-01	-2.4341324697e-01
 2.0000000000e-01	-3.4641016151e-01	-2.4266652987e-01
 1.0000000000e-01	-1.7320508076e-01	-2.4426677874e-01
 0.0000000000e+00	 0.0000000000e+00	-2.4821399360e-01
 8.4641016151e-01	-6.6602540378e-01	-1.9811400571e-01
 7.4641016151e-01	-4.9282032303e-01	-1.9481308461e-01
 6.4641016151e-01	-3.1961524227e-01	-1.9413206837e-01
 5.4641016151e-01	-1.4641016151e-01	-1.9607095698e-01
 4.4641016151e-01	 2.6794919243e-02	-2.0062975045e-01
 3.4641016151e-01	 2.0000000000e-01	-2.0780844877e-01
 1.1928203230e+00	-4.6602540378e-01	-1.4342574483e-01
 1.0928203230e+00	-2.9282032303e-01	-1.4240715720e-01
 9.9282032303e-01	-1.1961524227e-01	-1.4428141331e-01
 8.9282032303e-01	 5.3589838486e-02	-1.4904851315e-01
 7.9282032303e-01	 2.2679491924e-01	-1.5670845674e-01
 6.9282032303e-01	 4.0000000000e-01	-1.6726124406e-01
 1.5392304845e+00	-2.6602540378e-01	-8.7882796450e-02
 1.4392304845e+00	-9.2820323028e-02	-8.9289147810e-02
 1.3392304845e+00	 8.0384757729e-02	-9.3861281792e-02
 1.2392304845e+00	 2.5358983849e-01	-1.0159919839e-01
 1.1392304845e+00	 4.2679491924e-01	-1.1250289762e-01
 1.0392304845e+00	 6.0000000000e-01	-1.2657237946e-01
 1.8856406461e+00	-6.6025403784e-02	-3.1485160567e-02
 1.7856406461e+00	 1.0717967697e-01	-3.5459056443e-02
 1.6856406461e+00	 2.8038475773e-01	-4.2871673821e-02
 1.5856406461e+00	 4.5358983849e-01	-5.3723012700e-02
 1.4856406461e+00	 6.2679491924e-01	-6.8013073082e-02
 1.3856406461e+00	 8.0000000000e-01	-8.5741854965e-02
 2.2320508076e+00	 1.3397459622e-01	 2.5767162816e-02
 2.1320508076e+00	 3.0717967697e-01	 1.9083116903e-02
 2.0320508076e+00	 4.8038475773e-01	 8.6874106064e-03
 1.9320508076e+00	 6.5358983849e-01	-5.4199560729e-03
 1.8320508076e+00	 8.2679491924e-01	-2.3238983135e-02
 1.7320508076e+00	 1.0000000000e+00	-4.4769670581e-02
 2.2320508076e+00	 1.3397459622e-01	 2.5767162816e-02
 2.1320508076e+00	 3.0717967697e-01	 1.9083116903e-02
 2.0320508076e+00	 4.8038475773e-01	 8.6874106064e-03
 1.9320508076e+00	 6.5358983849e-01	-5.4199560729e-03
 1.8320508076e+00	 8.2679491924e-01	-2.3238983135e-02
 1.7320508076e+00	 1.0000000000e+00	-4.4769670581e-02
 2.5784609691e+00	 3.3397459622e-01	 4.2351524413e-02
 2.4784609691e+00	 5.0717967697e-01	 6.9658707869e-02
 2.3784609691e+00	 6.8038475773e-01	 8.4288178825e-02
 2.2784609691e+00	 8.5358983849e-01	 8.6239937283e-02
 2.1784609691e+00	 1.0267949192e+00	 7.5513983241e-02
 2.0784609691e+00	 1.2000000000e+00	 5.2110316700e-02
 2.9248711306e+00	 5.3397459622e-01	 5.3483084966e-02
 2.8248711306e+00	 7.0717967697e-01	 1.1499001989e-01
 2.7248711306e+00	 8.8038475773e-01	 1.5485319020e-01
 2.6248711306e+00	 1.0535898385e+00	 1.7307259590e-01
 2.5248711306e+00	 1.2267949192e+00	 1.6964823698e-01
 2.4248711306e+00	 1.4000000000e+00	 1.4458011345e-01
 3.2712812921e+00	 7.3397459622e-01	 5.9161844473e-02
 3.1712812921e+00	 9.0717967697e-01	 1.5507705297e-01
 3.0712812921e+00	 1.0803847577e+00	 2.2038244474e-01
 2.9712812921e+00	 1.2535898385e+00	 2.5507801978e-01
 2.8712812921e+00	 1.4267949192e+00	 2.5916377809e-01
 2.7712812921e+00	 1.6000000000e+00	 2.3263971967e-01
 3.6176914536e+00	 9.3397459622e-01	 5.9387802936e-02
 3.5176914536e+00	 1.1071796770e+00	 1.8991980711e-01
 3.4176914536e+00	 1.2803847577e+00	 2.8087594244e-01
 3.3176914536e+00	 1.4535898385e+00	 3.3225620893e-01
 3.2176914536e+00	 1.6267949192e+00	 3.4406060656e-01
 3.1176914536e+00	 1.8000000000e+00	 3.1628913535e-01
 3.9641016151e+00	 1.1339745962e+00	 5.4160960354e-02
 3.8641016151e+00	 1.3071796770e+00	 2.1951828231e-01
 3.7641016151e+00	 1.4803847577e+00	 3.3633368331e-01
 3.6641016151e+00	 1.6535898385e+00	 4.0460716334e-01
 3.5641016151e+00	 1.8267949192e+00	 4.2433872240e-01
 3.4641016151e+00	 2.0000000000e+00	 3.9552836051e-01
 5.0000000000e+00	-8.6602540378e+00	-2.0568227046e-01
 4.5500000000e+00	-7.8808311744e+00	-1.7131320216e-01
 4.1000000000e+00	-7.1014083110e+00	-1.4900274720e-01
 3.6500000000e+00	-6.3219854476e+00	-1.3672069493e-01
 3.2000000000e+00	-5.5425625842e+00	-1.3446704535e-01
 2.7500000000e+00	-4.7631397208e+00	-1.4224179845e-01
 5.3464101615e+00	-8.4602540378e+00	-2.0715917409e-01
 4.8964101615e+00	-7.6808311744e+00	-1.7968543919e-01
 4.4464101615e+00	-6.9014083110e+00	-1.6165417993e-01
 3.9964101615e+00	-6.1219854476e+00	-1.5229992397e-01
 3.5464101615e+00	-5.3425625842e+00	-1.5162267132e-01
 3.0964101615e+00	-4.5631397208e+00	-1.5962242198e-01
 5.6928203230e+00	-8.2602540378e+00	-2.0776390287e-01
 5.2428203230e+00	-7.4808311744e+00	-1.8587810688e-01
 4.7928203230e+00	-6.7014083110e+00	-1.7131791482e-01
 4.3428203230e+00	-5.9219854476e+00	-1.6408332670e-01
 3.8928203230e+00	-5.1425625842e+00	-1.6417434250e-01
 3.4428203230e+00	-4.3631397208e+00	-1.7159096224e-01
 6.0392304845e+00	-8.0602540378e+00	-2.0776266309e-01
 5.5892304845e+00	-7.2808311744e+00	-1.8989120521e-01
 5.1392304845e+00	-6.5014083110e+00	-1.7799395189e-01
 4.6892304845e+00	-5.7219854476e+00	-1.7207090312e-01
 4.2392304845e+00	-4.9425625842e+00	-1.7212205890e-01
 3.7892304845e+00	-4.1631397208e+00	-1.7814741923e-01
 6.3856406461e+00	-7.8602540378e+00	-2.0638998244e-01
 5.9356406461e+00	-7.0808311744e+00	-1.9172473420e-01
 5.4856406461e+00	-6.3014083110e+00	-1.8168229112e-01
 5.0356406461e+00	-5.5219854476e+00	-1.7626265323e-01
 4.5856406461e+00	-4.7425625842e+00	-1.7546582051e-01
 4.1356406461e+00	-3.9631397208e+00	-1.7929179296e-01
 6.7320508076e+00	-7.6602540378e+00	-2.0364586092e-01
 6.2820508076e+00	-6.8808311744e+00	-1.9137869383e-01
 5.8320508076e+00	-6.1014083110e+00	-1.8238293253e-01
 5.3820508076e+00	-5.3219854476e+00	-1.7665857703e-01
 4.9320508076e+00	-4.5425625842e+00	-1.7420562733e-01
 4.4820508076e+00	-3.7631397208e+00	-1.7502408342e-01
 2.7500000000e+00	-4.7631397208e+00	-1.4224179845e-01
 2.3000000000e+00	-3.9837168574e+00	-1.0864621864e-01
 1.8500000000e+00	-3.2042939940e+00	-1.1196834230e-01
 1.4000000000e+00	-2.4248711306e+00	-1.5220816942e-01
 9.5000000000e-01	-1.6454482672e+00	-2.2936570001e-01
 5.0000000000e-01	-8.6602540378e-01	-3.4344093407e-01
 3.0964101615e+00	-4.5631397208e+00	-1.5962242198e-01
 2.6464101615e+00	-3.7837168574e+00	-1.2548449678e-01
 2.1964101615e+00	-3.0042939940e+00	-1.2073073090e-01
 1.7464101615e+00	-2.2248711306e+00	-1.4536112435e-01
 1.2964101615e+00	-1.4454482672e+00	-1.9937567711e-01
 8.4641016151e-01	-6.6602540378e-01	-2.8277438920e-01
 3.4428203230e+00	-4.3631397208e+00	-1.7159096224e-01
 2.9928203230e+00	-3.5837168574e+00	-1.3860507964e-01
 2.5428203230e+00	-2.8042939940e+00	-1.2746981223e-01
 2.0928203230e+00	-2.0248711306e+00	-1.3818515999e-01
 1.6428203230e+00	-1.2454482672e+00	-1.7075112293e-01
 1.1928203230e+00	-4.6602540378e-01	-2.2516770104e-01
 3.7892304845e+00	-4.1631397208e+00	-1.7814741923e-01
 3.3392304845e+00	-3.3837168574e+00	-1.4800796724e-01
 2.8892304845e+00	-2.6042939940e+00	-1.3218558628e-01
 2.4392304845e+00	-1.8248711306e+00	-1.3068027636e-01
 1.9892304845e+00	-1.0454482672e+00	-1.4349203747e-01
 1.5392304845e+00	-2.6602540378e-01	-1.7062086961e-01
 4.1356406461e+00	-3.9631397208e+00	-1.7929179296e-01
 3.6856406461e+00	-3.1837168574e+00	-1.5369315957e-01
 3.2356406461e+00	-2.4042939940e+00	-1.3487805307e-01
 2.7856406461e+00	-1.6248711306e+00	-1.2284647345e-01
 2.3356406461e+00	-8.4544826719e-01	-1.1759842072e-01
 1.8856406461e+00	-6.6025403784e-02	-1.1913389488e-01
 4.4820508076e+00	-3.7631397208e+00	-1.7502408342e-01
 4.0320508076e+00	-2.9837168574e+00	-1.5566065663e-01
 3.5820508076e+00	-2.2042939940e+00	-1.3554721257e-01
 3.1320508076e+00	-1.4248711306e+00	-1.1468375127e-01
 2.6820508076e+00	-6.4544826719e-01	-9.3070272700e-02
 2.2320508076e+00	 1.3397459622e-01	-7.0706776878e-02
 6.7320508076e+00	-7.6602540378e+00	-2.0364586092e-01
 6.2820508076e+00	-6.8808311744e+00	-1.9137869383e-01
 5.8320508076e+00	-6.1014083110e+00	-1.8238293253e-01
 5.3820508076e+00	-5.3219854476e+00	-1.7665857703e-01
 4.9320508076e+00	-4.5425625842e+00	-1.7420562733e-01
 4.4820508076e+00	-3.7631397208e+00	-1.7502408342e-01
 7.0784609691e+00	-7.4602540378e+00	-1.9975145258e-01
 6.6284609691e+00	-6.6808311744e+00	-1.8704725166e-01
 6.1784609691e+00	-5.9014083110e+00	-1.7858100963e-01
 5.7284609691e+00	-5.1219854476e+00	-1.7435272648e-01
 5.2784609691e+00	-4.3425625842e+00	-1.7436240223e-01
 4.8284609691e+00	-3.5631397208e+00	-1.7861003686e-01
 7.4248711306e+00	-7.2602540378e+00	-1.9492791147e-01
 6.9748711306e+00	-6.4808311744e+00	-1.8172268841e-01
 6.5248711306e+00	-5.7014083110e+00	-1.7372197734e-01
 6.0748711306e+00	-4.9219854476e+00	-1.7092577825e-01
 5.6248711306e+00	-4.1425625842e+00	-1.7333409114e-01
 5.1748711306e+00	-3.3631397208e+00	-1.8094691602e-01
 7.7712812921e+00	-7.0602540378e+00	-1.8917523758e-01
 7.3212812921e+00	-6.2808311744e+00	-1.7540500410e-01
 6.8712812921e+00	-5.5014083110e+00	-1.6780583568e-01
 6.4212812921e+00	-4.7219854476e+00	-1.6637773234e-01
 5.9712812921e+00	-3.9425625842e+00	-1.7112069408e-01
 5.5212812921e+00	-3.1631397208e+00	-1.8203472088e-01
 8.1176914536e+00	-6.8602540378e+00	-1.8249343093e-01
 7.6676914536e+00	-6.0808311744e+00	-1.6809419871e-01
 7.2176914536e+00	-5.3014083110e+00	-1.6083258465e-01
 6.7676914536e+00	-4.5219854476e+00	-1.6070858875e-01
 6.3176914536e+00	-3.7425625842e+00	-1.6772221103e-01
 5.8676914536e+00	-2.9631397208e+00	-1.8187345147e-01
 8.4641016151e+00	-6.6602540378e+00	-1.7479135129e-01
 8.0141016151e+00	-5.8808311744e+00	-1.5979027224e-01
 7.5641016151e+00	-5.1014083110e+00	-1.5280222423e-01
 7.1141016151e+00	-4.3219854476e+00	-1.5391834749e-01
 6.6641016151e+00	-3.5425625842e+00	-1.6313864200e-01
 6.2141016151e+00	-2.7631397208e+00	-1.8046310776e-01
 4.4820508076e+00	-3.7631397208e+00	-1.7502408342e-01
 4.0320508076e+00	-2.9837168574e+00	-1.5566065663e-01
 3.5820508076e+00	-2.2042939940e+00	-1.3554721257e-01
 3.1320508076e+00	-1.4248711306e+00	-1.1468375127e-01
 2.6820508076e+00	-6.4544826719e-01	-9.3070272700e-02
 2.2320508076e+00	 1.3397459622e-01	-7.0706776878e-02
 4.8284609691e+00	-3.5631397208e+00	-1.7861003686e-01
 4.3784609691e+00	-2.7837168574e+00	-1.7232408490e-01
 3.9284609691e+00	-2.0042939940e+00	-1.5671665279e-01
 3.4784609691e+00	-1.2248711306e+00	-1.3178774053e-01
 3.0284609691e+00	-4.4544826719e-01	-9.7537348110e-02
 2.5784609691e+00	 3.3397459622e-01	-5.3965475544e-02
 5.1748711306e+00	-3.3631397208e+00	-1.8094691602e-01
 4.7248711306e+00	-2.5837168574e+00	-1.8470304707e-01
 4.2748711306e+00	-1.8042939940e+00	-1.7056623507e-01
 3.8248711306e+00	-1.0248711306e+00	-1.3853648003e-01
 3.3748711306e+00	-2.4544826719e-01	-8.8613781943e-02
 2.9248711306e+00	 5.3397459622e-01	-2.0798140809e-02
 5.5212812921e+00	-3.1631397208e+00	-1.8203472088e-01
 5.0712812921e+00	-2.3837168574e+00	-1.9279754312e-01
 4.6212812921e+00	-1.6042939940e+00	-1.7709595942e-01
 4.1712812921e+00	-8.2487113060e-01	-1.3492996978e-01
 3.7212812921e+00	-4.5448267190e-02	-6.6299574198e-02
 3.2712812921e+00	 7.3397459622e-01	 2.8795227325e-02
 5.8676914536e+00	-2.9631397208e+00	-1.8187345147e-01
 5.4176914536e+00	-2.1837168574e+00	-1.9660757307e-01
 4.9676914536e+00	-1.4042939940e+00	-1.7630582584e-01
 4.5176914536e+00	-6.2487113060e-01	-1.2096820978e-01
 4.0676914536e+00	 1.5455173281e-01	-3.0594724877e-02
 3.6176914536e+00	 9.3397459622e-01	 9.4814628859e-02
 6.2141016151e+00	-2.7631397208e+00	-1.8046310776e-01
 5.7641016151e+00	-1.9837168574e+00	-1.9613313691e-01
 5.3141016151e+00	-1.2042939940e+00	-1.6819583433e-01
 4.8641016151e+00	-4.2487113060e-01	-9.6651200020e-02
 4.4141016151e+00	 3.5455173281e-01	 1.8500766022e-02
 3.9641016151e+00	 1.1339745962e+00	 1.7726006379e-01
 8.4641016151e+00	-6.6602540378e+00	-1.7479135129e-01
 8.0141016151e+00	-5.8808311744e+00	-1.6103282292e-01
 7.5641016151e+00	-5.1014083110e+00	-1.5414403776e-01
 7.1141016151e+00	-4.3219854476e+00	-1.5421613602e-01
 6.6641016151e+00	-3.5425625842e+00	-1.6124911771e-01
 6.2141016151e+00	-2.7631397208e+00	-1.7524298283e-01
 8.6373066959e+00	-6.5602540378e+00	-1.6534818596e-01
 8.1873066959e+00	-5.7808311744e+00	-1.5371733000e-01
 7.7373066959e+00	-5.0014083110e+00	-1.4816374286e-01
 7.2873066959e+00	-4.2219854476e+00	-1.4892844735e-01
 6.8373066959e+00	-3.4425625842e+00	-1.5601144348e-01
 6.3873066959e+00	-2.6631397208e+00	-1.6941273123e-01
 8.8105117767e+00	-6.4602540378e+00	-1.5531744174e-01
 8.3605117767e+00	-5.6808311744e+00	-1.4620646798e-01
 7.9105117767e+00	-4.9014083110e+00	-1.4238578136e-01
 7.4605117767e+00	-4.1219854476e+00	-1.4422151362e-01
 7.0105117767e+00	-3.3425625842e+00	-1.5173294572e-01
 6.5605117767e+00	-2.5631397208e+00	-1.6492007765e-01
 8.9837168574e+00	-6.3602540378e+00	-1.4469930813e-01
 8.5337168574e+00	-5.5808311744e+00	-1.3839731035e-01
 8.0837168574e+00	-4.8014083110e+00	-1.3681015325e-01
 7.6337168574e+00	-4.0219854476e+00	-1.4009533482e-01
 7.1837168574e+00	-3.2425625842e+00	-1.4841362443e-01
 6.7337168574e+00	-2.4631397208e+00	-1.6176502208e-01
 9.1569219382e+00	-6.2602540378e+00	-1.3349397461e-01
 8.7069219382e+00	-5.4808311744e+00	-1.3037997578e-01
 8.2569219382e+00	-4.7014083110e+00	-1.3143685855e-01
 7.8069219382e+00	-3.9219854476e+00	-1.3654991096e-01
 7.3569219382e+00	-3.1425625842e+00	-1.4605347962e-01
 6.9069219382e+00	-2.3631397208e+00	-1.5994756453e-01
 9.3301270189e+00	-6.1602540378e+00	-1.2170163068e-01
 8.8801270189e+00	-5.3808311744e+00	-1.2215465376e-01
 8.4301270189e+00	-4.6014083110e+00	-1.2618951408e-01
 7.9801270189e+00	-3.8219854476e+00	-1.3358524204e-01
 7.5301270189e+00	-3.0425625842e+00	-1.4465251130e-01
 7.0801270189e+00	-2.2631397208e+00	-1.5946770500e-01
 6.2141016151e+00	-2.7631397208e+00	-1.7524298283e-01
 5.7641016151e+00	-1.9837168574e+00	-1.9214690694e-01
 5.3141016151e+00	-1.2042939940e+00	-1.7571577839e-01
 4.8641016151e+00	-4.2487113060e-01	-1.2594959717e-01
 4.4141016151e+00	 3.5455173281e-01	-4.2848363279e-02
 3.9641016151e+00	 1.1339745962e+00	 7.3587923275e-02
 6.3873066959e+00	-2.6631397208e+00	-1.6941273123e-01
 5.9373066959e+00	-1.8837168574e+00	-1.7742103936e-01
 5.4873066959e+00	-1.1042939940e+00	-1.5730898656e-01
 5.0373066959e+00	-3.2487113060e-01	-1.0907657281e-01
 4.5873066959e+00	 4.5455173281e-01	-3.2723798128e-02
 4.1373066959e+00	 1.2339745962e+00	 7.1749337496e-02
 6.5605117767e+00	-2.5631397208e+00	-1.6492007765e-01
 6.1105117767e+00	-1.7837168574e+00	-1.6376851703e-01
 5.6605117767e+00	-1.0042939940e+00	-1.3971128720e-01
 5.2105117767e+00	-2.2487113060e-01	-9.2748388158e-02
 4.7605117767e+00	 5.5455173281e-01	-2.2879819904e-02
 4.3105117767e+00	 1.3339745962e+00	 6.9894417563e-02
 6.7337168574e+00	-2.4631397208e+00	-1.6176502208e-01
 6.2837168574e+00	-1.6837168574e+00	-1.5118933994e-01
 5.8337168574e+00	-9.0429399400e-01	-1.2292268031e-01
 5.3837168574e+00	-1.2487113060e-01	-7.6965043202e-02
 4.9337168574e+00	 6.5455173281e-01	-1.3316428605e-02
 4.4837168574e+00	 1.4339745962e+00	 6.8023163476e-02
 6.9069219382e+00	-2.3631397208e+00	-1.5994756453e-01
 6.4569219382e+00	-1.5837168574e+00	-1.3968350809e-01
 6.0069219382e+00	-8.0429399400e-01	-1.0694316590e-01
 5.5569219382e+00	-2.4871130596e-02	-6.1726537944e-02
 5.1069219382e+00	 7.5455173281e-01	-4.0336242326e-03
 4.6569219382e+00	 1.5339745962e+00	 6.6135575236e-02
 7.0801270189e+00	-2.2631397208e+00	-1.5946770500e-01
 6.6301270189e+00	-1.4837168574e+00	-1.2925102149e-01
 6.1801270189e+00	-7.0429399400e-01	-9.1772743953e-02
 5.7301270189e+00	 7.5128869404e-02	-4.7032872384e-02
 5.2801270189e+00	 8.5455173281e-01	 4.9685932141e-03
 4.8301270189e+00	 1.6339745962e+00	 6.4231652843e-02
 9.3301270189e+00	-6.1602540378e+00	-1.2170163068e-01
 8.8801270189e+00	-5.3808311744e+00	-1.1553269842e-01
 8.4301270189e+00	-4.6014083110e+00	-1.1718275636e-01
 7.9801270189e+00	-3.8219854476e+00	-1.2643083492e-01
 7.5301270189e+00	-3.0425625842e+00	-1.4358760772e-01
 7.0801270189e+00	-2.2631397208e+00	-1.6872945795e-01
 9.5033320997e+00	-6.0602540378e+00	-1.1489675980e-01
 9.0533320997e+00	-5.2808311744e+00	-1.0829773285e-01
 8.6033320997e+00	-4.5014083110e+00	-1.0967540873e-01
 8.1533320997e+00	-3.7219854476e+00	-1.1889328792e-01
 7.7033320997e+00	-2.9425625842e+00	-1.3601653501e-01
 7.2533320997e+00	-2.1631397208e+00	-1.6128243162e-01
 9.6765371804e+00	-5.9602540378e+00	-1.0914694643e-01
 9.2265371804e+00	-5.1808311744e+00	-1.0174097085e-01
 8.7765371804e+00	-4.4014083110e+00	-1.0246941071e-01
 8.3265371804e+00	-3.6219854476e+00	-1.1131055406e-01
 7.8765371804e+00	-2.8425625842e+00	-1.2802282005e-01
 7.4265371804e+00	-2.0631397208e+00	-1.5303530767e-01
 9.8497422612e+00	-5.8602540378e+00	-1.0445238007e-01
 9.3997422612e+00	-5.0808311744e+00	-9.5862601920e-02
 8.9497422612e+00	-4.3014083110e+00	-9.5564951815e-02
 8.4997422612e+00	-3.5219854476e+00	-1.0354283258e-01
 8.0497422612e+00	-2.7425625842e+00	-1.1960646286e-01
 7.5997422612e+00	-1.9631397208e+00	-1.4398808613e-01
 1.0022947342e+01	-5.7602540378e+00	-1.0081325022e-01
 9.5729473419e+00	-4.9808311744e+00	-9.0662815546e-02
 9.1229473419e+00	-4.2014083110e+00	-8.8962221531e-02
 8.6729473419e+00	-3.4219854476e+00	-9.5694870999e-02
 8.2229473419e+00	-2.6425625842e+00	-1.1076746344e-01
 7.7729473419e+00	-1.8631397208e+00	-1.3414076698e-01
 1.0196152423e+01	-5.6602540378e+00	-9.8229746383e-02
 9.7461524227e+00	-4.8808311744e+00	-8.6141801232e-02
 9.2961524227e+00	-4.1014083110e+00	-8.2661409357e-02
 8.8461524227e+00	-3.3219854476e+00	-8.7771973581e-02
 8.3961524227e+00	-2.5425625842e+00	-1.0145689672e-01
 7.9461524227e+00	-1.7631397208e+00	-1.2349335022e-01
 7.0801270189e+00	-2.2631397208e+00	-1.6872945795e-01
 6.6301270189e+00	-1.4837168574e+00	-1.4594550530e-01
 6.1801270189e+00	-7.0429399400e-01	-1.0587495431e-01
 5.7301270189e+00	 7.5128869404e-02	-4.8517804984e-02
 5.2801270189e+00	 8.5455173281e-01	 2.6125942676e-02
 4.8301270189e+00	 1.6339745962e+00	 1.1805628867e-01
 7.2533320997e+00	-2.1631397208e+00	-1.6128243162e-01
 6.8033320997e+00	-1.3837168574e+00	-1.3320567969e-01
 6.3533320997e+00	-6.0429399400e-01	-7.9596098699e-02
 5.9033320997e+00	 1.7512886940e-01	-4.5368864277e-04
 5.4533320997e+00	 9.5455173281e-01	 1.0422155048e-01
 5.0033320997e+00	 1.7339745962e+00	 2.3442961867e-01
 7.4265371804e+00	-2.0631397208e+00	-1.5303530767e-01
 6.9765371804e+00	-1.2837168574e+00	-1.2319393859e-01
 6.5265371804e+00	-5.0429399400e-01	-5.9573509710e-02
 6.0765371804e+00	 2.7512886940e-01	 3.7825978964e-02
 5.6265371804e+00	 1.0545517328e+00	 1.6900452743e-01
 5.1765371804e+00	 1.8339745962e+00	 3.3396213570e-01
 7.5997422612e+00	-1.9631397208e+00	-1.4398808613e-01
 7.1497422612e+00	-1.1837168574e+00	-1.1591028200e-01
 6.6997422612e+00	-4.0429399400e-01	-4.5807187343e-02
 6.2497422612e+00	 3.7512886940e-01	 6.6321197837e-02
 5.7997422612e+00	 1.1545517328e+00	 2.2047487354e-01
 5.3497422612e+00	 1.9339745962e+00	 4.1665383977e-01
 7.7729473419e+00	-1.8631397208e+00	-1.3414076698e-01
 7.3229473419e+00	-1.0837168574e+00	-1.1135470991e-01
 6.8729473419e+00	-3.0429399400e-01	-3.8297131596e-02
 6.4229473419e+00	 4.7512886940e-01	 8.5031967976e-02
 5.9729473419e+00	 1.2545517328e+00	 2.5863258880e-01
 5.5229473419e+00	 2.0339745962e+00	 4.8250473088e-01
 7.9461524227e+00	-1.7631397208e+00	-1.2349335022e-01
 7.4961524227e+00	-9.8371685741e-01	-1.0952722234e-01
 7.0461524227e+00	-2.0429399400e-01	-3.7043342470e-02
 6.5961524227e+00	 5.7512886940e-01	 9.3958289380e-02
 6.1461524227e+00	 1.3545517328e+00	 2.8347767321e-01
 5.6961524227e+00	 2.1339745962e+00	 5.3151480903e-01
 1.0196152423e+01	-5.6602540378e+00	-9.8229746383e-02
 9.7461524227e+00	-4.8808311744e+00	-9.7608954515e-02
 9.2961524227e+00	-4.1014083110e+00	-9.9305890064e-02
 8.8461524227e+00	-3.3219854476e+00	-1.0330395585e-01
 8.3961524227e+00	-2.5425625842e+00	-1.0958655470e-01
 7.9461524227e+00	-1.7631397208e+00	-1.1793085804e-01
 1.0542562584e+01	-5.4602540378e+00	-8.5701681776e-02
 1.0092562584e+01	-4.6808311744e+00	-8.8111020025e-02
 9.6425625842e+00	-3.9014083110e+00	-8.8340597988e-02
 9.1925625842e+00	-3.1219854476e+00	-8.6373818487e-02
 8.7425625842e+00	-2.3425625842e+00	-8.2194084342e-02
 8.2925625842e+00	-1.5631397208e+00	-7.5756473990e-02
 1.0888972746e+01	-5.2602540378e+00	-7.2709427784e-02
 1.0438972746e+01	-4.4808311744e+00	-7.9559349808e-02
 9.9889727457e+00	-3.7014083110e+00	-7.9732023844e-02
 9.5389727457e+00	-2.9219854476e+00	-7.3210852712e-02
 9.0889727457e+00	-2.1425625842e+00	-5.9979239233e-02
 8.6389727457e+00	-1.3631397208e+00	-4.0020586231e-02
 1.1235382907e+01	-5.0602540378e+00	-5.9254500383e-02
 1.0785382907e+01	-4.2808311744e+00	-7.1955459840e-02
 1.0335382907e+01	-3.5014083110e+00	-7.3481683606e-02
 9.8853829072e+00	-2.7219854476e+00	-6.3816574501e-02
 9.4353829072e+00	-1.9425625842e+00	-4.2943535347e-02
 8.9853829072e+00	-1.1631397208e+00	-1.0845968965e-02
 1.1581793069e+01	-4.8602540378e+00	-4.5338415548e-02
 1.1131793069e+01	-4.0808311744e+00	-6.5300866096e-02
 1.0681793069e+01	-3.3014083110e+00	-6.9591093251e-02
 1.0231793069e+01	-2.5219854476e+00	-5.8192499831e-02
 9.7817930688e+00	-1.7425625842e+00	-3.1088488659e-02
 9.3317930688e+00	-9.6313972081e-01	 1.1737537445e-02
 1.1928203230e+01	-4.6602540378e+00	-3.0962689255e-02
 1.1478203230e+01	-3.8808311744e+00	-5.9597084552e-02
 1.1028203230e+01	-3.1014083110e+00	-6.8061768753e-02
 1.0578203230e+01	-2.3219854476e+00	-5.6340144677e-02
 1.0128203230e+01	-1.5425625842e+00	-2.4415615144e-02
 9.6782032303e+00	-7.6313972081e-01	 2.7728417023e-02
 7.9461524227e+00	-1.7631397208e+00	-1.1793085804e-01
 7.4961524227e+00	-9.8371685741e-01	-8.8760396083e-02
 7.0461524227e+00	-2.0429399400e-01	-4.3376401748e-03
 6.5961524227e+00	 5.7512886940e-01	 1.3533740969e-01
 6.1461524227e+00	 1.3545517328e+00	 3.3026475350e-01
 5.6961524227e+00	 2.1339745962e+00	 5.8044439127e-01
 8.2925625842e+00	-1.5631397208e+00	-7.5756473990e-02
 7.8425625842e+00	-7.8371685741e-01	-5.3857016971e-02
 7.3925625842e+00	-4.2939940024e-03	 1.5086181822e-02
 6.9425625842e+00	 7.7512886940e-01	 1.3107312239e-01
 6.4925625842e+00	 1.5545517328e+00	 2.9410380473e-01
 6.0425625842e+00	 2.3339745962e+00	 5.0417822885e-01
 8.6389727457e+00	-1.3631397208e+00	-4.0020586231e-02
 8.1889727457e+00	-5.8371685741e-01	-2.1906689923e-02
 7.7389727457e+00	 1.9570600600e-01	 3.5303889141e-02
 7.2889727457e+00	 9.7512886940e-01	 1.3134965780e-01
 6.8389727457e+00	 1.7545517328e+00	 2.6623061605e-01
 6.3889727457e+00	 2.5339745962e+00	 4.3994676390e-01
 8.9853829072e+00	-1.1631397208e+00	-1.0845968965e-02
 8.5353829072e+00	-3.8371685741e-01	 7.2407438400e-03
 8.0853829072e+00	 3.9570600600e-01	 5.6315481783e-02
 7.6353829072e+00	 1.1751288694e+00	 1.3616701592e-01
 7.1853829072e+00	 1.9545517328e+00	 2.4664518747e-01
 6.7353829072e+00	 2.7339745962e+00	 3.8774999644e-01
 9.3317930688e+00	-9.6313972081e-01	 1.1737537445e-02
 8.8817930688e+00	-1.8371685741e-01	 3.3626524945e-02
 8.4317930688e+00	 5.9570600600e-01	 7.8180844176e-02
 7.9817930688e+00	 1.3751288694e+00	 1.4552519675e-01
 7.5317930688e+00	 2.1545517328e+00	 2.3534751898e-01
 7.0817930688e+00	 2.9339745962e+00	 3.4758792645e-01
 9.6782032303e+00	-7.6313972081e-01	 2.7728417023e-02
 9.2282032303e+00	 1.6283142592e-02	 5.7164210913e-02
 8.7782032303e+00	 7.9570600600e-01	 1.0105650334e-01
 8.3282032303e+00	 1.5751288694e+00	 1.5942420028e-01
 7.8782032303e+00	 2.3545517328e+00	 2.3233761059e-01
 7.4282032303e+00	 3.1339745962e+00	 3.1946055395e-01
 1.1928203230e+01	-4.6602540378e+00	-3.0962689255e-02
 1.1478203230e+01	-3.8808311744e+00	-5.9597084552e-02
 1.1028203230e+01	-3.1014083110e+00	-6.8061768753e-02
 1.0578203230e+01	-2.3219854476e+00	-5.6340144677e-02
 1.0128203230e+01	-1.5425625842e+00	-2.4415615144e-02
 9.6782032303e+00	-7.6313972081e-01	 2.7728417023e-02
 1.2274613392e+01	-4.4602540378e+00	-1.7469008196e-02
 1.1824613392e+01	-3.6808311744e+00	-4.6097323742e-02
 1.1374613392e+01	-2.9014083110e+00	-5.5034953359e-02
 1.0924613392e+01	-2.1219854476e+00	-4.4265298544e-02
 1.0474613392e+01	-1.3425625842e+00	-1.3771762116e-02
 1.0024613392e+01	-5.6313972081e-01	 3.6462253103e-02
 1.2621023553e+01	-4.2602540378e+00	-6.1990552785e-03
 1.2171023553e+01	-3.4808311744e+00	-3.4726898178e-02
 1.1721023553e+01	-2.7014083110e+00	-4.4043076713e-02
 1.1271023553e+01	-1.9219854476e+00	-3.4130995892e-02
 1.0821023553e+01	-1.1425625842e+00	-4.9740573013e-03
 1.0371023553e+01	-3.6313972081e-01	 4.3444336236e-02
 1.2967433715e+01	-4.0602540378e+00	 2.8456523809e-03
 1.2517433715e+01	-3.2808311744e+00	-2.5487321550e-02
 1.2067433715e+01	-2.5014083110e+00	-3.5087654791e-02
 1.1617433715e+01	-1.7219854476e+00	-2.5938752696e-02
 1.1167433715e+01	-9.4256258422e-01	 1.9759833229e-03
 1.0717433715e+01	-1.6313972081e-01	 4.8673150446e-02
 1.3313843876e+01	-3.8602540378e+00	 9.6635988080e-03
 1.2863843876e+01	-3.0808311744e+00	-1.8380110891e-02
 1.2413843876e+01	-2.3014083110e+00	-2.8170204893e-02
 1.1963843876e+01	-1.5219854476e+00	-1.9690084934e-02
 1.1513843876e+01	-7.4256258422e-01	 7.0768437808e-03
 1.1063843876e+01	 3.6860279186e-02	 5.2147179756e-02
 1.3660254038e+01	-3.6602540378e+00	 1.4253268029e-02
 1.3210254038e+01	-2.8808311744e+00	-1.3406782175e-02
 1.2760254038e+01	-2.1014083110e+00	-2.3292240524e-02
 1.2310254038e+01	-1.3219854476e+00	-1.5386509834e-02
 1.1860254038e+01	-5.4256258422e-01	 1.0327008096e-02
 1.1410254038e+01	 2.3686027919e-01	 5.3864908190e-02
 9.6782032303e+00	-7.6313972081e-01	 2.7728417023e-02
 9.2282032303e+00	 1.6283142592e-02	 5.7164210913e-02
 8.7782032303e+00	 7.9570600600e-01	 1.0105650334e-01
 8.3282032303e+00	 1.5751288694e+00	 1.5942420028e-01
 7.8782032303e+00	 2.3545517328e+00	 2.3233761059e-01
 7.4282032303e+00	 3.1339745962e+00	 3.1946055395e-01
 1.0024613392e+01	-5.6313972081e-01	 3.6462253103e-02
 9.5746133918e+00	 2.1628314259e-01	 6.4818316789e-02
 9.1246133918e+00	 9.9570600600e-01	 1.0230763204e-01
 8.6746133918e+00	 1.7751288694e+00	 1.4894679603e-01
 8.2246133918e+00	 2.5545517328e+00	 2.0478180579e-01
 7.7746133918e+00	 3.3339745962e+00	 2.6970549903e-01
 1.0371023553e+01	-3.6313972081e-01	 4.3444336236e-02
 9.9210235533e+00	 4.1628314259e-01	 7.2953977795e-02
 9.4710235533e+00	 1.1957060060e+00	 1.0627362395e-01
 9.0210235533e+00	 1.9751288694e+00	 1.4341987187e-01
 8.5710235533e+00	 2.7545517328e+00	 1.8440931873e-01
 8.1210235533e+00	 3.5339745962e+00	 2.2927292934e-01
 1.0717433715e+01	-1.6313972081e-01	 4.8673150446e-02
 1.0267433715e+01	 6.1628314259e-01	 8.1569677956e-02
 9.8174337148e+00	 1.3957060060e+00	 1.1295296309e-01
 9.3674337148e+00	 2.1751288694e+00	 1.4283960302e-01
 8.9174337148e+00	 2.9545517328e+00	 1.7124619491e-01
 8.4674337148e+00	 3.7339745962e+00	 1.9818933595e-01
 1.1063843876e+01	 3.6860279186e-02	 5.2147179756e-02
 1.0613843876e+01	 8.1628314259e-01	 9.0663901294e-02
 1.0163843876e+01	 1.5957060060e+00	 1.2234413348e-01
 9.7138438763e+00	 2.3751288694e+00	 1.4720447350e-01
 9.2638438763e+00	 3.1545517328e+00	 1.6526151851e-01
 8.8138438763e+00	 3.9339745962e+00	 1.7653186569e-01
 1.1410254038e+01	 2.3686027919e-01	 5.3864908190e-02
 1.0960254038e+01	 1.0162831426e+00	 1.0023513183e-01
 1.0510254038e+01	 1.7957060060e+00	 1.3444561916e-01
 1.0060254038e+01	 2.5751288694e+00	 1.5651296733e-01
 9.6102540378e+00	 3.3545517328e+00	 1.6645377354e-01
 9.1602540378e+00	 4.1339745962e+00	 1.6428463495e-01
 5.6961524227e+00	 2.1339745962e+00	 5.1906305776e-01
 5.5961524227e+00	 2.3071796770e+00	 5.3941322841e-01
 5.4961524227e+00	 2.4803847577e+00	 5.1314037494e-01
 5.3961524227e+00	 2.6535898385e+00	 4.4024449736e-01
 5.2961524227e+00	 2.8267949192e+00	 3.2072559565e-01
 5.1961524227e+00	 3.0000000000e+00	 1.5458366983e-01
 6.0425625842e+00	 2.3339745962e+00	 3.9888500273e-01
 5.9425625842e+00	 2.5071796770e+00	 4.2318126514e-01
 5.8425625842e+00	 2.6803847577e+00	 4.0942875924e-01
 5.7425625842e+00	 2.8535898385e+00	 3.5762748503e-01
 5.6425625842e+00	 3.0267949192e+00	 2.6777744250e-01
 5.5425625842e+00	 3.2000000000e+00	 1.3987863166e-01
 6.3889727457e+00	 2.5339745962e+00	 3.0871153713e-01
 6.2889727457e+00	 2.7071796770e+00	 3.3098401711e-01
 6.1889727457e+00	 2.8803847577e+00	 3.2378198457e-01
 6.0889727457e+00	 3.0535898385e+00	 2.8710543953e-01
 5.9889727457e+00	 3.2267949192e+00	 2.2095438198e-01
 5.8889727457e+00	 3.4000000000e+00	 1.2532881192e-01
 6.7353829072e+00	 2.7339745962e+00	 2.4854266096e-01
 6.6353829072e+00	 2.9071796770e+00	 2.6282148429e-01
 6.5353829072e+00	 3.0803847577e+00	 2.5620005092e-01
 6.4353829072e+00	 3.2535898385e+00	 2.2867836085e-01
 6.3353829072e+00	 3.4267949192e+00	 1.8025641408e-01
 6.2353829072e+00	 3.6000000000e+00	 1.1093421059e-01
 7.0817930688e+00	 2.9339745962e+00	 2.1837837421e-01
 6.9817930688e+00	 3.1071796770e+00	 2.1869366671e-01
 6.8817930688e+00	 3.2803847577e+00	 2.0668295830e-01
 6.7817930688e+00	 3.4535898385e+00	 1.8234624900e-01
 6.6817930688e+00	 3.6267949192e+00	 1.4568353880e-01
 6.5817930688e+00	 3.8000000000e+00	 9.6694827695e-02
 7.4282032303e+00	 3.1339745962e+00	 2.1821867690e-01
 7.3282032303e+00	 3.3071796770e+00	 1.9860056435e-01
 7.2282032303e+00	 3.4803847577e+00	 1.7523070671e-01
 7.1282032303e+00	 3.6535898385e+00	 1.4810910397e-01
 7.0282032303e+00	 3.8267949192e+00	 1.1723575614e-01
 6.9282032303e+00	 4.0000000000e+00	 8.2610663217e-02
 7.4282032303e+00	 3.1339745962e+00	 2.1821867690e-01
 7.3282032303e+00	 3.3071796770e+00	 1.9860056435e-01
 7.2282032303e+00	 3.4803847577e+00	 1.7523070671e-01
 7.1282032303e+00	 3.6535898385e+00	 1.4810910397e-01
 7.0282032303e+00	 3.8267949192e+00	 1.1723575614e-01
 6.9282032303e+00	 4.0000000000e+00	 8.2610663217e-02
 7.7746133918e+00	 3.3339745962e+00	 2.0207539399e-01
 7.6746133918e+00	 3.5071796770e+00	 1.8614254673e-01
 7.5746133918e+00	 3.6803847577e+00	 1.6674881549e-01
 7.4746133918e+00	 3.8535898385e+00	 1.4389420027e-01
 7.3746133918e+00	 4.0267949192e+00	 1.1757870106e-01
 7.2746133918e+00	 4.2000000000e+00	 8.7802317875e-02
 8.1210235533e+00	 3.5339745962e+00	 1.8857289802e-01
 8.0210235533e+00	 3.7071796770e+00	 1.7570726686e-01
 7.9210235533e+00	 3.8803847577e+00	 1.5967161283e-01
 7.8210235533e+00	 4.0535898385e+00	 1.4046593594e-01
 7.7210235533e+00	 4.2267949192e+00	 1.1809023617e-01
 7.6210235533e+00	 4.4000000000e+00	 9.2544513540e-02
 8.4674337148e+00	 3.7339745962e+00	 1.7773768004e-01
 8.3674337148e+00	 3.9071796770e+00	 1.6729880605e-01
 8.2674337148e+00	 4.0803847577e+00	 1.5399909874e-01
 8.1674337148e+00	 4.2535898385e+00	 1.3782431098e-01
 8.0674337148e+00	 4.4267949192e+00	 1.1877036147e-01
 7.9674337148e+00	 4.6000000000e+00	 9.6837250212e-02
 8.8138438763e+00	 3.9339745962e+00	 1.6964688689e-01
 8.7138438763e+00	 4.1071796770e+00	 1.6099894024e-01
 8.6138438763e+00	 4.2803847577e+00	 1.4977829385e-01
 8.5138438763e+00	 4.4535898385e+00	 1.3598512987e-01
 8.4138438763e+00	 4.6267949192e+00	 1.1961963042e-01
 8.3138438763e+00	 4.8000000000e+00	 1.0068052789e-01
 9.1602540378e+00	 4.1339745962e+00	 1.6428463495e-01
 9.0602540378e+00	 4.3071796770e+00	 1.5680903185e-01
 8.9602540378e+00	 4.4803847577e+00	 1.4705157625e-01
 8.8602540378e+00	 4.6535898385e+00	 1.3501245029e-01
 8.7602540378e+00	 4.8267949192e+00	 1.2069183611e-01
 8.6602540378e+00	 5.0000000000e+00	 1.0408991584e-01
-3.4641016151e+00	-2.0000000000e+00	 3.9552836051e-01
-3.5641016151e+00	-1.8267949192e+00	 4.2433872240e-01
-3.6641016151e+00	-1.6535898385e+00	 4.0460716334e-01
-3.7641016151e+00	-1.4803847577e+00	 3.3633368331e-01
-3.8641016151e+00	-1.3071796770e+00	 2.1951828231e-01
-3.9641016151e+00	-1.1339745962e+00	 5.4160960354e-02
-3.1176914536e+00	-1.8000000000e+00	 3.1628913535e-01
-3.2176914536e+00	-1.6267949192e+00	 3.4406060656e-01
-3.3176914536e+00	-1.4535898385e+00	 3.3225620893e-01
-3.4176914536e+00	-1.2803847577e+00	 2.8087594244e-01
-3.5176914536e+00	-1.1071796770e+00	 1.8991980711e-01
-3.6176914536e+00	-9.3397459622e-01	 5.9387802936e-02
-2.7712812921e+00	-1.6000000000e+00	 2.3263971967e-01
-2.8712812921e+00	-1.4267949192e+00	 2.5916377809e-01
-2.9712812921e+00	-1.2535898385e+00	 2.5507801978e-01
-3.0712812921e+00	-1.0803847577e+00	 2.2038244474e-01
-3.1712812921e+00	-9.0717967697e-01	 1.5507705297e-01
-3.2712812921e+00	-7.3397459622e-01	 5.9161844473e-02
-2.4248711306e+00	-1.4000000000e+00	 1.4458011345e-01
-2.5248711306e+00	-1.2267949192e+00	 1.6964823698e-01
-2.6248711306e+00	-1.0535898385e+00	 1.7307259590e-01
-2.7248711306e+00	-8.8038475773e-01	 1.5485319020e-01
-2.8248711306e+00	-7.0717967697e-01	 1.1499001989e-01
-2.9248711306e+00	-5.3397459622e-01	 5.3483084966e-02
-2.0784609691e+00	-1.2000000000e+00	 5.2110316700e-02
-2.1784609691e+00	-1.0267949192e+00	 7.5513983241e-02
-2.2784609691e+00	-8.5358983849e-01	 8.6239937283e-02
-2.3784609691e+00	-6.8038475773e-01	 8.4288178825e-02
-2.4784609691e+00	-5.0717967697e-01	 6.9658707869e-02
-2.5784609691e+00	-3.3397459622e-01	 4.2351524413e-02
-1.7320508076e+00	-1.0000000000e+00	-4.4769670581e-02
-1.8320508076e+00	-8.2679491924e-01	-2.3238983135e-02
-1.9320508076e+00	-6.5358983849e-01	-5.4199560729e-03
-2.0320508076e+00	-4.8038475773e-01	 8.6874106064e-03
-2.1320508076e+00	-3.0717967697e-01	 1.9083116903e-02
-2.2320508076e+00	-1.3397459622e-01	 2.5767162816e-02
-1.7320508076e+00	-1.0000000000e+00	-4.4769670581e-02
-1.8320508076e+00	-8.2679491924e-01	-2.3238983135e-02
-1.9320508076e+00	-6.5358983849e-01	-5.4199560729e-03
-2.0320508076e+00	-4.8038475773e-01	 8.6874106064e-03
-2.1320508076e+00	-3.0717967697e-01	 1.9083116903e-02
-2.2320508076e+00	-1.3397459622e-01	 2.5767162816e-02
-1.3856406461e+00	-8.0000000000e-01	-8.5741854965e-02
-1.4856406461e+00	-6.2679491924e-01	-6.8013073082e-02
-1.5856406461e+00	-4.5358983849e-01	-5.3723012700e-02
-1.6856406461e+00	-2.8038475773e-01	-4.2871673821e-02
-1.7856406461e+00	-1.0717967697e-01	-3.5459056443e-02
-1.8856406461e+00	 6.6025403784e-02	-3.1485160567e-02
-1.0392304845e+00	-6.0000000000e-01	-1.2657237946e-01
-1.1392304845e+00	-4.2679491924e-01	-1.1250289762e-01
-1.2392304845e+00	-2.5358983849e-01	-1.0159919839e-01
-1.3392304845e+00	-8.0384757729e-02	-9.3861281792e-02
-1.4392304845e+00	 9.2820323028e-02	-8.9289147810e-02
-1.5392304845e+00	 2.6602540378e-01	-8.7882796450e-02
-6.9282032303e-01	-4.0000000000e-01	-1.6726124406e-01
-7.9282032303e-01	-2.2679491924e-01	-1.5670845674e-01
-8.9282032303e-01	-5.3589838486e-02	-1.4904851315e-01
-9.9282032303e-01	 1.1961524227e-01	-1.4428141331e-01
-1.0928203230e+00	 2.9282032303e-01	-1.4240715720e-01
-1.1928203230e+00	 4.6602540378e-01	-1.4342574483e-01
-3.4641016151e-01	-2.0000000000e-01	-2.0780844877e-01
-4.4641016151e-01	-2.6794919243e-02	-2.0062975045e-01
-5.4641016151e-01	 1.4641016151e-01	-1.9607095698e-01
-6.4641016151e-01	 3.1961524227e-01	-1.9413206837e-01
-7.4641016151e-01	 4.9282032303e-01	-1.9481308461e-01
-8.4641016151e-01	 6.6602540378e-01	-1.9811400571e-01
 0.0000000000e+00	 0.0000000000e+00	-2.4821399360e-01
-1.0000000000e-01	 1.7320508076e-01	-2.4426677874e-01
-2.0000000000e-01	 3.4641016151e-01	-2.4266652987e-01
-3.0000000000e-01	 5.1961524227e-01	-2.4341324697e-01
-4.0000000000e-01	 6.9282032303e-01	-2.4650693004e-01
-5.0000000000e-01	 8.6602540378e-01	-2.5194757910e-01
-3.9641016151e+00	-1.1339745962e+00	 1.7726006379e-01
-4.4141016151e+00	-3.5455173281e-01	 1.8500766022e-02
-4.8641016151e+00	 4.2487113060e-01	-9.6651200020e-02
-5.3141016151e+00	 1.2042939940e+00	-1.6819583433e-01
-5.7641016151e+00	 1.9837168574e+00	-1.9613313691e-01
-6.2141016151e+00	 2.7631397208e+00	-1.8046310776e-01
-3.6176914536e+00	-9.3397459622e-01	 9.4814628859e-02
-4.0676914536e+00	-1.5455173281e-01	-3.0594724877e-02
-4.5176914536e+00	 6.2487113060e-01	-1.2096820978e-01
-4.9676914536e+00	 1.4042939940e+00	-1.7630582584e-01
-5.4176914536e+00	 2.1837168574e+00	-1.9660757307e-01
-5.8676914536e+00	 2.9631397208e+00	-1.8187345147e-01
-3.2712812921e+00	-7.3397459622e-01	 2.8795227325e-02
-3.7212812921e+00	 4.5448267190e-02	-6.6299574198e-02
-4.1712812921e+00	 8.2487113060e-01	-1.3492996978e-01
-4.6212812921e+00	 1.6042939940e+00	-1.7709595942e-01
-5.0712812921e+00	 2.3837168574e+00	-1.9279754312e-01
-5.5212812921e+00	 3.1631397208e+00	-1.8203472088e-01
-2.9248711306e+00	-5.3397459622e-01	-2.0798140809e-02
-3.3748711306e+00	 2.4544826719e-01	-8.8613781943e-02
-3.8248711306e+00	 1.0248711306e+00	-1.3853648003e-01
-4.2748711306e+00	 1.8042939940e+00	-1.7056623507e-01
-4.7248711306e+00	 2.5837168574e+00	-1.8470304707e-01
-5.1748711306e+00	 3.3631397208e+00	-1.8094691602e-01
-2.5784609691e+00	-3.3397459622e-01	-5.3965475544e-02
-3.0284609691e+00	 4.4544826719e-01	-9.7537348110e-02
-3.4784609691e+00	 1.2248711306e+00	-1.3178774053e-01
-3.9284609691e+00	 2.0042939940e+00	-1.5671665279e-01
-4.3784609691e+00	 2.7837168574e+00	-1.7232408490e-01
-4.8284609691e+00	 3.5631397208e+00	-1.7861003686e-01
-2.2320508076e+00	-1.3397459622e-01	-7.0706776878e-02
-2.6820508076e+00	 6.4544826719e-01	-9.3070272700e-02
-3.1320508076e+00	 1.4248711306e+00	-1.1468375127e-01
-3.5820508076e+00	 2.2042939940e+00	-1.3554721257e-01
-4.0320508076e+00	 2.9837168574e+00	-1.5566065663e-01
-4.4820508076e+00	 3.7631397208e+00	-1.7502408342e-01
-6.2141016151e+00	 2.7631397208e+00	-1.8046310776e-01
-6.6641016151e+00	 3.5425625842e+00	-1.6313864200e-01
-7.1141016151e+00	 4.3219854476e+00	-1.5391834749e-01
-7.5641016151e+00	 5.1014083110e+00	-1.5280222423e-01
-8.0141016151e+00	 5.8808311744e+00	-1.5979027224e-01
-8.4641016151e+00	 6.6602540378e+00	-1.7479135129e-01
-5.8676914536e+00	 2.9631397208e+00	-1.8187345147e-01
-6.3176914536e+00	 3.7425625842e+00	-1.6772221103e-01
-6.7676914536e+00	 4.5219854476e+00	-1.6070858875e-01
-7.2176914536e+00	 5.3014083110e+00	-1.6083258465e-01
-7.6676914536e+00	 6.0808311744e+00	-1.6809419871e-01
-8.1176914536e+00	 6.8602540378e+00	-1.8249343093e-01
-5.5212812921e+00	 3.1631397208e+00	-1.8203472088e-01
-5.9712812921e+00	 3.9425625842e+00	-1.7112069408e-01
-6.4212812921e+00	 4.7219854476e+00	-1.6637773234e-01
-6.8712812921e+00	 5.5014083110e+00	-1.6780583568e-01
-7.3212812921e+00	 6.2808311744e+00	-1.7540500410e-01
-7.7712812921e+00	 7.0602540378e+00	-1.8917523758e-01
-5.1748711306e+00	 3.3631397208e+00	-1.8094691602e-01
-5.6248711306e+00	 4.1425625842e+00	-1.7333409114e-01
-6.0748711306e+00	 4.9219854476e+00	-1.7092577825e-01
-6.5248711306e+00	 5.7014083110e+00	-1.7372197734e-01
-6.9748711306e+00	 6.4808311744e+00	-1.8172268841e-01
-7.4248711306e+00	 7.2602540378e+00	-1.9492791147e-01
-4.8284609691e+00	 3.5631397208e+00	-1.7861003686e-01
-5.2784609691e+00	 4.3425625842e+00	-1.7436240223e-01
-5.7284609691e+00	 5.1219854476e+00	-1.7435272648e-01
-6.1784609691e+00	 5.9014083110e+00	-1.7858100963e-01
-6.6284609691e+00	 6.6808311744e+00	-1.8704725166e-01
-7.0784609691e+00	 7.4602540378e+00	-1.9975145258e-01
-4.4820508076e+00	 3.7631397208e+00	-1.7502408342e-01
-4.9320508076e+00	 4.5425625842e+00	-1.7420562733e-01
-5.3820508076e+00	 5.3219854476e+00	-1.7665857703e-01
-5.8320508076e+00	 6.1014083110e+00	-1.8238293253e-01
-6.2820508076e+00	 6.8808311744e+00	-1.9137869383e-01
-6.7320508076e+00	 7.6602540378e+00	-2.0364586092e-01
-2.2320508076e+00	-1.3397459622e-01	-7.0706776878e-02
-2.6820508076e+00	 6.4544826719e-01	-9.3070272700e-02
-3.1320508076e+00	 1.4248711306e+00	-1.1468375127e-01
-3.5820508076e+00	 2.2042939940e+00	-1.3554721257e-01
-4.0320508076e+00	 2.9837168574e+00	-1.5566065663e-01
-4.4820508076e+00	 3.7631397208e+00	-1.7502408342e-01
-1.8856406461e+00	 6.6025403784e-02	-1.1913389488e-01
-2.3356406461e+00	 8.4544826719e-01	-1.1759842072e-01
-2.7856406461e+00	 1.6248711306e+00	-1.2284647345e-01
-3.2356406461e+00	 2.4042939940e+00	-1.3487805307e-01
-3.6856406461e+00	 3.1837168574e+00	-1.5369315957e-01
-4.1356406461e+00	 3.9631397208e+00	-1.7929179296e-01
-1.5392304845e+00	 2.6602540378e-01	-1.7062086961e-01
-1.9892304845e+00	 1.0454482672e+00	-1.4349203747e-01
-2.4392304845e+00	 1.8248711306e+00	-1.3068027636e-01
-2.8892304845e+00	 2.6042939940e+00	-1.3218558628e-01
-3.3392304845e+00	 3.3837168574e+00	-1.4800796724e-01
-3.7892304845e+00	 4.1631397208e+00	-1.7814741923e-01
-1.1928203230e+00	 4.6602540378e-01	-2.2516770104e-01
-1.6428203230e+00	 1.2454482672e+00	-1.7075112293e-01
-2.0928203230e+00	 2.0248711306e+00	-1.3818515999e-01
-2.5428203230e+00	 2.8042939940e+00	-1.2746981223e-01
-2.9928203230e+00	 3.5837168574e+00	-1.3860507964e-01
-3.4428203230e+00	 4.3631397208e+00	-1.7159096224e-01
-8.4641016151e-01	 6.6602540378e-01	-2.8277438920e-01
-1.2964101615e+00	 1.4454482672e+00	-1.9937567711e-01
-1.7464101615e+00	 2.2248711306e+00	-1.4536112435e-01
-2.1964101615e+00	 3.0042939940e+00	-1.2073073090e-01
-2.6464101615e+00	 3.7837168574e+00	-1.2548449678e-01
-3.0964101615e+00	 4.5631397208e+00	-1.5962242198e-01
-5.0000000000e-01	 8.6602540378e-01	-3.4344093407e-01
-9.5000000000e-01	 1.6454482672e+00	-2.2936570001e-01
-1.4000000000e+00	 2.4248711306e+00	-1.5220816942e-01
-1.8500000000e+00	 3.2042939940e+00	-1.1196834230e-01
-2.3000000000e+00	 3.9837168574e+00	-1.0864621864e-01
-2.7500000000e+00	 4.7631397208e+00	-1.4224179845e-01
-4.4820508076e+00	 3.7631397208e+00	-1.7502408342e-01
-4.9320508076e+00	 4.5425625842e+00	-1.7420562733e-01
-5.3820508076e+00	 5.3219854476e+00	-1.7665857703e-01
-5.8320508076e+00	 6.1014083110e+00	-1.8238293253e-01
-6.2820508076e+00	 6.8808311744e+00	-1.9137869383e-01
-6.7320508076e+00	 7.6602540378e+00	-2.0364586092e-01
-4.1356406461e+00	 3.9631397208e+00	-1.7929179296e-01
-4.5856406461e+00	 4.7425625842e+00	-1.7546582051e-01
-5.0356406461e+00	 5.5219854476e+00	-1.7626265323e-01
-5.4856406461e+00	 6.3014083110e+00	-1.8168229112e-01
-5.9356406461e+00	 7.0808311744e+00	-1.9172473420e-01
-6.3856406461e+00	 7.8602540378e+00	-2.0638998244e-01
-3.7892304845e+00	 4.1631397208e+00	-1.7814741923e-01
-4.2392304845e+00	 4.9425625842e+00	-1.7212205890e-01
-4.6892304845e+00	 5.7219854476e+00	-1.7207090312e-01
-5.1392304845e+00	 6.5014083110e+00	-1.7799395189e-01
-5.5892304845e+00	 7.2808311744e+00	-1.8989120521e-01
-6.0392304845e+00	 8.0602540378e+00	-2.0776266309e-01
-3.4428203230e+00	 4.3631397208e+00	-1.7159096224e-01
-3.8928203230e+00	 5.1425625842e+00	-1.6417434250e-01
-4.3428203230e+00	 5.9219854476e+00	-1.6408332670e-01
-4.7928203230e+00	 6.7014083110e+00	-1.7131791482e-01
-5.2428203230e+00	 7.4808311744e+00	-1.8587810688e-01
-5.6928203230e+00	 8.2602540378e+00	-2.0776390287e-01
-3.0964101615e+00	 4.5631397208e+00	-1.5962242198e-01
-3.5464101615e+00	 5.3425625842e+00	-1.5162267132e-01
-3.9964101615e+00	 6.1219854476e+00	-1.5229992397e-01
-4.4464101615e+00	 6.9014083110e+00	-1.6165417993e-01
-4.8964101615e+00	 7.6808311744e+00	-1.7968543919e-01
-5.3464101615e+00	 8.4602540378e+00	-2.0715917409e-01
-2.7500000000e+00	 4.7631397208e+00	-1.4224179845e-01
-3.2000000000e+00	 5.5425625842e+00	-1.3446704535e-01
-3.6500000000e+00	 6.3219854476e+00	-1.3672069493e-01
-4.1000000000e+00	 7.1014083110e+00	-1.4900274720e-01
-4.5500000000e+00	 7.8808311744e+00	-1.7131320216e-01
-5.0000000000e+00	 8.6602540378e+00	-2.0568227046e-01
-4.8301270189e+00	-1.6339745962e+00	 6.4231652843e-02
-5.2801270189e+00	-8.5455173281e-01	 4.9685932141e-03
-5.7301270189e+00	-7.5128869404e-02	-4.7032872384e-02
-6.1801270189e+00	 7.0429399400e-01	-9.1772743953e-02
-6.6301270189e+00	 1.4837168574e+00	-1.2925102149e-01
-7.0801270189e+00	 2.2631397208e+00	-1.5946770500e-01
-4.6569219382e+00	-1.5339745962e+00	 6.6135575236e-02
-5.1069219382e+00	-7.5455173281e-01	-4.0336242326e-03
-5.5569219382e+00	 2.4871130596e-02	-6.1726537944e-02
-6.0069219382e+00	 8.0429399400e-01	-1.0694316590e-01
-6.4569219382e+00	 1.5837168574e+00	-1.3968350809e-01
-6.9069219382e+00	 2.3631397208e+00	-1.5994756453e-01
-4.4837168574e+00	-1.4339745962e+00	 6.8023163476e-02
-4.9337168574e+00	-6.5455173281e-01	-1.3316428605e-02
-5.3837168574e+00	 1.2487113060e-01	-7.6965043202e-02
-5.8337168574e+00	 9.0429399400e-01	-1.2292268031e-01
-6.2837168574e+00	 1.6837168574e+00	-1.5118933994e-01
-6.7337168574e+00	 2.4631397208e+00	-1.6176502208e-01
-4.3105117767e+00	-1.3339745962e+00	 6.9894417563e-02
-4.7605117767e+00	-5.5455173281e-01	-2.2879819904e-02
-5.2105117767e+00	 2.2487113060e-01	-9.2748388158e-02
-5.6605117767e+00	 1.0042939940e+00	-1.3971128720e-01
-6.1105117767e+00	 1.7837168574e+00	-1.6376851703e-01
-6.5605117767e+00	 2.5631397208e+00	-1.6492007765e-01
-4.1373066959e+00	-1.2339745962e+00	 7.1749337496e-02
-4.5873066959e+00	-4.5455173281e-01	-3.2723798128e-02
-5.0373066959e+00	 3.2487113060e-01	-1.0907657281e-01
-5.4873066959e+00	 1.1042939940e+00	-1.5730898656e-01
-5.9373066959e+00	 1.8837168574e+00	-1.7742103936e-01
-6.3873066959e+00	 2.6631397208e+00	-1.6941273123e-01
-3.9641016151e+00	-1.1339745962e+00	 7.3587923275e-02
-4.4141016151e+00	-3.5455173281e-01	-4.2848363279e-02
-4.8641016151e+00	 4.2487113060e-01	-1.2594959717e-01
-5.3141016151e+00	 1.2042939940e+00	-1.7571577839e-01
-5.7641016151e+00	 1.9837168574e+00	-1.9214690694e-01
-6.2141016151e+00	 2.7631397208e+00	-1.7524298283e-01
-7.0801270189e+00	 2.2631397208e+00	-1.5946770500e-01
-7.5301270189e+00	 3.0425625842e+00	-1.4465251130e-01
-7.9801270189e+00	 3.8219854476e+00	-1.3358524204e-01
-8.4301270189e+00	 4.6014083110e+00	-1.2618951408e-01
-8.8801270189e+00	 5.3808311744e+00	-1.2215465376e-01
-9.3301270189e+00	 6.1602540378e+00	-1.2170163068e-01
-6.9069219382e+00	 2.3631397208e+00	-1.5994756453e-01
-7.3569219382e+00	 3.1425625842e+00	-1.4605347962e-01
-7.8069219382e+00	 3.9219854476e+00	-1.3654991096e-01
-8.2569219382e+00	 4.7014083110e+00	-1.3143685855e-01
-8.7069219382e+00	 5.4808311744e+00	-1.3037997578e-01
-9.1569219382e+00	 6.2602540378e+00	-1.3349397461e-01
-6.7337168574e+00	 2.4631397208e+00	-1.6176502208e-01
-7.1837168574e+00	 3.2425625842e+00	-1.4841362443e-01
-7.6337168574e+00	 4.0219854476e+00	-1.4009533482e-01
-8.0837168574e+00	 4.8014083110e+00	-1.3681015325e-01
-8.5337168574e+00	 5.5808311744e+00	-1.3839731035e-01
-8.9837168574e+00	 6.3602540378e+00	-1.4469930813e-01
-6.5605117767e+00	 2.5631397208e+00	-1.6492007765e-01
-7.0105117767e+00	 3.3425625842e+00	-1.5173294572e-01
-7.4605117767e+00	 4.1219854476e+00	-1.4422151362e-01
-7.9105117767e+00	 4.9014083110e+00	-1.4238578136e-01
-8.3605117767e+00	 5.6808311744e+00	-1.4620646798e-01
-8.8105117767e+00	 6.4602540378e+00	-1.5531744174e-01
-6.3873066959e+00	 2.6631397208e+00	-1.6941273123e-01
-6.8373066959e+00	 3.4425625842e+00	-1.5601144348e-01
-7.2873066959e+00	 4.2219854476e+00	-1.4892844735e-01
-7.7373066959e+00	 5.0014083110e+00	-1.4816374286e-01
-8.1873066959e+00	 5.7808311744e+00	-1.5371733000e-01
-8.6373066959e+00	 6.5602540378e+00	-1.6534818596e-01
-6.2141016151e+00	 2.7631397208e+00	-1.7524298283e-01
-6.6641016151e+00	 3.5425625842e+00	-1.6124911771e-01
-7.1141016151e+00	 4.3219854476e+00	-1.5421613602e-01
-7.5641016151e+00	 5.1014083110e+00	-1.5414403776e-01
-8.0141016151e+00	 5.8808311744e+00	-1.6103282292e-01
-8.4641016151e+00	 6.6602540378e+00	-1.7479135129e-01
-5.6961524227e+00	-2.1339745962e+00	 5.3151480903e-01
-6.1461524227e+00	-1.3545517328e+00	 2.8347767321e-01
-6.5961524227e+00	-5.7512886940e-01	 9.3958289380e-02
-7.0461524227e+00	 2.0429399400e-01	-3.7043342470e-02
-7.4961524227e+00	 9.8371685741e-01	-1.0952722234e-01
-7.9461524227e+00	 1.7631397208e+00	-1.2349335022e-01
-5.5229473419e+00	-2.0339745962e+00	 4.8250473088e-01
-5.9729473419e+00	-1.2545517328e+00	 2.5863258880e-01
-6.4229473419e+00	-4.7512886940e-01	 8.5031967976e-02
-6.8729473419e+00	 3.0429399400e-01	-3.8297131596e-02
-7.3229473419e+00	 1.0837168574e+00	-1.1135470991e-01
-7.7729473419e+00	 1.8631397208e+00	-1.3414076698e-01
-5.3497422612e+00	-1.9339745962e+00	 4.1665383977e-01
-5.7997422612e+00	-1.1545517328e+00	 2.2047487354e-01
-6.2497422612e+00	-3.7512886940e-01	 6.6321197837e-02
-6.6997422612e+00	 4.0429399400e-01	-4.5807187343e-02
-7.1497422612e+00	 1.1837168574e+00	-1.1591028200e-01
-7.5997422612e+00	 1.9631397208e+00	-1.4398808613e-01
-5.1765371804e+00	-1.8339745962e+00	 3.3396213570e-01
-5.6265371804e+00	-1.0545517328e+00	 1.6900452743e-01
-6.0765371804e+00	-2.7512886940e-01	 3.7825978964e-02
-6.5265371804e+00	 5.0429399400e-01	-5.9573509710e-02
-6.9765371804e+00	 1.2837168574e+00	-1.2319393859e-01
-7.4265371804e+00	 2.0631397208e+00	-1.5303530767e-01
-5.0033320997e+00	-1.7339745962e+00	 2.3442961867e-01
-5.4533320997e+00	-9.5455173281e-01	 1.0422155048e-01
-5.9033320997e+00	-1.7512886940e-01	-4.5368864277e-04
-6.3533320997e+00	 6.0429399400e-01	-7.9596098699e-02
-6.8033320997e+00	 1.3837168574e+00	-1.3320567969e-01
-7.2533320997e+00	 2.1631397208e+00	-1.6128243162e-01
-4.8301270189e+00	-1.6339745962e+00	 1.1805628867e-01
-5.2801270189e+00	-8.5455173281e-01	 2.6125942676e-02
-5.7301270189e+00	-7.5128869404e-02	-4.8517804984e-02
-6.1801270189e+00	 7.0429399400e-01	-1.0587495431e-01
-6.6301270189e+00	 1.4837168574e+00	-1.4594550530e-01
-7.0801270189e+00	 2.2631397208e+00	-1.6872945795e-01
-7.9461524227e+00	 1.7631397208e+00	-1.2349335022e-01
-8.3961524227e+00	 2.5425625842e+00	-1.0145689672e-01
-8.8461524227e+00	 3.3219854476e+00	-8.7771973581e-02
-9.2961524227e+00	 4.1014083110e+00	-8.2661409357e-02
-9.7461524227e+00	 4.8808311744e+00	-8.6141801232e-02
-1.0196152423e+01	 5.6602540378e+00	-9.8229746383e-02
-7.7729473419e+00	 1.8631397208e+00	-1.3414076698e-01
-8.2229473419e+00	 2.6425625842e+00	-1.1076746344e-01
-8.6729473419e+00	 3.4219854476e+00	-9.5694870999e-02
-9.1229473419e+00	 4.2014083110e+00	-8.8962221531e-02
-9.5729473419e+00	 4.9808311744e+00	-9.0662815546e-02
-1.0022947342e+01	 5.7602540378e+00	-1.0081325022e-01
-7.5997422612e+00	 1.9631397208e+00	-1.4398808613e-01
-8.0497422612e+00	 2.7425625842e+00	-1.1960646286e-01
-8.4997422612e+00	 3.5219854476e+00	-1.0354283258e-01
-8.9497422612e+00	 4.3014083110e+00	-9.5564951815e-02
-9.3997422612e+00	 5.0808311744e+00	-9.5862601920e-02
-9.8497422612e+00	 5.8602540378e+00	-1.0445238007e-01
-7.4265371804e+00	 2.0631397208e+00	-1.5303530767e-01
-7.8765371804e+00	 2.8425625842e+00	-1.2802282005e-01
-8.3265371804e+00	 3.6219854476e+00	-1.1131055406e-01
-8.7765371804e+00	 4.4014083110e+00	-1.0246941071e-01
-9.2265371804e+00	 5.1808311744e+00	-1.0174097085e-01
-9.6765371804e+00	 5.9602540378e+00	-1.0914694643e-01
-7.2533320997e+00	 2.1631397208e+00	-1.6128243162e-01
-7.7033320997e+00	 2.9425625842e+00	-1.3601653501e-01
-8.1533320997e+00	 3.7219854476e+00	-1.1889328792e-01
-8.6033320997e+00	 4.5014083110e+00	-1.0967540873e-01
-9.0533320997e+00	 5.2808311744e+00	-1.0829773285e-01
-9.5033320997e+00	 6.0602540378e+00	-1.1489675980e-01
-7.0801270189e+00	 2.2631397208e+00	-1.6872945795e-01
-7.5301270189e+00	 3.0425625842e+00	-1.4358760772e-01
-7.9801270189e+00	 3.8219854476e+00	-1.2643083492e-01
-8.4301270189e+00	 4.6014083110e+00	-1.1718275636e-01
-8.8801270189e+00	 5.3808311744e+00	-1.1553269842e-01
-9.3301270189e+00	 6.1602540378e+00	-1.2170163068e-01
-9.1602540378e+00	-4.1339745962e+00	 1.6428463495e-01
-9.6102540378e+00	-3.3545517328e+00	 1.6645377354e-01
-1.0060254038e+01	-2.5751288694e+00	 1.5651296733e-01
-1.0510254038e+01	-1.7957060060e+00	 1.3444561916e-01
-1.0960254038e+01	-1.0162831426e+00	 1.0023513183e-01
-1.1410254038e+01	-2.3686027919e-01	 5.3864908190e-02
-8.8138438763e+00	-3.9339745962e+00	 1.7653186569e-01
-9.2638438763e+00	-3.1545517328e+00	 1.6526151851e-01
-9.7138438763e+00	-2.3751288694e+00	 1.4720447350e-01
-1.0163843876e+01	-1.5957060060e+00	 1.2234413348e-01
-1.0613843876e+01	-8.1628314259e-01	 9.0663901294e-02
-1.1063843876e+01	-3.6860279186e-02	 5.2147179756e-02
-8.4674337148e+00	-3.7339745962e+00	 1.9818933595e-01
-8.9174337148e+00	-2.9545517328e+00	 1.7124619491e-01
-9.3674337148e+00	-2.1751288694e+00	 1.4283960302e-01
-9.8174337148e+00	-1.3957060060e+00	 1.1295296309e-01
-1.0267433715e+01	-6.1628314259e-01	 8.1569677956e-02
-1.0717433715e+01	 1.6313972081e-01	 4.8673150446e-02
-8.1210235533e+00	-3.5339745962e+00	 2.2927292934e-01
-8.5710235533e+00	-2.7545517328e+00	 1.8440931873e-01
-9.0210235533e+00	-1.9751288694e+00	 1.4341987187e-01
-9.4710235533e+00	-1.1957060060e+00	 1.0627362395e-01
-9.9210235533e+00	-4.1628314259e-01	 7.2953977795e-02
-1.0371023553e+01	 3.6313972081e-01	 4.3444336236e-02
-7.7746133918e+00	-3.3339745962e+00	 2.6970549903e-01
-8.2246133918e+00	-2.5545517328e+00	 2.0478180579e-01
-8.6746133918e+00	-1.7751288694e+00	 1.4894679603e-01
-9.1246133918e+00	-9.9570600600e-01	 1.0230763204e-01
-9.5746133918e+00	-2.1628314259e-01	 6.4818316789e-02
-1.0024613392e+01	 5.6313972081e-01	 3.6462253103e-02
-7.4282032303e+00	-3.1339745962e+00	 3.1946055395e-01
-7.8782032303e+00	-2.3545517328e+00	 2.3233761059e-01
-8.3282032303e+00	-1.5751288694e+00	 1.5942420028e-01
-8.7782032303e+00	-7.9570600600e-01	 1.0105650334e-01
-9.2282032303e+00	-1.6283142592e-02	 5.7164210913e-02
-9.6782032303e+00	 7.6313972081e-01	 2.7728417023e-02
-1.1410254038e+01	-2.3686027919e-01	 5.3864908190e-02
-1.1860254038e+01	 5.4256258422e-01	 1.0327008096e-02
-1.2310254038e+01	 1.3219854476e+00	-1.5386509834e-02
-1.2760254038e+01	 2.1014083110e+00	-2.3292240524e-02
-1.3210254038e+01	 2.8808311744e+00	-1.3406782175e-02
-1.3660254038e+01	 3.6602540378e+00	 1.4253268029e-02
-1.1063843876e+01	-3.6860279186e-02	 5.2147179756e-02
-1.1513843876e+01	 7.4256258422e-01	 7.0768437808e-03
-1.1963843876e+01	 1.5219854476e+00	-1.9690084934e-02
-1.2413843876e+01	 2.3014083110e+00	-2.8170204893e-02
-1.2863843876e+01	 3.0808311744e+00	-1.8380110891e-02
-1.3313843876e+01	 3.8602540378e+00	 9.6635988080e-03
-1.0717433715e+01	 1.6313972081e-01	 4.8673150446e-02
-1.1167433715e+01	 9.4256258422e-01	 1.9759833229e-03
-1.1617433715e+01	 1.7219854476e+00	-2.5938752696e-02
-1.2067433715e+01	 2.5014083110e+00	-3.5087654791e-02
-1.2517433715e+01	 3.2808311744e+00	-2.5487321550e-02
-1.2967433715e+01	 4.0602540378e+00	 2.8456523809e-03
-1.0371023553e+01	 3.6313972081e-01	 4.3444336236e-02
-1.0821023553e+01	 1.1425625842e+00	-4.9740573013e-03
-1.1271023553e+01	 1.9219854476e+00	-3.4130995892e-02
-1.1721023553e+01	 2.7014083110e+00	-4.4043076713e-02
-1.2171023553e+01	 3.4808311744e+00	-3.4726898178e-02
-1.2621023553e+01	 4.2602540378e+00	-6.1990552785e-03
-1.0024613392e+01	 5.6313972081e-01	 3.6462253103e-02
-1.0474613392e+01	 1.3425625842e+00	-1.3771762116e-02
-1.0924613392e+01	 2.1219854476e+00	-4.4265298544e-02
-1.1374613392e+01	 2.9014083110e+00	-5.5034953359e-02
-1.1824613392e+01	 3.6808311744e+00	-4.6097323742e-02
-1.2274613392e+01	 4.4602540378e+00	-1.7469008196e-02
-9.6782032303e+00	 7.6313972081e-01	 2.7728417023e-02
-1.0128203230e+01	 1.5425625842e+00	-2.4415615144e-02
-1.0578203230e+01	 2.3219854476e+00	-5.6340144677e-02
-1.1028203230e+01	 3.1014083110e+00	-6.8061768753e-02
-1.1478203230e+01	 3.8808311744e+00	-5.9597084552e-02
-1.1928203230e+01	 4.6602540378e+00	-3.0962689255e-02
-7.4282032303e+00	-3.1339745962e+00	 3.1946055395e-01
-7.8782032303e+00	-2.3545517328e+00	 2.3233761059e-01
-8.3282032303e+00	-1.5751288694e+00	 1.5942420028e-01
-8.7782032303e+00	-7.9570600600e-01	 1.0105650334e-01
-9.2282032303e+00	-1.6283142592e-02	 5.7164210913e-02
-9.6782032303e+00	 7.6313972081e-01	 2.7728417023e-02
-7.0817930688e+00	-2.9339745962e+00	 3.4758792645e-01
-7.5317930688e+00	-2.1545517328e+00	 2.3534751898e-01
-7.9817930688e+00	-1.3751288694e+00	 1.4552519675e-01
-8.4317930688e+00	-5.9570600600e-01	 7.8180844176e-02
-8.8817930688e+00	 1.8371685741e-01	 3.3626524945e-02
-9.3317930688e+00	 9.6313972081e-01	 1.1737537445e-02
-6.7353829072e+00	-2.7339745962e+00	 3.8774999644e-01
-7.1853829072e+00	-1.9545517328e+00	 2.4664518747e-01
-7.6353829072e+00	-1.1751288694e+00	 1.3616701592e-01
-8.0853829072e+00	-3.9570600600e-01	 5.6315481783e-02
-8.5353829072e+00	 3.8371685741e-01	 7.2407438400e-03
-8.9853829072e+00	 1.1631397208e+00	-1.0845968965e-02
-6.3889727457e+00	-2.5339745962e+00	 4.3994676390e-01
-6.8389727457e+00	-1.7545517328e+00	 2.6623061605e-01
-7.2889727457e+00	-9.7512886940e-01	 1.3134965780e-01
-7.7389727457e+00	-1.9570600600e-01	 3.5303889141e-02
-8.1889727457e+00	 5.8371685741e-01	-2.1906689923e-02
-8.6389727457e+00	 1.3631397208e+00	-4.0020586231e-02
-6.0425625842e+00	-2.3339745962e+00	 5.0417822885e-01
-6.4925625842e+00	-1.5545517328e+00	 2.9410380473e-01
-6.9425625842e+00	-7.7512886940e-01	 1.3107312239e-01
-7.3925625842e+00	 4.2939940024e-03	 1.5086181822e-02
-7.8425625842e+00	 7.8371685741e-01	-5.3857016971e-02
-8.2925625842e+00	 1.5631397208e+00	-7.5756473990e-02
-5.6961524227e+00	-2.1339745962e+00	 5.8044439127e-01
-6.1461524227e+00	-1.3545517328e+00	 3.3026475350e-01
-6.5961524227e+00	-5.7512886940e-01	 1.3533740969e-01
-7.0461524227e+00	 2.0429399400e-01	-4.3376401748e-03
-7.4961524227e+00	 9.8371685741e-01	-8.8760396083e-02
-7.9461524227e+00	 1.7631397208e+00	-1.1793085804e-01
-9.6782032303e+00	 7.6313972081e-01	 2.7728417023e-02
-1.0128203230e+01	 1.5425625842e+00	-2.4415615144e-02
-1.0578203230e+01	 2.3219854476e+00	-5.6340144677e-02
-1.1028203230e+01	 3.1014083110e+00	-6.8061768753e-02
-1.1478203230e+01	 3.8808311744e+00	-5.9597084552e-02
-1.1928203230e+01	 4.6602540378e+00	-3.0962689255e-02
-9.3317930688e+00	 9.6313972081e-01	 1.1737537445e-02
-9.7817930688e+00	 1.7425625842e+00	-3.1088488659e-02
-1.0231793069e+01	 2.5219854476e+00	-5.8192499831e-02
-1.0681793069e+01	 3.3014083110e+00	-6.9591093251e-02
-1.1131793069e+01	 4.0808311744e+00	-6.5300866096e-02
-1.1581793069e+01	 4.8602540378e+00	-4.5338415548e-02
-8.9853829072e+00	 1.1631397208e+00	-1.0845968965e-02
-9.4353829072e+00	 1.9425625842e+00	-4.2943535347e-02
-9.8853829072e+00	 2.7219854476e+00	-6.3816574501e-02
-1.0335382907e+01	 3.5014083110e+00	-7.3481683606e-02
-1.0785382907e+01	 4.2808311744e+00	-7.1955459840e-02
-1.1235382907e+01	 5.0602540378e+00	-5.9254500383e-02
-8.6389727457e+00	 1.3631397208e+00	-4.0020586231e-02
-9.0889727457e+00	 2.1425625842e+00	-5.9979239233e-02
-9.5389727457e+00	 2.9219854476e+00	-7.3210852712e-02
-9.9889727457e+00	 3.7014083110e+00	-7.9732023844e-02
-1.0438972746e+01	 4.4808311744e+00	-7.9559349808e-02
-1.0888972746e+01	 5.2602540378e+00	-7.2709427784e-02
-8.2925625842e+00	 1.5631397208e+00	-7.5756473990e-02
-8.7425625842e+00	 2.3425625842e+00	-8.2194084342e-02
-9.1925625842e+00	 3.1219854476e+00	-8.6373818487e-02
-9.6425625842e+00	 3.9014083110e+00	-8.8340597988e-02
-1.0092562584e+01	 4.6808311744e+00	-8.8111020025e-02
-1.0542562584e+01	 5.4602540378e+00	-8.5701681776e-02
-7.9461524227e+00	 1.7631397208e+00	-1.1793085804e-01
-8.3961524227e+00	 2.5425625842e+00	-1.0958655470e-01
-8.8461524227e+00	 3.3219854476e+00	-1.0330395585e-01
-9.2961524227e+00	 4.1014083110e+00	-9.9305890064e-02
-9.7461524227e+00	 4.8808311744e+00	-9.7608954515e-02
-1.0196152423e+01	 5.6602540378e+00	-9.8229746383e-02
-8.6602540378e+00	-5.0000000000e+00	 1.0408991584e-01
-8.7602540378e+00	-4.8267949192e+00	 1.2069183611e-01
-8.8602540378e+00	-4.6535898385e+00	 1.3501245029e-01
-8.9602540378e+00	-4.4803847577e+00	 1.4705157625e-01
-9.0602540378e+00	-4.3071796770e+00	 1.5680903185e-01
-9.1602540378e+00	-4.1339745962e+00	 1.6428463495e-01
-8.3138438763e+00	-4.8000000000e+00	 1.0068052789e-01
-8.4138438763e+00	-4.6267949192e+00	 1.1961963042e-01
-8.5138438763e+00	-4.4535898385e+00	 1.3598512987e-01
-8.6138438763e+00	-4.2803847577e+00	 1.4977829385e-01
-8.7138438763e+00	-4.1071796770e+00	 1.6099894024e-01
-8.8138438763e+00	-3.9339745962e+00	 1.6964688689e-01
-7.9674337148e+00	-4.6000000000e+00	 9.6837250212e-02
-8.0674337148e+00	-4.4267949192e+00	 1.1877036147e-01
-8.1674337148e+00	-4.2535898385e+00	 1.3782431098e-01
-8.2674337148e+00	-4.0803847577e+00	 1.5399909874e-01
-8.3674337148e+00	-3.9071796770e+00	 1.6729880605e-01
-8.4674337148e+00	-3.7339745962e+00	 1.7773768004e-01
-7.6210235533e+00	-4.4000000000e+00	 9.2544513540e-02
-7.7210235533e+00	-4.2267949192e+00	 1.1809023617e-01
-7.8210235533e+00	-4.0535898385e+00	 1.4046593594e-01
-7.9210235533e+00	-3.8803847577e+00	 1.5967161283e-01
-8.0210235533e+00	-3.7071796770e+00	 1.7570726686e-01
-8.1210235533e+00	-3.5339745962e+00	 1.8857289802e-01
-7.2746133918e+00	-4.2000000000e+00	 8.7802317875e-02
-7.3746133918e+00	-4.0267949192e+00	 1.1757870106e-01
-7.4746133918e+00	-3.8535898385e+00	 1.4389420027e-01
-7.5746133918e+00	-3.6803847577e+00	 1.6674881549e-01
-7.6746133918e+00	-3.5071796770e+00	 1.8614254673e-01
-7.7746133918e+00	-3.3339745962e+00	 2.0207539399e-01
-6.9282032303e+00	-4.0000000000e+00	 8.2610663217e-02
-7.0282032303e+00	-3.8267949192e+00	 1.1723575614e-01
-7.1282032303e+00	-3.6535898385e+00	 1.4810910397e-01
-7.2282032303e+00	-3.4803847577e+00	 1.7523070671e-01
-7.3282032303e+00	-3.3071796770e+00	 1.9860056435e-01
-7.4282032303e+00	-3.1339745962e+00	 2.1821867690e-01
-6.9282032303e+00	-4.0000000000e+00	 8.2610663217e-02
-7.0282032303e+00	-3.8267949192e+00	 1.1723575614e-01
-7.1282032303e+00	-3.6535898385e+00	 1.4810910397e-01
-7.2282032303e+00	-3.4803847577e+00	 1.7523070671e-01
-7.3282032303e+00	-3.3071796770e+00	 1.9860056435e-01
-7.4282032303e+00	-3.1339745962e+00	 2.1821867690e-01
-6.5817930688e+00	-3.8000000000e+00	 9.6694827695e-02
-6.6817930688e+00	-3.6267949192e+00	 1.4568353880e-01
-6.7817930688e+00	-3.4535898385e+00	 1.8234624900e-01
-6.8817930688e+00	-3.2803847577e+00	 2.0668295830e-01
-6.9817930688e+00	-3.1071796770e+00	 2.1869366671e-01
-7.0817930688e+00	-2.9339745962e+00	 2.1837837421e-01
-6.2353829072e+00	-3.6000000000e+00	 1.1093421059e-01
-6.3353829072e+00	-3.4267949192e+00	 1.8025641408e-01
-6.4353829072e+00	-3.2535898385e+00	 2.2867836085e-01
-6.5353829072e+00	-3.0803847577e+00	 2.5620005092e-01
-6.6353829072e+00	-2.9071796770e+00	 2.6282148429e-01
-6.7353829072e+00	-2.7339745962e+00	 2.4854266096e-01
-5.8889727457e+00	-3.4000000000e+00	 1.2532881192e-01
-5.9889727457e+00	-3.2267949192e+00	 2.2095438198e-01
-6.0889727457e+00	-3.0535898385e+00	 2.8710543953e-01
-6.1889727457e+00	-2.8803847577e+00	 3.2378198457e-01
-6.2889727457e+00	-2.7071796770e+00	 3.3098401711e-01
-6.3889727457e+00	-2.5339745962e+00	 3.0871153713e-01
-5.5425625842e+00	-3.2000000000e+00	 1.3987863166e-01
-5.6425625842e+00	-3.0267949192e+00	 2.6777744250e-01
-5.7425625842e+00	-2.8535898385e+00	 3.5762748503e-01
-5.8425625842e+00	-2.6803847577e+00	 4.0942875924e-01
-5.9425625842e+00	-2.5071796770e+00	 4.2318126514e-01
-6.0425625842e+00	-2.3339745962e+00	 3.9888500273e-01
-5.1961524227e+00	-3.0000000000e+00	 1.5458366983e-01
-5.2961524227e+00	-2.8267949192e+00	 3.2072559565e-01
-5.3961524227e+00	-2.6535898385e+00	 4.4024449736e-01
-5.4961524227e+00	-2.4803847577e+00	 5.1314037494e-01
-5.5961524227e+00	-2.3071796770e+00	 5.3941322841e-01
-5.6961524227e+00	-2.1339745962e+00	 5.1906305776e-01
-8.1602540378e+00	-5.8660254038e+00	 2.1806372834e-02
-8.2602540378e+00	-5.6928203230e+00	 3.0591549549e-02
-8.3602540378e+00	-5.5196152423e+00	 4.3205473959e-02
-8.4602540378e+00	-5.3464101615e+00	 5.9649459766e-02
-8.5602540378e+00	-5.1732050808e+00	 7.9944334437e-02
-8.6602540378e+00	-5.0000000000e+00	 1.0408991584e-01
-7.8138438763e+00	-5.6660254038e+00	 1.3143339414e-02
-7.9138438763e+00	-5.4928203230e+00	 2.6130838132e-02
-8.0138438763e+00	-5.3196152423e+00	 4.1084577476e-02
-8.1138438763e+00	-5.1464101615e+00	 5.8004557446e-02
-8.2138438763e+00	-4.9732050808e+00	 7.6890778042e-02
-8.3138438763e+00	-4.8000000000e+00	 9.7743239264e-02
-7.4674337148e+00	-5.4660254038e+00	 4.5221984227e-03
-7.5674337148e+00	-5.2928203230e+00	 2.2031839757e-02
-7.6674337148e+00	-5.1196152423e+00	 3.9639753327e-02
-7.7674337148e+00	-4.9464101615e+00	 5.7345939132e-02
-7.8674337148e+00	-4.7732050808e+00	 7.5150397172e-02
-7.9674337148e+00	-4.6000000000e+00	 9.3053127447e-02
-7.1210235533e+00	-5.2660254038e+00	-4.0570501388e-03
-7.2210235533e+00	-5.0928203230e+00	 1.8294554426e-02
-7.3210235533e+00	-4.9196152423e+00	 3.8876462835e-02
-7.4210235533e+00	-4.7464101615e+00	 5.7688675088e-02
-7.5210235533e+00	-4.5732050808e+00	 7.4731191185e-02
-7.6210235533e+00	-4.4000000000e+00	 9.0004011127e-02
-6.7746133918e+00	-5.0660254038e+00	-1.2594406271e-02
-6.8746133918e+00	-4.8928203230e+00	 1.4918982137e-02
-6.9746133918e+00	-4.7196152423e+00	 3.8794705998e-02
-7.0746133918e+00	-4.5464101615e+00	 5.9032765313e-02
-7.1746133918e+00	-4.3732050808e+00	 7.5633160081e-02
-7.2746133918e+00	-4.2000000000e+00	 8.8595890303e-02
-6.4282032303e+00	-4.8660254038e+00	-2.1089869974e-02
-6.5282032303e+00	-4.6928203230e+00	 1.1905122891e-02
-6.6282032303e+00	-4.5196152423e+00	 3.9394482818e-02
-6.7282032303e+00	-4.3464101615e+00	 6.1378209808e-02
-6.8282032303e+00	-4.1732050808e+00	 7.7856303860e-02
-6.9282032303e+00	-4.0000000000e+00	 8.8828764974e-02
-6.4282032303e+00	-4.8660254038e+00	-2.1089869974e-02
-6.5282032303e+00	-4.6928203230e+00	 1.1905122891e-02
-6.6282032303e+00	-4.5196152423e+00	 3.9394482818e-02
-6.7282032303e+00	-4.3464101615e+00	 6.1378209808e-02
-6.8282032303e+00	-4.1732050808e+00	 7.7856303860e-02
-6.9282032303e+00	-4.0000000000e+00	 8.8828764974e-02
-6.0817930688e+00	-4.6660254038e+00	-8.6551316480e-02
-6.1817930688e+00	-4.4928203230e+00	-4.5447348123e-02
-6.2817930688e+00	-4.3196152423e+00	-5.5104323931e-03
-6.3817930688e+00	-4.1464101615e+00	 3.3259430711e-02
-6.4817930688e+00	-3.9732050808e+00	 7.0862241188e-02
-6.5817930688e+00	-3.8000000000e+00	 1.0729799904e-01
-5.7353829072e+00	-4.4660254038e+00	-1.3800398109e-01
-5.8353829072e+00	-4.2928203230e+00	-9.2395624732e-02
-5.9353829072e+00	-4.1196152423e+00	-4.3615740688e-02
-6.0353829072e+00	-3.9464101615e+00	 8.3356710393e-03
-6.1353829072e+00	-3.7732050808e+00	 6.3458610451e-02
-6.2353829072e+00	-3.6000000000e+00	 1.2175307755e-01
-5.3889727457e+00	-4.2660254038e+00	-1.7544786381e-01
-5.4889727457e+00	-4.0928203230e+00	-1.2893970693e-01
-5.5889727457e+00	-3.9196152423e+00	-7.4921442068e-02
-5.6889727457e+00	-3.7464101615e+00	-1.3393069206e-02
-5.7889727457e+00	-3.5732050808e+00	 5.5645411650e-02
-5.8889727457e+00	-3.4000000000e+00	 1.3219400050e-01
-5.0425625842e+00	-4.0660254038e+00	-1.9888296463e-01
-5.1425625842e+00	-3.8928203230e+00	-1.5507959473e-01
-5.2425625842e+00	-3.7196152423e+00	-9.9427536531e-02
-5.3425625842e+00	-3.5464101615e+00	-3.1926790026e-02
-5.4425625842e+00	-3.3732050808e+00	 4.7422644785e-02
-5.5425625842e+00	-3.2000000000e+00	 1.3862076790e-01
-4.6961524227e+00	-3.8660254038e+00	-2.0830928355e-01
-4.7961524227e+00	-3.6928203230e+00	-1.7081528812e-01
-4.8961524227e+00	-3.5196152423e+00	-1.1713402408e-01
-4.9961524227e+00	-3.3464101615e+00	-4.7265491420e-02
-5.0961524227e+00	-3.1732050808e+00	 3.8790309856e-02
-5.1961524227e+00	-3.0000000000e+00	 1.4103337975e-01
-3.6602540378e+00	-1.3660254038e+01	 4.0922611770e-02
-4.1102540378e+00	-1.2880831174e+01	-1.4254512786e-02
-4.5602540378e+00	-1.2101408311e+01	-6.2590287463e-02
-5.0102540378e+00	-1.1321985448e+01	-1.0413179855e-01
-5.4602540378e+00	-1.0542562584e+01	-1.3892613557e-01
-5.9102540378e+00	-9.7631397208e+00	-1.6702038418e-01
-3.3138438763e+00	-1.3460254038e+01	 2.2229554438e-02
-3.7638438763e+00	-1.2680831174e+01	-2.1770456920e-02
-4.2138438763e+00	-1.1901408311e+01	-6.0673524095e-02
-4.6638438763e+00	-1.1121985448e+01	-9.4526737783e-02
-5.1138438763e+00	-1.0342562584e+01	-1.2337718298e-01
-5.5638438763e+00	-9.5631397208e+00	-1.4727194690e-01
-2.9674337148e+00	-1.3260254038e+01	 6.0234243107e-03
-3.4174337148e+00	-1.2480831174e+01	-2.8391955843e-02
-3.8674337148e+00	-1.1701408311e+01	-5.9454799078e-02
-4.3174337148e+00	-1.0921985448e+01	-8.7212195793e-02
-4.7674337148e+00	-1.0142562584e+01	-1.1171123115e-01
-5.2174337148e+00	-9.3631397208e+00	-1.3299899238e-01
-2.6210235533e+00	-1.3060254038e+01	-7.7008192265e-03
-3.0710235533e+00	-1.2280831174e+01	-3.4124050170e-02
-3.5210235533e+00	-1.1501408311e+01	-5.8939151457e-02
-3.9710235533e+00	-1.0721985448e+01	-8.2193213194e-02
-4.4210235533e+00	-9.9425625842e+00	-1.0393332072e-01
-4.8710235533e+00	-9.1631397208e+00	-1.2420656125e-01
-2.2746133918e+00	-1.2860254038e+01	-1.8948216789e-02
-2.7246133918e+00	-1.2080831174e+01	-3.8971780516e-02
-3.1746133918e+00	-1.1301408311e+01	-5.9131621847e-02
-3.6246133918e+00	-1.0521985448e+01	-7.9474830598e-02
-4.0746133918e+00	-9.7425625842e+00	-1.0004849227e-01
-4.5246133918e+00	-8.9631397208e+00	-1.2089969410e-01
-1.9282032303e+00	-1.2660254038e+01	-2.7723808992e-02
-2.3782032303e+00	-1.1880831174e+01	-4.2940185934e-02
-2.8282032303e+00	-1.1101408311e+01	-6.0037250861e-02
-3.2782032303e+00	-1.0321985448e+01	-7.9062088619e-02
-3.7282032303e+00	-9.5425625842e+00	-1.0006178644e-01
-4.1782032303e+00	-8.7631397208e+00	-1.2308343155e-01
-5.9102540378e+00	-9.7631397208e+00	-1.6702038418e-01
-6.3602540378e+00	-8.9837168574e+00	-1.7877304644e-01
-6.8102540378e+00	-8.2042939940e+00	-1.6530887237e-01
-7.2602540378e+00	-7.4248711306e+00	-1.2943555814e-01
-7.7102540378e+00	-6.6454482672e+00	-6.7063809734e-02
-8.1602540378e+00	-5.8660254038e+00	 2.1806372834e-02
-5.5638438763e+00	-9.5631397208e+00	-1.4727194690e-01
-6.0138438763e+00	-8.7837168574e+00	-1.6715483475e-01
-6.4638438763e+00	-8.0042939940e+00	-1.6116845790e-01
-6.9138438763e+00	-7.2248711306e+00	-1.2970092211e-01
-7.3638438763e+00	-6.4454482672e+00	-6.9870836423e-02
-7.8138438763e+00	-5.6660254038e+00	 1.8321799169e-02
-5.2174337148e+00	-9.3631397208e+00	-1.3299899238e-01
-5.6674337148e+00	-8.5837168574e+00	-1.5910516502e-01
-6.1174337148e+00	-7.8042939940e+00	-1.5873452261e-01
-6.5674337148e+00	-7.0248711306e+00	-1.2976455957e-01
-7.0174337148e+00	-6.2454482672e+00	-7.0567930894e-02
-7.4674337148e+00	-5.4660254038e+00	 1.8855363423e-02
-4.8710235533e+00	-9.1631397208e+00	-1.2420656125e-01
-5.3210235533e+00	-8.3837168574e+00	-1.5462907788e-01
-5.7710235533e+00	-7.6042939940e+00	-1.5800706650e-01
-6.2210235533e+00	-6.8248711306e+00	-1.2962647051e-01
-6.6710235533e+00	-6.0454482672e+00	-6.9155093146e-02
-7.1210235533e+00	-5.2660254038e+00	 2.3407065596e-02
-4.5246133918e+00	-8.9631397208e+00	-1.2089969410e-01
-4.9746133918e+00	-8.1837168574e+00	-1.5473062710e-01
-5.4246133918e+00	-7.4042939940e+00	-1.5898608957e-01
-5.8746133918e+00	-6.6248711306e+00	-1.2928665493e-01
-6.3246133918e+00	-5.8454482672e+00	-6.5632323180e-02
-6.7746133918e+00	-5.0660254038e+00	 3.1976905688e-02
-4.1782032303e+00	-8.7631397208e+00	-1.2308343155e-01
-4.6282032303e+00	-7.9837168574e+00	-1.5877905798e-01
-5.0782032303e+00	-7.2042939940e+00	-1.6167159183e-01
-5.5282032303e+00	-6.4248711306e+00	-1.2874511284e-01
-5.9782032303e+00	-5.6454482672e+00	-5.9999620995e-02
-6.4282032303e+00	-4.8660254038e+00	 4.4564883700e-02
-1.9282032303e+00	-1.2660254038e+01	-2.7723808992e-02
-2.3782032303e+00	-1.1880831174e+01	-4.2940185934e-02
-2.8282032303e+00	-1.1101408311e+01	-6.0037250861e-02
-3.2782032303e+00	-1.0321985448e+01	-7.9062088619e-02
-3.7282032303e+00	-9.5425625842e+00	-1.0006178644e-01
-4.1782032303e+00	-8.7631397208e+00	-1.2308343155e-01
-1.5817930688e+00	-1.2460254038e+01	-3.4755385064e-02
-2.0317930688e+00	-1.1680831174e+01	-4.1615869386e-02
-2.4817930688e+00	-1.0901408311e+01	-5.1304284249e-02
-2.9317930688e+00	-1.0121985448e+01	-6.3867714703e-02
-3.3817930688e+00	-9.3425625842e+00	-7.9353247981e-02
-3.8317930688e+00	-8.5631397208e+00	-9.7807971309e-02
-1.2353829072e+00	-1.2260254038e+01	-4.0770734232e-02
-1.6853829072e+00	-1.1480831174e+01	-4.1000299562e-02
-2.1353829072e+00	-1.0701408311e+01	-4.5005037993e-02
-2.5853829072e+00	-9.9219854476e+00	-5.2832034774e-02
-3.0353829072e+00	-9.1425625842e+00	-6.4528377140e-02
-3.4853829072e+00	-8.3631397208e+00	-8.0141152318e-02
-8.8897274573e-01	-1.2060254038e+01	-4.5774895312e-02
-1.3389727457e+00	-1.1280831174e+01	-4.1098517073e-02
-1.7889727457e+00	-1.0501408311e+01	-4.1144552704e-02
-2.2389727457e+00	-9.7219854476e+00	-4.5960089446e-02
-2.6889727457e+00	-8.9425625842e+00	-5.5592214532e-02
-3.1389727457e+00	-8.1631397208e+00	-7.1305923577e-02
-5.4256258422e-01	-1.1860254038e+01	-4.9772912698e-02
-9.9256258422e-01	-1.1080831174e+01	-4.1915562533e-02
-1.4425625842e+00	-1.0301408311e+01	-3.9727868996e-02
-1.8925625842e+00	-9.5219854476e+00	-4.3256919329e-02
-2.3425625842e+00	-8.7425625842e+00	-5.2549800767e-02
-2.7925625842e+00	-7.9631397208e+00	-7.0313753031e-02
-1.9615242271e-01	-1.1660254038e+01	-5.2769825015e-02
-6.4615242271e-01	-1.0880831174e+01	-4.3456476555e-02
-1.0961524227e+00	-1.0101408311e+01	-4.0760027481e-02
-1.5461524227e+00	-9.3219854476e+00	-4.4727565037e-02
-1.9961524227e+00	-8.5425625842e+00	-5.5406176458e-02
-2.4461524227e+00	-7.7631397208e+00	-7.6952428495e-02
-4.1782032303e+00	-8.7631397208e+00	-1.2308343155e-01
-4.6282032303e+00	-7.9837168574e+00	-1.5877905798e-01
-5.0782032303e+00	-7.2042939940e+00	-1.6167159183e-01
-5.5282032303e+00	-6.4248711306e+00	-1.2874511284e-01
-5.9782032303e+00	-5.6454482672e+00	-5.9999620995e-02
-6.4282032303e+00	-4.8660254038e+00	 4.4564883700e-02
-3.8317930688e+00	-8.5631397208e+00	-9.7807971309e-02
-4.2817930688e+00	-7.7837168574e+00	-1.2997136105e-01
-4.7317930688e+00	-7.0042939940e+00	-1.3743467209e-01
-5.1817930688e+00	-6.2248711306e+00	-1.1857273582e-01
-5.6317930688e+00	-5.4454482672e+00	-7.3385552241e-02
-6.0817930688e+00	-4.6660254038e+00	-1.8731213484e-03
-3.4853829072e+00	-8.3631397208e+00	-8.0141152318e-02
-3.9353829072e+00	-7.5837168574e+00	-1.0608583375e-01
-4.3853829072e+00	-6.8042939940e+00	-1.1541124560e-01
-4.8353829072e+00	-6.0248711306e+00	-1.0790517567e-01
-5.2853829072e+00	-5.2454482672e+00	-8.3567623973e-02
-5.7353829072e+00	-4.4660254038e+00	-4.2398590503e-02
-3.1389727457e+00	-8.1631397208e+00	-7.1305923577e-02
-3.5889727457e+00	-7.3837168574e+00	-8.7122476080e-02
-4.0389727457e+00	-6.6042939940e+00	-9.5601312350e-02
-4.4889727457e+00	-5.8248711306e+00	-9.6742432388e-02
-4.9389727457e+00	-5.0454482672e+00	-9.0545836192e-02
-5.3889727457e+00	-4.2660254038e+00	-7.7011523763e-02
-2.7925625842e+00	-7.9631397208e+00	-7.0313753031e-02
-3.2425625842e+00	-7.1837168574e+00	-7.3081288038e-02
-3.6925625842e+00	-6.4042939940e+00	-7.8004872352e-02
-4.1425625842e+00	-5.6248711306e+00	-8.5084505972e-02
-4.5925625842e+00	-4.8454482672e+00	-9.4320188898e-02
-5.0425625842e+00	-4.0660254038e+00	-1.0571192113e-01
-2.4461524227e+00	-7.7631397208e+00	-7.6952428495e-02
-2.8961524227e+00	-6.9837168574e+00	-6.3962269625e-02
-3.3461524227e+00	-6.2042939940e+00	-6.2621925601e-02
-3.7961524227e+00	-5.4248711306e+00	-7.2931396423e-02
-4.2461524227e+00	-4.6454482672e+00	-9.4890682090e-02
-4.6961524227e+00	-3.8660254038e+00	-1.2849978260e-01
-1.9615242271e-01	-1.1660254038e+01	-5.2769825015e-02
-6.4615242271e-01	-1.0880831174e+01	-4.3609338513e-02
-1.0961524227e+00	-1.0101408311e+01	-3.9281529686e-02
-1.5461524227e+00	-9.3219854476e+00	-3.9833485776e-02
-1.9961524227e+00	-8.5425625842e+00	-4.5312294022e-02
-2.4461524227e+00	-7.7631397208e+00	-5.9874521170e-02
-2.2947341950e-02	-1.1560254038e+01	-5.4179447032e-02
-4.7294734195e-01	-1.0780831174e+01	-4.4505456106e-02
-9.2294734195e-01	-1.0001408311e+01	-3.9689634053e-02
-1.3729473419e+00	-9.2219854476e+00	-3.9779068117e-02
-1.8229473419e+00	-8.4425625842e+00	-4.4820845538e-02
-2.2729473419e+00	-7.6631397208e+00	-5.9697277479e-02
 1.5025773881e-01	-1.1460254038e+01	-5.7480189338e-02
-2.9974226119e-01	-1.0680831174e+01	-4.6484700418e-02
-7.4974226119e-01	-9.9014083110e+00	-4.0372871570e-02
-1.1997422612e+00	-9.1219854476e+00	-3.9191790040e-02
-1.6497422612e+00	-8.3425625842e+00	-4.2988543066e-02
-2.0997422612e+00	-7.5631397208e+00	-5.7371066734e-02
 3.2346281956e-01	-1.1360254038e+01	-6.2672682008e-02
-1.2653718044e-01	-1.0580831174e+01	-4.9547701526e-02
-5.7653718044e-01	-9.8014083110e+00	-4.1331872315e-02
-1.0265371804e+00	-9.0219854476e+00	-3.8072281622e-02
-1.4765371804e+00	-8.2425625842e+00	-4.0485887727e-02
-1.9265371804e+00	-7.4631397208e+00	-5.2895888934e-02
 4.9666790032e-01	-1.1260254038e+01	-6.9757555120e-02
 4.6667900321e-02	-1.0480831174e+01	-5.3695089506e-02
-4.0333209968e-01	-9.7014083110e+00	-4.2567266364e-02
-8.5333209968e-01	-8.9219854476e+00	-3.6421172938e-02
-1.3033320997e+00	-8.1425625842e+00	-3.6710766671e-02
-1.7533320997e+00	-7.3631397208e+00	-4.6271744079e-02
 6.6987298108e-01	-1.1160254038e+01	-7.8735438750e-02
 2.1987298108e-01	-1.0380831174e+01	-5.8927494435e-02
-2.3012701892e-01	-9.6014083110e+00	-4.4079683792e-02
-6.8012701892e-01	-8.8219854476e+00	-3.4239094065e-02
-1.1301270189e+00	-8.0425625842e+00	-3.1594988355e-02
-1.5801270189e+00	-7.2631397208e+00	-3.7498632170e-02
-2.4461524227e+00	-7.7631397208e+00	-5.9874521170e-02
-2.8961524227e+00	-6.9837168574e+00	-4.4029804119e-02
-3.3461524227e+00	-6.2042939940e+00	-4.9878057036e-02
-3.7961524227e+00	-5.4248711306e+00	-7.7419279922e-02
-4.2461524227e+00	-4.6454482672e+00	-1.2665347278e-01
-4.6961524227e+00	-3.8660254038e+00	-1.9758063560e-01
-2.2729473419e+00	-7.6631397208e+00	-5.9697277479e-02
-2.7229473419e+00	-6.8837168574e+00	-3.3864820848e-02
-3.1729473419e+00	-6.1042939940e+00	-2.8074031430e-02
-3.6229473419e+00	-5.3248711306e+00	-4.2324909227e-02
-4.0729473419e+00	-4.5454482672e+00	-7.6617454238e-02
-4.5229473419e+00	-3.7660254038e+00	-1.3095166646e-01
-2.0997422612e+00	-7.5631397208e+00	-5.7371066734e-02
-2.5497422612e+00	-6.7837168574e+00	-2.5671709742e-02
-2.9997422612e+00	-6.0042939940e+00	-1.2362717210e-02
-3.4497422612e+00	-5.2248711306e+00	-1.7444089139e-02
-3.8997422612e+00	-4.4454482672e+00	-4.0915825528e-02
-4.3497422612e+00	-3.6660254038e+00	-8.2777926377e-02
-1.9265371804e+00	-7.4631397208e+00	-5.2895888934e-02
-2.3765371804e+00	-6.6837168574e+00	-1.9450470803e-02
-2.8265371804e+00	-5.9042939940e+00	-2.7441143775e-03
-3.2765371804e+00	-5.1248711306e+00	-2.7768196585e-03
-3.7265371804e+00	-4.3454482672e+00	-1.9548586646e-02
-4.1765371804e+00	-3.5660254038e+00	-5.3059415339e-02
-1.7533320997e+00	-7.3631397208e+00	-4.6271744079e-02
-2.2033320997e+00	-6.5837168574e+00	-1.5201104029e-02
-2.6533320997e+00	-5.8042939940e+00	 7.8177706869e-04
-3.1033320997e+00	-5.0248711306e+00	 1.6768992147e-03
-3.5533320997e+00	-4.2454482672e+00	-1.2515737591e-02
-4.0033320997e+00	-3.4660254038e+00	-4.1796133349e-02
-1.5801270189e+00	-7.2631397208e+00	-3.7498632170e-02
-2.0301270189e+00	-6.4837168574e+00	-1.2923609422e-02
-2.4801270189e+00	-5.7042939940e+00	-1.7850428719e-03
-2.9301270189e+00	-4.9248711306e+00	-4.0829325194e-03
-3.3801270189e+00	-4.1454482672e+00	-1.9817278365e-02
-3.8301270189e+00	-3.3660254038e+00	-4.8988080408e-02
 6.6987298108e-01	-1.1160254038e+01	-7.8735438750e-02
 2.1987298108e-01	-1.0380831174e+01	-5.6287791259e-02
-2.3012701892e-01	-9.6014083110e+00	-4.1007921292e-02
-6.8012701892e-01	-8.8219854476e+00	-3.2942916097e-02
-1.1301270189e+00	-8.0425625842e+00	-3.4282038772e-02
-1.5801270189e+00	-7.2631397208e+00	-4.6376554828e-02
 8.4307806183e-01	-1.1060254038e+01	-8.9943276701e-02
 3.9307806183e-01	-1.0280831174e+01	-6.6945699461e-02
-5.6921938165e-02	-9.5014083110e+00	-4.8686506089e-02
-5.0692193817e-01	-8.7219854476e+00	-3.5212783831e-02
-9.5692193817e-01	-7.9425625842e+00	-2.9446777867e-02
-1.4069219382e+00	-7.1631397208e+00	-3.1259653629e-02
 1.0162831426e+00	-1.0960254038e+01	-9.9785353000e-02
 5.6628314259e-01	-1.0180831174e+01	-7.6961896344e-02
 1.1628314259e-01	-9.4014083110e+00	-5.6447429898e-02
-3.3371685741e-01	-8.6219854476e+00	-3.8289040911e-02
-7.8371685741e-01	-7.8425625842e+00	-2.6139002985e-02
-1.2337168574e+00	-7.0631397208e+00	-1.8393972562e-02
 1.1894882233e+00	-1.0860254038e+01	-1.0826229772e-01
 7.3948822335e-01	-1.0080831174e+01	-8.6337011983e-02
 2.8948822335e-01	-9.3014083110e+00	-6.4291322797e-02
-1.6051177665e-01	-8.5219854476e+00	-4.2172317413e-02
-6.1051177665e-01	-7.7425625842e+00	-2.4358714128e-02
-1.0605117767e+00	-6.9631397208e+00	-7.7795116262e-03
 1.3626933041e+00	-1.0760254038e+01	-1.1537474094e-01
 9.1269330411e-01	-9.9808311744e+00	-9.5071676455e-02
 4.6269330411e-01	-9.2014083110e+00	-7.2218814862e-02
 1.2693304105e-02	-8.4219854476e+00	-4.6863243414e-02
-4.3730669589e-01	-7.6425625842e+00	-2.4105911295e-02
-8.8730669589e-01	-6.8631397208e+00	 5.8372917819e-04
 1.5358983849e+00	-1.0660254038e+01	-1.2112331274e-01
 1.0858983849e+00	-9.8808311744e+00	-1.0316651984e-01
 6.3589838486e-01	-9.1014083110e+00	-8.0230536169e-02
 1.8589838486e-01	-8.3219854476e+00	-5.2446250721e-02
-2.6410161514e-01	-7.5425625842e+00	-2.5380594486e-02
-7.1410161514e-01	-6.7631397208e+00	 6.6957498512e-03
-1.5801270189e+00	-7.2631397208e+00	-4.6376554828e-02
-2.0301270189e+00	-6.4837168574e+00	-2.1151438382e-02
-2.4801270189e+00	-5.7042939940e+00	 6.5267975954e-03
-2.9301270189e+00	-4.9248711306e+00	 3.6658153104e-02
-3.3801270189e+00	-4.1454482672e+00	 6.9242628144e-02
-3.8301270189e+00	-3.3660254038e+00	 1.0428022272e-01
-1.4069219382e+00	-7.1631397208e+00	-3.1259653629e-02
-1.8569219382e+00	-6.3837168574e+00	-1.3503339945e-02
-2.3069219382e+00	-5.6042939940e+00	 1.6107918560e-03
-2.7569219382e+00	-4.8248711306e+00	 1.4082741773e-02
-3.2069219382e+00	-4.0454482672e+00	 2.3912509806e-02
-3.6569219382e+00	-3.2660254038e+00	 3.1100095955e-02
-1.2337168574e+00	-7.0631397208e+00	-1.8393972562e-02
-1.6837168574e+00	-6.2837168574e+00	-5.5567576994e-03
-2.1337168574e+00	-5.5042939940e+00	-4.5702613580e-04
-2.5837168574e+00	-4.7248711306e+00	-3.0947778713e-03
-3.0337168574e+00	-3.9454482672e+00	-1.3470012906e-02
-3.4837168574e+00	-3.1660254038e+00	-3.1582731239e-02
-1.0605117767e+00	-6.9631397208e+00	-7.7795116262e-03
-1.5105117767e+00	-6.1837168574e+00	 2.6883083540e-03
-1.9605117767e+00	-5.4042939940e+00	 3.2334361998e-04
-2.4105117767e+00	-4.6248711306e+00	-1.4874405828e-02
-2.8605117767e+00	-3.8454482672e+00	-4.2904939991e-02
-3.3105117767e+00	-3.0660254038e+00	-8.3768258868e-02
-8.8730669589e-01	-6.8631397208e+00	 5.8372917819e-04
-1.3373066959e+00	-6.0837168574e+00	 1.1231858216e-02
-1.7873066959e+00	-5.3042939940e+00	 3.9519011234e-03
-2.2373066959e+00	-4.5248711306e+00	-2.1256142098e-02
-2.6873066959e+00	-3.7454482672e+00	-6.4392271449e-02
-3.1373066959e+00	-2.9660254038e+00	-1.2545648693e-01
-7.1410161514e-01	-6.7631397208e+00	 6.6957498512e-03
-1.1641016151e+00	-5.9837168574e+00	 2.0073891885e-02
-1.6141016151e+00	-5.2042939940e+00	 1.0428646374e-02
-2.0641016151e+00	-4.4248711306e+00	-2.2239986681e-02
-2.5141016151e+00	-3.6454482672e+00	-7.7932007281e-02
-2.9641016151e+00	-2.8660254038e+00	-1.5664741543e-01
 1.5358983849e+00	-1.0660254038e+01	-1.2112331274e-01
 1.0858983849e+00	-9.8808311744e+00	-1.0589573667e-01
 6.3589838486e-01	-9.1014083110e+00	-8.1251564568e-02
 1.8589838486e-01	-8.3219854476e+00	-4.7321685414e-02
-2.6410161514e-01	-7.5425625842e+00	-9.6730302006e-03
-7.1410161514e-01	-6.7631397208e+00	 3.7423718385e-02
 1.8823085464e+00	-1.0460254038e+01	-1.2814454373e-01
 1.4323085464e+00	-9.6808311744e+00	-1.1210164414e-01
 9.8230854638e-01	-8.9014083110e+00	-8.9206704681e-02
 5.3230854638e-01	-8.1219854476e+00	-6.1056647777e-02
 8.2308546376e-02	-7.3425625842e+00	-3.0238026098e-02
-3.6769145362e-01	-6.5631397208e+00	 7.4475717076e-03
 2.2287187079e+00	-1.0260254038e+01	-1.3611377883e-01
 1.7787187079e+00	-9.4808311744e+00	-1.1792053016e-01
 1.3287187079e+00	-8.7014083110e+00	-9.5439797753e-02
 8.7871870789e-01	-7.9219854476e+00	-7.1708865969e-02
 4.2871870789e-01	-7.1425625842e+00	-4.6383987341e-02
-2.1281292110e-02	-6.3631397208e+00	-1.6773249831e-02
 2.5751288694e+00	-1.0060254038e+01	-1.4503605866e-01
 2.1251288694e+00	-9.2808311744e+00	-1.2335743532e-01
 1.6751288694e+00	-8.5014083110e+00	-9.9955884393e-02
 1.2251288694e+00	-7.7219854476e+00	-7.9278339990e-02
 7.7512886940e-01	-6.9425625842e+00	-5.8110913929e-02
 3.2512886940e-01	-6.1631397208e+00	-3.5238746231e-02
 2.9215390309e+00	-9.8602540378e+00	-1.5491642384e-01
 2.4715390309e+00	-9.0808311744e+00	-1.2841740024e-01
 2.0215390309e+00	-8.3014083110e+00	-1.0298770942e-01
 1.5715390309e+00	-7.5219854476e+00	-8.3765069838e-02
 1.1215390309e+00	-6.7425625842e+00	-6.5418805861e-02
 6.7153903092e-01	-5.9631397208e+00	-4.7948917493e-02
 3.2679491924e+00	-9.6602540378e+00	-1.6575991498e-01
 2.8179491924e+00	-8.8808311744e+00	-1.3310546554e-01
 2.3679491924e+00	-8.1014083110e+00	-1.0548794074e-01
 1.9179491924e+00	-7.3219854476e+00	-8.5169055515e-02
 1.4679491924e+00	-6.5425625842e+00	-6.8307663139e-02
 1.0179491924e+00	-5.7631397208e+00	-5.4903763616e-02
-7.1410161514e-01	-6.7631397208e+00	 3.7423718385e-02
-1.1641016151e+00	-5.9837168574e+00	 5.8339171620e-02
-1.6141016151e+00	-5.2042939940e+00	 3.6827645947e-02
-2.0641016151e+00	-4.4248711306e+00	-2.7110858635e-02
-2.5141016151e+00	-3.6454482672e+00	-1.3347634213e-01
-2.9641016151e+00	-2.8660254038e+00	-2.8226880453e-01
-3.6769145362e-01	-6.5631397208e+00	 7.4475717076e-03
-8.1769145362e-01	-5.7837168574e+00	 2.6380666157e-02
-1.2676914536e+00	-5.0042939940e+00	-8.5267592398e-04
-1.7176914536e+00	-4.2248711306e+00	-7.4252454534e-02
-2.1676914536e+00	-3.4454482672e+00	-1.9381866967e-01
-2.6176914536e+00	-2.6660254038e+00	-3.5955132134e-01
-2.1281292110e-02	-6.3631397208e+00	-1.6773249831e-02
-4.7128129211e-01	-5.5837168574e+00	 1.7852087903e-03
-9.2128129211e-01	-4.8042939940e+00	-2.9562226738e-02
-1.3712812921e+00	-4.0248711306e+00	-1.1081555642e-01
-1.8212812921e+00	-3.2454482672e+00	-2.4197478025e-01
-2.2712812921e+00	-2.4660254038e+00	-4.2303989822e-01
 3.2512886940e-01	-6.1631397208e+00	-3.5238746231e-02
-1.2487113060e-01	-5.3837168574e+00	-1.5447200478e-02
-5.7487113060e-01	-4.6042939940e+00	-4.9301006496e-02
-1.0248711306e+00	-3.8248711306e+00	-1.3680016428e-01
-1.4748711306e+00	-3.0454482672e+00	-2.7794467384e-01
-1.9248711306e+00	-2.2660254038e+00	-4.7273453517e-01
 6.7153903092e-01	-5.9631397208e+00	-4.7948917493e-02
 2.2153903092e-01	-5.1837168574e+00	-2.5316561649e-02
-2.2846096908e-01	-4.4042939940e+00	-6.0069015197e-02
-6.7846096908e-01	-3.6248711306e+00	-1.5220627814e-01
-1.1284609691e+00	-2.8454482672e+00	-3.0172835047e-01
-1.5784609691e+00	-2.0660254038e+00	-5.0863523219e-01
 1.0179491924e+00	-5.7631397208e+00	-5.4903763616e-02
 5.6794919243e-01	-4.9837168574e+00	-2.7822874722e-02
 1.1794919243e-01	-4.2042939940e+00	-6.1866252840e-02
-3.3205080757e-01	-3.4248711306e+00	-1.5703389797e-01
-7.8205080757e-01	-2.6454482672e+00	-3.1332581011e-01
-1.2320508076e+00	-1.8660254038e+00	-5.3074198927e-01
 3.2679491924e+00	-9.6602540378e+00	-1.6575991498e-01
 2.8179491924e+00	-8.8808311744e+00	-1.3310546554e-01
 2.3679491924e+00	-8.1014083110e+00	-1.0548794074e-01
 1.9179491924e+00	-7.3219854476e+00	-8.5169055515e-02
 1.4679491924e+00	-6.5425625842e+00	-6.8307663139e-02
 1.0179491924e+00	-5.7631397208e+00	-5.4903763616e-02
 3.6143593539e+00	-9.4602540378e+00	-1.7641483624e-01
 3.1643593539e+00	-8.6808311744e+00	-1.4407727074e-01
 2.7143593539e+00	-7.9014083110e+00	-1.1988653376e-01
 2.2643593539e+00	-7.1219854476e+00	-1.0331620999e-01
 1.8143593539e+00	-6.3425625842e+00	-9.1971377419e-02
 1.3643593539e+00	-5.5631397208e+00	-8.5852036063e-02
 3.9607695155e+00	-9.2602540378e+00	-1.8572949181e-01
 3.5107695155e+00	-8.4808311744e+00	-1.5273038928e-01
 3.0607695155e+00	-7.7014083110e+00	-1.3093840946e-01
 2.6107695155e+00	-6.9219854476e+00	-1.1713696126e-01
 2.1607695155e+00	-6.1425625842e+00	-1.1032900264e-01
 1.7107695155e+00	-5.3631397208e+00	-1.1051453358e-01
 4.3071796770e+00	-9.0602540378e+00	-1.9370892230e-01
 3.8571796770e+00	-8.2808311744e+00	-1.5941731423e-01
 3.4071796770e+00	-7.5014083110e+00	-1.3864356782e-01
 2.9571796770e+00	-6.7219854476e+00	-1.2663130934e-01
 2.5071796770e+00	-5.9425625842e+00	-1.2338053879e-01
 2.0571796770e+00	-5.1631397208e+00	-1.2889125616e-01
 4.6535898385e+00	-8.8602540378e+00	-2.0035816831e-01
 4.2035898385e+00	-8.0808311744e+00	-1.6473424978e-01
 3.7535898385e+00	-7.3014083110e+00	-1.4300200886e-01
 3.3035898385e+00	-6.5219854476e+00	-1.3179925423e-01
 2.8535898385e+00	-5.7425625842e+00	-1.3112598588e-01
 2.4035898385e+00	-4.9631397208e+00	-1.4098220382e-01
 5.0000000000e+00	-8.6602540378e+00	-2.0568227046e-01
 4.5500000000e+00	-7.8808311744e+00	-1.6768415387e-01
 4.1000000000e+00	-7.1014083110e+00	-1.4401373257e-01
 3.6500000000e+00	-6.3219854476e+00	-1.3264079592e-01
 3.2000000000e+00	-5.5425625842e+00	-1.3356534391e-01
 2.7500000000e+00	-4.7631397208e+00	-1.4678737654e-01
 1.0179491924e+00	-5.7631397208e+00	-5.4903763616e-02
 5.6794919243e-01	-4.9837168574e+00	-2.7822874722e-02
 1.1794919243e-01	-4.2042939940e+00	-6.1866252840e-02
-3.3205080757e-01	-3.4248711306e+00	-1.5703389797e-01
-7.8205080757e-01	-2.6454482672e+00	-3.1332581011e-01
-1.2320508076e+00	-1.8660254038e+00	-5.3074198927e-01
 1.3643593539e+00	-5.5631397208e+00	-8.5852036063e-02
 9.1435935394e-01	-4.7837168574e+00	-5.3948206863e-02
 4.6435935394e-01	-4.0042939940e+00	-7.7592531611e-02
 1.4359353945e-02	-3.2248711306e+00	-1.5678501031e-01
-4.3564064606e-01	-2.4454482672e+00	-2.9152564296e-01
-8.8564064606e-01	-1.6660254038e+00	-4.8181442955e-01
 1.7107695155e+00	-5.3631397208e+00	-1.1051453358e-01
 1.2607695155e+00	-4.5837168574e+00	-7.6022247095e-02
 8.1076951546e-01	-3.8042939940e+00	-9.1502001499e-02
 3.6076951546e-01	-3.0248711306e+00	-1.5695379679e-01
-8.9230484541e-02	-2.2454482672e+00	-2.7237763296e-01
-5.3923048454e-01	-1.4660254038e+00	-4.3777351003e-01
 2.0571796770e+00	-5.1631397208e+00	-1.2889125616e-01
 1.6071796770e+00	-4.3837168574e+00	-9.4044995420e-02
 1.1571796770e+00	-3.6042939940e+00	-1.0359466250e-01
 7.0717967697e-01	-2.8248711306e+00	-1.5754025741e-01
 2.5717967697e-01	-2.0454482672e+00	-2.5588178014e-01
-1.9282032303e-01	-1.2660254038e+00	-3.9861923069e-01
 2.4035898385e+00	-4.9631397208e+00	-1.4098220382e-01
 1.9535898385e+00	-4.1837168574e+00	-1.0801645184e-01
 1.5035898385e+00	-3.4042939940e+00	-1.1387051462e-01
 1.0535898385e+00	-2.6248711306e+00	-1.5854439216e-01
 6.0358983849e-01	-1.8454482672e+00	-2.4203808447e-01
 1.5358983849e-01	-1.0660254038e+00	-3.6435159154e-01
 2.7500000000e+00	-4.7631397208e+00	-1.4678737654e-01
 2.3000000000e+00	-3.9837168574e+00	-1.1793661635e-01
 1.8500000000e+00	-3.2042939940e+00	-1.2232955786e-01
 1.4000000000e+00	-2.4248711306e+00	-1.5996620106e-01
 9.5000000000e-01	-1.6454482672e+00	-2.3084654597e-01
 5.0000000000e-01	-8.6602540378e-01	-3.3497059257e-01
-2.9641016151e+00	-2.8660254038e+00	-5.2994342491e-01
-3.0641016151e+00	-2.6928203230e+00	-6.1698027504e-01
-3.1641016151e+00	-2.5196152423e+00	-7.1782192023e-01
-3.2641016151e+00	-2.3464101615e+00	-8.3246836048e-01
-3.3641016151e+00	-2.1732050808e+00	-9.6091959580e-01
-3.4641016151e+00	-2.0000000000e+00	-1.1031756262e+00
-2.6176914536e+00	-2.6660254038e+00	-4.9443221719e-01
-2.7176914536e+00	-2.4928203230e+00	-5.6719167843e-01
-2.8176914536e+00	-2.3196152423e+00	-6.5015321368e-01
-2.9176914536e+00	-2.1464101615e+00	-7.4331682293e-01
-3.0176914536e+00	-1.9732050808e+00	-8.4668250619e-01
-3.1176914536e+00	-1.8000000000e+00	-9.6025026344e-01
-2.2712812921e+00	-2.4660254038e+00	-4.6838066665e-01
-2.3712812921e+00	-2.2928203230e+00	-5.2793687435e-01
-2.4712812921e+00	-2.1196152423e+00	-5.9409243500e-01
-2.5712812921e+00	-1.9464101615e+00	-6.6684734859e-01
-2.6712812921e+00	-1.7732050808e+00	-7.4620161512e-01
-2.7712812921e+00	-1.6000000000e+00	-8.3215523460e-01
-1.9248711306e+00	-2.2660254038e+00	-4.5178877329e-01
-2.0248711306e+00	-2.0928203230e+00	-4.9921586279e-01
-2.1248711306e+00	-1.9196152423e+00	-5.4963958418e-01
-2.2248711306e+00	-1.7464101615e+00	-6.0305993745e-01
-2.3248711306e+00	-1.5732050808e+00	-6.5947692260e-01
-2.4248711306e+00	-1.4000000000e+00	-7.1889053964e-01
-1.5784609691e+00	-2.0660254038e+00	-4.4465653710e-01
-1.6784609691e+00	-1.8928203230e+00	-4.8102864375e-01
-1.7784609691e+00	-1.7196152423e+00	-5.1679466121e-01
-1.8784609691e+00	-1.5464101615e+00	-5.5195458951e-01
-1.9784609691e+00	-1.3732050808e+00	-5.8650842863e-01
-2.0784609691e+00	-1.2000000000e+00	-6.2045617857e-01
-1.2320508076e+00	-1.8660254038e+00	-4.4698395810e-01
-1.3320508076e+00	-1.6928203230e+00	-4.7337521722e-01
-1.4320508076e+00	-1.5196152423e+00	-4.9555766611e-01
-1.5320508076e+00	-1.3464101615e+00	-5.1353130477e-01
-1.6320508076e+00	-1.1732050808e+00	-5.2729613319e-01
-1.7320508076e+00	-1.0000000000e+00	-5.3685215138e-01
-1.2320508076e+00	-1.8660254038e+00	-4.4698395810e-01
-1.3320508076e+00	-1.6928203230e+00	-4.7337521722e-01
-1.4320508076e+00	-1.5196152423e+00	-4.9555766611e-01
-1.5320508076e+00	-1.3464101615e+00	-5.1353130477e-01
-1.6320508076e+00	-1.1732050808e+00	-5.2729613319e-01
-1.7320508076e+00	-1.0000000000e+00	-5.3685215138e-01
-8.8564064606e-01	-1.6660254038e+00	-3.9122495541e-01
-9.8564064606e-01	-1.4928203230e+00	-4.1442457076e-01
-1.0856406461e+00	-1.3196152423e+00	-4.3476347845e-01
-1.1856406461e+00	-1.1464101615e+00	-4.5224167848e-01
-1.2856406461e+00	-9.7320508076e-01	-4.6685917084e-01
-1.3856406461e+00	-8.0000000000e-01	-4.7861595554e-01
-5.3923048454e-01	-1.4660254038e+00	-3.4299478201e-01
-6.3923048454e-01	-1.2928203230e+00	-3.6173390528e-01
-7.3923048454e-01	-1.1196152423e+00	-3.7896042345e-01
-8.3923048454e-01	-9.4641016151e-01	-3.9467433652e-01
-9.3923048454e-01	-7.7320508076e-01	-4.0887564450e-01
-1.0392304845e+00	-6.0000000000e-01	-4.2156434739e-01
-1.9282032303e-01	-1.2660254038e+00	-3.0229343792e-01
-2.9282032303e-01	-1.0928203230e+00	-3.1530322077e-01
-3.9282032303e-01	-9.1961524227e-01	-3.2814850109e-01
-4.9282032303e-01	-7.4641016151e-01	-3.4082927889e-01
-5.9282032303e-01	-5.7320508076e-01	-3.5334555417e-01
-6.9282032303e-01	-4.0000000000e-01	-3.6569732692e-01
 1.5358983849e-01	-1.0660254038e+00	-2.6912092311e-01
 5.3589838486e-02	-8.9282032303e-01	-2.7513251723e-01
-4.6410161514e-02	-7.1961524227e-01	-2.8232771139e-01
-1.4641016151e-01	-5.4641016151e-01	-2.9070650560e-01
-2.4641016151e-01	-3.7320508076e-01	-3.0026889985e-01
-3.4641016151e-01	-2.0000000000e-01	-3.1101489414e-01
 5.0000000000e-01	-8.6602540378e-01	-2.4347723760e-01
 4.0000000000e-01	-6.9282032303e-01	-2.4122179466e-01
 3.0000000000e-01	-5.1961524227e-01	-2.4149805434e-01
 2.0000000000e-01	-3.4641016151e-01	-2.4430601663e-01
 1.0000000000e-01	-1.7320508076e-01	-2.4964568154e-01
 0.0000000000e+00	 0.0000000000e+00	-2.5751704906e-01
