x	y	stress_yy
 0.000000e+00	 0.000000e+00	-9.805812e-02
 0.000000e+00	 0.000000e+00	-8.762769e-02
 0.000000e+00	 0.000000e+00	-8.762769e-02
 0.000000e+00	 0.000000e+00	-9.805812e-02
