patch_n	x	y	stress_yy
22	 0.000000e+00	 0.000000e+00	-1.261932e+00
23	 0.000000e+00	 0.000000e+00	-1.251501e+00
29	 0.000000e+00	 0.000000e+00	-1.251501e+00
40	 0.000000e+00	 0.000000e+00	-1.261932e+00
