patch_n	x	y	stress_yy
0	-1.250000e+02	-1.250000e+02	 1.000021e+00
0	-1.250000e+02	-1.216667e+02	 1.000004e+00
0	-1.250000e+02	-1.183333e+02	 9.999878e-01
0	-1.250000e+02	-1.150000e+02	 9.999729e-01
0	-1.250000e+02	-1.116667e+02	 9.999590e-01
0	-1.250000e+02	-1.083333e+02	 9.999460e-01
0	-1.216667e+02	-1.250000e+02	 1.000017e+00
0	-1.216667e+02	-1.216667e+02	 9.999993e-01
0	-1.216667e+02	-1.183333e+02	 9.999829e-01
0	-1.216667e+02	-1.150000e+02	 9.999675e-01
0	-1.216667e+02	-1.116667e+02	 9.999532e-01
0	-1.216667e+02	-1.083333e+02	 9.999400e-01
0	-1.183333e+02	-1.250000e+02	 1.000013e+00
0	-1.183333e+02	-1.216667e+02	 9.999965e-01
0	-1.183333e+02	-1.183333e+02	 9.999810e-01
0	-1.183333e+02	-1.150000e+02	 9.999666e-01
0	-1.183333e+02	-1.116667e+02	 9.999534e-01
0	-1.183333e+02	-1.083333e+02	 9.999412e-01
0	-1.150000e+02	-1.250000e+02	 1.000010e+00
0	-1.150000e+02	-1.216667e+02	 9.999953e-01
0	-1.150000e+02	-1.183333e+02	 9.999822e-01
0	-1.150000e+02	-1.150000e+02	 9.999702e-01
0	-1.150000e+02	-1.116667e+02	 9.999593e-01
0	-1.150000e+02	-1.083333e+02	 9.999496e-01
0	-1.116667e+02	-1.250000e+02	 1.000006e+00
0	-1.116667e+02	-1.216667e+02	 9.999959e-01
0	-1.116667e+02	-1.183333e+02	 9.999864e-01
0	-1.116667e+02	-1.150000e+02	 9.999782e-01
0	-1.116667e+02	-1.116667e+02	 9.999711e-01
0	-1.116667e+02	-1.083333e+02	 9.999653e-01
0	-1.083333e+02	-1.250000e+02	 1.000004e+00
0	-1.083333e+02	-1.216667e+02	 9.999981e-01
0	-1.083333e+02	-1.183333e+02	 9.999938e-01
0	-1.083333e+02	-1.150000e+02	 9.999907e-01
0	-1.083333e+02	-1.116667e+02	 9.999888e-01
0	-1.083333e+02	-1.083333e+02	 9.999882e-01
0	-1.250000e+02	-1.083333e+02	 9.999460e-01
0	-1.250000e+02	-1.050000e+02	 9.999031e-01
0	-1.250000e+02	-1.016667e+02	 9.998615e-01
0	-1.250000e+02	-9.833333e+01	 9.998212e-01
0	-1.250000e+02	-9.500000e+01	 9.997822e-01
0	-1.250000e+02	-9.166667e+01	 9.997445e-01
0	-1.216667e+02	-1.083333e+02	 9.999400e-01
0	-1.216667e+02	-1.050000e+02	 9.999090e-01
0	-1.216667e+02	-1.016667e+02	 9.998785e-01
0	-1.216667e+02	-9.833333e+01	 9.998486e-01
0	-1.216667e+02	-9.500000e+01	 9.998192e-01
0	-1.216667e+02	-9.166667e+01	 9.997903e-01
0	-1.183333e+02	-1.083333e+02	 9.999412e-01
0	-1.183333e+02	-1.050000e+02	 9.999209e-01
0	-1.183333e+02	-1.016667e+02	 9.999003e-01
0	-1.183333e+02	-9.833333e+01	 9.998796e-01
0	-1.183333e+02	-9.500000e+01	 9.998585e-01
0	-1.183333e+02	-9.166667e+01	 9.998373e-01
0	-1.150000e+02	-1.083333e+02	 9.999496e-01
0	-1.150000e+02	-1.050000e+02	 9.999388e-01
0	-1.150000e+02	-1.016667e+02	 9.999269e-01
0	-1.150000e+02	-9.833333e+01	 9.999141e-01
0	-1.150000e+02	-9.500000e+01	 9.999002e-01
0	-1.150000e+02	-9.166667e+01	 9.998854e-01
0	-1.116667e+02	-1.083333e+02	 9.999653e-01
0	-1.116667e+02	-1.050000e+02	 9.999627e-01
0	-1.116667e+02	-1.016667e+02	 9.999584e-01
0	-1.116667e+02	-9.833333e+01	 9.999522e-01
0	-1.116667e+02	-9.500000e+01	 9.999443e-01
0	-1.116667e+02	-9.166667e+01	 9.999346e-01
0	-1.083333e+02	-1.083333e+02	 9.999882e-01
0	-1.083333e+02	-1.050000e+02	 9.999927e-01
0	-1.083333e+02	-1.016667e+02	 9.999946e-01
0	-1.083333e+02	-9.833333e+01	 9.999940e-01
0	-1.083333e+02	-9.500000e+01	 9.999908e-01
0	-1.083333e+02	-9.166667e+01	 9.999850e-01
0	-1.250000e+02	-9.166667e+01	 9.997445e-01
0	-1.250000e+02	-8.833334e+01	 9.996982e-01
0	-1.250000e+02	-8.500000e+01	 9.996520e-01
0	-1.250000e+02	-8.166667e+01	 9.996059e-01
0	-1.250000e+02	-7.833333e+01	 9.995599e-01
0	-1.250000e+02	-7.500000e+01	 9.995140e-01
0	-1.216667e+02	-9.166667e+01	 9.997903e-01
0	-1.216667e+02	-8.833334e+01	 9.997492e-01
0	-1.216667e+02	-8.500000e+01	 9.997085e-01
0	-1.216667e+02	-8.166667e+01	 9.996683e-01
0	-1.216667e+02	-7.833333e+01	 9.996284e-01
0	-1.216667e+02	-7.500000e+01	 9.995890e-01
0	-1.183333e+02	-9.166667e+01	 9.998373e-01
0	-1.183333e+02	-8.833334e+01	 9.998034e-01
0	-1.183333e+02	-8.500000e+01	 9.997702e-01
0	-1.183333e+02	-8.166667e+01	 9.997378e-01
0	-1.183333e+02	-7.833333e+01	 9.997061e-01
0	-1.183333e+02	-7.500000e+01	 9.996752e-01
0	-1.150000e+02	-9.166667e+01	 9.998854e-01
0	-1.150000e+02	-8.833334e+01	 9.998607e-01
0	-1.150000e+02	-8.500000e+01	 9.998371e-01
0	-1.150000e+02	-8.166667e+01	 9.998145e-01
0	-1.150000e+02	-7.833333e+01	 9.997930e-01
0	-1.150000e+02	-7.500000e+01	 9.997725e-01
0	-1.116667e+02	-9.166667e+01	 9.999346e-01
0	-1.116667e+02	-8.833334e+01	 9.999211e-01
0	-1.116667e+02	-8.500000e+01	 9.999091e-01
0	-1.116667e+02	-8.166667e+01	 9.998983e-01
0	-1.116667e+02	-7.833333e+01	 9.998890e-01
0	-1.116667e+02	-7.500000e+01	 9.998810e-01
0	-1.083333e+02	-9.166667e+01	 9.999850e-01
0	-1.083333e+02	-8.833334e+01	 9.999848e-01
0	-1.083333e+02	-8.500000e+01	 9.999862e-01
0	-1.083333e+02	-8.166667e+01	 9.999893e-01
0	-1.083333e+02	-7.833333e+01	 9.999942e-01
0	-1.083333e+02	-7.500000e+01	 1.000001e+00
0	-1.250000e+02	-7.500000e+01	 9.995140e-01
0	-1.250000e+02	-7.166667e+01	 9.994429e-01
0	-1.250000e+02	-6.833333e+01	 9.993723e-01
0	-1.250000e+02	-6.500000e+01	 9.993021e-01
0	-1.250000e+02	-6.166666e+01	 9.992324e-01
0	-1.250000e+02	-5.833333e+01	 9.991632e-01
0	-1.216667e+02	-7.500000e+01	 9.995890e-01
0	-1.216667e+02	-7.166667e+01	 9.995328e-01
0	-1.216667e+02	-6.833333e+01	 9.994771e-01
0	-1.216667e+02	-6.500000e+01	 9.994220e-01
0	-1.216667e+02	-6.166666e+01	 9.993676e-01
0	-1.216667e+02	-5.833333e+01	 9.993137e-01
0	-1.183333e+02	-7.500000e+01	 9.996752e-01
0	-1.183333e+02	-7.166667e+01	 9.996317e-01
0	-1.183333e+02	-6.833333e+01	 9.995888e-01
0	-1.183333e+02	-6.500000e+01	 9.995468e-01
0	-1.183333e+02	-6.166666e+01	 9.995054e-01
0	-1.183333e+02	-5.833333e+01	 9.994648e-01
0	-1.150000e+02	-7.500000e+01	 9.997725e-01
0	-1.150000e+02	-7.166667e+01	 9.997396e-01
0	-1.150000e+02	-6.833333e+01	 9.997076e-01
0	-1.150000e+02	-6.500000e+01	 9.996764e-01
0	-1.150000e+02	-6.166666e+01	 9.996461e-01
0	-1.150000e+02	-5.833333e+01	 9.996166e-01
0	-1.116667e+02	-7.500000e+01	 9.998810e-01
0	-1.116667e+02	-7.166667e+01	 9.998566e-01
0	-1.116667e+02	-6.833333e+01	 9.998332e-01
0	-1.116667e+02	-6.500000e+01	 9.998108e-01
0	-1.116667e+02	-6.166666e+01	 9.997894e-01
0	-1.116667e+02	-5.833333e+01	 9.997690e-01
0	-1.083333e+02	-7.500000e+01	 1.000001e+00
0	-1.083333e+02	-7.166667e+01	 9.999827e-01
0	-1.083333e+02	-6.833333e+01	 9.999659e-01
0	-1.083333e+02	-6.500000e+01	 9.999502e-01
0	-1.083333e+02	-6.166666e+01	 9.999356e-01
0	-1.083333e+02	-5.833333e+01	 9.999221e-01
0	-1.250000e+02	-5.833333e+01	 9.991632e-01
0	-1.250000e+02	-5.500000e+01	 9.990767e-01
0	-1.250000e+02	-5.166667e+01	 9.989907e-01
0	-1.250000e+02	-4.833333e+01	 9.989053e-01
0	-1.250000e+02	-4.500000e+01	 9.988204e-01
0	-1.250000e+02	-4.166667e+01	 9.987361e-01
0	-1.216667e+02	-5.833333e+01	 9.993137e-01
0	-1.216667e+02	-5.500000e+01	 9.992468e-01
0	-1.216667e+02	-5.166667e+01	 9.991804e-01
0	-1.216667e+02	-4.833333e+01	 9.991145e-01
0	-1.216667e+02	-4.500000e+01	 9.990492e-01
0	-1.216667e+02	-4.166667e+01	 9.989843e-01
0	-1.183333e+02	-5.833333e+01	 9.994648e-01
0	-1.183333e+02	-5.500000e+01	 9.994142e-01
0	-1.183333e+02	-5.166667e+01	 9.993641e-01
0	-1.183333e+02	-4.833333e+01	 9.993144e-01
0	-1.183333e+02	-4.500000e+01	 9.992651e-01
0	-1.183333e+02	-4.166667e+01	 9.992163e-01
0	-1.150000e+02	-5.833333e+01	 9.996166e-01
0	-1.150000e+02	-5.500000e+01	 9.995789e-01
0	-1.150000e+02	-5.166667e+01	 9.995416e-01
0	-1.150000e+02	-4.833333e+01	 9.995048e-01
0	-1.150000e+02	-4.500000e+01	 9.994683e-01
0	-1.150000e+02	-4.166667e+01	 9.994322e-01
0	-1.116667e+02	-5.833333e+01	 9.997690e-01
0	-1.116667e+02	-5.500000e+01	 9.997409e-01
0	-1.116667e+02	-5.166667e+01	 9.997131e-01
0	-1.116667e+02	-4.833333e+01	 9.996857e-01
0	-1.116667e+02	-4.500000e+01	 9.996587e-01
0	-1.116667e+02	-4.166667e+01	 9.996319e-01
0	-1.083333e+02	-5.833333e+01	 9.999221e-01
0	-1.083333e+02	-5.500000e+01	 9.999002e-01
0	-1.083333e+02	-5.166667e+01	 9.998786e-01
0	-1.083333e+02	-4.833333e+01	 9.998573e-01
0	-1.083333e+02	-4.500000e+01	 9.998362e-01
0	-1.083333e+02	-4.166667e+01	 9.998155e-01
0	-1.250000e+02	-4.166667e+01	 9.987361e-01
0	-1.250000e+02	-3.833334e+01	 9.986895e-01
0	-1.250000e+02	-3.500000e+01	 9.986390e-01
0	-1.250000e+02	-3.166667e+01	 9.985846e-01
0	-1.250000e+02	-2.833333e+01	 9.985264e-01
0	-1.250000e+02	-2.500000e+01	 9.984643e-01
0	-1.216667e+02	-4.166667e+01	 9.989843e-01
0	-1.216667e+02	-3.833334e+01	 9.989468e-01
0	-1.216667e+02	-3.500000e+01	 9.989065e-01
0	-1.216667e+02	-3.166667e+01	 9.988633e-01
0	-1.216667e+02	-2.833333e+01	 9.988171e-01
0	-1.216667e+02	-2.500000e+01	 9.987681e-01
0	-1.183333e+02	-4.166667e+01	 9.992163e-01
0	-1.183333e+02	-3.833334e+01	 9.991869e-01
0	-1.183333e+02	-3.500000e+01	 9.991557e-01
0	-1.183333e+02	-3.166667e+01	 9.991224e-01
0	-1.183333e+02	-2.833333e+01	 9.990873e-01
0	-1.183333e+02	-2.500000e+01	 9.990503e-01
0	-1.150000e+02	-4.166667e+01	 9.994322e-01
0	-1.150000e+02	-3.833334e+01	 9.994098e-01
0	-1.150000e+02	-3.500000e+01	 9.993865e-01
0	-1.150000e+02	-3.166667e+01	 9.993622e-01
0	-1.150000e+02	-2.833333e+01	 9.993369e-01
0	-1.150000e+02	-2.500000e+01	 9.993108e-01
0	-1.116667e+02	-4.166667e+01	 9.996319e-01
0	-1.116667e+02	-3.833334e+01	 9.996154e-01
0	-1.116667e+02	-3.500000e+01	 9.995989e-01
0	-1.116667e+02	-3.166667e+01	 9.995824e-01
0	-1.116667e+02	-2.833333e+01	 9.995660e-01
0	-1.116667e+02	-2.500000e+01	 9.995496e-01
0	-1.083333e+02	-4.166667e+01	 9.998155e-01
0	-1.083333e+02	-3.833334e+01	 9.998038e-01
0	-1.083333e+02	-3.500000e+01	 9.997930e-01
0	-1.083333e+02	-3.166667e+01	 9.997832e-01
0	-1.083333e+02	-2.833333e+01	 9.997745e-01
0	-1.083333e+02	-2.500000e+01	 9.997668e-01
0	-1.250000e+02	-2.500000e+01	 9.984643e-01
0	-1.250000e+02	-2.166667e+01	 9.984901e-01
0	-1.250000e+02	-1.833333e+01	 9.985141e-01
0	-1.250000e+02	-1.500000e+01	 9.985365e-01
0	-1.250000e+02	-1.166666e+01	 9.985571e-01
0	-1.250000e+02	-8.333327e+00	 9.985759e-01
0	-1.216667e+02	-2.500000e+01	 9.987681e-01
0	-1.216667e+02	-2.166667e+01	 9.988018e-01
0	-1.216667e+02	-1.833333e+01	 9.988326e-01
0	-1.216667e+02	-1.500000e+01	 9.988604e-01
0	-1.216667e+02	-1.166666e+01	 9.988852e-01
0	-1.216667e+02	-8.333327e+00	 9.989071e-01
0	-1.183333e+02	-2.500000e+01	 9.990503e-01
0	-1.183333e+02	-2.166667e+01	 9.990884e-01
0	-1.183333e+02	-1.833333e+01	 9.991223e-01
0	-1.183333e+02	-1.500000e+01	 9.991521e-01
0	-1.183333e+02	-1.166666e+01	 9.991776e-01
0	-1.183333e+02	-8.333327e+00	 9.991990e-01
0	-1.150000e+02	-2.500000e+01	 9.993108e-01
0	-1.150000e+02	-2.166667e+01	 9.993497e-01
0	-1.150000e+02	-1.833333e+01	 9.993833e-01
0	-1.150000e+02	-1.500000e+01	 9.994115e-01
0	-1.150000e+02	-1.166666e+01	 9.994342e-01
0	-1.150000e+02	-8.333327e+00	 9.994515e-01
0	-1.116667e+02	-2.500000e+01	 9.995496e-01
0	-1.116667e+02	-2.166667e+01	 9.995859e-01
0	-1.116667e+02	-1.833333e+01	 9.996156e-01
0	-1.116667e+02	-1.500000e+01	 9.996386e-01
0	-1.116667e+02	-1.166666e+01	 9.996550e-01
0	-1.116667e+02	-8.333327e+00	 9.996647e-01
0	-1.083333e+02	-2.500000e+01	 9.997668e-01
0	-1.083333e+02	-2.166667e+01	 9.997969e-01
0	-1.083333e+02	-1.833333e+01	 9.998191e-01
0	-1.083333e+02	-1.500000e+01	 9.998335e-01
0	-1.083333e+02	-1.166666e+01	 9.998400e-01
0	-1.083333e+02	-8.333327e+00	 9.998386e-01
0	-1.250000e+02	-8.333327e+00	 9.985759e-01
0	-1.250000e+02	-4.999996e+00	 9.987122e-01
0	-1.250000e+02	-1.666665e+00	 9.988442e-01
0	-1.250000e+02	 1.666665e+00	 9.989717e-01
0	-1.250000e+02	 4.999996e+00	 9.990949e-01
0	-1.250000e+02	 8.333327e+00	 9.992137e-01
0	-1.216667e+02	-8.333327e+00	 9.989071e-01
0	-1.216667e+02	-4.999996e+00	 9.990199e-01
0	-1.216667e+02	-1.666665e+00	 9.991290e-01
0	-1.216667e+02	 1.666665e+00	 9.992345e-01
0	-1.216667e+02	 4.999996e+00	 9.993364e-01
0	-1.216667e+02	 8.333327e+00	 9.994346e-01
0	-1.183333e+02	-8.333327e+00	 9.991990e-01
0	-1.183333e+02	-4.999996e+00	 9.992934e-01
0	-1.183333e+02	-1.666665e+00	 9.993850e-01
0	-1.183333e+02	 1.666665e+00	 9.994737e-01
0	-1.183333e+02	 4.999996e+00	 9.995595e-01
0	-1.183333e+02	 8.333327e+00	 9.996424e-01
0	-1.150000e+02	-8.333327e+00	 9.994515e-01
0	-1.150000e+02	-4.999996e+00	 9.995329e-01
0	-1.150000e+02	-1.666665e+00	 9.996121e-01
0	-1.150000e+02	 1.666665e+00	 9.996893e-01
0	-1.150000e+02	 4.999996e+00	 9.997643e-01
0	-1.150000e+02	 8.333327e+00	 9.998372e-01
0	-1.116667e+02	-8.333327e+00	 9.996647e-01
0	-1.116667e+02	-4.999996e+00	 9.997383e-01
0	-1.116667e+02	-1.666665e+00	 9.998105e-01
0	-1.116667e+02	 1.666665e+00	 9.998813e-01
0	-1.116667e+02	 4.999996e+00	 9.999508e-01
0	-1.116667e+02	 8.333327e+00	 1.000019e+00
0	-1.083333e+02	-8.333327e+00	 9.998386e-01
0	-1.083333e+02	-4.999996e+00	 9.999096e-01
0	-1.083333e+02	-1.666665e+00	 9.999800e-01
0	-1.083333e+02	 1.666665e+00	 1.000050e+00
0	-1.083333e+02	 4.999996e+00	 1.000119e+00
0	-1.083333e+02	 8.333327e+00	 1.000188e+00
0	-1.250000e+02	 8.333327e+00	 9.992137e-01
0	-1.250000e+02	 1.166666e+01	 9.993850e-01
0	-1.250000e+02	 1.500000e+01	 9.995564e-01
0	-1.250000e+02	 1.833333e+01	 9.997279e-01
0	-1.250000e+02	 2.166667e+01	 9.998994e-01
0	-1.250000e+02	 2.500000e+01	 1.000071e+00
0	-1.216667e+02	 8.333327e+00	 9.994346e-01
0	-1.216667e+02	 1.166666e+01	 9.995774e-01
0	-1.216667e+02	 1.500000e+01	 9.997202e-01
0	-1.216667e+02	 1.833333e+01	 9.998631e-01
0	-1.216667e+02	 2.166667e+01	 1.000006e+00
0	-1.216667e+02	 2.500000e+01	 1.000149e+00
0	-1.183333e+02	 8.333327e+00	 9.996424e-01
0	-1.183333e+02	 1.166666e+01	 9.997623e-01
0	-1.183333e+02	 1.500000e+01	 9.998821e-01
0	-1.183333e+02	 1.833333e+01	 1.000002e+00
0	-1.183333e+02	 2.166667e+01	 1.000122e+00
0	-1.183333e+02	 2.500000e+01	 1.000242e+00
0	-1.150000e+02	 8.333327e+00	 9.998372e-01
0	-1.150000e+02	 1.166666e+01	 9.999396e-01
0	-1.150000e+02	 1.500000e+01	 1.000042e+00
0	-1.150000e+02	 1.833333e+01	 1.000145e+00
0	-1.150000e+02	 2.166667e+01	 1.000247e+00
0	-1.150000e+02	 2.500000e+01	 1.000350e+00
0	-1.116667e+02	 8.333327e+00	 1.000019e+00
0	-1.116667e+02	 1.166666e+01	 1.000110e+00
0	-1.116667e+02	 1.500000e+01	 1.000200e+00
0	-1.116667e+02	 1.833333e+01	 1.000291e+00
0	-1.116667e+02	 2.166667e+01	 1.000381e+00
0	-1.116667e+02	 2.500000e+01	 1.000472e+00
0	-1.083333e+02	 8.333327e+00	 1.000188e+00
0	-1.083333e+02	 1.166666e+01	 1.000272e+00
0	-1.083333e+02	 1.500000e+01	 1.000356e+00
0	-1.083333e+02	 1.833333e+01	 1.000441e+00
0	-1.083333e+02	 2.166667e+01	 1.000525e+00
0	-1.083333e+02	 2.500000e+01	 1.000609e+00
0	-1.250000e+02	 2.500000e+01	 1.000071e+00
0	-1.250000e+02	 2.833333e+01	 1.000201e+00
0	-1.250000e+02	 3.166667e+01	 1.000333e+00
0	-1.250000e+02	 3.500000e+01	 1.000469e+00
0	-1.250000e+02	 3.833334e+01	 1.000607e+00
0	-1.250000e+02	 4.166667e+01	 1.000748e+00
0	-1.216667e+02	 2.500000e+01	 1.000149e+00
0	-1.216667e+02	 2.833333e+01	 1.000253e+00
0	-1.216667e+02	 3.166667e+01	 1.000360e+00
0	-1.216667e+02	 3.500000e+01	 1.000470e+00
0	-1.216667e+02	 3.833334e+01	 1.000583e+00
0	-1.216667e+02	 4.166667e+01	 1.000698e+00
0	-1.183333e+02	 2.500000e+01	 1.000242e+00
0	-1.183333e+02	 2.833333e+01	 1.000326e+00
0	-1.183333e+02	 3.166667e+01	 1.000412e+00
0	-1.183333e+02	 3.500000e+01	 1.000501e+00
0	-1.183333e+02	 3.833334e+01	 1.000593e+00
0	-1.183333e+02	 4.166667e+01	 1.000688e+00
0	-1.150000e+02	 2.500000e+01	 1.000350e+00
0	-1.150000e+02	 2.833333e+01	 1.000418e+00
0	-1.150000e+02	 3.166667e+01	 1.000489e+00
0	-1.150000e+02	 3.500000e+01	 1.000563e+00
0	-1.150000e+02	 3.833334e+01	 1.000639e+00
0	-1.150000e+02	 4.166667e+01	 1.000719e+00
0	-1.116667e+02	 2.500000e+01	 1.000472e+00
0	-1.116667e+02	 2.833333e+01	 1.000530e+00
0	-1.116667e+02	 3.166667e+01	 1.000591e+00
0	-1.116667e+02	 3.500000e+01	 1.000654e+00
0	-1.116667e+02	 3.833334e+01	 1.000720e+00
0	-1.116667e+02	 4.166667e+01	 1.000789e+00
0	-1.083333e+02	 2.500000e+01	 1.000609e+00
0	-1.083333e+02	 2.833333e+01	 1.000662e+00
0	-1.083333e+02	 3.166667e+01	 1.000718e+00
0	-1.083333e+02	 3.500000e+01	 1.000776e+00
0	-1.083333e+02	 3.833334e+01	 1.000837e+00
0	-1.083333e+02	 4.166667e+01	 1.000901e+00
0	-1.250000e+02	 4.166667e+01	 1.000748e+00
0	-1.250000e+02	 4.500000e+01	 1.000781e+00
0	-1.250000e+02	 4.833333e+01	 1.000816e+00
0	-1.250000e+02	 5.166667e+01	 1.000855e+00
0	-1.250000e+02	 5.500000e+01	 1.000897e+00
0	-1.250000e+02	 5.833333e+01	 1.000942e+00
0	-1.216667e+02	 4.166667e+01	 1.000698e+00
0	-1.216667e+02	 4.500000e+01	 1.000727e+00
0	-1.216667e+02	 4.833333e+01	 1.000760e+00
0	-1.216667e+02	 5.166667e+01	 1.000796e+00
0	-1.216667e+02	 5.500000e+01	 1.000835e+00
0	-1.216667e+02	 5.833333e+01	 1.000879e+00
0	-1.183333e+02	 4.166667e+01	 1.000688e+00
0	-1.183333e+02	 4.500000e+01	 1.000711e+00
0	-1.183333e+02	 4.833333e+01	 1.000737e+00
0	-1.183333e+02	 5.166667e+01	 1.000768e+00
0	-1.183333e+02	 5.500000e+01	 1.000803e+00
0	-1.183333e+02	 5.833333e+01	 1.000841e+00
0	-1.150000e+02	 4.166667e+01	 1.000719e+00
0	-1.150000e+02	 4.500000e+01	 1.000732e+00
0	-1.150000e+02	 4.833333e+01	 1.000750e+00
0	-1.150000e+02	 5.166667e+01	 1.000772e+00
0	-1.150000e+02	 5.500000e+01	 1.000798e+00
0	-1.150000e+02	 5.833333e+01	 1.000829e+00
0	-1.116667e+02	 4.166667e+01	 1.000789e+00
0	-1.116667e+02	 4.500000e+01	 1.000791e+00
0	-1.116667e+02	 4.833333e+01	 1.000797e+00
0	-1.116667e+02	 5.166667e+01	 1.000808e+00
0	-1.116667e+02	 5.500000e+01	 1.000823e+00
0	-1.116667e+02	 5.833333e+01	 1.000844e+00
0	-1.083333e+02	 4.166667e+01	 1.000901e+00
0	-1.083333e+02	 4.500000e+01	 1.000887e+00
0	-1.083333e+02	 4.833333e+01	 1.000878e+00
0	-1.083333e+02	 5.166667e+01	 1.000875e+00
0	-1.083333e+02	 5.500000e+01	 1.000877e+00
0	-1.083333e+02	 5.833333e+01	 1.000884e+00
0	-1.250000e+02	 5.833333e+01	 1.000942e+00
0	-1.250000e+02	 6.166666e+01	 1.000893e+00
0	-1.250000e+02	 6.500000e+01	 1.000847e+00
0	-1.250000e+02	 6.833333e+01	 1.000804e+00
0	-1.250000e+02	 7.166667e+01	 1.000765e+00
0	-1.250000e+02	 7.500000e+01	 1.000730e+00
0	-1.216667e+02	 5.833333e+01	 1.000879e+00
0	-1.216667e+02	 6.166666e+01	 1.000833e+00
0	-1.216667e+02	 6.500000e+01	 1.000789e+00
0	-1.216667e+02	 6.833333e+01	 1.000749e+00
0	-1.216667e+02	 7.166667e+01	 1.000712e+00
0	-1.216667e+02	 7.500000e+01	 1.000678e+00
0	-1.183333e+02	 5.833333e+01	 1.000841e+00
0	-1.183333e+02	 6.166666e+01	 1.000798e+00
0	-1.183333e+02	 6.500000e+01	 1.000757e+00
0	-1.183333e+02	 6.833333e+01	 1.000719e+00
0	-1.183333e+02	 7.166667e+01	 1.000683e+00
0	-1.183333e+02	 7.500000e+01	 1.000649e+00
0	-1.150000e+02	 5.833333e+01	 1.000829e+00
0	-1.150000e+02	 6.166666e+01	 1.000789e+00
0	-1.150000e+02	 6.500000e+01	 1.000749e+00
0	-1.150000e+02	 6.833333e+01	 1.000712e+00
0	-1.150000e+02	 7.166667e+01	 1.000677e+00
0	-1.150000e+02	 7.500000e+01	 1.000644e+00
0	-1.116667e+02	 5.833333e+01	 1.000844e+00
0	-1.116667e+02	 6.166666e+01	 1.000805e+00
0	-1.116667e+02	 6.500000e+01	 1.000767e+00
0	-1.116667e+02	 6.833333e+01	 1.000730e+00
0	-1.116667e+02	 7.166667e+01	 1.000695e+00
0	-1.116667e+02	 7.500000e+01	 1.000661e+00
0	-1.083333e+02	 5.833333e+01	 1.000884e+00
0	-1.083333e+02	 6.166666e+01	 1.000846e+00
0	-1.083333e+02	 6.500000e+01	 1.000809e+00
0	-1.083333e+02	 6.833333e+01	 1.000773e+00
0	-1.083333e+02	 7.166667e+01	 1.000737e+00
0	-1.083333e+02	 7.500000e+01	 1.000702e+00
0	-1.250000e+02	 7.500000e+01	 1.000730e+00
0	-1.250000e+02	 7.833333e+01	 1.000639e+00
0	-1.250000e+02	 8.166667e+01	 1.000546e+00
0	-1.250000e+02	 8.500000e+01	 1.000454e+00
0	-1.250000e+02	 8.833334e+01	 1.000360e+00
0	-1.250000e+02	 9.166667e+01	 1.000266e+00
0	-1.216667e+02	 7.500000e+01	 1.000678e+00
0	-1.216667e+02	 7.833333e+01	 1.000605e+00
0	-1.216667e+02	 8.166667e+01	 1.000532e+00
0	-1.216667e+02	 8.500000e+01	 1.000458e+00
0	-1.216667e+02	 8.833334e+01	 1.000385e+00
0	-1.216667e+02	 9.166667e+01	 1.000311e+00
0	-1.183333e+02	 7.500000e+01	 1.000649e+00
0	-1.183333e+02	 7.833333e+01	 1.000588e+00
0	-1.183333e+02	 8.166667e+01	 1.000526e+00
0	-1.183333e+02	 8.500000e+01	 1.000466e+00
0	-1.183333e+02	 8.833334e+01	 1.000405e+00
0	-1.183333e+02	 9.166667e+01	 1.000345e+00
0	-1.150000e+02	 7.500000e+01	 1.000644e+00
0	-1.150000e+02	 7.833333e+01	 1.000587e+00
0	-1.150000e+02	 8.166667e+01	 1.000530e+00
0	-1.150000e+02	 8.500000e+01	 1.000475e+00
0	-1.150000e+02	 8.833334e+01	 1.000421e+00
0	-1.150000e+02	 9.166667e+01	 1.000368e+00
0	-1.116667e+02	 7.500000e+01	 1.000661e+00
0	-1.116667e+02	 7.833333e+01	 1.000602e+00
0	-1.116667e+02	 8.166667e+01	 1.000544e+00
0	-1.116667e+02	 8.500000e+01	 1.000488e+00
0	-1.116667e+02	 8.833334e+01	 1.000433e+00
0	-1.116667e+02	 9.166667e+01	 1.000380e+00
0	-1.083333e+02	 7.500000e+01	 1.000702e+00
0	-1.083333e+02	 7.833333e+01	 1.000634e+00
0	-1.083333e+02	 8.166667e+01	 1.000567e+00
0	-1.083333e+02	 8.500000e+01	 1.000503e+00
0	-1.083333e+02	 8.833334e+01	 1.000440e+00
0	-1.083333e+02	 9.166667e+01	 1.000380e+00
0	-1.250000e+02	 9.166667e+01	 1.000266e+00
0	-1.250000e+02	 9.500000e+01	 1.000208e+00
0	-1.250000e+02	 9.833333e+01	 1.000149e+00
0	-1.250000e+02	 1.016667e+02	 1.000090e+00
0	-1.250000e+02	 1.050000e+02	 1.000030e+00
0	-1.250000e+02	 1.083333e+02	 9.999699e-01
0	-1.216667e+02	 9.166667e+01	 1.000311e+00
0	-1.216667e+02	 9.500000e+01	 1.000255e+00
0	-1.216667e+02	 9.833333e+01	 1.000199e+00
0	-1.216667e+02	 1.016667e+02	 1.000141e+00
0	-1.216667e+02	 1.050000e+02	 1.000082e+00
0	-1.216667e+02	 1.083333e+02	 1.000022e+00
0	-1.183333e+02	 9.166667e+01	 1.000345e+00
0	-1.183333e+02	 9.500000e+01	 1.000292e+00
0	-1.183333e+02	 9.833333e+01	 1.000237e+00
0	-1.183333e+02	 1.016667e+02	 1.000180e+00
0	-1.183333e+02	 1.050000e+02	 1.000122e+00
0	-1.183333e+02	 1.083333e+02	 1.000062e+00
0	-1.150000e+02	 9.166667e+01	 1.000368e+00
0	-1.150000e+02	 9.500000e+01	 1.000317e+00
0	-1.150000e+02	 9.833333e+01	 1.000263e+00
0	-1.150000e+02	 1.016667e+02	 1.000207e+00
0	-1.150000e+02	 1.050000e+02	 1.000150e+00
0	-1.150000e+02	 1.083333e+02	 1.000090e+00
0	-1.116667e+02	 9.166667e+01	 1.000380e+00
0	-1.116667e+02	 9.500000e+01	 1.000330e+00
0	-1.116667e+02	 9.833333e+01	 1.000278e+00
0	-1.116667e+02	 1.016667e+02	 1.000223e+00
0	-1.116667e+02	 1.050000e+02	 1.000165e+00
0	-1.116667e+02	 1.083333e+02	 1.000105e+00
0	-1.083333e+02	 9.166667e+01	 1.000380e+00
0	-1.083333e+02	 9.500000e+01	 1.000332e+00
0	-1.083333e+02	 9.833333e+01	 1.000280e+00
0	-1.083333e+02	 1.016667e+02	 1.000226e+00
0	-1.083333e+02	 1.050000e+02	 1.000168e+00
0	-1.083333e+02	 1.083333e+02	 1.000107e+00
0	-1.250000e+02	 1.083333e+02	 9.999699e-01
0	-1.250000e+02	 1.116667e+02	 9.999735e-01
0	-1.250000e+02	 1.150000e+02	 9.999732e-01
0	-1.250000e+02	 1.183333e+02	 9.999689e-01
0	-1.250000e+02	 1.216667e+02	 9.999607e-01
0	-1.250000e+02	 1.250000e+02	 9.999485e-01
0	-1.216667e+02	 1.083333e+02	 1.000022e+00
0	-1.216667e+02	 1.116667e+02	 1.000021e+00
0	-1.216667e+02	 1.150000e+02	 1.000016e+00
0	-1.216667e+02	 1.183333e+02	 1.000005e+00
0	-1.216667e+02	 1.216667e+02	 9.999904e-01
0	-1.216667e+02	 1.250000e+02	 9.999708e-01
0	-1.183333e+02	 1.083333e+02	 1.000062e+00
0	-1.183333e+02	 1.116667e+02	 1.000057e+00
0	-1.183333e+02	 1.150000e+02	 1.000046e+00
0	-1.183333e+02	 1.183333e+02	 1.000030e+00
0	-1.183333e+02	 1.216667e+02	 1.000009e+00
0	-1.183333e+02	 1.250000e+02	 9.999819e-01
0	-1.150000e+02	 1.083333e+02	 1.000090e+00
0	-1.150000e+02	 1.116667e+02	 1.000080e+00
0	-1.150000e+02	 1.150000e+02	 1.000064e+00
0	-1.150000e+02	 1.183333e+02	 1.000043e+00
0	-1.150000e+02	 1.216667e+02	 1.000015e+00
0	-1.150000e+02	 1.250000e+02	 9.999819e-01
0	-1.116667e+02	 1.083333e+02	 1.000105e+00
0	-1.116667e+02	 1.116667e+02	 1.000091e+00
0	-1.116667e+02	 1.150000e+02	 1.000071e+00
0	-1.116667e+02	 1.183333e+02	 1.000044e+00
0	-1.116667e+02	 1.216667e+02	 1.000011e+00
0	-1.116667e+02	 1.250000e+02	 9.999706e-01
0	-1.083333e+02	 1.083333e+02	 1.000107e+00
0	-1.083333e+02	 1.116667e+02	 1.000090e+00
0	-1.083333e+02	 1.150000e+02	 1.000065e+00
0	-1.083333e+02	 1.183333e+02	 1.000033e+00
0	-1.083333e+02	 1.216667e+02	 9.999944e-01
0	-1.083333e+02	 1.250000e+02	 9.999481e-01
0	-1.083333e+02	-1.250000e+02	 1.000004e+00
0	-1.083333e+02	-1.216667e+02	 9.999981e-01
0	-1.083333e+02	-1.183333e+02	 9.999938e-01
0	-1.083333e+02	-1.150000e+02	 9.999907e-01
0	-1.083333e+02	-1.116667e+02	 9.999888e-01
0	-1.083333e+02	-1.083333e+02	 9.999882e-01
0	-1.050000e+02	-1.250000e+02	 9.999900e-01
0	-1.050000e+02	-1.216667e+02	 9.999968e-01
0	-1.050000e+02	-1.183333e+02	 1.000002e+00
0	-1.050000e+02	-1.150000e+02	 1.000007e+00
0	-1.050000e+02	-1.116667e+02	 1.000010e+00
0	-1.050000e+02	-1.083333e+02	 1.000012e+00
0	-1.016667e+02	-1.250000e+02	 9.999785e-01
0	-1.016667e+02	-1.216667e+02	 9.999960e-01
0	-1.016667e+02	-1.183333e+02	 1.000010e+00
0	-1.016667e+02	-1.150000e+02	 1.000020e+00
0	-1.016667e+02	-1.116667e+02	 1.000027e+00
0	-1.016667e+02	-1.083333e+02	 1.000030e+00
0	-9.833333e+01	-1.250000e+02	 9.999693e-01
0	-9.833333e+01	-1.216667e+02	 9.999958e-01
0	-9.833333e+01	-1.183333e+02	 1.000016e+00
0	-9.833333e+01	-1.150000e+02	 1.000031e+00
0	-9.833333e+01	-1.116667e+02	 1.000039e+00
0	-9.833333e+01	-1.083333e+02	 1.000042e+00
0	-9.500000e+01	-1.250000e+02	 9.999622e-01
0	-9.500000e+01	-1.216667e+02	 9.999962e-01
0	-9.500000e+01	-1.183333e+02	 1.000022e+00
0	-9.500000e+01	-1.150000e+02	 1.000039e+00
0	-9.500000e+01	-1.116667e+02	 1.000048e+00
0	-9.500000e+01	-1.083333e+02	 1.000048e+00
0	-9.166667e+01	-1.250000e+02	 9.999573e-01
0	-9.166667e+01	-1.216667e+02	 9.999972e-01
0	-9.166667e+01	-1.183333e+02	 1.000026e+00
0	-9.166667e+01	-1.150000e+02	 1.000044e+00
0	-9.166667e+01	-1.116667e+02	 1.000052e+00
0	-9.166667e+01	-1.083333e+02	 1.000048e+00
0	-1.083333e+02	-1.083333e+02	 9.999882e-01
0	-1.083333e+02	-1.050000e+02	 9.999927e-01
0	-1.083333e+02	-1.016667e+02	 9.999946e-01
0	-1.083333e+02	-9.833333e+01	 9.999940e-01
0	-1.083333e+02	-9.500000e+01	 9.999908e-01
0	-1.083333e+02	-9.166667e+01	 9.999850e-01
0	-1.050000e+02	-1.083333e+02	 1.000012e+00
0	-1.050000e+02	-1.050000e+02	 1.000021e+00
0	-1.050000e+02	-1.016667e+02	 1.000028e+00
0	-1.050000e+02	-9.833333e+01	 1.000033e+00
0	-1.050000e+02	-9.500000e+01	 1.000035e+00
0	-1.050000e+02	-9.166667e+01	 1.000035e+00
0	-1.016667e+02	-1.083333e+02	 1.000030e+00
0	-1.016667e+02	-1.050000e+02	 1.000046e+00
0	-1.016667e+02	-1.016667e+02	 1.000061e+00
0	-1.016667e+02	-9.833333e+01	 1.000073e+00
0	-1.016667e+02	-9.500000e+01	 1.000084e+00
0	-1.016667e+02	-9.166667e+01	 1.000093e+00
0	-9.833333e+01	-1.083333e+02	 1.000042e+00
0	-9.833333e+01	-1.050000e+02	 1.000068e+00
0	-9.833333e+01	-1.016667e+02	 1.000093e+00
0	-9.833333e+01	-9.833333e+01	 1.000116e+00
0	-9.833333e+01	-9.500000e+01	 1.000137e+00
0	-9.833333e+01	-9.166667e+01	 1.000158e+00
0	-9.500000e+01	-1.083333e+02	 1.000048e+00
0	-9.500000e+01	-1.050000e+02	 1.000086e+00
0	-9.500000e+01	-1.016667e+02	 1.000124e+00
0	-9.500000e+01	-9.833333e+01	 1.000160e+00
0	-9.500000e+01	-9.500000e+01	 1.000195e+00
0	-9.500000e+01	-9.166667e+01	 1.000229e+00
0	-9.166667e+01	-1.083333e+02	 1.000048e+00
0	-9.166667e+01	-1.050000e+02	 1.000102e+00
0	-9.166667e+01	-1.016667e+02	 1.000154e+00
0	-9.166667e+01	-9.833333e+01	 1.000206e+00
0	-9.166667e+01	-9.500000e+01	 1.000257e+00
0	-9.166667e+01	-9.166667e+01	 1.000308e+00
0	-1.083333e+02	-9.166667e+01	 9.999850e-01
0	-1.083333e+02	-8.833334e+01	 9.999848e-01
0	-1.083333e+02	-8.500000e+01	 9.999862e-01
0	-1.083333e+02	-8.166667e+01	 9.999893e-01
0	-1.083333e+02	-7.833333e+01	 9.999942e-01
0	-1.083333e+02	-7.500000e+01	 1.000001e+00
0	-1.050000e+02	-9.166667e+01	 1.000035e+00
0	-1.050000e+02	-8.833334e+01	 1.000050e+00
0	-1.050000e+02	-8.500000e+01	 1.000065e+00
0	-1.050000e+02	-8.166667e+01	 1.000081e+00
0	-1.050000e+02	-7.833333e+01	 1.000097e+00
0	-1.050000e+02	-7.500000e+01	 1.000115e+00
0	-1.016667e+02	-9.166667e+01	 1.000093e+00
0	-1.016667e+02	-8.833334e+01	 1.000119e+00
0	-1.016667e+02	-8.500000e+01	 1.000145e+00
0	-1.016667e+02	-8.166667e+01	 1.000171e+00
0	-1.016667e+02	-7.833333e+01	 1.000197e+00
0	-1.016667e+02	-7.500000e+01	 1.000223e+00
0	-9.833333e+01	-9.166667e+01	 1.000158e+00
0	-9.833333e+01	-8.833334e+01	 1.000193e+00
0	-9.833333e+01	-8.500000e+01	 1.000227e+00
0	-9.833333e+01	-8.166667e+01	 1.000261e+00
0	-9.833333e+01	-7.833333e+01	 1.000294e+00
0	-9.833333e+01	-7.500000e+01	 1.000326e+00
0	-9.500000e+01	-9.166667e+01	 1.000229e+00
0	-9.500000e+01	-8.833334e+01	 1.000271e+00
0	-9.500000e+01	-8.500000e+01	 1.000311e+00
0	-9.500000e+01	-8.166667e+01	 1.000350e+00
0	-9.500000e+01	-7.833333e+01	 1.000387e+00
0	-9.500000e+01	-7.500000e+01	 1.000423e+00
0	-9.166667e+01	-9.166667e+01	 1.000308e+00
0	-9.166667e+01	-8.833334e+01	 1.000354e+00
0	-9.166667e+01	-8.500000e+01	 1.000397e+00
0	-9.166667e+01	-8.166667e+01	 1.000439e+00
0	-9.166667e+01	-7.833333e+01	 1.000477e+00
0	-9.166667e+01	-7.500000e+01	 1.000514e+00
0	-1.083333e+02	-7.500000e+01	 1.000001e+00
0	-1.083333e+02	-7.166667e+01	 9.999827e-01
0	-1.083333e+02	-6.833333e+01	 9.999659e-01
0	-1.083333e+02	-6.500000e+01	 9.999502e-01
0	-1.083333e+02	-6.166666e+01	 9.999356e-01
0	-1.083333e+02	-5.833333e+01	 9.999221e-01
0	-1.050000e+02	-7.500000e+01	 1.000115e+00
0	-1.050000e+02	-7.166667e+01	 1.000101e+00
0	-1.050000e+02	-6.833333e+01	 1.000090e+00
0	-1.050000e+02	-6.500000e+01	 1.000081e+00
0	-1.050000e+02	-6.166666e+01	 1.000074e+00
0	-1.050000e+02	-5.833333e+01	 1.000069e+00
0	-1.016667e+02	-7.500000e+01	 1.000223e+00
0	-1.016667e+02	-7.166667e+01	 1.000217e+00
0	-1.016667e+02	-6.833333e+01	 1.000215e+00
0	-1.016667e+02	-6.500000e+01	 1.000216e+00
0	-1.016667e+02	-6.166666e+01	 1.000221e+00
0	-1.016667e+02	-5.833333e+01	 1.000230e+00
0	-9.833333e+01	-7.500000e+01	 1.000326e+00
0	-9.833333e+01	-7.166667e+01	 1.000332e+00
0	-9.833333e+01	-6.833333e+01	 1.000342e+00
0	-9.833333e+01	-6.500000e+01	 1.000358e+00
0	-9.833333e+01	-6.166666e+01	 1.000378e+00
0	-9.833333e+01	-5.833333e+01	 1.000403e+00
0	-9.500000e+01	-7.500000e+01	 1.000423e+00
0	-9.500000e+01	-7.166667e+01	 1.000444e+00
0	-9.500000e+01	-6.833333e+01	 1.000471e+00
0	-9.500000e+01	-6.500000e+01	 1.000504e+00
0	-9.500000e+01	-6.166666e+01	 1.000543e+00
0	-9.500000e+01	-5.833333e+01	 1.000589e+00
0	-9.166667e+01	-7.500000e+01	 1.000514e+00
0	-9.166667e+01	-7.166667e+01	 1.000554e+00
0	-9.166667e+01	-6.833333e+01	 1.000602e+00
0	-9.166667e+01	-6.500000e+01	 1.000656e+00
0	-9.166667e+01	-6.166666e+01	 1.000718e+00
0	-9.166667e+01	-5.833333e+01	 1.000787e+00
0	-1.083333e+02	-5.833333e+01	 9.999221e-01
0	-1.083333e+02	-5.500000e+01	 9.999002e-01
0	-1.083333e+02	-5.166667e+01	 9.998786e-01
0	-1.083333e+02	-4.833333e+01	 9.998573e-01
0	-1.083333e+02	-4.500000e+01	 9.998362e-01
0	-1.083333e+02	-4.166667e+01	 9.998155e-01
0	-1.050000e+02	-5.833333e+01	 1.000069e+00
0	-1.050000e+02	-5.500000e+01	 1.000054e+00
0	-1.050000e+02	-5.166667e+01	 1.000039e+00
0	-1.050000e+02	-4.833333e+01	 1.000026e+00
0	-1.050000e+02	-4.500000e+01	 1.000014e+00
0	-1.050000e+02	-4.166667e+01	 1.000003e+00
0	-1.016667e+02	-5.833333e+01	 1.000230e+00
0	-1.016667e+02	-5.500000e+01	 1.000218e+00
0	-1.016667e+02	-5.166667e+01	 1.000209e+00
0	-1.016667e+02	-4.833333e+01	 1.000202e+00
0	-1.016667e+02	-4.500000e+01	 1.000197e+00
0	-1.016667e+02	-4.166667e+01	 1.000195e+00
0	-9.833333e+01	-5.833333e+01	 1.000403e+00
0	-9.833333e+01	-5.500000e+01	 1.000394e+00
0	-9.833333e+01	-5.166667e+01	 1.000388e+00
0	-9.833333e+01	-4.833333e+01	 1.000386e+00
0	-9.833333e+01	-4.500000e+01	 1.000387e+00
0	-9.833333e+01	-4.166667e+01	 1.000391e+00
0	-9.500000e+01	-5.833333e+01	 1.000589e+00
0	-9.500000e+01	-5.500000e+01	 1.000581e+00
0	-9.500000e+01	-5.166667e+01	 1.000577e+00
0	-9.500000e+01	-4.833333e+01	 1.000578e+00
0	-9.500000e+01	-4.500000e+01	 1.000583e+00
0	-9.500000e+01	-4.166667e+01	 1.000592e+00
0	-9.166667e+01	-5.833333e+01	 1.000787e+00
0	-9.166667e+01	-5.500000e+01	 1.000779e+00
0	-9.166667e+01	-5.166667e+01	 1.000776e+00
0	-9.166667e+01	-4.833333e+01	 1.000778e+00
0	-9.166667e+01	-4.500000e+01	 1.000785e+00
0	-9.166667e+01	-4.166667e+01	 1.000797e+00
0	-1.083333e+02	-4.166667e+01	 9.998155e-01
0	-1.083333e+02	-3.833334e+01	 9.998038e-01
0	-1.083333e+02	-3.500000e+01	 9.997930e-01
0	-1.083333e+02	-3.166667e+01	 9.997832e-01
0	-1.083333e+02	-2.833333e+01	 9.997745e-01
0	-1.083333e+02	-2.500000e+01	 9.997668e-01
0	-1.050000e+02	-4.166667e+01	 1.000003e+00
0	-1.050000e+02	-3.833334e+01	 9.999988e-01
0	-1.050000e+02	-3.500000e+01	 9.999946e-01
0	-1.050000e+02	-3.166667e+01	 9.999901e-01
0	-1.050000e+02	-2.833333e+01	 9.999855e-01
0	-1.050000e+02	-2.500000e+01	 9.999807e-01
0	-1.016667e+02	-4.166667e+01	 1.000195e+00
0	-1.016667e+02	-3.833334e+01	 1.000194e+00
0	-1.016667e+02	-3.500000e+01	 1.000192e+00
0	-1.016667e+02	-3.166667e+01	 1.000188e+00
0	-1.016667e+02	-2.833333e+01	 1.000183e+00
0	-1.016667e+02	-2.500000e+01	 1.000176e+00
0	-9.833333e+01	-4.166667e+01	 1.000391e+00
0	-9.833333e+01	-3.833334e+01	 1.000389e+00
0	-9.833333e+01	-3.500000e+01	 1.000384e+00
0	-9.833333e+01	-3.166667e+01	 1.000376e+00
0	-9.833333e+01	-2.833333e+01	 1.000366e+00
0	-9.833333e+01	-2.500000e+01	 1.000353e+00
0	-9.500000e+01	-4.166667e+01	 1.000592e+00
0	-9.500000e+01	-3.833334e+01	 1.000584e+00
0	-9.500000e+01	-3.500000e+01	 1.000572e+00
0	-9.500000e+01	-3.166667e+01	 1.000556e+00
0	-9.500000e+01	-2.833333e+01	 1.000536e+00
0	-9.500000e+01	-2.500000e+01	 1.000512e+00
0	-9.166667e+01	-4.166667e+01	 1.000797e+00
0	-9.166667e+01	-3.833334e+01	 1.000779e+00
0	-9.166667e+01	-3.500000e+01	 1.000755e+00
0	-9.166667e+01	-3.166667e+01	 1.000726e+00
0	-9.166667e+01	-2.833333e+01	 1.000692e+00
0	-9.166667e+01	-2.500000e+01	 1.000653e+00
0	-1.083333e+02	-2.500000e+01	 9.997668e-01
0	-1.083333e+02	-2.166667e+01	 9.997969e-01
0	-1.083333e+02	-1.833333e+01	 9.998191e-01
0	-1.083333e+02	-1.500000e+01	 9.998335e-01
0	-1.083333e+02	-1.166666e+01	 9.998400e-01
0	-1.083333e+02	-8.333327e+00	 9.998386e-01
0	-1.050000e+02	-2.500000e+01	 9.999807e-01
0	-1.050000e+02	-2.166667e+01	 1.000002e+00
0	-1.050000e+02	-1.833333e+01	 1.000017e+00
0	-1.050000e+02	-1.500000e+01	 1.000026e+00
0	-1.050000e+02	-1.166666e+01	 1.000029e+00
0	-1.050000e+02	-8.333327e+00	 1.000025e+00
0	-1.016667e+02	-2.500000e+01	 1.000176e+00
0	-1.016667e+02	-2.166667e+01	 1.000192e+00
0	-1.016667e+02	-1.833333e+01	 1.000203e+00
0	-1.016667e+02	-1.500000e+01	 1.000210e+00
0	-1.016667e+02	-1.166666e+01	 1.000212e+00
0	-1.016667e+02	-8.333327e+00	 1.000210e+00
0	-9.833333e+01	-2.500000e+01	 1.000353e+00
0	-9.833333e+01	-2.166667e+01	 1.000367e+00
0	-9.833333e+01	-1.833333e+01	 1.000378e+00
0	-9.833333e+01	-1.500000e+01	 1.000386e+00
0	-9.833333e+01	-1.166666e+01	 1.000391e+00
0	-9.833333e+01	-8.333327e+00	 1.000394e+00
0	-9.500000e+01	-2.500000e+01	 1.000512e+00
0	-9.500000e+01	-2.166667e+01	 1.000527e+00
0	-9.500000e+01	-1.833333e+01	 1.000540e+00
0	-9.500000e+01	-1.500000e+01	 1.000553e+00
0	-9.500000e+01	-1.166666e+01	 1.000564e+00
0	-9.500000e+01	-8.333327e+00	 1.000575e+00
0	-9.166667e+01	-2.500000e+01	 1.000653e+00
0	-9.166667e+01	-2.166667e+01	 1.000672e+00
0	-9.166667e+01	-1.833333e+01	 1.000691e+00
0	-9.166667e+01	-1.500000e+01	 1.000711e+00
0	-9.166667e+01	-1.166666e+01	 1.000733e+00
0	-9.166667e+01	-8.333327e+00	 1.000754e+00
0	-1.083333e+02	-8.333327e+00	 9.998386e-01
0	-1.083333e+02	-4.999996e+00	 9.999096e-01
0	-1.083333e+02	-1.666665e+00	 9.999800e-01
0	-1.083333e+02	 1.666665e+00	 1.000050e+00
0	-1.083333e+02	 4.999996e+00	 1.000119e+00
0	-1.083333e+02	 8.333327e+00	 1.000188e+00
0	-1.050000e+02	-8.333327e+00	 1.000025e+00
0	-1.050000e+02	-4.999996e+00	 1.000104e+00
0	-1.050000e+02	-1.666665e+00	 1.000178e+00
0	-1.050000e+02	 1.666665e+00	 1.000248e+00
0	-1.050000e+02	 4.999996e+00	 1.000312e+00
0	-1.050000e+02	 8.333327e+00	 1.000373e+00
0	-1.016667e+02	-8.333327e+00	 1.000210e+00
0	-1.016667e+02	-4.999996e+00	 1.000295e+00
0	-1.016667e+02	-1.666665e+00	 1.000371e+00
0	-1.016667e+02	 1.666665e+00	 1.000438e+00
0	-1.016667e+02	 4.999996e+00	 1.000497e+00
0	-1.016667e+02	 8.333327e+00	 1.000547e+00
0	-9.833333e+01	-8.333327e+00	 1.000394e+00
0	-9.833333e+01	-4.999996e+00	 1.000482e+00
0	-9.833333e+01	-1.666665e+00	 1.000559e+00
0	-9.833333e+01	 1.666665e+00	 1.000623e+00
0	-9.833333e+01	 4.999996e+00	 1.000674e+00
0	-9.833333e+01	 8.333327e+00	 1.000712e+00
0	-9.500000e+01	-8.333327e+00	 1.000575e+00
0	-9.500000e+01	-4.999996e+00	 1.000666e+00
0	-9.500000e+01	-1.666665e+00	 1.000741e+00
0	-9.500000e+01	 1.666665e+00	 1.000800e+00
0	-9.500000e+01	 4.999996e+00	 1.000842e+00
0	-9.500000e+01	 8.333327e+00	 1.000867e+00
0	-9.166667e+01	-8.333327e+00	 1.000754e+00
0	-9.166667e+01	-4.999996e+00	 1.000847e+00
0	-9.166667e+01	-1.666665e+00	 1.000919e+00
0	-9.166667e+01	 1.666665e+00	 1.000970e+00
0	-9.166667e+01	 4.999996e+00	 1.001001e+00
0	-9.166667e+01	 8.333327e+00	 1.001011e+00
0	-1.083333e+02	 8.333327e+00	 1.000188e+00
0	-1.083333e+02	 1.166666e+01	 1.000272e+00
0	-1.083333e+02	 1.500000e+01	 1.000356e+00
0	-1.083333e+02	 1.833333e+01	 1.000441e+00
0	-1.083333e+02	 2.166667e+01	 1.000525e+00
0	-1.083333e+02	 2.500000e+01	 1.000609e+00
0	-1.050000e+02	 8.333327e+00	 1.000373e+00
0	-1.050000e+02	 1.166666e+01	 1.000444e+00
0	-1.050000e+02	 1.500000e+01	 1.000515e+00
0	-1.050000e+02	 1.833333e+01	 1.000588e+00
0	-1.050000e+02	 2.166667e+01	 1.000661e+00
0	-1.050000e+02	 2.500000e+01	 1.000734e+00
0	-1.016667e+02	 8.333327e+00	 1.000547e+00
0	-1.016667e+02	 1.166666e+01	 1.000611e+00
0	-1.016667e+02	 1.500000e+01	 1.000676e+00
0	-1.016667e+02	 1.833333e+01	 1.000743e+00
0	-1.016667e+02	 2.166667e+01	 1.000810e+00
0	-1.016667e+02	 2.500000e+01	 1.000879e+00
0	-9.833333e+01	 8.333327e+00	 1.000712e+00
0	-9.833333e+01	 1.166666e+01	 1.000775e+00
0	-9.833333e+01	 1.500000e+01	 1.000839e+00
0	-9.833333e+01	 1.833333e+01	 1.000905e+00
0	-9.833333e+01	 2.166667e+01	 1.000974e+00
0	-9.833333e+01	 2.500000e+01	 1.001044e+00
0	-9.500000e+01	 8.333327e+00	 1.000867e+00
0	-9.500000e+01	 1.166666e+01	 1.000934e+00
0	-9.500000e+01	 1.500000e+01	 1.001004e+00
0	-9.500000e+01	 1.833333e+01	 1.001076e+00
0	-9.500000e+01	 2.166667e+01	 1.001151e+00
0	-9.500000e+01	 2.500000e+01	 1.001228e+00
0	-9.166667e+01	 8.333327e+00	 1.001011e+00
0	-9.166667e+01	 1.166666e+01	 1.001089e+00
0	-9.166667e+01	 1.500000e+01	 1.001170e+00
0	-9.166667e+01	 1.833333e+01	 1.001255e+00
0	-9.166667e+01	 2.166667e+01	 1.001342e+00
0	-9.166667e+01	 2.500000e+01	 1.001433e+00
0	-1.083333e+02	 2.500000e+01	 1.000609e+00
0	-1.083333e+02	 2.833333e+01	 1.000662e+00
0	-1.083333e+02	 3.166667e+01	 1.000718e+00
0	-1.083333e+02	 3.500000e+01	 1.000776e+00
0	-1.083333e+02	 3.833334e+01	 1.000837e+00
0	-1.083333e+02	 4.166667e+01	 1.000901e+00
0	-1.050000e+02	 2.500000e+01	 1.000734e+00
0	-1.050000e+02	 2.833333e+01	 1.000775e+00
0	-1.050000e+02	 3.166667e+01	 1.000821e+00
0	-1.050000e+02	 3.500000e+01	 1.000872e+00
0	-1.050000e+02	 3.833334e+01	 1.000928e+00
0	-1.050000e+02	 4.166667e+01	 1.000989e+00
0	-1.016667e+02	 2.500000e+01	 1.000879e+00
0	-1.016667e+02	 2.833333e+01	 1.000905e+00
0	-1.016667e+02	 3.166667e+01	 1.000939e+00
0	-1.016667e+02	 3.500000e+01	 1.000981e+00
0	-1.016667e+02	 3.833334e+01	 1.001030e+00
0	-1.016667e+02	 4.166667e+01	 1.001087e+00
0	-9.833333e+01	 2.500000e+01	 1.001044e+00
0	-9.833333e+01	 2.833333e+01	 1.001054e+00
0	-9.833333e+01	 3.166667e+01	 1.001074e+00
0	-9.833333e+01	 3.500000e+01	 1.001104e+00
0	-9.833333e+01	 3.833334e+01	 1.001144e+00
0	-9.833333e+01	 4.166667e+01	 1.001194e+00
0	-9.500000e+01	 2.500000e+01	 1.001228e+00
0	-9.500000e+01	 2.833333e+01	 1.001220e+00
0	-9.500000e+01	 3.166667e+01	 1.001225e+00
0	-9.500000e+01	 3.500000e+01	 1.001241e+00
0	-9.500000e+01	 3.833334e+01	 1.001270e+00
0	-9.500000e+01	 4.166667e+01	 1.001312e+00
0	-9.166667e+01	 2.500000e+01	 1.001433e+00
0	-9.166667e+01	 2.833333e+01	 1.001405e+00
0	-9.166667e+01	 3.166667e+01	 1.001391e+00
0	-9.166667e+01	 3.500000e+01	 1.001392e+00
0	-9.166667e+01	 3.833334e+01	 1.001408e+00
0	-9.166667e+01	 4.166667e+01	 1.001439e+00
0	-1.083333e+02	 4.166667e+01	 1.000901e+00
0	-1.083333e+02	 4.500000e+01	 1.000887e+00
0	-1.083333e+02	 4.833333e+01	 1.000878e+00
0	-1.083333e+02	 5.166667e+01	 1.000875e+00
0	-1.083333e+02	 5.500000e+01	 1.000877e+00
0	-1.083333e+02	 5.833333e+01	 1.000884e+00
0	-1.050000e+02	 4.166667e+01	 1.000989e+00
0	-1.050000e+02	 4.500000e+01	 1.000962e+00
0	-1.050000e+02	 4.833333e+01	 1.000941e+00
0	-1.050000e+02	 5.166667e+01	 1.000925e+00
0	-1.050000e+02	 5.500000e+01	 1.000914e+00
0	-1.050000e+02	 5.833333e+01	 1.000909e+00
0	-1.016667e+02	 4.166667e+01	 1.001087e+00
0	-1.016667e+02	 4.500000e+01	 1.001051e+00
0	-1.016667e+02	 4.833333e+01	 1.001020e+00
0	-1.016667e+02	 5.166667e+01	 1.000995e+00
0	-1.016667e+02	 5.500000e+01	 1.000975e+00
0	-1.016667e+02	 5.833333e+01	 1.000959e+00
0	-9.833333e+01	 4.166667e+01	 1.001194e+00
0	-9.833333e+01	 4.500000e+01	 1.001153e+00
0	-9.833333e+01	 4.833333e+01	 1.001116e+00
0	-9.833333e+01	 5.166667e+01	 1.001085e+00
0	-9.833333e+01	 5.500000e+01	 1.001058e+00
0	-9.833333e+01	 5.833333e+01	 1.001036e+00
0	-9.500000e+01	 4.166667e+01	 1.001312e+00
0	-9.500000e+01	 4.500000e+01	 1.001268e+00
0	-9.500000e+01	 4.833333e+01	 1.001229e+00
0	-9.500000e+01	 5.166667e+01	 1.001194e+00
0	-9.500000e+01	 5.500000e+01	 1.001165e+00
0	-9.500000e+01	 5.833333e+01	 1.001140e+00
0	-9.166667e+01	 4.166667e+01	 1.001439e+00
0	-9.166667e+01	 4.500000e+01	 1.001396e+00
0	-9.166667e+01	 4.833333e+01	 1.001357e+00
0	-9.166667e+01	 5.166667e+01	 1.001324e+00
0	-9.166667e+01	 5.500000e+01	 1.001294e+00
0	-9.166667e+01	 5.833333e+01	 1.001270e+00
0	-1.083333e+02	 5.833333e+01	 1.000884e+00
0	-1.083333e+02	 6.166666e+01	 1.000846e+00
0	-1.083333e+02	 6.500000e+01	 1.000809e+00
0	-1.083333e+02	 6.833333e+01	 1.000773e+00
0	-1.083333e+02	 7.166667e+01	 1.000737e+00
0	-1.083333e+02	 7.500000e+01	 1.000702e+00
0	-1.050000e+02	 5.833333e+01	 1.000909e+00
0	-1.050000e+02	 6.166666e+01	 1.000869e+00
0	-1.050000e+02	 6.500000e+01	 1.000831e+00
0	-1.050000e+02	 6.833333e+01	 1.000796e+00
0	-1.050000e+02	 7.166667e+01	 1.000763e+00
0	-1.050000e+02	 7.500000e+01	 1.000732e+00
0	-1.016667e+02	 5.833333e+01	 1.000959e+00
0	-1.016667e+02	 6.166666e+01	 1.000911e+00
0	-1.016667e+02	 6.500000e+01	 1.000867e+00
0	-1.016667e+02	 6.833333e+01	 1.000826e+00
0	-1.016667e+02	 7.166667e+01	 1.000789e+00
0	-1.016667e+02	 7.500000e+01	 1.000756e+00
0	-9.833333e+01	 5.833333e+01	 1.001036e+00
0	-9.833333e+01	 6.166666e+01	 1.000973e+00
0	-9.833333e+01	 6.500000e+01	 1.000916e+00
0	-9.833333e+01	 6.833333e+01	 1.000863e+00
0	-9.833333e+01	 7.166667e+01	 1.000815e+00
0	-9.833333e+01	 7.500000e+01	 1.000773e+00
0	-9.500000e+01	 5.833333e+01	 1.001140e+00
0	-9.500000e+01	 6.166666e+01	 1.001056e+00
0	-9.500000e+01	 6.500000e+01	 1.000978e+00
0	-9.500000e+01	 6.833333e+01	 1.000906e+00
0	-9.500000e+01	 7.166667e+01	 1.000841e+00
0	-9.500000e+01	 7.500000e+01	 1.000783e+00
0	-9.166667e+01	 5.833333e+01	 1.001270e+00
0	-9.166667e+01	 6.166666e+01	 1.001157e+00
0	-9.166667e+01	 6.500000e+01	 1.001053e+00
0	-9.166667e+01	 6.833333e+01	 1.000956e+00
0	-9.166667e+01	 7.166667e+01	 1.000867e+00
0	-9.166667e+01	 7.500000e+01	 1.000786e+00
0	-1.083333e+02	 7.500000e+01	 1.000702e+00
0	-1.083333e+02	 7.833333e+01	 1.000634e+00
0	-1.083333e+02	 8.166667e+01	 1.000567e+00
0	-1.083333e+02	 8.500000e+01	 1.000503e+00
0	-1.083333e+02	 8.833334e+01	 1.000440e+00
0	-1.083333e+02	 9.166667e+01	 1.000380e+00
0	-1.050000e+02	 7.500000e+01	 1.000732e+00
0	-1.050000e+02	 7.833333e+01	 1.000661e+00
0	-1.050000e+02	 8.166667e+01	 1.000591e+00
0	-1.050000e+02	 8.500000e+01	 1.000521e+00
0	-1.050000e+02	 8.833334e+01	 1.000452e+00
0	-1.050000e+02	 9.166667e+01	 1.000384e+00
0	-1.016667e+02	 7.500000e+01	 1.000756e+00
0	-1.016667e+02	 7.833333e+01	 1.000685e+00
0	-1.016667e+02	 8.166667e+01	 1.000613e+00
0	-1.016667e+02	 8.500000e+01	 1.000540e+00
0	-1.016667e+02	 8.833334e+01	 1.000467e+00
0	-1.016667e+02	 9.166667e+01	 1.000394e+00
0	-9.833333e+01	 7.500000e+01	 1.000773e+00
0	-9.833333e+01	 7.833333e+01	 1.000704e+00
0	-9.833333e+01	 8.166667e+01	 1.000633e+00
0	-9.833333e+01	 8.500000e+01	 1.000560e+00
0	-9.833333e+01	 8.833334e+01	 1.000486e+00
0	-9.833333e+01	 9.166667e+01	 1.000409e+00
0	-9.500000e+01	 7.500000e+01	 1.000783e+00
0	-9.500000e+01	 7.833333e+01	 1.000719e+00
0	-9.500000e+01	 8.166667e+01	 1.000652e+00
0	-9.500000e+01	 8.500000e+01	 1.000581e+00
0	-9.500000e+01	 8.833334e+01	 1.000508e+00
0	-9.500000e+01	 9.166667e+01	 1.000431e+00
0	-9.166667e+01	 7.500000e+01	 1.000786e+00
0	-9.166667e+01	 7.833333e+01	 1.000730e+00
0	-9.166667e+01	 8.166667e+01	 1.000669e+00
0	-9.166667e+01	 8.500000e+01	 1.000603e+00
0	-9.166667e+01	 8.833334e+01	 1.000533e+00
0	-9.166667e+01	 9.166667e+01	 1.000458e+00
0	-1.083333e+02	 9.166667e+01	 1.000380e+00
0	-1.083333e+02	 9.500000e+01	 1.000332e+00
0	-1.083333e+02	 9.833333e+01	 1.000280e+00
0	-1.083333e+02	 1.016667e+02	 1.000226e+00
0	-1.083333e+02	 1.050000e+02	 1.000168e+00
0	-1.083333e+02	 1.083333e+02	 1.000107e+00
0	-1.050000e+02	 9.166667e+01	 1.000384e+00
0	-1.050000e+02	 9.500000e+01	 1.000336e+00
0	-1.050000e+02	 9.833333e+01	 1.000286e+00
0	-1.050000e+02	 1.016667e+02	 1.000233e+00
0	-1.050000e+02	 1.050000e+02	 1.000177e+00
0	-1.050000e+02	 1.083333e+02	 1.000118e+00
0	-1.016667e+02	 9.166667e+01	 1.000394e+00
0	-1.016667e+02	 9.500000e+01	 1.000344e+00
0	-1.016667e+02	 9.833333e+01	 1.000292e+00
0	-1.016667e+02	 1.016667e+02	 1.000238e+00
0	-1.016667e+02	 1.050000e+02	 1.000181e+00
0	-1.016667e+02	 1.083333e+02	 1.000122e+00
0	-9.833333e+01	 9.166667e+01	 1.000409e+00
0	-9.833333e+01	 9.500000e+01	 1.000355e+00
0	-9.833333e+01	 9.833333e+01	 1.000299e+00
0	-9.833333e+01	 1.016667e+02	 1.000241e+00
0	-9.833333e+01	 1.050000e+02	 1.000181e+00
0	-9.833333e+01	 1.083333e+02	 1.000118e+00
0	-9.500000e+01	 9.166667e+01	 1.000431e+00
0	-9.500000e+01	 9.500000e+01	 1.000369e+00
0	-9.500000e+01	 9.833333e+01	 1.000306e+00
0	-9.500000e+01	 1.016667e+02	 1.000242e+00
0	-9.500000e+01	 1.050000e+02	 1.000175e+00
0	-9.500000e+01	 1.083333e+02	 1.000108e+00
0	-9.166667e+01	 9.166667e+01	 1.000458e+00
0	-9.166667e+01	 9.500000e+01	 1.000387e+00
0	-9.166667e+01	 9.833333e+01	 1.000314e+00
0	-9.166667e+01	 1.016667e+02	 1.000241e+00
0	-9.166667e+01	 1.050000e+02	 1.000166e+00
0	-9.166667e+01	 1.083333e+02	 1.000090e+00
0	-1.083333e+02	 1.083333e+02	 1.000107e+00
0	-1.083333e+02	 1.116667e+02	 1.000090e+00
0	-1.083333e+02	 1.150000e+02	 1.000065e+00
0	-1.083333e+02	 1.183333e+02	 1.000033e+00
0	-1.083333e+02	 1.216667e+02	 9.999944e-01
0	-1.083333e+02	 1.250000e+02	 9.999481e-01
0	-1.050000e+02	 1.083333e+02	 1.000118e+00
0	-1.050000e+02	 1.116667e+02	 1.000102e+00
0	-1.050000e+02	 1.150000e+02	 1.000077e+00
0	-1.050000e+02	 1.183333e+02	 1.000043e+00
0	-1.050000e+02	 1.216667e+02	 1.000001e+00
0	-1.050000e+02	 1.250000e+02	 9.999487e-01
0	-1.016667e+02	 1.083333e+02	 1.000122e+00
0	-1.016667e+02	 1.116667e+02	 1.000108e+00
0	-1.016667e+02	 1.150000e+02	 1.000084e+00
0	-1.016667e+02	 1.183333e+02	 1.000049e+00
0	-1.016667e+02	 1.216667e+02	 1.000004e+00
0	-1.016667e+02	 1.250000e+02	 9.999472e-01
0	-9.833333e+01	 1.083333e+02	 1.000118e+00
0	-9.833333e+01	 1.116667e+02	 1.000108e+00
0	-9.833333e+01	 1.150000e+02	 1.000086e+00
0	-9.833333e+01	 1.183333e+02	 1.000051e+00
0	-9.833333e+01	 1.216667e+02	 1.000003e+00
0	-9.833333e+01	 1.250000e+02	 9.999435e-01
0	-9.500000e+01	 1.083333e+02	 1.000108e+00
0	-9.500000e+01	 1.116667e+02	 1.000102e+00
0	-9.500000e+01	 1.150000e+02	 1.000082e+00
0	-9.500000e+01	 1.183333e+02	 1.000048e+00
0	-9.500000e+01	 1.216667e+02	 1.000000e+00
0	-9.500000e+01	 1.250000e+02	 9.999376e-01
0	-9.166667e+01	 1.083333e+02	 1.000090e+00
0	-9.166667e+01	 1.116667e+02	 1.000089e+00
0	-9.166667e+01	 1.150000e+02	 1.000073e+00
0	-9.166667e+01	 1.183333e+02	 1.000041e+00
0	-9.166667e+01	 1.216667e+02	 9.999934e-01
0	-9.166667e+01	 1.250000e+02	 9.999296e-01
0	-9.166667e+01	-1.250000e+02	 9.999573e-01
0	-9.166667e+01	-1.216667e+02	 9.999972e-01
0	-9.166667e+01	-1.183333e+02	 1.000026e+00
0	-9.166667e+01	-1.150000e+02	 1.000044e+00
0	-9.166667e+01	-1.116667e+02	 1.000052e+00
0	-9.166667e+01	-1.083333e+02	 1.000048e+00
0	-8.833334e+01	-1.250000e+02	 9.999744e-01
0	-8.833334e+01	-1.216667e+02	 1.000013e+00
0	-8.833334e+01	-1.183333e+02	 1.000041e+00
0	-8.833334e+01	-1.150000e+02	 1.000059e+00
0	-8.833334e+01	-1.116667e+02	 1.000066e+00
0	-8.833334e+01	-1.083333e+02	 1.000062e+00
0	-8.500000e+01	-1.250000e+02	 9.999791e-01
0	-8.500000e+01	-1.216667e+02	 1.000020e+00
0	-8.500000e+01	-1.183333e+02	 1.000050e+00
0	-8.500000e+01	-1.150000e+02	 1.000070e+00
0	-8.500000e+01	-1.116667e+02	 1.000079e+00
0	-8.500000e+01	-1.083333e+02	 1.000078e+00
0	-8.166667e+01	-1.250000e+02	 9.999716e-01
0	-8.166667e+01	-1.216667e+02	 1.000017e+00
0	-8.166667e+01	-1.183333e+02	 1.000052e+00
0	-8.166667e+01	-1.150000e+02	 1.000077e+00
0	-8.166667e+01	-1.116667e+02	 1.000092e+00
0	-8.166667e+01	-1.083333e+02	 1.000096e+00
0	-7.833333e+01	-1.250000e+02	 9.999517e-01
0	-7.833333e+01	-1.216667e+02	 1.000005e+00
0	-7.833333e+01	-1.183333e+02	 1.000048e+00
0	-7.833333e+01	-1.150000e+02	 1.000081e+00
0	-7.833333e+01	-1.116667e+02	 1.000104e+00
0	-7.833333e+01	-1.083333e+02	 1.000116e+00
0	-7.500000e+01	-1.250000e+02	 9.999195e-01
0	-7.500000e+01	-1.216667e+02	 9.999836e-01
0	-7.500000e+01	-1.183333e+02	 1.000038e+00
0	-7.500000e+01	-1.150000e+02	 1.000082e+00
0	-7.500000e+01	-1.116667e+02	 1.000115e+00
0	-7.500000e+01	-1.083333e+02	 1.000139e+00
0	-9.166667e+01	-1.083333e+02	 1.000048e+00
0	-9.166667e+01	-1.050000e+02	 1.000102e+00
0	-9.166667e+01	-1.016667e+02	 1.000154e+00
0	-9.166667e+01	-9.833333e+01	 1.000206e+00
0	-9.166667e+01	-9.500000e+01	 1.000257e+00
0	-9.166667e+01	-9.166667e+01	 1.000308e+00
0	-8.833334e+01	-1.083333e+02	 1.000062e+00
0	-8.833334e+01	-1.050000e+02	 1.000132e+00
0	-8.833334e+01	-1.016667e+02	 1.000199e+00
0	-8.833334e+01	-9.833333e+01	 1.000263e+00
0	-8.833334e+01	-9.500000e+01	 1.000325e+00
0	-8.833334e+01	-9.166667e+01	 1.000383e+00
0	-8.500000e+01	-1.083333e+02	 1.000078e+00
0	-8.500000e+01	-1.050000e+02	 1.000160e+00
0	-8.500000e+01	-1.016667e+02	 1.000238e+00
0	-8.500000e+01	-9.833333e+01	 1.000310e+00
0	-8.500000e+01	-9.500000e+01	 1.000377e+00
0	-8.500000e+01	-9.166667e+01	 1.000439e+00
0	-8.166667e+01	-1.083333e+02	 1.000096e+00
0	-8.166667e+01	-1.050000e+02	 1.000187e+00
0	-8.166667e+01	-1.016667e+02	 1.000271e+00
0	-8.166667e+01	-9.833333e+01	 1.000347e+00
0	-8.166667e+01	-9.500000e+01	 1.000416e+00
0	-8.166667e+01	-9.166667e+01	 1.000477e+00
0	-7.833333e+01	-1.083333e+02	 1.000116e+00
0	-7.833333e+01	-1.050000e+02	 1.000212e+00
0	-7.833333e+01	-1.016667e+02	 1.000297e+00
0	-7.833333e+01	-9.833333e+01	 1.000373e+00
0	-7.833333e+01	-9.500000e+01	 1.000440e+00
0	-7.833333e+01	-9.166667e+01	 1.000497e+00
0	-7.500000e+01	-1.083333e+02	 1.000139e+00
0	-7.500000e+01	-1.050000e+02	 1.000235e+00
0	-7.500000e+01	-1.016667e+02	 1.000318e+00
0	-7.500000e+01	-9.833333e+01	 1.000390e+00
0	-7.500000e+01	-9.500000e+01	 1.000449e+00
0	-7.500000e+01	-9.166667e+01	 1.000497e+00
0	-9.166667e+01	-9.166667e+01	 1.000308e+00
0	-9.166667e+01	-8.833334e+01	 1.000354e+00
0	-9.166667e+01	-8.500000e+01	 1.000397e+00
0	-9.166667e+01	-8.166667e+01	 1.000439e+00
0	-9.166667e+01	-7.833333e+01	 1.000477e+00
0	-9.166667e+01	-7.500000e+01	 1.000514e+00
0	-8.833334e+01	-9.166667e+01	 1.000383e+00
0	-8.833334e+01	-8.833334e+01	 1.000428e+00
0	-8.833334e+01	-8.500000e+01	 1.000473e+00
0	-8.833334e+01	-8.166667e+01	 1.000518e+00
0	-8.833334e+01	-7.833333e+01	 1.000563e+00
0	-8.833334e+01	-7.500000e+01	 1.000608e+00
0	-8.500000e+01	-9.166667e+01	 1.000439e+00
0	-8.500000e+01	-8.833334e+01	 1.000491e+00
0	-8.500000e+01	-8.500000e+01	 1.000545e+00
0	-8.500000e+01	-8.166667e+01	 1.000601e+00
0	-8.500000e+01	-7.833333e+01	 1.000660e+00
0	-8.500000e+01	-7.500000e+01	 1.000720e+00
0	-8.166667e+01	-9.166667e+01	 1.000477e+00
0	-8.166667e+01	-8.833334e+01	 1.000543e+00
0	-8.166667e+01	-8.500000e+01	 1.000614e+00
0	-8.166667e+01	-8.166667e+01	 1.000688e+00
0	-8.166667e+01	-7.833333e+01	 1.000768e+00
0	-8.166667e+01	-7.500000e+01	 1.000852e+00
0	-7.833333e+01	-9.166667e+01	 1.000497e+00
0	-7.833333e+01	-8.833334e+01	 1.000584e+00
0	-7.833333e+01	-8.500000e+01	 1.000678e+00
0	-7.833333e+01	-8.166667e+01	 1.000780e+00
0	-7.833333e+01	-7.833333e+01	 1.000887e+00
0	-7.833333e+01	-7.500000e+01	 1.001002e+00
0	-7.500000e+01	-9.166667e+01	 1.000497e+00
0	-7.500000e+01	-8.833334e+01	 1.000614e+00
0	-7.500000e+01	-8.500000e+01	 1.000740e+00
0	-7.500000e+01	-8.166667e+01	 1.000874e+00
0	-7.500000e+01	-7.833333e+01	 1.001018e+00
0	-7.500000e+01	-7.500000e+01	 1.001171e+00
0	-9.166667e+01	-7.500000e+01	 1.000514e+00
0	-9.166667e+01	-7.166667e+01	 1.000554e+00
0	-9.166667e+01	-6.833333e+01	 1.000602e+00
0	-9.166667e+01	-6.500000e+01	 1.000656e+00
0	-9.166667e+01	-6.166666e+01	 1.000718e+00
0	-9.166667e+01	-5.833333e+01	 1.000787e+00
0	-8.833334e+01	-7.500000e+01	 1.000608e+00
0	-8.833334e+01	-7.166667e+01	 1.000670e+00
0	-8.833334e+01	-6.833333e+01	 1.000738e+00
0	-8.833334e+01	-6.500000e+01	 1.000811e+00
0	-8.833334e+01	-6.166666e+01	 1.000890e+00
0	-8.833334e+01	-5.833333e+01	 1.000975e+00
0	-8.500000e+01	-7.500000e+01	 1.000720e+00
0	-8.500000e+01	-7.166667e+01	 1.000796e+00
0	-8.500000e+01	-6.833333e+01	 1.000876e+00
0	-8.500000e+01	-6.500000e+01	 1.000960e+00
0	-8.500000e+01	-6.166666e+01	 1.001048e+00
0	-8.500000e+01	-5.833333e+01	 1.001140e+00
0	-8.166667e+01	-7.500000e+01	 1.000852e+00
0	-8.166667e+01	-7.166667e+01	 1.000933e+00
0	-8.166667e+01	-6.833333e+01	 1.001017e+00
0	-8.166667e+01	-6.500000e+01	 1.001104e+00
0	-8.166667e+01	-6.166666e+01	 1.001192e+00
0	-8.166667e+01	-5.833333e+01	 1.001284e+00
0	-7.833333e+01	-7.500000e+01	 1.001002e+00
0	-7.833333e+01	-7.166667e+01	 1.001081e+00
0	-7.833333e+01	-6.833333e+01	 1.001161e+00
0	-7.833333e+01	-6.500000e+01	 1.001241e+00
0	-7.833333e+01	-6.166666e+01	 1.001323e+00
0	-7.833333e+01	-5.833333e+01	 1.001405e+00
0	-7.500000e+01	-7.500000e+01	 1.001171e+00
0	-7.500000e+01	-7.166667e+01	 1.001239e+00
0	-7.500000e+01	-6.833333e+01	 1.001307e+00
0	-7.500000e+01	-6.500000e+01	 1.001373e+00
0	-7.500000e+01	-6.166666e+01	 1.001439e+00
0	-7.500000e+01	-5.833333e+01	 1.001504e+00
0	-9.166667e+01	-5.833333e+01	 1.000787e+00
0	-9.166667e+01	-5.500000e+01	 1.000779e+00
0	-9.166667e+01	-5.166667e+01	 1.000776e+00
0	-9.166667e+01	-4.833333e+01	 1.000778e+00
0	-9.166667e+01	-4.500000e+01	 1.000785e+00
0	-9.166667e+01	-4.166667e+01	 1.000797e+00
0	-8.833334e+01	-5.833333e+01	 1.000975e+00
0	-8.833334e+01	-5.500000e+01	 1.000963e+00
0	-8.833334e+01	-5.166667e+01	 1.000959e+00
0	-8.833334e+01	-4.833333e+01	 1.000964e+00
0	-8.833334e+01	-4.500000e+01	 1.000977e+00
0	-8.833334e+01	-4.166667e+01	 1.000999e+00
0	-8.500000e+01	-5.833333e+01	 1.001140e+00
0	-8.500000e+01	-5.500000e+01	 1.001133e+00
0	-8.500000e+01	-5.166667e+01	 1.001137e+00
0	-8.500000e+01	-4.833333e+01	 1.001152e+00
0	-8.500000e+01	-4.500000e+01	 1.001180e+00
0	-8.500000e+01	-4.166667e+01	 1.001219e+00
0	-8.166667e+01	-5.833333e+01	 1.001284e+00
0	-8.166667e+01	-5.500000e+01	 1.001289e+00
0	-8.166667e+01	-5.166667e+01	 1.001308e+00
0	-8.166667e+01	-4.833333e+01	 1.001343e+00
0	-8.166667e+01	-4.500000e+01	 1.001393e+00
0	-8.166667e+01	-4.166667e+01	 1.001458e+00
0	-7.833333e+01	-5.833333e+01	 1.001405e+00
0	-7.833333e+01	-5.500000e+01	 1.001431e+00
0	-7.833333e+01	-5.166667e+01	 1.001474e+00
0	-7.833333e+01	-4.833333e+01	 1.001536e+00
0	-7.833333e+01	-4.500000e+01	 1.001617e+00
0	-7.833333e+01	-4.166667e+01	 1.001715e+00
0	-7.500000e+01	-5.833333e+01	 1.001504e+00
0	-7.500000e+01	-5.500000e+01	 1.001559e+00
0	-7.500000e+01	-5.166667e+01	 1.001634e+00
0	-7.500000e+01	-4.833333e+01	 1.001732e+00
0	-7.500000e+01	-4.500000e+01	 1.001851e+00
0	-7.500000e+01	-4.166667e+01	 1.001992e+00
0	-9.166667e+01	-4.166667e+01	 1.000797e+00
0	-9.166667e+01	-3.833334e+01	 1.000779e+00
0	-9.166667e+01	-3.500000e+01	 1.000755e+00
0	-9.166667e+01	-3.166667e+01	 1.000726e+00
0	-9.166667e+01	-2.833333e+01	 1.000692e+00
0	-9.166667e+01	-2.500000e+01	 1.000653e+00
0	-8.833334e+01	-4.166667e+01	 1.000999e+00
0	-8.833334e+01	-3.833334e+01	 1.000974e+00
0	-8.833334e+01	-3.500000e+01	 1.000947e+00
0	-8.833334e+01	-3.166667e+01	 1.000919e+00
0	-8.833334e+01	-2.833333e+01	 1.000891e+00
0	-8.833334e+01	-2.500000e+01	 1.000860e+00
0	-8.500000e+01	-4.166667e+01	 1.001219e+00
0	-8.500000e+01	-3.833334e+01	 1.001187e+00
0	-8.500000e+01	-3.500000e+01	 1.001157e+00
0	-8.500000e+01	-3.166667e+01	 1.001130e+00
0	-8.500000e+01	-2.833333e+01	 1.001106e+00
0	-8.500000e+01	-2.500000e+01	 1.001085e+00
0	-8.166667e+01	-4.166667e+01	 1.001458e+00
0	-8.166667e+01	-3.833334e+01	 1.001418e+00
0	-8.166667e+01	-3.500000e+01	 1.001385e+00
0	-8.166667e+01	-3.166667e+01	 1.001359e+00
0	-8.166667e+01	-2.833333e+01	 1.001338e+00
0	-8.166667e+01	-2.500000e+01	 1.001325e+00
0	-7.833333e+01	-4.166667e+01	 1.001715e+00
0	-7.833333e+01	-3.833334e+01	 1.001668e+00
0	-7.833333e+01	-3.500000e+01	 1.001631e+00
0	-7.833333e+01	-3.166667e+01	 1.001604e+00
0	-7.833333e+01	-2.833333e+01	 1.001588e+00
0	-7.833333e+01	-2.500000e+01	 1.001582e+00
0	-7.500000e+01	-4.166667e+01	 1.001992e+00
0	-7.500000e+01	-3.833334e+01	 1.001936e+00
0	-7.500000e+01	-3.500000e+01	 1.001894e+00
0	-7.500000e+01	-3.166667e+01	 1.001867e+00
0	-7.500000e+01	-2.833333e+01	 1.001854e+00
0	-7.500000e+01	-2.500000e+01	 1.001855e+00
0	-9.166667e+01	-2.500000e+01	 1.000653e+00
0	-9.166667e+01	-2.166667e+01	 1.000672e+00
0	-9.166667e+01	-1.833333e+01	 1.000691e+00
0	-9.166667e+01	-1.500000e+01	 1.000711e+00
0	-9.166667e+01	-1.166666e+01	 1.000733e+00
0	-9.166667e+01	-8.333327e+00	 1.000754e+00
0	-8.833334e+01	-2.500000e+01	 1.000860e+00
0	-8.833334e+01	-2.166667e+01	 1.000903e+00
0	-8.833334e+01	-1.833333e+01	 1.000935e+00
0	-8.833334e+01	-1.500000e+01	 1.000955e+00
0	-8.833334e+01	-1.166666e+01	 1.000964e+00
0	-8.833334e+01	-8.333327e+00	 1.000962e+00
0	-8.500000e+01	-2.500000e+01	 1.001085e+00
0	-8.500000e+01	-2.166667e+01	 1.001143e+00
0	-8.500000e+01	-1.833333e+01	 1.001178e+00
0	-8.500000e+01	-1.500000e+01	 1.001189e+00
0	-8.500000e+01	-1.166666e+01	 1.001177e+00
0	-8.500000e+01	-8.333327e+00	 1.001142e+00
0	-8.166667e+01	-2.500000e+01	 1.001325e+00
0	-8.166667e+01	-2.166667e+01	 1.001390e+00
0	-8.166667e+01	-1.833333e+01	 1.001420e+00
0	-8.166667e+01	-1.500000e+01	 1.001413e+00
0	-8.166667e+01	-1.166666e+01	 1.001372e+00
0	-8.166667e+01	-8.333327e+00	 1.001295e+00
0	-7.833333e+01	-2.500000e+01	 1.001582e+00
0	-7.833333e+01	-2.166667e+01	 1.001645e+00
0	-7.833333e+01	-1.833333e+01	 1.001660e+00
0	-7.833333e+01	-1.500000e+01	 1.001628e+00
0	-7.833333e+01	-1.166666e+01	 1.001548e+00
0	-7.833333e+01	-8.333327e+00	 1.001420e+00
0	-7.500000e+01	-2.500000e+01	 1.001855e+00
0	-7.500000e+01	-2.166667e+01	 1.001908e+00
0	-7.500000e+01	-1.833333e+01	 1.001900e+00
0	-7.500000e+01	-1.500000e+01	 1.001833e+00
0	-7.500000e+01	-1.166666e+01	 1.001706e+00
0	-7.500000e+01	-8.333327e+00	 1.001519e+00
0	-9.166667e+01	-8.333327e+00	 1.000754e+00
0	-9.166667e+01	-4.999996e+00	 1.000847e+00
0	-9.166667e+01	-1.666665e+00	 1.000919e+00
0	-9.166667e+01	 1.666665e+00	 1.000970e+00
0	-9.166667e+01	 4.999996e+00	 1.001001e+00
0	-9.166667e+01	 8.333327e+00	 1.001011e+00
0	-8.833334e+01	-8.333327e+00	 1.000962e+00
0	-8.833334e+01	-4.999996e+00	 1.001028e+00
0	-8.833334e+01	-1.666665e+00	 1.001079e+00
0	-8.833334e+01	 1.666665e+00	 1.001114e+00
0	-8.833334e+01	 4.999996e+00	 1.001133e+00
0	-8.833334e+01	 8.333327e+00	 1.001136e+00
0	-8.500000e+01	-8.333327e+00	 1.001142e+00
0	-8.500000e+01	-4.999996e+00	 1.001199e+00
0	-8.500000e+01	-1.666665e+00	 1.001246e+00
0	-8.500000e+01	 1.666665e+00	 1.001282e+00
0	-8.500000e+01	 4.999996e+00	 1.001308e+00
0	-8.500000e+01	 8.333327e+00	 1.001322e+00
0	-8.166667e+01	-8.333327e+00	 1.001295e+00
0	-8.166667e+01	-4.999996e+00	 1.001361e+00
0	-8.166667e+01	-1.666665e+00	 1.001422e+00
0	-8.166667e+01	 1.666665e+00	 1.001477e+00
0	-8.166667e+01	 4.999996e+00	 1.001526e+00
0	-8.166667e+01	 8.333327e+00	 1.001570e+00
0	-7.833333e+01	-8.333327e+00	 1.001420e+00
0	-7.833333e+01	-4.999996e+00	 1.001514e+00
0	-7.833333e+01	-1.666665e+00	 1.001606e+00
0	-7.833333e+01	 1.666665e+00	 1.001697e+00
0	-7.833333e+01	 4.999996e+00	 1.001788e+00
0	-7.833333e+01	 8.333327e+00	 1.001878e+00
0	-7.500000e+01	-8.333327e+00	 1.001519e+00
0	-7.500000e+01	-4.999996e+00	 1.001656e+00
0	-7.500000e+01	-1.666665e+00	 1.001798e+00
0	-7.500000e+01	 1.666665e+00	 1.001944e+00
0	-7.500000e+01	 4.999996e+00	 1.002093e+00
0	-7.500000e+01	 8.333327e+00	 1.002247e+00
0	-9.166667e+01	 8.333327e+00	 1.001011e+00
0	-9.166667e+01	 1.166666e+01	 1.001089e+00
0	-9.166667e+01	 1.500000e+01	 1.001170e+00
0	-9.166667e+01	 1.833333e+01	 1.001255e+00
0	-9.166667e+01	 2.166667e+01	 1.001342e+00
0	-9.166667e+01	 2.500000e+01	 1.001433e+00
0	-8.833334e+01	 8.333327e+00	 1.001136e+00
0	-8.833334e+01	 1.166666e+01	 1.001227e+00
0	-8.833334e+01	 1.500000e+01	 1.001322e+00
0	-8.833334e+01	 1.833333e+01	 1.001421e+00
0	-8.833334e+01	 2.166667e+01	 1.001523e+00
0	-8.833334e+01	 2.500000e+01	 1.001630e+00
0	-8.500000e+01	 8.333327e+00	 1.001322e+00
0	-8.500000e+01	 1.166666e+01	 1.001415e+00
0	-8.500000e+01	 1.500000e+01	 1.001513e+00
0	-8.500000e+01	 1.833333e+01	 1.001615e+00
0	-8.500000e+01	 2.166667e+01	 1.001721e+00
0	-8.500000e+01	 2.500000e+01	 1.001832e+00
0	-8.166667e+01	 8.333327e+00	 1.001570e+00
0	-8.166667e+01	 1.166666e+01	 1.001653e+00
0	-8.166667e+01	 1.500000e+01	 1.001742e+00
0	-8.166667e+01	 1.833333e+01	 1.001836e+00
0	-8.166667e+01	 2.166667e+01	 1.001935e+00
0	-8.166667e+01	 2.500000e+01	 1.002039e+00
0	-7.833333e+01	 8.333327e+00	 1.001878e+00
0	-7.833333e+01	 1.166666e+01	 1.001941e+00
0	-7.833333e+01	 1.500000e+01	 1.002011e+00
0	-7.833333e+01	 1.833333e+01	 1.002086e+00
0	-7.833333e+01	 2.166667e+01	 1.002166e+00
0	-7.833333e+01	 2.500000e+01	 1.002253e+00
0	-7.500000e+01	 8.333327e+00	 1.002247e+00
0	-7.500000e+01	 1.166666e+01	 1.002279e+00
0	-7.500000e+01	 1.500000e+01	 1.002318e+00
0	-7.500000e+01	 1.833333e+01	 1.002363e+00
0	-7.500000e+01	 2.166667e+01	 1.002414e+00
0	-7.500000e+01	 2.500000e+01	 1.002472e+00
0	-9.166667e+01	 2.500000e+01	 1.001433e+00
0	-9.166667e+01	 2.833333e+01	 1.001405e+00
0	-9.166667e+01	 3.166667e+01	 1.001391e+00
0	-9.166667e+01	 3.500000e+01	 1.001392e+00
0	-9.166667e+01	 3.833334e+01	 1.001408e+00
0	-9.166667e+01	 4.166667e+01	 1.001439e+00
0	-8.833334e+01	 2.500000e+01	 1.001630e+00
0	-8.833334e+01	 2.833333e+01	 1.001587e+00
0	-8.833334e+01	 3.166667e+01	 1.001558e+00
0	-8.833334e+01	 3.500000e+01	 1.001544e+00
0	-8.833334e+01	 3.833334e+01	 1.001544e+00
0	-8.833334e+01	 4.166667e+01	 1.001559e+00
0	-8.500000e+01	 2.500000e+01	 1.001832e+00
0	-8.500000e+01	 2.833333e+01	 1.001781e+00
0	-8.500000e+01	 3.166667e+01	 1.001744e+00
0	-8.500000e+01	 3.500000e+01	 1.001721e+00
0	-8.500000e+01	 3.833334e+01	 1.001712e+00
0	-8.500000e+01	 4.166667e+01	 1.001717e+00
0	-8.166667e+01	 2.500000e+01	 1.002039e+00
0	-8.166667e+01	 2.833333e+01	 1.001987e+00
0	-8.166667e+01	 3.166667e+01	 1.001948e+00
0	-8.166667e+01	 3.500000e+01	 1.001923e+00
0	-8.166667e+01	 3.833334e+01	 1.001911e+00
0	-8.166667e+01	 4.166667e+01	 1.001913e+00
0	-7.833333e+01	 2.500000e+01	 1.002253e+00
0	-7.833333e+01	 2.833333e+01	 1.002205e+00
0	-7.833333e+01	 3.166667e+01	 1.002171e+00
0	-7.833333e+01	 3.500000e+01	 1.002150e+00
0	-7.833333e+01	 3.833334e+01	 1.002142e+00
0	-7.833333e+01	 4.166667e+01	 1.002147e+00
0	-7.500000e+01	 2.500000e+01	 1.002472e+00
0	-7.500000e+01	 2.833333e+01	 1.002436e+00
0	-7.500000e+01	 3.166667e+01	 1.002413e+00
0	-7.500000e+01	 3.500000e+01	 1.002402e+00
0	-7.500000e+01	 3.833334e+01	 1.002404e+00
0	-7.500000e+01	 4.166667e+01	 1.002419e+00
0	-9.166667e+01	 4.166667e+01	 1.001439e+00
0	-9.166667e+01	 4.500000e+01	 1.001396e+00
0	-9.166667e+01	 4.833333e+01	 1.001357e+00
0	-9.166667e+01	 5.166667e+01	 1.001324e+00
0	-9.166667e+01	 5.500000e+01	 1.001294e+00
0	-9.166667e+01	 5.833333e+01	 1.001270e+00
0	-8.833334e+01	 4.166667e+01	 1.001559e+00
0	-8.833334e+01	 4.500000e+01	 1.001504e+00
0	-8.833334e+01	 4.833333e+01	 1.001458e+00
0	-8.833334e+01	 5.166667e+01	 1.001423e+00
0	-8.833334e+01	 5.500000e+01	 1.001397e+00
0	-8.833334e+01	 5.833333e+01	 1.001381e+00
0	-8.500000e+01	 4.166667e+01	 1.001717e+00
0	-8.500000e+01	 4.500000e+01	 1.001634e+00
0	-8.500000e+01	 4.833333e+01	 1.001567e+00
0	-8.500000e+01	 5.166667e+01	 1.001514e+00
0	-8.500000e+01	 5.500000e+01	 1.001477e+00
0	-8.500000e+01	 5.833333e+01	 1.001454e+00
0	-8.166667e+01	 4.166667e+01	 1.001913e+00
0	-8.166667e+01	 4.500000e+01	 1.001788e+00
0	-8.166667e+01	 4.833333e+01	 1.001683e+00
0	-8.166667e+01	 5.166667e+01	 1.001599e+00
0	-8.166667e+01	 5.500000e+01	 1.001534e+00
0	-8.166667e+01	 5.833333e+01	 1.001489e+00
0	-7.833333e+01	 4.166667e+01	 1.002147e+00
0	-7.833333e+01	 4.500000e+01	 1.001965e+00
0	-7.833333e+01	 4.833333e+01	 1.001808e+00
0	-7.833333e+01	 5.166667e+01	 1.001676e+00
0	-7.833333e+01	 5.500000e+01	 1.001568e+00
0	-7.833333e+01	 5.833333e+01	 1.001486e+00
0	-7.500000e+01	 4.166667e+01	 1.002419e+00
0	-7.500000e+01	 4.500000e+01	 1.002164e+00
0	-7.500000e+01	 4.833333e+01	 1.001940e+00
0	-7.500000e+01	 5.166667e+01	 1.001745e+00
0	-7.500000e+01	 5.500000e+01	 1.001580e+00
0	-7.500000e+01	 5.833333e+01	 1.001445e+00
0	-9.166667e+01	 5.833333e+01	 1.001270e+00
0	-9.166667e+01	 6.166666e+01	 1.001157e+00
0	-9.166667e+01	 6.500000e+01	 1.001053e+00
0	-9.166667e+01	 6.833333e+01	 1.000956e+00
0	-9.166667e+01	 7.166667e+01	 1.000867e+00
0	-9.166667e+01	 7.500000e+01	 1.000786e+00
0	-8.833334e+01	 5.833333e+01	 1.001381e+00
0	-8.833334e+01	 6.166666e+01	 1.001256e+00
0	-8.833334e+01	 6.500000e+01	 1.001135e+00
0	-8.833334e+01	 6.833333e+01	 1.001018e+00
0	-8.833334e+01	 7.166667e+01	 1.000906e+00
0	-8.833334e+01	 7.500000e+01	 1.000798e+00
0	-8.500000e+01	 5.833333e+01	 1.001454e+00
0	-8.500000e+01	 6.166666e+01	 1.001326e+00
0	-8.500000e+01	 6.500000e+01	 1.001199e+00
0	-8.500000e+01	 6.833333e+01	 1.001073e+00
0	-8.500000e+01	 7.166667e+01	 1.000947e+00
0	-8.500000e+01	 7.500000e+01	 1.000822e+00
0	-8.166667e+01	 5.833333e+01	 1.001489e+00
0	-8.166667e+01	 6.166666e+01	 1.001369e+00
0	-8.166667e+01	 6.500000e+01	 1.001245e+00
0	-8.166667e+01	 6.833333e+01	 1.001119e+00
0	-8.166667e+01	 7.166667e+01	 1.000990e+00
0	-8.166667e+01	 7.500000e+01	 1.000858e+00
0	-7.833333e+01	 5.833333e+01	 1.001486e+00
0	-7.833333e+01	 6.166666e+01	 1.001383e+00
0	-7.833333e+01	 6.500000e+01	 1.001274e+00
0	-7.833333e+01	 6.833333e+01	 1.001158e+00
0	-7.833333e+01	 7.166667e+01	 1.001036e+00
0	-7.833333e+01	 7.500000e+01	 1.000907e+00
0	-7.500000e+01	 5.833333e+01	 1.001445e+00
0	-7.500000e+01	 6.166666e+01	 1.001370e+00
0	-7.500000e+01	 6.500000e+01	 1.001285e+00
0	-7.500000e+01	 6.833333e+01	 1.001189e+00
0	-7.500000e+01	 7.166667e+01	 1.001083e+00
0	-7.500000e+01	 7.500000e+01	 1.000967e+00
0	-9.166667e+01	 7.500000e+01	 1.000786e+00
0	-9.166667e+01	 7.833333e+01	 1.000730e+00
0	-9.166667e+01	 8.166667e+01	 1.000669e+00
0	-9.166667e+01	 8.500000e+01	 1.000603e+00
0	-9.166667e+01	 8.833334e+01	 1.000533e+00
0	-9.166667e+01	 9.166667e+01	 1.000458e+00
0	-8.833334e+01	 7.500000e+01	 1.000798e+00
0	-8.833334e+01	 7.833333e+01	 1.000740e+00
0	-8.833334e+01	 8.166667e+01	 1.000679e+00
0	-8.833334e+01	 8.500000e+01	 1.000616e+00
0	-8.833334e+01	 8.833334e+01	 1.000551e+00
0	-8.833334e+01	 9.166667e+01	 1.000483e+00
0	-8.500000e+01	 7.500000e+01	 1.000822e+00
0	-8.500000e+01	 7.833333e+01	 1.000755e+00
0	-8.500000e+01	 8.166667e+01	 1.000688e+00
0	-8.500000e+01	 8.500000e+01	 1.000621e+00
0	-8.500000e+01	 8.833334e+01	 1.000553e+00
0	-8.500000e+01	 9.166667e+01	 1.000485e+00
0	-8.166667e+01	 7.500000e+01	 1.000858e+00
0	-8.166667e+01	 7.833333e+01	 1.000776e+00
0	-8.166667e+01	 8.166667e+01	 1.000695e+00
0	-8.166667e+01	 8.500000e+01	 1.000616e+00
0	-8.166667e+01	 8.833334e+01	 1.000539e+00
0	-8.166667e+01	 9.166667e+01	 1.000463e+00
0	-7.833333e+01	 7.500000e+01	 1.000907e+00
0	-7.833333e+01	 7.833333e+01	 1.000801e+00
0	-7.833333e+01	 8.166667e+01	 1.000699e+00
0	-7.833333e+01	 8.500000e+01	 1.000602e+00
0	-7.833333e+01	 8.833334e+01	 1.000508e+00
0	-7.833333e+01	 9.166667e+01	 1.000419e+00
0	-7.500000e+01	 7.500000e+01	 1.000967e+00
0	-7.500000e+01	 7.833333e+01	 1.000832e+00
0	-7.500000e+01	 8.166667e+01	 1.000702e+00
0	-7.500000e+01	 8.500000e+01	 1.000579e+00
0	-7.500000e+01	 8.833334e+01	 1.000462e+00
0	-7.500000e+01	 9.166667e+01	 1.000351e+00
0	-9.166667e+01	 9.166667e+01	 1.000458e+00
0	-9.166667e+01	 9.500000e+01	 1.000387e+00
0	-9.166667e+01	 9.833333e+01	 1.000314e+00
0	-9.166667e+01	 1.016667e+02	 1.000241e+00
0	-9.166667e+01	 1.050000e+02	 1.000166e+00
0	-9.166667e+01	 1.083333e+02	 1.000090e+00
0	-8.833334e+01	 9.166667e+01	 1.000483e+00
0	-8.833334e+01	 9.500000e+01	 1.000411e+00
0	-8.833334e+01	 9.833333e+01	 1.000335e+00
0	-8.833334e+01	 1.016667e+02	 1.000256e+00
0	-8.833334e+01	 1.050000e+02	 1.000173e+00
0	-8.833334e+01	 1.083333e+02	 1.000087e+00
0	-8.500000e+01	 9.166667e+01	 1.000485e+00
0	-8.500000e+01	 9.500000e+01	 1.000417e+00
0	-8.500000e+01	 9.833333e+01	 1.000343e+00
0	-8.500000e+01	 1.016667e+02	 1.000263e+00
0	-8.500000e+01	 1.050000e+02	 1.000178e+00
0	-8.500000e+01	 1.083333e+02	 1.000088e+00
0	-8.166667e+01	 9.166667e+01	 1.000463e+00
0	-8.166667e+01	 9.500000e+01	 1.000404e+00
0	-8.166667e+01	 9.833333e+01	 1.000338e+00
0	-8.166667e+01	 1.016667e+02	 1.000263e+00
0	-8.166667e+01	 1.050000e+02	 1.000181e+00
0	-8.166667e+01	 1.083333e+02	 1.000092e+00
0	-7.833333e+01	 9.166667e+01	 1.000419e+00
0	-7.833333e+01	 9.500000e+01	 1.000375e+00
0	-7.833333e+01	 9.833333e+01	 1.000320e+00
0	-7.833333e+01	 1.016667e+02	 1.000256e+00
0	-7.833333e+01	 1.050000e+02	 1.000182e+00
0	-7.833333e+01	 1.083333e+02	 1.000099e+00
0	-7.500000e+01	 9.166667e+01	 1.000351e+00
0	-7.500000e+01	 9.500000e+01	 1.000327e+00
0	-7.500000e+01	 9.833333e+01	 1.000290e+00
0	-7.500000e+01	 1.016667e+02	 1.000242e+00
0	-7.500000e+01	 1.050000e+02	 1.000181e+00
0	-7.500000e+01	 1.083333e+02	 1.000109e+00
0	-9.166667e+01	 1.083333e+02	 1.000090e+00
0	-9.166667e+01	 1.116667e+02	 1.000089e+00
0	-9.166667e+01	 1.150000e+02	 1.000073e+00
0	-9.166667e+01	 1.183333e+02	 1.000041e+00
0	-9.166667e+01	 1.216667e+02	 9.999934e-01
0	-9.166667e+01	 1.250000e+02	 9.999296e-01
0	-8.833334e+01	 1.083333e+02	 1.000087e+00
0	-8.833334e+01	 1.116667e+02	 1.000089e+00
0	-8.833334e+01	 1.150000e+02	 1.000077e+00
0	-8.833334e+01	 1.183333e+02	 1.000052e+00
0	-8.833334e+01	 1.216667e+02	 1.000013e+00
0	-8.833334e+01	 1.250000e+02	 9.999597e-01
0	-8.500000e+01	 1.083333e+02	 1.000088e+00
0	-8.500000e+01	 1.116667e+02	 1.000089e+00
0	-8.500000e+01	 1.150000e+02	 1.000078e+00
0	-8.500000e+01	 1.183333e+02	 1.000056e+00
0	-8.500000e+01	 1.216667e+02	 1.000022e+00
0	-8.500000e+01	 1.250000e+02	 9.999761e-01
0	-8.166667e+01	 1.083333e+02	 1.000092e+00
0	-8.166667e+01	 1.116667e+02	 1.000088e+00
0	-8.166667e+01	 1.150000e+02	 1.000075e+00
0	-8.166667e+01	 1.183333e+02	 1.000052e+00
0	-8.166667e+01	 1.216667e+02	 1.000020e+00
0	-8.166667e+01	 1.250000e+02	 9.999787e-01
0	-7.833333e+01	 1.083333e+02	 1.000099e+00
0	-7.833333e+01	 1.116667e+02	 1.000087e+00
0	-7.833333e+01	 1.150000e+02	 1.000068e+00
0	-7.833333e+01	 1.183333e+02	 1.000042e+00
0	-7.833333e+01	 1.216667e+02	 1.000008e+00
0	-7.833333e+01	 1.250000e+02	 9.999676e-01
0	-7.500000e+01	 1.083333e+02	 1.000109e+00
0	-7.500000e+01	 1.116667e+02	 1.000086e+00
0	-7.500000e+01	 1.150000e+02	 1.000058e+00
0	-7.500000e+01	 1.183333e+02	 1.000024e+00
0	-7.500000e+01	 1.216667e+02	 9.999862e-01
0	-7.500000e+01	 1.250000e+02	 9.999427e-01
0	-7.500000e+01	-1.250000e+02	 9.999195e-01
0	-7.500000e+01	-1.216667e+02	 9.999836e-01
0	-7.500000e+01	-1.183333e+02	 1.000038e+00
0	-7.500000e+01	-1.150000e+02	 1.000082e+00
0	-7.500000e+01	-1.116667e+02	 1.000115e+00
0	-7.500000e+01	-1.083333e+02	 1.000139e+00
0	-7.166667e+01	-1.250000e+02	 9.999181e-01
0	-7.166667e+01	-1.216667e+02	 9.999955e-01
0	-7.166667e+01	-1.183333e+02	 1.000060e+00
0	-7.166667e+01	-1.150000e+02	 1.000111e+00
0	-7.166667e+01	-1.116667e+02	 1.000149e+00
0	-7.166667e+01	-1.083333e+02	 1.000173e+00
0	-6.833333e+01	-1.250000e+02	 9.999150e-01
0	-6.833333e+01	-1.216667e+02	 1.000002e+00
0	-6.833333e+01	-1.183333e+02	 1.000073e+00
0	-6.833333e+01	-1.150000e+02	 1.000128e+00
0	-6.833333e+01	-1.116667e+02	 1.000166e+00
0	-6.833333e+01	-1.083333e+02	 1.000188e+00
0	-6.500000e+01	-1.250000e+02	 9.999101e-01
0	-6.500000e+01	-1.216667e+02	 1.000003e+00
0	-6.500000e+01	-1.183333e+02	 1.000077e+00
0	-6.500000e+01	-1.150000e+02	 1.000132e+00
0	-6.500000e+01	-1.116667e+02	 1.000167e+00
0	-6.500000e+01	-1.083333e+02	 1.000183e+00
0	-6.166666e+01	-1.250000e+02	 9.999034e-01
0	-6.166666e+01	-1.216667e+02	 9.999995e-01
0	-6.166666e+01	-1.183333e+02	 1.000073e+00
0	-6.166666e+01	-1.150000e+02	 1.000124e+00
0	-6.166666e+01	-1.116667e+02	 1.000153e+00
0	-6.166666e+01	-1.083333e+02	 1.000159e+00
0	-5.833333e+01	-1.250000e+02	 9.998950e-01
0	-5.833333e+01	-1.216667e+02	 9.999902e-01
0	-5.833333e+01	-1.183333e+02	 1.000060e+00
0	-5.833333e+01	-1.150000e+02	 1.000104e+00
0	-5.833333e+01	-1.116667e+02	 1.000122e+00
0	-5.833333e+01	-1.083333e+02	 1.000115e+00
0	-7.500000e+01	-1.083333e+02	 1.000139e+00
0	-7.500000e+01	-1.050000e+02	 1.000235e+00
0	-7.500000e+01	-1.016667e+02	 1.000318e+00
0	-7.500000e+01	-9.833333e+01	 1.000390e+00
0	-7.500000e+01	-9.500000e+01	 1.000449e+00
0	-7.500000e+01	-9.166667e+01	 1.000497e+00
0	-7.166667e+01	-1.083333e+02	 1.000173e+00
0	-7.166667e+01	-1.050000e+02	 1.000260e+00
0	-7.166667e+01	-1.016667e+02	 1.000339e+00
0	-7.166667e+01	-9.833333e+01	 1.000409e+00
0	-7.166667e+01	-9.500000e+01	 1.000470e+00
0	-7.166667e+01	-9.166667e+01	 1.000522e+00
0	-6.833333e+01	-1.083333e+02	 1.000188e+00
0	-6.833333e+01	-1.050000e+02	 1.000273e+00
0	-6.833333e+01	-1.016667e+02	 1.000352e+00
0	-6.833333e+01	-9.833333e+01	 1.000425e+00
0	-6.833333e+01	-9.500000e+01	 1.000494e+00
0	-6.833333e+01	-9.166667e+01	 1.000556e+00
0	-6.500000e+01	-1.083333e+02	 1.000183e+00
0	-6.500000e+01	-1.050000e+02	 1.000271e+00
0	-6.500000e+01	-1.016667e+02	 1.000357e+00
0	-6.500000e+01	-9.833333e+01	 1.000440e+00
0	-6.500000e+01	-9.500000e+01	 1.000521e+00
0	-6.500000e+01	-9.166667e+01	 1.000600e+00
0	-6.166666e+01	-1.083333e+02	 1.000159e+00
0	-6.166666e+01	-1.050000e+02	 1.000256e+00
0	-6.166666e+01	-1.016667e+02	 1.000354e+00
0	-6.166666e+01	-9.833333e+01	 1.000453e+00
0	-6.166666e+01	-9.500000e+01	 1.000552e+00
0	-6.166666e+01	-9.166667e+01	 1.000652e+00
0	-5.833333e+01	-1.083333e+02	 1.000115e+00
0	-5.833333e+01	-1.050000e+02	 1.000227e+00
0	-5.833333e+01	-1.016667e+02	 1.000343e+00
0	-5.833333e+01	-9.833333e+01	 1.000463e+00
0	-5.833333e+01	-9.500000e+01	 1.000587e+00
0	-5.833333e+01	-9.166667e+01	 1.000715e+00
0	-7.500000e+01	-9.166667e+01	 1.000497e+00
0	-7.500000e+01	-8.833334e+01	 1.000614e+00
0	-7.500000e+01	-8.500000e+01	 1.000740e+00
0	-7.500000e+01	-8.166667e+01	 1.000874e+00
0	-7.500000e+01	-7.833333e+01	 1.001018e+00
0	-7.500000e+01	-7.500000e+01	 1.001171e+00
0	-7.166667e+01	-9.166667e+01	 1.000522e+00
0	-7.166667e+01	-8.833334e+01	 1.000675e+00
0	-7.166667e+01	-8.500000e+01	 1.000830e+00
0	-7.166667e+01	-8.166667e+01	 1.000987e+00
0	-7.166667e+01	-7.833333e+01	 1.001147e+00
0	-7.166667e+01	-7.500000e+01	 1.001310e+00
0	-6.833333e+01	-9.166667e+01	 1.000556e+00
0	-6.833333e+01	-8.833334e+01	 1.000730e+00
0	-6.833333e+01	-8.500000e+01	 1.000899e+00
0	-6.833333e+01	-8.166667e+01	 1.001065e+00
0	-6.833333e+01	-7.833333e+01	 1.001225e+00
0	-6.833333e+01	-7.500000e+01	 1.001382e+00
0	-6.500000e+01	-9.166667e+01	 1.000600e+00
0	-6.500000e+01	-8.833334e+01	 1.000779e+00
0	-6.500000e+01	-8.500000e+01	 1.000948e+00
0	-6.500000e+01	-8.166667e+01	 1.001105e+00
0	-6.500000e+01	-7.833333e+01	 1.001252e+00
0	-6.500000e+01	-7.500000e+01	 1.001388e+00
0	-6.166666e+01	-9.166667e+01	 1.000652e+00
0	-6.166666e+01	-8.833334e+01	 1.000823e+00
0	-6.166666e+01	-8.500000e+01	 1.000975e+00
0	-6.166666e+01	-8.166667e+01	 1.001110e+00
0	-6.166666e+01	-7.833333e+01	 1.001228e+00
0	-6.166666e+01	-7.500000e+01	 1.001328e+00
0	-5.833333e+01	-9.166667e+01	 1.000715e+00
0	-5.833333e+01	-8.833334e+01	 1.000860e+00
0	-5.833333e+01	-8.500000e+01	 1.000982e+00
0	-5.833333e+01	-8.166667e+01	 1.001079e+00
0	-5.833333e+01	-7.833333e+01	 1.001152e+00
0	-5.833333e+01	-7.500000e+01	 1.001201e+00
0	-7.500000e+01	-7.500000e+01	 1.001171e+00
0	-7.500000e+01	-7.166667e+01	 1.001239e+00
0	-7.500000e+01	-6.833333e+01	 1.001307e+00
0	-7.500000e+01	-6.500000e+01	 1.001373e+00
0	-7.500000e+01	-6.166666e+01	 1.001439e+00
0	-7.500000e+01	-5.833333e+01	 1.001504e+00
0	-7.166667e+01	-7.500000e+01	 1.001310e+00
0	-7.166667e+01	-7.166667e+01	 1.001352e+00
0	-7.166667e+01	-6.833333e+01	 1.001403e+00
0	-7.166667e+01	-6.500000e+01	 1.001460e+00
0	-7.166667e+01	-6.166666e+01	 1.001525e+00
0	-7.166667e+01	-5.833333e+01	 1.001598e+00
0	-6.833333e+01	-7.500000e+01	 1.001382e+00
0	-6.833333e+01	-7.166667e+01	 1.001427e+00
0	-6.833333e+01	-6.833333e+01	 1.001488e+00
0	-6.833333e+01	-6.500000e+01	 1.001565e+00
0	-6.833333e+01	-6.166666e+01	 1.001657e+00
0	-6.833333e+01	-5.833333e+01	 1.001765e+00
0	-6.500000e+01	-7.500000e+01	 1.001388e+00
0	-6.500000e+01	-7.166667e+01	 1.001464e+00
0	-6.500000e+01	-6.833333e+01	 1.001564e+00
0	-6.500000e+01	-6.500000e+01	 1.001687e+00
0	-6.500000e+01	-6.166666e+01	 1.001835e+00
0	-6.500000e+01	-5.833333e+01	 1.002006e+00
0	-6.166666e+01	-7.500000e+01	 1.001328e+00
0	-6.166666e+01	-7.166667e+01	 1.001462e+00
0	-6.166666e+01	-6.833333e+01	 1.001629e+00
0	-6.166666e+01	-6.500000e+01	 1.001827e+00
0	-6.166666e+01	-6.166666e+01	 1.002058e+00
0	-6.166666e+01	-5.833333e+01	 1.002321e+00
0	-5.833333e+01	-7.500000e+01	 1.001201e+00
0	-5.833333e+01	-7.166667e+01	 1.001422e+00
0	-5.833333e+01	-6.833333e+01	 1.001683e+00
0	-5.833333e+01	-6.500000e+01	 1.001985e+00
0	-5.833333e+01	-6.166666e+01	 1.002327e+00
0	-5.833333e+01	-5.833333e+01	 1.002709e+00
0	-7.500000e+01	-5.833333e+01	 1.001504e+00
0	-7.500000e+01	-5.500000e+01	 1.001559e+00
0	-7.500000e+01	-5.166667e+01	 1.001634e+00
0	-7.500000e+01	-4.833333e+01	 1.001732e+00
0	-7.500000e+01	-4.500000e+01	 1.001851e+00
0	-7.500000e+01	-4.166667e+01	 1.001992e+00
0	-7.166667e+01	-5.833333e+01	 1.001598e+00
0	-7.166667e+01	-5.500000e+01	 1.001692e+00
0	-7.166667e+01	-5.166667e+01	 1.001801e+00
0	-7.166667e+01	-4.833333e+01	 1.001924e+00
0	-7.166667e+01	-4.500000e+01	 1.002062e+00
0	-7.166667e+01	-4.166667e+01	 1.002215e+00
0	-6.833333e+01	-5.833333e+01	 1.001765e+00
0	-6.833333e+01	-5.500000e+01	 1.001884e+00
0	-6.833333e+01	-5.166667e+01	 1.002010e+00
0	-6.833333e+01	-4.833333e+01	 1.002145e+00
0	-6.833333e+01	-4.500000e+01	 1.002287e+00
0	-6.833333e+01	-4.166667e+01	 1.002436e+00
0	-6.500000e+01	-5.833333e+01	 1.002006e+00
0	-6.500000e+01	-5.500000e+01	 1.002134e+00
0	-6.500000e+01	-5.166667e+01	 1.002264e+00
0	-6.500000e+01	-4.833333e+01	 1.002394e+00
0	-6.500000e+01	-4.500000e+01	 1.002524e+00
0	-6.500000e+01	-4.166667e+01	 1.002656e+00
0	-6.166666e+01	-5.833333e+01	 1.002321e+00
0	-6.166666e+01	-5.500000e+01	 1.002443e+00
0	-6.166666e+01	-5.166667e+01	 1.002560e+00
0	-6.166666e+01	-4.833333e+01	 1.002671e+00
0	-6.166666e+01	-4.500000e+01	 1.002775e+00
0	-6.166666e+01	-4.166667e+01	 1.002874e+00
0	-5.833333e+01	-5.833333e+01	 1.002709e+00
0	-5.833333e+01	-5.500000e+01	 1.002811e+00
0	-5.833333e+01	-5.166667e+01	 1.002900e+00
0	-5.833333e+01	-4.833333e+01	 1.002976e+00
0	-5.833333e+01	-4.500000e+01	 1.003040e+00
0	-5.833333e+01	-4.166667e+01	 1.003090e+00
0	-7.500000e+01	-4.166667e+01	 1.001992e+00
0	-7.500000e+01	-3.833334e+01	 1.001936e+00
0	-7.500000e+01	-3.500000e+01	 1.001894e+00
0	-7.500000e+01	-3.166667e+01	 1.001867e+00
0	-7.500000e+01	-2.833333e+01	 1.001854e+00
0	-7.500000e+01	-2.500000e+01	 1.001855e+00
0	-7.166667e+01	-4.166667e+01	 1.002215e+00
0	-7.166667e+01	-3.833334e+01	 1.002128e+00
0	-7.166667e+01	-3.500000e+01	 1.002058e+00
0	-7.166667e+01	-3.166667e+01	 1.002006e+00
0	-7.166667e+01	-2.833333e+01	 1.001970e+00
0	-7.166667e+01	-2.500000e+01	 1.001952e+00
0	-6.833333e+01	-4.166667e+01	 1.002436e+00
0	-6.833333e+01	-3.833334e+01	 1.002338e+00
0	-6.833333e+01	-3.500000e+01	 1.002259e+00
0	-6.833333e+01	-3.166667e+01	 1.002200e+00
0	-6.833333e+01	-2.833333e+01	 1.002161e+00
0	-6.833333e+01	-2.500000e+01	 1.002141e+00
0	-6.500000e+01	-4.166667e+01	 1.002656e+00
0	-6.500000e+01	-3.833334e+01	 1.002564e+00
0	-6.500000e+01	-3.500000e+01	 1.002495e+00
0	-6.500000e+01	-3.166667e+01	 1.002449e+00
0	-6.500000e+01	-2.833333e+01	 1.002426e+00
0	-6.500000e+01	-2.500000e+01	 1.002425e+00
0	-6.166666e+01	-4.166667e+01	 1.002874e+00
0	-6.166666e+01	-3.833334e+01	 1.002808e+00
0	-6.166666e+01	-3.500000e+01	 1.002769e+00
0	-6.166666e+01	-3.166667e+01	 1.002754e+00
0	-6.166666e+01	-2.833333e+01	 1.002765e+00
0	-6.166666e+01	-2.500000e+01	 1.002802e+00
0	-5.833333e+01	-4.166667e+01	 1.003090e+00
0	-5.833333e+01	-3.833334e+01	 1.003070e+00
0	-5.833333e+01	-3.500000e+01	 1.003078e+00
0	-5.833333e+01	-3.166667e+01	 1.003114e+00
0	-5.833333e+01	-2.833333e+01	 1.003179e+00
0	-5.833333e+01	-2.500000e+01	 1.003272e+00
0	-7.500000e+01	-2.500000e+01	 1.001855e+00
0	-7.500000e+01	-2.166667e+01	 1.001908e+00
0	-7.500000e+01	-1.833333e+01	 1.001900e+00
0	-7.500000e+01	-1.500000e+01	 1.001833e+00
0	-7.500000e+01	-1.166666e+01	 1.001706e+00
0	-7.500000e+01	-8.333327e+00	 1.001519e+00
0	-7.166667e+01	-2.500000e+01	 1.001952e+00
0	-7.166667e+01	-2.166667e+01	 1.001965e+00
0	-7.166667e+01	-1.833333e+01	 1.001938e+00
0	-7.166667e+01	-1.500000e+01	 1.001871e+00
0	-7.166667e+01	-1.166666e+01	 1.001762e+00
0	-7.166667e+01	-8.333327e+00	 1.001613e+00
0	-6.833333e+01	-2.500000e+01	 1.002141e+00
0	-6.833333e+01	-2.166667e+01	 1.002112e+00
0	-6.833333e+01	-1.833333e+01	 1.002061e+00
0	-6.833333e+01	-1.500000e+01	 1.001988e+00
0	-6.833333e+01	-1.166666e+01	 1.001894e+00
0	-6.833333e+01	-8.333327e+00	 1.001778e+00
0	-6.500000e+01	-2.500000e+01	 1.002425e+00
0	-6.500000e+01	-2.166667e+01	 1.002348e+00
0	-6.500000e+01	-1.833333e+01	 1.002268e+00
0	-6.500000e+01	-1.500000e+01	 1.002186e+00
0	-6.500000e+01	-1.166666e+01	 1.002101e+00
0	-6.500000e+01	-8.333327e+00	 1.002014e+00
0	-6.166666e+01	-2.500000e+01	 1.002802e+00
0	-6.166666e+01	-2.166667e+01	 1.002673e+00
0	-6.166666e+01	-1.833333e+01	 1.002560e+00
0	-6.166666e+01	-1.500000e+01	 1.002464e+00
0	-6.166666e+01	-1.166666e+01	 1.002384e+00
0	-6.166666e+01	-8.333327e+00	 1.002320e+00
0	-5.833333e+01	-2.500000e+01	 1.003272e+00
0	-5.833333e+01	-2.166667e+01	 1.003087e+00
0	-5.833333e+01	-1.833333e+01	 1.002936e+00
0	-5.833333e+01	-1.500000e+01	 1.002821e+00
0	-5.833333e+01	-1.166666e+01	 1.002742e+00
0	-5.833333e+01	-8.333327e+00	 1.002698e+00
0	-7.500000e+01	-8.333327e+00	 1.001519e+00
0	-7.500000e+01	-4.999996e+00	 1.001656e+00
0	-7.500000e+01	-1.666665e+00	 1.001798e+00
0	-7.500000e+01	 1.666665e+00	 1.001944e+00
0	-7.500000e+01	 4.999996e+00	 1.002093e+00
0	-7.500000e+01	 8.333327e+00	 1.002247e+00
0	-7.166667e+01	-8.333327e+00	 1.001613e+00
0	-7.166667e+01	-4.999996e+00	 1.001880e+00
0	-7.166667e+01	-1.666665e+00	 1.002118e+00
0	-7.166667e+01	 1.666665e+00	 1.002327e+00
0	-7.166667e+01	 4.999996e+00	 1.002507e+00
0	-7.166667e+01	 8.333327e+00	 1.002657e+00
0	-6.833333e+01	-8.333327e+00	 1.001778e+00
0	-6.833333e+01	-4.999996e+00	 1.002128e+00
0	-6.833333e+01	-1.666665e+00	 1.002416e+00
0	-6.833333e+01	 1.666665e+00	 1.002641e+00
0	-6.833333e+01	 4.999996e+00	 1.002804e+00
0	-6.833333e+01	 8.333327e+00	 1.002904e+00
0	-6.500000e+01	-8.333327e+00	 1.002014e+00
0	-6.500000e+01	-4.999996e+00	 1.002400e+00
0	-6.500000e+01	-1.666665e+00	 1.002691e+00
0	-6.500000e+01	 1.666665e+00	 1.002886e+00
0	-6.500000e+01	 4.999996e+00	 1.002985e+00
0	-6.500000e+01	 8.333327e+00	 1.002988e+00
0	-6.166666e+01	-8.333327e+00	 1.002320e+00
0	-6.166666e+01	-4.999996e+00	 1.002696e+00
0	-6.166666e+01	-1.666665e+00	 1.002943e+00
0	-6.166666e+01	 1.666665e+00	 1.003061e+00
0	-6.166666e+01	 4.999996e+00	 1.003050e+00
0	-6.166666e+01	 8.333327e+00	 1.002909e+00
0	-5.833333e+01	-8.333327e+00	 1.002698e+00
0	-5.833333e+01	-4.999996e+00	 1.003016e+00
0	-5.833333e+01	-1.666665e+00	 1.003172e+00
0	-5.833333e+01	 1.666665e+00	 1.003166e+00
0	-5.833333e+01	 4.999996e+00	 1.002998e+00
0	-5.833333e+01	 8.333327e+00	 1.002667e+00
0	-7.500000e+01	 8.333327e+00	 1.002247e+00
0	-7.500000e+01	 1.166666e+01	 1.002279e+00
0	-7.500000e+01	 1.500000e+01	 1.002318e+00
0	-7.500000e+01	 1.833333e+01	 1.002363e+00
0	-7.500000e+01	 2.166667e+01	 1.002414e+00
0	-7.500000e+01	 2.500000e+01	 1.002472e+00
0	-7.166667e+01	 8.333327e+00	 1.002657e+00
0	-7.166667e+01	 1.166666e+01	 1.002616e+00
0	-7.166667e+01	 1.500000e+01	 1.002590e+00
0	-7.166667e+01	 1.833333e+01	 1.002580e+00
0	-7.166667e+01	 2.166667e+01	 1.002586e+00
0	-7.166667e+01	 2.500000e+01	 1.002607e+00
0	-6.833333e+01	 8.333327e+00	 1.002904e+00
0	-6.833333e+01	 1.166666e+01	 1.002851e+00
0	-6.833333e+01	 1.500000e+01	 1.002822e+00
0	-6.833333e+01	 1.833333e+01	 1.002819e+00
0	-6.833333e+01	 2.166667e+01	 1.002840e+00
0	-6.833333e+01	 2.500000e+01	 1.002886e+00
0	-6.500000e+01	 8.333327e+00	 1.002988e+00
0	-6.500000e+01	 1.166666e+01	 1.002984e+00
0	-6.500000e+01	 1.500000e+01	 1.003014e+00
0	-6.500000e+01	 1.833333e+01	 1.003079e+00
0	-6.500000e+01	 2.166667e+01	 1.003177e+00
0	-6.500000e+01	 2.500000e+01	 1.003310e+00
0	-6.166666e+01	 8.333327e+00	 1.002909e+00
0	-6.166666e+01	 1.166666e+01	 1.003016e+00
0	-6.166666e+01	 1.500000e+01	 1.003166e+00
0	-6.166666e+01	 1.833333e+01	 1.003360e+00
0	-6.166666e+01	 2.166667e+01	 1.003598e+00
0	-6.166666e+01	 2.500000e+01	 1.003878e+00
0	-5.833333e+01	 8.333327e+00	 1.002667e+00
0	-5.833333e+01	 1.166666e+01	 1.002947e+00
0	-5.833333e+01	 1.500000e+01	 1.003279e+00
0	-5.833333e+01	 1.833333e+01	 1.003663e+00
0	-5.833333e+01	 2.166667e+01	 1.004101e+00
0	-5.833333e+01	 2.500000e+01	 1.004591e+00
0	-7.500000e+01	 2.500000e+01	 1.002472e+00
0	-7.500000e+01	 2.833333e+01	 1.002436e+00
0	-7.500000e+01	 3.166667e+01	 1.002413e+00
0	-7.500000e+01	 3.500000e+01	 1.002402e+00
0	-7.500000e+01	 3.833334e+01	 1.002404e+00
0	-7.500000e+01	 4.166667e+01	 1.002419e+00
0	-7.166667e+01	 2.500000e+01	 1.002607e+00
0	-7.166667e+01	 2.833333e+01	 1.002545e+00
0	-7.166667e+01	 3.166667e+01	 1.002515e+00
0	-7.166667e+01	 3.500000e+01	 1.002514e+00
0	-7.166667e+01	 3.833334e+01	 1.002545e+00
0	-7.166667e+01	 4.166667e+01	 1.002606e+00
0	-6.833333e+01	 2.500000e+01	 1.002886e+00
0	-6.833333e+01	 2.833333e+01	 1.002758e+00
0	-6.833333e+01	 3.166667e+01	 1.002678e+00
0	-6.833333e+01	 3.500000e+01	 1.002646e+00
0	-6.833333e+01	 3.833334e+01	 1.002663e+00
0	-6.833333e+01	 4.166667e+01	 1.002729e+00
0	-6.500000e+01	 2.500000e+01	 1.003310e+00
0	-6.500000e+01	 2.833333e+01	 1.003073e+00
0	-6.500000e+01	 3.166667e+01	 1.002902e+00
0	-6.500000e+01	 3.500000e+01	 1.002797e+00
0	-6.500000e+01	 3.833334e+01	 1.002759e+00
0	-6.500000e+01	 4.166667e+01	 1.002788e+00
0	-6.166666e+01	 2.500000e+01	 1.003878e+00
0	-6.166666e+01	 2.833333e+01	 1.003490e+00
0	-6.166666e+01	 3.166667e+01	 1.003187e+00
0	-6.166666e+01	 3.500000e+01	 1.002968e+00
0	-6.166666e+01	 3.833334e+01	 1.002833e+00
0	-6.166666e+01	 4.166667e+01	 1.002782e+00
0	-5.833333e+01	 2.500000e+01	 1.004591e+00
0	-5.833333e+01	 2.833333e+01	 1.004011e+00
0	-5.833333e+01	 3.166667e+01	 1.003533e+00
0	-5.833333e+01	 3.500000e+01	 1.003157e+00
0	-5.833333e+01	 3.833334e+01	 1.002884e+00
0	-5.833333e+01	 4.166667e+01	 1.002713e+00
0	-7.500000e+01	 4.166667e+01	 1.002419e+00
0	-7.500000e+01	 4.500000e+01	 1.002164e+00
0	-7.500000e+01	 4.833333e+01	 1.001940e+00
0	-7.500000e+01	 5.166667e+01	 1.001745e+00
0	-7.500000e+01	 5.500000e+01	 1.001580e+00
0	-7.500000e+01	 5.833333e+01	 1.001445e+00
0	-7.166667e+01	 4.166667e+01	 1.002606e+00
0	-7.166667e+01	 4.500000e+01	 1.002335e+00
0	-7.166667e+01	 4.833333e+01	 1.002082e+00
0	-7.166667e+01	 5.166667e+01	 1.001845e+00
0	-7.166667e+01	 5.500000e+01	 1.001626e+00
0	-7.166667e+01	 5.833333e+01	 1.001424e+00
0	-6.833333e+01	 4.166667e+01	 1.002729e+00
0	-6.833333e+01	 4.500000e+01	 1.002462e+00
0	-6.833333e+01	 4.833333e+01	 1.002200e+00
0	-6.833333e+01	 5.166667e+01	 1.001942e+00
0	-6.833333e+01	 5.500000e+01	 1.001688e+00
0	-6.833333e+01	 5.833333e+01	 1.001439e+00
0	-6.500000e+01	 4.166667e+01	 1.002788e+00
0	-6.500000e+01	 4.500000e+01	 1.002545e+00
0	-6.500000e+01	 4.833333e+01	 1.002293e+00
0	-6.500000e+01	 5.166667e+01	 1.002034e+00
0	-6.500000e+01	 5.500000e+01	 1.001766e+00
0	-6.500000e+01	 5.833333e+01	 1.001489e+00
0	-6.166666e+01	 4.166667e+01	 1.002782e+00
0	-6.166666e+01	 4.500000e+01	 1.002583e+00
0	-6.166666e+01	 4.833333e+01	 1.002363e+00
0	-6.166666e+01	 5.166667e+01	 1.002122e+00
0	-6.166666e+01	 5.500000e+01	 1.001859e+00
0	-6.166666e+01	 5.833333e+01	 1.001576e+00
0	-5.833333e+01	 4.166667e+01	 1.002713e+00
0	-5.833333e+01	 4.500000e+01	 1.002578e+00
0	-5.833333e+01	 4.833333e+01	 1.002409e+00
0	-5.833333e+01	 5.166667e+01	 1.002206e+00
0	-5.833333e+01	 5.500000e+01	 1.001969e+00
0	-5.833333e+01	 5.833333e+01	 1.001698e+00
0	-7.500000e+01	 5.833333e+01	 1.001445e+00
0	-7.500000e+01	 6.166666e+01	 1.001370e+00
0	-7.500000e+01	 6.500000e+01	 1.001285e+00
0	-7.500000e+01	 6.833333e+01	 1.001189e+00
0	-7.500000e+01	 7.166667e+01	 1.001083e+00
0	-7.500000e+01	 7.500000e+01	 1.000967e+00
0	-7.166667e+01	 5.833333e+01	 1.001424e+00
0	-7.166667e+01	 6.166666e+01	 1.001349e+00
0	-7.166667e+01	 6.500000e+01	 1.001270e+00
0	-7.166667e+01	 6.833333e+01	 1.001187e+00
0	-7.166667e+01	 7.166667e+01	 1.001102e+00
0	-7.166667e+01	 7.500000e+01	 1.001013e+00
0	-6.833333e+01	 5.833333e+01	 1.001439e+00
0	-6.833333e+01	 6.166666e+01	 1.001339e+00
0	-6.833333e+01	 6.500000e+01	 1.001242e+00
0	-6.833333e+01	 6.833333e+01	 1.001149e+00
0	-6.833333e+01	 7.166667e+01	 1.001060e+00
0	-6.833333e+01	 7.500000e+01	 1.000974e+00
0	-6.500000e+01	 5.833333e+01	 1.001489e+00
0	-6.500000e+01	 6.166666e+01	 1.001340e+00
0	-6.500000e+01	 6.500000e+01	 1.001202e+00
0	-6.500000e+01	 6.833333e+01	 1.001074e+00
0	-6.500000e+01	 7.166667e+01	 1.000956e+00
0	-6.500000e+01	 7.500000e+01	 1.000850e+00
0	-6.166666e+01	 5.833333e+01	 1.001576e+00
0	-6.166666e+01	 6.166666e+01	 1.001354e+00
0	-6.166666e+01	 6.500000e+01	 1.001149e+00
0	-6.166666e+01	 6.833333e+01	 1.000962e+00
0	-6.166666e+01	 7.166667e+01	 1.000792e+00
0	-6.166666e+01	 7.500000e+01	 1.000640e+00
0	-5.833333e+01	 5.833333e+01	 1.001698e+00
0	-5.833333e+01	 6.166666e+01	 1.001378e+00
0	-5.833333e+01	 6.500000e+01	 1.001083e+00
0	-5.833333e+01	 6.833333e+01	 1.000813e+00
0	-5.833333e+01	 7.166667e+01	 1.000566e+00
0	-5.833333e+01	 7.500000e+01	 1.000345e+00
0	-7.500000e+01	 7.500000e+01	 1.000967e+00
0	-7.500000e+01	 7.833333e+01	 1.000832e+00
0	-7.500000e+01	 8.166667e+01	 1.000702e+00
0	-7.500000e+01	 8.500000e+01	 1.000579e+00
0	-7.500000e+01	 8.833334e+01	 1.000462e+00
0	-7.500000e+01	 9.166667e+01	 1.000351e+00
0	-7.166667e+01	 7.500000e+01	 1.001013e+00
0	-7.166667e+01	 7.833333e+01	 1.000876e+00
0	-7.166667e+01	 8.166667e+01	 1.000737e+00
0	-7.166667e+01	 8.500000e+01	 1.000597e+00
0	-7.166667e+01	 8.833334e+01	 1.000456e+00
0	-7.166667e+01	 9.166667e+01	 1.000314e+00
0	-6.833333e+01	 7.500000e+01	 1.000974e+00
0	-6.833333e+01	 7.833333e+01	 1.000853e+00
0	-6.833333e+01	 8.166667e+01	 1.000724e+00
0	-6.833333e+01	 8.500000e+01	 1.000587e+00
0	-6.833333e+01	 8.833334e+01	 1.000441e+00
0	-6.833333e+01	 9.166667e+01	 1.000287e+00
0	-6.500000e+01	 7.500000e+01	 1.000850e+00
0	-6.500000e+01	 7.833333e+01	 1.000765e+00
0	-6.500000e+01	 8.166667e+01	 1.000664e+00
0	-6.500000e+01	 8.500000e+01	 1.000548e+00
0	-6.500000e+01	 8.833334e+01	 1.000417e+00
0	-6.500000e+01	 9.166667e+01	 1.000270e+00
0	-6.166666e+01	 7.500000e+01	 1.000640e+00
0	-6.166666e+01	 7.833333e+01	 1.000610e+00
0	-6.166666e+01	 8.166667e+01	 1.000557e+00
0	-6.166666e+01	 8.500000e+01	 1.000482e+00
0	-6.166666e+01	 8.833334e+01	 1.000384e+00
0	-6.166666e+01	 9.166667e+01	 1.000263e+00
0	-5.833333e+01	 7.500000e+01	 1.000345e+00
0	-5.833333e+01	 7.833333e+01	 1.000389e+00
0	-5.833333e+01	 8.166667e+01	 1.000403e+00
0	-5.833333e+01	 8.500000e+01	 1.000387e+00
0	-5.833333e+01	 8.833334e+01	 1.000341e+00
0	-5.833333e+01	 9.166667e+01	 1.000265e+00
0	-7.500000e+01	 9.166667e+01	 1.000351e+00
0	-7.500000e+01	 9.500000e+01	 1.000327e+00
0	-7.500000e+01	 9.833333e+01	 1.000290e+00
0	-7.500000e+01	 1.016667e+02	 1.000242e+00
0	-7.500000e+01	 1.050000e+02	 1.000181e+00
0	-7.500000e+01	 1.083333e+02	 1.000109e+00
0	-7.166667e+01	 9.166667e+01	 1.000314e+00
0	-7.166667e+01	 9.500000e+01	 1.000292e+00
0	-7.166667e+01	 9.833333e+01	 1.000262e+00
0	-7.166667e+01	 1.016667e+02	 1.000225e+00
0	-7.166667e+01	 1.050000e+02	 1.000179e+00
0	-7.166667e+01	 1.083333e+02	 1.000126e+00
0	-6.833333e+01	 9.166667e+01	 1.000287e+00
0	-6.833333e+01	 9.500000e+01	 1.000262e+00
0	-6.833333e+01	 9.833333e+01	 1.000233e+00
0	-6.833333e+01	 1.016667e+02	 1.000200e+00
0	-6.833333e+01	 1.050000e+02	 1.000164e+00
0	-6.833333e+01	 1.083333e+02	 1.000124e+00
0	-6.500000e+01	 9.166667e+01	 1.000270e+00
0	-6.500000e+01	 9.500000e+01	 1.000235e+00
0	-6.500000e+01	 9.833333e+01	 1.000201e+00
0	-6.500000e+01	 1.016667e+02	 1.000168e+00
0	-6.500000e+01	 1.050000e+02	 1.000135e+00
0	-6.500000e+01	 1.083333e+02	 1.000103e+00
0	-6.166666e+01	 9.166667e+01	 1.000263e+00
0	-6.166666e+01	 9.500000e+01	 1.000213e+00
0	-6.166666e+01	 9.833333e+01	 1.000168e+00
0	-6.166666e+01	 1.016667e+02	 1.000128e+00
0	-6.166666e+01	 1.050000e+02	 1.000093e+00
0	-6.166666e+01	 1.083333e+02	 1.000063e+00
0	-5.833333e+01	 9.166667e+01	 1.000265e+00
0	-5.833333e+01	 9.500000e+01	 1.000195e+00
0	-5.833333e+01	 9.833333e+01	 1.000133e+00
0	-5.833333e+01	 1.016667e+02	 1.000081e+00
0	-5.833333e+01	 1.050000e+02	 1.000038e+00
0	-5.833333e+01	 1.083333e+02	 1.000004e+00
0	-7.500000e+01	 1.083333e+02	 1.000109e+00
0	-7.500000e+01	 1.116667e+02	 1.000086e+00
0	-7.500000e+01	 1.150000e+02	 1.000058e+00
0	-7.500000e+01	 1.183333e+02	 1.000024e+00
0	-7.500000e+01	 1.216667e+02	 9.999862e-01
0	-7.500000e+01	 1.250000e+02	 9.999427e-01
0	-7.166667e+01	 1.083333e+02	 1.000126e+00
0	-7.166667e+01	 1.116667e+02	 1.000102e+00
0	-7.166667e+01	 1.150000e+02	 1.000072e+00
0	-7.166667e+01	 1.183333e+02	 1.000034e+00
0	-7.166667e+01	 1.216667e+02	 9.999893e-01
0	-7.166667e+01	 1.250000e+02	 9.999378e-01
0	-6.833333e+01	 1.083333e+02	 1.000124e+00
0	-6.833333e+01	 1.116667e+02	 1.000104e+00
0	-6.833333e+01	 1.150000e+02	 1.000076e+00
0	-6.833333e+01	 1.183333e+02	 1.000039e+00
0	-6.833333e+01	 1.216667e+02	 9.999925e-01
0	-6.833333e+01	 1.250000e+02	 9.999378e-01
0	-6.500000e+01	 1.083333e+02	 1.000103e+00
0	-6.500000e+01	 1.116667e+02	 1.000092e+00
0	-6.500000e+01	 1.150000e+02	 1.000071e+00
0	-6.500000e+01	 1.183333e+02	 1.000038e+00
0	-6.500000e+01	 1.216667e+02	 9.999958e-01
0	-6.500000e+01	 1.250000e+02	 9.999427e-01
0	-6.166666e+01	 1.083333e+02	 1.000063e+00
0	-6.166666e+01	 1.116667e+02	 1.000066e+00
0	-6.166666e+01	 1.150000e+02	 1.000056e+00
0	-6.166666e+01	 1.183333e+02	 1.000034e+00
0	-6.166666e+01	 1.216667e+02	 9.999991e-01
0	-6.166666e+01	 1.250000e+02	 9.999525e-01
0	-5.833333e+01	 1.083333e+02	 1.000004e+00
0	-5.833333e+01	 1.116667e+02	 1.000024e+00
0	-5.833333e+01	 1.150000e+02	 1.000031e+00
0	-5.833333e+01	 1.183333e+02	 1.000024e+00
0	-5.833333e+01	 1.216667e+02	 1.000003e+00
0	-5.833333e+01	 1.250000e+02	 9.999672e-01
0	-5.833333e+01	-1.250000e+02	 9.998950e-01
0	-5.833333e+01	-1.216667e+02	 9.999902e-01
0	-5.833333e+01	-1.183333e+02	 1.000060e+00
0	-5.833333e+01	-1.150000e+02	 1.000104e+00
0	-5.833333e+01	-1.116667e+02	 1.000122e+00
0	-5.833333e+01	-1.083333e+02	 1.000115e+00
0	-5.500000e+01	-1.250000e+02	 9.999396e-01
0	-5.500000e+01	-1.216667e+02	 1.000015e+00
0	-5.500000e+01	-1.183333e+02	 1.000069e+00
0	-5.500000e+01	-1.150000e+02	 1.000103e+00
0	-5.500000e+01	-1.116667e+02	 1.000115e+00
0	-5.500000e+01	-1.083333e+02	 1.000107e+00
0	-5.166667e+01	-1.250000e+02	 9.999672e-01
0	-5.166667e+01	-1.216667e+02	 1.000027e+00
0	-5.166667e+01	-1.183333e+02	 1.000071e+00
0	-5.166667e+01	-1.150000e+02	 1.000098e+00
0	-5.166667e+01	-1.116667e+02	 1.000109e+00
0	-5.166667e+01	-1.083333e+02	 1.000103e+00
0	-4.833333e+01	-1.250000e+02	 9.999778e-01
0	-4.833333e+01	-1.216667e+02	 1.000026e+00
0	-4.833333e+01	-1.183333e+02	 1.000063e+00
0	-4.833333e+01	-1.150000e+02	 1.000089e+00
0	-4.833333e+01	-1.116667e+02	 1.000102e+00
0	-4.833333e+01	-1.083333e+02	 1.000104e+00
0	-4.500000e+01	-1.250000e+02	 9.999713e-01
0	-4.500000e+01	-1.216667e+02	 1.000013e+00
0	-4.500000e+01	-1.183333e+02	 1.000048e+00
0	-4.500000e+01	-1.150000e+02	 1.000075e+00
0	-4.500000e+01	-1.116667e+02	 1.000096e+00
0	-4.500000e+01	-1.083333e+02	 1.000109e+00
0	-4.166667e+01	-1.250000e+02	 9.999478e-01
0	-4.166667e+01	-1.216667e+02	 9.999870e-01
0	-4.166667e+01	-1.183333e+02	 1.000024e+00
0	-4.166667e+01	-1.150000e+02	 1.000058e+00
0	-4.166667e+01	-1.116667e+02	 1.000090e+00
0	-4.166667e+01	-1.083333e+02	 1.000120e+00
0	-5.833333e+01	-1.083333e+02	 1.000115e+00
0	-5.833333e+01	-1.050000e+02	 1.000227e+00
0	-5.833333e+01	-1.016667e+02	 1.000343e+00
0	-5.833333e+01	-9.833333e+01	 1.000463e+00
0	-5.833333e+01	-9.500000e+01	 1.000587e+00
0	-5.833333e+01	-9.166667e+01	 1.000715e+00
0	-5.500000e+01	-1.083333e+02	 1.000107e+00
0	-5.500000e+01	-1.050000e+02	 1.000241e+00
0	-5.500000e+01	-1.016667e+02	 1.000373e+00
0	-5.500000e+01	-9.833333e+01	 1.000505e+00
0	-5.500000e+01	-9.500000e+01	 1.000635e+00
0	-5.500000e+01	-9.166667e+01	 1.000764e+00
0	-5.166667e+01	-1.083333e+02	 1.000103e+00
0	-5.166667e+01	-1.050000e+02	 1.000245e+00
0	-5.166667e+01	-1.016667e+02	 1.000380e+00
0	-5.166667e+01	-9.833333e+01	 1.000509e+00
0	-5.166667e+01	-9.500000e+01	 1.000632e+00
0	-5.166667e+01	-9.166667e+01	 1.000748e+00
0	-4.833333e+01	-1.083333e+02	 1.000104e+00
0	-4.833333e+01	-1.050000e+02	 1.000240e+00
0	-4.833333e+01	-1.016667e+02	 1.000364e+00
0	-4.833333e+01	-9.833333e+01	 1.000477e+00
0	-4.833333e+01	-9.500000e+01	 1.000578e+00
0	-4.833333e+01	-9.166667e+01	 1.000667e+00
0	-4.500000e+01	-1.083333e+02	 1.000109e+00
0	-4.500000e+01	-1.050000e+02	 1.000226e+00
0	-4.500000e+01	-1.016667e+02	 1.000325e+00
0	-4.500000e+01	-9.833333e+01	 1.000407e+00
0	-4.500000e+01	-9.500000e+01	 1.000473e+00
0	-4.500000e+01	-9.166667e+01	 1.000522e+00
0	-4.166667e+01	-1.083333e+02	 1.000120e+00
0	-4.166667e+01	-1.050000e+02	 1.000202e+00
0	-4.166667e+01	-1.016667e+02	 1.000263e+00
0	-4.166667e+01	-9.833333e+01	 1.000301e+00
0	-4.166667e+01	-9.500000e+01	 1.000317e+00
0	-4.166667e+01	-9.166667e+01	 1.000311e+00
0	-5.833333e+01	-9.166667e+01	 1.000715e+00
0	-5.833333e+01	-8.833334e+01	 1.000860e+00
0	-5.833333e+01	-8.500000e+01	 1.000982e+00
0	-5.833333e+01	-8.166667e+01	 1.001079e+00
0	-5.833333e+01	-7.833333e+01	 1.001152e+00
0	-5.833333e+01	-7.500000e+01	 1.001201e+00
0	-5.500000e+01	-9.166667e+01	 1.000764e+00
0	-5.500000e+01	-8.833334e+01	 1.000869e+00
0	-5.500000e+01	-8.500000e+01	 1.000962e+00
0	-5.500000e+01	-8.166667e+01	 1.001042e+00
0	-5.500000e+01	-7.833333e+01	 1.001108e+00
0	-5.500000e+01	-7.500000e+01	 1.001161e+00
0	-5.166667e+01	-9.166667e+01	 1.000748e+00
0	-5.166667e+01	-8.833334e+01	 1.000833e+00
0	-5.166667e+01	-8.500000e+01	 1.000917e+00
0	-5.166667e+01	-8.166667e+01	 1.000998e+00
0	-5.166667e+01	-7.833333e+01	 1.001078e+00
0	-5.166667e+01	-7.500000e+01	 1.001155e+00
0	-4.833333e+01	-9.166667e+01	 1.000667e+00
0	-4.833333e+01	-8.833334e+01	 1.000752e+00
0	-4.833333e+01	-8.500000e+01	 1.000846e+00
0	-4.833333e+01	-8.166667e+01	 1.000949e+00
0	-4.833333e+01	-7.833333e+01	 1.001061e+00
0	-4.833333e+01	-7.500000e+01	 1.001182e+00
0	-4.500000e+01	-9.166667e+01	 1.000522e+00
0	-4.500000e+01	-8.833334e+01	 1.000626e+00
0	-4.500000e+01	-8.500000e+01	 1.000750e+00
0	-4.500000e+01	-8.166667e+01	 1.000894e+00
0	-4.500000e+01	-7.833333e+01	 1.001059e+00
0	-4.500000e+01	-7.500000e+01	 1.001243e+00
0	-4.166667e+01	-9.166667e+01	 1.000311e+00
0	-4.166667e+01	-8.833334e+01	 1.000454e+00
0	-4.166667e+01	-8.500000e+01	 1.000629e+00
0	-4.166667e+01	-8.166667e+01	 1.000834e+00
0	-4.166667e+01	-7.833333e+01	 1.001070e+00
0	-4.166667e+01	-7.500000e+01	 1.001337e+00
0	-5.833333e+01	-7.500000e+01	 1.001201e+00
0	-5.833333e+01	-7.166667e+01	 1.001422e+00
0	-5.833333e+01	-6.833333e+01	 1.001683e+00
0	-5.833333e+01	-6.500000e+01	 1.001985e+00
0	-5.833333e+01	-6.166666e+01	 1.002327e+00
0	-5.833333e+01	-5.833333e+01	 1.002709e+00
0	-5.500000e+01	-7.500000e+01	 1.001161e+00
0	-5.500000e+01	-7.166667e+01	 1.001497e+00
0	-5.500000e+01	-6.833333e+01	 1.001848e+00
0	-5.500000e+01	-6.500000e+01	 1.002213e+00
0	-5.500000e+01	-6.166666e+01	 1.002593e+00
0	-5.500000e+01	-5.833333e+01	 1.002987e+00
0	-5.166667e+01	-7.500000e+01	 1.001155e+00
0	-5.166667e+01	-7.166667e+01	 1.001545e+00
0	-5.166667e+01	-6.833333e+01	 1.001923e+00
0	-5.166667e+01	-6.500000e+01	 1.002291e+00
0	-5.166667e+01	-6.166666e+01	 1.002647e+00
0	-5.166667e+01	-5.833333e+01	 1.002992e+00
0	-4.833333e+01	-7.500000e+01	 1.001182e+00
0	-4.833333e+01	-7.166667e+01	 1.001564e+00
0	-4.833333e+01	-6.833333e+01	 1.001910e+00
0	-4.833333e+01	-6.500000e+01	 1.002218e+00
0	-4.833333e+01	-6.166666e+01	 1.002490e+00
0	-4.833333e+01	-5.833333e+01	 1.002725e+00
0	-4.500000e+01	-7.500000e+01	 1.001243e+00
0	-4.500000e+01	-7.166667e+01	 1.001556e+00
0	-4.500000e+01	-6.833333e+01	 1.001807e+00
0	-4.500000e+01	-6.500000e+01	 1.001996e+00
0	-4.500000e+01	-6.166666e+01	 1.002122e+00
0	-4.500000e+01	-5.833333e+01	 1.002185e+00
0	-4.166667e+01	-7.500000e+01	 1.001337e+00
0	-4.166667e+01	-7.166667e+01	 1.001521e+00
0	-4.166667e+01	-6.833333e+01	 1.001616e+00
0	-4.166667e+01	-6.500000e+01	 1.001623e+00
0	-4.166667e+01	-6.166666e+01	 1.001542e+00
0	-4.166667e+01	-5.833333e+01	 1.001372e+00
0	-5.833333e+01	-5.833333e+01	 1.002709e+00
0	-5.833333e+01	-5.500000e+01	 1.002811e+00
0	-5.833333e+01	-5.166667e+01	 1.002900e+00
0	-5.833333e+01	-4.833333e+01	 1.002976e+00
0	-5.833333e+01	-4.500000e+01	 1.003040e+00
0	-5.833333e+01	-4.166667e+01	 1.003090e+00
0	-5.500000e+01	-5.833333e+01	 1.002987e+00
0	-5.500000e+01	-5.500000e+01	 1.003021e+00
0	-5.500000e+01	-5.166667e+01	 1.003074e+00
0	-5.500000e+01	-4.833333e+01	 1.003145e+00
0	-5.500000e+01	-4.500000e+01	 1.003236e+00
0	-5.500000e+01	-4.166667e+01	 1.003346e+00
0	-5.166667e+01	-5.833333e+01	 1.002992e+00
0	-5.166667e+01	-5.500000e+01	 1.003054e+00
0	-5.166667e+01	-5.166667e+01	 1.003166e+00
0	-5.166667e+01	-4.833333e+01	 1.003329e+00
0	-5.166667e+01	-4.500000e+01	 1.003543e+00
0	-5.166667e+01	-4.166667e+01	 1.003808e+00
0	-4.833333e+01	-5.833333e+01	 1.002725e+00
0	-4.833333e+01	-5.500000e+01	 1.002910e+00
0	-4.833333e+01	-5.166667e+01	 1.003178e+00
0	-4.833333e+01	-4.833333e+01	 1.003528e+00
0	-4.833333e+01	-4.500000e+01	 1.003961e+00
0	-4.833333e+01	-4.166667e+01	 1.004477e+00
0	-4.500000e+01	-5.833333e+01	 1.002185e+00
0	-4.500000e+01	-5.500000e+01	 1.002589e+00
0	-4.500000e+01	-5.166667e+01	 1.003108e+00
0	-4.500000e+01	-4.833333e+01	 1.003742e+00
0	-4.500000e+01	-4.500000e+01	 1.004490e+00
0	-4.500000e+01	-4.166667e+01	 1.005353e+00
0	-4.166667e+01	-5.833333e+01	 1.001372e+00
0	-4.166667e+01	-5.500000e+01	 1.002092e+00
0	-4.166667e+01	-5.166667e+01	 1.002958e+00
0	-4.166667e+01	-4.833333e+01	 1.003971e+00
0	-4.166667e+01	-4.500000e+01	 1.005130e+00
0	-4.166667e+01	-4.166667e+01	 1.006435e+00
0	-5.833333e+01	-4.166667e+01	 1.003090e+00
0	-5.833333e+01	-3.833334e+01	 1.003070e+00
0	-5.833333e+01	-3.500000e+01	 1.003078e+00
0	-5.833333e+01	-3.166667e+01	 1.003114e+00
0	-5.833333e+01	-2.833333e+01	 1.003179e+00
0	-5.833333e+01	-2.500000e+01	 1.003272e+00
0	-5.500000e+01	-4.166667e+01	 1.003346e+00
0	-5.500000e+01	-3.833334e+01	 1.003430e+00
0	-5.500000e+01	-3.500000e+01	 1.003562e+00
0	-5.500000e+01	-3.166667e+01	 1.003743e+00
0	-5.500000e+01	-2.833333e+01	 1.003973e+00
0	-5.500000e+01	-2.500000e+01	 1.004251e+00
0	-5.166667e+01	-4.166667e+01	 1.003808e+00
0	-5.166667e+01	-3.833334e+01	 1.003904e+00
0	-5.166667e+01	-3.500000e+01	 1.004068e+00
0	-5.166667e+01	-3.166667e+01	 1.004302e+00
0	-5.166667e+01	-2.833333e+01	 1.004604e+00
0	-5.166667e+01	-2.500000e+01	 1.004976e+00
0	-4.833333e+01	-4.166667e+01	 1.004477e+00
0	-4.833333e+01	-3.833334e+01	 1.004492e+00
0	-4.833333e+01	-3.500000e+01	 1.004597e+00
0	-4.833333e+01	-3.166667e+01	 1.004790e+00
0	-4.833333e+01	-2.833333e+01	 1.005073e+00
0	-4.833333e+01	-2.500000e+01	 1.005446e+00
0	-4.500000e+01	-4.166667e+01	 1.005353e+00
0	-4.500000e+01	-3.833334e+01	 1.005195e+00
0	-4.500000e+01	-3.500000e+01	 1.005147e+00
0	-4.500000e+01	-3.166667e+01	 1.005209e+00
0	-4.500000e+01	-2.833333e+01	 1.005380e+00
0	-4.500000e+01	-2.500000e+01	 1.005661e+00
0	-4.166667e+01	-4.166667e+01	 1.006435e+00
0	-4.166667e+01	-3.833334e+01	 1.006012e+00
0	-4.166667e+01	-3.500000e+01	 1.005720e+00
0	-4.166667e+01	-3.166667e+01	 1.005557e+00
0	-4.166667e+01	-2.833333e+01	 1.005524e+00
0	-4.166667e+01	-2.500000e+01	 1.005622e+00
0	-5.833333e+01	-2.500000e+01	 1.003272e+00
0	-5.833333e+01	-2.166667e+01	 1.003087e+00
0	-5.833333e+01	-1.833333e+01	 1.002936e+00
0	-5.833333e+01	-1.500000e+01	 1.002821e+00
0	-5.833333e+01	-1.166666e+01	 1.002742e+00
0	-5.833333e+01	-8.333327e+00	 1.002698e+00
0	-5.500000e+01	-2.500000e+01	 1.004251e+00
0	-5.500000e+01	-2.166667e+01	 1.004151e+00
0	-5.500000e+01	-1.833333e+01	 1.004011e+00
0	-5.500000e+01	-1.500000e+01	 1.003832e+00
0	-5.500000e+01	-1.166666e+01	 1.003612e+00
0	-5.500000e+01	-8.333327e+00	 1.003353e+00
0	-5.166667e+01	-2.500000e+01	 1.004976e+00
0	-5.166667e+01	-2.166667e+01	 1.004997e+00
0	-5.166667e+01	-1.833333e+01	 1.004902e+00
0	-5.166667e+01	-1.500000e+01	 1.004693e+00
0	-5.166667e+01	-1.166666e+01	 1.004369e+00
0	-5.166667e+01	-8.333327e+00	 1.003930e+00
0	-4.833333e+01	-2.500000e+01	 1.005446e+00
0	-4.833333e+01	-2.166667e+01	 1.005623e+00
0	-4.833333e+01	-1.833333e+01	 1.005610e+00
0	-4.833333e+01	-1.500000e+01	 1.005406e+00
0	-4.833333e+01	-1.166666e+01	 1.005013e+00
0	-4.833333e+01	-8.333327e+00	 1.004430e+00
0	-4.500000e+01	-2.500000e+01	 1.005661e+00
0	-4.500000e+01	-2.166667e+01	 1.006030e+00
0	-4.500000e+01	-1.833333e+01	 1.006133e+00
0	-4.500000e+01	-1.500000e+01	 1.005971e+00
0	-4.500000e+01	-1.166666e+01	 1.005544e+00
0	-4.500000e+01	-8.333327e+00	 1.004851e+00
0	-4.166667e+01	-2.500000e+01	 1.005622e+00
0	-4.166667e+01	-2.166667e+01	 1.006217e+00
0	-4.166667e+01	-1.833333e+01	 1.006472e+00
0	-4.166667e+01	-1.500000e+01	 1.006387e+00
0	-4.166667e+01	-1.166666e+01	 1.005961e+00
0	-4.166667e+01	-8.333327e+00	 1.005194e+00
0	-5.833333e+01	-8.333327e+00	 1.002698e+00
0	-5.833333e+01	-4.999996e+00	 1.003016e+00
0	-5.833333e+01	-1.666665e+00	 1.003172e+00
0	-5.833333e+01	 1.666665e+00	 1.003166e+00
0	-5.833333e+01	 4.999996e+00	 1.002998e+00
0	-5.833333e+01	 8.333327e+00	 1.002667e+00
0	-5.500000e+01	-8.333327e+00	 1.003353e+00
0	-5.500000e+01	-4.999996e+00	 1.003427e+00
0	-5.500000e+01	-1.666665e+00	 1.003378e+00
0	-5.500000e+01	 1.666665e+00	 1.003205e+00
0	-5.500000e+01	 4.999996e+00	 1.002910e+00
0	-5.500000e+01	 8.333327e+00	 1.002491e+00
0	-5.166667e+01	-8.333327e+00	 1.003930e+00
0	-5.166667e+01	-4.999996e+00	 1.003954e+00
0	-5.166667e+01	-1.666665e+00	 1.003894e+00
0	-5.166667e+01	 1.666665e+00	 1.003750e+00
0	-5.166667e+01	 4.999996e+00	 1.003521e+00
0	-5.166667e+01	 8.333327e+00	 1.003209e+00
0	-4.833333e+01	-8.333327e+00	 1.004430e+00
0	-4.833333e+01	-4.999996e+00	 1.004598e+00
0	-4.833333e+01	-1.666665e+00	 1.004721e+00
0	-4.833333e+01	 1.666665e+00	 1.004800e+00
0	-4.833333e+01	 4.999996e+00	 1.004833e+00
0	-4.833333e+01	 8.333327e+00	 1.004822e+00
0	-4.500000e+01	-8.333327e+00	 1.004851e+00
0	-4.500000e+01	-4.999996e+00	 1.005358e+00
0	-4.500000e+01	-1.666665e+00	 1.005860e+00
0	-4.500000e+01	 1.666665e+00	 1.006356e+00
0	-4.500000e+01	 4.999996e+00	 1.006846e+00
0	-4.500000e+01	 8.333327e+00	 1.007330e+00
0	-4.166667e+01	-8.333327e+00	 1.005194e+00
0	-4.166667e+01	-4.999996e+00	 1.006235e+00
0	-4.166667e+01	-1.666665e+00	 1.007309e+00
0	-4.166667e+01	 1.666665e+00	 1.008417e+00
0	-4.166667e+01	 4.999996e+00	 1.009558e+00
0	-4.166667e+01	 8.333327e+00	 1.010732e+00
0	-5.833333e+01	 8.333327e+00	 1.002667e+00
0	-5.833333e+01	 1.166666e+01	 1.002947e+00
0	-5.833333e+01	 1.500000e+01	 1.003279e+00
0	-5.833333e+01	 1.833333e+01	 1.003663e+00
0	-5.833333e+01	 2.166667e+01	 1.004101e+00
0	-5.833333e+01	 2.500000e+01	 1.004591e+00
0	-5.500000e+01	 8.333327e+00	 1.002491e+00
0	-5.500000e+01	 1.166666e+01	 1.002928e+00
0	-5.500000e+01	 1.500000e+01	 1.003432e+00
0	-5.500000e+01	 1.833333e+01	 1.004001e+00
0	-5.500000e+01	 2.166667e+01	 1.004637e+00
0	-5.500000e+01	 2.500000e+01	 1.005339e+00
0	-5.166667e+01	 8.333327e+00	 1.003209e+00
0	-5.166667e+01	 1.166666e+01	 1.003581e+00
0	-5.166667e+01	 1.500000e+01	 1.004032e+00
0	-5.166667e+01	 1.833333e+01	 1.004563e+00
0	-5.166667e+01	 2.166667e+01	 1.005173e+00
0	-5.166667e+01	 2.500000e+01	 1.005863e+00
0	-4.833333e+01	 8.333327e+00	 1.004822e+00
0	-4.833333e+01	 1.166666e+01	 1.004904e+00
0	-4.833333e+01	 1.500000e+01	 1.005079e+00
0	-4.833333e+01	 1.833333e+01	 1.005348e+00
0	-4.833333e+01	 2.166667e+01	 1.005709e+00
0	-4.833333e+01	 2.500000e+01	 1.006163e+00
0	-4.500000e+01	 8.333327e+00	 1.007330e+00
0	-4.500000e+01	 1.166666e+01	 1.006899e+00
0	-4.500000e+01	 1.500000e+01	 1.006574e+00
0	-4.500000e+01	 1.833333e+01	 1.006356e+00
0	-4.500000e+01	 2.166667e+01	 1.006244e+00
0	-4.500000e+01	 2.500000e+01	 1.006239e+00
0	-4.166667e+01	 8.333327e+00	 1.010732e+00
0	-4.166667e+01	 1.166666e+01	 1.009564e+00
0	-4.166667e+01	 1.500000e+01	 1.008516e+00
0	-4.166667e+01	 1.833333e+01	 1.007588e+00
0	-4.166667e+01	 2.166667e+01	 1.006780e+00
0	-4.166667e+01	 2.500000e+01	 1.006092e+00
0	-5.833333e+01	 2.500000e+01	 1.004591e+00
0	-5.833333e+01	 2.833333e+01	 1.004011e+00
0	-5.833333e+01	 3.166667e+01	 1.003533e+00
0	-5.833333e+01	 3.500000e+01	 1.003157e+00
0	-5.833333e+01	 3.833334e+01	 1.002884e+00
0	-5.833333e+01	 4.166667e+01	 1.002713e+00
0	-5.500000e+01	 2.500000e+01	 1.005339e+00
0	-5.500000e+01	 2.833333e+01	 1.004640e+00
0	-5.500000e+01	 3.166667e+01	 1.004028e+00
0	-5.500000e+01	 3.500000e+01	 1.003501e+00
0	-5.500000e+01	 3.833334e+01	 1.003059e+00
0	-5.500000e+01	 4.166667e+01	 1.002704e+00
0	-5.166667e+01	 2.500000e+01	 1.005863e+00
0	-5.166667e+01	 2.833333e+01	 1.005099e+00
0	-5.166667e+01	 3.166667e+01	 1.004405e+00
0	-5.166667e+01	 3.500000e+01	 1.003780e+00
0	-5.166667e+01	 3.833334e+01	 1.003224e+00
0	-5.166667e+01	 4.166667e+01	 1.002737e+00
0	-4.833333e+01	 2.500000e+01	 1.006163e+00
0	-4.833333e+01	 2.833333e+01	 1.005388e+00
0	-4.833333e+01	 3.166667e+01	 1.004665e+00
0	-4.833333e+01	 3.500000e+01	 1.003995e+00
0	-4.833333e+01	 3.833334e+01	 1.003378e+00
0	-4.833333e+01	 4.166667e+01	 1.002813e+00
0	-4.500000e+01	 2.500000e+01	 1.006239e+00
0	-4.500000e+01	 2.833333e+01	 1.005506e+00
0	-4.500000e+01	 3.166667e+01	 1.004808e+00
0	-4.500000e+01	 3.500000e+01	 1.004146e+00
0	-4.500000e+01	 3.833334e+01	 1.003521e+00
0	-4.500000e+01	 4.166667e+01	 1.002931e+00
0	-4.166667e+01	 2.500000e+01	 1.006092e+00
0	-4.166667e+01	 2.833333e+01	 1.005453e+00
0	-4.166667e+01	 3.166667e+01	 1.004833e+00
0	-4.166667e+01	 3.500000e+01	 1.004234e+00
0	-4.166667e+01	 3.833334e+01	 1.003653e+00
0	-4.166667e+01	 4.166667e+01	 1.003092e+00
0	-5.833333e+01	 4.166667e+01	 1.002713e+00
0	-5.833333e+01	 4.500000e+01	 1.002578e+00
0	-5.833333e+01	 4.833333e+01	 1.002409e+00
0	-5.833333e+01	 5.166667e+01	 1.002206e+00
0	-5.833333e+01	 5.500000e+01	 1.001969e+00
0	-5.833333e+01	 5.833333e+01	 1.001698e+00
0	-5.500000e+01	 4.166667e+01	 1.002704e+00
0	-5.500000e+01	 4.500000e+01	 1.002539e+00
0	-5.500000e+01	 4.833333e+01	 1.002363e+00
0	-5.500000e+01	 5.166667e+01	 1.002177e+00
0	-5.500000e+01	 5.500000e+01	 1.001981e+00
0	-5.500000e+01	 5.833333e+01	 1.001774e+00
0	-5.166667e+01	 4.166667e+01	 1.002737e+00
0	-5.166667e+01	 4.500000e+01	 1.002473e+00
0	-5.166667e+01	 4.833333e+01	 1.002221e+00
0	-5.166667e+01	 5.166667e+01	 1.001983e+00
0	-5.166667e+01	 5.500000e+01	 1.001758e+00
0	-5.166667e+01	 5.833333e+01	 1.001546e+00
0	-4.833333e+01	 4.166667e+01	 1.002813e+00
0	-4.833333e+01	 4.500000e+01	 1.002380e+00
0	-4.833333e+01	 4.833333e+01	 1.001984e+00
0	-4.833333e+01	 5.166667e+01	 1.001624e+00
0	-4.833333e+01	 5.500000e+01	 1.001301e+00
0	-4.833333e+01	 5.833333e+01	 1.001014e+00
0	-4.500000e+01	 4.166667e+01	 1.002931e+00
0	-4.500000e+01	 4.500000e+01	 1.002261e+00
0	-4.500000e+01	 4.833333e+01	 1.001650e+00
0	-4.500000e+01	 5.166667e+01	 1.001100e+00
0	-4.500000e+01	 5.500000e+01	 1.000609e+00
0	-4.500000e+01	 5.833333e+01	 1.000178e+00
0	-4.166667e+01	 4.166667e+01	 1.003092e+00
0	-4.166667e+01	 4.500000e+01	 1.002114e+00
0	-4.166667e+01	 4.833333e+01	 1.001220e+00
0	-4.166667e+01	 5.166667e+01	 1.000410e+00
0	-4.166667e+01	 5.500000e+01	 9.996825e-01
0	-4.166667e+01	 5.833333e+01	 9.990384e-01
0	-5.833333e+01	 5.833333e+01	 1.001698e+00
0	-5.833333e+01	 6.166666e+01	 1.001378e+00
0	-5.833333e+01	 6.500000e+01	 1.001083e+00
0	-5.833333e+01	 6.833333e+01	 1.000813e+00
0	-5.833333e+01	 7.166667e+01	 1.000566e+00
0	-5.833333e+01	 7.500000e+01	 1.000345e+00
0	-5.500000e+01	 5.833333e+01	 1.001774e+00
0	-5.500000e+01	 6.166666e+01	 1.001457e+00
0	-5.500000e+01	 6.500000e+01	 1.001137e+00
0	-5.500000e+01	 6.833333e+01	 1.000815e+00
0	-5.500000e+01	 7.166667e+01	 1.000490e+00
0	-5.500000e+01	 7.500000e+01	 1.000162e+00
0	-5.166667e+01	 5.833333e+01	 1.001546e+00
0	-5.166667e+01	 6.166666e+01	 1.001301e+00
0	-5.166667e+01	 6.500000e+01	 1.001027e+00
0	-5.166667e+01	 6.833333e+01	 1.000723e+00
0	-5.166667e+01	 7.166667e+01	 1.000390e+00
0	-5.166667e+01	 7.500000e+01	 1.000026e+00
0	-4.833333e+01	 5.833333e+01	 1.001014e+00
0	-4.833333e+01	 6.166666e+01	 1.000912e+00
0	-4.833333e+01	 6.500000e+01	 1.000754e+00
0	-4.833333e+01	 6.833333e+01	 1.000539e+00
0	-4.833333e+01	 7.166667e+01	 1.000266e+00
0	-4.833333e+01	 7.500000e+01	 9.999373e-01
0	-4.500000e+01	 5.833333e+01	 1.000178e+00
0	-4.500000e+01	 6.166666e+01	 1.000289e+00
0	-4.500000e+01	 6.500000e+01	 1.000317e+00
0	-4.500000e+01	 6.833333e+01	 1.000260e+00
0	-4.500000e+01	 7.166667e+01	 1.000119e+00
0	-4.500000e+01	 7.500000e+01	 9.998948e-01
0	-4.166667e+01	 5.833333e+01	 9.990384e-01
0	-4.166667e+01	 6.166666e+01	 9.994328e-01
0	-4.166667e+01	 6.500000e+01	 9.997160e-01
0	-4.166667e+01	 6.833333e+01	 9.998882e-01
0	-4.166667e+01	 7.166667e+01	 9.999492e-01
0	-4.166667e+01	 7.500000e+01	 9.998991e-01
0	-5.833333e+01	 7.500000e+01	 1.000345e+00
0	-5.833333e+01	 7.833333e+01	 1.000389e+00
0	-5.833333e+01	 8.166667e+01	 1.000403e+00
0	-5.833333e+01	 8.500000e+01	 1.000387e+00
0	-5.833333e+01	 8.833334e+01	 1.000341e+00
0	-5.833333e+01	 9.166667e+01	 1.000265e+00
0	-5.500000e+01	 7.500000e+01	 1.000162e+00
0	-5.500000e+01	 7.833333e+01	 1.000213e+00
0	-5.500000e+01	 8.166667e+01	 1.000248e+00
0	-5.500000e+01	 8.500000e+01	 1.000265e+00
0	-5.500000e+01	 8.833334e+01	 1.000267e+00
0	-5.500000e+01	 9.166667e+01	 1.000252e+00
0	-5.166667e+01	 7.500000e+01	 1.000026e+00
0	-5.166667e+01	 7.833333e+01	 1.000062e+00
0	-5.166667e+01	 8.166667e+01	 1.000095e+00
0	-5.166667e+01	 8.500000e+01	 1.000125e+00
0	-5.166667e+01	 8.833334e+01	 1.000152e+00
0	-5.166667e+01	 9.166667e+01	 1.000176e+00
0	-4.833333e+01	 7.500000e+01	 9.999373e-01
0	-4.833333e+01	 7.833333e+01	 9.999367e-01
0	-4.833333e+01	 8.166667e+01	 9.999465e-01
0	-4.833333e+01	 8.500000e+01	 9.999668e-01
0	-4.833333e+01	 8.833334e+01	 9.999975e-01
0	-4.833333e+01	 9.166667e+01	 1.000039e+00
0	-4.500000e+01	 7.500000e+01	 9.998948e-01
0	-4.500000e+01	 7.833333e+01	 9.998359e-01
0	-4.500000e+01	 8.166667e+01	 9.998009e-01
0	-4.500000e+01	 8.500000e+01	 9.997897e-01
0	-4.500000e+01	 8.833334e+01	 9.998024e-01
0	-4.500000e+01	 9.166667e+01	 9.998389e-01
0	-4.166667e+01	 7.500000e+01	 9.998991e-01
0	-4.166667e+01	 7.833333e+01	 9.997601e-01
0	-4.166667e+01	 8.166667e+01	 9.996584e-01
0	-4.166667e+01	 8.500000e+01	 9.995940e-01
0	-4.166667e+01	 8.833334e+01	 9.995669e-01
0	-4.166667e+01	 9.166667e+01	 9.995773e-01
0	-5.833333e+01	 9.166667e+01	 1.000265e+00
0	-5.833333e+01	 9.500000e+01	 1.000195e+00
0	-5.833333e+01	 9.833333e+01	 1.000133e+00
0	-5.833333e+01	 1.016667e+02	 1.000081e+00
0	-5.833333e+01	 1.050000e+02	 1.000038e+00
0	-5.833333e+01	 1.083333e+02	 1.000004e+00
0	-5.500000e+01	 9.166667e+01	 1.000252e+00
0	-5.500000e+01	 9.500000e+01	 1.000188e+00
0	-5.500000e+01	 9.833333e+01	 1.000127e+00
0	-5.500000e+01	 1.016667e+02	 1.000070e+00
0	-5.500000e+01	 1.050000e+02	 1.000017e+00
0	-5.500000e+01	 1.083333e+02	 9.999669e-01
0	-5.166667e+01	 9.166667e+01	 1.000176e+00
0	-5.166667e+01	 9.500000e+01	 1.000134e+00
0	-5.166667e+01	 9.833333e+01	 1.000089e+00
0	-5.166667e+01	 1.016667e+02	 1.000043e+00
0	-5.166667e+01	 1.050000e+02	 9.999950e-01
0	-5.166667e+01	 1.083333e+02	 9.999450e-01
0	-4.833333e+01	 9.166667e+01	 1.000039e+00
0	-4.833333e+01	 9.500000e+01	 1.000033e+00
0	-4.833333e+01	 9.833333e+01	 1.000021e+00
0	-4.833333e+01	 1.016667e+02	 1.000000e+00
0	-4.833333e+01	 1.050000e+02	 9.999729e-01
0	-4.833333e+01	 1.083333e+02	 9.999379e-01
0	-4.500000e+01	 9.166667e+01	 9.998389e-01
0	-4.500000e+01	 9.500000e+01	 9.998861e-01
0	-4.500000e+01	 9.833333e+01	 9.999204e-01
0	-4.500000e+01	 1.016667e+02	 9.999417e-01
0	-4.500000e+01	 1.050000e+02	 9.999502e-01
0	-4.500000e+01	 1.083333e+02	 9.999457e-01
0	-4.166667e+01	 9.166667e+01	 9.995773e-01
0	-4.166667e+01	 9.500000e+01	 9.996923e-01
0	-4.166667e+01	 9.833333e+01	 9.997890e-01
0	-4.166667e+01	 1.016667e+02	 9.998672e-01
0	-4.166667e+01	 1.050000e+02	 9.999270e-01
0	-4.166667e+01	 1.083333e+02	 9.999683e-01
0	-5.833333e+01	 1.083333e+02	 1.000004e+00
0	-5.833333e+01	 1.116667e+02	 1.000024e+00
0	-5.833333e+01	 1.150000e+02	 1.000031e+00
0	-5.833333e+01	 1.183333e+02	 1.000024e+00
0	-5.833333e+01	 1.216667e+02	 1.000003e+00
0	-5.833333e+01	 1.250000e+02	 9.999672e-01
0	-5.500000e+01	 1.083333e+02	 9.999669e-01
0	-5.500000e+01	 1.116667e+02	 9.999890e-01
0	-5.500000e+01	 1.150000e+02	 1.000004e+00
0	-5.500000e+01	 1.183333e+02	 1.000012e+00
0	-5.500000e+01	 1.216667e+02	 1.000013e+00
0	-5.500000e+01	 1.250000e+02	 1.000006e+00
0	-5.166667e+01	 1.083333e+02	 9.999450e-01
0	-5.166667e+01	 1.116667e+02	 9.999634e-01
0	-5.166667e+01	 1.150000e+02	 9.999817e-01
0	-5.166667e+01	 1.183333e+02	 9.999997e-01
0	-5.166667e+01	 1.216667e+02	 1.000018e+00
0	-5.166667e+01	 1.250000e+02	 1.000035e+00
0	-4.833333e+01	 1.083333e+02	 9.999379e-01
0	-4.833333e+01	 1.116667e+02	 9.999477e-01
0	-4.833333e+01	 1.150000e+02	 9.999642e-01
0	-4.833333e+01	 1.183333e+02	 9.999875e-01
0	-4.833333e+01	 1.216667e+02	 1.000018e+00
0	-4.833333e+01	 1.250000e+02	 1.000054e+00
0	-4.500000e+01	 1.083333e+02	 9.999457e-01
0	-4.500000e+01	 1.116667e+02	 9.999418e-01
0	-4.500000e+01	 1.150000e+02	 9.999516e-01
0	-4.500000e+01	 1.183333e+02	 9.999752e-01
0	-4.500000e+01	 1.216667e+02	 1.000012e+00
0	-4.500000e+01	 1.250000e+02	 1.000063e+00
0	-4.166667e+01	 1.083333e+02	 9.999683e-01
0	-4.166667e+01	 1.116667e+02	 9.999458e-01
0	-4.166667e+01	 1.150000e+02	 9.999440e-01
0	-4.166667e+01	 1.183333e+02	 9.999627e-01
0	-4.166667e+01	 1.216667e+02	 1.000002e+00
0	-4.166667e+01	 1.250000e+02	 1.000062e+00
0	-4.166667e+01	-1.250000e+02	 9.999478e-01
0	-4.166667e+01	-1.216667e+02	 9.999870e-01
0	-4.166667e+01	-1.183333e+02	 1.000024e+00
0	-4.166667e+01	-1.150000e+02	 1.000058e+00
0	-4.166667e+01	-1.116667e+02	 1.000090e+00
0	-4.166667e+01	-1.083333e+02	 1.000120e+00
0	-3.833334e+01	-1.250000e+02	 9.999479e-01
0	-3.833334e+01	-1.216667e+02	 9.999908e-01
0	-3.833334e+01	-1.183333e+02	 1.000031e+00
0	-3.833334e+01	-1.150000e+02	 1.000067e+00
0	-3.833334e+01	-1.116667e+02	 1.000101e+00
0	-3.833334e+01	-1.083333e+02	 1.000131e+00
0	-3.500000e+01	-1.250000e+02	 9.999489e-01
0	-3.500000e+01	-1.216667e+02	 9.999925e-01
0	-3.500000e+01	-1.183333e+02	 1.000032e+00
0	-3.500000e+01	-1.150000e+02	 1.000068e+00
0	-3.500000e+01	-1.116667e+02	 1.000100e+00
0	-3.500000e+01	-1.083333e+02	 1.000128e+00
0	-3.166667e+01	-1.250000e+02	 9.999509e-01
0	-3.166667e+01	-1.216667e+02	 9.999921e-01
0	-3.166667e+01	-1.183333e+02	 1.000029e+00
0	-3.166667e+01	-1.150000e+02	 1.000061e+00
0	-3.166667e+01	-1.116667e+02	 1.000088e+00
0	-3.166667e+01	-1.083333e+02	 1.000111e+00
0	-2.833333e+01	-1.250000e+02	 9.999538e-01
0	-2.833333e+01	-1.216667e+02	 9.999897e-01
0	-2.833333e+01	-1.183333e+02	 1.000020e+00
0	-2.833333e+01	-1.150000e+02	 1.000045e+00
0	-2.833333e+01	-1.116667e+02	 1.000065e+00
0	-2.833333e+01	-1.083333e+02	 1.000079e+00
0	-2.500000e+01	-1.250000e+02	 9.999576e-01
0	-2.500000e+01	-1.216667e+02	 9.999851e-01
0	-2.500000e+01	-1.183333e+02	 1.000006e+00
0	-2.500000e+01	-1.150000e+02	 1.000022e+00
0	-2.500000e+01	-1.116667e+02	 1.000031e+00
0	-2.500000e+01	-1.083333e+02	 1.000034e+00
0	-4.166667e+01	-1.083333e+02	 1.000120e+00
0	-4.166667e+01	-1.050000e+02	 1.000202e+00
0	-4.166667e+01	-1.016667e+02	 1.000263e+00
0	-4.166667e+01	-9.833333e+01	 1.000301e+00
0	-4.166667e+01	-9.500000e+01	 1.000317e+00
0	-4.166667e+01	-9.166667e+01	 1.000311e+00
0	-3.833334e+01	-1.083333e+02	 1.000131e+00
0	-3.833334e+01	-1.050000e+02	 1.000164e+00
0	-3.833334e+01	-1.016667e+02	 1.000186e+00
0	-3.833334e+01	-9.833333e+01	 1.000195e+00
0	-3.833334e+01	-9.500000e+01	 1.000193e+00
0	-3.833334e+01	-9.166667e+01	 1.000180e+00
0	-3.500000e+01	-1.083333e+02	 1.000128e+00
0	-3.500000e+01	-1.050000e+02	 1.000116e+00
0	-3.500000e+01	-1.016667e+02	 1.000103e+00
0	-3.500000e+01	-9.833333e+01	 1.000088e+00
0	-3.500000e+01	-9.500000e+01	 1.000072e+00
0	-3.500000e+01	-9.166667e+01	 1.000055e+00
0	-3.166667e+01	-1.083333e+02	 1.000111e+00
0	-3.166667e+01	-1.050000e+02	 1.000058e+00
0	-3.166667e+01	-1.016667e+02	 1.000014e+00
0	-3.166667e+01	-9.833333e+01	 9.999790e-01
0	-3.166667e+01	-9.500000e+01	 9.999532e-01
0	-3.166667e+01	-9.166667e+01	 9.999365e-01
0	-2.833333e+01	-1.083333e+02	 1.000079e+00
0	-2.833333e+01	-1.050000e+02	 9.999896e-01
0	-2.833333e+01	-1.016667e+02	 9.999192e-01
0	-2.833333e+01	-9.833333e+01	 9.998683e-01
0	-2.833333e+01	-9.500000e+01	 9.998368e-01
0	-2.833333e+01	-9.166667e+01	 9.998248e-01
0	-2.500000e+01	-1.083333e+02	 1.000034e+00
0	-2.500000e+01	-1.050000e+02	 9.999113e-01
0	-2.500000e+01	-1.016667e+02	 9.998186e-01
0	-2.500000e+01	-9.833333e+01	 9.997558e-01
0	-2.500000e+01	-9.500000e+01	 9.997228e-01
0	-2.500000e+01	-9.166667e+01	 9.997196e-01
0	-4.166667e+01	-9.166667e+01	 1.000311e+00
0	-4.166667e+01	-8.833334e+01	 1.000454e+00
0	-4.166667e+01	-8.500000e+01	 1.000629e+00
0	-4.166667e+01	-8.166667e+01	 1.000834e+00
0	-4.166667e+01	-7.833333e+01	 1.001070e+00
0	-4.166667e+01	-7.500000e+01	 1.001337e+00
0	-3.833334e+01	-9.166667e+01	 1.000180e+00
0	-3.833334e+01	-8.833334e+01	 1.000398e+00
0	-3.833334e+01	-8.500000e+01	 1.000624e+00
0	-3.833334e+01	-8.166667e+01	 1.000856e+00
0	-3.833334e+01	-7.833333e+01	 1.001096e+00
0	-3.833334e+01	-7.500000e+01	 1.001344e+00
0	-3.500000e+01	-9.166667e+01	 1.000055e+00
0	-3.500000e+01	-8.833334e+01	 1.000318e+00
0	-3.500000e+01	-8.500000e+01	 1.000564e+00
0	-3.500000e+01	-8.166667e+01	 1.000793e+00
0	-3.500000e+01	-7.833333e+01	 1.001006e+00
0	-3.500000e+01	-7.500000e+01	 1.001203e+00
0	-3.166667e+01	-9.166667e+01	 9.999365e-01
0	-3.166667e+01	-8.833334e+01	 1.000213e+00
0	-3.166667e+01	-8.500000e+01	 1.000449e+00
0	-3.166667e+01	-8.166667e+01	 1.000644e+00
0	-3.166667e+01	-7.833333e+01	 1.000800e+00
0	-3.166667e+01	-7.500000e+01	 1.000914e+00
0	-2.833333e+01	-9.166667e+01	 9.998248e-01
0	-2.833333e+01	-8.833334e+01	 1.000084e+00
0	-2.833333e+01	-8.500000e+01	 1.000279e+00
0	-2.833333e+01	-8.166667e+01	 1.000410e+00
0	-2.833333e+01	-7.833333e+01	 1.000476e+00
0	-2.833333e+01	-7.500000e+01	 1.000479e+00
0	-2.500000e+01	-9.166667e+01	 9.997196e-01
0	-2.500000e+01	-8.833334e+01	 9.999308e-01
0	-2.500000e+01	-8.500000e+01	 1.000054e+00
0	-2.500000e+01	-8.166667e+01	 1.000089e+00
0	-2.500000e+01	-7.833333e+01	 1.000037e+00
0	-2.500000e+01	-7.500000e+01	 9.998960e-01
0	-4.166667e+01	-7.500000e+01	 1.001337e+00
0	-4.166667e+01	-7.166667e+01	 1.001521e+00
0	-4.166667e+01	-6.833333e+01	 1.001616e+00
0	-4.166667e+01	-6.500000e+01	 1.001623e+00
0	-4.166667e+01	-6.166666e+01	 1.001542e+00
0	-4.166667e+01	-5.833333e+01	 1.001372e+00
0	-3.833334e+01	-7.500000e+01	 1.001344e+00
0	-3.833334e+01	-7.166667e+01	 1.001318e+00
0	-3.833334e+01	-6.833333e+01	 1.001263e+00
0	-3.833334e+01	-6.500000e+01	 1.001179e+00
0	-3.833334e+01	-6.166666e+01	 1.001065e+00
0	-3.833334e+01	-5.833333e+01	 1.000922e+00
0	-3.500000e+01	-7.500000e+01	 1.001203e+00
0	-3.500000e+01	-7.166667e+01	 1.001018e+00
0	-3.500000e+01	-6.833333e+01	 1.000863e+00
0	-3.500000e+01	-6.500000e+01	 1.000737e+00
0	-3.500000e+01	-6.166666e+01	 1.000640e+00
0	-3.500000e+01	-5.833333e+01	 1.000572e+00
0	-3.166667e+01	-7.500000e+01	 1.000914e+00
0	-3.166667e+01	-7.166667e+01	 1.000621e+00
0	-3.166667e+01	-6.833333e+01	 1.000414e+00
0	-3.166667e+01	-6.500000e+01	 1.000296e+00
0	-3.166667e+01	-6.166666e+01	 1.000265e+00
0	-3.166667e+01	-5.833333e+01	 1.000322e+00
0	-2.833333e+01	-7.500000e+01	 1.000479e+00
0	-2.833333e+01	-7.166667e+01	 1.000125e+00
0	-2.833333e+01	-6.833333e+01	 9.999176e-01
0	-2.833333e+01	-6.500000e+01	 9.998566e-01
0	-2.833333e+01	-6.166666e+01	 9.999419e-01
0	-2.833333e+01	-5.833333e+01	 1.000174e+00
0	-2.500000e+01	-7.500000e+01	 9.998960e-01
0	-2.500000e+01	-7.166667e+01	 9.995319e-01
0	-2.500000e+01	-6.833333e+01	 9.993728e-01
0	-2.500000e+01	-6.500000e+01	 9.994187e-01
0	-2.500000e+01	-6.166666e+01	 9.996696e-01
0	-2.500000e+01	-5.833333e+01	 1.000126e+00
0	-4.166667e+01	-5.833333e+01	 1.001372e+00
0	-4.166667e+01	-5.500000e+01	 1.002092e+00
0	-4.166667e+01	-5.166667e+01	 1.002958e+00
0	-4.166667e+01	-4.833333e+01	 1.003971e+00
0	-4.166667e+01	-4.500000e+01	 1.005130e+00
0	-4.166667e+01	-4.166667e+01	 1.006435e+00
0	-3.833334e+01	-5.833333e+01	 1.000922e+00
0	-3.833334e+01	-5.500000e+01	 1.002122e+00
0	-3.833334e+01	-5.166667e+01	 1.003316e+00
0	-3.833334e+01	-4.833333e+01	 1.004503e+00
0	-3.833334e+01	-4.500000e+01	 1.005684e+00
0	-3.833334e+01	-4.166667e+01	 1.006859e+00
0	-3.500000e+01	-5.833333e+01	 1.000572e+00
0	-3.500000e+01	-5.500000e+01	 1.002059e+00
0	-3.500000e+01	-5.166667e+01	 1.003386e+00
0	-3.500000e+01	-4.833333e+01	 1.004555e+00
0	-3.500000e+01	-4.500000e+01	 1.005564e+00
0	-3.500000e+01	-4.166667e+01	 1.006414e+00
0	-3.166667e+01	-5.833333e+01	 1.000322e+00
0	-3.166667e+01	-5.500000e+01	 1.001902e+00
0	-3.166667e+01	-5.166667e+01	 1.003170e+00
0	-3.166667e+01	-4.833333e+01	 1.004125e+00
0	-3.166667e+01	-4.500000e+01	 1.004768e+00
0	-3.166667e+01	-4.166667e+01	 1.005100e+00
0	-2.833333e+01	-5.833333e+01	 1.000174e+00
0	-2.833333e+01	-5.500000e+01	 1.001652e+00
0	-2.833333e+01	-5.166667e+01	 1.002666e+00
0	-2.833333e+01	-4.833333e+01	 1.003215e+00
0	-2.833333e+01	-4.500000e+01	 1.003298e+00
0	-2.833333e+01	-4.166667e+01	 1.002917e+00
0	-2.500000e+01	-5.833333e+01	 1.000126e+00
0	-2.500000e+01	-5.500000e+01	 1.001309e+00
0	-2.500000e+01	-5.166667e+01	 1.001875e+00
0	-2.500000e+01	-4.833333e+01	 1.001823e+00
0	-2.500000e+01	-4.500000e+01	 1.001153e+00
0	-2.500000e+01	-4.166667e+01	 9.998657e-01
0	-4.166667e+01	-4.166667e+01	 1.006435e+00
0	-4.166667e+01	-3.833334e+01	 1.006012e+00
0	-4.166667e+01	-3.500000e+01	 1.005720e+00
0	-4.166667e+01	-3.166667e+01	 1.005557e+00
0	-4.166667e+01	-2.833333e+01	 1.005524e+00
0	-4.166667e+01	-2.500000e+01	 1.005622e+00
0	-3.833334e+01	-4.166667e+01	 1.006859e+00
0	-3.833334e+01	-3.833334e+01	 1.005826e+00
0	-3.833334e+01	-3.500000e+01	 1.005040e+00
0	-3.833334e+01	-3.166667e+01	 1.004501e+00
0	-3.833334e+01	-2.833333e+01	 1.004208e+00
0	-3.833334e+01	-2.500000e+01	 1.004162e+00
0	-3.500000e+01	-4.166667e+01	 1.006414e+00
0	-3.500000e+01	-3.833334e+01	 1.005312e+00
0	-3.500000e+01	-3.500000e+01	 1.004573e+00
0	-3.500000e+01	-3.166667e+01	 1.004198e+00
0	-3.500000e+01	-2.833333e+01	 1.004185e+00
0	-3.500000e+01	-2.500000e+01	 1.004536e+00
0	-3.166667e+01	-4.166667e+01	 1.005100e+00
0	-3.166667e+01	-3.833334e+01	 1.004469e+00
0	-3.166667e+01	-3.500000e+01	 1.004318e+00
0	-3.166667e+01	-3.166667e+01	 1.004647e+00
0	-3.166667e+01	-2.833333e+01	 1.005455e+00
0	-3.166667e+01	-2.500000e+01	 1.006743e+00
0	-2.833333e+01	-4.166667e+01	 1.002917e+00
0	-2.833333e+01	-3.833334e+01	 1.003298e+00
0	-2.833333e+01	-3.500000e+01	 1.004275e+00
0	-2.833333e+01	-3.166667e+01	 1.005848e+00
0	-2.833333e+01	-2.833333e+01	 1.008017e+00
0	-2.833333e+01	-2.500000e+01	 1.010783e+00
0	-2.500000e+01	-4.166667e+01	 9.998657e-01
0	-2.500000e+01	-3.833334e+01	 1.001799e+00
0	-2.500000e+01	-3.500000e+01	 1.004444e+00
0	-2.500000e+01	-3.166667e+01	 1.007802e+00
0	-2.500000e+01	-2.833333e+01	 1.011873e+00
0	-2.500000e+01	-2.500000e+01	 1.016656e+00
0	-4.166667e+01	-2.500000e+01	 1.005622e+00
0	-4.166667e+01	-2.166667e+01	 1.006217e+00
0	-4.166667e+01	-1.833333e+01	 1.006472e+00
0	-4.166667e+01	-1.500000e+01	 1.006387e+00
0	-4.166667e+01	-1.166666e+01	 1.005961e+00
0	-4.166667e+01	-8.333327e+00	 1.005194e+00
0	-3.833334e+01	-2.500000e+01	 1.004162e+00
0	-3.833334e+01	-2.166667e+01	 1.004850e+00
0	-3.833334e+01	-1.833333e+01	 1.005279e+00
0	-3.833334e+01	-1.500000e+01	 1.005448e+00
0	-3.833334e+01	-1.166666e+01	 1.005358e+00
0	-3.833334e+01	-8.333327e+00	 1.005008e+00
0	-3.500000e+01	-2.500000e+01	 1.004536e+00
0	-3.500000e+01	-2.166667e+01	 1.005127e+00
0	-3.500000e+01	-1.833333e+01	 1.005540e+00
0	-3.500000e+01	-1.500000e+01	 1.005776e+00
0	-3.500000e+01	-1.166666e+01	 1.005833e+00
0	-3.500000e+01	-8.333327e+00	 1.005712e+00
0	-3.166667e+01	-2.500000e+01	 1.006743e+00
0	-3.166667e+01	-2.166667e+01	 1.007049e+00
0	-3.166667e+01	-1.833333e+01	 1.007258e+00
0	-3.166667e+01	-1.500000e+01	 1.007370e+00
0	-3.166667e+01	-1.166666e+01	 1.007386e+00
0	-3.166667e+01	-8.333327e+00	 1.007305e+00
0	-2.833333e+01	-2.500000e+01	 1.010783e+00
0	-2.833333e+01	-2.166667e+01	 1.010615e+00
0	-2.833333e+01	-1.833333e+01	 1.010431e+00
0	-2.833333e+01	-1.500000e+01	 1.010232e+00
0	-2.833333e+01	-1.166666e+01	 1.010017e+00
0	-2.833333e+01	-8.333327e+00	 1.009787e+00
0	-2.500000e+01	-2.500000e+01	 1.016656e+00
0	-2.500000e+01	-2.166667e+01	 1.015825e+00
0	-2.500000e+01	-1.833333e+01	 1.015060e+00
0	-2.500000e+01	-1.500000e+01	 1.014361e+00
0	-2.500000e+01	-1.166666e+01	 1.013727e+00
0	-2.500000e+01	-8.333327e+00	 1.013158e+00
0	-4.166667e+01	-8.333327e+00	 1.005194e+00
0	-4.166667e+01	-4.999996e+00	 1.006235e+00
0	-4.166667e+01	-1.666665e+00	 1.007309e+00
0	-4.166667e+01	 1.666665e+00	 1.008417e+00
0	-4.166667e+01	 4.999996e+00	 1.009558e+00
0	-4.166667e+01	 8.333327e+00	 1.010732e+00
0	-3.833334e+01	-8.333327e+00	 1.005008e+00
0	-3.833334e+01	-4.999996e+00	 1.006944e+00
0	-3.833334e+01	-1.666665e+00	 1.008731e+00
0	-3.833334e+01	 1.666665e+00	 1.010369e+00
0	-3.833334e+01	 4.999996e+00	 1.011860e+00
0	-3.833334e+01	 8.333327e+00	 1.013201e+00
0	-3.500000e+01	-8.333327e+00	 1.005712e+00
0	-3.500000e+01	-4.999996e+00	 1.007997e+00
0	-3.500000e+01	-1.666665e+00	 1.009952e+00
0	-3.500000e+01	 1.666665e+00	 1.011577e+00
0	-3.500000e+01	 4.999996e+00	 1.012872e+00
0	-3.500000e+01	 8.333327e+00	 1.013837e+00
0	-3.166667e+01	-8.333327e+00	 1.007305e+00
0	-3.166667e+01	-4.999996e+00	 1.009395e+00
0	-3.166667e+01	-1.666665e+00	 1.010974e+00
0	-3.166667e+01	 1.666665e+00	 1.012041e+00
0	-3.166667e+01	 4.999996e+00	 1.012596e+00
0	-3.166667e+01	 8.333327e+00	 1.012640e+00
0	-2.833333e+01	-8.333327e+00	 1.009787e+00
0	-2.833333e+01	-4.999996e+00	 1.011138e+00
0	-2.833333e+01	-1.666665e+00	 1.011796e+00
0	-2.833333e+01	 1.666665e+00	 1.011760e+00
0	-2.833333e+01	 4.999996e+00	 1.011031e+00
0	-2.833333e+01	 8.333327e+00	 1.009609e+00
0	-2.500000e+01	-8.333327e+00	 1.013158e+00
0	-2.500000e+01	-4.999996e+00	 1.013225e+00
0	-2.500000e+01	-1.666665e+00	 1.012418e+00
0	-2.500000e+01	 1.666665e+00	 1.010735e+00
0	-2.500000e+01	 4.999996e+00	 1.008177e+00
0	-2.500000e+01	 8.333327e+00	 1.004744e+00
0	-4.166667e+01	 8.333327e+00	 1.010732e+00
0	-4.166667e+01	 1.166666e+01	 1.009564e+00
0	-4.166667e+01	 1.500000e+01	 1.008516e+00
0	-4.166667e+01	 1.833333e+01	 1.007588e+00
0	-4.166667e+01	 2.166667e+01	 1.006780e+00
0	-4.166667e+01	 2.500000e+01	 1.006092e+00
0	-3.833334e+01	 8.333327e+00	 1.013201e+00
0	-3.833334e+01	 1.166666e+01	 1.011050e+00
0	-3.833334e+01	 1.500000e+01	 1.009153e+00
0	-3.833334e+01	 1.833333e+01	 1.007509e+00
0	-3.833334e+01	 2.166667e+01	 1.006118e+00
0	-3.833334e+01	 2.500000e+01	 1.004982e+00
0	-3.500000e+01	 8.333327e+00	 1.013837e+00
0	-3.500000e+01	 1.166666e+01	 1.011228e+00
0	-3.500000e+01	 1.500000e+01	 1.009007e+00
0	-3.500000e+01	 1.833333e+01	 1.007173e+00
0	-3.500000e+01	 2.166667e+01	 1.005727e+00
0	-3.500000e+01	 2.500000e+01	 1.004668e+00
0	-3.166667e+01	 8.333327e+00	 1.012640e+00
0	-3.166667e+01	 1.166666e+01	 1.010099e+00
0	-3.166667e+01	 1.500000e+01	 1.008080e+00
0	-3.166667e+01	 1.833333e+01	 1.006582e+00
0	-3.166667e+01	 2.166667e+01	 1.005605e+00
0	-3.166667e+01	 2.500000e+01	 1.005150e+00
0	-2.833333e+01	 8.333327e+00	 1.009609e+00
0	-2.833333e+01	 1.166666e+01	 1.007662e+00
0	-2.833333e+01	 1.500000e+01	 1.006371e+00
0	-2.833333e+01	 1.833333e+01	 1.005735e+00
0	-2.833333e+01	 2.166667e+01	 1.005754e+00
0	-2.833333e+01	 2.500000e+01	 1.006428e+00
0	-2.500000e+01	 8.333327e+00	 1.004744e+00
0	-2.500000e+01	 1.166666e+01	 1.003918e+00
0	-2.500000e+01	 1.500000e+01	 1.003880e+00
0	-2.500000e+01	 1.833333e+01	 1.004632e+00
0	-2.500000e+01	 2.166667e+01	 1.006172e+00
0	-2.500000e+01	 2.500000e+01	 1.008502e+00
0	-4.166667e+01	 2.500000e+01	 1.006092e+00
0	-4.166667e+01	 2.833333e+01	 1.005453e+00
0	-4.166667e+01	 3.166667e+01	 1.004833e+00
0	-4.166667e+01	 3.500000e+01	 1.004234e+00
0	-4.166667e+01	 3.833334e+01	 1.003653e+00
0	-4.166667e+01	 4.166667e+01	 1.003092e+00
0	-3.833334e+01	 2.500000e+01	 1.004982e+00
0	-3.833334e+01	 2.833333e+01	 1.004456e+00
0	-3.833334e+01	 3.166667e+01	 1.003993e+00
0	-3.833334e+01	 3.500000e+01	 1.003591e+00
0	-3.833334e+01	 3.833334e+01	 1.003251e+00
0	-3.833334e+01	 4.166667e+01	 1.002973e+00
0	-3.500000e+01	 2.500000e+01	 1.004668e+00
0	-3.500000e+01	 2.833333e+01	 1.003892e+00
0	-3.500000e+01	 3.166667e+01	 1.003220e+00
0	-3.500000e+01	 3.500000e+01	 1.002653e+00
0	-3.500000e+01	 3.833334e+01	 1.002190e+00
0	-3.500000e+01	 4.166667e+01	 1.001831e+00
0	-3.166667e+01	 2.500000e+01	 1.005150e+00
0	-3.166667e+01	 2.833333e+01	 1.003760e+00
0	-3.166667e+01	 3.166667e+01	 1.002516e+00
0	-3.166667e+01	 3.500000e+01	 1.001420e+00
0	-3.166667e+01	 3.833334e+01	 1.000469e+00
0	-3.166667e+01	 4.166667e+01	 9.996661e-01
0	-2.833333e+01	 2.500000e+01	 1.006428e+00
0	-2.833333e+01	 2.833333e+01	 1.004060e+00
0	-2.833333e+01	 3.166667e+01	 1.001881e+00
0	-2.833333e+01	 3.500000e+01	 9.998908e-01
0	-2.833333e+01	 3.833334e+01	 9.980901e-01
0	-2.833333e+01	 4.166667e+01	 9.964786e-01
0	-2.500000e+01	 2.500000e+01	 1.008502e+00
0	-2.500000e+01	 2.833333e+01	 1.004792e+00
0	-2.500000e+01	 3.166667e+01	 1.001314e+00
0	-2.500000e+01	 3.500000e+01	 9.980668e-01
0	-2.500000e+01	 3.833334e+01	 9.950517e-01
0	-2.500000e+01	 4.166667e+01	 9.922682e-01
0	-4.166667e+01	 4.166667e+01	 1.003092e+00
0	-4.166667e+01	 4.500000e+01	 1.002114e+00
0	-4.166667e+01	 4.833333e+01	 1.001220e+00
0	-4.166667e+01	 5.166667e+01	 1.000410e+00
0	-4.166667e+01	 5.500000e+01	 9.996825e-01
0	-4.166667e+01	 5.833333e+01	 9.990384e-01
0	-3.833334e+01	 4.166667e+01	 1.002973e+00
0	-3.833334e+01	 4.500000e+01	 1.002142e+00
0	-3.833334e+01	 4.833333e+01	 1.001263e+00
0	-3.833334e+01	 5.166667e+01	 1.000335e+00
0	-3.833334e+01	 5.500000e+01	 9.993593e-01
0	-3.833334e+01	 5.833333e+01	 9.983348e-01
0	-3.500000e+01	 4.166667e+01	 1.001831e+00
0	-3.500000e+01	 4.500000e+01	 1.001400e+00
0	-3.500000e+01	 4.833333e+01	 1.000788e+00
0	-3.500000e+01	 5.166667e+01	 9.999970e-01
0	-3.500000e+01	 5.500000e+01	 9.990252e-01
0	-3.500000e+01	 5.833333e+01	 9.978732e-01
0	-3.166667e+01	 4.166667e+01	 9.996661e-01
0	-3.166667e+01	 4.500000e+01	 9.998876e-01
0	-3.166667e+01	 4.833333e+01	 9.997971e-01
0	-3.166667e+01	 5.166667e+01	 9.993946e-01
0	-3.166667e+01	 5.500000e+01	 9.986801e-01
0	-3.166667e+01	 5.833333e+01	 9.976535e-01
0	-2.833333e+01	 4.166667e+01	 9.964786e-01
0	-2.833333e+01	 4.500000e+01	 9.976056e-01
0	-2.833333e+01	 4.833333e+01	 9.982888e-01
0	-2.833333e+01	 5.166667e+01	 9.985282e-01
0	-2.833333e+01	 5.500000e+01	 9.983239e-01
0	-2.833333e+01	 5.833333e+01	 9.976758e-01
0	-2.500000e+01	 4.166667e+01	 9.922682e-01
0	-2.500000e+01	 4.500000e+01	 9.945536e-01
0	-2.500000e+01	 4.833333e+01	 9.962635e-01
0	-2.500000e+01	 5.166667e+01	 9.973979e-01
0	-2.500000e+01	 5.500000e+01	 9.979567e-01
0	-2.500000e+01	 5.833333e+01	 9.979400e-01
0	-4.166667e+01	 5.833333e+01	 9.990384e-01
0	-4.166667e+01	 6.166666e+01	 9.994328e-01
0	-4.166667e+01	 6.500000e+01	 9.997160e-01
0	-4.166667e+01	 6.833333e+01	 9.998882e-01
0	-4.166667e+01	 7.166667e+01	 9.999492e-01
0	-4.166667e+01	 7.500000e+01	 9.998991e-01
0	-3.833334e+01	 5.833333e+01	 9.983348e-01
0	-3.833334e+01	 6.166666e+01	 9.987189e-01
0	-3.833334e+01	 6.500000e+01	 9.990572e-01
0	-3.833334e+01	 6.833333e+01	 9.993496e-01
0	-3.833334e+01	 7.166667e+01	 9.995961e-01
0	-3.833334e+01	 7.500000e+01	 9.997969e-01
0	-3.500000e+01	 5.833333e+01	 9.978732e-01
0	-3.500000e+01	 6.166666e+01	 9.981713e-01
0	-3.500000e+01	 6.500000e+01	 9.984889e-01
0	-3.500000e+01	 6.833333e+01	 9.988259e-01
0	-3.500000e+01	 7.166667e+01	 9.991824e-01
0	-3.500000e+01	 7.500000e+01	 9.995583e-01
0	-3.166667e+01	 5.833333e+01	 9.976535e-01
0	-3.166667e+01	 6.166666e+01	 9.977900e-01
0	-3.166667e+01	 6.500000e+01	 9.980113e-01
0	-3.166667e+01	 6.833333e+01	 9.983173e-01
0	-3.166667e+01	 7.166667e+01	 9.987080e-01
0	-3.166667e+01	 7.500000e+01	 9.991835e-01
0	-2.833333e+01	 5.833333e+01	 9.976758e-01
0	-2.833333e+01	 6.166666e+01	 9.975751e-01
0	-2.833333e+01	 6.500000e+01	 9.976243e-01
0	-2.833333e+01	 6.833333e+01	 9.978237e-01
0	-2.833333e+01	 7.166667e+01	 9.981730e-01
0	-2.833333e+01	 7.500000e+01	 9.986723e-01
0	-2.500000e+01	 5.833333e+01	 9.979400e-01
0	-2.500000e+01	 6.166666e+01	 9.975264e-01
0	-2.500000e+01	 6.500000e+01	 9.973280e-01
0	-2.500000e+01	 6.833333e+01	 9.973450e-01
0	-2.500000e+01	 7.166667e+01	 9.975773e-01
0	-2.500000e+01	 7.500000e+01	 9.980248e-01
0	-4.166667e+01	 7.500000e+01	 9.998991e-01
0	-4.166667e+01	 7.833333e+01	 9.997601e-01
0	-4.166667e+01	 8.166667e+01	 9.996584e-01
0	-4.166667e+01	 8.500000e+01	 9.995940e-01
0	-4.166667e+01	 8.833334e+01	 9.995669e-01
0	-4.166667e+01	 9.166667e+01	 9.995773e-01
0	-3.833334e+01	 7.500000e+01	 9.997969e-01
0	-3.833334e+01	 7.833333e+01	 9.996911e-01
0	-3.833334e+01	 8.166667e+01	 9.995975e-01
0	-3.833334e+01	 8.500000e+01	 9.995162e-01
0	-3.833334e+01	 8.833334e+01	 9.994470e-01
0	-3.833334e+01	 9.166667e+01	 9.993901e-01
0	-3.500000e+01	 7.500000e+01	 9.995583e-01
0	-3.500000e+01	 7.833333e+01	 9.995225e-01
0	-3.500000e+01	 8.166667e+01	 9.994738e-01
0	-3.500000e+01	 8.500000e+01	 9.994121e-01
0	-3.500000e+01	 8.833334e+01	 9.993376e-01
0	-3.500000e+01	 9.166667e+01	 9.992501e-01
0	-3.166667e+01	 7.500000e+01	 9.991835e-01
0	-3.166667e+01	 7.833333e+01	 9.992543e-01
0	-3.166667e+01	 8.166667e+01	 9.992871e-01
0	-3.166667e+01	 8.500000e+01	 9.992819e-01
0	-3.166667e+01	 8.833334e+01	 9.992386e-01
0	-3.166667e+01	 9.166667e+01	 9.991572e-01
0	-2.833333e+01	 7.500000e+01	 9.986723e-01
0	-2.833333e+01	 7.833333e+01	 9.988865e-01
0	-2.833333e+01	 8.166667e+01	 9.990375e-01
0	-2.833333e+01	 8.500000e+01	 9.991254e-01
0	-2.833333e+01	 8.833334e+01	 9.991500e-01
0	-2.833333e+01	 9.166667e+01	 9.991115e-01
0	-2.500000e+01	 7.500000e+01	 9.980248e-01
0	-2.500000e+01	 7.833333e+01	 9.984191e-01
0	-2.500000e+01	 8.166667e+01	 9.987250e-01
0	-2.500000e+01	 8.500000e+01	 9.989426e-01
0	-2.500000e+01	 8.833334e+01	 9.990720e-01
0	-2.500000e+01	 9.166667e+01	 9.991130e-01
0	-4.166667e+01	 9.166667e+01	 9.995773e-01
0	-4.166667e+01	 9.500000e+01	 9.996923e-01
0	-4.166667e+01	 9.833333e+01	 9.997890e-01
0	-4.166667e+01	 1.016667e+02	 9.998672e-01
0	-4.166667e+01	 1.050000e+02	 9.999270e-01
0	-4.166667e+01	 1.083333e+02	 9.999683e-01
0	-3.833334e+01	 9.166667e+01	 9.993901e-01
0	-3.833334e+01	 9.500000e+01	 9.995165e-01
0	-3.833334e+01	 9.833333e+01	 9.996369e-01
0	-3.833334e+01	 1.016667e+02	 9.997515e-01
0	-3.833334e+01	 1.050000e+02	 9.998602e-01
0	-3.833334e+01	 1.083333e+02	 9.999630e-01
0	-3.500000e+01	 9.166667e+01	 9.992501e-01
0	-3.500000e+01	 9.500000e+01	 9.993766e-01
0	-3.500000e+01	 9.833333e+01	 9.995098e-01
0	-3.500000e+01	 1.016667e+02	 9.996496e-01
0	-3.500000e+01	 1.050000e+02	 9.997961e-01
0	-3.500000e+01	 1.083333e+02	 9.999492e-01
0	-3.166667e+01	 9.166667e+01	 9.991572e-01
0	-3.166667e+01	 9.500000e+01	 9.992728e-01
0	-3.166667e+01	 9.833333e+01	 9.994075e-01
0	-3.166667e+01	 1.016667e+02	 9.995614e-01
0	-3.166667e+01	 1.050000e+02	 9.997345e-01
0	-3.166667e+01	 1.083333e+02	 9.999268e-01
0	-2.833333e+01	 9.166667e+01	 9.991115e-01
0	-2.833333e+01	 9.500000e+01	 9.992049e-01
0	-2.833333e+01	 9.833333e+01	 9.993301e-01
0	-2.833333e+01	 1.016667e+02	 9.994870e-01
0	-2.833333e+01	 1.050000e+02	 9.996755e-01
0	-2.833333e+01	 1.083333e+02	 9.998958e-01
0	-2.500000e+01	 9.166667e+01	 9.991130e-01
0	-2.500000e+01	 9.500000e+01	 9.991731e-01
0	-2.500000e+01	 9.833333e+01	 9.992776e-01
0	-2.500000e+01	 1.016667e+02	 9.994262e-01
0	-2.500000e+01	 1.050000e+02	 9.996192e-01
0	-2.500000e+01	 1.083333e+02	 9.998563e-01
0	-4.166667e+01	 1.083333e+02	 9.999683e-01
0	-4.166667e+01	 1.116667e+02	 9.999458e-01
0	-4.166667e+01	 1.150000e+02	 9.999440e-01
0	-4.166667e+01	 1.183333e+02	 9.999627e-01
0	-4.166667e+01	 1.216667e+02	 1.000002e+00
0	-4.166667e+01	 1.250000e+02	 1.000062e+00
0	-3.833334e+01	 1.083333e+02	 9.999630e-01
0	-3.833334e+01	 1.116667e+02	 9.999398e-01
0	-3.833334e+01	 1.150000e+02	 9.999351e-01
0	-3.833334e+01	 1.183333e+02	 9.999489e-01
0	-3.833334e+01	 1.216667e+02	 9.999812e-01
0	-3.833334e+01	 1.250000e+02	 1.000032e+00
0	-3.500000e+01	 1.083333e+02	 9.999492e-01
0	-3.500000e+01	 1.116667e+02	 9.999300e-01
0	-3.500000e+01	 1.150000e+02	 9.999273e-01
0	-3.500000e+01	 1.183333e+02	 9.999410e-01
0	-3.500000e+01	 1.216667e+02	 9.999711e-01
0	-3.500000e+01	 1.250000e+02	 1.000018e+00
0	-3.166667e+01	 1.083333e+02	 9.999268e-01
0	-3.166667e+01	 1.116667e+02	 9.999165e-01
0	-3.166667e+01	 1.150000e+02	 9.999206e-01
0	-3.166667e+01	 1.183333e+02	 9.999390e-01
0	-3.166667e+01	 1.216667e+02	 9.999716e-01
0	-3.166667e+01	 1.250000e+02	 1.000019e+00
0	-2.833333e+01	 1.083333e+02	 9.998958e-01
0	-2.833333e+01	 1.116667e+02	 9.998993e-01
0	-2.833333e+01	 1.150000e+02	 9.999150e-01
0	-2.833333e+01	 1.183333e+02	 9.999429e-01
0	-2.833333e+01	 1.216667e+02	 9.999829e-01
0	-2.833333e+01	 1.250000e+02	 1.000035e+00
0	-2.500000e+01	 1.083333e+02	 9.998563e-01
0	-2.500000e+01	 1.116667e+02	 9.998783e-01
0	-2.500000e+01	 1.150000e+02	 9.999105e-01
0	-2.500000e+01	 1.183333e+02	 9.999526e-01
0	-2.500000e+01	 1.216667e+02	 1.000005e+00
0	-2.500000e+01	 1.250000e+02	 1.000067e+00
0	-2.500000e+01	-1.250000e+02	 9.999576e-01
0	-2.500000e+01	-1.216667e+02	 9.999851e-01
0	-2.500000e+01	-1.183333e+02	 1.000006e+00
0	-2.500000e+01	-1.150000e+02	 1.000022e+00
0	-2.500000e+01	-1.116667e+02	 1.000031e+00
0	-2.500000e+01	-1.083333e+02	 1.000034e+00
0	-2.166667e+01	-1.250000e+02	 9.999630e-01
0	-2.166667e+01	-1.216667e+02	 9.999681e-01
0	-2.166667e+01	-1.183333e+02	 9.999742e-01
0	-2.166667e+01	-1.150000e+02	 9.999814e-01
0	-2.166667e+01	-1.116667e+02	 9.999897e-01
0	-2.166667e+01	-1.083333e+02	 9.999990e-01
0	-1.833333e+01	-1.250000e+02	 9.999847e-01
0	-1.833333e+01	-1.216667e+02	 9.999634e-01
0	-1.833333e+01	-1.183333e+02	 9.999504e-01
0	-1.833333e+01	-1.150000e+02	 9.999455e-01
0	-1.833333e+01	-1.116667e+02	 9.999489e-01
0	-1.833333e+01	-1.083333e+02	 9.999604e-01
0	-1.500000e+01	-1.250000e+02	 1.000023e+00
0	-1.500000e+01	-1.216667e+02	 9.999711e-01
0	-1.500000e+01	-1.183333e+02	 9.999348e-01
0	-1.500000e+01	-1.150000e+02	 9.999139e-01
0	-1.500000e+01	-1.116667e+02	 9.999084e-01
0	-1.500000e+01	-1.083333e+02	 9.999183e-01
0	-1.166666e+01	-1.250000e+02	 1.000077e+00
0	-1.166666e+01	-1.216667e+02	 9.999911e-01
0	-1.166666e+01	-1.183333e+02	 9.999276e-01
0	-1.166666e+01	-1.150000e+02	 9.998867e-01
0	-1.166666e+01	-1.116667e+02	 9.998684e-01
0	-1.166666e+01	-1.083333e+02	 9.998726e-01
0	-8.333327e+00	-1.250000e+02	 1.000148e+00
0	-8.333327e+00	-1.216667e+02	 1.000023e+00
0	-8.333327e+00	-1.183333e+02	 9.999287e-01
0	-8.333327e+00	-1.150000e+02	 9.998639e-01
0	-8.333327e+00	-1.116667e+02	 9.998287e-01
0	-8.333327e+00	-1.083333e+02	 9.998232e-01
0	-2.500000e+01	-1.083333e+02	 1.000034e+00
0	-2.500000e+01	-1.050000e+02	 9.999113e-01
0	-2.500000e+01	-1.016667e+02	 9.998186e-01
0	-2.500000e+01	-9.833333e+01	 9.997558e-01
0	-2.500000e+01	-9.500000e+01	 9.997228e-01
0	-2.500000e+01	-9.166667e+01	 9.997196e-01
0	-2.166667e+01	-1.083333e+02	 9.999990e-01
0	-2.166667e+01	-1.050000e+02	 9.998645e-01
0	-2.166667e+01	-1.016667e+02	 9.997534e-01
0	-2.166667e+01	-9.833333e+01	 9.996657e-01
0	-2.166667e+01	-9.500000e+01	 9.996014e-01
0	-2.166667e+01	-9.166667e+01	 9.995606e-01
0	-1.833333e+01	-1.083333e+02	 9.999604e-01
0	-1.833333e+01	-1.050000e+02	 9.998179e-01
0	-1.833333e+01	-1.016667e+02	 9.996923e-01
0	-1.833333e+01	-9.833333e+01	 9.995836e-01
0	-1.833333e+01	-9.500000e+01	 9.994919e-01
0	-1.833333e+01	-9.166667e+01	 9.994172e-01
0	-1.500000e+01	-1.083333e+02	 9.999183e-01
0	-1.500000e+01	-1.050000e+02	 9.997716e-01
0	-1.500000e+01	-1.016667e+02	 9.996353e-01
0	-1.500000e+01	-9.833333e+01	 9.995095e-01
0	-1.500000e+01	-9.500000e+01	 9.993942e-01
0	-1.500000e+01	-9.166667e+01	 9.992894e-01
0	-1.166666e+01	-1.083333e+02	 9.998726e-01
0	-1.166666e+01	-1.050000e+02	 9.997254e-01
0	-1.166666e+01	-1.016667e+02	 9.995824e-01
0	-1.166666e+01	-9.833333e+01	 9.994433e-01
0	-1.166666e+01	-9.500000e+01	 9.993083e-01
0	-1.166666e+01	-9.166667e+01	 9.991774e-01
0	-8.333327e+00	-1.083333e+02	 9.998232e-01
0	-8.333327e+00	-1.050000e+02	 9.996796e-01
0	-8.333327e+00	-1.016667e+02	 9.995335e-01
0	-8.333327e+00	-9.833333e+01	 9.993851e-01
0	-8.333327e+00	-9.500000e+01	 9.992342e-01
0	-8.333327e+00	-9.166667e+01	 9.990810e-01
0	-2.500000e+01	-9.166667e+01	 9.997196e-01
0	-2.500000e+01	-8.833334e+01	 9.999308e-01
0	-2.500000e+01	-8.500000e+01	 1.000054e+00
0	-2.500000e+01	-8.166667e+01	 1.000089e+00
0	-2.500000e+01	-7.833333e+01	 1.000037e+00
0	-2.500000e+01	-7.500000e+01	 9.998960e-01
0	-2.166667e+01	-9.166667e+01	 9.995606e-01
0	-2.166667e+01	-8.833334e+01	 9.996783e-01
0	-2.166667e+01	-8.500000e+01	 9.997381e-01
0	-2.166667e+01	-8.166667e+01	 9.997401e-01
0	-2.166667e+01	-7.833333e+01	 9.996842e-01
0	-2.166667e+01	-7.500000e+01	 9.995705e-01
0	-1.833333e+01	-9.166667e+01	 9.994172e-01
0	-1.833333e+01	-8.833334e+01	 9.994451e-01
0	-1.833333e+01	-8.500000e+01	 9.994453e-01
0	-1.833333e+01	-8.166667e+01	 9.994178e-01
0	-1.833333e+01	-7.833333e+01	 9.993625e-01
0	-1.833333e+01	-7.500000e+01	 9.992795e-01
0	-1.500000e+01	-9.166667e+01	 9.992894e-01
0	-1.500000e+01	-8.833334e+01	 9.992314e-01
0	-1.500000e+01	-8.500000e+01	 9.991758e-01
0	-1.500000e+01	-8.166667e+01	 9.991225e-01
0	-1.500000e+01	-7.833333e+01	 9.990716e-01
0	-1.500000e+01	-7.500000e+01	 9.990230e-01
0	-1.166666e+01	-9.166667e+01	 9.991774e-01
0	-1.166666e+01	-8.833334e+01	 9.990372e-01
0	-1.166666e+01	-8.500000e+01	 9.989294e-01
0	-1.166666e+01	-8.166667e+01	 9.988542e-01
0	-1.166666e+01	-7.833333e+01	 9.988114e-01
0	-1.166666e+01	-7.500000e+01	 9.988011e-01
0	-8.333327e+00	-9.166667e+01	 9.990810e-01
0	-8.333327e+00	-8.833334e+01	 9.988624e-01
0	-8.333327e+00	-8.500000e+01	 9.987063e-01
0	-8.333327e+00	-8.166667e+01	 9.986128e-01
0	-8.333327e+00	-7.833333e+01	 9.985819e-01
0	-8.333327e+00	-7.500000e+01	 9.986136e-01
0	-2.500000e+01	-7.500000e+01	 9.998960e-01
0	-2.500000e+01	-7.166667e+01	 9.995319e-01
0	-2.500000e+01	-6.833333e+01	 9.993728e-01
0	-2.500000e+01	-6.500000e+01	 9.994187e-01
0	-2.500000e+01	-6.166666e+01	 9.996696e-01
0	-2.500000e+01	-5.833333e+01	 1.000126e+00
0	-2.166667e+01	-7.500000e+01	 9.995705e-01
0	-2.166667e+01	-7.166667e+01	 9.993219e-01
0	-2.166667e+01	-6.833333e+01	 9.992163e-01
0	-2.166667e+01	-6.500000e+01	 9.992537e-01
0	-2.166667e+01	-6.166666e+01	 9.994342e-01
0	-2.166667e+01	-5.833333e+01	 9.997577e-01
0	-1.833333e+01	-7.500000e+01	 9.992795e-01
0	-1.833333e+01	-7.166667e+01	 9.990479e-01
0	-1.833333e+01	-6.833333e+01	 9.988972e-01
0	-1.833333e+01	-6.500000e+01	 9.988277e-01
0	-1.833333e+01	-6.166666e+01	 9.988391e-01
0	-1.833333e+01	-5.833333e+01	 9.989316e-01
0	-1.500000e+01	-7.500000e+01	 9.990230e-01
0	-1.500000e+01	-7.166667e+01	 9.987098e-01
0	-1.500000e+01	-6.833333e+01	 9.984156e-01
0	-1.500000e+01	-6.500000e+01	 9.981405e-01
0	-1.500000e+01	-6.166666e+01	 9.978844e-01
0	-1.500000e+01	-5.833333e+01	 9.976474e-01
0	-1.166666e+01	-7.500000e+01	 9.988011e-01
0	-1.166666e+01	-7.166667e+01	 9.983077e-01
0	-1.166666e+01	-6.833333e+01	 9.977714e-01
0	-1.166666e+01	-6.500000e+01	 9.971922e-01
0	-1.166666e+01	-6.166666e+01	 9.965701e-01
0	-1.166666e+01	-5.833333e+01	 9.959050e-01
0	-8.333327e+00	-7.500000e+01	 9.986136e-01
0	-8.333327e+00	-7.166667e+01	 9.978416e-01
0	-8.333327e+00	-6.833333e+01	 9.969647e-01
0	-8.333327e+00	-6.500000e+01	 9.959828e-01
0	-8.333327e+00	-6.166666e+01	 9.948961e-01
0	-8.333327e+00	-5.833333e+01	 9.937045e-01
0	-2.500000e+01	-5.833333e+01	 1.000126e+00
0	-2.500000e+01	-5.500000e+01	 1.001309e+00
0	-2.500000e+01	-5.166667e+01	 1.001875e+00
0	-2.500000e+01	-4.833333e+01	 1.001823e+00
0	-2.500000e+01	-4.500000e+01	 1.001153e+00
0	-2.500000e+01	-4.166667e+01	 9.998657e-01
0	-2.166667e+01	-5.833333e+01	 9.997577e-01
0	-2.166667e+01	-5.500000e+01	 1.000457e+00
0	-2.166667e+01	-5.166667e+01	 1.000723e+00
0	-2.166667e+01	-4.833333e+01	 1.000556e+00
0	-2.166667e+01	-4.500000e+01	 9.999555e-01
0	-2.166667e+01	-4.166667e+01	 9.989222e-01
0	-1.833333e+01	-5.833333e+01	 9.989316e-01
0	-1.833333e+01	-5.500000e+01	 9.994081e-01
0	-1.833333e+01	-5.166667e+01	 9.996361e-01
0	-1.833333e+01	-4.833333e+01	 9.996159e-01
0	-1.833333e+01	-4.500000e+01	 9.993473e-01
0	-1.833333e+01	-4.166667e+01	 9.988304e-01
0	-1.500000e+01	-5.833333e+01	 9.976474e-01
0	-1.500000e+01	-5.500000e+01	 9.981631e-01
0	-1.500000e+01	-5.166667e+01	 9.986153e-01
0	-1.500000e+01	-4.833333e+01	 9.990038e-01
0	-1.500000e+01	-4.500000e+01	 9.993288e-01
0	-1.500000e+01	-4.166667e+01	 9.995903e-01
0	-1.166666e+01	-5.833333e+01	 9.959050e-01
0	-1.166666e+01	-5.500000e+01	 9.967220e-01
0	-1.166666e+01	-5.166667e+01	 9.976602e-01
0	-1.166666e+01	-4.833333e+01	 9.987196e-01
0	-1.166666e+01	-4.500000e+01	 9.999001e-01
0	-1.166666e+01	-4.166667e+01	 1.001202e+00
0	-8.333327e+00	-5.833333e+01	 9.937045e-01
0	-8.333327e+00	-5.500000e+01	 9.950847e-01
0	-8.333327e+00	-5.166667e+01	 9.967709e-01
0	-8.333327e+00	-4.833333e+01	 9.987630e-01
0	-8.333327e+00	-4.500000e+01	 1.001061e+00
0	-8.333327e+00	-4.166667e+01	 1.003665e+00
0	-2.500000e+01	-4.166667e+01	 9.998657e-01
0	-2.500000e+01	-3.833334e+01	 1.001799e+00
0	-2.500000e+01	-3.500000e+01	 1.004444e+00
0	-2.500000e+01	-3.166667e+01	 1.007802e+00
0	-2.500000e+01	-2.833333e+01	 1.011873e+00
0	-2.500000e+01	-2.500000e+01	 1.016656e+00
0	-2.166667e+01	-4.166667e+01	 9.989222e-01
0	-2.166667e+01	-3.833334e+01	 1.002704e+00
0	-2.166667e+01	-3.500000e+01	 1.007026e+00
0	-2.166667e+01	-3.166667e+01	 1.011889e+00
0	-2.166667e+01	-2.833333e+01	 1.017293e+00
0	-2.166667e+01	-2.500000e+01	 1.023237e+00
0	-1.833333e+01	-4.166667e+01	 9.988304e-01
0	-1.833333e+01	-3.833334e+01	 1.002212e+00
0	-1.833333e+01	-3.500000e+01	 1.005961e+00
0	-1.833333e+01	-3.166667e+01	 1.010080e+00
0	-1.833333e+01	-2.833333e+01	 1.014567e+00
0	-1.833333e+01	-2.500000e+01	 1.019423e+00
0	-1.500000e+01	-4.166667e+01	 9.995903e-01
0	-1.500000e+01	-3.833334e+01	 1.000322e+00
0	-1.500000e+01	-3.500000e+01	 1.001250e+00
0	-1.500000e+01	-3.166667e+01	 1.002375e+00
0	-1.500000e+01	-2.833333e+01	 1.003696e+00
0	-1.500000e+01	-2.500000e+01	 1.005214e+00
0	-1.166666e+01	-4.166667e+01	 1.001202e+00
0	-1.166666e+01	-3.833334e+01	 9.970344e-01
0	-1.166666e+01	-3.500000e+01	 9.928916e-01
0	-1.166666e+01	-3.166667e+01	 9.887734e-01
0	-1.166666e+01	-2.833333e+01	 9.846799e-01
0	-1.166666e+01	-2.500000e+01	 9.806110e-01
0	-8.333327e+00	-4.166667e+01	 1.003665e+00
0	-8.333327e+00	-3.833334e+01	 9.923494e-01
0	-8.333327e+00	-3.500000e+01	 9.808864e-01
0	-8.333327e+00	-3.166667e+01	 9.692760e-01
0	-8.333327e+00	-2.833333e+01	 9.575183e-01
0	-8.333327e+00	-2.500000e+01	 9.456132e-01
0	-2.500000e+01	-2.500000e+01	 1.016656e+00
0	-2.500000e+01	-2.166667e+01	 1.015825e+00
0	-2.500000e+01	-1.833333e+01	 1.015060e+00
0	-2.500000e+01	-1.500000e+01	 1.014361e+00
0	-2.500000e+01	-1.166666e+01	 1.013727e+00
0	-2.500000e+01	-8.333327e+00	 1.013158e+00
0	-2.166667e+01	-2.500000e+01	 1.023237e+00
0	-2.166667e+01	-2.166667e+01	 1.023106e+00
0	-2.166667e+01	-1.833333e+01	 1.022865e+00
0	-2.166667e+01	-1.500000e+01	 1.022514e+00
0	-2.166667e+01	-1.166666e+01	 1.022053e+00
0	-2.166667e+01	-8.333327e+00	 1.021482e+00
0	-1.833333e+01	-2.500000e+01	 1.019423e+00
0	-1.833333e+01	-2.166667e+01	 1.023457e+00
0	-1.833333e+01	-1.833333e+01	 1.027206e+00
0	-1.833333e+01	-1.500000e+01	 1.030670e+00
0	-1.833333e+01	-1.166666e+01	 1.033847e+00
0	-1.833333e+01	-8.333327e+00	 1.036739e+00
0	-1.500000e+01	-2.500000e+01	 1.005214e+00
0	-1.500000e+01	-2.166667e+01	 1.016880e+00
0	-1.500000e+01	-1.833333e+01	 1.028084e+00
0	-1.500000e+01	-1.500000e+01	 1.038827e+00
0	-1.500000e+01	-1.166666e+01	 1.049108e+00
0	-1.500000e+01	-8.333327e+00	 1.058928e+00
0	-1.166666e+01	-2.500000e+01	 9.806110e-01
0	-1.166666e+01	-2.166667e+01	 1.003373e+00
0	-1.166666e+01	-1.833333e+01	 1.025497e+00
0	-1.166666e+01	-1.500000e+01	 1.046985e+00
0	-1.166666e+01	-1.166666e+01	 1.067836e+00
0	-1.166666e+01	-8.333327e+00	 1.088050e+00
0	-8.333327e+00	-2.500000e+01	 9.456132e-01
0	-8.333327e+00	-2.166667e+01	 9.829366e-01
0	-8.333327e+00	-1.833333e+01	 1.019447e+00
0	-8.333327e+00	-1.500000e+01	 1.055145e+00
0	-8.333327e+00	-1.166666e+01	 1.090031e+00
0	-8.333327e+00	-8.333327e+00	 1.124104e+00
0	-2.500000e+01	-8.333327e+00	 1.013158e+00
0	-2.500000e+01	-4.999996e+00	 1.013225e+00
0	-2.500000e+01	-1.666665e+00	 1.012418e+00
0	-2.500000e+01	 1.666665e+00	 1.010735e+00
0	-2.500000e+01	 4.999996e+00	 1.008177e+00
0	-2.500000e+01	 8.333327e+00	 1.004744e+00
0	-2.166667e+01	-8.333327e+00	 1.021482e+00
0	-2.166667e+01	-4.999996e+00	 1.019150e+00
0	-2.166667e+01	-1.666665e+00	 1.016327e+00
0	-2.166667e+01	 1.666665e+00	 1.013016e+00
0	-2.166667e+01	 4.999996e+00	 1.009215e+00
0	-2.166667e+01	 8.333327e+00	 1.004925e+00
0	-1.833333e+01	-8.333327e+00	 1.036739e+00
0	-1.833333e+01	-4.999996e+00	 1.032614e+00
0	-1.833333e+01	-1.666665e+00	 1.028385e+00
0	-1.833333e+01	 1.666665e+00	 1.024052e+00
0	-1.833333e+01	 4.999996e+00	 1.019615e+00
0	-1.833333e+01	 8.333327e+00	 1.015075e+00
0	-1.500000e+01	-8.333327e+00	 1.058928e+00
0	-1.500000e+01	-4.999996e+00	 1.053618e+00
0	-1.500000e+01	-1.666665e+00	 1.048589e+00
0	-1.500000e+01	 1.666665e+00	 1.043842e+00
0	-1.500000e+01	 4.999996e+00	 1.039377e+00
0	-1.500000e+01	 8.333327e+00	 1.035194e+00
0	-1.166666e+01	-8.333327e+00	 1.088050e+00
0	-1.166666e+01	-4.999996e+00	 1.082161e+00
0	-1.166666e+01	-1.666665e+00	 1.076940e+00
0	-1.166666e+01	 1.666665e+00	 1.072387e+00
0	-1.166666e+01	 4.999996e+00	 1.068501e+00
0	-1.166666e+01	 8.333327e+00	 1.065282e+00
0	-8.333327e+00	-8.333327e+00	 1.124104e+00
0	-8.333327e+00	-4.999996e+00	 1.118245e+00
0	-8.333327e+00	-1.666665e+00	 1.113439e+00
0	-8.333327e+00	 1.666665e+00	 1.109686e+00
0	-8.333327e+00	 4.999996e+00	 1.106987e+00
0	-8.333327e+00	 8.333327e+00	 1.105341e+00
0	-2.500000e+01	 8.333327e+00	 1.004744e+00
0	-2.500000e+01	 1.166666e+01	 1.003918e+00
0	-2.500000e+01	 1.500000e+01	 1.003880e+00
0	-2.500000e+01	 1.833333e+01	 1.004632e+00
0	-2.500000e+01	 2.166667e+01	 1.006172e+00
0	-2.500000e+01	 2.500000e+01	 1.008502e+00
0	-2.166667e+01	 8.333327e+00	 1.004925e+00
0	-2.166667e+01	 1.166666e+01	 1.004888e+00
0	-2.166667e+01	 1.500000e+01	 1.005523e+00
0	-2.166667e+01	 1.833333e+01	 1.006829e+00
0	-2.166667e+01	 2.166667e+01	 1.008806e+00
0	-2.166667e+01	 2.500000e+01	 1.011453e+00
0	-1.833333e+01	 8.333327e+00	 1.015075e+00
0	-1.833333e+01	 1.166666e+01	 1.012085e+00
0	-1.833333e+01	 1.500000e+01	 1.009648e+00
0	-1.833333e+01	 1.833333e+01	 1.007764e+00
0	-1.833333e+01	 2.166667e+01	 1.006433e+00
0	-1.833333e+01	 2.500000e+01	 1.005655e+00
0	-1.500000e+01	 8.333327e+00	 1.035194e+00
0	-1.500000e+01	 1.166666e+01	 1.025506e+00
0	-1.500000e+01	 1.500000e+01	 1.016254e+00
0	-1.500000e+01	 1.833333e+01	 1.007436e+00
0	-1.500000e+01	 2.166667e+01	 9.990541e-01
0	-1.500000e+01	 2.500000e+01	 9.911068e-01
0	-1.166666e+01	 8.333327e+00	 1.065282e+00
0	-1.166666e+01	 1.166666e+01	 1.045154e+00
0	-1.166666e+01	 1.500000e+01	 1.025342e+00
0	-1.166666e+01	 1.833333e+01	 1.005847e+00
0	-1.166666e+01	 2.166667e+01	 9.866690e-01
0	-1.166666e+01	 2.500000e+01	 9.678082e-01
0	-8.333327e+00	 8.333327e+00	 1.105341e+00
0	-8.333327e+00	 1.166666e+01	 1.071026e+00
0	-8.333327e+00	 1.500000e+01	 1.036911e+00
0	-8.333327e+00	 1.833333e+01	 1.002995e+00
0	-8.333327e+00	 2.166667e+01	 9.692776e-01
0	-8.333327e+00	 2.500000e+01	 9.357595e-01
0	-2.500000e+01	 2.500000e+01	 1.008502e+00
0	-2.500000e+01	 2.833333e+01	 1.004792e+00
0	-2.500000e+01	 3.166667e+01	 1.001314e+00
0	-2.500000e+01	 3.500000e+01	 9.980668e-01
0	-2.500000e+01	 3.833334e+01	 9.950517e-01
0	-2.500000e+01	 4.166667e+01	 9.922682e-01
0	-2.166667e+01	 2.500000e+01	 1.011453e+00
0	-2.166667e+01	 2.833333e+01	 1.007267e+00
0	-2.166667e+01	 3.166667e+01	 1.003049e+00
0	-2.166667e+01	 3.500000e+01	 9.987988e-01
0	-2.166667e+01	 3.833334e+01	 9.945166e-01
0	-2.166667e+01	 4.166667e+01	 9.902023e-01
0	-1.833333e+01	 2.500000e+01	 1.005655e+00
0	-1.833333e+01	 2.833333e+01	 1.003101e+00
0	-1.833333e+01	 3.166667e+01	 1.000251e+00
0	-1.833333e+01	 3.500000e+01	 9.971056e-01
0	-1.833333e+01	 3.833334e+01	 9.936645e-01
0	-1.833333e+01	 4.166667e+01	 9.899278e-01
0	-1.500000e+01	 2.500000e+01	 9.911068e-01
0	-1.500000e+01	 2.833333e+01	 9.922928e-01
0	-1.500000e+01	 3.166667e+01	 9.929196e-01
0	-1.500000e+01	 3.500000e+01	 9.929871e-01
0	-1.500000e+01	 3.833334e+01	 9.924955e-01
0	-1.500000e+01	 4.166667e+01	 9.914446e-01
0	-1.166666e+01	 2.500000e+01	 9.678082e-01
0	-1.166666e+01	 2.833333e+01	 9.748428e-01
0	-1.166666e+01	 3.166667e+01	 9.810545e-01
0	-1.166666e+01	 3.500000e+01	 9.864434e-01
0	-1.166666e+01	 3.833334e+01	 9.910095e-01
0	-1.166666e+01	 4.166667e+01	 9.947527e-01
0	-8.333327e+00	 2.500000e+01	 9.357595e-01
0	-8.333327e+00	 2.833333e+01	 9.507509e-01
0	-8.333327e+00	 3.166667e+01	 9.646559e-01
0	-8.333327e+00	 3.500000e+01	 9.774744e-01
0	-8.333327e+00	 3.833334e+01	 9.892065e-01
0	-8.333327e+00	 4.166667e+01	 9.998522e-01
0	-2.500000e+01	 4.166667e+01	 9.922682e-01
0	-2.500000e+01	 4.500000e+01	 9.945536e-01
0	-2.500000e+01	 4.833333e+01	 9.962635e-01
0	-2.500000e+01	 5.166667e+01	 9.973979e-01
0	-2.500000e+01	 5.500000e+01	 9.979567e-01
0	-2.500000e+01	 5.833333e+01	 9.979400e-01
0	-2.166667e+01	 4.166667e+01	 9.902023e-01
0	-2.166667e+01	 4.500000e+01	 9.923581e-01
0	-2.166667e+01	 4.833333e+01	 9.941832e-01
0	-2.166667e+01	 5.166667e+01	 9.956776e-01
0	-2.166667e+01	 5.500000e+01	 9.968414e-01
0	-2.166667e+01	 5.833333e+01	 9.976744e-01
0	-1.833333e+01	 4.166667e+01	 9.899278e-01
0	-1.833333e+01	 4.500000e+01	 9.915164e-01
0	-1.833333e+01	 4.833333e+01	 9.930191e-01
0	-1.833333e+01	 5.166667e+01	 9.944360e-01
0	-1.833333e+01	 5.500000e+01	 9.957670e-01
0	-1.833333e+01	 5.833333e+01	 9.970122e-01
0	-1.500000e+01	 4.166667e+01	 9.914446e-01
0	-1.500000e+01	 4.500000e+01	 9.920284e-01
0	-1.500000e+01	 4.833333e+01	 9.927712e-01
0	-1.500000e+01	 5.166667e+01	 9.936730e-01
0	-1.500000e+01	 5.500000e+01	 9.947337e-01
0	-1.500000e+01	 5.833333e+01	 9.959534e-01
0	-1.166666e+01	 4.166667e+01	 9.947527e-01
0	-1.166666e+01	 4.500000e+01	 9.938942e-01
0	-1.166666e+01	 4.833333e+01	 9.934394e-01
0	-1.166666e+01	 5.166667e+01	 9.933885e-01
0	-1.166666e+01	 5.500000e+01	 9.937414e-01
0	-1.166666e+01	 5.833333e+01	 9.944981e-01
0	-8.333327e+00	 4.166667e+01	 9.998522e-01
0	-8.333327e+00	 4.500000e+01	 9.971137e-01
0	-8.333327e+00	 4.833333e+01	 9.950238e-01
0	-8.333327e+00	 5.166667e+01	 9.935826e-01
0	-8.333327e+00	 5.500000e+01	 9.927901e-01
0	-8.333327e+00	 5.833333e+01	 9.926462e-01
0	-2.500000e+01	 5.833333e+01	 9.979400e-01
0	-2.500000e+01	 6.166666e+01	 9.975264e-01
0	-2.500000e+01	 6.500000e+01	 9.973280e-01
0	-2.500000e+01	 6.833333e+01	 9.973450e-01
0	-2.500000e+01	 7.166667e+01	 9.975773e-01
0	-2.500000e+01	 7.500000e+01	 9.980248e-01
0	-2.166667e+01	 5.833333e+01	 9.976744e-01
0	-2.166667e+01	 6.166666e+01	 9.973931e-01
0	-2.166667e+01	 6.500000e+01	 9.972472e-01
0	-2.166667e+01	 6.833333e+01	 9.972368e-01
0	-2.166667e+01	 7.166667e+01	 9.973617e-01
0	-2.166667e+01	 7.500000e+01	 9.976219e-01
0	-1.833333e+01	 5.833333e+01	 9.970122e-01
0	-1.833333e+01	 6.166666e+01	 9.969767e-01
0	-1.833333e+01	 6.500000e+01	 9.969967e-01
0	-1.833333e+01	 6.833333e+01	 9.970721e-01
0	-1.833333e+01	 7.166667e+01	 9.972031e-01
0	-1.833333e+01	 7.500000e+01	 9.973895e-01
0	-1.500000e+01	 5.833333e+01	 9.959534e-01
0	-1.500000e+01	 6.166666e+01	 9.962771e-01
0	-1.500000e+01	 6.500000e+01	 9.965764e-01
0	-1.500000e+01	 6.833333e+01	 9.968512e-01
0	-1.500000e+01	 7.166667e+01	 9.971016e-01
0	-1.500000e+01	 7.500000e+01	 9.973275e-01
0	-1.166666e+01	 5.833333e+01	 9.944981e-01
0	-1.166666e+01	 6.166666e+01	 9.952944e-01
0	-1.166666e+01	 6.500000e+01	 9.959863e-01
0	-1.166666e+01	 6.833333e+01	 9.965739e-01
0	-1.166666e+01	 7.166667e+01	 9.970571e-01
0	-1.166666e+01	 7.500000e+01	 9.974360e-01
0	-8.333327e+00	 5.833333e+01	 9.926462e-01
0	-8.333327e+00	 6.166666e+01	 9.940284e-01
0	-8.333327e+00	 6.500000e+01	 9.952264e-01
0	-8.333327e+00	 6.833333e+01	 9.962402e-01
0	-8.333327e+00	 7.166667e+01	 9.970697e-01
0	-8.333327e+00	 7.500000e+01	 9.977149e-01
0	-2.500000e+01	 7.500000e+01	 9.980248e-01
0	-2.500000e+01	 7.833333e+01	 9.984191e-01
0	-2.500000e+01	 8.166667e+01	 9.987250e-01
0	-2.500000e+01	 8.500000e+01	 9.989426e-01
0	-2.500000e+01	 8.833334e+01	 9.990720e-01
0	-2.500000e+01	 9.166667e+01	 9.991130e-01
0	-2.166667e+01	 7.500000e+01	 9.976219e-01
0	-2.166667e+01	 7.833333e+01	 9.980038e-01
0	-2.166667e+01	 8.166667e+01	 9.983337e-01
0	-2.166667e+01	 8.500000e+01	 9.986117e-01
0	-2.166667e+01	 8.833334e+01	 9.988378e-01
0	-2.166667e+01	 9.166667e+01	 9.990120e-01
0	-1.833333e+01	 7.500000e+01	 9.973895e-01
0	-1.833333e+01	 7.833333e+01	 9.977297e-01
0	-1.833333e+01	 8.166667e+01	 9.980544e-01
0	-1.833333e+01	 8.500000e+01	 9.983637e-01
0	-1.833333e+01	 8.833334e+01	 9.986574e-01
0	-1.833333e+01	 9.166667e+01	 9.989356e-01
0	-1.500000e+01	 7.500000e+01	 9.973275e-01
0	-1.500000e+01	 7.833333e+01	 9.975970e-01
0	-1.500000e+01	 8.166667e+01	 9.978873e-01
0	-1.500000e+01	 8.500000e+01	 9.981986e-01
0	-1.500000e+01	 8.833334e+01	 9.985307e-01
0	-1.500000e+01	 9.166667e+01	 9.988838e-01
0	-1.166666e+01	 7.500000e+01	 9.974360e-01
0	-1.166666e+01	 7.833333e+01	 9.976055e-01
0	-1.166666e+01	 8.166667e+01	 9.978323e-01
0	-1.166666e+01	 8.500000e+01	 9.981164e-01
0	-1.166666e+01	 8.833334e+01	 9.984578e-01
0	-1.166666e+01	 9.166667e+01	 9.988565e-01
0	-8.333327e+00	 7.500000e+01	 9.977149e-01
0	-8.333327e+00	 7.833333e+01	 9.977553e-01
0	-8.333327e+00	 8.166667e+01	 9.978893e-01
0	-8.333327e+00	 8.500000e+01	 9.981171e-01
0	-8.333327e+00	 8.833334e+01	 9.984386e-01
0	-8.333327e+00	 9.166667e+01	 9.988538e-01
0	-2.500000e+01	 9.166667e+01	 9.991130e-01
0	-2.500000e+01	 9.500000e+01	 9.991731e-01
0	-2.500000e+01	 9.833333e+01	 9.992776e-01
0	-2.500000e+01	 1.016667e+02	 9.994262e-01
0	-2.500000e+01	 1.050000e+02	 9.996192e-01
0	-2.500000e+01	 1.083333e+02	 9.998563e-01
0	-2.166667e+01	 9.166667e+01	 9.990120e-01
0	-2.166667e+01	 9.500000e+01	 9.991018e-01
0	-2.166667e+01	 9.833333e+01	 9.992261e-01
0	-2.166667e+01	 1.016667e+02	 9.993849e-01
0	-2.166667e+01	 1.050000e+02	 9.995782e-01
0	-2.166667e+01	 1.083333e+02	 9.998061e-01
0	-1.833333e+01	 9.166667e+01	 9.989356e-01
0	-1.833333e+01	 9.500000e+01	 9.990526e-01
0	-1.833333e+01	 9.833333e+01	 9.991945e-01
0	-1.833333e+01	 1.016667e+02	 9.993611e-01
0	-1.833333e+01	 1.050000e+02	 9.995526e-01
0	-1.833333e+01	 1.083333e+02	 9.997688e-01
0	-1.500000e+01	 9.166667e+01	 9.988838e-01
0	-1.500000e+01	 9.500000e+01	 9.990257e-01
0	-1.500000e+01	 9.833333e+01	 9.991828e-01
0	-1.500000e+01	 1.016667e+02	 9.993549e-01
0	-1.500000e+01	 1.050000e+02	 9.995421e-01
0	-1.500000e+01	 1.083333e+02	 9.997445e-01
0	-1.166666e+01	 9.166667e+01	 9.988565e-01
0	-1.166666e+01	 9.500000e+01	 9.990211e-01
0	-1.166666e+01	 9.833333e+01	 9.991910e-01
0	-1.166666e+01	 1.016667e+02	 9.993663e-01
0	-1.166666e+01	 1.050000e+02	 9.995470e-01
0	-1.166666e+01	 1.083333e+02	 9.997330e-01
0	-8.333327e+00	 9.166667e+01	 9.988538e-01
0	-8.333327e+00	 9.500000e+01	 9.990386e-01
0	-8.333327e+00	 9.833333e+01	 9.992191e-01
0	-8.333327e+00	 1.016667e+02	 9.993952e-01
0	-8.333327e+00	 1.050000e+02	 9.995670e-01
0	-8.333327e+00	 1.083333e+02	 9.997345e-01
0	-2.500000e+01	 1.083333e+02	 9.998563e-01
0	-2.500000e+01	 1.116667e+02	 9.998783e-01
0	-2.500000e+01	 1.150000e+02	 9.999105e-01
0	-2.500000e+01	 1.183333e+02	 9.999526e-01
0	-2.500000e+01	 1.216667e+02	 1.000005e+00
0	-2.500000e+01	 1.250000e+02	 1.000067e+00
0	-2.166667e+01	 1.083333e+02	 9.998061e-01
0	-2.166667e+01	 1.116667e+02	 9.998234e-01
0	-2.166667e+01	 1.150000e+02	 9.998568e-01
0	-2.166667e+01	 1.183333e+02	 9.999063e-01
0	-2.166667e+01	 1.216667e+02	 9.999718e-01
0	-2.166667e+01	 1.250000e+02	 1.000053e+00
0	-1.833333e+01	 1.083333e+02	 9.997688e-01
0	-1.833333e+01	 1.116667e+02	 9.997830e-01
0	-1.833333e+01	 1.150000e+02	 9.998193e-01
0	-1.833333e+01	 1.183333e+02	 9.998777e-01
0	-1.833333e+01	 1.216667e+02	 9.999582e-01
0	-1.833333e+01	 1.250000e+02	 1.000061e+00
0	-1.500000e+01	 1.083333e+02	 9.997445e-01
0	-1.500000e+01	 1.116667e+02	 9.997572e-01
0	-1.500000e+01	 1.150000e+02	 9.997981e-01
0	-1.500000e+01	 1.183333e+02	 9.998670e-01
0	-1.500000e+01	 1.216667e+02	 9.999641e-01
0	-1.500000e+01	 1.250000e+02	 1.000089e+00
0	-1.166666e+01	 1.083333e+02	 9.997330e-01
0	-1.166666e+01	 1.116667e+02	 9.997460e-01
0	-1.166666e+01	 1.150000e+02	 9.997930e-01
0	-1.166666e+01	 1.183333e+02	 9.998741e-01
0	-1.166666e+01	 1.216667e+02	 9.999894e-01
0	-1.166666e+01	 1.250000e+02	 1.000139e+00
0	-8.333327e+00	 1.083333e+02	 9.997345e-01
0	-8.333327e+00	 1.116667e+02	 9.997492e-01
0	-8.333327e+00	 1.150000e+02	 9.998041e-01
0	-8.333327e+00	 1.183333e+02	 9.998991e-01
0	-8.333327e+00	 1.216667e+02	 1.000034e+00
0	-8.333327e+00	 1.250000e+02	 1.000209e+00
0	-8.333327e+00	-1.250000e+02	 1.000148e+00
0	-8.333327e+00	-1.216667e+02	 1.000023e+00
0	-8.333327e+00	-1.183333e+02	 9.999287e-01
0	-8.333327e+00	-1.150000e+02	 9.998639e-01
0	-8.333327e+00	-1.116667e+02	 9.998287e-01
0	-8.333327e+00	-1.083333e+02	 9.998232e-01
0	-4.999996e+00	-1.250000e+02	 1.000158e+00
0	-4.999996e+00	-1.216667e+02	 1.000010e+00
0	-4.999996e+00	-1.183333e+02	 9.998929e-01
0	-4.999996e+00	-1.150000e+02	 9.998079e-01
0	-4.999996e+00	-1.116667e+02	 9.997547e-01
0	-4.999996e+00	-1.083333e+02	 9.997333e-01
0	-1.666665e+00	-1.250000e+02	 1.000170e+00
0	-1.666665e+00	-1.216667e+02	 1.000004e+00
0	-1.666665e+00	-1.183333e+02	 9.998721e-01
0	-1.666665e+00	-1.150000e+02	 9.997740e-01
0	-1.666665e+00	-1.116667e+02	 9.997098e-01
0	-1.666665e+00	-1.083333e+02	 9.996795e-01
0	 1.666665e+00	-1.250000e+02	 1.000182e+00
0	 1.666665e+00	-1.216667e+02	 1.000006e+00
0	 1.666665e+00	-1.183333e+02	 9.998661e-01
0	 1.666665e+00	-1.150000e+02	 9.997620e-01
0	 1.666665e+00	-1.116667e+02	 9.996939e-01
0	 1.666665e+00	-1.083333e+02	 9.996617e-01
0	 4.999996e+00	-1.250000e+02	 1.000195e+00
0	 4.999996e+00	-1.216667e+02	 1.000016e+00
0	 4.999996e+00	-1.183333e+02	 9.998751e-01
0	 4.999996e+00	-1.150000e+02	 9.997721e-01
0	 4.999996e+00	-1.116667e+02	 9.997071e-01
0	 4.999996e+00	-1.083333e+02	 9.996801e-01
0	 8.333327e+00	-1.250000e+02	 1.000209e+00
0	 8.333327e+00	-1.216667e+02	 1.000034e+00
0	 8.333327e+00	-1.183333e+02	 9.998991e-01
0	 8.333327e+00	-1.150000e+02	 9.998041e-01
0	 8.333327e+00	-1.116667e+02	 9.997492e-01
0	 8.333327e+00	-1.083333e+02	 9.997345e-01
0	-8.333327e+00	-1.083333e+02	 9.998232e-01
0	-8.333327e+00	-1.050000e+02	 9.996796e-01
0	-8.333327e+00	-1.016667e+02	 9.995335e-01
0	-8.333327e+00	-9.833333e+01	 9.993851e-01
0	-8.333327e+00	-9.500000e+01	 9.992342e-01
0	-8.333327e+00	-9.166667e+01	 9.990810e-01
0	-4.999996e+00	-1.083333e+02	 9.997333e-01
0	-4.999996e+00	-1.050000e+02	 9.995872e-01
0	-4.999996e+00	-1.016667e+02	 9.994382e-01
0	-4.999996e+00	-9.833333e+01	 9.992865e-01
0	-4.999996e+00	-9.500000e+01	 9.991320e-01
0	-4.999996e+00	-9.166667e+01	 9.989747e-01
0	-1.666665e+00	-1.083333e+02	 9.996795e-01
0	-1.666665e+00	-1.050000e+02	 9.995297e-01
0	-1.666665e+00	-1.016667e+02	 9.993768e-01
0	-1.666665e+00	-9.833333e+01	 9.992207e-01
0	-1.666665e+00	-9.500000e+01	 9.990614e-01
0	-1.666665e+00	-9.166667e+01	 9.988989e-01
0	 1.666665e+00	-1.083333e+02	 9.996617e-01
0	 1.666665e+00	-1.050000e+02	 9.995072e-01
0	 1.666665e+00	-1.016667e+02	 9.993491e-01
0	 1.666665e+00	-9.833333e+01	 9.991875e-01
0	 1.666665e+00	-9.500000e+01	 9.990222e-01
0	 1.666665e+00	-9.166667e+01	 9.988535e-01
0	 4.999996e+00	-1.083333e+02	 9.996801e-01
0	 4.999996e+00	-1.050000e+02	 9.995197e-01
0	 4.999996e+00	-1.016667e+02	 9.993553e-01
0	 4.999996e+00	-9.833333e+01	 9.991869e-01
0	 4.999996e+00	-9.500000e+01	 9.990147e-01
0	 4.999996e+00	-9.166667e+01	 9.988385e-01
0	 8.333327e+00	-1.083333e+02	 9.997345e-01
0	 8.333327e+00	-1.050000e+02	 9.995670e-01
0	 8.333327e+00	-1.016667e+02	 9.993952e-01
0	 8.333327e+00	-9.833333e+01	 9.992191e-01
0	 8.333327e+00	-9.500000e+01	 9.990386e-01
0	 8.333327e+00	-9.166667e+01	 9.988538e-01
0	-8.333327e+00	-9.166667e+01	 9.990810e-01
0	-8.333327e+00	-8.833334e+01	 9.988624e-01
0	-8.333327e+00	-8.500000e+01	 9.987063e-01
0	-8.333327e+00	-8.166667e+01	 9.986128e-01
0	-8.333327e+00	-7.833333e+01	 9.985819e-01
0	-8.333327e+00	-7.500000e+01	 9.986136e-01
0	-4.999996e+00	-9.166667e+01	 9.989747e-01
0	-4.999996e+00	-8.833334e+01	 9.986934e-01
0	-4.999996e+00	-8.500000e+01	 9.984809e-01
0	-4.999996e+00	-8.166667e+01	 9.983372e-01
0	-4.999996e+00	-7.833333e+01	 9.982622e-01
0	-4.999996e+00	-7.500000e+01	 9.982561e-01
0	-1.666665e+00	-9.166667e+01	 9.988989e-01
0	-1.666665e+00	-8.833334e+01	 9.985666e-01
0	-1.666665e+00	-8.500000e+01	 9.983092e-01
0	-1.666665e+00	-8.166667e+01	 9.981270e-01
0	-1.666665e+00	-7.833333e+01	 9.980197e-01
0	-1.666665e+00	-7.500000e+01	 9.979875e-01
0	 1.666665e+00	-9.166667e+01	 9.988535e-01
0	 1.666665e+00	-8.833334e+01	 9.984818e-01
0	 1.666665e+00	-8.500000e+01	 9.981914e-01
0	 1.666665e+00	-8.166667e+01	 9.979823e-01
0	 1.666665e+00	-7.833333e+01	 9.978544e-01
0	 1.666665e+00	-7.500000e+01	 9.978078e-01
0	 4.999996e+00	-9.166667e+01	 9.988385e-01
0	 4.999996e+00	-8.833334e+01	 9.984392e-01
0	 4.999996e+00	-8.500000e+01	 9.981274e-01
0	 4.999996e+00	-8.166667e+01	 9.979031e-01
0	 4.999996e+00	-7.833333e+01	 9.977662e-01
0	 4.999996e+00	-7.500000e+01	 9.977169e-01
0	 8.333327e+00	-9.166667e+01	 9.988538e-01
0	 8.333327e+00	-8.833334e+01	 9.984386e-01
0	 8.333327e+00	-8.500000e+01	 9.981171e-01
0	 8.333327e+00	-8.166667e+01	 9.978893e-01
0	 8.333327e+00	-7.833333e+01	 9.977553e-01
0	 8.333327e+00	-7.500000e+01	 9.977149e-01
0	-8.333327e+00	-7.500000e+01	 9.986136e-01
0	-8.333327e+00	-7.166667e+01	 9.978416e-01
0	-8.333327e+00	-6.833333e+01	 9.969647e-01
0	-8.333327e+00	-6.500000e+01	 9.959828e-01
0	-8.333327e+00	-6.166666e+01	 9.948961e-01
0	-8.333327e+00	-5.833333e+01	 9.937045e-01
0	-4.999996e+00	-7.500000e+01	 9.982561e-01
0	-4.999996e+00	-7.166667e+01	 9.971657e-01
0	-4.999996e+00	-6.833333e+01	 9.959545e-01
0	-4.999996e+00	-6.500000e+01	 9.946226e-01
0	-4.999996e+00	-6.166666e+01	 9.931698e-01
0	-4.999996e+00	-5.833333e+01	 9.915963e-01
0	-1.666665e+00	-7.500000e+01	 9.979875e-01
0	-1.666665e+00	-7.166667e+01	 9.967506e-01
0	-1.666665e+00	-6.833333e+01	 9.953770e-01
0	-1.666665e+00	-6.500000e+01	 9.938668e-01
0	-1.666665e+00	-6.166666e+01	 9.922199e-01
0	-1.666665e+00	-5.833333e+01	 9.904364e-01
0	 1.666665e+00	-7.500000e+01	 9.978078e-01
0	 1.666665e+00	-7.166667e+01	 9.965962e-01
0	 1.666665e+00	-6.833333e+01	 9.952321e-01
0	 1.666665e+00	-6.500000e+01	 9.937155e-01
0	 1.666665e+00	-6.166666e+01	 9.920464e-01
0	 1.666665e+00	-5.833333e+01	 9.902247e-01
0	 4.999996e+00	-7.500000e+01	 9.977169e-01
0	 4.999996e+00	-7.166667e+01	 9.967026e-01
0	 4.999996e+00	-6.833333e+01	 9.955198e-01
0	 4.999996e+00	-6.500000e+01	 9.941687e-01
0	 4.999996e+00	-6.166666e+01	 9.926492e-01
0	 4.999996e+00	-5.833333e+01	 9.909613e-01
0	 8.333327e+00	-7.500000e+01	 9.977149e-01
0	 8.333327e+00	-7.166667e+01	 9.970697e-01
0	 8.333327e+00	-6.833333e+01	 9.962402e-01
0	 8.333327e+00	-6.500000e+01	 9.952264e-01
0	 8.333327e+00	-6.166666e+01	 9.940284e-01
0	 8.333327e+00	-5.833333e+01	 9.926462e-01
0	-8.333327e+00	-5.833333e+01	 9.937045e-01
0	-8.333327e+00	-5.500000e+01	 9.950847e-01
0	-8.333327e+00	-5.166667e+01	 9.967709e-01
0	-8.333327e+00	-4.833333e+01	 9.987630e-01
0	-8.333327e+00	-4.500000e+01	 1.001061e+00
0	-8.333327e+00	-4.166667e+01	 1.003665e+00
0	-4.999996e+00	-5.833333e+01	 9.915963e-01
0	-4.999996e+00	-5.500000e+01	 9.935409e-01
0	-4.999996e+00	-5.166667e+01	 9.958599e-01
0	-4.999996e+00	-4.833333e+01	 9.985534e-01
0	-4.999996e+00	-4.500000e+01	 1.001621e+00
0	-4.999996e+00	-4.166667e+01	 1.005064e+00
0	-1.666665e+00	-5.833333e+01	 9.904364e-01
0	-1.666665e+00	-5.500000e+01	 9.925395e-01
0	-1.666665e+00	-5.166667e+01	 9.950856e-01
0	-1.666665e+00	-4.833333e+01	 9.980747e-01
0	-1.666665e+00	-4.500000e+01	 1.001507e+00
0	-1.666665e+00	-4.166667e+01	 1.005382e+00
0	 1.666665e+00	-5.833333e+01	 9.902247e-01
0	 1.666665e+00	-5.500000e+01	 9.920805e-01
0	 1.666665e+00	-5.166667e+01	 9.944479e-01
0	 1.666665e+00	-4.833333e+01	 9.973268e-01
0	 1.666665e+00	-4.500000e+01	 1.000717e+00
0	 1.666665e+00	-4.166667e+01	 1.004619e+00
0	 4.999996e+00	-5.833333e+01	 9.909613e-01
0	 4.999996e+00	-5.500000e+01	 9.921641e-01
0	 4.999996e+00	-5.166667e+01	 9.939469e-01
0	 4.999996e+00	-4.833333e+01	 9.963099e-01
0	 4.999996e+00	-4.500000e+01	 9.992530e-01
0	 4.999996e+00	-4.166667e+01	 1.002776e+00
0	 8.333327e+00	-5.833333e+01	 9.926462e-01
0	 8.333327e+00	-5.500000e+01	 9.927901e-01
0	 8.333327e+00	-5.166667e+01	 9.935826e-01
0	 8.333327e+00	-4.833333e+01	 9.950238e-01
0	 8.333327e+00	-4.500000e+01	 9.971137e-01
0	 8.333327e+00	-4.166667e+01	 9.998522e-01
0	-8.333327e+00	-4.166667e+01	 1.003665e+00
0	-8.333327e+00	-3.833334e+01	 9.923494e-01
0	-8.333327e+00	-3.500000e+01	 9.808864e-01
0	-8.333327e+00	-3.166667e+01	 9.692760e-01
0	-8.333327e+00	-2.833333e+01	 9.575183e-01
0	-8.333327e+00	-2.500000e+01	 9.456132e-01
0	-4.999996e+00	-4.166667e+01	 1.005064e+00
0	-4.999996e+00	-3.833334e+01	 9.867904e-01
0	-4.999996e+00	-3.500000e+01	 9.681818e-01
0	-4.999996e+00	-3.166667e+01	 9.492380e-01
0	-4.999996e+00	-2.833333e+01	 9.299590e-01
0	-4.999996e+00	-2.500000e+01	 9.103448e-01
0	-1.666665e+00	-4.166667e+01	 1.005382e+00
0	-1.666665e+00	-3.833334e+01	 9.836966e-01
0	-1.666665e+00	-3.500000e+01	 9.614883e-01
0	-1.666665e+00	-3.166667e+01	 9.387569e-01
0	-1.666665e+00	-2.833333e+01	 9.155026e-01
0	-1.666665e+00	-2.500000e+01	 8.917252e-01
0	 1.666665e+00	-4.166667e+01	 1.004619e+00
0	 1.666665e+00	-3.833334e+01	 9.830680e-01
0	 1.666665e+00	-3.500000e+01	 9.608059e-01
0	 1.666665e+00	-3.166667e+01	 9.378329e-01
0	 1.666665e+00	-2.833333e+01	 9.141491e-01
0	 1.666665e+00	-2.500000e+01	 8.897545e-01
0	 4.999996e+00	-4.166667e+01	 1.002776e+00
0	 4.999996e+00	-3.833334e+01	 9.849047e-01
0	 4.999996e+00	-3.500000e+01	 9.661346e-01
0	 4.999996e+00	-3.166667e+01	 9.464658e-01
0	 4.999996e+00	-2.833333e+01	 9.258985e-01
0	 4.999996e+00	-2.500000e+01	 9.044326e-01
0	 8.333327e+00	-4.166667e+01	 9.998522e-01
0	 8.333327e+00	-3.833334e+01	 9.892065e-01
0	 8.333327e+00	-3.500000e+01	 9.774744e-01
0	 8.333327e+00	-3.166667e+01	 9.646559e-01
0	 8.333327e+00	-2.833333e+01	 9.507509e-01
0	 8.333327e+00	-2.500000e+01	 9.357595e-01
0	-8.333327e+00	-2.500000e+01	 9.456132e-01
0	-8.333327e+00	-2.166667e+01	 9.829366e-01
0	-8.333327e+00	-1.833333e+01	 1.019447e+00
0	-8.333327e+00	-1.500000e+01	 1.055145e+00
0	-8.333327e+00	-1.166666e+01	 1.090031e+00
0	-8.333327e+00	-8.333327e+00	 1.124104e+00
0	-4.999996e+00	-2.500000e+01	 9.103448e-01
0	-4.999996e+00	-2.166667e+01	 9.602793e-01
0	-4.999996e+00	-1.833333e+01	 1.009604e+00
0	-4.999996e+00	-1.500000e+01	 1.058317e+00
0	-4.999996e+00	-1.166666e+01	 1.106421e+00
0	-4.999996e+00	-8.333327e+00	 1.153915e+00
0	-1.666665e+00	-2.500000e+01	 8.917252e-01
0	-1.666665e+00	-2.166667e+01	 9.475848e-01
0	-1.666665e+00	-1.833333e+01	 1.003036e+00
0	-1.666665e+00	-1.500000e+01	 1.058080e+00
0	-1.666665e+00	-1.166666e+01	 1.112716e+00
0	-1.666665e+00	-8.333327e+00	 1.166944e+00
0	 1.666665e+00	-2.500000e+01	 8.897545e-01
0	 1.666665e+00	-2.166667e+01	 9.448530e-01
0	 1.666665e+00	-1.833333e+01	 9.997459e-01
0	 1.666665e+00	-1.500000e+01	 1.054433e+00
0	 1.666665e+00	-1.166666e+01	 1.108915e+00
0	 1.666665e+00	-8.333327e+00	 1.163191e+00
0	 4.999996e+00	-2.500000e+01	 9.044326e-01
0	 4.999996e+00	-2.166667e+01	 9.520839e-01
0	 4.999996e+00	-1.833333e+01	 9.997320e-01
0	 4.999996e+00	-1.500000e+01	 1.047377e+00
0	 4.999996e+00	-1.166666e+01	 1.095018e+00
0	 4.999996e+00	-8.333327e+00	 1.142656e+00
0	 8.333327e+00	-2.500000e+01	 9.357595e-01
0	 8.333327e+00	-2.166667e+01	 9.692776e-01
0	 8.333327e+00	-1.833333e+01	 1.002995e+00
0	 8.333327e+00	-1.500000e+01	 1.036911e+00
0	 8.333327e+00	-1.166666e+01	 1.071026e+00
0	 8.333327e+00	-8.333327e+00	 1.105341e+00
0	-8.333327e+00	-8.333327e+00	 1.124104e+00
0	-8.333327e+00	-4.999996e+00	 1.118245e+00
0	-8.333327e+00	-1.666665e+00	 1.113439e+00
0	-8.333327e+00	 1.666665e+00	 1.109686e+00
0	-8.333327e+00	 4.999996e+00	 1.106987e+00
0	-8.333327e+00	 8.333327e+00	 1.105341e+00
0	-4.999996e+00	-8.333327e+00	 1.153915e+00
0	-4.999996e+00	-4.999996e+00	 1.149557e+00
0	-4.999996e+00	-1.666665e+00	 1.146252e+00
0	-4.999996e+00	 1.666665e+00	 1.144000e+00
0	-4.999996e+00	 4.999996e+00	 1.142802e+00
0	-4.999996e+00	 8.333327e+00	 1.142656e+00
0	-1.666665e+00	-8.333327e+00	 1.166944e+00
0	-1.666665e+00	-4.999996e+00	 1.164087e+00
0	-1.666665e+00	-1.666665e+00	 1.162283e+00
0	-1.666665e+00	 1.666665e+00	 1.161532e+00
0	-1.666665e+00	 4.999996e+00	 1.161835e+00
0	-1.666665e+00	 8.333327e+00	 1.163191e+00
0	 1.666665e+00	-8.333327e+00	 1.163191e+00
0	 1.666665e+00	-4.999996e+00	 1.161835e+00
0	 1.666665e+00	-1.666665e+00	 1.161532e+00
0	 1.666665e+00	 1.666665e+00	 1.162283e+00
0	 1.666665e+00	 4.999996e+00	 1.164087e+00
0	 1.666665e+00	 8.333327e+00	 1.166944e+00
0	 4.999996e+00	-8.333327e+00	 1.142656e+00
0	 4.999996e+00	-4.999996e+00	 1.142802e+00
0	 4.999996e+00	-1.666665e+00	 1.144000e+00
0	 4.999996e+00	 1.666665e+00	 1.146252e+00
0	 4.999996e+00	 4.999996e+00	 1.149557e+00
0	 4.999996e+00	 8.333327e+00	 1.153915e+00
0	 8.333327e+00	-8.333327e+00	 1.105341e+00
0	 8.333327e+00	-4.999996e+00	 1.106987e+00
0	 8.333327e+00	-1.666665e+00	 1.109686e+00
0	 8.333327e+00	 1.666665e+00	 1.113439e+00
0	 8.333327e+00	 4.999996e+00	 1.118245e+00
0	 8.333327e+00	 8.333327e+00	 1.124104e+00
0	-8.333327e+00	 8.333327e+00	 1.105341e+00
0	-8.333327e+00	 1.166666e+01	 1.071026e+00
0	-8.333327e+00	 1.500000e+01	 1.036911e+00
0	-8.333327e+00	 1.833333e+01	 1.002995e+00
0	-8.333327e+00	 2.166667e+01	 9.692776e-01
0	-8.333327e+00	 2.500000e+01	 9.357595e-01
0	-4.999996e+00	 8.333327e+00	 1.142656e+00
0	-4.999996e+00	 1.166666e+01	 1.095018e+00
0	-4.999996e+00	 1.500000e+01	 1.047377e+00
0	-4.999996e+00	 1.833333e+01	 9.997320e-01
0	-4.999996e+00	 2.166667e+01	 9.520839e-01
0	-4.999996e+00	 2.500000e+01	 9.044326e-01
0	-1.666665e+00	 8.333327e+00	 1.163191e+00
0	-1.666665e+00	 1.166666e+01	 1.108915e+00
0	-1.666665e+00	 1.500000e+01	 1.054433e+00
0	-1.666665e+00	 1.833333e+01	 9.997459e-01
0	-1.666665e+00	 2.166667e+01	 9.448530e-01
0	-1.666665e+00	 2.500000e+01	 8.897545e-01
0	 1.666665e+00	 8.333327e+00	 1.166944e+00
0	 1.666665e+00	 1.166666e+01	 1.112716e+00
0	 1.666665e+00	 1.500000e+01	 1.058080e+00
0	 1.666665e+00	 1.833333e+01	 1.003036e+00
0	 1.666665e+00	 2.166667e+01	 9.475848e-01
0	 1.666665e+00	 2.500000e+01	 8.917252e-01
0	 4.999996e+00	 8.333327e+00	 1.153915e+00
0	 4.999996e+00	 1.166666e+01	 1.106421e+00
0	 4.999996e+00	 1.500000e+01	 1.058317e+00
0	 4.999996e+00	 1.833333e+01	 1.009604e+00
0	 4.999996e+00	 2.166667e+01	 9.602793e-01
0	 4.999996e+00	 2.500000e+01	 9.103448e-01
0	 8.333327e+00	 8.333327e+00	 1.124104e+00
0	 8.333327e+00	 1.166666e+01	 1.090031e+00
0	 8.333327e+00	 1.500000e+01	 1.055145e+00
0	 8.333327e+00	 1.833333e+01	 1.019447e+00
0	 8.333327e+00	 2.166667e+01	 9.829366e-01
0	 8.333327e+00	 2.500000e+01	 9.456132e-01
0	-8.333327e+00	 2.500000e+01	 9.357595e-01
0	-8.333327e+00	 2.833333e+01	 9.507509e-01
0	-8.333327e+00	 3.166667e+01	 9.646559e-01
0	-8.333327e+00	 3.500000e+01	 9.774744e-01
0	-8.333327e+00	 3.833334e+01	 9.892065e-01
0	-8.333327e+00	 4.166667e+01	 9.998522e-01
0	-4.999996e+00	 2.500000e+01	 9.044326e-01
0	-4.999996e+00	 2.833333e+01	 9.258985e-01
0	-4.999996e+00	 3.166667e+01	 9.464658e-01
0	-4.999996e+00	 3.500000e+01	 9.661346e-01
0	-4.999996e+00	 3.833334e+01	 9.849047e-01
0	-4.999996e+00	 4.166667e+01	 1.002776e+00
0	-1.666665e+00	 2.500000e+01	 8.897545e-01
0	-1.666665e+00	 2.833333e+01	 9.141491e-01
0	-1.666665e+00	 3.166667e+01	 9.378329e-01
0	-1.666665e+00	 3.500000e+01	 9.608059e-01
0	-1.666665e+00	 3.833334e+01	 9.830680e-01
0	-1.666665e+00	 4.166667e+01	 1.004619e+00
0	 1.666665e+00	 2.500000e+01	 8.917252e-01
0	 1.666665e+00	 2.833333e+01	 9.155026e-01
0	 1.666665e+00	 3.166667e+01	 9.387569e-01
0	 1.666665e+00	 3.500000e+01	 9.614883e-01
0	 1.666665e+00	 3.833334e+01	 9.836966e-01
0	 1.666665e+00	 4.166667e+01	 1.005382e+00
0	 4.999996e+00	 2.500000e+01	 9.103448e-01
0	 4.999996e+00	 2.833333e+01	 9.299590e-01
0	 4.999996e+00	 3.166667e+01	 9.492380e-01
0	 4.999996e+00	 3.500000e+01	 9.681818e-01
0	 4.999996e+00	 3.833334e+01	 9.867904e-01
0	 4.999996e+00	 4.166667e+01	 1.005064e+00
0	 8.333327e+00	 2.500000e+01	 9.456132e-01
0	 8.333327e+00	 2.833333e+01	 9.575183e-01
0	 8.333327e+00	 3.166667e+01	 9.692760e-01
0	 8.333327e+00	 3.500000e+01	 9.808864e-01
0	 8.333327e+00	 3.833334e+01	 9.923494e-01
0	 8.333327e+00	 4.166667e+01	 1.003665e+00
0	-8.333327e+00	 4.166667e+01	 9.998522e-01
0	-8.333327e+00	 4.500000e+01	 9.971137e-01
0	-8.333327e+00	 4.833333e+01	 9.950238e-01
0	-8.333327e+00	 5.166667e+01	 9.935826e-01
0	-8.333327e+00	 5.500000e+01	 9.927901e-01
0	-8.333327e+00	 5.833333e+01	 9.926462e-01
0	-4.999996e+00	 4.166667e+01	 1.002776e+00
0	-4.999996e+00	 4.500000e+01	 9.992530e-01
0	-4.999996e+00	 4.833333e+01	 9.963099e-01
0	-4.999996e+00	 5.166667e+01	 9.939469e-01
0	-4.999996e+00	 5.500000e+01	 9.921641e-01
0	-4.999996e+00	 5.833333e+01	 9.909613e-01
0	-1.666665e+00	 4.166667e+01	 1.004619e+00
0	-1.666665e+00	 4.500000e+01	 1.000717e+00
0	-1.666665e+00	 4.833333e+01	 9.973268e-01
0	-1.666665e+00	 5.166667e+01	 9.944479e-01
0	-1.666665e+00	 5.500000e+01	 9.920805e-01
0	-1.666665e+00	 5.833333e+01	 9.902247e-01
0	 1.666665e+00	 4.166667e+01	 1.005382e+00
0	 1.666665e+00	 4.500000e+01	 1.001507e+00
0	 1.666665e+00	 4.833333e+01	 9.980747e-01
0	 1.666665e+00	 5.166667e+01	 9.950856e-01
0	 1.666665e+00	 5.500000e+01	 9.925395e-01
0	 1.666665e+00	 5.833333e+01	 9.904364e-01
0	 4.999996e+00	 4.166667e+01	 1.005064e+00
0	 4.999996e+00	 4.500000e+01	 1.001621e+00
0	 4.999996e+00	 4.833333e+01	 9.985534e-01
0	 4.999996e+00	 5.166667e+01	 9.958599e-01
0	 4.999996e+00	 5.500000e+01	 9.935409e-01
0	 4.999996e+00	 5.833333e+01	 9.915963e-01
0	 8.333327e+00	 4.166667e+01	 1.003665e+00
0	 8.333327e+00	 4.500000e+01	 1.001061e+00
0	 8.333327e+00	 4.833333e+01	 9.987630e-01
0	 8.333327e+00	 5.166667e+01	 9.967709e-01
0	 8.333327e+00	 5.500000e+01	 9.950847e-01
0	 8.333327e+00	 5.833333e+01	 9.937045e-01
0	-8.333327e+00	 5.833333e+01	 9.926462e-01
0	-8.333327e+00	 6.166666e+01	 9.940284e-01
0	-8.333327e+00	 6.500000e+01	 9.952264e-01
0	-8.333327e+00	 6.833333e+01	 9.962402e-01
0	-8.333327e+00	 7.166667e+01	 9.970697e-01
0	-8.333327e+00	 7.500000e+01	 9.977149e-01
0	-4.999996e+00	 5.833333e+01	 9.909613e-01
0	-4.999996e+00	 6.166666e+01	 9.926492e-01
0	-4.999996e+00	 6.500000e+01	 9.941687e-01
0	-4.999996e+00	 6.833333e+01	 9.955198e-01
0	-4.999996e+00	 7.166667e+01	 9.967026e-01
0	-4.999996e+00	 7.500000e+01	 9.977169e-01
0	-1.666665e+00	 5.833333e+01	 9.902247e-01
0	-1.666665e+00	 6.166666e+01	 9.920464e-01
0	-1.666665e+00	 6.500000e+01	 9.937155e-01
0	-1.666665e+00	 6.833333e+01	 9.952321e-01
0	-1.666665e+00	 7.166667e+01	 9.965962e-01
0	-1.666665e+00	 7.500000e+01	 9.978078e-01
0	 1.666665e+00	 5.833333e+01	 9.904364e-01
0	 1.666665e+00	 6.166666e+01	 9.922199e-01
0	 1.666665e+00	 6.500000e+01	 9.938668e-01
0	 1.666665e+00	 6.833333e+01	 9.953770e-01
0	 1.666665e+00	 7.166667e+01	 9.967506e-01
0	 1.666665e+00	 7.500000e+01	 9.979875e-01
0	 4.999996e+00	 5.833333e+01	 9.915963e-01
0	 4.999996e+00	 6.166666e+01	 9.931698e-01
0	 4.999996e+00	 6.500000e+01	 9.946226e-01
0	 4.999996e+00	 6.833333e+01	 9.959545e-01
0	 4.999996e+00	 7.166667e+01	 9.971657e-01
0	 4.999996e+00	 7.500000e+01	 9.982561e-01
0	 8.333327e+00	 5.833333e+01	 9.937045e-01
0	 8.333327e+00	 6.166666e+01	 9.948961e-01
0	 8.333327e+00	 6.500000e+01	 9.959828e-01
0	 8.333327e+00	 6.833333e+01	 9.969647e-01
0	 8.333327e+00	 7.166667e+01	 9.978416e-01
0	 8.333327e+00	 7.500000e+01	 9.986136e-01
0	-8.333327e+00	 7.500000e+01	 9.977149e-01
0	-8.333327e+00	 7.833333e+01	 9.977553e-01
0	-8.333327e+00	 8.166667e+01	 9.978893e-01
0	-8.333327e+00	 8.500000e+01	 9.981171e-01
0	-8.333327e+00	 8.833334e+01	 9.984386e-01
0	-8.333327e+00	 9.166667e+01	 9.988538e-01
0	-4.999996e+00	 7.500000e+01	 9.977169e-01
0	-4.999996e+00	 7.833333e+01	 9.977662e-01
0	-4.999996e+00	 8.166667e+01	 9.979031e-01
0	-4.999996e+00	 8.500000e+01	 9.981274e-01
0	-4.999996e+00	 8.833334e+01	 9.984392e-01
0	-4.999996e+00	 9.166667e+01	 9.988385e-01
0	-1.666665e+00	 7.500000e+01	 9.978078e-01
0	-1.666665e+00	 7.833333e+01	 9.978544e-01
0	-1.666665e+00	 8.166667e+01	 9.979823e-01
0	-1.666665e+00	 8.500000e+01	 9.981914e-01
0	-1.666665e+00	 8.833334e+01	 9.984818e-01
0	-1.666665e+00	 9.166667e+01	 9.988535e-01
0	 1.666665e+00	 7.500000e+01	 9.979875e-01
0	 1.666665e+00	 7.833333e+01	 9.980197e-01
0	 1.666665e+00	 8.166667e+01	 9.981270e-01
0	 1.666665e+00	 8.500000e+01	 9.983092e-01
0	 1.666665e+00	 8.833334e+01	 9.985666e-01
0	 1.666665e+00	 9.166667e+01	 9.988989e-01
0	 4.999996e+00	 7.500000e+01	 9.982561e-01
0	 4.999996e+00	 7.833333e+01	 9.982622e-01
0	 4.999996e+00	 8.166667e+01	 9.983372e-01
0	 4.999996e+00	 8.500000e+01	 9.984809e-01
0	 4.999996e+00	 8.833334e+01	 9.986934e-01
0	 4.999996e+00	 9.166667e+01	 9.989747e-01
0	 8.333327e+00	 7.500000e+01	 9.986136e-01
0	 8.333327e+00	 7.833333e+01	 9.985819e-01
0	 8.333327e+00	 8.166667e+01	 9.986128e-01
0	 8.333327e+00	 8.500000e+01	 9.987063e-01
0	 8.333327e+00	 8.833334e+01	 9.988624e-01
0	 8.333327e+00	 9.166667e+01	 9.990810e-01
0	-8.333327e+00	 9.166667e+01	 9.988538e-01
0	-8.333327e+00	 9.500000e+01	 9.990386e-01
0	-8.333327e+00	 9.833333e+01	 9.992191e-01
0	-8.333327e+00	 1.016667e+02	 9.993952e-01
0	-8.333327e+00	 1.050000e+02	 9.995670e-01
0	-8.333327e+00	 1.083333e+02	 9.997345e-01
0	-4.999996e+00	 9.166667e+01	 9.988385e-01
0	-4.999996e+00	 9.500000e+01	 9.990147e-01
0	-4.999996e+00	 9.833333e+01	 9.991869e-01
0	-4.999996e+00	 1.016667e+02	 9.993553e-01
0	-4.999996e+00	 1.050000e+02	 9.995197e-01
0	-4.999996e+00	 1.083333e+02	 9.996801e-01
0	-1.666665e+00	 9.166667e+01	 9.988535e-01
0	-1.666665e+00	 9.500000e+01	 9.990222e-01
0	-1.666665e+00	 9.833333e+01	 9.991875e-01
0	-1.666665e+00	 1.016667e+02	 9.993491e-01
0	-1.666665e+00	 1.050000e+02	 9.995072e-01
0	-1.666665e+00	 1.083333e+02	 9.996617e-01
0	 1.666665e+00	 9.166667e+01	 9.988989e-01
0	 1.666665e+00	 9.500000e+01	 9.990614e-01
0	 1.666665e+00	 9.833333e+01	 9.992207e-01
0	 1.666665e+00	 1.016667e+02	 9.993768e-01
0	 1.666665e+00	 1.050000e+02	 9.995297e-01
0	 1.666665e+00	 1.083333e+02	 9.996795e-01
0	 4.999996e+00	 9.166667e+01	 9.989747e-01
0	 4.999996e+00	 9.500000e+01	 9.991320e-01
0	 4.999996e+00	 9.833333e+01	 9.992865e-01
0	 4.999996e+00	 1.016667e+02	 9.994382e-01
0	 4.999996e+00	 1.050000e+02	 9.995872e-01
0	 4.999996e+00	 1.083333e+02	 9.997333e-01
0	 8.333327e+00	 9.166667e+01	 9.990810e-01
0	 8.333327e+00	 9.500000e+01	 9.992342e-01
0	 8.333327e+00	 9.833333e+01	 9.993851e-01
0	 8.333327e+00	 1.016667e+02	 9.995335e-01
0	 8.333327e+00	 1.050000e+02	 9.996796e-01
0	 8.333327e+00	 1.083333e+02	 9.998232e-01
0	-8.333327e+00	 1.083333e+02	 9.997345e-01
0	-8.333327e+00	 1.116667e+02	 9.997492e-01
0	-8.333327e+00	 1.150000e+02	 9.998041e-01
0	-8.333327e+00	 1.183333e+02	 9.998991e-01
0	-8.333327e+00	 1.216667e+02	 1.000034e+00
0	-8.333327e+00	 1.250000e+02	 1.000209e+00
0	-4.999996e+00	 1.083333e+02	 9.996801e-01
0	-4.999996e+00	 1.116667e+02	 9.997071e-01
0	-4.999996e+00	 1.150000e+02	 9.997721e-01
0	-4.999996e+00	 1.183333e+02	 9.998751e-01
0	-4.999996e+00	 1.216667e+02	 1.000016e+00
0	-4.999996e+00	 1.250000e+02	 1.000195e+00
0	-1.666665e+00	 1.083333e+02	 9.996617e-01
0	-1.666665e+00	 1.116667e+02	 9.996939e-01
0	-1.666665e+00	 1.150000e+02	 9.997620e-01
0	-1.666665e+00	 1.183333e+02	 9.998661e-01
0	-1.666665e+00	 1.216667e+02	 1.000006e+00
0	-1.666665e+00	 1.250000e+02	 1.000182e+00
0	 1.666665e+00	 1.083333e+02	 9.996795e-01
0	 1.666665e+00	 1.116667e+02	 9.997098e-01
0	 1.666665e+00	 1.150000e+02	 9.997740e-01
0	 1.666665e+00	 1.183333e+02	 9.998721e-01
0	 1.666665e+00	 1.216667e+02	 1.000004e+00
0	 1.666665e+00	 1.250000e+02	 1.000170e+00
0	 4.999996e+00	 1.083333e+02	 9.997333e-01
0	 4.999996e+00	 1.116667e+02	 9.997547e-01
0	 4.999996e+00	 1.150000e+02	 9.998079e-01
0	 4.999996e+00	 1.183333e+02	 9.998929e-01
0	 4.999996e+00	 1.216667e+02	 1.000010e+00
0	 4.999996e+00	 1.250000e+02	 1.000158e+00
0	 8.333327e+00	 1.083333e+02	 9.998232e-01
0	 8.333327e+00	 1.116667e+02	 9.998287e-01
0	 8.333327e+00	 1.150000e+02	 9.998639e-01
0	 8.333327e+00	 1.183333e+02	 9.999287e-01
0	 8.333327e+00	 1.216667e+02	 1.000023e+00
0	 8.333327e+00	 1.250000e+02	 1.000148e+00
0	 8.333327e+00	-1.250000e+02	 1.000209e+00
0	 8.333327e+00	-1.216667e+02	 1.000034e+00
0	 8.333327e+00	-1.183333e+02	 9.998991e-01
0	 8.333327e+00	-1.150000e+02	 9.998041e-01
0	 8.333327e+00	-1.116667e+02	 9.997492e-01
0	 8.333327e+00	-1.083333e+02	 9.997345e-01
0	 1.166666e+01	-1.250000e+02	 1.000139e+00
0	 1.166666e+01	-1.216667e+02	 9.999894e-01
0	 1.166666e+01	-1.183333e+02	 9.998741e-01
0	 1.166666e+01	-1.150000e+02	 9.997930e-01
0	 1.166666e+01	-1.116667e+02	 9.997460e-01
0	 1.166666e+01	-1.083333e+02	 9.997330e-01
0	 1.500000e+01	-1.250000e+02	 1.000089e+00
0	 1.500000e+01	-1.216667e+02	 9.999641e-01
0	 1.500000e+01	-1.183333e+02	 9.998670e-01
0	 1.500000e+01	-1.150000e+02	 9.997981e-01
0	 1.500000e+01	-1.116667e+02	 9.997572e-01
0	 1.500000e+01	-1.083333e+02	 9.997445e-01
0	 1.833333e+01	-1.250000e+02	 1.000061e+00
0	 1.833333e+01	-1.216667e+02	 9.999582e-01
0	 1.833333e+01	-1.183333e+02	 9.998777e-01
0	 1.833333e+01	-1.150000e+02	 9.998193e-01
0	 1.833333e+01	-1.116667e+02	 9.997830e-01
0	 1.833333e+01	-1.083333e+02	 9.997688e-01
0	 2.166667e+01	-1.250000e+02	 1.000053e+00
0	 2.166667e+01	-1.216667e+02	 9.999718e-01
0	 2.166667e+01	-1.183333e+02	 9.999063e-01
0	 2.166667e+01	-1.150000e+02	 9.998568e-01
0	 2.166667e+01	-1.116667e+02	 9.998234e-01
0	 2.166667e+01	-1.083333e+02	 9.998061e-01
0	 2.500000e+01	-1.250000e+02	 1.000067e+00
0	 2.500000e+01	-1.216667e+02	 1.000005e+00
0	 2.500000e+01	-1.183333e+02	 9.999526e-01
0	 2.500000e+01	-1.150000e+02	 9.999105e-01
0	 2.500000e+01	-1.116667e+02	 9.998783e-01
0	 2.500000e+01	-1.083333e+02	 9.998563e-01
0	 8.333327e+00	-1.083333e+02	 9.997345e-01
0	 8.333327e+00	-1.050000e+02	 9.995670e-01
0	 8.333327e+00	-1.016667e+02	 9.993952e-01
0	 8.333327e+00	-9.833333e+01	 9.992191e-01
0	 8.333327e+00	-9.500000e+01	 9.990386e-01
0	 8.333327e+00	-9.166667e+01	 9.988538e-01
0	 1.166666e+01	-1.083333e+02	 9.997330e-01
0	 1.166666e+01	-1.050000e+02	 9.995470e-01
0	 1.166666e+01	-1.016667e+02	 9.993663e-01
0	 1.166666e+01	-9.833333e+01	 9.991910e-01
0	 1.166666e+01	-9.500000e+01	 9.990211e-01
0	 1.166666e+01	-9.166667e+01	 9.988565e-01
0	 1.500000e+01	-1.083333e+02	 9.997445e-01
0	 1.500000e+01	-1.050000e+02	 9.995421e-01
0	 1.500000e+01	-1.016667e+02	 9.993549e-01
0	 1.500000e+01	-9.833333e+01	 9.991828e-01
0	 1.500000e+01	-9.500000e+01	 9.990257e-01
0	 1.500000e+01	-9.166667e+01	 9.988838e-01
0	 1.833333e+01	-1.083333e+02	 9.997688e-01
0	 1.833333e+01	-1.050000e+02	 9.995526e-01
0	 1.833333e+01	-1.016667e+02	 9.993611e-01
0	 1.833333e+01	-9.833333e+01	 9.991945e-01
0	 1.833333e+01	-9.500000e+01	 9.990526e-01
0	 1.833333e+01	-9.166667e+01	 9.989356e-01
0	 2.166667e+01	-1.083333e+02	 9.998061e-01
0	 2.166667e+01	-1.050000e+02	 9.995782e-01
0	 2.166667e+01	-1.016667e+02	 9.993849e-01
0	 2.166667e+01	-9.833333e+01	 9.992261e-01
0	 2.166667e+01	-9.500000e+01	 9.991018e-01
0	 2.166667e+01	-9.166667e+01	 9.990120e-01
0	 2.500000e+01	-1.083333e+02	 9.998563e-01
0	 2.500000e+01	-1.050000e+02	 9.996192e-01
0	 2.500000e+01	-1.016667e+02	 9.994262e-01
0	 2.500000e+01	-9.833333e+01	 9.992776e-01
0	 2.500000e+01	-9.500000e+01	 9.991731e-01
0	 2.500000e+01	-9.166667e+01	 9.991130e-01
0	 8.333327e+00	-9.166667e+01	 9.988538e-01
0	 8.333327e+00	-8.833334e+01	 9.984386e-01
0	 8.333327e+00	-8.500000e+01	 9.981171e-01
0	 8.333327e+00	-8.166667e+01	 9.978893e-01
0	 8.333327e+00	-7.833333e+01	 9.977553e-01
0	 8.333327e+00	-7.500000e+01	 9.977149e-01
0	 1.166666e+01	-9.166667e+01	 9.988565e-01
0	 1.166666e+01	-8.833334e+01	 9.984578e-01
0	 1.166666e+01	-8.500000e+01	 9.981164e-01
0	 1.166666e+01	-8.166667e+01	 9.978323e-01
0	 1.166666e+01	-7.833333e+01	 9.976055e-01
0	 1.166666e+01	-7.500000e+01	 9.974360e-01
0	 1.500000e+01	-9.166667e+01	 9.988838e-01
0	 1.500000e+01	-8.833334e+01	 9.985307e-01
0	 1.500000e+01	-8.500000e+01	 9.981986e-01
0	 1.500000e+01	-8.166667e+01	 9.978873e-01
0	 1.500000e+01	-7.833333e+01	 9.975970e-01
0	 1.500000e+01	-7.500000e+01	 9.973275e-01
0	 1.833333e+01	-9.166667e+01	 9.989356e-01
0	 1.833333e+01	-8.833334e+01	 9.986574e-01
0	 1.833333e+01	-8.500000e+01	 9.983637e-01
0	 1.833333e+01	-8.166667e+01	 9.980544e-01
0	 1.833333e+01	-7.833333e+01	 9.977297e-01
0	 1.833333e+01	-7.500000e+01	 9.973895e-01
0	 2.166667e+01	-9.166667e+01	 9.990120e-01
0	 2.166667e+01	-8.833334e+01	 9.988378e-01
0	 2.166667e+01	-8.500000e+01	 9.986117e-01
0	 2.166667e+01	-8.166667e+01	 9.983337e-01
0	 2.166667e+01	-7.833333e+01	 9.980038e-01
0	 2.166667e+01	-7.500000e+01	 9.976219e-01
0	 2.500000e+01	-9.166667e+01	 9.991130e-01
0	 2.500000e+01	-8.833334e+01	 9.990720e-01
0	 2.500000e+01	-8.500000e+01	 9.989426e-01
0	 2.500000e+01	-8.166667e+01	 9.987250e-01
0	 2.500000e+01	-7.833333e+01	 9.984191e-01
0	 2.500000e+01	-7.500000e+01	 9.980248e-01
0	 8.333327e+00	-7.500000e+01	 9.977149e-01
0	 8.333327e+00	-7.166667e+01	 9.970697e-01
0	 8.333327e+00	-6.833333e+01	 9.962402e-01
0	 8.333327e+00	-6.500000e+01	 9.952264e-01
0	 8.333327e+00	-6.166666e+01	 9.940284e-01
0	 8.333327e+00	-5.833333e+01	 9.926462e-01
0	 1.166666e+01	-7.500000e+01	 9.974360e-01
0	 1.166666e+01	-7.166667e+01	 9.970571e-01
0	 1.166666e+01	-6.833333e+01	 9.965739e-01
0	 1.166666e+01	-6.500000e+01	 9.959863e-01
0	 1.166666e+01	-6.166666e+01	 9.952944e-01
0	 1.166666e+01	-5.833333e+01	 9.944981e-01
0	 1.500000e+01	-7.500000e+01	 9.973275e-01
0	 1.500000e+01	-7.166667e+01	 9.971016e-01
0	 1.500000e+01	-6.833333e+01	 9.968512e-01
0	 1.500000e+01	-6.500000e+01	 9.965764e-01
0	 1.500000e+01	-6.166666e+01	 9.962771e-01
0	 1.500000e+01	-5.833333e+01	 9.959534e-01
0	 1.833333e+01	-7.500000e+01	 9.973895e-01
0	 1.833333e+01	-7.166667e+01	 9.972031e-01
0	 1.833333e+01	-6.833333e+01	 9.970721e-01
0	 1.833333e+01	-6.500000e+01	 9.969967e-01
0	 1.833333e+01	-6.166666e+01	 9.969767e-01
0	 1.833333e+01	-5.833333e+01	 9.970122e-01
0	 2.166667e+01	-7.500000e+01	 9.976219e-01
0	 2.166667e+01	-7.166667e+01	 9.973617e-01
0	 2.166667e+01	-6.833333e+01	 9.972368e-01
0	 2.166667e+01	-6.500000e+01	 9.972472e-01
0	 2.166667e+01	-6.166666e+01	 9.973931e-01
0	 2.166667e+01	-5.833333e+01	 9.976744e-01
0	 2.500000e+01	-7.500000e+01	 9.980248e-01
0	 2.500000e+01	-7.166667e+01	 9.975773e-01
0	 2.500000e+01	-6.833333e+01	 9.973450e-01
0	 2.500000e+01	-6.500000e+01	 9.973280e-01
0	 2.500000e+01	-6.166666e+01	 9.975264e-01
0	 2.500000e+01	-5.833333e+01	 9.979400e-01
0	 8.333327e+00	-5.833333e+01	 9.926462e-01
0	 8.333327e+00	-5.500000e+01	 9.927901e-01
0	 8.333327e+00	-5.166667e+01	 9.935826e-01
0	 8.333327e+00	-4.833333e+01	 9.950238e-01
0	 8.333327e+00	-4.500000e+01	 9.971137e-01
0	 8.333327e+00	-4.166667e+01	 9.998522e-01
0	 1.166666e+01	-5.833333e+01	 9.944981e-01
0	 1.166666e+01	-5.500000e+01	 9.937414e-01
0	 1.166666e+01	-5.166667e+01	 9.933885e-01
0	 1.166666e+01	-4.833333e+01	 9.934394e-01
0	 1.166666e+01	-4.500000e+01	 9.938942e-01
0	 1.166666e+01	-4.166667e+01	 9.947527e-01
0	 1.500000e+01	-5.833333e+01	 9.959534e-01
0	 1.500000e+01	-5.500000e+01	 9.947337e-01
0	 1.500000e+01	-5.166667e+01	 9.936730e-01
0	 1.500000e+01	-4.833333e+01	 9.927712e-01
0	 1.500000e+01	-4.500000e+01	 9.920284e-01
0	 1.500000e+01	-4.166667e+01	 9.914446e-01
0	 1.833333e+01	-5.833333e+01	 9.970122e-01
0	 1.833333e+01	-5.500000e+01	 9.957670e-01
0	 1.833333e+01	-5.166667e+01	 9.944360e-01
0	 1.833333e+01	-4.833333e+01	 9.930191e-01
0	 1.833333e+01	-4.500000e+01	 9.915164e-01
0	 1.833333e+01	-4.166667e+01	 9.899278e-01
0	 2.166667e+01	-5.833333e+01	 9.976744e-01
0	 2.166667e+01	-5.500000e+01	 9.968414e-01
0	 2.166667e+01	-5.166667e+01	 9.956776e-01
0	 2.166667e+01	-4.833333e+01	 9.941832e-01
0	 2.166667e+01	-4.500000e+01	 9.923581e-01
0	 2.166667e+01	-4.166667e+01	 9.902023e-01
0	 2.500000e+01	-5.833333e+01	 9.979400e-01
0	 2.500000e+01	-5.500000e+01	 9.979567e-01
0	 2.500000e+01	-5.166667e+01	 9.973979e-01
0	 2.500000e+01	-4.833333e+01	 9.962635e-01
0	 2.500000e+01	-4.500000e+01	 9.945536e-01
0	 2.500000e+01	-4.166667e+01	 9.922682e-01
0	 8.333327e+00	-4.166667e+01	 9.998522e-01
0	 8.333327e+00	-3.833334e+01	 9.892065e-01
0	 8.333327e+00	-3.500000e+01	 9.774744e-01
0	 8.333327e+00	-3.166667e+01	 9.646559e-01
0	 8.333327e+00	-2.833333e+01	 9.507509e-01
0	 8.333327e+00	-2.500000e+01	 9.357595e-01
0	 1.166666e+01	-4.166667e+01	 9.947527e-01
0	 1.166666e+01	-3.833334e+01	 9.910095e-01
0	 1.166666e+01	-3.500000e+01	 9.864434e-01
0	 1.166666e+01	-3.166667e+01	 9.810545e-01
0	 1.166666e+01	-2.833333e+01	 9.748428e-01
0	 1.166666e+01	-2.500000e+01	 9.678082e-01
0	 1.500000e+01	-4.166667e+01	 9.914446e-01
0	 1.500000e+01	-3.833334e+01	 9.924955e-01
0	 1.500000e+01	-3.500000e+01	 9.929871e-01
0	 1.500000e+01	-3.166667e+01	 9.929196e-01
0	 1.500000e+01	-2.833333e+01	 9.922928e-01
0	 1.500000e+01	-2.500000e+01	 9.911068e-01
0	 1.833333e+01	-4.166667e+01	 9.899278e-01
0	 1.833333e+01	-3.833334e+01	 9.936645e-01
0	 1.833333e+01	-3.500000e+01	 9.971056e-01
0	 1.833333e+01	-3.166667e+01	 1.000251e+00
0	 1.833333e+01	-2.833333e+01	 1.003101e+00
0	 1.833333e+01	-2.500000e+01	 1.005655e+00
0	 2.166667e+01	-4.166667e+01	 9.902023e-01
0	 2.166667e+01	-3.833334e+01	 9.945166e-01
0	 2.166667e+01	-3.500000e+01	 9.987988e-01
0	 2.166667e+01	-3.166667e+01	 1.003049e+00
0	 2.166667e+01	-2.833333e+01	 1.007267e+00
0	 2.166667e+01	-2.500000e+01	 1.011453e+00
0	 2.500000e+01	-4.166667e+01	 9.922682e-01
0	 2.500000e+01	-3.833334e+01	 9.950517e-01
0	 2.500000e+01	-3.500000e+01	 9.980668e-01
0	 2.500000e+01	-3.166667e+01	 1.001314e+00
0	 2.500000e+01	-2.833333e+01	 1.004792e+00
0	 2.500000e+01	-2.500000e+01	 1.008502e+00
0	 8.333327e+00	-2.500000e+01	 9.357595e-01
0	 8.333327e+00	-2.166667e+01	 9.692776e-01
0	 8.333327e+00	-1.833333e+01	 1.002995e+00
0	 8.333327e+00	-1.500000e+01	 1.036911e+00
0	 8.333327e+00	-1.166666e+01	 1.071026e+00
0	 8.333327e+00	-8.333327e+00	 1.105341e+00
0	 1.166666e+01	-2.500000e+01	 9.678082e-01
0	 1.166666e+01	-2.166667e+01	 9.866690e-01
0	 1.166666e+01	-1.833333e+01	 1.005847e+00
0	 1.166666e+01	-1.500000e+01	 1.025342e+00
0	 1.166666e+01	-1.166666e+01	 1.045154e+00
0	 1.166666e+01	-8.333327e+00	 1.065282e+00
0	 1.500000e+01	-2.500000e+01	 9.911068e-01
0	 1.500000e+01	-2.166667e+01	 9.990541e-01
0	 1.500000e+01	-1.833333e+01	 1.007436e+00
0	 1.500000e+01	-1.500000e+01	 1.016254e+00
0	 1.500000e+01	-1.166666e+01	 1.025506e+00
0	 1.500000e+01	-8.333327e+00	 1.035194e+00
0	 1.833333e+01	-2.500000e+01	 1.005655e+00
0	 1.833333e+01	-2.166667e+01	 1.006433e+00
0	 1.833333e+01	-1.833333e+01	 1.007764e+00
0	 1.833333e+01	-1.500000e+01	 1.009648e+00
0	 1.833333e+01	-1.166666e+01	 1.012085e+00
0	 1.833333e+01	-8.333327e+00	 1.015075e+00
0	 2.166667e+01	-2.500000e+01	 1.011453e+00
0	 2.166667e+01	-2.166667e+01	 1.008806e+00
0	 2.166667e+01	-1.833333e+01	 1.006829e+00
0	 2.166667e+01	-1.500000e+01	 1.005523e+00
0	 2.166667e+01	-1.166666e+01	 1.004888e+00
0	 2.166667e+01	-8.333327e+00	 1.004925e+00
0	 2.500000e+01	-2.500000e+01	 1.008502e+00
0	 2.500000e+01	-2.166667e+01	 1.006172e+00
0	 2.500000e+01	-1.833333e+01	 1.004632e+00
0	 2.500000e+01	-1.500000e+01	 1.003880e+00
0	 2.500000e+01	-1.166666e+01	 1.003918e+00
0	 2.500000e+01	-8.333327e+00	 1.004744e+00
0	 8.333327e+00	-8.333327e+00	 1.105341e+00
0	 8.333327e+00	-4.999996e+00	 1.106987e+00
0	 8.333327e+00	-1.666665e+00	 1.109686e+00
0	 8.333327e+00	 1.666665e+00	 1.113439e+00
0	 8.333327e+00	 4.999996e+00	 1.118245e+00
0	 8.333327e+00	 8.333327e+00	 1.124104e+00
0	 1.166666e+01	-8.333327e+00	 1.065282e+00
0	 1.166666e+01	-4.999996e+00	 1.068501e+00
0	 1.166666e+01	-1.666665e+00	 1.072387e+00
0	 1.166666e+01	 1.666665e+00	 1.076940e+00
0	 1.166666e+01	 4.999996e+00	 1.082161e+00
0	 1.166666e+01	 8.333327e+00	 1.088050e+00
0	 1.500000e+01	-8.333327e+00	 1.035194e+00
0	 1.500000e+01	-4.999996e+00	 1.039377e+00
0	 1.500000e+01	-1.666665e+00	 1.043842e+00
0	 1.500000e+01	 1.666665e+00	 1.048589e+00
0	 1.500000e+01	 4.999996e+00	 1.053618e+00
0	 1.500000e+01	 8.333327e+00	 1.058928e+00
0	 1.833333e+01	-8.333327e+00	 1.015075e+00
0	 1.833333e+01	-4.999996e+00	 1.019615e+00
0	 1.833333e+01	-1.666665e+00	 1.024052e+00
0	 1.833333e+01	 1.666665e+00	 1.028385e+00
0	 1.833333e+01	 4.999996e+00	 1.032614e+00
0	 1.833333e+01	 8.333327e+00	 1.036739e+00
0	 2.166667e+01	-8.333327e+00	 1.004925e+00
0	 2.166667e+01	-4.999996e+00	 1.009215e+00
0	 2.166667e+01	-1.666665e+00	 1.013016e+00
0	 2.166667e+01	 1.666665e+00	 1.016327e+00
0	 2.166667e+01	 4.999996e+00	 1.019150e+00
0	 2.166667e+01	 8.333327e+00	 1.021482e+00
0	 2.500000e+01	-8.333327e+00	 1.004744e+00
0	 2.500000e+01	-4.999996e+00	 1.008177e+00
0	 2.500000e+01	-1.666665e+00	 1.010735e+00
0	 2.500000e+01	 1.666665e+00	 1.012418e+00
0	 2.500000e+01	 4.999996e+00	 1.013225e+00
0	 2.500000e+01	 8.333327e+00	 1.013158e+00
0	 8.333327e+00	 8.333327e+00	 1.124104e+00
0	 8.333327e+00	 1.166666e+01	 1.090031e+00
0	 8.333327e+00	 1.500000e+01	 1.055145e+00
0	 8.333327e+00	 1.833333e+01	 1.019447e+00
0	 8.333327e+00	 2.166667e+01	 9.829366e-01
0	 8.333327e+00	 2.500000e+01	 9.456132e-01
0	 1.166666e+01	 8.333327e+00	 1.088050e+00
0	 1.166666e+01	 1.166666e+01	 1.067836e+00
0	 1.166666e+01	 1.500000e+01	 1.046985e+00
0	 1.166666e+01	 1.833333e+01	 1.025497e+00
0	 1.166666e+01	 2.166667e+01	 1.003373e+00
0	 1.166666e+01	 2.500000e+01	 9.806110e-01
0	 1.500000e+01	 8.333327e+00	 1.058928e+00
0	 1.500000e+01	 1.166666e+01	 1.049108e+00
0	 1.500000e+01	 1.500000e+01	 1.038827e+00
0	 1.500000e+01	 1.833333e+01	 1.028084e+00
0	 1.500000e+01	 2.166667e+01	 1.016880e+00
0	 1.500000e+01	 2.500000e+01	 1.005214e+00
0	 1.833333e+01	 8.333327e+00	 1.036739e+00
0	 1.833333e+01	 1.166666e+01	 1.033847e+00
0	 1.833333e+01	 1.500000e+01	 1.030670e+00
0	 1.833333e+01	 1.833333e+01	 1.027206e+00
0	 1.833333e+01	 2.166667e+01	 1.023457e+00
0	 1.833333e+01	 2.500000e+01	 1.019423e+00
0	 2.166667e+01	 8.333327e+00	 1.021482e+00
0	 2.166667e+01	 1.166666e+01	 1.022053e+00
0	 2.166667e+01	 1.500000e+01	 1.022514e+00
0	 2.166667e+01	 1.833333e+01	 1.022865e+00
0	 2.166667e+01	 2.166667e+01	 1.023106e+00
0	 2.166667e+01	 2.500000e+01	 1.023237e+00
0	 2.500000e+01	 8.333327e+00	 1.013158e+00
0	 2.500000e+01	 1.166666e+01	 1.013727e+00
0	 2.500000e+01	 1.500000e+01	 1.014361e+00
0	 2.500000e+01	 1.833333e+01	 1.015060e+00
0	 2.500000e+01	 2.166667e+01	 1.015825e+00
0	 2.500000e+01	 2.500000e+01	 1.016656e+00
0	 8.333327e+00	 2.500000e+01	 9.456132e-01
0	 8.333327e+00	 2.833333e+01	 9.575183e-01
0	 8.333327e+00	 3.166667e+01	 9.692760e-01
0	 8.333327e+00	 3.500000e+01	 9.808864e-01
0	 8.333327e+00	 3.833334e+01	 9.923494e-01
0	 8.333327e+00	 4.166667e+01	 1.003665e+00
0	 1.166666e+01	 2.500000e+01	 9.806110e-01
0	 1.166666e+01	 2.833333e+01	 9.846799e-01
0	 1.166666e+01	 3.166667e+01	 9.887734e-01
0	 1.166666e+01	 3.500000e+01	 9.928916e-01
0	 1.166666e+01	 3.833334e+01	 9.970344e-01
0	 1.166666e+01	 4.166667e+01	 1.001202e+00
0	 1.500000e+01	 2.500000e+01	 1.005214e+00
0	 1.500000e+01	 2.833333e+01	 1.003696e+00
0	 1.500000e+01	 3.166667e+01	 1.002375e+00
0	 1.500000e+01	 3.500000e+01	 1.001250e+00
0	 1.500000e+01	 3.833334e+01	 1.000322e+00
0	 1.500000e+01	 4.166667e+01	 9.995903e-01
0	 1.833333e+01	 2.500000e+01	 1.019423e+00
0	 1.833333e+01	 2.833333e+01	 1.014567e+00
0	 1.833333e+01	 3.166667e+01	 1.010080e+00
0	 1.833333e+01	 3.500000e+01	 1.005961e+00
0	 1.833333e+01	 3.833334e+01	 1.002212e+00
0	 1.833333e+01	 4.166667e+01	 9.988304e-01
0	 2.166667e+01	 2.500000e+01	 1.023237e+00
0	 2.166667e+01	 2.833333e+01	 1.017293e+00
0	 2.166667e+01	 3.166667e+01	 1.011889e+00
0	 2.166667e+01	 3.500000e+01	 1.007026e+00
0	 2.166667e+01	 3.833334e+01	 1.002704e+00
0	 2.166667e+01	 4.166667e+01	 9.989222e-01
0	 2.500000e+01	 2.500000e+01	 1.016656e+00
0	 2.500000e+01	 2.833333e+01	 1.011873e+00
0	 2.500000e+01	 3.166667e+01	 1.007802e+00
0	 2.500000e+01	 3.500000e+01	 1.004444e+00
0	 2.500000e+01	 3.833334e+01	 1.001799e+00
0	 2.500000e+01	 4.166667e+01	 9.998657e-01
0	 8.333327e+00	 4.166667e+01	 1.003665e+00
0	 8.333327e+00	 4.500000e+01	 1.001061e+00
0	 8.333327e+00	 4.833333e+01	 9.987630e-01
0	 8.333327e+00	 5.166667e+01	 9.967709e-01
0	 8.333327e+00	 5.500000e+01	 9.950847e-01
0	 8.333327e+00	 5.833333e+01	 9.937045e-01
0	 1.166666e+01	 4.166667e+01	 1.001202e+00
0	 1.166666e+01	 4.500000e+01	 9.999001e-01
0	 1.166666e+01	 4.833333e+01	 9.987196e-01
0	 1.166666e+01	 5.166667e+01	 9.976602e-01
0	 1.166666e+01	 5.500000e+01	 9.967220e-01
0	 1.166666e+01	 5.833333e+01	 9.959050e-01
0	 1.500000e+01	 4.166667e+01	 9.995903e-01
0	 1.500000e+01	 4.500000e+01	 9.993288e-01
0	 1.500000e+01	 4.833333e+01	 9.990038e-01
0	 1.500000e+01	 5.166667e+01	 9.986153e-01
0	 1.500000e+01	 5.500000e+01	 9.981631e-01
0	 1.500000e+01	 5.833333e+01	 9.976474e-01
0	 1.833333e+01	 4.166667e+01	 9.988304e-01
0	 1.833333e+01	 4.500000e+01	 9.993473e-01
0	 1.833333e+01	 4.833333e+01	 9.996159e-01
0	 1.833333e+01	 5.166667e+01	 9.996361e-01
0	 1.833333e+01	 5.500000e+01	 9.994081e-01
0	 1.833333e+01	 5.833333e+01	 9.989316e-01
0	 2.166667e+01	 4.166667e+01	 9.989222e-01
0	 2.166667e+01	 4.500000e+01	 9.999555e-01
0	 2.166667e+01	 4.833333e+01	 1.000556e+00
0	 2.166667e+01	 5.166667e+01	 1.000723e+00
0	 2.166667e+01	 5.500000e+01	 1.000457e+00
0	 2.166667e+01	 5.833333e+01	 9.997577e-01
0	 2.500000e+01	 4.166667e+01	 9.998657e-01
0	 2.500000e+01	 4.500000e+01	 1.001153e+00
0	 2.500000e+01	 4.833333e+01	 1.001823e+00
0	 2.500000e+01	 5.166667e+01	 1.001875e+00
0	 2.500000e+01	 5.500000e+01	 1.001309e+00
0	 2.500000e+01	 5.833333e+01	 1.000126e+00
0	 8.333327e+00	 5.833333e+01	 9.937045e-01
0	 8.333327e+00	 6.166666e+01	 9.948961e-01
0	 8.333327e+00	 6.500000e+01	 9.959828e-01
0	 8.333327e+00	 6.833333e+01	 9.969647e-01
0	 8.333327e+00	 7.166667e+01	 9.978416e-01
0	 8.333327e+00	 7.500000e+01	 9.986136e-01
0	 1.166666e+01	 5.833333e+01	 9.959050e-01
0	 1.166666e+01	 6.166666e+01	 9.965701e-01
0	 1.166666e+01	 6.500000e+01	 9.971922e-01
0	 1.166666e+01	 6.833333e+01	 9.977714e-01
0	 1.166666e+01	 7.166667e+01	 9.983077e-01
0	 1.166666e+01	 7.500000e+01	 9.988011e-01
0	 1.500000e+01	 5.833333e+01	 9.976474e-01
0	 1.500000e+01	 6.166666e+01	 9.978844e-01
0	 1.500000e+01	 6.500000e+01	 9.981405e-01
0	 1.500000e+01	 6.833333e+01	 9.984156e-01
0	 1.500000e+01	 7.166667e+01	 9.987098e-01
0	 1.500000e+01	 7.500000e+01	 9.990230e-01
0	 1.833333e+01	 5.833333e+01	 9.989316e-01
0	 1.833333e+01	 6.166666e+01	 9.988391e-01
0	 1.833333e+01	 6.500000e+01	 9.988277e-01
0	 1.833333e+01	 6.833333e+01	 9.988972e-01
0	 1.833333e+01	 7.166667e+01	 9.990479e-01
0	 1.833333e+01	 7.500000e+01	 9.992795e-01
0	 2.166667e+01	 5.833333e+01	 9.997577e-01
0	 2.166667e+01	 6.166666e+01	 9.994342e-01
0	 2.166667e+01	 6.500000e+01	 9.992537e-01
0	 2.166667e+01	 6.833333e+01	 9.992163e-01
0	 2.166667e+01	 7.166667e+01	 9.993219e-01
0	 2.166667e+01	 7.500000e+01	 9.995705e-01
0	 2.500000e+01	 5.833333e+01	 1.000126e+00
0	 2.500000e+01	 6.166666e+01	 9.996696e-01
0	 2.500000e+01	 6.500000e+01	 9.994187e-01
0	 2.500000e+01	 6.833333e+01	 9.993728e-01
0	 2.500000e+01	 7.166667e+01	 9.995319e-01
0	 2.500000e+01	 7.500000e+01	 9.998960e-01
0	 8.333327e+00	 7.500000e+01	 9.986136e-01
0	 8.333327e+00	 7.833333e+01	 9.985819e-01
0	 8.333327e+00	 8.166667e+01	 9.986128e-01
0	 8.333327e+00	 8.500000e+01	 9.987063e-01
0	 8.333327e+00	 8.833334e+01	 9.988624e-01
0	 8.333327e+00	 9.166667e+01	 9.990810e-01
0	 1.166666e+01	 7.500000e+01	 9.988011e-01
0	 1.166666e+01	 7.833333e+01	 9.988114e-01
0	 1.166666e+01	 8.166667e+01	 9.988542e-01
0	 1.166666e+01	 8.500000e+01	 9.989294e-01
0	 1.166666e+01	 8.833334e+01	 9.990372e-01
0	 1.166666e+01	 9.166667e+01	 9.991774e-01
0	 1.500000e+01	 7.500000e+01	 9.990230e-01
0	 1.500000e+01	 7.833333e+01	 9.990716e-01
0	 1.500000e+01	 8.166667e+01	 9.991225e-01
0	 1.500000e+01	 8.500000e+01	 9.991758e-01
0	 1.500000e+01	 8.833334e+01	 9.992314e-01
0	 1.500000e+01	 9.166667e+01	 9.992894e-01
0	 1.833333e+01	 7.500000e+01	 9.992795e-01
0	 1.833333e+01	 7.833333e+01	 9.993625e-01
0	 1.833333e+01	 8.166667e+01	 9.994178e-01
0	 1.833333e+01	 8.500000e+01	 9.994453e-01
0	 1.833333e+01	 8.833334e+01	 9.994451e-01
0	 1.833333e+01	 9.166667e+01	 9.994172e-01
0	 2.166667e+01	 7.500000e+01	 9.995705e-01
0	 2.166667e+01	 7.833333e+01	 9.996842e-01
0	 2.166667e+01	 8.166667e+01	 9.997401e-01
0	 2.166667e+01	 8.500000e+01	 9.997381e-01
0	 2.166667e+01	 8.833334e+01	 9.996783e-01
0	 2.166667e+01	 9.166667e+01	 9.995606e-01
0	 2.500000e+01	 7.500000e+01	 9.998960e-01
0	 2.500000e+01	 7.833333e+01	 1.000037e+00
0	 2.500000e+01	 8.166667e+01	 1.000089e+00
0	 2.500000e+01	 8.500000e+01	 1.000054e+00
0	 2.500000e+01	 8.833334e+01	 9.999308e-01
0	 2.500000e+01	 9.166667e+01	 9.997196e-01
0	 8.333327e+00	 9.166667e+01	 9.990810e-01
0	 8.333327e+00	 9.500000e+01	 9.992342e-01
0	 8.333327e+00	 9.833333e+01	 9.993851e-01
0	 8.333327e+00	 1.016667e+02	 9.995335e-01
0	 8.333327e+00	 1.050000e+02	 9.996796e-01
0	 8.333327e+00	 1.083333e+02	 9.998232e-01
0	 1.166666e+01	 9.166667e+01	 9.991774e-01
0	 1.166666e+01	 9.500000e+01	 9.993083e-01
0	 1.166666e+01	 9.833333e+01	 9.994433e-01
0	 1.166666e+01	 1.016667e+02	 9.995824e-01
0	 1.166666e+01	 1.050000e+02	 9.997254e-01
0	 1.166666e+01	 1.083333e+02	 9.998726e-01
0	 1.500000e+01	 9.166667e+01	 9.992894e-01
0	 1.500000e+01	 9.500000e+01	 9.993942e-01
0	 1.500000e+01	 9.833333e+01	 9.995095e-01
0	 1.500000e+01	 1.016667e+02	 9.996353e-01
0	 1.500000e+01	 1.050000e+02	 9.997716e-01
0	 1.500000e+01	 1.083333e+02	 9.999183e-01
0	 1.833333e+01	 9.166667e+01	 9.994172e-01
0	 1.833333e+01	 9.500000e+01	 9.994919e-01
0	 1.833333e+01	 9.833333e+01	 9.995836e-01
0	 1.833333e+01	 1.016667e+02	 9.996923e-01
0	 1.833333e+01	 1.050000e+02	 9.998179e-01
0	 1.833333e+01	 1.083333e+02	 9.999604e-01
0	 2.166667e+01	 9.166667e+01	 9.995606e-01
0	 2.166667e+01	 9.500000e+01	 9.996014e-01
0	 2.166667e+01	 9.833333e+01	 9.996657e-01
0	 2.166667e+01	 1.016667e+02	 9.997534e-01
0	 2.166667e+01	 1.050000e+02	 9.998645e-01
0	 2.166667e+01	 1.083333e+02	 9.999990e-01
0	 2.500000e+01	 9.166667e+01	 9.997196e-01
0	 2.500000e+01	 9.500000e+01	 9.997228e-01
0	 2.500000e+01	 9.833333e+01	 9.997558e-01
0	 2.500000e+01	 1.016667e+02	 9.998186e-01
0	 2.500000e+01	 1.050000e+02	 9.999113e-01
0	 2.500000e+01	 1.083333e+02	 1.000034e+00
0	 8.333327e+00	 1.083333e+02	 9.998232e-01
0	 8.333327e+00	 1.116667e+02	 9.998287e-01
0	 8.333327e+00	 1.150000e+02	 9.998639e-01
0	 8.333327e+00	 1.183333e+02	 9.999287e-01
0	 8.333327e+00	 1.216667e+02	 1.000023e+00
0	 8.333327e+00	 1.250000e+02	 1.000148e+00
0	 1.166666e+01	 1.083333e+02	 9.998726e-01
0	 1.166666e+01	 1.116667e+02	 9.998684e-01
0	 1.166666e+01	 1.150000e+02	 9.998867e-01
0	 1.166666e+01	 1.183333e+02	 9.999276e-01
0	 1.166666e+01	 1.216667e+02	 9.999911e-01
0	 1.166666e+01	 1.250000e+02	 1.000077e+00
0	 1.500000e+01	 1.083333e+02	 9.999183e-01
0	 1.500000e+01	 1.116667e+02	 9.999084e-01
0	 1.500000e+01	 1.150000e+02	 9.999139e-01
0	 1.500000e+01	 1.183333e+02	 9.999348e-01
0	 1.500000e+01	 1.216667e+02	 9.999711e-01
0	 1.500000e+01	 1.250000e+02	 1.000023e+00
0	 1.833333e+01	 1.083333e+02	 9.999604e-01
0	 1.833333e+01	 1.116667e+02	 9.999489e-01
0	 1.833333e+01	 1.150000e+02	 9.999455e-01
0	 1.833333e+01	 1.183333e+02	 9.999504e-01
0	 1.833333e+01	 1.216667e+02	 9.999634e-01
0	 1.833333e+01	 1.250000e+02	 9.999847e-01
0	 2.166667e+01	 1.083333e+02	 9.999990e-01
0	 2.166667e+01	 1.116667e+02	 9.999897e-01
0	 2.166667e+01	 1.150000e+02	 9.999814e-01
0	 2.166667e+01	 1.183333e+02	 9.999742e-01
0	 2.166667e+01	 1.216667e+02	 9.999681e-01
0	 2.166667e+01	 1.250000e+02	 9.999630e-01
0	 2.500000e+01	 1.083333e+02	 1.000034e+00
0	 2.500000e+01	 1.116667e+02	 1.000031e+00
0	 2.500000e+01	 1.150000e+02	 1.000022e+00
0	 2.500000e+01	 1.183333e+02	 1.000006e+00
0	 2.500000e+01	 1.216667e+02	 9.999851e-01
0	 2.500000e+01	 1.250000e+02	 9.999576e-01
0	 2.500000e+01	-1.250000e+02	 1.000067e+00
0	 2.500000e+01	-1.216667e+02	 1.000005e+00
0	 2.500000e+01	-1.183333e+02	 9.999526e-01
0	 2.500000e+01	-1.150000e+02	 9.999105e-01
0	 2.500000e+01	-1.116667e+02	 9.998783e-01
0	 2.500000e+01	-1.083333e+02	 9.998563e-01
0	 2.833333e+01	-1.250000e+02	 1.000035e+00
0	 2.833333e+01	-1.216667e+02	 9.999829e-01
0	 2.833333e+01	-1.183333e+02	 9.999429e-01
0	 2.833333e+01	-1.150000e+02	 9.999150e-01
0	 2.833333e+01	-1.116667e+02	 9.998993e-01
0	 2.833333e+01	-1.083333e+02	 9.998958e-01
0	 3.166667e+01	-1.250000e+02	 1.000019e+00
0	 3.166667e+01	-1.216667e+02	 9.999716e-01
0	 3.166667e+01	-1.183333e+02	 9.999390e-01
0	 3.166667e+01	-1.150000e+02	 9.999206e-01
0	 3.166667e+01	-1.116667e+02	 9.999165e-01
0	 3.166667e+01	-1.083333e+02	 9.999268e-01
0	 3.500000e+01	-1.250000e+02	 1.000018e+00
0	 3.500000e+01	-1.216667e+02	 9.999711e-01
0	 3.500000e+01	-1.183333e+02	 9.999410e-01
0	 3.500000e+01	-1.150000e+02	 9.999273e-01
0	 3.500000e+01	-1.116667e+02	 9.999300e-01
0	 3.500000e+01	-1.083333e+02	 9.999492e-01
0	 3.833334e+01	-1.250000e+02	 1.000032e+00
0	 3.833334e+01	-1.216667e+02	 9.999812e-01
0	 3.833334e+01	-1.183333e+02	 9.999489e-01
0	 3.833334e+01	-1.150000e+02	 9.999351e-01
0	 3.833334e+01	-1.116667e+02	 9.999398e-01
0	 3.833334e+01	-1.083333e+02	 9.999630e-01
0	 4.166667e+01	-1.250000e+02	 1.000062e+00
0	 4.166667e+01	-1.216667e+02	 1.000002e+00
0	 4.166667e+01	-1.183333e+02	 9.999627e-01
0	 4.166667e+01	-1.150000e+02	 9.999440e-01
0	 4.166667e+01	-1.116667e+02	 9.999458e-01
0	 4.166667e+01	-1.083333e+02	 9.999683e-01
0	 2.500000e+01	-1.083333e+02	 9.998563e-01
0	 2.500000e+01	-1.050000e+02	 9.996192e-01
0	 2.500000e+01	-1.016667e+02	 9.994262e-01
0	 2.500000e+01	-9.833333e+01	 9.992776e-01
0	 2.500000e+01	-9.500000e+01	 9.991731e-01
0	 2.500000e+01	-9.166667e+01	 9.991130e-01
0	 2.833333e+01	-1.083333e+02	 9.998958e-01
0	 2.833333e+01	-1.050000e+02	 9.996755e-01
0	 2.833333e+01	-1.016667e+02	 9.994870e-01
0	 2.833333e+01	-9.833333e+01	 9.993301e-01
0	 2.833333e+01	-9.500000e+01	 9.992049e-01
0	 2.833333e+01	-9.166667e+01	 9.991115e-01
0	 3.166667e+01	-1.083333e+02	 9.999268e-01
0	 3.166667e+01	-1.050000e+02	 9.997345e-01
0	 3.166667e+01	-1.016667e+02	 9.995614e-01
0	 3.166667e+01	-9.833333e+01	 9.994075e-01
0	 3.166667e+01	-9.500000e+01	 9.992728e-01
0	 3.166667e+01	-9.166667e+01	 9.991572e-01
0	 3.500000e+01	-1.083333e+02	 9.999492e-01
0	 3.500000e+01	-1.050000e+02	 9.997961e-01
0	 3.500000e+01	-1.016667e+02	 9.996496e-01
0	 3.500000e+01	-9.833333e+01	 9.995098e-01
0	 3.500000e+01	-9.500000e+01	 9.993766e-01
0	 3.500000e+01	-9.166667e+01	 9.992501e-01
0	 3.833334e+01	-1.083333e+02	 9.999630e-01
0	 3.833334e+01	-1.050000e+02	 9.998602e-01
0	 3.833334e+01	-1.016667e+02	 9.997515e-01
0	 3.833334e+01	-9.833333e+01	 9.996369e-01
0	 3.833334e+01	-9.500000e+01	 9.995165e-01
0	 3.833334e+01	-9.166667e+01	 9.993901e-01
0	 4.166667e+01	-1.083333e+02	 9.999683e-01
0	 4.166667e+01	-1.050000e+02	 9.999270e-01
0	 4.166667e+01	-1.016667e+02	 9.998672e-01
0	 4.166667e+01	-9.833333e+01	 9.997890e-01
0	 4.166667e+01	-9.500000e+01	 9.996923e-01
0	 4.166667e+01	-9.166667e+01	 9.995773e-01
0	 2.500000e+01	-9.166667e+01	 9.991130e-01
0	 2.500000e+01	-8.833334e+01	 9.990720e-01
0	 2.500000e+01	-8.500000e+01	 9.989426e-01
0	 2.500000e+01	-8.166667e+01	 9.987250e-01
0	 2.500000e+01	-7.833333e+01	 9.984191e-01
0	 2.500000e+01	-7.500000e+01	 9.980248e-01
0	 2.833333e+01	-9.166667e+01	 9.991115e-01
0	 2.833333e+01	-8.833334e+01	 9.991500e-01
0	 2.833333e+01	-8.500000e+01	 9.991254e-01
0	 2.833333e+01	-8.166667e+01	 9.990375e-01
0	 2.833333e+01	-7.833333e+01	 9.988865e-01
0	 2.833333e+01	-7.500000e+01	 9.986723e-01
0	 3.166667e+01	-9.166667e+01	 9.991572e-01
0	 3.166667e+01	-8.833334e+01	 9.992386e-01
0	 3.166667e+01	-8.500000e+01	 9.992819e-01
0	 3.166667e+01	-8.166667e+01	 9.992871e-01
0	 3.166667e+01	-7.833333e+01	 9.992543e-01
0	 3.166667e+01	-7.500000e+01	 9.991835e-01
0	 3.500000e+01	-9.166667e+01	 9.992501e-01
0	 3.500000e+01	-8.833334e+01	 9.993376e-01
0	 3.500000e+01	-8.500000e+01	 9.994121e-01
0	 3.500000e+01	-8.166667e+01	 9.994738e-01
0	 3.500000e+01	-7.833333e+01	 9.995225e-01
0	 3.500000e+01	-7.500000e+01	 9.995583e-01
0	 3.833334e+01	-9.166667e+01	 9.993901e-01
0	 3.833334e+01	-8.833334e+01	 9.994470e-01
0	 3.833334e+01	-8.500000e+01	 9.995162e-01
0	 3.833334e+01	-8.166667e+01	 9.995975e-01
0	 3.833334e+01	-7.833333e+01	 9.996911e-01
0	 3.833334e+01	-7.500000e+01	 9.997969e-01
0	 4.166667e+01	-9.166667e+01	 9.995773e-01
0	 4.166667e+01	-8.833334e+01	 9.995669e-01
0	 4.166667e+01	-8.500000e+01	 9.995940e-01
0	 4.166667e+01	-8.166667e+01	 9.996584e-01
0	 4.166667e+01	-7.833333e+01	 9.997601e-01
0	 4.166667e+01	-7.500000e+01	 9.998991e-01
0	 2.500000e+01	-7.500000e+01	 9.980248e-01
0	 2.500000e+01	-7.166667e+01	 9.975773e-01
0	 2.500000e+01	-6.833333e+01	 9.973450e-01
0	 2.500000e+01	-6.500000e+01	 9.973280e-01
0	 2.500000e+01	-6.166666e+01	 9.975264e-01
0	 2.500000e+01	-5.833333e+01	 9.979400e-01
0	 2.833333e+01	-7.500000e+01	 9.986723e-01
0	 2.833333e+01	-7.166667e+01	 9.981730e-01
0	 2.833333e+01	-6.833333e+01	 9.978237e-01
0	 2.833333e+01	-6.500000e+01	 9.976243e-01
0	 2.833333e+01	-6.166666e+01	 9.975751e-01
0	 2.833333e+01	-5.833333e+01	 9.976758e-01
0	 3.166667e+01	-7.500000e+01	 9.991835e-01
0	 3.166667e+01	-7.166667e+01	 9.987080e-01
0	 3.166667e+01	-6.833333e+01	 9.983173e-01
0	 3.166667e+01	-6.500000e+01	 9.980113e-01
0	 3.166667e+01	-6.166666e+01	 9.977900e-01
0	 3.166667e+01	-5.833333e+01	 9.976535e-01
0	 3.500000e+01	-7.500000e+01	 9.995583e-01
0	 3.500000e+01	-7.166667e+01	 9.991824e-01
0	 3.500000e+01	-6.833333e+01	 9.988259e-01
0	 3.500000e+01	-6.500000e+01	 9.984889e-01
0	 3.500000e+01	-6.166666e+01	 9.981713e-01
0	 3.500000e+01	-5.833333e+01	 9.978732e-01
0	 3.833334e+01	-7.500000e+01	 9.997969e-01
0	 3.833334e+01	-7.166667e+01	 9.995961e-01
0	 3.833334e+01	-6.833333e+01	 9.993496e-01
0	 3.833334e+01	-6.500000e+01	 9.990572e-01
0	 3.833334e+01	-6.166666e+01	 9.987189e-01
0	 3.833334e+01	-5.833333e+01	 9.983348e-01
0	 4.166667e+01	-7.500000e+01	 9.998991e-01
0	 4.166667e+01	-7.166667e+01	 9.999492e-01
0	 4.166667e+01	-6.833333e+01	 9.998882e-01
0	 4.166667e+01	-6.500000e+01	 9.997160e-01
0	 4.166667e+01	-6.166666e+01	 9.994328e-01
0	 4.166667e+01	-5.833333e+01	 9.990384e-01
0	 2.500000e+01	-5.833333e+01	 9.979400e-01
0	 2.500000e+01	-5.500000e+01	 9.979567e-01
0	 2.500000e+01	-5.166667e+01	 9.973979e-01
0	 2.500000e+01	-4.833333e+01	 9.962635e-01
0	 2.500000e+01	-4.500000e+01	 9.945536e-01
0	 2.500000e+01	-4.166667e+01	 9.922682e-01
0	 2.833333e+01	-5.833333e+01	 9.976758e-01
0	 2.833333e+01	-5.500000e+01	 9.983239e-01
0	 2.833333e+01	-5.166667e+01	 9.985282e-01
0	 2.833333e+01	-4.833333e+01	 9.982888e-01
0	 2.833333e+01	-4.500000e+01	 9.976056e-01
0	 2.833333e+01	-4.166667e+01	 9.964786e-01
0	 3.166667e+01	-5.833333e+01	 9.976535e-01
0	 3.166667e+01	-5.500000e+01	 9.986801e-01
0	 3.166667e+01	-5.166667e+01	 9.993946e-01
0	 3.166667e+01	-4.833333e+01	 9.997971e-01
0	 3.166667e+01	-4.500000e+01	 9.998876e-01
0	 3.166667e+01	-4.166667e+01	 9.996661e-01
0	 3.500000e+01	-5.833333e+01	 9.978732e-01
0	 3.500000e+01	-5.500000e+01	 9.990252e-01
0	 3.500000e+01	-5.166667e+01	 9.999970e-01
0	 3.500000e+01	-4.833333e+01	 1.000788e+00
0	 3.500000e+01	-4.500000e+01	 1.001400e+00
0	 3.500000e+01	-4.166667e+01	 1.001831e+00
0	 3.833334e+01	-5.833333e+01	 9.983348e-01
0	 3.833334e+01	-5.500000e+01	 9.993593e-01
0	 3.833334e+01	-5.166667e+01	 1.000335e+00
0	 3.833334e+01	-4.833333e+01	 1.001263e+00
0	 3.833334e+01	-4.500000e+01	 1.002142e+00
0	 3.833334e+01	-4.166667e+01	 1.002973e+00
0	 4.166667e+01	-5.833333e+01	 9.990384e-01
0	 4.166667e+01	-5.500000e+01	 9.996825e-01
0	 4.166667e+01	-5.166667e+01	 1.000410e+00
0	 4.166667e+01	-4.833333e+01	 1.001220e+00
0	 4.166667e+01	-4.500000e+01	 1.002114e+00
0	 4.166667e+01	-4.166667e+01	 1.003092e+00
0	 2.500000e+01	-4.166667e+01	 9.922682e-01
0	 2.500000e+01	-3.833334e+01	 9.950517e-01
0	 2.500000e+01	-3.500000e+01	 9.980668e-01
0	 2.500000e+01	-3.166667e+01	 1.001314e+00
0	 2.500000e+01	-2.833333e+01	 1.004792e+00
0	 2.500000e+01	-2.500000e+01	 1.008502e+00
0	 2.833333e+01	-4.166667e+01	 9.964786e-01
0	 2.833333e+01	-3.833334e+01	 9.980901e-01
0	 2.833333e+01	-3.500000e+01	 9.998908e-01
0	 2.833333e+01	-3.166667e+01	 1.001881e+00
0	 2.833333e+01	-2.833333e+01	 1.004060e+00
0	 2.833333e+01	-2.500000e+01	 1.006428e+00
0	 3.166667e+01	-4.166667e+01	 9.996661e-01
0	 3.166667e+01	-3.833334e+01	 1.000469e+00
0	 3.166667e+01	-3.500000e+01	 1.001420e+00
0	 3.166667e+01	-3.166667e+01	 1.002516e+00
0	 3.166667e+01	-2.833333e+01	 1.003760e+00
0	 3.166667e+01	-2.500000e+01	 1.005150e+00
0	 3.500000e+01	-4.166667e+01	 1.001831e+00
0	 3.500000e+01	-3.833334e+01	 1.002190e+00
0	 3.500000e+01	-3.500000e+01	 1.002653e+00
0	 3.500000e+01	-3.166667e+01	 1.003220e+00
0	 3.500000e+01	-2.833333e+01	 1.003892e+00
0	 3.500000e+01	-2.500000e+01	 1.004668e+00
0	 3.833334e+01	-4.166667e+01	 1.002973e+00
0	 3.833334e+01	-3.833334e+01	 1.003251e+00
0	 3.833334e+01	-3.500000e+01	 1.003591e+00
0	 3.833334e+01	-3.166667e+01	 1.003993e+00
0	 3.833334e+01	-2.833333e+01	 1.004456e+00
0	 3.833334e+01	-2.500000e+01	 1.004982e+00
0	 4.166667e+01	-4.166667e+01	 1.003092e+00
0	 4.166667e+01	-3.833334e+01	 1.003653e+00
0	 4.166667e+01	-3.500000e+01	 1.004234e+00
0	 4.166667e+01	-3.166667e+01	 1.004833e+00
0	 4.166667e+01	-2.833333e+01	 1.005453e+00
0	 4.166667e+01	-2.500000e+01	 1.006092e+00
0	 2.500000e+01	-2.500000e+01	 1.008502e+00
0	 2.500000e+01	-2.166667e+01	 1.006172e+00
0	 2.500000e+01	-1.833333e+01	 1.004632e+00
0	 2.500000e+01	-1.500000e+01	 1.003880e+00
0	 2.500000e+01	-1.166666e+01	 1.003918e+00
0	 2.500000e+01	-8.333327e+00	 1.004744e+00
0	 2.833333e+01	-2.500000e+01	 1.006428e+00
0	 2.833333e+01	-2.166667e+01	 1.005754e+00
0	 2.833333e+01	-1.833333e+01	 1.005735e+00
0	 2.833333e+01	-1.500000e+01	 1.006371e+00
0	 2.833333e+01	-1.166666e+01	 1.007662e+00
0	 2.833333e+01	-8.333327e+00	 1.009609e+00
0	 3.166667e+01	-2.500000e+01	 1.005150e+00
0	 3.166667e+01	-2.166667e+01	 1.005605e+00
0	 3.166667e+01	-1.833333e+01	 1.006582e+00
0	 3.166667e+01	-1.500000e+01	 1.008080e+00
0	 3.166667e+01	-1.166666e+01	 1.010099e+00
0	 3.166667e+01	-8.333327e+00	 1.012640e+00
0	 3.500000e+01	-2.500000e+01	 1.004668e+00
0	 3.500000e+01	-2.166667e+01	 1.005727e+00
0	 3.500000e+01	-1.833333e+01	 1.007173e+00
0	 3.500000e+01	-1.500000e+01	 1.009007e+00
0	 3.500000e+01	-1.166666e+01	 1.011228e+00
0	 3.500000e+01	-8.333327e+00	 1.013837e+00
0	 3.833334e+01	-2.500000e+01	 1.004982e+00
0	 3.833334e+01	-2.166667e+01	 1.006118e+00
0	 3.833334e+01	-1.833333e+01	 1.007509e+00
0	 3.833334e+01	-1.500000e+01	 1.009153e+00
0	 3.833334e+01	-1.166666e+01	 1.011050e+00
0	 3.833334e+01	-8.333327e+00	 1.013201e+00
0	 4.166667e+01	-2.500000e+01	 1.006092e+00
0	 4.166667e+01	-2.166667e+01	 1.006780e+00
0	 4.166667e+01	-1.833333e+01	 1.007588e+00
0	 4.166667e+01	-1.500000e+01	 1.008516e+00
0	 4.166667e+01	-1.166666e+01	 1.009564e+00
0	 4.166667e+01	-8.333327e+00	 1.010732e+00
0	 2.500000e+01	-8.333327e+00	 1.004744e+00
0	 2.500000e+01	-4.999996e+00	 1.008177e+00
0	 2.500000e+01	-1.666665e+00	 1.010735e+00
0	 2.500000e+01	 1.666665e+00	 1.012418e+00
0	 2.500000e+01	 4.999996e+00	 1.013225e+00
0	 2.500000e+01	 8.333327e+00	 1.013158e+00
0	 2.833333e+01	-8.333327e+00	 1.009609e+00
0	 2.833333e+01	-4.999996e+00	 1.011031e+00
0	 2.833333e+01	-1.666665e+00	 1.011760e+00
0	 2.833333e+01	 1.666665e+00	 1.011796e+00
0	 2.833333e+01	 4.999996e+00	 1.011138e+00
0	 2.833333e+01	 8.333327e+00	 1.009787e+00
0	 3.166667e+01	-8.333327e+00	 1.012640e+00
0	 3.166667e+01	-4.999996e+00	 1.012596e+00
0	 3.166667e+01	-1.666665e+00	 1.012041e+00
0	 3.166667e+01	 1.666665e+00	 1.010974e+00
0	 3.166667e+01	 4.999996e+00	 1.009395e+00
0	 3.166667e+01	 8.333327e+00	 1.007305e+00
0	 3.500000e+01	-8.333327e+00	 1.013837e+00
0	 3.500000e+01	-4.999996e+00	 1.012872e+00
0	 3.500000e+01	-1.666665e+00	 1.011577e+00
0	 3.500000e+01	 1.666665e+00	 1.009952e+00
0	 3.500000e+01	 4.999996e+00	 1.007997e+00
0	 3.500000e+01	 8.333327e+00	 1.005712e+00
0	 3.833334e+01	-8.333327e+00	 1.013201e+00
0	 3.833334e+01	-4.999996e+00	 1.011860e+00
0	 3.833334e+01	-1.666665e+00	 1.010369e+00
0	 3.833334e+01	 1.666665e+00	 1.008731e+00
0	 3.833334e+01	 4.999996e+00	 1.006944e+00
0	 3.833334e+01	 8.333327e+00	 1.005008e+00
0	 4.166667e+01	-8.333327e+00	 1.010732e+00
0	 4.166667e+01	-4.999996e+00	 1.009558e+00
0	 4.166667e+01	-1.666665e+00	 1.008417e+00
0	 4.166667e+01	 1.666665e+00	 1.007309e+00
0	 4.166667e+01	 4.999996e+00	 1.006235e+00
0	 4.166667e+01	 8.333327e+00	 1.005194e+00
0	 2.500000e+01	 8.333327e+00	 1.013158e+00
0	 2.500000e+01	 1.166666e+01	 1.013727e+00
0	 2.500000e+01	 1.500000e+01	 1.014361e+00
0	 2.500000e+01	 1.833333e+01	 1.015060e+00
0	 2.500000e+01	 2.166667e+01	 1.015825e+00
0	 2.500000e+01	 2.500000e+01	 1.016656e+00
0	 2.833333e+01	 8.333327e+00	 1.009787e+00
0	 2.833333e+01	 1.166666e+01	 1.010017e+00
0	 2.833333e+01	 1.500000e+01	 1.010232e+00
0	 2.833333e+01	 1.833333e+01	 1.010431e+00
0	 2.833333e+01	 2.166667e+01	 1.010615e+00
0	 2.833333e+01	 2.500000e+01	 1.010783e+00
0	 3.166667e+01	 8.333327e+00	 1.007305e+00
0	 3.166667e+01	 1.166666e+01	 1.007386e+00
0	 3.166667e+01	 1.500000e+01	 1.007370e+00
0	 3.166667e+01	 1.833333e+01	 1.007258e+00
0	 3.166667e+01	 2.166667e+01	 1.007049e+00
0	 3.166667e+01	 2.500000e+01	 1.006743e+00
0	 3.500000e+01	 8.333327e+00	 1.005712e+00
0	 3.500000e+01	 1.166666e+01	 1.005833e+00
0	 3.500000e+01	 1.500000e+01	 1.005776e+00
0	 3.500000e+01	 1.833333e+01	 1.005540e+00
0	 3.500000e+01	 2.166667e+01	 1.005127e+00
0	 3.500000e+01	 2.500000e+01	 1.004536e+00
0	 3.833334e+01	 8.333327e+00	 1.005008e+00
0	 3.833334e+01	 1.166666e+01	 1.005358e+00
0	 3.833334e+01	 1.500000e+01	 1.005448e+00
0	 3.833334e+01	 1.833333e+01	 1.005279e+00
0	 3.833334e+01	 2.166667e+01	 1.004850e+00
0	 3.833334e+01	 2.500000e+01	 1.004162e+00
0	 4.166667e+01	 8.333327e+00	 1.005194e+00
0	 4.166667e+01	 1.166666e+01	 1.005961e+00
0	 4.166667e+01	 1.500000e+01	 1.006387e+00
0	 4.166667e+01	 1.833333e+01	 1.006472e+00
0	 4.166667e+01	 2.166667e+01	 1.006217e+00
0	 4.166667e+01	 2.500000e+01	 1.005622e+00
0	 2.500000e+01	 2.500000e+01	 1.016656e+00
0	 2.500000e+01	 2.833333e+01	 1.011873e+00
0	 2.500000e+01	 3.166667e+01	 1.007802e+00
0	 2.500000e+01	 3.500000e+01	 1.004444e+00
0	 2.500000e+01	 3.833334e+01	 1.001799e+00
0	 2.500000e+01	 4.166667e+01	 9.998657e-01
0	 2.833333e+01	 2.500000e+01	 1.010783e+00
0	 2.833333e+01	 2.833333e+01	 1.008017e+00
0	 2.833333e+01	 3.166667e+01	 1.005848e+00
0	 2.833333e+01	 3.500000e+01	 1.004275e+00
0	 2.833333e+01	 3.833334e+01	 1.003298e+00
0	 2.833333e+01	 4.166667e+01	 1.002917e+00
0	 3.166667e+01	 2.500000e+01	 1.006743e+00
0	 3.166667e+01	 2.833333e+01	 1.005455e+00
0	 3.166667e+01	 3.166667e+01	 1.004647e+00
0	 3.166667e+01	 3.500000e+01	 1.004318e+00
0	 3.166667e+01	 3.833334e+01	 1.004469e+00
0	 3.166667e+01	 4.166667e+01	 1.005100e+00
0	 3.500000e+01	 2.500000e+01	 1.004536e+00
0	 3.500000e+01	 2.833333e+01	 1.004185e+00
0	 3.500000e+01	 3.166667e+01	 1.004198e+00
0	 3.500000e+01	 3.500000e+01	 1.004573e+00
0	 3.500000e+01	 3.833334e+01	 1.005312e+00
0	 3.500000e+01	 4.166667e+01	 1.006414e+00
0	 3.833334e+01	 2.500000e+01	 1.004162e+00
0	 3.833334e+01	 2.833333e+01	 1.004208e+00
0	 3.833334e+01	 3.166667e+01	 1.004501e+00
0	 3.833334e+01	 3.500000e+01	 1.005040e+00
0	 3.833334e+01	 3.833334e+01	 1.005826e+00
0	 3.833334e+01	 4.166667e+01	 1.006859e+00
0	 4.166667e+01	 2.500000e+01	 1.005622e+00
0	 4.166667e+01	 2.833333e+01	 1.005524e+00
0	 4.166667e+01	 3.166667e+01	 1.005557e+00
0	 4.166667e+01	 3.500000e+01	 1.005720e+00
0	 4.166667e+01	 3.833334e+01	 1.006012e+00
0	 4.166667e+01	 4.166667e+01	 1.006435e+00
0	 2.500000e+01	 4.166667e+01	 9.998657e-01
0	 2.500000e+01	 4.500000e+01	 1.001153e+00
0	 2.500000e+01	 4.833333e+01	 1.001823e+00
0	 2.500000e+01	 5.166667e+01	 1.001875e+00
0	 2.500000e+01	 5.500000e+01	 1.001309e+00
0	 2.500000e+01	 5.833333e+01	 1.000126e+00
0	 2.833333e+01	 4.166667e+01	 1.002917e+00
0	 2.833333e+01	 4.500000e+01	 1.003298e+00
0	 2.833333e+01	 4.833333e+01	 1.003215e+00
0	 2.833333e+01	 5.166667e+01	 1.002666e+00
0	 2.833333e+01	 5.500000e+01	 1.001652e+00
0	 2.833333e+01	 5.833333e+01	 1.000174e+00
0	 3.166667e+01	 4.166667e+01	 1.005100e+00
0	 3.166667e+01	 4.500000e+01	 1.004768e+00
0	 3.166667e+01	 4.833333e+01	 1.004125e+00
0	 3.166667e+01	 5.166667e+01	 1.003170e+00
0	 3.166667e+01	 5.500000e+01	 1.001902e+00
0	 3.166667e+01	 5.833333e+01	 1.000322e+00
0	 3.500000e+01	 4.166667e+01	 1.006414e+00
0	 3.500000e+01	 4.500000e+01	 1.005564e+00
0	 3.500000e+01	 4.833333e+01	 1.004555e+00
0	 3.500000e+01	 5.166667e+01	 1.003386e+00
0	 3.500000e+01	 5.500000e+01	 1.002059e+00
0	 3.500000e+01	 5.833333e+01	 1.000572e+00
0	 3.833334e+01	 4.166667e+01	 1.006859e+00
0	 3.833334e+01	 4.500000e+01	 1.005684e+00
0	 3.833334e+01	 4.833333e+01	 1.004503e+00
0	 3.833334e+01	 5.166667e+01	 1.003316e+00
0	 3.833334e+01	 5.500000e+01	 1.002122e+00
0	 3.833334e+01	 5.833333e+01	 1.000922e+00
0	 4.166667e+01	 4.166667e+01	 1.006435e+00
0	 4.166667e+01	 4.500000e+01	 1.005130e+00
0	 4.166667e+01	 4.833333e+01	 1.003971e+00
0	 4.166667e+01	 5.166667e+01	 1.002958e+00
0	 4.166667e+01	 5.500000e+01	 1.002092e+00
0	 4.166667e+01	 5.833333e+01	 1.001372e+00
0	 2.500000e+01	 5.833333e+01	 1.000126e+00
0	 2.500000e+01	 6.166666e+01	 9.996696e-01
0	 2.500000e+01	 6.500000e+01	 9.994187e-01
0	 2.500000e+01	 6.833333e+01	 9.993728e-01
0	 2.500000e+01	 7.166667e+01	 9.995319e-01
0	 2.500000e+01	 7.500000e+01	 9.998960e-01
0	 2.833333e+01	 5.833333e+01	 1.000174e+00
0	 2.833333e+01	 6.166666e+01	 9.999419e-01
0	 2.833333e+01	 6.500000e+01	 9.998566e-01
0	 2.833333e+01	 6.833333e+01	 9.999176e-01
0	 2.833333e+01	 7.166667e+01	 1.000125e+00
0	 2.833333e+01	 7.500000e+01	 1.000479e+00
0	 3.166667e+01	 5.833333e+01	 1.000322e+00
0	 3.166667e+01	 6.166666e+01	 1.000265e+00
0	 3.166667e+01	 6.500000e+01	 1.000296e+00
0	 3.166667e+01	 6.833333e+01	 1.000414e+00
0	 3.166667e+01	 7.166667e+01	 1.000621e+00
0	 3.166667e+01	 7.500000e+01	 1.000914e+00
0	 3.500000e+01	 5.833333e+01	 1.000572e+00
0	 3.500000e+01	 6.166666e+01	 1.000640e+00
0	 3.500000e+01	 6.500000e+01	 1.000737e+00
0	 3.500000e+01	 6.833333e+01	 1.000863e+00
0	 3.500000e+01	 7.166667e+01	 1.001018e+00
0	 3.500000e+01	 7.500000e+01	 1.001203e+00
0	 3.833334e+01	 5.833333e+01	 1.000922e+00
0	 3.833334e+01	 6.166666e+01	 1.001065e+00
0	 3.833334e+01	 6.500000e+01	 1.001179e+00
0	 3.833334e+01	 6.833333e+01	 1.001263e+00
0	 3.833334e+01	 7.166667e+01	 1.001318e+00
0	 3.833334e+01	 7.500000e+01	 1.001344e+00
0	 4.166667e+01	 5.833333e+01	 1.001372e+00
0	 4.166667e+01	 6.166666e+01	 1.001542e+00
0	 4.166667e+01	 6.500000e+01	 1.001623e+00
0	 4.166667e+01	 6.833333e+01	 1.001616e+00
0	 4.166667e+01	 7.166667e+01	 1.001521e+00
0	 4.166667e+01	 7.500000e+01	 1.001337e+00
0	 2.500000e+01	 7.500000e+01	 9.998960e-01
0	 2.500000e+01	 7.833333e+01	 1.000037e+00
0	 2.500000e+01	 8.166667e+01	 1.000089e+00
0	 2.500000e+01	 8.500000e+01	 1.000054e+00
0	 2.500000e+01	 8.833334e+01	 9.999308e-01
0	 2.500000e+01	 9.166667e+01	 9.997196e-01
0	 2.833333e+01	 7.500000e+01	 1.000479e+00
0	 2.833333e+01	 7.833333e+01	 1.000476e+00
0	 2.833333e+01	 8.166667e+01	 1.000410e+00
0	 2.833333e+01	 8.500000e+01	 1.000279e+00
0	 2.833333e+01	 8.833334e+01	 1.000084e+00
0	 2.833333e+01	 9.166667e+01	 9.998248e-01
0	 3.166667e+01	 7.500000e+01	 1.000914e+00
0	 3.166667e+01	 7.833333e+01	 1.000800e+00
0	 3.166667e+01	 8.166667e+01	 1.000644e+00
0	 3.166667e+01	 8.500000e+01	 1.000449e+00
0	 3.166667e+01	 8.833334e+01	 1.000213e+00
0	 3.166667e+01	 9.166667e+01	 9.999365e-01
0	 3.500000e+01	 7.500000e+01	 1.001203e+00
0	 3.500000e+01	 7.833333e+01	 1.001006e+00
0	 3.500000e+01	 8.166667e+01	 1.000793e+00
0	 3.500000e+01	 8.500000e+01	 1.000564e+00
0	 3.500000e+01	 8.833334e+01	 1.000318e+00
0	 3.500000e+01	 9.166667e+01	 1.000055e+00
0	 3.833334e+01	 7.500000e+01	 1.001344e+00
0	 3.833334e+01	 7.833333e+01	 1.001096e+00
0	 3.833334e+01	 8.166667e+01	 1.000856e+00
0	 3.833334e+01	 8.500000e+01	 1.000624e+00
0	 3.833334e+01	 8.833334e+01	 1.000398e+00
0	 3.833334e+01	 9.166667e+01	 1.000180e+00
0	 4.166667e+01	 7.500000e+01	 1.001337e+00
0	 4.166667e+01	 7.833333e+01	 1.001070e+00
0	 4.166667e+01	 8.166667e+01	 1.000834e+00
0	 4.166667e+01	 8.500000e+01	 1.000629e+00
0	 4.166667e+01	 8.833334e+01	 1.000454e+00
0	 4.166667e+01	 9.166667e+01	 1.000311e+00
0	 2.500000e+01	 9.166667e+01	 9.997196e-01
0	 2.500000e+01	 9.500000e+01	 9.997228e-01
0	 2.500000e+01	 9.833333e+01	 9.997558e-01
0	 2.500000e+01	 1.016667e+02	 9.998186e-01
0	 2.500000e+01	 1.050000e+02	 9.999113e-01
0	 2.500000e+01	 1.083333e+02	 1.000034e+00
0	 2.833333e+01	 9.166667e+01	 9.998248e-01
0	 2.833333e+01	 9.500000e+01	 9.998368e-01
0	 2.833333e+01	 9.833333e+01	 9.998683e-01
0	 2.833333e+01	 1.016667e+02	 9.999192e-01
0	 2.833333e+01	 1.050000e+02	 9.999896e-01
0	 2.833333e+01	 1.083333e+02	 1.000079e+00
0	 3.166667e+01	 9.166667e+01	 9.999365e-01
0	 3.166667e+01	 9.500000e+01	 9.999532e-01
0	 3.166667e+01	 9.833333e+01	 9.999790e-01
0	 3.166667e+01	 1.016667e+02	 1.000014e+00
0	 3.166667e+01	 1.050000e+02	 1.000058e+00
0	 3.166667e+01	 1.083333e+02	 1.000111e+00
0	 3.500000e+01	 9.166667e+01	 1.000055e+00
0	 3.500000e+01	 9.500000e+01	 1.000072e+00
0	 3.500000e+01	 9.833333e+01	 1.000088e+00
0	 3.500000e+01	 1.016667e+02	 1.000103e+00
0	 3.500000e+01	 1.050000e+02	 1.000116e+00
0	 3.500000e+01	 1.083333e+02	 1.000128e+00
0	 3.833334e+01	 9.166667e+01	 1.000180e+00
0	 3.833334e+01	 9.500000e+01	 1.000193e+00
0	 3.833334e+01	 9.833333e+01	 1.000195e+00
0	 3.833334e+01	 1.016667e+02	 1.000186e+00
0	 3.833334e+01	 1.050000e+02	 1.000164e+00
0	 3.833334e+01	 1.083333e+02	 1.000131e+00
0	 4.166667e+01	 9.166667e+01	 1.000311e+00
0	 4.166667e+01	 9.500000e+01	 1.000317e+00
0	 4.166667e+01	 9.833333e+01	 1.000301e+00
0	 4.166667e+01	 1.016667e+02	 1.000263e+00
0	 4.166667e+01	 1.050000e+02	 1.000202e+00
0	 4.166667e+01	 1.083333e+02	 1.000120e+00
0	 2.500000e+01	 1.083333e+02	 1.000034e+00
0	 2.500000e+01	 1.116667e+02	 1.000031e+00
0	 2.500000e+01	 1.150000e+02	 1.000022e+00
0	 2.500000e+01	 1.183333e+02	 1.000006e+00
0	 2.500000e+01	 1.216667e+02	 9.999851e-01
0	 2.500000e+01	 1.250000e+02	 9.999576e-01
0	 2.833333e+01	 1.083333e+02	 1.000079e+00
0	 2.833333e+01	 1.116667e+02	 1.000065e+00
0	 2.833333e+01	 1.150000e+02	 1.000045e+00
0	 2.833333e+01	 1.183333e+02	 1.000020e+00
0	 2.833333e+01	 1.216667e+02	 9.999897e-01
0	 2.833333e+01	 1.250000e+02	 9.999538e-01
0	 3.166667e+01	 1.083333e+02	 1.000111e+00
0	 3.166667e+01	 1.116667e+02	 1.000088e+00
0	 3.166667e+01	 1.150000e+02	 1.000061e+00
0	 3.166667e+01	 1.183333e+02	 1.000029e+00
0	 3.166667e+01	 1.216667e+02	 9.999921e-01
0	 3.166667e+01	 1.250000e+02	 9.999509e-01
0	 3.500000e+01	 1.083333e+02	 1.000128e+00
0	 3.500000e+01	 1.116667e+02	 1.000100e+00
0	 3.500000e+01	 1.150000e+02	 1.000068e+00
0	 3.500000e+01	 1.183333e+02	 1.000032e+00
0	 3.500000e+01	 1.216667e+02	 9.999925e-01
0	 3.500000e+01	 1.250000e+02	 9.999489e-01
0	 3.833334e+01	 1.083333e+02	 1.000131e+00
0	 3.833334e+01	 1.116667e+02	 1.000101e+00
0	 3.833334e+01	 1.150000e+02	 1.000067e+00
0	 3.833334e+01	 1.183333e+02	 1.000031e+00
0	 3.833334e+01	 1.216667e+02	 9.999908e-01
0	 3.833334e+01	 1.250000e+02	 9.999479e-01
0	 4.166667e+01	 1.083333e+02	 1.000120e+00
0	 4.166667e+01	 1.116667e+02	 1.000090e+00
0	 4.166667e+01	 1.150000e+02	 1.000058e+00
0	 4.166667e+01	 1.183333e+02	 1.000024e+00
0	 4.166667e+01	 1.216667e+02	 9.999870e-01
0	 4.166667e+01	 1.250000e+02	 9.999478e-01
0	 4.166667e+01	-1.250000e+02	 1.000062e+00
0	 4.166667e+01	-1.216667e+02	 1.000002e+00
0	 4.166667e+01	-1.183333e+02	 9.999627e-01
0	 4.166667e+01	-1.150000e+02	 9.999440e-01
0	 4.166667e+01	-1.116667e+02	 9.999458e-01
0	 4.166667e+01	-1.083333e+02	 9.999683e-01
0	 4.500000e+01	-1.250000e+02	 1.000063e+00
0	 4.500000e+01	-1.216667e+02	 1.000012e+00
0	 4.500000e+01	-1.183333e+02	 9.999752e-01
0	 4.500000e+01	-1.150000e+02	 9.999516e-01
0	 4.500000e+01	-1.116667e+02	 9.999418e-01
0	 4.500000e+01	-1.083333e+02	 9.999457e-01
0	 4.833333e+01	-1.250000e+02	 1.000054e+00
0	 4.833333e+01	-1.216667e+02	 1.000018e+00
0	 4.833333e+01	-1.183333e+02	 9.999875e-01
0	 4.833333e+01	-1.150000e+02	 9.999642e-01
0	 4.833333e+01	-1.116667e+02	 9.999477e-01
0	 4.833333e+01	-1.083333e+02	 9.999379e-01
0	 5.166667e+01	-1.250000e+02	 1.000035e+00
0	 5.166667e+01	-1.216667e+02	 1.000018e+00
0	 5.166667e+01	-1.183333e+02	 9.999997e-01
0	 5.166667e+01	-1.150000e+02	 9.999817e-01
0	 5.166667e+01	-1.116667e+02	 9.999634e-01
0	 5.166667e+01	-1.083333e+02	 9.999450e-01
0	 5.500000e+01	-1.250000e+02	 1.000006e+00
0	 5.500000e+01	-1.216667e+02	 1.000013e+00
0	 5.500000e+01	-1.183333e+02	 1.000012e+00
0	 5.500000e+01	-1.150000e+02	 1.000004e+00
0	 5.500000e+01	-1.116667e+02	 9.999890e-01
0	 5.500000e+01	-1.083333e+02	 9.999669e-01
0	 5.833333e+01	-1.250000e+02	 9.999672e-01
0	 5.833333e+01	-1.216667e+02	 1.000003e+00
0	 5.833333e+01	-1.183333e+02	 1.000024e+00
0	 5.833333e+01	-1.150000e+02	 1.000031e+00
0	 5.833333e+01	-1.116667e+02	 1.000024e+00
0	 5.833333e+01	-1.083333e+02	 1.000004e+00
0	 4.166667e+01	-1.083333e+02	 9.999683e-01
0	 4.166667e+01	-1.050000e+02	 9.999270e-01
0	 4.166667e+01	-1.016667e+02	 9.998672e-01
0	 4.166667e+01	-9.833333e+01	 9.997890e-01
0	 4.166667e+01	-9.500000e+01	 9.996923e-01
0	 4.166667e+01	-9.166667e+01	 9.995773e-01
0	 4.500000e+01	-1.083333e+02	 9.999457e-01
0	 4.500000e+01	-1.050000e+02	 9.999502e-01
0	 4.500000e+01	-1.016667e+02	 9.999417e-01
0	 4.500000e+01	-9.833333e+01	 9.999204e-01
0	 4.500000e+01	-9.500000e+01	 9.998861e-01
0	 4.500000e+01	-9.166667e+01	 9.998389e-01
0	 4.833333e+01	-1.083333e+02	 9.999379e-01
0	 4.833333e+01	-1.050000e+02	 9.999729e-01
0	 4.833333e+01	-1.016667e+02	 1.000000e+00
0	 4.833333e+01	-9.833333e+01	 1.000021e+00
0	 4.833333e+01	-9.500000e+01	 1.000033e+00
0	 4.833333e+01	-9.166667e+01	 1.000039e+00
0	 5.166667e+01	-1.083333e+02	 9.999450e-01
0	 5.166667e+01	-1.050000e+02	 9.999950e-01
0	 5.166667e+01	-1.016667e+02	 1.000043e+00
0	 5.166667e+01	-9.833333e+01	 1.000089e+00
0	 5.166667e+01	-9.500000e+01	 1.000134e+00
0	 5.166667e+01	-9.166667e+01	 1.000176e+00
0	 5.500000e+01	-1.083333e+02	 9.999669e-01
0	 5.500000e+01	-1.050000e+02	 1.000017e+00
0	 5.500000e+01	-1.016667e+02	 1.000070e+00
0	 5.500000e+01	-9.833333e+01	 1.000127e+00
0	 5.500000e+01	-9.500000e+01	 1.000188e+00
0	 5.500000e+01	-9.166667e+01	 1.000252e+00
0	 5.833333e+01	-1.083333e+02	 1.000004e+00
0	 5.833333e+01	-1.050000e+02	 1.000038e+00
0	 5.833333e+01	-1.016667e+02	 1.000081e+00
0	 5.833333e+01	-9.833333e+01	 1.000133e+00
0	 5.833333e+01	-9.500000e+01	 1.000195e+00
0	 5.833333e+01	-9.166667e+01	 1.000265e+00
0	 4.166667e+01	-9.166667e+01	 9.995773e-01
0	 4.166667e+01	-8.833334e+01	 9.995669e-01
0	 4.166667e+01	-8.500000e+01	 9.995940e-01
0	 4.166667e+01	-8.166667e+01	 9.996584e-01
0	 4.166667e+01	-7.833333e+01	 9.997601e-01
0	 4.166667e+01	-7.500000e+01	 9.998991e-01
0	 4.500000e+01	-9.166667e+01	 9.998389e-01
0	 4.500000e+01	-8.833334e+01	 9.998024e-01
0	 4.500000e+01	-8.500000e+01	 9.997897e-01
0	 4.500000e+01	-8.166667e+01	 9.998009e-01
0	 4.500000e+01	-7.833333e+01	 9.998359e-01
0	 4.500000e+01	-7.500000e+01	 9.998948e-01
0	 4.833333e+01	-9.166667e+01	 1.000039e+00
0	 4.833333e+01	-8.833334e+01	 9.999975e-01
0	 4.833333e+01	-8.500000e+01	 9.999668e-01
0	 4.833333e+01	-8.166667e+01	 9.999465e-01
0	 4.833333e+01	-7.833333e+01	 9.999367e-01
0	 4.833333e+01	-7.500000e+01	 9.999373e-01
0	 5.166667e+01	-9.166667e+01	 1.000176e+00
0	 5.166667e+01	-8.833334e+01	 1.000152e+00
0	 5.166667e+01	-8.500000e+01	 1.000125e+00
0	 5.166667e+01	-8.166667e+01	 1.000095e+00
0	 5.166667e+01	-7.833333e+01	 1.000062e+00
0	 5.166667e+01	-7.500000e+01	 1.000026e+00
0	 5.500000e+01	-9.166667e+01	 1.000252e+00
0	 5.500000e+01	-8.833334e+01	 1.000267e+00
0	 5.500000e+01	-8.500000e+01	 1.000265e+00
0	 5.500000e+01	-8.166667e+01	 1.000248e+00
0	 5.500000e+01	-7.833333e+01	 1.000213e+00
0	 5.500000e+01	-7.500000e+01	 1.000162e+00
0	 5.833333e+01	-9.166667e+01	 1.000265e+00
0	 5.833333e+01	-8.833334e+01	 1.000341e+00
0	 5.833333e+01	-8.500000e+01	 1.000387e+00
0	 5.833333e+01	-8.166667e+01	 1.000403e+00
0	 5.833333e+01	-7.833333e+01	 1.000389e+00
0	 5.833333e+01	-7.500000e+01	 1.000345e+00
0	 4.166667e+01	-7.500000e+01	 9.998991e-01
0	 4.166667e+01	-7.166667e+01	 9.999492e-01
0	 4.166667e+01	-6.833333e+01	 9.998882e-01
0	 4.166667e+01	-6.500000e+01	 9.997160e-01
0	 4.166667e+01	-6.166666e+01	 9.994328e-01
0	 4.166667e+01	-5.833333e+01	 9.990384e-01
0	 4.500000e+01	-7.500000e+01	 9.998948e-01
0	 4.500000e+01	-7.166667e+01	 1.000119e+00
0	 4.500000e+01	-6.833333e+01	 1.000260e+00
0	 4.500000e+01	-6.500000e+01	 1.000317e+00
0	 4.500000e+01	-6.166666e+01	 1.000289e+00
0	 4.500000e+01	-5.833333e+01	 1.000178e+00
0	 4.833333e+01	-7.500000e+01	 9.999373e-01
0	 4.833333e+01	-7.166667e+01	 1.000266e+00
0	 4.833333e+01	-6.833333e+01	 1.000539e+00
0	 4.833333e+01	-6.500000e+01	 1.000754e+00
0	 4.833333e+01	-6.166666e+01	 1.000912e+00
0	 4.833333e+01	-5.833333e+01	 1.001014e+00
0	 5.166667e+01	-7.500000e+01	 1.000026e+00
0	 5.166667e+01	-7.166667e+01	 1.000390e+00
0	 5.166667e+01	-6.833333e+01	 1.000723e+00
0	 5.166667e+01	-6.500000e+01	 1.001027e+00
0	 5.166667e+01	-6.166666e+01	 1.001301e+00
0	 5.166667e+01	-5.833333e+01	 1.001546e+00
0	 5.500000e+01	-7.500000e+01	 1.000162e+00
0	 5.500000e+01	-7.166667e+01	 1.000490e+00
0	 5.500000e+01	-6.833333e+01	 1.000815e+00
0	 5.500000e+01	-6.500000e+01	 1.001137e+00
0	 5.500000e+01	-6.166666e+01	 1.001457e+00
0	 5.500000e+01	-5.833333e+01	 1.001774e+00
0	 5.833333e+01	-7.500000e+01	 1.000345e+00
0	 5.833333e+01	-7.166667e+01	 1.000566e+00
0	 5.833333e+01	-6.833333e+01	 1.000813e+00
0	 5.833333e+01	-6.500000e+01	 1.001083e+00
0	 5.833333e+01	-6.166666e+01	 1.001378e+00
0	 5.833333e+01	-5.833333e+01	 1.001698e+00
0	 4.166667e+01	-5.833333e+01	 9.990384e-01
0	 4.166667e+01	-5.500000e+01	 9.996825e-01
0	 4.166667e+01	-5.166667e+01	 1.000410e+00
0	 4.166667e+01	-4.833333e+01	 1.001220e+00
0	 4.166667e+01	-4.500000e+01	 1.002114e+00
0	 4.166667e+01	-4.166667e+01	 1.003092e+00
0	 4.500000e+01	-5.833333e+01	 1.000178e+00
0	 4.500000e+01	-5.500000e+01	 1.000609e+00
0	 4.500000e+01	-5.166667e+01	 1.001100e+00
0	 4.500000e+01	-4.833333e+01	 1.001650e+00
0	 4.500000e+01	-4.500000e+01	 1.002261e+00
0	 4.500000e+01	-4.166667e+01	 1.002931e+00
0	 4.833333e+01	-5.833333e+01	 1.001014e+00
0	 4.833333e+01	-5.500000e+01	 1.001301e+00
0	 4.833333e+01	-5.166667e+01	 1.001624e+00
0	 4.833333e+01	-4.833333e+01	 1.001984e+00
0	 4.833333e+01	-4.500000e+01	 1.002380e+00
0	 4.833333e+01	-4.166667e+01	 1.002813e+00
0	 5.166667e+01	-5.833333e+01	 1.001546e+00
0	 5.166667e+01	-5.500000e+01	 1.001758e+00
0	 5.166667e+01	-5.166667e+01	 1.001983e+00
0	 5.166667e+01	-4.833333e+01	 1.002221e+00
0	 5.166667e+01	-4.500000e+01	 1.002473e+00
0	 5.166667e+01	-4.166667e+01	 1.002737e+00
0	 5.500000e+01	-5.833333e+01	 1.001774e+00
0	 5.500000e+01	-5.500000e+01	 1.001981e+00
0	 5.500000e+01	-5.166667e+01	 1.002177e+00
0	 5.500000e+01	-4.833333e+01	 1.002363e+00
0	 5.500000e+01	-4.500000e+01	 1.002539e+00
0	 5.500000e+01	-4.166667e+01	 1.002704e+00
0	 5.833333e+01	-5.833333e+01	 1.001698e+00
0	 5.833333e+01	-5.500000e+01	 1.001969e+00
0	 5.833333e+01	-5.166667e+01	 1.002206e+00
0	 5.833333e+01	-4.833333e+01	 1.002409e+00
0	 5.833333e+01	-4.500000e+01	 1.002578e+00
0	 5.833333e+01	-4.166667e+01	 1.002713e+00
0	 4.166667e+01	-4.166667e+01	 1.003092e+00
0	 4.166667e+01	-3.833334e+01	 1.003653e+00
0	 4.166667e+01	-3.500000e+01	 1.004234e+00
0	 4.166667e+01	-3.166667e+01	 1.004833e+00
0	 4.166667e+01	-2.833333e+01	 1.005453e+00
0	 4.166667e+01	-2.500000e+01	 1.006092e+00
0	 4.500000e+01	-4.166667e+01	 1.002931e+00
0	 4.500000e+01	-3.833334e+01	 1.003521e+00
0	 4.500000e+01	-3.500000e+01	 1.004146e+00
0	 4.500000e+01	-3.166667e+01	 1.004808e+00
0	 4.500000e+01	-2.833333e+01	 1.005506e+00
0	 4.500000e+01	-2.500000e+01	 1.006239e+00
0	 4.833333e+01	-4.166667e+01	 1.002813e+00
0	 4.833333e+01	-3.833334e+01	 1.003378e+00
0	 4.833333e+01	-3.500000e+01	 1.003995e+00
0	 4.833333e+01	-3.166667e+01	 1.004665e+00
0	 4.833333e+01	-2.833333e+01	 1.005388e+00
0	 4.833333e+01	-2.500000e+01	 1.006163e+00
0	 5.166667e+01	-4.166667e+01	 1.002737e+00
0	 5.166667e+01	-3.833334e+01	 1.003224e+00
0	 5.166667e+01	-3.500000e+01	 1.003780e+00
0	 5.166667e+01	-3.166667e+01	 1.004405e+00
0	 5.166667e+01	-2.833333e+01	 1.005099e+00
0	 5.166667e+01	-2.500000e+01	 1.005863e+00
0	 5.500000e+01	-4.166667e+01	 1.002704e+00
0	 5.500000e+01	-3.833334e+01	 1.003059e+00
0	 5.500000e+01	-3.500000e+01	 1.003501e+00
0	 5.500000e+01	-3.166667e+01	 1.004028e+00
0	 5.500000e+01	-2.833333e+01	 1.004640e+00
0	 5.500000e+01	-2.500000e+01	 1.005339e+00
0	 5.833333e+01	-4.166667e+01	 1.002713e+00
0	 5.833333e+01	-3.833334e+01	 1.002884e+00
0	 5.833333e+01	-3.500000e+01	 1.003157e+00
0	 5.833333e+01	-3.166667e+01	 1.003533e+00
0	 5.833333e+01	-2.833333e+01	 1.004011e+00
0	 5.833333e+01	-2.500000e+01	 1.004591e+00
0	 4.166667e+01	-2.500000e+01	 1.006092e+00
0	 4.166667e+01	-2.166667e+01	 1.006780e+00
0	 4.166667e+01	-1.833333e+01	 1.007588e+00
0	 4.166667e+01	-1.500000e+01	 1.008516e+00
0	 4.166667e+01	-1.166666e+01	 1.009564e+00
0	 4.166667e+01	-8.333327e+00	 1.010732e+00
0	 4.500000e+01	-2.500000e+01	 1.006239e+00
0	 4.500000e+01	-2.166667e+01	 1.006244e+00
0	 4.500000e+01	-1.833333e+01	 1.006356e+00
0	 4.500000e+01	-1.500000e+01	 1.006574e+00
0	 4.500000e+01	-1.166666e+01	 1.006899e+00
0	 4.500000e+01	-8.333327e+00	 1.007330e+00
0	 4.833333e+01	-2.500000e+01	 1.006163e+00
0	 4.833333e+01	-2.166667e+01	 1.005709e+00
0	 4.833333e+01	-1.833333e+01	 1.005348e+00
0	 4.833333e+01	-1.500000e+01	 1.005079e+00
0	 4.833333e+01	-1.166666e+01	 1.004904e+00
0	 4.833333e+01	-8.333327e+00	 1.004822e+00
0	 5.166667e+01	-2.500000e+01	 1.005863e+00
0	 5.166667e+01	-2.166667e+01	 1.005173e+00
0	 5.166667e+01	-1.833333e+01	 1.004563e+00
0	 5.166667e+01	-1.500000e+01	 1.004032e+00
0	 5.166667e+01	-1.166666e+01	 1.003581e+00
0	 5.166667e+01	-8.333327e+00	 1.003209e+00
0	 5.500000e+01	-2.500000e+01	 1.005339e+00
0	 5.500000e+01	-2.166667e+01	 1.004637e+00
0	 5.500000e+01	-1.833333e+01	 1.004001e+00
0	 5.500000e+01	-1.500000e+01	 1.003432e+00
0	 5.500000e+01	-1.166666e+01	 1.002928e+00
0	 5.500000e+01	-8.333327e+00	 1.002491e+00
0	 5.833333e+01	-2.500000e+01	 1.004591e+00
0	 5.833333e+01	-2.166667e+01	 1.004101e+00
0	 5.833333e+01	-1.833333e+01	 1.003663e+00
0	 5.833333e+01	-1.500000e+01	 1.003279e+00
0	 5.833333e+01	-1.166666e+01	 1.002947e+00
0	 5.833333e+01	-8.333327e+00	 1.002667e+00
0	 4.166667e+01	-8.333327e+00	 1.010732e+00
0	 4.166667e+01	-4.999996e+00	 1.009558e+00
0	 4.166667e+01	-1.666665e+00	 1.008417e+00
0	 4.166667e+01	 1.666665e+00	 1.007309e+00
0	 4.166667e+01	 4.999996e+00	 1.006235e+00
0	 4.166667e+01	 8.333327e+00	 1.005194e+00
0	 4.500000e+01	-8.333327e+00	 1.007330e+00
0	 4.500000e+01	-4.999996e+00	 1.006846e+00
0	 4.500000e+01	-1.666665e+00	 1.006356e+00
0	 4.500000e+01	 1.666665e+00	 1.005860e+00
0	 4.500000e+01	 4.999996e+00	 1.005358e+00
0	 4.500000e+01	 8.333327e+00	 1.004851e+00
0	 4.833333e+01	-8.333327e+00	 1.004822e+00
0	 4.833333e+01	-4.999996e+00	 1.004833e+00
0	 4.833333e+01	-1.666665e+00	 1.004800e+00
0	 4.833333e+01	 1.666665e+00	 1.004721e+00
0	 4.833333e+01	 4.999996e+00	 1.004598e+00
0	 4.833333e+01	 8.333327e+00	 1.004430e+00
0	 5.166667e+01	-8.333327e+00	 1.003209e+00
0	 5.166667e+01	-4.999996e+00	 1.003521e+00
0	 5.166667e+01	-1.666665e+00	 1.003750e+00
0	 5.166667e+01	 1.666665e+00	 1.003894e+00
0	 5.166667e+01	 4.999996e+00	 1.003954e+00
0	 5.166667e+01	 8.333327e+00	 1.003930e+00
0	 5.500000e+01	-8.333327e+00	 1.002491e+00
0	 5.500000e+01	-4.999996e+00	 1.002910e+00
0	 5.500000e+01	-1.666665e+00	 1.003205e+00
0	 5.500000e+01	 1.666665e+00	 1.003378e+00
0	 5.500000e+01	 4.999996e+00	 1.003427e+00
0	 5.500000e+01	 8.333327e+00	 1.003353e+00
0	 5.833333e+01	-8.333327e+00	 1.002667e+00
0	 5.833333e+01	-4.999996e+00	 1.002998e+00
0	 5.833333e+01	-1.666665e+00	 1.003166e+00
0	 5.833333e+01	 1.666665e+00	 1.003172e+00
0	 5.833333e+01	 4.999996e+00	 1.003016e+00
0	 5.833333e+01	 8.333327e+00	 1.002698e+00
0	 4.166667e+01	 8.333327e+00	 1.005194e+00
0	 4.166667e+01	 1.166666e+01	 1.005961e+00
0	 4.166667e+01	 1.500000e+01	 1.006387e+00
0	 4.166667e+01	 1.833333e+01	 1.006472e+00
0	 4.166667e+01	 2.166667e+01	 1.006217e+00
0	 4.166667e+01	 2.500000e+01	 1.005622e+00
0	 4.500000e+01	 8.333327e+00	 1.004851e+00
0	 4.500000e+01	 1.166666e+01	 1.005544e+00
0	 4.500000e+01	 1.500000e+01	 1.005971e+00
0	 4.500000e+01	 1.833333e+01	 1.006133e+00
0	 4.500000e+01	 2.166667e+01	 1.006030e+00
0	 4.500000e+01	 2.500000e+01	 1.005661e+00
0	 4.833333e+01	 8.333327e+00	 1.004430e+00
0	 4.833333e+01	 1.166666e+01	 1.005013e+00
0	 4.833333e+01	 1.500000e+01	 1.005406e+00
0	 4.833333e+01	 1.833333e+01	 1.005610e+00
0	 4.833333e+01	 2.166667e+01	 1.005623e+00
0	 4.833333e+01	 2.500000e+01	 1.005446e+00
0	 5.166667e+01	 8.333327e+00	 1.003930e+00
0	 5.166667e+01	 1.166666e+01	 1.004369e+00
0	 5.166667e+01	 1.500000e+01	 1.004693e+00
0	 5.166667e+01	 1.833333e+01	 1.004902e+00
0	 5.166667e+01	 2.166667e+01	 1.004997e+00
0	 5.166667e+01	 2.500000e+01	 1.004976e+00
0	 5.500000e+01	 8.333327e+00	 1.003353e+00
0	 5.500000e+01	 1.166666e+01	 1.003612e+00
0	 5.500000e+01	 1.500000e+01	 1.003832e+00
0	 5.500000e+01	 1.833333e+01	 1.004011e+00
0	 5.500000e+01	 2.166667e+01	 1.004151e+00
0	 5.500000e+01	 2.500000e+01	 1.004251e+00
0	 5.833333e+01	 8.333327e+00	 1.002698e+00
0	 5.833333e+01	 1.166666e+01	 1.002742e+00
0	 5.833333e+01	 1.500000e+01	 1.002821e+00
0	 5.833333e+01	 1.833333e+01	 1.002936e+00
0	 5.833333e+01	 2.166667e+01	 1.003087e+00
0	 5.833333e+01	 2.500000e+01	 1.003272e+00
0	 4.166667e+01	 2.500000e+01	 1.005622e+00
0	 4.166667e+01	 2.833333e+01	 1.005524e+00
0	 4.166667e+01	 3.166667e+01	 1.005557e+00
0	 4.166667e+01	 3.500000e+01	 1.005720e+00
0	 4.166667e+01	 3.833334e+01	 1.006012e+00
0	 4.166667e+01	 4.166667e+01	 1.006435e+00
0	 4.500000e+01	 2.500000e+01	 1.005661e+00
0	 4.500000e+01	 2.833333e+01	 1.005380e+00
0	 4.500000e+01	 3.166667e+01	 1.005209e+00
0	 4.500000e+01	 3.500000e+01	 1.005147e+00
0	 4.500000e+01	 3.833334e+01	 1.005195e+00
0	 4.500000e+01	 4.166667e+01	 1.005353e+00
0	 4.833333e+01	 2.500000e+01	 1.005446e+00
0	 4.833333e+01	 2.833333e+01	 1.005073e+00
0	 4.833333e+01	 3.166667e+01	 1.004790e+00
0	 4.833333e+01	 3.500000e+01	 1.004597e+00
0	 4.833333e+01	 3.833334e+01	 1.004492e+00
0	 4.833333e+01	 4.166667e+01	 1.004477e+00
0	 5.166667e+01	 2.500000e+01	 1.004976e+00
0	 5.166667e+01	 2.833333e+01	 1.004604e+00
0	 5.166667e+01	 3.166667e+01	 1.004302e+00
0	 5.166667e+01	 3.500000e+01	 1.004068e+00
0	 5.166667e+01	 3.833334e+01	 1.003904e+00
0	 5.166667e+01	 4.166667e+01	 1.003808e+00
0	 5.500000e+01	 2.500000e+01	 1.004251e+00
0	 5.500000e+01	 2.833333e+01	 1.003973e+00
0	 5.500000e+01	 3.166667e+01	 1.003743e+00
0	 5.500000e+01	 3.500000e+01	 1.003562e+00
0	 5.500000e+01	 3.833334e+01	 1.003430e+00
0	 5.500000e+01	 4.166667e+01	 1.003346e+00
0	 5.833333e+01	 2.500000e+01	 1.003272e+00
0	 5.833333e+01	 2.833333e+01	 1.003179e+00
0	 5.833333e+01	 3.166667e+01	 1.003114e+00
0	 5.833333e+01	 3.500000e+01	 1.003078e+00
0	 5.833333e+01	 3.833334e+01	 1.003070e+00
0	 5.833333e+01	 4.166667e+01	 1.003090e+00
0	 4.166667e+01	 4.166667e+01	 1.006435e+00
0	 4.166667e+01	 4.500000e+01	 1.005130e+00
0	 4.166667e+01	 4.833333e+01	 1.003971e+00
0	 4.166667e+01	 5.166667e+01	 1.002958e+00
0	 4.166667e+01	 5.500000e+01	 1.002092e+00
0	 4.166667e+01	 5.833333e+01	 1.001372e+00
0	 4.500000e+01	 4.166667e+01	 1.005353e+00
0	 4.500000e+01	 4.500000e+01	 1.004490e+00
0	 4.500000e+01	 4.833333e+01	 1.003742e+00
0	 4.500000e+01	 5.166667e+01	 1.003108e+00
0	 4.500000e+01	 5.500000e+01	 1.002589e+00
0	 4.500000e+01	 5.833333e+01	 1.002185e+00
0	 4.833333e+01	 4.166667e+01	 1.004477e+00
0	 4.833333e+01	 4.500000e+01	 1.003961e+00
0	 4.833333e+01	 4.833333e+01	 1.003528e+00
0	 4.833333e+01	 5.166667e+01	 1.003178e+00
0	 4.833333e+01	 5.500000e+01	 1.002910e+00
0	 4.833333e+01	 5.833333e+01	 1.002725e+00
0	 5.166667e+01	 4.166667e+01	 1.003808e+00
0	 5.166667e+01	 4.500000e+01	 1.003543e+00
0	 5.166667e+01	 4.833333e+01	 1.003329e+00
0	 5.166667e+01	 5.166667e+01	 1.003166e+00
0	 5.166667e+01	 5.500000e+01	 1.003054e+00
0	 5.166667e+01	 5.833333e+01	 1.002992e+00
0	 5.500000e+01	 4.166667e+01	 1.003346e+00
0	 5.500000e+01	 4.500000e+01	 1.003236e+00
0	 5.500000e+01	 4.833333e+01	 1.003145e+00
0	 5.500000e+01	 5.166667e+01	 1.003074e+00
0	 5.500000e+01	 5.500000e+01	 1.003021e+00
0	 5.500000e+01	 5.833333e+01	 1.002987e+00
0	 5.833333e+01	 4.166667e+01	 1.003090e+00
0	 5.833333e+01	 4.500000e+01	 1.003040e+00
0	 5.833333e+01	 4.833333e+01	 1.002976e+00
0	 5.833333e+01	 5.166667e+01	 1.002900e+00
0	 5.833333e+01	 5.500000e+01	 1.002811e+00
0	 5.833333e+01	 5.833333e+01	 1.002709e+00
0	 4.166667e+01	 5.833333e+01	 1.001372e+00
0	 4.166667e+01	 6.166666e+01	 1.001542e+00
0	 4.166667e+01	 6.500000e+01	 1.001623e+00
0	 4.166667e+01	 6.833333e+01	 1.001616e+00
0	 4.166667e+01	 7.166667e+01	 1.001521e+00
0	 4.166667e+01	 7.500000e+01	 1.001337e+00
0	 4.500000e+01	 5.833333e+01	 1.002185e+00
0	 4.500000e+01	 6.166666e+01	 1.002122e+00
0	 4.500000e+01	 6.500000e+01	 1.001996e+00
0	 4.500000e+01	 6.833333e+01	 1.001807e+00
0	 4.500000e+01	 7.166667e+01	 1.001556e+00
0	 4.500000e+01	 7.500000e+01	 1.001243e+00
0	 4.833333e+01	 5.833333e+01	 1.002725e+00
0	 4.833333e+01	 6.166666e+01	 1.002490e+00
0	 4.833333e+01	 6.500000e+01	 1.002218e+00
0	 4.833333e+01	 6.833333e+01	 1.001910e+00
0	 4.833333e+01	 7.166667e+01	 1.001564e+00
0	 4.833333e+01	 7.500000e+01	 1.001182e+00
0	 5.166667e+01	 5.833333e+01	 1.002992e+00
0	 5.166667e+01	 6.166666e+01	 1.002647e+00
0	 5.166667e+01	 6.500000e+01	 1.002291e+00
0	 5.166667e+01	 6.833333e+01	 1.001923e+00
0	 5.166667e+01	 7.166667e+01	 1.001545e+00
0	 5.166667e+01	 7.500000e+01	 1.001155e+00
0	 5.500000e+01	 5.833333e+01	 1.002987e+00
0	 5.500000e+01	 6.166666e+01	 1.002593e+00
0	 5.500000e+01	 6.500000e+01	 1.002213e+00
0	 5.500000e+01	 6.833333e+01	 1.001848e+00
0	 5.500000e+01	 7.166667e+01	 1.001497e+00
0	 5.500000e+01	 7.500000e+01	 1.001161e+00
0	 5.833333e+01	 5.833333e+01	 1.002709e+00
0	 5.833333e+01	 6.166666e+01	 1.002327e+00
0	 5.833333e+01	 6.500000e+01	 1.001985e+00
0	 5.833333e+01	 6.833333e+01	 1.001683e+00
0	 5.833333e+01	 7.166667e+01	 1.001422e+00
0	 5.833333e+01	 7.500000e+01	 1.001201e+00
0	 4.166667e+01	 7.500000e+01	 1.001337e+00
0	 4.166667e+01	 7.833333e+01	 1.001070e+00
0	 4.166667e+01	 8.166667e+01	 1.000834e+00
0	 4.166667e+01	 8.500000e+01	 1.000629e+00
0	 4.166667e+01	 8.833334e+01	 1.000454e+00
0	 4.166667e+01	 9.166667e+01	 1.000311e+00
0	 4.500000e+01	 7.500000e+01	 1.001243e+00
0	 4.500000e+01	 7.833333e+01	 1.001059e+00
0	 4.500000e+01	 8.166667e+01	 1.000894e+00
0	 4.500000e+01	 8.500000e+01	 1.000750e+00
0	 4.500000e+01	 8.833334e+01	 1.000626e+00
0	 4.500000e+01	 9.166667e+01	 1.000522e+00
0	 4.833333e+01	 7.500000e+01	 1.001182e+00
0	 4.833333e+01	 7.833333e+01	 1.001061e+00
0	 4.833333e+01	 8.166667e+01	 1.000949e+00
0	 4.833333e+01	 8.500000e+01	 1.000846e+00
0	 4.833333e+01	 8.833334e+01	 1.000752e+00
0	 4.833333e+01	 9.166667e+01	 1.000667e+00
0	 5.166667e+01	 7.500000e+01	 1.001155e+00
0	 5.166667e+01	 7.833333e+01	 1.001078e+00
0	 5.166667e+01	 8.166667e+01	 1.000998e+00
0	 5.166667e+01	 8.500000e+01	 1.000917e+00
0	 5.166667e+01	 8.833334e+01	 1.000833e+00
0	 5.166667e+01	 9.166667e+01	 1.000748e+00
0	 5.500000e+01	 7.500000e+01	 1.001161e+00
0	 5.500000e+01	 7.833333e+01	 1.001108e+00
0	 5.500000e+01	 8.166667e+01	 1.001042e+00
0	 5.500000e+01	 8.500000e+01	 1.000962e+00
0	 5.500000e+01	 8.833334e+01	 1.000869e+00
0	 5.500000e+01	 9.166667e+01	 1.000764e+00
0	 5.833333e+01	 7.500000e+01	 1.001201e+00
0	 5.833333e+01	 7.833333e+01	 1.001152e+00
0	 5.833333e+01	 8.166667e+01	 1.001079e+00
0	 5.833333e+01	 8.500000e+01	 1.000982e+00
0	 5.833333e+01	 8.833334e+01	 1.000860e+00
0	 5.833333e+01	 9.166667e+01	 1.000715e+00
0	 4.166667e+01	 9.166667e+01	 1.000311e+00
0	 4.166667e+01	 9.500000e+01	 1.000317e+00
0	 4.166667e+01	 9.833333e+01	 1.000301e+00
0	 4.166667e+01	 1.016667e+02	 1.000263e+00
0	 4.166667e+01	 1.050000e+02	 1.000202e+00
0	 4.166667e+01	 1.083333e+02	 1.000120e+00
0	 4.500000e+01	 9.166667e+01	 1.000522e+00
0	 4.500000e+01	 9.500000e+01	 1.000473e+00
0	 4.500000e+01	 9.833333e+01	 1.000407e+00
0	 4.500000e+01	 1.016667e+02	 1.000325e+00
0	 4.500000e+01	 1.050000e+02	 1.000226e+00
0	 4.500000e+01	 1.083333e+02	 1.000109e+00
0	 4.833333e+01	 9.166667e+01	 1.000667e+00
0	 4.833333e+01	 9.500000e+01	 1.000578e+00
0	 4.833333e+01	 9.833333e+01	 1.000477e+00
0	 4.833333e+01	 1.016667e+02	 1.000364e+00
0	 4.833333e+01	 1.050000e+02	 1.000240e+00
0	 4.833333e+01	 1.083333e+02	 1.000104e+00
0	 5.166667e+01	 9.166667e+01	 1.000748e+00
0	 5.166667e+01	 9.500000e+01	 1.000632e+00
0	 5.166667e+01	 9.833333e+01	 1.000509e+00
0	 5.166667e+01	 1.016667e+02	 1.000380e+00
0	 5.166667e+01	 1.050000e+02	 1.000245e+00
0	 5.166667e+01	 1.083333e+02	 1.000103e+00
0	 5.500000e+01	 9.166667e+01	 1.000764e+00
0	 5.500000e+01	 9.500000e+01	 1.000635e+00
0	 5.500000e+01	 9.833333e+01	 1.000505e+00
0	 5.500000e+01	 1.016667e+02	 1.000373e+00
0	 5.500000e+01	 1.050000e+02	 1.000241e+00
0	 5.500000e+01	 1.083333e+02	 1.000107e+00
0	 5.833333e+01	 9.166667e+01	 1.000715e+00
0	 5.833333e+01	 9.500000e+01	 1.000587e+00
0	 5.833333e+01	 9.833333e+01	 1.000463e+00
0	 5.833333e+01	 1.016667e+02	 1.000343e+00
0	 5.833333e+01	 1.050000e+02	 1.000227e+00
0	 5.833333e+01	 1.083333e+02	 1.000115e+00
0	 4.166667e+01	 1.083333e+02	 1.000120e+00
0	 4.166667e+01	 1.116667e+02	 1.000090e+00
0	 4.166667e+01	 1.150000e+02	 1.000058e+00
0	 4.166667e+01	 1.183333e+02	 1.000024e+00
0	 4.166667e+01	 1.216667e+02	 9.999870e-01
0	 4.166667e+01	 1.250000e+02	 9.999478e-01
0	 4.500000e+01	 1.083333e+02	 1.000109e+00
0	 4.500000e+01	 1.116667e+02	 1.000096e+00
0	 4.500000e+01	 1.150000e+02	 1.000075e+00
0	 4.500000e+01	 1.183333e+02	 1.000048e+00
0	 4.500000e+01	 1.216667e+02	 1.000013e+00
0	 4.500000e+01	 1.250000e+02	 9.999713e-01
0	 4.833333e+01	 1.083333e+02	 1.000104e+00
0	 4.833333e+01	 1.116667e+02	 1.000102e+00
0	 4.833333e+01	 1.150000e+02	 1.000089e+00
0	 4.833333e+01	 1.183333e+02	 1.000063e+00
0	 4.833333e+01	 1.216667e+02	 1.000026e+00
0	 4.833333e+01	 1.250000e+02	 9.999778e-01
0	 5.166667e+01	 1.083333e+02	 1.000103e+00
0	 5.166667e+01	 1.116667e+02	 1.000109e+00
0	 5.166667e+01	 1.150000e+02	 1.000098e+00
0	 5.166667e+01	 1.183333e+02	 1.000071e+00
0	 5.166667e+01	 1.216667e+02	 1.000027e+00
0	 5.166667e+01	 1.250000e+02	 9.999672e-01
0	 5.500000e+01	 1.083333e+02	 1.000107e+00
0	 5.500000e+01	 1.116667e+02	 1.000115e+00
0	 5.500000e+01	 1.150000e+02	 1.000103e+00
0	 5.500000e+01	 1.183333e+02	 1.000069e+00
0	 5.500000e+01	 1.216667e+02	 1.000015e+00
0	 5.500000e+01	 1.250000e+02	 9.999396e-01
0	 5.833333e+01	 1.083333e+02	 1.000115e+00
0	 5.833333e+01	 1.116667e+02	 1.000122e+00
0	 5.833333e+01	 1.150000e+02	 1.000104e+00
0	 5.833333e+01	 1.183333e+02	 1.000060e+00
0	 5.833333e+01	 1.216667e+02	 9.999902e-01
0	 5.833333e+01	 1.250000e+02	 9.998950e-01
0	 5.833333e+01	-1.250000e+02	 9.999672e-01
0	 5.833333e+01	-1.216667e+02	 1.000003e+00
0	 5.833333e+01	-1.183333e+02	 1.000024e+00
0	 5.833333e+01	-1.150000e+02	 1.000031e+00
0	 5.833333e+01	-1.116667e+02	 1.000024e+00
0	 5.833333e+01	-1.083333e+02	 1.000004e+00
0	 6.166666e+01	-1.250000e+02	 9.999525e-01
0	 6.166666e+01	-1.216667e+02	 9.999991e-01
0	 6.166666e+01	-1.183333e+02	 1.000034e+00
0	 6.166666e+01	-1.150000e+02	 1.000056e+00
0	 6.166666e+01	-1.116667e+02	 1.000066e+00
0	 6.166666e+01	-1.083333e+02	 1.000063e+00
0	 6.500000e+01	-1.250000e+02	 9.999427e-01
0	 6.500000e+01	-1.216667e+02	 9.999958e-01
0	 6.500000e+01	-1.183333e+02	 1.000038e+00
0	 6.500000e+01	-1.150000e+02	 1.000071e+00
0	 6.500000e+01	-1.116667e+02	 1.000092e+00
0	 6.500000e+01	-1.083333e+02	 1.000103e+00
0	 6.833333e+01	-1.250000e+02	 9.999378e-01
0	 6.833333e+01	-1.216667e+02	 9.999925e-01
0	 6.833333e+01	-1.183333e+02	 1.000039e+00
0	 6.833333e+01	-1.150000e+02	 1.000076e+00
0	 6.833333e+01	-1.116667e+02	 1.000104e+00
0	 6.833333e+01	-1.083333e+02	 1.000124e+00
0	 7.166667e+01	-1.250000e+02	 9.999378e-01
0	 7.166667e+01	-1.216667e+02	 9.999893e-01
0	 7.166667e+01	-1.183333e+02	 1.000034e+00
0	 7.166667e+01	-1.150000e+02	 1.000072e+00
0	 7.166667e+01	-1.116667e+02	 1.000102e+00
0	 7.166667e+01	-1.083333e+02	 1.000126e+00
0	 7.500000e+01	-1.250000e+02	 9.999427e-01
0	 7.500000e+01	-1.216667e+02	 9.999862e-01
0	 7.500000e+01	-1.183333e+02	 1.000024e+00
0	 7.500000e+01	-1.150000e+02	 1.000058e+00
0	 7.500000e+01	-1.116667e+02	 1.000086e+00
0	 7.500000e+01	-1.083333e+02	 1.000109e+00
0	 5.833333e+01	-1.083333e+02	 1.000004e+00
0	 5.833333e+01	-1.050000e+02	 1.000038e+00
0	 5.833333e+01	-1.016667e+02	 1.000081e+00
0	 5.833333e+01	-9.833333e+01	 1.000133e+00
0	 5.833333e+01	-9.500000e+01	 1.000195e+00
0	 5.833333e+01	-9.166667e+01	 1.000265e+00
0	 6.166666e+01	-1.083333e+02	 1.000063e+00
0	 6.166666e+01	-1.050000e+02	 1.000093e+00
0	 6.166666e+01	-1.016667e+02	 1.000128e+00
0	 6.166666e+01	-9.833333e+01	 1.000168e+00
0	 6.166666e+01	-9.500000e+01	 1.000213e+00
0	 6.166666e+01	-9.166667e+01	 1.000263e+00
0	 6.500000e+01	-1.083333e+02	 1.000103e+00
0	 6.500000e+01	-1.050000e+02	 1.000135e+00
0	 6.500000e+01	-1.016667e+02	 1.000168e+00
0	 6.500000e+01	-9.833333e+01	 1.000201e+00
0	 6.500000e+01	-9.500000e+01	 1.000235e+00
0	 6.500000e+01	-9.166667e+01	 1.000270e+00
0	 6.833333e+01	-1.083333e+02	 1.000124e+00
0	 6.833333e+01	-1.050000e+02	 1.000164e+00
0	 6.833333e+01	-1.016667e+02	 1.000200e+00
0	 6.833333e+01	-9.833333e+01	 1.000233e+00
0	 6.833333e+01	-9.500000e+01	 1.000262e+00
0	 6.833333e+01	-9.166667e+01	 1.000287e+00
0	 7.166667e+01	-1.083333e+02	 1.000126e+00
0	 7.166667e+01	-1.050000e+02	 1.000179e+00
0	 7.166667e+01	-1.016667e+02	 1.000225e+00
0	 7.166667e+01	-9.833333e+01	 1.000262e+00
0	 7.166667e+01	-9.500000e+01	 1.000292e+00
0	 7.166667e+01	-9.166667e+01	 1.000314e+00
0	 7.500000e+01	-1.083333e+02	 1.000109e+00
0	 7.500000e+01	-1.050000e+02	 1.000181e+00
0	 7.500000e+01	-1.016667e+02	 1.000242e+00
0	 7.500000e+01	-9.833333e+01	 1.000290e+00
0	 7.500000e+01	-9.500000e+01	 1.000327e+00
0	 7.500000e+01	-9.166667e+01	 1.000351e+00
0	 5.833333e+01	-9.166667e+01	 1.000265e+00
0	 5.833333e+01	-8.833334e+01	 1.000341e+00
0	 5.833333e+01	-8.500000e+01	 1.000387e+00
0	 5.833333e+01	-8.166667e+01	 1.000403e+00
0	 5.833333e+01	-7.833333e+01	 1.000389e+00
0	 5.833333e+01	-7.500000e+01	 1.000345e+00
0	 6.166666e+01	-9.166667e+01	 1.000263e+00
0	 6.166666e+01	-8.833334e+01	 1.000384e+00
0	 6.166666e+01	-8.500000e+01	 1.000482e+00
0	 6.166666e+01	-8.166667e+01	 1.000557e+00
0	 6.166666e+01	-7.833333e+01	 1.000610e+00
0	 6.166666e+01	-7.500000e+01	 1.000640e+00
0	 6.500000e+01	-9.166667e+01	 1.000270e+00
0	 6.500000e+01	-8.833334e+01	 1.000417e+00
0	 6.500000e+01	-8.500000e+01	 1.000548e+00
0	 6.500000e+01	-8.166667e+01	 1.000664e+00
0	 6.500000e+01	-7.833333e+01	 1.000765e+00
0	 6.500000e+01	-7.500000e+01	 1.000850e+00
0	 6.833333e+01	-9.166667e+01	 1.000287e+00
0	 6.833333e+01	-8.833334e+01	 1.000441e+00
0	 6.833333e+01	-8.500000e+01	 1.000587e+00
0	 6.833333e+01	-8.166667e+01	 1.000724e+00
0	 6.833333e+01	-7.833333e+01	 1.000853e+00
0	 6.833333e+01	-7.500000e+01	 1.000974e+00
0	 7.166667e+01	-9.166667e+01	 1.000314e+00
0	 7.166667e+01	-8.833334e+01	 1.000456e+00
0	 7.166667e+01	-8.500000e+01	 1.000597e+00
0	 7.166667e+01	-8.166667e+01	 1.000737e+00
0	 7.166667e+01	-7.833333e+01	 1.000876e+00
0	 7.166667e+01	-7.500000e+01	 1.001013e+00
0	 7.500000e+01	-9.166667e+01	 1.000351e+00
0	 7.500000e+01	-8.833334e+01	 1.000462e+00
0	 7.500000e+01	-8.500000e+01	 1.000579e+00
0	 7.500000e+01	-8.166667e+01	 1.000702e+00
0	 7.500000e+01	-7.833333e+01	 1.000832e+00
0	 7.500000e+01	-7.500000e+01	 1.000967e+00
0	 5.833333e+01	-7.500000e+01	 1.000345e+00
0	 5.833333e+01	-7.166667e+01	 1.000566e+00
0	 5.833333e+01	-6.833333e+01	 1.000813e+00
0	 5.833333e+01	-6.500000e+01	 1.001083e+00
0	 5.833333e+01	-6.166666e+01	 1.001378e+00
0	 5.833333e+01	-5.833333e+01	 1.001698e+00
0	 6.166666e+01	-7.500000e+01	 1.000640e+00
0	 6.166666e+01	-7.166667e+01	 1.000792e+00
0	 6.166666e+01	-6.833333e+01	 1.000962e+00
0	 6.166666e+01	-6.500000e+01	 1.001149e+00
0	 6.166666e+01	-6.166666e+01	 1.001354e+00
0	 6.166666e+01	-5.833333e+01	 1.001576e+00
0	 6.500000e+01	-7.500000e+01	 1.000850e+00
0	 6.500000e+01	-7.166667e+01	 1.000956e+00
0	 6.500000e+01	-6.833333e+01	 1.001074e+00
0	 6.500000e+01	-6.500000e+01	 1.001202e+00
0	 6.500000e+01	-6.166666e+01	 1.001340e+00
0	 6.500000e+01	-5.833333e+01	 1.001489e+00
0	 6.833333e+01	-7.500000e+01	 1.000974e+00
0	 6.833333e+01	-7.166667e+01	 1.001060e+00
0	 6.833333e+01	-6.833333e+01	 1.001149e+00
0	 6.833333e+01	-6.500000e+01	 1.001242e+00
0	 6.833333e+01	-6.166666e+01	 1.001339e+00
0	 6.833333e+01	-5.833333e+01	 1.001439e+00
0	 7.166667e+01	-7.500000e+01	 1.001013e+00
0	 7.166667e+01	-7.166667e+01	 1.001102e+00
0	 7.166667e+01	-6.833333e+01	 1.001187e+00
0	 7.166667e+01	-6.500000e+01	 1.001270e+00
0	 7.166667e+01	-6.166666e+01	 1.001349e+00
0	 7.166667e+01	-5.833333e+01	 1.001424e+00
0	 7.500000e+01	-7.500000e+01	 1.000967e+00
0	 7.500000e+01	-7.166667e+01	 1.001083e+00
0	 7.500000e+01	-6.833333e+01	 1.001189e+00
0	 7.500000e+01	-6.500000e+01	 1.001285e+00
0	 7.500000e+01	-6.166666e+01	 1.001370e+00
0	 7.500000e+01	-5.833333e+01	 1.001445e+00
0	 5.833333e+01	-5.833333e+01	 1.001698e+00
0	 5.833333e+01	-5.500000e+01	 1.001969e+00
0	 5.833333e+01	-5.166667e+01	 1.002206e+00
0	 5.833333e+01	-4.833333e+01	 1.002409e+00
0	 5.833333e+01	-4.500000e+01	 1.002578e+00
0	 5.833333e+01	-4.166667e+01	 1.002713e+00
0	 6.166666e+01	-5.833333e+01	 1.001576e+00
0	 6.166666e+01	-5.500000e+01	 1.001859e+00
0	 6.166666e+01	-5.166667e+01	 1.002122e+00
0	 6.166666e+01	-4.833333e+01	 1.002363e+00
0	 6.166666e+01	-4.500000e+01	 1.002583e+00
0	 6.166666e+01	-4.166667e+01	 1.002782e+00
0	 6.500000e+01	-5.833333e+01	 1.001489e+00
0	 6.500000e+01	-5.500000e+01	 1.001766e+00
0	 6.500000e+01	-5.166667e+01	 1.002034e+00
0	 6.500000e+01	-4.833333e+01	 1.002293e+00
0	 6.500000e+01	-4.500000e+01	 1.002545e+00
0	 6.500000e+01	-4.166667e+01	 1.002788e+00
0	 6.833333e+01	-5.833333e+01	 1.001439e+00
0	 6.833333e+01	-5.500000e+01	 1.001688e+00
0	 6.833333e+01	-5.166667e+01	 1.001942e+00
0	 6.833333e+01	-4.833333e+01	 1.002200e+00
0	 6.833333e+01	-4.500000e+01	 1.002462e+00
0	 6.833333e+01	-4.166667e+01	 1.002729e+00
0	 7.166667e+01	-5.833333e+01	 1.001424e+00
0	 7.166667e+01	-5.500000e+01	 1.001626e+00
0	 7.166667e+01	-5.166667e+01	 1.001845e+00
0	 7.166667e+01	-4.833333e+01	 1.002082e+00
0	 7.166667e+01	-4.500000e+01	 1.002335e+00
0	 7.166667e+01	-4.166667e+01	 1.002606e+00
0	 7.500000e+01	-5.833333e+01	 1.001445e+00
0	 7.500000e+01	-5.500000e+01	 1.001580e+00
0	 7.500000e+01	-5.166667e+01	 1.001745e+00
0	 7.500000e+01	-4.833333e+01	 1.001940e+00
0	 7.500000e+01	-4.500000e+01	 1.002164e+00
0	 7.500000e+01	-4.166667e+01	 1.002419e+00
0	 5.833333e+01	-4.166667e+01	 1.002713e+00
0	 5.833333e+01	-3.833334e+01	 1.002884e+00
0	 5.833333e+01	-3.500000e+01	 1.003157e+00
0	 5.833333e+01	-3.166667e+01	 1.003533e+00
0	 5.833333e+01	-2.833333e+01	 1.004011e+00
0	 5.833333e+01	-2.500000e+01	 1.004591e+00
0	 6.166666e+01	-4.166667e+01	 1.002782e+00
0	 6.166666e+01	-3.833334e+01	 1.002833e+00
0	 6.166666e+01	-3.500000e+01	 1.002968e+00
0	 6.166666e+01	-3.166667e+01	 1.003187e+00
0	 6.166666e+01	-2.833333e+01	 1.003490e+00
0	 6.166666e+01	-2.500000e+01	 1.003878e+00
0	 6.500000e+01	-4.166667e+01	 1.002788e+00
0	 6.500000e+01	-3.833334e+01	 1.002759e+00
0	 6.500000e+01	-3.500000e+01	 1.002797e+00
0	 6.500000e+01	-3.166667e+01	 1.002902e+00
0	 6.500000e+01	-2.833333e+01	 1.003073e+00
0	 6.500000e+01	-2.500000e+01	 1.003310e+00
0	 6.833333e+01	-4.166667e+01	 1.002729e+00
0	 6.833333e+01	-3.833334e+01	 1.002663e+00
0	 6.833333e+01	-3.500000e+01	 1.002646e+00
0	 6.833333e+01	-3.166667e+01	 1.002678e+00
0	 6.833333e+01	-2.833333e+01	 1.002758e+00
0	 6.833333e+01	-2.500000e+01	 1.002886e+00
0	 7.166667e+01	-4.166667e+01	 1.002606e+00
0	 7.166667e+01	-3.833334e+01	 1.002545e+00
0	 7.166667e+01	-3.500000e+01	 1.002514e+00
0	 7.166667e+01	-3.166667e+01	 1.002515e+00
0	 7.166667e+01	-2.833333e+01	 1.002545e+00
0	 7.166667e+01	-2.500000e+01	 1.002607e+00
0	 7.500000e+01	-4.166667e+01	 1.002419e+00
0	 7.500000e+01	-3.833334e+01	 1.002404e+00
0	 7.500000e+01	-3.500000e+01	 1.002402e+00
0	 7.500000e+01	-3.166667e+01	 1.002413e+00
0	 7.500000e+01	-2.833333e+01	 1.002436e+00
0	 7.500000e+01	-2.500000e+01	 1.002472e+00
0	 5.833333e+01	-2.500000e+01	 1.004591e+00
0	 5.833333e+01	-2.166667e+01	 1.004101e+00
0	 5.833333e+01	-1.833333e+01	 1.003663e+00
0	 5.833333e+01	-1.500000e+01	 1.003279e+00
0	 5.833333e+01	-1.166666e+01	 1.002947e+00
0	 5.833333e+01	-8.333327e+00	 1.002667e+00
0	 6.166666e+01	-2.500000e+01	 1.003878e+00
0	 6.166666e+01	-2.166667e+01	 1.003598e+00
0	 6.166666e+01	-1.833333e+01	 1.003360e+00
0	 6.166666e+01	-1.500000e+01	 1.003166e+00
0	 6.166666e+01	-1.166666e+01	 1.003016e+00
0	 6.166666e+01	-8.333327e+00	 1.002909e+00
0	 6.500000e+01	-2.500000e+01	 1.003310e+00
0	 6.500000e+01	-2.166667e+01	 1.003177e+00
0	 6.500000e+01	-1.833333e+01	 1.003079e+00
0	 6.500000e+01	-1.500000e+01	 1.003014e+00
0	 6.500000e+01	-1.166666e+01	 1.002984e+00
0	 6.500000e+01	-8.333327e+00	 1.002988e+00
0	 6.833333e+01	-2.500000e+01	 1.002886e+00
0	 6.833333e+01	-2.166667e+01	 1.002840e+00
0	 6.833333e+01	-1.833333e+01	 1.002819e+00
0	 6.833333e+01	-1.500000e+01	 1.002822e+00
0	 6.833333e+01	-1.166666e+01	 1.002851e+00
0	 6.833333e+01	-8.333327e+00	 1.002904e+00
0	 7.166667e+01	-2.500000e+01	 1.002607e+00
0	 7.166667e+01	-2.166667e+01	 1.002586e+00
0	 7.166667e+01	-1.833333e+01	 1.002580e+00
0	 7.166667e+01	-1.500000e+01	 1.002590e+00
0	 7.166667e+01	-1.166666e+01	 1.002616e+00
0	 7.166667e+01	-8.333327e+00	 1.002657e+00
0	 7.500000e+01	-2.500000e+01	 1.002472e+00
0	 7.500000e+01	-2.166667e+01	 1.002414e+00
0	 7.500000e+01	-1.833333e+01	 1.002363e+00
0	 7.500000e+01	-1.500000e+01	 1.002318e+00
0	 7.500000e+01	-1.166666e+01	 1.002279e+00
0	 7.500000e+01	-8.333327e+00	 1.002247e+00
0	 5.833333e+01	-8.333327e+00	 1.002667e+00
0	 5.833333e+01	-4.999996e+00	 1.002998e+00
0	 5.833333e+01	-1.666665e+00	 1.003166e+00
0	 5.833333e+01	 1.666665e+00	 1.003172e+00
0	 5.833333e+01	 4.999996e+00	 1.003016e+00
0	 5.833333e+01	 8.333327e+00	 1.002698e+00
0	 6.166666e+01	-8.333327e+00	 1.002909e+00
0	 6.166666e+01	-4.999996e+00	 1.003050e+00
0	 6.166666e+01	-1.666665e+00	 1.003061e+00
0	 6.166666e+01	 1.666665e+00	 1.002943e+00
0	 6.166666e+01	 4.999996e+00	 1.002696e+00
0	 6.166666e+01	 8.333327e+00	 1.002320e+00
0	 6.500000e+01	-8.333327e+00	 1.002988e+00
0	 6.500000e+01	-4.999996e+00	 1.002985e+00
0	 6.500000e+01	-1.666665e+00	 1.002886e+00
0	 6.500000e+01	 1.666665e+00	 1.002691e+00
0	 6.500000e+01	 4.999996e+00	 1.002400e+00
0	 6.500000e+01	 8.333327e+00	 1.002014e+00
0	 6.833333e+01	-8.333327e+00	 1.002904e+00
0	 6.833333e+01	-4.999996e+00	 1.002804e+00
0	 6.833333e+01	-1.666665e+00	 1.002641e+00
0	 6.833333e+01	 1.666665e+00	 1.002416e+00
0	 6.833333e+01	 4.999996e+00	 1.002128e+00
0	 6.833333e+01	 8.333327e+00	 1.001778e+00
0	 7.166667e+01	-8.333327e+00	 1.002657e+00
0	 7.166667e+01	-4.999996e+00	 1.002507e+00
0	 7.166667e+01	-1.666665e+00	 1.002327e+00
0	 7.166667e+01	 1.666665e+00	 1.002118e+00
0	 7.166667e+01	 4.999996e+00	 1.001880e+00
0	 7.166667e+01	 8.333327e+00	 1.001613e+00
0	 7.500000e+01	-8.333327e+00	 1.002247e+00
0	 7.500000e+01	-4.999996e+00	 1.002093e+00
0	 7.500000e+01	-1.666665e+00	 1.001944e+00
0	 7.500000e+01	 1.666665e+00	 1.001798e+00
0	 7.500000e+01	 4.999996e+00	 1.001656e+00
0	 7.500000e+01	 8.333327e+00	 1.001519e+00
0	 5.833333e+01	 8.333327e+00	 1.002698e+00
0	 5.833333e+01	 1.166666e+01	 1.002742e+00
0	 5.833333e+01	 1.500000e+01	 1.002821e+00
0	 5.833333e+01	 1.833333e+01	 1.002936e+00
0	 5.833333e+01	 2.166667e+01	 1.003087e+00
0	 5.833333e+01	 2.500000e+01	 1.003272e+00
0	 6.166666e+01	 8.333327e+00	 1.002320e+00
0	 6.166666e+01	 1.166666e+01	 1.002384e+00
0	 6.166666e+01	 1.500000e+01	 1.002464e+00
0	 6.166666e+01	 1.833333e+01	 1.002560e+00
0	 6.166666e+01	 2.166667e+01	 1.002673e+00
0	 6.166666e+01	 2.500000e+01	 1.002802e+00
0	 6.500000e+01	 8.333327e+00	 1.002014e+00
0	 6.500000e+01	 1.166666e+01	 1.002101e+00
0	 6.500000e+01	 1.500000e+01	 1.002186e+00
0	 6.500000e+01	 1.833333e+01	 1.002268e+00
0	 6.500000e+01	 2.166667e+01	 1.002348e+00
0	 6.500000e+01	 2.500000e+01	 1.002425e+00
0	 6.833333e+01	 8.333327e+00	 1.001778e+00
0	 6.833333e+01	 1.166666e+01	 1.001894e+00
0	 6.833333e+01	 1.500000e+01	 1.001988e+00
0	 6.833333e+01	 1.833333e+01	 1.002061e+00
0	 6.833333e+01	 2.166667e+01	 1.002112e+00
0	 6.833333e+01	 2.500000e+01	 1.002141e+00
0	 7.166667e+01	 8.333327e+00	 1.001613e+00
0	 7.166667e+01	 1.166666e+01	 1.001762e+00
0	 7.166667e+01	 1.500000e+01	 1.001871e+00
0	 7.166667e+01	 1.833333e+01	 1.001938e+00
0	 7.166667e+01	 2.166667e+01	 1.001965e+00
0	 7.166667e+01	 2.500000e+01	 1.001952e+00
0	 7.500000e+01	 8.333327e+00	 1.001519e+00
0	 7.500000e+01	 1.166666e+01	 1.001706e+00
0	 7.500000e+01	 1.500000e+01	 1.001833e+00
0	 7.500000e+01	 1.833333e+01	 1.001900e+00
0	 7.500000e+01	 2.166667e+01	 1.001908e+00
0	 7.500000e+01	 2.500000e+01	 1.001855e+00
0	 5.833333e+01	 2.500000e+01	 1.003272e+00
0	 5.833333e+01	 2.833333e+01	 1.003179e+00
0	 5.833333e+01	 3.166667e+01	 1.003114e+00
0	 5.833333e+01	 3.500000e+01	 1.003078e+00
0	 5.833333e+01	 3.833334e+01	 1.003070e+00
0	 5.833333e+01	 4.166667e+01	 1.003090e+00
0	 6.166666e+01	 2.500000e+01	 1.002802e+00
0	 6.166666e+01	 2.833333e+01	 1.002765e+00
0	 6.166666e+01	 3.166667e+01	 1.002754e+00
0	 6.166666e+01	 3.500000e+01	 1.002769e+00
0	 6.166666e+01	 3.833334e+01	 1.002808e+00
0	 6.166666e+01	 4.166667e+01	 1.002874e+00
0	 6.500000e+01	 2.500000e+01	 1.002425e+00
0	 6.500000e+01	 2.833333e+01	 1.002426e+00
0	 6.500000e+01	 3.166667e+01	 1.002449e+00
0	 6.500000e+01	 3.500000e+01	 1.002495e+00
0	 6.500000e+01	 3.833334e+01	 1.002564e+00
0	 6.500000e+01	 4.166667e+01	 1.002656e+00
0	 6.833333e+01	 2.500000e+01	 1.002141e+00
0	 6.833333e+01	 2.833333e+01	 1.002161e+00
0	 6.833333e+01	 3.166667e+01	 1.002200e+00
0	 6.833333e+01	 3.500000e+01	 1.002259e+00
0	 6.833333e+01	 3.833334e+01	 1.002338e+00
0	 6.833333e+01	 4.166667e+01	 1.002436e+00
0	 7.166667e+01	 2.500000e+01	 1.001952e+00
0	 7.166667e+01	 2.833333e+01	 1.001970e+00
0	 7.166667e+01	 3.166667e+01	 1.002006e+00
0	 7.166667e+01	 3.500000e+01	 1.002058e+00
0	 7.166667e+01	 3.833334e+01	 1.002128e+00
0	 7.166667e+01	 4.166667e+01	 1.002215e+00
0	 7.500000e+01	 2.500000e+01	 1.001855e+00
0	 7.500000e+01	 2.833333e+01	 1.001854e+00
0	 7.500000e+01	 3.166667e+01	 1.001867e+00
0	 7.500000e+01	 3.500000e+01	 1.001894e+00
0	 7.500000e+01	 3.833334e+01	 1.001936e+00
0	 7.500000e+01	 4.166667e+01	 1.001992e+00
0	 5.833333e+01	 4.166667e+01	 1.003090e+00
0	 5.833333e+01	 4.500000e+01	 1.003040e+00
0	 5.833333e+01	 4.833333e+01	 1.002976e+00
0	 5.833333e+01	 5.166667e+01	 1.002900e+00
0	 5.833333e+01	 5.500000e+01	 1.002811e+00
0	 5.833333e+01	 5.833333e+01	 1.002709e+00
0	 6.166666e+01	 4.166667e+01	 1.002874e+00
0	 6.166666e+01	 4.500000e+01	 1.002775e+00
0	 6.166666e+01	 4.833333e+01	 1.002671e+00
0	 6.166666e+01	 5.166667e+01	 1.002560e+00
0	 6.166666e+01	 5.500000e+01	 1.002443e+00
0	 6.166666e+01	 5.833333e+01	 1.002321e+00
0	 6.500000e+01	 4.166667e+01	 1.002656e+00
0	 6.500000e+01	 4.500000e+01	 1.002524e+00
0	 6.500000e+01	 4.833333e+01	 1.002394e+00
0	 6.500000e+01	 5.166667e+01	 1.002264e+00
0	 6.500000e+01	 5.500000e+01	 1.002134e+00
0	 6.500000e+01	 5.833333e+01	 1.002006e+00
0	 6.833333e+01	 4.166667e+01	 1.002436e+00
0	 6.833333e+01	 4.500000e+01	 1.002287e+00
0	 6.833333e+01	 4.833333e+01	 1.002145e+00
0	 6.833333e+01	 5.166667e+01	 1.002010e+00
0	 6.833333e+01	 5.500000e+01	 1.001884e+00
0	 6.833333e+01	 5.833333e+01	 1.001765e+00
0	 7.166667e+01	 4.166667e+01	 1.002215e+00
0	 7.166667e+01	 4.500000e+01	 1.002062e+00
0	 7.166667e+01	 4.833333e+01	 1.001924e+00
0	 7.166667e+01	 5.166667e+01	 1.001801e+00
0	 7.166667e+01	 5.500000e+01	 1.001692e+00
0	 7.166667e+01	 5.833333e+01	 1.001598e+00
0	 7.500000e+01	 4.166667e+01	 1.001992e+00
0	 7.500000e+01	 4.500000e+01	 1.001851e+00
0	 7.500000e+01	 4.833333e+01	 1.001732e+00
0	 7.500000e+01	 5.166667e+01	 1.001634e+00
0	 7.500000e+01	 5.500000e+01	 1.001559e+00
0	 7.500000e+01	 5.833333e+01	 1.001504e+00
0	 5.833333e+01	 5.833333e+01	 1.002709e+00
0	 5.833333e+01	 6.166666e+01	 1.002327e+00
0	 5.833333e+01	 6.500000e+01	 1.001985e+00
0	 5.833333e+01	 6.833333e+01	 1.001683e+00
0	 5.833333e+01	 7.166667e+01	 1.001422e+00
0	 5.833333e+01	 7.500000e+01	 1.001201e+00
0	 6.166666e+01	 5.833333e+01	 1.002321e+00
0	 6.166666e+01	 6.166666e+01	 1.002058e+00
0	 6.166666e+01	 6.500000e+01	 1.001827e+00
0	 6.166666e+01	 6.833333e+01	 1.001629e+00
0	 6.166666e+01	 7.166667e+01	 1.001462e+00
0	 6.166666e+01	 7.500000e+01	 1.001328e+00
0	 6.500000e+01	 5.833333e+01	 1.002006e+00
0	 6.500000e+01	 6.166666e+01	 1.001835e+00
0	 6.500000e+01	 6.500000e+01	 1.001687e+00
0	 6.500000e+01	 6.833333e+01	 1.001564e+00
0	 6.500000e+01	 7.166667e+01	 1.001464e+00
0	 6.500000e+01	 7.500000e+01	 1.001388e+00
0	 6.833333e+01	 5.833333e+01	 1.001765e+00
0	 6.833333e+01	 6.166666e+01	 1.001657e+00
0	 6.833333e+01	 6.500000e+01	 1.001565e+00
0	 6.833333e+01	 6.833333e+01	 1.001488e+00
0	 6.833333e+01	 7.166667e+01	 1.001427e+00
0	 6.833333e+01	 7.500000e+01	 1.001382e+00
0	 7.166667e+01	 5.833333e+01	 1.001598e+00
0	 7.166667e+01	 6.166666e+01	 1.001525e+00
0	 7.166667e+01	 6.500000e+01	 1.001460e+00
0	 7.166667e+01	 6.833333e+01	 1.001403e+00
0	 7.166667e+01	 7.166667e+01	 1.001352e+00
0	 7.166667e+01	 7.500000e+01	 1.001310e+00
0	 7.500000e+01	 5.833333e+01	 1.001504e+00
0	 7.500000e+01	 6.166666e+01	 1.001439e+00
0	 7.500000e+01	 6.500000e+01	 1.001373e+00
0	 7.500000e+01	 6.833333e+01	 1.001307e+00
0	 7.500000e+01	 7.166667e+01	 1.001239e+00
0	 7.500000e+01	 7.500000e+01	 1.001171e+00
0	 5.833333e+01	 7.500000e+01	 1.001201e+00
0	 5.833333e+01	 7.833333e+01	 1.001152e+00
0	 5.833333e+01	 8.166667e+01	 1.001079e+00
0	 5.833333e+01	 8.500000e+01	 1.000982e+00
0	 5.833333e+01	 8.833334e+01	 1.000860e+00
0	 5.833333e+01	 9.166667e+01	 1.000715e+00
0	 6.166666e+01	 7.500000e+01	 1.001328e+00
0	 6.166666e+01	 7.833333e+01	 1.001228e+00
0	 6.166666e+01	 8.166667e+01	 1.001110e+00
0	 6.166666e+01	 8.500000e+01	 1.000975e+00
0	 6.166666e+01	 8.833334e+01	 1.000823e+00
0	 6.166666e+01	 9.166667e+01	 1.000652e+00
0	 6.500000e+01	 7.500000e+01	 1.001388e+00
0	 6.500000e+01	 7.833333e+01	 1.001252e+00
0	 6.500000e+01	 8.166667e+01	 1.001105e+00
0	 6.500000e+01	 8.500000e+01	 1.000948e+00
0	 6.500000e+01	 8.833334e+01	 1.000779e+00
0	 6.500000e+01	 9.166667e+01	 1.000600e+00
0	 6.833333e+01	 7.500000e+01	 1.001382e+00
0	 6.833333e+01	 7.833333e+01	 1.001225e+00
0	 6.833333e+01	 8.166667e+01	 1.001065e+00
0	 6.833333e+01	 8.500000e+01	 1.000899e+00
0	 6.833333e+01	 8.833334e+01	 1.000730e+00
0	 6.833333e+01	 9.166667e+01	 1.000556e+00
0	 7.166667e+01	 7.500000e+01	 1.001310e+00
0	 7.166667e+01	 7.833333e+01	 1.001147e+00
0	 7.166667e+01	 8.166667e+01	 1.000987e+00
0	 7.166667e+01	 8.500000e+01	 1.000830e+00
0	 7.166667e+01	 8.833334e+01	 1.000675e+00
0	 7.166667e+01	 9.166667e+01	 1.000522e+00
0	 7.500000e+01	 7.500000e+01	 1.001171e+00
0	 7.500000e+01	 7.833333e+01	 1.001018e+00
0	 7.500000e+01	 8.166667e+01	 1.000874e+00
0	 7.500000e+01	 8.500000e+01	 1.000740e+00
0	 7.500000e+01	 8.833334e+01	 1.000614e+00
0	 7.500000e+01	 9.166667e+01	 1.000497e+00
0	 5.833333e+01	 9.166667e+01	 1.000715e+00
0	 5.833333e+01	 9.500000e+01	 1.000587e+00
0	 5.833333e+01	 9.833333e+01	 1.000463e+00
0	 5.833333e+01	 1.016667e+02	 1.000343e+00
0	 5.833333e+01	 1.050000e+02	 1.000227e+00
0	 5.833333e+01	 1.083333e+02	 1.000115e+00
0	 6.166666e+01	 9.166667e+01	 1.000652e+00
0	 6.166666e+01	 9.500000e+01	 1.000552e+00
0	 6.166666e+01	 9.833333e+01	 1.000453e+00
0	 6.166666e+01	 1.016667e+02	 1.000354e+00
0	 6.166666e+01	 1.050000e+02	 1.000256e+00
0	 6.166666e+01	 1.083333e+02	 1.000159e+00
0	 6.500000e+01	 9.166667e+01	 1.000600e+00
0	 6.500000e+01	 9.500000e+01	 1.000521e+00
0	 6.500000e+01	 9.833333e+01	 1.000440e+00
0	 6.500000e+01	 1.016667e+02	 1.000357e+00
0	 6.500000e+01	 1.050000e+02	 1.000271e+00
0	 6.500000e+01	 1.083333e+02	 1.000183e+00
0	 6.833333e+01	 9.166667e+01	 1.000556e+00
0	 6.833333e+01	 9.500000e+01	 1.000494e+00
0	 6.833333e+01	 9.833333e+01	 1.000425e+00
0	 6.833333e+01	 1.016667e+02	 1.000352e+00
0	 6.833333e+01	 1.050000e+02	 1.000273e+00
0	 6.833333e+01	 1.083333e+02	 1.000188e+00
0	 7.166667e+01	 9.166667e+01	 1.000522e+00
0	 7.166667e+01	 9.500000e+01	 1.000470e+00
0	 7.166667e+01	 9.833333e+01	 1.000409e+00
0	 7.166667e+01	 1.016667e+02	 1.000339e+00
0	 7.166667e+01	 1.050000e+02	 1.000260e+00
0	 7.166667e+01	 1.083333e+02	 1.000173e+00
0	 7.500000e+01	 9.166667e+01	 1.000497e+00
0	 7.500000e+01	 9.500000e+01	 1.000449e+00
0	 7.500000e+01	 9.833333e+01	 1.000390e+00
0	 7.500000e+01	 1.016667e+02	 1.000318e+00
0	 7.500000e+01	 1.050000e+02	 1.000235e+00
0	 7.500000e+01	 1.083333e+02	 1.000139e+00
0	 5.833333e+01	 1.083333e+02	 1.000115e+00
0	 5.833333e+01	 1.116667e+02	 1.000122e+00
0	 5.833333e+01	 1.150000e+02	 1.000104e+00
0	 5.833333e+01	 1.183333e+02	 1.000060e+00
0	 5.833333e+01	 1.216667e+02	 9.999902e-01
0	 5.833333e+01	 1.250000e+02	 9.998950e-01
0	 6.166666e+01	 1.083333e+02	 1.000159e+00
0	 6.166666e+01	 1.116667e+02	 1.000153e+00
0	 6.166666e+01	 1.150000e+02	 1.000124e+00
0	 6.166666e+01	 1.183333e+02	 1.000073e+00
0	 6.166666e+01	 1.216667e+02	 9.999995e-01
0	 6.166666e+01	 1.250000e+02	 9.999034e-01
0	 6.500000e+01	 1.083333e+02	 1.000183e+00
0	 6.500000e+01	 1.116667e+02	 1.000167e+00
0	 6.500000e+01	 1.150000e+02	 1.000132e+00
0	 6.500000e+01	 1.183333e+02	 1.000077e+00
0	 6.500000e+01	 1.216667e+02	 1.000003e+00
0	 6.500000e+01	 1.250000e+02	 9.999101e-01
0	 6.833333e+01	 1.083333e+02	 1.000188e+00
0	 6.833333e+01	 1.116667e+02	 1.000166e+00
0	 6.833333e+01	 1.150000e+02	 1.000128e+00
0	 6.833333e+01	 1.183333e+02	 1.000073e+00
0	 6.833333e+01	 1.216667e+02	 1.000002e+00
0	 6.833333e+01	 1.250000e+02	 9.999150e-01
0	 7.166667e+01	 1.083333e+02	 1.000173e+00
0	 7.166667e+01	 1.116667e+02	 1.000149e+00
0	 7.166667e+01	 1.150000e+02	 1.000111e+00
0	 7.166667e+01	 1.183333e+02	 1.000060e+00
0	 7.166667e+01	 1.216667e+02	 9.999955e-01
0	 7.166667e+01	 1.250000e+02	 9.999181e-01
0	 7.500000e+01	 1.083333e+02	 1.000139e+00
0	 7.500000e+01	 1.116667e+02	 1.000115e+00
0	 7.500000e+01	 1.150000e+02	 1.000082e+00
0	 7.500000e+01	 1.183333e+02	 1.000038e+00
0	 7.500000e+01	 1.216667e+02	 9.999836e-01
0	 7.500000e+01	 1.250000e+02	 9.999195e-01
0	 7.500000e+01	-1.250000e+02	 9.999427e-01
0	 7.500000e+01	-1.216667e+02	 9.999862e-01
0	 7.500000e+01	-1.183333e+02	 1.000024e+00
0	 7.500000e+01	-1.150000e+02	 1.000058e+00
0	 7.500000e+01	-1.116667e+02	 1.000086e+00
0	 7.500000e+01	-1.083333e+02	 1.000109e+00
0	 7.833333e+01	-1.250000e+02	 9.999676e-01
0	 7.833333e+01	-1.216667e+02	 1.000008e+00
0	 7.833333e+01	-1.183333e+02	 1.000042e+00
0	 7.833333e+01	-1.150000e+02	 1.000068e+00
0	 7.833333e+01	-1.116667e+02	 1.000087e+00
0	 7.833333e+01	-1.083333e+02	 1.000099e+00
0	 8.166667e+01	-1.250000e+02	 9.999787e-01
0	 8.166667e+01	-1.216667e+02	 1.000020e+00
0	 8.166667e+01	-1.183333e+02	 1.000052e+00
0	 8.166667e+01	-1.150000e+02	 1.000075e+00
0	 8.166667e+01	-1.116667e+02	 1.000088e+00
0	 8.166667e+01	-1.083333e+02	 1.000092e+00
0	 8.500000e+01	-1.250000e+02	 9.999761e-01
0	 8.500000e+01	-1.216667e+02	 1.000022e+00
0	 8.500000e+01	-1.183333e+02	 1.000056e+00
0	 8.500000e+01	-1.150000e+02	 1.000078e+00
0	 8.500000e+01	-1.116667e+02	 1.000089e+00
0	 8.500000e+01	-1.083333e+02	 1.000088e+00
0	 8.833334e+01	-1.250000e+02	 9.999597e-01
0	 8.833334e+01	-1.216667e+02	 1.000013e+00
0	 8.833334e+01	-1.183333e+02	 1.000052e+00
0	 8.833334e+01	-1.150000e+02	 1.000077e+00
0	 8.833334e+01	-1.116667e+02	 1.000089e+00
0	 8.833334e+01	-1.083333e+02	 1.000087e+00
0	 9.166667e+01	-1.250000e+02	 9.999296e-01
0	 9.166667e+01	-1.216667e+02	 9.999934e-01
0	 9.166667e+01	-1.183333e+02	 1.000041e+00
0	 9.166667e+01	-1.150000e+02	 1.000073e+00
0	 9.166667e+01	-1.116667e+02	 1.000089e+00
0	 9.166667e+01	-1.083333e+02	 1.000090e+00
0	 7.500000e+01	-1.083333e+02	 1.000109e+00
0	 7.500000e+01	-1.050000e+02	 1.000181e+00
0	 7.500000e+01	-1.016667e+02	 1.000242e+00
0	 7.500000e+01	-9.833333e+01	 1.000290e+00
0	 7.500000e+01	-9.500000e+01	 1.000327e+00
0	 7.500000e+01	-9.166667e+01	 1.000351e+00
0	 7.833333e+01	-1.083333e+02	 1.000099e+00
0	 7.833333e+01	-1.050000e+02	 1.000182e+00
0	 7.833333e+01	-1.016667e+02	 1.000256e+00
0	 7.833333e+01	-9.833333e+01	 1.000320e+00
0	 7.833333e+01	-9.500000e+01	 1.000375e+00
0	 7.833333e+01	-9.166667e+01	 1.000419e+00
0	 8.166667e+01	-1.083333e+02	 1.000092e+00
0	 8.166667e+01	-1.050000e+02	 1.000181e+00
0	 8.166667e+01	-1.016667e+02	 1.000263e+00
0	 8.166667e+01	-9.833333e+01	 1.000338e+00
0	 8.166667e+01	-9.500000e+01	 1.000404e+00
0	 8.166667e+01	-9.166667e+01	 1.000463e+00
0	 8.500000e+01	-1.083333e+02	 1.000088e+00
0	 8.500000e+01	-1.050000e+02	 1.000178e+00
0	 8.500000e+01	-1.016667e+02	 1.000263e+00
0	 8.500000e+01	-9.833333e+01	 1.000343e+00
0	 8.500000e+01	-9.500000e+01	 1.000417e+00
0	 8.500000e+01	-9.166667e+01	 1.000485e+00
0	 8.833334e+01	-1.083333e+02	 1.000087e+00
0	 8.833334e+01	-1.050000e+02	 1.000173e+00
0	 8.833334e+01	-1.016667e+02	 1.000256e+00
0	 8.833334e+01	-9.833333e+01	 1.000335e+00
0	 8.833334e+01	-9.500000e+01	 1.000411e+00
0	 8.833334e+01	-9.166667e+01	 1.000483e+00
0	 9.166667e+01	-1.083333e+02	 1.000090e+00
0	 9.166667e+01	-1.050000e+02	 1.000166e+00
0	 9.166667e+01	-1.016667e+02	 1.000241e+00
0	 9.166667e+01	-9.833333e+01	 1.000314e+00
0	 9.166667e+01	-9.500000e+01	 1.000387e+00
0	 9.166667e+01	-9.166667e+01	 1.000458e+00
0	 7.500000e+01	-9.166667e+01	 1.000351e+00
0	 7.500000e+01	-8.833334e+01	 1.000462e+00
0	 7.500000e+01	-8.500000e+01	 1.000579e+00
0	 7.500000e+01	-8.166667e+01	 1.000702e+00
0	 7.500000e+01	-7.833333e+01	 1.000832e+00
0	 7.500000e+01	-7.500000e+01	 1.000967e+00
0	 7.833333e+01	-9.166667e+01	 1.000419e+00
0	 7.833333e+01	-8.833334e+01	 1.000508e+00
0	 7.833333e+01	-8.500000e+01	 1.000602e+00
0	 7.833333e+01	-8.166667e+01	 1.000699e+00
0	 7.833333e+01	-7.833333e+01	 1.000801e+00
0	 7.833333e+01	-7.500000e+01	 1.000907e+00
0	 8.166667e+01	-9.166667e+01	 1.000463e+00
0	 8.166667e+01	-8.833334e+01	 1.000539e+00
0	 8.166667e+01	-8.500000e+01	 1.000616e+00
0	 8.166667e+01	-8.166667e+01	 1.000695e+00
0	 8.166667e+01	-7.833333e+01	 1.000776e+00
0	 8.166667e+01	-7.500000e+01	 1.000858e+00
0	 8.500000e+01	-9.166667e+01	 1.000485e+00
0	 8.500000e+01	-8.833334e+01	 1.000553e+00
0	 8.500000e+01	-8.500000e+01	 1.000621e+00
0	 8.500000e+01	-8.166667e+01	 1.000688e+00
0	 8.500000e+01	-7.833333e+01	 1.000755e+00
0	 8.500000e+01	-7.500000e+01	 1.000822e+00
0	 8.833334e+01	-9.166667e+01	 1.000483e+00
0	 8.833334e+01	-8.833334e+01	 1.000551e+00
0	 8.833334e+01	-8.500000e+01	 1.000616e+00
0	 8.833334e+01	-8.166667e+01	 1.000679e+00
0	 8.833334e+01	-7.833333e+01	 1.000740e+00
0	 8.833334e+01	-7.500000e+01	 1.000798e+00
0	 9.166667e+01	-9.166667e+01	 1.000458e+00
0	 9.166667e+01	-8.833334e+01	 1.000533e+00
0	 9.166667e+01	-8.500000e+01	 1.000603e+00
0	 9.166667e+01	-8.166667e+01	 1.000669e+00
0	 9.166667e+01	-7.833333e+01	 1.000730e+00
0	 9.166667e+01	-7.500000e+01	 1.000786e+00
0	 7.500000e+01	-7.500000e+01	 1.000967e+00
0	 7.500000e+01	-7.166667e+01	 1.001083e+00
0	 7.500000e+01	-6.833333e+01	 1.001189e+00
0	 7.500000e+01	-6.500000e+01	 1.001285e+00
0	 7.500000e+01	-6.166666e+01	 1.001370e+00
0	 7.500000e+01	-5.833333e+01	 1.001445e+00
0	 7.833333e+01	-7.500000e+01	 1.000907e+00
0	 7.833333e+01	-7.166667e+01	 1.001036e+00
0	 7.833333e+01	-6.833333e+01	 1.001158e+00
0	 7.833333e+01	-6.500000e+01	 1.001274e+00
0	 7.833333e+01	-6.166666e+01	 1.001383e+00
0	 7.833333e+01	-5.833333e+01	 1.001486e+00
0	 8.166667e+01	-7.500000e+01	 1.000858e+00
0	 8.166667e+01	-7.166667e+01	 1.000990e+00
0	 8.166667e+01	-6.833333e+01	 1.001119e+00
0	 8.166667e+01	-6.500000e+01	 1.001245e+00
0	 8.166667e+01	-6.166666e+01	 1.001369e+00
0	 8.166667e+01	-5.833333e+01	 1.001489e+00
0	 8.500000e+01	-7.500000e+01	 1.000822e+00
0	 8.500000e+01	-7.166667e+01	 1.000947e+00
0	 8.500000e+01	-6.833333e+01	 1.001073e+00
0	 8.500000e+01	-6.500000e+01	 1.001199e+00
0	 8.500000e+01	-6.166666e+01	 1.001326e+00
0	 8.500000e+01	-5.833333e+01	 1.001454e+00
0	 8.833334e+01	-7.500000e+01	 1.000798e+00
0	 8.833334e+01	-7.166667e+01	 1.000906e+00
0	 8.833334e+01	-6.833333e+01	 1.001018e+00
0	 8.833334e+01	-6.500000e+01	 1.001135e+00
0	 8.833334e+01	-6.166666e+01	 1.001256e+00
0	 8.833334e+01	-5.833333e+01	 1.001381e+00
0	 9.166667e+01	-7.500000e+01	 1.000786e+00
0	 9.166667e+01	-7.166667e+01	 1.000867e+00
0	 9.166667e+01	-6.833333e+01	 1.000956e+00
0	 9.166667e+01	-6.500000e+01	 1.001053e+00
0	 9.166667e+01	-6.166666e+01	 1.001157e+00
0	 9.166667e+01	-5.833333e+01	 1.001270e+00
0	 7.500000e+01	-5.833333e+01	 1.001445e+00
0	 7.500000e+01	-5.500000e+01	 1.001580e+00
0	 7.500000e+01	-5.166667e+01	 1.001745e+00
0	 7.500000e+01	-4.833333e+01	 1.001940e+00
0	 7.500000e+01	-4.500000e+01	 1.002164e+00
0	 7.500000e+01	-4.166667e+01	 1.002419e+00
0	 7.833333e+01	-5.833333e+01	 1.001486e+00
0	 7.833333e+01	-5.500000e+01	 1.001568e+00
0	 7.833333e+01	-5.166667e+01	 1.001676e+00
0	 7.833333e+01	-4.833333e+01	 1.001808e+00
0	 7.833333e+01	-4.500000e+01	 1.001965e+00
0	 7.833333e+01	-4.166667e+01	 1.002147e+00
0	 8.166667e+01	-5.833333e+01	 1.001489e+00
0	 8.166667e+01	-5.500000e+01	 1.001534e+00
0	 8.166667e+01	-5.166667e+01	 1.001599e+00
0	 8.166667e+01	-4.833333e+01	 1.001683e+00
0	 8.166667e+01	-4.500000e+01	 1.001788e+00
0	 8.166667e+01	-4.166667e+01	 1.001913e+00
0	 8.500000e+01	-5.833333e+01	 1.001454e+00
0	 8.500000e+01	-5.500000e+01	 1.001477e+00
0	 8.500000e+01	-5.166667e+01	 1.001514e+00
0	 8.500000e+01	-4.833333e+01	 1.001567e+00
0	 8.500000e+01	-4.500000e+01	 1.001634e+00
0	 8.500000e+01	-4.166667e+01	 1.001717e+00
0	 8.833334e+01	-5.833333e+01	 1.001381e+00
0	 8.833334e+01	-5.500000e+01	 1.001397e+00
0	 8.833334e+01	-5.166667e+01	 1.001423e+00
0	 8.833334e+01	-4.833333e+01	 1.001458e+00
0	 8.833334e+01	-4.500000e+01	 1.001504e+00
0	 8.833334e+01	-4.166667e+01	 1.001559e+00
0	 9.166667e+01	-5.833333e+01	 1.001270e+00
0	 9.166667e+01	-5.500000e+01	 1.001294e+00
0	 9.166667e+01	-5.166667e+01	 1.001324e+00
0	 9.166667e+01	-4.833333e+01	 1.001357e+00
0	 9.166667e+01	-4.500000e+01	 1.001396e+00
0	 9.166667e+01	-4.166667e+01	 1.001439e+00
0	 7.500000e+01	-4.166667e+01	 1.002419e+00
0	 7.500000e+01	-3.833334e+01	 1.002404e+00
0	 7.500000e+01	-3.500000e+01	 1.002402e+00
0	 7.500000e+01	-3.166667e+01	 1.002413e+00
0	 7.500000e+01	-2.833333e+01	 1.002436e+00
0	 7.500000e+01	-2.500000e+01	 1.002472e+00
0	 7.833333e+01	-4.166667e+01	 1.002147e+00
0	 7.833333e+01	-3.833334e+01	 1.002142e+00
0	 7.833333e+01	-3.500000e+01	 1.002150e+00
0	 7.833333e+01	-3.166667e+01	 1.002171e+00
0	 7.833333e+01	-2.833333e+01	 1.002205e+00
0	 7.833333e+01	-2.500000e+01	 1.002253e+00
0	 8.166667e+01	-4.166667e+01	 1.001913e+00
0	 8.166667e+01	-3.833334e+01	 1.001911e+00
0	 8.166667e+01	-3.500000e+01	 1.001923e+00
0	 8.166667e+01	-3.166667e+01	 1.001948e+00
0	 8.166667e+01	-2.833333e+01	 1.001987e+00
0	 8.166667e+01	-2.500000e+01	 1.002039e+00
0	 8.500000e+01	-4.166667e+01	 1.001717e+00
0	 8.500000e+01	-3.833334e+01	 1.001712e+00
0	 8.500000e+01	-3.500000e+01	 1.001721e+00
0	 8.500000e+01	-3.166667e+01	 1.001744e+00
0	 8.500000e+01	-2.833333e+01	 1.001781e+00
0	 8.500000e+01	-2.500000e+01	 1.001832e+00
0	 8.833334e+01	-4.166667e+01	 1.001559e+00
0	 8.833334e+01	-3.833334e+01	 1.001544e+00
0	 8.833334e+01	-3.500000e+01	 1.001544e+00
0	 8.833334e+01	-3.166667e+01	 1.001558e+00
0	 8.833334e+01	-2.833333e+01	 1.001587e+00
0	 8.833334e+01	-2.500000e+01	 1.001630e+00
0	 9.166667e+01	-4.166667e+01	 1.001439e+00
0	 9.166667e+01	-3.833334e+01	 1.001408e+00
0	 9.166667e+01	-3.500000e+01	 1.001392e+00
0	 9.166667e+01	-3.166667e+01	 1.001391e+00
0	 9.166667e+01	-2.833333e+01	 1.001405e+00
0	 9.166667e+01	-2.500000e+01	 1.001433e+00
0	 7.500000e+01	-2.500000e+01	 1.002472e+00
0	 7.500000e+01	-2.166667e+01	 1.002414e+00
0	 7.500000e+01	-1.833333e+01	 1.002363e+00
0	 7.500000e+01	-1.500000e+01	 1.002318e+00
0	 7.500000e+01	-1.166666e+01	 1.002279e+00
0	 7.500000e+01	-8.333327e+00	 1.002247e+00
0	 7.833333e+01	-2.500000e+01	 1.002253e+00
0	 7.833333e+01	-2.166667e+01	 1.002166e+00
0	 7.833333e+01	-1.833333e+01	 1.002086e+00
0	 7.833333e+01	-1.500000e+01	 1.002011e+00
0	 7.833333e+01	-1.166666e+01	 1.001941e+00
0	 7.833333e+01	-8.333327e+00	 1.001878e+00
0	 8.166667e+01	-2.500000e+01	 1.002039e+00
0	 8.166667e+01	-2.166667e+01	 1.001935e+00
0	 8.166667e+01	-1.833333e+01	 1.001836e+00
0	 8.166667e+01	-1.500000e+01	 1.001742e+00
0	 8.166667e+01	-1.166666e+01	 1.001653e+00
0	 8.166667e+01	-8.333327e+00	 1.001570e+00
0	 8.500000e+01	-2.500000e+01	 1.001832e+00
0	 8.500000e+01	-2.166667e+01	 1.001721e+00
0	 8.500000e+01	-1.833333e+01	 1.001615e+00
0	 8.500000e+01	-1.500000e+01	 1.001513e+00
0	 8.500000e+01	-1.166666e+01	 1.001415e+00
0	 8.500000e+01	-8.333327e+00	 1.001322e+00
0	 8.833334e+01	-2.500000e+01	 1.001630e+00
0	 8.833334e+01	-2.166667e+01	 1.001523e+00
0	 8.833334e+01	-1.833333e+01	 1.001421e+00
0	 8.833334e+01	-1.500000e+01	 1.001322e+00
0	 8.833334e+01	-1.166666e+01	 1.001227e+00
0	 8.833334e+01	-8.333327e+00	 1.001136e+00
0	 9.166667e+01	-2.500000e+01	 1.001433e+00
0	 9.166667e+01	-2.166667e+01	 1.001342e+00
0	 9.166667e+01	-1.833333e+01	 1.001255e+00
0	 9.166667e+01	-1.500000e+01	 1.001170e+00
0	 9.166667e+01	-1.166666e+01	 1.001089e+00
0	 9.166667e+01	-8.333327e+00	 1.001011e+00
0	 7.500000e+01	-8.333327e+00	 1.002247e+00
0	 7.500000e+01	-4.999996e+00	 1.002093e+00
0	 7.500000e+01	-1.666665e+00	 1.001944e+00
0	 7.500000e+01	 1.666665e+00	 1.001798e+00
0	 7.500000e+01	 4.999996e+00	 1.001656e+00
0	 7.500000e+01	 8.333327e+00	 1.001519e+00
0	 7.833333e+01	-8.333327e+00	 1.001878e+00
0	 7.833333e+01	-4.999996e+00	 1.001788e+00
0	 7.833333e+01	-1.666665e+00	 1.001697e+00
0	 7.833333e+01	 1.666665e+00	 1.001606e+00
0	 7.833333e+01	 4.999996e+00	 1.001514e+00
0	 7.833333e+01	 8.333327e+00	 1.001420e+00
0	 8.166667e+01	-8.333327e+00	 1.001570e+00
0	 8.166667e+01	-4.999996e+00	 1.001526e+00
0	 8.166667e+01	-1.666665e+00	 1.001477e+00
0	 8.166667e+01	 1.666665e+00	 1.001422e+00
0	 8.166667e+01	 4.999996e+00	 1.001361e+00
0	 8.166667e+01	 8.333327e+00	 1.001295e+00
0	 8.500000e+01	-8.333327e+00	 1.001322e+00
0	 8.500000e+01	-4.999996e+00	 1.001308e+00
0	 8.500000e+01	-1.666665e+00	 1.001282e+00
0	 8.500000e+01	 1.666665e+00	 1.001246e+00
0	 8.500000e+01	 4.999996e+00	 1.001199e+00
0	 8.500000e+01	 8.333327e+00	 1.001142e+00
0	 8.833334e+01	-8.333327e+00	 1.001136e+00
0	 8.833334e+01	-4.999996e+00	 1.001133e+00
0	 8.833334e+01	-1.666665e+00	 1.001114e+00
0	 8.833334e+01	 1.666665e+00	 1.001079e+00
0	 8.833334e+01	 4.999996e+00	 1.001028e+00
0	 8.833334e+01	 8.333327e+00	 1.000962e+00
0	 9.166667e+01	-8.333327e+00	 1.001011e+00
0	 9.166667e+01	-4.999996e+00	 1.001001e+00
0	 9.166667e+01	-1.666665e+00	 1.000970e+00
0	 9.166667e+01	 1.666665e+00	 1.000919e+00
0	 9.166667e+01	 4.999996e+00	 1.000847e+00
0	 9.166667e+01	 8.333327e+00	 1.000754e+00
0	 7.500000e+01	 8.333327e+00	 1.001519e+00
0	 7.500000e+01	 1.166666e+01	 1.001706e+00
0	 7.500000e+01	 1.500000e+01	 1.001833e+00
0	 7.500000e+01	 1.833333e+01	 1.001900e+00
0	 7.500000e+01	 2.166667e+01	 1.001908e+00
0	 7.500000e+01	 2.500000e+01	 1.001855e+00
0	 7.833333e+01	 8.333327e+00	 1.001420e+00
0	 7.833333e+01	 1.166666e+01	 1.001548e+00
0	 7.833333e+01	 1.500000e+01	 1.001628e+00
0	 7.833333e+01	 1.833333e+01	 1.001660e+00
0	 7.833333e+01	 2.166667e+01	 1.001645e+00
0	 7.833333e+01	 2.500000e+01	 1.001582e+00
0	 8.166667e+01	 8.333327e+00	 1.001295e+00
0	 8.166667e+01	 1.166666e+01	 1.001372e+00
0	 8.166667e+01	 1.500000e+01	 1.001413e+00
0	 8.166667e+01	 1.833333e+01	 1.001420e+00
0	 8.166667e+01	 2.166667e+01	 1.001390e+00
0	 8.166667e+01	 2.500000e+01	 1.001325e+00
0	 8.500000e+01	 8.333327e+00	 1.001142e+00
0	 8.500000e+01	 1.166666e+01	 1.001177e+00
0	 8.500000e+01	 1.500000e+01	 1.001189e+00
0	 8.500000e+01	 1.833333e+01	 1.001178e+00
0	 8.500000e+01	 2.166667e+01	 1.001143e+00
0	 8.500000e+01	 2.500000e+01	 1.001085e+00
0	 8.833334e+01	 8.333327e+00	 1.000962e+00
0	 8.833334e+01	 1.166666e+01	 1.000964e+00
0	 8.833334e+01	 1.500000e+01	 1.000955e+00
0	 8.833334e+01	 1.833333e+01	 1.000935e+00
0	 8.833334e+01	 2.166667e+01	 1.000903e+00
0	 8.833334e+01	 2.500000e+01	 1.000860e+00
0	 9.166667e+01	 8.333327e+00	 1.000754e+00
0	 9.166667e+01	 1.166666e+01	 1.000733e+00
0	 9.166667e+01	 1.500000e+01	 1.000711e+00
0	 9.166667e+01	 1.833333e+01	 1.000691e+00
0	 9.166667e+01	 2.166667e+01	 1.000672e+00
0	 9.166667e+01	 2.500000e+01	 1.000653e+00
0	 7.500000e+01	 2.500000e+01	 1.001855e+00
0	 7.500000e+01	 2.833333e+01	 1.001854e+00
0	 7.500000e+01	 3.166667e+01	 1.001867e+00
0	 7.500000e+01	 3.500000e+01	 1.001894e+00
0	 7.500000e+01	 3.833334e+01	 1.001936e+00
0	 7.500000e+01	 4.166667e+01	 1.001992e+00
0	 7.833333e+01	 2.500000e+01	 1.001582e+00
0	 7.833333e+01	 2.833333e+01	 1.001588e+00
0	 7.833333e+01	 3.166667e+01	 1.001604e+00
0	 7.833333e+01	 3.500000e+01	 1.001631e+00
0	 7.833333e+01	 3.833334e+01	 1.001668e+00
0	 7.833333e+01	 4.166667e+01	 1.001715e+00
0	 8.166667e+01	 2.500000e+01	 1.001325e+00
0	 8.166667e+01	 2.833333e+01	 1.001338e+00
0	 8.166667e+01	 3.166667e+01	 1.001359e+00
0	 8.166667e+01	 3.500000e+01	 1.001385e+00
0	 8.166667e+01	 3.833334e+01	 1.001418e+00
0	 8.166667e+01	 4.166667e+01	 1.001458e+00
0	 8.500000e+01	 2.500000e+01	 1.001085e+00
0	 8.500000e+01	 2.833333e+01	 1.001106e+00
0	 8.500000e+01	 3.166667e+01	 1.001130e+00
0	 8.500000e+01	 3.500000e+01	 1.001157e+00
0	 8.500000e+01	 3.833334e+01	 1.001187e+00
0	 8.500000e+01	 4.166667e+01	 1.001219e+00
0	 8.833334e+01	 2.500000e+01	 1.000860e+00
0	 8.833334e+01	 2.833333e+01	 1.000891e+00
0	 8.833334e+01	 3.166667e+01	 1.000919e+00
0	 8.833334e+01	 3.500000e+01	 1.000947e+00
0	 8.833334e+01	 3.833334e+01	 1.000974e+00
0	 8.833334e+01	 4.166667e+01	 1.000999e+00
0	 9.166667e+01	 2.500000e+01	 1.000653e+00
0	 9.166667e+01	 2.833333e+01	 1.000692e+00
0	 9.166667e+01	 3.166667e+01	 1.000726e+00
0	 9.166667e+01	 3.500000e+01	 1.000755e+00
0	 9.166667e+01	 3.833334e+01	 1.000779e+00
0	 9.166667e+01	 4.166667e+01	 1.000797e+00
0	 7.500000e+01	 4.166667e+01	 1.001992e+00
0	 7.500000e+01	 4.500000e+01	 1.001851e+00
0	 7.500000e+01	 4.833333e+01	 1.001732e+00
0	 7.500000e+01	 5.166667e+01	 1.001634e+00
0	 7.500000e+01	 5.500000e+01	 1.001559e+00
0	 7.500000e+01	 5.833333e+01	 1.001504e+00
0	 7.833333e+01	 4.166667e+01	 1.001715e+00
0	 7.833333e+01	 4.500000e+01	 1.001617e+00
0	 7.833333e+01	 4.833333e+01	 1.001536e+00
0	 7.833333e+01	 5.166667e+01	 1.001474e+00
0	 7.833333e+01	 5.500000e+01	 1.001431e+00
0	 7.833333e+01	 5.833333e+01	 1.001405e+00
0	 8.166667e+01	 4.166667e+01	 1.001458e+00
0	 8.166667e+01	 4.500000e+01	 1.001393e+00
0	 8.166667e+01	 4.833333e+01	 1.001343e+00
0	 8.166667e+01	 5.166667e+01	 1.001308e+00
0	 8.166667e+01	 5.500000e+01	 1.001289e+00
0	 8.166667e+01	 5.833333e+01	 1.001284e+00
0	 8.500000e+01	 4.166667e+01	 1.001219e+00
0	 8.500000e+01	 4.500000e+01	 1.001180e+00
0	 8.500000e+01	 4.833333e+01	 1.001152e+00
0	 8.500000e+01	 5.166667e+01	 1.001137e+00
0	 8.500000e+01	 5.500000e+01	 1.001133e+00
0	 8.500000e+01	 5.833333e+01	 1.001140e+00
0	 8.833334e+01	 4.166667e+01	 1.000999e+00
0	 8.833334e+01	 4.500000e+01	 1.000977e+00
0	 8.833334e+01	 4.833333e+01	 1.000964e+00
0	 8.833334e+01	 5.166667e+01	 1.000959e+00
0	 8.833334e+01	 5.500000e+01	 1.000963e+00
0	 8.833334e+01	 5.833333e+01	 1.000975e+00
0	 9.166667e+01	 4.166667e+01	 1.000797e+00
0	 9.166667e+01	 4.500000e+01	 1.000785e+00
0	 9.166667e+01	 4.833333e+01	 1.000778e+00
0	 9.166667e+01	 5.166667e+01	 1.000776e+00
0	 9.166667e+01	 5.500000e+01	 1.000779e+00
0	 9.166667e+01	 5.833333e+01	 1.000787e+00
0	 7.500000e+01	 5.833333e+01	 1.001504e+00
0	 7.500000e+01	 6.166666e+01	 1.001439e+00
0	 7.500000e+01	 6.500000e+01	 1.001373e+00
0	 7.500000e+01	 6.833333e+01	 1.001307e+00
0	 7.500000e+01	 7.166667e+01	 1.001239e+00
0	 7.500000e+01	 7.500000e+01	 1.001171e+00
0	 7.833333e+01	 5.833333e+01	 1.001405e+00
0	 7.833333e+01	 6.166666e+01	 1.001323e+00
0	 7.833333e+01	 6.500000e+01	 1.001241e+00
0	 7.833333e+01	 6.833333e+01	 1.001161e+00
0	 7.833333e+01	 7.166667e+01	 1.001081e+00
0	 7.833333e+01	 7.500000e+01	 1.001002e+00
0	 8.166667e+01	 5.833333e+01	 1.001284e+00
0	 8.166667e+01	 6.166666e+01	 1.001192e+00
0	 8.166667e+01	 6.500000e+01	 1.001104e+00
0	 8.166667e+01	 6.833333e+01	 1.001017e+00
0	 8.166667e+01	 7.166667e+01	 1.000933e+00
0	 8.166667e+01	 7.500000e+01	 1.000852e+00
0	 8.500000e+01	 5.833333e+01	 1.001140e+00
0	 8.500000e+01	 6.166666e+01	 1.001048e+00
0	 8.500000e+01	 6.500000e+01	 1.000960e+00
0	 8.500000e+01	 6.833333e+01	 1.000876e+00
0	 8.500000e+01	 7.166667e+01	 1.000796e+00
0	 8.500000e+01	 7.500000e+01	 1.000720e+00
0	 8.833334e+01	 5.833333e+01	 1.000975e+00
0	 8.833334e+01	 6.166666e+01	 1.000890e+00
0	 8.833334e+01	 6.500000e+01	 1.000811e+00
0	 8.833334e+01	 6.833333e+01	 1.000738e+00
0	 8.833334e+01	 7.166667e+01	 1.000670e+00
0	 8.833334e+01	 7.500000e+01	 1.000608e+00
0	 9.166667e+01	 5.833333e+01	 1.000787e+00
0	 9.166667e+01	 6.166666e+01	 1.000718e+00
0	 9.166667e+01	 6.500000e+01	 1.000656e+00
0	 9.166667e+01	 6.833333e+01	 1.000602e+00
0	 9.166667e+01	 7.166667e+01	 1.000554e+00
0	 9.166667e+01	 7.500000e+01	 1.000514e+00
0	 7.500000e+01	 7.500000e+01	 1.001171e+00
0	 7.500000e+01	 7.833333e+01	 1.001018e+00
0	 7.500000e+01	 8.166667e+01	 1.000874e+00
0	 7.500000e+01	 8.500000e+01	 1.000740e+00
0	 7.500000e+01	 8.833334e+01	 1.000614e+00
0	 7.500000e+01	 9.166667e+01	 1.000497e+00
0	 7.833333e+01	 7.500000e+01	 1.001002e+00
0	 7.833333e+01	 7.833333e+01	 1.000887e+00
0	 7.833333e+01	 8.166667e+01	 1.000780e+00
0	 7.833333e+01	 8.500000e+01	 1.000678e+00
0	 7.833333e+01	 8.833334e+01	 1.000584e+00
0	 7.833333e+01	 9.166667e+01	 1.000497e+00
0	 8.166667e+01	 7.500000e+01	 1.000852e+00
0	 8.166667e+01	 7.833333e+01	 1.000768e+00
0	 8.166667e+01	 8.166667e+01	 1.000688e+00
0	 8.166667e+01	 8.500000e+01	 1.000614e+00
0	 8.166667e+01	 8.833334e+01	 1.000543e+00
0	 8.166667e+01	 9.166667e+01	 1.000477e+00
0	 8.500000e+01	 7.500000e+01	 1.000720e+00
0	 8.500000e+01	 7.833333e+01	 1.000660e+00
0	 8.500000e+01	 8.166667e+01	 1.000601e+00
0	 8.500000e+01	 8.500000e+01	 1.000545e+00
0	 8.500000e+01	 8.833334e+01	 1.000491e+00
0	 8.500000e+01	 9.166667e+01	 1.000439e+00
0	 8.833334e+01	 7.500000e+01	 1.000608e+00
0	 8.833334e+01	 7.833333e+01	 1.000563e+00
0	 8.833334e+01	 8.166667e+01	 1.000518e+00
0	 8.833334e+01	 8.500000e+01	 1.000473e+00
0	 8.833334e+01	 8.833334e+01	 1.000428e+00
0	 8.833334e+01	 9.166667e+01	 1.000383e+00
0	 9.166667e+01	 7.500000e+01	 1.000514e+00
0	 9.166667e+01	 7.833333e+01	 1.000477e+00
0	 9.166667e+01	 8.166667e+01	 1.000439e+00
0	 9.166667e+01	 8.500000e+01	 1.000397e+00
0	 9.166667e+01	 8.833334e+01	 1.000354e+00
0	 9.166667e+01	 9.166667e+01	 1.000308e+00
0	 7.500000e+01	 9.166667e+01	 1.000497e+00
0	 7.500000e+01	 9.500000e+01	 1.000449e+00
0	 7.500000e+01	 9.833333e+01	 1.000390e+00
0	 7.500000e+01	 1.016667e+02	 1.000318e+00
0	 7.500000e+01	 1.050000e+02	 1.000235e+00
0	 7.500000e+01	 1.083333e+02	 1.000139e+00
0	 7.833333e+01	 9.166667e+01	 1.000497e+00
0	 7.833333e+01	 9.500000e+01	 1.000440e+00
0	 7.833333e+01	 9.833333e+01	 1.000373e+00
0	 7.833333e+01	 1.016667e+02	 1.000297e+00
0	 7.833333e+01	 1.050000e+02	 1.000212e+00
0	 7.833333e+01	 1.083333e+02	 1.000116e+00
0	 8.166667e+01	 9.166667e+01	 1.000477e+00
0	 8.166667e+01	 9.500000e+01	 1.000416e+00
0	 8.166667e+01	 9.833333e+01	 1.000347e+00
0	 8.166667e+01	 1.016667e+02	 1.000271e+00
0	 8.166667e+01	 1.050000e+02	 1.000187e+00
0	 8.166667e+01	 1.083333e+02	 1.000096e+00
0	 8.500000e+01	 9.166667e+01	 1.000439e+00
0	 8.500000e+01	 9.500000e+01	 1.000377e+00
0	 8.500000e+01	 9.833333e+01	 1.000310e+00
0	 8.500000e+01	 1.016667e+02	 1.000238e+00
0	 8.500000e+01	 1.050000e+02	 1.000160e+00
0	 8.500000e+01	 1.083333e+02	 1.000078e+00
0	 8.833334e+01	 9.166667e+01	 1.000383e+00
0	 8.833334e+01	 9.500000e+01	 1.000325e+00
0	 8.833334e+01	 9.833333e+01	 1.000263e+00
0	 8.833334e+01	 1.016667e+02	 1.000199e+00
0	 8.833334e+01	 1.050000e+02	 1.000132e+00
0	 8.833334e+01	 1.083333e+02	 1.000062e+00
0	 9.166667e+01	 9.166667e+01	 1.000308e+00
0	 9.166667e+01	 9.500000e+01	 1.000257e+00
0	 9.166667e+01	 9.833333e+01	 1.000206e+00
0	 9.166667e+01	 1.016667e+02	 1.000154e+00
0	 9.166667e+01	 1.050000e+02	 1.000102e+00
0	 9.166667e+01	 1.083333e+02	 1.000048e+00
0	 7.500000e+01	 1.083333e+02	 1.000139e+00
0	 7.500000e+01	 1.116667e+02	 1.000115e+00
0	 7.500000e+01	 1.150000e+02	 1.000082e+00
0	 7.500000e+01	 1.183333e+02	 1.000038e+00
0	 7.500000e+01	 1.216667e+02	 9.999836e-01
0	 7.500000e+01	 1.250000e+02	 9.999195e-01
0	 7.833333e+01	 1.083333e+02	 1.000116e+00
0	 7.833333e+01	 1.116667e+02	 1.000104e+00
0	 7.833333e+01	 1.150000e+02	 1.000081e+00
0	 7.833333e+01	 1.183333e+02	 1.000048e+00
0	 7.833333e+01	 1.216667e+02	 1.000005e+00
0	 7.833333e+01	 1.250000e+02	 9.999517e-01
0	 8.166667e+01	 1.083333e+02	 1.000096e+00
0	 8.166667e+01	 1.116667e+02	 1.000092e+00
0	 8.166667e+01	 1.150000e+02	 1.000077e+00
0	 8.166667e+01	 1.183333e+02	 1.000052e+00
0	 8.166667e+01	 1.216667e+02	 1.000017e+00
0	 8.166667e+01	 1.250000e+02	 9.999716e-01
0	 8.500000e+01	 1.083333e+02	 1.000078e+00
0	 8.500000e+01	 1.116667e+02	 1.000079e+00
0	 8.500000e+01	 1.150000e+02	 1.000070e+00
0	 8.500000e+01	 1.183333e+02	 1.000050e+00
0	 8.500000e+01	 1.216667e+02	 1.000020e+00
0	 8.500000e+01	 1.250000e+02	 9.999791e-01
0	 8.833334e+01	 1.083333e+02	 1.000062e+00
0	 8.833334e+01	 1.116667e+02	 1.000066e+00
0	 8.833334e+01	 1.150000e+02	 1.000059e+00
0	 8.833334e+01	 1.183333e+02	 1.000041e+00
0	 8.833334e+01	 1.216667e+02	 1.000013e+00
0	 8.833334e+01	 1.250000e+02	 9.999744e-01
0	 9.166667e+01	 1.083333e+02	 1.000048e+00
0	 9.166667e+01	 1.116667e+02	 1.000052e+00
0	 9.166667e+01	 1.150000e+02	 1.000044e+00
0	 9.166667e+01	 1.183333e+02	 1.000026e+00
0	 9.166667e+01	 1.216667e+02	 9.999972e-01
0	 9.166667e+01	 1.250000e+02	 9.999573e-01
0	 9.166667e+01	-1.250000e+02	 9.999296e-01
0	 9.166667e+01	-1.216667e+02	 9.999934e-01
0	 9.166667e+01	-1.183333e+02	 1.000041e+00
0	 9.166667e+01	-1.150000e+02	 1.000073e+00
0	 9.166667e+01	-1.116667e+02	 1.000089e+00
0	 9.166667e+01	-1.083333e+02	 1.000090e+00
0	 9.500000e+01	-1.250000e+02	 9.999376e-01
0	 9.500000e+01	-1.216667e+02	 1.000000e+00
0	 9.500000e+01	-1.183333e+02	 1.000048e+00
0	 9.500000e+01	-1.150000e+02	 1.000082e+00
0	 9.500000e+01	-1.116667e+02	 1.000102e+00
0	 9.500000e+01	-1.083333e+02	 1.000108e+00
0	 9.833333e+01	-1.250000e+02	 9.999435e-01
0	 9.833333e+01	-1.216667e+02	 1.000003e+00
0	 9.833333e+01	-1.183333e+02	 1.000051e+00
0	 9.833333e+01	-1.150000e+02	 1.000086e+00
0	 9.833333e+01	-1.116667e+02	 1.000108e+00
0	 9.833333e+01	-1.083333e+02	 1.000118e+00
0	 1.016667e+02	-1.250000e+02	 9.999472e-01
0	 1.016667e+02	-1.216667e+02	 1.000004e+00
0	 1.016667e+02	-1.183333e+02	 1.000049e+00
0	 1.016667e+02	-1.150000e+02	 1.000084e+00
0	 1.016667e+02	-1.116667e+02	 1.000108e+00
0	 1.016667e+02	-1.083333e+02	 1.000122e+00
0	 1.050000e+02	-1.250000e+02	 9.999487e-01
0	 1.050000e+02	-1.216667e+02	 1.000001e+00
0	 1.050000e+02	-1.183333e+02	 1.000043e+00
0	 1.050000e+02	-1.150000e+02	 1.000077e+00
0	 1.050000e+02	-1.116667e+02	 1.000102e+00
0	 1.050000e+02	-1.083333e+02	 1.000118e+00
0	 1.083333e+02	-1.250000e+02	 9.999481e-01
0	 1.083333e+02	-1.216667e+02	 9.999944e-01
0	 1.083333e+02	-1.183333e+02	 1.000033e+00
0	 1.083333e+02	-1.150000e+02	 1.000065e+00
0	 1.083333e+02	-1.116667e+02	 1.000090e+00
0	 1.083333e+02	-1.083333e+02	 1.000107e+00
0	 9.166667e+01	-1.083333e+02	 1.000090e+00
0	 9.166667e+01	-1.050000e+02	 1.000166e+00
0	 9.166667e+01	-1.016667e+02	 1.000241e+00
0	 9.166667e+01	-9.833333e+01	 1.000314e+00
0	 9.166667e+01	-9.500000e+01	 1.000387e+00
0	 9.166667e+01	-9.166667e+01	 1.000458e+00
0	 9.500000e+01	-1.083333e+02	 1.000108e+00
0	 9.500000e+01	-1.050000e+02	 1.000175e+00
0	 9.500000e+01	-1.016667e+02	 1.000242e+00
0	 9.500000e+01	-9.833333e+01	 1.000306e+00
0	 9.500000e+01	-9.500000e+01	 1.000369e+00
0	 9.500000e+01	-9.166667e+01	 1.000431e+00
0	 9.833333e+01	-1.083333e+02	 1.000118e+00
0	 9.833333e+01	-1.050000e+02	 1.000181e+00
0	 9.833333e+01	-1.016667e+02	 1.000241e+00
0	 9.833333e+01	-9.833333e+01	 1.000299e+00
0	 9.833333e+01	-9.500000e+01	 1.000355e+00
0	 9.833333e+01	-9.166667e+01	 1.000409e+00
0	 1.016667e+02	-1.083333e+02	 1.000122e+00
0	 1.016667e+02	-1.050000e+02	 1.000181e+00
0	 1.016667e+02	-1.016667e+02	 1.000238e+00
0	 1.016667e+02	-9.833333e+01	 1.000292e+00
0	 1.016667e+02	-9.500000e+01	 1.000344e+00
0	 1.016667e+02	-9.166667e+01	 1.000394e+00
0	 1.050000e+02	-1.083333e+02	 1.000118e+00
0	 1.050000e+02	-1.050000e+02	 1.000177e+00
0	 1.050000e+02	-1.016667e+02	 1.000233e+00
0	 1.050000e+02	-9.833333e+01	 1.000286e+00
0	 1.050000e+02	-9.500000e+01	 1.000336e+00
0	 1.050000e+02	-9.166667e+01	 1.000384e+00
0	 1.083333e+02	-1.083333e+02	 1.000107e+00
0	 1.083333e+02	-1.050000e+02	 1.000168e+00
0	 1.083333e+02	-1.016667e+02	 1.000226e+00
0	 1.083333e+02	-9.833333e+01	 1.000280e+00
0	 1.083333e+02	-9.500000e+01	 1.000332e+00
0	 1.083333e+02	-9.166667e+01	 1.000380e+00
0	 9.166667e+01	-9.166667e+01	 1.000458e+00
0	 9.166667e+01	-8.833334e+01	 1.000533e+00
0	 9.166667e+01	-8.500000e+01	 1.000603e+00
0	 9.166667e+01	-8.166667e+01	 1.000669e+00
0	 9.166667e+01	-7.833333e+01	 1.000730e+00
0	 9.166667e+01	-7.500000e+01	 1.000786e+00
0	 9.500000e+01	-9.166667e+01	 1.000431e+00
0	 9.500000e+01	-8.833334e+01	 1.000508e+00
0	 9.500000e+01	-8.500000e+01	 1.000581e+00
0	 9.500000e+01	-8.166667e+01	 1.000652e+00
0	 9.500000e+01	-7.833333e+01	 1.000719e+00
0	 9.500000e+01	-7.500000e+01	 1.000783e+00
0	 9.833333e+01	-9.166667e+01	 1.000409e+00
0	 9.833333e+01	-8.833334e+01	 1.000486e+00
0	 9.833333e+01	-8.500000e+01	 1.000560e+00
0	 9.833333e+01	-8.166667e+01	 1.000633e+00
0	 9.833333e+01	-7.833333e+01	 1.000704e+00
0	 9.833333e+01	-7.500000e+01	 1.000773e+00
0	 1.016667e+02	-9.166667e+01	 1.000394e+00
0	 1.016667e+02	-8.833334e+01	 1.000467e+00
0	 1.016667e+02	-8.500000e+01	 1.000540e+00
0	 1.016667e+02	-8.166667e+01	 1.000613e+00
0	 1.016667e+02	-7.833333e+01	 1.000685e+00
0	 1.016667e+02	-7.500000e+01	 1.000756e+00
0	 1.050000e+02	-9.166667e+01	 1.000384e+00
0	 1.050000e+02	-8.833334e+01	 1.000452e+00
0	 1.050000e+02	-8.500000e+01	 1.000521e+00
0	 1.050000e+02	-8.166667e+01	 1.000591e+00
0	 1.050000e+02	-7.833333e+01	 1.000661e+00
0	 1.050000e+02	-7.500000e+01	 1.000732e+00
0	 1.083333e+02	-9.166667e+01	 1.000380e+00
0	 1.083333e+02	-8.833334e+01	 1.000440e+00
0	 1.083333e+02	-8.500000e+01	 1.000503e+00
0	 1.083333e+02	-8.166667e+01	 1.000567e+00
0	 1.083333e+02	-7.833333e+01	 1.000634e+00
0	 1.083333e+02	-7.500000e+01	 1.000702e+00
0	 9.166667e+01	-7.500000e+01	 1.000786e+00
0	 9.166667e+01	-7.166667e+01	 1.000867e+00
0	 9.166667e+01	-6.833333e+01	 1.000956e+00
0	 9.166667e+01	-6.500000e+01	 1.001053e+00
0	 9.166667e+01	-6.166666e+01	 1.001157e+00
0	 9.166667e+01	-5.833333e+01	 1.001270e+00
0	 9.500000e+01	-7.500000e+01	 1.000783e+00
0	 9.500000e+01	-7.166667e+01	 1.000841e+00
0	 9.500000e+01	-6.833333e+01	 1.000906e+00
0	 9.500000e+01	-6.500000e+01	 1.000978e+00
0	 9.500000e+01	-6.166666e+01	 1.001056e+00
0	 9.500000e+01	-5.833333e+01	 1.001140e+00
0	 9.833333e+01	-7.500000e+01	 1.000773e+00
0	 9.833333e+01	-7.166667e+01	 1.000815e+00
0	 9.833333e+01	-6.833333e+01	 1.000863e+00
0	 9.833333e+01	-6.500000e+01	 1.000916e+00
0	 9.833333e+01	-6.166666e+01	 1.000973e+00
0	 9.833333e+01	-5.833333e+01	 1.001036e+00
0	 1.016667e+02	-7.500000e+01	 1.000756e+00
0	 1.016667e+02	-7.166667e+01	 1.000789e+00
0	 1.016667e+02	-6.833333e+01	 1.000826e+00
0	 1.016667e+02	-6.500000e+01	 1.000867e+00
0	 1.016667e+02	-6.166666e+01	 1.000911e+00
0	 1.016667e+02	-5.833333e+01	 1.000959e+00
0	 1.050000e+02	-7.500000e+01	 1.000732e+00
0	 1.050000e+02	-7.166667e+01	 1.000763e+00
0	 1.050000e+02	-6.833333e+01	 1.000796e+00
0	 1.050000e+02	-6.500000e+01	 1.000831e+00
0	 1.050000e+02	-6.166666e+01	 1.000869e+00
0	 1.050000e+02	-5.833333e+01	 1.000909e+00
0	 1.083333e+02	-7.500000e+01	 1.000702e+00
0	 1.083333e+02	-7.166667e+01	 1.000737e+00
0	 1.083333e+02	-6.833333e+01	 1.000773e+00
0	 1.083333e+02	-6.500000e+01	 1.000809e+00
0	 1.083333e+02	-6.166666e+01	 1.000846e+00
0	 1.083333e+02	-5.833333e+01	 1.000884e+00
0	 9.166667e+01	-5.833333e+01	 1.001270e+00
0	 9.166667e+01	-5.500000e+01	 1.001294e+00
0	 9.166667e+01	-5.166667e+01	 1.001324e+00
0	 9.166667e+01	-4.833333e+01	 1.001357e+00
0	 9.166667e+01	-4.500000e+01	 1.001396e+00
0	 9.166667e+01	-4.166667e+01	 1.001439e+00
0	 9.500000e+01	-5.833333e+01	 1.001140e+00
0	 9.500000e+01	-5.500000e+01	 1.001165e+00
0	 9.500000e+01	-5.166667e+01	 1.001194e+00
0	 9.500000e+01	-4.833333e+01	 1.001229e+00
0	 9.500000e+01	-4.500000e+01	 1.001268e+00
0	 9.500000e+01	-4.166667e+01	 1.001312e+00
0	 9.833333e+01	-5.833333e+01	 1.001036e+00
0	 9.833333e+01	-5.500000e+01	 1.001058e+00
0	 9.833333e+01	-5.166667e+01	 1.001085e+00
0	 9.833333e+01	-4.833333e+01	 1.001116e+00
0	 9.833333e+01	-4.500000e+01	 1.001153e+00
0	 9.833333e+01	-4.166667e+01	 1.001194e+00
0	 1.016667e+02	-5.833333e+01	 1.000959e+00
0	 1.016667e+02	-5.500000e+01	 1.000975e+00
0	 1.016667e+02	-5.166667e+01	 1.000995e+00
0	 1.016667e+02	-4.833333e+01	 1.001020e+00
0	 1.016667e+02	-4.500000e+01	 1.001051e+00
0	 1.016667e+02	-4.166667e+01	 1.001087e+00
0	 1.050000e+02	-5.833333e+01	 1.000909e+00
0	 1.050000e+02	-5.500000e+01	 1.000914e+00
0	 1.050000e+02	-5.166667e+01	 1.000925e+00
0	 1.050000e+02	-4.833333e+01	 1.000941e+00
0	 1.050000e+02	-4.500000e+01	 1.000962e+00
0	 1.050000e+02	-4.166667e+01	 1.000989e+00
0	 1.083333e+02	-5.833333e+01	 1.000884e+00
0	 1.083333e+02	-5.500000e+01	 1.000877e+00
0	 1.083333e+02	-5.166667e+01	 1.000875e+00
0	 1.083333e+02	-4.833333e+01	 1.000878e+00
0	 1.083333e+02	-4.500000e+01	 1.000887e+00
0	 1.083333e+02	-4.166667e+01	 1.000901e+00
0	 9.166667e+01	-4.166667e+01	 1.001439e+00
0	 9.166667e+01	-3.833334e+01	 1.001408e+00
0	 9.166667e+01	-3.500000e+01	 1.001392e+00
0	 9.166667e+01	-3.166667e+01	 1.001391e+00
0	 9.166667e+01	-2.833333e+01	 1.001405e+00
0	 9.166667e+01	-2.500000e+01	 1.001433e+00
0	 9.500000e+01	-4.166667e+01	 1.001312e+00
0	 9.500000e+01	-3.833334e+01	 1.001270e+00
0	 9.500000e+01	-3.500000e+01	 1.001241e+00
0	 9.500000e+01	-3.166667e+01	 1.001225e+00
0	 9.500000e+01	-2.833333e+01	 1.001220e+00
0	 9.500000e+01	-2.500000e+01	 1.001228e+00
0	 9.833333e+01	-4.166667e+01	 1.001194e+00
0	 9.833333e+01	-3.833334e+01	 1.001144e+00
0	 9.833333e+01	-3.500000e+01	 1.001104e+00
0	 9.833333e+01	-3.166667e+01	 1.001074e+00
0	 9.833333e+01	-2.833333e+01	 1.001054e+00
0	 9.833333e+01	-2.500000e+01	 1.001044e+00
0	 1.016667e+02	-4.166667e+01	 1.001087e+00
0	 1.016667e+02	-3.833334e+01	 1.001030e+00
0	 1.016667e+02	-3.500000e+01	 1.000981e+00
0	 1.016667e+02	-3.166667e+01	 1.000939e+00
0	 1.016667e+02	-2.833333e+01	 1.000905e+00
0	 1.016667e+02	-2.500000e+01	 1.000879e+00
0	 1.050000e+02	-4.166667e+01	 1.000989e+00
0	 1.050000e+02	-3.833334e+01	 1.000928e+00
0	 1.050000e+02	-3.500000e+01	 1.000872e+00
0	 1.050000e+02	-3.166667e+01	 1.000821e+00
0	 1.050000e+02	-2.833333e+01	 1.000775e+00
0	 1.050000e+02	-2.500000e+01	 1.000734e+00
0	 1.083333e+02	-4.166667e+01	 1.000901e+00
0	 1.083333e+02	-3.833334e+01	 1.000837e+00
0	 1.083333e+02	-3.500000e+01	 1.000776e+00
0	 1.083333e+02	-3.166667e+01	 1.000718e+00
0	 1.083333e+02	-2.833333e+01	 1.000662e+00
0	 1.083333e+02	-2.500000e+01	 1.000609e+00
0	 9.166667e+01	-2.500000e+01	 1.001433e+00
0	 9.166667e+01	-2.166667e+01	 1.001342e+00
0	 9.166667e+01	-1.833333e+01	 1.001255e+00
0	 9.166667e+01	-1.500000e+01	 1.001170e+00
0	 9.166667e+01	-1.166666e+01	 1.001089e+00
0	 9.166667e+01	-8.333327e+00	 1.001011e+00
0	 9.500000e+01	-2.500000e+01	 1.001228e+00
0	 9.500000e+01	-2.166667e+01	 1.001151e+00
0	 9.500000e+01	-1.833333e+01	 1.001076e+00
0	 9.500000e+01	-1.500000e+01	 1.001004e+00
0	 9.500000e+01	-1.166666e+01	 1.000934e+00
0	 9.500000e+01	-8.333327e+00	 1.000867e+00
0	 9.833333e+01	-2.500000e+01	 1.001044e+00
0	 9.833333e+01	-2.166667e+01	 1.000974e+00
0	 9.833333e+01	-1.833333e+01	 1.000905e+00
0	 9.833333e+01	-1.500000e+01	 1.000839e+00
0	 9.833333e+01	-1.166666e+01	 1.000775e+00
0	 9.833333e+01	-8.333327e+00	 1.000712e+00
0	 1.016667e+02	-2.500000e+01	 1.000879e+00
0	 1.016667e+02	-2.166667e+01	 1.000810e+00
0	 1.016667e+02	-1.833333e+01	 1.000743e+00
0	 1.016667e+02	-1.500000e+01	 1.000676e+00
0	 1.016667e+02	-1.166666e+01	 1.000611e+00
0	 1.016667e+02	-8.333327e+00	 1.000547e+00
0	 1.050000e+02	-2.500000e+01	 1.000734e+00
0	 1.050000e+02	-2.166667e+01	 1.000661e+00
0	 1.050000e+02	-1.833333e+01	 1.000588e+00
0	 1.050000e+02	-1.500000e+01	 1.000515e+00
0	 1.050000e+02	-1.166666e+01	 1.000444e+00
0	 1.050000e+02	-8.333327e+00	 1.000373e+00
0	 1.083333e+02	-2.500000e+01	 1.000609e+00
0	 1.083333e+02	-2.166667e+01	 1.000525e+00
0	 1.083333e+02	-1.833333e+01	 1.000441e+00
0	 1.083333e+02	-1.500000e+01	 1.000356e+00
0	 1.083333e+02	-1.166666e+01	 1.000272e+00
0	 1.083333e+02	-8.333327e+00	 1.000188e+00
0	 9.166667e+01	-8.333327e+00	 1.001011e+00
0	 9.166667e+01	-4.999996e+00	 1.001001e+00
0	 9.166667e+01	-1.666665e+00	 1.000970e+00
0	 9.166667e+01	 1.666665e+00	 1.000919e+00
0	 9.166667e+01	 4.999996e+00	 1.000847e+00
0	 9.166667e+01	 8.333327e+00	 1.000754e+00
0	 9.500000e+01	-8.333327e+00	 1.000867e+00
0	 9.500000e+01	-4.999996e+00	 1.000842e+00
0	 9.500000e+01	-1.666665e+00	 1.000800e+00
0	 9.500000e+01	 1.666665e+00	 1.000741e+00
0	 9.500000e+01	 4.999996e+00	 1.000666e+00
0	 9.500000e+01	 8.333327e+00	 1.000575e+00
0	 9.833333e+01	-8.333327e+00	 1.000712e+00
0	 9.833333e+01	-4.999996e+00	 1.000674e+00
0	 9.833333e+01	-1.666665e+00	 1.000623e+00
0	 9.833333e+01	 1.666665e+00	 1.000559e+00
0	 9.833333e+01	 4.999996e+00	 1.000482e+00
0	 9.833333e+01	 8.333327e+00	 1.000394e+00
0	 1.016667e+02	-8.333327e+00	 1.000547e+00
0	 1.016667e+02	-4.999996e+00	 1.000497e+00
0	 1.016667e+02	-1.666665e+00	 1.000438e+00
0	 1.016667e+02	 1.666665e+00	 1.000371e+00
0	 1.016667e+02	 4.999996e+00	 1.000295e+00
0	 1.016667e+02	 8.333327e+00	 1.000210e+00
0	 1.050000e+02	-8.333327e+00	 1.000373e+00
0	 1.050000e+02	-4.999996e+00	 1.000312e+00
0	 1.050000e+02	-1.666665e+00	 1.000248e+00
0	 1.050000e+02	 1.666665e+00	 1.000178e+00
0	 1.050000e+02	 4.999996e+00	 1.000104e+00
0	 1.050000e+02	 8.333327e+00	 1.000025e+00
0	 1.083333e+02	-8.333327e+00	 1.000188e+00
0	 1.083333e+02	-4.999996e+00	 1.000119e+00
0	 1.083333e+02	-1.666665e+00	 1.000050e+00
0	 1.083333e+02	 1.666665e+00	 9.999800e-01
0	 1.083333e+02	 4.999996e+00	 9.999096e-01
0	 1.083333e+02	 8.333327e+00	 9.998386e-01
0	 9.166667e+01	 8.333327e+00	 1.000754e+00
0	 9.166667e+01	 1.166666e+01	 1.000733e+00
0	 9.166667e+01	 1.500000e+01	 1.000711e+00
0	 9.166667e+01	 1.833333e+01	 1.000691e+00
0	 9.166667e+01	 2.166667e+01	 1.000672e+00
0	 9.166667e+01	 2.500000e+01	 1.000653e+00
0	 9.500000e+01	 8.333327e+00	 1.000575e+00
0	 9.500000e+01	 1.166666e+01	 1.000564e+00
0	 9.500000e+01	 1.500000e+01	 1.000553e+00
0	 9.500000e+01	 1.833333e+01	 1.000540e+00
0	 9.500000e+01	 2.166667e+01	 1.000527e+00
0	 9.500000e+01	 2.500000e+01	 1.000512e+00
0	 9.833333e+01	 8.333327e+00	 1.000394e+00
0	 9.833333e+01	 1.166666e+01	 1.000391e+00
0	 9.833333e+01	 1.500000e+01	 1.000386e+00
0	 9.833333e+01	 1.833333e+01	 1.000378e+00
0	 9.833333e+01	 2.166667e+01	 1.000367e+00
0	 9.833333e+01	 2.500000e+01	 1.000353e+00
0	 1.016667e+02	 8.333327e+00	 1.000210e+00
0	 1.016667e+02	 1.166666e+01	 1.000212e+00
0	 1.016667e+02	 1.500000e+01	 1.000210e+00
0	 1.016667e+02	 1.833333e+01	 1.000203e+00
0	 1.016667e+02	 2.166667e+01	 1.000192e+00
0	 1.016667e+02	 2.500000e+01	 1.000176e+00
0	 1.050000e+02	 8.333327e+00	 1.000025e+00
0	 1.050000e+02	 1.166666e+01	 1.000029e+00
0	 1.050000e+02	 1.500000e+01	 1.000026e+00
0	 1.050000e+02	 1.833333e+01	 1.000017e+00
0	 1.050000e+02	 2.166667e+01	 1.000002e+00
0	 1.050000e+02	 2.500000e+01	 9.999807e-01
0	 1.083333e+02	 8.333327e+00	 9.998386e-01
0	 1.083333e+02	 1.166666e+01	 9.998400e-01
0	 1.083333e+02	 1.500000e+01	 9.998335e-01
0	 1.083333e+02	 1.833333e+01	 9.998191e-01
0	 1.083333e+02	 2.166667e+01	 9.997969e-01
0	 1.083333e+02	 2.500000e+01	 9.997668e-01
0	 9.166667e+01	 2.500000e+01	 1.000653e+00
0	 9.166667e+01	 2.833333e+01	 1.000692e+00
0	 9.166667e+01	 3.166667e+01	 1.000726e+00
0	 9.166667e+01	 3.500000e+01	 1.000755e+00
0	 9.166667e+01	 3.833334e+01	 1.000779e+00
0	 9.166667e+01	 4.166667e+01	 1.000797e+00
0	 9.500000e+01	 2.500000e+01	 1.000512e+00
0	 9.500000e+01	 2.833333e+01	 1.000536e+00
0	 9.500000e+01	 3.166667e+01	 1.000556e+00
0	 9.500000e+01	 3.500000e+01	 1.000572e+00
0	 9.500000e+01	 3.833334e+01	 1.000584e+00
0	 9.500000e+01	 4.166667e+01	 1.000592e+00
0	 9.833333e+01	 2.500000e+01	 1.000353e+00
0	 9.833333e+01	 2.833333e+01	 1.000366e+00
0	 9.833333e+01	 3.166667e+01	 1.000376e+00
0	 9.833333e+01	 3.500000e+01	 1.000384e+00
0	 9.833333e+01	 3.833334e+01	 1.000389e+00
0	 9.833333e+01	 4.166667e+01	 1.000391e+00
0	 1.016667e+02	 2.500000e+01	 1.000176e+00
0	 1.016667e+02	 2.833333e+01	 1.000183e+00
0	 1.016667e+02	 3.166667e+01	 1.000188e+00
0	 1.016667e+02	 3.500000e+01	 1.000192e+00
0	 1.016667e+02	 3.833334e+01	 1.000194e+00
0	 1.016667e+02	 4.166667e+01	 1.000195e+00
0	 1.050000e+02	 2.500000e+01	 9.999807e-01
0	 1.050000e+02	 2.833333e+01	 9.999855e-01
0	 1.050000e+02	 3.166667e+01	 9.999901e-01
0	 1.050000e+02	 3.500000e+01	 9.999946e-01
0	 1.050000e+02	 3.833334e+01	 9.999988e-01
0	 1.050000e+02	 4.166667e+01	 1.000003e+00
0	 1.083333e+02	 2.500000e+01	 9.997668e-01
0	 1.083333e+02	 2.833333e+01	 9.997745e-01
0	 1.083333e+02	 3.166667e+01	 9.997832e-01
0	 1.083333e+02	 3.500000e+01	 9.997930e-01
0	 1.083333e+02	 3.833334e+01	 9.998038e-01
0	 1.083333e+02	 4.166667e+01	 9.998155e-01
0	 9.166667e+01	 4.166667e+01	 1.000797e+00
0	 9.166667e+01	 4.500000e+01	 1.000785e+00
0	 9.166667e+01	 4.833333e+01	 1.000778e+00
0	 9.166667e+01	 5.166667e+01	 1.000776e+00
0	 9.166667e+01	 5.500000e+01	 1.000779e+00
0	 9.166667e+01	 5.833333e+01	 1.000787e+00
0	 9.500000e+01	 4.166667e+01	 1.000592e+00
0	 9.500000e+01	 4.500000e+01	 1.000583e+00
0	 9.500000e+01	 4.833333e+01	 1.000578e+00
0	 9.500000e+01	 5.166667e+01	 1.000577e+00
0	 9.500000e+01	 5.500000e+01	 1.000581e+00
0	 9.500000e+01	 5.833333e+01	 1.000589e+00
0	 9.833333e+01	 4.166667e+01	 1.000391e+00
0	 9.833333e+01	 4.500000e+01	 1.000387e+00
0	 9.833333e+01	 4.833333e+01	 1.000386e+00
0	 9.833333e+01	 5.166667e+01	 1.000388e+00
0	 9.833333e+01	 5.500000e+01	 1.000394e+00
0	 9.833333e+01	 5.833333e+01	 1.000403e+00
0	 1.016667e+02	 4.166667e+01	 1.000195e+00
0	 1.016667e+02	 4.500000e+01	 1.000197e+00
0	 1.016667e+02	 4.833333e+01	 1.000202e+00
0	 1.016667e+02	 5.166667e+01	 1.000209e+00
0	 1.016667e+02	 5.500000e+01	 1.000218e+00
0	 1.016667e+02	 5.833333e+01	 1.000230e+00
0	 1.050000e+02	 4.166667e+01	 1.000003e+00
0	 1.050000e+02	 4.500000e+01	 1.000014e+00
0	 1.050000e+02	 4.833333e+01	 1.000026e+00
0	 1.050000e+02	 5.166667e+01	 1.000039e+00
0	 1.050000e+02	 5.500000e+01	 1.000054e+00
0	 1.050000e+02	 5.833333e+01	 1.000069e+00
0	 1.083333e+02	 4.166667e+01	 9.998155e-01
0	 1.083333e+02	 4.500000e+01	 9.998362e-01
0	 1.083333e+02	 4.833333e+01	 9.998573e-01
0	 1.083333e+02	 5.166667e+01	 9.998786e-01
0	 1.083333e+02	 5.500000e+01	 9.999002e-01
0	 1.083333e+02	 5.833333e+01	 9.999221e-01
0	 9.166667e+01	 5.833333e+01	 1.000787e+00
0	 9.166667e+01	 6.166666e+01	 1.000718e+00
0	 9.166667e+01	 6.500000e+01	 1.000656e+00
0	 9.166667e+01	 6.833333e+01	 1.000602e+00
0	 9.166667e+01	 7.166667e+01	 1.000554e+00
0	 9.166667e+01	 7.500000e+01	 1.000514e+00
0	 9.500000e+01	 5.833333e+01	 1.000589e+00
0	 9.500000e+01	 6.166666e+01	 1.000543e+00
0	 9.500000e+01	 6.500000e+01	 1.000504e+00
0	 9.500000e+01	 6.833333e+01	 1.000471e+00
0	 9.500000e+01	 7.166667e+01	 1.000444e+00
0	 9.500000e+01	 7.500000e+01	 1.000423e+00
0	 9.833333e+01	 5.833333e+01	 1.000403e+00
0	 9.833333e+01	 6.166666e+01	 1.000378e+00
0	 9.833333e+01	 6.500000e+01	 1.000358e+00
0	 9.833333e+01	 6.833333e+01	 1.000342e+00
0	 9.833333e+01	 7.166667e+01	 1.000332e+00
0	 9.833333e+01	 7.500000e+01	 1.000326e+00
0	 1.016667e+02	 5.833333e+01	 1.000230e+00
0	 1.016667e+02	 6.166666e+01	 1.000221e+00
0	 1.016667e+02	 6.500000e+01	 1.000216e+00
0	 1.016667e+02	 6.833333e+01	 1.000215e+00
0	 1.016667e+02	 7.166667e+01	 1.000217e+00
0	 1.016667e+02	 7.500000e+01	 1.000223e+00
0	 1.050000e+02	 5.833333e+01	 1.000069e+00
0	 1.050000e+02	 6.166666e+01	 1.000074e+00
0	 1.050000e+02	 6.500000e+01	 1.000081e+00
0	 1.050000e+02	 6.833333e+01	 1.000090e+00
0	 1.050000e+02	 7.166667e+01	 1.000101e+00
0	 1.050000e+02	 7.500000e+01	 1.000115e+00
0	 1.083333e+02	 5.833333e+01	 9.999221e-01
0	 1.083333e+02	 6.166666e+01	 9.999356e-01
0	 1.083333e+02	 6.500000e+01	 9.999502e-01
0	 1.083333e+02	 6.833333e+01	 9.999659e-01
0	 1.083333e+02	 7.166667e+01	 9.999827e-01
0	 1.083333e+02	 7.500000e+01	 1.000001e+00
0	 9.166667e+01	 7.500000e+01	 1.000514e+00
0	 9.166667e+01	 7.833333e+01	 1.000477e+00
0	 9.166667e+01	 8.166667e+01	 1.000439e+00
0	 9.166667e+01	 8.500000e+01	 1.000397e+00
0	 9.166667e+01	 8.833334e+01	 1.000354e+00
0	 9.166667e+01	 9.166667e+01	 1.000308e+00
0	 9.500000e+01	 7.500000e+01	 1.000423e+00
0	 9.500000e+01	 7.833333e+01	 1.000387e+00
0	 9.500000e+01	 8.166667e+01	 1.000350e+00
0	 9.500000e+01	 8.500000e+01	 1.000311e+00
0	 9.500000e+01	 8.833334e+01	 1.000271e+00
0	 9.500000e+01	 9.166667e+01	 1.000229e+00
0	 9.833333e+01	 7.500000e+01	 1.000326e+00
0	 9.833333e+01	 7.833333e+01	 1.000294e+00
0	 9.833333e+01	 8.166667e+01	 1.000261e+00
0	 9.833333e+01	 8.500000e+01	 1.000227e+00
0	 9.833333e+01	 8.833334e+01	 1.000193e+00
0	 9.833333e+01	 9.166667e+01	 1.000158e+00
0	 1.016667e+02	 7.500000e+01	 1.000223e+00
0	 1.016667e+02	 7.833333e+01	 1.000197e+00
0	 1.016667e+02	 8.166667e+01	 1.000171e+00
0	 1.016667e+02	 8.500000e+01	 1.000145e+00
0	 1.016667e+02	 8.833334e+01	 1.000119e+00
0	 1.016667e+02	 9.166667e+01	 1.000093e+00
0	 1.050000e+02	 7.500000e+01	 1.000115e+00
0	 1.050000e+02	 7.833333e+01	 1.000097e+00
0	 1.050000e+02	 8.166667e+01	 1.000081e+00
0	 1.050000e+02	 8.500000e+01	 1.000065e+00
0	 1.050000e+02	 8.833334e+01	 1.000050e+00
0	 1.050000e+02	 9.166667e+01	 1.000035e+00
0	 1.083333e+02	 7.500000e+01	 1.000001e+00
0	 1.083333e+02	 7.833333e+01	 9.999942e-01
0	 1.083333e+02	 8.166667e+01	 9.999893e-01
0	 1.083333e+02	 8.500000e+01	 9.999862e-01
0	 1.083333e+02	 8.833334e+01	 9.999848e-01
0	 1.083333e+02	 9.166667e+01	 9.999850e-01
0	 9.166667e+01	 9.166667e+01	 1.000308e+00
0	 9.166667e+01	 9.500000e+01	 1.000257e+00
0	 9.166667e+01	 9.833333e+01	 1.000206e+00
0	 9.166667e+01	 1.016667e+02	 1.000154e+00
0	 9.166667e+01	 1.050000e+02	 1.000102e+00
0	 9.166667e+01	 1.083333e+02	 1.000048e+00
0	 9.500000e+01	 9.166667e+01	 1.000229e+00
0	 9.500000e+01	 9.500000e+01	 1.000195e+00
0	 9.500000e+01	 9.833333e+01	 1.000160e+00
0	 9.500000e+01	 1.016667e+02	 1.000124e+00
0	 9.500000e+01	 1.050000e+02	 1.000086e+00
0	 9.500000e+01	 1.083333e+02	 1.000048e+00
0	 9.833333e+01	 9.166667e+01	 1.000158e+00
0	 9.833333e+01	 9.500000e+01	 1.000137e+00
0	 9.833333e+01	 9.833333e+01	 1.000116e+00
0	 9.833333e+01	 1.016667e+02	 1.000093e+00
0	 9.833333e+01	 1.050000e+02	 1.000068e+00
0	 9.833333e+01	 1.083333e+02	 1.000042e+00
0	 1.016667e+02	 9.166667e+01	 1.000093e+00
0	 1.016667e+02	 9.500000e+01	 1.000084e+00
0	 1.016667e+02	 9.833333e+01	 1.000073e+00
0	 1.016667e+02	 1.016667e+02	 1.000061e+00
0	 1.016667e+02	 1.050000e+02	 1.000046e+00
0	 1.016667e+02	 1.083333e+02	 1.000030e+00
0	 1.050000e+02	 9.166667e+01	 1.000035e+00
0	 1.050000e+02	 9.500000e+01	 1.000035e+00
0	 1.050000e+02	 9.833333e+01	 1.000033e+00
0	 1.050000e+02	 1.016667e+02	 1.000028e+00
0	 1.050000e+02	 1.050000e+02	 1.000021e+00
0	 1.050000e+02	 1.083333e+02	 1.000012e+00
0	 1.083333e+02	 9.166667e+01	 9.999850e-01
0	 1.083333e+02	 9.500000e+01	 9.999908e-01
0	 1.083333e+02	 9.833333e+01	 9.999940e-01
0	 1.083333e+02	 1.016667e+02	 9.999946e-01
0	 1.083333e+02	 1.050000e+02	 9.999927e-01
0	 1.083333e+02	 1.083333e+02	 9.999882e-01
0	 9.166667e+01	 1.083333e+02	 1.000048e+00
0	 9.166667e+01	 1.116667e+02	 1.000052e+00
0	 9.166667e+01	 1.150000e+02	 1.000044e+00
0	 9.166667e+01	 1.183333e+02	 1.000026e+00
0	 9.166667e+01	 1.216667e+02	 9.999972e-01
0	 9.166667e+01	 1.250000e+02	 9.999573e-01
0	 9.500000e+01	 1.083333e+02	 1.000048e+00
0	 9.500000e+01	 1.116667e+02	 1.000048e+00
0	 9.500000e+01	 1.150000e+02	 1.000039e+00
0	 9.500000e+01	 1.183333e+02	 1.000022e+00
0	 9.500000e+01	 1.216667e+02	 9.999962e-01
0	 9.500000e+01	 1.250000e+02	 9.999622e-01
0	 9.833333e+01	 1.083333e+02	 1.000042e+00
0	 9.833333e+01	 1.116667e+02	 1.000039e+00
0	 9.833333e+01	 1.150000e+02	 1.000031e+00
0	 9.833333e+01	 1.183333e+02	 1.000016e+00
0	 9.833333e+01	 1.216667e+02	 9.999958e-01
0	 9.833333e+01	 1.250000e+02	 9.999693e-01
0	 1.016667e+02	 1.083333e+02	 1.000030e+00
0	 1.016667e+02	 1.116667e+02	 1.000027e+00
0	 1.016667e+02	 1.150000e+02	 1.000020e+00
0	 1.016667e+02	 1.183333e+02	 1.000010e+00
0	 1.016667e+02	 1.216667e+02	 9.999960e-01
0	 1.016667e+02	 1.250000e+02	 9.999785e-01
0	 1.050000e+02	 1.083333e+02	 1.000012e+00
0	 1.050000e+02	 1.116667e+02	 1.000010e+00
0	 1.050000e+02	 1.150000e+02	 1.000007e+00
0	 1.050000e+02	 1.183333e+02	 1.000002e+00
0	 1.050000e+02	 1.216667e+02	 9.999968e-01
0	 1.050000e+02	 1.250000e+02	 9.999900e-01
0	 1.083333e+02	 1.083333e+02	 9.999882e-01
0	 1.083333e+02	 1.116667e+02	 9.999888e-01
0	 1.083333e+02	 1.150000e+02	 9.999907e-01
0	 1.083333e+02	 1.183333e+02	 9.999938e-01
0	 1.083333e+02	 1.216667e+02	 9.999981e-01
0	 1.083333e+02	 1.250000e+02	 1.000004e+00
0	 1.083333e+02	-1.250000e+02	 9.999481e-01
0	 1.083333e+02	-1.216667e+02	 9.999944e-01
0	 1.083333e+02	-1.183333e+02	 1.000033e+00
0	 1.083333e+02	-1.150000e+02	 1.000065e+00
0	 1.083333e+02	-1.116667e+02	 1.000090e+00
0	 1.083333e+02	-1.083333e+02	 1.000107e+00
0	 1.116667e+02	-1.250000e+02	 9.999706e-01
0	 1.116667e+02	-1.216667e+02	 1.000011e+00
0	 1.116667e+02	-1.183333e+02	 1.000044e+00
0	 1.116667e+02	-1.150000e+02	 1.000071e+00
0	 1.116667e+02	-1.116667e+02	 1.000091e+00
0	 1.116667e+02	-1.083333e+02	 1.000105e+00
0	 1.150000e+02	-1.250000e+02	 9.999819e-01
0	 1.150000e+02	-1.216667e+02	 1.000015e+00
0	 1.150000e+02	-1.183333e+02	 1.000043e+00
0	 1.150000e+02	-1.150000e+02	 1.000064e+00
0	 1.150000e+02	-1.116667e+02	 1.000080e+00
0	 1.150000e+02	-1.083333e+02	 1.000090e+00
0	 1.183333e+02	-1.250000e+02	 9.999819e-01
0	 1.183333e+02	-1.216667e+02	 1.000009e+00
0	 1.183333e+02	-1.183333e+02	 1.000030e+00
0	 1.183333e+02	-1.150000e+02	 1.000046e+00
0	 1.183333e+02	-1.116667e+02	 1.000057e+00
0	 1.183333e+02	-1.083333e+02	 1.000062e+00
0	 1.216667e+02	-1.250000e+02	 9.999708e-01
0	 1.216667e+02	-1.216667e+02	 9.999904e-01
0	 1.216667e+02	-1.183333e+02	 1.000005e+00
0	 1.216667e+02	-1.150000e+02	 1.000016e+00
0	 1.216667e+02	-1.116667e+02	 1.000021e+00
0	 1.216667e+02	-1.083333e+02	 1.000022e+00
0	 1.250000e+02	-1.250000e+02	 9.999485e-01
0	 1.250000e+02	-1.216667e+02	 9.999607e-01
0	 1.250000e+02	-1.183333e+02	 9.999689e-01
0	 1.250000e+02	-1.150000e+02	 9.999732e-01
0	 1.250000e+02	-1.116667e+02	 9.999735e-01
0	 1.250000e+02	-1.083333e+02	 9.999699e-01
0	 1.083333e+02	-1.083333e+02	 1.000107e+00
0	 1.083333e+02	-1.050000e+02	 1.000168e+00
0	 1.083333e+02	-1.016667e+02	 1.000226e+00
0	 1.083333e+02	-9.833333e+01	 1.000280e+00
0	 1.083333e+02	-9.500000e+01	 1.000332e+00
0	 1.083333e+02	-9.166667e+01	 1.000380e+00
0	 1.116667e+02	-1.083333e+02	 1.000105e+00
0	 1.116667e+02	-1.050000e+02	 1.000165e+00
0	 1.116667e+02	-1.016667e+02	 1.000223e+00
0	 1.116667e+02	-9.833333e+01	 1.000278e+00
0	 1.116667e+02	-9.500000e+01	 1.000330e+00
0	 1.116667e+02	-9.166667e+01	 1.000380e+00
0	 1.150000e+02	-1.083333e+02	 1.000090e+00
0	 1.150000e+02	-1.050000e+02	 1.000150e+00
0	 1.150000e+02	-1.016667e+02	 1.000207e+00
0	 1.150000e+02	-9.833333e+01	 1.000263e+00
0	 1.150000e+02	-9.500000e+01	 1.000317e+00
0	 1.150000e+02	-9.166667e+01	 1.000368e+00
0	 1.183333e+02	-1.083333e+02	 1.000062e+00
0	 1.183333e+02	-1.050000e+02	 1.000122e+00
0	 1.183333e+02	-1.016667e+02	 1.000180e+00
0	 1.183333e+02	-9.833333e+01	 1.000237e+00
0	 1.183333e+02	-9.500000e+01	 1.000292e+00
0	 1.183333e+02	-9.166667e+01	 1.000345e+00
0	 1.216667e+02	-1.083333e+02	 1.000022e+00
0	 1.216667e+02	-1.050000e+02	 1.000082e+00
0	 1.216667e+02	-1.016667e+02	 1.000141e+00
0	 1.216667e+02	-9.833333e+01	 1.000199e+00
0	 1.216667e+02	-9.500000e+01	 1.000255e+00
0	 1.216667e+02	-9.166667e+01	 1.000311e+00
0	 1.250000e+02	-1.083333e+02	 9.999699e-01
0	 1.250000e+02	-1.050000e+02	 1.000030e+00
0	 1.250000e+02	-1.016667e+02	 1.000090e+00
0	 1.250000e+02	-9.833333e+01	 1.000149e+00
0	 1.250000e+02	-9.500000e+01	 1.000208e+00
0	 1.250000e+02	-9.166667e+01	 1.000266e+00
0	 1.083333e+02	-9.166667e+01	 1.000380e+00
0	 1.083333e+02	-8.833334e+01	 1.000440e+00
0	 1.083333e+02	-8.500000e+01	 1.000503e+00
0	 1.083333e+02	-8.166667e+01	 1.000567e+00
0	 1.083333e+02	-7.833333e+01	 1.000634e+00
0	 1.083333e+02	-7.500000e+01	 1.000702e+00
0	 1.116667e+02	-9.166667e+01	 1.000380e+00
0	 1.116667e+02	-8.833334e+01	 1.000433e+00
0	 1.116667e+02	-8.500000e+01	 1.000488e+00
0	 1.116667e+02	-8.166667e+01	 1.000544e+00
0	 1.116667e+02	-7.833333e+01	 1.000602e+00
0	 1.116667e+02	-7.500000e+01	 1.000661e+00
0	 1.150000e+02	-9.166667e+01	 1.000368e+00
0	 1.150000e+02	-8.833334e+01	 1.000421e+00
0	 1.150000e+02	-8.500000e+01	 1.000475e+00
0	 1.150000e+02	-8.166667e+01	 1.000530e+00
0	 1.150000e+02	-7.833333e+01	 1.000587e+00
0	 1.150000e+02	-7.500000e+01	 1.000644e+00
0	 1.183333e+02	-9.166667e+01	 1.000345e+00
0	 1.183333e+02	-8.833334e+01	 1.000405e+00
0	 1.183333e+02	-8.500000e+01	 1.000466e+00
0	 1.183333e+02	-8.166667e+01	 1.000526e+00
0	 1.183333e+02	-7.833333e+01	 1.000588e+00
0	 1.183333e+02	-7.500000e+01	 1.000649e+00
0	 1.216667e+02	-9.166667e+01	 1.000311e+00
0	 1.216667e+02	-8.833334e+01	 1.000385e+00
0	 1.216667e+02	-8.500000e+01	 1.000458e+00
0	 1.216667e+02	-8.166667e+01	 1.000532e+00
0	 1.216667e+02	-7.833333e+01	 1.000605e+00
0	 1.216667e+02	-7.500000e+01	 1.000678e+00
0	 1.250000e+02	-9.166667e+01	 1.000266e+00
0	 1.250000e+02	-8.833334e+01	 1.000360e+00
0	 1.250000e+02	-8.500000e+01	 1.000454e+00
0	 1.250000e+02	-8.166667e+01	 1.000546e+00
0	 1.250000e+02	-7.833333e+01	 1.000639e+00
0	 1.250000e+02	-7.500000e+01	 1.000730e+00
0	 1.083333e+02	-7.500000e+01	 1.000702e+00
0	 1.083333e+02	-7.166667e+01	 1.000737e+00
0	 1.083333e+02	-6.833333e+01	 1.000773e+00
0	 1.083333e+02	-6.500000e+01	 1.000809e+00
0	 1.083333e+02	-6.166666e+01	 1.000846e+00
0	 1.083333e+02	-5.833333e+01	 1.000884e+00
0	 1.116667e+02	-7.500000e+01	 1.000661e+00
0	 1.116667e+02	-7.166667e+01	 1.000695e+00
0	 1.116667e+02	-6.833333e+01	 1.000730e+00
0	 1.116667e+02	-6.500000e+01	 1.000767e+00
0	 1.116667e+02	-6.166666e+01	 1.000805e+00
0	 1.116667e+02	-5.833333e+01	 1.000844e+00
0	 1.150000e+02	-7.500000e+01	 1.000644e+00
0	 1.150000e+02	-7.166667e+01	 1.000677e+00
0	 1.150000e+02	-6.833333e+01	 1.000712e+00
0	 1.150000e+02	-6.500000e+01	 1.000749e+00
0	 1.150000e+02	-6.166666e+01	 1.000789e+00
0	 1.150000e+02	-5.833333e+01	 1.000829e+00
0	 1.183333e+02	-7.500000e+01	 1.000649e+00
0	 1.183333e+02	-7.166667e+01	 1.000683e+00
0	 1.183333e+02	-6.833333e+01	 1.000719e+00
0	 1.183333e+02	-6.500000e+01	 1.000757e+00
0	 1.183333e+02	-6.166666e+01	 1.000798e+00
0	 1.183333e+02	-5.833333e+01	 1.000841e+00
0	 1.216667e+02	-7.500000e+01	 1.000678e+00
0	 1.216667e+02	-7.166667e+01	 1.000712e+00
0	 1.216667e+02	-6.833333e+01	 1.000749e+00
0	 1.216667e+02	-6.500000e+01	 1.000789e+00
0	 1.216667e+02	-6.166666e+01	 1.000833e+00
0	 1.216667e+02	-5.833333e+01	 1.000879e+00
0	 1.250000e+02	-7.500000e+01	 1.000730e+00
0	 1.250000e+02	-7.166667e+01	 1.000765e+00
0	 1.250000e+02	-6.833333e+01	 1.000804e+00
0	 1.250000e+02	-6.500000e+01	 1.000847e+00
0	 1.250000e+02	-6.166666e+01	 1.000893e+00
0	 1.250000e+02	-5.833333e+01	 1.000942e+00
0	 1.083333e+02	-5.833333e+01	 1.000884e+00
0	 1.083333e+02	-5.500000e+01	 1.000877e+00
0	 1.083333e+02	-5.166667e+01	 1.000875e+00
0	 1.083333e+02	-4.833333e+01	 1.000878e+00
0	 1.083333e+02	-4.500000e+01	 1.000887e+00
0	 1.083333e+02	-4.166667e+01	 1.000901e+00
0	 1.116667e+02	-5.833333e+01	 1.000844e+00
0	 1.116667e+02	-5.500000e+01	 1.000823e+00
0	 1.116667e+02	-5.166667e+01	 1.000808e+00
0	 1.116667e+02	-4.833333e+01	 1.000797e+00
0	 1.116667e+02	-4.500000e+01	 1.000791e+00
0	 1.116667e+02	-4.166667e+01	 1.000789e+00
0	 1.150000e+02	-5.833333e+01	 1.000829e+00
0	 1.150000e+02	-5.500000e+01	 1.000798e+00
0	 1.150000e+02	-5.166667e+01	 1.000772e+00
0	 1.150000e+02	-4.833333e+01	 1.000750e+00
0	 1.150000e+02	-4.500000e+01	 1.000732e+00
0	 1.150000e+02	-4.166667e+01	 1.000719e+00
0	 1.183333e+02	-5.833333e+01	 1.000841e+00
0	 1.183333e+02	-5.500000e+01	 1.000803e+00
0	 1.183333e+02	-5.166667e+01	 1.000768e+00
0	 1.183333e+02	-4.833333e+01	 1.000737e+00
0	 1.183333e+02	-4.500000e+01	 1.000711e+00
0	 1.183333e+02	-4.166667e+01	 1.000688e+00
0	 1.216667e+02	-5.833333e+01	 1.000879e+00
0	 1.216667e+02	-5.500000e+01	 1.000835e+00
0	 1.216667e+02	-5.166667e+01	 1.000796e+00
0	 1.216667e+02	-4.833333e+01	 1.000760e+00
0	 1.216667e+02	-4.500000e+01	 1.000727e+00
0	 1.216667e+02	-4.166667e+01	 1.000698e+00
0	 1.250000e+02	-5.833333e+01	 1.000942e+00
0	 1.250000e+02	-5.500000e+01	 1.000897e+00
0	 1.250000e+02	-5.166667e+01	 1.000855e+00
0	 1.250000e+02	-4.833333e+01	 1.000816e+00
0	 1.250000e+02	-4.500000e+01	 1.000781e+00
0	 1.250000e+02	-4.166667e+01	 1.000748e+00
0	 1.083333e+02	-4.166667e+01	 1.000901e+00
0	 1.083333e+02	-3.833334e+01	 1.000837e+00
0	 1.083333e+02	-3.500000e+01	 1.000776e+00
0	 1.083333e+02	-3.166667e+01	 1.000718e+00
0	 1.083333e+02	-2.833333e+01	 1.000662e+00
0	 1.083333e+02	-2.500000e+01	 1.000609e+00
0	 1.116667e+02	-4.166667e+01	 1.000789e+00
0	 1.116667e+02	-3.833334e+01	 1.000720e+00
0	 1.116667e+02	-3.500000e+01	 1.000654e+00
0	 1.116667e+02	-3.166667e+01	 1.000591e+00
0	 1.116667e+02	-2.833333e+01	 1.000530e+00
0	 1.116667e+02	-2.500000e+01	 1.000472e+00
0	 1.150000e+02	-4.166667e+01	 1.000719e+00
0	 1.150000e+02	-3.833334e+01	 1.000639e+00
0	 1.150000e+02	-3.500000e+01	 1.000563e+00
0	 1.150000e+02	-3.166667e+01	 1.000489e+00
0	 1.150000e+02	-2.833333e+01	 1.000418e+00
0	 1.150000e+02	-2.500000e+01	 1.000350e+00
0	 1.183333e+02	-4.166667e+01	 1.000688e+00
0	 1.183333e+02	-3.833334e+01	 1.000593e+00
0	 1.183333e+02	-3.500000e+01	 1.000501e+00
0	 1.183333e+02	-3.166667e+01	 1.000412e+00
0	 1.183333e+02	-2.833333e+01	 1.000326e+00
0	 1.183333e+02	-2.500000e+01	 1.000242e+00
0	 1.216667e+02	-4.166667e+01	 1.000698e+00
0	 1.216667e+02	-3.833334e+01	 1.000583e+00
0	 1.216667e+02	-3.500000e+01	 1.000470e+00
0	 1.216667e+02	-3.166667e+01	 1.000360e+00
0	 1.216667e+02	-2.833333e+01	 1.000253e+00
0	 1.216667e+02	-2.500000e+01	 1.000149e+00
0	 1.250000e+02	-4.166667e+01	 1.000748e+00
0	 1.250000e+02	-3.833334e+01	 1.000607e+00
0	 1.250000e+02	-3.500000e+01	 1.000469e+00
0	 1.250000e+02	-3.166667e+01	 1.000333e+00
0	 1.250000e+02	-2.833333e+01	 1.000201e+00
0	 1.250000e+02	-2.500000e+01	 1.000071e+00
0	 1.083333e+02	-2.500000e+01	 1.000609e+00
0	 1.083333e+02	-2.166667e+01	 1.000525e+00
0	 1.083333e+02	-1.833333e+01	 1.000441e+00
0	 1.083333e+02	-1.500000e+01	 1.000356e+00
0	 1.083333e+02	-1.166666e+01	 1.000272e+00
0	 1.083333e+02	-8.333327e+00	 1.000188e+00
0	 1.116667e+02	-2.500000e+01	 1.000472e+00
0	 1.116667e+02	-2.166667e+01	 1.000381e+00
0	 1.116667e+02	-1.833333e+01	 1.000291e+00
0	 1.116667e+02	-1.500000e+01	 1.000200e+00
0	 1.116667e+02	-1.166666e+01	 1.000110e+00
0	 1.116667e+02	-8.333327e+00	 1.000019e+00
0	 1.150000e+02	-2.500000e+01	 1.000350e+00
0	 1.150000e+02	-2.166667e+01	 1.000247e+00
0	 1.150000e+02	-1.833333e+01	 1.000145e+00
0	 1.150000e+02	-1.500000e+01	 1.000042e+00
0	 1.150000e+02	-1.166666e+01	 9.999396e-01
0	 1.150000e+02	-8.333327e+00	 9.998372e-01
0	 1.183333e+02	-2.500000e+01	 1.000242e+00
0	 1.183333e+02	-2.166667e+01	 1.000122e+00
0	 1.183333e+02	-1.833333e+01	 1.000002e+00
0	 1.183333e+02	-1.500000e+01	 9.998821e-01
0	 1.183333e+02	-1.166666e+01	 9.997623e-01
0	 1.183333e+02	-8.333327e+00	 9.996424e-01
0	 1.216667e+02	-2.500000e+01	 1.000149e+00
0	 1.216667e+02	-2.166667e+01	 1.000006e+00
0	 1.216667e+02	-1.833333e+01	 9.998631e-01
0	 1.216667e+02	-1.500000e+01	 9.997202e-01
0	 1.216667e+02	-1.166666e+01	 9.995774e-01
0	 1.216667e+02	-8.333327e+00	 9.994346e-01
0	 1.250000e+02	-2.500000e+01	 1.000071e+00
0	 1.250000e+02	-2.166667e+01	 9.998994e-01
0	 1.250000e+02	-1.833333e+01	 9.997279e-01
0	 1.250000e+02	-1.500000e+01	 9.995564e-01
0	 1.250000e+02	-1.166666e+01	 9.993850e-01
0	 1.250000e+02	-8.333327e+00	 9.992137e-01
0	 1.083333e+02	-8.333327e+00	 1.000188e+00
0	 1.083333e+02	-4.999996e+00	 1.000119e+00
0	 1.083333e+02	-1.666665e+00	 1.000050e+00
0	 1.083333e+02	 1.666665e+00	 9.999800e-01
0	 1.083333e+02	 4.999996e+00	 9.999096e-01
0	 1.083333e+02	 8.333327e+00	 9.998386e-01
0	 1.116667e+02	-8.333327e+00	 1.000019e+00
0	 1.116667e+02	-4.999996e+00	 9.999508e-01
0	 1.116667e+02	-1.666665e+00	 9.998813e-01
0	 1.116667e+02	 1.666665e+00	 9.998105e-01
0	 1.116667e+02	 4.999996e+00	 9.997383e-01
0	 1.116667e+02	 8.333327e+00	 9.996647e-01
0	 1.150000e+02	-8.333327e+00	 9.998372e-01
0	 1.150000e+02	-4.999996e+00	 9.997643e-01
0	 1.150000e+02	-1.666665e+00	 9.996893e-01
0	 1.150000e+02	 1.666665e+00	 9.996121e-01
0	 1.150000e+02	 4.999996e+00	 9.995329e-01
0	 1.150000e+02	 8.333327e+00	 9.994515e-01
0	 1.183333e+02	-8.333327e+00	 9.996424e-01
0	 1.183333e+02	-4.999996e+00	 9.995595e-01
0	 1.183333e+02	-1.666665e+00	 9.994737e-01
0	 1.183333e+02	 1.666665e+00	 9.993850e-01
0	 1.183333e+02	 4.999996e+00	 9.992934e-01
0	 1.183333e+02	 8.333327e+00	 9.991990e-01
0	 1.216667e+02	-8.333327e+00	 9.994346e-01
0	 1.216667e+02	-4.999996e+00	 9.993364e-01
0	 1.216667e+02	-1.666665e+00	 9.992345e-01
0	 1.216667e+02	 1.666665e+00	 9.991290e-01
0	 1.216667e+02	 4.999996e+00	 9.990199e-01
0	 1.216667e+02	 8.333327e+00	 9.989071e-01
0	 1.250000e+02	-8.333327e+00	 9.992137e-01
0	 1.250000e+02	-4.999996e+00	 9.990949e-01
0	 1.250000e+02	-1.666665e+00	 9.989717e-01
0	 1.250000e+02	 1.666665e+00	 9.988442e-01
0	 1.250000e+02	 4.999996e+00	 9.987122e-01
0	 1.250000e+02	 8.333327e+00	 9.985759e-01
0	 1.083333e+02	 8.333327e+00	 9.998386e-01
0	 1.083333e+02	 1.166666e+01	 9.998400e-01
0	 1.083333e+02	 1.500000e+01	 9.998335e-01
0	 1.083333e+02	 1.833333e+01	 9.998191e-01
0	 1.083333e+02	 2.166667e+01	 9.997969e-01
0	 1.083333e+02	 2.500000e+01	 9.997668e-01
0	 1.116667e+02	 8.333327e+00	 9.996647e-01
0	 1.116667e+02	 1.166666e+01	 9.996550e-01
0	 1.116667e+02	 1.500000e+01	 9.996386e-01
0	 1.116667e+02	 1.833333e+01	 9.996156e-01
0	 1.116667e+02	 2.166667e+01	 9.995859e-01
0	 1.116667e+02	 2.500000e+01	 9.995496e-01
0	 1.150000e+02	 8.333327e+00	 9.994515e-01
0	 1.150000e+02	 1.166666e+01	 9.994342e-01
0	 1.150000e+02	 1.500000e+01	 9.994115e-01
0	 1.150000e+02	 1.833333e+01	 9.993833e-01
0	 1.150000e+02	 2.166667e+01	 9.993497e-01
0	 1.150000e+02	 2.500000e+01	 9.993108e-01
0	 1.183333e+02	 8.333327e+00	 9.991990e-01
0	 1.183333e+02	 1.166666e+01	 9.991776e-01
0	 1.183333e+02	 1.500000e+01	 9.991521e-01
0	 1.183333e+02	 1.833333e+01	 9.991223e-01
0	 1.183333e+02	 2.166667e+01	 9.990884e-01
0	 1.183333e+02	 2.500000e+01	 9.990503e-01
0	 1.216667e+02	 8.333327e+00	 9.989071e-01
0	 1.216667e+02	 1.166666e+01	 9.988852e-01
0	 1.216667e+02	 1.500000e+01	 9.988604e-01
0	 1.216667e+02	 1.833333e+01	 9.988326e-01
0	 1.216667e+02	 2.166667e+01	 9.988018e-01
0	 1.216667e+02	 2.500000e+01	 9.987681e-01
0	 1.250000e+02	 8.333327e+00	 9.985759e-01
0	 1.250000e+02	 1.166666e+01	 9.985571e-01
0	 1.250000e+02	 1.500000e+01	 9.985365e-01
0	 1.250000e+02	 1.833333e+01	 9.985141e-01
0	 1.250000e+02	 2.166667e+01	 9.984901e-01
0	 1.250000e+02	 2.500000e+01	 9.984643e-01
0	 1.083333e+02	 2.500000e+01	 9.997668e-01
0	 1.083333e+02	 2.833333e+01	 9.997745e-01
0	 1.083333e+02	 3.166667e+01	 9.997832e-01
0	 1.083333e+02	 3.500000e+01	 9.997930e-01
0	 1.083333e+02	 3.833334e+01	 9.998038e-01
0	 1.083333e+02	 4.166667e+01	 9.998155e-01
0	 1.116667e+02	 2.500000e+01	 9.995496e-01
0	 1.116667e+02	 2.833333e+01	 9.995660e-01
0	 1.116667e+02	 3.166667e+01	 9.995824e-01
0	 1.116667e+02	 3.500000e+01	 9.995989e-01
0	 1.116667e+02	 3.833334e+01	 9.996154e-01
0	 1.116667e+02	 4.166667e+01	 9.996319e-01
0	 1.150000e+02	 2.500000e+01	 9.993108e-01
0	 1.150000e+02	 2.833333e+01	 9.993369e-01
0	 1.150000e+02	 3.166667e+01	 9.993622e-01
0	 1.150000e+02	 3.500000e+01	 9.993865e-01
0	 1.150000e+02	 3.833334e+01	 9.994098e-01
0	 1.150000e+02	 4.166667e+01	 9.994322e-01
0	 1.183333e+02	 2.500000e+01	 9.990503e-01
0	 1.183333e+02	 2.833333e+01	 9.990873e-01
0	 1.183333e+02	 3.166667e+01	 9.991224e-01
0	 1.183333e+02	 3.500000e+01	 9.991557e-01
0	 1.183333e+02	 3.833334e+01	 9.991869e-01
0	 1.183333e+02	 4.166667e+01	 9.992163e-01
0	 1.216667e+02	 2.500000e+01	 9.987681e-01
0	 1.216667e+02	 2.833333e+01	 9.988171e-01
0	 1.216667e+02	 3.166667e+01	 9.988633e-01
0	 1.216667e+02	 3.500000e+01	 9.989065e-01
0	 1.216667e+02	 3.833334e+01	 9.989468e-01
0	 1.216667e+02	 4.166667e+01	 9.989843e-01
0	 1.250000e+02	 2.500000e+01	 9.984643e-01
0	 1.250000e+02	 2.833333e+01	 9.985264e-01
0	 1.250000e+02	 3.166667e+01	 9.985846e-01
0	 1.250000e+02	 3.500000e+01	 9.986390e-01
0	 1.250000e+02	 3.833334e+01	 9.986895e-01
0	 1.250000e+02	 4.166667e+01	 9.987361e-01
0	 1.083333e+02	 4.166667e+01	 9.998155e-01
0	 1.083333e+02	 4.500000e+01	 9.998362e-01
0	 1.083333e+02	 4.833333e+01	 9.998573e-01
0	 1.083333e+02	 5.166667e+01	 9.998786e-01
0	 1.083333e+02	 5.500000e+01	 9.999002e-01
0	 1.083333e+02	 5.833333e+01	 9.999221e-01
0	 1.116667e+02	 4.166667e+01	 9.996319e-01
0	 1.116667e+02	 4.500000e+01	 9.996587e-01
0	 1.116667e+02	 4.833333e+01	 9.996857e-01
0	 1.116667e+02	 5.166667e+01	 9.997131e-01
0	 1.116667e+02	 5.500000e+01	 9.997409e-01
0	 1.116667e+02	 5.833333e+01	 9.997690e-01
0	 1.150000e+02	 4.166667e+01	 9.994322e-01
0	 1.150000e+02	 4.500000e+01	 9.994683e-01
0	 1.150000e+02	 4.833333e+01	 9.995048e-01
0	 1.150000e+02	 5.166667e+01	 9.995416e-01
0	 1.150000e+02	 5.500000e+01	 9.995789e-01
0	 1.150000e+02	 5.833333e+01	 9.996166e-01
0	 1.183333e+02	 4.166667e+01	 9.992163e-01
0	 1.183333e+02	 4.500000e+01	 9.992651e-01
0	 1.183333e+02	 4.833333e+01	 9.993144e-01
0	 1.183333e+02	 5.166667e+01	 9.993641e-01
0	 1.183333e+02	 5.500000e+01	 9.994142e-01
0	 1.183333e+02	 5.833333e+01	 9.994648e-01
0	 1.216667e+02	 4.166667e+01	 9.989843e-01
0	 1.216667e+02	 4.500000e+01	 9.990492e-01
0	 1.216667e+02	 4.833333e+01	 9.991145e-01
0	 1.216667e+02	 5.166667e+01	 9.991804e-01
0	 1.216667e+02	 5.500000e+01	 9.992468e-01
0	 1.216667e+02	 5.833333e+01	 9.993137e-01
0	 1.250000e+02	 4.166667e+01	 9.987361e-01
0	 1.250000e+02	 4.500000e+01	 9.988204e-01
0	 1.250000e+02	 4.833333e+01	 9.989053e-01
0	 1.250000e+02	 5.166667e+01	 9.989907e-01
0	 1.250000e+02	 5.500000e+01	 9.990767e-01
0	 1.250000e+02	 5.833333e+01	 9.991632e-01
0	 1.083333e+02	 5.833333e+01	 9.999221e-01
0	 1.083333e+02	 6.166666e+01	 9.999356e-01
0	 1.083333e+02	 6.500000e+01	 9.999502e-01
0	 1.083333e+02	 6.833333e+01	 9.999659e-01
0	 1.083333e+02	 7.166667e+01	 9.999827e-01
0	 1.083333e+02	 7.500000e+01	 1.000001e+00
0	 1.116667e+02	 5.833333e+01	 9.997690e-01
0	 1.116667e+02	 6.166666e+01	 9.997894e-01
0	 1.116667e+02	 6.500000e+01	 9.998108e-01
0	 1.116667e+02	 6.833333e+01	 9.998332e-01
0	 1.116667e+02	 7.166667e+01	 9.998566e-01
0	 1.116667e+02	 7.500000e+01	 9.998810e-01
0	 1.150000e+02	 5.833333e+01	 9.996166e-01
0	 1.150000e+02	 6.166666e+01	 9.996461e-01
0	 1.150000e+02	 6.500000e+01	 9.996764e-01
0	 1.150000e+02	 6.833333e+01	 9.997076e-01
0	 1.150000e+02	 7.166667e+01	 9.997396e-01
0	 1.150000e+02	 7.500000e+01	 9.997725e-01
0	 1.183333e+02	 5.833333e+01	 9.994648e-01
0	 1.183333e+02	 6.166666e+01	 9.995054e-01
0	 1.183333e+02	 6.500000e+01	 9.995468e-01
0	 1.183333e+02	 6.833333e+01	 9.995888e-01
0	 1.183333e+02	 7.166667e+01	 9.996317e-01
0	 1.183333e+02	 7.500000e+01	 9.996752e-01
0	 1.216667e+02	 5.833333e+01	 9.993137e-01
0	 1.216667e+02	 6.166666e+01	 9.993676e-01
0	 1.216667e+02	 6.500000e+01	 9.994220e-01
0	 1.216667e+02	 6.833333e+01	 9.994771e-01
0	 1.216667e+02	 7.166667e+01	 9.995328e-01
0	 1.216667e+02	 7.500000e+01	 9.995890e-01
0	 1.250000e+02	 5.833333e+01	 9.991632e-01
0	 1.250000e+02	 6.166666e+01	 9.992324e-01
0	 1.250000e+02	 6.500000e+01	 9.993021e-01
0	 1.250000e+02	 6.833333e+01	 9.993723e-01
0	 1.250000e+02	 7.166667e+01	 9.994429e-01
0	 1.250000e+02	 7.500000e+01	 9.995140e-01
0	 1.083333e+02	 7.500000e+01	 1.000001e+00
0	 1.083333e+02	 7.833333e+01	 9.999942e-01
0	 1.083333e+02	 8.166667e+01	 9.999893e-01
0	 1.083333e+02	 8.500000e+01	 9.999862e-01
0	 1.083333e+02	 8.833334e+01	 9.999848e-01
0	 1.083333e+02	 9.166667e+01	 9.999850e-01
0	 1.116667e+02	 7.500000e+01	 9.998810e-01
0	 1.116667e+02	 7.833333e+01	 9.998890e-01
0	 1.116667e+02	 8.166667e+01	 9.998983e-01
0	 1.116667e+02	 8.500000e+01	 9.999091e-01
0	 1.116667e+02	 8.833334e+01	 9.999211e-01
0	 1.116667e+02	 9.166667e+01	 9.999346e-01
0	 1.150000e+02	 7.500000e+01	 9.997725e-01
0	 1.150000e+02	 7.833333e+01	 9.997930e-01
0	 1.150000e+02	 8.166667e+01	 9.998145e-01
0	 1.150000e+02	 8.500000e+01	 9.998371e-01
0	 1.150000e+02	 8.833334e+01	 9.998607e-01
0	 1.150000e+02	 9.166667e+01	 9.998854e-01
0	 1.183333e+02	 7.500000e+01	 9.996752e-01
0	 1.183333e+02	 7.833333e+01	 9.997061e-01
0	 1.183333e+02	 8.166667e+01	 9.997378e-01
0	 1.183333e+02	 8.500000e+01	 9.997702e-01
0	 1.183333e+02	 8.833334e+01	 9.998034e-01
0	 1.183333e+02	 9.166667e+01	 9.998373e-01
0	 1.216667e+02	 7.500000e+01	 9.995890e-01
0	 1.216667e+02	 7.833333e+01	 9.996284e-01
0	 1.216667e+02	 8.166667e+01	 9.996683e-01
0	 1.216667e+02	 8.500000e+01	 9.997085e-01
0	 1.216667e+02	 8.833334e+01	 9.997492e-01
0	 1.216667e+02	 9.166667e+01	 9.997903e-01
0	 1.250000e+02	 7.500000e+01	 9.995140e-01
0	 1.250000e+02	 7.833333e+01	 9.995599e-01
0	 1.250000e+02	 8.166667e+01	 9.996059e-01
0	 1.250000e+02	 8.500000e+01	 9.996520e-01
0	 1.250000e+02	 8.833334e+01	 9.996982e-01
0	 1.250000e+02	 9.166667e+01	 9.997445e-01
0	 1.083333e+02	 9.166667e+01	 9.999850e-01
0	 1.083333e+02	 9.500000e+01	 9.999908e-01
0	 1.083333e+02	 9.833333e+01	 9.999940e-01
0	 1.083333e+02	 1.016667e+02	 9.999946e-01
0	 1.083333e+02	 1.050000e+02	 9.999927e-01
0	 1.083333e+02	 1.083333e+02	 9.999882e-01
0	 1.116667e+02	 9.166667e+01	 9.999346e-01
0	 1.116667e+02	 9.500000e+01	 9.999443e-01
0	 1.116667e+02	 9.833333e+01	 9.999522e-01
0	 1.116667e+02	 1.016667e+02	 9.999584e-01
0	 1.116667e+02	 1.050000e+02	 9.999627e-01
0	 1.116667e+02	 1.083333e+02	 9.999653e-01
0	 1.150000e+02	 9.166667e+01	 9.998854e-01
0	 1.150000e+02	 9.500000e+01	 9.999002e-01
0	 1.150000e+02	 9.833333e+01	 9.999141e-01
0	 1.150000e+02	 1.016667e+02	 9.999269e-01
0	 1.150000e+02	 1.050000e+02	 9.999388e-01
0	 1.150000e+02	 1.083333e+02	 9.999496e-01
0	 1.183333e+02	 9.166667e+01	 9.998373e-01
0	 1.183333e+02	 9.500000e+01	 9.998585e-01
0	 1.183333e+02	 9.833333e+01	 9.998796e-01
0	 1.183333e+02	 1.016667e+02	 9.999003e-01
0	 1.183333e+02	 1.050000e+02	 9.999209e-01
0	 1.183333e+02	 1.083333e+02	 9.999412e-01
0	 1.216667e+02	 9.166667e+01	 9.997903e-01
0	 1.216667e+02	 9.500000e+01	 9.998192e-01
0	 1.216667e+02	 9.833333e+01	 9.998486e-01
0	 1.216667e+02	 1.016667e+02	 9.998785e-01
0	 1.216667e+02	 1.050000e+02	 9.999090e-01
0	 1.216667e+02	 1.083333e+02	 9.999400e-01
0	 1.250000e+02	 9.166667e+01	 9.997445e-01
0	 1.250000e+02	 9.500000e+01	 9.997822e-01
0	 1.250000e+02	 9.833333e+01	 9.998212e-01
0	 1.250000e+02	 1.016667e+02	 9.998615e-01
0	 1.250000e+02	 1.050000e+02	 9.999031e-01
0	 1.250000e+02	 1.083333e+02	 9.999460e-01
0	 1.083333e+02	 1.083333e+02	 9.999882e-01
0	 1.083333e+02	 1.116667e+02	 9.999888e-01
0	 1.083333e+02	 1.150000e+02	 9.999907e-01
0	 1.083333e+02	 1.183333e+02	 9.999938e-01
0	 1.083333e+02	 1.216667e+02	 9.999981e-01
0	 1.083333e+02	 1.250000e+02	 1.000004e+00
0	 1.116667e+02	 1.083333e+02	 9.999653e-01
0	 1.116667e+02	 1.116667e+02	 9.999711e-01
0	 1.116667e+02	 1.150000e+02	 9.999782e-01
0	 1.116667e+02	 1.183333e+02	 9.999864e-01
0	 1.116667e+02	 1.216667e+02	 9.999959e-01
0	 1.116667e+02	 1.250000e+02	 1.000006e+00
0	 1.150000e+02	 1.083333e+02	 9.999496e-01
0	 1.150000e+02	 1.116667e+02	 9.999593e-01
0	 1.150000e+02	 1.150000e+02	 9.999702e-01
0	 1.150000e+02	 1.183333e+02	 9.999822e-01
0	 1.150000e+02	 1.216667e+02	 9.999953e-01
0	 1.150000e+02	 1.250000e+02	 1.000010e+00
0	 1.183333e+02	 1.083333e+02	 9.999412e-01
0	 1.183333e+02	 1.116667e+02	 9.999534e-01
0	 1.183333e+02	 1.150000e+02	 9.999666e-01
0	 1.183333e+02	 1.183333e+02	 9.999810e-01
0	 1.183333e+02	 1.216667e+02	 9.999965e-01
0	 1.183333e+02	 1.250000e+02	 1.000013e+00
0	 1.216667e+02	 1.083333e+02	 9.999400e-01
0	 1.216667e+02	 1.116667e+02	 9.999532e-01
0	 1.216667e+02	 1.150000e+02	 9.999675e-01
0	 1.216667e+02	 1.183333e+02	 9.999829e-01
0	 1.216667e+02	 1.216667e+02	 9.999993e-01
0	 1.216667e+02	 1.250000e+02	 1.000017e+00
0	 1.250000e+02	 1.083333e+02	 9.999460e-01
0	 1.250000e+02	 1.116667e+02	 9.999590e-01
0	 1.250000e+02	 1.150000e+02	 9.999729e-01
0	 1.250000e+02	 1.183333e+02	 9.999878e-01
0	 1.250000e+02	 1.216667e+02	 1.000004e+00
0	 1.250000e+02	 1.250000e+02	 1.000021e+00
1	 4.330127e+00	 2.500000e+00	 0.000000e+00
1	 4.330127e+00	 2.500000e+00	-5.946716e+14
1	 4.330127e+00	 2.500000e+00	-6.072769e+14
1	 4.330127e+00	 2.500000e+00	 6.888142e-17
1	 4.330127e+00	 2.500000e+00	-1.689758e+15
1	 4.330127e+00	 2.500000e+00	 0.000000e+00
1	 4.338787e+00	 2.505000e+00	 1.585885e+01
1	 4.337787e+00	 2.506732e+00	 1.512178e+01
1	 4.336787e+00	 2.508464e+00	 1.431943e+01
1	 4.335787e+00	 2.510196e+00	 1.345180e+01
1	 4.334787e+00	 2.511928e+00	 1.251889e+01
1	 4.333787e+00	 2.513660e+00	 1.152070e+01
1	 4.364768e+00	 2.520000e+00	 7.366598e+00
1	 4.360768e+00	 2.526928e+00	 6.994075e+00
1	 4.356768e+00	 2.533856e+00	 6.589550e+00
1	 4.352768e+00	 2.540785e+00	 6.153022e+00
1	 4.348768e+00	 2.547713e+00	 5.684493e+00
1	 4.344768e+00	 2.554641e+00	 5.183961e+00
1	 4.408069e+00	 2.545000e+00	 4.551834e+00
1	 4.399069e+00	 2.560588e+00	 4.295190e+00
1	 4.390069e+00	 2.576177e+00	 4.018753e+00
1	 4.381069e+00	 2.591765e+00	 3.722523e+00
1	 4.372069e+00	 2.607354e+00	 3.406502e+00
1	 4.363069e+00	 2.622942e+00	 3.070687e+00
1	 4.468691e+00	 2.580000e+00	 3.147449e+00
1	 4.452691e+00	 2.607713e+00	 2.947687e+00
1	 4.436691e+00	 2.635426e+00	 2.734447e+00
1	 4.420691e+00	 2.663138e+00	 2.507729e+00
1	 4.404691e+00	 2.690851e+00	 2.267532e+00
1	 4.388691e+00	 2.718564e+00	 2.013858e+00
1	 4.546633e+00	 2.625000e+00	 2.305778e+00
1	 4.521633e+00	 2.668301e+00	 2.139807e+00
1	 4.496633e+00	 2.711603e+00	 1.964214e+00
1	 4.471633e+00	 2.754904e+00	 1.778998e+00
1	 4.446633e+00	 2.798205e+00	 1.584159e+00
1	 4.421633e+00	 2.841506e+00	 1.379698e+00
1	 4.546633e+00	 2.625000e+00	 2.305778e+00
1	 4.521633e+00	 2.668301e+00	 2.139807e+00
1	 4.496633e+00	 2.711603e+00	 1.964214e+00
1	 4.471633e+00	 2.754904e+00	 1.778998e+00
1	 4.446633e+00	 2.798205e+00	 1.584159e+00
1	 4.421633e+00	 2.841506e+00	 1.379698e+00
1	 4.641896e+00	 2.680000e+00	 1.765725e+00
1	 4.605896e+00	 2.742354e+00	 1.629477e+00
1	 4.569896e+00	 2.804708e+00	 1.488152e+00
1	 4.533896e+00	 2.867061e+00	 1.341750e+00
1	 4.497896e+00	 2.929415e+00	 1.190271e+00
1	 4.461896e+00	 2.991769e+00	 1.033716e+00
1	 4.754479e+00	 2.745000e+00	 1.385478e+00
1	 4.705479e+00	 2.829870e+00	 1.268346e+00
1	 4.656479e+00	 2.914741e+00	 1.148207e+00
1	 4.607479e+00	 2.999611e+00	 1.025058e+00
1	 4.558479e+00	 3.084482e+00	 8.989015e-01
1	 4.509479e+00	 3.169352e+00	 7.697362e-01
1	 4.884383e+00	 2.820000e+00	 1.103302e+00
1	 4.820383e+00	 2.930851e+00	 9.993528e-01
1	 4.756383e+00	 3.041703e+00	 8.933016e-01
1	 4.692383e+00	 3.152554e+00	 7.851486e-01
1	 4.628383e+00	 3.263405e+00	 6.748938e-01
1	 4.564383e+00	 3.374256e+00	 5.625371e-01
1	 5.031608e+00	 2.905000e+00	 8.856162e-01
1	 4.950608e+00	 3.045296e+00	 7.912345e-01
1	 4.869608e+00	 3.185592e+00	 6.950742e-01
1	 4.788608e+00	 3.325888e+00	 5.971353e-01
1	 4.707608e+00	 3.466184e+00	 4.974179e-01
1	 4.626608e+00	 3.606481e+00	 3.959218e-01
1	 5.196152e+00	 3.000000e+00	 7.125912e-01
1	 5.096152e+00	 3.173205e+00	 6.254321e-01
1	 4.996152e+00	 3.346410e+00	 5.365125e-01
1	 4.896152e+00	 3.519615e+00	 4.458321e-01
1	 4.796152e+00	 3.692820e+00	 3.533911e-01
1	 4.696152e+00	 3.866025e+00	 2.591895e-01
2	 4.330127e+00	 2.500000e+00	 0.000000e+00
2	 4.330127e+00	 2.500000e+00	-3.482323e+15
2	 4.330127e+00	 2.500000e+00	-8.660605e+14
2	 4.330127e+00	 2.500000e+00	 8.433205e-17
2	 4.330127e+00	 2.500000e+00	-3.711557e+15
2	 4.330127e+00	 2.500000e+00	 0.000000e+00
2	 4.333787e+00	 2.513660e+00	 1.045681e+01
2	 4.332055e+00	 2.512660e+00	 1.082509e+01
2	 4.330323e+00	 2.511660e+00	 1.018290e+01
2	 4.328591e+00	 2.510660e+00	 8.530250e+00
2	 4.326859e+00	 2.509660e+00	 5.867136e+00
2	 4.325127e+00	 2.508660e+00	 2.193558e+00
2	 4.344768e+00	 2.554641e+00	 4.660302e+00
2	 4.337840e+00	 2.550641e+00	 4.841868e+00
2	 4.330912e+00	 2.546641e+00	 4.517488e+00
2	 4.323983e+00	 2.542641e+00	 3.687162e+00
2	 4.317055e+00	 2.538641e+00	 2.350890e+00
2	 4.310127e+00	 2.534641e+00	 5.086713e-01
2	 4.363069e+00	 2.622942e+00	 2.749280e+00
2	 4.347481e+00	 2.613942e+00	 2.860235e+00
2	 4.331892e+00	 2.604942e+00	 2.636145e+00
2	 4.316304e+00	 2.595942e+00	 2.077010e+00
2	 4.300715e+00	 2.586942e+00	 1.182832e+00
2	 4.285127e+00	 2.577942e+00	-4.639096e-02
2	 4.388691e+00	 2.718564e+00	 1.797735e+00
2	 4.360978e+00	 2.702564e+00	 1.871813e+00
2	 4.333265e+00	 2.686564e+00	 1.696809e+00
2	 4.305553e+00	 2.670564e+00	 1.272724e+00
2	 4.277840e+00	 2.654564e+00	 5.995574e-01
2	 4.250127e+00	 2.638564e+00	-3.226908e-01
2	 4.421633e+00	 2.841506e+00	 1.228076e+00
2	 4.378332e+00	 2.816506e+00	 1.279526e+00
2	 4.335031e+00	 2.791506e+00	 1.133635e+00
2	 4.291730e+00	 2.766506e+00	 7.904048e-01
2	 4.248428e+00	 2.741506e+00	 2.498341e-01
2	 4.205127e+00	 2.716506e+00	-4.880768e-01
2	 4.421633e+00	 2.841506e+00	 1.228076e+00
2	 4.378332e+00	 2.816506e+00	 1.279526e+00
2	 4.335031e+00	 2.791506e+00	 1.133635e+00
2	 4.291730e+00	 2.766506e+00	 7.904048e-01
2	 4.248428e+00	 2.741506e+00	 2.498341e-01
2	 4.205127e+00	 2.716506e+00	-4.880768e-01
2	 4.461896e+00	 2.991769e+00	 8.784376e-01
2	 4.399542e+00	 2.955769e+00	 9.110718e-01
2	 4.337189e+00	 2.919769e+00	 7.799253e-01
2	 4.274835e+00	 2.883769e+00	 4.849981e-01
2	 4.212481e+00	 2.847769e+00	 2.629011e-02
2	 4.150127e+00	 2.811769e+00	-5.961986e-01
2	 4.509479e+00	 3.169352e+00	 6.313395e-01
2	 4.424609e+00	 3.120352e+00	 6.545311e-01
2	 4.339738e+00	 3.071352e+00	 5.385605e-01
2	 4.254868e+00	 3.022352e+00	 2.834278e-01
2	 4.169998e+00	 2.973352e+00	-1.108670e-01
2	 4.085127e+00	 2.924352e+00	-6.443241e-01
2	 4.564383e+00	 3.374256e+00	 4.474617e-01
2	 4.453532e+00	 3.310256e+00	 4.657572e-01
2	 4.342681e+00	 3.246256e+00	 3.637086e-01
2	 4.231830e+00	 3.182256e+00	 1.413159e-01
2	 4.120978e+00	 3.118256e+00	-2.014208e-01
2	 4.010127e+00	 3.054256e+00	-6.645017e-01
2	 4.626608e+00	 3.606481e+00	 3.053023e-01
2	 4.486311e+00	 3.525481e+00	 3.210851e-01
2	 4.346015e+00	 3.444481e+00	 2.313700e-01
2	 4.205719e+00	 3.363481e+00	 3.615679e-02
2	 4.065423e+00	 3.282481e+00	-2.645544e-01
2	 3.925127e+00	 3.201481e+00	-6.707635e-01
2	 4.696152e+00	 3.866025e+00	 1.921145e-01
2	 4.522947e+00	 3.766025e+00	 2.067033e-01
2	 4.349742e+00	 3.666025e+00	 1.278031e-01
2	 4.176537e+00	 3.566025e+00	-4.458596e-02
2	 4.003332e+00	 3.466025e+00	-3.104639e-01
2	 3.830127e+00	 3.366025e+00	-6.698308e-01
3	 4.330127e+00	 2.500000e+00	 0.000000e+00
3	 4.330127e+00	 2.500000e+00	-6.633402e+15
3	 4.330127e+00	 2.500000e+00	-6.916405e+14
3	 4.330127e+00	 2.500000e+00	 6.575993e-17
3	 4.330127e+00	 2.500000e+00	-6.455644e+15
3	 4.330127e+00	 2.500000e+00	 0.000000e+00
3	 4.325127e+00	 2.508660e+00	 2.733884e+00
3	 4.323395e+00	 2.507660e+00	 7.488093e-01
3	 4.321663e+00	 2.506660e+00	-7.388115e-01
3	 4.319931e+00	 2.505660e+00	-1.728979e+00
3	 4.318199e+00	 2.504660e+00	-2.221692e+00
3	 4.316467e+00	 2.503660e+00	-2.216952e+00
3	 4.310127e+00	 2.534641e+00	 7.970237e-01
3	 4.303199e+00	 2.530641e+00	-2.079594e-01
3	 4.296271e+00	 2.526641e+00	-9.550843e-01
3	 4.289342e+00	 2.522641e+00	-1.444351e+00
3	 4.282414e+00	 2.518641e+00	-1.675759e+00
3	 4.275486e+00	 2.514641e+00	-1.649309e+00
3	 4.285127e+00	 2.577942e+00	 1.820895e-01
3	 4.269539e+00	 2.568942e+00	-4.864376e-01
3	 4.253950e+00	 2.559942e+00	-9.810841e-01
3	 4.238362e+00	 2.550942e+00	-1.301850e+00
3	 4.222773e+00	 2.541942e+00	-1.448735e+00
3	 4.207185e+00	 2.532942e+00	-1.421740e+00
3	 4.250127e+00	 2.638564e+00	-1.196240e-01
3	 4.222414e+00	 2.622564e+00	-6.180932e-01
3	 4.194701e+00	 2.606564e+00	-9.854419e-01
3	 4.166989e+00	 2.590564e+00	-1.221670e+00
3	 4.139276e+00	 2.574564e+00	-1.326777e+00
3	 4.111563e+00	 2.558564e+00	-1.300764e+00
3	 4.205127e+00	 2.716506e+00	-2.988109e-01
3	 4.161826e+00	 2.691506e+00	-6.946600e-01
3	 4.118524e+00	 2.666506e+00	-9.852911e-01
3	 4.075223e+00	 2.641506e+00	-1.170704e+00
3	 4.031922e+00	 2.616506e+00	-1.250900e+00
3	 3.988621e+00	 2.591506e+00	-1.225877e+00
3	 4.205127e+00	 2.716506e+00	-2.988109e-01
3	 4.161826e+00	 2.691506e+00	-6.946600e-01
3	 4.118524e+00	 2.666506e+00	-9.852911e-01
3	 4.075223e+00	 2.641506e+00	-1.170704e+00
3	 4.031922e+00	 2.616506e+00	-1.250900e+00
3	 3.988621e+00	 2.591506e+00	-1.225877e+00
3	 4.150127e+00	 2.811769e+00	-4.298017e-01
3	 4.087773e+00	 2.775769e+00	-7.651861e-01
3	 4.025419e+00	 2.739769e+00	-1.012004e+00
3	 3.963066e+00	 2.703769e+00	-1.170256e+00
3	 3.900712e+00	 2.667769e+00	-1.239942e+00
3	 3.838358e+00	 2.631769e+00	-1.221061e+00
3	 4.085127e+00	 2.924352e+00	-5.114420e-01
3	 4.000257e+00	 2.875352e+00	-8.048207e-01
3	 3.915386e+00	 2.826352e+00	-1.022018e+00
3	 3.830516e+00	 2.777352e+00	-1.163034e+00
3	 3.745645e+00	 2.728352e+00	-1.227869e+00
3	 3.660775e+00	 2.679352e+00	-1.216523e+00
3	 4.010127e+00	 3.054256e+00	-5.661509e-01
3	 3.899276e+00	 2.990256e+00	-8.286724e-01
3	 3.788425e+00	 2.926256e+00	-1.024570e+00
3	 3.677573e+00	 2.862256e+00	-1.153843e+00
3	 3.566722e+00	 2.798256e+00	-1.216493e+00
3	 3.455871e+00	 2.734256e+00	-1.212518e+00
3	 3.925127e+00	 3.201481e+00	-6.048378e-01
3	 3.784831e+00	 3.120481e+00	-8.437428e-01
3	 3.644535e+00	 3.039481e+00	-1.023616e+00
3	 3.504239e+00	 2.958481e+00	-1.144458e+00
3	 3.363943e+00	 2.877481e+00	-1.206269e+00
3	 3.223646e+00	 2.796481e+00	-1.209048e+00
3	 3.830127e+00	 3.366025e+00	-6.333527e-01
3	 3.656922e+00	 3.266025e+00	-8.536061e-01
3	 3.483717e+00	 3.166025e+00	-1.021002e+00
3	 3.310512e+00	 3.066025e+00	-1.135541e+00
3	 3.137307e+00	 2.966025e+00	-1.197223e+00
3	 2.964102e+00	 2.866025e+00	-1.206048e+00
4	 4.330127e+00	 2.500000e+00	 0.000000e+00
4	 4.330127e+00	 2.500000e+00	-8.942932e+15
4	 4.330127e+00	 2.500000e+00	-3.893614e+14
4	 4.330127e+00	 2.500000e+00	 2.748047e-17
4	 4.330127e+00	 2.500000e+00	-5.712968e+15
4	 4.330127e+00	 2.500000e+00	 0.000000e+00
4	 4.316467e+00	 2.503660e+00	-1.857411e+00
4	 4.317467e+00	 2.501928e+00	-1.946121e+00
4	 4.318467e+00	 2.500196e+00	-2.197489e+00
4	 4.319467e+00	 2.498464e+00	-2.611516e+00
4	 4.320467e+00	 2.496732e+00	-3.188202e+00
4	 4.321467e+00	 2.495000e+00	-3.927546e+00
4	 4.275486e+00	 2.514641e+00	-1.516582e+00
4	 4.279486e+00	 2.507713e+00	-1.560009e+00
4	 4.283486e+00	 2.500785e+00	-1.685226e+00
4	 4.287486e+00	 2.493856e+00	-1.892233e+00
4	 4.291486e+00	 2.486928e+00	-2.181031e+00
4	 4.295486e+00	 2.480000e+00	-2.551619e+00
4	 4.207185e+00	 2.532942e+00	-1.434185e+00
4	 4.216185e+00	 2.517354e+00	-1.458485e+00
4	 4.225185e+00	 2.501765e+00	-1.537170e+00
4	 4.234185e+00	 2.486177e+00	-1.670240e+00
4	 4.243185e+00	 2.470588e+00	-1.857696e+00
4	 4.252185e+00	 2.455000e+00	-2.099537e+00
4	 4.111563e+00	 2.558564e+00	-1.398839e+00
4	 4.127563e+00	 2.530851e+00	-1.412819e+00
4	 4.143563e+00	 2.503138e+00	-1.467397e+00
4	 4.159563e+00	 2.475426e+00	-1.562575e+00
4	 4.175563e+00	 2.447713e+00	-1.698351e+00
4	 4.191563e+00	 2.420000e+00	-1.874727e+00
4	 3.988621e+00	 2.591506e+00	-1.379504e+00
4	 4.013621e+00	 2.548205e+00	-1.387050e+00
4	 4.038621e+00	 2.504904e+00	-1.426896e+00
4	 4.063621e+00	 2.461603e+00	-1.499042e+00
4	 4.088621e+00	 2.418301e+00	-1.603488e+00
4	 4.113621e+00	 2.375000e+00	-1.740234e+00
4	 3.988621e+00	 2.591506e+00	-1.379504e+00
4	 4.013621e+00	 2.548205e+00	-1.387050e+00
4	 4.038621e+00	 2.504904e+00	-1.426896e+00
4	 4.063621e+00	 2.461603e+00	-1.499042e+00
4	 4.088621e+00	 2.418301e+00	-1.603488e+00
4	 4.113621e+00	 2.375000e+00	-1.740234e+00
4	 3.838358e+00	 2.631769e+00	-1.324600e+00
4	 3.874358e+00	 2.569415e+00	-1.326639e+00
4	 3.910358e+00	 2.507061e+00	-1.358963e+00
4	 3.946358e+00	 2.444708e+00	-1.421572e+00
4	 3.982358e+00	 2.382354e+00	-1.514466e+00
4	 4.018358e+00	 2.320000e+00	-1.637644e+00
4	 3.660775e+00	 2.679352e+00	-1.264994e+00
4	 3.709775e+00	 2.594482e+00	-1.274563e+00
4	 3.758775e+00	 2.509611e+00	-1.310811e+00
4	 3.807775e+00	 2.424741e+00	-1.373739e+00
4	 3.856775e+00	 2.339870e+00	-1.463346e+00
4	 3.905775e+00	 2.255000e+00	-1.579632e+00
4	 3.455871e+00	 2.734256e+00	-1.209140e+00
4	 3.519871e+00	 2.623405e+00	-1.230624e+00
4	 3.583871e+00	 2.512554e+00	-1.274900e+00
4	 3.647871e+00	 2.401703e+00	-1.341966e+00
4	 3.711871e+00	 2.290851e+00	-1.431824e+00
4	 3.775871e+00	 2.180000e+00	-1.544472e+00
4	 3.223646e+00	 2.796481e+00	-1.159091e+00
4	 3.304646e+00	 2.656184e+00	-1.193557e+00
4	 3.385646e+00	 2.515888e+00	-1.247089e+00
4	 3.466646e+00	 2.375592e+00	-1.319686e+00
4	 3.547646e+00	 2.235296e+00	-1.411347e+00
4	 3.628646e+00	 2.095000e+00	-1.522073e+00
4	 2.964102e+00	 2.866025e+00	-1.114889e+00
4	 3.064102e+00	 2.692820e+00	-1.162082e+00
4	 3.164102e+00	 2.519615e+00	-1.224916e+00
4	 3.264102e+00	 2.346410e+00	-1.303393e+00
4	 3.364102e+00	 2.173205e+00	-1.397511e+00
4	 3.464102e+00	 2.000000e+00	-1.507271e+00
5	 4.330127e+00	 2.500000e+00	 0.000000e+00
5	 4.330127e+00	 2.500000e+00	 6.577999e+15
5	 4.330127e+00	 2.500000e+00	-9.372709e+13
5	 4.330127e+00	 2.500000e+00	 1.321485e-17
5	 4.330127e+00	 2.500000e+00	 4.337208e+15
5	 4.330127e+00	 2.500000e+00	 0.000000e+00
5	 4.321467e+00	 2.495000e+00	 8.500286e-01
5	 4.322467e+00	 2.493268e+00	 3.927520e+00
5	 4.323467e+00	 2.491536e+00	 6.259863e+00
5	 4.324467e+00	 2.489804e+00	 7.847058e+00
5	 4.325467e+00	 2.488072e+00	 8.689105e+00
5	 4.326467e+00	 2.486340e+00	 8.786003e+00
5	 4.295486e+00	 2.480000e+00	-1.815128e-01
5	 4.299486e+00	 2.473072e+00	 1.358915e+00
5	 4.303486e+00	 2.466144e+00	 2.526138e+00
5	 4.307486e+00	 2.459215e+00	 3.320157e+00
5	 4.311486e+00	 2.452287e+00	 3.740971e+00
5	 4.315486e+00	 2.445359e+00	 3.788581e+00
5	 4.252185e+00	 2.455000e+00	-5.439250e-01
5	 4.261185e+00	 2.439412e+00	 4.888769e-01
5	 4.270185e+00	 2.423823e+00	 1.271505e+00
5	 4.279185e+00	 2.408235e+00	 1.803960e+00
5	 4.288185e+00	 2.392646e+00	 2.086242e+00
5	 4.297185e+00	 2.377058e+00	 2.118350e+00
5	 4.191563e+00	 2.420000e+00	-7.286121e-01
5	 4.207563e+00	 2.392287e+00	 5.126364e-02
5	 4.223563e+00	 2.364574e+00	 6.423032e-01
5	 4.239563e+00	 2.336862e+00	 1.044507e+00
5	 4.255563e+00	 2.309149e+00	 1.257874e+00
5	 4.271563e+00	 2.281436e+00	 1.282405e+00
5	 4.113621e+00	 2.375000e+00	-8.405383e-01
5	 4.138621e+00	 2.331699e+00	-2.121345e-01
5	 4.163621e+00	 2.288397e+00	 2.641784e-01
5	 4.188621e+00	 2.245096e+00	 5.884005e-01
5	 4.213621e+00	 2.201795e+00	 7.605317e-01
5	 4.238621e+00	 2.158494e+00	 7.805722e-01
5	 4.113621e+00	 2.375000e+00	-8.405383e-01
5	 4.138621e+00	 2.331699e+00	-2.121345e-01
5	 4.163621e+00	 2.288397e+00	 2.641784e-01
5	 4.188621e+00	 2.245096e+00	 5.884005e-01
5	 4.213621e+00	 2.201795e+00	 7.605317e-01
5	 4.238621e+00	 2.158494e+00	 7.805722e-01
5	 4.018358e+00	 2.320000e+00	-9.433396e-01
5	 4.054358e+00	 2.257646e+00	-4.070557e-01
5	 4.090358e+00	 2.195292e+00	 3.596424e-03
5	 4.126358e+00	 2.132939e+00	 2.886168e-01
5	 4.162358e+00	 2.070585e+00	 4.480055e-01
5	 4.198358e+00	 2.008231e+00	 4.817625e-01
5	 3.905775e+00	 2.255000e+00	-9.974725e-01
5	 3.954775e+00	 2.170130e+00	-5.310001e-01
5	 4.003775e+00	 2.085259e+00	-1.724877e-01
5	 4.052775e+00	 2.000389e+00	 7.806486e-02
5	 4.101775e+00	 1.915518e+00	 2.206575e-01
5	 4.150775e+00	 1.830648e+00	 2.552902e-01
5	 3.775871e+00	 2.180000e+00	-1.027519e+00
5	 3.839871e+00	 2.069149e+00	-6.155993e-01
5	 3.903871e+00	 1.958297e+00	-2.990569e-01
5	 3.967871e+00	 1.847446e+00	-7.789175e-02
5	 4.031871e+00	 1.736595e+00	 4.789603e-02
5	 4.095871e+00	 1.625744e+00	 7.830647e-02
5	 3.628646e+00	 2.095000e+00	-1.044635e+00
5	 3.709646e+00	 1.954704e+00	-6.764452e-01
5	 3.790646e+00	 1.814408e+00	-3.942440e-01
5	 3.871646e+00	 1.674112e+00	-1.980314e-01
5	 3.952646e+00	 1.533816e+00	-8.780756e-02
5	 4.033646e+00	 1.393519e+00	-6.357240e-02
5	 3.464102e+00	 2.000000e+00	-1.054388e+00
5	 3.564102e+00	 1.826795e+00	-7.220013e-01
5	 3.664102e+00	 1.653590e+00	-4.683426e-01
5	 3.764102e+00	 1.480385e+00	-2.934124e-01
5	 3.864102e+00	 1.307180e+00	-1.972106e-01
5	 3.964102e+00	 1.133975e+00	-1.797372e-01
6	 4.330127e+00	 2.500000e+00	 0.000000e+00
6	 4.330127e+00	 2.500000e+00	 4.874632e+15
6	 4.330127e+00	 2.500000e+00	-1.567686e+14
6	 4.330127e+00	 2.500000e+00	 1.473005e-17
6	 4.330127e+00	 2.500000e+00	 2.314145e+15
6	 4.330127e+00	 2.500000e+00	 0.000000e+00
6	 4.326467e+00	 2.486340e+00	 8.653660e+00
6	 4.328199e+00	 2.487340e+00	 1.109619e+01
6	 4.329931e+00	 2.488340e+00	 1.317670e+01
6	 4.331663e+00	 2.489340e+00	 1.489517e+01
6	 4.333395e+00	 2.490340e+00	 1.625160e+01
6	 4.335127e+00	 2.491340e+00	 1.724601e+01
6	 4.315486e+00	 2.445359e+00	 3.735385e+00
6	 4.322414e+00	 2.449359e+00	 4.948013e+00
6	 4.329342e+00	 2.453359e+00	 5.987898e+00
6	 4.336271e+00	 2.457359e+00	 6.855041e+00
6	 4.343199e+00	 2.461359e+00	 7.549442e+00
6	 4.350127e+00	 2.465359e+00	 8.071101e+00
6	 4.297185e+00	 2.377058e+00	 2.117077e+00
6	 4.312773e+00	 2.386058e+00	 2.917763e+00
6	 4.328362e+00	 2.395058e+00	 3.604952e+00
6	 4.343950e+00	 2.404058e+00	 4.178643e+00
6	 4.359539e+00	 2.413058e+00	 4.638838e+00
6	 4.375127e+00	 2.422058e+00	 4.985535e+00
6	 4.271563e+00	 2.281436e+00	 1.311881e+00
6	 4.299276e+00	 2.297436e+00	 1.906227e+00
6	 4.326989e+00	 2.313436e+00	 2.415976e+00
6	 4.354701e+00	 2.329436e+00	 2.841127e+00
6	 4.382414e+00	 2.345436e+00	 3.181682e+00
6	 4.410127e+00	 2.361436e+00	 3.437640e+00
6	 4.238621e+00	 2.158494e+00	 8.300314e-01
6	 4.281922e+00	 2.183494e+00	 1.300454e+00
6	 4.325223e+00	 2.208494e+00	 1.703389e+00
6	 4.368524e+00	 2.233494e+00	 2.038836e+00
6	 4.411826e+00	 2.258494e+00	 2.306796e+00
6	 4.455127e+00	 2.283494e+00	 2.507268e+00
6	 4.238621e+00	 2.158494e+00	 8.300314e-01
6	 4.281922e+00	 2.183494e+00	 1.300454e+00
6	 4.325223e+00	 2.208494e+00	 1.703389e+00
6	 4.368524e+00	 2.233494e+00	 2.038836e+00
6	 4.411826e+00	 2.258494e+00	 2.306796e+00
6	 4.455127e+00	 2.283494e+00	 2.507268e+00
6	 4.198358e+00	 2.008231e+00	 5.123615e-01
6	 4.260712e+00	 2.044231e+00	 9.114955e-01
6	 4.323066e+00	 2.080231e+00	 1.253283e+00
6	 4.385419e+00	 2.116231e+00	 1.537723e+00
6	 4.447773e+00	 2.152231e+00	 1.764817e+00
6	 4.510127e+00	 2.188231e+00	 1.934565e+00
6	 4.150775e+00	 1.830648e+00	 2.714922e-01
6	 4.235645e+00	 1.879648e+00	 6.235904e-01
6	 4.320516e+00	 1.928648e+00	 9.262539e-01
6	 4.405386e+00	 1.977648e+00	 1.179483e+00
6	 4.490257e+00	 2.026648e+00	 1.383277e+00
6	 4.575127e+00	 2.075648e+00	 1.537636e+00
6	 4.095871e+00	 1.625744e+00	 8.320459e-02
6	 4.206722e+00	 1.689744e+00	 4.021505e-01
6	 4.317573e+00	 1.753744e+00	 6.779612e-01
6	 4.428425e+00	 1.817744e+00	 9.106367e-01
6	 4.539276e+00	 1.881744e+00	 1.100177e+00
6	 4.650127e+00	 1.945744e+00	 1.246582e+00
6	 4.033646e+00	 1.393519e+00	-6.776613e-02
6	 4.173943e+00	 1.474519e+00	 2.266536e-01
6	 4.314239e+00	 1.555519e+00	 4.830543e-01
6	 4.454535e+00	 1.636519e+00	 7.014361e-01
6	 4.594831e+00	 1.717519e+00	 8.817988e-01
6	 4.735127e+00	 1.798519e+00	 1.024143e+00
6	 3.964102e+00	 1.133975e+00	-1.913933e-01
6	 4.137307e+00	 1.233975e+00	 8.419862e-02
6	 4.310512e+00	 1.333975e+00	 3.260010e-01
6	 4.483717e+00	 1.433975e+00	 5.340138e-01
6	 4.656922e+00	 1.533975e+00	 7.082370e-01
6	 4.830127e+00	 1.633975e+00	 8.486706e-01
7	 4.330127e+00	 2.500000e+00	 0.000000e+00
7	 4.330127e+00	 2.500000e+00	 2.150986e+15
7	 4.330127e+00	 2.500000e+00	-1.048641e+14
7	 4.330127e+00	 2.500000e+00	 1.101146e-17
7	 4.330127e+00	 2.500000e+00	 1.195740e+15
7	 4.330127e+00	 2.500000e+00	 0.000000e+00
7	 4.335127e+00	 2.491340e+00	 1.476593e+01
7	 4.336859e+00	 2.492340e+00	 1.510737e+01
7	 4.338591e+00	 2.493340e+00	 1.466227e+01
7	 4.340323e+00	 2.494340e+00	 1.343064e+01
7	 4.342055e+00	 2.495340e+00	 1.141246e+01
7	 4.343787e+00	 2.496340e+00	 8.607750e+00
7	 4.350127e+00	 2.465359e+00	 6.816803e+00
7	 4.357055e+00	 2.469359e+00	 6.994865e+00
7	 4.363983e+00	 2.473359e+00	 6.779767e+00
7	 4.370912e+00	 2.477359e+00	 6.171507e+00
7	 4.377840e+00	 2.481359e+00	 5.170087e+00
7	 4.384768e+00	 2.485359e+00	 3.775507e+00
7	 4.375127e+00	 2.422058e+00	 4.150099e+00
7	 4.390715e+00	 2.431058e+00	 4.282590e+00
7	 4.406304e+00	 2.440058e+00	 4.155750e+00
7	 4.421892e+00	 2.449058e+00	 3.769579e+00
7	 4.437481e+00	 2.458058e+00	 3.124076e+00
7	 4.453069e+00	 2.467058e+00	 2.219241e+00
7	 4.410127e+00	 2.361436e+00	 2.813560e+00
7	 4.437840e+00	 2.377436e+00	 2.924933e+00
7	 4.465553e+00	 2.393436e+00	 2.844395e+00
7	 4.493265e+00	 2.409436e+00	 2.571948e+00
7	 4.520978e+00	 2.425436e+00	 2.107591e+00
7	 4.548691e+00	 2.441436e+00	 1.451324e+00
7	 4.455127e+00	 2.283494e+00	 2.010617e+00
7	 4.498428e+00	 2.308494e+00	 2.109852e+00
7	 4.541730e+00	 2.333494e+00	 2.057792e+00
7	 4.585031e+00	 2.358494e+00	 1.854437e+00
7	 4.628332e+00	 2.383494e+00	 1.499787e+00
7	 4.671633e+00	 2.408494e+00	 9.938428e-01
7	 4.455127e+00	 2.283494e+00	 2.010617e+00
7	 4.498428e+00	 2.308494e+00	 2.109852e+00
7	 4.541730e+00	 2.333494e+00	 2.057792e+00
7	 4.585031e+00	 2.358494e+00	 1.854437e+00
7	 4.628332e+00	 2.383494e+00	 1.499787e+00
7	 4.671633e+00	 2.408494e+00	 9.938428e-01
7	 4.510127e+00	 2.188231e+00	 1.532555e+00
7	 4.572481e+00	 2.224231e+00	 1.607278e+00
7	 4.634835e+00	 2.260231e+00	 1.562693e+00
7	 4.697189e+00	 2.296231e+00	 1.398801e+00
7	 4.759542e+00	 2.332231e+00	 1.115602e+00
7	 4.821896e+00	 2.368231e+00	 7.130961e-01
7	 4.575127e+00	 2.075648e+00	 1.214902e+00
7	 4.659998e+00	 2.124648e+00	 1.267512e+00
7	 4.744868e+00	 2.173648e+00	 1.220731e+00
7	 4.829738e+00	 2.222648e+00	 1.074559e+00
7	 4.914609e+00	 2.271648e+00	 8.289956e-01
7	 4.999479e+00	 2.320648e+00	 4.840414e-01
7	 4.650127e+00	 1.945744e+00	 9.896890e-01
7	 4.760978e+00	 2.009744e+00	 1.023197e+00
7	 4.871830e+00	 2.073744e+00	 9.706470e-01
7	 4.982681e+00	 2.137744e+00	 8.320398e-01
7	 5.093532e+00	 2.201744e+00	 6.073751e-01
7	 5.204383e+00	 2.265744e+00	 2.966528e-01
7	 4.735127e+00	 1.798519e+00	 8.222425e-01
7	 4.875423e+00	 1.879519e+00	 8.394011e-01
7	 5.015719e+00	 1.960519e+00	 7.799225e-01
7	 5.156015e+00	 2.041519e+00	 6.438066e-01
7	 5.296311e+00	 2.122519e+00	 4.310535e-01
7	 5.436608e+00	 2.203519e+00	 1.416631e-01
7	 4.830127e+00	 1.633975e+00	 6.931484e-01
7	 5.003332e+00	 1.733975e+00	 6.962879e-01
7	 5.176537e+00	 1.833975e+00	 6.297276e-01
7	 5.349742e+00	 1.933975e+00	 4.934676e-01
7	 5.522947e+00	 2.033975e+00	 2.875078e-01
7	 5.696152e+00	 2.133975e+00	 1.184827e-02
8	 4.330127e+00	 2.500000e+00	 0.000000e+00
8	 4.330127e+00	 2.500000e+00	 1.277426e+15
8	 4.330127e+00	 2.500000e+00	-2.201997e+14
8	 4.330127e+00	 2.500000e+00	 2.518027e-17
8	 4.330127e+00	 2.500000e+00	 3.284174e+14
8	 4.330127e+00	 2.500000e+00	 0.000000e+00
8	 4.343787e+00	 2.496340e+00	 8.739898e+00
8	 4.342787e+00	 2.498072e+00	 1.075983e+01
8	 4.341787e+00	 2.499804e+00	 1.216433e+01
8	 4.340787e+00	 2.501536e+00	 1.295339e+01
8	 4.339787e+00	 2.503268e+00	 1.312702e+01
8	 4.338787e+00	 2.505000e+00	 1.268520e+01
8	 4.384768e+00	 2.485359e+00	 3.866375e+00
8	 4.380768e+00	 2.492287e+00	 4.858498e+00
8	 4.376768e+00	 2.499215e+00	 5.546594e+00
8	 4.372768e+00	 2.506144e+00	 5.930665e+00
8	 4.368768e+00	 2.513072e+00	 6.010709e+00
8	 4.364768e+00	 2.520000e+00	 5.786728e+00
8	 4.453069e+00	 2.467058e+00	 2.294657e+00
8	 4.444069e+00	 2.482646e+00	 2.934551e+00
8	 4.435069e+00	 2.498235e+00	 3.374691e+00
8	 4.426069e+00	 2.513823e+00	 3.615078e+00
8	 4.417069e+00	 2.529412e+00	 3.655712e+00
8	 4.408069e+00	 2.545000e+00	 3.496591e+00
8	 4.548691e+00	 2.441436e+00	 1.518695e+00
8	 4.532691e+00	 2.469149e+00	 1.980671e+00
8	 4.516691e+00	 2.496862e+00	 2.295117e+00
8	 4.500691e+00	 2.524574e+00	 2.462033e+00
8	 4.484691e+00	 2.552287e+00	 2.481420e+00
8	 4.468691e+00	 2.580000e+00	 2.353277e+00
8	 4.671633e+00	 2.408494e+00	 1.056286e+00
8	 4.646633e+00	 2.451795e+00	 1.410933e+00
8	 4.621633e+00	 2.495096e+00	 1.649413e+00
8	 4.596633e+00	 2.538397e+00	 1.771726e+00
8	 4.571633e+00	 2.581699e+00	 1.777871e+00
8	 4.546633e+00	 2.625000e+00	 1.667849e+00
8	 4.671633e+00	 2.408494e+00	 1.056286e+00
8	 4.646633e+00	 2.451795e+00	 1.410933e+00
8	 4.621633e+00	 2.495096e+00	 1.649413e+00
8	 4.596633e+00	 2.538397e+00	 1.771726e+00
8	 4.571633e+00	 2.581699e+00	 1.777871e+00
8	 4.546633e+00	 2.625000e+00	 1.667849e+00
8	 4.821896e+00	 2.368231e+00	 7.176440e-01
8	 4.785896e+00	 2.430585e+00	 1.009103e+00
8	 4.749896e+00	 2.492939e+00	 1.207214e+00
8	 4.713896e+00	 2.555292e+00	 1.311976e+00
8	 4.677896e+00	 2.617646e+00	 1.323390e+00
8	 4.641896e+00	 2.680000e+00	 1.241456e+00
8	 4.999479e+00	 2.320648e+00	 4.820148e-01
8	 4.950479e+00	 2.405518e+00	 7.328525e-01
8	 4.901479e+00	 2.490389e+00	 9.054842e-01
8	 4.852479e+00	 2.575259e+00	 9.999097e-01
8	 4.803479e+00	 2.660130e+00	 1.016129e+00
8	 4.754479e+00	 2.745000e+00	 9.541427e-01
8	 5.204383e+00	 2.265744e+00	 3.087152e-01
8	 5.140383e+00	 2.376595e+00	 5.315546e-01
8	 5.076383e+00	 2.487446e+00	 6.869122e-01
8	 5.012383e+00	 2.598297e+00	 7.747879e-01
8	 4.948383e+00	 2.709149e+00	 7.951816e-01
8	 4.884383e+00	 2.820000e+00	 7.480935e-01
8	 5.436608e+00	 2.203519e+00	 1.759546e-01
8	 5.355608e+00	 2.343816e+00	 3.784801e-01
8	 5.274608e+00	 2.484112e+00	 5.214898e-01
8	 5.193608e+00	 2.624408e+00	 6.049838e-01
8	 5.112608e+00	 2.764704e+00	 6.289620e-01
8	 5.031608e+00	 2.905000e+00	 5.934245e-01
8	 5.696152e+00	 2.133975e+00	 7.102376e-02
8	 5.596152e+00	 2.307180e+00	 2.582194e-01
8	 5.496152e+00	 2.480385e+00	 3.920361e-01
8	 5.396152e+00	 2.653590e+00	 4.724737e-01
8	 5.296152e+00	 2.826795e+00	 4.995324e-01
8	 5.196152e+00	 3.000000e+00	 4.732120e-01
9	-4.330127e+00	-2.500000e+00	 0.000000e+00
9	-4.330127e+00	-2.500000e+00	 6.577999e+15
9	-4.330127e+00	-2.500000e+00	-9.372709e+13
9	-4.330127e+00	-2.500000e+00	 1.321485e-17
9	-4.330127e+00	-2.500000e+00	 4.337208e+15
9	-4.330127e+00	-2.500000e+00	 0.000000e+00
9	-4.321467e+00	-2.495000e+00	 8.500286e-01
9	-4.322467e+00	-2.493268e+00	 3.927520e+00
9	-4.323467e+00	-2.491536e+00	 6.259863e+00
9	-4.324467e+00	-2.489804e+00	 7.847058e+00
9	-4.325467e+00	-2.488072e+00	 8.689105e+00
9	-4.326467e+00	-2.486340e+00	 8.786003e+00
9	-4.295486e+00	-2.480000e+00	-1.815128e-01
9	-4.299486e+00	-2.473072e+00	 1.358915e+00
9	-4.303486e+00	-2.466144e+00	 2.526138e+00
9	-4.307486e+00	-2.459215e+00	 3.320157e+00
9	-4.311486e+00	-2.452287e+00	 3.740971e+00
9	-4.315486e+00	-2.445359e+00	 3.788581e+00
9	-4.252185e+00	-2.455000e+00	-5.439250e-01
9	-4.261185e+00	-2.439412e+00	 4.888769e-01
9	-4.270185e+00	-2.423823e+00	 1.271505e+00
9	-4.279185e+00	-2.408235e+00	 1.803960e+00
9	-4.288185e+00	-2.392646e+00	 2.086242e+00
9	-4.297185e+00	-2.377058e+00	 2.118350e+00
9	-4.191563e+00	-2.420000e+00	-7.286121e-01
9	-4.207563e+00	-2.392287e+00	 5.126364e-02
9	-4.223563e+00	-2.364574e+00	 6.423032e-01
9	-4.239563e+00	-2.336862e+00	 1.044507e+00
9	-4.255563e+00	-2.309149e+00	 1.257874e+00
9	-4.271563e+00	-2.281436e+00	 1.282405e+00
9	-4.113621e+00	-2.375000e+00	-8.405383e-01
9	-4.138621e+00	-2.331699e+00	-2.121345e-01
9	-4.163621e+00	-2.288397e+00	 2.641784e-01
9	-4.188621e+00	-2.245096e+00	 5.884005e-01
9	-4.213621e+00	-2.201795e+00	 7.605317e-01
9	-4.238621e+00	-2.158494e+00	 7.805722e-01
9	-4.113621e+00	-2.375000e+00	-8.405383e-01
9	-4.138621e+00	-2.331699e+00	-2.121345e-01
9	-4.163621e+00	-2.288397e+00	 2.641784e-01
9	-4.188621e+00	-2.245096e+00	 5.884005e-01
9	-4.213621e+00	-2.201795e+00	 7.605317e-01
9	-4.238621e+00	-2.158494e+00	 7.805722e-01
9	-4.018358e+00	-2.320000e+00	-9.433396e-01
9	-4.054358e+00	-2.257646e+00	-4.070557e-01
9	-4.090358e+00	-2.195292e+00	 3.596424e-03
9	-4.126358e+00	-2.132939e+00	 2.886168e-01
9	-4.162358e+00	-2.070585e+00	 4.480055e-01
9	-4.198358e+00	-2.008231e+00	 4.817625e-01
9	-3.905775e+00	-2.255000e+00	-9.974725e-01
9	-3.954775e+00	-2.170130e+00	-5.310001e-01
9	-4.003775e+00	-2.085259e+00	-1.724877e-01
9	-4.052775e+00	-2.000389e+00	 7.806486e-02
9	-4.101775e+00	-1.915518e+00	 2.206575e-01
9	-4.150775e+00	-1.830648e+00	 2.552902e-01
9	-3.775871e+00	-2.180000e+00	-1.027519e+00
9	-3.839871e+00	-2.069149e+00	-6.155993e-01
9	-3.903871e+00	-1.958297e+00	-2.990569e-01
9	-3.967871e+00	-1.847446e+00	-7.789175e-02
9	-4.031871e+00	-1.736595e+00	 4.789603e-02
9	-4.095871e+00	-1.625744e+00	 7.830647e-02
9	-3.628646e+00	-2.095000e+00	-1.044635e+00
9	-3.709646e+00	-1.954704e+00	-6.764452e-01
9	-3.790646e+00	-1.814408e+00	-3.942440e-01
9	-3.871646e+00	-1.674112e+00	-1.980314e-01
9	-3.952646e+00	-1.533816e+00	-8.780756e-02
9	-4.033646e+00	-1.393519e+00	-6.357240e-02
9	-3.464102e+00	-2.000000e+00	-1.054388e+00
9	-3.564102e+00	-1.826795e+00	-7.220013e-01
9	-3.664102e+00	-1.653590e+00	-4.683426e-01
9	-3.764102e+00	-1.480385e+00	-2.934124e-01
9	-3.864102e+00	-1.307180e+00	-1.972106e-01
9	-3.964102e+00	-1.133975e+00	-1.797372e-01
10	-4.330127e+00	-2.500000e+00	 0.000000e+00
10	-4.330127e+00	-2.500000e+00	 4.874632e+15
10	-4.330127e+00	-2.500000e+00	-1.567686e+14
10	-4.330127e+00	-2.500000e+00	 1.473005e-17
10	-4.330127e+00	-2.500000e+00	 2.314145e+15
10	-4.330127e+00	-2.500000e+00	 0.000000e+00
10	-4.326467e+00	-2.486340e+00	 8.653660e+00
10	-4.328199e+00	-2.487340e+00	 1.109619e+01
10	-4.329931e+00	-2.488340e+00	 1.317670e+01
10	-4.331663e+00	-2.489340e+00	 1.489517e+01
10	-4.333395e+00	-2.490340e+00	 1.625160e+01
10	-4.335127e+00	-2.491340e+00	 1.724601e+01
10	-4.315486e+00	-2.445359e+00	 3.735385e+00
10	-4.322414e+00	-2.449359e+00	 4.948013e+00
10	-4.329342e+00	-2.453359e+00	 5.987898e+00
10	-4.336271e+00	-2.457359e+00	 6.855041e+00
10	-4.343199e+00	-2.461359e+00	 7.549442e+00
10	-4.350127e+00	-2.465359e+00	 8.071101e+00
10	-4.297185e+00	-2.377058e+00	 2.117077e+00
10	-4.312773e+00	-2.386058e+00	 2.917763e+00
10	-4.328362e+00	-2.395058e+00	 3.604952e+00
10	-4.343950e+00	-2.404058e+00	 4.178643e+00
10	-4.359539e+00	-2.413058e+00	 4.638838e+00
10	-4.375127e+00	-2.422058e+00	 4.985535e+00
10	-4.271563e+00	-2.281436e+00	 1.311881e+00
10	-4.299276e+00	-2.297436e+00	 1.906227e+00
10	-4.326989e+00	-2.313436e+00	 2.415976e+00
10	-4.354701e+00	-2.329436e+00	 2.841127e+00
10	-4.382414e+00	-2.345436e+00	 3.181682e+00
10	-4.410127e+00	-2.361436e+00	 3.437640e+00
10	-4.238621e+00	-2.158494e+00	 8.300314e-01
10	-4.281922e+00	-2.183494e+00	 1.300454e+00
10	-4.325223e+00	-2.208494e+00	 1.703389e+00
10	-4.368524e+00	-2.233494e+00	 2.038836e+00
10	-4.411826e+00	-2.258494e+00	 2.306796e+00
10	-4.455127e+00	-2.283494e+00	 2.507268e+00
10	-4.238621e+00	-2.158494e+00	 8.300314e-01
10	-4.281922e+00	-2.183494e+00	 1.300454e+00
10	-4.325223e+00	-2.208494e+00	 1.703389e+00
10	-4.368524e+00	-2.233494e+00	 2.038836e+00
10	-4.411826e+00	-2.258494e+00	 2.306796e+00
10	-4.455127e+00	-2.283494e+00	 2.507268e+00
10	-4.198358e+00	-2.008231e+00	 5.123615e-01
10	-4.260712e+00	-2.044231e+00	 9.114955e-01
10	-4.323066e+00	-2.080231e+00	 1.253283e+00
10	-4.385419e+00	-2.116231e+00	 1.537723e+00
10	-4.447773e+00	-2.152231e+00	 1.764817e+00
10	-4.510127e+00	-2.188231e+00	 1.934565e+00
10	-4.150775e+00	-1.830648e+00	 2.714922e-01
10	-4.235645e+00	-1.879648e+00	 6.235904e-01
10	-4.320516e+00	-1.928648e+00	 9.262539e-01
10	-4.405386e+00	-1.977648e+00	 1.179483e+00
10	-4.490257e+00	-2.026648e+00	 1.383277e+00
10	-4.575127e+00	-2.075648e+00	 1.537636e+00
10	-4.095871e+00	-1.625744e+00	 8.320459e-02
10	-4.206722e+00	-1.689744e+00	 4.021505e-01
10	-4.317573e+00	-1.753744e+00	 6.779612e-01
10	-4.428425e+00	-1.817744e+00	 9.106367e-01
10	-4.539276e+00	-1.881744e+00	 1.100177e+00
10	-4.650127e+00	-1.945744e+00	 1.246582e+00
10	-4.033646e+00	-1.393519e+00	-6.776613e-02
10	-4.173943e+00	-1.474519e+00	 2.266536e-01
10	-4.314239e+00	-1.555519e+00	 4.830543e-01
10	-4.454535e+00	-1.636519e+00	 7.014361e-01
10	-4.594831e+00	-1.717519e+00	 8.817988e-01
10	-4.735127e+00	-1.798519e+00	 1.024143e+00
10	-3.964102e+00	-1.133975e+00	-1.913933e-01
10	-4.137307e+00	-1.233975e+00	 8.419862e-02
10	-4.310512e+00	-1.333975e+00	 3.260010e-01
10	-4.483717e+00	-1.433975e+00	 5.340138e-01
10	-4.656922e+00	-1.533975e+00	 7.082370e-01
10	-4.830127e+00	-1.633975e+00	 8.486706e-01
11	-4.330127e+00	-2.500000e+00	 0.000000e+00
11	-4.330127e+00	-2.500000e+00	 2.150986e+15
11	-4.330127e+00	-2.500000e+00	-1.048641e+14
11	-4.330127e+00	-2.500000e+00	 1.101146e-17
11	-4.330127e+00	-2.500000e+00	 1.195740e+15
11	-4.330127e+00	-2.500000e+00	 0.000000e+00
11	-4.335127e+00	-2.491340e+00	 1.476593e+01
11	-4.336859e+00	-2.492340e+00	 1.510737e+01
11	-4.338591e+00	-2.493340e+00	 1.466227e+01
11	-4.340323e+00	-2.494340e+00	 1.343064e+01
11	-4.342055e+00	-2.495340e+00	 1.141246e+01
11	-4.343787e+00	-2.496340e+00	 8.607750e+00
11	-4.350127e+00	-2.465359e+00	 6.816803e+00
11	-4.357055e+00	-2.469359e+00	 6.994865e+00
11	-4.363983e+00	-2.473359e+00	 6.779767e+00
11	-4.370912e+00	-2.477359e+00	 6.171507e+00
11	-4.377840e+00	-2.481359e+00	 5.170087e+00
11	-4.384768e+00	-2.485359e+00	 3.775507e+00
11	-4.375127e+00	-2.422058e+00	 4.150099e+00
11	-4.390715e+00	-2.431058e+00	 4.282590e+00
11	-4.406304e+00	-2.440058e+00	 4.155750e+00
11	-4.421892e+00	-2.449058e+00	 3.769579e+00
11	-4.437481e+00	-2.458058e+00	 3.124076e+00
11	-4.453069e+00	-2.467058e+00	 2.219241e+00
11	-4.410127e+00	-2.361436e+00	 2.813560e+00
11	-4.437840e+00	-2.377436e+00	 2.924933e+00
11	-4.465553e+00	-2.393436e+00	 2.844395e+00
11	-4.493265e+00	-2.409436e+00	 2.571948e+00
11	-4.520978e+00	-2.425436e+00	 2.107591e+00
11	-4.548691e+00	-2.441436e+00	 1.451324e+00
11	-4.455127e+00	-2.283494e+00	 2.010617e+00
11	-4.498428e+00	-2.308494e+00	 2.109852e+00
11	-4.541730e+00	-2.333494e+00	 2.057792e+00
11	-4.585031e+00	-2.358494e+00	 1.854437e+00
11	-4.628332e+00	-2.383494e+00	 1.499787e+00
11	-4.671633e+00	-2.408494e+00	 9.938428e-01
11	-4.455127e+00	-2.283494e+00	 2.010617e+00
11	-4.498428e+00	-2.308494e+00	 2.109852e+00
11	-4.541730e+00	-2.333494e+00	 2.057792e+00
11	-4.585031e+00	-2.358494e+00	 1.854437e+00
11	-4.628332e+00	-2.383494e+00	 1.499787e+00
11	-4.671633e+00	-2.408494e+00	 9.938428e-01
11	-4.510127e+00	-2.188231e+00	 1.532555e+00
11	-4.572481e+00	-2.224231e+00	 1.607278e+00
11	-4.634835e+00	-2.260231e+00	 1.562693e+00
11	-4.697189e+00	-2.296231e+00	 1.398801e+00
11	-4.759542e+00	-2.332231e+00	 1.115602e+00
11	-4.821896e+00	-2.368231e+00	 7.130961e-01
11	-4.575127e+00	-2.075648e+00	 1.214902e+00
11	-4.659998e+00	-2.124648e+00	 1.267512e+00
11	-4.744868e+00	-2.173648e+00	 1.220731e+00
11	-4.829738e+00	-2.222648e+00	 1.074559e+00
11	-4.914609e+00	-2.271648e+00	 8.289956e-01
11	-4.999479e+00	-2.320648e+00	 4.840414e-01
11	-4.650127e+00	-1.945744e+00	 9.896890e-01
11	-4.760978e+00	-2.009744e+00	 1.023197e+00
11	-4.871830e+00	-2.073744e+00	 9.706470e-01
11	-4.982681e+00	-2.137744e+00	 8.320398e-01
11	-5.093532e+00	-2.201744e+00	 6.073751e-01
11	-5.204383e+00	-2.265744e+00	 2.966528e-01
11	-4.735127e+00	-1.798519e+00	 8.222425e-01
11	-4.875423e+00	-1.879519e+00	 8.394011e-01
11	-5.015719e+00	-1.960519e+00	 7.799225e-01
11	-5.156015e+00	-2.041519e+00	 6.438066e-01
11	-5.296311e+00	-2.122519e+00	 4.310535e-01
11	-5.436608e+00	-2.203519e+00	 1.416631e-01
11	-4.830127e+00	-1.633975e+00	 6.931484e-01
11	-5.003332e+00	-1.733975e+00	 6.962879e-01
11	-5.176537e+00	-1.833975e+00	 6.297276e-01
11	-5.349742e+00	-1.933975e+00	 4.934676e-01
11	-5.522947e+00	-2.033975e+00	 2.875078e-01
11	-5.696152e+00	-2.133975e+00	 1.184827e-02
12	-4.330127e+00	-2.500000e+00	 0.000000e+00
12	-4.330127e+00	-2.500000e+00	 1.277426e+15
12	-4.330127e+00	-2.500000e+00	-2.201997e+14
12	-4.330127e+00	-2.500000e+00	 2.518027e-17
12	-4.330127e+00	-2.500000e+00	 3.284174e+14
12	-4.330127e+00	-2.500000e+00	 0.000000e+00
12	-4.343787e+00	-2.496340e+00	 8.739898e+00
12	-4.342787e+00	-2.498072e+00	 1.075983e+01
12	-4.341787e+00	-2.499804e+00	 1.216433e+01
12	-4.340787e+00	-2.501536e+00	 1.295339e+01
12	-4.339787e+00	-2.503268e+00	 1.312702e+01
12	-4.338787e+00	-2.505000e+00	 1.268520e+01
12	-4.384768e+00	-2.485359e+00	 3.866375e+00
12	-4.380768e+00	-2.492287e+00	 4.858498e+00
12	-4.376768e+00	-2.499215e+00	 5.546594e+00
12	-4.372768e+00	-2.506144e+00	 5.930665e+00
12	-4.368768e+00	-2.513072e+00	 6.010709e+00
12	-4.364768e+00	-2.520000e+00	 5.786728e+00
12	-4.453069e+00	-2.467058e+00	 2.294657e+00
12	-4.444069e+00	-2.482646e+00	 2.934551e+00
12	-4.435069e+00	-2.498235e+00	 3.374691e+00
12	-4.426069e+00	-2.513823e+00	 3.615078e+00
12	-4.417069e+00	-2.529412e+00	 3.655712e+00
12	-4.408069e+00	-2.545000e+00	 3.496591e+00
12	-4.548691e+00	-2.441436e+00	 1.518695e+00
12	-4.532691e+00	-2.469149e+00	 1.980671e+00
12	-4.516691e+00	-2.496862e+00	 2.295117e+00
12	-4.500691e+00	-2.524574e+00	 2.462033e+00
12	-4.484691e+00	-2.552287e+00	 2.481420e+00
12	-4.468691e+00	-2.580000e+00	 2.353277e+00
12	-4.671633e+00	-2.408494e+00	 1.056286e+00
12	-4.646633e+00	-2.451795e+00	 1.410933e+00
12	-4.621633e+00	-2.495096e+00	 1.649413e+00
12	-4.596633e+00	-2.538397e+00	 1.771726e+00
12	-4.571633e+00	-2.581699e+00	 1.777871e+00
12	-4.546633e+00	-2.625000e+00	 1.667849e+00
12	-4.671633e+00	-2.408494e+00	 1.056286e+00
12	-4.646633e+00	-2.451795e+00	 1.410933e+00
12	-4.621633e+00	-2.495096e+00	 1.649413e+00
12	-4.596633e+00	-2.538397e+00	 1.771726e+00
12	-4.571633e+00	-2.581699e+00	 1.777871e+00
12	-4.546633e+00	-2.625000e+00	 1.667849e+00
12	-4.821896e+00	-2.368231e+00	 7.176440e-01
12	-4.785896e+00	-2.430585e+00	 1.009103e+00
12	-4.749896e+00	-2.492939e+00	 1.207214e+00
12	-4.713896e+00	-2.555292e+00	 1.311976e+00
12	-4.677896e+00	-2.617646e+00	 1.323390e+00
12	-4.641896e+00	-2.680000e+00	 1.241456e+00
12	-4.999479e+00	-2.320648e+00	 4.820148e-01
12	-4.950479e+00	-2.405518e+00	 7.328525e-01
12	-4.901479e+00	-2.490389e+00	 9.054842e-01
12	-4.852479e+00	-2.575259e+00	 9.999097e-01
12	-4.803479e+00	-2.660130e+00	 1.016129e+00
12	-4.754479e+00	-2.745000e+00	 9.541427e-01
12	-5.204383e+00	-2.265744e+00	 3.087152e-01
12	-5.140383e+00	-2.376595e+00	 5.315546e-01
12	-5.076383e+00	-2.487446e+00	 6.869122e-01
12	-5.012383e+00	-2.598297e+00	 7.747879e-01
12	-4.948383e+00	-2.709149e+00	 7.951816e-01
12	-4.884383e+00	-2.820000e+00	 7.480935e-01
12	-5.436608e+00	-2.203519e+00	 1.759546e-01
12	-5.355608e+00	-2.343816e+00	 3.784801e-01
12	-5.274608e+00	-2.484112e+00	 5.214898e-01
12	-5.193608e+00	-2.624408e+00	 6.049838e-01
12	-5.112608e+00	-2.764704e+00	 6.289620e-01
12	-5.031608e+00	-2.905000e+00	 5.934245e-01
12	-5.696152e+00	-2.133975e+00	 7.102376e-02
12	-5.596152e+00	-2.307180e+00	 2.582194e-01
12	-5.496152e+00	-2.480385e+00	 3.920361e-01
12	-5.396152e+00	-2.653590e+00	 4.724737e-01
12	-5.296152e+00	-2.826795e+00	 4.995324e-01
12	-5.196152e+00	-3.000000e+00	 4.732120e-01
13	-4.330127e+00	-2.500000e+00	 0.000000e+00
13	-4.330127e+00	-2.500000e+00	-5.946716e+14
13	-4.330127e+00	-2.500000e+00	-6.072769e+14
13	-4.330127e+00	-2.500000e+00	 6.888142e-17
13	-4.330127e+00	-2.500000e+00	-1.689758e+15
13	-4.330127e+00	-2.500000e+00	-0.000000e+00
13	-4.338787e+00	-2.505000e+00	 1.585885e+01
13	-4.337787e+00	-2.506732e+00	 1.512178e+01
13	-4.336787e+00	-2.508464e+00	 1.431943e+01
13	-4.335787e+00	-2.510196e+00	 1.345180e+01
13	-4.334787e+00	-2.511928e+00	 1.251889e+01
13	-4.333787e+00	-2.513660e+00	 1.152070e+01
13	-4.364768e+00	-2.520000e+00	 7.366598e+00
13	-4.360768e+00	-2.526928e+00	 6.994075e+00
13	-4.356768e+00	-2.533856e+00	 6.589550e+00
13	-4.352768e+00	-2.540785e+00	 6.153022e+00
13	-4.348768e+00	-2.547713e+00	 5.684493e+00
13	-4.344768e+00	-2.554641e+00	 5.183961e+00
13	-4.408069e+00	-2.545000e+00	 4.551834e+00
13	-4.399069e+00	-2.560588e+00	 4.295190e+00
13	-4.390069e+00	-2.576177e+00	 4.018753e+00
13	-4.381069e+00	-2.591765e+00	 3.722523e+00
13	-4.372069e+00	-2.607354e+00	 3.406502e+00
13	-4.363069e+00	-2.622942e+00	 3.070687e+00
13	-4.468691e+00	-2.580000e+00	 3.147449e+00
13	-4.452691e+00	-2.607713e+00	 2.947687e+00
13	-4.436691e+00	-2.635426e+00	 2.734447e+00
13	-4.420691e+00	-2.663138e+00	 2.507729e+00
13	-4.404691e+00	-2.690851e+00	 2.267532e+00
13	-4.388691e+00	-2.718564e+00	 2.013858e+00
13	-4.546633e+00	-2.625000e+00	 2.305778e+00
13	-4.521633e+00	-2.668301e+00	 2.139807e+00
13	-4.496633e+00	-2.711603e+00	 1.964214e+00
13	-4.471633e+00	-2.754904e+00	 1.778998e+00
13	-4.446633e+00	-2.798205e+00	 1.584159e+00
13	-4.421633e+00	-2.841506e+00	 1.379698e+00
13	-4.546633e+00	-2.625000e+00	 2.305778e+00
13	-4.521633e+00	-2.668301e+00	 2.139807e+00
13	-4.496633e+00	-2.711603e+00	 1.964214e+00
13	-4.471633e+00	-2.754904e+00	 1.778998e+00
13	-4.446633e+00	-2.798205e+00	 1.584159e+00
13	-4.421633e+00	-2.841506e+00	 1.379698e+00
13	-4.641896e+00	-2.680000e+00	 1.765725e+00
13	-4.605896e+00	-2.742354e+00	 1.629477e+00
13	-4.569896e+00	-2.804708e+00	 1.488152e+00
13	-4.533896e+00	-2.867061e+00	 1.341750e+00
13	-4.497896e+00	-2.929415e+00	 1.190271e+00
13	-4.461896e+00	-2.991769e+00	 1.033716e+00
13	-4.754479e+00	-2.745000e+00	 1.385478e+00
13	-4.705479e+00	-2.829870e+00	 1.268346e+00
13	-4.656479e+00	-2.914741e+00	 1.148207e+00
13	-4.607479e+00	-2.999611e+00	 1.025058e+00
13	-4.558479e+00	-3.084482e+00	 8.989015e-01
13	-4.509479e+00	-3.169352e+00	 7.697362e-01
13	-4.884383e+00	-2.820000e+00	 1.103302e+00
13	-4.820383e+00	-2.930851e+00	 9.993528e-01
13	-4.756383e+00	-3.041703e+00	 8.933016e-01
13	-4.692383e+00	-3.152554e+00	 7.851486e-01
13	-4.628383e+00	-3.263405e+00	 6.748938e-01
13	-4.564383e+00	-3.374256e+00	 5.625371e-01
13	-5.031608e+00	-2.905000e+00	 8.856162e-01
13	-4.950608e+00	-3.045296e+00	 7.912345e-01
13	-4.869608e+00	-3.185592e+00	 6.950742e-01
13	-4.788608e+00	-3.325888e+00	 5.971353e-01
13	-4.707608e+00	-3.466184e+00	 4.974179e-01
13	-4.626608e+00	-3.606481e+00	 3.959218e-01
13	-5.196152e+00	-3.000000e+00	 7.125912e-01
13	-5.096152e+00	-3.173205e+00	 6.254321e-01
13	-4.996152e+00	-3.346410e+00	 5.365125e-01
13	-4.896152e+00	-3.519615e+00	 4.458321e-01
13	-4.796152e+00	-3.692820e+00	 3.533911e-01
13	-4.696152e+00	-3.866025e+00	 2.591895e-01
14	-4.330127e+00	-2.500000e+00	 0.000000e+00
14	-4.330127e+00	-2.500000e+00	-3.482323e+15
14	-4.330127e+00	-2.500000e+00	-8.660605e+14
14	-4.330127e+00	-2.500000e+00	 8.433205e-17
14	-4.330127e+00	-2.500000e+00	-3.711557e+15
14	-4.330127e+00	-2.500000e+00	 0.000000e+00
14	-4.333787e+00	-2.513660e+00	 1.045681e+01
14	-4.332055e+00	-2.512660e+00	 1.082509e+01
14	-4.330323e+00	-2.511660e+00	 1.018290e+01
14	-4.328591e+00	-2.510660e+00	 8.530250e+00
14	-4.326859e+00	-2.509660e+00	 5.867136e+00
14	-4.325127e+00	-2.508660e+00	 2.193558e+00
14	-4.344768e+00	-2.554641e+00	 4.660302e+00
14	-4.337840e+00	-2.550641e+00	 4.841868e+00
14	-4.330912e+00	-2.546641e+00	 4.517488e+00
14	-4.323983e+00	-2.542641e+00	 3.687162e+00
14	-4.317055e+00	-2.538641e+00	 2.350890e+00
14	-4.310127e+00	-2.534641e+00	 5.086713e-01
14	-4.363069e+00	-2.622942e+00	 2.749280e+00
14	-4.347481e+00	-2.613942e+00	 2.860235e+00
14	-4.331892e+00	-2.604942e+00	 2.636145e+00
14	-4.316304e+00	-2.595942e+00	 2.077010e+00
14	-4.300715e+00	-2.586942e+00	 1.182832e+00
14	-4.285127e+00	-2.577942e+00	-4.639096e-02
14	-4.388691e+00	-2.718564e+00	 1.797735e+00
14	-4.360978e+00	-2.702564e+00	 1.871813e+00
14	-4.333265e+00	-2.686564e+00	 1.696809e+00
14	-4.305553e+00	-2.670564e+00	 1.272724e+00
14	-4.277840e+00	-2.654564e+00	 5.995574e-01
14	-4.250127e+00	-2.638564e+00	-3.226908e-01
14	-4.421633e+00	-2.841506e+00	 1.228076e+00
14	-4.378332e+00	-2.816506e+00	 1.279526e+00
14	-4.335031e+00	-2.791506e+00	 1.133635e+00
14	-4.291730e+00	-2.766506e+00	 7.904048e-01
14	-4.248428e+00	-2.741506e+00	 2.498341e-01
14	-4.205127e+00	-2.716506e+00	-4.880768e-01
14	-4.421633e+00	-2.841506e+00	 1.228076e+00
14	-4.378332e+00	-2.816506e+00	 1.279526e+00
14	-4.335031e+00	-2.791506e+00	 1.133635e+00
14	-4.291730e+00	-2.766506e+00	 7.904048e-01
14	-4.248428e+00	-2.741506e+00	 2.498341e-01
14	-4.205127e+00	-2.716506e+00	-4.880768e-01
14	-4.461896e+00	-2.991769e+00	 8.784376e-01
14	-4.399542e+00	-2.955769e+00	 9.110718e-01
14	-4.337189e+00	-2.919769e+00	 7.799253e-01
14	-4.274835e+00	-2.883769e+00	 4.849981e-01
14	-4.212481e+00	-2.847769e+00	 2.629011e-02
14	-4.150127e+00	-2.811769e+00	-5.961986e-01
14	-4.509479e+00	-3.169352e+00	 6.313395e-01
14	-4.424609e+00	-3.120352e+00	 6.545311e-01
14	-4.339738e+00	-3.071352e+00	 5.385605e-01
14	-4.254868e+00	-3.022352e+00	 2.834278e-01
14	-4.169998e+00	-2.973352e+00	-1.108670e-01
14	-4.085127e+00	-2.924352e+00	-6.443241e-01
14	-4.564383e+00	-3.374256e+00	 4.474617e-01
14	-4.453532e+00	-3.310256e+00	 4.657572e-01
14	-4.342681e+00	-3.246256e+00	 3.637086e-01
14	-4.231830e+00	-3.182256e+00	 1.413159e-01
14	-4.120978e+00	-3.118256e+00	-2.014208e-01
14	-4.010127e+00	-3.054256e+00	-6.645017e-01
14	-4.626608e+00	-3.606481e+00	 3.053023e-01
14	-4.486311e+00	-3.525481e+00	 3.210851e-01
14	-4.346015e+00	-3.444481e+00	 2.313700e-01
14	-4.205719e+00	-3.363481e+00	 3.615679e-02
14	-4.065423e+00	-3.282481e+00	-2.645544e-01
14	-3.925127e+00	-3.201481e+00	-6.707635e-01
14	-4.696152e+00	-3.866025e+00	 1.921145e-01
14	-4.522947e+00	-3.766025e+00	 2.067033e-01
14	-4.349742e+00	-3.666025e+00	 1.278031e-01
14	-4.176537e+00	-3.566025e+00	-4.458596e-02
14	-4.003332e+00	-3.466025e+00	-3.104639e-01
14	-3.830127e+00	-3.366025e+00	-6.698308e-01
15	-4.330127e+00	-2.500000e+00	 0.000000e+00
15	-4.330127e+00	-2.500000e+00	-6.633402e+15
15	-4.330127e+00	-2.500000e+00	-6.916405e+14
15	-4.330127e+00	-2.500000e+00	 6.575993e-17
15	-4.330127e+00	-2.500000e+00	-6.455644e+15
15	-4.330127e+00	-2.500000e+00	 0.000000e+00
15	-4.325127e+00	-2.508660e+00	 2.733884e+00
15	-4.323395e+00	-2.507660e+00	 7.488093e-01
15	-4.321663e+00	-2.506660e+00	-7.388115e-01
15	-4.319931e+00	-2.505660e+00	-1.728979e+00
15	-4.318199e+00	-2.504660e+00	-2.221692e+00
15	-4.316467e+00	-2.503660e+00	-2.216952e+00
15	-4.310127e+00	-2.534641e+00	 7.970237e-01
15	-4.303199e+00	-2.530641e+00	-2.079594e-01
15	-4.296271e+00	-2.526641e+00	-9.550843e-01
15	-4.289342e+00	-2.522641e+00	-1.444351e+00
15	-4.282414e+00	-2.518641e+00	-1.675759e+00
15	-4.275486e+00	-2.514641e+00	-1.649309e+00
15	-4.285127e+00	-2.577942e+00	 1.820895e-01
15	-4.269539e+00	-2.568942e+00	-4.864376e-01
15	-4.253950e+00	-2.559942e+00	-9.810841e-01
15	-4.238362e+00	-2.550942e+00	-1.301850e+00
15	-4.222773e+00	-2.541942e+00	-1.448735e+00
15	-4.207185e+00	-2.532942e+00	-1.421740e+00
15	-4.250127e+00	-2.638564e+00	-1.196240e-01
15	-4.222414e+00	-2.622564e+00	-6.180932e-01
15	-4.194701e+00	-2.606564e+00	-9.854419e-01
15	-4.166989e+00	-2.590564e+00	-1.221670e+00
15	-4.139276e+00	-2.574564e+00	-1.326777e+00
15	-4.111563e+00	-2.558564e+00	-1.300764e+00
15	-4.205127e+00	-2.716506e+00	-2.988109e-01
15	-4.161826e+00	-2.691506e+00	-6.946600e-01
15	-4.118524e+00	-2.666506e+00	-9.852911e-01
15	-4.075223e+00	-2.641506e+00	-1.170704e+00
15	-4.031922e+00	-2.616506e+00	-1.250900e+00
15	-3.988621e+00	-2.591506e+00	-1.225877e+00
15	-4.205127e+00	-2.716506e+00	-2.988109e-01
15	-4.161826e+00	-2.691506e+00	-6.946600e-01
15	-4.118524e+00	-2.666506e+00	-9.852911e-01
15	-4.075223e+00	-2.641506e+00	-1.170704e+00
15	-4.031922e+00	-2.616506e+00	-1.250900e+00
15	-3.988621e+00	-2.591506e+00	-1.225877e+00
15	-4.150127e+00	-2.811769e+00	-4.298017e-01
15	-4.087773e+00	-2.775769e+00	-7.651861e-01
15	-4.025419e+00	-2.739769e+00	-1.012004e+00
15	-3.963066e+00	-2.703769e+00	-1.170256e+00
15	-3.900712e+00	-2.667769e+00	-1.239942e+00
15	-3.838358e+00	-2.631769e+00	-1.221061e+00
15	-4.085127e+00	-2.924352e+00	-5.114420e-01
15	-4.000257e+00	-2.875352e+00	-8.048207e-01
15	-3.915386e+00	-2.826352e+00	-1.022018e+00
15	-3.830516e+00	-2.777352e+00	-1.163034e+00
15	-3.745645e+00	-2.728352e+00	-1.227869e+00
15	-3.660775e+00	-2.679352e+00	-1.216523e+00
15	-4.010127e+00	-3.054256e+00	-5.661509e-01
15	-3.899276e+00	-2.990256e+00	-8.286724e-01
15	-3.788425e+00	-2.926256e+00	-1.024570e+00
15	-3.677573e+00	-2.862256e+00	-1.153843e+00
15	-3.566722e+00	-2.798256e+00	-1.216493e+00
15	-3.455871e+00	-2.734256e+00	-1.212518e+00
15	-3.925127e+00	-3.201481e+00	-6.048378e-01
15	-3.784831e+00	-3.120481e+00	-8.437428e-01
15	-3.644535e+00	-3.039481e+00	-1.023616e+00
15	-3.504239e+00	-2.958481e+00	-1.144458e+00
15	-3.363943e+00	-2.877481e+00	-1.206269e+00
15	-3.223646e+00	-2.796481e+00	-1.209048e+00
15	-3.830127e+00	-3.366025e+00	-6.333527e-01
15	-3.656922e+00	-3.266025e+00	-8.536061e-01
15	-3.483717e+00	-3.166025e+00	-1.021002e+00
15	-3.310512e+00	-3.066025e+00	-1.135541e+00
15	-3.137307e+00	-2.966025e+00	-1.197223e+00
15	-2.964102e+00	-2.866025e+00	-1.206048e+00
16	-4.330127e+00	-2.500000e+00	 0.000000e+00
16	-4.330127e+00	-2.500000e+00	-8.942932e+15
16	-4.330127e+00	-2.500000e+00	-3.893614e+14
16	-4.330127e+00	-2.500000e+00	 2.748047e-17
16	-4.330127e+00	-2.500000e+00	-5.712968e+15
16	-4.330127e+00	-2.500000e+00	-0.000000e+00
16	-4.316467e+00	-2.503660e+00	-1.857411e+00
16	-4.317467e+00	-2.501928e+00	-1.946121e+00
16	-4.318467e+00	-2.500196e+00	-2.197489e+00
16	-4.319467e+00	-2.498464e+00	-2.611516e+00
16	-4.320467e+00	-2.496732e+00	-3.188202e+00
16	-4.321467e+00	-2.495000e+00	-3.927546e+00
16	-4.275486e+00	-2.514641e+00	-1.516582e+00
16	-4.279486e+00	-2.507713e+00	-1.560009e+00
16	-4.283486e+00	-2.500785e+00	-1.685226e+00
16	-4.287486e+00	-2.493856e+00	-1.892233e+00
16	-4.291486e+00	-2.486928e+00	-2.181031e+00
16	-4.295486e+00	-2.480000e+00	-2.551619e+00
16	-4.207185e+00	-2.532942e+00	-1.434185e+00
16	-4.216185e+00	-2.517354e+00	-1.458485e+00
16	-4.225185e+00	-2.501765e+00	-1.537170e+00
16	-4.234185e+00	-2.486177e+00	-1.670240e+00
16	-4.243185e+00	-2.470588e+00	-1.857696e+00
16	-4.252185e+00	-2.455000e+00	-2.099537e+00
16	-4.111563e+00	-2.558564e+00	-1.398839e+00
16	-4.127563e+00	-2.530851e+00	-1.412819e+00
16	-4.143563e+00	-2.503138e+00	-1.467397e+00
16	-4.159563e+00	-2.475426e+00	-1.562575e+00
16	-4.175563e+00	-2.447713e+00	-1.698351e+00
16	-4.191563e+00	-2.420000e+00	-1.874727e+00
16	-3.988621e+00	-2.591506e+00	-1.379504e+00
16	-4.013621e+00	-2.548205e+00	-1.387050e+00
16	-4.038621e+00	-2.504904e+00	-1.426896e+00
16	-4.063621e+00	-2.461603e+00	-1.499042e+00
16	-4.088621e+00	-2.418301e+00	-1.603488e+00
16	-4.113621e+00	-2.375000e+00	-1.740234e+00
16	-3.988621e+00	-2.591506e+00	-1.379504e+00
16	-4.013621e+00	-2.548205e+00	-1.387050e+00
16	-4.038621e+00	-2.504904e+00	-1.426896e+00
16	-4.063621e+00	-2.461603e+00	-1.499042e+00
16	-4.088621e+00	-2.418301e+00	-1.603488e+00
16	-4.113621e+00	-2.375000e+00	-1.740234e+00
16	-3.838358e+00	-2.631769e+00	-1.324600e+00
16	-3.874358e+00	-2.569415e+00	-1.326639e+00
16	-3.910358e+00	-2.507061e+00	-1.358963e+00
16	-3.946358e+00	-2.444708e+00	-1.421572e+00
16	-3.982358e+00	-2.382354e+00	-1.514466e+00
16	-4.018358e+00	-2.320000e+00	-1.637644e+00
16	-3.660775e+00	-2.679352e+00	-1.264994e+00
16	-3.709775e+00	-2.594482e+00	-1.274563e+00
16	-3.758775e+00	-2.509611e+00	-1.310811e+00
16	-3.807775e+00	-2.424741e+00	-1.373739e+00
16	-3.856775e+00	-2.339870e+00	-1.463346e+00
16	-3.905775e+00	-2.255000e+00	-1.579632e+00
16	-3.455871e+00	-2.734256e+00	-1.209140e+00
16	-3.519871e+00	-2.623405e+00	-1.230624e+00
16	-3.583871e+00	-2.512554e+00	-1.274900e+00
16	-3.647871e+00	-2.401703e+00	-1.341966e+00
16	-3.711871e+00	-2.290851e+00	-1.431824e+00
16	-3.775871e+00	-2.180000e+00	-1.544472e+00
16	-3.223646e+00	-2.796481e+00	-1.159091e+00
16	-3.304646e+00	-2.656184e+00	-1.193557e+00
16	-3.385646e+00	-2.515888e+00	-1.247089e+00
16	-3.466646e+00	-2.375592e+00	-1.319686e+00
16	-3.547646e+00	-2.235296e+00	-1.411347e+00
16	-3.628646e+00	-2.095000e+00	-1.522073e+00
16	-2.964102e+00	-2.866025e+00	-1.114889e+00
16	-3.064102e+00	-2.692820e+00	-1.162082e+00
16	-3.164102e+00	-2.519615e+00	-1.224916e+00
16	-3.264102e+00	-2.346410e+00	-1.303393e+00
16	-3.364102e+00	-2.173205e+00	-1.397511e+00
16	-3.464102e+00	-2.000000e+00	-1.507271e+00
17	 5.196152e+00	 3.000000e+00	 6.770323e-01
17	 5.096152e+00	 3.173205e+00	 6.263188e-01
17	 4.996152e+00	 3.346410e+00	 5.819355e-01
17	 4.896152e+00	 3.519615e+00	 5.438824e-01
17	 4.796152e+00	 3.692820e+00	 5.121594e-01
17	 4.696152e+00	 3.866025e+00	 4.867667e-01
17	 5.542563e+00	 3.200000e+00	 4.658749e-01
17	 5.442563e+00	 3.373205e+00	 4.298669e-01
17	 5.342563e+00	 3.546410e+00	 3.977502e-01
17	 5.242563e+00	 3.719615e+00	 3.695248e-01
17	 5.142563e+00	 3.892820e+00	 3.451907e-01
17	 5.042563e+00	 4.066025e+00	 3.247480e-01
17	 5.888973e+00	 3.400000e+00	 2.994030e-01
17	 5.788973e+00	 3.573205e+00	 2.776379e-01
17	 5.688973e+00	 3.746410e+00	 2.573252e-01
17	 5.588973e+00	 3.919615e+00	 2.384650e-01
17	 5.488973e+00	 4.092820e+00	 2.210572e-01
17	 5.388973e+00	 4.266025e+00	 2.051019e-01
17	 6.235383e+00	 3.600000e+00	 1.776166e-01
17	 6.135383e+00	 3.773205e+00	 1.696318e-01
17	 6.035383e+00	 3.946410e+00	 1.606606e-01
17	 5.935383e+00	 4.119615e+00	 1.507030e-01
17	 5.835383e+00	 4.292820e+00	 1.397589e-01
17	 5.735383e+00	 4.466025e+00	 1.278284e-01
17	 6.581793e+00	 3.800000e+00	 1.005156e-01
17	 6.481793e+00	 3.973205e+00	 1.058487e-01
17	 6.381793e+00	 4.146410e+00	 1.077564e-01
17	 6.281793e+00	 4.319615e+00	 1.062388e-01
17	 6.181793e+00	 4.492820e+00	 1.012958e-01
17	 6.081793e+00	 4.666025e+00	 9.292758e-02
17	 6.928203e+00	 4.000000e+00	 6.810015e-02
17	 6.828203e+00	 4.173205e+00	 8.628839e-02
17	 6.728203e+00	 4.346410e+00	 9.861244e-02
17	 6.628203e+00	 4.519615e+00	 1.050723e-01
17	 6.528203e+00	 4.692820e+00	 1.056679e-01
17	 6.428203e+00	 4.866025e+00	 1.003994e-01
17	 6.928203e+00	 4.000000e+00	 6.810015e-02
17	 6.828203e+00	 4.173205e+00	 8.628839e-02
17	 6.728203e+00	 4.346410e+00	 9.861244e-02
17	 6.628203e+00	 4.519615e+00	 1.050723e-01
17	 6.528203e+00	 4.692820e+00	 1.056679e-01
17	 6.428203e+00	 4.866025e+00	 1.003994e-01
17	 7.274613e+00	 4.200000e+00	 6.772954e-02
17	 7.174613e+00	 4.373205e+00	 7.498345e-02
17	 7.074613e+00	 4.546410e+00	 7.793133e-02
17	 6.974613e+00	 4.719615e+00	 7.657319e-02
17	 6.874613e+00	 4.892820e+00	 7.090903e-02
17	 6.774613e+00	 5.066025e+00	 6.093886e-02
17	 7.621024e+00	 4.400000e+00	 6.943189e-02
17	 7.521024e+00	 4.573205e+00	 6.823886e-02
17	 7.421024e+00	 4.746410e+00	 6.429797e-02
17	 7.321024e+00	 4.919615e+00	 5.760924e-02
17	 7.221024e+00	 5.092820e+00	 4.817267e-02
17	 7.121024e+00	 5.266025e+00	 3.598825e-02
17	 7.967434e+00	 4.600000e+00	 7.320720e-02
17	 7.867434e+00	 4.773205e+00	 6.605462e-02
17	 7.767434e+00	 4.946410e+00	 5.771236e-02
17	 7.667434e+00	 5.119615e+00	 4.818044e-02
17	 7.567434e+00	 5.292820e+00	 3.745884e-02
17	 7.467434e+00	 5.466025e+00	 2.554758e-02
17	 8.313844e+00	 4.800000e+00	 7.905546e-02
17	 8.213844e+00	 4.973205e+00	 6.843073e-02
17	 8.113844e+00	 5.146410e+00	 5.817450e-02
17	 8.013844e+00	 5.319615e+00	 4.828678e-02
17	 7.913844e+00	 5.492820e+00	 3.876756e-02
17	 7.813844e+00	 5.666025e+00	 2.961684e-02
17	 8.660254e+00	 5.000000e+00	 8.697668e-02
17	 8.560254e+00	 5.173205e+00	 7.536720e-02
17	 8.460254e+00	 5.346410e+00	 6.568439e-02
17	 8.360254e+00	 5.519615e+00	 5.792827e-02
17	 8.260254e+00	 5.692820e+00	 5.209882e-02
17	 8.160254e+00	 5.866025e+00	 4.819605e-02
18	 4.696152e+00	 3.866025e+00	 2.306970e-02
18	 4.246152e+00	 4.645448e+00	-1.393647e-01
18	 3.796152e+00	 5.424871e+00	-2.799037e-01
18	 3.346152e+00	 6.204294e+00	-3.985473e-01
18	 2.896152e+00	 6.983717e+00	-4.952956e-01
18	 2.446152e+00	 7.763140e+00	-5.701485e-01
18	 5.042563e+00	 4.066025e+00	 6.709836e-02
18	 4.592563e+00	 4.845448e+00	-9.420610e-02
18	 4.142563e+00	 5.624871e+00	-2.300523e-01
18	 3.692563e+00	 6.404294e+00	-3.404402e-01
18	 3.242563e+00	 7.183717e+00	-4.253697e-01
18	 2.792563e+00	 7.963140e+00	-4.848410e-01
18	 5.388973e+00	 4.266025e+00	 1.063663e-01
18	 4.938973e+00	 5.045448e+00	-5.535852e-02
18	 4.488973e+00	 5.824871e+00	-1.880621e-01
18	 4.038973e+00	 6.604294e+00	-2.917445e-01
18	 3.588973e+00	 7.383717e+00	-3.664056e-01
18	 3.138973e+00	 8.163140e+00	-4.120456e-01
18	 5.735383e+00	 4.466025e+00	 1.408734e-01
18	 5.285383e+00	 5.245448e+00	-2.282195e-02
18	 4.835383e+00	 6.024871e+00	-1.539332e-01
18	 4.385383e+00	 6.804294e+00	-2.524603e-01
18	 3.935383e+00	 7.583717e+00	-3.184033e-01
18	 3.485383e+00	 8.363140e+00	-3.517622e-01
18	 6.081793e+00	 4.666025e+00	 1.706199e-01
18	 5.631793e+00	 5.445448e+00	 3.403624e-03
18	 5.181793e+00	 6.224871e+00	-1.276656e-01
18	 4.731793e+00	 7.004294e+00	-2.225877e-01
18	 4.281793e+00	 7.783717e+00	-2.813628e-01
18	 3.831793e+00	 8.563140e+00	-3.039908e-01
18	 6.428203e+00	 4.866025e+00	 1.956055e-01
18	 5.978203e+00	 5.645448e+00	 2.331819e-02
18	 5.528203e+00	 6.424871e+00	-1.092592e-01
18	 5.078203e+00	 7.204294e+00	-2.021266e-01
18	 4.628203e+00	 7.983717e+00	-2.552840e-01
18	 4.178203e+00	 8.763140e+00	-2.687314e-01
18	 2.446152e+00	 7.763140e+00	-5.701485e-01
18	 1.996152e+00	 8.542563e+00	-4.788074e-01
18	 1.546152e+00	 9.321985e+00	-4.082573e-01
18	 1.096152e+00	 1.010141e+01	-3.584983e-01
18	 6.461524e-01	 1.088083e+01	-3.295303e-01
18	 1.961524e-01	 1.166025e+01	-3.213534e-01
18	 2.792563e+00	 7.963140e+00	-4.848410e-01
18	 2.342563e+00	 8.742563e+00	-4.172407e-01
18	 1.892563e+00	 9.521985e+00	-3.663607e-01
18	 1.442563e+00	 1.030141e+01	-3.322008e-01
18	 9.925626e-01	 1.108083e+01	-3.147612e-01
18	 5.425626e-01	 1.186025e+01	-3.140418e-01
18	 3.138973e+00	 8.163140e+00	-4.120456e-01
18	 2.688973e+00	 8.942563e+00	-3.646316e-01
18	 2.238973e+00	 9.721985e+00	-3.298671e-01
18	 1.788973e+00	 1.050141e+01	-3.077520e-01
18	 1.338973e+00	 1.128083e+01	-2.982862e-01
18	 8.889727e-01	 1.206025e+01	-3.014699e-01
18	 3.485383e+00	 8.363140e+00	-3.517622e-01
18	 3.035383e+00	 9.142563e+00	-3.209801e-01
18	 2.585383e+00	 9.921985e+00	-2.987766e-01
18	 2.135383e+00	 1.070141e+01	-2.851517e-01
18	 1.685383e+00	 1.148083e+01	-2.801053e-01
18	 1.235383e+00	 1.226025e+01	-2.836376e-01
18	 3.831793e+00	 8.563140e+00	-3.039908e-01
18	 3.381793e+00	 9.342563e+00	-2.862861e-01
18	 2.931793e+00	 1.012199e+01	-2.730891e-01
18	 2.481793e+00	 1.090141e+01	-2.644000e-01
18	 2.031793e+00	 1.168083e+01	-2.602185e-01
18	 1.581793e+00	 1.246025e+01	-2.605449e-01
18	 4.178203e+00	 8.763140e+00	-2.687314e-01
18	 3.728203e+00	 9.542563e+00	-2.605496e-01
18	 3.278203e+00	 1.032199e+01	-2.528048e-01
18	 2.828203e+00	 1.110141e+01	-2.454969e-01
18	 2.378203e+00	 1.188083e+01	-2.386259e-01
18	 1.928203e+00	 1.266025e+01	-2.321919e-01
18	 6.428203e+00	 4.866025e+00	 1.956055e-01
18	 5.978203e+00	 5.645448e+00	 2.331819e-02
18	 5.528203e+00	 6.424871e+00	-1.092592e-01
18	 5.078203e+00	 7.204294e+00	-2.021266e-01
18	 4.628203e+00	 7.983717e+00	-2.552840e-01
18	 4.178203e+00	 8.763140e+00	-2.687314e-01
18	 6.774613e+00	 5.066025e+00	 1.474945e-01
18	 6.324613e+00	 5.845448e+00	 2.760216e-03
18	 5.874613e+00	 6.624871e+00	-1.074918e-01
18	 5.424613e+00	 7.404294e+00	-1.832616e-01
18	 4.974613e+00	 8.183717e+00	-2.245493e-01
18	 4.524613e+00	 8.963140e+00	-2.313547e-01
18	 7.121024e+00	 5.266025e+00	 1.086980e-01
18	 6.671024e+00	 6.045448e+00	-1.271031e-02
18	 6.221024e+00	 6.824871e+00	-1.048642e-01
18	 5.771024e+00	 7.604294e+00	-1.677636e-01
18	 5.321024e+00	 8.383717e+00	-2.014085e-01
18	 4.871024e+00	 9.163140e+00	-2.057991e-01
18	 7.467434e+00	 5.466025e+00	 7.921608e-02
18	 7.017434e+00	 6.245448e+00	-2.309340e-02
18	 6.567434e+00	 7.024871e+00	-1.013762e-01
18	 6.117434e+00	 7.804294e+00	-1.556323e-01
18	 5.667434e+00	 8.583717e+00	-1.858618e-01
18	 5.217434e+00	 9.363140e+00	-1.920646e-01
18	 7.813844e+00	 5.666025e+00	 5.904877e-02
18	 7.363844e+00	 6.445448e+00	-2.838904e-02
18	 6.913844e+00	 7.224871e+00	-9.702795e-02
18	 6.463844e+00	 8.004294e+00	-1.468680e-01
18	 6.013844e+00	 8.783717e+00	-1.779091e-01
18	 5.563844e+00	 9.563140e+00	-1.901513e-01
18	 8.160254e+00	 5.866025e+00	 4.819605e-02
18	 7.710254e+00	 6.645448e+00	-2.859723e-02
18	 7.260254e+00	 7.424871e+00	-9.181938e-02
18	 6.810254e+00	 8.204294e+00	-1.414704e-01
18	 6.360254e+00	 8.983717e+00	-1.775503e-01
18	 5.910254e+00	 9.763140e+00	-2.000590e-01
18	 4.178203e+00	 8.763140e+00	-2.687314e-01
18	 3.728203e+00	 9.542563e+00	-2.605496e-01
18	 3.278203e+00	 1.032199e+01	-2.528048e-01
18	 2.828203e+00	 1.110141e+01	-2.454969e-01
18	 2.378203e+00	 1.188083e+01	-2.386259e-01
18	 1.928203e+00	 1.266025e+01	-2.321919e-01
18	 4.524613e+00	 8.963140e+00	-2.313547e-01
18	 4.074613e+00	 9.742563e+00	-2.329258e-01
18	 3.624613e+00	 1.052199e+01	-2.303876e-01
18	 3.174613e+00	 1.130141e+01	-2.237402e-01
18	 2.724613e+00	 1.208083e+01	-2.129835e-01
18	 2.274613e+00	 1.286025e+01	-1.981176e-01
18	 4.871024e+00	 9.163140e+00	-2.057991e-01
18	 4.421024e+00	 9.942563e+00	-2.135224e-01
18	 3.971024e+00	 1.072199e+01	-2.125903e-01
18	 3.521024e+00	 1.150141e+01	-2.030027e-01
18	 3.071024e+00	 1.228083e+01	-1.847597e-01
18	 2.621024e+00	 1.306025e+01	-1.578613e-01
18	 5.217434e+00	 9.363140e+00	-1.920646e-01
18	 4.767434e+00	 1.014256e+01	-2.023395e-01
18	 4.317434e+00	 1.092199e+01	-1.994128e-01
18	 3.867434e+00	 1.170141e+01	-1.832845e-01
18	 3.417434e+00	 1.248083e+01	-1.539545e-01
18	 2.967434e+00	 1.326025e+01	-1.114229e-01
18	 5.563844e+00	 9.563140e+00	-1.901513e-01
18	 5.113844e+00	 1.034256e+01	-1.993771e-01
18	 4.663844e+00	 1.112199e+01	-1.908552e-01
18	 4.213844e+00	 1.190141e+01	-1.645854e-01
18	 3.763844e+00	 1.268083e+01	-1.205679e-01
18	 3.313844e+00	 1.346025e+01	-5.880251e-02
18	 5.910254e+00	 9.763140e+00	-2.000590e-01
18	 5.460254e+00	 1.054256e+01	-2.046352e-01
18	 5.010254e+00	 1.132199e+01	-1.869174e-01
18	 4.560254e+00	 1.210141e+01	-1.469056e-01
18	 4.110254e+00	 1.288083e+01	-8.459981e-02
18	 3.660254e+00	 1.366025e+01	 0.000000e+00
19	 3.830127e+00	 3.366025e+00	-9.776077e-01
19	 3.380127e+00	 4.145448e+00	-7.776483e-01
19	 2.930127e+00	 4.924871e+00	-6.403665e-01
19	 2.480127e+00	 5.704294e+00	-5.657624e-01
19	 2.030127e+00	 6.483717e+00	-5.538359e-01
19	 1.580127e+00	 7.263140e+00	-6.045871e-01
19	 4.003332e+00	 3.466025e+00	-7.422716e-01
19	 3.553332e+00	 4.245448e+00	-6.167050e-01
19	 3.103332e+00	 5.024871e+00	-5.400155e-01
19	 2.653332e+00	 5.804294e+00	-5.122030e-01
19	 2.203332e+00	 6.583717e+00	-5.332676e-01
19	 1.753332e+00	 7.363140e+00	-6.032092e-01
19	 4.176537e+00	 3.566025e+00	-5.389074e-01
19	 3.726537e+00	 4.345448e+00	-4.803833e-01
19	 3.276537e+00	 5.124871e+00	-4.569357e-01
19	 2.826537e+00	 5.904294e+00	-4.685646e-01
19	 2.376537e+00	 6.683717e+00	-5.152698e-01
19	 1.926537e+00	 7.463140e+00	-5.970515e-01
19	 4.349742e+00	 3.666025e+00	-3.675151e-01
19	 3.899742e+00	 4.445448e+00	-3.686833e-01
19	 3.449742e+00	 5.224871e+00	-3.911273e-01
19	 2.999742e+00	 6.004294e+00	-4.348471e-01
19	 2.549742e+00	 6.783717e+00	-4.998427e-01
19	 2.099742e+00	 7.563140e+00	-5.861142e-01
19	 4.522947e+00	 3.766025e+00	-2.280947e-01
19	 4.072947e+00	 4.545448e+00	-2.816048e-01
19	 3.622947e+00	 5.324871e+00	-3.425901e-01
19	 3.172947e+00	 6.104294e+00	-4.110505e-01
19	 2.722947e+00	 6.883717e+00	-4.869862e-01
19	 2.272947e+00	 7.663140e+00	-5.703971e-01
19	 4.696152e+00	 3.866025e+00	-1.206463e-01
19	 4.246152e+00	 4.645448e+00	-2.191480e-01
19	 3.796152e+00	 5.424871e+00	-3.113242e-01
19	 3.346152e+00	 6.204294e+00	-3.971750e-01
19	 2.896152e+00	 6.983717e+00	-4.767004e-01
19	 2.446152e+00	 7.763140e+00	-5.499003e-01
19	 1.580127e+00	 7.263140e+00	-6.045871e-01
19	 1.130127e+00	 8.042563e+00	-5.455320e-01
19	 6.801270e-01	 8.821985e+00	-4.915873e-01
19	 2.301270e-01	 9.601408e+00	-4.427531e-01
19	-2.198730e-01	 1.038083e+01	-3.990294e-01
19	-6.698730e-01	 1.116025e+01	-3.604161e-01
19	 1.753332e+00	 7.363140e+00	-6.032092e-01
19	 1.303332e+00	 8.142563e+00	-5.358500e-01
19	 8.533321e-01	 8.921985e+00	-4.765709e-01
19	 4.033321e-01	 9.701408e+00	-4.253718e-01
19	-4.666790e-02	 1.048083e+01	-3.822526e-01
19	-4.966679e-01	 1.126025e+01	-3.472134e-01
19	 1.926537e+00	 7.463140e+00	-5.970515e-01
19	 1.476537e+00	 8.242563e+00	-5.228834e-01
19	 1.026537e+00	 9.021985e+00	-4.597647e-01
19	 5.765372e-01	 9.801408e+00	-4.076956e-01
19	 1.265372e-01	 1.058083e+01	-3.666759e-01
19	-3.234628e-01	 1.136025e+01	-3.367058e-01
19	 2.099742e+00	 7.563140e+00	-5.861142e-01
19	 1.649742e+00	 8.342563e+00	-5.066319e-01
19	 1.199742e+00	 9.121985e+00	-4.411687e-01
19	 7.497423e-01	 9.901408e+00	-3.897246e-01
19	 2.997423e-01	 1.068083e+01	-3.522994e-01
19	-1.502577e-01	 1.146025e+01	-3.288932e-01
19	 2.272947e+00	 7.663140e+00	-5.703971e-01
19	 1.822947e+00	 8.442563e+00	-4.870958e-01
19	 1.372947e+00	 9.221985e+00	-4.207830e-01
19	 9.229473e-01	 1.000141e+01	-3.714587e-01
19	 4.729473e-01	 1.078083e+01	-3.391230e-01
19	 2.294734e-02	 1.156025e+01	-3.237758e-01
19	 2.446152e+00	 7.763140e+00	-5.499003e-01
19	 1.996152e+00	 8.542563e+00	-4.642749e-01
19	 1.546152e+00	 9.321985e+00	-3.986074e-01
19	 1.096152e+00	 1.010141e+01	-3.528980e-01
19	 6.461524e-01	 1.088083e+01	-3.271467e-01
19	 1.961524e-01	 1.166025e+01	-3.213534e-01
20	 2.964102e+00	 2.866025e+00	-1.187066e+00
20	 2.514102e+00	 3.645448e+00	-1.002825e+00
20	 2.064102e+00	 4.424871e+00	-8.560742e-01
20	 1.614102e+00	 5.204294e+00	-7.468134e-01
20	 1.164102e+00	 5.983717e+00	-6.750427e-01
20	 7.141016e-01	 6.763140e+00	-6.407623e-01
20	 3.137307e+00	 2.966025e+00	-1.171604e+00
20	 2.687307e+00	 3.745448e+00	-9.783723e-01
20	 2.237307e+00	 4.524871e+00	-8.274838e-01
20	 1.787307e+00	 5.304294e+00	-7.189388e-01
20	 1.337307e+00	 6.083717e+00	-6.527373e-01
20	 8.873067e-01	 6.863140e+00	-6.288792e-01
20	 3.310512e+00	 3.066025e+00	-1.139280e+00
20	 2.860512e+00	 3.845448e+00	-9.408581e-01
20	 2.410512e+00	 4.624871e+00	-7.896334e-01
20	 1.960512e+00	 5.404294e+00	-6.856054e-01
20	 1.510512e+00	 6.183717e+00	-6.287742e-01
20	 1.060512e+00	 6.963140e+00	-6.191398e-01
20	 3.483717e+00	 3.166025e+00	-1.090092e+00
20	 3.033717e+00	 3.945448e+00	-8.902825e-01
20	 2.583717e+00	 4.724871e+00	-7.425228e-01
20	 2.133717e+00	 5.504294e+00	-6.468132e-01
20	 1.683717e+00	 6.283717e+00	-6.031537e-01
20	 1.233717e+00	 7.063140e+00	-6.115441e-01
20	 3.656922e+00	 3.266025e+00	-1.024042e+00
20	 3.206922e+00	 4.045448e+00	-8.266456e-01
20	 2.756922e+00	 4.824871e+00	-6.861522e-01
20	 2.306922e+00	 5.604294e+00	-6.025622e-01
20	 1.856922e+00	 6.383717e+00	-5.758755e-01
20	 1.406922e+00	 7.163140e+00	-6.060922e-01
20	 3.830127e+00	 3.366025e+00	-9.411296e-01
20	 3.380127e+00	 4.145448e+00	-7.499473e-01
20	 2.930127e+00	 4.924871e+00	-6.205216e-01
20	 2.480127e+00	 5.704294e+00	-5.528524e-01
20	 2.030127e+00	 6.483717e+00	-5.469399e-01
20	 1.580127e+00	 7.263140e+00	-6.027840e-01
20	 7.141016e-01	 6.763140e+00	-6.407623e-01
20	 2.641016e-01	 7.542563e+00	-5.845543e-01
20	-1.858984e-01	 8.321985e+00	-5.342263e-01
20	-6.358984e-01	 9.101408e+00	-4.897783e-01
20	-1.085898e+00	 9.880831e+00	-4.512101e-01
20	-1.535898e+00	 1.066025e+01	-4.185220e-01
20	 8.873067e-01	 6.863140e+00	-6.288792e-01
20	 4.373067e-01	 7.642563e+00	-5.746580e-01
20	-1.269330e-02	 8.421985e+00	-5.258212e-01
20	-4.626933e-01	 9.201408e+00	-4.823687e-01
20	-9.126933e-01	 9.980831e+00	-4.443005e-01
20	-1.362693e+00	 1.076025e+01	-4.116166e-01
20	 1.060512e+00	 6.963140e+00	-6.191398e-01
20	 6.105118e-01	 7.742563e+00	-5.660051e-01
20	 1.605118e-01	 8.521985e+00	-5.177591e-01
20	-2.894882e-01	 9.301408e+00	-4.744018e-01
20	-7.394882e-01	 1.008083e+01	-4.359332e-01
20	-1.189488e+00	 1.086025e+01	-4.023533e-01
20	 1.233717e+00	 7.063140e+00	-6.115441e-01
20	 7.837169e-01	 7.842563e+00	-5.585956e-01
20	 3.337169e-01	 8.621985e+00	-5.100402e-01
20	-1.162831e-01	 9.401408e+00	-4.658778e-01
20	-5.662831e-01	 1.018083e+01	-4.261084e-01
20	-1.016283e+00	 1.096025e+01	-3.907321e-01
20	 1.406922e+00	 7.163140e+00	-6.060922e-01
20	 9.569219e-01	 7.942563e+00	-5.524295e-01
20	 5.069219e-01	 8.721985e+00	-5.026643e-01
20	 5.692194e-02	 9.501408e+00	-4.567965e-01
20	-3.930781e-01	 1.028083e+01	-4.148261e-01
20	-8.430781e-01	 1.106025e+01	-3.767530e-01
20	 1.580127e+00	 7.263140e+00	-6.027840e-01
20	 1.130127e+00	 8.042563e+00	-5.475069e-01
20	 6.801270e-01	 8.821985e+00	-4.956315e-01
20	 2.301270e-01	 9.601408e+00	-4.471580e-01
20	-2.198730e-01	 1.038083e+01	-4.020861e-01
20	-6.698730e-01	 1.116025e+01	-3.604161e-01
21	-5.000000e-01	 8.660254e-01	-1.074171e+00
21	-9.500000e-01	 1.645448e+00	-8.999276e-01
21	-1.400000e+00	 2.424871e+00	-7.573520e-01
21	-1.850000e+00	 3.204294e+00	-6.464438e-01
21	-2.300000e+00	 3.983717e+00	-5.672031e-01
21	-2.750000e+00	 4.763140e+00	-5.196298e-01
21	-1.535898e-01	 1.066025e+00	-1.093949e+00
21	-6.035898e-01	 1.845448e+00	-9.232579e-01
21	-1.053590e+00	 2.624871e+00	-7.851321e-01
21	-1.503590e+00	 3.404294e+00	-6.795721e-01
21	-1.953590e+00	 4.183717e+00	-6.065779e-01
21	-2.403590e+00	 4.963140e+00	-5.661494e-01
21	 1.928203e-01	 1.266025e+00	-1.115156e+00
21	-2.571797e-01	 2.045448e+00	-9.459097e-01
21	-7.071797e-01	 2.824871e+00	-8.101279e-01
21	-1.157180e+00	 3.604294e+00	-7.078104e-01
21	-1.607180e+00	 4.383717e+00	-6.389570e-01
21	-2.057180e+00	 5.163140e+00	-6.035677e-01
21	 5.392305e-01	 1.466025e+00	-1.137789e+00
21	 8.923048e-02	 2.245448e+00	-9.678829e-01
21	-3.607695e-01	 3.024871e+00	-8.323396e-01
21	-8.107695e-01	 3.804294e+00	-7.311587e-01
21	-1.260770e+00	 4.583717e+00	-6.643405e-01
21	-1.710770e+00	 5.363140e+00	-6.318847e-01
21	 8.856406e-01	 1.666025e+00	-1.161849e+00
21	 4.356406e-01	 2.445448e+00	-9.891777e-01
21	-1.435935e-02	 3.224871e+00	-8.517670e-01
21	-4.643594e-01	 4.004294e+00	-7.496172e-01
21	-9.143594e-01	 4.783717e+00	-6.827283e-01
21	-1.364359e+00	 5.563140e+00	-6.511003e-01
21	 1.232051e+00	 1.866025e+00	-1.187337e+00
21	 7.820508e-01	 2.645448e+00	-1.009794e+00
21	 3.320508e-01	 3.424871e+00	-8.684102e-01
21	-1.179492e-01	 4.204294e+00	-7.631857e-01
21	-5.679492e-01	 4.983717e+00	-6.941205e-01
21	-1.017949e+00	 5.763140e+00	-6.612146e-01
21	-2.750000e+00	 4.763140e+00	-5.196298e-01
21	-3.200000e+00	 5.542563e+00	-4.806906e-01
21	-3.650000e+00	 6.321985e+00	-4.465613e-01
21	-4.100000e+00	 7.101408e+00	-4.172419e-01
21	-4.550000e+00	 7.880831e+00	-3.927325e-01
21	-5.000000e+00	 8.660254e+00	-3.730329e-01
21	-2.403590e+00	 4.963140e+00	-5.661494e-01
21	-2.853590e+00	 5.742563e+00	-5.209617e-01
21	-3.303590e+00	 6.521985e+00	-4.808024e-01
21	-3.753590e+00	 7.301408e+00	-4.456715e-01
21	-4.203590e+00	 8.080831e+00	-4.155689e-01
21	-4.653590e+00	 8.860254e+00	-3.904947e-01
21	-2.057180e+00	 5.163140e+00	-6.035677e-01
21	-2.507180e+00	 5.942563e+00	-5.533029e-01
21	-2.957180e+00	 6.721985e+00	-5.082848e-01
21	-3.407180e+00	 7.501408e+00	-4.685136e-01
21	-3.857180e+00	 8.280831e+00	-4.339892e-01
21	-4.307180e+00	 9.060254e+00	-4.047117e-01
21	-1.710770e+00	 5.363140e+00	-6.318847e-01
21	-2.160770e+00	 6.142563e+00	-5.777140e-01
21	-2.610770e+00	 6.921985e+00	-5.290086e-01
21	-3.060770e+00	 7.701408e+00	-4.857684e-01
21	-3.510770e+00	 8.480831e+00	-4.479935e-01
21	-3.960770e+00	 9.260254e+00	-4.156839e-01
21	-1.364359e+00	 5.563140e+00	-6.511003e-01
21	-1.814359e+00	 6.342563e+00	-5.941951e-01
21	-2.264359e+00	 7.121985e+00	-5.429736e-01
21	-2.714359e+00	 7.901408e+00	-4.974358e-01
21	-3.164359e+00	 8.680831e+00	-4.575817e-01
21	-3.614359e+00	 9.460254e+00	-4.234114e-01
21	-1.017949e+00	 5.763140e+00	-6.612146e-01
21	-1.467949e+00	 6.542563e+00	-6.027461e-01
21	-1.917949e+00	 7.321985e+00	-5.501799e-01
21	-2.367949e+00	 8.101408e+00	-5.035158e-01
21	-2.817949e+00	 8.880831e+00	-4.627539e-01
21	-3.267949e+00	 9.660254e+00	-4.278942e-01
21	 1.232051e+00	 1.866025e+00	-1.187337e+00
21	 7.820508e-01	 2.645448e+00	-1.009794e+00
21	 3.320508e-01	 3.424871e+00	-8.684102e-01
21	-1.179492e-01	 4.204294e+00	-7.631857e-01
21	-5.679492e-01	 4.983717e+00	-6.941205e-01
21	-1.017949e+00	 5.763140e+00	-6.612146e-01
21	 1.578461e+00	 2.066025e+00	-1.215487e+00
21	 1.128461e+00	 2.845448e+00	-1.036062e+00
21	 6.784610e-01	 3.624871e+00	-8.923954e-01
21	 2.284610e-01	 4.404294e+00	-7.844886e-01
21	-2.215390e-01	 5.183717e+00	-7.123415e-01
21	-6.715390e-01	 5.963140e+00	-6.759538e-01
21	 1.924871e+00	 2.266025e+00	-1.225991e+00
21	 1.474871e+00	 3.045448e+00	-1.046298e+00
21	 1.024871e+00	 3.824871e+00	-9.019640e-01
21	 5.748711e-01	 4.604294e+00	-7.929901e-01
21	 1.248711e-01	 5.383717e+00	-7.193759e-01
21	-3.251289e-01	 6.163140e+00	-6.811215e-01
21	 2.271281e+00	 2.466025e+00	-1.218849e+00
21	 1.821281e+00	 3.245448e+00	-1.040502e+00
21	 1.371281e+00	 4.024871e+00	-8.971162e-01
21	 9.212813e-01	 4.804294e+00	-7.886900e-01
21	 4.712813e-01	 5.583717e+00	-7.152238e-01
21	 2.128129e-02	 6.363140e+00	-6.767176e-01
21	 2.617691e+00	 2.666025e+00	-1.194060e+00
21	 2.167691e+00	 3.445448e+00	-1.018676e+00
21	 1.717691e+00	 4.224871e+00	-8.778519e-01
21	 1.267691e+00	 5.004294e+00	-7.715884e-01
21	 8.176915e-01	 5.783717e+00	-6.998852e-01
21	 3.676915e-01	 6.563140e+00	-6.627423e-01
21	 2.964102e+00	 2.866025e+00	-1.151624e+00
21	 2.514102e+00	 3.645448e+00	-9.808173e-01
21	 2.064102e+00	 4.424871e+00	-8.441711e-01
21	 1.614102e+00	 5.204294e+00	-7.416854e-01
21	 1.164102e+00	 5.983717e+00	-6.733601e-01
21	 7.141016e-01	 6.763140e+00	-6.391954e-01
21	-1.017949e+00	 5.763140e+00	-6.612146e-01
21	-1.467949e+00	 6.542563e+00	-6.027461e-01
21	-1.917949e+00	 7.321985e+00	-5.501799e-01
21	-2.367949e+00	 8.101408e+00	-5.035158e-01
21	-2.817949e+00	 8.880831e+00	-4.627539e-01
21	-3.267949e+00	 9.660254e+00	-4.278942e-01
21	-6.715390e-01	 5.963140e+00	-6.759538e-01
21	-1.121539e+00	 6.742563e+00	-6.146311e-01
21	-1.571539e+00	 7.521985e+00	-5.593551e-01
21	-2.021539e+00	 8.301408e+00	-5.101259e-01
21	-2.471539e+00	 9.080831e+00	-4.669433e-01
21	-2.921539e+00	 9.860254e+00	-4.298076e-01
21	-3.251289e-01	 6.163140e+00	-6.811215e-01
21	-7.751289e-01	 6.942563e+00	-6.184800e-01
21	-1.225129e+00	 7.721985e+00	-5.620299e-01
21	-1.675129e+00	 8.501408e+00	-5.117710e-01
21	-2.125129e+00	 9.280831e+00	-4.677034e-01
21	-2.575129e+00	 1.006025e+01	-4.298271e-01
21	 2.128129e-02	 6.363140e+00	-6.767176e-01
21	-4.287187e-01	 7.142563e+00	-6.142930e-01
21	-8.787187e-01	 7.921985e+00	-5.582041e-01
21	-1.328719e+00	 8.701408e+00	-5.084511e-01
21	-1.778719e+00	 9.480831e+00	-4.650340e-01
21	-2.228719e+00	 1.026025e+01	-4.279526e-01
21	 3.676915e-01	 6.563140e+00	-6.627423e-01
21	-8.230855e-02	 7.342563e+00	-6.020699e-01
21	-5.323085e-01	 8.121985e+00	-5.478779e-01
21	-9.823085e-01	 8.901408e+00	-5.001663e-01
21	-1.432309e+00	 9.680831e+00	-4.589351e-01
21	-1.882309e+00	 1.046025e+01	-4.241843e-01
21	 7.141016e-01	 6.763140e+00	-6.391954e-01
21	 2.641016e-01	 7.542563e+00	-5.818109e-01
21	-1.858984e-01	 8.321985e+00	-5.310512e-01
21	-6.358984e-01	 9.101408e+00	-4.869166e-01
21	-1.085898e+00	 9.880831e+00	-4.494068e-01
21	-1.535898e+00	 1.066025e+01	-4.185220e-01
22	 0.000000e+00	 0.000000e+00	-1.261932e+00
22	-1.000000e-01	 1.732051e-01	-1.217178e+00
22	-2.000000e-01	 3.464102e-01	-1.174592e+00
22	-3.000000e-01	 5.196152e-01	-1.134172e+00
22	-4.000000e-01	 6.928203e-01	-1.095919e+00
22	-5.000000e-01	 8.660254e-01	-1.059832e+00
22	 3.464102e-01	 2.000000e-01	-1.275119e+00
22	 2.464102e-01	 3.732051e-01	-1.231909e+00
22	 1.464102e-01	 5.464102e-01	-1.190170e+00
22	 4.641016e-02	 7.196152e-01	-1.149901e+00
22	-5.358984e-02	 8.928203e-01	-1.111102e+00
22	-1.535898e-01	 1.066025e+00	-1.073774e+00
22	 6.928203e-01	 4.000000e-01	-1.286271e+00
22	 5.928203e-01	 5.732051e-01	-1.244738e+00
22	 4.928203e-01	 7.464102e-01	-1.203978e+00
22	 3.928203e-01	 9.196152e-01	-1.163993e+00
22	 2.928203e-01	 1.092820e+00	-1.124781e+00
22	 1.928203e-01	 1.266025e+00	-1.086343e+00
22	 1.039230e+00	 6.000000e-01	-1.295388e+00
22	 9.392305e-01	 7.732051e-01	-1.255664e+00
22	 8.392305e-01	 9.464102e-01	-1.216017e+00
22	 7.392305e-01	 1.119615e+00	-1.176448e+00
22	 6.392305e-01	 1.292820e+00	-1.136956e+00
22	 5.392305e-01	 1.466025e+00	-1.097541e+00
22	 1.385641e+00	 8.000000e-01	-1.302470e+00
22	 1.285641e+00	 9.732051e-01	-1.264687e+00
22	 1.185641e+00	 1.146410e+00	-1.226286e+00
22	 1.085641e+00	 1.319615e+00	-1.187265e+00
22	 9.856406e-01	 1.492820e+00	-1.147626e+00
22	 8.856406e-01	 1.666025e+00	-1.107367e+00
22	 1.732051e+00	 1.000000e+00	-1.307517e+00
22	 1.632051e+00	 1.173205e+00	-1.271808e+00
22	 1.532051e+00	 1.346410e+00	-1.234785e+00
22	 1.432051e+00	 1.519615e+00	-1.196446e+00
22	 1.332051e+00	 1.692820e+00	-1.156791e+00
22	 1.232051e+00	 1.866025e+00	-1.115821e+00
22	 1.732051e+00	 1.000000e+00	-1.307517e+00
22	 1.632051e+00	 1.173205e+00	-1.271808e+00
22	 1.532051e+00	 1.346410e+00	-1.234785e+00
22	 1.432051e+00	 1.519615e+00	-1.196446e+00
22	 1.332051e+00	 1.692820e+00	-1.156791e+00
22	 1.232051e+00	 1.866025e+00	-1.115821e+00
22	 2.078461e+00	 1.200000e+00	-1.369804e+00
22	 1.978461e+00	 1.373205e+00	-1.319207e+00
22	 1.878461e+00	 1.546410e+00	-1.270111e+00
22	 1.778461e+00	 1.719615e+00	-1.222516e+00
22	 1.678461e+00	 1.892820e+00	-1.176422e+00
22	 1.578461e+00	 2.066025e+00	-1.131830e+00
22	 2.424871e+00	 1.400000e+00	-1.407288e+00
22	 2.324871e+00	 1.573205e+00	-1.345750e+00
22	 2.224871e+00	 1.746410e+00	-1.288530e+00
22	 2.124871e+00	 1.919615e+00	-1.235628e+00
22	 2.024871e+00	 2.092820e+00	-1.187043e+00
22	 1.924871e+00	 2.266025e+00	-1.142776e+00
22	 2.771281e+00	 1.600000e+00	-1.419969e+00
22	 2.671281e+00	 1.773205e+00	-1.351438e+00
22	 2.571281e+00	 1.946410e+00	-1.290042e+00
22	 2.471281e+00	 2.119615e+00	-1.235780e+00
22	 2.371281e+00	 2.292820e+00	-1.188653e+00
22	 2.271281e+00	 2.466025e+00	-1.148660e+00
22	 3.117691e+00	 1.800000e+00	-1.407846e+00
22	 3.017691e+00	 1.973205e+00	-1.336271e+00
22	 2.917691e+00	 2.146410e+00	-1.274647e+00
22	 2.817691e+00	 2.319615e+00	-1.222974e+00
22	 2.717691e+00	 2.492820e+00	-1.181252e+00
22	 2.617691e+00	 2.666025e+00	-1.149481e+00
22	 3.464102e+00	 2.000000e+00	-1.370921e+00
22	 3.364102e+00	 2.173205e+00	-1.300249e+00
22	 3.264102e+00	 2.346410e+00	-1.242345e+00
22	 3.164102e+00	 2.519615e+00	-1.197209e+00
22	 3.064102e+00	 2.692820e+00	-1.164841e+00
22	 2.964102e+00	 2.866025e+00	-1.145240e+00
23	 5.000000e-01	-8.660254e-01	-1.073514e+00
23	 4.000000e-01	-6.928203e-01	-1.107164e+00
23	 3.000000e-01	-5.196152e-01	-1.141788e+00
23	 2.000000e-01	-3.464102e-01	-1.177385e+00
23	 1.000000e-01	-1.732051e-01	-1.213957e+00
23	 0.000000e+00	 0.000000e+00	-1.251501e+00
23	 8.464102e-01	-6.660254e-01	-1.030252e+00
23	 7.464102e-01	-4.928203e-01	-1.067036e+00
23	 6.464102e-01	-3.196152e-01	-1.105099e+00
23	 5.464102e-01	-1.464102e-01	-1.144442e+00
23	 4.464102e-01	 2.679492e-02	-1.185065e+00
23	 3.464102e-01	 2.000000e-01	-1.226967e+00
23	 1.192820e+00	-4.660254e-01	-9.931343e-01
23	 1.092820e+00	-2.928203e-01	-1.033768e+00
23	 9.928203e-01	-1.196152e-01	-1.075986e+00
23	 8.928203e-01	 5.358984e-02	-1.119790e+00
23	 7.928203e-01	 2.267949e-01	-1.165178e+00
23	 6.928203e-01	 4.000000e-01	-1.212153e+00
23	 1.539230e+00	-2.660254e-01	-9.621618e-01
23	 1.439230e+00	-9.282032e-02	-1.007359e+00
23	 1.339230e+00	 8.038476e-02	-1.054448e+00
23	 1.239230e+00	 2.535898e-01	-1.103427e+00
23	 1.139230e+00	 4.267949e-01	-1.154297e+00
23	 1.039230e+00	 6.000000e-01	-1.207058e+00
23	 1.885641e+00	-6.602540e-02	-9.373341e-01
23	 1.785641e+00	 1.071797e-01	-9.878107e-01
23	 1.685641e+00	 2.803848e-01	-1.040484e+00
23	 1.585641e+00	 4.535898e-01	-1.095354e+00
23	 1.485641e+00	 6.267949e-01	-1.152421e+00
23	 1.385641e+00	 8.000000e-01	-1.211684e+00
23	 2.232051e+00	 1.339746e-01	-9.186512e-01
23	 2.132051e+00	 3.071797e-01	-9.751222e-01
23	 2.032051e+00	 4.803848e-01	-1.034096e+00
23	 1.932051e+00	 6.535898e-01	-1.095572e+00
23	 1.832051e+00	 8.267949e-01	-1.159550e+00
23	 1.732051e+00	 1.000000e+00	-1.226031e+00
23	 2.232051e+00	 1.339746e-01	-9.186512e-01
23	 2.132051e+00	 3.071797e-01	-9.751222e-01
23	 2.032051e+00	 4.803848e-01	-1.034096e+00
23	 1.932051e+00	 6.535898e-01	-1.095572e+00
23	 1.832051e+00	 8.267949e-01	-1.159550e+00
23	 1.732051e+00	 1.000000e+00	-1.226031e+00
23	 2.578461e+00	 3.339746e-01	-8.631330e-01
23	 2.478461e+00	 5.071797e-01	-9.025099e-01
23	 2.378461e+00	 6.803848e-01	-9.524153e-01
23	 2.278461e+00	 8.535898e-01	-1.012849e+00
23	 2.178461e+00	 1.026795e+00	-1.083812e+00
23	 2.078461e+00	 1.200000e+00	-1.165303e+00
23	 2.924871e+00	 5.339746e-01	-7.578164e-01
23	 2.824871e+00	 7.071797e-01	-7.945020e-01
23	 2.724871e+00	 8.803848e-01	-8.497424e-01
23	 2.624871e+00	 1.053590e+00	-9.235375e-01
23	 2.524871e+00	 1.226795e+00	-1.015887e+00
23	 2.424871e+00	 1.400000e+00	-1.126792e+00
23	 3.271281e+00	 7.339746e-01	-6.027014e-01
23	 3.171281e+00	 9.071797e-01	-6.510987e-01
23	 3.071281e+00	 1.080385e+00	-7.260769e-01
23	 2.971281e+00	 1.253590e+00	-8.276360e-01
23	 2.871281e+00	 1.426795e+00	-9.557760e-01
23	 2.771281e+00	 1.600000e+00	-1.110497e+00
23	 3.617691e+00	 9.339746e-01	-3.977880e-01
23	 3.517691e+00	 1.107180e+00	-4.722998e-01
23	 3.417691e+00	 1.280385e+00	-5.814187e-01
23	 3.317691e+00	 1.453590e+00	-7.251447e-01
23	 3.217691e+00	 1.626795e+00	-9.034777e-01
23	 3.117691e+00	 1.800000e+00	-1.116418e+00
23	 3.964102e+00	 1.133975e+00	-1.430762e-01
23	 3.864102e+00	 1.307180e+00	-2.581055e-01
23	 3.764102e+00	 1.480385e+00	-4.157680e-01
23	 3.664102e+00	 1.653590e+00	-6.160637e-01
23	 3.564102e+00	 1.826795e+00	-8.589926e-01
23	 3.464102e+00	 2.000000e+00	-1.144555e+00
24	 5.000000e+00	-8.660254e+00	-3.730329e-01
24	 4.550000e+00	-7.880831e+00	-3.922680e-01
24	 4.100000e+00	-7.101408e+00	-4.161734e-01
24	 3.650000e+00	-6.321985e+00	-4.447489e-01
24	 3.200000e+00	-5.542563e+00	-4.779946e-01
24	 2.750000e+00	-4.763140e+00	-5.159106e-01
24	 5.346410e+00	-8.460254e+00	-3.513515e-01
24	 4.896410e+00	-7.680831e+00	-3.732233e-01
24	 4.446410e+00	-6.901408e+00	-3.970430e-01
24	 3.996410e+00	-6.121985e+00	-4.228104e-01
24	 3.546410e+00	-5.342563e+00	-4.505257e-01
24	 3.096410e+00	-4.563140e+00	-4.801887e-01
24	 5.692820e+00	-8.260254e+00	-3.303989e-01
24	 5.242820e+00	-7.480831e+00	-3.529113e-01
24	 4.792820e+00	-6.701408e+00	-3.746490e-01
24	 4.342820e+00	-5.921985e+00	-3.956122e-01
24	 3.892820e+00	-5.142563e+00	-4.158008e-01
24	 3.442820e+00	-4.363140e+00	-4.352148e-01
24	 6.039230e+00	-8.060254e+00	-3.101752e-01
24	 5.589230e+00	-7.280831e+00	-3.313319e-01
24	 5.139230e+00	-6.501408e+00	-3.489916e-01
24	 4.689230e+00	-5.721985e+00	-3.631543e-01
24	 4.239230e+00	-4.942563e+00	-3.738200e-01
24	 3.789230e+00	-4.163140e+00	-3.809887e-01
24	 6.385641e+00	-7.860254e+00	-2.906804e-01
24	 5.935641e+00	-7.080831e+00	-3.084852e-01
24	 5.485641e+00	-6.301408e+00	-3.200706e-01
24	 5.035641e+00	-5.521985e+00	-3.254366e-01
24	 4.585641e+00	-4.742563e+00	-3.245833e-01
24	 4.135641e+00	-3.963140e+00	-3.175105e-01
24	 6.732051e+00	-7.660254e+00	-2.719145e-01
24	 6.282051e+00	-6.880831e+00	-2.843712e-01
24	 5.832051e+00	-6.101408e+00	-2.878861e-01
24	 5.382051e+00	-5.321985e+00	-2.824593e-01
24	 4.932051e+00	-4.542563e+00	-2.680907e-01
24	 4.482051e+00	-3.763140e+00	-2.447803e-01
24	 2.750000e+00	-4.763140e+00	-5.159106e-01
24	 2.300000e+00	-3.983717e+00	-5.633054e-01
24	 1.850000e+00	-3.204294e+00	-6.441970e-01
24	 1.400000e+00	-2.424871e+00	-7.585854e-01
24	 9.500000e-01	-1.645448e+00	-9.064705e-01
24	 5.000000e-01	-8.660254e-01	-1.087852e+00
24	 3.096410e+00	-4.563140e+00	-4.801887e-01
24	 2.646410e+00	-3.783717e+00	-5.316826e-01
24	 2.196410e+00	-3.004294e+00	-6.130017e-01
24	 1.746410e+00	-2.224871e+00	-7.241458e-01
24	 1.296410e+00	-1.445448e+00	-8.651150e-01
24	 8.464102e-01	-6.660254e-01	-1.035909e+00
24	 3.442820e+00	-4.363140e+00	-4.352148e-01
24	 2.992820e+00	-3.583717e+00	-4.911929e-01
24	 2.542820e+00	-2.804294e+00	-5.733245e-01
24	 2.092820e+00	-2.024871e+00	-6.816095e-01
24	 1.642820e+00	-1.245448e+00	-8.160479e-01
24	 1.192820e+00	-4.660254e-01	-9.766397e-01
24	 3.789230e+00	-4.163140e+00	-3.809887e-01
24	 3.339230e+00	-3.383717e+00	-4.418362e-01
24	 2.889230e+00	-2.604294e+00	-5.251655e-01
24	 2.439230e+00	-1.824871e+00	-6.309765e-01
24	 1.989230e+00	-1.045448e+00	-7.592693e-01
24	 1.539230e+00	-2.660254e-01	-9.100438e-01
24	 4.135641e+00	-3.963140e+00	-3.175105e-01
24	 3.685641e+00	-3.183717e+00	-3.836126e-01
24	 3.235641e+00	-2.404294e+00	-4.685247e-01
24	 2.785641e+00	-1.624871e+00	-5.722468e-01
24	 2.335641e+00	-8.454483e-01	-6.947791e-01
24	 1.885641e+00	-6.602540e-02	-8.361214e-01
24	 4.482051e+00	-3.763140e+00	-2.447803e-01
24	 4.032051e+00	-2.983717e+00	-3.165220e-01
24	 3.582051e+00	-2.204294e+00	-4.034020e-01
24	 3.132051e+00	-1.424871e+00	-5.054205e-01
24	 2.682051e+00	-6.454483e-01	-6.225774e-01
24	 2.232051e+00	 1.339746e-01	-7.548726e-01
24	 6.732051e+00	-7.660254e+00	-2.719145e-01
24	 6.282051e+00	-6.880831e+00	-2.843712e-01
24	 5.832051e+00	-6.101408e+00	-2.878861e-01
24	 5.382051e+00	-5.321985e+00	-2.824593e-01
24	 4.932051e+00	-4.542563e+00	-2.680907e-01
24	 4.482051e+00	-3.763140e+00	-2.447803e-01
24	 7.078461e+00	-7.460254e+00	-2.536360e-01
24	 6.628461e+00	-6.680831e+00	-2.592050e-01
24	 6.178461e+00	-5.901408e+00	-2.565879e-01
24	 5.728461e+00	-5.121985e+00	-2.457849e-01
24	 5.278461e+00	-4.342563e+00	-2.267959e-01
24	 4.828461e+00	-3.563140e+00	-1.996208e-01
24	 7.424871e+00	-7.260254e+00	-2.356035e-01
24	 6.974871e+00	-6.480831e+00	-2.345203e-01
24	 6.524871e+00	-5.701408e+00	-2.260068e-01
24	 6.074871e+00	-4.921985e+00	-2.100630e-01
24	 5.624871e+00	-4.142563e+00	-1.866890e-01
24	 5.174871e+00	-3.363140e+00	-1.558847e-01
24	 7.771281e+00	-7.060254e+00	-2.178171e-01
24	 7.321281e+00	-6.280831e+00	-2.103171e-01
24	 6.871281e+00	-5.501408e+00	-1.961426e-01
24	 6.421281e+00	-4.721985e+00	-1.752936e-01
24	 5.971281e+00	-3.942563e+00	-1.477700e-01
24	 5.521281e+00	-3.163140e+00	-1.135720e-01
24	 8.117691e+00	-6.860254e+00	-2.002767e-01
24	 7.667691e+00	-6.080831e+00	-1.865954e-01
24	 7.217691e+00	-5.301408e+00	-1.669954e-01
24	 6.767691e+00	-4.521985e+00	-1.414766e-01
24	 6.317691e+00	-3.742563e+00	-1.100390e-01
24	 5.867691e+00	-2.963140e+00	-7.268270e-02
24	 8.464102e+00	-6.660254e+00	-1.829823e-01
24	 8.014102e+00	-5.880831e+00	-1.633552e-01
24	 7.564102e+00	-5.101408e+00	-1.385651e-01
24	 7.114102e+00	-4.321985e+00	-1.086120e-01
24	 6.664102e+00	-3.542563e+00	-7.349594e-02
24	 6.214102e+00	-2.763140e+00	-3.321682e-02
24	 4.482051e+00	-3.763140e+00	-2.447803e-01
24	 4.032051e+00	-2.983717e+00	-3.165220e-01
24	 3.582051e+00	-2.204294e+00	-4.034020e-01
24	 3.132051e+00	-1.424871e+00	-5.054205e-01
24	 2.682051e+00	-6.454483e-01	-6.225774e-01
24	 2.232051e+00	 1.339746e-01	-7.548726e-01
24	 4.828461e+00	-3.563140e+00	-1.996208e-01
24	 4.378461e+00	-2.783717e+00	-2.829392e-01
24	 3.928461e+00	-2.004294e+00	-3.680079e-01
24	 3.478461e+00	-1.224871e+00	-4.548269e-01
24	 3.028461e+00	-4.454483e-01	-5.433962e-01
24	 2.578461e+00	 3.339746e-01	-6.337157e-01
24	 5.174871e+00	-3.363140e+00	-1.558847e-01
24	 4.724871e+00	-2.583717e+00	-2.420007e-01
24	 4.274871e+00	-1.804294e+00	-3.164788e-01
24	 3.824871e+00	-1.024871e+00	-3.793191e-01
24	 3.374871e+00	-2.454483e-01	-4.305216e-01
24	 2.924871e+00	 5.339746e-01	-4.700862e-01
24	 5.521281e+00	-3.163140e+00	-1.135720e-01
24	 5.071281e+00	-2.383717e+00	-1.937063e-01
24	 4.621281e+00	-1.604294e+00	-2.488147e-01
24	 4.171281e+00	-8.248711e-01	-2.788971e-01
24	 3.721281e+00	-4.544827e-02	-2.839535e-01
24	 3.271281e+00	 7.339746e-01	-2.639840e-01
24	 5.867691e+00	-2.963140e+00	-7.268270e-02
24	 5.417691e+00	-2.183717e+00	-1.380561e-01
24	 4.967691e+00	-1.404294e+00	-1.650155e-01
24	 4.517691e+00	-6.248711e-01	-1.535608e-01
24	 4.067691e+00	 1.545517e-01	-1.036921e-01
24	 3.617691e+00	 9.339746e-01	-1.540922e-02
24	 6.214102e+00	-2.763140e+00	-3.321682e-02
24	 5.764102e+00	-1.983717e+00	-7.505019e-02
24	 5.314102e+00	-1.204294e+00	-6.508136e-02
24	 4.864102e+00	-4.248711e-01	-3.310347e-03
24	 4.414102e+00	 3.545517e-01	 1.102629e-01
24	 3.964102e+00	 1.133975e+00	 2.756383e-01
25	 8.464102e+00	-6.660254e+00	-1.829823e-01
25	 8.014102e+00	-5.880831e+00	-1.510868e-01
25	 7.564102e+00	-5.101408e+00	-1.231626e-01
25	 7.114102e+00	-4.321985e+00	-9.920987e-02
25	 6.664102e+00	-3.542563e+00	-7.922849e-02
25	 6.214102e+00	-2.763140e+00	-6.321849e-02
25	 8.637307e+00	-6.560254e+00	-1.652130e-01
25	 8.187307e+00	-5.780831e+00	-1.345779e-01
25	 7.737307e+00	-5.001408e+00	-1.087373e-01
25	 7.287307e+00	-4.221985e+00	-8.769122e-02
25	 6.837307e+00	-3.442563e+00	-7.143967e-02
25	 6.387307e+00	-2.663140e+00	-5.998263e-02
25	 8.810512e+00	-6.460254e+00	-1.469020e-01
25	 8.360512e+00	-5.680831e+00	-1.181123e-01
25	 7.910512e+00	-4.901408e+00	-9.494032e-02
25	 7.460512e+00	-4.121985e+00	-7.738595e-02
25	 7.010512e+00	-3.342563e+00	-6.544923e-02
25	 6.560512e+00	-2.563140e+00	-5.913016e-02
25	 8.983717e+00	-6.360254e+00	-1.280494e-01
25	 8.533717e+00	-5.580831e+00	-1.016902e-01
25	 8.083717e+00	-4.801408e+00	-8.177171e-02
25	 7.633717e+00	-4.021985e+00	-6.829405e-02
25	 7.183717e+00	-3.242563e+00	-6.125718e-02
25	 6.733717e+00	-2.463140e+00	-6.066109e-02
25	 9.156922e+00	-6.260254e+00	-1.086551e-01
25	 8.706922e+00	-5.480831e+00	-8.531134e-02
25	 8.256922e+00	-4.701408e+00	-6.923148e-02
25	 7.806922e+00	-3.921985e+00	-6.041554e-02
25	 7.356922e+00	-3.142563e+00	-5.886351e-02
25	 6.906922e+00	-2.363140e+00	-6.457539e-02
25	 9.330127e+00	-6.160254e+00	-8.871923e-02
25	 8.880127e+00	-5.380831e+00	-6.897590e-02
25	 8.430127e+00	-4.601408e+00	-5.731962e-02
25	 7.980127e+00	-3.821985e+00	-5.375040e-02
25	 7.530127e+00	-3.042563e+00	-5.826822e-02
25	 7.080127e+00	-2.263140e+00	-7.087309e-02
25	 6.214102e+00	-2.763140e+00	-6.321849e-02
25	 5.764102e+00	-1.983717e+00	-1.244913e-01
25	 5.314102e+00	-1.204294e+00	-1.151680e-01
25	 4.864102e+00	-4.248711e-01	-3.524883e-02
25	 4.414102e+00	 3.545517e-01	 1.152664e-01
25	 3.964102e+00	 1.133975e+00	 3.363775e-01
25	 6.387307e+00	-2.663140e+00	-5.998263e-02
25	 5.937307e+00	-1.883717e+00	-1.015742e-01
25	 5.487307e+00	-1.104294e+00	-7.630709e-02
25	 5.037307e+00	-3.248711e-01	 1.581875e-02
25	 4.587307e+00	 4.545517e-01	 1.748033e-01
25	 4.137307e+00	 1.233975e+00	 4.006466e-01
25	 6.560512e+00	-2.563140e+00	-5.913016e-02
25	 6.110512e+00	-1.783717e+00	-8.150560e-02
25	 5.660512e+00	-1.004294e+00	-4.075959e-02
25	 5.210512e+00	-2.248711e-01	 6.310787e-02
25	 4.760512e+00	 5.545517e-01	 2.300968e-01
25	 4.310512e+00	 1.333975e+00	 4.602071e-01
25	 6.733717e+00	-2.463140e+00	-6.066109e-02
25	 6.283717e+00	-1.683717e+00	-6.428539e-02
25	 5.833717e+00	-9.042940e-01	-8.525517e-03
25	 5.383717e+00	-1.248711e-01	 1.066185e-01
25	 4.933717e+00	 6.545517e-01	 2.811468e-01
25	 4.483717e+00	 1.433975e+00	 5.150592e-01
25	 6.906922e+00	-2.363140e+00	-6.457539e-02
25	 6.456922e+00	-1.583717e+00	-4.991359e-02
25	 6.006922e+00	-8.042940e-01	 2.039512e-02
25	 5.556922e+00	-2.487113e-02	 1.463507e-01
25	 5.106922e+00	 7.545517e-01	 3.279533e-01
25	 4.656922e+00	 1.533975e+00	 5.652027e-01
25	 7.080127e+00	-2.263140e+00	-7.087309e-02
25	 6.630127e+00	-1.483717e+00	-3.839020e-02
25	 6.180127e+00	-7.042940e-01	 4.600232e-02
25	 5.730127e+00	 7.512887e-02	 1.823045e-01
25	 5.280127e+00	 8.545517e-01	 3.705163e-01
25	 4.830127e+00	 1.633975e+00	 6.106377e-01
26	 9.330127e+00	-6.160254e+00	-8.871923e-02
26	 8.880127e+00	-5.380831e+00	-7.619346e-02
26	 8.430127e+00	-4.601408e+00	-6.672085e-02
26	 7.980127e+00	-3.821985e+00	-6.030140e-02
26	 7.530127e+00	-3.042563e+00	-5.693511e-02
26	 7.080127e+00	-2.263140e+00	-5.662198e-02
26	 9.503332e+00	-6.060254e+00	-7.680782e-02
26	 9.053332e+00	-5.280831e+00	-6.741320e-02
26	 8.603332e+00	-4.501408e+00	-5.981336e-02
26	 8.153332e+00	-3.721985e+00	-5.400830e-02
26	 7.703332e+00	-2.942563e+00	-4.999803e-02
26	 7.253332e+00	-2.163140e+00	-4.778254e-02
26	 9.676537e+00	-5.960254e+00	-6.703539e-02
26	 9.226537e+00	-5.180831e+00	-6.009980e-02
26	 8.776537e+00	-4.401408e+00	-5.370062e-02
26	 8.326537e+00	-3.621985e+00	-4.783786e-02
26	 7.876537e+00	-2.842563e+00	-4.251150e-02
26	 7.426537e+00	-2.063140e+00	-3.772155e-02
26	 9.849742e+00	-5.860254e+00	-5.940193e-02
26	 9.399742e+00	-5.080831e+00	-5.425327e-02
26	 8.949742e+00	-4.301408e+00	-4.838264e-02
26	 8.499742e+00	-3.521985e+00	-4.179006e-02
26	 8.049742e+00	-2.742563e+00	-3.447550e-02
26	 7.599742e+00	-1.963140e+00	-2.643898e-02
26	 1.002295e+01	-5.760254e+00	-5.390744e-02
26	 9.572947e+00	-4.980831e+00	-4.987360e-02
26	 9.122947e+00	-4.201408e+00	-4.385942e-02
26	 8.672947e+00	-3.421985e+00	-3.586490e-02
26	 8.222947e+00	-2.642563e+00	-2.589005e-02
26	 7.772947e+00	-1.863140e+00	-1.393485e-02
26	 1.019615e+01	-5.660254e+00	-5.055192e-02
26	 9.746152e+00	-4.880831e+00	-4.696079e-02
26	 9.296152e+00	-4.101408e+00	-4.013095e-02
26	 8.846152e+00	-3.321985e+00	-3.006240e-02
26	 8.396152e+00	-2.542563e+00	-1.675513e-02
26	 7.946152e+00	-1.763140e+00	-2.091530e-04
26	 7.080127e+00	-2.263140e+00	-5.662198e-02
26	 6.630127e+00	-1.483717e+00	-1.858206e-02
26	 6.180127e+00	-7.042940e-01	 5.161165e-02
26	 5.730127e+00	 7.512887e-02	 1.539592e-01
26	 5.280127e+00	 8.545517e-01	 2.884605e-01
26	 4.830127e+00	 1.633975e+00	 4.551156e-01
26	 7.253332e+00	-2.163140e+00	-4.778254e-02
26	 6.803332e+00	-1.383717e+00	-2.077092e-03
26	 6.353332e+00	-6.042940e-01	 7.014805e-02
26	 5.903332e+00	 1.751289e-01	 1.688929e-01
26	 5.453332e+00	 9.545517e-01	 2.941574e-01
26	 5.003332e+00	 1.733975e+00	 4.459416e-01
26	 7.426537e+00	-2.063140e+00	-3.772155e-02
26	 6.976537e+00	-1.283717e+00	 1.060852e-02
26	 6.526537e+00	-5.042940e-01	 7.982417e-02
26	 6.076537e+00	 2.751289e-01	 1.699254e-01
26	 5.626537e+00	 1.054552e+00	 2.809122e-01
26	 5.176537e+00	 1.833975e+00	 4.127847e-01
26	 7.599742e+00	-1.963140e+00	-2.643898e-02
26	 7.149742e+00	-1.183717e+00	 1.947478e-02
26	 6.699742e+00	-4.042940e-01	 8.064002e-02
26	 6.249742e+00	 3.751289e-01	 1.570567e-01
26	 5.799742e+00	 1.154552e+00	 2.487250e-01
26	 5.349742e+00	 1.933975e+00	 3.556446e-01
26	 7.772947e+00	-1.863140e+00	-1.393485e-02
26	 7.322947e+00	-1.083717e+00	 2.452168e-02
26	 6.872947e+00	-3.042940e-01	 7.259559e-02
26	 6.422947e+00	 4.751289e-01	 1.302869e-01
26	 5.972947e+00	 1.254552e+00	 1.975955e-01
26	 5.522947e+00	 2.033975e+00	 2.745216e-01
26	 7.946152e+00	-1.763140e+00	-2.091530e-04
26	 7.496152e+00	-9.837169e-01	 2.574923e-02
26	 7.046152e+00	-2.042940e-01	 5.569089e-02
26	 6.596152e+00	 5.751289e-01	 8.961582e-02
26	 6.146152e+00	 1.354552e+00	 1.275240e-01
26	 5.696152e+00	 2.133975e+00	 1.694155e-01
27	 1.019615e+01	-5.660254e+00	-5.055192e-02
27	 9.746152e+00	-4.880831e+00	-4.576673e-02
27	 9.296152e+00	-4.101408e+00	-3.928982e-02
27	 8.846152e+00	-3.321985e+00	-3.112117e-02
27	 8.396152e+00	-2.542563e+00	-2.126081e-02
27	 7.946152e+00	-1.763140e+00	-9.708719e-03
27	 1.054256e+01	-5.460254e+00	-3.699254e-02
27	 1.009256e+01	-4.680831e+00	-3.426875e-02
27	 9.642563e+00	-3.901408e+00	-2.839684e-02
27	 9.192563e+00	-3.121985e+00	-1.937680e-02
27	 8.742563e+00	-2.342563e+00	-7.208637e-03
27	 8.292563e+00	-1.563140e+00	 8.107648e-03
27	 1.088897e+01	-5.260254e+00	-2.514428e-02
27	 1.043897e+01	-4.480831e+00	-2.544808e-02
27	 9.988973e+00	-3.701408e+00	-2.114736e-02
27	 9.538973e+00	-2.921985e+00	-1.224212e-02
27	 9.088973e+00	-2.142563e+00	 1.267646e-03
27	 8.638973e+00	-1.363140e+00	 1.938193e-02
27	 1.123538e+01	-5.060254e+00	-1.500714e-02
27	 1.078538e+01	-4.280831e+00	-1.930473e-02
27	 1.033538e+01	-3.501408e+00	-1.754139e-02
27	 9.885383e+00	-2.721985e+00	-9.717135e-03
27	 9.435383e+00	-1.942563e+00	 4.168042e-03
27	 8.985383e+00	-1.163140e+00	 2.411414e-02
27	 1.158179e+01	-4.860254e+00	-6.581125e-03
27	 1.113179e+01	-4.080831e+00	-1.583868e-02
27	 1.068179e+01	-3.301408e+00	-1.757893e-02
27	 1.023179e+01	-2.521985e+00	-1.180185e-02
27	 9.781793e+00	-1.742563e+00	 1.492550e-03
27	 9.331793e+00	-9.631397e-01	 2.230427e-02
27	 1.192820e+01	-4.660254e+00	 1.337732e-04
27	 1.147820e+01	-3.880831e+00	-1.504995e-02
27	 1.102820e+01	-3.101408e+00	-2.125996e-02
27	 1.057820e+01	-2.321985e+00	-1.849626e-02
27	 1.012820e+01	-1.542563e+00	-6.758831e-03
27	 9.678203e+00	-7.631397e-01	 1.395231e-02
27	 7.946152e+00	-1.763140e+00	-9.708719e-03
27	 7.496152e+00	-9.837169e-01	 1.400875e-02
27	 7.046152e+00	-2.042940e-01	 4.876243e-02
27	 6.596152e+00	 5.751289e-01	 9.455232e-02
27	 6.146152e+00	 1.354552e+00	 1.513784e-01
27	 5.696152e+00	 2.133975e+00	 2.192407e-01
27	 8.292563e+00	-1.563140e+00	 8.107648e-03
27	 7.842563e+00	-7.837169e-01	 1.677881e-02
27	 7.392563e+00	-4.293994e-03	 3.601286e-02
27	 6.942563e+00	 7.751289e-01	 6.580977e-02
27	 6.492563e+00	 1.554552e+00	 1.061696e-01
27	 6.042563e+00	 2.333975e+00	 1.570922e-01
27	 8.638973e+00	-1.363140e+00	 1.938193e-02
27	 8.188973e+00	-5.837169e-01	 1.695638e-02
27	 7.738973e+00	 1.957060e-01	 2.462036e-02
27	 7.288973e+00	 9.751289e-01	 4.237387e-02
27	 6.838973e+00	 1.754552e+00	 7.021693e-02
27	 6.388973e+00	 2.533975e+00	 1.081495e-01
27	 8.985383e+00	-1.163140e+00	 2.411414e-02
27	 8.535383e+00	-3.837169e-01	 1.454143e-02
27	 8.085383e+00	 3.957060e-01	 1.458493e-02
27	 7.635383e+00	 1.175129e+00	 2.424462e-02
27	 7.185383e+00	 1.954552e+00	 4.352053e-02
27	 6.735383e+00	 2.733975e+00	 7.241263e-02
27	 9.331793e+00	-9.631397e-01	 2.230427e-02
27	 8.881793e+00	-1.837169e-01	 9.533985e-03
27	 8.431793e+00	 5.957060e-01	 5.906570e-03
27	 7.981793e+00	 1.375129e+00	 1.142202e-02
27	 7.531793e+00	 2.154552e+00	 2.608034e-02
27	 7.081793e+00	 2.933975e+00	 4.988153e-02
27	 9.678203e+00	-7.631397e-01	 1.395231e-02
27	 9.228203e+00	 1.628314e-02	 1.934033e-03
27	 8.778203e+00	 7.957060e-01	-1.414715e-03
27	 8.328203e+00	 1.575129e+00	 3.906068e-03
27	 7.878203e+00	 2.354552e+00	 1.789638e-02
27	 7.428203e+00	 3.133975e+00	 4.055623e-02
27	 1.192820e+01	-4.660254e+00	 1.337732e-04
27	 1.147820e+01	-3.880831e+00	-1.504995e-02
27	 1.102820e+01	-3.101408e+00	-2.125996e-02
27	 1.057820e+01	-2.321985e+00	-1.849626e-02
27	 1.012820e+01	-1.542563e+00	-6.758831e-03
27	 9.678203e+00	-7.631397e-01	 1.395231e-02
27	 1.227461e+01	-4.460254e+00	 4.815892e-03
27	 1.182461e+01	-3.680831e+00	-1.190582e-02
27	 1.137461e+01	-2.901408e+00	-1.990732e-02
27	 1.092461e+01	-2.121985e+00	-1.918861e-02
27	 1.047461e+01	-1.342563e+00	-9.749688e-03
27	 1.002461e+01	-5.631397e-01	 8.409440e-03
27	 1.262102e+01	-4.260254e+00	 7.143575e-03
27	 1.217102e+01	-3.480831e+00	-1.111184e-02
27	 1.172102e+01	-2.701408e+00	-2.090055e-02
27	 1.127102e+01	-1.921985e+00	-2.222256e-02
27	 1.082102e+01	-1.142563e+00	-1.507786e-02
27	 1.037102e+01	-3.631397e-01	 5.335301e-04
27	 1.296743e+01	-4.060254e+00	 7.116820e-03
27	 1.251743e+01	-3.280831e+00	-1.266801e-02
27	 1.206743e+01	-2.501408e+00	-2.423965e-02
27	 1.161743e+01	-1.721985e+00	-2.759810e-02
27	 1.116743e+01	-9.425626e-01	-2.274336e-02
27	 1.071743e+01	-1.631397e-01	-9.675418e-03
27	 1.331384e+01	-3.860254e+00	 4.735628e-03
27	 1.286384e+01	-3.080831e+00	-1.657435e-02
27	 1.241384e+01	-2.301408e+00	-2.992464e-02
27	 1.196384e+01	-1.521985e+00	-3.531525e-02
27	 1.151384e+01	-7.425626e-01	-3.274617e-02
27	 1.106384e+01	 3.686028e-02	-2.221741e-02
27	 1.366025e+01	-3.660254e+00	 0.000000e+00
27	 1.321025e+01	-2.880831e+00	-2.283084e-02
27	 1.276025e+01	-2.101408e+00	-3.795550e-02
27	 1.231025e+01	-1.321985e+00	-4.537399e-02
27	 1.186025e+01	-5.425626e-01	-4.508630e-02
27	 1.141025e+01	 2.368603e-01	-3.709243e-02
27	 9.678203e+00	-7.631397e-01	 1.395231e-02
27	 9.228203e+00	 1.628314e-02	 1.934033e-03
27	 8.778203e+00	 7.957060e-01	-1.414715e-03
27	 8.328203e+00	 1.575129e+00	 3.906068e-03
27	 7.878203e+00	 2.354552e+00	 1.789638e-02
27	 7.428203e+00	 3.133975e+00	 4.055623e-02
27	 1.002461e+01	-5.631397e-01	 8.409440e-03
27	 9.574613e+00	 2.162831e-01	-2.703946e-03
27	 9.124613e+00	 9.957060e-01	-5.814851e-03
27	 8.674613e+00	 1.775129e+00	-9.232748e-04
27	 8.224613e+00	 2.554552e+00	 1.197078e-02
27	 7.774613e+00	 3.333975e+00	 3.286732e-02
27	 1.037102e+01	-3.631397e-01	 5.335301e-04
27	 9.921024e+00	 4.162831e-01	-7.474173e-03
27	 9.471024e+00	 1.195706e+00	-8.146443e-03
27	 9.021024e+00	 1.975129e+00	-1.483281e-03
27	 8.571024e+00	 2.754552e+00	 1.251531e-02
27	 8.121024e+00	 3.533975e+00	 3.384934e-02
27	 1.071743e+01	-1.631397e-01	-9.675418e-03
27	 1.026743e+01	 6.162831e-01	-1.237665e-02
27	 9.817434e+00	 1.395706e+00	-8.409489e-03
27	 9.367434e+00	 2.175129e+00	 2.226050e-03
27	 8.917434e+00	 2.954552e+00	 1.952997e-02
27	 8.467434e+00	 3.733975e+00	 4.350228e-02
27	 1.106384e+01	 3.686028e-02	-2.221741e-02
27	 1.061384e+01	 8.162831e-01	-1.741136e-02
27	 1.016384e+01	 1.595706e+00	-6.603991e-03
27	 9.713844e+00	 2.375129e+00	 1.020472e-02
27	 9.263844e+00	 3.154552e+00	 3.301476e-02
27	 8.813844e+00	 3.933975e+00	 6.182614e-02
27	 1.141025e+01	 2.368603e-01	-3.709243e-02
27	 1.096025e+01	 1.016283e+00	-2.257833e-02
27	 1.051025e+01	 1.795706e+00	-2.729947e-03
27	 1.006025e+01	 2.575129e+00	 2.245272e-02
27	 9.610254e+00	 3.354552e+00	 5.296968e-02
27	 9.160254e+00	 4.133975e+00	 8.882091e-02
28	 5.696152e+00	 2.133975e+00	 1.320955e-01
28	 5.596152e+00	 2.307180e+00	 2.512960e-01
28	 5.496152e+00	 2.480385e+00	 3.414520e-01
28	 5.396152e+00	 2.653590e+00	 4.025636e-01
28	 5.296152e+00	 2.826795e+00	 4.346306e-01
28	 5.196152e+00	 3.000000e+00	 4.376531e-01
28	 6.042563e+00	 2.333975e+00	 9.777721e-02
28	 5.942563e+00	 2.507180e+00	 1.893414e-01
28	 5.842563e+00	 2.680385e+00	 2.571568e-01
28	 5.742563e+00	 2.853590e+00	 3.012235e-01
28	 5.642563e+00	 3.026795e+00	 3.215414e-01
28	 5.542563e+00	 3.200000e+00	 3.181106e-01
28	 6.388973e+00	 2.533975e+00	 7.104380e-02
28	 6.288973e+00	 2.707180e+00	 1.380286e-01
28	 6.188973e+00	 2.880385e+00	 1.865604e-01
28	 6.088973e+00	 3.053590e+00	 2.166392e-01
28	 5.988973e+00	 3.226795e+00	 2.282649e-01
28	 5.888973e+00	 3.400000e+00	 2.214376e-01
28	 6.735383e+00	 2.733975e+00	 5.189528e-02
28	 6.635383e+00	 2.907180e+00	 9.735770e-02
28	 6.535383e+00	 3.080385e+00	 1.296628e-01
28	 6.435383e+00	 3.253590e+00	 1.488106e-01
28	 6.335383e+00	 3.426795e+00	 1.548011e-01
28	 6.235383e+00	 3.600000e+00	 1.476342e-01
28	 7.081793e+00	 2.933975e+00	 4.033164e-02
28	 6.981793e+00	 3.107180e+00	 6.732859e-02
28	 6.881793e+00	 3.280385e+00	 8.646395e-02
28	 6.781793e+00	 3.453590e+00	 9.773772e-02
28	 6.681793e+00	 3.626795e+00	 1.011499e-01
28	 6.581793e+00	 3.800000e+00	 9.670048e-02
28	 7.428203e+00	 3.133975e+00	 3.635289e-02
28	 7.328203e+00	 3.307180e+00	 4.794131e-02
28	 7.228203e+00	 3.480385e+00	 5.696387e-02
28	 7.128203e+00	 3.653590e+00	 6.342056e-02
28	 7.028203e+00	 3.826795e+00	 6.731138e-02
28	 6.928203e+00	 4.000000e+00	 6.863634e-02
28	 7.428203e+00	 3.133975e+00	 3.635289e-02
28	 7.328203e+00	 3.307180e+00	 4.794131e-02
28	 7.228203e+00	 3.480385e+00	 5.696387e-02
28	 7.128203e+00	 3.653590e+00	 6.342056e-02
28	 7.028203e+00	 3.826795e+00	 6.731138e-02
28	 6.928203e+00	 4.000000e+00	 6.863634e-02
28	 7.774613e+00	 3.333975e+00	 3.086099e-02
28	 7.674613e+00	 3.507180e+00	 4.240376e-02
28	 7.574613e+00	 3.680385e+00	 5.138895e-02
28	 7.474613e+00	 3.853590e+00	 5.781655e-02
28	 7.374613e+00	 4.026795e+00	 6.168657e-02
28	 7.274613e+00	 4.200000e+00	 6.299900e-02
28	 8.121024e+00	 3.533975e+00	 3.336184e-02
28	 8.021024e+00	 3.707180e+00	 4.419096e-02
28	 7.921024e+00	 3.880385e+00	 5.247076e-02
28	 7.821024e+00	 4.053590e+00	 5.820127e-02
28	 7.721024e+00	 4.226795e+00	 6.138247e-02
28	 7.621024e+00	 4.400000e+00	 6.201436e-02
28	 8.467434e+00	 3.733975e+00	 4.385545e-02
28	 8.367434e+00	 3.907180e+00	 5.330289e-02
28	 8.267434e+00	 4.080385e+00	 6.020931e-02
28	 8.167434e+00	 4.253590e+00	 6.457471e-02
28	 8.067434e+00	 4.426795e+00	 6.639908e-02
28	 7.967434e+00	 4.600000e+00	 6.568243e-02
28	 8.813844e+00	 3.933975e+00	 6.234181e-02
28	 8.713844e+00	 4.107180e+00	 6.973957e-02
28	 8.613844e+00	 4.280385e+00	 7.460459e-02
28	 8.513844e+00	 4.453590e+00	 7.693687e-02
28	 8.413844e+00	 4.626795e+00	 7.673641e-02
28	 8.313844e+00	 4.800000e+00	 7.400320e-02
28	 9.160254e+00	 4.133975e+00	 8.882091e-02
28	 9.060254e+00	 4.307180e+00	 9.350099e-02
28	 8.960254e+00	 4.480385e+00	 9.565661e-02
28	 8.860254e+00	 4.653590e+00	 9.528776e-02
28	 8.760254e+00	 4.826795e+00	 9.239445e-02
28	 8.660254e+00	 5.000000e+00	 8.697668e-02
29	-3.464102e+00	-2.000000e+00	-1.144555e+00
29	-3.564102e+00	-1.826795e+00	-8.589926e-01
29	-3.664102e+00	-1.653590e+00	-6.160637e-01
29	-3.764102e+00	-1.480385e+00	-4.157680e-01
29	-3.864102e+00	-1.307180e+00	-2.581055e-01
29	-3.964102e+00	-1.133975e+00	-1.430762e-01
29	-3.117691e+00	-1.800000e+00	-1.116418e+00
29	-3.217691e+00	-1.626795e+00	-9.034777e-01
29	-3.317691e+00	-1.453590e+00	-7.251447e-01
29	-3.417691e+00	-1.280385e+00	-5.814187e-01
29	-3.517691e+00	-1.107180e+00	-4.722998e-01
29	-3.617691e+00	-9.339746e-01	-3.977880e-01
29	-2.771281e+00	-1.600000e+00	-1.110497e+00
29	-2.871281e+00	-1.426795e+00	-9.557760e-01
29	-2.971281e+00	-1.253590e+00	-8.276360e-01
29	-3.071281e+00	-1.080385e+00	-7.260769e-01
29	-3.171281e+00	-9.071797e-01	-6.510987e-01
29	-3.271281e+00	-7.339746e-01	-6.027014e-01
29	-2.424871e+00	-1.400000e+00	-1.126792e+00
29	-2.524871e+00	-1.226795e+00	-1.015887e+00
29	-2.624871e+00	-1.053590e+00	-9.235375e-01
29	-2.724871e+00	-8.803848e-01	-8.497424e-01
29	-2.824871e+00	-7.071797e-01	-7.945020e-01
29	-2.924871e+00	-5.339746e-01	-7.578164e-01
29	-2.078461e+00	-1.200000e+00	-1.165303e+00
29	-2.178461e+00	-1.026795e+00	-1.083812e+00
29	-2.278461e+00	-8.535898e-01	-1.012849e+00
29	-2.378461e+00	-6.803848e-01	-9.524153e-01
29	-2.478461e+00	-5.071797e-01	-9.025099e-01
29	-2.578461e+00	-3.339746e-01	-8.631330e-01
29	-1.732051e+00	-1.000000e+00	-1.226031e+00
29	-1.832051e+00	-8.267949e-01	-1.159550e+00
29	-1.932051e+00	-6.535898e-01	-1.095572e+00
29	-2.032051e+00	-4.803848e-01	-1.034096e+00
29	-2.132051e+00	-3.071797e-01	-9.751222e-01
29	-2.232051e+00	-1.339746e-01	-9.186512e-01
29	-1.732051e+00	-1.000000e+00	-1.226031e+00
29	-1.832051e+00	-8.267949e-01	-1.159550e+00
29	-1.932051e+00	-6.535898e-01	-1.095572e+00
29	-2.032051e+00	-4.803848e-01	-1.034096e+00
29	-2.132051e+00	-3.071797e-01	-9.751222e-01
29	-2.232051e+00	-1.339746e-01	-9.186512e-01
29	-1.385641e+00	-8.000000e-01	-1.211684e+00
29	-1.485641e+00	-6.267949e-01	-1.152421e+00
29	-1.585641e+00	-4.535898e-01	-1.095354e+00
29	-1.685641e+00	-2.803848e-01	-1.040484e+00
29	-1.785641e+00	-1.071797e-01	-9.878107e-01
29	-1.885641e+00	 6.602540e-02	-9.373341e-01
29	-1.039230e+00	-6.000000e-01	-1.207058e+00
29	-1.139230e+00	-4.267949e-01	-1.154297e+00
29	-1.239230e+00	-2.535898e-01	-1.103427e+00
29	-1.339230e+00	-8.038476e-02	-1.054448e+00
29	-1.439230e+00	 9.282032e-02	-1.007359e+00
29	-1.539230e+00	 2.660254e-01	-9.621618e-01
29	-6.928203e-01	-4.000000e-01	-1.212153e+00
29	-7.928203e-01	-2.267949e-01	-1.165178e+00
29	-8.928203e-01	-5.358984e-02	-1.119790e+00
29	-9.928203e-01	 1.196152e-01	-1.075986e+00
29	-1.092820e+00	 2.928203e-01	-1.033768e+00
29	-1.192820e+00	 4.660254e-01	-9.931343e-01
29	-3.464102e-01	-2.000000e-01	-1.226967e+00
29	-4.464102e-01	-2.679492e-02	-1.185065e+00
29	-5.464102e-01	 1.464102e-01	-1.144442e+00
29	-6.464102e-01	 3.196152e-01	-1.105099e+00
29	-7.464102e-01	 4.928203e-01	-1.067036e+00
29	-8.464102e-01	 6.660254e-01	-1.030252e+00
29	 0.000000e+00	 0.000000e+00	-1.251501e+00
29	-1.000000e-01	 1.732051e-01	-1.213957e+00
29	-2.000000e-01	 3.464102e-01	-1.177385e+00
29	-3.000000e-01	 5.196152e-01	-1.141788e+00
29	-4.000000e-01	 6.928203e-01	-1.107164e+00
29	-5.000000e-01	 8.660254e-01	-1.073514e+00
30	-3.964102e+00	-1.133975e+00	 2.756383e-01
30	-4.414102e+00	-3.545517e-01	 1.102629e-01
30	-4.864102e+00	 4.248711e-01	-3.310347e-03
30	-5.314102e+00	 1.204294e+00	-6.508136e-02
30	-5.764102e+00	 1.983717e+00	-7.505019e-02
30	-6.214102e+00	 2.763140e+00	-3.321682e-02
30	-3.617691e+00	-9.339746e-01	-1.540922e-02
30	-4.067691e+00	-1.545517e-01	-1.036921e-01
30	-4.517691e+00	 6.248711e-01	-1.535608e-01
30	-4.967691e+00	 1.404294e+00	-1.650155e-01
30	-5.417691e+00	 2.183717e+00	-1.380561e-01
30	-5.867691e+00	 2.963140e+00	-7.268270e-02
30	-3.271281e+00	-7.339746e-01	-2.639840e-01
30	-3.721281e+00	 4.544827e-02	-2.839535e-01
30	-4.171281e+00	 8.248711e-01	-2.788971e-01
30	-4.621281e+00	 1.604294e+00	-2.488147e-01
30	-5.071281e+00	 2.383717e+00	-1.937063e-01
30	-5.521281e+00	 3.163140e+00	-1.135720e-01
30	-2.924871e+00	-5.339746e-01	-4.700862e-01
30	-3.374871e+00	 2.454483e-01	-4.305216e-01
30	-3.824871e+00	 1.024871e+00	-3.793191e-01
30	-4.274871e+00	 1.804294e+00	-3.164788e-01
30	-4.724871e+00	 2.583717e+00	-2.420007e-01
30	-5.174871e+00	 3.363140e+00	-1.558847e-01
30	-2.578461e+00	-3.339746e-01	-6.337157e-01
30	-3.028461e+00	 4.454483e-01	-5.433962e-01
30	-3.478461e+00	 1.224871e+00	-4.548269e-01
30	-3.928461e+00	 2.004294e+00	-3.680079e-01
30	-4.378461e+00	 2.783717e+00	-2.829392e-01
30	-4.828461e+00	 3.563140e+00	-1.996208e-01
30	-2.232051e+00	-1.339746e-01	-7.548726e-01
30	-2.682051e+00	 6.454483e-01	-6.225774e-01
30	-3.132051e+00	 1.424871e+00	-5.054205e-01
30	-3.582051e+00	 2.204294e+00	-4.034020e-01
30	-4.032051e+00	 2.983717e+00	-3.165220e-01
30	-4.482051e+00	 3.763140e+00	-2.447803e-01
30	-6.214102e+00	 2.763140e+00	-3.321682e-02
30	-6.664102e+00	 3.542563e+00	-7.349594e-02
30	-7.114102e+00	 4.321985e+00	-1.086120e-01
30	-7.564102e+00	 5.101408e+00	-1.385651e-01
30	-8.014102e+00	 5.880831e+00	-1.633552e-01
30	-8.464102e+00	 6.660254e+00	-1.829823e-01
30	-5.867691e+00	 2.963140e+00	-7.268270e-02
30	-6.317691e+00	 3.742563e+00	-1.100390e-01
30	-6.767691e+00	 4.521985e+00	-1.414766e-01
30	-7.217691e+00	 5.301408e+00	-1.669954e-01
30	-7.667691e+00	 6.080831e+00	-1.865954e-01
30	-8.117691e+00	 6.860254e+00	-2.002767e-01
30	-5.521281e+00	 3.163140e+00	-1.135720e-01
30	-5.971281e+00	 3.942563e+00	-1.477700e-01
30	-6.421281e+00	 4.721985e+00	-1.752936e-01
30	-6.871281e+00	 5.501408e+00	-1.961426e-01
30	-7.321281e+00	 6.280831e+00	-2.103171e-01
30	-7.771281e+00	 7.060254e+00	-2.178171e-01
30	-5.174871e+00	 3.363140e+00	-1.558847e-01
30	-5.624871e+00	 4.142563e+00	-1.866890e-01
30	-6.074871e+00	 4.921985e+00	-2.100630e-01
30	-6.524871e+00	 5.701408e+00	-2.260068e-01
30	-6.974871e+00	 6.480831e+00	-2.345203e-01
30	-7.424871e+00	 7.260254e+00	-2.356035e-01
30	-4.828461e+00	 3.563140e+00	-1.996208e-01
30	-5.278461e+00	 4.342563e+00	-2.267959e-01
30	-5.728461e+00	 5.121985e+00	-2.457849e-01
30	-6.178461e+00	 5.901408e+00	-2.565879e-01
30	-6.628461e+00	 6.680831e+00	-2.592050e-01
30	-7.078461e+00	 7.460254e+00	-2.536360e-01
30	-4.482051e+00	 3.763140e+00	-2.447803e-01
30	-4.932051e+00	 4.542563e+00	-2.680907e-01
30	-5.382051e+00	 5.321985e+00	-2.824593e-01
30	-5.832051e+00	 6.101408e+00	-2.878861e-01
30	-6.282051e+00	 6.880831e+00	-2.843712e-01
30	-6.732051e+00	 7.660254e+00	-2.719145e-01
30	-2.232051e+00	-1.339746e-01	-7.548726e-01
30	-2.682051e+00	 6.454483e-01	-6.225774e-01
30	-3.132051e+00	 1.424871e+00	-5.054205e-01
30	-3.582051e+00	 2.204294e+00	-4.034020e-01
30	-4.032051e+00	 2.983717e+00	-3.165220e-01
30	-4.482051e+00	 3.763140e+00	-2.447803e-01
30	-1.885641e+00	 6.602540e-02	-8.361214e-01
30	-2.335641e+00	 8.454483e-01	-6.947791e-01
30	-2.785641e+00	 1.624871e+00	-5.722468e-01
30	-3.235641e+00	 2.404294e+00	-4.685247e-01
30	-3.685641e+00	 3.183717e+00	-3.836126e-01
30	-4.135641e+00	 3.963140e+00	-3.175105e-01
30	-1.539230e+00	 2.660254e-01	-9.100438e-01
30	-1.989230e+00	 1.045448e+00	-7.592693e-01
30	-2.439230e+00	 1.824871e+00	-6.309765e-01
30	-2.889230e+00	 2.604294e+00	-5.251655e-01
30	-3.339230e+00	 3.383717e+00	-4.418362e-01
30	-3.789230e+00	 4.163140e+00	-3.809887e-01
30	-1.192820e+00	 4.660254e-01	-9.766397e-01
30	-1.642820e+00	 1.245448e+00	-8.160479e-01
30	-2.092820e+00	 2.024871e+00	-6.816095e-01
30	-2.542820e+00	 2.804294e+00	-5.733245e-01
30	-2.992820e+00	 3.583717e+00	-4.911929e-01
30	-3.442820e+00	 4.363140e+00	-4.352148e-01
30	-8.464102e-01	 6.660254e-01	-1.035909e+00
30	-1.296410e+00	 1.445448e+00	-8.651150e-01
30	-1.746410e+00	 2.224871e+00	-7.241458e-01
30	-2.196410e+00	 3.004294e+00	-6.130017e-01
30	-2.646410e+00	 3.783717e+00	-5.316826e-01
30	-3.096410e+00	 4.563140e+00	-4.801887e-01
30	-5.000000e-01	 8.660254e-01	-1.087852e+00
30	-9.500000e-01	 1.645448e+00	-9.064705e-01
30	-1.400000e+00	 2.424871e+00	-7.585854e-01
30	-1.850000e+00	 3.204294e+00	-6.441970e-01
30	-2.300000e+00	 3.983717e+00	-5.633054e-01
30	-2.750000e+00	 4.763140e+00	-5.159106e-01
30	-4.482051e+00	 3.763140e+00	-2.447803e-01
30	-4.932051e+00	 4.542563e+00	-2.680907e-01
30	-5.382051e+00	 5.321985e+00	-2.824593e-01
30	-5.832051e+00	 6.101408e+00	-2.878861e-01
30	-6.282051e+00	 6.880831e+00	-2.843712e-01
30	-6.732051e+00	 7.660254e+00	-2.719145e-01
30	-4.135641e+00	 3.963140e+00	-3.175105e-01
30	-4.585641e+00	 4.742563e+00	-3.245833e-01
30	-5.035641e+00	 5.521985e+00	-3.254366e-01
30	-5.485641e+00	 6.301408e+00	-3.200706e-01
30	-5.935641e+00	 7.080831e+00	-3.084852e-01
30	-6.385641e+00	 7.860254e+00	-2.906804e-01
30	-3.789230e+00	 4.163140e+00	-3.809887e-01
30	-4.239230e+00	 4.942563e+00	-3.738200e-01
30	-4.689230e+00	 5.721985e+00	-3.631543e-01
30	-5.139230e+00	 6.501408e+00	-3.489916e-01
30	-5.589230e+00	 7.280831e+00	-3.313319e-01
30	-6.039230e+00	 8.060254e+00	-3.101752e-01
30	-3.442820e+00	 4.363140e+00	-4.352148e-01
30	-3.892820e+00	 5.142563e+00	-4.158008e-01
30	-4.342820e+00	 5.921985e+00	-3.956122e-01
30	-4.792820e+00	 6.701408e+00	-3.746490e-01
30	-5.242820e+00	 7.480831e+00	-3.529113e-01
30	-5.692820e+00	 8.260254e+00	-3.303989e-01
30	-3.096410e+00	 4.563140e+00	-4.801887e-01
30	-3.546410e+00	 5.342563e+00	-4.505257e-01
30	-3.996410e+00	 6.121985e+00	-4.228104e-01
30	-4.446410e+00	 6.901408e+00	-3.970430e-01
30	-4.896410e+00	 7.680831e+00	-3.732233e-01
30	-5.346410e+00	 8.460254e+00	-3.513515e-01
30	-2.750000e+00	 4.763140e+00	-5.159106e-01
30	-3.200000e+00	 5.542563e+00	-4.779946e-01
30	-3.650000e+00	 6.321985e+00	-4.447489e-01
30	-4.100000e+00	 7.101408e+00	-4.161734e-01
30	-4.550000e+00	 7.880831e+00	-3.922680e-01
30	-5.000000e+00	 8.660254e+00	-3.730329e-01
31	-4.830127e+00	-1.633975e+00	 6.106377e-01
31	-5.280127e+00	-8.545517e-01	 3.705163e-01
31	-5.730127e+00	-7.512887e-02	 1.823045e-01
31	-6.180127e+00	 7.042940e-01	 4.600232e-02
31	-6.630127e+00	 1.483717e+00	-3.839020e-02
31	-7.080127e+00	 2.263140e+00	-7.087309e-02
31	-4.656922e+00	-1.533975e+00	 5.652027e-01
31	-5.106922e+00	-7.545517e-01	 3.279533e-01
31	-5.556922e+00	 2.487113e-02	 1.463507e-01
31	-6.006922e+00	 8.042940e-01	 2.039512e-02
31	-6.456922e+00	 1.583717e+00	-4.991359e-02
31	-6.906922e+00	 2.363140e+00	-6.457539e-02
31	-4.483717e+00	-1.433975e+00	 5.150592e-01
31	-4.933717e+00	-6.545517e-01	 2.811468e-01
31	-5.383717e+00	 1.248711e-01	 1.066185e-01
31	-5.833717e+00	 9.042940e-01	-8.525517e-03
31	-6.283717e+00	 1.683717e+00	-6.428539e-02
31	-6.733717e+00	 2.463140e+00	-6.066109e-02
31	-4.310512e+00	-1.333975e+00	 4.602071e-01
31	-4.760512e+00	-5.545517e-01	 2.300968e-01
31	-5.210512e+00	 2.248711e-01	 6.310787e-02
31	-5.660512e+00	 1.004294e+00	-4.075959e-02
31	-6.110512e+00	 1.783717e+00	-8.150560e-02
31	-6.560512e+00	 2.563140e+00	-5.913016e-02
31	-4.137307e+00	-1.233975e+00	 4.006466e-01
31	-4.587307e+00	-4.545517e-01	 1.748033e-01
31	-5.037307e+00	 3.248711e-01	 1.581875e-02
31	-5.487307e+00	 1.104294e+00	-7.630709e-02
31	-5.937307e+00	 1.883717e+00	-1.015742e-01
31	-6.387307e+00	 2.663140e+00	-5.998263e-02
31	-3.964102e+00	-1.133975e+00	 3.363775e-01
31	-4.414102e+00	-3.545517e-01	 1.152664e-01
31	-4.864102e+00	 4.248711e-01	-3.524883e-02
31	-5.314102e+00	 1.204294e+00	-1.151680e-01
31	-5.764102e+00	 1.983717e+00	-1.244913e-01
31	-6.214102e+00	 2.763140e+00	-6.321849e-02
31	-7.080127e+00	 2.263140e+00	-7.087309e-02
31	-7.530127e+00	 3.042563e+00	-5.826822e-02
31	-7.980127e+00	 3.821985e+00	-5.375040e-02
31	-8.430127e+00	 4.601408e+00	-5.731962e-02
31	-8.880127e+00	 5.380831e+00	-6.897590e-02
31	-9.330127e+00	 6.160254e+00	-8.871923e-02
31	-6.906922e+00	 2.363140e+00	-6.457539e-02
31	-7.356922e+00	 3.142563e+00	-5.886351e-02
31	-7.806922e+00	 3.921985e+00	-6.041554e-02
31	-8.256922e+00	 4.701408e+00	-6.923148e-02
31	-8.706922e+00	 5.480831e+00	-8.531134e-02
31	-9.156922e+00	 6.260254e+00	-1.086551e-01
31	-6.733717e+00	 2.463140e+00	-6.066109e-02
31	-7.183717e+00	 3.242563e+00	-6.125718e-02
31	-7.633717e+00	 4.021985e+00	-6.829405e-02
31	-8.083717e+00	 4.801408e+00	-8.177171e-02
31	-8.533717e+00	 5.580831e+00	-1.016902e-01
31	-8.983717e+00	 6.360254e+00	-1.280494e-01
31	-6.560512e+00	 2.563140e+00	-5.913016e-02
31	-7.010512e+00	 3.342563e+00	-6.544923e-02
31	-7.460512e+00	 4.121985e+00	-7.738595e-02
31	-7.910512e+00	 4.901408e+00	-9.494032e-02
31	-8.360512e+00	 5.680831e+00	-1.181123e-01
31	-8.810512e+00	 6.460254e+00	-1.469020e-01
31	-6.387307e+00	 2.663140e+00	-5.998263e-02
31	-6.837307e+00	 3.442563e+00	-7.143967e-02
31	-7.287307e+00	 4.221985e+00	-8.769122e-02
31	-7.737307e+00	 5.001408e+00	-1.087373e-01
31	-8.187307e+00	 5.780831e+00	-1.345779e-01
31	-8.637307e+00	 6.560254e+00	-1.652130e-01
31	-6.214102e+00	 2.763140e+00	-6.321849e-02
31	-6.664102e+00	 3.542563e+00	-7.922849e-02
31	-7.114102e+00	 4.321985e+00	-9.920987e-02
31	-7.564102e+00	 5.101408e+00	-1.231626e-01
31	-8.014102e+00	 5.880831e+00	-1.510868e-01
31	-8.464102e+00	 6.660254e+00	-1.829823e-01
32	-5.696152e+00	-2.133975e+00	 1.694155e-01
32	-6.146152e+00	-1.354552e+00	 1.275240e-01
32	-6.596152e+00	-5.751289e-01	 8.961582e-02
32	-7.046152e+00	 2.042940e-01	 5.569089e-02
32	-7.496152e+00	 9.837169e-01	 2.574923e-02
32	-7.946152e+00	 1.763140e+00	-2.091530e-04
32	-5.522947e+00	-2.033975e+00	 2.745216e-01
32	-5.972947e+00	-1.254552e+00	 1.975955e-01
32	-6.422947e+00	-4.751289e-01	 1.302869e-01
32	-6.872947e+00	 3.042940e-01	 7.259559e-02
32	-7.322947e+00	 1.083717e+00	 2.452168e-02
32	-7.772947e+00	 1.863140e+00	-1.393485e-02
32	-5.349742e+00	-1.933975e+00	 3.556446e-01
32	-5.799742e+00	-1.154552e+00	 2.487250e-01
32	-6.249742e+00	-3.751289e-01	 1.570567e-01
32	-6.699742e+00	 4.042940e-01	 8.064002e-02
32	-7.149742e+00	 1.183717e+00	 1.947478e-02
32	-7.599742e+00	 1.963140e+00	-2.643898e-02
32	-5.176537e+00	-1.833975e+00	 4.127847e-01
32	-5.626537e+00	-1.054552e+00	 2.809122e-01
32	-6.076537e+00	-2.751289e-01	 1.699254e-01
32	-6.526537e+00	 5.042940e-01	 7.982417e-02
32	-6.976537e+00	 1.283717e+00	 1.060852e-02
32	-7.426537e+00	 2.063140e+00	-3.772155e-02
32	-5.003332e+00	-1.733975e+00	 4.459416e-01
32	-5.453332e+00	-9.545517e-01	 2.941574e-01
32	-5.903332e+00	-1.751289e-01	 1.688929e-01
32	-6.353332e+00	 6.042940e-01	 7.014805e-02
32	-6.803332e+00	 1.383717e+00	-2.077092e-03
32	-7.253332e+00	 2.163140e+00	-4.778254e-02
32	-4.830127e+00	-1.633975e+00	 4.551156e-01
32	-5.280127e+00	-8.545517e-01	 2.884605e-01
32	-5.730127e+00	-7.512887e-02	 1.539592e-01
32	-6.180127e+00	 7.042940e-01	 5.161165e-02
32	-6.630127e+00	 1.483717e+00	-1.858206e-02
32	-7.080127e+00	 2.263140e+00	-5.662198e-02
32	-7.946152e+00	 1.763140e+00	-2.091530e-04
32	-8.396152e+00	 2.542563e+00	-1.675513e-02
32	-8.846152e+00	 3.321985e+00	-3.006240e-02
32	-9.296152e+00	 4.101408e+00	-4.013095e-02
32	-9.746152e+00	 4.880831e+00	-4.696079e-02
32	-1.019615e+01	 5.660254e+00	-5.055192e-02
32	-7.772947e+00	 1.863140e+00	-1.393485e-02
32	-8.222947e+00	 2.642563e+00	-2.589005e-02
32	-8.672947e+00	 3.421985e+00	-3.586490e-02
32	-9.122947e+00	 4.201408e+00	-4.385942e-02
32	-9.572947e+00	 4.980831e+00	-4.987360e-02
32	-1.002295e+01	 5.760254e+00	-5.390744e-02
32	-7.599742e+00	 1.963140e+00	-2.643898e-02
32	-8.049742e+00	 2.742563e+00	-3.447550e-02
32	-8.499742e+00	 3.521985e+00	-4.179006e-02
32	-8.949742e+00	 4.301408e+00	-4.838264e-02
32	-9.399742e+00	 5.080831e+00	-5.425327e-02
32	-9.849742e+00	 5.860254e+00	-5.940193e-02
32	-7.426537e+00	 2.063140e+00	-3.772155e-02
32	-7.876537e+00	 2.842563e+00	-4.251150e-02
32	-8.326537e+00	 3.621985e+00	-4.783786e-02
32	-8.776537e+00	 4.401408e+00	-5.370062e-02
32	-9.226537e+00	 5.180831e+00	-6.009980e-02
32	-9.676537e+00	 5.960254e+00	-6.703539e-02
32	-7.253332e+00	 2.163140e+00	-4.778254e-02
32	-7.703332e+00	 2.942563e+00	-4.999803e-02
32	-8.153332e+00	 3.721985e+00	-5.400830e-02
32	-8.603332e+00	 4.501408e+00	-5.981336e-02
32	-9.053332e+00	 5.280831e+00	-6.741320e-02
32	-9.503332e+00	 6.060254e+00	-7.680782e-02
32	-7.080127e+00	 2.263140e+00	-5.662198e-02
32	-7.530127e+00	 3.042563e+00	-5.693511e-02
32	-7.980127e+00	 3.821985e+00	-6.030140e-02
32	-8.430127e+00	 4.601408e+00	-6.672085e-02
32	-8.880127e+00	 5.380831e+00	-7.619346e-02
32	-9.330127e+00	 6.160254e+00	-8.871923e-02
33	-9.160254e+00	-4.133975e+00	 8.882091e-02
33	-9.610254e+00	-3.354552e+00	 5.296968e-02
33	-1.006025e+01	-2.575129e+00	 2.245272e-02
33	-1.051025e+01	-1.795706e+00	-2.729947e-03
33	-1.096025e+01	-1.016283e+00	-2.257833e-02
33	-1.141025e+01	-2.368603e-01	-3.709243e-02
33	-8.813844e+00	-3.933975e+00	 6.182614e-02
33	-9.263844e+00	-3.154552e+00	 3.301476e-02
33	-9.713844e+00	-2.375129e+00	 1.020472e-02
33	-1.016384e+01	-1.595706e+00	-6.603991e-03
33	-1.061384e+01	-8.162831e-01	-1.741136e-02
33	-1.106384e+01	-3.686028e-02	-2.221741e-02
33	-8.467434e+00	-3.733975e+00	 4.350228e-02
33	-8.917434e+00	-2.954552e+00	 1.952997e-02
33	-9.367434e+00	-2.175129e+00	 2.226050e-03
33	-9.817434e+00	-1.395706e+00	-8.409489e-03
33	-1.026743e+01	-6.162831e-01	-1.237665e-02
33	-1.071743e+01	 1.631397e-01	-9.675418e-03
33	-8.121024e+00	-3.533975e+00	 3.384934e-02
33	-8.571024e+00	-2.754552e+00	 1.251531e-02
33	-9.021024e+00	-1.975129e+00	-1.483281e-03
33	-9.471024e+00	-1.195706e+00	-8.146443e-03
33	-9.921024e+00	-4.162831e-01	-7.474173e-03
33	-1.037102e+01	 3.631397e-01	 5.335301e-04
33	-7.774613e+00	-3.333975e+00	 3.286732e-02
33	-8.224613e+00	-2.554552e+00	 1.197078e-02
33	-8.674613e+00	-1.775129e+00	-9.232748e-04
33	-9.124613e+00	-9.957060e-01	-5.814851e-03
33	-9.574613e+00	-2.162831e-01	-2.703946e-03
33	-1.002461e+01	 5.631397e-01	 8.409440e-03
33	-7.428203e+00	-3.133975e+00	 4.055623e-02
33	-7.878203e+00	-2.354552e+00	 1.789638e-02
33	-8.328203e+00	-1.575129e+00	 3.906068e-03
33	-8.778203e+00	-7.957060e-01	-1.414715e-03
33	-9.228203e+00	-1.628314e-02	 1.934033e-03
33	-9.678203e+00	 7.631397e-01	 1.395231e-02
33	-1.141025e+01	-2.368603e-01	-3.709243e-02
33	-1.186025e+01	 5.425626e-01	-4.508630e-02
33	-1.231025e+01	 1.321985e+00	-4.537399e-02
33	-1.276025e+01	 2.101408e+00	-3.795550e-02
33	-1.321025e+01	 2.880831e+00	-2.283084e-02
33	-1.366025e+01	 3.660254e+00	 0.000000e+00
33	-1.106384e+01	-3.686028e-02	-2.221741e-02
33	-1.151384e+01	 7.425626e-01	-3.274617e-02
33	-1.196384e+01	 1.521985e+00	-3.531525e-02
33	-1.241384e+01	 2.301408e+00	-2.992464e-02
33	-1.286384e+01	 3.080831e+00	-1.657435e-02
33	-1.331384e+01	 3.860254e+00	 4.735628e-03
33	-1.071743e+01	 1.631397e-01	-9.675418e-03
33	-1.116743e+01	 9.425626e-01	-2.274336e-02
33	-1.161743e+01	 1.721985e+00	-2.759810e-02
33	-1.206743e+01	 2.501408e+00	-2.423965e-02
33	-1.251743e+01	 3.280831e+00	-1.266801e-02
33	-1.296743e+01	 4.060254e+00	 7.116820e-03
33	-1.037102e+01	 3.631397e-01	 5.335301e-04
33	-1.082102e+01	 1.142563e+00	-1.507786e-02
33	-1.127102e+01	 1.921985e+00	-2.222256e-02
33	-1.172102e+01	 2.701408e+00	-2.090055e-02
33	-1.217102e+01	 3.480831e+00	-1.111184e-02
33	-1.262102e+01	 4.260254e+00	 7.143575e-03
33	-1.002461e+01	 5.631397e-01	 8.409440e-03
33	-1.047461e+01	 1.342563e+00	-9.749688e-03
33	-1.092461e+01	 2.121985e+00	-1.918861e-02
33	-1.137461e+01	 2.901408e+00	-1.990732e-02
33	-1.182461e+01	 3.680831e+00	-1.190582e-02
33	-1.227461e+01	 4.460254e+00	 4.815892e-03
33	-9.678203e+00	 7.631397e-01	 1.395231e-02
33	-1.012820e+01	 1.542563e+00	-6.758831e-03
33	-1.057820e+01	 2.321985e+00	-1.849626e-02
33	-1.102820e+01	 3.101408e+00	-2.125996e-02
33	-1.147820e+01	 3.880831e+00	-1.504995e-02
33	-1.192820e+01	 4.660254e+00	 1.337732e-04
33	-7.428203e+00	-3.133975e+00	 4.055623e-02
33	-7.878203e+00	-2.354552e+00	 1.789638e-02
33	-8.328203e+00	-1.575129e+00	 3.906068e-03
33	-8.778203e+00	-7.957060e-01	-1.414715e-03
33	-9.228203e+00	-1.628314e-02	 1.934033e-03
33	-9.678203e+00	 7.631397e-01	 1.395231e-02
33	-7.081793e+00	-2.933975e+00	 4.988153e-02
33	-7.531793e+00	-2.154552e+00	 2.608034e-02
33	-7.981793e+00	-1.375129e+00	 1.142202e-02
33	-8.431793e+00	-5.957060e-01	 5.906570e-03
33	-8.881793e+00	 1.837169e-01	 9.533985e-03
33	-9.331793e+00	 9.631397e-01	 2.230427e-02
33	-6.735383e+00	-2.733975e+00	 7.241263e-02
33	-7.185383e+00	-1.954552e+00	 4.352053e-02
33	-7.635383e+00	-1.175129e+00	 2.424462e-02
33	-8.085383e+00	-3.957060e-01	 1.458493e-02
33	-8.535383e+00	 3.837169e-01	 1.454143e-02
33	-8.985383e+00	 1.163140e+00	 2.411414e-02
33	-6.388973e+00	-2.533975e+00	 1.081495e-01
33	-6.838973e+00	-1.754552e+00	 7.021693e-02
33	-7.288973e+00	-9.751289e-01	 4.237387e-02
33	-7.738973e+00	-1.957060e-01	 2.462036e-02
33	-8.188973e+00	 5.837169e-01	 1.695638e-02
33	-8.638973e+00	 1.363140e+00	 1.938193e-02
33	-6.042563e+00	-2.333975e+00	 1.570922e-01
33	-6.492563e+00	-1.554552e+00	 1.061696e-01
33	-6.942563e+00	-7.751289e-01	 6.580977e-02
33	-7.392563e+00	 4.293994e-03	 3.601286e-02
33	-7.842563e+00	 7.837169e-01	 1.677881e-02
33	-8.292563e+00	 1.563140e+00	 8.107648e-03
33	-5.696152e+00	-2.133975e+00	 2.192407e-01
33	-6.146152e+00	-1.354552e+00	 1.513784e-01
33	-6.596152e+00	-5.751289e-01	 9.455232e-02
33	-7.046152e+00	 2.042940e-01	 4.876243e-02
33	-7.496152e+00	 9.837169e-01	 1.400875e-02
33	-7.946152e+00	 1.763140e+00	-9.708719e-03
33	-9.678203e+00	 7.631397e-01	 1.395231e-02
33	-1.012820e+01	 1.542563e+00	-6.758831e-03
33	-1.057820e+01	 2.321985e+00	-1.849626e-02
33	-1.102820e+01	 3.101408e+00	-2.125996e-02
33	-1.147820e+01	 3.880831e+00	-1.504995e-02
33	-1.192820e+01	 4.660254e+00	 1.337732e-04
33	-9.331793e+00	 9.631397e-01	 2.230427e-02
33	-9.781793e+00	 1.742563e+00	 1.492550e-03
33	-1.023179e+01	 2.521985e+00	-1.180185e-02
33	-1.068179e+01	 3.301408e+00	-1.757893e-02
33	-1.113179e+01	 4.080831e+00	-1.583868e-02
33	-1.158179e+01	 4.860254e+00	-6.581125e-03
33	-8.985383e+00	 1.163140e+00	 2.411414e-02
33	-9.435383e+00	 1.942563e+00	 4.168042e-03
33	-9.885383e+00	 2.721985e+00	-9.717135e-03
33	-1.033538e+01	 3.501408e+00	-1.754139e-02
33	-1.078538e+01	 4.280831e+00	-1.930473e-02
33	-1.123538e+01	 5.060254e+00	-1.500714e-02
33	-8.638973e+00	 1.363140e+00	 1.938193e-02
33	-9.088973e+00	 2.142563e+00	 1.267646e-03
33	-9.538973e+00	 2.921985e+00	-1.224212e-02
33	-9.988973e+00	 3.701408e+00	-2.114736e-02
33	-1.043897e+01	 4.480831e+00	-2.544808e-02
33	-1.088897e+01	 5.260254e+00	-2.514428e-02
33	-8.292563e+00	 1.563140e+00	 8.107648e-03
33	-8.742563e+00	 2.342563e+00	-7.208637e-03
33	-9.192563e+00	 3.121985e+00	-1.937680e-02
33	-9.642563e+00	 3.901408e+00	-2.839684e-02
33	-1.009256e+01	 4.680831e+00	-3.426875e-02
33	-1.054256e+01	 5.460254e+00	-3.699254e-02
33	-7.946152e+00	 1.763140e+00	-9.708719e-03
33	-8.396152e+00	 2.542563e+00	-2.126081e-02
33	-8.846152e+00	 3.321985e+00	-3.112117e-02
33	-9.296152e+00	 4.101408e+00	-3.928982e-02
33	-9.746152e+00	 4.880831e+00	-4.576673e-02
33	-1.019615e+01	 5.660254e+00	-5.055192e-02
34	-8.660254e+00	-5.000000e+00	 8.697668e-02
34	-8.760254e+00	-4.826795e+00	 9.239445e-02
34	-8.860254e+00	-4.653590e+00	 9.528776e-02
34	-8.960254e+00	-4.480385e+00	 9.565661e-02
34	-9.060254e+00	-4.307180e+00	 9.350099e-02
34	-9.160254e+00	-4.133975e+00	 8.882091e-02
34	-8.313844e+00	-4.800000e+00	 7.400320e-02
34	-8.413844e+00	-4.626795e+00	 7.673641e-02
34	-8.513844e+00	-4.453590e+00	 7.693687e-02
34	-8.613844e+00	-4.280385e+00	 7.460459e-02
34	-8.713844e+00	-4.107180e+00	 6.973957e-02
34	-8.813844e+00	-3.933975e+00	 6.234181e-02
34	-7.967434e+00	-4.600000e+00	 6.568243e-02
34	-8.067434e+00	-4.426795e+00	 6.639908e-02
34	-8.167434e+00	-4.253590e+00	 6.457471e-02
34	-8.267434e+00	-4.080385e+00	 6.020931e-02
34	-8.367434e+00	-3.907180e+00	 5.330289e-02
34	-8.467434e+00	-3.733975e+00	 4.385545e-02
34	-7.621024e+00	-4.400000e+00	 6.201436e-02
34	-7.721024e+00	-4.226795e+00	 6.138247e-02
34	-7.821024e+00	-4.053590e+00	 5.820127e-02
34	-7.921024e+00	-3.880385e+00	 5.247076e-02
34	-8.021024e+00	-3.707180e+00	 4.419096e-02
34	-8.121024e+00	-3.533975e+00	 3.336184e-02
34	-7.274613e+00	-4.200000e+00	 6.299900e-02
34	-7.374613e+00	-4.026795e+00	 6.168657e-02
34	-7.474613e+00	-3.853590e+00	 5.781655e-02
34	-7.574613e+00	-3.680385e+00	 5.138895e-02
34	-7.674613e+00	-3.507180e+00	 4.240376e-02
34	-7.774613e+00	-3.333975e+00	 3.086099e-02
34	-6.928203e+00	-4.000000e+00	 6.863634e-02
34	-7.028203e+00	-3.826795e+00	 6.731138e-02
34	-7.128203e+00	-3.653590e+00	 6.342056e-02
34	-7.228203e+00	-3.480385e+00	 5.696387e-02
34	-7.328203e+00	-3.307180e+00	 4.794131e-02
34	-7.428203e+00	-3.133975e+00	 3.635289e-02
34	-6.928203e+00	-4.000000e+00	 6.863634e-02
34	-7.028203e+00	-3.826795e+00	 6.731138e-02
34	-7.128203e+00	-3.653590e+00	 6.342056e-02
34	-7.228203e+00	-3.480385e+00	 5.696387e-02
34	-7.328203e+00	-3.307180e+00	 4.794131e-02
34	-7.428203e+00	-3.133975e+00	 3.635289e-02
34	-6.581793e+00	-3.800000e+00	 9.670048e-02
34	-6.681793e+00	-3.626795e+00	 1.011499e-01
34	-6.781793e+00	-3.453590e+00	 9.773772e-02
34	-6.881793e+00	-3.280385e+00	 8.646395e-02
34	-6.981793e+00	-3.107180e+00	 6.732859e-02
34	-7.081793e+00	-2.933975e+00	 4.033164e-02
34	-6.235383e+00	-3.600000e+00	 1.476342e-01
34	-6.335383e+00	-3.426795e+00	 1.548011e-01
34	-6.435383e+00	-3.253590e+00	 1.488106e-01
34	-6.535383e+00	-3.080385e+00	 1.296628e-01
34	-6.635383e+00	-2.907180e+00	 9.735770e-02
34	-6.735383e+00	-2.733975e+00	 5.189528e-02
34	-5.888973e+00	-3.400000e+00	 2.214376e-01
34	-5.988973e+00	-3.226795e+00	 2.282649e-01
34	-6.088973e+00	-3.053590e+00	 2.166392e-01
34	-6.188973e+00	-2.880385e+00	 1.865604e-01
34	-6.288973e+00	-2.707180e+00	 1.380286e-01
34	-6.388973e+00	-2.533975e+00	 7.104380e-02
34	-5.542563e+00	-3.200000e+00	 3.181106e-01
34	-5.642563e+00	-3.026795e+00	 3.215414e-01
34	-5.742563e+00	-2.853590e+00	 3.012235e-01
34	-5.842563e+00	-2.680385e+00	 2.571568e-01
34	-5.942563e+00	-2.507180e+00	 1.893414e-01
34	-6.042563e+00	-2.333975e+00	 9.777721e-02
34	-5.196152e+00	-3.000000e+00	 4.376531e-01
34	-5.296152e+00	-2.826795e+00	 4.346306e-01
34	-5.396152e+00	-2.653590e+00	 4.025636e-01
34	-5.496152e+00	-2.480385e+00	 3.414520e-01
34	-5.596152e+00	-2.307180e+00	 2.512960e-01
34	-5.696152e+00	-2.133975e+00	 1.320955e-01
35	-8.160254e+00	-5.866025e+00	 4.819605e-02
35	-8.260254e+00	-5.692820e+00	 5.209882e-02
35	-8.360254e+00	-5.519615e+00	 5.792827e-02
35	-8.460254e+00	-5.346410e+00	 6.568439e-02
35	-8.560254e+00	-5.173205e+00	 7.536720e-02
35	-8.660254e+00	-5.000000e+00	 8.697668e-02
35	-7.813844e+00	-5.666025e+00	 2.961684e-02
35	-7.913844e+00	-5.492820e+00	 3.876756e-02
35	-8.013844e+00	-5.319615e+00	 4.828678e-02
35	-8.113844e+00	-5.146410e+00	 5.817450e-02
35	-8.213844e+00	-4.973205e+00	 6.843073e-02
35	-8.313844e+00	-4.800000e+00	 7.905546e-02
35	-7.467434e+00	-5.466025e+00	 2.554758e-02
35	-7.567434e+00	-5.292820e+00	 3.745884e-02
35	-7.667434e+00	-5.119615e+00	 4.818044e-02
35	-7.767434e+00	-4.946410e+00	 5.771236e-02
35	-7.867434e+00	-4.773205e+00	 6.605462e-02
35	-7.967434e+00	-4.600000e+00	 7.320720e-02
35	-7.121024e+00	-5.266025e+00	 3.598825e-02
35	-7.221024e+00	-5.092820e+00	 4.817267e-02
35	-7.321024e+00	-4.919615e+00	 5.760924e-02
35	-7.421024e+00	-4.746410e+00	 6.429797e-02
35	-7.521024e+00	-4.573205e+00	 6.823886e-02
35	-7.621024e+00	-4.400000e+00	 6.943189e-02
35	-6.774613e+00	-5.066025e+00	 6.093886e-02
35	-6.874613e+00	-4.892820e+00	 7.090903e-02
35	-6.974613e+00	-4.719615e+00	 7.657319e-02
35	-7.074613e+00	-4.546410e+00	 7.793133e-02
35	-7.174613e+00	-4.373205e+00	 7.498345e-02
35	-7.274613e+00	-4.200000e+00	 6.772954e-02
35	-6.428203e+00	-4.866025e+00	 1.003994e-01
35	-6.528203e+00	-4.692820e+00	 1.056679e-01
35	-6.628203e+00	-4.519615e+00	 1.050723e-01
35	-6.728203e+00	-4.346410e+00	 9.861244e-02
35	-6.828203e+00	-4.173205e+00	 8.628839e-02
35	-6.928203e+00	-4.000000e+00	 6.810015e-02
35	-6.428203e+00	-4.866025e+00	 1.003994e-01
35	-6.528203e+00	-4.692820e+00	 1.056679e-01
35	-6.628203e+00	-4.519615e+00	 1.050723e-01
35	-6.728203e+00	-4.346410e+00	 9.861244e-02
35	-6.828203e+00	-4.173205e+00	 8.628839e-02
35	-6.928203e+00	-4.000000e+00	 6.810015e-02
35	-6.081793e+00	-4.666025e+00	 9.292758e-02
35	-6.181793e+00	-4.492820e+00	 1.012958e-01
35	-6.281793e+00	-4.319615e+00	 1.062388e-01
35	-6.381793e+00	-4.146410e+00	 1.077564e-01
35	-6.481793e+00	-3.973205e+00	 1.058487e-01
35	-6.581793e+00	-3.800000e+00	 1.005156e-01
35	-5.735383e+00	-4.466025e+00	 1.278284e-01
35	-5.835383e+00	-4.292820e+00	 1.397589e-01
35	-5.935383e+00	-4.119615e+00	 1.507030e-01
35	-6.035383e+00	-3.946410e+00	 1.606606e-01
35	-6.135383e+00	-3.773205e+00	 1.696318e-01
35	-6.235383e+00	-3.600000e+00	 1.776166e-01
35	-5.388973e+00	-4.266025e+00	 2.051019e-01
35	-5.488973e+00	-4.092820e+00	 2.210572e-01
35	-5.588973e+00	-3.919615e+00	 2.384650e-01
35	-5.688973e+00	-3.746410e+00	 2.573252e-01
35	-5.788973e+00	-3.573205e+00	 2.776379e-01
35	-5.888973e+00	-3.400000e+00	 2.994030e-01
35	-5.042563e+00	-4.066025e+00	 3.247480e-01
35	-5.142563e+00	-3.892820e+00	 3.451907e-01
35	-5.242563e+00	-3.719615e+00	 3.695248e-01
35	-5.342563e+00	-3.546410e+00	 3.977502e-01
35	-5.442563e+00	-3.373205e+00	 4.298669e-01
35	-5.542563e+00	-3.200000e+00	 4.658749e-01
35	-4.696152e+00	-3.866025e+00	 4.867667e-01
35	-4.796152e+00	-3.692820e+00	 5.121594e-01
35	-4.896152e+00	-3.519615e+00	 5.438824e-01
35	-4.996152e+00	-3.346410e+00	 5.819355e-01
35	-5.096152e+00	-3.173205e+00	 6.263188e-01
35	-5.196152e+00	-3.000000e+00	 6.770323e-01
36	-3.660254e+00	-1.366025e+01	 0.000000e+00
36	-4.110254e+00	-1.288083e+01	-8.459981e-02
36	-4.560254e+00	-1.210141e+01	-1.469056e-01
36	-5.010254e+00	-1.132199e+01	-1.869174e-01
36	-5.460254e+00	-1.054256e+01	-2.046352e-01
36	-5.910254e+00	-9.763140e+00	-2.000590e-01
36	-3.313844e+00	-1.346025e+01	-5.880251e-02
36	-3.763844e+00	-1.268083e+01	-1.205679e-01
36	-4.213844e+00	-1.190141e+01	-1.645854e-01
36	-4.663844e+00	-1.112199e+01	-1.908552e-01
36	-5.113844e+00	-1.034256e+01	-1.993771e-01
36	-5.563844e+00	-9.563140e+00	-1.901513e-01
36	-2.967434e+00	-1.326025e+01	-1.114229e-01
36	-3.417434e+00	-1.248083e+01	-1.539545e-01
36	-3.867434e+00	-1.170141e+01	-1.832845e-01
36	-4.317434e+00	-1.092199e+01	-1.994128e-01
36	-4.767434e+00	-1.014256e+01	-2.023395e-01
36	-5.217434e+00	-9.363140e+00	-1.920646e-01
36	-2.621024e+00	-1.306025e+01	-1.578613e-01
36	-3.071024e+00	-1.228083e+01	-1.847597e-01
36	-3.521024e+00	-1.150141e+01	-2.030027e-01
36	-3.971024e+00	-1.072199e+01	-2.125903e-01
36	-4.421024e+00	-9.942563e+00	-2.135224e-01
36	-4.871024e+00	-9.163140e+00	-2.057991e-01
36	-2.274613e+00	-1.286025e+01	-1.981176e-01
36	-2.724613e+00	-1.208083e+01	-2.129835e-01
36	-3.174613e+00	-1.130141e+01	-2.237402e-01
36	-3.624613e+00	-1.052199e+01	-2.303876e-01
36	-4.074613e+00	-9.742563e+00	-2.329258e-01
36	-4.524613e+00	-8.963140e+00	-2.313547e-01
36	-1.928203e+00	-1.266025e+01	-2.321919e-01
36	-2.378203e+00	-1.188083e+01	-2.386259e-01
36	-2.828203e+00	-1.110141e+01	-2.454969e-01
36	-3.278203e+00	-1.032199e+01	-2.528048e-01
36	-3.728203e+00	-9.542563e+00	-2.605496e-01
36	-4.178203e+00	-8.763140e+00	-2.687314e-01
36	-5.910254e+00	-9.763140e+00	-2.000590e-01
36	-6.360254e+00	-8.983717e+00	-1.775503e-01
36	-6.810254e+00	-8.204294e+00	-1.414704e-01
36	-7.260254e+00	-7.424871e+00	-9.181938e-02
36	-7.710254e+00	-6.645448e+00	-2.859723e-02
36	-8.160254e+00	-5.866025e+00	 4.819605e-02
36	-5.563844e+00	-9.563140e+00	-1.901513e-01
36	-6.013844e+00	-8.783717e+00	-1.779091e-01
36	-6.463844e+00	-8.004294e+00	-1.468680e-01
36	-6.913844e+00	-7.224871e+00	-9.702795e-02
36	-7.363844e+00	-6.445448e+00	-2.838904e-02
36	-7.813844e+00	-5.666025e+00	 5.904877e-02
36	-5.217434e+00	-9.363140e+00	-1.920646e-01
36	-5.667434e+00	-8.583717e+00	-1.858618e-01
36	-6.117434e+00	-7.804294e+00	-1.556323e-01
36	-6.567434e+00	-7.024871e+00	-1.013762e-01
36	-7.017434e+00	-6.245448e+00	-2.309340e-02
36	-7.467434e+00	-5.466025e+00	 7.921608e-02
36	-4.871024e+00	-9.163140e+00	-2.057991e-01
36	-5.321024e+00	-8.383717e+00	-2.014085e-01
36	-5.771024e+00	-7.604294e+00	-1.677636e-01
36	-6.221024e+00	-6.824871e+00	-1.048642e-01
36	-6.671024e+00	-6.045448e+00	-1.271031e-02
36	-7.121024e+00	-5.266025e+00	 1.086980e-01
36	-4.524613e+00	-8.963140e+00	-2.313547e-01
36	-4.974613e+00	-8.183717e+00	-2.245493e-01
36	-5.424613e+00	-7.404294e+00	-1.832616e-01
36	-5.874613e+00	-6.624871e+00	-1.074918e-01
36	-6.324613e+00	-5.845448e+00	 2.760216e-03
36	-6.774613e+00	-5.066025e+00	 1.474945e-01
36	-4.178203e+00	-8.763140e+00	-2.687314e-01
36	-4.628203e+00	-7.983717e+00	-2.552840e-01
36	-5.078203e+00	-7.204294e+00	-2.021266e-01
36	-5.528203e+00	-6.424871e+00	-1.092592e-01
36	-5.978203e+00	-5.645448e+00	 2.331819e-02
36	-6.428203e+00	-4.866025e+00	 1.956055e-01
36	-1.928203e+00	-1.266025e+01	-2.321919e-01
36	-2.378203e+00	-1.188083e+01	-2.386259e-01
36	-2.828203e+00	-1.110141e+01	-2.454969e-01
36	-3.278203e+00	-1.032199e+01	-2.528048e-01
36	-3.728203e+00	-9.542563e+00	-2.605496e-01
36	-4.178203e+00	-8.763140e+00	-2.687314e-01
36	-1.581793e+00	-1.246025e+01	-2.605449e-01
36	-2.031793e+00	-1.168083e+01	-2.602185e-01
36	-2.481793e+00	-1.090141e+01	-2.644000e-01
36	-2.931793e+00	-1.012199e+01	-2.730891e-01
36	-3.381793e+00	-9.342563e+00	-2.862861e-01
36	-3.831793e+00	-8.563140e+00	-3.039908e-01
36	-1.235383e+00	-1.226025e+01	-2.836376e-01
36	-1.685383e+00	-1.148083e+01	-2.801053e-01
36	-2.135383e+00	-1.070141e+01	-2.851517e-01
36	-2.585383e+00	-9.921985e+00	-2.987766e-01
36	-3.035383e+00	-9.142563e+00	-3.209801e-01
36	-3.485383e+00	-8.363140e+00	-3.517622e-01
36	-8.889727e-01	-1.206025e+01	-3.014699e-01
36	-1.338973e+00	-1.128083e+01	-2.982862e-01
36	-1.788973e+00	-1.050141e+01	-3.077520e-01
36	-2.238973e+00	-9.721985e+00	-3.298671e-01
36	-2.688973e+00	-8.942563e+00	-3.646316e-01
36	-3.138973e+00	-8.163140e+00	-4.120456e-01
36	-5.425626e-01	-1.186025e+01	-3.140418e-01
36	-9.925626e-01	-1.108083e+01	-3.147612e-01
36	-1.442563e+00	-1.030141e+01	-3.322008e-01
36	-1.892563e+00	-9.521985e+00	-3.663607e-01
36	-2.342563e+00	-8.742563e+00	-4.172407e-01
36	-2.792563e+00	-7.963140e+00	-4.848410e-01
36	-1.961524e-01	-1.166025e+01	-3.213534e-01
36	-6.461524e-01	-1.088083e+01	-3.295303e-01
36	-1.096152e+00	-1.010141e+01	-3.584983e-01
36	-1.546152e+00	-9.321985e+00	-4.082573e-01
36	-1.996152e+00	-8.542563e+00	-4.788074e-01
36	-2.446152e+00	-7.763140e+00	-5.701485e-01
36	-4.178203e+00	-8.763140e+00	-2.687314e-01
36	-4.628203e+00	-7.983717e+00	-2.552840e-01
36	-5.078203e+00	-7.204294e+00	-2.021266e-01
36	-5.528203e+00	-6.424871e+00	-1.092592e-01
36	-5.978203e+00	-5.645448e+00	 2.331819e-02
36	-6.428203e+00	-4.866025e+00	 1.956055e-01
36	-3.831793e+00	-8.563140e+00	-3.039908e-01
36	-4.281793e+00	-7.783717e+00	-2.813628e-01
36	-4.731793e+00	-7.004294e+00	-2.225877e-01
36	-5.181793e+00	-6.224871e+00	-1.276656e-01
36	-5.631793e+00	-5.445448e+00	 3.403624e-03
36	-6.081793e+00	-4.666025e+00	 1.706199e-01
36	-3.485383e+00	-8.363140e+00	-3.517622e-01
36	-3.935383e+00	-7.583717e+00	-3.184033e-01
36	-4.385383e+00	-6.804294e+00	-2.524603e-01
36	-4.835383e+00	-6.024871e+00	-1.539332e-01
36	-5.285383e+00	-5.245448e+00	-2.282195e-02
36	-5.735383e+00	-4.466025e+00	 1.408734e-01
36	-3.138973e+00	-8.163140e+00	-4.120456e-01
36	-3.588973e+00	-7.383717e+00	-3.664056e-01
36	-4.038973e+00	-6.604294e+00	-2.917445e-01
36	-4.488973e+00	-5.824871e+00	-1.880621e-01
36	-4.938973e+00	-5.045448e+00	-5.535852e-02
36	-5.388973e+00	-4.266025e+00	 1.063663e-01
36	-2.792563e+00	-7.963140e+00	-4.848410e-01
36	-3.242563e+00	-7.183717e+00	-4.253697e-01
36	-3.692563e+00	-6.404294e+00	-3.404402e-01
36	-4.142563e+00	-5.624871e+00	-2.300523e-01
36	-4.592563e+00	-4.845448e+00	-9.420610e-02
36	-5.042563e+00	-4.066025e+00	 6.709836e-02
36	-2.446152e+00	-7.763140e+00	-5.701485e-01
36	-2.896152e+00	-6.983717e+00	-4.952956e-01
36	-3.346152e+00	-6.204294e+00	-3.985473e-01
36	-3.796152e+00	-5.424871e+00	-2.799037e-01
36	-4.246152e+00	-4.645448e+00	-1.393647e-01
36	-4.696152e+00	-3.866025e+00	 2.306970e-02
37	-1.961524e-01	-1.166025e+01	-3.213534e-01
37	-6.461524e-01	-1.088083e+01	-3.271467e-01
37	-1.096152e+00	-1.010141e+01	-3.528980e-01
37	-1.546152e+00	-9.321985e+00	-3.986074e-01
37	-1.996152e+00	-8.542563e+00	-4.642749e-01
37	-2.446152e+00	-7.763140e+00	-5.499003e-01
37	-2.294734e-02	-1.156025e+01	-3.237758e-01
37	-4.729473e-01	-1.078083e+01	-3.391230e-01
37	-9.229473e-01	-1.000141e+01	-3.714587e-01
37	-1.372947e+00	-9.221985e+00	-4.207830e-01
37	-1.822947e+00	-8.442563e+00	-4.870958e-01
37	-2.272947e+00	-7.663140e+00	-5.703971e-01
37	 1.502577e-01	-1.146025e+01	-3.288932e-01
37	-2.997423e-01	-1.068083e+01	-3.522994e-01
37	-7.497423e-01	-9.901408e+00	-3.897246e-01
37	-1.199742e+00	-9.121985e+00	-4.411687e-01
37	-1.649742e+00	-8.342563e+00	-5.066319e-01
37	-2.099742e+00	-7.563140e+00	-5.861142e-01
37	 3.234628e-01	-1.136025e+01	-3.367058e-01
37	-1.265372e-01	-1.058083e+01	-3.666759e-01
37	-5.765372e-01	-9.801408e+00	-4.076956e-01
37	-1.026537e+00	-9.021985e+00	-4.597647e-01
37	-1.476537e+00	-8.242563e+00	-5.228834e-01
37	-1.926537e+00	-7.463140e+00	-5.970515e-01
37	 4.966679e-01	-1.126025e+01	-3.472134e-01
37	 4.666790e-02	-1.048083e+01	-3.822526e-01
37	-4.033321e-01	-9.701408e+00	-4.253718e-01
37	-8.533321e-01	-8.921985e+00	-4.765709e-01
37	-1.303332e+00	-8.142563e+00	-5.358500e-01
37	-1.753332e+00	-7.363140e+00	-6.032092e-01
37	 6.698730e-01	-1.116025e+01	-3.604161e-01
37	 2.198730e-01	-1.038083e+01	-3.990294e-01
37	-2.301270e-01	-9.601408e+00	-4.427531e-01
37	-6.801270e-01	-8.821985e+00	-4.915873e-01
37	-1.130127e+00	-8.042563e+00	-5.455320e-01
37	-1.580127e+00	-7.263140e+00	-6.045871e-01
37	-2.446152e+00	-7.763140e+00	-5.499003e-01
37	-2.896152e+00	-6.983717e+00	-4.767004e-01
37	-3.346152e+00	-6.204294e+00	-3.971750e-01
37	-3.796152e+00	-5.424871e+00	-3.113242e-01
37	-4.246152e+00	-4.645448e+00	-2.191480e-01
37	-4.696152e+00	-3.866025e+00	-1.206463e-01
37	-2.272947e+00	-7.663140e+00	-5.703971e-01
37	-2.722947e+00	-6.883717e+00	-4.869862e-01
37	-3.172947e+00	-6.104294e+00	-4.110505e-01
37	-3.622947e+00	-5.324871e+00	-3.425901e-01
37	-4.072947e+00	-4.545448e+00	-2.816048e-01
37	-4.522947e+00	-3.766025e+00	-2.280947e-01
37	-2.099742e+00	-7.563140e+00	-5.861142e-01
37	-2.549742e+00	-6.783717e+00	-4.998427e-01
37	-2.999742e+00	-6.004294e+00	-4.348471e-01
37	-3.449742e+00	-5.224871e+00	-3.911273e-01
37	-3.899742e+00	-4.445448e+00	-3.686833e-01
37	-4.349742e+00	-3.666025e+00	-3.675151e-01
37	-1.926537e+00	-7.463140e+00	-5.970515e-01
37	-2.376537e+00	-6.683717e+00	-5.152698e-01
37	-2.826537e+00	-5.904294e+00	-4.685646e-01
37	-3.276537e+00	-5.124871e+00	-4.569357e-01
37	-3.726537e+00	-4.345448e+00	-4.803833e-01
37	-4.176537e+00	-3.566025e+00	-5.389074e-01
37	-1.753332e+00	-7.363140e+00	-6.032092e-01
37	-2.203332e+00	-6.583717e+00	-5.332676e-01
37	-2.653332e+00	-5.804294e+00	-5.122030e-01
37	-3.103332e+00	-5.024871e+00	-5.400155e-01
37	-3.553332e+00	-4.245448e+00	-6.167050e-01
37	-4.003332e+00	-3.466025e+00	-7.422716e-01
37	-1.580127e+00	-7.263140e+00	-6.045871e-01
37	-2.030127e+00	-6.483717e+00	-5.538359e-01
37	-2.480127e+00	-5.704294e+00	-5.657624e-01
37	-2.930127e+00	-4.924871e+00	-6.403665e-01
37	-3.380127e+00	-4.145448e+00	-7.776483e-01
37	-3.830127e+00	-3.366025e+00	-9.776077e-01
38	 6.698730e-01	-1.116025e+01	-3.604161e-01
38	 2.198730e-01	-1.038083e+01	-4.020861e-01
38	-2.301270e-01	-9.601408e+00	-4.471580e-01
38	-6.801270e-01	-8.821985e+00	-4.956315e-01
38	-1.130127e+00	-8.042563e+00	-5.475069e-01
38	-1.580127e+00	-7.263140e+00	-6.027840e-01
38	 8.430781e-01	-1.106025e+01	-3.767530e-01
38	 3.930781e-01	-1.028083e+01	-4.148261e-01
38	-5.692194e-02	-9.501408e+00	-4.567965e-01
38	-5.069219e-01	-8.721985e+00	-5.026643e-01
38	-9.569219e-01	-7.942563e+00	-5.524295e-01
38	-1.406922e+00	-7.163140e+00	-6.060922e-01
38	 1.016283e+00	-1.096025e+01	-3.907321e-01
38	 5.662831e-01	-1.018083e+01	-4.261084e-01
38	 1.162831e-01	-9.401408e+00	-4.658778e-01
38	-3.337169e-01	-8.621985e+00	-5.100402e-01
38	-7.837169e-01	-7.842563e+00	-5.585956e-01
38	-1.233717e+00	-7.063140e+00	-6.115441e-01
38	 1.189488e+00	-1.086025e+01	-4.023533e-01
38	 7.394882e-01	-1.008083e+01	-4.359332e-01
38	 2.894882e-01	-9.301408e+00	-4.744018e-01
38	-1.605118e-01	-8.521985e+00	-5.177591e-01
38	-6.105118e-01	-7.742563e+00	-5.660051e-01
38	-1.060512e+00	-6.963140e+00	-6.191398e-01
38	 1.362693e+00	-1.076025e+01	-4.116166e-01
38	 9.126933e-01	-9.980831e+00	-4.443005e-01
38	 4.626933e-01	-9.201408e+00	-4.823687e-01
38	 1.269330e-02	-8.421985e+00	-5.258212e-01
38	-4.373067e-01	-7.642563e+00	-5.746580e-01
38	-8.873067e-01	-6.863140e+00	-6.288792e-01
38	 1.535898e+00	-1.066025e+01	-4.185220e-01
38	 1.085898e+00	-9.880831e+00	-4.512101e-01
38	 6.358984e-01	-9.101408e+00	-4.897783e-01
38	 1.858984e-01	-8.321985e+00	-5.342263e-01
38	-2.641016e-01	-7.542563e+00	-5.845543e-01
38	-7.141016e-01	-6.763140e+00	-6.407623e-01
38	-1.580127e+00	-7.263140e+00	-6.027840e-01
38	-2.030127e+00	-6.483717e+00	-5.469399e-01
38	-2.480127e+00	-5.704294e+00	-5.528524e-01
38	-2.930127e+00	-4.924871e+00	-6.205216e-01
38	-3.380127e+00	-4.145448e+00	-7.499473e-01
38	-3.830127e+00	-3.366025e+00	-9.411296e-01
38	-1.406922e+00	-7.163140e+00	-6.060922e-01
38	-1.856922e+00	-6.383717e+00	-5.758755e-01
38	-2.306922e+00	-5.604294e+00	-6.025622e-01
38	-2.756922e+00	-4.824871e+00	-6.861522e-01
38	-3.206922e+00	-4.045448e+00	-8.266456e-01
38	-3.656922e+00	-3.266025e+00	-1.024042e+00
38	-1.233717e+00	-7.063140e+00	-6.115441e-01
38	-1.683717e+00	-6.283717e+00	-6.031537e-01
38	-2.133717e+00	-5.504294e+00	-6.468132e-01
38	-2.583717e+00	-4.724871e+00	-7.425228e-01
38	-3.033717e+00	-3.945448e+00	-8.902825e-01
38	-3.483717e+00	-3.166025e+00	-1.090092e+00
38	-1.060512e+00	-6.963140e+00	-6.191398e-01
38	-1.510512e+00	-6.183717e+00	-6.287742e-01
38	-1.960512e+00	-5.404294e+00	-6.856054e-01
38	-2.410512e+00	-4.624871e+00	-7.896334e-01
38	-2.860512e+00	-3.845448e+00	-9.408581e-01
38	-3.310512e+00	-3.066025e+00	-1.139280e+00
38	-8.873067e-01	-6.863140e+00	-6.288792e-01
38	-1.337307e+00	-6.083717e+00	-6.527373e-01
38	-1.787307e+00	-5.304294e+00	-7.189388e-01
38	-2.237307e+00	-4.524871e+00	-8.274838e-01
38	-2.687307e+00	-3.745448e+00	-9.783723e-01
38	-3.137307e+00	-2.966025e+00	-1.171604e+00
38	-7.141016e-01	-6.763140e+00	-6.407623e-01
38	-1.164102e+00	-5.983717e+00	-6.750427e-01
38	-1.614102e+00	-5.204294e+00	-7.468134e-01
38	-2.064102e+00	-4.424871e+00	-8.560742e-01
38	-2.514102e+00	-3.645448e+00	-1.002825e+00
38	-2.964102e+00	-2.866025e+00	-1.187066e+00
39	 1.535898e+00	-1.066025e+01	-4.185220e-01
39	 1.085898e+00	-9.880831e+00	-4.494068e-01
39	 6.358984e-01	-9.101408e+00	-4.869166e-01
39	 1.858984e-01	-8.321985e+00	-5.310512e-01
39	-2.641016e-01	-7.542563e+00	-5.818109e-01
39	-7.141016e-01	-6.763140e+00	-6.391954e-01
39	 1.882309e+00	-1.046025e+01	-4.241843e-01
39	 1.432309e+00	-9.680831e+00	-4.589351e-01
39	 9.823085e-01	-8.901408e+00	-5.001663e-01
39	 5.323085e-01	-8.121985e+00	-5.478779e-01
39	 8.230855e-02	-7.342563e+00	-6.020699e-01
39	-3.676915e-01	-6.563140e+00	-6.627423e-01
39	 2.228719e+00	-1.026025e+01	-4.279526e-01
39	 1.778719e+00	-9.480831e+00	-4.650340e-01
39	 1.328719e+00	-8.701408e+00	-5.084511e-01
39	 8.787187e-01	-7.921985e+00	-5.582041e-01
39	 4.287187e-01	-7.142563e+00	-6.142930e-01
39	-2.128129e-02	-6.363140e+00	-6.767176e-01
39	 2.575129e+00	-1.006025e+01	-4.298271e-01
39	 2.125129e+00	-9.280831e+00	-4.677034e-01
39	 1.675129e+00	-8.501408e+00	-5.117710e-01
39	 1.225129e+00	-7.721985e+00	-5.620299e-01
39	 7.751289e-01	-6.942563e+00	-6.184800e-01
39	 3.251289e-01	-6.163140e+00	-6.811215e-01
39	 2.921539e+00	-9.860254e+00	-4.298076e-01
39	 2.471539e+00	-9.080831e+00	-4.669433e-01
39	 2.021539e+00	-8.301408e+00	-5.101259e-01
39	 1.571539e+00	-7.521985e+00	-5.593551e-01
39	 1.121539e+00	-6.742563e+00	-6.146311e-01
39	 6.715390e-01	-5.963140e+00	-6.759538e-01
39	 3.267949e+00	-9.660254e+00	-4.278942e-01
39	 2.817949e+00	-8.880831e+00	-4.627539e-01
39	 2.367949e+00	-8.101408e+00	-5.035158e-01
39	 1.917949e+00	-7.321985e+00	-5.501799e-01
39	 1.467949e+00	-6.542563e+00	-6.027461e-01
39	 1.017949e+00	-5.763140e+00	-6.612146e-01
39	-7.141016e-01	-6.763140e+00	-6.391954e-01
39	-1.164102e+00	-5.983717e+00	-6.733601e-01
39	-1.614102e+00	-5.204294e+00	-7.416854e-01
39	-2.064102e+00	-4.424871e+00	-8.441711e-01
39	-2.514102e+00	-3.645448e+00	-9.808173e-01
39	-2.964102e+00	-2.866025e+00	-1.151624e+00
39	-3.676915e-01	-6.563140e+00	-6.627423e-01
39	-8.176915e-01	-5.783717e+00	-6.998852e-01
39	-1.267691e+00	-5.004294e+00	-7.715884e-01
39	-1.717691e+00	-4.224871e+00	-8.778519e-01
39	-2.167691e+00	-3.445448e+00	-1.018676e+00
39	-2.617691e+00	-2.666025e+00	-1.194060e+00
39	-2.128129e-02	-6.363140e+00	-6.767176e-01
39	-4.712813e-01	-5.583717e+00	-7.152238e-01
39	-9.212813e-01	-4.804294e+00	-7.886900e-01
39	-1.371281e+00	-4.024871e+00	-8.971162e-01
39	-1.821281e+00	-3.245448e+00	-1.040502e+00
39	-2.271281e+00	-2.466025e+00	-1.218849e+00
39	 3.251289e-01	-6.163140e+00	-6.811215e-01
39	-1.248711e-01	-5.383717e+00	-7.193759e-01
39	-5.748711e-01	-4.604294e+00	-7.929901e-01
39	-1.024871e+00	-3.824871e+00	-9.019640e-01
39	-1.474871e+00	-3.045448e+00	-1.046298e+00
39	-1.924871e+00	-2.266025e+00	-1.225991e+00
39	 6.715390e-01	-5.963140e+00	-6.759538e-01
39	 2.215390e-01	-5.183717e+00	-7.123415e-01
39	-2.284610e-01	-4.404294e+00	-7.844886e-01
39	-6.784610e-01	-3.624871e+00	-8.923954e-01
39	-1.128461e+00	-2.845448e+00	-1.036062e+00
39	-1.578461e+00	-2.066025e+00	-1.215487e+00
39	 1.017949e+00	-5.763140e+00	-6.612146e-01
39	 5.679492e-01	-4.983717e+00	-6.941205e-01
39	 1.179492e-01	-4.204294e+00	-7.631857e-01
39	-3.320508e-01	-3.424871e+00	-8.684102e-01
39	-7.820508e-01	-2.645448e+00	-1.009794e+00
39	-1.232051e+00	-1.866025e+00	-1.187337e+00
39	 3.267949e+00	-9.660254e+00	-4.278942e-01
39	 2.817949e+00	-8.880831e+00	-4.627539e-01
39	 2.367949e+00	-8.101408e+00	-5.035158e-01
39	 1.917949e+00	-7.321985e+00	-5.501799e-01
39	 1.467949e+00	-6.542563e+00	-6.027461e-01
39	 1.017949e+00	-5.763140e+00	-6.612146e-01
39	 3.614359e+00	-9.460254e+00	-4.234114e-01
39	 3.164359e+00	-8.680831e+00	-4.575817e-01
39	 2.714359e+00	-7.901408e+00	-4.974358e-01
39	 2.264359e+00	-7.121985e+00	-5.429736e-01
39	 1.814359e+00	-6.342563e+00	-5.941951e-01
39	 1.364359e+00	-5.563140e+00	-6.511003e-01
39	 3.960770e+00	-9.260254e+00	-4.156839e-01
39	 3.510770e+00	-8.480831e+00	-4.479935e-01
39	 3.060770e+00	-7.701408e+00	-4.857684e-01
39	 2.610770e+00	-6.921985e+00	-5.290086e-01
39	 2.160770e+00	-6.142563e+00	-5.777140e-01
39	 1.710770e+00	-5.363140e+00	-6.318847e-01
39	 4.307180e+00	-9.060254e+00	-4.047117e-01
39	 3.857180e+00	-8.280831e+00	-4.339892e-01
39	 3.407180e+00	-7.501408e+00	-4.685136e-01
39	 2.957180e+00	-6.721985e+00	-5.082848e-01
39	 2.507180e+00	-5.942563e+00	-5.533029e-01
39	 2.057180e+00	-5.163140e+00	-6.035677e-01
39	 4.653590e+00	-8.860254e+00	-3.904947e-01
39	 4.203590e+00	-8.080831e+00	-4.155689e-01
39	 3.753590e+00	-7.301408e+00	-4.456715e-01
39	 3.303590e+00	-6.521985e+00	-4.808024e-01
39	 2.853590e+00	-5.742563e+00	-5.209617e-01
39	 2.403590e+00	-4.963140e+00	-5.661494e-01
39	 5.000000e+00	-8.660254e+00	-3.730329e-01
39	 4.550000e+00	-7.880831e+00	-3.927325e-01
39	 4.100000e+00	-7.101408e+00	-4.172419e-01
39	 3.650000e+00	-6.321985e+00	-4.465613e-01
39	 3.200000e+00	-5.542563e+00	-4.806906e-01
39	 2.750000e+00	-4.763140e+00	-5.196298e-01
39	 1.017949e+00	-5.763140e+00	-6.612146e-01
39	 5.679492e-01	-4.983717e+00	-6.941205e-01
39	 1.179492e-01	-4.204294e+00	-7.631857e-01
39	-3.320508e-01	-3.424871e+00	-8.684102e-01
39	-7.820508e-01	-2.645448e+00	-1.009794e+00
39	-1.232051e+00	-1.866025e+00	-1.187337e+00
39	 1.364359e+00	-5.563140e+00	-6.511003e-01
39	 9.143594e-01	-4.783717e+00	-6.827283e-01
39	 4.643594e-01	-4.004294e+00	-7.496172e-01
39	 1.435935e-02	-3.224871e+00	-8.517670e-01
39	-4.356406e-01	-2.445448e+00	-9.891777e-01
39	-8.856406e-01	-1.666025e+00	-1.161849e+00
39	 1.710770e+00	-5.363140e+00	-6.318847e-01
39	 1.260770e+00	-4.583717e+00	-6.643405e-01
39	 8.107695e-01	-3.804294e+00	-7.311587e-01
39	 3.607695e-01	-3.024871e+00	-8.323396e-01
39	-8.923048e-02	-2.245448e+00	-9.678829e-01
39	-5.392305e-01	-1.466025e+00	-1.137789e+00
39	 2.057180e+00	-5.163140e+00	-6.035677e-01
39	 1.607180e+00	-4.383717e+00	-6.389570e-01
39	 1.157180e+00	-3.604294e+00	-7.078104e-01
39	 7.071797e-01	-2.824871e+00	-8.101279e-01
39	 2.571797e-01	-2.045448e+00	-9.459097e-01
39	-1.928203e-01	-1.266025e+00	-1.115156e+00
39	 2.403590e+00	-4.963140e+00	-5.661494e-01
39	 1.953590e+00	-4.183717e+00	-6.065779e-01
39	 1.503590e+00	-3.404294e+00	-6.795721e-01
39	 1.053590e+00	-2.624871e+00	-7.851321e-01
39	 6.035898e-01	-1.845448e+00	-9.232579e-01
39	 1.535898e-01	-1.066025e+00	-1.093949e+00
39	 2.750000e+00	-4.763140e+00	-5.196298e-01
39	 2.300000e+00	-3.983717e+00	-5.672031e-01
39	 1.850000e+00	-3.204294e+00	-6.464438e-01
39	 1.400000e+00	-2.424871e+00	-7.573520e-01
39	 9.500000e-01	-1.645448e+00	-8.999276e-01
39	 5.000000e-01	-8.660254e-01	-1.074171e+00
40	-2.964102e+00	-2.866025e+00	-1.145240e+00
40	-3.064102e+00	-2.692820e+00	-1.164841e+00
40	-3.164102e+00	-2.519615e+00	-1.197209e+00
40	-3.264102e+00	-2.346410e+00	-1.242345e+00
40	-3.364102e+00	-2.173205e+00	-1.300249e+00
40	-3.464102e+00	-2.000000e+00	-1.370921e+00
40	-2.617691e+00	-2.666025e+00	-1.149481e+00
40	-2.717691e+00	-2.492820e+00	-1.181252e+00
40	-2.817691e+00	-2.319615e+00	-1.222974e+00
40	-2.917691e+00	-2.146410e+00	-1.274647e+00
40	-3.017691e+00	-1.973205e+00	-1.336271e+00
40	-3.117691e+00	-1.800000e+00	-1.407846e+00
40	-2.271281e+00	-2.466025e+00	-1.148660e+00
40	-2.371281e+00	-2.292820e+00	-1.188653e+00
40	-2.471281e+00	-2.119615e+00	-1.235780e+00
40	-2.571281e+00	-1.946410e+00	-1.290042e+00
40	-2.671281e+00	-1.773205e+00	-1.351438e+00
40	-2.771281e+00	-1.600000e+00	-1.419969e+00
40	-1.924871e+00	-2.266025e+00	-1.142776e+00
40	-2.024871e+00	-2.092820e+00	-1.187043e+00
40	-2.124871e+00	-1.919615e+00	-1.235628e+00
40	-2.224871e+00	-1.746410e+00	-1.288530e+00
40	-2.324871e+00	-1.573205e+00	-1.345750e+00
40	-2.424871e+00	-1.400000e+00	-1.407288e+00
40	-1.578461e+00	-2.066025e+00	-1.131830e+00
40	-1.678461e+00	-1.892820e+00	-1.176422e+00
40	-1.778461e+00	-1.719615e+00	-1.222516e+00
40	-1.878461e+00	-1.546410e+00	-1.270111e+00
40	-1.978461e+00	-1.373205e+00	-1.319207e+00
40	-2.078461e+00	-1.200000e+00	-1.369804e+00
40	-1.232051e+00	-1.866025e+00	-1.115821e+00
40	-1.332051e+00	-1.692820e+00	-1.156791e+00
40	-1.432051e+00	-1.519615e+00	-1.196446e+00
40	-1.532051e+00	-1.346410e+00	-1.234785e+00
40	-1.632051e+00	-1.173205e+00	-1.271808e+00
40	-1.732051e+00	-1.000000e+00	-1.307517e+00
40	-1.232051e+00	-1.866025e+00	-1.115821e+00
40	-1.332051e+00	-1.692820e+00	-1.156791e+00
40	-1.432051e+00	-1.519615e+00	-1.196446e+00
40	-1.532051e+00	-1.346410e+00	-1.234785e+00
40	-1.632051e+00	-1.173205e+00	-1.271808e+00
40	-1.732051e+00	-1.000000e+00	-1.307517e+00
40	-8.856406e-01	-1.666025e+00	-1.107367e+00
40	-9.856406e-01	-1.492820e+00	-1.147626e+00
40	-1.085641e+00	-1.319615e+00	-1.187265e+00
40	-1.185641e+00	-1.146410e+00	-1.226286e+00
40	-1.285641e+00	-9.732051e-01	-1.264687e+00
40	-1.385641e+00	-8.000000e-01	-1.302470e+00
40	-5.392305e-01	-1.466025e+00	-1.097541e+00
40	-6.392305e-01	-1.292820e+00	-1.136956e+00
40	-7.392305e-01	-1.119615e+00	-1.176448e+00
40	-8.392305e-01	-9.464102e-01	-1.216017e+00
40	-9.392305e-01	-7.732051e-01	-1.255664e+00
40	-1.039230e+00	-6.000000e-01	-1.295388e+00
40	-1.928203e-01	-1.266025e+00	-1.086343e+00
40	-2.928203e-01	-1.092820e+00	-1.124781e+00
40	-3.928203e-01	-9.196152e-01	-1.163993e+00
40	-4.928203e-01	-7.464102e-01	-1.203978e+00
40	-5.928203e-01	-5.732051e-01	-1.244738e+00
40	-6.928203e-01	-4.000000e-01	-1.286271e+00
40	 1.535898e-01	-1.066025e+00	-1.073774e+00
40	 5.358984e-02	-8.928203e-01	-1.111102e+00
40	-4.641016e-02	-7.196152e-01	-1.149901e+00
40	-1.464102e-01	-5.464102e-01	-1.190170e+00
40	-2.464102e-01	-3.732051e-01	-1.231909e+00
40	-3.464102e-01	-2.000000e-01	-1.275119e+00
40	 5.000000e-01	-8.660254e-01	-1.059832e+00
40	 4.000000e-01	-6.928203e-01	-1.095919e+00
40	 3.000000e-01	-5.196152e-01	-1.134172e+00
40	 2.000000e-01	-3.464102e-01	-1.174592e+00
40	 1.000000e-01	-1.732051e-01	-1.217178e+00
40	 0.000000e+00	 0.000000e+00	-1.261932e+00
