label=Stress xy
num_items=11728

0:1.5963603946536176e-02
1:1.5999901608835441e-02
2:1.4886098237070122e-01
3:2.3872801806688854e-01
4:4.3136102827986106e-02
5:-1.3062271337088843e-02
6:-6.5293435453097279e-02
7:-7.6323660488309700e-02
8:-7.2984975738205171e-02
9:-4.3168174568182045e-03
10:-5.7513358419678154e-02
11:-1.2563398861851161e-01
12:-1.6143594294249597e-01
13:3.5396983784828834e-02
14:8.0751429142729744e-02
15:1.5101396669403334e-02
16:2.4761047506260730e-01
17:1.7379869166421663e-01
18:-1.3390094749556420e-03
19:-1.0409963886501926e-01
20:-6.9113935432561655e-02
21:-4.8952234458145949e-02
22:-2.4804585099311542e-02
23:-1.8258283039488961e-02
24:-1.4510369151061542e-01
25:-1.1378642454677566e-01
26:-1.5263444382369389e-02
27:2.9479752882946700e-02
28:-3.1606968557882878e-02
29:-4.6937613842888762e-02
30:1.5620889304474136e-02
31:5.4972769203909894e-02
32:-1.1945896768638749e-01
33:-5.2324724654217884e-02
34:1.7150531933310295e-01
35:3.9784324629641177e-01
36:-1.9280213178609139e-02
37:2.0231625981244696e-02
38:1.7308110649345065e-01
39:3.7664164316682203e-01
40:2.3962636403641574e-02
41:2.5946093319424997e-02
42:1.3063347921257268e-01
43:3.4649203786896376e-01
44:5.3881916042721405e-02
45:5.5413747823228013e-02
46:1.5459529301109876e-01
47:3.7855385936618979e-01
48:5.2173164237693059e-01
49:7.2293585855689968e-01
50:8.9839968418531191e-01
51:9.4713426947765156e-01
52:5.1281675679571381e-01
53:7.2101437370641253e-01
54:8.6871128205307135e-01
55:8.7726798470332190e-01
56:5.1659451520871924e-01
57:7.6868607255594756e-01
58:9.2314587257391567e-01
59:9.0296333967921527e-01
60:5.6095597937838138e-01
61:8.3265801093446190e-01
62:9.9923162702894508e-01
63:9.7596789076138235e-01
64:9.3784985814723176e-01
65:8.7180816948787632e-01
66:7.2815576490215539e-01
67:6.0558489879710975e-01
68:8.4579515969922636e-01
69:7.8680428912106737e-01
70:7.2087107130474093e-01
71:6.7550002424801270e-01
72:8.4920052369868426e-01
73:7.9404207010829075e-01
74:8.0062540552251349e-01
75:8.3049505711520155e-01
76:9.1717316832435947e-01
77:8.7137863554574480e-01
78:9.1721353428490415e-01
79:9.8358627786099406e-01
80:5.4520897234527976e-01
81:4.4474504019415939e-01
82:3.3118556119088266e-01
83:2.5094896535000216e-01
84:6.5127729492184760e-01
85:5.9103059678045566e-01
86:4.8971503851521631e-01
87:4.0334666590101803e-01
88:8.4267986542909068e-01
89:8.2107301020509071e-01
90:7.2247365085789017e-01
91:6.1468735609607106e-01
92:1.0127264475983899e+00
93:1.0074707942495231e+00
94:9.0323989127642945e-01
95:7.7516997984674596e-01
96:2.0866877165831924e-01
97:1.3191110984881801e-01
98:4.8312709122348203e-02
99:7.1728952088923213e-03
100:3.5729516093145164e-01
101:2.8102849990529127e-01
102:2.0378504076895393e-01
103:1.6223902026112091e-01
104:5.5362740525074472e-01
105:4.5857963049390232e-01
106:3.7124116186036155e-01
107:3.2661936671694441e-01
108:6.9963691671694839e-01
109:5.8201747523310710e-01
110:4.7625451958188153e-01
111:4.2583485701582341e-01
112:-3.5458066327750562e-03
113:-3.6393651208675186e-03
114:1.8278498476639690e-02
115:3.6307863901800810e-02
116:1.4641269473025034e-01
117:1.2588449750987096e-01
118:1.1338405872620001e-01
119:1.1179686836998672e-01
120:3.0840149964145530e-01
121:2.7394294762968485e-01
122:2.3404435737454626e-01
123:2.1447811588377794e-01
124:4.0699792501037108e-01
125:3.6868987583168988e-01
126:3.1990888825071329e-01
127:2.9333341865213458e-01
128:4.1545957271881609e-02
129:3.9724429915590623e-02
130:2.4198247942794435e-02
131:1.1417668752373069e-02
132:1.1253716142799999e-01
133:1.1015892277917487e-01
134:1.0017876635885881e-01
135:8.8936543633972270e-02
136:2.0960001742714174e-01
137:2.0278239288751074e-01
138:1.9238536572436862e-01
139:1.7938485374385979e-01
140:2.8543654744365382e-01
141:2.7399867893111629e-01
142:2.5838106744378958e-01
143:2.4099718504570872e-01
144:7.1143932406917609e-03
145:5.7678379445848397e-03
146:1.1739409380119699e-02
147:1.7055100871710718e-02
148:8.2391805516037891e-02
149:7.3056505097934071e-02
150:6.6161384274892404e-02
151:6.3752630385514181e-02
152:1.6984884978278797e-01
153:1.5258637643993417e-01
154:1.3425047934720183e-01
155:1.2495377745214592e-01
156:2.2875928700722550e-01
157:2.0679680497964023e-01
158:1.8348887256176077e-01
159:1.7143360838282087e-01
160:1.8565503851087253e-02
161:1.7843196779733717e-02
162:1.2884806113018827e-02
163:8.8001161160079534e-03
164:6.3029200138453048e-02
165:6.0669880616937587e-02
166:5.5819086923357492e-02
167:5.1276634428646620e-02
168:1.2197081004511884e-01
169:1.1701885149679250e-01
170:1.1010886056141783e-01
171:1.0350678968748951e-01
172:1.6735728352554669e-01
173:1.6028388881972930e-01
174:1.5026682399019112e-01
175:1.4099029271923738e-01
176:7.3745075154882725e-03
177:6.6604330375322389e-03
178:7.9880951726071219e-03
179:9.2447348325227410e-03
180:4.8776984515394750e-02
181:4.4932183912753457e-02
182:4.1394470537667052e-02
183:3.9474012887706245e-02
184:9.9332370100445308e-02
185:9.1830529821615936e-02
186:8.3441168664451587e-02
187:7.8445735463911564e-02
188:1.3530556638173058e-01
189:1.2530045883471369e-01
190:1.1432304721521792e-01
191:1.0779415513037714e-01
192:9.5453701230660010e-03
193:9.1408124795902771e-03
194:7.5321983148297252e-03
195:6.2376129930683151e-03
196:3.8604945657534535e-02
197:3.6800791055326063e-02
198:3.4171022445514808e-02
199:3.2080872515710353e-02
200:7.6357197437818769e-02
201:7.2760712555758403e-02
202:6.8258979625867661e-02
203:6.4698795769435408e-02
204:1.0501275058243861e-01
205:1.0008343717758748e-01
206:9.3756073506099463e-02
207:8.8757875287837185e-02
208:5.7584782374686064e-03
209:5.3879987249682883e-03
210:5.5168262652340100e-03
211:5.6890505325718019e-03
212:3.0992010823569338e-02
213:2.9191365881016507e-02
214:2.7253891083279393e-02
215:2.5991563941600716e-02
216:6.2706378010644812e-02
217:5.9115952547329625e-02
218:5.4886279379179094e-02
219:5.2073583003228507e-02
220:8.6001206716050396e-02
221:8.1113109774403169e-02
222:7.5445321766929183e-02
223:7.1689143568691049e-02
224:5.6871381723081595e-03
225:5.4429217638367602e-03
226:4.8624567393287946e-03
227:4.4118363026675799e-03
228:2.5365790105294519e-02
229:2.4192638441909546e-02
230:2.2682551075289752e-02
231:2.1571377860360324e-02
232:5.0742374149712034e-02
233:4.8409215177106897e-02
234:4.5578874573420601e-02
235:4.3502392320745306e-02
236:6.9897061377483985e-02
237:6.6711642523486117e-02
238:6.2791347920731849e-02
239:5.9905215893070719e-02
240:4.2285449213953262e-03
241:4.0207501798698976e-03
242:3.9103266044659673e-03
243:3.8506068356595775e-03
244:2.1006362641612750e-02
245:2.0027027277069155e-02
246:1.8885577538453342e-02
247:1.8089417290850139e-02
248:4.2411099410124810e-02
249:4.0444802456339801e-02
250:3.8067497572489957e-02
251:3.6403118022891839e-02
252:5.8395855690782067e-02
253:5.5698367048014751e-02
254:5.2464045553059370e-02
255:5.0204841694073896e-02
256:3.7980120013290310e-03
257:3.6460054279857119e-03
258:3.3931327240935959e-03
259:3.2035389361815552e-03
260:1.7684754499385585e-02
261:1.6947868610426402e-02
262:1.6034274204467763e-02
263:1.5376016250838943e-02
264:3.5574663358464299e-02
265:3.4102838659738115e-02
266:3.2316630188877350e-02
267:3.1029514196044175e-02
268:4.9077012749371651e-02
269:4.7061627226320006e-02
270:4.4600072745048340e-02
271:4.2821891973207571e-02
272:3.1178331171376455e-03
273:2.9916153150693330e-03
274:2.8697636274929916e-03
275:2.7862694232384322e-03
276:1.5041827863356548e-02
277:1.4447871858356246e-02
278:1.3729895186503149e-02
279:1.3215487582209234e-02
280:3.0366891570829137e-02
281:2.9171663961000047e-02
282:2.7708068330438228e-02
283:2.6659278388812043e-02
284:4.1907476871931609e-02
285:4.0263086815582064e-02
286:3.8255986339636859e-02
287:3.6819270215071295e-02
288:2.7384004819496709e-03
289:2.6391529132774733e-03
290:2.5019991633171367e-03
291:2.4008853086763815e-03
292:1.2951689040687777e-02
293:1.2473414730817742e-02
294:1.1882038695390656e-02
295:1.1453797062158183e-02
296:2.6125842211167868e-02
297:2.5166558342608055e-02
298:2.3988065069528382e-02
299:2.3133778184559070e-02
300:3.6087916266358745e-02
301:3.4769927626084038e-02
302:3.3146684651685750e-02
303:3.1968396368389634e-02
304:2.3513682831436777e-03
305:2.2674640522086747e-03
306:2.1700813586184014e-03
307:2.0996693556340805e-03
308:1.1234395854599738e-02
309:1.0837650149621023e-02
310:1.0346114939728387e-02
311:9.9866349736310797e-03
312:2.2693741646859531e-02
313:2.1894213839021390e-02
314:2.0899862372166150e-02
315:2.0172879524640072e-02
316:3.1361428705918570e-02
317:3.0259504467455667e-02
318:2.8890313617776737e-02
319:2.7889587888294150e-02
320:2.0621294731159928e-03
321:1.9908524877862263e-03
322:1.8981562794804121e-03
323:1.8291173143373236e-03
324:9.8003200809309993e-03
325:9.4591396541694305e-03
326:9.0294954119523978e-03
327:8.7112444555335778e-03
328:1.9797109261241033e-02
329:1.9110399253115248e-02
330:1.8246675763121313e-02
331:1.7606281290866894e-02
332:2.7372206262658280e-02
333:2.6425990414091546e-02
334:2.5234671179039769e-02
335:2.4350734518596564e-02
336:1.7935497437088352e-03
337:1.7288911391828503e-03
338:1.6473446572443783e-03
339:1.5859129231582962e-03
340:8.5452260580614822e-03
341:8.2384049999302249e-03
342:7.8455887397779530e-03
343:7.5489724871995855e-03
344:1.7271594334359340e-02
345:1.6652277190639116e-02
346:1.5858638529254742e-02
347:1.5259407814942913e-02
348:2.3888633421357493e-02
349:2.3033605609275254e-02
350:2.1937974535728096e-02
351:2.1110674317768748e-02
352:1.5532120451245603e-03
353:1.4914196217696676e-03
354:1.4100501384062547e-03
355:1.3472532263676938e-03
356:7.3920111156860809e-03
357:7.0975699855898265e-03
358:6.7123233139181936e-03
359:6.4153523299922974e-03
360:1.4942496801979833e-02
361:1.4348110869430809e-02
362:1.3570285499776262e-02
363:1.2970353229678279e-02
364:2.0673088352097121e-02
365:1.9852110923293399e-02
366:1.8777280911528024e-02
367:1.7947950935611960e-02
368:1.3136487738125619e-03
369:1.2497735470320590e-03
370:1.1643716642255920e-03
371:1.0970133164008133e-03
372:6.2560984432701470e-03
373:5.9526266377035088e-03
374:5.5460383030834989e-03
375:5.2252858138599288e-03
376:1.2648453585110339e-02
377:1.2034876513498553e-02
378:1.1212630538333854e-02
379:1.0563931834403142e-02
380:1.7502873382939071e-02
381:1.6654438661336125e-02
382:1.5517343523337722e-02
383:1.4620150092302027e-02
384:1.0603128319810081e-03
385:9.8921976502450376e-04
386:8.9178505364006112e-04
387:8.1335022613099144e-04
388:5.0506657031526197e-03
389:4.7127025951478720e-03
390:4.2498510088258236e-03
391:3.8773014147563990e-03
392:1.0210785044963226e-02
393:9.5272278718238450e-03
394:8.5908923771776165e-03
395:7.8370786473396965e-03
396:1.4131685557768774e-02
397:1.3186097740084973e-02
398:1.1890634146402089e-02
399:1.0847564100184656e-02
400:7.7011904260506042e-04
401:6.8531612723222654e-04
402:5.6695802346588896e-04
403:4.7004815730659249e-04
404:3.6719199561155210e-03
405:3.2689818824467812e-03
406:2.7066077449281771e-03
407:2.2462370932624983e-03
408:7.4214559717556156e-03
409:6.6060239263465046e-03
410:5.4679408154263186e-03
411:4.5363086760727500e-03
412:1.0272418430528084e-02
413:9.1439964481944795e-03
414:7.5690696907957846e-03
415:6.2798357015685863e-03
416:4.1606162138797093e-04
417:3.0913505839851458e-04
418:1.5809865350943137e-04
419:3.3256212683063037e-05
420:1.9898290348356654e-03
421:1.4819506132732190e-03
422:7.6401801763219918e-04
423:1.6978738188507087e-04
424:4.0174383210032005e-03
425:2.9896321556918243e-03
426:1.5365506708576256e-03
427:3.3365371893366786e-04
428:5.5617998032021308e-03
429:4.1394741938338532e-03
430:2.1286503832062685e-03
431:4.6407263789888448e-04
432:-1.7324627598025730e-01
433:6.5318449459313005e-02
434:1.6708707600681463e-01
435:1.1241501442198874e-01
436:-1.1873834586411217e-01
437:9.9367825354611056e-02
438:2.1049061932620591e-01
439:1.4101516614062398e-01
440:1.1754865154035236e-02
441:9.1777301849263415e-02
442:9.9169616886547948e-02
443:-1.7247225862032700e-02
444:7.4059818254848253e-02
445:4.5303776977774532e-02
446:-2.9602236727592098e-02
447:-1.5367601410650464e-01
448:5.1838317379076834e-02
449:2.7814638044329591e-03
450:3.3101573841672817e-02
451:7.5050845675533800e-02
452:5.2783122383088431e-02
453:-3.8267140199522903e-02
454:-1.7952506570239682e-04
455:1.2521956328010805e-01
456:-1.2497725518049688e-01
457:-2.1167653336101758e-01
458:-5.7119478618105346e-02
459:2.6423197967241935e-01
460:-2.4390206382395763e-01
461:-2.7168348330678005e-01
462:1.1529719279979480e-02
463:4.7499800049756080e-01
464:8.8501730527581202e-02
465:1.1059581117228667e-01
466:2.1787774523302775e-01
467:4.3533737909346309e-01
468:2.1378022513408981e-01
469:3.3934816319334282e-01
470:4.8756983750007099e-01
471:6.6461216249480637e-01
472:4.9339462075282026e-01
473:8.0921073803631072e-01
474:1.0280054520214421e+00
475:1.1200082672218847e+00
476:7.9239386269147127e-01
477:1.2244771846471967e+00
478:1.4779338342580801e+00
479:1.5019459623144276e+00
480:6.1093680872828227e-01
481:8.7530301704542923e-01
482:1.0421018051618729e+00
483:1.0234997075775216e+00
484:7.9695448522926426e-01
485:1.0027612388168721e+00
486:1.1424689723105268e+00
487:1.1332389628198403e+00
488:1.1639878207255900e+00
489:1.2474322028692959e+00
490:1.3241262750956235e+00
491:1.3270972735635325e+00
492:1.4800107848806285e+00
493:1.4745936449183095e+00
494:1.5086507726530969e+00
495:1.5219865833064339e+00
496:9.6806992178842954e-01
497:9.3221877575138368e-01
498:9.9446332081617339e-01
499:1.0720587977807903e+00
500:1.0903001653937570e+00
501:1.0742383664343029e+00
502:1.1508390484946367e+00
503:1.2297256444345881e+00
504:1.3052499200696563e+00
505:1.3059314345067659e+00
506:1.3620934856483804e+00
507:1.4045086879072073e+00
508:1.5143550495882978e+00
509:1.5122680043615984e+00
510:1.5179938680314031e+00
511:1.5045751819406668e+00
512:1.1054537968122014e+00
513:1.1033142095735746e+00
514:9.9411268911472761e-01
515:8.5594612593455865e-01
516:1.2604131430522842e+00
517:1.2519809949650480e+00
518:1.1311545569358121e+00
519:9.7943681429697027e-01
520:1.4128678577634108e+00
521:1.3756709570640049e+00
522:1.2369790135338046e+00
523:1.0777349534552945e+00
524:1.4836964096130052e+00
525:1.4119873579270785e+00
526:1.2590710091156661e+00
527:1.1009079188954289e+00
528:7.7321315897345066e-01
529:6.4300355808946164e-01
530:5.2506952316154010e-01
531:4.7007870659137357e-01
532:8.8741934525857180e-01
533:7.3958068273219291e-01
534:6.0278672796897215e-01
535:5.4001224892490707e-01
536:9.8117478736466068e-01
537:8.2216702899537286e-01
538:6.7143516076753995e-01
539:6.0392034753526791e-01
540:1.0055486964552447e+00
541:8.4601534480712037e-01
542:6.9398655955028332e-01
543:6.2987511427149934e-01
544:4.5073790534175678e-01
545:4.1179401447318725e-01
546:3.6188996947847274e-01
547:3.3408555692178493e-01
548:5.1963583747986242e-01
549:4.7985837890266508e-01
550:4.2928104955480728e-01
551:4.0067876678983894e-01
552:5.8438511454152076e-01
553:5.4682876729257901e-01
554:4.9807617286110939e-01
555:4.6917569727802128e-01
556:6.1477228741733558e-01
557:5.8424093752394024e-01
558:5.3984246489998855e-01
559:5.0985069734009136e-01
560:3.2533600167268328e-01
561:3.1156825169899821e-01
562:2.9194640051520820e-01
563:2.7125976507077187e-01
564:3.9117672172285306e-01
565:3.7457392859147753e-01
566:3.4919068399905362e-01
567:3.2332917319100674e-01
568:4.5870023647820191e-01
569:4.3950878572374769e-01
570:4.0986742136107157e-01
571:3.8046226111055192e-01
572:4.9722917429562613e-01
573:4.7492089709289276e-01
574:4.4359544627045933e-01
575:4.1450929891024829e-01
576:2.5736994529507035e-01
577:2.3321510617312663e-01
578:2.0840089338510601e-01
579:1.9570998499066480e-01
580:3.0673088399341131e-01
581:2.7888938405670882e-01
582:2.5143443173519353e-01
583:2.3762462847406512e-01
584:3.6201939984295445e-01
585:3.3126588420183811e-01
586:3.0086699572746090e-01
587:2.8517178288786676e-01
588:3.9664933459892338e-01
589:3.6612876465636546e-01
590:3.3435697918622959e-01
591:3.1664550801019259e-01
592:1.9129902040204910e-01
593:1.8313040615192869e-01
594:1.7104330251290636e-01
595:1.6002040680752877e-01
596:2.3267024932947269e-01
597:2.2278595746913757e-01
598:2.0745872680580593e-01
599:1.9365210244860723e-01
600:2.7924595348231046e-01
601:2.6733933390004455e-01
602:2.4908775715988130e-01
603:2.3295966205773555e-01
604:3.0944922898262633e-01
605:2.9568892329152219e-01
606:2.7596112521480803e-01
607:2.5916940084960088e-01
608:1.5346288601466432e-01
609:1.4222213272426931e-01
610:1.3022704703879665e-01
611:1.2314656591813933e-01
612:1.8566975891527751e-01
613:1.7234557030484876e-01
614:1.5853007523445647e-01
615:1.5042253655166471e-01
616:2.2376517257183492e-01
617:2.0842900027892478e-01
618:1.9242231971877621e-01
619:1.8285480033369866e-01
620:2.4969096231768495e-01
621:2.3357432036281697e-01
622:2.1615172908607477e-01
623:2.0534085203054334e-01
624:1.2007669548586769e-01
625:1.1446040415225200e-01
626:1.0705273915366752e-01
627:1.0120274197308166e-01
628:1.4682833031251577e-01
629:1.4002898432353886e-01
630:1.3082210489644652e-01
631:1.2355876209523356e-01
632:1.7852176274939568e-01
633:1.7031100519007447e-01
634:1.5924547798733082e-01
635:1.5058912216459311e-01
636:2.0034297387756017e-01
637:1.9106848271741034e-01
638:1.7890958425558029e-01
639:1.6954783309590166e-01
640:9.8022659275609020e-02
641:9.2475648837767696e-02
642:8.6148786915835260e-02
643:8.1968967169305226e-02
644:1.1966775239910007e-01
645:1.1298635987761520e-01
646:1.0548090864741595e-01
647:1.0052675341315594e-01
648:1.4598346927758882e-01
649:1.3807010823549828e-01
650:1.2913867117170005e-01
651:1.2319056114340411e-01
652:1.6458208654474318e-01
653:1.5595252384840852e-01
654:1.4603986611790498e-01
655:1.3934454125292928e-01
656:7.9956719272461854e-02
657:7.6330536211380140e-02
658:7.1809816202009935e-02
659:6.8475765220082002e-02
660:9.8114626960715434e-02
661:9.3706955869470795e-02
662:8.8144486631975910e-02
663:8.4038339039071805e-02
664:1.2027092840588177e-01
665:1.1492999901908743e-01
666:1.0819600179642792e-01
667:1.0323824432245249e-01
668:1.3604227438783628e-01
669:1.3004521170950414e-01
670:1.2255344663563233e-01
671:1.1706373875197110e-01
672:6.6742325902244146e-02
673:6.3668172483553845e-02
674:6.0009505329570043e-02
675:5.7456778279544728e-02
676:8.1916837428127567e-02
677:7.8180949944025205e-02
678:7.3762038446982703e-02
679:7.0677310756292105e-02
680:1.0068313510422935e-01
681:9.6180461831944286e-02
682:9.0840458098171539e-02
683:8.7097374571781391e-02
684:1.1423411116260511e-01
685:1.0922186806975065e-01
686:1.0323535705754835e-01
687:9.9018935277233086e-02
688:5.6177568380948686e-02
689:5.3879481740618539e-02
690:5.1058106442828051e-02
691:4.9017823556112471e-02
692:6.9123733108730934e-02
693:6.6317868379913616e-02
694:6.2856514817496684e-02
695:6.0351967701669805e-02
696:8.5205856158506496e-02
697:8.1787137399478557e-02
698:7.7569149346494906e-02
699:7.4518777655671706e-02
700:9.6885727672362310e-02
701:9.3038213454262803e-02
702:8.8302333932939125e-02
703:8.4879689472485059e-02
704:4.7970729693147911e-02
705:4.6093046365742116e-02
706:4.3807183688759431e-02
707:4.2171377777518448e-02
708:5.9069566619878180e-02
709:5.6775341501795071e-02
710:5.3987154103278548e-02
711:5.1990318076773921e-02
712:7.2957928565528130e-02
713:7.0163680687392885e-02
714:6.6762241821808552e-02
715:6.4320894768738743e-02
716:8.3126992993730206e-02
717:7.9982778885414024e-02
718:7.6144996891344532e-02
719:7.3385435711041114e-02
720:4.1337518167810026e-02
721:3.9832060911190161e-02
722:3.7974580639738423e-02
723:3.6625587985014953e-02
724:5.0970271426750396e-02
725:4.9125230076387721e-02
726:4.6844855410047591e-02
727:4.5188144739619657e-02
728:6.3071716515501822e-02
729:6.0811032380460414e-02
730:5.8015702015915493e-02
731:5.5984408564576697e-02
732:7.1972675148090401e-02
733:6.9416686119528156e-02
734:6.6256596715405569e-02
735:6.3959213385114788e-02
736:3.5931048036496140e-02
737:3.4671110478433791e-02
738:3.3106592297873605e-02
739:3.1963043654476400e-02
740:4.4335687507007088e-02
741:4.2789948934861696e-02
742:4.0870596345940556e-02
743:3.9466673211843779e-02
744:5.4939134114386008e-02
745:5.3042528842263792e-02
746:5.0684627987592663e-02
747:4.8957510586554377e-02
748:6.2776209171195432e-02
749:6.0627668729913958e-02
750:5.7953150507481045e-02
751:5.5992100302343958e-02
752:3.1371539128985611e-02
753:3.0289143206864128e-02
754:2.8925543724027891e-02
755:2.7913503909506934e-02
756:3.8739821804721596e-02
757:3.7408833098330568e-02
758:3.5730842945252188e-02
759:3.4484995322289491e-02
760:4.8062457523499601e-02
761:4.6422651822123413e-02
762:4.4354024370648455e-02
763:4.2817236916306491e-02
764:5.4975305814915602e-02
765:5.3111927989420125e-02
766:5.0760020107536115e-02
767:4.9011580752165079e-02
768:2.7384447983763462e-02
769:2.6405621566791389e-02
770:2.5151372021384656e-02
771:2.4204167689218445e-02
772:3.3833676732708151e-02
773:3.2628440123577643e-02
774:3.1083432977853910e-02
775:2.9915984113380707e-02
776:4.2013507151056610e-02
777:4.0525330751279051e-02
778:3.8615755959129736e-02
779:3.7171396390864614e-02
780:4.8096653028413414e-02
781:4.6401574093796208e-02
782:4.4224668158120109e-02
783:4.2576831434895733e-02
784:2.3703069607884403e-02
785:2.2762753188607723e-02
786:2.1531399108747809e-02
787:2.0581141403222994e-02
788:2.9298090248211766e-02
789:2.8138210164366090e-02
790:2.6618685825335352e-02
791:2.5445632920333881e-02
792:3.6406449301607809e-02
793:3.4969876016855486e-02
794:3.3086682214063287e-02
795:3.1632019193791709e-02
796:4.1703718288679227e-02
797:4.0063379459388024e-02
798:3.7911836932860682e-02
799:3.6248931327216509e-02
800:2.0071130256070751e-02
801:1.9098870625609263e-02
802:1.7795718179657159e-02
803:1.6767405963192900e-02
804:2.4815925490769830e-02
805:2.3615229749339453e-02
806:2.2005384775536867e-02
807:2.0734669092996143e-02
808:3.0850845259521843e-02
809:2.9360727114061597e-02
810:2.7361667787182003e-02
811:2.5782888956405171e-02
812:3.5355587819729889e-02
813:3.3650891045821009e-02
814:3.1362842612902377e-02
815:2.9555045048091109e-02
816:1.6207517668400874e-02
817:1.5123602923744194e-02
818:1.3638525421937098e-02
819:1.2442717753804044e-02
820:2.0042663337791870e-02
821:1.8702792638983400e-02
822:1.6866716036854683e-02
823:1.5388071835600103e-02
824:2.4922845466557184e-02
825:2.3257249298653759e-02
826:2.0974171334241690e-02
827:1.9135099022819874e-02
828:2.8569992447281180e-02
829:2.6661932018742143e-02
830:2.4045839877679099e-02
831:2.1938051477417619e-02
832:1.1783335074348218e-02
833:1.0489631645667272e-02
834:8.6840074720484460e-03
835:7.2059131197807665e-03
836:1.4572668042526769e-02
837:1.2972774343715545e-02
838:1.0739671204857774e-02
839:8.9115593032596512e-03
840:1.8120796789000190e-02
841:1.6130460111300805e-02
842:1.3352082231242455e-02
843:1.1077404710810937e-02
844:2.0775397587978677e-02
845:1.8493783487926522e-02
846:1.5308537430544219e-02
847:1.2700600931398085e-02
848:6.3826892368734700e-03
849:4.7520238245856283e-03
850:2.4467265452250550e-03
851:5.3844948926667436e-04
852:7.8933750811620244e-03
853:5.8765964004547765e-03
854:3.0256384618081661e-03
855:6.6585269610080859e-04
856:9.8104623015263931e-03
857:7.3010829410361817e-03
858:3.7541107539208998e-03
859:8.1851144029922987e-04
860:1.1248010066903262e-02
861:8.3710437163663359e-03
862:4.3047849009881182e-03
863:9.3964672473198854e-04
864:6.8856073033088702e-02
865:7.4329333817770103e-03
866:-8.2904210796654568e-02
867:-1.8363921707532904e-01
868:-3.2257979667610862e-02
869:-6.6779090940609631e-02
870:-6.3252390134953790e-02
871:-2.7333433673486500e-02
872:-3.4129225095720994e-01
873:-1.9492353748451963e-01
874:1.1337664838082118e-01
875:4.4208538965171945e-01
876:-7.1158272586935833e-01
877:-3.4510933113883235e-01
878:2.7112274488424026e-01
879:8.4203588538627627e-01
880:-2.4625283644449894e-01
881:-2.1930336556753185e-01
882:1.3301362294113739e-01
883:6.4566939072013196e-01
884:7.0554942677649975e-03
885:1.8217703075620961e-01
886:6.4189929523425426e-01
887:1.1688450833749560e+00
888:6.4843626358916107e-01
889:1.0532081891279366e+00
890:1.6067123730201176e+00
891:2.0499443738440610e+00
892:1.1728244507041374e+00
893:1.7316039809852681e+00
894:2.3217487043870690e+00
895:2.6726579450839743e+00
896:9.8677091918883120e-01
897:1.4473595044632681e+00
898:1.7006370571879563e+00
899:1.6922915986736224e+00
900:1.4948892072583706e+00
901:1.9194594851659277e+00
902:2.1072835090992741e+00
903:2.0247005605389283e+00
904:2.2833396275477069e+00
905:2.5554876576486931e+00
906:2.5887550992819341e+00
907:2.4021561916714163e+00
908:2.8213978235019854e+00
909:2.9644503233439639e+00
910:2.8861244797153121e+00
911:2.6375618510035599e+00
912:1.6427526369851759e+00
913:1.6017933878722004e+00
914:1.6210134763020332e+00
915:1.6397078814573125e+00
916:1.9264583866495424e+00
917:1.8158649933711559e+00
918:1.7897861557369665e+00
919:1.8033983416604942e+00
920:2.2482698379503399e+00
921:2.0404122658428121e+00
922:1.9166850741083707e+00
923:1.8899852366154695e+00
924:2.4520361962405959e+00
925:2.1706500002795512e+00
926:1.9458641670170145e+00
927:1.8616195498301449e+00
928:1.6372867855881810e+00
929:1.6264663418086582e+00
930:1.5935503199647931e+00
931:1.5423583721828513e+00
932:1.8049831873122433e+00
933:1.7771388490270306e+00
934:1.6835208796439014e+00
935:1.5724429537010534e+00
936:1.8838421495078426e+00
937:1.8329020837356855e+00
938:1.6880575784543814e+00
939:1.5247545508465323e+00
940:1.8381106853367151e+00
941:1.7662477943765154e+00
942:1.6013203429986733e+00
943:1.4169267591139105e+00
944:1.5028183377770616e+00
945:1.4097293024947675e+00
946:1.2493633493048524e+00
947:1.0936034707688920e+00
948:1.5020858675291879e+00
949:1.3722258313412496e+00
950:1.1971222258701180e+00
951:1.0448788521125287e+00
952:1.4242412666481612e+00
953:1.2562644618019136e+00
954:1.0661406430486038e+00
955:9.2323144411044944e-01
956:1.3008630382724398e+00
957:1.1127258048081405e+00
958:9.1995497459738995e-01
959:7.9498514481154403e-01
960:1.0000641616500814e+00
961:8.4263464765425022e-01
962:6.9357290180468223e-01
963:6.3468808374467389e-01
964:9.5510987000515313e-01
965:8.0416404632862548e-01
966:6.6690681284986852e-01
967:6.2426043670093156e-01
968:8.4354252494228976e-01
969:7.1089009401276204e-01
970:5.9937549891011166e-01
971:5.8257254852081175e-01
972:7.3151092762705605e-01
973:6.2534264820892616e-01
974:5.3986758513687982e-01
975:5.3903720185414150e-01
976:6.2396206564994516e-01
977:5.9998476485550778e-01
978:5.5932905711430814e-01
979:5.2807228611203283e-01
980:6.2549215820664750e-01
981:6.1958745108641933e-01
982:5.9003148634189739e-01
983:5.5626802888843008e-01
984:6.0053558589981493e-01
985:6.2105723197529750e-01
986:6.1048244712604227e-01
987:5.7620158233876217e-01
988:5.6491141247518650e-01
989:5.9987562309244091e-01
990:6.0375528147913793e-01
991:5.7375217060353967e-01
992:5.1339636697582103e-01
993:4.8840173962472083e-01
994:4.5638477704369951e-01
995:4.2866581397721087e-01
996:5.3647785483112032e-01
997:5.0445739551031521e-01
998:4.7032973097948522e-01
999:4.4635944506202607e-01
1000:5.5058742239719238e-01
1001:5.1006300900755730e-01
1002:4.7340572676688858e-01
1003:4.5502705799943943e-01
1004:5.4731441451872009e-01
1005:5.0501493402394504e-01
1006:4.6850543920586846e-01
1007:4.5364975644297600e-01
1008:4.1202267893466138e-01
1009:3.8281525576210201e-01
1010:3.5082744131110521e-01
1011:3.3180415115113771e-01
1012:4.3331443296593714e-01
1013:4.0877746616136612e-01
1014:3.7816963948670573e-01
1015:3.5698500092102864e-01
1016:4.4750919294237246e-01
1017:4.3098962763655752e-01
1018:4.0465927290418441e-01
1019:3.8196640099672813e-01
1020:4.4946048982873887e-01
1021:4.3833534966503368e-01
1022:4.1607442879441509e-01
1023:3.9375822343746958e-01
1024:3.2365789980766491e-01
1025:3.0865889322975520e-01
1026:2.8831786310503621e-01
1027:2.7158014681159426e-01
1028:3.4681485415726293e-01
1029:3.2908889680494091e-01
1030:3.0748507170088357e-01
1031:2.9121061588995079e-01
1032:3.6950066982013502e-01
1033:3.4854415738015537e-01
1034:3.2553308565573907e-01
1035:3.1023074824781843e-01
1036:3.8050440618299997e-01
1037:3.5834535181095412e-01
1038:3.3495034006880464e-01
1039:3.2043471855479044e-01
1040:2.6221829153606252e-01
1041:2.4602490075349717e-01
1042:2.2799674844585197e-01
1043:2.1648420622622774e-01
1044:2.8243623159188230e-01
1045:2.6674013749784031e-01
1046:2.4816414098402156e-01
1047:2.3553443537878391e-01
1048:3.0256924321138678e-01
1049:2.8826863492275712e-01
1050:2.6991909737379699e-01
1051:2.5636738013719351e-01
1052:3.1356790681280072e-01
1053:3.0043414189786516e-01
1054:2.8272302442401054e-01
1055:2.6895683417054228e-01
1056:2.1108474679996200e-01
1057:2.0122587100747349e-01
1058:1.8858155486108338e-01
1059:1.7897134645707363e-01
1060:2.2939032914743065e-01
1061:2.1844315504377068e-01
1062:2.0495661551275132e-01
1063:1.9501090539134736e-01
1064:2.4942965502935635e-01
1065:2.3729507926447843e-01
1066:2.2293541857163060e-01
1067:2.1275386860938778e-01
1068:2.6167742364573088e-01
1069:2.4900382187962827e-01
1070:2.3425440122897809e-01
1071:2.2401712777402089e-01
1072:1.7388602431998079e-01
1073:1.6496807455414580e-01
1074:1.5458569846733847e-01
1075:1.4750258079535541e-01
1076:1.8980449604954558e-01
1077:1.8053214722019262e-01
1078:1.6946700284062474e-01
1079:1.6175961611686207e-01
1080:2.0753081750741248e-01
1081:1.9808243366841460e-01
1082:1.8648698243972725e-01
1083:1.7819170492368117e-01
1084:2.1883908001782262e-01
1085:2.0939895201157704e-01
1086:1.9762759587282294e-01
1087:1.8906155431510374e-01
1088:1.4399886271787435e-01
1089:1.3767186850103458e-01
1090:1.2982360974193113e-01
1091:1.2409245860924367e-01
1092:1.5791301983115066e-01
1093:1.5102319204722686e-01
1094:1.4257540620371439e-01
1095:1.3644946263089847e-01
1096:1.7399037493230432e-01
1097:1.6650776214635238e-01
1098:1.5742819981368941e-01
1099:1.5089800373457121e-01
1100:1.8467556798468096e-01
1101:1.7687249256400422e-01
1102:1.6744108403621163e-01
1103:1.6068679504027270e-01
1104:1.2113742783093055e-01
1105:1.1588308790022375e-01
1106:1.0957644086631310e-01
1107:1.0512140253853457e-01
1108:1.3329389672781175e-01
1109:1.2764972956562942e-01
1110:1.2081967970386148e-01
1111:1.1596789312458394e-01
1112:1.4754433484193838e-01
1113:1.4151350519448208e-01
1114:1.3415354266555302e-01
1115:1.2888782473403726e-01
1116:1.5722650239418176e-01
1117:1.5098690398820933e-01
1118:1.4333331689931722e-01
1119:1.3782847106284907e-01
1120:1.0286665614468109e-01
1121:9.8806479058435315e-02
1122:9.3817220034633941e-02
1123:9.0212506210643195e-02
1124:1.1350854862618048e-01
1125:1.0908837014731354e-01
1126:1.0366745924656008e-01
1127:9.9751156169840469e-02
1128:1.2620955289619024e-01
1129:1.2139879553582462e-01
1130:1.1550284376002416e-01
1131:1.1124121428776017e-01
1132:1.3501923399941645e-01
1133:1.2997042274325463e-01
1134:1.2377981921379665e-01
1135:1.1930265696911646e-01
1136:8.8365171575751258e-02
1137:8.5046545818990904e-02
1138:8.0989199005892396e-02
1139:7.8069138540237323e-02
1140:9.7741621547193527e-02
1141:9.4124170593962275e-02
1142:8.9690559319028765e-02
1143:8.6495063957671994e-02
1144:1.0905197190813110e-01
1145:1.0510369052392635e-01
1146:1.0025252402166128e-01
1147:9.6749271399147282e-02
1148:1.1700154346721091e-01
1149:1.1284688166993759e-01
1150:1.0773280125899146e-01
1151:1.0403266546098625e-01
1152:7.6574107071763861e-02
1153:7.3869920894224464e-02
1154:7.0526757787538849e-02
1155:6.8095247401619471e-02
1156:8.4858566270889765e-02
1157:8.1898355027345077e-02
1158:7.8236623840918965e-02
1159:7.5570145738772312e-02
1160:9.4953528574905161e-02
1161:9.1702678204171550e-02
1162:8.7675280734053826e-02
1163:8.4736741902292953e-02
1164:1.0213361320054314e-01
1165:9.8692523221648912e-02
1166:9.4423445263055059e-02
1167:9.1304007391631040e-02
1168:6.6842458803981694e-02
1169:6.4565884456863037e-02
1170:6.1730048985841848e-02
1171:5.9649741209694254e-02
1172:7.4194656205409409e-02
1173:7.1692889223251621e-02
1174:6.8573221814588525e-02
1175:6.6282908036415400e-02
1176:8.3218621351502070e-02
1177:8.0454754687680166e-02
1178:7.7003838986917358e-02
1179:7.4467391591659327e-02
1180:8.9690865965586453e-02
1181:8.6751811339886326e-02
1182:8.3077946710168923e-02
1183:8.0374332107311347e-02
1184:5.8570924728207845e-02
1185:5.6593554268156585e-02
1186:5.4096876111300020e-02
1187:5.2239912660202857e-02
1188:6.5094757136301459e-02
1189:6.2915802151645356e-02
1190:6.0161857500773103e-02
1191:5.8111147033144094e-02
1192:7.3150600407235575e-02
1193:7.0733240236392769e-02
1194:6.7672812173665872e-02
1195:6.5389800912781640e-02
1196:7.8969555328072150e-02
1197:7.6388271317692713e-02
1198:7.3115696275031158e-02
1199:7.0671000617399185e-02
1200:5.1267817878545993e-02
1201:4.9466224595523522e-02
1202:4.7151491617627092e-02
1203:4.5398639369796448e-02
1204:5.7036715444788472e-02
1205:5.5044230300892255e-02
1206:5.2482095663009917e-02
1207:5.0540414460083026e-02
1208:6.4192225135656644e-02
1209:6.1969505090463249e-02
1210:5.9107909150276326e-02
1211:5.6936769800005255e-02
1212:6.9387457559515572e-02
1213:6.7003478123519630e-02
1214:6.3931004821316861e-02
1215:6.1597355190684523e-02
1216:4.4469672952292962e-02
1217:4.2724004745422255e-02
1218:4.0433502669736408e-02
1219:3.8662563143732821e-02
1220:4.9510888584061552e-02
1221:4.7575209295868857e-02
1222:4.5033308463569809e-02
1223:4.3066408807193708e-02
1224:5.5784703918800381e-02
1225:5.3616747747575473e-02
1226:5.0766169546072847e-02
1227:4.8557718248120482e-02
1228:6.0358161220587951e-02
1229:5.8024508997762798e-02
1230:5.4952769514915276e-02
1231:5.2570591105410250e-02
1232:3.7710956771312282e-02
1233:3.5894721954696077e-02
1234:3.3456319954887105e-02
1235:3.1529278234079729e-02
1236:4.2008958549703351e-02
1237:3.9989896892582463e-02
1238:3.7277719312432171e-02
1239:3.5133279401753224e-02
1240:4.7369500667630640e-02
1241:4.5099417138653355e-02
1242:4.2047591767703188e-02
1243:3.9632837038900658e-02
1244:5.1288114967830881e-02
1245:4.8836721061334160e-02
1246:4.5538855323652865e-02
1247:4.2927751529182726e-02
1248:3.0479107785506970e-02
1249:2.8444687631422886e-02
1250:2.5654932925139401e-02
1251:2.3406931043367305e-02
1252:3.3964297601205569e-02
1253:3.1699141774047257e-02
1254:2.8591940336869168e-02
1255:2.6087409550455590e-02
1256:3.8315915847841019e-02
1257:3.5763094685596408e-02
1258:3.2259480215547899e-02
1259:2.9434179305590811e-02
1260:4.1503191476360120e-02
1261:3.8740801379891623e-02
1262:3.4947930478037979e-02
1263:3.1888261458176595e-02
1264:2.2166843096470944e-02
1265:1.9733176737094970e-02
1266:1.6335518607955318e-02
1267:1.3553589867163351e-02
1268:2.4705584226775202e-02
1269:2.1993537821114743e-02
1270:1.8206904432604254e-02
1271:1.5106305010686976e-02
1272:2.7874994936844456e-02
1273:2.4814482222184752e-02
1274:2.0540754792367069e-02
1275:1.7040986484706151e-02
1276:3.0199400124733575e-02
1277:2.6884008706001442e-02
1278:2.2253854667345457e-02
1279:1.8461904286290066e-02
1280:1.2004072377431523e-02
1281:8.9352025640337049e-03
1282:4.5978715005806602e-03
1283:1.0085311880769544e-03
1284:1.3379252237007283e-02
1285:9.9588940330000222e-03
1286:5.1251211074557568e-03
1287:1.1252365958982775e-03
1288:1.5091525348527703e-02
1289:1.1230889605026984e-02
1290:5.7754354957097430e-03
1291:1.2616028649879941e-03
1292:1.6349624366587254e-02
1293:1.2166746034041165e-02
1294:6.2564715333660297e-03
1295:1.3668071688905006e-03
1296:-9.5491112097475894e-01
1297:-4.5149677265652371e-01
1298:3.3374733909021254e-01
1299:1.0172938840854810e+00
1300:-1.4621901624293747e+00
1301:-6.8740715687377896e-01
1302:3.7108500673699535e-01
1303:1.1919487584711488e+00
1304:-2.0936410457194512e+00
1305:-1.0060903932471850e+00
1306:2.8361365222608409e-01
1307:1.1511359490317068e+00
1308:-2.4385353631658999e+00
1309:-1.2054678304975002e+00
1310:1.3607209153449551e-01
1311:9.5537971457704951e-01
1312:1.3983376628299038e+00
1313:2.0153365115623831e+00
1314:2.6116737650132795e+00
1315:2.9178885553395641e+00
1316:1.6181234859204201e+00
1317:2.2760258623856160e+00
1318:2.8471346034230565e+00
1319:3.0785215569108351e+00
1320:1.5607497022044030e+00
1321:2.1705911433019600e+00
1322:2.6576383860773904e+00
1323:2.8078912076444289e+00
1324:1.3163098243960174e+00
1325:1.8449607679475235e+00
1326:2.2506660282597939e+00
1327:2.3521547481531813e+00
1328:3.0290059393771780e+00
1329:3.1187146252099298e+00
1330:3.0007776882728097e+00
1331:2.7329448558349618e+00
1332:3.1349036767572134e+00
1333:3.1523287239178250e+00
1334:2.9958710724616151e+00
1335:2.7264194775894732e+00
1336:2.8171961417309856e+00
1337:2.7773541126241423e+00
1338:2.6121722592760963e+00
1339:2.3838983178512216e+00
1340:2.3390092573764085e+00
1341:2.2701571486688081e+00
1342:2.1057416024456055e+00
1343:1.9183430439365021e+00
1344:2.5366864786018990e+00
1345:2.2204757107835533e+00
1346:1.9369732268793367e+00
1347:1.8144181991332655e+00
1348:2.5328357847758087e+00
1349:2.1957303334924254e+00
1350:1.8511102528222989e+00
1351:1.6775371663387992e+00
1352:2.2257077109863097e+00
1353:1.9325982340941990e+00
1354:1.5973643313172958e+00
1355:1.3995474865378967e+00
1356:1.7975894159683694e+00
1357:1.5709260053957808e+00
1358:1.2932662750642874e+00
1359:1.1037071492368493e+00
1360:1.7777345323378064e+00
1361:1.6929139229290471e+00
1362:1.5223567002173160e+00
1363:1.3321900717404878e+00
1364:1.6189202262185665e+00
1365:1.5083674894976171e+00
1366:1.3202969962887756e+00
1367:1.1154114232423888e+00
1368:1.3197754145866800e+00
1369:1.1774582927987838e+00
1370:9.6327305337419145e-01
1371:7.4556149839518560e-01
1372:1.0132798131953256e+00
1373:8.5184844774127344e-01
1374:6.2805585296589028e-01
1375:4.2134776278457275e-01
1376:1.2101210495767789e+00
1377:1.0146354512597415e+00
1378:8.2549757189423056e-01
1379:7.1641850973802457e-01
1380:9.8207421051622612e-01
1381:7.7705379020820509e-01
1382:6.0826908682949821e-01
1383:5.4531430089344035e-01
1384:6.0725833324166367e-01
1385:4.0893021385769890e-01
1386:2.8925499987666109e-01
1387:3.0073690500001360e-01
1388:2.9672502263302208e-01
1389:1.2885463734239069e-01
1390:5.9766527007894983e-02
1391:1.2191160848759290e-01
1392:6.6615471819930294e-01
1393:5.8034384344426682e-01
1394:5.1085327291198046e-01
1395:5.1511058788355446e-01
1396:5.3017833353269805e-01
1397:4.9763858593251442e-01
1398:4.6618260840035436e-01
1399:4.7572346518610059e-01
1400:3.3770352812526061e-01
1401:3.8483214488193951e-01
1402:4.1004095948044489e-01
1403:4.2397326341255598e-01
1404:1.9022581349939377e-01
1405:2.8742975935341447e-01
1406:3.5235488736335097e-01
1407:3.7254696954720157e-01
1408:5.4175481242694079e-01
1409:5.7990823237343625e-01
1410:5.9021876851250366e-01
1411:5.6478477086416878e-01
1412:4.9788795124508417e-01
1413:5.3280824546002026e-01
1414:5.4981846328884021e-01
1415:5.3494829661957133e-01
1416:4.3560841166265857e-01
1417:4.5792333767926757e-01
1418:4.7744660398312161e-01
1419:4.7747225029298079e-01
1420:3.7873241270327773e-01
1421:3.9393605036853890e-01
1422:4.1511123358222046e-01
1423:4.2532551973016491e-01
1424:5.4004743562388036e-01
1425:4.9972376028146726e-01
1426:4.6463959003541111e-01
1427:4.5103777257777505e-01
1428:5.1663119252851319e-01
1429:4.8503991939150015e-01
1430:4.5571242841222009e-01
1431:4.4383598433994548e-01
1432:4.7058691837272298e-01
1433:4.5561349784827132e-01
1434:4.3761199267548900e-01
1435:4.2781042397026153e-01
1436:4.2672114327583344e-01
1437:4.2437577633963436e-01
1438:4.1584215816734993e-01
1439:4.0833298237727272e-01
1440:4.4784762378735726e-01
1441:4.3866040856253585e-01
1442:4.1848540788816879e-01
1443:3.9704548000482004e-01
1444:4.4117163422606553e-01
1445:4.3368218166019068e-01
1446:4.1665795388734006e-01
1447:3.9770064132281896e-01
1448:4.2455945560310826e-01
1449:4.1740788635950649e-01
1450:4.0385944459417294e-01
1451:3.8924839570492231e-01
1452:4.0487082335338098e-01
1453:3.9830270731706857e-01
1454:3.8781942795624857e-01
1455:3.7698594202229618e-01
1456:3.8391889906768578e-01
1457:3.6187130382297028e-01
1458:3.3867678127797213e-01
1459:3.2452975193018535e-01
1460:3.8571715646365973e-01
1461:3.6524097402923900e-01
1462:3.4330240239375470e-01
1463:3.2984114791160341e-01
1464:3.7989162202818227e-01
1465:3.6322178678391132e-01
1466:3.4416656526827399e-01
1467:3.3173767441522500e-01
1468:3.6996208734092989e-01
1469:3.5674170156278656e-01
1470:3.4039362346519936e-01
1471:3.2897513737298473e-01
1472:3.1797056698218601e-01
1473:3.0534997645826450e-01
1474:2.8806138148775573e-01
1475:2.7437536263347240e-01
1476:3.2364733453131617e-01
1477:3.1173324041762485e-01
1478:2.9527128199543057e-01
1479:2.8202687374809721e-01
1480:3.2583730886131057e-01
1481:3.1467260322688295e-01
1482:2.9951338144596379e-01
1483:2.8733982821008475e-01
1484:3.2336438828789826e-01
1485:3.1294509783659225e-01
1486:2.9911840557600372e-01
1487:2.8809021948027252e-01
1488:2.6704589336887719e-01
1489:2.5427360175787400e-01
1490:2.3944877558279518e-01
1491:2.2921857485161085e-01
1492:2.7483505798749203e-01
1493:2.6223244026073955e-01
1494:2.4754421363037302e-01
1495:2.3741454915599938e-01
1496:2.8068303175892106e-01
1497:2.6885261989611253e-01
1498:2.5480204168026371e-01
1499:2.4498257559696163e-01
1500:2.8203098959208922e-01
1501:2.7108507807028093e-01
1502:2.5779255994913897e-01
1503:2.4835068949022290e-01
1504:2.2407021432179455e-01
1505:2.1466232462519505e-01
1506:2.0286435631528998e-01
1507:1.9421894056285086e-01
1508:2.3233328785380222e-01
1509:2.2302808666252497e-01
1510:2.1128505174353829e-01
1511:2.0260148721508145e-01
1512:2.4003706530148797e-01
1513:2.3098614401193027e-01
1514:2.1953993887353729e-01
1515:2.1101853409654606e-01
1516:2.4356839114764214e-01
1517:2.3483884715491349e-01
1518:2.2381331306479613e-01
1519:2.1557592034214390e-01
1520:1.8977017157490508e-01
1521:1.8185148013419813e-01
1522:1.7228518458659581e-01
1523:1.6544257045391150e-01
1524:1.9810084541012452e-01
1525:1.9007339759144262e-01
1526:1.8036431350177679e-01
1527:1.7342177008058826e-01
1528:2.0657092690744319e-01
1529:1.9860047481010792e-01
1530:1.8891117061765197e-01
1531:1.8196368457735068e-01
1532:2.1125416900558627e-01
1533:2.0346735702287624e-01
1534:1.9393983158383402e-01
1535:1.8707981488495126e-01
1536:1.6194060017129086e-01
1537:1.5561914842955352e-01
1538:1.4784751565178228e-01
1539:1.4224249795925684e-01
1540:1.6987188292823177e-01
1541:1.6345256193543098e-01
1542:1.5552982813717453e-01
1543:1.4978760307275102e-01
1544:1.7840983254437220e-01
1545:1.7197102879430509e-01
1546:1.6398918196667789e-01
1547:1.5816906558164576e-01
1548:1.8356647391072728e-01
1549:1.7719427550600406e-01
1550:1.6927296713195861e-01
1551:1.6347213673137409e-01
1552:1.3937656860169617e-01
1553:1.3422299527684092e-01
1554:1.2790087514741416e-01
1555:1.2332718173842941e-01
1556:1.4684078524880731e-01
1557:1.4153556744522489e-01
1558:1.3502065062930307e-01
1559:1.3030456558318398e-01
1560:1.5516817994212020e-01
1561:1.4975532990423268e-01
1562:1.4309540166879645e-01
1563:1.3826810664961414e-01
1564:1.6047045970007673e-01
1565:1.5504556342193848e-01
1566:1.4835560934544545e-01
1567:1.4349811407865540e-01
1568:1.2097613908510955e-01
1569:1.1672892008152262e-01
1570:1.1149533667947022e-01
1571:1.0770400317640022e-01
1572:1.2787974738979044e-01
1573:1.2349369886578106e-01
1574:1.1807618764165441e-01
1575:1.1414073237860395e-01
1576:1.3578466774895004e-01
1577:1.3128384383033009e-01
1578:1.2570475640513704e-01
1579:1.2163537881989772e-01
1580:1.4099695622439695e-01
1581:1.3645678016230553e-01
1582:1.3081299974799704e-01
1583:1.2668325493982691e-01
1584:1.0575638937735649e-01
1585:1.0222534639051181e-01
1586:9.7841423797568494e-02
1587:9.4635862644009819e-02
1588:1.1211510948174394e-01
1589:1.0843902003017215e-01
1590:1.0386929831510504e-01
1591:1.0052400657677420e-01
1592:1.1953487151958919e-01
1593:1.1571793804764981e-01
1594:1.1096528471373401e-01
1595:1.0748054099623772e-01
1596:1.2454685856370301e-01
1597:1.2066030329228948e-01
1598:1.1581350031285302e-01
1599:1.1225420573798518e-01
1600:9.2977488180851442e-02
1601:8.9954690977037149e-02
1602:8.6173365910517302e-02
1603:8.3388381043014506e-02
1604:9.8792076719625366e-02
1605:9.5631955386345724e-02
1606:9.1672047378337396e-02
1607:8.8750086697773858e-02
1608:1.0567448845520436e-01
1609:1.0237361384980770e-01
1610:9.8226049349923530e-02
1611:9.5156872747989354e-02
1612:1.1040754578440322e-01
1613:1.0702751114659831e-01
1614:1.0277065876640794e-01
1615:9.9613188906286426e-02
1616:8.1940475535262305e-02
1617:7.9278559301904458e-02
1618:7.5901219981458032e-02
1619:7.3376435652960828e-02
1620:8.7229017374630735e-02
1621:8.4429905862373283e-02
1622:8.0873609528626961e-02
1623:7.8211458172525519e-02
1624:9.3556141968627743e-02
1625:9.0606650129741520e-02
1626:8.6852322702313273e-02
1627:8.4036644365215407e-02
1628:9.7963894481572333e-02
1629:9.4921675458869981e-02
1630:9.1043175532302595e-02
1631:8.8129589924217488e-02
1632:7.2050237989967209e-02
1633:6.9586001253343910e-02
1634:6.6408049785078832e-02
1635:6.3992694261323063e-02
1636:7.6811879644311867e-02
1637:7.4208898996547687e-02
1638:7.0847296519398653e-02
1639:6.8288748805194963e-02
1640:8.2554473719655089e-02
1641:7.9793951365025484e-02
1642:7.6221223660738940e-02
1643:7.3496256037357308e-02
1644:8.6594150204802517e-02
1645:8.3730879736548969e-02
1646:8.0018393944439339e-02
1647:7.7181854316265328e-02
1648:6.2709546218262149e-02
1649:6.0292114503145137e-02
1650:5.7108225139162166e-02
1651:5.4637728014597937e-02
1652:6.6928272696192198e-02
1653:6.4363088468072885e-02
1654:6.0980745637797859e-02
1655:5.8353458896485501e-02
1656:7.2045339444903309e-02
1657:6.9306565847478643e-02
1658:6.5689576754943121e-02
1659:6.2875769051818270e-02
1660:7.5669864274127932e-02
1661:7.2813168079188764e-02
1662:6.9035426495296301e-02
1663:6.6092811239731430e-02
1664:5.3307261446716610e-02
1665:5.0763405118702247e-02
1666:4.7339772766643223e-02
1667:4.4628085863586110e-02
1668:5.6937616446664889e-02
1669:5.4228886548803833e-02
1670:5.0580288139065038e-02
1671:4.7688194145362864e-02
1672:6.1357959891111320e-02
1673:5.8451542222712136e-02
1674:5.4531791758948713e-02
1675:5.1421287589599178e-02
1676:6.4504230157307357e-02
1677:6.1459982745929141e-02
1678:5.7350070078612668e-02
1679:5.4085637985989657e-02
1680:4.3148314188090960e-02
1681:4.0278335009114603e-02
1682:3.6336804583492539e-02
1683:3.3156578658466190e-02
1684:4.6109241880565754e-02
1685:4.3045793653487562e-02
1686:3.8836586254599424e-02
1687:3.5439035797409986e-02
1688:4.9721962820652305e-02
1689:4.6423292899640430e-02
1690:4.1887893998179791e-02
1691:3.8224982427244064e-02
1692:5.2301245465970779e-02
1693:4.8835999511260018e-02
1694:4.4068976341280833e-02
1695:4.0217191179206614e-02
1696:3.1400980804590591e-02
1697:2.7954382494201555e-02
1698:2.3140686804278596e-02
1699:1.9198240121835981e-02
1700:3.3563054358035777e-02
1701:2.9879670803477573e-02
1702:2.4734576785740290e-02
1703:2.0520302434468906e-02
1704:3.6201839336950078e-02
1705:3.2228791970807399e-02
1706:2.6677973584169287e-02
1707:2.2130727304929036e-02
1708:3.8089163247662983e-02
1709:3.3909510632587583e-02
1710:2.8069073419965420e-02
1711:2.3284013766865411e-02
1712:1.7002087839525271e-02
1713:1.2653249212707310e-02
1714:6.5088236037708150e-03
1715:1.4257480375098528e-03
1716:1.8172639907928806e-02
1717:1.3524071507200478e-02
1718:6.9569285441376987e-03
1719:1.5248234763241286e-03
1720:1.9597439435636646e-02
1721:1.4581781929497068e-02
1722:7.4972445190185696e-03
1723:1.6382047259484618e-03
1724:2.0618126128546081e-02
1725:1.5340343082185404e-02
1726:7.8866010208032342e-03
1727:1.7231140420476546e-03
1728:-2.5389550107652634e+00
1729:-1.2819365798891675e+00
1730:3.4097543504899290e-02
1731:8.0402417162560758e-01
1732:-2.5698057020429399e+00
1733:-1.3926689073472247e+00
1734:-2.1634830054410525e-01
1735:4.3835704505029965e-01
1736:-2.3706206815195068e+00
1737:-1.4679585217057980e+00
1738:-5.8906122382290860e-01
1739:-1.0681237983189612e-01
1740:-2.0957441997670392e+00
1741:-1.4612978439556712e+00
1742:-8.3989393889123876e-01
1743:-4.8942585640517544e-01
1744:1.1332423833890060e+00
1745:1.6135926055298335e+00
1746:1.9774924901816759e+00
1747:2.0588738219408027e+00
1748:7.0992311770612715e-01
1749:1.1083383385303776e+00
1750:1.4131923108972568e+00
1751:1.4796007327895337e+00
1752:9.4923263775604408e-02
1753:3.9958231422750351e-01
1754:6.4972968924203223e-01
1755:7.2200343557567392e-01
1756:-3.3700274468750152e-01
1757:-9.9999789463344160e-02
1758:1.0817342284253222e-01
1759:1.8397832939674996e-01
1760:2.0377247803855534e+00
1761:1.9560583442649571e+00
1762:1.7889546788942665e+00
1763:1.6198044132589988e+00
1764:1.4583519788156378e+00
1765:1.3759709144429118e+00
1766:1.2180145609764512e+00
1767:1.0768229514101801e+00
1768:7.1793475994464140e-01
1769:6.6452819027841470e-01
1770:5.3791012696992635e-01
1771:4.2133507395771241e-01
1772:1.9338493305779517e-01
1773:1.6598917505987637e-01
1774:6.5393510682291170e-02
1775:-4.2013136555045121e-02
1776:1.5180721789583498e+00
1777:1.3303183635235785e+00
1778:1.0930649545569666e+00
1779:9.1395483463353677e-01
1780:1.0004353843742291e+00
1781:8.6219418439329398e-01
1782:6.7055670243647914e-01
1783:4.9428771684390532e-01
1784:3.5960225627112452e-01
1785:2.4525386950432926e-01
1786:6.7914957365889039e-02
1787:-1.1809294038443395e-01
1788:-1.0374584092959395e-01
1789:-2.2092333802541925e-01
1790:-3.9998996981543727e-01
1791:-5.8014835681329058e-01
1792:8.1920385691065289e-01
1793:6.5031217352544124e-01
1794:4.2958835874818191e-01
1795:2.4166643193573828e-01
1796:3.8676820306716597e-01
1797:2.0757152183209762e-01
1798:1.9392824617800175e-02
1799:-9.8802559231373738e-02
1800:-2.3797197703707978e-01
1801:-4.0996562266607967e-01
1802:-5.1447498646233536e-01
1803:-5.0664829519461119e-01
1804:-6.9211966184127272e-01
1805:-8.2967217477134481e-01
1806:-8.5087797349107008e-01
1807:-7.5171343348973141e-01
1808:1.3389356432148755e-01
1809:-5.0737558045310183e-03
1810:-4.3571422938682609e-02
1811:3.8171831023605288e-02
1812:-1.5349127300112525e-01
1813:-2.1029742482905270e-01
1814:-1.8293359167988929e-01
1815:-7.9483277951980860e-02
1816:-4.7486738046601246e-01
1817:-4.0474122948336394e-01
1818:-2.9216456904215976e-01
1819:-1.8135271939439043e-01
1820:-6.6426407754799222e-01
1821:-5.1519985315316019e-01
1822:-3.5471366727369635e-01
1823:-2.4668102617530976e-01
1824:1.1609570444911678e-01
1825:2.3028769858828960e-01
1826:3.1200482543160213e-01
1827:3.3777385461877690e-01
1828:1.7774048772078541e-03
1829:1.2576441650457754e-01
1830:2.2501795538654637e-01
1831:2.6223860971392637e-01
1832:-1.1318726236992817e-01
1833:-3.0605754742325606e-03
1834:1.0103420303080021e-01
1835:1.5317784460903730e-01
1836:-1.9145724251085752e-01
1837:-9.6629160446203108e-02
1838:6.9547629829878792e-03
1839:6.9501922719308218e-02
1840:3.4376172914259712e-01
1841:3.5869079664128806e-01
1842:3.8199359951530570e-01
1843:3.9660543560804218e-01
1844:2.7211831469948028e-01
1845:2.9263847667721721e-01
1846:3.2259428720179129e-01
1847:3.4367314473194216e-01
1848:1.7269920216059120e-01
1849:2.0691241549201841e-01
1850:2.4771019103230618e-01
1851:2.7444781491870301e-01
1852:9.6737594074596645e-02
1853:1.4154230992844041e-01
1854:1.8954079711694380e-01
1855:2.1905331172729250e-01
1856:4.0140899009706471e-01
1857:4.0453125585018529e-01
1858:4.0067560378155470e-01
1859:3.9487373640699414e-01
1860:3.5281750890306118e-01
1861:3.6346548524869737e-01
1862:3.6732699305210342e-01
1863:3.6551647907173684e-01
1864:2.8652312878194158e-01
1865:3.0353328565631521e-01
1866:3.1639973482065270e-01
1867:3.2101104357790516e-01
1868:2.3242277131973810e-01
1869:2.5336376872381683e-01
1870:2.7326263968393549e-01
1871:2.8347262382028543e-01
1872:3.9173769112624562e-01
1873:3.8610218372522270e-01
1874:3.7763127168853949e-01
1875:3.6883139946272975e-01
1876:3.6381333284671746e-01
1877:3.6094705836409913e-01
1878:3.5654733771380615e-01
1879:3.5122030607267385e-01
1880:3.2226771487890599e-01
1881:3.2420197126373551e-01
1882:3.2514554047387406e-01
1883:3.2367185002399596e-01
1884:2.8739240048053638e-01
1885:2.9325033119414806e-01
1886:2.9791410720978773e-01
1887:2.9892805485534901e-01
1888:3.6299375466641604e-01
1889:3.5155434108769279e-01
1890:3.3669441676013101e-01
1891:3.2593075517110082e-01
1892:3.4731669495669176e-01
1893:3.3894521890802587e-01
1894:3.2699725996419438e-01
1895:3.1777897587211495e-01
1896:3.2185424682183245e-01
1897:3.1717055135930278e-01
1898:3.0939847334747900e-01
1899:3.0278815023717809e-01
1900:2.9851522908844430e-01
1901:2.9662590713442150e-01
1902:2.9245205611493469e-01
1903:2.8825184903420664e-01
1904:3.2055913836251015e-01
1905:3.1068421346813413e-01
1906:2.9772376719516186e-01
1907:2.8739675741545140e-01
1908:3.1305319385271363e-01
1909:3.0444334756391739e-01
1910:2.9322804547173170e-01
1911:2.8423265633748501e-01
1912:2.9922510085932325e-01
1913:2.9262175686477171e-01
1914:2.8380350275757965e-01
1915:2.7653914208982860e-01
1916:2.8576346321203144e-01
1917:2.8087444194403149e-01
1918:2.7391769897835194e-01
1919:2.6796767801164256e-01
1920:2.8169426005712861e-01
1921:2.7128296569913013e-01
1922:2.5846694982275975e-01
1923:2.4927858200597802e-01
1924:2.7920650397455132e-01
1925:2.6986281037012932e-01
1926:2.5809335042217829e-01
1927:2.4951185125367584e-01
1928:2.7240993130575436e-01
1929:2.6459510866794489e-01
1930:2.5450100882356091e-01
1931:2.4696621112633343e-01
1932:2.6454705032556752e-01
1933:2.5802259952892620e-01
1934:2.4945385569875708e-01
1935:2.4290806380864025e-01
1936:2.4461130476719636e-01
1937:2.3610734095491756e-01
1938:2.2537787202407308e-01
1939:2.1734545667885546e-01
1940:2.4512350461092830e-01
1941:2.3713519417717172e-01
1942:2.2704880920998410e-01
1943:2.1946096985078431e-01
1944:2.4305808333845921e-01
1945:2.3590572748189564e-01
1946:2.2680569424940447e-01
1947:2.1990072144386563e-01
1948:2.3944894076820225e-01
1949:2.3304863945959403e-01
1950:2.2480455361928162e-01
1951:2.1849565105188451e-01
1952:2.1311797946053815e-01
1953:2.0547424217832785e-01
1954:1.9608169327773212e-01
1955:1.8929952978744830e-01
1956:2.1544508209514460e-01
1957:2.0813960307840723e-01
1958:1.9909197937781517e-01
1959:1.9251930759840966e-01
1960:2.1622374180393936e-01
1961:2.0949037107566748e-01
1962:2.0106895416952694e-01
1963:1.9489241161564902e-01
1964:2.1512457506896429e-01
1965:2.0892658415391113e-01
1966:2.0111626549488842e-01
1967:1.9533484304615734e-01
1968:1.8582290399509432e-01
1969:1.7951455796164928e-01
1970:1.7166254962267841e-01
1971:1.6590002135856113e-01
1972:1.8914098543722252e-01
1973:1.8300265435580959e-01
1974:1.7534071331346274e-01
1975:1.6969502566589745e-01
1976:1.9169895277379603e-01
1977:1.8587777927038041e-01
1978:1.7857614277905440e-01
1979:1.7316671892591826e-01
1980:1.9232517996211701e-01
1981:1.8681773373562985e-01
1982:1.7987505959657490e-01
1983:1.7470836278297627e-01
1984:1.6291252177970322e-01
1985:1.5750638159603414e-01
1986:1.5082895678738217e-01
1987:1.4597425514545606e-01
1988:1.6675848882099889e-01
1989:1.6143132385029837e-01
1990:1.5482930172122805e-01
1991:1.5001489434172147e-01
1992:1.7034230306372961e-01
1993:1.6520092247290818e-01
1994:1.5879654994653031e-01
1995:1.5410246940549516e-01
1996:1.7200345999141106e-01
1997:1.6706565814345611e-01
1998:1.6088677492887585e-01
1999:1.5633588782492974e-01
2000:1.4347281711557244e-01
2001:1.3892822937800911e-01
2002:1.3327063409566339e-01
2003:1.2912391893855366e-01
2004:1.4752984206644543e-01
2005:1.4300741940658393e-01
2006:1.3736185991586020e-01
2007:1.3321134823130448e-01
2008:1.5167165416503306e-01
2009:1.4723715639352047e-01
2010:1.4168052722372143e-01
2011:1.3757893077747568e-01
2012:1.5397151566009751e-01
2013:1.4964898887713374e-01
2014:1.4421559660416289e-01
2015:1.4019181545209897e-01
2016:1.2697627293252667e-01
2017:1.2306654363499521e-01
2018:1.1818600669366942e-01
2019:1.1459828273135611e-01
2020:1.3105719736363727e-01
2021:1.2712973358511356e-01
2022:1.2221622076962724e-01
2023:1.1859606878486023e-01
2024:1.3544427920053873e-01
2025:1.3154312512784777e-01
2026:1.2664511735718670e-01
2027:1.2302331696933777e-01
2028:1.3809300276122385e-01
2029:1.3424903051817114e-01
2030:1.2940698097964434e-01
2031:1.2581476075112213e-01
2032:1.1273556821125086e-01
2033:1.0932333245663768e-01
2034:1.0502046017312662e-01
2035:1.0182478571817326e-01
2036:1.1671364731941813e-01
2037:1.1325990630470865e-01
2038:1.0889423833814142e-01
2039:1.0564404151580199e-01
2040:1.2113554669738624e-01
2041:1.1766465501438599e-01
2042:1.1326309666701158e-01
2043:1.0997523893879577e-01
2044:1.2393841631612273e-01
2045:1.2048256764043674e-01
2046:1.1608849008497474e-01
2047:1.1279713870427646e-01
2048:1.0015416681369246e-01
2049:9.7070710457324183e-02
2050:9.3135961122240971e-02
2051:9.0177232848874966e-02
2052:1.0394221803784386e-01
2053:1.0079703728405269e-01
2054:9.6775558849663532e-02
2055:9.3745468827002826e-02
2056:1.0824984624539694e-01
2057:1.0505462173420059e-01
2058:1.0095674412605322e-01
2059:9.7859734394360132e-02
2060:1.1106665420000988e-01
2061:1.0785619332300829e-01
2062:1.0372775462062911e-01
2063:1.0059950140088333e-01
2064:8.8616955947436155e-02
2065:8.5705331840498111e-02
2066:8.1926287867037206e-02
2067:7.9036082434419064e-02
2068:9.2145374839396971e-02
2069:8.9155410885075573e-02
2070:8.5267003693877616e-02
2071:8.2287500413061099e-02
2072:9.6221062290981235e-02
2073:9.3153328546477898e-02
2074:8.9152880890152705e-02
2075:8.6079367201981907e-02
2076:9.8941533269102461e-02
2077:9.5832970736180995e-02
2078:9.1770185939041946e-02
2079:8.8641888104611391e-02
2080:7.7494549968933735e-02
2081:7.4580515606011394e-02
2082:7.0724036366318133e-02
2083:6.7717902833654711e-02
2084:8.0696429810122289e-02
2085:7.7685536592734236e-02
2086:7.3694746051371995e-02
2087:7.0579363042258245e-02
2088:8.4435290342748437e-02
2089:8.1319208064887877e-02
2090:7.7179760444162748e-02
2091:7.3941563347483252e-02
2092:8.6966108925973271e-02
2093:8.3785696520753197e-02
2094:7.9552824209249806e-02
2095:7.6235774832466727e-02
2096:6.6094277245874633e-02
2097:6.2981546541401728e-02
2098:5.8776734267243599e-02
2099:5.5435204898485892e-02
2100:6.8895178060487658e-02
2101:6.5663665961146464e-02
2102:6.1293447722405602e-02
2103:5.7816962905774892e-02
2104:7.2188709720604927e-02
2105:6.8821586892625214e-02
2106:6.4260816849903979e-02
2107:6.0627632068863568e-02
2108:7.4438321003389638e-02
2109:7.0982305180888633e-02
2110:6.6295126245948771e-02
2111:6.2556920523646725e-02
2112:5.3608117740813990e-02
2113:5.0059133379056049e-02
2114:4.5175424268777707e-02
2115:4.1228315499302330e-02
2116:5.5914950121901251e-02
2117:5.2218702179846234e-02
2118:4.7129243044995849e-02
2119:4.3013689656247814e-02
2120:5.8638216898778198e-02
2121:5.4769538869905952e-02
2122:4.9438045255404378e-02
2123:4.5123600827053238e-02
2124:6.0508579222377165e-02
2125:5.6523109580853409e-02
2126:5.1026744073565472e-02
2127:4.6576203328021697e-02
2128:3.9047298001980195e-02
2129:3.4763209513499538e-02
2130:2.8776293802359802e-02
2131:2.3870913207406041e-02
2132:4.0738927810113124e-02
2133:3.6269976834088766e-02
2134:3.0023621096897102e-02
2135:2.4905036240237950e-02
2136:4.2737932230159779e-02
2137:3.8050058918083295e-02
2138:3.1496131037630937e-02
2139:2.6124586883114038e-02
2140:4.4114464014172759e-02
2141:3.9276249423882532e-02
2142:3.2510817895331105e-02
2143:2.6965152464936838e-02
2144:2.1137929306602545e-02
2145:1.5727545671610499e-02
2146:8.0871254298112618e-03
2147:1.7697787653595202e-03
2148:2.2053139558808221e-02
2149:1.6407812794629280e-02
2150:8.4368042910355247e-03
2151:1.8471431142796327e-03
2152:2.3131559520888276e-02
2153:1.7207526338526236e-02
2154:8.8447206338981531e-03
2155:1.9326621004183060e-03
2156:2.3874941123667334e-02
2157:1.7759109672793184e-02
2158:9.1270094918481787e-03
2159:1.9936528128474029e-03
2160:-1.9240145481975282e+00
2161:-1.4298536514890172e+00
2162:-9.3811104379556731e-01
2163:-6.5279654441830914e-01
2164:-1.5706747774582210e+00
2165:-1.2971409756872592e+00
2166:-1.0157334526700146e+00
2167:-8.4396911346871850e-01
2168:-1.0916166779613568e+00
2169:-1.0312408271863203e+00
2170:-9.6628277090389991e-01
2171:-9.2529871961017707e-01
2172:-7.5051450594919822e-01
2173:-8.0902827511033992e-01
2174:-8.7311594706837337e-01
2175:-9.1791554854662616e-01
2176:-5.2535620805133920e-01
2177:-3.2510962207371735e-01
2178:-1.4513017774714679e-01
2179:-7.4563513867490189e-02
2180:-7.6422735141197939e-01
2181:-6.4123852782731661e-01
2182:-5.3653807495270567e-01
2183:-5.0088082869184936e-01
2184:-9.0686166800217249e-01
2185:-8.9203785972256100e-01
2186:-9.1014007784791573e-01
2187:-9.4875920372553857e-01
2188:-9.4272286325556665e-01
2189:-1.0069355000180100e+00
2190:-1.1182403280364144e+00
2191:-1.2150262480112726e+00
2192:-6.2168738680840246e-02
2193:-8.0923349842283734e-02
2194:-1.7162567948175375e-01
2195:-2.7786157153069929e-01
2196:-4.9831422905716538e-01
2197:-5.2512848989505434e-01
2198:-6.1733661548508001e-01
2199:-7.2723195411346875e-01
2200:-9.7676795717131326e-01
2201:-1.0406896837006159e+00
2202:-1.1514881449650987e+00
2203:-1.2625737875242447e+00
2204:-1.2672989324116586e+00
2205:-1.3581419698294575e+00
2206:-1.4725138891918872e+00
2207:-1.5677685874637401e+00
2208:-3.4247339567804608e-01
2209:-4.6471533127453418e-01
2210:-6.4104999959849762e-01
2211:-8.0532714716791909e-01
2212:-7.9659299997337418e-01
2213:-9.1668604447835322e-01
2214:-1.0540496188748898e+00
2215:-1.1506340738578620e+00
2216:-1.3298108487638554e+00
2217:-1.4224110227101512e+00
2218:-1.4664697463986620e+00
2219:-1.4408012113248800e+00
2220:-1.6214137999067053e+00
2221:-1.6754487137054106e+00
2222:-1.6424199708339609e+00
2223:-1.5369526797536037e+00
2224:-9.0242218292347043e-01
2225:-1.0073824072701230e+00
2226:-9.8159234855857957e-01
2227:-8.4571640537359316e-01
2228:-1.1973781493615250e+00
2229:-1.2179350744658430e+00
2230:-1.1127449953603539e+00
2231:-9.4230109773770687e-01
2232:-1.4062036190945373e+00
2233:-1.3096978433214193e+00
2234:-1.1330514880698452e+00
2235:-9.6785801073675914e-01
2236:-1.4547066647727340e+00
2237:-1.2984619652324541e+00
2238:-1.1036006892007713e+00
2239:-9.6399305437597227e-01
2240:-7.3969161990967047e-01
2241:-5.6531489891163778e-01
2242:-3.9059820245360699e-01
2243:-2.8474618359184689e-01
2244:-8.2732640734264251e-01
2245:-6.4251097480713226e-01
2246:-4.6363928001953791e-01
2247:-3.6135807070942821e-01
2248:-8.7387716233099910e-01
2249:-7.2014579711180005e-01
2250:-5.6065411788223385e-01
2251:-4.6057573912738620e-01
2252:-8.9398214425785361e-01
2253:-7.7217027964516372e-01
2254:-6.2861518798587934e-01
2255:-5.2703194546857168e-01
2256:-2.3432347023743660e-01
2257:-1.4465330874576285e-01
2258:-4.0078009446185461e-02
2259:2.7275887139824827e-02
2260:-3.1464843026919648e-01
2261:-2.2790169330794929e-01
2262:-1.1981838777236517e-01
2263:-4.6170857554995129e-02
2264:-4.1192620305483901e-01
2265:-3.2166889536132470e-01
2266:-2.0978969777896103e-01
2267:-1.3331743108700378e-01
2268:-4.7493701960343382e-01
2269:-3.8154902568872229e-01
2270:-2.7061502752672778e-01
2271:-1.9592324404815181e-01
2272:5.7776586622540441e-02
2273:1.0685471693135171e-01
2274:1.5756475213209320e-01
2275:1.8823118200217401e-01
2276:-1.1795720744347095e-02
2277:4.2632921612857574e-02
2278:9.7628341332129123e-02
2279:1.3100689800799520e-01
2280:-9.7308835078553563e-02
2281:-3.9402803436094758e-02
2282:2.0956790793011850e-02
2283:5.9085928806648043e-02
2284:-1.6034419653254695e-01
2285:-1.0100140099744226e-01
2286:-3.5800078559887878e-02
2287:6.8286165887995118e-03
2288:2.0230496759728417e-01
2289:2.2548859372877861e-01
2290:2.4938208999991462e-01
2291:2.6268097848603644e-01
2292:1.4679522405810780e-01
2293:1.7425188892779397e-01
2294:2.0478822958267429e-01
2295:2.2300317386597779e-01
2296:7.7614501001917691e-02
2297:1.1021961433641737e-01
2298:1.4721450083837292e-01
2299:1.7000031413716388e-01
2300:2.7566190792657187e-02
2301:6.3378662633317304e-02
2302:1.0342097135019360e-01
2303:1.2838710754128993e-01
2304:2.6801057256617605e-01
2305:2.7584594854533367e-01
2306:2.8227247273542577e-01
2307:2.8448835069774853e-01
2308:2.3058794571776978e-01
2309:2.4180415413230461e-01
2310:2.5164165722289555e-01
2311:2.5632937554738860e-01
2312:1.7983658434036504e-01
2313:1.9500889005874711e-01
2314:2.0970209257933387e-01
2315:2.1806374237305487e-01
2316:1.3954476565589866e-01
2317:1.5757742687076778e-01
2318:1.7637771523880716e-01
2319:1.8783701090060712e-01
2320:2.8480339827866091e-01
2321:2.8444762082026903e-01
2322:2.8233692369535179e-01
2323:2.7953273913527521e-01
2324:2.5808922766082143e-01
2325:2.6059480969189192e-01
2326:2.6214355993289901e-01
2327:2.6178250845483303e-01
2328:2.2180770027956703e-01
2329:2.2787946984563356e-01
2330:2.3363214928378764e-01
2331:2.3606376319412004e-01
2332:1.9310766302853269e-01
2333:2.0168511445228990e-01
2334:2.1017553037076495e-01
2335:2.1447238038732158e-01
2336:2.7765646940610156e-01
2337:2.7371137966042458e-01
2338:2.6774191906821365e-01
2339:2.6249204989275299e-01
2340:2.6099632809578993e-01
2341:2.5880901813612495e-01
2342:2.5479457982500758e-01
2343:2.5096345216128962e-01
2344:2.3659637222053087e-01
2345:2.3671250524749274e-01
2346:2.3548385531104934e-01
2347:2.3369746489242316e-01
2348:2.1597050454823857e-01
2349:2.1790408294746605e-01
2350:2.1899855150960698e-01
2351:2.1889548495685257e-01
2352:2.5946100446745424e-01
2353:2.5366873580205684e-01
2354:2.4599212218714653e-01
2355:2.4003109328259123e-01
2356:2.4870851315455020e-01
2357:2.4433596646569075e-01
2358:2.3834639763109433e-01
2359:2.3348531221070412e-01
2360:2.3251718833388826e-01
2361:2.3003434475243717e-01
2362:2.2621931439804527e-01
2363:2.2278457927692014e-01
2364:2.1855758826197055e-01
2365:2.1751015021493933e-01
2366:2.1531889983626501e-01
2367:2.1297774318098184e-01
2368:2.3683534130062989e-01
2369:2.3086949515757393e-01
2370:2.2311369820251201e-01
2371:2.1714729254225801e-01
2372:2.3079137266764579e-01
2373:2.2567419720245191e-01
2374:2.1890300777530194e-01
2375:2.1363819233315645e-01
2376:2.2076474537157123e-01
2377:2.1682988656861898e-01
2378:2.1148041560622841e-01
2379:2.0723552582522409e-01
2380:2.1150065694278875e-01
2381:2.0854370130430389e-01
2382:2.0438974216988945e-01
2383:2.0099368138959037e-01
2384:2.1395513673823952e-01
2385:2.0807520933713117e-01
2386:2.0063414342981042e-01
2387:1.9509354353138875e-01
2388:2.1081151683663962e-01
2389:2.0557530934927440e-01
2390:1.9887518295757348e-01
2391:1.9381802276704002e-01
2392:2.0493236866415573e-01
2393:2.0060775447562398e-01
2394:1.9495089525728571e-01
2395:1.9058193689758063e-01
2396:1.9911646108793807e-01
2397:1.9552909928478632e-01
2398:1.9072023787850179e-01
2399:1.8692342469065082e-01
2400:1.9219580284710150e-01
2401:1.8687920958772267e-01
2402:1.8015588454624890e-01
2403:1.7513951673932773e-01
2404:1.9114678628853365e-01
2405:1.8622144219791456e-01
2406:1.7995594792156361e-01
2407:1.7525786546894498e-01
2408:1.8823975113099090e-01
2409:1.8389140787513111e-01
2410:1.7831203934586234e-01
2411:1.7409480933399488e-01
2412:1.8486211047774531e-01
2413:1.8101058760947616e-01
2414:1.7602448192862000e-01
2415:1.7222145545405806e-01
2416:1.7250971308414628e-01
2417:1.6770119169716136e-01
2418:1.6166768993799679e-01
2419:1.5721058712129996e-01
2420:1.7278799190939886e-01
2421:1.6825538629042935e-01
2422:1.6253376473458908e-01
2423:1.5827969723771423e-01
2424:1.7186652711023062e-01
2425:1.6775219753383572e-01
2426:1.6250814586851586e-01
2427:1.5857018779020327e-01
2428:1.7019987278508841e-01
2429:1.6644512996554164e-01
2430:1.6161712429380218e-01
2431:1.5796002059216413e-01
2432:1.5489020312801216e-01
2433:1.5064272998259309e-01
2434:1.4529399561485096e-01
2435:1.4132555795001681e-01
2436:1.5605543081320181e-01
2437:1.5197358021115387e-01
2438:1.4681495125314040e-01
2439:1.4297356339036885e-01
2440:1.5649789218010124e-01
2441:1.5268030766740751e-01
2442:1.4782930493936236e-01
2443:1.4419698213155868e-01
2444:1.5602498333119033e-01
2445:1.5244721915752499e-01
2446:1.4787687476841965e-01
2447:1.4443640762877688e-01
2448:1.3925302583213381e-01
2449:1.3545229314518289e-01
2450:1.3065535783786097e-01
2451:1.2708967176998454e-01
2452:1.4096244579340031e-01
2453:1.3726465299678028e-01
2454:1.3257892043079653e-01
2455:1.2908188035659773e-01
2456:1.4228827313871997e-01
2457:1.3876524344436419e-01
2458:1.3427462951870606e-01
2459:1.3090327327130258e-01
2460:1.4262213772570254e-01
2461:1.3926226330631034e-01
2462:1.3495800002605199e-01
2463:1.3171009095583527e-01
2464:1.2522485809837391e-01
2465:1.2178689219289580e-01
2466:1.1740901940012997e-01
2467:1.1412465316326277e-01
2468:1.2724822447257386e-01
2469:1.2386093167972838e-01
2470:1.1953454704392083e-01
2471:1.1627864214904231e-01
2472:1.2912869249733019e-01
2473:1.2584054322788946e-01
2474:1.2162177920557800e-01
2475:1.1843231946508917e-01
2476:1.2999480114976641e-01
2477:1.2680770463511806e-01
2478:1.2270191336255269e-01
2479:1.1958531439561082e-01
2480:1.1239597846668754e-01
2481:1.0918548616033659e-01
2482:1.0505060684684576e-01
2483:1.0191278799390781e-01
2484:1.1456130571579987e-01
2485:1.1136519642535238e-01
2486:1.0723613571266367e-01
2487:1.0409334784378993e-01
2488:1.1674490712947265e-01
2489:1.1359518431567994e-01
2490:1.0950816759946883e-01
2491:1.0638400752283325e-01
2492:1.1793210980234133e-01
2493:1.1483857258244101e-01
2494:1.1080965761970174e-01
2495:1.0771874758957309e-01
2496:1.0024817572909511e-01
2497:9.7124503181965485e-02
2498:9.3036824606075430e-02
2499:8.9885441525362222e-02
2500:1.0242291995446487e-01
2501:9.9282966447792442e-02
2502:9.5163631959306591e-02
2503:9.1980022411089699e-02
2504:1.0471889491946759e-01
2505:1.0158111128921889e-01
2506:9.7449670797316104e-02
2507:9.4245543249954308e-02
2508:1.0606749579436393e-01
2509:1.0294914358063575e-01
2510:9.8830592160711717e-02
2511:9.5627093570406427e-02
2512:8.8195927329256657e-02
2513:8.4987015588303946e-02
2514:8.0711665767656551e-02
2515:7.7358057790121337e-02
2516:9.0270516303288348e-02
2517:8.7018815819890030e-02
2518:8.2677416963484240e-02
2519:7.9265466446924851e-02
2520:9.2521188376517183e-02
2521:8.9234472720092384e-02
2522:8.4833557519381264e-02
2523:8.1365546984588380e-02
2524:9.3899897224806114e-02
2525:9.0602179835314808e-02
2526:8.6175968701790159e-02
2527:8.2680309777256059e-02
2528:7.5539712468359527e-02
2529:7.2041715605483517e-02
2530:6.7294213224893304e-02
2531:6.3505452814327928e-02
2532:7.7413319017474835e-02
2533:7.3846648802664949e-02
2534:6.8999144301098214e-02
2535:6.5125689892398433e-02
2536:7.9479866794158083e-02
2537:7.5843384918479070e-02
2538:7.0891280337603932e-02
2539:6.6927303253680029e-02
2540:8.0777009562729027e-02
2541:7.7102166814068687e-02
2542:7.2089730067791860e-02
2543:6.8071715701893479e-02
2544:6.1428605162440121e-02
2545:5.7386423335340817e-02
2546:5.1809632451911218e-02
2547:4.7292463719568099e-02
2548:6.3000813149549376e-02
2549:5.8862678835233037e-02
2550:5.3149110652951560e-02
2551:4.8518153792833411e-02
2552:6.4750505219630439e-02
2553:6.0507779364499636e-02
2554:5.4643603198109611e-02
2555:4.9886329369906779e-02
2556:6.5863381617549982e-02
2557:6.1556334065736067e-02
2558:5.5598151371487436e-02
2559:5.0761107665288165e-02
2560:4.4793412594500308e-02
2561:3.9881384211578143e-02
2562:3.3011996050692542e-02
2563:2.7380679030764053e-02
2564:4.5955236438887208e-02
2565:4.0916705808659921e-02
2566:3.3868921556117822e-02
2567:2.8090487393474049e-02
2568:4.7252202992498445e-02
2569:4.2072293574576307e-02
2570:3.4824637202628947e-02
2571:2.8881095997375601e-02
2572:4.8081733750147099e-02
2573:4.2811695474719969e-02
2574:3.5436183906726253e-02
2575:2.9386782211202445e-02
2576:2.4242646990271954e-02
2577:1.8032489784014435e-02
2578:9.2680874182016863e-03
2579:2.0261289484961508e-03
2580:2.4870291323714541e-02
2581:1.8498177614612771e-02
2582:9.5068923254860143e-03
2583:2.0789311511066719e-03
2584:2.5568634764109720e-02
2585:1.9014879352237429e-02
2586:9.7697032925847214e-03
2587:2.1340835992706541e-03
2588:2.6015116915733012e-02
2589:1.9344995178409981e-02
2590:9.9376481292692709e-03
2591:2.1698029826110678e-03
2592:-5.9011876881839431e-01
2593:-7.0032703558068732e-01
2594:-8.2247682016674695e-01
2595:-9.0733293260977377e-01
2596:-3.4081328150163070e-01
2597:-5.3241736012826024e-01
2598:-7.4542001263023627e-01
2599:-8.9088711313323943e-01
2600:-1.1611252174787555e-01
2601:-3.7675480450124432e-01
2602:-6.6738127795855751e-01
2603:-8.6148314928203262e-01
2604:-1.9606009823192661e-02
2605:-2.9780188213669301e-01
2606:-6.1138023423993504e-01
2607:-8.1835485830626065e-01
2608:-9.5274481652686449e-01
2609:-1.0543188760945421e+00
2610:-1.2082619823812768e+00
2611:-1.3297866109876888e+00
2612:-9.6615888498171110e-01
2613:-1.1179962269614081e+00
2614:-1.3225135352089272e+00
2615:-1.4681592666799961e+00
2616:-9.5821854704769205e-01
2617:-1.1384498365739104e+00
2618:-1.3586260659707985e+00
2619:-1.5023300204956329e+00
2620:-9.1861962483040449e-01
2621:-1.0954979303612451e+00
2622:-1.2984661451884063e+00
2623:-1.4260391437742210e+00
2624:-1.3913088167043135e+00
2625:-1.4893598288660810e+00
2626:-1.5951836081623336e+00
2627:-1.6723799439809248e+00
2628:-1.5362699113417762e+00
2629:-1.6321924034094777e+00
2630:-1.7081684421066785e+00
2631:-1.7434257461377820e+00
2632:-1.5652231665736807e+00
2633:-1.6438558898604385e+00
2634:-1.6793261598099898e+00
2635:-1.6667567534078886e+00
2636:-1.4814796629586677e+00
2637:-1.5505781640297600e+00
2638:-1.5758215874955561e+00
2639:-1.5507862190779125e+00
2640:-1.7132016106325663e+00
2641:-1.7415846690810208e+00
2642:-1.6743213537794195e+00
2643:-1.5434793808645213e+00
2644:-1.7566156777876620e+00
2645:-1.7413290182885715e+00
2646:-1.6390133931040143e+00
2647:-1.5002024892076864e+00
2648:-1.6493380585023629e+00
2649:-1.5974279717871134e+00
2650:-1.4953724694602550e+00
2651:-1.3943440091759756e+00
2652:-1.5242588633220242e+00
2653:-1.4681523439841981e+00
2654:-1.3888278775978007e+00
2655:-1.3259127010333549e+00
2656:-1.4490207640976303e+00
2657:-1.2817986669878123e+00
2658:-1.0930484179461644e+00
2659:-9.6917458010785273e-01
2660:-1.4085881641613951e+00
2661:-1.2550797606025490e+00
2662:-1.0934821701237893e+00
2663:-9.9178918632594781e-01
2664:-1.3346868525614295e+00
2665:-1.2325678704699092e+00
2666:-1.1141420636148891e+00
2667:-1.0266060538155328e+00
2668:-1.2922380949965804e+00
2669:-1.2256284747858748e+00
2670:-1.1276957497808997e+00
2671:-1.0408238521720372e+00
2672:-9.0948093514339057e-01
2673:-7.9978370117898745e-01
2674:-6.6012340377103018e-01
2675:-5.5650071101573773e-01
2676:-9.4239102571641520e-01
2677:-8.4377711314759474e-01
2678:-7.0711381882391899e-01
2679:-6.0224763976787710e-01
2680:-9.7845325763027879e-01
2681:-8.8117771813776091e-01
2682:-7.4779347239817717e-01
2683:-6.4777834618251240e-01
2684:-9.8973370840671171e-01
2685:-8.9202448904651832e-01
2686:-7.6648588249626493e-01
2687:-6.7546797333995190e-01
2688:-5.0292471998377664e-01
2689:-4.0923411071310789e-01
2690:-3.0092162663897454e-01
2691:-2.2835251197840323e-01
2692:-5.4840674142219836e-01
2693:-4.5693313455239892e-01
2694:-3.5398219757223626e-01
2695:-2.8454937623116716e-01
2696:-5.9755609377132402e-01
2697:-5.1234610176789619e-01
2698:-4.1519855390518523e-01
2699:-3.4766494506085865e-01
2700:-6.2991606436874226e-01
2701:-5.5028353748363046e-01
2702:-4.5554700655238922e-01
2703:-3.8787330580225626e-01
2704:-1.9327034697330950e-01
2705:-1.3317584156839418e-01
2706:-6.4992792888648121e-02
2707:-1.9781747467076376e-02
2708:-2.4994966020756892e-01
2709:-1.8852546242992266e-01
2710:-1.1611972659046893e-01
2711:-6.7440143079485051e-02
2712:-3.1301655039368925e-01
2713:-2.5059305264328691e-01
2714:-1.7600620161595795e-01
2715:-1.2559512708353199e-01
2716:-3.5300814330107311e-01
2717:-2.9085702644243749e-01
2718:-2.1729860315201130e-01
2719:-1.6745601075807867e-01
2720:2.0608514735211232e-03
2721:3.9201899727016404e-02
2722:8.0197431751853065e-02
2723:1.0593500776989014e-01
2724:-4.4162870922660163e-02
2725:-5.1812607167367993e-03
2726:3.7514466928892633e-02
2727:6.4879302428676469e-02
2728:-1.0153659065721590e-01
2729:-6.1051237958071013e-02
2730:-1.5919576169835692e-02
2731:1.3969185684691446e-02
2732:-1.4339405493411247e-01
2733:-1.0211196139192306e-01
2734:-5.4813537177568268e-02
2735:-2.2811581333216747e-02
2736:1.1770496634136376e-01
2737:1.3724918075576728e-01
2738:1.5835705588600091e-01
2739:1.7151621782526749e-01
2740:7.7871276255100083e-02
2741:1.0014057770056212e-01
2742:1.2509208411058628e-01
2743:1.4097071621655438e-01
2744:2.8597458318241144e-02
2745:5.3983994924542401e-02
2746:8.2797103558115759e-02
2747:1.0130670227803112e-01
2748:-7.0355022762545365e-03
2749:2.0220977805535289e-02
2750:5.1063479239061703e-02
2751:7.0998830490387160e-02
2752:1.7757141116153036e-01
2753:1.8737043028552641e-01
2754:1.9714761827979571e-01
2755:2.0236087083828797e-01
2756:1.4826837961321526e-01
2757:1.6009718245518223e-01
2758:1.7220834455043071e-01
2759:1.7919653786549841e-01
2760:1.0985225861749551e-01
2761:1.2395859891935153e-01
2762:1.3906141302147743e-01
2763:1.4844486955667799e-01
2764:8.0319254551732056e-02
2765:9.6028685457274290e-02
2766:1.1343310824506386e-01
2767:1.2464783878307921e-01
2768:2.0437067896624708e-01
2769:2.0730250549583856e-01
2770:2.0969293821619586e-01
2771:2.1050943774832279e-01
2772:1.8220802036141179e-01
2773:1.8702374439048089e-01
2774:1.9175236915741162e-01
2775:1.9417704460859103e-01
2776:1.5278251349594868e-01
2777:1.5996851971670528e-01
2778:1.6748274777720357e-01
2779:1.7178116069387245e-01
2780:1.2995022823971175e-01
2781:1.3879370899470561e-01
2782:1.4820275663513541e-01
2783:1.5380050154377092e-01
2784:2.1061523736453927e-01
2785:2.1031341189737046e-01
2786:2.0896690236851978e-01
2787:2.0721241233331558e-01
2788:1.9505045124057582e-01
2789:1.9607294383741869e-01
2790:1.9629611480128659e-01
2791:1.9567531438839644e-01
2792:1.7355889480711525e-01
2793:1.7621126144215274e-01
2794:1.7847613629530398e-01
2795:1.7937693503189084e-01
2796:1.5623506802894338e-01
2797:1.6011343866833130e-01
2798:1.6395564848777869e-01
2799:1.6602982870256669e-01
2800:2.0603744032265775e-01
2801:2.0363030825231662e-01
2802:2.0014824492429584e-01
2803:1.9722204484315514e-01
2804:1.9509335519156543e-01
2805:1.9374962885609898e-01
2806:1.9153736320019646e-01
2807:1.8948227535110607e-01
2808:1.7959295843789960e-01
2809:1.7965510538721033e-01
2810:1.7908588963778901e-01
2811:1.7814656764390432e-01
2812:1.6685071410655253e-01
2813:1.6796815117122521e-01
2814:1.6862919497424758e-01
2815:1.6853701356286621e-01
2816:1.9557628335740054e-01
2817:1.9238949964545843e-01
2818:1.8804613093050301e-01
2819:1.8457008645749926e-01
2820:1.8826212402453693e-01
2821:1.8582209279929512e-01
2822:1.8236775087641771e-01
2823:1.7951886879317763e-01
2824:1.7747321340378397e-01
2825:1.7601019172971732e-01
2826:1.7374882865345331e-01
2827:1.7175752965663799e-01
2828:1.6828724216676896e-01
2829:1.6758991864403772e-01
2830:1.6627220135147175e-01
2831:1.6495959941480115e-01
2832:1.8266934946569569e-01
2833:1.7910251115876374e-01
2834:1.7445538066415972e-01
2835:1.7088722598301423e-01
2836:1.7793603769808344e-01
2837:1.7493015750690613e-01
2838:1.7094479377461649e-01
2839:1.6783123685129686e-01
2840:1.7061233723771566e-01
2841:1.6837548291162954e-01
2842:1.6529235460162925e-01
2843:1.6279733930239287e-01
2844:1.6415909723513136e-01
2845:1.6252785399450817e-01
2846:1.6015838509394537e-01
2847:1.5815753890869771e-01
2848:1.6898201391726231e-01
2849:1.6543056911724296e-01
2850:1.6084033930593836e-01
2851:1.5734611922939962e-01
2852:1.6615034720043045e-01
2853:1.6299361601488746e-01
2854:1.5887123185359867e-01
2855:1.5570211986781504e-01
2856:1.6142223857903681e-01
2857:1.5880799505945267e-01
2858:1.5533690386119361e-01
2859:1.5262591422258215e-01
2860:1.5702917425515664e-01
2861:1.5485472041055651e-01
2862:1.5191411648016115e-01
2863:1.4957729832101183e-01
2864:1.5549159073765936e-01
2865:1.5205470669838325e-01
2866:1.4764929661589418e-01
2867:1.4432159219756405e-01
2868:1.5400975036557660e-01
2869:1.5085677478905746e-01
2870:1.4678357376403725e-01
2871:1.4368290077916324e-01
2872:1.5116364259837781e-01
2873:1.4841429745372398e-01
2874:1.4481474806923450e-01
2875:1.4203906594278157e-01
2876:1.4830309367230740e-01
2877:1.4588470023860484e-01
2878:1.4267606538258981e-01
2879:1.4017089307820851e-01
2880:1.4256285620542550e-01
2881:1.3929955264686938e-01
2882:1.3510695992275112e-01
2883:1.3193413460512490e-01
2884:1.4203600753773435e-01
2885:1.3896821906696968e-01
2886:1.3500399039761046e-01
2887:1.3198658867535479e-01
2888:1.4055285376390123e-01
2889:1.3776756855432393e-01
2890:1.3413663809136392e-01
2891:1.3134877950351501e-01
2892:1.3881931109520407e-01
2893:1.3627161257923773e-01
2894:1.3292254689528238e-01
2895:1.3033003036477672e-01
2896:1.3025530877255376e-01
2897:1.2713076286549946e-01
2898:1.2309570862720851e-01
2899:1.2002547076586650e-01
2900:1.3038393661670480e-01
2901:1.2739081240904582e-01
2902:1.2350576490610640e-01
2903:1.2053496823587981e-01
2904:1.2985962650874180e-01
2905:1.2706374525405378e-01
2906:1.2340656981259596e-01
2907:1.2058904014857212e-01
2908:1.2893792391696249e-01
2909:1.2631172788831060e-01
2910:1.2285269063947001e-01
2911:1.2017013117344834e-01
2912:1.1839435131428755e-01
2913:1.1533782894999718e-01
2914:1.1134879363912298e-01
2915:1.0828218067917481e-01
2916:1.1895166018526276e-01
2917:1.1597627148408651e-01
2918:1.1207685338657433e-01
2919:1.0906686304616944e-01
2920:1.1908026199348001e-01
2921:1.1623297376740045e-01
2922:1.1247855723534053e-01
2923:1.0956333894932112e-01
2924:1.1872761907010874e-01
2925:1.1599522851471548e-01
2926:1.1237295334328953e-01
2927:1.0954593399419724e-01
2928:1.0664172349517728e-01
2929:1.0353992378793832e-01
2930:9.9435985327052889e-02
2931:9.6238542072383360e-02
2932:1.0745244363451843e-01
2933:1.0439234847891014e-01
2934:1.0032932159596103e-01
2935:9.7153289592022907e-02
2936:1.0799383657130027e-01
2937:1.0500836629910562e-01
2938:1.0102446132337713e-01
2939:9.7895625331373859e-02
2940:1.0801898768601413e-01
2941:1.0510575959461950e-01
2942:1.0120174334727731e-01
2943:9.8123544146162062e-02
2944:9.4512819656337343e-02
2945:9.1214785978127322e-02
2946:8.6782224830225269e-02
2947:8.3277219041493197e-02
2948:9.5435592428623331e-02
2949:9.2146736105337024e-02
2950:8.7714870347354632e-02
2951:8.4201923662452938e-02
2952:9.6198504584163402e-02
2953:9.2940408696241747e-02
2954:8.8533724074068343e-02
2955:8.5028919828261565e-02
2956:9.6449804786747431e-02
2957:9.3229444186998175e-02
2958:8.8860370399266059e-02
2959:8.5375778044075548e-02
2960:8.1367375652729210e-02
2961:7.7677434215800811e-02
2962:7.2639861108726181e-02
2963:6.8598485873207202e-02
2964:8.2284908843441543e-02
2965:7.8576291519050281e-02
2966:7.3504335049807024e-02
2967:6.9429087080327717e-02
2968:8.3112405102431577e-02
2969:7.9398083641543521e-02
2970:7.4306015744465728e-02
2971:7.0205887411456044e-02
2972:8.3467094248077717e-02
2973:7.9762511419596838e-02
2974:7.4673760209892595e-02
2975:7.0569194259206020e-02
2976:6.6376275000507398e-02
2977:6.2040570998874119e-02
2978:5.6039898984109875e-02
2979:5.1166401389531248e-02
2980:6.7186217106266252e-02
2981:6.2807081933586320e-02
2982:5.6740717507707948e-02
2983:5.1810029381810944e-02
2984:6.7946500349426467e-02
2985:6.3530772189005963e-02
2986:5.7405965195242652e-02
2987:5.2422461294322140e-02
2988:6.8305059683260907e-02
2989:6.3876507638395114e-02
2990:5.7727599861257958e-02
2991:5.2720170184914365e-02
2992:4.8466231295824745e-02
2993:4.3154645995807407e-02
2994:3.5720014926895589e-02
2995:2.9621562910098667e-02
2996:4.9076993184976977e-02
2997:4.3699510135828387e-02
2998:3.6170758550518628e-02
2999:2.9994016926666735e-02
3000:4.9658521159543369e-02
3001:4.4218526951834418e-02
3002:3.6599680062060304e-02
3003:3.0347534951258331e-02
3004:4.9941641368026451e-02
3005:4.4471555536328131e-02
3006:3.6808479515952529e-02
3007:3.0518832213220232e-02
3008:2.6222445961397816e-02
3009:1.9498443715101042e-02
3010:1.0016203633154549e-02
3011:2.1874657642671960e-03
3012:2.6551044536489741e-02
3013:1.9741125923152178e-02
3014:1.0139879653880818e-02
3015:2.2147473597933232e-03
3016:2.6862231034057084e-02
3017:1.9969740597638341e-02
3018:1.0255059170745741e-02
3019:2.2388741488438904e-03
3020:2.7012376692848752e-02
3021:2.0078988935766467e-02
3022:1.0309076813586381e-02
3023:2.2494110516967526e-03
3024:5.3947956122574834e-03
3025:-2.6777599211725006e-01
3026:-5.7923109660342265e-01
3027:-7.8432747551210069e-01
3028:9.8936823869718235e-03
3029:-2.3338203786019612e-01
3030:-5.1953743013213094e-01
3031:-7.1063649162997689e-01
3032:-3.1263439235709088e-02
3033:-2.1795291448589638e-01
3034:-4.5096031505553280e-01
3035:-6.1470250556418005e-01
3036:-6.6020005047381092e-02
3037:-2.1562684853411287e-01
3038:-4.1163028306257227e-01
3039:-5.5705191318019809e-01
3040:-8.8226779642414410e-01
3041:-1.0500775830573652e+00
3042:-1.2371248214466846e+00
3043:-1.3545039244813117e+00
3044:-8.0121983991407653e-01
3045:-9.5080550555275078e-01
3046:-1.1119662705420494e+00
3047:-1.2147733327702883e+00
3048:-6.9439603831846597e-01
3049:-8.2487993309063590e-01
3050:-9.6524789607397410e-01
3051:-1.0577026557076157e+00
3052:-6.3080581093435351e-01
3053:-7.5459712283207347e-01
3054:-8.9098668928659508e-01
3055:-9.8085872388505024e-01
3056:-1.4068486097373796e+00
3057:-1.4761678055190728e+00
3058:-1.5088541470673531e+00
3059:-1.4904824536805925e+00
3060:-1.2634528211883143e+00
3061:-1.3368495714855924e+00
3062:-1.3904310624454730e+00
3063:-1.3940708108559705e+00
3064:-1.1037771984797990e+00
3065:-1.1816011543308660e+00
3066:-1.2580417147434528e+00
3067:-1.2905185702353383e+00
3068:-1.0248839129771736e+00
3069:-1.0996189958157514e+00
3070:-1.1774754809556993e+00
3071:-1.2184299556355358e+00
3072:-1.4667838791170171e+00
3073:-1.4186910559013237e+00
3074:-1.3551511868859649e+00
3075:-1.3074615992498262e+00
3076:-1.3824423727962913e+00
3077:-1.3559791494382856e+00
3078:-1.3171274040185965e+00
3079:-1.2842850351292554e+00
3080:-1.2971007840204041e+00
3081:-1.2982785326778619e+00
3082:-1.2795901660401938e+00
3083:-1.2493381055104951e+00
3084:-1.2325628476050299e+00
3085:-1.2445227802918313e+00
3086:-1.2315945062203479e+00
3087:-1.1997194961089788e+00
3088:-1.2822718369518467e+00
3089:-1.2248967858938209e+00
3090:-1.1287557041239724e+00
3091:-1.0394984772374736e+00
3092:-1.2649744600036308e+00
3093:-1.2124735111933049e+00
3094:-1.1159302332304655e+00
3095:-1.0266074017702582e+00
3096:-1.2271905806577452e+00
3097:-1.1713540826194024e+00
3098:-1.0780632725284236e+00
3099:-9.9860335044535786e-01
3100:-1.1751966876156243e+00
3101:-1.1209648179425664e+00
3102:-1.0402391129588806e+00
3103:-9.7537374356714179e-01
3104:-9.8723569225685059e-01
3105:-8.9132100250479573e-01
3106:-7.7322897326543449e-01
3107:-6.8867663700032844e-01
3108:-9.7607026501455463e-01
3109:-8.8785550562510129e-01
3110:-7.8411902248859688e-01
3111:-7.0967201932004975e-01
3112:-9.5608026265369961e-01
3113:-8.8250859671002801e-01
3114:-7.9456717274487665e-01
3115:-7.2844401479648446e-01
3116:-9.4117990816047448e-01
3117:-8.7891792359521381e-01
3118:-7.9871146777893931e-01
3119:-7.3542699894001762e-01
3120:-6.4585200140669752e-01
3121:-5.6890807194893755e-01
3122:-4.7454719003570495e-01
3123:-4.0638452533311148e-01
3124:-6.7066818756260238e-01
3125:-5.9773628089206809e-01
3126:-5.0488021432018981e-01
3127:-4.3721131679634934e-01
3128:-6.9227384306632822e-01
3129:-6.2353478732342249e-01
3130:-5.3519168955919594e-01
3131:-4.7100914481981354e-01
3132:-7.0044385310129065e-01
3133:-6.3507384300549452e-01
3134:-5.5253541213779533e-01
3135:-4.9284968808152524e-01
3136:-3.7147698649494115e-01
3137:-3.0997055330218637e-01
3138:-2.3786599062220007e-01
3139:-1.8884943101330348e-01
3140:-4.0297334040937499e-01
3141:-3.4341168343188866e-01
3142:-2.7400862202399612e-01
3143:-2.2617262523184509e-01
3144:-4.3881428650291349e-01
3145:-3.8259577516399379e-01
3146:-3.1606557777773686e-01
3147:-2.6898772641064794e-01
3148:-4.6272853976542067e-01
3149:-4.0914795572894214e-01
3150:-3.4409636924456055e-01
3151:-2.9719921181212333e-01
3152:-1.6490243270593996e-01
3153:-1.2322153280640648e-01
3154:-7.4666498710207432e-02
3155:-4.1550043911114519e-02
3156:-2.0225899576823311e-01
3157:-1.5985302043476168e-01
3158:-1.0952062625326471e-01
3159:-7.4972997707553113e-02
3160:-2.4491899762011379e-01
3161:-2.0192526150771956e-01
3162:-1.5064360862817200e-01
3163:-1.1544706624986142e-01
3164:-2.7307802273774695e-01
3165:-2.3019493016137751e-01
3166:-1.7929746149727993e-01
3167:-1.4434577697154741e-01
3168:-2.5252256348158891e-02
3169:2.7617116290316497e-03
3170:3.4364149652872711e-02
3171:5.4901447512351736e-02
3172:-5.8050617576854660e-02
3173:-2.9053047510325693e-02
3174:3.7771385587231187e-03
3175:2.5472444039742977e-02
3176:-9.8252643409921958e-02
3177:-6.8565758607347330e-02
3178:-3.4333248413694076e-02
3179:-1.1104707205506102e-02
3180:-1.2718455241613794e-01
3181:-9.7184045654594306e-02
3182:-6.1931626526541543e-02
3183:-3.7601093401895908e-02
3184:6.4606818883922418e-02
3185:8.1161634199707566e-02
3186:9.9797898903807539e-02
3187:1.1195673605368694e-01
3188:3.5939939043653918e-02
3189:5.4051803346077405e-02
3190:7.4785441183129506e-02
3191:8.8468253652376067e-02
3192:3.4534186489448143e-04
3193:2.0281371861133973e-02
3194:4.3238068869079251e-02
3195:5.8459812157488869e-02
3196:-2.5505567816825895e-02
3197:-4.4636170143465530e-03
3198:1.9761027695034610e-02
3199:3.5886111915197909e-02
3200:1.1773149834170139e-01
3201:1.2737265351955751e-01
3202:1.3769877197147179e-01
3203:1.4395421268535885e-01
3204:9.4988178585335759e-02
3205:1.0593685032973681e-01
3206:1.1787321993475817e-01
3207:1.2535501341828262e-01
3208:6.5735787820501226e-02
3209:7.8115657416432061e-02
3210:9.1991480722383071e-02
3211:1.0103240285943163e-01
3212:4.3642930904981211e-02
3213:5.7002257287140916e-02
3214:7.2279420100367239e-02
3215:8.2450060471073658e-02
3216:1.4673811157561181e-01
3217:1.5127615223957022e-01
3218:1.5596462660016919e-01
3219:1.5865586582629587e-01
3220:1.2880623683713235e-01
3221:1.3457628730839455e-01
3222:1.4079271188882780e-01
3223:1.4456820309069371e-01
3224:1.0533877099520940e-01
3225:1.1264326759030796e-01
3226:1.2069666476868082e-01
3227:1.2575110828088196e-01
3228:8.7362423576484327e-02
3229:9.5734557169334905e-02
3230:1.0505378530161191e-01
3231:1.1100308987679337e-01
3232:1.5978789222001960e-01
3233:1.6144782003115390e-01
3234:1.6274853318737398e-01
3235:1.6310745039770669e-01
3236:1.4624048527752767e-01
3237:1.4885963729346050e-01
3238:1.5132760881351484e-01
3239:1.5253393968014226e-01
3240:1.2806120513889721e-01
3241:1.3184423355513242e-01
3242:1.3578217588723610e-01
3243:1.3808350965721317e-01
3244:1.1377143604433222e-01
3245:1.1840812342278542e-01
3246:1.2344323037494369e-01
3247:1.2656392575872255e-01
3248:1.6308818729693825e-01
3249:1.6280864862213143e-01
3250:1.6200399615091957e-01
3251:1.6105698459670617e-01
3252:1.5295391131633895e-01
3253:1.5346395702817098e-01
3254:1.5361543062317223e-01
3255:1.5334164706726272e-01
3256:1.3907550673557240e-01
3257:1.4060436495266654e-01
3258:1.4197471930402306e-01
3259:1.4255408929197128e-01
3260:1.2798105457036307e-01
3261:1.3026399344480560e-01
3262:1.3253711200561222e-01
3263:1.3375451407978084e-01
3264:1.6044052215236829e-01
3265:1.5913347919146906e-01
3266:1.5714943842707110e-01
3267:1.5541897224575979e-01
3268:1.5306235264908880e-01
3269:1.5235457382776912e-01
3270:1.5109400742850285e-01
3271:1.4987857226012205e-01
3272:1.4270265080680622e-01
3273:1.4276433584413128e-01
3274:1.4244846625608079e-01
3275:1.4191449127524045e-01
3276:1.3422692631052130e-01
3277:1.3487579738943054e-01
3278:1.3528640760964666e-01
3279:1.3527787568487681e-01
3280:1.5442700612617249e-01
3281:1.5249592467422329e-01
3282:1.4984855164582647e-01
3283:1.4771800066078292e-01
3284:1.4914849613094769e-01
3285:1.4768363386698227e-01
3286:1.4559551350000383e-01
3287:1.4385696226703468e-01
3288:1.4153284575129765e-01
3289:1.4068708064094437e-01
3290:1.3933993157726204e-01
3291:1.3812089459490154e-01
3292:1.3516454210329537e-01
3293:1.3479567624896713e-01
3294:1.3402119125318707e-01
3295:1.3320640732145042e-01
3296:1.4654723077235185e-01
3297:1.4431139752434907e-01
3298:1.4131977751403518e-01
3299:1.3896596006036219e-01
3300:1.4288253892216438e-01
3301:1.4099489638308535e-01
3302:1.3842055200683889e-01
3303:1.3636014253101969e-01
3304:1.3740728154747961e-01
3305:1.3598489184765872e-01
3306:1.3397306413209109e-01
3307:1.3231135653426060e-01
3308:1.3269708133729485e-01
3309:1.3164064342763282e-01
3310:1.3007338894717174e-01
3311:1.2872782342939043e-01
3312:1.3769013563003216e-01
3313:1.3527633373148568e-01
3314:1.3208638460380831e-01
3315:1.2960434199757467e-01
3316:1.3523189796262355e-01
3317:1.3307910269390624e-01
3318:1.3019953835923470e-01
3319:1.2793327690661180e-01
3320:1.3138452300162476e-01
3321:1.2958846202014757e-01
3322:1.2713424427799211e-01
3323:1.2516485549741743e-01
3324:1.2796089460389823e-01
3325:1.2644866001659288e-01
3326:1.2433438108421090e-01
3327:1.2260370134388925e-01
3328:1.2826720205279260e-01
3329:1.2573747233948712e-01
3330:1.2239183403577091e-01
3331:1.1978713146872361e-01
3332:1.2670366045609749e-01
3333:1.2436333240761409e-01
3334:1.2124176445137236e-01
3335:1.1879200141469072e-01
3336:1.2408370097856297e-01
3337:1.2200609346721968e-01
3338:1.1919765404335188e-01
3339:1.1696615570221408e-01
3340:1.2164251077119524e-01
3341:1.1977795564267975e-01
3342:1.1722478147821248e-01
3343:1.1517218145483962e-01
3344:1.1838306713722810e-01
3345:1.1571763356971712e-01
3346:1.1217295414221738e-01
3347:1.0939823687166034e-01
3348:1.1746483502344303e-01
3349:1.1493381451038262e-01
3350:1.1154588412950618e-01
3351:1.0887764954945084e-01
3352:1.1574792088167463e-01
3353:1.1340824649447780e-01
3354:1.1024536839528735e-01
3355:1.0773162479045388e-01
3356:1.1404356453849288e-01
3357:1.1186200485058247e-01
3358:1.0888654895325039e-01
3359:1.0650268481022068e-01
3360:1.0789673322445190e-01
3361:1.0502713354073806e-01
3362:1.0117228538635784e-01
3363:9.8126052866664176e-02
3364:1.0742827453496749e-01
3365:1.0464875760568032e-01
3366:1.0089688653159110e-01
3367:9.7918855281949366e-02
3368:1.0635851001638030e-01
3369:1.0371198418705886e-01
3370:1.0011463295971250e-01
3371:9.7241051202569692e-02
3372:1.0519414981404585e-01
3373:1.0266104110325790e-01
3374:9.9197074787082812e-02
3375:9.6414995849578772e-02
3376:9.6467404014112218e-02
3377:9.3272053973385949e-02
3378:8.8929373668464554e-02
3379:8.5460406315254839e-02
3380:9.6292906585681237e-02
3381:9.3152737363456362e-02
3382:8.8870414187365979e-02
3383:8.5439136079297637e-02
3384:9.5666020753368511e-02
3385:9.2613420184928394e-02
3386:8.8430373492756453e-02
3387:8.5064190310033677e-02
3388:9.4885095017539445e-02
3389:9.1911148301897769e-02
3390:8.7819447502781603e-02
3391:8.4515025830757456e-02
3392:8.3558486003404736e-02
3393:7.9864005918217781e-02
3394:7.4783554463189794e-02
3395:7.0681734708435820e-02
3396:8.3554400255159464e-02
3397:7.9887445253950862e-02
3398:7.4834053376313839e-02
3399:7.0746448291987174e-02
3400:8.3210440822915704e-02
3401:7.9595746236822779e-02
3402:7.4599601499734769e-02
3403:7.0547875765184981e-02
3404:8.2691423787132304e-02
3405:7.9129000229293617e-02
3406:7.4193135449665507e-02
3407:7.0181872827304204e-02
3408:6.8417836819709449e-02
3409:6.3987778746994795e-02
3410:5.7833278322540732e-02
3411:5.2818905213408554e-02
3412:6.8487927130551407e-02
3413:6.4064593017702759e-02
3414:5.7912680666213773e-02
3415:5.2895807366787492e-02
3416:6.8305812873271587e-02
3417:6.3909546895468267e-02
3418:5.7786095393356114e-02
3419:5.2786162226602470e-02
3420:6.7959488968263065e-02
3421:6.3597658066247134e-02
3422:5.7514792206748530e-02
3423:5.2542964653936208e-02
3424:5.0035794721701436e-02
3425:4.4555926368492670e-02
3426:3.6877990776648814e-02
3427:3.0575477276767106e-02
3428:5.0109902703953074e-02
3429:4.4623064517902572e-02
3430:3.6933142046264217e-02
3431:3.0619502531425549e-02
3432:5.0007750594403440e-02
3433:4.4533673366107751e-02
3434:3.6858619311202614e-02
3435:3.0555444211954406e-02
3436:4.9778634603133060e-02
3437:4.4330693358330515e-02
3438:3.6689856216980878e-02
3439:3.0413382032142753e-02
3440:2.7061711923363568e-02
3441:2.0114383201989841e-02
3442:1.0326158260197272e-02
3443:2.2525433016070059e-03
3444:2.7099272725535199e-02
3445:2.0140168213993823e-02
3446:1.0337949447223294e-02
3447:2.2550427627824996e-03
3448:2.7040697037561668e-02
3449:2.0093816119365396e-02
3450:1.0312375583181111e-02
3451:2.2496783472195038e-03
3452:2.6913241691600226e-02
3453:1.9996338391987101e-02
3454:1.0259953154038702e-02
3455:2.2368522380077772e-03
3456:-7.5745081552828511e-02
3457:-2.1358096766504778e-01
3458:-3.9676498655563991e-01
3459:-5.3601198866365873e-01
3460:-7.2303748201964738e-02
3461:-2.0198857720909619e-01
3462:-3.7310945781822563e-01
3463:-5.0463672911146962e-01
3464:-4.3840894410408296e-02
3465:-1.7678913490671835e-01
3466:-3.4394898867982376e-01
3467:-4.6791685339557015e-01
3468:-2.0862477249210525e-02
3469:-1.5528391876257835e-01
3470:-3.1831118077661658e-01
3471:-4.3457245922678683e-01
3472:-6.0826982685734943e-01
3473:-7.3212083631018732e-01
3474:-8.7061851508463040e-01
3475:-9.6043481703423783e-01
3476:-5.7419521728126532e-01
3477:-6.9682789951024504e-01
3478:-8.3664964859339996e-01
3479:-9.2521256378164496e-01
3480:-5.3258990362032765e-01
3481:-6.4824909370217709e-01
3482:-7.8196472126884375e-01
3483:-8.6623379377445331e-01
3484:-4.9369673298114930e-01
3485:-5.9902886616053841e-01
3486:-7.2167935825213281e-01
3487:-8.0089149348915256e-01
3488:-1.0029046125819587e+00
3489:-1.0724206691705604e+00
3490:-1.1424954800104454e+00
3491:-1.1798425728866397e+00
3492:-9.6487517352045093e-01
3493:-1.0252679645850644e+00
3494:-1.0805614799623249e+00
3495:-1.1085840031620082e+00
3496:-9.0313392353473787e-01
3497:-9.5664373330976893e-01
3498:-1.0010895009420975e+00
3499:-1.0208307254906341e+00
3500:-8.3674601431528028e-01
3501:-8.9065308113272235e-01
3502:-9.3794395841745559e-01
3503:-9.5968327370555784e-01
3504:-1.1936262913993152e+00
3505:-1.2052240665752065e+00
3506:-1.1921776809055806e+00
3507:-1.1609211973353313e+00
3508:-1.1192555502757229e+00
3509:-1.1274803772818089e+00
3510:-1.1151322220814179e+00
3511:-1.0889353766977403e+00
3512:-1.0276836839556776e+00
3513:-1.0328002506773006e+00
3514:-1.0251738934463164e+00
3515:-1.0095829249661334e+00
3516:-9.6711524399315507e-01
3517:-9.7493404330333189e-01
3518:-9.7437852721705220e-01
3519:-9.6670574081966010e-01
3520:-1.1372883531899514e+00
3521:-1.0884318989858306e+00
3522:-1.0194272144453425e+00
3523:-9.6423476030295974e-01
3524:-1.0698566852954932e+00
3525:-1.0335570416711959e+00
3526:-9.8462714007245378e-01
3527:-9.4362810502474836e-01
3528:-9.9848727660444447e-01
3529:-9.7728138157957789e-01
3530:-9.4568774878465511e-01
3531:-9.1457397323722933e-01
3532:-9.6042542442290812e-01
3533:-9.4565285382353859e-01
3534:-9.1825783489316493e-01
3535:-8.8872307642085047e-01
3536:-9.3446700969883534e-01
3537:-8.7722329177070790e-01
3538:-7.9918065552618411e-01
3539:-7.3639988522404676e-01
3540:-9.1975378749285541e-01
3541:-8.6944893254364086e-01
3542:-7.9553787702045486e-01
3543:-7.3516428656170330e-01
3544:-8.9439506128366242e-01
3545:-8.4995248408684076e-01
3546:-7.8321972645575111e-01
3547:-7.2909819242563612e-01
3548:-8.6938646536744335e-01
3549:-8.2854163318219320e-01
3550:-7.6942050996188527e-01
3551:-7.2205897821022602e-01
3552:-7.0195679321882731e-01
3553:-6.3872568153889642e-01
3554:-5.6011511849219153e-01
3555:-5.0327061802573780e-01
3556:-7.0262006816615141e-01
3557:-6.4414650253465122e-01
3558:-5.7246388181936347e-01
3559:-5.2006547643292989e-01
3560:-7.0040324266351683e-01
3561:-6.4880971452943570e-01
3562:-5.8458892202151147e-01
3563:-5.3625540179057718e-01
3564:-6.9684149740420509e-01
3565:-6.5031360674231842e-01
3566:-5.9034115162303746e-01
3567:-5.4411427495886588e-01
3568:-4.7428855634491407e-01
3569:-4.2197390938096080e-01
3570:-3.5743801097173195e-01
3571:-3.1059733882742352e-01
3572:-4.9274359958565433e-01
3573:-4.4244283448078353e-01
3574:-3.7925375289618662e-01
3575:-3.3319212977875667e-01
3576:-5.1041775251989729e-01
3577:-4.6250417470546829e-01
3578:-4.0214192346497873e-01
3579:-3.5829981733955907e-01
3580:-5.1922151881064038e-01
3581:-4.7339357225955542e-01
3582:-4.1614291292882361e-01
3583:-3.7467571821654688e-01
3584:-2.8654897155861037e-01
3585:-2.4400612874122346e-01
3586:-1.9369387046577732e-01
3587:-1.5905294646309981e-01
3588:-3.0967575409216419e-01
3589:-2.6823024778524290e-01
3590:-2.1914242704640211e-01
3591:-1.8495505973383727e-01
3592:-3.3603545426873865e-01
3593:-2.9654889741850193e-01
3594:-2.4904272728860277e-01
3595:-2.1523679636352325e-01
3596:-3.5356177388676363e-01
3597:-3.1565370097471074e-01
3598:-2.6921565280709803e-01
3599:-2.3566565294366493e-01
3600:-1.4193516584477400e-01
3601:-1.1177066771756712e-01
3602:-7.5978671288475463e-02
3603:-5.1125451330161054e-02
3604:-1.6782131247461082e-01
3605:-1.3732573940310075e-01
3606:-1.0076561400354546e-01
3607:-7.5257492510964447e-02
3608:-1.9801164783853256e-01
3609:-1.6723436851509163e-01
3610:-1.3025940296416652e-01
3611:-1.0446683811468857e-01
3612:-2.1845162218380051e-01
3613:-1.8775461731553630e-01
3614:-1.5096362918372536e-01
3615:-1.2528825320164846e-01
3616:-3.8756969238741529e-02
3617:-1.7268838667038565e-02
3618:7.4719099176391310e-03
3619:2.4006974396597342e-02
3620:-6.2570658898205539e-02
3621:-4.0507957341212854e-02
3622:-1.4958655031039263e-02
3623:2.3245612016784436e-03
3624:-9.1650252272672234e-02
3625:-6.9201973496145236e-02
3626:-4.2816206866035128e-02
3627:-2.4623279474770190e-02
3628:-1.1249393702557040e-01
3629:-8.9892966589498219e-02
3630:-6.2972533870381611e-02
3631:-4.4175961179510531e-02
3632:3.2006830102762833e-02
3633:4.5873923376999505e-02
3634:6.1874732148021291e-02
3635:7.2610397569595378e-02
3636:1.0789121951365815e-02
3637:2.5580037735495439e-02
3638:4.2818025667564284e-02
3639:5.4477890508379756e-02
3640:-1.5584540339273959e-02
3641:2.7778712755363214e-04
3642:1.8850877706030965e-02
3643:3.1472179312186266e-02
3644:-3.4771913763207929e-02
3645:-1.8259529231417028e-02
3646:1.0997311503723260e-03
3647:1.4303498243703151e-02
3648:7.7815704884081793e-02
3649:8.6702083469077540e-02
3650:9.6640122415190585e-02
3651:1.0304265347794138e-01
3652:6.0153546486267140e-02
3653:6.9891075157999097e-02
3654:8.0907398602044267e-02
3655:8.8135564126214455e-02
3656:3.7637626467158430e-02
3657:4.8311528851432042e-02
3658:6.0599863453307791e-02
3659:6.8844826604611331e-02
3660:2.0782389316882373e-02
3661:3.2086962800999326e-02
3662:4.5267991141746955e-02
3663:5.4231877966528549e-02
3664:1.0605075463117647e-01
3665:1.1113678227002882e-01
3666:1.1674768444607596e-01
3667:1.2029305806706352e-01
3668:9.1589084038906837e-02
3669:9.7498403022240110e-02
3670:1.0414188870631240e-01
3671:1.0843617559695616e-01
3672:7.2852803203275182e-02
3673:7.9769141481643838e-02
3674:8.7648634632307099e-02
3675:9.2830195837519600e-02
3676:5.8627550412015873e-02
3677:6.6240708228498729e-02
3678:7.4972512645523126e-02
3679:8.0773819018746237e-02
3680:1.2192775110220906e-01
3681:1.2459710923115912e-01
3682:1.2733717610973558e-01
3683:1.2888995494199562e-01
3684:1.1045198701177852e-01
3685:1.1380697374644287e-01
3686:1.1739330064633299e-01
3687:1.1956554095593579e-01
3688:9.5298476669683482e-02
3689:9.9483163110225953e-02
3690:1.0412029682617870e-01
3691:1.0707583216903620e-01
3692:8.3564047587931831e-02
3693:8.8348165097330109e-02
3694:9.3755252090323135e-02
3695:9.7287151871528837e-02
3696:1.2953493581215186e-01
3697:1.3049746573788537e-01
3698:1.3129585064877985e-01
3699:1.3156661839352934e-01
3700:1.2053225548423288e-01
3701:1.2207698988083360e-01
3702:1.2358984668724159e-01
3703:1.2437232391030485e-01
3704:1.0845186222553729e-01
3705:1.1073351806969343e-01
3706:1.1314524347723114e-01
3707:1.1457046651266820e-01
3708:9.8963497455260910e-02
3709:1.0178475045516579e-01
3710:1.0485571388365129e-01
3711:1.0675593207166743e-01
3712:1.3159529014416016e-01
3713:1.3147930139397390e-01
3714:1.3101020886256967e-01
3715:1.3041278328975872e-01
3716:1.2466068982833862e-01
3717:1.2500997306135722e-01
3718:1.2510839274168253e-01
3719:1.2491862027008359e-01
3720:1.1518583540047052e-01
3721:1.1612593799108324e-01
3722:1.1695351235817246e-01
3723:1.1729234050671605e-01
3724:1.0761506132356941e-01
3725:1.0899846646947797e-01
3726:1.1037687900723103e-01
3727:1.1111640283244766e-01
3728:1.3001401443797220e-01
3729:1.2915594238286274e-01
3730:1.2782986715859732e-01
3731:1.2665576388626548e-01
3732:1.2472821912233384e-01
3733:1.2424370484963440e-01
3734:1.2337111017505044e-01
3735:1.2251915831530570e-01
3736:1.1737319182386687e-01
3737:1.1737471607313821e-01
3738:1.1709208427313342e-01
3739:1.1665999451726482e-01
3740:1.1140290735633895e-01
3741:1.1177319604642642e-01
3742:1.1193950901446580e-01
3743:1.1182864407831529e-01
3744:1.2597550725823473e-01
3745:1.2461741346590922e-01
3746:1.2268851090617106e-01
3747:1.2108868200892201e-01
3748:1.2200180097602240e-01
3749:1.2093439641946460e-01
3750:1.1935702849205009e-01
3751:1.1800669215459685e-01
3752:1.1635550678282125e-01
3753:1.1566970333355162e-01
3754:1.1455691074166827e-01
3755:1.1353829303633553e-01
3756:1.1168782831254659e-01
3757:1.1129651031425937e-01
3758:1.1054386758664073e-01
3759:1.0978332067310985e-01
3760:1.2019350764484488e-01
3761:1.1844640922036806e-01
3762:1.1603429954365288e-01
3763:1.1408079923868218e-01
3764:1.1723780269847218e-01
3765:1.1571561662884196e-01
3766:1.1357403715839436e-01
3767:1.1181098481355195e-01
3768:1.1293787258663680e-01
3769:1.1171623668807791e-01
3770:1.0993726013827623e-01
3771:1.0843051473626597e-01
3772:1.0931419121845971e-01
3773:1.0832726070800865e-01
3774:1.0683257790127929e-01
3775:1.0552782473317904e-01
3776:1.1300190931041446e-01
3777:1.1090832778432121e-01
3778:1.0803767731082241e-01
3779:1.0572687178141110e-01
3780:1.1082783751111254e-01
3781:1.0890416083034132e-01
3782:1.0623694117221717e-01
3783:1.0406873650960505e-01
3784:1.0757666247483173e-01
3785:1.0588336419754744e-01
3786:1.0349376812895272e-01
3787:1.0152151709033504e-01
3788:1.0477628551993709e-01
3789:1.0326591563888556e-01
3790:1.0109790160488585e-01
3791:9.9282887992257166e-02
3792:1.0445482533372949e-01
3793:1.0198604495198459e-01
3794:9.8598220042630996e-02
3795:9.5868776567577696e-02
3796:1.0286818967390893e-01
3797:1.0052587445056123e-01
3798:9.7288567069602427e-02
3799:9.4663864714656168e-02
3800:1.0041968960365683e-01
3801:9.8252764409161933e-02
3802:9.5225792908795570e-02
3803:9.2748779097221387e-02
3804:9.8260566466404714e-02
3805:9.6235468811476876e-02
3806:9.3379770022606209e-02
3807:9.1023998242545853e-02
3808:9.4364991094327486e-02
3809:9.1436875119809635e-02
3810:8.7399054534133408e-02
3811:8.4131610535471760e-02
3812:9.3212315592577324e-02
3813:9.0376417492875186e-02
3814:8.6448129758139147e-02
3815:8.3256777084897524e-02
3816:9.1371393786524882e-02
3817:8.8667398938635678e-02
3818:8.4897750870933320e-02
3819:8.1818205504205654e-02
3820:8.9707868751505965e-02
3821:8.7113477815332935e-02
3822:8.3476959301146986e-02
3823:8.0492293238065671e-02
3824:8.2326270903334581e-02
3825:7.8795902202056525e-02
3826:7.3897808103085091e-02
3827:6.9912577754771929e-02
3828:8.1489367471455368e-02
3829:7.8026215651728265e-02
3830:7.3208624279688536e-02
3831:6.9279947132588754e-02
3832:8.0107133029541241e-02
3833:7.6744928865062206e-02
3834:7.2050475528591340e-02
3835:6.8210113733375335e-02
3836:7.8829419347000676e-02
3837:7.5554307648311128e-02
3838:7.0967546103763768e-02
3839:6.7205578811891306e-02
3840:6.7703118620083033e-02
3841:6.3364364853122968e-02
3842:5.7309614893655339e-02
3843:5.2357995555167895e-02
3844:6.7098970243246361e-02
3845:6.2811767691927103e-02
3846:5.6821183422716762e-02
3847:5.1916741139467350e-02
3848:6.6074286834231277e-02
3849:6.1869930560249524e-02
3850:5.5984633700642390e-02
3851:5.1159257135638687e-02
3852:6.5110249861516284e-02
3853:6.0980886026765276e-02
3854:5.5192187793505897e-02
3855:5.0440318534766729e-02
3856:4.9604055313426314e-02
3857:4.4175702352633808e-02
3858:3.6560997498347791e-02
3859:3.0305217189488590e-02
3860:4.9187423370164948e-02
3861:4.3805914454881294e-02
3862:3.6254371262964810e-02
3863:3.0049012064085674e-02
3864:4.8471766001198673e-02
3865:4.3170464848162116e-02
3866:3.5728059412835710e-02
3867:2.9610415529756653e-02
3868:4.7792034328608450e-02
3869:4.2566268784577525e-02
3870:3.5227187418607288e-02
3871:2.9192908055867616e-02
3872:2.6816461393435697e-02
3873:1.9922660477438462e-02
3874:1.0220350472855497e-02
3875:2.2266738948817397e-03
3876:2.6588080031259381e-02
3877:1.9750423281622020e-02
3878:1.0130120328876443e-02
3879:2.2065904952592564e-03
3880:2.6198009830744103e-02
3881:1.9457794845527503e-02
3882:9.9786168030604732e-03
3883:2.1747981733396728e-03
3884:2.5826686667948611e-02
3885:1.9178931826958685e-02
3886:9.8329683556356035e-03
3887:2.1415728515872937e-03
3888:-1.3409225799348369e-02
3889:-1.4485423466736086e-01
3890:-3.0242874444783646e-01
3891:-4.1296081565859422e-01
3892:-1.1065133852656159e-02
3893:-1.3050525351789721e-01
3894:-2.7367086807153090e-01
3895:-3.7352380269069441e-01
3896:-2.1097623071771286e-02
3897:-1.1955486457409201e-01
3898:-2.4177982944583620e-01
3899:-3.3001126940539727e-01
3900:-2.9803308137287869e-02
3901:-1.1436758801617330e-01
3902:-2.2382869646311862e-01
3903:-3.0621071823819385e-01
3904:-4.6841030183682347e-01
3905:-5.6654546622854685e-01
3906:-6.8128773124624309e-01
3907:-7.5734945754457539e-01
3908:-4.2320427216358908e-01
3909:-5.1026523591240380e-01
3910:-6.1275745786430080e-01
3911:-6.8364859715194981e-01
3912:-3.7479235815954542e-01
3913:-4.5301099212818491e-01
3914:-5.4553407177651769e-01
3915:-6.1119975995086206e-01
3916:-3.4913145718956157e-01
3917:-4.2453286266585971e-01
3918:-5.1364995577644923e-01
3919:-5.7623934208058225e-01
3920:-7.9307785663353247e-01
3921:-8.4943117134398483e-01
3922:-9.0294570757875892e-01
3923:-9.2978935882615055e-01
3924:-7.1887810267759433e-01
3925:-7.7853036211112880e-01
3926:-8.4160477961665126e-01
3927:-8.7702439347078587e-01
3928:-6.4489262292531846e-01
3929:-7.0451632559391908e-01
3930:-7.7194418189123515e-01
3931:-8.1287277217708309e-01
3932:-6.0794928826725425e-01
3933:-6.6367449314389715e-01
3934:-7.2679961986349706e-01
3935:-7.6598180269780058e-01
3936:-9.3952340525459210e-01
3937:-9.5146149185432316e-01
3938:-9.5583347262390284e-01
3939:-9.5134858936523714e-01
3940:-8.9097179494107015e-01
3941:-9.1006309277863939e-01
3942:-9.2199141815400953e-01
3943:-9.2155595640735111e-01
3944:-8.3011637796825599e-01
3945:-8.5482694099443091e-01
3946:-8.7248651873369854e-01
3947:-8.7494761969267243e-01
3948:-7.8306916381297753e-01
3949:-8.0806116647094151e-01
3950:-8.2695784271452444e-01
3951:-8.3100105811018432e-01
3952:-9.4640205693338320e-01
3953:-9.3227758531262139e-01
3954:-9.0365515944713171e-01
3955:-8.7328747785710681e-01
3956:-9.1797655872374917e-01
3957:-9.0429274547641514e-01
3958:-8.7447357690533822e-01
3959:-8.4420382540969996e-01
3960:-8.7234130422775469e-01
3961:-8.6029042908596376e-01
3962:-8.3348170540249233e-01
3963:-8.0720055523707046e-01
3964:-8.2951091564167811e-01
3965:-8.2092295008739657e-01
3966:-8.0061648729785750e-01
3967:-7.8001002690859056e-01
3968:-8.5408919539293593e-01
3969:-8.1531047273180890e-01
3970:-7.6106442923941242e-01
3971:-7.1775132272030728e-01
3972:-8.2613646757481707e-01
3973:-7.9175464924293559e-01
3974:-7.4564408587649100e-01
3975:-7.0850421860930179e-01
3976:-7.9209706526724055e-01
3977:-7.6383679942861571e-01
3978:-7.2569224423546508e-01
3979:-6.9382350750602861e-01
3980:-7.6787069195512303e-01
3981:-7.4401416032614820e-01
3982:-7.0984694076601551e-01
3983:-6.8031752397001133e-01
3984:-6.9437706750784911e-01
3985:-6.5025046238967354e-01
3986:-5.9200602591118423e-01
3987:-5.4669464252871214e-01
3988:-6.8782896141464445e-01
3989:-6.4745800211040450e-01
3990:-5.9256419705182939e-01
3991:-5.4955643562659662e-01
3992:-6.7545411566918190e-01
3993:-6.3904128372604252e-01
3994:-5.8912997382161247e-01
3995:-5.5016775154398656e-01
3996:-6.6316644710479489e-01
3997:-6.2957354080335870e-01
3998:-5.8409829392947721e-01
3999:-5.4875414054655558e-01
4000:-5.2235102787552801e-01
4001:-4.7785284956661611e-01
4002:-4.2259174758388707e-01
4003:-3.8252190327905206e-01
4004:-5.2661171305242760e-01
4005:-4.8495972478669330e-01
4006:-4.3332151326211416e-01
4007:-3.9552099093115378e-01
4008:-5.2953093130240125e-01
4009:-4.9186436837696262e-01
4010:-4.4444667956175976e-01
4011:-4.0898312021495609e-01
4012:-5.2998789496893539e-01
4013:-4.9522058991800960e-01
4014:-4.5052399714333274e-01
4015:-4.1654464519118056e-01
4016:-3.6200770308324354e-01
4017:-3.2486850338352230e-01
4018:-2.7892571280902417e-01
4019:-2.4555018042654103e-01
4020:-3.7591409534999853e-01
4021:-3.4003115970256548e-01
4022:-2.9516239141869077e-01
4023:-2.6242873344864587e-01
4024:-3.9028500135928662e-01
4025:-3.5592320277303158e-01
4026:-3.1287654610640558e-01
4027:-2.8150933954029206e-01
4028:-3.9850461023896888e-01
4029:-3.6544901653913670e-01
4030:-3.2419020953912608e-01
4031:-2.9415044087244163e-01
4032:-2.2841482712063890e-01
4033:-1.9791751294270968e-01
4034:-1.6140561486086116e-01
4035:-1.3587161101943687e-01
4036:-2.4564277017777580e-01
4037:-2.1577678468003716e-01
4038:-1.7990345484588258e-01
4039:-1.5460487253951988e-01
4040:-2.6545457506217812e-01
4041:-2.3672135109088063e-01
4042:-2.0178038765396639e-01
4043:-1.7675802188047096e-01
4044:-2.7874621373411035e-01
4045:-2.5094930242155661e-01
4046:-2.1672583667220321e-01
4047:-1.9194808626389764e-01
4048:-1.2310036094167832e-01
4049:-1.0042752624112258e-01
4050:-7.3246694542092969e-02
4051:-5.4178550897107859e-02
4052:-1.4184024182710844e-01
4053:-1.1903395309381810e-01
4054:-9.1493523628120590e-02
4055:-7.2083078737536818e-02
4056:-1.6399079382352041e-01
4057:-1.4110776624519258e-01
4058:-1.1339870735454154e-01
4059:-9.3833349738353833e-02
4060:-1.7923484205305479e-01
4061:-1.5645464938823048e-01
4062:-1.2887279989508030e-01
4063:-1.0936527801587605e-01
4064:-4.4622465295220841e-02
4065:-2.7844367328378646e-02
4066:-8.1538513259033791e-03
4067:5.3179116346566786e-03
4068:-6.2342736387826031e-02
4069:-4.5210303543244970e-02
4070:-2.5002321084013401e-02
4071:-1.1059555525933814e-02
4072:-8.4004834789811494e-02
4073:-6.6620433161672543e-02
4074:-4.5895396480431207e-02
4075:-3.1410352482487608e-02
4076:-9.9540383423925363e-02
4077:-8.2059625918083592e-02
4078:-6.1028575538312653e-02
4079:-4.6200375670586359e-02
4080:1.1952429953081130e-02
4081:2.3575934247451063e-02
4082:3.7207924211544383e-02
4083:4.6527740513551026e-02
4084:-4.1400171823623086e-03
4085:8.0493088739025456e-03
4086:2.2449020864596644e-02
4087:3.2358014679223404e-02
4088:-2.4154053362908611e-02
4089:-1.1323782852006537e-02
4090:3.9061896621571043e-03
4091:1.4440365782848883e-02
4092:-3.8734499047231870e-02
4093:-2.5516958555494160e-02
4094:-9.7913289395844816e-03
4095:1.1271260075050268e-03
4096:5.1111268693883924e-02
4097:5.9061942402114515e-02
4098:6.8211919621614853e-02
4099:7.4325132564971808e-02
4100:3.7249378226222769e-02
4101:4.5766041118066939e-02
4102:5.5643515179550580e-02
4103:6.2316305492760266e-02
4104:1.9660226294541207e-02
4105:2.8805796702316012e-02
4106:3.9533716244955421e-02
4107:4.6881942078680877e-02
4108:6.5575564621197357e-03
4109:1.6122313195928262e-02
4110:2.7436683423208843e-02
4111:3.5255372095097291e-02
4112:7.7281016873372438e-02
4113:8.2375280489396907e-02
4114:8.8180871587485041e-02
4115:9.2009267843416148e-02
4116:6.5573498267887192e-02
4117:7.1227396010709917e-02
4118:7.7743349336353726e-02
4119:8.2095695920093983e-02
4120:5.0506126001244218e-02
4121:5.6834590471994864e-02
4122:6.4196714359577606e-02
4123:6.9170980170757831e-02
4124:3.9133893794720293e-02
4125:4.5927167148991317e-02
4126:5.3872390886961767e-02
4127:5.9280078018726236e-02
4128:9.3839020650238414e-02
4129:9.6936273190578667e-02
4130:1.0034667264525803e-01
4131:1.0249414133266195e-01
4132:8.4195827273168461e-02
4133:8.7783973993672659e-02
4134:9.1806842739435637e-02
4135:9.4406089332605567e-02
4136:7.1593246679742081e-02
4137:7.5774400192094610e-02
4138:8.0550823524707521e-02
4139:8.3713232540344421e-02
4140:6.1929999732648490e-02
4141:6.6535217466405047e-02
4142:7.1856890281995059e-02
4143:7.5428832556650588e-02
4144:1.0348131718368161e-01
4145:1.0509820362721434e-01
4146:1.0676706797443050e-01
4147:1.0771763503381962e-01
4148:9.5628683965710101e-02
4149:9.7673960535233584e-02
4150:9.9873971308685167e-02
4151:1.0120968744748302e-01
4152:8.5230674925824312e-02
4153:8.7811244734031860e-02
4154:9.0673514065572447e-02
4155:9.2489918361443435e-02
4156:7.7160565974001671e-02
4157:8.0130018867030098e-02
4158:8.3474610142355604e-02
4159:8.5643372187709066e-02
4160:1.0811225589437674e-01
4161:1.0867670359604827e-01
4162:1.0908034806012513e-01
4163:1.0914026257193650e-01
4164:1.0180160213033281e-01
4165:1.0272189781347724e-01
4166:1.0356350392559294e-01
4167:1.0394055684340441e-01
4168:9.3328797243585088e-02
4169:9.4697318784965498e-02
4170:9.6095365507865654e-02
4171:9.6878161915793279e-02
4172:8.6664484054594926e-02
4173:8.8365488948554560e-02
4174:9.0178748029535155e-02
4175:9.1265440380147098e-02
4176:1.0908685451996844e-01
4177:1.0885308189028038e-01
4178:1.0829343917886138e-01
4179:1.0767132791127866e-01
4180:1.0405002096424669e-01
4181:1.0410984823080195e-01
4182:1.0390991496864281e-01
4183:1.0354599746576147e-01
4184:9.7196677280043733e-02
4185:9.7633549440509823e-02
4186:9.7896189449681884e-02
4187:9.7865192123140529e-02
4188:9.1740707389136686e-02
4189:9.2460660494714964e-02
4190:9.3071695257587753e-02
4191:9.3292635177928560e-02
4192:1.0727265091547222e-01
4193:1.0641187807524623e-01
4194:1.0507051162805689e-01
4195:1.0387513265681758e-01
4196:1.0327885367436956e-01
4197:1.0265424527198007e-01
4198:1.0160111145336338e-01
4199:1.0061222987392390e-01
4200:9.7768113229542222e-02
4201:9.7450004674346988e-02
4202:9.6773030446300992e-02
4203:9.6055046385838033e-02
4204:9.3324775561553719e-02
4205:9.3240314826016982e-02
4206:9.2851339750507494e-02
4207:9.2341550969405453e-02
4208:1.0317916205014684e-01
4209:1.0176833623143620e-01
4210:9.9721231725710638e-02
4211:9.7992259203374302e-02
4212:1.0002144945225083e-01
4213:9.8799318020732774e-02
4214:9.6981910918577788e-02
4215:9.5416828910708351e-02
4216:9.5602689097312607e-02
4217:9.4629396944872546e-02
4218:9.3116001827496950e-02
4219:9.1768794845100990e-02
4220:9.1995806860629831e-02
4221:9.1214613725762159e-02
4222:8.9936876392092122e-02
4223:8.8759392800117548e-02
4224:9.7013528980473149e-02
4225:9.5066391719061033e-02
4226:9.2305255557421542e-02
4227:9.0016764690756854e-02
4228:9.4521306844397662e-02
4229:9.2723399243030497e-02
4230:9.0144100946692798e-02
4231:8.7985627213496870e-02
4232:9.0984272340130873e-02
4233:8.9386205263033466e-02
4234:8.7051902550372887e-02
4235:8.5069737595971140e-02
4236:8.8061662123856091e-02
4237:8.6620385379074030e-02
4238:8.4479300901660198e-02
4239:8.2636935271229187e-02
4240:8.8734755052987252e-02
4241:8.6201622604658190e-02
4242:8.2639920725702379e-02
4243:7.9708901292203094e-02
4244:8.6769779704871597e-02
4245:8.4355803139448349e-02
4246:8.0940362828762241e-02
4247:7.8114809287161732e-02
4248:8.3944007702733317e-02
4249:8.1693021736591140e-02
4250:7.8479035062253136e-02
4251:7.5799858758344121e-02
4252:8.1582925603455148e-02
4253:7.9462156764946265e-02
4254:7.6410127682788709e-02
4255:7.3849439373865011e-02
4256:7.8073400207566215e-02
4257:7.4847977394785076e-02
4258:7.0323109485371668e-02
4259:6.6606552842745179e-02
4260:7.6533341290964840e-02
4261:7.3406422226982376e-02
4262:6.9005077430275757e-02
4263:6.5379785359131082e-02
4264:7.4293795794206613e-02
4265:7.1305095709099084e-02
4266:6.7078544785862296e-02
4267:6.3583524136807165e-02
4268:7.2404710328917557e-02
4269:6.9528946983468884e-02
4270:6.5446200521718678e-02
4271:6.2059102617982288e-02
4272:6.4534809393807652e-02
4273:6.0449320643555293e-02
4274:5.4717513982518014e-02
4275:5.0009213923541726e-02
4276:6.3355667555252460e-02
4277:5.9359134123489983e-02
4278:5.3743343847546546e-02
4279:4.9124382552384903e-02
4280:6.1627781177976057e-02
4281:5.7759593246024026e-02
4282:5.2312374705976612e-02
4283:4.7824082700280025e-02
4284:6.0160263936401788e-02
4285:5.6399311308017841e-02
4286:5.1093720857435763e-02
4287:4.6715779552199008e-02
4288:4.7384259202969521e-02
4289:4.2203537644647487e-02
4290:3.4926221329951726e-02
4291:2.8941863877766968e-02
4292:4.6547424568395418e-02
4293:4.1459554822203891e-02
4294:3.4309839390888310e-02
4295:2.8428781486151768e-02
4296:4.5317604280470616e-02
4297:4.0366384712021891e-02
4298:3.3404927284147325e-02
4299:2.7676547549182594e-02
4300:4.4269003296575127e-02
4301:3.9433724245352186e-02
4302:3.2632274394654347e-02
4303:2.7033823871973534e-02
4304:2.5603316945204471e-02
4305:1.9010885046599445e-02
4306:9.7444296439387779e-03
4307:2.1199671828649172e-03
4308:2.5147533699801255e-02
4309:1.8669526317326431e-02
4310:9.5672044754407659e-03
4311:2.0806460950179213e-03
4312:2.4480044369406189e-02
4313:1.8171052978892634e-02
4314:9.3106158595006126e-03
4315:2.0268112092394082e-03
4316:2.3909469646266650e-02
4317:1.7744220109478921e-02
4318:9.0891139691478481e-03
4319:1.9771004040769857e-03
4320:-3.2081444535886766e-02
4321:-1.1183957206522321e-01
4322:-2.1701184402174506e-01
4323:-2.9760283851579766e-01
4324:-3.0599423383347486e-02
4325:-1.0580697945117309e-01
4326:-2.0587079822146120e-01
4327:-2.8321746412346688e-01
4328:-2.2329327836334532e-02
4329:-9.6230410666160907e-02
4330:-1.9202888826310194e-01
4331:-2.6433341796408927e-01
4332:-1.5704876096291717e-02
4333:-8.8584789614397294e-02
4334:-1.8032162866584026e-01
4335:-2.4767624639121233e-01
4336:-3.4007523877078755e-01
4337:-4.1509102198929992e-01
4338:-5.0359429598548955e-01
4339:-5.6477475454523862e-01
4340:-3.2423832049908319e-01
4341:-3.9731307569781421e-01
4342:-4.8356889475065512e-01
4343:-5.4201428123309658e-01
4344:-3.0219595958714307e-01
4345:-3.7016032840378527e-01
4346:-4.5104622120110444e-01
4347:-5.0576013929768748e-01
4348:-2.8239802923642837e-01
4349:-3.4492208880058123e-01
4350:-4.2018909799849063e-01
4351:-4.7202559538351063e-01
4352:-5.9515284837784932e-01
4353:-6.4746404455966688e-01
4354:-7.0555656732896976e-01
4355:-7.4151797120477636e-01
4356:-5.7020872977202364e-01
4357:-6.1714624240460747e-01
4358:-6.6741612016955376e-01
4359:-6.9829063919561918e-01
4360:-5.3190813244327351e-01
4361:-5.7471219813187890e-01
4362:-6.1974484335440472e-01
4363:-6.4742622027008612e-01
4364:-4.9722627169775968e-01
4365:-5.3915964056030929e-01
4366:-5.8430072686572188e-01
4367:-6.1256368935981553e-01
4368:-7.5741436213240876e-01
4369:-7.8097511385412255e-01
4370:-7.9953603079532853e-01
4371:-8.0453339265934631e-01
4372:-7.1223475856786334e-01
4373:-7.3350079399599766e-01
4374:-7.5173498334732303e-01
4375:-7.5858300491176844e-01
4376:-6.6016979818447019e-01
4377:-6.8027785125405171e-01
4378:-6.9917460273121934e-01
4379:-7.0821923460979941e-01
4380:-6.2566653287114626e-01
4381:-6.4660096856401217e-01
4382:-6.6688381379113548e-01
4383:-6.7720525766220996e-01
4384:-8.0401408679529351e-01
4385:-7.9831385305274793e-01
4386:-7.8291602633624313e-01
4387:-7.6601162850466953e-01
4388:-7.5982600789645127e-01
4389:-7.5887542823213605e-01
4390:-7.5108288153492420e-01
4391:-7.3974885450354333e-01
4392:-7.1122351930975303e-01
4393:-7.1429004954370956e-01
4394:-7.1236071318775007e-01
4395:-7.0534352860181515e-01
4396:-6.8093887181032975e-01
4397:-6.8516358036450942e-01
4398:-6.8462681910000589e-01
4399:-6.7892209360474065e-01
4400:-7.5552275924716039e-01
4401:-7.3373714974072723e-01
4402:-7.0099105164457998e-01
4403:-6.7230451574338745e-01
4404:-7.3172024357342202e-01
4405:-7.1324958025522966e-01
4406:-6.8335884125693713e-01
4407:-6.5677108003883911e-01
4408:-6.9936567349369483e-01
4409:-6.8438903167539344e-01
4410:-6.5889822487180982e-01
4411:-6.3601834750444108e-01
4412:-6.7384431101461528e-01
4413:-6.6116848735196942e-01
4414:-6.3955828636384005e-01
4415:-6.1999034581243451e-01
4416:-6.5574304750800494e-01
4417:-6.2372821118740573e-01
4418:-5.8083569321635098e-01
4419:-5.4748288594889005e-01
4420:-6.4160122660582919e-01
4421:-6.1271681682102541e-01
4422:-5.7430457579742056e-01
4423:-5.4414259391584274e-01
4424:-6.2305167608760204e-01
4425:-5.9826396563333673e-01
4426:-5.6475692048280335e-01
4427:-5.3778071143945028e-01
4428:-6.0878513782881460e-01
4429:-5.8686041732047012e-01
4430:-5.5634010641888931e-01
4431:-5.3126299700018054e-01
4432:-5.2965839213879928e-01
4433:-4.9627203301907502e-01
4434:-4.5282746178173156e-01
4435:-4.1959843949578912e-01
4436:-5.2777136319192153e-01
4437:-4.9664160516150530e-01
4438:-4.5555009530998292e-01
4439:-4.2396365563479982e-01
4440:-5.2285275611897752e-01
4441:-4.9428099357441774e-01
4442:-4.5643023053782722e-01
4443:-4.2736719721837568e-01
4444:-5.1727818013274607e-01
4445:-4.9061669798081026e-01
4446:-4.5545673982810508e-01
4447:-4.2849021510841456e-01
4448:-4.0195129327001078e-01
4449:-3.6970750384704754e-01
4450:-3.2954497338984140e-01
4451:-3.0026240033877905e-01
4452:-4.0721815902800496e-01
4453:-3.7667201973258452e-01
4454:-3.3855584596059912e-01
4455:-3.1056313181120054e-01
4456:-4.1199770855338774e-01
4457:-3.8380763084441982e-01
4458:-3.4821182618878210e-01
4459:-3.2168250745165494e-01
4460:-4.1420273642543898e-01
4461:-3.8775472644618431e-01
4462:-3.5391219974303417e-01
4463:-3.2841029133112210e-01
4464:-2.8519697716114134e-01
4465:-2.5787220968167579e-01
4466:-2.2401647599192168e-01
4467:-1.9940258695271523e-01
4468:-2.9604502352996453e-01
4469:-2.6953420782347598e-01
4470:-2.3644370876401327e-01
4471:-2.1228760734620783e-01
4472:-3.0777634099282347e-01
4473:-2.8229822476369004e-01
4474:-2.5041095361823362e-01
4475:-2.2710393750639993e-01
4476:-3.1497166056488463e-01
4477:-2.9036572449767273e-01
4478:-2.5958878162268434e-01
4479:-2.3707016009474302e-01
4480:-1.8675837822976238e-01
4481:-1.6411491183351884e-01
4482:-1.3669409573120961e-01
4483:-1.1726187026433610e-01
4484:-1.9987028369086662e-01
4485:-1.7761417021764794e-01
4486:-1.5057109049431333e-01
4487:-1.3128639944426712e-01
4488:-2.1511847746649071e-01
4489:-1.9353582646000175e-01
4490:-1.6707540014730965e-01
4491:-1.4800517382624442e-01
4492:-2.2546616672097997e-01
4493:-2.0445296995243029e-01
4494:-1.7847323271263957e-01
4495:-1.5960654024838239e-01
4496:-1.0744931225926771e-01
4497:-8.9932046144110475e-02
4498:-6.8762765697458705e-02
4499:-5.3784186107932383e-02
4500:-1.2149093667553208e-01
4501:-1.0392409093429662e-01
4502:-8.2574946984247999e-02
4503:-6.7404353961183147e-02
4504:-1.3824525820891553e-01
4505:-1.2068982324936908e-01
4506:-9.9280365492724981e-02
4507:-8.4019090894319734e-02
4508:-1.4991086918740840e-01
4509:-1.3245840919487167e-01
4510:-1.1114602071247130e-01
4511:-9.5916658942610492e-02
4512:-4.6230715540327004e-02
4513:-3.2852120933633808e-02
4514:-1.6913413789114356e-02
4515:-5.8181117180704138e-03
4516:-5.9739505934198196e-02
4517:-4.6137960654689315e-02
4518:-2.9865627547035565e-02
4519:-1.8468151056957531e-02
4520:-7.6292447579485903e-02
4521:-6.2522857549683397e-02
4522:-4.5923201578093036e-02
4523:-3.4192214468122435e-02
4524:-8.8186736549331318e-02
4525:-7.4353993160409415e-02
4526:-5.7571655894267340e-02
4527:-4.5637803191788590e-02
4528:-2.8530568170348491e-04
4529:9.4868050451650220e-03
4530:2.1092747582037556e-02
4531:2.9143114217240487e-02
4532:-1.2754688667299854e-02
4533:-2.6230673800578929e-03
4534:9.4768224241854326e-03
4535:1.7914095804960849e-02
4536:-2.8273844315746078e-02
4537:-1.7744220353526050e-02
4538:-5.1105274241185000e-03
4539:3.7430234140511396e-03
4540:-3.9594617896527746e-02
4541:-2.8825932761177515e-02
4542:-1.5870769903313906e-02
4543:-6.7588556700794947e-03
4544:3.3145331594085815e-02
4545:4.0164856978051368e-02
4546:4.8396818040585883e-02
4547:5.4021568495418622e-02
4548:2.2122159171917434e-02
4549:2.9524767715660899e-02
4550:3.8255090834611531e-02
4551:4.4265281897293715e-02
4552:8.1746475723150532e-03
4553:1.6006008497538759e-02
4554:2.5315282160037055e-02
4555:3.1784199677596527e-02
4556:-2.1837185953804254e-03
4557:5.9313698451555659e-03
4558:1.5634802267476367e-02
4559:2.2419622141138480e-02
4560:5.6787278635813766e-02
4561:6.1609309833501762e-02
4562:6.7210441848488262e-02
4563:7.0991865661193240e-02
4564:4.7238612178491526e-02
4565:5.2447872424494751e-02
4566:5.8545143795300937e-02
4567:6.2697137357372437e-02
4568:3.5006540534876160e-02
4569:4.0677846664349815e-02
4570:4.7364193279439394e-02
4571:5.1956488586798709e-02
4572:2.5813312795899147e-02
4573:3.1801940516499289e-02
4574:3.8894045774987118e-02
4575:4.3792750178061196e-02
4576:7.2832837682355975e-02
4577:7.6000816965839005e-02
4578:7.9592899488423283e-02
4579:8.1943888935936043e-02
4580:6.4731288791749803e-02
4581:6.8252680841953420e-02
4582:7.2289835217324822e-02
4583:7.4971442581359696e-02
4584:5.4221187842130557e-02
4585:5.8168693297803560e-02
4586:6.2749783372467810e-02
4587:6.5839523976876146e-02
4588:4.6219641823579259e-02
4589:5.0469707281633233e-02
4590:5.5440856748329284e-02
4591:5.8824865488575920e-02
4592:8.3059851363883011e-02
4593:8.4934347625549481e-02
4594:8.6964699460240769e-02
4595:8.8210365623543049e-02
4596:7.6260266915951141e-02
4597:7.8450775688349184e-02
4598:8.0876202927572596e-02
4599:8.2411170071582218e-02
4600:6.7342614802154574e-02
4601:6.9924686692368315e-02
4602:7.2839823481050336e-02
4603:7.4734258508454526e-02
4604:6.0482604039121007e-02
4605:6.3347538792484129e-02
4606:6.6617614571990114e-02
4607:6.8774114849412538e-02
4608:8.8767601807547961e-02
4609:8.9635805578670805e-02
4610:9.0429908659744082e-02
4611:9.0783815774818005e-02
4612:8.3117691291820700e-02
4613:8.4256789743550164e-02
4614:8.5387129137718870e-02
4615:8.5986424753452972e-02
4616:7.5626840229654532e-02
4617:7.7105219365607741e-02
4618:7.8659564302748688e-02
4619:7.9570105889444978e-02
4620:6.9803061456513465e-02
4621:7.1531189833853107e-02
4622:7.3399322432897207e-02
4623:7.4541124888117649e-02
4624:9.0884386675812237e-02
4625:9.0923878932956642e-02
4626:9.0688014108844764e-02
4627:9.0289100843061451e-02
4628:8.6213627366765008e-02
4629:8.6482670317235527e-02
4630:8.6530678808058745e-02
4631:8.6337658506268150e-02
4632:7.9958411445509678e-02
4633:8.0519886664538548e-02
4634:8.0930413773744048e-02
4635:8.1001203525746981e-02
4636:7.5049350668140100e-02
4637:7.5828901861400649e-02
4638:7.6510728000690809e-02
4639:7.6779845791928980e-02
4640:9.0000189513503442e-02
4641:8.9321575546626994e-02
4642:8.8170066728195717e-02
4643:8.7083822645059594e-02
4644:8.6154433226712734e-02
4645:8.5667026137670341e-02
4646:8.4751684559386684e-02
4647:8.3836788432959858e-02
4648:8.0953774850023932e-02
4649:8.0712889148599004e-02
4650:8.0103592952167832e-02
4651:7.9411848253784639e-02
4652:7.6834872851338332e-02
4653:7.6780561562002497e-02
4654:7.6403905432046920e-02
4655:7.5882487610508420e-02
4656:8.6432872314313014e-02
4657:8.5076275076837710e-02
4658:8.3039856164990405e-02
4659:8.1273452921140424e-02
4660:8.3273904703342894e-02
4661:8.2076995123875257e-02
4662:8.0238489577873787e-02
4663:7.8616162709646581e-02
4664:7.8964014668405205e-02
4665:7.7976258303455365e-02
4666:7.6398058418238143e-02
4667:7.4966122020840881e-02
4668:7.5522693728171914e-02
4669:7.4695408026862156e-02
4670:7.3317796090330400e-02
4671:7.2033286513121450e-02
4672:8.0258496271653545e-02
4673:7.8208805036658419e-02
4674:7.5245527149598784e-02
4675:7.2750045373910763e-02
4676:7.7675444107993902e-02
4677:7.5761221995275088e-02
4678:7.2967792658791275e-02
4679:7.0597630391491459e-02
4680:7.4123844365106287e-02
4681:7.2389911332806811e-02
4682:6.9823789853164953e-02
4683:6.7622297309844218e-02
4684:7.1267501978616074e-02
4685:6.9674119855885744e-02
4686:6.7286072913838965e-02
4687:6.5217367079641583e-02
4688:7.1339169435824343e-02
4689:6.8525904295469287e-02
4690:6.4523049042682648e-02
4691:6.1196143299922928e-02
4692:6.9252001278965525e-02
4693:6.6559495677961780e-02
4694:6.2711591565512204e-02
4695:5.9501876123218542e-02
4696:6.6364816620313655e-02
4697:6.3836021315817892e-02
4698:6.0199272046764424e-02
4699:5.7150086234512211e-02
4700:6.4029506747596179e-02
4701:6.1630412742256682e-02
4702:5.8161733775523805e-02
4703:5.5240915840823308e-02
4704:5.9329123362579096e-02
4705:5.5628266242539574e-02
4706:5.0402293271194686e-02
4707:4.6086565311901820e-02
4708:5.7696960919091350e-02
4709:5.4113661736132919e-02
4710:4.9043917303450410e-02
4711:4.4850608839697291e-02
4712:5.5430532524212928e-02
4713:5.2009283256952928e-02
4714:4.7155752598938235e-02
4715:4.3132473460486181e-02
4716:5.3589826130750549e-02
4717:5.0298863028756816e-02
4718:4.5619734686473103e-02
4719:4.1734004931569632e-02
4720:4.3673504779745534e-02
4721:3.8903756108907624e-02
4722:3.2192825083084610e-02
4723:2.6667924181763048e-02
4724:4.2503999898157493e-02
4725:3.7863521083432355e-02
4726:3.1331325791058455e-02
4727:2.5951752891176131e-02
4728:4.0878349942666377e-02
4729:3.6417984286865213e-02
4730:3.0135124433128109e-02
4731:2.4958456791717376e-02
4732:3.9554824897866693e-02
4733:3.5240537403115918e-02
4734:2.9160088881544918e-02
4735:2.4148250463811811e-02
4736:2.3584420145318741e-02
4737:1.7500505778226424e-02
4738:8.9614607075604140e-03
4739:1.9464470147647899e-03
4740:2.2948985339843658e-02
4741:1.7025744789828014e-02
4742:8.7157699826841805e-03
4743:1.8920279982709118e-03
4744:2.2068446486326075e-02
4745:1.6369452385940508e-02
4746:8.3787930885716195e-03
4747:1.8213419729141956e-03
4748:2.1349858306969408e-02
4749:1.5832950748250724e-02
4750:8.1012788605226895e-03
4751:1.7595619739862749e-03
4752:-1.3449251593993843e-02
4753:-8.4733858981533100e-02
4754:-1.7331429690699757e-01
4755:-2.3759188755729210e-01
4756:-1.2223617659087841e-02
4757:-7.8611435835526169e-02
4758:-1.6048147128389345e-01
4759:-2.1958404023660066e-01
4760:-1.4030546188102391e-02
4761:-7.2402390808711012e-02
4762:-1.4560057253098019e-01
4763:-1.9948365184073538e-01
4764:-1.5738912805059759e-02
4765:-6.8549714133424366e-02
4766:-1.3638577222769693e-01
4767:-1.8748405199011275e-01
4768:-2.7051089270732465e-01
4769:-3.2982846691210566e-01
4770:-4.0176761887317025e-01
4771:-4.5210357139370388e-01
4772:-2.4979603468956793e-01
4773:-3.0425885504530947e-01
4774:-3.7093922031435600e-01
4775:-4.1865125365024047e-01
4776:-2.2739095251957425e-01
4777:-2.7768010939344540e-01
4778:-3.3940195480704438e-01
4779:-3.8401410224155841e-01
4780:-2.1430355066530143e-01
4781:-2.6261645714360765e-01
4782:-3.2166739700762115e-01
4783:-3.6408086152772595e-01
4784:-4.7699300516249332e-01
4785:-5.1919391434053952e-01
4786:-5.6574288380986559e-01
4787:-5.9534743275031521e-01
4788:-4.4281901560895703e-01
4789:-4.8495672706210352e-01
4790:-5.3309715980220418e-01
4791:-5.6441311417840856e-01
4792:-4.0688845173415328e-01
4793:-4.4747557595309306e-01
4794:-4.9492097273145691e-01
4795:-5.2632614282856804e-01
4796:-3.8571477901171169e-01
4797:-4.2403031376886002e-01
4798:-4.6885880953159087e-01
4799:-4.9870851649745890e-01
4800:-6.0909802967170901e-01
4801:-6.3107489218648216e-01
4802:-6.5236727360054070e-01
4803:-6.6317002414133308e-01
4804:-5.7901849689629292e-01
4805:-6.0241368023410213e-01
4806:-6.2516874645401110e-01
4807:-6.3675581682096494e-01
4808:-5.4108434759270796e-01
4809:-5.6493327330949905e-01
4810:-5.8858101776956173e-01
4811:-6.0104705361283695e-01
4812:-5.1285285861059038e-01
4813:-5.3599376222111406e-01
4814:-5.5957273070966895e-01
4815:-5.7262617915695047e-01
4816:-6.6703988413056192e-01
4817:-6.7121284835412220e-01
4818:-6.7045294821945800e-01
4819:-6.6489552943597996e-01
4820:-6.4089970711725763e-01
4821:-6.4521293937314339e-01
4822:-6.4454615346663102e-01
4823:-6.3961787053999331e-01
4824:-6.0570889946489914e-01
4825:-6.1098471333605331e-01
4826:-6.1184903009400593e-01
4827:-6.0860099525325984e-01
4828:-5.7782101589851531e-01
4829:-5.8442743238652095e-01
4830:-5.8747633747129580e-01
4831:-5.8607322079604829e-01
4832:-6.6014454509387688e-01
4833:-6.4863729174666085e-01
4834:-6.2922728209729972e-01
4835:-6.1147303351053894e-01
4836:-6.3558796472839774e-01
4837:-6.2618024686988227e-01
4838:-6.1035618903775102e-01
4839:-5.9543722037187818e-01
4840:-6.0572563885069264e-01
4841:-5.9881243844115473e-01
4842:-5.8654264767059616e-01
4843:-5.7429568420961974e-01
4844:-5.8418062214447253e-01
4845:-5.7894114005932218e-01
4846:-5.6863101695254636e-01
4847:-5.5784440912275124e-01
4848:-6.0115508856767907e-01
4849:-5.8057424190941331e-01
4850:-5.5138114121870530e-01
4851:-5.2720459577690315e-01
4852:-5.8648960524293670e-01
4853:-5.6810434933619858e-01
4854:-5.4135151465622500e-01
4855:-5.1901437601827061e-01
4856:-5.6667756041657313e-01
4857:-5.5072678726548119e-01
4858:-5.2720017378897310e-01
4859:-5.0749854817625750e-01
4860:-5.5103625952936874e-01
4861:-5.3680512757280463e-01
4862:-5.1582774435299550e-01
4863:-4.9821075668676590e-01
4864:-5.1372452250145717e-01
4865:-4.8813381744737860e-01
4866:-4.5448734549951103e-01
4867:-4.2864454773894867e-01
4868:-5.0658813586903129e-01
4869:-4.8307494123160738e-01
4870:-4.5212991219495180e-01
4871:-4.2817622451208776e-01
4872:-4.9655673332109090e-01
4873:-4.7572210046093383e-01
4874:-4.4792864747742211e-01
4875:-4.2605664097187435e-01
4876:-4.8838383363568011e-01
4877:-4.6943712743533278e-01
4878:-4.4373696221673786e-01
4879:-4.2325171018937463e-01
4880:-4.1490224034617523e-01
4881:-3.8930895569568708e-01
4882:-3.5632630727264702e-01
4883:-3.3136647965888766e-01
4884:-4.1532511500878405e-01
4885:-3.9119105320678599e-01
4886:-3.5981689041730913e-01
4887:-3.3597147086628298e-01
4888:-4.1418400957735024e-01
4889:-3.9178867902079145e-01
4890:-3.6256937940995709e-01
4891:-3.4032966946908993e-01
4892:-4.1206700283082137e-01
4893:-3.9098402905639523e-01
4894:-3.6349308811273440e-01
4895:-3.4254567253276380e-01
4896:-3.1820068062047197e-01
4897:-2.9411705936778565e-01
4898:-2.6400093718007028e-01
4899:-2.4192962926452205e-01
4900:-3.2338855108813902e-01
4901:-3.0036454225464332e-01
4902:-2.7149577470567204e-01
4903:-2.5021962402405351e-01
4904:-3.2859172968452000e-01
4905:-3.0701748308769738e-01
4906:-2.7973283941583338e-01
4907:-2.5942080597524581e-01
4908:-3.3146651633211094e-01
4909:-3.1098101115803356e-01
4910:-2.8484794063022506e-01
4911:-2.6524760215721893e-01
4912:-2.3052923721624013e-01
4913:-2.0981555760634876e-01
4914:-1.8409617933321568e-01
4915:-1.6536040880142386e-01
4916:-2.3917018122589731e-01
4917:-2.1900004461570771e-01
4918:-1.9381675369894499e-01
4919:-1.7540226917383123e-01
4920:-2.4879692380099117e-01
4921:-2.2934450744266296e-01
4922:-2.0497556680971554e-01
4923:-1.8710906323793899e-01
4924:-2.5495619378581463e-01
4925:-2.3610184461981071e-01
4926:-2.1245645698286880e-01
4927:-1.9508460717215753e-01
4928:-1.5572048253774148e-01
4929:-1.3836622847783667e-01
4930:-1.1715666151746643e-01
4931:-1.0197206090531705e-01
4932:-1.6591451028346421e-01
4933:-1.4881199927175531e-01
4934:-1.2784375044279625e-01
4935:-1.1275902876974270e-01
4936:-1.7788933266876508e-01
4937:-1.6120892898432898e-01
4938:-1.4062346744082874e-01
4939:-1.2570227483052743e-01
4940:-1.8610077621478116e-01
4941:-1.6978331049406334e-01
4942:-1.4952749442318042e-01
4943:-1.3476522724602188e-01
4944:-9.4249472847044477e-02
4945:-8.0397670583984060e-02
4946:-6.3538648274572840e-02
4947:-5.1517929260421931e-02
4948:-1.0505497911935356e-01
4949:-9.1189268962469622e-02
4950:-7.4237839409298165e-02
4951:-6.2105515320023272e-02
4952:-1.1804125561657913e-01
4953:-1.0421494699415729e-01
4954:-8.7249977972428144e-02
4955:-7.5064636117046585e-02
4956:-1.2716215466773470e-01
4957:-1.1342392245899631e-01
4958:-9.6533214755272059e-02
4959:-8.4368436001151334e-02
4960:-4.5422390708129881e-02
4961:-3.4552934353798102e-02
4962:-2.1457593213007550e-02
4963:-1.2226795131429382e-02
4964:-5.5940986709744796e-02
4965:-4.4928349655653635e-02
4966:-3.1613447579661690e-02
4967:-2.2183611151681343e-02
4968:-6.8858346248919011e-02
4969:-5.7734170910325712e-02
4970:-4.4207467346288956e-02
4971:-3.4565183878553812e-02
4972:-7.8158330012326069e-02
4973:-6.6993640717470090e-02
4974:-5.3354811747179529e-02
4975:-4.3587869627698020e-02
4976:-7.5828885943488812e-03
4977:6.7034328571160000e-04
4978:1.0567396126330043e-02
4979:1.7507058533534257e-02
4980:-1.7421540189925630e-02
4981:-8.9327084713294626e-03
4982:1.2912260315445061e-03
4983:8.4910370780438803e-03
4984:-2.9673330359934792e-02
4985:-2.0928178056136233e-02
4986:-1.0351081201378705e-02
4987:-2.8686799789403605e-03
4988:-3.8618538059693376e-02
4989:-2.9720314144248781e-02
4990:-1.8929165574893235e-02
4991:-1.1270146030930695e-02
4992:2.0984234462024094e-02
4993:2.7127781953090010e-02
4994:3.4419715612300797e-02
4995:3.9471406728881803e-02
4996:1.2108550868256195e-02
4997:1.8515961356156227e-02
4998:2.6154823617686118e-02
4999:3.1476311850293509e-02
5000:9.0298119153121880e-04
5001:7.6069035219024639e-03
5002:1.5646787796156379e-02
5003:2.1286204283293291e-02
5004:-7.3994306044533470e-03
5005:-5.0032649129335739e-04
5006:7.8099881704004658e-03
5007:1.3666473098834616e-02
5008:4.1980186247255059e-02
5009:4.6383724453105575e-02
5010:5.1553416890680888e-02
5011:5.5087281922734287e-02
5012:3.4130579670217251e-02
5013:3.8806436092829973e-02
5014:4.4327717372254632e-02
5015:4.8126824298284167e-02
5016:2.4113154952634022e-02
5017:2.9111799472970840e-02
5018:3.5049718575068160e-02
5019:3.9164180596330055e-02
5020:1.6611608821768802e-02
5021:2.1831397147565351e-02
5022:2.8056237048884467e-02
5023:3.2389968059423166e-02
5024:5.6823689397626088e-02
5025:5.9832764666937786e-02
5026:6.3284509908144784e-02
5027:6.5575963385662420e-02
5028:5.0002606593796795e-02
5029:5.3268340509897677e-02
5030:5.7046026002143584e-02
5031:5.9581230738404954e-02
5032:4.1206433578359090e-02
5033:4.4781145627025835e-02
5034:4.8955367175204996e-02
5035:5.1789583415642014e-02
5036:3.4548987372335888e-02
5037:3.8342051119637600e-02
5038:4.2798925352917107e-02
5039:4.5847505961677019e-02
5040:6.6675468017205933e-02
5041:6.8533126844976588e-02
5042:7.0564398559024868e-02
5043:7.1826617229349174e-02
5044:6.0808632099659900e-02
5045:6.2901189932898297e-02
5046:6.5228499138336934e-02
5047:6.6709494312651260e-02
5048:5.3174485957222017e-02
5049:5.5556605750754343e-02
5050:5.8249606749192794e-02
5051:6.0001767987804183e-02
5052:4.7345567264039268e-02
5053:4.9936118185993660e-02
5054:5.2893412610505709e-02
5055:5.4842642321280083e-02
5056:7.2397320356630254e-02
5057:7.3290671651630335e-02
5058:7.4114514511910701e-02
5059:7.4487843492627659e-02
5060:6.7393856350114675e-02
5061:6.8494803941197918e-02
5062:6.9578812494582240e-02
5063:7.0143819932581258e-02
5064:6.0827446299220565e-02
5065:6.2187574550349185e-02
5066:6.3598316398878654e-02
5067:6.4405324498527289e-02
5068:5.5771486261787136e-02
5069:5.7321561872268938e-02
5070:5.8972981719283536e-02
5071:5.9959019697721716e-02
5072:7.4596856123885488e-02
5073:7.4641034325784880e-02
5074:7.4387486001247102e-02
5075:7.3956405175390608e-02
5076:7.0352369491338565e-02
5077:7.0578365880450009e-02
5078:7.0552519517711243e-02
5079:7.0288899010133257e-02
5080:6.4739924135294558e-02
5081:6.5196632041638017e-02
5082:6.5460677763352126e-02
5083:6.5411083515810695e-02
5084:6.0387090838727717e-02
5085:6.1015278061724999e-02
5086:6.1495646357506192e-02
5087:6.1606494716685702e-02
5088:7.3643371592008608e-02
5089:7.2901472528876035e-02
5090:7.1630920580288068e-02
5091:7.0425361802253672e-02
5092:7.0062694636245815e-02
5093:6.9479706702646596e-02
5094:6.8409095751886653e-02
5095:6.7351498338745416e-02
5096:6.5296180499026385e-02
5097:6.4917559888300391e-02
5098:6.4105346608699945e-02
5099:6.3239892100245304e-02
5100:6.1575308432271394e-02
5101:6.1350878333305769e-02
5102:6.0734486813834691e-02
5103:6.0015266255852469e-02
5104:6.9700637843291086e-02
5105:6.8182851104900882e-02
5106:6.5890860814401486e-02
5107:6.3893990754198396e-02
5108:6.6703900703597899e-02
5109:6.5328372413144709e-02
5110:6.3217657149980719e-02
5111:6.1356753527434568e-02
5112:6.2692760159842917e-02
5113:6.1503045068941622e-02
5114:5.9630101684995857e-02
5115:5.7948322677569615e-02
5116:5.9544803395960064e-02
5117:5.8497269397891696e-02
5118:5.6807023450012019e-02
5119:5.5263472850277266e-02
5120:6.2743866263451839e-02
5121:6.0415209140819784e-02
5122:5.7038068557887484e-02
5123:5.4187365165396940e-02
5124:6.0278198034134131e-02
5125:5.8083408342604378e-02
5126:5.4880769958471590e-02
5127:5.2164117564782467e-02
5128:5.6964335664956949e-02
5129:5.4946945761869856e-02
5130:5.1976522507474109e-02
5131:4.9438960244717924e-02
5132:5.4352675288167271e-02
5133:5.2472937201137868e-02
5134:4.9683363015469030e-02
5135:4.7285756835344306e-02
5136:5.2573738750932554e-02
5137:4.9354167709266615e-02
5138:4.4770784785691464e-02
5139:4.0960694368430493e-02
5140:5.0622246647226386e-02
5141:4.7539609959096694e-02
5142:4.3140223075236628e-02
5143:3.9475738537934867e-02
5144:4.7993187454499743e-02
5145:4.5094294409169511e-02
5146:4.0942447094190024e-02
5147:3.7474312451890583e-02
5148:4.5915242172464260e-02
5149:4.3160493414714111e-02
5150:3.9203290269990525e-02
5151:3.5889869944617792e-02
5152:3.8822765512550664e-02
5153:3.4588923500928057e-02
5154:2.8620002437469032e-02
5155:2.3699017841153257e-02
5156:3.7417296828026511e-02
5157:3.3338554135556468e-02
5158:2.7584791971131620e-02
5159:2.2839157272882462e-02
5160:3.5523204163321540e-02
5161:3.1654048131108205e-02
5162:2.6191255316194515e-02
5163:2.1682876548508690e-02
5164:3.4023436127212273e-02
5165:3.0319715034960334e-02
5166:2.5086726917956055e-02
5167:2.0765799040205389e-02
5168:2.0951131479646858e-02
5169:1.5534559022378517e-02
5170:7.9454941245887829e-03
5171:1.7224831187856813e-03
5172:2.0188761883085705e-02
5173:1.4965796221731565e-02
5174:7.6517314493347267e-03
5175:1.6574815241087030e-03
5176:1.9164410962661877e-02
5177:1.4203309897561434e-02
5178:7.2608678201622938e-03
5179:1.5754762659626578e-03
5180:1.8351577362545002e-02
5181:1.3597284371720347e-02
5182:6.9480847420686489e-03
5183:1.5062050438544730e-03
5184:-1.6076568059302413e-02
5185:-6.6665831969076314e-02
5186:-1.3242004253952108e-01
5187:-1.8243016979328183e-01
5188:-1.5336467734343042e-02
5189:-6.3105869787160027e-02
5190:-1.2572886739033665e-01
5191:-1.7360584939277846e-01
5192:-1.2872331519960646e-02
5193:-5.8475605832146289e-02
5194:-1.1766306128269134e-01
5195:-1.6240950583087588e-01
5196:-1.0929591963638789e-02
5197:-5.5045596778200437e-02
5198:-1.1145764850796483e-01
5199:-1.5354363868393561e-01
5200:-2.0880518536003961e-01
5201:-2.5632152801392033e-01
5202:-3.1421212255702979e-01
5203:-3.5549695830754041e-01
5204:-1.9889918409310717e-01
5205:-2.4452490463916102e-01
5206:-3.0000438069560187e-01
5207:-3.3926525893688092e-01
5208:-1.8588261527383376e-01
5209:-2.2837170465550868e-01
5210:-2.8029361925245549e-01
5211:-3.1711475935608091e-01
5212:-1.7546772969775862e-01
5213:-2.1529332404940207e-01
5214:-2.6434544577612029e-01
5215:-2.9946103010118225e-01
5216:-3.7640374361467138e-01
5217:-4.1319411337030215e-01
5218:-4.5600342057472054e-01
5219:-4.8453257134267619e-01
5220:-3.5896681174107831e-01
5221:-3.9330938637644236e-01
5222:-4.3296621490958842e-01
5223:-4.5947566872711554e-01
5224:-3.3557766740721046e-01
5225:-3.6766607460720030e-01
5226:-4.0472057342152956e-01
5227:-4.2968886722067379e-01
5228:-3.1719638719221316e-01
5229:-3.4820311206590498e-01
5230:-3.8431768683887896e-01
5231:-4.0885896161585294e-01
5232:-4.9812776209257265e-01
5233:-5.2056951691389486e-01
5234:-5.4387951274280211e-01
5235:-5.5721563759857595e-01
5236:-4.7224152801532981e-01
5237:-4.9361560858814885e-01
5238:-5.1647257347069719e-01
5239:-5.3017462212264055e-01
5240:-4.4184702998094122e-01
5241:-4.6242907514822434e-01
5242:-4.8490614048800679e-01
5243:-4.9880794838636328e-01
5244:-4.2087011578518851e-01
5245:-4.4125603954203602e-01
5246:-4.6361347180370022e-01
5247:-4.7752009602176271e-01
5248:-5.6273294678602293e-01
5249:-5.7021726525613403e-01
5250:-5.7470791163554813e-01
5251:-5.7442087428283883e-01
5252:-5.3613905207158696e-01
5253:-5.4489466227492178e-01
5254:-5.5154902376760306e-01
5255:-5.5299115083119399e-01
5256:-5.0505338308718106e-01
5257:-5.1468835365959908e-01
5258:-5.2300458306644282e-01
5259:-5.2594331610107148e-01
5260:-4.8380171254366799e-01
5261:-4.9360897139081400e-01
5262:-5.0242016427850800e-01
5263:-5.0599873241296622e-01
5264:-5.7305836347377226e-01
5265:-5.6861400922458949e-01
5266:-5.5912974131178084e-01
5267:-5.4899031984251867e-01
5268:-5.5247591109062155e-01
5269:-5.4938654137310006e-01
5270:-5.4147090832195532e-01
5271:-5.3263383141621656e-01
5272:-5.2625101432997112e-01
5273:-5.2470203467250653e-01
5274:-5.1891129384871737e-01
5275:-5.1190994425481362e-01
5276:-5.0675533720456711e-01
5277:-5.0624097093551379e-01
5278:-5.0209809678109651e-01
5279:-4.9651759545631174e-01
5280:-5.4258674528752304e-01
5281:-5.2927240098184680e-01
5282:-5.0967897179475308e-01
5283:-4.9315035888494319e-01
5284:-5.2703347338898510e-01
5285:-5.1541442114022595e-01
5286:-4.9821060635634001e-01
5287:-4.8348279661108640e-01
5288:-5.0738828311884676e-01
5289:-4.9783647407053983e-01
5290:-4.8329139058083187e-01
5291:-4.7048898557826030e-01
5292:-4.9278103363602843e-01
5293:-4.8462515396664335e-01
5294:-4.7176819376013918e-01
5295:-4.6019741865823255e-01
5296:-4.8387481064576499e-01
5297:-4.6583526571922296e-01
5298:-4.4113448265491445e-01
5299:-4.2134586562717946e-01
5300:-4.7510497742771818e-01
5301:-4.5860048952872307e-01
5302:-4.3571477412254445e-01
5303:-4.1727278244267357e-01
5304:-4.6307745817149837e-01
5305:-4.4835178964789979e-01
5306:-4.2777988371016867e-01
5307:-4.1114447653395259e-01
5308:-4.5343614082506528e-01
5309:-4.3999109050660395e-01
5310:-4.2117906759854634e-01
5311:-4.0592051823995506e-01
5312:-4.1053080403723974e-01
5313:-3.9016991740370882e-01
5314:-3.6363036951184768e-01
5315:-3.4337211518814331e-01
5316:-4.0718779312544390e-01
5317:-3.8820036767333771e-01
5318:-3.6338255684458270e-01
5319:-3.4432522705288970e-01
5320:-4.0203897874509920e-01
5321:-3.8480701793098659e-01
5322:-3.6206659242351691e-01
5323:-3.4441376984154559e-01
5324:-3.9754161719070352e-01
5325:-3.8156749817568891e-01
5326:-3.6027273566910178e-01
5327:-3.4360551069547768e-01
5328:-3.3263054446854595e-01
5329:-3.1269532402464584e-01
5330:-2.8714806606029847e-01
5331:-2.6792818477637614e-01
5332:-3.3416248234286566e-01
5333:-3.1520043032393485e-01
5334:-2.9075205272321897e-01
5335:-2.7228848313889326e-01
5336:-3.3492912290128229e-01
5337:-3.1716797486528864e-01
5338:-2.9417832353330553e-01
5339:-2.7676757147290754e-01
5340:-3.3461344683696442e-01
5341:-3.1776274598600496e-01
5342:-2.9592331194346649e-01
5343:-2.7934731458553957e-01
5344:-2.5782586265711455e-01
5345:-2.3931857100286508e-01
5346:-2.1609422484784876e-01
5347:-1.9900296148168864e-01
5348:-2.6257178985211654e-01
5349:-2.4475226306175846e-01
5350:-2.2232770056603582e-01
5351:-2.0575143254956052e-01
5352:-2.6759143983855332e-01
5353:-2.5070308606674302e-01
5354:-2.2931509959014554e-01
5355:-2.1339175035430413e-01
5356:-2.7059206627015153e-01
5357:-2.5441258909295089e-01
5358:-2.3380081515760592e-01
5359:-2.1837419999981270e-01
5360:-1.9014811623959704e-01
5361:-1.7402815570751673e-01
5362:-1.5395708623092114e-01
5363:-1.3929457372597298e-01
5364:-1.9712997882672773e-01
5365:-1.8138148709720076e-01
5366:-1.6168856635088963e-01
5367:-1.4725383074108153e-01
5368:-2.0506860617300920e-01
5369:-1.8982322378877794e-01
5370:-1.7069257566653193e-01
5371:-1.5662540256893895e-01
5372:-2.1028706093281299e-01
5373:-1.9545727615157946e-01
5374:-1.7681368179058163e-01
5375:-1.6307136880095516e-01
5376:-1.3173448094042933e-01
5377:-1.1806736543172752e-01
5378:-1.0124576454020587e-01
5379:-8.9109813341831767e-02
5380:-1.3979902650543041e-01
5381:-1.2630252274706030e-01
5382:-1.0964273097389798e-01
5383:-9.7576912310437483e-02
5384:-1.4934585766107994e-01
5385:-1.3612764453157331e-01
5386:-1.1972918845200470e-01
5387:-1.0778596872754527e-01
5388:-1.5594538079529630e-01
5389:-1.4296905730162274e-01
5390:-1.2680193964333342e-01
5391:-1.1497918349926300e-01
5392:-8.2904746403164087e-02
5393:-7.1730481801443632e-02
5394:-5.8047904764895103e-02
5395:-4.8228905459491302e-02
5396:-9.1388422752897283e-02
5397:-8.0214995551831564e-02
5398:-6.6484416765465904e-02
5399:-5.6598708016646189e-02
5400:-1.0163640500840093e-01
5401:-9.0506025638631638e-02
5402:-7.6780994945962924e-02
5403:-6.6864712219110126e-02
5404:-1.0887669256525935e-01
5405:-9.7816456052439188e-02
5406:-8.4148082028097551e-02
5407:-7.4246879948007577e-02
5408:-4.3227112838232877e-02
5409:-3.4263829303072389e-02
5410:-2.3378418000502152e-02
5411:-1.5638092618439639e-02
5412:-5.1553199784748129e-02
5413:-4.2496079729332642e-02
5414:-3.1463276744287928e-02
5415:-2.3588776757997313e-02
5416:-6.1791635248541220e-02
5417:-5.2660489470970351e-02
5418:-4.1487816940973754e-02
5419:-3.3473741075583242e-02
5420:-6.9171239375930491e-02
5421:-6.0014544883829499e-02
5422:-4.8771254373498808e-02
5423:-4.0677784450711678e-02
5424:-1.1720345216510053e-02
5425:-4.7272295450391712e-03
5426:3.7147542307718242e-03
5427:9.6772171132019809e-03
5428:-1.9591668676573953e-02
5429:-1.2440001989076499e-02
5430:-3.7762293173968179e-03
5431:2.3649955038272555e-03
5432:-2.9391523019123008e-02
5433:-2.2069508394608608e-02
5434:-1.3166131039661419e-02
5435:-6.8294746646005303e-03
5436:-3.6545636929526705e-02
5437:-2.9122435954311885e-02
5438:-2.0073226021274142e-02
5439:-1.3613857477041625e-02
5440:1.2679966875504867e-02
5441:1.8007895019968256e-02
5442:2.4374169806544256e-02
5443:2.8817174382671857e-02
5444:5.4652202298370849e-03
5445:1.0978004890298794e-02
5446:1.7589619161092394e-02
5447:2.2224486927762264e-02
5448:-3.6214145187207824e-03
5449:2.0995812448182053e-03
5450:8.9938025040632880e-03
5451:1.3853299709555430e-02
5452:-1.0336463136679236e-02
5453:-4.4789116117866061e-03
5454:2.6046478604065540e-03
5455:7.6166233708958786e-03
5456:3.1034873514875043e-02
5457:3.4938129946867603e-02
5458:3.9538217066142925e-02
5459:4.2695633019391256e-02
5460:2.4545843641997387e-02
5461:2.8643847989337848e-02
5462:3.3497196845840745e-02
5463:3.6847367162045133e-02
5464:1.6296875190825653e-02
5465:2.0624801660913340e-02
5466:2.5778027017318423e-02
5467:2.9357571477276839e-02
5468:1.0143547653560367e-02
5469:1.4628775742887665e-02
5470:1.9988566236672663e-02
5471:2.3727586138678734e-02
5472:4.4251171860532186e-02
5473:4.6947807397015429e-02
5474:5.0040173874753471e-02
5475:5.2090633868579837e-02
5476:3.8504879261384288e-02
5477:4.1390493093434823e-02
5478:4.4724935203784379e-02
5479:4.6957813689325903e-02
5480:3.1136999692501784e-02
5481:3.4250010019647448e-02
5482:3.7878305267704970e-02
5483:4.0334246303007013e-02
5484:2.5592411244599111e-02
5485:2.8865727585255092e-02
5486:3.2702821904947964e-02
5487:3.5318223707079092e-02
5488:5.3072673183394453e-02
5489:5.4720916265107902e-02
5490:5.6497066286703687e-02
5491:5.7576092312726229e-02
5492:4.8036007049359536e-02
5493:4.9861899149063763e-02
5494:5.1864156958337231e-02
5495:5.3112100728953907e-02
5496:4.1530469763613520e-02
5497:4.3574865926671598e-02
5498:4.5856167229844105e-02
5499:4.7313436974406729e-02
5500:3.6599074143504579e-02
5501:3.8800553072321220e-02
5502:4.1283397718346403e-02
5503:4.2892693523259431e-02
5504:5.8052771734263472e-02
5505:5.8770294613745659e-02
5506:5.9363711201959678e-02
5507:5.9558697506201103e-02
5508:5.3677228045921260e-02
5509:5.4557712556306412e-02
5510:5.5358127026337467e-02
5511:5.5707737977685017e-02
5512:4.7988526506028223e-02
5513:4.9072379201062215e-02
5514:5.0132532489663498e-02
5515:5.0677154476424520e-02
5516:4.3647973931629898e-02
5517:4.4880682267008615e-02
5518:4.6131916792579455e-02
5519:4.6820658140876235e-02
5520:5.9571521358752204e-02
5521:5.9428303566389937e-02
5522:5.8915326632047779e-02
5523:5.8273529574795264e-02
5524:5.5801624938716404e-02
5525:5.5808231575683709e-02
5526:5.5486500018390075e-02
5527:5.4988251407453871e-02
5528:5.0873593176120835e-02
5529:5.1070209257815920e-02
5530:5.0991954128688101e-02
5531:5.0677214471417383e-02
5532:4.7093093093520354e-02
5533:4.7430889551740442e-02
5534:4.7534303503945087e-02
5535:4.7357100892606252e-02
5536:5.7843725299891881e-02
5537:5.6871727304937759e-02
5538:5.5278814193427964e-02
5539:5.3809116489740259e-02
5540:5.4633968195898282e-02
5541:5.3802562818908196e-02
5542:5.2391367457396795e-02
5543:5.1059960568330245e-02
5544:5.0419756356695863e-02
5545:4.9769144257619177e-02
5546:4.8592648037176299e-02
5547:4.7440596087797153e-02
5548:4.7172435594466412e-02
5549:4.6658128410193990e-02
5550:4.5659292208226600e-02
5551:4.4643521382237636e-02
5552:5.2937497034903240e-02
5553:5.1131560015568248e-02
5554:4.8439161315078604e-02
5555:4.6116912597259606e-02
5556:5.0261840496470075e-02
5557:4.8594570425640783e-02
5558:4.6085160918449934e-02
5559:4.3905116559655955e-02
5560:4.6738048887247724e-02
5561:4.5251493618821345e-02
5562:4.2981327902632961e-02
5563:4.0987776752785920e-02
5564:4.4013765647543224e-02
5565:4.2665143540290447e-02
5566:4.0578148794245671e-02
5567:3.8727802399582172e-02
5568:4.4786970929559480e-02
5569:4.2110015276417556e-02
5570:3.8258010466077408e-02
5571:3.5028314689812080e-02
5572:4.2651841088306497e-02
5573:4.0122052214937712e-02
5574:3.6469364723567099e-02
5575:3.3398510810098946e-02
5576:3.9835239497380624e-02
5577:3.7499134081502669e-02
5578:3.4109314292395880e-02
5579:3.1248323082040001e-02
5580:3.7652762384437433e-02
5581:3.5465866551591063e-02
5582:3.2278924083997310e-02
5583:2.9580152819877987e-02
5584:3.3207736245239310e-02
5585:2.9593633675993668e-02
5586:2.4485170462556907e-02
5587:2.0265835107396459e-02
5588:3.1664993014993800e-02
5589:2.8221096469151757e-02
5590:2.3349213933872279e-02
5591:1.9322932572481442e-02
5592:2.9629943743779637e-02
5593:2.6411245947941780e-02
5594:2.1852520538035901e-02
5595:1.8081853134135871e-02
5596:2.8050848648496992e-02
5597:2.5006436186881514e-02
5598:2.0690155098432139e-02
5599:1.7117426460771547e-02
5600:1.7908111920191212e-02
5601:1.3265869163603936e-02
5602:6.7754652110715479e-03
5603:1.4653815289682071e-03
5604:1.7072578043533689e-02
5605:1.2643214663555155e-02
5606:6.4543523319051917e-03
5607:1.3944127376803142e-03
5608:1.5973669512521809e-02
5609:1.1826067105106426e-02
5610:6.0360200833371657e-03
5611:1.3066663723822424e-03
5612:1.5119338932922275e-02
5613:1.1189830324838173e-02
5614:5.7082443533212363e-03
5615:1.2343837700070448e-03
5616:-1.0203296392367840e-02
5617:-5.3297562567586582e-02
5618:-1.0801155051071153e-01
5619:-1.4861250669549406e-01
5620:-9.5505017247630164e-03
5621:-5.0275603200641769e-02
5622:-1.0172565777056689e-01
5623:-1.3982687691746959e-01
5624:-9.5193666931653095e-03
5625:-4.6797987125337163e-02
5626:-9.4219151403095738e-02
5627:-1.2965108122624133e-01
5628:-9.6032591832634819e-03
5629:-4.4433354519997519e-02
5630:-8.9211864252109765e-02
5631:-1.2299916180968780e-01
5632:-1.6971703381548267e-01
5633:-2.0812795519311053e-01
5634:-2.5566651513262689e-01
5635:-2.8993169525131257e-01
5636:-1.5964198947498678e-01
5637:-1.9579247787703710e-01
5638:-2.4079665013197482e-01
5639:-2.7352439416395080e-01
5640:-1.4819756168156084e-01
5641:-1.8205870675898428e-01
5642:-2.2427857849134691e-01
5643:-2.5509094040496111e-01
5644:-1.4078096185189001e-01
5645:-1.7322141022947166e-01
5646:-2.1358762943699214e-01
5647:-2.4298920731523158e-01
5648:-3.0733968748097412e-01
5649:-3.3795054275244080e-01
5650:-3.7386146853386698e-01
5651:-3.9838291132612652e-01
5652:-2.9028444433860690e-01
5653:-3.2001791487763231e-01
5654:-3.5528508183873092e-01
5655:-3.7954340174643286e-01
5656:-2.7093165195616897e-01
5657:-2.9921332313612231e-01
5658:-3.3304535100558164e-01
5659:-3.5646908106183989e-01
5660:-2.5808832714532187e-01
5661:-2.8507040593353172e-01
5662:-3.1742427992315664e-01
5663:-3.3990288862431361e-01
5664:-4.1040002552542698e-01
5665:-4.3079169363543296e-01
5666:-4.5313844326578850e-01
5667:-4.6701871301405523e-01
5668:-3.9145657870667905e-01
5669:-4.1169959839900483e-01
5670:-4.3393896996538955e-01
5671:-4.4779702050730547e-01
5672:-3.6800885501828567e-01
5673:-3.8772273316336620e-01
5674:-4.0961496751959614e-01
5675:-4.2346550009979489e-01
5676:-3.5101434793345238e-01
5677:-3.7011391453761944e-01
5678:-3.9158448992059680e-01
5679:-4.0540229234747810e-01
5680:-4.7327855944588576e-01
5681:-4.8304733187083171e-01
5682:-4.9190753414143612e-01
5683:-4.9568560466145956e-01
5684:-4.5406223091279446e-01
5685:-4.6385881685745239e-01
5686:-4.7291947231845399e-01
5687:-4.7710177187514619e-01
5688:-4.2981199512145596e-01
5689:-4.3984414781146713e-01
5690:-4.4942457971062683e-01
5691:-4.5422970120641665e-01
5692:-4.1183068882227242e-01
5693:-4.2213576653321572e-01
5694:-4.3226027852344312e-01
5695:-4.3759618994566168e-01
5696:-4.9663146169292610e-01
5697:-4.9662434056681537e-01
5698:-4.9334442584359101e-01
5699:-4.8849185129529415e-01
5700:-4.7838855243449446e-01
5701:-4.7924383001975213e-01
5702:-4.7738094544354431e-01
5703:-4.7370884716749156e-01
5704:-4.5594502290017735e-01
5705:-4.5775902445028616e-01
5706:-4.5736475466475873e-01
5707:-4.5491218400747163e-01
5708:-4.3962437098938090e-01
5709:-4.4205656129003745e-01
5710:-4.4254443039033980e-01
5711:-4.4084330898298424e-01
5712:-4.8513803189321025e-01
5713:-4.7763863991074634e-01
5714:-4.6556643473107179e-01
5715:-4.5459524350020919e-01
5716:-4.7097702673416764e-01
5717:-4.6458722932948177e-01
5718:-4.5392536075039114e-01
5719:-4.4408120655111050e-01
5720:-4.5284265780858057e-01
5721:-4.4772724951190407e-01
5722:-4.3882784421142101e-01
5723:-4.3044202800591519e-01
5724:-4.3920736963432744e-01
5725:-4.3498746056424925e-01
5726:-4.2739162973102246e-01
5727:-4.2008142891640743e-01
5728:-4.4816961405825861e-01
5729:-4.3540273064217810e-01
5730:-4.1752638288068483e-01
5731:-4.0298111345323701e-01
5732:-4.3829359658417044e-01
5733:-4.2677394765207155e-01
5734:-4.1055102610728772e-01
5735:-3.9723210800842046e-01
5736:-4.2547405487998624e-01
5737:-4.1548476868489781e-01
5738:-4.0119333458342266e-01
5739:-3.8927577426347365e-01
5740:-4.1570178017201787e-01
5741:-4.0677357026919092e-01
5742:-3.9378620856585539e-01
5743:-3.8282299508628914e-01
5744:-3.9496651333407978e-01
5745:-3.7961455972811148e-01
5746:-3.5903665546537872e-01
5747:-3.4287478996100285e-01
5748:-3.8983770221801756e-01
5749:-3.7557190503867605e-01
5750:-3.5630002084412582e-01
5751:-3.4109333700151973e-01
5752:-3.8259335843327574e-01
5753:-3.6962920468855132e-01
5754:-3.5201121892616721e-01
5755:-3.3805275728367301e-01
5756:-3.7663963881406720e-01
5757:-3.6462203425369438e-01
5758:-3.4824588369899218e-01
5759:-3.3522752958975099e-01
5760:-3.3414557134384093e-01
5761:-3.1778828528983250e-01
5762:-2.9657398535446478e-01
5763:-2.8044366581627228e-01
5764:-3.3286801744080768e-01
5765:-3.1743759233028318e-01
5766:-2.9736459154929956e-01
5767:-2.8203071975192584e-01
5768:-3.3048737908943432e-01
5769:-3.1623771194235639e-01
5770:-2.9757199242396054e-01
5771:-2.8320536624537407e-01
5772:-3.2815181389567977e-01
5773:-3.1476108892596094e-01
5774:-2.9710405889363167e-01
5775:-2.8343676945567120e-01
5776:-2.7190777929205129e-01
5777:-2.5609513173695686e-01
5778:-2.3588782408189771e-01
5779:-2.2072867614454897e-01
5780:-2.7388381125870148e-01
5781:-2.5873563935723631e-01
5782:-2.3928923317166295e-01
5783:-2.2465178861753074e-01
5784:-2.7553306259334720e-01
5785:-2.6122329928890320e-01
5786:-2.4278266656118763e-01
5787:-2.2885687975247576e-01
5788:-2.7611561068145235e-01
5789:-2.6244324160156263e-01
5790:-2.4478791713244574e-01
5791:-2.3142148980823585e-01
5792:-2.1277363794588408e-01
5793:-1.9818013424879261e-01
5794:-1.7981547285549393e-01
5795:-1.6625726935281449e-01
5796:-2.1695877374033892e-01
5797:-2.0282686519526491e-01
5798:-1.8499478210659481e-01
5799:-1.7178214063141242e-01
5800:-2.2152358762037413e-01
5801:-2.0801320773241361e-01
5802:-1.9088189056041732e-01
5803:-1.7812061163171042e-01
5804:-2.2436832150490632e-01
5805:-2.1133605819563700e-01
5806:-1.9474039936456178e-01
5807:-1.8232933416892680e-01
5808:-1.5921664438536556e-01
5809:-1.4637498072662100e-01
5810:-1.3034022792622305e-01
5811:-1.1859209715101895e-01
5812:-1.6490103096898526e-01
5813:-1.5231823186630852e-01
5814:-1.3655302002723957e-01
5815:-1.2496825608159591e-01
5816:-1.7145014385354146e-01
5817:-1.5922306876475520e-01
5818:-1.4385273764355247e-01
5819:-1.3252215379724044e-01
5820:-1.7582688064644861e-01
5821:-1.6389209121187404e-01
5822:-1.4885802766006365e-01
5823:-1.3774860889584731e-01
5824:-1.1252200005463600e-01
5825:-1.0151354365523967e-01
5826:-8.7893367347417234e-02
5827:-7.8011988519536474e-02
5828:-1.1897269349178922e-01
5829:-1.0808346411541471e-01
5830:-9.4575794206512173e-02
5831:-8.4745034716664905e-02
5832:-1.2664599965545720e-01
5833:-1.1594758424297560e-01
5834:-1.0262357058195665e-01
5835:-9.2884261922302730e-02
5836:-1.3197657777800875e-01
5837:-1.2144502780978481e-01
5838:-1.0828626608832410e-01
5839:-9.8637152877470408e-02
5840:-7.2940209685519911e-02
5841:-6.3779090140375597e-02
5842:-5.2510138280028429e-02
5843:-4.4384328490612933e-02
5844:-7.9687095063437810e-02
5845:-7.0532324637203631e-02
5846:-5.9238295713400946e-02
5847:-5.1071451509770160e-02
5848:-8.7858316019344726e-02
5849:-7.8742006775079365e-02
5850:-6.7460234654918710e-02
5851:-5.9275984825913522e-02
5852:-9.3647822570655528e-02
5853:-8.4585738438547498e-02
5854:-7.3347288306682065e-02
5855:-6.5174941538646863e-02
5856:-4.0231351073256670e-02
5857:-3.2764968205041531e-02
5858:-2.3651143143300839e-02
5859:-1.7135267451480932e-02
5860:-4.6890111198383121e-02
5861:-3.9360987057025988e-02
5862:-3.0146393695254407e-02
5863:-2.3538201859430639e-02
5864:-5.5076566614788602e-02
5865:-4.7497954758317563e-02
5866:-3.8189135634680703e-02
5867:-3.1486726217587580e-02
5868:-6.0974252919520563e-02
5869:-5.3379632161670701e-02
5870:-4.4025161339044140e-02
5871:-3.7270495219038323e-02
5872:-1.3825146547389609e-02
5873:-7.9022913781214305e-03
5874:-7.2710227582221119e-04
5875:4.3591100247900747e-03
5876:-2.0173527210426371e-02
5877:-1.4141354046057734e-02
5878:-6.8120326105826703e-03
5879:-1.6002487095484286e-03
5880:-2.8064536818605774e-02
5881:-2.1915939527452695e-02
5882:-1.4420092793183951e-02
5883:-9.0704134738519206e-03
5884:-3.3815039977762737e-02
5885:-2.7597605790722624e-02
5886:-2.0000140631041038e-02
5887:-1.4563599250317276e-02
5888:6.9266774178227321e-03
5889:1.1488913205525256e-02
5890:1.6950613726702621e-02
5891:2.0769040902159967e-02
5892:1.0363822242211516e-03
5893:5.7305969667795628e-03
5894:1.1369042671246958e-02
5895:1.5326571800212583e-02
5896:-6.3570020937102935e-03
5897:-1.5138519218240599e-03
5898:4.3278535126218655e-03
5899:8.4476881490778803e-03
5900:-1.1800787847237931e-02
5901:-6.8601446778264281e-03
5902:-8.8274764170053659e-04
5903:3.3469325278498580e-03
5904:2.2676670858576668e-02
5905:2.6030656338441531e-02
5906:2.9973283819429618e-02
5907:3.2669532917363277e-02
5908:1.7309582323600345e-02
5909:2.0805869514469864e-02
5910:2.4935104637876630e-02
5911:2.7774716474276488e-02
5912:1.0519276055613090e-02
5913:1.4183310135338327e-02
5914:1.8533655255357696e-02
5915:2.1544193356254855e-02
5916:5.4788410263940249e-03
5917:9.2576579742377329e-03
5918:1.3760528568846235e-02
5919:1.6890068203570401e-02
5920:3.3993352683939410e-02
5921:3.6274774605170104e-02
5922:3.8860605958905663e-02
5923:4.0547941380326046e-02
5924:2.9174905421687148e-02
5925:3.1598915495423950e-02
5926:3.4369395918407215e-02
5927:3.6197323946631832e-02
5928:2.3035874077675166e-02
5929:2.5631677146563538e-02
5930:2.8626374044147827e-02
5931:3.0626194057285023e-02
5932:1.8445874693954648e-02
5933:2.1162793182416800e-02
5934:2.4316770958378166e-02
5935:2.6439479786313728e-02
5936:4.1344519304926559e-02
5937:4.2654064170037177e-02
5938:4.4004232149945040e-02
5939:4.4767794268036162e-02
5940:3.7068511863255479e-02
5941:3.8517104723572539e-02
5942:4.0046753368448380e-02
5943:4.0946413888708705e-02
5944:3.1588957173502102e-02
5945:3.3208683577947096e-02
5946:3.4960172175803411e-02
5947:3.6028832661903536e-02
5948:2.7467943113849511e-02
5949:2.9210845621782160e-02
5950:3.1122831177975221e-02
5951:3.2314435900006974e-02
5952:4.5079747773668480e-02
5953:4.5491099623014813e-02
5954:4.5689452906354018e-02
5955:4.5584355821132697e-02
5956:4.1330389241826561e-02
5957:4.1876106490093316e-02
5958:4.2248486277261466e-02
5959:4.2275996878315583e-02
5960:3.6502537566871038e-02
5961:3.7216247811107370e-02
5962:3.7807314516723561e-02
5963:3.8002255856589201e-02
5964:3.2853668138127110e-02
5965:3.3690490065807863e-02
5966:3.4442602836275232e-02
5967:3.4761396516533802e-02
5968:4.5437935201300135e-02
5969:4.4995368794819107e-02
5970:4.4090272544087108e-02
5971:4.3146576093664284e-02
5972:4.2200055930806203e-02
5973:4.1889913466403667e-02
5974:4.1158261138303238e-02
5975:4.0348236760462904e-02
5976:3.8015562574106300e-02
5977:3.7873522740803349e-02
5978:3.7362851830203457e-02
5979:3.6723756392184170e-02
5980:3.4840902196810575e-02
5981:3.4823869840837872e-02
5982:3.4478153564627453e-02
5983:3.3967129030276648e-02
5984:4.2555373149431086e-02
5985:4.1279907265219490e-02
5986:3.9290258151932697e-02
5987:3.7516163129584751e-02
5988:3.9828646789284099e-02
5989:3.8689279799836843e-02
5990:3.6881122014832714e-02
5991:3.5249469304249402e-02
5992:3.6295957992093376e-02
5993:3.5331426726571691e-02
5994:3.3757132884708912e-02
5995:3.2309533875425449e-02
5996:3.3608273952346231e-02
5997:3.2775333797592475e-02
5998:3.1377558665197133e-02
5999:3.0069233145866524e-02
6000:3.6482436319742864e-02
6001:3.4375150397044703e-02
6002:3.1296569139281728e-02
6003:2.8684522454078595e-02
6004:3.4293008398102329e-02
6005:3.2334737017173994e-02
6006:2.9459207501607205e-02
6007:2.7009821831378452e-02
6008:3.1453073340778966e-02
6009:2.9687891558913666e-02
6010:2.7075880813719231e-02
6011:2.4837880016221101e-02
6012:2.9288555244459315e-02
6013:2.7669864177229414e-02
6014:2.5258068165111419e-02
6015:2.3180875423433524e-02
6016:2.7202862571381409e-02
6017:2.4251691043880193e-02
6018:2.0065141428554225e-02
6019:1.6598342279526401e-02
6020:2.5617570955952688e-02
6021:2.2841419747992975e-02
6022:1.8898445725583992e-02
6023:1.5630560244064649e-02
6024:2.3561907559493354e-02
6025:2.1013447995595676e-02
6026:1.7387442493412876e-02
6027:1.4378441387240115e-02
6028:2.1993422150976372e-02
6029:1.9618338602172887e-02
6030:1.6233730463259041e-02
6031:1.3421899727309020e-02
6032:1.4659174613179241e-02
6033:1.0846345275553016e-02
6034:5.5296975671522393e-03
6035:1.1923818304224350e-03
6036:1.3802032718536160e-02
6037:1.0208237151359233e-02
6038:5.2010592347929837e-03
6039:1.1198110615171510e-03
6040:1.2693907419291432e-02
6041:9.3850430345384650e-03
6042:4.7801369546312707e-03
6043:1.0314987895512421e-03
6044:1.1847025675789236e-02
6045:8.7550509670481017e-03
6046:4.4561229071887103e-03
6047:9.6029128980078184e-04
6048:-9.5299250500575569e-03
6049:-4.3260043880204331e-02
6050:-8.6856156414442345e-02
6051:-1.1988141894773814e-01
6052:-9.1065367900601164e-03
6053:-4.1152699150360135e-02
6054:-8.2756515715617207e-02
6055:-1.1434470051305340e-01
6056:-8.2499280925297982e-03
6057:-3.8568461372042416e-02
6058:-7.7812711530430873e-02
6059:-1.0749062045336687e-01
6060:-7.5935609499705702e-03
6061:-3.6706746706761911e-02
6062:-7.4182741360525162e-02
6063:-1.0239040659996873e-01
6064:-1.3729058248267817e-01
6065:-1.6903214111243028e-01
6066:-2.0846905110207509e-01
6067:-2.3713796132666515e-01
6068:-1.3100132171867537e-01
6069:-1.6136549246201587e-01
6070:-1.9906499463095279e-01
6071:-2.2643534741628296e-01
6072:-1.2309637591941230e-01
6073:-1.5158940226186482e-01
6074:-1.8706845268415445e-01
6075:-2.1289554424934362e-01
6076:-1.1719005127157718e-01
6077:-1.4427150744459152e-01
6078:-1.7813134919306531e-01
6079:-2.0288423472955971e-01
6080:-2.5183862017158409e-01
6081:-2.7808808601506962e-01
6082:-3.0956314455141215e-01
6083:-3.3146586738002864e-01
6084:-2.4045281968590013e-01
6085:-2.6546267392260237e-01
6086:-2.9547220670304858e-01
6087:-3.1642736046006992e-01
6088:-2.2614301443463314e-01
6089:-2.4980136583164891e-01
6090:-2.7827069901360391e-01
6091:-2.9825461467635905e-01
6092:-2.1561667513663846e-01
6093:-2.3840463515384228e-01
6094:-2.6592377121900479e-01
6095:-2.8532080177651759e-01
6096:-3.4231739326866034e-01
6097:-3.6103932388689819e-01
6098:-3.8223658853658959e-01
6099:-3.9601354486826645e-01
6100:-3.2685405016869079e-01
6101:-3.4494342230024855e-01
6102:-3.6563846993322147e-01
6103:-3.7927790082631352e-01
6104:-3.0824796396366494e-01
6105:-3.2566521773194362e-01
6106:-3.4575158037201337e-01
6107:-3.5912699768056511e-01
6108:-2.9505015905918974e-01
6109:-3.1204218609217355e-01
6110:-3.3170224085522643e-01
6111:-3.4484491363427722e-01
6112:-4.0247904520457856e-01
6113:-4.1293725926462355e-01
6114:-4.2337720680468044e-01
6115:-4.2900326920937204e-01
6116:-3.8575752925251566e-01
6117:-3.9638995659032217e-01
6118:-4.0727976821039980e-01
6119:-4.1336092888033266e-01
6120:-3.6553847157825331e-01
6121:-3.7620086690862925e-01
6122:-3.8740563687036561e-01
6123:-3.9390332751560714e-01
6124:-3.5116572414231390e-01
6125:-3.6174549715424015e-01
6126:-3.7302436858293075e-01
6127:-3.7972290993042496e-01
6128:-4.3119048135672777e-01
6129:-4.3391525282415405e-01
6130:-4.3480621730973196e-01
6131:-4.3346251677687431e-01
6132:-4.1581044430301201e-01
6133:-4.1903895833914073e-01
6134:-4.2065621989835356e-01
6135:-4.1996849208197989e-01
6136:-3.9662455013241443e-01
6137:-4.0042691569474620e-01
6138:-4.0293684998046436e-01
6139:-4.0306527837443273e-01
6140:-3.8260273431258590e-01
6141:-3.8678194910489139e-01
6142:-3.8992118470702691e-01
6143:-3.9062420150300747e-01
6144:-4.3204402759802224e-01
6145:-4.2828655604401666e-01
6146:-4.2136822339743302e-01
6147:-4.1460395079730666e-01
6148:-4.1894781602181619e-01
6149:-4.1601277601739517e-01
6150:-4.1026449287547889e-01
6151:-4.0442702168413536e-01
6152:-4.0253036878037990e-01
6153:-4.0055831754955001e-01
6154:-3.9613077849531003e-01
6155:-3.9132974878869620e-01
6156:-3.9042231323401411e-01
6157:-3.8908957922596887e-01
6158:-3.8552373090909497e-01
6159:-3.8141007114424658e-01
6160:-4.1051426969883381e-01
6161:-4.0210175923014635e-01
6162:-3.8974913746301004e-01
6163:-3.7926384374234307e-01
6164:-4.0082762431230373e-01
6165:-3.9330743067663870e-01
6166:-3.8209234324621499e-01
6167:-3.7248682950766371e-01
6168:-3.8828427685822708e-01
6169:-3.8181330743261693e-01
6170:-3.7199945042540833e-01
6171:-3.6350266724976776e-01
6172:-3.7874282882736732e-01
6173:-3.7301392076491258e-01
6174:-3.6421964666347523e-01
6175:-3.5653069250673042e-01
6176:-3.7333860586890405e-01
6177:-3.6181768815740367e-01
6178:-3.4609539748074764e-01
6179:-3.3356500938208916e-01
6180:-3.6704101670811601e-01
6181:-3.5642750098922471e-01
6182:-3.4187415473865568e-01
6183:-3.3020324128098749e-01
6184:-3.5866070801826783e-01
6185:-3.4916305890216365e-01
6186:-3.3601035525611922e-01
6187:-3.2535894451957847e-01
6188:-3.5212287108475171e-01
6189:-3.4341320239879514e-01
6190:-3.3123743122616345e-01
6191:-3.2130268047013066e-01
6192:-3.2673868258545807e-01
6193:-3.1378239326498014e-01
6194:-2.9663731772257190e-01
6195:-2.8333261372886254e-01
6196:-3.2381420749963674e-01
6197:-3.1163213852675226e-01
6198:-2.9542360008027763e-01
6199:-2.8279709595672992e-01
6200:-3.1949122512286232e-01
6201:-3.0825666558941084e-01
6202:-2.9323339634390605e-01
6203:-2.8148255865262589e-01
6204:-3.1580815739656215e-01
6205:-3.0526709323725776e-01
6206:-2.9112935325287703e-01
6207:-2.8003526700621179e-01
6208:-2.7619799908837656e-01
6209:-2.6286791573326213e-01
6210:-2.4563609224231625e-01
6211:-2.3256871346642427e-01
6212:-2.7601458579621635e-01
6213:-2.6332358524187960e-01
6214:-2.4687029092350266e-01
6215:-2.3434660200507720e-01
6216:-2.7515579752895492e-01
6217:-2.6327943558014766e-01
6218:-2.4780139743472393e-01
6219:-2.3595463209494683e-01
6220:-2.7404766596209734e-01
6221:-2.6277107991715065e-01
6222:-2.4800634349631298e-01
6223:-2.3665863308051527e-01
6224:-2.2566329798767656e-01
6225:-2.1288245241890572e-01
6226:-1.9657034497970954e-01
6227:-1.8434885124400868e-01
6228:-2.2770902162148932e-01
6229:-2.1539057648112753e-01
6230:-1.9961298506730477e-01
6231:-1.8775733355858518e-01
6232:-2.2965232897292712e-01
6233:-2.1792553964718614e-01
6234:-2.0285298382656514e-01
6235:-1.9149054592156567e-01
6236:-2.3060741070934132e-01
6237:-2.1933161566034706e-01
6238:-2.0480658560513432e-01
6239:-1.9382988869846698e-01
6240:-1.7793964897634229e-01
6241:-1.6616902259855393e-01
6242:-1.5132549758367786e-01
6243:-1.4034123387391087e-01
6244:-1.8153019305843862e-01
6245:-1.7007778272420354e-01
6246:-1.5559965324572744e-01
6247:-1.4485387114913931e-01
6248:-1.8551037363451572e-01
6249:-1.7448556885031669e-01
6250:-1.6049364170211702e-01
6251:-1.5006556126735890e-01
6252:-1.8804219556498855e-01
6253:-1.7734888179238384e-01
6254:-1.6373388689758864e-01
6255:-1.5355554381971279e-01
6256:-1.3462766534334403e-01
6257:-1.2419030240633616e-01
6258:-1.1112721967533519e-01
6259:-1.0153353847424050e-01
6260:-1.3925181392668276e-01
6261:-1.2899788802265624e-01
6262:-1.1612889307141362e-01
6263:-1.0665357775339550e-01
6264:-1.4461375731290316e-01
6265:-1.3461405883681102e-01
6266:-1.2202668235344726e-01
6267:-1.1273133308122418e-01
6268:-1.4822425856461649e-01
6269:-1.3843284677108747e-01
6270:-1.2608273114047006e-01
6271:-1.1694233963141767e-01
6272:-9.6568407808721585e-02
6273:-8.7544320294116573e-02
6274:-7.6340505364280178e-02
6275:-6.8182492813441992e-02
6276:-1.0174211902628602e-01
6277:-9.2803322452469111e-02
6278:-8.1680020423450517e-02
6279:-7.3559394291498284e-02
6280:-1.0790376646323828e-01
6281:-9.9099740817425397e-02
6282:-8.8108516943686446e-02
6283:-8.0056344577765517e-02
6284:-1.1218764981199145e-01
6285:-1.0350185557995238e-01
6286:-9.2630533054307226e-02
6287:-8.4645835130917682e-02
6288:-6.3984931263162972e-02
6289:-5.6388612763315270e-02
6290:-4.7018637530465417e-02
6291:-4.0243161687117182e-02
6292:-6.9373070932251590e-02
6293:-6.1784594323122895e-02
6294:-5.2401538513082484e-02
6295:-4.5600069483307450e-02
6296:-7.5895382295485078e-02
6297:-6.8338908265449291e-02
6298:-5.8969505128562652e-02
6299:-5.2158302730003138e-02
6300:-8.0512931110426830e-02
6301:-7.2998034123273811e-02
6302:-6.3662009305208905e-02
6303:-5.6860551225442847e-02
6304:-3.6773904801807963e-02
6305:-3.0527051671397926e-02
6306:-2.2884398912425150e-02
6307:-1.7407850092632658e-02
6308:-4.2111955838179657e-02
6309:-3.5822253409101321e-02
6310:-2.8109324795220523e-02
6311:-2.2567860387504215e-02
6312:-4.8658298767581425e-02
6313:-4.2335074947863316e-02
6314:-3.4557264716546486e-02
6315:-2.8950449335723511e-02
6316:-5.3360214423857730e-02
6317:-4.7026967504751951e-02
6318:-3.9218826727020054e-02
6319:-3.3576476019422166e-02
6320:-1.4621805534050302e-02
6321:-9.6347413513187784e-03
6322:-3.5919064861549862e-03
6323:6.9118638975390362e-04
6324:-1.9743392695807015e-02
6325:-1.4678978843015843e-02
6326:-8.5261166372338788e-03
6327:-4.1524565672957630e-03
6328:-2.6085946794935266e-02
6329:-2.0939621921395053e-02
6330:-1.4667803798338715e-02
6331:-1.0194307441165793e-02
6332:-3.0689068777819212e-02
6333:-2.5494478200598039e-02
6334:-1.9149910553344408e-02
6335:-1.4613338180473291e-02
6336:2.8525320966563570e-03
6337:6.6876233377366852e-03
6338:1.1265849381138697e-02
6339:1.4454668919298839e-02
6340:-1.9409137360851978e-03
6341:1.9908608297331421e-03
6342:6.6998907285860726e-03
6343:9.9925170580067810e-03
6344:-7.9267223310829377e-03
6345:-3.8855683483239251e-03
6346:9.7396691219321446e-04
6347:4.3876662251668211e-03
6348:-1.2309639347061507e-02
6349:-8.1968727362305774e-03
6350:-3.2369236721311815e-03
6351:2.5871207833425220e-04
6352:1.6042598897178038e-02
6353:1.8820422554537076e-02
6354:2.2054876917548129e-02
6355:2.4239914735613925e-02
6356:1.1636972850256133e-02
6357:1.4522242542248596e-02
6358:1.7899185476345576e-02
6359:2.0194995177220551e-02
6360:6.0985225935698897e-03
6361:9.1105800635433668e-03
6362:1.2656797060619999e-02
6363:1.5085134483916306e-02
6364:2.0148331451827132e-03
6365:5.1138368069818495e-03
6366:8.7771901790408557e-03
6367:1.1298090088099899e-02
6368:2.5301772666268110e-02
6369:2.7107442711727783e-02
6370:2.9101545208241299e-02
6371:3.0356319692197618e-02
6372:2.1316359595830371e-02
6373:2.3234242261440038e-02
6374:2.5375843464280866e-02
6375:2.6744579260645381e-02
6376:1.6278044604321831e-02
6377:1.8331548775013921e-02
6378:2.0652716750912625e-02
6379:2.2161094138032009e-02
6380:1.2541283611534506e-02
6381:1.4690634066608803e-02
6382:1.7139647432123262e-02
6383:1.8748087521423436e-02
6384:3.0929316408160722e-02
6385:3.1829718566184849e-02
6386:3.2665259807412292e-02
6387:3.3048394490690448e-02
6388:2.7378649084435550e-02
6389:2.8394276670708481e-02
6390:2.9381438162376233e-02
6391:2.9881832422446429e-02
6392:2.2870287062389957e-02
6393:2.4028085357283870e-02
6394:2.5203179117990221e-02
6395:2.5849583997044928e-02
6396:1.9511314338674337e-02
6397:2.0771724347019439e-02
6398:2.2083157165664381e-02
6399:2.2836031367238534e-02
6400:3.3162349631890582e-02
6401:3.3210485351148296e-02
6402:3.2950988860060072e-02
6403:3.2507077758185794e-02
6404:3.0058688816408941e-02
6405:3.0226051330428997e-02
6406:3.0124743599810259e-02
6407:2.9804289179104909e-02
6408:2.6105004634621891e-02
6409:2.6421729828941632e-02
6410:2.6519427406370512e-02
6411:2.6354877948030903e-02
6412:2.3148932766573045e-02
6413:2.3575264936121290e-02
6414:2.3819597485637820e-02
6415:2.3770347473032114e-02
6416:3.2184410665048693e-02
6417:3.1420632666642884e-02
6418:3.0115796150043447e-02
6419:2.8880913702129887e-02
6420:2.9548296634119203e-02
6421:2.8912103863909400e-02
6422:2.7779005114312211e-02
6423:2.6680047894522392e-02
6424:2.6183277447393006e-02
6425:2.5708871532895635e-02
6426:2.4794105091542427e-02
6427:2.3868358908705988e-02
6428:2.3661296107248635e-02
6429:2.3307024912015223e-02
6430:2.2554799199758117e-02
6431:2.1758308200871643e-02
6432:2.8140234844272562e-02
6433:2.6598918367292331e-02
6434:2.4292971889314920e-02
6435:2.2300863613658409e-02
6436:2.6013468277458068e-02
6437:2.4615599794904800e-02
6438:2.2506083899677190e-02
6439:2.0671999128070311e-02
6440:2.3296340302581056e-02
6441:2.2081729994857947e-02
6442:2.0223500334651572e-02
6443:1.8591793890662532e-02
6444:2.1256954651945114e-02
6445:2.0179428346597094e-02
6446:1.8509399423903509e-02
6447:1.7029413050149635e-02
6448:2.1160266983508359e-02
6449:1.8876968432726248e-02
6450:1.5620162438470222e-02
6451:1.2912716911768941e-02
6452:1.9618464106089875e-02
6453:1.7505722838299310e-02
6454:1.4486411988452066e-02
6455:1.1972941476821240e-02
6456:1.7649821229602163e-02
6457:1.5755659447530854e-02
6458:1.3040718630736964e-02
6459:1.0775826679452153e-02
6460:1.6171118508627437e-02
6461:1.4440913861326442e-02
6462:1.1954272614407100e-02
6463:9.8758111678267750e-03
6464:1.1395894413579888e-02
6465:8.4186994518276256e-03
6466:4.2816154799066308e-03
6467:9.1943835481924469e-04
6468:1.0563986470056219e-02
6469:7.8000017702813864e-03
6470:3.9634022925134887e-03
6471:8.4924848450092900e-04
6472:9.5050865536382076e-03
6473:7.0141606767292241e-03
6474:3.5620843445594605e-03
6475:7.6506999251346871e-04
6476:8.7087144992888978e-03
6477:6.4224351596012339e-03
6478:3.2582923598434479e-03
6479:6.9855310359980146e-04
6480:-7.3136205576333786e-03
6481:-3.5755422973504584e-02
6482:-7.2266131311721341e-02
6483:-9.9699721407729966e-02
6484:-6.9448594613239299e-03
6485:-3.4060642422285008e-02
6486:-6.8799706877695599e-02
6487:-9.4892735589325261e-02
6488:-6.6539618366993911e-03
6489:-3.2023852927406213e-02
6490:-6.4604737153379097e-02
6491:-8.9160853384723862e-02
6492:-6.4710264981084767e-03
6493:-3.0590733683165689e-02
6494:-6.1684199261699497e-02
6495:-8.5200306069709505e-02
6496:-1.1408758459898564e-01
6497:-1.4045150308027210e-01
6498:-1.7349259013467902e-01
6499:-1.9770756319931071e-01
6500:-1.0858840412871225e-01
6501:-1.3372989273245525e-01
6502:-1.6533338984264420e-01
6503:-1.8856927123087067e-01
6504:-1.0208431745048606e-01
6505:-1.2582998275852089e-01
6506:-1.5571738057738929e-01
6507:-1.7772691441098146e-01
6508:-9.7599689525908209e-02
6509:-1.2037815477585127e-01
6510:-1.4903899349300007e-01
6511:-1.7014630922181781e-01
6512:-2.1018499349714215e-01
6513:-2.3255160268843170e-01
6514:-2.5962225799826083e-01
6515:-2.7874328976341428e-01
6516:-2.0056987374889815e-01
6517:-2.2213718518727418e-01
6518:-2.4833772356176911e-01
6519:-2.6690844173363970e-01
6520:-1.8910990787704593e-01
6521:-2.0961844712642633e-01
6522:-2.3462876630193019e-01
6523:-2.5242271156277718e-01
6524:-1.8106657180559002e-01
6525:-2.0076804194528228e-01
6526:-2.2484946293316529e-01
6527:-2.4202542735099974e-01
6528:-2.8834630680300966e-01
6529:-3.0513191385772559e-01
6530:-3.2457834634668237e-01
6531:-3.3759698908597757e-01
6532:-2.7625493572933185e-01
6533:-2.9262670482306469e-01
6534:-3.1166183306549761e-01
6535:-3.2445984109393344e-01
6536:-2.6140101156034501e-01
6537:-2.7718382218623366e-01
6538:-2.9565279654408128e-01
6539:-3.0817045869978860e-01
6540:-2.5070826231170668e-01
6541:-2.6601630614695682e-01
6542:-2.8402737893626567e-01
6543:-2.9631965679006828e-01
6544:-3.4386523878907338e-01
6545:-3.5438021515693574e-01
6546:-3.6565614300613991e-01
6547:-3.7242758773804946e-01
6548:-3.3064259198176976e-01
6549:-3.4105572303161469e-01
6550:-3.5233312133335565e-01
6551:-3.5922715157245516e-01
6552:-3.1425645236440347e-01
6553:-3.2456409689810767e-01
6554:-3.3585793549698556e-01
6555:-3.4289158445164719e-01
6556:-3.0232950673041792e-01
6557:-3.1255701207590958e-01
6558:-3.2386014334137964e-01
6559:-3.3098338023493767e-01
6560:-3.7537632888902117e-01
6561:-3.7973423402283563e-01
6562:-3.8318418878874105e-01
6563:-3.8416850914602857e-01
6564:-3.6228935176905885e-01
6565:-3.6694107700422457e-01
6566:-3.7090408065527353e-01
6567:-3.7235620045013035e-01
6568:-3.4607553623059800e-01
6569:-3.5103683471918817e-01
6570:-3.5554360060492457e-01
6571:-3.5750337186633108e-01
6572:-3.3424264046196744e-01
6573:-3.3939188374740026e-01
6574:-3.4423431565109303e-01
6575:-3.4652051849616616e-01
6576:-3.8412617634457147e-01
6577:-3.8309612003455046e-01
6578:-3.7994074751107187e-01
6579:-3.7616448941323544e-01
6580:-3.7258134746535571e-01
6581:-3.7207078927479248e-01
6582:-3.6964128748594466e-01
6583:-3.6647327018317133e-01
6584:-3.5802608889773491e-01
6585:-3.5811705685911399e-01
6586:-3.5656151444373235e-01
6587:-3.5413673959919362e-01
6588:-3.4724159421365230e-01
6589:-3.4774786967605714e-01
6590:-3.4681046688760536e-01
6591:-3.4491066050422792e-01
6592:-3.7368843942503316e-01
6593:-3.6834018416055797e-01
6594:-3.6007103301761478e-01
6595:-3.5279308581547264e-01
6596:-3.6434366326942530e-01
6597:-3.5967582532759379e-01
6598:-3.5233029219002010e-01
6599:-3.4576830356397986e-01
6600:-3.5242920515708631e-01
6601:-3.4857339873686316e-01
6602:-3.4230887872941951e-01
6603:-3.3658101527407996e-01
6604:-3.4349764767046931e-01
6605:-3.4019968791447674e-01
6606:-3.3467167255868285e-01
6607:-3.2951763655557009e-01
6608:-3.4860266672190787e-01
6609:-3.4028502736980121e-01
6610:-3.2859663855816934e-01
6611:-3.1902566827753709e-01
6612:-3.4195590185919794e-01
6613:-3.3432943010694138e-01
6614:-3.2351810606167569e-01
6615:-3.1461221910022502e-01
6616:-3.3321190108164372e-01
6617:-3.2641462450833592e-01
6618:-3.1668429672960552e-01
6619:-3.0860994246110734e-01
6620:-3.2645857501723524e-01
6621:-3.2025289443773058e-01
6622:-3.1130734530702125e-01
6623:-3.0383820759650060e-01
6624:-3.1372420962915076e-01
6625:-3.0354528347623883e-01
6626:-2.8987170969003484e-01
6627:-2.7911950869732827e-01
6628:-3.0966578337474882e-01
6629:-3.0014716353481585e-01
6630:-2.8731035915668085e-01
6631:-2.7716992825212572e-01
6632:-3.0410770837548079e-01
6633:-2.9540487976083096e-01
6634:-2.8358819423464893e-01
6635:-2.7419079703907739e-01
6636:-2.9965712582088433e-01
6637:-2.9153864383245537e-01
6638:-2.8044875881184289e-01
6639:-2.7158420034178349e-01
6640:-2.7330663531882282e-01
6641:-2.6233803422965191e-01
6642:-2.4794085924482981e-01
6643:-2.3685392035135291e-01
6644:-2.7166924340854209e-01
6645:-2.6125674345881905e-01
6646:-2.4753426896758604e-01
6647:-2.3693280689681986e-01
6648:-2.6907104967509204e-01
6649:-2.5934838199612192e-01
6650:-2.4648081871391025e-01
6651:-2.3650287775929812e-01
6652:-2.6674090793003902e-01
6653:-2.5752588148025679e-01
6654:-2.4529618163533407e-01
6655:-2.3578543480029332e-01
6656:-2.3093591573016878e-01
6657:-2.1990122291503941e-01
6658:-2.0567020593530311e-01
6659:-1.9489998115421467e-01
6660:-2.3126435194142847e-01
6661:-2.2067885838102222e-01
6662:-2.0699138217203489e-01
6663:-1.9660099044312121e-01
6664:-2.3115581126164636e-01
6665:-2.2114435762010093e-01
6666:-2.0814581797326076e-01
6667:-1.9823636976204853e-01
6668:-2.3067837949856165e-01
6669:-2.2109345334169384e-01
6670:-2.0860593938461996e-01
6671:-1.9905580941644974e-01
6672:-1.8921461935594847e-01
6673:-1.7869746595133276e-01
6674:-1.6528406250916061e-01
6675:-1.5524143850662370e-01
6676:-1.9110381340861199e-01
6677:-1.8091385847101740e-01
6678:-1.6788115492205669e-01
6679:-1.5809898873363973e-01
6680:-1.9297872170098140e-01
6681:-1.8321138894821273e-01
6682:-1.7068067777137547e-01
6683:-1.6124753244266646e-01
6684:-1.9397909184660472e-01
6685:-1.8453482965623461e-01
6686:-1.7239311190757589e-01
6687:-1.6323238139312313e-01
6688:-1.4997676074349836e-01
6689:-1.4030153093466669e-01
6690:-1.2808497621596499e-01
6691:-1.1903217344077026e-01
6692:-1.5296324542825324e-01
6693:-1.4351237196774710e-01
6694:-1.3155289126584696e-01
6695:-1.2266870577280609e-01
6696:-1.5628562701456344e-01
6697:-1.4713628065527479e-01
6698:-1.3552174561428970e-01
6699:-1.2686520239542598e-01
6700:-1.5840618138413828e-01
6701:-1.4949199858281967e-01
6702:-1.3814755095552547e-01
6703:-1.2967157280002597e-01
6704:-1.1431864956289574e-01
6705:-1.0570014559175178e-01
6706:-9.4898703733194895e-02
6707:-8.6955250351006971e-02
6708:-1.1803474802376024e-01
6709:-1.0954838517646734e-01
6710:-9.8888405800533360e-02
6711:-9.1031770377810545e-02
6712:-1.2233986843153027e-01
6713:-1.1403771543543709e-01
6714:-1.0358193919638603e-01
6715:-9.5855539333040071e-02
6716:-1.2523374759470468e-01
6717:-1.1708239450275670e-01
6718:-1.0679767128519053e-01
6719:-9.9182747876909172e-02
6720:-8.2840453880828196e-02
6721:-7.5353769334249449e-02
6722:-6.6043297168922196e-02
6723:-5.9252613804310732e-02
6724:-8.6956282045438149e-02
6725:-7.9531946753581884e-02
6726:-7.0280617090664479e-02
6727:-6.3518181223222406e-02
6728:-9.1840587389858910e-02
6729:-8.4513997911423666e-02
6730:-7.5359871162102701e-02
6731:-6.8649319069906942e-02
6732:-9.5220278864771440e-02
6733:-8.7979625181400831e-02
6734:-7.8914178469910626e-02
6735:-7.2254652505319927e-02
6736:-5.5754877270135998e-02
6737:-4.9421347205103230e-02
6738:-4.1603551069591301e-02
6739:-3.5947327127541659e-02
6740:-6.0029521145333976e-02
6741:-5.3703728369851982e-02
6742:-4.5879257796040782e-02
6743:-4.0206070761329808e-02
6744:-6.5180630484812124e-02
6745:-5.8880901797336752e-02
6746:-5.1069502865393905e-02
6747:-4.5391103143701581e-02
6748:-6.8807561908581880e-02
6749:-6.2539989723580131e-02
6750:-5.4754773490732649e-02
6751:-4.9084594879798313e-02
6752:-3.3050471257578019e-02
6753:-2.7835249836137187e-02
6754:-2.1458252809773919e-02
6755:-1.6892608424425071e-02
6756:-3.7296338649464404e-02
6757:-3.2051095497881446e-02
6758:-2.5623796012471129e-02
6759:-2.1011186767745087e-02
6760:-4.2473491774816192e-02
6761:-3.7205107996236365e-02
6762:-3.0731890900377156e-02
6763:-2.6072459090122332e-02
6764:-4.6167277703459908e-02
6765:-4.0892644078047748e-02
6766:-3.4398656764698186e-02
6767:-2.9714163901665570e-02
6768:-1.4571951660632607e-02
6769:-1.0425149172052228e-02
6770:-5.4168275330402334e-03
6771:-1.8813311006566813e-03
6772:-1.8662618843956549e-02
6773:-1.4459238030385985e-02
6774:-9.3695307171105698e-03
6775:-5.7662671477212791e-03
6776:-2.3695032802291793e-02
6777:-1.9431920116526502e-02
6778:-1.4254072191666923e-02
6779:-1.0575802595532258e-02
6780:-2.7320363141455643e-02
6781:-2.3022127347490314e-02
6782:-1.7790238387850099e-02
6783:-1.4064413292810135e-02
6784:-1.0307967621163228e-04
6785:3.0386514964025587e-03
6786:6.7600167426477417e-03
6787:9.3271114505105775e-03
6788:-3.9501498740767685e-03
6789:-7.3479901295581997e-04
6790:3.0874653189159676e-03
6791:5.7355579207018902e-03
6792:-8.7172216498470068e-03
6793:-5.4182845414711758e-03
6794:-1.4796273888200166e-03
6795:1.2631296923949003e-03
6796:-1.2178391348489789e-02
6797:-8.8246077729912907e-03
6798:-4.8081449112902276e-03
6799:-2.0011725645409208e-03
6800:1.0595524634825430e-02
6801:1.2793128962357599e-02
6802:1.5306822501320832e-02
6803:1.6966100758784620e-02
6804:7.0483949668782037e-03
6805:9.3312630599746618e-03
6806:1.1959745386389683e-02
6807:1.3709628819484216e-02
6808:2.6282620725170108e-03
6809:5.0120426119929984e-03
6810:7.7774245967931520e-03
6811:9.6361707062926714e-03
6812:-6.0028364926112149e-04
6813:1.8529571943398156e-03
6814:4.7134725831185923e-03
6815:6.6485590509701587e-03
6816:1.7756848198381477e-02
6817:1.9069654099504771e-02
6818:2.0450970631209316e-02
6819:2.1258622217290961e-02
6820:1.4549560631062530e-02
6821:1.5956285602510473e-02
6822:1.7463392501778204e-02
6823:1.8370019016144573e-02
6824:1.0535484740727239e-02
6825:1.2056140797954315e-02
6826:1.3716838211028358e-02
6827:1.4745017125768598e-02
6828:7.5897568183259777e-03
6829:9.1911820507119060e-03
6830:1.0961509640157871e-02
6831:1.2076969880943962e-02
6832:2.1601167950588560e-02
6833:2.2084138311572576e-02
6834:2.2404443425934947e-02
6835:2.2415071851297572e-02
6836:1.8766250601368318e-02
6837:1.9351975983531645e-02
6838:1.9810457904683304e-02
6839:1.9930248062629153e-02
6840:1.5207408586347547e-02
6841:1.5920121600818585e-02
6842:1.6550045603506872e-02
6843:1.6805785233520276e-02
6844:1.2587034913289630e-02
6845:1.3391533454543064e-02
6846:1.4145911123295269e-02
6847:1.4500739424562264e-02
6848:2.2338549935617593e-02
6849:2.2046834690150063e-02
6850:2.1379394003727514e-02
6851:2.0650432817304942e-02
6852:1.9913117072446959e-02
6853:1.9735767866374692e-02
6854:1.9223614601509648e-02
6855:1.8618534042769506e-02
6856:1.6862793238596824e-02
6857:1.6828498771775040e-02
6858:1.6511108811094726e-02
6859:1.6061761992807878e-02
6860:1.4611920335764673e-02
6861:1.4682365670051743e-02
6862:1.4507949530655548e-02
6863:1.4173182377768278e-02
6864:2.0186033492221648e-02
6865:1.9180238576298476e-02
6866:1.7608760521745752e-02
6867:1.6208268190800082e-02
6868:1.8221987489035817e-02
6869:1.7347973797215897e-02
6870:1.5957671075245417e-02
6871:1.4703401763636324e-02
6872:1.5750627391407777e-02
6873:1.5042631364899696e-02
6874:1.3880797910523461e-02
6875:1.2811071401238322e-02
6876:1.3924968231507649e-02
6877:1.3339367946219432e-02
6878:1.2346132937220632e-02
6879:1.1412695742564299e-02
6880:1.5393829607904506e-02
6881:1.3749556694552731e-02
6882:1.1382562595796559e-02
6883:9.4017953330159786e-03
6884:1.3969655980505912e-02
6885:1.2483496324871116e-02
6886:1.0336636052028707e-02
6887:8.5355885355065074e-03
6888:1.2179207181970061e-02
6889:1.0892673471183880e-02
6890:9.0236899903844807e-03
6891:7.4494410323122607e-03
6892:1.0856102636521418e-02
6893:9.7170385154524159e-03
6894:8.0532670388058138e-03
6895:6.6464442336713701e-03
6896:8.2890038690721975e-03
6897:6.1099086242363924e-03
6898:3.0964773671298112e-03
6899:6.6085908941483423e-04
6900:7.5226831803735994e-03
6901:5.5406532411254690e-03
6902:2.8041345934944743e-03
6903:5.9643052258398109e-04
6904:6.5625537288798485e-03
6905:4.8289767036601610e-03
6906:2.4412186609915959e-03
6907:5.2028228688063573e-04
6908:5.8525543094152194e-03
6909:4.3021931051484925e-03
6910:2.1713342313871981e-03
6911:4.6141073938178181e-04
6912:-6.3560328857938959e-03
6913:-2.9869826759440152e-02
6914:-6.0241288252395157e-02
6915:-8.3242023967478859e-02
6916:-6.0937048379406935e-03
6917:-2.8579353456936039e-02
6918:-5.7676066467114068e-02
6919:-7.9731179904360530e-02
6920:-5.7071322498137818e-03
6921:-2.7004765432559193e-02
6922:-5.4550633443030357e-02
6923:-7.5410662891962479e-02
6924:-5.4196040821093581e-03
6925:-2.5872458719346906e-02
6926:-5.2285755214269251e-02
6927:-7.2265245285479757e-02
6928:-9.5375312954879832e-02
6929:-1.1765870416983840e-01
6930:-1.4568750225460367e-01
6931:-1.6632798705750274e-01
6932:-9.1366305296502276e-02
6933:-1.1273313227655841e-01
6934:-1.3961442751589132e-01
6935:-1.5942210150410435e-01
6936:-8.6407404447738603e-02
6937:-1.0661799926870842e-01
6938:-1.3208694307828708e-01
6939:-1.5089056233547921e-01
6940:-8.2793622640147488e-02
6941:-1.0216574693249822e-01
6942:-1.2662496517143806e-01
6943:-1.4471682927903209e-01
6944:-1.7700834106316524e-01
6945:-1.9628795970322124e-01
6946:-2.1987855261420652e-01
6947:-2.3672574929435222e-01
6948:-1.6967862935150127e-01
6949:-1.8821315842113456e-01
6950:-2.1093643076325336e-01
6951:-2.2720307238363832e-01
6952:-1.6064138813454723e-01
6953:-1.7828697716174507e-01
6954:-1.9997457857507203e-01
6955:-2.1554789666282712e-01
6956:-1.5410969870811841e-01
6957:-1.7112474923989104e-01
6958:-1.9207528868753490e-01
6959:-2.0715358146712942e-01
6960:-2.4525106279675274e-01
6961:-2.6030354486984492e-01
6962:-2.7806294897766676e-01
6963:-2.9022681375972231e-01
6964:-2.3545029647063115e-01
6965:-2.5004614283662974e-01
6966:-2.6734126627066856e-01
6967:-2.7925237396217634e-01
6968:-2.2346280362839910e-01
6969:-2.3750527292248835e-01
6970:-2.5421632282235918e-01
6971:-2.6578578766711813e-01
6972:-2.1483063991594264e-01
6973:-2.2847423008292062e-01
6974:-2.4475553269131256e-01
6975:-2.5606328366845749e-01
6976:-2.9619127233187259e-01
6977:-3.0636960224641435e-01
6978:-3.1767107637799125e-01
6979:-3.2483476329617650e-01
6980:-2.8511921897795250e-01
6981:-2.9517983111452240e-01
6982:-3.0644504465857098e-01
6983:-3.1366130875614667e-01
6984:-2.7150865134977914e-01
6985:-2.8137659637428708e-01
6986:-2.9253671526313024e-01
6987:-2.9977792721491153e-01
6988:-2.6167051248994927e-01
6989:-2.7137282428158721e-01
6990:-2.8241840152918563e-01
6991:-2.8964907527958722e-01
6992:-3.2812836346534363e-01
6993:-3.3336281763312087e-01
6994:-3.3836077951175625e-01
6995:-3.4080396257930701e-01
6996:-3.1700819340661823e-01
6997:-3.2238275053690590e-01
6998:-3.2764678561496802e-01
6999:-3.3036309156539390e-01
7000:-3.0317299461761926e-01
7001:-3.0869307479274349e-01
7002:-3.1425508244940042e-01
7003:-3.1728437663032316e-01
7004:-2.9306537281240408e-01
7005:-2.9866858219288150e-01
7006:-3.0441969794124557e-01
7007:-3.0765306568175432e-01
7008:-3.4162310995159945e-01
7009:-3.4233785126391020e-01
7010:-3.4171191876029738e-01
7011:-3.4007377956484414e-01
7012:-3.3135352256164491e-01
7013:-3.3242969956938384e-01
7014:-3.3234016937251820e-01
7015:-3.3115175251146139e-01
7016:-3.1847138857648050e-01
7017:-3.1995820977863521e-01
7018:-3.2047553980890120e-01
7019:-3.1979932444552650e-01
7020:-3.0896843686367104e-01
7021:-3.1072248995046770e-01
7022:-3.1163788843503232e-01
7023:-3.1130437407680733e-01
7024:-3.3880566745789120e-01
7025:-3.3578069553030687e-01
7026:-3.3061453445075123e-01
7027:-3.2574704251200676e-01
7028:-3.3013312995944177e-01
7029:-3.2758431617534173e-01
7030:-3.2306024729961613e-01
7031:-3.1870731712762485e-01
7032:-3.1906788847593937e-01
7033:-3.1707918708884419e-01
7034:-3.1332816969599958e-01
7035:-3.0960152567452248e-01
7036:-3.1076872256130317e-01
7037:-3.0916948682635748e-01
7038:-3.0596481153129867e-01
7039:-3.0268186042173817e-01
7040:-3.2284534647752477e-01
7041:-3.1694259589782842e-01
7042:-3.0840042026220998e-01
7043:-3.0124063708728271e-01
7044:-3.1608932325356326e-01
7045:-3.1072916975253739e-01
7046:-3.0290377490498582e-01
7047:-2.9629128256999260e-01
7048:-3.0732883071569156e-01
7049:-3.0262245349428596e-01
7050:-2.9565273129413783e-01
7051:-2.8969300314153107e-01
7052:-3.0065251219829070e-01
7053:-2.9640345511317640e-01
7054:-2.9003047811960264e-01
7055:-2.8452919726396064e-01
7056:-2.9722234532169922e-01
7057:-2.8939917708634905e-01
7058:-2.7867757703525525e-01
7059:-2.7008597867271206e-01
7060:-2.9256093624668644e-01
7061:-2.8526465031275539e-01
7062:-2.7520844891251778e-01
7063:-2.6711495774961380e-01
7064:-2.8630781997612242e-01
7065:-2.7965191943704332e-01
7066:-2.7041811929432225e-01
7067:-2.6294628081102389e-01
7068:-2.8138898275686353e-01
7069:-2.7519312956295133e-01
7070:-2.6655700034494545e-01
7071:-2.5953839850452953e-01
7072:-2.6538595828126910e-01
7073:-2.5643566509954202e-01
7074:-2.4453980340637044e-01
7075:-2.3527292012445755e-01
7076:-2.6267743581411190e-01
7077:-2.5421018238076371e-01
7078:-2.4292009254556868e-01
7079:-2.3409431022841554e-01
7080:-2.5883684705303678e-01
7081:-2.5096958474687658e-01
7082:-2.4042736849681715e-01
7083:-2.3214596618221012e-01
7084:-2.5566750737500177e-01
7085:-2.4823462488681397e-01
7086:-2.3823311346550358e-01
7087:-2.3034749105218383e-01
7088:-2.3029048882887154e-01
7089:-2.2092680835028067e-01
7090:-2.0870529552917305e-01
7091:-1.9934401158332199e-01
7092:-2.2933730146642062e-01
7093:-2.2037662273907244e-01
7094:-2.0864491108297228e-01
7095:-1.9963468577276222e-01
7096:-2.2766828629312436e-01
7097:-2.1921235111865889e-01
7098:-2.0810279852364597e-01
7099:-1.9954289875445796e-01
7100:-2.2607455112696678e-01
7101:-2.1799196540732715e-01
7102:-2.0734712869437480e-01
7103:-1.9912508525037154e-01
7104:-1.9436333733992628e-01
7105:-1.8509150805070335e-01
7106:-1.7315830657134859e-01
7107:-1.6414360156622240e-01
7108:-1.9483337091085270e-01
7109:-1.8588283826929891e-01
7110:-1.7433697118260791e-01
7111:-1.6559319216306570e-01
7112:-1.9497235223837353e-01
7113:-1.8643389349150111e-01
7114:-1.7538350746436304e-01
7115:-1.6698696590762013e-01
7116:-1.9472757262559737e-01
7117:-1.8649760292419876e-01
7118:-1.7581860349198852e-01
7119:-1.6768406936504465e-01
7120:-1.5938995556250712e-01
7121:-1.5060164840147980e-01
7122:-1.3940266608535098e-01
7123:-1.3102512998483981e-01
7124:-1.6097430428890611e-01
7125:-1.5242146373262602e-01
7126:-1.4149781327074393e-01
7127:-1.3330881204652359e-01
7128:-1.6254164806374391e-01
7129:-1.5429522854977784e-01
7130:-1.4373525455883218e-01
7131:-1.3579847732676639e-01
7132:-1.6337078737204011e-01
7133:-1.5535946570147630e-01
7134:-1.4508148603346055e-01
7135:-1.3734172116777774e-01
7136:-1.2663558699209979e-01
7137:-1.1856806517361435e-01
7138:-1.0837930850850376e-01
7139:-1.0082738478348759e-01
7140:-1.2901237756523251e-01
7141:-1.2110659081797591e-01
7142:-1.1110322585824255e-01
7143:-1.0367351989679224e-01
7144:-1.3162737123108989e-01
7145:-1.2393943189074365e-01
7146:-1.1418664788949739e-01
7147:-1.0692364183125128e-01
7148:-1.3326874846922626e-01
7149:-1.2575168987675642e-01
7150:-1.1619670682836203e-01
7151:-1.0906692505885382e-01
7152:-9.6894685556502200e-02
7153:-8.9703206534475305e-02
7154:-8.0689653110031553e-02
7155:-7.4061207654773170e-02
7156:-9.9798905523747247e-02
7157:-9.2704605450398464e-02
7158:-8.3796113874868836e-02
7159:-7.7232626292682460e-02
7160:-1.0312912130941478e-01
7161:-9.6171056838967775e-02
7162:-8.7414081185534606e-02
7163:-8.0947450498131582e-02
7164:-1.0533723322471653e-01
7165:-9.8490877768130689e-02
7166:-8.9860648562130330e-02
7167:-8.3476789015815733e-02
7168:-7.0627853199895563e-02
7169:-6.4381658069165057e-02
7170:-5.6615873218062988e-02
7171:-5.0954116137408224e-02
7172:-7.3828748094010424e-02
7173:-6.7629394951032373e-02
7174:-5.9908446348764792e-02
7175:-5.4268709492801881e-02
7176:-7.7588642378907433e-02
7177:-7.1462484134909299e-02
7178:-6.3815346562801634e-02
7179:-5.8216016189199193e-02
7180:-8.0157076641748495e-02
7181:-7.4095456980334706e-02
7182:-6.6515926215476417e-02
7183:-6.0956258705784569e-02
7184:-4.8039022958307913e-02
7185:-4.2764857159870884e-02
7186:-3.6264684413661728e-02
7187:-3.1570583699735193e-02
7188:-5.1361076295871326e-02
7189:-4.6094116760070900e-02
7190:-3.9590850637717688e-02
7191:-3.4885350537520739e-02
7192:-5.5324410857561339e-02
7193:-5.0078968634383894e-02
7194:-4.3587853838960543e-02
7195:-3.8879955522923289e-02
7196:-5.8081713111754966e-02
7197:-5.2861889069031061e-02
7198:-4.6392107955715668e-02
7199:-4.1691499836447356e-02
7200:-2.9170068324717024e-02
7201:-2.4856827424865079e-02
7202:-1.9600799791614939e-02
7203:-1.5853025483586740e-02
7204:-3.2475766622672667e-02
7205:-2.8140785349047848e-02
7206:-2.2847427881086273e-02
7207:-1.9064303391422902e-02
7208:-3.6465132106368529e-02
7209:-3.2113800924766525e-02
7210:-2.6786788800145546e-02
7211:-2.2968704595587613e-02
7212:-3.9277442272068135e-02
7213:-3.4922349749250937e-02
7214:-2.9580672252233663e-02
7215:-2.5744165091396216e-02
7216:-1.3954115950866080e-02
7217:-1.0574259571521862e-02
7218:-6.5202833604666409e-03
7219:-3.6820132506501994e-03
7220:-1.7144243250471654e-02
7221:-1.3721088467598794e-02
7222:-9.6039186299177320e-03
7223:-6.7122988103396827e-03
7224:-2.1026900472719622e-02
7225:-1.7558117832549208e-02
7226:-1.3372377060758113e-02
7227:-1.0421488747254411e-02
7228:-2.3790122810632142e-02
7229:-2.0294574805162276e-02
7230:-1.6066713650436250e-02
7231:-1.3078134128213802e-02
7232:-2.2635955649855238e-03
7233:2.2388221953146336e-04
7234:3.1316512644026903e-03
7235:5.1049291585528768e-03
7236:-5.2637945821326785e-03
7237:-2.7171590427135951e-03
7238:2.7298350683838281e-04
7239:2.3133418684820610e-03
7240:-8.9391076519376358e-03
7241:-6.3250634681263759e-03
7242:-3.2396194746214337e-03
7243:-1.1206696526728983e-03
7244:-1.1573800386787465e-02
7245:-8.9154133362650649e-03
7246:-5.7661135239507897e-03
7247:-3.5937239575108896e-03
7248:6.0671736887024574e-03
7249:7.7093308413175091e-03
7250:9.5352043889506827e-03
7251:1.0695066973969908e-02
7252:3.3127141184195177e-03
7253:5.0269615794917236e-03
7254:6.9515870644960990e-03
7255:8.1907171114489752e-03
7256:-7.7489563572599249e-05
7257:1.7222978682541108e-03
7258:3.7650039099868682e-03
7259:5.0995871687109055e-03
7260:-2.5205132349914805e-03
7261:-6.6168728388285732e-04
7262:1.4632745894337669e-03
7263:2.8649092017876353e-03
7264:1.1229442783456313e-02
7265:1.2080850218941426e-02
7266:1.2899030895204536e-02
7267:1.3304805044758904e-02
7268:8.7686047899587539e-03
7269:9.7041754767640768e-03
7270:1.0637210697448102e-02
7271:1.1134963857635981e-02
7272:5.7301007621351060e-03
7273:6.7678626795238351e-03
7274:7.8410855520794302e-03
7275:8.4516176967110168e-03
7276:3.5325783592926189e-03
7277:4.6427986904119204e-03
7278:5.8159782863352067e-03
7279:6.5073113119394300e-03
7280:1.3443887745185963e-02
7281:1.3568350823654825e-02
7282:1.3467796666476984e-02
7283:1.3192308591023024e-02
7284:1.1324507760694045e-02
7285:1.1546784398569716e-02
7286:1.1580194978779651e-02
7287:1.1412377105384288e-02
7288:8.7031975921235422e-03
7289:9.0459581036059483e-03
7290:9.2448064993506003e-03
7291:9.2102563085555613e-03
7292:6.8034600513557251e-03
7293:7.2329619513272171e-03
7294:7.5512460207015951e-03
7295:7.6131410618744790e-03
7296:1.2976673498530230e-02
7297:1.2454479754764691e-02
7298:1.1548640450237412e-02
7299:1.0685886427210946e-02
7300:1.1255965771268094e-02
7301:1.0849096803078460e-02
7302:1.0102312924576267e-02
7303:9.3682591930204367e-03
7304:9.1272450104383871e-03
7305:8.8634164354878392e-03
7306:8.3140855863280145e-03
7307:7.7399042644603778e-03
7308:7.5833232472313382e-03
7309:7.4232331662369457e-03
7310:7.0172164410055530e-03
7311:6.5591372220685238e-03
7312:1.0168340256451334e-02
7313:9.1057665421789731e-03
7314:7.5484054762893476e-03
7315:6.2283714161713976e-03
7316:8.9218244156790728e-03
7317:7.9985285385415876e-03
7318:6.6348566678939786e-03
7319:5.4727356824326142e-03
7320:7.3818272166691744e-03
7321:6.6315293417018306e-03
7322:5.5082878409826582e-03
7323:4.5420561253334069e-03
7324:6.2652395368438486e-03
7325:5.6405461618029753e-03
7326:4.6917334182827279e-03
7327:3.8675025457064879e-03
7328:5.4826758489196249e-03
7329:4.0272131665204129e-03
7330:2.0293121954292931e-03
7331:4.2851649156512296e-04
7332:4.8147042040614946e-03
7333:3.5317617299895146e-03
7334:1.7753642303658793e-03
7335:3.7262611100913101e-04
7336:3.9927153099048682e-03
7337:2.9234685089756236e-03
7338:1.4657827323918049e-03
7339:3.0768353837113131e-04
7340:3.3969045218451657e-03
7341:2.4823014308723544e-03
7342:1.2404212130779427e-03
7343:2.5878308302288642e-04
7344:-5.2822166562215018e-03
7345:-2.5292862275809798e-02
7346:-5.1114707190660247e-02
7347:-7.0640205479413784e-02
7348:-5.0582533910745239e-03
7349:-2.4249802558073130e-02
7350:-4.9001089858612602e-02
7351:-6.7720019732520551e-02
7352:-4.8119173716471581e-03
7353:-2.2974363950238719e-02
7354:-4.6416230664304010e-02
7355:-6.4166241962941975e-02
7356:-4.6398416929627111e-03
7357:-2.2060137609891724e-02
7358:-4.4570586640077896e-02
7359:-6.1633672281773175e-02
7360:-8.0930316409159736e-02
7361:-9.9877765693309639e-02
7362:-1.2382636829960170e-01
7363:-1.4155707792039138e-01
7364:-7.7590539695858537e-02
7365:-9.5784465628739546e-02
7366:-1.1881485636132524e-01
7367:-1.3588797239711220e-01
7368:-7.3535401716538329e-02
7369:-9.0817701987288835e-02
7370:-1.1271665136659559e-01
7371:-1.2896788316772628e-01
7372:-7.0645713896516055e-02
7373:-8.7271639273957230e-02
7374:-1.0834583788803001e-01
7375:-1.2399411779643688e-01
7376:-1.5076736151614353e-01
7377:-1.6745994218839438e-01
7378:-1.8803216328312275e-01
7379:-2.0285528363673377e-01
7380:-1.4476350114795433e-01
7381:-1.6086424421748313e-01
7382:-1.8074033351317845e-01
7383:-1.9509122153086353e-01
7384:-1.3742247091516008e-01
7385:-1.5277873092786012e-01
7386:-1.7177660107133749e-01
7387:-1.8552698990081337e-01
7388:-1.3213975303958472e-01
7389:-1.4695003511286175e-01
7390:-1.6530257094626033e-01
7391:-1.7860857485826315e-01
7392:-2.1040937020630007e-01
7393:-2.2384672841564510e-01
7394:-2.3990529885260709e-01
7395:-2.5107626101687008e-01
7396:-2.0241642429262827e-01
7397:-2.1546957822034213e-01
7398:-2.3111390532950449e-01
7399:-2.4203198653544974e-01
7400:-1.9255862196193319e-01
7401:-2.0511660090733300e-01
7402:-2.2022477951873964e-01
7403:-2.3081563648263173e-01
7404:-1.8542113520360506e-01
7405:-1.9760633932868812e-01
7406:-2.1230573229926888e-01
7407:-2.2264400476389640e-01
7408:-2.5662226885693606e-01
7409:-2.6623379268310393e-01
7410:-2.7720986253356839e-01
7411:-2.8442587535356861e-01
7412:-2.4746553157500620e-01
7413:-2.5690817921644127e-01
7414:-2.6774845283765875e-01
7415:-2.7492676813523109e-01
7416:-2.3610409113464056e-01
7417:-2.4532554781663157e-01
7418:-2.5597715830844209e-01
7419:-2.6308796029440468e-01
7420:-2.2781956547284890e-01
7421:-2.3686655213075786e-01
7422:-2.4736222103628802e-01
7423:-2.5440762439196907e-01
7424:-2.8784822415853628e-01
7425:-2.9348578053642427e-01
7426:-2.9932330124990275e-01
7427:-3.0265209064871018e-01
7428:-2.7835283288721918e-01
7429:-2.8403790635635645e-01
7430:-2.9001148227715090e-01
7431:-2.9349701098510944e-01
7432:-2.6650536712465484e-01
7433:-2.7222211793723422e-01
7434:-2.7832656745445034e-01
7435:-2.8197748730432409e-01
7436:-2.5780903214113771e-01
7437:-2.6352923167472653e-01
7438:-2.6970227995423596e-01
7439:-2.7345377055674847e-01
7440:-3.0402761801243661e-01
7441:-3.0590748298819026e-01
7442:-3.0701321084315847e-01
7443:-3.0684718599966432e-01
7444:-2.9497304044730149e-01
7445:-2.9706693596280337e-01
7446:-2.9850273325451865e-01
7447:-2.9863058098272482e-01
7448:-2.8356338639823575e-01
7449:-2.8589853464093218e-01
7450:-2.8771668210788270e-01
7451:-2.8818917667762428e-01
7452:-2.7510977503019707e-01
7453:-2.7760387863601849e-01
7454:-2.7968009879964645e-01
7455:-2.8038698369473603e-01
7456:-3.0640881849110202e-01
7457:-3.0500498565973794e-01
7458:-3.0207574403196108e-01
7459:-2.9901563843666368e-01
7460:-2.9836359059181361e-01
7461:-2.9730277295010443e-01
7462:-2.9485536665662193e-01
7463:-2.9218484863350902e-01
7464:-2.8812355076221846e-01
7465:-2.8746350078581395e-01
7466:-2.8557748860776133e-01
7467:-2.8336268601049203e-01
7468:-2.8045816415008540e-01
7469:-2.8006954891969876e-01
7470:-2.7856482076715328e-01
7471:-2.7666280524894837e-01
7472:-2.9710774986437583e-01
7473:-2.9308644737241579e-01
7474:-2.8701158164263918e-01
7475:-2.8174158476533007e-01
7476:-2.9048963306711562e-01
7477:-2.8687022234408815e-01
7478:-2.8132690468607408e-01
7479:-2.7647246435678308e-01
7480:-2.8191789501749176e-01
7481:-2.7877777484670818e-01
7482:-2.7387754519949037e-01
7483:-2.6952978043205444e-01
7484:-2.7539178269328540e-01
7485:-2.7258817550768738e-01
7486:-2.6814439224946524e-01
7487:-2.6415743343752401e-01
7488:-2.7872616527412464e-01
7489:-2.7276603315699099e-01
7490:-2.6443720682490879e-01
7491:-2.5765120152863169e-01
7492:-2.7368192137390684e-01
7493:-2.6814531219714599e-01
7494:-2.6036667032082500e-01
7495:-2.5399645694349482e-01
7496:-2.6701371653472694e-01
7497:-2.6199167220711039e-01
7498:-2.5487897596607595e-01
7499:-2.4901256009339851e-01
7500:-2.6183646812952399e-01
7501:-2.5717904574817252e-01
7502:-2.5053818179568799e-01
7503:-2.4503069890338888e-01
7504:-2.5390223609109058e-01
7505:-2.4669116540138869e-01
7506:-2.3696649723891286e-01
7507:-2.2928501516260391e-01
7508:-2.5046558062504831e-01
7509:-2.4365350608604699e-01
7510:-2.3443093854183453e-01
7511:-2.2712221751882750e-01
7512:-2.4574698045846971e-01
7513:-2.3942458811434125e-01
7514:-2.3082511030834696e-01
7515:-2.2398232482519267e-01
7516:-2.4195546367294601e-01
7517:-2.3598718211399397e-01
7518:-2.2784198996414359e-01
7519:-2.2134012212227533e-01
7520:-2.2511846484016435e-01
7521:-2.1723072807424187e-01
7522:-2.0682922115682736e-01
7523:-1.9878403680766563e-01
7524:-2.2315053070962887e-01
7525:-2.1561909205230589e-01
7526:-2.0566159664334163e-01
7527:-1.9793891123033205e-01
7528:-2.2025469332813702e-01
7529:-2.1316839679193869e-01
7530:-2.0376462410304533e-01
7531:-1.9644476786650045e-01
7532:-2.1779098444866554e-01
7533:-2.1102983431001560e-01
7534:-2.0203092794210933e-01
7535:-1.9500710038600916e-01
7536:-1.9447690800873241e-01
7537:-1.8640813025458219e-01
7538:-1.7592386607197572e-01
7539:-1.6792769890667131e-01
7540:-1.9379673519168622e-01
7541:-1.8602357759758495e-01
7542:-1.7589916216702489e-01
7543:-1.6816045597075954e-01
7544:-1.9250937609261967e-01
7545:-1.8510954204018526e-01
7546:-1.7544413003355869e-01
7547:-1.6803638030699325e-01
7548:-1.9122457259349579e-01
7549:-1.8410248391927753e-01
7550:-1.7478112497573881e-01
7551:-1.6762259248738057e-01
7552:-1.6368462455966890e-01
7553:-1.5579883648689233e-01
7554:-1.4567206704277930e-01
7555:-1.3803815033867073e-01
7556:-1.6404849722411538e-01
7557:-1.5639707572548409e-01
7558:-1.4655255397953632e-01
7559:-1.3911643176137978e-01
7560:-1.6409351113223644e-01
7561:-1.5674421875991124e-01
7562:-1.4726386616085207e-01
7563:-1.4008391251874461e-01
7564:-1.6380719555057480e-01
7565:-1.5668579487906045e-01
7566:-1.4748097204806837e-01
7567:-1.4049607901734995e-01
7568:-1.3401789836981007e-01
7569:-1.2659283991362727e-01
7570:-1.1714499616074735e-01
7571:-1.1008809411249693e-01
7572:-1.3519489241055499e-01
7573:-1.2794303219882791e-01
7574:-1.1869870381856303e-01
7575:-1.1178153528034775e-01
7576:-1.3629083219529883e-01
7577:-1.2926612074571814e-01
7578:-1.2029181978152988e-01
7579:-1.1356207838230765e-01
7580:-1.3680145094777871e-01
7581:-1.2995198633556529e-01
7582:-1.2118788080689610e-01
7583:-1.1460513583793239e-01
7584:-1.0639418872026322e-01
7585:-9.9609901047768581e-02
7586:-9.1050742658686790e-02
7587:-8.4713722925364013e-02
7588:-1.0815664971214435e-01
7589:-1.0149233621878871e-01
7590:-9.3071132440285934e-02
7591:-8.6825647310502491e-02
7592:-1.1003034743305702e-01
7593:-1.0352846140378394e-01
7594:-9.5295279625072851e-02
7595:-8.9175922014452555e-02
7596:-1.1114674861707745e-01
7597:-1.0477319511202639e-01
7598:-9.6689732758870564e-02
7599:-9.0672024518324984e-02
7600:-8.1416273443103912e-02
7601:-7.5391752841608373e-02
7602:-6.7851919983402259e-02
7603:-6.2316372466755657e-02
7604:-8.3572000892018009e-02
7605:-7.7621275074138324e-02
7606:-7.0162044235941898e-02
7607:-6.4676832514724100e-02
7608:-8.5983285428945691e-02
7609:-8.0136790590870435e-02
7610:-7.2794223544436806e-02
7611:-6.7384099869952849e-02
7612:-8.7529102568904185e-02
7613:-8.1768496287702330e-02
7614:-7.4523827175292684e-02
7615:-6.9178050553718742e-02
7616:-5.9452581555190724e-02
7617:-5.4249562675308102e-02
7618:-4.7795245571285137e-02
7619:-4.3101593889972346e-02
7620:-6.1836020185509717e-02
7621:-5.6669718954633026e-02
7622:-5.0251048564479914e-02
7623:-4.5575468396983752e-02
7624:-6.4578402517262115e-02
7625:-5.9469559242034002e-02
7626:-5.3109759245283369e-02
7627:-4.8467261002161650e-02
7628:-6.6402929660760196e-02
7629:-6.1345001247379967e-02
7630:-5.5039380774278536e-02
7631:-5.0429329113787363e-02
7632:-4.0689543447012089e-02
7633:-3.6335403669726422e-02
7634:-3.0989717704145648e-02
7635:-2.7146295145416621e-02
7636:-4.3169852363442646e-02
7637:-3.8822572666569202e-02
7638:-3.3476079144805770e-02
7639:-2.9624856048776696e-02
7640:-4.6075149532963336e-02
7641:-4.1746539209660254e-02
7642:-3.6411823811525572e-02
7643:-3.2560269527493212e-02
7644:-4.8051420575121691e-02
7645:-4.3744425026303629e-02
7646:-3.8428318207879696e-02
7647:-3.4583811372139638e-02
7648:-2.5187277111739560e-02
7649:-2.1680324801121188e-02
7650:-1.7433637821962309e-02
7651:-1.4427645894937778e-02
7652:-2.7659252011626369e-02
7653:-2.4135953862795285e-02
7654:-1.9860322408230262e-02
7655:-1.6826400878226067e-02
7656:-3.0591286663473778e-02
7657:-2.7056265460493317e-02
7658:-2.2755069225923297e-02
7659:-1.9693845565784594e-02
7660:-3.2616089727918934e-02
7661:-2.9079205893612691e-02
7662:-2.4767535775711415e-02
7663:-2.1692275751744018e-02
7664:-1.2912998082882781e-02
7665:-1.0233519202704926e-02
7666:-7.0534010445581210e-03
7667:-4.8549267497748237e-03
7668:-1.5294881987346166e-02
7669:-1.2580436177351946e-02
7670:-9.3484037154098892e-03
7671:-7.1054256740555764e-03
7672:-1.8145123174436929e-02
7673:-1.5393994890238133e-02
7674:-1.2105698992121666e-02
7675:-9.8132668491634593e-03
7676:-2.0134011936277851e-02
7677:-1.7361541557446996e-02
7678:-1.4038801458092756e-02
7679:-1.1714971209431982e-02
7680:-3.7669670217999377e-03
7681:-1.8789881854247065e-03
7682:2.8688803227341637e-04
7683:1.7220898284031011e-03
7684:-5.9921209864628681e-03
7685:-4.0537256500822435e-03
7686:-1.8165082567214307e-03
7687:-3.2236978413001973e-04
7688:-8.6714087767696176e-03
7689:-6.6755565723143218e-03
7690:-4.3558488305054403e-03
7691:-2.7927486321334604e-03
7692:-1.0554637250122510e-02
7693:-8.5210489820728135e-03
7694:-6.1461753216059097e-03
7695:-4.5362889459758249e-03
7696:2.4084313978714228e-03
7697:3.5551763933290566e-03
7698:4.7789404953724217e-03
7699:5.5113013011498175e-03
7700:3.9688607003665502e-04
7701:1.6082084082310031e-03
7702:2.9217651417334728e-03
7703:3.7272104154604767e-03
7704:-2.0347225946416147e-03
7705:-7.4693821258178491e-04
7706:6.7366515137311689e-04
7707:1.5667613675167710e-03
7708:-3.7517511113547533e-03
7709:-2.4113505186489398e-03
7710:-9.1647705012503733e-04
7711:3.7865420177316976e-05
7712:5.8301240776799908e-03
7713:6.3038212748443220e-03
7714:6.6830791571924879e-03
7715:6.7942961215021885e-03
7716:4.0865075071202968e-03
7717:4.6392253614171040e-03
7718:5.1277344510235945e-03
7719:5.3274829739412000e-03
7720:1.9747711637388703e-03
7721:2.6228492792574674e-03
7722:3.2436491542893117e-03
7723:3.5509039510399640e-03
7724:4.8005396411574246e-04
7725:1.1952408100103541e-03
7726:1.9094870830442402e-03
7727:2.2929156438488731e-03
7728:6.7917080051965104e-03
7729:6.6847460146087882e-03
7730:6.3521600407748270e-03
7731:5.9535874637732149e-03
7732:5.3738192128443534e-03
7733:5.3623530511279155e-03
7734:5.1618105029082578e-03
7735:4.8702726606385744e-03
7736:3.6567416786882595e-03
7737:3.7614894878655577e-03
7738:3.7217362448493537e-03
7739:3.5605870336871352e-03
7740:2.4409829662389916e-03
7741:2.6282642558015067e-03
7742:2.7027720423225994e-03
7743:2.6343161342787624e-03
7744:5.6925870427157388e-03
7745:5.1322541384955711e-03
7746:4.2727656414043042e-03
7747:3.5212075920747154e-03
7748:4.6684489981154414e-03
7749:4.2238447871500388e-03
7750:3.5248630756789887e-03
7751:2.9037978831732546e-03
7752:3.4308580764711846e-03
7753:3.1271447175995571e-03
7754:2.6233260803609627e-03
7755:2.1607272600319216e-03
7756:2.5558418095527934e-03
7757:2.3522020675028734e-03
7758:1.9867923554714117e-03
7759:1.6364001916840344e-03
7760:3.0908896955849424e-03
7761:2.2553264142274733e-03
7762:1.1236065056415034e-03
7763:2.3193689969990621e-04
7764:2.5457694240647467e-03
7765:1.8519219530631990e-03
7766:9.1743385654715032e-04
7767:1.8662619620046105e-04
7768:1.8904021816243146e-03
7769:1.3682064458715368e-03
7770:6.7202363169156971e-04
7771:1.3512109988960292e-04
7772:1.4281044845143392e-03
7773:1.0270742301377491e-03
7774:4.9860980279172883e-04
7775:9.7792750036602435e-05
7776:-4.5485311011683885e-03
7777:-2.1594433612286298e-02
7778:-4.3634871268316437e-02
7779:-6.0348592865980391e-02
7780:-4.3748730727079538e-03
7781:-2.0754133377703095e-02
7782:-4.1947461040980676e-02
7783:-5.8025049217658539e-02
7784:-4.1500453032178542e-03
7785:-1.9717965860604508e-02
7786:-3.9864424388330814e-02
7787:-5.5148210963389420e-02
7788:-3.9848413455361572e-03
7789:-1.8965762570240342e-02
7790:-3.8348179085181053e-02
7791:-5.3051399250354667e-02
7792:-6.9177324405533105e-02
7793:-8.5464708342203363e-02
7794:-1.0611217422092434e-01
7795:-1.2144877383571315e-01
7796:-6.6518452707639730e-02
7797:-8.2188951359819323e-02
7798:-1.0206323336329375e-01
7799:-1.1683729488103395e-01
7800:-6.3222220730882586e-02
7801:-7.8125920597591297e-02
7802:-9.7046020083127765e-02
7803:-1.1112788821684906e-01
7804:-6.0819466986571973e-02
7805:-7.5166531339487808e-02
7806:-9.3396577072592760e-02
7807:-1.0697713932695262e-01
7808:-1.2943517430533485e-01
7809:-1.4396430033382548e-01
7810:-1.6198414704561581e-01
7811:-1.7506010853721338e-01
7812:-1.2453661452700079e-01
7813:-1.3855734519152385e-01
7814:-1.5597304189386624e-01
7815:-1.6862999414129040e-01
7816:-1.1847354527320145e-01
7817:-1.3186439694575350e-01
7818:-1.4852614774823750e-01
7819:-1.6065792963941058e-01
7820:-1.1406552350795993e-01
7821:-1.2699523162226933e-01
7822:-1.4310086342350375e-01
7823:-1.5484365080138074e-01
7824:-1.8175868203550463e-01
7825:-1.9374840889875372e-01
7826:-2.0823066789632916e-01
7827:-2.1843276024610886e-01
7828:-1.7512067788207791e-01
7829:-1.8675257526156236e-01
7830:-2.0083381883285129e-01
7831:-2.1078071384060112e-01
7832:-1.6688778912726066e-01
7833:-1.7806927023512695e-01
7834:-1.9164092550754158e-01
7835:-2.0125792856207494e-01
7836:-1.6088021324829585e-01
7837:-1.7172747265167468e-01
7838:-1.8491889900043759e-01
7839:-1.9428686826075700e-01
7840:-2.2354676005099455e-01
7841:-2.3249783059986956e-01
7842:-2.4290567607293004e-01
7843:-2.4991155555756486e-01
7844:-2.1577768840949407e-01
7845:-2.2454445247049098e-01
7846:-2.3477954579478402e-01
7847:-2.4170362131750728e-01
7848:-2.0610095077497276e-01
7849:-2.1462139896903820e-01
7850:-2.2461781599869349e-01
7851:-2.3142129330032399e-01
7852:-1.9901217797847007e-01
7853:-2.0734142869157174e-01
7854:-2.1714663807946502e-01
7855:-2.2384790409795313e-01
7856:-2.5330145745442501e-01
7857:-2.5901694256533708e-01
7858:-2.6521665625499574e-01
7859:-2.6901363619826080e-01
7860:-2.4506736907197049e-01
7861:-2.5076427309827465e-01
7862:-2.5699889902184725e-01
7863:-2.6086772579344059e-01
7864:-2.3474240339577923e-01
7865:-2.4039684499478403e-01
7866:-2.4664844372630251e-01
7867:-2.5058509151816488e-01
7868:-2.2713006317179807e-01
7869:-2.3273842281579898e-01
7870:-2.3898165512524394e-01
7871:-2.4295080098556171e-01
7872:-2.7070264266232352e-01
7873:-2.7327311582531422e-01
7874:-2.7547494473101464e-01
7875:-2.7629616004065383e-01
7876:-2.6261074206625473e-01
7877:-2.6530811718721875e-01
7878:-2.6772175657848690e-01
7879:-2.6873784172034926e-01
7880:-2.5238323068793567e-01
7881:-2.5521456540072329e-01
7882:-2.5785934119581566e-01
7883:-2.5909341964502935e-01
7884:-2.4477964523255313e-01
7885:-2.4769023997050210e-01
7886:-2.5047945769476609e-01
7887:-2.5185499200024386e-01
7888:-2.7643393901071711e-01
7889:-2.7617754943462308e-01
7890:-2.7485975523985451e-01
7891:-2.7311282604387516e-01
7892:-2.6898987240762445e-01
7893:-2.6896244095906086e-01
7894:-2.6797194752870535e-01
7895:-2.6649862818825104e-01
7896:-2.5947516380741603e-01
7897:-2.5971190443562614e-01
7898:-2.5910543651833912e-01
7899:-2.5795612339086210e-01
7900:-2.5232266809983250e-01
7901:-2.5273746343147785e-01
7902:-2.5239398327574497e-01
7903:-2.5146814284255914e-01
7904:-2.7192877548245353e-01
7905:-2.6929463108179480e-01
7906:-2.6508166590044802e-01
7907:-2.6127703603717678e-01
7908:-2.6546848173791671e-01
7909:-2.6313387411939881e-01
7910:-2.5932853041009113e-01
7911:-2.5584609310081097e-01
7912:-2.5710866627045248e-01
7913:-2.5512894987138607e-01
7914:-2.5180656834655041e-01
7915:-2.4870731270992175e-01
7916:-2.5074680486338535e-01
7917:-2.4901197899984343e-01
7918:-2.4602392829056027e-01
7919:-2.4319192733758940e-01
7920:-2.5905439420664655e-01
7921:-2.5458064093238464e-01
7922:-2.4817811171009971e-01
7923:-2.4285312226827341e-01
7924:-2.5379747254830626e-01
7925:-2.4965044057069055e-01
7926:-2.4367482979336191e-01
7927:-2.3867851605880913e-01
7928:-2.4686665511240061e-01
7929:-2.4311328365592311e-01
7930:-2.3765712168096489e-01
7931:-2.3306320023358815e-01
7932:-2.4149737563698342e-01
7933:-2.3802271927912177e-01
7934:-2.3293728018845944e-01
7935:-2.2863162871762452e-01
7936:-2.3987526575304127e-01
7937:-2.3408886474401744e-01
7938:-2.2617773129332713e-01
7939:-2.1985152720920245e-01
7940:-2.3587646338011195e-01
7941:-2.3041811407975157e-01
7942:-2.2292872706124475e-01
7943:-2.1691909643821253e-01
7944:-2.3047676649486296e-01
7945:-2.2542017329158923e-01
7946:-2.1844703578047467e-01
7947:-2.1282578022447474e-01
7948:-2.2619969303717138e-01
7949:-2.2143082584080065e-01
7950:-2.1482804943343284e-01
7951:-2.0948678239471244e-01
7952:-2.1639422185233848e-01
7953:-2.0980039887054103e-01
7954:-2.0101041766987593e-01
7955:-1.9414018291442153e-01
7956:-2.1362746351003697e-01
7957:-2.0733670514829231e-01
7958:-1.9892734013044291e-01
7959:-1.9233833487813226e-01
7960:-2.0973808071692915e-01
7961:-2.0382266679519556e-01
7962:-1.9588847766474535e-01
7963:-1.8965264887278394e-01
7964:-2.0654685989218086e-01
7965:-2.0090494711832196e-01
7966:-1.9331921715107780e-01
7967:-1.8734338242837426e-01
7968:-1.9043736964968999e-01
7969:-1.8346059063700007e-01
7970:-1.7431979552959614e-01
7971:-1.6729221367810654e-01
7972:-1.8878185457342325e-01
7973:-1.8207178064076313e-01
7974:-1.7326239911308947e-01
7975:-1.6647538631603989e-01
7976:-1.8628037398516328e-01
7977:-1.7990596840595341e-01
7978:-1.7151405240297388e-01
7979:-1.6503095408251464e-01
7980:-1.8410684953093723e-01
7981:-1.7797993693120964e-01
7982:-1.6989660657519146e-01
7983:-1.6363925933028103e-01
7984:-1.6354377849782803e-01
7985:-1.5654222985103672e-01
7986:-1.4748282617037076e-01
7987:-1.4060147319436039e-01
7988:-1.6285013938203330e-01
7989:-1.5606989838048338e-01
7990:-1.4728056111473598e-01
7991:-1.4059255834134865e-01
7992:-1.6156186864653285e-01
7993:-1.5506372317306086e-01
7994:-1.4662132651745727e-01
7995:-1.4018337861205113e-01
7996:-1.6028672251078963e-01
7997:-1.5400015428015870e-01
7998:-1.4581961880038277e-01
7999:-1.3957132600517633e-01
8000:-1.3695936934561512e-01
8001:-1.3020372634250371e-01
8002:-1.2155262976287790e-01
8003:-1.1504916928334182e-01
8004:-1.3704885193639246e-01
8005:-1.3046913343620889e-01
8006:-1.2203029339589040e-01
8007:-1.1567614109598326e-01
8008:-1.3676736926578617e-01
8009:-1.3041628241542205e-01
8010:-1.2225415343236669e-01
8011:-1.1609563528879543e-01
8012:-1.3625238709796073e-01
8013:-1.3007543096271623e-01
8014:-1.2212495740138787e-01
8015:-1.1611703678540276e-01
8016:-1.1163040135876512e-01
8017:-1.0532636309294711e-01
8018:-9.7324488823818431e-02
8019:-9.1362650338335877e-02
8020:-1.1233217844046026e-01
8021:-1.0615998639703079e-01
8022:-9.8314010309990235e-02
8023:-9.2459782748709723e-02
8024:-1.1285016030789709e-01
8025:-1.0685266949023867e-01
8026:-9.9215308511834188e-02
8027:-9.3506514413382369e-02
8028:-1.1294780247051478e-01
8029:-1.0708630950552099e-01
8030:-9.9612664443592583e-02
8031:-9.4018886148194245e-02
8032:-8.8247254029506020e-02
8033:-8.2534484186328694e-02
8034:-7.5344840641346694e-02
8035:-7.0035602128284788e-02
8036:-8.9397689536081543e-02
8037:-8.3777866506306448e-02
8038:-7.6695785267423683e-02
8039:-7.1458566216451483e-02
8040:-9.0516916870092681e-02
8041:-8.5024094118391888e-02
8042:-7.8090266780881004e-02
8043:-7.2953517072101598e-02
8044:-9.1086896201403603e-02
8045:-8.5695453820163289e-02
8046:-7.8881009100696800e-02
8047:-7.3826120391811786e-02
8048:-6.7277976703280243e-02
8049:-6.2249464103515589e-02
8050:-5.5975784228914152e-02
8051:-5.1385466929358803e-02
8052:-6.8735682358739947e-02
8053:-6.3766158163203843e-02
8054:-5.7557712918155937e-02
8055:-5.3008704209164273e-02
8056:-7.0279615231822287e-02
8057:-6.5394301221396986e-02
8058:-5.9281057348310608e-02
8059:-5.4794034743050245e-02
8060:-7.1192526746788942e-02
8061:-6.6377211023365829e-02
8062:-6.0344450857384747e-02
8063:-5.5910906390363155e-02
8064:-4.9016466042783348e-02
8065:-4.4723518904500631e-02
8066:-3.9420625389609006e-02
8067:-3.5582372769691867e-02
8068:-5.0658752212208426e-02
8069:-4.6396533905304779e-02
8070:-4.1124099976672844e-02
8071:-3.7301911482633877e-02
8072:-5.2473328545939890e-02
8073:-4.8259445500594141e-02
8074:-4.3037519248693382e-02
8075:-3.9244585688109901e-02
8076:-5.3615838969615491e-02
8077:-4.9445082325046387e-02
8078:-4.4269883866219932e-02
8079:-4.0505607441368684e-02
8080:-3.3616637939600250e-02
8081:-3.0081205705597379e-02
8082:-2.5767110608842538e-02
8083:-2.2686774054169228e-02
8084:-3.5342211586389408e-02
8085:-3.1813858810402829e-02
8086:-2.7500930699410838e-02
8087:-2.4415454701296808e-02
8088:-3.7297207112421883e-02
8089:-3.3786494503533465e-02
8090:-2.9486112498733265e-02
8091:-2.6402374084920476e-02
8092:-3.8571033338363238e-02
8093:-3.5080184282571272e-02
8094:-3.0797716386891889e-02
8095:-2.7721647351066157e-02
8096:-2.1124702532119091e-02
8097:-1.8343231049372397e-02
8098:-1.5005171492367663e-02
8099:-1.2666883119793370e-02
8100:-2.2848568695818621e-02
8101:-2.0054527728421308e-02
8102:-1.6693255053333512e-02
8103:-1.4332003419381229e-02
8104:-2.4833686153939383e-02
8105:-2.2031565088982994e-02
8106:-1.8650699133412774e-02
8107:-1.6267574373927413e-02
8108:-2.6154935614155602e-02
8109:-2.3352872120137133e-02
8110:-1.9965058985625554e-02
8111:-1.7571301332092778e-02
8112:-1.1497894805663739e-02
8113:-9.4464063554970373e-03
8114:-7.0449742618879053e-03
8115:-5.4123043357144126e-03
8116:-1.3148972901188374e-02
8117:-1.1068000030294524e-02
8118:-8.6220506445066139e-03
8119:-6.9506719773774935e-03
8120:-1.5070500407703425e-02
8121:-1.2959055374166497e-02
8122:-1.0465390244114621e-02
8123:-8.7513900803511142e-03
8124:-1.6366716264665050e-02
8125:-1.4237996699356305e-02
8126:-1.1715640612704361e-02
8127:-9.9749635641358299e-03
8128:-4.6147757451261168e-03
8129:-3.2484636414593345e-03
8130:-1.7167773191235668e-03
8131:-7.3190977164820485e-04
8132:-6.1309092905653829e-03
8133:-4.7199837144218234e-03
8134:-3.1244371635940787e-03
8135:-2.0862884793024978e-03
8136:-7.9067945333652963e-03
8137:-6.4454834412336617e-03
8138:-4.7768206383532168e-03
8139:-3.6769908423480799e-03
8140:-9.1145085400328313e-03
8141:-7.6205324833254198e-03
8142:-5.9036134889198302e-03
8143:-4.7625003560819220e-03
8144:-2.7263275206518088e-04
8145:4.7618033275267262e-04
8146:1.2373768780565314e-03
8147:1.6591625512933628e-03
8148:-1.5970807779597561e-03
8149:-7.8923305976750493e-04
8150:5.4631475372226323e-05
8151:5.4412083161984985e-04
8152:-3.1529230168737396e-03
8153:-2.2760322639838676e-03
8154:-1.3349830841157949e-03
8155:-7.6555614793145748e-04
8156:-4.2149236959585883e-03
8157:-3.2912291807760861e-03
8158:-2.2838736161894671e-03
8159:-1.6596163245020479e-03
8160:1.8285196903666705e-03
8161:2.0574288217055361e-03
8162:2.1895914353359715e-03
8163:2.1679191994445680e-03
8164:7.5110694231186317e-04
8165:1.0536316789022263e-03
8166:1.2878030115650442e-03
8167:1.3489282353401535e-03
8168:-5.1403677279067417e-04
8169:-1.2431018834688207e-04
8170:2.3079281730142395e-04
8171:3.9011601033852840e-04
8172:-1.3774630731182489e-03
8173:-9.2768924515670092e-04
8174:-4.8924027707015485e-04
8175:-2.6221093942089359e-04
8176:2.1153140467882062e-03
8177:1.9621463132530807e-03
8178:1.6664564539621105e-03
8179:1.3725141633979406e-03
8180:1.3421060095408265e-03
8181:1.2781869690042464e-03
8182:1.1056033916065715e-03
8183:9.1118895047343287e-04
8184:4.3758968176767747e-04
8185:4.7935123323945513e-04
8186:4.5215897658694941e-04
8187:3.7497478344153737e-04
8188:-1.7730556525067797e-04
8189:-6.2829840482940072e-05
8190:9.6850550677767372e-06
8191:1.2622918107023921e-05
8192:1.1953961350884507e-03
8193:8.5517394071631212e-04
8194:4.1068629232328375e-04
8195:7.7856944683826805e-05
8196:7.8898179708793831e-04
8197:5.5566686420620715e-04
8198:2.5842671426270022e-04
8199:4.4506510684234820e-05
8200:3.1731909863073589e-04
8201:2.0927762426653837e-04
8202:8.3744457405217004e-05
8203:7.8403566484748211e-06
8204:-1.0238263517473152e-06
8205:-2.4008028104168479e-05
8206:-3.3684351950895983e-05
8207:-1.7026965574483670e-05
8208:-3.9010191067977568e-03
8209:-1.8578474429500270e-02
8210:-3.7565557324343725e-02
8211:-5.1969381949245989e-02
8212:-3.7517148821483446e-03
8213:-1.7874854914807024e-02
8214:-3.6143576590557988e-02
8215:-5.0005377383700943e-02
8216:-3.5697309348471772e-03
8217:-1.6999984474822438e-02
8218:-3.4376581617098022e-02
8219:-4.7567263434722035e-02
8220:-3.4375993548686062e-03
8221:-1.6360715594622894e-02
8222:-3.3086751313400789e-02
8223:-4.5787902577802186e-02
8224:-5.9580368205264633e-02
8225:-7.3642194277276848e-02
8226:-9.1518583459074154e-02
8227:-1.0484126612040368e-01
8228:-5.7332318895203051e-02
8229:-7.0876679009228005e-02
8230:-8.8108403527285370e-02
8231:-1.0095926718088812e-01
8232:-5.4542331723140547e-02
8233:-6.7442248761120815e-02
8234:-8.3865825411267692e-02
8235:-9.6122989787720228e-02
8236:-5.2505614049694005e-02
8237:-6.4931965572242692e-02
8238:-8.0758808190471570e-02
8239:-9.2576906228570871e-02
8240:-1.1179668881318723e-01
8241:-1.2448708339242694e-01
8242:-1.4030277883590217e-01
8243:-1.5184223009955997e-01
8244:-1.0767104097508147e-01
8245:-1.1992296909387341e-01
8246:-1.3520707658493891e-01
8247:-1.4637279640151876e-01
8248:-1.0252800031426682e-01
8249:-1.1422846165754233e-01
8250:-1.2884358757254105e-01
8251:-1.3953706579874559e-01
8252:-9.8755280102738915e-02
8253:-1.1004880540102012e-01
8254:-1.2416988083700964e-01
8255:-1.3451301044241873e-01
8256:-1.5777771827539414e-01
8257:-1.6845022395996520e-01
8258:-1.8144251232056741e-01
8259:-1.9067944508781076e-01
8260:-1.5212197399701954e-01
8261:-1.6247134710324335e-01
8262:-1.7509367841251353e-01
8263:-1.8408600294744823e-01
8264:-1.4504961318040371e-01
8265:-1.5498615907622676e-01
8266:-1.6713171801545007e-01
8267:-1.7580611033425328e-01
8268:-1.3984901506791483e-01
8269:-1.4947550373730942e-01
8270:-1.6125941112348763e-01
8271:-1.6969024885687067e-01
8272:-1.9534245813822138e-01
8273:-2.0356954213431555e-01
8274:-2.1327049428735023e-01
8275:-2.1991410676781653e-01
8276:-1.8863232014162065e-01
8277:-1.9666670544296749e-01
8278:-2.0616794511692058e-01
8279:-2.1269810787865143e-01
8280:-1.8019987614808833e-01
8281:-1.8798002775978648e-01
8282:-1.9721238171636044e-01
8283:-2.0358452753542688e-01
8284:-1.7396637833475312e-01
8285:-1.8154885223118766e-01
8286:-1.9056844639583831e-01
8287:-1.9681202353605121e-01
8288:-2.2317338078609281e-01
8289:-2.2875255663055630e-01
8290:-2.3498399886408758e-01
8291:-2.3896377399095345e-01
8292:-2.1591089336545899e-01
8293:-2.2142762026672957e-01
8294:-2.2762504738899861e-01
8295:-2.3161431236765243e-01
8296:-2.0673005599222424e-01
8297:-2.1215105219892649e-01
8298:-2.1828219147371955e-01
8299:-2.2226472495428237e-01
8300:-1.9990119724575273e-01
8301:-2.0523849916403641e-01
8302:-2.1130303892068744e-01
8303:-2.1526669133775483e-01
8304:-2.4080502547101215e-01
8305:-2.4374996054489037e-01
8306:-2.4660534128545644e-01
8307:-2.4804793207283751e-01
8308:-2.3347284692959072e-01
8309:-2.3647056085491938e-01
8310:-2.3943402720948348e-01
8311:-2.4098934356097715e-01
8312:-2.2413489958972835e-01
8313:-2.2718020998375893e-01
8314:-2.3025505279173417e-01
8315:-2.3193284121713773e-01
8316:-2.1713796829881724e-01
8317:-2.2020439783836734e-01
8318:-2.2334291424242037e-01
8319:-2.2509635643584397e-01
8320:-2.4855705269072573e-01
8321:-2.4905869680994841e-01
8322:-2.4884469856613645e-01
8323:-2.4802926053648633e-01
8324:-2.4156891944053410e-01
8325:-2.4221903642239995e-01
8326:-2.4222793511538049e-01
8327:-2.4160375073358353e-01
8328:-2.3259043024111220e-01
8329:-2.3340666300040283e-01
8330:-2.3366843382676261e-01
8331:-2.3326413788480063e-01
8332:-2.2580338106393671e-01
8333:-2.2672654503537393e-01
8334:-2.2715447964167693e-01
8335:-2.2689742852444100e-01
8336:-2.4737022702785136e-01
8337:-2.4575652682501020e-01
8338:-2.4293460794113170e-01
8339:-2.4023638650842044e-01
8340:-2.4105311121655487e-01
8341:-2.3965140432622714e-01
8342:-2.3712246023876662e-01
8343:-2.3466151244426281e-01
8344:-2.3283925872416827e-01
8345:-2.3168603435244356e-01
8346:-2.2950451903684871e-01
8347:-2.2732708911299160e-01
8348:-2.2655779069813578e-01
8349:-2.2557483575963908e-01
8350:-2.2363413145593497e-01
8351:-2.2165452679031919e-01
8352:-2.3861541575403672e-01
8353:-2.3528172626680868e-01
8354:-2.3038448478763748e-01
8355:-2.2622531604855003e-01
8356:-2.3317139192556052e-01
8357:-2.3008844429779171e-01
8358:-2.2552618969024754e-01
8359:-2.2162814941860912e-01
8360:-2.2599377083817790e-01
8361:-2.2321140869610381e-01
8362:-2.1905152622115712e-01
8363:-2.1546839216760530e-01
8364:-2.2043085442938720e-01
8365:-2.1785896608278113e-01
8366:-2.1398195435723247e-01
8367:-2.1062159040317346e-01
8368:-2.2387183528782575e-01
8369:-2.1924916516907170e-01
8370:-2.1283510472264833e-01
8371:-2.0763720181467243e-01
8372:-2.1941475917093822e-01
8373:-2.1505409868231809e-01
8374:-2.0897999406225012e-01
8375:-2.0404146593333683e-01
8376:-2.1342461062378662e-01
8377:-2.0938302806407849e-01
8378:-2.0372600783018460e-01
8379:-1.9910743121079066e-01
8380:-2.0869844421429043e-01
8381:-2.0488509137540609e-01
8382:-1.9952834885808654e-01
8383:-1.9514108277575618e-01
8384:-2.0477327077191659e-01
8385:-1.9927242273272266e-01
8386:-1.9186694935337159e-01
8387:-1.8602578289508043e-01
8388:-2.0131531978441999e-01
8389:-1.9607031379658940e-01
8390:-1.8899196894303616e-01
8391:-1.8339551306423291e-01
8392:-1.9655164068771688e-01
8393:-1.9162309894288471e-01
8394:-1.8495005455449220e-01
8395:-1.7965774352303629e-01
8396:-1.9270863265056207e-01
8397:-1.8800946931480789e-01
8398:-1.8163107694120464e-01
8399:-1.7656092603205983e-01
8400:-1.8285955950657642e-01
8401:-1.7686097146825577e-01
8402:-1.6893810379450536e-01
8403:-1.6279866412906979e-01
8404:-1.8035723349365829e-01
8405:-1.7459287711313268e-01
8406:-1.6696424283198955e-01
8407:-1.6104190879782637e-01
8408:-1.7677898586460997e-01
8409:-1.7130804634870950e-01
8410:-1.6405036768102721e-01
8411:-1.5840321096813703e-01
8412:-1.7379917747907112e-01
8413:-1.6854440350042729e-01
8414:-1.6156153139466212e-01
8415:-1.5611908625210469e-01
8416:-1.5950722807018761e-01
8417:-1.5333188045701907e-01
8418:-1.4528943269444661e-01
8419:-1.3914136937199667e-01
8420:-1.5786324382932293e-01
8421:-1.5189333901107605e-01
8422:-1.4410632290302156e-01
8423:-1.3814403383459878e-01
8424:-1.5536786885941276e-01
8425:-1.4965940202700387e-01
8426:-1.4219829594901964e-01
8427:-1.3647396055964817e-01
8428:-1.5319057604428746e-01
8429:-1.4767732267532921e-01
8430:-1.4046044816160499e-01
8431:-1.3491531583567384e-01
8432:-1.3587377734613290e-01
8433:-1.2978908824010515e-01
8434:-1.2195117453110148e-01
8435:-1.1602374133891526e-01
8436:-1.3497178737639901e-01
8437:-1.2905895928146421e-01
8438:-1.2143171713981739e-01
8439:-1.1565564962155737e-01
8440:-1.3342426389872999e-01
8441:-1.2773334348909623e-01
8442:-1.2037994372956716e-01
8443:-1.1480185847238526e-01
8444:-1.3195829300741971e-01
8445:-1.2643588553431875e-01
8446:-1.1929164180644852e-01
8447:-1.1386554993969661e-01
8448:-1.1289541930391979e-01
8449:-1.0710713565619605e-01
8450:-9.9722001978581193e-02
8451:-9.4190655025216605e-02
8452:-1.1260449827821503e-01
8453:-1.0695454433687891e-01
8454:-9.9737138342595497e-02
8455:-9.4324529898191997e-02
8456:-1.1185201815435607e-01
8457:-1.0638413191997667e-01
8458:-9.9388498317265817e-02
8459:-9.4133815094633741e-02
8460:-1.1099371816783414e-01
8461:-1.0566641130640185e-01
8462:-9.8842881302394714e-02
8463:-9.3711536159792344e-02
8464:-9.1290012608862228e-02
8465:-8.5953910252624513e-02
8466:-7.9205021340092510e-02
8467:-7.4195432832465949e-02
8468:-9.1483687482555143e-02
8469:-8.6253578371557574e-02
8470:-7.9631076246146154e-02
8471:-7.4709454399116637e-02
8472:-9.1372894345313413e-02
8473:-8.6285241145363678e-02
8474:-7.9834108239866017e-02
8475:-7.5032874270853159e-02
8476:-9.1013349667970644e-02
8477:-8.6038074626478625e-02
8478:-7.9723148413581552e-02
8479:-7.5018338790755965e-02
8480:-7.1584284534658135e-02
8481:-6.6808162284379580e-02
8482:-6.0820872260100065e-02
8483:-5.6417859316543223e-02
8484:-7.2142112450261919e-02
8485:-6.7442791409227293e-02
8486:-6.1545230476040665e-02
8487:-5.7203013896323776e-02
8488:-7.2525864387772240e-02
8489:-6.7932895376657712e-02
8490:-6.2160794717228220e-02
8491:-5.7904639351481275e-02
8492:-7.2559901613843167e-02
8493:-6.8052987545693430e-02
8494:-6.2383314401080477e-02
8495:-5.8198209297818798e-02
8496:-5.4137549005340999e-02
8497:-4.9991851492794594e-02
8498:-4.4844320491489835e-02
8499:-4.1097485743778764e-02
8500:-5.4952311535389396e-02
8501:-5.0857344518975035e-02
8502:-4.5766759185855765e-02
8503:-4.2056624503368473e-02
8504:-5.5696276346683990e-02
8505:-5.1674674595562228e-02
8506:-4.6668101397668672e-02
8507:-4.3013498510990761e-02
8508:-5.6025113923220987e-02
8509:-5.2065179738895767e-02
8510:-4.7130324273690925e-02
8511:-4.3524027453454822e-02
8512:-3.9170910242417117e-02
8513:-3.5692861237293552e-02
8514:-3.1422829654032675e-02
8515:-2.8353050197508115e-02
8516:-4.0147204542329257e-02
8517:-3.6697203846972962e-02
8518:-3.2455760293225673e-02
8519:-2.9401805006517932e-02
8520:-4.1130586362250643e-02
8521:-3.7724935312529809e-02
8522:-3.3530931842386834e-02
8523:-3.0505420132461915e-02
8524:-4.1664522272754009e-02
8525:-3.8298686143591144e-02
8526:-3.4148690922157929e-02
8527:-3.1150885503967954e-02
8528:-2.6788557516239313e-02
8529:-2.3988701716105103e-02
8530:-2.0600010195018916e-02
8531:-1.8202740978341007e-02
8532:-2.7843619601324608e-02
8533:-2.5051939277343626e-02
8534:-2.1666872842818242e-02
8535:-1.9267053635940244e-02
8536:-2.8959630701122261e-02
8537:-2.6186459359094916e-02
8538:-2.2816373247261872e-02
8539:-2.0421072018307659e-02
8540:-2.9617760683990812e-02
8541:-2.6864726505139359e-02
8542:-2.3513889680521687e-02
8543:-2.1127987458170627e-02
8544:-1.6995298888024906e-02
8545:-1.4859515491612525e-02
8546:-1.2324644904678805e-02
8547:-1.0571860828566218e-02
8548:-1.8056398327874399e-02
8549:-1.5911371669429693e-02
8550:-1.3358217114528757e-02
8551:-1.1586675406909360e-02
8552:-1.9210392928125420e-02
8553:-1.7061097381681260e-02
8554:-1.4494198205115818e-02
8555:-1.2705898384673901e-02
8556:-1.9920441910754042e-02
8557:-1.7773770525756075e-02
8558:-1.5204001371477011e-02
8559:-1.3408715980735475e-02
8560:-9.7040718881398393e-03
8561:-8.1947881306710275e-03
8562:-6.4549047711072614e-03
8563:-5.2939141975228083e-03
8564:-1.0707229184472363e-02
8565:-9.1731854602543680e-03
8566:-7.3954187695637642e-03
8567:-6.2011493532995480e-03
8568:-1.1815346695065093e-02
8569:-1.0256727848696365e-02
8570:-8.4396835619507272e-03
8571:-7.2098230989937383e-03
8572:-1.2512772008889794e-02
8573:-1.0941190056488869e-02
8574:-9.1017448787583128e-03
8575:-7.8505417312991210e-03
8576:-4.7349478825316682e-03
8577:-3.7884801837698425e-03
8578:-2.7486917853440768e-03
8579:-2.0974993662774412e-03
8580:-5.6229653726813378e-03
8581:-4.6378641411451990e-03
8582:-3.5426937647791536e-03
8583:-2.8452649661040346e-03
8584:-6.6107584353358919e-03
8585:-5.5832271754628305e-03
8586:-4.4264522258809971e-03
8587:-3.6770729228358507e-03
8588:-7.2386505873291568e-03
8589:-6.1846423190870092e-03
8590:-4.9887220093671617e-03
8591:-4.2058700948163254e-03
8592:-1.8002627689853103e-03
8593:-1.3208998459750931e-03
8594:-8.4135480891909067e-04
8595:-5.8093149671175845e-04
8596:-2.5220648153835433e-03
8597:-1.9917192403344206e-03
8598:-1.4413049982764990e-03
8599:-1.1232684924190647e-03
8600:-3.3245475479848751e-03
8601:-2.7365090426874948e-03
8602:-2.1057635706814137e-03
8603:-1.7223608632682961e-03
8604:-3.8343151669772632e-03
8605:-3.2087403987115888e-03
8606:-2.5256066636087735e-03
8607:-2.0995182601167449e-03
8608:-4.7756638826665902e-04
8609:-3.2728821656255555e-04
8610:-2.0581264102493738e-04
8611:-1.6364065185938553e-04
8612:-9.8805745476555841e-04
8613:-7.7612469344640652e-04
8614:-5.7059210366986574e-04
8615:-4.6127500076813868e-04
8616:-1.5510204819095483e-03
8617:-1.2693720185488939e-03
8618:-9.6933475073479624e-04
8619:-7.8497830191480856e-04
8620:-1.9045852611599865e-03
8621:-1.5776139764830241e-03
8622:-1.2166132847557711e-03
8623:-9.8424794813014812e-04
8624:-1.5578107782290558e-04
8625:-1.3734068994465109e-04
8626:-9.0887912405816182e-05
8627:-2.9617790630699064e-05
8628:-4.1669596229740828e-04
8629:-3.2781655420943885e-04
8630:-1.8653940724198774e-04
8631:-5.0395883385044125e-05
8632:-6.9954708453900125e-04
8633:-5.3293150684521927e-04
8634:-2.8836657691688630e-04
8635:-7.1763919734207357e-05
8636:-8.7284436974529732e-04
8637:-6.5738126702077546e-04
8638:-3.4916127630191458e-04
8639:-8.3991683513931939e-05
8640:-3.3690267768345097e-03
8641:-1.6030425407006683e-02
8642:-3.2420859752279221e-02
8643:-4.4868932320810712e-02
8644:-3.2428708713728429e-03
8645:-1.5426387093814628e-02
8646:-3.1202429579196854e-02
8647:-4.3186356676123971e-02
8648:-3.0831329684915840e-03
8649:-1.4666357208290232e-02
8650:-2.9667836042430642e-02
8651:-4.1065631433766007e-02
8652:-2.9644287452324607e-03
8653:-1.4103332130985659e-02
8654:-2.8529960491503917e-02
8655:-3.9492502219621271e-02
8656:-5.1453211927263057e-02
8657:-6.3633448135722026e-02
8658:-7.9149592498891932e-02
8659:-9.0739141789994107e-02
8660:-4.9525784381576961e-02
8661:-6.1254743322818432e-02
8662:-7.6201560836922241e-02
8663:-8.7372191449698572e-02
8664:-4.7095898110762882e-02
8665:-5.8255855184004120e-02
8666:-7.2485324204462659e-02
8667:-8.3127383788092854e-02
8668:-4.5293386331565121e-02
8669:-5.6031627953208936e-02
8670:-6.9729370307301697e-02
8671:-7.9978679729424226e-02
8672:-9.6799705713521242e-02
8673:-1.0788181933454677e-01
8674:-1.2174598732758414e-01
8675:-1.3190633741960123e-01
8676:-9.3216615619281643e-02
8677:-1.0390993769470387e-01
8678:-1.1730004479157861e-01
8679:-1.2712217368557033e-01
8680:-8.8698442351632267e-02
8681:-9.8898026077206352e-02
8682:-1.1168292386580031e-01
8683:-1.2107163034882708e-01
8684:-8.5345980883446734e-02
8685:-9.5176049552475883e-02
8686:-1.0750574582752619e-01
8687:-1.1656737922435954e-01
8688:-1.3714988890606811e-01
8689:-1.4661326164645772e-01
8690:-1.5820559140637633e-01
8691:-1.6650649705970222e-01
8692:-1.3219439573754849e-01
8693:-1.4135499482591560e-01
8694:-1.5259047827197170e-01
8695:-1.6064812009768778e-01
8696:-1.2592396284215754e-01
8697:-1.3469528954142526e-01
8698:-1.4546999600845176e-01
8699:-1.5321135077858813e-01
8700:-1.2125358819102486e-01
8701:-1.2973039167068801e-01
8702:-1.4015512708547598e-01
8703:-1.4765473578047791e-01
8704:-1.7071956785883305e-01
8705:-1.7819554548429647e-01
8706:-1.8709935027395780e-01
8707:-1.9327185999343027e-01
8708:-1.6474258315789395e-01
8709:-1.7201723839299110e-01
8710:-1.8070003116036912e-01
8711:-1.8673499134975582e-01
8712:-1.5715059834853737e-01
8713:-1.6415985075255690e-01
8714:-1.7254723423085036e-01
8715:-1.7839476806405682e-01
8716:-1.5147463683346157e-01
8717:-1.5827838168004690e-01
8718:-1.6643403835177825e-01
8719:-1.7213195400162373e-01
8720:-1.9632938947032372e-01
8721:-2.0161863749533565e-01
8722:-2.0764241247282825e-01
8723:-2.1159142747708432e-01
8724:-1.8973045187832910e-01
8725:-1.9492368193146661e-01
8726:-2.0086182104376615e-01
8727:-2.0477524453362272e-01
8728:-1.8130413304456630e-01
8729:-1.8636097150593814e-01
8730:-1.9216998803180640e-01
8731:-1.9602150066958177e-01
8732:-1.7497150941882297e-01
8733:-1.7991552417349424e-01
8734:-1.8561264842081809e-01
8735:-1.8940523552594746e-01
8736:-2.1346068397412907e-01
8737:-2.1653320143181962e-01
8738:-2.1969827678570758e-01
8739:-2.2148580173085855e-01
8740:-2.0663600057832268e-01
8741:-2.0971050481822209e-01
8742:-2.1291208609944323e-01
8743:-2.1475269851564924e-01
8744:-1.9786219076350761e-01
8745:-2.0092133144336144e-01
8746:-2.0414531977420891e-01
8747:-2.0603480886449035e-01
8748:-1.9122390107842008e-01
8749:-1.9425801830102679e-01
8750:-1.9748067052871912e-01
8751:-1.9939274120779632e-01
8752:-2.2221562131945388e-01
8753:-2.2318885344726783e-01
8754:-2.2369608768140833e-01
8755:-2.2351046278621425e-01
8756:-2.1551932615748789e-01
8757:-2.1657529469396000e-01
8758:-2.1721661068309353e-01
8759:-2.1715356101327296e-01
8760:-2.0683834378130583e-01
8761:-2.0798139014829814e-01
8762:-2.0877015420494921e-01
8763:-2.0884545244794123e-01
8764:-2.0021647527049907e-01
8765:-2.0141102433627817e-01
8766:-2.0229258938332276e-01
8767:-2.0245794609909645e-01
8768:-2.2321258142966363e-01
8769:-2.2231363903162146e-01
8770:-2.2049259967589843e-01
8771:-2.1861167555238464e-01
8772:-2.1692783515967298e-01
8773:-2.1617466859590503e-01
8774:-2.1456240930206255e-01
8775:-2.1285454261273495e-01
8776:-2.0870209846768234e-01
8777:-2.0811657582079268e-01
8778:-2.0674690303452370e-01
8779:-2.0524215363981319e-01
8780:-2.0236897630485082e-01
8781:-2.0189526705536281e-01
8782:-2.0068969043927454e-01
8783:-1.9932419070796359e-01
8784:-2.1744276076075122e-01
8785:-2.1497617687001680e-01
8786:-2.1124128207234599e-01
8787:-2.0799346360884516e-01
8788:-2.1178199122180955e-01
8789:-2.0950156159809594e-01
8790:-2.0601939948568745e-01
8791:-2.0297269973316850e-01
8792:-2.0428348117952091e-01
8793:-2.0222470920795990e-01
8794:-1.9904628740484345e-01
8795:-1.9624297280454225e-01
8796:-1.9844427347909860e-01
8797:-1.9654003632010850e-01
8798:-1.9357537486392942e-01
8799:-1.9094448011935408e-01
8800:-2.0613152798813364e-01
8801:-2.0243436428864717e-01
8802:-1.9723102485455540e-01
8803:-1.9296216171000352e-01
8804:-2.0122042497626097e-01
8805:-1.9773165519595515e-01
8806:-1.9280396011045872e-01
8807:-1.8874832424629948e-01
8808:-1.9462384264951349e-01
8809:-1.9138856739857746e-01
8810:-1.8679732905785451e-01
8811:-1.8300311604939026e-01
8812:-1.8941995906653128e-01
8813:-1.8636527768978120e-01
8814:-1.8201488410971356e-01
8815:-1.7840889890254349e-01
8816:-1.9059288290976914e-01
8817:-1.8601135456883913e-01
8818:-1.7978452411393314e-01
8819:-1.7482911342137550e-01
8820:-1.8649301662685122e-01
8821:-1.8212435441280472e-01
8822:-1.7617295574538863e-01
8823:-1.7142685185632534e-01
8824:-1.8088804630437805e-01
8825:-1.7678254006163971e-01
8826:-1.7117378623724064e-01
8827:-1.6668940777957905e-01
8828:-1.7639525648823565e-01
8829:-1.7248095741015221e-01
8830:-1.6712262094098559e-01
8831:-1.6283038641517922e-01
8832:-1.7212799447140947e-01
8833:-1.6698551377209886e-01
8834:-1.6014582436566527e-01
8835:-1.5481026585322410e-01
8836:-1.6883656793910054e-01
8837:-1.6389958711829050e-01
8838:-1.5732238166421855e-01
8839:-1.5218318299450509e-01
8840:-1.6423808892871333e-01
8841:-1.5955920274235150e-01
8842:-1.5331266896392964e-01
8843:-1.4842180031303823e-01
8844:-1.6048132000298349e-01
8845:-1.5599274639043265e-01
8846:-1.4999098688432361e-01
8847:-1.4528481393545997e-01
8848:-1.5193758923314057e-01
8849:-1.4652651719788370e-01
8850:-1.3943787203941849e-01
8851:-1.3398719374782164e-01
8852:-1.4941325455919685e-01
8853:-1.4419071762629529e-01
8854:-1.3733960256150871e-01
8855:-1.3206454586044683e-01
8856:-1.4578222433381763e-01
8857:-1.4079982583853329e-01
8858:-1.3425296516594867e-01
8859:-1.2920400773730362e-01
8860:-1.4274254487890267e-01
8861:-1.3794008435327368e-01
8862:-1.3162237314387981e-01
8863:-1.2674445831144635e-01
8864:-1.3107916567333874e-01
8865:-1.2564606592739999e-01
8866:-1.1861302896354674e-01
8867:-1.1326797772056410e-01
8868:-1.2924782287994144e-01
8869:-1.2398139467381700e-01
8870:-1.1715638004449770e-01
8871:-1.1196333335279376e-01
8872:-1.2650517996902208e-01
8873:-1.2145443511784081e-01
8874:-1.1489961838027270e-01
8875:-1.0990488985624082e-01
8876:-1.2413504308741379e-01
8877:-1.1924826915018337e-01
8878:-1.1289972420990003e-01
8879:-1.0805713683667692e-01
8880:-1.1043780674347219e-01
8881:-1.0518573016513251e-01
8882:-9.8454641341682511e-02
8883:-9.3389841971418017e-02
8884:-1.0921146849899051e-01
8885:-1.0410118432736074e-01
8886:-9.7545070575874318e-02
8887:-9.2606777585895098e-02
8888:-1.0725554437306781e-01
8889:-1.0233163767446982e-01
8890:-9.6006891297605784e-02
8891:-9.1236855449975535e-02
8892:-1.0548673120366189e-01
8893:-1.0070686297681559e-01
8894:-9.4561876648721219e-02
8895:-8.9923233423384166e-02
8896:-9.0725619051239048e-02
8897:-8.5811361514879683e-02
8898:-7.9570708264916384e-02
8899:-7.4918706601814572e-02
8900:-9.0007304119540915e-02
8901:-8.5209623518143818e-02
8902:-7.9111370946583853e-02
8903:-7.4561029869906384e-02
8904:-8.8723821759912877e-02
8905:-8.4082254202805240e-02
8906:-7.8175685435378089e-02
8907:-7.3763020183468433e-02
8908:-8.7477917810422454e-02
8909:-8.2959027407781077e-02
8910:-7.7203866677068980e-02
8911:-7.2900599855285866e-02
8912:-7.2486948586555175e-02
8913:-6.8027453914795158e-02
8914:-6.2414543857108179e-02
8915:-5.8269086715544711e-02
8916:-7.2180792433869795e-02
8917:-6.7813198712351655e-02
8918:-6.2310941810514602e-02
8919:-5.8243274492459085e-02
8920:-7.1452878342090978e-02
8921:-6.7210936767497384e-02
8922:-6.1861157643767047e-02
8923:-5.7901589739660655e-02
8924:-7.0646405187113889e-02
8925:-6.6505189826217975e-02
8926:-6.1278464872007200e-02
8927:-5.7406758106370380e-02
8928:-5.6115777606145521e-02
8929:-5.2190615700262392e-02
8930:-4.7296540645455090e-02
8931:-4.3717987487995581e-02
8932:-5.6128966011855096e-02
8933:-5.2272627829264708e-02
8934:-4.7459845865252266e-02
8935:-4.3937087146744720e-02
8936:-5.5841799239966503e-02
8937:-5.2082198559267073e-02
8938:-4.7384767637817522e-02
8939:-4.3942098344043688e-02
8940:-5.5391497766572900e-02
8941:-5.1711296456618268e-02
8942:-4.7109331636864787e-02
8943:-4.3733607121437458e-02
8944:-4.1872030966948887e-02
8945:-3.8529443746807189e-02
8946:-3.4405580173188177e-02
8947:-3.1424616479328038e-02
8948:-4.2118571577814186e-02
8949:-3.8823448541356428e-02
8950:-3.4753714832582966e-02
8951:-3.1808308864247889e-02
8952:-4.2163334101571359e-02
8953:-3.8937648504817887e-02
8954:-3.4948493213762789e-02
8955:-3.2057192671653932e-02
8956:-4.1988326199074076e-02
8957:-3.8821589630787592e-02
8958:-3.4901768623951973e-02
8959:-3.2057792448934530e-02
8960:-2.9899355438109954e-02
8961:-2.7159147653015178e-02
8962:-2.3821299936793081e-02
8963:-2.1442491312070489e-02
8964:-3.0299923056800682e-02
8965:-2.7587756566547047e-02
8966:-2.4279453174194988e-02
8967:-2.1917907127399255e-02
8968:-3.0574951458680600e-02
8969:-2.7907110534134010e-02
8970:-2.4647435431153369e-02
8971:-2.2316125458919537e-02
8972:-3.0598718722584812e-02
8973:-2.7970722179534439e-02
8974:-2.4755974649001769e-02
8975:-2.2453704031989961e-02
8976:-2.0237722066290077e-02
8977:-1.8094521101415920e-02
8978:-1.5525920488561962e-02
8979:-1.3728977728966875e-02
8980:-2.0720449511434778e-02
8981:-1.8587706836843392e-02
8982:-1.6026447392736395e-02
8983:-1.4230335185040270e-02
8984:-2.1132313496780672e-02
8985:-1.9020919976450078e-02
8986:-1.6479277173621826e-02
8987:-1.4691920401347773e-02
8988:-2.1283474796092619e-02
8989:-1.9194299904078671e-02
8990:-1.6675308509466431e-02
8991:-1.4900472375113180e-02
8992:-1.2831260634783237e-02
8993:-1.1254840912294947e-02
8994:-9.4061711620842623e-03
8995:-8.1456829582049143e-03
8996:-1.3331387759063259e-02
8997:-1.1749826814699870e-02
8998:-9.8889931848657759e-03
8999:-8.6150367037615139e-03
9000:-1.3795445655389909e-02
9001:-1.2214827219744031e-02
9002:-1.0348113601684921e-02
9003:-9.0642566256095795e-03
9004:-1.4008977482781799e-02
9005:-1.2434864472650554e-02
9006:-1.0571189064940208e-02
9007:-9.2855324200118543e-03
9008:-7.5280739039220584e-03
9009:-6.4620807328310461e-03
9010:-5.2481366562589808e-03
9011:-4.4496762589258023e-03
9012:-7.9888125758860590e-03
9013:-6.9043460253435975e-03
9014:-5.6619274097097451e-03
9015:-4.8383626874698455e-03
9016:-8.4308913869095888e-03
9017:-7.3300953839910126e-03
9018:-6.0608473888168956e-03
9019:-5.2125862154574513e-03
9020:-8.6497845362598219e-03
9021:-7.5423225327973242e-03
9022:-6.2602562387429912e-03
9023:-5.3990955759830248e-03
9024:-4.0691909743875059e-03
9025:-3.4259583498903565e-03
9026:-2.7181259799323254e-03
9027:-2.2718875350627278e-03
9028:-4.4433848907013710e-03
9029:-3.7713898559826758e-03
9030:-3.0231810794032971e-03
9031:-2.5439254667422597e-03
9032:-4.8030536844428954e-03
9033:-4.1019209137916103e-03
9034:-3.3124593716652708e-03
9035:-2.7992817934369067e-03
9036:-4.9816594745295123e-03
9037:-4.2644484866237800e-03
9038:-3.4518669386527615e-03
9039:-2.9194843118800413e-03
9040:-2.0658170937194694e-03
9041:-1.7175326307821823e-03
9042:-1.3280595516067895e-03
9043:-1.0734378462425107e-03
9044:-2.3195972406337452e-03
9045:-1.9365349095891334e-03
9046:-1.5009968026458616e-03
9047:-1.2107100118435472e-03
9048:-2.5561709961124564e-03
9049:-2.1376780728148623e-03
9050:-1.6560708750629268e-03
9051:-1.3308731390652467e-03
9052:-2.6657120903960129e-03
9053:-2.2274312330689433e-03
9054:-1.7209084086870447e-03
9055:-1.3775611121867716e-03
9056:-9.5006306118676498e-04
9057:-7.1233209435098350e-04
9058:-3.7563642348645998e-04
9059:-8.9191184385576476e-05
9060:-1.0682983464061233e-03
9061:-7.9568319018927952e-04
9062:-4.1553533503183964e-04
9063:-9.7592945422788894e-05
9064:-1.1701545475495477e-03
9065:-8.6517739773787970e-04
9066:-4.4735930502786444e-04
9067:-1.0437821917643730e-04
9068:-1.2076485811222987e-03
9069:-8.8760953726702127e-04
9070:-4.5501108518759722e-04
9071:-1.0473591200114082e-04
9072:-2.9024596021157457e-03
9073:-1.3809474982606845e-02
9074:-2.7935774194982603e-02
9075:-3.8670971866528556e-02
9076:-2.7879820782603791e-03
9077:-1.3266725476908246e-02
9078:-2.6838552408756905e-02
9079:-3.7153966653184017e-02
9080:-2.6418379499881131e-03
9081:-1.2573622260892252e-02
9082:-2.5437781145539549e-02
9083:-3.5217194136546254e-02
9084:-2.5321006534880048e-03
9085:-1.2052534473343061e-02
9086:-2.4384769426088731e-02
9087:-3.3761047584440290e-02
9088:-4.4352145593746485e-02
9089:-5.4870378708679890e-02
9090:-6.8290531804723803e-02
9091:-7.8334367861835758e-02
9092:-4.2613995566558829e-02
9093:-5.2725269172321107e-02
9094:-6.5631061163690524e-02
9095:-7.5293675595814361e-02
9096:-4.0394561225454220e-02
9097:-4.9984577352824910e-02
9098:-6.2229903250569804e-02
9099:-7.1402302439827550e-02
9100:-3.8725575029887369e-02
9101:-4.7922333219160305e-02
9102:-5.9668306785284141e-02
9103:-6.8469688796653952e-02
9104:-8.3594823594183326e-02
9105:-9.3230651528557862e-02
9106:-1.0532036495137213e-01
9107:-1.1420923557920139e-01
9108:-8.0355787540694182e-02
9109:-8.9630894149802173e-02
9110:-1.0127444795660941e-01
9111:-1.0984152974782178e-01
9112:-7.6209281291621314e-02
9113:-8.5020246989224529e-02
9114:-9.6088855822074784e-02
9115:-1.0424002090227832e-01
9116:-7.3083561568482946e-02
9117:-8.1543104762285296e-02
9118:-9.2175665454581474e-02
9119:-1.0001038218558808e-01
9120:-1.1880763962264637e-01
9121:-1.2712861991526780e-01
9122:-1.3736773814657108e-01
9123:-1.4473862757431616e-01
9124:-1.1427609257821211e-01
9125:-1.2230558080070791e-01
9126:-1.3219606840955306e-01
9127:-1.3932414269291868e-01
9128:-1.0846217542454575e-01
9129:-1.1611227024076826e-01
9130:-1.2554621640012051e-01
9131:-1.3235431461250699e-01
9132:-1.0407041687281976e-01
9133:-1.1142983050051773e-01
9134:-1.2051195295700770e-01
9135:-1.2707202273382023e-01
9136:-1.4849474952471256e-01
9137:-1.5518818576979271e-01
9138:-1.6321845502899157e-01
9139:-1.6883454789407759e-01
9140:-1.4295957806706228e-01
9141:-1.4944354865948578e-01
9142:-1.5723416634246212e-01
9143:-1.6269251416284694e-01
9144:-1.3583002446041303e-01
9145:-1.4203541787887258e-01
9146:-1.4950443916079259e-01
9147:-1.5474859827421766e-01
9148:-1.3042343088051256e-01
9149:-1.3641104210781679e-01
9150:-1.4362656006450872e-01
9151:-1.4870007566525048e-01
9152:-1.7163557200380172e-01
9153:-1.7651659687544327e-01
9154:-1.8214965264142077e-01
9155:-1.8590691571291176e-01
9156:-1.6541869399182024e-01
9157:-1.7017624268975326e-01
9158:-1.7568123576426078e-01
9159:-1.7936550465024703e-01
9160:-1.5737212671286363e-01
9161:-1.6195829027385780e-01
9162:-1.6728110032546936e-01
9163:-1.7085733279576490e-01
9164:-1.5124109112254630e-01
9165:-1.5568806743125410e-01
9166:-1.6085985636880340e-01
9167:-1.6434370404945869e-01
9168:-1.8771157919370268e-01
9169:-1.9072786373913711e-01
9170:-1.9394355012657608e-01
9171:-1.9586264425157449e-01
9172:-1.8114008483056995e-01
9173:-1.8411543293395491e-01
9174:-1.8730767025058911e-01
9175:-1.8923150265703306e-01
9176:-1.7258543429130341e-01
9177:-1.7549322597113731e-01
9178:-1.7863525876871622e-01
9179:-1.8054931393969961e-01
9180:-1.6603079433000228e-01
9181:-1.6887628425888235e-01
9182:-1.7196528288497309e-01
9183:-1.7386002173473661e-01
9184:-1.9669442169356297e-01
9185:-1.9791126561436867e-01
9186:-1.9883540639501621e-01
9187:-1.9904329216720268e-01
9188:-1.9007370414229302e-01
9189:-1.9132338655211861e-01
9190:-1.9231533404721687e-01
9191:-1.9259358803473539e-01
9192:-1.8139627639212499e-01
9193:-1.8267177398834200e-01
9194:-1.8372938382129966e-01
9195:-1.8408174594433907e-01
9196:-1.7470409327526032e-01
9197:-1.7598681138102473e-01
9198:-1.7707799642931818e-01
9199:-1.7747421995231333e-01
9200:-1.9898030882801090e-01
9201:-1.9856051662422489e-01
9202:-1.9743504186425542e-01
9203:-1.9613827097153264e-01
9204:-1.9257431631109551e-01
9205:-1.9224638731129615e-01
9206:-1.9125938315107166e-01
9207:-1.9008268753149263e-01
9208:-1.8411007845125024e-01
9209:-1.8388465429160267e-01
9210:-1.8305622472388955e-01
9211:-1.8201951595214322e-01
9212:-1.7753216964428956e-01
9213:-1.7737264329623811e-01
9214:-1.7664955708530986e-01
9215:-1.7570785415861156e-01
9216:-1.9529749178099781e-01
9217:-1.9347047146239557e-01
9218:-1.9061327434450090e-01
9219:-1.8806942358957870e-01
9220:-1.8931065685806961e-01
9221:-1.8761979344859331e-01
9222:-1.8495307064730684e-01
9223:-1.8256424152435446e-01
9224:-1.8132833778422849e-01
9225:-1.7979865679986295e-01
9226:-1.7735947927219647e-01
9227:-1.7515744667723737e-01
9228:-1.7507211076316290e-01
9229:-1.7365385478450462e-01
9230:-1.7137377503324866e-01
9231:-1.6930373300897253e-01
9232:-1.8659275725636565e-01
9233:-1.8362963567937957e-01
9234:-1.7940185151327154e-01
9235:-1.7589214139463633e-01
9236:-1.8117307031575322e-01
9237:-1.7837414154372361e-01
9238:-1.7436735608993770e-01
9239:-1.7103193782458662e-01
9240:-1.7386988031573264e-01
9241:-1.7127114085965128e-01
9242:-1.6753593938805655e-01
9243:-1.6441608334343419e-01
9244:-1.6808986868150935e-01
9245:-1.6563445487658932e-01
9246:-1.6209525679376444e-01
9247:-1.5913195522627649e-01
9248:-1.7393055429322837e-01
9249:-1.7011466857446578e-01
9250:-1.6488566732802498e-01
9251:-1.6069292966593182e-01
9252:-1.6916482174644573e-01
9253:-1.6552784498704146e-01
9254:-1.6053457261256415e-01
9255:-1.5652367194357625e-01
9256:-1.6266621286933042e-01
9257:-1.5925188280553976e-01
9258:-1.5455323518751649e-01
9259:-1.5077066797987318e-01
9260:-1.5746752210081627e-01
9261:-1.5421595241026087e-01
9262:-1.4973377705716681e-01
9263:-1.4611988605933296e-01
9264:-1.5839688192304521e-01
9265:-1.5400715932770442e-01
9266:-1.4813293613242204e-01
9267:-1.4352334674351477e-01
9268:-1.5432470959335501e-01
9269:-1.5011647090854488e-01
9270:-1.4447727838639451e-01
9271:-1.4004629373878166e-01
9272:-1.4869403144485749e-01
9273:-1.4471537337482615e-01
9274:-1.3937514547581209e-01
9275:-1.3517245449488099e-01
9276:-1.4413396152605348e-01
9277:-1.4032621664593226e-01
9278:-1.3520972077726681e-01
9279:-1.3117863897583334e-01
9280:-1.4103209917217432e-01
9281:-1.3632420298342568e-01
9282:-1.3012728183980446e-01
9283:-1.2533975918845544e-01
9284:-1.3764959160798990e-01
9285:-1.3311719521579793e-01
9286:-1.2714497227372074e-01
9287:-1.2252602693579255e-01
9288:-1.3289694062102742e-01
9289:-1.2859002359081156e-01
9290:-1.2290756501936093e-01
9291:-1.1850690458372022e-01
9292:-1.2899445616892571e-01
9293:-1.2485789423604468e-01
9294:-1.1939525018082002e-01
9295:-1.1516091410304773e-01
9296:-1.2277766644908904e-01
9297:-1.1797783059385800e-01
9298:-1.1173898666214249e-01
9299:-1.0697759475690419e-01
9300:-1.2005235168067474e-01
9301:-1.1541532601898576e-01
9302:-1.0938263022616221e-01
9303:-1.0477433077562245e-01
9304:-1.1614806158241696e-01
9305:-1.1172320318506780e-01
9306:-1.0596047198429123e-01
9307:-1.0155358429417564e-01
9308:-1.1288984599426005e-01
9309:-1.0862767982198593e-01
9310:-1.0307289180852761e-01
9311:-9.8821787076418866e-02
9312:-1.0444942539279219e-01
9313:-9.9746794947133510e-02
9314:-9.3698504081086112e-02
9315:-8.9130749434246814e-02
9316:-1.0232596575132359e-01
9317:-9.7769519513562608e-02
9318:-9.1904720359578640e-02
9319:-8.7471871127636575e-02
9320:-9.9210511614657743e-02
9321:-9.4847413100833722e-02
9322:-8.9226259924598442e-02
9323:-8.4973317795986658e-02
9324:-9.6560360644836432e-02
9325:-9.2347558525212939e-02
9326:-8.6916551902482320e-02
9327:-8.2804621146379057e-02
9328:-8.6722038161245796e-02
9329:-8.2269596753236612e-02
9330:-7.6596731302387019e-02
9331:-7.2353159630701047e-02
9332:-8.5132964983784809e-02
9333:-8.0807541023961302e-02
9334:-7.5292555327810776e-02
9335:-7.1163934234569182e-02
9336:-8.2727794480754041e-02
9337:-7.8572854768357306e-02
9338:-7.3270841342606668e-02
9339:-6.9298066324353119e-02
9340:-8.0632517521218694e-02
9341:-7.6612020239599440e-02
9342:-7.1478704400670598e-02
9343:-6.7629922588303790e-02
9344:-7.0129580864498622e-02
9345:-6.6043627410047004e-02
9346:-6.0884678803351612e-02
9347:-5.7061563481003809e-02
9348:-6.8999457644420850e-02
9349:-6.5020411922912358e-02
9350:-5.9993030897021196e-02
9351:-5.6264604577994891e-02
9352:-6.7213985047365588e-02
9353:-6.3380796999921052e-02
9354:-5.8533784244274835e-02
9355:-5.4935871801130513e-02
9356:-6.5609990131381080e-02
9357:-6.1893507566776779e-02
9358:-5.7191462699916228e-02
9359:-5.3698973019369593e-02
9360:-5.5071000674210564e-02
9361:-5.1434967073559032e-02
9362:-4.6886375568253369e-02
9363:-4.3548300542783851e-02
9364:-5.4322305748883047e-02
9365:-5.0772845145529939e-02
9366:-4.6329383772640280e-02
9367:-4.3065872331925922e-02
9368:-5.3060361280597643e-02
9369:-4.9631187065729214e-02
9370:-4.5334742035647045e-02
9371:-4.2176240449336488e-02
9372:-5.1877605874172540e-02
9373:-4.8546286088389769e-02
9374:-4.4370099588977654e-02
9375:-4.1298005467837247e-02
9376:-4.1821934995736922e-02
9377:-3.8688645423731002e-02
9378:-3.4808453995773876e-02
9379:-3.1991765018486933e-02
9380:-4.1377115858581101e-02
9381:-3.8310577695438587e-02
9382:-3.4509983791190281e-02
9383:-3.1748527385098042e-02
9384:-4.0540717191538032e-02
9385:-3.7569121609845525e-02
9386:-3.3882679964448638e-02
9387:-3.1201217534798729e-02
9388:-3.9706468880639410e-02
9389:-3.6813649709716553e-02
9390:-3.3222585568068987e-02
9391:-3.0608509247141417e-02
9392:-3.0546141163244334e-02
9393:-2.7941450323156855e-02
9394:-2.4753350365975015e-02
9395:-2.2468629063390096e-02
9396:-3.0330293674319653e-02
9397:-2.7773379757413178e-02
9398:-2.4640562763697482e-02
9399:-2.2392811602200999e-02
9400:-2.9822957210341762e-02
9401:-2.7336334685451550e-02
9402:-2.4286013573484543e-02
9403:-2.2094414154483700e-02
9404:-2.9264132302272573e-02
9405:-2.6837471560078270e-02
9406:-2.3858293971226779e-02
9407:-2.1715762175743784e-02
9408:-2.1306743224861813e-02
9409:-1.9231477757888776e-02
9410:-1.6727243626820144e-02
9411:-1.4961125483499918e-02
9412:-2.1248728763464640e-02
9413:-1.9203571534867823e-02
9414:-1.6732214515005100e-02
9415:-1.4986396291089665e-02
9416:-2.0977760670259225e-02
9417:-1.8979722577357812e-02
9418:-1.6561389628022866e-02
9419:-1.4849747218919426e-02
9420:-2.0623327881607187e-02
9421:-1.8667360823054872e-02
9422:-1.6297359377403516e-02
9423:-1.4617744463584608e-02
9424:-1.4073369357909078e-02
9425:-1.2504755947585109e-02
9426:-1.0645349171002492e-02
9427:-9.3607639702593635e-03
9428:-1.4107744585742033e-02
9429:-1.2553360165230952e-02
9430:-1.0707043652841846e-02
9431:-9.4283454957191665e-03
9432:-1.3987047330087819e-02
9433:-1.2458836758782323e-02
9434:-1.0639457470747109e-02
9435:-9.3759378287898345e-03
9436:-1.3770357949515056e-02
9437:-1.2267962646304963e-02
9438:-1.0476657837819829e-02
9439:-9.2304007537290372e-03
9440:-8.7248294848625840e-03
9441:-7.6158610741566893e-03
9442:-6.3296644289167342e-03
9443:-5.4637257129886803e-03
9444:-8.7941209511312977e-03
9445:-7.6861990073885129e-03
9446:-6.3973303120719600e-03
9447:-5.5263434442939371e-03
9448:-8.7479194956781806e-03
9449:-7.6488174770971409e-03
9450:-6.3661993512604802e-03
9451:-5.4961095988070360e-03
9452:-8.6101161559294648e-03
9453:-7.5233412194761354e-03
9454:-6.2527546880676308e-03
9455:-5.3888945574167230e-03
9456:-5.0432062506423668e-03
9457:-4.3195933666447615e-03
9458:-3.4976262750163259e-03
9459:-2.9573497705351962e-03
9460:-5.1021392047145373e-03
9461:-4.3705270604161581e-03
9462:-3.5363420772623528e-03
9463:-2.9855152665676549e-03
9464:-5.0711008888977959e-03
9465:-4.3366688672114382e-03
9466:-3.4967172989776893e-03
9467:-2.9401187954422995e-03
9468:-4.9662251673679818e-03
9469:-4.2352299078478829e-03
9470:-3.3982838057165263e-03
9471:-2.8430565822157540e-03
9472:-2.6991804454883387e-03
9473:-2.2528863941959102e-03
9474:-1.7366541655322873e-03
9475:-1.3865876161849211e-03
9476:-2.7214189704459057e-03
9477:-2.2646406175690992e-03
9478:-1.7365456536804459e-03
9479:-1.3790848977254782e-03
9480:-2.6726315959998896e-03
9481:-2.2106460601669779e-03
9482:-1.6788419305219847e-03
9483:-1.3213443517722462e-03
9484:-2.5761049157976843e-03
9485:-2.1162168892166406e-03
9486:-1.5899781038669961e-03
9487:-1.2392854505083989e-03
9488:-1.2134342267093286e-03
9489:-8.8870831086107884e-04
9490:-4.5306583781089493e-04
9491:-1.0298682162071522e-04
9492:-1.2027638079505655e-03
9493:-8.7510607417500886e-04
9494:-4.4227270021133413e-04
9495:-9.9824532867430151e-05
9496:-1.1462500054813998e-03
9497:-8.2559391951772293e-04
9498:-4.1226562050513006e-04
9499:-9.3360088258639492e-05
9500:-1.0689347367072140e-03
9501:-7.6137096377437577e-04
9502:-3.7439227753907893e-04
9503:-8.3381440239546214e-05
9504:-2.4743392478920293e-03
9505:-1.1777863188040342e-02
9506:-2.3829674636086512e-02
9507:-3.2993327514315107e-02
9508:-2.3666117885349411e-03
9509:-1.1264687746472284e-02
9510:-2.2792132372791794e-02
9511:-3.1558149247445121e-02
9512:-2.2267153948903324e-03
9513:-1.0597482890276837e-02
9514:-2.1442436923763408e-02
9515:-2.9690798835377515e-02
9516:-2.1195173894326233e-03
9517:-1.0086569288028379e-02
9518:-2.0408535850316156e-02
9519:-2.8260087903759182e-02
9520:-3.7845513597356877e-02
9521:-4.6834475312012278e-02
9522:-5.8316285731952348e-02
9523:-6.6921297050887604e-02
9524:-3.6200253423301333e-02
9525:-4.4800553107014987e-02
9526:-5.5787985835277581e-02
9527:-6.4025159594479075e-02
9528:-3.4059450146526067e-02
9529:-4.2153757154565472e-02
9530:-5.2497034090185038e-02
9531:-6.0254219490941084e-02
9532:-3.2419135597400589e-02
9533:-4.0125516014207906e-02
9534:-4.9974514824948663e-02
9535:-5.7362831529098025e-02
9536:-7.1432965890553479e-02
9537:-7.9706446268469178e-02
9538:-9.0107842425074497e-02
9539:-9.7774429636283453e-02
9540:-6.8345219118731176e-02
9541:-7.6269396027784139e-02
9542:-8.6235948831257112e-02
9543:-9.3585688085748062e-02
9544:-6.4323887885041883e-02
9545:-7.1790642517752121e-02
9546:-8.1186103222294997e-02
9547:-8.8118697097224433e-02
9548:-6.1239794898485231e-02
9549:-6.8353824014127124e-02
9550:-7.7307751597808824e-02
9551:-8.3917142327610605e-02
9552:-1.0174815218618542e-01
9553:-1.0895244453224577e-01
9554:-1.1784615353168626e-01
9555:-1.2427292240697793e-01
9556:-9.7396570397672924e-02
9557:-1.0430786434876277e-01
9558:-1.1284493800321529e-01
9559:-1.1901871678760180e-01
9560:-9.1714901082747477e-02
9561:-9.8239338275549551e-02
9562:-1.0630416588081822e-01
9563:-1.1214167489032648e-01
9564:-8.7346821191489385e-02
9565:-9.3570738706764245e-02
9566:-1.0126768469423861e-01
9567:-1.0684228461099485e-01
9568:-1.2755736379946173e-01
9569:-1.3342731182761172e-01
9570:-1.4050516235660845e-01
9571:-1.4548540568691015e-01
9572:-1.2217578449631934e-01
9573:-1.2782131554745499e-01
9574:-1.3463532429688441e-01
9575:-1.3943575197404071e-01
9576:-1.1512890620549479e-01
9577:-1.2047405774910298e-01
9578:-1.2693257058138599e-01
9579:-1.3148878088008051e-01
9580:-1.0969633287610747e-01
9581:-1.1480511425591515e-01
9582:-1.2098223127224857e-01
9583:-1.2534377514090939e-01
9584:-1.4798107946543038e-01
9585:-1.5235110866280671e-01
9586:-1.5743842485107212e-01
9587:-1.6086970876533710e-01
9588:-1.4184360045254613e-01
9589:-1.4606379972281730e-01
9590:-1.5098496231473421e-01
9591:-1.5431135685999911e-01
9592:-1.3377659821633217e-01
9593:-1.3779058108717615e-01
9594:-1.4248000441725173e-01
9595:-1.4565739017403859e-01
9596:-1.2753539396551941e-01
9597:-1.3138308858738254e-01
9598:-1.3588350100352886e-01
9599:-1.3893747477797611e-01
9600:-1.6253307905162664e-01
9601:-1.6534173520870521e-01
9602:-1.6839746712944956e-01
9603:-1.7027786461685288e-01
9604:-1.5592675236876283e-01
9605:-1.5865961215286215e-01
9606:-1.6164391490475846e-01
9607:-1.6349031632481370e-01
9608:-1.4720348394630289e-01
9609:-1.4982456648219736e-01
9610:-1.5269840418562713e-01
9611:-1.5448695201262785e-01
9612:-1.4042539312360222e-01
9613:-1.4295111866793800e-01
9614:-1.4572736972900702e-01
9615:-1.4746152436203397e-01
9616:-1.7111816352637688e-01
9617:-1.7240045901802525e-01
9618:-1.7350387479195734e-01
9619:-1.7391911919325453e-01
9620:-1.6431971258244149e-01
9621:-1.6559404543721509e-01
9622:-1.6671107114507402e-01
9623:-1.6715484579727588e-01
9624:-1.5529487321128341e-01
9625:-1.5654527083401343e-01
9626:-1.5766247198436290e-01
9627:-1.5813001588479736e-01
9628:-1.4824760368243312e-01
9629:-1.4946961854357971e-01
9630:-1.5057395940641380e-01
9631:-1.5104980089907669e-01
9632:-1.7399054587890059e-01
9633:-1.7386187344552659e-01
9634:-1.7318945334038427e-01
9635:-1.7229421650691432e-01
9636:-1.6724774291276742e-01
9637:-1.6716985335868584e-01
9638:-1.6658338732411931e-01
9639:-1.6576852172326254e-01
9640:-1.5824375442844243e-01
9641:-1.5821878772951575e-01
9642:-1.5772745627435331e-01
9643:-1.5700482180703762e-01
9644:-1.5117423483241677e-01
9645:-1.5118005071881491e-01
9646:-1.5074923467525597e-01
9647:-1.5008814756803496e-01
9648:-1.7168579921540844e-01
9649:-1.7032283962729275e-01
9650:-1.6812243414451658e-01
9651:-1.6611903211133427e-01
9652:-1.6520782651038338e-01
9653:-1.6394224313254119e-01
9654:-1.6188355660119758e-01
9655:-1.5999961420804018e-01
9656:-1.5649984876220827e-01
9657:-1.5534960113575938e-01
9658:-1.5346157222509188e-01
9659:-1.5172326683021617e-01
9660:-1.4962116993964669e-01
9661:-1.4855088781245737e-01
9662:-1.4678339845741900e-01
9663:-1.4514934463115117e-01
9664:-1.6494256626509390e-01
9665:-1.6256019352872350e-01
9666:-1.5912140810200698e-01
9667:-1.5623863748442601e-01
9668:-1.5889047118529009e-01
9669:-1.5664003124862017e-01
9670:-1.5338345966949254e-01
9671:-1.5064744241194328e-01
9672:-1.5069673134679204e-01
9673:-1.4860906379050490e-01
9674:-1.4557899480364253e-01
9675:-1.4302666858597482e-01
9676:-1.4418235118643760e-01
9677:-1.4221272817573266e-01
9678:-1.3934830635022771e-01
9679:-1.3693134753814601e-01
9680:-1.5461824973711574e-01
9681:-1.5145079277713697e-01
9682:-1.4708091896151232e-01
9683:-1.4355488359920551e-01
9684:-1.4910753629708631e-01
9685:-1.4609424666078094e-01
9686:-1.4193107659963572e-01
9687:-1.3856734844135785e-01
9688:-1.4158794885885392e-01
9689:-1.3876940435965027e-01
9690:-1.3486898901218428e-01
9691:-1.3171268178970788e-01
9692:-1.3556755356715389e-01
9693:-1.3289389197260326e-01
9694:-1.2919015457497482e-01
9695:-1.2618989770343844e-01
9696:-1.4161633560176701e-01
9697:-1.3789807348565147e-01
9698:-1.3289909139628903e-01
9699:-1.2895839195901221e-01
9700:-1.3671651549563066e-01
9701:-1.3316422759576274e-01
9702:-1.2838379427251723e-01
9703:-1.2461163181499296e-01
9704:-1.2997428714492515e-01
9705:-1.2663533962094969e-01
9706:-1.2213698214692439e-01
9707:-1.1858325003741593e-01
9708:-1.2453633960325661e-01
9709:-1.2135882260366829e-01
9710:-1.1707482814592668e-01
9711:-1.1368780926170073e-01
9712:-1.2682238694895728e-01
9713:-1.2277585105358994e-01
9714:-1.1742970852391424e-01
9715:-1.1328379745813855e-01
9716:-1.2256562699633054e-01
9717:-1.1868762727665286e-01
9718:-1.1356025903438784e-01
9719:-1.0958087571543486e-01
9720:-1.1665421987159852e-01
9721:-1.1299595507982446e-01
9722:-1.0815507748075248e-01
9723:-1.0439463671841193e-01
9724:-1.1184831755765047e-01
9725:-1.0835874447338012e-01
9726:-1.0373869957918540e-01
9727:-1.0014763478752642e-01
9728:-1.1105949474062221e-01
9729:-1.0688417827291032e-01
9730:-1.0144069710132923e-01
9731:-9.7273186203697209e-02
9732:-1.0744480057036526e-01
9733:-1.0343358141618551e-01
9734:-9.8200885208596600e-02
9735:-9.4192048170278292e-02
9736:-1.0237483859675015e-01
9737:-9.8580359061335443e-02
9738:-9.3626999504234559e-02
9739:-8.9829171763747856e-02
9740:-9.8217985436156424e-02
9741:-9.4591904359750581e-02
9742:-8.9856299016755334e-02
9743:-8.6223525317625518e-02
9744:-9.5055638847981502e-02
9745:-9.0923744622214947e-02
9746:-8.5595371011065444e-02
9747:-8.1559770052797229e-02
9748:-9.2057924794328977e-02
9749:-8.8080133172813435e-02
9750:-8.2947769107876893e-02
9751:-7.9058329079090855e-02
9752:-8.7806255809568509e-02
9753:-8.4034413915258815e-02
9754:-7.9164984406281919e-02
9755:-7.5472313673559457e-02
9756:-8.4287801489908665e-02
9757:-8.0677808982849819e-02
9758:-7.6015700702160460e-02
9759:-7.2478671789275168e-02
9760:-7.9427488232305263e-02
9761:-7.5480042725665331e-02
9762:-7.0438634736503261e-02
9763:-6.6657582008418037e-02
9764:-7.7002430288295398e-02
9765:-7.3195313074738505e-02
9766:-6.8330855658934070e-02
9767:-6.4680515996853788e-02
9768:-7.3519480044734478e-02
9769:-6.9902100714589979e-02
9770:-6.5277666321215663e-02
9771:-6.1805237292239482e-02
9772:-7.0607524661922938e-02
9773:-6.7140816372055281e-02
9774:-6.2707559550046948e-02
9775:-5.9377288289999774e-02
9776:-6.4672749910042765e-02
9777:-6.1020237392546035e-02
9778:-5.6397879707842456e-02
9779:-5.2963520210918706e-02
9780:-6.2763540158398912e-02
9781:-5.9234914583033697e-02
9782:-5.4767306037207635e-02
9783:-5.1446154847446177e-02
9784:-5.9980840840668646e-02
9785:-5.6621649756295855e-02
9786:-5.2366466822863923e-02
9787:-4.9201306262761799e-02
9788:-5.7627030835136754e-02
9789:-5.4403815299953577e-02
9790:-5.0319657439589181e-02
9791:-4.7280495570822464e-02
9792:-5.1172074016683264e-02
9793:-4.7894941904922106e-02
9794:-4.3785562123606687e-02
9795:-4.0761633624956696e-02
9796:-4.9713092406709361e-02
9797:-4.6541879031938994e-02
9798:-4.2563448338108843e-02
9799:-3.9634222751123660e-02
9800:-4.7548896154672553e-02
9801:-4.4524344304495207e-02
9802:-4.0727917703338390e-02
9803:-3.7930868750533635e-02
9804:-4.5693373321065316e-02
9805:-4.2787791484566767e-02
9806:-3.9139499167087727e-02
9807:-3.6450426450203181e-02
9808:-3.9194675323708822e-02
9809:-3.6345981329696173e-02
9810:-3.2808559600835771e-02
9811:-3.0232562082022765e-02
9812:-3.8115699003470713e-02
9813:-3.5354159781836030e-02
9814:-3.1923090308371739e-02
9815:-2.9422908058741797e-02
9816:-3.6480149664840533e-02
9817:-3.3840989056011565e-02
9818:-3.0559982716668481e-02
9819:-2.8167354992805305e-02
9820:-3.5055244110549624e-02
9821:-3.2516575948089078e-02
9822:-2.9359297462455605e-02
9823:-2.7055745845538551e-02
9824:-2.8907399964711970e-02
9825:-2.6514861861115967e-02
9826:-2.3576410235513618e-02
9827:-2.1462165499988008e-02
9828:-2.8136121079820858e-02
9829:-2.5811935916144033e-02
9830:-2.2955482133347031e-02
9831:-2.0898540134366442e-02
9832:-2.6935221471904261e-02
9833:-2.4708754996976671e-02
9834:-2.1970284806498628e-02
9835:-1.9996426134743162e-02
9836:-2.5869021299079080e-02
9837:-2.3724000748161896e-02
9838:-2.1084388583987215e-02
9839:-1.9180577914120030e-02
9840:-2.0383769727171062e-02
9841:-1.8452330763419549e-02
9842:-1.6110804517262781e-02
9843:-1.4450316921092301e-02
9844:-1.9848718497116929e-02
9845:-1.7967454089241160e-02
9846:-1.5684692148836905e-02
9847:-1.4064116193330914e-02
9848:-1.8988277940817012e-02
9849:-1.7180629543034530e-02
9850:-1.4984986598878560e-02
9851:-1.3424338097132534e-02
9852:-1.8207729937722149e-02
9853:-1.6462728432865226e-02
9854:-1.4341809709476724e-02
9855:-1.2833050771627073e-02
9856:-1.3612179855153997e-02
9857:-1.2125566753861637e-02
9858:-1.0351828103384846e-02
9859:-9.1167375339522225e-03
9860:-1.3245452489702695e-02
9861:-1.1792374941887859e-02
9862:-1.0056614255014527e-02
9863:-8.8462475973014564e-03
9864:-1.2635209287392863e-02
9865:-1.1233515412344915e-02
9866:-9.5570364080274032e-03
9867:-8.3862211843299672e-03
9868:-1.2069683329802671e-02
9869:-1.0713135423895483e-02
9870:-9.0894202986696211e-03
9871:-7.9543931819356321e-03
9872:-8.5016122610247491e-03
9873:-7.4233424346263899e-03
9874:-6.1616750639356763e-03
9875:-5.3030454494700811e-03
9876:-8.2427879900504805e-03
9877:-7.1841646240018136e-03
9878:-5.9439719032596825e-03
9879:-5.0987313915587728e-03
9880:-7.8018125924308830e-03
9881:-6.7759104131074810e-03
9882:-5.5727829455495970e-03
9883:-4.7517858733505305e-03
9884:-7.3874538690229903e-03
9885:-6.3919110139542728e-03
9886:-5.2238771014930501e-03
9887:-4.4264243395911451e-03
9888:-4.8826385145916557e-03
9889:-4.1553890863118359e-03
9890:-3.3225650176179015e-03
9891:-2.7700216398692081e-03
9892:-4.6844545803098837e-03
9893:-3.9677502704012543e-03
9894:-3.1472212690541704e-03
9895:-2.6031967297514302e-03
9896:-4.3490603564256443e-03
9897:-3.6526995772477870e-03
9898:-2.8566654240565360e-03
9899:-2.3301454206294632e-03
9900:-4.0351393945367393e-03
9901:-3.3591281012628118e-03
9902:-2.5878998432513614e-03
9903:-2.0792982012884744e-03
9904:-2.5044069341461036e-03
9905:-2.0476695040437419e-03
9906:-1.5271856506144659e-03
9907:-1.1823734321456604e-03
9908:-2.3419481607162445e-03
9909:-1.8946749096864562e-03
9910:-1.3897878701218547e-03
9911:-1.0598307757345945e-03
9912:-2.0779769394130153e-03
9913:-1.6494568587320777e-03
9914:-1.1734421690395907e-03
9915:-8.6956154714467259e-04
9916:-1.8364515217813432e-03
9917:-1.4267167368228386e-03
9918:-9.7858409172099626e-04
9919:-6.9912323361242699e-04
9920:-1.0158022089693354e-03
9921:-7.1777030307919082e-04
9922:-3.4863043249841469e-04
9923:-7.5784529951269383e-05
9924:-9.0245428507483919e-04
9925:-6.2657391635821322e-04
9926:-2.9717563026511121e-04
9927:-6.3792036184803826e-05
9928:-7.2783358054802371e-04
9929:-4.8817628991283267e-04
9930:-2.2122809052198568e-04
9931:-4.8317145371063316e-05
9932:-5.7177725482671950e-04
9933:-3.6458720459668235e-04
9934:-1.5216216944089606e-04
9935:-3.1149338648043015e-05
9936:-2.0622153556272608e-03
9937:-9.8138780261171361e-03
9938:-1.9856647888194894e-02
9939:-2.7496297528201558e-02
9940:-1.9535080761118912e-03
9941:-9.2975086783731644e-03
9942:-1.8811678680287717e-02
9943:-2.6049962992859308e-02
9944:-1.8091124341799382e-03
9945:-8.6125935507682452e-03
9946:-1.7425702346947160e-02
9947:-2.4131406679740831e-02
9948:-1.6963881002625006e-03
9949:-8.0778258456420896e-03
9950:-1.6343496980982433e-02
9951:-2.2633201282829855e-02
9952:-3.1543409092214883e-02
9953:-3.9042583709260108e-02
9954:-4.8627411354894609e-02
9955:-5.5818388662940990e-02
9956:-2.9884977885766509e-02
9957:-3.6991332509955593e-02
9958:-4.6074995189363012e-02
9959:-5.2891386815547337e-02
9960:-2.7684846887600926e-02
9961:-3.4269292047925594e-02
9962:-4.2686431455228033e-02
9963:-4.9004289494872795e-02
9964:-2.5966622157580246e-02
9965:-3.2142960576513398e-02
9966:-4.0038437786047286e-02
9967:-4.5965863989994096e-02
9968:-5.9592163954428873e-02
9969:-6.6517103597973498e-02
9970:-7.5233973143498722e-02
9971:-8.1669620244674224e-02
9972:-5.6469232912116696e-02
9973:-6.3034967122259852e-02
9974:-7.1301102339467681e-02
9975:-7.7406029342978092e-02
9976:-5.2321288627157528e-02
9977:-5.8408519165927632e-02
9978:-6.6073491012307556e-02
9979:-7.1736609441885688e-02
9980:-4.9078518771767575e-02
9981:-5.4790686750776064e-02
9982:-6.1983905120720439e-02
9983:-6.7299786557612651e-02
9984:-8.5009718813175983e-02
9985:-9.1071818445913930e-02
9986:-9.8570310286526380e-02
9987:-1.0400275316080347e-01
9988:-8.0575455741886196e-02
9989:-8.6328856046337887e-02
9990:-9.3447982083612269e-02
9991:-9.8608091674773843e-02
9992:-7.4677723745211783e-02
9993:-8.0017420910659290e-02
9994:-8.6626711924232339e-02
9995:-9.1419778854221284e-02
9996:-7.0061228679004980e-02
9997:-7.5074837662865976e-02
9998:-8.1281287288036186e-02
9999:-8.5783625739973640e-02
10000:-1.0678465309979572e-01
10001:-1.1176512284693971e-01
10002:-1.1778895482971805e-01
10003:-1.2204402497816942e-01
10004:-1.0125156831710140e-01
10005:-1.0598547824657169e-01
10006:-1.1171397871897244e-01
10007:-1.1576325460211900e-01
10008:-9.3876328261087980e-02
10009:-9.8276587958337866e-02
10010:-1.0360400400143537e-01
10011:-1.0737259607470370e-01
10012:-8.8091866572806155e-02
10013:-9.2226909662835158e-02
10014:-9.7234474183722386e-02
10015:-1.0077837135950560e-01
10016:-1.2418286160008910e-01
10017:-1.2793898838682616e-01
10018:-1.3233463155727604e-01
10019:-1.3531960111567895e-01
10020:-1.1779981785397950e-01
10021:-1.2137800910879591e-01
10022:-1.2556900592142758e-01
10023:-1.2841828499127106e-01
10024:-1.0926920126158930e-01
10025:-1.1260297719867605e-01
10026:-1.1651097736075453e-01
10027:-1.1917101058827440e-01
10028:-1.0256260379635547e-01
10029:-1.0569950181993931e-01
10030:-1.0937824254370528e-01
10031:-1.1188386686924062e-01
10032:-1.3677474802911174e-01
10033:-1.3924628634306216e-01
10034:-1.4196606541489681e-01
10035:-1.4366777873832665e-01
10036:-1.2980862628259621e-01
10037:-1.3217231215130051e-01
10038:-1.3477816389194014e-01
10039:-1.3641297569051059e-01
10040:-1.2047032775787780e-01
10041:-1.2268130328115497e-01
10042:-1.2512317010862672e-01
10043:-1.2665916733222340e-01
10044:-1.1310848165322510e-01
10045:-1.1519330267748451e-01
10046:-1.1749790890541997e-01
10047:-1.1894953493285451e-01
10048:-1.4444037488958716e-01
10049:-1.4564383514684776e-01
10050:-1.4673690163031664e-01
10051:-1.4721380589989463e-01
10052:-1.3715708968948706e-01
10053:-1.3831987865904996e-01
10054:-1.3938441102438429e-01
10055:-1.3985787347838646e-01
10056:-1.2736006420147206e-01
10057:-1.2845869533029070e-01
10058:-1.2947212814418441e-01
10059:-1.2993097805619788e-01
10060:-1.1961279345426153e-01
10061:-1.2065401738245896e-01
10062:-1.2161806348973975e-01
10063:-1.2205831458101744e-01
10064:-1.4734215866943157e-01
10065:-1.4736109715804616e-01
10066:-1.4695840358866205e-01
10067:-1.4632709790003440e-01
10068:-1.3999077037987975e-01
10069:-1.4002929764662655e-01
10070:-1.3967326350804901e-01
10071:-1.3909349003881014e-01
10072:-1.3006461112082615e-01
10073:-1.3011945254537668e-01
10074:-1.2981318623262569e-01
10075:-1.2929281078006957e-01
10076:-1.2218873825807752e-01
10077:-1.2224939765443793e-01
10078:-1.2197330084833602e-01
10079:-1.2149287313531044e-01
10080:-1.4587882091335116e-01
10081:-1.4484838755667137e-01
10082:-1.4314177606556186e-01
10083:-1.4156087169242809e-01
10084:-1.3867809931896921e-01
10085:-1.3771854952440937e-01
10086:-1.3612159540960930e-01
10087:-1.3463730662504994e-01
10088:-1.2891638032181627e-01
10089:-1.2804240910726206e-01
10090:-1.2658055006141769e-01
10091:-1.2521702198219697e-01
10092:-1.2114351290757207e-01
10093:-1.2033030150095622e-01
10094:-1.1896651414237297e-01
10095:-1.1769200846028807e-01
10096:-1.4062438024367122e-01
10097:-1.3871549977215331e-01
10098:-1.3593683272010396e-01
10099:-1.3359033145637123e-01
10100:-1.3375653536057325e-01
10101:-1.3195913803203749e-01
10102:-1.2933878456638362e-01
10103:-1.2712296889756985e-01
10104:-1.2440643316351084e-01
10105:-1.2275045060552309e-01
10106:-1.2033265670345843e-01
10107:-1.1828518226731823e-01
10108:-1.1693357101527908e-01
10109:-1.1538341112339782e-01
10110:-1.1311847256225852e-01
10111:-1.1119885164896094e-01
10112:-1.3226566480481144e-01
10113:-1.2966789173470891e-01
10114:-1.2606757166133556e-01
10115:-1.2314963132414740e-01
10116:-1.2587106641115928e-01
10117:-1.2341475185280948e-01
10118:-1.2000782232712817e-01
10119:-1.1724426051611749e-01
10120:-1.1712735639628284e-01
10121:-1.1485455695810964e-01
10122:-1.1169969656729987e-01
10123:-1.0913821973641630e-01
10124:-1.1011272579436855e-01
10125:-1.0798026307042274e-01
10126:-1.0501906139878477e-01
10127:-1.0261349741214880e-01
10128:-1.2154090624431080e-01
10129:-1.1844886797584940e-01
10130:-1.1427871636221583e-01
10131:-1.1098049272167348e-01
10132:-1.1571977040417591e-01
10133:-1.1278866428262091e-01
10134:-1.0883345300378040e-01
10135:-1.0570329782896477e-01
10136:-1.0772429498964588e-01
10137:-1.0500504099645204e-01
10138:-1.0133389192187532e-01
10139:-9.8426608413037311e-02
10140:-1.0128510179207365e-01
10141:-9.8730165772801692e-02
10142:-9.5280124326834845e-02
10143:-9.2546843888485872e-02
10144:-1.0918878279759435e-01
10145:-1.0578939338882141e-01
10146:-1.0128769634900971e-01
10147:-9.7787600239168965e-02
10148:-1.0400216232881590e-01
10149:-1.0077395447442207e-01
10150:-9.6497338287887341e-02
10151:-9.3170580213867885e-02
10152:-9.6845820844205788e-02
10153:-9.3845494615734701e-02
10154:-8.9869343546704838e-02
10155:-8.6774606576734886e-02
10156:-9.1060181856744540e-02
10157:-8.8238402650579875e-02
10158:-8.4498288482095535e-02
10159:-8.1586289552033162e-02
10160:-9.5906431820381555e-02
10161:-9.2371041573419840e-02
10162:-8.7752962801157380e-02
10163:-8.4209469983528074e-02
10164:-9.1381906898275717e-02
10165:-8.8019785184278096e-02
10166:-8.3626699300536927e-02
10167:-8.0254448882493348e-02
10168:-8.5109965749335187e-02
10169:-8.1980638075193318e-02
10170:-7.7890664081516611e-02
10171:-7.4749690358805077e-02
10172:-8.0019501295788623e-02
10173:-7.7074143983284410e-02
10174:-7.3224280184804230e-02
10175:-7.0266908727864466e-02
10176:-8.2320980612985664e-02
10177:-7.8798788073713849e-02
10178:-7.4249369206788790e-02
10179:-7.0797097224946731e-02
10180:-7.8456662720950254e-02
10181:-7.5103247068747755e-02
10182:-7.0770789253359778e-02
10183:-6.7481958794514935e-02
10184:-7.3074594861499489e-02
10185:-6.9949802635039526e-02
10186:-6.5911871496259905e-02
10187:-6.2845401916485674e-02
10188:-6.8689342135375989e-02
10189:-6.5746523121787345e-02
10190:-6.1943484345519891e-02
10191:-5.9054709478730726e-02
10192:-6.8970486383275451e-02
10193:-6.5586025202579723e-02
10194:-6.1257324768340657e-02
10195:-5.8004955173801657e-02
10196:-6.5741322262614935e-02
10197:-6.2515813960966962e-02
10198:-5.8389524921061496e-02
10199:-5.5288219288827933e-02
10200:-6.1221907545856512e-02
10201:-5.8213306192844413e-02
10202:-5.4363847541454589e-02
10203:-5.1469600000350467e-02
10204:-5.7524953733787680e-02
10205:-5.4690152842858601e-02
10206:-5.1062935865547797e-02
10207:-4.8335226541954518e-02
10208:-5.6295380991406477e-02
10209:-5.3146874734932029e-02
10210:-4.9156859584966725e-02
10211:-4.6187186677741916e-02
10212:-5.3657623154378269e-02
10213:-5.0654290617728095e-02
10214:-4.6847487692024327e-02
10215:-4.4013264348804974e-02
10216:-4.9947410116481079e-02
10217:-4.7143603140053413e-02
10218:-4.3589114143193539e-02
10219:-4.0941828543778772e-02
10220:-4.6900333627355517e-02
10221:-4.4257384065883441e-02
10222:-4.0906674839684992e-02
10223:-3.8410655337778814e-02
10224:-4.4636116852940902e-02
10225:-4.1796313876851919e-02
10226:-3.8230090691941082e-02
10227:-3.5600970626981990e-02
10228:-4.2532547439227797e-02
10229:-3.9821250428630293e-02
10230:-3.6415641034043739e-02
10231:-3.3904071564475245e-02
10232:-3.9558353769220643e-02
10233:-3.7024941106678387e-02
10234:-3.3842171906998716e-02
10235:-3.1494090135043444e-02
10236:-3.7105970958464837e-02
10237:-3.4716870390232107e-02
10238:-3.1715234919199344e-02
10239:-2.9500312502859800e-02
10240:-3.4236672759143882e-02
10241:-3.1753971149145840e-02
10242:-2.8665759465789593e-02
10243:-2.6412057681278456e-02
10244:-3.2600408275238524e-02
10245:-3.0227714805968118e-02
10246:-2.7275522774779945e-02
10247:-2.5120207528314984e-02
10248:-3.0274897156645671e-02
10249:-2.8055693527809195e-02
10250:-2.5293760779302284e-02
10251:-2.3276453335384910e-02
10252:-2.8350015887782097e-02
10253:-2.6256168359372768e-02
10254:-2.3649954887281052e-02
10255:-2.1745872089389755e-02
10256:-2.5250791574334526e-02
10257:-2.3151515800647227e-02
10258:-2.0567595389113034e-02
10259:-1.8703384227254163e-02
10260:-2.4009267254484379e-02
10261:-2.2000561178809816e-02
10262:-1.9527190229441192e-02
10263:-1.7741817592150086e-02
10264:-2.2236250802333254e-02
10265:-2.0355102853907577e-02
10266:-1.8037937093230635e-02
10267:-1.6364373714200093e-02
10268:-2.0763805161925934e-02
10269:-1.8987661473495076e-02
10270:-1.6799421862702456e-02
10271:-1.5218416227608425e-02
10272:-1.7750544283480777e-02
10273:-1.6041139478556822e-02
10274:-1.3962858598124246e-02
10275:-1.2483855771998400e-02
10276:-1.6828898318425451e-02
10277:-1.5190661905235419e-02
10278:-1.3197922344064332e-02
10279:-1.1778865598080545e-02
10280:-1.5508222977985358e-02
10281:-1.3971445606898236e-02
10282:-1.2101177116311817e-02
10283:-1.0768384504664073e-02
10284:-1.4409361105513351e-02
10285:-1.2956925146847683e-02
10286:-1.1188812573128560e-02
10287:-9.9282656605553642e-03
10288:-1.1735317592585599e-02
10289:-1.0404854772761924e-02
10290:-8.8118261835221055e-03
10291:-7.6977826255593138e-03
10292:-1.1060297783425660e-02
10293:-9.7827143410931690e-03
10294:-8.2522154451301778e-03
10295:-7.1811968158822983e-03
10296:-1.0093112527935356e-02
10297:-8.8921881314271579e-03
10298:-7.4528697793835915e-03
10299:-6.4450256733986251e-03
10300:-9.2893637734672834e-03
10301:-8.1529998519923753e-03
10302:-6.7907914002095704e-03
10303:-5.8366324860126325e-03
10304:-7.1411516073360713e-03
10305:-6.1636175975691909e-03
10306:-5.0165843738899573e-03
10307:-4.2333718361572126e-03
10308:-6.6458022820272125e-03
10309:-5.7055047849307663e-03
10310:-4.6021654133396933e-03
10311:-3.8488119386429764e-03
10312:-5.9409749901791547e-03
10313:-5.0558513236936492e-03
10314:-4.0176829387035817e-03
10315:-3.3092314525864129e-03
10316:-5.3593127933516602e-03
10317:-4.5213661854042629e-03
10318:-3.5391680279542180e-03
10319:-2.8694875609240988e-03
10320:-3.8490614183754939e-03
10321:-3.1854967009758380e-03
10322:-2.4294938561351290e-03
10323:-1.9319175247828472e-03
10324:-3.4792112396903486e-03
10325:-2.8419423779510850e-03
10326:-2.1181234749337234e-03
10327:-1.6438202745081326e-03
10328:-2.9618836169110160e-03
10329:-2.3644103166097887e-03
10330:-1.6891890798389905e-03
10331:-1.2498572800384547e-03
10332:-2.5414262682576893e-03
10333:-1.9783959744195780e-03
10334:-1.3450419642138660e-03
10335:-9.3562754302449816e-04
10336:-1.6948050187905611e-03
10337:-1.2964898947245820e-03
10338:-8.6500722638252437e-04
10339:-5.9990613776326996e-04
10340:-1.4187743205029476e-03
10341:-1.0441963850150047e-03
10342:-6.4669561862550019e-04
10343:-4.1043846739713792e-04
10344:-1.0428333685056281e-03
10345:-7.0309458604480397e-04
10346:-3.5418183703138514e-04
10347:-1.5822092606626237e-04
10348:-7.4391086355129110e-04
10349:-4.3326200118786286e-04
10350:-1.2387889148125883e-04
10351:4.0063446591965990e-05
10352:-4.8093721956885769e-04
10353:-2.9242152855811108e-04
10354:-1.1093984069335359e-04
10355:-1.9124120671774397e-05
10356:-3.0813559798314978e-04
10357:-1.5640291150184729e-04
10358:-3.5293498313432675e-05
10359:-1.4561510624145186e-07
10360:-7.8885185498985057e-05
10361:2.2713458424672250e-05
10362:6.2328177579182170e-05
10363:2.1330941846748793e-05
10364:1.0139868860849841e-04
10365:1.6400619279159629e-04
10366:1.4059014819820540e-04
10367:4.0791847125690799e-05
10368:-1.6355146035841191e-03
10369:-7.7887637938920014e-03
10370:-1.5758461461442858e-02
10371:-2.1823236556471295e-02
10372:-1.5188228635253059e-03
10373:-7.2340035697668623e-03
10374:-1.4635474291986719e-02
10375:-2.0268439413337416e-02
10376:-1.3611231913225217e-03
10377:-6.4836578395843615e-03
10378:-1.3116264657055260e-02
10379:-1.8164948876149251e-02
10380:-1.2356765407111673e-03
10381:-5.8868668310386703e-03
10382:-1.1907821814937328e-02
10383:-1.6491644209448340e-02
10384:-2.5037676040280395e-02
10385:-3.0993227948154914e-02
10386:-3.8606332130791725e-02
10387:-4.4322337643758182e-02
10388:-2.3254477746942739e-02
10389:-2.8786120818568274e-02
10390:-3.5856878816630064e-02
10391:-4.1166653232349047e-02
10392:-2.0841957862153926e-02
10393:-2.5799927753027599e-02
10394:-3.2136414881993258e-02
10395:-3.6895912520129699e-02
10396:-1.8922783718212110e-02
10397:-2.3424252772445722e-02
10398:-2.9176240031355296e-02
10399:-3.3497510002175365e-02
10400:-4.7324318342433586e-02
10401:-5.2833275578384714e-02
10402:-5.9770706221130974e-02
10403:-6.4898133716599943e-02
10404:-4.3955914851194516e-02
10405:-4.9074103221446591e-02
10406:-5.5519311395268493e-02
10407:-6.0283855984063231e-02
10408:-3.9396902319474549e-02
10409:-4.3985178647952212e-02
10410:-4.9762279993408216e-02
10411:-5.4033887428000402e-02
10412:-3.5768842444284625e-02
10413:-3.9934719948938900e-02
10414:-4.5178862186397467e-02
10415:-4.9056999517457484e-02
10416:-6.7561987400791668e-02
10417:-7.2398321844953220e-02
10418:-7.8385470363319734e-02
10419:-8.2729322176201825e-02
10420:-6.2759721315891429e-02
10421:-6.7254410155456579e-02
10422:-7.2818593553067898e-02
10423:-7.6856502350475017e-02
10424:-5.6254276159977357e-02
10425:-6.0284411200521207e-02
10426:-6.5272907528830540e-02
10427:-6.8893927017908169e-02
10428:-5.1073391130780681e-02
10429:-5.4732404275110544e-02
10430:-5.9260604810564416e-02
10431:-6.2547959370121892e-02
10432:-8.4956638741694193e-02
10433:-8.8946804059274756e-02
10434:-9.3779307646090257e-02
10435:-9.7199945185606373e-02
10436:-7.8927496098328706e-02
10437:-8.2637551234018780e-02
10438:-8.7131091192132831e-02
10439:-9.0312672812235512e-02
10440:-7.0751718553213813e-02
10441:-7.4079316680261659e-02
10442:-7.8109196703810155e-02
10443:-8.0963117634416590e-02
10444:-6.4234976558978529e-02
10445:-6.7255948549533748e-02
10446:-7.0913552815458553e-02
10447:-7.3503967666894904e-02
10448:-9.8922426499387733e-02
10449:-1.0195093582830095e-01
10450:-1.0550305229569759e-01
10451:-1.0792305172652551e-01
10452:-9.1915245684970961e-02
10453:-9.4733023440375222e-02
10454:-9.8038412949762052e-02
10455:-1.0029111204964213e-01
10456:-8.2401096017147485e-02
10457:-8.4929164365375606e-02
10458:-8.7894437031455039e-02
10459:-8.9915725674216157e-02
10460:-7.4809423247753609e-02
10461:-7.7103939624127607e-02
10462:-7.9794415283663281e-02
10463:-8.1628219652735881e-02
10464:-1.0910610722981581e-01
10465:-1.1112048973115714e-01
10466:-1.1334790836664727e-01
10467:-1.1475158850473678e-01
10468:-1.0139278356565032e-01
10469:-1.0326889124325241e-01
10470:-1.0534407673438875e-01
10471:-1.0665256391151491e-01
10472:-9.0904516292799206e-02
10473:-9.2588264797787645e-02
10474:-9.4450485142572690e-02
10475:-9.5624755229932148e-02
10476:-8.2525352858319689e-02
10477:-8.4052537817828232e-02
10478:-8.5740654258295385e-02
10479:-8.6804526616063735e-02
10480:-1.1539324033018054e-01
10481:-1.1640106616323030e-01
10482:-1.1733534848369374e-01
10483:-1.1776322314769216e-01
10484:-1.0725104925063629e-01
10485:-1.0819162291072407e-01
10486:-1.0906473394035068e-01
10487:-1.0946579711715038e-01
10488:-9.6161938321672080e-02
10489:-9.7006147498517450e-02
10490:-9.7789609136357411e-02
10491:-9.8149196066147415e-02
10492:-8.7291007512093802e-02
10493:-8.8054976161926091e-02
10494:-8.8762543592465201e-02
10495:-8.9085687516110915e-02
10496:-1.1789068967758536e-01
10497:-1.1795225728283124e-01
10498:-1.1768965752083597e-01
10499:-1.1722874195101667e-01
10500:-1.0958597464444750e-01
10501:-1.0964633548653707e-01
10502:-1.0940595830905367e-01
10503:-1.0897980169342086e-01
10504:-9.8256766616980754e-02
10505:-9.8310480850377691e-02
10506:-9.8093931077823715e-02
10507:-9.7710265684749886e-02
10508:-8.9181412181265324e-02
10509:-8.9226529484469019e-02
10510:-8.9024837655677064e-02
10511:-8.8672014735668145e-02
10512:-1.1689293012046216e-01
10513:-1.1611060621533521e-01
10514:-1.1479745052535109e-01
10515:-1.1356938172566725e-01
10516:-1.0866861070412168e-01
10517:-1.0794312943591318e-01
10518:-1.0672426185324127e-01
10519:-1.0558330994922609e-01
10520:-9.7430065174229669e-02
10521:-9.6777414640762727e-02
10522:-9.5681318314954189e-02
10523:-9.4654909241991173e-02
10524:-8.8414961001728742e-02
10525:-8.7817612796343494e-02
10526:-8.6816097836923053e-02
10527:-8.5878684119514548e-02
10528:-1.1283829094061446e-01
10529:-1.1134386826674325e-01
10530:-1.0915986154878081e-01
10531:-1.0730820391442578e-01
10532:-1.0490370320418498e-01
10533:-1.0351453147016647e-01
10534:-1.0148391330538903e-01
10535:-9.9761439318815995e-02
10536:-9.4043303237608303e-02
10537:-9.2793700908168408e-02
10538:-9.0967470686556320e-02
10539:-8.9417793428608811e-02
10540:-8.5320119538137257e-02
10541:-8.4179763379525291e-02
10542:-8.2514194932356386e-02
10543:-8.1100803516037295e-02
10544:-1.0626027369117759e-01
10545:-1.0420273265242501e-01
10546:-1.0134522806328432e-01
10547:-9.9023372779513646e-02
10548:-9.8786231332077284e-02
10549:-9.6871590615261197e-02
10550:-9.4212322862798611e-02
10551:-9.2050790059010429e-02
10552:-8.8540073421828888e-02
10553:-8.6817440363067475e-02
10554:-8.4425308513638220e-02
10555:-8.2480318474418099e-02
10556:-8.0300120435413888e-02
10557:-7.8729508308111817e-02
10558:-7.6549387174909569e-02
10559:-7.4776577574074549e-02
10560:-9.7740972989416045e-02
10561:-9.5274543266420042e-02
10562:-9.1943843867580630e-02
10563:-8.9304646269910623e-02
10564:-9.0856575513000151e-02
10565:-8.8560003643857826e-02
10566:-8.5458657147957390e-02
10567:-8.3000494999229735e-02
10568:-8.1405364826755963e-02
10569:-7.9338798912740871e-02
10570:-7.6548573551393537e-02
10571:-7.4336389281907320e-02
10572:-7.3796549981441015e-02
10573:-7.1913257387063376e-02
10574:-6.9371320705679779e-02
10575:-6.7355715247593831e-02
10576:-8.7868930105960447e-02
10577:-8.5143897805468619e-02
10578:-8.1531891567965253e-02
10579:-7.8719230195250539e-02
10580:-8.1662886913214564e-02
10581:-7.9124332163877487e-02
10582:-7.5759559799213214e-02
10583:-7.3138819183696177e-02
10584:-7.3132221538213651e-02
10585:-7.0847593361046776e-02
10586:-6.7820002849456357e-02
10587:-6.5461356221013650e-02
10588:-6.6258284887458940e-02
10589:-6.4176959809091480e-02
10590:-6.1419666159462379e-02
10591:-5.9271344915983036e-02
10592:-7.7205690083389275e-02
10593:-7.4360541566437413e-02
10594:-7.0641643400580781e-02
10595:-6.7784538984751008e-02
10596:-7.1728221791272612e-02
10597:-6.9076919657956676e-02
10598:-6.5611584967748854e-02
10599:-6.2948771214470942e-02
10600:-6.4191450256643329e-02
10601:-6.1805274870489514e-02
10602:-5.8687123177757233e-02
10603:-5.6290620188391170e-02
10604:-5.8114409952397250e-02
10605:-5.5941256896791629e-02
10606:-5.3102317161445520e-02
10607:-5.0920182317636516e-02
10608:-6.6260274181994511e-02
10609:-6.3416986030719172e-02
10610:-5.9742576089017056e-02
10611:-5.6951225680555349e-02
10612:-6.1527848030128299e-02
10613:-5.8877647429290934e-02
10614:-5.5452992296058115e-02
10615:-5.2850963016478542e-02
10616:-5.5011446045291332e-02
10617:-5.2626293891065025e-02
10618:-4.9544838326358927e-02
10619:-4.7203218752607953e-02
10620:-4.9755178440953056e-02
10621:-4.7583634867588966e-02
10622:-4.4779003346035295e-02
10623:-4.2647589727124124e-02
10624:-5.5472905388107729e-02
10625:-5.2733542123146161e-02
10626:-4.9228495119315464e-02
10627:-4.6592430733859776e-02
10628:-5.1472646238319569e-02
10629:-4.8918921123630513e-02
10630:-4.5651671053600941e-02
10631:-4.3194112431379758e-02
10632:-4.5962538716184533e-02
10633:-4.3664450183290709e-02
10634:-4.0724936044824585e-02
10635:-3.8513610214726643e-02
10636:-4.1518063441421192e-02
10637:-3.9426516125755810e-02
10638:-3.6751978456548658e-02
10639:-3.4739876282076254e-02
10640:-4.5205609445975591e-02
10641:-4.2651298643323989e-02
10642:-3.9412998561636138e-02
10643:-3.7000513574319223e-02
10644:-4.1900969462625268e-02
10645:-3.9519475294829375e-02
10646:-3.6500499210534630e-02
10647:-3.4251124088226059e-02
10648:-3.7349765119656798e-02
10649:-3.5206939807753003e-02
10650:-3.2491133405711574e-02
10651:-3.0467428647641310e-02
10652:-3.3680695936773260e-02
10653:-3.1731160402372650e-02
10654:-2.9261053531470387e-02
10655:-2.7420369867217097e-02
10656:-3.5739373575090681e-02
10657:-3.3430085207382679e-02
10658:-3.0528735139786108e-02
10659:-2.8387620853030860e-02
10660:-3.3075052249323424e-02
10661:-3.0921754282490981e-02
10662:-2.8216548363296529e-02
10663:-2.6219905875966187e-02
10664:-2.9409123879588810e-02
10665:-2.7471893141200625e-02
10666:-2.5038609236075544e-02
10667:-2.3242447933307528e-02
10668:-2.6457620490131079e-02
10669:-2.4695781589245906e-02
10670:-2.2483385814537266e-02
10671:-2.0850208751230760e-02
10672:-2.7275542344804320e-02
10673:-2.5251284967589976e-02
10674:-2.2731623979520825e-02
10675:-2.0890560646388112e-02
10676:-2.5182677633309697e-02
10677:-2.3294788195899606e-02
10678:-2.0944887416127954e-02
10679:-1.9227552764711824e-02
10680:-2.2309161096728748e-02
10681:-2.0610768352434698e-02
10682:-1.8497026456145153e-02
10683:-1.6952027854993796e-02
10684:-2.0001471046515080e-02
10685:-1.8457303973595750e-02
10686:-1.6535933469218472e-02
10687:-1.5131455527322984e-02
10688:-1.9940883323686490e-02
10689:-1.8223294257889312e-02
10690:-1.6107053509493000e-02
10691:-1.4577821076574567e-02
10692:-1.8341513582685081e-02
10693:-1.6739044409839119e-02
10694:-1.4764505570356114e-02
10695:-1.3337294914999305e-02
10696:-1.6154706314691944e-02
10697:-1.4712850855902513e-02
10698:-1.2936271238149390e-02
10699:-1.1651804984041012e-02
10700:-1.4406524592693433e-02
10701:-1.3095806874052575e-02
10702:-1.1481027066069438e-02
10703:-1.0313375743952366e-02
10704:-1.3795140602743523e-02
10705:-1.2389990221927220e-02
10706:-1.0679257599760190e-02
10707:-9.4593793426914242e-03
10708:-1.2606635064578788e-02
10709:-1.1294827851264037e-02
10710:-9.6975217014192653e-03
10711:-8.5581640608253309e-03
10712:-1.0994013323035448e-02
10713:-9.8130861821591753e-03
10714:-8.3750750616427543e-03
10715:-7.3490080954977735e-03
10716:-9.7152704167739988e-03
10717:-8.6416256186621718e-03
10718:-7.3343418031886825e-03
10719:-6.4013727159573713e-03
10720:-8.8409842711012886e-03
10721:-7.7410675719974563e-03
10722:-6.4224785754779428e-03
10723:-5.4987589015262966e-03
10724:-7.9804177173869676e-03
10725:-6.9528026055191081e-03
10726:-5.7208520576555013e-03
10727:-4.8576842690109577e-03
10728:-6.8285291139771487e-03
10729:-5.9028596524774010e-03
10730:-4.7932355543171927e-03
10731:-4.0157041229018755e-03
10732:-5.9279986509375732e-03
10733:-5.0862303593381970e-03
10734:-4.0773709552996557e-03
10735:-3.3704590787762977e-03
10736:-5.0366212581600886e-03
10737:-4.2255009089535167e-03
10738:-3.2751907619082993e-03
10739:-2.6276508239780772e-03
10740:-4.4257820567435635e-03
10741:-3.6681133541286550e-03
10742:-2.7813671058258046e-03
10743:-2.1779646737402781e-03
10744:-3.6266137821906134e-03
10745:-2.9446296971926780e-03
10746:-2.1478247506444515e-03
10747:-1.6067863416368133e-03
10748:-3.0166993307457037e-03
10749:-2.3971322999752015e-03
10750:-1.6743675400333533e-03
10751:-1.1845284995859271e-03
10752:-2.3106196322094778e-03
10753:-1.7672525866099988e-03
10754:-1.1577008487344000e-03
10755:-7.6520078990814557e-04
10756:-1.8829122510963230e-03
10757:-1.3786077996349902e-03
10758:-8.1611662113545381e-04
10759:-4.5691162845396574e-04
10760:-1.3427353351995550e-03
10761:-8.9330246607595984e-04
10762:-3.9651406831138616e-04
10763:-8.3543830307091727e-05
10764:-9.4586455031413067e-04
10765:-5.4120589888618110e-04
10766:-9.7757127516742506e-05
10767:1.7784287848257607e-04
10768:-5.8209350905077159e-04
10769:-2.8761894933876570e-04
10770:1.7960920448348554e-07
10771:1.4693706693033189e-04
10772:-2.9069561137239053e-04
10773:-2.7627729249739949e-05
10774:2.1906838091066794e-04
10775:3.3381740834434589e-04
10776:5.9313718318320115e-05
10777:2.7966212804614012e-04
10778:4.7222207263337296e-04
10779:5.4639125074478954e-04
10780:3.0189035870869168e-04
10781:4.8845466065154382e-04
10782:6.3972803177610334e-04
10783:6.8432097199634331e-04
10784:1.9870875313421991e-04
10785:2.4068547430850128e-04
10786:1.8399142164935282e-04
10787:5.3142532551755631e-05
10788:3.6804797891614442e-04
10789:3.7259815348412425e-04
10790:2.5612528804618495e-04
10791:6.9770724789911076e-05
10792:5.5902149537466993e-04
10793:5.1900088845663436e-04
10794:3.3375796859255540e-04
10795:8.4792543391045807e-05
10796:6.8179961998602527e-04
10797:6.1237012790482453e-04
10798:3.8491644849273087e-04
10799:9.9248228678336449e-05
10800:-1.1670168722968809e-03
10801:-5.5604324741312262e-03
10802:-1.1246810910493215e-02
10803:-1.5576320239417603e-02
10804:-1.0334781092238422e-03
10805:-4.9260036461443550e-03
10806:-9.9621857329883420e-03
10807:-1.3797431910610194e-02
10808:-8.4950322600272363e-04
10809:-4.0524563189779754e-03
10810:-8.1934608399654475e-03
10811:-1.1348176576328214e-02
10812:-7.0076853492770028e-04
10813:-3.3462403406846674e-03
10814:-6.7635618574161298e-03
10815:-9.3681342191411290e-03
10816:-1.7872945761668854e-02
10817:-2.2124642992300443e-02
10818:-2.7556767091612297e-02
10819:-3.1638166356654840e-02
10820:-1.5832611025264239e-02
10821:-1.9598799431941281e-02
10822:-2.4409122305204110e-02
10823:-2.8024222714694975e-02
10824:-1.3023365175926062e-02
10825:-1.6120976161841414e-02
10826:-2.0074972763061368e-02
10827:-2.3047928783877628e-02
10828:-1.0752306754101796e-02
10829:-1.3309399272823616e-02
10830:-1.6571057281076867e-02
10831:-1.9024869467231309e-02
10832:-3.3783768618929060e-02
10833:-3.7718329235512507e-02
10834:-4.2670494864619851e-02
10835:-4.6333005317950829e-02
10836:-2.9925419646992316e-02
10837:-3.3410308695005823e-02
10838:-3.7794840306709633e-02
10839:-4.1038117025248039e-02
10840:-2.4612583272971146e-02
10841:-2.7478285605149450e-02
10842:-3.1081184692024186e-02
10843:-3.3747156878607527e-02
10844:-2.0317469778503711e-02
10845:-2.2682653089682148e-02
10846:-2.5653741330662266e-02
10847:-2.7853073733044461e-02
10848:-4.8237584210004063e-02
10849:-5.1693126797961467e-02
10850:-5.5968844617293519e-02
10851:-5.9073072609278854e-02
10852:-4.2725289863212987e-02
10853:-4.5785147671491513e-02
10854:-4.9569763919142966e-02
10855:-5.2317736413308009e-02
10856:-3.5134938504945916e-02
10857:-3.7649821126425988e-02
10858:-4.0757940697446413e-02
10859:-4.3015138710948857e-02
10860:-2.8998854054820805e-02
10861:-3.1073203931863490e-02
10862:-3.3634464175102005e-02
10863:-3.5494964272291381e-02
10864:-6.0666322497143280e-02
10865:-6.3518856532897822e-02
10866:-6.6971808175935718e-02
10867:-6.9417247836387946e-02
10868:-5.3728557069050595e-02
10869:-5.6253368240699556e-02
10870:-5.9308100093340019e-02
10871:-6.1471413452661681e-02
10872:-4.4174651580494662e-02
10873:-4.6248021916572783e-02
10874:-4.8754236051548223e-02
10875:-5.0528966054241974e-02
10876:-3.6451364265364820e-02
10877:-3.8159908815050485e-02
10878:-4.0222920805287533e-02
10879:-4.1683734274541230e-02
10880:-7.0649749701396855e-02
10881:-7.2815612546189776e-02
10882:-7.5354541574039882e-02
10883:-7.7084804869179513e-02
10884:-6.2561933955409266e-02
10885:-6.4477389327082177e-02
10886:-6.6721308519996941e-02
10887:-6.8249981469169732e-02
10888:-5.1423938645318877e-02
10889:-5.2994531933548868e-02
10890:-5.4832215549438602e-02
10891:-5.6083351363165036e-02
10892:-4.2420755715611179e-02
10893:-4.3712842122867995e-02
10894:-4.5222571161597905e-02
10895:-4.6249758978333111e-02
10896:-7.7931261593843587e-02
10897:-7.9371781272929182e-02
10898:-8.0963310849083661e-02
10899:-8.1965753786373358e-02
10900:-6.8997763778416030e-02
10901:-7.0269534526450905e-02
10902:-7.1672992187556489e-02
10903:-7.2555807683590115e-02
10904:-5.6695313347403672e-02
10905:-5.7734898948999615e-02
10906:-5.8879758908289871e-02
10907:-5.9598221602191775e-02
10908:-4.6752172689158718e-02
10909:-4.7604597972175387e-02
10910:-4.8541235665535615e-02
10911:-4.9127551009902376e-02
10912:-8.2423946028584022e-02
10913:-8.3143001193547603e-02
10914:-8.3807756711098344e-02
10915:-8.4109994604529253e-02
10916:-7.2958903822684162e-02
10917:-7.3590495608300985e-02
10918:-7.4171909076673911e-02
10919:-7.4433474726623580e-02
10920:-5.9925675972023043e-02
10921:-6.0437343871810059e-02
10922:-6.0904841808482435e-02
10923:-6.1111177768398174e-02
10924:-4.9394263232699791e-02
10925:-4.9809817720686572e-02
10926:-5.0186450316364699e-02
10927:-5.0349176599384503e-02
10928:-8.4198729724382027e-02
10929:-8.4238222317900166e-02
10930:-8.4043529410563186e-02
10931:-8.3706772531634846e-02
10932:-7.4508626582814402e-02
10933:-7.4537261993169068e-02
10934:-7.4356396687452517e-02
10935:-7.4051115167418746e-02
10936:-6.1168084751912516e-02
10937:-6.1182763630530608e-02
10938:-6.1022461003886912e-02
10939:-6.0761819489983729e-02
10940:-5.0391923240992079e-02
10941:-5.0396516402583205e-02
10942:-5.0254553639904234e-02
10943:-5.0031406052484795e-02
10944:-8.3461974274861697e-02
10945:-8.2894174131499077e-02
10946:-8.1943587481986338e-02
10947:-8.1054308358326749e-02
10948:-7.3830292729477845e-02
10949:-7.3320281712795379e-02
10950:-7.2469273228561726e-02
10951:-7.1674088487039087e-02
10952:-6.0574741022493397e-02
10953:-6.0145782611960366e-02
10954:-5.9434024767136051e-02
10955:-5.8770181277530351e-02
10956:-4.9872381519943797e-02
10957:-4.9510472122969079e-02
10958:-4.8913410140504744e-02
10959:-4.8357464628675240e-02
10960:-8.0524490586955502e-02
10961:-7.9443454188046492e-02
10962:-7.7865323333751263e-02
10963:-7.6526236538118131e-02
10964:-7.1200459657913343e-02
10965:-7.0235395257670655e-02
10966:-6.8828238035525582e-02
10967:-6.7634445716779776e-02
10968:-5.8374917160463204e-02
10969:-5.7571540657785379e-02
10970:-5.6402632409958034e-02
10971:-5.5411186816094089e-02
10972:-4.8026499254471743e-02
10973:-4.7355688844341763e-02
10974:-4.6381924902072671e-02
10975:-4.5556064351881871e-02
10976:-7.5767597559336833e-02
10977:-7.4280035297226960e-02
10978:-7.2215877369383688e-02
10979:-7.0537333176113867e-02
10980:-6.6958014797306495e-02
10981:-6.5632845372347912e-02
10982:-6.3795448363181920e-02
10983:-6.2301237440546893e-02
10984:-5.4849197644853187e-02
10985:-5.3750044585681417e-02
10986:-5.2228160619626159e-02
10987:-5.0990360662307541e-02
10988:-4.5087671767832106e-02
10989:-4.4173297132261723e-02
10990:-4.2909236196211807e-02
10991:-4.1880876300992548e-02
10992:-6.9609302299174433e-02
10993:-6.7826458593575070e-02
10994:-6.5420717841731896e-02
10995:-6.3513025374056467e-02
10996:-6.1474884982928892e-02
10997:-5.9888492625575405e-02
10998:-5.7749151498715172e-02
10999:-5.6052547177653858e-02
11000:-5.0305422997764700e-02
11001:-4.8992253932416317e-02
11002:-4.7223390029704854e-02
11003:-4.5820288536600841e-02
11004:-4.1311420235057059e-02
11005:-4.0221335711703415e-02
11006:-3.8754881138563894e-02
11007:-3.7591276461157577e-02
11008:-6.2474216956574312e-02
11009:-6.0504601761258138e-02
11010:-5.7895920695478005e-02
11011:-5.5863298143727556e-02
11012:-5.5128407682793042e-02
11013:-5.3377306159834971e-02
11014:-5.1059322810781481e-02
11015:-4.9253012090318550e-02
11016:-4.5055560906715426e-02
11017:-4.3608196687397668e-02
11018:-4.1694215552511529e-02
11019:-4.0202370569692301e-02
11020:-3.6956595272320446e-02
11021:-3.5756968317509560e-02
11022:-3.4172415536605341e-02
11023:-3.2936925186297164e-02
11024:-5.4768526089144585e-02
11025:-5.2712628570389782e-02
11026:-5.0027453545356065e-02
11027:-4.7963430118583471e-02
11028:-4.8279832077417324e-02
11029:-4.6453299594449778e-02
11030:-4.4068918293565275e-02
11031:-4.2235943185688636e-02
11032:-3.9398127304700596e-02
11033:-3.7890252118910887e-02
11034:-3.5923715551532752e-02
11035:-3.4411642665052276e-02
11036:-3.2270378625041146e-02
11037:-3.1022199336349431e-02
11038:-2.9396113798351262e-02
11039:-2.8145432324961868e-02
11040:-4.6861350917427304e-02
11041:-4.4807571636367755e-02
11042:-4.2155616901969464e-02
11043:-4.0140179934315692e-02
11044:-4.1256953196585927e-02
11045:-3.9433526848091038e-02
11046:-3.7080196255364489e-02
11047:-3.5291586345228540e-02
11048:-3.3603585202922594e-02
11049:-3.2099997604265559e-02
11050:-3.0161206241778944e-02
11051:-2.8687402722474033e-02
11052:-2.7476579002239637e-02
11053:-2.6233410549940186e-02
11054:-2.4632050442679552e-02
11055:-2.3414427650373874e-02
11056:-3.9071993758076060e-02
11057:-3.7094451833807947e-02
11058:-3.4566225804853960e-02
11059:-3.2664168961913813e-02
11060:-3.4343364399230220e-02
11061:-3.2588781217201816e-02
11062:-3.0346684974465438e-02
11063:-2.8659824762621688e-02
11064:-2.7905653237016933e-02
11065:-2.6460430276149853e-02
11066:-2.4615270588049132e-02
11067:-2.3226881471939638e-02
11068:-2.2768125495148547e-02
11069:-2.1574564813844992e-02
11070:-2.0052222396878948e-02
11071:-1.8906500664513552e-02
11072:-3.1662816831093350e-02
11073:-2.9820099642425268e-02
11074:-2.7485819899741054e-02
11075:-2.5746347769599401e-02
11076:-2.7771552609298193e-02
11077:-2.6137699379293416e-02
11078:-2.4068982137209330e-02
11079:-2.2527380577715819e-02
11080:-2.2495423435318639e-02
11081:-2.1151162051878631e-02
11082:-1.9450558869493560e-02
11083:-1.8183178586327134e-02
11084:-1.8302511590046731e-02
11085:-1.7193599490259739e-02
11086:-1.5792068953173439e-02
11087:-1.4747415266398592e-02
11088:-2.4836452890559062e-02
11089:-2.3171649399925675e-02
11090:-2.1081503548726552e-02
11091:-1.9538566178645609e-02
11092:-2.1720813827565504e-02
11093:-2.0245704463353820e-02
11094:-1.8394539220614143e-02
11095:-1.7028008747510967e-02
11096:-1.7519791510428619e-02
11097:-1.6307504892098628e-02
11098:-1.4787396580325227e-02
11099:-1.3665210248000268e-02
11100:-1.4200300256808159e-02
11101:-1.3201408475442536e-02
11102:-1.1950034209963704e-02
11103:-1.1026152179386572e-02
11104:-1.8736654661263917e-02
11105:-1.7277925960825623e-02
11106:-1.5463172763893036e-02
11107:-1.4136613985873486e-02
11108:-1.6317638248443869e-02
11109:-1.5025933220961430e-02
11110:-1.3419612522969932e-02
11111:-1.2245395621565769e-02
11112:-1.3081626378431403e-02
11113:-1.2021230497872305e-02
11114:-1.0703535253817224e-02
11115:-9.7402651714836117e-03
11116:-1.0545452532615981e-02
11117:-9.6727293359113609e-03
11118:-8.5891636130723797e-03
11119:-7.7969857739025490e-03
11120:-1.3451838443271193e-02
11121:-1.2213886903987940e-02
11122:-1.0688936460352788e-02
11123:-9.5861818853120503e-03
11124:-1.1639135893094501e-02
11125:-1.0543474401123598e-02
11126:-9.1942129134435658e-03
11127:-8.2184225390331527e-03
11128:-9.2427276174378240e-03
11129:-8.3441029791067860e-03
11130:-7.2381639676715407e-03
11131:-6.4382678029420246e-03
11132:-7.3876236175318358e-03
11133:-6.6487954648442663e-03
11134:-5.7402029210150817e-03
11135:-5.0829931758746092e-03
11136:-9.0212515235300484e-03
11137:-8.0072575468876014e-03
11138:-6.7727007132529701e-03
11139:-5.8915572636049863e-03
11140:-7.7184127520378374e-03
11141:-6.8211656833630343e-03
11142:-5.7289784819178520e-03
11143:-4.9493164116264548e-03
11144:-6.0282230834233438e-03
11145:-5.2927748729389365e-03
11146:-4.3979248865561081e-03
11147:-3.7589546095815572e-03
11148:-4.7459425063353239e-03
11149:-4.1417718466942441e-03
11150:-3.4070334866864679e-03
11151:-2.8822192957260379e-03
11152:-5.4444172677093105e-03
11153:-4.6493862990373324e-03
11154:-3.6966774615362083e-03
11155:-3.0291346262901462e-03
11156:-4.5535565217913951e-03
11157:-3.8500598342276937e-03
11158:-3.0073064380898543e-03
11159:-2.4168396117097736e-03
11160:-3.4344380486084551e-03
11161:-2.8578438293490253e-03
11162:-2.1674733434782901e-03
11163:-1.6837630953011873e-03
11164:-2.6155105282851536e-03
11165:-2.1418630174769317e-03
11166:-1.5750464230264878e-03
11167:-1.1778349029600605e-03
11168:-2.6950756223714603e-03
11169:-2.1102844998669790e-03
11170:-1.4286941351117220e-03
11171:-9.6725285463653411e-04
11172:-2.1213380802083694e-03
11173:-1.6045056600048249e-03
11174:-1.0031101073948729e-03
11175:-5.9671847086333898e-04
11176:-1.4416328628464108e-03
11177:-1.0186538879146314e-03
11178:-5.2745888087628648e-04
11179:-1.9617900627712061e-04
11180:-9.7891719657516277e-04
11181:-6.3176063913378819e-04
11182:-2.2917175490091575e-04
11183:4.2124467105928683e-05
11184:-7.4263789302818448e-04
11185:-3.6269718600546297e-04
11186:5.1410400458637385e-05
11187:3.0652460310868921e-04
11188:-3.9922480329650397e-04
11189:-6.6752148122868626e-05
11190:2.9158208367056551e-04
11191:5.0828047662085179e-04
11192:-3.5452412888142837e-05
11193:2.3329616244534569e-04
11194:5.1820722483268992e-04
11195:6.8566019588269119e-04
11196:1.7367672186642725e-04
11197:3.9243808139995167e-04
11198:6.2109561494549362e-04
11199:7.5205117581217536e-04
11200:4.2029300709196078e-04
11201:5.8864740849772044e-04
11202:7.1826627949389164e-04
11203:7.4787761155370198e-04
11204:6.0300296954149055e-04
11205:7.3829068853584461e-04
11206:8.2976207402189132e-04
11207:8.3371428070073170e-04
11208:7.5652381326368734e-04
11209:8.5156536565173500e-04
11210:8.9848597964876508e-04
11211:8.7349913011560494e-04
11212:8.0573725080013137e-04
11213:8.7256392264894859e-04
11214:8.8933023782735929e-04
11215:8.4521486698231423e-04
11216:7.3792050662284175e-04
11217:6.5495982901960371e-04
11218:4.0977152970360809e-04
11219:1.0970972827416544e-04
11220:8.1129895373777139e-04
11221:7.0740408493675708e-04
11222:4.3885387914100176e-04
11223:1.2307739744921918e-04
11224:8.3743677841779333e-04
11225:7.1460631568069524e-04
11226:4.3527060151514328e-04
11227:1.2199247040690423e-04
11228:8.0034351974560248e-04
11229:6.6905106187547256e-04
11230:3.9672091871000123e-04
11231:1.0362797398487091e-04
11232:-6.1861049990837036e-04
11233:-2.9560317375464081e-03
11234:-5.9734855718949105e-03
11235:-8.2740980670965997e-03
11236:-4.5744529779970878e-04
11237:-2.1902295149630962e-03
11238:-4.4228455641893028e-03
11239:-6.1269460644459463e-03
11240:-2.3270393918822622e-04
11241:-1.1215915443232717e-03
11242:-2.2588415777258196e-03
11243:-3.1305849118509932e-03
11244:-4.8956229870167900e-05
11245:-2.4727780371936424e-04
11246:-4.8822394359956950e-04
11247:-6.7900262132374826e-04
11248:-9.4974876103997869e-03
11249:-1.1755943281989183e-02
11250:-1.4635083239694573e-02
11251:-1.6802083168915367e-02
11252:-7.0348524072704017e-03
11253:-8.7073954088643293e-03
11254:-1.0836167745883881e-02
11255:-1.2440633373952670e-02
11256:-3.5983737876622113e-03
11257:-4.4536852755343937e-03
11258:-5.5361195182665329e-03
11259:-6.3563745685500782e-03
11260:-7.8679692563746282e-04
11261:-9.7377775011185642e-04
11262:-1.2007470275385709e-03
11263:-1.3800152053444589e-03
11264:-1.7944391086962500e-02
11265:-2.0033082699552930e-02
11266:-2.2655175151746403e-02
11267:-2.4596765266069444e-02
11268:-1.3288200779100813e-02
11269:-1.4834721205622011e-02
11270:-1.6772642031642266e-02
11271:-1.8209139904126485e-02
11272:-6.7931260351924436e-03
11273:-7.5841082048805379e-03
11274:-8.5690191930355292e-03
11275:-9.3023798552326689e-03
11276:-1.4810384267172814e-03
11277:-1.6547159884676237e-03
11278:-1.8613345654468955e-03
11279:-2.0208142677903009e-03
11280:-2.5608885298643587e-02
11281:-2.7439932720315037e-02
11282:-2.9699196736866992e-02
11283:-3.1340659898617257e-02
11284:-1.8959411602359106e-02
11285:-2.0313978292724039e-02
11286:-2.1982137091259579e-02
11287:-2.3195125428198026e-02
11288:-9.6883195191470317e-03
11289:-1.0380281912790652e-02
11290:-1.1227148213141837e-02
11291:-1.1845359093068022e-02
11292:-2.1095447199189509e-03
11293:-2.2612667685736865e-03
11294:-2.4390731861188009e-03
11295:-2.5731910576608382e-03
11296:-3.2184926862789211e-02
11297:-3.3692088166353967e-02
11298:-3.5510507055612220e-02
11299:-3.6798121193755029e-02
11300:-2.3820132414126300e-02
11301:-2.4933687821398737e-02
11302:-2.6274411310804501e-02
11303:-2.7224081229472466e-02
11304:-1.2166206851056688e-02
11305:-1.2734138489672180e-02
11306:-1.3413506686834064e-02
11307:-1.3896026032876681e-02
11308:-2.6466419432204565e-03
11309:-2.7710980050992501e-03
11310:-2.9136171982959125e-03
11311:-3.0175263636027321e-03
11312:-3.7448012193068751e-02
11313:-3.8586503996650520e-02
11314:-3.9915450173917802e-02
11315:-4.0819259400199245e-02
11316:-2.7704092074911663e-02
11317:-2.8543376832342742e-02
11318:-2.9520677478945156e-02
11319:-3.0184929444864769e-02
11320:-1.4141495352260308e-02
11321:-1.4568264825468948e-02
11322:-1.5061923950509955e-02
11323:-1.5397657425560100e-02
11324:-3.0731437573573990e-03
11325:-3.1664653407208867e-03
11326:-3.2701298237715394e-03
11327:-3.3417369404280055e-03
11328:-4.1261349412434929e-02
11329:-4.2010776824847301e-02
11330:-4.2832957683369699e-02
11331:-4.3346746387322992e-02
11332:-3.0510058877408652e-02
11333:-3.1060125119910513e-02
11334:-3.1661485343792643e-02
11335:-3.2035985112240165e-02
11336:-1.5562765088710632e-02
11337:-1.5840826155808237e-02
11338:-1.6142507303667446e-02
11339:-1.6329401369597252e-02
11340:-3.3784931537975214e-03
11341:-3.4389956080473284e-03
11342:-3.5022928239121631e-03
11343:-3.5411240348687096e-03
11344:-4.3580168352809451e-02
11345:-4.3943152879917936e-02
11346:-4.4270327591108105e-02
11347:-4.4409566362733625e-02
11348:-3.2205741591148369e-02
11349:-3.2468768130280996e-02
11350:-3.2703203706431309e-02
11351:-3.2799734062918591e-02
11352:-1.6414014246758823e-02
11353:-1.6544660236127145e-02
11354:-1.6659217470270219e-02
11355:-1.6703602576241049e-02
11356:-3.5590413565560592e-03
11357:-3.5870655432784825e-03
11358:-3.6111572446818232e-03
11359:-3.6188245423785627e-03
11360:-4.4444825055028961e-02
11361:-4.4444504187482331e-02
11362:-4.4313580550168666e-02
11363:-4.4111870152337987e-02
11364:-3.2822119946989699e-02
11365:-3.2815609096287106e-02
11366:-3.2710904630911398e-02
11367:-3.2554774245615314e-02
11368:-1.6712030942248348e-02
11369:-1.6704452790119718e-02
11370:-1.6646282966761832e-02
11371:-1.6561400994529650e-02
11372:-3.6190284037180081e-03
11373:-3.6166043027849697e-03
11374:-3.6044085610249087e-03
11375:-3.5838818907128677e-03
11376:-4.3968737430734685e-02
11377:-4.3644628219744915e-02
11378:-4.3111957849541332e-02
11379:-4.2616432858235707e-02
11380:-3.2444701106329410e-02
11381:-3.2198293384980016e-02
11382:-3.1796562571886566e-02
11383:-3.1423069953443461e-02
11384:-1.6501531862923077e-02
11385:-1.6371178237374020e-02
11386:-1.6162024862273264e-02
11387:-1.5966247266471115e-02
11388:-3.5683140490385982e-03
11389:-3.5389381814836017e-03
11390:-3.4951077417433446e-03
11391:-3.4505629070322981e-03
11392:-4.2321429866219430e-02
11393:-4.1724699125637928e-02
11394:-4.0859865761245930e-02
11395:-4.0126350131452979e-02
11396:-3.1200460126707633e-02
11397:-3.0752470877345946e-02
11398:-3.0105686301865029e-02
11399:-2.9556572150028156e-02
11400:-1.5848551318228730e-02
11401:-1.5615298142377932e-02
11402:-1.5281871196612179e-02
11403:-1.4996802750874469e-02
11404:-3.4217582333002697e-03
11405:-3.3698126220438334e-03
11406:-3.2998555458027133e-03
11407:-3.2360588632825431e-03
11408:-3.9710126890110595e-02
11409:-3.8898704086346790e-02
11410:-3.7778219572100293e-02
11411:-3.6866440706891400e-02
11412:-2.9244383904095273e-02
11413:-2.8638037327445420e-02
11414:-2.7803121353459553e-02
11415:-2.7122899485728800e-02
11416:-1.4833281977659474e-02
11417:-1.4519487018797869e-02
11418:-1.4090997393709708e-02
11419:-1.3739632190672530e-02
11420:-3.1968902269513670e-03
11421:-3.1273953218447486e-03
11422:-3.0375415230559032e-03
11423:-2.9596291878283484e-03
11424:-3.6361248344360900e-02
11425:-3.5395278743746414e-02
11426:-3.4097013846438221e-02
11427:-3.3066561016382973e-02
11428:-2.6745240207284054e-02
11429:-2.6025388910834928e-02
11430:-2.5060285888722781e-02
11431:-2.4293331523239443e-02
11432:-1.3542855914511617e-02
11433:-1.3171662031293609e-02
11434:-1.2677751137035816e-02
11435:-1.2282907842159293e-02
11436:-2.9130745427537255e-03
11437:-2.8311100275143202e-03
11438:-2.7274728732329286e-03
11439:-2.6404049331464566e-03
11440:-3.2504163403534327e-02
11441:-3.1442208985297732e-02
11442:-3.0040676144732808e-02
11443:-2.8947571385943789e-02
11444:-2.3873891562914348e-02
11445:-2.3084070580189641e-02
11446:-2.2044021439966519e-02
11447:-2.1231920448543311e-02
11448:-1.2065165830094078e-02
11449:-1.1658969108652046e-02
11450:-1.1127860046634026e-02
11451:-1.0710895487808564e-02
11452:-2.5893436330633015e-03
11453:-2.4999043879851378e-03
11454:-2.3885082562995581e-03
11455:-2.2970091592124774e-03
11456:-2.8357492218626098e-02
11457:-2.7253506627708219e-02
11458:-2.5816403897510189e-02
11459:-2.4710778967962584e-02
11460:-2.0792672768482092e-02
11461:-1.9972961638321959e-02
11462:-1.8908156183188165e-02
11463:-1.8088088307949592e-02
11464:-1.0483564680559367e-02
11465:-1.0062937141277012e-02
11466:-9.5201859149743641e-03
11467:-9.1000985672983412e-03
11468:-2.2440896315686987e-03
11469:-2.1516640841566948e-03
11470:-2.0377732139027849e-03
11471:-1.9459184365585591e-03
11472:-2.4119160466350972e-02
11473:-2.3020455081883332e-02
11474:-2.1606231179243984e-02
11475:-2.0530648308985610e-02
11476:-1.7648443245469374e-02
11477:-1.6833871419826115e-02
11478:-1.5787469164098414e-02
11479:-1.4990881496729020e-02
11480:-8.8731717610876486e-03
11481:-8.4560305307021140e-03
11482:-7.9235805498139716e-03
11483:-7.5164129927762832e-03
11484:-1.8934341433648378e-03
11485:-1.8019913189497990e-03
11486:-1.6902982131551249e-03
11487:-1.6016029376847889e-03
11488:-1.9959432890095996e-02
11489:-1.8905360220208063e-02
11490:-1.7561897407556964e-02
11491:-1.6550605718656446e-02
11492:-1.4567083733036409e-02
11493:-1.3786740837298141e-02
11494:-1.2794068840291611e-02
11495:-1.2046222085894944e-02
11496:-7.2982304582778143e-03
11497:-6.8994052404801305e-03
11498:-6.3951351350804379e-03
11499:-6.0136929483316599e-03
11500:-1.5514553848746762e-03
11501:-1.4642010852432717e-03
11502:-1.3583788840382501e-03
11503:-1.2755509413639309e-03
11504:-1.6017217078096793e-02
11505:-1.5038632202069867e-02
11506:-1.3802671573344083e-02
11507:-1.2881289476062038e-02
11508:-1.1651128741801679e-02
11509:-1.0927723512091874e-02
11510:-1.0015733224947448e-02
11511:-9.3353937994071698e-03
11512:-5.8108097876118630e-03
11513:-5.4418244408405590e-03
11514:-4.9793289040271508e-03
11515:-4.6330683316973681e-03
11516:-1.2292101139141998e-03
11517:-1.1486827170194521e-03
11518:-1.0516506355228495e-03
11519:-9.7672771828670869e-04
11520:-1.2398516200229691e-02
11521:-1.1517691909676987e-02
11522:-1.0414968318001582e-02
11523:-9.6007541077353219e-03
11524:-8.9783754450421960e-03
11525:-8.3282070262101094e-03
11526:-7.5156887913561503e-03
11527:-6.9154299272733664e-03
11528:-4.4502160634209689e-03
11529:-4.1192644200983668e-03
11530:-3.7079351459494403e-03
11531:-3.4031275591072155e-03
11532:-9.3523049065283173e-04
11533:-8.6317005420628282e-04
11534:-7.7685413643145673e-04
11535:-7.1113078585034208e-04
11536:-9.1769441143726566e-03
11537:-8.4079776507313148e-03
11538:-7.4538240997286910e-03
11539:-6.7561970821257717e-03
11540:-6.6025582088184718e-03
11541:-6.0358330623416605e-03
11542:-5.3337667538548321e-03
11543:-4.8202093883157370e-03
11544:-3.2433375935119330e-03
11545:-2.9554865708577827e-03
11546:-2.6006794915541523e-03
11547:-2.3404446038616960e-03
11548:-6.7512425199434513e-04
11549:-6.1262089490580216e-04
11550:-5.3814743969385402e-04
11551:-4.8222240600992309e-04
11552:-6.3955580955721864e-03
11553:-5.7450231430213440e-03
11554:-4.9454667291446101e-03
11555:-4.3670947408820660e-03
11556:-4.5543889315434816e-03
11557:-4.0756203952533668e-03
11558:-3.4880763161469533e-03
11559:-3.0629198270310113e-03
11560:-2.2050385700052048e-03
11561:-1.9623753167272192e-03
11562:-1.6659814007866120e-03
11563:-1.4510235762058997e-03
11564:-4.5193497088740506e-04
11565:-3.9945266826191397e-04
11566:-3.3732736448659396e-04
11567:-2.9131052666101875e-04
11568:-4.0703769232123509e-03
11569:-3.5387385805591286e-03
11570:-2.8924556140688114e-03
11571:-2.4307056784665117e-03
11572:-2.8445586124226812e-03
11573:-2.4537826292787522e-03
11574:-1.9792403912698665e-03
11575:-1.6399488647730251e-03
11576:-1.3400889345102579e-03
11577:-1.1423415076220759e-03
11578:-9.0307626952768798e-04
11579:-7.3160359426652222e-04
11580:-2.6665106741214289e-04
11581:-2.2386701513038112e-04
11582:-1.7345909599256594e-04
11583:-1.3675625903655003e-04
11584:-2.1959320030521166e-03
11585:-1.7791472954840270e-03
11586:-1.2805510245778014e-03
11587:-9.3107420804791109e-04
11588:-1.4672077149382075e-03
11589:-1.1608996642111279e-03
11590:-7.9483817293742043e-04
11591:-5.3804408205205103e-04
11592:-6.4392376975139383e-04
11593:-4.8914874452162405e-04
11594:-3.0484600619339725e-04
11595:-1.7503551322765293e-04
11596:-1.1743011994382842e-04
11597:-8.4447251703212458e-05
11598:-4.6186349216016240e-05
11599:-1.8299022866460243e-05
11600:-7.5599044657389744e-04
11601:-4.5059396593770152e-04
11602:-9.6660801855161154e-05
11603:1.4183320851374027e-04
11604:-4.0919977876865488e-04
11605:-1.8471177299483473e-04
11606:7.5121598350077494e-05
11607:2.5025972368812133e-04
11608:-1.0946655870985862e-04
11609:4.4580467769946579e-06
11610:1.3587949719666520e-04
11611:2.2457860312729912e-04
11612:-3.4578926324757165e-06
11613:2.1891403603316432e-05
11614:5.0453257472312371e-05
11615:6.9828050011532997e-05
11616:2.5749452136109117e-04
11617:4.4925695533846349e-04
11618:6.4809532103225439e-04
11619:7.6025391039466819e-04
11620:3.3525468151687044e-04
11621:4.7526682040535537e-04
11622:6.1835059847223297e-04
11623:6.9717095512717602e-04
11624:2.6772257753426609e-04
11625:3.3766993653991769e-04
11626:4.0781286019041945e-04
11627:4.4652980264712545e-04
11628:7.9358689227904399e-05
11629:9.3353472489007486e-05
11630:1.0692225591743360e-04
11631:1.1700990134467924e-04
11632:8.0532731123631840e-04
11633:8.5831228965085806e-04
11634:8.6074151839063071e-04
11635:8.0776583427216145e-04
11636:7.2789253633729473e-04
11637:7.5968577405167873e-04
11638:7.4437414740033837e-04
11639:6.8426539356061529e-04
11640:4.6193886411770882e-04
11641:4.7591622577315755e-04
11642:4.5763248063296179e-04
11643:4.0985770710728149e-04
11644:1.2302778864605739e-04
11645:1.3083597034127233e-04
11646:1.2666331185512273e-04
11647:1.0639908991153145e-04
11648:7.5893805928943449e-04
11649:6.2571535707262298e-04
11650:3.6324264404276422e-04
11651:8.7879707241614831e-05
11652:6.3409577940082968e-04
11653:5.1150979679903230e-04
11654:2.8924219468205389e-04
11655:6.3655127448743223e-05
11656:3.7179381529144279e-04
11657:2.9187168704311226e-04
11658:1.5889998179713591e-04
11659:2.0433533211269635e-05
11660:8.9122255514712976e-05
11661:6.2881380116357955e-05
11662:1.9176142644946891e-05
11663:-4.5796402711280630e-05
11664:-1.4259931804426444e+00
11665:-1.0938290825754031e+00
11666:-7.5358258398233746e-01
11667:-5.7456577864601044e-01
11668:-5.0412517130480614e+00
11669:-2.1251242888186668e+00
11670:-6.0252796787026064e-01
11671:-3.9386063201503779e-01
11672:-7.1372752900020648e+00
11673:-3.8500592523936668e+00
11674:-2.0412388280968830e+00
11675:-1.6242194596733288e+00
11676:-5.9045349156115723e+00
11677:-5.0374962105680110e+00
11678:-4.2126986549737486e+00
11679:-3.5453027871081058e+00
11680:-5.0504693937318557e-01
11681:-3.5135680694558030e-01
11682:-1.5006781616887738e-01
11683:-3.5137056285093622e-02
11684:-4.6093834218270568e-01
11685:-4.7716447842523907e-01
11686:-3.0394900652788748e-01
11687:-8.7368095919814107e-02
11688:-1.5611923428236614e+00
11689:-1.3123137103163582e+00
11690:-7.4188075495879879e-01
11691:-1.7090760375815492e-01
11692:-3.1343566247817884e+00
11693:-2.3195732275212952e+00
11694:-1.1897802310849741e+00
11695:-2.7367825392043077e-01
11696:-4.5510424921857844e+00
11697:-5.5153905317347967e+00
11698:-5.4268995267655624e+00
11699:-4.6018156334130085e+00
11700:-1.6849894531181253e+00
11701:-5.2130512244102318e+00
11702:-6.2622362098336843e+00
11703:-5.3392460971375320e+00
11704:4.5364379016701267e-01
11705:-2.5430931391390126e+00
11706:-3.4891315271456458e+00
11707:-2.8519764949239130e+00
11708:6.6362773133911179e-01
11709:1.0133257254221086e+00
11710:1.2721770547079652e+00
11711:1.2980027997390047e+00
11712:-3.9645149578146159e+00
11713:-2.8070301323304800e+00
11714:-1.3887213355848709e+00
11715:-3.3017961382445610e-01
11716:-4.4592397052537560e+00
11717:-2.9915162615845325e+00
11718:-1.4220408979229300e+00
11719:-3.6090557626179109e-01
11720:-2.2348566860104686e+00
11721:-1.3663017442816769e+00
11722:-6.3626224960396804e-01
11723:-1.7553105099300934e-01
11724:1.2360275156370155e+00
11725:8.7884808581690099e-01
11726:3.0102652527213480e-01
11727:2.6577122825892620e-02
