x	y	stress_xx
 1.0000000000e+00	 0.0000000000e+00	 1.8008852081e-03
 9.9994489297e-01	 1.0498143933e-02	 4.4444178766e-03
 9.9977862859e-01	 2.1040290185e-02	 1.4794871854e-02
 9.9949980627e-01	 3.1624946766e-02	 3.2370359697e-02
 9.9910704558e-01	 4.2250579451e-02	 5.6805068864e-02
 9.9859898759e-01	 5.2915611885e-02	 8.7843949995e-02
 1.0074074074e+00	 0.0000000000e+00	 2.2194428200e-01
 1.0073518922e+00	 1.0575907962e-02	 2.2453854840e-01
 1.0071843962e+00	 2.1196144186e-02	 2.3409124293e-01
 1.0069035085e+00	 3.1859205630e-02	 2.5022928366e-01
 1.0065078385e+00	 4.2563546706e-02	 2.7270109855e-01
 1.0059960171e+00	 5.3307579380e-02	 3.0137063658e-01
 1.0148148148e+00	 0.0000000000e+00	 4.3258784344e-01
 1.0147588914e+00	 1.0653671991e-02	 4.3514248104e-01
 1.0145901638e+00	 2.1351998187e-02	 4.4399093786e-01
 1.0143072108e+00	 3.2093464495e-02	 4.5883182487e-01
 1.0139086314e+00	 4.2876513961e-02	 4.7949110735e-01
 1.0133930467e+00	 5.3699546876e-02	 5.0591549712e-01
 1.0222222222e+00	 0.0000000000e+00	 6.3327370193e-01
 1.0221658906e+00	 1.0731436021e-02	 6.3575944964e-01
 1.0219959314e+00	 2.1507852189e-02	 6.4396762478e-01
 1.0217109131e+00	 3.2327723360e-02	 6.5763258364e-01
 1.0213094244e+00	 4.3189481216e-02	 6.7662230288e-01
 1.0207900762e+00	 5.4091514371e-02	 7.0093120874e-01
 1.0296296296e+00	 0.0000000000e+00	 8.2355813708e-01
 1.0295728898e+00	 1.0809200050e-02	 8.2590816075e-01
 1.0294016991e+00	 2.1663706190e-02	 8.3351139413e-01
 1.0291146153e+00	 3.2561982225e-02	 8.4610313348e-01
 1.0287102173e+00	 4.3502448472e-02	 8.6355899506e-01
 1.0281871057e+00	 5.4483481867e-02	 8.8588723567e-01
 1.0370370370e+00	 0.0000000000e+00	 1.0030110705e+00
 1.0369798890e+00	 1.0886964079e-02	 1.0051222431e+00
 1.0368074667e+00	 2.1819560192e-02	 1.0121281752e+00
 1.0365183176e+00	 3.2796241090e-02	 1.0237314177e+00
 1.0361110102e+00	 4.3815415727e-02	 1.0397819873e+00
 1.0355841353e+00	 5.4875449362e-02	 1.0602692302e+00
 9.9859898759e-01	 5.2915611885e-02	 8.7843949995e-02
 9.9797429622e-01	 6.3618425732e-02	 1.2564253096e-01
 9.9723165959e-01	 7.4357360874e-02	 1.7044435208e-01
 9.9636979142e-01	 8.5130715650e-02	 2.2226046986e-01
 9.9538743238e-01	 9.5936747147e-02	 2.8116700119e-01
 9.9428335150e-01	 1.0677367154e-01	 3.4729444971e-01
 1.0059960171e+00	 5.3307579380e-02	 3.0137063658e-01
 1.0053666984e+00	 6.4089673330e-02	 3.3641017036e-01
 1.0046185608e+00	 7.4908156140e-02	 3.7795284957e-01
 1.0037503084e+00	 8.5761313544e-02	 4.2594567243e-01
 1.0027606726e+00	 9.6647389719e-02	 4.8040638231e-01
 1.0016484134e+00	 1.0756458763e-01	 5.4141233596e-01
 1.0133930467e+00	 5.3699546876e-02	 5.0591549712e-01
 1.0127591006e+00	 6.4560920928e-02	 5.3831244564e-01
 1.0120054620e+00	 7.5458951406e-02	 5.7675694519e-01
 1.0111308254e+00	 8.6391911437e-02	 6.2114655568e-01
 1.0101339129e+00	 9.7358032290e-02	 6.7145490919e-01
 1.0090134752e+00	 1.0835550371e-01	 7.2772005200e-01
 1.0207900762e+00	 5.4091514371e-02	 7.0093120874e-01
 1.0201515028e+00	 6.5032168526e-02	 7.3080816664e-01
 1.0193923631e+00	 7.6009746672e-02	 7.6630925773e-01
 1.0185113423e+00	 8.7022509331e-02	 8.0729724547e-01
 1.0175071531e+00	 9.8068674862e-02	 8.5371594758e-01
 1.0163785371e+00	 1.0914641980e-01	 9.0557798286e-01
 1.0281871057e+00	 5.4483481867e-02	 8.8588723567e-01
 1.0275439050e+00	 6.5503416124e-02	 9.1337253356e-01
 1.0267792643e+00	 7.6560541937e-02	 9.4607870399e-01
 1.0258918593e+00	 8.7653107225e-02	 9.8384838959e-01
 1.0248803933e+00	 9.8779317433e-02	 1.0266099370e+00
 1.0237435989e+00	 1.0993733588e-01	 1.0743644786e+00
 1.0355841353e+00	 5.4875449362e-02	 1.0602692302e+00
 1.0349363072e+00	 6.5974663722e-02	 1.0854965504e+00
 1.0341661655e+00	 7.7111337203e-02	 1.1155499138e+00
 1.0332723763e+00	 8.8283705119e-02	 1.1502665633e+00
 1.0322536336e+00	 9.9489960004e-02	 1.1895737754e+00
 1.0311086608e+00	 1.1072825197e-01	 1.2334752068e+00
 9.9428335150e-01	 1.0677367154e-01	 3.4729444971e-01
 9.9305634752e-01	 1.1763966448e-01	 4.2054770660e-01
 9.9170525032e-01	 1.2853286153e-01	 5.0048326890e-01
 9.9022892231e-01	 1.3945135864e-01	 5.8676083598e-01
 9.8862625980e-01	 1.5039321274e-01	 6.7905428850e-01
 9.8689619441e-01	 1.6135644226e-01	 7.7703948219e-01
 1.0016484134e+00	 1.0756458763e-01	 5.4141233596e-01
 1.0004123205e+00	 1.1851106940e-01	 6.0893271132e-01
 9.9905121514e-01	 1.2948495680e-01	 6.8266910612e-01
 9.9756395136e-01	 1.4048433167e-01	 7.6235173103e-01
 9.9594941728e-01	 1.5150723654e-01	 8.4772262954e-01
 9.9420653659e-01	 1.6255167516e-01	 9.3852250094e-01
 1.0090134752e+00	 1.0835550371e-01	 7.2772005200e-01
 1.0077682934e+00	 1.1938247432e-01	 7.8993961177e-01
 1.0063971800e+00	 1.3043705207e-01	 8.5789994112e-01
 1.0048989804e+00	 1.4151730470e-01	 9.3137897031e-01
 1.0032725748e+00	 1.5262126034e-01	 1.0101648025e+00
 1.0015168788e+00	 1.6374690807e-01	 1.0940415990e+00
 1.0163785371e+00	 1.0914641980e-01	 9.0557798286e-01
 1.0151242663e+00	 1.2025387925e-01	 9.6288740375e-01
 1.0137431448e+00	 1.3138914734e-01	 1.0254693851e+00
 1.0122340095e+00	 1.4255027772e-01	 1.0931277362e+00
 1.0105957322e+00	 1.5373528414e-01	 1.1656754581e+00
 1.0088272210e+00	 1.6494214098e-01	 1.2429197223e+00
 1.0237435989e+00	 1.0993733588e-01	 1.0743644786e+00
 1.0224802393e+00	 1.2112528417e-01	 1.1271138941e+00
 1.0210891096e+00	 1.3234124261e-01	 1.1846902594e+00
 1.0195690385e+00	 1.4358325075e-01	 1.2469023589e+00
 1.0179188897e+00	 1.5484930793e-01	 1.3135678570e+00
 1.0161375631e+00	 1.6613737388e-01	 1.3844973986e+00
 1.0311086608e+00	 1.1072825197e-01	 1.2334752068e+00
 1.0298362122e+00	 1.2199668909e-01	 1.2819750239e+00
 1.0284350744e+00	 1.3329333788e-01	 1.3348939065e+00
 1.0269040676e+00	 1.4461622378e-01	 1.3920256333e+00
 1.0252420472e+00	 1.5596333173e-01	 1.4531732112e+00
 1.0234479053e+00	 1.6733260679e-01	 1.5181321231e+00
 9.8689619441e-01	 1.6135644226e-01	 7.7703948219e-01
 9.8503769445e-01	 1.7233902782e-01	 8.8043021746e-01
 9.8304976629e-01	 1.8333891293e-01	 9.8936992251e-01
 9.8093145573e-01	 1.9435400473e-01	 1.1041365741e+00
 9.7868184937e-01	 2.0538217478e-01	 1.2249486940e+00
 9.7630007592e-01	 2.1642125997e-01	 1.3519520220e+00
 9.9420653659e-01	 1.6255167516e-01	 9.3852250094e-01
 9.9233426997e-01	 1.7361561321e-01	 1.0344079400e+00
 9.9033161641e-01	 1.8469697895e-01	 1.1354383998e+00
 9.8819761466e-01	 1.9579366402e-01	 1.2419139935e+00
 9.8593134455e-01	 2.0690352422e-01	 1.3540754930e+00
 9.8353192833e-01	 2.1802438041e-01	 1.4720902803e+00
 1.0015168788e+00	 1.6374690807e-01	 1.0940415990e+00
 9.9963084548e-01	 1.7489219860e-01	 1.1826391576e+00
 9.9761346653e-01	 1.8605504498e-01	 1.2759806622e+00
 9.9546377360e-01	 1.9723332331e-01	 1.3743926735e+00
 9.9318083973e-01	 2.0842487367e-01	 1.4781413871e+00
 9.9076378074e-01	 2.1962750086e-01	 1.5874178004e+00
 1.0088272210e+00	 1.6494214098e-01	 1.2429197223e+00
 1.0069274210e+00	 1.7616878400e-01	 1.3244785350e+00
 1.0048953167e+00	 1.8741311100e-01	 1.4103706579e+00
 1.0027299325e+00	 1.9867298261e-01	 1.5009536499e+00
 1.0004303349e+00	 2.0994622311e-01	 1.5965225482e+00
 9.9799563316e-01	 2.2123062130e-01	 1.6972941863e+00
 1.0161375631e+00	 1.6613737388e-01	 1.3844973986e+00
 1.0142239965e+00	 1.7744536939e-01	 1.4592972564e+00
 1.0121771668e+00	 1.8877117702e-01	 1.5379982265e+00
 1.0099960915e+00	 2.0011264190e-01	 1.6209936607e+00
 1.0076798301e+00	 2.1146757255e-01	 1.7086111039e+00
 1.0052274856e+00	 2.2283374175e-01	 1.8010956980e+00
 1.0234479053e+00	 1.6733260679e-01	 1.5181321231e+00
 1.0215205720e+00	 1.7872195478e-01	 1.5864824594e+00
 1.0194590169e+00	 1.9012924304e-01	 1.6582685678e+00
 1.0172622504e+00	 2.0155230120e-01	 1.7339246365e+00
 1.0149293253e+00	 2.1298892199e-01	 1.8138146372e+00
 1.0124593380e+00	 2.2443686219e-01	 1.8982147468e+00
 9.7630007592e-01	 2.1642125997e-01	 1.3519520220e+00
 9.7378530755e-01	 2.2746906338e-01	 1.4839595879e+00
 9.7113676122e-01	 2.3852335528e-01	 1.6196763971e+00
 9.6835369989e-01	 2.4958187416e-01	 1.7589417293e+00
 9.6543543388e-01	 2.6064232775e-01	 1.9014774665e+00
 9.6238132202e-01	 2.7170239424e-01	 2.0468793232e+00
 9.8353192833e-01	 2.1802438041e-01	 1.4720902803e+00
 9.8099853205e-01	 2.2915401941e-01	 1.5947628489e+00
 9.7833036685e-01	 2.4029019495e-01	 1.7207557937e+00
 9.7552669026e-01	 2.5143062878e-01	 1.8498719582e+00
 9.7258680746e-01	 2.6257301166e-01	 1.9817877812e+00
 9.6951007255e-01	 2.7371500456e-01	 2.1160439702e+00
 9.9076378074e-01	 2.1962750086e-01	 1.5874178004e+00
 9.8821175655e-01	 2.3083897543e-01	 1.7009917677e+00
 9.8552397249e-01	 2.4205703462e-01	 1.8174831462e+00
 9.8269968063e-01	 2.5327938340e-01	 1.9366981072e+00
 9.7973818104e-01	 2.6450369557e-01	 2.0583074116e+00
 9.7663882308e-01	 2.7572761489e-01	 2.1818364259e+00
 9.9799563316e-01	 2.2123062130e-01	 1.6972941863e+00
 9.9542498105e-01	 2.3252393146e-01	 1.8019851534e+00
 9.9271757813e-01	 2.4382387429e-01	 1.9091791649e+00
 9.8987267100e-01	 2.5512813803e-01	 2.0187248830e+00
 9.8688955463e-01	 2.6643437948e-01	 2.1303265332e+00
 9.8376757362e-01	 2.7774022522e-01	 2.2435331572e+00
 1.0052274856e+00	 2.2283374175e-01	 1.8010956980e+00
 1.0026382056e+00	 2.3420888748e-01	 1.8970994123e+00
 9.9991118377e-01	 2.4559071396e-01	 1.9951831487e+00
 9.9704566137e-01	 2.5697689265e-01	 2.0952766503e+00
 9.9404092821e-01	 2.6836506339e-01	 2.1971561500e+00
 9.9089632415e-01	 2.7975283555e-01	 2.3004327585e+00
 1.0124593380e+00	 2.2443686219e-01	 1.8982147468e+00
 1.0098514301e+00	 2.3589384351e-01	 1.9857080341e+00
 1.0071047894e+00	 2.4735755363e-01	 2.0748524650e+00
 1.0042186517e+00	 2.5882564727e-01	 2.1656969044e+00
 1.0011923018e+00	 2.7029574730e-01	 2.2581275623e+00
 9.9802507468e-01	 2.8176544588e-01	 2.3518554123e+00
 9.6238132202e-01	 2.7170239424e-01	 2.0468793232e+00
 9.5919077291e-01	 2.8275972336e-01	 2.1948620160e+00
 9.5586324611e-01	 2.9381193771e-01	 2.3457624199e+00
 9.5239825321e-01	 3.0485663397e-01	 2.4999120158e+00
 9.4879535904e-01	 3.1589138428e-01	 2.6575082584e+00
 9.4505418266e-01	 3.2691373760e-01	 2.8186126070e+00
 9.6951007255e-01	 2.7371500456e-01	 2.1160439702e+00
 9.6629588975e-01	 2.8485423983e-01	 2.2523423909e+00
 9.6294371460e-01	 2.9598832244e-01	 2.3911967704e+00
 9.5945305509e-01	 3.0711483126e-01	 2.5331529007e+00
 9.5582347281e-01	 3.1823132046e-01	 2.6786115167e+00
 9.5205458401e-01	 3.2933532085e-01	 2.8278255607e+00
 9.7663882308e-01	 2.7572761489e-01	 2.1818364259e+00
 9.7340100659e-01	 2.8694875630e-01	 2.3069850510e+00
 9.7002418309e-01	 2.9816470716e-01	 2.4343989912e+00
 9.6650785696e-01	 3.0937302855e-01	 2.5647938097e+00
 9.6285158658e-01	 3.2057125664e-01	 2.6987284658e+00
 9.5905498537e-01	 3.3175690409e-01	 2.8366018902e+00
 9.8376757362e-01	 2.7774022522e-01	 2.2435331572e+00
 9.8050612342e-01	 2.8904327277e-01	 2.3580576906e+00
 9.7710465158e-01	 3.0034109188e-01	 2.4746382513e+00
 9.7356265884e-01	 3.1163122584e-01	 2.5941167459e+00
 9.6987970035e-01	 3.2291119282e-01	 2.7171663949e+00
 9.6605538672e-01	 3.3417848733e-01	 2.8442876907e+00
 9.9089632415e-01	 2.7975283555e-01	 2.3004327585e+00
 9.8761124026e-01	 2.9113778924e-01	 2.4048514456e+00
 9.8418512007e-01	 3.0251747661e-01	 2.5112083410e+00
 9.8061746072e-01	 3.1388942313e-01	 2.6204293531e+00
 9.7690781412e-01	 3.2525112900e-01	 2.7332590621e+00
 9.7305578807e-01	 3.3660007057e-01	 2.8502561347e+00
 9.9802507468e-01	 2.8176544588e-01	 2.3518554123e+00
 9.9471635710e-01	 2.9323230571e-01	 2.4466803503e+00
 9.9126558856e-01	 3.0469386133e-01	 2.5434271361e+00
 9.8767226259e-01	 3.1614762042e-01	 2.6430643947e+00
 9.8393592789e-01	 3.2759106518e-01	 2.7463662008e+00
 9.8005618943e-01	 3.3902165381e-01	 2.8539070179e+00
 9.4505418266e-01	 3.2691373760e-01	 2.8186126070e+00
 9.4117439844e-01	 3.3792122117e-01	 2.9802442464e+00
 9.3715573703e-01	 3.4891134196e-01	 3.1391993516e+00
 9.3299798631e-01	 3.5988158822e-01	 3.2949389212e+00
 9.2870099228e-01	 3.7082943105e-01	 3.4467237184e+00
 9.2426465993e-01	 3.8175232599e-01	 3.6016188118e+00
 9.5205458401e-01	 3.2933532085e-01	 2.8278255607e+00
 9.4814606065e-01	 3.4042434133e-01	 2.9773330677e+00
 9.4409763138e-01	 3.5149587042e-01	 3.1233208349e+00
 9.3990908251e-01	 3.6254737776e-01	 3.2652272974e+00
 9.3558025889e-01	 3.7357631572e-01	 3.4029185883e+00
 9.3111106482e-01	 3.8458012100e-01	 3.5461643274e+00
 9.5905498537e-01	 3.3175690409e-01	 2.8366018902e+00
 9.5511772286e-01	 3.4292746148e-01	 2.9744236127e+00
 9.5103952573e-01	 3.5408039888e-01	 3.1077740547e+00
 9.4682017870e-01	 3.6521316731e-01	 3.2360984605e+00
 9.4245952550e-01	 3.7632320040e-01	 3.3608953323e+00
 9.3795746971e-01	 3.8740791600e-01	 3.4928116510e+00
 9.6605538672e-01	 3.3417848733e-01	 2.8442876907e+00
 9.6208938507e-01	 3.4543058164e-01	 2.9709086956e+00
 9.5798142008e-01	 3.5666492734e-01	 3.0919996953e+00
 9.5373127490e-01	 3.6787895685e-01	 3.2070414129e+00
 9.4933879211e-01	 3.7907008507e-01	 3.3202267072e+00
 9.4480387460e-01	 3.9023571101e-01	 3.4411641474e+00
 9.7305578807e-01	 3.3660007057e-01	 2.8502561347e+00
 9.6906104728e-01	 3.4793370180e-01	 2.9662087579e+00
 9.6492331443e-01	 3.5924945580e-01	 3.0754667532e+00
 9.6064237109e-01	 3.7054474639e-01	 3.1775763631e+00
 9.5621805872e-01	 3.8181696974e-01	 3.2805079586e+00
 9.5165027949e-01	 3.9306350602e-01	 3.3908470408e+00
 9.8005618943e-01	 3.3902165381e-01	 2.8539070179e+00
 9.7603270950e-01	 3.5043682196e-01	 2.9597714595e+00
 9.7186520877e-01	 3.6183398426e-01	 3.0576721733e+00
 9.6755346728e-01	 3.7321053593e-01	 3.1477955864e+00
 9.6309732533e-01	 3.8456385442e-01	 3.2413558835e+00
 9.5849668438e-01	 3.9589130103e-01	 3.3415064704e+00
 9.2426465993e-01	 3.8175232599e-01	 3.6016188118e+00
 9.1968895401e-01	 3.9264771471e-01	 3.7601049506e+00
 9.1497389979e-01	 4.0351302669e-01	 3.9159360550e+00
 9.1011958373e-01	 4.1434568094e-01	 4.0677677489e+00
 9.0512615414e-01	 4.2514308779e-01	 4.2142252717e+00
 8.9999382172e-01	 4.3590265067e-01	 4.3539128263e+00
 9.3111106482e-01	 3.8458012100e-01	 3.5461643274e+00
 9.2650146478e-01	 3.9555621630e-01	 3.6925551719e+00
 9.2175148423e-01	 4.0650201208e-01	 3.8360964089e+00
 9.1686121027e-01	 4.1741490821e-01	 3.9754738836e+00
 9.1183079232e-01	 4.2829229585e-01	 4.1093443729e+00
 9.0666044263e-01	 4.3913155919e-01	 4.2363450020e+00
 9.3795746971e-01	 3.8740791600e-01	 3.4928116510e+00
 9.3331397555e-01	 3.9846471789e-01	 3.6274329564e+00
 9.2852906867e-01	 4.0949099746e-01	 3.7590504314e+00
 9.2360283682e-01	 4.2048413548e-01	 3.8863806178e+00
 9.1853543049e-01	 4.3144150391e-01	 4.0081121299e+00
 9.1332706353e-01	 4.4236046771e-01	 4.1229151314e+00
 9.4480387460e-01	 3.9023571101e-01	 3.4411641474e+00
 9.4012648632e-01	 4.0137321948e-01	 3.5643682496e+00
 9.3530665311e-01	 4.1247998284e-01	 3.6844508804e+00
 9.3034446336e-01	 4.2355336274e-01	 3.8001596558e+00
 9.2524006867e-01	 4.3459071196e-01	 3.9102152391e+00
 9.1999368443e-01	 4.4558937624e-01	 4.0133208674e+00
 9.5165027949e-01	 3.9306350602e-01	 3.3908470408e+00
 9.4693899709e-01	 4.0428172107e-01	 3.5030123160e+00
 9.4208423756e-01	 4.1546896822e-01	 3.6119713740e+00
 9.3708608991e-01	 4.2662259001e-01	 3.7165031903e+00
 9.3194470685e-01	 4.3773992002e-01	 3.8153606040e+00
 9.2666030533e-01	 4.4881828476e-01	 3.9072798844e+00
 9.5849668438e-01	 3.9589130103e-01	 3.3415064704e+00
 9.5375150786e-01	 4.0719022266e-01	 3.4430367829e+00
 9.4886182200e-01	 4.1845795361e-01	 3.5413054188e+00
 9.4382771646e-01	 4.2969181728e-01	 3.6351229105e+00
 9.3864934503e-01	 4.4088912808e-01	 3.7232743203e+00
 9.3332692623e-01	 4.5204719328e-01	 3.8045288356e+00
 8.9999382172e-01	 4.3590265067e-01	 4.3539128263e+00
 8.9472286011e-01	 4.4662176794e-01	 4.4897605141e+00
 8.8931360626e-01	 4.5729783480e-01	 4.6240378745e+00
 8.8376646092e-01	 4.6792824510e-01	 4.7543672513e+00
 8.7808188883e-01	 4.7851039330e-01	 4.8784057990e+00
 8.7226041910e-01	 4.8904167641e-01	 4.9938569984e+00
 9.0666044263e-01	 4.3913155919e-01	 4.2363450020e+00
 9.0135043685e-01	 4.4993007734e-01	 4.3596079071e+00
 8.9590111446e-01	 4.6068522617e-01	 4.4815728544e+00
 8.9031287914e-01	 4.7139438025e-01	 4.5998496239e+00
 8.8458619912e-01	 4.8205491474e-01	 4.7120844504e+00
 8.7872160739e-01	 4.9266420735e-01	 4.8159716583e+00
 9.1332706353e-01	 4.4236046771e-01	 4.1229151314e+00
 9.0797801359e-01	 4.5323838673e-01	 4.2341237742e+00
 9.0248862265e-01	 4.6407261754e-01	 4.3443356667e+00
 8.9685929737e-01	 4.7486051540e-01	 4.4511294574e+00
 8.9109050941e-01	 4.8559943617e-01	 4.5521219289e+00
 8.8518279568e-01	 4.9628673828e-01	 4.6449797866e+00
 9.1999368443e-01	 4.4558937624e-01	 4.0133208674e+00
 9.1460559033e-01	 4.5654669612e-01	 4.1130147437e+00
 9.0907613085e-01	 4.6746000891e-01	 4.2120422681e+00
 9.0340571560e-01	 4.7832665055e-01	 4.3079327349e+00
 8.9759481970e-01	 4.8914395760e-01	 4.3982552932e+00
 8.9164398397e-01	 4.9990926922e-01	 4.4806309194e+00
 9.2666030533e-01	 4.4881828476e-01	 3.9072798844e+00
 9.2123316707e-01	 4.5985500551e-01	 3.9960073185e+00
 9.1566363904e-01	 4.7084740027e-01	 4.0844283166e+00
 9.0995213383e-01	 4.8179278569e-01	 4.1700049355e+00
 9.0409912999e-01	 4.9268847903e-01	 4.2502408520e+00
 8.9810517226e-01	 5.0353180016e-01	 4.3226935502e+00
 9.3332692623e-01	 4.5204719328e-01	 3.8045288356e+00
 9.2786074382e-01	 4.6316331490e-01	 3.8828468048e+00
 9.2225114724e-01	 4.7423479164e-01	 3.9612480725e+00
 9.1649855206e-01	 4.8525892084e-01	 4.0371099076e+00
 9.1060344027e-01	 4.9623300046e-01	 4.1078530120e+00
 9.0456636055e-01	 5.0715433109e-01	 4.1709539541e+00
 8.7226041910e-01	 4.8904167641e-01	 4.9938569984e+00
 8.6630264528e-01	 4.9951949589e-01	 5.1019409087e+00
 8.6020922554e-01	 5.0994125965e-01	 5.2041856691e+00
 8.5398088266e-01	 5.2030438404e-01	 5.2988860671e+00
 8.4761840403e-01	 5.3060629580e-01	 5.3844620177e+00
 8.4112264155e-01	 5.4084443408e-01	 5.4594686719e+00
 8.7872160739e-01	 4.9266420735e-01	 4.8159716583e+00
 8.7271970192e-01	 5.0321964030e-01	 4.9129336851e+00
 8.6658114573e-01	 5.1371860232e-01	 5.0046442916e+00
 8.6030666697e-01	 5.2415849059e-01	 5.0893038492e+00
 8.5389705888e-01	 5.3453671281e-01	 5.1652360140e+00
 8.4735317963e-01	 5.4485068915e-01	 5.2308980487e+00
 8.8518279568e-01	 4.9628673828e-01	 4.6449797866e+00
 8.7913675855e-01	 5.0691978472e-01	 4.7312922850e+00
 8.7295306592e-01	 5.1749594498e-01	 4.8128675594e+00
 8.6663245129e-01	 5.2801259714e-01	 4.8878298994e+00
 8.6017571372e-01	 5.3846712981e-01	 4.9544253375e+00
 8.5358371772e-01	 5.4885694421e-01	 5.0110321383e+00
 8.9164398397e-01	 4.9990926922e-01	 4.4806309194e+00
 8.8555381518e-01	 5.1061992913e-01	 4.5567806427e+00
 8.7932498611e-01	 5.2127328765e-01	 4.6286357201e+00
 8.7295823561e-01	 5.3186670369e-01	 4.6942622592e+00
 8.6645436857e-01	 5.4239754682e-01	 4.7518468670e+00
 8.5981425581e-01	 5.5286319928e-01	 4.7997072590e+00
 8.9810517226e-01	 5.0353180016e-01	 4.3226935502e+00
 8.9197087181e-01	 5.1432007354e-01	 4.3891812983e+00
 8.8569690630e-01	 5.2505063031e-01	 4.4517472199e+00
 8.7928401992e-01	 5.3572081024e-01	 4.5084167221e+00
 8.7273302341e-01	 5.4632796383e-01	 4.5573347629e+00
 8.6604479389e-01	 5.5686945435e-01	 4.5967765329e+00
 9.0456636055e-01	 5.0715433109e-01	 4.1709539541e+00
 8.9838792844e-01	 5.1802021796e-01	 4.2282942007e+00
 8.9206882649e-01	 5.2882797297e-01	 4.2820174881e+00
 8.8560980424e-01	 5.3957491679e-01	 4.3301256015e+00
 8.7901167826e-01	 5.5025838083e-01	 4.3707392205e+00
 8.7227533198e-01	 5.6087570941e-01	 4.4021086255e+00
 8.4112264155e-01	 5.4084443408e-01	 5.4594686719e+00
 8.3449451141e-01	 5.5101625241e-01	 5.5256121276e+00
 8.2773499389e-01	 5.6111922075e-01	 5.5842442557e+00
 8.2084513299e-01	 5.7115082741e-01	 5.6336172114e+00
 8.1382603605e-01	 5.8110858111e-01	 5.6721525562e+00
 8.0667887330e-01	 5.9099001292e-01	 5.6984509133e+00
 8.4735317963e-01	 5.4485068915e-01	 5.2308980487e+00
 8.4067595224e-01	 5.5509785428e-01	 5.2879699472e+00
 8.3386636421e-01	 5.6527565942e-01	 5.3379000797e+00
 8.2692546730e-01	 5.7538157428e-01	 5.3790323059e+00
 8.1985437706e-01	 5.8541308912e-01	 5.4098888464e+00
 8.1265427236e-01	 5.9536771672e-01	 5.4291798152e+00
 8.5358371772e-01	 5.4885694421e-01	 5.0110321383e+00
 8.4685739306e-01	 5.5917945615e-01	 5.0593704169e+00
 8.3999773454e-01	 5.6943209809e-01	 5.1010142720e+00
 8.3300580162e-01	 5.7961232115e-01	 5.1343621774e+00
 8.2588271807e-01	 5.8971759713e-01	 5.1579991134e+00
 8.1862967142e-01	 5.9974542052e-01	 5.1707060402e+00
 8.5981425581e-01	 5.5286319928e-01	 4.7997072590e+00
 8.5303883389e-01	 5.6326105802e-01	 4.8396642759e+00
 8.4612910486e-01	 5.7358853676e-01	 4.8734421459e+00
 8.3908613594e-01	 5.8384306802e-01	 4.8994576260e+00
 8.3191105907e-01	 5.9402210514e-01	 4.9163213255e+00
 8.2460507048e-01	 6.0412312432e-01	 4.9228471866e+00
 8.6604479389e-01	 5.5686945435e-01	 4.5967765329e+00
 8.5922027471e-01	 5.6734265989e-01	 4.6287187459e+00
 8.5226047519e-01	 5.7774497544e-01	 4.6550554770e+00
 8.4516647026e-01	 5.8807381489e-01	 4.6741861732e+00
 8.3793940008e-01	 5.9832661315e-01	 4.6847106934e+00
 8.3058046954e-01	 6.0850082812e-01	 4.6854388580e+00
 8.7227533198e-01	 5.6087570941e-01	 4.4021086255e+00
 8.6540171554e-01	 5.7142426176e-01	 4.4264162544e+00
 8.5839184551e-01	 5.8190141411e-01	 4.4457411981e+00
 8.5124680458e-01	 5.9230456176e-01	 4.4584307225e+00
 8.4396774109e-01	 6.0263112116e-01	 4.4630382880e+00
 8.3655586860e-01	 6.1287853192e-01	 4.4583332314e+00
 8.0667887330e-01	 5.9099001292e-01	 5.6984509133e+00
 7.9940487725e-01	 6.0079267824e-01	 5.7127414361e+00
 7.9200534216e-01	 6.1051415872e-01	 5.7160256100e+00
 7.8448162324e-01	 6.2015206426e-01	 5.7083804340e+00
 7.7683513597e-01	 6.2970403486e-01	 5.6901248616e+00
 7.6906735523e-01	 6.3916774255e-01	 5.6618250288e+00
 8.1265427236e-01	 5.9536771672e-01	 5.4291798152e+00
 8.0532639486e-01	 6.0524299437e-01	 5.4373531637e+00
 7.9787204839e-01	 6.1503648582e-01	 5.4353928512e+00
 7.9029259822e-01	 6.2474578325e-01	 5.4231358113e+00
 7.8258947031e-01	 6.3436850920e-01	 5.4006592386e+00
 7.7476415046e-01	 6.4390231842e-01	 5.3682863915e+00
 8.1862967142e-01	 5.9974542052e-01	 5.1707060402e+00
 8.1124791247e-01	 6.0969331051e-01	 5.1730700730e+00
 8.0373875463e-01	 6.1955881292e-01	 5.1660330616e+00
 7.9610357321e-01	 6.2933950225e-01	 5.1492368593e+00
 7.8834380465e-01	 6.3903298353e-01	 5.1225639061e+00
 7.8046094568e-01	 6.4863689429e-01	 5.0861435111e+00
 8.2460507048e-01	 6.0412312432e-01	 4.9228471866e+00
 8.1716943008e-01	 6.1414362664e-01	 4.9196979763e+00
 8.0960546087e-01	 6.2408114002e-01	 4.9077637990e+00
 8.0191454820e-01	 6.3393322124e-01	 4.8865354115e+00
 7.9409813899e-01	 6.4369745786e-01	 4.8557464689e+00
 7.8615774090e-01	 6.5337147016e-01	 4.8153801919e+00
 8.3058046954e-01	 6.0850082812e-01	 4.6854388580e+00
 8.2309094769e-01	 6.1859394278e-01	 4.6770612348e+00
 8.1547216711e-01	 6.2860346713e-01	 4.6604210664e+00
 8.0772552318e-01	 6.3852694024e-01	 4.6349010264e+00
 7.9985247333e-01	 6.4836193219e-01	 4.6001309518e+00
 7.9185453613e-01	 6.5810604603e-01	 4.5559948000e+00
 8.3655586860e-01	 6.1287853192e-01	 4.4583332314e+00
 8.2901246530e-01	 6.2304425891e-01	 4.4450012868e+00
 8.2133887335e-01	 6.3312579423e-01	 4.4238578252e+00
 8.1353649817e-01	 6.4312065923e-01	 4.3942195099e+00
 8.0560680767e-01	 6.5302640653e-01	 4.3556563540e+00
 7.9755133135e-01	 6.6284062190e-01	 4.3079988730e+00
 7.6906735523e-01	 6.3916774255e-01	 5.6618250288e+00
 7.6117981439e-01	 6.4854089321e-01	 5.6213473673e+00
 7.5317410434e-01	 6.5782122841e-01	 5.5654826229e+00
 7.4505187243e-01	 6.6700652725e-01	 5.4935967820e+00
 7.3681482137e-01	 6.7609460803e-01	 5.4067623436e+00
 7.2846470806e-01	 6.8508333005e-01	 5.3136525165e+00
 7.7476415046e-01	 6.4390231842e-01	 5.3682863915e+00
 7.6681818339e-01	 6.5334489982e-01	 5.3240374994e+00
 7.5875317178e-01	 6.6269397825e-01	 5.2654587079e+00
 7.5057077518e-01	 6.7194731634e-01	 5.1925804014e+00
 7.4227270893e-01	 6.8110271624e-01	 5.1057448690e+00
 7.3386074293e-01	 6.9015802139e-01	 5.0095632273e+00
 7.8046094568e-01	 6.4863689429e-01	 5.0861435111e+00
 7.7245655238e-01	 6.5814890644e-01	 5.0382025254e+00
 7.6433223922e-01	 6.6756672809e-01	 4.9769779985e+00
 7.5608967794e-01	 6.7688810543e-01	 4.9030379664e+00
 7.4773059650e-01	 6.8611082445e-01	 4.8172672011e+00
 7.3925677781e-01	 6.9523271272e-01	 4.7210505083e+00
 7.8615774090e-01	 6.5337147016e-01	 4.8153801919e+00
 7.7809492138e-01	 6.6295291305e-01	 4.7639035685e+00
 7.6991130666e-01	 6.7243947793e-01	 4.7001632809e+00
 7.6160858070e-01	 6.8182889452e-01	 4.6251409901e+00
 7.5318848406e-01	 6.9111893266e-01	 4.5401387155e+00
 7.4465281268e-01	 7.0030740405e-01	 4.4467819204e+00
 7.9185453613e-01	 6.5810604603e-01	 4.5559948000e+00
 7.8373329038e-01	 6.6775691967e-01	 4.5012144601e+00
 7.7549037410e-01	 6.7731222777e-01	 4.4351486831e+00
 7.6712748346e-01	 6.8676968361e-01	 4.3590713712e+00
 7.5864637163e-01	 6.9612704087e-01	 4.2745792113e+00
 7.5004884755e-01	 7.0538209539e-01	 4.1835941954e+00
 7.9755133135e-01	 6.6284062190e-01	 4.3079988730e+00
 7.8937165937e-01	 6.7256092629e-01	 4.2502204063e+00
 7.8106944154e-01	 6.8218497761e-01	 4.1820783838e+00
 7.7264638622e-01	 6.9171047270e-01	 4.1050201323e+00
 7.6410425920e-01	 7.0113514907e-01	 4.0208170076e+00
 7.5544488243e-01	 7.1045678672e-01	 3.9315666089e+00
 7.2846470806e-01	 6.8508333005e-01	 5.3136525165e+00
 7.2000334233e-01	 6.9397059523e-01	 5.2112115630e+00
 7.1143258564e-01	 7.0275434975e-01	 5.0955584805e+00
 7.0275434975e-01	 7.1143258564e-01	 4.9666324953e+00
 6.9397059523e-01	 7.2000334233e-01	 4.8244195893e+00
 6.8508333005e-01	 7.2846470806e-01	 4.6689556238e+00
 7.3386074293e-01	 6.9015802139e-01	 5.0095632273e+00
 7.2533670042e-01	 6.9911111816e-01	 4.9075211323e+00
 7.1670245665e-01	 7.0795993752e-01	 4.7946118854e+00
 7.0795993752e-01	 7.1670245665e-01	 4.6696551137e+00
 6.9911111816e-01	 7.2533670042e-01	 4.5315157862e+00
 6.9015802139e-01	 7.3386074293e-01	 4.3791099921e+00
 7.3925677781e-01	 6.9523271272e-01	 4.7210505083e+00
 7.3067005851e-01	 7.0425164108e-01	 4.6181661400e+00
 7.2197232765e-01	 7.1316552530e-01	 4.5064268917e+00
 7.1316552530e-01	 7.2197232765e-01	 4.3837048496e+00
 7.0425164108e-01	 7.3067005851e-01	 4.2479173251e+00
 6.9523271272e-01	 7.3925677781e-01	 4.0970349244e+00
 7.4465281268e-01	 7.0030740405e-01	 4.4467819204e+00
 7.3600341660e-01	 7.0939216401e-01	 4.3430601583e+00
 7.2724219866e-01	 7.1837111307e-01	 4.2309649715e+00
 7.1837111307e-01	 7.2724219866e-01	 4.1088051064e+00
 7.0939216401e-01	 7.3600341660e-01	 3.9737198041e+00
 7.0030740405e-01	 7.4465281268e-01	 3.8243882438e+00
 7.5004884755e-01	 7.0538209539e-01	 4.1835941954e+00
 7.4133677469e-01	 7.1453268694e-01	 4.0821075362e+00
 7.3251206966e-01	 7.2357670085e-01	 3.9682026736e+00
 7.2357670085e-01	 7.3251206966e-01	 3.8449927289e+00
 7.1453268694e-01	 7.4133677469e-01	 3.7090615628e+00
 7.0538209539e-01	 7.5004884755e-01	 3.5650512733e+00
 7.5544488243e-01	 7.1045678672e-01	 3.9315666089e+00
 7.4667013278e-01	 7.1967320987e-01	 3.8328775207e+00
 7.3778194067e-01	 7.2878228863e-01	 3.7181314688e+00
 7.2878228863e-01	 7.3778194067e-01	 3.5923179130e+00
 7.1967320987e-01	 7.4667013278e-01	 3.4569524362e+00
 7.1045678672e-01	 7.5544488243e-01	 3.3189205857e+00
 6.8508333005e-01	 7.2846470806e-01	 4.6689556238e+00
 6.7609460803e-01	 7.3681482137e-01	 4.4986739647e+00
 6.6700652725e-01	 7.4505187243e-01	 4.3121285693e+00
 6.5782122841e-01	 7.5317410434e-01	 4.1185684387e+00
 6.4854089321e-01	 7.6117981439e-01	 3.9179390657e+00
 6.3916774255e-01	 7.6906735523e-01	 3.7082251494e+00
 6.9015802139e-01	 7.3386074293e-01	 4.3791099921e+00
 6.8110271624e-01	 7.4227270893e-01	 4.2095903414e+00
 6.7194731634e-01	 7.5057077518e-01	 4.0292372194e+00
 6.6269397825e-01	 7.5875317178e-01	 3.8421440249e+00
 6.5334489982e-01	 7.6681818339e-01	 3.6472868191e+00
 6.4390231842e-01	 7.7476415046e-01	 3.4433843693e+00
 6.9523271272e-01	 7.3925677781e-01	 4.0970349244e+00
 6.8611082445e-01	 7.4773059650e-01	 3.9317334674e+00
 6.7688810543e-01	 7.5608967794e-01	 3.7584513933e+00
 6.6756672809e-01	 7.6433223922e-01	 3.5773140156e+00
 6.5814890644e-01	 7.7245655238e-01	 3.3879602414e+00
 6.4863689429e-01	 7.8046094568e-01	 3.1897667223e+00
 7.0030740405e-01	 7.4465281268e-01	 3.8243882438e+00
 6.9111893266e-01	 7.5318848406e-01	 3.6665674872e+00
 6.8182889452e-01	 7.6160858070e-01	 3.4995608619e+00
 6.7243947793e-01	 7.6991130666e-01	 3.3238707844e+00
 6.6295291305e-01	 7.7809492138e-01	 3.1397268256e+00
 6.5337147016e-01	 7.8615774090e-01	 2.9470889644e+00
 7.0538209539e-01	 7.5004884755e-01	 3.5650512733e+00
 6.9612704087e-01	 7.5864637163e-01	 3.4138391562e+00
 6.8676968361e-01	 7.6712748346e-01	 3.2523432015e+00
 6.7731222777e-01	 7.7549037410e-01	 3.0815945115e+00
 6.6775691967e-01	 7.8373329038e-01	 2.9023426893e+00
 6.5810604603e-01	 7.9185453613e-01	 2.7150580635e+00
 7.1045678672e-01	 7.5544488243e-01	 3.3189205857e+00
 7.0113514907e-01	 7.6410425920e-01	 3.1732841886e+00
 6.9171047270e-01	 7.7264638622e-01	 3.0165641171e+00
 6.8218497761e-01	 7.8106944154e-01	 2.8502535078e+00
 6.7256092629e-01	 7.8937165937e-01	 2.6755528705e+00
 6.6284062190e-01	 7.9755133135e-01	 2.4933714392e+00
 6.3916774255e-01	 7.6906735523e-01	 3.7082251494e+00
 6.2970403486e-01	 7.7683513597e-01	 3.4862071160e+00
 6.2015206426e-01	 7.8448162324e-01	 3.2511173119e+00
 6.1051415872e-01	 7.9200534216e-01	 3.0042910079e+00
 6.0079267824e-01	 7.9940487725e-01	 2.7468770886e+00
 5.9099001292e-01	 8.0667887330e-01	 2.4798410121e+00
 6.4390231842e-01	 7.7476415046e-01	 3.4433843693e+00
 6.3436850920e-01	 7.8258947031e-01	 3.2280856028e+00
 6.2474578325e-01	 7.9029259822e-01	 3.0009109071e+00
 6.1503648582e-01	 7.9787204839e-01	 2.7630413268e+00
 6.0524299437e-01	 8.0532639486e-01	 2.5154522343e+00
 5.9536771672e-01	 8.1265427236e-01	 2.2589168835e+00
 6.4863689429e-01	 7.8046094568e-01	 3.1897667223e+00
 6.3903298353e-01	 7.8834380465e-01	 2.9810954831e+00
 6.2933950225e-01	 7.9610357321e-01	 2.7616355510e+00
 6.1955881292e-01	 8.0373875463e-01	 2.5323922754e+00
 6.0969331051e-01	 8.1124791247e-01	 2.2941492978e+00
 5.9974542052e-01	 8.1862967142e-01	 2.0474727280e+00
 6.5337147016e-01	 7.8615774090e-01	 2.9470889644e+00
 6.4369745786e-01	 7.9409813899e-01	 2.7449113155e+00
 6.3393322124e-01	 8.0191454820e-01	 2.5329657337e+00
 6.2408114002e-01	 8.0960546087e-01	 2.3120608018e+00
 6.1414362664e-01	 8.1716943008e-01	 2.0827705556e+00
 6.0412312432e-01	 8.2460507048e-01	 1.8454393142e+00
 6.5810604603e-01	 7.9185453613e-01	 2.7150580635e+00
 6.4836193219e-01	 7.9985247333e-01	 2.5191992378e+00
 6.3852694024e-01	 8.0772552318e-01	 2.3145677040e+00
 6.2860346713e-01	 8.1547216711e-01	 2.1017545919e+00
 6.1859394278e-01	 8.2309094769e-01	 1.8811067925e+00
 6.0850082812e-01	 8.3058046954e-01	 1.6527324697e+00
 6.6284062190e-01	 7.9755133135e-01	 2.4933714392e+00
 6.5302640653e-01	 8.0560680767e-01	 2.3036171574e+00
 6.4312065923e-01	 8.1353649817e-01	 2.1060996530e+00
 6.3312579423e-01	 8.2133887335e-01	 1.9011722902e+00
 6.2304425891e-01	 8.2901246530e-01	 1.6889375998e+00
 6.1287853192e-01	 8.3655586860e-01	 1.4692535021e+00
 5.9099001292e-01	 8.0667887330e-01	 2.4798410121e+00
 5.8110858111e-01	 8.1382603605e-01	 2.2052536083e+00
 5.7115082741e-01	 8.2084513299e-01	 1.9242809911e+00
 5.6111922075e-01	 8.2773499389e-01	 1.6362579379e+00
 5.5101625241e-01	 8.3449451141e-01	 1.3403417841e+00
 5.4084443408e-01	 8.4112264155e-01	 1.0355215318e+00
 5.9536771672e-01	 8.1265427236e-01	 2.2589168835e+00
 5.8541308912e-01	 8.1985437706e-01	 1.9952764076e+00
 5.7538157428e-01	 8.2692546730e-01	 1.7255788403e+00
 5.6527565942e-01	 8.3386636421e-01	 1.4491253129e+00
 5.5509785428e-01	 8.4067595224e-01	 1.1650460054e+00
 5.4485068915e-01	 8.4735317963e-01	 8.7230940616e-01
 5.9974542052e-01	 8.1862967142e-01	 2.0474727280e+00
 5.8971759713e-01	 8.2588271807e-01	 1.7940922553e+00
 5.7961232115e-01	 8.3300580162e-01	 1.5350797956e+00
 5.6943209809e-01	 8.3999773454e-01	 1.2697221832e+00
 5.5917945615e-01	 8.4685739306e-01	 9.9713679220e-01
 5.4885694421e-01	 8.5358371772e-01	 7.1628095774e-01
 6.0412312432e-01	 8.2460507048e-01	 1.8454393142e+00
 5.9402210514e-01	 8.3191105907e-01	 1.6017531261e+00
 5.8384306802e-01	 8.3908613594e-01	 1.3528988376e+00
 5.7358853676e-01	 8.4612910486e-01	 1.0981679434e+00
 5.6326105802e-01	 8.5303883389e-01	 8.3667903981e-01
 5.5286319928e-01	 8.5981425581e-01	 5.6738741792e-01
 6.0850082812e-01	 8.3058046954e-01	 1.6527324697e+00
 5.9832661315e-01	 8.3793940008e-01	 1.4182928372e+00
 5.8807381489e-01	 8.4516647026e-01	 1.1791312702e+00
 5.7774497544e-01	 8.5226047519e-01	 9.3456249990e-01
 5.6734265989e-01	 8.5922027471e-01	 6.8372006037e-01
 5.5686945435e-01	 8.6604479389e-01	 4.2556606353e-01
 6.1287853192e-01	 8.3655586860e-01	 1.4692535021e+00
 6.0263112116e-01	 8.4396774109e-01	 1.2437275825e+00
 5.9230456176e-01	 8.5124680458e-01	 1.0138533072e+00
 5.8190141411e-01	 8.5839184551e-01	 7.7898684890e-01
 5.7142426176e-01	 8.6540171554e-01	 5.3829009082e-01
 5.6087570941e-01	 8.7227533198e-01	 2.9074059265e-01
 5.4084443408e-01	 8.4112264155e-01	 1.0355215318e+00
 5.3060629580e-01	 8.4761840403e-01	 7.2382815489e-01
 5.2030438404e-01	 8.5398088266e-01	 4.0792283746e-01
 5.0994125965e-01	 8.6020922554e-01	 8.7547615709e-02
 4.9951949589e-01	 8.6630264528e-01	-2.3764475660e-01
 4.8904167641e-01	 8.7226041910e-01	-5.6808246391e-01
 5.4485068915e-01	 8.4735317963e-01	 8.7230940616e-01
 5.3453671281e-01	 8.5389705888e-01	 5.7317088186e-01
 5.2415849059e-01	 8.6030666697e-01	 2.7050570573e-01
 5.1371860232e-01	 8.6658114573e-01	-3.5990409119e-02
 5.0321964030e-01	 8.7271970192e-01	-3.4673122380e-01
 4.9266420735e-01	 8.7872160739e-01	-6.6223112636e-01
 5.4885694421e-01	 8.5358371772e-01	 7.1628095774e-01
 5.3846712981e-01	 8.6017571372e-01	 4.2949217130e-01
 5.2801259714e-01	 8.6663245129e-01	 1.3969346113e-01
 5.1749594498e-01	 8.7295306592e-01	-1.5349168937e-01
 5.0691978472e-01	 8.7913675855e-01	-4.5056338535e-01
 4.9628673828e-01	 8.8518279568e-01	-7.5213598990e-01
 5.5286319928e-01	 8.5981425581e-01	 5.6738741792e-01
 5.4239754682e-01	 8.6645436857e-01	 2.9263796757e-01
 5.3186670369e-01	 8.7295823561e-01	 1.5303091084e-02
 5.2127328765e-01	 8.7932498611e-01	-2.6509151382e-01
 5.1061992913e-01	 8.8555381518e-01	-5.4915186678e-01
 4.9990926922e-01	 8.9164398397e-01	-8.3760591035e-01
 5.5686945435e-01	 8.6604479389e-01	 4.2556606353e-01
 5.4632796383e-01	 8.7273302341e-01	 1.6244366809e-01
 5.3572081024e-01	 8.7928401992e-01	-1.0285773312e-01
 5.2505063031e-01	 8.8569690630e-01	-3.7093544409e-01
 5.1432007354e-01	 8.9197087181e-01	-6.4252071888e-01
 5.0353180016e-01	 8.9810517226e-01	-9.1846852219e-01
 5.6087570941e-01	 8.7227533198e-01	 2.9074059265e-01
 5.5025838083e-01	 8.7901167826e-01	 3.8734374895e-02
 5.3957491679e-01	 8.8560980424e-01	-2.1499045153e-01
 5.2882797297e-01	 8.9206882649e-01	-4.7117907868e-01
 5.1802021796e-01	 8.9838792844e-01	-7.3070707212e-01
 5.0715433109e-01	 9.0456636055e-01	-9.9456970490e-01
 4.8904167641e-01	 8.7226041910e-01	-5.6808246391e-01
 4.7851039330e-01	 8.7808188883e-01	-9.0149380535e-01
 4.6792824510e-01	 8.8376646092e-01	-1.2356880112e+00
 4.5729783480e-01	 8.8931360626e-01	-1.5713400891e+00
 4.4662176794e-01	 8.9472286011e-01	-1.9092105769e+00
 4.3590265067e-01	 8.9999382172e-01	-2.2501358624e+00
 4.9266420735e-01	 8.7872160739e-01	-6.6223112636e-01
 4.8205491474e-01	 8.8458619912e-01	-9.8044412218e-01
 4.7139438025e-01	 8.9031287914e-01	-1.2994308472e+00
 4.6068522617e-01	 8.9590111446e-01	-1.6199917232e+00
 4.4993007734e-01	 9.0135043685e-01	-1.9429941931e+00
 4.3913155919e-01	 9.0666044263e-01	-2.2693629053e+00
 4.9628673828e-01	 8.8518279568e-01	-7.5213598990e-01
 4.8559943617e-01	 8.9109050941e-01	-1.0561994208e+00
 4.7486051540e-01	 8.9685929737e-01	-1.3608501951e+00
 4.6407261754e-01	 9.0248862265e-01	-1.6669898035e+00
 4.5323838673e-01	 9.0797801359e-01	-1.9755748874e+00
 4.4236046771e-01	 9.1332706353e-01	-2.2876072346e+00
 4.9990926922e-01	 8.9164398397e-01	-8.3760591035e-01
 4.8914395760e-01	 8.9759481970e-01	-1.1283686843e+00
 4.7832665055e-01	 9.0340571560e-01	-1.4194364635e+00
 4.6746000891e-01	 9.0907613085e-01	-1.7117878879e+00
 4.5654669612e-01	 9.1460559033e-01	-2.0064514205e+00
 4.4558937624e-01	 9.1999368443e-01	-2.3044951005e+00
 5.0353180016e-01	 8.9810517226e-01	-9.1846852219e-01
 4.9268847903e-01	 9.0409912999e-01	-1.1965849560e+00
 4.8179278569e-01	 9.0995213383e-01	-1.4747070469e+00
 4.7084740027e-01	 9.1566363904e-01	-1.7538670784e+00
 4.5985500551e-01	 9.2123316707e-01	-2.0351482786e+00
 4.4881828476e-01	 9.2666030533e-01	-2.3196742787e+00
 5.0715433109e-01	 9.0456636055e-01	-9.9456970490e-01
 4.9623300046e-01	 9.1060344027e-01	-1.2605046205e+00
 4.8525892084e-01	 9.1649855206e-01	-1.5262055053e+00
 4.7423479164e-01	 9.2225114724e-01	-1.7927351838e+00
 4.6316331490e-01	 9.2786074382e-01	-2.0612149045e+00
 4.5204719328e-01	 9.3332692623e-01	-2.3328134534e+00
 4.3590265067e-01	 8.9999382172e-01	-2.2501358624e+00
 4.2514308779e-01	 9.0512615414e-01	-2.5913984828e+00
 4.1434568094e-01	 9.1011958373e-01	-2.9297215154e+00
 4.0351302669e-01	 9.1497389979e-01	-3.2651292901e+00
 3.9264771471e-01	 9.1968895401e-01	-3.5976092835e+00
 3.8175232599e-01	 9.2426465993e-01	-3.9271060209e+00
 4.3913155919e-01	 9.0666044263e-01	-2.2693629053e+00
 4.2829229585e-01	 9.1183079232e-01	-2.5959739324e+00
 4.1741490821e-01	 9.1686121027e-01	-2.9191020207e+00
 4.0650201208e-01	 9.2175148423e-01	-3.2387971792e+00
 3.9555621630e-01	 9.2650146478e-01	-3.5550911739e+00
 3.8458012100e-01	 9.3111106482e-01	-3.8679908901e+00
 4.4236046771e-01	 9.1332706353e-01	-2.2876072346e+00
 4.3144150391e-01	 9.1853543049e-01	-2.5997628244e+00
 4.2048413548e-01	 9.2360283682e-01	-2.9080900923e+00
 4.0949099746e-01	 9.2852906867e-01	-3.2126782153e+00
 3.9846471789e-01	 9.3331397555e-01	-3.5136117616e+00
 3.8740791600e-01	 9.3795746971e-01	-3.8109635753e+00
 4.4558937624e-01	 9.1999368443e-01	-2.3044951005e+00
 4.3459071196e-01	 9.2524006867e-01	-2.6025277346e+00
 4.2355336274e-01	 9.3034446336e-01	-2.8965198683e+00
 4.1247998284e-01	 9.3530665311e-01	-3.1866133314e+00
 4.0137321948e-01	 9.4012648632e-01	-3.4729540774e+00
 3.9023571101e-01	 9.4480387460e-01	-3.7556846514e+00
 4.4881828476e-01	 9.2666030533e-01	-2.3196742787e+00
 4.3773992002e-01	 9.3194470685e-01	-2.6040482962e+00
 4.2662259001e-01	 9.3708608991e-01	-2.8842399272e+00
 4.1546896822e-01	 9.4208423756e-01	-3.1604571358e+00
 4.0428172107e-01	 9.4693899709e-01	-3.4329159136e+00
 3.9306350602e-01	 9.5165027949e-01	-3.7018323894e+00
 4.5204719328e-01	 9.3332692623e-01	-2.3328134534e+00
 4.4088912808e-01	 9.3864934503e-01	-2.6041207454e+00
 4.2969181728e-01	 9.4382771646e-01	-2.8711129297e+00
 4.1845795361e-01	 9.4886182200e-01	-3.1340775844e+00
 4.0719022266e-01	 9.5375150786e-01	-3.3933094598e+00
 3.9589130103e-01	 9.5849668438e-01	-3.6491022887e+00
 3.8175232599e-01	 9.2426465993e-01	-3.9271060209e+00
 3.7082943105e-01	 9.2870099228e-01	-4.2587311548e+00
 3.5988158822e-01	 9.3299798631e-01	-4.5916154826e+00
 3.4891134196e-01	 9.3715573703e-01	-4.9178666739e+00
 3.3792122117e-01	 9.4117439844e-01	-5.2360718966e+00
 3.2691373760e-01	 9.4505418266e-01	-5.5447038765e+00
 3.8458012100e-01	 9.3111106482e-01	-3.8679908901e+00
 3.7357631572e-01	 9.3558025889e-01	-4.1827860844e+00
 3.6254737776e-01	 9.3990908251e-01	-4.5013731574e+00
 3.5149587042e-01	 9.4409763138e-01	-4.8137043512e+00
 3.4042434133e-01	 9.4814606065e-01	-5.1177815366e+00
 3.2933532085e-01	 9.5205458401e-01	-5.4120002434e+00
 3.8740791600e-01	 9.3795746971e-01	-3.8109635753e+00
 3.7632320040e-01	 9.4245952550e-01	-4.1100131131e+00
 3.6521316731e-01	 9.4682017870e-01	-4.4144712382e+00
 3.5408039888e-01	 9.5103952573e-01	-4.7137195909e+00
 3.4292746148e-01	 9.5511772286e-01	-5.0043821039e+00
 3.3175690409e-01	 9.5905498537e-01	-5.2847769700e+00
 3.9023571101e-01	 9.4480387460e-01	-3.7556846514e+00
 3.7907008507e-01	 9.4933879211e-01	-4.0399252186e+00
 3.6787895685e-01	 9.5373127490e-01	-4.3302801802e+00
 3.5666492734e-01	 9.5798142008e-01	-4.6171452106e+00
 3.4543058164e-01	 9.6208938507e-01	-4.8949857140e+00
 3.3417848733e-01	 9.6605538672e-01	-5.1620425296e+00
 3.9306350602e-01	 9.5165027949e-01	-3.7018323894e+00
 3.8181696974e-01	 9.5621805872e-01	-3.9720567237e+00
 3.7054474639e-01	 9.6064237109e-01	-4.2482056270e+00
 3.5924945580e-01	 9.6492331443e-01	-4.5232486793e+00
 3.4793370180e-01	 9.6906104728e-01	-4.7887398936e+00
 3.3660007057e-01	 9.7305578807e-01	-5.0428412386e+00
 3.9589130103e-01	 9.5849668438e-01	-3.6491022887e+00
 3.8456385442e-01	 9.6309732533e-01	-3.9059627004e+00
 3.7321053593e-01	 9.6755346728e-01	-4.1681095691e+00
 3.6183398426e-01	 9.7186520877e-01	-4.4313319507e+00
 3.5043682196e-01	 9.7603270950e-01	-4.6848272885e+00
 3.3902165381e-01	 9.8005618943e-01	-4.9262528532e+00
 3.2691373760e-01	 9.4505418266e-01	-5.5447038765e+00
 3.1589138428e-01	 9.4879535904e-01	-5.8459461257e+00
 3.0485663397e-01	 9.5239825321e-01	-6.1428231987e+00
 2.9381193771e-01	 9.5586324611e-01	-6.4348824257e+00
 2.8275972336e-01	 9.5919077291e-01	-6.7215495485e+00
 2.7170239424e-01	 9.6238132202e-01	-7.0021296110e+00
 3.2933532085e-01	 9.5205458401e-01	-5.4120002434e+00
 3.1823132046e-01	 9.5582347281e-01	-5.6987250995e+00
 3.0711483126e-01	 9.5945305509e-01	-5.9812296323e+00
 2.9598832244e-01	 9.6294371460e-01	-6.2590614388e+00
 2.8485423983e-01	 9.6629588975e-01	-6.5316360592e+00
 2.7371500456e-01	 9.6951007255e-01	-6.7982379983e+00
 3.3175690409e-01	 9.5905498537e-01	-5.2847769700e+00
 3.2057125664e-01	 9.6285158658e-01	-5.5575364353e+00
 3.0937302855e-01	 9.6650785696e-01	-5.8262696561e+00
 2.9816470716e-01	 9.7002418309e-01	-6.0905255452e+00
 2.8694875630e-01	 9.7340100659e-01	-6.3497113109e+00
 2.7572761489e-01	 9.7663882308e-01	-6.6030935821e+00
 3.3417848733e-01	 9.6605538672e-01	-5.1620425296e+00
 3.2291119282e-01	 9.6987970035e-01	-5.4213046244e+00
 3.1163122584e-01	 9.7356265884e-01	-5.6768059932e+00
 3.0034109188e-01	 9.7710465158e-01	-5.9280979108e+00
 2.8904327277e-01	 9.8050612342e-01	-6.1745810778e+00
 2.7774022522e-01	 9.8376757362e-01	-6.4155068218e+00
 3.3660007057e-01	 9.7305578807e-01	-5.0428412386e+00
 3.2525112900e-01	 9.7690781412e-01	-5.2889900366e+00
 3.1388942313e-01	 9.8061746072e-01	-5.5317368178e+00
 3.0251747661e-01	 9.8418512007e-01	-5.7706362668e+00
 2.9113778924e-01	 9.8761124026e-01	-6.0050843598e+00
 2.7975283555e-01	 9.9089632415e-01	-6.2343196161e+00
 3.3902165381e-01	 9.8005618943e-01	-4.9262528532e+00
 3.2759106518e-01	 9.8393592789e-01	-5.1595884247e+00
 3.1614762042e-01	 9.8767226259e-01	-5.3899951876e+00
 3.0469386133e-01	 9.9126558856e-01	-5.6170322907e+00
 2.9323230571e-01	 9.9471635710e-01	-5.8400927343e+00
 2.8176544588e-01	 9.9802507468e-01	-6.0584046448e+00
 2.7170239424e-01	 9.6238132202e-01	-7.0021296110e+00
 2.6064232775e-01	 9.6543543388e-01	-7.2748167433e+00
 2.4958187416e-01	 9.6835369989e-01	-7.5380247680e+00
 2.3852335528e-01	 9.7113676122e-01	-7.7912384423e+00
 2.2746906338e-01	 9.7378530755e-01	-8.0338661373e+00
 2.1642125997e-01	 9.7630007592e-01	-8.2652466148e+00
 2.7371500456e-01	 9.6951007255e-01	-6.7982379983e+00
 2.6257301166e-01	 9.7258680746e-01	-7.0572530906e+00
 2.5143062878e-01	 9.7552669026e-01	-7.3073805650e+00
 2.4029019495e-01	 9.7833036685e-01	-7.5482016669e+00
 2.2915401941e-01	 9.8099853205e-01	-7.7792004113e+00
 2.1802438041e-01	 9.8353192833e-01	-7.9997708860e+00
 2.7572761489e-01	 9.7663882308e-01	-6.6030935821e+00
 2.6450369557e-01	 9.7973818104e-01	-6.8491804741e+00
 2.5327938340e-01	 9.8269968063e-01	-7.0868684256e+00
 2.4205703462e-01	 9.8552397249e-01	-7.3158111572e+00
 2.3083897543e-01	 9.8821175655e-01	-7.5355455453e+00
 2.1962750086e-01	 9.9076378074e-01	-7.7454994777e+00
 2.7774022522e-01	 9.8376757362e-01	-6.4155068218e+00
 2.6643437948e-01	 9.8688955463e-01	-6.6494371402e+00
 2.5512813803e-01	 9.8987267100e-01	-6.8753788943e+00
 2.4382387429e-01	 9.9271757813e-01	-7.0930346926e+00
 2.3252393146e-01	 9.9542498105e-01	-7.3019718665e+00
 2.2123062130e-01	 9.9799563316e-01	-7.5016309085e+00
 2.7975283555e-01	 9.9089632415e-01	-6.2343196161e+00
 2.6836506339e-01	 9.9404092821e-01	-6.4568905119e+00
 2.5697689265e-01	 9.9704566137e-01	-6.6718289151e+00
 2.4559071396e-01	 9.9991118377e-01	-6.8788631455e+00
 2.3420888748e-01	 1.0026382056e+00	-7.0775689484e+00
 2.2283374175e-01	 1.0052274856e+00	-7.2673785429e+00
 2.8176544588e-01	 9.9802507468e-01	-6.0584046448e+00
 2.7029574730e-01	 1.0011923018e+00	-6.2704365435e+00
 2.5882564727e-01	 1.0042186517e+00	-6.4751612201e+00
 2.4735755363e-01	 1.0071047894e+00	-6.6723099294e+00
 2.3589384351e-01	 1.0098514301e+00	-6.8614451414e+00
 2.2443686219e-01	 1.0124593380e+00	-7.0419702297e+00
 2.1642125997e-01	 9.7630007592e-01	-8.2652466148e+00
 2.0538217478e-01	 9.7868184937e-01	-8.4860691453e+00
 1.9435400473e-01	 9.8093145573e-01	-8.6974089514e+00
 1.8333891293e-01	 9.8304976629e-01	-8.8990592793e+00
 1.7233902782e-01	 9.8503769445e-01	-9.0907195376e+00
 1.6135644226e-01	 9.8689619441e-01	-9.2720067858e+00
 2.1802438041e-01	 9.8353192833e-01	-7.9997708860e+00
 2.0690352422e-01	 9.8593134455e-01	-8.2103525596e+00
 1.9579366402e-01	 9.8819761466e-01	-8.4117297380e+00
 1.8469697895e-01	 9.9033161641e-01	-8.6036784777e+00
 1.7361561321e-01	 9.9233426997e-01	-8.7858866166e+00
 1.6255167516e-01	 9.9420653659e-01	-8.9579655869e+00
 2.1962750086e-01	 9.9076378074e-01	-7.7454994777e+00
 2.0842487367e-01	 9.9318083973e-01	-7.9459945638e+00
 1.9723332331e-01	 9.9546377360e-01	-8.1376811517e+00
 1.8605504498e-01	 9.9761346653e-01	-8.3203310463e+00
 1.7489219860e-01	 9.9963084548e-01	-8.4936281929e+00
 1.6374690807e-01	 1.0015168788e+00	-8.6571809465e+00
 2.2123062130e-01	 9.9799563316e-01	-7.5016309085e+00
 2.0994622311e-01	 1.0004303349e+00	-7.6923022942e+00
 1.9867298261e-01	 1.0027299325e+00	-7.8746137570e+00
 1.8741311100e-01	 1.0048953167e+00	-8.0483455283e+00
 1.7616878400e-01	 1.0069274210e+00	-8.2131851332e+00
 1.6494214098e-01	 1.0088272210e+00	-8.3687402487e+00
 2.2283374175e-01	 1.0052274856e+00	-7.2673785429e+00
 2.1146757255e-01	 1.0076798301e+00	-7.4485940769e+00
 2.0011264190e-01	 1.0099960915e+00	-7.6218877054e+00
 1.8877117702e-01	 1.0121771668e+00	-7.7870605047e+00
 1.7744536939e-01	 1.0142239965e+00	-7.9438108467e+00
 1.6613737388e-01	 1.0161375631e+00	-8.0917479759e+00
 2.2443686219e-01	 1.0124593380e+00	-7.0419702297e+00
 2.1298892199e-01	 1.0149293253e+00	-7.2141991521e+00
 2.0155230120e-01	 1.0172622504e+00	-7.3788724758e+00
 1.9012924304e-01	 1.0194590169e+00	-7.5358242834e+00
 1.7872195478e-01	 1.0215205720e+00	-7.6847708535e+00
 1.6733260679e-01	 1.0234479053e+00	-7.8253250876e+00
 1.6135644226e-01	 9.8689619441e-01	-9.2720067858e+00
 1.5039321274e-01	 9.8862625980e-01	-9.4421032916e+00
 1.3945135864e-01	 9.9022892231e-01	-9.6003542983e+00
 1.2853286153e-01	 9.9170525032e-01	-9.7465704449e+00
 1.1763966448e-01	 9.9305634752e-01	-9.8805761048e+00
 1.0677367154e-01	 9.9428335150e-01	-1.0002220438e+01
 1.6255167516e-01	 9.9420653659e-01	-8.9579655869e+00
 1.5150723654e-01	 9.9594941728e-01	-9.1193973994e+00
 1.4048433167e-01	 9.9756395136e-01	-9.2698303143e+00
 1.2948495680e-01	 9.9905121514e-01	-9.4090650911e+00
 1.1851106940e-01	 1.0004123205e+00	-9.5368986643e+00
 1.0756458763e-01	 1.0016484134e+00	-9.6531363172e+00
 1.6374690807e-01	 1.0015168788e+00	-8.6571809465e+00
 1.5262126034e-01	 1.0032725748e+00	-8.8106060367e+00
 1.4151730470e-01	 1.0048989804e+00	-8.9536929522e+00
 1.3043705207e-01	 1.0063971800e+00	-9.0862385642e+00
 1.1938247432e-01	 1.0077682934e+00	-9.2080214334e+00
 1.0835550371e-01	 1.0090134752e+00	-9.3188150219e+00
 1.6494214098e-01	 1.0088272210e+00	-8.3687402487e+00
 1.5373528414e-01	 1.0105957322e+00	-8.5146580127e+00
 1.4255027772e-01	 1.0122340095e+00	-8.6507677009e+00
 1.3138914734e-01	 1.0137431448e+00	-8.7768675871e+00
 1.2025387925e-01	 1.0151242663e+00	-8.8927261651e+00
 1.0914641980e-01	 1.0163785371e+00	-8.9980963217e+00
 1.6613737388e-01	 1.0161375631e+00	-8.0917479759e+00
 1.5484930793e-01	 1.0179188897e+00	-8.2305040861e+00
 1.4358325075e-01	 1.0195690385e+00	-8.3599054018e+00
 1.3234124261e-01	 1.0210891096e+00	-8.4797561986e+00
 1.2112528417e-01	 1.0224802393e+00	-8.5898224655e+00
 1.0993733588e-01	 1.0237435989e+00	-8.6898469623e+00
 1.6733260679e-01	 1.0234479053e+00	-7.8253250876e+00
 1.5596333173e-01	 1.0252420472e+00	-7.9571161489e+00
 1.4461622378e-01	 1.0269040676e+00	-8.0799812913e+00
 1.3329333788e-01	 1.0284350744e+00	-8.1937347119e+00
 1.2199668909e-01	 1.0298362122e+00	-8.2981467225e+00
 1.1072825197e-01	 1.0311086608e+00	-8.3929596194e+00
 1.0677367154e-01	 9.9428335150e-01	-1.0002220438e+01
 9.5936747147e-02	 9.9538743238e-01	-1.0112178277e+01
 8.5130715650e-02	 9.9636979142e-01	-1.0210996014e+01
 7.4357360874e-02	 9.9723165959e-01	-1.0298381269e+01
 6.3618425732e-02	 9.9797429622e-01	-1.0374085138e+01
 5.2915611885e-02	 9.9859898759e-01	-1.0437912880e+01
 1.0756458763e-01	 1.0016484134e+00	-9.6531363172e+00
 9.6647389719e-02	 1.0027606726e+00	-9.7582501202e+00
 8.5761313544e-02	 1.0037503084e+00	-9.8526141983e+00
 7.4908156140e-02	 1.0046185608e+00	-9.9359286449e+00
 6.4089673330e-02	 1.0053666984e+00	-1.0007940493e+01
 5.3307579380e-02	 1.0059960171e+00	-1.0068454926e+01
 1.0835550371e-01	 1.0090134752e+00	-9.3188150219e+00
 9.7358032290e-02	 1.0101339129e+00	-9.4190141428e+00
 8.6391911437e-02	 1.0111308254e+00	-9.5089338393e+00
 7.5458951406e-02	 1.0120054620e+00	-9.5882610593e+00
 6.4560920928e-02	 1.0127591006e+00	-9.6567313562e+00
 5.3699546876e-02	 1.0133930467e+00	-9.7141407205e+00
 1.0914641980e-01	 1.0163785371e+00	-8.9980963217e+00
 9.8068674862e-02	 1.0175071531e+00	-9.0933809499e+00
 8.7022509331e-02	 1.0185113423e+00	-9.1789094861e+00
 7.6009746672e-02	 1.0193923631e+00	-9.2543499596e+00
 6.5032168526e-02	 1.0201515028e+00	-9.3194189000e+00
 5.4091514371e-02	 1.0207900762e+00	-9.3738938822e+00
 1.0993733588e-01	 1.0237435989e+00	-8.6898469623e+00
 9.8779317433e-02	 1.0248803933e+00	-8.7802869782e+00
 8.7653107225e-02	 1.0258918593e+00	-8.8615212371e+00
 7.6560541937e-02	 1.0267792643e+00	-8.9331929174e+00
 6.5503416124e-02	 1.0275439050e+00	-8.9949918434e+00
 5.4483481867e-02	 1.0281871057e+00	-9.0466678350e+00
 1.1072825197e-01	 1.0311086608e+00	-8.3929596194e+00
 9.9489960004e-02	 1.0322536336e+00	-8.4786934867e+00
 8.8283705119e-02	 1.0332723763e+00	-8.5557737408e+00
 7.7111337203e-02	 1.0341661655e+00	-8.6238126108e+00
 6.5974663722e-02	 1.0349363072e+00	-8.6824653891e+00
 5.4875449362e-02	 1.0355841353e+00	-8.7314446757e+00
 5.2915611885e-02	 9.9859898759e-01	-1.0437912880e+01
 4.2250579451e-02	 9.9910704558e-01	-1.0490002898e+01
 3.1624946766e-02	 9.9949980627e-01	-1.0530408879e+01
 2.1040290185e-02	 9.9977862859e-01	-1.0558950271e+01
 1.0498143933e-02	 9.9994489297e-01	-1.0575578028e+01
 0.0000000000e+00	 1.0000000000e+00	-1.0580380624e+01
 5.3307579380e-02	 1.0059960171e+00	-1.0068454926e+01
 4.2563546706e-02	 1.0065078385e+00	-1.0117857211e+01
 3.1859205630e-02	 1.0069035085e+00	-1.0156384512e+01
 2.1196144186e-02	 1.0071843962e+00	-1.0183760682e+01
 1.0575907962e-02	 1.0073518922e+00	-1.0199836846e+01
-4.2793495915e-319	 1.0074074261e+00	-1.0204597925e+01
 5.3699546876e-02	 1.0133930467e+00	-9.7141407205e+00
 4.2876513961e-02	 1.0139086314e+00	-9.7610273750e+00
 3.2093464495e-02	 1.0143072108e+00	-9.7977313572e+00
 2.1351998187e-02	 1.0145901638e+00	-9.8238919623e+00
 1.0653671991e-02	 1.0147588914e+00	-9.8392733639e+00
-1.5221816702e-318	 1.0148149476e+00	-9.8437695381e+00
 5.4091514371e-02	 1.0207900762e+00	-9.3738938822e+00
 4.3189481216e-02	 1.0213094244e+00	-9.4184025091e+00
 3.2327723360e-02	 1.0217109131e+00	-9.4533369855e+00
 2.1507852189e-02	 1.0219959314e+00	-9.4782623169e+00
 1.0731436021e-02	 1.0221658906e+00	-9.4928678138e+00
-2.9983855915e-318	 1.0222226145e+00	-9.4969671434e+00
 5.4483481867e-02	 1.0281871057e+00	-9.0466678350e+00
 4.3502448472e-02	 1.0287102173e+00	-9.0889037538e+00
 3.2561982225e-02	 1.0291146153e+00	-9.1221222879e+00
 2.1663706190e-02	 1.0294016991e+00	-9.1458236617e+00
 1.0809200050e-02	 1.0295728898e+00	-9.1596336303e+00
-4.5721822997e-318	 1.0296304272e+00	-9.1632952797e+00
 5.4875449362e-02	 1.0355841353e+00	-8.7314446757e+00
 4.3815415727e-02	 1.0361110102e+00	-8.7714830688e+00
 3.2796241090e-02	 1.0365183176e+00	-8.8030402382e+00
 2.1819560192e-02	 1.0368074667e+00	-8.8255603847e+00
 1.0886964079e-02	 1.0369798890e+00	-8.8386162464e+00
-5.9591876093e-318	 1.0370383364e+00	-8.8418902770e+00
 1.0370370370e+00	 0.0000000000e+00	 1.0030110705e+00
 1.0369798890e+00	 1.0886964079e-02	 1.0051222431e+00
 1.0368074667e+00	 2.1819560192e-02	 1.0121281752e+00
 1.0365183176e+00	 3.2796241090e-02	 1.0237314177e+00
 1.0361110102e+00	 4.3815415727e-02	 1.0397819873e+00
 1.0355841353e+00	 5.4875449362e-02	 1.0602692302e+00
 1.0444444444e+00	 0.0000000000e+00	 1.1732566794e+00
 1.0443868882e+00	 1.0964728108e-02	 1.1750687675e+00
 1.0442132343e+00	 2.1975414193e-02	 1.1814791235e+00
 1.0439220199e+00	 3.3030499955e-02	 1.1921422036e+00
 1.0435118032e+00	 4.4128382982e-02	 1.2068673979e+00
 1.0429811648e+00	 5.5267416857e-02	 1.2256104493e+00
 1.0518518519e+00	 0.0000000000e+00	 1.3359296231e+00
 1.0517938874e+00	 1.1042492137e-02	 1.3374540581e+00
 1.0516190019e+00	 2.2131268194e-02	 1.3432844594e+00
 1.0513257222e+00	 3.3264758820e-02	 1.3530296322e+00
 1.0509125961e+00	 4.4441350237e-02	 1.3664609827e+00
 1.0503781944e+00	 5.5659384353e-02	 1.3835034656e+00
 1.0592592593e+00	 0.0000000000e+00	 1.4906346776e+00
 1.0592008866e+00	 1.1120256166e-02	 1.4918906822e+00
 1.0590247695e+00	 2.2287122196e-02	 1.4971594551e+00
 1.0587294244e+00	 3.3499017685e-02	 1.5060068853e+00
 1.0583133890e+00	 4.4754317492e-02	 1.5181693446e+00
 1.0577752239e+00	 5.6051351848e-02	 1.5335441338e+00
 1.0666666667e+00	 0.0000000000e+00	 1.6369885347e+00
 1.0666078858e+00	 1.1198020195e-02	 1.6380031157e+00
 1.0664305372e+00	 2.2442976197e-02	 1.6427313159e+00
 1.0661331267e+00	 3.3733276550e-02	 1.6506991377e+00
 1.0657141820e+00	 4.5067284747e-02	 1.6616111770e+00
 1.0651722534e+00	 5.6443319344e-02	 1.6753405381e+00
 1.0740740741e+00	 0.0000000000e+00	 1.7746193914e+00
 1.0740148850e+00	 1.1275784225e-02	 1.7754273349e+00
 1.0738363048e+00	 2.2598830198e-02	 1.7796387716e+00
 1.0735368290e+00	 3.3967535415e-02	 1.7867431456e+00
 1.0731149749e+00	 4.5380252003e-02	 1.7964168483e+00
 1.0725692830e+00	 5.6835286839e-02	 1.8085125707e+00
 1.0355841353e+00	 5.4875449362e-02	 1.0602692302e+00
 1.0349363072e+00	 6.5974663722e-02	 1.0854965504e+00
 1.0341661655e+00	 7.7111337203e-02	 1.1155499138e+00
 1.0332723763e+00	 8.8283705119e-02	 1.1502665633e+00
 1.0322536336e+00	 9.9489960004e-02	 1.1895737754e+00
 1.0311086608e+00	 1.1072825197e-01	 1.2334752068e+00
 1.0429811648e+00	 5.5267416857e-02	 1.2256104493e+00
 1.0423287094e+00	 6.6445911321e-02	 1.2486798906e+00
 1.0415530667e+00	 7.7662132469e-02	 1.2761837950e+00
 1.0406528933e+00	 8.8914303012e-02	 1.3079598613e+00
 1.0396268738e+00	 1.0020060258e-01	 1.3439400657e+00
 1.0384737227e+00	 1.1151916805e-01	 1.3841362243e+00
 1.0503781944e+00	 5.5659384353e-02	 1.3835034656e+00
 1.0497211116e+00	 6.6917158919e-02	 1.4044692913e+00
 1.0489399679e+00	 7.8212927735e-02	 1.4294833432e+00
 1.0480334102e+00	 8.9544900906e-02	 1.4583810564e+00
 1.0470001141e+00	 1.0091124515e-01	 1.4910965304e+00
 1.0458387845e+00	 1.1231008414e-01	 1.5276472837e+00
 1.0577752239e+00	 5.6051351848e-02	 1.5335441338e+00
 1.0571135138e+00	 6.7388406517e-02	 1.5524474124e+00
 1.0563268690e+00	 7.8763723000e-02	 1.5750174027e+00
 1.0554139272e+00	 9.0175498800e-02	 1.6010850438e+00
 1.0543733543e+00	 1.0162188772e-01	 1.6305844769e+00
 1.0532038464e+00	 1.1310100022e-01	 1.6635369665e+00
 1.0651722534e+00	 5.6443319344e-02	 1.6753405381e+00
 1.0645059160e+00	 6.7859654115e-02	 1.6922092894e+00
 1.0637137702e+00	 7.9314518266e-02	 1.7123673076e+00
 1.0627944442e+00	 9.0806096693e-02	 1.7356392911e+00
 1.0617465945e+00	 1.0233253029e-01	 1.7619578365e+00
 1.0605689083e+00	 1.1389191631e-01	 1.7913464977e+00
 1.0725692830e+00	 5.6835286839e-02	 1.8085125707e+00
 1.0718983182e+00	 6.8330901713e-02	 1.8233619046e+00
 1.0711006714e+00	 7.9865313532e-02	 1.8411264480e+00
 1.0701749612e+00	 9.1436694587e-02	 1.8616234010e+00
 1.0691198348e+00	 1.0304317286e-01	 1.8847827237e+00
 1.0679339701e+00	 1.1468283240e-01	 1.9106293043e+00
 1.0311086608e+00	 1.1072825197e-01	 1.2334752068e+00
 1.0298362122e+00	 1.2199668909e-01	 1.2819750239e+00
 1.0284350744e+00	 1.3329333788e-01	 1.3348939065e+00
 1.0269040676e+00	 1.4461622378e-01	 1.3920256333e+00
 1.0252420472e+00	 1.5596333173e-01	 1.4531732112e+00
 1.0234479053e+00	 1.6733260679e-01	 1.5181321231e+00
 1.0384737227e+00	 1.1151916805e-01	 1.3841362243e+00
 1.0371921852e+00	 1.2286809401e-01	 1.4285652181e+00
 1.0357810392e+00	 1.3424543315e-01	 1.4770405902e+00
 1.0342390966e+00	 1.4564919681e-01	 1.5293375374e+00
 1.0325652047e+00	 1.5707735553e-01	 1.5852410474e+00
 1.0307582475e+00	 1.6852783969e-01	 1.6445282725e+00
 1.0458387845e+00	 1.1231008414e-01	 1.5276472837e+00
 1.0445481581e+00	 1.2373949893e-01	 1.5680690949e+00
 1.0431270040e+00	 1.3519752842e-01	 1.6121844531e+00
 1.0415741257e+00	 1.4668216983e-01	 1.6597623081e+00
 1.0398883622e+00	 1.5819137933e-01	 1.7105817360e+00
 1.0380685897e+00	 1.6972307260e-01	 1.7644133752e+00
 1.0532038464e+00	 1.1310100022e-01	 1.6635369665e+00
 1.0519041311e+00	 1.2461090386e-01	 1.7000009038e+00
 1.0504729689e+00	 1.3614962369e-01	 1.7398211182e+00
 1.0489091547e+00	 1.4771514286e-01	 1.7827728236e+00
 1.0472115196e+00	 1.5930540313e-01	 1.8286414705e+00
 1.0453789319e+00	 1.7091830550e-01	 1.8772031769e+00
 1.0605689083e+00	 1.1389191631e-01	 1.7913464977e+00
 1.0592601040e+00	 1.2548230878e-01	 1.8238876071e+00
 1.0578189337e+00	 1.3710171896e-01	 1.8594591297e+00
 1.0562441838e+00	 1.4874811589e-01	 1.8978552399e+00
 1.0545346771e+00	 1.6041942692e-01	 1.9388802350e+00
 1.0526892740e+00	 1.7211353841e-01	 1.9823278915e+00
 1.0679339701e+00	 1.1468283240e-01	 1.9106293043e+00
 1.0666160770e+00	 1.2635371370e-01	 1.9392684381e+00
 1.0651648985e+00	 1.3805381423e-01	 1.9706195069e+00
 1.0635792128e+00	 1.4978108891e-01	 2.0045085366e+00
 1.0618578346e+00	 1.6153345072e-01	 2.0407713382e+00
 1.0599996162e+00	 1.7330877132e-01	 2.0792317203e+00
 1.0234479053e+00	 1.6733260679e-01	 1.5181321231e+00
 1.0215205720e+00	 1.7872195478e-01	 1.5864824594e+00
 1.0194590169e+00	 1.9012924304e-01	 1.6582685678e+00
 1.0172622504e+00	 2.0155230120e-01	 1.7339246365e+00
 1.0149293253e+00	 2.1298892199e-01	 1.8138146372e+00
 1.0124593380e+00	 2.2443686219e-01	 1.8982147468e+00
 1.0307582475e+00	 1.6852783969e-01	 1.6445282725e+00
 1.0288171475e+00	 1.7999854017e-01	 1.7067394771e+00
 1.0267408670e+00	 1.9148730906e-01	 1.7719257980e+00
 1.0245284093e+00	 2.0299196049e-01	 1.8405691092e+00
 1.0221788205e+00	 2.1451027144e-01	 1.9130760310e+00
 1.0196911904e+00	 2.2603998263e-01	 1.9897593094e+00
 1.0380685897e+00	 1.6972307260e-01	 1.7644133752e+00
 1.0361137231e+00	 1.8127512556e-01	 1.8207564917e+00
 1.0340227171e+00	 1.9284537508e-01	 1.8796659419e+00
 1.0317945683e+00	 2.0443161979e-01	 1.9416799249e+00
 1.0294283156e+00	 2.1603162088e-01	 2.0072562069e+00
 1.0269230428e+00	 2.2764310308e-01	 2.0767524064e+00
 1.0453789319e+00	 1.7091830550e-01	 1.8772031769e+00
 1.0434102986e+00	 1.8255171095e-01	 1.9279182873e+00
 1.0413045673e+00	 1.9420344111e-01	 1.9808456006e+00
 1.0390607272e+00	 2.0587127908e-01	 2.0365885110e+00
 1.0366778108e+00	 2.1755297032e-01	 2.0956646469e+00
 1.0341548952e+00	 2.2924622352e-01	 2.1584850074e+00
 1.0526892740e+00	 1.7211353841e-01	 1.9823278915e+00
 1.0507068741e+00	 1.8382829634e-01	 2.0276248821e+00
 1.0485864174e+00	 1.9556150713e-01	 2.0748373841e+00
 1.0463268861e+00	 2.0731093837e-01	 2.1246430935e+00
 1.0439273060e+00	 2.1907431977e-01	 2.1776284423e+00
 1.0413867476e+00	 2.3084934397e-01	 2.2342665284e+00
 1.0599996162e+00	 1.7330877132e-01	 2.0792317203e+00
 1.0580034496e+00	 1.8510488173e-01	 2.1192910314e+00
 1.0558682675e+00	 1.9691957315e-01	 2.1610294005e+00
 1.0535930450e+00	 2.0875059767e-01	 2.2052081754e+00
 1.0511768012e+00	 2.2059566921e-01	 2.2524917626e+00
 1.0486186001e+00	 2.3245246441e-01	 2.3034242937e+00
 1.0124593380e+00	 2.2443686219e-01	 1.8982147468e+00
 1.0098514301e+00	 2.3589384351e-01	 1.9857080341e+00
 1.0071047894e+00	 2.4735755363e-01	 2.0748524650e+00
 1.0042186517e+00	 2.5882564727e-01	 2.1656969044e+00
 1.0011923018e+00	 2.7029574730e-01	 2.2581275623e+00
 9.9802507468e-01	 2.8176544588e-01	 2.3518554123e+00
 1.0196911904e+00	 2.2603998263e-01	 1.9897593094e+00
 1.0170646546e+00	 2.3757879953e-01	 2.0691313081e+00
 1.0142983950e+00	 2.4912439330e-01	 2.1497387009e+00
 1.0113916421e+00	 2.6067440190e-01	 2.2317446938e+00
 1.0083436754e+00	 2.7222643121e-01	 2.3151407681e+00
 1.0051538252e+00	 2.8377805620e-01	 2.3997331175e+00
 1.0269230428e+00	 2.2764310308e-01	 2.0767524064e+00
 1.0242778791e+00	 2.3926375556e-01	 2.1486115170e+00
 1.0214920007e+00	 2.5089123297e-01	 2.2213338664e+00
 1.0185646325e+00	 2.6252315652e-01	 2.2951506616e+00
 1.0154950490e+00	 2.7415711512e-01	 2.3701125347e+00
 1.0122825758e+00	 2.8579066653e-01	 2.4460750795e+00
 1.0341548952e+00	 2.2924622352e-01	 2.1584850074e+00
 1.0314911036e+00	 2.4094871158e-01	 2.2234323193e+00
 1.0286856063e+00	 2.5265807263e-01	 2.2889340529e+00
 1.0257376228e+00	 2.6437191114e-01	 2.3552444159e+00
 1.0226464226e+00	 2.7608779903e-01	 2.4224283851e+00
 1.0194113263e+00	 2.8780327686e-01	 2.4903464203e+00
 1.0413867476e+00	 2.3084934397e-01	 2.2342665284e+00
 1.0387043281e+00	 2.4263366761e-01	 2.2928964772e+00
 1.0358792120e+00	 2.5442491230e-01	 2.3518547066e+00
 1.0329106132e+00	 2.6622066577e-01	 2.4113747359e+00
 1.0297977961e+00	 2.7801848294e-01	 2.4714923664e+00
 1.0265400768e+00	 2.8981588719e-01	 2.5320296477e+00
 1.0486186001e+00	 2.3245246441e-01	 2.3034242937e+00
 1.0459175526e+00	 2.4431862363e-01	 2.3563253224e+00
 1.0430728176e+00	 2.5619175197e-01	 2.4094301152e+00
 1.0400836036e+00	 2.6806942039e-01	 2.4629090984e+00
 1.0369491697e+00	 2.7994916685e-01	 2.5167266361e+00
 1.0336688274e+00	 2.9182849751e-01	 2.5706243208e+00
 9.9802507468e-01	 2.8176544588e-01	 2.3518554123e+00
 9.9471635710e-01	 2.9323230571e-01	 2.4466803503e+00
 9.9126558856e-01	 3.0469386133e-01	 2.5434271361e+00
 9.8767226259e-01	 3.1614762042e-01	 2.6430643947e+00
 9.8393592789e-01	 3.2759106518e-01	 2.7463662008e+00
 9.8005618943e-01	 3.3902165381e-01	 2.8539070179e+00
 1.0051538252e+00	 2.8377805620e-01	 2.3997331175e+00
 1.0018214739e+00	 2.9532682218e-01	 2.4853713777e+00
 9.9834605705e-01	 3.0687024605e-01	 2.5729086540e+00
 9.9472706447e-01	 3.1840581770e-01	 2.6633581056e+00
 9.9096404166e-01	 3.2993100136e-01	 2.7575238409e+00
 9.8705659078e-01	 3.4144323705e-01	 2.8559953452e+00
 1.0122825758e+00	 2.8579066653e-01	 2.4460750795e+00
 1.0089265908e+00	 2.9742133865e-01	 2.5228879429e+00
 1.0054265255e+00	 3.0904663078e-01	 2.6014432440e+00
 1.0017818663e+00	 3.2066401499e-01	 2.6828423401e+00
 9.9799215544e-01	 3.3227093754e-01	 2.7679610723e+00
 9.9405699213e-01	 3.4386482029e-01	 2.8574435410e+00
 1.0194113263e+00	 2.8780327686e-01	 2.4903464203e+00
 1.0160317076e+00	 2.9951585512e-01	 2.5587780113e+00
 1.0125069940e+00	 3.1122301550e-01	 2.6286431297e+00
 1.0088366682e+00	 3.2292221228e-01	 2.7011741690e+00
 1.0050202692e+00	 3.3461087372e-01	 2.7773595676e+00
 1.0010573935e+00	 3.4628640354e-01	 2.8579367919e+00
 1.0265400768e+00	 2.8981588719e-01	 2.5320296477e+00
 1.0231368244e+00	 3.0161037159e-01	 2.5926058763e+00
 1.0195874625e+00	 3.1339940023e-01	 2.6541364986e+00
 1.0158914701e+00	 3.2518040957e-01	 2.7180269830e+00
 1.0120483830e+00	 3.3695080990e-01	 2.7854184209e+00
 1.0080577948e+00	 3.4870798678e-01	 2.8571795779e+00
 1.0336688274e+00	 2.9182849751e-01	 2.5706243208e+00
 1.0302419413e+00	 3.0370488806e-01	 2.6239519080e+00
 1.0266679310e+00	 3.1557578495e-01	 2.6775673131e+00
 1.0229462720e+00	 3.2743860686e-01	 2.7330903450e+00
 1.0190764967e+00	 3.3929074608e-01	 2.7918540204e+00
 1.0150581962e+00	 3.5112957002e-01	 2.8548955438e+00
 9.8005618943e-01	 3.3902165381e-01	 2.8539070179e+00
 9.7603270950e-01	 3.5043682196e-01	 2.9597714595e+00
 9.7186520877e-01	 3.6183398426e-01	 3.0576721733e+00
 9.6755346728e-01	 3.7321053593e-01	 3.1477955864e+00
 9.6309732533e-01	 3.8456385442e-01	 3.2413558835e+00
 9.5849668438e-01	 3.9589130103e-01	 3.3415064704e+00
 9.8705659078e-01	 3.4144323705e-01	 2.8559953452e+00
 9.8300437171e-01	 3.5293994211e-01	 2.9521213874e+00
 9.7880710312e-01	 3.6441851271e-01	 3.0389634573e+00
 9.7446456348e-01	 3.7587632548e-01	 3.1183650250e+00
 9.6997659194e-01	 3.8731073909e-01	 3.2029268941e+00
 9.6534308926e-01	 3.9871909603e-01	 3.2932488018e+00
 9.9405699213e-01	 3.4386482029e-01	 2.8574435410e+00
 9.8997603392e-01	 3.5544306227e-01	 2.9439151692e+00
 9.8574899747e-01	 3.6700304117e-01	 3.0197892313e+00
 9.8137565967e-01	 3.7854211502e-01	 3.0896029641e+00
 9.7685585855e-01	 3.9005762377e-01	 3.1654206340e+00
 9.7218949415e-01	 4.0154689104e-01	 3.2462044256e+00
 1.0010573935e+00	 3.4628640354e-01	 2.8579367919e+00
 9.9694769613e-01	 3.5794618243e-01	 2.9348349481e+00
 9.9269089182e-01	 3.6958756963e-01	 2.9998367715e+00
 9.8828675587e-01	 3.8120790456e-01	 3.0612227983e+00
 9.8373512516e-01	 3.9280450844e-01	 3.1285476534e+00
 9.7903589904e-01	 4.0437468605e-01	 3.2000840276e+00
 1.0080577948e+00	 3.4870798678e-01	 2.8571795779e+00
 1.0039193583e+00	 3.6044930258e-01	 2.9245843991e+00
 9.9963278617e-01	 3.7217209809e-01	 2.9790509732e+00
 9.9519785206e-01	 3.8387369410e-01	 3.0329547970e+00
 9.9061439177e-01	 3.9555139312e-01	 3.0920355778e+00
 9.8588230393e-01	 4.0720248105e-01	 3.1546154534e+00
 1.0150581962e+00	 3.5112957002e-01	 2.8548955438e+00
 1.0108910205e+00	 3.6295242274e-01	 2.9128885904e+00
 1.0065746805e+00	 3.7475662655e-01	 2.9578578253e+00
 1.0021089483e+00	 3.8653948365e-01	 3.0045453495e+00
 9.9749365838e-01	 3.9829827779e-01	 3.0556283141e+00
 9.9272870882e-01	 4.1003027606e-01	 3.1095428785e+00
 9.5849668438e-01	 3.9589130103e-01	 3.3415064704e+00
 9.5375150786e-01	 4.0719022266e-01	 3.4430367829e+00
 9.4886182200e-01	 4.1845795361e-01	 3.5413054188e+00
 9.4382771646e-01	 4.2969181728e-01	 3.6351229105e+00
 9.3864934503e-01	 4.4088912808e-01	 3.7232743203e+00
 9.3332692623e-01	 4.5204719328e-01	 3.8045288356e+00
 9.6534308926e-01	 3.9871909603e-01	 3.2932488018e+00
 9.6056401863e-01	 4.1009872426e-01	 3.3845390578e+00
 9.5563940644e-01	 4.2144693899e-01	 3.4725643091e+00
 9.5056934300e-01	 4.3276104454e-01	 3.5561442224e+00
 9.4535398321e-01	 4.4403833614e-01	 3.6340739905e+00
 9.3999354713e-01	 4.5527610181e-01	 3.7051340025e+00
 9.7218949415e-01	 4.0154689104e-01	 3.2462044256e+00
 9.6737652940e-01	 4.1300722585e-01	 3.3276286908e+00
 9.6241699089e-01	 4.2443592437e-01	 3.4058701730e+00
 9.5731096955e-01	 4.3583027181e-01	 3.4797132955e+00
 9.5205862139e-01	 4.4718754419e-01	 3.5479198063e+00
 9.4666016804e-01	 4.5850501033e-01	 3.6092386252e+00
 9.7903589904e-01	 4.0437468605e-01	 3.2000840276e+00
 9.7418904018e-01	 4.1591572744e-01	 3.2720235210e+00
 9.6919457533e-01	 4.2742490976e-01	 3.3409600318e+00
 9.6405259610e-01	 4.3889949907e-01	 3.4055992565e+00
 9.5876325957e-01	 4.5033675225e-01	 3.4646268145e+00
 9.5332678894e-01	 4.6173391885e-01	 3.5167183719e+00
 9.8588230393e-01	 4.0720248105e-01	 3.1546154534e+00
 9.8100155095e-01	 4.1882422903e-01	 3.2174584054e+00
 9.7597215977e-01	 4.3041389514e-01	 3.2775874181e+00
 9.7079422264e-01	 4.4196872634e-01	 3.3335868505e+00
 9.6546789775e-01	 4.5348596031e-01	 3.3840243784e+00
 9.5999340984e-01	 4.6496282738e-01	 3.4274614952e+00
 9.9272870882e-01	 4.1003027606e-01	 3.1095428785e+00
 9.8781406172e-01	 4.2173273062e-01	 3.1636843588e+00
 9.8274974421e-01	 4.3340288052e-01	 3.2155214983e+00
 9.7753584919e-01	 4.4503795361e-01	 3.2634755579e+00
 9.7217253593e-01	 4.5663516837e-01	 3.3059553031e+00
 9.6666003074e-01	 4.6819173590e-01	 3.3413679790e+00
 9.3332692623e-01	 4.5204719328e-01	 3.8045288356e+00
 9.2786074382e-01	 4.6316331490e-01	 3.8828468048e+00
 9.2225114724e-01	 4.7423479164e-01	 3.9612480725e+00
 9.1649855206e-01	 4.8525892084e-01	 4.0371099076e+00
 9.1060344027e-01	 4.9623300046e-01	 4.1078530120e+00
 9.0456636055e-01	 5.0715433109e-01	 4.1709539541e+00
 9.3999354713e-01	 4.5527610181e-01	 3.7051340025e+00
 9.3448832056e-01	 4.6647162430e-01	 3.7734902182e+00
 9.2883865543e-01	 4.7762218301e-01	 3.8423097214e+00
 9.2304497029e-01	 4.8872505599e-01	 3.9088949593e+00
 9.1710775056e-01	 4.9977752190e-01	 3.9705929170e+00
 9.1102754884e-01	 5.1077686203e-01	 4.0248077550e+00
 9.4666016804e-01	 4.5850501033e-01	 3.6092386252e+00
 9.4111589730e-01	 4.6977993369e-01	 3.6680051581e+00
 9.3542616363e-01	 4.8100957438e-01	 3.7275506643e+00
 9.2959138852e-01	 4.9219119114e-01	 3.7851394646e+00
 9.2361206085e-01	 5.0332204333e-01	 3.8380800672e+00
 9.1748873713e-01	 5.1439939297e-01	 3.8837379019e+00
 9.5332678894e-01	 4.6173391885e-01	 3.5167183719e+00
 9.4774347404e-01	 4.7308824308e-01	 3.5663249685e+00
 9.4201367182e-01	 4.8439696575e-01	 3.6169401694e+00
 9.3613780675e-01	 4.9565732629e-01	 3.6658260265e+00
 9.3011637114e-01	 5.0686656476e-01	 3.7102869981e+00
 9.2394992542e-01	 5.1802192390e-01	 3.7476826714e+00
 9.5999340984e-01	 4.6496282738e-01	 3.4274614952e+00
 9.5437105078e-01	 4.7639655247e-01	 3.4683939074e+00
 9.4860118002e-01	 4.8778435712e-01	 3.5104573368e+00
 9.4268422498e-01	 4.9912346144e-01	 3.5509466128e+00
 9.3662068142e-01	 5.1041108619e-01	 3.5871957840e+00
 9.3041111371e-01	 5.2164445484e-01	 3.6165907204e+00
 9.6666003074e-01	 4.6819173590e-01	 3.3413679790e+00
 9.6099862752e-01	 4.7970486186e-01	 3.3741663143e+00
 9.5518868821e-01	 4.9117174849e-01	 3.4080902654e+00
 9.4923064321e-01	 5.0258959659e-01	 3.4405017019e+00
 9.4312499171e-01	 5.1395560762e-01	 3.4687971406e+00
 9.3687230200e-01	 5.2526698577e-01	 3.4904201212e+00
 9.0456636055e-01	 5.0715433109e-01	 4.1709539541e+00
 8.9838792844e-01	 5.1802021796e-01	 4.2282942007e+00
 8.9206882649e-01	 5.2882797297e-01	 4.2820174881e+00
 8.8560980424e-01	 5.3957491679e-01	 4.3301256015e+00
 8.7901167826e-01	 5.5025838083e-01	 4.3707392205e+00
 8.7227533198e-01	 5.6087570941e-01	 4.4021086255e+00
 9.1102754884e-01	 5.1077686203e-01	 4.0248077550e+00
 9.0480498508e-01	 5.2172036237e-01	 4.0734706361e+00
 8.9844074667e-01	 5.3260531564e-01	 4.1188013952e+00
 8.9193558855e-01	 5.4342902333e-01	 4.1587702322e+00
 8.8529033310e-01	 5.5418879784e-01	 4.1914664387e+00
 8.7850587006e-01	 5.6488196448e-01	 4.2151091411e+00
 9.1748873713e-01	 5.1439939297e-01	 3.8837379019e+00
 9.1122204171e-01	 5.2542050679e-01	 3.9241144134e+00
 9.0481266686e-01	 5.3638265830e-01	 3.9614822935e+00
 8.9826137287e-01	 5.4728312988e-01	 3.9937478646e+00
 8.9156898795e-01	 5.5811921484e-01	 4.0189381434e+00
 8.8473640815e-01	 5.6888821955e-01	 4.0352116929e+00
 9.2394992542e-01	 5.1802192390e-01	 3.7476826714e+00
 9.1763909834e-01	 5.2912065120e-01	 3.7801257398e+00
 9.1118458705e-01	 5.4016000097e-01	 3.8099398567e+00
 9.0458715719e-01	 5.5113723643e-01	 3.8349358422e+00
 8.9784764279e-01	 5.6204963185e-01	 3.8530482011e+00
 8.9096694623e-01	 5.7289447462e-01	 3.8623461539e+00
 9.3041111371e-01	 5.2164445484e-01	 3.6165907204e+00
 9.2405615497e-01	 5.3282079561e-01	 3.6414161482e+00
 9.1755650724e-01	 5.4393734363e-01	 3.6640655454e+00
 9.1091294150e-01	 5.5499134298e-01	 3.6822232580e+00
 9.0412629763e-01	 5.6598004886e-01	 3.6937016773e+00
 8.9719748432e-01	 5.7690072968e-01	 3.6964525192e+00
 9.3687230200e-01	 5.2526698577e-01	 3.4904201212e+00
 9.3047321160e-01	 5.3652094003e-01	 3.5079074633e+00
 9.2392842743e-01	 5.4771468629e-01	 3.5237615214e+00
 9.1723872582e-01	 5.5884544953e-01	 3.5355098342e+00
 9.1040495248e-01	 5.6991046586e-01	 3.5408137010e+00
 9.0342802240e-01	 5.8090698475e-01	 3.5374797748e+00
 8.7227533198e-01	 5.6087570941e-01	 4.4021086255e+00
 8.6540171554e-01	 5.7142426176e-01	 4.4264162544e+00
 8.5839184551e-01	 5.8190141411e-01	 4.4457411981e+00
 8.5124680458e-01	 5.9230456176e-01	 4.4584307225e+00
 8.4396774109e-01	 6.0263112116e-01	 4.4630382880e+00
 8.3655586860e-01	 6.1287853192e-01	 4.4583332314e+00
 8.7850587006e-01	 5.6488196448e-01	 4.2151091411e+00
 8.7158315636e-01	 5.7550586363e-01	 4.2321133092e+00
 8.6452321584e-01	 5.8605785278e-01	 4.2447638716e+00
 8.5732713890e-01	 5.9653530863e-01	 4.2513406760e+00
 8.4999608210e-01	 6.0693562916e-01	 4.2503346662e+00
 8.4253126767e-01	 6.1725623572e-01	 4.2404577133e+00
 8.8473640815e-01	 5.6888821955e-01	 4.0352116929e+00
 8.7776459719e-01	 5.7958746550e-01	 4.0452125287e+00
 8.7065458616e-01	 5.9021429145e-01	 4.0514498216e+00
 8.6340747322e-01	 6.0076605550e-01	 4.0521398552e+00
 8.5602442311e-01	 6.1124013717e-01	 4.0457139259e+00
 8.4850666673e-01	 6.2163393952e-01	 4.0308282975e+00
 8.9096694623e-01	 5.7289447462e-01	 3.8623461539e+00
 8.8394603801e-01	 5.8366906737e-01	 3.8656835581e+00
 8.7678595649e-01	 5.9437073012e-01	 3.8657960292e+00
 8.6948780753e-01	 6.0499680237e-01	 3.8608400386e+00
 8.6205276411e-01	 6.1554464518e-01	 3.8491900152e+00
 8.5448206579e-01	 6.2601164332e-01	 3.8294483966e+00
 8.9719748432e-01	 5.7690072968e-01	 3.6964525192e+00
 8.9012747884e-01	 5.8775066924e-01	 3.6935050021e+00
 8.8291732681e-01	 5.9852716880e-01	 3.6878076403e+00
 8.7556814185e-01	 6.0922754924e-01	 3.6774607499e+00
 8.6808110512e-01	 6.1984915319e-01	 3.6607845884e+00
 8.6045746485e-01	 6.3038934712e-01	 3.6363294762e+00
 9.0342802240e-01	 5.8090698475e-01	 3.5374797748e+00
 8.9630891967e-01	 5.9183227111e-01	 3.5286633020e+00
 8.8904869714e-01	 6.0268360747e-01	 3.5174968397e+00
 8.8164847617e-01	 6.1345829611e-01	 3.5020281172e+00
 8.7410944613e-01	 6.2415366120e-01	 3.4805258393e+00
 8.6643286391e-01	 6.3476705092e-01	 3.4514898517e+00
 8.3655586860e-01	 6.1287853192e-01	 4.4583332314e+00
 8.2901246530e-01	 6.2304425891e-01	 4.4450012868e+00
 8.2133887335e-01	 6.3312579423e-01	 4.4238578252e+00
 8.1353649817e-01	 6.4312065923e-01	 4.3942195099e+00
 8.0560680767e-01	 6.5302640653e-01	 4.3556563540e+00
 7.9755133135e-01	 6.6284062190e-01	 4.3079988730e+00
 8.4253126767e-01	 6.1725623572e-01	 4.2404577133e+00
 8.3493398291e-01	 6.2749457505e-01	 4.2223854560e+00
 8.2720557959e-01	 6.3764812133e-01	 4.1969309972e+00
 8.1934747316e-01	 6.4771437823e-01	 4.1633744951e+00
 8.1136114201e-01	 6.5769088086e-01	 4.1212566891e+00
 8.0324812658e-01	 6.6757519777e-01	 4.0703861775e+00
 8.4850666673e-01	 6.2163393952e-01	 4.0308282975e+00
 8.4085550052e-01	 6.3194489118e-01	 4.0081656428e+00
 8.3307228582e-01	 6.4217044843e-01	 3.9785646050e+00
 8.2515844814e-01	 6.5230809722e-01	 3.9412861100e+00
 8.1711547635e-01	 6.6235535519e-01	 3.8958590815e+00
 8.0894492180e-01	 6.7230977365e-01	 3.8420877964e+00
 8.5448206579e-01	 6.2601164332e-01	 3.8294483966e+00
 8.4677701813e-01	 6.3639520732e-01	 3.8023292852e+00
 8.3893899206e-01	 6.4669277553e-01	 3.7687317191e+00
 8.3096942313e-01	 6.5690181622e-01	 3.7279142591e+00
 8.2286981069e-01	 6.6701982952e-01	 3.6794110591e+00
 8.1464171702e-01	 6.7704434952e-01	 3.6230392506e+00
 8.6045746485e-01	 6.3038934712e-01	 3.6363294762e+00
 8.5269853574e-01	 6.4084552345e-01	 3.6048724090e+00
 8.4480569830e-01	 6.5121510263e-01	 3.5674145267e+00
 8.3678039812e-01	 6.6149553521e-01	 3.5232285012e+00
 8.2862414503e-01	 6.7168430385e-01	 3.4718703638e+00
 8.2033851225e-01	 6.8177892539e-01	 3.4131868708e+00
 8.6643286391e-01	 6.3476705092e-01	 3.4514898517e+00
 8.5862005335e-01	 6.4529583959e-01	 3.4157983826e+00
 8.5067240454e-01	 6.5573742974e-01	 3.3746030478e+00
 8.4259137311e-01	 6.6608925420e-01	 3.3272067290e+00
 8.3437847937e-01	 6.7634877819e-01	 3.2732035961e+00
 8.2603530747e-01	 6.8651350126e-01	 3.2124864075e+00
 7.9755133135e-01	 6.6284062190e-01	 4.3079988730e+00
 7.8937165937e-01	 6.7256092629e-01	 4.2502204063e+00
 7.8106944154e-01	 6.8218497761e-01	 4.1820783838e+00
 7.7264638622e-01	 6.9171047270e-01	 4.1050201323e+00
 7.6410425920e-01	 7.0113514907e-01	 4.0208170076e+00
 7.5544488243e-01	 7.1045678672e-01	 3.9315666089e+00
 8.0324812658e-01	 6.6757519777e-01	 4.0703861775e+00
 7.9501002837e-01	 6.7736493290e-01	 4.0099594776e+00
 7.8664850898e-01	 6.8705772745e-01	 3.9400056247e+00
 7.7816528898e-01	 6.9665126179e-01	 3.8620296187e+00
 7.6956214676e-01	 7.0614325728e-01	 3.7778622544e+00
 7.6084091730e-01	 7.1553147806e-01	 3.6896622889e+00
 8.0894492180e-01	 6.7230977365e-01	 3.8420877964e+00
 8.0064839736e-01	 6.8216893952e-01	 3.7793585870e+00
 7.9222757642e-01	 6.9193047730e-01	 3.7078507730e+00
 7.8368419174e-01	 7.0159205089e-01	 3.6290142523e+00
 7.7502003433e-01	 7.1115136549e-01	 3.5446286787e+00
 7.6623695218e-01	 7.2060616939e-01	 3.4568058366e+00
 8.1464171702e-01	 6.7704434952e-01	 3.6230392506e+00
 8.0628676636e-01	 6.8697294614e-01	 3.5583531460e+00
 7.9780664386e-01	 6.9680322714e-01	 3.4855744101e+00
 7.8920309450e-01	 7.0653283998e-01	 3.4059873956e+00
 7.8047792189e-01	 7.1615947370e-01	 3.3212123309e+00
 7.7163298705e-01	 7.2568086072e-01	 3.2332081538e+00
 8.2033851225e-01	 6.8177892539e-01	 3.4131868708e+00
 8.1192513535e-01	 6.9177695275e-01	 3.3468896885e+00
 8.0338571130e-01	 7.0167597698e-01	 3.2731478994e+00
 7.9472199725e-01	 7.1147362907e-01	 3.1929721345e+00
 7.8593580946e-01	 7.2116758190e-01	 3.1077171455e+00
 7.7702902193e-01	 7.3075555206e-01	 3.0190853435e+00
 8.2603530747e-01	 6.8651350126e-01	 3.2124864075e+00
 8.1756350435e-01	 6.9658095937e-01	 3.1449244595e+00
 8.0896477873e-01	 7.0654872682e-01	 3.0705519777e+00
 8.0024090001e-01	 7.1641441816e-01	 2.9899999017e+00
 7.9139369702e-01	 7.2617569011e-01	 2.9042536251e+00
 7.8242505680e-01	 7.3583024339e-01	 2.8146574867e+00
 7.5544488243e-01	 7.1045678672e-01	 3.9315666089e+00
 7.4667013278e-01	 7.1967320987e-01	 3.8328775207e+00
 7.3778194067e-01	 7.2878228863e-01	 3.7181314688e+00
 7.2878228863e-01	 7.3778194067e-01	 3.5923179130e+00
 7.1967320987e-01	 7.4667013278e-01	 3.4569524362e+00
 7.1045678672e-01	 7.5544488243e-01	 3.3189205857e+00
 7.6084091730e-01	 7.1553147806e-01	 3.6896622889e+00
 7.5200349087e-01	 7.2481373279e-01	 3.5926309072e+00
 7.4305181167e-01	 7.3398787640e-01	 3.4789701226e+00
 7.3398787640e-01	 7.4305181167e-01	 3.3497511699e+00
 7.2481373279e-01	 7.5200349087e-01	 3.2175549729e+00
 7.1553147806e-01	 7.6084091730e-01	 3.0842778962e+00
 7.6623695218e-01	 7.2060616939e-01	 3.4568058366e+00
 7.5733684896e-01	 7.2995425572e-01	 3.3603079731e+00
 7.4832168268e-01	 7.3919346418e-01	 3.2468899645e+00
 7.3919346418e-01	 7.4832168268e-01	 3.1188845298e+00
 7.2995425572e-01	 7.5733684896e-01	 2.9890617964e+00
 7.2060616939e-01	 7.6623695218e-01	 2.8594535693e+00
 7.7163298705e-01	 7.2568086072e-01	 3.2332081538e+00
 7.6267020706e-01	 7.3509477865e-01	 3.1362459062e+00
 7.5359155368e-01	 7.4439905195e-01	 3.0226081480e+00
 7.4439905195e-01	 7.5359155368e-01	 2.8993550771e+00
 7.3509477865e-01	 7.6267020706e-01	 2.7711745705e+00
 7.2568086072e-01	 7.7163298705e-01	 2.6441823125e+00
 7.7702902193e-01	 7.3075555206e-01	 3.0190853435e+00
 7.6800356515e-01	 7.4023530158e-01	 2.9207841433e+00
 7.5886142468e-01	 7.4960463973e-01	 2.8086685861e+00
 7.4960463973e-01	 7.5886142468e-01	 2.6889595211e+00
 7.4023530158e-01	 7.6800356515e-01	 2.5635851063e+00
 7.3075555206e-01	 7.7702902193e-01	 2.4381880695e+00
 7.8242505680e-01	 7.3583024339e-01	 2.8146574867e+00
 7.7333692324e-01	 7.4537582450e-01	 2.7152838655e+00
 7.6413129569e-01	 7.5481022750e-01	 2.6050868535e+00
 7.5481022750e-01	 7.6413129569e-01	 2.4875116411e+00
 7.4537582450e-01	 7.7333692324e-01	 2.3650780150e+00
 7.3583024339e-01	 7.8242505680e-01	 2.2411843352e+00
 7.1045678672e-01	 7.5544488243e-01	 3.3189205857e+00
 7.0113514907e-01	 7.6410425920e-01	 3.1732841886e+00
 6.9171047270e-01	 7.7264638622e-01	 3.0165641171e+00
 6.8218497761e-01	 7.8106944154e-01	 2.8502535078e+00
 6.7256092629e-01	 7.8937165937e-01	 2.6755528705e+00
 6.6284062190e-01	 7.9755133135e-01	 2.4933714392e+00
 7.1553147806e-01	 7.6084091730e-01	 3.0842778962e+00
 7.0614325728e-01	 7.6956214676e-01	 2.9434227958e+00
 6.9665126179e-01	 7.7816528898e-01	 2.7910121600e+00
 6.8705772745e-01	 7.8664850898e-01	 2.6288903629e+00
 6.7736493290e-01	 7.9501002837e-01	 2.4585967716e+00
 6.6757519777e-01	 8.0324812658e-01	 2.2813664730e+00
 7.2060616939e-01	 7.6623695218e-01	 2.8594535693e+00
 7.1115136549e-01	 7.7502003433e-01	 2.7227969484e+00
 7.0159205089e-01	 7.8368419174e-01	 2.5744879175e+00
 6.9193047730e-01	 7.9222757642e-01	 2.4165683783e+00
 6.8216893952e-01	 8.0064839736e-01	 2.2507627874e+00
 6.7230977365e-01	 8.0894492180e-01	 2.0784786041e+00
 7.2568086072e-01	 7.7163298705e-01	 2.6441823125e+00
 7.1615947370e-01	 7.8047792189e-01	 2.5111582888e+00
 7.0653283998e-01	 7.8920309450e-01	 2.3667575662e+00
 6.9680322714e-01	 7.9780664386e-01	 2.2130690832e+00
 6.8697294614e-01	 8.0628676636e-01	 2.0518518324e+00
 6.7704434952e-01	 8.1464171702e-01	 1.8845353694e+00
 7.3075555206e-01	 7.7702902193e-01	 2.4381880695e+00
 7.2116758190e-01	 7.8593580946e-01	 2.3082472568e+00
 7.1147362907e-01	 7.9472199725e-01	 2.1675757312e+00
 7.0167597698e-01	 8.0338571130e-01	 2.0181621076e+00
 6.9177695275e-01	 8.1192513535e-01	 1.8616524859e+00
 6.8177892539e-01	 8.2033851225e-01	 1.6993513559e+00
 7.3583024339e-01	 7.8242505680e-01	 2.2411843352e+00
 7.2617569011e-01	 7.9139369702e-01	 2.1137934210e+00
 7.1641441816e-01	 8.0024090001e-01	 1.9766858312e+00
 7.0654872682e-01	 8.0896477873e-01	 1.8316055409e+00
 6.9658095937e-01	 8.1756350435e-01	 1.6799413655e+00
 6.8651350126e-01	 8.2603530747e-01	 1.5227285955e+00
 6.6284062190e-01	 7.9755133135e-01	 2.4933714392e+00
 6.5302640653e-01	 8.0560680767e-01	 2.3036171574e+00
 6.4312065923e-01	 8.1353649817e-01	 2.1060996530e+00
 6.3312579423e-01	 8.2133887335e-01	 1.9011722902e+00
 6.2304425891e-01	 8.2901246530e-01	 1.6889375998e+00
 6.1287853192e-01	 8.3655586860e-01	 1.4692535021e+00
 6.6757519777e-01	 8.0324812658e-01	 2.2813664730e+00
 6.5769088086e-01	 8.1136114201e-01	 2.0974983368e+00
 6.4771437823e-01	 8.1934747316e-01	 1.9068408801e+00
 6.3764812133e-01	 8.2720557959e-01	 1.7095302587e+00
 6.2749457505e-01	 8.3493398291e-01	 1.5054457841e+00
 6.1725623572e-01	 8.4253126767e-01	 1.2942168127e+00
 6.7230977365e-01	 8.0894492180e-01	 2.0784786041e+00
 6.6235535519e-01	 8.1711547635e-01	 1.9003158790e+00
 6.5230809722e-01	 8.2515844814e-01	 1.7162154094e+00
 6.4217044843e-01	 8.3307228582e-01	 1.5261564486e+00
 6.3194489118e-01	 8.4085550052e-01	 1.3298535115e+00
 6.2163393952e-01	 8.4850666673e-01	 1.1267638166e+00
 6.7704434952e-01	 8.1464171702e-01	 1.8845353694e+00
 6.6701982952e-01	 8.2286981069e-01	 1.7119210490e+00
 6.5690181622e-01	 8.3096942313e-01	 1.5340822076e+00
 6.4669277553e-01	 8.3893899206e-01	 1.3509002120e+00
 6.3639520732e-01	 8.4677701813e-01	 1.1619819385e+00
 6.2601164332e-01	 8.5448206579e-01	 9.6666765153e-01
 6.8177892539e-01	 8.2033851225e-01	 1.6993513559e+00
 6.7168430385e-01	 8.2862414503e-01	 1.5321516497e+00
 6.6149553521e-01	 8.3678039812e-01	 1.3602867347e+00
 6.5121510263e-01	 8.4480569830e-01	 1.1835978527e+00
 6.4084552345e-01	 8.5269853574e-01	 1.0016401677e+00
 6.3038934712e-01	 8.6045746485e-01	 8.1369096848e-01
 6.8651350126e-01	 8.2603530747e-01	 1.5227285955e+00
 6.7634877819e-01	 8.3437847937e-01	 1.3608324345e+00
 6.6608925420e-01	 8.4259137311e-01	 1.1946613570e+00
 6.5573742974e-01	 8.5067240454e-01	 1.0240730217e+00
 6.4529583959e-01	 8.5862005335e-01	 8.4862560890e-01
 6.3476705092e-01	 8.6643286391e-01	 6.6758623615e-01
 6.1287853192e-01	 8.3655586860e-01	 1.4692535021e+00
 6.0263112116e-01	 8.4396774109e-01	 1.2437275825e+00
 5.9230456176e-01	 8.5124680458e-01	 1.0138533072e+00
 5.8190141411e-01	 8.5839184551e-01	 7.7898684890e-01
 5.7142426176e-01	 8.6540171554e-01	 5.3829009082e-01
 5.6087570941e-01	 8.7227533198e-01	 2.9074059265e-01
 6.1725623572e-01	 8.4253126767e-01	 1.2942168127e+00
 6.0693562916e-01	 8.4999608210e-01	 1.0773572981e+00
 5.9653530863e-01	 8.5732713890e-01	 8.5645064779e-01
 5.8605785278e-01	 8.6452321584e-01	 6.3088569592e-01
 5.7550586363e-01	 8.7158315636e-01	 3.9984308848e-01
 5.6488196448e-01	 8.7850587006e-01	 1.6230546923e-01
 6.2163393952e-01	 8.4850666673e-01	 1.1267638166e+00
 6.1124013717e-01	 8.5602442311e-01	 9.1830654379e-01
 6.0076605550e-01	 8.6340747322e-01	 7.0609239686e-01
 5.9021429145e-01	 8.7065458616e-01	 4.8950777345e-01
 5.7958746550e-01	 8.7776459719e-01	 2.6772009132e-01
 5.6888821955e-01	 8.8473640815e-01	 3.9688240380e-02
 6.2601164332e-01	 8.5448206579e-01	 9.6666765153e-01
 6.1554464518e-01	 8.6205276411e-01	 7.6630854961e-01
 6.0499680237e-01	 8.6948780753e-01	 5.6250917515e-01
 5.9437073012e-01	 8.7678595649e-01	 3.5461901736e-01
 5.8366906737e-01	 8.8394603801e-01	 1.4176085276e-01
 5.7289447462e-01	 8.9096694623e-01	-7.7158490417e-02
 6.3038934712e-01	 8.6045746485e-01	 8.1369096848e-01
 6.1984915319e-01	 8.6808110512e-01	 6.2108742054e-01
 6.0922754924e-01	 8.7556814185e-01	 4.2542282425e-01
 5.9852716880e-01	 8.8291732681e-01	 2.2597589641e-01
 5.8775066924e-01	 8.9012747884e-01	 2.1793920957e-02
 5.7690072968e-01	 8.9719748432e-01	-1.8829612837e-01
 6.3476705092e-01	 8.6643286391e-01	 6.6758623615e-01
 6.2415366120e-01	 8.7410944613e-01	 4.8235839203e-01
 6.1345829611e-01	 8.8164847617e-01	 2.9454664761e-01
 6.0268360747e-01	 8.8904869714e-01	 1.0332567413e-01
 5.9183227111e-01	 8.9630891967e-01	-9.2363042477e-02
 5.8090698475e-01	 9.0342802240e-01	-2.9379967544e-01
 5.6087570941e-01	 8.7227533198e-01	 2.9074059265e-01
 5.5025838083e-01	 8.7901167826e-01	 3.8734374895e-02
 5.3957491679e-01	 8.8560980424e-01	-2.1499045153e-01
 5.2882797297e-01	 8.9206882649e-01	-4.7117907868e-01
 5.1802021796e-01	 8.9838792844e-01	-7.3070707212e-01
 5.0715433109e-01	 9.0456636055e-01	-9.9456970490e-01
 5.6488196448e-01	 8.7850587006e-01	 1.6230546923e-01
 5.5418879784e-01	 8.8529033310e-01	-7.9188042973e-02
 5.4342902333e-01	 8.9193558855e-01	-3.2185672710e-01
 5.3260531564e-01	 8.9844074667e-01	-5.6659860437e-01
 5.2172036237e-01	 9.0480498508e-01	-8.1443781500e-01
 5.1077686203e-01	 9.1102754884e-01	-1.0665135211e+00
 5.6888821955e-01	 8.8473640815e-01	 3.9688240380e-02
 5.5811921484e-01	 8.9156898795e-01	-1.9185118752e-01
 5.4728312988e-01	 8.9826137287e-01	-4.2399094010e-01
 5.3638265830e-01	 9.0481266686e-01	-6.5776727572e-01
 5.2542050679e-01	 9.1122204171e-01	-8.9434267374e-01
 5.1439939297e-01	 9.1748873713e-01	-1.1349942790e+00
 5.7289447462e-01	 8.9096694623e-01	-7.7158490417e-02
 5.6204963185e-01	 8.9784764279e-01	-2.9919453283e-01
 5.5113723643e-01	 9.0458715719e-01	-5.2127408234e-01
 5.4016000097e-01	 9.1118458705e-01	-7.4455733262e-01
 5.2912065120e-01	 9.1763909834e-01	-9.7033509762e-01
 5.1802192390e-01	 9.2394992542e-01	-1.2000167705e+00
 5.7690072968e-01	 8.9719748432e-01	-1.8829612837e-01
 5.6598004886e-01	 9.0412629763e-01	-4.0117420973e-01
 5.5499134298e-01	 9.1091294150e-01	-6.1360505898e-01
 5.4393734363e-01	 9.1755650724e-01	-8.2685878583e-01
 5.3282079561e-01	 9.2405615497e-01	-1.0423447592e+00
 5.2164445484e-01	 9.3041111371e-01	-1.2615990537e+00
 5.8090698475e-01	 9.0342802240e-01	-2.9379967544e-01
 5.6991046586e-01	 9.1040495248e-01	-4.9776250616e-01
 5.5884544953e-01	 9.1723872582e-01	-7.0090014939e-01
 5.4771468629e-01	 9.2392842743e-01	-9.0457888665e-01
 5.3652094003e-01	 9.3047321160e-01	-1.1103170813e+00
 5.2526698577e-01	 9.3687230200e-01	-1.3197720862e+00
 5.0715433109e-01	 9.0456636055e-01	-9.9456970490e-01
 4.9623300046e-01	 9.1060344027e-01	-1.2605046205e+00
 4.8525892084e-01	 9.1649855206e-01	-1.5262055053e+00
 4.7423479164e-01	 9.2225114724e-01	-1.7927351838e+00
 4.6316331490e-01	 9.2786074382e-01	-2.0612149045e+00
 4.5204719328e-01	 9.3332692623e-01	-2.3328134534e+00
 5.1077686203e-01	 9.1102754884e-01	-1.0665135211e+00
 4.9977752190e-01	 9.1710775056e-01	-1.3205854905e+00
 4.8872505599e-01	 9.2304497029e-01	-1.5742849173e+00
 4.7762218301e-01	 9.2883865543e-01	-1.8286943002e+00
 4.6647162430e-01	 9.3448832056e-01	-2.0849629418e+00
 4.5527610181e-01	 9.3999354713e-01	-2.3442957245e+00
 5.1439939297e-01	 9.1748873713e-01	-1.1349942790e+00
 5.0332204333e-01	 9.2361206085e-01	-1.3775598778e+00
 4.9219119114e-01	 9.2959138852e-01	-1.6196689316e+00
 4.8100957438e-01	 9.3542616363e-01	-1.8624248532e+00
 4.6977993369e-01	 9.4111589730e-01	-2.1070017842e+00
 4.5850501033e-01	 9.4666016804e-01	-2.3546331006e+00
 5.1802192390e-01	 9.2394992542e-01	-1.2000167705e+00
 5.0686656476e-01	 9.3011637114e-01	-1.4315209418e+00
 4.9565732629e-01	 9.3613780675e-01	-1.6624830056e+00
 4.8439696575e-01	 9.4201367182e-01	-1.8940287265e+00
 4.7308824308e-01	 9.4774347404e-01	-2.1273541305e+00
 4.6173391885e-01	 9.5332678894e-01	-2.3637138086e+00
 5.2164445484e-01	 9.3041111371e-01	-1.2615990537e+00
 5.1041108619e-01	 9.3662068142e-01	-1.4825722174e+00
 4.9912346144e-01	 9.4268422498e-01	-1.7028616234e+00
 4.8778435712e-01	 9.4860118002e-01	-1.9236170176e+00
 4.7639655247e-01	 9.5437105078e-01	-2.1460536110e+00
 4.6496282738e-01	 9.5999340984e-01	-2.3714402466e+00
 5.2526698577e-01	 9.3687230200e-01	-1.3197720862e+00
 5.1395560762e-01	 9.4312499171e-01	-1.5308273523e+00
 5.0258959659e-01	 9.4923064321e-01	-1.7409480836e+00
 4.9117174849e-01	 9.5518868821e-01	-1.9513098240e+00
 4.7970486186e-01	 9.6099862752e-01	-2.1631445185e+00
 4.6819173590e-01	 9.6666003074e-01	-2.3777286065e+00
 4.5204719328e-01	 9.3332692623e-01	-2.3328134534e+00
 4.4088912808e-01	 9.3864934503e-01	-2.6041207454e+00
 4.2969181728e-01	 9.4382771646e-01	-2.8711129297e+00
 4.1845795361e-01	 9.4886182200e-01	-3.1340775844e+00
 4.0719022266e-01	 9.5375150786e-01	-3.3933094598e+00
 3.9589130103e-01	 9.5849668438e-01	-3.6491022887e+00
 4.5527610181e-01	 9.3999354713e-01	-2.3442957245e+00
 4.4403833614e-01	 9.4535398321e-01	-2.6032096211e+00
 4.3276104454e-01	 9.5056934300e-01	-2.8576466413e+00
 4.2144693899e-01	 9.5563940644e-01	-3.1079929560e+00
 4.1009872426e-01	 9.6056401863e-01	-3.3546396097e+00
 3.9871909603e-01	 9.6534308926e-01	-3.5979740151e+00
 4.5850501033e-01	 9.4666016804e-01	-2.3546331006e+00
 4.4718754419e-01	 9.5205862139e-01	-2.6017239590e+00
 4.3583027181e-01	 9.5731096955e-01	-2.8441657313e+00
 4.2443592437e-01	 9.6241699089e-01	-3.0824673053e+00
 4.1300722585e-01	 9.6737652940e-01	-3.3171419564e+00
 4.0154689104e-01	 9.7218949415e-01	-3.5486984334e+00
 4.6173391885e-01	 9.5332678894e-01	-2.3637138086e+00
 4.5033675225e-01	 9.5876325957e-01	-2.5994025912e+00
 4.3889949907e-01	 9.6405259610e-01	-2.8302844943e+00
 4.2742490976e-01	 9.6919457533e-01	-3.0570147293e+00
 4.1591572744e-01	 9.7418904018e-01	-3.2802541961e+00
 4.0437468605e-01	 9.7903589904e-01	-3.5006600726e+00
 4.6496282738e-01	 9.5999340984e-01	-2.3714402466e+00
 4.5348596031e-01	 9.6546789775e-01	-2.5960021602e+00
 4.4196872634e-01	 9.7079422264e-01	-2.8156379730e+00
 4.3041389514e-01	 9.7597215977e-01	-3.0311723214e+00
 4.1882422903e-01	 9.8100155095e-01	-3.2434385979e+00
 4.0720248105e-01	 9.8588230393e-01	-3.4532689542e+00
 4.6819173590e-01	 9.6666003074e-01	-2.3777286065e+00
 4.5663516837e-01	 9.7217253593e-01	-2.5912966219e+00
 4.4503795361e-01	 9.7753584919e-01	-2.7998813624e+00
 4.3340288052e-01	 9.8274974421e-01	-3.0044995022e+00
 4.2173273062e-01	 9.8781406172e-01	-3.2061812836e+00
 4.1003027606e-01	 9.9272870882e-01	-3.4059598450e+00
 3.9589130103e-01	 9.5849668438e-01	-3.6491022887e+00
 3.8456385442e-01	 9.6309732533e-01	-3.9059627004e+00
 3.7321053593e-01	 9.6755346728e-01	-4.1681095691e+00
 3.6183398426e-01	 9.7186520877e-01	-4.4313319507e+00
 3.5043682196e-01	 9.7603270950e-01	-4.6848272885e+00
 3.3902165381e-01	 9.8005618943e-01	-4.9262528532e+00
 3.9871909603e-01	 9.6534308926e-01	-3.5979740151e+00
 3.8731073909e-01	 9.6997659194e-01	-3.8421262832e+00
 3.7587632548e-01	 9.7446456348e-01	-4.0908605676e+00
 3.6441851271e-01	 9.7880710312e-01	-4.3420061932e+00
 3.5293994211e-01	 9.8300437171e-01	-4.5839331868e+00
 3.4144323705e-01	 9.8705659078e-01	-4.8130388922e+00
 4.0154689104e-01	 9.7218949415e-01	-3.5486984334e+00
 3.9005762377e-01	 9.7685585855e-01	-3.7808784905e+00
 3.7854211502e-01	 9.8137565967e-01	-4.0169347226e+00
 3.6700304117e-01	 9.8574899747e-01	-4.2559459635e+00
 3.5544306227e-01	 9.8997603392e-01	-4.4869351101e+00
 3.4386482029e-01	 9.9405699213e-01	-4.7043009528e+00
 4.0437468605e-01	 9.7903589904e-01	-3.5006600726e+00
 3.9280450844e-01	 9.8373512516e-01	-3.7215810665e+00
 3.8120790456e-01	 9.8828675587e-01	-3.9457094668e+00
 3.6958756963e-01	 9.9269089182e-01	-4.1725987660e+00
 3.5794618243e-01	 9.9694769613e-01	-4.3933510738e+00
 3.4628640354e-01	 1.0010573935e+00	-4.5996714466e+00
 4.0720248105e-01	 9.8588230393e-01	-3.4532689542e+00
 3.9555139312e-01	 9.9061439177e-01	-3.6636213153e+00
 3.8387369410e-01	 9.9519785206e-01	-3.8765867822e+00
 3.7217209809e-01	 9.9963278617e-01	-4.0916142766e+00
 3.6044930258e-01	 1.0039193583e+00	-4.3027269305e+00
 3.4870798678e-01	 1.0080577948e+00	-4.4988045059e+00
 4.1003027606e-01	 9.9272870882e-01	-3.4059598450e+00
 3.9829827779e-01	 9.9749365838e-01	-3.6064113534e+00
 3.8653948365e-01	 1.0021089483e+00	-3.8089924904e+00
 3.7475662655e-01	 1.0065746805e+00	-4.0129813733e+00
 3.6295242274e-01	 1.0108910205e+00	-4.2146364510e+00
 3.5112957002e-01	 1.0150581962e+00	-4.4013761759e+00
 3.3902165381e-01	 9.8005618943e-01	-4.9262528532e+00
 3.2759106518e-01	 9.8393592789e-01	-5.1595884247e+00
 3.1614762042e-01	 9.8767226259e-01	-5.3899951876e+00
 3.0469386133e-01	 9.9126558856e-01	-5.6170322907e+00
 2.9323230571e-01	 9.9471635710e-01	-5.8400927343e+00
 2.8176544588e-01	 9.9802507468e-01	-6.0584046448e+00
 3.4144323705e-01	 9.8705659078e-01	-4.8130388922e+00
 3.2993100136e-01	 9.9096404166e-01	-5.0339197674e+00
 3.1840581770e-01	 9.9472706447e-01	-5.2524282858e+00
 3.0687024605e-01	 9.9834605705e-01	-5.4681222226e+00
 2.9532682218e-01	 1.0018214739e+00	-5.6803830121e+00
 2.8377805620e-01	 1.0051538252e+00	-5.8884171158e+00
 3.4386482029e-01	 9.9405699213e-01	-4.7043009528e+00
 3.3227093754e-01	 9.9799215544e-01	-4.9132705562e+00
 3.2066401499e-01	 1.0017818663e+00	-5.1204143731e+00
 3.0904663078e-01	 1.0054265255e+00	-5.3252764901e+00
 2.9742133865e-01	 1.0089265908e+00	-5.5272083264e+00
 2.8579066653e-01	 1.0122825758e+00	-5.7253702553e+00
 3.4628640354e-01	 1.0010573935e+00	-4.5996714466e+00
 3.3461087372e-01	 1.0050202692e+00	-4.7973745147e+00
 3.2292221228e-01	 1.0088366682e+00	-4.9937183178e+00
 3.1122301550e-01	 1.0125069940e+00	-5.1882215636e+00
 2.9951585512e-01	 1.0160317076e+00	-5.3801878800e+00
 2.8780327686e-01	 1.0194113263e+00	-5.5687078513e+00
 3.4870798678e-01	 1.0080577948e+00	-4.4988045059e+00
 3.3695080990e-01	 1.0120483830e+00	-4.6859815176e+00
 3.2518040957e-01	 1.0158914701e+00	-4.8721177098e+00
 3.1339940023e-01	 1.0195874625e+00	-5.0566953334e+00
 3.0161037159e-01	 1.0231368244e+00	-5.2389531084e+00
 2.8981588719e-01	 1.0265400768e+00	-5.4178888337e+00
 3.5112957002e-01	 1.0150581962e+00	-4.4013761759e+00
 3.3929074608e-01	 1.0190764967e+00	-4.5788578806e+00
 3.2743860686e-01	 1.0229462720e+00	-4.7554031780e+00
 3.1557578495e-01	 1.0266679310e+00	-4.9304473860e+00
 3.0370488806e-01	 1.0302419413e+00	-5.1031478465e+00
 2.9182849751e-01	 1.0336688274e+00	-5.2723872644e+00
 2.8176544588e-01	 9.9802507468e-01	-6.0584046448e+00
 2.7029574730e-01	 1.0011923018e+00	-6.2704365435e+00
 2.5882564727e-01	 1.0042186517e+00	-6.4751612201e+00
 2.4735755363e-01	 1.0071047894e+00	-6.6723099294e+00
 2.3589384351e-01	 1.0098514301e+00	-6.8614451414e+00
 2.2443686219e-01	 1.0124593380e+00	-7.0419702297e+00
 2.8377805620e-01	 1.0051538252e+00	-5.8884171158e+00
 2.7222643121e-01	 1.0083436754e+00	-6.0905479644e+00
 2.6067440190e-01	 1.0113916421e+00	-6.2856382085e+00
 2.4912439330e-01	 1.0142983950e+00	-6.4734307770e+00
 2.3757879953e-01	 1.0170646546e+00	-6.6534847274e+00
 2.2603998263e-01	 1.0196911904e+00	-6.8251855344e+00
 2.8579066653e-01	 1.0122825758e+00	-5.7253702553e+00
 2.7415711512e-01	 1.0154950490e+00	-5.9179119024e+00
 2.6252315652e-01	 1.0185646325e+00	-6.1036018161e+00
 2.5089123297e-01	 1.0214920007e+00	-6.2822338657e+00
 2.3926375556e-01	 1.0242778791e+00	-6.4534041246e+00
 2.2764310308e-01	 1.0269230428e+00	-6.6165216505e+00
 2.8780327686e-01	 1.0194113263e+00	-5.5687078513e+00
 2.7608779903e-01	 1.0226464226e+00	-5.7517810918e+00
 2.6437191114e-01	 1.0257376228e+00	-5.9281493998e+00
 2.5265807263e-01	 1.0286856063e+00	-6.0976957832e+00
 2.4094871158e-01	 1.0314911036e+00	-6.2600926459e+00
 2.2924622352e-01	 1.0341548952e+00	-6.4148129551e+00
 2.8981588719e-01	 1.0265400768e+00	-5.4178888337e+00
 2.7801848294e-01	 1.0297977961e+00	-5.5914269585e+00
 2.6622066577e-01	 1.0329106132e+00	-5.7583997742e+00
 2.5442491230e-01	 1.0358792120e+00	-5.9188165852e+00
 2.4263366761e-01	 1.0387043281e+00	-6.0724643575e+00
 2.3084934397e-01	 1.0413867476e+00	-6.2189191672e+00
 2.9182849751e-01	 1.0336688274e+00	-5.2723872644e+00
 2.7994916685e-01	 1.0369491697e+00	-5.4361394159e+00
 2.6806942039e-01	 1.0400836036e+00	-5.5934928441e+00
 2.5619175197e-01	 1.0430728176e+00	-5.7446192973e+00
 2.4431862363e-01	 1.0459175526e+00	-5.8894574782e+00
 2.3245246441e-01	 1.0486186001e+00	-6.0277246749e+00
 2.2443686219e-01	 1.0124593380e+00	-7.0419702297e+00
 2.1298892199e-01	 1.0149293253e+00	-7.2141991521e+00
 2.0155230120e-01	 1.0172622504e+00	-7.3788724758e+00
 1.9012924304e-01	 1.0194590169e+00	-7.5358242834e+00
 1.7872195478e-01	 1.0215205720e+00	-7.6847708535e+00
 1.6733260679e-01	 1.0234479053e+00	-7.8253250876e+00
 2.2603998263e-01	 1.0196911904e+00	-6.8251855344e+00
 2.1451027144e-01	 1.0221788205e+00	-6.9888470109e+00
 2.0299196049e-01	 1.0245284093e+00	-7.1452572493e+00
 1.9148730906e-01	 1.0267408670e+00	-7.2942803050e+00
 1.7999854017e-01	 1.0288171475e+00	-7.4356455545e+00
 1.6852783969e-01	 1.0307582475e+00	-7.5689630452e+00
 2.2764310308e-01	 1.0269230428e+00	-6.6165216505e+00
 2.1603162088e-01	 1.0294283156e+00	-6.7719023619e+00
 2.0443161979e-01	 1.0317945683e+00	-6.9203432348e+00
 1.9284537508e-01	 1.0340227171e+00	-7.0617202757e+00
 1.8127512556e-01	 1.0361137231e+00	-7.1957594267e+00
 1.6972307260e-01	 1.0380685897e+00	-7.3220528502e+00
 2.2924622352e-01	 1.0341548952e+00	-6.4148129551e+00
 2.1755297032e-01	 1.0366778108e+00	-6.5621747213e+00
 2.0587127908e-01	 1.0390607272e+00	-6.7029437459e+00
 1.9420344111e-01	 1.0413045673e+00	-6.8369900157e+00
 1.8255171095e-01	 1.0434102986e+00	-6.9640195088e+00
 1.7091830550e-01	 1.0453789319e+00	-7.0835914319e+00
 2.3084934397e-01	 1.0413867476e+00	-6.2189191672e+00
 2.1907431977e-01	 1.0439273060e+00	-6.3584988988e+00
 2.0731093837e-01	 1.0463268861e+00	-6.4918967397e+00
 1.9556150713e-01	 1.0485864174e+00	-6.6189587278e+00
 1.8382829634e-01	 1.0507068741e+00	-6.7393543459e+00
 1.7211353841e-01	 1.0526892740e+00	-6.8525947266e+00
 2.3245246441e-01	 1.0486186001e+00	-6.0277246749e+00
 2.2059566921e-01	 1.0511768012e+00	-6.1597342794e+00
 2.0875059767e-01	 1.0535930450e+00	-6.2860640767e+00
 1.9691957315e-01	 1.0558682675e+00	-6.4065182640e+00
 1.8510488173e-01	 1.0580034496e+00	-6.5207132870e+00
 1.7330877132e-01	 1.0599996162e+00	-6.6280970323e+00
 1.6733260679e-01	 1.0234479053e+00	-7.8253250876e+00
 1.5596333173e-01	 1.0252420472e+00	-7.9571161489e+00
 1.4461622378e-01	 1.0269040676e+00	-8.0799812913e+00
 1.3329333788e-01	 1.0284350744e+00	-8.1937347119e+00
 1.2199668909e-01	 1.0298362122e+00	-8.2981467225e+00
 1.1072825197e-01	 1.0311086608e+00	-8.3929596194e+00
 1.6852783969e-01	 1.0307582475e+00	-7.5689630452e+00
 1.5707735553e-01	 1.0325652047e+00	-7.6939082249e+00
 1.4564919681e-01	 1.0342390966e+00	-7.8103837783e+00
 1.3424543315e-01	 1.0357810392e+00	-7.9182140257e+00
 1.2286809401e-01	 1.0371921852e+00	-8.0171742328e+00
 1.1151916805e-01	 1.0384737227e+00	-8.1070073010e+00
 1.6972307260e-01	 1.0380685897e+00	-7.3220528502e+00
 1.5819137933e-01	 1.0398883622e+00	-7.4403544438e+00
 1.4668216983e-01	 1.0415741257e+00	-7.5506726659e+00
 1.3519752842e-01	 1.0431270040e+00	-7.6528387745e+00
 1.2373949893e-01	 1.0445481581e+00	-7.7466277972e+00
 1.1231008414e-01	 1.0458387845e+00	-7.8317761325e+00
 1.7091830550e-01	 1.0453789319e+00	-7.0835914319e+00
 1.5930540313e-01	 1.0472115196e+00	-7.1955450357e+00
 1.4771514286e-01	 1.0489091547e+00	-7.3000095567e+00
 1.3614962369e-01	 1.0504729689e+00	-7.3968198237e+00
 1.2461090386e-01	 1.0519041311e+00	-7.4857452657e+00
 1.1310100022e-01	 1.0532038464e+00	-7.5665085143e+00
 1.7211353841e-01	 1.0526892740e+00	-6.8525947266e+00
 1.6041942692e-01	 1.0545346771e+00	-6.9585868093e+00
 1.4874811589e-01	 1.0562441838e+00	-7.0575709687e+00
 1.3710171896e-01	 1.0578189337e+00	-7.1493820520e+00
 1.2548230878e-01	 1.0592601040e+00	-7.2337783544e+00
 1.1389191631e-01	 1.0605689083e+00	-7.3104613151e+00
 1.7330877132e-01	 1.0599996162e+00	-6.6280970323e+00
 1.6153345072e-01	 1.0618578346e+00	-6.7286025657e+00
 1.4978108891e-01	 1.0635792128e+00	-6.8225477864e+00
 1.3805381423e-01	 1.0651648985e+00	-6.9097638172e+00
 1.2635371370e-01	 1.0666160770e+00	-6.9899921044e+00
 1.1468283240e-01	 1.0679339701e+00	-7.0629052999e+00
 1.1072825197e-01	 1.0311086608e+00	-8.3929596194e+00
 9.9489960004e-02	 1.0322536336e+00	-8.4786934867e+00
 8.8283705119e-02	 1.0332723763e+00	-8.5557737408e+00
 7.7111337203e-02	 1.0341661655e+00	-8.6238126108e+00
 6.5974663722e-02	 1.0349363072e+00	-8.6824653891e+00
 5.4875449362e-02	 1.0355841353e+00	-8.7314446757e+00
 1.1151916805e-01	 1.0384737227e+00	-8.1070073010e+00
 1.0020060258e-01	 1.0396268738e+00	-8.1882680993e+00
 8.8914303012e-02	 1.0406528933e+00	-8.2613976970e+00
 7.7662132469e-02	 1.0415530667e+00	-8.3259736033e+00
 6.6445911321e-02	 1.0423287094e+00	-8.3816120110e+00
 5.5267416857e-02	 1.0429811648e+00	-8.4279829963e+00
 1.1231008414e-01	 1.0458387845e+00	-7.8317761325e+00
 1.0091124515e-01	 1.0470001141e+00	-7.9088433296e+00
 8.9544900906e-02	 1.0480334102e+00	-7.9782605439e+00
 7.8212927735e-02	 1.0489399679e+00	-8.0395689526e+00
 6.6917158919e-02	 1.0497211116e+00	-8.0923441582e+00
 5.5659384353e-02	 1.0503781944e+00	-8.1362123688e+00
 1.1310100022e-01	 1.0532038464e+00	-7.5665085143e+00
 1.0162188772e-01	 1.0543733543e+00	-7.6396577467e+00
 9.0175498800e-02	 1.0554139272e+00	-7.7056025073e+00
 7.8763723000e-02	 1.0563268690e+00	-7.7638456081e+00
 6.7388406517e-02	 1.0571135138e+00	-7.8139201431e+00
 5.6051351848e-02	 1.0577752239e+00	-7.8554066760e+00
 1.1389191631e-01	 1.0605689083e+00	-7.3104613151e+00
 1.0233253029e-01	 1.0617465945e+00	-7.3799653359e+00
 9.0806096693e-02	 1.0627944442e+00	-7.4426801273e+00
 7.9314518266e-02	 1.0637137702e+00	-7.4980676814e+00
 6.7859654115e-02	 1.0645059160e+00	-7.5456162366e+00
 5.6443319344e-02	 1.0651722534e+00	-7.5848585041e+00
 1.1468283240e-01	 1.0679339701e+00	-7.0629052999e+00
 1.0304317286e-01	 1.0691198348e+00	-7.1290348897e+00
 9.1436694587e-02	 1.0701749612e+00	-7.1887656170e+00
 7.9865313532e-02	 1.0711006714e+00	-7.2415157765e+00
 6.8330901713e-02	 1.0718983182e+00	-7.2867259755e+00
 5.6835286839e-02	 1.0725692830e+00	-7.3238784311e+00
 5.4875449362e-02	 1.0355841353e+00	-8.7314446757e+00
 4.3815415727e-02	 1.0361110102e+00	-8.7714830688e+00
 3.2796241090e-02	 1.0365183176e+00	-8.8030402382e+00
 2.1819560192e-02	 1.0368074667e+00	-8.8255603847e+00
 1.0886964079e-02	 1.0369798890e+00	-8.8386162464e+00
-5.9591876093e-318	 1.0370383364e+00	-8.8418902770e+00
 5.5267416857e-02	 1.0429811648e+00	-8.4279829963e+00
 4.4128382982e-02	 1.0435118032e+00	-8.4658890557e+00
 3.3030499955e-02	 1.0439220199e+00	-8.4958531397e+00
 2.1975414193e-02	 1.0442132343e+00	-8.5172672202e+00
 1.0964728108e-02	 1.0443868882e+00	-8.5296553616e+00
-6.9272746577e-318	 1.0444462599e+00	-8.5326437661e+00
 5.5659384353e-02	 1.0503781944e+00	-8.1362123688e+00
 4.4441350237e-02	 1.0509125961e+00	-8.1720678938e+00
 3.3264758820e-02	 1.0513257222e+00	-8.2005194244e+00
 2.2131268194e-02	 1.0516190019e+00	-8.2209057759e+00
 1.1042492137e-02	 1.0517938874e+00	-8.2327007481e+00
-7.4533606981e-318	 1.0518541538e+00	-8.2354725932e+00
 5.6051351848e-02	 1.0577752239e+00	-7.8554066760e+00
 4.4754317492e-02	 1.0583133890e+00	-7.8893054821e+00
 3.3499017685e-02	 1.0587294244e+00	-7.9163257169e+00
 2.2287122196e-02	 1.0590247695e+00	-7.9357517253e+00
 1.1120256166e-02	 1.0592008866e+00	-7.9470050813e+00
-7.5666351287e-318	 1.0592620021e+00	-7.9495944516e+00
 5.6443319344e-02	 1.0651722534e+00	-7.5848585041e+00
 4.5067284747e-02	 1.0657141820e+00	-7.6169073188e+00
 3.3733276550e-02	 1.0661331267e+00	-7.6425794894e+00
 2.2442976197e-02	 1.0664305372e+00	-7.6611031899e+00
 1.1198020195e-02	 1.0666078858e+00	-7.6718454333e+00
-7.2962873479e-318	 1.0666698051e+00	-7.6742533519e+00
 5.6835286839e-02	 1.0725692830e+00	-7.3238784311e+00
 4.5380252003e-02	 1.0731149749e+00	-7.3541977678e+00
 3.3967535415e-02	 1.0735368290e+00	-7.3786082979e+00
 2.2598830198e-02	 1.0738363048e+00	-7.3962799332e+00
 1.1275784225e-02	 1.0740148850e+00	-7.4065224146e+00
-6.6715116948e-318	 1.0740775798e+00	-7.4087186885e+00
 1.0740740741e+00	 0.0000000000e+00	 1.7746193914e+00
 1.0740148850e+00	 1.1275784225e-02	 1.7754273349e+00
 1.0738363048e+00	 2.2598830198e-02	 1.7796387716e+00
 1.0735368290e+00	 3.3967535415e-02	 1.7867431456e+00
 1.0731149749e+00	 4.5380252003e-02	 1.7964168483e+00
 1.0725692830e+00	 5.6835286839e-02	 1.8085125707e+00
 1.0814814815e+00	 0.0000000000e+00	 1.9049412514e+00
 1.0814218842e+00	 1.1353548254e-02	 1.9055694985e+00
 1.0812420724e+00	 2.2754684200e-02	 1.9093034974e+00
 1.0809405312e+00	 3.4201794280e-02	 1.9155991169e+00
 1.0805157678e+00	 4.5693219258e-02	 1.9241078062e+00
 1.0799663125e+00	 5.7227254335e-02	 1.9346653553e+00
 1.0888888889e+00	 0.0000000000e+00	 2.0293990422e+00
 1.0888288835e+00	 1.1431312283e-02	 2.0298594357e+00
 1.0886478400e+00	 2.2910538201e-02	 2.0331643488e+00
 1.0883442335e+00	 3.4436053145e-02	 2.0387387394e+00
 1.0879165607e+00	 4.6006186513e-02	 2.0462120943e+00
 1.0873633420e+00	 5.7619221830e-02	 2.0554065682e+00
 1.0962962963e+00	 0.0000000000e+00	 2.1476828472e+00
 1.0962358827e+00	 1.1509076312e-02	 2.1479843488e+00
 1.0960536076e+00	 2.3066392202e-02	 2.1509017815e+00
 1.0957479358e+00	 3.4670312010e-02	 2.1558321996e+00
 1.0953173537e+00	 4.6319153768e-02	 2.1623864636e+00
 1.0947603716e+00	 5.8011189326e-02	 2.1703767287e+00
 1.1037037037e+00	 0.0000000000e+00	 2.2594919757e+00
 1.1036428819e+00	 1.1586840341e-02	 2.2596409552e+00
 1.1034593753e+00	 2.3222246204e-02	 2.2622060480e+00
 1.1031516380e+00	 3.4904570875e-02	 2.2665597569e+00
 1.1027181466e+00	 4.6632121023e-02	 2.2722980123e+00
 1.1021574011e+00	 5.8403156821e-02	 2.2792269784e+00
 1.1111111111e+00	 0.0000000000e+00	 2.3645346554e+00
 1.1110498811e+00	 1.1664604370e-02	 2.3645351725e+00
 1.1108651429e+00	 2.3378100205e-02	 2.3667768737e+00
 1.1105553403e+00	 3.5138829740e-02	 2.3706114105e+00
 1.1101189395e+00	 4.6945088279e-02	 2.3756238423e+00
 1.1095544307e+00	 5.8795124316e-02	 2.3816187270e+00
 1.0725692830e+00	 5.6835286839e-02	 1.8085125707e+00
 1.0718983182e+00	 6.8330901713e-02	 1.8233619046e+00
 1.0711006714e+00	 7.9865313532e-02	 1.8411264480e+00
 1.0701749612e+00	 9.1436694587e-02	 1.8616234010e+00
 1.0691198348e+00	 1.0304317286e-01	 1.8847827237e+00
 1.0679339701e+00	 1.1468283240e-01	 1.9106293043e+00
 1.0799663125e+00	 5.7227254335e-02	 1.9346653553e+00
 1.0792907204e+00	 6.8802149311e-02	 1.9476171838e+00
 1.0784875726e+00	 8.0416108798e-02	 1.9631372124e+00
 1.0775554781e+00	 9.2067292481e-02	 1.9810333433e+00
 1.0764930750e+00	 1.0375381543e-01	 2.0012311756e+00
 1.0752990320e+00	 1.1547374848e-01	 2.0237552509e+00
 1.0873633420e+00	 5.7619221830e-02	 2.0554065682e+00
 1.0866831225e+00	 6.9273396909e-02	 2.0666852207e+00
 1.0858744738e+00	 8.0966904063e-02	 2.0802342475e+00
 1.0849359951e+00	 9.2697890375e-02	 2.0958499333e+00
 1.0838663153e+00	 1.0446445800e-01	 2.1134511836e+00
 1.0826640939e+00	 1.1626466457e-01	 2.1330598141e+00
 1.0947603716e+00	 5.8011189326e-02	 2.1703767287e+00
 1.0940755247e+00	 6.9744644507e-02	 2.1801873761e+00
 1.0932613750e+00	 8.1517699329e-02	 2.1920167872e+00
 1.0923165121e+00	 9.3328488268e-02	 2.2056478323e+00
 1.0912395555e+00	 1.0517510058e-01	 2.2209909231e+00
 1.0900291557e+00	 1.1705558065e-01	 2.2380633091e+00
 1.1021574011e+00	 5.8403156821e-02	 2.2792269784e+00
 1.1014679269e+00	 7.0215892105e-02	 2.2877559256e+00
 1.1006482761e+00	 8.2068494595e-02	 2.2980953068e+00
 1.0996970290e+00	 9.3959086162e-02	 2.3100133026e+00
 1.0986127957e+00	 1.0588574315e-01	 2.3234105624e+00
 1.0973942176e+00	 1.1784649674e-01	 2.3382984704e+00
 1.1095544307e+00	 5.8795124316e-02	 2.3816187270e+00
 1.1088603291e+00	 7.0687139703e-02	 2.3890336952e+00
 1.1080351773e+00	 8.2619289860e-02	 2.3980911455e+00
 1.1070775460e+00	 9.4589684056e-02	 2.4085438167e+00
 1.1059860360e+00	 1.0659638572e-01	 2.4202818596e+00
 1.1047592794e+00	 1.1863741282e-01	 2.4333100342e+00
 1.0679339701e+00	 1.1468283240e-01	 1.9106293043e+00
 1.0666160770e+00	 1.2635371370e-01	 1.9392684381e+00
 1.0651648985e+00	 1.3805381423e-01	 1.9706195069e+00
 1.0635792128e+00	 1.4978108891e-01	 2.0045085366e+00
 1.0618578346e+00	 1.6153345072e-01	 2.0407713382e+00
 1.0599996162e+00	 1.7330877132e-01	 2.0792317203e+00
 1.0752990320e+00	 1.1547374848e-01	 2.0237552509e+00
 1.0739720499e+00	 1.2722511862e-01	 2.0487276565e+00
 1.0725108633e+00	 1.3900590950e-01	 2.0761007745e+00
 1.0709142419e+00	 1.5081406194e-01	 2.1057274565e+00
 1.0691809921e+00	 1.6264747452e-01	 2.1374699920e+00
 1.0673099584e+00	 1.7450400422e-01	 2.1711771479e+00
 1.0826640939e+00	 1.1626466457e-01	 2.1330598141e+00
 1.0813280229e+00	 1.2809652354e-01	 2.1548081941e+00
 1.0798568281e+00	 1.3995800477e-01	 2.1786617854e+00
 1.0782492710e+00	 1.5184703497e-01	 2.2044778558e+00
 1.0765041496e+00	 1.6376149832e-01	 2.2321229661e+00
 1.0746203006e+00	 1.7569923713e-01	 2.2614488492e+00
 1.0900291557e+00	 1.1705558065e-01	 2.2380633091e+00
 1.0886839958e+00	 1.2896792847e-01	 2.2570060756e+00
 1.0872027929e+00	 1.4091010004e-01	 2.2777830834e+00
 1.0855843000e+00	 1.5288000799e-01	 2.3002345986e+00
 1.0838273070e+00	 1.6487552212e-01	 2.3242102345e+00
 1.0819306428e+00	 1.7689447003e-01	 2.3495436796e+00
 1.0973942176e+00	 1.1784649674e-01	 2.3382984704e+00
 1.0960399687e+00	 1.2983933339e-01	 2.3548300860e+00
 1.0945487578e+00	 1.4186219531e-01	 2.3729581033e+00
 1.0929193291e+00	 1.5391298102e-01	 2.3924853479e+00
 1.0911504645e+00	 1.6598954591e-01	 2.4132242428e+00
 1.0892409849e+00	 1.7808970294e-01	 2.4349703922e+00
 1.1047592794e+00	 1.1863741282e-01	 2.4333100342e+00
 1.1033959417e+00	 1.3071073831e-01	 2.4478013432e+00
 1.1018947226e+00	 1.4281429058e-01	 2.4636927418e+00
 1.1002543581e+00	 1.5494595405e-01	 2.4807301442e+00
 1.0984736220e+00	 1.6710356971e-01	 2.4986695048e+00
 1.0965513271e+00	 1.7928493584e-01	 2.5172492620e+00
 1.0599996162e+00	 1.7330877132e-01	 2.0792317203e+00
 1.0580034496e+00	 1.8510488173e-01	 2.1192910314e+00
 1.0558682675e+00	 1.9691957315e-01	 2.1610294005e+00
 1.0535930450e+00	 2.0875059767e-01	 2.2052081754e+00
 1.0511768012e+00	 2.2059566921e-01	 2.2524917626e+00
 1.0486186001e+00	 2.3245246441e-01	 2.3034242937e+00
 1.0673099584e+00	 1.7450400422e-01	 2.1711771479e+00
 1.0653000251e+00	 1.8638146713e-01	 2.2062178117e+00
 1.0631501176e+00	 1.9827763917e-01	 2.2426778900e+00
 1.0608592040e+00	 2.1019025696e-01	 2.2813954761e+00
 1.0584262964e+00	 2.2211701865e-01	 2.3231057101e+00
 1.0558504525e+00	 2.3405558486e-01	 2.3684161538e+00
 1.0746203006e+00	 1.7569923713e-01	 2.2614488492e+00
 1.0725966006e+00	 1.8765805252e-01	 2.2917646251e+00
 1.0704319677e+00	 1.9963570519e-01	 2.3231343310e+00
 1.0681253629e+00	 2.1162991626e-01	 2.3564501062e+00
 1.0656757915e+00	 2.2363836809e-01	 2.3924946410e+00
 1.0630823049e+00	 2.3565870530e-01	 2.4319152590e+00
 1.0819306428e+00	 1.7689447003e-01	 2.3495436796e+00
 1.0798931761e+00	 1.8893463791e-01	 2.3754530894e+00
 1.0777138179e+00	 2.0099377121e-01	 2.4019490676e+00
 1.0753915218e+00	 2.1306957555e-01	 2.4299560356e+00
 1.0729252867e+00	 2.2515971754e-01	 2.4602819781e+00
 1.0703141573e+00	 2.3726182574e-01	 2.4935912306e+00
 1.0892409849e+00	 1.7808970294e-01	 2.4349703922e+00
 1.0871897517e+00	 1.9021122330e-01	 2.4568160174e+00
 1.0849956680e+00	 2.0235183724e-01	 2.4786829267e+00
 1.0826576808e+00	 2.1450923485e-01	 2.5015069822e+00
 1.0801747819e+00	 2.2668106698e-01	 2.5261001230e+00
 1.0775460097e+00	 2.3886494619e-01	 2.5531218529e+00
 1.0965513271e+00	 1.7928493584e-01	 2.5172492620e+00
 1.0944863272e+00	 1.9148780869e-01	 2.5353970757e+00
 1.0922775181e+00	 2.0370990326e-01	 2.5529069143e+00
 1.0899238397e+00	 2.1594889414e-01	 2.5707061497e+00
 1.0874242771e+00	 2.2820241642e-01	 2.5895902395e+00
 1.0847778621e+00	 2.4046806663e-01	 2.6101929068e+00
 1.0486186001e+00	 2.3245246441e-01	 2.3034242937e+00
 1.0459175526e+00	 2.4431862363e-01	 2.3563253224e+00
 1.0430728176e+00	 2.5619175197e-01	 2.4094301152e+00
 1.0400836036e+00	 2.6806942039e-01	 2.4629090984e+00
 1.0369491697e+00	 2.7994916685e-01	 2.5167266361e+00
 1.0336688274e+00	 2.9182849751e-01	 2.5706243208e+00
 1.0558504525e+00	 2.3405558486e-01	 2.3684161538e+00
 1.0531307771e+00	 2.4600357966e-01	 2.4156530286e+00
 1.0502664232e+00	 2.5795859164e-01	 2.4630037455e+00
 1.0472565940e+00	 2.6991817501e-01	 2.5106079981e+00
 1.0441005433e+00	 2.8187985076e-01	 2.5583905462e+00
 1.0407975779e+00	 2.9384110784e-01	 2.6060437299e+00
 1.0630823049e+00	 2.3565870530e-01	 2.4319152590e+00
 1.0603440016e+00	 2.4768853568e-01	 2.4730601837e+00
 1.0574600289e+00	 2.5972543131e-01	 2.5141708224e+00
 1.0544295843e+00	 2.7176692964e-01	 2.5554611510e+00
 1.0512519169e+00	 2.8381053466e-01	 2.5969201490e+00
 1.0479263284e+00	 2.9585371817e-01	 2.6382932646e+00
 1.0703141573e+00	 2.3726182574e-01	 2.4935912306e+00
 1.0675572261e+00	 2.4937349171e-01	 2.5282571645e+00
 1.0646536345e+00	 2.6149227098e-01	 2.5626630103e+00
 1.0616025747e+00	 2.7361568426e-01	 2.5972001849e+00
 1.0584032905e+00	 2.8574121857e-01	 2.6320238400e+00
 1.0550550790e+00	 2.9786632850e-01	 2.6670330055e+00
 1.0775460097e+00	 2.3886494619e-01	 2.5531218529e+00
 1.0747704506e+00	 2.5105844773e-01	 2.5809619857e+00
 1.0718472402e+00	 2.6325911065e-01	 2.6082197637e+00
 1.0687755651e+00	 2.7546443888e-01	 2.6355654079e+00
 1.0655546641e+00	 2.8767190248e-01	 2.6634203813e+00
 1.0621838295e+00	 2.9987893882e-01	 2.6919359397e+00
 1.0847778621e+00	 2.4046806663e-01	 2.6101929068e+00
 1.0819836751e+00	 2.5274340376e-01	 2.6309001780e+00
 1.0790408458e+00	 2.6502595032e-01	 2.6505882318e+00
 1.0759485554e+00	 2.7731319351e-01	 2.6703057177e+00
 1.0727060376e+00	 2.8960258639e-01	 2.6908387926e+00
 1.0693125800e+00	 3.0189154915e-01	 2.7126878097e+00
 1.0336688274e+00	 2.9182849751e-01	 2.5706243208e+00
 1.0302419413e+00	 3.0370488806e-01	 2.6239519080e+00
 1.0266679310e+00	 3.1557578495e-01	 2.6775673131e+00
 1.0229462720e+00	 3.2743860686e-01	 2.7330903450e+00
 1.0190764967e+00	 3.3929074608e-01	 2.7918540204e+00
 1.0150581962e+00	 3.5112957002e-01	 2.8548955438e+00
 1.0407975779e+00	 2.9384110784e-01	 2.6060437299e+00
 1.0373470581e+00	 3.0579940453e-01	 2.6525781367e+00
 1.0337483995e+00	 3.1775216967e-01	 2.6987006792e+00
 1.0300010738e+00	 3.2969680415e-01	 2.7462395957e+00
 1.0261046105e+00	 3.4163068226e-01	 2.7967128077e+00
 1.0220585975e+00	 3.5355115326e-01	 2.8513178061e+00
 1.0479263284e+00	 2.9585371817e-01	 2.6382932646e+00
 1.0444521750e+00	 3.0789392100e-01	 2.6782488177e+00
 1.0408288680e+00	 3.1992855440e-01	 2.7172378750e+00
 1.0370558757e+00	 3.3195500144e-01	 2.7572453535e+00
 1.0331327243e+00	 3.4397061844e-01	 2.7999220862e+00
 1.0290589989e+00	 3.5597273650e-01	 2.8465737094e+00
 1.0550550790e+00	 2.9786632850e-01	 2.6670330055e+00
 1.0515572918e+00	 3.0998843746e-01	 2.7005715080e+00
 1.0479093365e+00	 3.2210493912e-01	 2.7327526985e+00
 1.0441106776e+00	 3.3421319873e-01	 2.7656676493e+00
 1.0401608381e+00	 3.4631055462e-01	 2.8010493057e+00
 1.0360594003e+00	 3.5839431974e-01	 2.8402604640e+00
 1.0621838295e+00	 2.9987893882e-01	 2.6919359397e+00
 1.0586624086e+00	 3.1208295393e-01	 2.7191695105e+00
 1.0549898050e+00	 3.2428132384e-01	 2.7448372217e+00
 1.0511654795e+00	 3.3647139601e-01	 2.7710869765e+00
 1.0471889518e+00	 3.4865049080e-01	 2.7996841963e+00
 1.0430598016e+00	 3.6081590298e-01	 2.8319989791e+00
 1.0693125800e+00	 3.0189154915e-01	 2.7126878097e+00
 1.0657675255e+00	 3.1417747040e-01	 2.7336816760e+00
 1.0620702735e+00	 3.2645770857e-01	 2.7531015605e+00
 1.0582202813e+00	 3.3872959330e-01	 2.7731040426e+00
 1.0542170656e+00	 3.5099042698e-01	 2.7954385197e+00
 1.0500602030e+00	 3.6323748623e-01	 2.8214336317e+00
 1.0150581962e+00	 3.5112957002e-01	 2.8548955438e+00
 1.0108910205e+00	 3.6295242274e-01	 2.9128885904e+00
 1.0065746805e+00	 3.7475662655e-01	 2.9578578253e+00
 1.0021089483e+00	 3.8653948365e-01	 3.0045453495e+00
 9.9749365838e-01	 3.9829827779e-01	 3.0556283141e+00
 9.9272870882e-01	 4.1003027606e-01	 3.1095428785e+00
 1.0220585975e+00	 3.5355115326e-01	 2.8513178061e+00
 1.0178626828e+00	 3.6545554290e-01	 2.9001538344e+00
 1.0135165749e+00	 3.7734115501e-01	 2.9368621831e+00
 1.0090200445e+00	 3.8920527319e-01	 2.9766263127e+00
 1.0043729250e+00	 4.0104516247e-01	 3.0199532969e+00
 9.9957511371e-01	 4.1285807107e-01	 3.0653928899e+00
 1.0290589989e+00	 3.5597273650e-01	 2.8465737094e+00
 1.0248343450e+00	 3.6795866305e-01	 2.8867129981e+00
 1.0204584692e+00	 3.7992568347e-01	 2.9165847327e+00
 1.0159311406e+00	 3.9187106273e-01	 2.9498396747e+00
 1.0112521916e+00	 4.0379204714e-01	 2.9857093935e+00
 1.0064215186e+00	 4.1568586608e-01	 3.0228363122e+00
 1.0360594003e+00	 3.5839431974e-01	 2.8402604640e+00
 1.0318060072e+00	 3.7046178321e-01	 2.8722162391e+00
 1.0274003636e+00	 3.8251021193e-01	 2.8967405298e+00
 1.0228422368e+00	 3.9453685227e-01	 2.9239691649e+00
 1.0181314582e+00	 4.0653893181e-01	 2.9527680709e+00
 1.0132679235e+00	 4.1851366108e-01	 2.9818518397e+00
 1.0430598016e+00	 3.6081590298e-01	 2.8319989791e+00
 1.0387776694e+00	 3.7296490337e-01	 2.8568413635e+00
 1.0343422579e+00	 3.8509474039e-01	 2.8770599206e+00
 1.0297533330e+00	 3.9720264181e-01	 2.8988119512e+00
 1.0250107248e+00	 4.0928581649e-01	 2.9210118319e+00
 1.0201143284e+00	 4.2134145609e-01	 2.9424262384e+00
 1.0500602030e+00	 3.6323748623e-01	 2.8214336317e+00
 1.0457493316e+00	 3.7546802352e-01	 2.8407215563e+00
 1.0412841523e+00	 3.8767926885e-01	 2.8572878293e+00
 1.0366644292e+00	 3.9986843136e-01	 2.8741779567e+00
 1.0318899914e+00	 4.1203270116e-01	 2.8903335759e+00
 1.0269607333e+00	 4.2416925110e-01	 2.9045537692e+00
 9.9272870882e-01	 4.1003027606e-01	 3.1095428785e+00
 9.8781406172e-01	 4.2173273062e-01	 3.1636843588e+00
 9.8274974421e-01	 4.3340288052e-01	 3.2155214983e+00
 9.7753584919e-01	 4.4503795361e-01	 3.2634755579e+00
 9.7217253593e-01	 4.5663516837e-01	 3.3059553031e+00
 9.6666003074e-01	 4.6819173590e-01	 3.3413679790e+00
 9.9957511371e-01	 4.1285807107e-01	 3.0653928899e+00
 9.9462657249e-01	 4.2464123221e-01	 3.1110213964e+00
 9.8952732866e-01	 4.3639186590e-01	 3.1548128911e+00
 9.8427747573e-01	 4.4810718087e-01	 3.1950400793e+00
 9.7887717410e-01	 4.5978437643e-01	 3.2299663575e+00
 9.7332665164e-01	 4.7142064442e-01	 3.2578572104e+00
 1.0064215186e+00	 4.1568586608e-01	 3.0228363122e+00
 1.0014390833e+00	 4.2754973380e-01	 3.0599953558e+00
 9.9630491310e-01	 4.3938085129e-01	 3.0957441841e+00
 9.9101910228e-01	 4.5117640814e-01	 3.1282761967e+00
 9.8558181228e-01	 4.6293358448e-01	 3.1557759052e+00
 9.7999327254e-01	 4.7464955295e-01	 3.1764305515e+00
 1.0132679235e+00	 4.1851366108e-01	 2.9818518397e+00
 1.0082515940e+00	 4.3045823539e-01	 3.0106819242e+00
 1.0030824975e+00	 4.4236983667e-01	 3.0384467833e+00
 9.9776072883e-01	 4.5424563541e-01	 3.0633282354e+00
 9.9228645046e-01	 4.6608279254e-01	 3.0834969080e+00
 9.8665989345e-01	 4.7787846147e-01	 3.0971238803e+00
 1.0201143284e+00	 4.2134145609e-01	 2.9424262384e+00
 1.0150641048e+00	 4.3336673698e-01	 2.9631621354e+00
 1.0098600820e+00	 4.4535882205e-01	 2.9830557907e+00
 1.0045023554e+00	 4.5731486267e-01	 3.0003436841e+00
 9.9899108864e-01	 4.6923200060e-01	 3.0132461205e+00
 9.9332651435e-01	 4.8110736999e-01	 3.0199787001e+00
 1.0269607333e+00	 4.2416925110e-01	 2.9045537692e+00
 1.0218766156e+00	 4.3627523857e-01	 2.9175218458e+00
 1.0166376664e+00	 4.4834780744e-01	 2.9297094964e+00
 1.0112439819e+00	 4.6038408994e-01	 2.9394726660e+00
 1.0056957268e+00	 4.7238120866e-01	 2.9451434998e+00
 9.9999313525e-01	 4.8433627852e-01	 2.9450414477e+00
 9.6666003074e-01	 4.6819173590e-01	 3.3413679790e+00
 9.6099862752e-01	 4.7970486186e-01	 3.3741663143e+00
 9.5518868821e-01	 4.9117174849e-01	 3.4080902654e+00
 9.4923064321e-01	 5.0258959659e-01	 3.4405017019e+00
 9.4312499171e-01	 5.1395560762e-01	 3.4687971406e+00
 9.3687230200e-01	 5.2526698577e-01	 3.4904201212e+00
 9.7332665164e-01	 4.7142064442e-01	 3.2578572104e+00
 9.6762620426e-01	 4.8301317126e-01	 3.2830609273e+00
 9.6177619641e-01	 4.9455913986e-01	 3.3093397324e+00
 9.5577706143e-01	 5.0605573174e-01	 3.3341039790e+00
 9.4962930200e-01	 5.1750012906e-01	 3.3547948385e+00
 9.4333349029e-01	 5.2888951671e-01	 3.3688964828e+00
 9.7999327254e-01	 4.7464955295e-01	 3.1764305515e+00
 9.7425378101e-01	 4.8632148065e-01	 3.1944869698e+00
 9.6836370460e-01	 4.9794653123e-01	 3.2136439162e+00
 9.6232347966e-01	 5.0952186689e-01	 3.2312903404e+00
 9.5613361229e-01	 5.2104465049e-01	 3.2448450124e+00
 9.4979467858e-01	 5.3251204765e-01	 3.2517686853e+00
 9.8665989345e-01	 4.7787846147e-01	 3.0971238803e+00
 9.8088135775e-01	 4.8962979004e-01	 3.1083977494e+00
 9.7495121279e-01	 5.0133392259e-01	 3.1209102105e+00
 9.6886989789e-01	 5.1298800203e-01	 3.1319603603e+00
 9.6263792257e-01	 5.2458917192e-01	 3.1388789182e+00
 9.5625586687e-01	 5.3613457858e-01	 3.1390405388e+00
 9.9332651435e-01	 4.8110736999e-01	 3.0199787001e+00
 9.8750893449e-01	 4.9293809943e-01	 3.0247541582e+00
 9.8153872099e-01	 5.0472131396e-01	 3.0310545521e+00
 9.7541631612e-01	 5.1645413718e-01	 3.0360220800e+00
 9.6914223286e-01	 5.2813369335e-01	 3.0368351346e+00
 9.6271705516e-01	 5.3975710952e-01	 3.0307209316e+00
 9.9999313525e-01	 4.8433627852e-01	 2.9450414477e+00
 9.9413651123e-01	 4.9624640883e-01	 2.9435238752e+00
 9.8812622918e-01	 5.0810870533e-01	 2.9440005509e+00
 9.8196273435e-01	 5.1992027233e-01	 2.9433911002e+00
 9.7564654315e-01	 5.3167821478e-01	 2.9386586530e+00
 9.6917824345e-01	 5.4337964046e-01	 2.9268229545e+00
 9.3687230200e-01	 5.2526698577e-01	 3.4904201212e+00
 9.3047321160e-01	 5.3652094003e-01	 3.5079074633e+00
 9.2392842743e-01	 5.4771468629e-01	 3.5237615214e+00
 9.1723872582e-01	 5.5884544953e-01	 3.5355098342e+00
 9.1040495248e-01	 5.6991046586e-01	 3.5408137010e+00
 9.0342802240e-01	 5.8090698475e-01	 3.5374797748e+00
 9.4333349029e-01	 5.2888951671e-01	 3.3688964828e+00
 9.3689026823e-01	 5.4022108444e-01	 3.3792553374e+00
 9.3030034762e-01	 5.5149202896e-01	 3.3885545462e+00
 9.2356451013e-01	 5.6269955608e-01	 3.3941696316e+00
 9.1668360732e-01	 5.7384088287e-01	 3.3936150699e+00
 9.0965856049e-01	 5.8491323982e-01	 3.3845561714e+00
 9.4979467858e-01	 5.3251204765e-01	 3.2517686853e+00
 9.4330732487e-01	 5.4392122886e-01	 3.2552159947e+00
 9.3667226781e-01	 5.5526937162e-01	 3.2581177019e+00
 9.2989029445e-01	 5.6655366263e-01	 3.2577362538e+00
 9.2296226217e-01	 5.7777129987e-01	 3.2514758813e+00
 9.1588909858e-01	 5.8891949488e-01	 3.2368946444e+00
 9.5625586687e-01	 5.3613457858e-01	 3.1390405388e+00
 9.4972438150e-01	 5.4762137327e-01	 3.1358717375e+00
 9.4304418800e-01	 5.5904671429e-01	 3.1325813330e+00
 9.3621607877e-01	 5.7040776917e-01	 3.1263568269e+00
 9.2924091701e-01	 5.8170171688e-01	 3.1145280044e+00
 9.2211963666e-01	 5.9292574995e-01	 3.0945790233e+00
 9.6271705516e-01	 5.3975710952e-01	 3.0307209316e+00
 9.5614143813e-01	 5.5132151768e-01	 3.0213075434e+00
 9.4941610819e-01	 5.6282405695e-01	 3.0120768803e+00
 9.4254186308e-01	 5.7426187572e-01	 3.0001788439e+00
 9.3551957186e-01	 5.8563213389e-01	 2.9829038212e+00
 9.2835017475e-01	 5.9693200502e-01	 2.9576946968e+00
 9.6917824345e-01	 5.4337964046e-01	 2.9268229545e+00
 9.6255849476e-01	 5.5502166210e-01	 2.9116102300e+00
 9.5578802838e-01	 5.6660139962e-01	 2.8967360583e+00
 9.4886764740e-01	 5.7811598227e-01	 2.8793493281e+00
 9.4179822670e-01	 5.8956255089e-01	 2.8567353484e+00
 9.3458071283e-01	 6.0093826009e-01	 2.8263276633e+00
 9.0342802240e-01	 5.8090698475e-01	 3.5374797748e+00
 8.9630891967e-01	 5.9183227111e-01	 3.5286633020e+00
 8.8904869714e-01	 6.0268360747e-01	 3.5174968397e+00
 8.8164847617e-01	 6.1345829611e-01	 3.5020281172e+00
 8.7410944613e-01	 6.2415366120e-01	 3.4805258393e+00
 8.6643286391e-01	 6.3476705092e-01	 3.4514898517e+00
 9.0965856049e-01	 5.8491323982e-01	 3.3845561714e+00
 9.0249036049e-01	 5.9591387298e-01	 3.3702391790e+00
 8.9518006746e-01	 6.0684004614e-01	 3.3539377189e+00
 8.8772881049e-01	 6.1768904298e-01	 3.3336385335e+00
 8.8013778714e-01	 6.2845816921e-01	 3.3075506786e+00
 8.7240826297e-01	 6.3914475472e-01	 3.2741157383e+00
 9.1588909858e-01	 5.8891949488e-01	 3.2368946444e+00
 9.0867180132e-01	 5.9999547485e-01	 3.2173357836e+00
 9.0131143779e-01	 6.1099648481e-01	 3.1961844477e+00
 8.9380914481e-01	 6.2191978985e-01	 3.1713463525e+00
 8.8616612814e-01	 6.3276267721e-01	 3.1409523981e+00
 8.7838366203e-01	 6.4352245852e-01	 3.1033689718e+00
 9.2211963666e-01	 5.9292574995e-01	 3.0945790233e+00
 9.1485324214e-01	 6.0407707672e-01	 3.0699811626e+00
 9.0744280812e-01	 6.1515292349e-01	 3.0442273449e+00
 8.9988947913e-01	 6.2615053672e-01	 3.0151226236e+00
 8.9219446915e-01	 6.3706718522e-01	 2.9807016156e+00
 8.8435906110e-01	 6.4790016232e-01	 2.9392389323e+00
 9.2835017475e-01	 5.9693200502e-01	 2.9576946968e+00
 9.2103468297e-01	 6.0815867859e-01	 2.9282062003e+00
 9.1357417844e-01	 6.1930936216e-01	 2.8980603910e+00
 9.0596981344e-01	 6.3038128359e-01	 2.8649424195e+00
 8.9822281016e-01	 6.4137169323e-01	 2.8267728666e+00
 8.9033446016e-01	 6.5227786612e-01	 2.7817183379e+00
 9.3458071283e-01	 6.0093826009e-01	 2.8263276633e+00
 9.2721612379e-01	 6.1224028046e-01	 2.7920435933e+00
 9.1970554877e-01	 6.2346580083e-01	 2.7576801414e+00
 9.1205014776e-01	 6.3461203046e-01	 2.7207837065e+00
 9.0425115117e-01	 6.4567620124e-01	 2.6791434483e+00
 8.9630985922e-01	 6.5665556992e-01	 2.6308020812e+00
 8.6643286391e-01	 6.3476705092e-01	 3.4514898517e+00
 8.5862005335e-01	 6.4529583959e-01	 3.4157983826e+00
 8.5067240454e-01	 6.5573742974e-01	 3.3746030478e+00
 8.4259137311e-01	 6.6608925420e-01	 3.3272067290e+00
 8.3437847937e-01	 6.7634877819e-01	 3.2732035961e+00
 8.2603530747e-01	 6.8651350126e-01	 3.2124864075e+00
 8.7240826297e-01	 6.3914475472e-01	 3.2741157383e+00
 8.6454157096e-01	 6.4974615572e-01	 3.2343443163e+00
 8.5653911078e-01	 6.6025975684e-01	 3.1895694034e+00
 8.4840234809e-01	 6.7068297320e-01	 3.1391161112e+00
 8.4013281372e-01	 6.8101325252e-01	 3.0826086899e+00
 8.3173210270e-01	 6.9124807713e-01	 3.0199777680e+00
 8.7838366203e-01	 6.4352245852e-01	 3.1033689718e+00
 8.7046308857e-01	 6.5419647186e-01	 3.0597508682e+00
 8.6240581701e-01	 6.6478208394e-01	 3.0116140140e+00
 8.5421332308e-01	 6.7527669219e-01	 2.9582743641e+00
 8.4588714806e-01	 6.8567772685e-01	 2.8993545453e+00
 8.3742889792e-01	 6.9598265300e-01	 2.8347910949e+00
 8.8435906110e-01	 6.4790016232e-01	 2.9392389323e+00
 8.7638460618e-01	 6.5864678799e-01	 2.8920341475e+00
 8.6827252325e-01	 6.6930441104e-01	 2.8407766520e+00
 8.6002429807e-01	 6.7987041119e-01	 2.7847424854e+00
 8.5164148240e-01	 6.9034220118e-01	 2.7235215747e+00
 8.4312569314e-01	 7.0071722887e-01	 2.6570250300e+00
 8.9033446016e-01	 6.5227786612e-01	 2.7817183379e+00
 8.8230612378e-01	 6.6309710413e-01	 2.7312128534e+00
 8.7413922949e-01	 6.7382673814e-01	 2.6770990639e+00
 8.6583527305e-01	 6.8446413018e-01	 2.6185829482e+00
 8.5739581674e-01	 6.9500667552e-01	 2.5551912707e+00
 8.4882248837e-01	 7.0545180474e-01	 2.4867789890e+00
 8.9630985922e-01	 6.5665556992e-01	 2.6308020812e+00
 8.8822764139e-01	 6.6754742026e-01	 2.5773071121e+00
 8.8000593573e-01	 6.7834906524e-01	 2.5206238039e+00
 8.7164624804e-01	 6.8905784918e-01	 2.4598585312e+00
 8.6315015108e-01	 6.9967114985e-01	 2.3944450317e+00
 8.5451928359e-01	 7.1018638061e-01	 2.3241519820e+00
 8.2603530747e-01	 6.8651350126e-01	 3.2124864075e+00
 8.1756350435e-01	 6.9658095937e-01	 3.1449244595e+00
 8.0896477873e-01	 7.0654872682e-01	 3.0705519777e+00
 8.0024090001e-01	 7.1641441816e-01	 2.9899999017e+00
 7.9139369702e-01	 7.2617569011e-01	 2.9042536251e+00
 7.8242505680e-01	 7.3583024339e-01	 2.8146574867e+00
 8.3173210270e-01	 6.9124807713e-01	 3.0199777680e+00
 8.2320187334e-01	 7.0138496599e-01	 2.9512530619e+00
 8.1454384617e-01	 7.1142147666e-01	 2.8763234762e+00
 8.0575980277e-01	 7.2135520725e-01	 2.7954132442e+00
 7.9685158459e-01	 7.3118379832e-01	 2.7091128441e+00
 7.8782109168e-01	 7.4090493472e-01	 2.6183854911e+00
 8.3742889792e-01	 6.9598265300e-01	 2.8347910949e+00
 8.2884024234e-01	 7.0618897260e-01	 2.7647763173e+00
 8.2012291361e-01	 7.1629422650e-01	 2.6891101134e+00
 8.1127870553e-01	 7.2629599634e-01	 2.6076598057e+00
 8.0230947216e-01	 7.3619190653e-01	 2.5206715858e+00
 7.9321712655e-01	 7.4597962606e-01	 2.4296703476e+00
 8.4312569314e-01	 7.0071722887e-01	 2.6570250300e+00
 8.3447861133e-01	 7.1099297922e-01	 2.5856157624e+00
 8.2570198105e-01	 7.2116697634e-01	 2.5090657414e+00
 8.1679760829e-01	 7.3123678543e-01	 2.4269341377e+00
 8.0776735972e-01	 7.4120001473e-01	 2.3391768911e+00
 7.9861316142e-01	 7.5105431739e-01	 2.2491745542e+00
 8.4882248837e-01	 7.0545180474e-01	 2.4867789890e+00
 8.4011698033e-01	 7.1579698583e-01	 2.4138933358e+00
 8.3128104849e-01	 7.2603972618e-01	 2.3363440500e+00
 8.2231651105e-01	 7.3617757452e-01	 2.2534299017e+00
 8.1322524729e-01	 7.4620812294e-01	 2.1653670473e+00
 8.0400919630e-01	 7.5612900873e-01	 2.0765767428e+00
 8.5451928359e-01	 7.1018638061e-01	 2.3241519820e+00
 8.4575534933e-01	 7.2060099245e-01	 2.2497301982e+00
 8.3686011593e-01	 7.3091247602e-01	 2.1710973955e+00
 8.2783541381e-01	 7.4111836361e-01	 2.0873394892e+00
 8.1868313485e-01	 7.5121623115e-01	 1.9993888829e+00
 8.0940523117e-01	 7.6120370006e-01	 1.9115452281e+00
 7.8242505680e-01	 7.3583024339e-01	 2.8146574867e+00
 7.7333692324e-01	 7.4537582450e-01	 2.7152838655e+00
 7.6413129569e-01	 7.5481022750e-01	 2.6050868535e+00
 7.5481022750e-01	 7.6413129569e-01	 2.4875116411e+00
 7.4537582450e-01	 7.7333692324e-01	 2.3650780150e+00
 7.3583024339e-01	 7.8242505680e-01	 2.2411843352e+00
 7.8782109168e-01	 7.4090493472e-01	 2.6183854911e+00
 7.7867028133e-01	 7.5051634743e-01	 2.5197389404e+00
 7.6940116669e-01	 7.6001581528e-01	 2.4107029546e+00
 7.6001581528e-01	 7.6940116669e-01	 2.2944474528e+00
 7.5051634743e-01	 7.7867028133e-01	 2.1741858368e+00
 7.4090493472e-01	 7.8782109168e-01	 2.0531466329e+00
 7.9321712655e-01	 7.4597962606e-01	 2.4296703476e+00
 7.8400363942e-01	 7.5565687036e-01	 2.3324416044e+00
 7.7467103770e-01	 7.6522140306e-01	 2.2243179477e+00
 7.6522140306e-01	 7.7467103770e-01	 2.1091368266e+00
 7.5565687036e-01	 7.8400363942e-01	 1.9907747840e+00
 7.4597962606e-01	 7.9321712655e-01	 1.8731165934e+00
 7.9861316142e-01	 7.5105431739e-01	 2.2491745542e+00
 7.8933699751e-01	 7.6079739329e-01	 2.1531273196e+00
 7.7994090870e-01	 7.7042699083e-01	 2.0457100194e+00
 7.7042699083e-01	 7.7994090870e-01	 1.9313981779e+00
 7.6079739329e-01	 7.8933699751e-01	 1.8147017833e+00
 7.5105431739e-01	 7.9861316142e-01	 1.7001319325e+00
 8.0400919630e-01	 7.5612900873e-01	 2.0765767428e+00
 7.9467035560e-01	 7.6593791621e-01	 1.9815193824e+00
 7.8521077971e-01	 7.7563257861e-01	 1.8746439314e+00
 7.7563257861e-01	 7.8521077971e-01	 1.7610352901e+00
 7.6593791621e-01	 7.9467035560e-01	 1.6458079595e+00
 7.5612900873e-01	 8.0400919630e-01	 1.5340702071e+00
 8.0940523117e-01	 7.6120370006e-01	 1.9115452281e+00
 8.0000371369e-01	 7.7107843914e-01	 1.8173294681e+00
 7.9048065071e-01	 7.8083816638e-01	 1.7108715824e+00
 7.8083816638e-01	 7.9048065071e-01	 1.5978378899e+00
 7.7107843914e-01	 8.0000371369e-01	 1.4839192226e+00
 7.6120370006e-01	 8.0940523117e-01	 1.3747926217e+00
 7.3583024339e-01	 7.8242505680e-01	 2.2411843352e+00
 7.2617569011e-01	 7.9139369702e-01	 2.1137934210e+00
 7.1641441816e-01	 8.0024090001e-01	 1.9766858312e+00
 7.0654872682e-01	 8.0896477873e-01	 1.8316055409e+00
 6.9658095937e-01	 8.1756350435e-01	 1.6799413655e+00
 6.8651350126e-01	 8.2603530747e-01	 1.5227285955e+00
 7.4090493472e-01	 7.8782109168e-01	 2.0531466329e+00
 7.3118379832e-01	 7.9685158459e-01	 1.9278525801e+00
 7.2135520725e-01	 8.0575980277e-01	 1.7940338441e+00
 7.1142147666e-01	 8.1454384617e-01	 1.6531324822e+00
 7.0138496599e-01	 8.2320187334e-01	 1.5062214094e+00
 6.9124807713e-01	 8.3173210270e-01	 1.3540078089e+00
 7.4597962606e-01	 7.9321712655e-01	 1.8731165934e+00
 7.3619190653e-01	 8.0230947216e-01	 1.7504182207e+00
 7.2629599634e-01	 8.1127870553e-01	 1.6195103922e+00
 7.1629422650e-01	 8.2012291361e-01	 1.4824237547e+00
 7.0618897260e-01	 8.2884024234e-01	 1.3399401529e+00
 6.9598265300e-01	 8.3742889792e-01	 1.1924626635e+00
 7.5105431739e-01	 7.9861316142e-01	 1.7001319325e+00
 7.4120001473e-01	 8.0776735972e-01	 1.5811077916e+00
 7.3123678543e-01	 8.1679760829e-01	 1.4527614331e+00
 7.2116697634e-01	 8.2570198105e-01	 1.3191440354e+00
 7.1099297922e-01	 8.3447861133e-01	 1.1807756062e+00
 7.0071722887e-01	 8.4312569314e-01	 1.0377786152e+00
 7.5612900873e-01	 8.0400919630e-01	 1.5340702071e+00
 7.4620812294e-01	 8.1322524729e-01	 1.4189127419e+00
 7.3617757452e-01	 8.2231651105e-01	 1.2934248363e+00
 7.2603972618e-01	 8.3128104849e-01	 1.1629494920e+00
 7.1579698583e-01	 8.4011698033e-01	 1.0283970125e+00
 7.0545180474e-01	 8.4882248837e-01	 8.8963227363e-01
 7.6120370006e-01	 8.0940523117e-01	 1.3747926217e+00
 7.5121623115e-01	 8.1868313485e-01	 1.2632053054e+00
 7.4111836361e-01	 8.2783541381e-01	 1.1411287983e+00
 7.3091247602e-01	 8.3686011593e-01	 1.0134880683e+00
 7.2060099245e-01	 8.4575534933e-01	 8.8246514332e-01
 7.1018638061e-01	 8.5451928359e-01	 7.4769169969e-01
 6.8651350126e-01	 8.2603530747e-01	 1.5227285955e+00
 6.7634877819e-01	 8.3437847937e-01	 1.3608324345e+00
 6.6608925420e-01	 8.4259137311e-01	 1.1946613570e+00
 6.5573742974e-01	 8.5067240454e-01	 1.0240730217e+00
 6.4529583959e-01	 8.5862005335e-01	 8.4862560890e-01
 6.3476705092e-01	 8.6643286391e-01	 6.6758623615e-01
 6.9124807713e-01	 8.3173210270e-01	 1.3540078089e+00
 6.8101325252e-01	 8.4013281372e-01	 1.1972644553e+00
 6.7068297320e-01	 8.4840234809e-01	 1.0365575547e+00
 6.6025975684e-01	 8.5653911078e-01	 8.7177280733e-01
 6.4974615572e-01	 8.6454157096e-01	 7.0248259001e-01
 6.3914475472e-01	 8.7240826297e-01	 5.2795456284e-01
 6.9598265300e-01	 8.3742889792e-01	 1.1924626635e+00
 6.8567772685e-01	 8.4588714806e-01	 1.0406735554e+00
 6.7527669219e-01	 8.5421332308e-01	 8.8526131467e-01
 6.6478208394e-01	 8.6240581701e-01	 7.2610760543e-01
 6.5419647186e-01	 8.7046308857e-01	 5.6276781993e-01
 6.4352245852e-01	 8.7838366203e-01	 3.9447994449e-01
 7.0071722887e-01	 8.4312569314e-01	 1.0377786152e+00
 6.9034220118e-01	 8.5164148240e-01	 8.9075521848e-01
 6.7987041119e-01	 8.6002429807e-01	 7.4048994654e-01
 6.6930441104e-01	 8.6827252325e-01	 5.8682896194e-01
 6.5864678799e-01	 8.7638460618e-01	 4.2928008750e-01
 6.4790016232e-01	 8.8435906110e-01	 2.6702199806e-01
 7.0545180474e-01	 8.4882248837e-01	 8.8963227363e-01
 6.9500667552e-01	 8.5739581674e-01	 7.4719595272e-01
 6.8446413018e-01	 8.6583527305e-01	 6.0195135765e-01
 6.7382673814e-01	 8.7413922949e-01	 4.5367827953e-01
 6.6309710413e-01	 8.8230612378e-01	 3.0180696645e-01
 6.5227786612e-01	 8.9033446016e-01	 1.4542770705e-01
 7.1018638061e-01	 8.5451928359e-01	 7.4769169969e-01
 6.9967114985e-01	 8.6315015108e-01	 6.0967359228e-01
 6.8905784918e-01	 8.7164624804e-01	 4.6934436757e-01
 6.7834906524e-01	 8.8000593573e-01	 3.2638715495e-01
 6.6754742026e-01	 8.8822764139e-01	 1.8012518648e-01
 6.5665556992e-01	 8.9630985922e-01	 2.9531837451e-02
 6.3476705092e-01	 8.6643286391e-01	 6.6758623615e-01
 6.2415366120e-01	 8.7410944613e-01	 4.8235839203e-01
 6.1345829611e-01	 8.8164847617e-01	 2.9454664761e-01
 6.0268360747e-01	 8.8904869714e-01	 1.0332567413e-01
 5.9183227111e-01	 8.9630891967e-01	-9.2363042477e-02
 5.8090698475e-01	 9.0342802240e-01	-2.9379967544e-01
 6.3914475472e-01	 8.7240826297e-01	 5.2795456284e-01
 6.2845816921e-01	 8.8013778714e-01	 3.4972702312e-01
 6.1768904298e-01	 8.8772881049e-01	 1.6947004694e-01
 6.0684004614e-01	 8.9518006746e-01	-1.3757012316e-02
 5.9591387298e-01	 9.0249036049e-01	-2.0113004530e-01
 5.8491323982e-01	 9.0965856049e-01	-3.9404822704e-01
 6.4352245852e-01	 8.7838366203e-01	 3.9447994449e-01
 6.3276267721e-01	 8.8616612814e-01	 2.2293934646e-01
 6.2191978985e-01	 8.9380914481e-01	 4.9932059045e-02
 6.1099648481e-01	 9.0131143779e-01	-1.2558769501e-01
 5.9999547485e-01	 9.0867180132e-01	-3.0490651566e-01
 5.8891949488e-01	 9.1588909858e-01	-4.8953941761e-01
 6.4790016232e-01	 8.8435906110e-01	 2.6702199806e-01
 6.3706718522e-01	 8.9219446915e-01	 1.0190424248e-01
 6.2615053672e-01	 8.9988947913e-01	-6.4146438853e-02
 6.1515292349e-01	 9.0744280812e-01	-2.3227099546e-01
 6.0407707672e-01	 9.1485324214e-01	-4.0386025288e-01
 5.9292574995e-01	 9.2211963666e-01	-5.8054204198e-01
 6.5227786612e-01	 8.9033446016e-01	 1.4542770705e-01
 6.4137169323e-01	 8.9822281016e-01	-1.3483131770e-02
 6.3038128359e-01	 9.0596981344e-01	-1.7285836476e-01
 6.1930936216e-01	 9.1357417844e-01	-3.3392437818e-01
 6.0815867859e-01	 9.2103468297e-01	-4.9816991845e-01
 5.9693200502e-01	 9.2835017475e-01	-6.6733274408e-01
 6.5665556992e-01	 8.9630985922e-01	 2.9531837451e-02
 6.4567620124e-01	 9.0425115117e-01	-1.2334089327e-01
 6.3461203046e-01	 9.1205014776e-01	-2.7630998337e-01
 6.2346580083e-01	 9.1970554877e-01	-4.3067773755e-01
 6.1224028046e-01	 9.2721612379e-01	-5.8802469281e-01
 6.0093826009e-01	 9.3458071283e-01	-7.5019577843e-01
 5.8090698475e-01	 9.0342802240e-01	-2.9379967544e-01
 5.6991046586e-01	 9.1040495248e-01	-4.9776250616e-01
 5.5884544953e-01	 9.1723872582e-01	-7.0090014939e-01
 5.4771468629e-01	 9.2392842743e-01	-9.0457888665e-01
 5.3652094003e-01	 9.3047321160e-01	-1.1103170813e+00
 5.2526698577e-01	 9.3687230200e-01	-1.3197720862e+00
 5.8491323982e-01	 9.0965856049e-01	-3.9404822704e-01
 5.7384088287e-01	 9.1668360732e-01	-5.8927894459e-01
 5.6269955608e-01	 9.2356451013e-01	-7.8343459241e-01
 5.5149202896e-01	 9.3030034762e-01	-9.7797271673e-01
 5.4022108444e-01	 9.3689026823e-01	-1.1745149446e+00
 5.2888951671e-01	 9.4333349029e-01	-1.3748333723e+00
 5.8891949488e-01	 9.1588909858e-01	-4.8953941761e-01
 5.7777129987e-01	 9.2296226217e-01	-6.7628724610e-01
 5.6655366263e-01	 9.2989029445e-01	-8.6177633658e-01
 5.5526937162e-01	 9.3667226781e-01	-1.0475593294e+00
 5.4392122886e-01	 9.4330732487e-01	-1.2353592051e+00
 5.3251204765e-01	 9.4979467858e-01	-1.4270552177e+00
 5.9292574995e-01	 9.2211963666e-01	-5.8054204198e-01
 5.8170171688e-01	 9.2924091701e-01	-7.5914183071e-01
 5.7040776917e-01	 9.3621607877e-01	-9.3629683656e-01
 5.5904671429e-01	 9.4304418800e-01	-1.1136587403e+00
 5.4762137327e-01	 9.4972438150e-01	-1.2930501620e+00
 5.3613457858e-01	 9.5625586687e-01	-1.4764502043e+00
 5.9693200502e-01	 9.2835017475e-01	-6.6733274408e-01
 5.8563213389e-01	 9.3551957186e-01	-8.3820235047e-01
 5.7426187572e-01	 9.4254186308e-01	-1.0073719868e+00
 5.6282405695e-01	 9.4941610819e-01	-1.1765964342e+00
 5.5132151768e-01	 9.5614143813e-01	-1.3477964308e+00
 5.3975710952e-01	 9.6271705516e-01	-1.5230438867e+00
 6.0093826009e-01	 9.3458071283e-01	-7.5019577843e-01
 5.8956255089e-01	 9.4179822670e-01	-9.1383354260e-01
 5.7811598227e-01	 9.4886764740e-01	-1.0753820057e+00
 5.6660139962e-01	 9.5578802838e-01	-1.2367032208e+00
 5.5502166210e-01	 9.6255849476e-01	-1.3998147086e+00
 5.4337964046e-01	 9.6917824345e-01	-1.5668744079e+00
 5.2526698577e-01	 9.3687230200e-01	-1.3197720862e+00
 5.1395560762e-01	 9.4312499171e-01	-1.5308273523e+00
 5.0258959659e-01	 9.4923064321e-01	-1.7409480836e+00
 4.9117174849e-01	 9.5518868821e-01	-1.9513098240e+00
 4.7970486186e-01	 9.6099862752e-01	-2.1631445185e+00
 4.6819173590e-01	 9.6666003074e-01	-2.3777286065e+00
 5.2888951671e-01	 9.4333349029e-01	-1.3748333723e+00
 5.1750012906e-01	 9.4962930200e-01	-1.5766133873e+00
 5.0605573174e-01	 9.5577706143e-01	-1.7770696188e+00
 4.9455913986e-01	 9.6177619641e-01	-1.9774161064e+00
 4.8301317126e-01	 9.6762620426e-01	-2.1789154981e+00
 4.7142064442e-01	 9.7332665164e-01	-2.3828670255e+00
 5.3251204765e-01	 9.4979467858e-01	-1.4270552177e+00
 5.2104465049e-01	 9.5613361229e-01	-1.6200553505e+00
 5.0952186689e-01	 9.6232347966e-01	-1.8112641456e+00
 4.9794653123e-01	 9.6836370460e-01	-2.0019572072e+00
 4.8632148065e-01	 9.7425378101e-01	-2.1934576693e+00
 4.7464955295e-01	 9.7999327254e-01	-2.3871238940e+00
 5.3613457858e-01	 9.5625586687e-01	-1.4764502043e+00
 5.2458917192e-01	 9.6263792257e-01	-1.6609847001e+00
 5.1298800203e-01	 9.6886989789e-01	-1.8432626312e+00
 5.0133392259e-01	 9.7495121279e-01	-2.0246436682e+00
 4.8962979004e-01	 9.8088135775e-01	-2.2065405573e+00
 4.7787846147e-01	 9.8665989345e-01	-2.3904063889e+00
 5.3975710952e-01	 9.6271705516e-01	-1.5230438867e+00
 5.2813369335e-01	 9.6914223286e-01	-1.6992503315e+00
 5.1645413718e-01	 9.7541631612e-01	-1.8728157645e+00
 5.0472131396e-01	 9.8153872099e-01	-2.0452058724e+00
 4.9293809943e-01	 9.8750893449e-01	-2.2179515033e+00
 4.8110736999e-01	 9.9332651435e-01	-2.3926353508e+00
 5.4337964046e-01	 9.6917824345e-01	-1.5668744079e+00
 5.3167821478e-01	 9.7564654315e-01	-1.7347180490e+00
 5.1992027233e-01	 9.8196273435e-01	-1.8996933566e+00
 5.0810870533e-01	 9.8812622918e-01	-2.0633934472e+00
 4.9624640883e-01	 9.9413651123e-01	-2.2274951396e+00
 4.8433627852e-01	 9.9999313525e-01	-2.3937449035e+00
 4.6819173590e-01	 9.6666003074e-01	-2.3777286065e+00
 4.5663516837e-01	 9.7217253593e-01	-2.5912966219e+00
 4.4503795361e-01	 9.7753584919e-01	-2.7998813624e+00
 4.3340288052e-01	 9.8274974421e-01	-3.0044995022e+00
 4.2173273062e-01	 9.8781406172e-01	-3.2061812836e+00
 4.1003027606e-01	 9.9272870882e-01	-3.4059598450e+00
 4.7142064442e-01	 9.7332665164e-01	-2.3828670255e+00
 4.5978437643e-01	 9.7887717410e-01	-2.5856279158e+00
 4.4810718087e-01	 9.8427747573e-01	-2.7834545784e+00
 4.3639186590e-01	 9.8952732866e-01	-2.9775349679e+00
 4.2464123221e-01	 9.9462657249e-01	-3.1690742628e+00
 4.1285807107e-01	 9.9957511371e-01	-3.3592835825e+00
 4.7464955295e-01	 9.7999327254e-01	-2.3871238940e+00
 4.6293358448e-01	 9.8558181228e-01	-2.5795120901e+00
 4.5117640814e-01	 9.9101910228e-01	-2.7671113798e+00
 4.3938085129e-01	 9.9630491310e-01	-2.9512182482e+00
 4.2754973380e-01	 1.0014390833e+00	-3.1331460562e+00
 4.1568586608e-01	 1.0064215186e+00	-3.3142133562e+00
 4.7787846147e-01	 9.8665989345e-01	-2.3904063889e+00
 4.6608279254e-01	 9.9228645046e-01	-2.5730040161e+00
 4.5424563541e-01	 9.9776072883e-01	-2.7509972998e+00
 4.4236983667e-01	 1.0030824975e+00	-2.9257300643e+00
 4.3045823539e-01	 1.0082515940e+00	-3.0985587101e+00
 4.1851366108e-01	 1.0132679235e+00	-3.2708403350e+00
 4.8110736999e-01	 9.9332651435e-01	-2.3926353508e+00
 4.6923200060e-01	 9.9899108864e-01	-2.5661677940e+00
 4.5731486267e-01	 1.0045023554e+00	-2.7352641840e+00
 4.4535882205e-01	 1.0098600820e+00	-2.9012560095e+00
 4.3336673698e-01	 1.0150641048e+00	-3.0654791360e+00
 4.2134145609e-01	 1.0201143284e+00	-3.2292619372e+00
 4.8433627852e-01	 9.9999313525e-01	-2.3937449035e+00
 4.7238120866e-01	 1.0056957268e+00	-2.5590765253e+00
 4.6038408994e-01	 1.0112439819e+00	-2.7200700643e+00
 4.4834780744e-01	 1.0166376664e+00	-2.8779864763e+00
 4.3627523857e-01	 1.0218766156e+00	-3.0340790438e+00
 4.2416925110e-01	 1.0269607333e+00	-3.1895817217e+00
 4.1003027606e-01	 9.9272870882e-01	-3.4059598450e+00
 3.9829827779e-01	 9.9749365838e-01	-3.6064113534e+00
 3.8653948365e-01	 1.0021089483e+00	-3.8089924904e+00
 3.7475662655e-01	 1.0065746805e+00	-4.0129813733e+00
 3.6295242274e-01	 1.0108910205e+00	-4.2146364510e+00
 3.5112957002e-01	 1.0150581962e+00	-4.4013761759e+00
 4.1285807107e-01	 9.9957511371e-01	-3.3592835825e+00
 4.0104516247e-01	 1.0043729250e+00	-3.5503416597e+00
 3.8920527319e-01	 1.0090200445e+00	-3.7430851364e+00
 3.7734115501e-01	 1.0135165749e+00	-3.9366428327e+00
 3.6545554290e-01	 1.0178626828e+00	-4.1287958891e+00
 3.5355115326e-01	 1.0220585975e+00	-4.3069487070e+00
 4.1568586608e-01	 1.0064215186e+00	-3.3142133562e+00
 4.0379204714e-01	 1.0112521916e+00	-3.4961669665e+00
 3.9187106273e-01	 1.0159311406e+00	-3.6792893705e+00
 3.7992568347e-01	 1.0204584692e+00	-3.8626353892e+00
 3.6795866305e-01	 1.0248343450e+00	-4.0448758195e+00
 3.5597273650e-01	 1.0290589989e+00	-4.2148099922e+00
 4.1851366108e-01	 1.0132679235e+00	-3.2708403350e+00
 4.0653893181e-01	 1.0181314582e+00	-3.4438705184e+00
 3.9453685227e-01	 1.0228422368e+00	-3.6174565241e+00
 3.8251021193e-01	 1.0274003636e+00	-3.7906530526e+00
 3.7046178321e-01	 1.0318060072e+00	-3.9624263593e+00
 3.5839431974e-01	 1.0360594003e+00	-4.1242670672e+00
 4.2134145609e-01	 1.0201143284e+00	-3.2292619372e+00
 4.0928581649e-01	 1.0250107248e+00	-3.3934441774e+00
 3.9720264181e-01	 1.0297533330e+00	-3.5574495477e+00
 3.8509474039e-01	 1.0343422579e+00	-3.7204051275e+00
 3.7296490337e-01	 1.0387776694e+00	-3.8813478276e+00
 3.6081590298e-01	 1.0430598016e+00	-4.0346614604e+00
 4.2416925110e-01	 1.0269607333e+00	-3.1895817217e+00
 4.1203270116e-01	 1.0318899914e+00	-3.3448882394e+00
 3.9986843136e-01	 1.0366644292e+00	-3.4991427317e+00
 3.8767926885e-01	 1.0412841523e+00	-3.6516158144e+00
 3.7546802352e-01	 1.0457493316e+00	-3.8014836017e+00
 3.6323748623e-01	 1.0500602030e+00	-3.9453690448e+00
 3.5112957002e-01	 1.0150581962e+00	-4.4013761759e+00
 3.3929074608e-01	 1.0190764967e+00	-4.5788578806e+00
 3.2743860686e-01	 1.0229462720e+00	-4.7554031780e+00
 3.1557578495e-01	 1.0266679310e+00	-4.9304473860e+00
 3.0370488806e-01	 1.0302419413e+00	-5.1031478465e+00
 2.9182849751e-01	 1.0336688274e+00	-5.2723872644e+00
 3.5355115326e-01	 1.0220585975e+00	-4.3069487070e+00
 3.4163068226e-01	 1.0261046105e+00	-4.4755034270e+00
 3.2969680415e-01	 1.0300010738e+00	-4.6430713370e+00
 3.1775216967e-01	 1.0337483995e+00	-4.8090288010e+00
 3.0579940453e-01	 1.0373470581e+00	-4.9724399725e+00
 2.9384110784e-01	 1.0407975779e+00	-5.1320608791e+00
 3.5597273650e-01	 1.0290589989e+00	-4.2148099922e+00
 3.4397061844e-01	 1.0331327243e+00	-4.3749457063e+00
 3.3195500144e-01	 1.0370558757e+00	-4.5340549960e+00
 3.1992855440e-01	 1.0408288680e+00	-4.6914413960e+00
 3.0789392100e-01	 1.0444521750e+00	-4.8460682998e+00
 2.9585371817e-01	 1.0479263284e+00	-4.9965636674e+00
 3.5839431974e-01	 1.0360594003e+00	-4.1242670672e+00
 3.4631055462e-01	 1.0401608381e+00	-4.2762830619e+00
 3.3421319873e-01	 1.0441106776e+00	-4.4273371625e+00
 3.2210493912e-01	 1.0479093365e+00	-4.5766463317e+00
 3.0998843746e-01	 1.0515572918e+00	-4.7230656377e+00
 2.9786632850e-01	 1.0550550790e+00	-4.8650934657e+00
 3.6081590298e-01	 1.0430598016e+00	-4.0346614604e+00
 3.4865049080e-01	 1.0471889518e+00	-4.1786507946e+00
 3.3647139601e-01	 1.0511654795e+00	-4.3219379668e+00
 3.2428132384e-01	 1.0549898050e+00	-4.4636397585e+00
 3.1208295393e-01	 1.0586624086e+00	-4.6024953591e+00
 2.9987893882e-01	 1.0621838295e+00	-4.7368719621e+00
 3.6323748623e-01	 1.0500602030e+00	-3.9453690448e+00
 3.5099042698e-01	 1.0542170656e+00	-4.0812208353e+00
 3.3872959330e-01	 1.0582202813e+00	-4.2169142344e+00
 3.2645770857e-01	 1.0620702735e+00	-4.3514523710e+00
 3.1417747040e-01	 1.0657675255e+00	-4.4834510182e+00
 3.0189154915e-01	 1.0693125800e+00	-4.6111444575e+00
 2.9182849751e-01	 1.0336688274e+00	-5.2723872644e+00
 2.7994916685e-01	 1.0369491697e+00	-5.4361394159e+00
 2.6806942039e-01	 1.0400836036e+00	-5.5934928441e+00
 2.5619175197e-01	 1.0430728176e+00	-5.7446192973e+00
 2.4431862363e-01	 1.0459175526e+00	-5.8894574782e+00
 2.3245246441e-01	 1.0486186001e+00	-6.0277246749e+00
 2.9384110784e-01	 1.0407975779e+00	-5.1320608791e+00
 2.8187985076e-01	 1.0441005433e+00	-5.2860716475e+00
 2.6991817501e-01	 1.0472565940e+00	-5.4339699689e+00
 2.5795859164e-01	 1.0502664232e+00	-5.5760714474e+00
 2.4600357966e-01	 1.0531307771e+00	-5.7124466643e+00
 2.3405558486e-01	 1.0558504525e+00	-5.8429330647e+00
 2.9585371817e-01	 1.0479263284e+00	-4.9965636674e+00
 2.8381053466e-01	 1.0512519169e+00	-5.1414236422e+00
 2.7176692964e-01	 1.0544295843e+00	-5.2806167702e+00
 2.5972543131e-01	 1.0574600289e+00	-5.4145309453e+00
 2.4768853568e-01	 1.0603440016e+00	-5.5432935275e+00
 2.3565870530e-01	 1.0630823049e+00	-5.6667837332e+00
 2.9786632850e-01	 1.0550550790e+00	-4.8650934657e+00
 2.8574121857e-01	 1.0584032905e+00	-5.0015818746e+00
 2.7361568426e-01	 1.0616025747e+00	-5.1329634128e+00
 2.6149227098e-01	 1.0646536345e+00	-5.2596283090e+00
 2.4937349171e-01	 1.0675572261e+00	-5.3816872216e+00
 2.3726182574e-01	 1.0703141573e+00	-5.4989843776e+00
 2.9987893882e-01	 1.0621838295e+00	-4.7368719621e+00
 2.8767190248e-01	 1.0655546641e+00	-4.8659495479e+00
 2.7546443888e-01	 1.0687755651e+00	-4.9905510973e+00
 2.6325911065e-01	 1.0718472402e+00	-5.1110007869e+00
 2.5105844773e-01	 1.0747704506e+00	-5.2273206671e+00
 2.3886494619e-01	 1.0775460097e+00	-5.3392447946e+00
 3.0189154915e-01	 1.0693125800e+00	-4.6111444575e+00
 2.8960258639e-01	 1.0727060376e+00	-4.7339465179e+00
 2.7731319351e-01	 1.0759485554e+00	-4.8529321041e+00
 2.6502595032e-01	 1.0790408458e+00	-4.9682924799e+00
 2.5274340376e-01	 1.0819836751e+00	-5.0798907127e+00
 2.4046806663e-01	 1.0847778621e+00	-5.1872770418e+00
 2.3245246441e-01	 1.0486186001e+00	-6.0277246749e+00
 2.2059566921e-01	 1.0511768012e+00	-6.1597342794e+00
 2.0875059767e-01	 1.0535930450e+00	-6.2860640767e+00
 1.9691957315e-01	 1.0558682675e+00	-6.4065182640e+00
 1.8510488173e-01	 1.0580034496e+00	-6.5207132870e+00
 1.7330877132e-01	 1.0599996162e+00	-6.6280970323e+00
 2.3405558486e-01	 1.0558504525e+00	-5.8429330647e+00
 2.2211701865e-01	 1.0584262964e+00	-5.9677897086e+00
 2.1019025696e-01	 1.0608592040e+00	-6.0874497172e+00
 1.9827763917e-01	 1.0631501176e+00	-6.2016837056e+00
 1.8638146713e-01	 1.0653000251e+00	-6.3100624231e+00
 1.7450400422e-01	 1.0673099584e+00	-6.4119769601e+00
 2.3565870530e-01	 1.0630823049e+00	-5.6667837332e+00
 2.2363836809e-01	 1.0656757915e+00	-5.7851186533e+00
 2.1162991626e-01	 1.0681253629e+00	-5.8985770333e+00
 1.9963570519e-01	 1.0704319677e+00	-6.0069297164e+00
 1.8765805252e-01	 1.0725966006e+00	-6.1097324204e+00
 1.7569923713e-01	 1.0746203006e+00	-6.2063469938e+00
 2.3726182574e-01	 1.0703141573e+00	-5.4989843776e+00
 2.2515971754e-01	 1.0729252867e+00	-5.6114164772e+00
 2.1306957555e-01	 1.0753915218e+00	-5.7191057285e+00
 2.0099377121e-01	 1.0777138179e+00	-5.8218561572e+00
 1.8893463791e-01	 1.0798931761e+00	-5.9192382742e+00
 1.7689447003e-01	 1.0819306428e+00	-6.0106114205e+00
 2.3886494619e-01	 1.0775460097e+00	-5.3392447946e+00
 2.2668106698e-01	 1.0801747819e+00	-5.4463800209e+00
 2.1450923485e-01	 1.0826576808e+00	-5.5486971975e+00
 2.0235183724e-01	 1.0849956680e+00	-5.6460656481e+00
 1.9021122330e-01	 1.0871897517e+00	-5.7380996783e+00
 1.7808970294e-01	 1.0892409849e+00	-5.8241820482e+00
 2.4046806663e-01	 1.0847778621e+00	-5.1872770418e+00
 2.2820241642e-01	 1.0874242771e+00	-5.2897077332e+00
 2.1594889414e-01	 1.0899238397e+00	-5.3870146057e+00
 2.0370990326e-01	 1.0922775181e+00	-5.4791635726e+00
 1.9148780869e-01	 1.0944863272e+00	-5.5658409279e+00
 1.7928493584e-01	 1.0965513271e+00	-5.6464779844e+00
 1.7330877132e-01	 1.0599996162e+00	-6.6280970323e+00
 1.6153345072e-01	 1.0618578346e+00	-6.7286025657e+00
 1.4978108891e-01	 1.0635792128e+00	-6.8225477864e+00
 1.3805381423e-01	 1.0651648985e+00	-6.9097638172e+00
 1.2635371370e-01	 1.0666160770e+00	-6.9899921044e+00
 1.1468283240e-01	 1.0679339701e+00	-7.0629052999e+00
 1.7450400422e-01	 1.0673099584e+00	-6.4119769601e+00
 1.6264747452e-01	 1.0691809921e+00	-6.5073483040e+00
 1.5081406194e-01	 1.0709142419e+00	-6.5965333658e+00
 1.3900590950e-01	 1.0725108633e+00	-6.6793646785e+00
 1.2722511862e-01	 1.0739720499e+00	-6.7555717239e+00
 1.1547374848e-01	 1.0752990320e+00	-6.8248030232e+00
 1.7569923713e-01	 1.0746203006e+00	-6.2063469938e+00
 1.6376149832e-01	 1.0765041496e+00	-6.2966830398e+00
 1.5184703497e-01	 1.0782492710e+00	-6.3811286625e+00
 1.3995800477e-01	 1.0798568281e+00	-6.4595313916e+00
 1.2809652354e-01	 1.0813280229e+00	-6.5316237714e+00
 1.1626466457e-01	 1.0826640939e+00	-6.5970466151e+00
 1.7689447003e-01	 1.0819306428e+00	-6.0106114205e+00
 1.6487552212e-01	 1.0838273070e+00	-6.0959037959e+00
 1.5288000799e-01	 1.0855843000e+00	-6.1755561727e+00
 1.4091010004e-01	 1.0872027929e+00	-6.2494438393e+00
 1.2896792847e-01	 1.0886839958e+00	-6.3173165699e+00
 1.1705558065e-01	 1.0900291557e+00	-6.3788230024e+00
 1.7808970294e-01	 1.0892409849e+00	-5.8241820482e+00
 1.6598954591e-01	 1.0911504645e+00	-5.9043180283e+00
 1.5391298102e-01	 1.0929193291e+00	-5.9790510312e+00
 1.4186219531e-01	 1.0945487578e+00	-6.0482960534e+00
 1.2983933339e-01	 1.0960399687e+00	-6.1118334204e+00
 1.1784649674e-01	 1.0973942176e+00	-6.1693342479e+00
 1.7928493584e-01	 1.0965513271e+00	-5.6464779844e+00
 1.6710356971e-01	 1.0984736220e+00	-5.7212432803e+00
 1.5494595405e-01	 1.1002543581e+00	-5.7908605699e+00
 1.4281429058e-01	 1.1018947226e+00	-5.8552957057e+00
 1.3071073831e-01	 1.1033959417e+00	-5.9143720501e+00
 1.1863741282e-01	 1.1047592794e+00	-5.9677969843e+00
 1.1468283240e-01	 1.0679339701e+00	-7.0629052999e+00
 1.0304317286e-01	 1.0691198348e+00	-7.1290348897e+00
 9.1436694587e-02	 1.0701749612e+00	-7.1887656170e+00
 7.9865313532e-02	 1.0711006714e+00	-7.2415157765e+00
 6.8330901713e-02	 1.0718983182e+00	-7.2867259755e+00
 5.6835286839e-02	 1.0725692830e+00	-7.3238784311e+00
 1.1547374848e-01	 1.0752990320e+00	-6.8248030232e+00
 1.0375381543e-01	 1.0764930750e+00	-6.8876178801e+00
 9.2067292481e-02	 1.0775554781e+00	-6.9444235167e+00
 8.0416108798e-02	 1.0784875726e+00	-6.9945938518e+00
 6.8802149311e-02	 1.0792907204e+00	-7.0375208900e+00
 5.7227254335e-02	 1.0799663125e+00	-7.0726351266e+00
 1.1626466457e-01	 1.0826640939e+00	-6.5970466151e+00
 1.0446445800e-01	 1.0838663153e+00	-6.6564171148e+00
 9.2697890375e-02	 1.0849359951e+00	-6.7101847617e+00
 8.0966904063e-02	 1.0858744738e+00	-6.7576805808e+00
 6.9273396909e-02	 1.0866831225e+00	-6.7982487694e+00
 5.7619221830e-02	 1.0873633420e+00	-6.8312682615e+00
 1.1705558065e-01	 1.0900291557e+00	-6.3788230024e+00
 1.0517510058e-01	 1.0912395555e+00	-6.4346508098e+00
 9.3328488268e-02	 1.0923165121e+00	-6.4852943509e+00
 8.1517699329e-02	 1.0932613750e+00	-6.5300427533e+00
 6.9744644507e-02	 1.0940755247e+00	-6.5681927226e+00
 5.8011189326e-02	 1.0947603716e+00	-6.5990713155e+00
 1.1784649674e-01	 1.0973942176e+00	-6.1693342479e+00
 1.0588574315e-01	 1.0986127957e+00	-6.2215522633e+00
 9.3959086162e-02	 1.0996970290e+00	-6.2690125469e+00
 8.2068494595e-02	 1.1006482761e+00	-6.3109628421e+00
 7.0215892105e-02	 1.1014679269e+00	-6.3466521971e+00
 5.8403156821e-02	 1.1021574011e+00	-6.3753549985e+00
 1.1863741282e-01	 1.1047592794e+00	-5.9677969843e+00
 1.0659638572e-01	 1.1059860360e+00	-6.0163692838e+00
 9.4589684056e-02	 1.1070775460e+00	-6.0606142963e+00
 8.2619289860e-02	 1.1080351773e+00	-6.0997384090e+00
 7.0687139703e-02	 1.1088603291e+00	-6.1329423656e+00
 5.8795124316e-02	 1.1095544307e+00	-6.1594466132e+00
 5.6835286839e-02	 1.0725692830e+00	-7.3238784311e+00
 4.5380252003e-02	 1.0731149749e+00	-7.3541977678e+00
 3.3967535415e-02	 1.0735368290e+00	-7.3786082979e+00
 2.2598830198e-02	 1.0738363048e+00	-7.3962799332e+00
 1.1275784225e-02	 1.0740148850e+00	-7.4065224146e+00
-6.6715116948e-318	 1.0740775798e+00	-7.4087186885e+00
 5.7227254335e-02	 1.0799663125e+00	-7.0726351266e+00
 4.5693219258e-02	 1.0805157678e+00	-7.1012678109e+00
 3.4201794280e-02	 1.0809405312e+00	-7.1244427765e+00
 2.2754684200e-02	 1.0812420724e+00	-7.1412659915e+00
 1.1353548254e-02	 1.0814218842e+00	-7.1509841948e+00
-5.7381821646e-318	 1.0814853520e+00	-7.1529104774e+00
 5.7619221830e-02	 1.0873633420e+00	-6.8312682615e+00
 4.6006186513e-02	 1.0879165607e+00	-6.8581760576e+00
 3.4436053145e-02	 1.0883442335e+00	-6.8800884335e+00
 2.2910538201e-02	 1.0886478400e+00	-6.8960381810e+00
 1.1431312283e-02	 1.0888288835e+00	-6.9052003184e+00
-4.6088864366e-318	 1.0888931281e+00	-6.9068098533e+00
 5.8011189326e-02	 1.0947603716e+00	-6.5990713155e+00
 4.6319153768e-02	 1.0953173537e+00	-6.6242260930e+00
 3.4670312010e-02	 1.0957479358e+00	-6.6448644678e+00
 2.3066392202e-02	 1.0960536076e+00	-6.6599364888e+00
 1.1509076312e-02	 1.0962358827e+00	-6.6685363974e+00
-3.4128819651e-318	 1.0963009080e+00	-6.6698125784e+00
 5.8403156821e-02	 1.1021574011e+00	-6.3753549985e+00
 4.6632121023e-02	 1.1027181466e+00	-6.3987396931e+00
 3.4904570875e-02	 1.1031516380e+00	-6.4181091323e+00
 2.3222246204e-02	 1.1034593753e+00	-6.4323207152e+00
 1.1586840341e-02	 1.1036428819e+00	-6.4403785090e+00
-2.2794212637e-318	 1.1037086916e+00	-6.4413354220e+00
 5.8795124316e-02	 1.1095544307e+00	-6.1594466132e+00
 4.6945088279e-02	 1.1101189395e+00	-6.1810561651e+00
 3.5138829740e-02	 1.1105553403e+00	-6.1991790553e+00
 2.3378100205e-02	 1.1108651429e+00	-6.2125697829e+00
 1.1664604370e-02	 1.1110498811e+00	-6.2201324968e+00
-1.3377716679e-318	 1.1111164789e+00	-6.2208154621e+00
 1.1111111111e+00	 0.0000000000e+00	 2.3645346554e+00
 1.1110498811e+00	 1.1664604370e-02	 2.3645351725e+00
 1.1108651429e+00	 2.3378100205e-02	 2.3667768737e+00
 1.1105553403e+00	 3.5138829740e-02	 2.3706114105e+00
 1.1101189395e+00	 4.6945088279e-02	 2.3756238423e+00
 1.1095544307e+00	 5.8795124316e-02	 2.3816187270e+00
 1.1185185185e+00	 0.0000000000e+00	 2.4638605613e+00
 1.1184568803e+00	 1.1742368399e-02	 2.4636605545e+00
 1.1182709105e+00	 2.3533954207e-02	 2.4654331749e+00
 1.1179590426e+00	 3.5373088604e-02	 2.4685170773e+00
 1.1175197325e+00	 4.7258055534e-02	 2.4724839953e+00
 1.1169514602e+00	 5.9187091812e-02	 2.4771294128e+00
 1.1259259259e+00	 0.0000000000e+00	 2.5585461214e+00
 1.1258638795e+00	 1.1820132429e-02	 2.5581592299e+00
 1.1256766781e+00	 2.3689808208e-02	 2.5594936629e+00
 1.1253627448e+00	 3.5607347469e-02	 2.5618721512e+00
 1.1249205254e+00	 4.7571022789e-02	 2.5648415859e+00
 1.1243484897e+00	 5.9579059307e-02	 2.5681642245e+00
 1.1333333333e+00	 0.0000000000e+00	 2.6483499134e+00
 1.1332708787e+00	 1.1897896458e-02	 2.6477878714e+00
 1.1330824457e+00	 2.3845662209e-02	 2.6487206229e+00
 1.1327664471e+00	 3.5841606334e-02	 2.6504607637e+00
 1.1323213183e+00	 4.7883990044e-02	 2.6525355717e+00
 1.1317455193e+00	 5.9971026803e-02	 2.6546787804e+00
 1.1407407407e+00	 0.0000000000e+00	 2.7330353327e+00
 1.1406778779e+00	 1.1975660487e-02	 2.7323074909e+00
 1.1404882134e+00	 2.4001516211e-02	 2.7328768324e+00
 1.1401701494e+00	 3.6075865199e-02	 2.7340511564e+00
 1.1397221113e+00	 4.8196957299e-02	 2.7353428851e+00
 1.1391425488e+00	 6.0362994298e-02	 2.7364614399e+00
 1.1481481481e+00	 0.0000000000e+00	 2.8123704373e+00
 1.1480848771e+00	 1.2053424516e-02	 2.8114835426e+00
 1.1478939810e+00	 2.4157370212e-02	 2.8117293960e+00
 1.1475738516e+00	 3.6310124064e-02	 2.8124158819e+00
 1.1471229042e+00	 4.8509924555e-02	 2.8130448457e+00
 1.1465395783e+00	 6.0754961794e-02	 2.8133051103e+00
 1.1095544307e+00	 5.8795124316e-02	 2.3816187270e+00
 1.1088603291e+00	 7.0687139703e-02	 2.3890336952e+00
 1.1080351773e+00	 8.2619289860e-02	 2.3980911455e+00
 1.1070775460e+00	 9.4589684056e-02	 2.4085438167e+00
 1.1059860360e+00	 1.0659638572e-01	 2.4202818596e+00
 1.1047592794e+00	 1.1863741282e-01	 2.4333100342e+00
 1.1169514602e+00	 5.9187091812e-02	 2.4771294128e+00
 1.1162527313e+00	 7.1158387301e-02	 2.4829148030e+00
 1.1154220785e+00	 8.3170085126e-02	 2.4900864003e+00
 1.1144580630e+00	 9.5220281949e-02	 2.4984187861e+00
 1.1133592762e+00	 1.0730702829e-01	 2.5078655548e+00
 1.1121243413e+00	 1.1942832891e-01	 2.5185495911e+00
 1.1243484897e+00	 5.9579059307e-02	 2.5681642245e+00
 1.1236451335e+00	 7.1629634899e-02	 2.5722847881e+00
 1.1228089797e+00	 8.3720880392e-02	 2.5774180569e+00
 1.1218385800e+00	 9.5850879843e-02	 2.5832726449e+00
 1.1207325165e+00	 1.0801767086e-01	 2.5897305515e+00
 1.1194894032e+00	 1.2021924499e-01	 2.5968384049e+00
 1.1317455193e+00	 5.9971026803e-02	 2.6546787804e+00
 1.1310375357e+00	 7.2100882497e-02	 2.6573249033e+00
 1.1301958809e+00	 8.4271675658e-02	 2.6606752107e+00
 1.1292190969e+00	 9.6481477737e-02	 2.6643936826e+00
 1.1281057567e+00	 1.0872831343e-01	 2.6683119480e+00
 1.1268544650e+00	 1.2101016108e-01	 2.6724215191e+00
 1.1391425488e+00	 6.0362994298e-02	 2.7364614399e+00
 1.1384299379e+00	 7.2572130095e-02	 2.7378371738e+00
 1.1375827820e+00	 8.4822470923e-02	 2.7396750490e+00
 1.1365996139e+00	 9.7112075630e-02	 2.7416148627e+00
 1.1354789969e+00	 1.0943895600e-01	 2.7434582026e+00
 1.1342195269e+00	 1.2180107716e-01	 2.7451616997e+00
 1.1465395783e+00	 6.0754961794e-02	 2.8133051103e+00
 1.1458223401e+00	 7.3043377693e-02	 2.8136284095e+00
 1.1449696832e+00	 8.5373266189e-02	 2.8142398548e+00
 1.1439801309e+00	 9.7742673524e-02	 2.8147746307e+00
 1.1428522372e+00	 1.1014959858e-01	 2.8150237181e+00
 1.1415845888e+00	 1.2259199325e-01	 2.8149281967e+00
 1.1047592794e+00	 1.1863741282e-01	 2.4333100342e+00
 1.1033959417e+00	 1.3071073831e-01	 2.4478013432e+00
 1.1018947226e+00	 1.4281429058e-01	 2.4636927418e+00
 1.1002543581e+00	 1.5494595405e-01	 2.4807301442e+00
 1.0984736220e+00	 1.6710356971e-01	 2.4986695048e+00
 1.0965513271e+00	 1.7928493584e-01	 2.5172492620e+00
 1.1121243413e+00	 1.1942832891e-01	 2.5185495911e+00
 1.1107519146e+00	 1.3158214323e-01	 2.5308533462e+00
 1.1092406874e+00	 1.4376638585e-01	 2.5445666158e+00
 1.1075893872e+00	 1.5597892708e-01	 2.5592839718e+00
 1.1057967795e+00	 1.6821759351e-01	 2.5747222868e+00
 1.1038616693e+00	 1.8048016875e-01	 2.5905800450e+00
 1.1194894032e+00	 1.2021924499e-01	 2.5968384049e+00
 1.1181078876e+00	 1.3245354815e-01	 2.6049676477e+00
 1.1165866522e+00	 1.4471848112e-01	 2.6142691408e+00
 1.1149244162e+00	 1.5701190010e-01	 2.6246756295e+00
 1.1131199370e+00	 1.6933161731e-01	 2.6362421969e+00
 1.1111720115e+00	 1.8167540165e-01	 2.6491324401e+00
 1.1268544650e+00	 1.2101016108e-01	 2.6724215191e+00
 1.1254638605e+00	 1.3332495308e-01	 2.6770998137e+00
 1.1239326170e+00	 1.4567057640e-01	 2.6824849667e+00
 1.1222594453e+00	 1.5804487313e-01	 2.6884231816e+00
 1.1204430944e+00	 1.7044564111e-01	 2.6948833863e+00
 1.1184823537e+00	 1.8287063456e-01	 2.7019446149e+00
 1.1342195269e+00	 1.2180107716e-01	 2.7451616997e+00
 1.1328198335e+00	 1.3419635800e-01	 2.7471368103e+00
 1.1312785818e+00	 1.4662267167e-01	 2.7495474816e+00
 1.1295944743e+00	 1.5907784616e-01	 2.7521890500e+00
 1.1277662519e+00	 1.7155966490e-01	 2.7549796614e+00
 1.1257926958e+00	 1.8406586747e-01	 2.7579488507e+00
 1.1415845888e+00	 1.2259199325e-01	 2.8149281967e+00
 1.1401758064e+00	 1.3506776292e-01	 2.8149572782e+00
 1.1386245467e+00	 1.4757476694e-01	 2.8153346897e+00
 1.1369295034e+00	 1.6011081918e-01	 2.8158393299e+00
 1.1350894094e+00	 1.7267368870e-01	 2.8163726997e+00
 1.1331030380e+00	 1.8526110037e-01	 2.8169486723e+00
 1.0965513271e+00	 1.7928493584e-01	 2.5172492620e+00
 1.0944863272e+00	 1.9148780869e-01	 2.5353970757e+00
 1.0922775181e+00	 2.0370990326e-01	 2.5529069143e+00
 1.0899238397e+00	 2.1594889414e-01	 2.5707061497e+00
 1.0874242771e+00	 2.2820241642e-01	 2.5895902395e+00
 1.0847778621e+00	 2.4046806663e-01	 2.6101929068e+00
 1.1038616693e+00	 1.8048016875e-01	 2.5905800450e+00
 1.1017829027e+00	 1.9276439408e-01	 2.6056112496e+00
 1.0995593682e+00	 2.0506796928e-01	 2.6194557931e+00
 1.0971899986e+00	 2.1738855343e-01	 2.6330235842e+00
 1.0946737723e+00	 2.2972376587e-01	 2.6470842045e+00
 1.0920097145e+00	 2.4207118708e-01	 2.6622357537e+00
 1.1111720115e+00	 1.8167540165e-01	 2.6491324401e+00
 1.1090794782e+00	 1.9404097947e-01	 2.6617667165e+00
 1.1068412183e+00	 2.0642603530e-01	 2.6729816043e+00
 1.1044561576e+00	 2.1882821273e-01	 2.6836705940e+00
 1.1019232674e+00	 2.3124511531e-01	 2.6945787475e+00
 1.0992415670e+00	 2.4367430752e-01	 2.7062695077e+00
 1.1184823537e+00	 1.8287063456e-01	 2.7019446149e+00
 1.1163760537e+00	 1.9531756486e-01	 2.7085610401e+00
 1.1141230685e+00	 2.0778410132e-01	 2.7146769219e+00
 1.1117223165e+00	 2.2026787202e-01	 2.7219668704e+00
 1.1091727626e+00	 2.3276646475e-01	 2.7312349641e+00
 1.1064734194e+00	 2.4527742797e-01	 2.7413854728e+00
 1.1257926958e+00	 1.8406586747e-01	 2.7579488507e+00
 1.1236726292e+00	 1.9659415026e-01	 2.7598300791e+00
 1.1214049186e+00	 2.0914216734e-01	 2.7602779288e+00
 1.1189884754e+00	 2.2170753132e-01	 2.7608192660e+00
 1.1164222578e+00	 2.3428781419e-01	 2.7630137985e+00
 1.1137052718e+00	 2.4688054841e-01	 2.7684254945e+00
 1.1331030380e+00	 1.8526110037e-01	 2.8169486723e+00
 1.1309692047e+00	 1.9787073565e-01	 2.8161172118e+00
 1.1286867687e+00	 2.1050023337e-01	 2.8132496116e+00
 1.1262546344e+00	 2.2314719061e-01	 2.8097126940e+00
 1.1236717530e+00	 2.3580916364e-01	 2.8069122916e+00
 1.1209371242e+00	 2.4848366885e-01	 2.8062658569e+00
 1.0847778621e+00	 2.4046806663e-01	 2.6101929068e+00
 1.0819836751e+00	 2.5274340376e-01	 2.6309001780e+00
 1.0790408458e+00	 2.6502595032e-01	 2.6505882318e+00
 1.0759485554e+00	 2.7731319351e-01	 2.6703057177e+00
 1.0727060376e+00	 2.8960258639e-01	 2.6908387926e+00
 1.0693125800e+00	 3.0189154915e-01	 2.7126878097e+00
 1.0920097145e+00	 2.4207118708e-01	 2.6622357537e+00
 1.0891968996e+00	 2.5442835978e-01	 2.6768173237e+00
 1.0862344514e+00	 2.6679278999e-01	 2.6899071985e+00
 1.0831215458e+00	 2.7916194813e-01	 2.7028746637e+00
 1.0798574112e+00	 2.9153327030e-01	 2.7168127496e+00
 1.0764413306e+00	 3.0390415948e-01	 2.7325131457e+00
 1.0992415670e+00	 2.4367430752e-01	 2.7062695077e+00
 1.0964101241e+00	 2.5611331581e-01	 2.7169928886e+00
 1.0934280571e+00	 2.6855962965e-01	 2.7258456934e+00
 1.0902945362e+00	 2.8101070276e-01	 2.7343069451e+00
 1.0870087848e+00	 2.9346395421e-01	 2.7435668213e+00
 1.0835700811e+00	 3.0591676981e-01	 2.7545002367e+00
 1.1064734194e+00	 2.4527742797e-01	 2.7413854728e+00
 1.1036233486e+00	 2.5779827183e-01	 2.7504781007e+00
 1.1006216627e+00	 2.7032646932e-01	 2.7574715610e+00
 1.0974675265e+00	 2.8285945738e-01	 2.7637483984e+00
 1.0941601584e+00	 2.9539463812e-01	 2.7703908590e+00
 1.0906988316e+00	 3.0792938014e-01	 2.7781535754e+00
 1.1137052718e+00	 2.4688054841e-01	 2.7684254945e+00
 1.1108365731e+00	 2.5948322786e-01	 2.7763493707e+00
 1.1078152683e+00	 2.7209330899e-01	 2.7838782512e+00
 1.1046405169e+00	 2.8470821200e-01	 2.7903694727e+00
 1.1013115320e+00	 2.9732532203e-01	 2.7965968061e+00
 1.0978275822e+00	 3.0994199046e-01	 2.8029955882e+00
 1.1209371242e+00	 2.4848366885e-01	 2.8062658569e+00
 1.1180497976e+00	 2.6116818388e-01	 2.8069196966e+00
 1.1150088740e+00	 2.7386014866e-01	 2.8085977547e+00
 1.1118135073e+00	 2.8655696663e-01	 2.8135157318e+00
 1.1084629056e+00	 2.9925600594e-01	 2.8215182341e+00
 1.1049563327e+00	 3.1195460079e-01	 2.8285663485e+00
 1.0693125800e+00	 3.0189154915e-01	 2.7126878097e+00
 1.0657675255e+00	 3.1417747040e-01	 2.7336816760e+00
 1.0620702735e+00	 3.2645770857e-01	 2.7531015605e+00
 1.0582202813e+00	 3.3872959330e-01	 2.7731040426e+00
 1.0542170656e+00	 3.5099042698e-01	 2.7954385197e+00
 1.0500602030e+00	 3.6323748623e-01	 2.8214336317e+00
 1.0764413306e+00	 3.0390415948e-01	 2.7325131457e+00
 1.0728726423e+00	 3.1627198687e-01	 2.7475333898e+00
 1.0691507419e+00	 3.2863409329e-01	 2.7607586603e+00
 1.0652750832e+00	 3.4098779059e-01	 2.7744183190e+00
 1.0612451794e+00	 3.5333036316e-01	 2.7903084222e+00
 1.0570606043e+00	 3.6565906947e-01	 2.8097772367e+00
 1.0835700811e+00	 3.0591676981e-01	 2.7545002367e+00
 1.0799777591e+00	 3.1836650334e-01	 2.7642025683e+00
 1.0762312104e+00	 3.3081047802e-01	 2.7712266033e+00
 1.0723298851e+00	 3.4324598788e-01	 2.7780478376e+00
 1.0682732931e+00	 3.5567029934e-01	 2.7866798538e+00
 1.0640610057e+00	 3.6808065271e-01	 2.7986584951e+00
 1.0906988316e+00	 3.0792938014e-01	 2.7781535754e+00
 1.0870828760e+00	 3.2046101981e-01	 2.7834285572e+00
 1.0833116789e+00	 3.3298686274e-01	 2.7844441453e+00
 1.0793846870e+00	 3.4550418517e-01	 2.7840920214e+00
 1.0753014069e+00	 3.5801023552e-01	 2.7847708451e+00
 1.0710614070e+00	 3.7050223595e-01	 2.7883699988e+00
 1.0978275822e+00	 3.0994199046e-01	 2.8029955882e+00
 1.0941879928e+00	 3.2255553628e-01	 2.8049641539e+00
 1.0903921474e+00	 3.3516324746e-01	 2.8003601410e+00
 1.0864394889e+00	 3.4776238246e-01	 2.7926582564e+00
 1.0823295207e+00	 3.6035017170e-01	 2.7848065614e+00
 1.0780618084e+00	 3.7292381919e-01	 2.7797063550e+00
 1.1049563327e+00	 3.1195460079e-01	 2.8285663485e+00
 1.1012931096e+00	 3.2465005275e-01	 2.8285755144e+00
 1.0974726159e+00	 3.3733963219e-01	 2.8189336112e+00
 1.0934942907e+00	 3.5002057975e-01	 2.8038620862e+00
 1.0893576345e+00	 3.6269010788e-01	 2.7870195864e+00
 1.0850622097e+00	 3.7534540243e-01	 2.7733618576e+00
 1.0500602030e+00	 3.6323748623e-01	 2.8214336317e+00
 1.0457493316e+00	 3.7546802352e-01	 2.8407215563e+00
 1.0412841523e+00	 3.8767926885e-01	 2.8572878293e+00
 1.0366644292e+00	 3.9986843136e-01	 2.8741779567e+00
 1.0318899914e+00	 4.1203270116e-01	 2.8903335759e+00
 1.0269607333e+00	 4.2416925110e-01	 2.9045537692e+00
 1.0570606043e+00	 3.6565906947e-01	 2.8097772367e+00
 1.0527209938e+00	 3.7797114368e-01	 2.8242982214e+00
 1.0482260466e+00	 3.9026379730e-01	 2.8371685596e+00
 1.0435755254e+00	 4.0253422090e-01	 2.8492662625e+00
 1.0387692580e+00	 4.1477958584e-01	 2.8595994611e+00
 1.0338071381e+00	 4.2699704611e-01	 2.8670385987e+00
 1.0640610057e+00	 3.6808065271e-01	 2.7986584951e+00
 1.0596926560e+00	 3.8047426384e-01	 2.8084051252e+00
 1.0551679410e+00	 3.9284832576e-01	 2.8167890464e+00
 1.0504866216e+00	 4.0520001044e-01	 2.8235331277e+00
 1.0456485246e+00	 4.1752647051e-01	 2.8278099386e+00
 1.0406535430e+00	 4.2982484111e-01	 2.8286571876e+00
 1.0710614070e+00	 3.7050223595e-01	 2.7883699988e+00
 1.0666643182e+00	 3.8297738399e-01	 2.7933389203e+00
 1.0621098353e+00	 3.9543285422e-01	 2.7964182842e+00
 1.0573977178e+00	 4.0786579998e-01	 2.7971841638e+00
 1.0525277913e+00	 4.2027335519e-01	 2.7950693998e+00
 1.0474999479e+00	 4.3265263612e-01	 2.7893727893e+00
 1.0780618084e+00	 3.7292381919e-01	 2.7797063550e+00
 1.0736359804e+00	 3.8548050415e-01	 2.7793949684e+00
 1.0690517297e+00	 3.9801738268e-01	 2.7763245608e+00
 1.0643088140e+00	 4.1053158953e-01	 2.7704257407e+00
 1.0594070579e+00	 4.2302023986e-01	 2.7614853977e+00
 1.0543463528e+00	 4.3548043113e-01	 2.7491552164e+00
 1.0850622097e+00	 3.7534540243e-01	 2.7733618576e+00
 1.0806076427e+00	 3.8798362431e-01	 2.7668671581e+00
 1.0759936240e+00	 4.0060191114e-01	 2.7567752208e+00
 1.0712199102e+00	 4.1319737907e-01	 2.7434646665e+00
 1.0662863245e+00	 4.2576712454e-01	 2.7271682109e+00
 1.0611927577e+00	 4.3830822614e-01	 2.7079802552e+00
 1.0269607333e+00	 4.2416925110e-01	 2.9045537692e+00
 1.0218766156e+00	 4.3627523857e-01	 2.9175218458e+00
 1.0166376664e+00	 4.4834780744e-01	 2.9297094964e+00
 1.0112439819e+00	 4.6038408994e-01	 2.9394726660e+00
 1.0056957268e+00	 4.7238120866e-01	 2.9451434998e+00
 9.9999313525e-01	 4.8433627852e-01	 2.9450414477e+00
 1.0338071381e+00	 4.2699704611e-01	 2.8670385987e+00
 1.0286891263e+00	 4.3918374016e-01	 2.8727857902e+00
 1.0234152509e+00	 4.5133679282e-01	 2.8778218838e+00
 1.0179856085e+00	 4.6345331720e-01	 2.8805586334e+00
 1.0124003650e+00	 4.7553041671e-01	 2.8793774772e+00
 1.0066597562e+00	 4.8756518704e-01	 2.8726404174e+00
 1.0406535430e+00	 4.2982484111e-01	 2.8286571876e+00
 1.0355016371e+00	 4.4209224175e-01	 2.8278040601e+00
 1.0301928353e+00	 4.5432577820e-01	 2.8265580719e+00
 1.0247272350e+00	 4.6652254447e-01	 2.8231981843e+00
 1.0191050032e+00	 4.7867962477e-01	 2.8159713243e+00
 1.0133263771e+00	 4.9079409556e-01	 2.8031035111e+00
 1.0474999479e+00	 4.3265263612e-01	 2.7893727893e+00
 1.0423141479e+00	 4.4500074334e-01	 2.7824114810e+00
 1.0369704198e+00	 4.5731476359e-01	 2.7756937149e+00
 1.0314688616e+00	 4.6959177174e-01	 2.7671808489e+00
 1.0258096414e+00	 4.8182883283e-01	 2.7548052355e+00
 1.0199929980e+00	 4.9402300409e-01	 2.7364820620e+00
 1.0543463528e+00	 4.3548043113e-01	 2.7491552164e+00
 1.0491266587e+00	 4.4790924493e-01	 2.7364524644e+00
 1.0437480042e+00	 4.6030374897e-01	 2.7250152447e+00
 1.0382104881e+00	 4.7266099900e-01	 2.7123061955e+00
 1.0325142795e+00	 4.8497804089e-01	 2.6957666798e+00
 1.0266596189e+00	 4.9725191261e-01	 2.6728297987e+00
 1.0611927577e+00	 4.3830822614e-01	 2.7079802552e+00
 1.0559391694e+00	 4.5081774652e-01	 2.6897802848e+00
 1.0505255886e+00	 4.6329273435e-01	 2.6743190674e+00
 1.0449521146e+00	 4.7573022627e-01	 2.6583830095e+00
 1.0392189177e+00	 4.8812724895e-01	 2.6387496260e+00
 1.0333262398e+00	 5.0048082113e-01	 2.6122021837e+00
 9.9999313525e-01	 4.8433627852e-01	 2.9450414477e+00
 9.9413651123e-01	 4.9624640883e-01	 2.9435238752e+00
 9.8812622918e-01	 5.0810870533e-01	 2.9440005509e+00
 9.8196273435e-01	 5.1992027233e-01	 2.9433911002e+00
 9.7564654315e-01	 5.3167821478e-01	 2.9386586530e+00
 9.6917824345e-01	 5.4337964046e-01	 2.9268229545e+00
 1.0066597562e+00	 4.8756518704e-01	 2.8726404174e+00
 1.0007640880e+00	 4.9955471822e-01	 2.8649098272e+00
 9.9471373738e-01	 5.1149609670e-01	 2.8596521918e+00
 9.8850915258e-01	 5.2338640748e-01	 2.8536063372e+00
 9.8215085344e-01	 5.3522273622e-01	 2.8435606194e+00
 9.7563943174e-01	 5.4700217139e-01	 2.8263663962e+00
 1.0133263771e+00	 4.9079409556e-01	 2.8031035111e+00
 1.0073916647e+00	 5.0286302761e-01	 2.7892873899e+00
 1.0013012456e+00	 5.1488348807e-01	 2.7781876319e+00
 9.9505557081e-01	 5.2685254263e-01	 2.7665085814e+00
 9.8865516372e-01	 5.3876725765e-01	 2.7510048960e+00
 9.8210062003e-01	 5.5062470233e-01	 2.7284949792e+00
 1.0199929980e+00	 4.9402300409e-01	 2.7364820620e+00
 1.0140192415e+00	 5.0617133700e-01	 2.7168858458e+00
 1.0078887538e+00	 5.1827087944e-01	 2.6999428224e+00
 1.0016019890e+00	 5.3031867778e-01	 2.6824662237e+00
 9.9515947401e-01	 5.4231177908e-01	 2.6613152075e+00
 9.8856180832e-01	 5.5424723327e-01	 2.6334078548e+00
 1.0266596189e+00	 4.9725191261e-01	 2.6728297987e+00
 1.0206468182e+00	 5.0947964639e-01	 2.6479317951e+00
 1.0144762620e+00	 5.2165827081e-01	 2.6252477891e+00
 1.0081484073e+00	 5.3378481293e-01	 2.6018404030e+00
 1.0016637843e+00	 5.4585630051e-01	 2.5748086969e+00
 9.9502299661e-01	 5.5786976420e-01	 2.5413003363e+00
 1.0333262398e+00	 5.0048082113e-01	 2.6122021837e+00
 1.0272743949e+00	 5.1278795579e-01	 2.5826486147e+00
 1.0210637702e+00	 5.2504566218e-01	 2.5544261529e+00
 1.0146948255e+00	 5.3725094808e-01	 2.5249845264e+00
 1.0081680946e+00	 5.4940082194e-01	 2.4917953795e+00
 1.0014841849e+00	 5.6149229514e-01	 2.4523632216e+00
 9.6917824345e-01	 5.4337964046e-01	 2.9268229545e+00
 9.6255849476e-01	 5.5502166210e-01	 2.9116102300e+00
 9.5578802838e-01	 5.6660139962e-01	 2.8967360583e+00
 9.4886764740e-01	 5.7811598227e-01	 2.8793493281e+00
 9.4179822670e-01	 5.8956255089e-01	 2.8567353484e+00
 9.3458071283e-01	 6.0093826009e-01	 2.8263276633e+00
 9.7563943174e-01	 5.4700217139e-01	 2.8263663962e+00
 9.6897555139e-01	 5.5872180651e-01	 2.8057956526e+00
 9.6215994857e-01	 5.7037874228e-01	 2.7856977314e+00
 9.5519343171e-01	 5.8197008882e-01	 2.7631879742e+00
 9.4807688155e-01	 5.9349296790e-01	 2.7355151614e+00
 9.4081125092e-01	 6.0494451515e-01	 2.7000731936e+00
 9.8210062003e-01	 5.5062470233e-01	 2.7284949792e+00
 9.7539260802e-01	 5.6242195093e-01	 2.7028609646e+00
 9.6853186876e-01	 5.7415608494e-01	 2.6779944190e+00
 9.6151921603e-01	 5.8582419537e-01	 2.6508773413e+00
 9.5435553639e-01	 5.9742338490e-01	 2.6186265656e+00
 9.4704178900e-01	 6.0895077022e-01	 2.5785055507e+00
 9.8856180832e-01	 5.5424723327e-01	 2.6334078548e+00
 9.8180966466e-01	 5.6612209534e-01	 2.6028657830e+00
 9.7490378894e-01	 5.7793342761e-01	 2.5735993875e+00
 9.6784500035e-01	 5.8967830192e-01	 2.5423595437e+00
 9.6063419124e-01	 6.0135380191e-01	 2.5060376814e+00
 9.5327232709e-01	 6.1295702529e-01	 2.4616779221e+00
 9.9502299661e-01	 5.5786976420e-01	 2.5413003363e+00
 9.8822672129e-01	 5.6982223975e-01	 2.5058690232e+00
 9.8127570913e-01	 5.8171077027e-01	 2.4724869658e+00
 9.7417078466e-01	 5.9353240846e-01	 2.4375781032e+00
 9.6691284608e-01	 6.0528421892e-01	 2.3977169181e+00
 9.5950286517e-01	 6.1696328036e-01	 2.3496411565e+00
 1.0014841849e+00	 5.6149229514e-01	 2.4523632216e+00
 9.9464377792e-01	 5.7352238417e-01	 2.4119280774e+00
 9.8764762932e-01	 5.8548811294e-01	 2.3746316252e+00
 9.8049656898e-01	 5.9738651501e-01	 2.3364769779e+00
 9.7319150093e-01	 6.0921463592e-01	 2.2936319983e+00
 9.6573340326e-01	 6.2096953542e-01	 2.2424428345e+00
 9.3458071283e-01	 6.0093826009e-01	 2.8263276633e+00
 9.2721612379e-01	 6.1224028046e-01	 2.7920435933e+00
 9.1970554877e-01	 6.2346580083e-01	 2.7576801414e+00
 9.1205014776e-01	 6.3461203046e-01	 2.7207837065e+00
 9.0425115117e-01	 6.4567620124e-01	 2.6791434483e+00
 8.9630985922e-01	 6.5665556992e-01	 2.6308020812e+00
 9.4081125092e-01	 6.0494451515e-01	 2.7000731936e+00
 9.3339756462e-01	 6.1632188233e-01	 2.6610885385e+00
 9.2583691909e-01	 6.2762223950e-01	 2.6226091809e+00
 9.1813048208e-01	 6.3884277733e-01	 2.5820566592e+00
 9.1027949218e-01	 6.4998070925e-01	 2.5371013268e+00
 9.0228525828e-01	 6.6103327372e-01	 2.4856732901e+00
 9.4704178900e-01	 6.0895077022e-01	 2.5785055507e+00
 9.3957900544e-01	 6.2040348420e-01	 2.5350135533e+00
 9.3196828942e-01	 6.3177867817e-01	 2.4925037390e+00
 9.2421081640e-01	 6.4307352420e-01	 2.4483185446e+00
 9.1630783318e-01	 6.5428521726e-01	 2.4000513069e+00
 9.0826065734e-01	 6.6541097752e-01	 2.3455571996e+00
 9.5327232709e-01	 6.1295702529e-01	 2.4616779221e+00
 9.4576044627e-01	 6.2448508607e-01	 2.4139647376e+00
 9.3809965974e-01	 6.3593511685e-01	 2.3675575960e+00
 9.3029115072e-01	 6.4730427107e-01	 2.3197646908e+00
 9.2233617419e-01	 6.5858972526e-01	 2.2681432780e+00
 9.1423605640e-01	 6.6978868131e-01	 2.2105104699e+00
 9.5950286517e-01	 6.1696328036e-01	 2.3496411565e+00
 9.5194188709e-01	 6.2856668794e-01	 2.2980830520e+00
 9.4423103007e-01	 6.4009155552e-01	 2.2479578043e+00
 9.3637148504e-01	 6.5153501794e-01	 2.1965833480e+00
 9.2836451520e-01	 6.6289423327e-01	 2.1415209686e+00
 9.2021145546e-01	 6.7416638511e-01	 2.0805858096e+00
 9.6573340326e-01	 6.2096953542e-01	 2.2424428345e+00
 9.5812332792e-01	 6.3264828981e-01	 2.1875034425e+00
 9.5036240039e-01	 6.4424799419e-01	 2.1338838281e+00
 9.4245181935e-01	 6.5576576481e-01	 2.0789548066e+00
 9.3439285621e-01	 6.6719874128e-01	 2.0203210032e+00
 9.2618685453e-01	 6.7854408891e-01	 1.9558309315e+00
 8.9630985922e-01	 6.5665556992e-01	 2.6308020812e+00
 8.8822764139e-01	 6.6754742026e-01	 2.5773071121e+00
 8.8000593573e-01	 6.7834906524e-01	 2.5206238039e+00
 8.7164624804e-01	 6.8905784918e-01	 2.4598585312e+00
 8.6315015108e-01	 6.9967114985e-01	 2.3944450317e+00
 8.5451928359e-01	 7.1018638061e-01	 2.3241519820e+00
 9.0228525828e-01	 6.6103327372e-01	 2.4856732901e+00
 8.9414915900e-01	 6.7199773640e-01	 2.4294317102e+00
 8.8587264197e-01	 6.8287139234e-01	 2.3704303142e+00
 8.7745722303e-01	 6.9365156817e-01	 2.3076395116e+00
 8.6890448542e-01	 7.0433562418e-01	 2.2403661998e+00
 8.6021607882e-01	 7.1492095648e-01	 2.1682615878e+00
 9.0826065734e-01	 6.6541097752e-01	 2.3455571996e+00
 9.0007067661e-01	 6.7644805253e-01	 2.2866673717e+00
 8.9173934821e-01	 6.8739371945e-01	 2.2255300548e+00
 8.8326819801e-01	 6.9824528717e-01	 2.1609367126e+00
 8.7465881976e-01	 7.0900009851e-01	 2.0920297842e+00
 8.6591287404e-01	 7.1965553235e-01	 2.0183108605e+00
 9.1423605640e-01	 6.6978868131e-01	 2.2105104699e+00
 9.0599219422e-01	 6.8089836867e-01	 2.1489828282e+00
 8.9760605444e-01	 6.9191604655e-01	 2.0858633488e+00
 8.8907917300e-01	 7.0283900616e-01	 2.0197224406e+00
 8.8041315410e-01	 7.1366457285e-01	 1.9495012606e+00
 8.7160966926e-01	 7.2439010822e-01	 1.8745203490e+00
 9.2021145546e-01	 6.7416638511e-01	 2.0805858096e+00
 9.1191371183e-01	 6.8534868480e-01	 2.0163449859e+00
 9.0347276068e-01	 6.9643837365e-01	 1.9513693336e+00
 8.9489014799e-01	 7.0743272515e-01	 1.8839669493e+00
 8.8616748844e-01	 7.1832904718e-01	 1.8128416627e+00
 8.7730646449e-01	 7.2912468409e-01	 1.7371022308e+00
 9.2618685453e-01	 6.7854408891e-01	 1.9558309315e+00
 9.1783522944e-01	 6.8979900094e-01	 1.8887177859e+00
 9.0933946692e-01	 7.0096070075e-01	 1.8219847751e+00
 9.0070112297e-01	 7.1202644415e-01	 1.7536372605e+00
 8.9192182278e-01	 7.2299352151e-01	 1.6821064596e+00
 8.8300325971e-01	 7.3385925996e-01	 1.6062593000e+00
 8.5451928359e-01	 7.1018638061e-01	 2.3241519820e+00
 8.4575534933e-01	 7.2060099245e-01	 2.2497301982e+00
 8.3686011593e-01	 7.3091247602e-01	 2.1710973955e+00
 8.2783541381e-01	 7.4111836361e-01	 2.0873394892e+00
 8.1868313485e-01	 7.5121623115e-01	 1.9993888829e+00
 8.0940523117e-01	 7.6120370006e-01	 1.9115452281e+00
 8.6021607882e-01	 7.1492095648e-01	 2.1682615878e+00
 8.5139371832e-01	 7.2540499907e-01	 2.0922974266e+00
 8.4243918337e-01	 7.3578522586e-01	 2.0125753205e+00
 8.3335431657e-01	 7.4605915270e-01	 1.9280598240e+00
 8.2414102242e-01	 7.5622433936e-01	 1.8401459989e+00
 8.1480126605e-01	 7.6627839139e-01	 1.7531784366e+00
 8.6591287404e-01	 7.1965553235e-01	 2.0183108605e+00
 8.5703208732e-01	 7.3020900568e-01	 1.9409465527e+00
 8.4801825081e-01	 7.4065797570e-01	 1.8602622240e+00
 8.3887321932e-01	 7.5099994179e-01	 1.7747923356e+00
 8.2959890998e-01	 7.6123244757e-01	 1.6867600317e+00
 8.2019730092e-01	 7.7135308273e-01	 1.6007238303e+00
 8.7160966926e-01	 7.2439010822e-01	 1.8745203490e+00
 8.6267045631e-01	 7.3501301230e-01	 1.7960593799e+00
 8.5359731825e-01	 7.4553072554e-01	 1.7143114859e+00
 8.4439212208e-01	 7.5594073088e-01	 1.6274764497e+00
 8.3505679755e-01	 7.6624055577e-01	 1.5391650264e+00
 8.2559333580e-01	 7.7642777406e-01	 1.4540547582e+00
 8.7730646449e-01	 7.2912468409e-01	 1.7371022308e+00
 8.6830882531e-01	 7.3981701892e-01	 1.6580053218e+00
 8.5917638569e-01	 7.5040347538e-01	 1.5744444000e+00
 8.4991102484e-01	 7.6088151997e-01	 1.4860359729e+00
 8.4051468511e-01	 7.7124866398e-01	 1.3972794260e+00
 8.3098937067e-01	 7.8150246539e-01	 1.3130303769e+00
 8.8300325971e-01	 7.3385925996e-01	 1.6062593000e+00
 8.7394719430e-01	 7.4462102553e-01	 1.5266760064e+00
 8.6475545313e-01	 7.5527622522e-01	 1.4405237467e+00
 8.5542992760e-01	 7.6582230907e-01	 1.3503799370e+00
 8.4597257268e-01	 7.7625677219e-01	 1.2610068952e+00
 8.3638540555e-01	 7.8657715673e-01	 1.1774964058e+00
 8.0940523117e-01	 7.6120370006e-01	 1.9115452281e+00
 8.0000371369e-01	 7.7107843914e-01	 1.8173294681e+00
 7.9048065071e-01	 7.8083816638e-01	 1.7108715824e+00
 7.8083816638e-01	 7.9048065071e-01	 1.5978378899e+00
 7.7107843914e-01	 8.0000371369e-01	 1.4839192226e+00
 7.6120370006e-01	 8.0940523117e-01	 1.3747926217e+00
 8.1480126605e-01	 7.6627839139e-01	 1.7531784366e+00
 8.0533707179e-01	 7.7621896207e-01	 1.6598969634e+00
 7.9575052172e-01	 7.8604375416e-01	 1.5539954979e+00
 7.8604375416e-01	 7.9575052172e-01	 1.4416630533e+00
 7.7621896207e-01	 8.0533707179e-01	 1.3291083760e+00
 7.6627839139e-01	 8.1480126605e-01	 1.2225192444e+00
 8.2019730092e-01	 7.7135308273e-01	 1.6007238303e+00
 8.1067042988e-01	 7.8135948500e-01	 1.5086238097e+00
 8.0102039272e-01	 7.9124934194e-01	 1.4036012003e+00
 7.9124934194e-01	 8.0102039272e-01	 1.2922789819e+00
 7.8135948500e-01	 8.1067042988e-01	 1.1812959156e+00
 7.7135308273e-01	 8.2019730092e-01	 1.0772635856e+00
 8.2559333580e-01	 7.7642777406e-01	 1.4540547582e+00
 8.1600378797e-01	 7.8650000792e-01	 1.3632976026e+00
 8.0629026373e-01	 7.9645492971e-01	 1.2593976581e+00
 7.9645492971e-01	 8.0629026373e-01	 1.1493249874e+00
 7.8650000792e-01	 8.1600378797e-01	 1.0400623077e+00
 7.7642777406e-01	 8.2559333580e-01	 9.3855990880e-01
 8.3098937067e-01	 7.8150246539e-01	 1.3130303769e+00
 8.2133714606e-01	 7.9164053085e-01	 1.2236937676e+00
 8.1156013473e-01	 8.0166051749e-01	 1.1210834759e+00
 8.0166051749e-01	 8.1156013473e-01	 1.0124315676e+00
 7.9164053085e-01	 8.2133714606e-01	 9.0498045711e-01
 7.8150246539e-01	 8.3098937067e-01	 8.0593583266e-01
 8.3638540555e-01	 7.8657715673e-01	 1.1774964058e+00
 8.2667050415e-01	 7.9678105378e-01	 1.0895762250e+00
 8.1683000574e-01	 8.0686610526e-01	 9.8834747358e-01
 8.0686610526e-01	 8.1683000574e-01	 8.8122090597e-01
 7.9678105378e-01	 8.2667050415e-01	 7.7561613633e-01
 7.8657715673e-01	 8.3638540555e-01	 6.7891269774e-01
 7.6120370006e-01	 8.0940523117e-01	 1.3747926217e+00
 7.5121623115e-01	 8.1868313485e-01	 1.2632053054e+00
 7.4111836361e-01	 8.2783541381e-01	 1.1411287983e+00
 7.3091247602e-01	 8.3686011593e-01	 1.0134880683e+00
 7.2060099245e-01	 8.4575534933e-01	 8.8246514332e-01
 7.1018638061e-01	 8.5451928359e-01	 7.4769169969e-01
 7.6627839139e-01	 8.1480126605e-01	 1.2225192444e+00
 7.5622433936e-01	 8.2414102242e-01	 1.1142652324e+00
 7.4605915270e-01	 8.3335431657e-01	 9.9554870997e-01
 7.3578522586e-01	 8.4243918337e-01	 8.7068032582e-01
 7.2540499907e-01	 8.5139371832e-01	 7.4281722588e-01
 7.1492095648e-01	 8.6021607882e-01	 6.1172146191e-01
 7.7135308273e-01	 8.2019730092e-01	 1.0772635856e+00
 7.6123244757e-01	 8.2959890998e-01	 9.7213400187e-01
 7.5099994179e-01	 8.3887321932e-01	 8.5640628882e-01
 7.4065797570e-01	 8.4801825081e-01	 7.3425972122e-01
 7.3020900568e-01	 8.5703208732e-01	 6.0917500161e-01
 7.1965553235e-01	 8.6591287404e-01	 4.8147512367e-01
 7.7642777406e-01	 8.2559333580e-01	 9.3855990880e-01
 7.6624055577e-01	 8.3505679755e-01	 8.3633071320e-01
 7.5594073088e-01	 8.4439212208e-01	 7.2325284309e-01
 7.4553072554e-01	 8.5359731825e-01	 6.0356415074e-01
 7.3501301230e-01	 8.6267045631e-01	 4.8101735008e-01
 7.2439010822e-01	 8.7160966926e-01	 3.5659239090e-01
 7.8150246539e-01	 8.3098937067e-01	 8.0593583266e-01
 7.7124866398e-01	 8.4051468511e-01	 7.0636793143e-01
 7.6088151997e-01	 8.4991102484e-01	 5.9563203526e-01
 7.5040347538e-01	 8.5917638569e-01	 4.7809765476e-01
 7.3981701892e-01	 8.6830882531e-01	 3.5781995896e-01
 7.2912468409e-01	 8.7730646449e-01	 2.3670571526e-01
 7.8657715673e-01	 8.3638540555e-01	 6.7891269774e-01
 7.7625677219e-01	 8.4597257268e-01	 5.8175201685e-01
 7.6582230907e-01	 8.5542992760e-01	 4.7308021297e-01
 7.5527622522e-01	 8.6475545313e-01	 3.5747029008e-01
 7.4462102553e-01	 8.7394719430e-01	 2.3919063550e-01
 7.3385925996e-01	 8.8300325971e-01	 1.2144058191e-01
 7.1018638061e-01	 8.5451928359e-01	 7.4769169969e-01
 6.9967114985e-01	 8.6315015108e-01	 6.0967359228e-01
 6.8905784918e-01	 8.7164624804e-01	 4.6934436757e-01
 6.7834906524e-01	 8.8000593573e-01	 3.2638715495e-01
 6.6754742026e-01	 8.8822764139e-01	 1.8012518648e-01
 6.5665556992e-01	 8.9630985922e-01	 2.9531837451e-02
 7.1492095648e-01	 8.6021607882e-01	 6.1172146191e-01
 7.0433562418e-01	 8.6890448542e-01	 4.7791389877e-01
 6.9365156817e-01	 8.7745722303e-01	 3.4239056107e-01
 6.8287139234e-01	 8.8587264197e-01	 2.0470247704e-01
 6.7199773640e-01	 8.9414915900e-01	 6.4027468065e-02
 6.6103327372e-01	 9.0228525828e-01	-8.0819246792e-02
 7.1965553235e-01	 8.6591287404e-01	 4.8147512367e-01
 7.0900009851e-01	 8.7465881976e-01	 3.5172416081e-01
 6.9824528717e-01	 8.8326819801e-01	 2.2092943820e-01
 6.8739371945e-01	 8.9173934821e-01	 8.8469491393e-02
 6.7644805253e-01	 9.0007067661e-01	-4.6670353084e-02
 6.6541097752e-01	 9.0826065734e-01	-1.8588666193e-01
 7.2439010822e-01	 8.7160966926e-01	 3.5659239090e-01
 7.1366457285e-01	 8.8041315410e-01	 2.3088975199e-01
 7.0283900616e-01	 8.8907917300e-01	 1.0482027396e-01
 6.9191604655e-01	 8.9760605444e-01	-2.2449545386e-02
 6.8089836867e-01	 9.0599219422e-01	-1.5217302951e-01
 6.6978868131e-01	 9.1423605640e-01	-2.8601115032e-01
 7.2912468409e-01	 8.7730646449e-01	 2.3670571526e-01
 7.1832904718e-01	 8.8616748844e-01	 1.1518513934e-01
 7.0743272515e-01	 8.9489014799e-01	-6.0903353598e-03
 6.9643837365e-01	 9.0347276068e-01	-1.2820496962e-01
 6.8534868480e-01	 9.1191371183e-01	-2.5269598735e-01
 6.7416638511e-01	 9.2021145546e-01	-3.8154040141e-01
 7.3385925996e-01	 8.8300325971e-01	 1.2144058191e-01
 7.2299352151e-01	 8.9192182278e-01	 4.3742878317e-03
 7.1202644415e-01	 9.0070112297e-01	-1.1196801210e-01
 7.0096070075e-01	 9.0933946692e-01	-2.2895925535e-01
 6.8979900094e-01	 9.1783522944e-01	-3.4846493563e-01
 6.7854408891e-01	 9.2618685453e-01	-4.7282878435e-01
 6.5665556992e-01	 8.9630985922e-01	 2.9531837451e-02
 6.4567620124e-01	 9.0425115117e-01	-1.2334089327e-01
 6.3461203046e-01	 9.1205014776e-01	-2.7630998337e-01
 6.2346580083e-01	 9.1970554877e-01	-4.3067773755e-01
 6.1224028046e-01	 9.2721612379e-01	-5.8802469281e-01
 6.0093826009e-01	 9.3458071283e-01	-7.5019577843e-01
 6.6103327372e-01	 9.0228525828e-01	-8.0819246792e-02
 6.4998070925e-01	 9.1027949218e-01	-2.2778209933e-01
 6.3884277733e-01	 9.1813048208e-01	-3.7460026130e-01
 6.2762223950e-01	 9.2583691909e-01	-5.2264263056e-01
 6.1632188233e-01	 9.3339756462e-01	-6.7357011912e-01
 6.0494451515e-01	 9.4081125092e-01	-8.2932136317e-01
 6.6541097752e-01	 9.0826065734e-01	-1.8588666193e-01
 6.5428521726e-01	 9.1630783318e-01	-3.2714471866e-01
 6.4307352420e-01	 9.2421081640e-01	-4.6808909833e-01
 6.3177867817e-01	 9.3196828942e-01	-6.1014626296e-01
 6.2040348420e-01	 9.3957900544e-01	-7.5504099833e-01
 6.0895077022e-01	 9.4704178900e-01	-9.0478177077e-01
 6.6978868131e-01	 9.1423605640e-01	-2.8601115032e-01
 6.5858972526e-01	 9.2233617419e-01	-4.2189659097e-01
 6.4730427107e-01	 9.3029115072e-01	-5.5728556952e-01
 6.3593511685e-01	 9.3809965974e-01	-6.9365344419e-01
 6.2448508607e-01	 9.4576044627e-01	-8.3277283407e-01
 6.1295702529e-01	 9.5327232709e-01	-9.7669871861e-01
 6.7416638511e-01	 9.2021145546e-01	-3.8154040141e-01
 6.6289423327e-01	 9.2836451520e-01	-5.1250899230e-01
 6.5153501794e-01	 9.3637148504e-01	-6.4270089055e-01
 6.4009155552e-01	 9.4423103007e-01	-7.7363203433e-01
 6.2856668794e-01	 9.5194188709e-01	-9.0710728466e-01
 6.1696328036e-01	 9.5950286517e-01	-1.0452053622e+00
 6.7854408891e-01	 9.2618685453e-01	-4.7282878435e-01
 6.6719874128e-01	 9.3439285621e-01	-5.9945648436e-01
 6.5576576481e-01	 9.4245181935e-01	-7.2484831279e-01
 6.4424799419e-01	 9.5036240039e-01	-8.5055281420e-01
 6.3264828981e-01	 9.5812332792e-01	-9.7839193766e-01
 6.2096953542e-01	 9.6573340326e-01	-1.1104459042e+00
 6.0093826009e-01	 9.3458071283e-01	-7.5019577843e-01
 5.8956255089e-01	 9.4179822670e-01	-9.1383354260e-01
 5.7811598227e-01	 9.4886764740e-01	-1.0753820057e+00
 5.6660139962e-01	 9.5578802838e-01	-1.2367032208e+00
 5.5502166210e-01	 9.6255849476e-01	-1.3998147086e+00
 5.4337964046e-01	 9.6917824345e-01	-1.5668744079e+00
 6.0494451515e-01	 9.4081125092e-01	-8.2932136317e-01
 5.9349296790e-01	 9.4807688155e-01	-9.8624486009e-01
 5.8197008882e-01	 9.5519343171e-01	-1.1405080245e+00
 5.7037874228e-01	 9.6215994857e-01	-1.2940966984e+00
 5.5872180651e-01	 9.6897555139e-01	-1.4491441848e+00
 5.4700217139e-01	 9.7563943174e-01	-1.6079158638e+00
 6.0895077022e-01	 9.4704178900e-01	-9.0478177077e-01
 5.9742338490e-01	 9.5435553639e-01	-1.0553414042e+00
 5.8582419537e-01	 9.6151921603e-01	-1.2025622925e+00
 5.7415608494e-01	 9.6853186876e-01	-1.3485823932e+00
 5.6242195093e-01	 9.7539260802e-01	-1.4956894489e+00
 5.5062470233e-01	 9.8210062003e-01	-1.6463050722e+00
 6.1295702529e-01	 9.5327232709e-01	-9.7669871861e-01
 6.0135380191e-01	 9.6063419124e-01	-1.1210476478e+00
 5.8967830192e-01	 9.6784500035e-01	-1.2613887927e+00
 5.7793342761e-01	 9.7490378894e-01	-1.4000398699e+00
 5.6612209534e-01	 9.8180966466e-01	-1.5394809049e+00
 5.5424723327e-01	 9.8856180832e-01	-1.6823375881e+00
 6.1696328036e-01	 9.5950286517e-01	-1.0452053622e+00
 6.0528421892e-01	 9.6691284608e-01	-1.1833043411e+00
 5.9353240846e-01	 9.7417078466e-01	-1.3168495770e+00
 5.8171077027e-01	 9.8127570913e-01	-1.4483655248e+00
 5.6982223975e-01	 9.8822672129e-01	-1.5805615419e+00
 5.5786976420e-01	 9.9502299661e-01	-1.7163143221e+00
 6.2096953542e-01	 9.6573340326e-01	-1.1104459042e+00
 6.0921463592e-01	 9.7319150093e-01	-1.2420679700e+00
 5.9738651501e-01	 9.8049656898e-01	-1.3688241725e+00
 5.8548811294e-01	 9.8764762932e-01	-1.4934720372e+00
 5.7352238417e-01	 9.9464377792e-01	-1.6189865294e+00
 5.6149229514e-01	 1.0014841849e+00	-1.7485413748e+00
 5.4337964046e-01	 9.6917824345e-01	-1.5668744079e+00
 5.3167821478e-01	 9.7564654315e-01	-1.7347180490e+00
 5.1992027233e-01	 9.8196273435e-01	-1.8996933566e+00
 5.0810870533e-01	 9.8812622918e-01	-2.0633934472e+00
 4.9624640883e-01	 9.9413651123e-01	-2.2274951396e+00
 4.8433627852e-01	 9.9999313525e-01	-2.3937449035e+00
 5.4700217139e-01	 9.7563943174e-01	-1.6079158638e+00
 5.3522273622e-01	 9.8215085344e-01	-1.7673681057e+00
 5.2338640748e-01	 9.8850915258e-01	-1.9239604481e+00
 5.1149609670e-01	 9.9471373738e-01	-2.0793860034e+00
 4.9955471822e-01	 1.0007640880e+00	-2.2354374228e+00
 4.8756518704e-01	 1.0066597562e+00	-2.3939922114e+00
 5.5062470233e-01	 9.8210062003e-01	-1.6463050722e+00
 5.3876725765e-01	 9.8865516372e-01	-1.7976262910e+00
 5.2685254263e-01	 9.9505557081e-01	-1.9462631819e+00
 5.1488348807e-01	 1.0013012456e+00	-2.0939341988e+00
 5.0286302761e-01	 1.0073916647e+00	-2.2424614675e+00
 4.9079409556e-01	 1.0133263771e+00	-2.3937558140e+00
 5.5424723327e-01	 9.8856180832e-01	-1.6823375881e+00
 5.4231177908e-01	 9.9515947401e-01	-1.8260379265e+00
 5.3031867778e-01	 1.0016019890e+00	-1.9672534336e+00
 5.1827087944e-01	 1.0078887538e+00	-2.1076551302e+00
 5.0617133700e-01	 1.0140192415e+00	-2.2490102889e+00
 4.9402300409e-01	 1.0199929980e+00	-2.3931675226e+00
 5.5786976420e-01	 9.9502299661e-01	-1.7163143221e+00
 5.4585630051e-01	 1.0016637843e+00	-1.8531468446e+00
 5.3378481293e-01	 1.0081484073e+00	-1.9875784512e+00
 5.2165827081e-01	 1.0144762620e+00	-2.1211617844e+00
 5.0947964639e-01	 1.0206468182e+00	-2.2555269152e+00
 4.9725191261e-01	 1.0266596189e+00	-2.3923668320e+00
 5.6149229514e-01	 1.0014841849e+00	-1.7485413748e+00
 5.4940082194e-01	 1.0081680946e+00	-1.8794954511e+00
 5.3725094808e-01	 1.0146948255e+00	-2.0078810247e+00
 5.2504566218e-01	 1.0210637702e+00	-2.1350631981e+00
 5.1278795579e-01	 1.0272743949e+00	-2.2624544199e+00
 5.0048082113e-01	 1.0333262398e+00	-2.3915007115e+00
 4.8433627852e-01	 9.9999313525e-01	-2.3937449035e+00
 4.7238120866e-01	 1.0056957268e+00	-2.5590765253e+00
 4.6038408994e-01	 1.0112439819e+00	-2.7200700643e+00
 4.4834780744e-01	 1.0166376664e+00	-2.8779864763e+00
 4.3627523857e-01	 1.0218766156e+00	-3.0340790438e+00
 4.2416925110e-01	 1.0269607333e+00	-3.1895817217e+00
 4.8756518704e-01	 1.0066597562e+00	-2.3939922114e+00
 4.7553041671e-01	 1.0124003650e+00	-2.5518064850e+00
 4.6345331720e-01	 1.0179856085e+00	-2.7051794394e+00
 4.5133679282e-01	 1.0234152509e+00	-2.8553515411e+00
 4.3918374016e-01	 1.0286891263e+00	-3.0035453084e+00
 4.2699704611e-01	 1.0338071381e+00	-3.1509537320e+00
 4.9079409556e-01	 1.0133263771e+00	-2.3937558140e+00
 4.7867962477e-01	 1.0191050032e+00	-2.5442430153e+00
 4.6652254447e-01	 1.0247272350e+00	-2.6899589654e+00
 4.5432577820e-01	 1.0301928353e+00	-2.8322787345e+00
 4.4209224175e-01	 1.0355016371e+00	-2.9725564774e+00
 4.2982484111e-01	 1.0406535430e+00	-3.1121134536e+00
 4.9402300409e-01	 1.0199929980e+00	-2.3931675226e+00
 4.8182883283e-01	 1.0258096414e+00	-2.5361915181e+00
 4.6959177174e-01	 1.0314688616e+00	-2.6739906834e+00
 4.5731476359e-01	 1.0369704198e+00	-2.8082265132e+00
 4.4500074334e-01	 1.0423141479e+00	-2.9405438370e+00
 4.3265263612e-01	 1.0474999479e+00	-3.0725579711e+00
 4.9725191261e-01	 1.0266596189e+00	-2.3923668320e+00
 4.8497804089e-01	 1.0325142795e+00	-2.5274731298e+00
 4.7266099900e-01	 1.0382104881e+00	-2.6568777312e+00
 4.6030374897e-01	 1.0437480042e+00	-2.7826771874e+00
 4.4790924493e-01	 1.0491266587e+00	-2.9069627679e+00
 4.3548043113e-01	 1.0543463528e+00	-3.0318062778e+00
 5.0048082113e-01	 1.0333262398e+00	-2.3915007115e+00
 4.8812724895e-01	 1.0392189177e+00	-2.5179242601e+00
 4.7573022627e-01	 1.0449521146e+00	-2.6382437146e+00
 4.6329273435e-01	 1.0505255886e+00	-2.7551362106e+00
 4.5081774652e-01	 1.0559391694e+00	-2.8712920324e+00
 4.3830822614e-01	 1.0611927577e+00	-2.9893986387e+00
 4.2416925110e-01	 1.0269607333e+00	-3.1895817217e+00
 4.1203270116e-01	 1.0318899914e+00	-3.3448882394e+00
 3.9986843136e-01	 1.0366644292e+00	-3.4991427317e+00
 3.8767926885e-01	 1.0412841523e+00	-3.6516158144e+00
 3.7546802352e-01	 1.0457493316e+00	-3.8014836017e+00
 3.6323748623e-01	 1.0500602030e+00	-3.9453690448e+00
 4.2699704611e-01	 1.0338071381e+00	-3.1509537320e+00
 4.1477958584e-01	 1.0387692580e+00	-3.2976232202e+00
 4.0253422090e-01	 1.0435755254e+00	-3.4424583377e+00
 3.9026379730e-01	 1.0482260466e+00	-3.5848397741e+00
 3.7797114368e-01	 1.0527209938e+00	-3.7240494809e+00
 3.6565906947e-01	 1.0570606043e+00	-3.8582365391e+00
 4.2982484111e-01	 1.0406535430e+00	-3.1121134536e+00
 4.1752647051e-01	 1.0456485246e+00	-3.2507988465e+00
 4.0520001044e-01	 1.0504866216e+00	-3.3872202209e+00
 3.9284832576e-01	 1.0551679410e+00	-3.5207330320e+00
 3.8047426384e-01	 1.0596926560e+00	-3.6505925077e+00
 3.6808065271e-01	 1.0640610057e+00	-3.7757159187e+00
 4.3265263612e-01	 1.0474999479e+00	-3.0725579711e+00
 4.2027335519e-01	 1.0525277913e+00	-3.2040295436e+00
 4.0786579998e-01	 1.0573977178e+00	-3.3331744783e+00
 3.9543285422e-01	 1.0621098353e+00	-3.4591904788e+00
 3.8297738399e-01	 1.0666643182e+00	-3.5811762371e+00
 3.7050223595e-01	 1.0710614070e+00	-3.6981260772e+00
 4.3548043113e-01	 1.0543463528e+00	-3.0318062778e+00
 4.2302023986e-01	 1.0594070579e+00	-3.1569481088e+00
 4.1053158953e-01	 1.0643088140e+00	-3.2800816595e+00
 3.9801738268e-01	 1.0690517297e+00	-3.4001170827e+00
 3.8548050415e-01	 1.0736359804e+00	-3.5158694016e+00
 3.7292381919e-01	 1.0780618084e+00	-3.6260535608e+00
 4.3830822614e-01	 1.0611927577e+00	-2.9893986387e+00
 4.2576712454e-01	 1.0662863245e+00	-3.1092051942e+00
 4.1319737907e-01	 1.0712199102e+00	-3.2277163807e+00
 4.0060191114e-01	 1.0759936240e+00	-3.3434276502e+00
 3.8798362431e-01	 1.0806076427e+00	-3.4547458340e+00
 3.7534540243e-01	 1.0850622097e+00	-3.5599848304e+00
 3.6323748623e-01	 1.0500602030e+00	-3.9453690448e+00
 3.5099042698e-01	 1.0542170656e+00	-4.0812208353e+00
 3.3872959330e-01	 1.0582202813e+00	-4.2169142344e+00
 3.2645770857e-01	 1.0620702735e+00	-4.3514523710e+00
 3.1417747040e-01	 1.0657675255e+00	-4.4834510182e+00
 3.0189154915e-01	 1.0693125800e+00	-4.6111444575e+00
 3.6565906947e-01	 1.0570606043e+00	-3.8582365391e+00
 3.5333036316e-01	 1.0612451794e+00	-3.9862744423e+00
 3.4098779059e-01	 1.0652750832e+00	-4.1148461832e+00
 3.2863409329e-01	 1.0691507419e+00	-4.2427817859e+00
 3.1627198687e-01	 1.0728726423e+00	-4.3685122108e+00
 3.0390415948e-01	 1.0764413306e+00	-4.4900756492e+00
 3.6808065271e-01	 1.0640610057e+00	-3.7757159187e+00
 3.5567029934e-01	 1.0682732931e+00	-3.8969055817e+00
 3.4324598788e-01	 1.0723298851e+00	-4.0191943555e+00
 3.3081047802e-01	 1.0762312104e+00	-4.1411353910e+00
 3.1836650334e-01	 1.0799777591e+00	-4.2608613785e+00
 3.0591676981e-01	 1.0835700811e+00	-4.3760917115e+00
 3.7050223595e-01	 1.0710614070e+00	-3.6981260772e+00
 3.5801023552e-01	 1.0753014069e+00	-3.8135365225e+00
 3.4550418517e-01	 1.0793846870e+00	-3.9303651630e+00
 3.3298686274e-01	 1.0833116789e+00	-4.0467863644e+00
 3.2046101981e-01	 1.0870828760e+00	-4.1605237573e+00
 3.0792938014e-01	 1.0906988316e+00	-4.2688579720e+00
 3.7292381919e-01	 1.0780618084e+00	-3.6260535608e+00
 3.6035017170e-01	 1.0823295207e+00	-3.7365954711e+00
 3.4776238246e-01	 1.0864394889e+00	-3.8487680612e+00
 3.3516324746e-01	 1.0903921474e+00	-3.9600113110e+00
 3.2255553628e-01	 1.0941879928e+00	-4.0675316058e+00
 3.0994199046e-01	 1.0978275822e+00	-4.1680535221e+00
 3.7534540243e-01	 1.0850622097e+00	-3.5599848304e+00
 3.6269010788e-01	 1.0893576345e+00	-3.6665173368e+00
 3.5002057975e-01	 1.0934942907e+00	-3.7748163113e+00
 3.3733963219e-01	 1.0974726159e+00	-3.8810909200e+00
 3.2465005275e-01	 1.1012931096e+00	-3.9819246587e+00
 3.1195460079e-01	 1.1049563327e+00	-4.0733713703e+00
 3.0189154915e-01	 1.0693125800e+00	-4.6111444575e+00
 2.8960258639e-01	 1.0727060376e+00	-4.7339465179e+00
 2.7731319351e-01	 1.0759485554e+00	-4.8529321041e+00
 2.6502595032e-01	 1.0790408458e+00	-4.9682924799e+00
 2.5274340376e-01	 1.0819836751e+00	-5.0798907127e+00
 2.4046806663e-01	 1.0847778621e+00	-5.1872770418e+00
 3.0390415948e-01	 1.0764413306e+00	-4.4900756492e+00
 2.9153327030e-01	 1.0798574112e+00	-4.6069538534e+00
 2.7916194813e-01	 1.0831215458e+00	-4.7203953755e+00
 2.6679278999e-01	 1.0862344514e+00	-4.8305253557e+00
 2.5442835978e-01	 1.0891968996e+00	-4.9371142095e+00
 2.4207118708e-01	 1.0920097145e+00	-5.0395941163e+00
 3.0591676981e-01	 1.0835700811e+00	-4.3760917115e+00
 2.9346395421e-01	 1.0870087848e+00	-4.4862492697e+00
 2.8101070276e-01	 1.0902945362e+00	-4.5928452678e+00
 2.6855962965e-01	 1.0934280571e+00	-4.6961352652e+00
 2.5611331581e-01	 1.0964101241e+00	-4.7959961243e+00
 2.4367430752e-01	 1.0992415670e+00	-4.8919431486e+00
 3.0792938014e-01	 1.0906988316e+00	-4.2688579720e+00
 2.9539463812e-01	 1.0941601584e+00	-4.3711259442e+00
 2.8285945738e-01	 1.0974675265e+00	-4.4692856173e+00
 2.7032646932e-01	 1.1006216627e+00	-4.5639152504e+00
 2.5779827183e-01	 1.1036233486e+00	-4.6551929265e+00
 2.4527742797e-01	 1.1064734194e+00	-4.7429138782e+00
 3.0994199046e-01	 1.0978275822e+00	-4.1680535221e+00
 2.9732532203e-01	 1.1013115320e+00	-4.2608981167e+00
 2.8470821200e-01	 1.1046405169e+00	-4.3487467120e+00
 2.7209330899e-01	 1.1078152683e+00	-4.4326883944e+00
 2.5948322786e-01	 1.1108365731e+00	-4.5133930283e+00
 2.4688054841e-01	 1.1137052718e+00	-4.5928752378e+00
 3.1195460079e-01	 1.1049563327e+00	-4.0733713703e+00
 2.9925600594e-01	 1.1084629056e+00	-4.1549009300e+00
 2.8655696663e-01	 1.1118135073e+00	-4.2304378756e+00
 2.7386014866e-01	 1.1150088740e+00	-4.3057797904e+00
 2.6116818388e-01	 1.1180497976e+00	-4.3827184878e+00
 2.4848366885e-01	 1.1209371242e+00	-4.4605511544e+00
 2.4046806663e-01	 1.0847778621e+00	-5.1872770418e+00
 2.2820241642e-01	 1.0874242771e+00	-5.2897077332e+00
 2.1594889414e-01	 1.0899238397e+00	-5.3870146057e+00
 2.0370990326e-01	 1.0922775181e+00	-5.4791635726e+00
 1.9148780869e-01	 1.0944863272e+00	-5.5658409279e+00
 1.7928493584e-01	 1.0965513271e+00	-5.6464779844e+00
 2.4207118708e-01	 1.0920097145e+00	-5.0395941163e+00
 2.2972376587e-01	 1.0946737723e+00	-5.1369272517e+00
 2.1738855343e-01	 1.0971899986e+00	-5.2288231585e+00
 2.0506796928e-01	 1.0995593682e+00	-5.3153497519e+00
 1.9276439408e-01	 1.1017829027e+00	-5.3962704113e+00
 1.8048016875e-01	 1.1038616693e+00	-5.4710698041e+00
 2.4367430752e-01	 1.0992415670e+00	-4.8919431486e+00
 2.3124511531e-01	 1.1019232674e+00	-4.9828024302e+00
 2.1882821273e-01	 1.1044561576e+00	-5.0681697556e+00
 2.0642603530e-01	 1.1068412183e+00	-5.1481950990e+00
 1.9404097947e-01	 1.1090794782e+00	-5.2227014042e+00
 1.8167540165e-01	 1.1111720115e+00	-5.2912122424e+00
 2.4527742797e-01	 1.1064734194e+00	-4.7429138782e+00
 2.3276646475e-01	 1.1091727626e+00	-4.8259113789e+00
 2.2026787202e-01	 1.1117223165e+00	-4.9037482765e+00
 2.0778410132e-01	 1.1141230685e+00	-4.9782830478e+00
 1.9531756486e-01	 1.1163760537e+00	-5.0493083703e+00
 1.8287063456e-01	 1.1184823537e+00	-5.1155743989e+00
 2.4688054841e-01	 1.1137052718e+00	-4.5928752378e+00
 2.3428781419e-01	 1.1164222578e+00	-4.6717302100e+00
 2.2170753132e-01	 1.1189884754e+00	-4.7480507791e+00
 2.0914216734e-01	 1.1214049186e+00	-4.8210225109e+00
 1.9659415026e-01	 1.1236726292e+00	-4.8896693817e+00
 1.8406586747e-01	 1.1257926958e+00	-4.9528758101e+00
 2.4848366885e-01	 1.1209371242e+00	-4.4605511544e+00
 2.3580916364e-01	 1.1236717530e+00	-4.5370860133e+00
 2.2314719061e-01	 1.1262546344e+00	-4.6103255799e+00
 2.1050023337e-01	 1.1286867687e+00	-4.6795849359e+00
 1.9787073565e-01	 1.1309692047e+00	-4.7440192984e+00
 1.8526110037e-01	 1.1331030380e+00	-4.8026450751e+00
 1.7928493584e-01	 1.0965513271e+00	-5.6464779844e+00
 1.6710356971e-01	 1.0984736220e+00	-5.7212432803e+00
 1.5494595405e-01	 1.1002543581e+00	-5.7908605699e+00
 1.4281429058e-01	 1.1018947226e+00	-5.8552957057e+00
 1.3071073831e-01	 1.1033959417e+00	-5.9143720501e+00
 1.1863741282e-01	 1.1047592794e+00	-5.9677969843e+00
 1.8048016875e-01	 1.1038616693e+00	-5.4710698041e+00
 1.6821759351e-01	 1.1057967795e+00	-5.5401642544e+00
 1.5597892708e-01	 1.1075893872e+00	-5.6045306266e+00
 1.4376638585e-01	 1.1092406874e+00	-5.6641721690e+00
 1.3158214323e-01	 1.1107519146e+00	-5.7189413092e+00
 1.1942832891e-01	 1.1121243413e+00	-5.7686818991e+00
 1.8167540165e-01	 1.1111720115e+00	-5.2912122424e+00
 1.6933161731e-01	 1.1131199370e+00	-5.3550862895e+00
 1.5701190010e-01	 1.1149244162e+00	-5.4157761412e+00
 1.4471848112e-01	 1.1165866522e+00	-5.4728299720e+00
 1.3245354815e-01	 1.1181078876e+00	-5.5257602093e+00
 1.2021924499e-01	 1.1194894032e+00	-5.5740567801e+00
 1.8287063456e-01	 1.1184823537e+00	-5.1155743989e+00
 1.7044564111e-01	 1.1204430944e+00	-5.1774549702e+00
 1.5804487313e-01	 1.1222594453e+00	-5.2360124157e+00
 1.4567057640e-01	 1.1239326170e+00	-5.2908983183e+00
 1.3332495308e-01	 1.1254638605e+00	-5.3417195751e+00
 1.2101016108e-01	 1.1268544650e+00	-5.3880506856e+00
 1.8406586747e-01	 1.1257926958e+00	-4.9528758101e+00
 1.7155966490e-01	 1.1277662519e+00	-5.0114154179e+00
 1.5907784616e-01	 1.1295944743e+00	-5.0667223153e+00
 1.4662267167e-01	 1.1312785818e+00	-5.1185303453e+00
 1.3419635800e-01	 1.1328198335e+00	-5.1665179406e+00
 1.2180107716e-01	 1.1342195269e+00	-5.2103194865e+00
 1.8526110037e-01	 1.1331030380e+00	-4.8026450751e+00
 1.7267368870e-01	 1.1350894094e+00	-4.8565847665e+00
 1.6011081918e-01	 1.1369295034e+00	-4.9075807322e+00
 1.4757476694e-01	 1.1386245467e+00	-4.9554289650e+00
 1.3506776292e-01	 1.1401758064e+00	-4.9998575736e+00
 1.2259199325e-01	 1.1415845888e+00	-5.0405372533e+00
 1.1863741282e-01	 1.1047592794e+00	-5.9677969843e+00
 1.0659638572e-01	 1.1059860360e+00	-6.0163692838e+00
 9.4589684056e-02	 1.1070775460e+00	-6.0606142963e+00
 8.2619289860e-02	 1.1080351773e+00	-6.0997384090e+00
 7.0687139703e-02	 1.1088603291e+00	-6.1329423656e+00
 5.8795124316e-02	 1.1095544307e+00	-6.1594466132e+00
 1.1942832891e-01	 1.1121243413e+00	-5.7686818991e+00
 1.0730702829e-01	 1.1133592762e+00	-5.8143478428e+00
 9.5220281949e-02	 1.1144580630e+00	-5.8562419485e+00
 8.3170085126e-02	 1.1154220785e+00	-5.8933978483e+00
 7.1158387301e-02	 1.1162527313e+00	-5.9248872625e+00
 5.9187091812e-02	 1.1169514602e+00	-5.9498330458e+00
 1.2021924499e-01	 1.1194894032e+00	-5.5740567801e+00
 1.0801767086e-01	 1.1207325165e+00	-5.6182910333e+00
 9.5850879843e-02	 1.1218385800e+00	-5.6587401346e+00
 8.3720880392e-02	 1.1228089797e+00	-5.6944543403e+00
 7.1629634899e-02	 1.1236451335e+00	-5.7245083867e+00
 5.9579059307e-02	 1.1243484897e+00	-5.7480138827e+00
 1.2101016108e-01	 1.1268544650e+00	-5.3880506856e+00
 1.0872831343e-01	 1.1281057567e+00	-5.4304655916e+00
 9.6481477737e-02	 1.1292190969e+00	-5.4691932927e+00
 8.4271675658e-02	 1.1301958809e+00	-5.5032753117e+00
 7.2100882497e-02	 1.1310375357e+00	-5.5317648319e+00
 5.9971026803e-02	 1.1317455193e+00	-5.5537383977e+00
 1.2180107716e-01	 1.1342195269e+00	-5.2103194865e+00
 1.0943895600e-01	 1.1354789969e+00	-5.2504912745e+00
 9.7112075630e-02	 1.1365996139e+00	-5.2871945567e+00
 8.4822470923e-02	 1.1375827820e+00	-5.3194377436e+00
 7.2572130095e-02	 1.1384299379e+00	-5.3462288640e+00
 6.0362994298e-02	 1.1391425488e+00	-5.3665865302e+00
 1.2259199325e-01	 1.1415845888e+00	-5.0405372533e+00
 1.1014959858e-01	 1.1428522372e+00	-5.0780048249e+00
 9.7742673524e-02	 1.1439801309e+00	-5.1123525336e+00
 8.5373266189e-02	 1.1449696832e+00	-5.1425322757e+00
 7.3043377693e-02	 1.1458223401e+00	-5.1674842884e+00
 6.0754961794e-02	 1.1465395783e+00	-5.1861473336e+00
 5.8795124316e-02	 1.1095544307e+00	-6.1594466132e+00
 4.6945088279e-02	 1.1101189395e+00	-6.1810561651e+00
 3.5138829740e-02	 1.1105553403e+00	-6.1991790553e+00
 2.3378100205e-02	 1.1108651429e+00	-6.2125697829e+00
 1.1664604370e-02	 1.1110498811e+00	-6.2201324968e+00
-1.3377716679e-318	 1.1111164789e+00	-6.2208154621e+00
 5.9187091812e-02	 1.1169514602e+00	-5.9498330458e+00
 4.7258055534e-02	 1.1175197325e+00	-5.9701809511e+00
 3.5373088604e-02	 1.1179590426e+00	-5.9874683822e+00
 2.3533954207e-02	 1.1182709105e+00	-6.0003546393e+00
 1.1742368399e-02	 1.1184568803e+00	-6.0076474855e+00
-6.8706744973e-319	 1.1185242695e+00	-6.0081904873e+00
 5.9579059307e-02	 1.1243484897e+00	-5.7480138827e+00
 4.7571022789e-02	 1.1249205254e+00	-5.7671255442e+00
 3.5607347469e-02	 1.1253627448e+00	-5.7835710398e+00
 2.3689808208e-02	 1.1256766781e+00	-5.7959481257e+00
 1.1820132429e-02	 1.1258638795e+00	-5.8029878225e+00
-3.0595015119e-319	 1.1259320630e+00	-5.8034390542e+00
 5.9971026803e-02	 1.1317455193e+00	-5.5537383977e+00
 4.7883990044e-02	 1.1323213183e+00	-5.5715412514e+00
 3.5841606334e-02	 1.1327664471e+00	-5.5870916149e+00
 2.3845662209e-02	 1.1330824457e+00	-5.5989293791e+00
 1.1897896458e-02	 1.1332708787e+00	-5.6057109771e+00
-1.4296283528e-319	 1.1333398587e+00	-5.6060916221e+00
 6.0362994298e-02	 1.1391425488e+00	-5.3665865302e+00
 4.8196957299e-02	 1.1397221113e+00	-5.3830170781e+00
 3.6075865199e-02	 1.1401701494e+00	-5.3976182606e+00
 2.4001516211e-02	 1.1404882134e+00	-5.4088762491e+00
 1.1975660487e-02	 1.1406778779e+00	-5.4153755136e+00
-1.4663374303e-319	 1.1407476560e+00	-5.4156789016e+00
 6.0754961794e-02	 1.1465395783e+00	-5.1861473336e+00
 4.8509924555e-02	 1.1471229042e+00	-5.2011487191e+00
 3.6310124064e-02	 1.1475738516e+00	-5.2147437097e+00
 2.4157370212e-02	 1.1478939810e+00	-5.2253693812e+00
 1.2053424516e-02	 1.1480848771e+00	-5.2315413430e+00
-2.6549605611e-319	 1.1481554541e+00	-5.2317318466e+00
 1.1481481481e+00	 0.0000000000e+00	 2.8123704373e+00
 1.1480848771e+00	 1.2053424516e-02	 2.8114835426e+00
 1.1478939810e+00	 2.4157370212e-02	 2.8117293960e+00
 1.1475738516e+00	 3.6310124064e-02	 2.8124158819e+00
 1.1471229042e+00	 4.8509924555e-02	 2.8130448457e+00
 1.1465395783e+00	 6.0754961794e-02	 2.8133051103e+00
 1.1555555556e+00	 0.0000000000e+00	 2.8871851772e+00
 1.1554918763e+00	 1.2131188545e-02	 2.8861603111e+00
 1.1552997486e+00	 2.4313224213e-02	 2.8861055732e+00
 1.1549775539e+00	 3.6544382929e-02	 2.8863353775e+00
 1.1545236971e+00	 4.8822891810e-02	 2.8863469873e+00
 1.1539366079e+00	 6.1146929289e-02	 2.8858142117e+00
 1.1629629630e+00	 0.0000000000e+00	 2.9583319898e+00
 1.1628988755e+00	 1.2208952574e-02	 2.9572009315e+00
 1.1627055162e+00	 2.4469078215e-02	 2.9568505122e+00
 1.1623812562e+00	 3.6778641794e-02	 2.9566096281e+00
 1.1619244900e+00	 4.9135859065e-02	 2.9559786128e+00
 1.1613336374e+00	 6.1538896785e-02	 2.9546236569e+00
 1.1703703704e+00	 0.0000000000e+00	 3.0256187072e+00
 1.1703058747e+00	 1.2286716603e-02	 3.0244049559e+00
 1.1701112838e+00	 2.4624932216e-02	 3.0237638354e+00
 1.1697849585e+00	 3.7012900659e-02	 3.0230461281e+00
 1.1693252830e+00	 4.9448826320e-02	 3.0217623141e+00
 1.1687306670e+00	 6.1930864280e-02	 3.0195777608e+00
 1.1777777778e+00	 0.0000000000e+00	 3.0888565889e+00
 1.1777128739e+00	 1.2364480632e-02	 3.0875752864e+00
 1.1775170515e+00	 2.4780786218e-02	 3.0866484447e+00
 1.1771886607e+00	 3.7247159524e-02	 3.0854555818e+00
 1.1767260759e+00	 4.9761793575e-02	 3.0835238188e+00
 1.1761276965e+00	 6.2322831775e-02	 3.0805238871e+00
 1.1851851852e+00	 0.0000000000e+00	 3.1478602149e+00
 1.1851198731e+00	 1.2442244662e-02	 3.1465180676e+00
 1.1849228191e+00	 2.4936640219e-02	 3.1453104164e+00
 1.1845923630e+00	 3.7481418389e-02	 3.1436518023e+00
 1.1841268688e+00	 5.0074760831e-02	 3.1410918933e+00
 1.1835247260e+00	 6.2714799271e-02	 3.1373123589e+00
 1.1465395783e+00	 6.0754961794e-02	 2.8133051103e+00
 1.1458223401e+00	 7.3043377693e-02	 2.8136284095e+00
 1.1449696832e+00	 8.5373266189e-02	 2.8142398548e+00
 1.1439801309e+00	 9.7742673524e-02	 2.8147746307e+00
 1.1428522372e+00	 1.1014959858e-01	 2.8150237181e+00
 1.1415845888e+00	 1.2259199325e-01	 2.8149281967e+00
 1.1539366079e+00	 6.1146929289e-02	 2.8858142117e+00
 1.1532147423e+00	 7.3514625291e-02	 2.8851748855e+00
 1.1523565844e+00	 8.5924061455e-02	 2.8846784111e+00
 1.1513606479e+00	 9.8373271418e-02	 2.8839596036e+00
 1.1502254774e+00	 1.1086024115e-01	 2.8828028726e+00
 1.1489496506e+00	 1.2338290934e-01	 2.8811376332e+00
 1.1613336374e+00	 6.1538896785e-02	 2.9546236569e+00
 1.1606071445e+00	 7.3985872889e-02	 2.9529925048e+00
 1.1597434856e+00	 8.6474856721e-02	 2.9513508772e+00
 1.1587411648e+00	 9.9003869312e-02	 2.9493225166e+00
 1.1575987177e+00	 1.1157088372e-01	 2.9466742759e+00
 1.1563147125e+00	 1.2417382542e-01	 2.9433127319e+00
 1.1687306670e+00	 6.1930864280e-02	 3.0195777608e+00
 1.1679995467e+00	 7.4457120487e-02	 3.0169532798e+00
 1.1671303868e+00	 8.7025651986e-02	 3.0141624874e+00
 1.1661216818e+00	 9.9634467205e-02	 3.0108070235e+00
 1.1649719579e+00	 1.1228152629e-01	 3.0066248639e+00
 1.1636797743e+00	 1.2496474151e-01	 3.0014882303e+00
 1.1761276965e+00	 6.2322831775e-02	 3.0805238871e+00
 1.1753919489e+00	 7.4928368085e-02	 3.0769321674e+00
 1.1745172880e+00	 8.7576447252e-02	 3.0730212864e+00
 1.1735021988e+00	 1.0026506510e-01	 3.0683594102e+00
 1.1723451981e+00	 1.1299216886e-01	 3.0626439660e+00
 1.1710448362e+00	 1.2575565759e-01	 3.0557009459e+00
 1.1835247260e+00	 6.2714799271e-02	 3.1373123589e+00
 1.1827843511e+00	 7.5399615683e-02	 3.1328069868e+00
 1.1819041891e+00	 8.8127242518e-02	 3.1278380556e+00
 1.1808827158e+00	 1.0089566299e-01	 3.1219285294e+00
 1.1797184384e+00	 1.1370281143e-01	 3.1147232493e+00
 1.1784098981e+00	 1.2654657368e-01	 3.1059897298e+00
 1.1415845888e+00	 1.2259199325e-01	 2.8149281967e+00
 1.1401758064e+00	 1.3506776292e-01	 2.8149572782e+00
 1.1386245467e+00	 1.4757476694e-01	 2.8153346897e+00
 1.1369295034e+00	 1.6011081918e-01	 2.8158393299e+00
 1.1350894094e+00	 1.7267368870e-01	 2.8163726997e+00
 1.1331030380e+00	 1.8526110037e-01	 2.8169486723e+00
 1.1489496506e+00	 1.2338290934e-01	 2.8811376332e+00
 1.1475317794e+00	 1.3593916784e-01	 2.8794968769e+00
 1.1459705115e+00	 1.4852686221e-01	 2.8781827705e+00
 1.1442645324e+00	 1.6114379221e-01	 2.8769805782e+00
 1.1424125669e+00	 1.7378771250e-01	 2.8757980300e+00
 1.1404133802e+00	 1.8645633328e-01	 2.8746563132e+00
 1.1563147125e+00	 1.2417382542e-01	 2.9433127319e+00
 1.1548877523e+00	 1.3681057276e-01	 2.9398253677e+00
 1.1533164763e+00	 1.4947895748e-01	 2.9365984748e+00
 1.1515995615e+00	 1.6217676524e-01	 2.9334351682e+00
 1.1497357244e+00	 1.7490173630e-01	 2.9302613245e+00
 1.1477237224e+00	 1.8765156618e-01	 2.9271178598e+00
 1.1636797743e+00	 1.2496474151e-01	 3.0014882303e+00
 1.1622437252e+00	 1.3768197769e-01	 2.9960290963e+00
 1.1606624411e+00	 1.5043105275e-01	 2.9907225629e+00
 1.1589345906e+00	 1.6320973826e-01	 2.9854003049e+00
 1.1570588818e+00	 1.7601576010e-01	 2.9800174885e+00
 1.1550340646e+00	 1.8884679909e-01	 2.9746464034e+00
 1.1710448362e+00	 1.2575565759e-01	 3.0557009459e+00
 1.1695996982e+00	 1.3855338261e-01	 3.0481960927e+00
 1.1680084059e+00	 1.5138314802e-01	 3.0406970037e+00
 1.1662696196e+00	 1.6424271129e-01	 3.0330738419e+00
 1.1643820393e+00	 1.7712978389e-01	 3.0253214276e+00
 1.1623444067e+00	 1.9004203199e-01	 3.0175542963e+00
 1.1784098981e+00	 1.2654657368e-01	 3.1059897298e+00
 1.1769556711e+00	 1.3942478753e-01	 3.0964160359e+00
 1.1753543707e+00	 1.5233524329e-01	 3.0866649495e+00
 1.1736046487e+00	 1.6527568432e-01	 3.0766542657e+00
 1.1717051968e+00	 1.7824380769e-01	 3.0664280402e+00
 1.1696547489e+00	 1.9123726490e-01	 3.0561531501e+00
 1.1331030380e+00	 1.8526110037e-01	 2.8169486723e+00
 1.1309692047e+00	 1.9787073565e-01	 2.8161172118e+00
 1.1286867687e+00	 2.1050023337e-01	 2.8132496116e+00
 1.1262546344e+00	 2.2314719061e-01	 2.8097126940e+00
 1.1236717530e+00	 2.3580916364e-01	 2.8069122916e+00
 1.1209371242e+00	 2.4848366885e-01	 2.8062658569e+00
 1.1404133802e+00	 1.8645633328e-01	 2.8746563132e+00
 1.1382657803e+00	 1.9914732104e-01	 2.8719603964e+00
 1.1359686188e+00	 2.1185829939e-01	 2.8668279047e+00
 1.1335207933e+00	 2.2458684991e-01	 2.8604756434e+00
 1.1309212482e+00	 2.3733051308e-01	 2.8541660151e+00
 1.1281689766e+00	 2.5008678930e-01	 2.8491808712e+00
 1.1477237224e+00	 1.8765156618e-01	 2.9271178598e+00
 1.1455623558e+00	 2.0042390643e-01	 2.9222965161e+00
 1.1432504689e+00	 2.1321636541e-01	 2.9147054885e+00
 1.1407869522e+00	 2.2602650920e-01	 2.9054433280e+00
 1.1381707433e+00	 2.3885186252e-01	 2.8956610900e+00
 1.1354008290e+00	 2.5168990974e-01	 2.8865374362e+00
 1.1550340646e+00	 1.8884679909e-01	 2.9746464034e+00
 1.1528589313e+00	 2.0170049182e-01	 2.9674927057e+00
 1.1505323191e+00	 2.1457443143e-01	 2.9572945391e+00
 1.1480531112e+00	 2.2746616849e-01	 2.9450628694e+00
 1.1454202385e+00	 2.4037321197e-01	 2.9318684194e+00
 1.1426326814e+00	 2.5329303019e-01	 2.9188180325e+00
 1.1623444067e+00	 1.9004203199e-01	 3.0175542963e+00
 1.1601555068e+00	 2.0297707721e-01	 3.0079146240e+00
 1.1578141692e+00	 2.1593249745e-01	 2.9950051230e+00
 1.1553192701e+00	 2.2890582779e-01	 2.9797787578e+00
 1.1526697337e+00	 2.4189456141e-01	 2.9632558727e+00
 1.1498645339e+00	 2.5489615063e-01	 2.9465018325e+00
 1.1696547489e+00	 1.9123726490e-01	 3.0561531501e+00
 1.1674520823e+00	 2.0425366260e-01	 3.0439264533e+00
 1.1650960193e+00	 2.1729056347e-01	 3.0282451905e+00
 1.1625854290e+00	 2.3034548708e-01	 3.0100328292e+00
 1.1599192289e+00	 2.4341591085e-01	 2.9902882357e+00
 1.1570963863e+00	 2.5649927107e-01	 2.9700646133e+00
 1.1209371242e+00	 2.4848366885e-01	 2.8062658569e+00
 1.1180497976e+00	 2.6116818388e-01	 2.8069196966e+00
 1.1150088740e+00	 2.7386014866e-01	 2.8085977547e+00
 1.1118135073e+00	 2.8655696663e-01	 2.8135157318e+00
 1.1084629056e+00	 2.9925600594e-01	 2.8215182341e+00
 1.1049563327e+00	 3.1195460079e-01	 2.8285663485e+00
 1.1281689766e+00	 2.5008678930e-01	 2.8491808712e+00
 1.1252630221e+00	 2.6285313991e-01	 2.8445799825e+00
 1.1222024796e+00	 2.7562698833e-01	 2.8397173087e+00
 1.1189864977e+00	 2.8840572125e-01	 2.8362671755e+00
 1.1156142791e+00	 3.0118668985e-01	 2.8358058689e+00
 1.1120850832e+00	 3.1396721112e-01	 2.8397605784e+00
 1.1354008290e+00	 2.5168990974e-01	 2.8865374362e+00
 1.1324762466e+00	 2.6453809593e-01	 2.8771618388e+00
 1.1293960853e+00	 2.7739382800e-01	 2.8667485358e+00
 1.1261594880e+00	 2.9025447587e-01	 2.8566326686e+00
 1.1227656527e+00	 3.0311737376e-01	 2.8480674179e+00
 1.1192138338e+00	 3.1597982145e-01	 2.8421739741e+00
 1.1426326814e+00	 2.5329303019e-01	 2.9188180325e+00
 1.1396894711e+00	 2.6622305196e-01	 2.9051199129e+00
 1.1365896909e+00	 2.7916066767e-01	 2.8900493923e+00
 1.1333324784e+00	 2.9210323050e-01	 2.8748002875e+00
 1.1299170263e+00	 3.0504805767e-01	 2.8604982520e+00
 1.1263425843e+00	 3.1799243177e-01	 2.8481513429e+00
 1.1498645339e+00	 2.5489615063e-01	 2.9465018325e+00
 1.1469026956e+00	 2.6790800798e-01	 2.9289060655e+00
 1.1437832965e+00	 2.8092750734e-01	 2.9099770912e+00
 1.1405054688e+00	 2.9395198512e-01	 2.8909610279e+00
 1.1370683999e+00	 3.0697874158e-01	 2.8730474149e+00
 1.1334713348e+00	 3.2000504210e-01	 2.8573199525e+00
 1.1570963863e+00	 2.5649927107e-01	 2.9700646133e+00
 1.1541159201e+00	 2.6959296401e-01	 2.9489692147e+00
 1.1509769022e+00	 2.8269434700e-01	 2.9268878236e+00
 1.1476784591e+00	 2.9580073974e-01	 2.9053083450e+00
 1.1442197735e+00	 3.0890942549e-01	 2.8856715448e+00
 1.1406000854e+00	 3.2201765243e-01	 2.8693215478e+00
 1.1049563327e+00	 3.1195460079e-01	 2.8285663485e+00
 1.1012931096e+00	 3.2465005275e-01	 2.8285755144e+00
 1.0974726159e+00	 3.3733963219e-01	 2.8189336112e+00
 1.0934942907e+00	 3.5002057975e-01	 2.8038620862e+00
 1.0893576345e+00	 3.6269010788e-01	 2.7870195864e+00
 1.0850622097e+00	 3.7534540243e-01	 2.7733618576e+00
 1.1120850832e+00	 3.1396721112e-01	 2.8397605784e+00
 1.1083982265e+00	 3.2674456922e-01	 2.8402261416e+00
 1.1045530844e+00	 3.3951601691e-01	 2.8282209525e+00
 1.1005490926e+00	 3.5227877703e-01	 2.8082993582e+00
 1.0963857482e+00	 3.6503004406e-01	 2.7847379799e+00
 1.0920626111e+00	 3.7776698568e-01	 2.7653114874e+00
 1.1192138338e+00	 3.1597982145e-01	 2.8421739741e+00
 1.1155033433e+00	 3.2883908569e-01	 2.8320378016e+00
 1.1116335529e+00	 3.4169240163e-01	 2.8154615775e+00
 1.1076038945e+00	 3.5453697432e-01	 2.7954887565e+00
 1.1034138620e+00	 3.6736998024e-01	 2.7701614127e+00
 1.0990630124e+00	 3.8018856892e-01	 2.7504560921e+00
 1.1263425843e+00	 3.1799243177e-01	 2.8481513429e+00
 1.1226084602e+00	 3.3093360216e-01	 2.8292768635e+00
 1.1187140214e+00	 3.4386878636e-01	 2.8002202613e+00
 1.1146586964e+00	 3.5679517161e-01	 2.7687451181e+00
 1.1104419758e+00	 3.6970991642e-01	 2.7418742045e+00
 1.1060634138e+00	 3.8261015216e-01	 2.7275011847e+00
 1.1334713348e+00	 3.2000504210e-01	 2.8573199525e+00
 1.1297135770e+00	 3.3302811863e-01	 2.8338422578e+00
 1.1257944899e+00	 3.4604517108e-01	 2.7972691531e+00
 1.1217134982e+00	 3.5905336890e-01	 2.7551060545e+00
 1.1174700895e+00	 3.7204985260e-01	 2.7145251115e+00
 1.1130638151e+00	 3.8503173540e-01	 2.6967138631e+00
 1.1406000854e+00	 3.2201765243e-01	 2.8693215478e+00
 1.1368186938e+00	 3.3512263510e-01	 2.8450662499e+00
 1.1328749583e+00	 3.4822155581e-01	 2.8057268740e+00
 1.1287683001e+00	 3.6131156619e-01	 2.7582261498e+00
 1.1244982033e+00	 3.7438978878e-01	 2.7101812026e+00
 1.1200642165e+00	 3.8745331864e-01	 2.6844045933e+00
 1.0850622097e+00	 3.7534540243e-01	 2.7733618576e+00
 1.0806076427e+00	 3.8798362431e-01	 2.7668671581e+00
 1.0759936240e+00	 4.0060191114e-01	 2.7567752208e+00
 1.0712199102e+00	 4.1319737907e-01	 2.7434646665e+00
 1.0662863245e+00	 4.2576712454e-01	 2.7271682109e+00
 1.0611927577e+00	 4.3830822614e-01	 2.7079802552e+00
 1.0920626111e+00	 3.7776698568e-01	 2.7653114874e+00
 1.0875793049e+00	 3.9048674446e-01	 2.7540905970e+00
 1.0829355183e+00	 4.0318643960e-01	 2.7380524548e+00
 1.0781310064e+00	 4.1586316861e-01	 2.7180124560e+00
 1.0731655911e+00	 4.2851400921e-01	 2.6946386828e+00
 1.0680391626e+00	 4.4113602114e-01	 2.6684585941e+00
 1.0990630124e+00	 3.8018856892e-01	 2.7504560921e+00
 1.0945509671e+00	 3.9298986462e-01	 2.7384728806e+00
 1.0898774127e+00	 4.0577096806e-01	 2.7197077889e+00
 1.0850421026e+00	 4.1852895815e-01	 2.6952998986e+00
 1.0800448577e+00	 4.3126089388e-01	 2.6662427937e+00
 1.0748855675e+00	 4.4396381615e-01	 2.6333906399e+00
 1.1060634138e+00	 3.8261015216e-01	 2.7275011847e+00
 1.1015226293e+00	 3.9549298478e-01	 2.7189402130e+00
 1.0968193070e+00	 4.0835549652e-01	 2.7009311994e+00
 1.0919531988e+00	 4.2119474770e-01	 2.6748260914e+00
 1.0869241243e+00	 4.3400777856e-01	 2.6418363559e+00
 1.0817319724e+00	 4.4679161116e-01	 2.6030387379e+00
 1.1130638151e+00	 3.8503173540e-01	 2.6967138631e+00
 1.1084942915e+00	 3.9799610494e-01	 2.6944508196e+00
 1.1037612014e+00	 4.1094002498e-01	 2.6809377384e+00
 1.0988642950e+00	 4.2386053724e-01	 2.6561070677e+00
 1.0938033909e+00	 4.3675466323e-01	 2.6212827315e+00
 1.0885783773e+00	 4.4961940616e-01	 2.5776620956e+00
 1.1200642165e+00	 3.8745331864e-01	 2.6844045933e+00
 1.1154659537e+00	 4.0049922509e-01	 2.6717293435e+00
 1.1107030957e+00	 4.1352455343e-01	 2.6589664379e+00
 1.1057753912e+00	 4.2652632678e-01	 2.6386749167e+00
 1.1006826575e+00	 4.3950154791e-01	 2.6044522039e+00
 1.0954247821e+00	 4.5244720117e-01	 2.5575164472e+00
 1.0611927577e+00	 4.3830822614e-01	 2.7079802552e+00
 1.0559391694e+00	 4.5081774652e-01	 2.6897802848e+00
 1.0505255886e+00	 4.6329273435e-01	 2.6743190674e+00
 1.0449521146e+00	 4.7573022627e-01	 2.6583830095e+00
 1.0392189177e+00	 4.8812724895e-01	 2.6387496260e+00
 1.0333262398e+00	 5.0048082113e-01	 2.6122021837e+00
 1.0680391626e+00	 4.4113602114e-01	 2.6684585941e+00
 1.0627516802e+00	 4.5372624811e-01	 2.6443732640e+00
 1.0573031731e+00	 4.6628171973e-01	 2.6245039815e+00
 1.0516937412e+00	 4.7879945354e-01	 2.6050975601e+00
 1.0459235559e+00	 4.9127645700e-01	 2.5824013056e+00
 1.0399928607e+00	 5.0370972966e-01	 2.5526789448e+00
 1.0748855675e+00	 4.4396381615e-01	 2.6333906399e+00
 1.0695641910e+00	 4.5663474970e-01	 2.6027222250e+00
 1.0640807575e+00	 4.6927070512e-01	 2.5771543462e+00
 1.0584353677e+00	 4.8186868080e-01	 2.5528367542e+00
 1.0526281941e+00	 4.9442566506e-01	 2.5259185406e+00
 1.0466594816e+00	 5.0693863818e-01	 2.4925642187e+00
 1.0817319724e+00	 4.4679161116e-01	 2.6030387379e+00
 1.0763767017e+00	 4.5954325129e-01	 2.5654460000e+00
 1.0708583420e+00	 4.7225969050e-01	 2.5330882532e+00
 1.0651769943e+00	 4.8493790807e-01	 2.5024520333e+00
 1.0593328322e+00	 4.9757487312e-01	 2.4700116614e+00
 1.0533261025e+00	 5.1016754671e-01	 2.4322443555e+00
 1.0885783773e+00	 4.4961940616e-01	 2.5776620956e+00
 1.0831892125e+00	 4.6245175288e-01	 2.5331508113e+00
 1.0776359264e+00	 4.7524867588e-01	 2.4931056271e+00
 1.0719186208e+00	 4.8800713533e-01	 2.4547752522e+00
 1.0660374704e+00	 5.0072408118e-01	 2.4153743491e+00
 1.0599927234e+00	 5.1339645523e-01	 2.3720965669e+00
 1.0954247821e+00	 4.5244720117e-01	 2.5575164472e+00
 1.0900017233e+00	 4.6536025447e-01	 2.5064301884e+00
 1.0844135109e+00	 4.7823766127e-01	 2.4579882721e+00
 1.0786602474e+00	 4.9107636260e-01	 2.4106187247e+00
 1.0727421086e+00	 5.0387328923e-01	 2.3626835438e+00
 1.0666593443e+00	 5.1662536375e-01	 2.3124885537e+00
 1.0333262398e+00	 5.0048082113e-01	 2.6122021837e+00
 1.0272743949e+00	 5.1278795579e-01	 2.5826486147e+00
 1.0210637702e+00	 5.2504566218e-01	 2.5544261529e+00
 1.0146948255e+00	 5.3725094808e-01	 2.5249845264e+00
 1.0081680946e+00	 5.4940082194e-01	 2.4917953795e+00
 1.0014841849e+00	 5.6149229514e-01	 2.4523632216e+00
 1.0399928607e+00	 5.0370972966e-01	 2.5526789448e+00
 1.0339019717e+00	 5.1609626518e-01	 2.5191869565e+00
 1.0276512784e+00	 5.2843305355e-01	 2.4861396643e+00
 1.0212412437e+00	 5.4071708323e-01	 2.4512604387e+00
 1.0146724049e+00	 5.5294534337e-01	 2.4122826207e+00
 1.0079453732e+00	 5.6511482607e-01	 2.3669595044e+00
 1.0466594816e+00	 5.0693863818e-01	 2.4925642187e+00
 1.0405295484e+00	 5.1940457457e-01	 2.4555719317e+00
 1.0342387865e+00	 5.3182044491e-01	 2.4187088812e+00
 1.0277876620e+00	 5.4418321837e-01	 2.3796139912e+00
 1.0211767152e+00	 5.5648986481e-01	 2.3359342728e+00
 1.0144065615e+00	 5.6873735701e-01	 2.2853347261e+00
 1.0533261025e+00	 5.1016754671e-01	 2.4322443555e+00
 1.0471571252e+00	 5.2271288396e-01	 2.3918356091e+00
 1.0408262947e+00	 5.3520783628e-01	 2.3519440859e+00
 1.0343340802e+00	 5.4764935352e-01	 2.3097731450e+00
 1.0276810255e+00	 5.6003438624e-01	 2.2625422957e+00
 1.0208677498e+00	 5.7235988795e-01	 2.2074978954e+00
 1.0599927234e+00	 5.1339645523e-01	 2.3720965669e+00
 1.0537847019e+00	 5.2602119336e-01	 2.3280091695e+00
 1.0474138029e+00	 5.3859522765e-01	 2.2856595739e+00
 1.0408804984e+00	 5.5111548867e-01	 2.2414712557e+00
 1.0341853357e+00	 5.6357890767e-01	 2.1919017387e+00
 1.0273289381e+00	 5.7598241888e-01	 2.1334549552e+00
 1.0666593443e+00	 5.1662536375e-01	 2.3124885537e+00
 1.0604122786e+00	 5.2932950275e-01	 2.2641222297e+00
 1.0540013111e+00	 5.4198261902e-01	 2.2196727778e+00
 1.0474269166e+00	 5.5458162382e-01	 2.1744461073e+00
 1.0406896460e+00	 5.6712342910e-01	 2.1238098004e+00
 1.0337901263e+00	 5.7960494982e-01	 2.0632079899e+00
 1.0014841849e+00	 5.6149229514e-01	 2.4523632216e+00
 9.9464377792e-01	 5.7352238417e-01	 2.4119280774e+00
 9.8764762932e-01	 5.8548811294e-01	 2.3746316252e+00
 9.8049656898e-01	 5.9738651501e-01	 2.3364769779e+00
 9.7319150093e-01	 6.0921463592e-01	 2.2936319983e+00
 9.6573340326e-01	 6.2096953542e-01	 2.2424428345e+00
 1.0079453732e+00	 5.6511482607e-01	 2.3669595044e+00
 1.0010608346e+00	 5.7722252858e-01	 2.3213406606e+00
 9.9401954951e-01	 5.8926545560e-01	 2.2799805354e+00
 9.8682235329e-01	 6.0124062156e-01	 2.2385343946e+00
 9.7947015577e-01	 6.1314505293e-01	 2.1928345108e+00
 9.7196394135e-01	 6.2497579049e-01	 2.1389043189e+00
 1.0144065615e+00	 5.6873735701e-01	 2.2853347261e+00
 1.0074778912e+00	 5.8092267300e-01	 2.2345431866e+00
 1.0003914697e+00	 5.9304279826e-01	 2.1887752613e+00
 9.9314813761e-01	 6.0509472811e-01	 2.1435739015e+00
 9.8574881062e-01	 6.1707546993e-01	 2.0946633068e+00
 9.7819447943e-01	 6.2898204556e-01	 2.0379630852e+00
 1.0208677498e+00	 5.7235988795e-01	 2.2074978954e+00
 1.0138949478e+00	 5.8462281741e-01	 2.1517923503e+00
 1.0067633899e+00	 5.9682014093e-01	 2.1014209472e+00
 9.9947392193e-01	 6.0894883466e-01	 2.0520453635e+00
 9.9202746546e-01	 6.2100588694e-01	 1.9995048507e+00
 9.8442501752e-01	 6.3298830062e-01	 1.9398297885e+00
 1.0273289381e+00	 5.7598241888e-01	 2.1334549552e+00
 1.0203120044e+00	 5.8832296182e-01	 2.0733348621e+00
 1.0131353101e+00	 6.0059748359e-01	 2.0183083432e+00
 1.0057997062e+00	 6.1280294121e-01	 1.9643824702e+00
 9.9830612030e-01	 6.2493630395e-01	 1.9077303951e+00
 9.9065555560e-01	 6.3699455569e-01	 1.8447036960e+00
 1.0337901263e+00	 5.7960494982e-01	 2.0632079899e+00
 1.0267290611e+00	 5.9202310624e-01	 1.9994068253e+00
 1.0195072303e+00	 6.0437482626e-01	 1.9398132763e+00
 1.0121254906e+00	 6.1665704776e-01	 1.8810022189e+00
 1.0045847751e+00	 6.2886672095e-01	 1.8196953928e+00
 9.9688609369e-01	 6.4100081076e-01	 1.7527719375e+00
 9.6573340326e-01	 6.2096953542e-01	 2.2424428345e+00
 9.5812332792e-01	 6.3264828981e-01	 2.1875034425e+00
 9.5036240039e-01	 6.4424799419e-01	 2.1338838281e+00
 9.4245181935e-01	 6.5576576481e-01	 2.0789548066e+00
 9.3439285621e-01	 6.6719874128e-01	 2.0203210032e+00
 9.2618685453e-01	 6.7854408891e-01	 1.9558309315e+00
 9.7196394135e-01	 6.2497579049e-01	 2.1389043189e+00
 9.6430476874e-01	 6.3672989168e-01	 2.0810928669e+00
 9.5649377072e-01	 6.4840443286e-01	 2.0244270707e+00
 9.4853215367e-01	 6.5999651168e-01	 1.9662618389e+00
 9.4042119721e-01	 6.7150324929e-01	 1.9041777282e+00
 9.3216225359e-01	 6.8292179271e-01	 1.8359907319e+00
 9.7819447943e-01	 6.2898204556e-01	 2.0379630852e+00
 9.7048620957e-01	 6.4081149355e-01	 1.9776441963e+00
 9.6262514104e-01	 6.5256087154e-01	 1.9184942884e+00
 9.5461248799e-01	 6.6422725855e-01	 1.8576745353e+00
 9.4644953822e-01	 6.7580775730e-01	 1.7925700967e+00
 9.3813765265e-01	 6.8729949651e-01	 1.7208000355e+00
 9.8442501752e-01	 6.3298830062e-01	 1.9398297885e+00
 9.7666765039e-01	 6.4489309542e-01	 1.8771715186e+00
 9.6875651137e-01	 6.5671731021e-01	 1.8159790324e+00
 9.6069282231e-01	 6.6845800542e-01	 1.7530453833e+00
 9.5247787923e-01	 6.8011226530e-01	 1.6853923632e+00
 9.4411305171e-01	 6.9167720031e-01	 1.6102809602e+00
 9.9065555560e-01	 6.3699455569e-01	 1.8447036960e+00
 9.8284909122e-01	 6.4897469729e-01	 1.7796819167e+00
 9.7488788169e-01	 6.6087374888e-01	 1.7167703623e+00
 9.6677315663e-01	 6.7268875228e-01	 1.6522229420e+00
 9.5850622024e-01	 6.8441677331e-01	 1.5825333872e+00
 9.5008845077e-01	 6.9605490411e-01	 1.5044466569e+00
 9.9688609369e-01	 6.4100081076e-01	 1.7527719375e+00
 9.8903053204e-01	 6.5305629916e-01	 1.6851745427e+00
 9.8101925202e-01	 6.6503018755e-01	 1.6207518046e+00
 9.7285349095e-01	 6.7691949915e-01	 1.5550507473e+00
 9.6453456125e-01	 6.8872128132e-01	 1.4838755513e+00
 9.5606384983e-01	 7.0043260791e-01	 1.4033003074e+00
 9.2618685453e-01	 6.7854408891e-01	 1.9558309315e+00
 9.1783522944e-01	 6.8979900094e-01	 1.8887177859e+00
 9.0933946692e-01	 7.0096070075e-01	 1.8219847751e+00
 9.0070112297e-01	 7.1202644415e-01	 1.7536372605e+00
 8.9192182278e-01	 7.2299352151e-01	 1.6821064596e+00
 8.8300325971e-01	 7.3385925996e-01	 1.6062593000e+00
 9.3216225359e-01	 6.8292179271e-01	 1.8359907319e+00
 9.2375674705e-01	 6.9424931707e-01	 1.7657815141e+00
 9.1520617316e-01	 7.0548302785e-01	 1.6972393325e+00
 9.0651209796e-01	 7.1662016314e-01	 1.6281114831e+00
 8.9767615712e-01	 7.2765799584e-01	 1.5566023689e+00
 8.8870005493e-01	 7.3859383584e-01	 1.4813839103e+00
 9.3813765265e-01	 6.8729949651e-01	 1.7208000355e+00
 9.2967826466e-01	 6.9869963321e-01	 1.6473678979e+00
 9.2107287940e-01	 7.1000535495e-01	 1.5769167501e+00
 9.1232307295e-01	 7.2121388214e-01	 1.5070634397e+00
 9.0343049146e-01	 7.3232247017e-01	 1.4359103572e+00
 8.9439685016e-01	 7.4332841171e-01	 1.3617425622e+00
 9.4411305171e-01	 6.9167720031e-01	 1.6102809602e+00
 9.3559978227e-01	 7.0314994934e-01	 1.5336557805e+00
 9.2693958563e-01	 7.1452768206e-01	 1.4613205139e+00
 9.1813404794e-01	 7.2580760113e-01	 1.3908868271e+00
 9.0918482580e-01	 7.3698694451e-01	 1.3204775790e+00
 9.0009364538e-01	 7.4806298758e-01	 1.2460030658e+00
 9.5008845077e-01	 6.9605490411e-01	 1.5044466569e+00
 9.4152129988e-01	 7.0760026548e-01	 1.4248108050e+00
 9.3280629187e-01	 7.1905000916e-01	 1.3507375525e+00
 9.2394502292e-01	 7.3040132013e-01	 1.2799563668e+00
 9.1493916014e-01	 7.4165141884e-01	 1.2106789453e+00
 9.0579044061e-01	 7.5279756345e-01	 1.1338532198e+00
 9.5606384983e-01	 7.0043260791e-01	 1.4033003074e+00
 9.4744281749e-01	 7.1205058161e-01	 1.3209845145e+00
 9.3867299811e-01	 7.2357233626e-01	 1.2454374156e+00
 9.2975599791e-01	 7.3499503912e-01	 1.1746270357e+00
 9.2069349448e-01	 7.4631589317e-01	 1.1050053341e+00
 9.1148723583e-01	 7.5753213932e-01	 1.0251663274e+00
 8.8300325971e-01	 7.3385925996e-01	 1.6062593000e+00
 8.7394719430e-01	 7.4462102553e-01	 1.5266760064e+00
 8.6475545313e-01	 7.5527622522e-01	 1.4405237467e+00
 8.5542992760e-01	 7.6582230907e-01	 1.3503799370e+00
 8.4597257268e-01	 7.7625677219e-01	 1.2610068952e+00
 8.3638540555e-01	 7.8657715673e-01	 1.1774964058e+00
 8.8870005493e-01	 7.3859383584e-01	 1.4813839103e+00
 8.7958556330e-01	 7.4942503215e-01	 1.4004635993e+00
 8.7033452057e-01	 7.6014897506e-01	 1.3119277285e+00
 8.6094883036e-01	 7.7076309816e-01	 1.2202151945e+00
 8.5143046025e-01	 7.8126488040e-01	 1.1303239463e+00
 8.4178144042e-01	 7.9165184806e-01	 1.0475748726e+00
 8.9439685016e-01	 7.4332841171e-01	 1.3617425622e+00
 8.8522393229e-01	 7.5422903877e-01	 1.2784885244e+00
 8.7591358801e-01	 7.6502172490e-01	 1.1880370765e+00
 8.6646773312e-01	 7.7570388725e-01	 1.0951946772e+00
 8.5688834781e-01	 7.8627298860e-01	 1.0051249426e+00
 8.4717747529e-01	 7.9672653940e-01	 9.2330730238e-01
 9.0009364538e-01	 7.4806298758e-01	 1.2460030658e+00
 8.9086230129e-01	 7.5903304538e-01	 1.1606285341e+00
 8.8149265545e-01	 7.6989447474e-01	 1.0687002856e+00
 8.7198663588e-01	 7.8064467634e-01	 9.7512805179e-01
 8.6234623538e-01	 7.9128109681e-01	 8.8517257665e-01
 8.5257351017e-01	 8.0180123073e-01	 8.0440271767e-01
 9.0579044061e-01	 7.5279756345e-01	 1.1338532198e+00
 8.9650067029e-01	 7.6383705200e-01	 1.0467500056e+00
 8.8707172289e-01	 7.7476722458e-01	 9.5375511814e-01
 8.7750553864e-01	 7.8558546543e-01	 8.5981506767e-01
 8.6780412294e-01	 7.9628920502e-01	 7.7022058241e-01
 8.5796954504e-01	 8.0687592206e-01	 6.9056225352e-01
 9.1148723583e-01	 7.5753213932e-01	 1.0251663274e+00
 9.0213903928e-01	 7.6864105861e-01	 9.3670880452e-01
 8.9265079033e-01	 7.7963997442e-01	 8.4302943036e-01
 8.8302444139e-01	 7.9052625452e-01	 7.4904633890e-01
 8.7326201051e-01	 8.0129731323e-01	 6.6001446458e-01
 8.6336557992e-01	 8.1195061340e-01	 5.8147982878e-01
 8.3638540555e-01	 7.8657715673e-01	 1.1774964058e+00
 8.2667050415e-01	 7.9678105378e-01	 1.0895762250e+00
 8.1683000574e-01	 8.0686610526e-01	 9.8834747358e-01
 8.0686610526e-01	 8.1683000574e-01	 8.8122090597e-01
 7.9678105378e-01	 8.2667050415e-01	 7.7561613633e-01
 7.8657715673e-01	 8.3638540555e-01	 6.7891269774e-01
 8.4178144042e-01	 7.9165184806e-01	 1.0475748726e+00
 8.3200386224e-01	 8.0192157671e-01	 9.6106937420e-01
 8.2209987674e-01	 8.1207169304e-01	 8.6122931575e-01
 8.1207169304e-01	 8.2209987674e-01	 7.5561015050e-01
 8.0192157671e-01	 8.3200386224e-01	 6.5177597476e-01
 7.9165184806e-01	 8.4178144042e-01	 5.5724873664e-01
 8.4717747529e-01	 7.9672653940e-01	 9.2330730238e-01
 8.3733722033e-01	 8.0706209963e-01	 8.3823826026e-01
 8.2736974775e-01	 8.1727728082e-01	 7.3973768930e-01
 8.1727728082e-01	 8.2736974775e-01	 6.3551984623e-01
 8.0706209963e-01	 8.3733722033e-01	 5.3330913435e-01
 7.9672653940e-01	 8.4717747529e-01	 4.4078736770e-01
 8.5257351017e-01	 8.0180123073e-01	 8.0440271767e-01
 8.4267057843e-01	 8.1220262256e-01	 7.2074391958e-01
 8.3263961875e-01	 8.2248286859e-01	 6.2350267028e-01
 8.2248286859e-01	 8.3263961875e-01	 5.2056603383e-01
 8.1220262256e-01	 8.4267057843e-01	 4.1983443165e-01
 8.0180123073e-01	 8.5257351017e-01	 3.2916686634e-01
 8.5796954504e-01	 8.0687592206e-01	 6.9056225352e-01
 8.4800393652e-01	 8.1734314549e-01	 6.0824038106e-01
 8.3790948976e-01	 8.2768845637e-01	 5.1214773815e-01
 8.2768845637e-01	 8.3790948976e-01	 4.1035810983e-01
 8.1734314549e-01	 8.4800393652e-01	 3.1096354439e-01
 8.0687592206e-01	 8.5796954504e-01	 2.2201743955e-01
 8.6336557992e-01	 8.1195061340e-01	 5.8147982878e-01
 8.5333729461e-01	 8.2248366842e-01	 5.0037528248e-01
 8.4317936076e-01	 8.3289404414e-01	 4.0529034955e-01
 8.3289404414e-01	 8.4317936076e-01	 3.0449937014e-01
 8.2248366842e-01	 8.5333729461e-01	 2.0630153704e-01
 8.1195061340e-01	 8.6336557992e-01	 1.1896174554e-01
 7.8657715673e-01	 8.3638540555e-01	 6.7891269774e-01
 7.7625677219e-01	 8.4597257268e-01	 5.8175201685e-01
 7.6582230907e-01	 8.5542992760e-01	 4.7308021297e-01
 7.5527622522e-01	 8.6475545313e-01	 3.5747029008e-01
 7.4462102553e-01	 8.7394719430e-01	 2.3919063550e-01
 7.3385925996e-01	 8.8300325971e-01	 1.2144058191e-01
 7.9165184806e-01	 8.4178144042e-01	 5.5724873664e-01
 7.8126488040e-01	 8.5143046025e-01	 4.6230014863e-01
 7.7076309816e-01	 8.6094883036e-01	 3.5556621830e-01
 7.6014897506e-01	 8.7033452057e-01	 2.4185339533e-01
 7.4942503215e-01	 8.7958556330e-01	 1.2566762514e-01
 7.3859383584e-01	 8.8870005493e-01	 1.1094628643e-02
 7.9672653940e-01	 8.4717747529e-01	 4.4078736770e-01
 7.8627298860e-01	 8.5688834781e-01	 3.4793504697e-01
 7.7570388725e-01	 8.6646773312e-01	 2.4313819297e-01
 7.6502172490e-01	 8.7591358801e-01	 1.3142584217e-01
 7.5422903877e-01	 8.8522393229e-01	 1.7528075574e-02
 7.4332841171e-01	 8.9439685016e-01	-9.4167122586e-02
 8.0180123073e-01	 8.5257351017e-01	 3.2916686634e-01
 7.9128109681e-01	 8.6234623538e-01	 2.3830996193e-01
 7.8064467634e-01	 8.7198663588e-01	 1.3543906195e-01
 7.6989447474e-01	 8.8149265545e-01	 2.5795340970e-02
 7.5903304538e-01	 8.9086230129e-01	-8.5679968350e-02
 7.4806298758e-01	 9.0009364538e-01	-1.9439076724e-01
 8.0687592206e-01	 8.5796954504e-01	 2.2201743955e-01
 7.9628920502e-01	 8.6780412294e-01	 1.3306925233e-01
 7.8558546543e-01	 8.7750553864e-01	 3.2102675871e-02
 7.7476722458e-01	 8.8707172289e-01	-7.5439016604e-02
 7.6383705200e-01	 8.9650067029e-01	-1.8441598774e-01
 7.5279756345e-01	 9.0579044061e-01	-2.9003910882e-01
 8.1195061340e-01	 8.6336557992e-01	 1.1896174554e-01
 8.0129731323e-01	 8.7326201051e-01	 3.1848894690e-02
 7.9052625452e-01	 8.8302444139e-01	-6.7245711866e-02
 7.7963997442e-01	 8.9265079033e-01	-1.7268633311e-01
 7.6864105861e-01	 9.0213903928e-01	-2.7914663835e-01
 7.5753213932e-01	 9.1148723583e-01	-3.8165909336e-01
 7.3385925996e-01	 8.8300325971e-01	 1.2144058191e-01
 7.2299352151e-01	 8.9192182278e-01	 4.3742878317e-03
 7.1202644415e-01	 9.0070112297e-01	-1.1196801210e-01
 7.0096070075e-01	 9.0933946692e-01	-2.2895925535e-01
 6.8979900094e-01	 9.1783522944e-01	-3.4846493563e-01
 6.7854408891e-01	 9.2618685453e-01	-4.7282878435e-01
 7.3859383584e-01	 8.8870005493e-01	 1.1094628643e-02
 7.2765799584e-01	 8.9767615712e-01	-1.0119673245e-01
 7.1662016314e-01	 9.0651209796e-01	-2.1254362518e-01
 7.0548302785e-01	 9.1520617316e-01	-3.2460182307e-01
 6.9424931707e-01	 9.2375674705e-01	-4.3955869686e-01
 6.8292179271e-01	 9.3216225359e-01	-5.6011775840e-01
 7.4332841171e-01	 8.9439685016e-01	-9.4167122586e-02
 7.3232247017e-01	 9.0343049146e-01	-2.0156838441e-01
 7.2121388214e-01	 9.1232307295e-01	-3.0796014808e-01
 7.1000535495e-01	 9.2107287940e-01	-4.1535820185e-01
 6.9869963321e-01	 9.2967826466e-01	-5.2621595411e-01
 6.8729949651e-01	 9.3813765265e-01	-6.4353357471e-01
 7.4806298758e-01	 9.0009364538e-01	-1.9439076724e-01
 7.3698694451e-01	 9.0918482580e-01	-2.9756033922e-01
 7.2580760113e-01	 9.1813404794e-01	-3.9900693437e-01
 7.1452768206e-01	 9.2693958563e-01	-5.0190265827e-01
 7.0314994934e-01	 9.3559978227e-01	-6.0891220580e-01
 6.9167720031e-01	 9.4411305171e-01	-7.2327046752e-01
 7.5279756345e-01	 9.0579044061e-01	-2.9003910882e-01
 7.4165141884e-01	 9.1493916014e-01	-3.8996382553e-01
 7.3040132013e-01	 9.2394502292e-01	-4.8646895314e-01
 7.1905000916e-01	 9.3280629187e-01	-5.8490782297e-01
 7.0760026548e-01	 9.4152129988e-01	-6.8812615550e-01
 6.9605490411e-01	 9.5008845077e-01	-7.9953278006e-01
 7.5753213932e-01	 9.1148723583e-01	-3.8165909336e-01
 7.4631589317e-01	 9.2069349448e-01	-4.7873158030e-01
 7.3499503912e-01	 9.2975599791e-01	-5.7112682802e-01
 7.2357233626e-01	 9.3867299811e-01	-6.6504464626e-01
 7.1205058161e-01	 9.4744281749e-01	-7.6433951930e-01
 7.0043260791e-01	 9.5606384983e-01	-8.7253455990e-01
 6.7854408891e-01	 9.2618685453e-01	-4.7282878435e-01
 6.6719874128e-01	 9.3439285621e-01	-5.9945648436e-01
 6.5576576481e-01	 9.4245181935e-01	-7.2484831279e-01
 6.4424799419e-01	 9.5036240039e-01	-8.5055281420e-01
 6.3264828981e-01	 9.5812332792e-01	-9.7839193766e-01
 6.2096953542e-01	 9.6573340326e-01	-1.1104459042e+00
 6.8292179271e-01	 9.3216225359e-01	-5.6011775840e-01
 6.7150324929e-01	 9.4042119721e-01	-6.8302974679e-01
 6.5999651168e-01	 9.4853215367e-01	-8.0393451247e-01
 6.4840443286e-01	 9.5649377072e-01	-9.2445095897e-01
 6.3672989168e-01	 9.6430476874e-01	-1.0464593669e+00
 6.2497579049e-01	 9.7196394135e-01	-1.1720860737e+00
 6.8729949651e-01	 9.3813765265e-01	-6.4353357471e-01
 6.7580775730e-01	 9.4644953822e-01	-7.6315948618e-01
 6.6422725855e-01	 9.5461248799e-01	-8.7971901403e-01
 6.5256087154e-01	 9.6262514104e-01	-9.9498351710e-01
 6.4081149355e-01	 9.7048620957e-01	-1.1109876863e+00
 6.2898204556e-01	 9.7819447943e-01	-1.2300137089e+00
 6.9167720031e-01	 9.4411305171e-01	-7.2327046752e-01
 6.8011226530e-01	 9.5247787923e-01	-8.3979509881e-01
 6.6845800542e-01	 9.6069282231e-01	-9.5205983860e-01
 6.5671731021e-01	 9.6875651137e-01	-1.0620688933e+00
 6.4489309542e-01	 9.7666765039e-01	-1.1721055650e+00
 6.3298830062e-01	 9.8442501752e-01	-1.2847155760e+00
 6.9605490411e-01	 9.5008845077e-01	-7.9953278006e-01
 6.8441677331e-01	 9.5850622024e-01	-9.1290206496e-01
 6.7268875228e-01	 9.6677315663e-01	-1.0208331932e+00
 6.6087374888e-01	 9.7488788169e-01	-1.1256419498e+00
 6.4897469729e-01	 9.8284909122e-01	-1.2299526179e+00
 6.3699455569e-01	 9.9065555560e-01	-1.3366801440e+00
 7.0043260791e-01	 9.5606384983e-01	-8.7253455990e-01
 6.8872128132e-01	 9.6453456125e-01	-9.8246136164e-01
 6.7691949915e-01	 9.7285349095e-01	-1.0859328222e+00
 6.6503018755e-01	 9.8101925202e-01	-1.1856534165e+00
 6.5305629916e-01	 9.8903053204e-01	-1.2846789941e+00
 6.4100081076e-01	 9.9688609369e-01	-1.3863974669e+00
 6.2096953542e-01	 9.6573340326e-01	-1.1104459042e+00
 6.0921463592e-01	 9.7319150093e-01	-1.2420679700e+00
 5.9738651501e-01	 9.8049656898e-01	-1.3688241725e+00
 5.8548811294e-01	 9.8764762932e-01	-1.4934720372e+00
 5.7352238417e-01	 9.9464377792e-01	-1.6189865294e+00
 5.6149229514e-01	 1.0014841849e+00	-1.7485413748e+00
 6.2497579049e-01	 9.7196394135e-01	-1.1720860737e+00
 6.1314505293e-01	 9.7947015577e-01	-1.2969744688e+00
 6.0124062156e-01	 9.8682235329e-01	-1.4170666294e+00
 5.8926545560e-01	 9.9401954951e-01	-1.5353076825e+00
 5.7722252858e-01	 1.0010608346e+00	-1.6548886502e+00
 5.6511482607e-01	 1.0079453732e+00	-1.7792268083e+00
 6.2898204556e-01	 9.7819447943e-01	-1.2300137089e+00
 6.1707546993e-01	 9.8574881062e-01	-1.3482272799e+00
 6.0509472811e-01	 9.9314813761e-01	-1.4620312581e+00
 5.9304279826e-01	 1.0003914697e+00	-1.5744433106e+00
 5.8092267300e-01	 1.0074778912e+00	-1.6887375836e+00
 5.6873735701e-01	 1.0144065615e+00	-1.8084245841e+00
 6.3298830062e-01	 9.8442501752e-01	-1.2847155760e+00
 6.2100588694e-01	 9.9202746546e-01	-1.3966404504e+00
 6.0894883466e-01	 9.9947392193e-01	-1.5046530057e+00
 5.9682014093e-01	 1.0067633899e+00	-1.6117310156e+00
 5.8462281741e-01	 1.0138949478e+00	-1.7211016694e+00
 5.7235988795e-01	 1.0208677498e+00	-1.8362214613e+00
 6.3699455569e-01	 9.9065555560e-01	-1.3366801440e+00
 6.2493630395e-01	 9.9830612030e-01	-1.4430212488e+00
 6.1280294121e-01	 1.0057997062e+00	-1.5458567396e+00
 6.0059748359e-01	 1.0131353101e+00	-1.6480146229e+00
 5.8832296182e-01	 1.0203120044e+00	-1.7525478316e+00
 5.7598241888e-01	 1.0273289381e+00	-1.8627145988e+00
 6.4100081076e-01	 9.9688609369e-01	-1.3863974669e+00
 6.2886672095e-01	 1.0045847751e+00	-1.4881703196e+00
 6.1665704776e-01	 1.0121254906e+00	-1.5865575110e+00
 6.0437482626e-01	 1.0195072303e+00	-1.6841299030e+00
 5.9202310624e-01	 1.0267290611e+00	-1.7836415845e+00
 5.7960494982e-01	 1.0337901263e+00	-1.8880111998e+00
 5.6149229514e-01	 1.0014841849e+00	-1.7485413748e+00
 5.4940082194e-01	 1.0081680946e+00	-1.8794954511e+00
 5.3725094808e-01	 1.0146948255e+00	-2.0078810247e+00
 5.2504566218e-01	 1.0210637702e+00	-2.1350631981e+00
 5.1278795579e-01	 1.0272743949e+00	-2.2624544199e+00
 5.0048082113e-01	 1.0333262398e+00	-2.3915007115e+00
 5.6511482607e-01	 1.0079453732e+00	-1.7792268083e+00
 5.5294534337e-01	 1.0146724049e+00	-1.9051267020e+00
 5.4071708323e-01	 1.0212412437e+00	-2.0278392880e+00
 5.2843305355e-01	 1.0276512784e+00	-2.1486331164e+00
 5.1609626518e-01	 1.0339019717e+00	-2.2687982382e+00
 5.0370972966e-01	 1.0399928607e+00	-2.3896329115e+00
 5.6873735701e-01	 1.0144065615e+00	-1.8084245841e+00
 5.5648986481e-01	 1.0211767152e+00	-1.9294639572e+00
 5.4418321837e-01	 1.0277876620e+00	-2.0462977390e+00
 5.3182044491e-01	 1.0342387865e+00	-2.1603444144e+00
 5.1940457457e-01	 1.0405295484e+00	-2.2730376005e+00
 5.0693863818e-01	 1.0466594816e+00	-2.3858123873e+00
 5.7235988795e-01	 1.0208677498e+00	-1.8362214613e+00
 5.6003438624e-01	 1.0276810255e+00	-1.9521358287e+00
 5.4764935352e-01	 1.0343340802e+00	-2.0626660853e+00
 5.3520783628e-01	 1.0408262947e+00	-2.1696220108e+00
 5.2271288396e-01	 1.0471571252e+00	-2.2748413862e+00
 5.1016754671e-01	 1.0533261025e+00	-2.3801751329e+00
 5.7598241888e-01	 1.0273289381e+00	-1.8627145988e+00
 5.6357890767e-01	 1.0341853357e+00	-1.9727925416e+00
 5.5111548867e-01	 1.0408804984e+00	-2.0763808287e+00
 5.3859522765e-01	 1.0474138029e+00	-2.1759168966e+00
 5.2602119336e-01	 1.0537847019e+00	-2.2738980572e+00
 5.1339645523e-01	 1.0599927234e+00	-2.3728646074e+00
 5.7960494982e-01	 1.0337901263e+00	-1.8880111998e+00
 5.6712342910e-01	 1.0406896460e+00	-1.9911052355e+00
 5.5458162382e-01	 1.0474269166e+00	-2.0869044123e+00
 5.4198261902e-01	 1.0540013111e+00	-2.1787053122e+00
 5.2932950275e-01	 1.0604122786e+00	-2.2699150447e+00
 5.1662536375e-01	 1.0666593443e+00	-2.3640315081e+00
 5.0048082113e-01	 1.0333262398e+00	-2.3915007115e+00
 4.8812724895e-01	 1.0392189177e+00	-2.5179242601e+00
 4.7573022627e-01	 1.0449521146e+00	-2.6382437146e+00
 4.6329273435e-01	 1.0505255886e+00	-2.7551362106e+00
 4.5081774652e-01	 1.0559391694e+00	-2.8712920324e+00
 4.3830822614e-01	 1.0611927577e+00	-2.9893986387e+00
 5.0370972966e-01	 1.0399928607e+00	-2.3896329115e+00
 4.9127645700e-01	 1.0459235559e+00	-2.5071741399e+00
 4.7879945354e-01	 1.0516937412e+00	-2.6186534814e+00
 4.6628171973e-01	 1.0573031731e+00	-2.7271909332e+00
 4.5372624811e-01	 1.0627516802e+00	-2.8359347629e+00
 4.4113602114e-01	 1.0680391626e+00	-2.9480440895e+00
 5.0693863818e-01	 1.0466594816e+00	-2.3858123873e+00
 4.9442566506e-01	 1.0526281941e+00	-2.4953622132e+00
 4.8186868080e-01	 1.0584353677e+00	-2.5995062344e+00
 4.6927070512e-01	 1.0640807575e+00	-2.7013941522e+00
 4.5663474970e-01	 1.0695641910e+00	-2.8042055546e+00
 4.4396381615e-01	 1.0748855675e+00	-2.9111321998e+00
 5.1016754671e-01	 1.0533261025e+00	-2.3801751329e+00
 4.9757487312e-01	 1.0593328322e+00	-2.4830976728e+00
 4.8493790807e-01	 1.0651769943e+00	-2.5816828123e+00
 4.7225969050e-01	 1.0708583420e+00	-2.6787053100e+00
 4.5954325129e-01	 1.0763767017e+00	-2.7769580832e+00
 4.4679161116e-01	 1.0817319724e+00	-2.8792353242e+00
 5.1339645523e-01	 1.0599927234e+00	-2.3728646074e+00
 5.0072408118e-01	 1.0660374704e+00	-2.4709848931e+00
 4.8800713533e-01	 1.0719186208e+00	-2.5660520079e+00
 4.7524867588e-01	 1.0776359264e+00	-2.6600694203e+00
 4.6245175288e-01	 1.0831892125e+00	-2.7550338369e+00
 4.4961940616e-01	 1.0885783773e+00	-2.8529202758e+00
 5.1662536375e-01	 1.0666593443e+00	-2.3640315081e+00
 5.0387328923e-01	 1.0727421086e+00	-2.4596235938e+00
 4.9107636260e-01	 1.0786602474e+00	-2.5534709665e+00
 4.7823766127e-01	 1.0844135109e+00	-2.6464175467e+00
 4.6536025447e-01	 1.0900017233e+00	-2.7392625334e+00
 4.5244720117e-01	 1.0954247821e+00	-2.8327485418e+00
 4.3830822614e-01	 1.0611927577e+00	-2.9893986387e+00
 4.2576712454e-01	 1.0662863245e+00	-3.1092051942e+00
 4.1319737907e-01	 1.0712199102e+00	-3.2277163807e+00
 4.0060191114e-01	 1.0759936240e+00	-3.3434276502e+00
 3.8798362431e-01	 1.0806076427e+00	-3.4547458340e+00
 3.7534540243e-01	 1.0850622097e+00	-3.5599848304e+00
 4.4113602114e-01	 1.0680391626e+00	-2.9480440895e+00
 4.2851400921e-01	 1.0731655911e+00	-3.0630562080e+00
 4.1586316861e-01	 1.0781310064e+00	-3.1771796606e+00
 4.0318643960e-01	 1.0829355183e+00	-3.2885190335e+00
 3.9048674446e-01	 1.0875793049e+00	-3.3950967750e+00
 3.7776698568e-01	 1.0920626111e+00	-3.4948494782e+00
 4.4396381615e-01	 1.0748855675e+00	-2.9111321998e+00
 4.3126089388e-01	 1.0800448577e+00	-3.0211138126e+00
 4.1852895815e-01	 1.0850421026e+00	-3.1295905944e+00
 4.0577096806e-01	 1.0898774127e+00	-3.2344471421e+00
 3.9298986462e-01	 1.0945509671e+00	-3.3334897777e+00
 3.8018856892e-01	 1.0990630124e+00	-3.4244431110e+00
 4.4679161116e-01	 1.0817319724e+00	-2.8792353242e+00
 4.3400777856e-01	 1.0869241243e+00	-2.9835801574e+00
 4.2119474770e-01	 1.0919531988e+00	-3.0847707749e+00
 4.0835549652e-01	 1.0968193070e+00	-3.1806394096e+00
 3.9549298478e-01	 1.1015226293e+00	-3.2689413075e+00
 3.8261015216e-01	 1.1060634138e+00	-3.3473512611e+00
 4.4961940616e-01	 1.0885783773e+00	-2.8529202758e+00
 4.3675466323e-01	 1.0938033909e+00	-2.9506607192e+00
 4.2386053724e-01	 1.0988642950e+00	-3.0425542403e+00
 4.1094002498e-01	 1.1037612014e+00	-3.1265451632e+00
 3.9799610494e-01	 1.1084942915e+00	-3.2004995839e+00
 3.8503173540e-01	 1.1130638151e+00	-3.2637723234e+00
 4.5244720117e-01	 1.0954247821e+00	-2.8327485418e+00
 4.3950154791e-01	 1.1006826575e+00	-2.9225642476e+00
 4.2652632678e-01	 1.1057753912e+00	-3.0027871404e+00
 4.1352455343e-01	 1.1107030957e+00	-3.0716350007e+00
 4.0049922509e-01	 1.1154659537e+00	-3.1352603711e+00
 3.8745331864e-01	 1.1200642165e+00	-3.2008623634e+00
 3.7534540243e-01	 1.0850622097e+00	-3.5599848304e+00
 3.6269010788e-01	 1.0893576345e+00	-3.6665173368e+00
 3.5002057975e-01	 1.0934942907e+00	-3.7748163113e+00
 3.3733963219e-01	 1.0974726159e+00	-3.8810909200e+00
 3.2465005275e-01	 1.1012931096e+00	-3.9819246587e+00
 3.1195460079e-01	 1.1049563327e+00	-4.0733713703e+00
 3.7776698568e-01	 1.0920626111e+00	-3.4948494782e+00
 3.6503004406e-01	 1.0963857482e+00	-3.5957839067e+00
 3.5227877703e-01	 1.1005490926e+00	-3.6984412857e+00
 3.3951601691e-01	 1.1045530844e+00	-3.7976043616e+00
 3.2674456922e-01	 1.1083982265e+00	-3.8893368400e+00
 3.1396721112e-01	 1.1120850832e+00	-3.9694511135e+00
 3.8018856892e-01	 1.0990630124e+00	-3.4244431110e+00
 3.6736998024e-01	 1.1034138620e+00	-3.5154355895e+00
 3.5453697432e-01	 1.1076038945e+00	-3.6080196925e+00
 3.4169240163e-01	 1.1116335529e+00	-3.6957673537e+00
 3.2883908569e-01	 1.1155033433e+00	-3.7811691166e+00
 3.1597982145e-01	 1.1192138338e+00	-3.8616435458e+00
 3.8261015216e-01	 1.1060634138e+00	-3.3473512611e+00
 3.6970991642e-01	 1.1104419758e+00	-3.4237987934e+00
 3.5679517161e-01	 1.1146586964e+00	-3.5065731262e+00
 3.4386878636e-01	 1.1187140214e+00	-3.5951487225e+00
 3.3093360216e-01	 1.1226084602e+00	-3.6828745511e+00
 3.1799243177e-01	 1.1263425843e+00	-3.7623992341e+00
 3.8503173540e-01	 1.1130638151e+00	-3.2637723234e+00
 3.7204985260e-01	 1.1174700895e+00	-3.3355996821e+00
 3.5905336890e-01	 1.1217134982e+00	-3.4215904130e+00
 3.4604517108e-01	 1.1257944899e+00	-3.5107097144e+00
 3.3302811863e-01	 1.1297135770e+00	-3.5963093972e+00
 3.2000504210e-01	 1.1334713348e+00	-3.6713137455e+00
 3.8745331864e-01	 1.1200642165e+00	-3.2008623634e+00
 3.7438978878e-01	 1.1244982033e+00	-3.2731621260e+00
 3.6131156619e-01	 1.1287683001e+00	-3.3568507583e+00
 3.4822155581e-01	 1.1328749583e+00	-3.4415155232e+00
 3.3512263510e-01	 1.1368186938e+00	-3.5207373947e+00
 3.2201765243e-01	 1.1406000854e+00	-3.5880112609e+00
 3.1195460079e-01	 1.1049563327e+00	-4.0733713703e+00
 2.9925600594e-01	 1.1084629056e+00	-4.1549009300e+00
 2.8655696663e-01	 1.1118135073e+00	-4.2304378756e+00
 2.7386014866e-01	 1.1150088740e+00	-4.3057797904e+00
 2.6116818388e-01	 1.1180497976e+00	-4.3827184878e+00
 2.4848366885e-01	 1.1209371242e+00	-4.4605511544e+00
 3.1396721112e-01	 1.1120850832e+00	-3.9694511135e+00
 3.0118668985e-01	 1.1156142791e+00	-4.0436218080e+00
 2.8840572125e-01	 1.1189864977e+00	-4.1174257324e+00
 2.7562698833e-01	 1.1222024796e+00	-4.1913065952e+00
 2.6285313991e-01	 1.1252630221e+00	-4.2654673800e+00
 2.5008678930e-01	 1.1281689766e+00	-4.3399042927e+00
 3.1597982145e-01	 1.1192138338e+00	-3.8616435458e+00
 3.0311737376e-01	 1.1227656527e+00	-3.9357141618e+00
 2.9025447587e-01	 1.1261594880e+00	-4.0077786875e+00
 2.7739382800e-01	 1.1293960853e+00	-4.0787725841e+00
 2.6453809593e-01	 1.1324762466e+00	-4.1493934827e+00
 2.5168990974e-01	 1.1354008290e+00	-4.2201340853e+00
 3.1799243177e-01	 1.1263425843e+00	-3.7623992341e+00
 3.0504805767e-01	 1.1299170263e+00	-3.8334328059e+00
 2.9210323050e-01	 1.1333324784e+00	-3.9017763529e+00
 2.7916066767e-01	 1.1365896909e+00	-3.9686673460e+00
 2.6622305196e-01	 1.1396894711e+00	-4.0351038570e+00
 2.5329303019e-01	 1.1426326814e+00	-4.1018769048e+00
 3.2000504210e-01	 1.1334713348e+00	-3.6713137455e+00
 3.0697874158e-01	 1.1370683999e+00	-3.7367718136e+00
 2.9395198512e-01	 1.1405054688e+00	-3.7997126575e+00
 2.8092750734e-01	 1.1437832965e+00	-3.8614900636e+00
 2.6790800798e-01	 1.1469026956e+00	-3.9232124861e+00
 2.5489615063e-01	 1.1498645339e+00	-3.9857753215e+00
 3.2201765243e-01	 1.1406000854e+00	-3.5880112609e+00
 3.0890942549e-01	 1.1442197735e+00	-3.6457451487e+00
 2.9580073974e-01	 1.1476784591e+00	-3.7018948766e+00
 2.8269434700e-01	 1.1509769022e+00	-3.7577488015e+00
 2.6959296401e-01	 1.1541159201e+00	-3.8143397485e+00
 2.5649927107e-01	 1.1570963863e+00	-3.8724776914e+00
 2.4848366885e-01	 1.1209371242e+00	-4.4605511544e+00
 2.3580916364e-01	 1.1236717530e+00	-4.5370860133e+00
 2.2314719061e-01	 1.1262546344e+00	-4.6103255799e+00
 2.1050023337e-01	 1.1286867687e+00	-4.6795849359e+00
 1.9787073565e-01	 1.1309692047e+00	-4.7440192984e+00
 1.8526110037e-01	 1.1331030380e+00	-4.8026450751e+00
 2.5008678930e-01	 1.1281689766e+00	-4.3399042927e+00
 2.3733051308e-01	 1.1309212482e+00	-4.4126922579e+00
 2.2458684991e-01	 1.1335207933e+00	-4.4817065761e+00
 2.1185829939e-01	 1.1359686188e+00	-4.5463767097e+00
 1.9914732104e-01	 1.1382657803e+00	-4.6059752487e+00
 1.8645633328e-01	 1.1404133802e+00	-4.6596379373e+00
 2.5168990974e-01	 1.1354008290e+00	-4.2201340853e+00
 2.3885186252e-01	 1.1381707433e+00	-4.2891411333e+00
 2.2602650920e-01	 1.1407869522e+00	-4.3540911962e+00
 2.1321636541e-01	 1.1432504689e+00	-4.4145072104e+00
 2.0042390643e-01	 1.1455623558e+00	-4.4697573432e+00
 1.8765156618e-01	 1.1477237224e+00	-4.5190740092e+00
 2.5329303019e-01	 1.1426326814e+00	-4.1018769048e+00
 2.4037321197e-01	 1.1454202385e+00	-4.1670426602e+00
 2.2746616849e-01	 1.1480531112e+00	-4.2280375034e+00
 2.1457443143e-01	 1.1505323191e+00	-4.2844577292e+00
 2.0170049182e-01	 1.1528589313e+00	-4.3357461281e+00
 1.8884679909e-01	 1.1550340646e+00	-4.3812100091e+00
 2.5489615063e-01	 1.1498645339e+00	-3.9857753215e+00
 2.4189456141e-01	 1.1526697337e+00	-4.0470134696e+00
 2.2890582779e-01	 1.1553192701e+00	-4.1041109739e+00
 2.1593249745e-01	 1.1578141692e+00	-4.1567181537e+00
 2.0297707721e-01	 1.1601555068e+00	-4.2043323026e+00
 1.9004203199e-01	 1.1623444067e+00	-4.2463147296e+00
 2.5649927107e-01	 1.1570963863e+00	-3.8724776914e+00
 2.4341591085e-01	 1.1599192289e+00	-3.9296764596e+00
 2.3034548708e-01	 1.1625854290e+00	-3.9828842009e+00
 2.1729056347e-01	 1.1650960193e+00	-4.0317866984e+00
 2.0425366260e-01	 1.1674520823e+00	-4.0759164548e+00
 1.9123726490e-01	 1.1696547489e+00	-4.1146687592e+00
 1.8526110037e-01	 1.1331030380e+00	-4.8026450751e+00
 1.7267368870e-01	 1.1350894094e+00	-4.8565847665e+00
 1.6011081918e-01	 1.1369295034e+00	-4.9075807322e+00
 1.4757476694e-01	 1.1386245467e+00	-4.9554289650e+00
 1.3506776292e-01	 1.1401758064e+00	-4.9998575736e+00
 1.2259199325e-01	 1.1415845888e+00	-5.0405372533e+00
 1.8645633328e-01	 1.1404133802e+00	-4.6596379373e+00
 1.7378771250e-01	 1.1424125669e+00	-4.7087501407e+00
 1.6114379221e-01	 1.1442645324e+00	-4.7552695609e+00
 1.4852686221e-01	 1.1459705115e+00	-4.7990324285e+00
 1.3593916784e-01	 1.1475317794e+00	-4.8397948652e+00
 1.2338290934e-01	 1.1489496506e+00	-4.8772424360e+00
 1.8765156618e-01	 1.1477237224e+00	-4.5190740092e+00
 1.7490173630e-01	 1.1497357244e+00	-4.5640209173e+00
 1.6217676524e-01	 1.1515995615e+00	-4.6066851140e+00
 1.4947895748e-01	 1.1533164763e+00	-4.6469192516e+00
 1.3681057276e-01	 1.1548877523e+00	-4.6844858633e+00
 1.2417382542e-01	 1.1563147125e+00	-4.7190659147e+00
 1.8884679909e-01	 1.1550340646e+00	-4.3812100091e+00
 1.7601576010e-01	 1.1570588818e+00	-4.4225283877e+00
 1.6320973826e-01	 1.1589345906e+00	-4.4618531110e+00
 1.5043105275e-01	 1.1606624411e+00	-4.4990303107e+00
 1.3768197769e-01	 1.1622437252e+00	-4.5338081968e+00
 1.2496474151e-01	 1.1636797743e+00	-4.5658445242e+00
 1.9004203199e-01	 1.1623444067e+00	-4.2463147296e+00
 1.7712978389e-01	 1.1643820393e+00	-4.2844176802e+00
 1.6424271129e-01	 1.1662696196e+00	-4.3208141902e+00
 1.5138314802e-01	 1.1680084059e+00	-4.3553217986e+00
 1.3855338261e-01	 1.1695996982e+00	-4.3876545241e+00
 1.2575565759e-01	 1.1710448362e+00	-4.4174291558e+00
 1.9123726490e-01	 1.1696547489e+00	-4.1146687592e+00
 1.7824380769e-01	 1.1717051968e+00	-4.1498474637e+00
 1.6527568432e-01	 1.1736046487e+00	-4.1836236068e+00
 1.5233524329e-01	 1.1753543707e+00	-4.2157649322e+00
 1.3942478753e-01	 1.1769556711e+00	-4.2459322626e+00
 1.2654657368e-01	 1.1784098981e+00	-4.2736845239e+00
 1.2259199325e-01	 1.1415845888e+00	-5.0405372533e+00
 1.1014959858e-01	 1.1428522372e+00	-5.0780048249e+00
 9.7742673524e-02	 1.1439801309e+00	-5.1123525336e+00
 8.5373266189e-02	 1.1449696832e+00	-5.1425322757e+00
 7.3043377693e-02	 1.1458223401e+00	-5.1674842884e+00
 6.0754961794e-02	 1.1465395783e+00	-5.1861473336e+00
 1.2338290934e-01	 1.1489496506e+00	-4.8772424360e+00
 1.1086024115e-01	 1.1502254774e+00	-4.9119092178e+00
 9.8373271418e-02	 1.1513606479e+00	-4.9438476099e+00
 8.5924061455e-02	 1.1523565844e+00	-4.9719503945e+00
 7.3514625291e-02	 1.1532147423e+00	-4.9950874188e+00
 6.1146929289e-02	 1.1539366079e+00	-5.0121149323e+00
 1.2417382542e-01	 1.1563147125e+00	-4.7190659147e+00
 1.1157088372e-01	 1.1575987177e+00	-4.7512053702e+00
 9.9003869312e-02	 1.1587411648e+00	-4.7809555277e+00
 8.6474856721e-02	 1.1597434856e+00	-4.8071677946e+00
 7.3985872889e-02	 1.1606071445e+00	-4.8286586186e+00
 6.1538896785e-02	 1.1613336374e+00	-4.8442178980e+00
 1.2496474151e-01	 1.1636797743e+00	-4.5658445242e+00
 1.1228152629e-01	 1.1649719579e+00	-4.5956991534e+00
 9.9634467205e-02	 1.1661216818e+00	-4.6234480251e+00
 8.7025651986e-02	 1.1671303868e+00	-4.6479192019e+00
 7.4457120487e-02	 1.1679995467e+00	-4.6678930250e+00
 6.1930864280e-02	 1.1687306670e+00	-4.6821095122e+00
 1.2575565759e-01	 1.1710448362e+00	-4.4174291558e+00
 1.1299216886e-01	 1.1723451981e+00	-4.4452091761e+00
 1.0026506510e-01	 1.1735021988e+00	-4.4711082624e+00
 8.7576447252e-02	 1.1745172880e+00	-4.4939494695e+00
 7.4928368085e-02	 1.1753919489e+00	-4.5124946442e+00
 6.2322831775e-02	 1.1761276965e+00	-4.5254507204e+00
 1.2654657368e-01	 1.1784098981e+00	-4.2736845239e+00
 1.1370281143e-01	 1.1797184384e+00	-4.2995665929e+00
 1.0089566299e-01	 1.1808827158e+00	-4.3237306662e+00
 8.8127242518e-02	 1.1819041891e+00	-4.3450134519e+00
 7.5399615683e-02	 1.1827843511e+00	-4.3621762478e+00
 6.2714799271e-02	 1.1835247260e+00	-4.3739100449e+00
 6.0754961794e-02	 1.1465395783e+00	-5.1861473336e+00
 4.8509924555e-02	 1.1471229042e+00	-5.2011487191e+00
 3.6310124064e-02	 1.1475738516e+00	-5.2147437097e+00
 2.4157370212e-02	 1.1478939810e+00	-5.2253693812e+00
 1.2053424516e-02	 1.1480848771e+00	-5.2315413430e+00
-2.6549605611e-319	 1.1481554541e+00	-5.2317318466e+00
 6.1146929289e-02	 1.1539366079e+00	-5.0121149323e+00
 4.8822891810e-02	 1.1545236971e+00	-5.0257473957e+00
 3.6544382929e-02	 1.1549775539e+00	-5.0383643868e+00
 2.4313224213e-02	 1.1552997486e+00	-5.0483517519e+00
 1.2131188545e-02	 1.1554918763e+00	-5.0541536446e+00
-1.2397709300e-09	 1.1555632521e+00	-5.0541487716e+00
 6.1538896785e-02	 1.1613336374e+00	-4.8442178980e+00
 4.9135859065e-02	 1.1619244900e+00	-4.8566332074e+00
 3.6778641794e-02	 1.1623812562e+00	-4.8683779078e+00
 2.4469078215e-02	 1.1627055162e+00	-4.8777778490e+00
 1.2208952574e-02	 1.1628988755e+00	-4.8831975406e+00
-9.9181688723e-09	 1.1629710495e+00	-4.8829145566e+00
 6.1930864280e-02	 1.1687306670e+00	-4.6821095122e+00
 4.9448826320e-02	 1.1693252830e+00	-4.6934248970e+00
 3.7012900659e-02	 1.1697849585e+00	-4.7043856305e+00
 2.4624932216e-02	 1.1701112838e+00	-4.7132494744e+00
 1.2286716603e-02	 1.1703058747e+00	-4.7182937572e+00
-3.3473824175e-08	 1.1703788460e+00	-4.7176878865e+00
 6.2322831775e-02	 1.1761276965e+00	-4.5254507204e+00
 4.9761793575e-02	 1.1767260759e+00	-4.5357475017e+00
 3.7247159524e-02	 1.1771886607e+00	-4.5459934500e+00
 2.4780786218e-02	 1.1775170515e+00	-4.5543708312e+00
 1.2364480632e-02	 1.1777128739e+00	-4.5590629126e+00
-7.9345369620e-08	 1.1777866412e+00	-4.5581244637e+00
 6.2714799271e-02	 1.1835247260e+00	-4.3739100449e+00
 5.0074760831e-02	 1.1841268688e+00	-4.3832322842e+00
 3.7481418389e-02	 1.1845923630e+00	-4.3928117569e+00
 2.4936640219e-02	 1.1849228191e+00	-4.4007485168e+00
 1.2442244662e-02	 1.1851198731e+00	-4.4051255555e+00
-1.5497143911e-07	 1.1851944348e+00	-4.4038771012e+00
 1.1851851852e+00	 0.0000000000e+00	 3.1478602149e+00
 1.1851198731e+00	 1.2442244662e-02	 3.1465180676e+00
 1.1849228191e+00	 2.4936640219e-02	 3.1453104164e+00
 1.1845923630e+00	 3.7481418389e-02	 3.1436518023e+00
 1.1841268688e+00	 5.0074760831e-02	 3.1410918933e+00
 1.1835247260e+00	 6.2714799271e-02	 3.1373123589e+00
 1.1925925926e+00	 0.0000000000e+00	 3.2032976994e+00
 1.1925268724e+00	 1.2520008691e-02	 3.2018902694e+00
 1.1923285867e+00	 2.5092494220e-02	 3.2004066609e+00
 1.1919960653e+00	 3.7715677254e-02	 3.1982957150e+00
 1.1915276618e+00	 5.0387728086e-02	 3.1951283329e+00
 1.1909217556e+00	 6.3106766766e-02	 3.1905952777e+00
 1.2000000000e+00	 0.0000000000e+00	 3.2558545365e+00
 1.1999338716e+00	 1.2597772720e-02	 3.2543707592e+00
 1.1997343543e+00	 2.5248348222e-02	 3.2526190575e+00
 1.1993997675e+00	 3.7949936119e-02	 3.2500749878e+00
 1.1989284547e+00	 5.0700695341e-02	 3.2463223025e+00
 1.1983187851e+00	 6.3498734262e-02	 3.2410517491e+00
 1.2074074074e+00	 0.0000000000e+00	 3.3053756627e+00
 1.2073408708e+00	 1.2675536749e-02	 3.3038025706e+00
 1.2071401219e+00	 2.5404202223e-02	 3.3017949952e+00
 1.2068034698e+00	 3.8184194984e-02	 3.2988472689e+00
 1.2063292476e+00	 5.1013662596e-02	 3.2945472357e+00
 1.2057158146e+00	 6.3890701757e-02	 3.2885761206e+00
 1.2148148148e+00	 0.0000000000e+00	 3.3517084322e+00
 1.2147478700e+00	 1.2753300778e-02	 3.3500309120e+00
 1.2145458895e+00	 2.5560056224e-02	 3.3477838636e+00
 1.2142071721e+00	 3.8418453849e-02	 3.3444720892e+00
 1.2137300406e+00	 5.1326629851e-02	 3.3396783746e+00
 1.2131128442e+00	 6.4282669253e-02	 3.3330645027e+00
 1.2222222222e+00	 0.0000000000e+00	 3.3947025441e+00
 1.2221548692e+00	 1.2831064807e-02	 3.3929030979e+00
 1.2219516572e+00	 2.5715910226e-02	 3.3904369895e+00
 1.2216108743e+00	 3.8652712713e-02	 3.3868108046e+00
 1.2211308335e+00	 5.1639597106e-02	 3.3815927160e+00
 1.2205098737e+00	 6.4674636748e-02	 3.3744147196e+00
 1.1835247260e+00	 6.2714799271e-02	 3.1373123589e+00
 1.1827843511e+00	 7.5399615683e-02	 3.1328069868e+00
 1.1819041891e+00	 8.8127242518e-02	 3.1278380556e+00
 1.1808827158e+00	 1.0089566299e-01	 3.1219285294e+00
 1.1797184384e+00	 1.1370281143e-01	 3.1147232493e+00
 1.1784098981e+00	 1.2654657368e-01	 3.1059897298e+00
 1.1909217556e+00	 6.3106766766e-02	 3.1905952777e+00
 1.1901767533e+00	 7.5870863281e-02	 3.1852053257e+00
 1.1892910903e+00	 8.8678037784e-02	 3.1792100709e+00
 1.1882632327e+00	 1.0152626089e-01	 3.1720880319e+00
 1.1870916786e+00	 1.1441345401e-01	 3.1634320647e+00
 1.1857749599e+00	 1.2733748976e-01	 3.1529517357e+00
 1.1983187851e+00	 6.3498734262e-02	 3.2410517491e+00
 1.1975691555e+00	 7.6342110879e-02	 3.2347808588e+00
 1.1966779915e+00	 8.9228833049e-02	 3.2277593417e+00
 1.1956437497e+00	 1.0215685878e-01	 3.2194341746e+00
 1.1944649189e+00	 1.1512409658e-01	 3.2093591300e+00
 1.1931400218e+00	 1.2812840585e-01	 3.1971987887e+00
 1.2057158146e+00	 6.3890701757e-02	 3.2885761206e+00
 1.2049615577e+00	 7.6813358477e-02	 3.2814539522e+00
 1.2040648927e+00	 8.9779628315e-02	 3.2734370341e+00
 1.2030242667e+00	 1.0278745667e-01	 3.2639528299e+00
 1.2018381591e+00	 1.1583473915e-01	 3.2525280388e+00
 1.2005050837e+00	 1.2891932193e-01	 3.2387943166e+00
 1.2131128442e+00	 6.4282669253e-02	 3.3330645027e+00
 1.2123539598e+00	 7.7284606075e-02	 3.3251466945e+00
 1.2114517939e+00	 9.0330423581e-02	 3.3161959846e+00
 1.2104047837e+00	 1.0341805457e-01	 3.3056314728e+00
 1.2092113993e+00	 1.1654538172e-01	 3.2929639007e+00
 1.2078701455e+00	 1.2971023802e-01	 3.2778031522e+00
 1.2205098737e+00	 6.4674636748e-02	 3.3744147196e+00
 1.2197463620e+00	 7.7755853673e-02	 3.3657828531e+00
 1.2188386951e+00	 9.0881218847e-02	 3.3559906622e+00
 1.2177853006e+00	 1.0404865246e-01	 3.3444591480e+00
 1.2165846396e+00	 1.1725602429e-01	 3.3306933113e+00
 1.2152352074e+00	 1.3050115410e-01	 3.3142915071e+00
 1.1784098981e+00	 1.2654657368e-01	 3.1059897298e+00
 1.1769556711e+00	 1.3942478753e-01	 3.0964160359e+00
 1.1753543707e+00	 1.5233524329e-01	 3.0866649495e+00
 1.1736046487e+00	 1.6527568432e-01	 3.0766542657e+00
 1.1717051968e+00	 1.7824380769e-01	 3.0664280402e+00
 1.1696547489e+00	 1.9123726490e-01	 3.0561531501e+00
 1.1857749599e+00	 1.2733748976e-01	 3.1529517357e+00
 1.1843116441e+00	 1.4029619245e-01	 3.1413544914e+00
 1.1827003356e+00	 1.5328733856e-01	 3.1293930904e+00
 1.1809396777e+00	 1.6630865735e-01	 3.1170301689e+00
 1.1790283543e+00	 1.7935783149e-01	 3.1043564170e+00
 1.1769650911e+00	 1.9243249781e-01	 3.0915887371e+00
 1.1931400218e+00	 1.2812840585e-01	 3.1971987887e+00
 1.1916676170e+00	 1.4116759737e-01	 3.1836852305e+00
 1.1900463004e+00	 1.5423943383e-01	 3.1696481747e+00
 1.1882747068e+00	 1.6734163037e-01	 3.1550806380e+00
 1.1863515118e+00	 1.8047185529e-01	 3.1401054292e+00
 1.1842754333e+00	 1.9362773071e-01	 3.1249750217e+00
 1.2005050837e+00	 1.2891932193e-01	 3.2387943166e+00
 1.1990235900e+00	 1.4203900230e-01	 3.2235124278e+00
 1.1973922652e+00	 1.5519152910e-01	 3.2075751704e+00
 1.1956097358e+00	 1.6837460340e-01	 3.1909910752e+00
 1.1936746692e+00	 1.8158587909e-01	 3.1739001594e+00
 1.1915857755e+00	 1.9482296362e-01	 3.1565756327e+00
 1.2078701455e+00	 1.2971023802e-01	 3.2778031522e+00
 1.2063795629e+00	 1.4291040722e-01	 3.2609415327e+00
 1.2047382300e+00	 1.5614362437e-01	 3.2433201642e+00
 1.2029447649e+00	 1.6940757643e-01	 3.2249478050e+00
 1.2009978267e+00	 1.8269990289e-01	 3.2059663603e+00
 1.1988961177e+00	 1.9601819652e-01	 3.1866545450e+00
 1.2152352074e+00	 1.3050115410e-01	 3.3142915071e+00
 1.2137355359e+00	 1.4378181214e-01	 3.2960792428e+00
 1.2120841948e+00	 1.5709571964e-01	 3.2770303339e+00
 1.2102797939e+00	 1.7044054945e-01	 3.2571380431e+00
 1.2083209842e+00	 1.8381392668e-01	 3.2365304169e+00
 1.2062064598e+00	 1.9721342943e-01	 3.2154760333e+00
 1.1696547489e+00	 1.9123726490e-01	 3.0561531501e+00
 1.1674520823e+00	 2.0425366260e-01	 3.0439264533e+00
 1.1650960193e+00	 2.1729056347e-01	 3.0282451905e+00
 1.1625854290e+00	 2.3034548708e-01	 3.0100328292e+00
 1.1599192289e+00	 2.4341591085e-01	 2.9902882357e+00
 1.1570963863e+00	 2.5649927107e-01	 2.9700646133e+00
 1.1769650911e+00	 1.9243249781e-01	 3.0915887371e+00
 1.1747486578e+00	 2.0553024799e-01	 3.0767820704e+00
 1.1723778694e+00	 2.1864862950e-01	 3.0583458714e+00
 1.1698515879e+00	 2.3178514638e-01	 3.0371939751e+00
 1.1671687241e+00	 2.4493726029e-01	 3.0143243169e+00
 1.1643282387e+00	 2.5810239152e-01	 2.9907992128e+00
 1.1842754333e+00	 1.9362773071e-01	 3.1249750217e+00
 1.1820452333e+00	 2.0680683339e-01	 3.1076944114e+00
 1.1796597195e+00	 2.2000669552e-01	 3.0865939650e+00
 1.1771177469e+00	 2.3322480567e-01	 3.0625893159e+00
 1.1744182192e+00	 2.4645860974e-01	 3.0366898648e+00
 1.1715600911e+00	 2.5970551196e-01	 3.0099804753e+00
 1.1915857755e+00	 1.9482296362e-01	 3.1565756327e+00
 1.1893418089e+00	 2.0808341878e-01	 3.1369651078e+00
 1.1869415697e+00	 2.2136476154e-01	 3.1133288776e+00
 1.1843839058e+00	 2.3466446497e-01	 3.0865950386e+00
 1.1816677144e+00	 2.4797995918e-01	 3.0577961097e+00
 1.1787919435e+00	 2.6130863241e-01	 3.0280522186e+00
 1.1988961177e+00	 1.9601819652e-01	 3.1866545450e+00
 1.1966383844e+00	 2.0936000417e-01	 3.1648957033e+00
 1.1942234198e+00	 2.2272282756e-01	 3.1388893540e+00
 1.1916500647e+00	 2.3610412426e-01	 3.1095859523e+00
 1.1889172096e+00	 2.4950130862e-01	 3.0780520418e+00
 1.1860237959e+00	 2.6291175285e-01	 3.0454550116e+00
 1.2062064598e+00	 1.9721342943e-01	 3.2154760333e+00
 1.2039349599e+00	 2.1063658956e-01	 3.1917875980e+00
 1.2015052699e+00	 2.2408089358e-01	 3.1636134102e+00
 1.1989162237e+00	 2.3754378355e-01	 3.1319354068e+00
 1.1961667048e+00	 2.5102265807e-01	 3.0978643140e+00
 1.1932556483e+00	 2.6451487330e-01	 3.0626260591e+00
 1.1570963863e+00	 2.5649927107e-01	 2.9700646133e+00
 1.1541159201e+00	 2.6959296401e-01	 2.9489692147e+00
 1.1509769022e+00	 2.8269434700e-01	 2.9268878236e+00
 1.1476784591e+00	 2.9580073974e-01	 2.9053083450e+00
 1.1442197735e+00	 3.0890942549e-01	 2.8856715448e+00
 1.1406000854e+00	 3.2201765243e-01	 2.8693215478e+00
 1.1643282387e+00	 2.5810239152e-01	 2.9907992128e+00
 1.1613291446e+00	 2.7127792003e-01	 2.9664310345e+00
 1.1581705078e+00	 2.8446118667e-01	 2.9414822158e+00
 1.1548514495e+00	 2.9764949437e-01	 2.9177225647e+00
 1.1513711471e+00	 3.1084010939e-01	 2.8968843328e+00
 1.1477288359e+00	 3.2403026276e-01	 2.8806124226e+00
 1.1715600911e+00	 2.5970551196e-01	 3.0099804753e+00
 1.1685423691e+00	 2.7296287606e-01	 2.9824425388e+00
 1.1653641135e+00	 2.8622802634e-01	 2.9545982297e+00
 1.1620244399e+00	 2.9949824899e-01	 2.9283939078e+00
 1.1585225207e+00	 3.1277079330e-01	 2.9057503643e+00
 1.1548575864e+00	 3.2604287308e-01	 2.8885130518e+00
 1.1787919435e+00	 2.6130863241e-01	 3.0280522186e+00
 1.1757555936e+00	 2.7464783208e-01	 2.9974908709e+00
 1.1725577191e+00	 2.8799486601e-01	 2.9667918697e+00
 1.1691974302e+00	 3.0134700361e-01	 2.9379745110e+00
 1.1656738942e+00	 3.1470147721e-01	 2.9130469489e+00
 1.1619863370e+00	 3.2805548341e-01	 2.8939567618e+00
 1.1860237959e+00	 2.6291175285e-01	 3.0454550116e+00
 1.1829688181e+00	 2.7633278811e-01	 3.0120584302e+00
 1.1797513247e+00	 2.8976170568e-01	 2.9786120382e+00
 1.1763704206e+00	 3.0319575824e-01	 2.9471061331e+00
 1.1728252678e+00	 3.1663216112e-01	 2.9195367690e+00
 1.1691150875e+00	 3.3006809374e-01	 2.8978569760e+00
 1.1932556483e+00	 2.6451487330e-01	 3.0626260591e+00
 1.1901820426e+00	 2.7801774413e-01	 3.0266227465e+00
 1.1869449304e+00	 2.9152854535e-01	 2.9906004195e+00
 1.1835434110e+00	 3.0504451286e-01	 2.9564200666e+00
 1.1799766414e+00	 3.1856284503e-01	 2.9259678415e+00
 1.1762438380e+00	 3.3208070407e-01	 2.9011072488e+00
 1.1406000854e+00	 3.2201765243e-01	 2.8693215478e+00
 1.1368186938e+00	 3.3512263510e-01	 2.8450662499e+00
 1.1328749583e+00	 3.4822155581e-01	 2.8057268740e+00
 1.1287683001e+00	 3.6131156619e-01	 2.7582261498e+00
 1.1244982033e+00	 3.7438978878e-01	 2.7101812026e+00
 1.1200642165e+00	 3.8745331864e-01	 2.6844045933e+00
 1.1477288359e+00	 3.2403026276e-01	 2.8806124226e+00
 1.1439238107e+00	 3.3721715157e-01	 2.8566605309e+00
 1.1399554268e+00	 3.5039794053e-01	 2.8162293571e+00
 1.1358231020e+00	 3.6356976348e-01	 2.7657171770e+00
 1.1315263171e+00	 3.7672972496e-01	 2.7140250602e+00
 1.1270646178e+00	 3.8987490188e-01	 2.6838778998e+00
 1.1548575864e+00	 3.2604287308e-01	 2.8885130518e+00
 1.1510289275e+00	 3.3931166804e-01	 2.8634811570e+00
 1.1470358953e+00	 3.5257432525e-01	 2.8206894626e+00
 1.1428779039e+00	 3.6582796077e-01	 2.7664429559e+00
 1.1385544308e+00	 3.7906966114e-01	 2.7120829061e+00
 1.1340650192e+00	 3.9229648512e-01	 2.6789646532e+00
 1.1619863370e+00	 3.2805548341e-01	 2.8939567618e+00
 1.1581340443e+00	 3.4140618450e-01	 2.8665735459e+00
 1.1541163638e+00	 3.5475070998e-01	 2.8201392428e+00
 1.1499327057e+00	 3.6808615806e-01	 2.7612884833e+00
 1.1455825446e+00	 3.8140959732e-01	 2.7048937821e+00
 1.1410654205e+00	 3.9471806837e-01	 2.6697375557e+00
 1.1691150875e+00	 3.3006809374e-01	 2.8978569760e+00
 1.1652391612e+00	 3.4350070097e-01	 2.8669587261e+00
 1.1611968323e+00	 3.5692709470e-01	 2.8155846486e+00
 1.1569875076e+00	 3.7034435534e-01	 2.7511139150e+00
 1.1526106584e+00	 3.8374953350e-01	 2.6929700926e+00
 1.1480658219e+00	 3.9713965161e-01	 2.6562526284e+00
 1.1762438380e+00	 3.3208070407e-01	 2.9011072488e+00
 1.1723442780e+00	 3.4559521744e-01	 2.8656334114e+00
 1.1682773008e+00	 3.5910347943e-01	 2.8080055518e+00
 1.1640423095e+00	 3.7260255263e-01	 2.7371223069e+00
 1.1596387722e+00	 3.8608946968e-01	 2.6767981274e+00
 1.1550662233e+00	 3.9956123485e-01	 2.6385494498e+00
 1.1200642165e+00	 3.8745331864e-01	 2.6844045933e+00
 1.1154659537e+00	 4.0049922509e-01	 2.6717293435e+00
 1.1107030957e+00	 4.1352455343e-01	 2.6589664379e+00
 1.1057753912e+00	 4.2652632678e-01	 2.6386749167e+00
 1.1006826575e+00	 4.3950154791e-01	 2.6044522039e+00
 1.0954247821e+00	 4.5244720117e-01	 2.5575164472e+00
 1.1270646178e+00	 3.8987490188e-01	 2.6838778998e+00
 1.1224376159e+00	 4.0300234525e-01	 2.6621735844e+00
 1.1176449901e+00	 4.1610908189e-01	 2.6352390522e+00
 1.1126864874e+00	 4.2919211632e-01	 2.6073796160e+00
 1.1075619241e+00	 4.4224843258e-01	 2.5772930002e+00
 1.1022711870e+00	 4.5527499618e-01	 2.5314537232e+00
 1.1340650192e+00	 3.9229648512e-01	 2.6789646532e+00
 1.1294092781e+00	 4.0550546541e-01	 2.6511951531e+00
 1.1245868844e+00	 4.1869361035e-01	 2.6143582268e+00
 1.1195975836e+00	 4.3185790587e-01	 2.5725094824e+00
 1.1144411907e+00	 4.4499531726e-01	 2.5294371065e+00
 1.1091175919e+00	 4.5810279119e-01	 2.4869425401e+00
 1.1410654205e+00	 3.9471806837e-01	 2.6697375557e+00
 1.1363809403e+00	 4.0800858556e-01	 2.6383527805e+00
 1.1315287788e+00	 4.2127813881e-01	 2.5954983083e+00
 1.1265086798e+00	 4.3452369541e-01	 2.5447082292e+00
 1.1213204574e+00	 4.4774220193e-01	 2.4892693383e+00
 1.1159639968e+00	 4.6093058619e-01	 2.4321899841e+00
 1.1480658219e+00	 3.9713965161e-01	 2.6562526284e+00
 1.1433526026e+00	 4.1051170572e-01	 2.6231996530e+00
 1.1384706731e+00	 4.2386266727e-01	 2.5777688534e+00
 1.1334197760e+00	 4.3718948495e-01	 2.5227062370e+00
 1.1281997240e+00	 4.5048908661e-01	 2.4605335247e+00
 1.1228104017e+00	 4.6375838120e-01	 2.3935182662e+00
 1.1550662233e+00	 3.9956123485e-01	 2.6385494498e+00
 1.1503242648e+00	 4.1301482588e-01	 2.6052833338e+00
 1.1454125675e+00	 4.2644719573e-01	 2.5602832037e+00
 1.1403308722e+00	 4.3985527449e-01	 2.5052455437e+00
 1.1350789906e+00	 4.5323597128e-01	 2.4416684001e+00
 1.1296568066e+00	 4.6658617621e-01	 2.3708233836e+00
 1.0954247821e+00	 4.5244720117e-01	 2.5575164472e+00
 1.0900017233e+00	 4.6536025447e-01	 2.5064301884e+00
 1.0844135109e+00	 4.7823766127e-01	 2.4579882721e+00
 1.0786602474e+00	 4.9107636260e-01	 2.4106187247e+00
 1.0727421086e+00	 5.0387328923e-01	 2.3626835438e+00
 1.0666593443e+00	 5.1662536375e-01	 2.3124885537e+00
 1.1022711870e+00	 4.5527499618e-01	 2.5314537232e+00
 1.0968142340e+00	 4.6826875606e-01	 2.4775837100e+00
 1.0911910953e+00	 4.8122664665e-01	 2.4235677576e+00
 1.0854018739e+00	 4.9414558987e-01	 2.3689902329e+00
 1.0794467468e+00	 5.0702249729e-01	 2.3133393725e+00
 1.0733259652e+00	 5.1985427228e-01	 2.2560140001e+00
 1.1091175919e+00	 4.5810279119e-01	 2.4869425401e+00
 1.1036267448e+00	 4.7117725766e-01	 2.4372643527e+00
 1.0979686797e+00	 4.8421563203e-01	 2.3839866874e+00
 1.0921435005e+00	 4.9721481713e-01	 2.3273984843e+00
 1.0861513850e+00	 5.1017170535e-01	 2.2676761858e+00
 1.0799925861e+00	 5.2308318080e-01	 2.2048884781e+00
 1.1159639968e+00	 4.6093058619e-01	 2.4321899841e+00
 1.1104392556e+00	 4.7408575925e-01	 2.3836214906e+00
 1.1047462642e+00	 4.8720461741e-01	 2.3375124082e+00
 1.0988851270e+00	 5.0028404440e-01	 2.2844187543e+00
 1.0928560231e+00	 5.1332091341e-01	 2.2247757522e+00
 1.0866592070e+00	 5.2631208932e-01	 2.1589072667e+00
 1.1228104017e+00	 4.6375838120e-01	 2.3935182662e+00
 1.1172517664e+00	 4.7699426084e-01	 2.3308618602e+00
 1.1115238486e+00	 4.9019360280e-01	 2.2825264057e+00
 1.1056267536e+00	 5.0335327167e-01	 2.2386599168e+00
 1.0995606613e+00	 5.1647012146e-01	 2.1837402608e+00
 1.0933258279e+00	 5.2954099785e-01	 2.1178678105e+00
 1.1296568066e+00	 4.6658617621e-01	 2.3708233836e+00
 1.1240642771e+00	 4.7990276243e-01	 2.3003480724e+00
 1.1183014331e+00	 4.9318258818e-01	 2.2390486244e+00
 1.1123683801e+00	 5.0642249893e-01	 2.1894291179e+00
 1.1062652995e+00	 5.1961932952e-01	 2.1436910232e+00
 1.0999924488e+00	 5.3276990637e-01	 2.0815689256e+00
 1.0666593443e+00	 5.1662536375e-01	 2.3124885537e+00
 1.0604122786e+00	 5.2932950275e-01	 2.2641222297e+00
 1.0540013111e+00	 5.4198261902e-01	 2.2196727778e+00
 1.0474269166e+00	 5.5458162382e-01	 2.1744461073e+00
 1.0406896460e+00	 5.6712342910e-01	 2.1238098004e+00
 1.0337901263e+00	 5.7960494982e-01	 2.0632079899e+00
 1.0733259652e+00	 5.1985427228e-01	 2.2560140001e+00
 1.0670398554e+00	 5.3263781214e-01	 2.2025993604e+00
 1.0605888193e+00	 5.4537001039e-01	 2.1553314285e+00
 1.0539733349e+00	 5.5804775897e-01	 2.1085744644e+00
 1.0471939563e+00	 5.7066795053e-01	 2.0567769918e+00
 1.0402513146e+00	 5.8322748076e-01	 1.9944887449e+00
 1.0799925861e+00	 5.2308318080e-01	 2.2048884781e+00
 1.0736674321e+00	 5.3594612153e-01	 2.1461823800e+00
 1.0671763275e+00	 5.4875740176e-01	 2.0947409567e+00
 1.0605197531e+00	 5.6151389412e-01	 2.0446633950e+00
 1.0536982666e+00	 5.7421247197e-01	 1.9901361752e+00
 1.0467125029e+00	 5.8685001169e-01	 1.9254503490e+00
 1.0866592070e+00	 5.2631208932e-01	 2.1589072667e+00
 1.0802950089e+00	 5.3925443092e-01	 2.0953635942e+00
 1.0737638357e+00	 5.5214479313e-01	 2.0388366095e+00
 1.0670661713e+00	 5.6498002927e-01	 1.9838243525e+00
 1.0602025769e+00	 5.7775699340e-01	 1.9248958582e+00
 1.0531736912e+00	 5.9047254263e-01	 1.8567070476e+00
 1.0933258279e+00	 5.2954099785e-01	 2.1178678105e+00
 1.0869225856e+00	 5.4256274032e-01	 2.0506195977e+00
 1.0803513439e+00	 5.5553218450e-01	 1.9885262278e+00
 1.0736125896e+00	 5.6844616442e-01	 1.9271361830e+00
 1.0667068872e+00	 5.8130151483e-01	 1.8620335447e+00
 1.0596348795e+00	 5.9409507357e-01	 1.7888507945e+00
 1.0999924488e+00	 5.3276990637e-01	 2.0815689256e+00
 1.0935501624e+00	 5.4587104971e-01	 2.0124109735e+00
 1.0869388521e+00	 5.5891957587e-01	 1.9446902501e+00
 1.0801590078e+00	 5.7191229957e-01	 1.8756452384e+00
 1.0732111975e+00	 5.8484603626e-01	 1.8024957514e+00
 1.0660960678e+00	 5.9771760450e-01	 1.7224509557e+00
 1.0337901263e+00	 5.7960494982e-01	 2.0632079899e+00
 1.0267290611e+00	 5.9202310624e-01	 1.9994068253e+00
 1.0195072303e+00	 6.0437482626e-01	 1.9398132763e+00
 1.0121254906e+00	 6.1665704776e-01	 1.8810022189e+00
 1.0045847751e+00	 6.2886672095e-01	 1.8196953928e+00
 9.9688609369e-01	 6.4100081076e-01	 1.7527719375e+00
 1.0402513146e+00	 5.8322748076e-01	 1.9944887449e+00
 1.0331461177e+00	 5.9572325065e-01	 1.9278200499e+00
 1.0258791505e+00	 6.0815216892e-01	 1.8644149736e+00
 1.0184512749e+00	 6.2051115430e-01	 1.8013012462e+00
 1.0108634300e+00	 6.3279713796e-01	 1.7356364143e+00
 1.0031166318e+00	 6.4500706583e-01	 1.6647168042e+00
 1.0467125029e+00	 5.8685001169e-01	 1.9254503490e+00
 1.0395631743e+00	 5.9942339507e-01	 1.8563337259e+00
 1.0322510706e+00	 6.1192951158e-01	 1.7902268473e+00
 1.0247770592e+00	 6.2436526085e-01	 1.7241663996e+00
 1.0171420848e+00	 6.3672755496e-01	 1.6553137458e+00
 1.0093471699e+00	 6.4901332089e-01	 1.5809633742e+00
 1.0531736912e+00	 5.9047254263e-01	 1.8567070476e+00
 1.0459802310e+00	 6.0312353948e-01	 1.7850883759e+00
 1.0386229908e+00	 6.1570685425e-01	 1.7170616656e+00
 1.0311028435e+00	 6.2821936740e-01	 1.6492369607e+00
 1.0234207397e+00	 6.4065797197e-01	 1.5783556077e+00
 1.0155777079e+00	 6.5301957596e-01	 1.5012992390e+00
 1.0596348795e+00	 5.9409507357e-01	 1.7888507945e+00
 1.0523972876e+00	 6.0682368389e-01	 1.7142128904e+00
 1.0449949110e+00	 6.1948419691e-01	 1.6447276804e+00
 1.0374286278e+00	 6.3207347395e-01	 1.5761510705e+00
 1.0296993945e+00	 6.4458838898e-01	 1.5043885251e+00
 1.0218082460e+00	 6.5702583103e-01	 1.4255056195e+00
 1.0660960678e+00	 5.9771760450e-01	 1.7224509557e+00
 1.0588143442e+00	 6.1052382831e-01	 1.6438238606e+00
 1.0513668312e+00	 6.2326153958e-01	 1.5730276976e+00
 1.0437544121e+00	 6.3592758050e-01	 1.5045446527e+00
 1.0359780494e+00	 6.4851880598e-01	 1.4330362228e+00
 1.0280387841e+00	 6.6103208610e-01	 1.3533563606e+00
 9.9688609369e-01	 6.4100081076e-01	 1.7527719375e+00
 9.8903053204e-01	 6.5305629916e-01	 1.6851745427e+00
 9.8101925202e-01	 6.6503018755e-01	 1.6207518046e+00
 9.7285349095e-01	 6.7691949915e-01	 1.5550507473e+00
 9.6453456125e-01	 6.8872128132e-01	 1.4838755513e+00
 9.5606384983e-01	 7.0043260791e-01	 1.4033003074e+00
 1.0031166318e+00	 6.4500706583e-01	 1.6647168042e+00
 9.9521197287e-01	 6.5713790103e-01	 1.5942204565e+00
 9.8715062234e-01	 6.6918662622e-01	 1.5280216228e+00
 9.7893382526e-01	 6.8115024602e-01	 1.4610183522e+00
 9.7056290225e-01	 6.9302578933e-01	 1.3883845518e+00
 9.6203924889e-01	 7.0481031171e-01	 1.3055839583e+00
 1.0093471699e+00	 6.4901332089e-01	 1.5809633742e+00
 1.0013934137e+00	 6.6121950290e-01	 1.5074111083e+00
 9.9328199267e-01	 6.7334306490e-01	 1.4388985370e+00
 9.8501415958e-01	 6.8538099289e-01	 1.3699527556e+00
 9.7659124326e-01	 6.9733029734e-01	 1.2953919807e+00
 9.6801464796e-01	 7.0918801551e-01	 1.2103400859e+00
 1.0155777079e+00	 6.5301957596e-01	 1.5012992390e+00
 1.0075748545e+00	 6.6530110476e-01	 1.4247607715e+00
 9.9941336299e-01	 6.7749950357e-01	 1.3535790984e+00
 9.9109449390e-01	 6.8961173976e-01	 1.2821833953e+00
 9.8261958427e-01	 7.0163480535e-01	 1.2053058225e+00
 9.7399004702e-01	 7.1356571931e-01	 1.1179959727e+00
 1.0218082460e+00	 6.5702583103e-01	 1.4255056195e+00
 1.0137562953e+00	 6.6938270663e-01	 1.3462710772e+00
 1.0055447333e+00	 6.8165594224e-01	 1.2722420763e+00
 9.9717482822e-01	 6.9384248663e-01	 1.1980180503e+00
 9.8864792528e-01	 7.0593931335e-01	 1.1185099137e+00
 9.7996544608e-01	 7.1794342311e-01	 1.0289537788e+00
 1.0280387841e+00	 6.6103208610e-01	 1.3533563606e+00
 1.0199377362e+00	 6.7346430850e-01	 1.2719301559e+00
 1.0116761036e+00	 6.8581238091e-01	 1.1950477167e+00
 1.0032551625e+00	 6.9807323350e-01	 1.1177421784e+00
 9.9467626628e-01	 7.1024382136e-01	 1.0353633206e+00
 9.8594084514e-01	 7.2232112691e-01	 9.4358991502e-01
 9.5606384983e-01	 7.0043260791e-01	 1.4033003074e+00
 9.4744281749e-01	 7.1205058161e-01	 1.3209845145e+00
 9.3867299811e-01	 7.2357233626e-01	 1.2454374156e+00
 9.2975599791e-01	 7.3499503912e-01	 1.1746270357e+00
 9.2069349448e-01	 7.4631589317e-01	 1.1050053341e+00
 9.1148723583e-01	 7.5753213932e-01	 1.0251663274e+00
 9.6203924889e-01	 7.0481031171e-01	 1.3055839583e+00
 9.5336433510e-01	 7.1650089775e-01	 1.2211038484e+00
 9.4453970435e-01	 7.2809466336e-01	 1.1448072103e+00
 9.3556697290e-01	 7.3958875812e-01	 1.0748702834e+00
 9.2644782882e-01	 7.5098036750e-01	 1.0026348431e+00
 9.1718403105e-01	 7.6226671519e-01	 9.2032071476e-01
 9.6801464796e-01	 7.0918801551e-01	 1.2103400859e+00
 9.5928585271e-01	 7.2095121388e-01	 1.1242874208e+00
 9.5040641059e-01	 7.3261699046e-01	 1.0483303062e+00
 9.4137794788e-01	 7.4418247711e-01	 9.7970741785e-01
 9.3220216316e-01	 7.5564484184e-01	 9.0354226602e-01
 9.2288082628e-01	 7.6700129106e-01	 8.1963549911e-01
 9.7399004702e-01	 7.1356571931e-01	 1.1179959727e+00
 9.6520737031e-01	 7.2540153002e-01	 1.0309447274e+00
 9.5627311683e-01	 7.3713931756e-01	 9.5638893224e-01
 9.4718892287e-01	 7.4877619611e-01	 8.8686422519e-01
 9.3795649750e-01	 7.6030931617e-01	 8.0754037447e-01
 9.2857762150e-01	 7.7173586693e-01	 7.2288281910e-01
 9.7996544608e-01	 7.1794342311e-01	 1.0289537788e+00
 9.7112888792e-01	 7.2985184615e-01	 9.4146014524e-01
 9.6213982306e-01	 7.4166164467e-01	 8.6925895813e-01
 9.5299989786e-01	 7.5336991510e-01	 7.9608151788e-01
 9.4371083184e-01	 7.6497379050e-01	 7.1443534873e-01
 9.3427441673e-01	 7.7647044280e-01	 6.2982921423e-01
 9.8594084514e-01	 7.2232112691e-01	 9.4358991502e-01
 9.7705040553e-01	 7.3430216229e-01	 8.5619227574e-01
 9.6800652930e-01	 7.4618397177e-01	 7.8455887914e-01
 9.5881087284e-01	 7.5796363409e-01	 7.0719658918e-01
 9.4946516618e-01	 7.6963826483e-01	 6.2402763854e-01
 9.3997121195e-01	 7.8120501867e-01	 5.4023644393e-01
 9.1148723583e-01	 7.5753213932e-01	 1.0251663274e+00
 9.0213903928e-01	 7.6864105861e-01	 9.3670880452e-01
 8.9265079033e-01	 7.7963997442e-01	 8.4302943036e-01
 8.8302444139e-01	 7.9052625452e-01	 7.4904633890e-01
 8.7326201051e-01	 8.0129731323e-01	 6.6001446458e-01
 8.6336557992e-01	 8.1195061340e-01	 5.8147982878e-01
 9.1718403105e-01	 7.6226671519e-01	 9.2032071476e-01
 9.0777740828e-01	 7.7344506523e-01	 8.3098782668e-01
 8.9822985777e-01	 7.8451272426e-01	 7.3690190485e-01
 8.8854334415e-01	 7.9546704361e-01	 6.4297941693e-01
 8.7871989807e-01	 8.0630542143e-01	 5.5446685931e-01
 8.6876161479e-01	 8.1702530473e-01	 4.7689357538e-01
 9.2288082628e-01	 7.6700129106e-01	 8.1963549911e-01
 9.1341577727e-01	 7.7824907185e-01	 7.3000027873e-01
 9.0380892521e-01	 7.8938547410e-01	 6.3568810995e-01
 8.9406224691e-01	 8.0040783270e-01	 5.4173011505e-01
 8.8417778564e-01	 8.1131352964e-01	 4.5348256727e-01
 8.7415764967e-01	 8.2209999606e-01	 3.7657792724e-01
 9.2857762150e-01	 7.7173586693e-01	 7.2288281910e-01
 9.1905414627e-01	 7.8305307846e-01	 6.3348597997e-01
 9.0938799265e-01	 7.9425822394e-01	 5.3911035533e-01
 8.9958114967e-01	 8.0534862179e-01	 4.4501602072e-01
 8.8963567321e-01	 8.1632163785e-01	 3.5678521698e-01
 8.7955368454e-01	 8.2717468740e-01	 2.8027129248e-01
 9.3427441673e-01	 7.7647044280e-01	 6.2982921423e-01
 9.2469251526e-01	 7.8785708508e-01	 5.4117984922e-01
 9.1496706009e-01	 7.9913097378e-01	 4.4688630163e-01
 9.0510005243e-01	 8.1028941088e-01	 3.5254993139e-01
 8.9509356077e-01	 8.2132974606e-01	 2.6409316924e-01
 8.8494971942e-01	 8.3224937873e-01	 1.8770605355e-01
 9.3997121195e-01	 7.8120501867e-01	 5.4023644393e-01
 9.3033088426e-01	 7.9266109170e-01	 4.5281268786e-01
 9.2054612753e-01	 8.0400372362e-01	 3.5872971778e-01
 9.1061895519e-01	 8.1523019997e-01	 2.6404059484e-01
 9.0055144834e-01	 8.2633785426e-01	 1.7512024782e-01
 8.9034575429e-01	 8.3732407007e-01	 9.8609293989e-02
 8.6336557992e-01	 8.1195061340e-01	 5.8147982878e-01
 8.5333729461e-01	 8.2248366842e-01	 5.0037528248e-01
 8.4317936076e-01	 8.3289404414e-01	 4.0529034955e-01
 8.3289404414e-01	 8.4317936076e-01	 3.0449937014e-01
 8.2248366842e-01	 8.5333729461e-01	 2.0630153704e-01
 8.1195061340e-01	 8.6336557992e-01	 1.1896174554e-01
 8.6876161479e-01	 8.1702530473e-01	 4.7689357538e-01
 8.5867065270e-01	 8.2762419135e-01	 3.9685907064e-01
 8.4844923177e-01	 8.3809963192e-01	 3.0273899116e-01
 8.3809963192e-01	 8.4844923177e-01	 2.0296912751e-01
 8.2762419135e-01	 8.5867065270e-01	 1.0601642175e-01
 8.1702530473e-01	 8.6876161479e-01	 2.0317603585e-02
 8.7415764967e-01	 8.2209999606e-01	 3.7657792724e-01
 8.6400401079e-01	 8.3276471427e-01	 2.9747241902e-01
 8.5371910277e-01	 8.4330521969e-01	 2.0437803707e-01
 8.4330521969e-01	 8.5371910277e-01	 1.0580129595e-01
 8.3276471427e-01	 8.6400401079e-01	 1.0283928327e-02
 8.2209999606e-01	 8.7415764967e-01	-7.3660549910e-02
 8.7955368454e-01	 8.2717468740e-01	 2.8027129248e-01
 8.6933736888e-01	 8.3790523720e-01	 2.0195850571e-01
 8.5898897378e-01	 8.4851080747e-01	 1.0992925713e-01
 8.4851080747e-01	 8.5898897378e-01	 1.2671934264e-02
 8.3790523720e-01	 8.6933736888e-01	-8.1287985326e-02
 8.2717468740e-01	 8.7955368454e-01	-1.6345330168e-01
 8.8494971942e-01	 8.3224937873e-01	 1.8770605355e-01
 8.7467072697e-01	 8.4304576013e-01	 1.1005391001e-01
 8.6425884478e-01	 8.5371639525e-01	 1.9107836846e-02
 8.5371639525e-01	 8.6425884478e-01	-7.6748917781e-02
 8.4304576013e-01	 8.7467072697e-01	-1.6909630156e-01
 8.3224937873e-01	 8.8494971942e-01	-2.4954462401e-01
 8.9034575429e-01	 8.3732407007e-01	 9.8609293989e-02
 8.8000408506e-01	 8.4818628306e-01	 2.1489327038e-02
 8.6952871578e-01	 8.5892198302e-01	-6.8376940241e-02
 8.5892198302e-01	 8.6952871578e-01	-1.6279660829e-01
 8.4818628306e-01	 8.8000408506e-01	-2.5354238035e-01
 8.3732407007e-01	 8.9034575429e-01	-3.3242139686e-01
 8.1195061340e-01	 8.6336557992e-01	 1.1896174554e-01
 8.0129731323e-01	 8.7326201051e-01	 3.1848894690e-02
 7.9052625452e-01	 8.8302444139e-01	-6.7245711866e-02
 7.7963997442e-01	 8.9265079033e-01	-1.7268633311e-01
 7.6864105861e-01	 9.0213903928e-01	-2.7914663835e-01
 7.5753213932e-01	 9.1148723583e-01	-3.8165909336e-01
 8.1702530473e-01	 8.6876161479e-01	 2.0317603585e-02
 8.0630542143e-01	 8.7871989807e-01	-6.4976562042e-02
 7.9546704361e-01	 8.8854334415e-01	-1.6226198864e-01
 7.8451272426e-01	 8.9822985777e-01	-2.6568546754e-01
 7.7344506523e-01	 9.0777740828e-01	-3.6970830599e-01
 7.6226671519e-01	 9.1718403105e-01	-4.6915795430e-01
 8.2209999606e-01	 8.7415764967e-01	-7.3660549910e-02
 8.1131352964e-01	 8.8417778564e-01	-1.5715472003e-01
 8.0040783270e-01	 8.9406224691e-01	-2.5273556390e-01
 7.8938547410e-01	 9.0380892521e-01	-3.5427364065e-01
 7.7824907185e-01	 9.1341577727e-01	-4.5595496731e-01
 7.6700129106e-01	 9.2288082628e-01	-5.5233510865e-01
 8.2717468740e-01	 8.7955368454e-01	-1.6345330168e-01
 8.1632163785e-01	 8.8963567321e-01	-2.4524068557e-01
 8.0534862179e-01	 8.9958114967e-01	-3.3924943288e-01
 7.9425822394e-01	 9.0938799265e-01	-4.3901597258e-01
 7.8305307846e-01	 9.1905414627e-01	-5.3838902463e-01
 7.7173586693e-01	 9.2857762150e-01	-6.3158637471e-01
 8.3224937873e-01	 8.8494971942e-01	-2.4954462401e-01
 8.2132974606e-01	 8.9509356077e-01	-3.2979175063e-01
 8.1028941088e-01	 9.0510005243e-01	-4.2238871632e-01
 7.9913097378e-01	 9.1496706009e-01	-5.2048075722e-01
 7.8785708508e-01	 9.2469251526e-01	-6.1751817777e-01
 7.7647044280e-01	 9.3427441673e-01	-7.0731603345e-01
 8.3732407007e-01	 8.9034575429e-01	-3.3242139686e-01
 8.2633785426e-01	 9.0055144834e-01	-4.1136699033e-01
 8.1523019997e-01	 9.1061895519e-01	-5.0274030012e-01
 8.0400372362e-01	 9.2054612753e-01	-5.9923911118e-01
 7.9266109170e-01	 9.3033088426e-01	-6.9385505043e-01
 7.8120501867e-01	 9.3997121195e-01	-7.7993640122e-01
 7.5753213932e-01	 9.1148723583e-01	-3.8165909336e-01
 7.4631589317e-01	 9.2069349448e-01	-4.7873158030e-01
 7.3499503912e-01	 9.2975599791e-01	-5.7112682802e-01
 7.2357233626e-01	 9.3867299811e-01	-6.6504464626e-01
 7.1205058161e-01	 9.4744281749e-01	-7.6433951930e-01
 7.0043260791e-01	 9.5606384983e-01	-8.7253455990e-01
 7.6226671519e-01	 9.1718403105e-01	-4.6915795430e-01
 7.5098036750e-01	 9.2644782882e-01	-5.6337523394e-01
 7.3958875812e-01	 9.3556697290e-01	-6.5294971123e-01
 7.2809466336e-01	 9.4453970435e-01	-7.4209969594e-01
 7.1650089775e-01	 9.5336433510e-01	-8.3714264064e-01
 7.0481031171e-01	 9.6203924889e-01	-9.4171120023e-01
 7.6700129106e-01	 9.2288082628e-01	-5.5233510865e-01
 7.5564484184e-01	 9.3220216316e-01	-6.4357740479e-01
 7.4418247711e-01	 9.4137794788e-01	-7.3123698470e-01
 7.3261699046e-01	 9.5040641059e-01	-8.1575434129e-01
 7.2095121388e-01	 9.5928585271e-01	-9.0622371290e-01
 7.0918801551e-01	 9.6801464796e-01	-1.0068965878e+00
 7.7173586693e-01	 9.2857762150e-01	-6.3158637471e-01
 7.6030931617e-01	 9.3795649750e-01	-7.1964083708e-01
 7.4877619611e-01	 9.4718892287e-01	-8.0523272555e-01
 7.3713931756e-01	 9.5627311683e-01	-8.8652189376e-01
 7.2540153002e-01	 9.6520737031e-01	-9.7221252714e-01
 7.1356571931e-01	 9.7399004702e-01	-1.0689051286e+00
 7.7647044280e-01	 9.3427441673e-01	-7.0731603345e-01
 7.6497379050e-01	 9.4371083184e-01	-7.9187953481e-01
 7.5336991510e-01	 9.5299989786e-01	-8.7517898381e-01
 7.4166164467e-01	 9.6213982306e-01	-9.5487720755e-01
 7.2985184615e-01	 9.7112888792e-01	-1.0357376752e+00
 7.1794342311e-01	 9.7996544608e-01	-1.1285453787e+00
 7.8120501867e-01	 9.3997121195e-01	-7.7993640122e-01
 7.6963826483e-01	 9.4946516618e-01	-8.6061829211e-01
 7.5796363409e-01	 9.5881087284e-01	-9.4137927451e-01
 7.4618397177e-01	 9.6800652930e-01	-1.0200125827e+00
 7.3430216229e-01	 9.7705040553e-01	-1.0974264504e+00
 7.2232112691e-01	 9.8594084514e-01	-1.1866200902e+00
 7.0043260791e-01	 9.5606384983e-01	-8.7253455990e-01
 6.8872128132e-01	 9.6453456125e-01	-9.8246136164e-01
 6.7691949915e-01	 9.7285349095e-01	-1.0859328222e+00
 6.6503018755e-01	 9.8101925202e-01	-1.1856534165e+00
 6.5305629916e-01	 9.8903053204e-01	-1.2846789941e+00
 6.4100081076e-01	 9.9688609369e-01	-1.3863974669e+00
 7.0481031171e-01	 9.6203924889e-01	-9.4171120023e-01
 6.9302578933e-01	 9.7056290225e-01	-1.0479065915e+00
 6.8115024602e-01	 9.7893382526e-01	-1.1469666952e+00
 6.6918662622e-01	 9.8715062234e-01	-1.2419779338e+00
 6.5713790103e-01	 9.9521197287e-01	-1.3364205983e+00
 6.4500706583e-01	 1.0031166318e+00	-1.4341480681e+00
 7.0918801551e-01	 9.6801464796e-01	-1.0068965878e+00
 6.9733029734e-01	 9.7659124326e-01	-1.1093177018e+00
 6.8538099289e-01	 9.8501415958e-01	-1.2042361435e+00
 6.7334306490e-01	 9.9328199267e-01	-1.2950319916e+00
 6.6121950290e-01	 1.0013934137e+00	-1.3855076742e+00
 6.4901332089e-01	 1.0093471699e+00	-1.4798660529e+00
 7.1356571931e-01	 9.7399004702e-01	-1.0689051286e+00
 7.0163480535e-01	 9.8261958427e-01	-1.1676492906e+00
 6.8961173976e-01	 9.9109449390e-01	-1.2586807049e+00
 6.7749950357e-01	 9.9941336299e-01	-1.3455866465e+00
 6.6530110476e-01	 1.0075748545e+00	-1.4323913835e+00
 6.5301957596e-01	 1.0155777079e+00	-1.5235334535e+00
 7.1794342311e-01	 9.7996544608e-01	-1.1285453787e+00
 7.0593931335e-01	 9.8864792528e-01	-1.2238465292e+00
 6.9384248663e-01	 9.9717482822e-01	-1.3112306904e+00
 6.8165594224e-01	 1.0055447333e+00	-1.3944076608e+00
 6.6938270663e-01	 1.0137562953e+00	-1.4775252095e+00
 6.5702583103e-01	 1.0218082460e+00	-1.5651458681e+00
 7.2232112691e-01	 9.8594084514e-01	-1.1866200902e+00
 7.1024382136e-01	 9.9467626628e-01	-1.2788453215e+00
 6.9807323350e-01	 1.0032551625e+00	-1.3628073429e+00
 6.8581238091e-01	 1.0116761036e+00	-1.4422555476e+00
 6.7346430850e-01	 1.0199377362e+00	-1.5213647763e+00
 6.6103208610e-01	 1.0280387841e+00	-1.6047119466e+00
 6.4100081076e-01	 9.9688609369e-01	-1.3863974669e+00
 6.2886672095e-01	 1.0045847751e+00	-1.4881703196e+00
 6.1665704776e-01	 1.0121254906e+00	-1.5865575110e+00
 6.0437482626e-01	 1.0195072303e+00	-1.6841299030e+00
 5.9202310624e-01	 1.0267290611e+00	-1.7836415845e+00
 5.7960494982e-01	 1.0337901263e+00	-1.8880111998e+00
 6.4500706583e-01	 1.0031166318e+00	-1.4341480681e+00
 6.3279713796e-01	 1.0108634300e+00	-1.5322205202e+00
 6.2051115430e-01	 1.0184512749e+00	-1.6264686108e+00
 6.0815216892e-01	 1.0258791505e+00	-1.7192876075e+00
 5.9572325065e-01	 1.0331461177e+00	-1.8132179969e+00
 5.8322748076e-01	 1.0402513146e+00	-1.9109275516e+00
 6.4901332089e-01	 1.0093471699e+00	-1.4798660529e+00
 6.3672755496e-01	 1.0171420848e+00	-1.5744816077e+00
 6.2436526085e-01	 1.0247770592e+00	-1.6643197030e+00
 6.1192951158e-01	 1.0322510706e+00	-1.7518652875e+00
 5.9942339507e-01	 1.0395631743e+00	-1.8397347764e+00
 5.8685001169e-01	 1.0467125029e+00	-1.9306579612e+00
 6.5301957596e-01	 1.0155777079e+00	-1.5235334535e+00
 6.4065797197e-01	 1.0234207397e+00	-1.6145325747e+00
 6.2821936740e-01	 1.0311028435e+00	-1.6995632663e+00
 6.1570685425e-01	 1.0386229908e+00	-1.7814601782e+00
 6.0312353948e-01	 1.0459802310e+00	-1.8631996376e+00
 5.9047254263e-01	 1.0531736912e+00	-1.9478805148e+00
 6.5702583103e-01	 1.0218082460e+00	-1.5651458681e+00
 6.4458838898e-01	 1.0296993945e+00	-1.6519756021e+00
 6.3207347395e-01	 1.0374286278e+00	-1.7316778344e+00
 6.1948419691e-01	 1.0449949110e+00	-1.8076918094e+00
 6.0682368389e-01	 1.0523972876e+00	-1.8836323371e+00
 5.9409507357e-01	 1.0596348795e+00	-1.9632687369e+00
 6.6103208610e-01	 1.0280387841e+00	-1.6047119466e+00
 6.4851880598e-01	 1.0359780494e+00	-1.6864352602e+00
 6.3592758050e-01	 1.0437544121e+00	-1.7601671178e+00
 6.2326153958e-01	 1.0513668312e+00	-1.8302012486e+00
 6.1052382831e-01	 1.0588143442e+00	-1.9010642338e+00
 5.9771760450e-01	 1.0660960678e+00	-1.9774916621e+00
 5.7960494982e-01	 1.0337901263e+00	-1.8880111998e+00
 5.6712342910e-01	 1.0406896460e+00	-1.9911052355e+00
 5.5458162382e-01	 1.0474269166e+00	-2.0869044123e+00
 5.4198261902e-01	 1.0540013111e+00	-2.1787053122e+00
 5.2932950275e-01	 1.0604122786e+00	-2.2699150447e+00
 5.1662536375e-01	 1.0666593443e+00	-2.3640315081e+00
 5.8322748076e-01	 1.0402513146e+00	-1.9109275516e+00
 5.7066795053e-01	 1.0471939563e+00	-2.0064871251e+00
 5.5804775897e-01	 1.0539733349e+00	-2.0947003686e+00
 5.4537001039e-01	 1.0605888193e+00	-2.1795487536e+00
 5.3263781214e-01	 1.0670398554e+00	-2.2651695978e+00
 5.1985427228e-01	 1.0733259652e+00	-2.3558339291e+00
 5.8685001169e-01	 1.0467125029e+00	-1.9306579612e+00
 5.7421247197e-01	 1.0536982666e+00	-2.0194293277e+00
 5.6151389412e-01	 1.0605197531e+00	-2.1016106101e+00
 5.4875740176e-01	 1.0671763275e+00	-2.1812990565e+00
 5.3594612153e-01	 1.0736674321e+00	-2.2627640196e+00
 5.2308318080e-01	 1.0799925861e+00	-2.3504241221e+00
 5.9047254263e-01	 1.0531736912e+00	-1.9478805148e+00
 5.7775699340e-01	 1.0602025769e+00	-2.0312199951e+00
 5.6498002927e-01	 1.0670661713e+00	-2.1091642523e+00
 5.5214479313e-01	 1.0737638357e+00	-2.1853685350e+00
 5.3925443092e-01	 1.0802950089e+00	-2.2636477395e+00
 5.2631208932e-01	 1.0866592070e+00	-2.3479545592e+00
 5.9409507357e-01	 1.0596348795e+00	-1.9632687369e+00
 5.8130151483e-01	 1.0667068872e+00	-2.0431275722e+00
 5.6844616442e-01	 1.0736125896e+00	-2.1188645491e+00
 5.5553218450e-01	 1.0803513439e+00	-2.1931462001e+00
 5.4256274032e-01	 1.0869225856e+00	-2.2687578708e+00
 5.2954099785e-01	 1.0933258279e+00	-2.3485845182e+00
 5.9771760450e-01	 1.0660960678e+00	-1.9774916621e+00
 5.8484603626e-01	 1.0732111975e+00	-2.0564013365e+00
 5.7191229957e-01	 1.0801590078e+00	-2.1321896271e+00
 5.5891957587e-01	 1.0869388521e+00	-2.2059984250e+00
 5.4587104971e-01	 1.0935501624e+00	-2.2790195515e+00
 5.3276990637e-01	 1.0999924488e+00	-2.3524798523e+00
 5.1662536375e-01	 1.0666593443e+00	-2.3640315081e+00
 5.0387328923e-01	 1.0727421086e+00	-2.4596235938e+00
 4.9107636260e-01	 1.0786602474e+00	-2.5534709665e+00
 4.7823766127e-01	 1.0844135109e+00	-2.6464175467e+00
 4.6536025447e-01	 1.0900017233e+00	-2.7392625334e+00
 4.5244720117e-01	 1.0954247821e+00	-2.8327485418e+00
 5.1985427228e-01	 1.0733259652e+00	-2.3558339291e+00
 5.0702249729e-01	 1.0794467468e+00	-2.4497738555e+00
 4.9414558987e-01	 1.0854018739e+00	-2.5421589141e+00
 4.8122664665e-01	 1.0911910953e+00	-2.6326983961e+00
 4.6826875606e-01	 1.0968142340e+00	-2.7210213057e+00
 4.5527499618e-01	 1.1022711870e+00	-2.8066674916e+00
 5.2308318080e-01	 1.0799925861e+00	-2.3504241221e+00
 5.1017170535e-01	 1.0861513850e+00	-2.4413276038e+00
 4.9721481713e-01	 1.0921435005e+00	-2.5288921942e+00
 4.8421563203e-01	 1.0979686797e+00	-2.6121195780e+00
 4.7117725766e-01	 1.1036267448e+00	-2.6899131844e+00
 4.5810279119e-01	 1.1091175919e+00	-2.7610710766e+00
 5.2631208932e-01	 1.0866592070e+00	-2.3479545592e+00
 5.1332091341e-01	 1.0928560231e+00	-2.4335996207e+00
 5.0028404440e-01	 1.0988851270e+00	-2.5123867731e+00
 4.8720461741e-01	 1.1047462642e+00	-2.5830286065e+00
 4.7408575925e-01	 1.1104392556e+00	-2.6441388897e+00
 4.6093058619e-01	 1.1159639968e+00	-2.7048012910e+00
 5.2954099785e-01	 1.0933258279e+00	-2.3485845182e+00
 5.1647012146e-01	 1.0995606613e+00	-2.4259315963e+00
 5.0335327167e-01	 1.1056267536e+00	-2.4913997873e+00
 4.9019360280e-01	 1.1115238486e+00	-2.5439000323e+00
 4.7699426084e-01	 1.1172517664e+00	-2.5990044919e+00
 4.6375838120e-01	 1.1228104017e+00	-2.6660466945e+00
 5.3276990637e-01	 1.0999924488e+00	-2.3524798523e+00
 5.1961932952e-01	 1.1062652995e+00	-2.4176912975e+00
 5.0642249893e-01	 1.1123683801e+00	-2.4654455689e+00
 4.9318258818e-01	 1.1183014331e+00	-2.5164120916e+00
 4.7990276243e-01	 1.1240642771e+00	-2.5776510217e+00
 4.6658617621e-01	 1.1296568066e+00	-2.6452113996e+00
 4.5244720117e-01	 1.0954247821e+00	-2.8327485418e+00
 4.3950154791e-01	 1.1006826575e+00	-2.9225642476e+00
 4.2652632678e-01	 1.1057753912e+00	-3.0027871404e+00
 4.1352455343e-01	 1.1107030957e+00	-3.0716350007e+00
 4.0049922509e-01	 1.1154659537e+00	-3.1352603711e+00
 3.8745331864e-01	 1.1200642165e+00	-3.2008623634e+00
 4.5527499618e-01	 1.1022711870e+00	-2.8066674916e+00
 4.4224843258e-01	 1.1075619241e+00	-2.8843889803e+00
 4.2919211632e-01	 1.1126864874e+00	-2.9495623861e+00
 4.1610908189e-01	 1.1176449901e+00	-3.0160793411e+00
 4.0300234525e-01	 1.1224376159e+00	-3.0849977487e+00
 3.8987490188e-01	 1.1270646178e+00	-3.1515979939e+00
 4.5810279119e-01	 1.1091175919e+00	-2.7610710766e+00
 4.4499531726e-01	 1.1144411907e+00	-2.8249782420e+00
 4.3185790587e-01	 1.1195975836e+00	-2.8935236817e+00
 4.1869361035e-01	 1.1245868844e+00	-2.9647645981e+00
 4.0550546541e-01	 1.1294092781e+00	-3.0347474962e+00
 3.9229648512e-01	 1.1340650192e+00	-3.0993217973e+00
 4.6093058619e-01	 1.1159639968e+00	-2.7048012910e+00
 4.4774220193e-01	 1.1213204574e+00	-2.7744654848e+00
 4.3452369541e-01	 1.1265086798e+00	-2.8462727102e+00
 4.2127813881e-01	 1.1315287788e+00	-2.9173353678e+00
 4.0800858556e-01	 1.1363809403e+00	-2.9845390148e+00
 3.9471806837e-01	 1.1410654205e+00	-3.0445745586e+00
 4.6375838120e-01	 1.1228104017e+00	-2.6660466945e+00
 4.5048908661e-01	 1.1281997240e+00	-2.7372912897e+00
 4.3718948495e-01	 1.1334197760e+00	-2.8069934988e+00
 4.2386266727e-01	 1.1384706731e+00	-2.8733634741e+00
 4.1051170572e-01	 1.1433526026e+00	-2.9343907992e+00
 3.9713965161e-01	 1.1480658219e+00	-2.9878750978e+00
 4.6658617621e-01	 1.1296568066e+00	-2.6452113996e+00
 4.5323597128e-01	 1.1350789906e+00	-2.7123289616e+00
 4.3985527449e-01	 1.1403308722e+00	-2.7748765606e+00
 4.2644719573e-01	 1.1454125675e+00	-2.8324191765e+00
 4.1301482588e-01	 1.1503242648e+00	-2.8843103288e+00
 3.9956123485e-01	 1.1550662233e+00	-2.9297204914e+00
 3.8745331864e-01	 1.1200642165e+00	-3.2008623634e+00
 3.7438978878e-01	 1.1244982033e+00	-3.2731621260e+00
 3.6131156619e-01	 1.1287683001e+00	-3.3568507583e+00
 3.4822155581e-01	 1.1328749583e+00	-3.4415155232e+00
 3.3512263510e-01	 1.1368186938e+00	-3.5207373947e+00
 3.2201765243e-01	 1.1406000854e+00	-3.5880112609e+00
 3.8987490188e-01	 1.1270646178e+00	-3.1515979939e+00
 3.7672972496e-01	 1.1315263171e+00	-3.2208397772e+00
 3.6356976348e-01	 1.1358231020e+00	-3.2990320811e+00
 3.5039794053e-01	 1.1399554268e+00	-3.3771110367e+00
 3.3721715157e-01	 1.1439238107e+00	-3.4486913771e+00
 3.2403026276e-01	 1.1477288359e+00	-3.5077709800e+00
 3.9229648512e-01	 1.1340650192e+00	-3.0993217973e+00
 3.7906966114e-01	 1.1385544308e+00	-3.1640816071e+00
 3.6582796077e-01	 1.1428779039e+00	-3.2363607320e+00
 3.5257432525e-01	 1.1470358953e+00	-3.3086107285e+00
 3.3931166804e-01	 1.1510289275e+00	-3.3740759769e+00
 3.2604287308e-01	 1.1548575864e+00	-3.4268366170e+00
 3.9471806837e-01	 1.1410654205e+00	-3.0445745586e+00
 3.8140959732e-01	 1.1455825446e+00	-3.1038761315e+00
 3.6808615806e-01	 1.1499327057e+00	-3.1702023692e+00
 3.5475070998e-01	 1.1541163638e+00	-3.2374442822e+00
 3.4140618450e-01	 1.1581340443e+00	-3.2982240038e+00
 3.2805548341e-01	 1.1619863370e+00	-3.3462911422e+00
 3.9713965161e-01	 1.1480658219e+00	-2.9878750978e+00
 3.8374953350e-01	 1.1526106584e+00	-3.0411804126e+00
 3.7034435534e-01	 1.1569875076e+00	-3.1018970012e+00
 3.5692709470e-01	 1.1611968323e+00	-3.1650168398e+00
 3.4350070097e-01	 1.1652391612e+00	-3.2224484566e+00
 3.3006809374e-01	 1.1691150875e+00	-3.2672058655e+00
 3.9956123485e-01	 1.1550662233e+00	-2.9297204914e+00
 3.8608946968e-01	 1.1596387722e+00	-2.9769205656e+00
 3.7260255263e-01	 1.1640423095e+00	-3.0327982569e+00
 3.5910347943e-01	 1.1682773008e+00	-3.0927085495e+00
 3.4559521744e-01	 1.1723442780e+00	-3.1480420851e+00
 3.3208070407e-01	 1.1762438380e+00	-3.1906399006e+00
 3.2201765243e-01	 1.1406000854e+00	-3.5880112609e+00
 3.0890942549e-01	 1.1442197735e+00	-3.6457451487e+00
 2.9580073974e-01	 1.1476784591e+00	-3.7018948766e+00
 2.8269434700e-01	 1.1509769022e+00	-3.7577488015e+00
 2.6959296401e-01	 1.1541159201e+00	-3.8143397485e+00
 2.5649927107e-01	 1.1570963863e+00	-3.8724776914e+00
 3.2403026276e-01	 1.1477288359e+00	-3.5077709800e+00
 3.1084010939e-01	 1.1513711471e+00	-3.5577620707e+00
 2.9764949437e-01	 1.1548514495e+00	-3.6072017976e+00
 2.8446118667e-01	 1.1581705078e+00	-3.6572614739e+00
 2.7127792003e-01	 1.1613291446e+00	-3.7088472351e+00
 2.5810239152e-01	 1.1643282387e+00	-3.7626332066e+00
 3.2604287308e-01	 1.1548575864e+00	-3.4268366170e+00
 3.1277079330e-01	 1.1585225207e+00	-3.4707404933e+00
 2.9949824899e-01	 1.1620244399e+00	-3.5146685682e+00
 2.8622802634e-01	 1.1653641135e+00	-3.5597499598e+00
 2.7296287606e-01	 1.1685423691e+00	-3.6068442683e+00
 2.5970551196e-01	 1.1715600911e+00	-3.6565749273e+00
 3.2805548341e-01	 1.1619863370e+00	-3.3462911422e+00
 3.1470147721e-01	 1.1656738942e+00	-3.3854698376e+00
 3.0134700361e-01	 1.1691974302e+00	-3.4248501814e+00
 2.8799486601e-01	 1.1725577191e+00	-3.4655923444e+00
 2.7464783208e-01	 1.1757555936e+00	-3.5085879504e+00
 2.6130863241e-01	 1.1787919435e+00	-3.5544933063e+00
 3.3006809374e-01	 1.1691150875e+00	-3.2672058655e+00
 3.1663216112e-01	 1.1728252678e+00	-3.3027367658e+00
 3.0319575824e-01	 1.1763704206e+00	-3.3383060129e+00
 2.8976170568e-01	 1.1797513247e+00	-3.3751765165e+00
 2.7633278811e-01	 1.1829688181e+00	-3.4143489283e+00
 2.6291175285e-01	 1.1860237959e+00	-3.4565944451e+00
 3.3208070407e-01	 1.1762438380e+00	-3.1906399006e+00
 3.1856284503e-01	 1.1799766414e+00	-3.2233245146e+00
 3.0504451286e-01	 1.1835434110e+00	-3.2555990663e+00
 2.9152854535e-01	 1.1869449304e+00	-3.2888993679e+00
 2.7801774413e-01	 1.1901820426e+00	-3.3244105875e+00
 2.6451487330e-01	 1.1932556483e+00	-3.3630993245e+00
 2.5649927107e-01	 1.1570963863e+00	-3.8724776914e+00
 2.4341591085e-01	 1.1599192289e+00	-3.9296764596e+00
 2.3034548708e-01	 1.1625854290e+00	-3.9828842009e+00
 2.1729056347e-01	 1.1650960193e+00	-4.0317866984e+00
 2.0425366260e-01	 1.1674520823e+00	-4.0759164548e+00
 1.9123726490e-01	 1.1696547489e+00	-4.1146687592e+00
 2.5810239152e-01	 1.1643282387e+00	-3.7626332066e+00
 2.4493726029e-01	 1.1671687241e+00	-3.8158497025e+00
 2.3178514638e-01	 1.1698515879e+00	-3.8652677334e+00
 2.1864862950e-01	 1.1723778694e+00	-3.9105909839e+00
 2.0553024799e-01	 1.1747486578e+00	-3.9513702978e+00
 1.9243249781e-01	 1.1769650911e+00	-3.9870187376e+00
 2.5970551196e-01	 1.1715600911e+00	-3.6565749273e+00
 2.4645860974e-01	 1.1744182192e+00	-3.7060276161e+00
 2.3322480567e-01	 1.1771177469e+00	-3.7518637748e+00
 2.2000669552e-01	 1.1796597195e+00	-3.7937883523e+00
 2.0680683339e-01	 1.1820452333e+00	-3.8313559958e+00
 1.9362773071e-01	 1.1842754333e+00	-3.8639850323e+00
 2.6130863241e-01	 1.1787919435e+00	-3.5544933063e+00
 2.4797995918e-01	 1.1816677144e+00	-3.6003650634e+00
 2.3466446497e-01	 1.1843839058e+00	-3.6428008678e+00
 2.2136476154e-01	 1.1869415697e+00	-3.6814909485e+00
 2.0808341878e-01	 1.1893418089e+00	-3.7159798956e+00
 1.9482296362e-01	 1.1915857755e+00	-3.7456794866e+00
 2.6291175285e-01	 1.1860237959e+00	-3.4565944451e+00
 2.4950130862e-01	 1.1889172096e+00	-3.4990336004e+00
 2.3610412426e-01	 1.1916500647e+00	-3.5382247718e+00
 2.2272282756e-01	 1.1942234198e+00	-3.5738281346e+00
 2.0936000417e-01	 1.1966383844e+00	-3.6053650342e+00
 1.9601819652e-01	 1.1988961177e+00	-3.6322295783e+00
 2.6451487330e-01	 1.1932556483e+00	-3.3630993245e+00
 2.5102265807e-01	 1.1961667048e+00	-3.4022207633e+00
 2.3754378355e-01	 1.1989162237e+00	-3.4382978137e+00
 2.2408089358e-01	 1.2015052699e+00	-3.4709459093e+00
 2.1063658956e-01	 1.2039349599e+00	-3.4996506339e+00
 1.9721342943e-01	 1.2062064598e+00	-3.5237779985e+00
 1.9123726490e-01	 1.1696547489e+00	-4.1146687592e+00
 1.7824380769e-01	 1.1717051968e+00	-4.1498474637e+00
 1.6527568432e-01	 1.1736046487e+00	-4.1836236068e+00
 1.5233524329e-01	 1.1753543707e+00	-4.2157649322e+00
 1.3942478753e-01	 1.1769556711e+00	-4.2459322626e+00
 1.2654657368e-01	 1.1784098981e+00	-4.2736845239e+00
 1.9243249781e-01	 1.1769650911e+00	-3.9870187376e+00
 1.7935783149e-01	 1.1790283543e+00	-4.0193919096e+00
 1.6630865735e-01	 1.1809396777e+00	-4.0506702453e+00
 1.5328733856e-01	 1.1827003356e+00	-4.0805732732e+00
 1.4029619245e-01	 1.1843116441e+00	-4.1087107300e+00
 1.2733748976e-01	 1.1857749599e+00	-4.1345862285e+00
 1.9362773071e-01	 1.1842754333e+00	-3.8639850323e+00
 1.8047185529e-01	 1.1863515118e+00	-3.8935820833e+00
 1.6734163037e-01	 1.1882747068e+00	-3.9223600714e+00
 1.5423943383e-01	 1.1900463004e+00	-3.9500142492e+00
 1.4116759737e-01	 1.1916676170e+00	-3.9761260965e+00
 1.2812840585e-01	 1.1931400218e+00	-4.0001655452e+00
 1.9482296362e-01	 1.1915857755e+00	-3.7456794866e+00
 1.8158587909e-01	 1.1936746692e+00	-3.7725329823e+00
 1.6837460340e-01	 1.1956097358e+00	-3.7987949256e+00
 1.5519152910e-01	 1.1973922652e+00	-3.8241604750e+00
 1.4203900230e-01	 1.1990235900e+00	-3.8482059648e+00
 1.2891932193e-01	 1.2005050837e+00	-3.8703895980e+00
 1.9601819652e-01	 1.1988961177e+00	-3.6322295783e+00
 1.8269990289e-01	 1.2009978267e+00	-3.6563740048e+00
 1.6940757643e-01	 1.2029447649e+00	-3.6800899966e+00
 1.5614362437e-01	 1.2047382300e+00	-3.7030970562e+00
 1.4291040722e-01	 1.2063795629e+00	-3.7249897816e+00
 1.2971023802e-01	 1.2078701455e+00	-3.7452369332e+00
 1.9721342943e-01	 1.2062064598e+00	-3.5237779985e+00
 1.8381392668e-01	 1.2083209842e+00	-3.5452486080e+00
 1.7044054945e-01	 1.2102797939e+00	-3.5663735451e+00
 1.5709571964e-01	 1.2120841948e+00	-3.5869213650e+00
 1.4378181214e-01	 1.2137355359e+00	-3.6065286507e+00
 1.3050115410e-01	 1.2152352074e+00	-3.6246973563e+00
 1.2654657368e-01	 1.1784098981e+00	-4.2736845239e+00
 1.1370281143e-01	 1.1797184384e+00	-4.2995665929e+00
 1.0089566299e-01	 1.1808827158e+00	-4.3237306662e+00
 8.8127242518e-02	 1.1819041891e+00	-4.3450134519e+00
 7.5399615683e-02	 1.1827843511e+00	-4.3621762478e+00
 6.2714799271e-02	 1.1835247260e+00	-4.3739100449e+00
 1.2733748976e-01	 1.1857749599e+00	-4.1345862285e+00
 1.1441345401e-01	 1.1870916786e+00	-4.1587077034e+00
 1.0152626089e-01	 1.1882632327e+00	-4.1812468649e+00
 8.8678037784e-02	 1.1892910903e+00	-4.2010560552e+00
 7.5870863281e-02	 1.1901767533e+00	-4.2168981423e+00
 6.3106766766e-02	 1.1909217556e+00	-4.2274503428e+00
 1.2812840585e-01	 1.1931400218e+00	-4.0001655452e+00
 1.1512409658e-01	 1.1944649189e+00	-4.0226058748e+00
 1.0215685878e-01	 1.1956437497e+00	-4.0436167441e+00
 8.9228833049e-02	 1.1966779915e+00	-4.0620518182e+00
 7.6342110879e-02	 1.1975691555e+00	-4.0766622008e+00
 6.3498734262e-02	 1.1983187851e+00	-4.0860988919e+00
 1.2891932193e-01	 1.2005050837e+00	-3.8703895980e+00
 1.1583473915e-01	 1.2018381591e+00	-3.8911654440e+00
 1.0278745667e-01	 1.2030242667e+00	-3.9106930904e+00
 8.9779628315e-02	 1.2040648927e+00	-3.9278141333e+00
 7.6813358477e-02	 1.2049615577e+00	-3.9412554874e+00
 6.3890701757e-02	 1.2057158146e+00	-3.9496303905e+00
 1.2971023802e-01	 1.2078701455e+00	-3.7452369332e+00
 1.1654538172e-01	 1.2092113993e+00	-3.7643016769e+00
 1.0341805457e-01	 1.2104047837e+00	-3.7823387477e+00
 9.0330423581e-02	 1.2114517939e+00	-3.7981652034e+00
 7.7284606075e-02	 1.2123539598e+00	-3.8104722586e+00
 6.4282669253e-02	 1.2131128442e+00	-3.8178247439e+00
 1.3050115410e-01	 1.2152352074e+00	-3.6246973563e+00
 1.1725602429e-01	 1.2165846396e+00	-3.6419406238e+00
 1.0404865246e-01	 1.2177853006e+00	-3.6584264968e+00
 9.0881218847e-02	 1.2188386951e+00	-3.6729359517e+00
 7.7755853673e-02	 1.2197463620e+00	-3.6841139085e+00
 6.4674636748e-02	 1.2205098737e+00	-3.6904670511e+00
 6.2714799271e-02	 1.1835247260e+00	-4.3739100449e+00
 5.0074760831e-02	 1.1841268688e+00	-4.3832322842e+00
 3.7481418389e-02	 1.1845923630e+00	-4.3928117569e+00
 2.4936640219e-02	 1.1849228191e+00	-4.4007485168e+00
 1.2442244662e-02	 1.1851198731e+00	-4.4051255555e+00
-1.5497143911e-07	 1.1851944348e+00	-4.4038771012e+00
 6.3106766766e-02	 1.1909217556e+00	-4.2274503428e+00
 5.0387728086e-02	 1.1915276618e+00	-4.2358274656e+00
 3.7715677254e-02	 1.1919960653e+00	-4.2447700172e+00
 2.5092494220e-02	 1.1923285867e+00	-4.2523002127e+00
 1.2520008691e-02	 1.1925268724e+00	-4.2564047285e+00
-2.6406601670e-07	 1.1926022262e+00	-4.2549005436e+00
 6.3498734262e-02	 1.1983187851e+00	-4.0860988919e+00
 5.0700695341e-02	 1.1989284547e+00	-4.0935674887e+00
 3.7949936119e-02	 1.1993997675e+00	-4.1018923311e+00
 2.5248348222e-02	 1.1997343543e+00	-4.1090330741e+00
 1.2597772720e-02	 1.1999338716e+00	-4.1128940414e+00
-3.9544448469e-07	 1.2000100154e+00	-3.9092215524e+00
 6.3890701757e-02	 1.2057158146e+00	-3.9496303905e+00
 5.1013662596e-02	 1.2063292476e+00	-3.9562198802e+00
 3.8184194984e-02	 1.2068034698e+00	-3.9639351756e+00
 2.5404202223e-02	 1.2071401219e+00	-3.9706890785e+00
 1.2675536749e-02	 1.2073408708e+00	-3.9743179500e+00
-5.3419757025e-07	 1.2074178018e+00	-3.7463749362e+00
 6.4282669253e-02	 1.2131128442e+00	-3.8178247439e+00
 5.1326629851e-02	 1.2137300406e+00	-3.8235552607e+00
 3.8418453849e-02	 1.2142071721e+00	-3.8306561283e+00
 2.5560056224e-02	 1.2145458895e+00	-3.8370094472e+00
 1.2753300778e-02	 1.2147478700e+00	-3.8403984472e+00
-6.6541599714e-07	 1.2148255851e+00	-3.5873652040e+00
 6.4674636748e-02	 1.2205098737e+00	-3.6904670511e+00
 5.1639597106e-02	 1.2211308335e+00	-3.6953473730e+00
 3.8652712713e-02	 1.2216108743e+00	-3.7018139302e+00
 2.5715910226e-02	 1.2219516572e+00	-3.7077347340e+00
 1.2831064807e-02	 1.2221548692e+00	-3.7108551721e+00
-7.7419048817e-07	 1.2222333651e+00	-3.4319271687e+00
 1.2222222222e+00	 0.0000000000e+00	 3.3947025441e+00
 1.2221548692e+00	 1.2831064807e-02	 3.3929030979e+00
 1.2219516572e+00	 2.5715910226e-02	 3.3904369895e+00
 1.2216108743e+00	 3.8652712713e-02	 3.3868108046e+00
 1.2211308335e+00	 5.1639597106e-02	 3.3815927160e+00
 1.2205098737e+00	 6.4674636748e-02	 3.3744147196e+00
 1.2296296296e+00	 0.0000000000e+00	 3.4348590833e+00
 1.2295618684e+00	 1.2908828836e-02	 3.4329583437e+00
 1.2293574248e+00	 2.5871764227e-02	 3.4302869113e+00
 1.2290145766e+00	 3.8886971578e-02	 3.4263586260e+00
 1.2285316264e+00	 5.1952564362e-02	 3.4207319278e+00
 1.2279069033e+00	 6.5066604244e-02	 3.4130133728e+00
 1.2370370370e+00	 0.0000000000e+00	 3.4726937565e+00
 1.2369688676e+00	 1.2986592866e-02	 3.4707492480e+00
 1.2367631924e+00	 2.6027618228e-02	 3.4678795364e+00
 1.2364182789e+00	 3.9121230443e-02	 3.4636249794e+00
 1.2359324194e+00	 5.2265531617e-02	 3.4575532264e+00
 1.2353039328e+00	 6.5458571739e-02	 3.4492640582e+00
 1.2444444444e+00	 0.0000000000e+00	 3.5080811735e+00
 1.2443758668e+00	 1.3064356895e-02	 3.5061458616e+00
 1.2441689600e+00	 2.6183472230e-02	 3.5030886639e+00
 1.2438219811e+00	 3.9355489308e-02	 3.4984947812e+00
 1.2433332123e+00	 5.2578498872e-02	 3.4919590429e+00
 1.2427009623e+00	 6.5850539234e-02	 3.4830921161e+00
 1.2518518519e+00	 0.0000000000e+00	 3.5408975883e+00
 1.2517828660e+00	 1.3142120924e-02	 3.5390196936e+00
 1.2515747276e+00	 2.6339326231e-02	 3.5357893957e+00
 1.2512256834e+00	 3.9589748173e-02	 3.5308541237e+00
 1.2507340052e+00	 5.2891466127e-02	 3.5238528845e+00
 1.2500979919e+00	 6.6242506730e-02	 3.5144238885e+00
 1.2592592593e+00	 0.0000000000e+00	 3.5710208503e+00
 1.2591898652e+00	 1.3219884953e-02	 3.5692436667e+00
 1.2589804953e+00	 2.6495180233e-02	 3.5658580956e+00
 1.2586293857e+00	 3.9824007038e-02	 3.5605902394e+00
 1.2581347981e+00	 5.3204433382e-02	 3.5531393042e+00
 1.2574950214e+00	 6.6634474225e-02	 3.5431866945e+00
 1.2205098737e+00	 6.4674636748e-02	 3.3744147196e+00
 1.2197463620e+00	 7.7755853673e-02	 3.3657828531e+00
 1.2188386951e+00	 9.0881218847e-02	 3.3559906622e+00
 1.2177853006e+00	 1.0404865246e-01	 3.3444591480e+00
 1.2165846396e+00	 1.1725602429e-01	 3.3306933113e+00
 1.2152352074e+00	 1.3050115410e-01	 3.3142915071e+00
 1.2279069033e+00	 6.5066604244e-02	 3.4130133728e+00
 1.2271387642e+00	 7.8227101271e-02	 3.4037033402e+00
 1.2262255962e+00	 9.1432014112e-02	 3.3931183684e+00
 1.2251658176e+00	 1.0467925035e-01	 3.3806790904e+00
 1.2239578798e+00	 1.1796666686e-01	 3.3658823140e+00
 1.2226002692e+00	 1.3129207019e-01	 3.3483123302e+00
 1.2353039328e+00	 6.5458571739e-02	 3.4492640582e+00
 1.2345311664e+00	 7.8698348869e-02	 3.4392677719e+00
 1.2336124974e+00	 9.1982809378e-02	 3.4278976721e+00
 1.2325463346e+00	 1.0530984825e-01	 3.4145594968e+00
 1.2313311201e+00	 1.1867730943e-01	 3.3987270214e+00
 1.2299653311e+00	 1.3208298628e-01	 3.3799554441e+00
 1.2427009623e+00	 6.5850539234e-02	 3.4830921161e+00
 1.2419235686e+00	 7.9169596467e-02	 3.4724299102e+00
 1.2409993986e+00	 9.2533604644e-02	 3.4603167552e+00
 1.2399268515e+00	 1.0594044614e-01	 3.4461284853e+00
 1.2387043603e+00	 1.1938795201e-01	 3.4293005110e+00
 1.2373303930e+00	 1.3287390236e-01	 3.4093434071e+00
 1.2500979919e+00	 6.6242506730e-02	 3.5144238885e+00
 1.2493159708e+00	 7.9640844065e-02	 3.5031444408e+00
 1.2483862998e+00	 9.3084399909e-02	 3.4903646038e+00
 1.2473073685e+00	 1.0657104404e-01	 3.4754148010e+00
 1.2460776005e+00	 1.2009859458e-01	 3.4576762359e+00
 1.2446954548e+00	 1.3366481845e-01	 3.4365988127e+00
 1.2574950214e+00	 6.6634474225e-02	 3.5431866945e+00
 1.2567083730e+00	 8.0112091663e-02	 3.5313669546e+00
 1.2557732010e+00	 9.3635195175e-02	 3.5180309959e+00
 1.2546878855e+00	 1.0720164193e-01	 3.5024478109e+00
 1.2534508408e+00	 1.2080923715e-01	 3.4839280282e+00
 1.2520605167e+00	 1.3445573453e-01	 3.4618443008e+00
 1.2152352074e+00	 1.3050115410e-01	 3.3142915071e+00
 1.2137355359e+00	 1.4378181214e-01	 3.2960792428e+00
 1.2120841948e+00	 1.5709571964e-01	 3.2770303339e+00
 1.2102797939e+00	 1.7044054945e-01	 3.2571380431e+00
 1.2083209842e+00	 1.8381392668e-01	 3.2365304169e+00
 1.2062064598e+00	 1.9721342943e-01	 3.2154760333e+00
 1.2226002692e+00	 1.3129207019e-01	 3.3483123302e+00
 1.2210915088e+00	 1.4465321706e-01	 3.3288217798e+00
 1.2194301597e+00	 1.5804781491e-01	 3.3084173358e+00
 1.2176148230e+00	 1.7147352248e-01	 3.2870836785e+00
 1.2156441417e+00	 1.8492795048e-01	 3.2649421119e+00
 1.2135168020e+00	 1.9840866233e-01	 3.2422584854e+00
 1.2299653311e+00	 1.3208298628e-01	 3.3799554441e+00
 1.2284474817e+00	 1.4552462199e-01	 3.3591093390e+00
 1.2267761245e+00	 1.5899991018e-01	 3.3372422264e+00
 1.2249498520e+00	 1.7250649551e-01	 3.3143591793e+00
 1.2229672992e+00	 1.8604197428e-01	 3.2906041584e+00
 1.2208271442e+00	 1.9960389524e-01	 3.2662701610e+00
 1.2373303930e+00	 1.3287390236e-01	 3.4093434071e+00
 1.2358034547e+00	 1.4639602691e-01	 3.3871152281e+00
 1.2341220893e+00	 1.5995200545e-01	 3.3637265427e+00
 1.2322848811e+00	 1.7353946853e-01	 3.3392304846e+00
 1.2302904566e+00	 1.8715599808e-01	 3.3138217680e+00
 1.2281374864e+00	 2.0079912814e-01	 3.2878491202e+00
 1.2446954548e+00	 1.3366481845e-01	 3.4365988127e+00
 1.2431594276e+00	 1.4726743183e-01	 3.4130124085e+00
 1.2414680541e+00	 1.6090410072e-01	 3.3880911152e+00
 1.2396199101e+00	 1.7457244156e-01	 3.3619624920e+00
 1.2376136141e+00	 1.8827002188e-01	 3.3348988035e+00
 1.2354478286e+00	 2.0199436105e-01	 3.3073318003e+00
 1.2520605167e+00	 1.3445573453e-01	 3.4618443008e+00
 1.2505154006e+00	 1.4813883675e-01	 3.4369735137e+00
 1.2488140189e+00	 1.6185619599e-01	 3.4105560897e+00
 1.2469549392e+00	 1.7560541459e-01	 3.3828190770e+00
 1.2449367716e+00	 1.8938404567e-01	 3.3541377928e+00
 1.2427581707e+00	 2.0318959396e-01	 3.3250530173e+00
 1.2062064598e+00	 1.9721342943e-01	 3.2154760333e+00
 1.2039349599e+00	 2.1063658956e-01	 3.1917875980e+00
 1.2015052699e+00	 2.2408089358e-01	 3.1636134102e+00
 1.1989162237e+00	 2.3754378355e-01	 3.1319354068e+00
 1.1961667048e+00	 2.5102265807e-01	 3.0978643140e+00
 1.1932556483e+00	 2.6451487330e-01	 3.0626260591e+00
 1.2135168020e+00	 1.9840866233e-01	 3.2422584854e+00
 1.2112315354e+00	 2.1191317495e-01	 3.2167846136e+00
 1.2087871200e+00	 2.2543895961e-01	 3.1866068026e+00
 1.2061823826e+00	 2.3898344285e-01	 3.1527160445e+00
 1.2034162000e+00	 2.5254400751e-01	 3.1162458427e+00
 1.2004875008e+00	 2.6611799374e-01	 3.0784604309e+00
 1.2208271442e+00	 1.9960389524e-01	 3.2662701610e+00
 1.2185281109e+00	 2.1318976034e-01	 3.2390778800e+00
 1.2160689702e+00	 2.2679702563e-01	 3.2070253259e+00
 1.2134485415e+00	 2.4042310214e-01	 3.1710593281e+00
 1.2106656951e+00	 2.5406535695e-01	 3.1322839614e+00
 1.2077193532e+00	 2.6772111418e-01	 3.0919507910e+00
 1.2281374864e+00	 2.0079912814e-01	 3.2878491202e+00
 1.2258246864e+00	 2.1446634573e-01	 3.2590380947e+00
 1.2233508203e+00	 2.2815509165e-01	 3.2252793844e+00
 1.2207147005e+00	 2.4186276144e-01	 3.1874227778e+00
 1.2179151903e+00	 2.5558670639e-01	 3.1464910837e+00
 1.2149512056e+00	 2.6932423463e-01	 3.1036726250e+00
 1.2354478286e+00	 2.0199436105e-01	 3.3073318003e+00
 1.2331212619e+00	 2.1574293112e-01	 3.2770339182e+00
 1.2306326704e+00	 2.2951315767e-01	 3.2417765952e+00
 1.2279808594e+00	 2.4330242073e-01	 3.2022600082e+00
 1.2251646855e+00	 2.5710805584e-01	 3.1593742005e+00
 1.2221830580e+00	 2.7092735507e-01	 3.1141940510e+00
 1.2427581707e+00	 2.0318959396e-01	 3.3250530173e+00
 1.2404178375e+00	 2.1701951652e-01	 3.2934319626e+00
 1.2379145205e+00	 2.3087122369e-01	 3.2569217674e+00
 1.2352470183e+00	 2.4474208003e-01	 3.2160207026e+00
 1.2324141807e+00	 2.5862940528e-01	 3.1714348552e+00
 1.2294149104e+00	 2.7253047552e-01	 3.1240758002e+00
 1.1932556483e+00	 2.6451487330e-01	 3.0626260591e+00
 1.1901820426e+00	 2.7801774413e-01	 3.0266227465e+00
 1.1869449304e+00	 2.9152854535e-01	 2.9906004195e+00
 1.1835434110e+00	 3.0504451286e-01	 2.9564200666e+00
 1.1799766414e+00	 3.1856284503e-01	 2.9259678415e+00
 1.1762438380e+00	 3.3208070407e-01	 2.9011072488e+00
 1.2004875008e+00	 2.6611799374e-01	 3.0784604309e+00
 1.1973952671e+00	 2.7970270016e-01	 3.0399035414e+00
 1.1941385360e+00	 2.9329538502e-01	 3.0013468946e+00
 1.1907164013e+00	 3.0689326748e-01	 2.9645430662e+00
 1.1871280150e+00	 3.2049352894e-01	 2.9312902082e+00
 1.1833725886e+00	 3.3409331439e-01	 2.9033852299e+00
 1.2077193532e+00	 2.6772111418e-01	 3.0919507910e+00
 1.2046084916e+00	 2.8138765618e-01	 3.0507242454e+00
 1.2013321417e+00	 2.9506222469e-01	 3.0095069036e+00
 1.1978893917e+00	 3.0874202211e-01	 2.9700819572e+00
 1.1942793886e+00	 3.2242421285e-01	 2.9342981032e+00
 1.1905013391e+00	 3.3610592472e-01	 2.9040234606e+00
 1.2149512056e+00	 2.6932423463e-01	 3.1036726250e+00
 1.2118217161e+00	 2.8307261221e-01	 3.0597073462e+00
 1.2085257473e+00	 2.9682906435e-01	 3.0157073151e+00
 1.2050623821e+00	 3.1059077673e-01	 2.9736223916e+00
 1.2014307622e+00	 3.2435489676e-01	 2.9354874488e+00
 1.1976300896e+00	 3.3811853505e-01	 2.9033767769e+00
 1.2221830580e+00	 2.7092735507e-01	 3.1141940510e+00
 1.2190349406e+00	 2.8475756823e-01	 3.0674661450e+00
 1.2157193529e+00	 2.9859590402e-01	 3.0205647323e+00
 1.2122353725e+00	 3.1243953135e-01	 2.9757394698e+00
 1.2085821357e+00	 3.2628558067e-01	 2.9353441813e+00
 1.2047588402e+00	 3.4013114538e-01	 2.9017915024e+00
 1.2294149104e+00	 2.7253047552e-01	 3.1240758002e+00
 1.2262481651e+00	 2.8644252426e-01	 3.0746047331e+00
 1.2229129586e+00	 3.0036274369e-01	 3.0246854336e+00
 1.2194083628e+00	 3.1428828598e-01	 2.9769976168e+00
 1.2157335093e+00	 3.2821626458e-01	 2.9343440275e+00
 1.2118875907e+00	 3.4214375571e-01	 2.8996050901e+00
 1.1762438380e+00	 3.3208070407e-01	 2.9011072488e+00
 1.1723442780e+00	 3.4559521744e-01	 2.8656334114e+00
 1.1682773008e+00	 3.5910347943e-01	 2.8080055518e+00
 1.1640423095e+00	 3.7260255263e-01	 2.7371223069e+00
 1.1596387722e+00	 3.8608946968e-01	 2.6767981274e+00
 1.1550662233e+00	 3.9956123485e-01	 2.6385494498e+00
 1.1833725886e+00	 3.3409331439e-01	 2.9033852299e+00
 1.1794493948e+00	 3.4768973391e-01	 2.8633986824e+00
 1.1753577693e+00	 3.6127986415e-01	 2.7994030656e+00
 1.1710971114e+00	 3.7486074992e-01	 2.7225975746e+00
 1.1666668859e+00	 3.8842940586e-01	 2.6595585455e+00
 1.1620666246e+00	 4.0198281809e-01	 2.6191672271e+00
 1.1905013391e+00	 3.3610592472e-01	 2.9040234606e+00
 1.1865545117e+00	 3.4978425038e-01	 2.8605591379e+00
 1.1824382378e+00	 3.6345624887e-01	 2.7912675451e+00
 1.1781519132e+00	 3.7711894721e-01	 2.7100381263e+00
 1.1736949997e+00	 3.9076934204e-01	 2.6443350906e+00
 1.1690670260e+00	 4.0440440133e-01	 2.6009993939e+00
 1.1976300896e+00	 3.3811853505e-01	 2.9033767769e+00
 1.1936596285e+00	 3.5187876685e-01	 2.8573430873e+00
 1.1895187063e+00	 3.6563263360e-01	 2.7837865738e+00
 1.1852067151e+00	 3.7937714450e-01	 2.6996226583e+00
 1.1807231135e+00	 3.9310927822e-01	 2.6314329783e+00
 1.1760674273e+00	 4.0682598457e-01	 2.5845830451e+00
 1.2047588402e+00	 3.4013114538e-01	 2.9017915024e+00
 1.2007647454e+00	 3.5397328332e-01	 2.8539711413e+00
 1.1965991748e+00	 3.6780901832e-01	 2.7771384992e+00
 1.1922615170e+00	 3.8163534179e-01	 2.6915126075e+00
 1.1877512272e+00	 3.9544921440e-01	 2.6211358652e+00
 1.1830678287e+00	 4.0924756781e-01	 2.5704269506e+00
 1.2118875907e+00	 3.4214375571e-01	 2.8996050901e+00
 1.2078698622e+00	 3.5606779979e-01	 2.8506557300e+00
 1.2036796432e+00	 3.6998540304e-01	 2.7714918871e+00
 1.1993163189e+00	 3.8389353908e-01	 2.6858524343e+00
 1.1947793410e+00	 3.9778915058e-01	 2.6137062799e+00
 1.1900682300e+00	 4.1166915106e-01	 2.5590122074e+00
 1.1550662233e+00	 3.9956123485e-01	 2.6385494498e+00
 1.1503242648e+00	 4.1301482588e-01	 2.6052833338e+00
 1.1454125675e+00	 4.2644719573e-01	 2.5602832037e+00
 1.1403308722e+00	 4.3985527449e-01	 2.5052455437e+00
 1.1350789906e+00	 4.5323597128e-01	 2.4416684001e+00
 1.1296568066e+00	 4.6658617621e-01	 2.3708233836e+00
 1.1620666246e+00	 4.0198281809e-01	 2.6191672271e+00
 1.1572959270e+00	 4.1551794603e-01	 2.5854096300e+00
 1.1523544618e+00	 4.2903172419e-01	 2.5413189030e+00
 1.1472419684e+00	 4.4252106404e-01	 2.4876242286e+00
 1.1419582572e+00	 4.5598285595e-01	 2.4248788956e+00
 1.1365032115e+00	 4.6941397122e-01	 2.3534339644e+00
 1.1690670260e+00	 4.0440440133e-01	 2.6009993939e+00
 1.1642675892e+00	 4.1802106619e-01	 2.5652105612e+00
 1.1592963562e+00	 4.3161625265e-01	 2.5203189703e+00
 1.1541530645e+00	 4.4518685358e-01	 2.4665039533e+00
 1.1488375238e+00	 4.5872974063e-01	 2.4037821326e+00
 1.1433496164e+00	 4.7224176622e-01	 2.3319816884e+00
 1.1760674273e+00	 4.0682598457e-01	 2.5845830451e+00
 1.1712392514e+00	 4.2052418635e-01	 2.5454421617e+00
 1.1662382505e+00	 4.3420078111e-01	 2.4981186204e+00
 1.1610641607e+00	 4.4785264312e-01	 2.4426518794e+00
 1.1557167904e+00	 4.6147662530e-01	 2.3789225946e+00
 1.1501960213e+00	 4.7506956123e-01	 2.3066264437e+00
 1.1830678287e+00	 4.0924756781e-01	 2.5704269506e+00
 1.1782109136e+00	 4.2302730650e-01	 2.5268257102e+00
 1.1731801449e+00	 4.3678530957e-01	 2.4755152235e+00
 1.1679752569e+00	 4.5051843266e-01	 2.4167977533e+00
 1.1625960570e+00	 4.6422350998e-01	 2.3508114764e+00
 1.1570424261e+00	 4.7789735624e-01	 2.2775028258e+00
 1.1900682300e+00	 4.1166915106e-01	 2.5590122074e+00
 1.1851825758e+00	 4.2553042666e-01	 2.5100485969e+00
 1.1801220392e+00	 4.3936983802e-01	 2.4532692896e+00
 1.1748863531e+00	 4.5318422220e-01	 2.3896349086e+00
 1.1694753236e+00	 4.6697039465e-01	 2.3199275966e+00
 1.1638888310e+00	 4.8072515125e-01	 2.2447208481e+00
 1.1296568066e+00	 4.6658617621e-01	 2.3708233836e+00
 1.1240642771e+00	 4.7990276243e-01	 2.3003480724e+00
 1.1183014331e+00	 4.9318258818e-01	 2.2390486244e+00
 1.1123683801e+00	 5.0642249893e-01	 2.1894291179e+00
 1.1062652995e+00	 5.1961932952e-01	 2.1436910232e+00
 1.0999924488e+00	 5.3276990637e-01	 2.0815689256e+00
 1.1365032115e+00	 4.6941397122e-01	 2.3534339644e+00
 1.1308767879e+00	 4.8281126402e-01	 2.2792900720e+00
 1.1250790175e+00	 4.9617157356e-01	 2.2098046314e+00
 1.1191100067e+00	 5.0949172620e-01	 2.1468787336e+00
 1.1129699377e+00	 5.2276853758e-01	 2.0919651767e+00
 1.1066590697e+00	 5.3599881489e-01	 2.0378413699e+00
 1.1433496164e+00	 4.7224176622e-01	 2.3319816884e+00
 1.1376892987e+00	 4.8571976561e-01	 2.2557649257e+00
 1.1318566020e+00	 4.9916055895e-01	 2.1810183044e+00
 1.1258516332e+00	 5.1256095346e-01	 2.1089475185e+00
 1.1196745759e+00	 5.2591774564e-01	 2.0403319327e+00
 1.1133256906e+00	 5.3922772342e-01	 1.9754962410e+00
 1.1501960213e+00	 4.7506956123e-01	 2.3066264437e+00
 1.1445018094e+00	 4.8862826720e-01	 2.2294667955e+00
 1.1386341864e+00	 5.0214954433e-01	 2.1519236740e+00
 1.1325932597e+00	 5.1563018073e-01	 2.0744166527e+00
 1.1263792140e+00	 5.2906695370e-01	 1.9969605476e+00
 1.1199923115e+00	 5.4245663194e-01	 1.9191386149e+00
 1.1570424261e+00	 4.7789735624e-01	 2.2775028258e+00
 1.1513143202e+00	 4.9153676879e-01	 2.2000745043e+00
 1.1454117708e+00	 5.0513852971e-01	 2.1217492893e+00
 1.1393348863e+00	 5.1869940800e-01	 2.0420715568e+00
 1.1330838522e+00	 5.3221616175e-01	 1.9602020924e+00
 1.1266589324e+00	 5.4568554046e-01	 1.8748930333e+00
 1.1638888310e+00	 4.8072515125e-01	 2.2447208481e+00
 1.1581268310e+00	 4.9444527038e-01	 2.1672519894e+00
 1.1521893553e+00	 5.0812751509e-01	 2.0897184200e+00
 1.1460765128e+00	 5.2176863526e-01	 2.0107018462e+00
 1.1397884904e+00	 5.3536536981e-01	 1.9284211367e+00
 1.1333255533e+00	 5.4891444899e-01	 1.8407092098e+00
 1.0999924488e+00	 5.3276990637e-01	 2.0815689256e+00
 1.0935501624e+00	 5.4587104971e-01	 2.0124109735e+00
 1.0869388521e+00	 5.5891957587e-01	 1.9446902501e+00
 1.0801590078e+00	 5.7191229957e-01	 1.8756452384e+00
 1.0732111975e+00	 5.8484603626e-01	 1.8024957514e+00
 1.0660960678e+00	 5.9771760450e-01	 1.7224509557e+00
 1.1066590697e+00	 5.3599881489e-01	 2.0378413699e+00
 1.1001777391e+00	 5.4917935910e-01	 1.9716470961e+00
 1.0935263603e+00	 5.6230696723e-01	 1.9018129678e+00
 1.0867054260e+00	 5.7537843471e-01	 1.8273091096e+00
 1.0797155078e+00	 5.8839055769e-01	 1.7470338858e+00
 1.0725572561e+00	 6.0134013544e-01	 1.6598170148e+00
 1.1133256906e+00	 5.3922772342e-01	 1.9754962410e+00
 1.1068053158e+00	 5.5248766849e-01	 1.9175829941e+00
 1.1001138685e+00	 5.6569435860e-01	 1.8524380049e+00
 1.0932518442e+00	 5.7884456986e-01	 1.7781998588e+00
 1.0862198180e+00	 5.9193507913e-01	 1.6949249139e+00
 1.0790184444e+00	 6.0496266637e-01	 1.6025652121e+00
 1.1199923115e+00	 5.4245663194e-01	 1.9191386149e+00
 1.1134328926e+00	 5.5579597788e-01	 1.8504029118e+00
 1.1067013767e+00	 5.6908174997e-01	 1.7945448506e+00
 1.0997982625e+00	 5.8231070501e-01	 1.7265366521e+00
 1.0927241283e+00	 5.9547960056e-01	 1.6448958037e+00
 1.0854796327e+00	 6.0858519731e-01	 1.5502081653e+00
 1.1266589324e+00	 5.4568554046e-01	 1.8748930333e+00
 1.1200604693e+00	 5.5910428728e-01	 1.7939415466e+00
 1.1132888849e+00	 5.7246914134e-01	 1.7280381000e+00
 1.1063446807e+00	 5.8577684016e-01	 1.6705709994e+00
 1.0992284386e+00	 5.9902412199e-01	 1.5956927223e+00
 1.0919408210e+00	 6.1220772825e-01	 1.5022579759e+00
 1.1333255533e+00	 5.4891444899e-01	 1.8407092098e+00
 1.1266880461e+00	 5.6241259667e-01	 1.7534028012e+00
 1.1198763931e+00	 5.7585653271e-01	 1.6757316710e+00
 1.1128910989e+00	 5.8924297531e-01	 1.6098159511e+00
 1.1057327489e+00	 6.0256864342e-01	 1.5460794726e+00
 1.0984020092e+00	 6.1583025918e-01	 1.4582251947e+00
 1.0660960678e+00	 5.9771760450e-01	 1.7224509557e+00
 1.0588143442e+00	 6.1052382831e-01	 1.6438238606e+00
 1.0513668312e+00	 6.2326153958e-01	 1.5730276976e+00
 1.0437544121e+00	 6.3592758050e-01	 1.5045446527e+00
 1.0359780494e+00	 6.4851880598e-01	 1.4330362228e+00
 1.0280387841e+00	 6.6103208610e-01	 1.3533563606e+00
 1.0725572561e+00	 6.0134013544e-01	 1.6598170148e+00
 1.0652314009e+00	 6.1422397272e-01	 1.5763191401e+00
 1.0577387514e+00	 6.2703888224e-01	 1.5034590727e+00
 1.0500801965e+00	 6.3978168705e-01	 1.4345457369e+00
 1.0422567042e+00	 6.5244922299e-01	 1.3630901724e+00
 1.0342693222e+00	 6.6503834116e-01	 1.2828209799e+00
 1.0790184444e+00	 6.0496266637e-01	 1.6025652121e+00
 1.0716484575e+00	 6.1792411714e-01	 1.5142365005e+00
 1.0641106716e+00	 6.3081622491e-01	 1.4382082569e+00
 1.0564059808e+00	 6.4363579359e-01	 1.3672240574e+00
 1.0485353591e+00	 6.5637963999e-01	 1.2942272917e+00
 1.0404998603e+00	 6.6904459623e-01	 1.2123773194e+00
 1.0854796327e+00	 6.0858519731e-01	 1.5502081653e+00
 1.0780655141e+00	 6.2162426155e-01	 1.4578778558e+00
 1.0704825918e+00	 6.3459356757e-01	 1.3780821455e+00
 1.0627317651e+00	 6.4748990014e-01	 1.3035962761e+00
 1.0548140139e+00	 6.6031005700e-01	 1.2273681897e+00
 1.0467303984e+00	 6.7305085130e-01	 1.1425338184e+00
 1.0919408210e+00	 6.1220772825e-01	 1.5022579759e+00
 1.0844825708e+00	 6.2532440596e-01	 1.4075248146e+00
 1.0768545120e+00	 6.3837091023e-01	 1.3238542874e+00
 1.0690575494e+00	 6.5134400669e-01	 1.2446396839e+00
 1.0610926688e+00	 6.6424047401e-01	 1.1633953531e+00
 1.0529609365e+00	 6.7705710636e-01	 1.0737695676e+00
 1.0984020092e+00	 6.1583025918e-01	 1.4582251947e+00
 1.0908996274e+00	 6.2902455038e-01	 1.3634381769e+00
 1.0832264322e+00	 6.4214825290e-01	 1.2762647179e+00
 1.0753833337e+00	 6.5519811324e-01	 1.1912921618e+00
 1.0673713236e+00	 6.6817089101e-01	 1.1031530246e+00
 1.0591914745e+00	 6.8106336143e-01	 1.0065338841e+00
 1.0280387841e+00	 6.6103208610e-01	 1.3533563606e+00
 1.0199377362e+00	 6.7346430850e-01	 1.2719301559e+00
 1.0116761036e+00	 6.8581238091e-01	 1.1950477167e+00
 1.0032551625e+00	 6.9807323350e-01	 1.1177421784e+00
 9.9467626628e-01	 7.1024382136e-01	 1.0353633206e+00
 9.8594084514e-01	 7.2232112691e-01	 9.4358991502e-01
 1.0342693222e+00	 6.6503834116e-01	 1.2828209799e+00
 1.0261191770e+00	 6.7754591037e-01	 1.1996953099e+00
 1.0178074740e+00	 6.8996881959e-01	 1.1205351367e+00
 1.0093354969e+00	 7.0230398037e-01	 1.0407783066e+00
 1.0007046073e+00	 7.1454832937e-01	 9.5619184636e-01
 9.9191624420e-01	 7.2669883071e-01	 8.6288301669e-01
 1.0404998603e+00	 6.6904459623e-01	 1.2123773194e+00
 1.0323006178e+00	 6.8162751224e-01	 1.1275664362e+00
 1.0239388443e+00	 6.9412525826e-01	 1.0469765596e+00
 1.0154158312e+00	 7.0653472724e-01	 9.6613583934e-01
 1.0067329483e+00	 7.1885283738e-01	 8.8093205052e-01
 9.9789164326e-01	 7.3107653451e-01	 7.8762313328e-01
 1.0467303984e+00	 6.7305085130e-01	 1.1425338184e+00
 1.0384820586e+00	 6.8570911411e-01	 1.0555712107e+00
 1.0300702146e+00	 6.9828169693e-01	 9.7410849340e-01
 1.0214961655e+00	 7.1076547411e-01	 8.9345549572e-01
 1.0127612893e+00	 7.2315734539e-01	 8.0932981018e-01
 1.0038670423e+00	 7.3545423831e-01	 7.1786759045e-01
 1.0529609365e+00	 6.7705710636e-01	 1.0737695676e+00
 1.0446634995e+00	 6.8979071598e-01	 9.8371840868e-01
 1.0362015849e+00	 7.0243813560e-01	 9.0165456405e-01
 1.0275764998e+00	 7.1499622098e-01	 8.2236657180e-01
 1.0187896303e+00	 7.2746185340e-01	 7.4111635441e-01
 1.0098424414e+00	 7.3983194211e-01	 6.5365103641e-01
 1.0591914745e+00	 6.8106336143e-01	 1.0065338841e+00
 1.0508449403e+00	 6.9387231785e-01	 9.1199712904e-01
 1.0423329553e+00	 7.0659457427e-01	 8.2932452051e-01
 1.0336568341e+00	 7.1922696785e-01	 7.5248586321e-01
 1.0248179713e+00	 7.3176636140e-01	 6.7600724399e-01
 1.0158178404e+00	 7.4420964591e-01	 5.9343918323e-01
 9.8594084514e-01	 7.2232112691e-01	 9.4358991502e-01
 9.7705040553e-01	 7.3430216229e-01	 8.5619227574e-01
 9.6800652930e-01	 7.4618397177e-01	 7.8455887914e-01
 9.5881087284e-01	 7.5796363409e-01	 7.0719658918e-01
 9.4946516618e-01	 7.6963826483e-01	 6.2402763854e-01
 9.3997121195e-01	 7.8120501867e-01	 5.4023644393e-01
 9.9191624420e-01	 7.2669883071e-01	 8.6288301669e-01
 9.8297192314e-01	 7.3875247842e-01	 7.7632468288e-01
 9.7387323554e-01	 7.5070629887e-01	 7.0167734813e-01
 9.6462184783e-01	 7.6255735309e-01	 6.2045270358e-01
 9.5521950053e-01	 7.7430273917e-01	 5.3618108497e-01
 9.4566800717e-01	 7.8593959454e-01	 4.5370635634e-01
 9.9789164326e-01	 7.3107653451e-01	 7.8762313328e-01
 9.8889344075e-01	 7.4320279456e-01	 7.0241598520e-01
 9.7973994178e-01	 7.5522862597e-01	 6.2144788666e-01
 9.7043282282e-01	 7.6715107208e-01	 5.3641422143e-01
 9.6097383487e-01	 7.7896721350e-01	 4.5106192954e-01
 9.5136480240e-01	 7.9067417041e-01	 3.7002718044e-01
 1.0038670423e+00	 7.3545423831e-01	 7.1786759045e-01
 9.9481495836e-01	 7.4765311069e-01	 6.3136549773e-01
 9.8560664802e-01	 7.5975095307e-01	 5.4409339585e-01
 9.7624379781e-01	 7.7174479108e-01	 4.5538392694e-01
 9.6672816921e-01	 7.8363168783e-01	 3.6890998908e-01
 9.5706159762e-01	 7.9540874628e-01	 2.8923045190e-01
 1.0098424414e+00	 7.3983194211e-01	 6.5365103641e-01
 1.0007364760e+00	 7.5210342683e-01	 5.6273421681e-01
 9.9147335425e-01	 7.6427328017e-01	 4.6982396968e-01
 9.8205477279e-01	 7.7633851007e-01	 3.7765006924e-01
 9.7248250355e-01	 7.8829616216e-01	 2.8995208653e-01
 9.6275839285e-01	 8.0014332216e-01	 2.1133958406e-01
 1.0158178404e+00	 7.4420964591e-01	 5.9343918323e-01
 1.0066579936e+00	 7.5655374296e-01	 4.9651024126e-01
 9.9734006049e-01	 7.6879560728e-01	 3.9883806853e-01
 9.8786574778e-01	 7.8093222907e-01	 3.0348758144e-01
 9.7823683789e-01	 7.9296063649e-01	 2.1440321560e-01
 9.6845518807e-01	 8.0487789803e-01	 1.3637087663e-01
 9.3997121195e-01	 7.8120501867e-01	 5.4023644393e-01
 9.3033088426e-01	 7.9266109170e-01	 4.5281268786e-01
 9.2054612753e-01	 8.0400372362e-01	 3.5872971778e-01
 9.1061895519e-01	 8.1523019997e-01	 2.6404059484e-01
 9.0055144834e-01	 8.2633785426e-01	 1.7512024782e-01
 8.9034575429e-01	 8.3732407007e-01	 9.8609293989e-02
 9.4566800717e-01	 7.8593959454e-01	 4.5370635634e-01
 9.3596925325e-01	 7.9746509831e-01	 3.6797018719e-01
 9.2612519497e-01	 8.0887647346e-01	 2.7441507514e-01
 9.1613785795e-01	 8.2017098906e-01	 1.7955168622e-01
 9.0600933590e-01	 8.3134596247e-01	 9.0217822757e-02
 8.9574178917e-01	 8.4239876140e-01	 1.3519449246e-02
 9.5136480240e-01	 7.9067417041e-01	 3.7002718044e-01
 9.4160762225e-01	 8.0226910493e-01	 2.8627459053e-01
 9.3170426241e-01	 8.1374922330e-01	 1.9363735833e-01
 9.2165676070e-01	 8.2511177815e-01	 9.8987592615e-02
 9.1146722347e-01	 8.3635407068e-01	 9.5368194269e-03
 9.0113782404e-01	 8.4747345273e-01	-6.7225637866e-02
 9.5706159762e-01	 7.9540874628e-01	 2.8923045190e-01
 9.4724599125e-01	 8.0707311154e-01	 2.0750665232e-01
 9.3728332984e-01	 8.1862197314e-01	 1.1598960818e-01
 9.2717566346e-01	 8.3005256724e-01	 2.1818477345e-02
 9.1692511103e-01	 8.4136217889e-01	-6.7508929797e-02
 9.0653385891e-01	 8.5254814407e-01	-1.4420027070e-01
 9.6275839285e-01	 8.0014332216e-01	 2.1133958406e-01
 9.5288436024e-01	 8.1187711816e-01	 1.3144477732e-01
 9.4286239728e-01	 8.2349472298e-01	 4.1066695892e-02
 9.3269456622e-01	 8.3499335634e-01	-5.2481114144e-02
 9.2238299860e-01	 8.4637028710e-01	-1.4150032051e-01
 9.1192989379e-01	 8.5762283540e-01	-2.1797428378e-01
 9.6845518807e-01	 8.0487789803e-01	 1.3637087663e-01
 9.5852272924e-01	 8.1668112478e-01	 5.7865843245e-02
 9.4844146472e-01	 8.2836747282e-01	-3.1533996754e-02
 9.3821346898e-01	 8.3993414543e-01	-1.2443167194e-01
 9.2784088617e-01	 8.5137839530e-01	-2.1301244598e-01
 9.1732592866e-01	 8.6269752673e-01	-2.8911251765e-01
 8.9034575429e-01	 8.3732407007e-01	 9.8609293989e-02
 8.8000408506e-01	 8.4818628306e-01	 2.1489327038e-02
 8.6952871578e-01	 8.5892198302e-01	-6.8376940241e-02
 8.5892198302e-01	 8.6952871578e-01	-1.6279660829e-01
 8.4818628306e-01	 8.8000408506e-01	-2.5354238035e-01
 8.3732407007e-01	 8.9034575429e-01	-3.3242139686e-01
 8.9574178917e-01	 8.4239876140e-01	 1.3519449246e-02
 8.8533744316e-01	 8.5332680598e-01	-6.3195679647e-02
 8.7479858679e-01	 8.6412757080e-01	-1.5213728278e-01
 8.6412757080e-01	 8.7479858679e-01	-2.4530584879e-01
 8.5332680598e-01	 8.8533744316e-01	-3.3467010648e-01
 8.4239876140e-01	 8.9574178917e-01	-4.1223758416e-01
 9.0113782404e-01	 8.4747345273e-01	-6.7225637866e-02
 8.9067080125e-01	 8.5846732891e-01	-1.4362704482e-01
 8.8006845779e-01	 8.6933315857e-01	-2.3188914086e-01
 8.6933315857e-01	 8.8006845779e-01	-3.2412858709e-01
 8.5846732891e-01	 8.9067080125e-01	-4.1243129137e-01
 8.4747345273e-01	 9.0113782404e-01	-4.8892493358e-01
 9.0653385891e-01	 8.5254814407e-01	-1.4420027070e-01
 8.9600415934e-01	 8.6360785184e-01	-2.2032469011e-01
 8.8533832880e-01	 8.7453874635e-01	-3.0808298942e-01
 8.7453874635e-01	 8.8533832880e-01	-3.9963185372e-01
 8.6360785184e-01	 8.9600415934e-01	-4.8709659835e-01
 8.5254814407e-01	 9.0653385891e-01	-5.6264590158e-01
 9.1192989379e-01	 8.5762283540e-01	-2.1797428378e-01
 9.0133751743e-01	 8.6874837477e-01	-2.9380594840e-01
 8.9060819980e-01	 8.7974433413e-01	-3.8116901256e-01
 8.7974433413e-01	 8.9060819980e-01	-4.7218506917e-01
 8.6874837477e-01	 9.0133751743e-01	-5.5894210865e-01
 8.5762283540e-01	 9.1192989379e-01	-6.3357170123e-01
 9.1732592866e-01	 8.6269752673e-01	-2.8911251765e-01
 9.0667087552e-01	 8.7388889769e-01	-3.6458501478e-01
 8.9587807081e-01	 8.8494992190e-01	-4.5159652086e-01
 8.8494992190e-01	 8.9587807081e-01	-5.4215941855e-01
 8.7388889769e-01	 9.0667087552e-01	-6.2824864520e-01
 8.6269752673e-01	 9.1732592866e-01	-7.0188156787e-01
 8.3732407007e-01	 8.9034575429e-01	-3.3242139686e-01
 8.2633785426e-01	 9.0055144834e-01	-4.1136699033e-01
 8.1523019997e-01	 9.1061895519e-01	-5.0274030012e-01
 8.0400372362e-01	 9.2054612753e-01	-5.9923911118e-01
 7.9266109170e-01	 9.3033088426e-01	-6.9385505043e-01
 7.8120501867e-01	 9.3997121195e-01	-7.7993640122e-01
 8.4239876140e-01	 8.9574178917e-01	-4.1223758416e-01
 8.3134596247e-01	 9.0600933590e-01	-4.9005449528e-01
 8.2017098906e-01	 9.1613785795e-01	-5.8018109602e-01
 8.0887647346e-01	 9.2612519497e-01	-6.7489111800e-01
 7.9746509831e-01	 9.3596925325e-01	-7.6674385013e-01
 7.8593959454e-01	 9.4566800717e-01	-8.4865010055e-01
 8.4747345273e-01	 9.0113782404e-01	-4.8892493358e-01
 8.3635407068e-01	 9.1146722347e-01	-5.6562869756e-01
 8.2511177815e-01	 9.2165676070e-01	-6.5427858461e-01
 8.1374922330e-01	 9.3170426241e-01	-7.4682538487e-01
 8.0226910493e-01	 9.4160762225e-01	-8.3550693784e-01
 7.9067417041e-01	 9.5136480240e-01	-9.1291705213e-01
 8.5254814407e-01	 9.0653385891e-01	-5.6264590158e-01
 8.4136217889e-01	 9.1692511103e-01	-6.3818803741e-01
 8.3005256724e-01	 9.2717566346e-01	-7.2516534149e-01
 8.1862197314e-01	 9.3728332984e-01	-8.1530467244e-01
 8.0707311154e-01	 9.4724599125e-01	-9.0063109461e-01
 7.9540874628e-01	 9.5706159762e-01	-9.7353957123e-01
 8.5762283540e-01	 9.1192989379e-01	-6.3357170123e-01
 8.4637028710e-01	 9.2238299860e-01	-7.0784202413e-01
 8.3499335634e-01	 9.3269456622e-01	-7.9298500900e-01
 8.2349472298e-01	 9.4286239728e-01	-8.8060052954e-01
 8.1187711816e-01	 9.5288436024e-01	-9.6260737601e-01
 8.0014332216e-01	 9.6275839285e-01	-1.0313175424e+00
 8.6269752673e-01	 9.1732592866e-01	-7.0188156787e-01
 8.5137839530e-01	 9.2784088617e-01	-7.7471047517e-01
 8.3993414543e-01	 9.3821346898e-01	-8.5789157823e-01
 8.2836747282e-01	 9.4844146472e-01	-9.4299268600e-01
 8.1668112478e-01	 9.5852272924e-01	-1.0219306821e+00
 8.0487789803e-01	 9.6845518807e-01	-1.0870482316e+00
 7.8120501867e-01	 9.3997121195e-01	-7.7993640122e-01
 7.6963826483e-01	 9.4946516618e-01	-8.6061829211e-01
 7.5796363409e-01	 9.5881087284e-01	-9.4137927451e-01
 7.4618397177e-01	 9.6800652930e-01	-1.0200125827e+00
 7.3430216229e-01	 9.7705040553e-01	-1.0974264504e+00
 7.2232112691e-01	 9.8594084514e-01	-1.1866200902e+00
 7.8593959454e-01	 9.4566800717e-01	-8.4865010055e-01
 7.7430273917e-01	 9.5521950053e-01	-9.2512050978e-01
 7.6255735309e-01	 9.6462184783e-01	-1.0033216471e+00
 7.5070629887e-01	 9.7387323554e-01	-1.0811058718e+00
 7.3875247842e-01	 9.8297192314e-01	-1.1574521651e+00
 7.2669883071e-01	 9.9191624420e-01	-1.2433660261e+00
 7.9067417041e-01	 9.5136480240e-01	-9.1291705213e-01
 7.7896721350e-01	 9.6097383487e-01	-9.8514327897e-01
 7.6715107208e-01	 9.7043282282e-01	-1.0610523160e+00
 7.5522862597e-01	 9.7973994178e-01	-1.1383858877e+00
 7.4320279456e-01	 9.8889344075e-01	-1.2158165970e+00
 7.3107653451e-01	 9.9789164326e-01	-1.2987562034e+00
 7.9540874628e-01	 9.5706159762e-01	-9.7353957123e-01
 7.8363168783e-01	 9.6672816921e-01	-1.0417537385e+00
 7.7174479108e-01	 9.7624379781e-01	-1.1157137781e+00
 7.5975095307e-01	 9.8560664802e-01	-1.1928839974e+00
 7.4765311069e-01	 9.9481495836e-01	-1.2716659794e+00
 7.3545423831e-01	 1.0038670423e+00	-1.3531960399e+00
 8.0014332216e-01	 9.6275839285e-01	-1.0313175424e+00
 7.8829616216e-01	 9.7248250355e-01	-1.0960110547e+00
 7.7633851007e-01	 9.8205477279e-01	-1.1684394537e+00
 7.6427328017e-01	 9.9147335425e-01	-1.2456257432e+00
 7.5210342683e-01	 1.0007364760e+00	-1.3255196634e+00
 7.3983194211e-01	 1.0098424414e+00	-1.4070942263e+00
 8.0487789803e-01	 9.6845518807e-01	-1.0870482316e+00
 7.9296063649e-01	 9.7823683789e-01	-1.1489664424e+00
 7.8093222907e-01	 9.8786574778e-01	-1.2203537841e+00
 7.6879560728e-01	 9.9734006049e-01	-1.2976308893e+00
 7.5655374296e-01	 1.0066579936e+00	-1.3781178664e+00
 7.4420964591e-01	 1.0158178404e+00	-1.4600816431e+00
 7.2232112691e-01	 9.8594084514e-01	-1.1866200902e+00
 7.1024382136e-01	 9.9467626628e-01	-1.2788453215e+00
 6.9807323350e-01	 1.0032551625e+00	-1.3628073429e+00
 6.8581238091e-01	 1.0116761036e+00	-1.4422555476e+00
 6.7346430850e-01	 1.0199377362e+00	-1.5213647763e+00
 6.6103208610e-01	 1.0280387841e+00	-1.6047119466e+00
 7.2669883071e-01	 9.9191624420e-01	-1.2433660261e+00
 7.1454832937e-01	 1.0007046073e+00	-1.3326364103e+00
 7.0230398037e-01	 1.0093354969e+00	-1.4129154313e+00
 6.8996881959e-01	 1.0178074740e+00	-1.4880961178e+00
 6.7754591037e-01	 1.0261191770e+00	-1.5624901380e+00
 6.6503834116e-01	 1.0342693222e+00	-1.6408039749e+00
 7.3107653451e-01	 9.9789164326e-01	-1.2987562034e+00
 7.1885283738e-01	 1.0067329483e+00	-1.3845696737e+00
 7.0653472724e-01	 1.0154158312e+00	-1.4603173796e+00
 6.9412525826e-01	 1.0239388443e+00	-1.5303221694e+00
 6.8162751224e-01	 1.0323006178e+00	-1.5993433513e+00
 6.6904459623e-01	 1.0404998603e+00	-1.6725515150e+00
 7.3545423831e-01	 1.0038670423e+00	-1.3531960399e+00
 7.2315734539e-01	 1.0127612893e+00	-1.4346231399e+00
 7.1076547411e-01	 1.0214961655e+00	-1.5048273549e+00
 6.9828169693e-01	 1.0300702146e+00	-1.5688421099e+00
 6.8570911411e-01	 1.0384820586e+00	-1.6321794486e+00
 6.7305085130e-01	 1.0467303984e+00	-1.7008026162e+00
 7.3983194211e-01	 1.0098424414e+00	-1.4070942263e+00
 7.2746185340e-01	 1.0187896303e+00	-1.4827880969e+00
 7.1499622098e-01	 1.0275764998e+00	-1.5462765275e+00
 7.0243813560e-01	 1.0362015849e+00	-1.6035789758e+00
 6.8979071598e-01	 1.0446634995e+00	-1.6612597373e+00
 6.7705710636e-01	 1.0529609365e+00	-1.7263974092e+00
 7.4420964591e-01	 1.0158178404e+00	-1.4600816431e+00
 7.3176636140e-01	 1.0248179713e+00	-1.5290685360e+00
 7.1922696785e-01	 1.0336568341e+00	-1.5845124094e+00
 7.0659457427e-01	 1.0423329553e+00	-1.6344698489e+00
 6.9387231785e-01	 1.0508449403e+00	-1.6868514683e+00
 6.8106336143e-01	 1.0591914745e+00	-1.7501681983e+00
 6.6103208610e-01	 1.0280387841e+00	-1.6047119466e+00
 6.4851880598e-01	 1.0359780494e+00	-1.6864352602e+00
 6.3592758050e-01	 1.0437544121e+00	-1.7601671178e+00
 6.2326153958e-01	 1.0513668312e+00	-1.8302012486e+00
 6.1052382831e-01	 1.0588143442e+00	-1.9010642338e+00
 5.9771760450e-01	 1.0660960678e+00	-1.9774916621e+00
 6.6503834116e-01	 1.0342693222e+00	-1.6408039749e+00
 6.5244922299e-01	 1.0422567042e+00	-1.7171031279e+00
 6.3978168705e-01	 1.0500801965e+00	-1.7852926385e+00
 6.2703888224e-01	 1.0577387514e+00	-1.8503492813e+00
 6.1422397272e-01	 1.0652314009e+00	-1.9175357587e+00
 6.0134013544e-01	 1.0725572561e+00	-1.9923744885e+00
 6.6904459623e-01	 1.0404998603e+00	-1.6725515150e+00
 6.5637963999e-01	 1.0485353591e+00	-1.7443366051e+00
 6.4363579359e-01	 1.0564059808e+00	-1.8086672980e+00
 6.3081622491e-01	 1.0641106716e+00	-1.8706214307e+00
 6.1792411714e-01	 1.0716484575e+00	-1.9355844555e+00
 6.0496266637e-01	 1.0790184444e+00	-2.0092225506e+00
 6.7305085130e-01	 1.0467303984e+00	-1.7008026162e+00
 6.6031005700e-01	 1.0548140139e+00	-1.7695096227e+00
 6.4748990014e-01	 1.0627317651e+00	-1.8318215636e+00
 6.3459356757e-01	 1.0704825918e+00	-1.8923464209e+00
 6.2162426155e-01	 1.0780655141e+00	-1.9559904572e+00
 6.0858519731e-01	 1.0854796327e+00	-2.0279323253e+00
 6.7705710636e-01	 1.0529609365e+00	-1.7263974092e+00
 6.6424047401e-01	 1.0610926688e+00	-1.7939755796e+00
 6.5134400669e-01	 1.0690575494e+00	-1.8562614905e+00
 6.3837091023e-01	 1.0768545120e+00	-1.9168331542e+00
 6.2532440596e-01	 1.0844825708e+00	-1.9795268658e+00
 6.1220772825e-01	 1.0919408210e+00	-2.0484139686e+00
 6.8106336143e-01	 1.0591914745e+00	-1.7501681983e+00
 6.6817089101e-01	 1.0673713236e+00	-1.8190678136e+00
 6.5519811324e-01	 1.0753833337e+00	-1.8834693147e+00
 6.4214825290e-01	 1.0832264322e+00	-1.9453711778e+00
 6.2902455038e-01	 1.0908996274e+00	-2.0069598503e+00
 6.1583025918e-01	 1.0984020092e+00	-2.0705908136e+00
 5.9771760450e-01	 1.0660960678e+00	-1.9774916621e+00
 5.8484603626e-01	 1.0732111975e+00	-2.0564013365e+00
 5.7191229957e-01	 1.0801590078e+00	-2.1321896271e+00
 5.5891957587e-01	 1.0869388521e+00	-2.2059984250e+00
 5.4587104971e-01	 1.0935501624e+00	-2.2790195515e+00
 5.3276990637e-01	 1.0999924488e+00	-2.3524798523e+00
 6.0134013544e-01	 1.0725572561e+00	-1.9923744885e+00
 5.8839055769e-01	 1.0797155078e+00	-2.0712364672e+00
 5.7537843471e-01	 1.0867054260e+00	-2.1464416354e+00
 5.6230696723e-01	 1.0935263603e+00	-2.2176065420e+00
 5.4917935910e-01	 1.1001777391e+00	-2.2843286803e+00
 5.3599881489e-01	 1.1066590697e+00	-2.3461759158e+00
 6.0496266637e-01	 1.0790184444e+00	-2.0092225506e+00
 5.9193507913e-01	 1.0862198180e+00	-2.0863332589e+00
 5.7884456986e-01	 1.0932518442e+00	-2.1569090973e+00
 5.6569435860e-01	 1.1001138685e+00	-2.2195619255e+00
 5.5248766849e-01	 1.1068053158e+00	-2.2728429787e+00
 5.3922772342e-01	 1.1133256906e+00	-2.3174418745e+00
 6.0858519731e-01	 1.0854796327e+00	-2.0279323253e+00
 5.9547960056e-01	 1.0927241283e+00	-2.1007109418e+00
 5.8231070501e-01	 1.0997982625e+00	-2.1620673336e+00
 5.6908174997e-01	 1.1067013767e+00	-2.2101192940e+00
 5.5579597788e-01	 1.1134328926e+00	-2.2453127991e+00
 5.4245663194e-01	 1.1199923115e+00	-2.2938559648e+00
 6.1220772825e-01	 1.0919408210e+00	-2.0484139686e+00
 5.9902412199e-01	 1.0992284386e+00	-2.1134229733e+00
 5.8577684016e-01	 1.1063446807e+00	-2.1604385392e+00
 5.7246914134e-01	 1.1132888849e+00	-2.1896729716e+00
 5.5910428728e-01	 1.1200604693e+00	-2.2285714183e+00
 5.4568554046e-01	 1.1266589324e+00	-2.2829968562e+00
 6.1583025918e-01	 1.0984020092e+00	-2.0705908136e+00
 6.0256864342e-01	 1.1057327489e+00	-2.1235559407e+00
 5.8924297531e-01	 1.1128910989e+00	-2.1519626519e+00
 5.7585653271e-01	 1.1198763931e+00	-2.1840565469e+00
 5.6241259667e-01	 1.1266880461e+00	-2.2291330329e+00
 5.4891444899e-01	 1.1333255533e+00	-2.2835262669e+00
 5.3276990637e-01	 1.0999924488e+00	-2.3524798523e+00
 5.1961932952e-01	 1.1062652995e+00	-2.4176912975e+00
 5.0642249893e-01	 1.1123683801e+00	-2.4654455689e+00
 4.9318258818e-01	 1.1183014331e+00	-2.5164120916e+00
 4.7990276243e-01	 1.1240642771e+00	-2.5776510217e+00
 4.6658617621e-01	 1.1296568066e+00	-2.6452113996e+00
 5.3599881489e-01	 1.1066590697e+00	-2.3461759158e+00
 5.2276853758e-01	 1.1129699377e+00	-2.3947254916e+00
 5.0949172620e-01	 1.1191100067e+00	-2.4447627840e+00
 4.9617157356e-01	 1.1250790175e+00	-2.5026434462e+00
 4.8281126402e-01	 1.1308767879e+00	-2.5654119522e+00
 4.6941397122e-01	 1.1365032115e+00	-2.6297617561e+00
 5.3922772342e-01	 1.1133256906e+00	-2.3174418745e+00
 5.2591774564e-01	 1.1196745759e+00	-2.3697028655e+00
 5.1256095346e-01	 1.1258516332e+00	-2.4269437688e+00
 4.9916055895e-01	 1.1318566020e+00	-2.4873469307e+00
 4.8571976561e-01	 1.1376892987e+00	-2.5487324394e+00
 4.7224176622e-01	 1.1433496164e+00	-2.6085907588e+00
 5.4245663194e-01	 1.1199923115e+00	-2.2938559648e+00
 5.2906695370e-01	 1.1263792140e+00	-2.3524567295e+00
 5.1563018073e-01	 1.1325932597e+00	-2.4116853429e+00
 5.0214954433e-01	 1.1386341864e+00	-2.4706435718e+00
 4.8862826720e-01	 1.1445018094e+00	-2.5280854663e+00
 4.7506956123e-01	 1.1501960213e+00	-2.5824484338e+00
 5.4568554046e-01	 1.1266589324e+00	-2.2829968562e+00
 5.3221616175e-01	 1.1330838522e+00	-2.3421876748e+00
 5.1869940800e-01	 1.1393348863e+00	-2.3986711594e+00
 5.0513852971e-01	 1.1454117708e+00	-2.4526322735e+00
 4.9153676879e-01	 1.1513143202e+00	-2.5039146892e+00
 4.7789735624e-01	 1.1570424261e+00	-2.5520500908e+00
 5.4891444899e-01	 1.1333255533e+00	-2.2835262669e+00
 5.3536536981e-01	 1.1397884904e+00	-2.3380935959e+00
 5.2176863526e-01	 1.1460765128e+00	-2.3875718237e+00
 5.0812751509e-01	 1.1521893553e+00	-2.4333901805e+00
 4.9444527038e-01	 1.1581268310e+00	-2.4766349960e+00
 4.8072515125e-01	 1.1638888310e+00	-2.5180770238e+00
 4.6658617621e-01	 1.1296568066e+00	-2.6452113996e+00
 4.5323597128e-01	 1.1350789906e+00	-2.7123289616e+00
 4.3985527449e-01	 1.1403308722e+00	-2.7748765606e+00
 4.2644719573e-01	 1.1454125675e+00	-2.8324191765e+00
 4.1301482588e-01	 1.1503242648e+00	-2.8843103288e+00
 3.9956123485e-01	 1.1550662233e+00	-2.9297204914e+00
 4.6941397122e-01	 1.1365032115e+00	-2.6297617561e+00
 4.5598285595e-01	 1.1419582572e+00	-2.6900816439e+00
 4.4252106404e-01	 1.1472419684e+00	-2.7437767117e+00
 4.2903172419e-01	 1.1523544618e+00	-2.7916533831e+00
 4.1551794603e-01	 1.1572959270e+00	-2.8343136994e+00
 4.0198281809e-01	 1.1620666246e+00	-2.8721818120e+00
 4.7224176622e-01	 1.1433496164e+00	-2.6085907588e+00
 4.5872974063e-01	 1.1488375238e+00	-2.6624299719e+00
 4.4518685358e-01	 1.1541530645e+00	-2.7087436084e+00
 4.3161625265e-01	 1.1592963562e+00	-2.7491047410e+00
 4.1802106619e-01	 1.1642675892e+00	-2.7848823061e+00
 4.0440440133e-01	 1.1690670260e+00	-2.8172668164e+00
 4.7506956123e-01	 1.1501960213e+00	-2.5824484338e+00
 4.6147662530e-01	 1.1557167904e+00	-2.6302941481e+00
 4.4785264312e-01	 1.1610641607e+00	-2.6707361620e+00
 4.3420078111e-01	 1.1662382505e+00	-2.7056478825e+00
 4.2052418635e-01	 1.1712392514e+00	-2.7366920497e+00
 4.0682598457e-01	 1.1760674273e+00	-2.7653468000e+00
 4.7789735624e-01	 1.1570424261e+00	-2.5520500908e+00
 4.6422350998e-01	 1.1625960570e+00	-2.5945568384e+00
 4.5051843266e-01	 1.1679752569e+00	-2.6306760764e+00
 4.3678530957e-01	 1.1731801449e+00	-2.6621235083e+00
 4.2302730650e-01	 1.1782109136e+00	-2.6903909163e+00
 4.0924756781e-01	 1.1830678287e+00	-2.7167736966e+00
 4.8072515125e-01	 1.1638888310e+00	-2.5180770238e+00
 4.6697039465e-01	 1.1694753236e+00	-2.5560639414e+00
 4.5318422220e-01	 1.1748863531e+00	-2.5894485945e+00
 4.3936983802e-01	 1.1801220392e+00	-2.6193390257e+00
 4.2553042666e-01	 1.1851825758e+00	-2.6465994296e+00
 4.1166915106e-01	 1.1900682300e+00	-2.6718802700e+00
 3.9956123485e-01	 1.1550662233e+00	-2.9297204914e+00
 3.8608946968e-01	 1.1596387722e+00	-2.9769205656e+00
 3.7260255263e-01	 1.1640423095e+00	-3.0327982569e+00
 3.5910347943e-01	 1.1682773008e+00	-3.0927085495e+00
 3.4559521744e-01	 1.1723442780e+00	-3.1480420851e+00
 3.3208070407e-01	 1.1762438380e+00	-3.1906399006e+00
 4.0198281809e-01	 1.1620666246e+00	-2.8721818120e+00
 3.8842940586e-01	 1.1666668859e+00	-2.9140778418e+00
 3.7486074992e-01	 1.1710971114e+00	-2.9658725424e+00
 3.6127986415e-01	 1.1753577693e+00	-3.0227138922e+00
 3.4768973391e-01	 1.1794493948e+00	-3.0760340059e+00
 3.3409331439e-01	 1.1833725886e+00	-3.1164573871e+00
 4.0440440133e-01	 1.1690670260e+00	-2.8172668164e+00
 3.9076934204e-01	 1.1736949997e+00	-2.8550956201e+00
 3.7711894721e-01	 1.1781519132e+00	-2.9031908831e+00
 3.6345624887e-01	 1.1824382378e+00	-2.9563494074e+00
 3.4978425038e-01	 1.1865545117e+00	-3.0066851893e+00
 3.3610592472e-01	 1.1905013391e+00	-3.0440405139e+00
 4.0682598457e-01	 1.1760674273e+00	-2.7653468000e+00
 3.9310927822e-01	 1.1807231135e+00	-2.8000618690e+00
 3.7937714450e-01	 1.1852067151e+00	-2.8446970066e+00
 3.6563263360e-01	 1.1895187063e+00	-2.8936622167e+00
 3.5187876685e-01	 1.1936596285e+00	-2.9401244122e+00
 3.3811853505e-01	 1.1976300896e+00	-2.9737180755e+00
 4.0924756781e-01	 1.1830678287e+00	-2.7167736966e+00
 3.9544921440e-01	 1.1877512272e+00	-2.7490532697e+00
 3.8163534179e-01	 1.1922615170e+00	-2.7903281571e+00
 3.6780901832e-01	 1.1965991748e+00	-2.8347021888e+00
 3.5397328332e-01	 1.2007647454e+00	-2.8764843613e+00
 3.4013114538e-01	 1.2047588402e+00	-2.9058207889e+00
 4.1166915106e-01	 1.1900682300e+00	-2.6718802700e+00
 3.9778915058e-01	 1.1947793410e+00	-2.7021351646e+00
 3.8389353908e-01	 1.1993163189e+00	-2.7400148986e+00
 3.6998540304e-01	 1.2036796432e+00	-2.7795205370e+00
 3.5606779979e-01	 1.2078698622e+00	-2.8159003637e+00
 3.4214375571e-01	 1.2118875907e+00	-2.8406802386e+00
 3.3208070407e-01	 1.1762438380e+00	-3.1906399006e+00
 3.1856284503e-01	 1.1799766414e+00	-3.2233245146e+00
 3.0504451286e-01	 1.1835434110e+00	-3.2555990663e+00
 2.9152854535e-01	 1.1869449304e+00	-3.2888993679e+00
 2.7801774413e-01	 1.1901820426e+00	-3.3244105875e+00
 2.6451487330e-01	 1.1932556483e+00	-3.3630993245e+00
 3.3409331439e-01	 1.1833725886e+00	-3.1164573871e+00
 3.2049352894e-01	 1.1871280150e+00	-3.1462743688e+00
 3.0689326748e-01	 1.1907164013e+00	-3.1753297941e+00
 2.9329538502e-01	 1.1941385360e+00	-3.2051992122e+00
 2.7970270016e-01	 1.1973952671e+00	-3.2372202493e+00
 2.6611799374e-01	 1.2004875008e+00	-3.2725239765e+00
 3.3610592472e-01	 1.1905013391e+00	-3.0440405139e+00
 3.2242421285e-01	 1.1942793886e+00	-3.0704722011e+00
 3.0874202211e-01	 1.1978893917e+00	-3.0961818169e+00
 2.9506222469e-01	 1.2013321417e+00	-3.1227509939e+00
 2.8138765618e-01	 1.2046084916e+00	-3.1515331130e+00
 2.6772111418e-01	 1.2077193532e+00	-3.1836843015e+00
 3.3811853505e-01	 1.1976300896e+00	-2.9737180755e+00
 3.2435489676e-01	 1.2014307622e+00	-2.9964650201e+00
 3.1059077673e-01	 1.2050623821e+00	-3.0188439212e+00
 2.9682906435e-01	 1.2085257473e+00	-3.0423115587e+00
 2.8307261221e-01	 1.2118217161e+00	-3.0681031829e+00
 2.6932423463e-01	 1.2149512056e+00	-3.0972634765e+00
 3.4013114538e-01	 1.2047588402e+00	-2.9058207889e+00
 3.2628558067e-01	 1.2085821357e+00	-2.9247989833e+00
 3.1243953135e-01	 1.2122353725e+00	-2.9440027193e+00
 2.9859590402e-01	 1.2157193529e+00	-2.9646356410e+00
 2.8475756823e-01	 1.2190349406e+00	-2.9876837375e+00
 2.7092735507e-01	 1.2221830580e+00	-3.0139465950e+00
 3.4214375571e-01	 1.2118875907e+00	-2.8406802386e+00
 3.2821626458e-01	 1.2157335093e+00	-2.8560185696e+00
 3.1428828598e-01	 1.2194083628e+00	-2.8723419976e+00
 3.0036274369e-01	 1.2229129586e+00	-2.8904753369e+00
 2.8644252426e-01	 1.2262481651e+00	-2.9110268763e+00
 2.7253047552e-01	 1.2294149104e+00	-2.9344202422e+00
 2.6451487330e-01	 1.1932556483e+00	-3.3630993245e+00
 2.5102265807e-01	 1.1961667048e+00	-3.4022207633e+00
 2.3754378355e-01	 1.1989162237e+00	-3.4382978137e+00
 2.2408089358e-01	 1.2015052699e+00	-3.4709459093e+00
 2.1063658956e-01	 1.2039349599e+00	-3.4996506339e+00
 1.9721342943e-01	 1.2062064598e+00	-3.5237779985e+00
 2.6611799374e-01	 1.2004875008e+00	-3.2725239765e+00
 2.5254400751e-01	 1.2034162000e+00	-3.3084709405e+00
 2.3898344285e-01	 1.2061823826e+00	-3.3415524011e+00
 2.2543895961e-01	 1.2087871200e+00	-3.3713600740e+00
 2.1191317495e-01	 1.2112315354e+00	-3.3973666167e+00
 1.9840866233e-01	 1.2135168020e+00	-3.4189344428e+00
 2.6772111418e-01	 1.2077193532e+00	-3.1836843015e+00
 2.5406535695e-01	 1.2106656951e+00	-3.2165828890e+00
 2.4042310214e-01	 1.2134485415e+00	-3.2467315028e+00
 2.2679702563e-01	 1.2160689702e+00	-3.2737540044e+00
 2.1318976034e-01	 1.2185281109e+00	-3.2971674510e+00
 1.9960389524e-01	 1.2208271442e+00	-3.3163892347e+00
 2.6932423463e-01	 1.2149512056e+00	-3.0972634765e+00
 2.5558670639e-01	 1.2179151903e+00	-3.1271411650e+00
 2.4186276144e-01	 1.2207147005e+00	-3.1543310142e+00
 2.2815509165e-01	 1.2233508203e+00	-3.1785442524e+00
 2.1446634573e-01	 1.2258246864e+00	-3.1993990612e+00
 2.0079912814e-01	 1.2281374864e+00	-3.2164258246e+00
 2.7092735507e-01	 1.2221830580e+00	-3.0139465950e+00
 2.5710805584e-01	 1.2251646855e+00	-3.0407351974e+00
 2.4330242073e-01	 1.2279808594e+00	-3.0648540905e+00
 2.2951315767e-01	 1.2306326704e+00	-3.0861564745e+00
 2.1574293112e-01	 1.2331212619e+00	-3.1044178067e+00
 2.0199436105e-01	 1.2354478286e+00	-3.1193389452e+00
 2.7253047552e-01	 1.2294149104e+00	-2.9344202422e+00
 2.5862940528e-01	 1.2324141807e+00	-2.9579588716e+00
 2.4474208003e-01	 1.2352470183e+00	-2.9788107452e+00
 2.3087122369e-01	 1.2379145205e+00	-2.9970250506e+00
 2.1701951652e-01	 1.2404178375e+00	-3.0125901281e+00
 2.0318959396e-01	 1.2427581707e+00	-3.0254342884e+00
 1.9721342943e-01	 1.2062064598e+00	-3.5237779985e+00
 1.8381392668e-01	 1.2083209842e+00	-3.5452486080e+00
 1.7044054945e-01	 1.2102797939e+00	-3.5663735451e+00
 1.5709571964e-01	 1.2120841948e+00	-3.5869213650e+00
 1.4378181214e-01	 1.2137355359e+00	-3.6065286507e+00
 1.3050115410e-01	 1.2152352074e+00	-3.6246973563e+00
 1.9840866233e-01	 1.2135168020e+00	-3.4189344428e+00
 1.8492795048e-01	 1.2156441417e+00	-3.4379234596e+00
 1.7147352248e-01	 1.2176148230e+00	-3.4566136880e+00
 1.5804781491e-01	 1.2194301597e+00	-3.4748164934e+00
 1.4465321706e-01	 1.2210915088e+00	-3.4922044071e+00
 1.3129207019e-01	 1.2226002692e+00	-3.5083066710e+00
 1.9960389524e-01	 1.2208271442e+00	-3.3163892347e+00
 1.8604197428e-01	 1.2229672992e+00	-3.3332064213e+00
 1.7250649551e-01	 1.2249498520e+00	-3.3497912003e+00
 1.5899991018e-01	 1.2267761245e+00	-3.3659612531e+00
 1.4552462199e-01	 1.2284474817e+00	-3.3813899433e+00
 1.3208298628e-01	 1.2299653311e+00	-3.3956000140e+00
 2.0079912814e-01	 1.2281374864e+00	-3.2164258246e+00
 1.8715599808e-01	 1.2302904566e+00	-3.2313220863e+00
 1.7353946853e-01	 1.2322848811e+00	-3.2460721262e+00
 1.5995200545e-01	 1.2341220893e+00	-3.2604647694e+00
 1.4639602691e-01	 1.2358034547e+00	-3.2741404314e+00
 1.3287390236e-01	 1.2373303930e+00	-3.2865829129e+00
 2.0199436105e-01	 1.2354478286e+00	-3.1193389452e+00
 1.8827002188e-01	 1.2376136141e+00	-3.1325068190e+00
 1.7457244156e-01	 1.2396199101e+00	-3.1456345098e+00
 1.6090410072e-01	 1.2414680541e+00	-3.1584481266e+00
 1.4726743183e-01	 1.2431594276e+00	-3.1705226828e+00
 1.3366481845e-01	 1.2446954548e+00	-3.1812719303e+00
 2.0318959396e-01	 1.2427581707e+00	-3.0254342884e+00
 1.8938404567e-01	 1.2449367716e+00	-3.0370084645e+00
 1.7560541459e-01	 1.2469549392e+00	-3.0486681363e+00
 1.6185619599e-01	 1.2488140189e+00	-3.0600441403e+00
 1.4813883675e-01	 1.2505154006e+00	-3.0706149528e+00
 1.3445573453e-01	 1.2520605167e+00	-3.0796944997e+00
 1.3050115410e-01	 1.2152352074e+00	-3.6246973563e+00
 1.1725602429e-01	 1.2165846396e+00	-3.6419406238e+00
 1.0404865246e-01	 1.2177853006e+00	-3.6584264968e+00
 9.0881218847e-02	 1.2188386951e+00	-3.6729359517e+00
 7.7755853673e-02	 1.2197463620e+00	-3.6841139085e+00
 6.4674636748e-02	 1.2205098737e+00	-3.6904670511e+00
 1.3129207019e-01	 1.2226002692e+00	-3.5083066710e+00
 1.1796666686e-01	 1.2239578798e+00	-3.5237167838e+00
 1.0467925035e-01	 1.2251658176e+00	-3.5386532122e+00
 9.1432014112e-02	 1.2262255962e+00	-3.5518654924e+00
 7.8227101271e-02	 1.2271387642e+00	-3.5619573234e+00
 6.5066604244e-02	 1.2279069033e+00	-3.5673826342e+00
 1.3208298628e-01	 1.2299653311e+00	-3.3956000140e+00
 1.1867730943e-01	 1.2313311201e+00	-3.4092766892e+00
 1.0530984825e-01	 1.2325463346e+00	-3.4227357588e+00
 9.1982809378e-02	 1.2336124974e+00	-3.4347158130e+00
 7.8698348869e-02	 1.2345311664e+00	-3.4437997460e+00
 6.5458571739e-02	 1.2353039328e+00	-3.4484089421e+00
 1.3287390236e-01	 1.2373303930e+00	-3.2865829129e+00
 1.1938795201e-01	 1.2387043603e+00	-3.2985801561e+00
 1.0594044614e-01	 1.2399268515e+00	-3.3105911857e+00
 9.2533604644e-02	 1.2409993986e+00	-3.3213645802e+00
 7.9169596467e-02	 1.2419235686e+00	-3.3294832937e+00
 6.5850539234e-02	 1.2427009623e+00	-3.3333568262e+00
 1.3366481845e-01	 1.2446954548e+00	-3.1812719303e+00
 1.2009859458e-01	 1.2460776005e+00	-3.1915971781e+00
 1.0657104404e-01	 1.2473073685e+00	-3.2021456604e+00
 9.3084399909e-02	 1.2483862998e+00	-3.2116973350e+00
 7.9640844065e-02	 1.2493159708e+00	-3.2188565444e+00
 6.6242506730e-02	 1.2500979919e+00	-3.2220420332e+00
 1.3445573453e-01	 1.2520605167e+00	-3.0796944997e+00
 1.2080923715e-01	 1.2534508408e+00	-3.0883077959e+00
 1.0720164193e-01	 1.2546878855e+00	-3.0973343703e+00
 9.3635195175e-02	 1.2557732010e+00	-3.1056074244e+00
 8.0112091663e-02	 1.2567083730e+00	-3.1117744990e+00
 6.6634474225e-02	 1.2574950214e+00	-3.1142851977e+00
 6.4674636748e-02	 1.2205098737e+00	-3.6904670511e+00
 5.1639597106e-02	 1.2211308335e+00	-3.6953473730e+00
 3.8652712713e-02	 1.2216108743e+00	-3.7018139302e+00
 2.5715910226e-02	 1.2219516572e+00	-3.7077347340e+00
 1.2831064807e-02	 1.2221548692e+00	-3.7108551721e+00
-7.7419048817e-07	 1.2222333651e+00	-3.4319271687e+00
 6.5066604244e-02	 1.2279069033e+00	-3.5673826342e+00
 5.1952564362e-02	 1.2285316264e+00	-3.5714827316e+00
 3.8886971578e-02	 1.2290145766e+00	-3.5773499173e+00
 2.5871764227e-02	 1.2293574248e+00	-3.5828381763e+00
 1.2908828836e-02	 1.2295618684e+00	-3.5856545482e+00
-8.4933240614e-07	 1.2296411415e+00	-3.2800062025e+00
 6.5458571739e-02	 1.2353039328e+00	-3.4484089421e+00
 5.2265531617e-02	 1.2359324194e+00	-3.4518527076e+00
 3.9121230443e-02	 1.2364182789e+00	-3.4572111172e+00
 2.6027618228e-02	 1.2367631924e+00	-3.4623080367e+00
 1.2986592866e-02	 1.2369688676e+00	-3.4647962355e+00
-8.9453567068e-07	 1.2370489139e+00	-3.1316095186e+00
 6.5850539234e-02	 1.2427009623e+00	-3.3333568262e+00
 5.2578498872e-02	 1.2433332123e+00	-3.3362430431e+00
 3.9355489308e-02	 1.2438219811e+00	-3.3411666087e+00
 2.6183472230e-02	 1.2441689600e+00	-3.3459062401e+00
 1.3064356895e-02	 1.2443758668e+00	-3.3480455545e+00
-9.1721484225e-07	 1.2444566821e+00	-2.9865592099e+00
 6.6242506730e-02	 1.2500979919e+00	-3.2220420332e+00
 5.2891466127e-02	 1.2507340052e+00	-3.2244426419e+00
 3.9589748173e-02	 1.2512256834e+00	-3.2289867054e+00
 2.6339326231e-02	 1.2515747276e+00	-3.2333938270e+00
 1.3142120924e-02	 1.2517828660e+00	-3.2351646351e+00
-9.2478448247e-07	 1.2518644457e+00	-2.8446728351e+00
 6.6634474225e-02	 1.2574950214e+00	-3.1142851977e+00
 5.3204433382e-02	 1.2581347981e+00	-3.1162435931e+00
 3.9824007038e-02	 1.2586293857e+00	-3.1204430102e+00
 2.6495180233e-02	 1.2589804953e+00	-3.1245310440e+00
 1.3219884953e-02	 1.2591898652e+00	-3.1259125433e+00
-9.2465915289e-07	 1.2592722045e+00	-2.7057635847e+00
 1.2592592593e+00	 0.0000000000e+00	 3.5710208503e+00
 1.2591898652e+00	 1.3219884953e-02	 3.5692436667e+00
 1.2589804953e+00	 2.6495180233e-02	 3.5658580956e+00
 1.2586293857e+00	 3.9824007038e-02	 3.5605902394e+00
 1.2581347981e+00	 5.3204433382e-02	 3.5531393042e+00
 1.2574950214e+00	 6.6634474225e-02	 3.5431866945e+00
 1.2666666667e+00	 0.0000000000e+00	 3.5988883181e+00
 1.2665968644e+00	 1.3297648982e-02	 3.5972205401e+00
 1.2663862629e+00	 2.6651034234e-02	 3.5936910619e+00
 1.2660330879e+00	 4.0058265903e-02	 3.5881037547e+00
 1.2655355911e+00	 5.3517400638e-02	 3.5802164333e+00
 1.2648920509e+00	 6.7026441721e-02	 3.5697514996e+00
 1.2740740741e+00	 0.0000000000e+00	 3.6249528831e+00
 1.2740038636e+00	 1.3375413011e-02	 3.6233678151e+00
 1.2737920305e+00	 2.6806888235e-02	 3.6196990925e+00
 1.2734367902e+00	 4.0292524768e-02	 3.6138104859e+00
 1.2729363840e+00	 5.3830367893e-02	 3.6054996039e+00
 1.2722890805e+00	 6.7418409216e-02	 3.5945101945e+00
 1.2814814815e+00	 0.0000000000e+00	 3.6491175868e+00
 1.2814108628e+00	 1.3453177040e-02	 3.6475821704e+00
 1.2811977981e+00	 2.6962742237e-02	 3.6437817316e+00
 1.2808404925e+00	 4.0526783633e-02	 3.6376216922e+00
 1.2803371769e+00	 5.4143335148e-02	 3.6289202324e+00
 1.2796861100e+00	 6.7810376712e-02	 3.6174223619e+00
 1.2888888889e+00	 0.0000000000e+00	 3.6712864140e+00
 1.2888178620e+00	 1.3530941069e-02	 3.6697610772e+00
 1.2886035657e+00	 2.7118596238e-02	 3.6658391843e+00
 1.2882441948e+00	 4.0761042498e-02	 3.6594491637e+00
 1.2877379699e+00	 5.4456302403e-02	 3.6504101208e+00
 1.2870831396e+00	 6.8202344207e-02	 3.6384477927e+00
 1.2962962963e+00	 0.0000000000e+00	 3.6913642653e+00
 1.2962248613e+00	 1.3608705099e-02	 3.6898027741e+00
 1.2960093334e+00	 2.7274450239e-02	 3.6857722945e+00
 1.2956478970e+00	 4.0995301363e-02	 3.6792052047e+00
 1.2951387628e+00	 5.4769269658e-02	 3.6699014473e+00
 1.2944801691e+00	 6.8594311702e-02	 3.6575464854e+00
 1.2574950214e+00	 6.6634474225e-02	 3.5431866945e+00
 1.2567083730e+00	 8.0112091663e-02	 3.5313669546e+00
 1.2557732010e+00	 9.3635195175e-02	 3.5180309959e+00
 1.2546878855e+00	 1.0720164193e-01	 3.5024478109e+00
 1.2534508408e+00	 1.2080923715e-01	 3.4839280282e+00
 1.2520605167e+00	 1.3445573453e-01	 3.4618443008e+00
 1.2648920509e+00	 6.7026441721e-02	 3.5697514996e+00
 1.2641007752e+00	 8.0583339261e-02	 3.5574051036e+00
 1.2631601021e+00	 9.4185990441e-02	 3.5435367373e+00
 1.2620684025e+00	 1.0783223982e-01	 3.5273562067e+00
 1.2608240810e+00	 1.2151987972e-01	 3.5081056195e+00
 1.2594255786e+00	 1.3524665062e-01	 3.4850823441e+00
 1.2722890805e+00	 6.7418409216e-02	 3.5945101945e+00
 1.2714931774e+00	 8.1054586859e-02	 3.5815913952e+00
 1.2705470033e+00	 9.4736785707e-02	 3.5671295462e+00
 1.2694489194e+00	 1.0846283772e-01	 3.5502953147e+00
 1.2681973213e+00	 1.2223052229e-01	 3.5302822956e+00
 1.2667906404e+00	 1.3603756670e-01	 3.5063326169e+00
 1.2796861100e+00	 6.7810376712e-02	 3.6174223619e+00
 1.2788855796e+00	 8.1525834457e-02	 3.6039193822e+00
 1.2779339045e+00	 9.5287580972e-02	 3.5888400413e+00
 1.2768294364e+00	 1.0909343561e-01	 3.5713346935e+00
 1.2755705615e+00	 1.2294116486e-01	 3.5505671908e+00
 1.2741557023e+00	 1.3682848279e-01	 3.5257432136e+00
 1.2870831396e+00	 6.8202344207e-02	 3.6384477927e+00
 1.2862779818e+00	 8.1997082055e-02	 3.6243826395e+00
 1.2853208057e+00	 9.5838376238e-02	 3.6086987002e+00
 1.2842099534e+00	 1.0972403350e-01	 3.5905436204e+00
 1.2829438017e+00	 1.2365180743e-01	 3.5690690392e+00
 1.2815207642e+00	 1.3761939887e-01	 3.5434617299e+00
 1.2944801691e+00	 6.8594311702e-02	 3.6575464854e+00
 1.2936703840e+00	 8.2468329653e-02	 3.6429747707e+00
 1.2927077069e+00	 9.6389171504e-02	 3.6267358736e+00
 1.2915904704e+00	 1.1035463140e-01	 3.6079911109e+00
 1.2903170420e+00	 1.2436245001e-01	 3.5858961975e+00
 1.2888858260e+00	 1.3841031496e-01	 3.5596352861e+00
 1.2520605167e+00	 1.3445573453e-01	 3.4618443008e+00
 1.2505154006e+00	 1.4813883675e-01	 3.4369735137e+00
 1.2488140189e+00	 1.6185619599e-01	 3.4105560897e+00
 1.2469549392e+00	 1.7560541459e-01	 3.3828190770e+00
 1.2449367716e+00	 1.8938404567e-01	 3.3541377928e+00
 1.2427581707e+00	 2.0318959396e-01	 3.3250530173e+00
 1.2594255786e+00	 1.3524665062e-01	 3.4850823441e+00
 1.2578713735e+00	 1.4901024167e-01	 3.4589952403e+00
 1.2561599837e+00	 1.6280829127e-01	 3.4311342024e+00
 1.2542899683e+00	 1.7663838762e-01	 3.4018252130e+00
 1.2522599291e+00	 1.9049806947e-01	 3.3715464738e+00
 1.2500685129e+00	 2.0438482686e-01	 3.3409481349e+00
 1.2667906404e+00	 1.3603756670e-01	 3.5063326169e+00
 1.2652273465e+00	 1.4988164660e-01	 3.4790853262e+00
 1.2635059486e+00	 1.6376038654e-01	 3.4498474318e+00
 1.2616249973e+00	 1.7767136064e-01	 3.4190182631e+00
 1.2595830866e+00	 1.9161209327e-01	 3.3871536575e+00
 1.2573788551e+00	 2.0558005977e-01	 3.3549883992e+00
 1.2741557023e+00	 1.3682848279e-01	 3.5257432136e+00
 1.2725833194e+00	 1.5075305152e-01	 3.4974322264e+00
 1.2708519134e+00	 1.6471248181e-01	 3.4669285558e+00
 1.2689600264e+00	 1.7870433367e-01	 3.4346788557e+00
 1.2669062440e+00	 1.9272611707e-01	 3.4012909250e+00
 1.2646891973e+00	 2.0677529267e-01	 3.3675590348e+00
 1.2815207642e+00	 1.3761939887e-01	 3.5434617299e+00
 1.2799392924e+00	 1.5162445644e-01	 3.5142237429e+00
 1.2781978782e+00	 1.6566457708e-01	 3.4826094005e+00
 1.2762950554e+00	 1.7973730670e-01	 3.4490862045e+00
 1.2742294015e+00	 1.9384014087e-01	 3.4142877968e+00
 1.2719995395e+00	 2.0797052558e-01	 3.3790423580e+00
 1.2888858260e+00	 1.3841031496e-01	 3.5596352861e+00
 1.2872952653e+00	 1.5249586136e-01	 3.5296470470e+00
 1.2855438430e+00	 1.6661667235e-01	 3.4971208624e+00
 1.2836300845e+00	 1.8077027972e-01	 3.4625181317e+00
 1.2815525590e+00	 1.9495416466e-01	 3.4264717576e+00
 1.2793098816e+00	 2.0916575848e-01	 3.3898178047e+00
 1.2427581707e+00	 2.0318959396e-01	 3.3250530173e+00
 1.2404178375e+00	 2.1701951652e-01	 3.2934319626e+00
 1.2379145205e+00	 2.3087122369e-01	 3.2569217674e+00
 1.2352470183e+00	 2.4474208003e-01	 3.2160207026e+00
 1.2324141807e+00	 2.5862940528e-01	 3.1714348552e+00
 1.2294149104e+00	 2.7253047552e-01	 3.1240758002e+00
 1.2500685129e+00	 2.0438482686e-01	 3.3409481349e+00
 1.2477144130e+00	 2.1829610191e-01	 3.3080308703e+00
 1.2451963706e+00	 2.3222928971e-01	 3.2703512003e+00
 1.2425131773e+00	 2.4618173932e-01	 3.2281993528e+00
 1.2396636759e+00	 2.6015075472e-01	 3.1820921949e+00
 1.2366467628e+00	 2.7413359596e-01	 3.1327737400e+00
 1.2573788551e+00	 2.0558005977e-01	 3.3549883992e+00
 1.2550109885e+00	 2.1957268730e-01	 3.3206771314e+00
 1.2524782208e+00	 2.3358735574e-01	 3.2817480348e+00
 1.2497793362e+00	 2.4762139861e-01	 3.2383221685e+00
 1.2469131710e+00	 2.6167210416e-01	 3.1907667033e+00
 1.2438786152e+00	 2.7573671641e-01	 3.1396982943e+00
 1.2646891973e+00	 2.0677529267e-01	 3.3675590348e+00
 1.2623075640e+00	 2.2084927269e-01	 3.3318047111e+00
 1.2597600709e+00	 2.3494542176e-01	 3.2915817601e+00
 1.2570454951e+00	 2.4906105791e-01	 3.2468794919e+00
 1.2541626662e+00	 2.6319345361e-01	 3.1979534831e+00
 1.2511104677e+00	 2.7733983685e-01	 3.1453318546e+00
 1.2719995395e+00	 2.0797052558e-01	 3.3790423580e+00
 1.2696041395e+00	 2.2212585808e-01	 3.3418437646e+00
 1.2670419210e+00	 2.3630348778e-01	 3.3003172648e+00
 1.2643116541e+00	 2.5050071720e-01	 3.2543563922e+00
 1.2614121614e+00	 2.6471480305e-01	 3.2041418209e+00
 1.2583423201e+00	 2.7894295729e-01	 3.1501505905e+00
 1.2793098816e+00	 2.0916575848e-01	 3.3898178047e+00
 1.2769007150e+00	 2.2340244347e-01	 3.3512206630e+00
 1.2743237711e+00	 2.3766155380e-01	 3.3084148511e+00
 1.2715778130e+00	 2.5194037650e-01	 3.2612326600e+00
 1.2686616566e+00	 2.6623615249e-01	 3.2098151496e+00
 1.2655741725e+00	 2.8054607774e-01	 3.1546243709e+00
 1.2294149104e+00	 2.7253047552e-01	 3.1240758002e+00
 1.2262481651e+00	 2.8644252426e-01	 3.0746047331e+00
 1.2229129586e+00	 3.0036274369e-01	 3.0246854336e+00
 1.2194083628e+00	 3.1428828598e-01	 2.9769976168e+00
 1.2157335093e+00	 3.2821626458e-01	 2.9343440275e+00
 1.2118875907e+00	 3.4214375571e-01	 2.8996050901e+00
 1.2366467628e+00	 2.7413359596e-01	 3.1327737400e+00
 1.2334613896e+00	 2.8812748028e-01	 3.0807326868e+00
 1.2301065642e+00	 3.0212958336e-01	 3.0278565574e+00
 1.2265813532e+00	 3.1613704060e-01	 2.9772846288e+00
 1.2228848829e+00	 3.3014694849e-01	 2.9322993610e+00
 1.2190163412e+00	 3.4415636603e-01	 2.8962810628e+00
 1.2438786152e+00	 2.7573671641e-01	 3.1396982943e+00
 1.2406746141e+00	 2.8981243631e-01	 3.0853775394e+00
 1.2373001698e+00	 3.0389642303e-01	 3.0297857610e+00
 1.2337543436e+00	 3.1798579522e-01	 2.9764530028e+00
 1.2300362565e+00	 3.3207763240e-01	 2.9290754992e+00
 1.2261450918e+00	 3.4616897636e-01	 2.8914706137e+00
 1.2511104677e+00	 2.7733983685e-01	 3.1453318546e+00
 1.2478878386e+00	 2.9149739233e-01	 3.0890082931e+00
 1.2444937755e+00	 3.0566326270e-01	 3.0309462054e+00
 1.2409273339e+00	 3.1983454985e-01	 2.9749984386e+00
 1.2371876301e+00	 3.3400831631e-01	 2.9252099341e+00
 1.2332738423e+00	 3.4818158669e-01	 2.8857731970e+00
 1.2583423201e+00	 2.7894295729e-01	 3.1501505905e+00
 1.2551010631e+00	 2.9318234836e-01	 3.0920870549e+00
 1.2516873811e+00	 3.0743010237e-01	 3.0318027792e+00
 1.2481003243e+00	 3.2168330447e-01	 2.9734062469e+00
 1.2443390037e+00	 3.3593900022e-01	 2.9212268786e+00
 1.2404025928e+00	 3.5019419702e-01	 2.8797712937e+00
 1.2655741725e+00	 2.8054607774e-01	 3.1546243709e+00
 1.2623142876e+00	 2.9486730438e-01	 3.0950689164e+00
 1.2588809868e+00	 3.0919694204e-01	 3.0328119478e+00
 1.2552733147e+00	 3.2353205909e-01	 2.9721511811e+00
 1.2514903772e+00	 3.3786968412e-01	 2.9176370952e+00
 1.2475313434e+00	 3.5220680734e-01	 2.8740302498e+00
 1.2118875907e+00	 3.4214375571e-01	 2.8996050901e+00
 1.2078698622e+00	 3.5606779979e-01	 2.8506557300e+00
 1.2036796432e+00	 3.6998540304e-01	 2.7714918871e+00
 1.1993163189e+00	 3.8389353908e-01	 2.6858524343e+00
 1.1947793410e+00	 3.9778915058e-01	 2.6137062799e+00
 1.1900682300e+00	 4.1166915106e-01	 2.5590122074e+00
 1.2190163412e+00	 3.4415636603e-01	 2.8962810628e+00
 1.2149749790e+00	 3.5816231626e-01	 2.8462421617e+00
 1.2107601117e+00	 3.7216178777e-01	 2.7652465455e+00
 1.2063711207e+00	 3.8615173637e-01	 2.6802580585e+00
 1.2018074548e+00	 4.0012908676e-01	 2.6066499822e+00
 1.1970686314e+00	 4.1409073430e-01	 2.5483500387e+00
 1.2261450918e+00	 3.4616897636e-01	 2.8914706137e+00
 1.2220800959e+00	 3.6025683273e-01	 2.8398761528e+00
 1.2178405802e+00	 3.7433817249e-01	 2.7572899160e+00
 1.2134259226e+00	 3.8840993365e-01	 2.6725770070e+00
 1.2088355686e+00	 4.0246902294e-01	 2.5975159445e+00
 1.2040690327e+00	 4.1651231754e-01	 2.5361946932e+00
 1.2332738423e+00	 3.4818158669e-01	 2.8857731970e+00
 1.2291852127e+00	 3.6235134920e-01	 2.8321990000e+00
 1.2249210487e+00	 3.7651455722e-01	 2.7481942271e+00
 1.2204807245e+00	 3.9066813094e-01	 2.6632701052e+00
 1.2158636823e+00	 4.0480895912e-01	 2.5865994576e+00
 1.2110694341e+00	 4.1893390078e-01	 2.5226082118e+00
 1.2404025928e+00	 3.5019419702e-01	 2.8797712937e+00
 1.2362903295e+00	 3.6444586567e-01	 2.8238314449e+00
 1.2320015172e+00	 3.7869094194e-01	 2.7384958140e+00
 1.2275355264e+00	 3.9292632823e-01	 2.6527739661e+00
 1.2228917961e+00	 4.0714889530e-01	 2.5741742476e+00
 1.2180698354e+00	 4.2135548402e-01	 2.5076353137e+00
 1.2475313434e+00	 3.5220680734e-01	 2.8740302498e+00
 1.2433954464e+00	 3.6654038214e-01	 2.8153735116e+00
 1.2390819857e+00	 3.8086732666e-01	 2.7287062215e+00
 1.2345903282e+00	 3.9518452552e-01	 2.6415015289e+00
 1.2299199099e+00	 4.0948883148e-01	 2.5604929645e+00
 1.2250702368e+00	 4.2377706726e-01	 2.4913037909e+00
 1.1900682300e+00	 4.1166915106e-01	 2.5590122074e+00
 1.1851825758e+00	 4.2553042666e-01	 2.5100485969e+00
 1.1801220392e+00	 4.3936983802e-01	 2.4532692896e+00
 1.1748863531e+00	 4.5318422220e-01	 2.3896349086e+00
 1.1694753236e+00	 4.6697039465e-01	 2.3199275966e+00
 1.1638888310e+00	 4.8072515125e-01	 2.2447208481e+00
 1.1970686314e+00	 4.1409073430e-01	 2.5483500387e+00
 1.1921542380e+00	 4.2803354682e-01	 2.4942758611e+00
 1.1870639336e+00	 4.4195436648e-01	 2.4319891128e+00
 1.1817974493e+00	 4.5585001175e-01	 2.3631339126e+00
 1.1763545902e+00	 4.6971727933e-01	 2.2891605615e+00
 1.1707352359e+00	 4.8355294625e-01	 2.2112927791e+00
 1.2040690327e+00	 4.1651231754e-01	 2.5361946932e+00
 1.1991259002e+00	 4.3053666697e-01	 2.4781347210e+00
 1.1940058279e+00	 4.4453889494e-01	 2.4116243732e+00
 1.1887085455e+00	 4.5851580129e-01	 2.3386549541e+00
 1.1832338568e+00	 4.7246416400e-01	 2.2610157279e+00
 1.1775816408e+00	 4.8638074126e-01	 2.1802593990e+00
 1.2110694341e+00	 4.1893390078e-01	 2.5226082118e+00
 1.2060975624e+00	 4.3303978713e-01	 2.4614706795e+00
 1.2009477223e+00	 4.4712342340e-01	 2.3919114567e+00
 1.1956196417e+00	 4.6118159083e-01	 2.3159390800e+00
 1.1901131234e+00	 4.7521104867e-01	 2.2353588498e+00
 1.1844280457e+00	 4.8920853627e-01	 2.1517373879e+00
 1.2180698354e+00	 4.2135548402e-01	 2.5076353137e+00
 1.2130692247e+00	 4.3554290729e-01	 2.4441158172e+00
 1.2078896166e+00	 4.4970795186e-01	 2.3725748010e+00
 1.2025307379e+00	 4.6384738037e-01	 2.2947142918e+00
 1.1969923901e+00	 4.7795793335e-01	 2.2120388252e+00
 1.1912744506e+00	 4.9203633127e-01	 2.1258199043e+00
 1.2250702368e+00	 4.2377706726e-01	 2.4913037909e+00
 1.2200408869e+00	 4.3804602744e-01	 2.4258891062e+00
 1.2148315110e+00	 4.5229248032e-01	 2.3533271992e+00
 1.2094418341e+00	 4.6651316992e-01	 2.2746959159e+00
 1.2038716567e+00	 4.8070481802e-01	 2.1908882125e+00
 1.1981208555e+00	 4.9486412628e-01	 2.1025773304e+00
 1.1638888310e+00	 4.8072515125e-01	 2.2447208481e+00
 1.1581268310e+00	 4.9444527038e-01	 2.1672519894e+00
 1.1521893553e+00	 5.0812751509e-01	 2.0897184200e+00
 1.1460765128e+00	 5.2176863526e-01	 2.0107018462e+00
 1.1397884904e+00	 5.3536536981e-01	 1.9284211367e+00
 1.1333255533e+00	 5.4891444899e-01	 1.8407092098e+00
 1.1707352359e+00	 4.8355294625e-01	 2.2112927791e+00
 1.1649393417e+00	 4.9735377197e-01	 2.1331394570e+00
 1.1589669397e+00	 5.1111650048e-01	 2.0563154285e+00
 1.1528181394e+00	 5.2483786253e-01	 1.9786165692e+00
 1.1464931286e+00	 5.3851457787e-01	 1.8974905593e+00
 1.1399921742e+00	 5.5214335751e-01	 1.8100152612e+00
 1.1775816408e+00	 4.8638074126e-01	 2.1802593990e+00
 1.1717518525e+00	 5.0026227356e-01	 2.1003640631e+00
 1.1657445242e+00	 5.1410548586e-01	 2.0228648401e+00
 1.1595597659e+00	 5.2790708980e-01	 1.9452067016e+00
 1.1531977668e+00	 5.4166378593e-01	 1.8644893421e+00
 1.1466587951e+00	 5.5537226603e-01	 1.7774459452e+00
 1.1844280457e+00	 4.8920853627e-01	 2.1517373879e+00
 1.1785643633e+00	 5.0317077515e-01	 2.0692862126e+00
 1.1725221086e+00	 5.1709447124e-01	 1.9898209656e+00
 1.1663013925e+00	 5.3097631706e-01	 1.9108630172e+00
 1.1599024049e+00	 5.4481299398e-01	 1.8295797639e+00
 1.1533254160e+00	 5.5860117456e-01	 1.7427626915e+00
 1.1912744506e+00	 4.9203633127e-01	 2.1258199043e+00
 1.1853768741e+00	 5.0607927674e-01	 2.0402363341e+00
 1.1792996931e+00	 5.2008345663e-01	 1.9576051736e+00
 1.1730430190e+00	 5.3404554433e-01	 1.8759440436e+00
 1.1666070431e+00	 5.4796220204e-01	 1.7928963843e+00
 1.1599920369e+00	 5.6183008308e-01	 1.7057077378e+00
 1.1981208555e+00	 4.9486412628e-01	 2.1025773304e+00
 1.1921893848e+00	 5.0898777833e-01	 2.0135158504e+00
 1.1860772775e+00	 5.2307244201e-01	 1.9266069883e+00
 1.1797846456e+00	 5.3711477159e-01	 1.8407771837e+00
 1.1733116813e+00	 5.5111141010e-01	 1.7545470831e+00
 1.1666586578e+00	 5.6505899160e-01	 1.6660049712e+00
 1.1333255533e+00	 5.4891444899e-01	 1.8407092098e+00
 1.1266880461e+00	 5.6241259667e-01	 1.7534028012e+00
 1.1198763931e+00	 5.7585653271e-01	 1.6757316710e+00
 1.1128910989e+00	 5.8924297531e-01	 1.6098159511e+00
 1.1057327489e+00	 6.0256864342e-01	 1.5460794726e+00
 1.0984020092e+00	 6.1583025918e-01	 1.4582251947e+00
 1.1399921742e+00	 5.5214335751e-01	 1.8100152612e+00
 1.1333156228e+00	 5.6572090606e-01	 1.7201022314e+00
 1.1264639013e+00	 5.7924392408e-01	 1.6352168755e+00
 1.1194375172e+00	 5.9270911046e-01	 1.5569978943e+00
 1.1122370592e+00	 6.0611316485e-01	 1.4864196865e+00
 1.1048631975e+00	 6.1945279012e-01	 1.4093466948e+00
 1.1466587951e+00	 5.5537226603e-01	 1.7774459452e+00
 1.1399431995e+00	 5.6902921545e-01	 1.6864357642e+00
 1.1330514095e+00	 5.8263131545e-01	 1.5971433950e+00
 1.1259839354e+00	 5.9617524561e-01	 1.5105438893e+00
 1.1187413695e+00	 6.0965768628e-01	 1.4269773863e+00
 1.1113243858e+00	 6.2307532106e-01	 1.3461228212e+00
 1.1533254160e+00	 5.5860117456e-01	 1.7427626915e+00
 1.1465707763e+00	 5.7233752485e-01	 1.6516938549e+00
 1.1396389177e+00	 5.8601870682e-01	 1.5603697975e+00
 1.1325303536e+00	 5.9964138076e-01	 1.4689228580e+00
 1.1252456798e+00	 6.1320220772e-01	 1.3768824147e+00
 1.1177855741e+00	 6.2669785199e-01	 1.2831507457e+00
 1.1599920369e+00	 5.6183008308e-01	 1.7057077378e+00
 1.1531983530e+00	 5.7564583424e-01	 1.6151579379e+00
 1.1462264259e+00	 5.8940609819e-01	 1.5237549328e+00
 1.1390767718e+00	 6.0310751591e-01	 1.4306123581e+00
 1.1317499901e+00	 6.1674672915e-01	 1.3342753663e+00
 1.1242467624e+00	 6.3032038293e-01	 1.2326990894e+00
 1.1666586578e+00	 5.6505899160e-01	 1.6660049712e+00
 1.1598259298e+00	 5.7895414363e-01	 1.5761010264e+00
 1.1528139340e+00	 5.9279348955e-01	 1.4861583130e+00
 1.1456231901e+00	 6.0657365105e-01	 1.3940987747e+00
 1.1382543003e+00	 6.2029125058e-01	 1.2973128329e+00
 1.1307079507e+00	 6.3394291387e-01	 1.1926409031e+00
 1.0984020092e+00	 6.1583025918e-01	 1.4582251947e+00
 1.0908996274e+00	 6.2902455038e-01	 1.3634381769e+00
 1.0832264322e+00	 6.4214825290e-01	 1.2762647179e+00
 1.0753833337e+00	 6.5519811324e-01	 1.1912921618e+00
 1.0673713236e+00	 6.6817089101e-01	 1.1031530246e+00
 1.0591914745e+00	 6.8106336143e-01	 1.0065338841e+00
 1.1048631975e+00	 6.1945279012e-01	 1.4093466948e+00
 1.0973166840e+00	 6.3272469479e-01	 1.3191234850e+00
 1.0895983523e+00	 6.4592559556e-01	 1.2314369016e+00
 1.0817091180e+00	 6.5905221979e-01	 1.1422025591e+00
 1.0736499784e+00	 6.7210130802e-01	 1.0473025826e+00
 1.0654220126e+00	 6.8506961650e-01	 9.4259014880e-01
 1.1113243858e+00	 6.2307532106e-01	 1.3461228212e+00
 1.1037337407e+00	 6.3642483921e-01	 1.2667457098e+00
 1.0959702725e+00	 6.4970293823e-01	 1.1838773353e+00
 1.0880349023e+00	 6.6290632634e-01	 1.0944479117e+00
 1.0799286333e+00	 6.7603172502e-01	 9.9531057387e-01
 1.0716525507e+00	 6.8907587157e-01	 8.8322565564e-01
 1.1177855741e+00	 6.2669785199e-01	 1.2831507457e+00
 1.1101507973e+00	 6.4012498362e-01	 1.2045563544e+00
 1.1023421927e+00	 6.5348028089e-01	 1.1318909169e+00
 1.0943606867e+00	 6.6676043289e-01	 1.0465888894e+00
 1.0862072881e+00	 6.7996214203e-01	 9.4620123143e-01
 1.0778830888e+00	 6.9308212663e-01	 8.2814118835e-01
 1.1242467624e+00	 6.3032038293e-01	 1.2326990894e+00
 1.1165678539e+00	 6.4382512803e-01	 1.1413235333e+00
 1.1087141129e+00	 6.5725762355e-01	 1.0738018403e+00
 1.1006864710e+00	 6.7061453943e-01	 9.9719830754e-01
 1.0924859430e+00	 6.8389255903e-01	 8.9899904709e-01
 1.0841136269e+00	 6.9708838170e-01	 7.7702105556e-01
 1.1307079507e+00	 6.3394291387e-01	 1.1926409031e+00
 1.1229849106e+00	 6.4752527245e-01	 1.0932140660e+00
 1.1150860331e+00	 6.6103496622e-01	 1.0133113116e+00
 1.1070122553e+00	 6.7446864598e-01	 9.4485950334e-01
 1.0987645978e+00	 6.8782297604e-01	 8.5272743880e-01
 1.0903441650e+00	 7.0109463677e-01	 7.2953218914e-01
 1.0591914745e+00	 6.8106336143e-01	 1.0065338841e+00
 1.0508449403e+00	 6.9387231785e-01	 9.1199712904e-01
 1.0423329553e+00	 7.0659457427e-01	 8.2932452051e-01
 1.0336568341e+00	 7.1922696785e-01	 7.5248586321e-01
 1.0248179713e+00	 7.3176636140e-01	 6.7600724399e-01
 1.0158178404e+00	 7.4420964591e-01	 5.9343918323e-01
 1.0654220126e+00	 6.8506961650e-01	 9.4259014880e-01
 1.0570263811e+00	 6.9795391972e-01	 8.4226843727e-01
 1.0484643256e+00	 7.1075101295e-01	 7.5847018717e-01
 1.0397371684e+00	 7.2345771472e-01	 6.8439106897e-01
 1.0308463123e+00	 7.3607086941e-01	 6.1386283349e-01
 1.0217932395e+00	 7.4858734970e-01	 5.3328502258e-01
 1.0716525507e+00	 6.8907587157e-01	 8.8322565564e-01
 1.0632078219e+00	 7.0203552159e-01	 7.7667256543e-01
 1.0545956959e+00	 7.1490745162e-01	 6.9119713462e-01
 1.0458175028e+00	 7.2768846159e-01	 6.1959954645e-01
 1.0368746533e+00	 7.4037537742e-01	 5.5537270055e-01
 1.0277686386e+00	 7.5296505350e-01	 4.7268941264e-01
 1.0778830888e+00	 6.9308212663e-01	 8.2814118835e-01
 1.0693892628e+00	 7.0611712346e-01	 7.1557771535e-01
 1.0607270662e+00	 7.1906389029e-01	 6.2830196081e-01
 1.0518978371e+00	 7.3191920846e-01	 5.5909083338e-01
 1.0429029943e+00	 7.4467988543e-01	 4.9925187472e-01
 1.0337440376e+00	 7.5734275730e-01	 4.1195548488e-01
 1.0841136269e+00	 6.9708838170e-01	 7.7702105556e-01
 1.0755707036e+00	 7.1019872533e-01	 6.5931914715e-01
 1.0668584366e+00	 7.2322032896e-01	 5.7053741571e-01
 1.0579781714e+00	 7.3614995533e-01	 5.0379542908e-01
 1.0489313354e+00	 7.4898439344e-01	 4.4317607380e-01
 1.0397194367e+00	 7.6172046110e-01	 3.5137561037e-01
 1.0903441650e+00	 7.0109463677e-01	 7.2953218914e-01
 1.0817521444e+00	 7.1428032720e-01	 6.0819870270e-01
 1.0729898069e+00	 7.2737676764e-01	 5.1861219268e-01
 1.0640585057e+00	 7.4038070220e-01	 4.5459469259e-01
 1.0549596764e+00	 7.5328890145e-01	 3.8770578587e-01
 1.0456948358e+00	 7.6609816490e-01	 2.9123262130e-01
 1.0158178404e+00	 7.4420964591e-01	 5.9343918323e-01
 1.0066579936e+00	 7.5655374296e-01	 4.9651024126e-01
 9.9734006049e-01	 7.6879560728e-01	 3.9883806853e-01
 9.8786574778e-01	 7.8093222907e-01	 3.0348758144e-01
 9.7823683789e-01	 7.9296063649e-01	 2.1440321560e-01
 9.6845518807e-01	 8.0487789803e-01	 1.3637087663e-01
 1.0217932395e+00	 7.4858734970e-01	 5.3328502258e-01
 1.0125795112e+00	 7.6100405910e-01	 4.3196546941e-01
 1.0032067667e+00	 7.7331793438e-01	 3.3077191453e-01
 9.9367672277e-01	 7.8552594806e-01	 2.3298418201e-01
 9.8399117223e-01	 7.9762511083e-01	 1.4273518057e-01
 9.7415198329e-01	 8.0961247390e-01	 6.4970989319e-02
 1.0277686386e+00	 7.5296505350e-01	 4.7268941264e-01
 1.0185010288e+00	 7.6545437523e-01	 3.6832766545e-01
 1.0090734730e+00	 7.7784026148e-01	 2.6489439233e-01
 9.9948769775e-01	 7.9011966706e-01	 1.6570457536e-01
 9.8974550657e-01	 8.0228958516e-01	 7.4912241086e-02
 9.7984877852e-01	 8.1434704977e-01	-2.5309245578e-03
 1.0337440376e+00	 7.5734275730e-01	 4.1195548488e-01
 1.0244225464e+00	 7.6990469137e-01	 3.0551253278e-01
 1.0149401792e+00	 7.8236258858e-01	 2.0084827089e-01
 1.0052986727e+00	 7.9471338605e-01	 1.0113609927e-01
 9.9549984091e-01	 8.0695405949e-01	 1.0386709050e-02
 9.8554557374e-01	 8.1908162564e-01	-6.6594384618e-02
 1.0397194367e+00	 7.6172046110e-01	 3.5137561037e-01
 1.0303440640e+00	 7.7435500750e-01	 2.4343431105e-01
 1.0208068854e+00	 7.8688491568e-01	 1.3828138929e-01
 1.0111096477e+00	 7.9930710504e-01	 3.8774864783e-02
 1.0012541752e+00	 8.1161853382e-01	-5.1379522589e-02
 9.9124236897e-01	 8.2381620151e-01	-1.2767147773e-01
 1.0456948358e+00	 7.6609816490e-01	 2.9123262130e-01
 1.0362655816e+00	 7.7880532364e-01	 1.8200673363e-01
 1.0266735917e+00	 7.9140724278e-01	 7.6847425310e-02
 1.0169206227e+00	 8.0390082404e-01	-2.1873587274e-02
 1.0070085096e+00	 8.1628300816e-01	-1.1091435647e-01
 9.9693916419e-01	 8.2855077738e-01	-1.8620618707e-01
 9.6845518807e-01	 8.0487789803e-01	 1.3637087663e-01
 9.5852272924e-01	 8.1668112478e-01	 5.7865843245e-02
 9.4844146472e-01	 8.2836747282e-01	-3.1533996754e-02
 9.3821346898e-01	 8.3993414543e-01	-1.2443167194e-01
 9.2784088617e-01	 8.5137839530e-01	-2.1301244598e-01
 9.1732592866e-01	 8.6269752673e-01	-2.8911251765e-01
 9.7415198329e-01	 8.0961247390e-01	 6.4970989319e-02
 9.6416109823e-01	 8.2148513139e-01	-1.2645080683e-02
 9.5402053216e-01	 8.3324022266e-01	-1.0140750339e-01
 9.4373237174e-01	 8.4487493452e-01	-1.9384491145e-01
 9.3329877373e-01	 8.5638650351e-01	-2.8203353632e-01
 9.2272196354e-01	 8.6777221807e-01	-3.5766817516e-01
 9.7984877852e-01	 8.1434704977e-01	-2.5309245578e-03
 9.6979946723e-01	 8.2628913801e-01	-7.9575212935e-02
 9.5959959960e-01	 8.3811297250e-01	-1.6804356539e-01
 9.4925127450e-01	 8.4981572361e-01	-2.6031912794e-01
 9.3875666130e-01	 8.6139461172e-01	-3.4830145709e-01
 9.2811799841e-01	 8.7284690940e-01	-4.2347998125e-01
 9.8554557374e-01	 8.1908162564e-01	-6.6594384618e-02
 9.7543783622e-01	 8.3109314463e-01	-1.4325405437e-01
 9.6517866704e-01	 8.4298572234e-01	-2.3168367735e-01
 9.5477017726e-01	 8.5475651270e-01	-3.2405084626e-01
 9.4421454886e-01	 8.6640271993e-01	-4.1201175377e-01
 9.3351403329e-01	 8.7792160073e-01	-4.8678737626e-01
 9.9124236897e-01	 8.2381620151e-01	-1.2767147773e-01
 9.8107620522e-01	 8.3589715124e-01	-2.0400690295e-01
 9.7075773448e-01	 8.4785847218e-01	-2.9256750890e-01
 9.6028908002e-01	 8.5969730179e-01	-3.8523626218e-01
 9.4967243643e-01	 8.7141082813e-01	-4.7336022704e-01
 9.3891006816e-01	 8.8299629207e-01	-5.4782969968e-01
 9.9693916419e-01	 8.2855077738e-01	-1.8620618707e-01
 9.8671457421e-01	 8.4070115786e-01	-2.6215410794e-01
 9.7633680192e-01	 8.5273122202e-01	-3.5093211194e-01
 9.6580798277e-01	 8.6463809088e-01	-4.4407043119e-01
 9.5513032399e-01	 8.7641893634e-01	-5.3254213240e-01
 9.4430610304e-01	 8.8807098340e-01	-6.0684543047e-01
 9.1732592866e-01	 8.6269752673e-01	-2.8911251765e-01
 9.0667087552e-01	 8.7388889769e-01	-3.6458501478e-01
 8.9587807081e-01	 8.8494992190e-01	-4.5159652086e-01
 8.8494992190e-01	 8.9587807081e-01	-5.4215941855e-01
 8.7388889769e-01	 9.0667087552e-01	-6.2824864520e-01
 8.6269752673e-01	 9.1732592866e-01	-7.0188156787e-01
 9.2272196354e-01	 8.6777221807e-01	-3.5766817516e-01
 9.1200423361e-01	 8.7902942062e-01	-4.3263900867e-01
 9.0114794181e-01	 8.9015550968e-01	-5.1917845266e-01
 8.9015550968e-01	 9.0114794181e-01	-6.0917239400e-01
 8.7902942062e-01	 9.1200423361e-01	-6.9446421103e-01
 8.6777221807e-01	 9.2272196354e-01	-7.6693746156e-01
 9.2811799841e-01	 8.7284690940e-01	-4.2347998125e-01
 9.1733759170e-01	 8.8416994355e-01	-4.9780703155e-01
 9.0641781282e-01	 8.9536109745e-01	-5.8367260171e-01
 8.9536109745e-01	 9.0641781282e-01	-6.7287435371e-01
 8.8416994355e-01	 9.1733759170e-01	-7.5716154043e-01
 8.7284690940e-01	 9.2811799841e-01	-8.2832050590e-01
 9.3351403329e-01	 8.7792160073e-01	-4.8678737626e-01
 9.2267094979e-01	 8.8931046648e-01	-5.6039334682e-01
 9.1168768382e-01	 9.0056668523e-01	-6.4544386358e-01
 9.0056668523e-01	 9.1168768382e-01	-7.3368570156e-01
 8.8931046648e-01	 9.2267094979e-01	-8.1681048452e-01
 8.7792160073e-01	 9.3351403329e-01	-8.8654299988e-01
 9.3891006816e-01	 8.8299629207e-01	-5.4782969968e-01
 9.2800430789e-01	 8.9445098940e-01	-6.2070136188e-01
 9.1695755483e-01	 9.0577227301e-01	-7.0485569105e-01
 9.0577227301e-01	 9.1695755483e-01	-7.9202499111e-01
 8.9445098940e-01	 9.2800430789e-01	-8.7387882610e-01
 8.8299629207e-01	 9.3891006816e-01	-9.4211515581e-01
 9.4430610304e-01	 8.8807098340e-01	-6.0684543047e-01
 9.3333766598e-01	 8.9959151233e-01	-6.7903292335e-01
 9.2222742583e-01	 9.1097786078e-01	-7.6226944201e-01
 9.1097786078e-01	 9.2222742583e-01	-8.4830832331e-01
 8.9959151233e-01	 9.3333766598e-01	-9.2883172405e-01
 8.8807098340e-01	 9.4430610304e-01	-9.9554458644e-01
 8.6269752673e-01	 9.1732592866e-01	-7.0188156787e-01
 8.5137839530e-01	 9.2784088617e-01	-7.7471047517e-01
 8.3993414543e-01	 9.3821346898e-01	-8.5789157823e-01
 8.2836747282e-01	 9.4844146472e-01	-9.4299268600e-01
 8.1668112478e-01	 9.5852272924e-01	-1.0219306821e+00
 8.0487789803e-01	 9.6845518807e-01	-1.0870482316e+00
 8.6777221807e-01	 9.2272196354e-01	-7.6693746156e-01
 8.5638650351e-01	 9.3329877373e-01	-8.3822799985e-01
 8.4487493452e-01	 9.4373237174e-01	-9.1953141723e-01
 8.3324022266e-01	 9.5402053216e-01	-1.0023889290e+00
 8.2148513139e-01	 9.6416109823e-01	-1.0787241766e+00
 8.0961247390e-01	 9.7415198329e-01	-1.1409224086e+00
 8.7284690940e-01	 9.2811799841e-01	-8.2832050590e-01
 8.6139461172e-01	 9.3875666130e-01	-8.9810056022e-01
 8.4981572361e-01	 9.4925127450e-01	-9.7778957282e-01
 8.3811297250e-01	 9.5959959960e-01	-1.0588202570e+00
 8.2628913801e-01	 9.6979946723e-01	-1.1330381403e+00
 8.1434704977e-01	 9.7984877852e-01	-1.1927835001e+00
 8.7792160073e-01	 9.3351403329e-01	-8.8654299988e-01
 8.6640271993e-01	 9.4421454886e-01	-9.5486138013e-01
 8.5475651270e-01	 9.5477017726e-01	-1.0331854700e+00
 8.4298572234e-01	 9.6517866704e-01	-1.1127586490e+00
 8.3109314463e-01	 9.7543783622e-01	-1.1852645756e+00
 8.1908162564e-01	 9.8554557374e-01	-1.2429121589e+00
 8.8299629207e-01	 9.3891006816e-01	-9.4211515581e-01
 8.7141082813e-01	 9.4967243643e-01	-1.0090421000e+00
 8.5969730179e-01	 9.6028908002e-01	-1.0862382662e+00
 8.4785847218e-01	 9.7075773448e-01	-1.1646779085e+00
 8.3589715124e-01	 9.8107620522e-01	-1.2358001392e+00
 8.2381620151e-01	 9.9124236897e-01	-1.2915972201e+00
 8.8807098340e-01	 9.4430610304e-01	-9.9554458644e-01
 8.7641893634e-01	 9.5513032399e-01	-1.0611722931e+00
 8.6463809088e-01	 9.6580798277e-01	-1.1374663758e+00
 8.5273122202e-01	 9.7633680192e-01	-1.2150531737e+00
 8.4070115786e-01	 9.8671457421e-01	-1.2850456183e+00
 8.2855077738e-01	 9.9693916419e-01	-1.3391351248e+00
 8.0487789803e-01	 9.6845518807e-01	-1.0870482316e+00
 7.9296063649e-01	 9.7823683789e-01	-1.1489664424e+00
 7.8093222907e-01	 9.8786574778e-01	-1.2203537841e+00
 7.6879560728e-01	 9.9734006049e-01	-1.2976308893e+00
 7.5655374296e-01	 1.0066579936e+00	-1.3781178664e+00
 7.4420964591e-01	 1.0158178404e+00	-1.4600816431e+00
 8.0961247390e-01	 9.7415198329e-01	-1.1409224086e+00
 7.9762511083e-01	 9.8399117223e-01	-1.2005733175e+00
 7.8552594806e-01	 9.9367672277e-01	-1.2709007733e+00
 7.7331793438e-01	 1.0032067667e+00	-1.3477518576e+00
 7.6100405910e-01	 1.0125795112e+00	-1.4278432228e+00
 7.4858734970e-01	 1.0217932395e+00	-1.5088120559e+00
 8.1434704977e-01	 9.7984877852e-01	-1.1927835001e+00
 8.0228958516e-01	 9.8974550657e-01	-1.2502238786e+00
 7.9011966706e-01	 9.9948769775e-01	-1.3189443844e+00
 7.7784026148e-01	 1.0090734730e+00	-1.3944326945e+00
 7.6545437523e-01	 1.0185010288e+00	-1.4730273636e+00
 7.5296505350e-01	 1.0277686386e+00	-1.5519719331e+00
 8.1908162564e-01	 9.8554557374e-01	-1.2429121589e+00
 8.0695405949e-01	 9.9549984091e-01	-1.2981299397e+00
 7.9471338605e-01	 1.0052986727e+00	-1.3647405727e+00
 7.8236258858e-01	 1.0149401792e+00	-1.4380824535e+00
 7.6990469137e-01	 1.0244225464e+00	-1.5143372649e+00
 7.5734275730e-01	 1.0337440376e+00	-1.5905867629e+00
 8.2381620151e-01	 9.9124236897e-01	-1.2915972201e+00
 8.1161853382e-01	 1.0012541752e+00	-1.3445140140e+00
 7.9930710504e-01	 1.0111096477e+00	-1.4085558659e+00
 7.8688491568e-01	 1.0208068854e+00	-1.4791180718e+00
 7.7435500750e-01	 1.0303440640e+00	-1.5524426194e+00
 7.6172046110e-01	 1.0397194367e+00	-1.6256771916e+00
 8.2855077738e-01	 9.9693916419e-01	-1.3391351248e+00
 8.1628300816e-01	 1.0070085096e+00	-1.3896087136e+00
 8.0390082404e-01	 1.0169206227e+00	-1.4506668157e+00
 7.9140724278e-01	 1.0266735917e+00	-1.5179639457e+00
 7.7880532364e-01	 1.0362655816e+00	-1.5880156062e+00
 7.6609816490e-01	 1.0456948358e+00	-1.6582590554e+00
 7.4420964591e-01	 1.0158178404e+00	-1.4600816431e+00
 7.3176636140e-01	 1.0248179713e+00	-1.5290685360e+00
 7.1922696785e-01	 1.0336568341e+00	-1.5845124094e+00
 7.0659457427e-01	 1.0423329553e+00	-1.6344698489e+00
 6.9387231785e-01	 1.0508449403e+00	-1.6868514683e+00
 6.8106336143e-01	 1.0591914745e+00	-1.7501681983e+00
 7.4858734970e-01	 1.0217932395e+00	-1.5088120559e+00
 7.3607086941e-01	 1.0308463123e+00	-1.5723133694e+00
 7.2345771472e-01	 1.0397371684e+00	-1.6193612524e+00
 7.1075101295e-01	 1.0484643256e+00	-1.6624279843e+00
 6.9795391972e-01	 1.0570263811e+00	-1.7106580668e+00
 6.8506961650e-01	 1.0654220126e+00	-1.7738836009e+00
 7.5296505350e-01	 1.0277686386e+00	-1.5519719331e+00
 7.4037537742e-01	 1.0368746533e+00	-1.6123068955e+00
 7.2768846159e-01	 1.0458175028e+00	-1.6517124273e+00
 7.1490745162e-01	 1.0545956959e+00	-1.6892366170e+00
 7.0203552159e-01	 1.0632078219e+00	-1.7347486072e+00
 6.8907587157e-01	 1.0716525507e+00	-1.7988723737e+00
 7.5734275730e-01	 1.0337440376e+00	-1.5905867629e+00
 7.4467988543e-01	 1.0429029943e+00	-1.6493332885e+00
 7.3191920846e-01	 1.0518978371e+00	-1.6830034725e+00
 7.1906389029e-01	 1.0607270662e+00	-1.7161348825e+00
 7.0611712346e-01	 1.0693892628e+00	-1.7599373758e+00
 6.9308212663e-01	 1.0778830888e+00	-1.8253067491e+00
 7.6172046110e-01	 1.0397194367e+00	-1.6256771916e+00
 7.4898439344e-01	 1.0489313354e+00	-1.6831829868e+00
 7.3614995533e-01	 1.0579781714e+00	-1.7146502525e+00
 7.2322032896e-01	 1.0668584366e+00	-1.7443446975e+00
 7.1019872533e-01	 1.0755707036e+00	-1.7870310950e+00
 6.9708838170e-01	 1.0841136269e+00	-1.8533660385e+00
 7.6609816490e-01	 1.0456948358e+00	-1.6582590554e+00
 7.5328890145e-01	 1.0549596764e+00	-1.7151323027e+00
 7.4038070220e-01	 1.0640585057e+00	-1.7480473803e+00
 7.2737676764e-01	 1.0729898069e+00	-1.7750710606e+00
 7.1428032720e-01	 1.0817521444e+00	-1.8168289562e+00
 7.0109463677e-01	 1.0903441650e+00	-1.8832362547e+00
 6.8106336143e-01	 1.0591914745e+00	-1.7501681983e+00
 6.6817089101e-01	 1.0673713236e+00	-1.8190678136e+00
 6.5519811324e-01	 1.0753833337e+00	-1.8834693147e+00
 6.4214825290e-01	 1.0832264322e+00	-1.9453711778e+00
 6.2902455038e-01	 1.0908996274e+00	-2.0069598503e+00
 6.1583025918e-01	 1.0984020092e+00	-2.0705908136e+00
 6.8506961650e-01	 1.0654220126e+00	-1.7738836009e+00
 6.7210130802e-01	 1.0736499784e+00	-1.8453920004e+00
 6.5905221979e-01	 1.0817091180e+00	-1.9117486633e+00
 6.4592559556e-01	 1.0895983523e+00	-1.9732873606e+00
 6.3272469479e-01	 1.0973166840e+00	-2.0304545969e+00
 6.1945279012e-01	 1.1048631975e+00	-2.0837952581e+00
 6.8907587157e-01	 1.0716525507e+00	-1.7988723737e+00
 6.7603172502e-01	 1.0799286333e+00	-1.8723574610e+00
 6.6290632634e-01	 1.0880349023e+00	-1.9378352030e+00
 6.4970293823e-01	 1.0959702725e+00	-1.9943423690e+00
 6.3642483921e-01	 1.1037337407e+00	-2.0409733071e+00
 6.2307532106e-01	 1.1113243858e+00	-2.0768879925e+00
 6.9308212663e-01	 1.0778830888e+00	-1.8253067491e+00
 6.7996214203e-01	 1.0862072881e+00	-1.8995048118e+00
 6.6676043289e-01	 1.0943606867e+00	-1.9608653206e+00
 6.5348028089e-01	 1.1023421927e+00	-2.0074889424e+00
 6.4012498362e-01	 1.1101507973e+00	-2.0374986275e+00
 6.2669785199e-01	 1.1177855741e+00	-2.0674195934e+00
 6.9708838170e-01	 1.0841136269e+00	-1.8533660385e+00
 6.8389255903e-01	 1.0924859430e+00	-1.9263961452e+00
 6.7061453943e-01	 1.1006864710e+00	-1.9800060427e+00
 6.5725762355e-01	 1.1087141129e+00	-2.0117145450e+00
 6.4382512803e-01	 1.1165678539e+00	-2.0309932195e+00
 6.3032038293e-01	 1.1242467624e+00	-2.0704001844e+00
 7.0109463677e-01	 1.0903441650e+00	-1.8832362547e+00
 6.8782297604e-01	 1.0987645978e+00	-1.9526142493e+00
 6.7446864598e-01	 1.1070122553e+00	-1.9944540008e+00
 6.6103496622e-01	 1.1150860331e+00	-2.0121751667e+00
 6.4752527245e-01	 1.1229849106e+00	-2.0409024109e+00
 6.3394291387e-01	 1.1307079507e+00	-2.0845767058e+00
 6.1583025918e-01	 1.0984020092e+00	-2.0705908136e+00
 6.0256864342e-01	 1.1057327489e+00	-2.1235559407e+00
 5.8924297531e-01	 1.1128910989e+00	-2.1519626519e+00
 5.7585653271e-01	 1.1198763931e+00	-2.1840565469e+00
 5.6241259667e-01	 1.1266880461e+00	-2.2291330329e+00
 5.4891444899e-01	 1.1333255533e+00	-2.2835262669e+00
 6.1945279012e-01	 1.1048631975e+00	-2.0837952581e+00
 6.0611316485e-01	 1.1122370592e+00	-2.1191460149e+00
 5.9270911046e-01	 1.1194375172e+00	-2.1493685185e+00
 5.7924392408e-01	 1.1264639013e+00	-2.1890263452e+00
 5.6572090606e-01	 1.1333156228e+00	-2.2357855788e+00
 5.5214335751e-01	 1.1399921742e+00	-2.2867138872e+00
 6.2307532106e-01	 1.1113243858e+00	-2.0768879925e+00
 6.0965768628e-01	 1.1187413695e+00	-2.1109784062e+00
 5.9617524561e-01	 1.1259839354e+00	-2.1498915308e+00
 5.8263131545e-01	 1.1330514095e+00	-2.1928580339e+00
 5.6902921545e-01	 1.1399431995e+00	-2.2385052047e+00
 5.5537226603e-01	 1.1466587951e+00	-2.2848882592e+00
 6.2669785199e-01	 1.1177855741e+00	-2.0674195934e+00
 6.1320220772e-01	 1.1252456798e+00	-2.1104921626e+00
 5.9964138076e-01	 1.1325303536e+00	-2.1529776073e+00
 5.8601870682e-01	 1.1396389177e+00	-2.1953006537e+00
 5.7233752485e-01	 1.1465707763e+00	-2.2373054953e+00
 5.5860117456e-01	 1.1533254160e+00	-2.2782845479e+00
 6.3032038293e-01	 1.1242467624e+00	-2.0704001844e+00
 6.1674672915e-01	 1.1317499901e+00	-2.1167907766e+00
 6.0310751591e-01	 1.1390767718e+00	-2.1580604278e+00
 5.8940609819e-01	 1.1462264259e+00	-2.1960847649e+00
 5.7564583424e-01	 1.1531983530e+00	-2.2321762423e+00
 5.6183008308e-01	 1.1599920369e+00	-2.2671098451e+00
 6.3394291387e-01	 1.1307079507e+00	-2.0845767058e+00
 6.2029125058e-01	 1.1382543003e+00	-2.1289726941e+00
 6.0657365105e-01	 1.1456231901e+00	-2.1645617327e+00
 5.9279348955e-01	 1.1528139340e+00	-2.1949228973e+00
 5.7895414363e-01	 1.1598259298e+00	-2.2230840202e+00
 5.6505899160e-01	 1.1666586578e+00	-2.2515438427e+00
 5.4891444899e-01	 1.1333255533e+00	-2.2835262669e+00
 5.3536536981e-01	 1.1397884904e+00	-2.3380935959e+00
 5.2176863526e-01	 1.1460765128e+00	-2.3875718237e+00
 5.0812751509e-01	 1.1521893553e+00	-2.4333901805e+00
 4.9444527038e-01	 1.1581268310e+00	-2.4766349960e+00
 4.8072515125e-01	 1.1638888310e+00	-2.5180770238e+00
 5.5214335751e-01	 1.1399921742e+00	-2.2867138872e+00
 5.3851457787e-01	 1.1464931286e+00	-2.3344641368e+00
 5.2483786253e-01	 1.1528181394e+00	-2.3757678797e+00
 5.1111650048e-01	 1.1589669397e+00	-2.4131050118e+00
 4.9735377197e-01	 1.1649393417e+00	-2.4486044776e+00
 4.8355294625e-01	 1.1707352359e+00	-2.4840701339e+00
 5.5537226603e-01	 1.1466587951e+00	-2.2848882592e+00
 5.4166378593e-01	 1.1531977668e+00	-2.3263936035e+00
 5.2790708980e-01	 1.1595597659e+00	-2.3611622914e+00
 5.1410548586e-01	 1.1657445242e+00	-2.3921847317e+00
 5.0026227356e-01	 1.1717518525e+00	-2.4220874435e+00
 4.8638074126e-01	 1.1775816408e+00	-2.4531586996e+00
 5.5860117456e-01	 1.1533254160e+00	-2.2782845479e+00
 5.4481299398e-01	 1.1599024049e+00	-2.3142614343e+00
 5.3097631706e-01	 1.1663013925e+00	-2.3441762275e+00
 5.1709447124e-01	 1.1725221086e+00	-2.3709990480e+00
 5.0317077515e-01	 1.1785643633e+00	-2.3973183283e+00
 4.8920853627e-01	 1.1844280457e+00	-2.4253674644e+00
 5.6183008308e-01	 1.1599920369e+00	-2.2671098451e+00
 5.4796220204e-01	 1.1666070431e+00	-2.2984165376e+00
 5.3404554433e-01	 1.1730430190e+00	-2.3252002741e+00
 5.2008345663e-01	 1.1792996931e+00	-2.3498892224e+00
 5.0607927674e-01	 1.1853768741e+00	-2.3745072313e+00
 4.9203633127e-01	 1.1912744506e+00	-2.4007027053e+00
 5.6505899160e-01	 1.1666586578e+00	-2.2515438427e+00
 5.5111141010e-01	 1.1733116813e+00	-2.2791780104e+00
 5.3711477159e-01	 1.1797846456e+00	-2.3045951309e+00
 5.2307244201e-01	 1.1860772775e+00	-2.3291686844e+00
 5.0898777833e-01	 1.1921893848e+00	-2.3538403920e+00
 4.9486412628e-01	 1.1981208555e+00	-2.3791525198e+00
 4.8072515125e-01	 1.1638888310e+00	-2.5180770238e+00
 4.6697039465e-01	 1.1694753236e+00	-2.5560639414e+00
 4.5318422220e-01	 1.1748863531e+00	-2.5894485945e+00
 4.3936983802e-01	 1.1801220392e+00	-2.6193390257e+00
 4.2553042666e-01	 1.1851825758e+00	-2.6465994296e+00
 4.1166915106e-01	 1.1900682300e+00	-2.6718802700e+00
 4.8355294625e-01	 1.1707352359e+00	-2.4840701339e+00
 4.6971727933e-01	 1.1763545902e+00	-2.5183196364e+00
 4.5585001175e-01	 1.1817974493e+00	-2.5495662308e+00
 4.4195436648e-01	 1.1870639336e+00	-2.5782627274e+00
 4.2803354682e-01	 1.1921542380e+00	-2.6045988703e+00
 4.1409073430e-01	 1.1970686314e+00	-2.6285341440e+00
 4.8638074126e-01	 1.1775816408e+00	-2.4531586996e+00
 4.7246416400e-01	 1.1832338568e+00	-2.4841874787e+00
 4.5851580129e-01	 1.1887085455e+00	-2.5128416010e+00
 4.4453889494e-01	 1.1940058279e+00	-2.5392637312e+00
 4.3053666697e-01	 1.1991259002e+00	-2.5633222440e+00
 4.1651231754e-01	 1.2040690327e+00	-2.5846458373e+00
 4.8920853627e-01	 1.1844280457e+00	-2.4253674644e+00
 4.7521104867e-01	 1.1901131234e+00	-2.4535152625e+00
 4.6118159083e-01	 1.1956196417e+00	-2.4790748716e+00
 4.4712342340e-01	 1.2009477223e+00	-2.5022173555e+00
 4.3303978713e-01	 1.2060975624e+00	-2.5228361671e+00
 4.1893390078e-01	 1.2110694341e+00	-2.5405826948e+00
 4.9203633127e-01	 1.1912744506e+00	-2.4007027053e+00
 4.7795793335e-01	 1.1969923901e+00	-2.4261374761e+00
 4.6384738037e-01	 1.2025307379e+00	-2.4480551365e+00
 4.4970795186e-01	 1.2078896166e+00	-2.4669872991e+00
 4.3554290729e-01	 1.2130692247e+00	-2.4831924592e+00
 4.2135548402e-01	 1.2180698354e+00	-2.4966916087e+00
 4.9486412628e-01	 1.1981208555e+00	-2.3791525198e+00
 4.8070481802e-01	 1.2038716567e+00	-2.4018754251e+00
 4.6651316992e-01	 1.2094418341e+00	-2.4195604588e+00
 4.5229248032e-01	 1.2148315110e+00	-2.4334256834e+00
 4.3804602744e-01	 1.2200408869e+00	-2.4444282625e+00
 4.2377706726e-01	 1.2250702368e+00	-2.4532992875e+00
 4.1166915106e-01	 1.1900682300e+00	-2.6718802700e+00
 3.9778915058e-01	 1.1947793410e+00	-2.7021351646e+00
 3.8389353908e-01	 1.1993163189e+00	-2.7400148986e+00
 3.6998540304e-01	 1.2036796432e+00	-2.7795205370e+00
 3.5606779979e-01	 1.2078698622e+00	-2.8159003637e+00
 3.4214375571e-01	 1.2118875907e+00	-2.8406802386e+00
 4.1409073430e-01	 1.1970686314e+00	-2.6285341440e+00
 4.0012908676e-01	 1.2018074548e+00	-2.6564293686e+00
 3.8615173637e-01	 1.2063711207e+00	-2.6907875730e+00
 3.7216178777e-01	 1.2107601117e+00	-2.7255950702e+00
 3.5816231626e-01	 1.2149749790e+00	-2.7564840540e+00
 3.4415636603e-01	 1.2190163412e+00	-2.7770187868e+00
 4.1651231754e-01	 1.2040690327e+00	-2.5846458373e+00
 4.0246902294e-01	 1.2088355686e+00	-2.6094732473e+00
 3.8840993365e-01	 1.2134259226e+00	-2.6402974329e+00
 3.7433817249e-01	 1.2178405802e+00	-2.6709498509e+00
 3.6025683273e-01	 1.2220800959e+00	-2.6969044212e+00
 3.4616897636e-01	 1.2261450918e+00	-2.7138535042e+00
 4.1893390078e-01	 1.2110694341e+00	-2.5405826948e+00
 4.0480895912e-01	 1.2158636823e+00	-2.5619272629e+00
 3.9066813094e-01	 1.2204807245e+00	-2.5893795468e+00
 3.7651455722e-01	 1.2249210487e+00	-2.6164769661e+00
 3.6235134920e-01	 1.2291852127e+00	-2.6381185624e+00
 3.4818158669e-01	 1.2332738423e+00	-2.6519485323e+00
 4.2135548402e-01	 1.2180698354e+00	-2.4966916087e+00
 4.0714889530e-01	 1.2228917961e+00	-2.5144259772e+00
 3.9292632823e-01	 1.2275355264e+00	-2.5388403893e+00
 3.7869094194e-01	 1.2320015172e+00	-2.5630414970e+00
 3.6444586567e-01	 1.2362903295e+00	-2.5810624002e+00
 3.5019419702e-01	 1.2404025928e+00	-2.5920547308e+00
 4.2377706726e-01	 1.2250702368e+00	-2.4532992875e+00
 4.0948883148e-01	 1.2299199099e+00	-2.4675784669e+00
 3.9518452552e-01	 1.2345903282e+00	-2.4894583255e+00
 3.8086732666e-01	 1.2390819857e+00	-2.5114804079e+00
 3.6654038214e-01	 1.2433954464e+00	-2.5266500223e+00
 3.5220680734e-01	 1.2475313434e+00	-2.5349089566e+00
 3.4214375571e-01	 1.2118875907e+00	-2.8406802386e+00
 3.2821626458e-01	 1.2157335093e+00	-2.8560185696e+00
 3.1428828598e-01	 1.2194083628e+00	-2.8723419976e+00
 3.0036274369e-01	 1.2229129586e+00	-2.8904753369e+00
 2.8644252426e-01	 1.2262481651e+00	-2.9110268763e+00
 2.7253047552e-01	 1.2294149104e+00	-2.9344202422e+00
 3.4415636603e-01	 1.2190163412e+00	-2.7770187868e+00
 3.3014694849e-01	 1.2228848829e+00	-2.7892505364e+00
 3.1613704060e-01	 1.2265813532e+00	-2.8031494161e+00
 3.0212958336e-01	 1.2301065642e+00	-2.8191118487e+00
 2.8812748028e-01	 1.2334613896e+00	-2.8373214860e+00
 2.7413359596e-01	 1.2366467628e+00	-2.8577817097e+00
 3.4616897636e-01	 1.2261450918e+00	-2.7138535042e+00
 3.3207763240e-01	 1.2300362565e+00	-2.7236279020e+00
 3.1798579522e-01	 1.2337543436e+00	-2.7355255735e+00
 3.0389642303e-01	 1.2373001698e+00	-2.7495389642e+00
 2.8981243631e-01	 1.2406746141e+00	-2.7654594256e+00
 2.7573671641e-01	 1.2438786152e+00	-2.7829100882e+00
 3.4818158669e-01	 1.2332738423e+00	-2.6519485323e+00
 3.3400831631e-01	 1.2371876301e+00	-2.6596993152e+00
 3.1983454985e-01	 1.2409273339e+00	-2.6698722331e+00
 3.0566326270e-01	 1.2444937755e+00	-2.6820794900e+00
 2.9149739233e-01	 1.2478878386e+00	-2.6957517887e+00
 2.7733983685e-01	 1.2511104677e+00	-2.7101713104e+00
 3.5019419702e-01	 1.2404025928e+00	-2.5920547308e+00
 3.3593900022e-01	 1.2443390037e+00	-2.5980081588e+00
 3.2168330447e-01	 1.2481003243e+00	-2.6065919314e+00
 3.0743010237e-01	 1.2516873811e+00	-2.6170610835e+00
 2.9318234836e-01	 1.2551010631e+00	-2.6285166537e+00
 2.7894295729e-01	 1.2583423201e+00	-2.6399385052e+00
 3.5220680734e-01	 1.2475313434e+00	-2.5349089566e+00
 3.3786968412e-01	 1.2514903772e+00	-2.5390917531e+00
 3.2353205909e-01	 1.2552733147e+00	-2.5460871525e+00
 3.0919694204e-01	 1.2588809868e+00	-2.5548154436e+00
 2.9486730438e-01	 1.2623142876e+00	-2.5640783358e+00
 2.8054607774e-01	 1.2655741725e+00	-2.5725913558e+00
 2.7253047552e-01	 1.2294149104e+00	-2.9344202422e+00
 2.5862940528e-01	 1.2324141807e+00	-2.9579588716e+00
 2.4474208003e-01	 1.2352470183e+00	-2.9788107452e+00
 2.3087122369e-01	 1.2379145205e+00	-2.9970250506e+00
 2.1701951652e-01	 1.2404178375e+00	-3.0125901281e+00
 2.0318959396e-01	 1.2427581707e+00	-3.0254342884e+00
 2.7413359596e-01	 1.2366467628e+00	-2.8577817097e+00
 2.6015075472e-01	 1.2396636759e+00	-2.8779081386e+00
 2.4618173932e-01	 1.2425131773e+00	-2.8953884972e+00
 2.3222928971e-01	 1.2451963706e+00	-2.9104808257e+00
 2.1829610191e-01	 1.2477144130e+00	-2.9233995143e+00
 2.0438482686e-01	 1.2500685129e+00	-2.9343136964e+00
 2.7573671641e-01	 1.2438786152e+00	-2.7829100882e+00
 2.6167210416e-01	 1.2469131710e+00	-2.7995674064e+00
 2.4762139861e-01	 1.2497793362e+00	-2.8137394955e+00
 2.3358735574e-01	 1.2524782208e+00	-2.8258660646e+00
 2.1957268730e-01	 1.2550109885e+00	-2.8363594035e+00
 2.0558005977e-01	 1.2573788551e+00	-2.8456003646e+00
 2.7733983685e-01	 1.2511104677e+00	-2.7101713104e+00
 2.6319345361e-01	 1.2541626662e+00	-2.7233716781e+00
 2.4906105791e-01	 1.2570454951e+00	-2.7343308662e+00
 2.3494542176e-01	 1.2597600709e+00	-2.7436441446e+00
 2.2084927269e-01	 1.2623075640e+00	-2.7518946992e+00
 2.0677529267e-01	 1.2646891973e+00	-2.7596472155e+00
 2.7894295729e-01	 1.2583423201e+00	-2.6399385052e+00
 2.6471480305e-01	 1.2614121614e+00	-2.6497626524e+00
 2.5050071720e-01	 1.2643116541e+00	-2.6576364052e+00
 2.3630348778e-01	 1.2670419210e+00	-2.6642855488e+00
 2.2212585808e-01	 1.2696041395e+00	-2.6704382994e+00
 2.0797052558e-01	 1.2719995395e+00	-2.6768164946e+00
 2.8054607774e-01	 1.2655741725e+00	-2.5725913558e+00
 2.6623615249e-01	 1.2686616566e+00	-2.5791881971e+00
 2.5194037650e-01	 1.2715778130e+00	-2.5841361429e+00
 2.3766155380e-01	 1.2743237711e+00	-2.5882675001e+00
 2.2340244347e-01	 1.2769007150e+00	-2.5924307750e+00
 2.0916575848e-01	 1.2793098816e+00	-2.5974794720e+00
 2.0318959396e-01	 1.2427581707e+00	-3.0254342884e+00
 1.8938404567e-01	 1.2449367716e+00	-3.0370084645e+00
 1.7560541459e-01	 1.2469549392e+00	-3.0486681363e+00
 1.6185619599e-01	 1.2488140189e+00	-3.0600441403e+00
 1.4813883675e-01	 1.2505154006e+00	-3.0706149528e+00
 1.3445573453e-01	 1.2520605167e+00	-3.0796944997e+00
 2.0438482686e-01	 1.2500685129e+00	-2.9343136964e+00
 1.9049806947e-01	 1.2522599291e+00	-2.9444804982e+00
 1.7663838762e-01	 1.2542899683e+00	-2.9548258603e+00
 1.6280829127e-01	 1.2561599837e+00	-2.9648788644e+00
 1.4901024167e-01	 1.2578713735e+00	-2.9740165426e+00
 1.3524665062e-01	 1.2594255786e+00	-2.9814495407e+00
 2.0558005977e-01	 1.2573788551e+00	-2.8456003646e+00
 1.9161209327e-01	 1.2595830866e+00	-2.8545803116e+00
 1.7767136064e-01	 1.2616249973e+00	-2.8637552793e+00
 1.6376038654e-01	 1.2635059486e+00	-2.8725715728e+00
 1.4988164660e-01	 1.2652273465e+00	-2.8803254877e+00
 1.3603756670e-01	 1.2667906404e+00	-2.8861466472e+00
 2.0677529267e-01	 1.2646891973e+00	-2.7596472155e+00
 1.9272611707e-01	 1.2669062440e+00	-2.7675781733e+00
 1.7870433367e-01	 1.2689600264e+00	-2.7756555748e+00
 1.6471248181e-01	 1.2708519134e+00	-2.7832623128e+00
 1.5075305152e-01	 1.2725833194e+00	-2.7896350584e+00
 1.3682848279e-01	 1.2741557023e+00	-2.7938450884e+00
 2.0797052558e-01	 1.2719995395e+00	-2.6768164946e+00
 1.9384014087e-01	 1.2742294015e+00	-2.6837549387e+00
 1.7973730670e-01	 1.2762950554e+00	-2.6907372236e+00
 1.6566457708e-01	 1.2781978782e+00	-2.6971025943e+00
 1.5162445644e-01	 1.2799392924e+00	-2.7020496288e+00
 1.3761939887e-01	 1.2815207642e+00	-2.7046143684e+00
 2.0916575848e-01	 1.2793098816e+00	-2.5974794720e+00
 1.9495416466e-01	 1.2815525590e+00	-2.6034017672e+00
 1.8077027972e-01	 1.2836300845e+00	-2.6092217374e+00
 1.6661667235e-01	 1.2855438430e+00	-2.6142551586e+00
 1.5249586136e-01	 1.2872952653e+00	-2.6176844813e+00
 1.3841031496e-01	 1.2888858260e+00	-2.6185340735e+00
 1.3445573453e-01	 1.2520605167e+00	-3.0796944997e+00
 1.2080923715e-01	 1.2534508408e+00	-3.0883077959e+00
 1.0720164193e-01	 1.2546878855e+00	-3.0973343703e+00
 9.3635195175e-02	 1.2557732010e+00	-3.1056074244e+00
 8.0112091663e-02	 1.2567083730e+00	-3.1117744990e+00
 6.6634474225e-02	 1.2574950214e+00	-3.1142851977e+00
 1.3524665062e-01	 1.2594255786e+00	-2.9814495407e+00
 1.2151987972e-01	 1.2608240810e+00	-2.9883530911e+00
 1.0783223982e-01	 1.2620684025e+00	-2.9958697090e+00
 9.4185990441e-02	 1.2631601021e+00	-3.0028897603e+00
 8.0583339261e-02	 1.2641007752e+00	-3.0081079335e+00
 6.7026441721e-02	 1.2648920509e+00	-3.0100085572e+00
 1.3603756670e-01	 1.2667906404e+00	-2.8861466472e+00
 1.2223052229e-01	 1.2681973213e+00	-2.8913975204e+00
 1.0846283772e-01	 1.2694489194e+00	-2.8974959597e+00
 9.4736785707e-02	 1.2705470033e+00	-2.9033759349e+00
 8.1054586859e-02	 1.2714931774e+00	-2.9077658295e+00
 6.7418409216e-02	 1.2722890805e+00	-2.9091712728e+00
 1.3682848279e-01	 1.2741557023e+00	-2.7938450884e+00
 1.2294116486e-01	 1.2755705615e+00	-2.7974705203e+00
 1.0909343561e-01	 1.2768294364e+00	-2.8022087836e+00
 9.5287580972e-02	 1.2779339045e+00	-2.8070250702e+00
 8.1525834457e-02	 1.2788855796e+00	-2.8106691915e+00
 6.7810376712e-02	 1.2796861100e+00	-2.8116558384e+00
 1.3761939887e-01	 1.2815207642e+00	-2.7046143684e+00
 1.2365180743e-01	 1.2829438017e+00	-2.7066106078e+00
 1.0972403350e-01	 1.2842099534e+00	-2.7100116964e+00
 9.5838376238e-02	 1.2853208057e+00	-2.7138028476e+00
 8.1997082055e-02	 1.2862779818e+00	-2.7167442201e+00
 6.8202344207e-02	 1.2870831396e+00	-2.7173485153e+00
 1.3841031496e-01	 1.2888858260e+00	-2.6185340735e+00
 1.2436245001e-01	 1.2903170420e+00	-2.6188652708e+00
 1.1035463140e-01	 1.2915904704e+00	-2.6209159980e+00
 9.6389171504e-02	 1.2927077069e+00	-2.6236814714e+00
 8.2468329653e-02	 1.2936703840e+00	-2.6259223061e+00
 6.8594311702e-02	 1.2944801691e+00	-2.6261393539e+00
 6.6634474225e-02	 1.2574950214e+00	-3.1142851977e+00
 5.3204433382e-02	 1.2581347981e+00	-3.1162435931e+00
 3.9824007038e-02	 1.2586293857e+00	-3.1204430102e+00
 2.6495180233e-02	 1.2589804953e+00	-3.1245310440e+00
 1.3219884953e-02	 1.2591898652e+00	-3.1259125433e+00
-9.2465915289e-07	 1.2592722045e+00	-2.7057635847e+00
 6.7026441721e-02	 1.2648920509e+00	-3.0100085572e+00
 5.3517400638e-02	 1.2655355911e+00	-3.0115853223e+00
 4.0058265903e-02	 1.2660330879e+00	-3.0154711933e+00
 2.6651034234e-02	 1.2663862629e+00	-3.0192459397e+00
 1.3297648982e-02	 1.2665968644e+00	-3.0202227945e+00
-9.2301818947e-07	 1.2666799581e+00	-2.5698455787e+00
 6.7418409216e-02	 1.2722890805e+00	-2.9091712728e+00
 5.3830367893e-02	 1.2729363840e+00	-2.9104432693e+00
 4.0292524768e-02	 1.2734367902e+00	-2.9140450249e+00
 2.6806888235e-02	 1.2737920305e+00	-2.9175093700e+00
 1.3375413011e-02	 1.2740038636e+00	-2.9180786671e+00
-9.2110002954e-07	 1.2740877064e+00	-2.4369926819e+00
 6.7810376712e-02	 1.2796861100e+00	-2.8116558384e+00
 5.4143335148e-02	 1.2803371769e+00	-2.8126675312e+00
 4.0526783633e-02	 1.2808404925e+00	-2.8159943926e+00
 2.6962742237e-02	 1.2811977981e+00	-2.8191437231e+00
 1.3453177040e-02	 1.2814108628e+00	-2.8193082654e+00
-9.1890788588e-07	 1.2814954489e+00	-2.3070999580e+00
 6.8202344207e-02	 1.2870831396e+00	-2.7173485153e+00
 5.4456302403e-02	 1.2877379699e+00	-2.7181103592e+00
 4.0761042498e-02	 1.2882441948e+00	-2.7211494301e+00
 2.7118596238e-02	 1.2886035657e+00	-2.7239694485e+00
 1.3530941069e-02	 1.2888178620e+00	-2.7237353122e+00
-9.1644497134e-07	 1.2889031854e+00	-2.1800565502e+00
 6.8594311702e-02	 1.2944801691e+00	-2.6261393539e+00
 5.4769269658e-02	 1.2951387628e+00	-2.6266262074e+00
 4.0995301363e-02	 1.2956478970e+00	-2.6293405980e+00
 2.7274450239e-02	 1.2960093334e+00	-2.6318051742e+00
 1.3608705099e-02	 1.2962248613e+00	-2.6311793062e+00
-9.1371449874e-07	 1.2963109157e+00	-2.0557458821e+00
 1.2962962963e+00	 0.0000000000e+00	 3.6913642653e+00
 1.2962248613e+00	 1.3608705099e-02	 3.6898027741e+00
 1.2960093334e+00	 2.7274450239e-02	 3.6857722945e+00
 1.2956478970e+00	 4.0995301363e-02	 3.6792052047e+00
 1.2951387628e+00	 5.4769269658e-02	 3.6699014473e+00
 1.2944801691e+00	 6.8594311702e-02	 3.6575464854e+00
 1.3037037037e+00	 0.0000000000e+00	 3.7096601862e+00
 1.3036318605e+00	 1.3686469128e-02	 3.7080700982e+00
 1.3034151010e+00	 2.7430304241e-02	 3.7039378348e+00
 1.3030515993e+00	 4.1229560228e-02	 3.6972022383e+00
 1.3025395557e+00	 5.5082236914e-02	 3.6876458890e+00
 1.3018771986e+00	 6.8986279198e-02	 3.6749151496e+00
 1.3111111111e+00	 0.0000000000e+00	 3.7264882673e+00
 1.3110388597e+00	 1.3764233157e-02	 3.7249342461e+00
 1.3108208686e+00	 2.7586158242e-02	 3.7207041289e+00
 1.3104553016e+00	 4.1463819093e-02	 3.7137667847e+00
 1.3099403487e+00	 5.5395204169e-02	 3.7039105902e+00
 1.3092742282e+00	 6.9378246693e-02	 3.6907656191e+00
 1.3185185185e+00	 0.0000000000e+00	 3.7417621701e+00
 1.3184458589e+00	 1.3841997186e-02	 3.7403068839e+00
 1.3182266362e+00	 2.7742012244e-02	 3.7359899694e+00
 1.3178590038e+00	 4.1698077958e-02	 3.7288326754e+00
 1.3173411416e+00	 5.5708171424e-02	 3.7186510844e+00
 1.3166712577e+00	 6.9770214189e-02	 3.7050805076e+00
 1.3259259259e+00	 0.0000000000e+00	 3.7553962356e+00
 1.3258528581e+00	 1.3919761215e-02	 3.7541001016e+00
 1.3256324038e+00	 2.7897866245e-02	 3.7497143482e+00
 1.3252627061e+00	 4.1932336822e-02	 3.7423337474e+00
 1.3247419345e+00	 5.6021138679e-02	 3.7318227475e+00
 1.3240682873e+00	 7.0162181684e-02	 3.7178421380e+00
 1.3333333333e+00	 0.0000000000e+00	 3.7673054654e+00
 1.3332598573e+00	 1.3997525244e-02	 3.7662263992e+00
 1.3330381715e+00	 2.8053720246e-02	 3.7617964485e+00
 1.3326664084e+00	 4.2166595687e-02	 3.7542038418e+00
 1.3321427274e+00	 5.6334105934e-02	 3.7433808033e+00
 1.3314653168e+00	 7.0554149180e-02	 3.7290325547e+00
 1.2944801691e+00	 6.8594311702e-02	 3.6575464854e+00
 1.2936703840e+00	 8.2468329653e-02	 3.6429747707e+00
 1.2927077069e+00	 9.6389171504e-02	 3.6267358736e+00
 1.2915904704e+00	 1.1035463140e-01	 3.6079911109e+00
 1.2903170420e+00	 1.2436245001e-01	 3.5858961975e+00
 1.2888858260e+00	 1.3841031496e-01	 3.5596352861e+00
 1.3018771986e+00	 6.8986279198e-02	 3.6749151496e+00
 1.3010627862e+00	 8.2939577251e-02	 3.6598582524e+00
 1.3000946081e+00	 9.6939966770e-02	 3.6430899690e+00
 1.2989709873e+00	 1.1098522929e-01	 3.6237856350e+00
 1.2976902822e+00	 1.2507309258e-01	 3.6011051715e+00
 1.2962508879e+00	 1.3920123105e-01	 3.5742301437e+00
 1.3092742282e+00	 6.9378246693e-02	 3.6907656191e+00
 1.3084551884e+00	 8.3410824849e-02	 3.6752100621e+00
 1.3074815092e+00	 9.7490762035e-02	 3.6579150092e+00
 1.3063515043e+00	 1.1161582719e-01	 3.6380544709e+00
 1.3050635225e+00	 1.2578373515e-01	 3.6147768891e+00
 1.3036159497e+00	 1.3999214713e-01	 3.5872453668e+00
 1.3166712577e+00	 6.9770214189e-02	 3.7050805076e+00
 1.3158475906e+00	 8.3882072447e-02	 3.6890452515e+00
 1.3148684104e+00	 9.8041557301e-02	 3.6712642197e+00
 1.3137320213e+00	 1.1224642508e-01	 3.6508940268e+00
 1.3124367627e+00	 1.2649437772e-01	 3.6270552105e+00
 1.3109810116e+00	 1.4078306322e-01	 3.5988757885e+00
 1.3240682873e+00	 7.0162181684e-02	 3.7178421380e+00
 1.3232399928e+00	 8.4353320045e-02	 3.7013784492e+00
 1.3222553116e+00	 9.8592352567e-02	 3.6831902314e+00
 1.3211125383e+00	 1.1287702297e-01	 3.6623998912e+00
 1.3198100029e+00	 1.2720502029e-01	 3.6380828824e+00
 1.3183460735e+00	 1.4157397930e-01	 3.6093147504e+00
 1.3314653168e+00	 7.0554149180e-02	 3.7290325547e+00
 1.3306323950e+00	 8.4824567643e-02	 3.7122238791e+00
 1.3296422128e+00	 9.9143147833e-02	 3.6937451062e+00
 1.3284930552e+00	 1.1350762087e-01	 3.6726668659e+00
 1.3271832432e+00	 1.2791566286e-01	 3.6480015785e+00
 1.3257111353e+00	 1.4236489539e-01	 3.6187541510e+00
 1.2888858260e+00	 1.3841031496e-01	 3.5596352861e+00
 1.2872952653e+00	 1.5249586136e-01	 3.5296470470e+00
 1.2855438430e+00	 1.6661667235e-01	 3.4971208624e+00
 1.2836300845e+00	 1.8077027972e-01	 3.4625181317e+00
 1.2815525590e+00	 1.9495416466e-01	 3.4264717576e+00
 1.2793098816e+00	 2.0916575848e-01	 3.3898178047e+00
 1.2962508879e+00	 1.3920123105e-01	 3.5742301437e+00
 1.2946512382e+00	 1.5336726628e-01	 3.5435331105e+00
 1.2928898078e+00	 1.6756876762e-01	 3.5101370889e+00
 1.2909651135e+00	 1.8180325275e-01	 3.4744996329e+00
 1.2888757165e+00	 1.9606818846e-01	 3.4372556200e+00
 1.2866202238e+00	 2.1036099139e-01	 3.3992523010e+00
 1.3036159497e+00	 1.3999214713e-01	 3.5872453668e+00
 1.3020072112e+00	 1.5423867121e-01	 3.5557532402e+00
 1.3002357726e+00	 1.6852086289e-01	 3.5213749292e+00
 1.2983001426e+00	 1.8283622578e-01	 3.4845948977e+00
 1.2961988740e+00	 1.9718221226e-01	 3.4460812940e+00
 1.2939305660e+00	 2.1155622430e-01	 3.4067244722e+00
 1.3109810116e+00	 1.4078306322e-01	 3.5988757885e+00
 1.3093631841e+00	 1.5511007613e-01	 3.5665531882e+00
 1.3075817375e+00	 1.6947295816e-01	 3.5311268940e+00
 1.3056351716e+00	 1.8386919880e-01	 3.4931374845e+00
 1.3035220314e+00	 1.9829623606e-01	 3.4533161314e+00
 1.3012409082e+00	 2.1275145720e-01	 3.4126266786e+00
 1.3183460735e+00	 1.4157397930e-01	 3.6093147504e+00
 1.3167191571e+00	 1.5598148105e-01	 3.5761768019e+00
 1.3149277023e+00	 1.7042505343e-01	 3.5396831999e+00
 1.3129702007e+00	 1.8490217183e-01	 3.5004582957e+00
 1.3108451889e+00	 1.9941025986e-01	 3.4593244978e+00
 1.3085512504e+00	 2.1394669011e-01	 3.4173479993e+00
 1.3257111353e+00	 1.4236489539e-01	 3.6187541510e+00
 1.3240751300e+00	 1.5685288597e-01	 3.5848660769e+00
 1.3222736671e+00	 1.7137714870e-01	 3.5473318233e+00
 1.3203052297e+00	 1.8593514486e-01	 3.5068856283e+00
 1.3181683464e+00	 2.0052428365e-01	 3.4644678136e+00
 1.3158615925e+00	 2.1514192301e-01	 3.4212742578e+00
 1.2793098816e+00	 2.0916575848e-01	 3.3898178047e+00
 1.2769007150e+00	 2.2340244347e-01	 3.3512206630e+00
 1.2743237711e+00	 2.3766155380e-01	 3.3084148511e+00
 1.2715778130e+00	 2.5194037650e-01	 3.2612326600e+00
 1.2686616566e+00	 2.6623615249e-01	 3.2098151496e+00
 1.2655741725e+00	 2.8054607774e-01	 3.1546243709e+00
 1.2866202238e+00	 2.1036099139e-01	 3.3992523010e+00
 1.2841972905e+00	 2.2467902886e-01	 3.3593350473e+00
 1.2816056212e+00	 2.3901961982e-01	 3.3153467129e+00
 1.2788439719e+00	 2.5338003579e-01	 3.2670457197e+00
 1.2759111518e+00	 2.6775750194e-01	 3.2145218850e+00
 1.2728060249e+00	 2.8214919818e-01	 3.1582117960e+00
 1.2939305660e+00	 2.1155622430e-01	 3.4067244722e+00
 1.2914938661e+00	 2.2595561425e-01	 3.3655824118e+00
 1.2888874714e+00	 2.4037768584e-01	 3.3205766586e+00
 1.2861101309e+00	 2.5481969509e-01	 3.2713330630e+00
 1.2831606469e+00	 2.6927885138e-01	 3.2178327375e+00
 1.2800378773e+00	 2.8375231863e-01	 3.1604308462e+00
 1.3012409082e+00	 2.1275145720e-01	 3.4126266786e+00
 1.2987904416e+00	 2.2723219965e-01	 3.3703772994e+00
 1.2961693215e+00	 2.4173575187e-01	 3.3245456550e+00
 1.2933762898e+00	 2.5625935438e-01	 3.2745664911e+00
 1.2904101421e+00	 2.7080020082e-01	 3.2202549610e+00
 1.2872697297e+00	 2.8535543907e-01	 3.1618290948e+00
 1.3085512504e+00	 2.1394669011e-01	 3.4173479993e+00
 1.3060870171e+00	 2.2850878504e-01	 3.3741305498e+00
 1.3034511716e+00	 2.4309381789e-01	 3.3276902317e+00
 1.3006424487e+00	 2.5769901367e-01	 3.2772122918e+00
 1.2976596373e+00	 2.7232155026e-01	 3.2222888468e+00
 1.2945015821e+00	 2.8695855951e-01	 3.1629453024e+00
 1.3158615925e+00	 2.1514192301e-01	 3.4212742578e+00
 1.3133835926e+00	 2.2978537043e-01	 3.3772493090e+00
 1.3107330217e+00	 2.4445188391e-01	 3.3304424757e+00
 1.3079086076e+00	 2.5913867297e-01	 3.2797312213e+00
 1.3049091325e+00	 2.7384289971e-01	 3.2244276975e+00
 1.3017334346e+00	 2.8856167996e-01	 3.1643093861e+00
 1.2655741725e+00	 2.8054607774e-01	 3.1546243709e+00
 1.2623142876e+00	 2.9486730438e-01	 3.0950689164e+00
 1.2588809868e+00	 3.0919694204e-01	 3.0328119478e+00
 1.2552733147e+00	 3.2353205909e-01	 2.9721511811e+00
 1.2514903772e+00	 3.3786968412e-01	 2.9176370952e+00
 1.2475313434e+00	 3.5220680734e-01	 2.8740302498e+00
 1.2728060249e+00	 2.8214919818e-01	 3.1582117960e+00
 1.2695275121e+00	 2.9655226041e-01	 3.0972104412e+00
 1.2660745924e+00	 3.1096378170e-01	 3.0329996642e+00
 1.2624463050e+00	 3.2538081372e-01	 2.9700956998e+00
 1.2586417508e+00	 3.3980036803e-01	 2.9133013005e+00
 1.2546600939e+00	 3.5421941767e-01	 2.8676641471e+00
 1.2800378773e+00	 2.8375231863e-01	 3.1604308462e+00
 1.2767407366e+00	 2.9823721643e-01	 3.0978573833e+00
 1.2732681980e+00	 3.1273062137e-01	 3.0314792243e+00
 1.2696192954e+00	 3.2722956834e-01	 2.9661538211e+00
 1.2657931244e+00	 3.4173105194e-01	 2.9070597807e+00
 1.2617888444e+00	 3.5623202800e-01	 2.8596561895e+00
 1.2872697297e+00	 2.8535543907e-01	 3.1618290948e+00
 1.2839539611e+00	 2.9992217246e-01	 3.0975852830e+00
 1.2804618037e+00	 3.1449746104e-01	 3.0288225805e+00
 1.2767922858e+00	 3.2907832296e-01	 2.9608597032e+00
 1.2729444980e+00	 3.4366173585e-01	 2.8993721092e+00
 1.2689175950e+00	 3.5824463833e-01	 2.8503520600e+00
 1.2945015821e+00	 2.8695855951e-01	 3.1629453024e+00
 1.2911671856e+00	 3.0160712848e-01	 3.0969589809e+00
 1.2876554093e+00	 3.1626430071e-01	 3.0255894707e+00
 1.2839652762e+00	 3.3092707759e-01	 2.9547341907e+00
 1.2800958716e+00	 3.4559241976e-01	 2.8906839044e+00
 1.2760463455e+00	 3.6025724865e-01	 2.8400833488e+00
 1.3017334346e+00	 2.8856167996e-01	 3.1643093861e+00
 1.2983804101e+00	 3.0329208451e-01	 3.0965325753e+00
 1.2948490150e+00	 3.1803114038e-01	 3.0223273455e+00
 1.2911382665e+00	 3.3277583221e-01	 2.9482846912e+00
 1.2872472452e+00	 3.4752310367e-01	 2.8814266353e+00
 1.2831750960e+00	 3.6226985898e-01	 2.8291672637e+00
 1.2475313434e+00	 3.5220680734e-01	 2.8740302498e+00
 1.2433954464e+00	 3.6654038214e-01	 2.8153735116e+00
 1.2390819857e+00	 3.8086732666e-01	 2.7287062215e+00
 1.2345903282e+00	 3.9518452552e-01	 2.6415015289e+00
 1.2299199099e+00	 4.0948883148e-01	 2.5604929645e+00
 1.2250702368e+00	 4.2377706726e-01	 2.4913037909e+00
 1.2546600939e+00	 3.5421941767e-01	 2.8676641471e+00
 1.2505005632e+00	 3.6863489861e-01	 2.8064678994e+00
 1.2461624542e+00	 3.8304371139e-01	 2.7190409206e+00
 1.2416451301e+00	 3.9744272281e-01	 2.6302172791e+00
 1.2369480236e+00	 4.1182876766e-01	 2.5466086457e+00
 1.2320706381e+00	 4.2619865051e-01	 2.4745133634e+00
 1.2617888444e+00	 3.5623202800e-01	 2.8596561895e+00
 1.2576056800e+00	 3.7072941508e-01	 2.7965374229e+00
 1.2532429227e+00	 3.8522009611e-01	 2.7094594323e+00
 1.2486999320e+00	 3.9970092010e-01	 2.6194784391e+00
 1.2439761374e+00	 4.1416870384e-01	 2.5334942913e+00
 1.2390710395e+00	 4.2862023375e-01	 2.4582938479e+00
 1.2689175950e+00	 3.5824463833e-01	 2.8503520600e+00
 1.2647107969e+00	 3.7282393155e-01	 2.7861592501e+00
 1.2603233912e+00	 3.8739648083e-01	 2.7000596733e+00
 1.2557547339e+00	 4.0195911739e-01	 2.6093578000e+00
 1.2510042512e+00	 4.1650864001e-01	 2.5212538490e+00
 1.2460714408e+00	 4.3104181699e-01	 2.4428402874e+00
 1.2760463455e+00	 3.6025724865e-01	 2.8400833488e+00
 1.2718159137e+00	 3.7491844801e-01	 2.7756915164e+00
 1.2674038597e+00	 3.8957286556e-01	 2.6909245557e+00
 1.2628095357e+00	 4.0421731467e-01	 2.5999126708e+00
 1.2580323650e+00	 4.1884857619e-01	 2.5099740945e+00
 1.2530718422e+00	 4.3346340023e-01	 2.4283275745e+00
 1.2831750960e+00	 3.6226985898e-01	 2.8291672637e+00
 1.2789210306e+00	 3.7701296448e-01	 2.7652788255e+00
 1.2744843281e+00	 3.9174925028e-01	 2.6821222920e+00
 1.2698643376e+00	 4.0647551196e-01	 2.5911852227e+00
 1.2650604787e+00	 4.2118851237e-01	 2.4997250532e+00
 1.2600722435e+00	 4.3588498347e-01	 2.4149109875e+00
 1.2250702368e+00	 4.2377706726e-01	 2.4913037909e+00
 1.2200408869e+00	 4.3804602744e-01	 2.4258891062e+00
 1.2148315110e+00	 4.5229248032e-01	 2.3533271992e+00
 1.2094418341e+00	 4.6651316992e-01	 2.2746959159e+00
 1.2038716567e+00	 4.8070481802e-01	 2.1908882125e+00
 1.1981208555e+00	 4.9486412628e-01	 2.1025773304e+00
 1.2320706381e+00	 4.2619865051e-01	 2.4745133634e+00
 1.2270125491e+00	 4.4054914760e-01	 2.4070512453e+00
 1.2217734053e+00	 4.5487700878e-01	 2.3335767981e+00
 1.2163529303e+00	 4.6917895946e-01	 2.2545171067e+00
 1.2107509233e+00	 4.8345170270e-01	 2.1701272829e+00
 1.2049672604e+00	 4.9769192129e-01	 2.0804564336e+00
 1.2390710395e+00	 4.2862023375e-01	 2.4582938479e+00
 1.2339842113e+00	 4.4305226776e-01	 2.3881867096e+00
 1.2287152997e+00	 4.5746153724e-01	 2.3131258822e+00
 1.2232640265e+00	 4.7184474900e-01	 2.2331453301e+00
 1.2176301899e+00	 4.8619858737e-01	 2.1481138250e+00
 1.2118136652e+00	 5.0051971630e-01	 2.0577010491e+00
 1.2460714408e+00	 4.3104181699e-01	 2.4428402874e+00
 1.2409558735e+00	 4.4555538791e-01	 2.3695729422e+00
 1.2356571940e+00	 4.6004606570e-01	 2.2922516898e+00
 1.2301751227e+00	 4.7451053854e-01	 2.2107707554e+00
 1.2245094565e+00	 4.8894547205e-01	 2.1248598584e+00
 1.2186600701e+00	 5.0334751130e-01	 2.0340497992e+00
 1.2530718422e+00	 4.3346340023e-01	 2.4283275745e+00
 1.2479275357e+00	 4.4805850807e-01	 2.3514645037e+00
 1.2425990884e+00	 4.6263059416e-01	 2.2712077449e+00
 1.2370862189e+00	 4.7717632809e-01	 2.1875610026e+00
 1.2313887231e+00	 4.9169235672e-01	 2.1003581098e+00
 1.2255064750e+00	 5.0617530631e-01	 2.0092274529e+00
 1.2600722435e+00	 4.3588498347e-01	 2.4149109875e+00
 1.2548991979e+00	 4.5056162823e-01	 2.3340937188e+00
 1.2495409827e+00	 4.6521512261e-01	 2.2502245646e+00
 1.2439973151e+00	 4.7984211763e-01	 2.1636618568e+00
 1.2382679897e+00	 4.9443924140e-01	 2.0745826775e+00
 1.2323528799e+00	 5.0900310132e-01	 1.9829454835e+00
 1.1981208555e+00	 4.9486412628e-01	 2.1025773304e+00
 1.1921893848e+00	 5.0898777833e-01	 2.0135158504e+00
 1.1860772775e+00	 5.2307244201e-01	 1.9266069883e+00
 1.1797846456e+00	 5.3711477159e-01	 1.8407771837e+00
 1.1733116813e+00	 5.5111141010e-01	 1.7545470831e+00
 1.1666586578e+00	 5.6505899160e-01	 1.6660049712e+00
 1.2049672604e+00	 4.9769192129e-01	 2.0804564336e+00
 1.1990018956e+00	 5.1189627992e-01	 1.9885087343e+00
 1.1928548619e+00	 5.2606142739e-01	 1.8974841042e+00
 1.1865262721e+00	 5.4018399886e-01	 1.8072412720e+00
 1.1800163195e+00	 5.5426061816e-01	 1.7172013952e+00
 1.1733252787e+00	 5.6828790013e-01	 1.6263185876e+00
 1.2118136652e+00	 5.0051971630e-01	 2.0577010491e+00
 1.2058144064e+00	 5.1480478151e-01	 1.9640724659e+00
 1.1996324464e+00	 5.2905041278e-01	 1.8702321771e+00
 1.1932678987e+00	 5.4325322613e-01	 1.7766147211e+00
 1.1867209576e+00	 5.5740982621e-01	 1.6831962075e+00
 1.1799918996e+00	 5.7151680865e-01	 1.5894628875e+00
 1.2186600701e+00	 5.0334751130e-01	 2.0340497992e+00
 1.2126269171e+00	 5.1771328310e-01	 1.9396906986e+00
 1.2064100308e+00	 5.3203939816e-01	 1.8442191111e+00
 1.2000095252e+00	 5.4632245339e-01	 1.7482953571e+00
 1.1934255958e+00	 5.6055903427e-01	 1.6521112583e+00
 1.1866585205e+00	 5.7474571717e-01	 1.5553576909e+00
 1.2255064750e+00	 5.0617530631e-01	 2.0092274529e+00
 1.2194394279e+00	 5.2062178469e-01	 1.9148383145e+00
 1.2131876153e+00	 5.3502838354e-01	 1.8188060614e+00
 1.2067511518e+00	 5.4939168066e-01	 1.7216730735e+00
 1.2001302340e+00	 5.6370824233e-01	 1.6235138193e+00
 1.1933251414e+00	 5.7797462570e-01	 1.5239023234e+00
 1.2323528799e+00	 5.0900310132e-01	 1.9829454835e+00
 1.2262519387e+00	 5.2353028628e-01	 1.8889818863e+00
 1.2199651997e+00	 5.3801736892e-01	 1.7933478881e+00
 1.2134927783e+00	 5.5246090793e-01	 1.6961303673e+00
 1.2068348722e+00	 5.6685745039e-01	 1.5969594080e+00
 1.1999917623e+00	 5.8120353422e-01	 1.4949766041e+00
 1.1666586578e+00	 5.6505899160e-01	 1.6660049712e+00
 1.1598259298e+00	 5.7895414363e-01	 1.5761010264e+00
 1.1528139340e+00	 5.9279348955e-01	 1.4861583130e+00
 1.1456231901e+00	 6.0657365105e-01	 1.3940987747e+00
 1.1382543003e+00	 6.2029125058e-01	 1.2973128329e+00
 1.1307079507e+00	 6.3394291387e-01	 1.1926409031e+00
 1.1733252787e+00	 5.6828790013e-01	 1.6263185876e+00
 1.1664535065e+00	 5.8226245302e-01	 1.5362018433e+00
 1.1594014422e+00	 5.9618088092e-01	 1.4475831462e+00
 1.1521696083e+00	 6.1003978620e-01	 1.3573670041e+00
 1.1447586106e+00	 6.2383577201e-01	 1.2619541500e+00
 1.1371691390e+00	 6.3756544480e-01	 1.1572256602e+00
 1.1799918996e+00	 5.7151680865e-01	 1.5894628875e+00
 1.1730810833e+00	 5.8557076241e-01	 1.4977952249e+00
 1.1659889504e+00	 5.9956827229e-01	 1.4090150687e+00
 1.1587160265e+00	 6.1350592135e-01	 1.3195229654e+00
 1.1512629209e+00	 6.2738029344e-01	 1.2252226899e+00
 1.1436303273e+00	 6.4118797574e-01	 1.1215066252e+00
 1.1866585205e+00	 5.7474571717e-01	 1.5553576909e+00
 1.1797086600e+00	 5.8887907181e-01	 1.4611107922e+00
 1.1725764586e+00	 6.0295566366e-01	 1.3707646642e+00
 1.1652624448e+00	 6.1697205650e-01	 1.2807204195e+00
 1.1577672312e+00	 6.3092481488e-01	 1.1868688668e+00
 1.1500915156e+00	 6.4481050668e-01	 1.0845758255e+00
 1.1933251414e+00	 5.7797462570e-01	 1.5239023234e+00
 1.1863362367e+00	 5.9218738120e-01	 1.4263503580e+00
 1.1791639668e+00	 6.0634305503e-01	 1.3331125395e+00
 1.1718088630e+00	 6.2043819165e-01	 1.2410863207e+00
 1.1642715415e+00	 6.3446933631e-01	 1.1466249859e+00
 1.1565527038e+00	 6.4843303761e-01	 1.0455215889e+00
 1.1999917623e+00	 5.8120353422e-01	 1.4949766041e+00
 1.1929638135e+00	 5.9549569059e-01	 1.3936891704e+00
 1.1857514750e+00	 6.0973044640e-01	 1.2963106813e+00
 1.1783552812e+00	 6.2390432680e-01	 1.2007221391e+00
 1.1707758518e+00	 6.3801385774e-01	 1.1042063790e+00
 1.1630138921e+00	 6.5205556855e-01	 1.0034293330e+00
 1.1307079507e+00	 6.3394291387e-01	 1.1926409031e+00
 1.1229849106e+00	 6.4752527245e-01	 1.0932140660e+00
 1.1150860331e+00	 6.6103496622e-01	 1.0133113116e+00
 1.1070122553e+00	 6.7446864598e-01	 9.4485950334e-01
 1.0987645978e+00	 6.8782297604e-01	 8.5272743880e-01
 1.0903441650e+00	 7.0109463677e-01	 7.2953218914e-01
 1.1371691390e+00	 6.3756544480e-01	 1.1572256602e+00
 1.1294019672e+00	 6.5122541686e-01	 1.0537526426e+00
 1.1214579533e+00	 6.6481230888e-01	 9.6387522868e-01
 1.1133380396e+00	 6.7832275253e-01	 8.8502224986e-01
 1.1050432527e+00	 6.9175339305e-01	 8.0213980350e-01
 1.0965747031e+00	 7.0510089183e-01	 6.8182758519e-01
 1.1436303273e+00	 6.4118797574e-01	 1.1215066252e+00
 1.1358190238e+00	 6.5492556128e-01	 1.0165970341e+00
 1.1278298735e+00	 6.6858965155e-01	 9.2049466399e-01
 1.1196638239e+00	 6.8217685908e-01	 8.3017671875e-01
 1.1113219075e+00	 6.9568381005e-01	 7.4168557846e-01
 1.1028052411e+00	 7.0910714690e-01	 6.2958079036e-01
 1.1500915156e+00	 6.4481050668e-01	 1.0845758255e+00
 1.1422360804e+00	 6.5862570569e-01	 9.8017051955e-01
 1.1342017937e+00	 6.7236699421e-01	 8.8116930308e-01
 1.1259896082e+00	 6.8603096563e-01	 7.8365810290e-01
 1.1176005624e+00	 6.9961422706e-01	 6.8283360383e-01
 1.1090357792e+00	 7.1311340197e-01	 5.7172246517e-01
 1.1565527038e+00	 6.4843303761e-01	 1.0455215889e+00
 1.1486531371e+00	 6.6232585010e-01	 9.4290732466e-01
 1.1405737139e+00	 6.7614433687e-01	 8.4391894314e-01
 1.1323153926e+00	 6.8988507218e-01	 7.4331899035e-01
 1.1238792172e+00	 7.0354464406e-01	 6.3504927366e-01
 1.1152663173e+00	 7.1711965704e-01	 5.1222451152e-01
 1.1630138921e+00	 6.5205556855e-01	 1.0034293330e+00
 1.1550701937e+00	 6.6602599452e-01	 9.0325305745e-01
 1.1469456341e+00	 6.7992167954e-01	 8.0678372740e-01
 1.1386411769e+00	 6.9373917872e-01	 7.0703577408e-01
 1.1301578720e+00	 7.0747506107e-01	 5.9629406404e-01
 1.1214968554e+00	 7.2112591210e-01	 4.6611279354e-01
 1.0903441650e+00	 7.0109463677e-01	 7.2953218914e-01
 1.0817521444e+00	 7.1428032720e-01	 6.0819870270e-01
 1.0729898069e+00	 7.2737676764e-01	 5.1861219268e-01
 1.0640585057e+00	 7.4038070220e-01	 4.5459469259e-01
 1.0549596764e+00	 7.5328890145e-01	 3.8770578587e-01
 1.0456948358e+00	 7.6609816490e-01	 2.9123262130e-01
 1.0965747031e+00	 7.0510089183e-01	 6.8182758519e-01
 1.0879335852e+00	 7.1836192907e-01	 5.5995695064e-01
 1.0791211772e+00	 7.3153320631e-01	 4.7171141533e-01
 1.0701388400e+00	 7.4461144907e-01	 4.0957069533e-01
 1.0609880174e+00	 7.5759340945e-01	 3.3378136698e-01
 1.0516702348e+00	 7.7047586870e-01	 2.3275853009e-01
 1.1028052411e+00	 7.0910714690e-01	 6.2958079036e-01
 1.0941150261e+00	 7.2244353094e-01	 5.1175197013e-01
 1.0852525475e+00	 7.3568964498e-01	 4.2840427728e-01
 1.0762191744e+00	 7.4884219594e-01	 3.6525173216e-01
 1.0670163584e+00	 7.6189791746e-01	 2.8191554415e-01
 1.0576456339e+00	 7.7485357250e-01	 1.7695143254e-01
 1.1090357792e+00	 7.1311340197e-01	 5.7172246517e-01
 1.1002964669e+00	 7.2652513281e-01	 4.6297412285e-01
 1.0913839179e+00	 7.3984608365e-01	 3.8842321435e-01
 1.0822995087e+00	 7.5307294281e-01	 3.2141902402e-01
 1.0730446994e+00	 7.6620242547e-01	 2.3203506469e-01
 1.0636210329e+00	 7.7923127630e-01	 1.2373830168e-01
 1.1152663173e+00	 7.1711965704e-01	 5.1222451152e-01
 1.1064779077e+00	 7.3060673468e-01	 4.1299642733e-01
 1.0975152882e+00	 7.4400252232e-01	 3.4977715220e-01
 1.0883798430e+00	 7.5730368968e-01	 2.7787755879e-01
 1.0790730404e+00	 7.7050693348e-01	 1.8406883655e-01
 1.0695964320e+00	 7.8360898010e-01	 7.3048799305e-02
 1.1214968554e+00	 7.2112591210e-01	 4.6611279354e-01
 1.1126593485e+00	 7.3468833655e-01	 3.6183589696e-01
 1.1036466585e+00	 7.4815896100e-01	 3.0840692198e-01
 1.0944601773e+00	 7.6153443655e-01	 2.3443751472e-01
 1.0851013814e+00	 7.7481144149e-01	 1.3794888833e-01
 1.0755718311e+00	 7.8798668390e-01	 2.4816226576e-02
 1.0456948358e+00	 7.6609816490e-01	 2.9123262130e-01
 1.0362655816e+00	 7.7880532364e-01	 1.8200673363e-01
 1.0266735917e+00	 7.9140724278e-01	 7.6847425310e-02
 1.0169206227e+00	 8.0390082404e-01	-2.1873587274e-02
 1.0070085096e+00	 8.1628300816e-01	-1.1091435647e-01
 9.9693916419e-01	 8.2855077738e-01	-1.8620618707e-01
 1.0516702348e+00	 7.7047586870e-01	 2.3275853009e-01
 1.0421870992e+00	 7.8325563977e-01	 1.2232783348e-01
 1.0325402979e+00	 7.9592956989e-01	 1.7329206398e-02
 1.0227315977e+00	 8.0849454303e-01	-8.0402492320e-02
 1.0127628439e+00	 8.2094748249e-01	-1.6813253576e-01
 1.0026359594e+00	 8.3328535325e-01	-2.4227003687e-01
 1.0576456339e+00	 7.7485357250e-01	 1.7695143254e-01
 1.0481086168e+00	 7.8770595591e-01	 6.5463290297e-02
 1.0384070042e+00	 8.0045189699e-01	-3.9387199772e-02
 1.0285425727e+00	 8.1308826203e-01	-1.3623491334e-01
 1.0185171783e+00	 8.2561195682e-01	-2.2278297555e-01
 1.0083327546e+00	 8.3801992912e-01	-2.9584687965e-01
 1.0636210329e+00	 7.7923127630e-01	 1.2373830168e-01
 1.0540301345e+00	 7.9215627204e-01	 1.1281248092e-02
 1.0442737104e+00	 8.0497422409e-01	-9.3484606875e-02
 1.0343535477e+00	 8.1768198102e-01	-1.8959793940e-01
 1.0242715126e+00	 8.3027643115e-01	-2.7513152986e-01
 1.0140295499e+00	 8.4275450499e-01	-3.4723697808e-01
 1.0695964320e+00	 7.8360898010e-01	 7.3048799305e-02
 1.0599516521e+00	 7.9660658818e-01	-4.0345759326e-02
 1.0501404166e+00	 8.0949655119e-01	-1.4514006044e-01
 1.0401645227e+00	 8.2227570002e-01	-2.4071180801e-01
 1.0300258470e+00	 8.3494090549e-01	-3.2543638400e-01
 1.0197263451e+00	 8.4748908086e-01	-3.9673234567e-01
 1.0755718311e+00	 7.8798668390e-01	 2.4816226576e-02
 1.0658731697e+00	 8.0105690431e-01	-8.9539903864e-02
 1.0560071229e+00	 8.1401887829e-01	-1.9452397468e-01
 1.0459754976e+00	 8.2686941901e-01	-2.8978907909e-01
 1.0357801813e+00	 8.3960537982e-01	-3.7394726220e-01
 1.0254231403e+00	 8.5222365673e-01	-4.4461598540e-01
 9.9693916419e-01	 8.2855077738e-01	-1.8620618707e-01
 9.8671457421e-01	 8.4070115786e-01	-2.6215410794e-01
 9.7633680192e-01	 8.5273122202e-01	-3.5093211194e-01
 9.6580798277e-01	 8.6463809088e-01	-4.4407043119e-01
 9.5513032399e-01	 8.7641893634e-01	-5.3254213240e-01
 9.4430610304e-01	 8.8807098340e-01	-6.0684543047e-01
 1.0026359594e+00	 8.3328535325e-01	-2.4227003687e-01
 9.9235294321e-01	 8.4550516448e-01	-3.1774524892e-01
 9.8191586936e-01	 8.5760397186e-01	-4.0672069294e-01
 9.7132688553e-01	 8.6957887997e-01	-5.0036008559e-01
 9.6058821156e-01	 8.8142704455e-01	-5.8924913092e-01
 9.4970213791e-01	 8.9314567474e-01	-6.6348112104e-01
 1.0083327546e+00	 8.3801992912e-01	-2.9584687965e-01
 9.9799131220e-01	 8.5030917109e-01	-3.7084090691e-01
 9.8749493680e-01	 8.6247672170e-01	-4.5995087832e-01
 9.7684578829e-01	 8.7451966906e-01	-5.5401333118e-01
 9.6604609913e-01	 8.8643515276e-01	-6.4326357736e-01
 9.5509817278e-01	 8.9822036607e-01	-7.1742457971e-01
 1.0140295499e+00	 8.4275450499e-01	-3.4723697808e-01
 1.0036296812e+00	 8.5511317771e-01	-4.2176782557e-01
 9.9307400424e-01	 8.6734947154e-01	-5.1096306175e-01
 9.8236469105e-01	 8.7946045815e-01	-6.0537051711e-01
 9.7150398669e-01	 8.9144326096e-01	-6.9491121239e-01
 9.6049420766e-01	 9.0329505740e-01	-7.6897150216e-01
 1.0197263451e+00	 8.4748908086e-01	-3.9673234567e-01
 1.0092680502e+00	 8.5991718432e-01	-4.7084423051e-01
 9.9865307168e-01	 8.7222222138e-01	-5.6008926494e-01
 9.8788359381e-01	 8.8440124724e-01	-6.5476419382e-01
 9.7696187426e-01	 8.9645136917e-01	-7.4451098957e-01
 9.6589024253e-01	 9.0836974874e-01	-8.1841225725e-01
 1.0254231403e+00	 8.5222365673e-01	-4.4461598540e-01
 1.0149064192e+00	 8.6472119094e-01	-5.1837909400e-01
 1.0042321391e+00	 8.7709497122e-01	-6.0765242052e-01
 9.9340249657e-01	 8.8934203633e-01	-7.0251840573e-01
 9.8241976182e-01	 9.0145947738e-01	-7.9237436901e-01
 9.7128627741e-01	 9.1344444007e-01	-8.6603117225e-01
 9.4430610304e-01	 8.8807098340e-01	-6.0684543047e-01
 9.3333766598e-01	 8.9959151233e-01	-6.7903292335e-01
 9.2222742583e-01	 9.1097786078e-01	-7.6226944201e-01
 9.1097786078e-01	 9.2222742583e-01	-8.4830832331e-01
 8.9959151233e-01	 9.3333766598e-01	-9.2883172405e-01
 8.8807098340e-01	 9.4430610304e-01	-9.9554458644e-01
 9.4970213791e-01	 8.9314567474e-01	-6.6348112104e-01
 9.3867102407e-01	 9.0473203526e-01	-7.3507473409e-01
 9.2749729684e-01	 9.1618344856e-01	-8.1745215929e-01
 9.1618344856e-01	 9.2749729684e-01	-9.0238019227e-01
 9.0473203526e-01	 9.3867102407e-01	-9.8154682027e-01
 8.9314567474e-01	 9.4970213791e-01	-1.0466581208e+00
 9.5509817278e-01	 8.9822036607e-01	-7.1742457971e-01
 9.4400438216e-01	 9.0987255819e-01	-7.8849532126e-01
 9.3276716784e-01	 9.2138903633e-01	-8.7011341297e-01
 9.2138903633e-01	 9.3276716784e-01	-9.5400939444e-01
 9.0987255819e-01	 9.4400438216e-01	-1.0318298181e+00
 8.9822036607e-01	 9.5509817278e-01	-1.0952372780e+00
 9.6049420766e-01	 9.0329505740e-01	-7.6897150216e-01
 9.4933774025e-01	 9.1501308111e-01	-8.3956519531e-01
 9.3803703885e-01	 9.2659462411e-01	-9.2052461208e-01
 9.2659462411e-01	 9.3803703885e-01	-1.0034948060e+00
 9.1501308111e-01	 9.4933774025e-01	-1.0800340709e+00
 9.0329505740e-01	 9.6049420766e-01	-1.1417172979e+00
 9.6589024253e-01	 9.0836974874e-01	-8.1841225725e-01
 9.5467109834e-01	 9.2015360404e-01	-8.8855098534e-01
 9.4330690985e-01	 9.3180021189e-01	-9.6895422989e-01
 9.3180021189e-01	 9.4330690985e-01	-1.0511327908e+00
 9.2015360404e-01	 9.5467109834e-01	-1.1265102990e+00
 9.0836974874e-01	 9.6589024253e-01	-1.1865301018e+00
 9.7128627741e-01	 9.1344444007e-01	-8.6603117225e-01
 9.6000445643e-01	 9.2529412697e-01	-9.3571471929e-01
 9.4857678086e-01	 9.3700579966e-01	-1.0156670956e+00
 9.3700579966e-01	 9.4857678086e-01	-1.0972165206e+00
 9.2529412697e-01	 9.6000445643e-01	-1.1716059558e+00
 9.1344444007e-01	 9.7128627741e-01	-1.2301037209e+00
 8.8807098340e-01	 9.4430610304e-01	-9.9554458644e-01
 8.7641893634e-01	 9.5513032399e-01	-1.0611722931e+00
 8.6463809088e-01	 9.6580798277e-01	-1.1374663758e+00
 8.5273122202e-01	 9.7633680192e-01	-1.2150531737e+00
 8.4070115786e-01	 9.8671457421e-01	-1.2850456183e+00
 8.2855077738e-01	 9.9693916419e-01	-1.3391351248e+00
 8.9314567474e-01	 9.4970213791e-01	-1.0466581208e+00
 8.8142704455e-01	 9.6058821156e-01	-1.1109090572e+00
 8.6957887997e-01	 9.7132688553e-01	-1.1862815370e+00
 8.5760397186e-01	 9.8191586936e-01	-1.2630539020e+00
 8.4550516448e-01	 9.9235294321e-01	-1.3320093234e+00
 8.3328535325e-01	 1.0026359594e+00	-1.3845314087e+00
 8.9822036607e-01	 9.5509817278e-01	-1.0952372780e+00
 8.8643515276e-01	 9.6604609913e-01	-1.1579007689e+00
 8.7451966906e-01	 9.7684578829e-01	-1.2321186504e+00
 8.6247672170e-01	 9.8749493680e-01	-1.3078981212e+00
 8.5030917109e-01	 9.9799131220e-01	-1.3757653118e+00
 8.3801992912e-01	 1.0083327546e+00	-1.4268645517e+00
 9.0329505740e-01	 9.6049420766e-01	-1.1417172979e+00
 8.9144326096e-01	 9.7150398669e-01	-1.2026594888e+00
 8.7946045815e-01	 9.8236469105e-01	-1.2755276799e+00
 8.6734947154e-01	 9.9307400424e-01	-1.3501331253e+00
 8.5511317771e-01	 1.0036296812e+00	-1.4168160283e+00
 8.4275450499e-01	 1.0140295499e+00	-1.4665484189e+00
 9.0836974874e-01	 9.6589024253e-01	-1.1865301018e+00
 8.9645136917e-01	 9.7696187426e-01	-1.2456934196e+00
 8.8440124724e-01	 9.8788359381e-01	-1.3170550837e+00
 8.7222222138e-01	 9.9865307168e-01	-1.3903039686e+00
 8.5991718432e-01	 1.0092680502e+00	-1.4556638809e+00
 8.4748908086e-01	 1.0197263451e+00	-1.5040000004e+00
 9.1344444007e-01	 9.7128627741e-01	-1.2301037209e+00
 9.0145947738e-01	 9.8241976182e-01	-1.2875063963e+00
 8.8934203633e-01	 9.9340249657e-01	-1.3572433417e+00
 8.7709497122e-01	 1.0042321391e+00	-1.4289530072e+00
 8.6472119094e-01	 1.0149064192e+00	-1.4928107709e+00
 8.5222365673e-01	 1.0254231403e+00	-1.5396389030e+00
 8.2855077738e-01	 9.9693916419e-01	-1.3391351248e+00
 8.1628300816e-01	 1.0070085096e+00	-1.3896087136e+00
 8.0390082404e-01	 1.0169206227e+00	-1.4506668157e+00
 7.9140724278e-01	 1.0266735917e+00	-1.5179639457e+00
 7.7880532364e-01	 1.0362655816e+00	-1.5880156062e+00
 7.6609816490e-01	 1.0456948358e+00	-1.6582590554e+00
 8.3328535325e-01	 1.0026359594e+00	-1.3845314087e+00
 8.2094748249e-01	 1.0127628439e+00	-1.4326787514e+00
 8.0849454303e-01	 1.0227315977e+00	-1.4908044352e+00
 7.9592956989e-01	 1.0325402979e+00	-1.5548622094e+00
 7.8325563977e-01	 1.0421870992e+00	-1.6216906786e+00
 7.7047586870e-01	 1.0516702348e+00	-1.6890757544e+00
 8.3801992912e-01	 1.0083327546e+00	-1.4268645517e+00
 8.2561195682e-01	 1.0185171783e+00	-1.4730486436e+00
 8.1308826203e-01	 1.0285425727e+00	-1.5287192767e+00
 8.0045189699e-01	 1.0384070042e+00	-1.5900107887e+00
 7.8770595591e-01	 1.0481086168e+00	-1.6539745131e+00
 7.7485357250e-01	 1.0576456339e+00	-1.7186431989e+00
 8.4275450499e-01	 1.0140295499e+00	-1.4665484189e+00
 8.3027643115e-01	 1.0242715126e+00	-1.5110527850e+00
 8.1768198102e-01	 1.0343535477e+00	-1.5647303324e+00
 8.0497422409e-01	 1.0442737104e+00	-1.6237789604e+00
 7.9215627204e-01	 1.0540301345e+00	-1.6853539067e+00
 7.7923127630e-01	 1.0636210329e+00	-1.7476344205e+00
 8.4748908086e-01	 1.0197263451e+00	-1.5040000004e+00
 8.3494090549e-01	 1.0300258470e+00	-1.5470316211e+00
 8.2227570002e-01	 1.0401645227e+00	-1.5991640945e+00
 8.0949655119e-01	 1.0501404166e+00	-1.6565434255e+00
 7.9660658818e-01	 1.0599516521e+00	-1.7163214329e+00
 7.8360898010e-01	 1.0695964320e+00	-1.7767249629e+00
 8.5222365673e-01	 1.0254231403e+00	-1.5396389030e+00
 8.3960537982e-01	 1.0357801813e+00	-1.5813311091e+00
 8.2686941901e-01	 1.0459754976e+00	-1.6323540263e+00
 8.1401887829e-01	 1.0560071229e+00	-1.6886878322e+00
 8.0105690431e-01	 1.0658731697e+00	-1.7473750599e+00
 7.8798668390e-01	 1.0755718311e+00	-1.8065926407e+00
 7.6609816490e-01	 1.0456948358e+00	-1.6582590554e+00
 7.5328890145e-01	 1.0549596764e+00	-1.7151323027e+00
 7.4038070220e-01	 1.0640585057e+00	-1.7480473803e+00
 7.2737676764e-01	 1.0729898069e+00	-1.7750710606e+00
 7.1428032720e-01	 1.0817521444e+00	-1.8168289562e+00
 7.0109463677e-01	 1.0903441650e+00	-1.8832362547e+00
 7.7047586870e-01	 1.0516702348e+00	-1.6890757544e+00
 7.5759340945e-01	 1.0609880174e+00	-1.7454813531e+00
 7.4461144907e-01	 1.0701388400e+00	-1.7813430215e+00
 7.3153320631e-01	 1.0791211772e+00	-1.8061214918e+00
 7.1836192907e-01	 1.0879335852e+00	-1.8453414445e+00
 7.0510089183e-01	 1.0965747031e+00	-1.9089983305e+00
 7.7485357250e-01	 1.0576456339e+00	-1.7186431989e+00
 7.6189791746e-01	 1.0670163584e+00	-1.7742211000e+00
 7.4884219594e-01	 1.0762191744e+00	-1.8118580549e+00
 7.3568964498e-01	 1.0852525475e+00	-1.8349588364e+00
 7.2244353094e-01	 1.0941150261e+00	-1.8682836670e+00
 7.0910714690e-01	 1.1028052411e+00	-1.9245237946e+00
 7.7923127630e-01	 1.0636210329e+00	-1.7476344205e+00
 7.6620242547e-01	 1.0730446994e+00	-1.8021660953e+00
 7.5307294281e-01	 1.0822995087e+00	-1.8403811412e+00
 7.3984608365e-01	 1.0913839179e+00	-1.8622548085e+00
 7.2652513281e-01	 1.1002964669e+00	-1.8860077778e+00
 7.1311340197e-01	 1.1090357792e+00	-1.9296989430e+00
 7.8360898010e-01	 1.0695964320e+00	-1.7767249629e+00
 7.7050693348e-01	 1.0790730404e+00	-1.8301310472e+00
 7.5730368968e-01	 1.0883798430e+00	-1.8677121558e+00
 7.4400252232e-01	 1.0975152882e+00	-1.8878058072e+00
 7.3060673468e-01	 1.1064779077e+00	-1.8988679301e+00
 7.1711965704e-01	 1.1152663173e+00	-1.9302635433e+00
 7.8798668390e-01	 1.0755718311e+00	-1.8065926407e+00
 7.7481144149e-01	 1.0851013814e+00	-1.8589306915e+00
 7.6153443655e-01	 1.0944601773e+00	-1.8946520790e+00
 7.4815896100e-01	 1.1036466585e+00	-1.9103729327e+00
 7.3468833655e-01	 1.1126593485e+00	-1.9079872598e+00
 7.2112591210e-01	 1.1214968554e+00	-1.9447104337e+00
 7.0109463677e-01	 1.0903441650e+00	-1.8832362547e+00
 6.8782297604e-01	 1.0987645978e+00	-1.9526142493e+00
 6.7446864598e-01	 1.1070122553e+00	-1.9944540008e+00
 6.6103496622e-01	 1.1150860331e+00	-2.0121751667e+00
 6.4752527245e-01	 1.1229849106e+00	-2.0409024109e+00
 6.3394291387e-01	 1.1307079507e+00	-2.0845767058e+00
 7.0510089183e-01	 1.0965747031e+00	-1.9089983305e+00
 6.9175339305e-01	 1.1050432527e+00	-1.9705417028e+00
 6.7832275253e-01	 1.1133380396e+00	-1.9973240994e+00
 6.6481230888e-01	 1.1214579533e+00	-2.0225987301e+00
 6.5122541686e-01	 1.1294019672e+00	-2.0582827100e+00
 6.3756544480e-01	 1.1371691390e+00	-2.1020860702e+00
 7.0910714690e-01	 1.1028052411e+00	-1.9245237946e+00
 6.9568381005e-01	 1.1113219075e+00	-1.9724833248e+00
 6.8217685908e-01	 1.1196638239e+00	-2.0015035598e+00
 6.6858965155e-01	 1.1278298735e+00	-2.0356262110e+00
 6.5492556128e-01	 1.1358190238e+00	-2.0741766545e+00
 6.4118797574e-01	 1.1436303273e+00	-2.1156136742e+00
 7.1311340197e-01	 1.1090357792e+00	-1.9296989430e+00
 6.9961422706e-01	 1.1176005624e+00	-1.9728293781e+00
 6.8603096563e-01	 1.1259896082e+00	-2.0119157691e+00
 6.7236699421e-01	 1.1342017937e+00	-2.0499505977e+00
 6.5862570569e-01	 1.1422360804e+00	-2.0876041047e+00
 6.4481050668e-01	 1.1500915156e+00	-2.1247191196e+00
 7.1711965704e-01	 1.1152663173e+00	-1.9302635433e+00
 7.0354464406e-01	 1.1238792172e+00	-1.9836237033e+00
 6.8988507218e-01	 1.1323153926e+00	-2.0271557548e+00
 6.7614433687e-01	 1.1405737139e+00	-2.0642678829e+00
 6.6232585010e-01	 1.1486531371e+00	-2.0975810401e+00
 6.4843303761e-01	 1.1565527038e+00	-2.1289465176e+00
 7.2112591210e-01	 1.1214968554e+00	-1.9447104337e+00
 7.0747506107e-01	 1.1301578720e+00	-2.0035918384e+00
 6.9373917872e-01	 1.1386411769e+00	-2.0458235266e+00
 6.7992167954e-01	 1.1469456341e+00	-2.0772771567e+00
 6.6602599452e-01	 1.1550701937e+00	-2.1031198128e+00
 6.5205556855e-01	 1.1630138921e+00	-2.1278250331e+00
 6.3394291387e-01	 1.1307079507e+00	-2.0845767058e+00
 6.2029125058e-01	 1.1382543003e+00	-2.1289726941e+00
 6.0657365105e-01	 1.1456231901e+00	-2.1645617327e+00
 5.9279348955e-01	 1.1528139340e+00	-2.1949228973e+00
 5.7895414363e-01	 1.1598259298e+00	-2.2230840202e+00
 5.6505899160e-01	 1.1666586578e+00	-2.2515438427e+00
 6.3756544480e-01	 1.1371691390e+00	-2.1020860702e+00
 6.2383577201e-01	 1.1447586106e+00	-2.1415208748e+00
 6.1003978620e-01	 1.1521696083e+00	-2.1697234214e+00
 5.9618088092e-01	 1.1594014422e+00	-2.1917694921e+00
 5.8226245302e-01	 1.1664535065e+00	-2.2121839232e+00
 5.6828790013e-01	 1.1733252787e+00	-2.2349598071e+00
 6.4118797574e-01	 1.1436303273e+00	-2.1156136742e+00
 6.2738029344e-01	 1.1512629209e+00	-2.1495924163e+00
 6.1350592135e-01	 1.1587160265e+00	-2.1714525773e+00
 5.9956827229e-01	 1.1659889504e+00	-2.1871111952e+00
 5.8557076241e-01	 1.1730810833e+00	-2.2019169089e+00
 5.7151680865e-01	 1.1799918996e+00	-2.2206678951e+00
 6.4481050668e-01	 1.1500915156e+00	-2.1247191196e+00
 6.3092481488e-01	 1.1577672312e+00	-2.1532727048e+00
 6.1697205650e-01	 1.1652624448e+00	-2.1701346581e+00
 6.0295566366e-01	 1.1725764586e+00	-2.1814192868e+00
 5.8887907181e-01	 1.1797086600e+00	-2.1926374636e+00
 5.7474571717e-01	 1.1866585205e+00	-2.2087149650e+00
 6.4843303761e-01	 1.1565527038e+00	-2.1289465176e+00
 6.3446933631e-01	 1.1642715415e+00	-2.1526203722e+00
 6.2043819165e-01	 1.1718088630e+00	-2.1661221869e+00
 6.0634305503e-01	 1.1791639668e+00	-2.1751307622e+00
 5.9218738120e-01	 1.1863362367e+00	-2.1846690097e+00
 5.7797462570e-01	 1.1933251414e+00	-2.1991243447e+00
 6.5205556855e-01	 1.1630138921e+00	-2.1278250331e+00
 6.3801385774e-01	 1.1707758518e+00	-2.1476681237e+00
 6.2390432680e-01	 1.1783552812e+00	-2.1597357207e+00
 6.0973044640e-01	 1.1857514750e+00	-2.1686493067e+00
 5.9549569059e-01	 1.1929638135e+00	-2.1783047624e+00
 5.8120353422e-01	 1.1999917623e+00	-2.1918964495e+00
 5.6505899160e-01	 1.1666586578e+00	-2.2515438427e+00
 5.5111141010e-01	 1.1733116813e+00	-2.2791780104e+00
 5.3711477159e-01	 1.1797846456e+00	-2.3045951309e+00
 5.2307244201e-01	 1.1860772775e+00	-2.3291686844e+00
 5.0898777833e-01	 1.1921893848e+00	-2.3538403920e+00
 4.9486412628e-01	 1.1981208555e+00	-2.3791525198e+00
 5.6828790013e-01	 1.1733252787e+00	-2.2349598071e+00
 5.5426061816e-01	 1.1800163195e+00	-2.2598402334e+00
 5.4018399886e-01	 1.1865262721e+00	-2.2845855320e+00
 5.2606142739e-01	 1.1928548619e+00	-2.3094663782e+00
 5.1189627992e-01	 1.1990018956e+00	-2.3342979362e+00
 4.9769192129e-01	 1.2049672604e+00	-2.3584756416e+00
 5.7151680865e-01	 1.1799918996e+00	-2.2206678951e+00
 5.5740982621e-01	 1.1867209576e+00	-2.2433300528e+00
 5.4325322613e-01	 1.1932678987e+00	-2.2669016087e+00
 5.2905041278e-01	 1.1996324464e+00	-2.2909560541e+00
 5.1480478151e-01	 1.2058144064e+00	-2.3145996898e+00
 5.0051971630e-01	 1.2118136652e+00	-2.3365098008e+00
 5.7474571717e-01	 1.1866585205e+00	-2.2087149650e+00
 5.6055903427e-01	 1.1934255958e+00	-2.2293812400e+00
 5.4632245339e-01	 1.2000095252e+00	-2.2511311648e+00
 5.3203939816e-01	 1.2064100308e+00	-2.2732392493e+00
 5.1771328310e-01	 1.2126269171e+00	-2.2945130723e+00
 5.0334751130e-01	 1.2186600701e+00	-2.3133327664e+00
 5.7797462570e-01	 1.1933251414e+00	-2.1991243447e+00
 5.6370824233e-01	 1.2001302340e+00	-2.2177117402e+00
 5.4939168066e-01	 1.2067511518e+00	-2.2368501974e+00
 5.3502838354e-01	 1.2131876153e+00	-2.2559061982e+00
 5.2062178469e-01	 1.2194394279e+00	-2.2737913550e+00
 5.0617530631e-01	 1.2255064750e+00	-2.2890021390e+00
 5.8120353422e-01	 1.1999917623e+00	-2.1918964495e+00
 5.6685745039e-01	 1.2068348722e+00	-2.2080240484e+00
 5.5246090793e-01	 1.2134927783e+00	-2.2236231353e+00
 5.3801736892e-01	 1.2199651997e+00	-2.2385360298e+00
 5.2353028628e-01	 1.2262519387e+00	-2.2521739142e+00
 5.0900310132e-01	 1.2323528799e+00	-2.2635557467e+00
 4.9486412628e-01	 1.1981208555e+00	-2.3791525198e+00
 4.8070481802e-01	 1.2038716567e+00	-2.4018754251e+00
 4.6651316992e-01	 1.2094418341e+00	-2.4195604588e+00
 4.5229248032e-01	 1.2148315110e+00	-2.4334256834e+00
 4.3804602744e-01	 1.2200408869e+00	-2.4444282625e+00
 4.2377706726e-01	 1.2250702368e+00	-2.4532992875e+00
 4.9769192129e-01	 1.2049672604e+00	-2.3584756416e+00
 4.8345170270e-01	 1.2107509233e+00	-2.3781071822e+00
 4.6917895946e-01	 1.2163529303e+00	-2.3913308830e+00
 4.5487700878e-01	 1.2217734053e+00	-2.4000878399e+00
 4.4054914760e-01	 1.2270125491e+00	-2.4060688618e+00
 4.2619865051e-01	 1.2320706381e+00	-2.4107484601e+00
 5.0051971630e-01	 1.2118136652e+00	-2.3365098008e+00
 4.8619858737e-01	 1.2176301899e+00	-2.3526084854e+00
 4.7184474900e-01	 1.2232640265e+00	-2.3616491533e+00
 4.5746153724e-01	 1.2287152997e+00	-2.3660501898e+00
 4.4305226776e-01	 1.2339842113e+00	-2.3679794918e+00
 4.2862023375e-01	 1.2390710395e+00	-2.3693883660e+00
 5.0334751130e-01	 1.2186600701e+00	-2.3133327664e+00
 4.8894547205e-01	 1.2245094565e+00	-2.3257673994e+00
 4.7451053854e-01	 1.2301751227e+00	-2.3310770253e+00
 4.6004606570e-01	 1.2356571940e+00	-2.3319158419e+00
 4.4555538791e-01	 1.2409558735e+00	-2.3306766417e+00
 4.3104181699e-01	 1.2460714408e+00	-2.3295253590e+00
 5.0617530631e-01	 1.2255064750e+00	-2.2890021390e+00
 4.9169235672e-01	 1.2313887231e+00	-2.2979458523e+00
 4.7717632809e-01	 1.2370862189e+00	-2.3001472541e+00
 4.6263059416e-01	 1.2425990884e+00	-2.2982590467e+00
 4.4805850807e-01	 1.2479275357e+00	-2.2946509913e+00
 4.3346340023e-01	 1.2530718422e+00	-2.2914458374e+00
 5.0900310132e-01	 1.2323528799e+00	-2.2635557467e+00
 4.9443924140e-01	 1.2382679897e+00	-2.2694801767e+00
 4.7984211763e-01	 1.2439973151e+00	-2.2693641940e+00
 4.6521512261e-01	 1.2495409827e+00	-2.2656257735e+00
 4.5056162823e-01	 1.2548991979e+00	-2.2603678874e+00
 4.3588498347e-01	 1.2600722435e+00	-2.2554165429e+00
 4.2377706726e-01	 1.2250702368e+00	-2.4532992875e+00
 4.0948883148e-01	 1.2299199099e+00	-2.4675784669e+00
 3.9518452552e-01	 1.2345903282e+00	-2.4894583255e+00
 3.8086732666e-01	 1.2390819857e+00	-2.5114804079e+00
 3.6654038214e-01	 1.2433954464e+00	-2.5266500223e+00
 3.5220680734e-01	 1.2475313434e+00	-2.5349089566e+00
 4.2619865051e-01	 1.2320706381e+00	-2.4107484601e+00
 4.1182876766e-01	 1.2369480236e+00	-2.4220864921e+00
 3.9744272281e-01	 1.2416451301e+00	-2.4418337657e+00
 3.8304371139e-01	 1.2461624542e+00	-2.4619819016e+00
 3.6863489861e-01	 1.2505005632e+00	-2.4746340405e+00
 3.5421941767e-01	 1.2546600939e+00	-2.4796930326e+00
 4.2862023375e-01	 1.2390710395e+00	-2.3693883660e+00
 4.1416870384e-01	 1.2439761374e+00	-2.3783262935e+00
 3.9970092010e-01	 1.2486999320e+00	-2.3960573036e+00
 3.8522009611e-01	 1.2532429227e+00	-2.4141839397e+00
 3.7072941508e-01	 1.2576056800e+00	-2.4243126438e+00
 3.5623202800e-01	 1.2617888444e+00	-2.4253778656e+00
 4.3104181699e-01	 1.2460714408e+00	-2.3295253590e+00
 4.1650864001e-01	 1.2510042512e+00	-2.3363892693e+00
 4.0195911739e-01	 1.2557547339e+00	-2.3521140307e+00
 3.8739648083e-01	 1.2603233912e+00	-2.3680705644e+00
 3.7282393155e-01	 1.2647107969e+00	-2.3756420290e+00
 3.5824463833e-01	 1.2689175950e+00	-2.3723657026e+00
 4.3346340023e-01	 1.2530718422e+00	-2.2914458374e+00
 4.1884857619e-01	 1.2580323650e+00	-2.2963528656e+00
 4.0421731467e-01	 1.2628095357e+00	-2.3099786993e+00
 3.8957286556e-01	 1.2674038597e+00	-2.3236167743e+00
 3.7491844801e-01	 1.2718159137e+00	-2.3285890196e+00
 3.6025724865e-01	 1.2760463455e+00	-2.3210483276e+00
 4.3588498347e-01	 1.2600722435e+00	-2.2554165429e+00
 4.2118851237e-01	 1.2650604787e+00	-2.2582806954e+00
 4.0647551196e-01	 1.2698643376e+00	-2.2696157306e+00
 3.9174925028e-01	 1.2744843281e+00	-2.2807884859e+00
 3.7701296448e-01	 1.2789210306e+00	-2.2832183761e+00
 3.6226985898e-01	 1.2831750960e+00	-2.2718061547e+00
 3.5220680734e-01	 1.2475313434e+00	-2.5349089566e+00
 3.3786968412e-01	 1.2514903772e+00	-2.5390917531e+00
 3.2353205909e-01	 1.2552733147e+00	-2.5460871525e+00
 3.0919694204e-01	 1.2588809868e+00	-2.5548154436e+00
 2.9486730438e-01	 1.2623142876e+00	-2.5640783358e+00
 2.8054607774e-01	 1.2655741725e+00	-2.5725913558e+00
 3.5421941767e-01	 1.2546600939e+00	-2.4796930326e+00
 3.3980036803e-01	 1.2586417508e+00	-2.4817597447e+00
 3.2538081372e-01	 1.2624463050e+00	-2.4870315301e+00
 3.1096378170e-01	 1.2660745924e+00	-2.4940530806e+00
 2.9655226041e-01	 1.2695275121e+00	-2.5012884211e+00
 2.8214919818e-01	 1.2728060249e+00	-2.5071528838e+00
 3.5623202800e-01	 1.2617888444e+00	-2.4253778656e+00
 3.4173105194e-01	 1.2657931244e+00	-2.4248683953e+00
 3.2722956834e-01	 1.2696192954e+00	-2.4283098503e+00
 3.1273062137e-01	 1.2732681980e+00	-2.4337689866e+00
 2.9823721643e-01	 1.2767407366e+00	-2.4392669609e+00
 2.8375231863e-01	 1.2800378773e+00	-2.4428111530e+00
 3.5824463833e-01	 1.2689175950e+00	-2.3723657026e+00
 3.4366173585e-01	 1.2729444980e+00	-2.3690121103e+00
 3.2907832296e-01	 1.2767922858e+00	-2.3706334248e+00
 3.1449746104e-01	 1.2804618037e+00	-2.3747181310e+00
 2.9992217246e-01	 1.2839539611e+00	-2.3787414575e+00
 2.8535543907e-01	 1.2872697297e+00	-2.3801973098e+00
 3.6025724865e-01	 1.2760463455e+00	-2.3210483276e+00
 3.4559241976e-01	 1.2800958716e+00	-2.3147742902e+00
 3.3092707759e-01	 1.2839652762e+00	-2.3147032591e+00
 3.1626430071e-01	 1.2876554093e+00	-2.3176470711e+00
 3.0160712848e-01	 1.2911671856e+00	-2.3204340443e+00
 2.8695855951e-01	 1.2945015821e+00	-2.3199412806e+00
 3.6226985898e-01	 1.2831750960e+00	-2.2718061547e+00
 3.4752310367e-01	 1.2872472452e+00	-2.2627265989e+00
 3.3277583221e-01	 1.2911382665e+00	-2.2612094520e+00
 3.1803114038e-01	 1.2948490150e+00	-2.2632934386e+00
 3.0329208451e-01	 1.2983804101e+00	-2.2650610171e+00
 2.8856167996e-01	 1.3017334346e+00	-2.2626713052e+00
 2.8054607774e-01	 1.2655741725e+00	-2.5725913558e+00
 2.6623615249e-01	 1.2686616566e+00	-2.5791881971e+00
 2.5194037650e-01	 1.2715778130e+00	-2.5841361429e+00
 2.3766155380e-01	 1.2743237711e+00	-2.5882675001e+00
 2.2340244347e-01	 1.2769007150e+00	-2.5924307750e+00
 2.0916575848e-01	 1.2793098816e+00	-2.5974794720e+00
 2.8214919818e-01	 1.2728060249e+00	-2.5071528838e+00
 2.6775750194e-01	 1.2759111518e+00	-2.5107804835e+00
 2.5338003579e-01	 1.2788439719e+00	-2.5129880701e+00
 2.3901961982e-01	 1.2816056212e+00	-2.5147222490e+00
 2.2467902886e-01	 1.2841972905e+00	-2.5169612796e+00
 2.1036099139e-01	 1.2866202238e+00	-2.5207013502e+00
 2.8375231863e-01	 1.2800378773e+00	-2.4428111530e+00
 2.6927885138e-01	 1.2831606469e+00	-2.4437119089e+00
 2.5481969509e-01	 1.2861101309e+00	-2.4433083044e+00
 2.4037768584e-01	 1.2888874714e+00	-2.4426999001e+00
 2.2595561425e-01	 1.2914938661e+00	-2.4430374540e+00
 2.1155622430e-01	 1.2939305660e+00	-2.4455064064e+00
 2.8535543907e-01	 1.2872697297e+00	-2.3801973098e+00
 2.7080020082e-01	 1.2904101421e+00	-2.3784974884e+00
 2.5625935438e-01	 1.2933762898e+00	-2.3755233211e+00
 2.4173575187e-01	 1.2961693215e+00	-2.3725657042e+00
 2.2723219965e-01	 1.2987904416e+00	-2.3709903917e+00
 2.1275145720e-01	 1.3012409082e+00	-2.3722184231e+00
 2.8695855951e-01	 1.2945015821e+00	-2.3199412806e+00
 2.7232155026e-01	 1.2976596373e+00	-2.3156551814e+00
 2.5769901367e-01	 1.3006424487e+00	-2.3100656713e+00
 2.4309381789e-01	 1.3034511716e+00	-2.3046931058e+00
 2.2850878504e-01	 1.3060870171e+00	-2.3011605067e+00
 2.1394669011e-01	 1.3085512504e+00	-2.3011706609e+00
 2.8856167996e-01	 1.3017334346e+00	-2.2626713052e+00
 2.7384289971e-01	 1.3049091325e+00	-2.2557054155e+00
 2.5913867297e-01	 1.3079086076e+00	-2.2473735148e+00
 2.4445188391e-01	 1.3107330217e+00	-2.2394633036e+00
 2.2978537043e-01	 1.3133835926e+00	-2.2338971375e+00
 2.1514192301e-01	 1.3158615925e+00	-2.2327055239e+00
 2.0916575848e-01	 1.2793098816e+00	-2.5974794720e+00
 1.9495416466e-01	 1.2815525590e+00	-2.6034017672e+00
 1.8077027972e-01	 1.2836300845e+00	-2.6092217374e+00
 1.6661667235e-01	 1.2855438430e+00	-2.6142551586e+00
 1.5249586136e-01	 1.2872952653e+00	-2.6176844813e+00
 1.3841031496e-01	 1.2888858260e+00	-2.6185340735e+00
 2.1036099139e-01	 1.2866202238e+00	-2.5207013502e+00
 1.9606818846e-01	 1.2888757165e+00	-2.5256202559e+00
 1.8180325275e-01	 1.2909651135e+00	-2.5303076603e+00
 1.6756876762e-01	 1.2928898078e+00	-2.5340521168e+00
 1.5336726628e-01	 1.2946512382e+00	-2.5360172514e+00
 1.3920123105e-01	 1.2962508879e+00	-2.5352139942e+00
 2.1155622430e-01	 1.2939305660e+00	-2.4455064064e+00
 1.9718221226e-01	 1.2961988740e+00	-2.4495219629e+00
 1.8283622578e-01	 1.2983001426e+00	-2.4532360977e+00
 1.6852086289e-01	 1.3002357726e+00	-2.4558830954e+00
 1.5423867121e-01	 1.3020072112e+00	-2.4565810479e+00
 1.3999214713e-01	 1.3036159497e+00	-2.4543010164e+00
 2.1275145720e-01	 1.3012409082e+00	-2.3722184231e+00
 1.9829623606e-01	 1.3035220314e+00	-2.3754276054e+00
 1.8386919880e-01	 1.3056351716e+00	-2.3783073804e+00
 1.6947295816e-01	 1.3075817375e+00	-2.3800120967e+00
 1.5511007613e-01	 1.3093631841e+00	-2.3795890186e+00
 1.4078306322e-01	 1.3109810116e+00	-2.3759443546e+00
 2.1394669011e-01	 1.3085512504e+00	-2.3011706609e+00
 1.9941025986e-01	 1.3108451889e+00	-2.3036670928e+00
 1.8490217183e-01	 1.3129702007e+00	-2.3058308061e+00
 1.7042505343e-01	 1.3149277023e+00	-2.3067119182e+00
 1.5598148105e-01	 1.3167191571e+00	-2.3052629825e+00
 1.4157397930e-01	 1.3183460735e+00	-2.3003018140e+00
 2.1514192301e-01	 1.3158615925e+00	-2.2327055239e+00
 2.0052428365e-01	 1.3181683464e+00	-2.2345792559e+00
 1.8593514486e-01	 1.3203052297e+00	-2.2361244215e+00
 1.7137714870e-01	 1.3222736671e+00	-2.2362639778e+00
 1.5685288597e-01	 1.3240751300e+00	-2.2338332887e+00
 1.4236489539e-01	 1.3257111353e+00	-2.2275396725e+00
 1.3841031496e-01	 1.2888858260e+00	-2.6185340735e+00
 1.2436245001e-01	 1.2903170420e+00	-2.6188652708e+00
 1.1035463140e-01	 1.2915904704e+00	-2.6209159980e+00
 9.6389171504e-02	 1.2927077069e+00	-2.6236814714e+00
 8.2468329653e-02	 1.2936703840e+00	-2.6259223061e+00
 6.8594311702e-02	 1.2944801691e+00	-2.6261393539e+00
 1.3920123105e-01	 1.2962508879e+00	-2.5352139942e+00
 1.2507309258e-01	 1.2976902822e+00	-2.5339382525e+00
 1.1098522929e-01	 1.2989709873e+00	-2.5346823197e+00
 9.6939966770e-02	 1.3000946081e+00	-2.5364548595e+00
 8.2939577251e-02	 1.3010627862e+00	-2.5380208626e+00
 6.8986279198e-02	 1.3018771986e+00	-2.5378735910e+00
 1.3999214713e-01	 1.3036159497e+00	-2.4543010164e+00
 1.2578373515e-01	 1.3050635225e+00	-2.4515485656e+00
 1.1161582719e-01	 1.3063515043e+00	-2.4510735316e+00
 9.7490762035e-02	 1.3074815092e+00	-2.4519146188e+00
 8.3410824849e-02	 1.3084551884e+00	-2.4528586089e+00
 6.9378246693e-02	 1.3092742282e+00	-2.4524092358e+00
 1.4078306322e-01	 1.3109810116e+00	-2.3759443546e+00
 1.2649437772e-01	 1.3124367627e+00	-2.3717795747e+00
 1.1224642508e-01	 1.3137320213e+00	-2.3701158955e+00
 9.8041557301e-02	 1.3148684104e+00	-2.3700393840e+00
 8.3882072447e-02	 1.3158475906e+00	-2.3703767574e+00
 6.9770214189e-02	 1.3166712577e+00	-2.3696610107e+00
 1.4157397930e-01	 1.3183460735e+00	-2.3003018140e+00
 1.2720502029e-01	 1.3198100029e+00	-2.2947229756e+00
 1.1287702297e-01	 1.3211125383e+00	-2.2918433587e+00
 9.8592352567e-02	 1.3222553116e+00	-2.2908144556e+00
 8.4353320045e-02	 1.3232399928e+00	-2.2905218082e+00
 7.0162181684e-02	 1.3240682873e+00	-2.2895472044e+00
 1.4236489539e-01	 1.3257111353e+00	-2.2275396725e+00
 1.2791566286e-01	 1.3271832432e+00	-2.2204786984e+00
 1.1350762087e-01	 1.3284930552e+00	-2.2162974803e+00
 9.9143147833e-02	 1.3296422128e+00	-2.2142317543e+00
 8.4824567643e-02	 1.3306323950e+00	-2.2132455356e+00
 7.0554149180e-02	 1.3314653168e+00	-2.2119896946e+00
 6.8594311702e-02	 1.2944801691e+00	-2.6261393539e+00
 5.4769269658e-02	 1.2951387628e+00	-2.6266262074e+00
 4.0995301363e-02	 1.2956478970e+00	-2.6293405980e+00
 2.7274450239e-02	 1.2960093334e+00	-2.6318051742e+00
 1.3608705099e-02	 1.2962248613e+00	-2.6311793062e+00
-9.1371449874e-07	 1.2963109157e+00	-2.0557458821e+00
 6.8986279198e-02	 1.3018771986e+00	-2.5378735910e+00
 5.5082236914e-02	 1.3025395557e+00	-2.5381045127e+00
 4.1229560228e-02	 1.3030515993e+00	-2.5405078532e+00
 2.7430304241e-02	 1.3034151010e+00	-2.5426288107e+00
 1.3686469128e-02	 1.3036318605e+00	-2.5416246067e+00
-9.1071957370e-07	 1.3037186395e+00	-1.9341592748e+00
 6.9378246693e-02	 1.3092742282e+00	-2.4524092358e+00
 5.5395204169e-02	 1.3099403487e+00	-2.4524591730e+00
 4.1463819093e-02	 1.3104553016e+00	-2.4546204399e+00
 2.7586158242e-02	 1.3108208686e+00	-2.4564460088e+00
 1.3764233157e-02	 1.3110388597e+00	-2.4550758832e+00
-9.0746287277e-07	 1.3111263565e+00	-1.8152966748e+00
 6.9770214189e-02	 1.3166712577e+00	-2.3696610107e+00
 5.5708171424e-02	 1.3173411416e+00	-2.3695842137e+00
 4.1698077958e-02	 1.3178590038e+00	-2.3715527372e+00
 2.7742012244e-02	 1.3182266362e+00	-2.3731138612e+00
 1.3841997186e-02	 1.3184458589e+00	-2.3713765926e+00
-9.0394696530e-07	 1.3185340664e+00	-1.6990460774e+00
 7.0162181684e-02	 1.3240682873e+00	-2.2895472044e+00
 5.6021138679e-02	 1.3247419345e+00	-2.2893753086e+00
 4.1932336822e-02	 1.3252627061e+00	-2.2911787964e+00
 2.7897866245e-02	 1.3256324038e+00	-2.2924870999e+00
 1.3919761215e-02	 1.3258528581e+00	-2.2903657459e+00
-9.0017442062e-07	 1.3259417690e+00	-1.5852900370e+00
 7.0554149180e-02	 1.3314653168e+00	-2.2119896946e+00
 5.6334105934e-02	 1.3321427274e+00	-2.2117298390e+00
 4.2166595687e-02	 1.3326664084e+00	-2.2133724333e+00
 2.8053720246e-02	 1.3330381715e+00	-2.2144182209e+00
 1.3997525244e-02	 1.3332598573e+00	-2.2118780621e+00
-8.9614780810e-07	 1.3333494640e+00	-1.4739058483e+00
 1.3333333333e+00	 0.0000000000e+00	 3.7673054654e+00
 1.3332598573e+00	 1.3997525244e-02	 3.7662263992e+00
 1.3330381715e+00	 2.8053720246e-02	 3.7617964485e+00
 1.3326664084e+00	 4.2166595687e-02	 3.7542038418e+00
 1.3321427274e+00	 5.6334105934e-02	 3.7433808033e+00
 1.3314653168e+00	 7.0554149180e-02	 3.7290325547e+00
 1.3407407407e+00	 0.0000000000e+00	 3.7777821832e+00
 1.3406668565e+00	 1.4075289273e-02	 3.7769307570e+00
 1.3404439391e+00	 2.8209574248e-02	 3.7724656203e+00
 1.3400701106e+00	 4.2400854552e-02	 3.7646690522e+00
 1.3395435204e+00	 5.6647073190e-02	 3.7535408818e+00
 1.3388623463e+00	 7.0946116675e-02	 3.7388299303e+00
 1.3481481481e+00	 0.0000000000e+00	 3.7871364544e+00
 1.3480738557e+00	 1.4153053303e-02	 3.7864716584e+00
 1.3478497067e+00	 2.8365428249e-02	 3.7819619180e+00
 1.3474738129e+00	 4.2635113417e-02	 3.7739652213e+00
 1.3469443133e+00	 5.6960040445e-02	 3.7625296606e+00
 1.3462593759e+00	 7.1338084171e-02	 3.7474274481e+00
 1.3555555556e+00	 0.0000000000e+00	 3.7953104101e+00
 1.3554808549e+00	 1.4230817332e-02	 3.7947821105e+00
 1.3552554743e+00	 2.8521282250e-02	 3.7902205860e+00
 1.3548775152e+00	 4.2869372282e-02	 3.7820405776e+00
 1.3543451062e+00	 5.7273007700e-02	 3.7703184476e+00
 1.3536564054e+00	 7.1730051666e-02	 3.7548289092e+00
 1.3629629630e+00	 0.0000000000e+00	 3.8022462238e+00
 1.3628878541e+00	 1.4308581361e-02	 3.8017950575e+00
 1.3626612419e+00	 2.8677136252e-02	 3.7971766931e+00
 1.3622812174e+00	 4.3103631147e-02	 3.7888430362e+00
 1.3617458992e+00	 5.7585974955e-02	 3.7768780601e+00
 1.3610534349e+00	 7.2122019161e-02	 3.7610373910e+00
 1.3703703704e+00	 0.0000000000e+00	 3.8078861097e+00
 1.3702948533e+00	 1.4386345390e-02	 3.8074433804e+00
 1.3700670096e+00	 2.8832990253e-02	 3.8027651341e+00
 1.3696849197e+00	 4.3337890012e-02	 3.7943202062e+00
 1.3691466921e+00	 5.7898942210e-02	 3.7821788396e+00
 1.3684504645e+00	 7.2513986657e-02	 3.7660552703e+00
 1.3314653168e+00	 7.0554149180e-02	 3.7290325547e+00
 1.3306323950e+00	 8.4824567643e-02	 3.7122238791e+00
 1.3296422128e+00	 9.9143147833e-02	 3.6937451062e+00
 1.3284930552e+00	 1.1350762087e-01	 3.6726668659e+00
 1.3271832432e+00	 1.2791566286e-01	 3.6480015785e+00
 1.3257111353e+00	 1.4236489539e-01	 3.6187541510e+00
 1.3388623463e+00	 7.0946116675e-02	 3.7388299303e+00
 1.3380247971e+00	 8.5295815241e-02	 3.7216825600e+00
 1.3370291140e+00	 9.9693943098e-02	 3.7029273525e+00
 1.3358735722e+00	 1.1413821876e-01	 3.6815863687e+00
 1.3345564834e+00	 1.2862630543e-01	 3.6566119743e+00
 1.3330761972e+00	 1.4315581147e-01	 3.6269413187e+00
 1.3462593759e+00	 7.1338084171e-02	 3.7474274481e+00
 1.3454171993e+00	 8.5767062839e-02	 3.7298749098e+00
 1.3444160151e+00	 1.0024473836e-01	 3.7107568437e+00
 1.3432540892e+00	 1.1476881665e-01	 3.6890702255e+00
 1.3419297237e+00	 1.2933694801e-01	 3.6637307688e+00
 1.3404412591e+00	 1.4394672756e-01	 3.6336312848e+00
 1.3536564054e+00	 7.1730051666e-02	 3.7548289092e+00
 1.3528096015e+00	 8.6238310437e-02	 3.7368432099e+00
 1.3518029163e+00	 1.0079553363e-01	 3.7173163693e+00
 1.3506346061e+00	 1.1539941455e-01	 3.6952422416e+00
 1.3493029639e+00	 1.3004759058e-01	 3.6695217534e+00
 1.3478063209e+00	 1.4473764364e-01	 3.6390252440e+00
 1.3610534349e+00	 7.2122019161e-02	 3.7610373910e+00
 1.3602020037e+00	 8.6709558035e-02	 3.7426287706e+00
 1.3591898175e+00	 1.0134632890e-01	 3.7226875396e+00
 1.3580151231e+00	 1.1603001244e-01	 3.7002248758e+00
 1.3566762041e+00	 1.3075823315e-01	 3.6741472436e+00
 1.3551713828e+00	 1.4552855973e-01	 3.6433228258e+00
 1.3684504645e+00	 7.2513986657e-02	 3.7660552703e+00
 1.3675944059e+00	 8.7180805633e-02	 3.7472719636e+00
 1.3665767187e+00	 1.0189712416e-01	 3.7269508267e+00
 1.3653956401e+00	 1.1666061034e-01	 3.7041392847e+00
 1.3640494444e+00	 1.3146887572e-01	 3.6777681263e+00
 1.3625364446e+00	 1.4631947581e-01	 3.6467221392e+00
 1.3257111353e+00	 1.4236489539e-01	 3.6187541510e+00
 1.3240751300e+00	 1.5685288597e-01	 3.5848660769e+00
 1.3222736671e+00	 1.7137714870e-01	 3.5473318233e+00
 1.3203052297e+00	 1.8593514486e-01	 3.5068856283e+00
 1.3181683464e+00	 2.0052428365e-01	 3.4644678136e+00
 1.3158615925e+00	 2.1514192301e-01	 3.4212742578e+00
 1.3330761972e+00	 1.4315581147e-01	 3.6269413187e+00
 1.3314311030e+00	 1.5772429089e-01	 3.5923637290e+00
 1.3296196319e+00	 1.7232924397e-01	 3.5538367377e+00
 1.3276402588e+00	 1.8696811789e-01	 3.5122003900e+00
 1.3254915039e+00	 2.0163830745e-01	 3.4685094520e+00
 1.3231719347e+00	 2.1633715592e-01	 3.4240867936e+00
 1.3404412591e+00	 1.4394672756e-01	 3.6336312848e+00
 1.3387870759e+00	 1.5859569582e-01	 3.5984127251e+00
 1.3369655967e+00	 1.7328133924e-01	 3.5589611675e+00
 1.3349752879e+00	 1.8800109091e-01	 3.5161888493e+00
 1.3328146614e+00	 2.0275233125e-01	 3.4712320274e+00
 1.3304822769e+00	 2.1753238882e-01	 3.4255084994e+00
 1.3478063209e+00	 1.4473764364e-01	 3.6390252440e+00
 1.3461430489e+00	 1.5946710074e-01	 3.6032527545e+00
 1.3443115615e+00	 1.7423343451e-01	 3.5629887175e+00
 1.3423103169e+00	 1.8903406394e-01	 3.5191833773e+00
 1.3401378188e+00	 2.0386635505e-01	 3.4730209680e+00
 1.3377926191e+00	 2.1872762173e-01	 3.4259816073e+00
 1.3551713828e+00	 1.4552855973e-01	 3.6433228258e+00
 1.3534990218e+00	 1.6033850566e-01	 3.6071217769e+00
 1.3516575264e+00	 1.7518552978e-01	 3.5662008961e+00
 1.3496453460e+00	 1.9006703697e-01	 3.5215136587e+00
 1.3474609763e+00	 2.0498037885e-01	 3.4742581823e+00
 1.3451029613e+00	 2.1992285463e-01	 3.4259437331e+00
 1.3625364446e+00	 1.4631947581e-01	 3.6467221392e+00
 1.3608549947e+00	 1.6120991058e-01	 3.6102560647e+00
 1.3590034912e+00	 1.7613762505e-01	 3.5688771574e+00
 1.3569803750e+00	 1.9110000999e-01	 3.5235067353e+00
 1.3547841338e+00	 2.0609440264e-01	 3.4753221055e+00
 1.3524133035e+00	 2.2111808754e-01	 3.4258279271e+00
 1.3158615925e+00	 2.1514192301e-01	 3.4212742578e+00
 1.3133835926e+00	 2.2978537043e-01	 3.3772493090e+00
 1.3107330217e+00	 2.4445188391e-01	 3.3304424757e+00
 1.3079086076e+00	 2.5913867297e-01	 3.2797312213e+00
 1.3049091325e+00	 2.7384289971e-01	 3.2244276975e+00
 1.3017334346e+00	 2.8856167996e-01	 3.1643093861e+00
 1.3231719347e+00	 2.1633715592e-01	 3.4240867936e+00
 1.3206801681e+00	 2.3106195582e-01	 3.3792564137e+00
 1.3180148718e+00	 2.4580994993e-01	 3.3321343916e+00
 1.3151747666e+00	 2.6057833226e-01	 3.2812862156e+00
 1.3121586277e+00	 2.7536424915e-01	 3.2257409236e+00
 1.3089652870e+00	 2.9016480040e-01	 3.1650261243e+00
 1.3304822769e+00	 2.1753238882e-01	 3.4255084994e+00
 1.3279767436e+00	 2.3233854121e-01	 3.3797358971e+00
 1.3252967220e+00	 2.4716801595e-01	 3.3321637667e+00
 1.3224409255e+00	 2.6201799156e-01	 3.2810942559e+00
 1.3194081229e+00	 2.7688559859e-01	 3.2253226558e+00
 1.3161971394e+00	 2.9176792085e-01	 3.1641768426e+00
 1.3377926191e+00	 2.1872762173e-01	 3.4259816073e+00
 1.3352733191e+00	 2.3361512660e-01	 3.3791795729e+00
 1.3325785721e+00	 2.4852608197e-01	 3.3310529355e+00
 1.3297070844e+00	 2.6345765085e-01	 3.2796873319e+00
 1.3266576180e+00	 2.7840694804e-01	 3.2236919130e+00
 1.3234289918e+00	 2.9337104129e-01	 3.1622432534e+00
 1.3451029613e+00	 2.1992285463e-01	 3.4259437331e+00
 1.3425698947e+00	 2.3489171199e-01	 3.3780734860e+00
 1.3398604222e+00	 2.4988414800e-01	 3.3293174829e+00
 1.3369732434e+00	 2.6489731015e-01	 3.2775898862e+00
 1.3339071132e+00	 2.7992829748e-01	 3.2213595646e+00
 1.3306608442e+00	 2.9497416174e-01	 3.1596985245e+00
 1.3524133035e+00	 2.2111808754e-01	 3.4258279271e+00
 1.3498664702e+00	 2.3616829738e-01	 3.3768979638e+00
 1.3471422723e+00	 2.5124221402e-01	 3.3274662852e+00
 1.3442394023e+00	 2.6633696944e-01	 3.2753188331e+00
 1.3411566084e+00	 2.8144964692e-01	 3.2188283141e+00
 1.3378926966e+00	 2.9657728218e-01	 3.1570072155e+00
 1.3017334346e+00	 2.8856167996e-01	 3.1643093861e+00
 1.2983804101e+00	 3.0329208451e-01	 3.0965325753e+00
 1.2948490150e+00	 3.1803114038e-01	 3.0223273455e+00
 1.2911382665e+00	 3.3277583221e-01	 2.9482846912e+00
 1.2872472452e+00	 3.4752310367e-01	 2.8814266353e+00
 1.2831750960e+00	 3.6226985898e-01	 2.8291672637e+00
 1.3089652870e+00	 2.9016480040e-01	 3.1650261243e+00
 1.3055936346e+00	 3.0497704053e-01	 3.0955943201e+00
 1.3020426206e+00	 3.1979798005e-01	 3.0185819390e+00
 1.2983112569e+00	 3.3462458683e-01	 2.9413020449e+00
 1.2943986188e+00	 3.4945378758e-01	 2.8715385168e+00
 1.2903038466e+00	 3.6428246931e-01	 2.8175075339e+00
 1.3161971394e+00	 2.9176792085e-01	 3.1641768426e+00
 1.3128068591e+00	 3.0666199656e-01	 3.0933637630e+00
 1.3092362262e+00	 3.2156481972e-01	 3.0138118624e+00
 1.3054842473e+00	 3.3647334146e-01	 2.9335003549e+00
 1.3015499923e+00	 3.5138447149e-01	 2.8609221725e+00
 1.2974325971e+00	 3.6629507964e-01	 2.8050461469e+00
 1.3234289918e+00	 2.9337104129e-01	 3.1622432534e+00
 1.3200200836e+00	 3.0834695258e-01	 3.0902770964e+00
 1.3164298319e+00	 3.2333165939e-01	 3.0084170417e+00
 1.3126572376e+00	 3.3832209608e-01	 2.9252529254e+00
 1.3087013659e+00	 3.5331515540e-01	 2.8499343754e+00
 1.3045613476e+00	 3.6830768997e-01	 2.7921339419e+00
 1.3306608442e+00	 2.9497416174e-01	 3.1596985245e+00
 1.3272333081e+00	 3.1003190861e-01	 3.0867614076e+00
 1.3236234375e+00	 3.2509849905e-01	 3.0027871720e+00
 1.3198302280e+00	 3.4017085070e-01	 2.9169211118e+00
 1.3158527395e+00	 3.5524583931e-01	 2.8389176159e+00
 1.3116900982e+00	 3.7032030029e-01	 2.7791045009e+00
 1.3378926966e+00	 2.9657728218e-01	 3.1570072155e+00
 1.3344465326e+00	 3.1171686463e-01	 3.0832345635e+00
 1.3308170431e+00	 3.2686533872e-01	 2.9973015575e+00
 1.3270032184e+00	 3.4201960533e-01	 2.9088541237e+00
 1.3230041131e+00	 3.5717652322e-01	 2.8281998744e+00
 1.3188188487e+00	 3.7233291062e-01	 2.7664777925e+00
 1.2831750960e+00	 3.6226985898e-01	 2.8291672637e+00
 1.2789210306e+00	 3.7701296448e-01	 2.7652788255e+00
 1.2744843281e+00	 3.9174925028e-01	 2.6821222920e+00
 1.2698643376e+00	 4.0647551196e-01	 2.5911852227e+00
 1.2650604787e+00	 4.2118851237e-01	 2.4997250532e+00
 1.2600722435e+00	 4.3588498347e-01	 2.4149109875e+00
 1.2903038466e+00	 3.6428246931e-01	 2.8175075339e+00
 1.2860261474e+00	 3.7910748095e-01	 2.7545325729e+00
 1.2815647966e+00	 3.9392563501e-01	 2.6729540584e+00
 1.2769191395e+00	 4.0873370925e-01	 2.5822279314e+00
 1.2720885925e+00	 4.2352844855e-01	 2.4895006739e+00
 1.2670726449e+00	 4.3830656671e-01	 2.4018422117e+00
 1.2974325971e+00	 3.6629507964e-01	 2.8050461469e+00
 1.2931312642e+00	 3.8120199742e-01	 2.7431711200e+00
 1.2886452651e+00	 3.9610201973e-01	 2.6628501400e+00
 1.2839739414e+00	 4.1099190654e-01	 2.5721935299e+00
 1.2791167063e+00	 4.2586838473e-01	 2.4783123371e+00
 1.2740730463e+00	 4.4072814995e-01	 2.3882506189e+00
 1.3045613476e+00	 3.6830768997e-01	 2.7921339419e+00
 1.3002363811e+00	 3.8329651389e-01	 2.7314743910e+00
 1.2957257336e+00	 3.9827840445e-01	 2.6520477680e+00
 1.2910287432e+00	 4.1325010383e-01	 2.5612500906e+00
 1.2861448200e+00	 4.2820832091e-01	 2.4662315335e+00
 1.2810734476e+00	 4.4314973320e-01	 2.3740827378e+00
 1.3116900982e+00	 3.7032030029e-01	 2.7791045009e+00
 1.3073414979e+00	 3.8539103036e-01	 2.7197042539e+00
 1.3028062021e+00	 4.0045478918e-01	 2.6407661184e+00
 1.2980835451e+00	 4.1550830112e-01	 2.5495482628e+00
 1.2931729338e+00	 4.3054825709e-01	 2.4533136168e+00
 1.2880738490e+00	 4.4557131644e-01	 2.3592709264e+00
 1.3188188487e+00	 3.7233291062e-01	 2.7664777925e+00
 1.3144466147e+00	 3.8748554683e-01	 2.7081049296e+00
 1.3098866706e+00	 4.0263117390e-01	 2.6292067491e+00
 1.3051383470e+00	 4.1776649841e-01	 2.5372217224e+00
 1.3002010476e+00	 4.3288819327e-01	 2.4395982530e+00
 1.2950742503e+00	 4.4799289968e-01	 2.3437338028e+00
 1.2600722435e+00	 4.3588498347e-01	 2.4149109875e+00
 1.2548991979e+00	 4.5056162823e-01	 2.3340937188e+00
 1.2495409827e+00	 4.6521512261e-01	 2.2502245646e+00
 1.2439973151e+00	 4.7984211763e-01	 2.1636618568e+00
 1.2382679897e+00	 4.9443924140e-01	 2.0745826775e+00
 1.2323528799e+00	 5.0900310132e-01	 1.9829454835e+00
 1.2670726449e+00	 4.3830656671e-01	 2.4018422117e+00
 1.2618708601e+00	 4.5306474839e-01	 2.3173042170e+00
 1.2564828771e+00	 4.6779965107e-01	 2.2298649145e+00
 1.2509084113e+00	 4.8250790717e-01	 2.1402719398e+00
 1.2451472563e+00	 4.9718612607e-01	 2.0490787012e+00
 1.2391992848e+00	 5.1183089633e-01	 1.9566050944e+00
 1.2740730463e+00	 4.4072814995e-01	 2.3882506189e+00
 1.2688425223e+00	 4.5556786854e-01	 2.3006880328e+00
 1.2634247714e+00	 4.7038417953e-01	 2.2103937227e+00
 1.2578195075e+00	 4.8517369671e-01	 2.1183336518e+00
 1.2520265229e+00	 4.9993301074e-01	 2.0252693352e+00
 1.2460456897e+00	 5.1465869133e-01	 1.9317170618e+00
 1.2810734476e+00	 4.4314973320e-01	 2.3740827378e+00
 1.2758141846e+00	 4.5807098870e-01	 2.2840743251e+00
 1.2703666658e+00	 4.7296870799e-01	 2.1915691160e+00
 1.2647306037e+00	 4.8783948626e-01	 2.0975836011e+00
 1.2589057895e+00	 5.0267989542e-01	 2.0029223127e+00
 1.2528920946e+00	 5.1748648634e-01	 1.9081359651e+00
 1.2880738490e+00	 4.4557131644e-01	 2.3592709264e+00
 1.2827858468e+00	 4.6057410886e-01	 2.2672799465e+00
 1.2773085601e+00	 4.7555323645e-01	 2.1731378376e+00
 1.2716416999e+00	 4.9050527580e-01	 2.0777469249e+00
 1.2657850562e+00	 5.0542678009e-01	 1.9817927287e+00
 1.2597384995e+00	 5.2031428135e-01	 1.8857014323e+00
 1.2950742503e+00	 4.4799289968e-01	 2.3437338028e+00
 1.2897575090e+00	 4.6307722901e-01	 2.2501098630e+00
 1.2842504545e+00	 4.7813776491e-01	 2.1548356835e+00
 1.2785527961e+00	 4.9317106534e-01	 2.0585377717e+00
 1.2726643228e+00	 5.0817366477e-01	 1.9616236013e+00
 1.2665849044e+00	 5.2314207635e-01	 1.8642388117e+00
 1.2323528799e+00	 5.0900310132e-01	 1.9829454835e+00
 1.2262519387e+00	 5.2353028628e-01	 1.8889818863e+00
 1.2199651997e+00	 5.3801736892e-01	 1.7933478881e+00
 1.2134927783e+00	 5.5246090793e-01	 1.6961303673e+00
 1.2068348722e+00	 5.6685745039e-01	 1.5969594080e+00
 1.1999917623e+00	 5.8120353422e-01	 1.4949766041e+00
 1.2391992848e+00	 5.1183089633e-01	 1.9566050944e+00
 1.2330644495e+00	 5.2643878787e-01	 1.8628575586e+00
 1.2267427842e+00	 5.4100635431e-01	 1.7677065856e+00
 1.2202344048e+00	 5.5553013519e-01	 1.6707571637e+00
 1.2135395104e+00	 5.7000665845e-01	 1.5711707696e+00
 1.2066583832e+00	 5.8443244274e-01	 1.4676346314e+00
 1.2460456897e+00	 5.1465869133e-01	 1.9317170618e+00
 1.2398769602e+00	 5.2934728946e-01	 1.8375263551e+00
 1.2335203686e+00	 5.4399533969e-01	 1.7421466138e+00
 1.2269760314e+00	 5.5859936246e-01	 1.6449786034e+00
 1.2202441485e+00	 5.7315586650e-01	 1.5449867733e+00
 1.2133250041e+00	 5.8766135127e-01	 1.4406688099e+00
 1.2528920946e+00	 5.1748648634e-01	 1.9081359651e+00
 1.2466894710e+00	 5.3225579105e-01	 1.8129229547e+00
 1.2402979530e+00	 5.4698432507e-01	 1.7166084636e+00
 1.2337176579e+00	 5.6166858972e-01	 1.6186621557e+00
 1.2269487867e+00	 5.7630507456e-01	 1.5181185283e+00
 1.2199916250e+00	 5.9089025979e-01	 1.4135460904e+00
 1.2597384995e+00	 5.2031428135e-01	 1.8857014323e+00
 1.2535019818e+00	 5.3516429265e-01	 1.7889649805e+00
 1.2470755375e+00	 5.4997331046e-01	 1.6910151395e+00
 1.2404592845e+00	 5.6473781699e-01	 1.5916591437e+00
 1.2336534249e+00	 5.7945428262e-01	 1.4902642000e+00
 1.2266582459e+00	 5.9411916831e-01	 1.3857256369e+00
 1.2665849044e+00	 5.2314207635e-01	 1.8642388117e+00
 1.2603144925e+00	 5.3807279424e-01	 1.7655537788e+00
 1.2538531219e+00	 5.5296229584e-01	 1.6652730034e+00
 1.2472009110e+00	 5.6780704426e-01	 1.5638056045e+00
 1.2403580631e+00	 5.8260349068e-01	 1.4611098393e+00
 1.2333248668e+00	 5.9734807684e-01	 1.3566595736e+00
 1.1999917623e+00	 5.8120353422e-01	 1.4949766041e+00
 1.1929638135e+00	 5.9549569059e-01	 1.3936891704e+00
 1.1857514750e+00	 6.0973044640e-01	 1.2963106813e+00
 1.1783552812e+00	 6.2390432680e-01	 1.2007221391e+00
 1.1707758518e+00	 6.3801385774e-01	 1.1042063790e+00
 1.1630138921e+00	 6.5205556855e-01	 1.0034293330e+00
 1.2066583832e+00	 5.8443244274e-01	 1.4676346314e+00
 1.1995913902e+00	 5.9880399998e-01	 1.3632404371e+00
 1.1923389832e+00	 6.1311783777e-01	 1.2617952291e+00
 1.1849016994e+00	 6.2737046195e-01	 1.1622082035e+00
 1.1772801621e+00	 6.4155837917e-01	 1.0627317039e+00
 1.1694750804e+00	 6.5567809948e-01	 9.6093967403e-01
 1.2133250041e+00	 5.8766135127e-01	 1.4406688099e+00
 1.2062189670e+00	 6.0211230938e-01	 1.3345077450e+00
 1.1989264914e+00	 6.1650522914e-01	 1.2302746373e+00
 1.1914481177e+00	 6.3083659710e-01	 1.1275190514e+00
 1.1837844724e+00	 6.4510290060e-01	 1.0250855589e+00
 1.1759362687e+00	 6.5930063042e-01	 9.2109038993e-01
 1.2199916250e+00	 5.9089025979e-01	 1.4135460904e+00
 1.2128465437e+00	 6.0542061877e-01	 1.3067301193e+00
 1.2055139996e+00	 6.1989262051e-01	 1.2008876767e+00
 1.1979945359e+00	 6.3430273224e-01	 1.0958274701e+00
 1.1902887826e+00	 6.4864742204e-01	 9.9061549295e-01
 1.1823974570e+00	 6.6292316136e-01	 8.8355087948e-01
 1.2266582459e+00	 5.9411916831e-01	 1.3857256369e+00
 1.2194741204e+00	 6.0872892816e-01	 1.2791436435e+00
 1.2121015078e+00	 6.2328001187e-01	 1.1727722796e+00
 1.2045409541e+00	 6.3776886739e-01	 1.0663046197e+00
 1.1967930929e+00	 6.5219194347e-01	 9.5866359961e-01
 1.1888586453e+00	 6.6654569229e-01	 8.4797807088e-01
 1.2333248668e+00	 5.9734807684e-01	 1.3566595736e+00
 1.2261016972e+00	 6.1203723755e-01	 1.2509821328e+00
 1.2186890160e+00	 6.2666740324e-01	 1.1450662151e+00
 1.2110873724e+00	 6.4123500254e-01	 1.0381207884e+00
 1.2032974032e+00	 6.5573646490e-01	 9.2856743372e-01
 1.1953198336e+00	 6.7016822323e-01	 8.1401758714e-01
 1.1630138921e+00	 6.5205556855e-01	 1.0034293330e+00
 1.1550701937e+00	 6.6602599452e-01	 9.0325305745e-01
 1.1469456341e+00	 6.7992167954e-01	 8.0678372740e-01
 1.1386411769e+00	 6.9373917872e-01	 7.0703577408e-01
 1.1301578720e+00	 7.0747506107e-01	 5.9629406404e-01
 1.1214968554e+00	 7.2112591210e-01	 4.6611279354e-01
 1.1694750804e+00	 6.5567809948e-01	 9.6093967403e-01
 1.1614872503e+00	 6.6972613893e-01	 8.6227993488e-01
 1.1533175542e+00	 6.8369902220e-01	 7.6871919266e-01
 1.1449669612e+00	 6.9759328527e-01	 6.7161101183e-01
 1.1364365269e+00	 7.1140547808e-01	 5.6167249305e-01
 1.1277273935e+00	 7.2513216717e-01	 4.2898831206e-01
 1.1759362687e+00	 6.5930063042e-01	 9.2109038993e-01
 1.1679043070e+00	 6.7342628335e-01	 8.2208106954e-01
 1.1596894744e+00	 6.8747636487e-01	 7.3003691095e-01
 1.1512927455e+00	 7.0144739182e-01	 6.3523832713e-01
 1.1427151817e+00	 7.1533589508e-01	 5.2740384598e-01
 1.1339579316e+00	 7.2913842224e-01	 3.9569788727e-01
 1.1823974570e+00	 6.6292316136e-01	 8.8355087948e-01
 1.1743213636e+00	 6.7712642776e-01	 7.8262709854e-01
 1.1660613946e+00	 6.9125370753e-01	 6.9080961718e-01
 1.1576185298e+00	 7.0530149837e-01	 5.9788353933e-01
 1.1489938366e+00	 7.1926631209e-01	 4.9312833188e-01
 1.1401884697e+00	 7.3314467731e-01	 3.6532794870e-01
 1.1888586453e+00	 6.6654569229e-01	 8.4797807088e-01
 1.1807384202e+00	 6.8082657217e-01	 7.4386962456e-01
 1.1724333148e+00	 6.9503105019e-01	 6.5108877162e-01
 1.1639443141e+00	 7.0915560492e-01	 5.5949348217e-01
 1.1552724914e+00	 7.2319672909e-01	 4.5847419384e-01
 1.1464190077e+00	 7.3715093237e-01	 3.3696490716e-01
 1.1953198336e+00	 6.7016822323e-01	 8.1401758714e-01
 1.1871554769e+00	 6.8452671659e-01	 7.0574261704e-01
 1.1788052350e+00	 6.9880839286e-01	 6.1090607920e-01
 1.1702700985e+00	 7.1300971147e-01	 5.1999751787e-01
 1.1615511463e+00	 7.2712714610e-01	 4.2305908893e-01
 1.1526495458e+00	 7.4115718744e-01	 3.0966776625e-01
 1.1214968554e+00	 7.2112591210e-01	 4.6611279354e-01
 1.1126593485e+00	 7.3468833655e-01	 3.6183589696e-01
 1.1036466585e+00	 7.4815896100e-01	 3.0840692198e-01
 1.0944601773e+00	 7.6153443655e-01	 2.3443751472e-01
 1.0851013814e+00	 7.7481144149e-01	 1.3794888833e-01
 1.0755718311e+00	 7.8798668390e-01	 2.4816226576e-02
 1.1277273935e+00	 7.2513216717e-01	 4.2898831206e-01
 1.1188407894e+00	 7.3876993842e-01	 3.1914414890e-01
 1.1097780288e+00	 7.5231539967e-01	 2.6049785379e-01
 1.1005405116e+00	 7.6576518342e-01	 1.8888984592e-01
 1.0911297224e+00	 7.7911594949e-01	 9.2915934810e-02
 1.0815472301e+00	 7.9236438770e-01	-2.0654753968e-02
 1.1339579316e+00	 7.2913842224e-01	 3.9569788727e-01
 1.1250222302e+00	 7.4285154029e-01	 2.8470811297e-01
 1.1159093992e+00	 7.5647183834e-01	 2.0770582631e-01
 1.1066208460e+00	 7.6999593029e-01	 1.3821788986e-01
 1.0971580634e+00	 7.8342045750e-01	 4.7403914775e-02
 1.0875226292e+00	 7.9674209150e-01	-6.3628645436e-02
 1.1401884697e+00	 7.3314467731e-01	 3.6532794870e-01
 1.1312036710e+00	 7.4693314216e-01	 2.5294844148e-01
 1.1220407695e+00	 7.6062827701e-01	 1.6142166556e-01
 1.1127011803e+00	 7.7422667716e-01	 8.1658835294e-02
 1.1031864044e+00	 7.8772496551e-01	 1.6219162448e-04
 1.0934980282e+00	 8.0111979530e-01	-1.0500347576e-01
 1.1464190077e+00	 7.3715093237e-01	 3.3696490716e-01
 1.1373851119e+00	 7.5101474403e-01	 2.2176195214e-01
 1.1281721398e+00	 7.6478471568e-01	 1.2031171551e-01
 1.1187815146e+00	 7.7845742403e-01	 3.0050850302e-02
 1.1092147454e+00	 7.9202947352e-01	-5.0026916791e-02
 1.0994734273e+00	 8.0549749910e-01	-1.4565143999e-01
 1.1526495458e+00	 7.4115718744e-01	 3.0966776625e-01
 1.1435665527e+00	 7.5509634590e-01	 1.8972738896e-01
 1.1343035101e+00	 7.6894115436e-01	 8.2635209509e-02
 1.1248618489e+00	 7.8268817090e-01	-1.3561841382e-02
 1.1152430864e+00	 7.9633398153e-01	-1.0057845095e-01
 1.1054488264e+00	 8.0987520290e-01	-1.8641846799e-01
 1.0755718311e+00	 7.8798668390e-01	 2.4816226576e-02
 1.0658731697e+00	 8.0105690431e-01	-8.9539903864e-02
 1.0560071229e+00	 8.1401887829e-01	-1.9452397468e-01
 1.0459754976e+00	 8.2686941901e-01	-2.8978907909e-01
 1.0357801813e+00	 8.3960537982e-01	-3.7394726220e-01
 1.0254231403e+00	 8.5222365673e-01	-4.4461598540e-01
 1.0815472301e+00	 7.9236438770e-01	-2.0654753968e-02
 1.0717946873e+00	 8.0550722045e-01	-1.3554568497e-01
 1.0618738291e+00	 8.1854120539e-01	-2.4090623056e-01
 1.0517864726e+00	 8.3146313801e-01	-3.3640300368e-01
 1.0415345156e+00	 8.4426985415e-01	-4.2062701066e-01
 1.0311199355e+00	 8.5695823260e-01	-4.9114173403e-01
 1.0875226292e+00	 7.9674209150e-01	-6.3628645436e-02
 1.0777162049e+00	 8.0995753658e-01	-1.7785846989e-01
 1.0677405354e+00	 8.2306353250e-01	-2.8357282684e-01
 1.0575974476e+00	 8.3605685700e-01	-3.7999602797e-01
 1.0472888500e+00	 8.4893432848e-01	-4.6525275971e-01
 1.0368167308e+00	 8.6169280847e-01	-5.3641889613e-01
 1.0934980282e+00	 8.0111979530e-01	-1.0500347576e-01
 1.0836377225e+00	 8.1440785272e-01	-2.1695974968e-01
 1.0736072416e+00	 8.2758585960e-01	-3.2270522505e-01
 1.0634084226e+00	 8.4065057600e-01	-4.2057350055e-01
 1.0530431843e+00	 8.5359880281e-01	-5.0778490955e-01
 1.0425135260e+00	 8.6642738435e-01	-5.8050116625e-01
 1.0994734273e+00	 8.0549749910e-01	-1.4565143999e-01
 1.0895592401e+00	 8.1885816885e-01	-2.5331385725e-01
 1.0794739478e+00	 8.3210818670e-01	-3.5847403393e-01
 1.0692193976e+00	 8.4524429499e-01	-4.5813369058e-01
 1.0587975187e+00	 8.5826327715e-01	-5.4817786201e-01
 1.0482103212e+00	 8.7116196022e-01	-6.2343447132e-01
 1.1054488264e+00	 8.0987520290e-01	-1.8641846799e-01
 1.0954807577e+00	 8.2330848499e-01	-2.8736729999e-01
 1.0853406541e+00	 8.3663051380e-01	-3.9103817520e-01
 1.0750303726e+00	 8.4983801398e-01	-4.9266685937e-01
 1.0645518530e+00	 8.6292775148e-01	-5.8637907485e-01
 1.0539071164e+00	 8.7589653609e-01	-6.6525608871e-01
 1.0254231403e+00	 8.5222365673e-01	-4.4461598540e-01
 1.0149064192e+00	 8.6472119094e-01	-5.1837909400e-01
 1.0042321391e+00	 8.7709497122e-01	-6.0765242052e-01
 9.9340249657e-01	 8.8934203633e-01	-7.0251840573e-01
 9.8241976182e-01	 9.0145947738e-01	-7.9237436901e-01
 9.7128627741e-01	 9.1344444007e-01	-8.6603117225e-01
 1.0311199355e+00	 8.5695823260e-01	-4.9114173403e-01
 1.0205447882e+00	 8.6952519756e-01	-5.6466853648e-01
 1.0098112066e+00	 8.8196772106e-01	-6.5377776795e-01
 9.9892139933e-01	 8.9428282542e-01	-7.4847290696e-01
 9.8787764939e-01	 9.0646758559e-01	-8.3803866503e-01
 9.7668231228e-01	 9.1851913140e-01	-9.1114268688e-01
 1.0368167308e+00	 8.6169280847e-01	-5.3641889613e-01
 1.0261831572e+00	 8.7432920417e-01	-6.0995010965e-01
 1.0153902740e+00	 8.8684047090e-01	-6.9860731181e-01
 1.0044403021e+00	 8.9922361452e-01	-7.9254679141e-01
 9.9333553695e-01	 9.1147569380e-01	-8.8116822984e-01
 9.8207834716e-01	 9.2359382274e-01	-9.5321899802e-01
 1.0425135260e+00	 8.6642738435e-01	-5.8050116625e-01
 1.0318215262e+00	 8.7913321079e-01	-6.5443001512e-01
 1.0209693414e+00	 8.9171322074e-01	-7.4247266729e-01
 1.0099592048e+00	 9.0416440361e-01	-8.3516602862e-01
 9.9879342452e-01	 9.1648380200e-01	-9.2224837170e-01
 9.8747438203e-01	 9.2866851407e-01	-9.9276579684e-01
 1.0482103212e+00	 8.7116196022e-01	-6.2343447132e-01
 1.0374598952e+00	 8.8393721741e-01	-6.9830378006e-01
 1.0265484089e+00	 8.9658597058e-01	-7.8569260021e-01
 1.0154781076e+00	 9.0910519270e-01	-8.7674237427e-01
 1.0042513121e+00	 9.2149191021e-01	-9.6174970814e-01
 9.9287041691e-01	 9.3374320541e-01	-1.0302745703e+00
 1.0539071164e+00	 8.7589653609e-01	-6.6525608871e-01
 1.0430982642e+00	 8.8874122402e-01	-7.4175547348e-01
 1.0321274763e+00	 9.0145872042e-01	-8.2857232560e-01
 1.0209970104e+00	 9.1404598179e-01	-9.1767273274e-01
 1.0097091997e+00	 9.2650001842e-01	-1.0001275718e+00
 9.9826645178e-01	 9.3881789674e-01	-1.0662220274e+00
 9.7128627741e-01	 9.1344444007e-01	-8.6603117225e-01
 9.6000445643e-01	 9.2529412697e-01	-9.3571471929e-01
 9.4857678086e-01	 9.3700579966e-01	-1.0156670956e+00
 9.3700579966e-01	 9.4857678086e-01	-1.0972165206e+00
 9.2529412697e-01	 9.6000445643e-01	-1.1716059558e+00
 9.1344444007e-01	 9.7128627741e-01	-1.2301037209e+00
 9.7668231228e-01	 9.1851913140e-01	-9.1114268688e-01
 9.6533781453e-01	 9.3043464990e-01	-9.8031450928e-01
 9.5384665186e-01	 9.4221138744e-01	-1.0600149006e+00
 9.4221138744e-01	 9.5384665186e-01	-1.1412789503e+00
 9.3043464990e-01	 9.6533781453e-01	-1.2150577272e+00
 9.1851913140e-01	 9.7668231228e-01	-1.2723329753e+00
 9.8207834716e-01	 9.2359382274e-01	-9.5321899802e-01
 9.7067117262e-01	 9.3557517283e-01	-1.0217686376e+00
 9.5911652287e-01	 9.4741697521e-01	-1.1014745417e+00
 9.4741697521e-01	 9.5911652287e-01	-1.1829072259e+00
 9.3557517283e-01	 9.7067117262e-01	-1.2565507972e+00
 9.2359382274e-01	 9.8207834716e-01	-1.3129222245e+00
 9.8747438203e-01	 9.2866851407e-01	-9.9276579684e-01
 9.7600453071e-01	 9.4071569575e-01	-1.0605662404e+00
 9.6438639387e-01	 9.5262256299e-01	-1.1404878638e+00
 9.5262256299e-01	 9.6438639387e-01	-1.2224675329e+00
 9.4071569575e-01	 9.7600453071e-01	-1.2963497133e+00
 9.2866851407e-01	 9.8747438203e-01	-1.3520108092e+00
 9.9287041691e-01	 9.3374320541e-01	-1.0302745703e+00
 9.8133788880e-01	 9.4585621868e-01	-1.0971836449e+00
 9.6965626488e-01	 9.5782815076e-01	-1.1774860607e+00
 9.5782815076e-01	 9.6965626488e-01	-1.2603182619e+00
 9.4585621868e-01	 9.8133788880e-01	-1.3347147178e+00
 9.3374320541e-01	 9.9287041691e-01	-1.3897378232e+00
 9.9826645178e-01	 9.3881789674e-01	-1.0662220274e+00
 9.8667124689e-01	 9.5099674161e-01	-1.1320837948e+00
 9.7492613588e-01	 9.6303373854e-01	-1.2128890812e+00
 9.6303373854e-01	 9.7492613588e-01	-1.2968093798e+00
 9.5099674161e-01	 9.8667124689e-01	-1.3719010697e+00
 9.3881789674e-01	 9.9826645178e-01	-1.4262413712e+00
 9.1344444007e-01	 9.7128627741e-01	-1.2301037209e+00
 9.0145947738e-01	 9.8241976182e-01	-1.2875063963e+00
 8.8934203633e-01	 9.9340249657e-01	-1.3572433417e+00
 8.7709497122e-01	 1.0042321391e+00	-1.4289530072e+00
 8.6472119094e-01	 1.0149064192e+00	-1.4928107709e+00
 8.5222365673e-01	 1.0254231403e+00	-1.5396389030e+00
 9.1851913140e-01	 9.7668231228e-01	-1.2723329753e+00
 9.0646758559e-01	 9.8787764939e-01	-1.3280381327e+00
 8.9428282542e-01	 9.9892139933e-01	-1.3959691049e+00
 8.8196772106e-01	 1.0098112066e+00	-1.4658307053e+00
 8.6952519756e-01	 1.0205447882e+00	-1.5278699892e+00
 8.5695823260e-01	 1.0311199355e+00	-1.5729895637e+00
 9.2359382274e-01	 9.8207834716e-01	-1.3129222245e+00
 9.1147569380e-01	 9.9333553695e-01	-1.3669285041e+00
 8.9922361452e-01	 1.0044403021e+00	-1.4327906350e+00
 8.8684047090e-01	 1.0153902740e+00	-1.5004403771e+00
 8.7432920417e-01	 1.0261831572e+00	-1.5603675596e+00
 8.6169280847e-01	 1.0368167308e+00	-1.6037364304e+00
 9.2866851407e-01	 9.8747438203e-01	-1.3520108092e+00
 9.1648380200e-01	 9.9879342452e-01	-1.4042307285e+00
 9.0416440361e-01	 1.0099592048e+00	-1.4677731312e+00
 8.9171322074e-01	 1.0209693414e+00	-1.5329541974e+00
 8.7913321079e-01	 1.0318215262e+00	-1.5906744070e+00
 8.6642738435e-01	 1.0425135260e+00	-1.6325376280e+00
 9.3374320541e-01	 9.9287041691e-01	-1.3897378232e+00
 9.2149191021e-01	 1.0042513121e+00	-1.4400010267e+00
 9.0910519270e-01	 1.0154781076e+00	-1.5009859407e+00
 8.9658597058e-01	 1.0265484089e+00	-1.5635475820e+00
 8.8393721741e-01	 1.0374598952e+00	-1.6191617941e+00
 8.7116196022e-01	 1.0482103212e+00	-1.6600467781e+00
 9.3881789674e-01	 9.9826645178e-01	-1.4262413712e+00
 9.2650001842e-01	 1.0097091997e+00	-1.4742978411e+00
 9.1404598179e-01	 1.0209970104e+00	-1.5325017953e+00
 9.0145872042e-01	 1.0321274763e+00	-1.5923985003e+00
 8.8874122402e-01	 1.0430982642e+00	-1.6462007641e+00
 8.7589653609e-01	 1.0539071164e+00	-1.6869126248e+00
 8.5222365673e-01	 1.0254231403e+00	-1.5396389030e+00
 8.3960537982e-01	 1.0357801813e+00	-1.5813311091e+00
 8.2686941901e-01	 1.0459754976e+00	-1.6323540263e+00
 8.1401887829e-01	 1.0560071229e+00	-1.6886878322e+00
 8.0105690431e-01	 1.0658731697e+00	-1.7473750599e+00
 7.8798668390e-01	 1.0755718311e+00	-1.8065926407e+00
 8.5695823260e-01	 1.0311199355e+00	-1.5729895637e+00
 8.4426985415e-01	 1.0415345156e+00	-1.6134883461e+00
 8.3146313801e-01	 1.0517864726e+00	-1.6638791244e+00
 8.1854120539e-01	 1.0618738291e+00	-1.7197287906e+00
 8.0550722045e-01	 1.0717946873e+00	-1.7777182849e+00
 7.9236438770e-01	 1.0815472301e+00	-1.8357181534e+00
 8.6169280847e-01	 1.0368167308e+00	-1.6037364304e+00
 8.4893432848e-01	 1.0472888500e+00	-1.6434066528e+00
 8.3605685700e-01	 1.0575974476e+00	-1.6937241227e+00
 8.2306353250e-01	 1.0677405354e+00	-1.7494645239e+00
 8.0995753658e-01	 1.0777162049e+00	-1.8065517040e+00
 7.9674209150e-01	 1.0875226292e+00	-1.8621378304e+00
 8.6642738435e-01	 1.0425135260e+00	-1.6325376280e+00
 8.5359880281e-01	 1.0530431843e+00	-1.6719790809e+00
 8.4065057600e-01	 1.0634084226e+00	-1.7228301365e+00
 8.2758585960e-01	 1.0736072416e+00	-1.7787033162e+00
 8.1440785272e-01	 1.0836377225e+00	-1.8343760585e+00
 8.0111979530e-01	 1.0934980282e+00	-1.8858765512e+00
 8.7116196022e-01	 1.0482103212e+00	-1.6600467781e+00
 8.5826327715e-01	 1.0587975187e+00	-1.7000904443e+00
 8.4524429499e-01	 1.0692193976e+00	-1.7521303275e+00
 8.3210818670e-01	 1.0794739478e+00	-1.8082496575e+00
 8.1885816885e-01	 1.0895592401e+00	-1.8616961837e+00
 8.0549749910e-01	 1.0994734273e+00	-1.9069747548e+00
 8.7589653609e-01	 1.0539071164e+00	-1.6869126248e+00
 8.6292775148e-01	 1.0645518530e+00	-1.7286170984e+00
 8.4983801398e-01	 1.0750303726e+00	-1.7825497285e+00
 8.3663051380e-01	 1.0853406541e+00	-1.8389040091e+00
 8.2330848499e-01	 1.0954807577e+00	-1.8890206132e+00
 8.0987520290e-01	 1.1054488264e+00	-1.9254877846e+00
 7.8798668390e-01	 1.0755718311e+00	-1.8065926407e+00
 7.7481144149e-01	 1.0851013814e+00	-1.8589306915e+00
 7.6153443655e-01	 1.0944601773e+00	-1.8946520790e+00
 7.4815896100e-01	 1.1036466585e+00	-1.9103729327e+00
 7.3468833655e-01	 1.1126593485e+00	-1.9079872598e+00
 7.2112591210e-01	 1.1214968554e+00	-1.9447104337e+00
 7.9236438770e-01	 1.0815472301e+00	-1.8357181534e+00
 7.7911594949e-01	 1.0911297224e+00	-1.8857801235e+00
 7.6576518342e-01	 1.1005405116e+00	-1.9168339115e+00
 7.5231539967e-01	 1.1097780288e+00	-1.9240122335e+00
 7.3876993842e-01	 1.1188407894e+00	-1.9230582242e+00
 7.2513216717e-01	 1.1277273935e+00	-1.9666440618e+00
 7.9674209150e-01	 1.0875226292e+00	-1.8621378304e+00
 7.8342045750e-01	 1.0971580634e+00	-1.9070748606e+00
 7.6999593029e-01	 1.1066208460e+00	-1.9289772174e+00
 7.5647183834e-01	 1.1159093992e+00	-1.9289384075e+00
 7.4285154029e-01	 1.1250222302e+00	-1.9425651075e+00
 7.2913842224e-01	 1.1339579316e+00	-1.9885715056e+00
 8.0111979530e-01	 1.0934980282e+00	-1.8858765512e+00
 7.8772496551e-01	 1.1031864044e+00	-1.9224200295e+00
 7.7422667716e-01	 1.1127011803e+00	-1.9312341080e+00
 7.6062827701e-01	 1.1220407695e+00	-1.9391597471e+00
 7.4693314216e-01	 1.1312036710e+00	-1.9634140474e+00
 7.3314467731e-01	 1.1401884697e+00	-2.0101230679e+00
 8.0549749910e-01	 1.0994734273e+00	-1.9069747548e+00
 7.9202947352e-01	 1.1092147454e+00	-1.9314464675e+00
 7.7845742403e-01	 1.1187815146e+00	-1.9369680757e+00
 7.6478471568e-01	 1.1281721398e+00	-1.9538530216e+00
 7.5101474403e-01	 1.1373851119e+00	-1.9842965720e+00
 7.3715093237e-01	 1.1464190077e+00	-2.0309120802e+00
 8.0987520290e-01	 1.1054488264e+00	-1.9254877846e+00
 7.9633398153e-01	 1.1152430864e+00	-1.9380722793e+00
 7.8268817090e-01	 1.1248618489e+00	-1.9503584427e+00
 7.6894115436e-01	 1.1343035101e+00	-1.9716746583e+00
 7.5509634590e-01	 1.1435665527e+00	-2.0042377138e+00
 7.4115718744e-01	 1.1526495458e+00	-2.0505210419e+00
 7.2112591210e-01	 1.1214968554e+00	-1.9447104337e+00
 7.0747506107e-01	 1.1301578720e+00	-2.0035918384e+00
 6.9373917872e-01	 1.1386411769e+00	-2.0458235266e+00
 6.7992167954e-01	 1.1469456341e+00	-2.0772771567e+00
 6.6602599452e-01	 1.1550701937e+00	-2.1031198128e+00
 6.5205556855e-01	 1.1630138921e+00	-2.1278250331e+00
 7.2513216717e-01	 1.1277273935e+00	-1.9666440618e+00
 7.1140547808e-01	 1.1364365269e+00	-2.0260707715e+00
 6.9759328527e-01	 1.1449669612e+00	-2.0634939850e+00
 6.8369902220e-01	 1.1533175542e+00	-2.0872616938e+00
 6.6972613893e-01	 1.1614872503e+00	-2.1050967558e+00
 6.5567809948e-01	 1.1694750804e+00	-2.1241013215e+00
 7.2913842224e-01	 1.1339579316e+00	-1.9885715056e+00
 7.1533589508e-01	 1.1427151817e+00	-2.0454144951e+00
 7.0144739182e-01	 1.1512927455e+00	-2.0770563962e+00
 6.8747636487e-01	 1.1596894744e+00	-2.0937847934e+00
 6.7342628335e-01	 1.1679043070e+00	-2.1053155021e+00
 6.5930063042e-01	 1.1759362687e+00	-2.1207918584e+00
 7.3314467731e-01	 1.1401884697e+00	-2.0101230679e+00
 7.1926631209e-01	 1.1489938366e+00	-2.0618524586e+00
 7.0530149837e-01	 1.1576185298e+00	-2.0870579291e+00
 6.9125370753e-01	 1.1660613946e+00	-2.0974392236e+00
 6.7712642776e-01	 1.1743213636e+00	-2.1041518734e+00
 6.6292316136e-01	 1.1823974570e+00	-2.1178028011e+00
 7.3715093237e-01	 1.1464190077e+00	-2.0309120802e+00
 7.2319672909e-01	 1.1552724914e+00	-2.0755843027e+00
 7.0915560492e-01	 1.1639443141e+00	-2.0940092404e+00
 6.9503105019e-01	 1.1724333148e+00	-2.0987804728e+00
 6.8082657217e-01	 1.1807384202e+00	-2.1019493772e+00
 6.6654569229e-01	 1.1888586453e+00	-2.1150184818e+00
 7.4115718744e-01	 1.1526495458e+00	-2.0505210419e+00
 7.2712714610e-01	 1.1615511463e+00	-2.0867810206e+00
 7.1300971147e-01	 1.1702700985e+00	-2.0983857830e+00
 6.9880839286e-01	 1.1788052350e+00	-2.0983280450e+00
 6.8452671659e-01	 1.1871554769e+00	-2.0990203336e+00
 6.7016822323e-01	 1.1953198336e+00	-2.1123022173e+00
 6.5205556855e-01	 1.1630138921e+00	-2.1278250331e+00
 6.3801385774e-01	 1.1707758518e+00	-2.1476681237e+00
 6.2390432680e-01	 1.1783552812e+00	-2.1597357207e+00
 6.0973044640e-01	 1.1857514750e+00	-2.1686493067e+00
 5.9549569059e-01	 1.1929638135e+00	-2.1783047624e+00
 5.8120353422e-01	 1.1999917623e+00	-2.1918964495e+00
 6.5567809948e-01	 1.1694750804e+00	-2.1241013215e+00
 6.4155837917e-01	 1.1772801621e+00	-2.1417319291e+00
 6.2737046195e-01	 1.1849016994e+00	-2.1536957152e+00
 6.1311783777e-01	 1.1923389832e+00	-2.1633989487e+00
 5.9880399998e-01	 1.1995913902e+00	-2.1734542177e+00
 5.8443244274e-01	 1.2066583832e+00	-2.1857085268e+00
 6.5930063042e-01	 1.1759362687e+00	-2.1207918584e+00
 6.4510290060e-01	 1.1837844724e+00	-2.1377429968e+00
 6.3083659710e-01	 1.1914481177e+00	-2.1499774954e+00
 6.1650522914e-01	 1.1989264914e+00	-2.1599815544e+00
 6.0211230938e-01	 1.2062189670e+00	-2.1693998801e+00
 5.8766135127e-01	 1.2133250041e+00	-2.1790668286e+00
 6.6292316136e-01	 1.1823974570e+00	-2.1178028011e+00
 6.4864742204e-01	 1.1902887826e+00	-2.1351293117e+00
 6.3430273224e-01	 1.1979945359e+00	-2.1477563984e+00
 6.1989262051e-01	 1.2055139996e+00	-2.1575399037e+00
 6.0542061877e-01	 1.2128465437e+00	-2.1654664003e+00
 5.9089025979e-01	 1.2199916250e+00	-2.1716864218e+00
 6.6654569229e-01	 1.1888586453e+00	-2.1150184818e+00
 6.5219194347e-01	 1.1967930929e+00	-2.1333077423e+00
 6.3776886739e-01	 1.2045409541e+00	-2.1462024905e+00
 6.2328001187e-01	 1.2121015078e+00	-2.1552126093e+00
 6.0872892816e-01	 1.2194741204e+00	-2.1609707503e+00
 5.9411916831e-01	 1.2266582459e+00	-2.1632666982e+00
 6.7016822323e-01	 1.1953198336e+00	-2.1123022173e+00
 6.5573646490e-01	 1.2032974032e+00	-2.1316845276e+00
 6.4123500254e-01	 1.2110873724e+00	-2.1444808615e+00
 6.2666740324e-01	 1.2186890160e+00	-2.1521343478e+00
 6.1203723755e-01	 1.2261016972e+00	-2.1552225158e+00
 5.9734807684e-01	 1.2333248668e+00	-2.1534918518e+00
 5.8120353422e-01	 1.1999917623e+00	-2.1918964495e+00
 5.6685745039e-01	 1.2068348722e+00	-2.2080240484e+00
 5.5246090793e-01	 1.2134927783e+00	-2.2236231353e+00
 5.3801736892e-01	 1.2199651997e+00	-2.2385360298e+00
 5.2353028628e-01	 1.2262519387e+00	-2.2521739142e+00
 5.0900310132e-01	 1.2323528799e+00	-2.2635557467e+00
 5.8443244274e-01	 1.2066583832e+00	-2.1857085268e+00
 5.7000665845e-01	 1.2135395104e+00	-2.1985362705e+00
 5.5553013519e-01	 1.2202344048e+00	-2.2099515310e+00
 5.4100635431e-01	 1.2267427842e+00	-2.2203760225e+00
 5.2643878787e-01	 1.2330644495e+00	-2.2298216368e+00
 5.1183089633e-01	 1.2391992848e+00	-2.2379283453e+00
 5.8766135127e-01	 1.2133250041e+00	-2.1790668286e+00
 5.7315586650e-01	 1.2202441485e+00	-2.1877653641e+00
 5.5859936246e-01	 1.2269760314e+00	-2.1948846015e+00
 5.4399533969e-01	 1.2335203686e+00	-2.2012556322e+00
 5.2934728946e-01	 1.2398769602e+00	-2.2073047300e+00
 5.1465869133e-01	 1.2460456897e+00	-2.2130908918e+00
 5.9089025979e-01	 1.2199916250e+00	-2.1716864218e+00
 5.7630507456e-01	 1.2269487867e+00	-2.1758323706e+00
 5.6166858972e-01	 1.2337176579e+00	-2.1787779380e+00
 5.4698432507e-01	 1.2402979530e+00	-2.1815966596e+00
 5.3225579105e-01	 1.2466894710e+00	-2.1849461034e+00
 5.1748648634e-01	 1.2528920946e+00	-2.1891056953e+00
 5.9411916831e-01	 1.2266582459e+00	-2.1632666982e+00
 5.7945428262e-01	 1.2336534249e+00	-2.1628343744e+00
 5.6473781699e-01	 1.2404592845e+00	-2.1619586735e+00
 5.4997331046e-01	 1.2470755375e+00	-2.1617916614e+00
 5.3516429265e-01	 1.2535019818e+00	-2.1630422836e+00
 5.2031428135e-01	 1.2597384995e+00	-2.1660151147e+00
 5.9734807684e-01	 1.2333248668e+00	-2.1534918518e+00
 5.8260349068e-01	 1.2403580631e+00	-2.1488451721e+00
 5.6780704426e-01	 1.2472009110e+00	-2.1447262436e+00
 5.5296229584e-01	 1.2538531219e+00	-2.1422047034e+00
 5.3807279424e-01	 1.2603144925e+00	-2.1418640611e+00
 5.2314207635e-01	 1.2665849044e+00	-2.1438420071e+00
 5.0900310132e-01	 1.2323528799e+00	-2.2635557467e+00
 4.9443924140e-01	 1.2382679897e+00	-2.2694801767e+00
 4.7984211763e-01	 1.2439973151e+00	-2.2693641940e+00
 4.6521512261e-01	 1.2495409827e+00	-2.2656257735e+00
 4.5056162823e-01	 1.2548991979e+00	-2.2603678874e+00
 4.3588498347e-01	 1.2600722435e+00	-2.2554165429e+00
 5.1183089633e-01	 1.2391992848e+00	-2.2379283453e+00
 4.9718612607e-01	 1.2451472563e+00	-2.2416144895e+00
 4.8250790717e-01	 1.2509084113e+00	-2.2398002637e+00
 4.6779965107e-01	 1.2564828771e+00	-2.2345900776e+00
 4.5306474839e-01	 1.2618708601e+00	-2.2277424302e+00
 4.3830656671e-01	 1.2670726449e+00	-2.2207102112e+00
 5.1465869133e-01	 1.2460456897e+00	-2.2130908918e+00
 4.9993301074e-01	 1.2520265229e+00	-2.2152496279e+00
 4.8517369671e-01	 1.2578195075e+00	-2.2119852978e+00
 4.7038417953e-01	 1.2634247714e+00	-2.2051603842e+00
 4.5556786854e-01	 1.2688425223e+00	-2.1962732186e+00
 4.4072814995e-01	 1.2740730463e+00	-2.1865001417e+00
 5.1748648634e-01	 1.2528920946e+00	-2.1891056953e+00
 5.0267989542e-01	 1.2589057895e+00	-2.1901780444e+00
 4.8783948626e-01	 1.2647306037e+00	-2.1855816064e+00
 4.7296870799e-01	 1.2703666658e+00	-2.1770067300e+00
 4.5807098870e-01	 1.2758141846e+00	-2.1657738915e+00
 4.4314973320e-01	 1.2810734476e+00	-2.1528773114e+00
 5.2031428135e-01	 1.2597384995e+00	-2.1660151147e+00
 5.0542678009e-01	 1.2657850562e+00	-2.1661789344e+00
 4.9050527580e-01	 1.2716416999e+00	-2.1602419551e+00
 4.7555323645e-01	 1.2773085601e+00	-2.1497903795e+00
 4.6057410886e-01	 1.2827858468e+00	-2.1360471881e+00
 4.4557131644e-01	 1.2880738490e+00	-2.1199168148e+00
 5.2314207635e-01	 1.2665849044e+00	-2.1438420071e+00
 5.0817366477e-01	 1.2726643228e+00	-2.1430184782e+00
 4.9317106534e-01	 1.2785527961e+00	-2.1356096832e+00
 4.7813776491e-01	 1.2842504545e+00	-2.1231639001e+00
 4.6307722901e-01	 1.2897575090e+00	-2.1068850608e+00
 4.4799289968e-01	 1.2950742503e+00	-2.0876780942e+00
 4.3588498347e-01	 1.2600722435e+00	-2.2554165429e+00
 4.2118851237e-01	 1.2650604787e+00	-2.2582806954e+00
 4.0647551196e-01	 1.2698643376e+00	-2.2696157306e+00
 3.9174925028e-01	 1.2744843281e+00	-2.2807884859e+00
 3.7701296448e-01	 1.2789210306e+00	-2.2832183761e+00
 3.6226985898e-01	 1.2831750960e+00	-2.2718061547e+00
 4.3830656671e-01	 1.2670726449e+00	-2.2207102112e+00
 4.2352844855e-01	 1.2720885925e+00	-2.2210340694e+00
 4.0873370925e-01	 1.2769191395e+00	-2.2297524525e+00
 3.9392563501e-01	 1.2815647966e+00	-2.2383825171e+00
 3.7910748095e-01	 1.2860261474e+00	-2.2385163893e+00
 3.6428246931e-01	 1.2903038466e+00	-2.2239658907e+00
 4.4072814995e-01	 1.2740730463e+00	-2.1865001417e+00
 4.2586838473e-01	 1.2791167063e+00	-2.1837019430e+00
 4.1099190654e-01	 1.2839739414e+00	-2.1895272452e+00
 3.9610201973e-01	 1.2886452651e+00	-2.1956485808e+00
 3.8120199742e-01	 1.2931312642e+00	-2.1938247621e+00
 3.6629507964e-01	 1.2974325971e+00	-2.1769749550e+00
 4.4314973320e-01	 1.2810734476e+00	-2.1528773114e+00
 4.2820832091e-01	 1.2861448200e+00	-2.1466630999e+00
 4.1325010383e-01	 1.2910287432e+00	-2.1494953176e+00
 3.9827840445e-01	 1.2957257336e+00	-2.1532068888e+00
 3.8329651389e-01	 1.3002363811e+00	-2.1497173541e+00
 3.6830768997e-01	 1.3045613476e+00	-2.1313717860e+00
 4.4557131644e-01	 1.2880738490e+00	-2.1199168148e+00
 4.3054825709e-01	 1.2931729338e+00	-2.1102752814e+00
 4.1550830112e-01	 1.2980835451e+00	-2.1101881435e+00
 4.0045478918e-01	 1.3028062021e+00	-2.1116536894e+00
 3.8539103036e-01	 1.3073414979e+00	-2.1067462925e+00
 3.7032030029e-01	 1.3116900982e+00	-2.0876755720e+00
 4.4799289968e-01	 1.2950742503e+00	-2.0876780942e+00
 4.3288819327e-01	 1.3002010476e+00	-2.0748755393e+00
 4.1776649841e-01	 1.3051383470e+00	-2.0721138730e+00
 4.0263117390e-01	 1.3098866706e+00	-2.0715616734e+00
 3.8748554683e-01	 1.3144466147e+00	-2.0654423071e+00
 3.7233291062e-01	 1.3188188487e+00	-2.0460944861e+00
 3.6226985898e-01	 1.2831750960e+00	-2.2718061547e+00
 3.4752310367e-01	 1.2872472452e+00	-2.2627265989e+00
 3.3277583221e-01	 1.2911382665e+00	-2.2612094520e+00
 3.1803114038e-01	 1.2948490150e+00	-2.2632934386e+00
 3.0329208451e-01	 1.2983804101e+00	-2.2650610171e+00
 2.8856167996e-01	 1.3017334346e+00	-2.2626713052e+00
 3.6428246931e-01	 1.2903038466e+00	-2.2239658907e+00
 3.4945378758e-01	 1.2943986188e+00	-2.2123039747e+00
 3.3462458683e-01	 1.2983112569e+00	-2.2095576172e+00
 3.1979798005e-01	 1.3020426206e+00	-2.2109408518e+00
 3.0497704053e-01	 1.3055936346e+00	-2.2117427954e+00
 2.9016480040e-01	 1.3089652870e+00	-2.2073611870e+00
 3.6629507964e-01	 1.2974325971e+00	-2.1769749550e+00
 3.5138447149e-01	 1.3015499923e+00	-2.1628140768e+00
 3.3647334146e-01	 1.3054842473e+00	-2.1588789137e+00
 3.2156481972e-01	 1.3092362262e+00	-2.1595507407e+00
 3.0666199656e-01	 1.3128068591e+00	-2.1593278531e+00
 2.9176792085e-01	 1.3161971394e+00	-2.1528594527e+00
 3.6830768997e-01	 1.3045613476e+00	-2.1313717860e+00
 3.5331515540e-01	 1.3087013659e+00	-2.1146206630e+00
 3.3832209608e-01	 1.3126572376e+00	-2.1094400422e+00
 3.2333165939e-01	 1.3164298319e+00	-2.1093701915e+00
 3.0834695258e-01	 1.3200200836e+00	-2.1081209132e+00
 2.9337104129e-01	 1.3234289918e+00	-2.0996055129e+00
 3.7032030029e-01	 1.3116900982e+00	-2.0876755720e+00
 3.5524583931e-01	 1.3158527395e+00	-2.0680764988e+00
 3.4017085070e-01	 1.3198302280e+00	-2.0615027985e+00
 3.2509849905e-01	 1.3236234375e+00	-2.0606453054e+00
 3.1003190861e-01	 1.3272333081e+00	-2.0584274730e+00
 2.9497416174e-01	 1.3306608442e+00	-2.0480391583e+00
 3.7233291062e-01	 1.3188188487e+00	-2.0460944861e+00
 3.5717652322e-01	 1.3230041131e+00	-2.0235225320e+00
 3.4201960533e-01	 1.3270032184e+00	-2.0153232404e+00
 3.2686533872e-01	 1.3308170431e+00	-2.0136204053e+00
 3.1171686463e-01	 1.3344465326e+00	-2.0105530968e+00
 2.9657728218e-01	 1.3378926966e+00	-1.9985999880e+00
 2.8856167996e-01	 1.3017334346e+00	-2.2626713052e+00
 2.7384289971e-01	 1.3049091325e+00	-2.2557054155e+00
 2.5913867297e-01	 1.3079086076e+00	-2.2473735148e+00
 2.4445188391e-01	 1.3107330217e+00	-2.2394633036e+00
 2.2978537043e-01	 1.3133835926e+00	-2.2338971375e+00
 2.1514192301e-01	 1.3158615925e+00	-2.2327055239e+00
 2.9016480040e-01	 1.3089652870e+00	-2.2073611870e+00
 2.7536424915e-01	 1.3121586277e+00	-2.1975644434e+00
 2.6057833226e-01	 1.3151747666e+00	-2.1864059575e+00
 2.4580994993e-01	 1.3180148718e+00	-2.1759465142e+00
 2.3106195582e-01	 1.3206801681e+00	-2.1684141250e+00
 2.1633715592e-01	 1.3231719347e+00	-2.1661738134e+00
 2.9176792085e-01	 1.3161971394e+00	-2.1528594527e+00
 2.7688559859e-01	 1.3194081229e+00	-2.1401868015e+00
 2.6201799156e-01	 1.3224409255e+00	-2.1262629985e+00
 2.4716801595e-01	 1.3252967220e+00	-2.1133964768e+00
 2.3233854121e-01	 1.3279767436e+00	-2.1040925046e+00
 2.1753238882e-01	 1.3304822769e+00	-2.1010193091e+00
 2.9337104129e-01	 1.3234289918e+00	-2.0996055129e+00
 2.7840694804e-01	 1.3266576180e+00	-2.0841517249e+00
 2.6345765085e-01	 1.3297070844e+00	-2.0675978201e+00
 2.4852608197e-01	 1.3325785721e+00	-2.0524756655e+00
 2.3361512660e-01	 1.3352733191e+00	-2.0415407187e+00
 2.1872762173e-01	 1.3377926191e+00	-2.0377345361e+00
 2.9497416174e-01	 1.3306608442e+00	-2.0480391583e+00
 2.7992829748e-01	 1.3339071132e+00	-2.0300378556e+00
 2.6489731015e-01	 1.3369732434e+00	-2.0110630122e+00
 2.4988414800e-01	 1.3398604222e+00	-1.9938469235e+00
 2.3489171199e-01	 1.3425698947e+00	-1.9813694902e+00
 2.1992285463e-01	 1.3451029613e+00	-1.9768171476e+00
 2.9657728218e-01	 1.3378926966e+00	-1.9985999880e+00
 2.8144964692e-01	 1.3411566084e+00	-1.9784228087e+00
 2.6633696944e-01	 1.3442394023e+00	-1.9573102396e+00
 2.5124221402e-01	 1.3471422723e+00	-1.9381731964e+00
 2.3616829738e-01	 1.3498664702e+00	-1.9241915837e+00
 2.2111808754e-01	 1.3524133035e+00	-1.9187696794e+00
 2.1514192301e-01	 1.3158615925e+00	-2.2327055239e+00
 2.0052428365e-01	 1.3181683464e+00	-2.2345792559e+00
 1.8593514486e-01	 1.3203052297e+00	-2.2361244215e+00
 1.7137714870e-01	 1.3222736671e+00	-2.2362639778e+00
 1.5685288597e-01	 1.3240751300e+00	-2.2338332887e+00
 1.4236489539e-01	 1.3257111353e+00	-2.2275396725e+00
 2.1633715592e-01	 1.3231719347e+00	-2.1661738134e+00
 2.0163830745e-01	 1.3254915039e+00	-2.1676029557e+00
 1.8696811789e-01	 1.3276402588e+00	-2.1686643432e+00
 1.7232924397e-01	 1.3296196319e+00	-2.1681510413e+00
 1.5772429089e-01	 1.3314311030e+00	-2.1647806688e+00
 1.4315581147e-01	 1.3330761972e+00	-2.1571514998e+00
 2.1753238882e-01	 1.3304822769e+00	-2.1010193091e+00
 2.0275233125e-01	 1.3328146614e+00	-2.1021824804e+00
 1.8800109091e-01	 1.3349752879e+00	-2.1028746855e+00
 1.7328133924e-01	 1.3369655967e+00	-2.1017760058e+00
 1.5859569582e-01	 1.3387870759e+00	-2.0975071048e+00
 1.4394672756e-01	 1.3404412591e+00	-2.0885816210e+00
 2.1872762173e-01	 1.3377926191e+00	-2.0377345361e+00
 2.0386635505e-01	 1.3401378188e+00	-2.0386774597e+00
 1.8903406394e-01	 1.3423103169e+00	-2.0390094560e+00
 1.7423343451e-01	 1.3443115615e+00	-2.0373150667e+00
 1.5946710074e-01	 1.3461430489e+00	-2.0321393338e+00
 1.4473764364e-01	 1.3478063209e+00	-2.0219362174e+00
 2.1992285463e-01	 1.3451029613e+00	-1.9768171476e+00
 2.0498037885e-01	 1.3474609763e+00	-1.9774554810e+00
 1.9006703697e-01	 1.3496453460e+00	-1.9773324926e+00
 1.7518552978e-01	 1.3516575264e+00	-1.9749551788e+00
 1.6033850566e-01	 1.3534990218e+00	-1.9688148531e+00
 1.4552855973e-01	 1.3551713828e+00	-1.9573313195e+00
 2.2111808754e-01	 1.3524133035e+00	-1.9187696794e+00
 2.0609440264e-01	 1.3547841338e+00	-1.9188918270e+00
 1.9110000999e-01	 1.3569803750e+00	-1.9181172010e+00
 1.7613762505e-01	 1.3590034912e+00	-1.9148938098e+00
 1.6120991058e-01	 1.3608549947e+00	-1.9076817067e+00
 1.4631947581e-01	 1.3625364446e+00	-1.8948926428e+00
 1.4236489539e-01	 1.3257111353e+00	-2.2275396725e+00
 1.2791566286e-01	 1.3271832432e+00	-2.2204786984e+00
 1.1350762087e-01	 1.3284930552e+00	-2.2162974803e+00
 9.9143147833e-02	 1.3296422128e+00	-2.2142317543e+00
 8.4824567643e-02	 1.3306323950e+00	-2.2132455356e+00
 7.0554149180e-02	 1.3314653168e+00	-2.2119896946e+00
 1.4315581147e-01	 1.3330761972e+00	-2.1571514998e+00
 1.2862630543e-01	 1.3345564834e+00	-2.1485901048e+00
 1.1413821876e-01	 1.3358735722e+00	-2.1431028768e+00
 9.9693943098e-02	 1.3370291140e+00	-2.1400116057e+00
 8.5295815241e-02	 1.3380247971e+00	-2.1383609567e+00
 7.0946116675e-02	 1.3388623463e+00	-2.1368732851e+00
 1.4394672756e-01	 1.3404412591e+00	-2.0885816210e+00
 1.2933694801e-01	 1.3419297237e+00	-2.0785884123e+00
 1.1476881665e-01	 1.3432540892e+00	-2.0718966409e+00
 1.0024473836e-01	 1.3444160151e+00	-2.0678994139e+00
 8.5767062839e-02	 1.3454171993e+00	-2.0657072217e+00
 7.1338084171e-02	 1.3462593759e+00	-2.0640988914e+00
 1.4473764364e-01	 1.3478063209e+00	-2.0219362174e+00
 1.3004759058e-01	 1.3493029639e+00	-2.0105678921e+00
 1.1539941455e-01	 1.3506346061e+00	-2.0027501227e+00
 1.0079553363e-01	 1.3518029163e+00	-1.9979340574e+00
 8.6238310437e-02	 1.3528096015e+00	-1.9952826593e+00
 7.1730051666e-02	 1.3536564054e+00	-1.9936176962e+00
 1.4552855973e-01	 1.3551713828e+00	-1.9573313195e+00
 1.3075823315e-01	 1.3566762041e+00	-1.9446313131e+00
 1.1603001244e-01	 1.3580151231e+00	-1.9357418353e+00
 1.0134632890e-01	 1.3591898175e+00	-1.9301602596e+00
 8.6709558035e-02	 1.3602020037e+00	-1.9270901445e+00
 7.2122019161e-02	 1.3610534349e+00	-1.9253841487e+00
 1.4631947581e-01	 1.3625364446e+00	-1.8948926428e+00
 1.3146887572e-01	 1.3640494444e+00	-1.8808898298e+00
 1.1666061034e-01	 1.3653956401e+00	-1.8709573877e+00
 1.0189712416e-01	 1.3665767187e+00	-1.8646285610e+00
 8.7180805633e-02	 1.3675944059e+00	-1.8611371011e+00
 7.2513986657e-02	 1.3684504645e+00	-1.8593559915e+00
 7.0554149180e-02	 1.3314653168e+00	-2.2119896946e+00
 5.6334105934e-02	 1.3321427274e+00	-2.2117298390e+00
 4.2166595687e-02	 1.3326664084e+00	-2.2133724333e+00
 2.8053720246e-02	 1.3330381715e+00	-2.2144182209e+00
 1.3997525244e-02	 1.3332598573e+00	-2.2118780621e+00
-8.9614780810e-07	 1.3333494640e+00	-1.4739058483e+00
 7.0946116675e-02	 1.3388623463e+00	-2.1368732851e+00
 5.6647073190e-02	 1.3395435204e+00	-2.1365684612e+00
 4.2400854552e-02	 1.3400701106e+00	-2.1380627967e+00
 2.8209574248e-02	 1.3404439391e+00	-2.1388350926e+00
 1.4075289273e-02	 1.3406668565e+00	-2.1358483756e+00
-8.9186960570e-07	 1.3407571511e+00	-1.3649186292e+00
 7.1338084171e-02	 1.3462593759e+00	-2.0640988914e+00
 5.6960040445e-02	 1.3469443133e+00	-2.0638187274e+00
 4.2635113417e-02	 1.3474738129e+00	-2.0651888223e+00
 2.8365428249e-02	 1.3478497067e+00	-2.0656899697e+00
 1.4153053303e-02	 1.3480738557e+00	-2.0622618116e+00
-8.8734192567e-07	 1.3481648302e+00	-1.2584417293e+00
 7.1730051666e-02	 1.3536564054e+00	-1.9936176962e+00
 5.7273007700e-02	 1.3543451062e+00	-1.9933909656e+00
 4.2869372282e-02	 1.3548775152e+00	-1.9946386738e+00
 2.8521282250e-02	 1.3552554743e+00	-1.9948682763e+00
 1.4230817332e-02	 1.3554808549e+00	-1.9910211890e+00
-8.8256678890e-07	 1.3555725008e+00	-1.1544751258e+00
 7.2122019161e-02	 1.3610534349e+00	-1.9253841487e+00
 5.7585974955e-02	 1.3617458992e+00	-1.9251972633e+00
 4.3103631147e-02	 1.3622812174e+00	-1.9263003050e+00
 2.8677136252e-02	 1.3626612419e+00	-1.9262528121e+00
 1.4308581361e-02	 1.3628878541e+00	-1.9220238618e+00
-8.7754621625e-07	 1.3629801629e+00	-1.0530112187e+00
 7.2513986657e-02	 1.3684504645e+00	-1.8593559915e+00
 5.7898942210e-02	 1.3691466921e+00	-1.8591515205e+00
 4.3337890012e-02	 1.3696849197e+00	-1.8600615462e+00
 2.8832990253e-02	 1.3700670096e+00	-1.8597238808e+00
 1.4386345390e-02	 1.3702948533e+00	-1.8551618969e+00
-8.7228222863e-07	 1.3703878160e+00	-9.5403506612e-01
 1.3703703704e+00	 0.0000000000e+00	 3.8078861097e+00
 1.3702948533e+00	 1.4386345390e-02	 3.8074433804e+00
 1.3700670096e+00	 2.8832990253e-02	 3.8027651341e+00
 1.3696849197e+00	 4.3337890012e-02	 3.7943202062e+00
 1.3691466921e+00	 5.7898942210e-02	 3.7821788396e+00
 1.3684504645e+00	 7.2513986657e-02	 3.7660552703e+00
 1.3777777778e+00	 0.0000000000e+00	 3.8124252334e+00
 1.3777018525e+00	 1.4464109419e-02	 3.8119790489e+00
 1.3774727772e+00	 2.8988844254e-02	 3.8072422571e+00
 1.3770886220e+00	 4.3572148877e-02	 3.7986985619e+00
 1.3765474850e+00	 5.8211909465e-02	 3.7864015571e+00
 1.3758474940e+00	 7.2905954152e-02	 3.7700204320e+00
 1.3851851852e+00	 0.0000000000e+00	 3.8160558409e+00
 1.3851088517e+00	 1.4541873448e-02	 3.8156561729e+00
 1.3848785448e+00	 2.9144698256e-02	 3.8108712944e+00
 1.3844923242e+00	 4.3806407742e-02	 3.8022154644e+00
 1.3839482780e+00	 5.8524876721e-02	 3.7897406987e+00
 1.3832445236e+00	 7.3297921648e-02	 3.7730856931e+00
 1.3925925926e+00	 0.0000000000e+00	 3.8187158965e+00
 1.3925158509e+00	 1.4619637477e-02	 3.8184106940e+00
 1.3922843124e+00	 2.9300552257e-02	 3.8135970447e+00
 1.3918960265e+00	 4.4040666607e-02	 3.8048341470e+00
 1.3913490709e+00	 5.8837843976e-02	 3.7921861657e+00
 1.3906415531e+00	 7.3689889143e-02	 3.7752744697e+00
 1.4000000000e+00	 0.0000000000e+00	 3.8203434934e+00
 1.3999228502e+00	 1.4697401507e-02	 3.8201784200e+00
 1.3996900800e+00	 2.9456406259e-02	 3.8153639211e+00
 1.3992997288e+00	 4.4274925472e-02	 3.8065172152e+00
 1.3987498638e+00	 5.9150811231e-02	 3.7937269933e+00
 1.3980385826e+00	 7.4081856639e-02	 3.7766090755e+00
 1.4074074074e+00	 0.0000000000e+00	 3.8208768508e+00
 1.4073298494e+00	 1.4775165536e-02	 3.8208950257e+00
 1.4070958476e+00	 2.9612260260e-02	 3.8161159589e+00
 1.4067034311e+00	 4.4509184337e-02	 3.8072266615e+00
 1.4061506567e+00	 5.9463778486e-02	 3.7943513749e+00
 1.4054356122e+00	 7.4473824134e-02	 3.7771107551e+00
 1.3684504645e+00	 7.2513986657e-02	 3.7660552703e+00
 1.3675944059e+00	 8.7180805633e-02	 3.7472719636e+00
 1.3665767187e+00	 1.0189712416e-01	 3.7269508267e+00
 1.3653956401e+00	 1.1666061034e-01	 3.7041392847e+00
 1.3640494444e+00	 1.3146887572e-01	 3.6777681263e+00
 1.3625364446e+00	 1.4631947581e-01	 3.6467221392e+00
 1.3758474940e+00	 7.2905954152e-02	 3.7700204320e+00
 1.3749868081e+00	 8.7652053231e-02	 3.7508819634e+00
 1.3739636199e+00	 1.0244791943e-01	 3.7301903190e+00
 1.3727761571e+00	 1.1729120823e-01	 3.7070339481e+00
 1.3714226846e+00	 1.3217951829e-01	 3.6803725161e+00
 1.3699015065e+00	 1.4711039190e-01	 3.6491118852e+00
 1.3832445236e+00	 7.3297921648e-02	 3.7730856931e+00
 1.3823792103e+00	 8.8123300829e-02	 3.7535839405e+00
 1.3813505211e+00	 1.0299871469e-01	 3.7325089489e+00
 1.3801566740e+00	 1.1792180612e-01	 3.7089810987e+00
 1.3787959249e+00	 1.3289016086e-01	 3.6819795287e+00
 1.3772665684e+00	 1.4790130799e-01	 3.6504216345e+00
 1.3906415531e+00	 7.3689889143e-02	 3.7752744697e+00
 1.3897716125e+00	 8.8594548427e-02	 3.7554405398e+00
 1.3887374222e+00	 1.0354950996e-01	 3.7340133809e+00
 1.3875371910e+00	 1.1855240402e-01	 3.7101350966e+00
 1.3861691651e+00	 1.3360080343e-01	 3.6827937652e+00
 1.3846316302e+00	 1.4869222407e-01	 3.6509076329e+00
 1.3980385826e+00	 7.4081856639e-02	 3.7766090755e+00
 1.3971640147e+00	 8.9065796025e-02	 3.7565130597e+00
 1.3961243234e+00	 1.0410030522e-01	 3.7348086642e+00
 1.3949177080e+00	 1.1918300191e-01	 3.7106483826e+00
 1.3935424053e+00	 1.3431144601e-01	 3.6830175565e+00
 1.3919966921e+00	 1.4948314016e-01	 3.6508234461e+00
 1.4054356122e+00	 7.4473824134e-02	 3.7771107551e+00
 1.4045564169e+00	 8.9537043623e-02	 3.7568614923e+00
 1.4035112246e+00	 1.0465110049e-01	 3.7349982820e+00
 1.4022982250e+00	 1.1981359980e-01	 3.7106715357e+00
 1.4009156456e+00	 1.3502208858e-01	 3.6828510275e+00
 1.3993617540e+00	 1.5027405624e-01	 3.6504200303e+00
 1.3625364446e+00	 1.4631947581e-01	 3.6467221392e+00
 1.3608549947e+00	 1.6120991058e-01	 3.6102560647e+00
 1.3590034912e+00	 1.7613762505e-01	 3.5688771574e+00
 1.3569803750e+00	 1.9110000999e-01	 3.5235067353e+00
 1.3547841338e+00	 2.0609440264e-01	 3.4753221055e+00
 1.3524133035e+00	 2.2111808754e-01	 3.4258279271e+00
 1.3699015065e+00	 1.4711039190e-01	 3.6491118852e+00
 1.3682109677e+00	 1.6208131550e-01	 3.6124021553e+00
 1.3663494560e+00	 1.7708972032e-01	 3.5706036816e+00
 1.3643154041e+00	 1.9213298302e-01	 3.5245982679e+00
 1.3621072913e+00	 2.0720842644e-01	 3.4755356503e+00
 1.3597236456e+00	 2.2231332045e-01	 3.4249099055e+00
 1.3772665684e+00	 1.4790130799e-01	 3.6504216345e+00
 1.3755669406e+00	 1.6295272043e-01	 3.6133552294e+00
 1.3736954208e+00	 1.7804181559e-01	 3.5710156274e+00
 1.3716504331e+00	 1.9316595605e-01	 3.5242651287e+00
 1.3694304488e+00	 2.0832245024e-01	 3.4742464099e+00
 1.3670339878e+00	 2.2350855335e-01	 3.4224641100e+00
 1.3846316302e+00	 1.4869222407e-01	 3.6509076329e+00
 1.3829229136e+00	 1.6382412535e-01	 3.6134209080e+00
 1.3810413856e+00	 1.7899391086e-01	 3.5704617275e+00
 1.3789854622e+00	 1.9419892907e-01	 3.5228912784e+00
 1.3767536062e+00	 2.0943647404e-01	 3.4718640798e+00
 1.3743443300e+00	 2.2470378626e-01	 3.4189148868e+00
 1.3919966921e+00	 1.4948314016e-01	 3.6508234461e+00
 1.3902788865e+00	 1.6469553027e-01	 3.6129017051e+00
 1.3883873504e+00	 1.7994600614e-01	 3.5692872137e+00
 1.3863204912e+00	 1.9523190210e-01	 3.5208568135e+00
 1.3840767637e+00	 2.1055049784e-01	 3.4687941588e+00
 1.3816546722e+00	 2.2589901916e-01	 3.4146820839e+00
 1.3993617540e+00	 1.5027405624e-01	 3.6504200303e+00
 1.3976348595e+00	 1.6556693519e-01	 3.6120971022e+00
 1.3957333153e+00	 1.8089810141e-01	 3.5678338895e+00
 1.3936555203e+00	 1.9626487513e-01	 3.5185380328e+00
 1.3913999212e+00	 2.1166452164e-01	 3.4654380034e+00
 1.3889650144e+00	 2.2709425207e-01	 3.4101810873e+00
 1.3524133035e+00	 2.2111808754e-01	 3.4258279271e+00
 1.3498664702e+00	 2.3616829738e-01	 3.3768979638e+00
 1.3471422723e+00	 2.5124221402e-01	 3.3274662852e+00
 1.3442394023e+00	 2.6633696944e-01	 3.2753188331e+00
 1.3411566084e+00	 2.8144964692e-01	 3.2188283141e+00
 1.3378926966e+00	 2.9657728218e-01	 3.1570072155e+00
 1.3597236456e+00	 2.2231332045e-01	 3.4249099055e+00
 1.3571630457e+00	 2.3744488278e-01	 3.3749576267e+00
 1.3544241224e+00	 2.5260028004e-01	 3.3248790527e+00
 1.3515055612e+00	 2.6777662873e-01	 3.2723424217e+00
 1.3484061036e+00	 2.8297099636e-01	 3.2156361679e+00
 1.3451245490e+00	 2.9818040262e-01	 3.1537266644e+00
 1.3670339878e+00	 2.2350855335e-01	 3.4224641100e+00
 1.3644596212e+00	 2.3872146817e-01	 3.3715307371e+00
 1.3617059726e+00	 2.5395834606e-01	 3.3208961392e+00
 1.3587717202e+00	 2.6921628803e-01	 3.2680893457e+00
 1.3556555988e+00	 2.8449234581e-01	 3.2112948850e+00
 1.3523564015e+00	 2.9978352307e-01	 3.1494154820e+00
 1.3743443300e+00	 2.2470378626e-01	 3.4189148868e+00
 1.3717561967e+00	 2.3999805356e-01	 3.3670501362e+00
 1.3689878227e+00	 2.5531641208e-01	 3.3159582056e+00
 1.3660378791e+00	 2.7065594732e-01	 3.2630066932e+00
 1.3629050939e+00	 2.8601369525e-01	 3.2062559123e+00
 1.3595882539e+00	 3.0138664351e-01	 3.1445267754e+00
 1.3816546722e+00	 2.2589901916e-01	 3.4146820839e+00
 1.3790527722e+00	 2.4127463895e-01	 3.3619437595e+00
 1.3762696728e+00	 2.5667447810e-01	 3.3105003465e+00
 1.3733040380e+00	 2.7209560662e-01	 3.2575350578e+00
 1.3701545891e+00	 2.8753504469e-01	 3.2009629929e+00
 1.3668201063e+00	 3.0298976396e-01	 3.1395044444e+00
 1.3889650144e+00	 2.2709425207e-01	 3.4101810873e+00
 1.3863493477e+00	 2.4255122434e-01	 3.3566346519e+00
 1.3835515229e+00	 2.5803254413e-01	 3.3049520837e+00
 1.3805701970e+00	 2.7353526591e-01	 3.2521085113e+00
 1.3774040843e+00	 2.8905639414e-01	 3.1958521169e+00
 1.3740519587e+00	 3.0459288440e-01	 3.1347831106e+00
 1.3378926966e+00	 2.9657728218e-01	 3.1570072155e+00
 1.3344465326e+00	 3.1171686463e-01	 3.0832345635e+00
 1.3308170431e+00	 3.2686533872e-01	 2.9973015575e+00
 1.3270032184e+00	 3.4201960533e-01	 2.9088541237e+00
 1.3230041131e+00	 3.5717652322e-01	 2.8281998744e+00
 1.3188188487e+00	 3.7233291062e-01	 2.7664777925e+00
 1.3451245490e+00	 2.9818040262e-01	 3.1537266644e+00
 1.3416597571e+00	 3.1340182066e-01	 3.0792162063e+00
 1.3380106488e+00	 3.2863217839e-01	 2.9914261437e+00
 1.3341762087e+00	 3.4386835995e-01	 2.9004880361e+00
 1.3301554867e+00	 3.5910720713e-01	 2.8172503100e+00
 1.3259475992e+00	 3.7434552095e-01	 2.7540482892e+00
 1.3523564015e+00	 2.9978352307e-01	 3.1494154820e+00
 1.3488729816e+00	 3.1508677668e-01	 3.0742539911e+00
 1.3452042544e+00	 3.3039901806e-01	 2.9846647758e+00
 1.3413491991e+00	 3.4571711457e-01	 2.8912889385e+00
 1.3373068603e+00	 3.6103789104e-01	 2.8055415315e+00
 1.3330763498e+00	 3.7635813128e-01	 2.7413261581e+00
 1.3595882539e+00	 3.0138664351e-01	 3.1445267754e+00
 1.3560862061e+00	 3.1677173271e-01	 3.0687927182e+00
 1.3523978601e+00	 3.3216585773e-01	 2.9774363675e+00
 1.3485221895e+00	 3.4756586920e-01	 2.8816312240e+00
 1.3444582338e+00	 3.6296857495e-01	 2.7933837991e+00
 1.3402051003e+00	 3.7837074160e-01	 2.7284884730e+00
 1.3668201063e+00	 3.0298976396e-01	 3.1395044444e+00
 1.3632994306e+00	 3.1845668873e-01	 3.0632663124e+00
 1.3595914657e+00	 3.3393269740e-01	 2.9701472652e+00
 1.3556951798e+00	 3.4941462382e-01	 2.8718750057e+00
 1.3516096074e+00	 3.6489925885e-01	 2.7810713634e+00
 1.3473338508e+00	 3.8038335193e-01	 2.7156974441e+00
 1.3740519587e+00	 3.0459288440e-01	 3.1347831106e+00
 1.3705126551e+00	 3.2014164476e-01	 3.0580977281e+00
 1.3667850713e+00	 3.3569953707e-01	 2.9631911197e+00
 1.3628681702e+00	 3.5126337844e-01	 2.8623659469e+00
 1.3587609810e+00	 3.6682994276e-01	 2.7688822460e+00
 1.3544626014e+00	 3.8239596226e-01	 2.7031007551e+00
 1.3188188487e+00	 3.7233291062e-01	 2.7664777925e+00
 1.3144466147e+00	 3.8748554683e-01	 2.7081049296e+00
 1.3098866706e+00	 4.0263117390e-01	 2.6292067491e+00
 1.3051383470e+00	 4.1776649841e-01	 2.5372217224e+00
 1.3002010476e+00	 4.3288819327e-01	 2.4395982530e+00
 1.2950742503e+00	 4.4799289968e-01	 2.3437338028e+00
 1.3259475992e+00	 3.7434552095e-01	 2.7540482892e+00
 1.3215517316e+00	 3.8958006330e-01	 2.6964744033e+00
 1.3169671391e+00	 4.0480755862e-01	 2.6174574799e+00
 1.3121931489e+00	 4.2002469570e-01	 2.5246174070e+00
 1.3072291613e+00	 4.3522812945e-01	 2.4255882312e+00
 1.3020746517e+00	 4.5041448292e-01	 2.3279554540e+00
 1.3330763498e+00	 3.7635813128e-01	 2.7413261581e+00
 1.3286568484e+00	 3.9167457977e-01	 2.6845276618e+00
 1.3240476076e+00	 4.0698394335e-01	 2.6055055992e+00
 1.3192479507e+00	 4.2228289298e-01	 2.5119902602e+00
 1.3142572751e+00	 4.3756806563e-01	 2.4117305834e+00
 1.3090750530e+00	 4.5283606616e-01	 2.3124297598e+00
 1.3402051003e+00	 3.7837074160e-01	 2.7284884730e+00
 1.3357619652e+00	 3.9376909624e-01	 2.6723607538e+00
 1.3311280761e+00	 4.0916032807e-01	 2.5933787412e+00
 1.3263027526e+00	 4.2454109027e-01	 2.4993136631e+00
 1.3212853889e+00	 4.3990800181e-01	 2.3979601284e+00
 1.3160754544e+00	 4.5525764940e-01	 2.2970701740e+00
 1.3473338508e+00	 3.8038335193e-01	 2.7156974441e+00
 1.3428670821e+00	 3.9586361271e-01	 2.6600557572e+00
 1.3382085445e+00	 4.1133671280e-01	 2.5810912596e+00
 1.3333575545e+00	 4.2679928756e-01	 2.4865481743e+00
 1.3283135027e+00	 4.4224793799e-01	 2.3841990601e+00
 1.3230758557e+00	 4.5767923265e-01	 2.2817774335e+00
 1.3544626014e+00	 3.8239596226e-01	 2.7031007551e+00
 1.3499721989e+00	 3.9795812918e-01	 2.6476811217e+00
 1.3452890130e+00	 4.1351309752e-01	 2.5686445825e+00
 1.3404123564e+00	 4.2905748485e-01	 2.4736419075e+00
 1.3353416164e+00	 4.4458787417e-01	 2.3703573573e+00
 1.3300762571e+00	 4.6010081589e-01	 2.2664400103e+00
 1.2950742503e+00	 4.4799289968e-01	 2.3437338028e+00
 1.2897575090e+00	 4.6307722901e-01	 2.2501098630e+00
 1.2842504545e+00	 4.7813776491e-01	 2.1548356835e+00
 1.2785527961e+00	 4.9317106534e-01	 2.0585377717e+00
 1.2726643228e+00	 5.0817366477e-01	 1.9616236013e+00
 1.2665849044e+00	 5.2314207635e-01	 1.8642388117e+00
 1.3020746517e+00	 4.5041448292e-01	 2.3279554540e+00
 1.2967291712e+00	 4.6558034917e-01	 2.2328416959e+00
 1.2911923488e+00	 4.8072229337e-01	 2.1366568155e+00
 1.2854638922e+00	 4.9583685488e-01	 2.0397042929e+00
 1.2795435894e+00	 5.1092054944e-01	 1.9420670199e+00
 1.2734313092e+00	 5.2596987136e-01	 1.8435643541e+00
 1.3090750530e+00	 4.5283606616e-01	 2.3124297598e+00
 1.3037008334e+00	 4.6808346933e-01	 2.2158256353e+00
 1.2981342431e+00	 4.8330682183e-01	 2.1186931090e+00
 1.2923749884e+00	 4.9850264443e-01	 2.0210773325e+00
 1.2864228560e+00	 5.1366743412e-01	 1.9228000655e+00
 1.2802777141e+00	 5.2879766637e-01	 1.8234164347e+00
 1.3160754544e+00	 4.5525764940e-01	 2.2970701740e+00
 1.3106724956e+00	 4.7058658948e-01	 2.1989569400e+00
 1.3050761375e+00	 4.8589135029e-01	 2.1008092534e+00
 1.2992860846e+00	 5.0116843397e-01	 2.0024778358e+00
 1.2933021226e+00	 5.1641431879e-01	 1.9035859534e+00
 1.2871241190e+00	 5.3162546138e-01	 1.8034857283e+00
 1.3230758557e+00	 4.5767923265e-01	 2.2817774335e+00
 1.3176441578e+00	 4.7308970964e-01	 2.1821180688e+00
 1.3120180318e+00	 4.8847587875e-01	 2.0828573929e+00
 1.3061971808e+00	 5.0383422351e-01	 1.9837148139e+00
 1.3001813892e+00	 5.1916120347e-01	 1.8841769464e+00
 1.2939705239e+00	 5.3445325638e-01	 1.7834533270e+00
 1.3300762571e+00	 4.6010081589e-01	 2.2664400103e+00
 1.3246158200e+00	 4.7559282980e-01	 2.1651791776e+00
 1.3189599262e+00	 4.9106040720e-01	 2.0646776632e+00
 1.3131082770e+00	 5.0650001305e-01	 1.9645859119e+00
 1.3070606558e+00	 5.2190808814e-01	 1.8643149489e+00
 1.3008169288e+00	 5.3728105139e-01	 1.7629913502e+00
 1.2665849044e+00	 5.2314207635e-01	 1.8642388117e+00
 1.2603144925e+00	 5.3807279424e-01	 1.7655537788e+00
 1.2538531219e+00	 5.5296229584e-01	 1.6652730034e+00
 1.2472009110e+00	 5.6780704426e-01	 1.5638056045e+00
 1.2403580631e+00	 5.8260349068e-01	 1.4611098393e+00
 1.2333248668e+00	 5.9734807684e-01	 1.3566595736e+00
 1.2734313092e+00	 5.2596987136e-01	 1.8435643541e+00
 1.2671270033e+00	 5.4098129583e-01	 1.7429444921e+00
 1.2606307064e+00	 5.5595128122e-01	 1.6401825491e+00
 1.2539425376e+00	 5.7087627152e-01	 1.5363903055e+00
 1.2470627013e+00	 5.8575269873e-01	 1.4322151149e+00
 1.2399914877e+00	 6.0057698536e-01	 1.3278044511e+00
 1.2802777141e+00	 5.2879766637e-01	 1.8234164347e+00
 1.2739395141e+00	 5.4388979742e-01	 1.7212150950e+00
 1.2674082908e+00	 5.5894026660e-01	 1.6163241903e+00
 1.2606841641e+00	 5.7394549879e-01	 1.5104990007e+00
 1.2537673394e+00	 5.8890190679e-01	 1.4050172854e+00
 1.2466581086e+00	 6.0380589389e-01	 1.3006420592e+00
 1.2871241190e+00	 5.3162546138e-01	 1.8034857283e+00
 1.2807520248e+00	 5.4679829901e-01	 1.6999829701e+00
 1.2741858753e+00	 5.6192925199e-01	 1.5932566156e+00
 1.2674257907e+00	 5.7701472606e-01	 1.4856473714e+00
 1.2604719776e+00	 5.9205111485e-01	 1.3790057705e+00
 1.2533247295e+00	 6.0703480241e-01	 1.2746533340e+00
 1.2939705239e+00	 5.3445325638e-01	 1.7834533270e+00
 1.2875645356e+00	 5.4970680060e-01	 1.6788573732e+00
 1.2809634597e+00	 5.6491823737e-01	 1.5705316014e+00
 1.2741674172e+00	 5.8008395332e-01	 1.4613451308e+00
 1.2671766158e+00	 5.9520032291e-01	 1.3536646693e+00
 1.2599913504e+00	 6.1026371093e-01	 1.2493142126e+00
 1.3008169288e+00	 5.3728105139e-01	 1.7629913502e+00
 1.2943770464e+00	 5.5261530219e-01	 1.6574400595e+00
 1.2877410441e+00	 5.6790722275e-01	 1.5476946619e+00
 1.2809090438e+00	 5.8315318059e-01	 1.4370967085e+00
 1.2738812540e+00	 5.9834953097e-01	 1.3284734873e+00
 1.2666579713e+00	 6.1349261946e-01	 1.2240964132e+00
 1.2333248668e+00	 5.9734807684e-01	 1.3566595736e+00
 1.2261016972e+00	 6.1203723755e-01	 1.2509821328e+00
 1.2186890160e+00	 6.2666740324e-01	 1.1450662151e+00
 1.2110873724e+00	 6.4123500254e-01	 1.0381207884e+00
 1.2032974032e+00	 6.5573646490e-01	 9.2856743372e-01
 1.1953198336e+00	 6.7016822323e-01	 8.1401758714e-01
 1.2399914877e+00	 6.0057698536e-01	 1.3278044511e+00
 1.2327292739e+00	 6.1534554694e-01	 1.2232172106e+00
 1.2252765242e+00	 6.3005479461e-01	 1.1181180730e+00
 1.2176337906e+00	 6.4470113769e-01	 1.0110836226e+00
 1.2098017135e+00	 6.5928098633e-01	 8.9989105568e-01
 1.2017810219e+00	 6.7379075417e-01	 7.8149706035e-01
 1.2466581086e+00	 6.0380589389e-01	 1.3006420592e+00
 1.2393568507e+00	 6.1865385634e-01	 1.1969910809e+00
 1.2318640324e+00	 6.3344218598e-01	 1.0925151364e+00
 1.2241802088e+00	 6.4816727284e-01	 9.8522551529e-01
 1.2163060238e+00	 6.6282550776e-01	 8.7232250317e-01
 1.2082422102e+00	 6.7741328510e-01	 7.5017581326e-01
 1.2533247295e+00	 6.0703480241e-01	 1.2746533340e+00
 1.2459844274e+00	 6.2196216573e-01	 1.1717879707e+00
 1.2384515406e+00	 6.3682957735e-01	 1.0677493424e+00
 1.2307266271e+00	 6.5163340799e-01	 9.6004949405e-01
 1.2228103341e+00	 6.6637002920e-01	 8.4537821369e-01
 1.2147033985e+00	 6.8103581604e-01	 7.1958493217e-01
 1.2599913504e+00	 6.1026371093e-01	 1.2493142126e+00
 1.2526120042e+00	 6.2527047512e-01	 1.1470872253e+00
 1.2450390488e+00	 6.4021696872e-01	 1.0433078060e+00
 1.2372730453e+00	 6.5509954314e-01	 9.3505378147e-01
 1.2293146444e+00	 6.6991455063e-01	 8.1856980729e-01
 1.2211645867e+00	 6.8465834698e-01	 6.8925065782e-01
 1.2666579713e+00	 6.1349261946e-01	 1.2240964132e+00
 1.2592395809e+00	 6.2857878451e-01	 1.1223641469e+00
 1.2516265570e+00	 6.4360436009e-01	 1.0186737208e+00
 1.2438194635e+00	 6.5856567829e-01	 9.0973275773e-01
 1.2358189547e+00	 6.7345907206e-01	 7.9140511281e-01
 1.2276257750e+00	 6.8828087791e-01	 6.5869547559e-01
 1.1953198336e+00	 6.7016822323e-01	 8.1401758714e-01
 1.1871554769e+00	 6.8452671659e-01	 7.0574261704e-01
 1.1788052350e+00	 6.9880839286e-01	 6.1090607920e-01
 1.1702700985e+00	 7.1300971147e-01	 5.1999751787e-01
 1.1615511463e+00	 7.2712714610e-01	 4.2305908893e-01
 1.1526495458e+00	 7.4115718744e-01	 3.0966776625e-01
 1.2017810219e+00	 6.7379075417e-01	 7.8149706035e-01
 1.1935725335e+00	 6.8822686100e-01	 6.6882639736e-01
 1.1851771552e+00	 7.0258573552e-01	 5.7171433183e-01
 1.1765958828e+00	 7.1686381802e-01	 4.8152512063e-01
 1.1678298011e+00	 7.3105756311e-01	 3.8918644341e-01
 1.1588800839e+00	 7.4516344251e-01	 2.8199687539e-01
 1.2082422102e+00	 6.7741328510e-01	 7.5017581326e-01
 1.1999895901e+00	 6.9192700542e-01	 6.3345236387e-01
 1.1915490754e+00	 7.0636307819e-01	 5.3465939211e-01
 1.1829216671e+00	 7.2071792456e-01	 4.4597033421e-01
 1.1741084560e+00	 7.3498798011e-01	 3.5913203785e-01
 1.1651106220e+00	 7.4916969757e-01	 2.5389739536e-01
 1.2147033985e+00	 6.8103581604e-01	 7.1958493217e-01
 1.2064066468e+00	 6.9562714983e-01	 5.9916439231e-01
 1.1979209956e+00	 7.1014042085e-01	 4.9929436277e-01
 1.1892474514e+00	 7.2457203111e-01	 4.1289292771e-01
 1.1803871108e+00	 7.3891839712e-01	 3.3246075344e-01
 1.1713411601e+00	 7.5317595264e-01	 2.2503659516e-01
 1.2211645867e+00	 6.8465834698e-01	 6.8925065782e-01
 1.2128237034e+00	 6.9932729424e-01	 5.6550152512e-01
 1.2042929158e+00	 7.1391776352e-01	 4.6516759196e-01
 1.1955732357e+00	 7.2842613766e-01	 3.8184802961e-01
 1.1866657656e+00	 7.4284881412e-01	 3.0801903574e-01
 1.1775716982e+00	 7.5718220771e-01	 1.9510473325e-01
 1.2276257750e+00	 6.8828087791e-01	 6.5869547559e-01
 1.2192407600e+00	 7.0302743866e-01	 5.3199912406e-01
 1.2106648359e+00	 7.1769510618e-01	 4.3182388596e-01
 1.2018990200e+00	 7.3228024421e-01	 3.5238739851e-01
 1.1929444205e+00	 7.4677923113e-01	 2.8169940014e-01
 1.1838022363e+00	 7.6118846278e-01	 1.6381455976e-01
 1.1526495458e+00	 7.4115718744e-01	 3.0966776625e-01
 1.1435665527e+00	 7.5509634590e-01	 1.8972738896e-01
 1.1343035101e+00	 7.6894115436e-01	 8.2635209509e-02
 1.1248618489e+00	 7.8268817090e-01	-1.3561841382e-02
 1.1152430864e+00	 7.9633398153e-01	-1.0057845095e-01
 1.1054488264e+00	 8.0987520290e-01	-1.8641846799e-01
 1.1588800839e+00	 7.4516344251e-01	 2.8199687539e-01
 1.1497479935e+00	 7.5917794777e-01	 1.5716100702e-01
 1.1404348805e+00	 7.7309759303e-01	 4.6971150444e-02
 1.1309421832e+00	 7.8691891777e-01	-5.2262768390e-02
 1.1212714274e+00	 8.0063848954e-01	-1.4398500881e-01
 1.1114242254e+00	 8.1425290670e-01	-2.3131249589e-01
 1.1651106220e+00	 7.4916969757e-01	 2.5389739536e-01
 1.1559294343e+00	 7.6325954964e-01	 1.2507380655e-01
 1.1465662508e+00	 7.7725403170e-01	 1.2761308151e-02
 1.1370225175e+00	 7.9114966464e-01	-8.8286086598e-02
 1.1272997685e+00	 8.0494299754e-01	-1.8306833841e-01
 1.1173996245e+00	 8.1863061050e-01	-2.7625213254e-01
 1.1713411601e+00	 7.5317595264e-01	 2.2503659516e-01
 1.1621108752e+00	 7.6734115151e-01	 9.3139166187e-02
 1.1526976211e+00	 7.8141047037e-01	-2.0382012053e-02
 1.1431028519e+00	 7.9538041151e-01	-1.2215082615e-01
 1.1333281095e+00	 8.0924750555e-01	-2.1855209392e-01
 1.1233750236e+00	 8.2300831430e-01	-3.1563896311e-01
 1.1775716982e+00	 7.5718220771e-01	 1.9510473325e-01
 1.1682923160e+00	 7.7142275338e-01	 6.1053449492e-02
 1.1588289914e+00	 7.8556690905e-01	-5.2822070231e-02
 1.1491831862e+00	 7.9961115838e-01	-1.5434861482e-01
 1.1393564505e+00	 8.1355201356e-01	-2.5112797951e-01
 1.1293504226e+00	 8.2738601809e-01	-3.5043938574e-01
 1.1838022363e+00	 7.6118846278e-01	 1.6381455976e-01
 1.1744737568e+00	 7.7550435525e-01	 2.8535507263e-02
 1.1649603618e+00	 7.8972334772e-01	-8.4898225157e-02
 1.1552635205e+00	 8.0384190525e-01	-1.8534428450e-01
 1.1453847915e+00	 8.1785652157e-01	-2.8145646810e-01
 1.1353258217e+00	 8.3176372189e-01	-3.8158253304e-01
 1.1054488264e+00	 8.0987520290e-01	-1.8641846799e-01
 1.0954807577e+00	 8.2330848499e-01	-2.8736729999e-01
 1.0853406541e+00	 8.3663051380e-01	-3.9103817520e-01
 1.0750303726e+00	 8.4983801398e-01	-4.9266685937e-01
 1.0645518530e+00	 8.6292775148e-01	-5.8637907485e-01
 1.0539071164e+00	 8.7589653609e-01	-6.6525608871e-01
 1.1114242254e+00	 8.1425290670e-01	-2.3131249589e-01
 1.1014022753e+00	 8.2775880112e-01	-3.2247436353e-01
 1.0912073603e+00	 8.4115284090e-01	-4.2248440257e-01
 1.0808413476e+00	 8.5443173298e-01	-5.2478337895e-01
 1.0703061873e+00	 8.6759222581e-01	-6.2168695862e-01
 1.0596039117e+00	 8.8063111196e-01	-7.0447744194e-01
 1.1173996245e+00	 8.1863061050e-01	-2.7625213254e-01
 1.1073237929e+00	 8.3220911726e-01	-3.6219871587e-01
 1.0970740665e+00	 8.4567516800e-01	-4.5539477392e-01
 1.0866523226e+00	 8.5902545197e-01	-5.5571900556e-01
 1.0760605217e+00	 8.7225670014e-01	-6.5399152950e-01
 1.0653007069e+00	 8.8536568783e-01	-7.3999608190e-01
 1.1233750236e+00	 8.2300831430e-01	-3.1563896311e-01
 1.1132453105e+00	 8.3665943339e-01	-4.0643147231e-01
 1.1029407728e+00	 8.5019749510e-01	-4.9063896252e-01
 1.0924632975e+00	 8.6361917097e-01	-5.8637209604e-01
 1.0818148560e+00	 8.7692117448e-01	-6.8410005380e-01
 1.0709975021e+00	 8.9010026370e-01	-7.7240338095e-01
 1.1293504226e+00	 8.2738601809e-01	-3.5043938574e-01
 1.1191668282e+00	 8.4110974953e-01	-4.4663711516e-01
 1.1088074790e+00	 8.5471982221e-01	-5.2905573441e-01
 1.0982742725e+00	 8.6821288996e-01	-6.1760947926e-01
 1.0875691904e+00	 8.8158564881e-01	-7.1279035943e-01
 1.0766942973e+00	 8.9483483957e-01	-8.0226617475e-01
 1.1353258217e+00	 8.3176372189e-01	-3.8158253304e-01
 1.1250883458e+00	 8.4556006566e-01	-4.8133278512e-01
 1.1146741853e+00	 8.5924214931e-01	-5.6937920816e-01
 1.1040852475e+00	 8.7280660896e-01	-6.5026606821e-01
 1.0933235247e+00	 8.8625012314e-01	-7.4081040568e-01
 1.0823910925e+00	 8.9956941544e-01	-8.3012621998e-01
 1.0539071164e+00	 8.7589653609e-01	-6.6525608871e-01
 1.0430982642e+00	 8.8874122402e-01	-7.4175547348e-01
 1.0321274763e+00	 9.0145872042e-01	-8.2857232560e-01
 1.0209970104e+00	 9.1404598179e-01	-9.1767273274e-01
 1.0097091997e+00	 9.2650001842e-01	-1.0001275718e+00
 9.9826645178e-01	 9.3881789674e-01	-1.0662220274e+00
 1.0596039117e+00	 8.8063111196e-01	-7.0447744194e-01
 1.0487366332e+00	 8.9354523064e-01	-7.8323062105e-01
 1.0377065438e+00	 9.0633147026e-01	-8.6999579598e-01
 1.0265159131e+00	 9.1898677088e-01	-9.5751839719e-01
 1.0151670872e+00	 9.3150812663e-01	-1.0375991389e+00
 1.0036624867e+00	 9.4389258807e-01	-1.1012050331e+00
 1.0653007069e+00	 8.8536568783e-01	-7.3999608190e-01
 1.0543750022e+00	 8.9834923726e-01	-8.2129529607e-01
 1.0432856112e+00	 9.1120422010e-01	-9.0876230600e-01
 1.0320348159e+00	 9.2392755997e-01	-9.9561673587e-01
 1.0206249748e+00	 9.3651623483e-01	-1.0740898229e+00
 1.0090585215e+00	 9.4896727941e-01	-1.1355376924e+00
 1.0709975021e+00	 8.9010026370e-01	-7.7240338095e-01
 1.0600133712e+00	 9.0315324387e-01	-8.5629165404e-01
 1.0488646786e+00	 9.1607696994e-01	-9.4502931013e-01
 1.0375537186e+00	 9.2886834906e-01	-1.0320095295e+00
 1.0260828623e+00	 9.4152434304e-01	-1.1095991666e+00
 1.0144545564e+00	 9.5404197074e-01	-1.1692550476e+00
 1.0766942973e+00	 8.9483483957e-01	-8.0226617475e-01
 1.0656517402e+00	 9.0795725049e-01	-8.8854308584e-01
 1.0544437461e+00	 9.2094971978e-01	-9.7894006268e-01
 1.0430726214e+00	 9.3380913815e-01	-1.0667276118e+00
 1.0315407499e+00	 9.4653245125e-01	-1.1441176048e+00
 1.0198505913e+00	 9.5911666207e-01	-1.2023833564e+00
 1.0823910925e+00	 8.9956941544e-01	-8.3012621998e-01
 1.0712901091e+00	 9.1276125710e-01	-9.1835354426e-01
 1.0600228135e+00	 9.2582246962e-01	-1.0106228490e+00
 1.0485915242e+00	 9.3874992724e-01	-1.0997900436e+00
 1.0369986375e+00	 9.5154055946e-01	-1.1776256221e+00
 1.0252466262e+00	 9.6419135341e-01	-1.2349392763e+00
 9.9826645178e-01	 9.3881789674e-01	-1.0662220274e+00
 9.8667124689e-01	 9.5099674161e-01	-1.1320837948e+00
 9.7492613588e-01	 9.6303373854e-01	-1.2128890812e+00
 9.6303373854e-01	 9.7492613588e-01	-1.2968093798e+00
 9.5099674161e-01	 9.8667124689e-01	-1.3719010697e+00
 9.3881789674e-01	 9.9826645178e-01	-1.4262413712e+00
 1.0036624867e+00	 9.4389258807e-01	-1.1012050331e+00
 9.9200460498e-01	 9.5613726454e-01	-1.1657897484e+00
 9.8019600688e-01	 9.6823932632e-01	-1.2468126503e+00
 9.6823932632e-01	 9.8019600688e-01	-1.3315132458e+00
 9.5613726454e-01	 9.9200460498e-01	-1.4070012040e+00
 9.4389258807e-01	 1.0036624867e+00	-1.4603984202e+00
 1.0090585215e+00	 9.4896727941e-01	-1.1355376924e+00
 9.9733796307e-01	 9.6127778746e-01	-1.1986061145e+00
 9.8546587789e-01	 9.7344491409e-01	-1.2792457989e+00
 9.7344491409e-01	 9.8546587789e-01	-1.3639905511e+00
 9.6127778746e-01	 9.9733796307e-01	-1.4392299843e+00
 9.4896727941e-01	 1.0090585215e+00	-1.4913573061e+00
 1.0144545564e+00	 9.5404197074e-01	-1.1692550476e+00
 1.0026713212e+00	 9.6641831039e-01	-1.2306512212e+00
 9.9073574889e-01	 9.7865050187e-01	-1.3104025052e+00
 9.7865050187e-01	 9.9073574889e-01	-1.3945592798e+00
 9.6641831039e-01	 1.0026713212e+00	-1.4690137227e+00
 9.5404197074e-01	 1.0144545564e+00	-1.5196529423e+00
 1.0198505913e+00	 9.5911666207e-01	-1.2023833564e+00
 1.0080046793e+00	 9.7155883332e-01	-1.2620340422e+00
 9.9600561990e-01	 9.8385608964e-01	-1.3404866670e+00
 9.8385608964e-01	 9.9600561990e-01	-1.4235265252e+00
 9.7155883332e-01	 1.0080046793e+00	-1.4967670177e+00
 9.5911666207e-01	 1.0198505913e+00	-1.5458077641e+00
 1.0252466262e+00	 9.6419135341e-01	-1.2349392763e+00
 1.0133380373e+00	 9.7669935625e-01	-1.2928534341e+00
 1.0012754909e+00	 9.8906167742e-01	-1.3696913995e+00
 9.8906167742e-01	 1.0012754909e+00	-1.4511878526e+00
 9.7669935625e-01	 1.0133380373e+00	-1.5228921845e+00
 9.6419135341e-01	 1.0252466262e+00	-1.5703312269e+00
 9.3881789674e-01	 9.9826645178e-01	-1.4262413712e+00
 9.2650001842e-01	 1.0097091997e+00	-1.4742978411e+00
 9.1404598179e-01	 1.0209970104e+00	-1.5325017953e+00
 9.0145872042e-01	 1.0321274763e+00	-1.5923985003e+00
 8.8874122402e-01	 1.0430982642e+00	-1.6462007641e+00
 8.7589653609e-01	 1.0539071164e+00	-1.6869126248e+00
 9.4389258807e-01	 1.0036624867e+00	-1.4603984202e+00
 9.3150812663e-01	 1.0151670872e+00	-1.5062173147e+00
 9.1898677088e-01	 1.0265159131e+00	-1.5619478414e+00
 9.0633147026e-01	 1.0377065438e+00	-1.6197321062e+00
 8.9354523064e-01	 1.0487366332e+00	-1.6724275027e+00
 8.8063111196e-01	 1.0596039117e+00	-1.7137328632e+00
 9.4896727941e-01	 1.0090585215e+00	-1.4913573061e+00
 9.3651623483e-01	 1.0206249748e+00	-1.5352210985e+00
 9.2392755997e-01	 1.0320348159e+00	-1.5892926720e+00
 9.1120422010e-01	 1.0432856112e+00	-1.6459779748e+00
 8.9834923726e-01	 1.0543750022e+00	-1.6984379920e+00
 8.8536568783e-01	 1.0653007069e+00	-1.7407182501e+00
 9.5404197074e-01	 1.0144545564e+00	-1.5196529423e+00
 9.4152434304e-01	 1.0260828623e+00	-1.5619081804e+00
 9.2886834906e-01	 1.0375537186e+00	-1.6151158792e+00
 9.1607696994e-01	 1.0488646786e+00	-1.6716176297e+00
 9.0315324387e-01	 1.0600133712e+00	-1.7245419003e+00
 8.9010026370e-01	 1.0709975021e+00	-1.7679377826e+00
 9.5911666207e-01	 1.0198505913e+00	-1.5458077641e+00
 9.4653245125e-01	 1.0315407499e+00	-1.5868652968e+00
 9.3380913815e-01	 1.0430726214e+00	-1.6399868321e+00
 9.2094971978e-01	 1.0544437461e+00	-1.6971260839e+00
 9.0795725049e-01	 1.0656517402e+00	-1.7510476626e+00
 8.9483483957e-01	 1.0766942973e+00	-1.7954659470e+00
 9.6419135341e-01	 1.0252466262e+00	-1.5703312269e+00
 9.5154055946e-01	 1.0369986375e+00	-1.6106664763e+00
 9.3874992724e-01	 1.0485915242e+00	-1.6644642183e+00
 9.2582246962e-01	 1.0600228135e+00	-1.7229713361e+00
 9.1276125710e-01	 1.0712901091e+00	-1.7782618925e+00
 8.9956941544e-01	 1.0823910925e+00	-1.8233820082e+00
 8.7589653609e-01	 1.0539071164e+00	-1.6869126248e+00
 8.6292775148e-01	 1.0645518530e+00	-1.7286170984e+00
 8.4983801398e-01	 1.0750303726e+00	-1.7825497285e+00
 8.3663051380e-01	 1.0853406541e+00	-1.8389040091e+00
 8.2330848499e-01	 1.0954807577e+00	-1.8890206132e+00
 8.0987520290e-01	 1.1054488264e+00	-1.9254877846e+00
 8.8063111196e-01	 1.0596039117e+00	-1.7137328632e+00
 8.6759222581e-01	 1.0703061873e+00	-1.7574099733e+00
 8.5443173298e-01	 1.0808413476e+00	-1.8126346947e+00
 8.4115284090e-01	 1.0912073603e+00	-1.8677083523e+00
 8.2775880112e-01	 1.1014022753e+00	-1.9120615054e+00
 8.1425290670e-01	 1.1114242254e+00	-1.9363845673e+00
 8.8536568783e-01	 1.0653007069e+00	-1.7407182501e+00
 8.7225670014e-01	 1.0760605217e+00	-1.7856474025e+00
 8.5902545197e-01	 1.0866523226e+00	-1.8401887602e+00
 8.4567516800e-01	 1.0970740665e+00	-1.8910992077e+00
 8.3220911726e-01	 1.1073237929e+00	-1.9262624253e+00
 8.1863061050e-01	 1.1173996245e+00	-1.9435939012e+00
 8.9010026370e-01	 1.0709975021e+00	-1.7679377826e+00
 8.7692117448e-01	 1.0818148560e+00	-1.8131993334e+00
 8.6361917097e-01	 1.0924632975e+00	-1.8650275299e+00
 8.5019749510e-01	 1.1029407728e+00	-1.9089764421e+00
 8.3665943339e-01	 1.1132453105e+00	-1.9326463900e+00
 8.2300831430e-01	 1.1233750236e+00	-1.9539660911e+00
 8.9483483957e-01	 1.0766942973e+00	-1.7954659470e+00
 8.8158564881e-01	 1.0875691904e+00	-1.8399470174e+00
 8.6821288996e-01	 1.0982742725e+00	-1.8869806226e+00
 8.5471982221e-01	 1.1088074790e+00	-1.9212536563e+00
 8.4110974953e-01	 1.1191668282e+00	-1.9412079467e+00
 8.2738601809e-01	 1.1293504226e+00	-1.9669107742e+00
 8.9956941544e-01	 1.0823910925e+00	-1.8233820082e+00
 8.8625012314e-01	 1.0933235247e+00	-1.8657822004e+00
 8.7280660896e-01	 1.1040852475e+00	-1.9058908456e+00
 8.5924214931e-01	 1.1146741853e+00	-1.9300186450e+00
 8.4556006566e-01	 1.1250883458e+00	-1.9539440074e+00
 8.3176372189e-01	 1.1353258217e+00	-1.9818355085e+00
 8.0987520290e-01	 1.1054488264e+00	-1.9254877846e+00
 7.9633398153e-01	 1.1152430864e+00	-1.9380722793e+00
 7.8268817090e-01	 1.1248618489e+00	-1.9503584427e+00
 7.6894115436e-01	 1.1343035101e+00	-1.9716746583e+00
 7.5509634590e-01	 1.1435665527e+00	-2.0042377138e+00
 7.4115718744e-01	 1.1526495458e+00	-2.0505210419e+00
 8.1425290670e-01	 1.1114242254e+00	-1.9363845673e+00
 8.0063848954e-01	 1.1212714274e+00	-1.9499755571e+00
 7.8691891777e-01	 1.1309421832e+00	-1.9667395172e+00
 7.7309759303e-01	 1.1404348805e+00	-1.9897021788e+00
 7.5917794777e-01	 1.1497479935e+00	-2.0222472268e+00
 7.4516344251e-01	 1.1588800839e+00	-2.0680412349e+00
 8.1863061050e-01	 1.1173996245e+00	-1.9435939012e+00
 8.0494299754e-01	 1.1272997685e+00	-1.9629692056e+00
 7.9114966464e-01	 1.1370225175e+00	-1.9824116917e+00
 7.7725403170e-01	 1.1465662508e+00	-2.0059558146e+00
 7.6325954964e-01	 1.1559294343e+00	-2.0380113539e+00
 7.4916969757e-01	 1.1651106220e+00	-2.0832836983e+00
 8.2300831430e-01	 1.1233750236e+00	-1.9539660911e+00
 8.0924750555e-01	 1.1333281095e+00	-1.9768138719e+00
 7.9538041151e-01	 1.1431028519e+00	-1.9973536650e+00
 7.8141047037e-01	 1.1526976211e+00	-2.0205041120e+00
 7.6734115151e-01	 1.1621108752e+00	-2.0515628129e+00
 7.5317595264e-01	 1.1713411601e+00	-2.0961222987e+00
 8.2738601809e-01	 1.1293504226e+00	-1.9669107742e+00
 8.1355201356e-01	 1.1393564505e+00	-1.9912605432e+00
 7.9961115838e-01	 1.1491831862e+00	-2.0115299518e+00
 7.8556690905e-01	 1.1588289914e+00	-2.0333996444e+00
 7.7142275338e-01	 1.1682923160e+00	-2.0629192466e+00
 7.5718220771e-01	 1.1775716982e+00	-2.1064193626e+00
 8.3176372189e-01	 1.1353258217e+00	-1.9818355085e+00
 8.1785652157e-01	 1.1453847915e+00	-2.0060509890e+00
 8.0384190525e-01	 1.1552635205e+00	-2.0248914166e+00
 7.8972334772e-01	 1.1649603618e+00	-2.0446795642e+00
 7.7550435525e-01	 1.1744737568e+00	-2.0720837242e+00
 7.6118846278e-01	 1.1838022363e+00	-2.1140260593e+00
 7.4115718744e-01	 1.1526495458e+00	-2.0505210419e+00
 7.2712714610e-01	 1.1615511463e+00	-2.0867810206e+00
 7.1300971147e-01	 1.1702700985e+00	-2.0983857830e+00
 6.9880839286e-01	 1.1788052350e+00	-2.0983280450e+00
 6.8452671659e-01	 1.1871554769e+00	-2.0990203336e+00
 6.7016822323e-01	 1.1953198336e+00	-2.1123022173e+00
 7.4516344251e-01	 1.1588800839e+00	-2.0680412349e+00
 7.3105756311e-01	 1.1678298011e+00	-2.0971570960e+00
 7.1686381802e-01	 1.1765958828e+00	-2.1021250544e+00
 7.0258573552e-01	 1.1851771552e+00	-2.0976673449e+00
 6.8822686100e-01	 1.1935725335e+00	-2.0962588137e+00
 6.7379075417e-01	 1.2017810219e+00	-2.1097697513e+00
 7.4916969757e-01	 1.1651106220e+00	-2.0832836983e+00
 7.3498798011e-01	 1.1741084560e+00	-2.1080967174e+00
 7.2071792456e-01	 1.1829216671e+00	-2.1065658519e+00
 7.0636307819e-01	 1.1915490754e+00	-2.0977413546e+00
 6.9192700542e-01	 1.1999895901e+00	-2.0940920494e+00
 6.7741328510e-01	 1.2082422102e+00	-2.1074592755e+00
 7.5317595264e-01	 1.1713411601e+00	-2.0961222987e+00
 7.3891839712e-01	 1.1803871108e+00	-2.1192431508e+00
 7.2457203111e-01	 1.1892474514e+00	-2.1112501493e+00
 7.1014042085e-01	 1.1979209956e+00	-2.0980703306e+00
 6.9562714983e-01	 1.2064066468e+00	-2.0920991100e+00
 6.8103581604e-01	 1.2147033985e+00	-2.1050900519e+00
 7.5718220771e-01	 1.1775716982e+00	-2.1064193626e+00
 7.4284881412e-01	 1.1866657656e+00	-2.1298558557e+00
 7.2842613766e-01	 1.1955732357e+00	-2.1157074584e+00
 7.1391776352e-01	 1.2042929158e+00	-2.0981625727e+00
 6.9932729424e-01	 1.2128237034e+00	-2.0898459310e+00
 6.8465834698e-01	 1.2211645867e+00	-2.1023653385e+00
 7.6118846278e-01	 1.1838022363e+00	-2.1140260593e+00
 7.4677923113e-01	 1.1929444205e+00	-2.1376542330e+00
 7.3228024421e-01	 1.2018990200e+00	-2.1194555879e+00
 7.1769510618e-01	 1.2106648359e+00	-2.0975151315e+00
 7.0302743866e-01	 1.2192407600e+00	-2.0868860166e+00
 6.8828087791e-01	 1.2276257750e+00	-2.0989731305e+00
 6.7016822323e-01	 1.1953198336e+00	-2.1123022173e+00
 6.5573646490e-01	 1.2032974032e+00	-2.1316845276e+00
 6.4123500254e-01	 1.2110873724e+00	-2.1444808615e+00
 6.2666740324e-01	 1.2186890160e+00	-2.1521343478e+00
 6.1203723755e-01	 1.2261016972e+00	-2.1552225158e+00
 5.9734807684e-01	 1.2333248668e+00	-2.1534918518e+00
 6.7379075417e-01	 1.2017810219e+00	-2.1097697513e+00
 6.5928098633e-01	 1.2098017135e+00	-2.1298883249e+00
 6.4470113769e-01	 1.2176337906e+00	-2.1421592768e+00
 6.3005479461e-01	 1.2252765242e+00	-2.1481265157e+00
 6.1534554694e-01	 1.2327292739e+00	-2.1484854686e+00
 6.0057698536e-01	 1.2399914877e+00	-2.1431173483e+00
 6.7741328510e-01	 1.2082422102e+00	-2.1074592755e+00
 6.6282550776e-01	 1.2163060238e+00	-2.1278692686e+00
 6.4816727284e-01	 1.2241802088e+00	-2.1393374290e+00
 6.3344218598e-01	 1.2318640324e+00	-2.1435671473e+00
 6.1865385634e-01	 1.2393568507e+00	-2.1414220232e+00
 6.0380589389e-01	 1.2466581086e+00	-2.1329598212e+00
 6.8103581604e-01	 1.2147033985e+00	-2.1050900519e+00
 6.6637002920e-01	 1.2228103341e+00	-2.1254934286e+00
 6.5163340799e-01	 1.2307266271e+00	-2.1359589373e+00
 6.3682957735e-01	 1.2384515406e+00	-2.1384073211e+00
 6.2196216573e-01	 1.2459844274e+00	-2.1339198729e+00
 6.0703480241e-01	 1.2533247295e+00	-2.1227720567e+00
 6.8465834698e-01	 1.2211645867e+00	-2.1023653385e+00
 6.6991455063e-01	 1.2293146444e+00	-2.1226078946e+00
 6.5509954314e-01	 1.2372730453e+00	-2.1319469692e+00
 6.4021696872e-01	 1.2450390488e+00	-2.1325777192e+00
 6.2527047512e-01	 1.2526120042e+00	-2.1258479174e+00
 6.1026371093e-01	 1.2599913504e+00	-2.1122912147e+00
 6.8828087791e-01	 1.2276257750e+00	-2.0989731305e+00
 6.7345907206e-01	 1.2358189547e+00	-2.1190415578e+00
 6.5856567829e-01	 1.2438194635e+00	-2.1272050236e+00
 6.4360436009e-01	 1.2516265570e+00	-2.1259893726e+00
 6.2857878451e-01	 1.2592395809e+00	-2.1170569294e+00
 6.1349261946e-01	 1.2666579713e+00	-2.1012393780e+00
 5.9734807684e-01	 1.2333248668e+00	-2.1534918518e+00
 5.8260349068e-01	 1.2403580631e+00	-2.1488451721e+00
 5.6780704426e-01	 1.2472009110e+00	-2.1447262436e+00
 5.5296229584e-01	 1.2538531219e+00	-2.1422047034e+00
 5.3807279424e-01	 1.2603144925e+00	-2.1418640611e+00
 5.2314207635e-01	 1.2665849044e+00	-2.1438420071e+00
 6.0057698536e-01	 1.2399914877e+00	-2.1431173483e+00
 5.8575269873e-01	 1.2470627013e+00	-2.1349102017e+00
 5.7087627152e-01	 1.2539425376e+00	-2.1281045488e+00
 5.5595128122e-01	 1.2606307064e+00	-2.1235981303e+00
 5.4098129583e-01	 1.2671270033e+00	-2.1217553920e+00
 5.2596987136e-01	 1.2734313092e+00	-2.1224496159e+00
 6.0380589389e-01	 1.2466581086e+00	-2.1329598212e+00
 5.8890190679e-01	 1.2537673394e+00	-2.1217899017e+00
 5.7394549879e-01	 1.2606841641e+00	-2.1126449508e+00
 5.5894026660e-01	 1.2674082908e+00	-2.1062308760e+00
 5.4388979742e-01	 1.2739395141e+00	-2.1026804931e+00
 5.2879766637e-01	 1.2802777141e+00	-2.1015973799e+00
 6.0703480241e-01	 1.2533247295e+00	-2.1227720567e+00
 5.9205111485e-01	 1.2604719776e+00	-2.1091039165e+00
 5.7701472606e-01	 1.2674257907e+00	-2.0979094501e+00
 5.6192925199e-01	 1.2741858753e+00	-2.0896827654e+00
 5.4679829901e-01	 1.2807520248e+00	-2.0843123543e+00
 5.3162546138e-01	 1.2871241190e+00	-2.0811265710e+00
 6.1026371093e-01	 1.2599913504e+00	-2.1122912147e+00
 5.9520032291e-01	 1.2671766158e+00	-2.0964594503e+00
 5.8008395332e-01	 1.2741674172e+00	-2.0834492523e+00
 5.6491823737e-01	 1.2809634597e+00	-2.0735229369e+00
 5.4970680060e-01	 1.2875645356e+00	-2.0663118553e+00
 5.3445325638e-01	 1.2939705239e+00	-2.0608634002e+00
 6.1349261946e-01	 1.2666579713e+00	-2.1012393780e+00
 5.9834953097e-01	 1.2738812540e+00	-2.0834516966e+00
 5.8315318059e-01	 1.2809090438e+00	-2.0688051214e+00
 5.6790722275e-01	 1.2877410441e+00	-2.0573101606e+00
 5.5261530219e-01	 1.2943770464e+00	-2.0483280902e+00
 5.3728105139e-01	 1.3008169288e+00	-2.0406193904e+00
 5.2314207635e-01	 1.2665849044e+00	-2.1438420071e+00
 5.0817366477e-01	 1.2726643228e+00	-2.1430184782e+00
 4.9317106534e-01	 1.2785527961e+00	-2.1356096832e+00
 4.7813776491e-01	 1.2842504545e+00	-2.1231639001e+00
 4.6307722901e-01	 1.2897575090e+00	-2.1068850608e+00
 4.4799289968e-01	 1.2950742503e+00	-2.0876780942e+00
 5.2596987136e-01	 1.2734313092e+00	-2.1224496159e+00
 5.1092054944e-01	 1.2795435894e+00	-2.1202044987e+00
 4.9583685488e-01	 1.2854638922e+00	-2.1110606647e+00
 4.8072229337e-01	 1.2911923488e+00	-2.0965559656e+00
 4.6558034917e-01	 1.2967291712e+00	-2.0779054366e+00
 4.5041448292e-01	 1.3020746517e+00	-2.0560471929e+00
 5.2879766637e-01	 1.2802777141e+00	-2.1015973799e+00
 5.1366743412e-01	 1.2864228560e+00	-2.0974265822e+00
 4.9850264443e-01	 1.2923749884e+00	-2.0863074595e+00
 4.8330682183e-01	 1.2981342431e+00	-2.0697574422e+00
 4.6808346933e-01	 1.3037008334e+00	-2.0489858838e+00
 4.5283606616e-01	 1.3090750530e+00	-2.0249406770e+00
 5.3162546138e-01	 1.2871241190e+00	-2.0811265710e+00
 5.1641431879e-01	 1.2933021226e+00	-2.0747001307e+00
 5.0116843397e-01	 1.2992860846e+00	-2.0614764159e+00
 4.8589135029e-01	 1.3050761375e+00	-2.0429425398e+00
 4.7058658948e-01	 1.3106724956e+00	-2.0202855452e+00
 4.5525764940e-01	 1.3160754544e+00	-1.9944399019e+00
 5.3445325638e-01	 1.2939705239e+00	-2.0608634002e+00
 5.1916120347e-01	 1.3001813892e+00	-2.0520224749e+00
 5.0383422351e-01	 1.3061971808e+00	-2.0366742009e+00
 4.8847587875e-01	 1.3120180318e+00	-2.0162655764e+00
 4.7308970964e-01	 1.3176441578e+00	-1.9919448539e+00
 4.5767923265e-01	 1.3230758557e+00	-1.9646100835e+00
 5.3728105139e-01	 1.3008169288e+00	-2.0406193904e+00
 5.2190808814e-01	 1.3070606558e+00	-2.0293732980e+00
 5.0650001305e-01	 1.3131082770e+00	-2.0119882405e+00
 4.9106040720e-01	 1.3189599262e+00	-1.9898613984e+00
 4.7559282980e-01	 1.3246158200e+00	-1.9640859007e+00
 4.6010081589e-01	 1.3300762571e+00	-1.9355005771e+00
 4.4799289968e-01	 1.2950742503e+00	-2.0876780942e+00
 4.3288819327e-01	 1.3002010476e+00	-2.0748755393e+00
 4.1776649841e-01	 1.3051383470e+00	-2.0721138730e+00
 4.0263117390e-01	 1.3098866706e+00	-2.0715616734e+00
 3.8748554683e-01	 1.3144466147e+00	-2.0654423071e+00
 3.7233291062e-01	 1.3188188487e+00	-2.0460944861e+00
 4.5041448292e-01	 1.3020746517e+00	-2.0560471929e+00
 4.3522812945e-01	 1.3072291613e+00	-2.0405582314e+00
 4.2002469570e-01	 1.3121931489e+00	-2.0354232400e+00
 4.0480755862e-01	 1.3169671391e+00	-2.0329975781e+00
 3.8958006330e-01	 1.3215517316e+00	-2.0256673813e+00
 3.7434552095e-01	 1.3259475992e+00	-2.0059117370e+00
 4.5283606616e-01	 1.3090750530e+00	-2.0249406770e+00
 4.3756806563e-01	 1.3142572751e+00	-2.0072116715e+00
 4.2228289298e-01	 1.3192479507e+00	-1.9999346265e+00
 4.0698394335e-01	 1.3240476076e+00	-1.9956791201e+00
 3.9167457977e-01	 1.3286568484e+00	-1.9870267136e+00
 3.7635813128e-01	 1.3330763498e+00	-1.9666345857e+00
 4.5525764940e-01	 1.3160754544e+00	-1.9944399019e+00
 4.3990800181e-01	 1.3212853889e+00	-1.9748383116e+00
 4.2454109027e-01	 1.3263027526e+00	-1.9656312949e+00
 4.0916032807e-01	 1.3311280761e+00	-1.9596291196e+00
 3.9376909624e-01	 1.3357619652e+00	-1.9496403958e+00
 3.7837074160e-01	 1.3402051003e+00	-1.9285370093e+00
 4.5767923265e-01	 1.3230758557e+00	-1.9646100835e+00
 4.4224793799e-01	 1.3283135027e+00	-1.9434271161e+00
 4.2679928756e-01	 1.3333575545e+00	-1.9324844626e+00
 4.1133671280e-01	 1.3382085445e+00	-1.9248586023e+00
 3.9586361271e-01	 1.3428670821e+00	-1.9136158008e+00
 3.8038335193e-01	 1.3473338508e+00	-1.8918781856e+00
 4.6010081589e-01	 1.3300762571e+00	-1.9355005771e+00
 4.4458787417e-01	 1.3353416164e+00	-1.9129537514e+00
 4.2905748485e-01	 1.3404123564e+00	-1.9004534364e+00
 4.1351309752e-01	 1.3452890130e+00	-1.8913669121e+00
 3.9795812918e-01	 1.3499721989e+00	-1.8790477068e+00
 3.8239596226e-01	 1.3544626014e+00	-1.8569026613e+00
 3.7233291062e-01	 1.3188188487e+00	-2.0460944861e+00
 3.5717652322e-01	 1.3230041131e+00	-2.0235225320e+00
 3.4201960533e-01	 1.3270032184e+00	-2.0153232404e+00
 3.2686533872e-01	 1.3308170431e+00	-2.0136204053e+00
 3.1171686463e-01	 1.3344465326e+00	-2.0105530968e+00
 2.9657728218e-01	 1.3378926966e+00	-1.9985999880e+00
 3.7434552095e-01	 1.3259475992e+00	-2.0059117370e+00
 3.5910720713e-01	 1.3301554867e+00	-1.9803476619e+00
 3.4386835995e-01	 1.3341762087e+00	-1.9700821757e+00
 3.2863217839e-01	 1.3380106488e+00	-1.9673541344e+00
 3.1340182066e-01	 1.3416597571e+00	-1.9635198837e+00
 2.9818040262e-01	 1.3451245490e+00	-1.9503523379e+00
 3.7635813128e-01	 1.3330763498e+00	-1.9666345857e+00
 3.6103789104e-01	 1.3373068603e+00	-1.9380904874e+00
 3.4571711457e-01	 1.3413491991e+00	-1.9252286343e+00
 3.3039901806e-01	 1.3452042544e+00	-1.9211993151e+00
 3.1508677668e-01	 1.3488729816e+00	-1.9165778083e+00
 2.9978352307e-01	 1.3523564015e+00	-1.9024302514e+00
 3.7837074160e-01	 1.3402051003e+00	-1.9285370093e+00
 3.6296857495e-01	 1.3444582338e+00	-1.8972924204e+00
 3.4756586920e-01	 1.3485221895e+00	-1.8814033380e+00
 3.3216585773e-01	 1.3523978601e+00	-1.8758294086e+00
 3.1677173271e-01	 1.3560862061e+00	-1.8703667770e+00
 3.0138664351e-01	 1.3595882539e+00	-1.8553742036e+00
 3.8038335193e-01	 1.3473338508e+00	-1.8918781856e+00
 3.6489925885e-01	 1.3516096074e+00	-1.8584746969e+00
 3.4941462382e-01	 1.3556951798e+00	-1.8392293908e+00
 3.3393269740e-01	 1.3595914657e+00	-1.8319036984e+00
 3.1845668873e-01	 1.3632994306e+00	-1.8255168375e+00
 3.0298976396e-01	 1.3668201063e+00	-1.8097200038e+00
 3.8239596226e-01	 1.3544626014e+00	-1.8569026613e+00
 3.6682994276e-01	 1.3587609810e+00	-1.8221377047e+00
 3.5126337844e-01	 1.3628681702e+00	-1.7993117019e+00
 3.3569953707e-01	 1.3667850713e+00	-1.7900667747e+00
 3.2014164476e-01	 1.3705126551e+00	-1.7826476892e+00
 3.0459288440e-01	 1.3740519587e+00	-1.7659982984e+00
 2.9657728218e-01	 1.3378926966e+00	-1.9985999880e+00
 2.8144964692e-01	 1.3411566084e+00	-1.9784228087e+00
 2.6633696944e-01	 1.3442394023e+00	-1.9573102396e+00
 2.5124221402e-01	 1.3471422723e+00	-1.9381731964e+00
 2.3616829738e-01	 1.3498664702e+00	-1.9241915837e+00
 2.2111808754e-01	 1.3524133035e+00	-1.9187696794e+00
 2.9818040262e-01	 1.3451245490e+00	-1.9503523379e+00
 2.8297099636e-01	 1.3484061036e+00	-1.9284336453e+00
 2.6777662873e-01	 1.3515055612e+00	-1.9054995834e+00
 2.5260028004e-01	 1.3544241224e+00	-1.8846219657e+00
 2.3744488278e-01	 1.3571630457e+00	-1.8691650183e+00
 2.2231332045e-01	 1.3597236456e+00	-1.8627371107e+00
 2.9978352307e-01	 1.3523564015e+00	-1.9024302514e+00
 2.8449234581e-01	 1.3556555988e+00	-1.8790964802e+00
 2.6921628803e-01	 1.3587717202e+00	-1.8545858967e+00
 2.5395834606e-01	 1.3617059726e+00	-1.8321172187e+00
 2.3872146817e-01	 1.3644596212e+00	-1.8152316464e+00
 2.2350855335e-01	 1.3670339878e+00	-1.8077406941e+00
 3.0138664351e-01	 1.3595882539e+00	-1.8553742036e+00
 2.8601369525e-01	 1.3629050939e+00	-1.8308370428e+00
 2.7065594732e-01	 1.3660378791e+00	-1.8049154879e+00
 2.5531641208e-01	 1.3689878227e+00	-1.7809618185e+00
 2.3999805356e-01	 1.3717561967e+00	-1.7626875323e+00
 2.2470378626e-01	 1.3743443300e+00	-1.7541070293e+00
 3.0298976396e-01	 1.3668201063e+00	-1.8097200038e+00
 2.8753504469e-01	 1.3701545891e+00	-1.7840814025e+00
 2.7209560662e-01	 1.3733040380e+00	-1.7568387635e+00
 2.5667447810e-01	 1.3762696728e+00	-1.7314652374e+00
 2.4127463895e-01	 1.3790527722e+00	-1.7118366166e+00
 2.2589901916e-01	 1.3816546722e+00	-1.7021706193e+00
 3.0459288440e-01	 1.3740519587e+00	-1.7659982984e+00
 2.8905639414e-01	 1.3774040843e+00	-1.7392554574e+00
 2.7353526591e-01	 1.3805701970e+00	-1.7107097240e+00
 2.5803254413e-01	 1.3835515229e+00	-1.6839430817e+00
 2.4255122434e-01	 1.3863493477e+00	-1.6629902918e+00
 2.2709425207e-01	 1.3889650144e+00	-1.6522735207e+00
 2.2111808754e-01	 1.3524133035e+00	-1.9187696794e+00
 2.0609440264e-01	 1.3547841338e+00	-1.9188918270e+00
 1.9110000999e-01	 1.3569803750e+00	-1.9181172010e+00
 1.7613762505e-01	 1.3590034912e+00	-1.9148938098e+00
 1.6120991058e-01	 1.3608549947e+00	-1.9076817067e+00
 1.4631947581e-01	 1.3625364446e+00	-1.8948926428e+00
 2.2231332045e-01	 1.3597236456e+00	-1.8627371107e+00
 2.0720842644e-01	 1.3621072913e+00	-1.8621552413e+00
 1.9213298302e-01	 1.3643154041e+00	-1.8606119913e+00
 1.7708972032e-01	 1.3663494560e+00	-1.8564981264e+00
 1.6208131550e-01	 1.3682109677e+00	-1.8482461862e+00
 1.4711039190e-01	 1.3699015065e+00	-1.8342654313e+00
 2.2350855335e-01	 1.3670339878e+00	-1.8077406941e+00
 2.0832245024e-01	 1.3694304488e+00	-1.8063987348e+00
 1.9316595605e-01	 1.3716504331e+00	-1.8041242269e+00
 1.7804181559e-01	 1.3736954208e+00	-1.7992361658e+00
 1.6295272043e-01	 1.3755669406e+00	-1.7901251702e+00
 1.4790130799e-01	 1.3772665684e+00	-1.7751836220e+00
 2.2470378626e-01	 1.3743443300e+00	-1.7541070293e+00
 2.0943647404e-01	 1.3767536062e+00	-1.7519853068e+00
 1.9419892907e-01	 1.3789854622e+00	-1.7490281297e+00
 1.7899391086e-01	 1.3810413856e+00	-1.7434695770e+00
 1.6382412535e-01	 1.3829229136e+00	-1.7336453736e+00
 1.4869222407e-01	 1.3846316302e+00	-1.7179181157e+00
 2.2589901916e-01	 1.3816546722e+00	-1.7021706193e+00
 2.1055049784e-01	 1.3840767637e+00	-1.6992853367e+00
 1.9523190210e-01	 1.3863204912e+00	-1.6957049088e+00
 1.7994600614e-01	 1.3883873504e+00	-1.6895667316e+00
 1.6469553027e-01	 1.3902788865e+00	-1.6791400951e+00
 1.4948314016e-01	 1.3919966921e+00	-1.6627463825e+00
 2.2709425207e-01	 1.3889650144e+00	-1.6522735207e+00
 2.1166452164e-01	 1.3913999212e+00	-1.6486763117e+00
 1.9626487513e-01	 1.3936555203e+00	-1.6445425533e+00
 1.8089810141e-01	 1.3957333153e+00	-1.6379025676e+00
 1.6556693519e-01	 1.3976348595e+00	-1.6269491002e+00
 1.5027405624e-01	 1.3993617540e+00	-1.6099523728e+00
 1.4631947581e-01	 1.3625364446e+00	-1.8948926428e+00
 1.3146887572e-01	 1.3640494444e+00	-1.8808898298e+00
 1.1666061034e-01	 1.3653956401e+00	-1.8709573877e+00
 1.0189712416e-01	 1.3665767187e+00	-1.8646285610e+00
 8.7180805633e-02	 1.3675944059e+00	-1.8611371011e+00
 7.2513986657e-02	 1.3684504645e+00	-1.8593559915e+00
 1.4711039190e-01	 1.3699015065e+00	-1.8342654313e+00
 1.3217951829e-01	 1.3714226846e+00	-1.8190963706e+00
 1.1729120823e-01	 1.3727761571e+00	-1.8082171035e+00
 1.0244791943e-01	 1.3739636199e+00	-1.8011980240e+00
 8.7652053231e-02	 1.3749868081e+00	-1.7973047739e+00
 7.2905954152e-02	 1.3758474940e+00	-1.7954326223e+00
 1.4790130799e-01	 1.3772665684e+00	-1.7751836220e+00
 1.3289016086e-01	 1.3787959249e+00	-1.7590599166e+00
 1.1792180612e-01	 1.3801566740e+00	-1.7473742586e+00
 1.0299871469e-01	 1.3813505211e+00	-1.7397468405e+00
 8.8123300829e-02	 1.3823792103e+00	-1.7354887257e+00
 7.3297921648e-02	 1.3832445236e+00	-1.7335316849e+00
 1.4869222407e-01	 1.3846316302e+00	-1.7179181157e+00
 1.3360080343e-01	 1.3861691651e+00	-1.7009868058e+00
 1.1855240402e-01	 1.3875371910e+00	-1.6885737148e+00
 1.0354950996e-01	 1.3887374222e+00	-1.6803625612e+00
 8.8594548427e-02	 1.3897716125e+00	-1.6757244465e+00
 7.3689889143e-02	 1.3906415531e+00	-1.6736429478e+00
 1.4948314016e-01	 1.3919966921e+00	-1.6627463825e+00
 1.3431144601e-01	 1.3935424053e+00	-1.6450898301e+00
 1.1918300191e-01	 1.3949177080e+00	-1.6319663543e+00
 1.0410030522e-01	 1.3961243234e+00	-1.6231380159e+00
 8.9065796025e-02	 1.3971640147e+00	-1.6180516686e+00
 7.4081856639e-02	 1.3980385826e+00	-1.6157591004e+00
 1.5027405624e-01	 1.3993617540e+00	-1.6099523728e+00
 1.3502208858e-01	 1.4009156456e+00	-1.5915881685e+00
 1.1981359980e-01	 1.4022982250e+00	-1.5777090354e+00
 1.0465110049e-01	 1.4035112246e+00	-1.5681712936e+00
 8.9537043623e-02	 1.4045564169e+00	-1.5625143717e+00
 7.4473824134e-02	 1.4054356122e+00	-1.5598757855e+00
 7.2513986657e-02	 1.3684504645e+00	-1.8593559915e+00
 5.7898942210e-02	 1.3691466921e+00	-1.8591515205e+00
 4.3337890012e-02	 1.3696849197e+00	-1.8600615462e+00
 2.8832990253e-02	 1.3700670096e+00	-1.8597238808e+00
 1.4386345390e-02	 1.3702948533e+00	-1.8551618969e+00
-8.7228222863e-07	 1.3703878160e+00	-9.5403506612e-01
 7.2905954152e-02	 1.3758474940e+00	-1.7954326223e+00
 5.8211909465e-02	 1.3765474850e+00	-1.7951838953e+00
 4.3572148877e-02	 1.3770886220e+00	-1.7958921806e+00
 2.8988844254e-02	 1.3774727772e+00	-1.7952819281e+00
 1.4464109419e-02	 1.3777018525e+00	-1.7904395320e+00
-8.6677678062e-07	 1.3777954600e+00	-8.5757222508e-01
 7.3297921648e-02	 1.3832445236e+00	-1.7335316849e+00
 5.8524876721e-02	 1.3839482780e+00	-1.7332474501e+00
 4.3806407742e-02	 1.3844923242e+00	-1.7337827531e+00
 2.9144698256e-02	 1.3848785448e+00	-1.7329396611e+00
 1.4541873448e-02	 1.3851088517e+00	-1.7278588523e+00
-8.6103156152e-07	 1.3852030946e+00	-7.6362735204e-01
 7.3689889143e-02	 1.3906415531e+00	-1.6736429478e+00
 5.8837843976e-02	 1.3913490709e+00	-1.6732928050e+00
 4.4040666607e-02	 1.3918960265e+00	-1.6736517982e+00
 2.9300552257e-02	 1.3922843124e+00	-1.6725920451e+00
 1.4619637477e-02	 1.3925158509e+00	-1.6673012013e+00
-8.5504819433e-07	 1.3926107196e+00	-6.7214413951e-01
 7.4081856639e-02	 1.3980385826e+00	-1.6157591004e+00
 5.9150811231e-02	 1.3987498638e+00	-1.6152719273e+00
 4.4274925472e-02	 1.3992997288e+00	-1.6154173960e+00
 2.9456406259e-02	 1.3996900800e+00	-1.6141315672e+00
 1.4697401507e-02	 1.3999228502e+00	-1.6086432033e+00
-8.4882830206e-07	 1.4000183347e+00	-5.8306024123e-01
 7.4473824134e-02	 1.4054356122e+00	-1.5598757855e+00
 5.9463778486e-02	 1.4061506567e+00	-1.5591381916e+00
 4.4509184337e-02	 1.4067034311e+00	-1.5589972618e+00
 2.9612260260e-02	 1.4070958476e+00	-1.5574483564e+00
 1.4775165536e-02	 1.4073298494e+00	-1.5517569165e+00
-8.4237350773e-07	 1.4074259396e+00	-4.9630746012e-01
 1.4074074074e+00	 0.0000000000e+00	 3.8208768508e+00
 1.4073298494e+00	 1.4775165536e-02	 3.8208950257e+00
 1.4070958476e+00	 2.9612260260e-02	 3.8161159589e+00
 1.4067034311e+00	 4.4509184337e-02	 3.8072266615e+00
 1.4061506567e+00	 5.9463778486e-02	 3.7943513749e+00
 1.4054356122e+00	 7.4473824134e-02	 3.7771107551e+00
 1.4148148148e+00	 0.0000000000e+00	 3.8205143430e+00
 1.4147368486e+00	 1.4852929565e-02	 3.8207059515e+00
 1.4145016153e+00	 2.9768114261e-02	 3.8159531902e+00
 1.4141071333e+00	 4.4743443202e-02	 3.8070147122e+00
 1.4135514497e+00	 5.9776745741e-02	 3.7940511862e+00
 1.4128326417e+00	 7.4865791630e-02	 3.7766881327e+00
 1.4222222222e+00	 0.0000000000e+00	 3.8194702513e+00
 1.4221438478e+00	 1.4930693594e-02	 3.8197723073e+00
 1.4219073829e+00	 2.9923968263e-02	 3.8149904100e+00
 1.4215108356e+00	 4.4977702067e-02	 3.8059469513e+00
 1.4209522426e+00	 6.0089712997e-02	 3.7928299307e+00
 1.4202296712e+00	 7.5257759125e-02	 3.7752595823e+00
 1.4296296296e+00	 0.0000000000e+00	 3.8177064667e+00
 1.4295508470e+00	 1.5008457623e-02	 3.8180527091e+00
 1.4293131505e+00	 3.0079822264e-02	 3.8131929009e+00
 1.4289145379e+00	 4.5211960932e-02	 3.8040042073e+00
 1.4283530355e+00	 6.0402680252e-02	 3.7906917579e+00
 1.4276267008e+00	 7.5649726620e-02	 3.7728592090e+00
 1.4370370370e+00	 0.0000000000e+00	 3.8151845124e+00
 1.4369578462e+00	 1.5086221652e-02	 3.8155051641e+00
 1.4367189181e+00	 3.0235676265e-02	 3.8105251361e+00
 1.4363182401e+00	 4.5446219796e-02	 3.8011663283e+00
 1.4357538285e+00	 6.0715647507e-02	 3.7876396846e+00
 1.4350237303e+00	 7.6041694116e-02	 3.7695198403e+00
 1.4444444444e+00	 0.0000000000e+00	 3.8118655538e+00
 1.4443648454e+00	 1.5163985681e-02	 3.8120870845e+00
 1.4441246857e+00	 3.0391530267e-02	 3.8069507980e+00
 1.4437219424e+00	 4.5680478661e-02	 3.7974122059e+00
 1.4431546214e+00	 6.1028614762e-02	 3.7836756251e+00
 1.4424207599e+00	 7.6433661611e-02	 3.7652730618e+00
 1.4054356122e+00	 7.4473824134e-02	 3.7771107551e+00
 1.4045564169e+00	 8.9537043623e-02	 3.7568614923e+00
 1.4035112246e+00	 1.0465110049e-01	 3.7349982820e+00
 1.4022982250e+00	 1.1981359980e-01	 3.7106715357e+00
 1.4009156456e+00	 1.3502208858e-01	 3.6828510275e+00
 1.3993617540e+00	 1.5027405624e-01	 3.6504200303e+00
 1.4128326417e+00	 7.4865791630e-02	 3.7766881327e+00
 1.4119488191e+00	 9.0008291221e-02	 3.7562832734e+00
 1.4108981258e+00	 1.0520189576e-01	 3.7342568752e+00
 1.4096787419e+00	 1.2044419770e-01	 3.7097665603e+00
 1.4082888858e+00	 1.3573273115e-01	 3.6817757330e+00
 1.4067268158e+00	 1.5106497233e-01	 3.6491529348e+00
 1.4202296712e+00	 7.5257759125e-02	 3.7752595823e+00
 1.4193412213e+00	 9.0479538819e-02	 3.7545834269e+00
 1.4182850270e+00	 1.0575269102e-01	 3.7322636454e+00
 1.4170592589e+00	 1.2107479559e-01	 3.7074956334e+00
 1.4156621261e+00	 1.3644337372e-01	 3.6792671491e+00
 1.4140918777e+00	 1.5185588841e-01	 3.6464630111e+00
 1.4276267008e+00	 7.5649726620e-02	 3.7728592090e+00
 1.4267336235e+00	 9.0950786417e-02	 3.7518312785e+00
 1.4256719282e+00	 1.0630348629e-01	 3.7291265666e+00
 1.4244397759e+00	 1.2170539348e-01	 3.7040069158e+00
 1.4230353663e+00	 1.3715401629e-01	 3.6755132482e+00
 1.4214569395e+00	 1.5264680450e-01	 3.6425757368e+00
 1.4350237303e+00	 7.6041694116e-02	 3.7695198403e+00
 1.4341260257e+00	 9.1422034015e-02	 3.7480947307e+00
 1.4330588293e+00	 1.0685428155e-01	 3.7249520447e+00
 1.4318202929e+00	 1.2233599138e-01	 3.6994468573e+00
 1.4304086065e+00	 1.3786465886e-01	 3.6707001536e+00
 1.4288220014e+00	 1.5343772058e-01	 3.6377146084e+00
 1.4424207599e+00	 7.6433661611e-02	 3.7652730618e+00
 1.4415184279e+00	 9.1893281613e-02	 3.7434403042e+00
 1.4404457305e+00	 1.0740507682e-01	 3.7198449636e+00
 1.4392008098e+00	 1.2296658927e-01	 3.6939602466e+00
 1.4377818468e+00	 1.3857530143e-01	 3.6650121897e+00
 1.4361870633e+00	 1.5422863667e-01	 3.6321011895e+00
 1.3993617540e+00	 1.5027405624e-01	 3.6504200303e+00
 1.3976348595e+00	 1.6556693519e-01	 3.6120971022e+00
 1.3957333153e+00	 1.8089810141e-01	 3.5678338895e+00
 1.3936555203e+00	 1.9626487513e-01	 3.5185380328e+00
 1.3913999212e+00	 2.1166452164e-01	 3.4654380034e+00
 1.3889650144e+00	 2.2709425207e-01	 3.4101810873e+00
 1.4067268158e+00	 1.5106497233e-01	 3.6491529348e+00
 1.4049908324e+00	 1.6643834011e-01	 3.6105029563e+00
 1.4030792801e+00	 1.8185019668e-01	 3.5656781069e+00
 1.4009905493e+00	 1.9729784816e-01	 3.5155974241e+00
 1.3987230787e+00	 2.1277854543e-01	 3.4615154396e+00
 1.3962753565e+00	 2.2828948497e-01	 3.4051260104e+00
 1.4140918777e+00	 1.5185588841e-01	 3.6464630111e+00
 1.4123468054e+00	 1.6730974504e-01	 3.6075940817e+00
 1.4104252449e+00	 1.8280229195e-01	 3.5623765657e+00
 1.4083255784e+00	 1.9833082118e-01	 3.5116876670e+00
 1.4060462362e+00	 2.1389256923e-01	 3.4567555017e+00
 1.4035856987e+00	 2.2948471788e-01	 3.3992690841e+00
 1.4214569395e+00	 1.5264680450e-01	 3.6425757368e+00
 1.4197027783e+00	 1.6818114996e-01	 3.6036344763e+00
 1.4177712097e+00	 1.8375438722e-01	 3.5582370308e+00
 1.4156606074e+00	 1.9936379421e-01	 3.5071649745e+00
 1.4133693936e+00	 2.1500659303e-01	 3.4515669811e+00
 1.4108960409e+00	 2.3067995079e-01	 3.3930752779e+00
 1.4288220014e+00	 1.5343772058e-01	 3.6377146084e+00
 1.4270587512e+00	 1.6905255488e-01	 3.5988859244e+00
 1.4251171745e+00	 1.8470648249e-01	 3.5535645969e+00
 1.4229956365e+00	 2.0039676724e-01	 3.5023821823e+00
 1.4206925511e+00	 2.1612061683e-01	 3.4463543089e+00
 1.4182063831e+00	 2.3187518369e-01	 3.3870039183e+00
 1.4361870633e+00	 1.5422863667e-01	 3.6321011895e+00
 1.4344147242e+00	 1.6992395980e-01	 3.5936080426e+00
 1.4324631393e+00	 1.8565857776e-01	 3.5486617328e+00
 1.4303306656e+00	 2.0142974026e-01	 3.4976887940e+00
 1.4280157086e+00	 2.1723464063e-01	 3.4415176052e+00
 1.4255167253e+00	 2.3307041660e-01	 3.3815087438e+00
 1.3889650144e+00	 2.2709425207e-01	 3.4101810873e+00
 1.3863493477e+00	 2.4255122434e-01	 3.3566346519e+00
 1.3835515229e+00	 2.5803254413e-01	 3.3049520837e+00
 1.3805701970e+00	 2.7353526591e-01	 3.2521085113e+00
 1.3774040843e+00	 2.8905639414e-01	 3.1958521169e+00
 1.3740519587e+00	 3.0459288440e-01	 3.1347831106e+00
 1.3962753565e+00	 2.2828948497e-01	 3.4051260104e+00
 1.3936459233e+00	 2.4382780973e-01	 3.3507493606e+00
 1.3908333730e+00	 2.5939061015e-01	 3.2988005580e+00
 1.3878363559e+00	 2.7497492521e-01	 3.2460618073e+00
 1.3846535795e+00	 2.9057774358e-01	 3.1901310669e+00
 1.3812838111e+00	 3.0619600485e-01	 3.1295068459e+00
 1.4035856987e+00	 2.2948471788e-01	 3.3992690841e+00
 1.4009424988e+00	 2.4510439512e-01	 3.3439799578e+00
 1.3981152232e+00	 2.6074867617e-01	 3.2916118723e+00
 1.3951025148e+00	 2.7641458450e-01	 3.2388072440e+00
 1.3919030747e+00	 2.9209909302e-01	 3.1830680194e+00
 1.3885156635e+00	 3.0779912529e-01	 3.1228463600e+00
 1.4108960409e+00	 2.3067995079e-01	 3.3930752779e+00
 1.4082390743e+00	 2.4638098052e-01	 3.3368388257e+00
 1.4053970733e+00	 2.6210674219e-01	 3.2839236253e+00
 1.4023686738e+00	 2.7785424379e-01	 3.2308833665e+00
 1.3991525698e+00	 2.9362044246e-01	 3.1751761725e+00
 1.3957475159e+00	 3.0940224573e-01	 3.1152612481e+00
 1.4182063831e+00	 2.3187518369e-01	 3.3870039183e+00
 1.4155356498e+00	 2.4765756591e-01	 3.3298313419e+00
 1.4126789234e+00	 2.6346480821e-01	 3.2762652148e+00
 1.4096348327e+00	 2.7929390309e-01	 3.2228194981e+00
 1.4064020650e+00	 2.9514179191e-01	 3.1669586703e+00
 1.4029793684e+00	 3.1100536618e-01	 3.1072004205e+00
 1.4255167253e+00	 2.3307041660e-01	 3.3815087438e+00
 1.4228322253e+00	 2.4893415130e-01	 3.3234559354e+00
 1.4199607735e+00	 2.6482287423e-01	 3.2691578832e+00
 1.4169009916e+00	 2.8073356238e-01	 3.2151357651e+00
 1.4136515602e+00	 2.9666314135e-01	 3.1589085941e+00
 1.4102112208e+00	 3.1260848662e-01	 3.0991020475e+00
 1.3740519587e+00	 3.0459288440e-01	 3.1347831106e+00
 1.3705126551e+00	 3.2014164476e-01	 3.0580977281e+00
 1.3667850713e+00	 3.3569953707e-01	 2.9631911197e+00
 1.3628681702e+00	 3.5126337844e-01	 2.8623659469e+00
 1.3587609810e+00	 3.6682994276e-01	 2.7688822460e+00
 1.3544626014e+00	 3.8239596226e-01	 2.7031007551e+00
 1.3812838111e+00	 3.0619600485e-01	 3.1295068459e+00
 1.3777258796e+00	 3.2182660078e-01	 3.0524543932e+00
 1.3739786770e+00	 3.3746637674e-01	 2.9558271969e+00
 1.3700411606e+00	 3.5311213307e-01	 2.8524977605e+00
 1.3659123546e+00	 3.6876062667e-01	 2.7563618493e+00
 1.3615913519e+00	 3.8440857259e-01	 2.6903499095e+00
 1.3885156635e+00	 3.0779912529e-01	 3.1228463600e+00
 1.3849391041e+00	 3.2351155681e-01	 3.0454925820e+00
 1.3811722826e+00	 3.3923321641e-01	 2.9472752918e+00
 1.3772141510e+00	 3.5496088769e-01	 2.8416063883e+00
 1.3730637282e+00	 3.7069131058e-01	 2.7429946070e+00
 1.3687201024e+00	 3.8642118291e-01	 2.6770389762e+00
 1.3957475159e+00	 3.0940224573e-01	 3.1152612481e+00
 1.3921523286e+00	 3.2519651283e-01	 3.0376017603e+00
 1.3883658883e+00	 3.4100005607e-01	 2.9378510232e+00
 1.3843871413e+00	 3.5680964231e-01	 2.8299296412e+00
 1.3802151018e+00	 3.7262199449e-01	 2.7291366779e+00
 1.3758488530e+00	 3.8843379324e-01	 2.6632097176e+00
 1.4029793684e+00	 3.1100536618e-01	 3.1072004205e+00
 1.3993655531e+00	 3.2688146886e-01	 3.0291600131e+00
 1.3955594939e+00	 3.4276689574e-01	 2.9278575808e+00
 1.3915601317e+00	 3.5865839694e-01	 2.8176914857e+00
 1.3873664753e+00	 3.7455267840e-01	 2.7150055492e+00
 1.3829776035e+00	 3.9044640357e-01	 2.6488920326e+00
 1.4102112208e+00	 3.1260848662e-01	 3.0991020475e+00
 1.4065787776e+00	 3.2856642488e-01	 3.0205339359e+00
 1.4027530995e+00	 3.4453373541e-01	 2.9175855629e+00
 1.3987331221e+00	 3.6050715156e-01	 2.8051018288e+00
 1.3945178489e+00	 3.7648336231e-01	 2.7006868457e+00
 1.3901063540e+00	 3.9245901390e-01	 2.6341042531e+00
 1.3544626014e+00	 3.8239596226e-01	 2.7031007551e+00
 1.3499721989e+00	 3.9795812918e-01	 2.6476811217e+00
 1.3452890130e+00	 4.1351309752e-01	 2.5686445825e+00
 1.3404123564e+00	 4.2905748485e-01	 2.4736419075e+00
 1.3353416164e+00	 4.4458787417e-01	 2.3703573573e+00
 1.3300762571e+00	 4.6010081589e-01	 2.2664400103e+00
 1.3615913519e+00	 3.8440857259e-01	 2.6903499095e+00
 1.3570773158e+00	 4.0005264565e-01	 2.6350353672e+00
 1.3523694815e+00	 4.1568948224e-01	 2.5559794961e+00
 1.3474671582e+00	 4.3131568214e-01	 2.4606717741e+00
 1.3423697302e+00	 4.4692781035e-01	 2.3566402233e+00
 1.3370766584e+00	 4.6252239913e-01	 2.2513815713e+00
 1.3687201024e+00	 3.8642118291e-01	 2.6770389762e+00
 1.3641824326e+00	 4.0214716212e-01	 2.6218698363e+00
 1.3594499500e+00	 4.1786586697e-01	 2.5429964121e+00
 1.3545219601e+00	 4.3357387943e-01	 2.4476776843e+00
 1.3493978440e+00	 4.4926774653e-01	 2.3432158329e+00
 1.3440770598e+00	 4.6494398237e-01	 2.2368853584e+00
 1.3758488530e+00	 3.8843379324e-01	 2.6632097176e+00
 1.3712875494e+00	 4.0424167859e-01	 2.6081635902e+00
 1.3665304185e+00	 4.2004225169e-01	 2.5296185300e+00
 1.3615767620e+00	 4.3583207672e-01	 2.4345353062e+00
 1.3564259577e+00	 4.5160768271e-01	 2.3299221263e+00
 1.3510774611e+00	 4.6736556561e-01	 2.2227628418e+00
 1.3829776035e+00	 3.9044640357e-01	 2.6488920326e+00
 1.3783926663e+00	 4.0633619505e-01	 2.5938844660e+00
 1.3736108870e+00	 4.2221863642e-01	 2.5157584008e+00
 1.3686315639e+00	 4.3809027400e-01	 2.4211101442e+00
 1.3634540715e+00	 4.5394761889e-01	 2.3165872473e+00
 1.3580778625e+00	 4.6978714885e-01	 2.2088159174e+00
 1.3901063540e+00	 3.9245901390e-01	 2.6341042531e+00
 1.3854977831e+00	 4.0843071152e-01	 2.5789893889e+00
 1.3806913555e+00	 4.2439502114e-01	 2.5013182596e+00
 1.3756863658e+00	 4.4034847129e-01	 2.4072578975e+00
 1.3704821853e+00	 4.5628755507e-01	 2.3030299333e+00
 1.3650782638e+00	 4.7220873209e-01	 2.1948373344e+00
 1.3300762571e+00	 4.6010081589e-01	 2.2664400103e+00
 1.3246158200e+00	 4.7559282980e-01	 2.1651791776e+00
 1.3189599262e+00	 4.9106040720e-01	 2.0646776632e+00
 1.3131082770e+00	 5.0650001305e-01	 1.9645859119e+00
 1.3070606558e+00	 5.2190808814e-01	 1.8643149489e+00
 1.3008169288e+00	 5.3728105139e-01	 1.7629913502e+00
 1.3370766584e+00	 4.6252239913e-01	 2.2513815713e+00
 1.3315874822e+00	 4.7809594995e-01	 2.1485585103e+00
 1.3259018205e+00	 4.9364493566e-01	 2.0467508760e+00
 1.3200193732e+00	 5.0916580259e-01	 1.9456094781e+00
 1.3139399224e+00	 5.2465497281e-01	 1.8445381856e+00
 1.3076633337e+00	 5.4010884640e-01	 1.7426479957e+00
 1.3440770598e+00	 4.6494398237e-01	 2.2368853584e+00
 1.3385591445e+00	 4.8059907011e-01	 2.1326311427e+00
 1.3328437149e+00	 4.9622946412e-01	 2.0295164958e+00
 1.3269304694e+00	 5.1183159214e-01	 1.9272687632e+00
 1.3208191890e+00	 5.2740185749e-01	 1.8253603198e+00
 1.3145097386e+00	 5.4293664141e-01	 1.7229615717e+00
 1.3510774611e+00	 4.6736556561e-01	 2.2227628418e+00
 1.3455308067e+00	 4.8310219027e-01	 2.1171862548e+00
 1.3397856092e+00	 4.9881399258e-01	 2.0127369374e+00
 1.3338415656e+00	 5.1449738168e-01	 1.9092939971e+00
 1.3276984556e+00	 5.3014874216e-01	 1.8064730084e+00
 1.3213561435e+00	 5.4576443641e-01	 1.7035777820e+00
 1.3580778625e+00	 4.6978714885e-01	 2.2088159174e+00
 1.3525024689e+00	 4.8560531042e-01	 2.1020036752e+00
 1.3467275036e+00	 5.0139852104e-01	 1.9961656678e+00
 1.3407526618e+00	 5.1716317122e-01	 1.8914070650e+00
 1.3345777222e+00	 5.3289562684e-01	 1.7875603838e+00
 1.3282025483e+00	 5.4859223142e-01	 1.6841358610e+00
 1.3650782638e+00	 4.7220873209e-01	 2.1948373344e+00
 1.3594741311e+00	 4.8810843058e-01	 2.0868543508e+00
 1.3536693979e+00	 5.0398304950e-01	 1.9795477148e+00
 1.3476637580e+00	 5.1982896076e-01	 1.8733220523e+00
 1.3414569889e+00	 5.3564251151e-01	 1.7682996321e+00
 1.3350489532e+00	 5.5142002643e-01	 1.6642691817e+00
 1.3008169288e+00	 5.3728105139e-01	 1.7629913502e+00
 1.2943770464e+00	 5.5261530219e-01	 1.6574400595e+00
 1.2877410441e+00	 5.6790722275e-01	 1.5476946619e+00
 1.2809090438e+00	 5.8315318059e-01	 1.4370967085e+00
 1.2738812540e+00	 5.9834953097e-01	 1.3284734873e+00
 1.2666579713e+00	 6.1349261946e-01	 1.2240964132e+00
 1.3076633337e+00	 5.4010884640e-01	 1.7426479957e+00
 1.3011895572e+00	 5.5552380378e-01	 1.6362969914e+00
 1.2945186286e+00	 5.7089620814e-01	 1.5253446448e+00
 1.2876506703e+00	 5.8622240785e-01	 1.4135408720e+00
 1.2805858921e+00	 6.0149873902e-01	 1.3041090984e+00
 1.2733245922e+00	 6.1672152798e-01	 1.1997035000e+00
 1.3145097386e+00	 5.4293664141e-01	 1.7229615717e+00
 1.3080020679e+00	 5.5843230537e-01	 1.6159966778e+00
 1.3012962130e+00	 5.7388519352e-01	 1.5040869678e+00
 1.2943922969e+00	 5.8929163512e-01	 1.3913187158e+00
 1.2872905303e+00	 6.0464794708e-01	 1.2812383494e+00
 1.2799912131e+00	 6.1995043650e-01	 1.1768087127e+00
 1.3213561435e+00	 5.4576443641e-01	 1.7035777820e+00
 1.3148145787e+00	 5.6134080696e-01	 1.5961351203e+00
 1.3080737975e+00	 5.7687417890e-01	 1.4834692975e+00
 1.3011339234e+00	 5.9236086239e-01	 1.3699321481e+00
 1.2939951685e+00	 6.0779715514e-01	 1.2593211626e+00
 1.2866578340e+00	 6.2317934503e-01	 1.1548349413e+00
 1.3282025483e+00	 5.4859223142e-01	 1.6841358610e+00
 1.3216270895e+00	 5.6424930855e-01	 1.5763030626e+00
 1.3148513819e+00	 5.7986316428e-01	 1.4630353010e+00
 1.3078755499e+00	 5.9543008965e-01	 1.3488803523e+00
 1.3006998067e+00	 6.1094636320e-01	 1.2378159948e+00
 1.2933244549e+00	 6.2640825355e-01	 1.1332048234e+00
 1.3350489532e+00	 5.5142002643e-01	 1.6642691817e+00
 1.3284396002e+00	 5.6715781014e-01	 1.5560866271e+00
 1.3216289664e+00	 5.8285214967e-01	 1.4423253110e+00
 1.3146171765e+00	 5.9849931692e-01	 1.3276604816e+00
 1.3074044449e+00	 6.1409557125e-01	 1.2161805641e+00
 1.2999910758e+00	 6.2963716207e-01	 1.1113415052e+00
 1.2666579713e+00	 6.1349261946e-01	 1.2240964132e+00
 1.2592395809e+00	 6.2857878451e-01	 1.1223641469e+00
 1.2516265570e+00	 6.4360436009e-01	 1.0186737208e+00
 1.2438194635e+00	 6.5856567829e-01	 9.0973275773e-01
 1.2358189547e+00	 6.7345907206e-01	 7.9140511281e-01
 1.2276257750e+00	 6.8828087791e-01	 6.5869547559e-01
 1.2733245922e+00	 6.1672152798e-01	 1.1997035000e+00
 1.2658671576e+00	 6.3188709390e-01	 1.0983283521e+00
 1.2582140652e+00	 6.4699175146e-01	 9.9455177653e-01
 1.2503658817e+00	 6.6203181344e-01	 8.8479426957e-01
 1.2423232649e+00	 6.7700359349e-01	 7.6462346461e-01
 1.2340869633e+00	 6.9190340885e-01	 6.2873994268e-01
 1.2799912131e+00	 6.1995043650e-01	 1.1768087127e+00
 1.2724947344e+00	 6.3519540330e-01	 1.0756415714e+00
 1.2648015734e+00	 6.5037914283e-01	 9.7159426747e-01
 1.2569123000e+00	 6.6549794858e-01	 8.6090192568e-01
 1.2488275752e+00	 6.8054811492e-01	 7.3894038180e-01
 1.2405481516e+00	 6.9552593978e-01	 6.0021306976e-01
 1.2866578340e+00	 6.2317934503e-01	 1.1548349413e+00
 1.2791223111e+00	 6.3850371269e-01	 1.0537047898e+00
 1.2713890815e+00	 6.5376653419e-01	 9.4920377759e-01
 1.2634587182e+00	 6.6896408373e-01	 8.3748185158e-01
 1.2553318855e+00	 6.8409263635e-01	 7.1382586418e-01
 1.2470093399e+00	 6.9914847072e-01	 5.7264740887e-01
 1.2933244549e+00	 6.2640825355e-01	 1.1332048234e+00
 1.2857498879e+00	 6.4181202208e-01	 1.0319196889e+00
 1.2779765897e+00	 6.5715392556e-01	 9.2678409108e-01
 1.2700051364e+00	 6.7243021888e-01	 8.1396145398e-01
 1.2618361958e+00	 6.8763715779e-01	 6.8875087450e-01
 1.2534705282e+00	 7.0277100166e-01	 5.4557578134e-01
 1.2999910758e+00	 6.2963716207e-01	 1.1113415052e+00
 1.2923774646e+00	 6.4512033147e-01	 1.0096894497e+00
 1.2845640979e+00	 6.6054131693e-01	 9.0374104922e-01
 1.2765515547e+00	 6.7589635403e-01	 7.8977034307e-01
 1.2683405061e+00	 6.9118167922e-01	 6.6318833657e-01
 1.2599317165e+00	 7.0639353259e-01	 5.1853236113e-01
 1.2276257750e+00	 6.8828087791e-01	 6.5869547559e-01
 1.2192407600e+00	 7.0302743866e-01	 5.3199912406e-01
 1.2106648359e+00	 7.1769510618e-01	 4.3182388596e-01
 1.2018990200e+00	 7.3228024421e-01	 3.5238739851e-01
 1.1929444205e+00	 7.4677923113e-01	 2.8169940014e-01
 1.1838022363e+00	 7.6118846278e-01	 1.6381455976e-01
 1.2340869633e+00	 6.9190340885e-01	 6.2873994268e-01
 1.2256578167e+00	 7.0672758307e-01	 4.9961342355e-01
 1.2170367561e+00	 7.2147244884e-01	 4.0036746023e-01
 1.2082248044e+00	 7.3613435076e-01	 3.2572612008e-01
 1.1992230753e+00	 7.5070964814e-01	 2.5434469026e-01
 1.1900327743e+00	 7.6519471784e-01	 1.3245972941e-01
 1.2405481516e+00	 6.9552593978e-01	 6.0021306976e-01
 1.2320748733e+00	 7.1042772749e-01	 4.6933779158e-01
 1.2234086763e+00	 7.2524979151e-01	 3.7195026027e-01
 1.2145505887e+00	 7.3998845731e-01	 3.0312051983e-01
 1.2055017302e+00	 7.5464006514e-01	 2.2737687898e-01
 1.1962633124e+00	 7.6920097291e-01	 1.0233679012e-01
 1.2470093399e+00	 6.9914847072e-01	 5.7264740887e-01
 1.2384919299e+00	 7.1412787190e-01	 4.4076030803e-01
 1.2297805965e+00	 7.2902713417e-01	 3.4618584846e-01
 1.2208763730e+00	 7.4384256386e-01	 2.8271014101e-01
 1.2117803850e+00	 7.5857048215e-01	 2.0056633866e-01
 1.2024938505e+00	 7.7320722798e-01	 7.3195473767e-02
 1.2534705282e+00	 7.0277100166e-01	 5.4557578134e-01
 1.2449089866e+00	 7.1782801631e-01	 4.1346877207e-01
 1.2361525167e+00	 7.3280447684e-01	 3.2268756368e-01
 1.2272021573e+00	 7.4769667040e-01	 2.6122026661e-01
 1.2180590399e+00	 7.6250089915e-01	 1.7370394243e-01
 1.2087243886e+00	 7.7721348305e-01	 4.4806515014e-02
 1.2599317165e+00	 7.0639353259e-01	 5.1853236113e-01
 1.2513260432e+00	 7.2152816073e-01	 3.8705186662e-01
 1.2425244369e+00	 7.3658181950e-01	 3.0106975056e-01
 1.2335279416e+00	 7.5155077695e-01	 2.3837203407e-01
 1.2243376947e+00	 7.6643131616e-01	 1.4660053716e-01
 1.2149549267e+00	 7.8121973811e-01	 1.6961108441e-02
 1.1838022363e+00	 7.6118846278e-01	 1.6381455976e-01
 1.1744737568e+00	 7.7550435525e-01	 2.8535507263e-02
 1.1649603618e+00	 7.8972334772e-01	-8.4898225157e-02
 1.1552635205e+00	 8.0384190525e-01	-1.8534428450e-01
 1.1453847915e+00	 8.1785652157e-01	-2.8145646810e-01
 1.1353258217e+00	 8.3176372189e-01	-3.8158253304e-01
 1.1900327743e+00	 7.6519471784e-01	 1.3245972941e-01
 1.1806551976e+00	 7.7958595712e-01	-3.4082654729e-03
 1.1710917321e+00	 7.9387978639e-01	-1.1607556714e-01
 1.1613438548e+00	 8.0807265212e-01	-2.1519693384e-01
 1.1514131325e+00	 8.2216102958e-01	-3.1024821618e-01
 1.1413012207e+00	 8.3614142569e-01	-4.1042004331e-01
 1.1962633124e+00	 7.6920097291e-01	 1.0233679012e-01
 1.1868366385e+00	 7.8366755899e-01	-3.3795443843e-02
 1.1772231024e+00	 7.9803622506e-01	-1.4583331969e-01
 1.1674241891e+00	 8.1230339899e-01	-2.4393449922e-01
 1.1574414735e+00	 8.2646553759e-01	-3.3810325291e-01
 1.1472766198e+00	 8.4051912949e-01	-4.3808062746e-01
 1.2024938505e+00	 7.7320722798e-01	 7.3195473767e-02
 1.1930180793e+00	 7.8774916086e-01	-6.2909870640e-02
 1.1833544727e+00	 8.0219266373e-01	-1.7449695772e-01
 1.1735045235e+00	 8.1653414586e-01	-2.7193684238e-01
 1.1634698145e+00	 8.3077004559e-01	-3.6547330224e-01
 1.1532520189e+00	 8.4489683329e-01	-4.6511008473e-01
 1.2087243886e+00	 7.7721348305e-01	 4.4806515014e-02
 1.1991995201e+00	 7.9183076273e-01	-9.1013572643e-02
 1.1894858431e+00	 8.0634910241e-01	-2.0236911668e-01
 1.1795848578e+00	 8.2076489272e-01	-2.9955965637e-01
 1.1694981555e+00	 8.3507455360e-01	-3.9278418947e-01
 1.1592274179e+00	 8.4927453709e-01	-4.9202609043e-01
 1.2149549267e+00	 7.8121973811e-01	 1.6961108441e-02
 1.2053809609e+00	 7.9591236460e-01	-1.1834732468e-01
 1.1956172134e+00	 8.1050554108e-01	-2.2973018053e-01
 1.1856651921e+00	 8.2499563959e-01	-3.2713508270e-01
 1.1755264965e+00	 8.3937906161e-01	-4.2043649518e-01
 1.1652028170e+00	 8.5365224089e-01	-5.1931889687e-01
 1.1353258217e+00	 8.3176372189e-01	-3.8158253304e-01
 1.1250883458e+00	 8.4556006566e-01	-4.8133278512e-01
 1.1146741853e+00	 8.5924214931e-01	-5.6937920816e-01
 1.1040852475e+00	 8.7280660896e-01	-6.5026606821e-01
 1.0933235247e+00	 8.8625012314e-01	-7.4081040568e-01
 1.0823910925e+00	 8.9956941544e-01	-8.3012621998e-01
 1.1413012207e+00	 8.3614142569e-01	-4.1042004331e-01
 1.1310098634e+00	 8.5001038180e-01	-5.1236495245e-01
 1.1205408915e+00	 8.6376447641e-01	-6.0512194316e-01
 1.1098962225e+00	 8.7740032795e-01	-6.8596250180e-01
 1.0990778590e+00	 8.9091459747e-01	-7.6958511132e-01
 1.0880878878e+00	 9.0430399131e-01	-8.5700788039e-01
 1.1472766198e+00	 8.4051912949e-01	-4.3808062746e-01
 1.1369313810e+00	 8.5446069793e-01	-5.4125795266e-01
 1.1264075977e+00	 8.6828680351e-01	-6.3714774080e-01
 1.1157071975e+00	 8.8199404695e-01	-7.2295814751e-01
 1.1048321934e+00	 8.9557907181e-01	-8.0028118761e-01
 1.0937846830e+00	 9.0903856718e-01	-8.8381061958e-01
 1.1532520189e+00	 8.4489683329e-01	-4.6511008473e-01
 1.1428528986e+00	 8.5891101407e-01	-5.6865690007e-01
 1.1322743040e+00	 8.7280913061e-01	-6.6618292503e-01
 1.1215181725e+00	 8.8658776594e-01	-7.5536623606e-01
 1.1105865277e+00	 9.0024354614e-01	-8.3321842996e-01
 1.0994814782e+00	 9.1377314305e-01	-9.1085185813e-01
 1.1592274179e+00	 8.4927453709e-01	-4.9202609043e-01
 1.1487744162e+00	 8.6336133021e-01	-5.9517641850e-01
 1.1381410102e+00	 8.7733145771e-01	-6.9292130774e-01
 1.1273291475e+00	 8.9118148494e-01	-7.8372218254e-01
 1.1163408621e+00	 9.0490802047e-01	-8.6531331456e-01
 1.1051782734e+00	 9.1850771892e-01	-9.3842469862e-01
 1.1652028170e+00	 8.5365224089e-01	-5.1931889687e-01
 1.1546959338e+00	 8.6781164634e-01	-6.2140139036e-01
 1.1440077164e+00	 8.8185378482e-01	-7.1802497474e-01
 1.1331401225e+00	 8.9577520393e-01	-8.0874326418e-01
 1.1220951964e+00	 9.0957249480e-01	-8.9235509824e-01
 1.1108750687e+00	 9.2324229479e-01	-9.6679726996e-01
 1.0823910925e+00	 8.9956941544e-01	-8.3012621998e-01
 1.0712901091e+00	 9.1276125710e-01	-9.1835354426e-01
 1.0600228135e+00	 9.2582246962e-01	-1.0106228490e+00
 1.0485915242e+00	 9.3874992724e-01	-1.0997900436e+00
 1.0369986375e+00	 9.5154055946e-01	-1.1776256221e+00
 1.0252466262e+00	 9.6419135341e-01	-1.2349392763e+00
 1.0880878878e+00	 9.0430399131e-01	-8.5700788039e-01
 1.0769284781e+00	 9.1756526372e-01	-9.4624447319e-01
 1.0656018810e+00	 9.3069521946e-01	-1.0401253516e+00
 1.0541104269e+00	 9.4369071633e-01	-1.1308583647e+00
 1.0424565250e+00	 9.5654866766e-01	-1.2095409657e+00
 1.0306426610e+00	 9.6926604474e-01	-1.2662899898e+00
 1.0937846830e+00	 9.0903856718e-01	-8.8381061958e-01
 1.0825668471e+00	 9.2236927034e-01	-9.7275354930e-01
 1.0711809484e+00	 9.3556796930e-01	-1.0676097950e+00
 1.0596293297e+00	 9.4863150542e-01	-1.1597629617e+00
 1.0479144126e+00	 9.6155677587e-01	-1.2394594010e+00
 1.0360386959e+00	 9.7434073608e-01	-1.2959436578e+00
 1.0994814782e+00	 9.1377314305e-01	-9.1085185813e-01
 1.0882052161e+00	 9.2717327695e-01	-9.9817701581e-01
 1.0767600158e+00	 9.4044071914e-01	-1.0933484616e+00
 1.0651482324e+00	 9.5357229451e-01	-1.1867517900e+00
 1.0533723002e+00	 9.6656488408e-01	-1.2676065811e+00
 1.0414347308e+00	 9.7941542741e-01	-1.3241080228e+00
 1.1051782734e+00	 9.1850771892e-01	-9.3842469862e-01
 1.0938435851e+00	 9.3197728357e-01	-1.0227878245e+00
 1.0823390833e+00	 9.4531346898e-01	-1.1175915996e+00
 1.0706671352e+00	 9.5851308360e-01	-1.2120521988e+00
 1.0588301877e+00	 9.7157299229e-01	-1.2941890943e+00
 1.0468307657e+00	 9.8449011874e-01	-1.3509733558e+00
 1.1108750687e+00	 9.2324229479e-01	-9.6679726996e-01
 1.0994819541e+00	 9.3678129019e-01	-1.0468349754e+00
 1.0879181507e+00	 9.5018621882e-01	-1.1405667560e+00
 1.0761860379e+00	 9.6345387269e-01	-1.2358702583e+00
 1.0642880753e+00	 9.7658110049e-01	-1.3193937840e+00
 1.0522268005e+00	 9.8956481008e-01	-1.3767117718e+00
 1.0252466262e+00	 9.6419135341e-01	-1.2349392763e+00
 1.0133380373e+00	 9.7669935625e-01	-1.2928534341e+00
 1.0012754909e+00	 9.8906167742e-01	-1.3696913995e+00
 9.8906167742e-01	 1.0012754909e+00	-1.4511878526e+00
 9.7669935625e-01	 1.0133380373e+00	-1.5228921845e+00
 9.6419135341e-01	 1.0252466262e+00	-1.5703312269e+00
 1.0306426610e+00	 9.6926604474e-01	-1.2662899898e+00
 1.0186713954e+00	 9.8183987917e-01	-1.3226191897e+00
 1.0065453619e+00	 9.9426726520e-01	-1.3977732157e+00
 9.9426726520e-01	 1.0065453619e+00	-1.4775648602e+00
 9.8183987917e-01	 1.0186713954e+00	-1.5476084898e+00
 9.6926604474e-01	 1.0306426610e+00	-1.5934872219e+00
 1.0360386959e+00	 9.7434073608e-01	-1.2959436578e+00
 1.0240047535e+00	 9.8698040210e-01	-1.3509201279e+00
 1.0118152329e+00	 9.9947285297e-01	-1.4245039306e+00
 9.9947285297e-01	 1.0118152329e+00	-1.5026306817e+00
 9.8698040210e-01	 1.0240047535e+00	-1.5710246566e+00
 9.7434073608e-01	 1.0360386959e+00	-1.6153704306e+00
 1.0414347308e+00	 9.7941542741e-01	-1.3241080228e+00
 1.0293381116e+00	 9.9212092503e-01	-1.3779540750e+00
 1.0170851039e+00	 1.0046784407e+00	-1.4500806911e+00
 1.0046784407e+00	 1.0170851039e+00	-1.5265898068e+00
 9.9212092503e-01	 1.0293381116e+00	-1.5933593000e+00
 9.7941542741e-01	 1.0414347308e+00	-1.6362191169e+00
 1.0468307657e+00	 9.8449011874e-01	-1.3509733558e+00
 1.0346714697e+00	 9.9726144796e-01	-1.4039029444e+00
 1.0223549749e+00	 1.0098840285e+00	-1.4746862168e+00
 1.0098840285e+00	 1.0223549749e+00	-1.5496337213e+00
 9.9726144796e-01	 1.0346714697e+00	-1.6148194040e+00
 9.8449011874e-01	 1.0468307657e+00	-1.6562612454e+00
 1.0522268005e+00	 9.8956481008e-01	-1.3767117718e+00
 1.0400048278e+00	 1.0024019709e+00	-1.4289320525e+00
 1.0276248459e+00	 1.0150896163e+00	-1.4984881205e+00
 1.0150896163e+00	 1.0276248459e+00	-1.5719402369e+00
 1.0024019709e+00	 1.0400048278e+00	-1.6355996629e+00
 9.8956481008e-01	 1.0522268005e+00	-1.6757138382e+00
 9.6419135341e-01	 1.0252466262e+00	-1.5703312269e+00
 9.5154055946e-01	 1.0369986375e+00	-1.6106664763e+00
 9.3874992724e-01	 1.0485915242e+00	-1.6644642183e+00
 9.2582246962e-01	 1.0600228135e+00	-1.7229713361e+00
 9.1276125710e-01	 1.0712901091e+00	-1.7782618925e+00
 8.9956941544e-01	 1.0823910925e+00	-1.8233820082e+00
 9.6926604474e-01	 1.0306426610e+00	-1.5934872219e+00
 9.5654866766e-01	 1.0424565250e+00	-1.6333768509e+00
 9.4369071633e-01	 1.0541104269e+00	-1.6881973437e+00
 9.3069521946e-01	 1.0656018810e+00	-1.7482625752e+00
 9.1756526372e-01	 1.0769284781e+00	-1.8047262312e+00
 9.0430399131e-01	 1.0880878878e+00	-1.8497333549e+00
 9.7434073608e-01	 1.0360386959e+00	-1.6153704306e+00
 9.6155677587e-01	 1.0479144126e+00	-1.6548620552e+00
 9.4863150542e-01	 1.0596293297e+00	-1.7106566540e+00
 9.3556796930e-01	 1.0711809484e+00	-1.7719997441e+00
 9.2236927034e-01	 1.0825668471e+00	-1.8289896603e+00
 9.0903856718e-01	 1.0937846830e+00	-1.8727362168e+00
 9.7941542741e-01	 1.0414347308e+00	-1.6362191169e+00
 9.6656488408e-01	 1.0533723002e+00	-1.6753807451e+00
 9.5357229451e-01	 1.0651482324e+00	-1.7321190244e+00
 9.4044071914e-01	 1.0767600158e+00	-1.7944772888e+00
 9.2717327695e-01	 1.0882052161e+00	-1.8513650718e+00
 9.1377314305e-01	 1.0994814782e+00	-1.8927243291e+00
 9.8449011874e-01	 1.0468307657e+00	-1.6562612454e+00
 9.7157299229e-01	 1.0588301877e+00	-1.6951826502e+00
 9.5851308360e-01	 1.0706671352e+00	-1.7528538638e+00
 9.4531346898e-01	 1.0823390833e+00	-1.8159836876e+00
 9.3197728357e-01	 1.0938435851e+00	-1.8721608781e+00
 9.1850771892e-01	 1.1051782734e+00	-1.9100283788e+00
 9.8956481008e-01	 1.0522268005e+00	-1.6757138382e+00
 9.7658110049e-01	 1.0642880753e+00	-1.7145079488e+00
 9.6345387269e-01	 1.0761860379e+00	-1.7731225056e+00
 9.5018621882e-01	 1.0879181507e+00	-1.8368008578e+00
 9.3678129019e-01	 1.0994819541e+00	-1.8916804377e+00
 9.2324229479e-01	 1.1108750687e+00	-1.9249754499e+00
 8.9956941544e-01	 1.0823910925e+00	-1.8233820082e+00
 8.8625012314e-01	 1.0933235247e+00	-1.8657822004e+00
 8.7280660896e-01	 1.1040852475e+00	-1.9058908456e+00
 8.5924214931e-01	 1.1146741853e+00	-1.9300186450e+00
 8.4556006566e-01	 1.1250883458e+00	-1.9539440074e+00
 8.3176372189e-01	 1.1353258217e+00	-1.9818355085e+00
 9.0430399131e-01	 1.0880878878e+00	-1.8497333549e+00
 8.9091459747e-01	 1.0990778590e+00	-1.8884990848e+00
 8.7740032795e-01	 1.1098962225e+00	-1.9196201483e+00
 8.6376447641e-01	 1.1205408915e+00	-1.9416793866e+00
 8.5001038180e-01	 1.1310098634e+00	-1.9686025904e+00
 8.3614142569e-01	 1.1413012207e+00	-1.9972962136e+00
 9.0903856718e-01	 1.0937846830e+00	-1.8727362168e+00
 8.9557907181e-01	 1.1048321934e+00	-1.9062032058e+00
 8.8199404695e-01	 1.1157071975e+00	-1.9293829923e+00
 8.6828680351e-01	 1.1264075977e+00	-1.9546619882e+00
 8.5446069793e-01	 1.1369313810e+00	-1.9831839559e+00
 8.4051912949e-01	 1.1472766198e+00	-2.0119226465e+00
 9.1377314305e-01	 1.0994814782e+00	-1.8927243291e+00
 9.0024354614e-01	 1.1105865277e+00	-1.9192596253e+00
 8.8658776594e-01	 1.1215181725e+00	-1.9413548276e+00
 8.7280913061e-01	 1.1322743040e+00	-1.9683562874e+00
 8.5891101407e-01	 1.1428528986e+00	-1.9971384615e+00
 8.4489683329e-01	 1.1532520189e+00	-2.0252290850e+00
 9.1850771892e-01	 1.1051782734e+00	-1.9100283788e+00
 9.0490802047e-01	 1.1163408621e+00	-1.9310895262e+00
 8.9118148494e-01	 1.1273291475e+00	-1.9550890939e+00
 8.7733145771e-01	 1.1381410102e+00	-1.9821515941e+00
 8.6336133021e-01	 1.1487744162e+00	-2.0099146095e+00
 8.4927453709e-01	 1.1592274179e+00	-2.0367265534e+00
 9.2324229479e-01	 1.1108750687e+00	-1.9249754499e+00
 9.0957249480e-01	 1.1220951964e+00	-1.9457252440e+00
 8.9577520393e-01	 1.1331401225e+00	-1.9699241779e+00
 8.8185378482e-01	 1.1440077164e+00	-1.9954370241e+00
 8.6781164634e-01	 1.1546959338e+00	-2.0209593826e+00
 8.5365224089e-01	 1.1652028170e+00	-2.0459231609e+00
 8.3176372189e-01	 1.1353258217e+00	-1.9818355085e+00
 8.1785652157e-01	 1.1453847915e+00	-2.0060509890e+00
 8.0384190525e-01	 1.1552635205e+00	-2.0248914166e+00
 7.8972334772e-01	 1.1649603618e+00	-2.0446795642e+00
 7.7550435525e-01	 1.1744737568e+00	-2.0720837242e+00
 7.6118846278e-01	 1.1838022363e+00	-2.1140260593e+00
 8.3614142569e-01	 1.1413012207e+00	-1.9972962136e+00
 8.2216102958e-01	 1.1514131325e+00	-2.0205967842e+00
 8.0807265212e-01	 1.1613438548e+00	-2.0375911736e+00
 7.9387978639e-01	 1.1710917321e+00	-2.0550679557e+00
 7.7958595712e-01	 1.1806551976e+00	-2.0801311999e+00
 7.6519471784e-01	 1.1900327743e+00	-2.1201055553e+00
 8.4051912949e-01	 1.1472766198e+00	-2.0119226465e+00
 8.2646553759e-01	 1.1574414735e+00	-2.0342046935e+00
 8.1230339899e-01	 1.1674241891e+00	-2.0495768869e+00
 7.9803622506e-01	 1.1772231024e+00	-2.0650618604e+00
 7.8366755899e-01	 1.1868366385e+00	-2.0879679791e+00
 7.6920097291e-01	 1.1962633124e+00	-2.1257915929e+00
 8.4489683329e-01	 1.1532520189e+00	-2.0252290850e+00
 8.3077004559e-01	 1.1634698145e+00	-2.0464489911e+00
 8.1653414586e-01	 1.1735045235e+00	-2.0604768165e+00
 8.0219266373e-01	 1.1833544727e+00	-2.0743412957e+00
 7.8774916086e-01	 1.1930180793e+00	-2.0953273680e+00
 7.7320722798e-01	 1.2024938505e+00	-2.1308760273e+00
 8.4927453709e-01	 1.1592274179e+00	-2.0367265534e+00
 8.3507455360e-01	 1.1694981555e+00	-2.0568993872e+00
 8.2076489272e-01	 1.1795848578e+00	-2.0699134879e+00
 8.0634910241e-01	 1.1894858431e+00	-2.0825794441e+00
 7.9183076273e-01	 1.1991995201e+00	-2.1019347370e+00
 7.7721348305e-01	 1.2087243886e+00	-2.1351416073e+00
 8.5365224089e-01	 1.1652028170e+00	-2.0459231609e+00
 8.3937906161e-01	 1.1755264965e+00	-2.0651213689e+00
 8.2499563959e-01	 1.1856651921e+00	-2.0775040323e+00
 8.1050554108e-01	 1.1956172134e+00	-2.0894429916e+00
 7.9591236460e-01	 1.2053809609e+00	-2.1075078583e+00
 7.8121973811e-01	 1.2149549267e+00	-2.1383623140e+00
 7.6118846278e-01	 1.1838022363e+00	-2.1140260593e+00
 7.4677923113e-01	 1.1929444205e+00	-2.1376542330e+00
 7.3228024421e-01	 1.2018990200e+00	-2.1194555879e+00
 7.1769510618e-01	 1.2106648359e+00	-2.0975151315e+00
 7.0302743866e-01	 1.2192407600e+00	-2.0868860166e+00
 6.8828087791e-01	 1.2276257750e+00	-2.0989731305e+00
 7.6519471784e-01	 1.1900327743e+00	-2.1201055553e+00
 7.5070964814e-01	 1.1992230753e+00	-2.1434057273e+00
 7.3613435076e-01	 1.2082248044e+00	-2.1232790469e+00
 7.2147244884e-01	 1.2170367561e+00	-2.0967159141e+00
 7.0672758307e-01	 1.2256578167e+00	-2.0836692603e+00
 6.9190340885e-01	 1.2340869633e+00	-2.0953413391e+00
 7.6920097291e-01	 1.1962633124e+00	-2.1257915929e+00
 7.5464006514e-01	 1.2055017302e+00	-2.1482740604e+00
 7.3998845731e-01	 1.2145505887e+00	-2.1281568125e+00
 7.2524979151e-01	 1.2234086763e+00	-2.0965620377e+00
 7.1042772749e-01	 1.2320748733e+00	-2.0808013681e+00
 6.9552593978e-01	 1.2405481516e+00	-2.0919310298e+00
 7.7320722798e-01	 1.2024938505e+00	-2.1308760273e+00
 7.5857048215e-01	 1.2117803850e+00	-2.1521017006e+00
 7.4384256386e-01	 1.2208763730e+00	-2.1331145830e+00
 7.2902713417e-01	 1.2297805965e+00	-2.0968445156e+00
 7.1412787190e-01	 1.2384919299e+00	-2.0780491320e+00
 6.9914847072e-01	 1.2470093399e+00	-2.0884581492e+00
 7.7721348305e-01	 1.2087243886e+00	-2.1351416073e+00
 7.6250089915e-01	 1.2180590399e+00	-2.1547210465e+00
 7.4769667040e-01	 1.2272021573e+00	-2.1364235776e+00
 7.3280447684e-01	 1.2361525167e+00	-2.0973392800e+00
 7.1782801631e-01	 1.2449089866e+00	-2.0751646399e+00
 7.0277100166e-01	 1.2534705282e+00	-2.0846248922e+00
 7.8121973811e-01	 1.2149549267e+00	-2.1383623140e+00
 7.6643131616e-01	 1.2243376947e+00	-2.1559547639e+00
 7.5155077695e-01	 1.2335279416e+00	-2.1378865512e+00
 7.3658181950e-01	 1.2425244369e+00	-2.0978080632e+00
 7.2152816073e-01	 1.2513260432e+00	-2.0718861068e+00
 7.0639353259e-01	 1.2599317165e+00	-2.0801204691e+00
 6.8828087791e-01	 1.2276257750e+00	-2.0989731305e+00
 6.7345907206e-01	 1.2358189547e+00	-2.1190415578e+00
 6.5856567829e-01	 1.2438194635e+00	-2.1272050236e+00
 6.4360436009e-01	 1.2516265570e+00	-2.1259893726e+00
 6.2857878451e-01	 1.2592395809e+00	-2.1170569294e+00
 6.1349261946e-01	 1.2666579713e+00	-2.1012393780e+00
 6.9190340885e-01	 1.2340869633e+00	-2.0953413391e+00
 6.7700359349e-01	 1.2423232649e+00	-2.1152969921e+00
 6.6203181344e-01	 1.2503658817e+00	-2.1223236437e+00
 6.4699175146e-01	 1.2582140652e+00	-2.1192945951e+00
 6.3188709390e-01	 1.2658671576e+00	-2.1082000567e+00
 6.1672152798e-01	 1.2733245922e+00	-2.0901796275e+00
 6.9552593978e-01	 1.2405481516e+00	-2.0919310298e+00
 6.8054811492e-01	 1.2488275752e+00	-2.1117790738e+00
 6.6549794858e-01	 1.2569123000e+00	-2.1177188924e+00
 6.5037914283e-01	 1.2648015734e+00	-2.1129491886e+00
 6.3519540330e-01	 1.2724947344e+00	-2.0997672679e+00
 6.1995043650e-01	 1.2799912131e+00	-2.0796011096e+00
 6.9914847072e-01	 1.2470093399e+00	-2.0884581492e+00
 6.8409263635e-01	 1.2553318855e+00	-2.1081470625e+00
 6.6896408373e-01	 1.2634587182e+00	-2.1130090151e+00
 6.5376653419e-01	 1.2713890815e+00	-2.1065463084e+00
 6.3850371269e-01	 1.2791223111e+00	-2.0913427747e+00
 6.2317934503e-01	 1.2866578340e+00	-2.0690954304e+00
 7.0277100166e-01	 1.2534705282e+00	-2.0846248922e+00
 6.8763715779e-01	 1.2618361958e+00	-2.1040475724e+00
 6.7243021888e-01	 1.2700051364e+00	-2.1078004336e+00
 6.5715392556e-01	 1.2779765897e+00	-2.0996678242e+00
 6.4181202208e-01	 1.2857498879e+00	-2.0824997571e+00
 6.2640825355e-01	 1.2933244549e+00	-2.0582431356e+00
 7.0639353259e-01	 1.2599317165e+00	-2.0801204691e+00
 6.9118167922e-01	 1.2683405061e+00	-2.0991152709e+00
 6.7589635403e-01	 1.2765515547e+00	-2.1016883835e+00
 6.6054131693e-01	 1.2845640979e+00	-2.0918849036e+00
 6.4512033147e-01	 1.2923774646e+00	-2.0728009019e+00
 6.2963716207e-01	 1.2999910758e+00	-2.0466142108e+00
 6.1349261946e-01	 1.2666579713e+00	-2.1012393780e+00
 5.9834953097e-01	 1.2738812540e+00	-2.0834516966e+00
 5.8315318059e-01	 1.2809090438e+00	-2.0688051214e+00
 5.6790722275e-01	 1.2877410441e+00	-2.0573101606e+00
 5.5261530219e-01	 1.2943770464e+00	-2.0483280902e+00
 5.3728105139e-01	 1.3008169288e+00	-2.0406193904e+00
 6.1672152798e-01	 1.2733245922e+00	-2.0901796275e+00
 6.0149873902e-01	 1.2805858921e+00	-2.0705028037e+00
 5.8622240785e-01	 1.2876506703e+00	-2.0542805357e+00
 5.7089620814e-01	 1.2945186286e+00	-2.0412721942e+00
 5.5552380378e-01	 1.3011895572e+00	-2.0305733076e+00
 5.4010884640e-01	 1.3076633337e+00	-2.0206653515e+00
 6.1995043650e-01	 1.2799912131e+00	-2.0796011096e+00
 6.0464794708e-01	 1.2872905303e+00	-2.0580584864e+00
 5.8929163512e-01	 1.2943922969e+00	-2.0402600849e+00
 5.7388519352e-01	 1.3012962130e+00	-2.0257351865e+00
 5.5843230537e-01	 1.3080020679e+00	-2.0133349036e+00
 5.4293664141e-01	 1.3145097386e+00	-2.0012832598e+00
 6.2317934503e-01	 1.2866578340e+00	-2.0690954304e+00
 6.0779715514e-01	 1.2939951685e+00	-2.0457317686e+00
 5.9236086239e-01	 1.3011339234e+00	-2.0263895029e+00
 5.7687417890e-01	 1.3080737975e+00	-2.0103884014e+00
 5.6134080696e-01	 1.3148145787e+00	-1.9963559965e+00
 5.4576443641e-01	 1.3213561435e+00	-1.9822798959e+00
 6.2640825355e-01	 1.2933244549e+00	-2.0582431356e+00
 6.1094636320e-01	 1.3006998067e+00	-2.0331243536e+00
 5.9543008965e-01	 1.3078755499e+00	-2.0123027717e+00
 5.7986316428e-01	 1.3148513819e+00	-1.9949087603e+00
 5.6424930855e-01	 1.3216270895e+00	-1.9793666261e+00
 5.4859223142e-01	 1.3282025483e+00	-1.9634480918e+00
 6.2963716207e-01	 1.2999910758e+00	-2.0466142108e+00
 6.1409557125e-01	 1.3074044449e+00	-2.0198270935e+00
 5.9849931692e-01	 1.3146171765e+00	-1.9976225649e+00
 5.8285214967e-01	 1.3216289664e+00	-1.9789612663e+00
 5.6715781014e-01	 1.3284396002e+00	-1.9620841622e+00
 5.5142002643e-01	 1.3350489532e+00	-1.9445671296e+00
 5.3728105139e-01	 1.3008169288e+00	-2.0406193904e+00
 5.2190808814e-01	 1.3070606558e+00	-2.0293732980e+00
 5.0650001305e-01	 1.3131082770e+00	-2.0119882405e+00
 4.9106040720e-01	 1.3189599262e+00	-1.9898613984e+00
 4.7559282980e-01	 1.3246158200e+00	-1.9640859007e+00
 4.6010081589e-01	 1.3300762571e+00	-1.9355005771e+00
 5.4010884640e-01	 1.3076633337e+00	-2.0206653515e+00
 5.2465497281e-01	 1.3139399224e+00	-2.0071059303e+00
 5.0916580259e-01	 1.3200193732e+00	-1.9878071177e+00
 4.9364493566e-01	 1.3259018205e+00	-1.9640883790e+00
 4.7809594995e-01	 1.3315874822e+00	-1.9369560669e+00
 4.6252239913e-01	 1.3370766584e+00	-1.9071545227e+00
 5.4293664141e-01	 1.3145097386e+00	-2.0012832598e+00
 5.2740185749e-01	 1.3208191890e+00	-1.9855175232e+00
 5.1183159214e-01	 1.3269304694e+00	-1.9644302205e+00
 4.9622946412e-01	 1.3328437149e+00	-1.9392172897e+00
 4.8059907011e-01	 1.3385591445e+00	-1.9107515711e+00
 4.6494398237e-01	 1.3440770598e+00	-1.8796353789e+00
 5.4576443641e-01	 1.3213561435e+00	-1.9822798959e+00
 5.3014874216e-01	 1.3276984556e+00	-1.9644792041e+00
 5.1449738168e-01	 1.3338415656e+00	-1.9417852805e+00
 4.9881399258e-01	 1.3397856092e+00	-1.9152252254e+00
 4.8310219027e-01	 1.3455308067e+00	-1.8854921211e+00
 4.6736556561e-01	 1.3510774611e+00	-1.8529991940e+00
 5.4859223142e-01	 1.3282025483e+00	-1.9634480918e+00
 5.3289562684e-01	 1.3345777222e+00	-1.9438473376e+00
 5.1716317122e-01	 1.3407526618e+00	-1.9197846824e+00
 5.0139852104e-01	 1.3467275036e+00	-1.8920735696e+00
 4.8560531042e-01	 1.3525024689e+00	-1.8611815572e+00
 4.6978714885e-01	 1.3580778625e+00	-1.8272861909e+00
 5.5142002643e-01	 1.3350489532e+00	-1.9445671296e+00
 5.3564251151e-01	 1.3414569889e+00	-1.9234639144e+00
 5.1982896076e-01	 1.3476637580e+00	-1.8983258384e+00
 5.0398304950e-01	 1.3536693979e+00	-1.8697083505e+00
 4.8810843058e-01	 1.3594741311e+00	-1.8378081869e+00
 4.7220873209e-01	 1.3650782638e+00	-1.8025210762e+00
 4.6010081589e-01	 1.3300762571e+00	-1.9355005771e+00
 4.4458787417e-01	 1.3353416164e+00	-1.9129537514e+00
 4.2905748485e-01	 1.3404123564e+00	-1.9004534364e+00
 4.1351309752e-01	 1.3452890130e+00	-1.8913669121e+00
 3.9795812918e-01	 1.3499721989e+00	-1.8790477068e+00
 3.8239596226e-01	 1.3544626014e+00	-1.8569026613e+00
 4.6252239913e-01	 1.3370766584e+00	-1.9071545227e+00
 4.4692781035e-01	 1.3423697302e+00	-1.8832078383e+00
 4.3131568214e-01	 1.3474671582e+00	-1.8690928595e+00
 4.1568948224e-01	 1.3523694815e+00	-1.8585147889e+00
 4.0005264565e-01	 1.3570773158e+00	-1.8451627226e+00
 3.8440857259e-01	 1.3615913519e+00	-1.8227775880e+00
 4.6494398237e-01	 1.3440770598e+00	-1.8796353789e+00
 4.4926774653e-01	 1.3493978440e+00	-1.8540653616e+00
 4.3357387943e-01	 1.3545219601e+00	-1.8380635128e+00
 4.1786586697e-01	 1.3594499500e+00	-1.8257422797e+00
 4.0214716212e-01	 1.3641824326e+00	-1.8111930487e+00
 3.8642118291e-01	 1.3687201024e+00	-1.7885548821e+00
 4.6736556561e-01	 1.3510774611e+00	-1.8529991940e+00
 4.5160768271e-01	 1.3564259577e+00	-1.8256098548e+00
 4.3583207672e-01	 1.3615767620e+00	-1.8074637220e+00
 4.2004225169e-01	 1.3665304185e+00	-1.7931484092e+00
 4.0424167859e-01	 1.3712875494e+00	-1.7772229291e+00
 3.8843379324e-01	 1.3758488530e+00	-1.7542871545e+00
 4.6978714885e-01	 1.3580778625e+00	-1.8272861909e+00
 4.5394761889e-01	 1.3634540715e+00	-1.7979093157e+00
 4.3809027400e-01	 1.3686315639e+00	-1.7773768921e+00
 4.2221863642e-01	 1.3736108870e+00	-1.7608182471e+00
 4.0633619505e-01	 1.3783926663e+00	-1.7433239929e+00
 3.9044640357e-01	 1.3829776035e+00	-1.7200161402e+00
 4.7220873209e-01	 1.3650782638e+00	-1.8025210762e+00
 4.5628755507e-01	 1.3704821853e+00	-1.7710164864e+00
 4.4034847129e-01	 1.3756863658e+00	-1.7478717519e+00
 4.2439502114e-01	 1.3806913555e+00	-1.7288231098e+00
 4.0843071152e-01	 1.3854977831e+00	-1.7095554063e+00
 3.9245901390e-01	 1.3901063540e+00	-1.6857727930e+00
 3.8239596226e-01	 1.3544626014e+00	-1.8569026613e+00
 3.6682994276e-01	 1.3587609810e+00	-1.8221377047e+00
 3.5126337844e-01	 1.3628681702e+00	-1.7993117019e+00
 3.3569953707e-01	 1.3667850713e+00	-1.7900667747e+00
 3.2014164476e-01	 1.3705126551e+00	-1.7826476892e+00
 3.0459288440e-01	 1.3740519587e+00	-1.7659982984e+00
 3.8440857259e-01	 1.3615913519e+00	-1.8227775880e+00
 3.6876062667e-01	 1.3659123546e+00	-1.7875345792e+00
 3.5311213307e-01	 1.3700411606e+00	-1.7609009531e+00
 3.3746637674e-01	 1.3739786770e+00	-1.7495513337e+00
 3.2182660078e-01	 1.3777258796e+00	-1.7409591498e+00
 3.0619600485e-01	 1.3812838111e+00	-1.7233667559e+00
 3.8642118291e-01	 1.3687201024e+00	-1.7885548821e+00
 3.7069131058e-01	 1.3730637282e+00	-1.7536757355e+00
 3.5496088769e-01	 1.3772141510e+00	-1.7229750573e+00
 3.3923321641e-01	 1.3811722826e+00	-1.7093431019e+00
 3.2351155681e-01	 1.3849391041e+00	-1.6994960028e+00
 3.0779912529e-01	 1.3885156635e+00	-1.6809858070e+00
 3.8843379324e-01	 1.3758488530e+00	-1.7542871545e+00
 3.7262199449e-01	 1.3802151018e+00	-1.7201807629e+00
 3.5680964231e-01	 1.3843871413e+00	-1.6857066475e+00
 3.4100005607e-01	 1.3883658883e+00	-1.6696980104e+00
 3.2519651283e-01	 1.3921523286e+00	-1.6586317527e+00
 3.0940224573e-01	 1.3957475159e+00	-1.6393808049e+00
 3.9044640357e-01	 1.3829776035e+00	-1.7200161402e+00
 3.7455267840e-01	 1.3873664753e+00	-1.6868215219e+00
 3.5865839694e-01	 1.3915601317e+00	-1.6492555542e+00
 3.4276689574e-01	 1.3955594939e+00	-1.6308622575e+00
 3.2688146886e-01	 1.3993655531e+00	-1.6187319668e+00
 3.1100536618e-01	 1.4029793684e+00	-1.5990696907e+00
 3.9245901390e-01	 1.3901063540e+00	-1.6857727930e+00
 3.7648336231e-01	 1.3945178489e+00	-1.6536144761e+00
 3.6050715156e-01	 1.3987331221e+00	-1.6137680228e+00
 3.4453373541e-01	 1.4027530995e+00	-1.5930716047e+00
 3.2856642488e-01	 1.4065787776e+00	-1.5801536700e+00
 3.1260848662e-01	 1.4102112208e+00	-1.5605625089e+00
 3.0459288440e-01	 1.3740519587e+00	-1.7659982984e+00
 2.8905639414e-01	 1.3774040843e+00	-1.7392554574e+00
 2.7353526591e-01	 1.3805701970e+00	-1.7107097240e+00
 2.5803254413e-01	 1.3835515229e+00	-1.6839430817e+00
 2.4255122434e-01	 1.3863493477e+00	-1.6629902918e+00
 2.2709425207e-01	 1.3889650144e+00	-1.6522735207e+00
 3.0619600485e-01	 1.3812838111e+00	-1.7233667559e+00
 2.9057774358e-01	 1.3846535795e+00	-1.6955024962e+00
 2.7497492521e-01	 1.3878363559e+00	-1.6657074113e+00
 2.5939061015e-01	 1.3908333730e+00	-1.6376442264e+00
 2.4382780973e-01	 1.3936459233e+00	-1.6154809878e+00
 2.2828948497e-01	 1.3962753565e+00	-1.6038209261e+00
 3.0779912529e-01	 1.3885156635e+00	-1.6809858070e+00
 2.9209909302e-01	 1.3919030747e+00	-1.6521266632e+00
 2.7641458450e-01	 1.3951025148e+00	-1.6212651375e+00
 2.6074867617e-01	 1.3981152232e+00	-1.5921011667e+00
 2.4510439512e-01	 1.4009424988e+00	-1.5688907118e+00
 2.2948471788e-01	 1.4035856987e+00	-1.5563708989e+00
 3.0940224573e-01	 1.3957475159e+00	-1.6393808049e+00
 2.9362044246e-01	 1.3991525698e+00	-1.6097895871e+00
 2.7785424379e-01	 1.4023686738e+00	-1.5781163445e+00
 2.6210674219e-01	 1.4053970733e+00	-1.5480562527e+00
 2.4638098052e-01	 1.4082390743e+00	-1.5239094913e+00
 2.3067995079e-01	 1.4108960409e+00	-1.5105016961e+00
 3.1100536618e-01	 1.4029793684e+00	-1.5990696907e+00
 2.9514179191e-01	 1.4064020650e+00	-1.5691457770e+00
 2.7929390309e-01	 1.4096348327e+00	-1.5369884328e+00
 2.6346480821e-01	 1.4126789234e+00	-1.5062476406e+00
 2.4765756591e-01	 1.4155356498e+00	-1.4812257595e+00
 2.3187518369e-01	 1.4182063831e+00	-1.4667933164e+00
 3.1260848662e-01	 1.4102112208e+00	-1.5605625089e+00
 2.9666314135e-01	 1.4136515602e+00	-1.5308422524e+00
 2.8073356238e-01	 1.4169009916e+00	-1.4986024751e+00
 2.6482287423e-01	 1.4199607735e+00	-1.4674090584e+00
 2.4893415130e-01	 1.4228322253e+00	-1.4415261433e+00
 2.3307041660e-01	 1.4255167253e+00	-1.4258272802e+00
 2.2709425207e-01	 1.3889650144e+00	-1.6522735207e+00
 2.1166452164e-01	 1.3913999212e+00	-1.6486763117e+00
 1.9626487513e-01	 1.3936555203e+00	-1.6445425533e+00
 1.8089810141e-01	 1.3957333153e+00	-1.6379025676e+00
 1.6556693519e-01	 1.3976348595e+00	-1.6269491002e+00
 1.5027405624e-01	 1.3993617540e+00	-1.6099523728e+00
 2.2828948497e-01	 1.3962753565e+00	-1.6038209261e+00
 2.1277854543e-01	 1.3987230787e+00	-1.5995873053e+00
 1.9729784816e-01	 1.4009905493e+00	-1.5949417888e+00
 1.8185019668e-01	 1.4030792801e+00	-1.5878231826e+00
 1.6643834011e-01	 1.4049908324e+00	-1.5763652673e+00
 1.5106497233e-01	 1.4067268158e+00	-1.5588064781e+00
 2.2948471788e-01	 1.4035856987e+00	-1.5563708989e+00
 2.1389256923e-01	 1.4060462362e+00	-1.5514876661e+00
 1.9833082118e-01	 1.4083255784e+00	-1.5462609604e+00
 1.8280229195e-01	 1.4104252449e+00	-1.5385789118e+00
 1.6730974504e-01	 1.4123468054e+00	-1.5265609197e+00
 1.5185588841e-01	 1.4140918777e+00	-1.5084616268e+00
 2.3067995079e-01	 1.4108960409e+00	-1.5105016961e+00
 2.1500659303e-01	 1.4133693936e+00	-1.5048243649e+00
 1.9936379421e-01	 1.4156606074e+00	-1.4988351750e+00
 1.8375438722e-01	 1.4177712097e+00	-1.4904128122e+00
 1.6818114996e-01	 1.4197027783e+00	-1.4777072969e+00
 1.5264680450e-01	 1.4214569395e+00	-1.4590379120e+00
 2.3187518369e-01	 1.4182063831e+00	-1.4667933164e+00
 2.1612061683e-01	 1.4206925511e+00	-1.4600493858e+00
 2.0039676724e-01	 1.4229956365e+00	-1.4530069830e+00
 1.8470648249e-01	 1.4251171745e+00	-1.4435769934e+00
 1.6905255488e-01	 1.4270587512e+00	-1.4299854988e+00
 1.5343772058e-01	 1.4288220014e+00	-1.4106653171e+00
 2.3307041660e-01	 1.4255167253e+00	-1.4258272802e+00
 2.1723464063e-01	 1.4280157086e+00	-1.4176194904e+00
 2.0142974026e-01	 1.4303306656e+00	-1.4091261381e+00
 1.8565857776e-01	 1.4324631393e+00	-1.3983323833e+00
 1.6992395980e-01	 1.4344147242e+00	-1.3835862697e+00
 1.5422863667e-01	 1.4361870633e+00	-1.3634835292e+00
 1.5027405624e-01	 1.3993617540e+00	-1.6099523728e+00
 1.3502208858e-01	 1.4009156456e+00	-1.5915881685e+00
 1.1981359980e-01	 1.4022982250e+00	-1.5777090354e+00
 1.0465110049e-01	 1.4035112246e+00	-1.5681712936e+00
 8.9537043623e-02	 1.4045564169e+00	-1.5625143717e+00
 7.4473824134e-02	 1.4054356122e+00	-1.5598757855e+00
 1.5106497233e-01	 1.4067268158e+00	-1.5588064781e+00
 1.3573273115e-01	 1.4082888858e+00	-1.5397887686e+00
 1.2044419770e-01	 1.4096787419e+00	-1.5251966571e+00
 1.0520189576e-01	 1.4108981258e+00	-1.5149735561e+00
 9.0008291221e-02	 1.4119488191e+00	-1.5087457253e+00
 7.4865791630e-02	 1.4128326417e+00	-1.5057319000e+00
 1.5185588841e-01	 1.4140918777e+00	-1.5084616268e+00
 1.3644337372e-01	 1.4156621261e+00	-1.4888983143e+00
 1.2107479559e-01	 1.4170592589e+00	-1.4737422081e+00
 1.0575269102e-01	 1.4182850270e+00	-1.4629940778e+00
 9.0479538819e-02	 1.4193412213e+00	-1.4563392084e+00
 7.5257759125e-02	 1.4202296712e+00	-1.4530515186e+00
 1.5264680450e-01	 1.4214569395e+00	-1.4590379120e+00
 1.3715401629e-01	 1.4230353663e+00	-1.4389974508e+00
 1.2170539348e-01	 1.4244397759e+00	-1.4233905599e+00
 1.0630348629e-01	 1.4256719282e+00	-1.4122475063e+00
 9.0950786417e-02	 1.4267336235e+00	-1.4052866699e+00
 7.5649726620e-02	 1.4276267008e+00	-1.4018129836e+00
 1.5343772058e-01	 1.4288220014e+00	-1.4106653171e+00
 1.3786465886e-01	 1.4304086065e+00	-1.3901761833e+00
 1.2233599138e-01	 1.4318202929e+00	-1.3741950530e+00
 1.0685428155e-01	 1.4330588293e+00	-1.3627557045e+00
 9.1422034015e-02	 1.4341260257e+00	-1.3555855545e+00
 7.6041694116e-02	 1.4350237303e+00	-1.3519982461e+00
 1.5422863667e-01	 1.4361870633e+00	-1.3634835292e+00
 1.3857530143e-01	 1.4377818468e+00	-1.3425337259e+00
 1.2296658927e-01	 1.4392008098e+00	-1.3262173832e+00
 1.0740507682e-01	 1.4404457305e+00	-1.3145476752e+00
 9.1893281613e-02	 1.4415184279e+00	-1.3072388681e+00
 7.6433661611e-02	 1.4424207599e+00	-1.3035928763e+00
 7.4473824134e-02	 1.4054356122e+00	-1.5598757855e+00
 5.9463778486e-02	 1.4061506567e+00	-1.5591381916e+00
 4.4509184337e-02	 1.4067034311e+00	-1.5589972618e+00
 2.9612260260e-02	 1.4070958476e+00	-1.5574483564e+00
 1.4775165536e-02	 1.4073298494e+00	-1.5517569165e+00
-8.4237350773e-07	 1.4074259396e+00	-4.9630746012e-01
 7.4865791630e-02	 1.4128326417e+00	-1.5057319000e+00
 5.9776745741e-02	 1.4135514497e+00	-1.5047028070e+00
 4.4743443202e-02	 1.4141071333e+00	-1.5042485311e+00
 2.9768114261e-02	 1.4145016153e+00	-1.5024334016e+00
 1.4852929565e-02	 1.4147368486e+00	-1.4965689707e+00
-8.3568537299e-07	 1.4148335342e+00	-4.1193126444e-01
 7.5257759125e-02	 1.4202296712e+00	-1.4530515186e+00
 6.0089712997e-02	 1.4209522426e+00	-1.4517869337e+00
 4.4977702067e-02	 1.4215108356e+00	-1.4510597167e+00
 2.9923968263e-02	 1.4219073829e+00	-1.4490269160e+00
 1.4930693594e-02	 1.4221438478e+00	-1.4430692625e+00
-8.2876521387e-07	 1.4222411181e+00	-3.3005153884e-01
 7.5649726620e-02	 1.4276267008e+00	-1.4018129836e+00
 6.0402680252e-02	 1.4283530355e+00	-1.4003609557e+00
 4.5211960932e-02	 1.4289145379e+00	-1.3993945685e+00
 3.0079822264e-02	 1.4293131505e+00	-1.3971884707e+00
 1.5008457623e-02	 1.4295508470e+00	-1.3912167601e+00
-8.2161428501e-07	 1.4296486911e+00	-2.5070160360e-01
 7.6041694116e-02	 1.4350237303e+00	-1.3519982461e+00
 6.0715647507e-02	 1.4357538285e+00	-1.3503966261e+00
 4.5446219796e-02	 1.4363182401e+00	-1.3492158383e+00
 3.0235676265e-02	 1.4367189181e+00	-1.3468741592e+00
 1.5086221652e-02	 1.4369578462e+00	-1.3409643755e+00
-8.1423384110e-07	 1.4370562530e+00	-1.7390718990e-01
 7.6433661611e-02	 1.4424207599e+00	-1.3035928763e+00
 6.1028614762e-02	 1.4431546214e+00	-1.3018671235e+00
 4.5680478661e-02	 1.4437219424e+00	-1.3004853804e+00
 3.0391530267e-02	 1.4441246857e+00	-1.2980367397e+00
 1.5163985681e-02	 1.4443648454e+00	-1.2922591485e+00
-8.0662513681e-07	 1.4444638034e+00	-9.9686662708e-02
 1.4444444444e+00	 0.0000000000e+00	 3.8118655538e+00
 1.4443648454e+00	 1.5163985681e-02	 3.8120870845e+00
 1.4441246857e+00	 3.0391530267e-02	 3.8069507980e+00
 1.4437219424e+00	 4.5680478661e-02	 3.7974122059e+00
 1.4431546214e+00	 6.1028614762e-02	 3.7836756251e+00
 1.4424207599e+00	 7.6433661611e-02	 3.7652730618e+00
 1.4518518519e+00	 0.0000000000e+00	 3.8078679214e+00
 1.4517718446e+00	 1.5241749710e-02	 3.8079930085e+00
 1.4515304534e+00	 3.0547384268e-02	 3.8027309286e+00
 1.4511256447e+00	 4.5914737526e-02	 3.7930644709e+00
 1.4505554143e+00	 6.1341582017e-02	 3.7791839083e+00
 1.4498177894e+00	 7.6825629107e-02	 3.7605702730e+00
 1.4592592593e+00	 0.0000000000e+00	 3.8033077448e+00
 1.4591788438e+00	 1.5319513740e-02	 3.8034139748e+00
 1.4589362210e+00	 3.0703238270e-02	 3.7981245520e+00
 1.4585293469e+00	 4.6148996391e-02	 3.7884478764e+00
 1.4579562073e+00	 6.1654549273e-02	 3.7745576592e+00
 1.4572148189e+00	 7.7217596602e-02	 3.7558807459e+00
 1.4666666667e+00	 0.0000000000e+00	 3.7981424201e+00
 1.4665858430e+00	 1.5397277769e-02	 3.7983013583e+00
 1.4663419886e+00	 3.0859092271e-02	 3.7930912180e+00
 1.4659330492e+00	 4.6383255256e-02	 3.7835430621e+00
 1.4653570002e+00	 6.1967516528e-02	 3.7698101925e+00
 1.4646118485e+00	 7.7609564098e-02	 3.7512606806e+00
 1.4740740741e+00	 0.0000000000e+00	 3.7923290753e+00
 1.4739928422e+00	 1.5475041798e-02	 3.7926060753e+00
 1.4737477562e+00	 3.1014946272e-02	 3.7875897909e+00
 1.4733367515e+00	 4.6617514121e-02	 3.7783297105e+00
 1.4727577931e+00	 6.2280483783e-02	 3.7649535391e+00
 1.4720088780e+00	 7.8001531593e-02	 3.7467646023e+00
 1.4814814815e+00	 0.0000000000e+00	 3.7858245774e+00
 1.4813998414e+00	 1.5552805827e-02	 3.7862785936e+00
 1.4811535238e+00	 3.1170800274e-02	 3.7815784652e+00
 1.4807404537e+00	 4.6851772986e-02	 3.7727865692e+00
 1.4801585861e+00	 6.2593451038e-02	 3.7599984779e+00
 1.4794059075e+00	 7.8393499089e-02	 3.7424454060e+00
 1.4424207599e+00	 7.6433661611e-02	 3.7652730618e+00
 1.4415184279e+00	 9.1893281613e-02	 3.7434403042e+00
 1.4404457305e+00	 1.0740507682e-01	 3.7198449636e+00
 1.4392008098e+00	 1.2296658927e-01	 3.6939602466e+00
 1.4377818468e+00	 1.3857530143e-01	 3.6650121897e+00
 1.4361870633e+00	 1.5422863667e-01	 3.6321011895e+00
 1.4498177894e+00	 7.6825629107e-02	 3.7605702730e+00
 1.4489108301e+00	 9.2364529211e-02	 3.7383911938e+00
 1.4478326317e+00	 1.0795587208e-01	 3.7143813367e+00
 1.4465813268e+00	 1.2359718717e-01	 3.6881274768e+00
 1.4451550870e+00	 1.3928594401e-01	 3.6589558389e+00
 1.4435521251e+00	 1.5501955275e-01	 3.6260595719e+00
 1.4572148189e+00	 7.7217596602e-02	 3.7558807459e+00
 1.4563032323e+00	 9.2835776810e-02	 3.7334987367e+00
 1.4552195329e+00	 1.0850666735e-01	 3.7091760338e+00
 1.4539618438e+00	 1.2422778506e-01	 3.6825795197e+00
 1.4525283273e+00	 1.3999658658e-01	 3.6531014630e+00
 1.4509171870e+00	 1.5581046884e-01	 3.6199931833e+00
 1.4646118485e+00	 7.7609564098e-02	 3.7512606806e+00
 1.4636956344e+00	 9.3307024408e-02	 3.7288690424e+00
 1.4626064341e+00	 1.0905746262e-01	 3.7043891555e+00
 1.4613423607e+00	 1.2485838295e-01	 3.6775334939e+00
 1.4599015675e+00	 1.4070722915e-01	 3.6477251581e+00
 1.4582822489e+00	 1.5660138493e-01	 3.6142379808e+00
 1.4720088780e+00	 7.8001531593e-02	 3.7467646023e+00
 1.4710880366e+00	 9.3778272006e-02	 3.7246061174e+00
 1.4699933352e+00	 1.0960825788e-01	 3.7001782534e+00
 1.4687228777e+00	 1.2548898085e-01	 3.6732034884e+00
 1.4672748077e+00	 1.4141787172e-01	 3.6430994564e+00
 1.4656473107e+00	 1.5739230101e-01	 3.6091257523e+00
 1.4794059075e+00	 7.8393499089e-02	 3.7424454060e+00
 1.4784804388e+00	 9.4249519604e-02	 3.7208119218e+00
 1.4773802364e+00	 1.1015905315e-01	 3.6966983997e+00
 1.4761033947e+00	 1.2611957874e-01	 3.6698006430e+00
 1.4746480480e+00	 1.4212851429e-01	 3.6394934170e+00
 1.4730123726e+00	 1.5818321710e-01	 3.6049842154e+00
 1.4361870633e+00	 1.5422863667e-01	 3.6321011895e+00
 1.4344147242e+00	 1.6992395980e-01	 3.5936080426e+00
 1.4324631393e+00	 1.8565857776e-01	 3.5486617328e+00
 1.4303306656e+00	 2.0142974026e-01	 3.4976887940e+00
 1.4280157086e+00	 2.1723464063e-01	 3.4415176052e+00
 1.4255167253e+00	 2.3307041660e-01	 3.3815087438e+00
 1.4435521251e+00	 1.5501955275e-01	 3.6260595719e+00
 1.4417706971e+00	 1.7079536472e-01	 3.5878225249e+00
 1.4398091042e+00	 1.8661067303e-01	 3.5431800180e+00
 1.4376656946e+00	 2.0246271329e-01	 3.4923639526e+00
 1.4353388661e+00	 2.1834866442e-01	 3.4360266491e+00
 1.4328270674e+00	 2.3426564950e-01	 3.3753785066e+00
 1.4509171870e+00	 1.5581046884e-01	 3.6199931833e+00
 1.4491266701e+00	 1.7166676965e-01	 3.5816411668e+00
 1.4471550690e+00	 1.8756276830e-01	 3.5368590317e+00
 1.4450007237e+00	 2.0349568632e-01	 3.4857584112e+00
 1.4426620236e+00	 2.1946268822e-01	 3.4288907276e+00
 1.4401374096e+00	 2.3546088241e-01	 3.3673922268e+00
 1.4582822489e+00	 1.5660138493e-01	 3.6142379808e+00
 1.4564826430e+00	 1.7253817457e-01	 3.5754535165e+00
 1.4545010338e+00	 1.8851486357e-01	 3.5301273688e+00
 1.4523357527e+00	 2.0452865934e-01	 3.4783225129e+00
 1.4499851810e+00	 2.2057671202e-01	 3.4205618925e+00
 1.4474477518e+00	 2.3665611531e-01	 3.3579809029e+00
 1.4656473107e+00	 1.5739230101e-01	 3.6091257523e+00
 1.4638386160e+00	 1.7340957949e-01	 3.5696443793e+00
 1.4618469986e+00	 1.8946695884e-01	 3.5234084669e+00
 1.4596707818e+00	 2.0556163237e-01	 3.4705012051e+00
 1.4573083385e+00	 2.2169073582e-01	 3.4114867532e+00
 1.4547580940e+00	 2.3785134822e-01	 3.3475702540e+00
 1.4730123726e+00	 1.5818321710e-01	 3.6049842154e+00
 1.4711945889e+00	 1.7428098441e-01	 3.5645939217e+00
 1.4691929634e+00	 1.9041905411e-01	 3.5171207074e+00
 1.4670058108e+00	 2.0659460540e-01	 3.4627341283e+00
 1.4646314960e+00	 2.2280475962e-01	 3.4021065435e+00
 1.4620684362e+00	 2.3904658112e-01	 3.3365807541e+00
 1.4255167253e+00	 2.3307041660e-01	 3.3815087438e+00
 1.4228322253e+00	 2.4893415130e-01	 3.3234559354e+00
 1.4199607735e+00	 2.6482287423e-01	 3.2691578832e+00
 1.4169009916e+00	 2.8073356238e-01	 3.2151357651e+00
 1.4136515602e+00	 2.9666314135e-01	 3.1589085941e+00
 1.4102112208e+00	 3.1260848662e-01	 3.0991020475e+00
 1.4328270674e+00	 2.3426564950e-01	 3.3753785066e+00
 1.4301288008e+00	 2.5021073669e-01	 3.3164895019e+00
 1.4272426237e+00	 2.6618094026e-01	 3.2615074728e+00
 1.4241671505e+00	 2.8217322168e-01	 3.2069694707e+00
 1.4209010554e+00	 2.9818449079e-01	 3.1504595829e+00
 1.4174430732e+00	 3.1421160707e-01	 3.0907240857e+00
 1.4401374096e+00	 2.3546088241e-01	 3.3673922268e+00
 1.4374253763e+00	 2.5148732208e-01	 3.3076478557e+00
 1.4345244738e+00	 2.6753900628e-01	 3.2521217941e+00
 1.4314333095e+00	 2.8361288097e-01	 3.1973381276e+00
 1.4281505506e+00	 2.9970584024e-01	 3.1409197041e+00
 1.4246749256e+00	 3.1581472751e-01	 3.0817098966e+00
 1.4474477518e+00	 2.3665611531e-01	 3.3579809029e+00
 1.4447219519e+00	 2.5276390747e-01	 3.2973287587e+00
 1.4418063239e+00	 2.6889707230e-01	 3.2413649691e+00
 1.4386994684e+00	 2.8505254027e-01	 3.1865709469e+00
 1.4354000457e+00	 3.0122718968e-01	 3.1305811647e+00
 1.4319067780e+00	 3.1741784795e-01	 3.0723118213e+00
 1.4547580940e+00	 2.3785134822e-01	 3.3475702540e+00
 1.4520185274e+00	 2.5404049286e-01	 3.2859248172e+00
 1.4490881740e+00	 2.7025513832e-01	 3.2295957781e+00
 1.4459656273e+00	 2.8649219956e-01	 3.1749912857e+00
 1.4426495409e+00	 3.0274853912e-01	 3.1197294656e+00
 1.4391386304e+00	 3.1902096840e-01	 3.0627742883e+00
 1.4620684362e+00	 2.3904658112e-01	 3.3365807541e+00
 1.4593151029e+00	 2.5531707825e-01	 3.2738234786e+00
 1.4563700241e+00	 2.7161320434e-01	 3.2171676189e+00
 1.4532317863e+00	 2.8793185885e-01	 3.1629165702e+00
 1.4498990361e+00	 3.0426988856e-01	 3.1086432882e+00
 1.4463704828e+00	 3.2062408884e-01	 3.0533336656e+00
 1.4102112208e+00	 3.1260848662e-01	 3.0991020475e+00
 1.4065787776e+00	 3.2856642488e-01	 3.0205339359e+00
 1.4027530995e+00	 3.4453373541e-01	 2.9175855629e+00
 1.3987331221e+00	 3.6050715156e-01	 2.8051018288e+00
 1.3945178489e+00	 3.7648336231e-01	 2.7006868457e+00
 1.3901063540e+00	 3.9245901390e-01	 2.6341042531e+00
 1.4174430732e+00	 3.1421160707e-01	 3.0907240857e+00
 1.4137920021e+00	 3.3025138091e-01	 3.0118080653e+00
 1.4099467052e+00	 3.4630057508e-01	 2.9074210311e+00
 1.4059061124e+00	 3.6235590618e-01	 2.7927845009e+00
 1.4016692225e+00	 3.7841404622e-01	 2.6869052304e+00
 1.3972351046e+00	 3.9447162423e-01	 2.6195916927e+00
 1.4246749256e+00	 3.1581472751e-01	 3.0817098966e+00
 1.4210052266e+00	 3.3193633693e-01	 3.0029738847e+00
 1.4171403108e+00	 3.4806741475e-01	 2.8976829173e+00
 1.4130791028e+00	 3.6420466081e-01	 2.7813273007e+00
 1.4088205961e+00	 3.8034473013e-01	 2.6743911485e+00
 1.4043638551e+00	 3.9648423455e-01	 2.6061523529e+00
 1.4319067780e+00	 3.1741784795e-01	 3.0723118213e+00
 1.4282184511e+00	 3.3362129296e-01	 2.9942426835e+00
 1.4243339164e+00	 3.4983425442e-01	 2.8885429757e+00
 1.4202520932e+00	 3.6605341543e-01	 2.7708648379e+00
 1.4159719697e+00	 3.8227541404e-01	 2.6632209547e+00
 1.4114926056e+00	 3.9849684488e-01	 2.5938656925e+00
 1.4391386304e+00	 3.1902096840e-01	 3.0627742883e+00
 1.4354316756e+00	 3.3530624898e-01	 2.9858162180e+00
 1.4315275221e+00	 3.5160109409e-01	 2.8801613147e+00
 1.4274250835e+00	 3.6790217005e-01	 2.7615174336e+00
 1.4231233433e+00	 3.8420609795e-01	 2.6534593567e+00
 1.4186213562e+00	 4.0050945521e-01	 2.5827989018e+00
 1.4463704828e+00	 3.2062408884e-01	 3.0533336656e+00
 1.4426449001e+00	 3.3699120501e-01	 2.9778865307e+00
 1.4387211277e+00	 3.5336793376e-01	 2.8726861868e+00
 1.4345980739e+00	 3.6975092468e-01	 2.7533908839e+00
 1.4302747169e+00	 3.8613678186e-01	 2.6451597118e+00
 1.4257501067e+00	 4.0252206554e-01	 2.5730072470e+00
 1.3901063540e+00	 3.9245901390e-01	 2.6341042531e+00
 1.3854977831e+00	 4.0843071152e-01	 2.5789893889e+00
 1.3806913555e+00	 4.2439502114e-01	 2.5013182596e+00
 1.3756863658e+00	 4.4034847129e-01	 2.4072578975e+00
 1.3704821853e+00	 4.5628755507e-01	 2.3030299333e+00
 1.3650782638e+00	 4.7220873209e-01	 2.1948373344e+00
 1.3972351046e+00	 3.9447162423e-01	 2.6195916927e+00
 1.3926028999e+00	 4.1052522799e-01	 2.5640915091e+00
 1.3877718240e+00	 4.2657140586e-01	 2.4866806612e+00
 1.3827411676e+00	 4.4260666858e-01	 2.3931092747e+00
 1.3775102991e+00	 4.5862749125e-01	 2.2891837231e+00
 1.3720786652e+00	 4.7463031534e-01	 2.1806926225e+00
 1.4043638551e+00	 3.9648423455e-01	 2.6061523529e+00
 1.3997080168e+00	 4.1261974446e-01	 2.5498954408e+00
 1.3948522925e+00	 4.2874779059e-01	 2.4723333851e+00
 1.3897959695e+00	 4.4486486587e-01	 2.3788873176e+00
 1.3845384128e+00	 4.6096742743e-01	 2.2750333233e+00
 1.3790790666e+00	 4.7705189858e-01	 2.1662274321e+00
 1.4114926056e+00	 3.9849684488e-01	 2.5938656925e+00
 1.4068131336e+00	 4.1471426093e-01	 2.5364775644e+00
 1.4019327610e+00	 4.3092417531e-01	 2.4583194187e+00
 1.3968507714e+00	 4.4712306316e-01	 2.3645702901e+00
 1.3915665266e+00	 4.6330736361e-01	 2.2604599269e+00
 1.3860794679e+00	 4.7947348182e-01	 2.1511925229e+00
 1.4186213562e+00	 4.0050945521e-01	 2.5827989018e+00
 1.4139182504e+00	 4.1680877740e-01	 2.5239015810e+00
 1.4090132294e+00	 4.3310056003e-01	 2.4446693590e+00
 1.4039055733e+00	 4.4938126045e-01	 2.3501250785e+00
 1.3985946404e+00	 4.6564729979e-01	 2.2453351100e+00
 1.3930798693e+00	 4.8189506506e-01	 2.1353315681e+00
 1.4257501067e+00	 4.0252206554e-01	 2.5730072470e+00
 1.4210233673e+00	 4.1890329387e-01	 2.5122189016e+00
 1.4160936979e+00	 4.3527694476e-01	 2.4314018329e+00
 1.4109603751e+00	 4.5163945774e-01	 2.3355076283e+00
 1.4056227541e+00	 4.6798723597e-01	 2.2295212692e+00
 1.4000802706e+00	 4.8431664830e-01	 2.1183815761e+00
 1.3650782638e+00	 4.7220873209e-01	 2.1948373344e+00
 1.3594741311e+00	 4.8810843058e-01	 2.0868543508e+00
 1.3536693979e+00	 5.0398304950e-01	 1.9795477148e+00
 1.3476637580e+00	 5.1982896076e-01	 1.8733220523e+00
 1.3414569889e+00	 5.3564251151e-01	 1.7682996321e+00
 1.3350489532e+00	 5.5142002643e-01	 1.6642691817e+00
 1.3720786652e+00	 4.7463031534e-01	 2.1806926225e+00
 1.3664457933e+00	 4.9061155074e-01	 2.0717128498e+00
 1.3606112923e+00	 5.0656757796e-01	 1.9630919195e+00
 1.3545748542e+00	 5.2249475031e-01	 1.8555322043e+00
 1.3483362555e+00	 5.3838939619e-01	 1.7494451317e+00
 1.3418953581e+00	 5.5424782144e-01	 1.6448984715e+00
 1.3790790666e+00	 4.7705189858e-01	 2.1662274321e+00
 1.3734174555e+00	 4.9311467089e-01	 2.0564614041e+00
 1.3675531866e+00	 5.0915210642e-01	 1.9468715201e+00
 1.3614859504e+00	 5.2516053985e-01	 1.8383826675e+00
 1.3552155221e+00	 5.4113628086e-01	 1.7316229944e+00
 1.3487417630e+00	 5.5707561644e-01	 1.6268698891e+00
 1.3860794679e+00	 4.7947348182e-01	 2.1511925229e+00
 1.3803891177e+00	 4.9561779105e-01	 2.0407224588e+00
 1.3744950810e+00	 5.1173663488e-01	 1.9304199188e+00
 1.3683970466e+00	 5.2782632939e-01	 1.8213585258e+00
 1.3620947887e+00	 5.4388316554e-01	 1.7143121059e+00
 1.3555881679e+00	 5.5990341145e-01	 1.6096995773e+00
 1.3930798693e+00	 4.8189506506e-01	 2.1353315681e+00
 1.3873607799e+00	 4.9812091121e-01	 2.0241139602e+00
 1.3814369753e+00	 5.1432116333e-01	 1.9132679168e+00
 1.3753081428e+00	 5.3049211893e-01	 1.8039434399e+00
 1.3689740553e+00	 5.4663005021e-01	 1.6969903554e+00
 1.3624345728e+00	 5.6273120646e-01	 1.5929023275e+00
 1.4000802706e+00	 4.8431664830e-01	 2.1183815761e+00
 1.3943324421e+00	 5.0062403136e-01	 2.0062497632e+00
 1.3883788697e+00	 5.1690569179e-01	 1.8949441279e+00
 1.3822192390e+00	 5.3315790848e-01	 1.7856200868e+00
 1.3758533219e+00	 5.4937693488e-01	 1.6791351226e+00
 1.3692809777e+00	 5.6555900146e-01	 1.5759921372e+00
 1.3350489532e+00	 5.5142002643e-01	 1.6642691817e+00
 1.3284396002e+00	 5.6715781014e-01	 1.5560866271e+00
 1.3216289664e+00	 5.8285214967e-01	 1.4423253110e+00
 1.3146171765e+00	 5.9849931692e-01	 1.3276604816e+00
 1.3074044449e+00	 6.1409557125e-01	 1.2161805641e+00
 1.2999910758e+00	 6.2963716207e-01	 1.1113415052e+00
 1.3418953581e+00	 5.5424782144e-01	 1.6448984715e+00
 1.3352521110e+00	 5.7006631173e-01	 1.5364275803e+00
 1.3284065508e+00	 5.8584113505e-01	 1.4221943490e+00
 1.3213588030e+00	 6.0156854419e-01	 1.3069942639e+00
 1.3141090830e+00	 6.1724477931e-01	 1.1950167228e+00
 1.3066576967e+00	 6.3286607060e-01	 1.0897989272e+00
 1.3487417630e+00	 5.5707561644e-01	 1.6268698891e+00
 1.3420646218e+00	 5.7297481332e-01	 1.5182545604e+00
 1.3351841352e+00	 5.8883012043e-01	 1.4035254992e+00
 1.3281004296e+00	 6.0463777145e-01	 1.2876511560e+00
 1.3208137212e+00	 6.2039398737e-01	 1.1749709303e+00
 1.3133243176e+00	 6.3609497912e-01	 1.0691484806e+00
 1.3555881679e+00	 5.5990341145e-01	 1.6096995773e+00
 1.3488771326e+00	 5.7588331491e-01	 1.5011291973e+00
 1.3419617197e+00	 5.9181910582e-01	 1.3858975010e+00
 1.3348420561e+00	 6.0770699872e-01	 1.2691978479e+00
 1.3275183594e+00	 6.2354319543e-01	 1.1555678935e+00
 1.3199909385e+00	 6.3932388764e-01	 1.0488421887e+00
 1.3624345728e+00	 5.6273120646e-01	 1.5929023275e+00
 1.3556896433e+00	 5.7879181650e-01	 1.4846113377e+00
 1.3487393041e+00	 5.9480809120e-01	 1.3688875315e+00
 1.3415836827e+00	 6.1077622598e-01	 1.2512003506e+00
 1.3342229976e+00	 6.2669240348e-01	 1.1363331931e+00
 1.3266575594e+00	 6.4255279617e-01	 1.0283351792e+00
 1.3692809777e+00	 5.6555900146e-01	 1.5759921372e+00
 1.3625021541e+00	 5.8170031809e-01	 1.4682596758e+00
 1.3555168886e+00	 5.9779707658e-01	 1.3520718955e+00
 1.3483253092e+00	 6.1384545325e-01	 1.2332247297e+00
 1.3409276358e+00	 6.2984161154e-01	 1.1167940477e+00
 1.3333241803e+00	 6.4578170469e-01	 1.0070864622e+00
 1.2999910758e+00	 6.2963716207e-01	 1.1113415052e+00
 1.2923774646e+00	 6.4512033147e-01	 1.0096894497e+00
 1.2845640979e+00	 6.6054131693e-01	 9.0374104922e-01
 1.2765515547e+00	 6.7589635403e-01	 7.8977034307e-01
 1.2683405061e+00	 6.9118167922e-01	 6.6318833657e-01
 1.2599317165e+00	 7.0639353259e-01	 5.1853236113e-01
 1.3066576967e+00	 6.3286607060e-01	 1.0897989272e+00
 1.2990050413e+00	 6.4842864087e-01	 9.8764219778e-01
 1.2911516061e+00	 6.6392870830e-01	 8.8086599323e-01
 1.2830979729e+00	 6.7936248918e-01	 7.6588521341e-01
 1.2748448164e+00	 6.9472620065e-01	 6.3825636064e-01
 1.2663929048e+00	 7.1001606353e-01	 4.9266763752e-01
 1.3133243176e+00	 6.3609497912e-01	 1.0691484806e+00
 1.3056326181e+00	 6.5173695026e-01	 9.6639055203e-01
 1.2977391143e+00	 6.6731609967e-01	 8.5891596621e-01
 1.2896443911e+00	 6.8282862433e-01	 7.4324520220e-01
 1.2813491267e+00	 6.9827072208e-01	 6.1504912922e-01
 1.2728540931e+00	 7.1363859447e-01	 4.6914003583e-01
 1.3199909385e+00	 6.3932388764e-01	 1.0488421887e+00
 1.3122601948e+00	 6.5504525965e-01	 9.4531951950e-01
 1.3043266225e+00	 6.7070349104e-01	 8.3725188668e-01
 1.2961908093e+00	 6.8629475948e-01	 7.2123059968e-01
 1.2878534370e+00	 7.0181524351e-01	 5.9301023622e-01
 1.2793152814e+00	 7.1726112540e-01	 4.4750079685e-01
 1.3266575594e+00	 6.4255279617e-01	 1.0283351792e+00
 1.3188877716e+00	 6.5835356904e-01	 9.2381938028e-01
 1.3109141307e+00	 6.7409088241e-01	 8.1524129341e-01
 1.3027372276e+00	 6.8976089463e-01	 6.9922882128e-01
 1.2943577472e+00	 7.0535976495e-01	 5.7159004282e-01
 1.2857764696e+00	 7.2088365634e-01	 4.2730668808e-01
 1.3333241803e+00	 6.4578170469e-01	 1.0070864622e+00
 1.3255153483e+00	 6.6166187843e-01	 9.0128648116e-01
 1.3175016389e+00	 6.7747827378e-01	 7.9225917655e-01
 1.3092836458e+00	 6.9322702978e-01	 6.7663529767e-01
 1.3008620575e+00	 7.0890428638e-01	 5.5024664816e-01
 1.2922376579e+00	 7.2450618728e-01	 4.0812107692e-01
 1.2599317165e+00	 7.0639353259e-01	 5.1853236113e-01
 1.2513260432e+00	 7.2152816073e-01	 3.8705186662e-01
 1.2425244369e+00	 7.3658181950e-01	 3.0106975056e-01
 1.2335279416e+00	 7.5155077695e-01	 2.3837203407e-01
 1.2243376947e+00	 7.6643131616e-01	 1.4660053716e-01
 1.2149549267e+00	 7.8121973811e-01	 1.6961108441e-02
 1.2663929048e+00	 7.1001606353e-01	 4.9266763752e-01
 1.2577430998e+00	 7.2522830514e-01	 3.6251787395e-01
 1.2488963571e+00	 7.4035916216e-01	 2.8206665408e-01
 1.2398537259e+00	 7.5540488350e-01	 2.1480281644e-01
 1.2306163496e+00	 7.7036173317e-01	 1.1967137335e-01
 1.2211854648e+00	 7.8522599318e-01	-9.9931826048e-03
 1.2728540931e+00	 7.1363859447e-01	 4.6914003583e-01
 1.2641601565e+00	 7.2892844956e-01	 3.4091306556e-01
 1.2552682773e+00	 7.4413650483e-01	 2.6481883326e-01
 1.2461795102e+00	 7.5925899005e-01	 1.9118848377e-01
 1.2368950044e+00	 7.7429215017e-01	 9.3320681310e-02
 1.2274160029e+00	 7.8923224825e-01	-3.5799337765e-02
 1.2793152814e+00	 7.1726112540e-01	 4.4750079685e-01
 1.2705772131e+00	 7.3262859397e-01	 3.2188711383e-01
 1.2616401975e+00	 7.4791384749e-01	 2.4674887783e-01
 1.2525052946e+00	 7.6311309660e-01	 1.6742354327e-01
 1.2431736592e+00	 7.7822256718e-01	 6.7371807857e-02
 1.2336465409e+00	 7.9323850331e-01	-6.0770445070e-02
 1.2857764696e+00	 7.2088365634e-01	 4.2730668808e-01
 1.2769942697e+00	 7.3632873838e-01	 3.0509415904e-01
 1.2680121176e+00	 7.5169119016e-01	 2.2775378058e-01
 1.2588310789e+00	 7.6696720315e-01	 1.4341977023e-01
 1.2494523141e+00	 7.8215298418e-01	 4.1666801425e-02
 1.2398770790e+00	 7.9724475838e-01	-8.5198089373e-02
 1.2922376579e+00	 7.2450618728e-01	 4.0812107692e-01
 1.2834113263e+00	 7.4002888280e-01	 2.9019398013e-01
 1.2743840378e+00	 7.5546853282e-01	 2.0776824581e-01
 1.2651568632e+00	 7.7082130969e-01	 1.1910567540e-01
 1.2557309689e+00	 7.8608340119e-01	 1.6065837554e-02
 1.2461076171e+00	 8.0125101345e-01	-1.0935300028e-01
 1.2149549267e+00	 7.8121973811e-01	 1.6961108441e-02
 1.2053809609e+00	 7.9591236460e-01	-1.1834732468e-01
 1.1956172134e+00	 8.1050554108e-01	-2.2973018053e-01
 1.1856651921e+00	 8.2499563959e-01	-3.2713508270e-01
 1.1755264965e+00	 8.3937906161e-01	-4.2043649518e-01
 1.1652028170e+00	 8.5365224089e-01	-5.1931889687e-01
 1.2211854648e+00	 7.8522599318e-01	-9.9931826048e-03
 1.2115624018e+00	 7.9999396647e-01	-1.4440839753e-01
 1.2017485837e+00	 8.1466197975e-01	-2.5579367894e-01
 1.1917455264e+00	 8.2922638646e-01	-3.5361375106e-01
 1.1815548375e+00	 8.4368356962e-01	-4.4728450545e-01
 1.1711782160e+00	 8.5802994469e-01	-5.4605465982e-01
 1.2274160029e+00	 7.8923224825e-01	-3.5799337765e-02
 1.2177438426e+00	 8.0407556834e-01	-1.6885717133e-01
 1.2078799540e+00	 8.1881841842e-01	-2.7996152754e-01
 1.1978258607e+00	 8.3345713333e-01	-3.7810959020e-01
 1.1875831785e+00	 8.4798807763e-01	-4.7226732924e-01
 1.1771536151e+00	 8.6240764849e-01	-5.7124951938e-01
 1.2336465409e+00	 7.9323850331e-01	-6.0770445070e-02
 1.2239252834e+00	 8.0815717021e-01	-1.9214475896e-01
 1.2140113244e+00	 8.2297485710e-01	-3.0276033587e-01
 1.2039061950e+00	 8.3768788020e-01	-4.0116201110e-01
 1.1936115195e+00	 8.5229258564e-01	-4.9587441338e-01
 1.1831290142e+00	 8.6678535229e-01	-5.9528021851e-01
 1.2398770790e+00	 7.9724475838e-01	-8.5198089373e-02
 1.2301067242e+00	 8.1223877207e-01	-2.1469788003e-01
 1.2201426947e+00	 8.2713129577e-01	-3.2469063058e-01
 1.2099865294e+00	 8.4191862707e-01	-4.2328385755e-01
 1.1996398605e+00	 8.5659709364e-01	-5.1856936230e-01
 1.1891044132e+00	 8.7116305609e-01	-6.1849959437e-01
 1.2461076171e+00	 8.0125101345e-01	-1.0935300028e-01
 1.2362881651e+00	 8.1632037394e-01	-2.3691958159e-01
 1.2262740650e+00	 8.3128773444e-01	-3.4622761628e-01
 1.2160668637e+00	 8.4614937394e-01	-4.4496217426e-01
 1.2056682016e+00	 8.6090160165e-01	-5.4079068033e-01
 1.1950798123e+00	 8.7554075989e-01	-6.4123726190e-01
 1.1652028170e+00	 8.5365224089e-01	-5.1931889687e-01
 1.1546959338e+00	 8.6781164634e-01	-6.2140139036e-01
 1.1440077164e+00	 8.8185378482e-01	-7.1802497474e-01
 1.1331401225e+00	 8.9577520393e-01	-8.0874326418e-01
 1.1220951964e+00	 9.0957249480e-01	-8.9235509824e-01
 1.1108750687e+00	 9.2324229479e-01	-9.6679726996e-01
 1.1711782160e+00	 8.5802994469e-01	-5.4605465982e-01
 1.1606174514e+00	 8.7226196248e-01	-6.4699218057e-01
 1.1498744227e+00	 8.8637611192e-01	-7.4197586160e-01
 1.1389510974e+00	 9.0036892292e-01	-8.3175759487e-01
 1.1278495307e+00	 9.1423696914e-01	-9.1630897861e-01
 1.1165718639e+00	 9.2797687067e-01	-9.9470182127e-01
 1.1771536151e+00	 8.6240764849e-01	-5.7124951938e-01
 1.1665389690e+00	 8.7671227861e-01	-6.7141624683e-01
 1.1557411289e+00	 8.9089843902e-01	-7.6496506894e-01
 1.1447620724e+00	 9.0496264192e-01	-8.5375358664e-01
 1.1336038651e+00	 9.1890144347e-01	-9.3883935006e-01
 1.1222686591e+00	 9.3271144654e-01	-1.0203541901e+00
 1.1831290142e+00	 8.6678535229e-01	-5.9528021851e-01
 1.1724604866e+00	 8.8116259475e-01	-6.9493047982e-01
 1.1616078352e+00	 8.9542076612e-01	-7.8717910782e-01
 1.1505730474e+00	 9.0955636091e-01	-8.7489845846e-01
 1.1393581994e+00	 9.2356591780e-01	-9.6014680228e-01
 1.1279654543e+00	 9.3744602241e-01	-1.0440366017e+00
 1.1891044132e+00	 8.7116305609e-01	-6.1849959437e-01
 1.1783820042e+00	 8.8561291088e-01	-7.1776989972e-01
 1.1674745414e+00	 8.9994309322e-01	-8.0878361985e-01
 1.1563840224e+00	 9.1415007991e-01	-8.9533850020e-01
 1.1451125338e+00	 9.2823039213e-01	-9.8040985072e-01
 1.1336622496e+00	 9.4218059828e-01	-1.0660128830e+00
 1.1950798123e+00	 8.7554075989e-01	-6.4123726190e-01
 1.1843035219e+00	 8.9006322702e-01	-7.4014827598e-01
 1.1733412476e+00	 9.0446542032e-01	-8.2992395644e-01
 1.1621949974e+00	 9.1874379890e-01	-9.1519963546e-01
 1.1508668681e+00	 9.3289486646e-01	-9.9978550767e-01
 1.1393590448e+00	 9.4691517415e-01	-1.0865231375e+00
 1.1108750687e+00	 9.2324229479e-01	-9.6679726996e-01
 1.0994819541e+00	 9.3678129019e-01	-1.0468349754e+00
 1.0879181507e+00	 9.5018621882e-01	-1.1405667560e+00
 1.0761860379e+00	 9.6345387269e-01	-1.2358702583e+00
 1.0642880753e+00	 9.7658110049e-01	-1.3193937840e+00
 1.0522268005e+00	 9.8956481008e-01	-1.3767117718e+00
 1.1165718639e+00	 9.2797687067e-01	-9.9470182127e-01
 1.1051203231e+00	 9.4158529680e-01	-1.0719702495e+00
 1.0934972182e+00	 9.5505896866e-01	-1.1633918253e+00
 1.0817049407e+00	 9.6839466179e-01	-1.2586350266e+00
 1.0697459629e+00	 9.8158920870e-01	-1.3430004351e+00
 1.0576228354e+00	 9.9463950141e-01	-1.4006864068e+00
 1.1222686591e+00	 9.3271144654e-01	-1.0203541901e+00
 1.1107586921e+00	 9.4638930342e-01	-1.0996661284e+00
 1.0990762856e+00	 9.5993171850e-01	-1.1870825690e+00
 1.0872238435e+00	 9.7333545088e-01	-1.2807357835e+00
 1.0752038504e+00	 9.8659731691e-01	-1.3647926732e+00
 1.0630188703e+00	 9.9971419274e-01	-1.4222852167e+00
 1.1279654543e+00	 9.3744602241e-01	-1.0440366017e+00
 1.1163970611e+00	 9.5119331003e-01	-1.1274916470e+00
 1.1046553530e+00	 9.6480446834e-01	-1.2116790409e+00
 1.0927427462e+00	 9.7827623997e-01	-1.3022853665e+00
 1.0806617380e+00	 9.9160542512e-01	-1.3849308681e+00
 1.0684149051e+00	 1.0047888841e+00	-1.4416872449e+00
 1.1336622496e+00	 9.4218059828e-01	-1.0660128830e+00
 1.1220354301e+00	 9.5599731665e-01	-1.1526261819e+00
 1.1102344205e+00	 9.6967721818e-01	-1.2371982159e+00
 1.0982616490e+00	 9.8321702906e-01	-1.3233731236e+00
 1.0861196256e+00	 9.9661353333e-01	-1.4035521653e+00
 1.0738109400e+00	 1.0098635754e+00	-1.4590493119e+00
 1.1393590448e+00	 9.4691517415e-01	-1.0865231375e+00
 1.1276737991e+00	 9.6080132327e-01	-1.1753996943e+00
 1.1158134879e+00	 9.7454996802e-01	-1.2621584893e+00
 1.1037805517e+00	 9.8815781815e-01	-1.3440642153e+00
 1.0915775131e+00	 1.0016216415e+00	-1.4207698159e+00
 1.0792069749e+00	 1.0149382667e+00	-1.4745053583e+00
 1.0522268005e+00	 9.8956481008e-01	-1.3767117718e+00
 1.0400048278e+00	 1.0024019709e+00	-1.4289320525e+00
 1.0276248459e+00	 1.0150896163e+00	-1.4984881205e+00
 1.0150896163e+00	 1.0276248459e+00	-1.5719402369e+00
 1.0024019709e+00	 1.0400048278e+00	-1.6355996629e+00
 9.8956481008e-01	 1.0522268005e+00	-1.6757138382e+00
 1.0576228354e+00	 9.9463950141e-01	-1.4006864068e+00
 1.0453381859e+00	 1.0075424938e+00	-1.4523567334e+00
 1.0328947169e+00	 1.0202952041e+00	-1.5210237059e+00
 1.0202952041e+00	 1.0328947169e+00	-1.5933764398e+00
 1.0075424938e+00	 1.0453381859e+00	-1.6558421317e+00
 9.9463950141e-01	 1.0576228354e+00	-1.6947761769e+00
 1.0630188703e+00	 9.9971419274e-01	-1.4222852167e+00
 1.0506715440e+00	 1.0126830167e+00	-1.4735193728e+00
 1.0381645879e+00	 1.0255007919e+00	-1.5418494679e+00
 1.0255007919e+00	 1.0381645879e+00	-1.6138139230e+00
 1.0126830167e+00	 1.0506715440e+00	-1.6756751368e+00
 9.9971419274e-01	 1.0630188703e+00	-1.7136153084e+00
 1.0684149051e+00	 1.0047888841e+00	-1.4416872449e+00
 1.0560049021e+00	 1.0178235397e+00	-1.4925978867e+00
 1.0434344589e+00	 1.0307063796e+00	-1.5611362930e+00
 1.0307063796e+00	 1.0434344589e+00	-1.6334142884e+00
 1.0178235397e+00	 1.0560049021e+00	-1.6952523743e+00
 1.0047888841e+00	 1.0684149051e+00	-1.7323820189e+00
 1.0738109400e+00	 1.0098635754e+00	-1.4590493119e+00
 1.0613382602e+00	 1.0229640626e+00	-1.5097495111e+00
 1.0487043299e+00	 1.0359119674e+00	-1.5790361785e+00
 1.0359119674e+00	 1.0487043299e+00	-1.6523221986e+00
 1.0229640626e+00	 1.0613382602e+00	-1.7147126213e+00
 1.0098635754e+00	 1.0738109400e+00	-1.7512141788e+00
 1.0792069749e+00	 1.0149382667e+00	-1.4745053583e+00
 1.0666716183e+00	 1.0281045855e+00	-1.5251101473e+00
 1.0539742010e+00	 1.0411175552e+00	-1.5956815761e+00
 1.0411175552e+00	 1.0539742010e+00	-1.6706647193e+00
 1.0281045855e+00	 1.0666716183e+00	-1.7341790781e+00
 1.0149382667e+00	 1.0792069749e+00	-1.7702360860e+00
 9.8956481008e-01	 1.0522268005e+00	-1.6757138382e+00
 9.7658110049e-01	 1.0642880753e+00	-1.7145079488e+00
 9.6345387269e-01	 1.0761860379e+00	-1.7731225056e+00
 9.5018621882e-01	 1.0879181507e+00	-1.8368008578e+00
 9.3678129019e-01	 1.0994819541e+00	-1.8916804377e+00
 9.2324229479e-01	 1.1108750687e+00	-1.9249754499e+00
 9.9463950141e-01	 1.0576228354e+00	-1.6947761769e+00
 9.8158920870e-01	 1.0697459629e+00	-1.7332892662e+00
 9.6839466179e-01	 1.0817049407e+00	-1.7923889548e+00
 9.5505896866e-01	 1.0934972182e+00	-1.8559031183e+00
 9.4158529680e-01	 1.1051203231e+00	-1.9085702101e+00
 9.2797687067e-01	 1.1165718639e+00	-1.9386996364e+00
 9.9971419274e-01	 1.0630188703e+00	-1.7136153084e+00
 9.8659731691e-01	 1.0752038504e+00	-1.7514250884e+00
 9.7333545088e-01	 1.0872238435e+00	-1.8101100235e+00
 9.5993171850e-01	 1.0990762856e+00	-1.8723097150e+00
 9.4638930342e-01	 1.1107586921e+00	-1.9215951724e+00
 9.3271144654e-01	 1.1222686591e+00	-1.9523139913e+00
 1.0047888841e+00	 1.0684149051e+00	-1.7323820189e+00
 9.9160542512e-01	 1.0806617380e+00	-1.7690887127e+00
 9.7827623997e-01	 1.0927427462e+00	-1.8265222690e+00
 9.6480446834e-01	 1.1046553530e+00	-1.8863571424e+00
 9.5119331003e-01	 1.1163970611e+00	-1.9327440242e+00
 9.3744602241e-01	 1.1279654543e+00	-1.9654237813e+00
 1.0098635754e+00	 1.0738109400e+00	-1.7512141788e+00
 9.9661353333e-01	 1.0861196256e+00	-1.7864420775e+00
 9.8321702906e-01	 1.0982616490e+00	-1.8418516768e+00
 9.6967721818e-01	 1.1102344205e+00	-1.8983714037e+00
 9.5599731665e-01	 1.1220354301e+00	-1.9437810754e+00
 9.4218059828e-01	 1.1336622496e+00	-1.9776269008e+00
 1.0149382667e+00	 1.0792069749e+00	-1.7702360860e+00
 1.0016216415e+00	 1.0915775131e+00	-1.8036351213e+00
 9.8815781815e-01	 1.1037805517e+00	-1.8563130546e+00
 9.7454996802e-01	 1.1158134879e+00	-1.9092627763e+00
 9.6080132327e-01	 1.1276737991e+00	-1.9541698179e+00
 9.4691517415e-01	 1.1393590448e+00	-1.9885193063e+00
 9.2324229479e-01	 1.1108750687e+00	-1.9249754499e+00
 9.0957249480e-01	 1.1220951964e+00	-1.9457252440e+00
 8.9577520393e-01	 1.1331401225e+00	-1.9699241779e+00
 8.8185378482e-01	 1.1440077164e+00	-1.9954370241e+00
 8.6781164634e-01	 1.1546959338e+00	-2.0209593826e+00
 8.5365224089e-01	 1.1652028170e+00	-2.0459231609e+00
 9.2797687067e-01	 1.1165718639e+00	-1.9386996364e+00
 9.1423696914e-01	 1.1278495307e+00	-1.9612914984e+00
 9.0036892292e-01	 1.1389510974e+00	-1.9847601848e+00
 8.8637611192e-01	 1.1498744227e+00	-2.0080566134e+00
 8.7226196248e-01	 1.1606174514e+00	-2.0309951026e+00
 8.5802994469e-01	 1.1711782160e+00	-2.0541479222e+00
 9.3271144654e-01	 1.1222686591e+00	-1.9523139913e+00
 9.1890144347e-01	 1.1336038651e+00	-1.9761638820e+00
 9.0496264192e-01	 1.1447620724e+00	-1.9987849228e+00
 8.9089843902e-01	 1.1557411289e+00	-2.0200899644e+00
 8.7671227861e-01	 1.1665389690e+00	-2.0408749091e+00
 8.6240764849e-01	 1.1771536151e+00	-2.0627074722e+00
 9.3744602241e-01	 1.1279654543e+00	-1.9654237813e+00
 9.2356591780e-01	 1.1393581994e+00	-1.9900632240e+00
 9.0955636091e-01	 1.1505730474e+00	-2.0117642947e+00
 8.9542076612e-01	 1.1616078352e+00	-2.0312749058e+00
 8.8116259475e-01	 1.1724604866e+00	-2.0502377389e+00
 8.6678535229e-01	 1.1831290142e+00	-2.0710734444e+00
 9.4218059828e-01	 1.1336622496e+00	-1.9776269008e+00
 9.2823039213e-01	 1.1451125338e+00	-2.0027052907e+00
 9.1415007991e-01	 1.1563840224e+00	-2.0234580243e+00
 8.9994309322e-01	 1.1674745414e+00	-2.0413434202e+00
 8.8561291088e-01	 1.1783820042e+00	-2.0587184301e+00
 8.7116305609e-01	 1.1891044132e+00	-2.0787164954e+00
 9.4691517415e-01	 1.1393590448e+00	-1.9885193063e+00
 9.3289486646e-01	 1.1508668681e+00	-2.0138013406e+00
 9.1874379890e-01	 1.1621949974e+00	-2.0336202050e+00
 9.0446542032e-01	 1.1733412476e+00	-2.0500221515e+00
 8.9006322702e-01	 1.1843035219e+00	-2.0659481508e+00
 8.7554075989e-01	 1.1950798123e+00	-2.0851066212e+00
 8.5365224089e-01	 1.1652028170e+00	-2.0459231609e+00
 8.3937906161e-01	 1.1755264965e+00	-2.0651213689e+00
 8.2499563959e-01	 1.1856651921e+00	-2.0775040323e+00
 8.1050554108e-01	 1.1956172134e+00	-2.0894429916e+00
 7.9591236460e-01	 1.2053809609e+00	-2.1075078583e+00
 7.8121973811e-01	 1.2149549267e+00	-2.1383623140e+00
 8.5802994469e-01	 1.1711782160e+00	-2.0541479222e+00
 8.4368356962e-01	 1.1815548375e+00	-2.0726370390e+00
 8.2922638646e-01	 1.1917455264e+00	-2.0846372410e+00
 8.1466197975e-01	 1.2017485837e+00	-2.0960001637e+00
 7.9999396647e-01	 1.2115624018e+00	-2.1127513089e+00
 7.8522599318e-01	 1.2211854648e+00	-2.1409848296e+00
 8.6240764849e-01	 1.1771536151e+00	-2.0627074722e+00
 8.4798807763e-01	 1.1875831785e+00	-2.0808045441e+00
 8.3345713333e-01	 1.1978258607e+00	-2.0924633463e+00
 8.1881841842e-01	 1.2078799540e+00	-2.1030700728e+00
 8.0407556834e-01	 1.2177438426e+00	-2.1181710586e+00
 7.8923224825e-01	 1.2274160029e+00	-2.1433657438e+00
 8.6678535229e-01	 1.1831290142e+00	-2.0710734444e+00
 8.5229258564e-01	 1.1936115195e+00	-2.0889417583e+00
 8.3768788020e-01	 1.2039061950e+00	-2.1002398681e+00
 8.2297485710e-01	 1.2140113244e+00	-2.1099425153e+00
 8.0815717021e-01	 1.2239252834e+00	-2.1231809169e+00
 7.9323850331e-01	 1.2336465409e+00	-2.1451336028e+00
 8.7116305609e-01	 1.1891044132e+00	-2.0787164954e+00
 8.5659709364e-01	 1.1996398605e+00	-2.0963684381e+00
 8.4191862707e-01	 1.2099865294e+00	-2.1072272083e+00
 8.2713129577e-01	 1.2201426947e+00	-2.1159093340e+00
 8.1223877207e-01	 1.2301067242e+00	-2.1271940959e+00
 7.9724475838e-01	 1.2398770790e+00	-2.1459119312e+00
 8.7554075989e-01	 1.1950798123e+00	-2.0851066212e+00
 8.6090160165e-01	 1.2056682016e+00	-2.1024064326e+00
 8.4614937394e-01	 1.2160668637e+00	-2.1126888029e+00
 8.3128773444e-01	 1.2262740650e+00	-2.1202645597e+00
 8.1632037394e-01	 1.2362881651e+00	-2.1296233866e+00
 8.0125101345e-01	 1.2461076171e+00	-2.1453194879e+00
 7.8121973811e-01	 1.2149549267e+00	-2.1383623140e+00
 7.6643131616e-01	 1.2243376947e+00	-2.1559547639e+00
 7.5155077695e-01	 1.2335279416e+00	-2.1378865512e+00
 7.3658181950e-01	 1.2425244369e+00	-2.0978080632e+00
 7.2152816073e-01	 1.2513260432e+00	-2.0718861068e+00
 7.0639353259e-01	 1.2599317165e+00	-2.0801204691e+00
 7.8522599318e-01	 1.2211854648e+00	-2.1409848296e+00
 7.7036173317e-01	 1.2306163496e+00	-2.1561861064e+00
 7.5540488350e-01	 1.2398537259e+00	-2.1379645191e+00
 7.4035916216e-01	 1.2488963571e+00	-2.0987753866e+00
 7.2522830514e-01	 1.2577430998e+00	-2.0689022038e+00
 7.1001606353e-01	 1.2663929048e+00	-2.0757361424e+00
 7.8923224825e-01	 1.2274160029e+00	-2.1433657438e+00
 7.7429215017e-01	 1.2368950044e+00	-2.1558194878e+00
 7.5925899005e-01	 1.2461795102e+00	-2.1372013532e+00
 7.4413650483e-01	 1.2552682773e+00	-2.1000054489e+00
 7.2892844956e-01	 1.2641601565e+00	-2.0669614528e+00
 7.1363859447e-01	 1.2728540931e+00	-2.0722442330e+00
 7.9323850331e-01	 1.2336465409e+00	-2.1451336028e+00
 7.7822256718e-01	 1.2431736592e+00	-2.1546950116e+00
 7.6311309660e-01	 1.2525052946e+00	-2.1355531430e+00
 7.4791384749e-01	 1.2616401975e+00	-2.1001894423e+00
 7.3262859397e-01	 1.2705772131e+00	-2.0658718690e+00
 7.1726112540e-01	 1.2793152814e+00	-2.0692885164e+00
 7.9724475838e-01	 1.2398770790e+00	-2.1459119312e+00
 7.8215298418e-01	 1.2494523141e+00	-2.1526434485e+00
 7.6696720315e-01	 1.2588310789e+00	-2.1329643110e+00
 7.5169119016e-01	 1.2680121176e+00	-2.0992821134e+00
 7.3632873838e-01	 1.2769942697e+00	-2.0654287393e+00
 7.2088365634e-01	 1.2857764696e+00	-2.0665030431e+00
 8.0125101345e-01	 1.2461076171e+00	-2.1453194879e+00
 7.8608340119e-01	 1.2557309689e+00	-2.1494865714e+00
 7.7082130969e-01	 1.2651568632e+00	-2.1293679785e+00
 7.5546853282e-01	 1.2743840378e+00	-2.0972374588e+00
 7.4002888280e-01	 1.2834113263e+00	-2.0654154869e+00
 7.2450618728e-01	 1.2922376579e+00	-2.0635128865e+00
 7.0639353259e-01	 1.2599317165e+00	-2.0801204691e+00
 6.9118167922e-01	 1.2683405061e+00	-2.0991152709e+00
 6.7589635403e-01	 1.2765515547e+00	-2.1016883835e+00
 6.6054131693e-01	 1.2845640979e+00	-2.0918849036e+00
 6.4512033147e-01	 1.2923774646e+00	-2.0728009019e+00
 6.2963716207e-01	 1.2999910758e+00	-2.0466142108e+00
 7.1001606353e-01	 1.2663929048e+00	-2.0757361424e+00
 6.9472620065e-01	 1.2748448164e+00	-2.0941551787e+00
 6.7936248918e-01	 1.2830979729e+00	-2.0954384475e+00
 6.6392870830e-01	 1.2911516061e+00	-2.0838937126e+00
 6.4842864087e-01	 1.2990050413e+00	-2.0628698319e+00
 6.3286607060e-01	 1.3066576967e+00	-2.0347869875e+00
 7.1363859447e-01	 1.2728540931e+00	-2.0722442330e+00
 6.9827072208e-01	 1.2813491267e+00	-2.0898752776e+00
 6.8282862433e-01	 1.2896443911e+00	-2.0896863215e+00
 6.6731609967e-01	 1.2977391143e+00	-2.0762723691e+00
 6.5173695026e-01	 1.3056326181e+00	-2.0532680356e+00
 6.3609497912e-01	 1.3133243176e+00	-2.0233769922e+00
 7.1726112540e-01	 1.2793152814e+00	-2.0692885164e+00
 7.0181524351e-01	 1.2878534370e+00	-2.0857508062e+00
 6.8629475948e-01	 1.2961908093e+00	-2.0838202662e+00
 6.7070349104e-01	 1.3043266225e+00	-2.0684031345e+00
 6.5504525965e-01	 1.3122601948e+00	-2.0434520752e+00
 6.3932388764e-01	 1.3199909385e+00	-2.0119946093e+00
 7.2088365634e-01	 1.2857764696e+00	-2.0665030431e+00
 7.0535976495e-01	 1.2943577472e+00	-2.0812504011e+00
 6.8976089463e-01	 1.3027372276e+00	-2.0772234613e+00
 6.7409088241e-01	 1.3109141307e+00	-2.0596631285e+00
 6.5835356904e-01	 1.3188877716e+00	-2.0328717460e+00
 6.4255279617e-01	 1.3266575594e+00	-2.0002402887e+00
 7.2450618728e-01	 1.2922376579e+00	-2.0635128865e+00
 7.0890428638e-01	 1.3008620575e+00	-2.0758367224e+00
 6.9322702978e-01	 1.3092836458e+00	-2.0692745513e+00
 6.7747827378e-01	 1.3175016389e+00	-2.0494248327e+00
 6.6166187843e-01	 1.3255153483e+00	-2.0209705795e+00
 6.4578170469e-01	 1.3333241803e+00	-1.9877050874e+00
 6.2963716207e-01	 1.2999910758e+00	-2.0466142108e+00
 6.1409557125e-01	 1.3074044449e+00	-2.0198270935e+00
 5.9849931692e-01	 1.3146171765e+00	-1.9976225649e+00
 5.8285214967e-01	 1.3216289664e+00	-1.9789612663e+00
 5.6715781014e-01	 1.3284396002e+00	-1.9620841622e+00
 5.5142002643e-01	 1.3350489532e+00	-1.9445671296e+00
 6.3286607060e-01	 1.3066576967e+00	-2.0347869875e+00
 6.1724477931e-01	 1.3141090830e+00	-2.0064106561e+00
 6.0156854419e-01	 1.3213588030e+00	-1.9829258294e+00
 5.8584113505e-01	 1.3284065508e+00	-1.9631215733e+00
 5.7006631173e-01	 1.3352521110e+00	-1.9450494724e+00
 5.5424782144e-01	 1.3418953581e+00	-1.9260793948e+00
 6.3609497912e-01	 1.3133243176e+00	-2.0233769922e+00
 6.2039398737e-01	 1.3208137212e+00	-1.9935757534e+00
 6.0463777145e-01	 1.3281004296e+00	-1.9689568484e+00
 5.8883012043e-01	 1.3351841352e+00	-1.9481149879e+00
 5.7297481332e-01	 1.3420646218e+00	-1.9288810563e+00
 5.5707561644e-01	 1.3487417630e+00	-1.9083792433e+00
 6.3932388764e-01	 1.3199909385e+00	-2.0119946093e+00
 6.2354319543e-01	 1.3275183594e+00	-1.9810902633e+00
 6.0770699872e-01	 1.3348420561e+00	-1.9555696385e+00
 5.9181910582e-01	 1.3419617197e+00	-1.9338107401e+00
 5.7588331491e-01	 1.3488771326e+00	-1.9133929253e+00
 5.5990341145e-01	 1.3555881679e+00	-1.8911555887e+00
 6.4255279617e-01	 1.3266575594e+00	-2.0002402887e+00
 6.2669240348e-01	 1.3342229976e+00	-1.9687089495e+00
 6.1077622598e-01	 1.3415836827e+00	-1.9426034208e+00
 5.9480809120e-01	 1.3487393041e+00	-1.9200630778e+00
 5.7879181650e-01	 1.3556896433e+00	-1.8983854090e+00
 5.6273120646e-01	 1.3624345728e+00	-1.8740864427e+00
 6.4578170469e-01	 1.3333241803e+00	-1.9877050874e+00
 6.2984161154e-01	 1.3409276358e+00	-1.9561740412e+00
 6.1384545325e-01	 1.3483253092e+00	-1.9298832038e+00
 5.9779707658e-01	 1.3555168886e+00	-1.9067118160e+00
 5.8170031809e-01	 1.3625021541e+00	-1.8836456357e+00
 5.6555900146e-01	 1.3692809777e+00	-1.8568392894e+00
 5.5142002643e-01	 1.3350489532e+00	-1.9445671296e+00
 5.3564251151e-01	 1.3414569889e+00	-1.9234639144e+00
 5.1982896076e-01	 1.3476637580e+00	-1.8983258384e+00
 5.0398304950e-01	 1.3536693979e+00	-1.8697083505e+00
 4.8810843058e-01	 1.3594741311e+00	-1.8378081869e+00
 4.7220873209e-01	 1.3650782638e+00	-1.8025210762e+00
 5.5424782144e-01	 1.3418953581e+00	-1.9260793948e+00
 5.3838939619e-01	 1.3483362555e+00	-1.9035945408e+00
 5.2249475031e-01	 1.3545748542e+00	-1.8774614393e+00
 5.0656757796e-01	 1.3606112923e+00	-1.8479878381e+00
 4.9061155074e-01	 1.3664457933e+00	-1.8151125968e+00
 4.7463031534e-01	 1.3720786652e+00	-1.7784651493e+00
 5.5707561644e-01	 1.3487417630e+00	-1.9083792433e+00
 5.4113628086e-01	 1.3552155221e+00	-1.8843312873e+00
 5.2516053985e-01	 1.3614859504e+00	-1.8569977644e+00
 5.0915210642e-01	 1.3675531866e+00	-1.8265023666e+00
 4.9311467089e-01	 1.3734174555e+00	-1.7925959377e+00
 4.7705189858e-01	 1.3790790666e+00	-1.7547174277e+00
 5.5990341145e-01	 1.3555881679e+00	-1.8911555887e+00
 5.4388316554e-01	 1.3620947887e+00	-1.8652390807e+00
 5.2782632939e-01	 1.3683970466e+00	-1.8364465487e+00
 5.1173663488e-01	 1.3744950810e+00	-1.8047798504e+00
 4.9561779105e-01	 1.3803891177e+00	-1.7698701688e+00
 4.7947348182e-01	 1.3860794679e+00	-1.7310401973e+00
 5.6273120646e-01	 1.3624345728e+00	-1.8740864427e+00
 5.4663005021e-01	 1.3689740553e+00	-1.8458747786e+00
 5.3049211893e-01	 1.3753081428e+00	-1.8153129444e+00
 5.1432116333e-01	 1.3814369753e+00	-1.7823417906e+00
 4.9812091121e-01	 1.3873607799e+00	-1.7465397194e+00
 4.8189506506e-01	 1.3930798693e+00	-1.7071858399e+00
 5.6555900146e-01	 1.3692809777e+00	-1.8568392894e+00
 5.4937693488e-01	 1.3758533219e+00	-1.8257874395e+00
 5.3315790848e-01	 1.3822192390e+00	-1.7930957225e+00
 5.1690569179e-01	 1.3883788697e+00	-1.7587034424e+00
 5.0062403136e-01	 1.3943324421e+00	-1.7222016540e+00
 4.8431664830e-01	 1.4000802706e+00	-1.6828970318e+00
 4.7220873209e-01	 1.3650782638e+00	-1.8025210762e+00
 4.5628755507e-01	 1.3704821853e+00	-1.7710164864e+00
 4.4034847129e-01	 1.3756863658e+00	-1.7478717519e+00
 4.2439502114e-01	 1.3806913555e+00	-1.7288231098e+00
 4.0843071152e-01	 1.3854977831e+00	-1.7095554063e+00
 3.9245901390e-01	 1.3901063540e+00	-1.6857727930e+00
 4.7463031534e-01	 1.3720786652e+00	-1.7784651493e+00
 4.5862749125e-01	 1.3775102991e+00	-1.7448803600e+00
 4.4260666858e-01	 1.3827411676e+00	-1.7191774470e+00
 4.2657140586e-01	 1.3877718240e+00	-1.6976743597e+00
 4.1052522799e-01	 1.3926028999e+00	-1.6766227849e+00
 3.9447162423e-01	 1.3972351046e+00	-1.6522795389e+00
 4.7705189858e-01	 1.3790790666e+00	-1.7547174277e+00
 4.6096742743e-01	 1.3845384128e+00	-1.7193832587e+00
 4.4486486587e-01	 1.3897959695e+00	-1.6915425303e+00
 4.2874779059e-01	 1.3948522925e+00	-1.6679812163e+00
 4.1261974446e-01	 1.3997080168e+00	-1.6454023142e+00
 3.9648423455e-01	 1.4043638551e+00	-1.6204982329e+00
 4.7947348182e-01	 1.3860794679e+00	-1.7310401973e+00
 4.6330736361e-01	 1.3915665266e+00	-1.6944570565e+00
 4.4712306316e-01	 1.3968507714e+00	-1.6650428012e+00
 4.3092417531e-01	 1.4019327610e+00	-1.6399392373e+00
 4.1471426093e-01	 1.4068131336e+00	-1.6161866379e+00
 3.9849684488e-01	 1.4114926056e+00	-1.5907974189e+00
 4.8189506506e-01	 1.3930798693e+00	-1.7071858399e+00
 4.6564729979e-01	 1.3985946404e+00	-1.6700210368e+00
 4.4938126045e-01	 1.4039055733e+00	-1.6397393685e+00
 4.3310056003e-01	 1.4090132294e+00	-1.6137277462e+00
 4.1680877740e-01	 1.4139182504e+00	-1.5892511411e+00
 4.0050945521e-01	 1.4186213562e+00	-1.5635278450e+00
 4.8431664830e-01	 1.4000802706e+00	-1.6828970318e+00
 4.6798723597e-01	 1.4056227541e+00	-1.6459821336e+00
 4.5163945774e-01	 1.4109603751e+00	-1.6156789233e+00
 4.3527694476e-01	 1.4160936979e+00	-1.5895101218e+00
 4.1890329387e-01	 1.4210233673e+00	-1.5648542483e+00
 4.0252206554e-01	 1.4257501067e+00	-1.5390227590e+00
 3.9245901390e-01	 1.3901063540e+00	-1.6857727930e+00
 3.7648336231e-01	 1.3945178489e+00	-1.6536144761e+00
 3.6050715156e-01	 1.3987331221e+00	-1.6137680228e+00
 3.4453373541e-01	 1.4027530995e+00	-1.5930716047e+00
 3.2856642488e-01	 1.4065787776e+00	-1.5801536700e+00
 3.1260848662e-01	 1.4102112208e+00	-1.5605625089e+00
 3.9447162423e-01	 1.3972351046e+00	-1.6522795389e+00
 3.7841404622e-01	 1.4016692225e+00	-1.6210850412e+00
 3.6235590618e-01	 1.4059061124e+00	-1.5795291880e+00
 3.4630057508e-01	 1.4099467052e+00	-1.5562340325e+00
 3.3025138091e-01	 1.4137920021e+00	-1.5424242939e+00
 3.1421160707e-01	 1.4174430732e+00	-1.5230685646e+00
 3.9648423455e-01	 1.4043638551e+00	-1.6204982329e+00
 3.8034473013e-01	 1.4088205961e+00	-1.5900387251e+00
 3.6420466081e-01	 1.4130791028e+00	-1.5470837903e+00
 3.4806741475e-01	 1.4171403108e+00	-1.5204505720e+00
 3.3193633693e-01	 1.4210052266e+00	-1.5051399808e+00
 3.1581472751e-01	 1.4246749256e+00	-1.4856825258e+00
 3.9849684488e-01	 1.4114926056e+00	-1.5907974189e+00
 3.8227541404e-01	 1.4159719697e+00	-1.5608917031e+00
 3.6605341543e-01	 1.4202520932e+00	-1.5169385379e+00
 3.4983425442e-01	 1.4243339164e+00	-1.4862241574e+00
 3.3362129296e-01	 1.4282184511e+00	-1.4687444240e+00
 3.1741784795e-01	 1.4319067780e+00	-1.4487315914e+00
 4.0050945521e-01	 1.4186213562e+00	-1.5635278450e+00
 3.8420609795e-01	 1.4231233433e+00	-1.5340424413e+00
 3.6790217005e-01	 1.4274250835e+00	-1.4895753088e+00
 3.5160109409e-01	 1.4315275221e+00	-1.4540384230e+00
 3.3530624898e-01	 1.4354316756e+00	-1.4336680515e+00
 3.1902096840e-01	 1.4391386304e+00	-1.4125362725e+00
 4.0252206554e-01	 1.4257501067e+00	-1.5390227590e+00
 3.8613678186e-01	 1.4302747169e+00	-1.5098719759e+00
 3.6975092468e-01	 1.4345980739e+00	-1.4654505930e+00
 3.5336793376e-01	 1.4387211277e+00	-1.4243571698e+00
 3.3699120501e-01	 1.4426449001e+00	-1.4003274915e+00
 3.2062408884e-01	 1.4463704828e+00	-1.3774098331e+00
 3.1260848662e-01	 1.4102112208e+00	-1.5605625089e+00
 2.9666314135e-01	 1.4136515602e+00	-1.5308422524e+00
 2.8073356238e-01	 1.4169009916e+00	-1.4986024751e+00
 2.6482287423e-01	 1.4199607735e+00	-1.4674090584e+00
 2.4893415130e-01	 1.4228322253e+00	-1.4415261433e+00
 2.3307041660e-01	 1.4255167253e+00	-1.4258272802e+00
 3.1421160707e-01	 1.4174430732e+00	-1.5230685646e+00
 2.9818449079e-01	 1.4209010554e+00	-1.4938533576e+00
 2.8217322168e-01	 1.4241671505e+00	-1.4617605622e+00
 2.6618094026e-01	 1.4272426237e+00	-1.4302375635e+00
 2.5021073669e-01	 1.4301288008e+00	-1.4034800976e+00
 2.3426564950e-01	 1.4328270674e+00	-1.3863386115e+00
 3.1581472751e-01	 1.4246749256e+00	-1.4856825258e+00
 2.9970584024e-01	 1.4281505506e+00	-1.4568641471e+00
 2.8361288097e-01	 1.4314333095e+00	-1.4248777824e+00
 2.6753900628e-01	 1.4345244738e+00	-1.3930220338e+00
 2.5148732208e-01	 1.4374253763e+00	-1.3654037806e+00
 2.3546088241e-01	 1.4401374096e+00	-1.3468394336e+00
 3.1741784795e-01	 1.4319067780e+00	-1.4487315914e+00
 3.0122718968e-01	 1.4354000457e+00	-1.4200817430e+00
 2.8505254027e-01	 1.4386994684e+00	-1.3880929780e+00
 2.6889707230e-01	 1.4418063239e+00	-1.3558857337e+00
 2.5276390747e-01	 1.4447219519e+00	-1.3274584960e+00
 2.3665611531e-01	 1.4474477518e+00	-1.3075836276e+00
 3.1902096840e-01	 1.4391386304e+00	-1.4125362725e+00
 3.0274853912e-01	 1.4426495409e+00	-1.3837126320e+00
 2.8649219956e-01	 1.4459656273e+00	-1.3515487816e+00
 2.7025513832e-01	 1.4490881740e+00	-1.3189585131e+00
 2.5404049286e-01	 1.4520185274e+00	-1.2898132978e+00
 2.3785134822e-01	 1.4547580940e+00	-1.2688323631e+00
 3.2062408884e-01	 1.4463704828e+00	-1.3774098331e+00
 3.0426988856e-01	 1.4498990361e+00	-1.3479620817e+00
 2.8793185885e-01	 1.4532317863e+00	-1.3153910362e+00
 2.7161320434e-01	 1.4563700241e+00	-1.2823762616e+00
 2.5531707825e-01	 1.4593151029e+00	-1.2526445089e+00
 2.3904658112e-01	 1.4620684362e+00	-1.2308537103e+00
 2.3307041660e-01	 1.4255167253e+00	-1.4258272802e+00
 2.1723464063e-01	 1.4280157086e+00	-1.4176194904e+00
 2.0142974026e-01	 1.4303306656e+00	-1.4091261381e+00
 1.8565857776e-01	 1.4324631393e+00	-1.3983323833e+00
 1.6992395980e-01	 1.4344147242e+00	-1.3835862697e+00
 1.5422863667e-01	 1.4361870633e+00	-1.3634835292e+00
 2.3426564950e-01	 1.4328270674e+00	-1.3863386115e+00
 2.1834866442e-01	 1.4353388661e+00	-1.3764586375e+00
 2.0246271329e-01	 1.4376656946e+00	-1.3664102273e+00
 1.8661067303e-01	 1.4398091042e+00	-1.3542400812e+00
 1.7079536472e-01	 1.4417706971e+00	-1.3384077033e+00
 1.5501955275e-01	 1.4435521251e+00	-1.3176632754e+00
 2.3546088241e-01	 1.4401374096e+00	-1.3468394336e+00
 2.1946268822e-01	 1.4426620236e+00	-1.3354174699e+00
 2.0349568632e-01	 1.4450007237e+00	-1.3241172382e+00
 1.8756276830e-01	 1.4471550690e+00	-1.3109807578e+00
 1.7166676965e-01	 1.4491266701e+00	-1.2945134277e+00
 1.5581046884e-01	 1.4509171870e+00	-1.2735549305e+00
 2.3665611531e-01	 1.4474477518e+00	-1.3075836276e+00
 2.2057671202e-01	 1.4499851810e+00	-1.2948510026e+00
 2.0452865934e-01	 1.4523357527e+00	-1.2826668546e+00
 1.8851486357e-01	 1.4545010338e+00	-1.2690047118e+00
 1.7253817457e-01	 1.4564826430e+00	-1.2523527725e+00
 1.5660138493e-01	 1.4582822489e+00	-1.2315777928e+00
 2.3785134822e-01	 1.4547580940e+00	-1.2688323631e+00
 2.2169073582e-01	 1.4573083385e+00	-1.2551203995e+00
 2.0556163237e-01	 1.4596707818e+00	-1.2424840219e+00
 1.8946695884e-01	 1.4618469986e+00	-1.2287668492e+00
 1.7340957949e-01	 1.4638386160e+00	-1.2123792360e+00
 1.5739230101e-01	 1.4656473107e+00	-1.1921550876e+00
 2.3904658112e-01	 1.4620684362e+00	-1.2308537103e+00
 2.2280475962e-01	 1.4646314960e+00	-1.2165926838e+00
 2.0659460540e-01	 1.4670058108e+00	-1.2039987405e+00
 1.9041905411e-01	 1.4691929634e+00	-1.1907265451e+00
 1.7428098441e-01	 1.4711945889e+00	-1.1750503996e+00
 1.5818321710e-01	 1.4730123726e+00	-1.1557139203e+00
 1.5422863667e-01	 1.4361870633e+00	-1.3634835292e+00
 1.3857530143e-01	 1.4377818468e+00	-1.3425337259e+00
 1.2296658927e-01	 1.4392008098e+00	-1.3262173832e+00
 1.0740507682e-01	 1.4404457305e+00	-1.3145476752e+00
 9.1893281613e-02	 1.4415184279e+00	-1.3072388681e+00
 7.6433661611e-02	 1.4424207599e+00	-1.3035928763e+00
 1.5501955275e-01	 1.4435521251e+00	-1.3176632754e+00
 1.3928594401e-01	 1.4451550870e+00	-1.2963992384e+00
 1.2359718717e-01	 1.4465813268e+00	-1.2798424493e+00
 1.0795587208e-01	 1.4478326317e+00	-1.2679937549e+00
 9.2364529211e-02	 1.4489108301e+00	-1.2605633778e+00
 7.6825629107e-02	 1.4498177894e+00	-1.2568512288e+00
 1.5581046884e-01	 1.4509171870e+00	-1.2735549305e+00
 1.3999658658e-01	 1.4525283273e+00	-1.2522758817e+00
 1.2422778506e-01	 1.4539618438e+00	-1.2356145288e+00
 1.0850666735e-01	 1.4552195329e+00	-1.2235994775e+00
 9.2835776810e-02	 1.4563032323e+00	-1.2159767430e+00
 7.7217596602e-02	 1.4572148189e+00	-1.2120835746e+00
 1.5660138493e-01	 1.4582822489e+00	-1.2315777928e+00
 1.4070722915e-01	 1.4599015675e+00	-1.2105334911e+00
 1.2485838295e-01	 1.4613423607e+00	-1.1938431457e+00
 1.0905746262e-01	 1.4626064341e+00	-1.1816042153e+00
 9.3307024408e-02	 1.4636956344e+00	-1.1736393798e+00
 7.7609564098e-02	 1.4646118485e+00	-1.1693636251e+00
 1.5739230101e-01	 1.4656473107e+00	-1.1921550876e+00
 1.4141787172e-01	 1.4672748077e+00	-1.1715456254e+00
 1.2548898085e-01	 1.4687228777e+00	-1.1548412458e+00
 1.0960825788e-01	 1.4699933352e+00	-1.1422503798e+00
 9.3778272006e-02	 1.4710880366e+00	-1.1337142963e+00
 7.8001531593e-02	 1.4720088780e+00	-1.1287671907e+00
 1.5818321710e-01	 1.4730123726e+00	-1.1557139203e+00
 1.4212851429e-01	 1.4746480480e+00	-1.1356895495e+00
 1.2611957874e-01	 1.4761033947e+00	-1.1189252032e+00
 1.1015905315e-01	 1.4773802364e+00	-1.1057834457e+00
 9.4249519604e-02	 1.4784804388e+00	-1.0963671302e+00
 7.8393499089e-02	 1.4794059075e+00	-1.0903722258e+00
 7.6433661611e-02	 1.4424207599e+00	-1.3035928763e+00
 6.1028614762e-02	 1.4431546214e+00	-1.3018671235e+00
 4.5680478661e-02	 1.4437219424e+00	-1.3004853804e+00
 3.0391530267e-02	 1.4441246857e+00	-1.2980367397e+00
 1.5163985681e-02	 1.4443648454e+00	-1.2922591485e+00
-8.0662513681e-07	 1.4444638034e+00	-9.9686662708e-02
 7.6825629107e-02	 1.4498177894e+00	-1.2568512288e+00
 6.1341582017e-02	 1.4505554143e+00	-1.2549759973e+00
 4.5914737526e-02	 1.4511256447e+00	-1.2533606242e+00
 3.0547384268e-02	 1.4515304534e+00	-1.2507813985e+00
 1.5241749710e-02	 1.4517718446e+00	-1.2451383430e+00
-7.9878938500e-07	 1.4518713423e+00	-2.8059014409e-02
 7.7217596602e-02	 1.4572148189e+00	-1.2120835746e+00
 6.1654549273e-02	 1.4579562073e+00	-1.2099400179e+00
 4.6148996391e-02	 1.4585293469e+00	-1.2079852404e+00
 3.0703238270e-02	 1.4589362210e+00	-1.2051884800e+00
 1.5319513740e-02	 1.4591788438e+00	-1.1996193557e+00
-7.9072763122e-07	 1.4592788693e+00	 4.0954323057e-02
 7.7609564098e-02	 1.4646118485e+00	-1.1693636251e+00
 6.1967516528e-02	 1.4653570002e+00	-1.1667542240e+00
 4.6383255256e-02	 1.4659330492e+00	-1.1642996773e+00
 3.0859092271e-02	 1.4663419886e+00	-1.1611693737e+00
 1.5397277769e-02	 1.4665858430e+00	-1.1556114626e+00
-7.8244087924e-07	 1.4666863842e+00	 1.0734195644e-01
 7.8001531593e-02	 1.4720088780e+00	-1.1287671907e+00
 6.2280483783e-02	 1.4727577931e+00	-1.1254149361e+00
 4.6617514121e-02	 1.4733367515e+00	-1.1222442412e+00
 3.1014946272e-02	 1.4737477562e+00	-1.1186333071e+00
 1.5475041798e-02	 1.4739928422e+00	-1.1130191727e+00
-7.7393013279e-07	 1.4740938867e+00	 1.7109931215e-01
 7.8393499089e-02	 1.4794059075e+00	-1.0903722258e+00
 6.2593451038e-02	 1.4801585861e+00	-1.0859198119e+00
 4.6851772986e-02	 1.4807404537e+00	-1.0817591713e+00
 3.1170800274e-02	 1.4811535238e+00	-1.0774874508e+00
 1.5552805827e-02	 1.4813998414e+00	-1.0717423745e+00
-7.6519639565e-07	 1.4815013766e+00	 2.3222843840e-01
 1.4814814815e+00	 0.0000000000e+00	 3.7858245774e+00
 1.4813998414e+00	 1.5552805827e-02	 3.7862785936e+00
 1.4811535238e+00	 3.1170800274e-02	 3.7815784652e+00
 1.4807404537e+00	 4.6851772986e-02	 3.7727865692e+00
 1.4801585861e+00	 6.2593451038e-02	 3.7599984779e+00
 1.4794059075e+00	 7.8393499089e-02	 3.7424454060e+00
 1.4888888889e+00	 0.0000000000e+00	 3.7787778534e+00
 1.4888068406e+00	 1.5630569856e-02	 3.7791492124e+00
 1.4885592915e+00	 3.1326654275e-02	 3.7741077895e+00
 1.4881441560e+00	 4.7086031851e-02	 3.7647919651e+00
 1.4875593790e+00	 6.2906418293e-02	 3.7514147383e+00
 1.4868029371e+00	 7.8785466584e-02	 3.7333476967e+00
 1.4962962963e+00	 0.0000000000e+00	 3.7713491911e+00
 1.4962138398e+00	 1.5708333885e-02	 3.7715860483e+00
 1.4959650591e+00	 3.1482508276e-02	 3.7662813329e+00
 1.4955478583e+00	 4.7320290716e-02	 3.7565633764e+00
 1.4949601719e+00	 6.3219385549e-02	 3.7426503080e+00
 1.4941999666e+00	 7.9177434079e-02	 3.7239329370e+00
 1.5037037037e+00	 0.0000000000e+00	 3.7635125968e+00
 1.5036208391e+00	 1.5786097914e-02	 3.7635715645e+00
 1.5033708267e+00	 3.1638362278e-02	 3.7581006945e+00
 1.5029515605e+00	 4.7554549581e-02	 3.7481850684e+00
 1.5023609648e+00	 6.3532352804e-02	 3.7340148103e+00
 1.5015969962e+00	 7.9569401575e-02	 3.7149668223e+00
 1.5111111111e+00	 0.0000000000e+00	 3.7552424564e+00
 1.5110278383e+00	 1.5863861944e-02	 3.7550872600e+00
 1.5107765943e+00	 3.1794216279e-02	 3.7495446710e+00
 1.5103552628e+00	 4.7788808446e-02	 3.7396243242e+00
 1.5097617578e+00	 6.3845320059e-02	 3.7254562457e+00
 1.5089940257e+00	 7.9961369070e-02	 3.7063713756e+00
 1.5185185185e+00	 0.0000000000e+00	 3.7465135260e+00
 1.5184348375e+00	 1.5941625973e-02	 3.7461150978e+00
 1.5181823619e+00	 3.1950070280e-02	 3.7405926018e+00
 1.5177589651e+00	 4.8023067311e-02	 3.7308490374e+00
 1.5171625507e+00	 6.4158287314e-02	 3.7169232848e+00
 1.5163910552e+00	 8.0353336566e-02	 3.6980693471e+00
 1.4794059075e+00	 7.8393499089e-02	 3.7424454060e+00
 1.4784804388e+00	 9.4249519604e-02	 3.7208119218e+00
 1.4773802364e+00	 1.1015905315e-01	 3.6966983997e+00
 1.4761033947e+00	 1.2611957874e-01	 3.6698006430e+00
 1.4746480480e+00	 1.4212851429e-01	 3.6394934170e+00
 1.4730123726e+00	 1.5818321710e-01	 3.6049842154e+00
 1.4868029371e+00	 7.8785466584e-02	 3.7333476967e+00
 1.4858728410e+00	 9.4720767202e-02	 3.7113420923e+00
 1.4847671376e+00	 1.1070984841e-01	 3.6871076258e+00
 1.4834839117e+00	 1.2675017663e-01	 3.6604807928e+00
 1.4820212882e+00	 1.4283915686e-01	 3.6308548024e+00
 1.4803774345e+00	 1.5897413318e-01	 3.5971758564e+00
 1.4941999666e+00	 7.9177434079e-02	 3.7239329370e+00
 1.4932652432e+00	 9.5192014800e-02	 3.7011120321e+00
 1.4921540388e+00	 1.1126064368e-01	 3.6759445911e+00
 1.4908644286e+00	 1.2738077453e-01	 3.6484495466e+00
 1.4893945285e+00	 1.4354979943e-01	 3.6182099148e+00
 1.4877424963e+00	 1.5976504927e-01	 3.5844798234e+00
 1.5015969962e+00	 7.9569401575e-02	 3.7149668223e+00
 1.5006576454e+00	 9.5663262398e-02	 3.6916474852e+00
 1.4995409400e+00	 1.1181143894e-01	 3.6658224505e+00
 1.4982449456e+00	 1.2801137242e-01	 3.6376680393e+00
 1.4967677687e+00	 1.4426044201e-01	 3.6069322585e+00
 1.4951075582e+00	 1.6055596535e-01	 3.5730396873e+00
 1.5089940257e+00	 7.9961369070e-02	 3.7063713756e+00
 1.5080500476e+00	 9.6134509996e-02	 3.6828410993e+00
 1.5069278412e+00	 1.1236223421e-01	 3.6566043330e+00
 1.5056254626e+00	 1.2864197032e-01	 3.6279707828e+00
 1.5041410089e+00	 1.4497108458e-01	 3.5968296835e+00
 1.5024726200e+00	 1.6134688144e-01	 3.5627524491e+00
 1.5163910552e+00	 8.0353336566e-02	 3.6980693471e+00
 1.5154424498e+00	 9.6605757594e-02	 3.6745862642e+00
 1.5143147423e+00	 1.1291302948e-01	 3.6481540456e+00
 1.5130059796e+00	 1.2927256821e-01	 3.6191928297e+00
 1.5115142492e+00	 1.4568172715e-01	 3.5877103773e+00
 1.5098376819e+00	 1.6213779752e-01	 3.5534023855e+00
 1.4730123726e+00	 1.5818321710e-01	 3.6049842154e+00
 1.4711945889e+00	 1.7428098441e-01	 3.5645939217e+00
 1.4691929634e+00	 1.9041905411e-01	 3.5171207074e+00
 1.4670058108e+00	 2.0659460540e-01	 3.4627341283e+00
 1.4646314960e+00	 2.2280475962e-01	 3.4021065435e+00
 1.4620684362e+00	 2.3904658112e-01	 3.3365807541e+00
 1.4803774345e+00	 1.5897413318e-01	 3.5971758564e+00
 1.4785505619e+00	 1.7515238934e-01	 3.5571969082e+00
 1.4765389283e+00	 1.9137114938e-01	 3.5096605336e+00
 1.4743408399e+00	 2.0762757843e-01	 3.4547597267e+00
 1.4719546535e+00	 2.2391878341e-01	 3.3932128477e+00
 1.4693787783e+00	 2.4024181403e-01	 3.3264392438e+00
 1.4877424963e+00	 1.5976504927e-01	 3.5844798234e+00
 1.4859065348e+00	 1.7602379426e-01	 3.5454135213e+00
 1.4838848931e+00	 1.9232324465e-01	 3.4994624092e+00
 1.4816758689e+00	 2.0866055145e-01	 3.4462056638e+00
 1.4792778110e+00	 2.2503280721e-01	 3.3855583837e+00
 1.4766891205e+00	 2.4143704694e-01	 3.3186349038e+00
 1.4951075582e+00	 1.6055596535e-01	 3.5730396873e+00
 1.4932625077e+00	 1.7689519918e-01	 3.5342912051e+00
 1.4912308579e+00	 1.9327533992e-01	 3.4892022972e+00
 1.4890108980e+00	 2.0969352448e-01	 3.4374004190e+00
 1.4866009684e+00	 2.2614683101e-01	 3.3787025705e+00
 1.4839994627e+00	 2.4263227984e-01	 3.3132673412e+00
 1.5024726200e+00	 1.6134688144e-01	 3.5627524491e+00
 1.5006184807e+00	 1.7776660410e-01	 3.5241549386e+00
 1.4985768227e+00	 1.9422743519e-01	 3.4795077410e+00
 1.4963459270e+00	 2.1072649751e-01	 3.4283465759e+00
 1.4939241259e+00	 2.2726085481e-01	 3.3703932288e+00
 1.4913098049e+00	 2.4382751275e-01	 3.3057060225e+00
 1.5098376819e+00	 1.6213779752e-01	 3.5534023855e+00
 1.5079744536e+00	 1.7863800902e-01	 3.5147749703e+00
 1.5059227875e+00	 1.9517953046e-01	 3.4701529265e+00
 1.5036809561e+00	 2.1175947053e-01	 3.4188430195e+00
 1.5012472834e+00	 2.2837487861e-01	 3.3603340886e+00
 1.4986201471e+00	 2.4502274565e-01	 3.2944460709e+00
 1.4620684362e+00	 2.3904658112e-01	 3.3365807541e+00
 1.4593151029e+00	 2.5531707825e-01	 3.2738234786e+00
 1.4563700241e+00	 2.7161320434e-01	 3.2171676189e+00
 1.4532317863e+00	 2.8793185885e-01	 3.1629165702e+00
 1.4498990361e+00	 3.0426988856e-01	 3.1086432882e+00
 1.4463704828e+00	 3.2062408884e-01	 3.0533336656e+00
 1.4693787783e+00	 2.4024181403e-01	 3.3264392438e+00
 1.4666116784e+00	 2.5659366365e-01	 3.2625874245e+00
 1.4636518743e+00	 2.7297127037e-01	 3.2053665380e+00
 1.4604979452e+00	 2.8937151815e-01	 3.1510674976e+00
 1.4571485313e+00	 3.0579123801e-01	 3.0973125454e+00
 1.4536023353e+00	 3.2222720929e-01	 3.0432061749e+00
 1.4766891205e+00	 2.4143704694e-01	 3.3186349038e+00
 1.4739082539e+00	 2.5787024904e-01	 3.2539451503e+00
 1.4709337244e+00	 2.7432933639e-01	 3.1957197389e+00
 1.4677641041e+00	 2.9081117744e-01	 3.1404505533e+00
 1.4643980265e+00	 3.0731258745e-01	 3.0860242778e+00
 1.4608341877e+00	 3.2383032973e-01	 3.0318806414e+00
 1.4839994627e+00	 2.4263227984e-01	 3.3132673412e+00
 1.4812048294e+00	 2.5914683443e-01	 3.2485212709e+00
 1.4782155745e+00	 2.7568740241e-01	 3.1889286820e+00
 1.4750302631e+00	 2.9225083674e-01	 3.1317962404e+00
 1.4716475216e+00	 3.0883393689e-01	 3.0754855445e+00
 1.4680660401e+00	 3.2543345018e-01	 3.0199835743e+00
 1.4913098049e+00	 2.4382751275e-01	 3.3057060225e+00
 1.4885014049e+00	 2.6042341982e-01	 3.2420669359e+00
 1.4854974246e+00	 2.7704546843e-01	 3.1835624303e+00
 1.4822964220e+00	 2.9369049603e-01	 3.1257117686e+00
 1.4788970168e+00	 3.1035528634e-01	 3.0663873129e+00
 1.4752978925e+00	 3.2703657062e-01	 3.0081246865e+00
 1.4986201471e+00	 2.4502274565e-01	 3.2944460709e+00
 1.4957979805e+00	 2.6170000521e-01	 3.2291586990e+00
 1.4927792747e+00	 2.7840353445e-01	 3.1696246504e+00
 1.4895625809e+00	 2.9513015533e-01	 3.1124120607e+00
 1.4861465120e+00	 3.1187663578e-01	 3.0551265269e+00
 1.4825297449e+00	 3.2863969106e-01	 2.9966485283e+00
 1.4463704828e+00	 3.2062408884e-01	 3.0533336656e+00
 1.4426449001e+00	 3.3699120501e-01	 2.9778865307e+00
 1.4387211277e+00	 3.5336793376e-01	 2.8726861868e+00
 1.4345980739e+00	 3.6975092468e-01	 2.7533908839e+00
 1.4302747169e+00	 3.8613678186e-01	 2.6451597118e+00
 1.4257501067e+00	 4.0252206554e-01	 2.5730072470e+00
 1.4536023353e+00	 3.2222720929e-01	 3.0432061749e+00
 1.4498581246e+00	 3.3867616103e-01	 2.9689702224e+00
 1.4459147334e+00	 3.5513477342e-01	 2.8640887382e+00
 1.4417710643e+00	 3.7159967930e-01	 2.7441796546e+00
 1.4374260904e+00	 3.8806746577e-01	 2.6359224483e+00
 1.4328788572e+00	 4.0453467586e-01	 2.5624426122e+00
 1.4608341877e+00	 3.2383032973e-01	 3.0318806414e+00
 1.4570713491e+00	 3.4036111706e-01	 2.9578032648e+00
 1.4531083390e+00	 3.5690161309e-01	 2.8524854647e+00
 1.4489440547e+00	 3.7344843392e-01	 2.7317247594e+00
 1.4445774640e+00	 3.8999814968e-01	 2.6232847962e+00
 1.4400076078e+00	 4.0654728619e-01	 2.5488522247e+00
 1.4680660401e+00	 3.2543345018e-01	 3.0199835743e+00
 1.4642845736e+00	 3.4204607308e-01	 2.9448865567e+00
 1.4603019446e+00	 3.5866845276e-01	 2.8382207336e+00
 1.4561170450e+00	 3.7529718855e-01	 2.7161695244e+00
 1.4517288376e+00	 3.9192883358e-01	 2.6071903406e+00
 1.4471363583e+00	 4.0855989652e-01	 2.5319717925e+00
 1.4752978925e+00	 3.2703657062e-01	 3.0081246865e+00
 1.4714977981e+00	 3.4373102911e-01	 2.9307039102e+00
 1.4674955503e+00	 3.6043529243e-01	 2.8216216467e+00
 1.4632900354e+00	 3.7714594317e-01	 2.6976325098e+00
 1.4588802112e+00	 3.9385951749e-01	 2.5875740161e+00
 1.4542651088e+00	 4.1057250685e-01	 2.5115320675e+00
 1.4825297449e+00	 3.2863969106e-01	 2.9966485283e+00
 1.4787110226e+00	 3.4541598513e-01	 2.9157220316e+00
 1.4746891559e+00	 3.6220213210e-01	 2.8029979408e+00
 1.4704630258e+00	 3.7899469779e-01	 2.6762207415e+00
 1.4660315848e+00	 3.9579020140e-01	 2.5643623639e+00
 1.4613938594e+00	 4.1258511717e-01	 2.4872590470e+00
 1.4257501067e+00	 4.0252206554e-01	 2.5730072470e+00
 1.4210233673e+00	 4.1890329387e-01	 2.5122189016e+00
 1.4160936979e+00	 4.3527694476e-01	 2.4314018329e+00
 1.4109603751e+00	 4.5163945774e-01	 2.3355076283e+00
 1.4056227541e+00	 4.6798723597e-01	 2.2295212692e+00
 1.4000802706e+00	 4.8431664830e-01	 2.1183815761e+00
 1.4328788572e+00	 4.0453467586e-01	 2.5624426122e+00
 1.4281284841e+00	 4.2099781034e-01	 2.5001045832e+00
 1.4231741664e+00	 4.3745332948e-01	 2.4181234831e+00
 1.4180151770e+00	 4.5389765503e-01	 2.3212716466e+00
 1.4126508679e+00	 4.7032717215e-01	 2.2143454502e+00
 1.4070806720e+00	 4.8673823154e-01	 2.1020842181e+00
 1.4400076078e+00	 4.0654728619e-01	 2.5488522247e+00
 1.4352336010e+00	 4.2309232681e-01	 2.4859083039e+00
 1.4302546349e+00	 4.3962971421e-01	 2.4040645677e+00
 1.4250699789e+00	 4.5615585231e-01	 2.3076171755e+00
 1.4196789817e+00	 4.7266710833e-01	 2.2008814445e+00
 1.4140810733e+00	 4.8915981478e-01	 2.0881099299e+00
 1.4471363583e+00	 4.0855989652e-01	 2.5319717925e+00
 1.4423387178e+00	 4.2518684328e-01	 2.4691830868e+00
 1.4373351034e+00	 4.4180609893e-01	 2.3886705288e+00
 1.4321247808e+00	 4.5841404960e-01	 2.2939621690e+00
 1.4267070954e+00	 4.7500704451e-01	 2.1886047338e+00
 1.4210814747e+00	 4.9158139803e-01	 2.0760815879e+00
 1.4542651088e+00	 4.1057250685e-01	 2.5115320675e+00
 1.4494438346e+00	 4.2728135975e-01	 2.4494802992e+00
 1.4444155719e+00	 4.4398248365e-01	 2.3713870852e+00
 1.4391795826e+00	 4.6067224689e-01	 2.2797253273e+00
 1.4337352092e+00	 4.7734698069e-01	 2.1769904592e+00
 1.4280818760e+00	 4.9400298127e-01	 2.0656189904e+00
 1.4613938594e+00	 4.1258511717e-01	 2.4872590470e+00
 1.4565489515e+00	 4.2937587622e-01	 2.4263498115e+00
 1.4514960404e+00	 4.4615886838e-01	 2.3516603845e+00
 1.4462343845e+00	 4.6293044418e-01	 2.2643262826e+00
 1.4407633230e+00	 4.7968691687e-01	 2.1655136817e+00
 1.4350822774e+00	 4.9642456451e-01	 2.0563392360e+00
 1.4000802706e+00	 4.8431664830e-01	 2.1183815761e+00
 1.3943324421e+00	 5.0062403136e-01	 2.0062497632e+00
 1.3883788697e+00	 5.1690569179e-01	 1.8949441279e+00
 1.3822192390e+00	 5.3315790848e-01	 1.7856200868e+00
 1.3758533219e+00	 5.4937693488e-01	 1.6791351226e+00
 1.3692809777e+00	 5.6555900146e-01	 1.5759921372e+00
 1.4070806720e+00	 4.8673823154e-01	 2.1020842181e+00
 1.4013041043e+00	 5.0312715152e-01	 1.9888219740e+00
 1.3953207640e+00	 5.1949022025e-01	 1.8767667846e+00
 1.3891303352e+00	 5.3582369802e-01	 1.7671915857e+00
 1.3827325885e+00	 5.5212381956e-01	 1.6610712800e+00
 1.3761273826e+00	 5.6838679647e-01	 1.5590251603e+00
 1.4140810733e+00	 4.8915981478e-01	 2.0881099299e+00
 1.4082757666e+00	 5.0563027168e-01	 1.9736378017e+00
 1.4022626584e+00	 5.2207474871e-01	 1.8602774468e+00
 1.3960414314e+00	 5.3848948756e-01	 1.7497107081e+00
 1.3896118551e+00	 5.5487070423e-01	 1.6433140488e+00
 1.3829737875e+00	 5.7121459148e-01	 1.5420993036e+00
 1.4210814747e+00	 4.9158139803e-01	 2.0760815879e+00
 1.4152474288e+00	 5.0813339184e-01	 1.9604762259e+00
 1.4092045527e+00	 5.2465927717e-01	 1.8453327107e+00
 1.4029525276e+00	 5.4115527710e-01	 1.7330289316e+00
 1.3964911217e+00	 5.5761758891e-01	 1.6256228345e+00
 1.3898201923e+00	 5.7404238649e-01	 1.5247907636e+00
 1.4280818760e+00	 4.9400298127e-01	 2.0656189904e+00
 1.4222190910e+00	 5.1063651199e-01	 1.9491103526e+00
 1.4161464471e+00	 5.2724380563e-01	 1.8317821532e+00
 1.4098636238e+00	 5.4382106665e-01	 1.7169913004e+00
 1.4033703883e+00	 5.6036447358e-01	 1.6077530057e+00
 1.3966665972e+00	 5.7687018149e-01	 1.5066759853e+00
 1.4350822774e+00	 4.9642456451e-01	 2.0563392360e+00
 1.4291907532e+00	 5.1313963215e-01	 1.9393079145e+00
 1.4230883414e+00	 5.2982833409e-01	 1.8194689166e+00
 1.4167747200e+00	 5.4648685619e-01	 1.7014370548e+00
 1.4102496549e+00	 5.6311135826e-01	 1.5894565277e+00
 1.4035130021e+00	 5.7969797650e-01	 1.4873322557e+00
 1.3692809777e+00	 5.6555900146e-01	 1.5759921372e+00
 1.3625021541e+00	 5.8170031809e-01	 1.4682596758e+00
 1.3555168886e+00	 5.9779707658e-01	 1.3520718955e+00
 1.3483253092e+00	 6.1384545325e-01	 1.2332247297e+00
 1.3409276358e+00	 6.2984161154e-01	 1.1167940477e+00
 1.3333241803e+00	 6.4578170469e-01	 1.0070864622e+00
 1.3761273826e+00	 5.6838679647e-01	 1.5590251603e+00
 1.3693146649e+00	 5.8460881968e-01	 1.4521748820e+00
 1.3622944730e+00	 6.0078606196e-01	 1.3358144097e+00
 1.3550669358e+00	 6.1691468052e-01	 1.2159908900e+00
 1.3476322739e+00	 6.3299081960e-01	 1.0979986377e+00
 1.3399908012e+00	 6.4901061321e-01	 9.8632921022e-01
 1.3829737875e+00	 5.7121459148e-01	 1.5420993036e+00
 1.3761271756e+00	 5.8751732127e-01	 1.4363384585e+00
 1.3690720575e+00	 6.0377504735e-01	 1.3202676085e+00
 1.3618085623e+00	 6.1998390778e-01	 1.1999867386e+00
 1.3543369121e+00	 6.3614002766e-01	 1.0808163586e+00
 1.3466574221e+00	 6.5223952174e-01	 9.6724741371e-01
 1.3898201923e+00	 5.7404238649e-01	 1.5247907636e+00
 1.3829396864e+00	 5.9042582286e-01	 1.4201331569e+00
 1.3758496419e+00	 6.0676403273e-01	 1.3046963288e+00
 1.3685501889e+00	 6.2305313505e-01	 1.1844378060e+00
 1.3610415503e+00	 6.3928923572e-01	 1.0645150322e+00
 1.3533240430e+00	 6.5546843026e-01	 9.4923567938e-01
 1.3966665972e+00	 5.7687018149e-01	 1.5066759853e+00
 1.3897521972e+00	 5.9333432445e-01	 1.4029465600e+00
 1.3826272263e+00	 6.0975301811e-01	 1.2883734301e+00
 1.3752918154e+00	 6.2612236232e-01	 1.1685793792e+00
 1.3677461885e+00	 6.4243844377e-01	 1.0483724448e+00
 1.3599906639e+00	 6.5869733878e-01	 9.3169719470e-01
 1.4035130021e+00	 5.7969797650e-01	 1.4873322557e+00
 1.3965647079e+00	 5.9624282605e-01	 1.3841716304e+00
 1.3894048108e+00	 6.1274200350e-01	 1.2705803350e+00
 1.3820334420e+00	 6.2919158958e-01	 1.1516570691e+00
 1.3744508267e+00	 6.4558765183e-01	 1.0316769818e+00
 1.3666572848e+00	 6.6192624731e-01	 9.1404446963e-01
 1.3333241803e+00	 6.4578170469e-01	 1.0070864622e+00
 1.3255153483e+00	 6.6166187843e-01	 9.0128648116e-01
 1.3175016389e+00	 6.7747827378e-01	 7.9225917655e-01
 1.3092836458e+00	 6.9322702978e-01	 6.7663529767e-01
 1.3008620575e+00	 7.0890428638e-01	 5.5024664816e-01
 1.2922376579e+00	 7.2450618728e-01	 4.0812107692e-01
 1.3399908012e+00	 6.4901061321e-01	 9.8632921022e-01
 1.3321429250e+00	 6.6497018783e-01	 8.7893471938e-01
 1.3240891471e+00	 6.8086566515e-01	 7.6936329254e-01
 1.3158300640e+00	 6.9669316492e-01	 6.5429248756e-01
 1.3073663678e+00	 7.1244880781e-01	 5.2962082284e-01
 1.2986988462e+00	 7.2812871821e-01	 3.9046425201e-01
 1.3466574221e+00	 6.5223952174e-01	 9.6724741371e-01
 1.3387705018e+00	 6.6827849722e-01	 8.5806704717e-01
 1.3306766553e+00	 6.8425305651e-01	 7.4777684541e-01
 1.3223764823e+00	 7.0015930007e-01	 6.3322121835e-01
 1.3138706781e+00	 7.1599332924e-01	 5.1047959175e-01
 1.3051600345e+00	 7.3175124915e-01	 3.7486410844e-01
 1.3533240430e+00	 6.5546843026e-01	 9.4923567938e-01
 1.3453980785e+00	 6.7158680661e-01	 8.3822307737e-01
 1.3372641635e+00	 6.8764044788e-01	 7.2713320870e-01
 1.3289229005e+00	 7.0362543522e-01	 6.1309543360e-01
 1.3203749884e+00	 7.1953785067e-01	 4.9248236709e-01
 1.3116212228e+00	 7.3537378008e-01	 3.6090855427e-01
 1.3599906639e+00	 6.5869733878e-01	 9.3169719470e-01
 1.3520256553e+00	 6.7489511600e-01	 8.1894931788e-01
 1.3438516717e+00	 6.9102783925e-01	 7.0707201431e-01
 1.3354693187e+00	 7.0709157037e-01	 5.9359577416e-01
 1.3268792987e+00	 7.2308237211e-01	 4.7529679806e-01
 1.3180824111e+00	 7.3899631102e-01	 3.4819639887e-01
 1.3666572848e+00	 6.6192624731e-01	 9.1404446963e-01
 1.3586532320e+00	 6.7820342539e-01	 7.9980002876e-01
 1.3504391799e+00	 6.9441523062e-01	 6.8724010020e-01
 1.3420157369e+00	 7.1055770552e-01	 5.7441059053e-01
 1.3333836090e+00	 7.2662689354e-01	 4.5859982118e-01
 1.3245435994e+00	 7.4261884196e-01	 3.3593939743e-01
 1.2922376579e+00	 7.2450618728e-01	 4.0812107692e-01
 1.2834113263e+00	 7.4002888280e-01	 2.9019398013e-01
 1.2743840378e+00	 7.5546853282e-01	 2.0776824581e-01
 1.2651568632e+00	 7.7082130969e-01	 1.1910567540e-01
 1.2557309689e+00	 7.8608340119e-01	 1.6065837554e-02
 1.2461076171e+00	 8.0125101345e-01	-1.0935300028e-01
 1.2986988462e+00	 7.2812871821e-01	 3.9046425201e-01
 1.2898283830e+00	 7.4372902721e-01	 2.7653023282e-01
 1.2807559580e+00	 7.5924587548e-01	 1.8753507659e-01
 1.2714826475e+00	 7.7467541624e-01	 9.5242102287e-02
 1.2620096238e+00	 7.9001381820e-01	-8.6874093387e-03
 1.2523381552e+00	 8.0525726852e-01	-1.3257069227e-01
 1.3051600345e+00	 7.3175124915e-01	 3.7486410844e-01
 1.2962454396e+00	 7.4742917163e-01	 2.6230172094e-01
 1.2871278782e+00	 7.6302321815e-01	 1.6761469998e-01
 1.2778084318e+00	 7.7852952279e-01	 7.2389196043e-02
 1.2682882786e+00	 7.9394423520e-01	-3.2012713475e-02
 1.2585686933e+00	 8.0926352358e-01	-1.5425667311e-01
 1.3116212228e+00	 7.3537378008e-01	 3.6090855427e-01
 1.3026624962e+00	 7.5112931604e-01	 2.4718534896e-01
 1.2934997984e+00	 7.6680056081e-01	 1.4769605654e-01
 1.2841342161e+00	 7.8238362934e-01	 5.0202694653e-02
 1.2745669335e+00	 7.9787465221e-01	-5.4265626586e-02
 1.2647992314e+00	 8.1326977865e-01	-1.7475534765e-01
 1.3180824111e+00	 7.3899631102e-01	 3.4819639887e-01
 1.3090795529e+00	 7.5482946045e-01	 2.3094395756e-01
 1.2998717186e+00	 7.7057790348e-01	 1.2748835663e-01
 1.2904600005e+00	 7.8623773589e-01	 2.8359162467e-02
 1.2808455883e+00	 8.0180506921e-01	-7.5780680739e-02
 1.2710297695e+00	 8.1727603372e-01	-1.9439027945e-01
 1.3245435994e+00	 7.4261884196e-01	 3.3593939743e-01
 1.3154966095e+00	 7.5852960487e-01	 2.1335909428e-01
 1.3062436388e+00	 7.7435524614e-01	 1.0672039471e-01
 1.2967857848e+00	 7.9009184244e-01	 6.5552815016e-03
 1.2871242432e+00	 8.0573548622e-01	-9.6872108381e-02
 1.2772603075e+00	 8.2128228878e-01	-2.1346491019e-01
 1.2461076171e+00	 8.0125101345e-01	-1.0935300028e-01
 1.2362881651e+00	 8.1632037394e-01	-2.3691958159e-01
 1.2262740650e+00	 8.3128773444e-01	-3.4622761628e-01
 1.2160668637e+00	 8.4614937394e-01	-4.4496217426e-01
 1.2056682016e+00	 8.6090160165e-01	-5.4079068033e-01
 1.1950798123e+00	 8.7554075989e-01	-6.4123726190e-01
 1.2523381552e+00	 8.0525726852e-01	-1.3257069227e-01
 1.2424696059e+00	 8.2040197581e-01	-2.5825563170e-01
 1.2324054353e+00	 8.3544417311e-01	-3.6690514990e-01
 1.2221471980e+00	 8.5038012081e-01	-4.6578943338e-01
 1.2116965426e+00	 8.6520610966e-01	-5.6215655756e-01
 1.2010552114e+00	 8.7991846369e-01	-6.6310473224e-01
 1.2585686933e+00	 8.0926352358e-01	-1.5425667311e-01
 1.2486510467e+00	 8.2448357768e-01	-2.7812172222e-01
 1.2385368057e+00	 8.3960061178e-01	-3.8617044340e-01
 1.2282275323e+00	 8.5461086768e-01	-4.8525855502e-01
 1.2177248836e+00	 8.6951061767e-01	-5.8221649683e-01
 1.2070306104e+00	 8.8429616749e-01	-6.8371952490e-01
 1.2647992314e+00	 8.1326977865e-01	-1.7475534765e-01
 1.2548324875e+00	 8.2856517955e-01	-2.9684261153e-01
 1.2446681760e+00	 8.4375705046e-01	-4.0433441843e-01
 1.2343078666e+00	 8.5884161455e-01	-5.0367252083e-01
 1.2237532246e+00	 8.7381512568e-01	-6.0127154191e-01
 1.2130060095e+00	 8.8867387129e-01	-7.0338687049e-01
 1.2710297695e+00	 8.1727603372e-01	-1.9439027945e-01
 1.2610139284e+00	 8.3264678142e-01	-3.1472249259e-01
 1.2507995463e+00	 8.4791348913e-01	-4.2168752436e-01
 1.2403882010e+00	 8.6307236142e-01	-5.2131375025e-01
 1.2297815656e+00	 8.7811963368e-01	-6.1960190160e-01
 1.2189814085e+00	 8.9305157509e-01	-7.2239071023e-01
 1.2772603075e+00	 8.2128228878e-01	-2.1346491019e-01
 1.2671953692e+00	 8.3672838329e-01	-3.3204570660e-01
 1.2569309166e+00	 8.5206992780e-01	-4.3850044770e-01
 1.2464685353e+00	 8.6730310829e-01	-5.3844480720e-01
 1.2358099066e+00	 8.8242414169e-01	-6.3746765542e-01
 1.2249568076e+00	 8.9742927889e-01	-7.4099440217e-01
 1.1950798123e+00	 8.7554075989e-01	-6.4123726190e-01
 1.1843035219e+00	 8.9006322702e-01	-7.4014827598e-01
 1.1733412476e+00	 9.0446542032e-01	-8.2992395644e-01
 1.1621949974e+00	 9.1874379890e-01	-9.1519963546e-01
 1.1508668681e+00	 9.3289486646e-01	-9.9978550767e-01
 1.1393590448e+00	 9.4691517415e-01	-1.0865231375e+00
 1.2010552114e+00	 8.7991846369e-01	-6.6310473224e-01
 1.1902250395e+00	 8.9451354315e-01	-7.6168488927e-01
 1.1792079539e+00	 9.0898774743e-01	-8.5029463652e-01
 1.1680059724e+00	 9.2333751790e-01	-9.3432889053e-01
 1.1566212024e+00	 9.3755934080e-01	-1.0183564424e+00
 1.1450558400e+00	 9.5164975002e-01	-1.1059707096e+00
 1.2070306104e+00	 8.8429616749e-01	-6.8371952490e-01
 1.1961465571e+00	 8.9896385929e-01	-7.8207975615e-01
 1.1850746601e+00	 9.1351007453e-01	-8.6970170048e-01
 1.1738169474e+00	 9.2793123689e-01	-9.5267145393e-01
 1.1623755368e+00	 9.4222381513e-01	-1.0362458322e+00
 1.1507526352e+00	 9.5638432589e-01	-1.1246974045e+00
 1.2130060095e+00	 8.8867387129e-01	-7.0338687049e-01
 1.2020680747e+00	 9.0341417542e-01	-8.0163551266e-01
 1.1909413664e+00	 9.1803240163e-01	-8.8842620666e-01
 1.1796279223e+00	 9.3252495589e-01	-9.7046904904e-01
 1.1681298711e+00	 9.4688828946e-01	-1.0536395776e+00
 1.1564494305e+00	 9.6111890176e-01	-1.1428181223e+00
 1.2189814085e+00	 8.9305157509e-01	-7.2239071023e-01
 1.2079895923e+00	 9.0786449156e-01	-8.2063312691e-01
 1.1968080726e+00	 9.2255472873e-01	-9.0672748736e-01
 1.1854388973e+00	 9.3711867488e-01	-9.8794191795e-01
 1.1738842055e+00	 9.5155276379e-01	-1.0707026280e+00
 1.1621462257e+00	 9.6585347763e-01	-1.1604276092e+00
 1.2249568076e+00	 8.9742927889e-01	-7.4099440217e-01
 1.2139111099e+00	 9.1231480769e-01	-8.3933260113e-01
 1.2026747788e+00	 9.2707705583e-01	-9.2484383636e-01
 1.1912498723e+00	 9.4171239387e-01	-1.0052894844e+00
 1.1796385398e+00	 9.5621723813e-01	-1.0875796103e+00
 1.1678430209e+00	 9.7058805350e-01	-1.1776010432e+00
 1.1393590448e+00	 9.4691517415e-01	-1.0865231375e+00
 1.1276737991e+00	 9.6080132327e-01	-1.1753996943e+00
 1.1158134879e+00	 9.7454996802e-01	-1.2621584893e+00
 1.1037805517e+00	 9.8815781815e-01	-1.3440642153e+00
 1.0915775131e+00	 1.0016216415e+00	-1.4207698159e+00
 1.0792069749e+00	 1.0149382667e+00	-1.4745053583e+00
 1.1450558400e+00	 9.5164975002e-01	-1.1059707096e+00
 1.1333121681e+00	 9.6560532988e-01	-1.1965841732e+00
 1.1213925553e+00	 9.7942271786e-01	-1.2848589502e+00
 1.1092994545e+00	 9.9309860724e-01	-1.3653045069e+00
 1.0970354007e+00	 1.0066297497e+00	-1.4376425853e+00
 1.0846030098e+00	 1.0200129581e+00	-1.4890229522e+00
 1.1507526352e+00	 9.5638432589e-01	-1.1246974045e+00
 1.1389505371e+00	 9.7040933650e-01	-1.2167816060e+00
 1.1269716228e+00	 9.8429546770e-01	-1.3061105124e+00
 1.1148183573e+00	 9.9803939633e-01	-1.3870791330e+00
 1.1024932883e+00	 1.0116378579e+00	-1.4549378182e+00
 1.0899990446e+00	 1.0250876494e+00	-1.5033080275e+00
 1.1564494305e+00	 9.6111890176e-01	-1.1428181223e+00
 1.1445889061e+00	 9.7521334312e-01	-1.2360434847e+00
 1.1325506902e+00	 9.8916821754e-01	-1.3259299766e+00
 1.1203372600e+00	 1.0029801854e+00	-1.4070239886e+00
 1.1079511758e+00	 1.0166459662e+00	-1.4722996703e+00
 1.0953950795e+00	 1.0301623407e+00	-1.5170710318e+00
 1.1621462257e+00	 9.6585347763e-01	-1.1604276092e+00
 1.1502272751e+00	 9.8001734973e-01	-1.2544017742e+00
 1.1381297577e+00	 9.9404096738e-01	-1.3443146681e+00
 1.1258561628e+00	 1.0079209745e+00	-1.4249601986e+00
 1.1134090634e+00	 1.0216540744e+00	-1.4891811675e+00
 1.1007911144e+00	 1.0352370321e+00	-1.5300037622e+00
 1.1678430209e+00	 9.7058805350e-01	-1.1776010432e+00
 1.1558656441e+00	 9.8482135635e-01	-1.2718694578e+00
 1.1437088251e+00	 9.9891371722e-01	-1.3612429538e+00
 1.1313750655e+00	 1.0128617636e+00	-1.4408580064e+00
 1.1188669510e+00	 1.0266621826e+00	-1.5038710311e+00
 1.1061871493e+00	 1.0403117234e+00	-1.5417785300e+00
 1.0792069749e+00	 1.0149382667e+00	-1.4745053583e+00
 1.0666716183e+00	 1.0281045855e+00	-1.5251101473e+00
 1.0539742010e+00	 1.0411175552e+00	-1.5956815761e+00
 1.0411175552e+00	 1.0539742010e+00	-1.6706647193e+00
 1.0281045855e+00	 1.0666716183e+00	-1.7341790781e+00
 1.0149382667e+00	 1.0792069749e+00	-1.7702360860e+00
 1.0846030098e+00	 1.0200129581e+00	-1.4890229522e+00
 1.0720049764e+00	 1.0332451084e+00	-1.5393349181e+00
 1.0592440720e+00	 1.0463231430e+00	-1.6112844351e+00
 1.0463231430e+00	 1.0592440720e+00	-1.6881895284e+00
 1.0332451084e+00	 1.0720049764e+00	-1.7530255159e+00
 1.0200129581e+00	 1.0846030098e+00	-1.7886510218e+00
 1.0899990446e+00	 1.0250876494e+00	-1.5033080275e+00
 1.0773383344e+00	 1.0383856314e+00	-1.5528772681e+00
 1.0645139430e+00	 1.0515287307e+00	-1.6259372417e+00
 1.0515287307e+00	 1.0645139430e+00	-1.7046271870e+00
 1.0383856314e+00	 1.0773383344e+00	-1.7707289121e+00
 1.0250876494e+00	 1.0899990446e+00	-1.8059015998e+00
 1.0953950795e+00	 1.0301623407e+00	-1.5170710318e+00
 1.0826716925e+00	 1.0435261543e+00	-1.5655405735e+00
 1.0697838140e+00	 1.0567343185e+00	-1.6395641492e+00
 1.0567343185e+00	 1.0697838140e+00	-1.7200506750e+00
 1.0435261543e+00	 1.0826716925e+00	-1.7875392739e+00
 1.0301623407e+00	 1.0953950795e+00	-1.8224431553e+00
 1.1007911144e+00	 1.0352370321e+00	-1.5300037622e+00
 1.0880050506e+00	 1.0486666772e+00	-1.5771094273e+00
 1.0750536850e+00	 1.0619399063e+00	-1.6520699894e+00
 1.0619399063e+00	 1.0750536850e+00	-1.7345126893e+00
 1.0486666772e+00	 1.0880050506e+00	-1.8036849186e+00
 1.0352370321e+00	 1.1007911144e+00	-1.8387074639e+00
 1.1061871493e+00	 1.0403117234e+00	-1.5417785300e+00
 1.0933384087e+00	 1.0538072002e+00	-1.5873488496e+00
 1.0803235560e+00	 1.0671454941e+00	-1.6633395428e+00
 1.0671454941e+00	 1.0803235560e+00	-1.7480449843e+00
 1.0538072002e+00	 1.0933384087e+00	-1.8193719003e+00
 1.0403117234e+00	 1.1061871493e+00	-1.8551022674e+00
 1.0149382667e+00	 1.0792069749e+00	-1.7702360860e+00
 1.0016216415e+00	 1.0915775131e+00	-1.8036351213e+00
 9.8815781815e-01	 1.1037805517e+00	-1.8563130546e+00
 9.7454996802e-01	 1.1158134879e+00	-1.9092627763e+00
 9.6080132327e-01	 1.1276737991e+00	-1.9541698179e+00
 9.4691517415e-01	 1.1393590448e+00	-1.9885193063e+00
 1.0200129581e+00	 1.0846030098e+00	-1.7886510218e+00
 1.0066297497e+00	 1.0970354007e+00	-1.8199916549e+00
 9.9309860724e-01	 1.1092994545e+00	-1.8695997324e+00
 9.7942271786e-01	 1.1213925553e+00	-1.9197791226e+00
 9.6560532988e-01	 1.1333121681e+00	-1.9637631431e+00
 9.5164975002e-01	 1.1450558400e+00	-1.9985077993e+00
 1.0250876494e+00	 1.0899990446e+00	-1.8059015998e+00
 1.0116378579e+00	 1.1024932883e+00	-1.8351780306e+00
 9.9803939633e-01	 1.1148183573e+00	-1.8817823819e+00
 9.8429546770e-01	 1.1269716228e+00	-1.9295450371e+00
 9.7040933650e-01	 1.1389505371e+00	-1.9726131341e+00
 9.5638432589e-01	 1.1507526352e+00	-2.0079938520e+00
 1.0301623407e+00	 1.0953950795e+00	-1.8224431553e+00
 1.0166459662e+00	 1.1079511758e+00	-1.8498301900e+00
 1.0029801854e+00	 1.1203372600e+00	-1.8932182500e+00
 9.8916821754e-01	 1.1325506902e+00	-1.9383981299e+00
 9.7521334312e-01	 1.1445889061e+00	-1.9804733541e+00
 9.6111890176e-01	 1.1564494305e+00	-2.0165641667e+00
 1.0352370321e+00	 1.1007911144e+00	-1.8387074639e+00
 1.0216540744e+00	 1.1134090634e+00	-1.8644342579e+00
 1.0079209745e+00	 1.1258561628e+00	-1.9037613551e+00
 9.9404096738e-01	 1.1381297577e+00	-1.9461718864e+00
 9.8001734973e-01	 1.1502272751e+00	-1.9870946418e+00
 9.6585347763e-01	 1.1621462257e+00	-2.0238056903e+00
 1.0403117234e+00	 1.1061871493e+00	-1.8551022674e+00
 1.0266621826e+00	 1.1188669510e+00	-1.8782524476e+00
 1.0128617636e+00	 1.1313750655e+00	-1.9132437285e+00
 9.9891371722e-01	 1.1437088251e+00	-1.9526963438e+00
 9.8482135635e-01	 1.1558656441e+00	-1.9922257193e+00
 9.7058805350e-01	 1.1678430209e+00	-2.0293061155e+00
 9.4691517415e-01	 1.1393590448e+00	-1.9885193063e+00
 9.3289486646e-01	 1.1508668681e+00	-2.0138013406e+00
 9.1874379890e-01	 1.1621949974e+00	-2.0336202050e+00
 9.0446542032e-01	 1.1733412476e+00	-2.0500221515e+00
 8.9006322702e-01	 1.1843035219e+00	-2.0659481508e+00
 8.7554075989e-01	 1.1950798123e+00	-2.0851066212e+00
 9.5164975002e-01	 1.1450558400e+00	-1.9985077993e+00
 9.3755934080e-01	 1.1566212024e+00	-2.0241702559e+00
 9.2333751790e-01	 1.1680059724e+00	-2.0433044220e+00
 9.0898774743e-01	 1.1792079539e+00	-2.0584407115e+00
 8.9451354315e-01	 1.1902250395e+00	-2.0730010539e+00
 8.7991846369e-01	 1.2010552114e+00	-2.0911665992e+00
 9.5638432589e-01	 1.1507526352e+00	-2.0079938520e+00
 9.4222381513e-01	 1.1623755368e+00	-2.0344324653e+00
 9.2793123689e-01	 1.1738169474e+00	-2.0532675996e+00
 9.1351007453e-01	 1.1850746601e+00	-2.0674282754e+00
 8.9896385929e-01	 1.1961465571e+00	-2.0807409120e+00
 8.8429616749e-01	 1.2070306104e+00	-2.0977920066e+00
 9.6111890176e-01	 1.1564494305e+00	-2.0165641667e+00
 9.4688828946e-01	 1.1681298711e+00	-2.0440007426e+00
 9.3252495589e-01	 1.1796279223e+00	-2.0628184842e+00
 9.1803240163e-01	 1.1909413664e+00	-2.0762608765e+00
 9.0341417542e-01	 1.2020680747e+00	-2.0884836833e+00
 8.8867387129e-01	 1.2130060095e+00	-2.1044125934e+00
 9.6585347763e-01	 1.1621462257e+00	-2.0238056903e+00
 9.5155276379e-01	 1.1738842055e+00	-2.0522911712e+00
 9.3711867488e-01	 1.1854388973e+00	-2.0712707932e+00
 9.2255472873e-01	 1.1968080726e+00	-2.0842197616e+00
 9.0786449156e-01	 1.2079895923e+00	-2.0955493476e+00
 8.9305157509e-01	 1.2189814085e+00	-2.1104594920e+00
 9.7058805350e-01	 1.1678430209e+00	-2.0293061155e+00
 9.5621723813e-01	 1.1796385398e+00	-2.0587235344e+00
 9.4171239387e-01	 1.1912498723e+00	-2.0779435295e+00
 9.2707705583e-01	 1.2026747788e+00	-2.0905916632e+00
 9.1231480769e-01	 1.2139111099e+00	-2.1012621712e+00
 8.9742927889e-01	 1.2249568076e+00	-2.1153655090e+00
 8.7554075989e-01	 1.1950798123e+00	-2.0851066212e+00
 8.6090160165e-01	 1.2056682016e+00	-2.1024064326e+00
 8.4614937394e-01	 1.2160668637e+00	-2.1126888029e+00
 8.3128773444e-01	 1.2262740650e+00	-2.1202645597e+00
 8.1632037394e-01	 1.2362881651e+00	-2.1296233866e+00
 8.0125101345e-01	 1.2461076171e+00	-2.1453194879e+00
 8.7991846369e-01	 1.2010552114e+00	-2.0911665992e+00
 8.6520610966e-01	 1.2116965426e+00	-2.1078216075e+00
 8.5038012081e-01	 1.2221471980e+00	-2.1173003219e+00
 8.3544417311e-01	 1.2324054353e+00	-2.1236683601e+00
 8.2040197581e-01	 1.2424696059e+00	-2.1311873613e+00
 8.0525726852e-01	 1.2523381552e+00	-2.1441976755e+00
 8.8429616749e-01	 1.2070306104e+00	-2.0977920066e+00
 8.6951061767e-01	 1.2177248836e+00	-2.1135333368e+00
 8.5461086768e-01	 1.2282275323e+00	-2.1219740574e+00
 8.3960061178e-01	 1.2385368057e+00	-2.1270030534e+00
 8.2448357768e-01	 1.2486510467e+00	-2.1327148070e+00
 8.0926352358e-01	 1.2585686933e+00	-2.1432889484e+00
 8.8867387129e-01	 1.2130060095e+00	-2.1044125934e+00
 8.7381512568e-01	 1.2237532246e+00	-2.1190941649e+00
 8.5884161455e-01	 1.2343078666e+00	-2.1263282328e+00
 8.4375705046e-01	 1.2446681760e+00	-2.1298947451e+00
 8.2856517955e-01	 1.2548324875e+00	-2.1337812923e+00
 8.1326977865e-01	 1.2647992314e+00	-2.1420593516e+00
 8.9305157509e-01	 1.2189814085e+00	-2.1104594920e+00
 8.7811963368e-01	 1.2297815656e+00	-2.1240552133e+00
 8.6307236142e-01	 1.2403882010e+00	-2.1299779836e+00
 8.4791348913e-01	 1.2507995463e+00	-2.1319659522e+00
 8.3264678142e-01	 1.2610139284e+00	-2.1339594809e+00
 8.1727603372e-01	 1.2710297695e+00	-2.1399739131e+00
 8.9742927889e-01	 1.2249568076e+00	-2.1153655090e+00
 8.8242414169e-01	 1.2358099066e+00	-2.1279665052e+00
 8.6730310829e-01	 1.2464685353e+00	-2.1325356878e+00
 8.5206992780e-01	 1.2569309166e+00	-2.1328359109e+00
 8.3672838329e-01	 1.2671953692e+00	-2.1328193895e+00
 8.2128228878e-01	 1.2772603075e+00	-2.1364968235e+00
 8.0125101345e-01	 1.2461076171e+00	-2.1453194879e+00
 7.8608340119e-01	 1.2557309689e+00	-2.1494865714e+00
 7.7082130969e-01	 1.2651568632e+00	-2.1293679785e+00
 7.5546853282e-01	 1.2743840378e+00	-2.0972374588e+00
 7.4002888280e-01	 1.2834113263e+00	-2.0654154869e+00
 7.2450618728e-01	 1.2922376579e+00	-2.0635128865e+00
 8.0525726852e-01	 1.2523381552e+00	-2.1441976755e+00
 7.9001381820e-01	 1.2620096238e+00	-2.1461766523e+00
 7.7467541624e-01	 1.2714826475e+00	-2.1257488224e+00
 7.5924587548e-01	 1.2807559580e+00	-2.0950005854e+00
 7.4372902721e-01	 1.2898283830e+00	-2.0659773439e+00
 7.2812871821e-01	 1.2986988462e+00	-2.0609381660e+00
 8.0926352358e-01	 1.2585686933e+00	-2.1432889484e+00
 7.9394423520e-01	 1.2682882786e+00	-2.1433669326e+00
 7.7852952279e-01	 1.2778084318e+00	-2.1227074223e+00
 7.6302321815e-01	 1.2871278782e+00	-2.0931621143e+00
 7.4742917163e-01	 1.2962454396e+00	-2.0664976422e+00
 7.3175124915e-01	 1.3051600345e+00	-2.0594447632e+00
 8.1326977865e-01	 1.2647992314e+00	-2.1420593516e+00
 7.9787465221e-01	 1.2745669335e+00	-2.1404245652e+00
 7.8238362934e-01	 1.2841342161e+00	-2.1195931445e+00
 7.6680056081e-01	 1.2934997984e+00	-2.0911353982e+00
 7.5112931604e-01	 1.3026624962e+00	-2.0665012638e+00
 7.3537378008e-01	 1.3116212228e+00	-2.0587139756e+00
 8.1727603372e-01	 1.2710297695e+00	-2.1399739131e+00
 8.0180506921e-01	 1.2808455883e+00	-2.1367174203e+00
 7.8623773589e-01	 1.2904600005e+00	-2.1157562786e+00
 7.7057790348e-01	 1.2998717186e+00	-2.0883333833e+00
 7.5482946045e-01	 1.3090795529e+00	-2.0655445882e+00
 7.3899631102e-01	 1.3180824111e+00	-2.0584195461e+00
 8.2128228878e-01	 1.2772603075e+00	-2.1364968235e+00
 8.0573548622e-01	 1.2871242432e+00	-2.1316141920e+00
 7.9009184244e-01	 1.2967857848e+00	-2.1105481092e+00
 7.7435524614e-01	 1.3062436388e+00	-2.0841686851e+00
 7.5852960487e-01	 1.3154966095e+00	-2.0631808370e+00
 7.4261884196e-01	 1.3245435994e+00	-2.0580178371e+00
 7.2450618728e-01	 1.2922376579e+00	-2.0635128865e+00
 7.0890428638e-01	 1.3008620575e+00	-2.0758367224e+00
 6.9322702978e-01	 1.3092836458e+00	-2.0692745513e+00
 6.7747827378e-01	 1.3175016389e+00	-2.0494248327e+00
 6.6166187843e-01	 1.3255153483e+00	-2.0209705795e+00
 6.4578170469e-01	 1.3333241803e+00	-1.9877050874e+00
 7.2812871821e-01	 1.2986988462e+00	-2.0609381660e+00
 7.1244880781e-01	 1.3073663678e+00	-2.0700509648e+00
 6.9669316492e-01	 1.3158300640e+00	-2.0605262364e+00
 6.8086566515e-01	 1.3240891471e+00	-2.0383167435e+00
 6.6497018783e-01	 1.3321429250e+00	-2.0084792695e+00
 6.4901061321e-01	 1.3399908012e+00	-1.9751988972e+00
 7.3175124915e-01	 1.3051600345e+00	-2.0594447632e+00
 7.1599332924e-01	 1.3138706781e+00	-2.0647242577e+00
 7.0015930007e-01	 1.3223764823e+00	-2.0519271841e+00
 6.8425305651e-01	 1.3306766553e+00	-2.0273320508e+00
 6.6827849722e-01	 1.3387705018e+00	-1.9963256066e+00
 6.5223952174e-01	 1.3466574221e+00	-1.9634259245e+00
 7.3537378008e-01	 1.3116212228e+00	-2.0587139756e+00
 7.1953785067e-01	 1.3203749884e+00	-2.0597405482e+00
 7.0362543522e-01	 1.3289229005e+00	-2.0434359806e+00
 6.8764044788e-01	 1.3372641635e+00	-2.0163766815e+00
 6.7158680661e-01	 1.3453980785e+00	-1.9842364054e+00
 6.5546843026e-01	 1.3533240430e+00	-1.9518083900e+00
 7.3899631102e-01	 1.3180824111e+00	-2.0584195461e+00
 7.2308237211e-01	 1.3268792987e+00	-2.0549717779e+00
 7.0709157037e-01	 1.3354693187e+00	-2.0349973048e+00
 6.9102783925e-01	 1.3438516717e+00	-2.0053432953e+00
 6.7489511600e-01	 1.3520256553e+00	-1.9719283835e+00
 6.5869733878e-01	 1.3599906639e+00	-1.9397641065e+00
 7.4261884196e-01	 1.3245435994e+00	-2.0580178371e+00
 7.2662689354e-01	 1.3333836090e+00	-2.0502787201e+00
 7.1055770552e-01	 1.3420157369e+00	-2.0265427659e+00
 6.9441523062e-01	 1.3504391799e+00	-1.9941120605e+00
 6.7820342539e-01	 1.3586532320e+00	-1.9591088166e+00
 6.6192624731e-01	 1.3666572848e+00	-1.9267069514e+00
 6.4578170469e-01	 1.3333241803e+00	-1.9877050874e+00
 6.2984161154e-01	 1.3409276358e+00	-1.9561740412e+00
 6.1384545325e-01	 1.3483253092e+00	-1.9298832038e+00
 5.9779707658e-01	 1.3555168886e+00	-1.9067118160e+00
 5.8170031809e-01	 1.3625021541e+00	-1.8836456357e+00
 5.6555900146e-01	 1.3692809777e+00	-1.8568392894e+00
 6.4901061321e-01	 1.3399908012e+00	-1.9751988972e+00
 6.3299081960e-01	 1.3476322739e+00	-1.9442755260e+00
 6.1691468052e-01	 1.3550669358e+00	-1.9180752318e+00
 6.0078606196e-01	 1.3622944730e+00	-1.8942546209e+00
 5.8460881968e-01	 1.3693146649e+00	-1.8695296973e+00
 5.6838679647e-01	 1.3761273826e+00	-1.8397399601e+00
 6.5223952174e-01	 1.3466574221e+00	-1.9634259245e+00
 6.3614002766e-01	 1.3543369121e+00	-1.9334074625e+00
 6.1998390778e-01	 1.3618085623e+00	-1.9073180419e+00
 6.0377504735e-01	 1.3690720575e+00	-1.8826865627e+00
 5.8751732127e-01	 1.3761271756e+00	-1.8560713479e+00
 5.7121459148e-01	 1.3829737875e+00	-1.8231254478e+00
 6.5546843026e-01	 1.3533240430e+00	-1.9518083900e+00
 6.3928923572e-01	 1.3610415503e+00	-1.9227096393e+00
 6.2305313505e-01	 1.3685501889e+00	-1.8966369042e+00
 6.0676403273e-01	 1.3758496419e+00	-1.8710843922e+00
 5.9042582286e-01	 1.3829396864e+00	-1.8425627130e+00
 5.7404238649e-01	 1.3898201923e+00	-1.8066648565e+00
 6.5869733878e-01	 1.3599906639e+00	-1.9397641065e+00
 6.4243844377e-01	 1.3677461885e+00	-1.9113227551e+00
 6.2612236232e-01	 1.3752918154e+00	-1.8850600937e+00
 6.0975301811e-01	 1.3826272263e+00	-1.8585267771e+00
 5.9333432445e-01	 1.3897521972e+00	-1.8282936105e+00
 5.7687018149e-01	 1.3966665972e+00	-1.7900176682e+00
 6.6192624731e-01	 1.3666572848e+00	-1.9267069514e+00
 6.4558765183e-01	 1.3744508267e+00	-1.8983887186e+00
 6.2919158958e-01	 1.3820334420e+00	-1.8716190960e+00
 6.1274200350e-01	 1.3894048108e+00	-1.8440944940e+00
 5.9624282605e-01	 1.3965647079e+00	-1.8125518053e+00
 5.7969797650e-01	 1.4035130021e+00	-1.7728341388e+00
 5.6555900146e-01	 1.3692809777e+00	-1.8568392894e+00
 5.4937693488e-01	 1.3758533219e+00	-1.8257874395e+00
 5.3315790848e-01	 1.3822192390e+00	-1.7930957225e+00
 5.1690569179e-01	 1.3883788697e+00	-1.7587034424e+00
 5.0062403136e-01	 1.3943324421e+00	-1.7222016540e+00
 4.8431664830e-01	 1.4000802706e+00	-1.6828970318e+00
 5.6838679647e-01	 1.3761273826e+00	-1.8397399601e+00
 5.5212381956e-01	 1.3827325885e+00	-1.8054708833e+00
 5.3582369802e-01	 1.3891303352e+00	-1.7705956288e+00
 5.1949022025e-01	 1.3953207640e+00	-1.7349767969e+00
 5.0312715152e-01	 1.4013041043e+00	-1.6981377470e+00
 4.8673823154e-01	 1.4070806720e+00	-1.6593274451e+00
 5.7121459148e-01	 1.3829737875e+00	-1.8231254478e+00
 5.5487070423e-01	 1.3896118551e+00	-1.7857619655e+00
 5.3848948756e-01	 1.3960414314e+00	-1.7491351971e+00
 5.2207474871e-01	 1.4022626584e+00	-1.7128244075e+00
 5.0563027168e-01	 1.4082757666e+00	-1.6760624148e+00
 4.8915981478e-01	 1.4140810733e+00	-1.6378021970e+00
 5.7404238649e-01	 1.3898201923e+00	-1.8066648565e+00
 5.5761758891e-01	 1.3964911217e+00	-1.7667056660e+00
 5.4115527710e-01	 1.4029525276e+00	-1.7289752398e+00
 5.2465927717e-01	 1.4092045527e+00	-1.6925661965e+00
 5.0813339184e-01	 1.4152474288e+00	-1.6562014161e+00
 4.9158139803e-01	 1.4210814747e+00	-1.6183031804e+00
 5.7687018149e-01	 1.3966665972e+00	-1.7900176682e+00
 5.6036447358e-01	 1.4033703883e+00	-1.7483301322e+00
 5.4382106665e-01	 1.4098636238e+00	-1.7103557480e+00
 5.2724380563e-01	 1.4161464471e+00	-1.6745004333e+00
 5.1063651199e-01	 1.4222190910e+00	-1.6387611152e+00
 4.9400298127e-01	 1.4280818760e+00	-1.6007981716e+00
 5.7969797650e-01	 1.4035130021e+00	-1.7728341388e+00
 5.6311135826e-01	 1.4102496549e+00	-1.7306472143e+00
 5.4648685619e-01	 1.4167747200e+00	-1.6934964890e+00
 5.2982833409e-01	 1.4230883414e+00	-1.6589043197e+00
 5.1313963215e-01	 1.4291907532e+00	-1.6239289808e+00
 4.9642456451e-01	 1.4350822774e+00	-1.5852411711e+00
 4.8431664830e-01	 1.4000802706e+00	-1.6828970318e+00
 4.6798723597e-01	 1.4056227541e+00	-1.6459821336e+00
 4.5163945774e-01	 1.4109603751e+00	-1.6156789233e+00
 4.3527694476e-01	 1.4160936979e+00	-1.5895101218e+00
 4.1890329387e-01	 1.4210233673e+00	-1.5648542483e+00
 4.0252206554e-01	 1.4257501067e+00	-1.5390227590e+00
 4.8673823154e-01	 1.4070806720e+00	-1.6593274451e+00
 4.7032717215e-01	 1.4126508679e+00	-1.6229474552e+00
 4.5389765503e-01	 1.4180151770e+00	-1.5926196371e+00
 4.3745332948e-01	 1.4231741664e+00	-1.5660877887e+00
 4.2099781034e-01	 1.4281284841e+00	-1.5409318457e+00
 4.0453467586e-01	 1.4328788572e+00	-1.5146466727e+00
 4.8915981478e-01	 1.4140810733e+00	-1.6378021970e+00
 4.7266710833e-01	 1.4196789817e+00	-1.6014082322e+00
 4.5615585231e-01	 1.4250699789e+00	-1.5700023967e+00
 4.3962971421e-01	 1.4302546349e+00	-1.5418252088e+00
 4.2309232681e-01	 1.4352336010e+00	-1.5149406690e+00
 4.0654728619e-01	 1.4400076078e+00	-1.4873159695e+00
 4.9158139803e-01	 1.4210814747e+00	-1.6183031804e+00
 4.7500704451e-01	 1.4267070954e+00	-1.5810820949e+00
 4.5841404960e-01	 1.4321247808e+00	-1.5473838787e+00
 4.4180609893e-01	 1.4373351034e+00	-1.5162166088e+00
 4.2518684328e-01	 1.4423387178e+00	-1.4864061162e+00
 4.0855989652e-01	 1.4471363583e+00	-1.4566758840e+00
 4.9400298127e-01	 1.4280818760e+00	-1.6007981716e+00
 4.7734698069e-01	 1.4337352092e+00	-1.5616783171e+00
 4.6067224689e-01	 1.4391795826e+00	-1.5243162177e+00
 4.4398248365e-01	 1.4444155719e+00	-1.4887536350e+00
 4.2728135975e-01	 1.4494438346e+00	-1.4548512043e+00
 4.1057250685e-01	 1.4542651088e+00	-1.4223678014e+00
 4.9642456451e-01	 1.4350822774e+00	-1.5852411711e+00
 4.7968691687e-01	 1.4407633230e+00	-1.5428979897e+00
 4.6293044418e-01	 1.4462343845e+00	-1.5003470627e+00
 4.4615886838e-01	 1.4514960404e+00	-1.4589253385e+00
 4.2937587622e-01	 1.4565489515e+00	-1.4197965299e+00
 4.1258511717e-01	 1.4613938594e+00	-1.3840292346e+00
 4.0252206554e-01	 1.4257501067e+00	-1.5390227590e+00
 3.8613678186e-01	 1.4302747169e+00	-1.5098719759e+00
 3.6975092468e-01	 1.4345980739e+00	-1.4654505930e+00
 3.5336793376e-01	 1.4387211277e+00	-1.4243571698e+00
 3.3699120501e-01	 1.4426449001e+00	-1.4003274915e+00
 3.2062408884e-01	 1.4463704828e+00	-1.3774098331e+00
 4.0453467586e-01	 1.4328788572e+00	-1.5146466727e+00
 3.8806746577e-01	 1.4374260904e+00	-1.4856081998e+00
 3.7159967930e-01	 1.4417710643e+00	-1.4418828978e+00
 3.5513477342e-01	 1.4459147334e+00	-1.3952151086e+00
 3.3867616103e-01	 1.4498581246e+00	-1.3674219000e+00
 3.2222720929e-01	 1.4536023353e+00	-1.3427573381e+00
 4.0654728619e-01	 1.4400076078e+00	-1.4873159695e+00
 3.8999814968e-01	 1.4445774640e+00	-1.4581126460e+00
 3.7344843392e-01	 1.4489440547e+00	-1.4154743410e+00
 3.5690161309e-01	 1.4531083390e+00	-1.3645374134e+00
 3.4036111706e-01	 1.4570713491e+00	-1.3337300174e+00
 3.2383032973e-01	 1.4608341877e+00	-1.3082906800e+00
 4.0855989652e-01	 1.4471363583e+00	-1.4566758840e+00
 3.9192883358e-01	 1.4517288376e+00	-1.4271992371e+00
 3.7529718855e-01	 1.4561170450e+00	-1.3861725664e+00
 3.5866845276e-01	 1.4603019446e+00	-1.3325941887e+00
 3.4204607308e-01	 1.4642845736e+00	-1.2997634567e+00
 3.2543345018e-01	 1.4680660401e+00	-1.2747638435e+00
 4.1057250685e-01	 1.4542651088e+00	-1.4223678014e+00
 3.9385951749e-01	 1.4588802112e+00	-1.3926756844e+00
 3.7714594317e-01	 1.4632900354e+00	-1.3539643584e+00
 3.6043529243e-01	 1.4674955503e+00	-1.2996361287e+00
 3.4373102911e-01	 1.4714977981e+00	-1.2660151643e+00
 3.2703657062e-01	 1.4752978925e+00	-1.2429122231e+00
 4.1258511717e-01	 1.4613938594e+00	-1.3840292346e+00
 3.9579020140e-01	 1.4660315848e+00	-1.3543435073e+00
 3.7899469779e-01	 1.4704630258e+00	-1.3188278027e+00
 3.6220213210e-01	 1.4746891559e+00	-1.2658939161e+00
 3.4541598513e-01	 1.4787110226e+00	-1.2329589555e+00
 3.2863969106e-01	 1.4825297449e+00	-1.2131890556e+00
 3.2062408884e-01	 1.4463704828e+00	-1.3774098331e+00
 3.0426988856e-01	 1.4498990361e+00	-1.3479620817e+00
 2.8793185885e-01	 1.4532317863e+00	-1.3153910362e+00
 2.7161320434e-01	 1.4563700241e+00	-1.2823762616e+00
 2.5531707825e-01	 1.4593151029e+00	-1.2526445089e+00
 2.3904658112e-01	 1.4620684362e+00	-1.2308537103e+00
 3.2222720929e-01	 1.4536023353e+00	-1.3427573381e+00
 3.0579123801e-01	 1.4571485313e+00	-1.3129243544e+00
 2.8937151815e-01	 1.4604979452e+00	-1.2803335017e+00
 2.7297127037e-01	 1.4636518743e+00	-1.2473106113e+00
 2.5659366365e-01	 1.4666116784e+00	-1.2173228179e+00
 2.4024181403e-01	 1.4693787783e+00	-1.1948564787e+00
 3.2383032973e-01	 1.4608341877e+00	-1.3082906800e+00
 3.0731258745e-01	 1.4643980265e+00	-1.2792017630e+00
 2.9081117744e-01	 1.4677641041e+00	-1.2477092256e+00
 2.7432933639e-01	 1.4709337244e+00	-1.2155759392e+00
 2.5787024904e-01	 1.4739082539e+00	-1.1857996109e+00
 2.4143704694e-01	 1.4766891205e+00	-1.1624849592e+00
 3.2543345018e-01	 1.4680660401e+00	-1.2747638435e+00
 3.0883393689e-01	 1.4716475216e+00	-1.2477467830e+00
 2.9225083674e-01	 1.4750302631e+00	-1.2185824121e+00
 2.7568740241e-01	 1.4782155745e+00	-1.1882655744e+00
 2.5914683443e-01	 1.4812048294e+00	-1.1591190149e+00
 2.4263227984e-01	 1.4839994627e+00	-1.1341965629e+00
 3.2703657062e-01	 1.4752978925e+00	-1.2429122231e+00
 3.1035528634e-01	 1.4788970168e+00	-1.2194935940e+00
 2.9369049603e-01	 1.4822964220e+00	-1.1938843616e+00
 2.7704546843e-01	 1.4854974246e+00	-1.1641638978e+00
 2.6042341982e-01	 1.4885014049e+00	-1.1329284385e+00
 2.4382751275e-01	 1.4913098049e+00	-1.1049491652e+00
 3.2863969106e-01	 1.4825297449e+00	-1.2131890556e+00
 3.1187663578e-01	 1.4861465120e+00	-1.1907979437e+00
 2.9513015533e-01	 1.4895625809e+00	-1.1633630958e+00
 2.7840353445e-01	 1.4927792747e+00	-1.1326324355e+00
 2.6170000521e-01	 1.4957979805e+00	-1.1013558987e+00
 2.4502274565e-01	 1.4986201471e+00	-1.0730914804e+00
 2.3904658112e-01	 1.4620684362e+00	-1.2308537103e+00
 2.2280475962e-01	 1.4646314960e+00	-1.2165926838e+00
 2.0659460540e-01	 1.4670058108e+00	-1.2039987405e+00
 1.9041905411e-01	 1.4691929634e+00	-1.1907265451e+00
 1.7428098441e-01	 1.4711945889e+00	-1.1750503996e+00
 1.5818321710e-01	 1.4730123726e+00	-1.1557139203e+00
 2.4024181403e-01	 1.4693787783e+00	-1.1948564787e+00
 2.2391878341e-01	 1.4719546535e+00	-1.1798559827e+00
 2.0762757843e-01	 1.4743408399e+00	-1.1667758193e+00
 1.9137114938e-01	 1.4765389283e+00	-1.1531484538e+00
 1.7515238934e-01	 1.4785505619e+00	-1.1371799967e+00
 1.5897413318e-01	 1.4803774345e+00	-1.1175924152e+00
 2.4143704694e-01	 1.4766891205e+00	-1.1624849592e+00
 2.2503280721e-01	 1.4792778110e+00	-1.1457635333e+00
 2.0866055145e-01	 1.4816758689e+00	-1.1305041275e+00
 1.9232324465e-01	 1.4838848931e+00	-1.1144548838e+00
 1.7602379426e-01	 1.4859065348e+00	-1.0965863194e+00
 1.5976504927e-01	 1.4877424963e+00	-1.0762585855e+00
 2.4263227984e-01	 1.4839994627e+00	-1.1341965629e+00
 2.2614683101e-01	 1.4866009684e+00	-1.1140266451e+00
 2.0969352448e-01	 1.4890108980e+00	-1.0953542849e+00
 1.9327533992e-01	 1.4912308579e+00	-1.0769185134e+00
 1.7689519918e-01	 1.4932625077e+00	-1.0578200162e+00
 1.6055596535e-01	 1.4951075582e+00	-1.0373879815e+00
 2.4382751275e-01	 1.4913098049e+00	-1.1049491652e+00
 2.2726085481e-01	 1.4939241259e+00	-1.0819273926e+00
 2.1072649751e-01	 1.4963459270e+00	-1.0610208471e+00
 1.9422743519e-01	 1.4985768227e+00	-1.0410424020e+00
 1.7776660410e-01	 1.5006184807e+00	-1.0211860787e+00
 1.6134688144e-01	 1.5024726200e+00	-1.0008947948e+00
 2.4502274565e-01	 1.4986201471e+00	-1.0730914804e+00
 2.2837487861e-01	 1.5012472834e+00	-1.0491791698e+00
 2.1175947053e-01	 1.5036809561e+00	-1.0273548307e+00
 1.9517953046e-01	 1.5059227875e+00	-1.0066492561e+00
 1.7863800902e-01	 1.5079744536e+00	-9.8649283877e-01
 1.6213779752e-01	 1.5098376819e+00	-9.6658408587e-01
 1.5818321710e-01	 1.4730123726e+00	-1.1557139203e+00
 1.4212851429e-01	 1.4746480480e+00	-1.1356895495e+00
 1.2611957874e-01	 1.4761033947e+00	-1.1189252032e+00
 1.1015905315e-01	 1.4773802364e+00	-1.1057834457e+00
 9.4249519604e-02	 1.4784804388e+00	-1.0963671302e+00
 7.8393499089e-02	 1.4794059075e+00	-1.0903722258e+00
 1.5897413318e-01	 1.4803774345e+00	-1.1175924152e+00
 1.4283915686e-01	 1.4820212882e+00	-1.0969477468e+00
 1.2675017663e-01	 1.4834839117e+00	-1.0793172776e+00
 1.1070984841e-01	 1.4847671376e+00	-1.0654269721e+00
 9.4720767202e-02	 1.4858728410e+00	-1.0554901284e+00
 7.8785466584e-02	 1.4868029371e+00	-1.0492073529e+00
 1.5976504927e-01	 1.4877424963e+00	-1.0762585855e+00
 1.4354979943e-01	 1.4893945285e+00	-1.0558569560e+00
 1.2738077453e-01	 1.4908644286e+00	-1.0386399717e+00
 1.1126064368e-01	 1.4921540388e+00	-1.0251304690e+00
 9.5192014800e-02	 1.4932652432e+00	-1.0154653028e+00
 7.9177434079e-02	 1.4941999666e+00	-1.0092933488e+00
 1.6055596535e-01	 1.4951075582e+00	-1.0373879815e+00
 1.4426044201e-01	 1.4967677687e+00	-1.0174451907e+00
 1.2801137242e-01	 1.4982449456e+00	-1.0006283502e+00
 1.1181143894e-01	 1.4995409400e+00	-9.8737471326e-01
 9.5663262398e-02	 1.5006576454e+00	-9.7776016265e-01
 7.9569401575e-02	 1.5015969962e+00	-9.7139868870e-01
 1.6134688144e-01	 1.5024726200e+00	-1.0008947948e+00
 1.4497108458e-01	 1.5041410089e+00	-9.8152975036e-01
 1.2864197032e-01	 1.5056254626e+00	-9.6511908441e-01
 1.1236223421e-01	 1.5069278412e+00	-9.5202766227e-01
 9.6134509996e-02	 1.5080500476e+00	-9.4228487565e-01
 7.9961369070e-02	 1.5089940257e+00	-9.3548567239e-01
 1.6213779752e-01	 1.5098376819e+00	-9.6658408587e-01
 1.4568172715e-01	 1.5115142492e+00	-9.4792371462e-01
 1.2927256821e-01	 1.5130059796e+00	-9.3194600494e-01
 1.1291302948e-01	 1.5143147423e+00	-9.1895565082e-01
 9.6605757594e-02	 1.5154424498e+00	-9.0894903723e-01
 8.0353336566e-02	 1.5163910552e+00	-9.0151690165e-01
 7.8393499089e-02	 1.4794059075e+00	-1.0903722258e+00
 6.2593451038e-02	 1.4801585861e+00	-1.0859198119e+00
 4.6851772986e-02	 1.4807404537e+00	-1.0817591713e+00
 3.1170800274e-02	 1.4811535238e+00	-1.0774874508e+00
 1.5552805827e-02	 1.4813998414e+00	-1.0717423745e+00
-7.6519639565e-07	 1.4815013766e+00	 2.3222843840e-01
 7.8785466584e-02	 1.4868029371e+00	-1.0492073529e+00
 6.2906418293e-02	 1.4875593790e+00	-1.0446598574e+00
 4.7086031851e-02	 1.4881441560e+00	-1.0405915753e+00
 3.1326654275e-02	 1.4885592915e+00	-1.0366199595e+00
 1.5630569856e-02	 1.4888068406e+00	-1.0314462438e+00
-7.5624062938e-07	 1.4889088536e+00	 2.9055857319e-01
 7.9177434079e-02	 1.4941999666e+00	-1.0092933488e+00
 6.3219385549e-02	 1.4949601719e+00	-1.0047417264e+00
 4.7320290716e-02	 1.4955478583e+00	-1.0007039727e+00
 3.1482508276e-02	 1.4959650591e+00	-9.9694583223e-01
 1.5708333885e-02	 1.4962138398e+00	-9.9235072079e-01
-7.4706362667e-07	 1.4963163176e+00	 3.4548417175e-01
 7.9569401575e-02	 1.5015969962e+00	-9.7139868870e-01
 6.3532352804e-02	 1.5023609648e+00	-9.6651837926e-01
 4.7554549581e-02	 1.5029515605e+00	-9.6223603253e-01
 3.1638362278e-02	 1.5033708267e+00	-9.5851021443e-01
 1.5786097914e-02	 1.5036208391e+00	-9.5444942513e-01
-7.3766613798e-07	 1.5037237682e+00	 3.9709376306e-01
 7.9961369070e-02	 1.5089940257e+00	-9.3548567239e-01
 6.3845320059e-02	 1.5097617578e+00	-9.2999762074e-01
 4.7788808446e-02	 1.5103552628e+00	-9.2521770844e-01
 3.1794216279e-02	 1.5107765943e+00	-9.2134060004e-01
 1.5863861944e-02	 1.5110278383e+00	-9.1774156834e-01
-7.2804891381e-07	 1.5111312053e+00	 4.4546867319e-01
 8.0353336566e-02	 1.5163910552e+00	-9.0151690165e-01
 6.4158287314e-02	 1.5171625507e+00	-8.9518855109e-01
 4.8023067311e-02	 1.5177589651e+00	-8.8968166122e-01
 3.1950070280e-02	 1.5181823619e+00	-8.8546901634e-01
 1.5941625973e-02	 1.5184348375e+00	-8.8223313276e-01
-7.1821270466e-07	 1.5185386285e+00	 4.9068188603e-01
 1.5185185185e+00	 0.0000000000e+00	 3.7465135260e+00
 1.5184348375e+00	 1.5941625973e-02	 3.7461150978e+00
 1.5181823619e+00	 3.1950070280e-02	 3.7405926018e+00
 1.5177589651e+00	 4.8023067311e-02	 3.7308490374e+00
 1.5171625507e+00	 6.4158287314e-02	 3.7169232848e+00
 1.5163910552e+00	 8.0353336566e-02	 3.6980693471e+00
 1.5259259259e+00	 0.0000000000e+00	 3.7373754531e+00
 1.5258418367e+00	 1.6019390002e-02	 3.7367438545e+00
 1.5255881296e+00	 3.2105924282e-02	 3.7312717562e+00
 1.5251626674e+00	 4.8257326176e-02	 3.7217573152e+00
 1.5245633436e+00	 6.4471254569e-02	 3.7081507708e+00
 1.5237880848e+00	 8.0745304061e-02	 3.6896322837e+00
 1.5333333333e+00	 0.0000000000e+00	 3.7278691636e+00
 1.5332488359e+00	 1.6097154031e-02	 3.7270544765e+00
 1.5329938972e+00	 3.2261778283e-02	 3.7216027010e+00
 1.5325663696e+00	 4.8491585041e-02	 3.7122413046e+00
 1.5319641366e+00	 6.4784221824e-02	 3.6988673110e+00
 1.5311851143e+00	 8.1137271557e-02	 3.6806235640e+00
 1.5407407407e+00	 0.0000000000e+00	 3.7179570561e+00
 1.5406558351e+00	 1.6174918060e-02	 3.7170180293e+00
 1.5403996648e+00	 3.2417632285e-02	 3.7115556615e+00
 1.5399700719e+00	 4.8725843905e-02	 3.7022609767e+00
 1.5393649295e+00	 6.5097189080e-02	 3.6890133272e+00
 1.5385821438e+00	 8.1529239052e-02	 3.6709549075e+00
 1.5481481481e+00	 0.0000000000e+00	 3.7076021218e+00
 1.5480628343e+00	 1.6252682089e-02	 3.7066062417e+00
 1.5478054324e+00	 3.2573486286e-02	 3.7011015690e+00
 1.5473737742e+00	 4.8960102770e-02	 3.6917770467e+00
 1.5467657224e+00	 6.5410156335e-02	 3.6785300419e+00
 1.5459791734e+00	 8.1921206548e-02	 3.6605389326e+00
 1.5555555556e+00	 0.0000000000e+00	 3.6967679302e+00
 1.5554698335e+00	 1.6330446118e-02	 3.6957914917e+00
 1.5552112000e+00	 3.2729340287e-02	 3.6902120465e+00
 1.5547774764e+00	 4.9194361635e-02	 3.6807509571e+00
 1.5541665154e+00	 6.5723123590e-02	 3.6673594582e+00
 1.5533762029e+00	 8.2313174043e-02	 3.6492891324e+00
 1.5163910552e+00	 8.0353336566e-02	 3.6980693471e+00
 1.5154424498e+00	 9.6605757594e-02	 3.6745862642e+00
 1.5143147423e+00	 1.1291302948e-01	 3.6481540456e+00
 1.5130059796e+00	 1.2927256821e-01	 3.6191928297e+00
 1.5115142492e+00	 1.4568172715e-01	 3.5877103773e+00
 1.5098376819e+00	 1.6213779752e-01	 3.5534023855e+00
 1.5237880848e+00	 8.0745304061e-02	 3.6896322837e+00
 1.5228348520e+00	 9.7077005192e-02	 3.6663227449e+00
 1.5217016435e+00	 1.1346382474e-01	 3.6398222767e+00
 1.5203864965e+00	 1.2990316610e-01	 3.6106423184e+00
 1.5188874894e+00	 1.4639236972e-01	 3.5788901699e+00
 1.5172027438e+00	 1.6292871361e-01	 3.5443668533e+00
 1.5311851143e+00	 8.1137271557e-02	 3.6806235640e+00
 1.5302272542e+00	 9.7548252790e-02	 3.6574781223e+00
 1.5290885447e+00	 1.1401462001e-01	 3.6309413999e+00
 1.5277670135e+00	 1.3053376400e-01	 3.6016007758e+00
 1.5262607297e+00	 1.4710301229e-01	 3.5696477652e+00
 1.5245678056e+00	 1.6371962970e-01	 3.5349733007e+00
 1.5385821438e+00	 8.1529239052e-02	 3.6709549075e+00
 1.5376196564e+00	 9.8019500388e-02	 3.6479288334e+00
 1.5364754459e+00	 1.1456541527e-01	 3.6213491083e+00
 1.5351475305e+00	 1.3116436189e-01	 3.5918646740e+00
 1.5336339699e+00	 1.4781365486e-01	 3.5597369338e+00
 1.5319328675e+00	 1.6451054578e-01	 3.5249323193e+00
 1.5459791734e+00	 8.1921206548e-02	 3.6605389326e+00
 1.5450120586e+00	 9.8490747986e-02	 3.6375523332e+00
 1.5438623471e+00	 1.1511621054e-01	 3.6108842199e+00
 1.5425280475e+00	 1.3179495978e-01	 3.5812317150e+00
 1.5410072101e+00	 1.4852429744e-01	 3.5489127884e+00
 1.5392979294e+00	 1.6530146187e-01	 3.5139559709e+00
 1.5533762029e+00	 8.2313174043e-02	 3.6492891324e+00
 1.5524044608e+00	 9.8961995584e-02	 3.6262270651e+00
 1.5512492482e+00	 1.1566700580e-01	 3.5993866445e+00
 1.5499085644e+00	 1.3242555768e-01	 3.5695007947e+00
 1.5483804504e+00	 1.4923494001e-01	 3.5369317460e+00
 1.5466629912e+00	 1.6609237795e-01	 3.5017577509e+00
 1.5098376819e+00	 1.6213779752e-01	 3.5534023855e+00
 1.5079744536e+00	 1.7863800902e-01	 3.5147749703e+00
 1.5059227875e+00	 1.9517953046e-01	 3.4701529265e+00
 1.5036809561e+00	 2.1175947053e-01	 3.4188430195e+00
 1.5012472834e+00	 2.2837487861e-01	 3.3603340886e+00
 1.4986201471e+00	 2.4502274565e-01	 3.2944460709e+00
 1.5172027438e+00	 1.6292871361e-01	 3.5443668533e+00
 1.5153304266e+00	 1.7950941395e-01	 3.5056664785e+00
 1.5132687523e+00	 1.9613162573e-01	 3.4609514002e+00
 1.5110159851e+00	 2.1279244356e-01	 3.4092583141e+00
 1.5085704409e+00	 2.2948890240e-01	 3.3498012185e+00
 1.5059304892e+00	 2.4621797856e-01	 3.2821189107e+00
 1.5245678056e+00	 1.6371962970e-01	 3.5349733007e+00
 1.5226863995e+00	 1.8038081887e-01	 3.4962715578e+00
 1.5206147172e+00	 1.9708372101e-01	 3.4516006929e+00
 1.5183510142e+00	 2.1382541659e-01	 3.3997804103e+00
 1.5158935984e+00	 2.3060292620e-01	 3.3398018982e+00
 1.5132408314e+00	 2.4741321146e-01	 3.2709735099e+00
 1.5319328675e+00	 1.6451054578e-01	 3.5249323193e+00
 1.5300423725e+00	 1.8125222379e-01	 3.4862518985e+00
 1.5279606820e+00	 1.9803581628e-01	 3.4417019196e+00
 1.5256860433e+00	 2.1485838961e-01	 3.3899381077e+00
 1.5232167558e+00	 2.3171695000e-01	 3.3297807890e+00
 1.5205511736e+00	 2.4860844437e-01	 3.2603584669e+00
 1.5392979294e+00	 1.6530146187e-01	 3.5139559709e+00
 1.5373983454e+00	 1.8212362871e-01	 3.4752709348e+00
 1.5353066468e+00	 1.9898791155e-01	 3.4308585007e+00
 1.5330210723e+00	 2.1589136264e-01	 3.3792633885e+00
 1.5305399133e+00	 2.3283097380e-01	 3.3191869570e+00
 1.5278615158e+00	 2.4980367728e-01	 3.2496283789e+00
 1.5466629912e+00	 1.6609237795e-01	 3.5017577509e+00
 1.5447543184e+00	 1.8299503363e-01	 3.4629938085e+00
 1.5426526116e+00	 1.9994000682e-01	 3.4186761209e+00
 1.5403561014e+00	 2.1692433567e-01	 3.3672913691e+00
 1.5378630708e+00	 2.3394499760e-01	 3.3074738130e+00
 1.5351718580e+00	 2.5099891018e-01	 3.2381437670e+00
 1.4986201471e+00	 2.4502274565e-01	 3.2944460709e+00
 1.4957979805e+00	 2.6170000521e-01	 3.2291586990e+00
 1.4927792747e+00	 2.7840353445e-01	 3.1696246504e+00
 1.4895625809e+00	 2.9513015533e-01	 3.1124120607e+00
 1.4861465120e+00	 3.1187663578e-01	 3.0551265269e+00
 1.4825297449e+00	 3.2863969106e-01	 2.9966485283e+00
 1.5059304892e+00	 2.4621797856e-01	 3.2821189107e+00
 1.5030945560e+00	 2.6297659060e-01	 3.2142416433e+00
 1.5000611249e+00	 2.7976160047e-01	 3.1522582131e+00
 1.4968287399e+00	 2.9656981462e-01	 3.0937675821e+00
 1.4933960072e+00	 3.1339798522e-01	 3.0373891642e+00
 1.4897615973e+00	 3.3024281151e-01	 2.9829974568e+00
 1.5132408314e+00	 2.4741321146e-01	 3.2709735099e+00
 1.5103911315e+00	 2.6425317599e-01	 3.2012864828e+00
 1.5073429750e+00	 2.8111966650e-01	 3.1374641990e+00
 1.5040948988e+00	 2.9800947391e-01	 3.0778683767e+00
 1.5006455024e+00	 3.1491933466e-01	 3.0218650613e+00
 1.4969934497e+00	 3.3184593195e-01	 2.9700569219e+00
 1.5205511736e+00	 2.4860844437e-01	 3.2603584669e+00
 1.5176877070e+00	 2.6552976138e-01	 3.1895662048e+00
 1.5146248251e+00	 2.8247773252e-01	 3.1244959711e+00
 1.5113610577e+00	 2.9944913321e-01	 3.0640087491e+00
 1.5078949975e+00	 3.1644068411e-01	 3.0079545525e+00
 1.5042253022e+00	 3.3344905240e-01	 2.9574028306e+00
 1.5278615158e+00	 2.4980367728e-01	 3.2496283789e+00
 1.5249842825e+00	 2.6680634678e-01	 3.1783611678e+00
 1.5219066752e+00	 2.8383579854e-01	 3.1126147577e+00
 1.5186272167e+00	 3.0088879250e-01	 3.0514904191e+00
 1.5151444927e+00	 3.1796203355e-01	 2.9950639271e+00
 1.5114571546e+00	 3.3505217284e-01	 2.9446145076e+00
 1.5351718580e+00	 2.5099891018e-01	 3.2381437670e+00
 1.5322808580e+00	 2.6808293217e-01	 3.1669590213e+00
 1.5291885253e+00	 2.8519386456e-01	 3.1010895931e+00
 1.5258933756e+00	 3.0232845180e-01	 3.0396225120e+00
 1.5223939879e+00	 3.1948338299e-01	 2.9826054993e+00
 1.5186890070e+00	 3.3665529329e-01	 2.9312748775e+00
 1.4825297449e+00	 3.2863969106e-01	 2.9966485283e+00
 1.4787110226e+00	 3.4541598513e-01	 2.9157220316e+00
 1.4746891559e+00	 3.6220213210e-01	 2.8029979408e+00
 1.4704630258e+00	 3.7899469779e-01	 2.6762207415e+00
 1.4660315848e+00	 3.9579020140e-01	 2.5643623639e+00
 1.4613938594e+00	 4.1258511717e-01	 2.4872590470e+00
 1.4897615973e+00	 3.3024281151e-01	 2.9829974568e+00
 1.4859242471e+00	 3.4710094116e-01	 2.9077931032e+00
 1.4818827616e+00	 3.6396897177e-01	 2.7950276757e+00
 1.4776360161e+00	 3.8084345242e-01	 2.6637746610e+00
 1.4731829584e+00	 3.9772088531e-01	 2.5478954324e+00
 1.4685226099e+00	 4.1459772750e-01	 2.4673703022e+00
 1.4969934497e+00	 3.3184593195e-01	 2.9700569219e+00
 1.4931374716e+00	 3.4878589718e-01	 2.8999173815e+00
 1.4890763672e+00	 3.6573581144e-01	 2.7944369232e+00
 1.4848090065e+00	 3.8269220704e-01	 2.6691291569e+00
 1.4803343319e+00	 3.9965156922e-01	 2.5490836469e+00
 1.4756513604e+00	 4.1661033783e-01	 2.4608579557e+00
 1.5042253022e+00	 3.3344905240e-01	 2.9574028306e+00
 1.5003506961e+00	 3.5047085321e-01	 2.8899298932e+00
 1.4962699728e+00	 3.6750265111e-01	 2.7883359359e+00
 1.4919819969e+00	 3.8454096166e-01	 2.6692959675e+00
 1.4874857055e+00	 4.0158225313e-01	 2.5569751043e+00
 1.4827801110e+00	 4.1862294816e-01	 2.4680115504e+00
 1.5114571546e+00	 3.3505217284e-01	 2.9446145076e+00
 1.5075639206e+00	 3.5215580923e-01	 2.8776129160e+00
 1.5034635785e+00	 3.6926949077e-01	 2.7766976023e+00
 1.4991549872e+00	 3.8638971629e-01	 2.6599532754e+00
 1.4946370791e+00	 4.0351293704e-01	 2.5510042364e+00
 1.4899088615e+00	 4.2063555849e-01	 2.4671120149e+00
 1.5186890070e+00	 3.3665529329e-01	 2.9312748775e+00
 1.5147771451e+00	 3.5384076526e-01	 2.8627496085e+00
 1.5106571841e+00	 3.7103633044e-01	 2.7595034478e+00
 1.5063279776e+00	 3.8823847091e-01	 2.6412592413e+00
 1.5017884527e+00	 4.0544362095e-01	 2.5310918418e+00
 1.4970376120e+00	 4.2264816881e-01	 2.4471228097e+00
 1.4613938594e+00	 4.1258511717e-01	 2.4872590470e+00
 1.4565489515e+00	 4.2937587622e-01	 2.4263498115e+00
 1.4514960404e+00	 4.4615886838e-01	 2.3516603845e+00
 1.4462343845e+00	 4.6293044418e-01	 2.2643262826e+00
 1.4407633230e+00	 4.7968691687e-01	 2.1655136817e+00
 1.4350822774e+00	 4.9642456451e-01	 2.0563392360e+00
 1.4685226099e+00	 4.1459772750e-01	 2.4673703022e+00
 1.4636540683e+00	 4.3147039269e-01	 2.4053864567e+00
 1.4585765089e+00	 4.4833525310e-01	 2.3323192579e+00
 1.4532891864e+00	 4.6518864147e-01	 2.2480667906e+00
 1.4477914368e+00	 4.8202685305e-01	 2.1525632569e+00
 1.4420826787e+00	 4.9884614775e-01	 2.0456998066e+00
 1.4756513604e+00	 4.1661033783e-01	 2.4608579557e+00
 1.4707591851e+00	 4.3356490916e-01	 2.3931017937e+00
 1.4656569774e+00	 4.5051163782e-01	 2.3171237900e+00
 1.4603439883e+00	 4.6744683876e-01	 2.2320590004e+00
 1.4548195505e+00	 4.8436678923e-01	 2.1370745142e+00
 1.4490830801e+00	 5.0126773099e-01	 2.0312900882e+00
 1.4827801110e+00	 4.1862294816e-01	 2.4680115504e+00
 1.4778643020e+00	 4.3565942563e-01	 2.3903991789e+00
 1.4727374459e+00	 4.5268802255e-01	 2.3068980123e+00
 1.4673987901e+00	 4.6970503605e-01	 2.2169226176e+00
 1.4618476643e+00	 4.8670672541e-01	 2.1193310961e+00
 1.4560834814e+00	 5.0368931423e-01	 2.0129192352e+00
 1.4899088615e+00	 4.2063555849e-01	 2.4671120149e+00
 1.4849694188e+00	 4.3775394210e-01	 2.3938354557e+00
 1.4798179143e+00	 4.5486440727e-01	 2.3024407249e+00
 1.4744535920e+00	 4.7196323334e-01	 2.2032561872e+00
 1.4688757781e+00	 4.8904666159e-01	 2.0996021997e+00
 1.4630838828e+00	 5.0611089748e-01	 1.9903914452e+00
 1.4970376120e+00	 4.2264816881e-01	 2.4471228097e+00
 1.4920745356e+00	 4.3984845856e-01	 2.3772951463e+00
 1.4868983828e+00	 4.5704079200e-01	 2.2937821130e+00
 1.4815083939e+00	 4.7422143062e-01	 2.1916375800e+00
 1.4759038918e+00	 4.9138659777e-01	 2.0781432252e+00
 1.4700842841e+00	 5.0853248072e-01	 1.9635064367e+00
 1.4350822774e+00	 4.9642456451e-01	 2.0563392360e+00
 1.4291907532e+00	 5.1313963215e-01	 1.9393079145e+00
 1.4230883414e+00	 5.2982833409e-01	 1.8194689166e+00
 1.4167747200e+00	 5.4648685619e-01	 1.7014370548e+00
 1.4102496549e+00	 5.6311135826e-01	 1.5894565277e+00
 1.4035130021e+00	 5.7969797650e-01	 1.4873322557e+00
 1.4420826787e+00	 4.9884614775e-01	 2.0456998066e+00
 1.4361624154e+00	 5.1564275231e-01	 1.9287592365e+00
 1.4300302358e+00	 5.3241286255e-01	 1.8071204561e+00
 1.4236858161e+00	 5.4915264573e-01	 1.6864885728e+00
 1.4171289216e+00	 5.6585824293e-01	 1.5721716892e+00
 1.4103594070e+00	 5.8252577151e-01	 1.4690087801e+00
 1.4490830801e+00	 5.0126773099e-01	 2.0312900882e+00
 1.4431340776e+00	 5.1814587246e-01	 1.9148707322e+00
 1.4369721301e+00	 5.3499739101e-01	 1.7929236770e+00
 1.4305969123e+00	 5.5181843527e-01	 1.6716391576e+00
 1.4240081882e+00	 5.6860512761e-01	 1.5567961148e+00
 1.4172058119e+00	 5.8535356652e-01	 1.4536881427e+00
 1.4560834814e+00	 5.0368931423e-01	 2.0129192352e+00
 1.4501057398e+00	 5.2064899262e-01	 1.8969837507e+00
 1.4439140245e+00	 5.3758191947e-01	 1.7759145692e+00
 1.4375080085e+00	 5.5448422482e-01	 1.6557911204e+00
 1.4308874548e+00	 5.7135201228e-01	 1.5422792113e+00
 1.4240522168e+00	 5.8818136152e-01	 1.4405565587e+00
 1.4630838828e+00	 5.0611089748e-01	 1.9903914452e+00
 1.4570774020e+00	 5.2315211278e-01	 1.8744441702e+00
 1.4508559188e+00	 5.4016644792e-01	 1.7551401509e+00
 1.4444191047e+00	 5.5715001436e-01	 1.6378611350e+00
 1.4377667214e+00	 5.7409889695e-01	 1.5275847385e+00
 1.4308986217e+00	 5.9100915653e-01	 1.4288110670e+00
 1.4700842841e+00	 5.0853248072e-01	 1.9635064367e+00
 1.4640490642e+00	 5.2565523293e-01	 1.8466027068e+00
 1.4577978132e+00	 5.4275097638e-01	 1.7296586829e+00
 1.4513302009e+00	 5.5981580390e-01	 1.6167804349e+00
 1.4446459880e+00	 5.7684578163e-01	 1.5116910723e+00
 1.4377450266e+00	 5.9383695154e-01	 1.4176599457e+00
 1.4035130021e+00	 5.7969797650e-01	 1.4873322557e+00
 1.3965647079e+00	 5.9624282605e-01	 1.3841716304e+00
 1.3894048108e+00	 6.1274200350e-01	 1.2705803350e+00
 1.3820334420e+00	 6.2919158958e-01	 1.1516570691e+00
 1.3744508267e+00	 6.4558765183e-01	 1.0316769818e+00
 1.3666572848e+00	 6.6192624731e-01	 9.1404446963e-01
 1.4103594070e+00	 5.8252577151e-01	 1.4690087801e+00
 1.4033772187e+00	 5.9915132764e-01	 1.3661078469e+00
 1.3961823952e+00	 6.1573098888e-01	 1.2531235328e+00
 1.3887750685e+00	 6.3226081685e-01	 1.1347282453e+00
 1.3811554648e+00	 6.4873685989e-01	 1.0147603376e+00
 1.3733239057e+00	 6.6515515583e-01	 8.9617825518e-01
 1.4172058119e+00	 5.8535356652e-01	 1.4536881427e+00
 1.4101897295e+00	 6.0205982923e-01	 1.3511045978e+00
 1.4029599797e+00	 6.1871997426e-01	 1.2380657149e+00
 1.3955166950e+00	 6.3533004411e-01	 1.1191968213e+00
 1.3878601030e+00	 6.5188606795e-01	 9.9826952278e-01
 1.3799905266e+00	 6.6838406435e-01	 8.7815629614e-01
 1.4240522168e+00	 5.8818136152e-01	 1.4405565587e+00
 1.4170022403e+00	 6.0496833082e-01	 1.3386385025e+00
 1.4097375641e+00	 6.2170895965e-01	 1.2250817577e+00
 1.4022583216e+00	 6.3839927138e-01	 1.1048381893e+00
 1.3945647412e+00	 6.5503527600e-01	 9.8197715424e-01
 1.3866571475e+00	 6.7161297288e-01	 8.5963964832e-01
 1.4308986217e+00	 5.9100915653e-01	 1.4288110670e+00
 1.4238147510e+00	 6.0787683241e-01	 1.3281925544e+00
 1.4165151486e+00	 6.2469794503e-01	 1.2138503240e+00
 1.4089999481e+00	 6.4146849865e-01	 1.0914308997e+00
 1.4012693794e+00	 6.5818448406e-01	 9.6566043653e-01
 1.3933237684e+00	 6.7484188140e-01	 8.4029753672e-01
 1.4377450266e+00	 5.9383695154e-01	 1.4176599457e+00
 1.4306272618e+00	 6.1078533400e-01	 1.3192567126e+00
 1.4232927330e+00	 6.2768693041e-01	 1.2040545878e+00
 1.4157415747e+00	 6.4453772591e-01	 1.0787574759e+00
 1.4079740175e+00	 6.6133369212e-01	 9.4910201818e-01
 1.3999903893e+00	 6.7807078992e-01	 8.1980820341e-01
 1.3666572848e+00	 6.6192624731e-01	 9.1404446963e-01
 1.3586532320e+00	 6.7820342539e-01	 7.9980002876e-01
 1.3504391799e+00	 6.9441523062e-01	 6.8724010020e-01
 1.3420157369e+00	 7.1055770552e-01	 5.7441059053e-01
 1.3333836090e+00	 7.2662689354e-01	 4.5859982118e-01
 1.3245435994e+00	 7.4261884196e-01	 3.3593939743e-01
 1.3733239057e+00	 6.6515515583e-01	 8.9617825518e-01
 1.3652808088e+00	 6.8151173479e-01	 7.8068911371e-01
 1.3570266881e+00	 6.9780262199e-01	 6.6786281219e-01
 1.3485621552e+00	 7.1402384067e-01	 5.5620002418e-01
 1.3398879193e+00	 7.3017141497e-01	 4.4343940111e-01
 1.3310047877e+00	 7.4624137289e-01	 3.2323100115e-01
 1.3799905266e+00	 6.6838406435e-01	 8.7815629614e-01
 1.3719083855e+00	 6.8482004418e-01	 7.6149443250e-01
 1.3636141963e+00	 7.0119001336e-01	 6.4900001516e-01
 1.3551085734e+00	 7.1748997582e-01	 5.3939632097e-01
 1.3463922295e+00	 7.3371593640e-01	 4.3064357965e-01
 1.3374659760e+00	 7.4986390383e-01	 3.1105231123e-01
 1.3866571475e+00	 6.7161297288e-01	 8.5963964832e-01
 1.3785359622e+00	 6.8812835357e-01	 7.4173136031e-01
 1.3702017045e+00	 7.0457740473e-01	 6.3006774308e-01
 1.3616549916e+00	 7.2095611097e-01	 5.2336571489e-01
 1.3528965398e+00	 7.3726045783e-01	 4.1958147973e-01
 1.3439271642e+00	 7.5348643477e-01	 2.9908127952e-01
 1.3933237684e+00	 6.7484188140e-01	 8.4029753672e-01
 1.3851635390e+00	 6.9143666296e-01	 7.2092773474e-01
 1.3767892127e+00	 7.0796479610e-01	 6.1049794547e-01
 1.3682014099e+00	 7.2442224612e-01	 5.0749289429e-01
 1.3594008501e+00	 7.4080497926e-01	 4.0964183070e-01
 1.3503883525e+00	 7.5710896570e-01	 2.8701521829e-01
 1.3999903893e+00	 6.7807078992e-01	 8.1980820341e-01
 1.3917911157e+00	 6.9474497236e-01	 6.9862467943e-01
 1.3833767209e+00	 7.1135218747e-01	 5.8973930744e-01
 1.3747478281e+00	 7.2788838126e-01	 4.9118184070e-01
 1.3659051604e+00	 7.4434950070e-01	 3.9901909541e-01
 1.3568495408e+00	 7.6073149664e-01	 2.7457008201e-01
 1.3245435994e+00	 7.4261884196e-01	 3.3593939743e-01
 1.3154966095e+00	 7.5852960487e-01	 2.1335909428e-01
 1.3062436388e+00	 7.7435524614e-01	 1.0672039471e-01
 1.2967857848e+00	 7.9009184244e-01	 6.5552815016e-03
 1.2871242432e+00	 8.0573548622e-01	-9.6872108381e-02
 1.2772603075e+00	 8.2128228878e-01	-2.1346491019e-01
 1.3310047877e+00	 7.4624137289e-01	 3.2323100115e-01
 1.3219136661e+00	 7.6222974928e-01	 1.9578469818e-01
 1.3126155590e+00	 7.7813258881e-01	 8.6423165222e-02
 1.3031115691e+00	 7.9394594899e-01	-1.4590142998e-02
 1.2934028980e+00	 8.0966590323e-01	-1.1730826317e-01
 1.2834908456e+00	 8.2528854385e-01	-2.3199812288e-01
 1.3374659760e+00	 7.4986390383e-01	 3.1105231123e-01
 1.3283307228e+00	 7.6592989370e-01	 1.7954114836e-01
 1.3189874792e+00	 7.8190993147e-01	 6.7664788763e-02
 1.3094373534e+00	 7.9780005553e-01	-3.4384570094e-02
 1.2996815528e+00	 8.1359632023e-01	-1.3678346387e-01
 1.2897213837e+00	 8.2929479892e-01	-2.4997297910e-01
 1.3439271642e+00	 7.5348643477e-01	 2.9908127952e-01
 1.3347477794e+00	 7.6963003811e-01	 1.6438685577e-01
 1.3253593993e+00	 7.8568727413e-01	 5.0256657638e-02
 1.3157631377e+00	 8.0165416208e-01	-5.2993852989e-02
 1.3059602077e+00	 8.1752673724e-01	-1.5547379239e-01
 1.2959519218e+00	 8.3330105399e-01	-2.6761153297e-01
 1.3503883525e+00	 7.5710896570e-01	 2.8701521829e-01
 1.3411648360e+00	 7.7333018252e-01	 1.5009776504e-01
 1.3317313195e+00	 7.8946461680e-01	 3.4026468129e-02
 1.3220889220e+00	 8.0550826863e-01	-7.0568116485e-02
 1.3122388625e+00	 8.2145715424e-01	-1.7353946768e-01
 1.3021824599e+00	 8.3730730905e-01	-2.8511907602e-01
 1.3568495408e+00	 7.6073149664e-01	 2.7457008201e-01
 1.3475818927e+00	 7.7703032694e-01	 1.3646666410e-01
 1.3381032397e+00	 7.9324195946e-01	 1.8817546519e-02
 1.3284147064e+00	 8.0936237518e-01	-8.7242427306e-02
 1.3185175174e+00	 8.2538757125e-01	-1.9112552643e-01
 1.3084129980e+00	 8.4131356412e-01	-3.0268484349e-01
 1.2772603075e+00	 8.2128228878e-01	-2.1346491019e-01
 1.2671953692e+00	 8.3672838329e-01	-3.3204570660e-01
 1.2569309166e+00	 8.5206992780e-01	-4.3850044770e-01
 1.2464685353e+00	 8.6730310829e-01	-5.3844480720e-01
 1.2358099066e+00	 8.8242414169e-01	-6.3746765542e-01
 1.2249568076e+00	 8.9742927889e-01	-7.4099440217e-01
 1.2834908456e+00	 8.2528854385e-01	-2.3199812288e-01
 1.2733768100e+00	 8.4080998516e-01	-3.4887363450e-01
 1.2630622870e+00	 8.5622636647e-01	-4.5472097562e-01
 1.2525488696e+00	 8.7153385516e-01	-5.5481872528e-01
 1.2418382476e+00	 8.8672864970e-01	-6.5441984235e-01
 1.2309322067e+00	 9.0180698269e-01	-7.5861248011e-01
 1.2897213837e+00	 8.2929479892e-01	-2.4997297910e-01
 1.2795582508e+00	 8.4489158703e-01	-3.6528358416e-01
 1.2691936573e+00	 8.6038280515e-01	-4.7035070803e-01
 1.2586292039e+00	 8.7576460203e-01	-5.7026493140e-01
 1.2478665886e+00	 8.9103315771e-01	-6.7009174046e-01
 1.2369076057e+00	 9.0618468648e-01	-7.7472941380e-01
 1.2959519218e+00	 8.3330105399e-01	-2.6761153297e-01
 1.2857396917e+00	 8.4897318890e-01	-3.8155540646e-01
 1.2753250276e+00	 8.6453924382e-01	-4.8571197331e-01
 1.2647095382e+00	 8.7999534890e-01	-5.8513086483e-01
 1.2538949296e+00	 8.9533766572e-01	-6.8483652682e-01
 1.2428830048e+00	 9.1056239028e-01	-7.8968278070e-01
 1.3021824599e+00	 8.3730730905e-01	-2.8511907602e-01
 1.2919211325e+00	 8.5305479077e-01	-3.9795098191e-01
 1.2814563979e+00	 8.6869568249e-01	-5.0110813299e-01
 1.2707898725e+00	 8.8422609577e-01	-5.9974425356e-01
 1.2599232706e+00	 8.9964217373e-01	-6.9898721556e-01
 1.2488584038e+00	 9.1494009408e-01	-8.0378987782e-01
 1.3084129980e+00	 8.4131356412e-01	-3.0268484349e-01
 1.2981025733e+00	 8.5713639264e-01	-4.1471495675e-01
 1.2875877683e+00	 8.7285212116e-01	-5.1682433983e-01
 1.2768702069e+00	 8.8845684264e-01	-6.1441388521e-01
 1.2659516116e+00	 9.0394668173e-01	-7.1285743180e-01
 1.2548338029e+00	 9.1931779788e-01	-8.1734848755e-01
 1.2249568076e+00	 8.9742927889e-01	-7.4099440217e-01
 1.2139111099e+00	 9.1231480769e-01	-8.3933260113e-01
 1.2026747788e+00	 9.2707705583e-01	-9.2484383636e-01
 1.1912498723e+00	 9.4171239387e-01	-1.0052894844e+00
 1.1796385398e+00	 9.5621723813e-01	-1.0875796103e+00
 1.1678430209e+00	 9.7058805350e-01	-1.1776010432e+00
 1.2309322067e+00	 9.0180698269e-01	-7.5861248011e-01
 1.2198326275e+00	 9.1676512383e-01	-8.5712335816e-01
 1.2085414851e+00	 9.3159938293e-01	-9.4223501756e-01
 1.1970608473e+00	 9.4630611287e-01	-1.0221161274e+00
 1.1853928741e+00	 9.6088171246e-01	-1.1040724607e+00
 1.1735398161e+00	 9.7532262937e-01	-1.1943694208e+00
 1.2369076057e+00	 9.0618468648e-01	-7.7472941380e-01
 1.2257541451e+00	 9.2121543996e-01	-8.7344211682e-01
 1.2144081913e+00	 9.3612171004e-01	-9.5838412627e-01
 1.2028718223e+00	 9.5089983186e-01	-1.0380246690e+00
 1.1911472085e+00	 9.6554618679e-01	-1.1199561501e+00
 1.1792366114e+00	 9.8005720524e-01	-1.2107112485e+00
 1.2428830048e+00	 9.1056239028e-01	-7.8968278070e-01
 1.2316756627e+00	 9.2566575610e-01	-8.8858903377e-01
 1.2202748975e+00	 9.4064403714e-01	-9.7353402886e-01
 1.2086827973e+00	 9.5549355086e-01	-1.0531825748e+00
 1.1969015428e+00	 9.7021066112e-01	-1.1353064390e+00
 1.1849334066e+00	 9.8479178111e-01	-1.2265961269e+00
 1.2488584038e+00	 9.1494009408e-01	-8.0378987782e-01
 1.2375971803e+00	 9.3011607223e-01	-9.0284421566e-01
 1.2261416038e+00	 9.4516636424e-01	-9.8790808832e-01
 1.2144937723e+00	 9.6008726985e-01	-1.0677386431e+00
 1.2026558772e+00	 9.7487513546e-01	-1.1501815193e+00
 1.1906302018e+00	 9.8952635698e-01	-1.2419774214e+00
 1.2548338029e+00	 9.1931779788e-01	-8.1734848755e-01
 1.2435186980e+00	 9.3456638837e-01	-9.1646846579e-01
 1.2320083100e+00	 9.4968869134e-01	-1.0017108816e+00
 1.2203047473e+00	 9.6468098885e-01	-1.0818236832e+00
 1.2084102115e+00	 9.7953960979e-01	-1.1646226440e+00
 1.1963269970e+00	 9.9426093286e-01	-1.2567928368e+00
 1.1678430209e+00	 9.7058805350e-01	-1.1776010432e+00
 1.1558656441e+00	 9.8482135635e-01	-1.2718694578e+00
 1.1437088251e+00	 9.9891371722e-01	-1.3612429538e+00
 1.1313750655e+00	 1.0128617636e+00	-1.4408580064e+00
 1.1188669510e+00	 1.0266621826e+00	-1.5038710311e+00
 1.1061871493e+00	 1.0403117234e+00	-1.5417785300e+00
 1.1735398161e+00	 9.7532262937e-01	-1.1943694208e+00
 1.1615040131e+00	 9.8962536297e-01	-1.2887350848e+00
 1.1492878925e+00	 1.0037864671e+00	-1.3772716896e+00
 1.1368939683e+00	 1.0178025527e+00	-1.4555106759e+00
 1.1243248385e+00	 1.0316702908e+00	-1.5169786693e+00
 1.1115831841e+00	 1.0453864147e+00	-1.5530423864e+00
 1.1792366114e+00	 9.8005720524e-01	-1.2107112485e+00
 1.1671423821e+00	 9.9442936958e-01	-1.3052158233e+00
 1.1548669600e+00	 1.0086592169e+00	-1.3928811350e+00
 1.1424128711e+00	 1.0227433418e+00	-1.4696441712e+00
 1.1297827261e+00	 1.0366783990e+00	-1.5294178547e+00
 1.1169792190e+00	 1.0504611061e+00	-1.5639297486e+00
 1.1849334066e+00	 9.8479178111e-01	-1.2265961269e+00
 1.1727807511e+00	 9.9923337620e-01	-1.3211919233e+00
 1.1604460274e+00	 1.0135319667e+00	-1.4079091635e+00
 1.1479317738e+00	 1.0276841309e+00	-1.4831011605e+00
 1.1352406137e+00	 1.0416865072e+00	-1.5410833723e+00
 1.1223752539e+00	 1.0555357974e+00	-1.5739657463e+00
 1.1906302018e+00	 9.8952635698e-01	-1.2419774214e+00
 1.1784191201e+00	 1.0040373828e+00	-1.3365283795e+00
 1.1660250949e+00	 1.0184047166e+00	-1.4221784529e+00
 1.1534506766e+00	 1.0326249200e+00	-1.4957082612e+00
 1.1406985012e+00	 1.0466946154e+00	-1.5518521950e+00
 1.1277712888e+00	 1.0606104887e+00	-1.5831242359e+00
 1.1963269970e+00	 9.9426093286e-01	-1.2567928368e+00
 1.1840574891e+00	 1.0088413894e+00	-1.3510754567e+00
 1.1716041623e+00	 1.0232774664e+00	-1.4354969795e+00
 1.1589695793e+00	 1.0375657091e+00	-1.5072765240e+00
 1.1461563888e+00	 1.0517027236e+00	-1.5615839779e+00
 1.1331673236e+00	 1.0656851801e+00	-1.5913591276e+00
 1.1061871493e+00	 1.0403117234e+00	-1.5417785300e+00
 1.0933384087e+00	 1.0538072002e+00	-1.5873488496e+00
 1.0803235560e+00	 1.0671454941e+00	-1.6633395428e+00
 1.0671454941e+00	 1.0803235560e+00	-1.7480449843e+00
 1.0538072002e+00	 1.0933384087e+00	-1.8193719003e+00
 1.0403117234e+00	 1.1061871493e+00	-1.8551022674e+00
 1.1115831841e+00	 1.0453864147e+00	-1.5530423864e+00
 1.0986717668e+00	 1.0589477231e+00	-1.5968536358e+00
 1.0855934270e+00	 1.0723510818e+00	-1.6738389881e+00
 1.0723510818e+00	 1.0855934270e+00	-1.7609956920e+00
 1.0589477231e+00	 1.0986717668e+00	-1.8349216467e+00
 1.0453864147e+00	 1.1115831841e+00	-1.8720816783e+00
 1.1169792190e+00	 1.0504611061e+00	-1.5639297486e+00
 1.1040051249e+00	 1.0640882460e+00	-1.6062565108e+00
 1.0908632980e+00	 1.0775566696e+00	-1.6840895669e+00
 1.0775566696e+00	 1.0908632980e+00	-1.7737606217e+00
 1.0640882460e+00	 1.1040051249e+00	-1.8506697778e+00
 1.0504611061e+00	 1.1169792190e+00	-1.8883657917e+00
 1.1223752539e+00	 1.0555357974e+00	-1.5739657463e+00
 1.1093384830e+00	 1.0692287689e+00	-1.6153463964e+00
 1.0961331690e+00	 1.0827622574e+00	-1.6940247331e+00
 1.0827622574e+00	 1.0961331690e+00	-1.7864081387e+00
 1.0692287689e+00	 1.1093384830e+00	-1.8668076943e+00
 1.0555357974e+00	 1.1223752539e+00	-1.9025194673e+00
 1.1277712888e+00	 1.0606104887e+00	-1.5831242359e+00
 1.1146718411e+00	 1.0743692919e+00	-1.6238682237e+00
 1.1014030400e+00	 1.0879678452e+00	-1.7035528098e+00
 1.0879678452e+00	 1.1014030400e+00	-1.7989810479e+00
 1.0743692919e+00	 1.1146718411e+00	-1.8826196942e+00
 1.0606104887e+00	 1.1277712888e+00	-1.9141235805e+00
 1.1331673236e+00	 1.0656851801e+00	-1.5913591276e+00
 1.1200051992e+00	 1.0795098148e+00	-1.6316505466e+00
 1.1066729110e+00	 1.0931734329e+00	-1.7125563156e+00
 1.0931734329e+00	 1.1066729110e+00	-1.8114959793e+00
 1.0795098148e+00	 1.1200051992e+00	-1.8951030008e+00
 1.0656851801e+00	 1.1331673236e+00	-1.9227643229e+00
 1.0403117234e+00	 1.1061871493e+00	-1.8551022674e+00
 1.0266621826e+00	 1.1188669510e+00	-1.8782524476e+00
 1.0128617636e+00	 1.1313750655e+00	-1.9132437285e+00
 9.9891371722e-01	 1.1437088251e+00	-1.9526963438e+00
 9.8482135635e-01	 1.1558656441e+00	-1.9922257193e+00
 9.7058805350e-01	 1.1678430209e+00	-2.0293061155e+00
 1.0453864147e+00	 1.1115831841e+00	-1.8720816783e+00
 1.0316702908e+00	 1.1243248385e+00	-1.8910726590e+00
 1.0178025527e+00	 1.1368939683e+00	-1.9220107937e+00
 1.0037864671e+00	 1.1492878925e+00	-1.9586766384e+00
 9.8962536297e-01	 1.1615040131e+00	-1.9968456827e+00
 9.7532262937e-01	 1.1735398161e+00	-2.0341583981e+00
 1.0504611061e+00	 1.1169792190e+00	-1.8883657917e+00
 1.0366783990e+00	 1.1297827261e+00	-1.9027923249e+00
 1.0227433418e+00	 1.1424128711e+00	-1.9302997270e+00
 1.0086592169e+00	 1.1548669600e+00	-1.9647167102e+00
 9.9442936958e-01	 1.1671423821e+00	-2.0018759124e+00
 9.8005720524e-01	 1.1792366114e+00	-2.0394791489e+00
 1.0555357974e+00	 1.1223752539e+00	-1.9025194673e+00
 1.0416865072e+00	 1.1352406137e+00	-1.9130474754e+00
 1.0276841309e+00	 1.1479317738e+00	-1.9377796640e+00
 1.0135319667e+00	 1.1604460274e+00	-1.9704937634e+00
 9.9923337620e-01	 1.1727807511e+00	-2.0069784046e+00
 9.8479178111e-01	 1.1849334066e+00	-2.0448936720e+00
 1.0606104887e+00	 1.1277712888e+00	-1.9141235805e+00
 1.0466946154e+00	 1.1406985012e+00	-1.9214775287e+00
 1.0326249200e+00	 1.1534506766e+00	-1.9441222300e+00
 1.0184047166e+00	 1.1660250949e+00	-1.9756869934e+00
 1.0040373828e+00	 1.1784191201e+00	-2.0118170234e+00
 9.8952635698e-01	 1.1906302018e+00	-2.0500293697e+00
 1.0656851801e+00	 1.1331673236e+00	-1.9227643229e+00
 1.0517027236e+00	 1.1461563888e+00	-1.9277259008e+00
 1.0375657091e+00	 1.1589695793e+00	-1.9490021394e+00
 1.0232774664e+00	 1.1716041623e+00	-1.9799781621e+00
 1.0088413894e+00	 1.1840574891e+00	-2.0160580430e+00
 9.9426093286e-01	 1.1963269970e+00	-2.0545162420e+00
 9.7058805350e-01	 1.1678430209e+00	-2.0293061155e+00
 9.5621723813e-01	 1.1796385398e+00	-2.0587235344e+00
 9.4171239387e-01	 1.1912498723e+00	-2.0779435295e+00
 9.2707705583e-01	 1.2026747788e+00	-2.0905916632e+00
 9.1231480769e-01	 1.2139111099e+00	-2.1012621712e+00
 8.9742927889e-01	 1.2249568076e+00	-2.1153655090e+00
 9.7532262937e-01	 1.1735398161e+00	-2.0341583981e+00
 9.6088171246e-01	 1.1853928741e+00	-2.0643549328e+00
 9.4630611287e-01	 1.1970608473e+00	-2.0838017477e+00
 9.3159938293e-01	 1.2085414851e+00	-2.0962428599e+00
 9.1676512383e-01	 1.2198326275e+00	-2.1064274914e+00
 9.0180698269e-01	 1.2309322067e+00	-2.1199524681e+00
 9.8005720524e-01	 1.1792366114e+00	-2.0394791489e+00
 9.6554618679e-01	 1.1911472085e+00	-2.0703418125e+00
 9.5089983186e-01	 1.2028718223e+00	-2.0899347128e+00
 9.3612171004e-01	 1.2144081913e+00	-2.1021369874e+00
 9.2121543996e-01	 1.2257541451e+00	-2.1118686020e+00
 9.0618468648e-01	 1.2369076057e+00	-2.1249274380e+00
 9.8479178111e-01	 1.1849334066e+00	-2.0448936720e+00
 9.7021066112e-01	 1.1969015428e+00	-2.0762576410e+00
 9.5549355086e-01	 1.2086827973e+00	-2.0958540592e+00
 9.4064403714e-01	 1.2202748975e+00	-2.1077138897e+00
 9.2566575610e-01	 1.2316756627e+00	-2.1169436486e+00
 9.1056239028e-01	 1.2428830048e+00	-2.1295570134e+00
 9.8952635698e-01	 1.1906302018e+00	-2.0500293697e+00
 9.7487513546e-01	 1.2026558772e+00	-2.0816784578e+00
 9.6008726985e-01	 1.2144937723e+00	-2.1010746249e+00
 9.4516636424e-01	 1.2261416038e+00	-2.1124174147e+00
 9.3011607223e-01	 1.2375971803e+00	-2.1210157600e+00
 9.1494009408e-01	 1.2488584038e+00	-2.1331139413e+00
 9.9426093286e-01	 1.1963269970e+00	-2.0545162420e+00
 9.7953960979e-01	 1.2084102115e+00	-2.0861833255e+00
 9.6468098885e-01	 1.2203047473e+00	-2.1051148494e+00
 9.4968869134e-01	 1.2320083100e+00	-2.1156957544e+00
 9.3456638837e-01	 1.2435186980e+00	-2.1234533268e+00
 9.1931779788e-01	 1.2548338029e+00	-2.1348773342e+00
 8.9742927889e-01	 1.2249568076e+00	-2.1153655090e+00
 8.8242414169e-01	 1.2358099066e+00	-2.1279665052e+00
 8.6730310829e-01	 1.2464685353e+00	-2.1325356878e+00
 8.5206992780e-01	 1.2569309166e+00	-2.1328359109e+00
 8.3672838329e-01	 1.2671953692e+00	-2.1328193895e+00
 8.2128228878e-01	 1.2772603075e+00	-2.1364968235e+00
 9.0180698269e-01	 1.2309322067e+00	-2.1199524681e+00
 8.8672864970e-01	 1.2418382476e+00	-2.1317223022e+00
 8.7153385516e-01	 1.2525488696e+00	-2.1349589679e+00
 8.5622636647e-01	 1.2630622870e+00	-2.1334926140e+00
 8.4080998516e-01	 1.2733768100e+00	-2.1313299245e+00
 8.2528854385e-01	 1.2834908456e+00	-2.1325194020e+00
 9.0618468648e-01	 1.2369076057e+00	-2.1249274380e+00
 8.9103315771e-01	 1.2478665886e+00	-2.1359823567e+00
 8.7576460203e-01	 1.2586292039e+00	-2.1379311723e+00
 8.6038280515e-01	 1.2691936573e+00	-2.1346903675e+00
 8.4489158703e-01	 1.2795582508e+00	-2.1303475121e+00
 8.2929479892e-01	 1.2897213837e+00	-2.1290224828e+00
 9.1056239028e-01	 1.2428830048e+00	-2.1295570134e+00
 8.9533766572e-01	 1.2538949296e+00	-2.1399493093e+00
 8.7999534890e-01	 1.2647095382e+00	-2.1406559963e+00
 8.6453924382e-01	 1.2753250276e+00	-2.1356988649e+00
 8.4897318890e-01	 1.2857396917e+00	-2.1292726301e+00
 8.3330105399e-01	 1.2959519218e+00	-2.1256018646e+00
 9.1494009408e-01	 1.2488584038e+00	-2.1331139413e+00
 8.9964217373e-01	 1.2599232706e+00	-2.1428326071e+00
 8.8422609577e-01	 1.2707898725e+00	-2.1423433751e+00
 8.6869568249e-01	 1.2814563979e+00	-2.1357922636e+00
 8.5305479077e-01	 1.2919211325e+00	-2.1275072479e+00
 8.3730730905e-01	 1.3021824599e+00	-2.1218506817e+00
 9.1931779788e-01	 1.2548338029e+00	-2.1348773342e+00
 9.0394668173e-01	 1.2659516116e+00	-2.1438486632e+00
 8.8845684264e-01	 1.2768702069e+00	-2.1422096191e+00
 8.7285212116e-01	 1.2875877683e+00	-2.1342493257e+00
 8.5713639264e-01	 1.2981025733e+00	-2.1244550018e+00
 8.4131356412e-01	 1.3084129980e+00	-2.1173596450e+00
 8.2128228878e-01	 1.2772603075e+00	-2.1364968235e+00
 8.0573548622e-01	 1.2871242432e+00	-2.1316141920e+00
 7.9009184244e-01	 1.2967857848e+00	-2.1105481092e+00
 7.7435524614e-01	 1.3062436388e+00	-2.0841686851e+00
 7.5852960487e-01	 1.3154966095e+00	-2.0631808370e+00
 7.4261884196e-01	 1.3245435994e+00	-2.0580178371e+00
 8.2528854385e-01	 1.2834908456e+00	-2.1325194020e+00
 8.0966590323e-01	 1.2934028980e+00	-2.1259125031e+00
 7.9394594899e-01	 1.3031115691e+00	-2.1047142479e+00
 7.7813258881e-01	 1.3126155590e+00	-2.0793877047e+00
 7.6222974928e-01	 1.3219136661e+00	-2.0602098815e+00
 7.4624137289e-01	 1.3310047877e+00	-2.0571637860e+00
 8.2929479892e-01	 1.2897213837e+00	-2.1290224828e+00
 8.1359632023e-01	 1.2996815528e+00	-2.1206803412e+00
 7.9780005553e-01	 1.3094373534e+00	-2.0993283068e+00
 7.8190993147e-01	 1.3189874792e+00	-2.0749992683e+00
 7.6592989370e-01	 1.3283307228e+00	-2.0575053772e+00
 7.4986390383e-01	 1.3374659760e+00	-2.0563287853e+00
 8.3330105399e-01	 1.2959519218e+00	-2.1256018646e+00
 8.1752673724e-01	 1.3059602077e+00	-2.1156876844e+00
 8.0165416208e-01	 1.3157631377e+00	-2.0942282203e+00
 7.8568727413e-01	 1.3253593993e+00	-2.0708036904e+00
 7.6963003811e-01	 1.3347477794e+00	-2.0547251855e+00
 7.5348643477e-01	 1.3439271642e+00	-2.0549242458e+00
 8.3730730905e-01	 1.3021824599e+00	-2.1218506817e+00
 8.2145715424e-01	 1.3122388625e+00	-2.1106981561e+00
 8.0550826863e-01	 1.3220889220e+00	-2.0892439784e+00
 7.8946461680e-01	 1.3317313195e+00	-2.0665938462e+00
 7.7333018252e-01	 1.3411648360e+00	-2.0515223192e+00
 7.5710896570e-01	 1.3503883525e+00	-2.0523613957e+00
 8.4131356412e-01	 1.3084129980e+00	-2.1173596450e+00
 8.2538757125e-01	 1.3185175174e+00	-2.1054693209e+00
 8.0936237518e-01	 1.3284147064e+00	-2.0841979291e+00
 7.9324195946e-01	 1.3381032397e+00	-2.0621554320e+00
 7.7703032694e-01	 1.3475818927e+00	-2.0475451145e+00
 7.6073149664e-01	 1.3568495408e+00	-2.0480513146e+00
 7.4261884196e-01	 1.3245435994e+00	-2.0580178371e+00
 7.2662689354e-01	 1.3333836090e+00	-2.0502787201e+00
 7.1055770552e-01	 1.3420157369e+00	-2.0265427659e+00
 6.9441523062e-01	 1.3504391799e+00	-1.9941120605e+00
 6.7820342539e-01	 1.3586532320e+00	-1.9591088166e+00
 6.6192624731e-01	 1.3666572848e+00	-1.9267069514e+00
 7.4624137289e-01	 1.3310047877e+00	-2.0571637860e+00
 7.3017141497e-01	 1.3398879193e+00	-2.0465051723e+00
 7.1402384067e-01	 1.3485621552e+00	-2.0188832856e+00
 6.9780262199e-01	 1.3570266881e+00	-1.9834041501e+00
 6.8151173479e-01	 1.3652808088e+00	-1.9463988085e+00
 6.6515515583e-01	 1.3733239057e+00	-1.9132101354e+00
 7.4986390383e-01	 1.3374659760e+00	-2.0563287853e+00
 7.3371593640e-01	 1.3463922295e+00	-2.0439794549e+00
 7.1748997582e-01	 1.3551085734e+00	-2.0122211668e+00
 7.0119001336e-01	 1.3636141963e+00	-1.9734245643e+00
 6.8482004418e-01	 1.3719083855e+00	-1.9341801532e+00
 6.6838406435e-01	 1.3799905266e+00	-1.9000674618e+00
 7.5348643477e-01	 1.3439271642e+00	-2.0549242458e+00
 7.3726045783e-01	 1.3528965398e+00	-2.0417857988e+00
 7.2095611097e-01	 1.3616549916e+00	-2.0055708847e+00
 7.0457740473e-01	 1.3702017045e+00	-1.9632737083e+00
 6.8812835357e-01	 1.3785359622e+00	-1.9217939504e+00
 6.7161297288e-01	 1.3866571475e+00	-1.8870143834e+00
 7.5710896570e-01	 1.3503883525e+00	-2.0523613957e+00
 7.4080497926e-01	 1.3594008501e+00	-2.0390146620e+00
 7.2442224612e-01	 1.3682014099e+00	-1.9979540308e+00
 7.0796479610e-01	 1.3767892127e+00	-1.9520568463e+00
 6.9143666296e-01	 1.3851635390e+00	-1.9085809927e+00
 6.7484188140e-01	 1.3933237684e+00	-1.8737779991e+00
 7.6073149664e-01	 1.3568495408e+00	-2.0480513146e+00
 7.4434950070e-01	 1.3659051604e+00	-2.0341117259e+00
 7.2788838126e-01	 1.3747478281e+00	-1.9883997179e+00
 7.1135218747e-01	 1.3833767209e+00	-1.9388845129e+00
 6.9474497236e-01	 1.3917911157e+00	-1.8938822530e+00
 6.7807078992e-01	 1.3999903893e+00	-1.8600776863e+00
 6.6192624731e-01	 1.3666572848e+00	-1.9267069514e+00
 6.4558765183e-01	 1.3744508267e+00	-1.8983887186e+00
 6.2919158958e-01	 1.3820334420e+00	-1.8716190960e+00
 6.1274200350e-01	 1.3894048108e+00	-1.8440944940e+00
 5.9624282605e-01	 1.3965647079e+00	-1.8125518053e+00
 5.7969797650e-01	 1.4035130021e+00	-1.7728341388e+00
 6.6515515583e-01	 1.3733239057e+00	-1.9132101354e+00
 6.4873685989e-01	 1.3811554648e+00	-1.8846115223e+00
 6.3226081685e-01	 1.3887750685e+00	-1.8573150211e+00
 6.1573098888e-01	 1.3961823952e+00	-1.8291022826e+00
 5.9915132764e-01	 1.4033772187e+00	-1.7968118118e+00
 5.8252577151e-01	 1.4103594070e+00	-1.7564044874e+00
 6.6838406435e-01	 1.3799905266e+00	-1.9000674618e+00
 6.5188606795e-01	 1.3878601030e+00	-1.8713385864e+00
 6.3533004411e-01	 1.3955166950e+00	-1.8439613105e+00
 6.1871997426e-01	 1.4029599797e+00	-1.8155957234e+00
 6.0205982923e-01	 1.4101897295e+00	-1.7829508928e+00
 5.8535356652e-01	 1.4172058119e+00	-1.7418510315e+00
 6.7161297288e-01	 1.3866571475e+00	-1.8870143834e+00
 6.5503527600e-01	 1.3945647412e+00	-1.8586658264e+00
 6.3839927138e-01	 1.4022583216e+00	-1.8317959314e+00
 6.2170895965e-01	 1.4097375641e+00	-1.8037398786e+00
 6.0496833082e-01	 1.4170022403e+00	-1.7708499054e+00
 5.8818136152e-01	 1.4240522168e+00	-1.7285629753e+00
 6.7484188140e-01	 1.3933237684e+00	-1.8737779991e+00
 6.5818448406e-01	 1.4012693794e+00	-1.8466734723e+00
 6.4146849865e-01	 1.4089999481e+00	-1.8210380855e+00
 6.2469794503e-01	 1.4165151486e+00	-1.7936821557e+00
 6.0787683241e-01	 1.4238147510e+00	-1.7603772890e+00
 5.9100915653e-01	 1.4308986217e+00	-1.7159263970e+00
 6.7807078992e-01	 1.3999903893e+00	-1.8600776863e+00
 6.6133369212e-01	 1.4079740175e+00	-1.8354268294e+00
 6.4453772591e-01	 1.4157415747e+00	-1.8118889987e+00
 6.2768693041e-01	 1.4232927330e+00	-1.7855530278e+00
 6.1078533400e-01	 1.4306272618e+00	-1.7513896179e+00
 5.9383695154e-01	 1.4377450266e+00	-1.7033245397e+00
 5.7969797650e-01	 1.4035130021e+00	-1.7728341388e+00
 5.6311135826e-01	 1.4102496549e+00	-1.7306472143e+00
 5.4648685619e-01	 1.4167747200e+00	-1.6934964890e+00
 5.2982833409e-01	 1.4230883414e+00	-1.6589043197e+00
 5.1313963215e-01	 1.4291907532e+00	-1.6239289808e+00
 4.9642456451e-01	 1.4350822774e+00	-1.5852411711e+00
 5.8252577151e-01	 1.4103594070e+00	-1.7564044874e+00
 5.6585824293e-01	 1.4171289216e+00	-1.7142163134e+00
 5.4915264573e-01	 1.4236858161e+00	-1.6778457795e+00
 5.3241286255e-01	 1.4300302358e+00	-1.6440983984e+00
 5.1564275231e-01	 1.4361624154e+00	-1.6092639772e+00
 4.9884614775e-01	 1.4420826787e+00	-1.5691967698e+00
 5.8535356652e-01	 1.4172058119e+00	-1.7418510315e+00
 5.6860512761e-01	 1.4240081882e+00	-1.6988795772e+00
 5.5181843527e-01	 1.4305969123e+00	-1.6618625583e+00
 5.3499739101e-01	 1.4369721301e+00	-1.6274110931e+00
 5.1814587246e-01	 1.4431340776e+00	-1.5915915112e+00
 5.0126773099e-01	 1.4490830801e+00	-1.5500075659e+00
 5.8818136152e-01	 1.4240522168e+00	-1.7285629753e+00
 5.7135201228e-01	 1.4308874548e+00	-1.6835653004e+00
 5.5448422482e-01	 1.4375080085e+00	-1.6442749407e+00
 5.3758191947e-01	 1.4439140245e+00	-1.6076225755e+00
 5.2064899262e-01	 1.4501057398e+00	-1.5699873242e+00
 5.0368931423e-01	 1.4560834814e+00	-1.5272794442e+00
 5.9100915653e-01	 1.4308986217e+00	-1.7159263970e+00
 5.7409889695e-01	 1.4377667214e+00	-1.6672074428e+00
 5.5715001436e-01	 1.4444191047e+00	-1.6238205982e+00
 5.4016644792e-01	 1.4508559188e+00	-1.5835217294e+00
 5.2315211278e-01	 1.4570774020e+00	-1.5435304563e+00
 5.0611089748e-01	 1.4630838828e+00	-1.5006117782e+00
 5.9383695154e-01	 1.4377450266e+00	-1.7033245397e+00
 5.7684578163e-01	 1.4446459880e+00	-1.6487456720e+00
 5.5981580390e-01	 1.4513302009e+00	-1.5992466721e+00
 5.4275097638e-01	 1.4577978132e+00	-1.5539060482e+00
 5.2565523293e-01	 1.4640490642e+00	-1.5113032399e+00
 5.0853248072e-01	 1.4700842841e+00	-1.4695976246e+00
 4.9642456451e-01	 1.4350822774e+00	-1.5852411711e+00
 4.7968691687e-01	 1.4407633230e+00	-1.5428979897e+00
 4.6293044418e-01	 1.4462343845e+00	-1.5003470627e+00
 4.4615886838e-01	 1.4514960404e+00	-1.4589253385e+00
 4.2937587622e-01	 1.4565489515e+00	-1.4197965299e+00
 4.1258511717e-01	 1.4613938594e+00	-1.3840292346e+00
 4.9884614775e-01	 1.4420826787e+00	-1.5691967698e+00
 4.8202685305e-01	 1.4477914368e+00	-1.5234320001e+00
 4.6518864147e-01	 1.4532891864e+00	-1.4762453827e+00
 4.4833525310e-01	 1.4585765089e+00	-1.4301537512e+00
 4.3147039269e-01	 1.4636540683e+00	-1.3875066131e+00
 4.1459772750e-01	 1.4685226099e+00	-1.3505633108e+00
 5.0126773099e-01	 1.4490830801e+00	-1.5500075659e+00
 4.8436678923e-01	 1.4548195505e+00	-1.5023005605e+00
 4.6744683876e-01	 1.4603439883e+00	-1.4534981334e+00
 4.5051163782e-01	 1.4656569774e+00	-1.4068127798e+00
 4.3356490916e-01	 1.4707591851e+00	-1.3652849365e+00
 4.1661033783e-01	 1.4756513604e+00	-1.3318604606e+00
 5.0368931423e-01	 1.4560834814e+00	-1.5272794442e+00
 4.8670672541e-01	 1.4618476643e+00	-1.4796797182e+00
 4.6970503605e-01	 1.4673987901e+00	-1.4327077873e+00
 4.5268802255e-01	 1.4727374459e+00	-1.3897947417e+00
 4.3565942563e-01	 1.4778643020e+00	-1.3541842995e+00
 4.1862294816e-01	 1.4827801110e+00	-1.3283977190e+00
 5.0611089748e-01	 1.4630838828e+00	-1.5006117782e+00
 4.8904666159e-01	 1.4688757781e+00	-1.4557285233e+00
 4.7196323334e-01	 1.4744535920e+00	-1.4144521743e+00
 4.5486440727e-01	 1.4798179143e+00	-1.3799623675e+00
 4.3775394210e-01	 1.4849694188e+00	-1.3505866662e+00
 4.2063555849e-01	 1.4899088615e+00	-1.3170480170e+00
 5.0853248072e-01	 1.4700842841e+00	-1.4695976246e+00
 4.9138659777e-01	 1.4759038918e+00	-1.4305894442e+00
 4.7422143062e-01	 1.4815083939e+00	-1.3992847589e+00
 4.5704079200e-01	 1.4868983828e+00	-1.3665467425e+00
 4.3984845856e-01	 1.4920745356e+00	-1.3263863730e+00
 4.2264816881e-01	 1.4970376120e+00	-1.2858427802e+00
 4.1258511717e-01	 1.4613938594e+00	-1.3840292346e+00
 3.9579020140e-01	 1.4660315848e+00	-1.3543435073e+00
 3.7899469779e-01	 1.4704630258e+00	-1.3188278027e+00
 3.6220213210e-01	 1.4746891559e+00	-1.2658939161e+00
 3.4541598513e-01	 1.4787110226e+00	-1.2329589555e+00
 3.2863969106e-01	 1.4825297449e+00	-1.2131890556e+00
 4.1459772750e-01	 1.4685226099e+00	-1.3505633108e+00
 3.9772088531e-01	 1.4731829584e+00	-1.3231847869e+00
 3.8084345242e-01	 1.4776360161e+00	-1.2931708544e+00
 3.6396897177e-01	 1.4818827616e+00	-1.2445464641e+00
 3.4710094116e-01	 1.4859242471e+00	-1.2086059104e+00
 3.3024281151e-01	 1.4897615973e+00	-1.1825223554e+00
 4.1661033783e-01	 1.4756513604e+00	-1.3318604606e+00
 3.9965156922e-01	 1.4803343319e+00	-1.3110301568e+00
 3.8269220704e-01	 1.4848090065e+00	-1.2864887812e+00
 3.6573581144e-01	 1.4890763672e+00	-1.2320780399e+00
 3.4878589718e-01	 1.4931374716e+00	-1.1852570179e+00
 3.3184593195e-01	 1.4969934497e+00	-1.1534830728e+00
 4.1862294816e-01	 1.4827801110e+00	-1.3283977190e+00
 4.0158225313e-01	 1.4874857055e+00	-1.3064318848e+00
 3.8454096166e-01	 1.4919819969e+00	-1.2744933513e+00
 3.6750265111e-01	 1.4962699728e+00	-1.2147916259e+00
 3.5047085321e-01	 1.5003506961e+00	-1.1605286886e+00
 3.3344905240e-01	 1.5042253022e+00	-1.1255116477e+00
 4.2063555849e-01	 1.4899088615e+00	-1.3170480170e+00
 4.0351293704e-01	 1.4946370791e+00	-1.2874582659e+00
 3.8638971629e-01	 1.4991549872e+00	-1.2524891245e+00
 3.6926949077e-01	 1.5034635785e+00	-1.1925422448e+00
 3.5215580923e-01	 1.5075639206e+00	-1.1340866498e+00
 3.3505217284e-01	 1.5114571546e+00	-1.0980454930e+00
 4.2264816881e-01	 1.4970376120e+00	-1.2858427802e+00
 4.0544362095e-01	 1.5017884527e+00	-1.2538666195e+00
 3.8823847091e-01	 1.5063279776e+00	-1.2205220200e+00
 3.7103633044e-01	 1.5106571841e+00	-1.1651169898e+00
 3.5384076526e-01	 1.5147771451e+00	-1.1055910287e+00
 3.3665529329e-01	 1.5186890070e+00	-1.0705194937e+00
 3.2863969106e-01	 1.4825297449e+00	-1.2131890556e+00
 3.1187663578e-01	 1.4861465120e+00	-1.1907979437e+00
 2.9513015533e-01	 1.4895625809e+00	-1.1633630958e+00
 2.7840353445e-01	 1.4927792747e+00	-1.1326324355e+00
 2.6170000521e-01	 1.4957979805e+00	-1.1013558987e+00
 2.4502274565e-01	 1.4986201471e+00	-1.0730914804e+00
 3.3024281151e-01	 1.4897615973e+00	-1.1825223554e+00
 3.1339798522e-01	 1.4933960072e+00	-1.1566387663e+00
 2.9656981462e-01	 1.4968287399e+00	-1.1285539448e+00
 2.7976160047e-01	 1.5000611249e+00	-1.0988120273e+00
 2.6297659060e-01	 1.5030945560e+00	-1.0689652514e+00
 2.4621797856e-01	 1.5059304892e+00	-1.0413824463e+00
 3.3184593195e-01	 1.4969934497e+00	-1.1534830728e+00
 3.1491933466e-01	 1.5006455024e+00	-1.1257018614e+00
 2.9800947391e-01	 1.5040948988e+00	-1.0975800340e+00
 2.8111966650e-01	 1.5073429750e+00	-1.0687222526e+00
 2.6425317599e-01	 1.5103911315e+00	-1.0397509342e+00
 2.4741321146e-01	 1.5132408314e+00	-1.0121166413e+00
 3.3344905240e-01	 1.5042253022e+00	-1.1255116477e+00
 3.1644068411e-01	 1.5078949975e+00	-1.0972221396e+00
 2.9944913321e-01	 1.5113610577e+00	-1.0695591878e+00
 2.8247773252e-01	 1.5146248251e+00	-1.0414478858e+00
 2.6552976138e-01	 1.5176877070e+00	-1.0128442040e+00
 2.4860844437e-01	 1.5205511736e+00	-9.8454674740e-01
 3.3505217284e-01	 1.5114571546e+00	-1.0980454930e+00
 3.1796203355e-01	 1.5151444927e+00	-1.0704345643e+00
 3.0088879250e-01	 1.5186272167e+00	-1.0436109902e+00
 2.8383579854e-01	 1.5219066752e+00	-1.0160758674e+00
 2.6680634678e-01	 1.5249842825e+00	-9.8737766294e-01
 2.4980367728e-01	 1.5278615158e+00	-9.5792481618e-01
 3.3665529329e-01	 1.5186890070e+00	-1.0705194937e+00
 3.1948338299e-01	 1.5223939879e+00	-1.0445744863e+00
 3.0232845180e-01	 1.5258933756e+00	-1.0188569961e+00
 2.8519386456e-01	 1.5291885253e+00	-9.9169543225e-01
 2.6808293217e-01	 1.5322808580e+00	-9.6248534216e-01
 2.5099891018e-01	 1.5351718580e+00	-9.3150234363e-01
 2.4502274565e-01	 1.4986201471e+00	-1.0730914804e+00
 2.2837487861e-01	 1.5012472834e+00	-1.0491791698e+00
 2.1175947053e-01	 1.5036809561e+00	-1.0273548307e+00
 1.9517953046e-01	 1.5059227875e+00	-1.0066492561e+00
 1.7863800902e-01	 1.5079744536e+00	-9.8649283877e-01
 1.6213779752e-01	 1.5098376819e+00	-9.6658408587e-01
 2.4621797856e-01	 1.5059304892e+00	-1.0413824463e+00
 2.2948890240e-01	 1.5085704409e+00	-1.0171847020e+00
 2.1279244356e-01	 1.5110159851e+00	-9.9484437933e-01
 1.9613162573e-01	 1.5132687523e+00	-9.7365634431e-01
 1.7950941395e-01	 1.5153304266e+00	-9.5333177765e-01
 1.6292871361e-01	 1.5172027438e+00	-9.3386753564e-01
 2.4741321146e-01	 1.5132408314e+00	-1.0121166413e+00
 2.3060292620e-01	 1.5158935984e+00	-9.8702263895e-01
 2.1382541659e-01	 1.5183510142e+00	-9.6376510995e-01
 1.9708372101e-01	 1.5206147172e+00	-9.4185321819e-01
 1.8038081887e-01	 1.5226863995e+00	-9.2122672135e-01
 1.6371962970e-01	 1.5245678056e+00	-9.0212647641e-01
 2.4860844437e-01	 1.5205511736e+00	-9.8454674740e-01
 2.3171695000e-01	 1.5232167558e+00	-9.5809135970e-01
 2.1485838961e-01	 1.5256860433e+00	-9.3363794631e-01
 1.9803581628e-01	 1.5279606820e+00	-9.1086039348e-01
 1.8125222379e-01	 1.5300423725e+00	-8.8987500178e-01
 1.6451054578e-01	 1.5319328675e+00	-8.7111243759e-01
 2.4980367728e-01	 1.5278615158e+00	-9.5792481618e-01
 2.3283097380e-01	 1.5305399133e+00	-9.2978643419e-01
 2.1589136264e-01	 1.5330210723e+00	-9.0397950904e-01
 1.9898791155e-01	 1.5353066468e+00	-8.8029324861e-01
 1.8212362871e-01	 1.5373983454e+00	-8.5896861230e-01
 1.6530146187e-01	 1.5392979294e+00	-8.4057201422e-01
 2.5099891018e-01	 1.5351718580e+00	-9.3150234363e-01
 2.3394499760e-01	 1.5378630708e+00	-9.0150070271e-01
 2.1692433567e-01	 1.5403561014e+00	-8.7430219167e-01
 1.9994000682e-01	 1.5426526116e+00	-8.4976208893e-01
 1.8299503363e-01	 1.5447543184e+00	-8.2819425246e-01
 1.6609237795e-01	 1.5466629912e+00	-8.1024688465e-01
 1.6213779752e-01	 1.5098376819e+00	-9.6658408587e-01
 1.4568172715e-01	 1.5115142492e+00	-9.4792371462e-01
 1.2927256821e-01	 1.5130059796e+00	-9.3194600494e-01
 1.1291302948e-01	 1.5143147423e+00	-9.1895565082e-01
 9.6605757594e-02	 1.5154424498e+00	-9.0894903723e-01
 8.0353336566e-02	 1.5163910552e+00	-9.0151690165e-01
 1.6292871361e-01	 1.5172027438e+00	-9.3386753564e-01
 1.4639236972e-01	 1.5188874894e+00	-9.1592671231e-01
 1.2990316610e-01	 1.5203864965e+00	-9.0035541584e-01
 1.1346382474e-01	 1.5217016435e+00	-8.8741411330e-01
 9.7077005192e-02	 1.5228348520e+00	-8.7708238998e-01
 8.0745304061e-02	 1.5237880848e+00	-8.6896334967e-01
 1.6371962970e-01	 1.5245678056e+00	-9.0212647641e-01
 1.4710301229e-01	 1.5262607297e+00	-8.8482835424e-01
 1.3053376400e-01	 1.5277670135e+00	-8.6959137085e-01
 1.1401462001e-01	 1.5290885447e+00	-8.5665138569e-01
 9.7548252790e-02	 1.5302272542e+00	-8.4599007354e-01
 8.1137271557e-02	 1.5311851143e+00	-8.3724119698e-01
 1.6451054578e-01	 1.5319328675e+00	-8.7111243759e-01
 1.4781365486e-01	 1.5336339699e+00	-8.5442043798e-01
 1.3116436189e-01	 1.5351475305e+00	-8.3947988994e-01
 1.1456541527e-01	 1.5364754459e+00	-8.2652059646e-01
 9.8019500388e-02	 1.5376196564e+00	-8.1554414125e-01
 8.1529239052e-02	 1.5385821438e+00	-8.0623217208e-01
 1.6530146187e-01	 1.5392979294e+00	-8.4057201422e-01
 1.4852429744e-01	 1.5410072101e+00	-8.2449064421e-01
 1.3179495978e-01	 1.5425280475e+00	-8.0984392909e-01
 1.1511621054e-01	 1.5438623471e+00	-7.9687309123e-01
 9.8490747986e-02	 1.5450120586e+00	-7.8561636499e-01
 8.1921206548e-02	 1.5459791734e+00	-7.7581943526e-01
 1.6609237795e-01	 1.5466629912e+00	-8.1024688465e-01
 1.4923494001e-01	 1.5483804504e+00	-7.9482252388e-01
 1.3242555768e-01	 1.5499085644e+00	-7.8050333743e-01
 1.1566700580e-01	 1.5512492482e+00	-7.6755835990e-01
 9.8961995584e-02	 1.5524044608e+00	-7.5607813213e-01
 8.2313174043e-02	 1.5533762029e+00	-7.4588744476e-01
 8.0353336566e-02	 1.5163910552e+00	-9.0151690165e-01
 6.4158287314e-02	 1.5171625507e+00	-8.9518855109e-01
 4.8023067311e-02	 1.5177589651e+00	-8.8968166122e-01
 3.1950070280e-02	 1.5181823619e+00	-8.8546901634e-01
 1.5941625973e-02	 1.5184348375e+00	-8.8223313276e-01
-7.1821270466e-07	 1.5185386285e+00	 4.9068188603e-01
 8.0745304061e-02	 1.5237880848e+00	-8.6896334967e-01
 6.4471254569e-02	 1.5245633436e+00	-8.6175146273e-01
 4.8257326176e-02	 1.5251626674e+00	-8.5547334414e-01
 3.2105924282e-02	 1.5255881296e+00	-8.5087435197e-01
 1.6019390002e-02	 1.5258418367e+00	-8.4793920846e-01
-7.0815823498e-07	 1.5259460376e+00	 5.3285017415e-01
 8.1137271557e-02	 1.5311851143e+00	-8.3724119698e-01
 6.4784221824e-02	 1.5319641366e+00	-8.2926378075e-01
 4.8491585041e-02	 1.5325663696e+00	-8.2234475259e-01
 3.2261778283e-02	 1.5329938972e+00	-8.1744974333e-01
 1.6097154031e-02	 1.5332488359e+00	-8.1481591906e-01
-6.9788612504e-07	 1.5333534325e+00	 5.7210372662e-01
 8.1529239052e-02	 1.5385821438e+00	-8.0623217208e-01
 6.5097189080e-02	 1.5393649295e+00	-7.9761371226e-01
 4.8725843905e-02	 1.5399700719e+00	-7.9019409815e-01
 3.2417632285e-02	 1.5403996648e+00	-7.8510687058e-01
 1.6174918060e-02	 1.5406558351e+00	-7.8279181200e-01
-6.8739696908e-07	 1.5407608127e+00	 6.0852334483e-01
 8.1921206548e-02	 1.5459791734e+00	-7.7581943526e-01
 6.5410156335e-02	 1.5467657224e+00	-7.6669267622e-01
 4.8960102770e-02	 1.5473737742e+00	-7.5892449315e-01
 3.2573486286e-02	 1.5478054324e+00	-7.5376388451e-01
 1.6252682089e-02	 1.5480628343e+00	-7.5180332850e-01
-6.7669136132e-07	 1.5481681782e+00	 6.4218175749e-01
 8.2313174043e-02	 1.5533762029e+00	-7.4588744476e-01
 6.5723123590e-02	 1.5541665154e+00	-7.3639514125e-01
 4.9194361635e-02	 1.5547774764e+00	-7.2844376588e-01
 3.2729340287e-02	 1.5552112000e+00	-7.2334520485e-01
 1.6330446118e-02	 1.5554698335e+00	-7.2179459086e-01
-6.6576989602e-07	 1.5555755287e+00	 6.7314383755e-01
 1.5555555556e+00	 0.0000000000e+00	 3.6967679302e+00
 1.5554698335e+00	 1.6330446118e-02	 3.6957914917e+00
 1.5552112000e+00	 3.2729340287e-02	 3.6902120465e+00
 1.5547774764e+00	 4.9194361635e-02	 3.6807509571e+00
 1.5541665154e+00	 6.5723123590e-02	 3.6673594582e+00
 1.5533762029e+00	 8.2313174043e-02	 3.6492891324e+00
 1.5629629630e+00	 0.0000000000e+00	 3.6855915227e+00
 1.5628768327e+00	 1.6408210147e-02	 3.6846280755e+00
 1.5626169677e+00	 3.2885194289e-02	 3.6789703703e+00
 1.5621811787e+00	 4.9428620500e-02	 3.6693671919e+00
 1.5615673083e+00	 6.6036090845e-02	 3.6558194724e+00
 1.5607732325e+00	 8.2705141538e-02	 3.6376485328e+00
 1.5703703704e+00	 0.0000000000e+00	 3.6742254182e+00
 1.5702838319e+00	 1.6485974177e-02	 3.6731789538e+00
 1.5700227353e+00	 3.3041048290e-02	 3.6674628591e+00
 1.5695848810e+00	 4.9662879365e-02	 3.6578096342e+00
 1.5689681012e+00	 6.6349058100e-02	 3.6442265139e+00
 1.5681702620e+00	 8.3097109034e-02	 3.6260614097e+00
 1.5777777778e+00	 0.0000000000e+00	 3.6626569145e+00
 1.5776908311e+00	 1.6563738206e-02	 3.6614302671e+00
 1.5774285029e+00	 3.3196902291e-02	 3.6556666456e+00
 1.5769885832e+00	 4.9897138230e-02	 3.6460398979e+00
 1.5763688941e+00	 6.6662025356e-02	 3.6325215472e+00
 1.5755672915e+00	 8.3489076529e-02	 3.6144443655e+00
 1.5851851852e+00	 0.0000000000e+00	 3.6508734231e+00
 1.5850978303e+00	 1.6641502235e-02	 3.6493685321e+00
 1.5848342705e+00	 3.3352756293e-02	 3.6435594345e+00
 1.5843922855e+00	 5.0131397095e-02	 3.6340202989e+00
 1.5837696871e+00	 6.6974992611e-02	 3.6206463055e+00
 1.5829643211e+00	 8.3881044025e-02	 3.6027147760e+00
 1.5925925926e+00	 0.0000000000e+00	 3.6388624659e+00
 1.5925048295e+00	 1.6719266264e-02	 3.6369806347e+00
 1.5922400381e+00	 3.3508610294e-02	 3.6311194913e+00
 1.5917959878e+00	 5.0365655960e-02	 3.6217138407e+00
 1.5911704800e+00	 6.7287959866e-02	 3.6085432727e+00
 1.5903613506e+00	 8.4273011520e-02	 3.5907907698e+00
 1.5533762029e+00	 8.2313174043e-02	 3.6492891324e+00
 1.5524044608e+00	 9.8961995584e-02	 3.6262270651e+00
 1.5512492482e+00	 1.1566700580e-01	 3.5993866445e+00
 1.5499085644e+00	 1.3242555768e-01	 3.5695007947e+00
 1.5483804504e+00	 1.4923494001e-01	 3.5369317460e+00
 1.5466629912e+00	 1.6609237795e-01	 3.5017577509e+00
 1.5607732325e+00	 8.2705141538e-02	 3.6376485328e+00
 1.5597968630e+00	 9.9433243182e-02	 3.6144831884e+00
 1.5586361494e+00	 1.1621780107e-01	 3.5874454570e+00
 1.5572890814e+00	 1.3305615557e-01	 3.5573101717e+00
 1.5557536906e+00	 1.4994558258e-01	 3.5244900375e+00
 1.5540280531e+00	 1.6688329404e-01	 3.4891191638e+00
 1.5681702620e+00	 8.3097109034e-02	 3.6260614097e+00
 1.5671892652e+00	 9.9904490780e-02	 3.6028554267e+00
 1.5660230506e+00	 1.1676859634e-01	 3.5756544582e+00
 1.5646695984e+00	 1.3368675347e-01	 3.5452995041e+00
 1.5631269309e+00	 1.5065622515e-01	 3.5122781417e+00
 1.5613931149e+00	 1.6767421012e-01	 3.4768046497e+00
 1.5755672915e+00	 8.3489076529e-02	 3.6144443655e+00
 1.5745816674e+00	 1.0037573838e-01	 3.5912303938e+00
 1.5734099518e+00	 1.1731939160e-01	 3.5638621127e+00
 1.5720501154e+00	 1.3431735136e-01	 3.5332714709e+00
 1.5705001711e+00	 1.5136686772e-01	 3.5000458492e+00
 1.5687581768e+00	 1.6846512621e-01	 3.4645045463e+00
 1.5829643211e+00	 8.3881044025e-02	 3.6027147760e+00
 1.5819740696e+00	 1.0084698598e-01	 3.5794954838e+00
 1.5807968530e+00	 1.1787018687e-01	 3.5519177527e+00
 1.5794306323e+00	 1.3494794925e-01	 3.5210298061e+00
 1.5778734113e+00	 1.5207751029e-01	 3.4875443138e+00
 1.5761232387e+00	 1.6925604229e-01	 3.4519110038e+00
 1.5903613506e+00	 8.4273011520e-02	 3.5907907698e+00
 1.5893664718e+00	 1.0131823357e-01	 3.5675388489e+00
 1.5881837542e+00	 1.1842098213e-01	 3.5396715523e+00
 1.5868111493e+00	 1.3557854715e-01	 3.5083792688e+00
 1.5852466516e+00	 1.5278815286e-01	 3.4745260170e+00
 1.5834883005e+00	 1.7004695838e-01	 3.4387179428e+00
 1.5466629912e+00	 1.6609237795e-01	 3.5017577509e+00
 1.5447543184e+00	 1.8299503363e-01	 3.4629938085e+00
 1.5426526116e+00	 1.9994000682e-01	 3.4186761209e+00
 1.5403561014e+00	 2.1692433567e-01	 3.3672913691e+00
 1.5378630708e+00	 2.3394499760e-01	 3.3074738130e+00
 1.5351718580e+00	 2.5099891018e-01	 3.2381437670e+00
 1.5540280531e+00	 1.6688329404e-01	 3.4891191638e+00
 1.5521102913e+00	 1.8386643856e-01	 3.4503171639e+00
 1.5499985764e+00	 2.0089210209e-01	 3.4061497062e+00
 1.5476911304e+00	 2.1795730870e-01	 3.3550431056e+00
 1.5451862283e+00	 2.3505902140e-01	 3.2955614024e+00
 1.5424822002e+00	 2.5219414309e-01	 3.2265419537e+00
 1.5613931149e+00	 1.6767421012e-01	 3.4768046497e+00
 1.5594662642e+00	 1.8473784348e-01	 3.4381136459e+00
 1.5573445412e+00	 2.0184419736e-01	 3.3942571384e+00
 1.5550261595e+00	 2.1899028172e-01	 3.3435445815e+00
 1.5525093858e+00	 2.3617304519e-01	 3.2844128076e+00
 1.5497925423e+00	 2.5338937599e-01	 3.2155586671e+00
 1.5687581768e+00	 1.6846512621e-01	 3.4645045463e+00
 1.5668222372e+00	 1.8560924840e-01	 3.4260153989e+00
 1.5646905061e+00	 2.0279629263e-01	 3.3825822299e+00
 1.5623611885e+00	 2.2002325475e-01	 3.3323428355e+00
 1.5598325432e+00	 2.3728706899e-01	 3.2735515300e+00
 1.5571028845e+00	 2.5458460890e-01	 3.2047087603e+00
 1.5761232387e+00	 1.6925604229e-01	 3.4519110038e+00
 1.5741782101e+00	 1.8648065332e-01	 3.4136568535e+00
 1.5720364709e+00	 2.0374838790e-01	 3.3707114477e+00
 1.5696962176e+00	 2.2105622778e-01	 3.3209878213e+00
 1.5671557007e+00	 2.3840109279e-01	 3.2625041357e+00
 1.5644132267e+00	 2.5577984180e-01	 3.1935101865e+00
 1.5834883005e+00	 1.7004695838e-01	 3.4387179428e+00
 1.5815341831e+00	 1.8735205824e-01	 3.4006746811e+00
 1.5793824357e+00	 2.0470048317e-01	 3.3582338699e+00
 1.5770312466e+00	 2.2208920080e-01	 3.3090323721e+00
 1.5744788582e+00	 2.3951511659e-01	 3.2508002351e+00
 1.5717235689e+00	 2.5697507471e-01	 3.1814840019e+00
 1.5351718580e+00	 2.5099891018e-01	 3.2381437670e+00
 1.5322808580e+00	 2.6808293217e-01	 3.1669590213e+00
 1.5291885253e+00	 2.8519386456e-01	 3.1010895931e+00
 1.5258933756e+00	 3.0232845180e-01	 3.0396225120e+00
 1.5223939879e+00	 3.1948338299e-01	 2.9826054993e+00
 1.5186890070e+00	 3.3665529329e-01	 2.9312748775e+00
 1.5424822002e+00	 2.5219414309e-01	 3.2265419537e+00
 1.5395774335e+00	 2.6935951756e-01	 3.1555448824e+00
 1.5364703755e+00	 2.8655193058e-01	 3.0896768625e+00
 1.5331595345e+00	 3.0376811109e-01	 3.0279718446e+00
 1.5296434831e+00	 3.2100473243e-01	 2.9704093551e+00
 1.5259208594e+00	 3.3825841373e-01	 2.9181412923e+00
 1.5497925423e+00	 2.5338937599e-01	 3.2155586671e+00
 1.5468740091e+00	 2.7063610295e-01	 3.1444394653e+00
 1.5437522256e+00	 2.8790999660e-01	 3.0782485433e+00
 1.5404256934e+00	 3.0520777039e-01	 3.0161393709e+00
 1.5368929783e+00	 3.2252608188e-01	 2.9581925726e+00
 1.5331527118e+00	 3.3986153417e-01	 2.9056410368e+00
 1.5571028845e+00	 2.5458460890e-01	 3.2047087603e+00
 1.5541705846e+00	 2.7191268834e-01	 3.1331418204e+00
 1.5510340757e+00	 2.8926806263e-01	 3.0662563323e+00
 1.5476918524e+00	 3.0664742968e-01	 3.0034959537e+00
 1.5441424734e+00	 3.2404743132e-01	 2.9452097283e+00
 1.5403845642e+00	 3.4146465462e-01	 2.8928749342e+00
 1.5644132267e+00	 2.5577984180e-01	 3.1935101865e+00
 1.5614671601e+00	 2.7318927373e-01	 3.1211544584e+00
 1.5583159258e+00	 2.9062612865e-01	 3.0531565535e+00
 1.5549580113e+00	 3.0808708897e-01	 2.9894191151e+00
 1.5513919686e+00	 3.2556878076e-01	 2.9307250149e+00
 1.5476164166e+00	 3.4306777506e-01	 2.8789573628e+00
 1.5717235689e+00	 2.5697507471e-01	 3.1814840019e+00
 1.5687637356e+00	 2.7446585912e-01	 3.1079833742e+00
 1.5655977759e+00	 2.9198419467e-01	 3.0384101887e+00
 1.5622241702e+00	 3.0952674827e-01	 2.9732930606e+00
 1.5586414638e+00	 3.2709013021e-01	 2.9140122435e+00
 1.5548482691e+00	 3.4467089551e-01	 2.8630162199e+00
 1.5186890070e+00	 3.3665529329e-01	 2.9312748775e+00
 1.5147771451e+00	 3.5384076526e-01	 2.8627496085e+00
 1.5106571841e+00	 3.7103633044e-01	 2.7595034478e+00
 1.5063279776e+00	 3.8823847091e-01	 2.6412592413e+00
 1.5017884527e+00	 4.0544362095e-01	 2.5310918418e+00
 1.4970376120e+00	 4.2264816881e-01	 2.4471228097e+00
 1.5259208594e+00	 3.3825841373e-01	 2.9181412923e+00
 1.5219903696e+00	 3.5552572128e-01	 2.8477965869e+00
 1.5178507898e+00	 3.7280317011e-01	 2.7415828132e+00
 1.5135009680e+00	 3.9008722553e-01	 2.6205580080e+00
 1.5089398263e+00	 4.0737430486e-01	 2.5072863795e+00
 1.5041663626e+00	 4.2466077914e-01	 2.4206286749e+00
 1.5331527118e+00	 3.3986153417e-01	 2.9056410368e+00
 1.5292035941e+00	 3.5721067731e-01	 2.8346558246e+00
 1.5250443954e+00	 3.7457000978e-01	 2.7269659794e+00
 1.5206739583e+00	 3.9193598016e-01	 2.6043808020e+00
 1.5160911999e+00	 4.0930498877e-01	 2.4887944089e+00
 1.5112951131e+00	 4.2667338947e-01	 2.3994185850e+00
 1.5403845642e+00	 3.4146465462e-01	 2.8928749342e+00
 1.5364168186e+00	 3.5889563333e-01	 2.8222924953e+00
 1.5322380010e+00	 3.7633684945e-01	 2.7145562828e+00
 1.5278469487e+00	 3.9378473478e-01	 2.5916856811e+00
 1.5232425734e+00	 4.1123567268e-01	 2.4747157043e+00
 1.5184238636e+00	 4.2868599980e-01	 2.3828264433e+00
 1.5476164166e+00	 3.4306777506e-01	 2.8789573628e+00
 1.5436300431e+00	 3.6058058936e-01	 2.8096892273e+00
 1.5394316067e+00	 3.7810368912e-01	 2.7032812403e+00
 1.5350199391e+00	 3.9563348941e-01	 2.5814548404e+00
 1.5303939470e+00	 4.1316635659e-01	 2.4641724985e+00
 1.5255526142e+00	 4.3069861012e-01	 2.3702051884e+00
 1.5548482691e+00	 3.4467089551e-01	 2.8630162199e+00
 1.5508432676e+00	 3.6226554538e-01	 2.7958460382e+00
 1.5466252123e+00	 3.7987052879e-01	 2.6920921410e+00
 1.5421929295e+00	 3.9748224403e-01	 2.5726941995e+00
 1.5375453206e+00	 4.1509704050e-01	 2.4563091007e+00
 1.5326813647e+00	 4.3271122045e-01	 2.3609264822e+00
 1.4970376120e+00	 4.2264816881e-01	 2.4471228097e+00
 1.4920745356e+00	 4.3984845856e-01	 2.3772951463e+00
 1.4868983828e+00	 4.5704079200e-01	 2.2937821130e+00
 1.4815083939e+00	 4.7422143062e-01	 2.1916375800e+00
 1.4759038918e+00	 4.9138659777e-01	 2.0781432252e+00
 1.4700842841e+00	 5.0853248072e-01	 1.9635064367e+00
 1.5041663626e+00	 4.2466077914e-01	 2.4206286749e+00
 1.4991796525e+00	 4.4194297503e-01	 2.3508180662e+00
 1.4939788513e+00	 4.5921717672e-01	 2.2721039177e+00
 1.4885631958e+00	 4.7647962791e-01	 2.1799217751e+00
 1.4829320056e+00	 4.9372653395e-01	 2.0700926702e+00
 1.4770846855e+00	 5.1095406396e-01	 1.9462172865e+00
 1.5112951131e+00	 4.2667338947e-01	 2.3994185850e+00
 1.5062847693e+00	 4.4403749150e-01	 2.3284152965e+00
 1.5010593198e+00	 4.6139356144e-01	 2.2520206413e+00
 1.4956179976e+00	 4.7873782520e-01	 2.1660786220e+00
 1.4899601194e+00	 4.9606647013e-01	 2.0667919721e+00
 1.4840850868e+00	 5.1337564720e-01	 1.9507151156e+00
 1.5184238636e+00	 4.2868599980e-01	 2.3828264433e+00
 1.5133898862e+00	 4.4613200797e-01	 2.3097178070e+00
 1.5081397883e+00	 4.6356994617e-01	 2.2334898610e+00
 1.5026727995e+00	 4.8099602249e-01	 2.1504213547e+00
 1.4969882332e+00	 4.9840640631e-01	 2.0571268428e+00
 1.4910854882e+00	 5.1579723044e-01	 1.9505492009e+00
 1.5255526142e+00	 4.3069861012e-01	 2.3702051884e+00
 1.5204950030e+00	 4.4822652444e-01	 2.2943709795e+00
 1.5152202568e+00	 4.6574633089e-01	 2.2164783618e+00
 1.5097276014e+00	 4.8325421978e-01	 2.1332666337e+00
 1.5040163469e+00	 5.0074634249e-01	 2.0417917901e+00
 1.4980858896e+00	 5.1821881368e-01	 1.9394186404e+00
 1.5326813647e+00	 4.3271122045e-01	 2.3609264822e+00
 1.5276001198e+00	 4.5032104091e-01	 2.2820343920e+00
 1.5223007253e+00	 4.6792271561e-01	 2.2009620275e+00
 1.5167824033e+00	 4.8551241707e-01	 2.1149345547e+00
 1.5110444607e+00	 5.0308627867e-01	 2.0214785332e+00
 1.5050862909e+00	 5.2064039692e-01	 1.9184136812e+00
 1.4700842841e+00	 5.0853248072e-01	 1.9635064367e+00
 1.4640490642e+00	 5.2565523293e-01	 1.8466027068e+00
 1.4577978132e+00	 5.4275097638e-01	 1.7296586829e+00
 1.4513302009e+00	 5.5981580390e-01	 1.6167804349e+00
 1.4446459880e+00	 5.7684578163e-01	 1.5116910723e+00
 1.4377450266e+00	 5.9383695154e-01	 1.4176599457e+00
 1.4770846855e+00	 5.1095406396e-01	 1.9462172865e+00
 1.4710207265e+00	 5.2815835309e-01	 1.8241854091e+00
 1.4647397075e+00	 5.4533550484e-01	 1.7063450314e+00
 1.4582412971e+00	 5.6248159344e-01	 1.5955980544e+00
 1.4515252546e+00	 5.7959266630e-01	 1.4944797028e+00
 1.4445914315e+00	 5.9666474655e-01	 1.4050901105e+00
 1.4840850868e+00	 5.1337564720e-01	 1.9507151156e+00
 1.4779923887e+00	 5.3066147325e-01	 1.8192183454e+00
 1.4716816019e+00	 5.4792003330e-01	 1.6935908799e+00
 1.4651523933e+00	 5.6514738298e-01	 1.5788317270e+00
 1.4584045212e+00	 5.8233955098e-01	 1.4769751631e+00
 1.4514378363e+00	 5.9949254155e-01	 1.3896159061e+00
 1.4910854882e+00	 5.1579723044e-01	 1.9505492009e+00
 1.4849640509e+00	 5.3316459340e-01	 1.8283396550e+00
 1.4786234962e+00	 5.5050456176e-01	 1.6927154663e+00
 1.4720634895e+00	 5.6781317253e-01	 1.5676075073e+00
 1.4652837878e+00	 5.8508643565e-01	 1.4598693277e+00
 1.4582842412e+00	 6.0232033656e-01	 1.3712440015e+00
 1.4980858896e+00	 5.1821881368e-01	 1.9394186404e+00
 1.4919357131e+00	 5.3566771356e-01	 1.8249512869e+00
 1.4855653906e+00	 5.5308909022e-01	 1.6986573773e+00
 1.4789745857e+00	 5.7047896207e-01	 1.5630267100e+00
 1.4721630544e+00	 5.8783332033e-01	 1.4438386487e+00
 1.4651306461e+00	 6.0514813157e-01	 1.3499797744e+00
 1.5050862909e+00	 5.2064039692e-01	 1.9184136812e+00
 1.4989073753e+00	 5.3817083372e-01	 1.8057839205e+00
 1.4925072849e+00	 5.5567361868e-01	 1.6855369242e+00
 1.4858856819e+00	 5.7314475161e-01	 1.5588635567e+00
 1.4790423210e+00	 5.9058020500e-01	 1.4295451862e+00
 1.4719770510e+00	 6.0797592657e-01	 1.3258280845e+00
 1.4377450266e+00	 5.9383695154e-01	 1.4176599457e+00
 1.4306272618e+00	 6.1078533400e-01	 1.3192567126e+00
 1.4232927330e+00	 6.2768693041e-01	 1.2040545878e+00
 1.4157415747e+00	 6.4453772591e-01	 1.0787574759e+00
 1.4079740175e+00	 6.6133369212e-01	 9.4910201818e-01
 1.3999903893e+00	 6.7807078992e-01	 8.1980820341e-01
 1.4445914315e+00	 5.9666474655e-01	 1.4050901105e+00
 1.4374397726e+00	 6.1369383559e-01	 1.3095268659e+00
 1.4300703174e+00	 6.3067591579e-01	 1.1942457645e+00
 1.4224832012e+00	 6.4760695318e-01	 1.0668004642e+00
 1.4146786557e+00	 6.6448290018e-01	 9.3373772804e-01
 1.4066570103e+00	 6.8129969845e-01	 8.0054643640e-01
 1.4514378363e+00	 5.9949254155e-01	 1.3896159061e+00
 1.4442522833e+00	 6.1660233718e-01	 1.2965723742e+00
 1.4368479019e+00	 6.3366490118e-01	 1.1824234950e+00
 1.4292248278e+00	 6.5067618045e-01	 1.0548057738e+00
 1.4213832939e+00	 6.6763210823e-01	 9.2033255622e-01
 1.4133236312e+00	 6.8452860697e-01	 7.8454351402e-01
 1.4582842412e+00	 6.0232033656e-01	 1.3712440015e+00
 1.4510647941e+00	 6.1951083877e-01	 1.2797084806e+00
 1.4436254863e+00	 6.3665388656e-01	 1.1674643081e+00
 1.4359664543e+00	 6.5374540771e-01	 1.0414750421e+00
 1.4280879321e+00	 6.7078131629e-01	 9.0768793649e-01
 1.4199902521e+00	 6.8775751549e-01	 7.7098595886e-01
 1.4651306461e+00	 6.0514813157e-01	 1.3499797744e+00
 1.4578773049e+00	 6.2241934036e-01	 1.2582634982e+00
 1.4504030708e+00	 6.3964287194e-01	 1.1482675468e+00
 1.4427080809e+00	 6.5681463498e-01	 1.0255376295e+00
 1.4347925703e+00	 6.7393052435e-01	 8.9463288607e-01
 1.4266568730e+00	 6.9098642402e-01	 7.5908247978e-01
 1.4719770510e+00	 6.0797592657e-01	 1.3258280845e+00
 1.4646898156e+00	 6.2532784195e-01	 1.2315793233e+00
 1.4571806552e+00	 6.4263185733e-01	 1.1237557294e+00
 1.4494497074e+00	 6.5988386224e-01	 1.0057509441e+00
 1.4414972084e+00	 6.7707973241e-01	 8.8002441312e-01
 1.4333234939e+00	 6.9421533254e-01	 7.4806458541e-01
 1.3999903893e+00	 6.7807078992e-01	 8.1980820341e-01
 1.3917911157e+00	 6.9474497236e-01	 6.9862467943e-01
 1.3833767209e+00	 7.1135218747e-01	 5.8973930744e-01
 1.3747478281e+00	 7.2788838126e-01	 4.9118184070e-01
 1.3659051604e+00	 7.4434950070e-01	 3.9901909541e-01
 1.3568495408e+00	 7.6073149664e-01	 2.7457008201e-01
 1.4066570103e+00	 6.8129969845e-01	 8.0054643640e-01
 1.3984186925e+00	 6.9805328175e-01	 6.7726797845e-01
 1.3899642291e+00	 7.1473957883e-01	 5.6965732067e-01
 1.3812942463e+00	 7.3135451641e-01	 4.7539219140e-01
 1.3724094707e+00	 7.4789402213e-01	 3.8678867287e-01
 1.3633107291e+00	 7.6435402758e-01	 2.6140627652e-01
 1.4133236312e+00	 6.8452860697e-01	 7.8454351402e-01
 1.4050462692e+00	 7.0136159114e-01	 6.5935346351e-01
 1.3965517372e+00	 7.1812697020e-01	 5.5242074383e-01
 1.3878406645e+00	 7.3482065156e-01	 4.6149343316e-01
 1.3789137810e+00	 7.5143854356e-01	 3.7359571192e-01
 1.3697719174e+00	 7.6797655851e-01	 2.4733664492e-01
 1.4199902521e+00	 6.8775751549e-01	 7.7098595886e-01
 1.4116738459e+00	 7.0466990053e-01	 6.4451898978e-01
 1.4031392454e+00	 7.2151436157e-01	 5.3795471587e-01
 1.3943870828e+00	 7.3828678671e-01	 4.4952757338e-01
 1.3854180913e+00	 7.5498306499e-01	 3.5965541771e-01
 1.3762331057e+00	 7.7159908945e-01	 2.3232875557e-01
 1.4266568730e+00	 6.9098642402e-01	 7.5908247978e-01
 1.4183014227e+00	 7.0797820992e-01	 6.3241802576e-01
 1.4097267536e+00	 7.2490175294e-01	 5.2619653166e-01
 1.4009335010e+00	 7.4175292186e-01	 4.3946996209e-01
 1.3919224016e+00	 7.5852758642e-01	 3.4519084589e-01
 1.3826942940e+00	 7.7522162038e-01	 2.1636221930e-01
 1.4333234939e+00	 6.9421533254e-01	 7.4806458541e-01
 1.4249289994e+00	 7.1128651932e-01	 6.2272050119e-01
 1.4163142618e+00	 7.2828914431e-01	 5.1709665253e-01
 1.4074799192e+00	 7.4521905701e-01	 4.3014702705e-01
 1.3984267118e+00	 7.6207210786e-01	 3.3043239350e-01
 1.3891554823e+00	 7.7884415132e-01	 1.9942806364e-01
 1.3568495408e+00	 7.6073149664e-01	 2.7457008201e-01
 1.3475818927e+00	 7.7703032694e-01	 1.3646666410e-01
 1.3381032397e+00	 7.9324195946e-01	 1.8817546519e-02
 1.3284147064e+00	 8.0936237518e-01	-8.7242427306e-02
 1.3185175174e+00	 8.2538757125e-01	-1.9112552643e-01
 1.3084129980e+00	 8.4131356412e-01	-3.0268484349e-01
 1.3633107291e+00	 7.6435402758e-01	 2.6140627652e-01
 1.3539989493e+00	 7.8073047135e-01	 1.2302444147e-01
 1.3444751599e+00	 7.9701930213e-01	 4.4061946729e-03
 1.3347404907e+00	 8.1321648173e-01	-1.0280664267e-01
 1.3247961722e+00	 8.2931798825e-01	-2.0757868051e-01
 1.3146435361e+00	 8.4531981919e-01	-3.1937436196e-01
 1.3697719174e+00	 7.6797655851e-01	 2.4733664492e-01
 1.3604160059e+00	 7.8443061577e-01	 1.0920894213e-01
 1.3508470801e+00	 8.0079664479e-01	-9.6810912738e-03
 1.3410662750e+00	 8.1707058828e-01	-1.1736489441e-01
 1.3310748271e+00	 8.3324840526e-01	-2.2252860882e-01
 1.3208740741e+00	 8.4932607426e-01	-3.3440565421e-01
 1.3762331057e+00	 7.7159908945e-01	 2.3232875557e-01
 1.3668330626e+00	 7.8813076018e-01	 9.4698875538e-02
 1.3572190003e+00	 8.0457398745e-01	-2.3948694195e-02
 1.3473920593e+00	 8.2092469482e-01	-1.3149616008e-01
 1.3373534819e+00	 8.3717882227e-01	-2.3651780059e-01
 1.3271046122e+00	 8.5333232932e-01	-3.4817120311e-01
 1.3826942940e+00	 7.7522162038e-01	 2.1636221930e-01
 1.3732501192e+00	 7.9183090459e-01	 7.9190033627e-02
 1.3635909205e+00	 8.0835133012e-01	-3.8880768128e-02
 1.3537178436e+00	 8.2477880137e-01	-1.4575798190e-01
 1.3436321368e+00	 8.4110923927e-01	-2.5006808785e-01
 1.3333351503e+00	 8.5733858439e-01	-3.6104564030e-01
 1.3891554823e+00	 7.7884415132e-01	 1.9942806364e-01
 1.3796671758e+00	 7.9553104901e-01	 6.2394531282e-02
 1.3699628407e+00	 8.1212867278e-01	-5.4942084561e-02
 1.3600436279e+00	 8.2863290792e-01	-1.6068735173e-01
 1.3499107916e+00	 8.4503965628e-01	-2.6368152000e-01
 1.3395656884e+00	 8.6134483946e-01	-3.7338656005e-01
 1.3084129980e+00	 8.4131356412e-01	-3.0268484349e-01
 1.2981025733e+00	 8.5713639264e-01	-4.1471495675e-01
 1.2875877683e+00	 8.7285212116e-01	-5.1682433983e-01
 1.2768702069e+00	 8.8845684264e-01	-6.1441388521e-01
 1.2659516116e+00	 9.0394668173e-01	-7.1285743180e-01
 1.2548338029e+00	 9.1931779788e-01	-8.1734848755e-01
 1.3146435361e+00	 8.4531981919e-01	-3.1937436196e-01
 1.3042840141e+00	 8.6121799451e-01	-4.3090698293e-01
 1.2937191386e+00	 8.7700855983e-01	-5.3212222813e-01
 1.2829505412e+00	 8.9268758951e-01	-6.2870832233e-01
 1.2719799526e+00	 9.0825118974e-01	-7.2632918452e-01
 1.2608092020e+00	 9.2369550168e-01	-8.3046689350e-01
 1.3208740741e+00	 8.4932607426e-01	-3.3440565421e-01
 1.3104654550e+00	 8.6529959638e-01	-4.4558264361e-01
 1.2998505089e+00	 8.8116499851e-01	-5.4615330029e-01
 1.2890308755e+00	 8.9691833638e-01	-6.4203237373e-01
 1.2780082937e+00	 9.1255569775e-01	-7.3912143357e-01
 1.2667846010e+00	 9.2807320548e-01	-8.4314718865e-01
 1.3271046122e+00	 8.5333232932e-01	-3.4817120311e-01
 1.3166468958e+00	 8.6938119825e-01	-4.5895658786e-01
 1.3059818792e+00	 8.8532143718e-01	-5.5901443879e-01
 1.2951112098e+00	 9.0114908325e-01	-6.5442618127e-01
 1.2840366347e+00	 9.1686020576e-01	-7.5127952586e-01
 1.2727600001e+00	 9.3245090928e-01	-8.5550274923e-01
 1.3333351503e+00	 8.5733858439e-01	-3.6104564030e-01
 1.3228283366e+00	 8.7346280012e-01	-4.7122884449e-01
 1.3121132496e+00	 8.8947787585e-01	-5.7078991916e-01
 1.3011915441e+00	 9.0537983012e-01	-6.6591805870e-01
 1.2900649757e+00	 9.2116471377e-01	-7.6283651016e-01
 1.2787353992e+00	 9.3682861308e-01	-8.6763292159e-01
 1.3395656884e+00	 8.6134483946e-01	-3.7338656005e-01
 1.3290097774e+00	 8.7754440199e-01	-4.8258556228e-01
 1.3182446199e+00	 8.9363431452e-01	-5.8155210155e-01
 1.3072718785e+00	 9.0961057699e-01	-6.7652516042e-01
 1.2960933167e+00	 9.2546922178e-01	-7.7381380879e-01
 1.2847107982e+00	 9.4120631688e-01	-8.7962372310e-01
 1.2548338029e+00	 9.1931779788e-01	-8.1734848755e-01
 1.2435186980e+00	 9.3456638837e-01	-9.1646846579e-01
 1.2320083100e+00	 9.4968869134e-01	-1.0017108816e+00
 1.2203047473e+00	 9.6468098885e-01	-1.0818236832e+00
 1.2084102115e+00	 9.7953960979e-01	-1.1646226440e+00
 1.1963269970e+00	 9.9426093286e-01	-1.2567928368e+00
 1.2608092020e+00	 9.2369550168e-01	-8.3046689350e-01
 1.2494402156e+00	 9.3901670450e-01	-9.2963627680e-01
 1.2378750163e+00	 9.5421101844e-01	-1.0150498536e+00
 1.2261157222e+00	 9.6927470784e-01	-1.0954034454e+00
 1.2141645458e+00	 9.8420408412e-01	-1.1784364487e+00
 1.2020237923e+00	 9.9899550873e-01	-1.2707281817e+00
 1.2667846010e+00	 9.2807320548e-01	-8.4314718865e-01
 1.2553617332e+00	 9.4346702064e-01	-9.4249400955e-01
 1.2437417225e+00	 9.5873334554e-01	-1.0280667109e+00
 1.2319266972e+00	 9.7386842684e-01	-1.1085235964e+00
 1.2199188802e+00	 9.8886855845e-01	-1.1915373465e+00
 1.2077205875e+00	 1.0037300846e+00	-1.2835860744e+00
 1.2727600001e+00	 9.3245090928e-01	-8.5550274923e-01
 1.2612832508e+00	 9.4791733677e-01	-9.5523376569e-01
 1.2496084287e+00	 9.6325567265e-01	-1.0409903011e+00
 1.2377376722e+00	 9.7846214583e-01	-1.1214078324e+00
 1.2256732145e+00	 9.9353303278e-01	-1.2041021395e+00
 1.2134173827e+00	 1.0084646605e+00	-1.2954549069e+00
 1.2787353992e+00	 9.3682861308e-01	-8.6763292159e-01
 1.2672047684e+00	 9.5236765291e-01	-9.6803160274e-01
 1.2554751350e+00	 9.6777799975e-01	-1.0540321220e+00
 1.2435486472e+00	 9.8305586483e-01	-1.1342619071e+00
 1.2314275489e+00	 9.9819750712e-01	-1.2162898132e+00
 1.2191141779e+00	 1.0131992363e+00	-1.3064061040e+00
 1.2847107982e+00	 9.4120631688e-01	-8.7962372310e-01
 1.2731262860e+00	 9.5681796904e-01	-9.8104826792e-01
 1.2613418412e+00	 9.7230032685e-01	-1.0673870682e+00
 1.2493596222e+00	 9.8764958382e-01	-1.1472743723e+00
 1.2371818832e+00	 1.0028619814e+00	-1.2282422524e+00
 1.2248109731e+00	 1.0179338122e+00	-1.3164947946e+00
 1.1963269970e+00	 9.9426093286e-01	-1.2567928368e+00
 1.1840574891e+00	 1.0088413894e+00	-1.3510754567e+00
 1.1716041623e+00	 1.0232774664e+00	-1.4354969795e+00
 1.1589695793e+00	 1.0375657091e+00	-1.5072765240e+00
 1.1461563888e+00	 1.0517027236e+00	-1.5615839779e+00
 1.1331673236e+00	 1.0656851801e+00	-1.5913591276e+00
 1.2020237923e+00	 9.9899550873e-01	-1.2707281817e+00
 1.1896958581e+00	 1.0136453960e+00	-1.3645075647e+00
 1.1771832297e+00	 1.0281502163e+00	-1.4476552913e+00
 1.1644884821e+00	 1.0425064981e+00	-1.5178147892e+00
 1.1516142764e+00	 1.0567108318e+00	-1.5705822377e+00
 1.1385633585e+00	 1.0707598714e+00	-1.5993188949e+00
 1.2077205875e+00	 1.0037300846e+00	-1.2835860744e+00
 1.1953342270e+00	 1.0184494027e+00	-1.3766128354e+00
 1.1827622972e+00	 1.0330229661e+00	-1.4585501589e+00
 1.1700073848e+00	 1.0474472872e+00	-1.5274266937e+00
 1.1570721639e+00	 1.0617189400e+00	-1.5792304238e+00
 1.1439593934e+00	 1.0758345628e+00	-1.6077141356e+00
 1.2134173827e+00	 1.0084646605e+00	-1.2954549069e+00
 1.2009725960e+00	 1.0232534093e+00	-1.3873889237e+00
 1.1883413646e+00	 1.0378957159e+00	-1.4681258149e+00
 1.1755262876e+00	 1.0523880763e+00	-1.5360412986e+00
 1.1625300515e+00	 1.0667270482e+00	-1.5874815804e+00
 1.1493554283e+00	 1.0809092541e+00	-1.6165618978e+00
 1.2191141779e+00	 1.0131992363e+00	-1.3064061040e+00
 1.2066109650e+00	 1.0280574159e+00	-1.3968173671e+00
 1.1939204321e+00	 1.0427684658e+00	-1.4763104952e+00
 1.1810451904e+00	 1.0573288654e+00	-1.5435710531e+00
 1.1679879391e+00	 1.0717351564e+00	-1.5952707831e+00
 1.1547514631e+00	 1.0859839454e+00	-1.6258591590e+00
 1.2248109731e+00	 1.0179338122e+00	-1.3164947946e+00
 1.2122493340e+00	 1.0328614225e+00	-1.4048642110e+00
 1.1994994995e+00	 1.0476412156e+00	-1.4830170311e+00
 1.1865640931e+00	 1.0622696545e+00	-1.5499123687e+00
 1.1734458266e+00	 1.0767432646e+00	-1.6025157110e+00
 1.1601474980e+00	 1.0910586368e+00	-1.6355834124e+00
 1.1331673236e+00	 1.0656851801e+00	-1.5913591276e+00
 1.1200051992e+00	 1.0795098148e+00	-1.6316505466e+00
 1.1066729110e+00	 1.0931734329e+00	-1.7125563156e+00
 1.0931734329e+00	 1.1066729110e+00	-1.8114959793e+00
 1.0795098148e+00	 1.1200051992e+00	-1.8951030008e+00
 1.0656851801e+00	 1.1331673236e+00	-1.9227643229e+00
 1.1385633585e+00	 1.0707598714e+00	-1.5993188949e+00
 1.1253385573e+00	 1.0846503377e+00	-1.6396765144e+00
 1.1119427820e+00	 1.0983790207e+00	-1.7220518020e+00
 1.0983790207e+00	 1.1119427820e+00	-1.8252018938e+00
 1.0846503377e+00	 1.1253385573e+00	-1.9049994340e+00
 1.0707598714e+00	 1.1385633585e+00	-1.9295268502e+00
 1.1439593934e+00	 1.0758345628e+00	-1.6077141356e+00
 1.1306719154e+00	 1.0897908607e+00	-1.6489803020e+00
 1.1172126530e+00	 1.1035846085e+00	-1.7334923259e+00
 1.1035846085e+00	 1.1172126530e+00	-1.8382554609e+00
 1.0897908607e+00	 1.1306719154e+00	-1.9132361417e+00
 1.0758345628e+00	 1.1439593934e+00	-1.9354318610e+00
 1.1493554283e+00	 1.0809092541e+00	-1.6165618978e+00
 1.1360052734e+00	 1.0949313836e+00	-1.6596556660e+00
 1.1224825240e+00	 1.1087901963e+00	-1.7472034284e+00
 1.1087901963e+00	 1.1224825240e+00	-1.8484761153e+00
 1.0949313836e+00	 1.1360052734e+00	-1.9192998336e+00
 1.0809092541e+00	 1.1493554283e+00	-1.9399801472e+00
 1.1547514631e+00	 1.0859839454e+00	-1.6258591590e+00
 1.1413386315e+00	 1.1000719065e+00	-1.6717739685e+00
 1.1277523950e+00	 1.1139957840e+00	-1.7624743395e+00
 1.1139957840e+00	 1.1277523950e+00	-1.8555058965e+00
 1.1000719065e+00	 1.1413386315e+00	-1.9226873879e+00
 1.0859839454e+00	 1.1547514631e+00	-1.9426821865e+00
 1.1601474980e+00	 1.0910586368e+00	-1.6355834124e+00
 1.1466719896e+00	 1.1052124294e+00	-1.6853847813e+00
 1.1330222660e+00	 1.1192013718e+00	-1.7751698205e+00
 1.1192013718e+00	 1.1330222660e+00	-1.8598142693e+00
 1.1052124294e+00	 1.1466719896e+00	-1.9229064186e+00
 1.0910586368e+00	 1.1601474980e+00	-1.9430586904e+00
 1.0656851801e+00	 1.1331673236e+00	-1.9227643229e+00
 1.0517027236e+00	 1.1461563888e+00	-1.9277259008e+00
 1.0375657091e+00	 1.1589695793e+00	-1.9490021394e+00
 1.0232774664e+00	 1.1716041623e+00	-1.9799781621e+00
 1.0088413894e+00	 1.1840574891e+00	-2.0160580430e+00
 9.9426093286e-01	 1.1963269970e+00	-2.0545162420e+00
 1.0707598714e+00	 1.1385633585e+00	-1.9295268502e+00
 1.0567108318e+00	 1.1516142764e+00	-1.9329296352e+00
 1.0425064981e+00	 1.1644884821e+00	-1.9535382798e+00
 1.0281502163e+00	 1.1771832297e+00	-1.9844213305e+00
 1.0136453960e+00	 1.1896958581e+00	-2.0206681036e+00
 9.9899550873e-01	 1.2020237923e+00	-2.0592356377e+00
 1.0758345628e+00	 1.1439593934e+00	-1.9354318610e+00
 1.0617189400e+00	 1.1570721639e+00	-1.9381199373e+00
 1.0474472872e+00	 1.1700073848e+00	-1.9587103550e+00
 1.0330229661e+00	 1.1827622972e+00	-1.9899056109e+00
 1.0184494027e+00	 1.1953342270e+00	-2.0264302517e+00
 1.0037300846e+00	 1.2077205875e+00	-2.0648733162e+00
 1.0809092541e+00	 1.1493554283e+00	-1.9399801472e+00
 1.0667270482e+00	 1.1625300515e+00	-1.9427916187e+00
 1.0523880763e+00	 1.1755262876e+00	-1.9639937393e+00
 1.0378957159e+00	 1.1883413646e+00	-1.9958744591e+00
 1.0232534093e+00	 1.2009725960e+00	-2.0327445454e+00
 1.0084646605e+00	 1.2134173827e+00	-2.0707754821e+00
 1.0859839454e+00	 1.1547514631e+00	-1.9426821865e+00
 1.0717351564e+00	 1.1679879391e+00	-1.9464489601e+00
 1.0573288654e+00	 1.1810451904e+00	-1.9688732132e+00
 1.0427684658e+00	 1.1939204321e+00	-2.0017808214e+00
 1.0280574159e+00	 1.2066109650e+00	-2.0390207580e+00
 1.0131992363e+00	 1.2191141779e+00	-2.0762984137e+00
 1.0910586368e+00	 1.1601474980e+00	-1.9430586904e+00
 1.0767432646e+00	 1.1734458266e+00	-1.9486062314e+00
 1.0622696545e+00	 1.1865640931e+00	-1.9728434494e+00
 1.0476412156e+00	 1.1994994995e+00	-2.0070875815e+00
 1.0328614225e+00	 1.2122493340e+00	-2.0446787815e+00
 1.0179338122e+00	 1.2248109731e+00	-2.0808088195e+00
 9.9426093286e-01	 1.1963269970e+00	-2.0545162420e+00
 9.7953960979e-01	 1.2084102115e+00	-2.0861833255e+00
 9.6468098885e-01	 1.2203047473e+00	-2.1051148494e+00
 9.4968869134e-01	 1.2320083100e+00	-2.1156957544e+00
 9.3456638837e-01	 1.2435186980e+00	-2.1234533268e+00
 9.1931779788e-01	 1.2548338029e+00	-2.1348773342e+00
 9.9899550873e-01	 1.2020237923e+00	-2.0592356377e+00
 9.8420408412e-01	 1.2141645458e+00	-2.0905971338e+00
 9.6927470784e-01	 1.2261157222e+00	-2.1087731888e+00
 9.5421101844e-01	 1.2378750163e+00	-2.1183403681e+00
 9.3901670450e-01	 1.2494402156e+00	-2.1250530033e+00
 9.2369550168e-01	 1.2608092020e+00	-2.1356573301e+00
 1.0037300846e+00	 1.2077205875e+00	-2.0648733162e+00
 9.8886855845e-01	 1.2199188802e+00	-2.0955576272e+00
 9.7386842684e-01	 1.2319266972e+00	-2.1127041102e+00
 9.5873334554e-01	 1.2437417225e+00	-2.1210768112e+00
 9.4346702064e-01	 1.2553617332e+00	-2.1266587282e+00
 9.2807320548e-01	 1.2667846010e+00	-2.1364597757e+00
 1.0084646605e+00	 1.2134173827e+00	-2.0707754821e+00
 9.9353303278e-01	 1.2256732145e+00	-2.1003730629e+00
 9.7846214583e-01	 1.2377376722e+00	-2.1162197927e+00
 9.6325567265e-01	 1.2496084287e+00	-2.1232634533e+00
 9.4791733677e-01	 1.2612832508e+00	-2.1277176754e+00
 9.3245090928e-01	 1.2727600001e+00	-2.1368635507e+00
 1.0131992363e+00	 1.2191141779e+00	-2.0762984137e+00
 9.9819750712e-01	 1.2314275489e+00	-2.1043617847e+00
 9.8305586483e-01	 1.2435486472e+00	-2.1186416964e+00
 9.6777799975e-01	 1.2554751350e+00	-2.1242663263e+00
 9.5236765291e-01	 1.2672047684e+00	-2.1276822558e+00
 9.3682861308e-01	 1.2787353992e+00	-2.1364495477e+00
 1.0179338122e+00	 1.2248109731e+00	-2.0808088195e+00
 1.0028619814e+00	 1.2371818832e+00	-2.1068525393e+00
 9.8764958382e-01	 1.2493596222e+00	-2.1193008575e+00
 9.7230032685e-01	 1.2613418412e+00	-2.1234594171e+00
 9.5681796904e-01	 1.2731262860e+00	-2.1260104262e+00
 9.4120631688e-01	 1.2847107982e+00	-2.1348010148e+00
 9.1931779788e-01	 1.2548338029e+00	-2.1348773342e+00
 9.0394668173e-01	 1.2659516116e+00	-2.1438486632e+00
 8.8845684264e-01	 1.2768702069e+00	-2.1422096191e+00
 8.7285212116e-01	 1.2875877683e+00	-2.1342493257e+00
 8.5713639264e-01	 1.2981025733e+00	-2.1244550018e+00
 8.4131356412e-01	 1.3084129980e+00	-2.1173596450e+00
 9.2369550168e-01	 1.2608092020e+00	-2.1356573301e+00
 9.0825118974e-01	 1.2719799526e+00	-2.1438456396e+00
 8.9268758951e-01	 1.2829505412e+00	-2.1411773030e+00
 8.7700855983e-01	 1.2937191386e+00	-2.1320879865e+00
 8.6121799451e-01	 1.3042840141e+00	-2.1212248738e+00
 8.4531981919e-01	 1.3146435361e+00	-2.1132895160e+00
 9.2807320548e-01	 1.2667846010e+00	-2.1364597757e+00
 9.1255569775e-01	 1.2780082937e+00	-2.1439805856e+00
 8.9691833638e-01	 1.2890308755e+00	-2.1404854888e+00
 8.8116499851e-01	 1.2998505089e+00	-2.1305451077e+00
 8.6529959638e-01	 1.3104654550e+00	-2.1189425901e+00
 8.4932607426e-01	 1.3208740741e+00	-2.1105116588e+00
 9.3245090928e-01	 1.2727600001e+00	-2.1368635507e+00
 9.1686020576e-01	 1.2840366347e+00	-2.1439378136e+00
 9.0114908325e-01	 1.2951112098e+00	-2.1398286558e+00
 8.8532143718e-01	 1.3059818792e+00	-2.1292306613e+00
 8.6938119825e-01	 1.3166468958e+00	-2.1170396265e+00
 8.5333232932e-01	 1.3271046122e+00	-2.1081858401e+00
 9.3682861308e-01	 1.2787353992e+00	-2.1364495477e+00
 9.2116471377e-01	 1.2900649757e+00	-2.1434009292e+00
 9.0537983012e-01	 1.3011915441e+00	-2.1388996640e+00
 8.8947787585e-01	 1.3121132496e+00	-2.1277538939e+00
 8.7346280012e-01	 1.3228283366e+00	-2.1149494319e+00
 8.5733858439e-01	 1.3333351503e+00	-2.1054782973e+00
 9.4120631688e-01	 1.2847107982e+00	-2.1348010148e+00
 9.2546922178e-01	 1.2960933167e+00	-2.1420531980e+00
 9.0961057699e-01	 1.3072718785e+00	-2.1373901024e+00
 8.9363431452e-01	 1.3182446199e+00	-2.1257236162e+00
 8.7754440199e-01	 1.3290097774e+00	-2.1121076173e+00
 8.6134483946e-01	 1.3395656884e+00	-2.1015617868e+00
 8.4131356412e-01	 1.3084129980e+00	-2.1173596450e+00
 8.2538757125e-01	 1.3185175174e+00	-2.1054693209e+00
 8.0936237518e-01	 1.3284147064e+00	-2.0841979291e+00
 7.9324195946e-01	 1.3381032397e+00	-2.0621554320e+00
 7.7703032694e-01	 1.3475818927e+00	-2.0475451145e+00
 7.6073149664e-01	 1.3568495408e+00	-2.0480513146e+00
 8.4531981919e-01	 1.3146435361e+00	-2.1132895160e+00
 8.2931798825e-01	 1.3247961722e+00	-2.1011022651e+00
 8.1321648173e-01	 1.3347404907e+00	-2.0800124473e+00
 7.9701930213e-01	 1.3444751599e+00	-2.0581808063e+00
 7.8073047135e-01	 1.3539989493e+00	-2.0432893379e+00
 7.6435402758e-01	 1.3633107291e+00	-2.0424279592e+00
 8.4932607426e-01	 1.3208740741e+00	-2.1105116588e+00
 8.3324840526e-01	 1.3310748271e+00	-2.0981460683e+00
 8.1707058828e-01	 1.3410662750e+00	-2.0769848684e+00
 8.0079664479e-01	 1.3508470801e+00	-2.0548522516e+00
 7.8443061577e-01	 1.3604160059e+00	-2.0390418463e+00
 7.6797655851e-01	 1.3697719174e+00	-2.0362017424e+00
 8.5333232932e-01	 1.3271046122e+00	-2.1081858401e+00
 8.3717882227e-01	 1.3373534819e+00	-2.0955336106e+00
 8.2092469482e-01	 1.3473920593e+00	-2.0740024582e+00
 8.0457398745e-01	 1.3572190003e+00	-2.0511909810e+00
 7.8813076018e-01	 1.3668330626e+00	-2.0341354229e+00
 7.7159908945e-01	 1.3762331057e+00	-2.0291924756e+00
 8.5733858439e-01	 1.3333351503e+00	-2.1054782973e+00
 8.4110923927e-01	 1.3436321368e+00	-2.0922079686e+00
 8.2477880137e-01	 1.3537178436e+00	-2.0699630903e+00
 8.0835133012e-01	 1.3635909205e+00	-2.0462259517e+00
 7.9183090459e-01	 1.3732501192e+00	-2.0279044979e+00
 7.7522162038e-01	 1.3826942940e+00	-2.0212123324e+00
 8.6134483946e-01	 1.3395656884e+00	-2.1015617868e+00
 8.4503965628e-01	 1.3499107916e+00	-2.0871223423e+00
 8.2863290792e-01	 1.3600436279e+00	-2.0637751309e+00
 8.1212867278e-01	 1.3699628407e+00	-2.0389937848e+00
 7.9553104901e-01	 1.3796671758e+00	-2.0196851811e+00
 7.7884415132e-01	 1.3891554823e+00	-2.0120660698e+00
 7.6073149664e-01	 1.3568495408e+00	-2.0480513146e+00
 7.4434950070e-01	 1.3659051604e+00	-2.0341117259e+00
 7.2788838126e-01	 1.3747478281e+00	-1.9883997179e+00
 7.1135218747e-01	 1.3833767209e+00	-1.9388845129e+00
 6.9474497236e-01	 1.3917911157e+00	-1.8938822530e+00
 6.7807078992e-01	 1.3999903893e+00	-1.8600776863e+00
 7.6435402758e-01	 1.3633107291e+00	-2.0424279592e+00
 7.4789402213e-01	 1.3724094707e+00	-2.0270796157e+00
 7.3135451641e-01	 1.3812942463e+00	-1.9778713249e+00
 7.1473957883e-01	 1.3899642291e+00	-1.9251805591e+00
 6.9805328175e-01	 1.3984186925e+00	-1.8794172407e+00
 6.8129969845e-01	 1.4066570103e+00	-1.8475350143e+00
 7.6797655851e-01	 1.3697719174e+00	-2.0362017424e+00
 7.5143854356e-01	 1.3789137810e+00	-2.0192685404e+00
 7.3482065156e-01	 1.3878406645e+00	-1.9681886478e+00
 7.1812697020e-01	 1.3965517372e+00	-1.9130860178e+00
 7.0136159114e-01	 1.4050462692e+00	-1.8672044768e+00
 6.8452860697e-01	 1.4133236312e+00	-1.8373780599e+00
 7.7159908945e-01	 1.3762331057e+00	-2.0291924756e+00
 7.5498306499e-01	 1.3854180913e+00	-2.0109316510e+00
 7.3828678671e-01	 1.3943870828e+00	-1.9596600392e+00
 7.2151436157e-01	 1.4031392454e+00	-1.9027813408e+00
 7.0466990053e-01	 1.4116738459e+00	-1.8570289021e+00
 6.8775751549e-01	 1.4199902521e+00	-1.8287344386e+00
 7.7522162038e-01	 1.3826942940e+00	-2.0212123324e+00
 7.5852758642e-01	 1.3919224016e+00	-2.0023062755e+00
 7.4175292186e-01	 1.4009335010e+00	-1.9525369298e+00
 7.2490175294e-01	 1.4097267536e+00	-1.8944342894e+00
 7.0797820992e-01	 1.4183014227e+00	-1.8486693746e+00
 6.9098642402e-01	 1.4266568730e+00	-1.8207372458e+00
 7.7884415132e-01	 1.3891554823e+00	-2.0120660698e+00
 7.6207210786e-01	 1.3984267118e+00	-1.9936143042e+00
 7.4521905701e-01	 1.4074799192e+00	-1.9464170373e+00
 7.2828914431e-01	 1.4163142618e+00	-1.8882008268e+00
 7.1128651932e-01	 1.4249289994e+00	-1.8418993579e+00
 6.9421533254e-01	 1.4333234939e+00	-1.8125254279e+00
 6.7807078992e-01	 1.3999903893e+00	-1.8600776863e+00
 6.6133369212e-01	 1.4079740175e+00	-1.8354268294e+00
 6.4453772591e-01	 1.4157415747e+00	-1.8118889987e+00
 6.2768693041e-01	 1.4232927330e+00	-1.7855530278e+00
 6.1078533400e-01	 1.4306272618e+00	-1.7513896179e+00
 5.9383695154e-01	 1.4377450266e+00	-1.7033245397e+00
 6.8129969845e-01	 1.4066570103e+00	-1.8475350143e+00
 6.6448290018e-01	 1.4146786557e+00	-1.8258249660e+00
 6.4760695318e-01	 1.4224832012e+00	-1.8041187774e+00
 6.3067591579e-01	 1.4300703174e+00	-1.7780383720e+00
 6.1369383559e-01	 1.4374397726e+00	-1.7420148728e+00
 5.9666474655e-01	 1.4445914315e+00	-1.6893642968e+00
 6.8452860697e-01	 1.4133236312e+00	-1.8373780599e+00
 6.6763210823e-01	 1.4213832939e+00	-1.8177453767e+00
 6.5067618045e-01	 1.4292248278e+00	-1.7962417213e+00
 6.3366490118e-01	 1.4368479019e+00	-1.7687184073e+00
 6.1660233718e-01	 1.4442522833e+00	-1.7298000740e+00
 5.9949254155e-01	 1.4514378363e+00	-1.6729606629e+00
 6.8775751549e-01	 1.4199902521e+00	-1.8287344386e+00
 6.7078131629e-01	 1.4280879321e+00	-1.8097221640e+00
 6.5374540771e-01	 1.4359664543e+00	-1.7865768893e+00
 6.3665388656e-01	 1.4436254863e+00	-1.7560648689e+00
 6.1951083877e-01	 1.4510647941e+00	-1.7137262455e+00
 6.0232033656e-01	 1.4582842412e+00	-1.6539491156e+00
 6.9098642402e-01	 1.4266568730e+00	-1.8207372458e+00
 6.7393052435e-01	 1.4347925703e+00	-1.8003053496e+00
 6.5681463498e-01	 1.4427080809e+00	-1.7734626997e+00
 6.3964287194e-01	 1.4504030708e+00	-1.7385654998e+00
 6.2241934036e-01	 1.4578773049e+00	-1.6927804887e+00
 6.0514813157e-01	 1.4651306461e+00	-1.6321549175e+00
 6.9421533254e-01	 1.4333234939e+00	-1.8125254279e+00
 6.7707973241e-01	 1.4414972084e+00	-1.7880609546e+00
 6.5988386224e-01	 1.4494497074e+00	-1.7552568839e+00
 6.4263185733e-01	 1.4571806552e+00	-1.7147240366e+00
 6.2532784195e-01	 1.4646898156e+00	-1.6659561530e+00
 6.0797592657e-01	 1.4719770510e+00	-1.6073936232e+00
 5.9383695154e-01	 1.4377450266e+00	-1.7033245397e+00
 5.7684578163e-01	 1.4446459880e+00	-1.6487456720e+00
 5.5981580390e-01	 1.4513302009e+00	-1.5992466721e+00
 5.4275097638e-01	 1.4577978132e+00	-1.5539060482e+00
 5.2565523293e-01	 1.4640490642e+00	-1.5113032399e+00
 5.0853248072e-01	 1.4700842841e+00	-1.4695976246e+00
 5.9666474655e-01	 1.4445914315e+00	-1.6893642968e+00
 5.7959266630e-01	 1.4515252546e+00	-1.6287836915e+00
 5.6248159344e-01	 1.4582412971e+00	-1.5744167769e+00
 5.4533550484e-01	 1.4647397075e+00	-1.5265683524e+00
 5.2815835309e-01	 1.4710207265e+00	-1.4850764013e+00
 5.1095406396e-01	 1.4770846855e+00	-1.4493887547e+00
 5.9949254155e-01	 1.4514378363e+00	-1.6729606629e+00
 5.8233955098e-01	 1.4584045212e+00	-1.6091042324e+00
 5.6514738298e-01	 1.4651523933e+00	-1.5548588835e+00
 5.4792003330e-01	 1.4716816019e+00	-1.5110779053e+00
 5.3066147325e-01	 1.4779923887e+00	-1.4781486174e+00
 5.1337564720e-01	 1.4840850868e+00	-1.4532231531e+00
 6.0232033656e-01	 1.4582842412e+00	-1.6539491156e+00
 5.8508643565e-01	 1.4652837878e+00	-1.5903994622e+00
 5.6781317253e-01	 1.4720634895e+00	-1.5417957151e+00
 5.5050456176e-01	 1.4786234962e+00	-1.5088721869e+00
 5.3316459340e-01	 1.4849640509e+00	-1.4867360593e+00
 5.1579723044e-01	 1.4910854882e+00	-1.4518155598e+00
 6.0514813157e-01	 1.4651306461e+00	-1.6321549175e+00
 5.8783332033e-01	 1.4721630544e+00	-1.5733350929e+00
 5.7047896207e-01	 1.4789745857e+00	-1.5364134921e+00
 5.5308909022e-01	 1.4855653906e+00	-1.5142803163e+00
 5.3566771356e-01	 1.4919357131e+00	-1.4812646050e+00
 5.1821881368e-01	 1.4980858896e+00	-1.4378021666e+00
 6.0797592657e-01	 1.4719770510e+00	-1.6073936232e+00
 5.9058020500e-01	 1.4790423210e+00	-1.5585512248e+00
 5.7314475161e-01	 1.4858856819e+00	-1.5316759279e+00
 5.5567361868e-01	 1.4925072849e+00	-1.4983423117e+00
 5.3817083372e-01	 1.4989073753e+00	-1.4577672155e+00
 5.2064039692e-01	 1.5050862909e+00	-1.4119165799e+00
 5.0853248072e-01	 1.4700842841e+00	-1.4695976246e+00
 4.9138659777e-01	 1.4759038918e+00	-1.4305894442e+00
 4.7422143062e-01	 1.4815083939e+00	-1.3992847589e+00
 4.5704079200e-01	 1.4868983828e+00	-1.3665467425e+00
 4.3984845856e-01	 1.4920745356e+00	-1.3263863730e+00
 4.2264816881e-01	 1.4970376120e+00	-1.2858427802e+00
 5.1095406396e-01	 1.4770846855e+00	-1.4493887547e+00
 4.9372653395e-01	 1.4829320056e+00	-1.4206847896e+00
 4.7647962791e-01	 1.4885631958e+00	-1.3849229687e+00
 4.5921717672e-01	 1.4939788513e+00	-1.3401110189e+00
 4.4194297503e-01	 1.4991796525e+00	-1.2925121910e+00
 4.2466077914e-01	 1.5041663626e+00	-1.2485458425e+00
 5.1337564720e-01	 1.4840850868e+00	-1.4532231531e+00
 4.9606647013e-01	 1.4899601194e+00	-1.4163401964e+00
 4.7873782520e-01	 1.4956179976e+00	-1.3688480202e+00
 4.6139356144e-01	 1.5010593198e+00	-1.3162076004e+00
 4.4403749150e-01	 1.5062847693e+00	-1.2640161095e+00
 4.2667338947e-01	 1.5112951131e+00	-1.2180090817e+00
 5.1579723044e-01	 1.4910854882e+00	-1.4518155598e+00
 4.9840640631e-01	 1.4969882332e+00	-1.4049000956e+00
 4.8099602249e-01	 1.5026727995e+00	-1.3507914960e+00
 4.6356994617e-01	 1.5081397883e+00	-1.2942147028e+00
 4.4613200797e-01	 1.5133898862e+00	-1.2400250159e+00
 4.2868599980e-01	 1.5184238636e+00	-1.1932109433e+00
 5.1821881368e-01	 1.4980858896e+00	-1.4378021666e+00
 5.0074634249e-01	 1.5040163469e+00	-1.3865564057e+00
 4.8325421978e-01	 1.5097276014e+00	-1.3304984060e+00
 4.6574633089e-01	 1.5152202568e+00	-1.2735295875e+00
 4.4822652444e-01	 1.5204950030e+00	-1.2196885154e+00
 4.3069861012e-01	 1.5255526142e+00	-1.1731543056e+00
 5.2064039692e-01	 1.5050862909e+00	-1.4119165799e+00
 5.0308627867e-01	 1.5110444607e+00	-1.3615069554e+00
 4.8551241707e-01	 1.5167824033e+00	-1.3077270594e+00
 4.6792271561e-01	 1.5223007253e+00	-1.2535683145e+00
 4.5032104091e-01	 1.5276001198e+00	-1.2021786088e+00
 4.3271122045e-01	 1.5326813647e+00	-1.1568661268e+00
 4.2264816881e-01	 1.4970376120e+00	-1.2858427802e+00
 4.0544362095e-01	 1.5017884527e+00	-1.2538666195e+00
 3.8823847091e-01	 1.5063279776e+00	-1.2205220200e+00
 3.7103633044e-01	 1.5106571841e+00	-1.1651169898e+00
 3.5384076526e-01	 1.5147771451e+00	-1.1055910287e+00
 3.3665529329e-01	 1.5186890070e+00	-1.0705194937e+00
 4.2466077914e-01	 1.5041663626e+00	-1.2485458425e+00
 4.0737430486e-01	 1.5089398263e+00	-1.2167780893e+00
 3.9008722553e-01	 1.5135009680e+00	-1.1868343968e+00
 3.7280317011e-01	 1.5178507898e+00	-1.1372874241e+00
 3.5552572128e-01	 1.5219903696e+00	-1.0779494617e+00
 3.3825841373e-01	 1.5259208594e+00	-1.0439298614e+00
 4.2667338947e-01	 1.5112951131e+00	-1.2180090817e+00
 4.0930498877e-01	 1.5160911999e+00	-1.1864342290e+00
 3.9193598016e-01	 1.5206739583e+00	-1.1588849347e+00
 3.7457000978e-01	 1.5250443954e+00	-1.1136544661e+00
 3.5721067731e-01	 1.5292035941e+00	-1.0536354316e+00
 3.3986153417e-01	 1.5331527118e+00	-1.0190926951e+00
 4.2868599980e-01	 1.5184238636e+00	-1.1932109433e+00
 4.1123567268e-01	 1.5232425734e+00	-1.1617439585e+00
 3.9378473478e-01	 1.5278469487e+00	-1.1355633280e+00
 3.7633684945e-01	 1.5322380010e+00	-1.0931327090e+00
 3.5889563333e-01	 1.5364168186e+00	-1.0316605217e+00
 3.4146465462e-01	 1.5403845642e+00	-9.9517418262e-01
 4.3069861012e-01	 1.5255526142e+00	-1.1731543056e+00
 4.1316635659e-01	 1.5303939470e+00	-1.1416408432e+00
 3.9563348941e-01	 1.5350199391e+00	-1.1157831658e+00
 3.7810368912e-01	 1.5394316067e+00	-1.0746590505e+00
 3.6058058936e-01	 1.5436300431e+00	-1.0110452606e+00
 3.4306777506e-01	 1.5476164166e+00	-9.7134490345e-01
 4.3271122045e-01	 1.5326813647e+00	-1.1568661268e+00
 4.1509704050e-01	 1.5375453206e+00	-1.1250827413e+00
 3.9748224403e-01	 1.5421929295e+00	-1.0984816019e+00
 3.7987052879e-01	 1.5466252123e+00	-1.0571924017e+00
 3.6226554538e-01	 1.5508432676e+00	-9.9081949987e-01
 3.4467089551e-01	 1.5548482691e+00	-9.4678020613e-01
 3.3665529329e-01	 1.5186890070e+00	-1.0705194937e+00
 3.1948338299e-01	 1.5223939879e+00	-1.0445744863e+00
 3.0232845180e-01	 1.5258933756e+00	-1.0188569961e+00
 2.8519386456e-01	 1.5291885253e+00	-9.9169543225e-01
 2.6808293217e-01	 1.5322808580e+00	-9.6248534216e-01
 2.5099891018e-01	 1.5351718580e+00	-9.3150234363e-01
 3.3825841373e-01	 1.5259208594e+00	-1.0439298614e+00
 3.2100473243e-01	 1.5296434831e+00	-1.0195360943e+00
 3.0376811109e-01	 1.5331595345e+00	-9.9480949309e-01
 2.8655193058e-01	 1.5364703755e+00	-9.6793749958e-01
 2.6935951756e-01	 1.5395774335e+00	-9.3819426888e-01
 2.5219414309e-01	 1.5424822002e+00	-9.0575396030e-01
 3.3986153417e-01	 1.5331527118e+00	-1.0190926951e+00
 3.2252608188e-01	 1.5368929783e+00	-9.9526683365e-01
 3.0520777039e-01	 1.5404256934e+00	-9.7118408874e-01
 2.8790999660e-01	 1.5437522256e+00	-9.4470749783e-01
 2.7063610295e-01	 1.5468740091e+00	-9.1480275576e-01
 2.5338937599e-01	 1.5497925423e+00	-8.8135242789e-01
 3.4146465462e-01	 1.5403845642e+00	-9.9517418262e-01
 3.2404743132e-01	 1.5441424734e+00	-9.7108243222e-01
 3.0664742968e-01	 1.5476918524e+00	-9.4740668553e-01
 2.8926806263e-01	 1.5510340757e+00	-9.2150453533e-01
 2.7191268834e-01	 1.5541705846e+00	-8.9184848723e-01
 2.5458460890e-01	 1.5571028845e+00	-8.5784166077e-01
 3.4306777506e-01	 1.5476164166e+00	-9.7134490345e-01
 3.2556878076e-01	 1.5513919686e+00	-9.4629891715e-01
 3.0808708897e-01	 1.5549580113e+00	-9.2290048701e-01
 2.9062612865e-01	 1.5583159258e+00	-8.9782306073e-01
 2.7318927373e-01	 1.5614671601e+00	-8.6886350734e-01
 2.5577984180e-01	 1.5644132267e+00	-8.3475987292e-01
 3.4467089551e-01	 1.5548482691e+00	-9.4678020613e-01
 3.2709013021e-01	 1.5586414638e+00	-9.2023299119e-01
 3.0952674827e-01	 1.5622241702e+00	-8.9708635666e-01
 2.9198419467e-01	 1.5655977759e+00	-8.7315319001e-01
 2.7446585912e-01	 1.5687637356e+00	-8.4537450106e-01
 2.5697507471e-01	 1.5717235689e+00	-8.1163980114e-01
 2.5099891018e-01	 1.5351718580e+00	-9.3150234363e-01
 2.3394499760e-01	 1.5378630708e+00	-9.0150070271e-01
 2.1692433567e-01	 1.5403561014e+00	-8.7430219167e-01
 1.9994000682e-01	 1.5426526116e+00	-8.4976208893e-01
 1.8299503363e-01	 1.5447543184e+00	-8.2819425246e-01
 1.6609237795e-01	 1.5466629912e+00	-8.1024688465e-01
 2.5219414309e-01	 1.5424822002e+00	-9.0575396030e-01
 2.3505902140e-01	 1.5451862283e+00	-8.7399423101e-01
 2.1795730870e-01	 1.5476911304e+00	-8.4546564408e-01
 2.0089210209e-01	 1.5499985764e+00	-8.2009811351e-01
 1.8386643856e-01	 1.5521102913e+00	-7.9828527372e-01
 1.6688329404e-01	 1.5540280531e+00	-7.8076247934e-01
 2.5338937599e-01	 1.5497925423e+00	-8.8135242789e-01
 2.3617304519e-01	 1.5525093858e+00	-8.4813075924e-01
 2.1899028172e-01	 1.5550261595e+00	-8.1836225383e-01
 2.0184419736e-01	 1.5573445412e+00	-7.9211662444e-01
 1.8473784348e-01	 1.5594662642e+00	-7.6993157255e-01
 1.6767421012e-01	 1.5613931149e+00	-7.5269306038e-01
 2.5458460890e-01	 1.5571028845e+00	-8.5784166077e-01
 2.3728706899e-01	 1.5598325432e+00	-8.2345255710e-01
 2.2002325475e-01	 1.5623611885e+00	-7.9254664402e-01
 2.0279629263e-01	 1.5646905061e+00	-7.6539690726e-01
 1.8560924840e-01	 1.5668222372e+00	-7.4274767781e-01
 1.6846512621e-01	 1.5687581768e+00	-7.2569722057e-01
 2.5577984180e-01	 1.5644132267e+00	-8.3475987292e-01
 2.3840109279e-01	 1.5671557007e+00	-7.9949657849e-01
 2.2105622778e-01	 1.5696962176e+00	-7.6756852139e-01
 2.0374838790e-01	 1.5720364709e+00	-7.3951375415e-01
 1.8648065332e-01	 1.5741782101e+00	-7.1634407937e-01
 1.6925604229e-01	 1.5761232387e+00	-6.9943000624e-01
 2.5697507471e-01	 1.5717235689e+00	-8.1163980114e-01
 2.3951511659e-01	 1.5744788582e+00	-7.7579462485e-01
 2.2208920080e-01	 1.5770312466e+00	-7.4297278773e-01
 2.0470048317e-01	 1.5793824357e+00	-7.1403753081e-01
 1.8735205824e-01	 1.5815341831e+00	-6.9032725724e-01
 1.7004695838e-01	 1.5834883005e+00	-6.7354291488e-01
 1.6609237795e-01	 1.5466629912e+00	-8.1024688465e-01
 1.4923494001e-01	 1.5483804504e+00	-7.9482252388e-01
 1.3242555768e-01	 1.5499085644e+00	-7.8050333743e-01
 1.1566700580e-01	 1.5512492482e+00	-7.6755835990e-01
 9.8961995584e-02	 1.5524044608e+00	-7.5607813213e-01
 8.2313174043e-02	 1.5533762029e+00	-7.4588744476e-01
 1.6688329404e-01	 1.5540280531e+00	-7.8076247934e-01
 1.4994558258e-01	 1.5557536906e+00	-7.6597504295e-01
 1.3305615557e-01	 1.5572890814e+00	-7.5198486607e-01
 1.1621780107e-01	 1.5586361494e+00	-7.3907740152e-01
 9.9433243182e-02	 1.5597968630e+00	-7.2738414386e-01
 8.2705141538e-02	 1.5607732325e+00	-7.1679786193e-01
 1.6767421012e-01	 1.5613931149e+00	-7.5269306038e-01
 1.5065622515e-01	 1.5631269309e+00	-7.3845997944e-01
 1.3368675347e-01	 1.5646695984e+00	-7.2477674979e-01
 1.1676859634e-01	 1.5660230506e+00	-7.1190653988e-01
 9.9904490780e-02	 1.5671892652e+00	-6.9998390346e-01
 8.3097109034e-02	 1.5681702620e+00	-6.8893271851e-01
 1.6846512621e-01	 1.5687581768e+00	-7.2569722057e-01
 1.5136686772e-01	 1.5705001711e+00	-7.1198479158e-01
 1.3431735136e-01	 1.5720501154e+00	-6.9863703567e-01
 1.1731939160e-01	 1.5734099518e+00	-6.8585574651e-01
 1.0037573838e-01	 1.5745816674e+00	-6.7374023323e-01
 8.3489076529e-02	 1.5755672915e+00	-6.6220818901e-01
 1.6925604229e-01	 1.5761232387e+00	-6.9943000624e-01
 1.5207751029e-01	 1.5778734113e+00	-6.8625396950e-01
 1.3494794925e-01	 1.5794306323e+00	-6.7332149603e-01
 1.1787018687e-01	 1.5807968530e+00	-6.6073350407e-01
 1.0084698598e-01	 1.5819740696e+00	-6.4851532269e-01
 8.3881044025e-02	 1.5829643211e+00	-6.3654071861e-01
 1.7004695838e-01	 1.5834883005e+00	-6.7354291488e-01
 1.5278815286e-01	 1.5852466516e+00	-6.6096900605e-01
 1.3557854715e-01	 1.5868111493e+00	-6.4858357582e-01
 1.1842098213e-01	 1.5881837542e+00	-6.3634673409e-01
 1.0131823357e-01	 1.5893664718e+00	-6.2417064018e-01
 8.4273011520e-02	 1.5903613506e+00	-6.1184692220e-01
 8.2313174043e-02	 1.5533762029e+00	-7.4588744476e-01
 6.5723123590e-02	 1.5541665154e+00	-7.3639514125e-01
 4.9194361635e-02	 1.5547774764e+00	-7.2844376588e-01
 3.2729340287e-02	 1.5552112000e+00	-7.2334520485e-01
 1.6330446118e-02	 1.5554698335e+00	-7.2179459086e-01
-6.6576989602e-07	 1.5555755287e+00	 6.7314383755e-01
 8.2705141538e-02	 1.5607732325e+00	-7.1679786193e-01
 6.6036090845e-02	 1.5615673083e+00	-7.0693530357e-01
 4.9428620500e-02	 1.5621811787e+00	-6.9881071680e-01
 3.2885194289e-02	 1.5626169677e+00	-6.9380054052e-01
 1.6408210147e-02	 1.5628768327e+00	-6.9270477157e-01
-6.5463503251e-07	 1.5629828639e+00	 7.0136492087e-01
 8.3097109034e-02	 1.5681702620e+00	-6.8893271851e-01
 6.6349058100e-02	 1.5689681012e+00	-6.7856977064e-01
 4.9662879365e-02	 1.5695848810e+00	-6.7013448080e-01
 3.3041048290e-02	 1.5700227353e+00	-6.6512274887e-01
 1.6485974177e-02	 1.5702838319e+00	-6.6449293206e-01
-6.4329669031e-07	 1.5703901839e+00	 7.2682179200e-01
 8.3489076529e-02	 1.5755672915e+00	-6.6220818901e-01
 6.6662025356e-02	 1.5763688941e+00	-6.5125990456e-01
 4.9897138230e-02	 1.5769885832e+00	-6.4240396527e-01
 3.3196902291e-02	 1.5774285029e+00	-6.3730901438e-01
 1.6563738206e-02	 1.5776908311e+00	-6.3714367746e-01
-6.3176665399e-07	 1.5777974889e+00	 7.4959972071e-01
 8.3881044025e-02	 1.5829643211e+00	-6.3654071861e-01
 6.6974992611e-02	 1.5837696871e+00	-6.2496841985e-01
 5.0131397095e-02	 1.5843922855e+00	-6.1561083612e-01
 3.3352756293e-02	 1.5848342705e+00	-6.1036100967e-01
 1.6641502235e-02	 1.5850978303e+00	-6.1064815305e-01
-6.2005670803e-07	 1.5852047790e+00	 7.6977613057e-01
 8.4273011520e-02	 1.5903613506e+00	-6.1184692220e-01
 6.7287959866e-02	 1.5911704800e+00	-5.9965927004e-01
 5.0365655960e-02	 1.5917959878e+00	-5.8974938793e-01
 3.3508610294e-02	 1.5922400381e+00	-5.8428474491e-01
 1.6719266264e-02	 1.5925048295e+00	-5.8500386798e-01
-6.0817863690e-07	 1.5926120543e+00	 7.8742080556e-01
 1.5925925926e+00	 0.0000000000e+00	 3.6388624659e+00
 1.5925048295e+00	 1.6719266264e-02	 3.6369806347e+00
 1.5922400381e+00	 3.3508610294e-02	 3.6311194913e+00
 1.5917959878e+00	 5.0365655960e-02	 3.6217138407e+00
 1.5911704800e+00	 6.7287959866e-02	 3.6085432727e+00
 1.5903613506e+00	 8.4273011520e-02	 3.5907907698e+00
 1.6000000000e+00	 0.0000000000e+00	 3.6266117073e+00
 1.5999118287e+00	 1.6797030293e-02	 3.6243531290e+00
 1.5996458057e+00	 3.3664464295e-02	 3.6184359230e+00
 1.5991996900e+00	 5.0599914825e-02	 3.6091617916e+00
 1.5985712729e+00	 6.7600927121e-02	 3.5962019290e+00
 1.5977583801e+00	 8.4664979016e-02	 3.5786529487e+00
 1.6074074074e+00	 0.0000000000e+00	 3.6140954173e+00
 1.6073188280e+00	 1.6874794322e-02	 3.6115690656e+00
 1.6070515734e+00	 3.3820318297e-02	 3.6056006656e+00
 1.6066033923e+00	 5.0834173690e-02	 3.5964101816e+00
 1.6059720659e+00	 6.7913894376e-02	 3.5836131998e+00
 1.6051554097e+00	 8.5056946511e-02	 3.5662739365e+00
 1.6148148148e+00	 0.0000000000e+00	 3.6012814626e+00
 1.6147258272e+00	 1.6952558351e-02	 3.5986106895e+00
 1.6144573410e+00	 3.3976172298e-02	 3.5925969911e+00
 1.6140070946e+00	 5.1068432555e-02	 3.5834300599e+00
 1.6133728588e+00	 6.8226861632e-02	 3.5707227939e+00
 1.6125524392e+00	 8.5448914007e-02	 3.5535611446e+00
 1.6222222222e+00	 0.0000000000e+00	 3.5881381757e+00
 1.6221328264e+00	 1.7030322381e-02	 3.5854606944e+00
 1.6218631086e+00	 3.4132026300e-02	 3.5794086296e+00
 1.6214107968e+00	 5.1302691420e-02	 3.5701929961e+00
 1.6207736517e+00	 6.8539828887e-02	 3.5574770828e+00
 1.6199494688e+00	 8.5840881502e-02	 3.5404228956e+00
 1.6296296296e+00	 0.0000000000e+00	 3.5746343443e+00
 1.6295398256e+00	 1.7108086410e-02	 3.5721022140e+00
 1.6292688762e+00	 3.4287880301e-02	 3.5660197612e+00
 1.6288144991e+00	 5.1536950285e-02	 3.5566710697e+00
 1.6281744447e+00	 6.8852796142e-02	 3.5438230848e+00
 1.6273464983e+00	 8.6232848997e-02	 3.5267684002e+00
 1.5903613506e+00	 8.4273011520e-02	 3.5907907698e+00
 1.5893664718e+00	 1.0131823357e-01	 3.5675388489e+00
 1.5881837542e+00	 1.1842098213e-01	 3.5396715523e+00
 1.5868111493e+00	 1.3557854715e-01	 3.5083792688e+00
 1.5852466516e+00	 1.5278815286e-01	 3.4745260170e+00
 1.5834883005e+00	 1.7004695838e-01	 3.4387179428e+00
 1.5977583801e+00	 8.4664979016e-02	 3.5786529487e+00
 1.5967588739e+00	 1.0178948117e-01	 3.5554069047e+00
 1.5955706553e+00	 1.1897177740e-01	 3.5272867627e+00
 1.5941916663e+00	 1.3620914504e-01	 3.4956148018e+00
 1.5926198918e+00	 1.5349879544e-01	 3.4613961914e+00
 1.5908533624e+00	 1.7083787446e-01	 3.4253831995e+00
 1.6051554097e+00	 8.5056946511e-02	 3.5662739365e+00
 1.6041512761e+00	 1.0226072877e-01	 3.5431280078e+00
 1.6029575565e+00	 1.1952257266e-01	 3.5149043405e+00
 1.6015721832e+00	 1.3683974293e-01	 3.4830113882e+00
 1.5999931321e+00	 1.5420943801e-01	 3.4485497431e+00
 1.5982184243e+00	 1.7162879055e-01	 3.4123719453e+00
 1.6125524392e+00	 8.5448914007e-02	 3.5535611446e+00
 1.6115436783e+00	 1.0273197637e-01	 3.5305646827e+00
 1.6103444577e+00	 1.2007336793e-01	 3.5023426858e+00
 1.6089527002e+00	 1.3747034083e-01	 3.4703457342e+00
 1.6073663723e+00	 1.5492008058e-01	 3.4357257972e+00
 1.6055834861e+00	 1.7241970664e-01	 3.3993915285e+00
 1.6199494688e+00	 8.5840881502e-02	 3.5404228956e+00
 1.6189360805e+00	 1.0320322397e-01	 3.5175806354e+00
 1.6177313589e+00	 1.2062416320e-01	 3.4894215699e+00
 1.6163332172e+00	 1.3810093872e-01	 3.4573960268e+00
 1.6147396125e+00	 1.5563072315e-01	 3.4226649920e+00
 1.6129485480e+00	 1.7321062272e-01	 3.3861507666e+00
 1.6273464983e+00	 8.6232848997e-02	 3.5267684002e+00
 1.6263284827e+00	 1.0367447156e-01	 3.5040407235e+00
 1.6251182601e+00	 1.2117495846e-01	 3.4759620995e+00
 1.6237137342e+00	 1.3873153661e-01	 3.4439418971e+00
 1.6221128528e+00	 1.5634136572e-01	 3.4091094436e+00
 1.6203136098e+00	 1.7400153881e-01	 3.3723599156e+00
 1.5834883005e+00	 1.7004695838e-01	 3.4387179428e+00
 1.5815341831e+00	 1.8735205824e-01	 3.4006746811e+00
 1.5793824357e+00	 2.0470048317e-01	 3.3582338699e+00
 1.5770312466e+00	 2.2208920080e-01	 3.3090323721e+00
 1.5744788582e+00	 2.3951511659e-01	 3.2508002351e+00
 1.5717235689e+00	 2.5697507471e-01	 3.1814840019e+00
 1.5908533624e+00	 1.7083787446e-01	 3.4253831995e+00
 1.5888901560e+00	 1.8822346317e-01	 3.3875056934e+00
 1.5867284005e+00	 2.0565257844e-01	 3.3455416023e+00
 1.5843662757e+00	 2.2312217383e-01	 3.2968625418e+00
 1.5818020157e+00	 2.4062914039e-01	 3.2389203924e+00
 1.5790339111e+00	 2.5817030761e-01	 3.1693671824e+00
 1.5982184243e+00	 1.7162879055e-01	 3.4123719453e+00
 1.5962461290e+00	 1.8909486809e-01	 3.3746086134e+00
 1.5940743653e+00	 2.0660467371e-01	 3.3330477651e+00
 1.5917013047e+00	 2.2415514686e-01	 3.2848678485e+00
 1.5891251732e+00	 2.4174316418e-01	 3.2273132542e+00
 1.5863442532e+00	 2.5936554052e-01	 3.1578103966e+00
 1.6055834861e+00	 1.7241970664e-01	 3.3993915285e+00
 1.6036021019e+00	 1.8996627301e-01	 3.3616558085e+00
 1.6014203301e+00	 2.0755676898e-01	 3.3203763746e+00
 1.5990363338e+00	 2.2518811988e-01	 3.2726105338e+00
 1.5964483306e+00	 2.4285718798e-01	 3.2154657925e+00
 1.5936545954e+00	 2.6056077343e-01	 3.1462117565e+00
 1.6129485480e+00	 1.7321062272e-01	 3.3861507666e+00
 1.6109580749e+00	 1.9083767793e-01	 3.3483211909e+00
 1.6087662950e+00	 2.0850886425e-01	 3.3071534055e+00
 1.6063713629e+00	 2.2622109291e-01	 3.2596555819e+00
 1.6037714881e+00	 2.4397121178e-01	 3.2028689075e+00
 1.6009649376e+00	 2.6175600633e-01	 3.1339749204e+00
 1.6203136098e+00	 1.7400153881e-01	 3.3723599156e+00
 1.6183140478e+00	 1.9170908285e-01	 3.3342801935e+00
 1.6161122598e+00	 2.0946095952e-01	 3.2930067689e+00
 1.6137063919e+00	 2.2725406594e-01	 3.2455706941e+00
 1.6110946456e+00	 2.4508523558e-01	 3.1890173946e+00
 1.6082752798e+00	 2.6295123924e-01	 3.1205090487e+00
 1.5717235689e+00	 2.5697507471e-01	 3.1814840019e+00
 1.5687637356e+00	 2.7446585912e-01	 3.1079833742e+00
 1.5655977759e+00	 2.9198419467e-01	 3.0384101887e+00
 1.5622241702e+00	 3.0952674827e-01	 2.9732930606e+00
 1.5586414638e+00	 3.2709013021e-01	 2.9140122435e+00
 1.5548482691e+00	 3.4467089551e-01	 2.8630162199e+00
 1.5790339111e+00	 2.5817030761e-01	 3.1693671824e+00
 1.5760603111e+00	 2.7574244451e-01	 3.0947933358e+00
 1.5728796261e+00	 2.9334226069e-01	 3.0236426391e+00
 1.5694903292e+00	 3.1096640756e-01	 2.9570764412e+00
 1.5658909590e+00	 3.2861147965e-01	 2.8970773015e+00
 1.5620801215e+00	 3.4627401595e-01	 2.8466619474e+00
 1.5863442532e+00	 2.5936554052e-01	 3.1578103966e+00
 1.5833568866e+00	 2.7701902991e-01	 3.0826196044e+00
 1.5801614762e+00	 2.9470032671e-01	 3.0103508631e+00
 1.5767564881e+00	 3.1240606686e-01	 2.9426479241e+00
 1.5731404542e+00	 3.3013282909e-01	 2.8819450643e+00
 1.5693119739e+00	 3.4787713639e-01	 2.8316765628e+00
 1.5936545954e+00	 2.6056077343e-01	 3.1462117565e+00
 1.5906534622e+00	 2.7829561530e-01	 3.0707819637e+00
 1.5874433263e+00	 2.9605839273e-01	 2.9978130139e+00
 1.5840226470e+00	 3.1384572615e-01	 2.9292836377e+00
 1.5803899493e+00	 3.3165417853e-01	 2.8679320849e+00
 1.5765438263e+00	 3.4948025684e-01	 2.8174622642e+00
 1.6009649376e+00	 2.6175600633e-01	 3.1339749204e+00
 1.5979500377e+00	 2.7957220069e-01	 3.0586073825e+00
 1.5947251764e+00	 2.9741645876e-01	 2.9853156394e+00
 1.5912888060e+00	 3.1528538545e-01	 2.9162688556e+00
 1.5876394445e+00	 3.3317552798e-01	 2.8543643253e+00
 1.5837756787e+00	 3.5108337728e-01	 2.8034304057e+00
 1.6082752798e+00	 2.6295123924e-01	 3.1205090487e+00
 1.6052466132e+00	 2.8084878608e-01	 3.0454299642e+00
 1.6020070265e+00	 2.9877452478e-01	 2.9721536385e+00
 1.5985549649e+00	 3.1672504474e-01	 2.9028979787e+00
 1.5948889397e+00	 3.3469687742e-01	 2.8405771808e+00
 1.5910075311e+00	 3.5268649773e-01	 2.7890015840e+00
 1.5548482691e+00	 3.4467089551e-01	 2.8630162199e+00
 1.5508432676e+00	 3.6226554538e-01	 2.7958460382e+00
 1.5466252123e+00	 3.7987052879e-01	 2.6920921410e+00
 1.5421929295e+00	 3.9748224403e-01	 2.5726941995e+00
 1.5375453206e+00	 4.1509704050e-01	 2.4563091007e+00
 1.5326813647e+00	 4.3271122045e-01	 2.3609264822e+00
 1.5620801215e+00	 3.4627401595e-01	 2.8466619474e+00
 1.5580564921e+00	 3.6395050141e-01	 2.7814918965e+00
 1.5538188179e+00	 3.8163736846e-01	 2.6806122169e+00
 1.5493659198e+00	 3.9933099865e-01	 2.5639988129e+00
 1.5446966942e+00	 4.1702772441e-01	 2.4490368571e+00
 1.5398101152e+00	 4.3472383078e-01	 2.3528448956e+00
 1.5693119739e+00	 3.4787713639e-01	 2.8316765628e+00
 1.5652697166e+00	 3.6563545743e-01	 2.7676672912e+00
 1.5610124236e+00	 3.8340420812e-01	 2.6688343906e+00
 1.5565389102e+00	 4.0117975328e-01	 2.5542966535e+00
 1.5518480678e+00	 4.1895840831e-01	 2.4404670512e+00
 1.5469388658e+00	 4.3673644111e-01	 2.3437801958e+00
 1.5765438263e+00	 3.4948025684e-01	 2.8174622642e+00
 1.5724829411e+00	 3.6732041346e-01	 2.7538593723e+00
 1.5682060292e+00	 3.8517104779e-01	 2.6562918042e+00
 1.5637119006e+00	 4.0302850790e-01	 2.5431210066e+00
 1.5589994414e+00	 4.2088909222e-01	 2.4300722142e+00
 1.5540676163e+00	 4.3874905143e-01	 2.3330800997e+00
 1.5837756787e+00	 3.5108337728e-01	 2.8034304057e+00
 1.5796961656e+00	 3.6900536948e-01	 2.7395645344e+00
 1.5753996349e+00	 3.8693788746e-01	 2.6425304433e+00
 1.5708848909e+00	 4.0487726252e-01	 2.5300189242e+00
 1.5661508150e+00	 4.2281977613e-01	 2.4173406592e+00
 1.5611963668e+00	 4.4076166176e-01	 2.3201112644e+00
 1.5910075311e+00	 3.5268649773e-01	 2.7890015840e+00
 1.5869093901e+00	 3.7069032551e-01	 2.7242900297e+00
 1.5825932405e+00	 3.8870472713e-01	 2.6271089776e+00
 1.5780578813e+00	 4.0672601715e-01	 2.5145510362e+00
 1.5733021885e+00	 4.2475046004e-01	 2.4017762373e+00
 1.5683251174e+00	 4.4277427209e-01	 2.3042589592e+00
 1.5326813647e+00	 4.3271122045e-01	 2.3609264822e+00
 1.5276001198e+00	 4.5032104091e-01	 2.2820343920e+00
 1.5223007253e+00	 4.6792271561e-01	 2.2009620275e+00
 1.5167824033e+00	 4.8551241707e-01	 2.1149345547e+00
 1.5110444607e+00	 5.0308627867e-01	 2.0214785332e+00
 1.5050862909e+00	 5.2064039692e-01	 1.9184136812e+00
 1.5398101152e+00	 4.3472383078e-01	 2.3528448956e+00
 1.5347052367e+00	 4.5241555738e-01	 2.2713246573e+00
 1.5293811938e+00	 4.7009910034e-01	 2.1870443730e+00
 1.5238372051e+00	 4.8777061436e-01	 2.0975910865e+00
 1.5180725745e+00	 5.0542621485e-01	 2.0008431917e+00
 1.5120866923e+00	 5.2306198017e-01	 1.8949622377e+00
 1.5469388658e+00	 4.3673644111e-01	 2.3437801958e+00
 1.5418103535e+00	 4.5451007385e-01	 2.2605523703e+00
 1.5364616623e+00	 4.7227548506e-01	 2.1742860201e+00
 1.5308920070e+00	 4.9002881164e-01	 2.0826595298e+00
 1.5251006882e+00	 5.0776615103e-01	 1.9836392907e+00
 1.5190870936e+00	 5.2548356341e-01	 1.8754722791e+00
 1.5540676163e+00	 4.3874905143e-01	 2.3330800997e+00
 1.5489154703e+00	 4.5660459032e-01	 2.2489453301e+00
 1.5435421308e+00	 4.7445186979e-01	 2.1618732050e+00
 1.5379468089e+00	 4.9228700893e-01	 2.0693665208e+00
 1.5321288020e+00	 5.1010608721e-01	 1.9692194056e+00
 1.5260874950e+00	 5.2790514665e-01	 1.8595113993e+00
 1.5611963668e+00	 4.4076166176e-01	 2.3201112644e+00
 1.5560205872e+00	 4.5869910679e-01	 2.2357533110e+00
 1.5506225992e+00	 4.7662825451e-01	 2.1490157029e+00
 1.5450016108e+00	 4.9454520622e-01	 2.0569622575e+00
 1.5391569158e+00	 5.1244602339e-01	 1.9569580853e+00
 1.5330878963e+00	 5.3032672989e-01	 1.8466658977e+00
 1.5683251174e+00	 4.4277427209e-01	 2.3042589592e+00
 1.5631257040e+00	 4.6079362326e-01	 2.2202476509e+00
 1.5577030677e+00	 4.7880463923e-01	 2.1349463653e+00
 1.5520564126e+00	 4.9680340351e-01	 2.0447200175e+00
 1.5461850295e+00	 5.1478595957e-01	 1.9462513847e+00
 1.5400882977e+00	 5.3274831313e-01	 1.8365403629e+00
 1.5050862909e+00	 5.2064039692e-01	 1.9184136812e+00
 1.4989073753e+00	 5.3817083372e-01	 1.8057839205e+00
 1.4925072849e+00	 5.5567361868e-01	 1.6855369242e+00
 1.4858856819e+00	 5.7314475161e-01	 1.5588635567e+00
 1.4790423210e+00	 5.9058020500e-01	 1.4295451862e+00
 1.4719770510e+00	 6.0797592657e-01	 1.3258280845e+00
 1.5120866923e+00	 5.2306198017e-01	 1.8949622377e+00
 1.5058790375e+00	 5.4067395387e-01	 1.7810347021e+00
 1.4994491793e+00	 5.5825814714e-01	 1.6627586242e+00
 1.4927967781e+00	 5.7581054115e-01	 1.5426862180e+00
 1.4859215877e+00	 5.9332708967e-01	 1.4237012074e+00
 1.4788234559e+00	 6.1080372158e-01	 1.3115495121e+00
 1.5190870936e+00	 5.2548356341e-01	 1.8754722791e+00
 1.5128506997e+00	 5.4317707403e-01	 1.7598655895e+00
 1.5063910736e+00	 5.6084267560e-01	 1.6419583165e+00
 1.4997078743e+00	 5.7847633070e-01	 1.5255854144e+00
 1.4928008543e+00	 5.9607397435e-01	 1.4148681528e+00
 1.4856698608e+00	 6.1363151659e-01	 1.3141735406e+00
 1.5260874950e+00	 5.2790514665e-01	 1.8595113993e+00
 1.5198223619e+00	 5.4568019419e-01	 1.7421221688e+00
 1.5133329679e+00	 5.6342720406e-01	 1.6232948450e+00
 1.5066189705e+00	 5.8114212024e-01	 1.5080696130e+00
 1.4996801209e+00	 5.9882085902e-01	 1.4017317411e+00
 1.4925162657e+00	 6.1645931160e-01	 1.3097675633e+00
 1.5330878963e+00	 5.3032672989e-01	 1.8466658977e+00
 1.5267940241e+00	 5.4818331434e-01	 1.7276642593e+00
 1.5202748623e+00	 5.6601173251e-01	 1.6069361139e+00
 1.5135300667e+00	 5.8380790978e-01	 1.4906504480e+00
 1.5065593875e+00	 6.0156774370e-01	 1.3851840559e+00
 1.4993626706e+00	 6.1928710660e-01	 1.2970743003e+00
 1.5400882977e+00	 5.3274831313e-01	 1.8365403629e+00
 1.5337656863e+00	 5.5068643450e-01	 1.7163655728e+00
 1.5272167566e+00	 5.6859626097e-01	 1.5930588372e+00
 1.5204411629e+00	 5.8647369932e-01	 1.4738425728e+00
 1.5134386541e+00	 6.0431462837e-01	 1.3661136840e+00
 1.5062090754e+00	 6.2211490161e-01	 1.2773933159e+00
 1.4719770510e+00	 6.0797592657e-01	 1.3258280845e+00
 1.4646898156e+00	 6.2532784195e-01	 1.2315793233e+00
 1.4571806552e+00	 6.4263185733e-01	 1.1237557294e+00
 1.4494497074e+00	 6.5988386224e-01	 1.0057509441e+00
 1.4414972084e+00	 6.7707973241e-01	 8.8002441312e-01
 1.4333234939e+00	 6.9421533254e-01	 7.4806458541e-01
 1.4788234559e+00	 6.1080372158e-01	 1.3115495121e+00
 1.4715023264e+00	 6.2823634354e-01	 1.2096568500e+00
 1.4639582397e+00	 6.4562084271e-01	 1.1003815138e+00
 1.4561913340e+00	 6.6295308951e-01	 9.8493175525e-01
 1.4482018466e+00	 6.8022894047e-01	 8.6363364398e-01
 1.4399901148e+00	 6.9744424107e-01	 7.3590103945e-01
 1.4856698608e+00	 6.1363151659e-01	 1.3141735406e+00
 1.4783148372e+00	 6.3114484513e-01	 1.2037531208e+00
 1.4707358241e+00	 6.4860982809e-01	 1.0861847118e+00
 1.4629329605e+00	 6.6602231678e-01	 9.6749575897e-01
 1.4549064848e+00	 6.8337814852e-01	 8.4650998324e-01
 1.4466567357e+00	 7.0067314959e-01	 7.2117290868e-01
 1.4925162657e+00	 6.1645931160e-01	 1.3097675633e+00
 1.4851273480e+00	 6.3405334672e-01	 1.2104099845e+00
 1.4775134085e+00	 6.5159881347e-01	 1.0824722013e+00
 1.4696745871e+00	 6.6909154404e-01	 9.5460944785e-01
 1.4616111230e+00	 6.8652735658e-01	 8.2944532695e-01
 1.4533233566e+00	 7.0390205811e-01	 7.0405408122e-01
 1.4993626706e+00	 6.1928710660e-01	 1.2970743003e+00
 1.4919398587e+00	 6.3696184831e-01	 1.2065317094e+00
 1.4842909930e+00	 6.5458779886e-01	 1.0878435754e+00
 1.4764162136e+00	 6.7216077131e-01	 9.4742634258e-01
 1.4683157612e+00	 6.8967656464e-01	 8.1322752673e-01
 1.4599899775e+00	 7.0713096664e-01	 6.8472785369e-01
 1.5062090754e+00	 6.2211490161e-01	 1.2773933159e+00
 1.4987523695e+00	 6.3987034990e-01	 1.1901988449e+00
 1.4910685774e+00	 6.5757678424e-01	 1.0804778151e+00
 1.4831578401e+00	 6.7522999858e-01	 9.4616627238e-01
 1.4750203993e+00	 6.9282577270e-01	 7.9864161055e-01
 1.4666565984e+00	 7.1035987516e-01	 6.6338792995e-01
 1.4333234939e+00	 6.9421533254e-01	 7.4806458541e-01
 1.4249289994e+00	 7.1128651932e-01	 6.2272050119e-01
 1.4163142618e+00	 7.2828914431e-01	 5.1709665253e-01
 1.4074799192e+00	 7.4521905701e-01	 4.3014702705e-01
 1.3984267118e+00	 7.6207210786e-01	 3.3043239350e-01
 1.3891554823e+00	 7.7884415132e-01	 1.9942806364e-01
 1.4399901148e+00	 6.9744424107e-01	 7.3590103945e-01
 1.4315565762e+00	 7.1459482871e-01	 6.1312889775e-01
 1.4229017700e+00	 7.3167653568e-01	 5.0913195814e-01
 1.4140263375e+00	 7.4868519216e-01	 4.2105440160e-01
 1.4049310221e+00	 7.6561662929e-01	 3.1661605899e-01
 1.3956166706e+00	 7.8246668226e-01	 1.8352107220e-01
 1.4466567357e+00	 7.0067314959e-01	 7.2117290868e-01
 1.4381841529e+00	 7.1790313810e-01	 6.0123735422e-01
 1.4294892782e+00	 7.3506392705e-01	 5.0020160859e-01
 1.4205727557e+00	 7.5215132731e-01	 4.1137325788e-01
 1.4114353324e+00	 7.6916115072e-01	 3.0424321692e-01
 1.4020778589e+00	 7.8608921319e-01	 1.7024283760e-01
 1.4533233566e+00	 7.0390205811e-01	 7.0405408122e-01
 1.4448117297e+00	 7.2121144749e-01	 5.8658313070e-01
 1.4360767864e+00	 7.3845131842e-01	 4.8942448522e-01
 1.4271191739e+00	 7.5561746246e-01	 4.0022981676e-01
 1.4179396427e+00	 7.7270567215e-01	 2.9246708393e-01
 1.4085390471e+00	 7.8971174413e-01	 1.5901816675e-01
 1.4599899775e+00	 7.0713096664e-01	 6.8472785369e-01
 1.4514393064e+00	 7.2451975689e-01	 5.6872675484e-01
 1.4426642946e+00	 7.4183870979e-01	 4.7588309914e-01
 1.4336655922e+00	 7.5908359760e-01	 3.8677668029e-01
 1.4244439530e+00	 7.7625019358e-01	 2.8046615903e-01
 1.4150002354e+00	 7.9333427507e-01	 1.4929166470e-01
 1.4666565984e+00	 7.1035987516e-01	 6.6338792995e-01
 1.4580668831e+00	 7.2782806628e-01	 5.4725279046e-01
 1.4492518028e+00	 7.4522610115e-01	 4.5786586237e-01
 1.4402120104e+00	 7.6254973275e-01	 3.7019184467e-01
 1.4309482633e+00	 7.7979471502e-01	 2.6744323886e-01
 1.4214614237e+00	 7.9695680600e-01	 1.4052685432e-01
 1.3891554823e+00	 7.7884415132e-01	 1.9942806364e-01
 1.3796671758e+00	 7.9553104901e-01	 6.2394531282e-02
 1.3699628407e+00	 8.1212867278e-01	-5.4942084561e-02
 1.3600436279e+00	 8.2863290792e-01	-1.6068735173e-01
 1.3499107916e+00	 8.4503965628e-01	-2.6368152000e-01
 1.3395656884e+00	 8.6134483946e-01	-3.7338656005e-01
 1.3956166706e+00	 7.8246668226e-01	 1.8352107220e-01
 1.3860842325e+00	 7.9923119342e-01	 4.6303787726e-02
 1.3763347609e+00	 8.1590601545e-01	-7.0661056696e-02
 1.3663694123e+00	 8.3248701447e-01	-1.7557241883e-01
 1.3561894465e+00	 8.4897007328e-01	-2.7738185560e-01
 1.3457962265e+00	 8.6535109452e-01	-3.8567843136e-01
 1.4020778589e+00	 7.8608921319e-01	 1.7024283760e-01
 1.3925012891e+00	 8.0293133784e-01	 3.2930449829e-02
 1.3827066811e+00	 8.1968335811e-01	-8.4275073433e-02
 1.3726951966e+00	 8.3634112102e-01	-1.8929029738e-01
 1.3624681013e+00	 8.5290049029e-01	-2.9081660736e-01
 1.3520267646e+00	 8.6935734959e-01	-3.9822392288e-01
 1.4085390471e+00	 7.8971174413e-01	 1.5901816675e-01
 1.3989183457e+00	 8.0663148225e-01	 2.2040558380e-02
 1.3890786012e+00	 8.2346070077e-01	-9.5791453876e-02
 1.3790209809e+00	 8.4019522757e-01	-2.0174132506e-01
 1.3687467561e+00	 8.5683090730e-01	-3.0390377390e-01
 1.3582573027e+00	 8.7336360466e-01	-4.1108823231e-01
 1.4150002354e+00	 7.9333427507e-01	 1.4929166470e-01
 1.4053354024e+00	 8.1033162666e-01	 1.3413285489e-02
 1.3954505214e+00	 8.2723804344e-01	-1.0520886374e-01
 1.3853467652e+00	 8.4404933412e-01	-2.1281937756e-01
 1.3750254110e+00	 8.6076132430e-01	-3.1655470197e-01
 1.3644878407e+00	 8.7736985973e-01	-4.2432724225e-01
 1.4214614237e+00	 7.9695680600e-01	 1.4052685432e-01
 1.4117524590e+00	 8.1403177108e-01	 6.8401886174e-03
 1.4018224416e+00	 8.3101538610e-01	-1.1251797382e-01
 1.3916725495e+00	 8.4790344066e-01	-2.2241248857e-01
 1.3813040658e+00	 8.6469174131e-01	-3.2867471880e-01
 1.3707183788e+00	 8.8137611479e-01	-4.3798821796e-01
 1.3395656884e+00	 8.6134483946e-01	-3.7338656005e-01
 1.3290097774e+00	 8.7754440199e-01	-4.8258556228e-01
 1.3182446199e+00	 8.9363431452e-01	-5.8155210155e-01
 1.3072718785e+00	 9.0961057699e-01	-6.7652516042e-01
 1.2960933167e+00	 9.2546922178e-01	-7.7381380879e-01
 1.2847107982e+00	 9.4120631688e-01	-8.7962372310e-01
 1.3457962265e+00	 8.6535109452e-01	-3.8567843136e-01
 1.3351912183e+00	 8.8162600386e-01	-4.9357414955e-01
 1.3243759902e+00	 8.9779075320e-01	-5.9164747171e-01
 1.3133522128e+00	 9.1384132386e-01	-6.8626816844e-01
 1.3021216577e+00	 9.2977372978e-01	-7.8391238706e-01
 1.2906861973e+00	 9.4558402068e-01	-8.9098508456e-01
 1.3520267646e+00	 8.6935734959e-01	-3.9822392288e-01
 1.3413726591e+00	 8.8570760573e-01	-5.0479291840e-01
 1.3305073605e+00	 9.0194719187e-01	-6.0161806079e-01
 1.3194325471e+00	 9.1807207073e-01	-6.9541731061e-01
 1.3081499987e+00	 9.3407823779e-01	-7.9304363523e-01
 1.2966615963e+00	 9.4996172448e-01	-9.0130274175e-01
 1.3582573027e+00	 8.7336360466e-01	-4.1108823231e-01
 1.3475540999e+00	 8.8978920760e-01	-5.1648446199e-01
 1.3366387309e+00	 9.0610363054e-01	-6.1180949768e-01
 1.3255128814e+00	 9.2230281760e-01	-7.0434397919e-01
 1.3141783397e+00	 9.3838274580e-01	-8.0152463778e-01
 1.3026369954e+00	 9.5433942828e-01	-9.1075671852e-01
 1.3644878407e+00	 8.7736985973e-01	-4.2432724225e-01
 1.3537355407e+00	 8.9387080947e-01	-5.2887873501e-01
 1.3427701012e+00	 9.1026006921e-01	-6.2255269902e-01
 1.3315932157e+00	 9.2653356447e-01	-7.1340408453e-01
 1.3202066807e+00	 9.4268725381e-01	-8.0965758554e-01
 1.3086123945e+00	 9.5871713208e-01	-9.1951414395e-01
 1.3707183788e+00	 8.8137611479e-01	-4.3798821796e-01
 1.3599169816e+00	 8.9795241134e-01	-5.4219382863e-01
 1.3489014715e+00	 9.1441650788e-01	-6.3416468975e-01
 1.3376735501e+00	 9.3076431134e-01	-7.2293888834e-01
 1.3262350217e+00	 9.4699176182e-01	-8.1773058746e-01
 1.3145877935e+00	 9.6309483588e-01	-9.2773000756e-01
 1.2847107982e+00	 9.4120631688e-01	-8.7962372310e-01
 1.2731262860e+00	 9.5681796904e-01	-9.8104826792e-01
 1.2613418412e+00	 9.7230032685e-01	-1.0673870682e+00
 1.2493596222e+00	 9.8764958382e-01	-1.1472743723e+00
 1.2371818832e+00	 1.0028619814e+00	-1.2282422524e+00
 1.2248109731e+00	 1.0179338122e+00	-1.3164947946e+00
 1.2906861973e+00	 9.4558402068e-01	-8.9098508456e-01
 1.2790478036e+00	 9.6126828518e-01	-9.9378602669e-01
 1.2672085474e+00	 9.7682265395e-01	-1.0806647431e+00
 1.2551705972e+00	 9.9224330281e-01	-1.1602135115e+00
 1.2429362176e+00	 1.0075264558e+00	-1.2398806545e+00
 1.2305077684e+00	 1.0226683881e+00	-1.3257389359e+00
 1.2966615963e+00	 9.4996172448e-01	-9.0130274175e-01
 1.2849693212e+00	 9.6571860131e-01	-1.0056734608e+00
 1.2730752537e+00	 9.8134498105e-01	-1.0933197009e+00
 1.2609815722e+00	 9.9683702181e-01	-1.1726805011e+00
 1.2486905519e+00	 1.0121909301e+00	-1.2510174671e+00
 1.2362045636e+00	 1.0274029640e+00	-1.3341775304e+00
 1.3026369954e+00	 9.5433942828e-01	-9.1075671852e-01
 1.2908908388e+00	 9.7016891745e-01	-1.0167412578e+00
 1.2789419599e+00	 9.8586730815e-01	-1.1052944800e+00
 1.2667925472e+00	 1.0014307408e+00	-1.1845927715e+00
 1.2544448862e+00	 1.0168554044e+00	-1.2616098629e+00
 1.2419013588e+00	 1.0321375398e+00	-1.3418741016e+00
 1.3086123945e+00	 9.5871713208e-01	-9.1951414395e-01
 1.2968123564e+00	 9.7461923358e-01	-1.0270093380e+00
 1.2848086662e+00	 9.9038963526e-01	-1.1165217717e+00
 1.2726035221e+00	 1.0060244598e+00	-1.1958575930e+00
 1.2601992206e+00	 1.0215198788e+00	-1.2716032826e+00
 1.2475981540e+00	 1.0368721157e+00	-1.3488775891e+00
 1.3145877935e+00	 9.6309483588e-01	-9.2773000756e-01
 1.3027338740e+00	 9.7906954972e-01	-1.0364875468e+00
 1.2906753724e+00	 9.9491196236e-01	-1.1269250747e+00
 1.2784144971e+00	 1.0106181788e+00	-1.2063727167e+00
 1.2659535549e+00	 1.0261843531e+00	-1.2809320896e+00
 1.2532949493e+00	 1.0416066916e+00	-1.3552230413e+00
 1.2248109731e+00	 1.0179338122e+00	-1.3164947946e+00
 1.2122493340e+00	 1.0328614225e+00	-1.4048642110e+00
 1.1994994995e+00	 1.0476412156e+00	-1.4830170311e+00
 1.1865640931e+00	 1.0622696545e+00	-1.5499123687e+00
 1.1734458266e+00	 1.0767432646e+00	-1.6025157110e+00
 1.1601474980e+00	 1.0910586368e+00	-1.6355834124e+00
 1.2305077684e+00	 1.0226683881e+00	-1.3257389359e+00
 1.2178877030e+00	 1.0376654291e+00	-1.4115805950e+00
 1.2050785669e+00	 1.0525139655e+00	-1.4883213965e+00
 1.1920829959e+00	 1.0672104436e+00	-1.5552026543e+00
 1.1789037142e+00	 1.0817513729e+00	-1.6094916437e+00
 1.1655435329e+00	 1.0961333281e+00	-1.6462588589e+00
 1.2362045636e+00	 1.0274029640e+00	-1.3341775304e+00
 1.2235260720e+00	 1.0424694357e+00	-1.4171785682e+00
 1.2106576344e+00	 1.0573867153e+00	-1.4925478435e+00
 1.1976018986e+00	 1.0721512327e+00	-1.5598616894e+00
 1.1843616018e+00	 1.0867594811e+00	-1.6167363284e+00
 1.1709395678e+00	 1.1012080194e+00	-1.6585976159e+00
 1.2419013588e+00	 1.0321375398e+00	-1.3418741016e+00
 1.2291644410e+00	 1.0472734424e+00	-1.4218405623e+00
 1.2162367018e+00	 1.0622594651e+00	-1.4959548782e+00
 1.2031208014e+00	 1.0770920218e+00	-1.5641809804e+00
 1.1898194893e+00	 1.0917675893e+00	-1.6245310224e+00
 1.1763356026e+00	 1.1062827108e+00	-1.6728273278e+00
 1.2475981540e+00	 1.0368721157e+00	-1.3488775891e+00
 1.2348028100e+00	 1.0520774490e+00	-1.4257312892e+00
 1.2218157693e+00	 1.0671322150e+00	-1.4987808911e+00
 1.2086397042e+00	 1.0820328109e+00	-1.5684302776e+00
 1.1952773769e+00	 1.0967756975e+00	-1.6331343571e+00
 1.1817316375e+00	 1.1113574021e+00	-1.6891458891e+00
 1.2532949493e+00	 1.0416066916e+00	-1.3552230413e+00
 1.2404411790e+00	 1.0568814556e+00	-1.4289984773e+00
 1.2273948367e+00	 1.0720049648e+00	-1.5012449165e+00
 1.2141586069e+00	 1.0869736000e+00	-1.5728583392e+00
 1.2007352644e+00	 1.1017838057e+00	-1.6427830885e+00
 1.1871276724e+00	 1.1164320934e+00	-1.7044426705e+00
 1.1601474980e+00	 1.0910586368e+00	-1.6355834124e+00
 1.1466719896e+00	 1.1052124294e+00	-1.6853847813e+00
 1.1330222660e+00	 1.1192013718e+00	-1.7751698205e+00
 1.1192013718e+00	 1.1330222660e+00	-1.8598142693e+00
 1.1052124294e+00	 1.1466719896e+00	-1.9229064186e+00
 1.0910586368e+00	 1.1601474980e+00	-1.9430586904e+00
 1.1655435329e+00	 1.0961333281e+00	-1.6462588589e+00
 1.1520053477e+00	 1.1103529524e+00	-1.7013675556e+00
 1.1382921370e+00	 1.1244069596e+00	-1.7856796927e+00
 1.1244069596e+00	 1.1382921370e+00	-1.8627784363e+00
 1.1103529524e+00	 1.1520053477e+00	-1.9212564450e+00
 1.0961333281e+00	 1.1655435329e+00	-1.9425493870e+00
 1.1709395678e+00	 1.1012080194e+00	-1.6585976159e+00
 1.1573387058e+00	 1.1154934753e+00	-1.7185503187e+00
 1.1435620080e+00	 1.1296125474e+00	-1.7949524144e+00
 1.1296125474e+00	 1.1435620080e+00	-1.8656001836e+00
 1.1154934753e+00	 1.1573387058e+00	-1.9194824967e+00
 1.1012080194e+00	 1.1709395678e+00	-1.9423579670e+00
 1.1763356026e+00	 1.1062827108e+00	-1.6728273278e+00
 1.1626720639e+00	 1.1206339982e+00	-1.7332563565e+00
 1.1488318790e+00	 1.1348181351e+00	-1.8027669828e+00
 1.1348181351e+00	 1.1488318790e+00	-1.8679367099e+00
 1.1206339982e+00	 1.1626720639e+00	-1.9180447188e+00
 1.1062827108e+00	 1.1763356026e+00	-1.9416731782e+00
 1.1817316375e+00	 1.1113574021e+00	-1.6891458891e+00
 1.1680054220e+00	 1.1257745211e+00	-1.7453236701e+00
 1.1541017500e+00	 1.1400237229e+00	-1.8089168884e+00
 1.1400237229e+00	 1.1541017500e+00	-1.8694616098e+00
 1.1257745211e+00	 1.1680054220e+00	-1.9165018614e+00
 1.1113574021e+00	 1.1817316375e+00	-1.9397050969e+00
 1.1871276724e+00	 1.1164320934e+00	-1.7044426705e+00
 1.1733387801e+00	 1.1309150441e+00	-1.7546658775e+00
 1.1593716210e+00	 1.1452293107e+00	-1.8132098399e+00
 1.1452293107e+00	 1.1593716210e+00	-1.8698645710e+00
 1.1309150441e+00	 1.1733387801e+00	-1.9144137142e+00
 1.1164320934e+00	 1.1871276724e+00	-1.9367528745e+00
 1.0910586368e+00	 1.1601474980e+00	-1.9430586904e+00
 1.0767432646e+00	 1.1734458266e+00	-1.9486062314e+00
 1.0622696545e+00	 1.1865640931e+00	-1.9728434494e+00
 1.0476412156e+00	 1.1994994995e+00	-2.0070875815e+00
 1.0328614225e+00	 1.2122493340e+00	-2.0446787815e+00
 1.0179338122e+00	 1.2248109731e+00	-2.0808088195e+00
 1.0961333281e+00	 1.1655435329e+00	-1.9425493870e+00
 1.0817513729e+00	 1.1789037142e+00	-1.9506571570e+00
 1.0672104436e+00	 1.1920829959e+00	-1.9771199368e+00
 1.0525139655e+00	 1.2050785669e+00	-2.0127672597e+00
 1.0376654291e+00	 1.2178877030e+00	-2.0504560749e+00
 1.0226683881e+00	 1.2305077684e+00	-2.0848946084e+00
 1.1012080194e+00	 1.1709395678e+00	-1.9423579670e+00
 1.0867594811e+00	 1.1843616018e+00	-1.9537093692e+00
 1.0721512327e+00	 1.1976018986e+00	-1.9826364066e+00
 1.0573867153e+00	 1.2106576344e+00	-2.0195680997e+00
 1.0424694357e+00	 1.2235260720e+00	-2.0569751424e+00
 1.0274029640e+00	 1.2362045636e+00	-2.0891885307e+00
 1.1062827108e+00	 1.1763356026e+00	-1.9416731782e+00
 1.0917675893e+00	 1.1898194893e+00	-1.9568706673e+00
 1.0770920218e+00	 1.2031208014e+00	-1.9884872262e+00
 1.0622594651e+00	 1.2162367018e+00	-2.0266376693e+00
 1.0472734424e+00	 1.2291644410e+00	-2.0635024342e+00
 1.0321375398e+00	 1.2419013588e+00	-2.0931405825e+00
 1.1113574021e+00	 1.1817316375e+00	-1.9397050969e+00
 1.0967756975e+00	 1.1952773769e+00	-1.9592689317e+00
 1.0820328109e+00	 1.2086397042e+00	-1.9937864948e+00
 1.0671322150e+00	 1.2218157693e+00	-2.0331416100e+00
 1.0520774490e+00	 1.2348028100e+00	-2.0693195384e+00
 1.0368721157e+00	 1.2475981540e+00	-2.0962117163e+00
 1.1164320934e+00	 1.1871276724e+00	-1.9367528745e+00
 1.1017838057e+00	 1.2007352644e+00	-1.9600524539e+00
 1.0869736000e+00	 1.2141586069e+00	-1.9976683444e+00
 1.0720049648e+00	 1.2273948367e+00	-2.0382639379e+00
 1.0568814556e+00	 1.2404411790e+00	-2.0737235083e+00
 1.0416066916e+00	 1.2532949493e+00	-2.0978742216e+00
 1.0179338122e+00	 1.2248109731e+00	-2.0808088195e+00
 1.0028619814e+00	 1.2371818832e+00	-2.1068525393e+00
 9.8764958382e-01	 1.2493596222e+00	-2.1193008575e+00
 9.7230032685e-01	 1.2613418412e+00	-2.1234594171e+00
 9.5681796904e-01	 1.2731262860e+00	-2.1260104262e+00
 9.4120631688e-01	 1.2847107982e+00	-2.1348010148e+00
 1.0226683881e+00	 1.2305077684e+00	-2.0848946084e+00
 1.0075264558e+00	 1.2429362176e+00	-2.1084353346e+00
 9.9224330281e-01	 1.2551705972e+00	-2.1189177994e+00
 9.7682265395e-01	 1.2672085474e+00	-2.1217626942e+00
 9.6126828518e-01	 1.2790478036e+00	-2.1238223238e+00
 9.4558402068e-01	 1.2906861973e+00	-2.1331622546e+00
 1.0274029640e+00	 1.2362045636e+00	-2.0891885307e+00
 1.0121909301e+00	 1.2486905519e+00	-2.1098829038e+00
 9.9683702181e-01	 1.2609815722e+00	-2.1184410439e+00
 9.8134498105e-01	 1.2730752537e+00	-2.1202779861e+00
 9.6571860131e-01	 1.2849693212e+00	-2.1222837040e+00
 9.4996172448e-01	 1.2966615963e+00	-2.1325982542e+00
 1.0321375398e+00	 1.2419013588e+00	-2.0931405825e+00
 1.0168554044e+00	 1.2544448862e+00	-2.1108111016e+00
 1.0014307408e+00	 1.2667925472e+00	-2.1175543865e+00
 9.8586730815e-01	 1.2789419599e+00	-2.1186613077e+00
 9.7016891745e-01	 1.2908908388e+00	-2.1209293804e+00
 9.5433942828e-01	 1.3026369954e+00	-2.1324316070e+00
 1.0368721157e+00	 1.2475981540e+00	-2.0962117163e+00
 1.0215198788e+00	 1.2601992206e+00	-2.1108428283e+00
 1.0060244598e+00	 1.2726035221e+00	-2.1159465094e+00
 9.9038963526e-01	 1.2848086662e+00	-2.1165731255e+00
 9.7461923358e-01	 1.2968123564e+00	-2.1192998801e+00
 9.5871713208e-01	 1.3086123945e+00	-2.1319935467e+00
 1.0416066916e+00	 1.2532949493e+00	-2.0978742216e+00
 1.0261843531e+00	 1.2659535549e+00	-2.1096084589e+00
 1.0106181788e+00	 1.2784144971e+00	-2.1133114167e+00
 9.9491196236e-01	 1.2906753724e+00	-2.1136787610e+00
 9.7906954972e-01	 1.3027338740e+00	-2.1169417753e+00
 9.6309483588e-01	 1.3145877935e+00	-2.1306241710e+00
 9.4120631688e-01	 1.2847107982e+00	-2.1348010148e+00
 9.2546922178e-01	 1.2960933167e+00	-2.1420531980e+00
 9.0961057699e-01	 1.3072718785e+00	-2.1373901024e+00
 8.9363431452e-01	 1.3182446199e+00	-2.1257236162e+00
 8.7754440199e-01	 1.3290097774e+00	-2.1121076173e+00
 8.6134483946e-01	 1.3395656884e+00	-2.1015617868e+00
 9.4558402068e-01	 1.2906861973e+00	-2.1331622546e+00
 9.2977372978e-01	 1.3021216577e+00	-2.1410926117e+00
 9.1384132386e-01	 1.3133522128e+00	-2.1362933315e+00
 8.9779075320e-01	 1.3243759902e+00	-2.1238574935e+00
 8.8162600386e-01	 1.3351912183e+00	-2.1089858322e+00
 8.6535109452e-01	 1.3457962265e+00	-2.0968055155e+00
 9.4996172448e-01	 1.2966615963e+00	-2.1325982542e+00
 9.3407823779e-01	 1.3081499987e+00	-2.1413427350e+00
 9.1807207073e-01	 1.3194325471e+00	-2.1361794188e+00
 9.0194719187e-01	 1.3305073605e+00	-2.1225455010e+00
 8.8570760573e-01	 1.3413726591e+00	-2.1059661639e+00
 8.6935734959e-01	 1.3520267646e+00	-2.0918676774e+00
 9.5433942828e-01	 1.3026369954e+00	-2.1324316070e+00
 9.3838274580e-01	 1.3141783397e+00	-2.1419335045e+00
 9.2230281760e-01	 1.3255128814e+00	-2.1361128644e+00
 9.0610363054e-01	 1.3366387309e+00	-2.1209118853e+00
 8.8978920760e-01	 1.3475540999e+00	-2.1023555942e+00
 8.7336360466e-01	 1.3582573027e+00	-2.0863586264e+00
 9.5871713208e-01	 1.3086123945e+00	-2.1319935467e+00
 9.4268725381e-01	 1.3202066807e+00	-2.1420060831e+00
 9.2653356447e-01	 1.3315932157e+00	-2.1351696853e+00
 9.1026006921e-01	 1.3427701012e+00	-2.1180904552e+00
 8.9387080947e-01	 1.3537355407e+00	-2.0974665177e+00
 8.7736985973e-01	 1.3644878407e+00	-2.0798878374e+00
 9.6309483588e-01	 1.3145877935e+00	-2.1306241710e+00
 9.4699176182e-01	 1.3262350217e+00	-2.1407129832e+00
 9.3076431134e-01	 1.3376735501e+00	-2.1324374910e+00
 9.1441650788e-01	 1.3489014715e+00	-2.1132246610e+00
 8.9795241134e-01	 1.3599169816e+00	-2.0906168756e+00
 8.8137611479e-01	 1.3707183788e+00	-2.0720641465e+00
 8.6134483946e-01	 1.3395656884e+00	-2.1015617868e+00
 8.4503965628e-01	 1.3499107916e+00	-2.0871223423e+00
 8.2863290792e-01	 1.3600436279e+00	-2.0637751309e+00
 8.1212867278e-01	 1.3699628407e+00	-2.0389937848e+00
 7.9553104901e-01	 1.3796671758e+00	-2.0196851811e+00
 7.7884415132e-01	 1.3891554823e+00	-2.0120660698e+00
 8.6535109452e-01	 1.3457962265e+00	-2.0968055155e+00
 8.4897007328e-01	 1.3561894465e+00	-2.0808458791e+00
 8.3248701447e-01	 1.3663694123e+00	-2.0564703361e+00
 8.1590601545e-01	 1.3763347609e+00	-2.0310606159e+00
 7.9923119342e-01	 1.3860842325e+00	-2.0114371898e+00
 7.8246668226e-01	 1.3956166706e+00	-2.0037326494e+00
 8.6935734959e-01	 1.3520267646e+00	-2.0918676774e+00
 8.5290049029e-01	 1.3624681013e+00	-2.0745615243e+00
 8.3634112102e-01	 1.3726951966e+00	-2.0497751282e+00
 8.1968335811e-01	 1.3827066811e+00	-2.0245280872e+00
 8.0293133784e-01	 1.3925012891e+00	-2.0052607365e+00
 7.8608921319e-01	 1.4020778589e+00	-1.9977050943e+00
 8.7336360466e-01	 1.3582573027e+00	-2.0863586264e+00
 8.5683090730e-01	 1.3687467561e+00	-2.0681457145e+00
 8.4019522757e-01	 1.3790209809e+00	-2.0436411783e+00
 8.2346070077e-01	 1.3890786012e+00	-2.0192364689e+00
 8.0663148225e-01	 1.3989183457e+00	-2.0007024372e+00
 7.8971174413e-01	 1.4085390471e+00	-1.9930586582e+00
 8.7736985973e-01	 1.3644878407e+00	-2.0798878374e+00
 8.6076132430e-01	 1.3750254110e+00	-2.0614684690e+00
 8.4404933412e-01	 1.3853467652e+00	-2.0380117678e+00
 8.2723804344e-01	 1.3954505214e+00	-2.0150191651e+00
 8.1033162666e-01	 1.4053354024e+00	-1.9973069895e+00
 7.9333427507e-01	 1.4150002354e+00	-1.9888749689e+00
 8.8137611479e-01	 1.3707183788e+00	-2.0720641465e+00
 8.6469174131e-01	 1.3813040658e+00	-2.0543937188e+00
 8.4790344066e-01	 1.3916725495e+00	-2.0328221271e+00
 8.3101538610e-01	 1.4018224416e+00	-2.0117029858e+00
 8.1403177108e-01	 1.4117524590e+00	-1.9946173003e+00
 7.9695680600e-01	 1.4214614237e+00	-1.9842419387e+00
 7.7884415132e-01	 1.3891554823e+00	-2.0120660698e+00
 7.6207210786e-01	 1.3984267118e+00	-1.9936143042e+00
 7.4521905701e-01	 1.4074799192e+00	-1.9464170373e+00
 7.2828914431e-01	 1.4163142618e+00	-1.8882008268e+00
 7.1128651932e-01	 1.4249289994e+00	-1.8418993579e+00
 6.9421533254e-01	 1.4333234939e+00	-1.8125254279e+00
 7.8246668226e-01	 1.3956166706e+00	-2.0037326494e+00
 7.6561662929e-01	 1.4049310221e+00	-1.9862011384e+00
 7.4868519216e-01	 1.4140263375e+00	-1.9412749985e+00
 7.3167653568e-01	 1.4229017700e+00	-1.8830795731e+00
 7.1459482871e-01	 1.4315565762e+00	-1.8350296693e+00
 6.9744424107e-01	 1.4399901148e+00	-1.8026999900e+00
 7.8608921319e-01	 1.4020778589e+00	-1.9977050943e+00
 7.6916115072e-01	 1.4114353324e+00	-1.9803807433e+00
 7.5215132731e-01	 1.4205727557e+00	-1.9361512338e+00
 7.3506392705e-01	 1.4294892782e+00	-1.8770958714e+00
 7.1790313810e-01	 1.4381841529e+00	-1.8259766899e+00
 7.0067314959e-01	 1.4466567357e+00	-1.7904020930e+00
 7.8971174413e-01	 1.4085390471e+00	-1.9930586582e+00
 7.7270567215e-01	 1.4179396427e+00	-1.9748267982e+00
 7.5561746246e-01	 1.4271191739e+00	-1.9296263721e+00
 7.3845131842e-01	 1.4360767864e+00	-1.8689505881e+00
 7.2121144749e-01	 1.4448117297e+00	-1.8139242454e+00
 7.0390205811e-01	 1.4533233566e+00	-1.7755798191e+00
 7.9333427507e-01	 1.4150002354e+00	-1.9888749689e+00
 7.7625019358e-01	 1.4244439530e+00	-1.9682264780e+00
 7.5908359760e-01	 1.4336655922e+00	-1.9202961323e+00
 7.4183870979e-01	 1.4426642946e+00	-1.8573232720e+00
 7.2451975689e-01	 1.4514393064e+00	-1.7980640397e+00
 7.0713096664e-01	 1.4599899775e+00	-1.7581742152e+00
 7.9695680600e-01	 1.4214614237e+00	-1.9842419387e+00
 7.7979471502e-01	 1.4309482633e+00	-1.9592801760e+00
 7.6254973275e-01	 1.4402120104e+00	-1.9067709839e+00
 7.4522610115e-01	 1.4492518028e+00	-1.8404362882e+00
 7.2782806628e-01	 1.4580668831e+00	-1.7775960882e+00
 7.1035987516e-01	 1.4666565984e+00	-1.7381200133e+00
 6.9421533254e-01	 1.4333234939e+00	-1.8125254279e+00
 6.7707973241e-01	 1.4414972084e+00	-1.7880609546e+00
 6.5988386224e-01	 1.4494497074e+00	-1.7552568839e+00
 6.4263185733e-01	 1.4571806552e+00	-1.7147240366e+00
 6.2532784195e-01	 1.4646898156e+00	-1.6659561530e+00
 6.0797592657e-01	 1.4719770510e+00	-1.6073936232e+00
 6.9744424107e-01	 1.4399901148e+00	-1.8026999900e+00
 6.8022894047e-01	 1.4482018466e+00	-1.7734140348e+00
 6.6295308951e-01	 1.4561913340e+00	-1.7355337634e+00
 6.4562084271e-01	 1.4639582397e+00	-1.6919531149e+00
 6.2823634354e-01	 1.4715023264e+00	-1.6445219449e+00
 6.1080372158e-01	 1.4788234559e+00	-1.5941033598e+00
 7.0067314959e-01	 1.4466567357e+00	-1.7904020930e+00
 6.8337814852e-01	 1.4549064848e+00	-1.7582066042e+00
 6.6602231678e-01	 1.4629329605e+00	-1.7197052187e+00
 6.4860982809e-01	 1.4707358241e+00	-1.6794802102e+00
 6.3114484513e-01	 1.4783148372e+00	-1.6411086582e+00
 6.1363151659e-01	 1.4856698608e+00	-1.5999888409e+00
 7.0390205811e-01	 1.4533233566e+00	-1.7755798191e+00
 6.8652735658e-01	 1.4616111230e+00	-1.7431255110e+00
 6.6909154404e-01	 1.4696745871e+00	-1.7088766949e+00
 6.5159881347e-01	 1.4775134085e+00	-1.6785182027e+00
 6.3405334672e-01	 1.4851273480e+00	-1.6513678492e+00
 6.1645931160e-01	 1.4925162657e+00	-1.5972128933e+00
 7.0713096664e-01	 1.4599899775e+00	-1.7581742152e+00
 6.8967656464e-01	 1.4683157612e+00	-1.7288361918e+00
 6.7216077131e-01	 1.4764162136e+00	-1.7041237755e+00
 6.5458779886e-01	 1.4842909930e+00	-1.6871398573e+00
 6.3696184831e-01	 1.4919398587e+00	-1.6483595080e+00
 6.1928710660e-01	 1.4993626706e+00	-1.5836393297e+00
 7.1035987516e-01	 1.4666565984e+00	-1.7381200133e+00
 6.9282577270e-01	 1.4750203993e+00	-1.7159836683e+00
 6.7522999858e-01	 1.4831578401e+00	-1.7054201174e+00
 6.5757678424e-01	 1.4910685774e+00	-1.6797680914e+00
 6.3987034990e-01	 1.4987523695e+00	-1.6293302291e+00
 6.2211490161e-01	 1.5062090754e+00	-1.5600480635e+00
 6.0797592657e-01	 1.4719770510e+00	-1.6073936232e+00
 5.9058020500e-01	 1.4790423210e+00	-1.5585512248e+00
 5.7314475161e-01	 1.4858856819e+00	-1.5316759279e+00
 5.5567361868e-01	 1.4925072849e+00	-1.4983423117e+00
 5.3817083372e-01	 1.4989073753e+00	-1.4577672155e+00
 5.2064039692e-01	 1.5050862909e+00	-1.4119165799e+00
 6.1080372158e-01	 1.4788234559e+00	-1.5941033598e+00
 5.9332708967e-01	 1.4859215877e+00	-1.5539312076e+00
 5.7581054115e-01	 1.4927967781e+00	-1.5143367451e+00
 5.5825814714e-01	 1.4994491793e+00	-1.4725305789e+00
 5.4067395387e-01	 1.5058790375e+00	-1.4288043094e+00
 5.2306198017e-01	 1.5120866923e+00	-1.3836387432e+00
 6.1363151659e-01	 1.4856698608e+00	-1.5999888409e+00
 5.9607397435e-01	 1.4928008543e+00	-1.5464156586e+00
 5.7847633070e-01	 1.4997078743e+00	-1.4970099229e+00
 5.6084267560e-01	 1.5063910736e+00	-1.4504776087e+00
 5.4317707403e-01	 1.5128506997e+00	-1.4056352196e+00
 5.2548356341e-01	 1.5190870936e+00	-1.3614386412e+00
 6.1645931160e-01	 1.4925162657e+00	-1.5972128933e+00
 5.9882085902e-01	 1.4996801209e+00	-1.5336800123e+00
 5.8114212024e-01	 1.5066189705e+00	-1.4793992583e+00
 5.6342720406e-01	 1.5133329679e+00	-1.4315775370e+00
 5.4568019419e-01	 1.5198223619e+00	-1.3874977228e+00
 5.2790514665e-01	 1.5260874950e+00	-1.3445513341e+00
 6.1928710660e-01	 1.4993626706e+00	-1.5836393297e+00
 6.0156774370e-01	 1.5065593875e+00	-1.5159007716e+00
 5.8380790978e-01	 1.5135300667e+00	-1.4612266741e+00
 5.6601173251e-01	 1.5202748623e+00	-1.4152476673e+00
 5.4818331434e-01	 1.5267940241e+00	-1.3736549453e+00
 5.3032672989e-01	 1.5330878963e+00	-1.3322365478e+00
 6.2211490161e-01	 1.5062090754e+00	-1.5600480635e+00
 6.0431462837e-01	 1.5134386541e+00	-1.4932644545e+00
 5.8647369932e-01	 1.5204411629e+00	-1.4422318491e+00
 5.6859626097e-01	 1.5272167566e+00	-1.4009280123e+00
 5.5068643450e-01	 1.5337656863e+00	-1.3633948783e+00
 5.3274831313e-01	 1.5400882977e+00	-1.3237782260e+00
 5.2064039692e-01	 1.5050862909e+00	-1.4119165799e+00
 5.0308627867e-01	 1.5110444607e+00	-1.3615069554e+00
 4.8551241707e-01	 1.5167824033e+00	-1.3077270594e+00
 4.6792271561e-01	 1.5223007253e+00	-1.2535683145e+00
 4.5032104091e-01	 1.5276001198e+00	-1.2021786088e+00
 4.3271122045e-01	 1.5326813647e+00	-1.1568661268e+00
 5.2306198017e-01	 1.5120866923e+00	-1.3836387432e+00
 5.0542621485e-01	 1.5180725745e+00	-1.3359166830e+00
 4.8777061436e-01	 1.5238372051e+00	-1.2855126728e+00
 4.7009910034e-01	 1.5293811938e+00	-1.2346802737e+00
 4.5241555738e-01	 1.5347052367e+00	-1.1858525772e+00
 4.3472383078e-01	 1.5398101152e+00	-1.1416459973e+00
 5.2548356341e-01	 1.5190870936e+00	-1.3614386412e+00
 5.0776615103e-01	 1.5251006882e+00	-1.3153450614e+00
 4.9002881164e-01	 1.5308920070e+00	-1.2666263690e+00
 4.7227548506e-01	 1.5364616623e+00	-1.2172246204e+00
 4.5451007385e-01	 1.5418103535e+00	-1.1692795367e+00
 4.3673644111e-01	 1.5469388658e+00	-1.1251314622e+00
 5.2790514665e-01	 1.5260874950e+00	-1.3445513341e+00
 5.1010608721e-01	 1.5321288020e+00	-1.2991032623e+00
 4.9228700893e-01	 1.5379468089e+00	-1.2504555844e+00
 4.7445186979e-01	 1.5435421308e+00	-1.2006597021e+00
 4.5660459032e-01	 1.5489154703e+00	-1.1519779648e+00
 4.3874905143e-01	 1.5540676163e+00	-1.1068850031e+00
 5.3032672989e-01	 1.5330878963e+00	-1.3322365478e+00
 5.1244602339e-01	 1.5391569158e+00	-1.2865249424e+00
 4.9454520622e-01	 1.5450016108e+00	-1.2364080007e+00
 4.7662825451e-01	 1.5506225992e+00	-1.1844619180e+00
 4.5869910679e-01	 1.5560205872e+00	-1.1334823458e+00
 4.4076166176e-01	 1.5611963668e+00	-1.0864833149e+00
 5.3274831313e-01	 1.5400882977e+00	-1.3237782260e+00
 5.1478595957e-01	 1.5461850295e+00	-1.2769658627e+00
 4.9680340351e-01	 1.5520564126e+00	-1.2239112324e+00
 4.7880463923e-01	 1.5577030677e+00	-1.1681254709e+00
 4.6079362326e-01	 1.5631257040e+00	-1.1133429820e+00
 4.4277427209e-01	 1.5683251174e+00	-1.0635171682e+00
 4.3271122045e-01	 1.5326813647e+00	-1.1568661268e+00
 4.1509704050e-01	 1.5375453206e+00	-1.1250827413e+00
 3.9748224403e-01	 1.5421929295e+00	-1.0984816019e+00
 3.7987052879e-01	 1.5466252123e+00	-1.0571924017e+00
 3.6226554538e-01	 1.5508432676e+00	-9.9081949987e-01
 3.4467089551e-01	 1.5548482691e+00	-9.4678020613e-01
 4.3472383078e-01	 1.5398101152e+00	-1.1416459973e+00
 4.1702772441e-01	 1.5446966942e+00	-1.1093607287e+00
 3.9933099865e-01	 1.5493659198e+00	-1.0817155969e+00
 3.8163736846e-01	 1.5538188179e+00	-1.0399787164e+00
 3.6395050141e-01	 1.5580564921e+00	-9.7149251601e-01
 3.4627401595e-01	 1.5620801215e+00	-9.2302497239e-01
 4.3673644111e-01	 1.5469388658e+00	-1.1251314622e+00
 4.1895840831e-01	 1.5518480678e+00	-1.0921578199e+00
 4.0117975328e-01	 1.5565389102e+00	-1.0639268311e+00
 3.8340420812e-01	 1.5610124236e+00	-1.0225868448e+00
 3.6563545743e-01	 1.5652697166e+00	-9.5377743447e-01
 3.4787713639e-01	 1.5693119739e+00	-9.0167479271e-01
 4.3874905143e-01	 1.5540676163e+00	-1.1068850031e+00
 4.2088909222e-01	 1.5589994414e+00	-1.0730475896e+00
 4.0302850790e-01	 1.5637119006e+00	-1.0446564524e+00
 3.8517104779e-01	 1.5682060292e+00	-1.0044859893e+00
 3.6732041346e-01	 1.5724829411e+00	-9.3702101578e-01
 3.4948025684e-01	 1.5765438263e+00	-8.8198844216e-01
 4.4076166176e-01	 1.5611963668e+00	-1.0864833149e+00
 4.2281977613e-01	 1.5661508150e+00	-1.0516165951e+00
 4.0487726252e-01	 1.5708848909e+00	-1.0234581242e+00
 3.8693788746e-01	 1.5753996349e+00	-9.8515809767e-01
 3.6900536948e-01	 1.5796961656e+00	-9.2057565101e-01
 3.5108337728e-01	 1.5837756787e+00	-8.6322977201e-01
 4.4277427209e-01	 1.5683251174e+00	-1.0635171682e+00
 4.2475046004e-01	 1.5733021885e+00	-1.0274642756e+00
 4.0672601715e-01	 1.5780578813e+00	-9.9989794129e-01
 3.8870472713e-01	 1.5825932405e+00	-9.6409777792e-01
 3.7069032551e-01	 1.5869093901e+00	-9.0378691439e-01
 3.5268649773e-01	 1.5910075311e+00	-8.4466812370e-01
 3.4467089551e-01	 1.5548482691e+00	-9.4678020613e-01
 3.2709013021e-01	 1.5586414638e+00	-9.2023299119e-01
 3.0952674827e-01	 1.5622241702e+00	-8.9708635666e-01
 2.9198419467e-01	 1.5655977759e+00	-8.7315319001e-01
 2.7446585912e-01	 1.5687637356e+00	-8.4537450106e-01
 2.5697507471e-01	 1.5717235689e+00	-8.1163980114e-01
 3.4627401595e-01	 1.5620801215e+00	-9.2302497239e-01
 3.2861147965e-01	 1.5658909590e+00	-8.9490478626e-01
 3.1096640756e-01	 1.5694903292e+00	-8.7196367550e-01
 2.9334226069e-01	 1.5728796261e+00	-8.4915250532e-01
 2.7574244451e-01	 1.5760603111e+00	-8.2255316200e-01
 2.5817030761e-01	 1.5790339111e+00	-7.8920171727e-01
 3.4787713639e-01	 1.5693119739e+00	-9.0167479271e-01
 3.3013282909e-01	 1.5731404542e+00	-8.7224360098e-01
 3.1240606686e-01	 1.5767564881e+00	-8.4935713385e-01
 2.9470032671e-01	 1.5801614762e+00	-8.2727429579e-01
 2.7701902991e-01	 1.5833568866e+00	-8.0138809689e-01
 2.5936554052e-01	 1.5863442532e+00	-7.6805136180e-01
 3.4948025684e-01	 1.5765438263e+00	-8.8198844216e-01
 3.3165417853e-01	 1.5803899493e+00	-8.5143393715e-01
 3.1384572615e-01	 1.5840226470e+00	-8.2842669677e-01
 2.9605839273e-01	 1.5874433263e+00	-8.0670085732e-01
 2.7829561530e-01	 1.5906534622e+00	-7.8112784349e-01
 2.6056077343e-01	 1.5936545954e+00	-7.4754438938e-01
 3.5108337728e-01	 1.5837756787e+00	-8.6322977201e-01
 3.3317552798e-01	 1.5876394445e+00	-8.3166497462e-01
 3.1528538545e-01	 1.5912888060e+00	-8.0833609838e-01
 2.9741645876e-01	 1.5947251764e+00	-7.8661687551e-01
 2.7957220069e-01	 1.5979500377e+00	-7.6102151875e-01
 2.6175600633e-01	 1.6009649376e+00	-7.2703483027e-01
 3.5268649773e-01	 1.5910075311e+00	-8.4466812370e-01
 3.3469687742e-01	 1.5948889397e+00	-8.1213089318e-01
 3.1672504474e-01	 1.5985549649e+00	-7.8825309310e-01
 2.9877452478e-01	 1.6020070265e+00	-7.6620962652e-01
 2.8084878608e-01	 1.6052466132e+00	-7.4031898852e-01
 2.6295123924e-01	 1.6082752798e+00	-7.0587524702e-01
 2.5697507471e-01	 1.5717235689e+00	-8.1163980114e-01
 2.3951511659e-01	 1.5744788582e+00	-7.7579462485e-01
 2.2208920080e-01	 1.5770312466e+00	-7.4297278773e-01
 2.0470048317e-01	 1.5793824357e+00	-7.1403753081e-01
 1.8735205824e-01	 1.5815341831e+00	-6.9032725724e-01
 1.7004695838e-01	 1.5834883005e+00	-6.7354291488e-01
 2.5817030761e-01	 1.5790339111e+00	-7.8920171727e-01
 2.4062914039e-01	 1.5818020157e+00	-7.5280147714e-01
 2.2312217383e-01	 1.5843662757e+00	-7.1912119937e-01
 2.0565257844e-01	 1.5867284005e+00	-6.8934080628e-01
 1.8822346317e-01	 1.5888901560e+00	-6.6511493532e-01
 1.7083787446e-01	 1.5908533624e+00	-6.4846297193e-01
 2.5936554052e-01	 1.5863442532e+00	-7.6805136180e-01
 2.4174316418e-01	 1.5891251732e+00	-7.3093604963e-01
 2.2415514686e-01	 1.5917013047e+00	-6.9639438263e-01
 2.0660467371e-01	 1.5940743653e+00	-6.6584717188e-01
 1.8909486809e-01	 1.5962461290e+00	-6.4118677598e-01
 1.7162879055e-01	 1.5982184243e+00	-6.2467017298e-01
 2.6056077343e-01	 1.5936545954e+00	-7.4754438938e-01
 2.4285718798e-01	 1.5964483306e+00	-7.0966975045e-01
 2.2518811988e-01	 1.5990363338e+00	-6.7435819490e-01
 2.0755676898e-01	 1.6014203301e+00	-6.4319595630e-01
 1.8996627301e-01	 1.6036021019e+00	-6.1823489196e-01
 1.7241970664e-01	 1.6055834861e+00	-6.0188898746e-01
 2.6175600633e-01	 1.6009649376e+00	-7.2703483027e-01
 2.4397121178e-01	 1.6037714881e+00	-6.8847033579e-01
 2.2622109291e-01	 1.6063713629e+00	-6.5257351487e-01
 2.0850886425e-01	 1.6087662950e+00	-6.2102085351e-01
 1.9083767793e-01	 1.6109580749e+00	-5.9594574471e-01
 1.7321062272e-01	 1.6129485480e+00	-5.7983882422e-01
 2.6295123924e-01	 1.6082752798e+00	-7.0587524702e-01
 2.4508523558e-01	 1.6110946456e+00	-6.6680205830e-01
 2.2725406594e-01	 1.6137063919e+00	-6.3059637526e-01
 2.0946095952e-01	 1.6161122598e+00	-5.9895003270e-01
 1.9170908285e-01	 1.6183140478e+00	-5.7400022488e-01
 1.7400153881e-01	 1.6203136098e+00	-5.5823407593e-01
 1.7004695838e-01	 1.5834883005e+00	-6.7354291488e-01
 1.5278815286e-01	 1.5852466516e+00	-6.6096900605e-01
 1.3557854715e-01	 1.5868111493e+00	-6.4858357582e-01
 1.1842098213e-01	 1.5881837542e+00	-6.3634673409e-01
 1.0131823357e-01	 1.5893664718e+00	-6.2417064018e-01
 8.4273011520e-02	 1.5903613506e+00	-6.1184692220e-01
 1.7083787446e-01	 1.5908533624e+00	-6.4846297193e-01
 1.5349879544e-01	 1.5926198918e+00	-6.3647947971e-01
 1.3620914504e-01	 1.5941916663e+00	-6.2463476383e-01
 1.1897177740e-01	 1.5955706553e+00	-6.1275268682e-01
 1.0178948117e-01	 1.5967588739e+00	-6.0063697407e-01
 8.4664979016e-02	 1.5977583801e+00	-5.8800219432e-01
 1.7162879055e-01	 1.5982184243e+00	-6.2467017298e-01
 1.5420943801e-01	 1.5999931321e+00	-6.1317127267e-01
 1.3683974293e-01	 1.6015721832e+00	-6.0170919344e-01
 1.1952257266e-01	 1.6029575565e+00	-5.9001974266e-01
 1.0226072877e-01	 1.6041512761e+00	-5.7784601925e-01
 8.5056946511e-02	 1.6051554097e+00	-5.6487305867e-01
 1.7241970664e-01	 1.6055834861e+00	-6.0188898746e-01
 1.5492008058e-01	 1.6073663723e+00	-5.9079495241e-01
 1.3747034083e-01	 1.6089527002e+00	-5.7959012652e-01
 1.2007336793e-01	 1.6103444577e+00	-5.6796871206e-01
 1.0273197637e-01	 1.6115436783e+00	-5.5565923725e-01
 8.5448914007e-02	 1.6125524392e+00	-5.4236297631e-01
 1.7321062272e-01	 1.6129485480e+00	-5.7983882422e-01
 1.5563072315e-01	 1.6147396125e+00	-5.6909693593e-01
 1.3810093872e-01	 1.6163332172e+00	-5.5805763896e-01
 1.2062416320e-01	 1.6177313589e+00	-5.4641823906e-01
 1.0320322397e-01	 1.6189360805e+00	-5.3393699790e-01
 8.5840881502e-02	 1.6199494688e+00	-5.2037544575e-01
 1.7400153881e-01	 1.6203136098e+00	-5.5823407593e-01
 1.5634136572e-01	 1.6221128528e+00	-5.4781949780e-01
 1.3873153661e-01	 1.6237137342e+00	-5.3688859758e-01
 1.2117495846e-01	 1.6251182601e+00	-5.2518475167e-01
 1.0367447156e-01	 1.6263284827e+00	-5.1253850727e-01
 8.6232848997e-02	 1.6273464983e+00	-4.9881391232e-01
 8.4273011520e-02	 1.5903613506e+00	-6.1184692220e-01
 6.7287959866e-02	 1.5911704800e+00	-5.9965927004e-01
 5.0365655960e-02	 1.5917959878e+00	-5.8974938793e-01
 3.3508610294e-02	 1.5922400381e+00	-5.8428474491e-01
 1.6719266264e-02	 1.5925048295e+00	-5.8500386798e-01
-6.0817863690e-07	 1.5926120543e+00	 7.8742080556e-01
 8.4664979016e-02	 1.5977583801e+00	-5.8800219432e-01
 6.7600927121e-02	 1.5985712729e+00	-5.7524197808e-01
 5.0599914825e-02	 1.5991996900e+00	-5.6480444153e-01
 3.3664464295e-02	 1.5996458057e+00	-5.5912487788e-01
 1.6797030293e-02	 1.5999118287e+00	-5.6024435830e-01
-5.9614421234e-07	 1.6000193151e+00	 8.0267467215e-01
 8.5056946511e-02	 1.6051554097e+00	-5.6487305867e-01
 6.7913894376e-02	 1.6059720659e+00	-5.5160791280e-01
 5.0834173690e-02	 1.6066033923e+00	-5.4073515129e-01
 3.3820318297e-02	 1.6070515734e+00	-5.3489565339e-01
 1.6874794322e-02	 1.6073188280e+00	-5.3637174473e-01
-5.8396515536e-07	 1.6074265615e+00	 8.1570743373e-01
 8.5448914007e-02	 1.6125524392e+00	-5.4236297631e-01
 6.8226861632e-02	 1.6133728588e+00	-5.2869572938e-01
 5.1068432555e-02	 1.6140070946e+00	-5.1750146513e-01
 3.3976172298e-02	 1.6144573410e+00	-5.1156425120e-01
 1.6952558351e-02	 1.6147258272e+00	-5.1334623006e-01
-5.7165317425e-07	 1.6148337937e+00	 8.2662042542e-01
 8.5840881502e-02	 1.6199494688e+00	-5.2037544575e-01
 6.8539828887e-02	 1.6207736517e+00	-5.0644542023e-01
 5.1302691420e-02	 1.6214107968e+00	-4.9506623505e-01
 3.4132026300e-02	 1.6218631086e+00	-4.8910255890e-01
 1.7030322381e-02	 1.6221328264e+00	-4.9113473542e-01
-5.5921997724e-07	 1.6222410120e+00	 8.3550714004e-01
 8.6232848997e-02	 1.6273464983e+00	-4.9881391232e-01
 6.8852796142e-02	 1.6281744447e+00	-4.8479820617e-01
 5.1536950285e-02	 1.6288144991e+00	-4.7339508784e-01
 3.4287880301e-02	 1.6292688762e+00	-4.6748702017e-01
 1.7108086410e-02	 1.6295398256e+00	-4.6971072410e-01
-5.4667727253e-07	 1.6296482167e+00	 8.4245342980e-01
 1.6296296296e+00	 0.0000000000e+00	 3.5746343443e+00
 1.6295398256e+00	 1.7108086410e-02	 3.5721022140e+00
 1.6292688762e+00	 3.4287880301e-02	 3.5660197612e+00
 1.6288144991e+00	 5.1536950285e-02	 3.5566710697e+00
 1.6281744447e+00	 6.8852796142e-02	 3.5438230848e+00
 1.6273464983e+00	 8.6232848997e-02	 3.5267684002e+00
 1.6370370370e+00	 0.0000000000e+00	 3.5609096265e+00
 1.6369468248e+00	 1.7185850439e-02	 3.5585468996e+00
 1.6366746438e+00	 3.4443734302e-02	 3.5524510496e+00
 1.6362182014e+00	 5.1771209150e-02	 3.5429763087e+00
 1.6355752376e+00	 6.9165763397e-02	 3.5299913412e+00
 1.6347435278e+00	 8.6624816493e-02	 3.5129182142e+00
 1.6444444444e+00	 0.0000000000e+00	 3.5471211294e+00
 1.6443538240e+00	 1.7263614468e-02	 3.5448098240e+00
 1.6440804115e+00	 3.4599588304e-02	 3.5387167526e+00
 1.6436219037e+00	 5.2005468014e-02	 3.5292097515e+00
 1.6429760305e+00	 6.9478730652e-02	 3.5162031192e+00
 1.6421405574e+00	 8.7016783988e-02	 3.4991926967e+00
 1.6518518519e+00	 0.0000000000e+00	 3.5332641228e+00
 1.6517608232e+00	 1.7341378497e-02	 3.5308798305e+00
 1.6514861791e+00	 3.4755442305e-02	 3.5247922309e+00
 1.6510256059e+00	 5.2239726879e-02	 3.5153279591e+00
 1.6503768234e+00	 6.9791697908e-02	 3.5023926510e+00
 1.6495375869e+00	 8.7408751484e-02	 3.4855020524e+00
 1.6592592593e+00	 0.0000000000e+00	 3.5193338426e+00
 1.6591678224e+00	 1.7419142526e-02	 3.5167460927e+00
 1.6588919467e+00	 3.4911296306e-02	 3.5106534447e+00
 1.6584293082e+00	 5.2473985744e-02	 3.5012882663e+00
 1.6577776164e+00	 7.0104665163e-02	 3.4884950197e+00
 1.6569346164e+00	 8.7800718979e-02	 3.4717573157e+00
 1.6666666667e+00	 0.0000000000e+00	 3.5053254910e+00
 1.6665748216e+00	 1.7496906555e-02	 3.5023981093e+00
 1.6662977143e+00	 3.5067150308e-02	 3.4962769435e+00
 1.6658330105e+00	 5.2708244609e-02	 3.4870487655e+00
 1.6651784093e+00	 7.0417632418e-02	 3.4744461397e+00
 1.6643316460e+00	 8.8192686475e-02	 3.4578703308e+00
 1.6273464983e+00	 8.6232848997e-02	 3.5267684002e+00
 1.6263284827e+00	 1.0367447156e-01	 3.5040407235e+00
 1.6251182601e+00	 1.2117495846e-01	 3.4759620995e+00
 1.6237137342e+00	 1.3873153661e-01	 3.4439418971e+00
 1.6221128528e+00	 1.5634136572e-01	 3.4091094436e+00
 1.6203136098e+00	 1.7400153881e-01	 3.3723599156e+00
 1.6347435278e+00	 8.6624816493e-02	 3.5129182142e+00
 1.6337208849e+00	 1.0414571916e-01	 3.4902904521e+00
 1.6325051613e+00	 1.2172575373e-01	 3.4622955351e+00
 1.6310942511e+00	 1.3936213451e-01	 3.4302989393e+00
 1.6294860930e+00	 1.5705200829e-01	 3.3953954346e+00
 1.6276786717e+00	 1.7479245489e-01	 3.3584499997e+00
 1.6421405574e+00	 8.7016783988e-02	 3.4991926967e+00
 1.6411132871e+00	 1.0461696676e-01	 3.4766849692e+00
 1.6398920624e+00	 1.2227654899e-01	 3.4487656123e+00
 1.6384747681e+00	 1.3999273240e-01	 3.4167903707e+00
 1.6368593333e+00	 1.5776265086e-01	 3.3818536546e+00
 1.6350437336e+00	 1.7558337098e-01	 3.3448241886e+00
 1.6495375869e+00	 8.7408751484e-02	 3.4855020524e+00
 1.6485056893e+00	 1.0508821436e-01	 3.4631050627e+00
 1.6472789636e+00	 1.2282734426e-01	 3.4352138258e+00
 1.6458552851e+00	 1.4062333030e-01	 3.4032091896e+00
 1.6442325735e+00	 1.5847329344e-01	 3.3682200867e+00
 1.6424087954e+00	 1.7637428706e-01	 3.3311536220e+00
 1.6569346164e+00	 8.7800718979e-02	 3.4717573157e+00
 1.6558980915e+00	 1.0555946196e-01	 3.4494323313e+00
 1.6546658648e+00	 1.2337813952e-01	 3.4214825771e+00
 1.6532358021e+00	 1.4125392819e-01	 3.3893495334e+00
 1.6516058137e+00	 1.5918393601e-01	 3.3542322443e+00
 1.6497738573e+00	 1.7716520315e-01	 3.3171115429e+00
 1.6643316460e+00	 8.8192686475e-02	 3.4578703308e+00
 1.6632904937e+00	 1.0603070955e-01	 3.4355491633e+00
 1.6620527660e+00	 1.2392893479e-01	 3.4074151504e+00
 1.6606163190e+00	 1.4188452608e-01	 3.3750066508e+00
 1.6589790540e+00	 1.5989457858e-01	 3.3396291379e+00
 1.6571389192e+00	 1.7795611923e-01	 3.3023732559e+00
 1.6203136098e+00	 1.7400153881e-01	 3.3723599156e+00
 1.6183140478e+00	 1.9170908285e-01	 3.3342801935e+00
 1.6161122598e+00	 2.0946095952e-01	 3.2930067689e+00
 1.6137063919e+00	 2.2725406594e-01	 3.2455706941e+00
 1.6110946456e+00	 2.4508523558e-01	 3.1890173946e+00
 1.6082752798e+00	 2.6295123924e-01	 3.1205090487e+00
 1.6276786717e+00	 1.7479245489e-01	 3.3584499997e+00
 1.6256700207e+00	 1.9258048778e-01	 3.3201465623e+00
 1.6234582246e+00	 2.1041305479e-01	 3.2787676449e+00
 1.6210414210e+00	 2.2828703896e-01	 3.2313762062e+00
 1.6184178031e+00	 2.4619925938e-01	 3.1750298668e+00
 1.6155856220e+00	 2.6414647214e-01	 3.1068780757e+00
 1.6350437336e+00	 1.7558337098e-01	 3.3448241886e+00
 1.6330259937e+00	 1.9345189270e-01	 3.3064866867e+00
 1.6308041894e+00	 2.1136515006e-01	 3.2652161900e+00
 1.6283764500e+00	 2.2932001199e-01	 3.2180548259e+00
 1.6257409606e+00	 2.4731328317e-01	 3.1620189904e+00
 1.6228959641e+00	 2.6534170505e-01	 3.0941911796e+00
 1.6424087954e+00	 1.7637428706e-01	 3.3311536220e+00
 1.6403819666e+00	 1.9432329762e-01	 3.2929081663e+00
 1.6381501542e+00	 2.1231724533e-01	 3.2519076939e+00
 1.6357114791e+00	 2.3035298502e-01	 3.2051226371e+00
 1.6330641180e+00	 2.4842730697e-01	 3.1494765987e+00
 1.6302063063e+00	 2.6653693795e-01	 3.0819327182e+00
 1.6497738573e+00	 1.7716520315e-01	 3.3171115429e+00
 1.6477379396e+00	 1.9519470254e-01	 3.2790213280e+00
 1.6454961190e+00	 2.1326934061e-01	 3.2384007059e+00
 1.6430465081e+00	 2.3138595805e-01	 3.1920994236e+00
 1.6403872755e+00	 2.4954133077e-01	 3.1368985725e+00
 1.6375166485e+00	 2.6773217086e-01	 3.0695913507e+00
 1.6571389192e+00	 1.7795611923e-01	 3.3023732559e+00
 1.6550939125e+00	 1.9606610746e-01	 3.2644391793e+00
 1.6528420839e+00	 2.1422143588e-01	 3.2242569885e+00
 1.6503815372e+00	 2.3241893107e-01	 3.1785086289e+00
 1.6477104330e+00	 2.5065535457e-01	 3.1237848130e+00
 1.6448269907e+00	 2.6892740376e-01	 3.0566600303e+00
 1.6082752798e+00	 2.6295123924e-01	 3.1205090487e+00
 1.6052466132e+00	 2.8084878608e-01	 3.0454299642e+00
 1.6020070265e+00	 2.9877452478e-01	 2.9721536385e+00
 1.5985549649e+00	 3.1672504474e-01	 2.9028979787e+00
 1.5948889397e+00	 3.3469687742e-01	 2.8405771808e+00
 1.5910075311e+00	 3.5268649773e-01	 2.7890015840e+00
 1.6155856220e+00	 2.6414647214e-01	 3.1068780757e+00
 1.6125431887e+00	 2.8212537147e-01	 3.0320906132e+00
 1.6092888767e+00	 3.0013259080e-01	 2.9588822066e+00
 1.6058211238e+00	 3.1816470403e-01	 2.8894968081e+00
 1.6021384349e+00	 3.3621822686e-01	 2.8268407977e+00
 1.5982393835e+00	 3.5428961817e-01	 2.7746795940e+00
 1.6228959641e+00	 2.6534170505e-01	 3.0941911796e+00
 1.6198397642e+00	 2.8340195686e-01	 3.0195199450e+00
 1.6165707268e+00	 3.0149065682e-01	 2.9461554525e+00
 1.6130872828e+00	 3.1960436333e-01	 2.8764617548e+00
 1.6093879301e+00	 3.3773957631e-01	 2.8134278916e+00
 1.6054712360e+00	 3.5589273862e-01	 2.7608608048e+00
 1.6302063063e+00	 2.6653693795e-01	 3.0819327182e+00
 1.6271363397e+00	 2.8467854225e-01	 3.0071955258e+00
 1.6238525769e+00	 3.0284872284e-01	 2.9334272345e+00
 1.6203534417e+00	 3.2104402262e-01	 2.8632055495e+00
 1.6166374253e+00	 3.3926092575e-01	 2.7996920925e+00
 1.6127030884e+00	 3.5749585906e-01	 2.7468211665e+00
 1.6375166485e+00	 2.6773217086e-01	 3.0695913507e+00
 1.6344329152e+00	 2.8595512764e-01	 2.9945996999e+00
 1.6311344270e+00	 3.0420678886e-01	 2.9201572317e+00
 1.6276196006e+00	 3.2248368192e-01	 2.8491483876e+00
 1.6238869204e+00	 3.4078227519e-01	 2.7849967761e+00
 1.6199349408e+00	 3.5909897950e-01	 2.7318493245e+00
 1.6448269907e+00	 2.6892740376e-01	 3.0566600303e+00
 1.6417294908e+00	 2.8723171304e-01	 2.9812196030e+00
 1.6384162772e+00	 3.0556485489e-01	 2.9058109712e+00
 1.6348857596e+00	 3.2392334121e-01	 2.8337179645e+00
 1.6311364156e+00	 3.4230362463e-01	 2.7687150981e+00
 1.6271667932e+00	 3.6070209995e-01	 2.7152466471e+00
 1.5910075311e+00	 3.5268649773e-01	 2.7890015840e+00
 1.5869093901e+00	 3.7069032551e-01	 2.7242900297e+00
 1.5825932405e+00	 3.8870472713e-01	 2.6271089776e+00
 1.5780578813e+00	 4.0672601715e-01	 2.5145510362e+00
 1.5733021885e+00	 4.2475046004e-01	 2.4017762373e+00
 1.5683251174e+00	 4.4277427209e-01	 2.3042589592e+00
 1.5982393835e+00	 3.5428961817e-01	 2.7746795940e+00
 1.5941226146e+00	 3.7237528153e-01	 2.7091425773e+00
 1.5897868461e+00	 3.9047156680e-01	 2.6117685466e+00
 1.5852308717e+00	 4.0857477177e-01	 2.4990467323e+00
 1.5804535621e+00	 4.2668114395e-01	 2.3859824606e+00
 1.5754538679e+00	 4.4478688242e-01	 2.2878778530e+00
 1.6054712360e+00	 3.5589273862e-01	 2.7608608048e+00
 1.6013358391e+00	 3.7406023756e-01	 2.6949987776e+00
 1.5969804518e+00	 3.9223840647e-01	 2.5980203503e+00
 1.5924038620e+00	 4.1042352639e-01	 2.4856526898e+00
 1.5876049357e+00	 4.2861182786e-01	 2.3725065070e+00
 1.5825826184e+00	 4.4679949275e-01	 2.2734758511e+00
 1.6127030884e+00	 3.5749585906e-01	 2.7468211665e+00
 1.6085490636e+00	 3.7574519358e-01	 2.6810796355e+00
 1.6041740574e+00	 3.9400524614e-01	 2.5851015883e+00
 1.5995768524e+00	 4.1227228102e-01	 2.4736792312e+00
 1.5947563093e+00	 4.3054251177e-01	 2.3607917523e+00
 1.5897113690e+00	 4.4881210307e-01	 2.2606923034e+00
 1.6199349408e+00	 3.5909897950e-01	 2.7318493245e+00
 1.6157622881e+00	 3.7743014961e-01	 2.6666240127e+00
 1.6113676631e+00	 3.9577208581e-01	 2.5722679131e+00
 1.6067498428e+00	 4.1412103564e-01	 2.4624546899e+00
 1.6019076829e+00	 4.3247319568e-01	 2.3502980405e+00
 1.5968401195e+00	 4.5082471340e-01	 2.2491803238e+00
 1.6271667932e+00	 3.6070209995e-01	 2.7152466471e+00
 1.6229755126e+00	 3.7911510563e-01	 2.6508883493e+00
 1.6185612687e+00	 3.9753892547e-01	 2.5587931319e+00
 1.6139228332e+00	 4.1596979026e-01	 2.4513251115e+00
 1.6090590565e+00	 4.3440387959e-01	 2.3405014073e+00
 1.6039688700e+00	 4.5283732373e-01	 2.2386065597e+00
 1.5683251174e+00	 4.4277427209e-01	 2.3042589592e+00
 1.5631257040e+00	 4.6079362326e-01	 2.2202476509e+00
 1.5577030677e+00	 4.7880463923e-01	 2.1349463653e+00
 1.5520564126e+00	 4.9680340351e-01	 2.0447200175e+00
 1.5461850295e+00	 5.1478595957e-01	 1.9462513847e+00
 1.5400882977e+00	 5.3274831313e-01	 1.8365403629e+00
 1.5754538679e+00	 4.4478688242e-01	 2.2878778530e+00
 1.5702308208e+00	 4.6288813973e-01	 2.2039370614e+00
 1.5647835362e+00	 4.8098102396e-01	 2.1200040256e+00
 1.5591112145e+00	 4.9906160080e-01	 2.0317960540e+00
 1.5532131433e+00	 5.1712589575e-01	 1.9353648392e+00
 1.5470886990e+00	 5.3516989637e-01	 1.8270985884e+00
 1.5825826184e+00	 4.4679949275e-01	 2.2734758511e+00
 1.5773359377e+00	 4.6498265620e-01	 2.1886833029e+00
 1.5718640047e+00	 4.8315740868e-01	 2.1049710365e+00
 1.5661660164e+00	 5.0131979809e-01	 2.0177653697e+00
 1.5602412571e+00	 5.1946583193e-01	 1.9228368960e+00
 1.5540891004e+00	 5.3759147961e-01	 1.8163046243e+00
 1.5897113690e+00	 4.4881210307e-01	 2.2606923034e+00
 1.5844410545e+00	 4.6707717267e-01	 2.1743117254e+00
 1.5789444732e+00	 4.8533379341e-01	 2.0897702855e+00
 1.5732208183e+00	 5.0357799538e-01	 2.0025545693e+00
 1.5672693709e+00	 5.2180576811e-01	 1.9084987723e+00
 1.5610895017e+00	 5.4001306286e-01	 1.8037899940e+00
 1.5968401195e+00	 4.5082471340e-01	 2.2491803238e+00
 1.5915461714e+00	 4.6917168914e-01	 2.1606588720e+00
 1.5860249417e+00	 4.8751017813e-01	 2.0743348127e+00
 1.5802756201e+00	 5.0583619267e-01	 1.9861009888e+00
 1.5742974846e+00	 5.2414570429e-01	 1.8921947060e+00
 1.5680899031e+00	 5.4243464610e-01	 1.7892033313e+00
 1.6039688700e+00	 4.5283732373e-01	 2.2386065597e+00
 1.5986512882e+00	 4.7126620560e-01	 2.1475722902e+00
 1.5931054102e+00	 4.8968656285e-01	 2.0586076253e+00
 1.5873304220e+00	 5.0809438995e-01	 1.9683524770e+00
 1.5813255984e+00	 5.2648564047e-01	 1.8737816628e+00
 1.5750903044e+00	 5.4485622934e-01	 1.7722099707e+00
 1.5400882977e+00	 5.3274831313e-01	 1.8365403629e+00
 1.5337656863e+00	 5.5068643450e-01	 1.7163655728e+00
 1.5272167566e+00	 5.6859626097e-01	 1.5930588372e+00
 1.5204411629e+00	 5.8647369932e-01	 1.4738425728e+00
 1.5134386541e+00	 6.0431462837e-01	 1.3661136840e+00
 1.5062090754e+00	 6.2211490161e-01	 1.2773933159e+00
 1.5470886990e+00	 5.3516989637e-01	 1.8270985884e+00
 1.5407373486e+00	 5.5318955466e-01	 1.7066836269e+00
 1.5341586510e+00	 5.7118078943e-01	 1.5812933417e+00
 1.5273522591e+00	 5.8913948887e-01	 1.4589381746e+00
 1.5203179207e+00	 6.0706151305e-01	 1.3477783757e+00
 1.5130554803e+00	 6.2494269662e-01	 1.2560714581e+00
 1.5540891004e+00	 5.3759147961e-01	 1.8163046243e+00
 1.5477090108e+00	 5.5569267481e-01	 1.6967715973e+00
 1.5411005453e+00	 5.7376531789e-01	 1.5707300984e+00
 1.5342633553e+00	 5.9180527841e-01	 1.4465266564e+00
 1.5271971873e+00	 6.0980839772e-01	 1.3326462085e+00
 1.5199018852e+00	 6.2777049163e-01	 1.2376584466e+00
 1.5610895017e+00	 5.4001306286e-01	 1.8037899940e+00
 1.5546806730e+00	 5.5819579497e-01	 1.6860729123e+00
 1.5480424397e+00	 5.7634984635e-01	 1.5607595462e+00
 1.5411744515e+00	 5.9447106795e-01	 1.4360867878e+00
 1.5340764539e+00	 6.1255528240e-01	 1.3204317382e+00
 1.5267482901e+00	 6.3059828663e-01	 1.2222581284e+00
 1.5680899031e+00	 5.4243464610e-01	 1.7892033313e+00
 1.5616523352e+00	 5.6069891513e-01	 1.6740519288e+00
 1.5549843340e+00	 5.7893437481e-01	 1.5507943917e+00
 1.5480855477e+00	 5.9713685749e-01	 1.4271183546e+00
 1.5409557205e+00	 6.1530216707e-01	 1.3108665869e+00
 1.5335946950e+00	 6.3342608164e-01	 1.2099846611e+00
 1.5750903044e+00	 5.4485622934e-01	 1.7722099707e+00
 1.5686239974e+00	 5.6320203529e-01	 1.6601934085e+00
 1.5619262284e+00	 5.8151890327e-01	 1.5402690246e+00
 1.5549966439e+00	 5.9980264704e-01	 1.4191415699e+00
 1.5478349871e+00	 6.1804905174e-01	 1.3036989063e+00
 1.5404410999e+00	 6.3625387665e-01	 1.2009620896e+00
 1.5062090754e+00	 6.2211490161e-01	 1.2773933159e+00
 1.4987523695e+00	 6.3987034990e-01	 1.1901988449e+00
 1.4910685774e+00	 6.5757678424e-01	 1.0804778151e+00
 1.4831578401e+00	 6.7522999858e-01	 9.4616627238e-01
 1.4750203993e+00	 6.9282577270e-01	 7.9864161055e-01
 1.4666565984e+00	 7.1035987516e-01	 6.6338792995e-01
 1.5130554803e+00	 6.2494269662e-01	 1.2560714581e+00
 1.5055648803e+00	 6.4277885149e-01	 1.1686743152e+00
 1.4978461619e+00	 6.6056576962e-01	 1.0636827519e+00
 1.4898994667e+00	 6.7829922584e-01	 9.3945043304e-01
 1.4817250375e+00	 6.9597498075e-01	 7.9455396009e-01
 1.4733232193e+00	 7.1358878368e-01	 6.4781451621e-01
 1.5199018852e+00	 6.2777049163e-01	 1.2376584466e+00
 1.5123773910e+00	 6.4568735308e-01	 1.1484978962e+00
 1.5046237463e+00	 6.6355475501e-01	 1.0455931368e+00
 1.4966410932e+00	 6.8136845311e-01	 9.2796702899e-01
 1.4884296757e+00	 6.9912418881e-01	 7.9484226410e-01
 1.4799898402e+00	 7.1681769221e-01	 6.4624516272e-01
 1.5267482901e+00	 6.3059828663e-01	 1.2222581284e+00
 1.5191899018e+00	 6.4859585467e-01	 1.1302022064e+00
 1.5114013308e+00	 6.6654374039e-01	 1.0270894985e+00
 1.5033827198e+00	 6.8443768037e-01	 9.1286020830e-01
 1.4951343139e+00	 7.0227339687e-01	 7.8762360081e-01
 1.4866564611e+00	 7.2004660073e-01	 6.5159078865e-01
 1.5335946950e+00	 6.3342608164e-01	 1.2099846611e+00
 1.5260024126e+00	 6.5150435626e-01	 1.1143226526e+00
 1.5181789152e+00	 6.6953272577e-01	 1.0090490172e+00
 1.5101243463e+00	 6.8750690764e-01	 8.9526608544e-01
 1.5018389521e+00	 7.0542260493e-01	 7.7420691037e-01
 1.4933230820e+00	 7.2327550925e-01	 6.4716340212e-01
 1.5404410999e+00	 6.3625387665e-01	 1.2009620896e+00
 1.5328149234e+00	 6.5441285785e-01	 1.1013971344e+00
 1.5249564996e+00	 6.7252171115e-01	 9.9234532487e-01
 1.5168659729e+00	 6.9057613491e-01	 8.7631260324e-01
 1.5085435902e+00	 7.0857181299e-01	 7.5588981879e-01
 1.4999897029e+00	 7.2650441778e-01	 6.3367551152e-01
 1.4666565984e+00	 7.1035987516e-01	 6.6338792995e-01
 1.4580668831e+00	 7.2782806628e-01	 5.4725279046e-01
 1.4492518028e+00	 7.4522610115e-01	 4.5786586237e-01
 1.4402120104e+00	 7.6254973275e-01	 3.7019184467e-01
 1.4309482633e+00	 7.7979471502e-01	 2.6744323886e-01
 1.4214614237e+00	 7.9695680600e-01	 1.4052685432e-01
 1.4733232193e+00	 7.1358878368e-01	 6.4781451621e-01
 1.4646944599e+00	 7.3113637567e-01	 5.2794552150e-01
 1.4558393110e+00	 7.4861349252e-01	 4.3865698165e-01
 1.4467584286e+00	 7.6601586790e-01	 3.5174421892e-01
 1.4374525736e+00	 7.8333923645e-01	 2.5280256882e-01
 1.4279226120e+00	 8.0057933694e-01	 1.3112529455e-01
 1.4799898402e+00	 7.1681769221e-01	 6.4624516272e-01
 1.4713220366e+00	 7.3444468506e-01	 5.1743513090e-01
 1.4624268192e+00	 7.5200088389e-01	 4.2288788950e-01
 1.4533048468e+00	 7.6948200305e-01	 3.3373070323e-01
 1.4439568839e+00	 7.8688375788e-01	 2.3676877247e-01
 1.4343838003e+00	 8.0420186788e-01	 1.1988818662e-01
 1.4866564611e+00	 7.2004660073e-01	 6.5159078865e-01
 1.4779496134e+00	 7.3775299445e-01	 5.1659684755e-01
 1.4690143274e+00	 7.5538827526e-01	 4.1149460773e-01
 1.4598512651e+00	 7.7294813820e-01	 3.1688618833e-01
 1.4504611941e+00	 7.9042827931e-01	 2.1979264844e-01
 1.4408449886e+00	 8.0782439881e-01	 1.0689656480e-01
 1.4933230820e+00	 7.2327550925e-01	 6.4716340212e-01
 1.4845771901e+00	 7.4106130385e-01	 5.2359785390e-01
 1.4756018356e+00	 7.5877566663e-01	 4.0540534612e-01
 1.4663976833e+00	 7.7641427335e-01	 3.0194055290e-01
 1.4569655044e+00	 7.9397280074e-01	 2.0232434924e-01
 1.4473061769e+00	 8.1144692975e-01	 9.2236806800e-02
 1.4999897029e+00	 7.2650441778e-01	 6.3367551152e-01
 1.4912047668e+00	 7.4436961324e-01	 5.2039934213e-01
 1.4821893438e+00	 7.6216305800e-01	 4.0540641109e-01
 1.4729441015e+00	 7.7988040850e-01	 2.8961830858e-01
 1.4634698147e+00	 7.9751732217e-01	 1.8481290552e-01
 1.4537673652e+00	 8.1506946068e-01	 7.6000004043e-02
 1.4214614237e+00	 7.9695680600e-01	 1.4052685432e-01
 1.4117524590e+00	 8.1403177108e-01	 6.8401886174e-03
 1.4018224416e+00	 8.3101538610e-01	-1.1251797382e-01
 1.3916725495e+00	 8.4790344066e-01	-2.2241248857e-01
 1.3813040658e+00	 8.6469174131e-01	-3.2867471880e-01
 1.3707183788e+00	 8.8137611479e-01	-4.3798821796e-01
 1.4279226120e+00	 8.0057933694e-01	 1.3112529455e-01
 1.4181695156e+00	 8.1773191549e-01	 7.1165983366e-04
 1.4081943618e+00	 8.3479272877e-01	-1.1870940999e-01
 1.3979983338e+00	 8.5175754721e-01	-2.3060817416e-01
 1.3875827207e+00	 8.6862215831e-01	-3.3949677625e-01
 1.3769489169e+00	 8.8538236986e-01	-4.5081653450e-01
 1.4343838003e+00	 8.0420186788e-01	 1.1988818662e-01
 1.4245865722e+00	 8.2143205991e-01	-6.6372600580e-03
 1.4145662820e+00	 8.3857007143e-01	-1.2513031480e-01
 1.4043241181e+00	 8.5561165376e-01	-2.3799149518e-01
 1.3938613755e+00	 8.7255257532e-01	-3.4872611011e-01
 1.3831794550e+00	 8.8938862493e-01	-4.6183231589e-01
 1.4408449886e+00	 8.0782439881e-01	 1.0689656480e-01
 1.4310036289e+00	 8.2513220432e-01	-1.5480354698e-02
 1.4209382022e+00	 8.4234741409e-01	-1.3228879329e-01
 1.4106499025e+00	 8.5946576031e-01	-2.4517977787e-01
 1.4001400304e+00	 8.7648299233e-01	-3.5695972533e-01
 1.3894099931e+00	 8.9339488000e-01	-4.7147842949e-01
 1.4473061769e+00	 8.1144692975e-01	 9.2236806800e-02
 1.4374206855e+00	 8.2883234873e-01	-2.6080239754e-02
 1.4273101224e+00	 8.4612475676e-01	-1.4067800114e-01
 1.4169756868e+00	 8.6331986686e-01	-2.5277373764e-01
 1.4064186852e+00	 8.8041340933e-01	-3.6477854965e-01
 1.3956405312e+00	 8.9740113506e-01	-4.8018446768e-01
 1.4537673652e+00	 8.1506946068e-01	 7.6000004043e-02
 1.4438377421e+00	 8.3253249315e-01	-3.8689140126e-02
 1.4336820426e+00	 8.4990209942e-01	-1.5077702090e-01
 1.4233014711e+00	 8.6717397341e-01	-2.6135840394e-01
 1.4126973401e+00	 8.8434382634e-01	-3.7274835519e-01
 1.4018710692e+00	 9.0140739013e-01	-4.8836761240e-01
 1.3707183788e+00	 8.8137611479e-01	-4.3798821796e-01
 1.3599169816e+00	 8.9795241134e-01	-5.4219382863e-01
 1.3489014715e+00	 9.1441650788e-01	-6.3416468975e-01
 1.3376735501e+00	 9.3076431134e-01	-7.2293888834e-01
 1.3262350217e+00	 9.4699176182e-01	-8.1773058746e-01
 1.3145877935e+00	 9.6309483588e-01	-9.2773000756e-01
 1.3769489169e+00	 8.8538236986e-01	-4.5081653450e-01
 1.3660984224e+00	 9.0203401321e-01	-5.5520962194e-01
 1.3550328418e+00	 9.1857294656e-01	-6.4580019794e-01
 1.3437538844e+00	 9.3499505821e-01	-7.3262524884e-01
 1.3322633627e+00	 9.5129626983e-01	-8.2590380817e-01
 1.3205631926e+00	 9.6747253968e-01	-9.3583027980e-01
 1.3831794550e+00	 8.8938862493e-01	-4.6183231589e-01
 1.3722798632e+00	 9.0611561508e-01	-5.6673209386e-01
 1.3611642122e+00	 9.2272938523e-01	-6.5646770187e-01
 1.3498342187e+00	 9.3922580508e-01	-7.4190119211e-01
 1.3382917037e+00	 9.5560077783e-01	-8.3408915138e-01
 1.3265385916e+00	 9.7185024348e-01	-9.4406969528e-01
 1.3894099931e+00	 8.9339488000e-01	-4.7147842949e-01
 1.3784613040e+00	 9.1019721695e-01	-5.7700227046e-01
 1.3672955825e+00	 9.2688582390e-01	-6.6624916349e-01
 1.3559145530e+00	 9.4345655195e-01	-7.5073479746e-01
 1.3443200447e+00	 9.5990528584e-01	-8.4218839034e-01
 1.3325139907e+00	 9.7622794728e-01	-9.5233367944e-01
 1.3956405312e+00	 8.9740113506e-01	-4.8018446768e-01
 1.3846427449e+00	 9.1427881882e-01	-5.8625143452e-01
 1.3734269528e+00	 9.3104226257e-01	-6.7521944688e-01
 1.3619948873e+00	 9.4768729882e-01	-7.5908876383e-01
 1.3503483857e+00	 9.6420979385e-01	-8.5009866741e-01
 1.3384893898e+00	 9.8060565108e-01	-9.6050276971e-01
 1.4018710692e+00	 9.0140739013e-01	-4.8836761240e-01
 1.3908241857e+00	 9.1836042069e-01	-5.9470191349e-01
 1.3795583231e+00	 9.3519870125e-01	-6.8344704600e-01
 1.3680752216e+00	 9.5191804569e-01	-7.6692109459e-01
 1.3563767268e+00	 9.6851430186e-01	-8.5771315406e-01
 1.3444647888e+00	 9.8498335487e-01	-9.6845326985e-01
 1.3145877935e+00	 9.6309483588e-01	-9.2773000756e-01
 1.3027338740e+00	 9.7906954972e-01	-1.0364875468e+00
 1.2906753724e+00	 9.9491196236e-01	-1.1269250747e+00
 1.2784144971e+00	 1.0106181788e+00	-1.2063727167e+00
 1.2659535549e+00	 1.0261843531e+00	-1.2809320896e+00
 1.2532949493e+00	 1.0416066916e+00	-1.3552230413e+00
 1.3205631926e+00	 9.6747253968e-01	-9.3583027980e-01
 1.3086553917e+00	 9.8351986585e-01	-1.0455803872e+00
 1.2965420786e+00	 9.9943428946e-01	-1.1367193819e+00
 1.2842254721e+00	 1.0152118978e+00	-1.2161050057e+00
 1.2717078893e+00	 1.0308488274e+00	-1.2893639481e+00
 1.2589917445e+00	 1.0463412674e+00	-1.3606332839e+00
 1.3265385916e+00	 9.7185024348e-01	-9.4406969528e-01
 1.3145769093e+00	 9.8797018199e-01	-1.0546325020e+00
 1.3024087849e+00	 1.0039566166e+00	-1.1461500002e+00
 1.2900364471e+00	 1.0198056168e+00	-1.2251186844e+00
 1.2774622236e+00	 1.0355133018e+00	-1.2968059032e+00
 1.2646885397e+00	 1.0510758433e+00	-1.3649856391e+00
 1.3325139907e+00	 9.7622794728e-01	-9.5233367944e-01
 1.3204984269e+00	 9.9242049812e-01	-1.0635519455e+00
 1.3082754911e+00	 1.0084789437e+00	-1.1551733081e+00
 1.2958474221e+00	 1.0243993358e+00	-1.2334430668e+00
 1.2832165579e+00	 1.0401777761e+00	-1.3033837282e+00
 1.2703853349e+00	 1.0558104192e+00	-1.3685247695e+00
 1.3384893898e+00	 9.8060565108e-01	-9.6050276971e-01
 1.3264199445e+00	 9.9687081426e-01	-1.0722408218e+00
 1.3141421974e+00	 1.0130012708e+00	-1.1637381097e+00
 1.3016583971e+00	 1.0289930548e+00	-1.2410977344e+00
 1.2889708923e+00	 1.0448422504e+00	-1.3092107989e+00
 1.2760821302e+00	 1.0605449950e+00	-1.3714797992e+00
 1.3444647888e+00	 9.8498335487e-01	-9.6845326985e-01
 1.3323414621e+00	 1.0013211304e+00	-1.0805959480e+00
 1.3200089036e+00	 1.0175235979e+00	-1.1717863170e+00
 1.3074693721e+00	 1.0335867738e+00	-1.2480932452e+00
 1.2947252266e+00	 1.0495067248e+00	-1.3143888391e+00
 1.2817789254e+00	 1.0652795709e+00	-1.3740651020e+00
 1.2532949493e+00	 1.0416066916e+00	-1.3552230413e+00
 1.2404411790e+00	 1.0568814556e+00	-1.4289984773e+00
 1.2273948367e+00	 1.0720049648e+00	-1.5012449165e+00
 1.2141586069e+00	 1.0869736000e+00	-1.5728583392e+00
 1.2007352644e+00	 1.1017838057e+00	-1.6427830885e+00
 1.1871276724e+00	 1.1164320934e+00	-1.7044426705e+00
 1.2589917445e+00	 1.0463412674e+00	-1.3606332839e+00
 1.2460795480e+00	 1.0616854622e+00	-1.4315010205e+00
 1.2329739041e+00	 1.0768777147e+00	-1.5034446047e+00
 1.2196775097e+00	 1.0919143891e+00	-1.5778497175e+00
 1.2061931520e+00	 1.1067919139e+00	-1.6541409220e+00
 1.1925237073e+00	 1.1215067848e+00	-1.7167710716e+00
 1.2646885397e+00	 1.0510758433e+00	-1.3649856391e+00
 1.2517179170e+00	 1.0664894688e+00	-1.4332463716e+00
 1.2385529716e+00	 1.0817504645e+00	-1.5056069035e+00
 1.2251964124e+00	 1.0968551781e+00	-1.5838866548e+00
 1.2116510396e+00	 1.1118000221e+00	-1.6678701459e+00
 1.1979197421e+00	 1.1265814761e+00	-1.7268982366e+00
 1.2703853349e+00	 1.0558104192e+00	-1.3685247695e+00
 1.2573562860e+00	 1.0712934754e+00	-1.4345785078e+00
 1.2441320390e+00	 1.0866232143e+00	-1.5081150531e+00
 1.2307153152e+00	 1.1017959672e+00	-1.5913328664e+00
 1.2171089271e+00	 1.1168081303e+00	-1.6805744843e+00
 1.2033157770e+00	 1.1316561674e+00	-1.7348960033e+00
 1.2760821302e+00	 1.0605449950e+00	-1.3714797992e+00
 1.2629946550e+00	 1.0760974821e+00	-1.4358230104e+00
 1.2497111065e+00	 1.0914959642e+00	-1.5113320593e+00
 1.2362342180e+00	 1.1067367563e+00	-1.6005310028e+00
 1.2225668147e+00	 1.1218162385e+00	-1.6902759463e+00
 1.2087118119e+00	 1.1367308588e+00	-1.7408458424e+00
 1.2817789254e+00	 1.0652795709e+00	-1.3740651020e+00
 1.2686330240e+00	 1.0809014887e+00	-1.4372878874e+00
 1.2552901739e+00	 1.0963687140e+00	-1.5156015248e+00
 1.2417531207e+00	 1.1116775454e+00	-1.6117659910e+00
 1.2280247023e+00	 1.1268243467e+00	-1.6972023836e+00
 1.2141078468e+00	 1.1418055501e+00	-1.7448386257e+00
 1.1871276724e+00	 1.1164320934e+00	-1.7044426705e+00
 1.1733387801e+00	 1.1309150441e+00	-1.7546658775e+00
 1.1593716210e+00	 1.1452293107e+00	-1.8132098399e+00
 1.1452293107e+00	 1.1593716210e+00	-1.8698645710e+00
 1.1309150441e+00	 1.1733387801e+00	-1.9144137142e+00
 1.1164320934e+00	 1.1871276724e+00	-1.9367528745e+00
 1.1925237073e+00	 1.1215067848e+00	-1.7167710716e+00
 1.1786721382e+00	 1.1360555670e+00	-1.7621279976e+00
 1.1646414921e+00	 1.1504348985e+00	-1.8165339286e+00
 1.1504348985e+00	 1.1646414921e+00	-1.8700305094e+00
 1.1360555670e+00	 1.1786721382e+00	-1.9126388194e+00
 1.1215067848e+00	 1.1925237073e+00	-1.9344806629e+00
 1.1979197421e+00	 1.1265814761e+00	-1.7268982366e+00
 1.1840054963e+00	 1.1411960899e+00	-1.7685399601e+00
 1.1699113631e+00	 1.1556404862e+00	-1.8197326480e+00
 1.1556404862e+00	 1.1699113631e+00	-1.8707881091e+00
 1.1411960899e+00	 1.1840054963e+00	-1.9119852960e+00
 1.1265814761e+00	 1.1979197421e+00	-1.9336945987e+00
 1.2033157770e+00	 1.1316561674e+00	-1.7348960033e+00
 1.1893388544e+00	 1.1463366129e+00	-1.7738113939e+00
 1.1751812341e+00	 1.1608460740e+00	-1.8225684848e+00
 1.1608460740e+00	 1.1751812341e+00	-1.8717673875e+00
 1.1463366129e+00	 1.1893388544e+00	-1.9119649480e+00
 1.1316561674e+00	 1.2033157770e+00	-1.9338020911e+00
 1.2087118119e+00	 1.1367308588e+00	-1.7408458424e+00
 1.1946722125e+00	 1.1514771358e+00	-1.7778641969e+00
 1.1804511051e+00	 1.1660516618e+00	-1.8248185753e+00
 1.1660516618e+00	 1.1804511051e+00	-1.8726151375e+00
 1.1514771358e+00	 1.1946722125e+00	-1.9121082284e+00
 1.1367308588e+00	 1.2087118119e+00	-1.9342308209e+00
 1.2141078468e+00	 1.1418055501e+00	-1.7448386257e+00
 1.2000055705e+00	 1.1566176587e+00	-1.7806322594e+00
 1.1857209761e+00	 1.1712572496e+00	-1.8262743907e+00
 1.1712572496e+00	 1.1857209761e+00	-1.8729945822e+00
 1.1566176587e+00	 1.2000055705e+00	-1.9119638687e+00
 1.1418055501e+00	 1.2141078468e+00	-1.9344283508e+00
 1.1164320934e+00	 1.1871276724e+00	-1.9367528745e+00
 1.1017838057e+00	 1.2007352644e+00	-1.9600524539e+00
 1.0869736000e+00	 1.2141586069e+00	-1.9976683444e+00
 1.0720049648e+00	 1.2273948367e+00	-2.0382639379e+00
 1.0568814556e+00	 1.2404411790e+00	-2.0737235083e+00
 1.0416066916e+00	 1.2532949493e+00	-2.0978742216e+00
 1.1215067848e+00	 1.1925237073e+00	-1.9344806629e+00
 1.1067919139e+00	 1.2061931520e+00	-1.9599246597e+00
 1.0919143891e+00	 1.2196775097e+00	-2.0009568887e+00
 1.0768777147e+00	 1.2329739041e+00	-2.0429731466e+00
 1.0616854622e+00	 1.2460795480e+00	-2.0778128204e+00
 1.0463412674e+00	 1.2589917445e+00	-2.0993022094e+00
 1.1265814761e+00	 1.1979197421e+00	-1.9336945987e+00
 1.1118000221e+00	 1.2116510396e+00	-1.9596010635e+00
 1.0968551781e+00	 1.2251964124e+00	-2.0044667334e+00
 1.0817504645e+00	 1.2385529716e+00	-2.0482058199e+00
 1.0664894688e+00	 1.2517179170e+00	-2.0826117539e+00
 1.0510758433e+00	 1.2646885397e+00	-2.1015341378e+00
 1.1316561674e+00	 1.2033157770e+00	-1.9338020911e+00
 1.1168081303e+00	 1.2171089271e+00	-1.9595774446e+00
 1.1017959672e+00	 1.2307153152e+00	-2.0073493310e+00
 1.0866232143e+00	 1.2441320390e+00	-2.0531276167e+00
 1.0712934754e+00	 1.2573562860e+00	-2.0873320805e+00
 1.0558104192e+00	 1.2703853349e+00	-2.1038599503e+00
 1.1367308588e+00	 1.2087118119e+00	-1.9342308209e+00
 1.1218162385e+00	 1.2225668147e+00	-1.9599596451e+00
 1.1067367563e+00	 1.2362342180e+00	-2.0087782066e+00
 1.0914959642e+00	 1.2497111065e+00	-2.0569251496e+00
 1.0760974821e+00	 1.2629946550e+00	-2.0912047539e+00
 1.0605449950e+00	 1.2760821302e+00	-2.1055863597e+00
 1.1418055501e+00	 1.2141078468e+00	-1.9344283508e+00
 1.1268243467e+00	 1.2280247023e+00	-1.9601168534e+00
 1.1116775454e+00	 1.2417531207e+00	-2.0079635088e+00
 1.0963687140e+00	 1.2552901739e+00	-2.0588062709e+00
 1.0809014887e+00	 1.2686330240e+00	-2.0934801939e+00
 1.0652795709e+00	 1.2817789254e+00	-2.1060371431e+00
 1.0416066916e+00	 1.2532949493e+00	-2.0978742216e+00
 1.0261843531e+00	 1.2659535549e+00	-2.1096084589e+00
 1.0106181788e+00	 1.2784144971e+00	-2.1133114167e+00
 9.9491196236e-01	 1.2906753724e+00	-2.1136787610e+00
 9.7906954972e-01	 1.3027338740e+00	-2.1169417753e+00
 9.6309483588e-01	 1.3145877935e+00	-2.1306241710e+00
 1.0463412674e+00	 1.2589917445e+00	-2.0993022094e+00
 1.0308488274e+00	 1.2717078893e+00	-2.1082145763e+00
 1.0152118978e+00	 1.2842254721e+00	-2.1105422594e+00
 9.9943428946e-01	 1.2965420786e+00	-2.1106036356e+00
 9.8351986585e-01	 1.3086553917e+00	-2.1142549352e+00
 9.6747253968e-01	 1.3205631926e+00	-2.1286410751e+00
 1.0510758433e+00	 1.2646885397e+00	-2.1015341378e+00
 1.0355133018e+00	 1.2774622236e+00	-2.1075887186e+00
 1.0198056168e+00	 1.2900364471e+00	-2.1083634805e+00
 1.0039566166e+00	 1.3024087849e+00	-2.1078668675e+00
 9.8797018199e-01	 1.3145769093e+00	-2.1116456791e+00
 9.7185024348e-01	 1.3265385916e+00	-2.1265296303e+00
 1.0558104192e+00	 1.2703853349e+00	-2.1038599503e+00
 1.0401777761e+00	 1.2832165579e+00	-2.1071089632e+00
 1.0243993358e+00	 1.2958474221e+00	-2.1062288286e+00
 1.0084789437e+00	 1.3082754911e+00	-2.1049850639e+00
 9.9242049812e-01	 1.3204984269e+00	-2.1086803207e+00
 9.7622794728e-01	 1.3325139907e+00	-2.1238923762e+00
 1.0605449950e+00	 1.2760821302e+00	-2.1055863597e+00
 1.0448422504e+00	 1.2889708923e+00	-2.1061675119e+00
 1.0289930548e+00	 1.3016583971e+00	-2.1036037157e+00
 1.0130012708e+00	 1.3141421974e+00	-2.1014842379e+00
 9.9687081426e-01	 1.3264199445e+00	-2.1049325478e+00
 9.8060565108e-01	 1.3384893898e+00	-2.1203374391e+00
 1.0652795709e+00	 1.2817789254e+00	-2.1060371431e+00
 1.0495067248e+00	 1.2947252266e+00	-2.1041710019e+00
 1.0335867738e+00	 1.3074693721e+00	-2.0999655389e+00
 1.0175235979e+00	 1.3200089036e+00	-2.0969001367e+00
 1.0013211304e+00	 1.3323414621e+00	-2.0999837506e+00
 9.8498335487e-01	 1.3444647888e+00	-2.1154788561e+00
 9.6309483588e-01	 1.3145877935e+00	-2.1306241710e+00
 9.4699176182e-01	 1.3262350217e+00	-2.1407129832e+00
 9.3076431134e-01	 1.3376735501e+00	-2.1324374910e+00
 9.1441650788e-01	 1.3489014715e+00	-2.1132246610e+00
 8.9795241134e-01	 1.3599169816e+00	-2.0906168756e+00
 8.8137611479e-01	 1.3707183788e+00	-2.0720641465e+00
 9.6747253968e-01	 1.3205631926e+00	-2.1286410751e+00
 9.5129626983e-01	 1.3322633627e+00	-2.1385755660e+00
 9.3499505821e-01	 1.3437538844e+00	-2.1288870294e+00
 9.1857294656e-01	 1.3550328418e+00	-2.1078021123e+00
 9.0203401321e-01	 1.3660984224e+00	-2.0836904617e+00
 8.8538236986e-01	 1.3769489169e+00	-2.0648491883e+00
 9.7185024348e-01	 1.3265385916e+00	-2.1265296303e+00
 9.5560077783e-01	 1.3382917037e+00	-2.1364103401e+00
 9.3922580508e-01	 1.3498342187e+00	-2.1257984616e+00
 9.2272938523e-01	 1.3611642122e+00	-2.1035243365e+00
 9.0611561508e-01	 1.3722798632e+00	-2.0785831913e+00
 8.8938862493e-01	 1.3831794550e+00	-2.0599121945e+00
 9.7622794728e-01	 1.3325139907e+00	-2.1238923762e+00
 9.5990528584e-01	 1.3443200447e+00	-2.1338242301e+00
 9.4345655195e-01	 1.3559145530e+00	-2.1227351504e+00
 9.2688582390e-01	 1.3672955825e+00	-2.0998662648e+00
 9.1019721695e-01	 1.3784613040e+00	-2.0746397955e+00
 8.9339488000e-01	 1.3894099931e+00	-2.0564290461e+00
 9.8060565108e-01	 1.3384893898e+00	-2.1203374391e+00
 9.6420979385e-01	 1.3503483857e+00	-2.1304285467e+00
 9.4768729882e-01	 1.3619948873e+00	-2.1192645307e+00
 9.3104226257e-01	 1.3734269528e+00	-2.0963074323e+00
 9.1427881882e-01	 1.3846427449e+00	-2.0712109433e+00
 8.9740113506e-01	 1.3956405312e+00	-2.0535836525e+00
 9.8498335487e-01	 1.3444647888e+00	-2.1154788561e+00
 9.6851430186e-01	 1.3563767268e+00	-2.1258392934e+00
 9.5191804569e-01	 1.3680752216e+00	-2.1149583814e+00
 9.3519870125e-01	 1.3795583231e+00	-2.0923321961e+00
 9.1836042069e-01	 1.3908241857e+00	-2.0676533885e+00
 9.0140739013e-01	 1.4018710692e+00	-2.0505680128e+00
 8.8137611479e-01	 1.3707183788e+00	-2.0720641465e+00
 8.6469174131e-01	 1.3813040658e+00	-2.0543937188e+00
 8.4790344066e-01	 1.3916725495e+00	-2.0328221271e+00
 8.3101538610e-01	 1.4018224416e+00	-2.0117029858e+00
 8.1403177108e-01	 1.4117524590e+00	-1.9946173003e+00
 7.9695680600e-01	 1.4214614237e+00	-1.9842419387e+00
 8.8538236986e-01	 1.3769489169e+00	-2.0648491883e+00
 8.6862215831e-01	 1.3875827207e+00	-2.0484139351e+00
 8.5175754721e-01	 1.3979983338e+00	-2.0286732795e+00
 8.3479272877e-01	 1.4081943618e+00	-2.0089139447e+00
 8.1773191549e-01	 1.4181695156e+00	-1.9915563066e+00
 8.0057933694e-01	 1.4279226120e+00	-1.9780226632e+00
 8.8938862493e-01	 1.3831794550e+00	-2.0599121945e+00
 8.7255257532e-01	 1.3938613755e+00	-2.0444767282e+00
 8.5561165376e-01	 1.4043241181e+00	-2.0255691959e+00
 8.3857007143e-01	 1.4145662820e+00	-2.0058226834e+00
 8.2143205991e-01	 1.4245865722e+00	-1.9869205337e+00
 8.0420186788e-01	 1.4343838003e+00	-1.9694632880e+00
 8.9339488000e-01	 1.3894099931e+00	-2.0564290461e+00
 8.7648299233e-01	 1.4001400304e+00	-2.0416314553e+00
 8.5946576031e-01	 1.4106499025e+00	-2.0225503422e+00
 8.4234741409e-01	 1.4209382022e+00	-2.0015729238e+00
 8.2513220432e-01	 1.4310036289e+00	-1.9800634875e+00
 8.0782439881e-01	 1.4408449886e+00	-1.9582278814e+00
 8.9740113506e-01	 1.3956405312e+00	-2.0535836525e+00
 8.8041340933e-01	 1.4064186852e+00	-2.0389369142e+00
 8.6331986686e-01	 1.4169756868e+00	-2.0186660226e+00
 8.4612475676e-01	 1.4273101224e+00	-1.9953147165e+00
 8.2883234873e-01	 1.4374206855e+00	-1.9703406919e+00
 8.1144692975e-01	 1.4473061769e+00	-1.9439765271e+00
 9.0140739013e-01	 1.4018710692e+00	-2.0505680128e+00
 8.8434382634e-01	 1.4126973401e+00	-2.0354613349e+00
 8.6717397341e-01	 1.4233014711e+00	-2.0129743486e+00
 8.4990209942e-01	 1.4336820426e+00	-1.9862044306e+00
 8.3253249315e-01	 1.4438377421e+00	-1.9571097421e+00
 8.1506946068e-01	 1.4537673652e+00	-1.9263654808e+00
 7.9695680600e-01	 1.4214614237e+00	-1.9842419387e+00
 7.7979471502e-01	 1.4309482633e+00	-1.9592801760e+00
 7.6254973275e-01	 1.4402120104e+00	-1.9067709839e+00
 7.4522610115e-01	 1.4492518028e+00	-1.8404362882e+00
 7.2782806628e-01	 1.4580668831e+00	-1.7775960882e+00
 7.1035987516e-01	 1.4666565984e+00	-1.7381200133e+00
 8.0057933694e-01	 1.4279226120e+00	-1.9780226632e+00
 7.8333923645e-01	 1.4374525736e+00	-1.9478690986e+00
 7.6601586790e-01	 1.4467584286e+00	-1.8909487821e+00
 7.4861349252e-01	 1.4558393110e+00	-1.8226223902e+00
 7.3113637567e-01	 1.4646944599e+00	-1.7597232148e+00
 7.1358878368e-01	 1.4733232193e+00	-1.7251021780e+00
 8.0420186788e-01	 1.4343838003e+00	-1.9694632880e+00
 7.8688375788e-01	 1.4439568839e+00	-1.9347236750e+00
 7.6948200305e-01	 1.4533048468e+00	-1.8757854044e+00
 7.5200088389e-01	 1.4624268192e+00	-1.8094068639e+00
 7.3444468506e-01	 1.4713220366e+00	-1.7523904510e+00
 7.1681769221e-01	 1.4799898402e+00	-1.7290315902e+00
 8.0782439881e-01	 1.4408449886e+00	-1.9582278814e+00
 7.9042827931e-01	 1.4504611941e+00	-1.9198202964e+00
 7.7294813820e-01	 1.4598512651e+00	-1.8614784566e+00
 7.5538827526e-01	 1.4690143274e+00	-1.8011208361e+00
 7.3775299445e-01	 1.4779496134e+00	-1.7559101186e+00
 7.2004660073e-01	 1.4866564611e+00	-1.7407555678e+00
 8.1144692975e-01	 1.4473061769e+00	-1.9439765271e+00
 7.9397280074e-01	 1.4569655044e+00	-1.9031254486e+00
 7.7641427335e-01	 1.4663976833e+00	-1.8482114603e+00
 7.5877566663e-01	 1.4756018356e+00	-1.7980788543e+00
 7.4106130385e-01	 1.4845771901e+00	-1.7673694554e+00
 7.2327550925e-01	 1.4933230820e+00	-1.7397848594e+00
 8.1506946068e-01	 1.4537673652e+00	-1.9263654808e+00
 7.9751732217e-01	 1.4634698147e+00	-1.8845959703e+00
 7.7988040850e-01	 1.4729441015e+00	-1.8361541783e+00
 7.6216305800e-01	 1.4821893438e+00	-1.8004199093e+00
 7.4436961324e-01	 1.4912047668e+00	-1.7649258999e+00
 7.2650441778e-01	 1.4999897029e+00	-1.7261689655e+00
 7.1035987516e-01	 1.4666565984e+00	-1.7381200133e+00
 6.9282577270e-01	 1.4750203993e+00	-1.7159836683e+00
 6.7522999858e-01	 1.4831578401e+00	-1.7054201174e+00
 6.5757678424e-01	 1.4910685774e+00	-1.6797680914e+00
 6.3987034990e-01	 1.4987523695e+00	-1.6293302291e+00
 6.2211490161e-01	 1.5062090754e+00	-1.5600480635e+00
 7.1358878368e-01	 1.4733232193e+00	-1.7251021780e+00
 6.9597498075e-01	 1.4817250375e+00	-1.7158279889e+00
 6.7829922584e-01	 1.4898994667e+00	-1.7007902192e+00
 6.6056576962e-01	 1.4978461619e+00	-1.6617565960e+00
 6.4277885149e-01	 1.5055648803e+00	-1.6042756361e+00
 6.2494269662e-01	 1.5130554803e+00	-1.5340299710e+00
 7.1681769221e-01	 1.4799898402e+00	-1.7290315902e+00
 6.9912418881e-01	 1.4884296757e+00	-1.7217101878e+00
 6.8136845311e-01	 1.4966410932e+00	-1.6919543700e+00
 6.6355475501e-01	 1.5046237463e+00	-1.6438676600e+00
 6.4568735308e-01	 1.5123773910e+00	-1.5823933488e+00
 6.2777049163e-01	 1.5199018852e+00	-1.5125718392e+00
 7.2004660073e-01	 1.4866564611e+00	-1.7407555678e+00
 7.0227339687e-01	 1.4951343139e+00	-1.7188583636e+00
 6.8443768037e-01	 1.5033827198e+00	-1.6794339384e+00
 6.6654374039e-01	 1.5114013308e+00	-1.6264267955e+00
 6.4859585467e-01	 1.5191899018e+00	-1.5637950824e+00
 6.3059828663e-01	 1.5267482901e+00	-1.4955588086e+00
 7.2327550925e-01	 1.4933230820e+00	-1.7397848594e+00
 7.0542260493e-01	 1.5018389521e+00	-1.7079682462e+00
 6.8750690764e-01	 1.5101243463e+00	-1.6637548887e+00
 6.6953272577e-01	 1.5181789152e+00	-1.6097674607e+00
 6.5150435626e-01	 1.5260024126e+00	-1.5486041092e+00
 6.3342608164e-01	 1.5335946950e+00	-1.4828913547e+00
 7.2650441778e-01	 1.4999897029e+00	-1.7261689655e+00
 7.0857181299e-01	 1.5085435902e+00	-1.6897369257e+00
 6.9057613491e-01	 1.5168659729e+00	-1.6454475083e+00
 6.7252171115e-01	 1.5249564996e+00	-1.5942307483e+00
 6.5441285785e-01	 1.5328149234e+00	-1.5369549029e+00
 6.3625387665e-01	 1.5404410999e+00	-1.4744848811e+00
 6.2211490161e-01	 1.5062090754e+00	-1.5600480635e+00
 6.0431462837e-01	 1.5134386541e+00	-1.4932644545e+00
 5.8647369932e-01	 1.5204411629e+00	-1.4422318491e+00
 5.6859626097e-01	 1.5272167566e+00	-1.4009280123e+00
 5.5068643450e-01	 1.5337656863e+00	-1.3633948783e+00
 5.3274831313e-01	 1.5400882977e+00	-1.3237782260e+00
 6.2494269662e-01	 1.5130554803e+00	-1.5340299710e+00
 6.0706151305e-01	 1.5203179207e+00	-1.4704842519e+00
 5.8913948887e-01	 1.5273522591e+00	-1.4242750720e+00
 5.7118078943e-01	 1.5341586510e+00	-1.3879965385e+00
 5.5318955466e-01	 1.5407373486e+00	-1.3543220200e+00
 5.3516989637e-01	 1.5470886990e+00	-1.3160464265e+00
 6.2777049163e-01	 1.5199018852e+00	-1.5125718392e+00
 6.0980839772e-01	 1.5271971873e+00	-1.4519339644e+00
 5.9180527841e-01	 1.5342633553e+00	-1.4091026225e+00
 5.7376531789e-01	 1.5411005453e+00	-1.3758972745e+00
 5.5569267481e-01	 1.5477090108e+00	-1.3442357991e+00
 5.3759147961e-01	 1.5540891004e+00	-1.3061780136e+00
 6.3059828663e-01	 1.5267482901e+00	-1.4955588086e+00
 6.1255528240e-01	 1.5340764539e+00	-1.4373124151e+00
 5.9447106795e-01	 1.5411744515e+00	-1.3963113402e+00
 5.7634984635e-01	 1.5480424397e+00	-1.3642011406e+00
 5.5819579497e-01	 1.5546806730e+00	-1.3327490191e+00
 5.4001306286e-01	 1.5610895017e+00	-1.2938872328e+00
 6.3342608164e-01	 1.5335946950e+00	-1.4828913547e+00
 6.1530216707e-01	 1.5409557205e+00	-1.4263367547e+00
 5.9713685749e-01	 1.5480855477e+00	-1.3855178123e+00
 5.7893437481e-01	 1.5549843340e+00	-1.3524987977e+00
 5.6069891513e-01	 1.5616523352e+00	-1.3194929374e+00
 5.4243464610e-01	 1.5680899031e+00	-1.2789043649e+00
 6.3625387665e-01	 1.5404410999e+00	-1.4744848811e+00
 6.1804905174e-01	 1.5478349871e+00	-1.4187420207e+00
 5.9980264704e-01	 1.5549966439e+00	-1.3763579309e+00
 5.8151890327e-01	 1.5619262284e+00	-1.3404002326e+00
 5.6320203529e-01	 1.5686239974e+00	-1.3041169045e+00
 5.4485622934e-01	 1.5750903044e+00	-1.2609754426e+00
 5.3274831313e-01	 1.5400882977e+00	-1.3237782260e+00
 5.1478595957e-01	 1.5461850295e+00	-1.2769658627e+00
 4.9680340351e-01	 1.5520564126e+00	-1.2239112324e+00
 4.7880463923e-01	 1.5577030677e+00	-1.1681254709e+00
 4.6079362326e-01	 1.5631257040e+00	-1.1133429820e+00
 4.4277427209e-01	 1.5683251174e+00	-1.0635171682e+00
 5.3516989637e-01	 1.5470886990e+00	-1.3160464265e+00
 5.1712589575e-01	 1.5532131433e+00	-1.2677292432e+00
 4.9906160080e-01	 1.5591112145e+00	-1.2115005789e+00
 4.8098102396e-01	 1.5647835362e+00	-1.1517944674e+00
 4.6288813973e-01	 1.5702308208e+00	-1.0932679478e+00
 4.4478688242e-01	 1.5754538679e+00	-1.0407936898e+00
 5.3759147961e-01	 1.5540891004e+00	-1.3061780136e+00
 5.1946583193e-01	 1.5602412571e+00	-1.2563974242e+00
 5.0131979809e-01	 1.5661660164e+00	-1.1979495666e+00
 4.8315740868e-01	 1.5718640047e+00	-1.1357648092e+00
 4.6498265620e-01	 1.5773359377e+00	-1.0749927906e+00
 4.4679949275e-01	 1.5825826184e+00	-1.0209928802e+00
 5.4001306286e-01	 1.5610895017e+00	-1.2938872328e+00
 5.2180576811e-01	 1.5672693709e+00	-1.2427716815e+00
 5.0357799538e-01	 1.5732208183e+00	-1.1830677075e+00
 4.8533379341e-01	 1.5789444732e+00	-1.1197816470e+00
 4.6707717267e-01	 1.5844410545e+00	-1.0581319398e+00
 4.4881210307e-01	 1.5897113690e+00	-1.0035383598e+00
 5.4243464610e-01	 1.5680899031e+00	-1.2789043649e+00
 5.2414570429e-01	 1.5742974846e+00	-1.2266670976e+00
 5.0583619267e-01	 1.5802756201e+00	-1.1666774337e+00
 4.8751017813e-01	 1.5860249417e+00	-1.1036033998e+00
 4.6917168914e-01	 1.5915461714e+00	-1.0423145688e+00
 4.5082471340e-01	 1.5968401195e+00	-9.8787098823e-01
 5.4485622934e-01	 1.5750903044e+00	-1.2609754426e+00
 5.2648564047e-01	 1.5813255984e+00	-1.2079123488e+00
 5.0809438995e-01	 1.5873304220e+00	-1.1486139241e+00
 4.8968656285e-01	 1.5931054102e+00	-1.0870015908e+00
 4.7126620560e-01	 1.5986512882e+00	-1.0271844129e+00
 4.5283732373e-01	 1.6039688700e+00	-9.7344863923e-01
 4.4277427209e-01	 1.5683251174e+00	-1.0635171682e+00
 4.2475046004e-01	 1.5733021885e+00	-1.0274642756e+00
 4.0672601715e-01	 1.5780578813e+00	-9.9989794129e-01
 3.8870472713e-01	 1.5825932405e+00	-9.6409777792e-01
 3.7069032551e-01	 1.5869093901e+00	-9.0378691439e-01
 3.5268649773e-01	 1.5910075311e+00	-8.4466812370e-01
 4.4478688242e-01	 1.5754538679e+00	-1.0407936898e+00
 4.2668114395e-01	 1.5804535621e+00	-1.0037250999e+00
 4.0857477177e-01	 1.5852308717e+00	-9.7680266509e-01
 3.9047156680e-01	 1.5897868461e+00	-9.4343863271e-01
 3.7237528153e-01	 1.5941226146e+00	-8.8746539274e-01
 3.5428961817e-01	 1.5982393835e+00	-8.2691662715e-01
 4.4679949275e-01	 1.5825826184e+00	-1.0209928802e+00
 4.2861182786e-01	 1.5876049357e+00	-9.8327991663e-01
 4.1042352639e-01	 1.5924038620e+00	-9.5669725160e-01
 3.9223840647e-01	 1.5969804518e+00	-9.2503787707e-01
 3.7406023756e-01	 1.6013358391e+00	-8.7249686610e-01
 3.5589273862e-01	 1.6054712360e+00	-8.1055640537e-01
 4.4881210307e-01	 1.5897113690e+00	-1.0035383598e+00
 4.3054251177e-01	 1.5947563093e+00	-9.6537211831e-01
 4.1227228102e-01	 1.5995768524e+00	-9.3871981022e-01
 3.9400524614e-01	 1.6041740574e+00	-9.0800009391e-01
 3.7574519358e-01	 1.6085490636e+00	-8.5802093618e-01
 3.5749585906e-01	 1.6127030884e+00	-7.9481904449e-01
 4.5082471340e-01	 1.5968401195e+00	-9.8787098823e-01
 4.3247319568e-01	 1.6019076829e+00	-9.4926459571e-01
 4.1412103564e-01	 1.6067498428e+00	-9.2202882749e-01
 3.9577208581e-01	 1.6113676631e+00	-8.9144980624e-01
 3.7743014961e-01	 1.6157622881e+00	-8.4319545665e-01
 3.5909897950e-01	 1.6199349408e+00	-7.7894429756e-01
 4.5283732373e-01	 1.6039688700e+00	-9.7344863923e-01
 4.3440387959e-01	 1.6090590565e+00	-9.3423947255e-01
 4.1596979026e-01	 1.6139228332e+00	-9.0580289054e-01
 3.9753892547e-01	 1.6185612687e+00	-8.7453121642e-01
 3.7911510563e-01	 1.6229755126e+00	-8.2719631382e-01
 3.6070209995e-01	 1.6271667932e+00	-7.6218047996e-01
 3.5268649773e-01	 1.5910075311e+00	-8.4466812370e-01
 3.3469687742e-01	 1.5948889397e+00	-8.1213089318e-01
 3.1672504474e-01	 1.5985549649e+00	-7.8825309310e-01
 2.9877452478e-01	 1.6020070265e+00	-7.6620962652e-01
 2.8084878608e-01	 1.6052466132e+00	-7.4031898852e-01
 2.6295123924e-01	 1.6082752798e+00	-7.0587524702e-01
 3.5428961817e-01	 1.5982393835e+00	-8.2691662715e-01
 3.3621822686e-01	 1.6021384349e+00	-7.9313164691e-01
 3.1816470403e-01	 1.6058211238e+00	-7.6847725237e-01
 3.0013259080e-01	 1.6092888767e+00	-7.4597411356e-01
 2.8212537147e-01	 1.6125431887e+00	-7.1978572510e-01
 2.6414647214e-01	 1.6155856220e+00	-6.8505238641e-01
 3.5589273862e-01	 1.6054712360e+00	-8.1055640537e-01
 3.3773957631e-01	 1.6093879301e+00	-7.7508868189e-01
 3.1960436333e-01	 1.6130872828e+00	-7.4951795126e-01
 3.0149065682e-01	 1.6165707268e+00	-7.2664060835e-01
 2.8340195686e-01	 1.6198397642e+00	-7.0038746386e-01
 2.6534170505e-01	 1.6228959641e+00	-6.6566019178e-01
 3.5749585906e-01	 1.6127030884e+00	-7.9481904449e-01
 3.3926092575e-01	 1.6166374253e+00	-7.5738455461e-01
 3.2104402262e-01	 1.6203534417e+00	-7.3086030571e-01
 3.0284872284e-01	 1.6238525769e+00	-7.0774910645e-01
 2.8467854225e-01	 1.6271363397e+00	-6.8167209261e-01
 2.6653693795e-01	 1.6302063063e+00	-6.4720811283e-01
 3.5909897950e-01	 1.6199349408e+00	-7.7894429756e-01
 3.4078227519e-01	 1.6238869204e+00	-7.3940506714e-01
 3.2248368192e-01	 1.6276196006e+00	-7.1198905807e-01
 3.0420678886e-01	 1.6311344270e+00	-6.8883688720e-01
 2.8595512764e-01	 1.6344329152e+00	-6.6318368895e-01
 2.6773217086e-01	 1.6375166485e+00	-6.2920191382e-01
 3.6070209995e-01	 1.6271667932e+00	-7.6218047996e-01
 3.4230362463e-01	 1.6311364156e+00	-7.2053966640e-01
 3.2392334121e-01	 1.6348857596e+00	-6.9238896124e-01
 3.0556485489e-01	 1.6384162772e+00	-6.6943886424e-01
 2.8723171304e-01	 1.6417294908e+00	-6.4446281911e-01
 2.6892740376e-01	 1.6448269907e+00	-6.1114390292e-01
 2.6295123924e-01	 1.6082752798e+00	-7.0587524702e-01
 2.4508523558e-01	 1.6110946456e+00	-6.6680205830e-01
 2.2725406594e-01	 1.6137063919e+00	-6.3059637526e-01
 2.0946095952e-01	 1.6161122598e+00	-5.9895003270e-01
 1.9170908285e-01	 1.6183140478e+00	-5.7400022488e-01
 1.7400153881e-01	 1.6203136098e+00	-5.5823407593e-01
 2.6414647214e-01	 1.6155856220e+00	-6.8505238641e-01
 2.4619925938e-01	 1.6184178031e+00	-6.4571103326e-01
 2.2828703896e-01	 1.6210414210e+00	-6.0938041476e-01
 2.1041305479e-01	 1.6234582246e+00	-5.7775194926e-01
 1.9258048778e-01	 1.6256700207e+00	-5.5295002683e-01
 1.7479245489e-01	 1.6276786717e+00	-5.3744104461e-01
 2.6534170505e-01	 1.6228959641e+00	-6.6566019178e-01
 2.4731328317e-01	 1.6257409606e+00	-6.2624845669e-01
 2.2932001199e-01	 1.6283764500e+00	-5.8981975896e-01
 2.1136515006e-01	 1.6308041894e+00	-5.5810722736e-01
 1.9345189270e-01	 1.6330259937e+00	-5.3326570366e-01
 1.7558337098e-01	 1.6350437336e+00	-5.1778530213e-01
 2.6653693795e-01	 1.6302063063e+00	-6.4720811283e-01
 2.4842730697e-01	 1.6330641180e+00	-6.0788123162e-01
 2.3035298502e-01	 1.6357114791e+00	-5.7137541315e-01
 2.1231724533e-01	 1.6381501542e+00	-5.3950600129e-01
 1.9432329762e-01	 1.6403819666e+00	-5.1449985207e-01
 1.7637428706e-01	 1.6424087954e+00	-4.9891348430e-01
 2.6773217086e-01	 1.6375166485e+00	-6.2920191382e-01
 2.4954133077e-01	 1.6403872755e+00	-5.9007314433e-01
 2.3138595805e-01	 1.6430465081e+00	-5.5350552744e-01
 2.1326934061e-01	 1.6454961190e+00	-5.2143550831e-01
 1.9519470254e-01	 1.6477379396e+00	-4.9620182927e-01
 1.7716520315e-01	 1.6497738573e+00	-4.8046834678e-01
 2.6892740376e-01	 1.6448269907e+00	-6.1114390292e-01
 2.5065535457e-01	 1.6477104330e+00	-5.7228502348e-01
 2.3241893107e-01	 1.6503815372e+00	-5.3566550121e-01
 2.1422143588e-01	 1.6528420839e+00	-5.0338015351e-01
 1.9606610746e-01	 1.6550939125e+00	-4.7791779298e-01
 1.7795611923e-01	 1.6571389192e+00	-4.6208879435e-01
 1.7400153881e-01	 1.6203136098e+00	-5.5823407593e-01
 1.5634136572e-01	 1.6221128528e+00	-5.4781949780e-01
 1.3873153661e-01	 1.6237137342e+00	-5.3688859758e-01
 1.2117495846e-01	 1.6251182601e+00	-5.2518475167e-01
 1.0367447156e-01	 1.6263284827e+00	-5.1253850727e-01
 8.6232848997e-02	 1.6273464983e+00	-4.9881391232e-01
 1.7479245489e-01	 1.6276786717e+00	-5.3744104461e-01
 1.5705200829e-01	 1.6294860930e+00	-5.2722965568e-01
 1.3936213451e-01	 1.6310942511e+00	-5.1632507564e-01
 1.2172575373e-01	 1.6325051613e+00	-5.0452340427e-01
 1.0414571916e-01	 1.6337208849e+00	-4.9173278305e-01
 8.6624816493e-02	 1.6347435278e+00	-4.7792397101e-01
 1.7558337098e-01	 1.6350437336e+00	-5.1778530213e-01
 1.5776265086e-01	 1.6368593333e+00	-5.0760063149e-01
 1.3999273240e-01	 1.6384747681e+00	-4.9664294336e-01
 1.2227654899e-01	 1.6398920624e+00	-4.8473210467e-01
 1.0461696676e-01	 1.6411132871e+00	-4.7182262993e-01
 8.7016783988e-02	 1.6421405574e+00	-4.5795883484e-01
 1.7637428706e-01	 1.6424087954e+00	-4.9891348430e-01
 1.5847329344e-01	 1.6442325735e+00	-4.8867761754e-01
 1.4062333030e-01	 1.6458552851e+00	-4.7766414371e-01
 1.2282734426e-01	 1.6472789636e+00	-4.6568704188e-01
 1.0508821436e-01	 1.6485056893e+00	-4.5271527968e-01
 8.7408751484e-02	 1.6495375869e+00	-4.3883288226e-01
 1.7716520315e-01	 1.6497738573e+00	-4.8046834678e-01
 1.5918393601e-01	 1.6516058137e+00	-4.7020143974e-01
 1.4125392819e-01	 1.6532358021e+00	-4.5920635956e-01
 1.2337813952e-01	 1.6546658648e+00	-4.4726082332e-01
 1.0555946196e-01	 1.6558980915e+00	-4.3431561181e-01
 8.7800718979e-02	 1.6569346164e+00	-4.2045989760e-01
 1.7795611923e-01	 1.6571389192e+00	-4.6208879435e-01
 1.5989457858e-01	 1.6589790540e+00	-4.5190857978e-01
 1.4188452608e-01	 1.6606163190e+00	-4.4108302230e-01
 1.2392893479e-01	 1.6620527660e+00	-4.2932246320e-01
 1.0603070955e-01	 1.6632904937e+00	-4.1652611511e-01
 8.8192686475e-02	 1.6643316460e+00	-4.0275299913e-01
 8.6232848997e-02	 1.6273464983e+00	-4.9881391232e-01
 6.8852796142e-02	 1.6281744447e+00	-4.8479820617e-01
 5.1536950285e-02	 1.6288144991e+00	-4.7339508784e-01
 3.4287880301e-02	 1.6292688762e+00	-4.6748702017e-01
 1.7108086410e-02	 1.6295398256e+00	-4.6971072410e-01
-5.4667727253e-07	 1.6296482167e+00	 8.4245342980e-01
 8.6624816493e-02	 1.6347435278e+00	-4.7792397101e-01
 6.9165763397e-02	 1.6355752376e+00	-4.6391342423e-01
 5.1771209150e-02	 1.6362182014e+00	-4.5253341466e-01
 3.4443734302e-02	 1.6366746438e+00	-4.4667408724e-01
 1.7185850439e-02	 1.6369468248e+00	-4.4901969154e-01
-5.3403674032e-07	 1.6370554079e+00	 8.4743703308e-01
 8.7016783988e-02	 1.6421405574e+00	-4.5795883484e-01
 6.9478730652e-02	 1.6429760305e+00	-4.4393226207e-01
 5.2005468014e-02	 1.6436219037e+00	-4.3249950790e-01
 3.4599588304e-02	 1.6440804115e+00	-4.2659992535e-01
 1.7263614468e-02	 1.6443538240e+00	-4.2900836178e-01
-5.2130994923e-07	 1.6444625860e+00	 8.5040035723e-01
 8.7408751484e-02	 1.6495375869e+00	-4.3883288226e-01
 6.9791697908e-02	 1.6503768234e+00	-4.2477063704e-01
 5.2239726879e-02	 1.6510256059e+00	-4.1322273852e-01
 3.4755442305e-02	 1.6514861791e+00	-4.0721744463e-01
 1.7341378497e-02	 1.6517608232e+00	-4.0966145209e-01
-5.0850843991e-07	 1.6518697513e+00	 8.5136593907e-01
 8.7800718979e-02	 1.6569346164e+00	-4.2045989760e-01
 7.0104665163e-02	 1.6577776164e+00	-4.0634579794e-01
 5.2473985744e-02	 1.6584293082e+00	-3.9463555399e-01
 3.4911296306e-02	 1.6588919467e+00	-3.8848419389e-01
 1.7419142526e-02	 1.6591678224e+00	-3.9096969524e-01
-4.9564375295e-07	 1.6592769042e+00	 8.5035017038e-01
 8.8192686475e-02	 1.6643316460e+00	-4.0275299913e-01
 7.0417632418e-02	 1.6651784093e+00	-3.8857622040e-01
 5.2708244609e-02	 1.6658330105e+00	-3.7667334896e-01
 3.5067150308e-02	 1.6662977143e+00	-3.7036221416e-01
 1.7496906555e-02	 1.6665748216e+00	-3.7292968303e-01
-4.8272742888e-07	 1.6666840449e+00	 8.4736345727e-01
 1.6666666667e+00	 0.0000000000e+00	 3.5053254910e+00
 1.6665748216e+00	 1.7496906555e-02	 3.5023981093e+00
 1.6662977143e+00	 3.5067150308e-02	 3.4962769435e+00
 1.6658330105e+00	 5.2708244609e-02	 3.4870487655e+00
 1.6651784093e+00	 7.0417632418e-02	 3.4744461397e+00
 1.6643316460e+00	 8.8192686475e-02	 3.4578703308e+00
 1.6740740741e+00	 0.0000000000e+00	 3.4911897834e+00
 1.6739818208e+00	 1.7574670585e-02	 3.4879108124e+00
 1.6737034819e+00	 3.5223004309e-02	 3.4817495607e+00
 1.6732367127e+00	 5.2942503474e-02	 3.4726504595e+00
 1.6725792022e+00	 7.0730599673e-02	 3.4602385113e+00
 1.6717286755e+00	 8.8584653970e-02	 3.4438378620e+00
 1.6814814815e+00	 0.0000000000e+00	 3.4768619534e+00
 1.6813888200e+00	 1.7652434614e-02	 3.4733584077e+00
 1.6811092496e+00	 3.5378858311e-02	 3.4671666683e+00
 1.6806404150e+00	 5.3176762339e-02	 3.4581457047e+00
 1.6799799952e+00	 7.1043566928e-02	 3.4458713844e+00
 1.6791257051e+00	 8.8976621466e-02	 3.4296504244e+00
 1.6888888889e+00	 0.0000000000e+00	 3.4623142384e+00
 1.6887958192e+00	 1.7730198643e-02	 3.4587297959e+00
 1.6885150172e+00	 3.5534712312e-02	 3.4525183178e+00
 1.6880441173e+00	 5.3411021204e-02	 3.4435105054e+00
 1.6873807881e+00	 7.1356534183e-02	 3.4312918721e+00
 1.6865227346e+00	 8.9368588961e-02	 3.4152117829e+00
 1.6962962963e+00	 0.0000000000e+00	 3.4475192446e+00
 1.6962028184e+00	 1.7807962672e-02	 3.4440142096e+00
 1.6959207848e+00	 3.5690566313e-02	 3.4377949014e+00
 1.6954478195e+00	 5.3645280069e-02	 3.4287212892e+00
 1.6947815810e+00	 7.1669501439e-02	 3.4164476928e+00
 1.6939197641e+00	 8.9760556456e-02	 3.4004266169e+00
 1.7037037037e+00	 0.0000000000e+00	 3.4324499392e+00
 1.7036098177e+00	 1.7885726701e-02	 3.4292012072e+00
 1.7033265524e+00	 3.5846420315e-02	 3.4229871471e+00
 1.7028515218e+00	 5.3879538934e-02	 3.4137548990e+00
 1.7021823740e+00	 7.1982468694e-02	 3.4012871575e+00
 1.7013167937e+00	 9.0152523952e-02	 3.3852004986e+00
 1.6643316460e+00	 8.8192686475e-02	 3.4578703308e+00
 1.6632904937e+00	 1.0603070955e-01	 3.4355491633e+00
 1.6620527660e+00	 1.2392893479e-01	 3.4074151504e+00
 1.6606163190e+00	 1.4188452608e-01	 3.3750066508e+00
 1.6589790540e+00	 1.5989457858e-01	 3.3396291379e+00
 1.6571389192e+00	 1.7795611923e-01	 3.3023732559e+00
 1.6717286755e+00	 8.8584653970e-02	 3.4438378620e+00
 1.6706828959e+00	 1.0650195715e-01	 3.4215452975e+00
 1.6694396672e+00	 1.2447973006e-01	 3.3932523683e+00
 1.6679968360e+00	 1.4251512398e-01	 3.3605862824e+00
 1.6663522942e+00	 1.6060522115e-01	 3.3249508939e+00
 1.6645039810e+00	 1.7874703532e-01	 3.2875383633e+00
 1.6791257051e+00	 8.8976621466e-02	 3.4296504244e+00
 1.6780752981e+00	 1.0697320475e-01	 3.4074899830e+00
 1.6768265683e+00	 1.2503052532e-01	 3.3792074475e+00
 1.6753773530e+00	 1.4314572187e-01	 3.3464674183e+00
 1.6737255345e+00	 1.6131586372e-01	 3.3107205639e+00
 1.6718690429e+00	 1.7953795140e-01	 3.2732087412e+00
 1.6865227346e+00	 8.9368588961e-02	 3.4152117829e+00
 1.6854677003e+00	 1.0744445235e-01	 3.3932364153e+00
 1.6842134695e+00	 1.2558132059e-01	 3.3650840808e+00
 1.6827578700e+00	 1.4377631976e-01	 3.3324073168e+00
 1.6810987747e+00	 1.6202650629e-01	 3.2966540603e+00
 1.6792341048e+00	 1.8032886749e-01	 3.2590660754e+00
 1.6939197641e+00	 8.9760556456e-02	 3.4004266169e+00
 1.6928601025e+00	 1.0791569995e-01	 3.3786390490e+00
 1.6916003707e+00	 1.2613211585e-01	 3.3506874897e+00
 1.6901383869e+00	 1.4440691766e-01	 3.3181649621e+00
 1.6884720149e+00	 1.6273714886e-01	 3.2824691468e+00
 1.6865991666e+00	 1.8111978358e-01	 3.2447939558e+00
 1.7013167937e+00	 9.0152523952e-02	 3.3852004986e+00
 1.7002525047e+00	 1.0838694754e-01	 3.3635535673e+00
 1.6989872719e+00	 1.2668291112e-01	 3.3358243886e+00
 1.6975189039e+00	 1.4503751555e-01	 3.3035010253e+00
 1.6958452552e+00	 1.6344779144e-01	 3.2678853988e+00
 1.6939642285e+00	 1.8191069966e-01	 3.2300778419e+00
 1.6571389192e+00	 1.7795611923e-01	 3.3023732559e+00
 1.6550939125e+00	 1.9606610746e-01	 3.2644391793e+00
 1.6528420839e+00	 2.1422143588e-01	 3.2242569885e+00
 1.6503815372e+00	 2.3241893107e-01	 3.1785086289e+00
 1.6477104330e+00	 2.5065535457e-01	 3.1237848130e+00
 1.6448269907e+00	 2.6892740376e-01	 3.0566600303e+00
 1.6645039810e+00	 1.7874703532e-01	 3.2875383633e+00
 1.6624498855e+00	 1.9693751239e-01	 3.2497242381e+00
 1.6601880487e+00	 2.1517353115e-01	 3.2099544163e+00
 1.6577165662e+00	 2.3345190410e-01	 3.1647574278e+00
 1.6550335905e+00	 2.5176937837e-01	 3.1105469426e+00
 1.6521373329e+00	 2.7012263667e-01	 3.0436907434e+00
 1.6718690429e+00	 1.7953795140e-01	 3.2732087412e+00
 1.6698058584e+00	 1.9780891731e-01	 3.2354595866e+00
 1.6675340135e+00	 2.1612562642e-01	 3.1959966281e+00
 1.6650515953e+00	 2.3448487713e-01	 3.1512697671e+00
 1.6623567480e+00	 2.5288340216e-01	 3.0975890714e+00
 1.6594476750e+00	 2.7131786958e-01	 3.0311872858e+00
 1.6792341048e+00	 1.8032886749e-01	 3.2590660754e+00
 1.6771618314e+00	 1.9868032223e-01	 3.2212926142e+00
 1.6748799783e+00	 2.1707772169e-01	 3.1819882768e+00
 1.6723866243e+00	 2.3551785015e-01	 3.1375993697e+00
 1.6696799054e+00	 2.5399742596e-01	 3.0844060187e+00
 1.6667580172e+00	 2.7251310248e-01	 3.0185777899e+00
 1.6865991666e+00	 1.8111978358e-01	 3.2447939558e+00
 1.6845178043e+00	 1.9955172715e-01	 3.2068727570e+00
 1.6822259431e+00	 2.1802981696e-01	 3.1675364769e+00
 1.6797216534e+00	 2.3655082318e-01	 3.1233031367e+00
 1.6770030629e+00	 2.5511144976e-01	 3.0704968323e+00
 1.6740683594e+00	 2.7370833539e-01	 3.0052960288e+00
 1.6939642285e+00	 1.8191069966e-01	 3.2300778419e+00
 1.6918737772e+00	 2.0042313208e-01	 3.1918514702e+00
 1.6895719079e+00	 2.1898191223e-01	 3.1522507806e+00
 1.6870566824e+00	 2.3758379621e-01	 3.1079411254e+00
 1.6843262204e+00	 2.5622547356e-01	 3.0553647645e+00
 1.6813787016e+00	 2.7490356829e-01	 2.9907813887e+00
 1.6448269907e+00	 2.6892740376e-01	 3.0566600303e+00
 1.6417294908e+00	 2.8723171304e-01	 2.9812196030e+00
 1.6384162772e+00	 3.0556485489e-01	 2.9058109712e+00
 1.6348857596e+00	 3.2392334121e-01	 2.8337179645e+00
 1.6311364156e+00	 3.4230362463e-01	 2.7687150981e+00
 1.6271667932e+00	 3.6070209995e-01	 2.7152466471e+00
 1.6521373329e+00	 2.7012263667e-01	 3.0436907434e+00
 1.6490260663e+00	 2.8850829843e-01	 2.9679030307e+00
 1.6456981273e+00	 3.0692292091e-01	 2.8915883538e+00
 1.6421519185e+00	 3.2536300050e-01	 2.8184054972e+00
 1.6383859108e+00	 3.4382497408e-01	 2.7524526970e+00
 1.6343986456e+00	 3.6230522039e-01	 2.6984414332e+00
 1.6594476750e+00	 2.7131786958e-01	 3.0311872858e+00
 1.6563226418e+00	 2.8978488382e-01	 2.9554142087e+00
 1.6529799774e+00	 3.0828098693e-01	 2.8785995177e+00
 1.6494180774e+00	 3.2680265980e-01	 2.8046376264e+00
 1.6456354060e+00	 3.4534632352e-01	 2.7378093814e+00
 1.6416304980e+00	 3.6390834084e-01	 2.6829506315e+00
 1.6667580172e+00	 2.7251310248e-01	 3.0185777899e+00
 1.6636192173e+00	 2.9106146921e-01	 2.9431238992e+00
 1.6602618275e+00	 3.0963905295e-01	 2.8661861007e+00
 1.6566842363e+00	 3.2824231909e-01	 2.7917579730e+00
 1.6528849012e+00	 3.4686767296e-01	 2.7241646616e+00
 1.6488623504e+00	 3.6551146128e-01	 2.6682262725e+00
 1.6740683594e+00	 2.7370833539e-01	 3.0052960288e+00
 1.6709157928e+00	 2.9233805460e-01	 2.9304100130e+00
 1.6675436776e+00	 3.1099711897e-01	 2.8536981910e+00
 1.6639503953e+00	 3.2968197839e-01	 2.7791196835e+00
 1.6601343963e+00	 3.4838902241e-01	 2.7109083988e+00
 1.6560942028e+00	 3.6711458173e-01	 2.6537312900e+00
 1.6813787016e+00	 2.7490356829e-01	 2.9907813887e+00
 1.6782123683e+00	 2.9361463999e-01	 2.9166575808e+00
 1.6748255278e+00	 3.1235518499e-01	 2.8404943096e+00
 1.6712165542e+00	 3.3112163768e-01	 2.7660854344e+00
 1.6673838915e+00	 3.4991037185e-01	 2.6974408444e+00
 1.6633260553e+00	 3.6871770217e-01	 2.6389396076e+00
 1.6271667932e+00	 3.6070209995e-01	 2.7152466471e+00
 1.6229755126e+00	 3.7911510563e-01	 2.6508883493e+00
 1.6185612687e+00	 3.9753892547e-01	 2.5587931319e+00
 1.6139228332e+00	 4.1596979026e-01	 2.4513251115e+00
 1.6090590565e+00	 4.3440387959e-01	 2.3405014073e+00
 1.6039688700e+00	 4.5283732373e-01	 2.2386065597e+00
 1.6343986456e+00	 3.6230522039e-01	 2.6984414332e+00
 1.6301887371e+00	 3.8080006166e-01	 2.6348054799e+00
 1.6257548743e+00	 3.9930576514e-01	 2.5449655652e+00
 1.6210958235e+00	 4.1781854489e-01	 2.4399819106e+00
 1.6162104300e+00	 4.3633456350e-01	 2.3307452032e+00
 1.6110976206e+00	 4.5484993406e-01	 2.2284132069e+00
 1.6416304980e+00	 3.6390834084e-01	 2.6829506315e+00
 1.6374019616e+00	 3.8248501768e-01	 2.6194845675e+00
 1.6329484800e+00	 4.0107260481e-01	 2.5312785960e+00
 1.6282688139e+00	 4.1966729951e-01	 2.4282903707e+00
 1.6233618036e+00	 4.3826524741e-01	 2.3204517736e+00
 1.6182263711e+00	 4.5686254438e-01	 2.2179591777e+00
 1.6488623504e+00	 3.6551146128e-01	 2.6682262725e+00
 1.6446151861e+00	 3.8416997371e-01	 2.6044689549e+00
 1.6401420856e+00	 4.0283944448e-01	 2.5173362819e+00
 1.6354418043e+00	 4.2151605413e-01	 2.4158799400e+00
 1.6305131772e+00	 4.4019593132e-01	 2.3092378711e+00
 1.6253551216e+00	 4.5887515471e-01	 2.2068077132e+00
 1.6560942028e+00	 3.6711458173e-01	 2.6537312900e+00
 1.6518284106e+00	 3.8585492973e-01	 2.5893143712e+00
 1.6473356912e+00	 4.0460628415e-01	 2.5027548324e+00
 1.6426147946e+00	 4.2336480876e-01	 2.4023925693e+00
 1.6376645508e+00	 4.4212661523e-01	 2.2967337252e+00
 1.6324838722e+00	 4.6088776504e-01	 2.1945371703e+00
 1.6633260553e+00	 3.6871770217e-01	 2.6389396076e+00
 1.6590416351e+00	 3.8753988576e-01	 2.5735887620e+00
 1.6545292969e+00	 4.0637312382e-01	 2.4871624360e+00
 1.6497877850e+00	 4.2521356338e-01	 2.3874825193e+00
 1.6448159244e+00	 4.4405729914e-01	 2.2825828152e+00
 1.6396126227e+00	 4.6290037537e-01	 2.1807407429e+00
 1.6039688700e+00	 4.5283732373e-01	 2.2386065597e+00
 1.5986512882e+00	 4.7126620560e-01	 2.1475722902e+00
 1.5931054102e+00	 4.8968656285e-01	 2.0586076253e+00
 1.5873304220e+00	 5.0809438995e-01	 1.9683524770e+00
 1.5813255984e+00	 5.2648564047e-01	 1.8737816628e+00
 1.5750903044e+00	 5.4485622934e-01	 1.7722099707e+00
 1.6110976206e+00	 4.5484993406e-01	 2.2284132069e+00
 1.6057564050e+00	 4.7336072207e-01	 2.1351009481e+00
 1.6001858787e+00	 4.9186294758e-01	 2.0434808720e+00
 1.5943852239e+00	 5.1035258724e-01	 1.9509812785e+00
 1.5883537122e+00	 5.2882557665e-01	 1.8553552341e+00
 1.5820907058e+00	 5.4727781258e-01	 1.7546850169e+00
 1.6182263711e+00	 4.5686254438e-01	 2.2179591777e+00
 1.6128615219e+00	 4.7545523854e-01	 2.1230594148e+00
 1.6072663472e+00	 4.9403933230e-01	 2.0295570945e+00
 1.6014400258e+00	 5.1261078453e-01	 1.9354162654e+00
 1.5953818259e+00	 5.3116551283e-01	 1.8389207914e+00
 1.5890911071e+00	 5.4969939582e-01	 1.7386788390e+00
 1.6253551216e+00	 4.5887515471e-01	 2.2068077132e+00
 1.6199666387e+00	 4.7754975501e-01	 2.1109644100e+00
 1.6143468156e+00	 4.9621571702e-01	 2.0163651852e+00
 1.6084948276e+00	 5.1486898182e-01	 1.9212603372e+00
 1.6024099397e+00	 5.3350544901e-01	 1.8242202050e+00
 1.5960915085e+00	 5.5212097906e-01	 1.7241403586e+00
 1.6324838722e+00	 4.6088776504e-01	 2.1945371703e+00
 1.6270717555e+00	 4.7964427148e-01	 2.0983492306e+00
 1.6214272841e+00	 4.9839210175e-01	 2.0034509891e+00
 1.6155496295e+00	 5.1712717911e-01	 1.9081325752e+00
 1.6094380535e+00	 5.3584538519e-01	 1.8110095521e+00
 1.6030919098e+00	 5.5454256231e-01	 1.7110294663e+00
 1.6396126227e+00	 4.6290037537e-01	 2.1807407429e+00
 1.6341768724e+00	 4.8173878795e-01	 2.0847634219e+00
 1.6285077526e+00	 5.0056848647e-01	 1.9903769460e+00
 1.6226044314e+00	 5.1938537640e-01	 1.8956678782e+00
 1.6164661673e+00	 5.3818532137e-01	 1.7990587686e+00
 1.6100923112e+00	 5.5696414555e-01	 1.6993167158e+00
 1.5750903044e+00	 5.4485622934e-01	 1.7722099707e+00
 1.5686239974e+00	 5.6320203529e-01	 1.6601934085e+00
 1.5619262284e+00	 5.8151890327e-01	 1.5402690246e+00
 1.5549966439e+00	 5.9980264704e-01	 1.4191415699e+00
 1.5478349871e+00	 6.1804905174e-01	 1.3036989063e+00
 1.5404410999e+00	 6.3625387665e-01	 1.2009620896e+00
 1.5820907058e+00	 5.4727781258e-01	 1.7546850169e+00
 1.5755956596e+00	 5.6570515544e-01	 1.6454246369e+00
 1.5688681227e+00	 5.8410343173e-01	 1.5288180593e+00
 1.5619077400e+00	 6.0246843658e-01	 1.4105633889e+00
 1.5547142537e+00	 6.2079593642e-01	 1.2965721249e+00
 1.5472875048e+00	 6.3908167166e-01	 1.1929217492e+00
 1.5890911071e+00	 5.4969939582e-01	 1.7386788390e+00
 1.5825673218e+00	 5.6820827560e-01	 1.6310979391e+00
 1.5758100171e+00	 5.8668796019e-01	 1.5165985005e+00
 1.5688188362e+00	 6.0513422612e-01	 1.4002505089e+00
 1.5615935204e+00	 6.2354282109e-01	 1.2873593027e+00
 1.5541339097e+00	 6.4190946666e-01	 1.1834196991e+00
 1.5960915085e+00	 5.5212097906e-01	 1.7241403586e+00
 1.5895389840e+00	 5.7071139576e-01	 1.6173566967e+00
 1.5827519114e+00	 5.8927248864e-01	 1.5038492278e+00
 1.5757299324e+00	 6.0780001566e-01	 1.3884329684e+00
 1.5684727870e+00	 6.2628970577e-01	 1.2761720198e+00
 1.5609803146e+00	 6.4473726167e-01	 1.1723342702e+00
 1.6030919098e+00	 5.5454256231e-01	 1.7110294663e+00
 1.5965106462e+00	 5.7321451591e-01	 1.6043521674e+00
 1.5896938058e+00	 5.9185701710e-01	 1.4908155560e+00
 1.5826410286e+00	 6.1046580521e-01	 1.3753475467e+00
 1.5753520536e+00	 6.2903659044e-01	 1.2631307421e+00
 1.5678267194e+00	 6.4756505668e-01	 1.1595567560e+00
 1.6100923112e+00	 5.5696414555e-01	 1.6993167158e+00
 1.6034823085e+00	 5.7571763607e-01	 1.5922432151e+00
 1.5966357001e+00	 5.9444154556e-01	 1.4777489638e+00
 1.5895521248e+00	 6.1313159475e-01	 1.3612374508e+00
 1.5822313202e+00	 6.3178347512e-01	 1.2483644234e+00
 1.5746731243e+00	 6.5039285168e-01	 1.1449908867e+00
 1.5404410999e+00	 6.3625387665e-01	 1.2009620896e+00
 1.5328149234e+00	 6.5441285785e-01	 1.1013971344e+00
 1.5249564996e+00	 6.7252171115e-01	 9.9234532487e-01
 1.5168659729e+00	 6.9057613491e-01	 8.7631260324e-01
 1.5085435902e+00	 7.0857181299e-01	 7.5588981879e-01
 1.4999897029e+00	 7.2650441778e-01	 6.3367551152e-01
 1.5472875048e+00	 6.3908167166e-01	 1.1929217492e+00
 1.5396274341e+00	 6.5732135944e-01	 1.0902681998e+00
 1.5317340841e+00	 6.7551069654e-01	 9.7759080321e-01
 1.5236075994e+00	 6.9364536217e-01	 8.5862262951e-01
 1.5152482284e+00	 7.1172102104e-01	 7.3714134036e-01
 1.5066563238e+00	 7.2973332630e-01	 6.1688702165e-01
 1.5541339097e+00	 6.4190946666e-01	 1.1834196991e+00
 1.5464399449e+00	 6.6022986104e-01	 1.0791890836e+00
 1.5385116685e+00	 6.7849968192e-01	 9.6456099857e-01
 1.5303492260e+00	 6.9671458944e-01	 8.4390881451e-01
 1.5219528666e+00	 7.1487022910e-01	 7.2162851247e-01
 1.5133229447e+00	 7.3296223482e-01	 6.0205305499e-01
 1.5609803146e+00	 6.4473726167e-01	 1.1723342702e+00
 1.5532524557e+00	 6.6313836263e-01	 1.0678282178e+00
 1.5452892530e+00	 6.8148866730e-01	 9.5288476900e-01
 1.5370908525e+00	 6.9978381671e-01	 8.3193884914e-01
 1.5286575048e+00	 7.1801943716e-01	 7.0944423013e-01
 1.5199895656e+00	 7.3619114335e-01	 5.8978591675e-01
 1.5678267194e+00	 6.4756505668e-01	 1.1595567560e+00
 1.5600649664e+00	 6.6604686422e-01	 1.0558705955e+00
 1.5520668374e+00	 6.8447765269e-01	 9.4220809127e-01
 1.5438324791e+00	 7.0285304397e-01	 8.2249492321e-01
 1.5353621429e+00	 7.2116864522e-01	 7.0068995707e-01
 1.5266561865e+00	 7.3942005187e-01	 5.8069711041e-01
 1.5746731243e+00	 6.5039285168e-01	 1.1449908867e+00
 1.5668774772e+00	 6.6895536581e-01	 1.0430171252e+00
 1.5588444219e+00	 6.8746663807e-01	 9.3219335930e-01
 1.5505741056e+00	 7.0592227124e-01	 8.1537303552e-01
 1.5420667811e+00	 7.2431785327e-01	 6.9547511783e-01
 1.5333228074e+00	 7.4264896039e-01	 5.7530198683e-01
 1.4999897029e+00	 7.2650441778e-01	 6.3367551152e-01
 1.4912047668e+00	 7.4436961324e-01	 5.2039934213e-01
 1.4821893438e+00	 7.6216305800e-01	 4.0540641109e-01
 1.4729441015e+00	 7.7988040850e-01	 2.8961830858e-01
 1.4634698147e+00	 7.9751732217e-01	 1.8481290552e-01
 1.4537673652e+00	 8.1506946068e-01	 7.6000004043e-02
 1.5066563238e+00	 7.2973332630e-01	 6.1688702165e-01
 1.4978323436e+00	 7.4767792263e-01	 5.0939531887e-01
 1.4887768520e+00	 7.6555044937e-01	 4.0328552837e-01
 1.4794905198e+00	 7.8334654365e-01	 2.8456359217e-01
 1.4699741250e+00	 8.0106184361e-01	 1.7075939742e-01
 1.4602285535e+00	 8.1869199162e-01	 6.0482343485e-02
 1.5133229447e+00	 7.3296223482e-01	 6.0205305499e-01
 1.5044599203e+00	 7.5098623202e-01	 4.9674935032e-01
 1.4953643602e+00	 7.6893784074e-01	 3.9583930086e-01
 1.4860369380e+00	 7.8681267880e-01	 2.8655821098e-01
 1.4764784353e+00	 8.0460636504e-01	 1.6407388204e-01
 1.4666897418e+00	 8.2231452256e-01	 4.8391404897e-02
 1.5199895656e+00	 7.3619114335e-01	 5.8978591675e-01
 1.5110874971e+00	 7.5429454141e-01	 4.8370185984e-01
 1.5019518684e+00	 7.7232523211e-01	 3.8460450863e-01
 1.4925833562e+00	 7.9027881394e-01	 2.8178351378e-01
 1.4829827456e+00	 8.0815088647e-01	 1.6528204969e-01
 1.4731509300e+00	 8.2593705349e-01	 4.0432491871e-02
 1.5266561865e+00	 7.3942005187e-01	 5.8069711041e-01
 1.5177150738e+00	 7.5760285081e-01	 4.7146839088e-01
 1.5085393766e+00	 7.7571262347e-01	 3.7108778268e-01
 1.4991297744e+00	 7.9374494909e-01	 2.7084223519e-01
 1.4894870559e+00	 8.1169540790e-01	 1.6216292711e-01
 1.4796121183e+00	 8.2955958443e-01	 3.7302542604e-02
 1.5333228074e+00	 7.4264896039e-01	 5.7530198683e-01
 1.5243426506e+00	 7.6091116020e-01	 4.6124006457e-01
 1.5151268847e+00	 7.7910001484e-01	 3.5676617911e-01
 1.5056761927e+00	 7.9721108424e-01	 2.5530130252e-01
 1.4959913662e+00	 8.1523992933e-01	 1.5028835355e-01
 1.4860733066e+00	 8.3318211537e-01	 3.5153394119e-02
 1.4537673652e+00	 8.1506946068e-01	 7.6000004043e-02
 1.4438377421e+00	 8.3253249315e-01	-3.8689140126e-02
 1.4336820426e+00	 8.4990209942e-01	-1.5077702090e-01
 1.4233014711e+00	 8.6717397341e-01	-2.6135840394e-01
 1.4126973401e+00	 8.8434382634e-01	-3.7274835519e-01
 1.4018710692e+00	 9.0140739013e-01	-4.8836761240e-01
 1.4602285535e+00	 8.1869199162e-01	 6.0482343485e-02
 1.4502547988e+00	 8.3623263756e-01	-5.1999426104e-02
 1.4400539628e+00	 8.5367944209e-01	-1.6194790741e-01
 1.4296272554e+00	 8.7102807995e-01	-2.7069668086e-01
 1.4189759949e+00	 8.8827424334e-01	-3.8081504769e-01
 1.4081016073e+00	 9.0541364520e-01	-4.9599075652e-01
 1.4666897418e+00	 8.2231452256e-01	 4.8391404897e-02
 1.4566718554e+00	 8.3993278198e-01	-6.4341844823e-02
 1.4464258829e+00	 8.5745678475e-01	-1.7324800931e-01
 1.4359530397e+00	 8.7488218650e-01	-2.8030998022e-01
 1.4252546497e+00	 8.9220466035e-01	-3.8875169075e-01
 1.4143321454e+00	 9.0941990026e-01	-5.0291716633e-01
 1.4731509300e+00	 8.2593705349e-01	 4.0432491871e-02
 1.4630889120e+00	 8.4363292639e-01	-7.5419881560e-02
 1.4527978031e+00	 8.6123412742e-01	-1.8468661284e-01
 1.4422788240e+00	 8.7873629305e-01	-2.9040479938e-01
 1.4315333046e+00	 8.9613507736e-01	-3.9684794156e-01
 1.4205626835e+00	 9.1342615533e-01	-5.0940029452e-01
 1.4796121183e+00	 8.2955958443e-01	 3.7302542604e-02
 1.4695059687e+00	 8.4733307080e-01	-8.4938837606e-02
 1.4591697233e+00	 8.6501147008e-01	-1.9626994819e-01
 1.4486046084e+00	 8.8259039960e-01	-3.0118147699e-01
 1.4378119594e+00	 9.0006549436e-01	-4.0538605624e-01
 1.4267932216e+00	 9.1743241040e-01	-5.1568690047e-01
 1.4860733066e+00	 8.3318211537e-01	 3.5153394119e-02
 1.4759230253e+00	 8.5103321522e-01	-9.2606397763e-02
 1.4655416435e+00	 8.6878881274e-01	-2.0800187850e-01
 1.4549303927e+00	 8.8644450615e-01	-3.1283496172e-01
 1.4440906143e+00	 9.0399591137e-01	-4.1464169456e-01
 1.4330237597e+00	 9.2143866547e-01	-5.2201784515e-01
 1.4018710692e+00	 9.0140739013e-01	-4.8836761240e-01
 1.3908241857e+00	 9.1836042069e-01	-5.9470191349e-01
 1.3795583231e+00	 9.3519870125e-01	-6.8344704600e-01
 1.3680752216e+00	 9.5191804569e-01	-7.6692109459e-01
 1.3563767268e+00	 9.6851430186e-01	-8.5771315406e-01
 1.3444647888e+00	 9.8498335487e-01	-9.6845326985e-01
 1.4081016073e+00	 9.0541364520e-01	-4.9599075652e-01
 1.3970056265e+00	 9.2244202256e-01	-6.0229131545e-01
 1.3856896935e+00	 9.3935513992e-01	-6.9088098823e-01
 1.3741555560e+00	 9.5614879256e-01	-7.7421299210e-01
 1.3624050678e+00	 9.7281880987e-01	-8.6504845425e-01
 1.3504401879e+00	 9.8936105867e-01	-9.7622133157e-01
 1.4143321454e+00	 9.0941990026e-01	-5.0291716633e-01
 1.4031870673e+00	 9.2652362443e-01	-6.0892474822e-01
 1.3918210638e+00	 9.4351157859e-01	-6.9748895557e-01
 1.3802358903e+00	 9.6037953943e-01	-7.8099979256e-01
 1.3684334088e+00	 9.7712331787e-01	-8.7219542589e-01
 1.3564155870e+00	 9.9373876247e-01	-9.8392245808e-01
 1.4205626835e+00	 9.1342615533e-01	-5.0940029452e-01
 1.4093685082e+00	 9.3060522630e-01	-6.1476520440e-01
 1.3979524341e+00	 9.4766801726e-01	-7.0335958422e-01
 1.3863162246e+00	 9.6461028630e-01	-7.8731458066e-01
 1.3744617498e+00	 9.8142782588e-01	-8.7915313431e-01
 1.3623909860e+00	 9.9811646627e-01	-9.9154597655e-01
 1.4267932216e+00	 9.1743241040e-01	-5.1568690047e-01
 1.4155499490e+00	 9.3468682817e-01	-6.1997050228e-01
 1.4040838044e+00	 9.5182445593e-01	-7.0857743732e-01
 1.3923965589e+00	 9.6884103316e-01	-7.9318700550e-01
 1.3804900908e+00	 9.8573233389e-01	-8.8591733809e-01
 1.3683663851e+00	 1.0024941701e+00	-9.9907748373e-01
 1.4330237597e+00	 9.2143866547e-01	-5.2201784515e-01
 1.4217313898e+00	 9.3876843004e-01	-6.2469404992e-01
 1.4102151748e+00	 9.5598089461e-01	-7.1322374372e-01
 1.3984768932e+00	 9.7307178003e-01	-7.9864400078e-01
 1.3865184318e+00	 9.9003684190e-01	-8.9248119829e-01
 1.3743417841e+00	 1.0068718739e+00	-1.0064995528e+00
 1.3444647888e+00	 9.8498335487e-01	-9.6845326985e-01
 1.3323414621e+00	 1.0013211304e+00	-1.0805959480e+00
 1.3200089036e+00	 1.0175235979e+00	-1.1717863170e+00
 1.3074693721e+00	 1.0335867738e+00	-1.2480932452e+00
 1.2947252266e+00	 1.0495067248e+00	-1.3143888391e+00
 1.2817789254e+00	 1.0652795709e+00	-1.3740651020e+00
 1.3504401879e+00	 9.8936105867e-01	-9.7622133157e-01
 1.3382629797e+00	 1.0057714465e+00	-1.0886351839e+00
 1.3258756098e+00	 1.0220459250e+00	-1.1792941408e+00
 1.3132803470e+00	 1.0381804928e+00	-1.2543750803e+00
 1.3004795610e+00	 1.0541711991e+00	-1.3188774613e+00
 1.2874757206e+00	 1.0700141468e+00	-1.3763328099e+00
 1.3564155870e+00	 9.9373876247e-01	-9.8392245808e-01
 1.3441844973e+00	 1.0102217627e+00	-1.0964515125e+00
 1.3317423161e+00	 1.0265682521e+00	-1.1863044174e+00
 1.3190913220e+00	 1.0427742118e+00	-1.2599419747e+00
 1.3062338953e+00	 1.0588356734e+00	-1.3226706881e+00
 1.2931725158e+00	 1.0747487227e+00	-1.3783445532e+00
 1.3623909860e+00	 9.9811646627e-01	-9.9154597655e-01
 1.3501060149e+00	 1.0146720788e+00	-1.1040469395e+00
 1.3376090223e+00	 1.0310905792e+00	-1.1928492813e+00
 1.3249022970e+00	 1.0473679307e+00	-1.2648717553e+00
 1.3119882296e+00	 1.0635001478e+00	-1.3259057234e+00
 1.2988693111e+00	 1.0794832985e+00	-1.3803087256e+00
 1.3683663851e+00	 1.0024941701e+00	-9.9907748373e-01
 1.3560275325e+00	 1.0191223949e+00	-1.1114188023e+00
 1.3434757285e+00	 1.0356129063e+00	-1.1989548389e+00
 1.3307132720e+00	 1.0519616497e+00	-1.2692344818e+00
 1.3177425640e+00	 1.0681646221e+00	-1.3287099269e+00
 1.3045661063e+00	 1.0842178744e+00	-1.3824215048e+00
 1.3743417841e+00	 1.0068718739e+00	-1.0064995528e+00
 1.3619490501e+00	 1.0235727111e+00	-1.1185604816e+00
 1.3493424348e+00	 1.0401352334e+00	-1.2046418928e+00
 1.3365242470e+00	 1.0565553687e+00	-1.2730931873e+00
 1.3234968983e+00	 1.0728290964e+00	-1.3312015755e+00
 1.3102629015e+00	 1.0889524503e+00	-1.3848676382e+00
 1.2817789254e+00	 1.0652795709e+00	-1.3740651020e+00
 1.2686330240e+00	 1.0809014887e+00	-1.4372878874e+00
 1.2552901739e+00	 1.0963687140e+00	-1.5156015248e+00
 1.2417531207e+00	 1.1116775454e+00	-1.6117659910e+00
 1.2280247023e+00	 1.1268243467e+00	-1.6972023836e+00
 1.2141078468e+00	 1.1418055501e+00	-1.7448386257e+00
 1.2874757206e+00	 1.0700141468e+00	-1.3763328099e+00
 1.2742713930e+00	 1.0857054953e+00	-1.4391813293e+00
 1.2608692413e+00	 1.1012414639e+00	-1.5212963948e+00
 1.2472720235e+00	 1.1166183345e+00	-1.6221336728e+00
 1.2334825898e+00	 1.1318324549e+00	-1.7019851583e+00
 1.2195038816e+00	 1.1468802414e+00	-1.7475341745e+00
 1.2931725158e+00	 1.0747487227e+00	-1.3783445532e+00
 1.2799097620e+00	 1.0905095019e+00	-1.4416949957e+00
 1.2664483088e+00	 1.1061142137e+00	-1.5287515971e+00
 1.2527909262e+00	 1.1215591236e+00	-1.6298987031e+00
 1.2389404774e+00	 1.1368405631e+00	-1.7052155054e+00
 1.2248999165e+00	 1.1519549328e+00	-1.7495482865e+00
 1.2988693111e+00	 1.0794832985e+00	-1.3803087256e+00
 1.2855481310e+00	 1.0953135085e+00	-1.4450881937e+00
 1.2720273762e+00	 1.1109869635e+00	-1.5382274731e+00
 1.2583098290e+00	 1.1264999127e+00	-1.6353342588e+00
 1.2443983650e+00	 1.1418486713e+00	-1.7070721907e+00
 1.2302959514e+00	 1.1570296241e+00	-1.7509202322e+00
 1.3045661063e+00	 1.0842178744e+00	-1.3824215048e+00
 1.2911865000e+00	 1.1001175151e+00	-1.4496059195e+00
 1.2776064437e+00	 1.1158597134e+00	-1.5474571738e+00
 1.2638287317e+00	 1.1314407018e+00	-1.6387196851e+00
 1.2498562525e+00	 1.1468567796e+00	-1.7077415623e+00
 1.2356919863e+00	 1.1621043154e+00	-1.7516990947e+00
 1.3102629015e+00	 1.0889524503e+00	-1.3848676382e+00
 1.2968248690e+00	 1.1049215218e+00	-1.4554796591e+00
 1.2831855111e+00	 1.1207324632e+00	-1.5539643149e+00
 1.2693476345e+00	 1.1363814909e+00	-1.6403402717e+00
 1.2553141401e+00	 1.1518648878e+00	-1.7074173086e+00
 1.2410880211e+00	 1.1671790068e+00	-1.7519434948e+00
 1.2141078468e+00	 1.1418055501e+00	-1.7448386257e+00
 1.2000055705e+00	 1.1566176587e+00	-1.7806322594e+00
 1.1857209761e+00	 1.1712572496e+00	-1.8262743907e+00
 1.1712572496e+00	 1.1857209761e+00	-1.8729945822e+00
 1.1566176587e+00	 1.2000055705e+00	-1.9119638687e+00
 1.1418055501e+00	 1.2141078468e+00	-1.9344283508e+00
 1.2195038816e+00	 1.1468802414e+00	-1.7475341745e+00
 1.2053389286e+00	 1.1617581816e+00	-1.7827480092e+00
 1.1909908471e+00	 1.1764628374e+00	-1.8275236823e+00
 1.1764628374e+00	 1.1909908471e+00	-1.8734420847e+00
 1.1617581816e+00	 1.2053389286e+00	-1.9120217349e+00
 1.1468802414e+00	 1.2195038816e+00	-1.9348555534e+00
 1.2248999165e+00	 1.1519549328e+00	-1.7495482865e+00
 1.2106722867e+00	 1.1668987046e+00	-1.7848042442e+00
 1.1962607181e+00	 1.1816684251e+00	-1.8291291315e+00
 1.1816684251e+00	 1.1962607181e+00	-1.8744934802e+00
 1.1668987046e+00	 1.2106722867e+00	-1.9128054945e+00
 1.1519549328e+00	 1.2248999165e+00	-1.9360510122e+00
 1.2302959514e+00	 1.1570296241e+00	-1.7509202322e+00
 1.2160056448e+00	 1.1720392275e+00	-1.7866935687e+00
 1.2015305891e+00	 1.1868740129e+00	-1.8308659291e+00
 1.1868740129e+00	 1.2015305891e+00	-1.8758351361e+00
 1.1720392275e+00	 1.2160056448e+00	-1.9139405791e+00
 1.1570296241e+00	 1.2302959514e+00	-1.9376063707e+00
 1.2356919863e+00	 1.1621043154e+00	-1.7516990947e+00
 1.2213390029e+00	 1.1771797504e+00	-1.7883207803e+00
 1.2068004601e+00	 1.1920796007e+00	-1.8325233462e+00
 1.1920796007e+00	 1.2068004601e+00	-1.8771688995e+00
 1.1771797504e+00	 1.2213390029e+00	-1.9150688173e+00
 1.1621043154e+00	 1.2356919863e+00	-1.9391301107e+00
 1.2410880211e+00	 1.1671790068e+00	-1.7519434948e+00
 1.2266723610e+00	 1.1823202734e+00	-1.7896025579e+00
 1.2120703311e+00	 1.1972851885e+00	-1.8339043978e+00
 1.1972851885e+00	 1.2120703311e+00	-1.8782117475e+00
 1.1823202734e+00	 1.2266723610e+00	-1.9158480828e+00
 1.1671790068e+00	 1.2410880211e+00	-1.9402472099e+00
 1.1418055501e+00	 1.2141078468e+00	-1.9344283508e+00
 1.1268243467e+00	 1.2280247023e+00	-1.9601168534e+00
 1.1116775454e+00	 1.2417531207e+00	-2.0079635088e+00
 1.0963687140e+00	 1.2552901739e+00	-2.0588062709e+00
 1.0809014887e+00	 1.2686330240e+00	-2.0934801939e+00
 1.0652795709e+00	 1.2817789254e+00	-2.1060371431e+00
 1.1468802414e+00	 1.2195038816e+00	-1.9348555534e+00
 1.1318324549e+00	 1.2334825898e+00	-1.9605148582e+00
 1.1166183345e+00	 1.2472720235e+00	-2.0066221236e+00
 1.1012414639e+00	 1.2608692413e+00	-2.0592700799e+00
 1.0857054953e+00	 1.2742713930e+00	-2.0948047447e+00
 1.0700141468e+00	 1.2874757206e+00	-2.1060339551e+00
 1.1519549328e+00	 1.2248999165e+00	-1.9360510122e+00
 1.1368405631e+00	 1.2389404774e+00	-1.9617307772e+00
 1.1215591236e+00	 1.2527909262e+00	-2.0062151488e+00
 1.1061142137e+00	 1.2664483088e+00	-2.0589051688e+00
 1.0905095019e+00	 1.2799097620e+00	-2.0958567217e+00
 1.0747487227e+00	 1.2931725158e+00	-2.1063430524e+00
 1.1570296241e+00	 1.2302959514e+00	-1.9376063707e+00
 1.1418486713e+00	 1.2443983650e+00	-1.9633294131e+00
 1.1264999127e+00	 1.2583098290e+00	-2.0062676669e+00
 1.1109869635e+00	 1.2720273762e+00	-2.0570850321e+00
 1.0953135085e+00	 1.2855481310e+00	-2.0959643353e+00
 1.0794832985e+00	 1.2988693111e+00	-2.1062330527e+00
 1.1621043154e+00	 1.2356919863e+00	-1.9391301107e+00
 1.1468567796e+00	 1.2498562525e+00	-1.9648927182e+00
 1.1314407018e+00	 1.2638287317e+00	-2.0063224315e+00
 1.1158597134e+00	 1.2776064437e+00	-2.0542399992e+00
 1.1001175151e+00	 1.2911865000e+00	-2.0944761219e+00
 1.0842178744e+00	 1.3045661063e+00	-2.1049927318e+00
 1.1671790068e+00	 1.2410880211e+00	-1.9402472099e+00
 1.1518648878e+00	 1.2553141401e+00	-1.9660194645e+00
 1.1363814909e+00	 1.2693476345e+00	-2.0059395441e+00
 1.1207324632e+00	 1.2831855111e+00	-2.0509907452e+00
 1.1049215218e+00	 1.2968248690e+00	-2.0907612508e+00
 1.0889524503e+00	 1.3102629015e+00	-2.1019312894e+00
 1.0652795709e+00	 1.2817789254e+00	-2.1060371431e+00
 1.0495067248e+00	 1.2947252266e+00	-2.1041710019e+00
 1.0335867738e+00	 1.3074693721e+00	-2.0999655389e+00
 1.0175235979e+00	 1.3200089036e+00	-2.0969001367e+00
 1.0013211304e+00	 1.3323414621e+00	-2.0999837506e+00
 9.8498335487e-01	 1.3444647888e+00	-2.1154788561e+00
 1.0700141468e+00	 1.2874757206e+00	-2.1060339551e+00
 1.0541711991e+00	 1.3004795610e+00	-2.1021193331e+00
 1.0381804928e+00	 1.3132803470e+00	-2.0964564473e+00
 1.0220459250e+00	 1.3258756098e+00	-2.0924546955e+00
 1.0057714465e+00	 1.3382629797e+00	-2.0950512971e+00
 9.8936105867e-01	 1.3504401879e+00	-2.1104277855e+00
 1.0747487227e+00	 1.2931725158e+00	-2.1063430524e+00
 1.0588356734e+00	 1.3062338953e+00	-2.1008764840e+00
 1.0427742118e+00	 1.3190913220e+00	-2.0940459039e+00
 1.0265682521e+00	 1.3317423161e+00	-2.0892045854e+00
 1.0102217627e+00	 1.3441844973e+00	-2.0912392783e+00
 9.9373876247e-01	 1.3564155870e+00	-2.1062789805e+00
 1.0794832985e+00	 1.2988693111e+00	-2.1062330527e+00
 1.0635001478e+00	 1.3119882296e+00	-2.0996707819e+00
 1.0473679307e+00	 1.3249022970e+00	-2.0919748779e+00
 1.0310905792e+00	 1.3376090223e+00	-2.0864567079e+00
 1.0146720788e+00	 1.3501060149e+00	-2.0879741054e+00
 9.9811646627e-01	 1.3623909860e+00	-2.1026321571e+00
 1.0842178744e+00	 1.3045661063e+00	-2.1049927318e+00
 1.0681646221e+00	 1.3177425640e+00	-2.0977501507e+00
 1.0519616497e+00	 1.3307132720e+00	-2.0895024079e+00
 1.0356129063e+00	 1.3434757285e+00	-2.0835335491e+00
 1.0191223949e+00	 1.3560275325e+00	-2.0846943452e+00
 1.0024941701e+00	 1.3683663851e+00	-2.0990948228e+00
 1.0889524503e+00	 1.3102629015e+00	-2.1019312894e+00
 1.0728290964e+00	 1.3234968983e+00	-2.0943823431e+00
 1.0565553687e+00	 1.3365242470e+00	-2.0859058212e+00
 1.0401352334e+00	 1.3493424348e+00	-2.0797734087e+00
 1.0235727111e+00	 1.3619490501e+00	-2.0808509767e+00
 1.0068718739e+00	 1.3743417841e+00	-2.0952825822e+00
 9.8498335487e-01	 1.3444647888e+00	-2.1154788561e+00
 9.6851430186e-01	 1.3563767268e+00	-2.1258392934e+00
 9.5191804569e-01	 1.3680752216e+00	-2.1149583814e+00
 9.3519870125e-01	 1.3795583231e+00	-2.0923321961e+00
 9.1836042069e-01	 1.3908241857e+00	-2.0676533885e+00
 9.0140739013e-01	 1.4018710692e+00	-2.0505680128e+00
 9.8936105867e-01	 1.3504401879e+00	-2.1104277855e+00
 9.7281880987e-01	 1.3624050678e+00	-2.1209357649e+00
 9.5614879256e-01	 1.3741555560e+00	-2.1103839459e+00
 9.3935513992e-01	 1.3856896935e+00	-2.0882025467e+00
 9.2244202256e-01	 1.3970056265e+00	-2.0640129988e+00
 9.0541364520e-01	 1.4081016073e+00	-2.0473785349e+00
 9.9373876247e-01	 1.3564155870e+00	-2.1062789805e+00
 9.7712331787e-01	 1.3684334088e+00	-2.1166805583e+00
 9.6037953943e-01	 1.3802358903e+00	-2.1062510937e+00
 9.4351157859e-01	 1.3918210638e+00	-2.0843406052e+00
 9.2652362443e-01	 1.4031870673e+00	-2.0604700765e+00
 9.0941990026e-01	 1.4143321454e+00	-2.0440758405e+00
 9.9811646627e-01	 1.3623909860e+00	-2.1026321571e+00
 9.8142782588e-01	 1.3744617498e+00	-2.1128210478e+00
 9.6461028630e-01	 1.3863162246e+00	-2.1023501509e+00
 9.4766801726e-01	 1.3979524341e+00	-2.0804757546e+00
 9.3060522630e-01	 1.4093685082e+00	-2.0565900775e+00
 9.1342615533e-01	 1.4205626835e+00	-2.0399594798e+00
 1.0024941701e+00	 1.3683663851e+00	-2.0990948228e+00
 9.8573233389e-01	 1.3804900908e+00	-2.1091085024e+00
 9.6884103316e-01	 1.3923965589e+00	-2.0984733052e+00
 9.5182445593e-01	 1.4040838044e+00	-2.0763390682e+00
 9.3468682817e-01	 1.4155499490e+00	-2.0519418356e+00
 9.1743241040e-01	 1.4267932216e+00	-2.0343359217e+00
 1.0068718739e+00	 1.3743417841e+00	-2.0952825822e+00
 9.9003684190e-01	 1.3865184318e+00	-2.1052984317e+00
 9.7307178003e-01	 1.3984768932e+00	-2.0944149508e+00
 9.5598089461e-01	 1.4102151748e+00	-2.0716636149e+00
 9.3876843004e-01	 1.4217313898e+00	-2.0460977883e+00
 9.2143866547e-01	 1.4330237597e+00	-2.0265186622e+00
 9.0140739013e-01	 1.4018710692e+00	-2.0505680128e+00
 8.8434382634e-01	 1.4126973401e+00	-2.0354613349e+00
 8.6717397341e-01	 1.4233014711e+00	-2.0129743486e+00
 8.4990209942e-01	 1.4336820426e+00	-1.9862044306e+00
 8.3253249315e-01	 1.4438377421e+00	-1.9571097421e+00
 8.1506946068e-01	 1.4537673652e+00	-1.9263654808e+00
 9.0541364520e-01	 1.4081016073e+00	-2.0473785349e+00
 8.8827424334e-01	 1.4189759949e+00	-2.0314574176e+00
 8.7102807995e-01	 1.4296272554e+00	-2.0063438637e+00
 8.5367944209e-01	 1.4400539628e+00	-1.9760358959e+00
 8.3623263756e-01	 1.4502547988e+00	-1.9433544228e+00
 8.1869199162e-01	 1.4602285535e+00	-1.9097937411e+00
 9.0941990026e-01	 1.4143321454e+00	-2.0440758405e+00
 8.9220466035e-01	 1.4252546497e+00	-2.0271738888e+00
 8.7488218650e-01	 1.4359530397e+00	-1.9996209603e+00
 8.5745678475e-01	 1.4464258829e+00	-1.9666134190e+00
 8.3993278198e-01	 1.4566718554e+00	-1.9321531574e+00
 8.2231452256e-01	 1.4666897418e+00	-1.8988913087e+00
 9.1342615533e-01	 1.4205626835e+00	-2.0399594798e+00
 8.9613507736e-01	 1.4315333046e+00	-2.0216874315e+00
 8.7873629305e-01	 1.4422788240e+00	-1.9918442767e+00
 8.6123412742e-01	 1.4527978031e+00	-1.9571184692e+00
 8.4363292639e-01	 1.4630889120e+00	-1.9230069497e+00
 8.2593705349e-01	 1.4731509300e+00	-1.8936510296e+00
 9.1743241040e-01	 1.4267932216e+00	-2.0343359217e+00
 9.0006549436e-01	 1.4378119594e+00	-2.0140845193e+00
 8.8259039960e-01	 1.4486046084e+00	-1.9820619788e+00
 8.6501147008e-01	 1.4591697233e+00	-1.9467387228e+00
 8.4733307080e-01	 1.4695059687e+00	-1.9154167114e+00
 8.2955958443e-01	 1.4796121183e+00	-1.8940564663e+00
 9.2143866547e-01	 1.4330237597e+00	-2.0265186622e+00
 9.0399591137e-01	 1.4440906143e+00	-2.0034614233e+00
 8.8644450615e-01	 1.4549303927e+00	-1.9693317338e+00
 8.6878881274e-01	 1.4655416435e+00	-1.9346680723e+00
 8.5103321522e-01	 1.4759230253e+00	-1.9088833760e+00
 8.3318211537e-01	 1.4860733066e+00	-1.8947027479e+00
 8.1506946068e-01	 1.4537673652e+00	-1.9263654808e+00
 7.9751732217e-01	 1.4634698147e+00	-1.8845959703e+00
 7.7988040850e-01	 1.4729441015e+00	-1.8361541783e+00
 7.6216305800e-01	 1.4821893438e+00	-1.8004199093e+00
 7.4436961324e-01	 1.4912047668e+00	-1.7649258999e+00
 7.2650441778e-01	 1.4999897029e+00	-1.7261689655e+00
 8.1869199162e-01	 1.4602285535e+00	-1.9097937411e+00
 8.0106184361e-01	 1.4699741250e+00	-1.8700964739e+00
 7.8334654365e-01	 1.4794905198e+00	-1.8323945466e+00
 7.6555044937e-01	 1.4887768520e+00	-1.7996835912e+00
 7.4767792263e-01	 1.4978323436e+00	-1.7526978415e+00
 7.2973332630e-01	 1.5066563238e+00	-1.7075118035e+00
 8.2231452256e-01	 1.4666897418e+00	-1.8988913087e+00
 8.0460636504e-01	 1.4764784353e+00	-1.8658283985e+00
 7.8681267880e-01	 1.4860369380e+00	-1.8381878129e+00
 7.6893784074e-01	 1.4953643602e+00	-1.7935246409e+00
 7.5098623202e-01	 1.5044599203e+00	-1.7392485275e+00
 7.3296223482e-01	 1.5133229447e+00	-1.6911225231e+00
 8.2593705349e-01	 1.4731509300e+00	-1.8936510296e+00
 8.0815088647e-01	 1.4829827456e+00	-1.8716069807e+00
 7.9027881394e-01	 1.4925833562e+00	-1.8363912790e+00
 7.7232523211e-01	 1.5019518684e+00	-1.7832133388e+00
 7.5429454141e-01	 1.5110874971e+00	-1.7255468947e+00
 7.3619114335e-01	 1.5199895656e+00	-1.6773988414e+00
 8.2955958443e-01	 1.4796121183e+00	-1.8940564663e+00
 8.1169540790e-01	 1.4894870559e+00	-1.8721086499e+00
 7.9374494909e-01	 1.4991297744e+00	-1.8271366146e+00
 7.7571262347e-01	 1.5085393766e+00	-1.7700031076e+00
 7.5760285081e-01	 1.5177150738e+00	-1.7125501659e+00
 7.3942005187e-01	 1.5266561865e+00	-1.6667439088e+00
 8.3318211537e-01	 1.4860733066e+00	-1.8947027479e+00
 8.1523992933e-01	 1.4959913662e+00	-1.8614392477e+00
 7.9721108424e-01	 1.5056761927e+00	-1.8117261164e+00
 7.7910001484e-01	 1.5151268847e+00	-1.7551308488e+00
 7.6091116020e-01	 1.5243426506e+00	-1.7012040807e+00
 7.4264896039e-01	 1.5333228074e+00	-1.6595023599e+00
 7.2650441778e-01	 1.4999897029e+00	-1.7261689655e+00
 7.0857181299e-01	 1.5085435902e+00	-1.6897369257e+00
 6.9057613491e-01	 1.5168659729e+00	-1.6454475083e+00
 6.7252171115e-01	 1.5249564996e+00	-1.5942307483e+00
 6.5441285785e-01	 1.5328149234e+00	-1.5369549029e+00
 6.3625387665e-01	 1.5404410999e+00	-1.4744848811e+00
 7.2973332630e-01	 1.5066563238e+00	-1.7075118035e+00
 7.1172102104e-01	 1.5152482284e+00	-1.6698641726e+00
 6.9364536217e-01	 1.5236075994e+00	-1.6277241038e+00
 6.7551069654e-01	 1.5317340841e+00	-1.5804460945e+00
 6.5732135944e-01	 1.5396274341e+00	-1.5272975383e+00
 6.3908167166e-01	 1.5472875048e+00	-1.4675222756e+00
 7.3296223482e-01	 1.5133229447e+00	-1.6911225231e+00
 7.1487022910e-01	 1.5219528666e+00	-1.6534810594e+00
 6.9671458944e-01	 1.5303492260e+00	-1.6131212584e+00
 6.7849968192e-01	 1.5385116685e+00	-1.5684181052e+00
 6.6022986104e-01	 1.5464399449e+00	-1.5176569692e+00
 6.4190946666e-01	 1.5541339097e+00	-1.4591006279e+00
 7.3619114335e-01	 1.5199895656e+00	-1.6773988414e+00
 7.1801943716e-01	 1.5286575048e+00	-1.6404441399e+00
 6.9978381671e-01	 1.5370908525e+00	-1.6011747228e+00
 6.8148866730e-01	 1.5452892530e+00	-1.5575735996e+00
 6.6313836263e-01	 1.5532524557e+00	-1.5075543115e+00
 6.4473726167e-01	 1.5609803146e+00	-1.4490297925e+00
 7.3942005187e-01	 1.5266561865e+00	-1.6667439088e+00
 7.2116864522e-01	 1.5353621429e+00	-1.6306250104e+00
 7.0285304397e-01	 1.5438324791e+00	-1.5914409963e+00
 6.8447765269e-01	 1.5520668374e+00	-1.5473620917e+00
 6.6604686422e-01	 1.5600649664e+00	-1.4965317068e+00
 6.4756505668e-01	 1.5678267194e+00	-1.4371355142e+00
 7.4264896039e-01	 1.5333228074e+00	-1.6595023599e+00
 7.2431785327e-01	 1.5420667811e+00	-1.6239097142e+00
 7.0592227124e-01	 1.5505741056e+00	-1.5834966485e+00
 6.8746663807e-01	 1.5588444219e+00	-1.5372551081e+00
 6.6895536581e-01	 1.5668774772e+00	-1.4841517142e+00
 6.5039285168e-01	 1.5746731243e+00	-1.4232589686e+00
 6.3625387665e-01	 1.5404410999e+00	-1.4744848811e+00
 6.1804905174e-01	 1.5478349871e+00	-1.4187420207e+00
 5.9980264704e-01	 1.5549966439e+00	-1.3763579309e+00
 5.8151890327e-01	 1.5619262284e+00	-1.3404002326e+00
 5.6320203529e-01	 1.5686239974e+00	-1.3041169045e+00
 5.4485622934e-01	 1.5750903044e+00	-1.2609754426e+00
 6.3908167166e-01	 1.5472875048e+00	-1.4675222756e+00
 6.2079593642e-01	 1.5547142537e+00	-1.4117199458e+00
 6.0246843658e-01	 1.5619077400e+00	-1.3670197943e+00
 5.8410343173e-01	 1.5688681227e+00	-1.3276063194e+00
 5.6570515544e-01	 1.5755956596e+00	-1.2878704460e+00
 5.4727781258e-01	 1.5820907058e+00	-1.2424457587e+00
 6.4190946666e-01	 1.5541339097e+00	-1.4591006279e+00
 6.2354282109e-01	 1.5615935204e+00	-1.4027001694e+00
 6.0513422612e-01	 1.5688188362e+00	-1.3560942125e+00
 5.8668796019e-01	 1.5758100171e+00	-1.3142352716e+00
 5.6820827560e-01	 1.5825673218e+00	-1.2722936964e+00
 5.4969939582e-01	 1.5890911071e+00	-1.2256920265e+00
 6.4473726167e-01	 1.5609803146e+00	-1.4490297925e+00
 6.2628970577e-01	 1.5684727870e+00	-1.3917957479e+00
 6.0780001566e-01	 1.5757299324e+00	-1.3438412031e+00
 5.8927248864e-01	 1.5827519114e+00	-1.3005429703e+00
 5.7071139576e-01	 1.5895389840e+00	-1.2574925940e+00
 5.5212097906e-01	 1.5960915085e+00	-1.2105298677e+00
 6.4756505668e-01	 1.5678267194e+00	-1.4371355142e+00
 6.2903659044e-01	 1.5753520536e+00	-1.3791301676e+00
 6.1046580521e-01	 1.5826410286e+00	-1.3305284068e+00
 5.9185701710e-01	 1.5896938058e+00	-1.2867926753e+00
 5.7321451591e-01	 1.5965106462e+00	-1.2435826799e+00
 5.5454256231e-01	 1.6030919098e+00	-1.1967891047e+00
 6.5039285168e-01	 1.5746731243e+00	-1.4232589686e+00
 6.3178347512e-01	 1.5822313202e+00	-1.3648370377e+00
 6.1313159475e-01	 1.5895521248e+00	-1.3164308738e+00
 5.9444154556e-01	 1.5966357001e+00	-1.2732548459e+00
 5.7571763607e-01	 1.6034823085e+00	-1.2306888989e+00
 5.5696414555e-01	 1.6100923112e+00	-1.1843134884e+00
 5.4485622934e-01	 1.5750903044e+00	-1.2609754426e+00
 5.2648564047e-01	 1.5813255984e+00	-1.2079123488e+00
 5.0809438995e-01	 1.5873304220e+00	-1.1486139241e+00
 4.8968656285e-01	 1.5931054102e+00	-1.0870015908e+00
 4.7126620560e-01	 1.5986512882e+00	-1.0271844129e+00
 4.5283732373e-01	 1.6039688700e+00	-9.7344863923e-01
 5.4727781258e-01	 1.5820907058e+00	-1.2424457587e+00
 5.2882557665e-01	 1.5883537122e+00	-1.1891006782e+00
 5.1035258724e-01	 1.5943852239e+00	-1.1310060241e+00
 4.9186294758e-01	 1.6001858787e+00	-1.0712362544e+00
 4.7336072207e-01	 1.6057564050e+00	-1.0130442766e+00
 4.5484993406e-01	 1.6110976206e+00	-9.5985169327e-01
 5.4969939582e-01	 1.5890911071e+00	-1.2256920265e+00
 5.3116551283e-01	 1.5953818259e+00	-1.1726018751e+00
 5.1261078453e-01	 1.6014400258e+00	-1.1156355384e+00
 4.9403933230e-01	 1.6072663472e+00	-1.0572222762e+00
 4.7545523854e-01	 1.6128615219e+00	-9.9997329685e-01
 4.5686254438e-01	 1.6182263711e+00	-9.4667197170e-01
 5.5212097906e-01	 1.5960915085e+00	-1.2105298677e+00
 5.3350544901e-01	 1.6024099397e+00	-1.1579338530e+00
 5.1486898182e-01	 1.6084948276e+00	-1.1018427700e+00
 4.9621571702e-01	 1.6143468156e+00	-1.0442396769e+00
 4.7754975501e-01	 1.6199666387e+00	-9.8730569521e-01
 4.5887515471e-01	 1.6253551216e+00	-9.3340946277e-01
 5.5454256231e-01	 1.6030919098e+00	-1.1967891047e+00
 5.3584538519e-01	 1.6094380535e+00	-1.1446333777e+00
 5.1712717911e-01	 1.6155496295e+00	-1.0889893529e+00
 4.9839210175e-01	 1.6214272841e+00	-1.0315901662e+00
 4.7964427148e-01	 1.6270717555e+00	-9.7439567241e-01
 4.6088776504e-01	 1.6324838722e+00	-9.1958041232e-01
 5.5696414555e-01	 1.6100923112e+00	-1.1843134884e+00
 5.3818532137e-01	 1.6164661673e+00	-1.1322557165e+00
 5.1938537640e-01	 1.6226044314e+00	-1.0764578690e+00
 5.0056848647e-01	 1.6285077526e+00	-1.0185967706e+00
 4.8173878795e-01	 1.6341768724e+00	-9.6061709052e-01
 4.6290037537e-01	 1.6396126227e+00	-9.0471710151e-01
 4.5283732373e-01	 1.6039688700e+00	-9.7344863923e-01
 4.3440387959e-01	 1.6090590565e+00	-9.3423947255e-01
 4.1596979026e-01	 1.6139228332e+00	-9.0580289054e-01
 3.9753892547e-01	 1.6185612687e+00	-8.7453121642e-01
 3.7911510563e-01	 1.6229755126e+00	-8.2719631382e-01
 3.6070209995e-01	 1.6271667932e+00	-7.6218047996e-01
 4.5484993406e-01	 1.6110976206e+00	-9.5985169327e-01
 4.3633456350e-01	 1.6162104300e+00	-9.1966963394e-01
 4.1781854489e-01	 1.6210958235e+00	-8.8966624555e-01
 3.9930576514e-01	 1.6257548743e+00	-8.5739693330e-01
 3.8080006166e-01	 1.6301887371e+00	-8.1079245543e-01
 3.6230522039e-01	 1.6343986456e+00	-7.4577687802e-01
 4.5686254438e-01	 1.6182263711e+00	-9.4667197170e-01
 4.3826524741e-01	 1.6233618036e+00	-9.0517301724e-01
 4.1966729951e-01	 1.6282688139e+00	-8.7361153769e-01
 4.0107260481e-01	 1.6329484800e+00	-8.4058463324e-01
 3.8248501768e-01	 1.6374019616e+00	-7.9505154787e-01
 3.6390834084e-01	 1.6416304980e+00	-7.3109029557e-01
 4.5887515471e-01	 1.6253551216e+00	-9.3340946277e-01
 4.4019593132e-01	 1.6305131772e+00	-8.9042292596e-01
 4.2151605413e-01	 1.6354418043e+00	-8.5739240757e-01
 4.0283944448e-01	 1.6401420856e+00	-8.2383765341e-01
 3.8416997371e-01	 1.6446151861e+00	-7.7961841298e-01
 3.6551146128e-01	 1.6488623504e+00	-7.1754242367e-01
 4.6088776504e-01	 1.6324838722e+00	-9.1958041232e-01
 4.4212661523e-01	 1.6376645508e+00	-8.7510501029e-01
 4.2336480876e-01	 1.6426147946e+00	-8.4077250411e-01
 4.0460628415e-01	 1.6473356912e+00	-8.0690853982e-01
 3.8585492973e-01	 1.6518284106e+00	-7.6414778596e-01
 3.6711458173e-01	 1.6560942028e+00	-7.0456257195e-01
 4.6290037537e-01	 1.6396126227e+00	-9.0471710151e-01
 4.4405729914e-01	 1.6448159244e+00	-8.5891714201e-01
 4.2521356338e-01	 1.6497877850e+00	-8.2352542046e-01
 4.0637312382e-01	 1.6545292969e+00	-7.8955900843e-01
 3.8753988576e-01	 1.6590416351e+00	-7.4830426684e-01
 3.6871770217e-01	 1.6633260553e+00	-6.9158812533e-01
 3.6070209995e-01	 1.6271667932e+00	-7.6218047996e-01
 3.4230362463e-01	 1.6311364156e+00	-7.2053966640e-01
 3.2392334121e-01	 1.6348857596e+00	-6.9238896124e-01
 3.0556485489e-01	 1.6384162772e+00	-6.6943886424e-01
 2.8723171304e-01	 1.6417294908e+00	-6.4446281911e-01
 2.6892740376e-01	 1.6448269907e+00	-6.1114390292e-01
 3.6230522039e-01	 1.6343986456e+00	-7.4577687802e-01
 3.4382497408e-01	 1.6383859108e+00	-7.0229237179e-01
 3.2536300050e-01	 1.6421519185e+00	-6.7353664628e-01
 3.0692292091e-01	 1.6456981273e+00	-6.5081398932e-01
 2.8850829843e-01	 1.6490260663e+00	-6.2645761799e-01
 2.7012263667e-01	 1.6521373329e+00	-5.9368040623e-01
 3.6390834084e-01	 1.6416304980e+00	-7.3109029557e-01
 3.4534632352e-01	 1.6456354060e+00	-6.8607898586e-01
 3.2680265980e-01	 1.6494180774e+00	-6.5670475993e-01
 3.0828098693e-01	 1.6529799774e+00	-6.3397949064e-01
 2.8978488382e-01	 1.6563226418e+00	-6.0991278845e-01
 2.7131786958e-01	 1.6594476750e+00	-5.7736658782e-01
 3.6551146128e-01	 1.6488623504e+00	-7.1754242367e-01
 3.4686767296e-01	 1.6528849012e+00	-6.7116512347e-01
 3.2824231909e-01	 1.6566842363e+00	-6.4107728324e-01
 3.0963905295e-01	 1.6602618275e+00	-6.1810993105e-01
 2.9106146921e-01	 1.6636192173e+00	-5.9406333083e-01
 2.7251310248e-01	 1.6667580172e+00	-5.6156525677e-01
 3.6711458173e-01	 1.6560942028e+00	-7.0456257195e-01
 3.4838902241e-01	 1.6601343963e+00	-6.5682403599e-01
 3.2968197839e-01	 1.6639503953e+00	-6.2584502956e-01
 3.1099711897e-01	 1.6675436776e+00	-6.0238510515e-01
 2.9233805460e-01	 1.6709157928e+00	-5.7814710530e-01
 2.7370833539e-01	 1.6740683594e+00	-5.4563896304e-01
 3.6871770217e-01	 1.6633260553e+00	-6.9158812533e-01
 3.4991037185e-01	 1.6673838915e+00	-6.4233695789e-01
 3.3112163768e-01	 1.6712165542e+00	-6.1020590914e-01
 3.1235518499e-01	 1.6748255278e+00	-5.8599024926e-01
 2.9361463999e-01	 1.6782123683e+00	-5.6140501376e-01
 2.7490356829e-01	 1.6813787016e+00	-5.2895017713e-01
 2.6892740376e-01	 1.6448269907e+00	-6.1114390292e-01
 2.5065535457e-01	 1.6477104330e+00	-5.7228502348e-01
 2.3241893107e-01	 1.6503815372e+00	-5.3566550121e-01
 2.1422143588e-01	 1.6528420839e+00	-5.0338015351e-01
 1.9606610746e-01	 1.6550939125e+00	-4.7791779298e-01
 1.7795611923e-01	 1.6571389192e+00	-4.6208879435e-01
 2.7012263667e-01	 1.6521373329e+00	-5.9368040623e-01
 2.5176937837e-01	 1.6550335905e+00	-5.5497682120e-01
 2.3345190410e-01	 1.6577165662e+00	-5.1825277355e-01
 2.1517353115e-01	 1.6601880487e+00	-4.8575473296e-01
 1.9693751239e-01	 1.6624498855e+00	-4.6011235424e-01
 1.7874703532e-01	 1.6645039810e+00	-4.4427107033e-01
 2.7131786958e-01	 1.6594476750e+00	-5.7736658782e-01
 2.5288340216e-01	 1.6623567480e+00	-5.3864100892e-01
 2.3448487713e-01	 1.6650515953e+00	-5.0177184519e-01
 2.1612562642e-01	 1.6675340135e+00	-4.6910746833e-01
 1.9780891731e-01	 1.6698058584e+00	-4.4336273050e-01
 1.7953795140e-01	 1.6718690429e+00	-4.2755705042e-01
 2.7251310248e-01	 1.6667580172e+00	-5.6156525677e-01
 2.5399742596e-01	 1.6696799054e+00	-5.2278254652e-01
 2.3551785015e-01	 1.6723866243e+00	-4.8583274089e-01
 2.1707772169e-01	 1.6748799783e+00	-4.5311617339e-01
 1.9868032223e-01	 1.6771618314e+00	-4.2737703634e-01
 1.8032886749e-01	 1.6792341048e+00	-4.1164743289e-01
 2.7370833539e-01	 1.6740683594e+00	-5.4563896304e-01
 2.5511144976e-01	 1.6770030629e+00	-5.0690317304e-01
 2.3655082318e-01	 1.6797216534e+00	-4.7004033423e-01
 2.1802981696e-01	 1.6822259431e+00	-4.3745258840e-01
 1.9955172715e-01	 1.6845178043e+00	-4.1185737350e-01
 1.8111978358e-01	 1.6865991666e+00	-3.9623792023e-01
 2.7490356829e-01	 1.6813787016e+00	-5.2895017713e-01
 2.5622547356e-01	 1.6843262204e+00	-4.9050159011e-01
 2.3758379621e-01	 1.6870566824e+00	-4.5399452124e-01
 2.1898191223e-01	 1.6895719079e+00	-4.2178253054e-01
 2.0042313208e-01	 1.6918737772e+00	-3.9649994491e-01
 1.8191069966e-01	 1.6939642285e+00	-3.8101928384e-01
 1.7795611923e-01	 1.6571389192e+00	-4.6208879435e-01
 1.5989457858e-01	 1.6589790540e+00	-4.5190857978e-01
 1.4188452608e-01	 1.6606163190e+00	-4.4108302230e-01
 1.2392893479e-01	 1.6620527660e+00	-4.2932246320e-01
 1.0603070955e-01	 1.6632904937e+00	-4.1652611511e-01
 8.8192686475e-02	 1.6643316460e+00	-4.0275299913e-01
 1.7874703532e-01	 1.6645039810e+00	-4.4427107033e-01
 1.6060522115e-01	 1.6663522942e+00	-4.3425524864e-01
 1.4251512398e-01	 1.6679968360e+00	-4.2364218102e-01
 1.2447973006e-01	 1.6694396672e+00	-4.1207780298e-01
 1.0650195715e-01	 1.6706828959e+00	-3.9941236925e-01
 8.8584653970e-02	 1.6717286755e+00	-3.8567722749e-01
 1.7953795140e-01	 1.6718690429e+00	-4.2755705042e-01
 1.6131586372e-01	 1.6737255345e+00	-4.1766994584e-01
 1.4314572187e-01	 1.6753773530e+00	-4.0716303730e-01
 1.2503052532e-01	 1.6768265683e+00	-3.9565413330e-01
 1.0697320475e-01	 1.6780752981e+00	-3.8298233697e-01
 8.8976621466e-02	 1.6791257051e+00	-3.6919076305e-01
 1.8032886749e-01	 1.6792341048e+00	-4.1164743289e-01
 1.6202650629e-01	 1.6810987747e+00	-4.0184160534e-01
 1.4377631976e-01	 1.6827578700e+00	-3.9135068173e-01
 1.2558132059e-01	 1.6842134695e+00	-3.7979870395e-01
 1.0744445235e-01	 1.6854677003e+00	-3.6704947840e-01
 8.9368588961e-02	 1.6865227346e+00	-3.5319535120e-01
 1.8111978358e-01	 1.6865991666e+00	-3.9623792023e-01
 1.6273714886e-01	 1.6884720149e+00	-3.8645552385e-01
 1.4440691766e-01	 1.6901383869e+00	-3.7590767041e-01
 1.2613211585e-01	 1.6916003707e+00	-3.6425707613e-01
 1.0791569995e-01	 1.6928601025e+00	-3.5142615256e-01
 8.9760556456e-02	 1.6939197641e+00	-3.3759196356e-01
 1.8191069966e-01	 1.6939642285e+00	-3.8101928384e-01
 1.6344779144e-01	 1.6958452552e+00	-3.7119337601e-01
 1.4503751555e-01	 1.6975189039e+00	-3.6053400303e-01
 1.2668291112e-01	 1.6989872719e+00	-3.4877307525e-01
 1.0838694754e-01	 1.7002525047e+00	-3.3592355630e-01
 9.0152523952e-02	 1.7013167937e+00	-3.2228073402e-01
 8.8192686475e-02	 1.6643316460e+00	-4.0275299913e-01
 7.0417632418e-02	 1.6651784093e+00	-3.8857622040e-01
 5.2708244609e-02	 1.6658330105e+00	-3.7667334896e-01
 3.5067150308e-02	 1.6662977143e+00	-3.7036221416e-01
 1.7496906555e-02	 1.6665748216e+00	-3.7292968303e-01
-4.8272742888e-07	 1.6666840449e+00	 8.4736345727e-01
 8.8584653970e-02	 1.6717286755e+00	-3.8567722749e-01
 7.0730599673e-02	 1.6725792022e+00	-3.7140189878e-01
 5.2942503474e-02	 1.6732367127e+00	-3.5930748429e-01
 3.5223004309e-02	 1.6737034819e+00	-3.5286596331e-01
 1.7574670585e-02	 1.6739818208e+00	-3.5556420554e-01
-4.6977100759e-07	 1.6740911737e+00	 8.4250630841e-01
 8.8976621466e-02	 1.6791257051e+00	-3.6919076305e-01
 7.1043566928e-02	 1.6799799952e+00	-3.5480387077e-01
 5.3176762339e-02	 1.6806404150e+00	-3.4256387806e-01
 3.5378858311e-02	 1.6811092496e+00	-3.3604447568e-01
 1.7652434614e-02	 1.6813888200e+00	-3.3887806689e-01
-4.5678602665e-07	 1.6814982912e+00	 8.3598249042e-01
 8.9368588961e-02	 1.6865227346e+00	-3.5319535120e-01
 7.1356534183e-02	 1.6873807881e+00	-3.3876293014e-01
 5.3411021204e-02	 1.6880441173e+00	-3.2646278960e-01
 3.5534712312e-02	 1.6885150172e+00	-3.1991737804e-01
 1.7730198643e-02	 1.6887958192e+00	-3.2284968597e-01
-4.4378402300e-07	 1.6889053977e+00	 8.2794662312e-01
 8.9760556456e-02	 1.6939197641e+00	-3.3759196356e-01
 7.1669501439e-02	 1.6947815810e+00	-3.2325967424e-01
 5.3645280069e-02	 1.6954478195e+00	-3.1102560234e-01
 3.5690566313e-02	 1.6959207848e+00	-3.0450745692e-01
 1.7807962672e-02	 1.6962028184e+00	-3.0746336380e-01
-4.3077653349e-07	 1.6963124935e+00	 8.1854512037e-01
 9.0152523952e-02	 1.7013167937e+00	-3.2228073402e-01
 7.1982468694e-02	 1.7021823740e+00	-3.0827443646e-01
 5.3879538934e-02	 1.7028515218e+00	-2.9627474063e-01
 3.5846420315e-02	 1.7033265524e+00	-2.8984054788e-01
 1.7885726701e-02	 1.7036098177e+00	-2.9270913331e-01
-4.1777509494e-07	 1.7037195792e+00	 8.0791639081e-01
 1.7037037037e+00	 0.0000000000e+00	 3.4324499392e+00
 1.7036098177e+00	 1.7885726701e-02	 3.4292012072e+00
 1.7033265524e+00	 3.5846420315e-02	 3.4229871471e+00
 1.7028515218e+00	 5.3879538934e-02	 3.4137548990e+00
 1.7021823740e+00	 7.1982468694e-02	 3.4012871575e+00
 1.7013167937e+00	 9.0152523952e-02	 3.3852004986e+00
 1.7111111111e+00	 0.0000000000e+00	 3.4172323552e+00
 1.7110168169e+00	 1.7963490730e-02	 3.4142995564e+00
 1.7107323200e+00	 3.6002274316e-02	 3.4081183130e+00
 1.7102552241e+00	 5.4113797799e-02	 3.3987294021e+00
 1.7095831669e+00	 7.2295435949e-02	 3.3860517165e+00
 1.7087138232e+00	 9.0544491447e-02	 3.3698748756e+00
 1.7185185185e+00	 0.0000000000e+00	 3.4020107673e+00
 1.7184238161e+00	 1.8041254759e-02	 3.3993174353e+00
 1.7181380877e+00	 3.6158128317e-02	 3.3931984931e+00
 1.7176589263e+00	 5.4348056664e-02	 3.3837443381e+00
 1.7169839598e+00	 7.2608403204e-02	 3.3709671059e+00
 1.7161108527e+00	 9.0936458943e-02	 3.3547874388e+00
 1.7259259259e+00	 0.0000000000e+00	 3.3867856781e+00
 1.7258308153e+00	 1.8119018788e-02	 3.3842440106e+00
 1.7255438553e+00	 3.6313982319e-02	 3.3781994178e+00
 1.7250626286e+00	 5.4582315529e-02	 3.3687497251e+00
 1.7243847527e+00	 7.2921370459e-02	 3.3559592287e+00
 1.7235078823e+00	 9.1328426438e-02	 3.3398394919e+00
 1.7333333333e+00	 0.0000000000e+00	 3.3715574678e+00
 1.7332378145e+00	 1.8196782818e-02	 3.3690687777e+00
 1.7329496229e+00	 3.6469836320e-02	 3.3630934747e+00
 1.7324663309e+00	 5.4816574394e-02	 3.3536964456e+00
 1.7317855457e+00	 7.3234337715e-02	 3.3409549420e+00
 1.7309049118e+00	 9.1720393934e-02	 3.3249332665e+00
 1.7407407407e+00	 0.0000000000e+00	 3.3563263972e+00
 1.7406448137e+00	 1.8274546847e-02	 3.3537815561e+00
 1.7403553905e+00	 3.6625690321e-02	 3.3478536967e+00
 1.7398700331e+00	 5.5050833259e-02	 3.3385362299e+00
 1.7391863386e+00	 7.3547304970e-02	 3.3258820366e+00
 1.7383019414e+00	 9.2112361429e-02	 3.3099719016e+00
 1.7013167937e+00	 9.0152523952e-02	 3.3852004986e+00
 1.7002525047e+00	 1.0838694754e-01	 3.3635535673e+00
 1.6989872719e+00	 1.2668291112e-01	 3.3358243886e+00
 1.6975189039e+00	 1.4503751555e-01	 3.3035010253e+00
 1.6958452552e+00	 1.6344779144e-01	 3.2678853988e+00
 1.6939642285e+00	 1.8191069966e-01	 3.2300778419e+00
 1.7087138232e+00	 9.0544491447e-02	 3.3698748756e+00
 1.7076449069e+00	 1.0885819514e-01	 3.3483639771e+00
 1.7063741731e+00	 1.2723370639e-01	 3.3208854592e+00
 1.7048994209e+00	 1.4566811345e-01	 3.2888082466e+00
 1.7032184954e+00	 1.6415843401e-01	 3.2533241200e+00
 1.7013292903e+00	 1.8270161575e-01	 3.2154250079e+00
 1.7161108527e+00	 9.0936458943e-02	 3.3547874388e+00
 1.7150373091e+00	 1.0932944274e-01	 3.3334638880e+00
 1.7137610743e+00	 1.2778450165e-01	 3.3062769984e+00
 1.7122799378e+00	 1.4629871134e-01	 3.2744931153e+00
 1.7105917357e+00	 1.6486907658e-01	 3.2392100865e+00
 1.7086943522e+00	 1.8349253183e-01	 3.2013269819e+00
 1.7235078823e+00	 9.1328426438e-02	 3.3398394919e+00
 1.7224297112e+00	 1.0980069034e-01	 3.3187249800e+00
 1.7211479754e+00	 1.2833529692e-01	 3.2918310040e+00
 1.7196604548e+00	 1.4692930923e-01	 3.2603391095e+00
 1.7179649759e+00	 1.6557971915e-01	 3.2252706577e+00
 1.7160594141e+00	 1.8428344792e-01	 3.1874486545e+00
 1.7309049118e+00	 9.1720393934e-02	 3.3249332665e+00
 1.7298221134e+00	 1.1027193794e-01	 3.3040198350e+00
 1.7285348766e+00	 1.2888609218e-01	 3.2773804722e+00
 1.7270409718e+00	 1.4755990713e-01	 3.2461309413e+00
 1.7253382161e+00	 1.6629036172e-01	 3.2112348188e+00
 1.7234244759e+00	 1.8507436400e-01	 3.1734571070e+00
 1.7383019414e+00	 9.2112361429e-02	 3.3099719016e+00
 1.7372145156e+00	 1.1074318553e-01	 3.2892219148e+00
 1.7359217778e+00	 1.2943688745e-01	 3.2627593732e+00
 1.7344214888e+00	 1.4819050502e-01	 3.2316545293e+00
 1.7327114564e+00	 1.6700100429e-01	 3.1968331491e+00
 1.7307895378e+00	 1.8586528009e-01	 3.1590215752e+00
 1.6939642285e+00	 1.8191069966e-01	 3.2300778419e+00
 1.6918737772e+00	 2.0042313208e-01	 3.1918514702e+00
 1.6895719079e+00	 2.1898191223e-01	 3.1522507806e+00
 1.6870566824e+00	 2.3758379621e-01	 3.1079411254e+00
 1.6843262204e+00	 2.5622547356e-01	 3.0553647645e+00
 1.6813787016e+00	 2.7490356829e-01	 2.9907813887e+00
 1.7013292903e+00	 1.8270161575e-01	 3.2154250079e+00
 1.6992297502e+00	 2.0129453700e-01	 3.1768909322e+00
 1.6969178728e+00	 2.1993400750e-01	 3.1369760269e+00
 1.6943917115e+00	 2.3861676923e-01	 3.0925203857e+00
 1.6916493779e+00	 2.5733949736e-01	 3.0401107085e+00
 1.6886890438e+00	 2.7609880120e-01	 2.9761127128e+00
 1.7086943522e+00	 1.8349253183e-01	 3.2013269819e+00
 1.7065857231e+00	 2.0216594192e-01	 3.1626192621e+00
 1.7042638376e+00	 2.2088610277e-01	 3.1225163918e+00
 1.7017267406e+00	 2.3964974226e-01	 3.0780133177e+00
 1.6989725354e+00	 2.5845352115e-01	 3.0258204466e+00
 1.6959993859e+00	 2.7729403410e-01	 2.9623877012e+00
 1.7160594141e+00	 1.8428344792e-01	 3.1874486545e+00
 1.7139416961e+00	 2.0303734684e-01	 3.1486404737e+00
 1.7116098024e+00	 2.2183819804e-01	 3.1084248548e+00
 1.7090617696e+00	 2.4068271529e-01	 3.0639334078e+00
 1.7062956928e+00	 2.5956754495e-01	 3.0119811825e+00
 1.7033097281e+00	 2.7848926701e-01	 2.9490821173e+00
 1.7234244759e+00	 1.8507436400e-01	 3.1734571070e+00
 1.7212976690e+00	 2.0390875176e-01	 3.1345614124e+00
 1.7189557672e+00	 2.2279029331e-01	 3.0942578398e+00
 1.7163967987e+00	 2.4171568832e-01	 3.0497981788e+00
 1.7136188503e+00	 2.6068156875e-01	 2.9980847355e+00
 1.7106200703e+00	 2.7968449992e-01	 2.9356769134e+00
 1.7307895378e+00	 1.8586528009e-01	 3.1590215752e+00
 1.7286536420e+00	 2.0478015669e-01	 3.1199917146e+00
 1.7263017320e+00	 2.2374238858e-01	 3.0795751746e+00
 1.7237318277e+00	 2.4274866134e-01	 3.0351291549e+00
 1.7209420078e+00	 2.6179559255e-01	 2.9836275154e+00
 1.7179304125e+00	 2.8087973282e-01	 2.9216582209e+00
 1.6813787016e+00	 2.7490356829e-01	 2.9907813887e+00
 1.6782123683e+00	 2.9361463999e-01	 2.9166575808e+00
 1.6748255278e+00	 3.1235518499e-01	 2.8404943096e+00
 1.6712165542e+00	 3.3112163768e-01	 2.7660854344e+00
 1.6673838915e+00	 3.4991037185e-01	 2.6974408444e+00
 1.6633260553e+00	 3.6871770217e-01	 2.6389396076e+00
 1.6886890438e+00	 2.7609880120e-01	 2.9761127128e+00
 1.6855089438e+00	 2.9489122538e-01	 2.9027926658e+00
 1.6821073779e+00	 3.1371325102e-01	 2.8272853500e+00
 1.6784827131e+00	 3.3256129698e-01	 2.7531656080e+00
 1.6746333867e+00	 3.5143172129e-01	 2.6841627010e+00
 1.6705579077e+00	 3.7032082261e-01	 2.6243081941e+00
 1.6959993859e+00	 2.7729403410e-01	 2.9623877012e+00
 1.6928055194e+00	 2.9616781077e-01	 2.8897922172e+00
 1.6893892280e+00	 3.1507131704e-01	 2.8148452991e+00
 1.6857488721e+00	 3.3400095627e-01	 2.7409246965e+00
 1.6818828819e+00	 3.5295307073e-01	 2.6714972439e+00
 1.6777897601e+00	 3.7192394306e-01	 2.6102819260e+00
 1.7033097281e+00	 2.7848926701e-01	 2.9490821173e+00
 1.7001020949e+00	 2.9744439617e-01	 2.8771273598e+00
 1.6966710781e+00	 3.1642938306e-01	 2.8026388740e+00
 1.6930150310e+00	 3.3544061556e-01	 2.7288200046e+00
 1.6891323771e+00	 3.5447442018e-01	 2.6588940646e+00
 1.6850216125e+00	 3.7352706350e-01	 2.5963310004e+00
 1.7106200703e+00	 2.7968449992e-01	 2.9356769134e+00
 1.7073986704e+00	 2.9872098156e-01	 2.8642751446e+00
 1.7039529282e+00	 3.1778744908e-01	 2.7901377985e+00
 1.7002811899e+00	 3.3688027486e-01	 2.7163172836e+00
 1.6963818722e+00	 3.5599576962e-01	 2.6458130169e+00
 1.6922534649e+00	 3.7513018395e-01	 2.5819177691e+00
 1.7179304125e+00	 2.8087973282e-01	 2.9216582209e+00
 1.7146952459e+00	 2.9999756695e-01	 2.8507185579e+00
 1.7112347784e+00	 3.1914551510e-01	 2.7768208291e+00
 1.7075473489e+00	 3.3831993415e-01	 2.7028907740e+00
 1.7036313674e+00	 3.5751711906e-01	 2.6317242737e+00
 1.6994853173e+00	 3.7673330439e-01	 2.5665177712e+00
 1.6633260553e+00	 3.6871770217e-01	 2.6389396076e+00
 1.6590416351e+00	 3.8753988576e-01	 2.5735887620e+00
 1.6545292969e+00	 4.0637312382e-01	 2.4871624360e+00
 1.6497877850e+00	 4.2521356338e-01	 2.3874825193e+00
 1.6448159244e+00	 4.4405729914e-01	 2.2825828152e+00
 1.6396126227e+00	 4.6290037537e-01	 2.1807407429e+00
 1.6705579077e+00	 3.7032082261e-01	 2.6243081941e+00
 1.6662548596e+00	 3.8922484178e-01	 2.5580030590e+00
 1.6617229025e+00	 4.0813996349e-01	 2.4715857084e+00
 1.6569607754e+00	 4.2706231800e-01	 2.3724372116e+00
 1.6519672980e+00	 4.4598798304e-01	 2.2681597793e+00
 1.6467413732e+00	 4.6491298569e-01	 2.1665902248e+00
 1.6777897601e+00	 3.7192394306e-01	 2.6102819260e+00
 1.6734680841e+00	 3.9090979781e-01	 2.5431846090e+00
 1.6689165082e+00	 4.0990680316e-01	 2.4569514449e+00
 1.6641337657e+00	 4.2891107263e-01	 2.3584661320e+00
 1.6591186715e+00	 4.4791866695e-01	 2.2548234895e+00
 1.6538701238e+00	 4.6692559602e-01	 2.1533462420e+00
 1.6850216125e+00	 3.7352706350e-01	 2.5963310004e+00
 1.6806813086e+00	 3.9259475383e-01	 2.5285956487e+00
 1.6761101138e+00	 4.1167364282e-01	 2.4427577100e+00
 1.6713067561e+00	 4.3075982725e-01	 2.3451262673e+00
 1.6662700451e+00	 4.4984935086e-01	 2.2422135280e+00
 1.6609988743e+00	 4.6893820635e-01	 2.1407552286e+00
 1.6922534649e+00	 3.7513018395e-01	 2.5819177691e+00
 1.6878945331e+00	 3.9427970986e-01	 2.5137123831e+00
 1.6833037194e+00	 4.1344048249e-01	 2.4285166839e+00
 1.6784797465e+00	 4.3260858187e-01	 2.3319884304e+00
 1.6734214187e+00	 4.5178003477e-01	 2.2299825564e+00
 1.6681276248e+00	 4.7095081668e-01	 2.1285754773e+00
 1.6994853173e+00	 3.7673330439e-01	 2.5665177712e+00
 1.6951077576e+00	 3.9596466588e-01	 2.4980247707e+00
 1.6904973251e+00	 4.1520732216e-01	 2.4137544349e+00
 1.6856527368e+00	 4.3445733650e-01	 2.3186370243e+00
 1.6805727923e+00	 4.5371071868e-01	 2.2177960801e+00
 1.6752563754e+00	 4.7296342700e-01	 2.1165769118e+00
 1.6396126227e+00	 4.6290037537e-01	 2.1807407429e+00
 1.6341768724e+00	 4.8173878795e-01	 2.0847634219e+00
 1.6285077526e+00	 5.0056848647e-01	 1.9903769460e+00
 1.6226044314e+00	 5.1938537640e-01	 1.8956678782e+00
 1.6164661673e+00	 5.3818532137e-01	 1.7990587686e+00
 1.6100923112e+00	 5.5696414555e-01	 1.6993167158e+00
 1.6467413732e+00	 4.6491298569e-01	 2.1665902248e+00
 1.6412819892e+00	 4.8383330442e-01	 2.0708579678e+00
 1.6355882211e+00	 5.0274487120e-01	 1.9771347729e+00
 1.6296592333e+00	 5.2164357369e-01	 1.8832542610e+00
 1.6234942810e+00	 5.4052525755e-01	 1.7873980506e+00
 1.6170927126e+00	 5.5938572879e-01	 1.6881064975e+00
 1.6538701238e+00	 4.6692559602e-01	 2.1533462420e+00
 1.6483871060e+00	 4.8592782089e-01	 2.0574700888e+00
 1.6426686896e+00	 5.0492125592e-01	 1.9639392349e+00
 1.6367140352e+00	 5.2390177097e-01	 1.8704754927e+00
 1.6305223948e+00	 5.4286519373e-01	 1.7751584747e+00
 1.6240931139e+00	 5.6180731203e-01	 1.6764381946e+00
 1.6609988743e+00	 4.6893820635e-01	 2.1407552286e+00
 1.6554922229e+00	 4.8802233736e-01	 2.0444487929e+00
 1.6497491581e+00	 5.0709764064e-01	 1.9507071795e+00
 1.6437688370e+00	 5.2615996826e-01	 1.8572792632e+00
 1.6375505086e+00	 5.4520512991e-01	 1.7622793604e+00
 1.6310935153e+00	 5.6422889527e-01	 1.6642013794e+00
 1.6681276248e+00	 4.7095081668e-01	 2.1285754773e+00
 1.6625973397e+00	 4.9011685383e-01	 2.0316537326e+00
 1.6568296266e+00	 5.0927402537e-01	 1.9373654064e+00
 1.6508236389e+00	 5.2841816555e-01	 1.8436230781e+00
 1.6445786223e+00	 5.4754506609e-01	 1.7487102959e+00
 1.6380939166e+00	 5.6665047851e-01	 1.6512969690e+00
 1.6752563754e+00	 4.7296342700e-01	 2.1165769118e+00
 1.6697024566e+00	 4.9221137030e-01	 2.0189549832e+00
 1.6639100951e+00	 5.1145041009e-01	 1.9238504377e+00
 1.6578784408e+00	 5.3067636284e-01	 1.8294740056e+00
 1.6516067361e+00	 5.4988500227e-01	 1.7344108471e+00
 1.6450943180e+00	 5.6907206175e-01	 1.6376368808e+00
 1.6100923112e+00	 5.5696414555e-01	 1.6993167158e+00
 1.6034823085e+00	 5.7571763607e-01	 1.5922432151e+00
 1.5966357001e+00	 5.9444154556e-01	 1.4777489638e+00
 1.5895521248e+00	 6.1313159475e-01	 1.3612374508e+00
 1.5822313202e+00	 6.3178347512e-01	 1.2483644234e+00
 1.5746731243e+00	 6.5039285168e-01	 1.1449908867e+00
 1.6170927126e+00	 5.5938572879e-01	 1.6881064975e+00
 1.6104539707e+00	 5.7822075623e-01	 1.5806862324e+00
 1.6035775945e+00	 5.9702607402e-01	 1.4650674301e+00
 1.5964632210e+00	 6.1579738429e-01	 1.3472082333e+00
 1.5891105868e+00	 6.3453035979e-01	 1.2333154810e+00
 1.5815195292e+00	 6.5322064669e-01	 1.1297961674e+00
 1.6240931139e+00	 5.6180731203e-01	 1.6764381946e+00
 1.6174256329e+00	 5.8072387638e-01	 1.5691168493e+00
 1.6105194888e+00	 5.9961060248e-01	 1.4529094060e+00
 1.6033743172e+00	 6.1846317383e-01	 1.3341292606e+00
 1.5959898534e+00	 6.3727724447e-01	 1.2193406409e+00
 1.5883659341e+00	 6.5604844170e-01	 1.1153090320e+00
 1.6310935153e+00	 5.6422889527e-01	 1.6642013794e+00
 1.6243972951e+00	 5.8322699654e-01	 1.5573777828e+00
 1.6174613832e+00	 6.0219513094e-01	 1.4411210100e+00
 1.6102854134e+00	 6.2112896337e-01	 1.3219028294e+00
 1.6028691200e+00	 6.4002412914e-01	 1.2064536659e+00
 1.5952123390e+00	 6.5887623671e-01	 1.1017124994e+00
 1.6380939166e+00	 5.6665047851e-01	 1.6512969690e+00
 1.6313689573e+00	 5.8573011670e-01	 1.5453240352e+00
 1.6244032775e+00	 6.0477965940e-01	 1.4295606419e+00
 1.6171965096e+00	 6.2379475292e-01	 1.3104425242e+00
 1.6097483866e+00	 6.4277101381e-01	 1.1946775838e+00
 1.6020587439e+00	 6.6170403171e-01	 1.0891957607e+00
 1.6450943180e+00	 5.6907206175e-01	 1.6376368808e+00
 1.6383406195e+00	 5.8823323685e-01	 1.5328224971e+00
 1.6313451719e+00	 6.0736418786e-01	 1.4180985493e+00
 1.6241076058e+00	 6.2646054246e-01	 1.2996727681e+00
 1.6166276532e+00	 6.4551789849e-01	 1.1840442411e+00
 1.6089051488e+00	 6.6453182672e-01	 1.0779537558e+00
 1.5746731243e+00	 6.5039285168e-01	 1.1449908867e+00
 1.5668774772e+00	 6.6895536581e-01	 1.0430171252e+00
 1.5588444219e+00	 6.8746663807e-01	 9.3219335930e-01
 1.5505741056e+00	 7.0592227124e-01	 8.1537303552e-01
 1.5420667811e+00	 7.2431785327e-01	 6.9547511783e-01
 1.5333228074e+00	 7.4264896039e-01	 5.7530198683e-01
 1.5815195292e+00	 6.5322064669e-01	 1.1297961674e+00
 1.5736899880e+00	 6.7186386740e-01	 1.0294780417e+00
 1.5656220063e+00	 6.9045562345e-01	 9.2184645406e-01
 1.5573157322e+00	 7.0899149850e-01	 8.0853456164e-01
 1.5487714193e+00	 7.2746706133e-01	 6.9127854620e-01
 1.5399894283e+00	 7.4587786892e-01	 5.7118082221e-01
 1.5883659341e+00	 6.5604844170e-01	 1.1153090320e+00
 1.5805024987e+00	 6.7477236899e-01	 1.0158826151e+00
 1.5723995907e+00	 6.9344460884e-01	 9.1067293334e-01
 1.5640573587e+00	 7.1206072577e-01	 8.0035225712e-01
 1.5554760575e+00	 7.3061626939e-01	 6.8572588631e-01
 1.5466560492e+00	 7.4910677744e-01	 5.6601113189e-01
 1.5952123390e+00	 6.5887623671e-01	 1.1017124994e+00
 1.5873150095e+00	 6.7768087058e-01	 1.0025744620e+00
 1.5791771752e+00	 6.9643359422e-01	 8.9909789981e-01
 1.5707989852e+00	 7.1512995304e-01	 7.9125015627e-01
 1.5621806957e+00	 7.3376547745e-01	 6.7915420150e-01
 1.5533226701e+00	 7.5233568596e-01	 5.6002166909e-01
 1.6020587439e+00	 6.6170403171e-01	 1.0891957607e+00
 1.5941275203e+00	 6.8058937217e-01	 9.8990034698e-01
 1.5859547596e+00	 6.9942257960e-01	 8.8754785874e-01
 1.5775406118e+00	 7.1819918030e-01	 7.8165329326e-01
 1.5688853338e+00	 7.3691468550e-01	 6.7190255896e-01
 1.5599892910e+00	 7.5556459449e-01	 5.5343383824e-01
 1.6089051488e+00	 6.6453182672e-01	 1.0779537558e+00
 1.6009400311e+00	 6.8349787376e-01	 9.7820977955e-01
 1.5927323441e+00	 7.0241156498e-01	 8.7645030574e-01
 1.5842822383e+00	 7.2126840757e-01	 7.7198725031e-01
 1.5755899720e+00	 7.4006389356e-01	 6.6431150686e-01
 1.5666559119e+00	 7.5879350301e-01	 5.4646178764e-01
 1.5333228074e+00	 7.4264896039e-01	 5.7530198683e-01
 1.5243426506e+00	 7.6091116020e-01	 4.6124006457e-01
 1.5151268847e+00	 7.7910001484e-01	 3.5676617911e-01
 1.5056761927e+00	 7.9721108424e-01	 2.5530130252e-01
 1.4959913662e+00	 8.1523992933e-01	 1.5028835355e-01
 1.4860733066e+00	 8.3318211537e-01	 3.5153394119e-02
 1.5399894283e+00	 7.4587786892e-01	 5.7118082221e-01
 1.5309702273e+00	 7.6421946959e-01	 4.5253236508e-01
 1.5217143929e+00	 7.8248740621e-01	 3.4315912015e-01
 1.5122226109e+00	 8.0067721939e-01	 2.3870101051e-01
 1.5024956765e+00	 8.1878445077e-01	 1.3474319274e-01
 1.4925344949e+00	 8.3680464630e-01	 2.6770474317e-02
 1.5466560492e+00	 7.4910677744e-01	 5.6601113189e-01
 1.5375978040e+00	 7.6752777898e-01	 4.4410873870e-01
 1.5283019011e+00	 7.8587479758e-01	 3.3080985187e-01
 1.5187690291e+00	 8.0414335454e-01	 2.2360385880e-01
 1.5089999867e+00	 8.2232897220e-01	 1.1986431791e-01
 1.4989956832e+00	 8.4042717724e-01	 1.6797567938e-02
 1.5533226701e+00	 7.5233568596e-01	 5.6002166909e-01
 1.5442253808e+00	 7.7083608838e-01	 4.3601101757e-01
 1.5348894093e+00	 7.8926218895e-01	 3.1970677318e-01
 1.5253154474e+00	 8.0760948969e-01	 2.1008327081e-01
 1.5155042970e+00	 8.2587349363e-01	 1.0595348328e-01
 1.5054568715e+00	 8.4404970818e-01	 5.9127861793e-03
 1.5599892910e+00	 7.5556459449e-01	 5.5343383824e-01
 1.5508529575e+00	 7.7414439777e-01	 4.2827680679e-01
 1.5414769175e+00	 7.9264958032e-01	 3.0983489023e-01
 1.5318618656e+00	 8.1107562484e-01	 1.9820773786e-01
 1.5220086073e+00	 8.2941801506e-01	 9.3303514173e-02
 1.5119180598e+00	 8.4767223911e-01	-5.2212241351e-03
 1.5666559119e+00	 7.5879350301e-01	 5.4646178764e-01
 1.5574805343e+00	 7.7745270716e-01	 4.2093951378e-01
 1.5480644257e+00	 7.9603697169e-01	 3.0117583053e-01
 1.5384082838e+00	 8.1454175999e-01	 1.8804086803e-01
 1.5285129176e+00	 8.3296253649e-01	 8.2198442415e-02
 1.5183792481e+00	 8.5129477005e-01	-1.5957005181e-02
 1.4860733066e+00	 8.3318211537e-01	 3.5153394119e-02
 1.4759230253e+00	 8.5103321522e-01	-9.2606397763e-02
 1.4655416435e+00	 8.6878881274e-01	-2.0800187850e-01
 1.4549303927e+00	 8.8644450615e-01	-3.1283496172e-01
 1.4440906143e+00	 9.0399591137e-01	-4.1464169456e-01
 1.4330237597e+00	 9.2143866547e-01	-5.2201784515e-01
 1.4925344949e+00	 8.3680464630e-01	 2.6770474317e-02
 1.4823400819e+00	 8.5473335963e-01	-9.3875457297e-02
 1.4719135637e+00	 8.7256615541e-01	-2.1650181862e-01
 1.4612561770e+00	 8.9029861270e-01	-3.2361173671e-01
 1.4503692691e+00	 9.0792632837e-01	-4.2438336010e-01
 1.4392542978e+00	 9.2544492053e-01	-5.2917677261e-01
 1.4989956832e+00	 8.4042717724e-01	 1.6797567938e-02
 1.4887571386e+00	 8.5843350405e-01	-9.3804039937e-02
 1.4782854839e+00	 8.7634349807e-01	-2.1781917636e-01
 1.4675819613e+00	 8.9415271925e-01	-3.3104460523e-01
 1.4566479240e+00	 9.1185674538e-01	-4.3371466381e-01
 1.4454848358e+00	 9.2945117560e-01	-5.3753089989e-01
 1.5054568715e+00	 8.4404970818e-01	 5.9127861793e-03
 1.4951741952e+00	 8.6213364846e-01	-9.7535596986e-02
 1.4846574041e+00	 8.8012084074e-01	-2.1293479559e-01
 1.4739077456e+00	 8.9800682579e-01	-3.3426591666e-01
 1.4629265788e+00	 9.1578716239e-01	-4.4191917674e-01
 1.4517153739e+00	 9.3345743067e-01	-5.4669793146e-01
 1.5119180598e+00	 8.4767223911e-01	-5.2212241351e-03
 1.5015912518e+00	 8.6583379287e-01	-1.0404373834e-01
 1.4910293243e+00	 8.8389818340e-01	-2.1187869982e-01
 1.4802335299e+00	 9.0186093234e-01	-3.3242365400e-01
 1.4692052337e+00	 9.1971757939e-01	-4.4829376966e-01
 1.4579459120e+00	 9.3746368573e-01	-5.5630326187e-01
 1.5183792481e+00	 8.5129477005e-01	-1.5957005181e-02
 1.5080083085e+00	 8.6953393729e-01	-1.1232356421e-01
 1.4974012445e+00	 8.8767552606e-01	-2.1531280158e-01
 1.4865593143e+00	 9.0571503889e-01	-3.2887962639e-01
 1.4754838885e+00	 9.2364799640e-01	-4.5214904998e-01
 1.4641764501e+00	 9.4146994080e-01	-5.6598053796e-01
 1.4330237597e+00	 9.2143866547e-01	-5.2201784515e-01
 1.4217313898e+00	 9.3876843004e-01	-6.2469404992e-01
 1.4102151748e+00	 9.5598089461e-01	-7.1322374372e-01
 1.3984768932e+00	 9.7307178003e-01	-7.9864400078e-01
 1.3865184318e+00	 9.9003684190e-01	-8.9248119829e-01
 1.3743417841e+00	 1.0068718739e+00	-1.0064995528e+00
 1.4392542978e+00	 9.2544492053e-01	-5.2917677261e-01
 1.4279128306e+00	 9.4285003191e-01	-6.2998119729e-01
 1.4163465451e+00	 9.6013733328e-01	-7.1804657157e-01
 1.4045572276e+00	 9.7730252690e-01	-8.0384493545e-01
 1.3925467728e+00	 9.9434134991e-01	-8.9838341595e-01
 1.3803171832e+00	 1.0112495777e+00	-1.0129489302e+00
 1.4454848358e+00	 9.2945117560e-01	-5.3753089989e-01
 1.4340942715e+00	 9.4693163378e-01	-6.3676949797e-01
 1.4224779154e+00	 9.6429377195e-01	-7.2390766149e-01
 1.4106375619e+00	 9.8153327377e-01	-8.0919257289e-01
 1.3985751138e+00	 9.9864585792e-01	-9.0343956923e-01
 1.3862925823e+00	 1.0156272815e+00	-1.0177720896e+00
 1.4517153739e+00	 9.3345743067e-01	-5.4669793146e-01
 1.4402757123e+00	 9.5101323565e-01	-6.4504836073e-01
 1.4286092857e+00	 9.6845021062e-01	-7.3105373067e-01
 1.4167178962e+00	 9.8576402064e-01	-8.1507229893e-01
 1.4046034548e+00	 1.0029503659e+00	-9.0805099573e-01
 1.3922679813e+00	 1.0200049853e+00	-1.0212596980e+00
 1.4579459120e+00	 9.3746368573e-01	-5.5630326187e-01
 1.4464571531e+00	 9.5509483752e-01	-6.5480848179e-01
 1.4347406561e+00	 9.7260664929e-01	-7.3972818572e-01
 1.4227982305e+00	 9.8999476751e-01	-8.2186346921e-01
 1.4106317958e+00	 1.0072548739e+00	-9.1261223401e-01
 1.3982433804e+00	 1.0243826891e+00	-1.0236968764e+00
 1.4641764501e+00	 9.4146994080e-01	-5.6598053796e-01
 1.4526385939e+00	 9.5917643938e-01	-6.6604254565e-01
 1.4408720264e+00	 9.7676308797e-01	-7.5017192019e-01
 1.4288785648e+00	 9.9422551438e-01	-8.2994025976e-01
 1.4166601368e+00	 1.0115593819e+00	-9.1751188237e-01
 1.4042187794e+00	 1.0287603929e+00	-1.0253640203e+00
 1.3743417841e+00	 1.0068718739e+00	-1.0064995528e+00
 1.3619490501e+00	 1.0235727111e+00	-1.1185604816e+00
 1.3493424348e+00	 1.0401352334e+00	-1.2046418928e+00
 1.3365242470e+00	 1.0565553687e+00	-1.2730931873e+00
 1.3234968983e+00	 1.0728290964e+00	-1.3312015755e+00
 1.3102629015e+00	 1.0889524503e+00	-1.3848676382e+00
 1.3803171832e+00	 1.0112495777e+00	-1.0129489302e+00
 1.3678705677e+00	 1.0280230272e+00	-1.1246128340e+00
 1.3552091410e+00	 1.0446575605e+00	-1.2093813209e+00
 1.3423352220e+00	 1.0611490877e+00	-1.2764181485e+00
 1.3292512327e+00	 1.0774935708e+00	-1.3338647986e+00
 1.3159596967e+00	 1.0936870261e+00	-1.3885065966e+00
 1.3862925823e+00	 1.0156272815e+00	-1.0177720896e+00
 1.3737920854e+00	 1.0324733433e+00	-1.1288152697e+00
 1.3610758473e+00	 1.0491798876e+00	-1.2126486276e+00
 1.3481461970e+00	 1.0657428067e+00	-1.2791102536e+00
 1.3350055670e+00	 1.0821580451e+00	-1.3370628801e+00
 1.3216564920e+00	 1.0984216020e+00	-1.3940507364e+00
 1.3922679813e+00	 1.0200049853e+00	-1.0212596980e+00
 1.3797136030e+00	 1.0369236595e+00	-1.1313032487e+00
 1.3669425535e+00	 1.0537022147e+00	-1.2144656033e+00
 1.3539571720e+00	 1.0703365257e+00	-1.2811213594e+00
 1.3407599013e+00	 1.0868225194e+00	-1.3407236655e+00
 1.3273532872e+00	 1.1031561779e+00	-1.4014519791e+00
 1.3982433804e+00	 1.0243826891e+00	-1.0236968764e+00
 1.3856351206e+00	 1.0413739756e+00	-1.1322085626e+00
 1.3728092597e+00	 1.0582245418e+00	-1.2148514071e+00
 1.3597681469e+00	 1.0749302447e+00	-1.2824008600e+00
 1.3465142357e+00	 1.0914869938e+00	-1.3447718086e+00
 1.3330500824e+00	 1.1078907538e+00	-1.4106574031e+00
 1.4042187794e+00	 1.0287603929e+00	-1.0253640203e+00
 1.3915566382e+00	 1.0458242917e+00	-1.1316600997e+00
 1.3786759660e+00	 1.0627468689e+00	-1.2138232919e+00
 1.3655791219e+00	 1.0795239637e+00	-1.2828963861e+00
 1.3522685700e+00	 1.0961514681e+00	-1.3491294620e+00
 1.3387468776e+00	 1.1126253296e+00	-1.4213951236e+00
 1.3102629015e+00	 1.0889524503e+00	-1.3848676382e+00
 1.2968248690e+00	 1.1049215218e+00	-1.4554796591e+00
 1.2831855111e+00	 1.1207324632e+00	-1.5539643149e+00
 1.2693476345e+00	 1.1363814909e+00	-1.6403402717e+00
 1.2553141401e+00	 1.1518648878e+00	-1.7074173086e+00
 1.2410880211e+00	 1.1671790068e+00	-1.7519434948e+00
 1.3159596967e+00	 1.0936870261e+00	-1.3885065966e+00
 1.3024632380e+00	 1.1097255284e+00	-1.4636660218e+00
 1.2887645785e+00	 1.1256052131e+00	-1.5586719191e+00
 1.2748665373e+00	 1.1413222800e+00	-1.6408220079e+00
 1.2607720277e+00	 1.1568729960e+00	-1.7063818597e+00
 1.2464840560e+00	 1.1722536981e+00	-1.7516525133e+00
 1.3216564920e+00	 1.0984216020e+00	-1.3940507364e+00
 1.3081016070e+00	 1.1145295350e+00	-1.4737613248e+00
 1.2943436460e+00	 1.1304779629e+00	-1.5623878823e+00
 1.2803854400e+00	 1.1462630691e+00	-1.6407069424e+00
 1.2662299152e+00	 1.1618811042e+00	-1.7048815284e+00
 1.2518800909e+00	 1.1773283894e+00	-1.7508500683e+00
 1.3273532872e+00	 1.1031561779e+00	-1.4014519791e+00
 1.3137399760e+00	 1.1193335416e+00	-1.4824628789e+00
 1.2999227134e+00	 1.1353507127e+00	-1.5652785678e+00
 1.2859043428e+00	 1.1512038581e+00	-1.6401644047e+00
 1.2716878028e+00	 1.1668892124e+00	-1.7030669268e+00
 1.2572761258e+00	 1.1824030808e+00	-1.7496451998e+00
 1.3330500824e+00	 1.1078907538e+00	-1.4106574031e+00
 1.3193783449e+00	 1.1241375482e+00	-1.4897208660e+00
 1.3055017809e+00	 1.1402234626e+00	-1.5675178683e+00
 1.2914232455e+00	 1.1561446472e+00	-1.6393710001e+00
 1.2771456904e+00	 1.1718973206e+00	-1.7010961002e+00
 1.2626721606e+00	 1.1874777721e+00	-1.7481549639e+00
 1.3387468776e+00	 1.1126253296e+00	-1.4213951236e+00
 1.3250167139e+00	 1.1289415548e+00	-1.4956942067e+00
 1.3110808483e+00	 1.1450962124e+00	-1.5692868988e+00
 1.2969421483e+00	 1.1610854363e+00	-1.6385103199e+00
 1.2826035779e+00	 1.1769054288e+00	-1.6991342486e+00
 1.2680681955e+00	 1.1925524634e+00	-1.7465041581e+00
 1.2410880211e+00	 1.1671790068e+00	-1.7519434948e+00
 1.2266723610e+00	 1.1823202734e+00	-1.7896025579e+00
 1.2120703311e+00	 1.1972851885e+00	-1.8339043978e+00
 1.1972851885e+00	 1.2120703311e+00	-1.8782117475e+00
 1.1823202734e+00	 1.2266723610e+00	-1.9158480828e+00
 1.1671790068e+00	 1.2410880211e+00	-1.9402472099e+00
 1.2464840560e+00	 1.1722536981e+00	-1.7516525133e+00
 1.2320057191e+00	 1.1874607963e+00	-1.7904235167e+00
 1.2173402021e+00	 1.2024907762e+00	-1.8349475474e+00
 1.2024907762e+00	 1.2173402021e+00	-1.8790641028e+00
 1.1874607963e+00	 1.2320057191e+00	-1.9165855055e+00
 1.1722536981e+00	 1.2464840560e+00	-1.9414498736e+00
 1.2518800909e+00	 1.1773283894e+00	-1.7508500683e+00
 1.2373390772e+00	 1.1926013192e+00	-1.7907441870e+00
 1.2226100731e+00	 1.2076963640e+00	-1.8356872353e+00
 1.2076963640e+00	 1.2226100731e+00	-1.8799124529e+00
 1.1926013192e+00	 1.2373390772e+00	-1.9176354710e+00
 1.1773283894e+00	 1.2518800909e+00	-1.9432109685e+00
 1.2572761258e+00	 1.1824030808e+00	-1.7496451998e+00
 1.2426724353e+00	 1.1977418421e+00	-1.7906107543e+00
 1.2278799441e+00	 1.2129019518e+00	-1.8360884497e+00
 1.2129019518e+00	 1.2278799441e+00	-1.8806231419e+00
 1.1977418421e+00	 1.2426724353e+00	-1.9187491431e+00
 1.1824030808e+00	 1.2572761258e+00	-1.9451508682e+00
 1.2626721606e+00	 1.1874777721e+00	-1.7481549639e+00
 1.2480057934e+00	 1.2028823651e+00	-1.7900783967e+00
 1.2331498151e+00	 1.2181075396e+00	-1.8361264834e+00
 1.2181075396e+00	 1.2331498151e+00	-1.8810744441e+00
 1.2028823651e+00	 1.2480057934e+00	-1.9196915328e+00
 1.1874777721e+00	 1.2626721606e+00	-1.9469059785e+00
 1.2680681955e+00	 1.1925524634e+00	-1.7465041581e+00
 1.2533391515e+00	 1.2080228880e+00	-1.7892110053e+00
 1.2384196861e+00	 1.2233131273e+00	-1.8357866438e+00
 1.2233131273e+00	 1.2384196861e+00	-1.8811562588e+00
 1.2080228880e+00	 1.2533391515e+00	-1.9202411716e+00
 1.1925524634e+00	 1.2680681955e+00	-1.9481283834e+00
 1.1671790068e+00	 1.2410880211e+00	-1.9402472099e+00
 1.1518648878e+00	 1.2553141401e+00	-1.9660194645e+00
 1.1363814909e+00	 1.2693476345e+00	-2.0059395441e+00
 1.1207324632e+00	 1.2831855111e+00	-2.0509907452e+00
 1.1049215218e+00	 1.2968248690e+00	-2.0907612508e+00
 1.0889524503e+00	 1.3102629015e+00	-2.1019312894e+00
 1.1722536981e+00	 1.2464840560e+00	-1.9414498736e+00
 1.1568729960e+00	 1.2607720277e+00	-1.9673031519e+00
 1.1413222800e+00	 1.2748665373e+00	-2.0057323867e+00
 1.1256052131e+00	 1.2887645785e+00	-2.0479218288e+00
 1.1097255284e+00	 1.3024632380e+00	-2.0852884657e+00
 1.0936870261e+00	 1.3159596967e+00	-2.0975208123e+00
 1.1773283894e+00	 1.2518800909e+00	-1.9432109685e+00
 1.1618811042e+00	 1.2662299152e+00	-1.9692622353e+00
 1.1462630691e+00	 1.2803854400e+00	-2.0062320380e+00
 1.1304779629e+00	 1.2943436460e+00	-2.0455754191e+00
 1.1145295350e+00	 1.3081016070e+00	-2.0791013994e+00
 1.0984216020e+00	 1.3216564920e+00	-2.0924154065e+00
 1.1824030808e+00	 1.2572761258e+00	-1.9451508682e+00
 1.1668892124e+00	 1.2716878028e+00	-1.9714089281e+00
 1.1512038581e+00	 1.2859043428e+00	-2.0069021219e+00
 1.1353507127e+00	 1.2999227134e+00	-2.0434250621e+00
 1.1193335416e+00	 1.3137399760e+00	-2.0731708206e+00
 1.1031561779e+00	 1.3273532872e+00	-2.0862256387e+00
 1.1874777721e+00	 1.2626721606e+00	-1.9469059785e+00
 1.1718973206e+00	 1.2771456904e+00	-1.9732732669e+00
 1.1561446472e+00	 1.2914232455e+00	-2.0072248448e+00
 1.1402234626e+00	 1.3055017809e+00	-2.0409626241e+00
 1.1241375482e+00	 1.3193783449e+00	-2.0671400959e+00
 1.1078907538e+00	 1.3330500824e+00	-2.0785795159e+00
 1.1925524634e+00	 1.2680681955e+00	-1.9481283834e+00
 1.1769054288e+00	 1.2826035779e+00	-1.9744027404e+00
 1.1610854363e+00	 1.2969421483e+00	-2.0067006283e+00
 1.1450962124e+00	 1.3110808483e+00	-2.0376979505e+00
 1.1289415548e+00	 1.3250167139e+00	-2.0605838854e+00
 1.1126253296e+00	 1.3387468776e+00	-2.0692206877e+00
 1.0889524503e+00	 1.3102629015e+00	-2.1019312894e+00
 1.0728290964e+00	 1.3234968983e+00	-2.0943823431e+00
 1.0565553687e+00	 1.3365242470e+00	-2.0859058212e+00
 1.0401352334e+00	 1.3493424348e+00	-2.0797734087e+00
 1.0235727111e+00	 1.3619490501e+00	-2.0808509767e+00
 1.0068718739e+00	 1.3743417841e+00	-2.0952825822e+00
 1.0936870261e+00	 1.3159596967e+00	-2.0975208123e+00
 1.0774935708e+00	 1.3292512327e+00	-2.0901178606e+00
 1.0611490877e+00	 1.3423352220e+00	-2.0818786386e+00
 1.0446575605e+00	 1.3552091410e+00	-2.0760304150e+00
 1.0280230272e+00	 1.3678705677e+00	-2.0774195301e+00
 1.0112495777e+00	 1.3803171832e+00	-2.0921867667e+00
 1.0984216020e+00	 1.3216564920e+00	-2.0924154065e+00
 1.0821580451e+00	 1.3350055670e+00	-2.0857967688e+00
 1.0657428067e+00	 1.3481461970e+00	-2.0784151062e+00
 1.0491798876e+00	 1.3610758473e+00	-2.0733750980e+00
 1.0324733433e+00	 1.3737920854e+00	-2.0754131412e+00
 1.0156272815e+00	 1.3862925823e+00	-2.0905641642e+00
 1.1031561779e+00	 1.3273532872e+00	-2.0862256387e+00
 1.0868225194e+00	 1.3407599013e+00	-2.0811464265e+00
 1.0703365257e+00	 1.3539571720e+00	-2.0752663056e+00
 1.0537022147e+00	 1.3669425535e+00	-2.0714909147e+00
 1.0369236595e+00	 1.3797136030e+00	-2.0743581170e+00
 1.0200049853e+00	 1.3922679813e+00	-2.0896963235e+00
 1.1078907538e+00	 1.3330500824e+00	-2.0785795159e+00
 1.0914869938e+00	 1.3465142357e+00	-2.0759081707e+00
 1.0749302447e+00	 1.3597681469e+00	-2.0721953826e+00
 1.0582245418e+00	 1.3728092597e+00	-2.0700730078e+00
 1.0413739756e+00	 1.3856351206e+00	-2.0737935928e+00
 1.0243826891e+00	 1.3982433804e+00	-2.0888802676e+00
 1.1126253296e+00	 1.3387468776e+00	-2.0692206877e+00
 1.0961514681e+00	 1.3522685700e+00	-2.0698377105e+00
 1.0795239637e+00	 1.3655791219e+00	-2.0689779353e+00
 1.0627468689e+00	 1.3786759660e+00	-2.0688285544e+00
 1.0458242917e+00	 1.3915566382e+00	-2.0732718081e+00
 1.0287603929e+00	 1.4042187794e+00	-2.0874286657e+00
 1.0068718739e+00	 1.3743417841e+00	-2.0952825822e+00
 9.9003684190e-01	 1.3865184318e+00	-2.1052984317e+00
 9.7307178003e-01	 1.3984768932e+00	-2.0944149508e+00
 9.5598089461e-01	 1.4102151748e+00	-2.0716636149e+00
 9.3876843004e-01	 1.4217313898e+00	-2.0460977883e+00
 9.2143866547e-01	 1.4330237597e+00	-2.0265186622e+00
 1.0112495777e+00	 1.3803171832e+00	-2.0921867667e+00
 9.9434134991e-01	 1.3925467728e+00	-2.1022121892e+00
 9.7730252690e-01	 1.4045572276e+00	-2.0907092151e+00
 9.6013733328e-01	 1.4163465451e+00	-2.0667418049e+00
 9.4285003191e-01	 1.4279128306e+00	-2.0393340555e+00
 9.2544492053e-01	 1.4392542978e+00	-2.0171894915e+00
 1.0156272815e+00	 1.3862925823e+00	-2.0905641642e+00
 9.9864585792e-01	 1.3985751138e+00	-2.1002077247e+00
 9.8153327377e-01	 1.4106375619e+00	-2.0873751851e+00
 9.6429377195e-01	 1.4224779154e+00	-2.0614735884e+00
 9.4693163378e-01	 1.4340942715e+00	-2.0318278886e+00
 9.2945117560e-01	 1.4454848358e+00	-2.0073925402e+00
 1.0200049853e+00	 1.3922679813e+00	-2.0896963235e+00
 1.0029503659e+00	 1.4046034548e+00	-2.0983618738e+00
 9.8576402064e-01	 1.4167178962e+00	-2.0834490304e+00
 9.6845021062e-01	 1.4286092857e+00	-2.0550148723e+00
 9.5101323565e-01	 1.4402757123e+00	-2.0230114925e+00
 9.3345743067e-01	 1.4517153739e+00	-1.9969888325e+00
 1.0243826891e+00	 1.3982433804e+00	-2.0888802676e+00
 1.0072548739e+00	 1.4106317958e+00	-2.0957689289e+00
 9.8999476751e-01	 1.4227982305e+00	-2.0779835924e+00
 9.7260664929e-01	 1.4347406561e+00	-2.0465347598e+00
 9.5509483752e-01	 1.4464571531e+00	-2.0123241811e+00
 9.3746368573e-01	 1.4579459120e+00	-1.9858378837e+00
 1.0287603929e+00	 1.4042187794e+00	-2.0874286657e+00
 1.0115593819e+00	 1.4166601368e+00	-2.0915407224e+00
 9.9422551438e-01	 1.4288785648e+00	-2.0700484385e+00
 9.7676308797e-01	 1.4408720264e+00	-2.0352156331e+00
 9.5917643938e-01	 1.4526385939e+00	-1.9992125451e+00
 9.4146994080e-01	 1.4641764501e+00	-1.9737980093e+00
 9.2143866547e-01	 1.4330237597e+00	-2.0265186622e+00
 9.0399591137e-01	 1.4440906143e+00	-2.0034614233e+00
 8.8644450615e-01	 1.4549303927e+00	-1.9693317338e+00
 8.6878881274e-01	 1.4655416435e+00	-1.9346680723e+00
 8.5103321522e-01	 1.4759230253e+00	-1.9088833760e+00
 8.3318211537e-01	 1.4860733066e+00	-1.8947027479e+00
 9.2544492053e-01	 1.4392542978e+00	-2.0171894915e+00
 9.0792632837e-01	 1.4503692691e+00	-1.9915279580e+00
 8.9029861270e-01	 1.4612561770e+00	-1.9568371810e+00
 8.7256615541e-01	 1.4719135637e+00	-1.9256340479e+00
 8.5473335963e-01	 1.4823400819e+00	-1.9091751965e+00
 8.3680464630e-01	 1.4925344949e+00	-1.8873250905e+00
 9.2945117560e-01	 1.4454848358e+00	-2.0073925402e+00
 9.1185674538e-01	 1.4566479240e+00	-1.9807635206e+00
 8.9415271925e-01	 1.4675819613e+00	-1.9486700774e+00
 8.7634349807e-01	 1.4782854839e+00	-1.9251490650e+00
 8.5843350405e-01	 1.4887571386e+00	-1.9108941905e+00
 8.4042717724e-01	 1.4989956832e+00	-1.8779537463e+00
 9.3345743067e-01	 1.4517153739e+00	-1.9969888325e+00
 9.1578716239e-01	 1.4629265788e+00	-1.9714188185e+00
 8.9800682579e-01	 1.4739077456e+00	-1.9452471091e+00
 8.8012084074e-01	 1.4846574041e+00	-1.9314501675e+00
 8.6213364846e-01	 1.4951741952e+00	-1.9075575886e+00
 8.4404970818e-01	 1.5054568715e+00	-1.8669776801e+00
 9.3746368573e-01	 1.4579459120e+00	-1.9858378837e+00
 9.1971757939e-01	 1.4692052337e+00	-1.9637351909e+00
 9.0186093234e-01	 1.4802335299e+00	-1.9469716572e+00
 8.8389818340e-01	 1.4910293243e+00	-1.9323264834e+00
 8.6583379287e-01	 1.5015912518e+00	-1.9000228977e+00
 8.4767223911e-01	 1.5119180598e+00	-1.8547844381e+00
 9.4146994080e-01	 1.4641764501e+00	-1.9737980093e+00
 9.2364799640e-01	 1.4754838885e+00	-1.9579450429e+00
 9.0571503889e-01	 1.4865593143e+00	-1.9494115896e+00
 8.8767552606e-01	 1.4974012445e+00	-1.9267006842e+00
 8.6953393729e-01	 1.5080083085e+00	-1.8891382071e+00
 8.5129477005e-01	 1.5183792481e+00	-1.8417601173e+00
 8.3318211537e-01	 1.4860733066e+00	-1.8947027479e+00
 8.1523992933e-01	 1.4959913662e+00	-1.8614392477e+00
 7.9721108424e-01	 1.5056761927e+00	-1.8117261164e+00
 7.7910001484e-01	 1.5151268847e+00	-1.7551308488e+00
 7.6091116020e-01	 1.5243426506e+00	-1.7012040807e+00
 7.4264896039e-01	 1.5333228074e+00	-1.6595023599e+00
 8.3680464630e-01	 1.4925344949e+00	-1.8873250905e+00
 8.1878445077e-01	 1.5024956765e+00	-1.8460087344e+00
 8.0067721939e-01	 1.5122226109e+00	-1.7948228966e+00
 7.8248740621e-01	 1.5217143929e+00	-1.7409884852e+00
 7.6421946959e-01	 1.5309702273e+00	-1.6916149682e+00
 7.4587786892e-01	 1.5399894283e+00	-1.6537306006e+00
 8.4042717724e-01	 1.4989956832e+00	-1.8779537463e+00
 8.2232897220e-01	 1.5089999867e+00	-1.8314204460e+00
 8.0414335454e-01	 1.5187690291e+00	-1.7799963272e+00
 7.8587479758e-01	 1.5283019011e+00	-1.7288813654e+00
 7.6752777898e-01	 1.5375978040e+00	-1.6830947301e+00
 7.4910677744e-01	 1.5466560492e+00	-1.6475114036e+00
 8.4404970818e-01	 1.5054568715e+00	-1.8669776801e+00
 8.2587349363e-01	 1.5155042970e+00	-1.8175916264e+00
 8.0760948969e-01	 1.5253154474e+00	-1.7669035264e+00
 7.8926218895e-01	 1.5348894093e+00	-1.7184133785e+00
 7.7083608838e-01	 1.5442253808e+00	-1.6753960206e+00
 7.5233568596e-01	 1.5533226701e+00	-1.6409430866e+00
 8.4767223911e-01	 1.5119180598e+00	-1.8547844381e+00
 8.2941801506e-01	 1.5220086073e+00	-1.8044461160e+00
 8.1107562484e-01	 1.5318618656e+00	-1.7552125964e+00
 7.9264958032e-01	 1.5414769175e+00	-1.7092002361e+00
 7.7414439777e-01	 1.5508529575e+00	-1.6682806884e+00
 7.5556459449e-01	 1.5599892910e+00	-1.6341271534e+00
 8.5129477005e-01	 1.5183792481e+00	-1.8417601173e+00
 8.3296253649e-01	 1.5285129176e+00	-1.7919141587e+00
 8.1454175999e-01	 1.5384082838e+00	-1.7446023449e+00
 7.9603697169e-01	 1.5480644257e+00	-1.7008691826e+00
 7.7745270716e-01	 1.5574805343e+00	-1.6615195499e+00
 7.5879350301e-01	 1.5666559119e+00	-1.6271682019e+00
 7.4264896039e-01	 1.5333228074e+00	-1.6595023599e+00
 7.2431785327e-01	 1.5420667811e+00	-1.6239097142e+00
 7.0592227124e-01	 1.5505741056e+00	-1.5834966485e+00
 6.8746663807e-01	 1.5588444219e+00	-1.5372551081e+00
 6.6895536581e-01	 1.5668774772e+00	-1.4841517142e+00
 6.5039285168e-01	 1.5746731243e+00	-1.4232589686e+00
 7.4587786892e-01	 1.5399894283e+00	-1.6537306006e+00
 7.2746706133e-01	 1.5487714193e+00	-1.6179018565e+00
 7.0899149850e-01	 1.5573157322e+00	-1.5752451567e+00
 6.9045562345e-01	 1.5656220063e+00	-1.5260995266e+00
 6.7186386740e-01	 1.5736899880e+00	-1.4704563800e+00
 6.5322064669e-01	 1.5815195292e+00	-1.4084774471e+00
 7.4910677744e-01	 1.5466560492e+00	-1.6475114036e+00
 7.3061626939e-01	 1.5554760575e+00	-1.6105576470e+00
 7.1206072577e-01	 1.5640573587e+00	-1.5652600731e+00
 6.9344460884e-01	 1.5723995907e+00	-1.5134815258e+00
 6.7477236899e-01	 1.5805024987e+00	-1.4560553294e+00
 6.5604844170e-01	 1.5883659341e+00	-1.3940306663e+00
 7.5233568596e-01	 1.5533226701e+00	-1.6409430866e+00
 7.3376547745e-01	 1.5621806957e+00	-1.6023053777e+00
 7.1512995304e-01	 1.5707989852e+00	-1.5541385968e+00
 6.9643359422e-01	 1.5791771752e+00	-1.4999987102e+00
 6.7768087058e-01	 1.5873150095e+00	-1.4413807281e+00
 6.5887623671e-01	 1.5952123390e+00	-1.3800223561e+00
 7.5556459449e-01	 1.5599892910e+00	-1.6341271534e+00
 7.3691468550e-01	 1.5688853338e+00	-1.5935768399e+00
 7.1819918030e-01	 1.5775406118e+00	-1.5424788467e+00
 6.9942257960e-01	 1.5859547596e+00	-1.4862498400e+00
 6.8058937217e-01	 1.5941275203e+00	-1.4268688960e+00
 6.6170403171e-01	 1.6020587439e+00	-1.3665661094e+00
 7.5879350301e-01	 1.5666559119e+00	-1.6271682019e+00
 7.4006389356e-01	 1.5755899720e+00	-1.5848069232e+00
 7.2126840757e-01	 1.5842822383e+00	-1.5308795593e+00
 7.0241156498e-01	 1.5927323441e+00	-1.4728345654e+00
 6.8349787376e-01	 1.6009400311e+00	-1.4129600183e+00
 6.6453182672e-01	 1.6089051488e+00	-1.3537850095e+00
 6.5039285168e-01	 1.5746731243e+00	-1.4232589686e+00
 6.3178347512e-01	 1.5822313202e+00	-1.3648370377e+00
 6.1313159475e-01	 1.5895521248e+00	-1.3164308738e+00
 5.9444154556e-01	 1.5966357001e+00	-1.2732548459e+00
 5.7571763607e-01	 1.6034823085e+00	-1.2306888989e+00
 5.5696414555e-01	 1.6100923112e+00	-1.1843134884e+00
 6.5322064669e-01	 1.5815195292e+00	-1.4084774471e+00
 6.3453035979e-01	 1.5891105868e+00	-1.3504336961e+00
 6.1579738429e-01	 1.5964632210e+00	-1.3028975913e+00
 5.9702607402e-01	 1.6035775945e+00	-1.2607212837e+00
 5.7822075623e-01	 1.6104539707e+00	-1.2188924471e+00
 5.5938572879e-01	 1.6170927126e+00	-1.1725706634e+00
 6.5604844170e-01	 1.5883659341e+00	-1.3940306663e+00
 6.3727724447e-01	 1.5959898534e+00	-1.3371782585e+00
 6.1846317383e-01	 1.6033743172e+00	-1.2907891897e+00
 5.9961060248e-01	 1.6105194888e+00	-1.2494544462e+00
 5.8072387638e-01	 1.6174256329e+00	-1.2078878029e+00
 5.6180731203e-01	 1.6240931139e+00	-1.1609630986e+00
 6.5887623671e-01	 1.5952123390e+00	-1.3800223561e+00
 6.4002412914e-01	 1.6028691200e+00	-1.3248349446e+00
 6.2112896337e-01	 1.6102854134e+00	-1.2796682028e+00
 6.0219513094e-01	 1.6174613832e+00	-1.2389513762e+00
 5.8322699654e-01	 1.6243972951e+00	-1.1972409722e+00
 5.6422889527e-01	 1.6310935153e+00	-1.1492583705e+00
 6.6170403171e-01	 1.6020587439e+00	-1.3665661094e+00
 6.4277101381e-01	 1.6097483866e+00	-1.3131836539e+00
 6.2379475292e-01	 1.6171965096e+00	-1.2691162218e+00
 6.0477965940e-01	 1.6244032775e+00	-1.2287291376e+00
 5.8573011670e-01	 1.6313689573e+00	-1.1865365604e+00
 5.6665047851e-01	 1.6380939166e+00	-1.1372388798e+00
 6.6453182672e-01	 1.6089051488e+00	-1.3537850095e+00
 6.4551789849e-01	 1.6166276532e+00	-1.3020195064e+00
 6.2646054246e-01	 1.6241076058e+00	-1.2587333992e+00
 6.0736418786e-01	 1.6313451719e+00	-1.2183243308e+00
 5.8823323685e-01	 1.6383406195e+00	-1.1753773486e+00
 5.6907206175e-01	 1.6450943180e+00	-1.1247015361e+00
 5.5696414555e-01	 1.6100923112e+00	-1.1843134884e+00
 5.3818532137e-01	 1.6164661673e+00	-1.1322557165e+00
 5.1938537640e-01	 1.6226044314e+00	-1.0764578690e+00
 5.0056848647e-01	 1.6285077526e+00	-1.0185967706e+00
 4.8173878795e-01	 1.6341768724e+00	-9.6061709052e-01
 4.6290037537e-01	 1.6396126227e+00	-9.0471710151e-01
 5.5938572879e-01	 1.6170927126e+00	-1.1725706634e+00
 5.4052525755e-01	 1.6234942810e+00	-1.1200331744e+00
 5.2164357369e-01	 1.6296592333e+00	-1.0636501142e+00
 5.0274487120e-01	 1.6355882211e+00	-1.0051054310e+00
 4.8383330442e-01	 1.6412819892e+00	-9.4639208177e-01
 4.6491298569e-01	 1.6467413732e+00	-8.8979542140e-01
 5.6180731203e-01	 1.6240931139e+00	-1.1609630986e+00
 5.4286519373e-01	 1.6305223948e+00	-1.1074652396e+00
 5.2390177097e-01	 1.6367140352e+00	-1.0504151219e+00
 5.0492125592e-01	 1.6426686896e+00	-9.9143982321e-01
 4.8592782089e-01	 1.6483871060e+00	-9.3250433874e-01
 4.6692559602e-01	 1.6538701238e+00	-8.7589299309e-01
 5.6422889527e-01	 1.6310935153e+00	-1.1492583705e+00
 5.4520512991e-01	 1.6375505086e+00	-1.0945298532e+00
 5.2615996826e-01	 1.6437688370e+00	-1.0368283761e+00
 5.0709764064e-01	 1.6497491581e+00	-9.7766162919e-01
 4.8802233736e-01	 1.6554922229e+00	-9.1889200483e-01
 4.6893820635e-01	 1.6609988743e+00	-8.6271642163e-01
 5.6665047851e-01	 1.6380939166e+00	-1.1372388798e+00
 5.4754506609e-01	 1.6445786223e+00	-1.0812157686e+00
 5.2841816555e-01	 1.6508236389e+00	-1.0229740061e+00
 5.0927402537e-01	 1.6568296266e+00	-9.6384083041e-01
 4.9011685383e-01	 1.6625973397e+00	-9.0550297532e-01
 4.7095081668e-01	 1.6681276248e+00	-8.4998528934e-01
 5.6907206175e-01	 1.6450943180e+00	-1.1247015361e+00
 5.4988500227e-01	 1.6516067361e+00	-1.0675223476e+00
 5.3067636284e-01	 1.6578784408e+00	-1.0089446513e+00
 5.1145041009e-01	 1.6639100951e+00	-9.5005560161e-01
 4.9221137030e-01	 1.6697024566e+00	-8.9229477913e-01
 4.7296342700e-01	 1.6752563754e+00	-8.3743198542e-01
 4.6290037537e-01	 1.6396126227e+00	-9.0471710151e-01
 4.4405729914e-01	 1.6448159244e+00	-8.5891714201e-01
 4.2521356338e-01	 1.6497877850e+00	-8.2352542046e-01
 4.0637312382e-01	 1.6545292969e+00	-7.8955900843e-01
 3.8753988576e-01	 1.6590416351e+00	-7.4830426684e-01
 3.6871770217e-01	 1.6633260553e+00	-6.9158812533e-01
 4.6491298569e-01	 1.6467413732e+00	-8.8979542140e-01
 4.4598798304e-01	 1.6519672980e+00	-8.4317433618e-01
 4.2706231800e-01	 1.6569607754e+00	-8.0704639636e-01
 4.0813996349e-01	 1.6617229025e+00	-7.7307197524e-01
 3.8922484178e-01	 1.6662548596e+00	-7.3314192802e-01
 3.7032082261e-01	 1.6705579077e+00	-6.7936244198e-01
 4.6692559602e-01	 1.6538701238e+00	-8.7589299309e-01
 4.4791866695e-01	 1.6591186715e+00	-8.2902199114e-01
 4.2891107263e-01	 1.6641337657e+00	-7.9240726536e-01
 4.0990680316e-01	 1.6689165082e+00	-7.5836914774e-01
 3.9090979781e-01	 1.6734680841e+00	-7.1943014312e-01
 3.7192394306e-01	 1.6777897601e+00	-6.6829654498e-01
 4.6893820635e-01	 1.6609988743e+00	-8.6271642163e-01
 4.4984935086e-01	 1.6662700451e+00	-8.1592501303e-01
 4.3075982725e-01	 1.6713067561e+00	-7.7891765934e-01
 4.1167364282e-01	 1.6761101138e+00	-7.4469120612e-01
 3.9259475383e-01	 1.6806813086e+00	-7.0642679335e-01
 3.7352706350e-01	 1.6850216125e+00	-6.5746812142e-01
 4.7095081668e-01	 1.6681276248e+00	-8.4998528934e-01
 4.5178003477e-01	 1.6734214187e+00	-8.0336461664e-01
 4.3260858187e-01	 1.6784797465e+00	-7.6590531137e-01
 4.1344048249e-01	 1.6833037194e+00	-7.3129719424e-01
 3.9427970986e-01	 1.6878945331e+00	-6.9340686668e-01
 3.7513018395e-01	 1.6922534649e+00	-6.4625226517e-01
 4.7296342700e-01	 1.6752563754e+00	-8.3743198542e-01
 4.5371071868e-01	 1.6805727923e+00	-7.9083809820e-01
 4.3445733650e-01	 1.6856527368e+00	-7.5271580215e-01
 4.1520732216e-01	 1.6904973251e+00	-7.1746427006e-01
 3.9596466588e-01	 1.6951077576e+00	-6.7966224243e-01
 3.7673330439e-01	 1.6994853173e+00	-6.3403850845e-01
 3.6871770217e-01	 1.6633260553e+00	-6.9158812533e-01
 3.4991037185e-01	 1.6673838915e+00	-6.4233695789e-01
 3.3112163768e-01	 1.6712165542e+00	-6.1020590914e-01
 3.1235518499e-01	 1.6748255278e+00	-5.8599024926e-01
 2.9361463999e-01	 1.6782123683e+00	-5.6140501376e-01
 2.7490356829e-01	 1.6813787016e+00	-5.2895017713e-01
 3.7032082261e-01	 1.6705579077e+00	-6.7936244198e-01
 3.5143172129e-01	 1.6746333867e+00	-6.2830539726e-01
 3.3256129698e-01	 1.6784827131e+00	-5.9475401045e-01
 3.1371325102e-01	 1.6821073779e+00	-5.6960754599e-01
 2.9489122538e-01	 1.6855089438e+00	-5.4465725379e-01
 2.7609880120e-01	 1.6886890438e+00	-5.1245502856e-01
 3.7192394306e-01	 1.6777897601e+00	-6.6829654498e-01
 3.5295307073e-01	 1.6818828819e+00	-6.1543310005e-01
 3.3400095627e-01	 1.6857488721e+00	-5.8030433099e-01
 3.1507131704e-01	 1.6893892280e+00	-5.5417771164e-01
 2.9616781077e-01	 1.6928055194e+00	-5.2894019967e-01
 2.7729403410e-01	 1.6959993859e+00	-4.9720461760e-01
 3.7352706350e-01	 1.6850216125e+00	-6.5746812142e-01
 3.5447442018e-01	 1.6891323771e+00	-6.0316587189e-01
 3.3544061556e-01	 1.6930150310e+00	-5.6639347630e-01
 3.1642938306e-01	 1.6966710781e+00	-5.3927770891e-01
 2.9744439617e-01	 1.7001020949e+00	-5.1382002929e-01
 2.7848926701e-01	 1.7033097281e+00	-4.8270246894e-01
 3.7513018395e-01	 1.6922534649e+00	-6.4625226517e-01
 3.5599576962e-01	 1.6963818722e+00	-5.9095653213e-01
 3.3688027486e-01	 1.7002811899e+00	-5.5256083012e-01
 3.1778744908e-01	 1.7039529282e+00	-5.2448441082e-01
 2.9872098156e-01	 1.7073986704e+00	-4.9886132564e-01
 2.7968449992e-01	 1.7106200703e+00	-4.6845036234e-01
 3.7673330439e-01	 1.6994853173e+00	-6.3403850845e-01
 3.5751711906e-01	 1.7036313674e+00	-5.7826531675e-01
 3.3831993415e-01	 1.7075473489e+00	-5.3834894404e-01
 3.1914551510e-01	 1.7112347784e+00	-5.0937495834e-01
 2.9999756695e-01	 1.7146952459e+00	-4.8362738356e-01
 2.8087973282e-01	 1.7179304125e+00	-4.5394856931e-01
 2.7490356829e-01	 1.6813787016e+00	-5.2895017713e-01
 2.5622547356e-01	 1.6843262204e+00	-4.9050159011e-01
 2.3758379621e-01	 1.6870566824e+00	-4.5399452124e-01
 2.1898191223e-01	 1.6895719079e+00	-4.2178253054e-01
 2.0042313208e-01	 1.6918737772e+00	-3.9649994491e-01
 1.8191069966e-01	 1.6939642285e+00	-3.8101928384e-01
 2.7609880120e-01	 1.6886890438e+00	-5.1245502856e-01
 2.5733949736e-01	 1.6916493779e+00	-4.7459198187e-01
 2.3861676923e-01	 1.6943917115e+00	-4.3866717431e-01
 2.1993400750e-01	 1.6969178728e+00	-4.0696168874e-01
 2.0129453700e-01	 1.6992297502e+00	-3.8200099290e-01
 1.8270161575e-01	 1.7013292903e+00	-3.6651960862e-01
 2.7729403410e-01	 1.6959993859e+00	-4.9720461760e-01
 2.5845352115e-01	 1.6989725354e+00	-4.6015113455e-01
 2.3964974226e-01	 1.7017267406e+00	-4.2491568090e-01
 2.2088610277e-01	 1.7042638376e+00	-3.9370874431e-01
 2.0216594192e-01	 1.7065857231e+00	-3.6895103052e-01
 1.8349253183e-01	 1.7086943522e+00	-3.5324552212e-01
 2.7848926701e-01	 1.7033097281e+00	-4.8270246894e-01
 2.5956754495e-01	 1.7062956928e+00	-4.4661831927e-01
 2.4068271529e-01	 1.7090617696e+00	-4.1216338436e-01
 2.2183819804e-01	 1.7116098024e+00	-3.8147810525e-01
 2.0303734684e-01	 1.7139416961e+00	-3.5688109313e-01
 1.8428344792e-01	 1.7160594141e+00	-3.4084873268e-01
 2.7968449992e-01	 1.7106200703e+00	-4.6845036234e-01
 2.6068156875e-01	 1.7136188503e+00	-4.3343138509e-01
 2.4171568832e-01	 1.7163967987e+00	-3.9983212290e-01
 2.2279029331e-01	 1.7189557672e+00	-3.6972218025e-01
 2.0390875176e-01	 1.7212976690e+00	-3.4531930582e-01
 1.8507436400e-01	 1.7234244759e+00	-3.2897670458e-01
 2.8087973282e-01	 1.7179304125e+00	-4.5394856931e-01
 2.6179559255e-01	 1.7209420078e+00	-4.2002692511e-01
 2.4274866134e-01	 1.7237318277e+00	-3.8734234290e-01
 2.2374238858e-01	 1.7263017320e+00	-3.5789145668e-01
 2.0478015669e-01	 1.7286536420e+00	-3.3379094342e-01
 1.8586528009e-01	 1.7307895378e+00	-3.1727271696e-01
 1.8191069966e-01	 1.6939642285e+00	-3.8101928384e-01
 1.6344779144e-01	 1.6958452552e+00	-3.7119337601e-01
 1.4503751555e-01	 1.6975189039e+00	-3.6053400303e-01
 1.2668291112e-01	 1.6989872719e+00	-3.4877307525e-01
 1.0838694754e-01	 1.7002525047e+00	-3.3592355630e-01
 9.0152523952e-02	 1.7013167937e+00	-3.2228073402e-01
 1.8270161575e-01	 1.7013292903e+00	-3.6651960862e-01
 1.6415843401e-01	 1.7032184954e+00	-3.5645596336e-01
 1.4566811345e-01	 1.7048994209e+00	-3.4555859572e-01
 1.2723370639e-01	 1.7063741731e+00	-3.3364150322e-01
 1.0885819514e-01	 1.7076449069e+00	-3.2081937508e-01
 9.0544491447e-02	 1.7087138232e+00	-3.0751544618e-01
 1.8349253183e-01	 1.7086943522e+00	-3.5324552212e-01
 1.6486907658e-01	 1.7105917357e+00	-3.4271197432e-01
 1.4629871134e-01	 1.7122799378e+00	-3.3142559143e-01
 1.2778450165e-01	 1.7137610743e+00	-3.1927817858e-01
 1.0932944274e-01	 1.7150373091e+00	-3.0647703733e-01
 9.0936458943e-02	 1.7161108527e+00	-2.9355980840e-01
 1.8428344792e-01	 1.7160594141e+00	-3.4084873268e-01
 1.6557971915e-01	 1.7179649759e+00	-3.2973815378e-01
 1.4692930923e-01	 1.7196604548e+00	-3.1800166495e-01
 1.2833529692e-01	 1.7211479754e+00	-3.0560334625e-01
 1.0980069034e-01	 1.7224297112e+00	-2.9283276008e-01
 9.1328426438e-02	 1.7235078823e+00	-2.8032719478e-01
 1.8507436400e-01	 1.7234244759e+00	-3.2897670458e-01
 1.6629036172e-01	 1.7253382161e+00	-3.1730589055e-01
 1.4755990713e-01	 1.7270409718e+00	-3.0514788409e-01
 1.2888609218e-01	 1.7285348766e+00	-2.9253223967e-01
 1.1027193794e-01	 1.7298221134e+00	-2.7981917433e-01
 9.1720393934e-02	 1.7309049118e+00	-2.6772963155e-01
 1.8586528009e-01	 1.7307895378e+00	-3.1727271696e-01
 1.6700100429e-01	 1.7327114564e+00	-3.0518127789e-01
 1.4819050502e-01	 1.7344214888e+00	-2.9271976068e-01
 1.2943688745e-01	 1.7359217778e+00	-2.7997511054e-01
 1.1074318553e-01	 1.7372145156e+00	-2.6736532193e-01
 9.2112361429e-02	 1.7383019414e+00	-2.5567774919e-01
 9.0152523952e-02	 1.7013167937e+00	-3.2228073402e-01
 7.1982468694e-02	 1.7021823740e+00	-3.0827443646e-01
 5.3879538934e-02	 1.7028515218e+00	-2.9627474063e-01
 3.5846420315e-02	 1.7033265524e+00	-2.8984054788e-01
 1.7885726701e-02	 1.7036098177e+00	-2.9270913331e-01
-4.1777509494e-07	 1.7037195792e+00	 8.0791639081e-01
 9.0544491447e-02	 1.7087138232e+00	-3.0751544618e-01
 7.2295435949e-02	 1.7095831669e+00	-2.9399705882e-01
 5.4113797799e-02	 1.7102552241e+00	-2.8230486713e-01
 3.6002274316e-02	 1.7107323200e+00	-2.7592418256e-01
 1.7963490730e-02	 1.7110168169e+00	-2.7855747903e-01
-4.0479121668e-07	 1.7111266551e+00	 7.9608627768e-01
 9.0936458943e-02	 1.7161108527e+00	-2.9355980840e-01
 7.2608403204e-02	 1.7169839598e+00	-2.8055422899e-01
 5.4348056664e-02	 1.7176589263e+00	-2.6911947639e-01
 3.6158128317e-02	 1.7181380877e+00	-2.6269085996e-01
 1.8041254759e-02	 1.7184238161e+00	-2.6496319319e-01
-3.9183629841e-07	 1.7185337218e+00	 7.8299579639e-01
 9.1328426438e-02	 1.7235078823e+00	-2.8032719478e-01
 7.2921370459e-02	 1.7243847527e+00	-2.6783217339e-01
 5.4582315529e-02	 1.7250626286e+00	-2.5660734285e-01
 3.6313982319e-02	 1.7255438553e+00	-2.5005962799e-01
 1.8119018788e-02	 1.7258308153e+00	-2.5190134714e-01
-3.7892171238e-07	 1.7259407797e+00	 7.6864617082e-01
 9.1720393934e-02	 1.7309049118e+00	-2.6772963155e-01
 7.3234337715e-02	 1.7317855457e+00	-2.5571819280e-01
 5.4816574394e-02	 1.7324663309e+00	-2.4466030164e-01
 3.6469836320e-02	 1.7329496229e+00	-2.3795414025e-01
 1.8196782818e-02	 1.7332378145e+00	-2.3935271659e-01
-3.6605883077e-07	 1.7333478293e+00	 7.5303332573e-01
 9.2112361429e-02	 1.7383019414e+00	-2.5567774919e-01
 7.3547304970e-02	 1.7391863386e+00	-2.4410057085e-01
 5.5050833259e-02	 1.7398700331e+00	-2.3317312680e-01
 3.6625690321e-02	 1.7403553905e+00	-2.2630251723e-01
 1.8274546847e-02	 1.7406448137e+00	-2.2730363854e-01
-3.5325902569e-07	 1.7407548711e+00	 7.3614802114e-01
 1.7407407407e+00	 0.0000000000e+00	 3.3563263972e+00
 1.7406448137e+00	 1.8274546847e-02	 3.3537815561e+00
 1.7403553905e+00	 3.6625690321e-02	 3.3478536967e+00
 1.7398700331e+00	 5.5050833259e-02	 3.3385362299e+00
 1.7391863386e+00	 7.3547304970e-02	 3.3258820366e+00
 1.7383019414e+00	 9.2112361429e-02	 3.3099719016e+00
 1.7481481481e+00	 0.0000000000e+00	 3.3410477736e+00
 1.7480518129e+00	 1.8352310876e-02	 3.3384134645e+00
 1.7477611581e+00	 3.6781544323e-02	 3.3325097724e+00
 1.7472737354e+00	 5.5285092124e-02	 3.3232560252e+00
 1.7465871315e+00	 7.3860272225e-02	 3.3106794331e+00
 1.7456989709e+00	 9.2504328924e-02	 3.2948770552e+00
 1.7555555556e+00	 0.0000000000e+00	 3.3256654284e+00
 1.7554588121e+00	 1.8430074905e-02	 3.3229997107e+00
 1.7551669258e+00	 3.6937398324e-02	 3.3171047108e+00
 1.7546774377e+00	 5.5519350988e-02	 3.3078583948e+00
 1.7539879245e+00	 7.4173239480e-02	 3.2952964256e+00
 1.7530960004e+00	 9.2896296420e-02	 3.2795673725e+00
 1.7629629630e+00	 0.0000000000e+00	 3.3101624520e+00
 1.7628658113e+00	 1.8507838934e-02	 3.3075366477e+00
 1.7625726934e+00	 3.7093252326e-02	 3.3016322191e+00
 1.7620811399e+00	 5.5753609853e-02	 3.2923194353e+00
 1.7613887174e+00	 7.4486206735e-02	 3.2796775272e+00
 1.7604930300e+00	 9.3288263915e-02	 3.2639428457e+00
 1.7703703704e+00	 0.0000000000e+00	 3.2945221069e+00
 1.7702728105e+00	 1.8585602963e-02	 3.2920208396e+00
 1.7699784610e+00	 3.7249106327e-02	 3.2860862902e+00
 1.7694848422e+00	 5.5987868718e-02	 3.2766156591e+00
 1.7687895103e+00	 7.4799173991e-02	 3.2637678726e+00
 1.7678900595e+00	 9.3680231411e-02	 3.2479043899e+00
 1.7777777778e+00	 0.0000000000e+00	 3.2787278234e+00
 1.7776798097e+00	 1.8663366992e-02	 3.2764490585e+00
 1.7773842286e+00	 3.7404960328e-02	 3.2704611992e+00
 1.7768885445e+00	 5.6222127583e-02	 3.2607239878e+00
 1.7761903033e+00	 7.5112141246e-02	 3.2475132053e+00
 1.7752870891e+00	 9.4072198906e-02	 3.2313538228e+00
 1.7383019414e+00	 9.2112361429e-02	 3.3099719016e+00
 1.7372145156e+00	 1.1074318553e-01	 3.2892219148e+00
 1.7359217778e+00	 1.2943688745e-01	 3.2627593732e+00
 1.7344214888e+00	 1.4819050502e-01	 3.2316545293e+00
 1.7327114564e+00	 1.6700100429e-01	 3.1968331491e+00
 1.7307895378e+00	 1.8586528009e-01	 3.1590215752e+00
 1.7456989709e+00	 9.2504328924e-02	 3.2948770552e+00
 1.7446069178e+00	 1.1121443313e-01	 3.2742889169e+00
 1.7433086790e+00	 1.2998768271e-01	 3.2480005068e+00
 1.7418020057e+00	 1.4882110291e-01	 3.2170378223e+00
 1.7400846966e+00	 1.6771164686e-01	 3.1822899732e+00
 1.7381545997e+00	 1.8665619617e-01	 3.1444454020e+00
 1.7530960004e+00	 9.2896296420e-02	 3.2795673725e+00
 1.7519993200e+00	 1.1168568073e-01	 3.2591606868e+00
 1.7506955802e+00	 1.3053847798e-01	 3.2331098806e+00
 1.7491825227e+00	 1.4945170081e-01	 3.2023793169e+00
 1.7474579369e+00	 1.6842228944e-01	 3.1678041662e+00
 1.7455196615e+00	 1.8744711226e-01	 3.1300175274e+00
 1.7604930300e+00	 9.3288263915e-02	 3.2639428457e+00
 1.7593917222e+00	 1.1215692833e-01	 3.2436855207e+00
 1.7580824813e+00	 1.3108927325e-01	 3.2178831945e+00
 1.7565630397e+00	 1.5008229870e-01	 3.1874230652e+00
 1.7548311771e+00	 1.6913293201e-01	 3.1530709460e+00
 1.7528847234e+00	 1.8823802835e-01	 3.1153890212e+00
 1.7678900595e+00	 9.3680231411e-02	 3.2479043899e+00
 1.7667841244e+00	 1.1262817593e-01	 3.2277129769e+00
 1.7654693825e+00	 1.3164006851e-01	 3.2021177217e+00
 1.7639435567e+00	 1.5071289660e-01	 3.1719149850e+00
 1.7622044173e+00	 1.6984357458e-01	 3.1377876778e+00
 1.7602497852e+00	 1.8902894443e-01	 3.1002133804e+00
 1.7752870891e+00	 9.4072198906e-02	 3.2313538228e+00
 1.7741765266e+00	 1.1309942352e-01	 3.2110938475e+00
 1.7728562837e+00	 1.3219086378e-01	 3.1856122744e+00
 1.7713240736e+00	 1.5134349449e-01	 3.1556028209e+00
 1.7695776576e+00	 1.7055421715e-01	 3.1216538339e+00
 1.7676148471e+00	 1.8981986052e-01	 3.0841464904e+00
 1.7307895378e+00	 1.8586528009e-01	 3.1590215752e+00
 1.7286536420e+00	 2.0478015669e-01	 3.1199917146e+00
 1.7263017320e+00	 2.2374238858e-01	 3.0795751746e+00
 1.7237318277e+00	 2.4274866134e-01	 3.0351291549e+00
 1.7209420078e+00	 2.6179559255e-01	 2.9836275154e+00
 1.7179304125e+00	 2.8087973282e-01	 2.9216582209e+00
 1.7381545997e+00	 1.8665619617e-01	 3.1444454020e+00
 1.7360096149e+00	 2.0565156161e-01	 3.1052882801e+00
 1.7336476969e+00	 2.2469448385e-01	 3.0647760499e+00
 1.7310668568e+00	 2.4378163437e-01	 3.0203713723e+00
 1.7282651653e+00	 2.6290961635e-01	 2.9691184161e+00
 1.7252407547e+00	 2.8207496573e-01	 2.9076308503e+00
 1.7455196615e+00	 1.8744711226e-01	 3.1300175274e+00
 1.7433655879e+00	 2.0652296653e-01	 3.0908054175e+00
 1.7409936617e+00	 2.2564657912e-01	 3.0502629540e+00
 1.7384018858e+00	 2.4481460740e-01	 3.0059728979e+00
 1.7355883228e+00	 2.6402364015e-01	 2.9550627066e+00
 1.7325510969e+00	 2.8327019863e-01	 2.8941827164e+00
 1.7528847234e+00	 1.8823802835e-01	 3.1153890212e+00
 1.7507215608e+00	 2.0739437145e-01	 3.0761530482e+00
 1.7483396265e+00	 2.2659867439e-01	 3.0356056554e+00
 1.7457369149e+00	 2.4584758042e-01	 2.9914657239e+00
 1.7429114802e+00	 2.6513766394e-01	 2.9409583353e+00
 1.7398614390e+00	 2.8446543154e-01	 2.8807827757e+00
 1.7602497852e+00	 1.8902894443e-01	 3.1002133804e+00
 1.7580775338e+00	 2.0826577637e-01	 3.0609438672e+00
 1.7556855913e+00	 2.2755076966e-01	 3.0203771821e+00
 1.7530719439e+00	 2.4688055345e-01	 2.9763857433e+00
 1.7502346377e+00	 2.6625168774e-01	 2.9263079620e+00
 1.7471717812e+00	 2.8566066444e-01	 2.8669056911e+00
 1.7676148471e+00	 1.8981986052e-01	 3.0841464904e+00
 1.7654335067e+00	 2.0913718130e-01	 3.0447933077e+00
 1.7630315561e+00	 2.2850286493e-01	 3.0041537901e+00
 1.7604069730e+00	 2.4791352648e-01	 2.9602727228e+00
 1.7575577952e+00	 2.6736571154e-01	 2.9106189375e+00
 1.7544821234e+00	 2.8685589735e-01	 2.8520318203e+00
 1.7179304125e+00	 2.8087973282e-01	 2.9216582209e+00
 1.7146952459e+00	 2.9999756695e-01	 2.8507185579e+00
 1.7112347784e+00	 3.1914551510e-01	 2.7768208291e+00
 1.7075473489e+00	 3.3831993415e-01	 2.7028907740e+00
 1.7036313674e+00	 3.5751711906e-01	 2.6317242737e+00
 1.6994853173e+00	 3.7673330439e-01	 2.5665177712e+00
 1.7252407547e+00	 2.8207496573e-01	 2.9076308503e+00
 1.7219918214e+00	 3.0127415234e-01	 2.8371891330e+00
 1.7185166285e+00	 3.2050358113e-01	 2.7635438644e+00
 1.7148135078e+00	 3.3975959345e-01	 2.6894845269e+00
 1.7108808626e+00	 3.5903846851e-01	 2.6175904297e+00
 1.7067171697e+00	 3.7833642483e-01	 2.5510183974e+00
 1.7325510969e+00	 2.8327019863e-01	 2.8941827164e+00
 1.7292883969e+00	 3.0255073773e-01	 2.8243900633e+00
 1.7257984786e+00	 3.2186164715e-01	 2.7511338643e+00
 1.7220796667e+00	 3.4119925274e-01	 2.6770245376e+00
 1.7181303578e+00	 3.6055981795e-01	 2.6043790201e+00
 1.7139490222e+00	 3.7993954528e-01	 2.5363478521e+00
 1.7398614390e+00	 2.8446543154e-01	 2.8807827757e+00
 1.7365849724e+00	 3.0382732312e-01	 2.8117714115e+00
 1.7330803287e+00	 3.2321971317e-01	 2.7390374932e+00
 1.7293458257e+00	 3.4263891204e-01	 2.6649713343e+00
 1.7253798530e+00	 3.6208116739e-01	 2.5915833930e+00
 1.7211808746e+00	 3.8154266572e-01	 2.5220616054e+00
 1.7471717812e+00	 2.8566066444e-01	 2.8669056911e+00
 1.7438815480e+00	 3.0510390851e-01	 2.7987900774e+00
 1.7403621788e+00	 3.2457777919e-01	 2.7267094609e+00
 1.7366119846e+00	 3.4407857133e-01	 2.6527947786e+00
 1.7326293481e+00	 3.6360251683e-01	 2.5787075988e+00
 1.7284127270e+00	 3.8314578617e-01	 2.5077268857e+00
 1.7544821234e+00	 2.8685589735e-01	 2.8520318203e+00
 1.7511781235e+00	 3.0638049390e-01	 2.7849097968e+00
 1.7476440290e+00	 3.2593584521e-01	 2.7136125380e+00
 1.7438781435e+00	 3.4551823062e-01	 2.6399741022e+00
 1.7398788433e+00	 3.6512386628e-01	 2.5652664536e+00
 1.7356445794e+00	 3.8474890661e-01	 2.4929225105e+00
 1.6994853173e+00	 3.7673330439e-01	 2.5665177712e+00
 1.6951077576e+00	 3.9596466588e-01	 2.4980247707e+00
 1.6904973251e+00	 4.1520732216e-01	 2.4137544349e+00
 1.6856527368e+00	 4.3445733650e-01	 2.3186370243e+00
 1.6805727923e+00	 4.5371071868e-01	 2.2177960801e+00
 1.6752563754e+00	 4.7296342700e-01	 2.1165769118e+00
 1.7067171697e+00	 3.7833642483e-01	 2.5510183974e+00
 1.7023209821e+00	 3.9764962191e-01	 2.4822276261e+00
 1.6976909307e+00	 4.1697416183e-01	 2.3989153585e+00
 1.6928257272e+00	 4.3630609112e-01	 2.3052733128e+00
 1.6877241659e+00	 4.5564140259e-01	 2.2056836618e+00
 1.6823851259e+00	 4.7497603733e-01	 2.1047518213e+00
 1.7139490222e+00	 3.7993954528e-01	 2.5363478521e+00
 1.7095342066e+00	 3.9933457793e-01	 2.4670880908e+00
 1.7048845364e+00	 4.1874100150e-01	 2.3845288086e+00
 1.6999987176e+00	 4.3815484574e-01	 2.2921761033e+00
 1.6948755395e+00	 4.5757208650e-01	 2.1937237890e+00
 1.6895138764e+00	 4.7698864766e-01	 2.0930904531e+00
 1.7211808746e+00	 3.8154266572e-01	 2.5220616054e+00
 1.7167474311e+00	 4.0101953396e-01	 2.4522234969e+00
 1.7120781420e+00	 4.2050784117e-01	 2.3702670968e+00
 1.7071717080e+00	 4.4000360037e-01	 2.2790645857e+00
 1.7020269131e+00	 4.5950277041e-01	 2.1816732333e+00
 1.6966426270e+00	 4.7900125799e-01	 2.0813766894e+00
 1.7284127270e+00	 3.8314578617e-01	 2.5077268857e+00
 1.7239606556e+00	 4.0270448998e-01	 2.4372626319e+00
 1.7192717476e+00	 4.2227468084e-01	 2.3558137571e+00
 1.7143446983e+00	 4.4185235499e-01	 2.2656690224e+00
 1.7091782866e+00	 4.6143345432e-01	 2.1692997799e+00
 1.7037713775e+00	 4.8101386832e-01	 2.0694054723e+00
 1.7356445794e+00	 3.8474890661e-01	 2.4929225105e+00
 1.7311738801e+00	 4.0438944601e-01	 2.4218455657e+00
 1.7264653533e+00	 4.2404152051e-01	 2.3408633665e+00
 1.7215176887e+00	 4.4370110961e-01	 2.2517305550e+00
 1.7163296602e+00	 4.6336413823e-01	 2.1563820195e+00
 1.7109001280e+00	 4.8302647864e-01	 2.0569825751e+00
 1.6752563754e+00	 4.7296342700e-01	 2.1165769118e+00
 1.6697024566e+00	 4.9221137030e-01	 2.0189549832e+00
 1.6639100951e+00	 5.1145041009e-01	 1.9238504377e+00
 1.6578784408e+00	 5.3067636284e-01	 1.8294740056e+00
 1.6516067361e+00	 5.4988500227e-01	 1.7344108471e+00
 1.6450943180e+00	 5.6907206175e-01	 1.6376368808e+00
 1.6823851259e+00	 4.7497603733e-01	 2.1047518213e+00
 1.6768075734e+00	 4.9430588677e-01	 2.0064586314e+00
 1.6709905636e+00	 5.1362679481e-01	 1.9104533831e+00
 1.6649332427e+00	 5.3293456013e-01	 1.8152979972e+00
 1.6586348499e+00	 5.5222493845e-01	 1.7199320988e+00
 1.6520947193e+00	 5.7149364500e-01	 1.6236901881e+00
 1.6895138764e+00	 4.7698864766e-01	 2.0930904531e+00
 1.6839126902e+00	 4.9640040324e-01	 1.9942196348e+00
 1.6780710321e+00	 5.1580317954e-01	 1.8973929704e+00
 1.6719880445e+00	 5.3519275742e-01	 1.8014966473e+00
 1.6656629636e+00	 5.5456487463e-01	 1.7057995066e+00
 1.6590951207e+00	 5.7391522824e-01	 1.6099711713e+00
 1.6966426270e+00	 4.7900125799e-01	 2.0813766894e+00
 1.6910178071e+00	 4.9849491971e-01	 1.9820475013e+00
 1.6851515005e+00	 5.1797956426e-01	 1.8845125867e+00
 1.6790428464e+00	 5.3745095471e-01	 1.7879554644e+00
 1.6726910774e+00	 5.5690481081e-01	 1.6919489536e+00
 1.6660955220e+00	 5.7633681148e-01	 1.5964743752e+00
 1.7037713775e+00	 4.8101386832e-01	 2.0694054723e+00
 1.6981229239e+00	 5.0058943618e-01	 1.9697627930e+00
 1.6922319690e+00	 5.2015594899e-01	 1.8716664459e+00
 1.6860976483e+00	 5.3970915200e-01	 1.7745703305e+00
 1.6797191912e+00	 5.5924474699e-01	 1.6783260130e+00
 1.6730959234e+00	 5.7875839472e-01	 1.5832031176e+00
 1.7109001280e+00	 4.8302647864e-01	 2.0569825751e+00
 1.7052280407e+00	 5.0268395265e-01	 1.9571968751e+00
 1.6993124375e+00	 5.2233233371e-01	 1.8587193175e+00
 1.6931524502e+00	 5.4196734928e-01	 1.7612472114e+00
 1.6867473050e+00	 5.6158468317e-01	 1.6648856423e+00
 1.6800963247e+00	 5.8117997796e-01	 1.5701691699e+00
 1.6450943180e+00	 5.6907206175e-01	 1.6376368808e+00
 1.6383406195e+00	 5.8823323685e-01	 1.5328224971e+00
 1.6313451719e+00	 6.0736418786e-01	 1.4180985493e+00
 1.6241076058e+00	 6.2646054246e-01	 1.2996727681e+00
 1.6166276532e+00	 6.4551789849e-01	 1.1840442411e+00
 1.6089051488e+00	 6.6453182672e-01	 1.0779537558e+00
 1.6520947193e+00	 5.7149364500e-01	 1.6236901881e+00
 1.6453122817e+00	 5.9073635701e-01	 1.5200808275e+00
 1.6382870662e+00	 6.0994871632e-01	 1.4066023796e+00
 1.6310187020e+00	 6.2912633200e-01	 1.2891345066e+00
 1.6235069198e+00	 6.4826478316e-01	 1.1738703054e+00
 1.6157515537e+00	 6.6735962173e-01	 1.0672673754e+00
 1.6590951207e+00	 5.7391522824e-01	 1.6099711713e+00
 1.6522839439e+00	 5.9323947717e-01	 1.5074212422e+00
 1.6452289606e+00	 6.1253324478e-01	 1.3950865782e+00
 1.6379297982e+00	 6.3179212154e-01	 1.2785089848e+00
 1.6303861865e+00	 6.5101166784e-01	 1.1635659056e+00
 1.6225979586e+00	 6.7018741674e-01	 1.0564222232e+00
 1.6660955220e+00	 5.7633681148e-01	 1.5964743752e+00
 1.6592556061e+00	 5.9574259732e-01	 1.4948971642e+00
 1.6521708549e+00	 6.1511777323e-01	 1.3836555104e+00
 1.6448408944e+00	 6.3445791109e-01	 1.2679435326e+00
 1.6372654531e+00	 6.5375855251e-01	 1.1533133588e+00
 1.6294443634e+00	 6.7301521174e-01	 1.0456276675e+00
 1.6730959234e+00	 5.7875839472e-01	 1.5832031176e+00
 1.6662272684e+00	 5.9824571748e-01	 1.4825697727e+00
 1.6591127493e+00	 6.1770230169e-01	 1.3724203166e+00
 1.6517519906e+00	 6.3712370063e-01	 1.2575913114e+00
 1.6441447197e+00	 6.5650543719e-01	 1.1432999089e+00
 1.6362907683e+00	 6.7584300675e-01	 1.0350971406e+00
 1.6800963247e+00	 5.8117997796e-01	 1.5701691699e+00
 1.6731989306e+00	 6.0074883764e-01	 1.4705076696e+00
 1.6660546436e+00	 6.2028683015e-01	 1.3614985614e+00
 1.6586630868e+00	 6.3978949017e-01	 1.2476109428e+00
 1.6510239863e+00	 6.5925232186e-01	 1.1337173318e+00
 1.6431371732e+00	 6.7867080176e-01	 1.0250477161e+00
 1.6089051488e+00	 6.6453182672e-01	 1.0779537558e+00
 1.6009400311e+00	 6.8349787376e-01	 9.7820977955e-01
 1.5927323441e+00	 7.0241156498e-01	 8.7645030574e-01
 1.5842822383e+00	 7.2126840757e-01	 7.7198725031e-01
 1.5755899720e+00	 7.4006389356e-01	 6.6431150686e-01
 1.5666559119e+00	 7.5879350301e-01	 5.4646178764e-01
 1.6157515537e+00	 6.6735962173e-01	 1.0672673754e+00
 1.6077525418e+00	 6.8640637535e-01	 9.6693645370e-01
 1.5995099285e+00	 7.0540055037e-01	 8.6546377648e-01
 1.5910238649e+00	 7.2433763484e-01	 7.6211892821e-01
 1.5822946102e+00	 7.4321310162e-01	 6.5626157609e-01
 1.5733225328e+00	 7.6202241153e-01	 5.3903983998e-01
 1.6225979586e+00	 6.7018741674e-01	 1.0564222232e+00
 1.6145650526e+00	 6.8931487694e-01	 9.5543056487e-01
 1.6062875130e+00	 7.0838953575e-01	 8.5412018116e-01
 1.5977654914e+00	 7.2740686210e-01	 7.5179213978e-01
 1.5889992484e+00	 7.4636230968e-01	 6.4747763777e-01
 1.5799891537e+00	 7.6525132006e-01	 5.3112274296e-01
 1.6294443634e+00	 6.7301521174e-01	 1.0456276675e+00
 1.6213775634e+00	 6.9222337853e-01	 9.4392089336e-01
 1.6130650974e+00	 7.1137852113e-01	 8.4265971519e-01
 1.6045071180e+00	 7.3047608937e-01	 7.4124961609e-01
 1.5957038866e+00	 7.4951151774e-01	 6.3822898256e-01
 1.5866557746e+00	 7.6848022858e-01	 5.2294416603e-01
 1.6362907683e+00	 6.7584300675e-01	 1.0350971406e+00
 1.6281900741e+00	 6.9513188012e-01	 9.3263946038e-01
 1.6198426818e+00	 7.1436750652e-01	 8.3132504382e-01
 1.6112487445e+00	 7.3354531663e-01	 7.3073585971e-01
 1.6024085247e+00	 7.5266072579e-01	 6.2878410346e-01
 1.5933223955e+00	 7.7170913710e-01	 5.1473022886e-01
 1.6431371732e+00	 6.7867080176e-01	 1.0250477161e+00
 1.6350025849e+00	 6.9804038171e-01	 9.2182107623e-01
 1.6266202663e+00	 7.1735649190e-01	 8.2036081743e-01
 1.6179903711e+00	 7.3661454390e-01	 7.2049662387e-01
 1.6091131629e+00	 7.5580993385e-01	 6.1940339802e-01
 1.5999890164e+00	 7.7493804563e-01	 5.0669961637e-01
 1.5666559119e+00	 7.5879350301e-01	 5.4646178764e-01
 1.5574805343e+00	 7.7745270716e-01	 4.2093951378e-01
 1.5480644257e+00	 7.9603697169e-01	 3.0117583053e-01
 1.5384082838e+00	 8.1454175999e-01	 1.8804086803e-01
 1.5285129176e+00	 8.3296253649e-01	 8.2198442415e-02
 1.5183792481e+00	 8.5129477005e-01	-1.5957005181e-02
 1.5733225328e+00	 7.6202241153e-01	 5.3903983998e-01
 1.5641081110e+00	 7.8076101655e-01	 4.1369662093e-01
 1.5546519339e+00	 7.9942436306e-01	 2.9323031503e-01
 1.5449547020e+00	 8.1800789514e-01	 1.7903869666e-01
 1.5350172279e+00	 8.3650705793e-01	 7.2307154135e-02
 1.5248404364e+00	 8.5491730098e-01	-2.6056682291e-02
 1.5799891537e+00	 7.6525132006e-01	 5.3112274296e-01
 1.5707356877e+00	 7.8406932594e-01	 4.0635928634e-01
 1.5612394421e+00	 8.0281175443e-01	 2.8563534773e-01
 1.5515011203e+00	 8.2147403028e-01	 1.7074349533e-01
 1.5415215382e+00	 8.4005157936e-01	 6.3260131381e-02
 1.5313016246e+00	 8.5853983192e-01	-3.5521883564e-02
 1.5866557746e+00	 7.6848022858e-01	 5.2294416603e-01
 1.5773632645e+00	 7.8737763534e-01	 3.9912301363e-01
 1.5678269503e+00	 8.0619914579e-01	 2.7856933635e-01
 1.5580475385e+00	 8.2494016543e-01	 1.6333934430e-01
 1.5480258485e+00	 8.4359610079e-01	 5.5271586120e-02
 1.5377628129e+00	 8.6216236286e-01	-4.4082124974e-02
 1.5933223955e+00	 7.7170913710e-01	 5.1473022886e-01
 1.5839908412e+00	 7.9068594473e-01	 3.9217633926e-01
 1.5744144585e+00	 8.0958653716e-01	 2.7220394350e-01
 1.5645939567e+00	 8.2840630058e-01	 1.5700341023e-01
 1.5545301588e+00	 8.4714062222e-01	 4.8548228576e-02
 1.5442240012e+00	 8.6578489379e-01	-5.1475460980e-02
 1.5999890164e+00	 7.7493804563e-01	 5.0669961637e-01
 1.5906184180e+00	 7.9399425412e-01	 3.8570093896e-01
 1.5810019667e+00	 8.1297392853e-01	 2.6670419122e-01
 1.5711403750e+00	 8.3187243573e-01	 1.5190605669e-01
 1.5610344690e+00	 8.5068514365e-01	 4.3289391716e-02
 1.5506851895e+00	 8.6940742473e-01	-5.7448337285e-02
 1.5183792481e+00	 8.5129477005e-01	-1.5957005181e-02
 1.5080083085e+00	 8.6953393729e-01	-1.1232356421e-01
 1.4974012445e+00	 8.8767552606e-01	-2.1531280158e-01
 1.4865593143e+00	 9.0571503889e-01	-3.2887962639e-01
 1.4754838885e+00	 9.2364799640e-01	-4.5214904998e-01
 1.4641764501e+00	 9.4146994080e-01	-5.6598053796e-01
 1.5248404364e+00	 8.5491730098e-01	-2.6056682291e-02
 1.5144253651e+00	 8.7323408170e-01	-1.2129252228e-01
 1.5037731646e+00	 8.9145286873e-01	-2.2129670374e-01
 1.4928850986e+00	 9.0956914544e-01	-3.2975014041e-01
 1.4817625433e+00	 9.2757841340e-01	-4.5086439719e-01
 1.4704069882e+00	 9.4547619587e-01	-5.7319077725e-01
 1.5313016246e+00	 8.5853983192e-01	-3.5521883564e-02
 1.5208424217e+00	 8.7693422612e-01	-1.3029504653e-01
 1.5101450848e+00	 8.9523021139e-01	-2.2839751482e-01
 1.4992108829e+00	 9.1342325199e-01	-3.3313025021e-01
 1.4880411982e+00	 9.3150883041e-01	-4.4834850966e-01
 1.4766375263e+00	 9.4948245094e-01	-5.7546489711e-01
 1.5377628129e+00	 8.6216236286e-01	-4.4082124974e-02
 1.5272594784e+00	 8.8063437053e-01	-1.3899006424e-01
 1.5165170050e+00	 8.9900755406e-01	-2.3620303325e-01
 1.5055366672e+00	 9.1727735854e-01	-3.3853734018e-01
 1.4943198530e+00	 9.3543924742e-01	-4.4938662215e-01
 1.4828680644e+00	 9.5348870600e-01	-5.7280335345e-01
 1.5442240012e+00	 8.6578489379e-01	-5.1475460980e-02
 1.5336765350e+00	 8.8433451494e-01	-1.4704632906e-01
 1.5228889252e+00	 9.0278489672e-01	-2.4431219235e-01
 1.5118624515e+00	 9.2113146508e-01	-3.4550123777e-01
 1.5005985079e+00	 9.3936966442e-01	-4.5344140126e-01
 1.4890986024e+00	 9.5749496107e-01	-5.7164515991e-01
 1.5506851895e+00	 8.6940742473e-01	-5.7448337285e-02
 1.5400935916e+00	 8.8803465936e-01	-1.5414224639e-01
 1.5292608454e+00	 9.0656223938e-01	-2.5233485869e-01
 1.5181882358e+00	 9.2498557163e-01	-3.5356398528e-01
 1.5068771627e+00	 9.4330008143e-01	-4.5998898932e-01
 1.4953291405e+00	 9.6150121614e-01	-5.7447911388e-01
 1.4641764501e+00	 9.4146994080e-01	-5.6598053796e-01
 1.4526385939e+00	 9.5917643938e-01	-6.6604254565e-01
 1.4408720264e+00	 9.7676308797e-01	-7.5017192019e-01
 1.4288785648e+00	 9.9422551438e-01	-8.2994025976e-01
 1.4166601368e+00	 1.0115593819e+00	-9.1751188237e-01
 1.4042187794e+00	 1.0287603929e+00	-1.0253640203e+00
 1.4704069882e+00	 9.4547619587e-01	-5.7319077725e-01
 1.4588200348e+00	 9.6325804125e-01	-6.7674819579e-01
 1.4470033967e+00	 9.8091952664e-01	-7.6112426617e-01
 1.4349588991e+00	 9.9845626125e-01	-8.3882137917e-01
 1.4226884778e+00	 1.0158638899e+00	-9.2292901358e-01
 1.4101941785e+00	 1.0331380967e+00	-1.0268359637e+00
 1.4766375263e+00	 9.4948245094e-01	-5.7546489711e-01
 1.4650014756e+00	 9.6733964312e-01	-6.8472807564e-01
 1.4531347670e+00	 9.8507596531e-01	-7.7097053977e-01
 1.4410392335e+00	 1.0026870081e+00	-8.4762124218e-01
 1.4287168188e+00	 1.0201683980e+00	-9.2869960330e-01
 1.4161695776e+00	 1.0375158005e+00	-1.0285197294e+00
 1.4828680644e+00	 9.5348870600e-01	-5.7280335345e-01
 1.4711829164e+00	 9.7142124499e-01	-6.8969120694e-01
 1.4592661374e+00	 9.8923240398e-01	-7.7942589746e-01
 1.4471195678e+00	 1.0069177550e+00	-8.5610992542e-01
 1.4347451599e+00	 1.0244729060e+00	-9.3469765628e-01
 1.4221449766e+00	 1.0418935043e+00	-1.0304424666e+00
 1.4890986024e+00	 9.5749496107e-01	-5.7164515991e-01
 1.4773643572e+00	 9.7550284686e-01	-6.9135632291e-01
 1.4653975077e+00	 9.9338884266e-01	-7.8621490348e-01
 1.4531999021e+00	 1.0111485019e+00	-8.6406562874e-01
 1.4407735009e+00	 1.0287774140e+00	-9.4080303433e-01
 1.4281203757e+00	 1.0462712081e+00	-1.0326339351e+00
 1.4953291405e+00	 9.6150121614e-01	-5.7447911388e-01
 1.4835457981e+00	 9.7958444873e-01	-6.8993319041e-01
 1.4715288780e+00	 9.9754528133e-01	-7.9107213447e-01
 1.4592802364e+00	 1.0153792487e+00	-8.7127530197e-01
 1.4468018419e+00	 1.0330819220e+00	-9.4690212190e-01
 1.4340957747e+00	 1.0506489119e+00	-1.0351272258e+00
 1.4042187794e+00	 1.0287603929e+00	-1.0253640203e+00
 1.3915566382e+00	 1.0458242917e+00	-1.1316600997e+00
 1.3786759660e+00	 1.0627468689e+00	-1.2138232919e+00
 1.3655791219e+00	 1.0795239637e+00	-1.2828963861e+00
 1.3522685700e+00	 1.0961514681e+00	-1.3491294620e+00
 1.3387468776e+00	 1.1126253296e+00	-1.4213951236e+00
 1.4101941785e+00	 1.0331380967e+00	-1.0268359637e+00
 1.3974781558e+00	 1.0502746079e+00	-1.1303245010e+00
 1.3845426722e+00	 1.0672691960e+00	-1.2119523830e+00
 1.3713900969e+00	 1.0841176827e+00	-1.2829875721e+00
 1.3580229044e+00	 1.1008159424e+00	-1.3539724521e+00
 1.3444436729e+00	 1.1173599055e+00	-1.4307429495e+00
 1.4161695776e+00	 1.0375158005e+00	-1.0285197294e+00
 1.4033996734e+00	 1.0547249240e+00	-1.1288971701e+00
 1.3904093785e+00	 1.0717915231e+00	-1.2099608968e+00
 1.3772010719e+00	 1.0887114017e+00	-1.2832517089e+00
 1.3637772387e+00	 1.1054804168e+00	-1.3596436356e+00
 1.3501404681e+00	 1.1220944814e+00	-1.4380060735e+00
 1.4221449766e+00	 1.0418935043e+00	-1.0304424666e+00
 1.4093211910e+00	 1.0591752401e+00	-1.1275475016e+00
 1.3962760847e+00	 1.0763138502e+00	-1.2080891673e+00
 1.3830120469e+00	 1.0933051207e+00	-1.2839286191e+00
 1.3695315730e+00	 1.1101448911e+00	-1.3663108484e+00
 1.3558372633e+00	 1.1268290572e+00	-1.4434167970e+00
 1.4281203757e+00	 1.0462712081e+00	-1.0326339351e+00
 1.4152427086e+00	 1.0636255563e+00	-1.1264442843e+00
 1.4021427909e+00	 1.0808361773e+00	-1.2065747567e+00
 1.3888230219e+00	 1.0978988397e+00	-1.2852542481e+00
 1.3752859074e+00	 1.1148093654e+00	-1.3730335314e+00
 1.3615340585e+00	 1.1315636331e+00	-1.4472132987e+00
 1.4340957747e+00	 1.0506489119e+00	-1.0351272258e+00
 1.4211642262e+00	 1.0680758724e+00	-1.1257564743e+00
 1.4080094972e+00	 1.0853585044e+00	-1.2056532543e+00
 1.3946339969e+00	 1.1024925587e+00	-1.2874614634e+00
 1.3810402417e+00	 1.1194738398e+00	-1.3777549405e+00
 1.3672308537e+00	 1.1362982090e+00	-1.4496392980e+00
 1.3387468776e+00	 1.1126253296e+00	-1.4213951236e+00
 1.3250167139e+00	 1.1289415548e+00	-1.4956942067e+00
 1.3110808483e+00	 1.1450962124e+00	-1.5692868988e+00
 1.2969421483e+00	 1.1610854363e+00	-1.6385103199e+00
 1.2826035779e+00	 1.1769054288e+00	-1.6991342486e+00
 1.2680681955e+00	 1.1925524634e+00	-1.7465041581e+00
 1.3444436729e+00	 1.1173599055e+00	-1.4307429495e+00
 1.3306550829e+00	 1.1337455615e+00	-1.5005678183e+00
 1.3166599157e+00	 1.1499689623e+00	-1.5707905544e+00
 1.3024610511e+00	 1.1660262254e+00	-1.6378292573e+00
 1.2880614655e+00	 1.1819135370e+00	-1.6974609924e+00
 1.2734642304e+00	 1.1976271548e+00	-1.7449689988e+00
 1.3501404681e+00	 1.1220944814e+00	-1.4380060735e+00
 1.3362934519e+00	 1.1385495681e+00	-1.5044677741e+00
 1.3222389832e+00	 1.1548417121e+00	-1.5720882899e+00
 1.3079799538e+00	 1.1709670145e+00	-1.6373842173e+00
 1.2935193531e+00	 1.1869216452e+00	-1.6961624713e+00
 1.2788602653e+00	 1.2027018461e+00	-1.7436717421e+00
 1.3558372633e+00	 1.1268290572e+00	-1.4434167970e+00
 1.3419318209e+00	 1.1433535747e+00	-1.5074767415e+00
 1.3278180506e+00	 1.1597144619e+00	-1.5731558358e+00
 1.3134988566e+00	 1.1759078036e+00	-1.6370863824e+00
 1.2989772406e+00	 1.1919297534e+00	-1.6951273327e+00
 1.2842563001e+00	 1.2077765374e+00	-1.7425200677e+00
 1.3615340585e+00	 1.1315636331e+00	-1.4472132987e+00
 1.3475701899e+00	 1.1481575813e+00	-1.5096855270e+00
 1.3333971181e+00	 1.1645872118e+00	-1.5739786650e+00
 1.3190177593e+00	 1.1808485927e+00	-1.6368576252e+00
 1.3044351282e+00	 1.1969378616e+00	-1.6942552054e+00
 1.2896523350e+00	 1.2128512288e+00	-1.7414322730e+00
 1.3672308537e+00	 1.1362982090e+00	-1.4496392980e+00
 1.3532085589e+00	 1.1529615879e+00	-1.5111927023e+00
 1.3389761855e+00	 1.1694599616e+00	-1.5745515991e+00
 1.3245366621e+00	 1.1857893818e+00	-1.6366301085e+00
 1.3098930158e+00	 1.2019459698e+00	-1.6934563086e+00
 1.2950483699e+00	 1.2179259201e+00	-1.7403369064e+00
 1.2680681955e+00	 1.1925524634e+00	-1.7465041581e+00
 1.2533391515e+00	 1.2080228880e+00	-1.7892110053e+00
 1.2384196861e+00	 1.2233131273e+00	-1.8357866438e+00
 1.2233131273e+00	 1.2384196861e+00	-1.8811562588e+00
 1.2080228880e+00	 1.2533391515e+00	-1.9202411716e+00
 1.1925524634e+00	 1.2680681955e+00	-1.9481283834e+00
 1.2734642304e+00	 1.1976271548e+00	-1.7449689988e+00
 1.2586725095e+00	 1.2131634109e+00	-1.7882284026e+00
 1.2436895571e+00	 1.2285187151e+00	-1.8351987348e+00
 1.2285187151e+00	 1.2436895571e+00	-1.8809057602e+00
 1.2131634109e+00	 1.2586725095e+00	-1.9203711867e+00
 1.1976271548e+00	 1.2734642304e+00	-1.9487870547e+00
 1.2788602653e+00	 1.2027018461e+00	-1.7436717421e+00
 1.2640058676e+00	 1.2183039338e+00	-1.7872586826e+00
 1.2489594281e+00	 1.2337243029e+00	-1.8344653708e+00
 1.2337243029e+00	 1.2489594281e+00	-1.8803992929e+00
 1.2183039338e+00	 1.2640058676e+00	-1.9201615654e+00
 1.2027018461e+00	 1.2788602653e+00	-1.9490263519e+00
 1.2842563001e+00	 1.2077765374e+00	-1.7425200677e+00
 1.2693392257e+00	 1.2234444568e+00	-1.7862422570e+00
 1.2542292991e+00	 1.2389298907e+00	-1.8335459192e+00
 1.2389298907e+00	 1.2542292991e+00	-1.8796015010e+00
 1.2234444568e+00	 1.2693392257e+00	-1.9195686568e+00
 1.2077765374e+00	 1.2842563001e+00	-1.9487808754e+00
 1.2896523350e+00	 1.2128512288e+00	-1.7414322730e+00
 1.2746725838e+00	 1.2285849797e+00	-1.7851295963e+00
 1.2594991701e+00	 1.2441354784e+00	-1.8324095045e+00
 1.2441354784e+00	 1.2594991701e+00	-1.8784867334e+00
 1.2285849797e+00	 1.2746725838e+00	-1.9185587014e+00
 1.2128512288e+00	 1.2896523350e+00	-1.9479955326e+00
 1.2950483699e+00	 1.2179259201e+00	-1.7403369064e+00
 1.2800059419e+00	 1.2337255026e+00	-1.7838808930e+00
 1.2647690411e+00	 1.2493410662e+00	-1.8310346979e+00
 1.2493410662e+00	 1.2647690411e+00	-1.8770387538e+00
 1.2337255026e+00	 1.2800059419e+00	-1.9171075574e+00
 1.2179259201e+00	 1.2950483699e+00	-1.9466252763e+00
 1.1925524634e+00	 1.2680681955e+00	-1.9481283834e+00
 1.1769054288e+00	 1.2826035779e+00	-1.9744027404e+00
 1.1610854363e+00	 1.2969421483e+00	-2.0067006283e+00
 1.1450962124e+00	 1.3110808483e+00	-2.0376979505e+00
 1.1289415548e+00	 1.3250167139e+00	-2.0605838854e+00
 1.1126253296e+00	 1.3387468776e+00	-2.0692206877e+00
 1.1976271548e+00	 1.2734642304e+00	-1.9487870547e+00
 1.1819135370e+00	 1.2880614655e+00	-1.9748689547e+00
 1.1660262254e+00	 1.3024610511e+00	-2.0055990657e+00
 1.1499689623e+00	 1.3166599157e+00	-2.0341340808e+00
 1.1337455615e+00	 1.3306550829e+00	-2.0542093651e+00
 1.1173599055e+00	 1.3444436729e+00	-2.0603023205e+00
 1.2027018461e+00	 1.2788602653e+00	-1.9490263519e+00
 1.1869216452e+00	 1.2935193531e+00	-1.9749634949e+00
 1.1709670145e+00	 1.3079799538e+00	-2.0044065847e+00
 1.1548417121e+00	 1.3222389832e+00	-2.0309410229e+00
 1.1385495681e+00	 1.3362934519e+00	-2.0487951595e+00
 1.1220944814e+00	 1.3501404681e+00	-2.0530074686e+00
 1.2077765374e+00	 1.2842563001e+00	-1.9487808754e+00
 1.1919297534e+00	 1.2989772406e+00	-1.9745850539e+00
 1.1759078036e+00	 1.3134988566e+00	-2.0029713290e+00
 1.1597144619e+00	 1.3278180506e+00	-2.0279022061e+00
 1.1433535747e+00	 1.3419318209e+00	-2.0440463185e+00
 1.1268290572e+00	 1.3558372633e+00	-2.0469496606e+00
 1.2128512288e+00	 1.2896523350e+00	-1.9479955326e+00
 1.1969378616e+00	 1.3044351282e+00	-1.9736432795e+00
 1.1808485927e+00	 1.3190177593e+00	-2.0011532773e+00
 1.1645872118e+00	 1.3333971181e+00	-2.0248139926e+00
 1.1481575813e+00	 1.3475701899e+00	-2.0396821220e+00
 1.1315636331e+00	 1.3615340585e+00	-2.0417581364e+00
 1.2179259201e+00	 1.2950483699e+00	-1.9466252763e+00
 1.2019459698e+00	 1.3098930158e+00	-1.9720585211e+00
 1.1857893818e+00	 1.3245366621e+00	-1.9988239944e+00
 1.1694599616e+00	 1.3389761855e+00	-2.0214854259e+00
 1.1529615879e+00	 1.3532085589e+00	-2.0354358239e+00
 1.1362982090e+00	 1.3672308537e+00	-2.0370775819e+00
 1.1126253296e+00	 1.3387468776e+00	-2.0692206877e+00
 1.0961514681e+00	 1.3522685700e+00	-2.0698377105e+00
 1.0795239637e+00	 1.3655791219e+00	-2.0689779353e+00
 1.0627468689e+00	 1.3786759660e+00	-2.0688285544e+00
 1.0458242917e+00	 1.3915566382e+00	-2.0732718081e+00
 1.0287603929e+00	 1.4042187794e+00	-2.0874286657e+00
 1.1173599055e+00	 1.3444436729e+00	-2.0603023205e+00
 1.1008159424e+00	 1.3580229044e+00	-2.0636205514e+00
 1.0841176827e+00	 1.3713900969e+00	-2.0660469134e+00
 1.0672691960e+00	 1.3845426722e+00	-2.0678887927e+00
 1.0502746079e+00	 1.3974781558e+00	-2.0727022375e+00
 1.0331380967e+00	 1.4101941785e+00	-2.0852466047e+00
 1.1220944814e+00	 1.3501404681e+00	-2.0530074686e+00
 1.1054804168e+00	 1.3637772387e+00	-2.0577588340e+00
 1.0887114017e+00	 1.3772010719e+00	-2.0636199907e+00
 1.0717915231e+00	 1.3904093785e+00	-2.0672229691e+00
 1.0547249240e+00	 1.4033996734e+00	-2.0719686540e+00
 1.0375158005e+00	 1.4161695776e+00	-2.0824304820e+00
 1.1268290572e+00	 1.3558372633e+00	-2.0469496606e+00
 1.1101448911e+00	 1.3695315730e+00	-2.0517597101e+00
 1.0933051207e+00	 1.3830120469e+00	-2.0611740066e+00
 1.0763138502e+00	 1.3962760847e+00	-2.0663176688e+00
 1.0591752401e+00	 1.4093211910e+00	-2.0706059770e+00
 1.0418935043e+00	 1.4221449766e+00	-2.0786006213e+00
 1.1315636331e+00	 1.3615340585e+00	-2.0417581364e+00
 1.1148093654e+00	 1.3752859074e+00	-2.0456903520e+00
 1.0978988397e+00	 1.3888230219e+00	-2.0582054563e+00
 1.0808361773e+00	 1.4021427909e+00	-2.0646772278e+00
 1.0636255563e+00	 1.4152427086e+00	-2.0681643179e+00
 1.0462712081e+00	 1.4281203757e+00	-2.0733893644e+00
 1.1362982090e+00	 1.3672308537e+00	-2.0370775819e+00
 1.1194738398e+00	 1.3810402417e+00	-2.0402498558e+00
 1.1024925587e+00	 1.3946339969e+00	-2.0542307547e+00
 1.0853585044e+00	 1.4080094972e+00	-2.0618239887e+00
 1.0680758724e+00	 1.4211642262e+00	-2.0642092383e+00
 1.0506489119e+00	 1.4340957747e+00	-2.0664413475e+00
 1.0287603929e+00	 1.4042187794e+00	-2.0874286657e+00
 1.0115593819e+00	 1.4166601368e+00	-2.0915407224e+00
 9.9422551438e-01	 1.4288785648e+00	-2.0700484385e+00
 9.7676308797e-01	 1.4408720264e+00	-2.0352156331e+00
 9.5917643938e-01	 1.4526385939e+00	-1.9992125451e+00
 9.4146994080e-01	 1.4641764501e+00	-1.9737980093e+00
 1.0331380967e+00	 1.4101941785e+00	-2.0852466047e+00
 1.0158638899e+00	 1.4226884778e+00	-2.0859803568e+00
 9.9845626125e-01	 1.4349588991e+00	-2.0607157865e+00
 9.8091952664e-01	 1.4470033967e+00	-2.0230791312e+00
 9.6325804125e-01	 1.4588200348e+00	-1.9866245717e+00
 9.4547619587e-01	 1.4704069882e+00	-1.9645050572e+00
 1.0375158005e+00	 1.4161695776e+00	-2.0824304820e+00
 1.0201683980e+00	 1.4287168188e+00	-2.0797721471e+00
 1.0026870081e+00	 1.4410392335e+00	-2.0514977864e+00
 9.8507596531e-01	 1.4531347670e+00	-2.0125177629e+00
 9.6733964312e-01	 1.4650014756e+00	-1.9776858144e+00
 9.4948245094e-01	 1.4766375263e+00	-1.9614585697e+00
 1.0418935043e+00	 1.4221449766e+00	-2.0786006213e+00
 1.0244729060e+00	 1.4347451599e+00	-2.0726194573e+00
 1.0069177550e+00	 1.4471195678e+00	-2.0421411809e+00
 9.8923240398e-01	 1.4592661374e+00	-2.0032836439e+00
 9.7142124499e-01	 1.4711829164e+00	-1.9721174254e+00
 9.5348870600e-01	 1.4828680644e+00	-1.9640396775e+00
 1.0462712081e+00	 1.4281203757e+00	-2.0733893644e+00
 1.0287774140e+00	 1.4407735009e+00	-2.0642345597e+00
 1.0111485019e+00	 1.4531999021e+00	-2.0323992143e+00
 9.9338884266e-01	 1.4653975077e+00	-1.9951336747e+00
 9.7550284686e-01	 1.4773643572e+00	-1.9696443027e+00
 9.5749496107e-01	 1.4890986024e+00	-1.9646373557e+00
 1.0506489119e+00	 1.4340957747e+00	-2.0664413475e+00
 1.0330819220e+00	 1.4468018419e+00	-2.0543389275e+00
 1.0153792487e+00	 1.4592802364e+00	-2.0220319274e+00
 9.9754528133e-01	 1.4715288780e+00	-1.9878298251e+00
 9.7958444873e-01	 1.4835457981e+00	-1.9694853611e+00
 9.6150121614e-01	 1.4953291405e+00	-1.9602405696e+00
 9.4146994080e-01	 1.4641764501e+00	-1.9737980093e+00
 9.2364799640e-01	 1.4754838885e+00	-1.9579450429e+00
 9.0571503889e-01	 1.4865593143e+00	-1.9494115896e+00
 8.8767552606e-01	 1.4974012445e+00	-1.9267006842e+00
 8.6953393729e-01	 1.5080083085e+00	-1.8891382071e+00
 8.5129477005e-01	 1.5183792481e+00	-1.8417601173e+00
 9.4547619587e-01	 1.4704069882e+00	-1.9645050572e+00
 9.2757841340e-01	 1.4817625433e+00	-1.9578115166e+00
 9.0956914544e-01	 1.4928850986e+00	-1.9464442994e+00
 8.9145286873e-01	 1.5037731646e+00	-1.9177575461e+00
 8.7323408170e-01	 1.5144253651e+00	-1.8769276919e+00
 8.5491730098e-01	 1.5248404364e+00	-1.8287060625e+00
 9.4948245094e-01	 1.4766375263e+00	-1.9614585697e+00
 9.3150883041e-01	 1.4880411982e+00	-1.9597011413e+00
 9.1342325199e-01	 1.4992108829e+00	-1.9412873635e+00
 8.9523021139e-01	 1.5101450848e+00	-1.9081204123e+00
 8.7693422612e-01	 1.5208424217e+00	-1.8650144560e+00
 8.5853983192e-01	 1.5313016246e+00	-1.8163275306e+00
 9.5348870600e-01	 1.4828680644e+00	-1.9640396775e+00
 9.3543924742e-01	 1.4943198530e+00	-1.9578620649e+00
 9.1727735854e-01	 1.5055366672e+00	-1.9342360313e+00
 8.9900755406e-01	 1.5165170050e+00	-1.8980477740e+00
 8.8063437053e-01	 1.5272594784e+00	-1.8536386368e+00
 8.6216236286e-01	 1.5377628129e+00	-1.8048660035e+00
 9.5749496107e-01	 1.4890986024e+00	-1.9646373557e+00
 9.3936966442e-01	 1.5005985079e+00	-1.9526422844e+00
 9.2113146508e-01	 1.5118624515e+00	-1.9255853774e+00
 9.0278489672e-01	 1.5228889252e+00	-1.8877985820e+00
 8.8433451494e-01	 1.5336765350e+00	-1.8430411511e+00
 8.6578489379e-01	 1.5442240012e+00	-1.7945637242e+00
 9.6150121614e-01	 1.4953291405e+00	-1.9602405696e+00
 9.4330008143e-01	 1.5068771627e+00	-1.9443886150e+00
 9.2498557163e-01	 1.5181882358e+00	-1.9156302090e+00
 9.0656223938e-01	 1.5292608454e+00	-1.8776321499e+00
 8.8803465936e-01	 1.5400935916e+00	-1.8334636011e+00
 8.6940742473e-01	 1.5506851895e+00	-1.7856636116e+00
 8.5129477005e-01	 1.5183792481e+00	-1.8417601173e+00
 8.3296253649e-01	 1.5285129176e+00	-1.7919141587e+00
 8.1454175999e-01	 1.5384082838e+00	-1.7446023449e+00
 7.9603697169e-01	 1.5480644257e+00	-1.7008691826e+00
 7.7745270716e-01	 1.5574805343e+00	-1.6615195499e+00
 7.5879350301e-01	 1.5666559119e+00	-1.6271682019e+00
 8.5491730098e-01	 1.5248404364e+00	-1.8287060625e+00
 8.3650705793e-01	 1.5350172279e+00	-1.7798403246e+00
 8.1800789514e-01	 1.5449547020e+00	-1.7343866567e+00
 7.9942436306e-01	 1.5546519339e+00	-1.6925722071e+00
 7.8076101655e-01	 1.5641081110e+00	-1.6544001998e+00
 7.6202241153e-01	 1.5733225328e+00	-1.6197020024e+00
 8.5853983192e-01	 1.5313016246e+00	-1.8163275306e+00
 8.4005157936e-01	 1.5415215382e+00	-1.7682773332e+00
 8.2147403028e-01	 1.5515011203e+00	-1.7242488319e+00
 8.0281175443e-01	 1.5612394421e+00	-1.6838503125e+00
 7.8406932594e-01	 1.5707356877e+00	-1.6464786386e+00
 7.6525132006e-01	 1.5799891537e+00	-1.6113735273e+00
 8.6216236286e-01	 1.5377628129e+00	-1.8048660035e+00
 8.4359610079e-01	 1.5480258485e+00	-1.7574728735e+00
 8.2494016543e-01	 1.5580475385e+00	-1.7144302589e+00
 8.0619914579e-01	 1.5678269503e+00	-1.6749235801e+00
 7.8737763534e-01	 1.5773632645e+00	-1.6379361741e+00
 7.6848022858e-01	 1.5866557746e+00	-1.6023054282e+00
 8.6578489379e-01	 1.5442240012e+00	-1.7945637242e+00
 8.4714062222e-01	 1.5545301588e+00	-1.7476752855e+00
 8.2840630058e-01	 1.5645939567e+00	-1.7051730639e+00
 8.0958653716e-01	 1.5744144585e+00	-1.6660131523e+00
 7.9068594473e-01	 1.5839908412e+00	-1.6289557761e+00
 7.7170913710e-01	 1.5933223955e+00	-1.5926229364e+00
 8.6940742473e-01	 1.5506851895e+00	-1.7856636116e+00
 8.5068514365e-01	 1.5610344690e+00	-1.7391334860e+00
 8.3187243573e-01	 1.5711403750e+00	-1.6967200426e+00
 8.1297392853e-01	 1.5810019667e+00	-1.6573411664e+00
 7.9399425412e-01	 1.5906184180e+00	-1.6197220051e+00
 7.7493804563e-01	 1.5999890164e+00	-1.5824537782e+00
 7.5879350301e-01	 1.5666559119e+00	-1.6271682019e+00
 7.4006389356e-01	 1.5755899720e+00	-1.5848069232e+00
 7.2126840757e-01	 1.5842822383e+00	-1.5308795593e+00
 7.0241156498e-01	 1.5927323441e+00	-1.4728345654e+00
 6.8349787376e-01	 1.6009400311e+00	-1.4129600183e+00
 6.6453182672e-01	 1.6089051488e+00	-1.3537850095e+00
 7.6202241153e-01	 1.5733225328e+00	-1.6197020024e+00
 7.4321310162e-01	 1.5822946102e+00	-1.5758848743e+00
 7.2433763484e-01	 1.5910238649e+00	-1.5194664487e+00
 7.0540055037e-01	 1.5995099285e+00	-1.4598816319e+00
 6.8640637535e-01	 1.6077525418e+00	-1.3996537885e+00
 6.6735962173e-01	 1.6157515537e+00	-1.3414536429e+00
 7.6525132006e-01	 1.5799891537e+00	-1.6113735273e+00
 7.4636230968e-01	 1.5889992484e+00	-1.5663606267e+00
 7.2740686210e-01	 1.5977654914e+00	-1.5079823136e+00
 7.0838953575e-01	 1.6062875130e+00	-1.4471311533e+00
 6.8931487694e-01	 1.6145650526e+00	-1.3866830323e+00
 6.7018741674e-01	 1.6225979586e+00	-1.3293281551e+00
 7.6848022858e-01	 1.5866557746e+00	-1.6023054282e+00
 7.4951151774e-01	 1.5957038866e+00	-1.5562962120e+00
 7.3047608937e-01	 1.6045071180e+00	-1.4964587542e+00
 7.1137852113e-01	 1.6130650974e+00	-1.4346076999e+00
 6.9222337853e-01	 1.6213775634e+00	-1.3740976548e+00
 6.7301521174e-01	 1.6294443634e+00	-1.3175175996e+00
 7.7170913710e-01	 1.5933223955e+00	-1.5926229364e+00
 7.5266072579e-01	 1.6024085247e+00	-1.5457629333e+00
 7.3354531663e-01	 1.6112487445e+00	-1.4849362291e+00
 7.1436750652e-01	 1.6198426818e+00	-1.4223452685e+00
 6.9513188012e-01	 1.6281900741e+00	-1.3619569346e+00
 6.7584300675e-01	 1.6362907683e+00	-1.3061397017e+00
 7.7493804563e-01	 1.5999890164e+00	-1.5824537782e+00
 7.5580993385e-01	 1.6091131629e+00	-1.5348354124e+00
 7.3661454390e-01	 1.6179903711e+00	-1.4734635358e+00
 7.1735649190e-01	 1.6266202663e+00	-1.4103867947e+00
 6.9804038171e-01	 1.6350025849e+00	-1.3503290807e+00
 6.7867080176e-01	 1.6431371732e+00	-1.2953204702e+00
 6.6453182672e-01	 1.6089051488e+00	-1.3537850095e+00
 6.4551789849e-01	 1.6166276532e+00	-1.3020195064e+00
 6.2646054246e-01	 1.6241076058e+00	-1.2587333992e+00
 6.0736418786e-01	 1.6313451719e+00	-1.2183243308e+00
 5.8823323685e-01	 1.6383406195e+00	-1.1753773486e+00
 5.6907206175e-01	 1.6450943180e+00	-1.1247015361e+00
 6.6735962173e-01	 1.6157515537e+00	-1.3414536429e+00
 6.4826478316e-01	 1.6235069198e+00	-1.2909453844e+00
 6.2912633200e-01	 1.6310187020e+00	-1.2481150389e+00
 6.0994871632e-01	 1.6382870662e+00	-1.2074673891e+00
 5.9073635701e-01	 1.6453122817e+00	-1.1637390451e+00
 5.7149364500e-01	 1.6520947193e+00	-1.1119340433e+00
 6.7018741674e-01	 1.6225979586e+00	-1.3293281551e+00
 6.5101166784e-01	 1.6303861865e+00	-1.2797980771e+00
 6.3179212154e-01	 1.6379297982e+00	-1.2372249123e+00
 6.1253324478e-01	 1.6452289606e+00	-1.1962747064e+00
 5.9323947717e-01	 1.6522839439e+00	-1.1518845911e+00
 5.7391522824e-01	 1.6590951207e+00	-1.0992973552e+00
 6.7301521174e-01	 1.6294443634e+00	-1.3175175996e+00
 6.5375855251e-01	 1.6372654531e+00	-1.2687408790e+00
 6.3445791109e-01	 1.6448408944e+00	-1.2262356113e+00
 6.1511777323e-01	 1.6521708549e+00	-1.1848827527e+00
 5.9574259732e-01	 1.6592556061e+00	-1.1398685240e+00
 5.7633681148e-01	 1.6660955220e+00	-1.0867179565e+00
 6.7584300675e-01	 1.6362907683e+00	-1.3061397017e+00
 6.5650543719e-01	 1.6441447197e+00	-1.2579450482e+00
 6.3712370063e-01	 1.6517519906e+00	-1.2153276430e+00
 6.1770230169e-01	 1.6591127493e+00	-1.1734365311e+00
 5.9824571748e-01	 1.6662272684e+00	-1.1277552025e+00
 5.7875839472e-01	 1.6730959234e+00	-1.0741341176e+00
 6.7867080176e-01	 1.6431371732e+00	-1.2953204702e+00
 6.5925232186e-01	 1.6510239863e+00	-1.2475894718e+00
 6.3978949017e-01	 1.6586630868e+00	-1.2046891338e+00
 6.2028683015e-01	 1.6660546436e+00	-1.1620893033e+00
 6.0074883764e-01	 1.6731989306e+00	-1.1156185381e+00
 5.8117997796e-01	 1.6800963247e+00	-1.0614956149e+00
 5.6907206175e-01	 1.6450943180e+00	-1.1247015361e+00
 5.4988500227e-01	 1.6516067361e+00	-1.0675223476e+00
 5.3067636284e-01	 1.6578784408e+00	-1.0089446513e+00
 5.1145041009e-01	 1.6639100951e+00	-9.5005560161e-01
 4.9221137030e-01	 1.6697024566e+00	-8.9229477913e-01
 4.7296342700e-01	 1.6752563754e+00	-8.3743198542e-01
 5.7149364500e-01	 1.6520947193e+00	-1.1119340433e+00
 5.5222493845e-01	 1.6586348499e+00	-1.0539847492e+00
 5.3293456013e-01	 1.6649332427e+00	-9.9537330516e-01
 5.1362679481e-01	 1.6709905636e+00	-9.3691200808e-01
 4.9430588677e-01	 1.6768075734e+00	-8.7975576453e-01
 4.7497603733e-01	 1.6823851259e+00	-8.2537917651e-01
 5.7391522824e-01	 1.6590951207e+00	-1.0992973552e+00
 5.5456487463e-01	 1.6656629636e+00	-1.0409901006e+00
 5.3519275742e-01	 1.6719880445e+00	-9.8262314630e-01
 5.1580317954e-01	 1.6780710321e+00	-9.2472325966e-01
 4.9640040324e-01	 1.6839126902e+00	-8.6815626834e-01
 4.7698864766e-01	 1.6895138764e+00	-8.1410329330e-01
 5.7633681148e-01	 1.6660955220e+00	-1.0867179565e+00
 5.5690481081e-01	 1.6726910774e+00	-1.0283340000e+00
 5.3745095471e-01	 1.6790428464e+00	-9.7039969786e-01
 5.1797956426e-01	 1.6851515005e+00	-9.1314589260e-01
 4.9849491971e-01	 1.6910178071e+00	-8.5714518699e-01
 4.7900125799e-01	 1.6966426270e+00	-8.0328717885e-01
 5.7875839472e-01	 1.6730959234e+00	-1.0741341176e+00
 5.5924474699e-01	 1.6797191912e+00	-1.0158257474e+00
 5.3970915200e-01	 1.6860976483e+00	-9.5842332290e-01
 5.2015594899e-01	 1.6922319690e+00	-9.0185164236e-01
 5.0058943618e-01	 1.6981229239e+00	-8.4638619544e-01
 4.8101386832e-01	 1.7037713775e+00	-7.9262725460e-01
 5.8117997796e-01	 1.6800963247e+00	-1.0614956149e+00
 5.6158468317e-01	 1.6867473050e+00	-1.0032880523e+00
 5.4196734928e-01	 1.6931524502e+00	-9.4642893445e-01
 5.2233233371e-01	 1.6993124375e+00	-8.9052716925e-01
 5.0268395265e-01	 1.7052280407e+00	-8.3555750226e-01
 4.8302647864e-01	 1.7109001280e+00	-7.8183331875e-01
 4.7296342700e-01	 1.6752563754e+00	-8.3743198542e-01
 4.5371071868e-01	 1.6805727923e+00	-7.9083809820e-01
 4.3445733650e-01	 1.6856527368e+00	-7.5271580215e-01
 4.1520732216e-01	 1.6904973251e+00	-7.1746427006e-01
 3.9596466588e-01	 1.6951077576e+00	-6.7966224243e-01
 3.7673330439e-01	 1.6994853173e+00	-6.3403850845e-01
 4.7497603733e-01	 1.6823851259e+00	-8.2537917651e-01
 4.5564140259e-01	 1.6877241659e+00	-7.7856364856e-01
 4.3630609112e-01	 1.6928257272e+00	-7.3958747680e-01
 4.1697416183e-01	 1.6976909307e+00	-7.0355112322e-01
 3.9764962191e-01	 1.7023209821e+00	-6.6574105008e-01
 3.7833642483e-01	 1.7067171697e+00	-6.2159598532e-01
 4.7698864766e-01	 1.6895138764e+00	-8.1410329330e-01
 4.5757208650e-01	 1.6948755395e+00	-7.6689455910e-01
 4.3815484574e-01	 1.6999987176e+00	-7.2699842546e-01
 4.1874100150e-01	 1.7048845364e+00	-6.9018484914e-01
 3.9933457793e-01	 1.7095342066e+00	-6.5241328317e-01
 3.7993954528e-01	 1.7139490222e+00	-6.0979480141e-01
 4.7900125799e-01	 1.6966426270e+00	-8.0328717885e-01
 4.5950277041e-01	 1.7020269131e+00	-7.5555196747e-01
 4.4000360037e-01	 1.7071717080e+00	-7.1467566699e-01
 4.2050784117e-01	 1.7120781420e+00	-6.7706691160e-01
 4.0101953396e-01	 1.7167474311e+00	-6.3932443776e-01
 3.8154266572e-01	 1.7211808746e+00	-5.9819513976e-01
 4.8101386832e-01	 1.7037713775e+00	-7.9262725460e-01
 4.6143345432e-01	 1.7091782866e+00	-7.4426923881e-01
 4.4185235499e-01	 1.7143446983e+00	-7.0235756765e-01
 4.2227468084e-01	 1.7192717476e+00	-6.6390970317e-01
 4.0270448998e-01	 1.7239606556e+00	-6.2613097252e-01
 3.8314578617e-01	 1.7284127270e+00	-5.8636862282e-01
 4.8302647864e-01	 1.7109001280e+00	-7.8183331875e-01
 4.6336413823e-01	 1.7163296602e+00	-7.3279180816e-01
 4.4370110961e-01	 1.7215176887e+00	-6.8979371531e-01
 4.2404152051e-01	 1.7264653533e+00	-6.5043643945e-01
 4.0438944601e-01	 1.7311738801e+00	-6.1250021118e-01
 3.8474890661e-01	 1.7356445794e+00	-5.7389821180e-01
 3.7673330439e-01	 1.6994853173e+00	-6.3403850845e-01
 3.5751711906e-01	 1.7036313674e+00	-5.7826531675e-01
 3.3831993415e-01	 1.7075473489e+00	-5.3834894404e-01
 3.1914551510e-01	 1.7112347784e+00	-5.0937495834e-01
 2.9999756695e-01	 1.7146952459e+00	-4.8362738356e-01
 2.8087973282e-01	 1.7179304125e+00	-4.5394856931e-01
 3.7833642483e-01	 1.7067171697e+00	-6.2159598532e-01
 3.5903846851e-01	 1.7108808626e+00	-5.6598266452e-01
 3.3975959345e-01	 1.7148135078e+00	-5.2472642993e-01
 3.2050358113e-01	 1.7185166285e+00	-4.9490209992e-01
 3.0127415234e-01	 1.7219918214e+00	-4.6897391818e-01
 2.8207496573e-01	 1.7252407547e+00	-4.3989180955e-01
 3.7993954528e-01	 1.7139490222e+00	-6.0979480141e-01
 3.6055981795e-01	 1.7181303578e+00	-5.5496602624e-01
 3.4119925274e-01	 1.7220796667e+00	-5.1254851948e-01
 3.2186164715e-01	 1.7257984786e+00	-4.8187793130e-01
 3.0255073773e-01	 1.7292883969e+00	-4.5564141787e-01
 2.8327019863e-01	 1.7325510969e+00	-4.2693722931e-01
 3.8154266572e-01	 1.7211808746e+00	-5.9819513976e-01
 3.6208116739e-01	 1.7253798530e+00	-5.4463926773e-01
 3.4263891204e-01	 1.7293458257e+00	-5.0119582751e-01
 3.2321971317e-01	 1.7330803287e+00	-4.6967276003e-01
 3.0382732312e-01	 1.7365849724e+00	-4.4302148523e-01
 2.8446543154e-01	 1.7398614390e+00	-4.1452787725e-01
 3.8314578617e-01	 1.7284127270e+00	-5.8636862282e-01
 3.6360251683e-01	 1.7326293481e+00	-5.3443630256e-01
 3.4407857133e-01	 1.7366119846e+00	-4.9005659356e-01
 3.2457777919e-01	 1.7403621788e+00	-4.5766209010e-01
 3.0510390851e-01	 1.7438815480e+00	-4.3050849056e-01
 2.8566066444e-01	 1.7471717812e+00	-4.0210714410e-01
 3.8474890661e-01	 1.7356445794e+00	-5.7389821180e-01
 3.6512386628e-01	 1.7398788433e+00	-5.2380147277e-01
 3.4551823062e-01	 1.7438781435e+00	-4.7852700593e-01
 3.2593584521e-01	 1.7476440290e+00	-4.4522690005e-01
 3.0638049390e-01	 1.7511781235e+00	-4.1749981444e-01
 2.8685589735e-01	 1.7544821234e+00	-3.8911897945e-01
 2.8087973282e-01	 1.7179304125e+00	-4.5394856931e-01
 2.6179559255e-01	 1.7209420078e+00	-4.2002692511e-01
 2.4274866134e-01	 1.7237318277e+00	-3.8734234290e-01
 2.2374238858e-01	 1.7263017320e+00	-3.5789145668e-01
 2.0478015669e-01	 1.7286536420e+00	-3.3379094342e-01
 1.8586528009e-01	 1.7307895378e+00	-3.1727271696e-01
 2.8207496573e-01	 1.7252407547e+00	-4.3989180955e-01
 2.6290961635e-01	 1.7282651653e+00	-4.0693033033e-01
 2.4378163437e-01	 1.7310668568e+00	-3.7508670646e-01
 2.2469448385e-01	 1.7336476969e+00	-3.4628414061e-01
 2.0565156161e-01	 1.7360096149e+00	-3.2253623256e-01
 1.8665619617e-01	 1.7381545997e+00	-3.0595033102e-01
 2.8327019863e-01	 1.7325510969e+00	-4.2693722931e-01
 2.6402364015e-01	 1.7355883228e+00	-3.9471346056e-01
 2.4481460740e-01	 1.7384018858e+00	-3.6354933093e-01
 2.2564657912e-01	 1.7409936617e+00	-3.3529593477e-01
 2.0652296653e-01	 1.7433655879e+00	-3.1186013985e-01
 1.8744711226e-01	 1.7455196615e+00	-2.9521647538e-01
 2.8446543154e-01	 1.7398614390e+00	-4.1452787725e-01
 2.6513766394e-01	 1.7429114802e+00	-3.8288033435e-01
 2.4584758042e-01	 1.7457369149e+00	-3.5228435347e-01
 2.2659867439e-01	 1.7483396265e+00	-3.2451905500e-01
 2.0739437145e-01	 1.7507215608e+00	-3.0137968630e-01
 1.8823802835e-01	 1.7528847234e+00	-2.8469843226e-01
 2.8566066444e-01	 1.7471717812e+00	-4.0210714410e-01
 2.6625168774e-01	 1.7502346377e+00	-3.7093321097e-01
 2.4688055345e-01	 1.7530719439e+00	-3.4084268941e-01
 2.2755076966e-01	 1.7556855913e+00	-3.1354166209e-01
 2.0826577637e-01	 1.7580775338e+00	-2.9070762321e-01
 1.8902894443e-01	 1.7602497852e+00	-2.7401960586e-01
 2.8685589735e-01	 1.7544821234e+00	-3.8911897945e-01
 2.6736571154e-01	 1.7575577952e+00	-3.5837278447e-01
 2.4791352648e-01	 1.7604069730e+00	-3.2877219943e-01
 2.2850286493e-01	 1.7630315561e+00	-3.0194799808e-01
 2.0913718130e-01	 1.7654335067e+00	-2.7945253330e-01
 1.8981986052e-01	 1.7676148471e+00	-2.6279958371e-01
 1.8586528009e-01	 1.7307895378e+00	-3.1727271696e-01
 1.6700100429e-01	 1.7327114564e+00	-3.0518127789e-01
 1.4819050502e-01	 1.7344214888e+00	-2.9271976068e-01
 1.2943688745e-01	 1.7359217778e+00	-2.7997511054e-01
 1.1074318553e-01	 1.7372145156e+00	-2.6736532193e-01
 9.2112361429e-02	 1.7383019414e+00	-2.5567774919e-01
 1.8665619617e-01	 1.7381545997e+00	-3.0595033102e-01
 1.6771164686e-01	 1.7400846966e+00	-2.9354978089e-01
 1.4882110291e-01	 1.7418020057e+00	-2.8084957390e-01
 1.2998768271e-01	 1.7433086790e+00	-2.6799413461e-01
 1.1121443313e-01	 1.7446069178e+00	-2.5545734171e-01
 9.2504328924e-02	 1.7456989709e+00	-2.4408941272e-01
 1.8744711226e-01	 1.7455196615e+00	-2.9521647538e-01
 1.6842228944e-01	 1.7474579369e+00	-2.8251809460e-01
 1.4945170081e-01	 1.7491825227e+00	-2.6955543544e-01
 1.3053847798e-01	 1.7506955802e+00	-2.5653832730e-01
 1.1168568073e-01	 1.7519993200e+00	-2.4400525790e-01
 9.2896296420e-02	 1.7530960004e+00	-2.3287906086e-01
 1.8823802835e-01	 1.7528847234e+00	-2.8469843226e-01
 1.6913293201e-01	 1.7548311771e+00	-2.7172778879e-01
 1.5008229870e-01	 1.7565630397e+00	-2.5851548068e-01
 1.3108927325e-01	 1.7580824813e+00	-2.4534286458e-01
 1.1215692833e-01	 1.7593917222e+00	-2.3281992307e-01
 9.3288263915e-02	 1.7604930300e+00	-2.2194999348e-01
 1.8902894443e-01	 1.7602497852e+00	-2.7401960586e-01
 1.6984357458e-01	 1.7622044173e+00	-2.6081720704e-01
 1.5071289660e-01	 1.7639435567e+00	-2.4740518856e-01
 1.3164006851e-01	 1.7654693825e+00	-2.3414074545e-01
 1.1262817593e-01	 1.7667841244e+00	-2.2171039382e-01
 9.3680231411e-02	 1.7678900595e+00	-2.1120398812e-01
 1.8981986052e-01	 1.7676148471e+00	-2.6279958371e-01
 1.7055421715e-01	 1.7695776576e+00	-2.4942149065e-01
 1.5134349449e-01	 1.7713240736e+00	-2.3589737681e-01
 1.3219086378e-01	 1.7728562837e+00	-2.2266276724e-01
 1.1309942352e-01	 1.7741765266e+00	-2.1048389415e-01
 9.4072198906e-02	 1.7752870891e+00	-2.0054125923e-01
 9.2112361429e-02	 1.7383019414e+00	-2.5567774919e-01
 7.3547304970e-02	 1.7391863386e+00	-2.4410057085e-01
 5.5050833259e-02	 1.7398700331e+00	-2.3317312680e-01
 3.6625690321e-02	 1.7403553905e+00	-2.2630251723e-01
 1.8274546847e-02	 1.7406448137e+00	-2.2730363854e-01
-3.5325902569e-07	 1.7407548711e+00	 7.3614802114e-01
 9.2504328924e-02	 1.7456989709e+00	-2.4408941272e-01
 7.3860272225e-02	 1.7465871315e+00	-2.3287026416e-01
 5.5285092124e-02	 1.7472737354e+00	-2.2205807570e-01
 3.6781544323e-02	 1.7477611581e+00	-2.1505971992e-01
 1.8352310876e-02	 1.7480518129e+00	-2.1574337910e-01
-3.4053367588e-07	 1.7481619057e+00	 7.1806697879e-01
 9.2896296420e-02	 1.7530960004e+00	-2.3287906086e-01
 7.4173239480e-02	 1.7539879245e+00	-2.2198306926e-01
 5.5519350988e-02	 1.7546774377e+00	-2.1131668910e-01
 3.6937398324e-02	 1.7551669258e+00	-2.0425121602e-01
 1.8430074905e-02	 1.7554588121e+00	-2.0467034793e-01
-3.2789418679e-07	 1.7555689336e+00	 6.9896211395e-01
 9.3288263915e-02	 1.7604930300e+00	-2.2194999348e-01
 7.4486206735e-02	 1.7613887174e+00	-2.1142453249e-01
 5.5753609853e-02	 1.7620811399e+00	-2.0098008981e-01
 3.7093252326e-02	 1.7625726934e+00	-1.9391593594e-01
 1.8507838934e-02	 1.7628658113e+00	-1.9409245689e-01
-3.1535197045e-07	 1.7629759555e+00	-2.0636960438e-01
 9.3680231411e-02	 1.7678900595e+00	-2.1120398812e-01
 7.4799173991e-02	 1.7687895103e+00	-2.0117925493e-01
 5.5987868718e-02	 1.7694848422e+00	-1.9107973808e-01
 3.7249106327e-02	 1.7699784610e+00	-1.8409511327e-01
 1.8585602963e-02	 1.7702728105e+00	-1.8402254669e-01
-3.0291843889e-07	 1.7703829718e+00	-1.9574055424e-01
 9.4072198906e-02	 1.7752870891e+00	-2.0054125923e-01
 7.5112141246e-02	 1.7761903033e+00	-1.9123084632e-01
 5.6222127583e-02	 1.7768885445e+00	-1.8164736993e-01
 3.7404960328e-02	 1.7773842286e+00	-1.7483219722e-01
 1.8663366992e-02	 1.7776798097e+00	-1.7447826302e-01
-2.9060500404e-07	 1.7777899832e+00	-1.8543781632e-01
 1.7777777778e+00	 0.0000000000e+00	 3.2787278234e+00
 1.7776798097e+00	 1.8663366992e-02	 3.2764490585e+00
 1.7773842286e+00	 3.7404960328e-02	 3.2704611992e+00
 1.7768885445e+00	 5.6222127583e-02	 3.2607239878e+00
 1.7761903033e+00	 7.5112141246e-02	 3.2475132053e+00
 1.7752870891e+00	 9.4072198906e-02	 3.2313538228e+00
 1.7851851852e+00	 0.0000000000e+00	 3.2628843959e+00
 1.7850868089e+00	 1.8741131022e-02	 3.2608732552e+00
 1.7847899962e+00	 3.7560814330e-02	 3.2548656831e+00
 1.7842922468e+00	 5.6456386448e-02	 3.2448861257e+00
 1.7835910962e+00	 7.5425108501e-02	 3.2313307911e+00
 1.7826841186e+00	 9.4464166402e-02	 3.2148928960e+00
 1.7925925926e+00	 0.0000000000e+00	 3.2470995624e+00
 1.7924938081e+00	 1.8818895051e-02	 3.2453355444e+00
 1.7921957638e+00	 3.7716668331e-02	 3.2393904030e+00
 1.7916959490e+00	 5.6690645313e-02	 3.2293226188e+00
 1.7909918891e+00	 7.5738075756e-02	 3.2156194340e+00
 1.7900811481e+00	 9.4856133897e-02	 3.1991140017e+00
 1.8000000000e+00	 0.0000000000e+00	 3.2313613600e+00
 1.7999008073e+00	 1.8896659080e-02	 3.2298184356e+00
 1.7996015315e+00	 3.7872522332e-02	 3.2240032712e+00
 1.7990996513e+00	 5.6924904178e-02	 3.2139796413e+00
 1.7983926821e+00	 7.6051043011e-02	 3.2002984132e+00
 1.7974781777e+00	 9.5248101393e-02	 3.1839064023e+00
 1.8074074074e+00	 0.0000000000e+00	 3.2156579129e+00
 1.8073078066e+00	 1.8974423109e-02	 3.2143048809e+00
 1.8070072991e+00	 3.8028376334e-02	 3.2086729131e+00
 1.8065033536e+00	 5.7159163043e-02	 3.1988042713e+00
 1.8057934750e+00	 7.6364010267e-02	 3.1852880305e+00
 1.8048752072e+00	 9.5640068888e-02	 3.1691604335e+00
 1.8148148148e+00	 0.0000000000e+00	 3.1999774309e+00
 1.8147148058e+00	 1.9052187138e-02	 3.1987782670e+00
 1.8144130667e+00	 3.8184230335e-02	 3.1933686538e+00
 1.8139070558e+00	 5.7393421908e-02	 3.1837444740e+00
 1.8131942679e+00	 7.6676977522e-02	 3.1705095889e+00
 1.8122722367e+00	 9.6032036383e-02	 3.1547674813e+00
 1.7752870891e+00	 9.4072198906e-02	 3.2313538228e+00
 1.7741765266e+00	 1.1309942352e-01	 3.2110938475e+00
 1.7728562837e+00	 1.3219086378e-01	 3.1856122744e+00
 1.7713240736e+00	 1.5134349449e-01	 3.1556028209e+00
 1.7695776576e+00	 1.7055421715e-01	 3.1216538339e+00
 1.7676148471e+00	 1.8981986052e-01	 3.0841464904e+00
 1.7826841186e+00	 9.4464166402e-02	 3.2148928960e+00
 1.7815689288e+00	 1.1357067112e-01	 3.1945978084e+00
 1.7802431849e+00	 1.3274165904e-01	 3.1692831225e+00
 1.7787045906e+00	 1.5197409238e-01	 3.1395252214e+00
 1.7769508978e+00	 1.7126485972e-01	 3.1058029746e+00
 1.7749799090e+00	 1.9061077660e-01	 3.0683857280e+00
 1.7900811481e+00	 9.4856133897e-02	 3.1991140017e+00
 1.7889613310e+00	 1.1404191872e-01	 3.1789958011e+00
 1.7876300861e+00	 1.3329245431e-01	 3.1540546960e+00
 1.7860851076e+00	 1.5260469028e-01	 3.1247322339e+00
 1.7843241381e+00	 1.7197550229e-01	 3.0913797201e+00
 1.7823449708e+00	 1.9140169269e-01	 3.0541356957e+00
 1.7974781777e+00	 9.5248101393e-02	 3.1839064023e+00
 1.7963537332e+00	 1.1451316632e-01	 3.1641422838e+00
 1.7950169873e+00	 1.3384324957e-01	 3.1397401333e+00
 1.7934656246e+00	 1.5323528817e-01	 3.1109911526e+00
 1.7916973783e+00	 1.7268614486e-01	 3.0781030105e+00
 1.7897100327e+00	 1.9219260877e-01	 3.0410664982e+00
 1.8048752072e+00	 9.5640068888e-02	 3.1691604335e+00
 1.8037461354e+00	 1.1498441392e-01	 3.1498928403e+00
 1.8024038884e+00	 1.3439404484e-01	 3.1261538203e+00
 1.8008461415e+00	 1.5386588606e-01	 3.0980707207e+00
 1.7990706185e+00	 1.7339678744e-01	 3.0656935248e+00
 1.7970750946e+00	 1.9298352486e-01	 3.0288503657e+00
 1.8122722367e+00	 9.6032036383e-02	 3.1547674813e+00
 1.8111385376e+00	 1.1545566151e-01	 3.1361041548e+00
 1.8097907896e+00	 1.3494484011e-01	 3.1131113635e+00
 1.8082266585e+00	 1.5449648396e-01	 3.0857411019e+00
 1.8064438588e+00	 1.7410743001e-01	 3.0538736510e+00
 1.8044401564e+00	 1.9377444094e-01	 3.0171616237e+00
 1.7676148471e+00	 1.8981986052e-01	 3.0841464904e+00
 1.7654335067e+00	 2.0913718130e-01	 3.0447933077e+00
 1.7630315561e+00	 2.2850286493e-01	 3.0041537901e+00
 1.7604069730e+00	 2.4791352648e-01	 2.9602727228e+00
 1.7575577952e+00	 2.6736571154e-01	 2.9106189375e+00
 1.7544821234e+00	 2.8685589735e-01	 2.8520318203e+00
 1.7749799090e+00	 1.9061077660e-01	 3.0683857280e+00
 1.7727894796e+00	 2.1000858622e-01	 3.0289262865e+00
 1.7703775209e+00	 2.2945496020e-01	 2.9881522410e+00
 1.7677420020e+00	 2.4894649950e-01	 2.9443044373e+00
 1.7648809527e+00	 2.6847973534e-01	 2.8950042581e+00
 1.7617924656e+00	 2.8805113025e-01	 2.8371887929e+00
 1.7823449708e+00	 1.9140169269e-01	 3.0541356957e+00
 1.7801454526e+00	 2.1087999114e-01	 3.0145703310e+00
 1.7777234858e+00	 2.3040705548e-01	 2.9735891411e+00
 1.7750770311e+00	 2.4997947253e-01	 2.9296575501e+00
 1.7722041102e+00	 2.6959375914e-01	 2.8805766192e+00
 1.7691028078e+00	 2.8924636316e-01	 2.8234064695e+00
 1.7897100327e+00	 1.9219260877e-01	 3.0410664982e+00
 1.7875014255e+00	 2.1175139606e-01	 3.0013487972e+00
 1.7850694506e+00	 2.3135915075e-01	 2.9600453285e+00
 1.7824120602e+00	 2.5101244556e-01	 2.9158759910e+00
 1.7795272676e+00	 2.7070778293e-01	 2.8668499976e+00
 1.7764131499e+00	 2.9044159607e-01	 2.8101771343e+00
 1.7970750946e+00	 1.9298352486e-01	 3.0288503657e+00
 1.7948573985e+00	 2.1262280098e-01	 2.9888876499e+00
 1.7924154154e+00	 2.3231124602e-01	 2.9471048367e+00
 1.7897470892e+00	 2.5204541859e-01	 2.9025075921e+00
 1.7868504251e+00	 2.7182180673e-01	 2.8533431182e+00
 1.7837234921e+00	 2.9163682897e-01	 2.7969988200e+00
 1.8044401564e+00	 1.9377444094e-01	 3.0171616237e+00
 1.8022133714e+00	 2.1349420591e-01	 2.9768154339e+00
 1.7997613802e+00	 2.3326334129e-01	 2.9343548682e+00
 1.7970821183e+00	 2.5307839161e-01	 2.8891040667e+00
 1.7941735826e+00	 2.7293583053e-01	 2.8395794393e+00
 1.7910338343e+00	 2.9283206188e-01	 2.7833753030e+00
 1.7544821234e+00	 2.8685589735e-01	 2.8520318203e+00
 1.7511781235e+00	 3.0638049390e-01	 2.7849097968e+00
 1.7476440290e+00	 3.2593584521e-01	 2.7136125380e+00
 1.7438781435e+00	 3.4551823062e-01	 2.6399741022e+00
 1.7398788433e+00	 3.6512386628e-01	 2.5652664536e+00
 1.7356445794e+00	 3.8474890661e-01	 2.4929225105e+00
 1.7617924656e+00	 2.8805113025e-01	 2.8371887929e+00
 1.7584746990e+00	 3.0765707930e-01	 2.7710612753e+00
 1.7549258791e+00	 3.2729391123e-01	 2.7005798951e+00
 1.7511443025e+00	 3.4695788992e-01	 2.6272524871e+00
 1.7471283385e+00	 3.6664521572e-01	 2.5519287864e+00
 1.7428764318e+00	 3.8635202706e-01	 2.4782733484e+00
 1.7691028078e+00	 2.8924636316e-01	 2.8234064695e+00
 1.7657712745e+00	 3.0893366469e-01	 2.7581805085e+00
 1.7622077292e+00	 3.2865197726e-01	 2.6884523461e+00
 1.7584104614e+00	 3.4839754921e-01	 2.6153822997e+00
 1.7543778337e+00	 3.6816656516e-01	 2.5393732333e+00
 1.7501082842e+00	 3.8795514750e-01	 2.4644124810e+00
 1.7764131499e+00	 2.9044159607e-01	 2.8101771343e+00
 1.7730678500e+00	 3.1021025008e-01	 2.7457494587e+00
 1.7694895793e+00	 3.3001004328e-01	 2.6767162825e+00
 1.7656766203e+00	 3.4983720851e-01	 2.6038707293e+00
 1.7616273289e+00	 3.6968791461e-01	 2.5271456900e+00
 1.7573401366e+00	 3.8955826794e-01	 2.4509479859e+00
 1.7837234921e+00	 2.9163682897e-01	 2.7969988200e+00
 1.7803644255e+00	 3.1148683547e-01	 2.7332569789e+00
 1.7767714294e+00	 3.3136810930e-01	 2.6648662482e+00
 1.7729427793e+00	 3.5127686780e-01	 2.5922345064e+00
 1.7688768240e+00	 3.7120926405e-01	 2.5148062731e+00
 1.7645719891e+00	 3.9116138839e-01	 2.4374989413e+00
 1.7910338343e+00	 2.9283206188e-01	 2.7833753030e+00
 1.7876610010e+00	 3.1276342086e-01	 2.7201988198e+00
 1.7840532796e+00	 3.3272617532e-01	 2.6524049644e+00
 1.7802089382e+00	 3.5271652710e-01	 2.5799999491e+00
 1.7761263192e+00	 3.7273061349e-01	 2.5019415939e+00
 1.7718038415e+00	 3.9276450883e-01	 2.4236952632e+00
 1.7356445794e+00	 3.8474890661e-01	 2.4929225105e+00
 1.7311738801e+00	 4.0438944601e-01	 2.4218455657e+00
 1.7264653533e+00	 4.2404152051e-01	 2.3408633665e+00
 1.7215176887e+00	 4.4370110961e-01	 2.2517305550e+00
 1.7163296602e+00	 4.6336413823e-01	 2.1563820195e+00
 1.7109001280e+00	 4.8302647864e-01	 2.0569825751e+00
 1.7428764318e+00	 3.8635202706e-01	 2.4782733484e+00
 1.7383871046e+00	 4.0607440203e-01	 2.4065571528e+00
 1.7336589589e+00	 4.2580836018e-01	 2.3259583056e+00
 1.7286906791e+00	 4.4554986424e-01	 2.2377397064e+00
 1.7234810338e+00	 4.6529482214e-01	 2.1433425135e+00
 1.7180288786e+00	 4.8503908897e-01	 2.0444400001e+00
 1.7501082842e+00	 3.8795514750e-01	 2.4644124810e+00
 1.7456003291e+00	 4.0775935806e-01	 2.3919888599e+00
 1.7408525645e+00	 4.2757519984e-01	 2.3116486268e+00
 1.7358636694e+00	 4.4739861886e-01	 2.2241985046e+00
 1.7306324074e+00	 4.6722550605e-01	 2.1306220493e+00
 1.7251576291e+00	 4.8705169930e-01	 2.0321376967e+00
 1.7573401366e+00	 3.8955826794e-01	 2.4509479859e+00
 1.7528135536e+00	 4.0944431408e-01	 2.3778071673e+00
 1.7480461702e+00	 4.2934203951e-01	 2.2976564979e+00
 1.7430366598e+00	 4.4924737348e-01	 2.2108810784e+00
 1.7377837810e+00	 4.6915618996e-01	 2.1180420003e+00
 1.7322863796e+00	 4.8906430963e-01	 2.0199385984e+00
 1.7645719891e+00	 3.9116138839e-01	 2.4374989413e+00
 1.7600267781e+00	 4.1112927011e-01	 2.3636892632e+00
 1.7552397758e+00	 4.3110887918e-01	 2.2837144906e+00
 1.7502096502e+00	 4.5109612811e-01	 2.1975716530e+00
 1.7449351546e+00	 4.7108687387e-01	 2.1054335316e+00
 1.7394151302e+00	 4.9107691995e-01	 2.0077151375e+00
 1.7718038415e+00	 3.9276450883e-01	 2.4236952632e+00
 1.7672400026e+00	 4.1281422613e-01	 2.3493228750e+00
 1.7624333815e+00	 4.3287571885e-01	 2.2695654039e+00
 1.7573826405e+00	 4.5294488273e-01	 2.1840643627e+00
 1.7520865281e+00	 4.7301755777e-01	 2.0926374003e+00
 1.7465438807e+00	 4.9308953028e-01	 1.9953490296e+00
 1.7109001280e+00	 4.8302647864e-01	 2.0569825751e+00
 1.7052280407e+00	 5.0268395265e-01	 1.9571968751e+00
 1.6993124375e+00	 5.2233233371e-01	 1.8587193175e+00
 1.6931524502e+00	 5.4196734928e-01	 1.7612472114e+00
 1.6867473050e+00	 5.6158468317e-01	 1.6648856423e+00
 1.6800963247e+00	 5.8117997796e-01	 1.5701691699e+00
 1.7180288786e+00	 4.8503908897e-01	 2.0444400001e+00
 1.7123331576e+00	 5.0477846911e-01	 1.9445732392e+00
 1.7063929060e+00	 5.2450871843e-01	 1.8457821314e+00
 1.7002072520e+00	 5.4422554657e-01	 1.7479877907e+00
 1.6937754187e+00	 5.6392461935e-01	 1.6515306711e+00
 1.6870967261e+00	 5.8360156120e-01	 1.5571936702e+00
 1.7251576291e+00	 4.8705169930e-01	 2.0321376967e+00
 1.7194382744e+00	 5.0687298558e-01	 1.9321525471e+00
 1.7134733745e+00	 5.2668510316e-01	 1.8330080514e+00
 1.7072620539e+00	 5.4648374386e-01	 1.7348367530e+00
 1.7008035325e+00	 5.6626455553e-01	 1.6382032717e+00
 1.6940971274e+00	 5.8602314445e-01	 1.5441288862e+00
 1.7322863796e+00	 4.8906430963e-01	 2.0199385984e+00
 1.7265433912e+00	 5.0896750205e-01	 1.9198368786e+00
 1.7205538430e+00	 5.2886148788e-01	 1.8203396247e+00
 1.7143168558e+00	 5.4874194115e-01	 1.7217782082e+00
 1.7078316463e+00	 5.6860449171e-01	 1.6249300136e+00
 1.7010975288e+00	 5.8844472769e-01	 1.5310445791e+00
 1.7394151302e+00	 4.9107691995e-01	 2.0077151375e+00
 1.7336485081e+00	 5.1106201852e-01	 1.9075374696e+00
 1.7276343115e+00	 5.3103787260e-01	 1.8077280967e+00
 1.7213716577e+00	 5.5100013844e-01	 1.7088043883e+00
 1.7148597600e+00	 5.7094442789e-01	 1.6117448952e+00
 1.7080979301e+00	 5.9086631093e-01	 1.5180171277e+00
 1.7465438807e+00	 4.9308953028e-01	 1.9953490296e+00
 1.7407536249e+00	 5.1315653499e-01	 1.8951744801e+00
 1.7347147800e+00	 5.3321425733e-01	 1.7951331609e+00
 1.7284264595e+00	 5.5325833573e-01	 1.6959153798e+00
 1.7218878738e+00	 5.7328436407e-01	 1.5986890576e+00
 1.7150983315e+00	 5.9328789417e-01	 1.5051292235e+00
 1.6800963247e+00	 5.8117997796e-01	 1.5701691699e+00
 1.6731989306e+00	 6.0074883764e-01	 1.4705076696e+00
 1.6660546436e+00	 6.2028683015e-01	 1.3614985614e+00
 1.6586630868e+00	 6.3978949017e-01	 1.2476109428e+00
 1.6510239863e+00	 6.5925232186e-01	 1.1337173318e+00
 1.6431371732e+00	 6.7867080176e-01	 1.0250477161e+00
 1.6870967261e+00	 5.8360156120e-01	 1.5571936702e+00
 1.6801705928e+00	 6.0325195779e-01	 1.4584667624e+00
 1.6729965380e+00	 6.2287135861e-01	 1.3505961272e+00
 1.6655741830e+00	 6.4245527971e-01	 1.2376793011e+00
 1.6579032529e+00	 6.6199920654e-01	 1.1242404786e+00
 1.6499835781e+00	 6.8149859677e-01	 1.0151853173e+00
 1.6940971274e+00	 5.8602314445e-01	 1.5441288862e+00
 1.6871422550e+00	 6.0575507795e-01	 1.4462239372e+00
 1.6799384323e+00	 6.2545588707e-01	 1.3394304166e+00
 1.6724852792e+00	 6.4512106926e-01	 1.2274759202e+00
 1.6647825195e+00	 6.6474609121e-01	 1.1145384984e+00
 1.6568299830e+00	 6.8432639177e-01	 1.0052022047e+00
 1.7010975288e+00	 5.8844472769e-01	 1.5310445791e+00
 1.6941139172e+00	 6.0825819811e-01	 1.4338891358e+00
 1.6868803267e+00	 6.2804041553e-01	 1.3281447529e+00
 1.6793963754e+00	 6.4778685880e-01	 1.2171705257e+00
 1.6716617861e+00	 6.6749297588e-01	 1.1048004016e+00
 1.6636763879e+00	 6.8715418678e-01	 9.9529945978e-01
 1.7080979301e+00	 5.9086631093e-01	 1.5180171277e+00
 1.7010855794e+00	 6.1076131827e-01	 1.4215780485e+00
 1.6938222210e+00	 6.3062494399e-01	 1.3168873426e+00
 1.6863074716e+00	 6.5045264834e-01	 1.2069368694e+00
 1.6785410527e+00	 6.7023986056e-01	 1.0952183804e+00
 1.6705227928e+00	 6.8998198179e-01	 9.8568051895e-01
 1.7150983315e+00	 5.9328789417e-01	 1.5051292235e+00
 1.7080572416e+00	 6.1326443842e-01	 1.4094117898e+00
 1.7007641154e+00	 6.3320947245e-01	 1.3058109291e+00
 1.6932185677e+00	 6.5311843788e-01	 1.1969523578e+00
 1.6854203193e+00	 6.7298674523e-01	 1.0859874097e+00
 1.6773691977e+00	 6.9280977679e-01	 9.7655074406e-01
 1.6431371732e+00	 6.7867080176e-01	 1.0250477161e+00
 1.6350025849e+00	 6.9804038171e-01	 9.2182107623e-01
 1.6266202663e+00	 7.1735649190e-01	 8.2036081743e-01
 1.6179903711e+00	 7.3661454390e-01	 7.2049662387e-01
 1.6091131629e+00	 7.5580993385e-01	 6.1940339802e-01
 1.5999890164e+00	 7.7493804563e-01	 5.0669961637e-01
 1.6499835781e+00	 6.8149859677e-01	 1.0151853173e+00
 1.6418150957e+00	 7.0094888330e-01	 9.1123650267e-01
 1.6333978507e+00	 7.2034547728e-01	 8.0960975210e-01
 1.6247319976e+00	 7.3968377117e-01	 7.1041937339e-01
 1.6158178011e+00	 7.5895914191e-01	 6.0997328843e-01
 1.6066556373e+00	 7.7816695415e-01	 4.9860714563e-01
 1.6568299830e+00	 6.8432639177e-01	 1.0052022047e+00
 1.6486276065e+00	 7.0385738489e-01	 9.0063909152e-01
 1.6401754352e+00	 7.2333446266e-01	 7.9890190010e-01
 1.6314736242e+00	 7.4275299843e-01	 7.0036022349e-01
 1.6225224393e+00	 7.6210834997e-01	 6.0039755646e-01
 1.6133222582e+00	 7.8139586267e-01	 4.9026003728e-01
 1.6636763879e+00	 6.8715418678e-01	 9.9529945978e-01
 1.6554401172e+00	 7.0676588648e-01	 8.9024072481e-01
 1.6469530196e+00	 7.2632344805e-01	 7.8846469499e-01
 1.6382152507e+00	 7.4582222570e-01	 6.9046552413e-01
 1.6292270774e+00	 7.6525755802e-01	 5.9095040899e-01
 1.6199888791e+00	 7.8462477120e-01	 4.8194367719e-01
 1.6705227928e+00	 6.8998198179e-01	 9.8568051895e-01
 1.6622526280e+00	 7.0967438807e-01	 8.8025473712e-01
 1.6537306041e+00	 7.2931243343e-01	 7.7852595249e-01
 1.6449568773e+00	 7.4889145297e-01	 6.8098708185e-01
 1.6359317156e+00	 7.6840676608e-01	 5.8189785392e-01
 1.6266555000e+00	 7.8785367972e-01	 4.7393504044e-01
 1.6773691977e+00	 6.9280977679e-01	 9.7655074406e-01
 1.6690651388e+00	 7.1258288966e-01	 8.7089545532e-01
 1.6605081885e+00	 7.3230141881e-01	 7.6931338061e-01
 1.6516985038e+00	 7.5196068023e-01	 6.7217814895e-01
 1.6426363538e+00	 7.7155597414e-01	 5.7349784153e-01
 1.6333221209e+00	 7.9108258825e-01	 4.6650284133e-01
 1.5999890164e+00	 7.7493804563e-01	 5.0669961637e-01
 1.5906184180e+00	 7.9399425412e-01	 3.8570093896e-01
 1.5810019667e+00	 8.1297392853e-01	 2.6670419122e-01
 1.5711403750e+00	 8.3187243573e-01	 1.5190605669e-01
 1.5610344690e+00	 8.5068514365e-01	 4.3289391716e-02
 1.5506851895e+00	 8.6940742473e-01	-5.7448337285e-02
 1.6066556373e+00	 7.7816695415e-01	 4.9860714563e-01
 1.5972459947e+00	 7.9730256351e-01	 3.7922464355e-01
 1.5875894749e+00	 8.1636131990e-01	 2.6135132326e-01
 1.5776867932e+00	 8.3533857088e-01	 1.4714615158e-01
 1.5675387793e+00	 8.5422966509e-01	 3.8557442064e-02
 1.5571463778e+00	 8.7302995567e-01	-6.2749710588e-02
 1.6133222582e+00	 7.8139586267e-01	 4.9026003728e-01
 1.6038735715e+00	 8.0061087291e-01	 3.7235594700e-01
 1.5941769831e+00	 8.1974871127e-01	 2.5551028468e-01
 1.5842332114e+00	 8.3880470603e-01	 1.4188264817e-01
 1.5740430896e+00	 8.5777418652e-01	 3.3423150674e-02
 1.5636075661e+00	 8.7665248660e-01	-6.8201265942e-02
 1.6199888791e+00	 7.8462477120e-01	 4.8194367719e-01
 1.6105011482e+00	 8.0391918230e-01	 3.6538593869e-01
 1.6007644913e+00	 8.2313610264e-01	 2.4946034204e-01
 1.5907796296e+00	 8.4227084118e-01	 1.3636493845e-01
 1.5805473999e+00	 8.6131870795e-01	 2.8087483800e-02
 1.5700687544e+00	 8.8027501754e-01	-7.3669486093e-02
 1.6266555000e+00	 7.8785367972e-01	 4.7393504044e-01
 1.6171287249e+00	 8.0722749169e-01	 3.5859716634e-01
 1.6073519995e+00	 8.2652349401e-01	 2.4347236621e-01
 1.5973260479e+00	 8.4573697633e-01	 1.3083444865e-01
 1.5870517102e+00	 8.6486322938e-01	 2.2744162943e-02
 1.5765299427e+00	 8.8389754848e-01	-7.9027079629e-02
 1.6333221209e+00	 7.9108258825e-01	 4.6650284133e-01
 1.6237563017e+00	 8.1053580108e-01	 3.5226379248e-01
 1.6139395077e+00	 8.2991088538e-01	 2.3780898907e-01
 1.6038724661e+00	 8.4920311148e-01	 1.2552478981e-01
 1.5935560205e+00	 8.6840775081e-01	 1.7579802724e-02
 1.5829911310e+00	 8.8752007941e-01	-8.4152862504e-02
 1.5506851895e+00	 8.6940742473e-01	-5.7448337285e-02
 1.5400935916e+00	 8.8803465936e-01	-1.5414224639e-01
 1.5292608454e+00	 9.0656223938e-01	-2.5233485869e-01
 1.5181882358e+00	 9.2498557163e-01	-3.5356398528e-01
 1.5068771627e+00	 9.4330008143e-01	-4.5998898932e-01
 1.4953291405e+00	 9.6150121614e-01	-5.7447911388e-01
 1.5571463778e+00	 8.7302995567e-01	-6.2749710588e-02
 1.5465106482e+00	 8.9173480377e-01	-1.6057514546e-01
 1.5356327656e+00	 9.1033958205e-01	-2.5995275213e-01
 1.5245140202e+00	 9.2883967818e-01	-3.6175362439e-01
 1.5131558176e+00	 9.4723049843e-01	-4.6748896270e-01
 1.5015596786e+00	 9.6550747121e-01	-5.7940188686e-01
 1.5636075661e+00	 8.7665248660e-01	-6.8201265942e-02
 1.5529277049e+00	 8.9543494819e-01	-1.6679720406e-01
 1.5420046858e+00	 9.1411692471e-01	-2.6705476128e-01
 1.5308398045e+00	 9.3269378473e-01	-3.6932578776e-01
 1.5194344724e+00	 9.5116091544e-01	-4.7461494199e-01
 1.5077902167e+00	 9.6951372627e-01	-5.8467463711e-01
 1.5700687544e+00	 8.8027501754e-01	-7.3669486093e-02
 1.5593447615e+00	 8.9913509260e-01	-1.7273035878e-01
 1.5483766060e+00	 9.1789426738e-01	-2.7357366216e-01
 1.5371655888e+00	 9.3654789128e-01	-3.7617755157e-01
 1.5257131273e+00	 9.5509133245e-01	-4.8117987508e-01
 1.5140207548e+00	 9.7351998134e-01	-5.8997590528e-01
 1.5765299427e+00	 8.8389754848e-01	-7.9027079629e-02
 1.5657618181e+00	 9.0283523701e-01	-1.7830196423e-01
 1.5547485262e+00	 9.2167161004e-01	-2.7944758707e-01
 1.5434913731e+00	 9.4040199783e-01	-3.8221206404e-01
 1.5319917821e+00	 9.5902174945e-01	-4.8700430580e-01
 1.5202512929e+00	 9.7752623641e-01	-5.9499418946e-01
 1.5829911310e+00	 8.8752007941e-01	-8.4152862504e-02
 1.5721788748e+00	 9.0653538143e-01	-1.8344469033e-01
 1.5611204463e+00	 9.2544895271e-01	-2.8461992305e-01
 1.5498171574e+00	 9.4425610438e-01	-3.8733842997e-01
 1.5382704369e+00	 9.6295216646e-01	-4.9191622860e-01
 1.5264818310e+00	 9.8153249147e-01	-5.9942775370e-01
 1.4953291405e+00	 9.6150121614e-01	-5.7447911388e-01
 1.4835457981e+00	 9.7958444873e-01	-6.8993319041e-01
 1.4715288780e+00	 9.9754528133e-01	-7.9107213447e-01
 1.4592802364e+00	 1.0153792487e+00	-8.7127530197e-01
 1.4468018419e+00	 1.0330819220e+00	-9.4690212190e-01
 1.4340957747e+00	 1.0506489119e+00	-1.0351272258e+00
 1.5015596786e+00	 9.6550747121e-01	-5.7940188686e-01
 1.4897272389e+00	 9.8366605060e-01	-6.8994329849e-01
 1.4776602483e+00	 1.0017017200e+00	-7.9261452654e-01
 1.4653605707e+00	 1.0196099956e+00	-8.7675041552e-01
 1.4528301829e+00	 1.0373864300e+00	-9.5247427516e-01
 1.4400711738e+00	 1.0550266157e+00	-1.0378437771e+00
 1.5077902167e+00	 9.6951372627e-01	-5.8467463711e-01
 1.4959086797e+00	 9.8774765247e-01	-6.9147333488e-01
 1.4837916187e+00	 1.0058581587e+00	-7.9001727742e-01
 1.4714409051e+00	 1.0238407425e+00	-8.7949982599e-01
 1.4588585239e+00	 1.0416909380e+00	-9.5696424701e-01
 1.4460465729e+00	 1.0594043195e+00	-1.0406524786e+00
 1.5140207548e+00	 9.7351998134e-01	-5.8997590528e-01
 1.5020901205e+00	 9.9182925434e-01	-6.9407195137e-01
 1.4899229890e+00	 1.0100145973e+00	-7.8833613206e-01
 1.4775212394e+00	 1.0280714893e+00	-8.7932181241e-01
 1.4648868649e+00	 1.0459954460e+00	-9.6021908967e-01
 1.4520219719e+00	 1.0637820233e+00	-1.0435158182e+00
 1.5202512929e+00	 9.7752623641e-01	-5.9499418946e-01
 1.5082715614e+00	 9.9591085621e-01	-6.9730005707e-01
 1.4960543593e+00	 1.0141710360e+00	-7.8850030673e-01
 1.4836015737e+00	 1.0323022362e+00	-8.7639298031e-01
 1.4709152059e+00	 1.0502999540e+00	-9.6209608172e-01
 1.4579973710e+00	 1.0681597271e+00	-1.0464038886e+00
 1.5264818310e+00	 9.8153249147e-01	-5.9942775370e-01
 1.5144530022e+00	 9.9999245808e-01	-7.0073058264e-01
 1.5021857297e+00	 1.0183274747e+00	-7.9001766218e-01
 1.4896819080e+00	 1.0365329831e+00	-8.7482621942e-01
 1.4769435469e+00	 1.0546044620e+00	-9.6246337756e-01
 1.4639727701e+00	 1.0725374309e+00	-1.0492950784e+00
 1.4340957747e+00	 1.0506489119e+00	-1.0351272258e+00
 1.4211642262e+00	 1.0680758724e+00	-1.1257564743e+00
 1.4080094972e+00	 1.0853585044e+00	-1.2056532543e+00
 1.3946339969e+00	 1.1024925587e+00	-1.2874614634e+00
 1.3810402417e+00	 1.1194738398e+00	-1.3777549405e+00
 1.3672308537e+00	 1.1362982090e+00	-1.4496392980e+00
 1.4400711738e+00	 1.0550266157e+00	-1.0378437771e+00
 1.4270857438e+00	 1.0725261886e+00	-1.1256894172e+00
 1.4138762034e+00	 1.0898808315e+00	-1.2056220229e+00
 1.4004449719e+00	 1.1070862777e+00	-1.2907979695e+00
 1.3867945761e+00	 1.1241383141e+00	-1.3807264028e+00
 1.3729276490e+00	 1.1410327848e+00	-1.4508527120e+00
 1.4460465729e+00	 1.0594043195e+00	-1.0406524786e+00
 1.4330072614e+00	 1.0769765047e+00	-1.1263880691e+00
 1.4197429096e+00	 1.0944031586e+00	-1.2067147290e+00
 1.4062559468e+00	 1.1116799967e+00	-1.2954259898e+00
 1.3925489104e+00	 1.1288027884e+00	-1.3822207470e+00
 1.3786244442e+00	 1.1457673607e+00	-1.4509623652e+00
 1.4520219719e+00	 1.0637820233e+00	-1.0435158182e+00
 1.4389287791e+00	 1.0814268208e+00	-1.1279345109e+00
 1.4256096159e+00	 1.0989254857e+00	-1.2090720154e+00
 1.4120669218e+00	 1.1162737157e+00	-1.2997679760e+00
 1.3983032447e+00	 1.1334672628e+00	-1.3825365995e+00
 1.3843212394e+00	 1.1505019366e+00	-1.4501466305e+00
 1.4579973710e+00	 1.0681597271e+00	-1.0464038886e+00
 1.4448502967e+00	 1.0858771370e+00	-1.1304155729e+00
 1.4314763221e+00	 1.1034478128e+00	-1.2128372610e+00
 1.4178778968e+00	 1.1208674347e+00	-1.3030451707e+00
 1.4040575791e+00	 1.1381317371e+00	-1.3819763579e+00
 1.3900180346e+00	 1.1552365125e+00	-1.4485893701e+00
 1.4639727701e+00	 1.0725374309e+00	-1.0492950784e+00
 1.4507718143e+00	 1.0903274531e+00	-1.1339235683e+00
 1.4373430284e+00	 1.1079701399e+00	-1.2181573365e+00
 1.4236888718e+00	 1.1254611537e+00	-1.3056206913e+00
 1.4098119134e+00	 1.1427962114e+00	-1.3808458460e+00
 1.3957148299e+00	 1.1599710883e+00	-1.4464795656e+00
 1.3672308537e+00	 1.1362982090e+00	-1.4496392980e+00
 1.3532085589e+00	 1.1529615879e+00	-1.5111927023e+00
 1.3389761855e+00	 1.1694599616e+00	-1.5745515991e+00
 1.3245366621e+00	 1.1857893818e+00	-1.6366301085e+00
 1.3098930158e+00	 1.2019459698e+00	-1.6934563086e+00
 1.2950483699e+00	 1.2179259201e+00	-1.7403369064e+00
 1.3729276490e+00	 1.1410327848e+00	-1.4508527120e+00
 1.3588469279e+00	 1.1577655945e+00	-1.5120397105e+00
 1.3445552529e+00	 1.1743327115e+00	-1.5748908538e+00
 1.3300555648e+00	 1.1907301709e+00	-1.6364567721e+00
 1.3153509033e+00	 1.2069540780e+00	-1.6928525984e+00
 1.3004444048e+00	 1.2230006114e+00	-1.7394272762e+00
 1.3786244442e+00	 1.1457673607e+00	-1.4509623652e+00
 1.3644852969e+00	 1.1625696012e+00	-1.5122242324e+00
 1.3501343204e+00	 1.1792054613e+00	-1.5749708888e+00
 1.3355744676e+00	 1.1956709600e+00	-1.6363479596e+00
 1.3208087909e+00	 1.2119621863e+00	-1.6925202302e+00
 1.3058404396e+00	 1.2280753028e+00	-1.7388458072e+00
 1.3843212394e+00	 1.1505019366e+00	-1.4501466305e+00
 1.3701236659e+00	 1.1673736078e+00	-1.5117906638e+00
 1.3557133878e+00	 1.1840782111e+00	-1.5747376650e+00
 1.3410933704e+00	 1.2006117491e+00	-1.6361871424e+00
 1.3262666785e+00	 1.2169702945e+00	-1.6923164701e+00
 1.3112364745e+00	 1.2331499941e+00	-1.7384601214e+00
 1.3900180346e+00	 1.1552365125e+00	-1.4485893701e+00
 1.3757620349e+00	 1.1721776144e+00	-1.5107909026e+00
 1.3612924553e+00	 1.1889509610e+00	-1.5741461408e+00
 1.3466122731e+00	 1.2055525381e+00	-1.6358677545e+00
 1.3317245660e+00	 1.2219784027e+00	-1.6921089704e+00
 1.3166325094e+00	 1.2382246854e+00	-1.7381480984e+00
 1.3957148299e+00	 1.1599710883e+00	-1.4464795656e+00
 1.3814004039e+00	 1.1769816210e+00	-1.5092839495e+00
 1.3668715227e+00	 1.1938237108e+00	-1.5731598550e+00
 1.3521311759e+00	 1.2104933272e+00	-1.6352927705e+00
 1.3371824536e+00	 1.2269865109e+00	-1.6917753554e+00
 1.3220285442e+00	 1.2432993768e+00	-1.7377974815e+00
 1.2950483699e+00	 1.2179259201e+00	-1.7403369064e+00
 1.2800059419e+00	 1.2337255026e+00	-1.7838808930e+00
 1.2647690411e+00	 1.2493410662e+00	-1.8310346979e+00
 1.2493410662e+00	 1.2647690411e+00	-1.8770387538e+00
 1.2337255026e+00	 1.2800059419e+00	-1.9171075574e+00
 1.2179259201e+00	 1.2950483699e+00	-1.9466252763e+00
 1.3004444048e+00	 1.2230006114e+00	-1.7394272762e+00
 1.2853393000e+00	 1.2388660256e+00	-1.7827170503e+00
 1.2700389121e+00	 1.2545466540e+00	-1.8296146809e+00
 1.2545466540e+00	 1.2700389121e+00	-1.8753903636e+00
 1.2388660256e+00	 1.2853393000e+00	-1.9152789341e+00
 1.2230006114e+00	 1.3004444048e+00	-1.9446811978e+00
 1.3058404396e+00	 1.2280753028e+00	-1.7388458072e+00
 1.2906726581e+00	 1.2440065485e+00	-1.7818084716e+00
 1.2753087832e+00	 1.2597522418e+00	-1.8283047641e+00
 1.2597522418e+00	 1.2753087832e+00	-1.8736609947e+00
 1.2440065485e+00	 1.2906726581e+00	-1.9131591583e+00
 1.2280753028e+00	 1.3058404396e+00	-1.9422440770e+00
 1.3112364745e+00	 1.2331499941e+00	-1.7384601214e+00
 1.2960060162e+00	 1.2491470714e+00	-1.7810542752e+00
 1.2805786542e+00	 1.2649578295e+00	-1.8270408096e+00
 1.2649578295e+00	 1.2805786542e+00	-1.8718280145e+00
 1.2491470714e+00	 1.2960060162e+00	-1.9107713646e+00
 1.2331499941e+00	 1.3112364745e+00	-1.9393865664e+00
 1.3166325094e+00	 1.2382246854e+00	-1.7381480984e+00
 1.3013393743e+00	 1.2542875943e+00	-1.7803634007e+00
 1.2858485252e+00	 1.2701634173e+00	-1.8257680110e+00
 1.2701634173e+00	 1.2858485252e+00	-1.8698775777e+00
 1.2542875943e+00	 1.3013393743e+00	-1.9081468754e+00
 1.2382246854e+00	 1.3166325094e+00	-1.9361888523e+00
 1.3220285442e+00	 1.2432993768e+00	-1.7377974815e+00
 1.3066727324e+00	 1.2594281173e+00	-1.7796542439e+00
 1.2911183962e+00	 1.2753690051e+00	-1.8244405573e+00
 1.2753690051e+00	 1.2911183962e+00	-1.8678043219e+00
 1.2594281173e+00	 1.3066727324e+00	-1.9053249315e+00
 1.2432993768e+00	 1.3220285442e+00	-1.9327384216e+00
 1.2179259201e+00	 1.2950483699e+00	-1.9466252763e+00
 1.2019459698e+00	 1.3098930158e+00	-1.9720585211e+00
 1.1857893818e+00	 1.3245366621e+00	-1.9988239944e+00
 1.1694599616e+00	 1.3389761855e+00	-2.0214854259e+00
 1.1529615879e+00	 1.3532085589e+00	-2.0354358239e+00
 1.1362982090e+00	 1.3672308537e+00	-2.0370775819e+00
 1.2230006114e+00	 1.3004444048e+00	-1.9446811978e+00
 1.2069540780e+00	 1.3153509033e+00	-1.9698219582e+00
 1.1907301709e+00	 1.3300555648e+00	-1.9959828828e+00
 1.1743327115e+00	 1.3445552529e+00	-2.0179453593e+00
 1.1577655945e+00	 1.3588469279e+00	-2.0313776879e+00
 1.1410327848e+00	 1.3729276490e+00	-2.0330200352e+00
 1.2280753028e+00	 1.3058404396e+00	-1.9422440770e+00
 1.2119621863e+00	 1.3208087909e+00	-1.9670360291e+00
 1.1956709600e+00	 1.3355744676e+00	-1.9927604322e+00
 1.1792054613e+00	 1.3501343204e+00	-2.0143519428e+00
 1.1625696012e+00	 1.3644852969e+00	-2.0276840174e+00
 1.1457673607e+00	 1.3786244442e+00	-2.0297590258e+00
 1.2331499941e+00	 1.3112364745e+00	-1.9393865664e+00
 1.2169702945e+00	 1.3262666785e+00	-1.9638013904e+00
 1.2006117491e+00	 1.3410933704e+00	-1.9892392436e+00
 1.1840782111e+00	 1.3557133878e+00	-2.0107242693e+00
 1.1673736078e+00	 1.3701236659e+00	-2.0242656101e+00
 1.1505019366e+00	 1.3843212394e+00	-2.0270529962e+00
 1.2382246854e+00	 1.3166325094e+00	-1.9361888523e+00
 1.2219784027e+00	 1.3317245660e+00	-1.9602259290e+00
 1.2055525381e+00	 1.3466122731e+00	-1.9855095899e+00
 1.1889509610e+00	 1.3612924553e+00	-2.0070902701e+00
 1.1721776144e+00	 1.3757620349e+00	-2.0210439745e+00
 1.1552365125e+00	 1.3900180346e+00	-2.0246736584e+00
 1.2432993768e+00	 1.3220285442e+00	-1.9327384216e+00
 1.2269865109e+00	 1.3371824536e+00	-1.9564245584e+00
 1.2104933272e+00	 1.3521311759e+00	-1.9816692254e+00
 1.1938237108e+00	 1.3668715227e+00	-2.0034865242e+00
 1.1769816210e+00	 1.3814004039e+00	-2.0179511249e+00
 1.1599710883e+00	 1.3957148299e+00	-2.0224057593e+00
 1.1362982090e+00	 1.3672308537e+00	-2.0370775819e+00
 1.1194738398e+00	 1.3810402417e+00	-2.0402498558e+00
 1.1024925587e+00	 1.3946339969e+00	-2.0542307547e+00
 1.0853585044e+00	 1.4080094972e+00	-2.0618239887e+00
 1.0680758724e+00	 1.4211642262e+00	-2.0642092383e+00
 1.0506489119e+00	 1.4340957747e+00	-2.0664413475e+00
 1.1410327848e+00	 1.3729276490e+00	-2.0330200352e+00
 1.1241383141e+00	 1.3867945761e+00	-2.0356499504e+00
 1.1070862777e+00	 1.4004449719e+00	-2.0495250441e+00
 1.0898808315e+00	 1.4138762034e+00	-2.0582087586e+00
 1.0725261886e+00	 1.4270857438e+00	-2.0594344070e+00
 1.0550266157e+00	 1.4400711738e+00	-2.0587701607e+00
 1.1457673607e+00	 1.3786244442e+00	-2.0297590258e+00
 1.1288027884e+00	 1.3925489104e+00	-2.0320816235e+00
 1.1116799967e+00	 1.4062559468e+00	-2.0443680347e+00
 1.0944031586e+00	 1.4197429096e+00	-2.0542661113e+00
 1.0769765047e+00	 1.4330072614e+00	-2.0545265974e+00
 1.0594043195e+00	 1.4460465729e+00	-2.0514104515e+00
 1.1505019366e+00	 1.3843212394e+00	-2.0270529962e+00
 1.1334672628e+00	 1.3983032447e+00	-2.0291633782e+00
 1.1162737157e+00	 1.4120669218e+00	-2.0392002957e+00
 1.0989254857e+00	 1.4256096159e+00	-2.0495224669e+00
 1.0814268208e+00	 1.4389287791e+00	-2.0490654105e+00
 1.0637820233e+00	 1.4520219719e+00	-2.0440575625e+00
 1.1552365125e+00	 1.3900180346e+00	-2.0246736584e+00
 1.1381317371e+00	 1.4040575791e+00	-2.0265292981e+00
 1.1208674347e+00	 1.4178778968e+00	-2.0341522321e+00
 1.1034478128e+00	 1.4314763221e+00	-2.0435241323e+00
 1.0858771370e+00	 1.4448502967e+00	-2.0426475010e+00
 1.0681597271e+00	 1.4579973710e+00	-2.0364200391e+00
 1.1599710883e+00	 1.3957148299e+00	-2.0224057593e+00
 1.1427962114e+00	 1.4098119134e+00	-2.0238287869e+00
 1.1254611537e+00	 1.4236888718e+00	-2.0288026202e+00
 1.1079701399e+00	 1.4373430284e+00	-2.0358375473e+00
 1.0903274531e+00	 1.4507718143e+00	-2.0348868301e+00
 1.0725374309e+00	 1.4639727701e+00	-2.0282199100e+00
 1.0506489119e+00	 1.4340957747e+00	-2.0664413475e+00
 1.0330819220e+00	 1.4468018419e+00	-2.0543389275e+00
 1.0153792487e+00	 1.4592802364e+00	-2.0220319274e+00
 9.9754528133e-01	 1.4715288780e+00	-1.9878298251e+00
 9.7958444873e-01	 1.4835457981e+00	-1.9694853611e+00
 9.6150121614e-01	 1.4953291405e+00	-1.9602405696e+00
 1.0550266157e+00	 1.4400711738e+00	-2.0587701607e+00
 1.0373864300e+00	 1.4528301829e+00	-2.0443000600e+00
 1.0196099956e+00	 1.4653605707e+00	-2.0127006510e+00
 1.0017017200e+00	 1.4776602483e+00	-1.9832003620e+00
 9.8366605060e-01	 1.4897272389e+00	-1.9670493603e+00
 9.6550747121e-01	 1.5015596786e+00	-1.9530984719e+00
 1.0594043195e+00	 1.4460465729e+00	-2.0514104515e+00
 1.0416909380e+00	 1.4588585239e+00	-2.0355318229e+00
 1.0238407425e+00	 1.4714409051e+00	-2.0061153539e+00
 1.0058581587e+00	 1.4837916187e+00	-1.9825821823e+00
 9.8774765247e-01	 1.4959086797e+00	-1.9627681166e+00
 9.6951372627e-01	 1.5077902167e+00	-1.9453825036e+00
 1.0637820233e+00	 1.4520219719e+00	-2.0440575625e+00
 1.0459954460e+00	 1.4648868649e+00	-2.0278392367e+00
 1.0280714893e+00	 1.4775212394e+00	-2.0021193429e+00
 1.0100145973e+00	 1.4899229890e+00	-1.9806215691e+00
 9.9182925434e-01	 1.5020901205e+00	-1.9570789355e+00
 9.7351998134e-01	 1.5140207548e+00	-1.9373877957e+00
 1.0681597271e+00	 1.4579973710e+00	-2.0364200391e+00
 1.0502999540e+00	 1.4709152059e+00	-2.0210367982e+00
 1.0323022362e+00	 1.4836015737e+00	-2.0002188321e+00
 1.0141710360e+00	 1.4960543593e+00	-1.9763606798e+00
 9.9591085621e-01	 1.5082715614e+00	-1.9504159089e+00
 9.7752623641e-01	 1.5202512929e+00	-1.9294086674e+00
 1.0725374309e+00	 1.4639727701e+00	-2.0282199100e+00
 1.0546044620e+00	 1.4769435469e+00	-2.0149487881e+00
 1.0365329831e+00	 1.4896819080e+00	-1.9963543244e+00
 1.0183274747e+00	 1.5021857297e+00	-1.9703063250e+00
 9.9999245808e-01	 1.5144530022e+00	-1.9432098429e+00
 9.8153249147e-01	 1.5264818310e+00	-1.9217385159e+00
 9.6150121614e-01	 1.4953291405e+00	-1.9602405696e+00
 9.4330008143e-01	 1.5068771627e+00	-1.9443886150e+00
 9.2498557163e-01	 1.5181882358e+00	-1.9156302090e+00
 9.0656223938e-01	 1.5292608454e+00	-1.8776321499e+00
 8.8803465936e-01	 1.5400935916e+00	-1.8334636011e+00
 8.6940742473e-01	 1.5506851895e+00	-1.7856636116e+00
 9.6550747121e-01	 1.5015596786e+00	-1.9530984719e+00
 9.4723049843e-01	 1.5131558176e+00	-1.9347869676e+00
 9.2883967818e-01	 1.5245140202e+00	-1.9053386830e+00
 9.1033958205e-01	 1.5356327656e+00	-1.8677738186e+00
 8.9173480377e-01	 1.5465106482e+00	-1.8244949874e+00
 8.7302995567e-01	 1.5571463778e+00	-1.7773581150e+00
 9.6951372627e-01	 1.5077902167e+00	-1.9453825036e+00
 9.5116091544e-01	 1.5194344724e+00	-1.9253928125e+00
 9.3269378473e-01	 1.5308398045e+00	-1.8955244578e+00
 9.1411692471e-01	 1.5420046858e+00	-1.8582968527e+00
 8.9543494819e-01	 1.5529277049e+00	-1.8155989251e+00
 8.7665248660e-01	 1.5636075661e+00	-1.7687630259e+00
 9.7351998134e-01	 1.5140207548e+00	-1.9373877957e+00
 9.5509133245e-01	 1.5257131273e+00	-1.9163576689e+00
 9.3654789128e-01	 1.5371655888e+00	-1.8862527651e+00
 9.1789426738e-01	 1.5483766060e+00	-1.8492355258e+00
 8.9913509260e-01	 1.5593447615e+00	-1.8068320143e+00
 8.8027501754e-01	 1.5700687544e+00	-1.7600084658e+00
 9.7752623641e-01	 1.5202512929e+00	-1.9294086674e+00
 9.5902174945e-01	 1.5319917821e+00	-1.9078346712e+00
 9.4040199783e-01	 1.5434913731e+00	-1.8775919371e+00
 9.2167161004e-01	 1.5547485262e+00	-1.8406277859e+00
 9.0283523701e-01	 1.5657618181e+00	-1.7982542230e+00
 8.8389754848e-01	 1.5765299427e+00	-1.7512267676e+00
 9.8153249147e-01	 1.5264818310e+00	-1.9217385159e+00
 9.6295216646e-01	 1.5382704369e+00	-1.8999784197e+00
 9.4425610438e-01	 1.5498171574e+00	-1.8696132375e+00
 9.2544895271e-01	 1.5611204463e+00	-1.8325150844e+00
 9.0653538143e-01	 1.5721788748e+00	-1.7899287315e+00
 8.8752007941e-01	 1.5829911310e+00	-1.7425523540e+00
 8.6940742473e-01	 1.5506851895e+00	-1.7856636116e+00
 8.5068514365e-01	 1.5610344690e+00	-1.7391334860e+00
 8.3187243573e-01	 1.5711403750e+00	-1.6967200426e+00
 8.1297392853e-01	 1.5810019667e+00	-1.6573411664e+00
 7.9399425412e-01	 1.5906184180e+00	-1.6197220051e+00
 7.7493804563e-01	 1.5999890164e+00	-1.5824537782e+00
 8.7302995567e-01	 1.5571463778e+00	-1.7773581150e+00
 8.5422966509e-01	 1.5675387793e+00	-1.7309582130e+00
 8.3533857088e-01	 1.5776867932e+00	-1.6883284683e+00
 8.1636131990e-01	 1.5875894749e+00	-1.6484311870e+00
 7.9730256351e-01	 1.5972459947e+00	-1.6100355477e+00
 7.7816695415e-01	 1.6066556373e+00	-1.5717774750e+00
 8.7665248660e-01	 1.5636075661e+00	-1.7687630259e+00
 8.5777418652e-01	 1.5740430896e+00	-1.7222353167e+00
 8.3880470603e-01	 1.5842332114e+00	-1.6792692521e+00
 8.1974871127e-01	 1.5941769831e+00	-1.6388475282e+00
 8.0061087291e-01	 1.6038735715e+00	-1.5997553679e+00
 7.8139586267e-01	 1.6133222582e+00	-1.5606416006e+00
 8.8027501754e-01	 1.5700687544e+00	-1.7600084658e+00
 8.6131870795e-01	 1.5805473999e+00	-1.7131774937e+00
 8.4227084118e-01	 1.5907796296e+00	-1.6698062061e+00
 8.2313610264e-01	 1.6007644913e+00	-1.6288740057e+00
 8.0391918230e-01	 1.6105011482e+00	-1.5891545620e+00
 7.8462477120e-01	 1.6199888791e+00	-1.5492782392e+00
 8.8389754848e-01	 1.5765299427e+00	-1.7512267676e+00
 8.6486322938e-01	 1.5870517102e+00	-1.7039983360e+00
 8.4573697633e-01	 1.5973260479e+00	-1.6602032228e+00
 8.2652349401e-01	 1.6073519995e+00	-1.6187941950e+00
 8.0722749169e-01	 1.6171287249e+00	-1.5785061527e+00
 7.8785367972e-01	 1.6266555000e+00	-1.5379200452e+00
 8.8752007941e-01	 1.5829911310e+00	-1.7425523540e+00
 8.6840775081e-01	 1.5935560205e+00	-1.6949122440e+00
 8.4920311148e-01	 1.6038724661e+00	-1.6507242142e+00
 8.2991088538e-01	 1.6139395077e+00	-1.6088913858e+00
 8.1053580108e-01	 1.6237563017e+00	-1.5680830469e+00
 7.9108258825e-01	 1.6333221209e+00	-1.5268001965e+00
 7.7493804563e-01	 1.5999890164e+00	-1.5824537782e+00
 7.5580993385e-01	 1.6091131629e+00	-1.5348354124e+00
 7.3661454390e-01	 1.6179903711e+00	-1.4734635358e+00
 7.1735649190e-01	 1.6266202663e+00	-1.4103867947e+00
 6.9804038171e-01	 1.6350025849e+00	-1.3503290807e+00
 6.7867080176e-01	 1.6431371732e+00	-1.2953204702e+00
 7.7816695415e-01	 1.6066556373e+00	-1.5717774750e+00
 7.5895914191e-01	 1.6158178011e+00	-1.5235171575e+00
 7.3968377117e-01	 1.6247319976e+00	-1.4619727277e+00
 7.2034547728e-01	 1.6333978507e+00	-1.3985411933e+00
 7.0094888330e-01	 1.6418150957e+00	-1.3389200271e+00
 6.8149859677e-01	 1.6499835781e+00	-1.2847400694e+00
 7.8139586267e-01	 1.6133222582e+00	-1.5606416006e+00
 7.6210834997e-01	 1.6225224393e+00	-1.5118818065e+00
 7.4275299843e-01	 1.6314736242e+00	-1.4504232821e+00
 7.2333446266e-01	 1.6401754352e+00	-1.3866668528e+00
 7.0385738489e-01	 1.6486276065e+00	-1.3274566091e+00
 6.8432639177e-01	 1.6568299830e+00	-1.2740585495e+00
 7.8462477120e-01	 1.6199888791e+00	-1.5492782392e+00
 7.6525755802e-01	 1.6292270774e+00	-1.5001126357e+00
 7.4582222570e-01	 1.6382152507e+00	-1.4388365824e+00
 7.2632344805e-01	 1.6469530196e+00	-1.3748921021e+00
 7.0676588648e-01	 1.6554401172e+00	-1.3160502175e+00
 6.8715418678e-01	 1.6636763879e+00	-1.2633835202e+00
 7.8785367972e-01	 1.6266555000e+00	-1.5379200452e+00
 7.6840676608e-01	 1.6359317156e+00	-1.4883942451e+00
 7.4889145297e-01	 1.6449568773e+00	-1.4273527695e+00
 7.2931243343e-01	 1.6537306041e+00	-1.3633512624e+00
 7.0967438807e-01	 1.6622526280e+00	-1.3048190931e+00
 6.8998198179e-01	 1.6705227928e+00	-1.2528299924e+00
 7.9108258825e-01	 1.6333221209e+00	-1.5268001965e+00
 7.7155597414e-01	 1.6426363538e+00	-1.4769125017e+00
 7.5196068023e-01	 1.6516985038e+00	-1.4161243528e+00
 7.3230141881e-01	 1.6605081885e+00	-1.3521841857e+00
 7.1258288966e-01	 1.6690651388e+00	-1.2938878929e+00
 6.9280977679e-01	 1.6773691977e+00	-1.2425199761e+00
 6.7867080176e-01	 1.6431371732e+00	-1.2953204702e+00
 6.5925232186e-01	 1.6510239863e+00	-1.2475894718e+00
 6.3978949017e-01	 1.6586630868e+00	-1.2046891338e+00
 6.2028683015e-01	 1.6660546436e+00	-1.1620893033e+00
 6.0074883764e-01	 1.6731989306e+00	-1.1156185381e+00
 5.8117997796e-01	 1.6800963247e+00	-1.0614956149e+00
 6.8149859677e-01	 1.6499835781e+00	-1.2847400694e+00
 6.6199920654e-01	 1.6579032529e+00	-1.2374131008e+00
 6.4245527971e-01	 1.6655741830e+00	-1.1941519331e+00
 6.2287135861e-01	 1.6729965380e+00	-1.1507709041e+00
 6.0325195779e-01	 1.6801705928e+00	-1.1034649394e+00
 5.8360156120e-01	 1.6870967261e+00	-1.0488400585e+00
 6.8432639177e-01	 1.6568299830e+00	-1.2740585495e+00
 6.6474609121e-01	 1.6647825195e+00	-1.2270980485e+00
 6.4512106926e-01	 1.6724852792e+00	-1.1834762620e+00
 6.2545588707e-01	 1.6799384323e+00	-1.1393470913e+00
 6.0575507795e-01	 1.6871422550e+00	-1.0912670156e+00
 5.8602314445e-01	 1.6940971274e+00	-1.0362246172e+00
 6.8715418678e-01	 1.6636763879e+00	-1.2633835202e+00
 6.6749297588e-01	 1.6716617861e+00	-1.2167495628e+00
 6.4778685880e-01	 1.6793963754e+00	-1.1727547925e+00
 6.2804041553e-01	 1.6868803267e+00	-1.1278878984e+00
 6.0825819811e-01	 1.6941139172e+00	-1.0790622903e+00
 5.8844472769e-01	 1.7010975288e+00	-1.0236446668e+00
 6.8998198179e-01	 1.6705227928e+00	-1.2528299924e+00
 6.7023986056e-01	 1.6785410527e+00	-1.2064807244e+00
 6.5045264834e-01	 1.6863074716e+00	-1.1620885283e+00
 6.3062494399e-01	 1.6938222210e+00	-1.1164722511e+00
 6.1076131827e-01	 1.7010855794e+00	-1.0668977971e+00
 5.9086631093e-01	 1.7080979301e+00	-1.0111057623e+00
 6.9280977679e-01	 1.6773691977e+00	-1.2425199761e+00
 6.7298674523e-01	 1.6854203193e+00	-1.1964120771e+00
 6.5311843788e-01	 1.6932185677e+00	-1.1515864641e+00
 6.3320947245e-01	 1.7007641154e+00	-1.1051876518e+00
 6.1326443842e-01	 1.7080572416e+00	-1.0548297857e+00
 5.9328789417e-01	 1.7150983315e+00	-9.9862336345e-01
 5.8117997796e-01	 1.6800963247e+00	-1.0614956149e+00
 5.6158468317e-01	 1.6867473050e+00	-1.0032880523e+00
 5.4196734928e-01	 1.6931524502e+00	-9.4642893445e-01
 5.2233233371e-01	 1.6993124375e+00	-8.9052716925e-01
 5.0268395265e-01	 1.7052280407e+00	-8.3555750226e-01
 4.8302647864e-01	 1.7109001280e+00	-7.8183331875e-01
 5.8360156120e-01	 1.6870967261e+00	-1.0488400585e+00
 5.6392461935e-01	 1.6937754187e+00	-9.9076399548e-01
 5.4422554657e-01	 1.7002072520e+00	-9.3448256853e-01
 5.2450871843e-01	 1.7063929060e+00	-8.7929035142e-01
 5.0477846911e-01	 1.7123331576e+00	-8.2486660431e-01
 4.8503908897e-01	 1.7180288786e+00	-7.7124667400e-01
 5.8602314445e-01	 1.6940971274e+00	-1.0362246172e+00
 5.6626455553e-01	 1.7008035325e+00	-9.7836873751e-01
 5.4648374386e-01	 1.7072620539e+00	-9.2274980137e-01
 5.2668510316e-01	 1.7134733745e+00	-8.6836090616e-01
 5.0687298558e-01	 1.7194382744e+00	-8.1459990186e-01
 4.8705169930e-01	 1.7251576291e+00	-7.6123931130e-01
 5.8844472769e-01	 1.7010975288e+00	-1.0236446668e+00
 5.6860449171e-01	 1.7078316463e+00	-9.6605125445e-01
 5.4874194115e-01	 1.7143168558e+00	-9.1113423444e-01
 5.2886148788e-01	 1.7205538430e+00	-8.5759820527e-01
 5.0896750205e-01	 1.7265433912e+00	-8.0457382995e-01
 4.8906430963e-01	 1.7322863796e+00	-7.5158619661e-01
 5.9086631093e-01	 1.7080979301e+00	-1.0111057623e+00
 5.7094442789e-01	 1.7148597600e+00	-9.5377133538e-01
 5.5100013844e-01	 1.7213716577e+00	-8.9955079497e-01
 5.3103787260e-01	 1.7276343115e+00	-8.4687333859e-01
 5.1106201852e-01	 1.7336485081e+00	-7.9461681444e-01
 4.9107691995e-01	 1.7394151302e+00	-7.4207444173e-01
 5.9328789417e-01	 1.7150983315e+00	-9.9862336345e-01
 5.7328436407e-01	 1.7218878738e+00	-9.4149932453e-01
 5.5325833573e-01	 1.7284264595e+00	-8.8792549508e-01
 5.3321425733e-01	 1.7347147800e+00	-8.3606889010e-01
 5.1315653499e-01	 1.7407536249e+00	-7.8456906513e-01
 4.9308953028e-01	 1.7465438807e+00	-7.3250311422e-01
 4.8302647864e-01	 1.7109001280e+00	-7.8183331875e-01
 4.6336413823e-01	 1.7163296602e+00	-7.3279180816e-01
 4.4370110961e-01	 1.7215176887e+00	-6.8979371531e-01
 4.2404152051e-01	 1.7264653533e+00	-6.5043643945e-01
 4.0438944601e-01	 1.7311738801e+00	-6.1250021118e-01
 3.8474890661e-01	 1.7356445794e+00	-5.7389821180e-01
 4.8503908897e-01	 1.7180288786e+00	-7.7124667400e-01
 4.6529482214e-01	 1.7234810338e+00	-7.2161081040e-01
 4.4554986424e-01	 1.7286906791e+00	-6.7760397100e-01
 4.2580836018e-01	 1.7336589589e+00	-6.3736727464e-01
 4.0607440203e-01	 1.7383871046e+00	-5.9921888927e-01
 3.8635202706e-01	 1.7428764318e+00	-5.6160024357e-01
 4.8705169930e-01	 1.7251576291e+00	-7.6123931130e-01
 4.6722550605e-01	 1.7306324074e+00	-7.1119742879e-01
 4.4739861886e-01	 1.7358636694e+00	-6.6635809335e-01
 4.2757519984e-01	 1.7408525645e+00	-6.2536264690e-01
 4.0775935806e-01	 1.7456003291e+00	-5.8702497612e-01
 3.8795514750e-01	 1.7501082842e+00	-5.5027380717e-01
 4.8906430963e-01	 1.7322863796e+00	-7.5158619661e-01
 4.6915618996e-01	 1.7377837810e+00	-7.0128538961e-01
 4.4924737348e-01	 1.7430366598e+00	-6.5574810014e-01
 4.2934203951e-01	 1.7480461702e+00	-6.1407341384e-01
 4.0944431408e-01	 1.7528135536e+00	-5.7552974916e-01
 3.8955826794e-01	 1.7573401366e+00	-5.3949322326e-01
 4.9107691995e-01	 1.7394151302e+00	-7.4207444173e-01
 4.7108687387e-01	 1.7449351546e+00	-6.9162062776e-01
 4.5109612811e-01	 1.7502096502e+00	-6.4547820624e-01
 4.3110887918e-01	 1.7552397758e+00	-6.0316253481e-01
 4.1112927011e-01	 1.7600267781e+00	-5.6435639945e-01
 3.9116138839e-01	 1.7645719891e+00	-5.2884443707e-01
 4.9308953028e-01	 1.7465438807e+00	-7.3250311422e-01
 4.7301755777e-01	 1.7520865281e+00	-6.8196111306e-01
 4.5294488273e-01	 1.7573826405e+00	-6.3526466529e-01
 4.3287571885e-01	 1.7624333815e+00	-5.9230492727e-01
 4.1281422613e-01	 1.7672400026e+00	-5.5313990246e-01
 3.9276450883e-01	 1.7718038415e+00	-5.1792490322e-01
 3.8474890661e-01	 1.7356445794e+00	-5.7389821180e-01
 3.6512386628e-01	 1.7398788433e+00	-5.2380147277e-01
 3.4551823062e-01	 1.7438781435e+00	-4.7852700593e-01
 3.2593584521e-01	 1.7476440290e+00	-4.4522690005e-01
 3.0638049390e-01	 1.7511781235e+00	-4.1749981444e-01
 2.8685589735e-01	 1.7544821234e+00	-3.8911897945e-01
 3.8635202706e-01	 1.7428764318e+00	-5.6160024357e-01
 3.6664521572e-01	 1.7471283385e+00	-5.1351095627e-01
 3.4695788992e-01	 1.7511443025e+00	-4.6741616202e-01
 3.2729391123e-01	 1.7549258791e+00	-4.3323049620e-01
 3.0765707930e-01	 1.7584746990e+00	-4.0493518731e-01
 2.8805113025e-01	 1.7617924656e+00	-3.7660123935e-01
 3.8795514750e-01	 1.7501082842e+00	-5.5027380717e-01
 3.6816656516e-01	 1.7543778337e+00	-5.0435770309e-01
 3.4839754921e-01	 1.7584104614e+00	-4.5756697444e-01
 3.2865197726e-01	 1.7622077292e+00	-4.2257273921e-01
 3.0893366469e-01	 1.7657712745e+00	-3.9377934853e-01
 2.8924636316e-01	 1.7691028078e+00	-3.6559099132e-01
 3.8955826794e-01	 1.7573401366e+00	-5.3949322326e-01
 3.6968791461e-01	 1.7616273289e+00	-4.9582789663e-01
 3.4983720851e-01	 1.7656766203e+00	-4.4843878637e-01
 3.3001004328e-01	 1.7694895793e+00	-4.1269792413e-01
 3.1021025008e-01	 1.7730678500e+00	-3.8347203983e-01
 2.9044159607e-01	 1.7764131499e+00	-3.5553252547e-01
 3.9116138839e-01	 1.7645719891e+00	-5.2884443707e-01
 3.7120926405e-01	 1.7688768240e+00	-4.8737694943e-01
 3.5127686780e-01	 1.7729427793e+00	-4.3949957980e-01
 3.3136810930e-01	 1.7767714294e+00	-4.0305619872e-01
 3.1148683547e-01	 1.7803644255e+00	-3.7345646637e-01
 2.9163682897e-01	 1.7837234921e+00	-3.4587160409e-01
 3.9276450883e-01	 1.7718038415e+00	-5.1792490322e-01
 3.7273061349e-01	 1.7761263192e+00	-4.7832601352e-01
 3.5271652710e-01	 1.7802089382e+00	-4.3022631504e-01
 3.3272617532e-01	 1.7840532796e+00	-3.9310385993e-01
 3.1276342086e-01	 1.7876610010e+00	-3.6317955261e-01
 2.9283206188e-01	 1.7910338343e+00	-3.3605567891e-01
 2.8685589735e-01	 1.7544821234e+00	-3.8911897945e-01
 2.6736571154e-01	 1.7575577952e+00	-3.5837278447e-01
 2.4791352648e-01	 1.7604069730e+00	-3.2877219943e-01
 2.2850286493e-01	 1.7630315561e+00	-3.0194799808e-01
 2.0913718130e-01	 1.7654335067e+00	-2.7945253330e-01
 1.8981986052e-01	 1.7676148471e+00	-2.6279958371e-01
 2.8805113025e-01	 1.7617924656e+00	-3.7660123935e-01
 2.6847973534e-01	 1.7648809527e+00	-3.4633864035e-01
 2.4894649950e-01	 1.7677420020e+00	-3.1729126201e-01
 2.2945496020e-01	 1.7703775209e+00	-2.9099937257e-01
 2.1000858622e-01	 1.7727894796e+00	-2.6887159983e-01
 1.9061077660e-01	 1.7749799090e+00	-2.5223487957e-01
 2.8924636316e-01	 1.7691028078e+00	-3.6559099132e-01
 2.6959375914e-01	 1.7722041102e+00	-3.3594599089e-01
 2.4997947253e-01	 1.7750770311e+00	-3.0758903615e-01
 2.3040705548e-01	 1.7777234858e+00	-2.8194188538e-01
 2.1087999114e-01	 1.7801454526e+00	-2.6023975819e-01
 1.9140169269e-01	 1.7823449708e+00	-2.4359174924e-01
 2.9044159607e-01	 1.7764131499e+00	-3.5553252547e-01
 2.7070778293e-01	 1.7795272676e+00	-3.2665763411e-01
 2.5101244556e-01	 1.7824120602e+00	-2.9916596353e-01
 2.3135915075e-01	 1.7850694506e+00	-2.7433170903e-01
 2.1175139606e-01	 1.7875014255e+00	-2.5318586909e-01
 1.9219260877e-01	 1.7897100327e+00	-2.3658749660e-01
 2.9163682897e-01	 1.7837234921e+00	-3.4587160409e-01
 2.7182180673e-01	 1.7868504251e+00	-3.1793614235e-01
 2.5204541859e-01	 1.7897470892e+00	-2.9152074305e-01
 2.3231124602e-01	 1.7924154154e+00	-2.6772192369e-01
 2.1262280098e-01	 1.7948573985e+00	-2.4733450439e-01
 1.9298352486e-01	 1.7970750946e+00	-2.3093407807e-01
 2.9283206188e-01	 1.7910338343e+00	-3.3605567891e-01
 2.7293583053e-01	 1.7941735826e+00	-3.0924404489e-01
 2.5307839161e-01	 1.7970821183e+00	-2.8415048463e-01
 2.3326334129e-01	 1.7997613802e+00	-2.6166264785e-01
 2.1349420591e-01	 1.8022133714e+00	-2.4230606038e-01
 1.9377444094e-01	 1.8044401564e+00	-2.2633820381e-01
 1.8981986052e-01	 1.7676148471e+00	-2.6279958371e-01
 1.7055421715e-01	 1.7695776576e+00	-2.4942149065e-01
 1.5134349449e-01	 1.7713240736e+00	-2.3589737681e-01
 1.3219086378e-01	 1.7728562837e+00	-2.2266276724e-01
 1.1309942352e-01	 1.7741765266e+00	-2.1048389415e-01
 9.4072198906e-02	 1.7752870891e+00	-2.0054125923e-01
 1.9061077660e-01	 1.7749799090e+00	-2.5223487957e-01
 1.7126485972e-01	 1.7769508978e+00	-2.3862874506e-01
 1.5197409238e-01	 1.7787045906e+00	-2.2494774770e-01
 1.3274165904e-01	 1.7802431849e+00	-2.1172031271e-01
 1.1357067112e-01	 1.7815689288e+00	-1.9980488197e-01
 9.4464166402e-02	 1.7826841186e+00	-1.9048334562e-01
 1.9140169269e-01	 1.7823449708e+00	-2.4359174924e-01
 1.7197550229e-01	 1.7843241381e+00	-2.2964353665e-01
 1.5260469028e-01	 1.7860851076e+00	-2.1564548533e-01
 1.3329245431e-01	 1.7876300861e+00	-2.0224546023e-01
 1.1404191872e-01	 1.7889613310e+00	-1.9041583765e-01
 9.4856133897e-02	 1.7900811481e+00	-1.8155719725e-01
 1.9219260877e-01	 1.7897100327e+00	-2.3658749660e-01
 1.7268614486e-01	 1.7916973783e+00	-2.2226875784e-01
 1.5323528817e-01	 1.7934656246e+00	-2.0785711108e-01
 1.3384324957e-01	 1.7950169873e+00	-1.9414440575e-01
 1.1451316632e-01	 1.7963537332e+00	-1.8223668859e-01
 9.5248101393e-02	 1.7974781777e+00	-1.7366855600e-01
 1.9298352486e-01	 1.7970750946e+00	-2.3093407807e-01
 1.7339678744e-01	 1.7990706185e+00	-2.1630130089e-01
 1.5386588606e-01	 1.8008461415e+00	-2.0144317411e-01
 1.3439404484e-01	 1.8024038884e+00	-1.8731807435e-01
 1.1498441392e-01	 1.8037461354e+00	-1.7518345772e-01
 9.5640068888e-02	 1.8048752072e+00	-1.6672128102e-01
 1.9377444094e-01	 1.8044401564e+00	-2.2633820381e-01
 1.7410743001e-01	 1.8064438588e+00	-2.1153214672e-01
 1.5449648396e-01	 1.8082266585e+00	-1.9625832120e-01
 1.3494484011e-01	 1.8097907896e+00	-1.8166216420e-01
 1.1545566151e-01	 1.8111385376e+00	-1.6916827414e-01
 9.6032036383e-02	 1.8122722367e+00	-1.6061731865e-01
 9.4072198906e-02	 1.7752870891e+00	-2.0054125923e-01
 7.5112141246e-02	 1.7761903033e+00	-1.9123084632e-01
 5.6222127583e-02	 1.7768885445e+00	-1.8164736993e-01
 3.7404960328e-02	 1.7773842286e+00	-1.7483219722e-01
 1.8663366992e-02	 1.7776798097e+00	-1.7447826302e-01
-2.9060500404e-07	 1.7777899832e+00	-1.8543781632e-01
 9.4464166402e-02	 1.7826841186e+00	-1.9048334562e-01
 7.5425108501e-02	 1.7835910962e+00	-1.8195348231e-01
 5.6456386448e-02	 1.7842922468e+00	-1.7290898858e-01
 3.7560814330e-02	 1.7847899962e+00	-1.6622886397e-01
 1.8741131022e-02	 1.7850868089e+00	-1.6548788995e-01
-2.7842305335e-07	 1.7851969903e+00	-1.7549652842e-01
 9.4856133897e-02	 1.7900811481e+00	-1.8155719725e-01
 7.5738075756e-02	 1.7909918891e+00	-1.7365743512e-01
 5.6690645313e-02	 1.7916959490e+00	-1.6499353088e-01
 3.7716668331e-02	 1.7921957638e+00	-1.5829209329e-01
 1.8818895051e-02	 1.7924938081e+00	-1.5702227471e-01
-2.6638387647e-07	 1.7926039938e+00	-1.6596588183e-01
 9.5248101393e-02	 1.7974781777e+00	-1.7366855600e-01
 7.6051043011e-02	 1.7983926821e+00	-1.6623000534e-01
 5.6924904178e-02	 1.7990996513e+00	-1.5778917164e-01
 3.7872522332e-02	 1.7996015315e+00	-1.5092815421e-01
 1.8896659080e-02	 1.7999008073e+00	-1.4902090862e-01
-2.5449873855e-07	 1.8000109943e+00	-1.5683156351e-01
 9.5640068888e-02	 1.8048752072e+00	-1.6672128102e-01
 7.6364010267e-02	 1.8057934750e+00	-1.5955885774e-01
 5.7159163043e-02	 1.8065033536e+00	-1.5118649257e-01
 3.8028376334e-02	 1.8070072991e+00	-1.4404755264e-01
 1.8974423109e-02	 1.8073078066e+00	-1.4142912858e-01
-2.4277890471e-07	 1.8074179926e+00	-1.4808649377e-01
 9.6032036383e-02	 1.8122722367e+00	-1.6061731865e-01
 7.6676977522e-02	 1.8131942679e+00	-1.5353195088e-01
 5.7393421908e-02	 1.8139070558e+00	-1.4507838045e-01
 3.8184230335e-02	 1.8144130667e+00	-1.3756490649e-01
 1.9052187138e-02	 1.8147148058e+00	-1.3419797709e-01
-2.3123564000e-07	 1.8148249892e+00	-1.3973067953e-01
 1.8148148148e+00	 0.0000000000e+00	 3.1999774309e+00
 1.8147148058e+00	 1.9052187138e-02	 3.1987782670e+00
 1.8144130667e+00	 3.8184230335e-02	 3.1933686538e+00
 1.8139070558e+00	 5.7393421908e-02	 3.1837444740e+00
 1.8131942679e+00	 7.6676977522e-02	 3.1705095889e+00
 1.8122722367e+00	 9.6032036383e-02	 3.1547674813e+00
 1.8222222222e+00	 0.0000000000e+00	 3.1842960376e+00
 1.8221218050e+00	 1.9129951167e-02	 3.1832107326e+00
 1.8218188343e+00	 3.8340084337e-02	 3.1779370774e+00
 1.8213107581e+00	 5.7627680773e-02	 3.1684374960e+00
 1.8205950608e+00	 7.6989944777e-02	 3.1553453358e+00
 1.8196692663e+00	 9.6424003879e-02	 3.1398475139e+00
 1.8296296296e+00	 0.0000000000e+00	 3.1685944293e+00
 1.8295288042e+00	 1.9207715196e-02	 3.1675878423e+00
 1.8292246019e+00	 3.8495938338e-02	 3.1622433496e+00
 1.8287144604e+00	 5.7861939638e-02	 3.1525400266e+00
 1.8279958538e+00	 7.7302912032e-02	 3.1391929237e+00
 1.8270662958e+00	 9.6815971374e-02	 3.1235263631e+00
 1.8370370370e+00	 0.0000000000e+00	 3.1528677165e+00
 1.8369358034e+00	 1.9285479225e-02	 3.1519135176e+00
 1.8366303696e+00	 3.8651792339e-02	 3.1462853583e+00
 1.8361181626e+00	 5.8096198503e-02	 3.1360301387e+00
 1.8353966467e+00	 7.7615879287e-02	 3.1219979435e+00
 1.8344633254e+00	 9.7207938870e-02	 3.1057056307e+00
 1.8444444444e+00	 0.0000000000e+00	 3.1371109815e+00
 1.8443428026e+00	 1.9363243255e-02	 3.1361917782e+00
 1.8440361372e+00	 3.8807646341e-02	 3.1300612180e+00
 1.8435218649e+00	 5.8330457368e-02	 3.1188862844e+00
 1.8427974396e+00	 7.7928846542e-02	 3.1037065650e+00
 1.8418603549e+00	 9.7599906365e-02	 3.0862877666e+00
 1.8518518519e+00	 0.0000000000e+00	 3.1213192790e+00
 1.8517498018e+00	 1.9441007284e-02	 3.1204267414e+00
 1.8514419048e+00	 3.8963500342e-02	 3.1135692673e+00
 1.8509255672e+00	 5.8564716233e-02	 3.1010872889e+00
 1.8501982326e+00	 7.8241813798e-02	 3.0842655254e+00
 1.8492573844e+00	 9.7991873861e-02	 3.0651760504e+00
 1.8122722367e+00	 9.6032036383e-02	 3.1547674813e+00
 1.8111385376e+00	 1.1545566151e-01	 3.1361041548e+00
 1.8097907896e+00	 1.3494484011e-01	 3.1131113635e+00
 1.8082266585e+00	 1.5449648396e-01	 3.0857411019e+00
 1.8064438588e+00	 1.7410743001e-01	 3.0538736510e+00
 1.8044401564e+00	 1.9377444094e-01	 3.0171616237e+00
 1.8196692663e+00	 9.6424003879e-02	 3.1398475139e+00
 1.8185309398e+00	 1.1592690911e-01	 3.1216602451e+00
 1.8171776908e+00	 1.3549563537e-01	 3.0993114150e+00
 1.8156071755e+00	 1.5512708185e-01	 3.0725910421e+00
 1.8138170990e+00	 1.7481807258e-01	 3.0412230279e+00
 1.8118052183e+00	 1.9456535703e-01	 3.0046973610e+00
 1.8270662958e+00	 9.6815971374e-02	 3.1235263631e+00
 1.8259233420e+00	 1.1639815671e-01	 3.1054393201e+00
 1.8245645920e+00	 1.3604643064e-01	 3.0834365612e+00
 1.8229876924e+00	 1.5575767974e-01	 3.0571840299e+00
 1.8211903392e+00	 1.7552871515e-01	 3.0262875487e+00
 1.8191702801e+00	 1.9535627311e-01	 2.9901127721e+00
 1.8344633254e+00	 9.7207938870e-02	 3.1057056307e+00
 1.8333157442e+00	 1.1686940431e-01	 3.0872910544e+00
 1.8319514932e+00	 1.3659722590e-01	 3.0652803789e+00
 1.8303682094e+00	 1.5638827764e-01	 3.0392548755e+00
 1.8285635795e+00	 1.7623935772e-01	 3.0087421050e+00
 1.8265353420e+00	 1.9614718920e-01	 2.9730231971e+00
 1.8418603549e+00	 9.7599906365e-02	 3.0862877666e+00
 1.8407081464e+00	 1.1734065191e-01	 3.0670662943e+00
 1.8393383944e+00	 1.3714802117e-01	 3.0446379767e+00
 1.8377487264e+00	 1.5701887553e-01	 3.0185403382e+00
 1.8359368197e+00	 1.7695000029e-01	 2.9882640303e+00
 1.8339004039e+00	 1.9693810529e-01	 2.9530470073e+00
 1.8492573844e+00	 9.7991873861e-02	 3.0651760504e+00
 1.8481005485e+00	 1.1781189950e-01	 3.0446170319e+00
 1.8467252955e+00	 1.3769881643e-01	 3.0213059635e+00
 1.8451292434e+00	 1.5764947343e-01	 2.9947790893e+00
 1.8433100600e+00	 1.7766064287e-01	 2.9645330590e+00
 1.8412654657e+00	 1.9772902137e-01	 2.9298055601e+00
 1.8044401564e+00	 1.9377444094e-01	 3.0171616237e+00
 1.8022133714e+00	 2.1349420591e-01	 2.9768154339e+00
 1.7997613802e+00	 2.3326334129e-01	 2.9343548682e+00
 1.7970821183e+00	 2.5307839161e-01	 2.8891040667e+00
 1.7941735826e+00	 2.7293583053e-01	 2.8395794393e+00
 1.7910338343e+00	 2.9283206188e-01	 2.7833753030e+00
 1.8118052183e+00	 1.9456535703e-01	 3.0046973610e+00
 1.8095693444e+00	 2.1436561083e-01	 2.9640862142e+00
 1.8071073450e+00	 2.3421543656e-01	 2.9211016496e+00
 1.8044171473e+00	 2.5411136464e-01	 2.8753587138e+00
 1.8014967401e+00	 2.7404985433e-01	 2.8256135770e+00
 1.7983441765e+00	 2.9402729478e-01	 2.7696358128e+00
 1.8191702801e+00	 1.9535627311e-01	 2.9901127721e+00
 1.8169253173e+00	 2.1523701575e-01	 2.9496064553e+00
 1.8144533098e+00	 2.3516753183e-01	 2.9066035849e+00
 1.8117521764e+00	 2.5514433767e-01	 2.8609233155e+00
 1.8088198976e+00	 2.7516387813e-01	 2.8114725153e+00
 1.8056545187e+00	 2.9522252769e-01	 2.7561044663e+00
 1.8265353420e+00	 1.9614718920e-01	 2.9730231971e+00
 1.8242812903e+00	 2.1610842067e-01	 2.9329379996e+00
 1.8217992747e+00	 2.3611962710e-01	 2.8903817484e+00
 1.8190872054e+00	 2.5617731069e-01	 2.8452938983e+00
 1.8161430550e+00	 2.7627790192e-01	 2.7966459182e+00
 1.8129648608e+00	 2.9641776059e-01	 2.7422861781e+00
 1.8339004039e+00	 1.9693810529e-01	 2.9530470073e+00
 1.8316372632e+00	 2.1697982559e-01	 2.9136463584e+00
 1.8291452395e+00	 2.3707172237e-01	 2.8719615048e+00
 1.8264222345e+00	 2.5721028372e-01	 2.8279713787e+00
 1.8234662125e+00	 2.7739192572e-01	 2.7806289110e+00
 1.8202752030e+00	 2.9761299350e-01	 2.7276918620e+00
 1.8412654657e+00	 1.9772902137e-01	 2.9298055601e+00
 1.8389932361e+00	 2.1785123052e-01	 2.8913006644e+00
 1.8364912043e+00	 2.3802381764e-01	 2.8508724649e+00
 1.8337572635e+00	 2.5824325675e-01	 2.8084615269e+00
 1.8307893700e+00	 2.7850594952e-01	 2.7629220589e+00
 1.8275855452e+00	 2.9880822641e-01	 2.7118384290e+00
 1.7910338343e+00	 2.9283206188e-01	 2.7833753030e+00
 1.7876610010e+00	 3.1276342086e-01	 2.7201988198e+00
 1.7840532796e+00	 3.3272617532e-01	 2.6524049644e+00
 1.7802089382e+00	 3.5271652710e-01	 2.5799999491e+00
 1.7761263192e+00	 3.7273061349e-01	 2.5019415939e+00
 1.7718038415e+00	 3.9276450883e-01	 2.4236952632e+00
 1.7983441765e+00	 2.9402729478e-01	 2.7696358128e+00
 1.7949575766e+00	 3.1404000625e-01	 2.7070472486e+00
 1.7913351297e+00	 3.3408424134e-01	 2.6398376495e+00
 1.7874750971e+00	 3.5415618639e-01	 2.5676334122e+00
 1.7833758144e+00	 3.7425196293e-01	 2.4889543622e+00
 1.7790356939e+00	 3.9436762928e-01	 2.4098597154e+00
 1.8056545187e+00	 2.9522252769e-01	 2.7561044663e+00
 1.8022541521e+00	 3.1531659164e-01	 2.6942931360e+00
 1.7986169798e+00	 3.3544230736e-01	 2.6277044880e+00
 1.7947412560e+00	 3.5559584568e-01	 2.5556446084e+00
 1.7906253096e+00	 3.7577331238e-01	 2.4762880556e+00
 1.7862675463e+00	 3.9597074972e-01	 2.3963463231e+00
 1.8129648608e+00	 2.9641776059e-01	 2.7422861781e+00
 1.8095507276e+00	 3.1659317703e-01	 2.6814703065e+00
 1.8058988299e+00	 3.3680037339e-01	 2.6155725127e+00
 1.8020074150e+00	 3.5703550498e-01	 2.5436388087e+00
 1.7978748048e+00	 3.7729466182e-01	 2.4635977471e+00
 1.7934993987e+00	 3.9757387017e-01	 2.3828472913e+00
 1.8202752030e+00	 2.9761299350e-01	 2.7276918620e+00
 1.8168473031e+00	 3.1786976243e-01	 2.6681192526e+00
 1.8131806800e+00	 3.3815843941e-01	 2.6030164116e+00
 1.8092735739e+00	 3.5847516427e-01	 2.5312302679e+00
 1.8051242999e+00	 3.7881601126e-01	 2.4505481624e+00
 1.8007312511e+00	 3.9917699061e-01	 2.3690645285e+00
 1.8275855452e+00	 2.9880822641e-01	 2.7118384290e+00
 1.8241438786e+00	 3.1914634782e-01	 2.6537871563e+00
 1.8204625302e+00	 3.3951650543e-01	 2.5896185738e+00
 1.8165397328e+00	 3.5991482357e-01	 2.5180422945e+00
 1.8123737951e+00	 3.8033736070e-01	 2.4368135448e+00
 1.8079631035e+00	 4.0078011105e-01	 2.3547094992e+00
 1.7718038415e+00	 3.9276450883e-01	 2.4236952632e+00
 1.7672400026e+00	 4.1281422613e-01	 2.3493228750e+00
 1.7624333815e+00	 4.3287571885e-01	 2.2695654039e+00
 1.7573826405e+00	 4.5294488273e-01	 2.1840643627e+00
 1.7520865281e+00	 4.7301755777e-01	 2.0926374003e+00
 1.7465438807e+00	 4.9308953028e-01	 1.9953490296e+00
 1.7790356939e+00	 3.9436762928e-01	 2.4098597154e+00
 1.7744532271e+00	 4.1449918216e-01	 2.3349707216e+00
 1.7696269871e+00	 4.3464255852e-01	 2.2554270639e+00
 1.7645556309e+00	 4.5479363735e-01	 2.1705412736e+00
 1.7592379017e+00	 4.7494824168e-01	 2.0798034294e+00
 1.7536726312e+00	 4.9510214061e-01	 1.9829561786e+00
 1.7862675463e+00	 3.9597074972e-01	 2.3963463231e+00
 1.7816664516e+00	 4.1618413818e-01	 2.3209126886e+00
 1.7768205927e+00	 4.3640939819e-01	 2.2415248808e+00
 1.7717286213e+00	 4.5664239198e-01	 2.1571870656e+00
 1.7663892753e+00	 4.7687892559e-01	 2.0670837916e+00
 1.7608013818e+00	 4.9711475094e-01	 1.9706593722e+00
 1.7934993987e+00	 3.9757387017e-01	 2.3828472913e+00
 1.7888796761e+00	 4.1786909421e-01	 2.3068774344e+00
 1.7840141984e+00	 4.3817623786e-01	 2.2276278883e+00
 1.7789016117e+00	 4.5849114660e-01	 2.1438142273e+00
 1.7735406489e+00	 4.7880960950e-01	 2.0543366862e+00
 1.7679301323e+00	 4.9912736126e-01	 1.9583639708e+00
 1.8007312511e+00	 3.9917699061e-01	 2.3690645285e+00
 1.7960929006e+00	 4.1955405023e-01	 2.2926033265e+00
 1.7912078040e+00	 4.3994307753e-01	 2.2135147046e+00
 1.7860746020e+00	 4.6033990122e-01	 2.1302445825e+00
 1.7806920225e+00	 4.8074029341e-01	 2.0414292762e+00
 1.7750588828e+00	 5.0113997159e-01	 1.9459838114e+00
 1.8079631035e+00	 4.0078011105e-01	 2.3547094992e+00
 1.8033061251e+00	 4.2123900626e-01	 2.2778382807e+00
 1.7984014097e+00	 4.4170991719e-01	 2.1989733597e+00
 1.7932475924e+00	 4.6218865585e-01	 2.1163091036e+00
 1.7878433961e+00	 4.8267097732e-01	 2.0282374894e+00
 1.7821876334e+00	 5.0315258192e-01	 1.9334409946e+00
 1.7465438807e+00	 4.9308953028e-01	 1.9953490296e+00
 1.7407536249e+00	 5.1315653499e-01	 1.8951744801e+00
 1.7347147800e+00	 5.3321425733e-01	 1.7951331609e+00
 1.7284264595e+00	 5.5325833573e-01	 1.6959153798e+00
 1.7218878738e+00	 5.7328436407e-01	 1.5986890576e+00
 1.7150983315e+00	 5.9328789417e-01	 1.5051292235e+00
 1.7536726312e+00	 4.9510214061e-01	 1.9829561786e+00
 1.7478587418e+00	 5.1525105146e-01	 1.8828271727e+00
 1.7417952485e+00	 5.3539064205e-01	 1.7825964471e+00
 1.7354812614e+00	 5.5551653302e-01	 1.6831133827e+00
 1.7289159876e+00	 5.7562430025e-01	 1.5857225242e+00
 1.7220987328e+00	 5.9570947741e-01	 1.4922948714e+00
 1.7608013818e+00	 4.9711475094e-01	 1.9706593722e+00
 1.7549638586e+00	 5.1734556793e-01	 1.8705877384e+00
 1.7488757170e+00	 5.3756702678e-01	 1.7701767236e+00
 1.7425360633e+00	 5.5777473031e-01	 1.6704201178e+00
 1.7359441014e+00	 5.7796423643e-01	 1.5728254018e+00
 1.7290991342e+00	 5.9813106065e-01	 1.4794469149e+00
 1.7679301323e+00	 4.9912736126e-01	 1.9583639708e+00
 1.7620689754e+00	 5.1944008440e-01	 1.8584083407e+00
 1.7559561854e+00	 5.3974341150e-01	 1.7578711503e+00
 1.7495908652e+00	 5.6003292759e-01	 1.6578757123e+00
 1.7429722151e+00	 5.8030417261e-01	 1.5600785706e+00
 1.7360995356e+00	 6.0055264389e-01	 1.4667046243e+00
 1.7750588828e+00	 5.0113997159e-01	 1.9459838114e+00
 1.7691740923e+00	 5.2153460087e-01	 1.8462490378e+00
 1.7630366539e+00	 5.4191979622e-01	 1.7456841225e+00
 1.7566456670e+00	 5.6229112488e-01	 1.6455267918e+00
 1.7500003289e+00	 5.8264410879e-01	 1.5475685932e+00
 1.7430999369e+00	 6.0297422714e-01	 1.4541920571e+00
 1.7821876334e+00	 5.0315258192e-01	 1.9334409946e+00
 1.7762792091e+00	 5.2362911734e-01	 1.8340775550e+00
 1.7701171224e+00	 5.4409618095e-01	 1.7336270281e+00
 1.7637004689e+00	 5.6454932217e-01	 1.6334262207e+00
 1.7570284427e+00	 5.8498404496e-01	 1.5353874370e+00
 1.7501003383e+00	 6.0539581038e-01	 1.4420377617e+00
 1.7150983315e+00	 5.9328789417e-01	 1.5051292235e+00
 1.7080572416e+00	 6.1326443842e-01	 1.4094117898e+00
 1.7007641154e+00	 6.3320947245e-01	 1.3058109291e+00
 1.6932185677e+00	 6.5311843788e-01	 1.1969523578e+00
 1.6854203193e+00	 6.7298674523e-01	 1.0859874097e+00
 1.6773691977e+00	 6.9280977679e-01	 9.7655074406e-01
 1.7220987328e+00	 5.9570947741e-01	 1.4922948714e+00
 1.7150289038e+00	 6.1576755858e-01	 1.3972510904e+00
 1.7077060097e+00	 6.3579400091e-01	 1.2947155400e+00
 1.7001296639e+00	 6.5578422743e-01	 1.1869527306e+00
 1.6922995859e+00	 6.7573362991e-01	 1.0767794515e+00
 1.6842156025e+00	 6.9563757180e-01	 9.6752316885e-01
 1.7290991342e+00	 5.9813106065e-01	 1.4794469149e+00
 1.7220005660e+00	 6.1827067874e-01	 1.3849742288e+00
 1.7146479041e+00	 6.3837852937e-01	 1.2834191291e+00
 1.7070407601e+00	 6.5845001697e-01	 1.1766936478e+00
 1.6991788525e+00	 6.7848051458e-01	 1.0672899391e+00
 1.6910620074e+00	 6.9846536681e-01	 9.5823934788e-01
 1.7360995356e+00	 6.0055264389e-01	 1.4667046243e+00
 1.7289722282e+00	 6.2077379889e-01	 1.3727355748e+00
 1.7215897984e+00	 6.4096305782e-01	 1.2721068415e+00
 1.7139518563e+00	 6.6111580651e-01	 1.1663864570e+00
 1.7060581192e+00	 6.8122739926e-01	 1.0577516431e+00
 1.6979084123e+00	 7.0129316182e-01	 9.4894852808e-01
 1.7430999369e+00	 6.0297422714e-01	 1.4541920571e+00
 1.7359438905e+00	 6.2327691905e-01	 1.3606933250e+00
 1.7285316927e+00	 6.4354758628e-01	 1.2609666406e+00
 1.7208629525e+00	 6.6378159605e-01	 1.1562442726e+00
 1.7129373858e+00	 6.8397428393e-01	 1.0483980114e+00
 1.7047548172e+00	 7.0412095682e-01	 9.3989951429e-01
 1.7501003383e+00	 6.0539581038e-01	 1.4420377617e+00
 1.7429155527e+00	 6.2578003921e-01	 1.3490091869e+00
 1.7354735871e+00	 6.4613211474e-01	 1.2501889698e+00
 1.7277740487e+00	 6.6644738560e-01	 1.1464816135e+00
 1.7198166524e+00	 6.8672116861e-01	 1.0394627823e+00
 1.7116012221e+00	 7.0694875183e-01	 9.3134025470e-01
 1.6773691977e+00	 6.9280977679e-01	 9.7655074406e-01
 1.6690651388e+00	 7.1258288966e-01	 8.7089545532e-01
 1.6605081885e+00	 7.3230141881e-01	 7.6931338061e-01
 1.6516985038e+00	 7.5196068023e-01	 6.7217814895e-01
 1.6426363538e+00	 7.7155597414e-01	 5.7349784153e-01
 1.6333221209e+00	 7.9108258825e-01	 4.6650284133e-01
 1.6842156025e+00	 6.9563757180e-01	 9.6752316885e-01
 1.6758776495e+00	 7.1549139125e-01	 8.6173109214e-01
 1.6672857729e+00	 7.3529040420e-01	 7.6037347669e-01
 1.6584401303e+00	 7.5502990750e-01	 6.6359201581e-01
 1.6493409920e+00	 7.7470518220e-01	 5.6532214824e-01
 1.6399887418e+00	 7.9431149677e-01	 4.5927099216e-01
 1.6910620074e+00	 6.9846536681e-01	 9.5823934788e-01
 1.6826901603e+00	 7.1839989284e-01	 8.5236095047e-01
 1.6740633574e+00	 7.3827938958e-01	 7.5127993125e-01
 1.6651817569e+00	 7.5809913476e-01	 6.5479344682e-01
 1.6560456302e+00	 7.7785439025e-01	 5.5693838844e-01
 1.6466553627e+00	 7.9754040529e-01	 4.5183700213e-01
 1.6979084123e+00	 7.0129316182e-01	 9.4894852808e-01
 1.6895026711e+00	 7.2130839444e-01	 8.4304553956e-01
 1.6808409418e+00	 7.4126837496e-01	 7.4229812763e-01
 1.6719233834e+00	 7.6116836203e-01	 6.4604102024e-01
 1.6627502683e+00	 7.8100359831e-01	 5.4858654395e-01
 1.6533219836e+00	 8.0076931382e-01	 4.4441837588e-01
 1.7047548172e+00	 7.0412095682e-01	 9.3989951429e-01
 1.6963151818e+00	 7.2421689603e-01	 8.3404378571e-01
 1.6876185263e+00	 7.4425736034e-01	 7.3365102750e-01
 1.6786650100e+00	 7.6423758930e-01	 6.3758543869e-01
 1.6694549065e+00	 7.8415280637e-01	 5.4049902260e-01
 1.6599886045e+00	 8.0399822234e-01	 4.3722539904e-01
 1.7116012221e+00	 7.0694875183e-01	 9.3134025470e-01
 1.7031276926e+00	 7.2712539762e-01	 8.2561258887e-01
 1.6943961107e+00	 7.4724634573e-01	 7.2557474655e-01
 1.6854066365e+00	 7.6730681656e-01	 6.2966967501e-01
 1.6761595447e+00	 7.8730201443e-01	 5.3290080320e-01
 1.6666552254e+00	 8.0722713086e-01	 4.3046128075e-01
 1.6333221209e+00	 7.9108258825e-01	 4.6650284133e-01
 1.6237563017e+00	 8.1053580108e-01	 3.5226379248e-01
 1.6139395077e+00	 8.2991088538e-01	 2.3780898907e-01
 1.6038724661e+00	 8.4920311148e-01	 1.2552478981e-01
 1.5935560205e+00	 8.6840775081e-01	 1.7579802724e-02
 1.5829911310e+00	 8.8752007941e-01	-8.4152862504e-02
 1.6399887418e+00	 7.9431149677e-01	 4.5927099216e-01
 1.6303838784e+00	 8.1384411047e-01	 3.4608474150e-01
 1.6205270159e+00	 8.3329827675e-01	 2.3224014957e-01
 1.6104188843e+00	 8.5266924662e-01	 1.2025160899e-01
 1.6000603308e+00	 8.7195227224e-01	 1.2410744333e-02
 1.5894523193e+00	 8.9114261035e-01	-8.9292853133e-02
 1.6466553627e+00	 7.9754040529e-01	 4.5183700213e-01
 1.6370114552e+00	 8.1715241987e-01	 3.3971488335e-01
 1.6271145241e+00	 8.3668566811e-01	 2.2649015836e-01
 1.6169653026e+00	 8.5613538177e-01	 1.1479980129e-01
 1.6065646411e+00	 8.7549679368e-01	 7.0542597942e-03
 1.5959135075e+00	 8.9476514129e-01	-9.4643310736e-02
 1.6533219836e+00	 8.0076931382e-01	 4.4441837588e-01
 1.6436390319e+00	 8.2046072926e-01	 3.3335084447e-01
 1.6337020322e+00	 8.4007305948e-01	 2.2074200204e-01
 1.6235117208e+00	 8.5960151692e-01	 1.0934600305e-01
 1.6130689513e+00	 8.7904131511e-01	 1.6879771071e-03
 1.6023746958e+00	 8.9838767222e-01	-1.0001821997e-01
 1.6599886045e+00	 8.0399822234e-01	 4.3722539904e-01
 1.6502666086e+00	 8.2376903865e-01	 3.2718235039e-01
 1.6402895404e+00	 8.4346045085e-01	 2.1517195511e-01
 1.6300581390e+00	 8.6306765207e-01	 1.0406019556e-01
 1.6195732616e+00	 8.8258583654e-01	-3.5172075190e-03
 1.6088358841e+00	 9.0201020316e-01	-1.0523850971e-01
 1.6666552254e+00	 8.0722713086e-01	 4.3046128075e-01
 1.6568941854e+00	 8.2707734804e-01	 3.2139236600e-01
 1.6468770486e+00	 8.4684784222e-01	 2.0994971997e-01
 1.6366045573e+00	 8.6653378722e-01	 9.9105846867e-02
 1.6260775719e+00	 8.8613035797e-01	-8.3969840577e-03
 1.6152970724e+00	 9.0563273409e-01	-1.1013190151e-01
 1.5829911310e+00	 8.8752007941e-01	-8.4152862504e-02
 1.5721788748e+00	 9.0653538143e-01	-1.8344469033e-01
 1.5611204463e+00	 9.2544895271e-01	-2.8461992305e-01
 1.5498171574e+00	 9.4425610438e-01	-3.8733842997e-01
 1.5382704369e+00	 9.6295216646e-01	-4.9191622860e-01
 1.5264818310e+00	 9.8153249147e-01	-5.9942775370e-01
 1.5894523193e+00	 8.9114261035e-01	-8.9292853133e-02
 1.5785959314e+00	 9.1023552584e-01	-1.8851129339e-01
 1.5674923665e+00	 9.2922629537e-01	-2.8952913075e-01
 1.5561429417e+00	 9.4811021092e-01	-3.9200891699e-01
 1.5445490918e+00	 9.6688258346e-01	-4.9626239712e-01
 1.5327123690e+00	 9.8553874654e-01	-6.0335467762e-01
 1.5959135075e+00	 8.9476514129e-01	-9.4643310736e-02
 1.5850129880e+00	 9.1393567026e-01	-1.9376392083e-01
 1.5738642867e+00	 9.3300363803e-01	-2.9451613058e-01
 1.5624687260e+00	 9.5196431747e-01	-3.9660611043e-01
 1.5508277466e+00	 9.7081300047e-01	-5.0038336432e-01
 1.5389429071e+00	 9.8954500161e-01	-6.0694674201e-01
 1.6023746958e+00	 8.9838767222e-01	-1.0001821997e-01
 1.5914300447e+00	 9.1763581467e-01	-1.9900872092e-01
 1.5802362069e+00	 9.3678098070e-01	-2.9938742804e-01
 1.5687945104e+00	 9.5581842402e-01	-4.0094453960e-01
 1.5571064015e+00	 9.7474341748e-01	-5.0410880130e-01
 1.5451734452e+00	 9.9355125668e-01	-6.1005530855e-01
 1.6088358841e+00	 9.0201020316e-01	-1.0523850971e-01
 1.5978471013e+00	 9.2133595908e-01	-2.0405900716e-01
 1.5866081271e+00	 9.4055832336e-01	-3.0395680108e-01
 1.5751202947e+00	 9.5967253057e-01	-4.0484600799e-01
 1.5633850563e+00	 9.7867383448e-01	-5.0727555818e-01
 1.5514039833e+00	 9.9755751174e-01	-6.1253873423e-01
 1.6152970724e+00	 9.0563273409e-01	-1.1013190151e-01
 1.6042641579e+00	 9.2503610350e-01	-2.0873510144e-01
 1.5929800473e+00	 9.4433566603e-01	-3.0804514082e-01
 1.5814460790e+00	 9.6352663712e-01	-4.0813943451e-01
 1.5696637112e+00	 9.8260425149e-01	-5.0972750838e-01
 1.5576345214e+00	 1.0015637668e+00	-6.1426222120e-01
 1.5264818310e+00	 9.8153249147e-01	-5.9942775370e-01
 1.5144530022e+00	 9.9999245808e-01	-7.0073058264e-01
 1.5021857297e+00	 1.0183274747e+00	-7.9001766218e-01
 1.4896819080e+00	 1.0365329831e+00	-8.7482621942e-01
 1.4769435469e+00	 1.0546044620e+00	-9.6246337756e-01
 1.4639727701e+00	 1.0725374309e+00	-1.0492950784e+00
 1.5327123690e+00	 9.8553874654e-01	-6.0335467762e-01
 1.5206344430e+00	 1.0040740600e+00	-7.0403456058e-01
 1.5083171000e+00	 1.0224839134e+00	-7.9212787018e-01
 1.4957622423e+00	 1.0407637299e+00	-8.7479677625e-01
 1.4829718879e+00	 1.0589089700e+00	-9.6042556078e-01
 1.4699481691e+00	 1.0769151347e+00	-1.0511342606e+00
 1.5389429071e+00	 9.8954500161e-01	-6.0694674201e-01
 1.5268158838e+00	 1.0081556618e+00	-7.0707150456e-01
 1.5144484703e+00	 1.0266403520e+00	-7.9430568009e-01
 1.5018425766e+00	 1.0449944768e+00	-8.7540988027e-01
 1.4890002289e+00	 1.0632134780e+00	-9.5840033732e-01
 1.4759235682e+00	 1.0812928385e+00	-1.0509369302e+00
 1.5451734452e+00	 9.9355125668e-01	-6.1005530855e-01
 1.5329973247e+00	 1.0122372637e+00	-7.0971118894e-01
 1.5205798406e+00	 1.0307967907e+00	-7.9642670293e-01
 1.5079229110e+00	 1.0492252237e+00	-8.7653461677e-01
 1.4950285699e+00	 1.0675179860e+00	-9.5765496084e-01
 1.4818989672e+00	 1.0856705423e+00	-1.0488103176e+00
 1.5514039833e+00	 9.9755751174e-01	-6.1253873423e-01
 1.5391787655e+00	 1.0163188656e+00	-7.1183026796e-01
 1.5267112110e+00	 1.0349532294e+00	-7.9837353041e-01
 1.5140032453e+00	 1.0534559706e+00	-8.7804736384e-01
 1.5010569109e+00	 1.0718224941e+00	-9.5804766006e-01
 1.4878743663e+00	 1.0900482461e+00	-1.0470066340e+00
 1.5576345214e+00	 1.0015637668e+00	-6.1426222120e-01
 1.5453602063e+00	 1.0204004674e+00	-7.1331213054e-01
 1.5328425813e+00	 1.0391096681e+00	-8.0003559116e-01
 1.5200835796e+00	 1.0576867174e+00	-8.7983164632e-01
 1.5070852519e+00	 1.0761270021e+00	-9.5944432249e-01
 1.4938497654e+00	 1.0944259499e+00	-1.0470859875e+00
 1.4639727701e+00	 1.0725374309e+00	-1.0492950784e+00
 1.4507718143e+00	 1.0903274531e+00	-1.1339235683e+00
 1.4373430284e+00	 1.1079701399e+00	-1.2181573365e+00
 1.4236888718e+00	 1.1254611537e+00	-1.3056206913e+00
 1.4098119134e+00	 1.1427962114e+00	-1.3808458460e+00
 1.3957148299e+00	 1.1599710883e+00	-1.4464795656e+00
 1.4699481691e+00	 1.0769151347e+00	-1.0511342606e+00
 1.4566933319e+00	 1.0947777692e+00	-1.1376142853e+00
 1.4432097346e+00	 1.1124924670e+00	-1.2243995536e+00
 1.4294998468e+00	 1.1300548726e+00	-1.3075184287e+00
 1.4155662478e+00	 1.1474606858e+00	-1.3794399385e+00
 1.4014116251e+00	 1.1647056642e+00	-1.4442338570e+00
 1.4759235682e+00	 1.0812928385e+00	-1.0509369302e+00
 1.4626148495e+00	 1.0992280854e+00	-1.1405989381e+00
 1.4490764408e+00	 1.1170147941e+00	-1.2293817812e+00
 1.4353108218e+00	 1.1346485916e+00	-1.3086024713e+00
 1.4213205821e+00	 1.1521251601e+00	-1.3778991989e+00
 1.4071084203e+00	 1.1694402401e+00	-1.4421629281e+00
 1.4818989672e+00	 1.0856705423e+00	-1.0488103176e+00
 1.4685363671e+00	 1.1036784015e+00	-1.1429143339e+00
 1.4549431471e+00	 1.1215371212e+00	-1.2327305309e+00
 1.4411217968e+00	 1.1392423106e+00	-1.3090023380e+00
 1.4270749164e+00	 1.1567896344e+00	-1.3763049301e+00
 1.4128052155e+00	 1.1741748159e+00	-1.4403053925e+00
 1.4878743663e+00	 1.0900482461e+00	-1.0470066340e+00
 1.4744578847e+00	 1.1081287176e+00	-1.1446069154e+00
 1.4608098533e+00	 1.1260594483e+00	-1.2346332883e+00
 1.4469327717e+00	 1.1438360296e+00	-1.3088528231e+00
 1.4328292508e+00	 1.1614541087e+00	-1.3747442056e+00
 1.4185020108e+00	 1.1789093918e+00	-1.4387061224e+00
 1.4938497654e+00	 1.0944259499e+00	-1.0470859875e+00
 1.4803794023e+00	 1.1125790338e+00	-1.1456435203e+00
 1.4666765595e+00	 1.1305817754e+00	-1.2352819030e+00
 1.4527437467e+00	 1.1484297486e+00	-1.3082935719e+00
 1.4385835851e+00	 1.1661185831e+00	-1.3733094436e+00
 1.4241988060e+00	 1.1836439677e+00	-1.4374158228e+00
 1.3957148299e+00	 1.1599710883e+00	-1.4464795656e+00
 1.3814004039e+00	 1.1769816210e+00	-1.5092839495e+00
 1.3668715227e+00	 1.1938237108e+00	-1.5731598550e+00
 1.3521311759e+00	 1.2104933272e+00	-1.6352927705e+00
 1.3371824536e+00	 1.2269865109e+00	-1.6917753554e+00
 1.3220285442e+00	 1.2432993768e+00	-1.7377974815e+00
 1.4014116251e+00	 1.1647056642e+00	-1.4442338570e+00
 1.3870387729e+00	 1.1817856276e+00	-1.5076431110e+00
 1.3724505901e+00	 1.1986964607e+00	-1.5720183625e+00
 1.3576500786e+00	 1.2154341163e+00	-1.6345335982e+00
 1.3426403412e+00	 1.2319946191e+00	-1.6912388358e+00
 1.3274245791e+00	 1.2483740681e+00	-1.7372557818e+00
 1.4071084203e+00	 1.1694402401e+00	-1.4421629281e+00
 1.3926771419e+00	 1.1865896342e+00	-1.5061987690e+00
 1.3780296576e+00	 1.2035692105e+00	-1.5709663358e+00
 1.3631689814e+00	 1.2203749054e+00	-1.6336989256e+00
 1.3480982287e+00	 1.2370027273e+00	-1.6904753158e+00
 1.3328206140e+00	 1.2534487594e+00	-1.7364210143e+00
 1.4128052155e+00	 1.1741748159e+00	-1.4403053925e+00
 1.3983155109e+00	 1.1913936409e+00	-1.5049558864e+00
 1.3836087250e+00	 1.2084419603e+00	-1.5699866616e+00
 1.3686878842e+00	 1.2253156945e+00	-1.6327601821e+00
 1.3535561163e+00	 1.2420108355e+00	-1.6894543938e+00
 1.3382166489e+00	 1.2585234508e+00	-1.7352695485e+00
 1.4185020108e+00	 1.1789093918e+00	-1.4387061224e+00
 1.4039538799e+00	 1.1961976475e+00	-1.5039261044e+00
 1.3891877924e+00	 1.2133147102e+00	-1.5690692112e+00
 1.3742067869e+00	 1.2302564836e+00	-1.6316959834e+00
 1.3590140039e+00	 1.2470189437e+00	-1.6881529614e+00
 1.3436126837e+00	 1.2635981421e+00	-1.7337850687e+00
 1.4241988060e+00	 1.1836439677e+00	-1.4374158228e+00
 1.4095922489e+00	 1.2010016541e+00	-1.5031273208e+00
 1.3947668599e+00	 1.2181874600e+00	-1.5682104266e+00
 1.3797256897e+00	 1.2351972727e+00	-1.6304917295e+00
 1.3644718914e+00	 1.2520270519e+00	-1.6865548173e+00
 1.3490087186e+00	 1.2686728334e+00	-1.7319582059e+00
 1.3220285442e+00	 1.2432993768e+00	-1.7377974815e+00
 1.3066727324e+00	 1.2594281173e+00	-1.7796542439e+00
 1.2911183962e+00	 1.2753690051e+00	-1.8244405573e+00
 1.2753690051e+00	 1.2911183962e+00	-1.8678043219e+00
 1.2594281173e+00	 1.3066727324e+00	-1.9053249315e+00
 1.2432993768e+00	 1.3220285442e+00	-1.9327384216e+00
 1.3274245791e+00	 1.2483740681e+00	-1.7372557818e+00
 1.3120060905e+00	 1.2645686402e+00	-1.7787945239e+00
 1.2963882672e+00	 1.2805745929e+00	-1.8230072096e+00
 1.2805745929e+00	 1.2963882672e+00	-1.8656620198e+00
 1.2645686402e+00	 1.3120060905e+00	-1.9024511436e+00
 1.2483740681e+00	 1.3274245791e+00	-1.9292222113e+00
 1.3328206140e+00	 1.2534487594e+00	-1.7364210143e+00
 1.3173394486e+00	 1.2697091631e+00	-1.7776895395e+00
 1.3016581382e+00	 1.2857801806e+00	-1.8214384563e+00
 1.2857801806e+00	 1.3016581382e+00	-1.8635079698e+00
 1.2697091631e+00	 1.3173394486e+00	-1.8996546778e+00
 1.2534487594e+00	 1.3328206140e+00	-1.9257895561e+00
 1.3382166489e+00	 1.2585234508e+00	-1.7352695485e+00
 1.3226728066e+00	 1.2748496860e+00	-1.7763266229e+00
 1.3069280092e+00	 1.2909857684e+00	-1.8197333232e+00
 1.2909857684e+00	 1.3069280092e+00	-1.8613539918e+00
 1.2748496860e+00	 1.3226728066e+00	-1.8969616060e+00
 1.2585234508e+00	 1.3382166489e+00	-1.9224825898e+00
 1.3436126837e+00	 1.2635981421e+00	-1.7337850687e+00
 1.3280061647e+00	 1.2799902090e+00	-1.7747004201e+00
 1.3121978802e+00	 1.2961913562e+00	-1.8178981746e+00
 1.2961913562e+00	 1.3121978802e+00	-1.8592192781e+00
 1.2799902090e+00	 1.3280061647e+00	-1.8944054029e+00
 1.2635981421e+00	 1.3436126837e+00	-1.9193508591e+00
 1.3490087186e+00	 1.2686728334e+00	-1.7319582059e+00
 1.3333395228e+00	 1.2851307319e+00	-1.7728125437e+00
 1.3174677512e+00	 1.3013969440e+00	-1.8159463857e+00
 1.3013969440e+00	 1.3174677512e+00	-1.8571300880e+00
 1.2851307319e+00	 1.3333395228e+00	-1.8920266625e+00
 1.2686728334e+00	 1.3490087186e+00	-1.9164510641e+00
 1.2432993768e+00	 1.3220285442e+00	-1.9327384216e+00
 1.2269865109e+00	 1.3371824536e+00	-1.9564245584e+00
 1.2104933272e+00	 1.3521311759e+00	-1.9816692254e+00
 1.1938237108e+00	 1.3668715227e+00	-2.0034865242e+00
 1.1769816210e+00	 1.3814004039e+00	-2.0179511249e+00
 1.1599710883e+00	 1.3957148299e+00	-2.0224057593e+00
 1.2483740681e+00	 1.3274245791e+00	-1.9292222113e+00
 1.2319946191e+00	 1.3426403412e+00	-1.9525318593e+00
 1.2154341163e+00	 1.3576500786e+00	-1.9777250320e+00
 1.1986964607e+00	 1.3724505901e+00	-1.9997734353e+00
 1.1817856276e+00	 1.3870387729e+00	-2.0147409765e+00
 1.1647056642e+00	 1.4014116251e+00	-2.0199975550e+00
 1.2534487594e+00	 1.3328206140e+00	-1.9257895561e+00
 1.2370027273e+00	 1.3480982287e+00	-1.9486343452e+00
 1.2203749054e+00	 1.3631689814e+00	-1.9736469371e+00
 1.2035692105e+00	 1.3780296576e+00	-1.9958062199e+00
 1.1865896342e+00	 1.3926771419e+00	-2.0112137312e+00
 1.1694402401e+00	 1.4071084203e+00	-2.0173137991e+00
 1.2585234508e+00	 1.3382166489e+00	-1.9224825898e+00
 1.2420108355e+00	 1.3535561163e+00	-1.9447857385e+00
 1.2253156945e+00	 1.3686878842e+00	-1.9694887057e+00
 1.2084419603e+00	 1.3836087250e+00	-1.9916263129e+00
 1.1913936409e+00	 1.3983155109e+00	-2.0073853147e+00
 1.1741748159e+00	 1.4128052155e+00	-2.0143309494e+00
 1.2635981421e+00	 1.3436126837e+00	-1.9193508591e+00
 1.2470189437e+00	 1.3590140039e+00	-1.9410472574e+00
 1.2302564836e+00	 1.3742067869e+00	-1.9653118580e+00
 1.2133147102e+00	 1.3891877924e+00	-1.9872833431e+00
 1.1961976475e+00	 1.4039538799e+00	-2.0032804700e+00
 1.1789093918e+00	 1.4185020108e+00	-2.0110350919e+00
 1.2686728334e+00	 1.3490087186e+00	-1.9164510641e+00
 1.2520270519e+00	 1.3644718914e+00	-1.9374873787e+00
 1.2351972727e+00	 1.3797256897e+00	-1.9611854504e+00
 1.2181874600e+00	 1.3947668599e+00	-1.9828349310e+00
 1.2010016541e+00	 1.4095922489e+00	-1.9989325673e+00
 1.1836439677e+00	 1.4241988060e+00	-2.0074217581e+00
 1.1599710883e+00	 1.3957148299e+00	-2.0224057593e+00
 1.1427962114e+00	 1.4098119134e+00	-2.0238287869e+00
 1.1254611537e+00	 1.4236888718e+00	-2.0288026202e+00
 1.1079701399e+00	 1.4373430284e+00	-2.0358375473e+00
 1.0903274531e+00	 1.4507718143e+00	-2.0348868301e+00
 1.0725374309e+00	 1.4639727701e+00	-2.0282199100e+00
 1.1647056642e+00	 1.4014116251e+00	-2.0199975550e+00
 1.1474606858e+00	 1.4155662478e+00	-2.0209871775e+00
 1.1300548726e+00	 1.4294998468e+00	-2.0234133527e+00
 1.1124924670e+00	 1.4432097346e+00	-2.0271793293e+00
 1.0947777692e+00	 1.4566933319e+00	-2.0267886144e+00
 1.0769151347e+00	 1.4699481691e+00	-2.0206596240e+00
 1.1694402401e+00	 1.4071084203e+00	-2.0173137991e+00
 1.1521251601e+00	 1.4213205821e+00	-2.0181014722e+00
 1.1346485916e+00	 1.4353108218e+00	-2.0184260698e+00
 1.1170147941e+00	 1.4490764408e+00	-2.0192391707e+00
 1.0992280854e+00	 1.4626148495e+00	-2.0194219451e+00
 1.0812928385e+00	 1.4759235682e+00	-2.0148804422e+00
 1.1741748159e+00	 1.4128052155e+00	-2.0143309494e+00
 1.1567896344e+00	 1.4270749164e+00	-2.0150979454e+00
 1.1392423106e+00	 1.4411217968e+00	-2.0137101441e+00
 1.1215371212e+00	 1.4549431471e+00	-2.0121237559e+00
 1.1036784015e+00	 1.4685363671e+00	-2.0125224844e+00
 1.0856705423e+00	 1.4818989672e+00	-2.0105281535e+00
 1.1789093918e+00	 1.4185020108e+00	-2.0110350919e+00
 1.1614541087e+00	 1.4328292508e+00	-2.0119134367e+00
 1.1438360296e+00	 1.4469327717e+00	-2.0091465051e+00
 1.1260594483e+00	 1.4608098533e+00	-2.0056518171e+00
 1.1081287176e+00	 1.4744578847e+00	-2.0058431292e+00
 1.0900482461e+00	 1.4878743663e+00	-2.0057787546e+00
 1.1836439677e+00	 1.4241988060e+00	-2.0074217581e+00
 1.1661185831e+00	 1.4385835851e+00	-2.0084951745e+00
 1.1484297486e+00	 1.4527437467e+00	-2.0046274665e+00
 1.1305817754e+00	 1.4666765595e+00	-1.9996545042e+00
 1.1125790338e+00	 1.4803794023e+00	-1.9992095693e+00
 1.0944259499e+00	 1.4938497654e+00	-1.9995502591e+00
 1.0725374309e+00	 1.4639727701e+00	-2.0282199100e+00
 1.0546044620e+00	 1.4769435469e+00	-2.0149487881e+00
 1.0365329831e+00	 1.4896819080e+00	-1.9963543244e+00
 1.0183274747e+00	 1.5021857297e+00	-1.9703063250e+00
 9.9999245808e-01	 1.5144530022e+00	-1.9432098429e+00
 9.8153249147e-01	 1.5264818310e+00	-1.9217385159e+00
 1.0769151347e+00	 1.4699481691e+00	-2.0206596240e+00
 1.0589089700e+00	 1.4829718879e+00	-2.0105695084e+00
 1.0407637299e+00	 1.4957622423e+00	-1.9906968031e+00
 1.0224839134e+00	 1.5083171000e+00	-1.9633772172e+00
 1.0040740600e+00	 1.5206344430e+00	-1.9358139881e+00
 9.8553874654e-01	 1.5327123690e+00	-1.9142103913e+00
 1.0812928385e+00	 1.4759235682e+00	-2.0148804422e+00
 1.0632134780e+00	 1.4890002289e+00	-2.0061524623e+00
 1.0449944768e+00	 1.5018425766e+00	-1.9844228474e+00
 1.0266403520e+00	 1.5144484703e+00	-1.9562584969e+00
 1.0081556618e+00	 1.5268158838e+00	-1.9284137233e+00
 9.8954500161e-01	 1.5389429071e+00	-1.9066110336e+00
 1.0856705423e+00	 1.4818989672e+00	-2.0105281535e+00
 1.0675179860e+00	 1.4950285699e+00	-2.0006394132e+00
 1.0492252237e+00	 1.5079229110e+00	-1.9776854571e+00
 1.0307967907e+00	 1.5205798406e+00	-1.9491036594e+00
 1.0122372637e+00	 1.5329973247e+00	-1.9211858820e+00
 9.9355125668e-01	 1.5451734452e+00	-1.8991634809e+00
 1.0900482461e+00	 1.4878743663e+00	-2.0057787546e+00
 1.0718224941e+00	 1.5010569109e+00	-1.9942056887e+00
 1.0534559706e+00	 1.5140032453e+00	-1.9706381180e+00
 1.0349532294e+00	 1.5267112110e+00	-1.9420667882e+00
 1.0163188656e+00	 1.5391787655e+00	-1.9143076299e+00
 9.9755751174e-01	 1.5514039833e+00	-1.8920904842e+00
 1.0944259499e+00	 1.4938497654e+00	-1.9995502591e+00
 1.0761270021e+00	 1.5070852519e+00	-1.9870264629e+00
 1.0576867174e+00	 1.5200835796e+00	-1.9634346215e+00
 1.0391096681e+00	 1.5328425813e+00	-1.9353023848e+00
 1.0204004674e+00	 1.5453602063e+00	-1.9079563102e+00
 1.0015637668e+00	 1.5576345214e+00	-1.8856143755e+00
 9.8153249147e-01	 1.5264818310e+00	-1.9217385159e+00
 9.6295216646e-01	 1.5382704369e+00	-1.8999784197e+00
 9.4425610438e-01	 1.5498171574e+00	-1.8696132375e+00
 9.2544895271e-01	 1.5611204463e+00	-1.8325150844e+00
 9.0653538143e-01	 1.5721788748e+00	-1.7899287315e+00
 8.8752007941e-01	 1.5829911310e+00	-1.7425523540e+00
 9.8553874654e-01	 1.5327123690e+00	-1.9142103913e+00
 9.6688258346e-01	 1.5445490918e+00	-1.8922805210e+00
 9.4811021092e-01	 1.5561429417e+00	-1.8616725402e+00
 9.2922629537e-01	 1.5674923665e+00	-1.8242748787e+00
 9.1023552584e-01	 1.5785959314e+00	-1.7813582639e+00
 8.9114261035e-01	 1.5894523193e+00	-1.7336582046e+00
 9.8954500161e-01	 1.5389429071e+00	-1.9066110336e+00
 9.7081300047e-01	 1.5508277466e+00	-1.8843088766e+00
 9.5196431747e-01	 1.5624687260e+00	-1.8532726594e+00
 9.3300363803e-01	 1.5738642867e+00	-1.8154511457e+00
 9.1393567026e-01	 1.5850129880e+00	-1.7721815253e+00
 8.9476514129e-01	 1.5959135075e+00	-1.7242736266e+00
 9.9355125668e-01	 1.5451734452e+00	-1.8991634809e+00
 9.7474341748e-01	 1.5571064015e+00	-1.8763329222e+00
 9.5581842402e-01	 1.5687945104e+00	-1.8447065473e+00
 9.3678098070e-01	 1.5802362069e+00	-1.8063369029e+00
 9.1763581467e-01	 1.5914300447e+00	-1.7626676141e+00
 8.9838767222e-01	 1.6023746958e+00	-1.7146193167e+00
 9.9755751174e-01	 1.5514039833e+00	-1.8920904842e+00
 9.7867383448e-01	 1.5633850563e+00	-1.8686211843e+00
 9.5967253057e-01	 1.5751202947e+00	-1.8362659897e+00
 9.4055832336e-01	 1.5866081271e+00	-1.7972241161e+00
 9.2133595908e-01	 1.5978471013e+00	-1.7530850682e+00
 9.0201020316e-01	 1.6088358841e+00	-1.7049162852e+00
 1.0015637668e+00	 1.5576345214e+00	-1.8856143755e+00
 9.8260425149e-01	 1.5696637112e+00	-1.8614411718e+00
 9.6352663712e-01	 1.5814460790e+00	-1.8282415140e+00
 9.4433566603e-01	 1.5929800473e+00	-1.7884036155e+00
 9.2503610350e-01	 1.6042641579e+00	-1.7437017816e+00
 9.0563273409e-01	 1.6152970724e+00	-1.6953857640e+00
 8.8752007941e-01	 1.5829911310e+00	-1.7425523540e+00
 8.6840775081e-01	 1.5935560205e+00	-1.6949122440e+00
 8.4920311148e-01	 1.6038724661e+00	-1.6507242142e+00
 8.2991088538e-01	 1.6139395077e+00	-1.6088913858e+00
 8.1053580108e-01	 1.6237563017e+00	-1.5680830469e+00
 7.9108258825e-01	 1.6333221209e+00	-1.5268001965e+00
 8.9114261035e-01	 1.5894523193e+00	-1.7336582046e+00
 8.7195227224e-01	 1.6000603308e+00	-1.6857274645e+00
 8.5266924662e-01	 1.6104188843e+00	-1.6412432179e+00
 8.3329827675e-01	 1.6205270159e+00	-1.5990444762e+00
 8.1384411047e-01	 1.6303838784e+00	-1.5577201476e+00
 7.9431149677e-01	 1.6399887418e+00	-1.5156762750e+00
 8.9476514129e-01	 1.5959135075e+00	-1.7242736266e+00
 8.7549679368e-01	 1.6065646411e+00	-1.6762217420e+00
 8.5613538177e-01	 1.6169653026e+00	-1.6315508757e+00
 8.3668566811e-01	 1.6271145241e+00	-1.5890297781e+00
 8.1715241987e-01	 1.6370114552e+00	-1.5471640162e+00
 7.9754040529e-01	 1.6466553627e+00	-1.5042648961e+00
 8.9838767222e-01	 1.6023746958e+00	-1.7146193167e+00
 8.7904131511e-01	 1.6130689513e+00	-1.6665652449e+00
 8.5960151692e-01	 1.6235117208e+00	-1.6217873621e+00
 8.4007305948e-01	 1.6337020322e+00	-1.5789779866e+00
 8.2046072926e-01	 1.6436390319e+00	-1.5365563464e+00
 8.0076931382e-01	 1.6533219836e+00	-1.4927391787e+00
 9.0201020316e-01	 1.6088358841e+00	-1.7049162852e+00
 8.8258583654e-01	 1.6195732616e+00	-1.6569293491e+00
 8.6306765207e-01	 1.6300581390e+00	-1.6120946082e+00
 8.4346045085e-01	 1.6402895404e+00	-1.5690217547e+00
 8.2376903865e-01	 1.6502666086e+00	-1.5260406431e+00
 8.0399822234e-01	 1.6599886045e+00	-1.4812735585e+00
 9.0563273409e-01	 1.6152970724e+00	-1.6953857640e+00
 8.8613035797e-01	 1.6260775719e+00	-1.6474865381e+00
 8.6653378722e-01	 1.6366045573e+00	-1.6026161994e+00
 8.4684784222e-01	 1.6468770486e+00	-1.5592955967e+00
 8.2707734804e-01	 1.6568941854e+00	-1.5157621376e+00
 8.0722713086e-01	 1.6666552254e+00	-1.4700437201e+00
 7.9108258825e-01	 1.6333221209e+00	-1.5268001965e+00
 7.7155597414e-01	 1.6426363538e+00	-1.4769125017e+00
 7.5196068023e-01	 1.6516985038e+00	-1.4161243528e+00
 7.3230141881e-01	 1.6605081885e+00	-1.3521841857e+00
 7.1258288966e-01	 1.6690651388e+00	-1.2938878929e+00
 6.9280977679e-01	 1.6773691977e+00	-1.2425199761e+00
 7.9431149677e-01	 1.6399887418e+00	-1.5156762750e+00
 7.7470518220e-01	 1.6493409920e+00	-1.4653459329e+00
 7.5502990750e-01	 1.6584401303e+00	-1.4047748412e+00
 7.3529040420e-01	 1.6672857729e+00	-1.3410009360e+00
 7.1549139125e-01	 1.6758776495e+00	-1.2828717897e+00
 6.9563757180e-01	 1.6842156025e+00	-1.2321130277e+00
 7.9754040529e-01	 1.6466553627e+00	-1.5042648961e+00
 7.7785439025e-01	 1.6560456302e+00	-1.4533861280e+00
 7.5809913476e-01	 1.6651817569e+00	-1.3929751813e+00
 7.3827938958e-01	 1.6740633574e+00	-1.3294764030e+00
 7.1839989284e-01	 1.6826901603e+00	-1.2714466294e+00
 6.9846536681e-01	 1.6910620074e+00	-1.2213054019e+00
 8.0076931382e-01	 1.6533219836e+00	-1.4927391787e+00
 7.8100359831e-01	 1.6627502683e+00	-1.4412400641e+00
 7.6116836203e-01	 1.6719233834e+00	-1.3809506693e+00
 7.4126837496e-01	 1.6808409418e+00	-1.3178513124e+00
 7.2130839444e-01	 1.6895026711e+00	-1.2598354037e+00
 7.0129316182e-01	 1.6979084123e+00	-1.2102828971e+00
 8.0399822234e-01	 1.6599886045e+00	-1.4812735585e+00
 7.8415280637e-01	 1.6694549065e+00	-1.4291154799e+00
 7.6423758930e-01	 1.6786650100e+00	-1.3689270350e+00
 7.4425736034e-01	 1.6876185263e+00	-1.3062761394e+00
 7.2421689603e-01	 1.6963151818e+00	-1.2482644767e+00
 7.0412095682e-01	 1.7047548172e+00	-1.1992359793e+00
 8.0722713086e-01	 1.6666552254e+00	-1.4700437201e+00
 7.8730201443e-01	 1.6761595447e+00	-1.4172208258e+00
 7.6730681656e-01	 1.6854066365e+00	-1.3571304054e+00
 7.4724634573e-01	 1.6943961107e+00	-1.2949339362e+00
 7.2712539762e-01	 1.7031276926e+00	-1.2369631799e+00
 7.0694875183e-01	 1.7116012221e+00	-1.1883593956e+00
 6.9280977679e-01	 1.6773691977e+00	-1.2425199761e+00
 6.7298674523e-01	 1.6854203193e+00	-1.1964120771e+00
 6.5311843788e-01	 1.6932185677e+00	-1.1515864641e+00
 6.3320947245e-01	 1.7007641154e+00	-1.1051876518e+00
 6.1326443842e-01	 1.7080572416e+00	-1.0548297857e+00
 5.9328789417e-01	 1.7150983315e+00	-9.9862336345e-01
 6.9563757180e-01	 1.6842156025e+00	-1.2321130277e+00
 6.7573362991e-01	 1.6922995859e+00	-1.1862786418e+00
 6.5578422743e-01	 1.7001296639e+00	-1.1410718852e+00
 6.3579400091e-01	 1.7077060097e+00	-1.0939462137e+00
 6.1576755858e-01	 1.7150289038e+00	-1.0428488764e+00
 5.9570947741e-01	 1.7220987328e+00	-9.8624674675e-01
 6.9846536681e-01	 1.6910620074e+00	-1.2213054019e+00
 6.7848051458e-01	 1.6991788525e+00	-1.1758239782e+00
 6.5845001697e-01	 1.7070407601e+00	-1.1303600216e+00
 6.3837852937e-01	 1.7146479041e+00	-1.0826471199e+00
 6.1827067874e-01	 1.7220005660e+00	-1.0309397468e+00
 5.9813106065e-01	 1.7290991342e+00	-9.7403822022e-01
 7.0129316182e-01	 1.6979084123e+00	-1.2102828971e+00
 6.8122739926e-01	 1.7060581192e+00	-1.1651914909e+00
 6.6111580651e-01	 1.7139518563e+00	-1.1195590268e+00
 6.4096305782e-01	 1.7215897984e+00	-1.0713707762e+00
 6.2077379889e-01	 1.7289722282e+00	-1.0191629407e+00
 6.0055264389e-01	 1.7360995356e+00	-9.6204675615e-01
 7.0412095682e-01	 1.7047548172e+00	-1.1992359793e+00
 6.8397428393e-01	 1.7129373858e+00	-1.1545305263e+00
 6.6378159605e-01	 1.7208629525e+00	-1.1087840472e+00
 6.4354758628e-01	 1.7285316927e+00	-1.0602053999e+00
 6.2327691905e-01	 1.7359438905e+00	-1.0075873910e+00
 6.0297422714e-01	 1.7430999369e+00	-9.5033004491e-01
 7.0694875183e-01	 1.7116012221e+00	-1.1883593956e+00
 6.8672116861e-01	 1.7198166524e+00	-1.1439960048e+00
 6.6644738560e-01	 1.7277740487e+00	-1.0981568742e+00
 6.4613211474e-01	 1.7354735871e+00	-1.0492466942e+00
 6.2578003921e-01	 1.7429155527e+00	-9.9629011925e-01
 6.0539581038e-01	 1.7501003383e+00	-9.3895422206e-01
 5.9328789417e-01	 1.7150983315e+00	-9.9862336345e-01
 5.7328436407e-01	 1.7218878738e+00	-9.4149932453e-01
 5.5325833573e-01	 1.7284264595e+00	-8.8792549508e-01
 5.3321425733e-01	 1.7347147800e+00	-8.3606889010e-01
 5.1315653499e-01	 1.7407536249e+00	-7.8456906513e-01
 4.9308953028e-01	 1.7465438807e+00	-7.3250311422e-01
 5.9570947741e-01	 1.7220987328e+00	-9.8624674675e-01
 5.7562430025e-01	 1.7289159876e+00	-9.2931986102e-01
 5.5551653302e-01	 1.7354812614e+00	-8.7636263614e-01
 5.3539064205e-01	 1.7417952485e+00	-8.2530035736e-01
 5.1525105146e-01	 1.7478587418e+00	-7.7455498174e-01
 4.9510214061e-01	 1.7536726312e+00	-7.2300834101e-01
 5.9813106065e-01	 1.7290991342e+00	-9.7403822022e-01
 5.7796423643e-01	 1.7359441014e+00	-9.1735052349e-01
 5.5777473031e-01	 1.7425360633e+00	-8.6500911062e-01
 5.3756702678e-01	 1.7488757170e+00	-8.1472514355e-01
 5.1734556793e-01	 1.7549638586e+00	-7.6472977916e-01
 4.9711475094e-01	 1.7608013818e+00	-7.1373551310e-01
 6.0055264389e-01	 1.7360995356e+00	-9.6204675615e-01
 5.8030417261e-01	 1.7429722151e+00	-9.0562570990e-01
 5.6003292759e-01	 1.7495908652e+00	-8.5387014279e-01
 5.3974341150e-01	 1.7559561854e+00	-8.0430470219e-01
 5.1944008440e-01	 1.7620689754e+00	-7.5499659377e-01
 4.9912736126e-01	 1.7679301323e+00	-7.0451500113e-01
 6.0297422714e-01	 1.7430999369e+00	-9.5033004491e-01
 5.8264410879e-01	 1.7500003289e+00	-8.9418879806e-01
 5.6229112488e-01	 1.7566456670e+00	-8.4296031888e-01
 5.4191979622e-01	 1.7630366539e+00	-7.9401035333e-01
 5.2153460087e-01	 1.7691740923e+00	-7.4526905808e-01
 5.0113997159e-01	 1.7750588828e+00	-6.9518842931e-01
 6.0539581038e-01	 1.7501003383e+00	-9.3895422206e-01
 5.8498404496e-01	 1.7570284427e+00	-8.8309189936e-01
 5.6454932217e-01	 1.7637004689e+00	-8.3230336240e-01
 5.4409618095e-01	 1.7701171224e+00	-7.8382307556e-01
 5.2362911734e-01	 1.7762792091e+00	-7.3547110441e-01
 5.0315258192e-01	 1.7821876334e+00	-6.8560848563e-01
 4.9308953028e-01	 1.7465438807e+00	-7.3250311422e-01
 4.7301755777e-01	 1.7520865281e+00	-6.8196111306e-01
 4.5294488273e-01	 1.7573826405e+00	-6.3526466529e-01
 4.3287571885e-01	 1.7624333815e+00	-5.9230492727e-01
 4.1281422613e-01	 1.7672400026e+00	-5.5313990246e-01
 3.9276450883e-01	 1.7718038415e+00	-5.1792490322e-01
 4.9510214061e-01	 1.7536726312e+00	-7.2300834101e-01
 4.7494824168e-01	 1.7592379017e+00	-6.7246262717e-01
 4.5479363735e-01	 1.7645556309e+00	-6.2529390355e-01
 4.3464255852e-01	 1.7696269871e+00	-5.8173088692e-01
 4.1449918216e-01	 1.7744532271e+00	-5.4217113413e-01
 3.9436762928e-01	 1.7790356939e+00	-5.0710748915e-01
 4.9711475094e-01	 1.7608013818e+00	-7.1373551310e-01
 4.7687892559e-01	 1.7663892753e+00	-6.6326994093e-01
 4.5664239198e-01	 1.7717286213e+00	-6.1573406251e-01
 4.3640939819e-01	 1.7768205927e+00	-5.7165807701e-01
 4.1618413818e-01	 1.7816664516e+00	-5.3174682940e-01
 3.9597074972e-01	 1.7862675463e+00	-4.9680215242e-01
 4.9912736126e-01	 1.7679301323e+00	-7.0451500113e-01
 4.7880960950e-01	 1.7735406489e+00	-6.5414245257e-01
 4.5849114660e-01	 1.7789016117e+00	-6.0629209805e-01
 4.3817623786e-01	 1.7840141984e+00	-5.6176041554e-01
 4.1786909421e-01	 1.7888796761e+00	-5.2152814537e-01
 3.9757387017e-01	 1.7934993987e+00	-4.8667843468e-01
 5.0113997159e-01	 1.7750588828e+00	-6.9518842931e-01
 4.8074029341e-01	 1.7806920225e+00	-6.4485144360e-01
 4.6033990122e-01	 1.7860746020e+00	-5.9668708886e-01
 4.3994307753e-01	 1.7912078040e+00	-5.5172378587e-01
 4.1955405023e-01	 1.7960929006e+00	-5.1118764430e-01
 3.9917699061e-01	 1.8007312511e+00	-4.7641631463e-01
 5.0315258192e-01	 1.7821876334e+00	-6.8560848563e-01
 4.8267097732e-01	 1.7878433961e+00	-6.3517989567e-01
 4.6218865585e-01	 1.7932475924e+00	-5.8665006525e-01
 4.4170991719e-01	 1.7984014097e+00	-5.4124588307e-01
 4.2123900626e-01	 1.8033061251e+00	-5.0040916305e-01
 4.0078011105e-01	 1.8079631035e+00	-4.6570610651e-01
 3.9276450883e-01	 1.7718038415e+00	-5.1792490322e-01
 3.7273061349e-01	 1.7761263192e+00	-4.7832601352e-01
 3.5271652710e-01	 1.7802089382e+00	-4.3022631504e-01
 3.3272617532e-01	 1.7840532796e+00	-3.9310385993e-01
 3.1276342086e-01	 1.7876610010e+00	-3.6317955261e-01
 2.9283206188e-01	 1.7910338343e+00	-3.3605567891e-01
 3.9436762928e-01	 1.7790356939e+00	-5.0710748915e-01
 3.7425196293e-01	 1.7833758144e+00	-4.6911514445e-01
 3.5415618639e-01	 1.7874750971e+00	-4.2111712253e-01
 3.3408424134e-01	 1.7913351297e+00	-3.8337408012e-01
 3.1404000625e-01	 1.7949575766e+00	-3.5312787713e-01
 2.9402729478e-01	 1.7983441765e+00	-3.2640363929e-01
 3.9597074972e-01	 1.7862675463e+00	-4.9680215242e-01
 3.7577331238e-01	 1.7906253096e+00	-4.6028207468e-01
 3.5559584568e-01	 1.7947412560e+00	-4.1275431500e-01
 3.3544230736e-01	 1.7986169798e+00	-3.7448637159e-01
 3.1531659164e-01	 1.8022541521e+00	-3.4386494075e-01
 2.9522252769e-01	 1.8056545187e+00	-3.1729096785e-01
 3.9757387017e-01	 1.7934993987e+00	-4.8667843468e-01
 3.7729466182e-01	 1.7978748048e+00	-4.5150532612e-01
 3.5703550498e-01	 1.8020074150e+00	-4.0475426099e-01
 3.3680037339e-01	 1.8058988299e+00	-3.6603521129e-01
 3.1659317703e-01	 1.8095507276e+00	-3.3495808013e-01
 2.9641776059e-01	 1.8129648608e+00	-3.0825220547e-01
 3.9917699061e-01	 1.8007312511e+00	-4.7641631463e-01
 3.7881601126e-01	 1.8051242999e+00	-4.4247282169e-01
 3.5847516427e-01	 1.8092735739e+00	-3.9674189332e-01
 3.3815843941e-01	 1.8131806800e+00	-3.5762051860e-01
 3.1786976243e-01	 1.8168473031e+00	-3.2597764646e-01
 2.9761299350e-01	 1.8202752030e+00	-2.9882315763e-01
 4.0078011105e-01	 1.8079631035e+00	-4.6570610651e-01
 3.8033736070e-01	 1.8123737951e+00	-4.3288181189e-01
 3.5991482357e-01	 1.8165397328e+00	-3.8835108512e-01
 3.3951650543e-01	 1.8204625302e+00	-3.4884799067e-01
 3.1914634782e-01	 1.8241438786e+00	-3.1649729705e-01
 2.9880822641e-01	 1.8275855452e+00	-2.8854113898e-01
 2.9283206188e-01	 1.7910338343e+00	-3.3605567891e-01
 2.7293583053e-01	 1.7941735826e+00	-3.0924404489e-01
 2.5307839161e-01	 1.7970821183e+00	-2.8415048463e-01
 2.3326334129e-01	 1.7997613802e+00	-2.6166264785e-01
 2.1349420591e-01	 1.8022133714e+00	-2.4230606038e-01
 1.9377444094e-01	 1.8044401564e+00	-2.2633820381e-01
 2.9402729478e-01	 1.7983441765e+00	-3.2640363929e-01
 2.7404985433e-01	 1.8014967401e+00	-3.0059667896e-01
 2.5411136464e-01	 1.8044171473e+00	-2.7668803491e-01
 2.3421543656e-01	 1.8071073450e+00	-2.5539197379e-01
 2.1436561083e-01	 1.8095693444e+00	-2.3699693340e-01
 1.9456535703e-01	 1.8118052183e+00	-2.2147151234e-01
 2.9522252769e-01	 1.8056545187e+00	-3.1729096785e-01
 2.7516387813e-01	 1.8088198976e+00	-2.9203985352e-01
 2.5514433767e-01	 1.8117521764e+00	-2.6876872659e-01
 2.3516753183e-01	 1.8144533098e+00	-2.4811952134e-01
 2.1523701575e-01	 1.8169253173e+00	-2.3024002283e-01
 1.9535627311e-01	 1.8191702801e+00	-2.1490197767e-01
 2.9641776059e-01	 1.8129648608e+00	-3.0825220547e-01
 2.7627790192e-01	 1.8161430550e+00	-2.8308174330e-01
 2.5617731069e-01	 1.8190872054e+00	-2.5989140964e-01
 2.3611962710e-01	 1.8217992747e+00	-2.3934911837e-01
 2.1610842067e-01	 1.8242812903e+00	-2.2155563601e-01
 1.9614718920e-01	 1.8265353420e+00	-2.0617503554e-01
 2.9761299350e-01	 1.8202752030e+00	-2.9882315763e-01
 2.7739192572e-01	 1.8234662125e+00	-2.7323049560e-01
 2.5721028372e-01	 1.8264222345e+00	-2.4955387299e-01
 2.3707172237e-01	 1.8291452395e+00	-2.2858276882e-01
 2.1697982559e-01	 1.8316372632e+00	-2.1046177485e-01
 1.9693810529e-01	 1.8339004039e+00	-1.9483362545e-01
 2.9880822641e-01	 1.8275855452e+00	-2.8854113898e-01
 2.7850594952e-01	 1.8307893700e+00	-2.6199442868e-01
 2.5824325675e-01	 1.8337572635e+00	-2.3725300137e-01
 2.3802381764e-01	 1.8364912043e+00	-2.1532077179e-01
 2.1785123052e-01	 1.8389932361e+00	-1.9647422055e-01
 1.9772902137e-01	 1.8412654657e+00	-1.8041824371e-01
 1.9377444094e-01	 1.8044401564e+00	-2.2633820381e-01
 1.7410743001e-01	 1.8064438588e+00	-2.1153214672e-01
 1.5449648396e-01	 1.8082266585e+00	-1.9625832120e-01
 1.3494484011e-01	 1.8097907896e+00	-1.8166216420e-01
 1.1545566151e-01	 1.8111385376e+00	-1.6916827414e-01
 9.6032036383e-02	 1.8122722367e+00	-1.6061731865e-01
 1.9456535703e-01	 1.8118052183e+00	-2.2147151234e-01
 1.7481807258e-01	 1.8138170990e+00	-2.0655840528e-01
 1.5512708185e-01	 1.8156071755e+00	-1.9094280524e-01
 1.3549563537e-01	 1.8171776908e+00	-1.7594365771e-01
 1.1592690911e-01	 1.8185309398e+00	-1.6313693658e-01
 9.6424003879e-02	 1.8196692663e+00	-1.5450444666e-01
 1.9535627311e-01	 1.8191702801e+00	-2.1490197767e-01
 1.7552871515e-01	 1.8211903392e+00	-1.9984255487e-01
 1.5575767974e-01	 1.8229876924e+00	-1.8399581565e-01
 1.3604643064e-01	 1.8245645920e+00	-1.6880697791e-01
 1.1639815671e-01	 1.8259233420e+00	-1.5595649511e-01
 9.6815971374e-02	 1.8270662958e+00	-1.4752115273e-01
 1.9614718920e-01	 1.8265353420e+00	-2.0617503554e-01
 1.7623935772e-01	 1.8285635795e+00	-1.9096736481e-01
 1.5638827764e-01	 1.8303682094e+00	-1.7505421281e-01
 1.3659722590e-01	 1.8319514932e+00	-1.5995840530e-01
 1.1686940431e-01	 1.8333157442e+00	-1.4741650831e-01
 9.7207938870e-02	 1.8344633254e+00	-1.3955262773e-01
 1.9693810529e-01	 1.8339004039e+00	-1.9483362545e-01
 1.7695000029e-01	 1.8359368197e+00	-1.7951311246e-01
 1.5701887553e-01	 1.8377487264e+00	-1.6375245118e-01
 1.3714802117e-01	 1.8393383944e+00	-1.4910196337e-01
 1.1734065191e-01	 1.8407081464e+00	-1.3730447052e-01
 9.7599906365e-02	 1.8418603549e+00	-1.3048221519e-01
 1.9772902137e-01	 1.8412654657e+00	-1.8041824371e-01
 1.7766064287e-01	 1.8433100600e+00	-1.6505760866e-01
 1.5764947343e-01	 1.8451292434e+00	-1.4972258292e-01
 1.3769881643e-01	 1.8467252955e+00	-1.3593940630e-01
 1.1781189950e-01	 1.8481005485e+00	-1.2540578903e-01
 9.7991873861e-02	 1.8492573844e+00	-1.2019138343e-01
 9.6032036383e-02	 1.8122722367e+00	-1.6061731865e-01
 7.6676977522e-02	 1.8131942679e+00	-1.5353195088e-01
 5.7393421908e-02	 1.8139070558e+00	-1.4507838045e-01
 3.8184230335e-02	 1.8144130667e+00	-1.3756490649e-01
 1.9052187138e-02	 1.8147148058e+00	-1.3419797709e-01
-2.3123564000e-07	 1.8148249892e+00	-1.3973067953e-01
 9.6424003879e-02	 1.8196692663e+00	-1.5450444666e-01
 7.6989944777e-02	 1.8205950608e+00	-1.4751257841e-01
 5.7627680773e-02	 1.8213107581e+00	-1.3904762309e-01
 3.8340084337e-02	 1.8218188343e+00	-1.3125779956e-01
 1.9129951167e-02	 1.8221218050e+00	-1.2724419769e-01
-2.1988021636e-07	 1.8222319849e+00	-1.3173127664e-01
 9.6815971374e-02	 1.8270662958e+00	-1.4752115273e-01
 7.7302912032e-02	 1.8279958538e+00	-1.4092019866e-01
 5.7861939638e-02	 1.8287144604e+00	-1.3276513206e-01
 3.8495938338e-02	 1.8292246019e+00	-1.2499097878e-01
 1.9207715196e-02	 1.8295288042e+00	-1.2053841450e-01
-2.0872393335e-07	 1.8296389805e+00	-1.2404434704e-01
 9.7207938870e-02	 1.8344633254e+00	-1.3955262773e-01
 7.7615879287e-02	 1.8353966467e+00	-1.3372624140e-01
 5.8096198503e-02	 1.8361181626e+00	-1.2625758550e-01
 3.8651792339e-02	 1.8366303696e+00	-1.1881410551e-01
 1.9285479225e-02	 1.8369358034e+00	-1.1411976891e-01
-1.9777809743e-07	 1.8370459766e+00	-1.1666379068e-01
 9.7599906365e-02	 1.8418603549e+00	-1.3048221519e-01
 7.7928846542e-02	 1.8427974396e+00	-1.2590083511e-01
 5.8330457368e-02	 1.8435218649e+00	-1.1955153749e-01
 3.8807646341e-02	 1.8440361372e+00	-1.1277850112e-01
 1.9363243255e-02	 1.8443428026e+00	-1.0803142829e-01
-1.8705401501e-07	 1.8444529741e+00	-1.0959046837e-01
 9.7991873861e-02	 1.8492573844e+00	-1.2019138343e-01
 7.8241813798e-02	 1.8501982326e+00	-1.1741277276e-01
 5.8564716233e-02	 1.8509255672e+00	-1.1267336968e-01
 3.8963500342e-02	 1.8514419048e+00	-1.0693707651e-01
 1.9441007284e-02	 1.8517498018e+00	-1.0232048524e-01
-1.7656299247e-07	 1.8518599737e+00	-1.0283204091e-01
 1.8518518519e+00	 0.0000000000e+00	 3.1213192790e+00
 1.8517498018e+00	 1.9441007284e-02	 3.1204267414e+00
 1.8514419048e+00	 3.8963500342e-02	 3.1135692673e+00
 1.8509255672e+00	 5.8564716233e-02	 3.1010872889e+00
 1.8501982326e+00	 7.8241813798e-02	 3.0842655254e+00
 1.8492573844e+00	 9.7991873861e-02	 3.0651760504e+00
 1.8592592593e+00	 0.0000000000e+00	 3.1056377219e+00
 1.8591568010e+00	 1.9518771313e-02	 3.1052064912e+00
 1.8588476724e+00	 3.9119354343e-02	 3.0989210710e+00
 1.8583292694e+00	 5.8798975097e-02	 3.0871316001e+00
 1.8575990255e+00	 7.8554781053e-02	 3.0710509930e+00
 1.8566544140e+00	 9.8383841356e-02	 3.0526277569e+00
 1.8666666667e+00	 0.0000000000e+00	 3.0901924337e+00
 1.8665638002e+00	 1.9596535342e-02	 3.0900341394e+00
 1.8662534400e+00	 3.9275208345e-02	 3.0840783296e+00
 1.8657329717e+00	 5.9033233962e-02	 3.0728085709e+00
 1.8649998184e+00	 7.8867748308e-02	 3.0575629001e+00
 1.8640514435e+00	 9.8775808852e-02	 3.0404072855e+00
 1.8740740741e+00	 0.0000000000e+00	 3.0749507747e+00
 1.8739707994e+00	 1.9674299371e-02	 3.0748800408e+00
 1.8736592077e+00	 3.9431062346e-02	 3.0689654131e+00
 1.8731366740e+00	 5.9267492827e-02	 3.0578146033e+00
 1.8724006114e+00	 7.9180715563e-02	 3.0428808529e+00
 1.8714484730e+00	 9.9167776347e-02	 3.0263371344e+00
 1.8814814815e+00	 0.0000000000e+00	 3.0598811684e+00
 1.8813777986e+00	 1.9752063400e-02	 3.0597191207e+00
 1.8810649753e+00	 3.9586916347e-02	 3.0535671618e+00
 1.8805403762e+00	 5.9501751692e-02	 3.0421476612e+00
 1.8798014043e+00	 7.9493682818e-02	 3.0270189309e+00
 1.8788455026e+00	 9.9559743842e-02	 3.0104502612e+00
 1.8888888889e+00	 0.0000000000e+00	 3.0449530806e+00
 1.8887847978e+00	 1.9829827429e-02	 3.0445271523e+00
 1.8884707429e+00	 3.9742770349e-02	 3.0378690984e+00
 1.8879440785e+00	 5.9736010557e-02	 3.0258062463e+00
 1.8872021972e+00	 7.9806650074e-02	 3.0099916179e+00
 1.8862425321e+00	 9.9951711338e-02	 2.9927798981e+00
 1.8492573844e+00	 9.7991873861e-02	 3.0651760504e+00
 1.8481005485e+00	 1.1781189950e-01	 3.0446170319e+00
 1.8467252955e+00	 1.3769881643e-01	 3.0213059635e+00
 1.8451292434e+00	 1.5764947343e-01	 2.9947790893e+00
 1.8433100600e+00	 1.7766064287e-01	 2.9645330590e+00
 1.8412654657e+00	 1.9772902137e-01	 2.9298055601e+00
 1.8566544140e+00	 9.8383841356e-02	 3.0526277569e+00
 1.8554929507e+00	 1.1828314710e-01	 3.0325457172e+00
 1.8541121967e+00	 1.3824961170e-01	 3.0091886243e+00
 1.8525097603e+00	 1.5828007132e-01	 2.9817053910e+00
 1.8506833002e+00	 1.7837128544e-01	 2.9496897427e+00
 1.8486305276e+00	 1.9851993746e-01	 2.9135964771e+00
 1.8640514435e+00	 9.8775808852e-02	 3.0404072855e+00
 1.8628853529e+00	 1.1875439470e-01	 3.0221751030e+00
 1.8614990979e+00	 1.3880040697e-01	 3.0011768830e+00
 1.8598902773e+00	 1.5891066921e-01	 2.9763338601e+00
 1.8580565404e+00	 1.7908192801e-01	 2.9466740434e+00
 1.8559955895e+00	 1.9931085354e-01	 2.9111683037e+00
 1.8714484730e+00	 9.9167776347e-02	 3.0263371344e+00
 1.8702777551e+00	 1.1922564230e-01	 3.0091753635e+00
 1.8688859991e+00	 1.3935120223e-01	 2.9896855562e+00
 1.8672707943e+00	 1.5954126711e-01	 2.9666165619e+00
 1.8654297807e+00	 1.7979257058e-01	 2.9388183935e+00
 1.8633606513e+00	 2.0010176963e-01	 2.9050799238e+00
 1.8788455026e+00	 9.9559743842e-02	 3.0104502612e+00
 1.8776701573e+00	 1.1969688990e-01	 2.9936004578e+00
 1.8762729003e+00	 1.3990199750e-01	 2.9747905605e+00
 1.8746513113e+00	 1.6017186500e-01	 2.9526512914e+00
 1.8728030209e+00	 1.8050321315e-01	 2.9259096242e+00
 1.8707257132e+00	 2.0089268571e-01	 2.8932281117e+00
 1.8862425321e+00	 9.9951711338e-02	 2.9927798981e+00
 1.8850625595e+00	 1.2016813749e-01	 2.9755044900e+00
 1.8836598014e+00	 1.4045279276e-01	 2.9565678350e+00
 1.8820318282e+00	 1.6080246289e-01	 2.9345357528e+00
 1.8801762612e+00	 1.8121385572e-01	 2.9080660940e+00
 1.8780907751e+00	 2.0168360180e-01	 2.8757497204e+00
 1.8412654657e+00	 1.9772902137e-01	 2.9298055601e+00
 1.8389932361e+00	 2.1785123052e-01	 2.8913006644e+00
 1.8364912043e+00	 2.3802381764e-01	 2.8508724649e+00
 1.8337572635e+00	 2.5824325675e-01	 2.8084615269e+00
 1.8307893700e+00	 2.7850594952e-01	 2.7629220589e+00
 1.8275855452e+00	 2.9880822641e-01	 2.7118384290e+00
 1.8486305276e+00	 1.9851993746e-01	 2.9135964771e+00
 1.8463492091e+00	 2.1872263544e-01	 2.8742741149e+00
 1.8438371691e+00	 2.3897591291e-01	 2.8335858713e+00
 1.8410922926e+00	 2.5927622977e-01	 2.7914709620e+00
 1.8381125275e+00	 2.7961997332e-01	 2.7467196883e+00
 1.8348958874e+00	 3.0000345931e-01	 2.6967751472e+00
 1.8559955895e+00	 1.9931085354e-01	 2.9111683037e+00
 1.8537051820e+00	 2.1959404036e-01	 2.8704547350e+00
 1.8511831339e+00	 2.3992800818e-01	 2.8267268014e+00
 1.8484273216e+00	 2.6030920280e-01	 2.7818424769e+00
 1.8454356850e+00	 2.8073399712e-01	 2.7353165188e+00
 1.8422062296e+00	 3.0119869222e-01	 2.6845959385e+00
 1.8633606513e+00	 2.0010176963e-01	 2.9050799238e+00
 1.8610611550e+00	 2.2046544528e-01	 2.8658460838e+00
 1.8585290987e+00	 2.4088010345e-01	 2.8231110110e+00
 1.8557623507e+00	 2.6134217583e-01	 2.7773652299e+00
 1.8527588424e+00	 2.8184802091e-01	 2.7282910187e+00
 1.8495165717e+00	 3.0239392512e-01	 2.6748930039e+00
 1.8707257132e+00	 2.0089268571e-01	 2.8932281117e+00
 1.8684171279e+00	 2.2133685020e-01	 2.8549192927e+00
 1.8658750636e+00	 2.4183219872e-01	 2.8129338097e+00
 1.8630973797e+00	 2.6237514886e-01	 2.7677696730e+00
 1.8600819999e+00	 2.8296204471e-01	 2.7191200780e+00
 1.8568269139e+00	 3.0358915803e-01	 2.6656393388e+00
 1.8780907751e+00	 2.0168360180e-01	 2.8757497204e+00
 1.8757731009e+00	 2.2220825513e-01	 2.8378224652e+00
 1.8732210284e+00	 2.4278429399e-01	 2.7962716999e+00
 1.8704324088e+00	 2.6340812188e-01	 2.7516951182e+00
 1.8674051574e+00	 2.8407606851e-01	 2.7038892508e+00
 1.8641372561e+00	 3.0478439093e-01	 2.6516161981e+00
 1.8275855452e+00	 2.9880822641e-01	 2.7118384290e+00
 1.8241438786e+00	 3.1914634782e-01	 2.6537871563e+00
 1.8204625302e+00	 3.3951650543e-01	 2.5896185738e+00
 1.8165397328e+00	 3.5991482357e-01	 2.5180422945e+00
 1.8123737951e+00	 3.8033736070e-01	 2.4368135448e+00
 1.8079631035e+00	 4.0078011105e-01	 2.3547094992e+00
 1.8348958874e+00	 3.0000345931e-01	 2.6967751472e+00
 1.8314404541e+00	 3.2042293321e-01	 2.6398168277e+00
 1.8277443803e+00	 3.4087457145e-01	 2.5763717791e+00
 1.8238058918e+00	 3.6135448286e-01	 2.5049586108e+00
 1.8196232903e+00	 3.8185871015e-01	 2.4232966148e+00
 1.8151949560e+00	 4.0238323150e-01	 2.3406941262e+00
 1.8422062296e+00	 3.0119869222e-01	 2.6845959385e+00
 1.8387370296e+00	 3.2169951860e-01	 2.6275392486e+00
 1.8350262304e+00	 3.4223263747e-01	 2.5642215057e+00
 1.8310720507e+00	 3.6279414216e-01	 2.4928031228e+00
 1.8268727855e+00	 3.8338005959e-01	 2.4108509583e+00
 1.8224268084e+00	 4.0398635194e-01	 2.3279183088e+00
 1.8495165717e+00	 3.0239392512e-01	 2.6748930039e+00
 1.8460336052e+00	 3.2297610399e-01	 2.6164942957e+00
 1.8423080805e+00	 3.4359070349e-01	 2.5526918638e+00
 1.8383382096e+00	 3.6423380145e-01	 2.4811244365e+00
 1.8341222807e+00	 3.8490140903e-01	 2.3990920307e+00
 1.8296586608e+00	 4.0558947239e-01	 2.3160897531e+00
 1.8568269139e+00	 3.0358915803e-01	 2.6656393388e+00
 1.8533301807e+00	 3.2425268938e-01	 2.6061467710e+00
 1.8495899307e+00	 3.4494876952e-01	 2.5413161439e+00
 1.8456043686e+00	 3.6567346074e-01	 2.4694821106e+00
 1.8413717758e+00	 3.8642275848e-01	 2.3876456350e+00
 1.8368905132e+00	 4.0719259283e-01	 2.3049256391e+00
 1.8641372561e+00	 3.0478439093e-01	 2.6516161981e+00
 1.8606267562e+00	 3.2552927477e-01	 2.5935062795e+00
 1.8568717808e+00	 3.4630683554e-01	 2.5293833504e+00
 1.8528705275e+00	 3.6711312004e-01	 2.4574610402e+00
 1.8486212710e+00	 3.8794410792e-01	 2.3761477650e+00
 1.8441223656e+00	 4.0879571328e-01	 2.2941524690e+00
 1.8079631035e+00	 4.0078011105e-01	 2.3547094992e+00
 1.8033061251e+00	 4.2123900626e-01	 2.2778382807e+00
 1.7984014097e+00	 4.4170991719e-01	 2.1989733597e+00
 1.7932475924e+00	 4.6218865585e-01	 2.1163091036e+00
 1.7878433961e+00	 4.8267097732e-01	 2.0282374894e+00
 1.7821876334e+00	 5.0315258192e-01	 1.9334409946e+00
 1.8151949560e+00	 4.0238323150e-01	 2.3406941262e+00
 1.8105193496e+00	 4.2292396228e-01	 2.2634125680e+00
 1.8055950153e+00	 4.4347675686e-01	 2.1846726103e+00
 1.8004205828e+00	 4.6403741047e-01	 2.1024706214e+00
 1.7949947697e+00	 4.8460166123e-01	 2.0150083181e+00
 1.7893163839e+00	 5.0516519225e-01	 1.9207902138e+00
 1.8224268084e+00	 4.0398635194e-01	 2.3279183088e+00
 1.8177325741e+00	 4.2460891831e-01	 2.2501885603e+00
 1.8127886209e+00	 4.4524359653e-01	 2.1713432784e+00
 1.8075935731e+00	 4.6588616509e-01	 2.0892692306e+00
 1.8021461432e+00	 4.8653234514e-01	 2.0020658553e+00
 1.7964451344e+00	 5.0717780258e-01	 1.9081471538e+00
 1.8296586608e+00	 4.0558947239e-01	 2.3160897531e+00
 1.8249457986e+00	 4.2629387433e-01	 2.2379757655e+00
 1.8199822266e+00	 4.4701043620e-01	 2.1588791523e+00
 1.8147665635e+00	 4.6773491972e-01	 2.0766637516e+00
 1.8092975168e+00	 4.8846302905e-01	 1.9894130117e+00
 1.8035738850e+00	 5.0919041290e-01	 1.8955362173e+00
 1.8368905132e+00	 4.0719259283e-01	 2.3049256391e+00
 1.8321590231e+00	 4.2797883036e-01	 2.2265920747e+00
 1.8271758322e+00	 4.4877727587e-01	 2.1471815113e+00
 1.8219395539e+00	 4.6958367434e-01	 2.0646198190e+00
 1.8164488904e+00	 4.9039371296e-01	 1.9770590684e+00
 1.8107026355e+00	 5.1120302323e-01	 1.8829879850e+00
 1.8441223656e+00	 4.0879571328e-01	 2.2941524690e+00
 1.8393722476e+00	 4.2966378639e-01	 2.2158636172e+00
 1.8343694379e+00	 4.5054411554e-01	 2.1361589810e+00
 1.8291125442e+00	 4.7143242896e-01	 2.0531097308e+00
 1.8236002640e+00	 4.9232439687e-01	 1.9650195127e+00
 1.8178313860e+00	 5.1321563356e-01	 1.8705390306e+00
 1.7821876334e+00	 5.0315258192e-01	 1.9334409946e+00
 1.7762792091e+00	 5.2362911734e-01	 1.8340775550e+00
 1.7701171224e+00	 5.4409618095e-01	 1.7336270281e+00
 1.7637004689e+00	 5.6454932217e-01	 1.6334262207e+00
 1.7570284427e+00	 5.8498404496e-01	 1.5353874370e+00
 1.7501003383e+00	 6.0539581038e-01	 1.4420377617e+00
 1.7893163839e+00	 5.0516519225e-01	 1.9207902138e+00
 1.7833843259e+00	 5.2572363381e-01	 1.8218065261e+00
 1.7771975909e+00	 5.4627256567e-01	 1.7215178531e+00
 1.7707552708e+00	 5.6680751946e-01	 1.6213333606e+00
 1.7640565564e+00	 5.8732398114e-01	 1.5232608887e+00
 1.7571007396e+00	 6.0781739362e-01	 1.4299484726e+00
 1.7964451344e+00	 5.0717780258e-01	 1.9081471538e+00
 1.7904894428e+00	 5.2781815028e-01	 1.8093876286e+00
 1.7842780594e+00	 5.4844895039e-01	 1.7091964594e+00
 1.7778100727e+00	 5.6906571675e-01	 1.6090172465e+00
 1.7710846702e+00	 5.8966391732e-01	 1.5109173519e+00
 1.7641011410e+00	 6.1023897686e-01	 1.4176318070e+00
 1.8035738850e+00	 5.0919041290e-01	 1.8955362173e+00
 1.7975945596e+00	 5.2991266675e-01	 1.7968574094e+00
 1.7913585279e+00	 5.5062533512e-01	 1.6967165398e+00
 1.7848648745e+00	 5.7132391404e-01	 1.5965537648e+00
 1.7781127840e+00	 5.9200385350e-01	 1.4984600355e+00
 1.7711015423e+00	 6.1266056010e-01	 1.4052235403e+00
 1.8107026355e+00	 5.1120302323e-01	 1.8829879850e+00
 1.8046996764e+00	 5.3200718322e-01	 1.7842584368e+00
 1.7984389964e+00	 5.5280171984e-01	 1.6841374546e+00
 1.7919196764e+00	 5.7358211133e-01	 1.5840239148e+00
 1.7851408978e+00	 5.9434378968e-01	 1.4859964996e+00
 1.7781019437e+00	 6.1508214334e-01	 1.3928628262e+00
 1.8178313860e+00	 5.1321563356e-01	 1.8705390306e+00
 1.8118047933e+00	 5.3410169969e-01	 1.7716390904e+00
 1.8055194649e+00	 5.5497810457e-01	 1.6715239989e+00
 1.7989744783e+00	 5.7584030861e-01	 1.5715135525e+00
 1.7921690115e+00	 5.9668372586e-01	 1.4736383782e+00
 1.7851023450e+00	 6.1750372658e-01	 1.3806919000e+00
 1.7501003383e+00	 6.0539581038e-01	 1.4420377617e+00
 1.7429155527e+00	 6.2578003921e-01	 1.3490091869e+00
 1.7354735871e+00	 6.4613211474e-01	 1.2501889698e+00
 1.7277740487e+00	 6.6644738560e-01	 1.1464816135e+00
 1.7198166524e+00	 6.8672116861e-01	 1.0394627823e+00
 1.7116012221e+00	 7.0694875183e-01	 9.3134025470e-01
 1.7571007396e+00	 6.0781739362e-01	 1.4299484726e+00
 1.7498872149e+00	 6.2828315936e-01	 1.3373755459e+00
 1.7424154814e+00	 6.4871664320e-01	 1.2394535947e+00
 1.7346851449e+00	 6.6911317514e-01	 1.1367675175e+00
 1.7266959190e+00	 6.8946805328e-01	 1.0306064145e+00
 1.7184476270e+00	 7.0977654684e-01	 9.2292512785e-01
 1.7641011410e+00	 6.1023897686e-01	 1.4176318070e+00
 1.7568588771e+00	 6.3078627952e-01	 1.3254868570e+00
 1.7493573758e+00	 6.5130117166e-01	 1.2284439400e+00
 1.7415962411e+00	 6.7177896468e-01	 1.1267766762e+00
 1.7335751856e+00	 6.9221493795e-01	 1.0214974218e+00
 1.7252940319e+00	 7.1260434185e-01	 9.1431937864e-01
 1.7711015423e+00	 6.1266056010e-01	 1.4052235403e+00
 1.7638305393e+00	 6.3328939968e-01	 1.3135122634e+00
 1.7562992701e+00	 6.5388570012e-01	 1.2173586091e+00
 1.7485073373e+00	 6.7444475422e-01	 1.1167330197e+00
 1.7404544522e+00	 6.9496182263e-01	 1.0123807451e+00
 1.7321404368e+00	 7.1543213685e-01	 9.0578450267e-01
 1.7781019437e+00	 6.1508214334e-01	 1.3928628262e+00
 1.7708022015e+00	 6.3579251983e-01	 1.3016231721e+00
 1.7632411645e+00	 6.5647022858e-01	 1.2063972884e+00
 1.7554184335e+00	 6.7711054376e-01	 1.1068603183e+00
 1.7473337188e+00	 6.9770870730e-01	 1.0034998658e+00
 1.7389868417e+00	 7.1825993186e-01	 8.9757918745e-01
 1.7851023450e+00	 6.1750372658e-01	 1.3806919000e+00
 1.7777738637e+00	 6.3829563999e-01	 1.2899929380e+00
 1.7701830588e+00	 6.5905475704e-01	 1.1957604094e+00
 1.7623295297e+00	 6.7977633331e-01	 1.0973818216e+00
 1.7542129854e+00	 7.0045559198e-01	 9.9509642229e-01
 1.7458332465e+00	 7.2108772687e-01	 8.8995890354e-01
 1.7116012221e+00	 7.0694875183e-01	 9.3134025470e-01
 1.7031276926e+00	 7.2712539762e-01	 8.2561258887e-01
 1.6943961107e+00	 7.4724634573e-01	 7.2557474655e-01
 1.6854066365e+00	 7.6730681656e-01	 6.2966967501e-01
 1.6761595447e+00	 7.8730201443e-01	 5.3290080320e-01
 1.6666552254e+00	 8.0722713086e-01	 4.3046128075e-01
 1.7184476270e+00	 7.0977654684e-01	 9.2292512785e-01
 1.7099402034e+00	 7.3003389921e-01	 8.1740299199e-01
 1.7011736952e+00	 7.5023533111e-01	 7.1771367518e-01
 1.6921482631e+00	 7.7037604383e-01	 6.2193310029e-01
 1.6828641829e+00	 7.9045122249e-01	 5.2543506375e-01
 1.6733218463e+00	 8.1045603939e-01	 4.2378289193e-01
 1.7252940319e+00	 7.1260434185e-01	 9.1431937864e-01
 1.7167527142e+00	 7.3294240080e-01	 8.0907906437e-01
 1.7079512796e+00	 7.5322431649e-01	 7.0972213000e-01
 1.6988898896e+00	 7.7344527110e-01	 6.1402519830e-01
 1.6895688211e+00	 7.9360043054e-01	 5.1775356388e-01
 1.6799884672e+00	 8.1368494791e-01	 4.1685241284e-01
 1.7321404368e+00	 7.1543213685e-01	 9.0578450267e-01
 1.7235652249e+00	 7.3585090239e-01	 8.0091259227e-01
 1.7147288640e+00	 7.5621330188e-01	 7.0186054210e-01
 1.7056315162e+00	 7.7651449836e-01	 6.0619264291e-01
 1.6962734592e+00	 7.9674963860e-01	 5.1008316828e-01
 1.6866550881e+00	 8.1691385643e-01	 4.0987061662e-01
 1.7389868417e+00	 7.1825993186e-01	 8.9757918745e-01
 1.7303777357e+00	 7.3875940398e-01	 7.9317119012e-01
 1.7215064485e+00	 7.5920228726e-01	 6.9438153432e-01
 1.7123731427e+00	 7.7958372563e-01	 5.9867455402e-01
 1.7029780974e+00	 7.9989884666e-01	 5.0264352852e-01
 1.6933217090e+00	 8.2014276496e-01	 4.0303149178e-01
 1.7458332465e+00	 7.2108772687e-01	 8.8995890354e-01
 1.7371902465e+00	 7.4166790557e-01	 7.8611674634e-01
 1.7282840329e+00	 7.6219127264e-01	 6.8753007511e-01
 1.7191147693e+00	 7.8265295290e-01	 5.9170265234e-01
 1.7096827356e+00	 8.0304805472e-01	 4.9564723668e-01
 1.6999883299e+00	 8.2337167348e-01	 3.9652239240e-01
 1.6666552254e+00	 8.0722713086e-01	 4.3046128075e-01
 1.6568941854e+00	 8.2707734804e-01	 3.2139236600e-01
 1.6468770486e+00	 8.4684784222e-01	 2.0994971997e-01
 1.6366045573e+00	 8.6653378722e-01	 9.9105846867e-02
 1.6260775719e+00	 8.8613035797e-01	-8.3969840577e-03
 1.6152970724e+00	 9.0563273409e-01	-1.1013190151e-01
 1.6733218463e+00	 8.1045603939e-01	 4.2378289193e-01
 1.6635217621e+00	 8.3038565743e-01	 3.1566579724e-01
 1.6534645568e+00	 8.5023523359e-01	 2.0479795905e-01
 1.6431509755e+00	 8.6999992237e-01	 9.4240507256e-02
 1.6325818822e+00	 8.8967487940e-01	-1.3174223212e-02
 1.6217582607e+00	 9.0925526503e-01	-1.1492925617e-01
 1.6799884672e+00	 8.1368494791e-01	 4.1685241284e-01
 1.6701493389e+00	 8.3369396683e-01	 3.0968958666e-01
 1.6600520650e+00	 8.5362262496e-01	 1.9943998796e-01
 1.6496973937e+00	 8.7346605752e-01	 8.9223086766e-02
 1.6390861925e+00	 8.9321940084e-01	-1.8067439317e-02
 1.6282194490e+00	 9.1287779597e-01	-1.1985159282e-01
 1.6866550881e+00	 8.1691385643e-01	 4.0987061662e-01
 1.6767769156e+00	 8.3700227622e-01	 3.0363988548e-01
 1.6666395732e+00	 8.5701001633e-01	 1.9403693062e-01
 1.6562438119e+00	 8.7693219267e-01	 8.4209617253e-02
 1.6455905028e+00	 8.9676392227e-01	-2.2915416138e-02
 1.6346806373e+00	 9.1650032690e-01	-1.2472189256e-01
 1.6933217090e+00	 8.2014276496e-01	 4.0303149178e-01
 1.6834044924e+00	 8.4031058561e-01	 2.9768645207e-01
 1.6732270814e+00	 8.6039740770e-01	 1.8874374319e-01
 1.6627902302e+00	 8.8039832782e-01	 7.9350013981e-02
 1.6520948131e+00	 9.0030844370e-01	-2.7563183425e-02
 1.6411418256e+00	 9.2012285784e-01	-1.2936969890e-01
 1.6999883299e+00	 8.2337167348e-01	 3.9652239240e-01
 1.6900320691e+00	 8.4361889500e-01	 2.9199279886e-01
 1.6798145896e+00	 8.6378479907e-01	 1.8370936031e-01
 1.6693366484e+00	 8.8386446296e-01	 7.4788224117e-02
 1.6585991234e+00	 9.0385296513e-01	-3.1861863344e-02
 1.6476030139e+00	 9.2374538878e-01	-1.3363095618e-01
 1.6152970724e+00	 9.0563273409e-01	-1.1013190151e-01
 1.6042641579e+00	 9.2503610350e-01	-2.0873510144e-01
 1.5929800473e+00	 9.4433566603e-01	-3.0804514082e-01
 1.5814460790e+00	 9.6352663712e-01	-4.0813943451e-01
 1.5696637112e+00	 9.8260425149e-01	-5.0972750838e-01
 1.5576345214e+00	 1.0015637668e+00	-6.1426222120e-01
 1.6217582607e+00	 9.0925526503e-01	-1.1492925617e-01
 1.6106812146e+00	 9.2873624791e-01	-2.1331638714e-01
 1.5993519675e+00	 9.4811300869e-01	-3.1200368768e-01
 1.5877718633e+00	 9.6738074367e-01	-4.1123824327e-01
 1.5759423660e+00	 9.8653466849e-01	-5.1189780793e-01
 1.5638650595e+00	 1.0055700219e+00	-6.1560373240e-01
 1.6282194490e+00	 9.1287779597e-01	-1.1985159282e-01
 1.6170982712e+00	 9.3243639233e-01	-2.1806713456e-01
 1.6057238877e+00	 9.5189035135e-01	-3.1616669868e-01
 1.5940976476e+00	 9.7123485021e-01	-4.1454093391e-01
 1.5822210209e+00	 9.9046508550e-01	-5.1421120283e-01
 1.5700955976e+00	 1.0095762769e+00	-6.1694431411e-01
 1.6346806373e+00	 9.1650032690e-01	-1.2472189256e-01
 1.6235153278e+00	 9.3613653674e-01	-2.2279542323e-01
 1.6120958079e+00	 9.5566769402e-01	-3.2034020224e-01
 1.6004234319e+00	 9.7508895676e-01	-4.1786461889e-01
 1.5884996757e+00	 9.9439550250e-01	-5.1650928486e-01
 1.5763261356e+00	 1.0135825320e+00	-6.1816366826e-01
 1.6411418256e+00	 9.2012285784e-01	-1.2936969890e-01
 1.6299323845e+00	 9.3983668115e-01	-2.2731621797e-01
 1.6184677281e+00	 9.5944503668e-01	-3.2433725351e-01
 1.6067492163e+00	 9.7894306331e-01	-4.2103339291e-01
 1.5947783305e+00	 9.9832591951e-01	-5.1864039338e-01
 1.5825566737e+00	 1.0175887871e+00	-6.1914781497e-01
 1.6476030139e+00	 9.2374538878e-01	-1.3363095618e-01
 1.6363494411e+00	 9.4353682557e-01	-2.3145119977e-01
 1.6248396482e+00	 9.6322237935e-01	-3.2797776202e-01
 1.6130750006e+00	 9.8279716986e-01	-4.2387816184e-01
 1.6010569854e+00	 1.0022563365e+00	-5.2045944983e-01
 1.5887872118e+00	 1.0215950421e+00	-6.1978893729e-01
 1.5576345214e+00	 1.0015637668e+00	-6.1426222120e-01
 1.5453602063e+00	 1.0204004674e+00	-7.1331213054e-01
 1.5328425813e+00	 1.0391096681e+00	-8.0003559116e-01
 1.5200835796e+00	 1.0576867174e+00	-8.7983164632e-01
 1.5070852519e+00	 1.0761270021e+00	-9.5944432249e-01
 1.4938497654e+00	 1.0944259499e+00	-1.0470859875e+00
 1.5638650595e+00	 1.0055700219e+00	-6.1560373240e-01
 1.5515416471e+00	 1.0244820693e+00	-7.1437589741e-01
 1.5389739516e+00	 1.0432661067e+00	-8.0139430934e-01
 1.5261639139e+00	 1.0619174643e+00	-8.8160031812e-01
 1.5131135930e+00	 1.0804315101e+00	-9.6130612081e-01
 1.4998251644e+00	 1.0988036537e+00	-1.0483221949e+00
 1.5700955976e+00	 1.0095762769e+00	-6.1694431411e-01
 1.5577230880e+00	 1.0285636712e+00	-7.1525666449e-01
 1.5451053219e+00	 1.0474225454e+00	-8.0245693868e-01
 1.5322442482e+00	 1.0661482112e+00	-8.8309811805e-01
 1.5191419340e+00	 1.0847360181e+00	-9.6312760868e-01
 1.5058005635e+00	 1.1031813575e+00	-1.0500186333e+00
 1.5763261356e+00	 1.0135825320e+00	-6.1816366826e-01
 1.5639045288e+00	 1.0326452730e+00	-7.1587127561e-01
 1.5512366923e+00	 1.0515789841e+00	-8.0316112809e-01
 1.5383245826e+00	 1.0703789580e+00	-8.8426623059e-01
 1.5251702750e+00	 1.0890405261e+00	-9.6483531184e-01
 1.5117759625e+00	 1.1075590613e+00	-1.0520680603e+00
 1.5825566737e+00	 1.0175887871e+00	-6.1914781497e-01
 1.5700859696e+00	 1.0367268749e+00	-7.1614249762e-01
 1.5573680626e+00	 1.0557354227e+00	-8.0345032914e-01
 1.5444049169e+00	 1.0746097049e+00	-8.8505181037e-01
 1.5311986160e+00	 1.0933450341e+00	-9.6636219417e-01
 1.5177513616e+00	 1.1119367651e+00	-1.0543494598e+00
 1.5887872118e+00	 1.0215950421e+00	-6.1978893729e-01
 1.5762674104e+00	 1.0408084768e+00	-7.1599887541e-01
 1.5634994329e+00	 1.0598918614e+00	-8.0327365684e-01
 1.5504852512e+00	 1.0788404518e+00	-8.8540784378e-01
 1.5372269570e+00	 1.0976495421e+00	-9.6764751475e-01
 1.5237267607e+00	 1.1163144689e+00	-1.0560326986e+00
 1.4938497654e+00	 1.0944259499e+00	-1.0470859875e+00
 1.4803794023e+00	 1.1125790338e+00	-1.1456435203e+00
 1.4666765595e+00	 1.1305817754e+00	-1.2352819030e+00
 1.4527437467e+00	 1.1484297486e+00	-1.3082935719e+00
 1.4385835851e+00	 1.1661185831e+00	-1.3733094436e+00
 1.4241988060e+00	 1.1836439677e+00	-1.4374158228e+00
 1.4998251644e+00	 1.0988036537e+00	-1.0483221949e+00
 1.4863009199e+00	 1.1170293499e+00	-1.1453023143e+00
 1.4725432658e+00	 1.1351041025e+00	-1.2342965523e+00
 1.4585547217e+00	 1.1530234676e+00	-1.3069982915e+00
 1.4443379195e+00	 1.1707830574e+00	-1.3717625738e+00
 1.4298956012e+00	 1.1883785436e+00	-1.4362885630e+00
 1.5058005635e+00	 1.1031813575e+00	-1.0500186333e+00
 1.4922224375e+00	 1.1214796660e+00	-1.1446122994e+00
 1.4784099720e+00	 1.1396264296e+00	-1.2313093678e+00
 1.4643656967e+00	 1.1576171866e+00	-1.3046487940e+00
 1.4500922538e+00	 1.1754475317e+00	-1.3698719306e+00
 1.4355923964e+00	 1.1931131194e+00	-1.4351857500e+00
 1.5117759625e+00	 1.1075590613e+00	-1.0520680603e+00
 1.4981439552e+00	 1.1259299822e+00	-1.1436432067e+00
 1.4842766783e+00	 1.1441487567e+00	-1.2267844016e+00
 1.4701766717e+00	 1.1622109056e+00	-1.3014028122e+00
 1.4558465882e+00	 1.1801120061e+00	-1.3677462456e+00
 1.4412891917e+00	 1.1978476953e+00	-1.4341765309e+00
 1.5177513616e+00	 1.1119367651e+00	-1.0543494598e+00
 1.5040654728e+00	 1.1303802983e+00	-1.1424123124e+00
 1.4901433845e+00	 1.1486710838e+00	-1.2224984374e+00
 1.4759876467e+00	 1.1668046246e+00	-1.2974211373e+00
 1.4616009225e+00	 1.1847764804e+00	-1.3654978505e+00
 1.4469859869e+00	 1.2025822712e+00	-1.4333341356e+00
 1.5237267607e+00	 1.1163144689e+00	-1.0560326986e+00
 1.5099869904e+00	 1.1348306144e+00	-1.1409366248e+00
 1.4960100907e+00	 1.1531934109e+00	-1.2187460025e+00
 1.4817986217e+00	 1.1713983436e+00	-1.2928695703e+00
 1.4673552568e+00	 1.1894409547e+00	-1.3632422544e+00
 1.4526827821e+00	 1.2073168470e+00	-1.4327354560e+00
 1.4241988060e+00	 1.1836439677e+00	-1.4374158228e+00
 1.4095922489e+00	 1.2010016541e+00	-1.5031273208e+00
 1.3947668599e+00	 1.2181874600e+00	-1.5682104266e+00
 1.3797256897e+00	 1.2351972727e+00	-1.6304917295e+00
 1.3644718914e+00	 1.2520270519e+00	-1.6865548173e+00
 1.3490087186e+00	 1.2686728334e+00	-1.7319582059e+00
 1.4298956012e+00	 1.1883785436e+00	-1.4362885630e+00
 1.4152306179e+00	 1.2058056607e+00	-1.5024869135e+00
 1.4003459273e+00	 1.2230602099e+00	-1.5673909241e+00
 1.3852445924e+00	 1.2401380618e+00	-1.6291626685e+00
 1.3699297790e+00	 1.2570351601e+00	-1.6846924945e+00
 1.3544047535e+00	 1.2737475248e+00	-1.7298224876e+00
 1.4355923964e+00	 1.1931131194e+00	-1.4351857500e+00
 1.4208689869e+00	 1.2106096673e+00	-1.5019412223e+00
 1.4059249948e+00	 1.2279329597e+00	-1.5666003098e+00
 1.3907634952e+00	 1.2450788509e+00	-1.6277314383e+00
 1.3753876666e+00	 1.2620432683e+00	-1.6826026599e+00
 1.3598007884e+00	 1.2788222161e+00	-1.7274106344e+00
 1.4412891917e+00	 1.1978476953e+00	-1.4341765309e+00
 1.4265073559e+00	 1.2154136739e+00	-1.5015296501e+00
 1.4115040622e+00	 1.2328057095e+00	-1.5658570728e+00
 1.3962823980e+00	 1.2500196400e+00	-1.6262034748e+00
 1.3808455541e+00	 1.2670513765e+00	-1.6802845528e+00
 1.3651968232e+00	 1.2838969074e+00	-1.7247215119e+00
 1.4469859869e+00	 1.2025822712e+00	-1.4333341356e+00
 1.4321457249e+00	 1.2202176805e+00	-1.5012960956e+00
 1.4170831296e+00	 1.2376784594e+00	-1.5651845519e+00
 1.4018013007e+00	 1.2549604290e+00	-1.6245893672e+00
 1.3863034417e+00	 1.2720594847e+00	-1.6777428281e+00
 1.3705928581e+00	 1.2889715988e+00	-1.7217596301e+00
 1.4526827821e+00	 1.2073168470e+00	-1.4327354560e+00
 1.4377840939e+00	 1.2250216872e+00	-1.5012885379e+00
 1.4226621971e+00	 1.2425512092e+00	-1.5646105280e+00
 1.4073202035e+00	 1.2599012181e+00	-1.6229044609e+00
 1.3917613292e+00	 1.2770675930e+00	-1.6749871717e+00
 1.3759888930e+00	 1.2940462901e+00	-1.7185347746e+00
 1.3490087186e+00	 1.2686728334e+00	-1.7319582059e+00
 1.3333395228e+00	 1.2851307319e+00	-1.7728125437e+00
 1.3174677512e+00	 1.3013969440e+00	-1.8159463857e+00
 1.3013969440e+00	 1.3174677512e+00	-1.8571300880e+00
 1.2851307319e+00	 1.3333395228e+00	-1.8920266625e+00
 1.2686728334e+00	 1.3490087186e+00	-1.9164510641e+00
 1.3544047535e+00	 1.2737475248e+00	-1.7298224876e+00
 1.3386728809e+00	 1.2902712548e+00	-1.7706805969e+00
 1.3227376222e+00	 1.3066025317e+00	-1.8138672528e+00
 1.3066025317e+00	 1.3227376222e+00	-1.8550439616e+00
 1.2902712548e+00	 1.3386728809e+00	-1.8897570250e+00
 1.2737475248e+00	 1.3544047535e+00	-1.9137044625e+00
 1.3598007884e+00	 1.2788222161e+00	-1.7274106344e+00
 1.3440062390e+00	 1.2954117778e+00	-1.7683173885e+00
 1.3280074932e+00	 1.3118081195e+00	-1.8116447964e+00
 1.3118081195e+00	 1.3280074932e+00	-1.8529160373e+00
 1.2954117778e+00	 1.3440062390e+00	-1.8875318037e+00
 1.2788222161e+00	 1.3598007884e+00	-1.9110451018e+00
 1.3651968232e+00	 1.2838969074e+00	-1.7247215119e+00
 1.3493395971e+00	 1.3005523007e+00	-1.7657269435e+00
 1.3332773642e+00	 1.3170137073e+00	-1.8092942207e+00
 1.3170137073e+00	 1.3332773642e+00	-1.8507788125e+00
 1.3005523007e+00	 1.3493395971e+00	-1.8854069813e+00
 1.2838969074e+00	 1.3651968232e+00	-1.9085587049e+00
 1.3705928581e+00	 1.2889715988e+00	-1.7217596301e+00
 1.3546729552e+00	 1.3056928236e+00	-1.7629191237e+00
 1.3385472352e+00	 1.3222192951e+00	-1.8068367057e+00
 1.3222192951e+00	 1.3385472352e+00	-1.8486708359e+00
 1.3056928236e+00	 1.3546729552e+00	-1.8834445917e+00
 1.2889715988e+00	 1.3705928581e+00	-1.9063369604e+00
 1.3759888930e+00	 1.2940462901e+00	-1.7185347746e+00
 1.3600063133e+00	 1.3108333465e+00	-1.7599092763e+00
 1.3438171062e+00	 1.3274248829e+00	-1.8042990756e+00
 1.3274248829e+00	 1.3438171062e+00	-1.8466363972e+00
 1.3108333465e+00	 1.3600063133e+00	-1.8817124348e+00
 1.2940462901e+00	 1.3759888930e+00	-1.9044772638e+00
 1.2686728334e+00	 1.3490087186e+00	-1.9164510641e+00
 1.2520270519e+00	 1.3644718914e+00	-1.9374873787e+00
 1.2351972727e+00	 1.3797256897e+00	-1.9611854504e+00
 1.2181874600e+00	 1.3947668599e+00	-1.9828349310e+00
 1.2010016541e+00	 1.4095922489e+00	-1.9989325673e+00
 1.1836439677e+00	 1.4241988060e+00	-2.0074217581e+00
 1.2737475248e+00	 1.3544047535e+00	-1.9137044625e+00
 1.2570351601e+00	 1.3699297790e+00	-1.9340336234e+00
 1.2401380618e+00	 1.3852445924e+00	-1.9570545183e+00
 1.2230602099e+00	 1.4003459273e+00	-1.9782545086e+00
 1.2058056607e+00	 1.4152306179e+00	-1.9943532894e+00
 1.1883785436e+00	 1.4298956012e+00	-2.0035490527e+00
 1.2788222161e+00	 1.3598007884e+00	-1.9110451018e+00
 1.2620432683e+00	 1.3753876666e+00	-1.9306339969e+00
 1.2450788509e+00	 1.3907634952e+00	-1.9528864927e+00
 1.2279329597e+00	 1.4059249948e+00	-1.9735340317e+00
 1.2106096673e+00	 1.4208689869e+00	-1.9895631927e+00
 1.1931131194e+00	 1.4355923964e+00	-1.9994685382e+00
 1.2838969074e+00	 1.3651968232e+00	-1.9085587049e+00
 1.2670513765e+00	 1.3808455541e+00	-1.9273976299e+00
 1.2500196400e+00	 1.3962823980e+00	-1.9487943982e+00
 1.2328057095e+00	 1.4115040622e+00	-1.9687700883e+00
 1.2154136739e+00	 1.4265073559e+00	-1.9846213124e+00
 1.1978476953e+00	 1.4412891917e+00	-1.9951798301e+00
 1.2889715988e+00	 1.3705928581e+00	-1.9063369604e+00
 1.2720594847e+00	 1.3863034417e+00	-1.9244396362e+00
 1.2549604290e+00	 1.4018013007e+00	-1.9448975595e+00
 1.2376784594e+00	 1.4170831296e+00	-1.9640661862e+00
 1.2202176805e+00	 1.4321457249e+00	-1.9795945285e+00
 1.2025822712e+00	 1.4469859869e+00	-1.9906916211e+00
 1.2940462901e+00	 1.3759888930e+00	-1.9044772638e+00
 1.2770675930e+00	 1.3917613292e+00	-1.9218808782e+00
 1.2599012181e+00	 1.4073202035e+00	-1.9413213865e+00
 1.2425512092e+00	 1.4226621971e+00	-1.9595325517e+00
 1.2250216872e+00	 1.4377840939e+00	-1.9745573721e+00
 1.2073168470e+00	 1.4526827821e+00	-1.9860214893e+00
 1.1836439677e+00	 1.4241988060e+00	-2.0074217581e+00
 1.1661185831e+00	 1.4385835851e+00	-2.0084951745e+00
 1.1484297486e+00	 1.4527437467e+00	-2.0046274665e+00
 1.1305817754e+00	 1.4666765595e+00	-1.9996545042e+00
 1.1125790338e+00	 1.4803794023e+00	-1.9992095693e+00
 1.0944259499e+00	 1.4938497654e+00	-1.9995502591e+00
 1.1883785436e+00	 1.4298956012e+00	-2.0035490527e+00
 1.1707830574e+00	 1.4443379195e+00	-2.0049546431e+00
 1.1530234676e+00	 1.4585547217e+00	-2.0003064538e+00
 1.1351041025e+00	 1.4725432658e+00	-1.9942886028e+00
 1.1170293499e+00	 1.4863009199e+00	-1.9929454922e+00
 1.0988036537e+00	 1.4998251644e+00	-1.9922989148e+00
 1.1931131194e+00	 1.4355923964e+00	-1.9994685382e+00
 1.1754475317e+00	 1.4500922538e+00	-2.0013826150e+00
 1.1576171866e+00	 1.4643656967e+00	-1.9963105373e+00
 1.1396264296e+00	 1.4784099720e+00	-1.9896878393e+00
 1.1214796660e+00	 1.4922224375e+00	-1.9866086281e+00
 1.1031813575e+00	 1.5058005635e+00	-1.9844773965e+00
 1.1978476953e+00	 1.4412891917e+00	-1.9951798301e+00
 1.1801120061e+00	 1.4558465882e+00	-1.9977108479e+00
 1.1622109056e+00	 1.4701766717e+00	-1.9925097191e+00
 1.1441487567e+00	 1.4842766783e+00	-1.9855932919e+00
 1.1259299822e+00	 1.4981439552e+00	-1.9803798782e+00
 1.1075590613e+00	 1.5117759625e+00	-1.9762970112e+00
 1.2025822712e+00	 1.4469859869e+00	-1.9906916211e+00
 1.1847764804e+00	 1.4616009225e+00	-1.9938814953e+00
 1.1668046246e+00	 1.4759876467e+00	-1.9887855648e+00
 1.1486710838e+00	 1.4901433845e+00	-1.9814810742e+00
 1.1303802983e+00	 1.5040654728e+00	-1.9744632737e+00
 1.1119367651e+00	 1.5177513616e+00	-1.9679819869e+00
 1.2073168470e+00	 1.4526827821e+00	-1.9860214893e+00
 1.1894409547e+00	 1.4673552568e+00	-1.9898469147e+00
 1.1713983436e+00	 1.4817986217e+00	-1.9850310752e+00
 1.1531934109e+00	 1.4960100907e+00	-1.9774555394e+00
 1.1348306144e+00	 1.5099869904e+00	-1.9690566221e+00
 1.1163144689e+00	 1.5237267607e+00	-1.9602697102e+00
 1.0944259499e+00	 1.4938497654e+00	-1.9995502591e+00
 1.0761270021e+00	 1.5070852519e+00	-1.9870264629e+00
 1.0576867174e+00	 1.5200835796e+00	-1.9634346215e+00
 1.0391096681e+00	 1.5328425813e+00	-1.9353023848e+00
 1.0204004674e+00	 1.5453602063e+00	-1.9079563102e+00
 1.0015637668e+00	 1.5576345214e+00	-1.8856143755e+00
 1.0988036537e+00	 1.4998251644e+00	-1.9922989148e+00
 1.0804315101e+00	 1.5131135930e+00	-1.9793379220e+00
 1.0619174643e+00	 1.5261639139e+00	-1.9560499991e+00
 1.0432661067e+00	 1.5389739516e+00	-1.9285322078e+00
 1.0244820693e+00	 1.5515416471e+00	-1.9016559394e+00
 1.0055700219e+00	 1.5638650595e+00	-1.8791631889e+00
 1.1031813575e+00	 1.5058005635e+00	-1.9844773965e+00
 1.0847360181e+00	 1.5191419340e+00	-1.9713955204e+00
 1.0661482112e+00	 1.5322442482e+00	-1.9484920776e+00
 1.0474225454e+00	 1.5451053219e+00	-1.9215142635e+00
 1.0285636712e+00	 1.5577230880e+00	-1.8949594134e+00
 1.0095762769e+00	 1.5700955976e+00	-1.8721749183e+00
 1.1075590613e+00	 1.5117759625e+00	-1.9762970112e+00
 1.0890405261e+00	 1.5251702750e+00	-1.9634022135e+00
 1.0703789580e+00	 1.5383245826e+00	-1.9409631835e+00
 1.0515789841e+00	 1.5512366923e+00	-1.9144569018e+00
 1.0326452730e+00	 1.5639045288e+00	-1.8880866853e+00
 1.0135825320e+00	 1.5763261356e+00	-1.8648856262e+00
 1.1119367651e+00	 1.5177513616e+00	-1.9679819869e+00
 1.0933450341e+00	 1.5311986160e+00	-1.9555596271e+00
 1.0746097049e+00	 1.5444049169e+00	-1.9336644759e+00
 1.0557354227e+00	 1.5573680626e+00	-1.9075673744e+00
 1.0367268749e+00	 1.5700859696e+00	-1.8812565988e+00
 1.0175887871e+00	 1.5825566737e+00	-1.8575301878e+00
 1.1163144689e+00	 1.5237267607e+00	-1.9602697102e+00
 1.0976495421e+00	 1.5372269570e+00	-1.9480678899e+00
 1.0788404518e+00	 1.5504852512e+00	-1.9267957878e+00
 1.0598918614e+00	 1.5634994329e+00	-1.9010516863e+00
 1.0408084768e+00	 1.5762674104e+00	-1.8746867512e+00
 1.0215950421e+00	 1.5887872118e+00	-1.8503421669e+00
 1.0015637668e+00	 1.5576345214e+00	-1.8856143755e+00
 9.8260425149e-01	 1.5696637112e+00	-1.8614411718e+00
 9.6352663712e-01	 1.5814460790e+00	-1.8282415140e+00
 9.4433566603e-01	 1.5929800473e+00	-1.7884036155e+00
 9.2503610350e-01	 1.6042641579e+00	-1.7437017816e+00
 9.0563273409e-01	 1.6152970724e+00	-1.6953857640e+00
 1.0055700219e+00	 1.5638650595e+00	-1.8791631889e+00
 9.8653466849e-01	 1.5759423660e+00	-1.8542381143e+00
 9.6738074367e-01	 1.5877718633e+00	-1.8201622675e+00
 9.4811300869e-01	 1.5993519675e+00	-1.7795144018e+00
 9.2873624791e-01	 1.6106812146e+00	-1.7342530430e+00
 9.0925526503e-01	 1.6217582607e+00	-1.6858076197e+00
 1.0095762769e+00	 1.5700955976e+00	-1.8721749183e+00
 9.9046508550e-01	 1.5822210209e+00	-1.8464465506e+00
 9.7123485021e-01	 1.5940976476e+00	-1.8115350453e+00
 9.5189035135e-01	 1.6057238877e+00	-1.7701710740e+00
 9.3243639233e-01	 1.6170982712e+00	-1.7244579070e+00
 9.1287779597e-01	 1.6282194490e+00	-1.6759644611e+00
 1.0135825320e+00	 1.5763261356e+00	-1.8648856262e+00
 9.9439550250e-01	 1.5884996757e+00	-1.8383162718e+00
 9.7508895676e-01	 1.6004234319e+00	-1.8026150541e+00
 9.5566769402e-01	 1.6120958079e+00	-1.7606263130e+00
 9.3613653674e-01	 1.6235153278e+00	-1.7145589722e+00
 9.1650032690e-01	 1.6346806373e+00	-1.6660816466e+00
 1.0175887871e+00	 1.5825566737e+00	-1.8575301878e+00
 9.9832591951e-01	 1.5947783305e+00	-1.8300958412e+00
 9.7894306331e-01	 1.6067492163e+00	-1.7936563600e+00
 9.5944503668e-01	 1.6184677281e+00	-1.7511318648e+00
 9.3983668115e-01	 1.6299323845e+00	-1.7047982180e+00
 9.2012285784e-01	 1.6411418256e+00	-1.6563843310e+00
 1.0215950421e+00	 1.5887872118e+00	-1.8503421669e+00
 1.0022563365e+00	 1.6010569854e+00	-1.8220324823e+00
 9.8279716986e-01	 1.6130750006e+00	-1.7849117861e+00
 9.6322237935e-01	 1.6248396482e+00	-1.7419384458e+00
 9.4353682557e-01	 1.6363494411e+00	-1.6954169139e+00
 9.2374538878e-01	 1.6476030139e+00	-1.6470973770e+00
 9.0563273409e-01	 1.6152970724e+00	-1.6953857640e+00
 8.8613035797e-01	 1.6260775719e+00	-1.6474865381e+00
 8.6653378722e-01	 1.6366045573e+00	-1.6026161994e+00
 8.4684784222e-01	 1.6468770486e+00	-1.5592955967e+00
 8.2707734804e-01	 1.6568941854e+00	-1.5157621376e+00
 8.0722713086e-01	 1.6666552254e+00	-1.4700437201e+00
 9.0925526503e-01	 1.6217582607e+00	-1.6858076197e+00
 8.8967487940e-01	 1.6325818822e+00	-1.6380018095e+00
 8.6999992237e-01	 1.6431509755e+00	-1.5930747205e+00
 8.5023523359e-01	 1.6534645568e+00	-1.5494736733e+00
 8.3038565743e-01	 1.6635217621e+00	-1.5053609446e+00
 8.1045603939e-01	 1.6733218463e+00	-1.4586893256e+00
 9.1287779597e-01	 1.6282194490e+00	-1.6759644611e+00
 8.9321940084e-01	 1.6390861925e+00	-1.6282630826e+00
 8.7346605752e-01	 1.6496973937e+00	-1.5832268455e+00
 8.5362262496e-01	 1.6600520650e+00	-1.5392660710e+00
 8.3369396683e-01	 1.6701493389e+00	-1.4945053026e+00
 8.1368494791e-01	 1.6799884672e+00	-1.4468604283e+00
 9.1650032690e-01	 1.6346806373e+00	-1.6660816466e+00
 8.9676392227e-01	 1.6455905028e+00	-1.6184781986e+00
 8.7693219267e-01	 1.6562438119e+00	-1.5732688959e+00
 8.5701001633e-01	 1.6666395732e+00	-1.5288630894e+00
 8.3700227622e-01	 1.6767769156e+00	-1.4833844927e+00
 8.1691385643e-01	 1.6866550881e+00	-1.4347498059e+00
 9.2012285784e-01	 1.6411418256e+00	-1.6563843310e+00
 9.0030844370e-01	 1.6520948131e+00	-1.6088552005e+00
 8.8039832782e-01	 1.6627902302e+00	-1.5633976886e+00
 8.6039740770e-01	 1.6732270814e+00	-1.5184557109e+00
 8.4031058561e-01	 1.6834044924e+00	-1.4721885662e+00
 8.2014276496e-01	 1.6933217090e+00	-1.4225510010e+00
 9.2374538878e-01	 1.6476030139e+00	-1.6470973770e+00
 9.0385296513e-01	 1.6585991234e+00	-1.5996022463e+00
 8.8386446296e-01	 1.6693366484e+00	-1.5538104529e+00
 8.6378479907e-01	 1.6798145896e+00	-1.5082355234e+00
 8.4361889500e-01	 1.6900320691e+00	-1.4611082752e+00
 8.2337167348e-01	 1.6999883299e+00	-1.4104582589e+00
 8.0722713086e-01	 1.6666552254e+00	-1.4700437201e+00
 7.8730201443e-01	 1.6761595447e+00	-1.4172208258e+00
 7.6730681656e-01	 1.6854066365e+00	-1.3571304054e+00
 7.4724634573e-01	 1.6943961107e+00	-1.2949339362e+00
 7.2712539762e-01	 1.7031276926e+00	-1.2369631799e+00
 7.0694875183e-01	 1.7116012221e+00	-1.1883593956e+00
 8.1045603939e-01	 1.6733218463e+00	-1.4586893256e+00
 7.9045122249e-01	 1.6828641829e+00	-1.4052269660e+00
 7.7037604383e-01	 1.6921482631e+00	-1.3452709975e+00
 7.5023533111e-01	 1.7011736952e+00	-1.2835692679e+00
 7.3003389921e-01	 1.7099402034e+00	-1.2257087096e+00
 7.0977654684e-01	 1.7184476270e+00	-1.1774138222e+00
 8.1368494791e-01	 1.6799884672e+00	-1.4468604283e+00
 7.9360043054e-01	 1.6895688211e+00	-1.3927971443e+00
 7.7344527110e-01	 1.6988898896e+00	-1.3330430882e+00
 7.5322431649e-01	 1.7079512796e+00	-1.2719123121e+00
 7.3294240080e-01	 1.7167527142e+00	-1.2142772430e+00
 7.1260434185e-01	 1.7252940319e+00	-1.1661817183e+00
 8.1691385643e-01	 1.6866550881e+00	-1.4347498059e+00
 7.9674963860e-01	 1.6962734592e+00	-1.3801294466e+00
 7.7651449836e-01	 1.7056315162e+00	-1.3206496695e+00
 7.5621330188e-01	 1.7147288640e+00	-1.2601708262e+00
 7.3585090239e-01	 1.7235652249e+00	-1.2028998714e+00
 7.1543213685e-01	 1.7321404368e+00	-1.1548954449e+00
 8.2014276496e-01	 1.6933217090e+00	-1.4225510010e+00
 7.9989884666e-01	 1.7029780974e+00	-1.3674226655e+00
 7.7958372563e-01	 1.7123731427e+00	-1.3082943643e+00
 7.5920228726e-01	 1.7215064485e+00	-1.2485530999e+00
 7.3875940398e-01	 1.7303777357e+00	-1.1918091034e+00
 7.1825993186e-01	 1.7389868417e+00	-1.1437896722e+00
 8.2337167348e-01	 1.6999883299e+00	-1.4104582589e+00
 8.0304805472e-01	 1.7096827356e+00	-1.3548762475e+00
 7.8265295290e-01	 1.7191147693e+00	-1.2961813821e+00
 7.6219127264e-01	 1.7282840329e+00	-1.2372679198e+00
 7.4166790557e-01	 1.7371902465e+00	-1.1812321614e+00
 7.2108772687e-01	 1.7458332465e+00	-1.1331010020e+00
 7.0694875183e-01	 1.7116012221e+00	-1.1883593956e+00
 6.8672116861e-01	 1.7198166524e+00	-1.1439960048e+00
 6.6644738560e-01	 1.7277740487e+00	-1.0981568742e+00
 6.4613211474e-01	 1.7354735871e+00	-1.0492466942e+00
 6.2578003921e-01	 1.7429155527e+00	-9.9629011925e-01
 6.0539581038e-01	 1.7501003383e+00	-9.3895422206e-01
 7.0977654684e-01	 1.7184476270e+00	-1.1774138222e+00
 6.8946805328e-01	 1.7266959190e+00	-1.1333055501e+00
 6.6911317514e-01	 1.7346851449e+00	-1.0873475569e+00
 6.4871664320e-01	 1.7424154814e+00	-1.0381294326e+00
 6.2828315936e-01	 1.7498872149e+00	-9.8489801010e-01
 6.0781739362e-01	 1.7571007396e+00	-9.2757902065e-01
 7.1260434185e-01	 1.7252940319e+00	-1.1661817183e+00
 6.9221493795e-01	 1.7335751856e+00	-1.1222189028e+00
 6.7177896468e-01	 1.7415962411e+00	-1.0760732430e+00
 6.5130117166e-01	 1.7493573758e+00	-1.0265248885e+00
 6.3078627952e-01	 1.7568588771e+00	-9.7304805564e-01
 6.1023897686e-01	 1.7641011410e+00	-9.1583190464e-01
 7.1543213685e-01	 1.7321404368e+00	-1.1548954449e+00
 6.9496182263e-01	 1.7404544522e+00	-1.1109607508e+00
 6.7444475422e-01	 1.7485073373e+00	-1.0645345641e+00
 6.5388570012e-01	 1.7562992701e+00	-1.0145932399e+00
 6.3328939968e-01	 1.7638305393e+00	-9.6084362397e-01
 6.1266056010e-01	 1.7711015423e+00	-9.0374316939e-01
 7.1825993186e-01	 1.7389868417e+00	-1.1437896722e+00
 6.9770870730e-01	 1.7473337188e+00	-1.0997590131e+00
 6.7711054376e-01	 1.7554184335e+00	-1.0529364450e+00
 6.5647022858e-01	 1.7632411645e+00	-1.0025001579e+00
 6.3579251983e-01	 1.7708022015e+00	-9.4839490953e-01
 6.1508214334e-01	 1.7781019437e+00	-8.9135140118e-01
 7.2108772687e-01	 1.7458332465e+00	-1.1331010020e+00
 7.0045559198e-01	 1.7542129854e+00	-1.0888444885e+00
 6.7977633331e-01	 1.7623295297e+00	-1.0414877750e+00
 6.5905475704e-01	 1.7701830588e+00	-9.9041649483e-01
 6.3829563999e-01	 1.7777738637e+00	-9.3581863429e-01
 6.1750372658e-01	 1.7851023450e+00	-8.7870318590e-01
 6.0539581038e-01	 1.7501003383e+00	-9.3895422206e-01
 5.8498404496e-01	 1.7570284427e+00	-8.8309189936e-01
 5.6454932217e-01	 1.7637004689e+00	-8.3230336240e-01
 5.4409618095e-01	 1.7701171224e+00	-7.8382307556e-01
 5.2362911734e-01	 1.7762792091e+00	-7.3547110441e-01
 5.0315258192e-01	 1.7821876334e+00	-6.8560848563e-01
 6.0781739362e-01	 1.7571007396e+00	-9.2757902065e-01
 5.8732398114e-01	 1.7640565564e+00	-8.7207065031e-01
 5.6680751946e-01	 1.7707552708e+00	-8.2174174723e-01
 5.4627256567e-01	 1.7771975909e+00	-7.7371564890e-01
 5.2572363381e-01	 1.7833843259e+00	-7.2572464203e-01
 5.0516519225e-01	 1.7893163839e+00	-6.7606315603e-01
 6.1023897686e-01	 1.7641011410e+00	-9.1583190464e-01
 5.8966391732e-01	 1.7710846702e+00	-8.6079131136e-01
 5.6906571675e-01	 1.7778100727e+00	-8.1103814485e-01
 5.4844895039e-01	 1.7842780594e+00	-7.6359734249e-01
 5.2781815028e-01	 1.7904894428e+00	-7.1613108668e-01
 5.0717780258e-01	 1.7964451344e+00	-6.6688965576e-01
 6.1266056010e-01	 1.7711015423e+00	-9.0374316939e-01
 5.9200385350e-01	 1.7781127840e+00	-8.4921567058e-01
 5.7132391404e-01	 1.7848648745e+00	-8.0011117994e-01
 5.5062533512e-01	 1.7913585279e+00	-7.5336902573e-01
 5.2991266675e-01	 1.7975945596e+00	-7.0659903189e-01
 5.0919041290e-01	 1.8035738850e+00	-6.5802985924e-01
 6.1508214334e-01	 1.7781019437e+00	-8.9135140118e-01
 5.9434378968e-01	 1.7851408978e+00	-8.3731507440e-01
 5.7358211133e-01	 1.7919196764e+00	-7.8888977929e-01
 5.5280171984e-01	 1.7984389964e+00	-7.4294209149e-01
 5.3200718322e-01	 1.8046996764e+00	-6.9704729562e-01
 5.1120302323e-01	 1.8107026355e+00	-6.4943504885e-01
 6.1750372658e-01	 1.7851023450e+00	-8.7870318590e-01
 5.9668372586e-01	 1.7921690115e+00	-8.2507014495e-01
 5.7584030861e-01	 1.7989744783e+00	-7.7731290575e-01
 5.5497810457e-01	 1.8055194649e+00	-7.3223821421e-01
 5.3410169969e-01	 1.8118047933e+00	-6.8740471006e-01
 5.1321563356e-01	 1.8178313860e+00	-6.4106574420e-01
 5.0315258192e-01	 1.7821876334e+00	-6.8560848563e-01
 4.8267097732e-01	 1.7878433961e+00	-6.3517989567e-01
 4.6218865585e-01	 1.7932475924e+00	-5.8665006525e-01
 4.4170991719e-01	 1.7984014097e+00	-5.4124588307e-01
 4.2123900626e-01	 1.8033061251e+00	-5.0040916305e-01
 4.0078011105e-01	 1.8079631035e+00	-4.6570610651e-01
 5.0516519225e-01	 1.7893163839e+00	-6.7606315603e-01
 4.8460166123e-01	 1.7949947697e+00	-6.2560302780e-01
 4.6403741047e-01	 1.8004205828e+00	-5.7685479323e-01
 4.4347675686e-01	 1.8055950153e+00	-5.3118681732e-01
 4.2292396228e-01	 1.8105193496e+00	-4.9020006245e-01
 4.0238323150e-01	 1.8151949560e+00	-4.5563319742e-01
 5.0717780258e-01	 1.7964451344e+00	-6.6688965576e-01
 4.8653234514e-01	 1.8021461432e+00	-6.1670899309e-01
 4.6588616509e-01	 1.8075935731e+00	-5.6811328708e-01
 4.4524359653e-01	 1.8127886209e+00	-5.2253238309e-01
 4.2460891831e-01	 1.8177325741e+00	-4.8164349295e-01
 4.0398635194e-01	 1.8224268084e+00	-4.4727211978e-01
 5.0919041290e-01	 1.8035738850e+00	-6.5802985924e-01
 4.8846302905e-01	 1.8092975168e+00	-6.0846537099e-01
 4.6773491972e-01	 1.8147665635e+00	-5.6037911447e-01
 4.4701043620e-01	 1.8199822266e+00	-5.1518403054e-01
 4.2629387433e-01	 1.8249457986e+00	-4.7455234574e-01
 4.0558947239e-01	 1.8296586608e+00	-4.4031247744e-01
 5.1120302323e-01	 1.8107026355e+00	-6.4943504885e-01
 4.9039371296e-01	 1.8164488904e+00	-6.0084834230e-01
 4.6958367434e-01	 1.8219395539e+00	-5.5361416012e-01
 4.4877727587e-01	 1.8271758322e+00	-5.0905174699e-01
 4.2797883036e-01	 1.8321590231e+00	-4.6874875560e-01
 4.0719259283e-01	 1.8368905132e+00	-4.3445429283e-01
 5.1321563356e-01	 1.8178313860e+00	-6.4106574420e-01
 4.9232439687e-01	 1.8236002640e+00	-5.9384255504e-01
 4.7143242896e-01	 1.8291125442e+00	-5.4778851558e-01
 4.5054411554e-01	 1.8343694379e+00	-5.0405395806e-01
 4.2966378639e-01	 1.8393722476e+00	-4.6406400160e-01
 4.0879571328e-01	 1.8441223656e+00	-4.2940789558e-01
 4.0078011105e-01	 1.8079631035e+00	-4.6570610651e-01
 3.8033736070e-01	 1.8123737951e+00	-4.3288181189e-01
 3.5991482357e-01	 1.8165397328e+00	-3.8835108512e-01
 3.3951650543e-01	 1.8204625302e+00	-3.4884799067e-01
 3.1914634782e-01	 1.8241438786e+00	-3.1649729705e-01
 2.9880822641e-01	 1.8275855452e+00	-2.8854113898e-01
 4.0238323150e-01	 1.8151949560e+00	-4.5563319742e-01
 3.8185871015e-01	 1.8196232903e+00	-4.2380720989e-01
 3.6135448286e-01	 1.8238058918e+00	-3.8058660919e-01
 3.4087457145e-01	 1.8277443803e+00	-3.4080932325e-01
 3.2042293321e-01	 1.8314404541e+00	-3.0793492065e-01
 3.0000345931e-01	 1.8348958874e+00	-2.7950787512e-01
 4.0398635194e-01	 1.8224268084e+00	-4.4727211978e-01
 3.8338005959e-01	 1.8268727855e+00	-4.1622783077e-01
 3.6279414216e-01	 1.8310720507e+00	-3.7431093723e-01
 3.4223263747e-01	 1.8350262304e+00	-3.3443953982e-01
 3.2169951860e-01	 1.8387370296e+00	-3.0157162952e-01
 3.0119869222e-01	 1.8422062296e+00	-2.7374044619e-01
 4.0558947239e-01	 1.8296586608e+00	-4.4031247744e-01
 3.8490140903e-01	 1.8341222807e+00	-4.0971241904e-01
 3.6423380145e-01	 1.8383382096e+00	-3.6896172894e-01
 3.4359070349e-01	 1.8423080805e+00	-3.2912189928e-01
 3.2297610399e-01	 1.8460336052e+00	-2.9678424849e-01
 3.0239392512e-01	 1.8495165717e+00	-2.7065373488e-01
 4.0719259283e-01	 1.8368905132e+00	-4.3445429283e-01
 3.8642275848e-01	 1.8413717758e+00	-4.0384120608e-01
 3.6567346074e-01	 1.8456043686e+00	-3.6399062956e-01
 3.4494876952e-01	 1.8495899307e+00	-3.2425058035e-01
 3.2425268938e-01	 1.8533301807e+00	-2.9289073464e-01
 3.0358915803e-01	 1.8568269139e+00	-2.6821402148e-01
 4.0879571328e-01	 1.8441223656e+00	-4.2940789558e-01
 3.8794410792e-01	 1.8486212710e+00	-3.9820578648e-01
 3.6711312004e-01	 1.8528705275e+00	-3.5888691766e-01
 3.4630683554e-01	 1.8568717808e+00	-3.1918591522e-01
 3.2552927477e-01	 1.8606267562e+00	-2.8730430310e-01
 3.0478439093e-01	 1.8641372561e+00	-2.6167055827e-01
 2.9880822641e-01	 1.8275855452e+00	-2.8854113898e-01
 2.7850594952e-01	 1.8307893700e+00	-2.6199442868e-01
 2.5824325675e-01	 1.8337572635e+00	-2.3725300137e-01
 2.3802381764e-01	 1.8364912043e+00	-2.1532077179e-01
 2.1785123052e-01	 1.8389932361e+00	-1.9647422055e-01
 1.9772902137e-01	 1.8412654657e+00	-1.8041824371e-01
 3.0000345931e-01	 1.8348958874e+00	-2.7950787512e-01
 2.7961997332e-01	 1.8381125275e+00	-2.5260267225e-01
 2.5927622977e-01	 1.8410922926e+00	-2.2771451353e-01
 2.3897591291e-01	 1.8438371691e+00	-2.0603371549e-01
 2.1872263544e-01	 1.8463492091e+00	-1.8793638225e-01
 1.9851993746e-01	 1.8486305276e+00	-1.7315354696e-01
 3.0119869222e-01	 1.8422062296e+00	-2.7374044619e-01
 2.8073399712e-01	 1.8454356850e+00	-2.4826009532e-01
 2.6030920280e-01	 1.8484273216e+00	-2.2568717568e-01
 2.3992800818e-01	 1.8511831339e+00	-2.0725139337e-01
 2.1959404036e-01	 1.8537051820e+00	-1.9265462188e-01
 1.9931085354e-01	 1.8559955895e+00	-1.7976374842e-01
 3.0239392512e-01	 1.8495165717e+00	-2.7065373488e-01
 2.8184802091e-01	 1.8527588424e+00	-2.4836572430e-01
 2.6134217583e-01	 1.8557623507e+00	-2.2886428239e-01
 2.4088010345e-01	 1.8585290987e+00	-2.1186417046e-01
 2.2046544528e-01	 1.8610611550e+00	-1.9688472344e-01
 2.0010176963e-01	 1.8633606513e+00	-1.8311836664e-01
 3.0358915803e-01	 1.8568269139e+00	-2.6821402148e-01
 2.8296204471e-01	 1.8600819999e+00	-2.4664947119e-01
 2.6237514886e-01	 1.8630973797e+00	-2.2734350849e-01
 2.4183219872e-01	 1.8658750636e+00	-2.1036232603e-01
 2.2133685020e-01	 1.8684171279e+00	-1.9523362898e-01
 2.0089268571e-01	 1.8707257132e+00	-1.8114669773e-01
 3.0478439093e-01	 1.8641372561e+00	-2.6167055827e-01
 2.8407606851e-01	 1.8674051574e+00	-2.3946186299e-01
 2.6340812188e-01	 1.8704324088e+00	-2.1985674498e-01
 2.4278429399e-01	 1.8732210284e+00	-2.0284084530e-01
 2.2220825513e-01	 1.8757731009e+00	-1.8785052878e-01
 2.0168360180e-01	 1.8780907751e+00	-1.7397259972e-01
 1.9772902137e-01	 1.8412654657e+00	-1.8041824371e-01
 1.7766064287e-01	 1.8433100600e+00	-1.6505760866e-01
 1.5764947343e-01	 1.8451292434e+00	-1.4972258292e-01
 1.3769881643e-01	 1.8467252955e+00	-1.3593940630e-01
 1.1781189950e-01	 1.8481005485e+00	-1.2540578903e-01
 9.7991873861e-02	 1.8492573844e+00	-1.2019138343e-01
 1.9851993746e-01	 1.8486305276e+00	-1.7315354696e-01
 1.7837128544e-01	 1.8506833002e+00	-1.5961699228e-01
 1.5828007132e-01	 1.8525097603e+00	-1.4652934935e-01
 1.3824961170e-01	 1.8541121967e+00	-1.3419061203e-01
 1.1828314710e-01	 1.8554929507e+00	-1.2415607121e-01
 9.8383841356e-02	 1.8566544140e+00	-1.1881704386e-01
 1.9931085354e-01	 1.8559955895e+00	-1.7976374842e-01
 1.7908192801e-01	 1.8580565404e+00	-1.6619227853e-01
 1.5891066921e-01	 1.8598902773e+00	-1.5134623480e-01
 1.3880040697e-01	 1.8614990979e+00	-1.3695214152e-01
 1.1875439470e-01	 1.8628853529e+00	-1.2508098645e-01
 9.8775808852e-02	 1.8640514435e+00	-1.1829386559e-01
 2.0010176963e-01	 1.8633606513e+00	-1.8311836664e-01
 1.7979257058e-01	 1.8654297807e+00	-1.6838802892e-01
 1.5954126711e-01	 1.8672707943e+00	-1.5229445737e-01
 1.3935120223e-01	 1.8688859991e+00	-1.3671923064e-01
 1.1922564230e-01	 1.8702777551e+00	-1.2386985349e-01
 9.9167776347e-02	 1.8714484730e+00	-1.1642428649e-01
 2.0089268571e-01	 1.8707257132e+00	-1.8114669773e-01
 1.8050321315e-01	 1.8728030209e+00	-1.6597009749e-01
 1.6017186500e-01	 1.8746513113e+00	-1.4943425730e-01
 1.3990199750e-01	 1.8762729003e+00	-1.3352213591e-01
 1.1969688990e-01	 1.8776701573e+00	-1.2052497695e-01
 9.9559743842e-02	 1.8788455026e+00	-1.1318569724e-01
 2.0168360180e-01	 1.8780907751e+00	-1.7397259972e-01
 1.8121385572e-01	 1.8801762612e+00	-1.5903137712e-01
 1.6080246289e-01	 1.8820318282e+00	-1.4282751331e-01
 1.4045279276e-01	 1.8836598014e+00	-1.2739268128e-01
 1.2016813749e-01	 1.8850625595e+00	-1.1505009304e-01
 9.9951711338e-02	 1.8862425321e+00	-1.0855671672e-01
 9.7991873861e-02	 1.8492573844e+00	-1.2019138343e-01
 7.8241813798e-02	 1.8501982326e+00	-1.1741277276e-01
 5.8564716233e-02	 1.8509255672e+00	-1.1267336968e-01
 3.8963500342e-02	 1.8514419048e+00	-1.0693707651e-01
 1.9441007284e-02	 1.8517498018e+00	-1.0232048524e-01
-1.7656299247e-07	 1.8518599737e+00	-1.0283204091e-01
 9.8383841356e-02	 1.8566544140e+00	-1.1881704386e-01
 7.8554781053e-02	 1.8575990255e+00	-1.1557443562e-01
 5.8798975097e-02	 1.8583292694e+00	-1.1010054427e-01
 3.9119354343e-02	 1.8588476724e+00	-1.0340097909e-01
 1.9518771313e-02	 1.8591568010e+00	-9.7567032032e-02
-1.6631631626e-07	 1.8592669763e+00	-9.6446672434e-02
 9.8775808852e-02	 1.8640514435e+00	-1.1829386559e-01
 7.8867748308e-02	 1.8649998184e+00	-1.1400676814e-01
 5.9033233962e-02	 1.8657329717e+00	-1.0768357802e-01
 3.9275208345e-02	 1.8662534400e+00	-1.0013077014e-01
 1.9596535342e-02	 1.8665638002e+00	-9.3216875602e-02
-1.5632519337e-07	 1.8666739827e+00	-9.0505353048e-02
 9.9167776347e-02	 1.8714484730e+00	-1.1642428649e-01
 7.9180715563e-02	 1.8724006114e+00	-1.1174639576e-01
 5.9267492827e-02	 1.8731366740e+00	-1.0506397370e-01
 3.9431062346e-02	 1.8736592077e+00	-9.6991092822e-02
 1.9674299371e-02	 1.8739707994e+00	-8.9179793132e-02
-1.4660081085e-07	 1.8740809936e+00	-8.4915968393e-02
 9.9559743842e-02	 1.8788455026e+00	-1.1318569724e-01
 7.9493682818e-02	 1.8798014043e+00	-1.0874925873e-01
 5.9501751692e-02	 1.8805403762e+00	-1.0217964449e-01
 3.9586916347e-02	 1.8810649753e+00	-9.3905555612e-02
 1.9752063400e-02	 1.8813777986e+00	-8.5369103526e-02
-1.3715435575e-07	 1.8814880100e+00	-7.9585906465e-02
 9.9951711338e-02	 1.8862425321e+00	-1.0855671672e-01
 7.9806650074e-02	 1.8872021972e+00	-1.0497226092e-01
 5.9736010557e-02	 1.8879440785e+00	-9.8969155231e-02
 3.9742770349e-02	 1.8884707429e+00	-9.0798067716e-02
 1.9829827429e-02	 1.8887847978e+00	-8.1698044918e-02
-1.2799701508e-07	 1.8888950327e+00	-7.4422067045e-02
 1.8888888889e+00	 0.0000000000e+00	 3.0449530806e+00
 1.8887847978e+00	 1.9829827429e-02	 3.0445271523e+00
 1.8884707429e+00	 3.9742770349e-02	 3.0378690984e+00
 1.8879440785e+00	 5.9736010557e-02	 3.0258062463e+00
 1.8872021972e+00	 7.9806650074e-02	 3.0099916179e+00
 1.8862425321e+00	 9.9951711338e-02	 2.9927798981e+00
 1.8962962963e+00	 0.0000000000e+00	 3.0303033707e+00
 1.8961917970e+00	 1.9907591459e-02	 3.0294094292e+00
 1.8958765105e+00	 3.9898624350e-02	 3.0220736838e+00
 1.8953477808e+00	 5.9970269422e-02	 3.0092072534e+00
 1.8946029901e+00	 8.0119617329e-02	 2.9925355577e+00
 1.8936395617e+00	 1.0034367883e-01	 2.9744753291e+00
 1.9037037037e+00	 0.0000000000e+00	 3.0160809626e+00
 1.9035987962e+00	 1.9985355488e-02	 3.0144850534e+00
 1.9032822781e+00	 4.0054478352e-02	 3.0063958181e+00
 1.9027514831e+00	 6.0204528287e-02	 2.9927756997e+00
 1.9020037831e+00	 8.0432584584e-02	 2.9753884241e+00
 1.9010365912e+00	 1.0073564633e-01	 2.9566771747e+00
 1.9111111111e+00	 0.0000000000e+00	 3.0022747297e+00
 1.9110057955e+00	 2.0063119517e-02	 2.9997515054e+00
 1.9106880458e+00	 4.0210332353e-02	 2.9908404589e+00
 1.9101551853e+00	 6.0438787152e-02	 2.9765229112e+00
 1.9094045760e+00	 8.0745551839e-02	 2.9585668166e+00
 1.9084336207e+00	 1.0112761382e-01	 2.9394062242e+00
 1.9185185185e+00	 0.0000000000e+00	 2.9888742554e+00
 1.9184127947e+00	 2.0140883546e-02	 2.9852067496e+00
 1.9180938134e+00	 4.0366186354e-02	 2.9754129216e+00
 1.9175588876e+00	 6.0673046017e-02	 2.9604605337e+00
 1.9168053689e+00	 8.1058519094e-02	 2.9420876930e+00
 1.9158306503e+00	 1.0151958132e-01	 2.9226837252e+00
 1.9259259259e+00	 0.0000000000e+00	 2.9758698200e+00
 1.9258197939e+00	 2.0218647575e-02	 2.9708492238e+00
 1.9254995810e+00	 4.0522040356e-02	 2.9601188713e+00
 1.9249625899e+00	 6.0907304882e-02	 2.9446005260e+00
 1.9242061619e+00	 8.1371486350e-02	 2.9259683617e+00
 1.9232276798e+00	 1.0191154882e-01	 2.9065313757e+00
 1.8862425321e+00	 9.9951711338e-02	 2.9927798981e+00
 1.8850625595e+00	 1.2016813749e-01	 2.9755044900e+00
 1.8836598014e+00	 1.4045279276e-01	 2.9565678350e+00
 1.8820318282e+00	 1.6080246289e-01	 2.9345357528e+00
 1.8801762612e+00	 1.8121385572e-01	 2.9080660940e+00
 1.8780907751e+00	 2.0168360180e-01	 2.8757497204e+00
 1.8936395617e+00	 1.0034367883e-01	 2.9744753291e+00
 1.8924549617e+00	 1.2063938509e-01	 2.9565256161e+00
 1.8910467026e+00	 1.4100358803e-01	 2.9371873172e+00
 1.8894123452e+00	 1.6143306079e-01	 2.9149765225e+00
 1.8875495014e+00	 1.8192449829e-01	 2.8884974898e+00
 1.8854558369e+00	 2.0247451788e-01	 2.8562853722e+00
 1.9010365912e+00	 1.0073564633e-01	 2.9566771747e+00
 1.8998473639e+00	 1.2111063269e-01	 2.9382834482e+00
 1.8984336038e+00	 1.4155438329e-01	 2.9187930175e+00
 1.8967928622e+00	 1.6206365868e-01	 2.8966499493e+00
 1.8949227416e+00	 1.8263514087e-01	 2.8703826469e+00
 1.8928208988e+00	 2.0326543397e-01	 2.8384484861e+00
 1.9084336207e+00	 1.0112761382e-01	 2.9394062242e+00
 1.9072397661e+00	 1.2158188029e-01	 2.9208048121e+00
 1.9058205050e+00	 1.4210517856e-01	 2.9014224699e+00
 1.9041733792e+00	 1.6269425658e-01	 2.8796087903e+00
 1.9022959819e+00	 1.8334578344e-01	 2.8537939013e+00
 1.9001859606e+00	 2.0405635005e-01	 2.8223351744e+00
 1.9158306503e+00	 1.0151958132e-01	 2.9226837252e+00
 1.9146321683e+00	 1.2205312789e-01	 2.9041170976e+00
 1.9132074062e+00	 1.4265597383e-01	 2.8851138248e+00
 1.9115538961e+00	 1.6332485447e-01	 2.8639064077e+00
 1.9096692221e+00	 1.8405642601e-01	 2.8388041082e+00
 1.9075510225e+00	 2.0484726614e-01	 2.8080418966e+00
 1.9232276798e+00	 1.0191154882e-01	 2.9065313757e+00
 1.9220245705e+00	 1.2252437548e-01	 2.8882482476e+00
 1.9205943074e+00	 1.4320676909e-01	 2.8699058372e+00
 1.9189344131e+00	 1.6395545236e-01	 2.8495967567e+00
 1.9170424624e+00	 1.8476706858e-01	 2.8254866299e+00
 1.9149160844e+00	 2.0563818223e-01	 2.7956654487e+00
 1.8780907751e+00	 2.0168360180e-01	 2.8757497204e+00
 1.8757731009e+00	 2.2220825513e-01	 2.8378224652e+00
 1.8732210284e+00	 2.4278429399e-01	 2.7962716999e+00
 1.8704324088e+00	 2.6340812188e-01	 2.7516951182e+00
 1.8674051574e+00	 2.8407606851e-01	 2.7038892508e+00
 1.8641372561e+00	 3.0478439093e-01	 2.6516161981e+00
 1.8854558369e+00	 2.0247451788e-01	 2.8562853722e+00
 1.8831290738e+00	 2.2307966005e-01	 2.8185097930e+00
 1.8805669932e+00	 2.4373638926e-01	 2.7772171787e+00
 1.8777674379e+00	 2.6444109491e-01	 2.7331394374e+00
 1.8747283149e+00	 2.8519009231e-01	 2.6862115549e+00
 1.8714475983e+00	 3.0597962384e-01	 2.6353391740e+00
 1.8928208988e+00	 2.0326543397e-01	 2.8384484861e+00
 1.8904850468e+00	 2.2395106497e-01	 2.8009197385e+00
 1.8879129580e+00	 2.4468848453e-01	 2.7598700778e+00
 1.8851024669e+00	 2.6547406794e-01	 2.7161434153e+00
 1.8820514724e+00	 2.8630411611e-01	 2.6697919360e+00
 1.8787579405e+00	 3.0717485674e-01	 2.6198447004e+00
 1.9001859606e+00	 2.0405635005e-01	 2.8223351744e+00
 1.8978410197e+00	 2.2482246989e-01	 2.7851766655e+00
 1.8952589228e+00	 2.4564057980e-01	 2.7443877891e+00
 1.8924374960e+00	 2.6650704096e-01	 2.7009021316e+00
 1.8893746298e+00	 2.8741813990e-01	 2.6548677163e+00
 1.8860682827e+00	 3.0837008965e-01	 2.6054168074e+00
 1.9075510225e+00	 2.0484726614e-01	 2.8080418966e+00
 1.9051969926e+00	 2.2569387482e-01	 2.7714050104e+00
 1.9026048876e+00	 2.4659267507e-01	 2.7309273803e+00
 1.8997725250e+00	 2.6754001399e-01	 2.6876098129e+00
 1.8966977873e+00	 2.8853216370e-01	 2.6416746931e+00
 1.8933786248e+00	 3.0956532256e-01	 2.5923371736e+00
 1.9149160844e+00	 2.0563818223e-01	 2.7956654487e+00
 1.9125529656e+00	 2.2656527974e-01	 2.7597292721e+00
 1.9099508525e+00	 2.4754477035e-01	 2.7196455881e+00
 1.9071075541e+00	 2.6857298702e-01	 2.6764598291e+00
 1.9040209448e+00	 2.8964618750e-01	 2.6304471392e+00
 1.9006889670e+00	 3.1076055546e-01	 2.5808851332e+00
 1.8641372561e+00	 3.0478439093e-01	 2.6516161981e+00
 1.8606267562e+00	 3.2552927477e-01	 2.5935062795e+00
 1.8568717808e+00	 3.4630683554e-01	 2.5293833504e+00
 1.8528705275e+00	 3.6711312004e-01	 2.4574610402e+00
 1.8486212710e+00	 3.8794410792e-01	 2.3761477650e+00
 1.8441223656e+00	 4.0879571328e-01	 2.2941524690e+00
 1.8714475983e+00	 3.0597962384e-01	 2.6353391740e+00
 1.8679233317e+00	 3.2680586017e-01	 2.5790529188e+00
 1.8641536309e+00	 3.4766490156e-01	 2.5164551797e+00
 1.8601366864e+00	 3.6855277933e-01	 2.4449811480e+00
 1.8558707662e+00	 3.8946545736e-01	 2.3631594187e+00
 1.8513542180e+00	 4.1039883372e-01	 2.2812313794e+00
 1.8787579405e+00	 3.0717485674e-01	 2.6198447004e+00
 1.8752199072e+00	 3.2808244556e-01	 2.5647971507e+00
 1.8714354810e+00	 3.4902296758e-01	 2.5032465568e+00
 1.8674028454e+00	 3.6999243863e-01	 2.4320580018e+00
 1.8631202614e+00	 3.9098680680e-01	 2.3497586197e+00
 1.8585860704e+00	 4.1200195416e-01	 2.2661313817e+00
 1.8860682827e+00	 3.0837008965e-01	 2.6054168074e+00
 1.8825164827e+00	 3.2935903095e-01	 2.5510553357e+00
 1.8787173311e+00	 3.5038103360e-01	 2.4900711343e+00
 1.8746690043e+00	 3.7143209792e-01	 2.4189669276e+00
 1.8703697566e+00	 3.9250815625e-01	 2.3364958783e+00
 1.8658179229e+00	 4.1360507461e-01	 2.2520419833e+00
 1.8933786248e+00	 3.0956532256e-01	 2.5923371736e+00
 1.8898130582e+00	 3.3063561634e-01	 2.5381407832e+00
 1.8859991813e+00	 3.5173909962e-01	 2.4772392482e+00
 1.8819351632e+00	 3.7287175722e-01	 2.4059853470e+00
 1.8776192518e+00	 3.9402950569e-01	 2.3235542818e+00
 1.8730497753e+00	 4.1520819505e-01	 2.2390277319e+00
 1.9006889670e+00	 3.1076055546e-01	 2.5808851332e+00
 1.8971096338e+00	 3.3191220173e-01	 2.5263637585e+00
 1.8932810314e+00	 3.5309716565e-01	 2.4650579150e+00
 1.8892013222e+00	 3.7431141651e-01	 2.3933833030e+00
 1.8848687469e+00	 3.9555085513e-01	 2.3111138493e+00
 1.8802816277e+00	 4.1681131550e-01	 2.2271384417e+00
 1.8441223656e+00	 4.0879571328e-01	 2.2941524690e+00
 1.8393722476e+00	 4.2966378639e-01	 2.2158636172e+00
 1.8343694379e+00	 4.5054411554e-01	 2.1361589810e+00
 1.8291125442e+00	 4.7143242896e-01	 2.0531097308e+00
 1.8236002640e+00	 4.9232439687e-01	 1.9650195127e+00
 1.8178313860e+00	 5.1321563356e-01	 1.8705390306e+00
 1.8513542180e+00	 4.1039883372e-01	 2.2812313794e+00
 1.8465854721e+00	 4.3134874241e-01	 2.2032927812e+00
 1.8415630435e+00	 4.5231095521e-01	 2.1237745720e+00
 1.8362855346e+00	 4.7328118359e-01	 2.0407864845e+00
 1.8307516376e+00	 4.9425508078e-01	 1.9526790602e+00
 1.8249601366e+00	 5.1522824389e-01	 1.8581627147e+00
 1.8585860704e+00	 4.1200195416e-01	 2.2661313817e+00
 1.8537986966e+00	 4.3303369844e-01	 2.1865312417e+00
 1.8487566491e+00	 4.5407779488e-01	 2.1077927522e+00
 1.8434585250e+00	 4.7512993821e-01	 2.0260715197e+00
 1.8379030112e+00	 4.9618576469e-01	 1.9392087385e+00
 1.8320888871e+00	 5.1724085421e-01	 1.8456905000e+00
 1.8658179229e+00	 4.1360507461e-01	 2.2520419833e+00
 1.8610119211e+00	 4.3471865446e-01	 2.1704195744e+00
 1.8559502548e+00	 4.5584463454e-01	 2.0892476226e+00
 1.8506315153e+00	 4.7697869283e-01	 2.0086034906e+00
 1.8450543847e+00	 4.9811644860e-01	 1.9243161494e+00
 1.8392176376e+00	 5.1925346454e-01	 1.8329571192e+00
 1.8730497753e+00	 4.1520819505e-01	 2.2390277319e+00
 1.8682251456e+00	 4.3640361049e-01	 2.1568096412e+00
 1.8631438604e+00	 4.5761147421e-01	 2.0743264996e+00
 1.8578045057e+00	 4.7882744746e-01	 1.9913870201e+00
 1.8522057583e+00	 5.0004713250e-01	 1.9077323230e+00
 1.8463463882e+00	 5.2126607487e-01	 1.8198059346e+00
 1.8802816277e+00	 4.1681131550e-01	 2.2271384417e+00
 1.8754383701e+00	 4.3808856651e-01	 2.1456227404e+00
 1.8703374660e+00	 4.5937831388e-01	 2.0636671558e+00
 1.8649774961e+00	 4.8067620208e-01	 1.9804109742e+00
 1.8593571319e+00	 5.0197781641e-01	 1.8949455001e+00
 1.8534751387e+00	 5.2327868520e-01	 1.8063751430e+00
 1.8178313860e+00	 5.1321563356e-01	 1.8705390306e+00
 1.8118047933e+00	 5.3410169969e-01	 1.7716390904e+00
 1.8055194649e+00	 5.5497810457e-01	 1.6715239989e+00
 1.7989744783e+00	 5.7584030861e-01	 1.5715135525e+00
 1.7921690115e+00	 5.9668372586e-01	 1.4736383782e+00
 1.7851023450e+00	 6.1750372658e-01	 1.3806919000e+00
 1.8249601366e+00	 5.1522824389e-01	 1.8581627147e+00
 1.8189099101e+00	 5.3619621615e-01	 1.7592837922e+00
 1.8125999334e+00	 5.5715448929e-01	 1.6592331720e+00
 1.8060292802e+00	 5.7809850590e-01	 1.5592907642e+00
 1.7991971253e+00	 5.9902366204e-01	 1.4614788403e+00
 1.7921027464e+00	 6.1992530983e-01	 1.3686167960e+00
 1.8320888871e+00	 5.1724085421e-01	 1.8456905000e+00
 1.8260150270e+00	 5.3829073262e-01	 1.7474238749e+00
 1.8196804018e+00	 5.5933087401e-01	 1.6476349613e+00
 1.8130840820e+00	 5.8035670319e-01	 1.5476787254e+00
 1.8062252391e+00	 6.0136359822e-01	 1.4496830391e+00
 1.7991031477e+00	 6.2234689307e-01	 1.3566060057e+00
 1.8392176376e+00	 5.1925346454e-01	 1.8329571192e+00
 1.8331201438e+00	 5.4038524909e-01	 1.7360371916e+00
 1.8267608703e+00	 5.6150725874e-01	 1.6368209566e+00
 1.8201388839e+00	 5.8261490048e-01	 1.5368515604e+00
 1.8132533528e+00	 6.0370353440e-01	 1.4384746712e+00
 1.8061035491e+00	 6.2476847631e-01	 1.3448981379e+00
 1.8463463882e+00	 5.2126607487e-01	 1.8198059346e+00
 1.8402252606e+00	 5.4247976556e-01	 1.7251079074e+00
 1.8338413388e+00	 5.6368364346e-01	 1.6268870665e+00
 1.8271936858e+00	 5.8487309777e-01	 1.5269860674e+00
 1.8202814666e+00	 6.0604347058e-01	 1.4280788343e+00
 1.8131039504e+00	 6.2719005955e-01	 1.3337323250e+00
 1.8534751387e+00	 5.2327868520e-01	 1.8063751430e+00
 1.8473303775e+00	 5.4457428203e-01	 1.7146262644e+00
 1.8409218073e+00	 5.6586002819e-01	 1.6179332902e+00
 1.8342484877e+00	 5.8713129506e-01	 1.5182614870e+00
 1.8273095804e+00	 6.0838340676e-01	 1.4187217815e+00
 1.8201043518e+00	 6.2961164279e-01	 1.3233479533e+00
 1.7851023450e+00	 6.1750372658e-01	 1.3806919000e+00
 1.7777738637e+00	 6.3829563999e-01	 1.2899929380e+00
 1.7701830588e+00	 6.5905475704e-01	 1.1957604094e+00
 1.7623295297e+00	 6.7977633331e-01	 1.0973818216e+00
 1.7542129854e+00	 7.0045559198e-01	 9.9509642229e-01
 1.7458332465e+00	 7.2108772687e-01	 8.8995890354e-01
 1.7921027464e+00	 6.1992530983e-01	 1.3686167960e+00
 1.7847455259e+00	 6.4079876015e-01	 1.2783864769e+00
 1.7771249532e+00	 6.6163928550e-01	 1.1851214296e+00
 1.7692406259e+00	 6.8244212285e-01	 1.0879200057e+00
 1.7610922520e+00	 7.0320247665e-01	 9.8677363365e-01
 1.7526796514e+00	 7.2391552187e-01	 8.8253104486e-01
 1.7991031477e+00	 6.2234689307e-01	 1.3566060057e+00
 1.7917171881e+00	 6.4330188030e-01	 1.2666101563e+00
 1.7840668475e+00	 6.6422381395e-01	 1.1741786188e+00
 1.7761517221e+00	 6.8510791239e-01	 1.0781100345e+00
 1.7679715186e+00	 7.0594936133e-01	 9.7813994615e-01
 1.7595260563e+00	 7.2674331688e-01	 8.7490557836e-01
 1.8061035491e+00	 6.2476847631e-01	 1.3448981379e+00
 1.7986888504e+00	 6.4580500046e-01	 1.2549007824e+00
 1.7910087419e+00	 6.6680834241e-01	 1.1631693010e+00
 1.7830628183e+00	 6.8777370193e-01	 1.0681920866e+00
 1.7748507853e+00	 7.0869624600e-01	 9.6944078549e-01
 1.7663724612e+00	 7.2957111189e-01	 8.6733566624e-01
 1.8131039504e+00	 6.2719005955e-01	 1.3337323250e+00
 1.8056605126e+00	 6.4830812062e-01	 1.2434949253e+00
 1.7979506362e+00	 6.6939287087e-01	 1.1523296297e+00
 1.7899739145e+00	 6.9043949148e-01	 1.0584040616e+00
 1.7817300519e+00	 7.1144313068e-01	 9.6091801909e-01
 1.7732188661e+00	 7.3239890690e-01	 8.6006946564e-01
 1.8201043518e+00	 6.2961164279e-01	 1.3233479533e+00
 1.8126321748e+00	 6.5081124077e-01	 1.2326286208e+00
 1.8048925306e+00	 6.7197739933e-01	 1.1418942611e+00
 1.7968850107e+00	 6.9310528102e-01	 1.0489812260e+00
 1.7886093185e+00	 7.1419001535e-01	 9.5280957538e-01
 1.7800652710e+00	 7.3522670190e-01	 8.5334972216e-01
 1.7458332465e+00	 7.2108772687e-01	 8.8995890354e-01
 1.7371902465e+00	 7.4166790557e-01	 7.8611674634e-01
 1.7282840329e+00	 7.6219127264e-01	 6.8753007511e-01
 1.7191147693e+00	 7.8265295290e-01	 5.9170265234e-01
 1.7096827356e+00	 8.0304805472e-01	 4.9564723668e-01
 1.6999883299e+00	 8.2337167348e-01	 3.9652239240e-01
 1.7526796514e+00	 7.2391552187e-01	 8.8253104486e-01
 1.7440027572e+00	 7.4457640716e-01	 7.7935465993e-01
 1.7350616174e+00	 7.6518025802e-01	 6.8093678898e-01
 1.7258563958e+00	 7.8572218016e-01	 5.8492906474e-01
 1.7163873738e+00	 8.0619726277e-01	 4.8876568101e-01
 1.7066549508e+00	 8.2660058200e-01	 3.9002636483e-01
 1.7595260563e+00	 7.2674331688e-01	 8.7490557836e-01
 1.7508152680e+00	 7.4748490875e-01	 7.7249373637e-01
 1.7418392018e+00	 7.6816924341e-01	 6.7423514152e-01
 1.7325980224e+00	 7.8879140743e-01	 5.7801174983e-01
 1.7230920120e+00	 8.0934647083e-01	 4.8167989337e-01
 1.7133215717e+00	 8.2982949053e-01	 3.8324081674e-01
 1.7663724612e+00	 7.2957111189e-01	 8.6733566624e-01
 1.7576277788e+00	 7.5039341034e-01	 7.6577600467e-01
 1.7486167863e+00	 7.7115822879e-01	 6.6766316450e-01
 1.7393396489e+00	 7.9186063469e-01	 5.7118031592e-01
 1.7297966501e+00	 8.1249567889e-01	 4.7460651713e-01
 1.7199881926e+00	 8.3305839905e-01	 3.7636478328e-01
 1.7732188661e+00	 7.3239890690e-01	 8.6006946564e-01
 1.7644402895e+00	 7.5330191193e-01	 7.5943608398e-01
 1.7553943707e+00	 7.7414721417e-01	 6.6145161632e-01
 1.7460812754e+00	 7.9492986196e-01	 5.6465729508e-01
 1.7365012883e+00	 8.1564488695e-01	 4.6775537583e-01
 1.7266548135e+00	 8.3628730757e-01	 3.6959079438e-01
 1.7800652710e+00	 7.3522670190e-01	 8.5334972216e-01
 1.7712528003e+00	 7.5621041352e-01	 7.5370133732e-01
 1.7621719551e+00	 7.7713619956e-01	 6.5582413989e-01
 1.7528229020e+00	 7.9799908923e-01	 5.5865830348e-01
 1.7432059265e+00	 8.1879409500e-01	 4.6132963444e-01
 1.7333214344e+00	 8.3951621610e-01	 3.6310503513e-01
 1.6999883299e+00	 8.2337167348e-01	 3.9652239240e-01
 1.6900320691e+00	 8.4361889500e-01	 2.9199279886e-01
 1.6798145896e+00	 8.6378479907e-01	 1.8370936031e-01
 1.6693366484e+00	 8.8386446296e-01	 7.4788224117e-02
 1.6585991234e+00	 9.0385296513e-01	-3.1861863344e-02
 1.6476030139e+00	 9.2374538878e-01	-1.3363095618e-01
 1.7066549508e+00	 8.2660058200e-01	 3.9002636483e-01
 1.6966596458e+00	 8.4692720440e-01	 2.8624889275e-01
 1.6864020978e+00	 8.6717219043e-01	 1.7863369206e-01
 1.6758830666e+00	 8.8733059811e-01	 7.0238841048e-02
 1.6651034336e+00	 9.0739748656e-01	-3.6076138223e-02
 1.6540642022e+00	 9.2736791971e-01	-1.3774270589e-01
 1.7133215717e+00	 8.2982949053e-01	 3.8324081674e-01
 1.7032872226e+00	 8.5023551379e-01	 2.8016228042e-01
 1.6929896060e+00	 8.7055958180e-01	 1.7323345941e-01
 1.6824294849e+00	 8.9079673326e-01	 6.5428476043e-02
 1.6716077439e+00	 9.1094200800e-01	-4.0467521987e-02
 1.6605253904e+00	 9.3099045065e-01	-1.4195175458e-01
 1.7199881926e+00	 8.3305839905e-01	 3.7636478328e-01
 1.7099147993e+00	 8.5354382318e-01	 2.7391350747e-01
 1.6995771142e+00	 8.7394697317e-01	 1.6767382960e-01
 1.6889759031e+00	 8.9426286841e-01	 6.0510290664e-02
 1.6781120542e+00	 9.1448652943e-01	-4.4891215815e-02
 1.6669865787e+00	 9.3461298159e-01	-1.4611774444e-01
 1.7266548135e+00	 8.3628730757e-01	 3.6959079438e-01
 1.7165423761e+00	 8.5685213257e-01	 2.6767692628e-01
 1.7061646224e+00	 8.7733436454e-01	 1.6211402229e-01
 1.6955223213e+00	 8.9772900356e-01	 5.5631672333e-02
 1.6846163645e+00	 9.1803105086e-01	-4.9208099592e-02
 1.6734477670e+00	 9.3823551252e-01	-1.5010598444e-01
 1.7333214344e+00	 8.3951621610e-01	 3.6310503513e-01
 1.7231699528e+00	 8.6016044196e-01	 2.6162085515e-01
 1.7127521306e+00	 8.8072175591e-01	 1.5670746816e-01
 1.7020687395e+00	 9.0119513871e-01	 5.0934393031e-02
 1.6911206748e+00	 9.2157557229e-01	-5.3284572256e-02
 1.6799089553e+00	 9.4185804346e-01	-1.5378728876e-01
 1.6476030139e+00	 9.2374538878e-01	-1.3363095618e-01
 1.6363494411e+00	 9.4353682557e-01	-2.3145119977e-01
 1.6248396482e+00	 9.6322237935e-01	-3.2797776202e-01
 1.6130750006e+00	 9.8279716986e-01	-4.2387816184e-01
 1.6010569854e+00	 1.0022563365e+00	-5.2045944983e-01
 1.5887872118e+00	 1.0215950421e+00	-6.1978893729e-01
 1.6540642022e+00	 9.2736791971e-01	-1.3774270589e-01
 1.6427664977e+00	 9.4723696998e-01	-2.3541235655e-01
 1.6312115684e+00	 9.6699972201e-01	-3.3146173551e-01
 1.6194007849e+00	 9.8665127641e-01	-4.2660024889e-01
 1.6073356402e+00	 1.0061867535e+00	-5.2218167039e-01
 1.5950177499e+00	 1.0256012972e+00	-6.2032705449e-01
 1.6605253904e+00	 9.3099045065e-01	-1.4195175458e-01
 1.6491835544e+00	 9.5093711440e-01	-2.3943230336e-01
 1.6375834886e+00	 9.7077706467e-01	-3.3501241384e-01
 1.6257265692e+00	 9.9050538296e-01	-4.2941854318e-01
 1.6136142951e+00	 1.0101171705e+00	-5.2402589495e-01
 1.6012482880e+00	 1.0296075523e+00	-6.2098359609e-01
 1.6669865787e+00	 9.3461298159e-01	-1.4611774444e-01
 1.6556006110e+00	 9.5463725881e-01	-2.4337297920e-01
 1.6439554088e+00	 9.7455440734e-01	-3.3849402697e-01
 1.6320523535e+00	 9.9435948951e-01	-4.3219980823e-01
 1.6198929499e+00	 1.0140475875e+00	-5.2586190123e-01
 1.6074788261e+00	 1.0336138073e+00	-6.2163206232e-01
 1.6734477670e+00	 9.3823551252e-01	-1.5010598444e-01
 1.6620176676e+00	 9.5833740322e-01	-2.4710203476e-01
 1.6503273290e+00	 9.7833175000e-01	-3.4177658574e-01
 1.6383781378e+00	 9.9821359605e-01	-4.3481667814e-01
 1.6261716048e+00	 1.0179780045e+00	-5.2756544395e-01
 1.6137093642e+00	 1.0376200624e+00	-6.2215204923e-01
 1.6799089553e+00	 9.4185804346e-01	-1.5378728876e-01
 1.6684347243e+00	 9.6203754764e-01	-2.5049266863e-01
 1.6566992492e+00	 9.8210909267e-01	-3.4473571617e-01
 1.6447039222e+00	 1.0020677026e+00	-4.3714749047e-01
 1.6324502596e+00	 1.0219084215e+00	-5.2901808653e-01
 1.6199399022e+00	 1.0416263175e+00	-6.2242907982e-01
 1.5887872118e+00	 1.0215950421e+00	-6.1978893729e-01
 1.5762674104e+00	 1.0408084768e+00	-7.1599887541e-01
 1.5634994329e+00	 1.0598918614e+00	-8.0327365684e-01
 1.5504852512e+00	 1.0788404518e+00	-8.8540784378e-01
 1.5372269570e+00	 1.0976495421e+00	-9.6764751475e-01
 1.5237267607e+00	 1.1163144689e+00	-1.0560326986e+00
 1.5950177499e+00	 1.0256012972e+00	-6.2032705449e-01
 1.5824488513e+00	 1.0448900786e+00	-7.1570028926e-01
 1.5696308032e+00	 1.0640483001e+00	-8.0288351920e-01
 1.5565655855e+00	 1.0830711986e+00	-8.8554058340e-01
 1.5432552980e+00	 1.1019540501e+00	-9.6880248769e-01
 1.5297021597e+00	 1.1206921727e+00	-1.0568114446e+00
 1.6012482880e+00	 1.0296075523e+00	-6.2098359609e-01
 1.5886302921e+00	 1.0489716805e+00	-7.1546685898e-01
 1.5757621736e+00	 1.0682047388e+00	-8.0248186743e-01
 1.5626459198e+00	 1.0873019455e+00	-8.8560578276e-01
 1.5492836390e+00	 1.1062585581e+00	-9.6989860748e-01
 1.5356775588e+00	 1.1250698765e+00	-1.0567583240e+00
 1.6074788261e+00	 1.0336138073e+00	-6.2163206232e-01
 1.5948117329e+00	 1.0530532824e+00	-7.1517650578e-01
 1.5818935439e+00	 1.0723611774e+00	-8.0195117751e-01
 1.5687262542e+00	 1.0915326924e+00	-8.8548998423e-01
 1.5553119800e+00	 1.1105630661e+00	-9.7082536095e-01
 1.5416529579e+00	 1.1294475803e+00	-1.0558887879e+00
 1.6137093642e+00	 1.0376200624e+00	-6.2215204923e-01
 1.6009931737e+00	 1.0571348843e+00	-7.1471337709e-01
 1.5880249142e+00	 1.0765176161e+00	-8.0118030094e-01
 1.5748065885e+00	 1.0957634393e+00	-8.8508628184e-01
 1.5613403210e+00	 1.1148675741e+00	-9.7118406681e-01
 1.5476283569e+00	 1.1338252841e+00	-1.0542179451e+00
 1.6199399022e+00	 1.0416263175e+00	-6.2242907982e-01
 1.6071746146e+00	 1.0612164861e+00	-7.1396767772e-01
 1.5941562845e+00	 1.0806740548e+00	-8.0006429633e-01
 1.5808869228e+00	 1.0999941861e+00	-8.8429415352e-01
 1.5673686620e+00	 1.1191720821e+00	-9.7046675398e-01
 1.5536037560e+00	 1.1382029879e+00	-1.0517605671e+00
 1.5237267607e+00	 1.1163144689e+00	-1.0560326986e+00
 1.5099869904e+00	 1.1348306144e+00	-1.1409366248e+00
 1.4960100907e+00	 1.1531934109e+00	-1.2187460025e+00
 1.4817986217e+00	 1.1713983436e+00	-1.2928695703e+00
 1.4673552568e+00	 1.1894409547e+00	-1.3632422544e+00
 1.4526827821e+00	 1.2073168470e+00	-1.4327354560e+00
 1.5297021597e+00	 1.1206921727e+00	-1.0568114446e+00
 1.5159085080e+00	 1.1392809306e+00	-1.1391140368e+00
 1.5018767970e+00	 1.1577157380e+00	-1.2152131123e+00
 1.4876095967e+00	 1.1759920626e+00	-1.2882971204e+00
 1.4731095912e+00	 1.1941054291e+00	-1.3605367401e+00
 1.4583795773e+00	 1.2120514229e+00	-1.4318825197e+00
 1.5356775588e+00	 1.1250698765e+00	-1.0567583240e+00
 1.5218300256e+00	 1.1437312467e+00	-1.1368413611e+00
 1.5077435032e+00	 1.1622380651e+00	-1.2116038929e+00
 1.4934205716e+00	 1.1805857816e+00	-1.2839773313e+00
 1.4788639255e+00	 1.1987699034e+00	-1.3569777051e+00
 1.4640763726e+00	 1.2167859988e+00	-1.4303163547e+00
 1.5416529579e+00	 1.1294475803e+00	-1.0558887879e+00
 1.5277515432e+00	 1.1481815629e+00	-1.1341336047e+00
 1.5136102095e+00	 1.1667603922e+00	-1.2079286972e+00
 1.4992315466e+00	 1.1851795006e+00	-1.2799121012e+00
 1.4846182599e+00	 1.2034343777e+00	-1.3528977120e+00
 1.4697731678e+00	 1.2215205747e+00	-1.4281759549e+00
 1.5476283569e+00	 1.1338252841e+00	-1.0542179451e+00
 1.5336730608e+00	 1.1526318790e+00	-1.1310055343e+00
 1.5194769157e+00	 1.1712827193e+00	-1.2041978008e+00
 1.5050425216e+00	 1.1897732196e+00	-1.2761034708e+00
 1.4903725942e+00	 1.2080988521e+00	-1.3491828908e+00
 1.4754699630e+00	 1.2262551505e+00	-1.4256014707e+00
 1.5536037560e+00	 1.1382029879e+00	-1.0517605671e+00
 1.5395945784e+00	 1.1570821951e+00	-1.1274716766e+00
 1.5253436219e+00	 1.1758050464e+00	-1.2004213981e+00
 1.5108534966e+00	 1.1943669386e+00	-1.2725536133e+00
 1.4961269285e+00	 1.2127633264e+00	-1.3459388666e+00
 1.4811667582e+00	 1.2309897264e+00	-1.4227338061e+00
 1.4526827821e+00	 1.2073168470e+00	-1.4327354560e+00
 1.4377840939e+00	 1.2250216872e+00	-1.5012885379e+00
 1.4226621971e+00	 1.2425512092e+00	-1.5646105280e+00
 1.4073202035e+00	 1.2599012181e+00	-1.6229044609e+00
 1.3917613292e+00	 1.2770675930e+00	-1.6749871717e+00
 1.3759888930e+00	 1.2940462901e+00	-1.7185347746e+00
 1.4583795773e+00	 1.2120514229e+00	-1.4318825197e+00
 1.4434224628e+00	 1.2298256938e+00	-1.5010713145e+00
 1.4282412645e+00	 1.2474239591e+00	-1.5638440008e+00
 1.4128391062e+00	 1.2648420072e+00	-1.6210351631e+00
 1.3972192168e+00	 1.2820757012e+00	-1.6720643622e+00
 1.3813849279e+00	 1.2991209814e+00	-1.7151872160e+00
 1.4640763726e+00	 1.2167859988e+00	-1.4303163547e+00
 1.4490608318e+00	 1.2346297004e+00	-1.5002430931e+00
 1.4338203320e+00	 1.2522967089e+00	-1.5626223550e+00
 1.4183580090e+00	 1.2697827963e+00	-1.6188898059e+00
 1.4026771044e+00	 1.2870838094e+00	-1.6690368897e+00
 1.3867809627e+00	 1.3041956728e+00	-1.7118677334e+00
 1.4697731678e+00	 1.2215205747e+00	-1.4281759549e+00
 1.4546992008e+00	 1.2394337070e+00	-1.4989076826e+00
 1.4393993994e+00	 1.2571694587e+00	-1.5610209606e+00
 1.4238769117e+00	 1.2747235854e+00	-1.6165222556e+00
 1.4081349919e+00	 1.2920919176e+00	-1.6659442077e+00
 1.3921769976e+00	 1.3092703641e+00	-1.7086085836e+00
 1.4754699630e+00	 1.2262551505e+00	-1.4256014707e+00
 1.4603375698e+00	 1.2442377136e+00	-1.4971706037e+00
 1.4449784668e+00	 1.2620422086e+00	-1.5591174391e+00
 1.4293958145e+00	 1.2796643745e+00	-1.6139891434e+00
 1.4135928795e+00	 1.2971000258e+00	-1.6628290115e+00
 1.3975730325e+00	 1.3143450554e+00	-1.7054456946e+00
 1.4811667582e+00	 1.2309897264e+00	-1.4227338061e+00
 1.4659759388e+00	 1.2490417202e+00	-1.4951386906e+00
 1.4505575343e+00	 1.2669149584e+00	-1.5569912703e+00
 1.4349147173e+00	 1.2846051636e+00	-1.6113494793e+00
 1.4190507671e+00	 1.3021081340e+00	-1.6597368616e+00
 1.4029690674e+00	 1.3194197468e+00	-1.7024183030e+00
 1.3759888930e+00	 1.2940462901e+00	-1.7185347746e+00
 1.3600063133e+00	 1.3108333465e+00	-1.7599092763e+00
 1.3438171062e+00	 1.3274248829e+00	-1.8042990756e+00
 1.3274248829e+00	 1.3438171062e+00	-1.8466363972e+00
 1.3108333465e+00	 1.3600063133e+00	-1.8817124348e+00
 1.2940462901e+00	 1.3759888930e+00	-1.9044772638e+00
 1.3813849279e+00	 1.2991209814e+00	-1.7151872160e+00
 1.3653396714e+00	 1.3159738695e+00	-1.7568305083e+00
 1.3490869772e+00	 1.3326304706e+00	-1.8017350657e+00
 1.3326304706e+00	 1.3490869772e+00	-1.8446212207e+00
 1.3159738695e+00	 1.3653396714e+00	-1.8800631472e+00
 1.2991209814e+00	 1.3813849279e+00	-1.9027975500e+00
 1.3867809627e+00	 1.3041956728e+00	-1.7118677334e+00
 1.3706730295e+00	 1.3211143924e+00	-1.7538225361e+00
 1.3543568482e+00	 1.3378360584e+00	-1.7992017512e+00
 1.3378360584e+00	 1.3543568482e+00	-1.8425710409e+00
 1.3211143924e+00	 1.3706730295e+00	-1.8783452964e+00
 1.3041956728e+00	 1.3867809627e+00	-1.9011061647e+00
 1.3921769976e+00	 1.3092703641e+00	-1.7086085836e+00
 1.3760063876e+00	 1.3262549153e+00	-1.7509177674e+00
 1.3596267192e+00	 1.3430416462e+00	-1.7967384690e+00
 1.3430416462e+00	 1.3596267192e+00	-1.8405379360e+00
 1.3262549153e+00	 1.3760063876e+00	-1.8766285304e+00
 1.3092703641e+00	 1.3921769976e+00	-1.8994941582e+00
 1.3975730325e+00	 1.3143450554e+00	-1.7054456946e+00
 1.3813397456e+00	 1.3313954383e+00	-1.7481526542e+00
 1.3648965902e+00	 1.3482472340e+00	-1.7943889151e+00
 1.3482472340e+00	 1.3648965902e+00	-1.8385786049e+00
 1.3313954383e+00	 1.3813397456e+00	-1.8749873318e+00
 1.3143450554e+00	 1.3975730325e+00	-1.8980575857e+00
 1.4029690674e+00	 1.3194197468e+00	-1.7024183030e+00
 1.3866731037e+00	 1.3365359612e+00	-1.7455673449e+00
 1.3701664612e+00	 1.3534528217e+00	-1.7922008136e+00
 1.3534528217e+00	 1.3701664612e+00	-1.8367540560e+00
 1.3365359612e+00	 1.3866731037e+00	-1.8735007272e+00
 1.3194197468e+00	 1.4029690674e+00	-1.8968972394e+00
 1.2940462901e+00	 1.3759888930e+00	-1.9044772638e+00
 1.2770675930e+00	 1.3917613292e+00	-1.9218808782e+00
 1.2599012181e+00	 1.4073202035e+00	-1.9413213865e+00
 1.2425512092e+00	 1.4226621971e+00	-1.9595325517e+00
 1.2250216872e+00	 1.4377840939e+00	-1.9745573721e+00
 1.2073168470e+00	 1.4526827821e+00	-1.9860214893e+00
 1.2991209814e+00	 1.3813849279e+00	-1.9027975500e+00
 1.2820757012e+00	 1.3972192168e+00	-1.9195808169e+00
 1.2648420072e+00	 1.4128391062e+00	-1.9380054746e+00
 1.2474239591e+00	 1.4282412645e+00	-1.9551878142e+00
 1.2298256938e+00	 1.4434224628e+00	-1.9695669793e+00
 1.2120514229e+00	 1.4583795773e+00	-1.9811854960e+00
 1.3041956728e+00	 1.3867809627e+00	-1.9011061647e+00
 1.2870838094e+00	 1.4026771044e+00	-1.9173833658e+00
 1.2697827963e+00	 1.4183580090e+00	-1.9348693374e+00
 1.2522967089e+00	 1.4338203320e+00	-1.9510280142e+00
 1.2346297004e+00	 1.4490608318e+00	-1.9646580174e+00
 1.2167859988e+00	 1.4640763726e+00	-1.9761805779e+00
 1.3092703641e+00	 1.3921769976e+00	-1.8994941582e+00
 1.2920919176e+00	 1.4081349919e+00	-1.9153943470e+00
 1.2747235854e+00	 1.4238769117e+00	-1.9320171907e+00
 1.2571694587e+00	 1.4393993994e+00	-1.9471394694e+00
 1.2394337070e+00	 1.4546992008e+00	-1.9598827267e+00
 1.2215205747e+00	 1.4697731678e+00	-1.9710088579e+00
 1.3143450554e+00	 1.3975730325e+00	-1.8980575857e+00
 1.2971000258e+00	 1.4135928795e+00	-1.9137248652e+00
 1.2796643745e+00	 1.4293958145e+00	-1.9295590581e+00
 1.2620422086e+00	 1.4449784668e+00	-1.9436150665e+00
 1.2442377136e+00	 1.4603375698e+00	-1.9553009002e+00
 1.2262551505e+00	 1.4754699630e+00	-1.9656812059e+00
 1.3194197468e+00	 1.4029690674e+00	-1.8968972394e+00
 1.3021081340e+00	 1.4190507671e+00	-1.9124910613e+00
 1.2846051636e+00	 1.4349147173e+00	-1.9276105417e+00
 1.2669149584e+00	 1.4505575343e+00	-1.9405540438e+00
 1.2490417202e+00	 1.4659759388e+00	-1.9509796743e+00
 1.2309897264e+00	 1.4811667582e+00	-1.9602170338e+00
 1.2073168470e+00	 1.4526827821e+00	-1.9860214893e+00
 1.1894409547e+00	 1.4673552568e+00	-1.9898469147e+00
 1.1713983436e+00	 1.4817986217e+00	-1.9850310752e+00
 1.1531934109e+00	 1.4960100907e+00	-1.9774555394e+00
 1.1348306144e+00	 1.5099869904e+00	-1.9690566221e+00
 1.1163144689e+00	 1.5237267607e+00	-1.9602697102e+00
 1.2120514229e+00	 1.4583795773e+00	-1.9811854960e+00
 1.1941054291e+00	 1.4731095912e+00	-1.9854893372e+00
 1.1759920626e+00	 1.4876095967e+00	-1.9810184680e+00
 1.1577157380e+00	 1.5018767970e+00	-1.9733479870e+00
 1.1392809306e+00	 1.5159085080e+00	-1.9638219695e+00
 1.1206921727e+00	 1.5297021597e+00	-1.9529743924e+00
 1.2167859988e+00	 1.4640763726e+00	-1.9761805779e+00
 1.1987699034e+00	 1.4788639255e+00	-1.9806789587e+00
 1.1805857816e+00	 1.4934205716e+00	-1.9767154634e+00
 1.1622380651e+00	 1.5077435032e+00	-1.9689834016e+00
 1.1437312467e+00	 1.5218300256e+00	-1.9584305541e+00
 1.1250698765e+00	 1.5356775588e+00	-1.9456666332e+00
 1.2215205747e+00	 1.4697731678e+00	-1.9710088579e+00
 1.2034343777e+00	 1.4846182599e+00	-1.9754612677e+00
 1.1851795006e+00	 1.4992315466e+00	-1.9723187926e+00
 1.1667603922e+00	 1.5136102095e+00	-1.9645544566e+00
 1.1481815629e+00	 1.5277515432e+00	-1.9530845741e+00
 1.1294475803e+00	 1.5416529579e+00	-1.9385719854e+00
 1.2262551505e+00	 1.4754699630e+00	-1.9656812059e+00
 1.2080988521e+00	 1.4903725942e+00	-1.9703747507e+00
 1.1897732196e+00	 1.5050425216e+00	-1.9680187126e+00
 1.1712827193e+00	 1.5194769157e+00	-1.9602475417e+00
 1.1526318790e+00	 1.5336730608e+00	-1.9479799288e+00
 1.1338252841e+00	 1.5476283569e+00	-1.9319094794e+00
 1.2309897264e+00	 1.4811667582e+00	-1.9602170338e+00
 1.2127633264e+00	 1.4961269285e+00	-1.9656782174e+00
 1.1943669386e+00	 1.5108534966e+00	-1.9639990931e+00
 1.1758050464e+00	 1.5253436219e+00	-1.9562428428e+00
 1.1570821951e+00	 1.5395945784e+00	-1.9433062956e+00
 1.1382029879e+00	 1.5536037560e+00	-1.9258917016e+00
 1.1163144689e+00	 1.5237267607e+00	-1.9602697102e+00
 1.0976495421e+00	 1.5372269570e+00	-1.9480678899e+00
 1.0788404518e+00	 1.5504852512e+00	-1.9267957878e+00
 1.0598918614e+00	 1.5634994329e+00	-1.9010516863e+00
 1.0408084768e+00	 1.5762674104e+00	-1.8746867512e+00
 1.0215950421e+00	 1.5887872118e+00	-1.8503421669e+00
 1.1206921727e+00	 1.5297021597e+00	-1.9529743924e+00
 1.1019540501e+00	 1.5432552980e+00	-1.9404293243e+00
 1.0830711986e+00	 1.5565655855e+00	-1.9198607669e+00
 1.0640483001e+00	 1.5696308032e+00	-1.8944531313e+00
 1.0448900786e+00	 1.5824488513e+00	-1.8679760621e+00
 1.0256012972e+00	 1.5950177499e+00	-1.8429690292e+00
 1.1250698765e+00	 1.5356775588e+00	-1.9456666332e+00
 1.1062585581e+00	 1.5492836390e+00	-1.9321910120e+00
 1.0873019455e+00	 1.5626459198e+00	-1.9124142741e+00
 1.0682047388e+00	 1.5757621736e+00	-1.8873651028e+00
 1.0489716805e+00	 1.5886302921e+00	-1.8607652199e+00
 1.0296075523e+00	 1.6012482880e+00	-1.8350848188e+00
 1.1294475803e+00	 1.5416529579e+00	-1.9385719854e+00
 1.1105630661e+00	 1.5553119800e+00	-1.9236166668e+00
 1.0915326924e+00	 1.5687262542e+00	-1.9047295792e+00
 1.0723611774e+00	 1.5818935439e+00	-1.8800655424e+00
 1.0530532824e+00	 1.5948117329e+00	-1.8533314437e+00
 1.0336138073e+00	 1.6074788261e+00	-1.8269601406e+00
 1.1338252841e+00	 1.5476283569e+00	-1.9319094794e+00
 1.1148675741e+00	 1.5613403210e+00	-1.9152113834e+00
 1.0957634393e+00	 1.5748065885e+00	-1.8970767890e+00
 1.0765176161e+00	 1.5880249142e+00	-1.8728293748e+00
 1.0571348843e+00	 1.6009931737e+00	-1.8459491735e+00
 1.0376200624e+00	 1.6137093642e+00	-1.8188631520e+00
 1.1382029879e+00	 1.5536037560e+00	-1.9258917016e+00
 1.1191720821e+00	 1.5673686620e+00	-1.9076143089e+00
 1.0999941861e+00	 1.5808869228e+00	-1.8897227146e+00
 1.0806740548e+00	 1.5941562845e+00	-1.8659283853e+00
 1.0612164861e+00	 1.6071746146e+00	-1.8388899544e+00
 1.0416263175e+00	 1.6199399022e+00	-1.8110594533e+00
 1.0215950421e+00	 1.5887872118e+00	-1.8503421669e+00
 1.0022563365e+00	 1.6010569854e+00	-1.8220324823e+00
 9.8279716986e-01	 1.6130750006e+00	-1.7849117861e+00
 9.6322237935e-01	 1.6248396482e+00	-1.7419384458e+00
 9.4353682557e-01	 1.6363494411e+00	-1.6954169139e+00
 9.2374538878e-01	 1.6476030139e+00	-1.6470973770e+00
 1.0256012972e+00	 1.5950177499e+00	-1.8429690292e+00
 1.0061867535e+00	 1.6073356402e+00	-1.8137931401e+00
 9.8665127641e-01	 1.6194007849e+00	-1.7760412977e+00
 9.6699972201e-01	 1.6312115684e+00	-1.7326861656e+00
 9.4723696998e-01	 1.6427664977e+00	-1.6860363315e+00
 9.2736791971e-01	 1.6540642022e+00	-1.6378384064e+00
 1.0296075523e+00	 1.6012482880e+00	-1.8350848188e+00
 1.0101171705e+00	 1.6136142951e+00	-1.8050547362e+00
 9.9050538296e-01	 1.6257265692e+00	-1.7667018777e+00
 9.7077706467e-01	 1.6375834886e+00	-1.7230026073e+00
 9.5093711440e-01	 1.6491835544e+00	-1.6762588564e+00
 9.3099045065e-01	 1.6605253904e+00	-1.6282027472e+00
 1.0336138073e+00	 1.6074788261e+00	-1.8269601406e+00
 1.0140475875e+00	 1.6198929499e+00	-1.7960769142e+00
 9.9435948951e-01	 1.6320523535e+00	-1.7571397316e+00
 9.7455440734e-01	 1.6439554088e+00	-1.7131180641e+00
 9.5463725881e-01	 1.6556006110e+00	-1.6662964063e+00
 9.3461298159e-01	 1.6669865787e+00	-1.6183814997e+00
 1.0376200624e+00	 1.6137093642e+00	-1.8188631520e+00
 1.0179780045e+00	 1.6261716048e+00	-1.7871172694e+00
 9.9821359605e-01	 1.6383781378e+00	-1.7475994500e+00
 9.7833175000e-01	 1.6503273290e+00	-1.7032616781e+00
 9.5833740322e-01	 1.6620176676e+00	-1.6563602392e+00
 9.3823551252e-01	 1.6734477670e+00	-1.6085656200e+00
 1.0416263175e+00	 1.6199399022e+00	-1.8110594533e+00
 1.0219084215e+00	 1.6324502596e+00	-1.7784312434e+00
 1.0020677026e+00	 1.6447039222e+00	-1.7383239062e+00
 9.8210909267e-01	 1.6566992492e+00	-1.6936613407e+00
 9.6203754764e-01	 1.6684347243e+00	-1.6466608555e+00
 9.4185804346e-01	 1.6799089553e+00	-1.5989458231e+00
 9.2374538878e-01	 1.6476030139e+00	-1.6470973770e+00
 9.0385296513e-01	 1.6585991234e+00	-1.5996022463e+00
 8.8386446296e-01	 1.6693366484e+00	-1.5538104529e+00
 8.6378479907e-01	 1.6798145896e+00	-1.5082355234e+00
 8.4361889500e-01	 1.6900320691e+00	-1.4611082752e+00
 8.2337167348e-01	 1.6999883299e+00	-1.4104582589e+00
 9.2736791971e-01	 1.6540642022e+00	-1.6378384064e+00
 9.0739748656e-01	 1.6651034336e+00	-1.5903636334e+00
 8.8733059811e-01	 1.6758830666e+00	-1.5442003243e+00
 8.6717219043e-01	 1.6864020978e+00	-1.4979466486e+00
 8.4692720440e-01	 1.6966596458e+00	-1.4499216531e+00
 8.2660058200e-01	 1.7066549508e+00	-1.3982480555e+00
 9.3099045065e-01	 1.6605253904e+00	-1.6282027472e+00
 9.1094200800e-01	 1.6716077439e+00	-1.5807619715e+00
 8.9079673326e-01	 1.6824294849e+00	-1.5342447972e+00
 8.7055958180e-01	 1.6929896060e+00	-1.4873293549e+00
 8.5023551379e-01	 1.7032872226e+00	-1.4384207046e+00
 8.2982949053e-01	 1.7133215717e+00	-1.3857349838e+00
 9.3461298159e-01	 1.6669865787e+00	-1.6183814997e+00
 9.1448652943e-01	 1.6781120542e+00	-1.5709731804e+00
 8.9426286841e-01	 1.6889759031e+00	-1.5241182890e+00
 8.7394697317e-01	 1.6995771142e+00	-1.4765702043e+00
 8.5354382318e-01	 1.7099147993e+00	-1.4268177458e+00
 8.3305839905e-01	 1.7199881926e+00	-1.3731706810e+00
 9.3823551252e-01	 1.6734477670e+00	-1.6085656200e+00
 9.1803105086e-01	 1.6846163645e+00	-1.5611734473e+00
 8.9772900356e-01	 1.6955223213e+00	-1.5139956664e+00
 8.7733436454e-01	 1.7061646224e+00	-1.4658561580e+00
 8.5685213257e-01	 1.7165423761e+00	-1.4153252090e+00
 8.3628730757e-01	 1.7266548135e+00	-1.3608063827e+00
 9.4185804346e-01	 1.6799089553e+00	-1.5989458231e+00
 9.2157557229e-01	 1.6911206748e+00	-1.5515391330e+00
 9.0119513871e-01	 1.7020687395e+00	-1.5040521580e+00
 8.8072175591e-01	 1.7127521306e+00	-1.4553744997e+00
 8.6016044196e-01	 1.7231699528e+00	-1.4041555799e+00
 8.3951621610e-01	 1.7333214344e+00	-1.3488928794e+00
 8.2337167348e-01	 1.6999883299e+00	-1.4104582589e+00
 8.0304805472e-01	 1.7096827356e+00	-1.3548762475e+00
 7.8265295290e-01	 1.7191147693e+00	-1.2961813821e+00
 7.6219127264e-01	 1.7282840329e+00	-1.2372679198e+00
 7.4166790557e-01	 1.7371902465e+00	-1.1812321614e+00
 7.2108772687e-01	 1.7458332465e+00	-1.1331010020e+00
 8.2660058200e-01	 1.7066549508e+00	-1.3982480555e+00
 8.0619726277e-01	 1.7163873738e+00	-1.3422152907e+00
 7.8572218016e-01	 1.7258563958e+00	-1.2839534094e+00
 7.6518025802e-01	 1.7350616174e+00	-1.2258749136e+00
 7.4457640716e-01	 1.7440027572e+00	-1.1705988329e+00
 7.2391552187e-01	 1.7526796514e+00	-1.1223515110e+00
 8.2982949053e-01	 1.7133215717e+00	-1.3857349838e+00
 8.0934647083e-01	 1.7230920120e+00	-1.3292222245e+00
 7.8879140743e-01	 1.7325980224e+00	-1.2713130036e+00
 7.6816924341e-01	 1.7418392018e+00	-1.2139790101e+00
 7.4748490875e-01	 1.7508152680e+00	-1.1593993601e+00
 7.2674331688e-01	 1.7595260563e+00	-1.1110274616e+00
 8.3305839905e-01	 1.7199881926e+00	-1.3731706810e+00
 8.1249567889e-01	 1.7297966501e+00	-1.3161823250e+00
 7.9186063469e-01	 1.7393396489e+00	-1.2585538927e+00
 7.7115822879e-01	 1.7486167863e+00	-1.2018568020e+00
 7.5039341034e-01	 1.7576277788e+00	-1.1478672566e+00
 7.2957111189e-01	 1.7663724612e+00	-1.0993141404e+00
 8.3628730757e-01	 1.7266548135e+00	-1.3608063827e+00
 8.1564488695e-01	 1.7365012883e+00	-1.3033800115e+00
 7.9492986196e-01	 1.7460812754e+00	-1.2459688545e+00
 7.7414721417e-01	 1.7553943707e+00	-1.1897842074e+00
 7.5330191193e-01	 1.7644402895e+00	-1.1362360101e+00
 7.3239890690e-01	 1.7732188661e+00	-1.0873980973e+00
 8.3951621610e-01	 1.7333214344e+00	-1.3488928794e+00
 8.1879409500e-01	 1.7432059265e+00	-1.2910988194e+00
 7.9799908923e-01	 1.7528229020e+00	-1.2338496997e+00
 7.7713619956e-01	 1.7621719551e+00	-1.1780364536e+00
 7.5621041352e-01	 1.7712528003e+00	-1.1247390598e+00
 7.3522670190e-01	 1.7800652710e+00	-1.0754667497e+00
 7.2108772687e-01	 1.7458332465e+00	-1.1331010020e+00
 7.0045559198e-01	 1.7542129854e+00	-1.0888444885e+00
 6.7977633331e-01	 1.7623295297e+00	-1.0414877750e+00
 6.5905475704e-01	 1.7701830588e+00	-9.9041649483e-01
 6.3829563999e-01	 1.7777738637e+00	-9.3581863429e-01
 6.1750372658e-01	 1.7851023450e+00	-8.7870318590e-01
 7.2391552187e-01	 1.7526796514e+00	-1.1223515110e+00
 7.0320247665e-01	 1.7610922520e+00	-1.0778035152e+00
 6.8244212285e-01	 1.7692406259e+00	-1.0298889195e+00
 6.6163928550e-01	 1.7771249532e+00	-9.7818546878e-01
 6.4079876015e-01	 1.7847455259e+00	-9.2311244204e-01
 6.1992530983e-01	 1.7921027464e+00	-8.6594857043e-01
 7.2674331688e-01	 1.7595260563e+00	-1.1110274616e+00
 7.0594936133e-01	 1.7679715186e+00	-1.0661446675e+00
 6.8510791239e-01	 1.7761517221e+00	-1.0177528013e+00
 6.6422381395e-01	 1.7840668475e+00	-9.6558567969e-01
 6.4330188030e-01	 1.7917171881e+00	-9.1026488017e-01
 6.2234689307e-01	 1.7991031477e+00	-8.5331688186e-01
 7.2957111189e-01	 1.7663724612e+00	-1.0993141404e+00
 7.0869624600e-01	 1.7748507853e+00	-1.0539867589e+00
 6.8777370193e-01	 1.7830628183e+00	-1.0051636890e+00
 6.6680834241e-01	 1.7910087419e+00	-9.5269909746e-01
 6.4580500046e-01	 1.7986888504e+00	-8.9738818350e-01
 6.2476847631e-01	 1.8061035491e+00	-8.4098350028e-01
 7.3239890690e-01	 1.7732188661e+00	-1.0873980973e+00
 7.1144313068e-01	 1.7817300519e+00	-1.0414519063e+00
 6.9043949148e-01	 1.7899739145e+00	-9.9221057647e-01
 6.6939287087e-01	 1.7979506362e+00	-9.3961321123e-01
 6.4830812062e-01	 1.8056605126e+00	-8.8460026406e-01
 6.2719005955e-01	 1.8131039504e+00	-8.2912899844e-01
 7.3522670190e-01	 1.7800652710e+00	-1.0754667497e+00
 7.1419001535e-01	 1.7886093185e+00	-1.0286651425e+00
 6.9310528102e-01	 1.7968850107e+00	-9.7898681285e-01
 6.7197739933e-01	 1.8048925306e+00	-9.2642068690e-01
 6.5081124077e-01	 1.8126321748e+00	-8.7202440608e-01
 6.2961164279e-01	 1.8201043518e+00	-8.1793888391e-01
 6.1750372658e-01	 1.7851023450e+00	-8.7870318590e-01
 5.9668372586e-01	 1.7921690115e+00	-8.2507014495e-01
 5.7584030861e-01	 1.7989744783e+00	-7.7731290575e-01
 5.5497810457e-01	 1.8055194649e+00	-7.3223821421e-01
 5.3410169969e-01	 1.8118047933e+00	-6.8740471006e-01
 5.1321563356e-01	 1.8178313860e+00	-6.4106574420e-01
 6.1992530983e-01	 1.7921027464e+00	-8.6594857043e-01
 5.9902366204e-01	 1.7991971253e+00	-8.1277283488e-01
 5.7809850590e-01	 1.8060292802e+00	-7.6576840486e-01
 5.5715448929e-01	 1.8125999334e+00	-7.2163977451e-01
 5.3619621615e-01	 1.8189099101e+00	-6.7788645849e-01
 5.1522824389e-01	 1.8249601366e+00	-6.3274302698e-01
 6.2234689307e-01	 1.7991031477e+00	-8.5331688186e-01
 6.0136359822e-01	 1.8062252391e+00	-8.0087060161e-01
 5.8035670319e-01	 1.8130840820e+00	-7.5481927010e-01
 5.5933087401e-01	 1.8196804018e+00	-7.1166839797e-01
 5.3829073262e-01	 1.8260150270e+00	-6.6875660642e-01
 5.1724085421e-01	 1.8320888871e+00	-6.2419317421e-01
 6.2476847631e-01	 1.8061035491e+00	-8.4098350028e-01
 6.0370353440e-01	 1.8132533528e+00	-7.8958783369e-01
 5.8261490048e-01	 1.8201388839e+00	-7.4467855713e-01
 5.6150725874e-01	 1.8267608703e+00	-7.0246706883e-01
 5.4038524909e-01	 1.8331201438e+00	-6.6003101711e-01
 5.1925346454e-01	 1.8392176376e+00	-6.1524964991e-01
 6.2719005955e-01	 1.8131039504e+00	-8.2912899844e-01
 6.0604347058e-01	 1.8202814666e+00	-7.7915371062e-01
 5.8487309777e-01	 1.8271936858e+00	-7.3556450819e-01
 5.6368364346e-01	 1.8338413388e+00	-6.9418512779e-01
 5.4247976556e-01	 1.8402252606e+00	-6.5173383149e-01
 5.2126607487e-01	 1.8463463882e+00	-6.0575684515e-01
 6.2961164279e-01	 1.8201043518e+00	-8.1793888391e-01
 6.0838340676e-01	 1.8273095804e+00	-7.6980198826e-01
 5.8713129506e-01	 1.8342484877e+00	-7.2770036261e-01
 5.6586002819e-01	 1.8409218073e+00	-6.8697809026e-01
 5.4457428203e-01	 1.8473303775e+00	-6.4389727701e-01
 5.2327868520e-01	 1.8534751387e+00	-5.9590023227e-01
 5.1321563356e-01	 1.8178313860e+00	-6.4106574420e-01
 4.9232439687e-01	 1.8236002640e+00	-5.9384255504e-01
 4.7143242896e-01	 1.8291125442e+00	-5.4778851558e-01
 4.5054411554e-01	 1.8343694379e+00	-5.0405395806e-01
 4.2966378639e-01	 1.8393722476e+00	-4.6406400160e-01
 4.0879571328e-01	 1.8441223656e+00	-4.2940789558e-01
 5.1522824389e-01	 1.8249601366e+00	-6.3274302698e-01
 4.9425508078e-01	 1.8307516376e+00	-5.8660518262e-01
 4.7328118359e-01	 1.8362855346e+00	-5.4125180534e-01
 4.5231095521e-01	 1.8415630435e+00	-4.9777797673e-01
 4.3134874241e-01	 1.8465854721e+00	-4.5756199112e-01
 4.1039883372e-01	 1.8513542180e+00	-4.2215063778e-01
 5.1724085421e-01	 1.8320888871e+00	-6.2419317421e-01
 4.9618576469e-01	 1.8379030112e+00	-5.7806682226e-01
 4.7512993821e-01	 1.8434585250e+00	-5.3206957945e-01
 4.5407779488e-01	 1.8487566491e+00	-4.8754063110e-01
 4.3303369844e-01	 1.8537986966e+00	-4.4642942535e-01
 4.1200195416e-01	 1.8585860704e+00	-4.1262281375e-01
 5.1925346454e-01	 1.8392176376e+00	-6.1524964991e-01
 4.9811644860e-01	 1.8450543847e+00	-5.6788864757e-01
 4.7697869283e-01	 1.8506315153e+00	-5.1980288660e-01
 4.5584463454e-01	 1.8559502548e+00	-4.7450213924e-01
 4.3471865446e-01	 1.8610119211e+00	-4.3631687664e-01
 4.1360507461e-01	 1.8658179229e+00	-4.0470820391e-01
 5.2126607487e-01	 1.8463463882e+00	-6.0575684515e-01
 5.0004713250e-01	 1.8522057583e+00	-5.5575990583e-01
 4.7882744746e-01	 1.8578045057e+00	-5.0789552754e-01
 4.5761147421e-01	 1.8631438604e+00	-4.6584471039e-01
 4.3640361049e-01	 1.8682251456e+00	-4.2947865939e-01
 4.1520819505e-01	 1.8730497753e+00	-3.9858582990e-01
 5.2327868520e-01	 1.8534751387e+00	-5.9590023227e-01
 5.0197781641e-01	 1.8593571319e+00	-5.4801298267e-01
 4.8067620208e-01	 1.8649774961e+00	-5.0331005804e-01
 4.5937831388e-01	 1.8703374660e+00	-4.6240923490e-01
 4.3808856651e-01	 1.8754383701e+00	-4.2592559969e-01
 4.1681131550e-01	 1.8802816277e+00	-3.9441529088e-01
 4.0879571328e-01	 1.8441223656e+00	-4.2940789558e-01
 3.8794410792e-01	 1.8486212710e+00	-3.9820578648e-01
 3.6711312004e-01	 1.8528705275e+00	-3.5888691766e-01
 3.4630683554e-01	 1.8568717808e+00	-3.1918591522e-01
 3.2552927477e-01	 1.8606267562e+00	-2.8730430310e-01
 3.0478439093e-01	 1.8641372561e+00	-2.6167055827e-01
 4.1039883372e-01	 1.8513542180e+00	-4.2215063778e-01
 3.8946545736e-01	 1.8558707662e+00	-3.9102788123e-01
 3.6855277933e-01	 1.8601366864e+00	-3.5367287160e-01
 3.4766490156e-01	 1.8641536309e+00	-3.1373982070e-01
 3.2680586017e-01	 1.8679233317e+00	-2.8051783610e-01
 3.0597962384e-01	 1.8714475983e+00	-2.5341197609e-01
 4.1200195416e-01	 1.8585860704e+00	-4.1262281375e-01
 3.9098680680e-01	 1.8631202614e+00	-3.8372601051e-01
 3.6999243863e-01	 1.8674028454e+00	-3.4838198875e-01
 3.4902296758e-01	 1.8714354810e+00	-3.0841316306e-01
 3.2808244556e-01	 1.8752199072e+00	-2.7432986365e-01
 3.0717485674e-01	 1.8787579405e+00	-2.4629358358e-01
 4.1360507461e-01	 1.8658179229e+00	-4.0470820391e-01
 3.9250815625e-01	 1.8703697566e+00	-3.7708239573e-01
 3.7143209792e-01	 1.8746690043e+00	-3.4337822454e-01
 3.5038103360e-01	 1.8787173311e+00	-3.0362251498e-01
 3.2935903095e-01	 1.8825164827e+00	-2.6913293881e-01
 3.0837008965e-01	 1.8860682827e+00	-2.4063791755e-01
 4.1520819505e-01	 1.8730497753e+00	-3.9858582990e-01
 3.9402950569e-01	 1.8776192518e+00	-3.7141344983e-01
 3.7287175722e-01	 1.8819351632e+00	-3.3899333996e-01
 3.5173909962e-01	 1.8859991813e+00	-2.9978153600e-01
 3.3063561634e-01	 1.8898130582e+00	-2.6531744450e-01
 3.0956532256e-01	 1.8933786248e+00	-2.3676665890e-01
 4.1681131550e-01	 1.8802816277e+00	-3.9441529088e-01
 3.9555085513e-01	 1.8848687469e+00	-3.6703017259e-01
 3.7431141651e-01	 1.8892013222e+00	-3.3563448242e-01
 3.5309716565e-01	 1.8932810314e+00	-2.9730091054e-01
 3.3191220173e-01	 1.8971096338e+00	-2.6327154507e-01
 3.1076055546e-01	 1.9006889670e+00	-2.3500058338e-01
 3.0478439093e-01	 1.8641372561e+00	-2.6167055827e-01
 2.8407606851e-01	 1.8674051574e+00	-2.3946186299e-01
 2.6340812188e-01	 1.8704324088e+00	-2.1985674498e-01
 2.4278429399e-01	 1.8732210284e+00	-2.0284084530e-01
 2.2220825513e-01	 1.8757731009e+00	-1.8785052878e-01
 2.0168360180e-01	 1.8780907751e+00	-1.7397259972e-01
 3.0597962384e-01	 1.8714475983e+00	-2.5341197609e-01
 2.8519009231e-01	 1.8747283149e+00	-2.3028940735e-01
 2.6444109491e-01	 1.8777674379e+00	-2.1030035254e-01
 2.4373638926e-01	 1.8805669932e+00	-1.9330870313e-01
 2.2307966005e-01	 1.8831290738e+00	-1.7861948924e-01
 2.0247451788e-01	 1.8854558369e+00	-1.6517820622e-01
 3.0717485674e-01	 1.8787579405e+00	-2.4629358358e-01
 2.8630411611e-01	 1.8820514724e+00	-2.2267542749e-01
 2.6547406794e-01	 1.8851024669e+00	-2.0256884438e-01
 2.4468848453e-01	 1.8879129580e+00	-1.8573258961e-01
 2.2395106497e-01	 1.8904850468e+00	-1.7135909783e-01
 2.0326543397e-01	 1.8928208988e+00	-1.5827323442e-01
 3.0837008965e-01	 1.8860682827e+00	-2.4063791755e-01
 2.8741813990e-01	 1.8893746298e+00	-2.1685665325e-01
 2.6650704096e-01	 1.8924374960e+00	-1.9682563000e-01
 2.4564057980e-01	 1.8952589228e+00	-1.8021512379e-01
 2.2482246989e-01	 1.8978410197e+00	-1.6612377043e-01
 2.0405635005e-01	 1.9001859606e+00	-1.5327655336e-01
 3.0956532256e-01	 1.8933786248e+00	-2.3676665890e-01
 2.8853216370e-01	 1.8966977873e+00	-2.1307038543e-01
 2.6754001399e-01	 1.8997725250e+00	-1.9323580156e-01
 2.4659267507e-01	 1.9026048876e+00	-1.7686141292e-01
 2.2569387482e-01	 1.9051969926e+00	-1.6297092036e-01
 2.0484726614e-01	 1.9075510225e+00	-1.5021025273e-01
 3.1076055546e-01	 1.9006889670e+00	-2.3500058338e-01
 2.8964618750e-01	 1.9040209448e+00	-2.1155444027e-01
 2.6857298702e-01	 1.9071075541e+00	-1.9196607488e-01
 2.4754477035e-01	 1.9099508525e+00	-1.7577899311e-01
 2.2656527974e-01	 1.9125529656e+00	-1.6196090152e-01
 2.0563818223e-01	 1.9149160844e+00	-1.4909959122e-01
 2.0168360180e-01	 1.8780907751e+00	-1.7397259972e-01
 1.8121385572e-01	 1.8801762612e+00	-1.5903137712e-01
 1.6080246289e-01	 1.8820318282e+00	-1.4282751331e-01
 1.4045279276e-01	 1.8836598014e+00	-1.2739268128e-01
 1.2016813749e-01	 1.8850625595e+00	-1.1505009304e-01
 9.9951711338e-02	 1.8862425321e+00	-1.0855671672e-01
 2.0247451788e-01	 1.8854558369e+00	-1.6517820622e-01
 1.8192449829e-01	 1.8875495014e+00	-1.5073562560e-01
 1.6143306079e-01	 1.8894123452e+00	-1.3514727474e-01
 1.4100358803e-01	 1.8910467026e+00	-1.2047735121e-01
 1.2063938509e-01	 1.8924549617e+00	-1.0906592167e-01
 1.0034367883e-01	 1.8936395617e+00	-1.0366986054e-01
 2.0326543397e-01	 1.8928208988e+00	-1.5827323442e-01
 1.8263514087e-01	 1.8949227416e+00	-1.4417958380e-01
 1.6206365868e-01	 1.8967928622e+00	-1.2901366767e-01
 1.4155438329e-01	 1.8984336038e+00	-1.1489192090e-01
 1.2111063269e-01	 1.8998473639e+00	-1.0419223444e-01
 1.0073564633e-01	 1.9010365912e+00	-9.9693430964e-02
 2.0405635005e-01	 1.9001859606e+00	-1.5327655336e-01
 1.8334578344e-01	 1.9022959819e+00	-1.3935925139e-01
 1.6269425658e-01	 1.9041733792e+00	-1.2441257132e-01
 1.4210517856e-01	 1.9058205050e+00	-1.1062505143e-01
 1.2158188029e-01	 1.9072397661e+00	-1.0043352984e-01
 1.0112761382e-01	 1.9084336207e+00	-9.6660970022e-02
 2.0484726614e-01	 1.9075510225e+00	-1.5021025273e-01
 1.8405642601e-01	 1.9096692221e+00	-1.3627379740e-01
 1.6332485447e-01	 1.9115538961e+00	-1.2133272002e-01
 1.4265597383e-01	 1.9132074062e+00	-1.0766769222e-01
 1.2205312789e-01	 1.9146321683e+00	-9.7795786397e-02
 1.0151958132e-01	 1.9158306503e+00	-9.4606461044e-02
 2.0563818223e-01	 1.9149160844e+00	-1.4909959122e-01
 1.8476706858e-01	 1.9170424624e+00	-1.3492551670e-01
 1.6395545236e-01	 1.9189344131e+00	-1.1976567040e-01
 1.4320676909e-01	 1.9205943074e+00	-1.0601306174e-01
 1.2252437548e-01	 1.9220245705e+00	-9.6286459528e-02
 1.0191154882e-01	 1.9232276798e+00	-9.3564344482e-02
 9.9951711338e-02	 1.8862425321e+00	-1.0855671672e-01
 7.9806650074e-02	 1.8872021972e+00	-1.0497226092e-01
 5.9736010557e-02	 1.8879440785e+00	-9.8969155231e-02
 3.9742770349e-02	 1.8884707429e+00	-9.0798067716e-02
 1.9829827429e-02	 1.8887847978e+00	-8.1698044918e-02
-1.2799701508e-07	 1.8888950327e+00	-7.4422067045e-02
 1.0034367883e-01	 1.8936395617e+00	-1.0366986054e-01
 8.0119617329e-02	 1.8946029901e+00	-1.0112792074e-01
 5.9970269422e-02	 1.8953477808e+00	-9.5809542699e-02
 3.9898624350e-02	 1.8958765105e+00	-8.7809039705e-02
 1.9907591459e-02	 1.8961917970e+00	-7.8182345461e-02
-1.1913997806e-07	 1.8963020627e+00	-6.9439339237e-02
 1.0073564633e-01	 1.9010365912e+00	-9.9693430964e-02
 8.0432584584e-02	 1.9020037831e+00	-9.7998937200e-02
 6.0204528287e-02	 1.9027514831e+00	-9.3171031061e-02
 4.0054478352e-02	 1.9032822781e+00	-8.5183530300e-02
 1.9985355488e-02	 1.9035987962e+00	-7.4942149936e-02
-1.1059444263e-07	 1.9037091007e+00	-6.4744966943e-02
 1.0112761382e-01	 1.9084336207e+00	-9.6660970022e-02
 8.0745551839e-02	 1.9094045760e+00	-9.5647733745e-02
 6.0438787152e-02	 1.9101551853e+00	-9.1131346035e-02
 4.0210332353e-02	 1.9106880458e+00	-8.3001073065e-02
 2.0063119517e-02	 1.9110057955e+00	-7.2045402638e-02
-1.0237160893e-07	 1.9111161478e+00	-6.0382057819e-02
 1.0151958132e-01	 1.9158306503e+00	-9.4606461044e-02
 8.1058519094e-02	 1.9168053689e+00	-9.4136126200e-02
 6.0673046017e-02	 1.9175588876e+00	-8.9766767498e-02
 4.0366186354e-02	 1.9180938134e+00	-8.1339140691e-02
 2.0140883546e-02	 1.9184127947e+00	-6.9557607256e-02
-9.4482677093e-08	 1.9185232049e+00	-5.6391141389e-02
 1.0191154882e-01	 1.9232276798e+00	-9.3564344482e-02
 8.1371486350e-02	 1.9242061619e+00	-9.3525356130e-02
 6.0907304882e-02	 1.9249625899e+00	-8.9152175046e-02
 4.0522040356e-02	 1.9254995810e+00	-8.0273197312e-02
 2.0218647575e-02	 1.9258197939e+00	-6.7541880502e-02
-8.6938847248e-08	 1.9259302729e+00	-5.2810218248e-02
 1.9259259259e+00	 0.0000000000e+00	 2.9758698200e+00
 1.9258197939e+00	 2.0218647575e-02	 2.9708492238e+00
 1.9254995810e+00	 4.0522040356e-02	 2.9601188713e+00
 1.9249625899e+00	 6.0907304882e-02	 2.9446005260e+00
 1.9242061619e+00	 8.1371486350e-02	 2.9259683617e+00
 1.9232276798e+00	 1.0191154882e-01	 2.9065313757e+00
 1.9333333333e+00	 0.0000000000e+00	 2.9639574821e+00
 1.9332267931e+00	 2.0296411604e-02	 2.9567554758e+00
 1.9329053486e+00	 4.0677894357e-02	 2.9447039589e+00
 1.9323662921e+00	 6.1141563747e-02	 2.9285510877e+00
 1.9316069548e+00	 8.1684453605e-02	 2.9097766139e+00
 1.9306247093e+00	 1.0230351631e-01	 2.8904761196e+00
 1.9407407407e+00	 0.0000000000e+00	 2.9538686634e+00
 1.9406337923e+00	 2.0374175633e-02	 2.9430160610e+00
 1.9403111162e+00	 4.0833748358e-02	 2.9289100543e+00
 1.9397699944e+00	 6.1375822612e-02	 2.9119038925e+00
 1.9390077477e+00	 8.1997420860e-02	 2.8930575059e+00
 1.9380217389e+00	 1.0269548381e-01	 2.8740240005e+00
 1.9481481481e+00	 0.0000000000e+00	 2.9456471009e+00
 1.9480407915e+00	 2.0451939663e-02	 2.9296508785e+00
 1.9477168838e+00	 4.0989602360e-02	 2.9127377241e+00
 1.9471736967e+00	 6.1610081477e-02	 2.8946468480e+00
 1.9464085407e+00	 8.2310388115e-02	 2.8757951444e+00
 1.9454187684e+00	 1.0308745130e-01	 2.8571663813e+00
 1.9555555556e+00	 0.0000000000e+00	 2.9393363971e+00
 1.9554477907e+00	 2.0529703692e-02	 2.9166799581e+00
 1.9551226515e+00	 4.1145456361e-02	 2.8961879475e+00
 1.9545773989e+00	 6.1844340342e-02	 2.8767685274e+00
 1.9538093336e+00	 8.2623355370e-02	 2.8579744780e+00
 1.9528157980e+00	 1.0347941880e-01	 2.8398955212e+00
 1.9629629630e+00	 0.0000000000e+00	 2.9349800229e+00
 1.9628547899e+00	 2.0607467721e-02	 2.9041234580e+00
 1.9625284191e+00	 4.1301310363e-02	 2.8792621081e+00
 1.9619811012e+00	 6.2078599206e-02	 2.8582581556e+00
 1.9612101265e+00	 8.2936322626e-02	 2.8395812813e+00
 1.9602128275e+00	 1.0387138629e-01	 2.8222045590e+00
 1.9232276798e+00	 1.0191154882e-01	 2.9065313757e+00
 1.9220245705e+00	 1.2252437548e-01	 2.8882482476e+00
 1.9205943074e+00	 1.4320676909e-01	 2.8699058372e+00
 1.9189344131e+00	 1.6395545236e-01	 2.8495967567e+00
 1.9170424624e+00	 1.8476706858e-01	 2.8254866299e+00
 1.9149160844e+00	 2.0563818223e-01	 2.7956654487e+00
 1.9306247093e+00	 1.0230351631e-01	 2.8904761196e+00
 1.9294169727e+00	 1.2299562308e-01	 2.8726087751e+00
 1.9279812085e+00	 1.4375756436e-01	 2.8550269348e+00
 1.9263149301e+00	 1.6458605026e-01	 2.8356904311e+00
 1.9244157026e+00	 1.8547771115e-01	 2.8126290062e+00
 1.9222811462e+00	 2.0642909831e-01	 2.7837962074e+00
 1.9380217389e+00	 1.0269548381e-01	 2.8740240005e+00
 1.9368093749e+00	 1.2346687068e-01	 2.8565957148e+00
 1.9353681097e+00	 1.4430835962e-01	 2.8397013016e+00
 1.9336954471e+00	 1.6521664815e-01	 2.8212043646e+00
 1.9317889428e+00	 1.8618835372e-01	 2.7990365778e+00
 1.9296462081e+00	 2.0722001440e-01	 2.7710542103e+00
 1.9454187684e+00	 1.0308745130e-01	 2.8571663813e+00
 1.9442017771e+00	 1.2393811828e-01	 2.8402178313e+00
 1.9427550109e+00	 1.4485915489e-01	 2.8239622829e+00
 1.9410759640e+00	 1.6584724604e-01	 2.8062027777e+00
 1.9391621831e+00	 1.8689899629e-01	 2.7848098377e+00
 1.9370112700e+00	 2.0801093048e-01	 2.7575807133e+00
 1.9528157980e+00	 1.0347941880e-01	 2.8398955212e+00
 1.9515941793e+00	 1.2440936588e-01	 2.8234847180e+00
 1.9501419121e+00	 1.4540995015e-01	 2.8078438930e+00
 1.9484564810e+00	 1.6647784394e-01	 2.7907503077e+00
 1.9465354233e+00	 1.8760963887e-01	 2.7700493508e+00
 1.9443763318e+00	 2.0880184657e-01	 2.7435166053e+00
 1.9602128275e+00	 1.0387138629e-01	 2.8222045590e+00
 1.9589865815e+00	 1.2488061347e-01	 2.8064067811e+00
 1.9575288133e+00	 1.4596074542e-01	 2.7913808021e+00
 1.9558369980e+00	 1.6710844183e-01	 2.7749120001e+00
 1.9539086636e+00	 1.8832028144e-01	 2.7548557496e+00
 1.9517413937e+00	 2.0959276265e-01	 2.7290024096e+00
 1.9149160844e+00	 2.0563818223e-01	 2.7956654487e+00
 1.9125529656e+00	 2.2656527974e-01	 2.7597292721e+00
 1.9099508525e+00	 2.4754477035e-01	 2.7196455881e+00
 1.9071075541e+00	 2.6857298702e-01	 2.6764598291e+00
 1.9040209448e+00	 2.8964618750e-01	 2.6304471392e+00
 1.9006889670e+00	 3.1076055546e-01	 2.5808851332e+00
 1.9222811462e+00	 2.0642909831e-01	 2.7837962074e+00
 1.9199089385e+00	 2.2743668466e-01	 2.7485969996e+00
 1.9172968173e+00	 2.4849686562e-01	 2.7089202314e+00
 1.9144425831e+00	 2.6960596004e-01	 2.6658498773e+00
 1.9113441023e+00	 2.9076021130e-01	 2.6197080568e+00
 1.9079993092e+00	 3.1195578837e-01	 2.5698294979e+00
 1.9296462081e+00	 2.0722001440e-01	 2.7710542103e+00
 1.9272649115e+00	 2.2830808958e-01	 2.7364925803e+00
 1.9246427821e+00	 2.4944896089e-01	 2.6971635040e+00
 1.9217776122e+00	 2.7063893307e-01	 2.6541996308e+00
 1.9186672598e+00	 2.9187423510e-01	 2.6079798006e+00
 1.9153096514e+00	 3.1315102127e-01	 2.5579053010e+00
 1.9370112700e+00	 2.0801093048e-01	 2.7575807133e+00
 1.9346208844e+00	 2.2917949450e-01	 2.7235952055e+00
 1.9319887469e+00	 2.5040105616e-01	 2.6845825914e+00
 1.9291126412e+00	 2.7167190610e-01	 2.6417337346e+00
 1.9259904172e+00	 2.9298825890e-01	 2.5954933696e+00
 1.9226199936e+00	 3.1434625418e-01	 2.5453382442e+00
 1.9443763318e+00	 2.0880184657e-01	 2.7435166053e+00
 1.9419768574e+00	 2.3005089943e-01	 2.7100832638e+00
 1.9393347117e+00	 2.5135315143e-01	 2.6713835378e+00
 1.9364476703e+00	 2.7270487913e-01	 2.6286754464e+00
 1.9333135747e+00	 2.9410228269e-01	 2.5824782171e+00
 1.9299303357e+00	 3.1554148708e-01	 2.5323524085e+00
 1.9517413937e+00	 2.0959276265e-01	 2.7290024096e+00
 1.9493328303e+00	 2.3092230435e-01	 2.6961343472e+00
 1.9466806765e+00	 2.5230524670e-01	 2.6577712530e+00
 1.9437826993e+00	 2.7373785215e-01	 2.6152466409e+00
 1.9406367322e+00	 2.9521630649e-01	 2.5691622492e+00
 1.9372406779e+00	 3.1673671999e-01	 2.5191702433e+00
 1.9006889670e+00	 3.1076055546e-01	 2.5808851332e+00
 1.8971096338e+00	 3.3191220173e-01	 2.5263637585e+00
 1.8932810314e+00	 3.5309716565e-01	 2.4650579150e+00
 1.8892013222e+00	 3.7431141651e-01	 2.3933833030e+00
 1.8848687469e+00	 3.9555085513e-01	 2.3111138493e+00
 1.8802816277e+00	 4.1681131550e-01	 2.2271384417e+00
 1.9079993092e+00	 3.1195578837e-01	 2.5698294979e+00
 1.9044062093e+00	 3.3318878712e-01	 2.5148371398e+00
 1.9005628815e+00	 3.5445523167e-01	 2.4529632160e+00
 1.8964674811e+00	 3.7575107580e-01	 2.3807714426e+00
 1.8921182421e+00	 3.9707220458e-01	 2.2986695634e+00
 1.8875134801e+00	 4.1841443594e-01	 2.2153506298e+00
 1.9153096514e+00	 3.1315102127e-01	 2.5579053010e+00
 1.9117027848e+00	 3.3446537251e-01	 2.5026171310e+00
 1.9078447316e+00	 3.5581329769e-01	 2.4403442193e+00
 1.9037336400e+00	 3.7719073510e-01	 2.3677567933e+00
 1.8993677373e+00	 3.9859355402e-01	 2.2857942809e+00
 1.8947453325e+00	 4.2001755638e-01	 2.2028390772e+00
 1.9226199936e+00	 3.1434625418e-01	 2.5453382442e+00
 1.9189993603e+00	 3.3574195790e-01	 2.4899253542e+00
 1.9151265817e+00	 3.5717136371e-01	 2.4274331771e+00
 1.9109997989e+00	 3.7863039439e-01	 2.3545975794e+00
 1.9066172325e+00	 4.0011490346e-01	 2.2727789105e+00
 1.9019771849e+00	 4.2162067683e-01	 2.1899455658e+00
 1.9299303357e+00	 3.1554148708e-01	 2.5323524085e+00
 1.9262959358e+00	 3.3701854330e-01	 2.4769816125e+00
 1.9224084319e+00	 3.5852942973e-01	 2.4144599847e+00
 1.9182659579e+00	 3.8007005369e-01	 2.3415479979e+00
 1.9138667277e+00	 4.0163625290e-01	 2.2599095600e+00
 1.9092090373e+00	 4.2322379727e-01	 2.1770060319e+00
 1.9372406779e+00	 3.1673671999e-01	 2.5191702433e+00
 1.9335925113e+00	 3.3829512869e-01	 2.4640038700e+00
 1.9296902820e+00	 3.5988749576e-01	 2.4016521555e+00
 1.9255321168e+00	 3.8150971298e-01	 2.3288582581e+00
 1.9211162228e+00	 4.0315760235e-01	 2.2474675929e+00
 1.9164408898e+00	 4.2482691772e-01	 2.1643506425e+00
 1.8802816277e+00	 4.1681131550e-01	 2.2271384417e+00
 1.8754383701e+00	 4.3808856651e-01	 2.1456227404e+00
 1.8703374660e+00	 4.5937831388e-01	 2.0636671558e+00
 1.8649774961e+00	 4.8067620208e-01	 1.9804109742e+00
 1.8593571319e+00	 5.0197781641e-01	 1.8949455001e+00
 1.8534751387e+00	 5.2327868520e-01	 1.8063751430e+00
 1.8875134801e+00	 4.1841443594e-01	 2.2153506298e+00
 1.8826515946e+00	 4.3977352254e-01	 2.1348841482e+00
 1.8775310717e+00	 4.6114515355e-01	 2.0541374085e+00
 1.8721504865e+00	 4.8252495670e-01	 1.9715776109e+00
 1.8665085055e+00	 5.0390850032e-01	 1.8856427164e+00
 1.8606038892e+00	 5.2529129552e-01	 1.7948039678e+00
 1.8947453325e+00	 4.2001755638e-01	 2.2028390772e+00
 1.8898648191e+00	 4.4145847856e-01	 2.1229241609e+00
 1.8847246773e+00	 4.6291199322e-01	 2.0429465340e+00
 1.8793234768e+00	 4.8437371133e-01	 1.9609523669e+00
 1.8736598791e+00	 5.0583918423e-01	 1.8749721573e+00
 1.8677326398e+00	 5.2730390585e-01	 1.7830840191e+00
 1.9019771849e+00	 4.2162067683e-01	 2.1899455658e+00
 1.8970780436e+00	 4.4314343459e-01	 2.1101168749e+00
 1.8919182830e+00	 4.6467883289e-01	 2.0304431459e+00
 1.8864964672e+00	 4.8622246595e-01	 1.9487976712e+00
 1.8808112527e+00	 5.0776986814e-01	 1.8630464838e+00
 1.8748613903e+00	 5.2931651618e-01	 1.7711117516e+00
 1.9092090373e+00	 4.2322379727e-01	 2.1770060319e+00
 1.9042912681e+00	 4.4482839061e-01	 2.0968297834e+00
 1.8991118886e+00	 4.6644567256e-01	 2.0169693835e+00
 1.8936694576e+00	 4.8807122057e-01	 1.9353705406e+00
 1.8879626262e+00	 5.0970055205e-01	 1.8499749874e+00
 1.8819901408e+00	 5.3132912651e-01	 1.7587833186e+00
 1.9164408898e+00	 4.2482691772e-01	 2.1643506425e+00
 1.9115044926e+00	 4.4651334664e-01	 2.0834238697e+00
 1.9063054942e+00	 4.6821251223e-01	 2.0028610051e+00
 1.9008424479e+00	 4.8991997520e-01	 1.9209226564e+00
 1.8951139998e+00	 5.1163123596e-01	 1.8358636314e+00
 1.8891188914e+00	 5.3334173684e-01	 1.7459945606e+00
 1.8534751387e+00	 5.2327868520e-01	 1.8063751430e+00
 1.8473303775e+00	 5.4457428203e-01	 1.7146262644e+00
 1.8409218073e+00	 5.6586002819e-01	 1.6179332902e+00
 1.8342484877e+00	 5.8713129506e-01	 1.5182614870e+00
 1.8273095804e+00	 6.0838340676e-01	 1.4187217815e+00
 1.8201043518e+00	 6.2961164279e-01	 1.3233479533e+00
 1.8606038892e+00	 5.2529129552e-01	 1.7948039678e+00
 1.8544354943e+00	 5.4666879850e-01	 1.7004866923e+00
 1.8480022758e+00	 5.6803641291e-01	 1.6060753933e+00
 1.8413032895e+00	 5.8938949235e-01	 1.5080012416e+00
 1.8343376941e+00	 6.1072334294e-01	 1.4089185711e+00
 1.8271047531e+00	 6.3203322603e-01	 1.3131913142e+00
 1.8677326398e+00	 5.2730390585e-01	 1.7830840191e+00
 1.8615406111e+00	 5.4876331497e-01	 1.6859411327e+00
 1.8550827443e+00	 5.7021279763e-01	 1.5882826449e+00
 1.8483580914e+00	 5.9164768964e-01	 1.4931313627e+00
 1.8413658079e+00	 6.1306327912e-01	 1.3968149992e+00
 1.8341051545e+00	 6.3445480928e-01	 1.3024538509e+00
 1.8748613903e+00	 5.2931651618e-01	 1.7711117516e+00
 1.8686457280e+00	 5.5085783144e-01	 1.6729787874e+00
 1.8621632128e+00	 5.7238918236e-01	 1.5727368635e+00
 1.8554128933e+00	 5.9390588692e-01	 1.4747015369e+00
 1.8483939217e+00	 6.1540321530e-01	 1.3820907478e+00
 1.8411055559e+00	 6.3687639252e-01	 1.2909966039e+00
 1.8819901408e+00	 5.3132912651e-01	 1.7587833186e+00
 1.8757508448e+00	 5.5295234791e-01	 1.6612889729e+00
 1.8692436813e+00	 5.7456556708e-01	 1.5607041223e+00
 1.8624676952e+00	 5.9616408421e-01	 1.4608618667e+00
 1.8554220355e+00	 6.1774315148e-01	 1.3658815507e+00
 1.8481059572e+00	 6.3929797576e-01	 1.2786855052e+00
 1.8891188914e+00	 5.3334173684e-01	 1.7459945606e+00
 1.8828559616e+00	 5.5504686438e-01	 1.6505636361e+00
 1.8763241498e+00	 5.7674195180e-01	 1.5517541776e+00
 1.8695224970e+00	 5.9842228150e-01	 1.4525513477e+00
 1.8624501492e+00	 6.2008308766e-01	 1.3562557582e+00
 1.8551063586e+00	 6.4171955900e-01	 1.2665661048e+00
 1.8201043518e+00	 6.2961164279e-01	 1.3233479533e+00
 1.8126321748e+00	 6.5081124077e-01	 1.2326286208e+00
 1.8048925306e+00	 6.7197739933e-01	 1.1418942611e+00
 1.7968850107e+00	 6.9310528102e-01	 1.0489812260e+00
 1.7886093185e+00	 7.1419001535e-01	 9.5280957538e-01
 1.7800652710e+00	 7.3522670190e-01	 8.5334972216e-01
 1.8271047531e+00	 6.3203322603e-01	 1.3131913142e+00
 1.8196038370e+00	 6.5331436093e-01	 1.2222446779e+00
 1.8118344249e+00	 6.7456192779e-01	 1.1319402325e+00
 1.8037961069e+00	 6.9577107056e-01	 1.0399012417e+00
 1.7954885851e+00	 7.1693690002e-01	 9.4488601631e-01
 1.7869116759e+00	 7.3805449691e-01	 8.4675492252e-01
 1.8341051545e+00	 6.3445480928e-01	 1.3024538509e+00
 1.8265754992e+00	 6.5581748109e-01	 1.2121721083e+00
 1.8187763193e+00	 6.7714645625e-01	 1.1225348485e+00
 1.8107072031e+00	 6.9843686010e-01	 1.0311970988e+00
 1.8023678517e+00	 7.1968378470e-01	 9.3699730361e-01
 1.7937580808e+00	 7.4088229192e-01	 8.3992406150e-01
 1.8411055559e+00	 6.3687639252e-01	 1.2909966039e+00
 1.8335471614e+00	 6.5832060124e-01	 1.2024764824e+00
 1.8257182136e+00	 6.7973098471e-01	 1.1138950682e+00
 1.8176182993e+00	 7.0110264965e-01	 1.0231810397e+00
 1.8092471183e+00	 7.2243066937e-01	 9.2949197506e-01
 1.8006044856e+00	 7.4371008693e-01	 8.3316988588e-01
 1.8481059572e+00	 6.3929797576e-01	 1.2786855052e+00
 1.8405188236e+00	 6.6082372140e-01	 1.1932241711e+00
 1.8326601080e+00	 6.8231551317e-01	 1.1062352161e+00
 1.8245293955e+00	 7.0376843919e-01	 1.0161599380e+00
 1.8161263849e+00	 7.2517755405e-01	 9.2271121556e-01
 1.8074508905e+00	 7.4653788193e-01	 8.2678593546e-01
 1.8551063586e+00	 6.4171955900e-01	 1.2665661048e+00
 1.8474904858e+00	 6.6332684156e-01	 1.1844819986e+00
 1.8396020023e+00	 6.8490004163e-01	 1.0997666504e+00
 1.8314404916e+00	 7.0643422873e-01	 1.0104349688e+00
 1.8230056515e+00	 7.2792443872e-01	 9.1698851138e-01
 1.8142972954e+00	 7.4936567694e-01	 8.2106066090e-01
 1.7800652710e+00	 7.3522670190e-01	 8.5334972216e-01
 1.7712528003e+00	 7.5621041352e-01	 7.5370133732e-01
 1.7621719551e+00	 7.7713619956e-01	 6.5582413989e-01
 1.7528229020e+00	 7.9799908923e-01	 5.5865830348e-01
 1.7432059265e+00	 8.1879409500e-01	 4.6132963444e-01
 1.7333214344e+00	 8.3951621610e-01	 3.6310503513e-01
 1.7869116759e+00	 7.3805449691e-01	 8.4675492252e-01
 1.7780653111e+00	 7.5911891511e-01	 7.4805083555e-01
 1.7689495396e+00	 7.8012518494e-01	 6.5027777025e-01
 1.7595645285e+00	 8.0106831649e-01	 5.5275709655e-01
 1.7499105647e+00	 8.2194330306e-01	 4.5499800401e-01
 1.7399880553e+00	 8.4274512462e-01	 3.5664988495e-01
 1.7937580808e+00	 7.4088229192e-01	 8.3992406150e-01
 1.7848778219e+00	 7.6202741670e-01	 7.4198919810e-01
 1.7757271240e+00	 7.8311417032e-01	 6.4431169581e-01
 1.7663061551e+00	 8.0413754376e-01	 5.4651759608e-01
 1.7566152028e+00	 8.2509251112e-01	 4.4841941846e-01
 1.7466546762e+00	 8.4597403314e-01	 3.4997067234e-01
 1.8006044856e+00	 7.4371008693e-01	 8.3316988588e-01
 1.7916903326e+00	 7.6493591829e-01	 7.3577113060e-01
 1.7825047085e+00	 7.8610315571e-01	 6.3814243538e-01
 1.7730477816e+00	 8.0720677103e-01	 5.4013082946e-01
 1.7633198410e+00	 8.2824171918e-01	 4.4177293122e-01
 1.7533212971e+00	 8.4920294167e-01	 3.4324881671e-01
 1.8074508905e+00	 7.4653788193e-01	 8.2678593546e-01
 1.7985028434e+00	 7.6784441988e-01	 7.2964396526e-01
 1.7892822929e+00	 7.8909214109e-01	 6.3197982042e-01
 1.7797894082e+00	 8.1027599829e-01	 5.3378162060e-01
 1.7700244792e+00	 8.3139092724e-01	 4.3523165834e-01
 1.7599879180e+00	 8.5243185019e-01	 3.3665983295e-01
 1.8142972954e+00	 7.4936567694e-01	 8.2106066090e-01
 1.8053153542e+00	 7.7075292147e-01	 7.2384782739e-01
 1.7960598774e+00	 7.9208112647e-01	 6.2602715565e-01
 1.7865310347e+00	 8.1334522556e-01	 5.2764874817e-01
 1.7767291174e+00	 8.3454013529e-01	 4.2896293788e-01
 1.7666545389e+00	 8.5566075871e-01	 3.3037349580e-01
 1.7333214344e+00	 8.3951621610e-01	 3.6310503513e-01
 1.7231699528e+00	 8.6016044196e-01	 2.6162085515e-01
 1.7127521306e+00	 8.8072175591e-01	 1.5670746816e-01
 1.7020687395e+00	 9.0119513871e-01	 5.0934393031e-02
 1.6911206748e+00	 9.2157557229e-01	-5.3284572256e-02
 1.6799089553e+00	 9.4185804346e-01	-1.5378728876e-01
 1.7399880553e+00	 8.4274512462e-01	 3.5664988495e-01
 1.7297975295e+00	 8.6346875136e-01	 2.5551246452e-01
 1.7193396388e+00	 8.8410914728e-01	 1.5120950186e-01
 1.7086151578e+00	 9.0466127386e-01	 4.6145837027e-02
 1.6976249851e+00	 9.2512009372e-01	-5.7417562787e-02
 1.6863701436e+00	 9.4548057439e-01	-1.5746032546e-01
 1.7466546762e+00	 8.4597403314e-01	 3.4997067234e-01
 1.7364251063e+00	 8.6677706075e-01	 2.4913729959e-01
 1.7259271470e+00	 8.8749653865e-01	 1.4540135347e-01
 1.7151615760e+00	 9.0812740901e-01	 4.1018572588e-02
 1.7041292954e+00	 9.2866461515e-01	-6.1888079084e-02
 1.6928313319e+00	 9.4910310533e-01	-1.6142596716e-01
 1.7533212971e+00	 8.4920294167e-01	 3.4324881671e-01
 1.7430526830e+00	 8.7008537014e-01	 2.4268225573e-01
 1.7325146552e+00	 8.9088393002e-01	 1.3946655348e-01
 1.7217079942e+00	 9.1159354416e-01	 3.5723680574e-02
 1.7106336057e+00	 9.3220913659e-01	-6.6546797777e-02
 1.6992925202e+00	 9.5272563627e-01	-1.6556615750e-01
 1.7599879180e+00	 8.5243185019e-01	 3.3665983295e-01
 1.7496802598e+00	 8.7339367953e-01	 2.3632829091e-01
 1.7391021634e+00	 8.9427132139e-01	 1.3358277494e-01
 1.7282544125e+00	 9.1505967930e-01	 3.0426578989e-02
 1.7171379159e+00	 9.3575365802e-01	-7.1249747474e-02
 1.7057537085e+00	 9.5634816720e-01	-1.6976776317e-01
 1.7666545389e+00	 8.5566075871e-01	 3.3037349580e-01
 1.7563078365e+00	 8.7670198893e-01	 2.3025059561e-01
 1.7456896716e+00	 8.9765871275e-01	 1.2792200633e-01
 1.7348008307e+00	 9.1852581445e-01	 2.5287195886e-02
 1.7236422262e+00	 9.3929817945e-01	-7.5858138702e-02
 1.7122148968e+00	 9.5997069814e-01	-1.7392240969e-01
 1.6799089553e+00	 9.4185804346e-01	-1.5378728876e-01
 1.6684347243e+00	 9.6203754764e-01	-2.5049266863e-01
 1.6566992492e+00	 9.8210909267e-01	-3.4473571617e-01
 1.6447039222e+00	 1.0020677026e+00	-4.3714749047e-01
 1.6324502596e+00	 1.0219084215e+00	-5.2901808653e-01
 1.6199399022e+00	 1.0416263175e+00	-6.2242907982e-01
 1.6863701436e+00	 9.4548057439e-01	-1.5746032546e-01
 1.6748517809e+00	 9.6573769205e-01	-2.5381048677e-01
 1.6630711694e+00	 9.8588643533e-01	-3.4758210543e-01
 1.6510297065e+00	 1.0059218092e+00	-4.3934491205e-01
 1.6387289145e+00	 1.0258388386e+00	-5.3032914360e-01
 1.6261704403e+00	 1.0456325726e+00	-6.2256051844e-01
 1.6928313319e+00	 9.4910310533e-01	-1.6142596716e-01
 1.6812688375e+00	 9.6943783647e-01	-2.5734149570e-01
 1.6694430896e+00	 9.8966377799e-01	-3.5055591084e-01
 1.6573554908e+00	 1.0097759157e+00	-4.4159072807e-01
 1.6450075693e+00	 1.0297692556e+00	-5.3162698930e-01
 1.6324009784e+00	 1.0496388276e+00	-6.2264274724e-01
 1.6992925202e+00	 9.5272563627e-01	-1.6556615750e-01
 1.6876858941e+00	 9.7313798088e-01	-2.6099706428e-01
 1.6758150098e+00	 9.9344112066e-01	-3.5358447419e-01
 1.6636812751e+00	 1.0136300222e+00	-4.4381459927e-01
 1.6512862242e+00	 1.0336996726e+00	-5.3282975049e-01
 1.6386315165e+00	 1.0536450827e+00	-6.2256831082e-01
 1.7057537085e+00	 9.5634816720e-01	-1.6976776317e-01
 1.6941029508e+00	 9.7683812529e-01	-2.6469311038e-01
 1.6821869299e+00	 9.9721846332e-01	-3.5659954361e-01
 1.6700070594e+00	 1.0174841288e+00	-4.4595068463e-01
 1.6575648790e+00	 1.0376300896e+00	-5.3386038155e-01
 1.6448620546e+00	 1.0576513378e+00	-6.2223515027e-01
 1.7122148968e+00	 9.5997069814e-01	-1.7392240969e-01
 1.7005200074e+00	 9.8053826971e-01	-2.6834994220e-01
 1.6885588501e+00	 1.0009958060e+00	-3.5953711680e-01
 1.6763328437e+00	 1.0213382353e+00	-4.4793748295e-01
 1.6638435338e+00	 1.0415605066e+00	-5.3464650057e-01
 1.6510925927e+00	 1.0616575928e+00	-6.2154643027e-01
 1.6199399022e+00	 1.0416263175e+00	-6.2242907982e-01
 1.6071746146e+00	 1.0612164861e+00	-7.1396767772e-01
 1.5941562845e+00	 1.0806740548e+00	-8.0006429633e-01
 1.5808869228e+00	 1.0999941861e+00	-8.8429415352e-01
 1.5673686620e+00	 1.1191720821e+00	-9.7046675398e-01
 1.5536037560e+00	 1.1382029879e+00	-1.0517605671e+00
 1.6261704403e+00	 1.0456325726e+00	-6.2256051844e-01
 1.6133560554e+00	 1.0652980880e+00	-7.1306656863e-01
 1.6002876549e+00	 1.0848304934e+00	-7.9878226123e-01
 1.5869672571e+00	 1.1042249330e+00	-8.8333828849e-01
 1.5733970030e+00	 1.1234765902e+00	-9.6900533863e-01
 1.5595791550e+00	 1.1425806917e+00	-1.0488065622e+00
 1.6324009784e+00	 1.0496388276e+00	-6.2264274724e-01
 1.6195374962e+00	 1.0693796899e+00	-7.1211454291e-01
 1.6064190252e+00	 1.0889869321e+00	-7.9747610480e-01
 1.5930475914e+00	 1.1084556799e+00	-8.8239926453e-01
 1.5794253440e+00	 1.1277810982e+00	-9.6708866424e-01
 1.5655545541e+00	 1.1469583955e+00	-1.0456055210e+00
 1.6386315165e+00	 1.0536450827e+00	-6.2256831082e-01
 1.6257189370e+00	 1.0734612917e+00	-7.1097686725e-01
 1.6125503955e+00	 1.0931433708e+00	-7.9599464364e-01
 1.5991279257e+00	 1.1126864267e+00	-8.8128534289e-01
 1.5854536850e+00	 1.1320856062e+00	-9.6465449065e-01
 1.5715299532e+00	 1.1513360993e+00	-1.0421119309e+00
 1.6448620546e+00	 1.0576513378e+00	-6.2223515027e-01
 1.6319003779e+00	 1.0775428936e+00	-7.0952482539e-01
 1.6186817658e+00	 1.0972998095e+00	-7.9419319231e-01
 1.6052082601e+00	 1.1169171736e+00	-8.7950130929e-01
 1.5914820261e+00	 1.1363901142e+00	-9.6164132296e-01
 1.5775053522e+00	 1.1557138031e+00	-1.0382808578e+00
 1.6510925927e+00	 1.0616575928e+00	-6.2154643027e-01
 1.6380818187e+00	 1.0816244955e+00	-7.0763553590e-01
 1.6248131362e+00	 1.1014562481e+00	-7.9193337533e-01
 1.6112885944e+00	 1.1211479205e+00	-8.7687594681e-01
 1.5975103671e+00	 1.1406946222e+00	-9.5798839721e-01
 1.5834807513e+00	 1.1600915069e+00	-1.0340679337e+00
 1.5536037560e+00	 1.1382029879e+00	-1.0517605671e+00
 1.5395945784e+00	 1.1570821951e+00	-1.1274716766e+00
 1.5253436219e+00	 1.1758050464e+00	-1.2004213981e+00
 1.5108534966e+00	 1.1943669386e+00	-1.2725536133e+00
 1.4961269285e+00	 1.2127633264e+00	-1.3459388666e+00
 1.4811667582e+00	 1.2309897264e+00	-1.4227338061e+00
 1.5595791550e+00	 1.1425806917e+00	-1.0488065622e+00
 1.5455160960e+00	 1.1615325113e+00	-1.1236948819e+00
 1.5312103282e+00	 1.1803273735e+00	-1.1965822719e+00
 1.5166644716e+00	 1.1989606576e+00	-1.2690508263e+00
 1.5018812629e+00	 1.2174278007e+00	-1.3427836029e+00
 1.4868635534e+00	 1.2357243023e+00	-1.4195248448e+00
 1.5655545541e+00	 1.1469583955e+00	-1.0456055210e+00
 1.5514376136e+00	 1.1659828274e+00	-1.1198112140e+00
 1.5370770344e+00	 1.1848497006e+00	-1.1926492756e+00
 1.5224754466e+00	 1.2035543766e+00	-1.2653810807e+00
 1.5076355972e+00	 1.2220922751e+00	-1.3393425032e+00
 1.4925603487e+00	 1.2404588781e+00	-1.4159037702e+00
 1.5715299532e+00	 1.1513360993e+00	-1.0421119309e+00
 1.5573591312e+00	 1.1704331435e+00	-1.1157951175e+00
 1.5429437406e+00	 1.1893720277e+00	-1.1886118116e+00
 1.5282864216e+00	 1.2081480956e+00	-1.2615432671e+00
 1.5133899316e+00	 1.2267567494e+00	-1.3356180145e+00
 1.4982571439e+00	 1.2451934540e+00	-1.4118712329e+00
 1.5775053522e+00	 1.1557138031e+00	-1.0382808578e+00
 1.5632806489e+00	 1.1748834597e+00	-1.1116213959e+00
 1.5488104469e+00	 1.1938943548e+00	-1.1844594938e+00
 1.5340973966e+00	 1.2127418146e+00	-1.2575364200e+00
 1.5191442659e+00	 1.2314212237e+00	-1.3316127487e+00
 1.5039539391e+00	 1.2499280299e+00	-1.4074271317e+00
 1.5834807513e+00	 1.1600915069e+00	-1.0340679337e+00
 1.5692021665e+00	 1.1793337758e+00	-1.1072652009e+00
 1.5546771531e+00	 1.1984166819e+00	-1.1801821368e+00
 1.5399083715e+00	 1.2173355335e+00	-1.2533597066e+00
 1.5248986002e+00	 1.2360856981e+00	-1.3273294676e+00
 1.5096507343e+00	 1.2546626057e+00	-1.4025716274e+00
 1.4811667582e+00	 1.2309897264e+00	-1.4227338061e+00
 1.4659759388e+00	 1.2490417202e+00	-1.4951386906e+00
 1.4505575343e+00	 1.2669149584e+00	-1.5569912703e+00
 1.4349147173e+00	 1.2846051636e+00	-1.6113494793e+00
 1.4190507671e+00	 1.3021081340e+00	-1.6597368616e+00
 1.4029690674e+00	 1.3194197468e+00	-1.7024183030e+00
 1.4868635534e+00	 1.2357243023e+00	-1.4195248448e+00
 1.4716143078e+00	 1.2538457269e+00	-1.4924505591e+00
 1.4561366017e+00	 1.2717877083e+00	-1.5543242745e+00
 1.4404336200e+00	 1.2895459527e+00	-1.6083754459e+00
 1.4245086546e+00	 1.3071162422e+00	-1.6565456342e+00
 1.4083651022e+00	 1.3244944381e+00	-1.6994932809e+00
 1.4925603487e+00	 1.2404588781e+00	-1.4159037702e+00
 1.4772526768e+00	 1.2586497335e+00	-1.4887639454e+00
 1.4617156692e+00	 1.2766604581e+00	-1.5508203822e+00
 1.4459525228e+00	 1.2944867418e+00	-1.6048627625e+00
 1.4299665422e+00	 1.3121243504e+00	-1.6531570819e+00
 1.4137611371e+00	 1.3295691294e+00	-1.6966611108e+00
 1.4982571439e+00	 1.2451934540e+00	-1.4118712329e+00
 1.4828910458e+00	 1.2634537401e+00	-1.4842258664e+00
 1.4672947366e+00	 1.2815332079e+00	-1.5465934889e+00
 1.4514714255e+00	 1.2994275309e+00	-1.6009077835e+00
 1.4354244298e+00	 1.3171324586e+00	-1.6496553836e+00
 1.4191571720e+00	 1.3346438208e+00	-1.6939999619e+00
 1.5039539391e+00	 1.2499280299e+00	-1.4074271317e+00
 1.4885294148e+00	 1.2682577467e+00	-1.4791781331e+00
 1.4728738040e+00	 1.2864059578e+00	-1.5417573068e+00
 1.4569903283e+00	 1.3043683200e+00	-1.5966072123e+00
 1.4408823173e+00	 1.3221405668e+00	-1.6461255981e+00
 1.4245532069e+00	 1.3397185121e+00	-1.6915893929e+00
 1.5096507343e+00	 1.2546626057e+00	-1.4025716274e+00
 1.4941677838e+00	 1.2730617533e+00	-1.4737281761e+00
 1.4784528715e+00	 1.2912787076e+00	-1.5364249821e+00
 1.4625092311e+00	 1.3093091090e+00	-1.5920577274e+00
 1.4463402049e+00	 1.3271486750e+00	-1.6426533009e+00
 1.4299492417e+00	 1.3447932034e+00	-1.6895099994e+00
 1.4029690674e+00	 1.3194197468e+00	-1.7024183030e+00
 1.3866731037e+00	 1.3365359612e+00	-1.7455673449e+00
 1.3701664612e+00	 1.3534528217e+00	-1.7922008136e+00
 1.3534528217e+00	 1.3701664612e+00	-1.8367540560e+00
 1.3365359612e+00	 1.3866731037e+00	-1.8735007272e+00
 1.3194197468e+00	 1.4029690674e+00	-1.8968972394e+00
 1.4083651022e+00	 1.3244944381e+00	-1.6994932809e+00
 1.3920064618e+00	 1.3416764841e+00	-1.7431760761e+00
 1.3754363322e+00	 1.3586584095e+00	-1.7901987979e+00
 1.3586584095e+00	 1.3754363322e+00	-1.8350742780e+00
 1.3416764841e+00	 1.3920064618e+00	-1.8721504809e+00
 1.3244944381e+00	 1.4083651022e+00	-1.8959640502e+00
 1.4137611371e+00	 1.3295691294e+00	-1.6966611108e+00
 1.3973398199e+00	 1.3468170070e+00	-1.7410145095e+00
 1.3807062032e+00	 1.3638639973e+00	-1.7884230551e+00
 1.3638639973e+00	 1.3807062032e+00	-1.8335550598e+00
 1.3468170070e+00	 1.3973398199e+00	-1.8709103289e+00
 1.3295691294e+00	 1.4137611371e+00	-1.8951828291e+00
 1.4191571720e+00	 1.3346438208e+00	-1.6939999619e+00
 1.4026731780e+00	 1.3519575300e+00	-1.7391591190e+00
 1.3859760743e+00	 1.3690695851e+00	-1.7869494842e+00
 1.3690695851e+00	 1.3859760743e+00	-1.8322716051e+00
 1.3519575300e+00	 1.4026731780e+00	-1.8698534055e+00
 1.3346438208e+00	 1.4191571720e+00	-1.8946220087e+00
 1.4245532069e+00	 1.3397185121e+00	-1.6915893929e+00
 1.4080065361e+00	 1.3570980529e+00	-1.7376882726e+00
 1.3912459453e+00	 1.3742751728e+00	-1.7858564188e+00
 1.3742751728e+00	 1.3912459453e+00	-1.8313021351e+00
 1.3570980529e+00	 1.4080065361e+00	-1.8690564970e+00
 1.3397185121e+00	 1.4245532069e+00	-1.8943543669e+00
 1.4299492417e+00	 1.3447932034e+00	-1.6895099994e+00
 1.4133398942e+00	 1.3622385758e+00	-1.7366818947e+00
 1.3965158163e+00	 1.3794807606e+00	-1.7852243031e+00
 1.3794807606e+00	 1.3965158163e+00	-1.8307275791e+00
 1.3622385758e+00	 1.4133398942e+00	-1.8685997466e+00
 1.3447932034e+00	 1.4299492417e+00	-1.8944567459e+00
 1.3194197468e+00	 1.4029690674e+00	-1.8968972394e+00
 1.3021081340e+00	 1.4190507671e+00	-1.9124910613e+00
 1.2846051636e+00	 1.4349147173e+00	-1.9276105417e+00
 1.2669149584e+00	 1.4505575343e+00	-1.9405540438e+00
 1.2490417202e+00	 1.4659759388e+00	-1.9509796743e+00
 1.2309897264e+00	 1.4811667582e+00	-1.9602170338e+00
 1.3244944381e+00	 1.4083651022e+00	-1.8959640502e+00
 1.3071162422e+00	 1.4245086546e+00	-1.9116107050e+00
 1.2895459527e+00	 1.4404336200e+00	-1.9260430902e+00
 1.2717877083e+00	 1.4561366017e+00	-1.9377632054e+00
 1.2538457269e+00	 1.4716143078e+00	-1.9466389531e+00
 1.2357243023e+00	 1.4868635534e+00	-1.9546963193e+00
 1.3295691294e+00	 1.4137611371e+00	-1.8951828291e+00
 1.3121243504e+00	 1.4299665422e+00	-1.9109602891e+00
 1.2944867418e+00	 1.4459525228e+00	-1.9246820196e+00
 1.2766604581e+00	 1.4617156692e+00	-1.9350087292e+00
 1.2586497335e+00	 1.4772526768e+00	-1.9419739325e+00
 1.2404588781e+00	 1.4925603487e+00	-1.9494231763e+00
 1.3346438208e+00	 1.4191571720e+00	-1.8946220087e+00
 1.3171324586e+00	 1.4354244298e+00	-1.9106016356e+00
 1.2994275309e+00	 1.4514714255e+00	-1.9235822852e+00
 1.2815332079e+00	 1.4672947366e+00	-1.9323385834e+00
 1.2634537401e+00	 1.4828910458e+00	-1.9370649812e+00
 1.2451934540e+00	 1.4982571439e+00	-1.9445978606e+00
 1.3397185121e+00	 1.4245532069e+00	-1.8943543669e+00
 1.3221405668e+00	 1.4408823173e+00	-1.9106016422e+00
 1.3043683200e+00	 1.4569903283e+00	-1.9228046487e+00
 1.2864059578e+00	 1.4728738040e+00	-1.9298072593e+00
 1.2682577467e+00	 1.4885294148e+00	-1.9328589916e+00
 1.2499280299e+00	 1.5039539391e+00	-1.9404123502e+00
 1.3447932034e+00	 1.4299492417e+00	-1.8944567459e+00
 1.3271486750e+00	 1.4463402049e+00	-1.9110320144e+00
 1.3093091090e+00	 1.4625092311e+00	-1.9224154240e+00
 1.2912787076e+00	 1.4784528715e+00	-1.9274755328e+00
 1.2730617533e+00	 1.4941677838e+00	-1.9298731164e+00
 1.2546626057e+00	 1.5096507343e+00	-1.9370519750e+00
 1.2309897264e+00	 1.4811667582e+00	-1.9602170338e+00
 1.2127633264e+00	 1.4961269285e+00	-1.9656782174e+00
 1.1943669386e+00	 1.5108534966e+00	-1.9639990931e+00
 1.1758050464e+00	 1.5253436219e+00	-1.9562428428e+00
 1.1570821951e+00	 1.5395945784e+00	-1.9433062956e+00
 1.1382029879e+00	 1.5536037560e+00	-1.9258917016e+00
 1.2357243023e+00	 1.4868635534e+00	-1.9546963193e+00
 1.2174278007e+00	 1.5018812629e+00	-1.9610691807e+00
 1.1989606576e+00	 1.5166644716e+00	-1.9598599571e+00
 1.1803273735e+00	 1.5312103282e+00	-1.9520609731e+00
 1.1615325113e+00	 1.5455160960e+00	-1.9385324085e+00
 1.1425806917e+00	 1.5595791550e+00	-1.9199716257e+00
 1.2404588781e+00	 1.4925603487e+00	-1.9494231763e+00
 1.2220922751e+00	 1.5076355972e+00	-1.9562591091e+00
 1.2035543766e+00	 1.5224754466e+00	-1.9552359742e+00
 1.1848497006e+00	 1.5370770344e+00	-1.9472708808e+00
 1.1659828274e+00	 1.5514376136e+00	-1.9331818947e+00
 1.1469583955e+00	 1.5655545541e+00	-1.9136564259e+00
 1.2451934540e+00	 1.4982571439e+00	-1.9445978606e+00
 1.2267567494e+00	 1.5133899316e+00	-1.9514591924e+00
 1.2081480956e+00	 1.5282864216e+00	-1.9503529647e+00
 1.1893720277e+00	 1.5429437406e+00	-1.9421152597e+00
 1.1704331435e+00	 1.5573591312e+00	-1.9275166291e+00
 1.1513360993e+00	 1.5715299532e+00	-1.9072295253e+00
 1.2499280299e+00	 1.5039539391e+00	-1.9404123502e+00
 1.2314212237e+00	 1.5191442659e+00	-1.9468737801e+00
 1.2127418146e+00	 1.5340973966e+00	-1.9454297934e+00
 1.1938943548e+00	 1.5488104469e+00	-1.9368297024e+00
 1.1748834597e+00	 1.5632806489e+00	-1.9217912078e+00
 1.1557138031e+00	 1.5775053522e+00	-1.9009668604e+00
 1.2546626057e+00	 1.5096507343e+00	-1.9370519750e+00
 1.2360856981e+00	 1.5248986002e+00	-1.9427004879e+00
 1.2173355335e+00	 1.5399083715e+00	-1.9406784758e+00
 1.1984166819e+00	 1.5546771531e+00	-1.9316428049e+00
 1.1793337758e+00	 1.5692021665e+00	-1.9162530536e+00
 1.1600915069e+00	 1.5834807513e+00	-1.8951369872e+00
 1.1382029879e+00	 1.5536037560e+00	-1.9258917016e+00
 1.1191720821e+00	 1.5673686620e+00	-1.9076143089e+00
 1.0999941861e+00	 1.5808869228e+00	-1.8897227146e+00
 1.0806740548e+00	 1.5941562845e+00	-1.8659283853e+00
 1.0612164861e+00	 1.6071746146e+00	-1.8388899544e+00
 1.0416263175e+00	 1.6199399022e+00	-1.8110594533e+00
 1.1425806917e+00	 1.5595791550e+00	-1.9199716257e+00
 1.1234765902e+00	 1.5733970030e+00	-1.9003008619e+00
 1.1042249330e+00	 1.5869672571e+00	-1.8821812315e+00
 1.0848304934e+00	 1.6002876549e+00	-1.8589115617e+00
 1.0652980880e+00	 1.6133560554e+00	-1.8317407562e+00
 1.0456325726e+00	 1.6261704403e+00	-1.8031677312e+00
 1.1469583955e+00	 1.5655545541e+00	-1.9136564259e+00
 1.1277810982e+00	 1.5794253440e+00	-1.8927887595e+00
 1.1084556799e+00	 1.5930475914e+00	-1.8740058185e+00
 1.0889869321e+00	 1.6064190252e+00	-1.8513522362e+00
 1.0693796899e+00	 1.6195374962e+00	-1.8240933630e+00
 1.0496388276e+00	 1.6324009784e+00	-1.7947878133e+00
 1.1513360993e+00	 1.5715299532e+00	-1.9072295253e+00
 1.1320856062e+00	 1.5854536850e+00	-1.8853786729e+00
 1.1126864267e+00	 1.5991279257e+00	-1.8655514648e+00
 1.0931433708e+00	 1.6125503955e+00	-1.8435531598e+00
 1.0734612917e+00	 1.6257189370e+00	-1.8162217192e+00
 1.0536450827e+00	 1.6386315165e+00	-1.7861531230e+00
 1.1557138031e+00	 1.5775053522e+00	-1.9009668604e+00
 1.1363901142e+00	 1.5914820261e+00	-1.8783636504e+00
 1.1169171736e+00	 1.6052082601e+00	-1.8574968138e+00
 1.0972998095e+00	 1.6186817658e+00	-1.8358128312e+00
 1.0775428936e+00	 1.6319003779e+00	-1.8083962358e+00
 1.0576513378e+00	 1.6448620546e+00	-1.7774944499e+00
 1.1600915069e+00	 1.5834807513e+00	-1.8951369872e+00
 1.1406946222e+00	 1.5975103671e+00	-1.8720292223e+00
 1.1211479205e+00	 1.6112885944e+00	-1.8502336667e+00
 1.1014562481e+00	 1.6248131362e+00	-1.8284253864e+00
 1.0816244955e+00	 1.6380818187e+00	-1.8008836789e+00
 1.0616575928e+00	 1.6510925927e+00	-1.7690398340e+00
 1.0416263175e+00	 1.6199399022e+00	-1.8110594533e+00
 1.0219084215e+00	 1.6324502596e+00	-1.7784312434e+00
 1.0020677026e+00	 1.6447039222e+00	-1.7383239062e+00
 9.8210909267e-01	 1.6566992492e+00	-1.6936613407e+00
 9.6203754764e-01	 1.6684347243e+00	-1.6466608555e+00
 9.4185804346e-01	 1.6799089553e+00	-1.5989458231e+00
 1.0456325726e+00	 1.6261704403e+00	-1.8031677312e+00
 1.0258388386e+00	 1.6387289145e+00	-1.7696588038e+00
 1.0059218092e+00	 1.6510297065e+00	-1.7289652414e+00
 9.8588643533e-01	 1.6630711694e+00	-1.6839722241e+00
 9.6573769205e-01	 1.6748517809e+00	-1.6368488426e+00
 9.4548057439e-01	 1.6863701436e+00	-1.5891635627e+00
 1.0496388276e+00	 1.6324009784e+00	-1.7947878133e+00
 1.0297692556e+00	 1.6450075693e+00	-1.7604021352e+00
 1.0097759157e+00	 1.6573554908e+00	-1.7191324355e+00
 9.8966377799e-01	 1.6694430896e+00	-1.6738144818e+00
 9.6943783647e-01	 1.6812688375e+00	-1.6265613899e+00
 9.4910310533e-01	 1.6928313319e+00	-1.5788819381e+00
 1.0536450827e+00	 1.6386315165e+00	-1.7861531230e+00
 1.0336996726e+00	 1.6512862242e+00	-1.7508570639e+00
 1.0136300222e+00	 1.6636812751e+00	-1.7090014441e+00
 9.9344112066e-01	 1.6758150098e+00	-1.6633618772e+00
 9.7313798088e-01	 1.6876858941e+00	-1.6159876857e+00
 9.5272563627e-01	 1.6992925202e+00	-1.5683231045e+00
 1.0576513378e+00	 1.6448620546e+00	-1.7774944499e+00
 1.0376300896e+00	 1.6575648790e+00	-1.7412176370e+00
 1.0174841288e+00	 1.6700070594e+00	-1.6987470250e+00
 9.9721846332e-01	 1.6821869299e+00	-1.6527872814e+00
 9.7683812529e-01	 1.6941029508e+00	-1.6053160521e+00
 9.5634816720e-01	 1.7057537085e+00	-1.5577080960e+00
 1.0616575928e+00	 1.6510925927e+00	-1.7690398340e+00
 1.0415605066e+00	 1.6638435338e+00	-1.7316760025e+00
 1.0213382353e+00	 1.6763328437e+00	-1.6885426196e+00
 1.0009958060e+00	 1.6885588501e+00	-1.6422625600e+00
 9.8053826971e-01	 1.7005200074e+00	-1.5947338430e+00
 9.5997069814e-01	 1.7122148968e+00	-1.5472567405e+00
 9.4185804346e-01	 1.6799089553e+00	-1.5989458231e+00
 9.2157557229e-01	 1.6911206748e+00	-1.5515391330e+00
 9.0119513871e-01	 1.7020687395e+00	-1.5040521580e+00
 8.8072175591e-01	 1.7127521306e+00	-1.4553744997e+00
 8.6016044196e-01	 1.7231699528e+00	-1.4041555799e+00
 8.3951621610e-01	 1.7333214344e+00	-1.3488928794e+00
 9.4548057439e-01	 1.6863701436e+00	-1.5891635627e+00
 9.2512009372e-01	 1.6976249851e+00	-1.5417055630e+00
 9.0466127386e-01	 1.7086151578e+00	-1.4939260184e+00
 8.8410914728e-01	 1.7193396388e+00	-1.4447756489e+00
 8.6346875136e-01	 1.7297975295e+00	-1.3929785083e+00
 8.4274512462e-01	 1.7399880553e+00	-1.3371216349e+00
 9.4910310533e-01	 1.6928313319e+00	-1.5788819381e+00
 9.2866461515e-01	 1.7041292954e+00	-1.5313609388e+00
 9.0812740901e-01	 1.7151615760e+00	-1.4833186204e+00
 8.8749653865e-01	 1.7259271470e+00	-1.4337624341e+00
 8.6677706075e-01	 1.7364251063e+00	-1.3814844557e+00
 8.4597403314e-01	 1.7466546762e+00	-1.3251525253e+00
 9.5272563627e-01	 1.6992925202e+00	-1.5683231045e+00
 9.3220913659e-01	 1.7106336057e+00	-1.5207600098e+00
 9.1159354416e-01	 1.7217079942e+00	-1.4724990738e+00
 8.9088393002e-01	 1.7325146552e+00	-1.4226001114e+00
 8.7008537014e-01	 1.7430526830e+00	-1.3699166604e+00
 8.4920294167e-01	 1.7533212971e+00	-1.3131886888e+00
 9.5634816720e-01	 1.7057537085e+00	-1.5577080960e+00
 9.3575365802e-01	 1.7171379159e+00	-1.5101561376e+00
 9.1505967930e-01	 1.7282544125e+00	-1.4617350894e+00
 8.9427132139e-01	 1.7391021634e+00	-1.4115527796e+00
 8.7339367953e-01	 1.7496802598e+00	-1.3585176956e+00
 8.5243185019e-01	 1.7599879180e+00	-1.3014333380e+00
 9.5997069814e-01	 1.7122148968e+00	-1.5472567405e+00
 9.3929817945e-01	 1.7236422262e+00	-1.4998012265e+00
 9.1852581445e-01	 1.7348008307e+00	-1.4512929203e+00
 8.9765871275e-01	 1.7456896716e+00	-1.4008833270e+00
 8.7670198893e-01	 1.7563078365e+00	-1.3475294159e+00
 8.5566075871e-01	 1.7666545389e+00	-1.2900897014e+00
 8.3951621610e-01	 1.7333214344e+00	-1.3488928794e+00
 8.1879409500e-01	 1.7432059265e+00	-1.2910988194e+00
 7.9799908923e-01	 1.7528229020e+00	-1.2338496997e+00
 7.7713619956e-01	 1.7621719551e+00	-1.1780364536e+00
 7.5621041352e-01	 1.7712528003e+00	-1.1247390598e+00
 7.3522670190e-01	 1.7800652710e+00	-1.0754667497e+00
 8.4274512462e-01	 1.7399880553e+00	-1.3371216349e+00
 8.2194330306e-01	 1.7499105647e+00	-1.2790393578e+00
 8.0106831649e-01	 1.7595645285e+00	-1.2218883318e+00
 7.8012518494e-01	 1.7689495396e+00	-1.1662908181e+00
 7.5911891511e-01	 1.7780653111e+00	-1.1130490153e+00
 7.3805449691e-01	 1.7869116759e+00	-1.0632385450e+00
 8.4597403314e-01	 1.7466546762e+00	-1.3251525253e+00
 8.2509251112e-01	 1.7566152028e+00	-1.2668264052e+00
 8.0413754376e-01	 1.7663061551e+00	-1.2096934708e+00
 7.8311417032e-01	 1.7757271240e+00	-1.1541706672e+00
 7.6202741670e-01	 1.7848778219e+00	-1.1008501683e+00
 7.4088229192e-01	 1.7937580808e+00	-1.0505442219e+00
 8.4920294167e-01	 1.7533212971e+00	-1.3131886888e+00
 8.2824171918e-01	 1.7633198410e+00	-1.2546296222e+00
 8.0720677103e-01	 1.7730477816e+00	-1.1974320498e+00
 7.8610315571e-01	 1.7825047085e+00	-1.1418701839e+00
 7.6493591829e-01	 1.7916903326e+00	-1.0883931386e+00
 7.4371008693e-01	 1.8006044856e+00	-1.0376708359e+00
 8.5243185019e-01	 1.7599879180e+00	-1.3014333380e+00
 8.3139092724e-01	 1.7700244792e+00	-1.2426193547e+00
 8.1027599829e-01	 1.7797894082e+00	-1.1852718038e+00
 7.8909214109e-01	 1.7892822929e+00	-1.1295839855e+00
 7.6784441988e-01	 1.7985028434e+00	-1.0759281412e+00
 7.4653788193e-01	 1.8074508905e+00	-1.0249022225e+00
 8.5566075871e-01	 1.7666545389e+00	-1.2900897014e+00
 8.3454013529e-01	 1.7767291174e+00	-1.2309665726e+00
 8.1334522556e-01	 1.7865310347e+00	-1.1733812135e+00
 7.9208112647e-01	 1.7960598774e+00	-1.1175070821e+00
 7.7075292147e-01	 1.8053153542e+00	-1.0637049668e+00
 7.4936567694e-01	 1.8142972954e+00	-1.0125704238e+00
 7.3522670190e-01	 1.7800652710e+00	-1.0754667497e+00
 7.1419001535e-01	 1.7886093185e+00	-1.0286651425e+00
 6.9310528102e-01	 1.7968850107e+00	-9.7898681285e-01
 6.7197739933e-01	 1.8048925306e+00	-9.2642068690e-01
 6.5081124077e-01	 1.8126321748e+00	-8.7202440608e-01
 6.2961164279e-01	 1.8201043518e+00	-8.1793888391e-01
 7.3805449691e-01	 1.7869116759e+00	-1.0632385450e+00
 7.1693690002e-01	 1.7954885851e+00	-1.0154207794e+00
 6.9577107056e-01	 1.8037961069e+00	-9.6535010180e-01
 6.7456192779e-01	 1.8118344249e+00	-9.1293146319e-01
 6.5331436093e-01	 1.8196038370e+00	-8.5920580872e-01
 6.3203322603e-01	 1.8271047531e+00	-8.0636404869e-01
 7.4088229192e-01	 1.7937580808e+00	-1.0505442219e+00
 7.1968378470e-01	 1.8023678517e+00	-1.0017068279e+00
 6.9843686010e-01	 1.8107072031e+00	-9.5135546673e-01
 6.7714645625e-01	 1.8187763193e+00	-8.9908047372e-01
 6.5581748109e-01	 1.8265754992e+00	-8.4566816168e-01
 6.3445480928e-01	 1.8341051545e+00	-7.9311502532e-01
 7.4371008693e-01	 1.8006044856e+00	-1.0376708359e+00
 7.2243066937e-01	 1.8092471183e+00	-9.8793880544e-01
 7.0110264965e-01	 1.8176182993e+00	-9.3739434931e-01
 6.7973098471e-01	 1.8257182136e+00	-8.8515255610e-01
 6.5832060124e-01	 1.8335471614e+00	-8.3151007887e-01
 6.3687639252e-01	 1.8411055559e+00	-7.7802759729e-01
 7.4653788193e-01	 1.8074508905e+00	-1.0249022225e+00
 7.2517755405e-01	 1.8161263849e+00	-9.7452929608e-01
 7.0376843919e-01	 1.8245293955e+00	-9.2385672128e-01
 6.8231551317e-01	 1.8326601080e+00	-8.7143365326e-01
 6.6082372140e-01	 1.8405188236e+00	-8.1683491868e-01
 6.3929797576e-01	 1.8481059572e+00	-7.6094694787e-01
 7.4936567694e-01	 1.8142972954e+00	-1.0125704238e+00
 7.2792443872e-01	 1.8230056515e+00	-9.6188764614e-01
 7.0643422873e-01	 1.8314404916e+00	-9.1113079977e-01
 6.8490004163e-01	 1.8396020023e+00	-8.5821052476e-01
 6.6332684156e-01	 1.8474904858e+00	-8.0175046885e-01
 6.4171955900e-01	 1.8551063586e+00	-7.4313688324e-01
 6.2961164279e-01	 1.8201043518e+00	-8.1793888391e-01
 6.0838340676e-01	 1.8273095804e+00	-7.6980198826e-01
 5.8713129506e-01	 1.8342484877e+00	-7.2770036261e-01
 5.6586002819e-01	 1.8409218073e+00	-6.8697809026e-01
 5.4457428203e-01	 1.8473303775e+00	-6.4389727701e-01
 5.2327868520e-01	 1.8534751387e+00	-5.9590023227e-01
 6.3203322603e-01	 1.8271047531e+00	-8.0636404869e-01
 6.1072334294e-01	 1.8343376941e+00	-7.5947903817e-01
 5.8938949235e-01	 1.8413032895e+00	-7.1777265511e-01
 5.6803641291e-01	 1.8480022758e+00	-6.7626100700e-01
 5.4666879850e-01	 1.8544354943e+00	-6.3177850961e-01
 5.2529129552e-01	 1.8606038892e+00	-5.8819772969e-01
 6.3445480928e-01	 1.8341051545e+00	-7.9311502532e-01
 6.1306327912e-01	 1.8413658079e+00	-7.4569940773e-01
 5.9164768964e-01	 1.8483580914e+00	-7.0196781718e-01
 5.7021279763e-01	 1.8550827443e+00	-6.5839618279e-01
 5.4876331497e-01	 1.8615406111e+00	-6.1916001920e-01
 5.2730390585e-01	 1.8677326398e+00	-5.8045942451e-01
 6.3687639252e-01	 1.8411055559e+00	-7.7802759729e-01
 6.1540321530e-01	 1.8483939217e+00	-7.2806279183e-01
 5.9390588692e-01	 1.8554128933e+00	-6.8148811609e-01
 5.7238918236e-01	 1.8621632128e+00	-6.4293791641e-01
 5.5085783144e-01	 1.8686457280e+00	-6.0843963222e-01
 5.2931651618e-01	 1.8748613903e+00	-5.7270755823e-01
 6.3929797576e-01	 1.8481059572e+00	-7.6094694787e-01
 6.1774315148e-01	 1.8554220355e+00	-7.0790098574e-01
 5.9616408421e-01	 1.8624676952e+00	-6.6592814864e-01
 5.7456556708e-01	 1.8692436813e+00	-6.3143373625e-01
 5.5295234791e-01	 1.8757508448e+00	-5.9935502573e-01
 5.3132912651e-01	 1.8819901408e+00	-5.6496150205e-01
 6.4171955900e-01	 1.8551063586e+00	-7.4313688324e-01
 6.2008308766e-01	 1.8624501492e+00	-6.9481305914e-01
 5.9842228150e-01	 1.8695224970e+00	-6.5645692154e-01
 5.7674195180e-01	 1.8763241498e+00	-6.2345542140e-01
 5.5504686438e-01	 1.8828559616e+00	-5.9164507927e-01
 5.3334173684e-01	 1.8891188914e+00	-5.5723778599e-01
 5.2327868520e-01	 1.8534751387e+00	-5.9590023227e-01
 5.0197781641e-01	 1.8593571319e+00	-5.4801298267e-01
 4.8067620208e-01	 1.8649774961e+00	-5.0331005804e-01
 4.5937831388e-01	 1.8703374660e+00	-4.6240923490e-01
 4.3808856651e-01	 1.8754383701e+00	-4.2592559969e-01
 4.1681131550e-01	 1.8802816277e+00	-3.9441529088e-01
 5.2529129552e-01	 1.8606038892e+00	-5.8819772969e-01
 5.0390850032e-01	 1.8665085055e+00	-5.4435806258e-01
 4.8252495670e-01	 1.8721504865e+00	-5.0135320863e-01
 4.6114515355e-01	 1.8775310717e+00	-4.6053600014e-01
 4.3977352254e-01	 1.8826515946e+00	-4.2327908930e-01
 4.1841443594e-01	 1.8875134801e+00	-3.9091697717e-01
 5.2730390585e-01	 1.8677326398e+00	-5.8045942451e-01
 5.0583918423e-01	 1.8736598791e+00	-5.3934085611e-01
 4.8437371133e-01	 1.8793234768e+00	-4.9756637061e-01
 4.6291199322e-01	 1.8847246773e+00	-4.5699306427e-01
 4.4145847856e-01	 1.8898648191e+00	-4.1950861532e-01
 4.2001755638e-01	 1.8947453325e+00	-3.8697239123e-01
 5.2931651618e-01	 1.8748613903e+00	-5.7270755823e-01
 5.0776986814e-01	 1.8808112527e+00	-5.3326939858e-01
 4.8622246595e-01	 1.8864964672e+00	-4.9243465089e-01
 4.6467883289e-01	 1.8919182830e+00	-4.5233678822e-01
 4.4314343459e-01	 1.8970780436e+00	-4.1513894922e-01
 4.2162067683e-01	 1.9019771849e+00	-3.8297491094e-01
 5.3132912651e-01	 1.8819901408e+00	-5.6496150205e-01
 5.0970055205e-01	 1.8879626262e+00	-5.2644476803e-01
 4.8807122057e-01	 1.8936694576e+00	-4.8643378428e-01
 4.6644567256e-01	 1.8991118886e+00	-4.4711337205e-01
 4.4482839061e-01	 1.9042912681e+00	-4.1068549126e-01
 4.2322379727e-01	 1.9092090373e+00	-3.7931086228e-01
 5.3334173684e-01	 1.8891188914e+00	-5.5723778599e-01
 5.1163123596e-01	 1.8951139998e+00	-5.1916118497e-01
 4.8991997520e-01	 1.9008424479e+00	-4.8003027328e-01
 4.6821251223e-01	 1.9063054942e+00	-4.4185900488e-01
 4.4651334664e-01	 1.9115044926e+00	-4.0665440176e-01
 4.2482691772e-01	 1.9164408898e+00	-3.7635960382e-01
 4.1681131550e-01	 1.8802816277e+00	-3.9441529088e-01
 3.9555085513e-01	 1.8848687469e+00	-3.6703017259e-01
 3.7431141651e-01	 1.8892013222e+00	-3.3563448242e-01
 3.5309716565e-01	 1.8932810314e+00	-2.9730091054e-01
 3.3191220173e-01	 1.8971096338e+00	-2.6327154507e-01
 3.1076055546e-01	 1.9006889670e+00	-2.3500058338e-01
 4.1841443594e-01	 1.8875134801e+00	-3.9091697717e-01
 3.9707220458e-01	 1.8921182421e+00	-3.6332628380e-01
 3.7575107580e-01	 1.8964674811e+00	-3.3295252821e-01
 3.5445523167e-01	 1.9005628815e+00	-2.9573539226e-01
 3.3318878712e-01	 1.9044062093e+00	-2.6228548283e-01
 3.1195578837e-01	 1.9079993092e+00	-2.3429764963e-01
 4.2001755638e-01	 1.8947453325e+00	-3.8697239123e-01
 3.9859355402e-01	 1.8993677373e+00	-3.5965818400e-01
 3.7719073510e-01	 1.9037336400e+00	-3.3044274551e-01
 3.5581329769e-01	 1.9078447316e+00	-2.9444775726e-01
 3.3446537251e-01	 1.9117027848e+00	-2.6149397021e-01
 3.1315102127e-01	 1.9153096514e+00	-2.3357059635e-01
 4.2162067683e-01	 1.9019771849e+00	-3.8297491094e-01
 4.0011490346e-01	 1.9066172325e+00	-3.5627346777e-01
 3.7863039439e-01	 1.9109997989e+00	-3.2827557549e-01
 3.5717136371e-01	 1.9151265817e+00	-2.9355929988e-01
 3.3574195790e-01	 1.9189993603e+00	-2.6105101851e-01
 3.1434625418e-01	 1.9226199936e+00	-2.3307161560e-01
 4.2322379727e-01	 1.9092090373e+00	-3.7931086228e-01
 4.0163625290e-01	 1.9138667277e+00	-3.5341522944e-01
 3.8007005369e-01	 1.9182659579e+00	-3.2661848179e-01
 3.5852942973e-01	 1.9224084319e+00	-2.9319232307e-01
 3.3701854330e-01	 1.9262959358e+00	-2.6111165744e-01
 3.1554148708e-01	 1.9299303357e+00	-2.3305278235e-01
 4.2482691772e-01	 1.9164408898e+00	-3.7635960382e-01
 4.0315760235e-01	 1.9211162228e+00	-3.5132209723e-01
 3.8150971298e-01	 1.9255321168e+00	-3.2563595461e-01
 3.5988749576e-01	 1.9296902820e+00	-2.9346999068e-01
 3.3829512869e-01	 1.9335925113e+00	-2.6183181621e-01
 3.1673671999e-01	 1.9372406779e+00	-2.3376598249e-01
 3.1076055546e-01	 1.9006889670e+00	-2.3500058338e-01
 2.8964618750e-01	 1.9040209448e+00	-2.1155444027e-01
 2.6857298702e-01	 1.9071075541e+00	-1.9196607488e-01
 2.4754477035e-01	 1.9099508525e+00	-1.7577899311e-01
 2.2656527974e-01	 1.9125529656e+00	-1.6196090152e-01
 2.0563818223e-01	 1.9149160844e+00	-1.4909959122e-01
 3.1195578837e-01	 1.9079993092e+00	-2.3429764963e-01
 2.9076021130e-01	 1.9113441023e+00	-2.1098625657e-01
 2.6960596004e-01	 1.9144425831e+00	-1.9150460106e-01
 2.4849686562e-01	 1.9172968173e+00	-1.7536146213e-01
 2.2743668466e-01	 1.9199089385e+00	-1.6148660065e-01
 2.0642909831e-01	 1.9222811462e+00	-1.4842542115e-01
 3.1315102127e-01	 1.9153096514e+00	-2.3357059635e-01
 2.9187423510e-01	 1.9186672598e+00	-2.1012153888e-01
 2.7063893307e-01	 1.9217776122e+00	-1.9049527935e-01
 2.4944896089e-01	 1.9246427821e+00	-1.7418980388e-01
 2.2830808958e-01	 1.9272649115e+00	-1.6011428639e-01
 2.0722001440e-01	 1.9296462081e+00	-1.4678257490e-01
 3.1434625418e-01	 1.9226199936e+00	-2.3307161560e-01
 2.9298825890e-01	 1.9259904172e+00	-2.0931477405e-01
 2.7167190610e-01	 1.9291126412e+00	-1.8933806747e-01
 2.5040105616e-01	 1.9319887469e+00	-1.7265293353e-01
 2.2917949450e-01	 1.9346208844e+00	-1.5816570942e-01
 2.0801093048e-01	 1.9370112700e+00	-1.4436998454e-01
 3.1554148708e-01	 1.9299303357e+00	-2.3305278235e-01
 2.9410228269e-01	 1.9333135747e+00	-2.0891898886e-01
 2.7270487913e-01	 1.9364476703e+00	-1.8843084531e-01
 2.5135315143e-01	 1.9393347117e+00	-1.7113780156e-01
 2.3005089943e-01	 1.9419768574e+00	-1.5596150495e-01
 2.0880184657e-01	 1.9443763318e+00	-1.4138705681e-01
 3.1673671999e-01	 1.9372406779e+00	-2.3376598249e-01
 2.9521630649e-01	 1.9406367322e+00	-2.0928572563e-01
 2.7373785215e-01	 1.9437826993e+00	-1.8816942125e-01
 2.5230524670e-01	 1.9466806765e+00	-1.7002941385e-01
 2.3092230435e-01	 1.9493328303e+00	-1.5382120983e-01
 2.0959276265e-01	 1.9517413937e+00	-1.3803367056e-01
 2.0563818223e-01	 1.9149160844e+00	-1.4909959122e-01
 1.8476706858e-01	 1.9170424624e+00	-1.3492551670e-01
 1.6395545236e-01	 1.9189344131e+00	-1.1976567040e-01
 1.4320676909e-01	 1.9205943074e+00	-1.0601306174e-01
 1.2252437548e-01	 1.9220245705e+00	-9.6286459528e-02
 1.0191154882e-01	 1.9232276798e+00	-9.3564344482e-02
 2.0642909831e-01	 1.9222811462e+00	-1.4842542115e-01
 1.8547771115e-01	 1.9244157026e+00	-1.3396498604e-01
 1.6458605026e-01	 1.9263149301e+00	-1.1858614594e-01
 1.4375756436e-01	 1.9279812085e+00	-1.0477679165e-01
 1.2299562308e-01	 1.9294169727e+00	-9.5242890058e-02
 1.0230351631e-01	 1.9306247093e+00	-9.3040227095e-02
 2.0722001440e-01	 1.9296462081e+00	-1.4678257490e-01
 1.8618835372e-01	 1.9317889428e+00	-1.3208018404e-01
 1.6521664815e-01	 1.9336954471e+00	-1.1664089954e-01
 1.4430835962e-01	 1.9353681097e+00	-1.0299288084e-01
 1.2346687068e-01	 1.9368093749e+00	-9.3879320614e-02
 1.0269548381e-01	 1.9380217389e+00	-9.2387817739e-02
 2.0801093048e-01	 1.9370112700e+00	-1.4436998454e-01
 1.8689899629e-01	 1.9391621831e+00	-1.2933348056e-01
 1.6584724604e-01	 1.9410759640e+00	-1.1388419451e-01
 1.4485915489e-01	 1.9427550109e+00	-1.0053687982e-01
 1.2393811828e-01	 1.9442017771e+00	-9.2022895978e-02
 1.0308745130e-01	 1.9454187684e+00	-9.1417047665e-02
 2.0880184657e-01	 1.9443763318e+00	-1.4138705681e-01
 1.8760963887e-01	 1.9465354233e+00	-1.2578942889e-01
 1.6647784394e-01	 1.9484564810e+00	-1.1027367854e-01
 1.4540995015e-01	 1.9501419121e+00	-9.7288416226e-02
 1.2440936588e-01	 1.9515941793e+00	-8.9505022670e-02
 1.0347941880e-01	 1.9528157980e+00	-8.9941787192e-02
 2.0959276265e-01	 1.9517413937e+00	-1.3803367056e-01
 1.8832028144e-01	 1.9539086636e+00	-1.2151473856e-01
 1.6710844183e-01	 1.9558369980e+00	-1.0577033928e-01
 1.4596074542e-01	 1.9575288133e+00	-9.3131140480e-02
 1.2488061347e-01	 1.9589865815e+00	-8.6161312245e-02
 1.0387138629e-01	 1.9602128275e+00	-8.7779794427e-02
 1.0191154882e-01	 1.9232276798e+00	-9.3564344482e-02
 8.1371486350e-02	 1.9242061619e+00	-9.3525356130e-02
 6.0907304882e-02	 1.9249625899e+00	-8.9152175046e-02
 4.0522040356e-02	 1.9254995810e+00	-8.0273197312e-02
 2.0218647575e-02	 1.9258197939e+00	-6.7541880502e-02
-8.6938847248e-08	 1.9259302729e+00	-5.2810218248e-02
 1.0230351631e-01	 1.9306247093e+00	-9.3040227095e-02
 8.1684453605e-02	 1.9316069548e+00	-9.3413013371e-02
 6.1141563747e-02	 1.9323662921e+00	-8.8954478201e-02
 4.0677894357e-02	 1.9329053486e+00	-7.9600400632e-02
 2.0296411604e-02	 1.9332267931e+00	-6.6072426945e-02
-7.9731805109e-08	 1.9333373518e+00	-5.0225220732e-02
 1.0269548381e-01	 1.9380217389e+00	-9.2387817739e-02
 8.1997420860e-02	 1.9390077477e+00	-9.3244700026e-02
 6.1375822612e-02	 1.9397699944e+00	-8.8732022951e-02
 4.0833748358e-02	 1.9403111162e+00	-7.9094863174e-02
 2.0374175633e-02	 1.9406337923e+00	-6.5326579750e-02
-7.2775178837e-08	 1.9407444377e+00	-4.9490357459e-02
 1.0308745130e-01	 1.9454187684e+00	-9.1417047665e-02
 8.2310388115e-02	 1.9464085407e+00	-9.2855501952e-02
 6.1610081477e-02	 1.9471736967e+00	-8.8396708987e-02
 4.0989602360e-02	 1.9477168838e+00	-7.8794980456e-02
 2.0451939663e-02	 1.9480407915e+00	-6.5516918644e-02
-6.5963082496e-08	 1.9481515255e+00	-5.1037774589e-02
 1.0347941880e-01	 1.9528157980e+00	-8.9941787192e-02
 8.2623355370e-02	 1.9538093336e+00	-9.2083459228e-02
 6.1844340342e-02	 1.9545773989e+00	-8.7861616937e-02
 4.1145456361e-02	 1.9551226515e+00	-7.8737811687e-02
 2.0529703692e-02	 1.9554477907e+00	-6.6851470447e-02
-5.9189630466e-08	 1.9555586097e+00	-5.5291214731e-02
 1.0387138629e-01	 1.9602128275e+00	-8.7779794427e-02
 8.2936322626e-02	 1.9612101265e+00	-9.0769531203e-02
 6.2078599206e-02	 1.9619811012e+00	-8.7041003234e-02
 4.1301310363e-02	 1.9625284191e+00	-7.8959117307e-02
 2.0607467721e-02	 1.9628547899e+00	-6.9533801523e-02
-5.2348937446e-08	 1.9629656851e+00	-6.2666178018e-02
 1.9629629630e+00	 0.0000000000e+00	 2.9349800229e+00
 1.9628547899e+00	 2.0607467721e-02	 2.9041234580e+00
 1.9625284191e+00	 4.1301310363e-02	 2.8792621081e+00
 1.9619811012e+00	 6.2078599206e-02	 2.8582581556e+00
 1.9612101265e+00	 8.2936322626e-02	 2.8395812813e+00
 1.9602128275e+00	 1.0387138629e-01	 2.8222045590e+00
 1.9703703704e+00	 0.0000000000e+00	 2.9324734325e+00
 1.9702617891e+00	 2.0685231750e-02	 2.8916875051e+00
 1.9699341867e+00	 4.1457164364e-02	 2.8617621040e+00
 1.9693848035e+00	 6.2312858071e-02	 2.8391746519e+00
 1.9686109194e+00	 8.3249289881e-02	 2.8209780161e+00
 1.9676098570e+00	 1.0426335379e-01	 2.8047009331e+00
 1.9777777778e+00	 0.0000000000e+00	 2.9323550257e+00
 1.9776687883e+00	 2.0762995779e-02	 2.8793087451e+00
 1.9773399543e+00	 4.1613018365e-02	 2.8434311389e+00
 1.9767885057e+00	 6.2547116936e-02	 2.8193544881e+00
 1.9760117124e+00	 8.3562257136e-02	 2.8022685679e+00
 1.9750068866e+00	 1.0465532128e-01	 2.7878270758e+00
 1.9851851852e+00	 0.0000000000e+00	 2.9356217037e+00
 1.9850757875e+00	 2.0840759808e-02	 2.8673494282e+00
 1.9847457219e+00	 4.1768872367e-02	 2.8241841276e+00
 1.9841922080e+00	 6.2781375801e-02	 2.7984579037e+00
 1.9834125053e+00	 8.3875224391e-02	 2.7830563941e+00
 1.9824039161e+00	 1.0504728878e-01	 2.7713326722e+00
 1.9925925926e+00	 0.0000000000e+00	 2.9432560620e+00
 1.9924827867e+00	 2.0918523837e-02	 2.8561668390e+00
 1.9921514896e+00	 4.1924726368e-02	 2.8039376593e+00
 1.9915959103e+00	 6.3015634666e-02	 2.7761506599e+00
 1.9908132982e+00	 8.4188191646e-02	 2.7629514371e+00
 1.9898009456e+00	 1.0543925627e-01	 2.7549718814e+00
 2.0000000000e+00	 0.0000000000e+00	 2.9562266558e+00
 1.9998897859e+00	 2.0996287866e-02	 2.8461133874e+00
 1.9995572572e+00	 4.2080580369e-02	 2.7826099657e+00
 1.9989996125e+00	 6.3249893531e-02	 2.7521039369e+00
 1.9982140912e+00	 8.4501158901e-02	 2.7415700042e+00
 1.9971979752e+00	 1.0583122377e-01	 2.7385032534e+00
 1.9602128275e+00	 1.0387138629e-01	 2.8222045590e+00
 1.9589865815e+00	 1.2488061347e-01	 2.8064067811e+00
 1.9575288133e+00	 1.4596074542e-01	 2.7913808021e+00
 1.9558369980e+00	 1.6710844183e-01	 2.7749120001e+00
 1.9539086636e+00	 1.8832028144e-01	 2.7548557496e+00
 1.9517413937e+00	 2.0959276265e-01	 2.7290024096e+00
 1.9676098570e+00	 1.0426335379e-01	 2.8047009331e+00
 1.9663789837e+00	 1.2535186107e-01	 2.7896837513e+00
 1.9649157144e+00	 1.4651154069e-01	 2.7752262707e+00
 1.9632175149e+00	 1.6773903973e-01	 2.7592180069e+00
 1.9612819038e+00	 1.8903092401e-01	 2.7396182052e+00
 1.9591064555e+00	 2.1038367874e-01	 2.7143236329e+00
 1.9750068866e+00	 1.0465532128e-01	 2.7878270758e+00
 1.9737713858e+00	 1.2582310867e-01	 2.7739869801e+00
 1.9723026156e+00	 1.4706233595e-01	 2.7600961403e+00
 1.9705980319e+00	 1.6836963762e-01	 2.7443052622e+00
 1.9686551440e+00	 1.8974156658e-01	 2.7248290484e+00
 1.9664715174e+00	 2.1117459482e-01	 2.6998164642e+00
 1.9824039161e+00	 1.0504728878e-01	 2.7713326722e+00
 1.9811637880e+00	 1.2629435627e-01	 2.7592859693e+00
 1.9796895168e+00	 1.4761313122e-01	 2.7461188608e+00
 1.9779785489e+00	 1.6900023551e-01	 2.7303977848e+00
 1.9760283843e+00	 1.9045220915e-01	 2.7107420101e+00
 1.9738365793e+00	 2.1196551091e-01	 2.6856960497e+00
 1.9898009456e+00	 1.0543925627e-01	 2.7549718814e+00
 1.9885561902e+00	 1.2676560387e-01	 2.7455516191e+00
 1.9870764180e+00	 1.4816392648e-01	 2.7334221240e+00
 1.9853590659e+00	 1.6963083341e-01	 2.7177176215e+00
 1.9834016245e+00	 1.9116285172e-01	 2.6976085991e+00
 1.9812016411e+00	 2.1275642700e-01	 2.6721760493e+00
 1.9971979752e+00	 1.0583122377e-01	 2.7385032534e+00
 1.9959485924e+00	 1.2723685146e-01	 2.7327562013e+00
 1.9944633192e+00	 1.4871472175e-01	 2.7221328771e+00
 1.9927395828e+00	 1.7026143130e-01	 2.7064848825e+00
 1.9907748648e+00	 1.9187349429e-01	 2.6856781408e+00
 1.9885667030e+00	 2.1354734308e-01	 2.6594686582e+00
 1.9517413937e+00	 2.0959276265e-01	 2.7290024096e+00
 1.9493328303e+00	 2.3092230435e-01	 2.6961343472e+00
 1.9466806765e+00	 2.5230524670e-01	 2.6577712530e+00
 1.9437826993e+00	 2.7373785215e-01	 2.6152466409e+00
 1.9406367322e+00	 2.9521630649e-01	 2.5691622492e+00
 1.9372406779e+00	 3.1673671999e-01	 2.5191702433e+00
 1.9591064555e+00	 2.1038367874e-01	 2.7143236329e+00
 1.9566888033e+00	 2.3179370927e-01	 2.6820064224e+00
 1.9540266414e+00	 2.5325734197e-01	 2.6440253612e+00
 1.9511177284e+00	 2.7477082518e-01	 2.6017529888e+00
 1.9479598897e+00	 2.9633033029e-01	 2.5558387734e+00
 1.9445510201e+00	 3.1793195290e-01	 2.5059936400e+00
 1.9664715174e+00	 2.1117459482e-01	 2.6998164642e+00
 1.9640447762e+00	 2.3266511419e-01	 2.6679439324e+00
 1.9613726062e+00	 2.5420943724e-01	 2.6303743262e+00
 1.9584527575e+00	 2.7580379821e-01	 2.5884386742e+00
 1.9552830472e+00	 2.9744435409e-01	 2.5427573179e+00
 1.9518613623e+00	 3.1912718580e-01	 2.4930271572e+00
 1.9738365793e+00	 2.1196551091e-01	 2.6856960497e+00
 1.9714007491e+00	 2.3353651911e-01	 2.6541032186e+00
 1.9687185710e+00	 2.5516153251e-01	 2.6169454742e+00
 1.9657877865e+00	 2.7683677123e-01	 2.5754322876e+00
 1.9626062046e+00	 2.9855837789e-01	 2.5300785025e+00
 1.9591717045e+00	 3.2032241871e-01	 2.4804946928e+00
 1.9812016411e+00	 2.1275642700e-01	 2.6721760493e+00
 1.9787567221e+00	 2.3440792404e-01	 2.6406401270e+00
 1.9760645358e+00	 2.5611362778e-01	 2.6038661245e+00
 1.9731228156e+00	 2.7786974426e-01	 2.5628623763e+00
 1.9699293621e+00	 2.9967240168e-01	 2.5179623220e+00
 1.9664820466e+00	 3.2151765161e-01	 2.4686183719e+00
 1.9885667030e+00	 2.1354734308e-01	 2.6594686582e+00
 1.9861126950e+00	 2.3527932896e-01	 2.6277100075e+00
 1.9834105006e+00	 2.5706572305e-01	 2.5912635738e+00
 1.9804578446e+00	 2.7890271729e-01	 2.5508574224e+00
 1.9772525196e+00	 3.0078642548e-01	 2.5065681261e+00
 1.9737923888e+00	 3.2271288452e-01	 2.4576185370e+00
 1.9372406779e+00	 3.1673671999e-01	 2.5191702433e+00
 1.9335925113e+00	 3.3829512869e-01	 2.4640038700e+00
 1.9296902820e+00	 3.5988749576e-01	 2.4016521555e+00
 1.9255321168e+00	 3.8150971298e-01	 2.3288582581e+00
 1.9211162228e+00	 4.0315760235e-01	 2.2474675929e+00
 1.9164408898e+00	 4.2482691772e-01	 2.1643506425e+00
 1.9445510201e+00	 3.1793195290e-01	 2.5059936400e+00
 1.9408890868e+00	 3.3957171408e-01	 2.4510098584e+00
 1.9369721321e+00	 3.6124556178e-01	 2.3888143344e+00
 1.9327982757e+00	 3.8294937228e-01	 2.3161650753e+00
 1.9283657180e+00	 4.0467895179e-01	 2.2350377421e+00
 1.9236727422e+00	 4.2643003816e-01	 2.1517077785e+00
 1.9518613623e+00	 3.1912718580e-01	 2.4930271572e+00
 1.9481856624e+00	 3.4084829947e-01	 2.4380671157e+00
 1.9442539822e+00	 3.6260362780e-01	 2.3758194626e+00
 1.9400644347e+00	 3.8438903157e-01	 2.3031614846e+00
 1.9356152132e+00	 4.0620030123e-01	 2.2222190794e+00
 1.9309045946e+00	 4.2803315861e-01	 2.1387459817e+00
 1.9591717045e+00	 3.2032241871e-01	 2.4804946928e+00
 1.9554822379e+00	 3.4212488486e-01	 2.4254646282e+00
 1.9515358323e+00	 3.6396169382e-01	 2.3629926603e+00
 1.9473305936e+00	 3.8582869086e-01	 2.2901753035e+00
 1.9428647084e+00	 4.0772165068e-01	 2.2093072044e+00
 1.9381364470e+00	 4.2963627905e-01	 2.1256981416e+00
 1.9664820466e+00	 3.2151765161e-01	 2.4686183719e+00
 1.9627788134e+00	 3.4340147025e-01	 2.4134883212e+00
 1.9588176825e+00	 3.6531975984e-01	 2.3506550026e+00
 1.9545967525e+00	 3.8726835016e-01	 2.2775291927e+00
 1.9501142036e+00	 4.0924300012e-01	 2.1965927702e+00
 1.9453682994e+00	 4.3123939949e-01	 2.1127928711e+00
 1.9737923888e+00	 3.2271288452e-01	 2.4576185370e+00
 1.9700753889e+00	 3.4467805564e-01	 2.4024210588e+00
 1.9660995326e+00	 3.6667782586e-01	 2.3391235218e+00
 1.9618629115e+00	 3.8870800945e-01	 2.2655407185e+00
 1.9573636987e+00	 4.1076434956e-01	 2.1843615431e+00
 1.9526001518e+00	 4.3284251994e-01	 2.1002545559e+00
 1.9164408898e+00	 4.2482691772e-01	 2.1643506425e+00
 1.9115044926e+00	 4.4651334664e-01	 2.0834238697e+00
 1.9063054942e+00	 4.6821251223e-01	 2.0028610051e+00
 1.9008424479e+00	 4.8991997520e-01	 1.9209226564e+00
 1.8951139998e+00	 5.1163123596e-01	 1.8358636314e+00
 1.8891188914e+00	 5.3334173684e-01	 1.7459945606e+00
 1.9236727422e+00	 4.2643003816e-01	 2.1517077785e+00
 1.9187177171e+00	 4.4819830266e-01	 2.0699705116e+00
 1.9134990999e+00	 4.6997935189e-01	 1.9885668384e+00
 1.9080154383e+00	 4.9176872982e-01	 1.9061352206e+00
 1.9022653734e+00	 5.1356191987e-01	 1.8213054733e+00
 1.8962476419e+00	 5.3535434716e-01	 1.7327589845e+00
 1.9309045946e+00	 4.2803315861e-01	 2.1387459817e+00
 1.9259309416e+00	 4.4988325869e-01	 2.0564187627e+00
 1.9206927055e+00	 4.7174619156e-01	 1.9744092092e+00
 1.9151884287e+00	 4.9361748444e-01	 1.8916199384e+00
 1.9094167470e+00	 5.1549260378e-01	 1.8069451067e+00
 1.9033763924e+00	 5.3736695749e-01	 1.7193295002e+00
 1.9381364470e+00	 4.2963627905e-01	 2.1256981416e+00
 1.9331441661e+00	 4.5156821471e-01	 2.0429385746e+00
 1.9278863112e+00	 4.7351303123e-01	 1.9605268428e+00
 1.9223614190e+00	 4.9546623907e-01	 1.8775175470e+00
 1.9165681206e+00	 5.1742328769e-01	 1.7929600146e+00
 1.9105051430e+00	 5.3937956782e-01	 1.7059565343e+00
 1.9453682994e+00	 4.3123939949e-01	 2.1127928711e+00
 1.9403573906e+00	 4.5325317074e-01	 2.0296963056e+00
 1.9350799168e+00	 4.7527987090e-01	 1.9470550973e+00
 1.9295344094e+00	 4.9731499369e-01	 1.8639651649e+00
 1.9237194942e+00	 5.1935397160e-01	 1.7795233138e+00
 1.9176338935e+00	 5.4139217815e-01	 1.6928848847e+00
 1.9526001518e+00	 4.3284251994e-01	 2.1002545559e+00
 1.9475706151e+00	 4.5493812676e-01	 2.0168547597e+00
 1.9422735224e+00	 4.7704671057e-01	 1.9341260009e+00
 1.9367073998e+00	 4.9916374831e-01	 1.8510963377e+00
 1.9308708678e+00	 5.2128465551e-01	 1.7668038193e+00
 1.9247626440e+00	 5.4340478847e-01	 1.6803538135e+00
 1.8891188914e+00	 5.3334173684e-01	 1.7459945606e+00
 1.8828559616e+00	 5.5504686438e-01	 1.6505636361e+00
 1.8763241498e+00	 5.7674195180e-01	 1.5517541776e+00
 1.8695224970e+00	 5.9842228150e-01	 1.4525513477e+00
 1.8624501492e+00	 6.2008308766e-01	 1.3562557582e+00
 1.8551063586e+00	 6.4171955900e-01	 1.2665661048e+00
 1.8962476419e+00	 5.3535434716e-01	 1.7327589845e+00
 1.8899610785e+00	 5.5714138085e-01	 1.6397095221e+00
 1.8834046183e+00	 5.7891833653e-01	 1.5434460198e+00
 1.8765772989e+00	 6.0068047879e-01	 1.4460502921e+00
 1.8694782630e+00	 6.2242302384e-01	 1.3499481190e+00
 1.8621067599e+00	 6.4414114224e-01	 1.2579946727e+00
 1.9033763924e+00	 5.3736695749e-01	 1.7193295002e+00
 1.8970661953e+00	 5.5923589732e-01	 1.6280435965e+00
 1.8904850867e+00	 5.8109472125e-01	 1.5338135754e+00
 1.8836321008e+00	 6.0293867608e-01	 1.4380676378e+00
 1.8765063768e+00	 6.2476296002e-01	 1.3425974905e+00
 1.8691071613e+00	 6.4656272548e-01	 1.2496458493e+00
 1.9105051430e+00	 5.3937956782e-01	 1.7059565343e+00
 1.9041713122e+00	 5.6133041379e-01	 1.6158700660e+00
 1.8975655552e+00	 5.8327110598e-01	 1.5231373739e+00
 1.8906869027e+00	 6.0519687337e-01	 1.4287798518e+00
 1.8835344905e+00	 6.2710289620e-01	 1.3341930077e+00
 1.8761075626e+00	 6.4898430872e-01	 1.2412353346e+00
 1.9176338935e+00	 5.4139217815e-01	 1.6928848847e+00
 1.9112764290e+00	 5.6342493026e-01	 1.6034865561e+00
 1.9046460237e+00	 5.8544749070e-01	 1.5116915911e+00
 1.8977417046e+00	 6.0745507066e-01	 1.4183584988e+00
 1.8905626043e+00	 6.2944283238e-01	 1.3247216241e+00
 1.8831079640e+00	 6.5140589197e-01	 1.2324806794e+00
 1.9247626440e+00	 5.4340478847e-01	 1.6803538135e+00
 1.9183815458e+00	 5.6551944673e-01	 1.5911842290e+00
 1.9117264922e+00	 5.8762387542e-01	 1.4997441695e+00
 1.9047965064e+00	 6.0971326794e-01	 1.4069703434e+00
 1.8975907181e+00	 6.3178276856e-01	 1.3141681724e+00
 1.8901083653e+00	 6.5382747521e-01	 1.2231012813e+00
 1.8551063586e+00	 6.4171955900e-01	 1.2665661048e+00
 1.8474904858e+00	 6.6332684156e-01	 1.1844819986e+00
 1.8396020023e+00	 6.8490004163e-01	 1.0997666504e+00
 1.8314404916e+00	 7.0643422873e-01	 1.0104349688e+00
 1.8230056515e+00	 7.2792443872e-01	 9.1698851138e-01
 1.8142972954e+00	 7.4936567694e-01	 8.2106066090e-01
 1.8621067599e+00	 6.4414114224e-01	 1.2579946727e+00
 1.8544621480e+00	 6.6582996172e-01	 1.1728222327e+00
 1.8465438967e+00	 6.8748457009e-01	 1.0914411490e+00
 1.8383515878e+00	 7.0910001827e-01	 1.0042802463e+00
 1.8298849181e+00	 7.3067132340e-01	 9.1182312620e-01
 1.8211437003e+00	 7.5219347195e-01	 8.1630721543e-01
 1.8691071613e+00	 6.4656272548e-01	 1.2496458493e+00
 1.8614338103e+00	 6.6833308187e-01	 1.1613873145e+00
 1.8534857910e+00	 6.9006909854e-01	 1.0780081439e+00
 1.8452626840e+00	 7.1176580782e-01	 9.9544208917e-01
 1.8367641847e+00	 7.3341820807e-01	 9.0626169580e-01
 1.8279901052e+00	 7.5502126696e-01	 8.1259456870e-01
 1.8761075626e+00	 6.4898430872e-01	 1.2412353346e+00
 1.8684054725e+00	 6.7083620203e-01	 1.1516868945e+00
 1.8604276854e+00	 6.9265362700e-01	 1.0656528747e+00
 1.8521737802e+00	 7.1443159736e-01	 9.8343929917e-01
 1.8436434513e+00	 7.3616509274e-01	 8.9995363323e-01
 1.8348365101e+00	 7.5784906196e-01	 8.0983728335e-01
 1.8831079640e+00	 6.5140589197e-01	 1.2324806794e+00
 1.8753771347e+00	 6.7333932219e-01	 1.1431863428e+00
 1.8673695797e+00	 6.9523815546e-01	 1.0566220408e+00
 1.8590848764e+00	 7.1709738690e-01	 9.7282507621e-01
 1.8505227180e+00	 7.3891197742e-01	 8.9254905808e-01
 1.8416829150e+00	 7.6067685697e-01	 8.0794776129e-01
 1.8901083653e+00	 6.5382747521e-01	 1.2231012813e+00
 1.8823487969e+00	 6.7584244234e-01	 1.1353566212e+00
 1.8743114741e+00	 6.9782268392e-01	 1.0502605321e+00
 1.8659959726e+00	 7.1976317644e-01	 9.6720548893e-01
 1.8574019846e+00	 7.4165886209e-01	 8.8651341175e-01
 1.8485293199e+00	 7.6350465198e-01	 8.0683631887e-01
 1.8142972954e+00	 7.4936567694e-01	 8.2106066090e-01
 1.8053153542e+00	 7.7075292147e-01	 7.2384782739e-01
 1.7960598774e+00	 7.9208112647e-01	 6.2602715565e-01
 1.7865310347e+00	 8.1334522556e-01	 5.2764874817e-01
 1.7767291174e+00	 8.3454013529e-01	 4.2896293788e-01
 1.7666545389e+00	 8.5566075871e-01	 3.3037349580e-01
 1.8211437003e+00	 7.5219347195e-01	 8.1630721543e-01
 1.8121278649e+00	 7.7366142306e-01	 7.1894246610e-01
 1.8028374618e+00	 7.9507011185e-01	 6.2064202114e-01
 1.7932726613e+00	 8.1641445282e-01	 5.2164734823e-01
 1.7834337556e+00	 8.3768934335e-01	 4.2240030385e-01
 1.7733211598e+00	 8.5888966724e-01	 3.2349576220e-01
 1.8279901052e+00	 7.5502126696e-01	 8.1259456870e-01
 1.8189403757e+00	 7.7656992465e-01	 7.1548064685e-01
 1.8096150462e+00	 7.9805909724e-01	 6.1633332005e-01
 1.8000142878e+00	 8.1948368009e-01	 5.1592006674e-01
 1.7901383937e+00	 8.4083855141e-01	 4.1519570986e-01
 1.7799877807e+00	 8.6211857576e-01	 3.1525355917e-01
 1.8348365101e+00	 7.5784906196e-01	 8.0983728335e-01
 1.8257528865e+00	 7.7947842624e-01	 7.1368170774e-01
 1.8163926307e+00	 8.0104808262e-01	 6.1351938718e-01
 1.8067559144e+00	 8.2255290736e-01	 5.1097443685e-01
 1.7968430319e+00	 8.4398775947e-01	 4.0783217489e-01
 1.7866544016e+00	 8.6534748428e-01	 3.0598787676e-01
 1.8416829150e+00	 7.6067685697e-01	 8.0794776129e-01
 1.8325653973e+00	 7.8238692783e-01	 7.1375844364e-01
 1.8231702151e+00	 8.0403706800e-01	 6.1260919639e-01
 1.8134975409e+00	 8.2562213462e-01	 5.0730743398e-01
 1.8035476701e+00	 8.4713696752e-01	 4.0078263903e-01
 1.7933210225e+00	 8.6857639281e-01	 2.9603183400e-01
 1.8485293199e+00	 7.6350465198e-01	 8.0683631887e-01
 1.8393779080e+00	 7.8529542943e-01	 7.1591727025e-01
 1.8299477996e+00	 8.0702605339e-01	 6.1400258433e-01
 1.8202391675e+00	 8.2869136189e-01	 5.0540572874e-01
 1.8102523083e+00	 8.5028617558e-01	 3.9451021401e-01
 1.7999876434e+00	 8.7180530133e-01	 2.8571089447e-01
 1.7666545389e+00	 8.5566075871e-01	 3.3037349580e-01
 1.7563078365e+00	 8.7670198893e-01	 2.3025059561e-01
 1.7456896716e+00	 8.9765871275e-01	 1.2792200633e-01
 1.7348008307e+00	 9.1852581445e-01	 2.5287195886e-02
 1.7236422262e+00	 9.3929817945e-01	-7.5858138702e-02
 1.7122148968e+00	 9.5997069814e-01	-1.7392240969e-01
 1.7733211598e+00	 8.5888966724e-01	 3.2349576220e-01
 1.7629354132e+00	 8.8001029832e-01	 2.2352186121e-01
 1.7522771798e+00	 9.0104610412e-01	 1.2175611663e-01
 1.7413472489e+00	 9.2199194960e-01	 1.9895476130e-02
 1.7301465365e+00	 9.4284270088e-01	-8.0454641050e-02
 1.7186760850e+00	 9.6359322908e-01	-1.7788140710e-01
 1.7799877807e+00	 8.6211857576e-01	 3.1525355917e-01
 1.7695629900e+00	 8.8331860771e-01	 2.1521254954e-01
 1.7588646879e+00	 9.0443349549e-01	 1.1427159200e-01
 1.7478936671e+00	 9.2545808475e-01	 1.3714605601e-02
 1.7366508468e+00	 9.4638722231e-01	-8.5246588795e-02
 1.7251372733e+00	 9.6721576001e-01	-1.8157351219e-01
 1.7866544016e+00	 8.6534748428e-01	 3.0598787676e-01
 1.7761905667e+00	 8.8662691710e-01	 2.0548631107e-01
 1.7654521961e+00	 9.0782088686e-01	 1.0550568165e-01
 1.7544400854e+00	 9.2892421990e-01	 6.7086993760e-03
 1.7431551571e+00	 9.4993174375e-01	-9.0287439908e-02
 1.7315984616e+00	 9.7083829095e-01	-1.8501193872e-01
 1.7933210225e+00	 8.6857639281e-01	 2.9603183400e-01
 1.7828181435e+00	 8.8993522649e-01	 1.9450163690e-01
 1.7720397043e+00	 9.1120827823e-01	 9.5492405815e-02
 1.7609865036e+00	 9.3239035505e-01	-1.1602441412e-03
 1.7496594674e+00	 9.5347626518e-01	-9.5632510717e-02
 1.7380596499e+00	 9.7446082189e-01	-1.8821238944e-01
 1.7999876434e+00	 8.7180530133e-01	 2.8571089447e-01
 1.7894457202e+00	 8.9324353589e-01	 1.8241202942e-01
 1.7786272125e+00	 9.1459566960e-01	 8.4262695318e-02
 1.7675329218e+00	 9.3585649020e-01	-9.9322202608e-03
 1.7561637777e+00	 9.5702078661e-01	-1.0133885448e-01
 1.7445208382e+00	 9.7808335282e-01	-1.9119292053e-01
 1.7122148968e+00	 9.5997069814e-01	-1.7392240969e-01
 1.7005200074e+00	 9.8053826971e-01	-2.6834994220e-01
 1.6885588501e+00	 1.0009958060e+00	-3.5953711680e-01
 1.6763328437e+00	 1.0213382353e+00	-4.4793748295e-01
 1.6638435338e+00	 1.0415605066e+00	-5.3464650057e-01
 1.6510925927e+00	 1.0616575928e+00	-6.2154643027e-01
 1.7186760850e+00	 9.6359322908e-01	-1.7788140710e-01
 1.7069370640e+00	 9.8423841412e-01	-2.7175494469e-01
 1.6949307703e+00	 1.0047731487e+00	-3.6225130004e-01
 1.6826586281e+00	 1.0251923419e+00	-4.4976739511e-01
 1.6701221887e+00	 1.0454909236e+00	-5.3533309053e-01
 1.6573231308e+00	 1.0656638479e+00	-6.2075865189e-01
 1.7251372733e+00	 9.6721576001e-01	-1.8157351219e-01
 1.7133541207e+00	 9.8793855854e-01	-2.7471119671e-01
 1.7013026905e+00	 1.0085504913e+00	-3.6456787603e-01
 1.6889844124e+00	 1.0290464484e+00	-4.5137910488e-01
 1.6764008435e+00	 1.0494213406e+00	-5.3600551839e-01
 1.6635536688e+00	 1.0696701030e+00	-6.2008314750e-01
 1.7315984616e+00	 9.7083829095e-01	-1.8501193872e-01
 1.7197711773e+00	 9.9163870295e-01	-2.7716845913e-01
 1.7076746107e+00	 1.0123278340e+00	-3.6638680012e-01
 1.6953101967e+00	 1.0329005550e+00	-4.5263753653e-01
 1.6826794984e+00	 1.0533517576e+00	-5.3650955385e-01
 1.6697842069e+00	 1.0736763580e+00	-6.1936348455e-01
 1.7380596499e+00	 9.7446082189e-01	-1.8821238944e-01
 1.7261882339e+00	 9.9533884736e-01	-2.7907998789e-01
 1.7140465309e+00	 1.0161051766e+00	-3.6761235679e-01
 1.7016359810e+00	 1.0367546615e+00	-4.5341258893e-01
 1.6889581532e+00	 1.0572821746e+00	-5.3669638165e-01
 1.6760147450e+00	 1.0776826131e+00	-6.1844886424e-01
 1.7445208382e+00	 9.7808335282e-01	-1.9119292053e-01
 1.7326052906e+00	 9.9903899178e-01	-2.8040237809e-01
 1.7204184511e+00	 1.0198825193e+00	-3.6815298731e-01
 1.7079617653e+00	 1.0406087681e+00	-4.5357895126e-01
 1.6952368081e+00	 1.0612125916e+00	-5.3642240980e-01
 1.6822452831e+00	 1.0816888682e+00	-6.1719392732e-01
 1.6510925927e+00	 1.0616575928e+00	-6.2154643027e-01
 1.6380818187e+00	 1.0816244955e+00	-7.0763553590e-01
 1.6248131362e+00	 1.1014562481e+00	-7.9193337533e-01
 1.6112885944e+00	 1.1211479205e+00	-8.7687594681e-01
 1.5975103671e+00	 1.1406946222e+00	-9.5798839721e-01
 1.5834807513e+00	 1.1600915069e+00	-1.0340679337e+00
 1.6573231308e+00	 1.0656638479e+00	-6.2075865189e-01
 1.6442632595e+00	 1.0857060973e+00	-7.0560326792e-01
 1.6309445065e+00	 1.1056126868e+00	-7.8948958306e-01
 1.6173689287e+00	 1.1253786673e+00	-8.7369621752e-01
 1.6035387081e+00	 1.1449991302e+00	-9.5390364816e-01
 1.5894561503e+00	 1.1644692107e+00	-1.0295997673e+00
 1.6635536688e+00	 1.0696701030e+00	-6.2008314750e-01
 1.6504447003e+00	 1.0897876992e+00	-7.0369955627e-01
 1.6370758768e+00	 1.1097691255e+00	-7.8713078500e-01
 1.6234492630e+00	 1.1296094142e+00	-8.7025000842e-01
 1.6095670491e+00	 1.1493036382e+00	-9.4960196667e-01
 1.5954315494e+00	 1.1688469145e+00	-1.0250099747e+00
 1.6697842069e+00	 1.0736763580e+00	-6.1936348455e-01
 1.6566261412e+00	 1.0938693011e+00	-7.0177609741e-01
 1.6432072471e+00	 1.1139255641e+00	-7.8465303997e-01
 1.6295295973e+00	 1.1338401611e+00	-8.6647333753e-01
 1.6155953901e+00	 1.1536081462e+00	-9.4503397290e-01
 1.6014069485e+00	 1.1732246183e+00	-1.0202653995e+00
 1.6760147450e+00	 1.0776826131e+00	-6.1844886424e-01
 1.6628075820e+00	 1.0979509030e+00	-6.9969031607e-01
 1.6493386175e+00	 1.1180820028e+00	-7.8174137806e-01
 1.6356099317e+00	 1.1380709080e+00	-8.6230289744e-01
 1.6216237311e+00	 1.1579126542e+00	-9.4015082515e-01
 1.6073823475e+00	 1.1776023221e+00	-1.0153332573e+00
 1.6822452831e+00	 1.0816888682e+00	-6.1719392732e-01
 1.6689890228e+00	 1.1020325048e+00	-6.9730517166e-01
 1.6554699878e+00	 1.1222384415e+00	-7.7830458538e-01
 1.6416902660e+00	 1.1423016548e+00	-8.5767604423e-01
 1.6276520721e+00	 1.1622171622e+00	-9.3490420922e-01
 1.6133577466e+00	 1.1819800258e+00	-1.0101811260e+00
 1.5834807513e+00	 1.1600915069e+00	-1.0340679337e+00
 1.5692021665e+00	 1.1793337758e+00	-1.1072652009e+00
 1.5546771531e+00	 1.1984166819e+00	-1.1801821368e+00
 1.5399083715e+00	 1.2173355335e+00	-1.2533597066e+00
 1.5248986002e+00	 1.2360856981e+00	-1.3273294676e+00
 1.5096507343e+00	 1.2546626057e+00	-1.4025716274e+00
 1.5894561503e+00	 1.1644692107e+00	-1.0295997673e+00
 1.5751236841e+00	 1.1837840919e+00	-1.1027775511e+00
 1.5605438594e+00	 1.2029390090e+00	-1.1757585984e+00
 1.5457193465e+00	 1.2219292525e+00	-1.2489251662e+00
 1.5306529346e+00	 1.2407501724e+00	-1.3226205904e+00
 1.5153475296e+00	 1.2593971816e+00	-1.3971065079e+00
 1.5954315494e+00	 1.1688469145e+00	-1.0250099747e+00
 1.5810452017e+00	 1.1882344081e+00	-1.0982132081e+00
 1.5664105656e+00	 1.2074613361e+00	-1.1711677215e+00
 1.5515303215e+00	 1.2265229715e+00	-1.2441405426e+00
 1.5364072689e+00	 1.2454146467e+00	-1.3173294064e+00
 1.5210443248e+00	 1.2641317575e+00	-1.3908190150e+00
 1.6014069485e+00	 1.1732246183e+00	-1.0202653995e+00
 1.5869667193e+00	 1.1926847242e+00	-1.0935533692e+00
 1.5722772718e+00	 1.2119836632e+00	-1.1663995714e+00
 1.5573412965e+00	 1.2311166905e+00	-1.2389987959e+00
 1.5421616033e+00	 1.2500791211e+00	-1.3114453185e+00
 1.5267411200e+00	 1.2688663334e+00	-1.3836880715e+00
 1.6073823475e+00	 1.1776023221e+00	-1.0153332573e+00
 1.5928882369e+00	 1.1971350403e+00	-1.0887794601e+00
 1.5781439781e+00	 1.2165059903e+00	-1.1614443758e+00
 1.5631522715e+00	 1.2357104095e+00	-1.2334930682e+00
 1.5479159376e+00	 1.2547435954e+00	-1.3049580244e+00
 1.5324379152e+00	 1.2736009092e+00	-1.3756931104e+00
 1.6133577466e+00	 1.1819800258e+00	-1.0101811260e+00
 1.5988097545e+00	 1.2015853565e+00	-1.0838731254e+00
 1.5840106843e+00	 1.2210283174e+00	-1.1562925138e+00
 1.5689632465e+00	 1.2403041285e+00	-1.2276166692e+00
 1.5536702719e+00	 1.2594080697e+00	-1.2978574981e+00
 1.5381347105e+00	 1.2783354851e+00	-1.3668140486e+00
 1.5096507343e+00	 1.2546626057e+00	-1.4025716274e+00
 1.4941677838e+00	 1.2730617533e+00	-1.4737281761e+00
 1.4784528715e+00	 1.2912787076e+00	-1.5364249821e+00
 1.4625092311e+00	 1.3093091090e+00	-1.5920577274e+00
 1.4463402049e+00	 1.3271486750e+00	-1.6426533009e+00
 1.4299492417e+00	 1.3447932034e+00	-1.6895099994e+00
 1.5153475296e+00	 1.2593971816e+00	-1.3971065079e+00
 1.4998061528e+00	 1.2778657599e+00	-1.4676416513e+00
 1.4840319389e+00	 1.2961514575e+00	-1.5304786222e+00
 1.4680281338e+00	 1.3142498981e+00	-1.5871156850e+00
 1.4517980925e+00	 1.3321567832e+00	-1.6391042463e+00
 1.4353452766e+00	 1.3498678948e+00	-1.6876599502e+00
 1.5210443248e+00	 1.2641317575e+00	-1.3908190150e+00
 1.5054445218e+00	 1.2826697666e+00	-1.4606653894e+00
 1.4896110064e+00	 1.3010242073e+00	-1.5238172258e+00
 1.4735470366e+00	 1.3191906872e+00	-1.5816173374e+00
 1.4572559800e+00	 1.3371648914e+00	-1.6353289405e+00
 1.4407413115e+00	 1.3549425861e+00	-1.6859299155e+00
 1.5267411200e+00	 1.2688663334e+00	-1.3836880715e+00
 1.5110828908e+00	 1.2874737732e+00	-1.4527668508e+00
 1.4951900738e+00	 1.3058969571e+00	-1.5164269949e+00
 1.4790659393e+00	 1.3241314763e+00	-1.5756283743e+00
 1.4627138676e+00	 1.3421729997e+00	-1.6313900227e+00
 1.4461373464e+00	 1.3600172774e+00	-1.6843898772e+00
 1.5324379152e+00	 1.2736009092e+00	-1.3756931104e+00
 1.5167212598e+00	 1.2922777798e+00	-1.4439142349e+00
 1.5007691412e+00	 1.3107697070e+00	-1.5082707448e+00
 1.4845848421e+00	 1.3290722654e+00	-1.5692098376e+00
 1.4681717552e+00	 1.3471811079e+00	-1.6273495271e+00
 1.4515333812e+00	 1.3650919688e+00	-1.6831096220e+00
 1.5381347105e+00	 1.2783354851e+00	-1.3668140486e+00
 1.5223596288e+00	 1.2970817864e+00	-1.4340764483e+00
 1.5063482087e+00	 1.3156424568e+00	-1.4993121343e+00
 1.4901037449e+00	 1.3340130545e+00	-1.5623687022e+00
 1.4736296427e+00	 1.3521892161e+00	-1.6232685133e+00
 1.4569294161e+00	 1.3701666601e+00	-1.6821583877e+00
 1.4299492417e+00	 1.3447932034e+00	-1.6895099994e+00
 1.4133398942e+00	 1.3622385758e+00	-1.7366818947e+00
 1.3965158163e+00	 1.3794807606e+00	-1.7852243031e+00
 1.3794807606e+00	 1.3965158163e+00	-1.8307275791e+00
 1.3622385758e+00	 1.4133398942e+00	-1.8685997466e+00
 1.3447932034e+00	 1.4299492417e+00	-1.8944567459e+00
 1.4353452766e+00	 1.3498678948e+00	-1.6876599502e+00
 1.4186732523e+00	 1.3673790987e+00	-1.7360889058e+00
 1.4017856873e+00	 1.3846863484e+00	-1.7850549913e+00
 1.3846863484e+00	 1.4017856873e+00	-1.8305885238e+00
 1.3673790987e+00	 1.4186732523e+00	-1.8685314517e+00
 1.3498678948e+00	 1.4353452766e+00	-1.8949369151e+00
 1.4407413115e+00	 1.3549425861e+00	-1.6859299155e+00
 1.4240066104e+00	 1.3725196217e+00	-1.7358579856e+00
 1.4070555583e+00	 1.3898919362e+00	-1.7853536444e+00
 1.3898919362e+00	 1.4070555583e+00	-1.8309289361e+00
 1.3725196217e+00	 1.4240066104e+00	-1.8689001297e+00
 1.3549425861e+00	 1.4407413115e+00	-1.8957967146e+00
 1.4461373464e+00	 1.3600172774e+00	-1.6843898772e+00
 1.4293399685e+00	 1.3776601446e+00	-1.7360700368e+00
 1.4123254293e+00	 1.3950975239e+00	-1.7862078297e+00
 1.3950975239e+00	 1.4123254293e+00	-1.8318379275e+00
 1.3776601446e+00	 1.4293399685e+00	-1.8697904458e+00
 1.3600172774e+00	 1.4461373464e+00	-1.8971095019e+00
 1.4515333812e+00	 1.3650919688e+00	-1.6831096220e+00
 1.4346733266e+00	 1.3828006675e+00	-1.7368061917e+00
 1.4175953003e+00	 1.4003031117e+00	-1.7877058890e+00
 1.4003031117e+00	 1.4175953003e+00	-1.8334060507e+00
 1.3828006675e+00	 1.4346733266e+00	-1.8712892969e+00
 1.3650919688e+00	 1.4515333812e+00	-1.8989517813e+00
 1.4569294161e+00	 1.3701666601e+00	-1.6821583877e+00
 1.4400066847e+00	 1.3879411905e+00	-1.7381474747e+00
 1.4228651713e+00	 1.4055086995e+00	-1.7899366163e+00
 1.4055086995e+00	 1.4228651713e+00	-1.8357249915e+00
 1.3879411905e+00	 1.4400066847e+00	-1.8734855155e+00
 1.3701666601e+00	 1.4569294161e+00	-1.9014029184e+00
 1.3447932034e+00	 1.4299492417e+00	-1.8944567459e+00
 1.3271486750e+00	 1.4463402049e+00	-1.9110320144e+00
 1.3093091090e+00	 1.4625092311e+00	-1.9224154240e+00
 1.2912787076e+00	 1.4784528715e+00	-1.9274755328e+00
 1.2730617533e+00	 1.4941677838e+00	-1.9298731164e+00
 1.2546626057e+00	 1.5096507343e+00	-1.9370519750e+00
 1.3498678948e+00	 1.4353452766e+00	-1.8949369151e+00
 1.3321567832e+00	 1.4517980925e+00	-1.9118040353e+00
 1.3142498981e+00	 1.4680281338e+00	-1.9221929497e+00
 1.2961514575e+00	 1.4840319389e+00	-1.9251207021e+00
 1.2778657599e+00	 1.4998061528e+00	-1.9277142117e+00
 1.2593971816e+00	 1.5153475296e+00	-1.9340439232e+00
 1.3549425861e+00	 1.4407413115e+00	-1.8957967146e+00
 1.3371648914e+00	 1.4572559800e+00	-1.9128195910e+00
 1.3191906872e+00	 1.4735470366e+00	-1.9219106487e+00
 1.3010242073e+00	 1.4896110064e+00	-1.9234428606e+00
 1.2826697666e+00	 1.5054445218e+00	-1.9260026149e+00
 1.2641317575e+00	 1.5210443248e+00	-1.9309541737e+00
 1.3600172774e+00	 1.4461373464e+00	-1.8971095019e+00
 1.3421729997e+00	 1.4627138676e+00	-1.9141429310e+00
 1.3241314763e+00	 1.4790659393e+00	-1.9216351978e+00
 1.3058969571e+00	 1.4951900738e+00	-1.9227914024e+00
 1.2874737732e+00	 1.5110828908e+00	-1.9249238324e+00
 1.2688663334e+00	 1.5267411200e+00	-1.9280158360e+00
 1.3650919688e+00	 1.4515333812e+00	-1.8989517813e+00
 1.3471811079e+00	 1.4681717552e+00	-1.9158423436e+00
 1.3290722654e+00	 1.4845848421e+00	-1.9216574538e+00
 1.3107697070e+00	 1.5007691412e+00	-1.9233100539e+00
 1.2922777798e+00	 1.5167212598e+00	-1.9246567795e+00
 1.2736009092e+00	 1.5324379152e+00	-1.9254548085e+00
 1.3701666601e+00	 1.4569294161e+00	-1.9014029184e+00
 1.3521892161e+00	 1.4736296427e+00	-1.9179898834e+00
 1.3340130545e+00	 1.4901037449e+00	-1.9231027068e+00
 1.3156424568e+00	 1.5063482087e+00	-1.9251365057e+00
 1.2970817864e+00	 1.5223596288e+00	-1.9253739002e+00
 1.2783354851e+00	 1.5381347105e+00	-1.9234899051e+00
 1.2546626057e+00	 1.5096507343e+00	-1.9370519750e+00
 1.2360856981e+00	 1.5248986002e+00	-1.9427004879e+00
 1.2173355335e+00	 1.5399083715e+00	-1.9406784758e+00
 1.1984166819e+00	 1.5546771531e+00	-1.9316428049e+00
 1.1793337758e+00	 1.5692021665e+00	-1.9162530536e+00
 1.1600915069e+00	 1.5834807513e+00	-1.8951369872e+00
 1.2593971816e+00	 1.5153475296e+00	-1.9340439232e+00
 1.2407501724e+00	 1.5306529346e+00	-1.9384435169e+00
 1.2219292525e+00	 1.5457193465e+00	-1.9356248309e+00
 1.2029390090e+00	 1.5605438594e+00	-1.9261287894e+00
 1.1837840919e+00	 1.5751236841e+00	-1.9105317577e+00
 1.1644692107e+00	 1.5894561503e+00	-1.8894100700e+00
 1.2641317575e+00	 1.5210443248e+00	-1.9309541737e+00
 1.2454146467e+00	 1.5364072689e+00	-1.9336656856e+00
 1.2265229715e+00	 1.5515303215e+00	-1.9298557743e+00
 1.2074613361e+00	 1.5664105656e+00	-1.9199083854e+00
 1.1882344081e+00	 1.5810452017e+00	-1.9042720636e+00
 1.1688469145e+00	 1.5954315494e+00	-1.8834236240e+00
 1.2688663334e+00	 1.5267411200e+00	-1.9280158360e+00
 1.2500791211e+00	 1.5421616033e+00	-1.9286416630e+00
 1.2311166905e+00	 1.5573412965e+00	-1.9236638712e+00
 1.2119836632e+00	 1.5722772718e+00	-1.9132688769e+00
 1.1926847242e+00	 1.5869667193e+00	-1.8977333065e+00
 1.1732246183e+00	 1.6014069485e+00	-1.8773869035e+00
 1.2736009092e+00	 1.5324379152e+00	-1.9254548085e+00
 1.2547435954e+00	 1.5479159376e+00	-1.9236383756e+00
 1.2357104095e+00	 1.5631522715e+00	-1.9173337665e+00
 1.2165059903e+00	 1.5781439781e+00	-1.9064897960e+00
 1.1971350403e+00	 1.5928882369e+00	-1.8911675792e+00
 1.1776023221e+00	 1.6073823475e+00	-1.8715027644e+00
 1.2783354851e+00	 1.5381347105e+00	-1.9234899051e+00
 1.2594080697e+00	 1.5536702719e+00	-1.9189151411e+00
 1.2403041285e+00	 1.5689632465e+00	-1.9111423179e+00
 1.2210283174e+00	 1.5840106843e+00	-1.8998430498e+00
 1.2015853565e+00	 1.5988097545e+00	-1.8848198462e+00
 1.1819800258e+00	 1.6133577466e+00	-1.8659677583e+00
 1.1600915069e+00	 1.5834807513e+00	-1.8951369872e+00
 1.1406946222e+00	 1.5975103671e+00	-1.8720292223e+00
 1.1211479205e+00	 1.6112885944e+00	-1.8502336667e+00
 1.1014562481e+00	 1.6248131362e+00	-1.8284253864e+00
 1.0816244955e+00	 1.6380818187e+00	-1.8008836789e+00
 1.0616575928e+00	 1.6510925927e+00	-1.7690398340e+00
 1.1644692107e+00	 1.5894561503e+00	-1.8894100700e+00
 1.1449991302e+00	 1.6035387081e+00	-1.8660528753e+00
 1.1253786673e+00	 1.6173689287e+00	-1.8434172958e+00
 1.1056126868e+00	 1.6309445065e+00	-1.8210171578e+00
 1.0857060973e+00	 1.6442632595e+00	-1.7932603294e+00
 1.0656638479e+00	 1.6573231308e+00	-1.7603355365e+00
 1.1688469145e+00	 1.5954315494e+00	-1.8834236240e+00
 1.1493036382e+00	 1.6095670491e+00	-1.8600395097e+00
 1.1296094142e+00	 1.6234492630e+00	-1.8366222685e+00
 1.1097691255e+00	 1.6370758768e+00	-1.8131597436e+00
 1.0897876992e+00	 1.6504447003e+00	-1.7851028717e+00
 1.0696701030e+00	 1.6635536688e+00	-1.7510143738e+00
 1.1732246183e+00	 1.6014069485e+00	-1.8773869035e+00
 1.1536081462e+00	 1.6155953901e+00	-1.8541559077e+00
 1.1338401611e+00	 1.6295295973e+00	-1.8300095449e+00
 1.1139255641e+00	 1.6432072471e+00	-1.8051471216e+00
 1.0938693011e+00	 1.6566261412e+00	-1.7766728031e+00
 1.0736763580e+00	 1.6697842069e+00	-1.7414282432e+00
 1.1776023221e+00	 1.6073823475e+00	-1.8715027644e+00
 1.1579126542e+00	 1.6216237311e+00	-1.8485631896e+00
 1.1380709080e+00	 1.6356099317e+00	-1.8237346223e+00
 1.1180820028e+00	 1.6493386175e+00	-1.7974490964e+00
 1.0979509030e+00	 1.6628075820e+00	-1.7682274346e+00
 1.0776826131e+00	 1.6760147450e+00	-1.7319238541e+00
 1.1819800258e+00	 1.6133577466e+00	-1.8659677583e+00
 1.1622171622e+00	 1.6276520721e+00	-1.8434168907e+00
 1.1423016548e+00	 1.6416902660e+00	-1.8179476038e+00
 1.1222384415e+00	 1.6554699878e+00	-1.7902657053e+00
 1.1020325048e+00	 1.6689890228e+00	-1.7600197812e+00
 1.0816888682e+00	 1.6822452831e+00	-1.7228426503e+00
 1.0616575928e+00	 1.6510925927e+00	-1.7690398340e+00
 1.0415605066e+00	 1.6638435338e+00	-1.7316760025e+00
 1.0213382353e+00	 1.6763328437e+00	-1.6885426196e+00
 1.0009958060e+00	 1.6885588501e+00	-1.6422625600e+00
 9.8053826971e-01	 1.7005200074e+00	-1.5947338430e+00
 9.5997069814e-01	 1.7122148968e+00	-1.5472567405e+00
 1.0656638479e+00	 1.6573231308e+00	-1.7603355365e+00
 1.0454909236e+00	 1.6701221887e+00	-1.7217890516e+00
 1.0251923419e+00	 1.6826586281e+00	-1.6779932933e+00
 1.0047731487e+00	 1.6949307703e+00	-1.6314605196e+00
 9.8423841412e-01	 1.7069370640e+00	-1.5839764804e+00
 9.6359322908e-01	 1.7186760850e+00	-1.5367306661e+00
 1.0696701030e+00	 1.6635536688e+00	-1.7510143738e+00
 1.0494213406e+00	 1.6764008435e+00	-1.7112723024e+00
 1.0290464484e+00	 1.6889844124e+00	-1.6668760601e+00
 1.0085504913e+00	 1.7013026905e+00	-1.6201808432e+00
 9.8793855854e-01	 1.7133541207e+00	-1.5728032174e+00
 9.6721576001e-01	 1.7251372733e+00	-1.5257548036e+00
 1.0736763580e+00	 1.6697842069e+00	-1.7414282432e+00
 1.0533517576e+00	 1.6826794984e+00	-1.7005499370e+00
 1.0329005550e+00	 1.6953101967e+00	-1.6556170421e+00
 1.0123278340e+00	 1.7076746107e+00	-1.6087817161e+00
 9.9163870295e-01	 1.7197711773e+00	-1.5614349812e+00
 9.7083829095e-01	 1.7315984616e+00	-1.5143441410e+00
 1.0776826131e+00	 1.6760147450e+00	-1.7319238541e+00
 1.0572821746e+00	 1.6889581532e+00	-1.6900402170e+00
 1.0367546615e+00	 1.7016359810e+00	-1.6446367481e+00
 1.0161051766e+00	 1.7140465309e+00	-1.5976170471e+00
 9.9533884736e-01	 1.7261882339e+00	-1.5500907768e+00
 9.7446082189e-01	 1.7380596499e+00	-1.5025151047e+00
 1.0816888682e+00	 1.6822452831e+00	-1.7228426503e+00
 1.0612125916e+00	 1.6952368081e+00	-1.6801554309e+00
 1.0406087681e+00	 1.7079617653e+00	-1.6343500277e+00
 1.0198825193e+00	 1.7204184511e+00	-1.5870364104e+00
 9.9903899178e-01	 1.7326052906e+00	-1.5389875979e+00
 9.7808335282e-01	 1.7445208382e+00	-1.4902854183e+00
 9.5997069814e-01	 1.7122148968e+00	-1.5472567405e+00
 9.3929817945e-01	 1.7236422262e+00	-1.4998012265e+00
 9.1852581445e-01	 1.7348008307e+00	-1.4512929203e+00
 8.9765871275e-01	 1.7456896716e+00	-1.4008833270e+00
 8.7670198893e-01	 1.7563078365e+00	-1.3475294159e+00
 8.5566075871e-01	 1.7666545389e+00	-1.2900897014e+00
 9.6359322908e-01	 1.7186760850e+00	-1.5367306661e+00
 9.4284270088e-01	 1.7301465365e+00	-1.4894226760e+00
 9.2199194960e-01	 1.7413472489e+00	-1.4408240955e+00
 9.0104610412e-01	 1.7522771798e+00	-1.3901624933e+00
 8.8001029832e-01	 1.7629354132e+00	-1.3364849008e+00
 8.5888966724e-01	 1.7733211598e+00	-1.2787554414e+00
 9.6721576001e-01	 1.7251372733e+00	-1.5257548036e+00
 9.4638722231e-01	 1.7366508468e+00	-1.4784730167e+00
 9.2545808475e-01	 1.7478936671e+00	-1.4296685000e+00
 9.0443349549e-01	 1.7588646879e+00	-1.3787132424e+00
 8.8331860771e-01	 1.7695629900e+00	-1.3248330989e+00
 8.6211857576e-01	 1.7799877807e+00	-1.2672065383e+00
 9.7083829095e-01	 1.7315984616e+00	-1.5143441410e+00
 9.4993174375e-01	 1.7431551571e+00	-1.4667940426e+00
 9.2892421990e-01	 1.7544400854e+00	-1.4176277627e+00
 9.0782088686e-01	 1.7654521961e+00	-1.3664289593e+00
 8.8662691710e-01	 1.7761905667e+00	-1.3126898304e+00
 8.6534748428e-01	 1.7866544016e+00	-1.2559105531e+00
 9.7446082189e-01	 1.7380596499e+00	-1.5025151047e+00
 9.5347626518e-01	 1.7496594674e+00	-1.4542318388e+00
 9.3239035505e-01	 1.7609865036e+00	-1.4045086562e+00
 9.1120827823e-01	 1.7720397043e+00	-1.3532070387e+00
 8.8993522649e-01	 1.7828181435e+00	-1.3001718211e+00
 8.6857639281e-01	 1.7933210225e+00	-1.2453308967e+00
 9.7808335282e-01	 1.7445208382e+00	-1.4902854183e+00
 9.5702078661e-01	 1.7561637777e+00	-1.4406365996e+00
 9.3585649020e-01	 1.7675329218e+00	-1.3901229100e+00
 9.1459566960e-01	 1.7786272125e+00	-1.3389487301e+00
 8.9324353589e-01	 1.7894457202e+00	-1.2873966148e+00
 8.7180530133e-01	 1.7999876434e+00	-1.2359268456e+00
 8.5566075871e-01	 1.7666545389e+00	-1.2900897014e+00
 8.3454013529e-01	 1.7767291174e+00	-1.2309665726e+00
 8.1334522556e-01	 1.7865310347e+00	-1.1733812135e+00
 7.9208112647e-01	 1.7960598774e+00	-1.1175070821e+00
 7.7075292147e-01	 1.8053153542e+00	-1.0637049668e+00
 7.4936567694e-01	 1.8142972954e+00	-1.0125704238e+00
 8.5888966724e-01	 1.7733211598e+00	-1.2787554414e+00
 8.3768934335e-01	 1.7834337556e+00	-1.2194664995e+00
 8.1641445282e-01	 1.7932726613e+00	-1.1617967537e+00
 7.9507011185e-01	 1.8028374618e+00	-1.1058353798e+00
 7.7366142306e-01	 1.8121278649e+00	-1.0518550957e+00
 7.5219347195e-01	 1.8211437003e+00	-1.0003606417e+00
 8.6211857576e-01	 1.7799877807e+00	-1.2672065383e+00
 8.4083855141e-01	 1.7901383937e+00	-1.2083240931e+00
 8.1948368009e-01	 1.8000142878e+00	-1.1510373068e+00
 7.9805909724e-01	 1.8096150462e+00	-1.0951633833e+00
 7.7656992465e-01	 1.8189403757e+00	-1.0406707342e+00
 7.5502126696e-01	 1.8279901052e+00	-9.8772944780e-01
 8.6534748428e-01	 1.7866544016e+00	-1.2559105531e+00
 8.4398775947e-01	 1.7968430319e+00	-1.1983188078e+00
 8.2255290736e-01	 1.8067559144e+00	-1.1419878302e+00
 8.0104808262e-01	 1.8163926307e+00	-1.0862777782e+00
 7.7947842624e-01	 1.8257528865e+00	-1.0306393627e+00
 7.5784906196e-01	 1.8348365101e+00	-9.7466724235e-01
 8.6857639281e-01	 1.7933210225e+00	-1.2453308967e+00
 8.4713696752e-01	 1.8035476701e+00	-1.1902214549e+00
 8.2562213462e-01	 1.8134975409e+00	-1.1355231828e+00
 8.0403706800e-01	 1.8231702151e+00	-1.0799566948e+00
 7.8238692783e-01	 1.8325653973e+00	-1.0222444045e+00
 7.6067685697e-01	 1.8416829150e+00	-9.6116777754e-01
 8.7180530133e-01	 1.7999876434e+00	-1.2359268456e+00
 8.5028617558e-01	 1.8102523083e+00	-1.1847943103e+00
 8.2869136189e-01	 1.8202391675e+00	-1.1325082678e+00
 8.0702605339e-01	 1.8299477996e+00	-1.0769698294e+00
 7.8529542943e-01	 1.8393779080e+00	-1.0159652716e+00
 7.6350465198e-01	 1.8485293199e+00	-9.4722807224e-01
 7.4936567694e-01	 1.8142972954e+00	-1.0125704238e+00
 7.2792443872e-01	 1.8230056515e+00	-9.6188764614e-01
 7.0643422873e-01	 1.8314404916e+00	-9.1113079977e-01
 6.8490004163e-01	 1.8396020023e+00	-8.5821052476e-01
 6.6332684156e-01	 1.8474904858e+00	-8.0175046885e-01
 6.4171955900e-01	 1.8551063586e+00	-7.4313688324e-01
 7.5219347195e-01	 1.8211437003e+00	-1.0003606417e+00
 7.3067132340e-01	 1.8298849181e+00	-9.4878023342e-01
 7.0910001827e-01	 1.8383515878e+00	-8.9671743670e-01
 6.8748457009e-01	 1.8465438967e+00	-8.4164439690e-01
 6.6582996172e-01	 1.8544621480e+00	-7.8217007909e-01
 6.4414114224e-01	 1.8621067599e+00	-7.2872959976e-01
 7.5502126696e-01	 1.8279901052e+00	-9.8772944780e-01
 7.3341820807e-01	 1.8367641847e+00	-9.3338519516e-01
 7.1176580782e-01	 1.8452626840e+00	-8.7738117137e-01
 6.9006909854e-01	 1.8534857910e+00	-8.1755317169e-01
 6.6833308187e-01	 1.8614338103e+00	-7.6194339176e-01
 6.4656272548e-01	 1.8691071613e+00	-7.1392998149e-01
 7.5784906196e-01	 1.8348365101e+00	-9.7466724235e-01
 7.3616509274e-01	 1.8436434513e+00	-9.1523355349e-01
 7.1443159736e-01	 1.8521737802e+00	-8.5242715206e-01
 6.9265362700e-01	 1.8604276854e+00	-7.9343960582e-01
 6.7083620203e-01	 1.8684054725e+00	-7.4291196465e-01
 6.4898430872e-01	 1.8761075626e+00	-6.9854736817e-01
 7.6067685697e-01	 1.8416829150e+00	-9.6116777754e-01
 7.3891197742e-01	 1.8505227180e+00	-8.9386475235e-01
 7.1709738690e-01	 1.8590848764e+00	-8.2743627770e-01
 6.9523815546e-01	 1.8673695797e+00	-7.7200958942e-01
 6.7333932219e-01	 1.8753771347e+00	-7.2444134333e-01
 6.5140589197e-01	 1.8831079640e+00	-6.8239079879e-01
 7.6350465198e-01	 1.8485293199e+00	-9.4722807224e-01
 7.4165886209e-01	 1.8574019846e+00	-8.7236937103e-01
 7.1976317644e-01	 1.8659959726e+00	-8.0684342685e-01
 6.9782268392e-01	 1.8743114741e+00	-7.5241175629e-01
 6.7584244234e-01	 1.8823487969e+00	-7.0590338675e-01
 6.5382747521e-01	 1.8901083653e+00	-6.6526905046e-01
 6.4171955900e-01	 1.8551063586e+00	-7.4313688324e-01
 6.2008308766e-01	 1.8624501492e+00	-6.9481305914e-01
 5.9842228150e-01	 1.8695224970e+00	-6.5645692154e-01
 5.7674195180e-01	 1.8763241498e+00	-6.2345542140e-01
 5.5504686438e-01	 1.8828559616e+00	-5.9164507927e-01
 5.3334173684e-01	 1.8891188914e+00	-5.5723778599e-01
 6.4414114224e-01	 1.8621067599e+00	-7.2872959976e-01
 6.2242302384e-01	 1.8694782630e+00	-6.8490487131e-01
 6.0068047879e-01	 1.8765772989e+00	-6.4842687633e-01
 5.7891833653e-01	 1.8834046183e+00	-6.1564762017e-01
 5.5714138085e-01	 1.8899610785e+00	-5.8340815289e-01
 5.3535434716e-01	 1.8962476419e+00	-5.4896115067e-01
 6.4656272548e-01	 1.8691071613e+00	-7.1392998149e-01
 6.2476296002e-01	 1.8765063768e+00	-6.7312601539e-01
 6.0293867608e-01	 1.8836321008e+00	-6.3787460156e-01
 5.8109472125e-01	 1.8904850867e+00	-6.0535843865e-01
 5.5923589732e-01	 1.8970661953e+00	-5.7326265383e-01
 5.3736695749e-01	 1.9033763924e+00	-5.3969504617e-01
 6.4898430872e-01	 1.8761075626e+00	-6.9854736817e-01
 6.2710289620e-01	 1.8835344905e+00	-6.5974776127e-01
 6.0519687337e-01	 1.8906869027e+00	-6.2534100612e-01
 5.8327110598e-01	 1.8975655552e+00	-5.9320824544e-01
 5.6133041379e-01	 1.9041713122e+00	-5.6172051439e-01
 5.3937956782e-01	 1.9105051430e+00	-5.2965752183e-01
 6.5140589197e-01	 1.8831079640e+00	-6.8239079879e-01
 6.2944283238e-01	 1.8905626043e+00	-6.4503425059e-01
 6.0745507066e-01	 1.8977417046e+00	-6.1135593645e-01
 5.8544749070e-01	 1.9046460237e+00	-5.7980527419e-01
 5.6342493026e-01	 1.9112764290e+00	-5.4928328658e-01
 5.4139217815e-01	 1.9176338935e+00	-5.1906079116e-01
 6.5382747521e-01	 1.8901083653e+00	-6.6526905046e-01
 6.3178276856e-01	 1.8975907181e+00	-6.2924265016e-01
 6.0971326794e-01	 1.9047965064e+00	-5.9643839185e-01
 5.8762387542e-01	 1.9117264922e+00	-5.6574584882e-01
 5.6551944673e-01	 1.9183815458e+00	-5.3644232588e-01
 5.4340478847e-01	 1.9247626440e+00	-5.0811132333e-01
 5.3334173684e-01	 1.8891188914e+00	-5.5723778599e-01
 5.1163123596e-01	 1.8951139998e+00	-5.1916118497e-01
 4.8991997520e-01	 1.9008424479e+00	-4.8003027328e-01
 4.6821251223e-01	 1.9063054942e+00	-4.4185900488e-01
 4.4651334664e-01	 1.9115044926e+00	-4.0665440176e-01
 4.2482691772e-01	 1.9164408898e+00	-3.7635960382e-01
 5.3535434716e-01	 1.8962476419e+00	-5.4896115067e-01
 5.1356191987e-01	 1.9022653734e+00	-5.1174283263e-01
 4.9176872982e-01	 1.9080154383e+00	-4.7397824015e-01
 4.6997935189e-01	 1.9134990999e+00	-4.3738483681e-01
 4.4819830266e-01	 1.9187177171e+00	-4.0365455673e-01
 4.2643003816e-01	 1.9236727422e+00	-3.7439843232e-01
 5.3736695749e-01	 1.9033763924e+00	-5.3969504617e-01
 5.1549260378e-01	 1.9094167470e+00	-5.0426319759e-01
 4.9361748444e-01	 1.9151884287e+00	-4.6856890661e-01
 4.7174619156e-01	 1.9206927055e+00	-4.3400202745e-01
 4.4988325869e-01	 1.9259309416e+00	-4.0193061544e-01
 4.2803315861e-01	 1.9309045946e+00	-3.7364665866e-01
 5.3937956782e-01	 1.9105051430e+00	-5.2965752183e-01
 5.1742328769e-01	 1.9165681206e+00	-4.9663456186e-01
 4.9546623907e-01	 1.9223614190e+00	-4.6356860731e-01
 4.7351303123e-01	 1.9278863112e+00	-4.3149043387e-01
 4.5156821471e-01	 1.9331441661e+00	-4.0143490124e-01
 4.2963627905e-01	 1.9381364470e+00	-3.7438731914e-01
 5.4139217815e-01	 1.9176338935e+00	-5.1906079116e-01
 5.1935397160e-01	 1.9237194942e+00	-4.8876812354e-01
 4.9731499369e-01	 1.9295344094e+00	-4.5874499747e-01
 4.7527987090e-01	 1.9350799168e+00	-4.2963129360e-01
 4.5325317074e-01	 1.9403573906e+00	-4.0211883866e-01
 4.3123939949e-01	 1.9453682994e+00	-3.7689794015e-01
 5.4340478847e-01	 1.9247626440e+00	-5.0811132333e-01
 5.2128465551e-01	 1.9308708678e+00	-4.8057399324e-01
 4.9916374831e-01	 1.9367073998e+00	-4.5386699848e-01
 4.7704671057e-01	 1.9422735224e+00	-4.2820716393e-01
 4.5493812676e-01	 1.9475706151e+00	-4.0393293043e-01
 4.3284251994e-01	 1.9526001518e+00	-3.8145059716e-01
 4.2482691772e-01	 1.9164408898e+00	-3.7635960382e-01
 4.0315760235e-01	 1.9211162228e+00	-3.5132209723e-01
 3.8150971298e-01	 1.9255321168e+00	-3.2563595461e-01
 3.5988749576e-01	 1.9296902820e+00	-2.9346999068e-01
 3.3829512869e-01	 1.9335925113e+00	-2.6183181621e-01
 3.1673671999e-01	 1.9372406779e+00	-2.3376598249e-01
 4.2643003816e-01	 1.9236727422e+00	-3.7439843232e-01
 4.0467895179e-01	 1.9283657180e+00	-3.4997416914e-01
 3.8294937228e-01	 1.9327982757e+00	-3.2512882369e-01
 3.6124556178e-01	 1.9369721321e+00	-2.9411170676e-01
 3.3957171408e-01	 1.9408890868e+00	-2.6297794191e-01
 3.1793195290e-01	 1.9445510201e+00	-2.3512505712e-01
 4.2803315861e-01	 1.9309045946e+00	-3.7364665866e-01
 4.0620030123e-01	 1.9356152132e+00	-3.4960813039e-01
 3.8438903157e-01	 1.9400644347e+00	-3.2531720731e-01
 3.6260362780e-01	 1.9442539822e+00	-2.9527049952e-01
 3.4084829947e-01	 1.9481856624e+00	-2.6461113184e-01
 3.1912718580e-01	 1.9518613623e+00	-2.3704929026e-01
 4.2963627905e-01	 1.9381364470e+00	-3.7438731914e-01
 4.0772165068e-01	 1.9428647084e+00	-3.5083651169e-01
 3.8582869086e-01	 1.9473305936e+00	-3.2698299412e-01
 3.6396169382e-01	 1.9515358323e+00	-2.9771354963e-01
 3.4212488486e-01	 1.9554822379e+00	-2.6732534901e-01
 3.2032241871e-01	 1.9591717045e+00	-2.3979813418e-01
 4.3123939949e-01	 1.9453682994e+00	-3.7689794015e-01
 4.0924300012e-01	 1.9501142036e+00	-3.5426175905e-01
 3.8726835016e-01	 1.9545967525e+00	-3.3089580920e-01
 3.6531975984e-01	 1.9588176825e+00	-3.0219876380e-01
 3.4340147025e-01	 1.9627788134e+00	-2.7170850057e-01
 3.2151765161e-01	 1.9664820466e+00	-2.4363043399e-01
 4.3284251994e-01	 1.9526001518e+00	-3.8145059716e-01
 4.1076434956e-01	 1.9573636987e+00	-3.6047637490e-01
 3.8870800945e-01	 1.9618629115e+00	-3.3781319370e-01
 3.6667782586e-01	 1.9660995326e+00	-3.0947480750e-01
 3.4467805564e-01	 1.9700753889e+00	-2.7834244115e-01
 3.2271288452e-01	 1.9737923888e+00	-2.4880435661e-01
 3.1673671999e-01	 1.9372406779e+00	-2.3376598249e-01
 2.9521630649e-01	 1.9406367322e+00	-2.0928572563e-01
 2.7373785215e-01	 1.9437826993e+00	-1.8816942125e-01
 2.5230524670e-01	 1.9466806765e+00	-1.7002941385e-01
 2.3092230435e-01	 1.9493328303e+00	-1.5382120983e-01
 2.0959276265e-01	 1.9517413937e+00	-1.3803367056e-01
 3.1793195290e-01	 1.9445510201e+00	-2.3512505712e-01
 2.9633033029e-01	 1.9479598897e+00	-2.1052191593e-01
 2.7477082518e-01	 1.9511177284e+00	-1.8883865156e-01
 2.5325734197e-01	 1.9540266414e+00	-1.6974731380e-01
 2.3179370927e-01	 1.9566888033e+00	-1.5224372251e-01
 2.1038367874e-01	 1.9591064555e+00	-1.3483621491e-01
 3.1912718580e-01	 1.9518613623e+00	-2.3704929026e-01
 2.9744435409e-01	 1.9552830472e+00	-2.1245612291e-01
 2.7580379821e-01	 1.9584527575e+00	-1.9032159958e-01
 2.5420943724e-01	 1.9613726062e+00	-1.7034599104e-01
 2.3266511419e-01	 1.9640447762e+00	-1.5155941259e-01
 2.1117459482e-01	 1.9664715174e+00	-1.3250833152e-01
 3.2032241871e-01	 1.9591717045e+00	-2.3979813418e-01
 2.9855837789e-01	 1.9626062046e+00	-2.1502467881e-01
 2.7683677123e-01	 1.9657877865e+00	-1.9241499947e-01
 2.5516153251e-01	 1.9687185710e+00	-1.7166610321e-01
 2.3353651911e-01	 1.9714007491e+00	-1.5183623215e-01
 2.1196551091e-01	 1.9738365793e+00	-1.3152833822e-01
 3.2151765161e-01	 1.9664820466e+00	-2.4363043399e-01
 2.9967240168e-01	 1.9699293621e+00	-2.1816842884e-01
 2.7786974426e-01	 1.9731228156e+00	-1.9492234029e-01
 2.5611362778e-01	 1.9760645358e+00	-1.7355443736e-01
 2.3440792404e-01	 1.9787567221e+00	-1.5314478386e-01
 2.1275642700e-01	 1.9812016411e+00	-1.3237088815e-01
 3.2271288452e-01	 1.9737923888e+00	-2.4880435661e-01
 3.0078642548e-01	 1.9772525196e+00	-2.2183258859e-01
 2.7890271729e-01	 1.9804578446e+00	-1.9765370184e-01
 2.5706572305e-01	 1.9834105006e+00	-1.7586377419e-01
 2.3527932896e-01	 1.9861126950e+00	-1.5555826341e-01
 2.1354734308e-01	 1.9885667030e+00	-1.3550704017e-01
 2.0959276265e-01	 1.9517413937e+00	-1.3803367056e-01
 1.8832028144e-01	 1.9539086636e+00	-1.2151473856e-01
 1.6710844183e-01	 1.9558369980e+00	-1.0577033928e-01
 1.4596074542e-01	 1.9575288133e+00	-9.3131140480e-02
 1.2488061347e-01	 1.9589865815e+00	-8.6161312245e-02
 1.0387138629e-01	 1.9602128275e+00	-8.7779794427e-02
 2.1038367874e-01	 1.9591064555e+00	-1.3483621491e-01
 1.8903092401e-01	 1.9612819038e+00	-1.1701935271e-01
 1.6773903973e-01	 1.9632175149e+00	-1.0084175968e-01
 1.4651154069e-01	 1.9649157144e+00	-8.8475943270e-02
 1.2535186107e-01	 1.9663789837e+00	-8.2319184901e-02
 1.0426335379e-01	 1.9676098570e+00	-8.5112487132e-02
 2.1117459482e-01	 1.9664715174e+00	-1.3250833152e-01
 1.8974156658e-01	 1.9686551440e+00	-1.1330694178e-01
 1.6836963762e-01	 1.9705980319e+00	-9.6498745879e-02
 1.4706233595e-01	 1.9723026156e+00	-8.4070329044e-02
 1.2582310867e-01	 1.9737713858e+00	-7.8181066251e-02
 1.0465532128e-01	 1.9750068866e+00	-8.1281013585e-02
 2.1196551091e-01	 1.9738365793e+00	-1.3152833822e-01
 1.9045220915e-01	 1.9760283843e+00	-1.1117970459e-01
 1.6900023551e-01	 1.9779785489e+00	-9.3512933214e-02
 1.4761313122e-01	 1.9796895168e+00	-8.0303158386e-02
 1.2629435627e-01	 1.9811637880e+00	-7.3403386552e-02
 1.0504728878e-01	 1.9824039161e+00	-7.4862583504e-02
 2.1275642700e-01	 1.9812016411e+00	-1.3237088815e-01
 1.9116285172e-01	 1.9834016245e+00	-1.1143104507e-01
 1.6963083341e-01	 1.9853590659e+00	-9.2647215458e-02
 1.4816392648e-01	 1.9870764180e+00	-7.7559768154e-02
 1.2676560387e-01	 1.9885561902e+00	-6.7649411458e-02
 1.0543925627e-01	 1.9898009456e+00	-6.4456714787e-02
 2.1354734308e-01	 1.9885667030e+00	-1.3550704017e-01
 1.9187349429e-01	 1.9907748648e+00	-1.1484574610e-01
 1.7026143130e-01	 1.9927395828e+00	-9.4655923514e-02
 1.4871472175e-01	 1.9944633192e+00	-7.6222057217e-02
 1.2723685146e-01	 1.9959485924e+00	-6.0589137514e-02
 1.0583122377e-01	 1.9971979752e+00	-4.8684842218e-02
 1.0387138629e-01	 1.9602128275e+00	-8.7779794427e-02
 8.2936322626e-02	 1.9612101265e+00	-9.0769531203e-02
 6.2078599206e-02	 1.9619811012e+00	-8.7041003234e-02
 4.1301310363e-02	 1.9625284191e+00	-7.8959117307e-02
 2.0607467721e-02	 1.9628547899e+00	-6.9533801523e-02
-5.2348937446e-08	 1.9629656851e+00	-6.2666178018e-02
 1.0426335379e-01	 1.9676098570e+00	-8.5112487132e-02
 8.3249289881e-02	 1.9686109194e+00	-8.8954419553e-02
 6.2312858071e-02	 1.9693848035e+00	-8.5905381630e-02
 4.1457164364e-02	 1.9699341867e+00	-7.9420042572e-02
 2.0685231750e-02	 1.9702617891e+00	-7.3627850946e-02
-4.5227671052e-08	 1.9703727449e+00	-7.3551701240e-02
 1.0465532128e-01	 1.9750068866e+00	-8.1281013585e-02
 8.3562257136e-02	 1.9760117124e+00	-8.5339337850e-02
 6.2547116936e-02	 1.9767885057e+00	-8.3269915873e-02
 4.1613018365e-02	 1.9773399543e+00	-7.9791291060e-02
 2.0762995779e-02	 1.9776687883e+00	-8.0449620817e-02
-3.7182710070e-08	 1.9777797782e+00	-9.1805073070e-02
 1.0504728878e-01	 1.9824039161e+00	-7.4862583504e-02
 8.3875224391e-02	 1.9834125053e+00	-7.7782830334e-02
 6.2781375801e-02	 1.9841922080e+00	-7.7337005130e-02
 4.1768872367e-02	 1.9847457219e+00	-7.9675976693e-02
 2.0840759808e-02	 1.9850757875e+00	-9.2053252038e-02
-2.7463487470e-08	 1.9851867728e+00	-1.2297392204e-01
 1.0543925627e-01	 1.9898009456e+00	-6.4456714787e-02
 8.4188191646e-02	 1.9908132982e+00	-6.4175832912e-02
 6.3015634666e-02	 1.9915959103e+00	-6.6335711559e-02
 4.1924726368e-02	 1.9921514896e+00	-7.8682435007e-02
 2.0918523837e-02	 1.9924827867e+00	-1.1046106560e-01
-1.5319438254e-08	 1.9925937159e+00	-1.7252160358e-01
 1.0583122377e-01	 1.9971979752e+00	-4.8684842218e-02
 8.4501158901e-02	 1.9982140912e+00	-4.2441093219e-02
 6.3249893531e-02	 1.9989996125e+00	-4.8521283114e-02
 4.2080580369e-02	 1.9995572572e+00	-7.6424138442e-02
 2.0996287866e-02	 1.9998897859e+00	-1.3766415823e-01
-1.0320718647e-315	 2.0000005946e+00	-2.4582876669e-01
