x	y	stress_xx
 1.0000000000e+00	 0.0000000000e+00	 5.2552623509e-03
 9.9986064260e-01	 1.6694172137e-02	 1.4257399965e-02
 9.9943881383e-01	 3.3497125286e-02	 3.9907085951e-02
 9.9872897451e-01	 5.0402732834e-02	 8.2666365175e-02
 9.9772572376e-01	 6.7404600309e-02	 1.4273288478e-01
 9.9642381276e-01	 8.4496067130e-02	 2.2003379301e-01
 1.0117647059e+00	 0.0000000000e+00	 3.3862426354e-01
 1.0116237090e+00	 1.6890574162e-02	 3.4645575817e-01
 1.0111969175e+00	 3.3891209113e-02	 3.6895798893e-01
 1.0104787271e+00	 5.0995706161e-02	 4.0654951211e-01
 1.0094636735e+00	 6.8197595607e-02	 4.5937127461e-01
 1.0081464459e+00	 8.5490138508e-02	 5.2728144567e-01
 1.0235294118e+00	 0.0000000000e+00	 6.5177567740e-01
 1.0233867754e+00	 1.7086976187e-02	 6.5861277336e-01
 1.0229550212e+00	 3.4285292940e-02	 6.7826384452e-01
 1.0222284798e+00	 5.1588679489e-02	 7.1112414241e-01
 1.0212016231e+00	 6.8990590905e-02	 7.5729796337e-01
 1.0198690789e+00	 8.6484209886e-02	 8.1659441487e-01
 1.0352941176e+00	 0.0000000000e+00	 9.4275038704e-01
 1.0351498417e+00	 1.7283378212e-02	 9.4874633159e-01
 1.0347131249e+00	 3.4679376767e-02	 9.6582895438e-01
 1.0339782324e+00	 5.2181652816e-02	 9.9438923390e-01
 1.0329395728e+00	 6.9783586202e-02	 1.0345136459e+00
 1.0315917120e+00	 8.7478281264e-02	 1.0859808731e+00
 1.0470588235e+00	 0.0000000000e+00	 1.2096814598e+00
 1.0469129081e+00	 1.7479780237e-02	 1.2149667699e+00
 1.0464712286e+00	 3.5073460594e-02	 1.2297502684e+00
 1.0457279851e+00	 5.2774626143e-02	 1.2544365563e+00
 1.0446775225e+00	 7.0576581500e-02	 1.2891119160e+00
 1.0433143451e+00	 8.8472352642e-02	 1.3335419789e+00
 1.0588235294e+00	 0.0000000000e+00	 1.4507890261e+00
 1.0586759745e+00	 1.7676182262e-02	 1.4554717374e+00
 1.0582293323e+00	 3.5467544421e-02	 1.4682122353e+00
 1.0574777377e+00	 5.3367599471e-02	 1.4894455166e+00
 1.0564154722e+00	 7.1369576798e-02	 1.5192741082e+00
 1.0550369782e+00	 8.9466424020e-02	 1.5574667154e+00
 9.9642381276e-01	 8.4496067130e-02	 2.2003379301e-01
 9.9481815855e-01	 1.0167020908e-01	 3.1472479300e-01
 9.9290385803e-01	 1.1891984155e-01	 4.2668522365e-01
 9.9067620198e-01	 1.3623752361e-01	 5.5503892522e-01
 9.8813068916e-01	 1.5361556282e-01	 6.9867268266e-01
 9.8526304037e-01	 1.7104602093e-01	 8.5624890531e-01
 1.0081464459e+00	 8.5490138508e-02	 5.2728144567e-01
 1.0065219016e+00	 1.0286632918e-01	 6.1049731051e-01
 1.0045850799e+00	 1.2031889851e-01	 7.0908589079e-01
 1.0023312161e+00	 1.3784031801e-01	 8.2227552020e-01
 9.9975575609e-01	 1.5542280473e-01	 9.4904859515e-01
 9.9685437026e-01	 1.7305832706e-01	 1.0881552068e+00
 1.0198690789e+00	 8.6484209886e-02	 8.1659441487e-01
 1.0182256446e+00	 1.0406244929e-01	 8.8927577749e-01
 1.0162663017e+00	 1.2171795547e-01	 9.7553863649e-01
 1.0139862303e+00	 1.3944311240e-01	 1.0746730241e+00
 1.0113808230e+00	 1.5723004665e-01	 1.1857139796e+00
 1.0084457001e+00	 1.7507063319e-01	 1.3074564630e+00
 1.0315917120e+00	 8.7478281264e-02	 1.0859808731e+00
 1.0299293877e+00	 1.0525856940e-01	 1.1490850127e+00
 1.0279475236e+00	 1.2311701243e-01	 1.2240988999e+00
 1.0256412444e+00	 1.4104590680e-01	 1.3103322321e+00
 1.0230058900e+00	 1.5903728857e-01	 1.4068304708e+00
 1.0200370300e+00	 1.7708293932e-01	 1.5123913682e+00
 1.0433143451e+00	 8.8472352642e-02	 1.3335419789e+00
 1.0416331307e+00	 1.0645468951e-01	 1.3880426927e+00
 1.0396287455e+00	 1.2451606939e-01	 1.4529143751e+00
 1.0372962585e+00	 1.4264870119e-01	 1.5274450387e+00
 1.0346309569e+00	 1.6084453048e-01	 1.6106490157e+00
 1.0316283599e+00	 1.7909524545e-01	 1.7012854358e+00
 1.0550369782e+00	 8.9466424020e-02	 1.5574667154e+00
 1.0533368738e+00	 1.0765080961e-01	 1.6043541968e+00
 1.0513099673e+00	 1.2591512635e-01	 1.6602198843e+00
 1.0489512727e+00	 1.4425149559e-01	 1.7242893640e+00
 1.0462560238e+00	 1.6265177240e-01	 1.7955048827e+00
 1.0432196898e+00	 1.8110755158e-01	 1.8725461191e+00
 9.8526304037e-01	 1.7104602093e-01	 8.5624890531e-01
 9.8206921241e-01	 1.8852072043e-01	 1.0279655536e+00
 9.7854541195e-01	 2.0603125189e-01	 1.2139436430e+00
 9.7468810918e-01	 2.2356898224e-01	 1.4124365712e+00
 9.7049405128e-01	 2.4112506387e-01	 1.6215364451e+00
 9.6596027552e-01	 2.5869044459e-01	 1.8391976130e+00
 9.9685437026e-01	 1.7305832706e-01	 1.0881552068e+00
 9.9362296785e-01	 1.9073861126e-01	 1.2398453128e+00
 9.9005771091e-01	 2.0845514897e-01	 1.4043069539e+00
 9.8615502811e-01	 2.2619920556e-01	 1.5799004516e+00
 9.8191162836e-01	 2.4396182932e-01	 1.7648286189e+00
 9.7732451405e-01	 2.6173386159e-01	 1.9571616278e+00
 1.0084457001e+00	 1.7507063319e-01	 1.3074564630e+00
 1.0051767233e+00	 1.9295650209e-01	 1.4401932645e+00
 1.0015700099e+00	 2.1087904605e-01	 1.5842169850e+00
 9.9762194704e-01	 2.2882942888e-01	 1.7380219487e+00
 9.9332920543e-01	 2.4679859478e-01	 1.8999480551e+00
 9.8868875259e-01	 2.6477727858e-01	 2.0682068981e+00
 1.0200370300e+00	 1.7708293932e-01	 1.5123913682e+00
 1.0167304787e+00	 1.9517439291e-01	 1.6273279669e+00
 1.0130823088e+00	 2.1330294313e-01	 1.7520598702e+00
 1.0090888660e+00	 2.3145965220e-01	 1.8852407281e+00
 1.0047467825e+00	 2.4963536024e-01	 2.0253721958e+00
 1.0000529911e+00	 2.6782069558e-01	 2.1708312330e+00
 1.0316283599e+00	 1.7909524545e-01	 1.7012854358e+00
 1.0282842342e+00	 1.9739228374e-01	 1.7996521576e+00
 1.0245946078e+00	 2.1572684021e-01	 1.9063037753e+00
 1.0205557849e+00	 2.3408987552e-01	 2.0200768729e+00
 1.0161643596e+00	 2.5247212569e-01	 2.1396578623e+00
 1.0114172297e+00	 2.7086411257e-01	 2.2636114019e+00
 1.0432196898e+00	 1.8110755158e-01	 1.8725461191e+00
 1.0398379896e+00	 1.9961017457e-01	 1.9556479852e+00
 1.0361069068e+00	 2.1815073729e-01	 2.0454942019e+00
 1.0320227038e+00	 2.3672009884e-01	 2.1411262189e+00
 1.0275819367e+00	 2.5530889115e-01	 2.2414365764e+00
 1.0227814682e+00	 2.7390752957e-01	 2.3451983944e+00
 9.6596027552e-01	 2.5869044459e-01	 1.8391976130e+00
 9.6108412201e-01	 2.7625587852e-01	 2.0656200366e+00
 9.5586324611e-01	 2.9381193771e-01	 2.3005596036e+00
 9.5029563021e-01	 3.1134902473e-01	 2.5411674216e+00
 9.4437959512e-01	 3.2885738599e-01	 2.7845517138e+00
 9.3811381073e-01	 3.4632712587e-01	 3.0278042445e+00
 9.7732451405e-01	 2.6173386159e-01	 1.9571616278e+00
 9.7239099404e-01	 2.7950594768e-01	 2.1572083190e+00
 9.6710869606e-01	 2.9726854874e-01	 2.3647351641e+00
 9.6147557880e-01	 3.1501195444e-01	 2.5768647261e+00
 9.5548994330e-01	 3.3272629641e-01	 2.7906756703e+00
 9.4915044380e-01	 3.5040156264e-01	 3.0032303238e+00
 9.8868875259e-01	 2.6477727858e-01	 2.0682068981e+00
 9.8369786606e-01	 2.8275601684e-01	 2.2432125521e+00
 9.7835414602e-01	 3.0072515978e-01	 2.4247518059e+00
 9.7265552739e-01	 3.1867488414e-01	 2.6099646672e+00
 9.6660029148e-01	 3.3659520684e-01	 2.7959473879e+00
 9.6018707687e-01	 3.5447599942e-01	 2.9797809671e+00
 1.0000529911e+00	 2.6782069558e-01	 2.1708312330e+00
 9.9500473808e-01	 2.8600608600e-01	 2.3221410235e+00
 9.8959959597e-01	 3.0418177081e-01	 2.4791255829e+00
 9.8383547598e-01	 3.2233781384e-01	 2.6389862537e+00
 9.7771063965e-01	 3.4046411726e-01	 2.7988819595e+00
 9.7122370994e-01	 3.5855043619e-01	 2.9559584723e+00
 1.0114172297e+00	 2.7086411257e-01	 2.2636114019e+00
 1.0063116101e+00	 2.8925615515e-01	 2.3925808184e+00
 1.0008450459e+00	 3.0763838184e-01	 2.5264510948e+00
 9.9501542457e-01	 3.2600074355e-01	 2.6625267783e+00
 9.8882098783e-01	 3.4433302768e-01	 2.7980725732e+00
 9.8226034300e-01	 3.6262487297e-01	 2.9303432012e+00
 1.0227814682e+00	 2.7390752957e-01	 2.3451983944e+00
 1.0176184821e+00	 2.9250622431e-01	 2.4531929886e+00
 1.0120904959e+00	 3.1109499287e-01	 2.5653965573e+00
 1.0061953732e+00	 3.2966367325e-01	 2.6792567747e+00
 9.9993133601e-01	 3.4820193811e-01	 2.7921853362e+00
 9.9329697607e-01	 3.6669930974e-01	 2.9015882490e+00
 9.3811381073e-01	 3.4632712587e-01	 3.0278042445e+00
 9.3149730609e-01	 3.6374822164e-01	 3.2708294489e+00
 9.2452947869e-01	 3.8111053912e-01	 3.5133432440e+00
 9.1721010304e-01	 3.9840384897e-01	 3.7522151899e+00
 9.0953933834e-01	 4.1561784371e-01	 3.9844075611e+00
 9.0151773529e-01	 4.3274215528e-01	 4.2069927278e+00
 9.4915044380e-01	 3.5040156264e-01	 3.0032303238e+00
 9.4245609793e-01	 3.6802761248e-01	 3.2146160979e+00
 9.3540629609e-01	 3.8559419252e-01	 3.4251347556e+00
 9.2800081014e-01	 4.0309095307e-01	 3.6322314394e+00
 9.2023980115e-01	 4.2050746540e-01	 3.8334414369e+00
 9.1212382629e-01	 4.3783323946e-01	 4.0264039705e+00
 9.6018707687e-01	 3.5447599942e-01	 2.9797809671e+00
 9.5341488976e-01	 3.7230700333e-01	 3.1617255739e+00
 9.4628311349e-01	 3.9007784592e-01	 3.3425378365e+00
 9.3879151723e-01	 4.0777805718e-01	 3.5201066541e+00
 9.3094026395e-01	 4.2539708709e-01	 3.6924098445e+00
 9.2272991730e-01	 4.4292432364e-01	 3.8575249928e+00
 9.7122370994e-01	 3.5855043619e-01	 2.9559584723e+00
 9.6437368160e-01	 3.7658639417e-01	 3.1106479348e+00
 9.5715993088e-01	 3.9456149932e-01	 3.2640445533e+00
 9.4958222433e-01	 4.1246516128e-01	 3.4143536358e+00
 9.4164072676e-01	 4.3028670878e-01	 3.5598695914e+00
 9.3333600830e-01	 4.4801540782e-01	 3.6989844719e+00
 9.8226034300e-01	 3.6262487297e-01	 2.9303432012e+00
 9.7533247344e-01	 3.8086578501e-01	 3.0599510079e+00
 9.6803674828e-01	 3.9904515272e-01	 3.1882235757e+00
 9.6037293142e-01	 4.1715226539e-01	 3.3135595654e+00
 9.5234118956e-01	 4.3517633047e-01	 3.4344483991e+00
 9.4394209931e-01	 4.5310649200e-01	 3.5494771135e+00
 9.9329697607e-01	 3.6669930974e-01	 2.9015882490e+00
 9.8629126527e-01	 3.8514517586e-01	 3.0082749046e+00
 9.7891356568e-01	 4.0352880613e-01	 3.1137145730e+00
 9.7116363852e-01	 4.2183936950e-01	 3.2163803282e+00
 9.6304165236e-01	 4.4006595216e-01	 3.3148392147e+00
 9.5454819031e-01	 4.5819757618e-01	 3.4077580188e+00
 9.0151773529e-01	 4.3274215528e-01	 4.2069927278e+00
 8.9314624197e-01	 4.4976637320e-01	 4.4187718233e+00
 8.8442620870e-01	 4.6668006318e-01	 4.6187287623e+00
 8.7535939192e-01	 4.8347278617e-01	 4.8043353819e+00
 8.6594795698e-01	 5.0013411782e-01	 4.9731081741e+00
 8.5619447978e-01	 5.1665366814e-01	 5.1226059516e+00
 9.1212382629e-01	 4.3783323946e-01	 4.0264039705e+00
 9.0365384481e-01	 4.5505774230e-01	 4.2100114837e+00
 8.9483122292e-01	 4.7217041686e-01	 4.3828215878e+00
 8.8565773771e-01	 4.8916070131e-01	 4.5420876290e+00
 8.7613558000e-01	 5.0601804862e-01	 4.6851046889e+00
 8.6626735601e-01	 5.2273194659e-01	 4.8092067077e+00
 9.2272991730e-01	 4.4292432364e-01	 3.8575249928e+00
 9.1416144766e-01	 4.6034911139e-01	 4.0144301735e+00
 9.0523623714e-01	 4.7766077055e-01	 4.1614063341e+00
 8.9595608350e-01	 4.9484861644e-01	 4.2955965574e+00
 8.8632320302e-01	 5.1190197941e-01	 4.4141846856e+00
 8.7634023224e-01	 5.2881022504e-01	 4.5143911953e+00
 9.3333600830e-01	 4.4801540782e-01	 3.6989844719e+00
 9.2466905051e-01	 4.6564048049e-01	 3.8307471064e+00
 9.1564125136e-01	 4.8315112423e-01	 3.9532969956e+00
 9.0625442929e-01	 5.0053653157e-01	 4.0637719760e+00
 8.9651082605e-01	 5.1778591021e-01	 4.1593516173e+00
 8.8641310847e-01	 5.3488850348e-01	 4.2372511453e+00
 9.4394209931e-01	 4.5310649200e-01	 3.5494771135e+00
 9.3517665335e-01	 4.7093184959e-01	 3.6577416630e+00
 9.2604626558e-01	 4.8864147792e-01	 3.7573615835e+00
 9.1655277507e-01	 5.0622444670e-01	 3.8455714579e+00
 9.0669844907e-01	 5.2366984101e-01	 3.9196505364e+00
 8.9648598471e-01	 5.4096678193e-01	 3.9769140054e+00
 9.5454819031e-01	 4.5819757618e-01	 3.4077580188e+00
 9.4568425620e-01	 4.7622321868e-01	 3.4942478615e+00
 9.3645127980e-01	 4.9413183160e-01	 3.5725167096e+00
 9.2685112086e-01	 5.1191236183e-01	 3.6399950391e+00
 9.1688607209e-01	 5.2955377181e-01	 3.6941629027e+00
 9.0655886094e-01	 5.4704506038e-01	 3.7325378413e+00
 8.5619447978e-01	 5.1665366814e-01	 5.1226059516e+00
 8.4610194737e-01	 5.3302110150e-01	 5.2523180522e+00
 8.3567375738e-01	 5.4922615672e-01	 5.3623323890e+00
 8.2491371619e-01	 5.6525866720e-01	 5.4513126001e+00
 8.1382603605e-01	 5.8110858111e-01	 5.5181491955e+00
 8.0241533094e-01	 5.9676598150e-01	 5.5598494404e+00
 8.6626735601e-01	 5.2273194659e-01	 4.8092067077e+00
 8.5605608793e-01	 5.3929193799e-01	 4.9146839110e+00
 8.4550521335e-01	 5.5568764092e-01	 5.0030372611e+00
 8.3461858344e-01	 5.7190876916e-01	 5.0736266528e+00
 8.2340046000e-01	 5.8794515266e-01	 5.1260417338e+00
 8.1185551130e-01	 6.0378675776e-01	 5.1525056210e+00
 8.7634023224e-01	 5.2881022504e-01	 4.5143911953e+00
 8.6601022849e-01	 5.4556277448e-01	 4.5974288133e+00
 8.5533666932e-01	 5.6214912511e-01	 4.6661944610e+00
 8.4432345069e-01	 5.7855887113e-01	 4.7206463297e+00
 8.3297488396e-01	 5.9478172420e-01	 4.7594686350e+00
 8.2129569166e-01	 6.1080753401e-01	 4.7703318278e+00
 8.8641310847e-01	 5.3488850348e-01	 4.2372511453e+00
 8.7596436905e-01	 5.5183361097e-01	 4.2997227279e+00
 8.6516812529e-01	 5.6861060931e-01	 4.3510422025e+00
 8.5402831794e-01	 5.8520897310e-01	 4.3916720350e+00
 8.4254930791e-01	 6.0161829574e-01	 4.4155768335e+00
 8.3073587203e-01	 6.1782831026e-01	 4.4120242696e+00
 8.9648598471e-01	 5.4096678193e-01	 3.9769140054e+00
 8.8591850960e-01	 5.5810444746e-01	 4.0207660009e+00
 8.7499958126e-01	 5.7507209351e-01	 4.0568443349e+00
 8.6373318519e-01	 5.9185907507e-01	 4.0854866438e+00
 8.5212373187e-01	 6.0845486729e-01	 4.0930626859e+00
 8.4017605239e-01	 6.2484908651e-01	 4.0763069156e+00
 9.0655886094e-01	 5.4704506038e-01	 3.7325378413e+00
 8.9587265016e-01	 5.6437528395e-01	 3.7597843252e+00
 8.8483103723e-01	 5.8153357770e-01	 3.7828853508e+00
 8.7343805244e-01	 5.9850917703e-01	 3.7984635033e+00
 8.6169815582e-01	 6.1529143883e-01	 3.7906530335e+00
 8.4961623276e-01	 6.3186986277e-01	 3.7619299284e+00
 8.0241533094e-01	 5.9676598150e-01	 5.5598494404e+00
 7.9068661123e-01	 6.1222110615e-01	 5.5690846101e+00
 7.7864527726e-01	 6.2746436728e-01	 5.5488135996e+00
 7.6629711160e-01	 6.4248637087e-01	 5.5007905013e+00
 7.5364827034e-01	 6.5727793559e-01	 5.4271128450e+00
 7.4070527310e-01	 6.7183011127e-01	 5.3302020524e+00
 8.1185551130e-01	 6.0378675776e-01	 5.1525056210e+00
 7.9998880666e-01	 6.1942370740e-01	 5.1484988793e+00
 7.8780580993e-01	 6.3484630101e-01	 5.1177509204e+00
 7.7531237174e-01	 6.5004503405e-01	 5.0619252137e+00
 7.6251472058e-01	 6.6501061719e-01	 4.9830158480e+00
 7.4941945278e-01	 6.7973399493e-01	 4.8833280591e+00
 8.2129569166e-01	 6.1080753401e-01	 4.7703318278e+00
 8.0929100209e-01	 6.2662630865e-01	 4.7540483316e+00
 7.9696634261e-01	 6.4222823474e-01	 4.7135518117e+00
 7.8432763188e-01	 6.5760369724e-01	 4.6504588175e+00
 7.7138117082e-01	 6.7274329878e-01	 4.5667028340e+00
 7.5813363247e-01	 6.8763787859e-01	 4.4645146325e+00
 8.3073587203e-01	 6.1782831026e-01	 4.4120242696e+00
 8.1859319751e-01	 6.3382890990e-01	 4.3844540922e+00
 8.0612687528e-01	 6.4961016848e-01	 4.3349563149e+00
 7.9334289201e-01	 6.6516236043e-01	 4.2651428971e+00
 7.8024762106e-01	 6.8047598038e-01	 4.1769282284e+00
 7.6684781215e-01	 6.9554176225e-01	 4.0725090558e+00
 8.4017605239e-01	 6.2484908651e-01	 4.0763069156e+00
 8.2789539294e-01	 6.4103151115e-01	 4.0384634158e+00
 8.1528740795e-01	 6.5699210221e-01	 3.9807292069e+00
 8.0235815215e-01	 6.7272102361e-01	 3.9047526739e+00
 7.8911407130e-01	 6.8820866197e-01	 3.8124693508e+00
 7.7556199183e-01	 7.0344564591e-01	 3.7060811797e+00
 8.4961623276e-01	 6.3186986277e-01	 3.7619299284e+00
 8.3719758836e-01	 6.4823411239e-01	 3.7148482409e+00
 8.2444794063e-01	 6.6437403594e-01	 3.6496586529e+00
 8.1137341229e-01	 6.8027968680e-01	 3.5680857340e+00
 7.9798052153e-01	 6.9594134357e-01	 3.4721251889e+00
 7.8427617152e-01	 7.1134952958e-01	 3.3640222116e+00
 7.4070527310e-01	 6.7183011127e-01	 5.3302020524e+00
 7.2747499208e-01	 6.8613419671e-01	 5.2038521654e+00
 7.1396463999e-01	 7.0018175700e-01	 5.0423627595e+00
 7.0018175700e-01	 7.1396463999e-01	 4.8492900440e+00
 6.8613419671e-01	 7.2747499208e-01	 4.6283633119e+00
 6.7183011127e-01	 7.4070527310e-01	 4.3834560892e+00
 7.4941945278e-01	 6.7973399493e-01	 4.8833280591e+00
 7.3603352140e-01	 6.9420636373e-01	 4.7563072088e+00
 7.2236422399e-01	 7.0841918944e-01	 4.5962336610e+00
 7.0841918944e-01	 7.2236422399e-01	 4.4070191070e+00
 6.9420636373e-01	 7.3603352140e-01	 4.1927286791e+00
 6.7973399493e-01	 7.4941945278e-01	 3.9575492810e+00
 7.5813363247e-01	 6.8763787859e-01	 4.4645146325e+00
 7.4459205072e-01	 7.0227853075e-01	 4.3370124549e+00
 7.3076380799e-01	 7.1665662187e-01	 4.1784106752e+00
 7.1665662187e-01	 7.3076380799e-01	 3.9929161892e+00
 7.0227853075e-01	 7.4459205072e-01	 3.7848719083e+00
 6.8763787859e-01	 7.5813363247e-01	 3.5587225324e+00
 7.6684781215e-01	 6.9554176225e-01	 4.0725090558e+00
 7.5315058004e-01	 7.1035069777e-01	 3.9447103926e+00
 7.3916339199e-01	 7.2489405431e-01	 3.7876485339e+00
 7.2489405431e-01	 7.3916339199e-01	 3.6057675755e+00
 7.1035069777e-01	 7.5315058004e-01	 3.4036323852e+00
 6.9554176225e-01	 7.6684781215e-01	 3.1858920691e+00
 7.7556199183e-01	 7.0344564591e-01	 3.7060811797e+00
 7.6170910936e-01	 7.1842286479e-01	 3.5781656191e+00
 7.4756297599e-01	 7.3313148674e-01	 3.4227228328e+00
 7.3313148674e-01	 7.4756297599e-01	 3.2443782934e+00
 7.1842286479e-01	 7.6170910936e-01	 3.0478651515e+00
 7.0344564591e-01	 7.7556199183e-01	 2.8379856362e+00
 7.8427617152e-01	 7.1134952958e-01	 3.3640222116e+00
 7.7026763867e-01	 7.2649503181e-01	 3.2361636425e+00
 7.5596255999e-01	 7.4136891918e-01	 3.0824288830e+00
 7.4136891918e-01	 7.5596255999e-01	 2.9075710542e+00
 7.2649503181e-01	 7.7026763867e-01	 2.7164399813e+00
 7.1134952958e-01	 7.8427617152e-01	 2.5139417610e+00
 6.7183011127e-01	 7.4070527310e-01	 4.3834560892e+00
 6.5727793559e-01	 7.5364827034e-01	 4.1104705631e+00
 6.4248637087e-01	 7.6629711160e-01	 3.8049378290e+00
 6.2746436728e-01	 7.7864527726e-01	 3.4701662419e+00
 6.1222110615e-01	 7.9068661123e-01	 3.1093148000e+00
 5.9676598150e-01	 8.0241533094e-01	 2.7253733210e+00
 6.7973399493e-01	 7.4941945278e-01	 3.9575492810e+00
 6.6501061719e-01	 7.6251472058e-01	 3.6968613728e+00
 6.5004503405e-01	 7.7531237174e-01	 3.4054109995e+00
 6.3484630101e-01	 7.8780580993e-01	 3.0864179317e+00
 6.1942370740e-01	 7.9998880666e-01	 2.7429675328e+00
 6.0378675776e-01	 8.1185551130e-01	 2.3779903825e+00
 6.8763787859e-01	 7.5813363247e-01	 3.5587225324e+00
 6.7274329878e-01	 7.7138117082e-01	 3.3094472254e+00
 6.5760369724e-01	 7.8432763188e-01	 3.0311966475e+00
 6.4222823474e-01	 7.9696634261e-01	 2.7271508042e+00
 6.2662630865e-01	 8.0929100209e-01	 2.4003680496e+00
 6.1080753401e-01	 8.2129569166e-01	 2.0537638573e+00
 6.9554176225e-01	 7.6684781215e-01	 3.1858920691e+00
 6.8047598038e-01	 7.8024762106e-01	 2.9472285628e+00
 6.6516236043e-01	 7.9334289201e-01	 2.6813681069e+00
 6.4961016848e-01	 8.0612687528e-01	 2.3914984415e+00
 6.3382890990e-01	 8.1859319751e-01	 2.0806962675e+00
 6.1782831026e-01	 8.3073587203e-01	 1.7519048647e+00
 7.0344564591e-01	 7.7556199183e-01	 2.8379856362e+00
 6.8820866197e-01	 7.8911407130e-01	 2.6092129118e+00
 6.7272102361e-01	 8.0235815215e-01	 2.3550019205e+00
 6.5699210221e-01	 8.1528740795e-01	 2.0785943953e+00
 6.4103151115e-01	 8.2789539294e-01	 1.7831295465e+00
 6.2484908651e-01	 8.4017605239e-01	 1.4716202269e+00
 7.1134952958e-01	 7.8427617152e-01	 2.5139417610e+00
 6.9594134357e-01	 7.9798052153e-01	 2.2944143424e+00
 6.8027968680e-01	 8.1137341229e-01	 2.0511774583e+00
 6.6437403594e-01	 8.2444794063e-01	 1.7875719243e+00
 6.4823411239e-01	 8.3719758836e-01	 1.5068425022e+00
 6.3186986277e-01	 8.4961623276e-01	 1.2121123102e+00
 5.9676598150e-01	 8.0241533094e-01	 2.7253733210e+00
 5.8110858111e-01	 8.1382603605e-01	 2.3237090655e+00
 5.6525866720e-01	 8.2491371619e-01	 1.9017693677e+00
 5.4922615672e-01	 8.3567375738e-01	 1.4583434191e+00
 5.3302110150e-01	 8.4610194737e-01	 9.9368632933e-01
 5.1665366814e-01	 8.5619447978e-01	 5.0802199587e-01
 6.0378675776e-01	 8.1185551130e-01	 2.3779903825e+00
 5.8794515266e-01	 8.2340046000e-01	 1.9977115300e+00
 5.7190876916e-01	 8.3461858344e-01	 1.6019892965e+00
 5.5568764092e-01	 8.4550521335e-01	 1.1860424205e+00
 5.3929193799e-01	 8.5605608793e-01	 7.5014510692e-01
 5.2273194659e-01	 8.6626735601e-01	 2.9449522666e-01
 6.1080753401e-01	 8.2129569166e-01	 2.0537638573e+00
 5.9478172420e-01	 8.3297488396e-01	 1.6931051725e+00
 5.7855887113e-01	 8.4432345069e-01	 1.3218999832e+00
 5.6214912511e-01	 8.5533666932e-01	 9.3236159025e-01
 5.4556277448e-01	 8.6601022849e-01	 5.2377986693e-01
 5.2881022504e-01	 8.7634023224e-01	 9.6314425275e-02
 6.1782831026e-01	 8.3073587203e-01	 1.7519048647e+00
 6.0161829574e-01	 8.4254930791e-01	 1.4102402846e+00
 5.8520897310e-01	 8.5402831794e-01	 1.0606530018e+00
 5.6861060931e-01	 8.6516812529e-01	 6.9655980412e-01
 5.5183361097e-01	 8.7596436905e-01	 3.1399091744e-01
 5.3488850348e-01	 8.8641310847e-01	-8.6944037549e-02
 6.2484908651e-01	 8.4017605239e-01	 1.4716202269e+00
 6.0845486729e-01	 8.5212373187e-01	 1.1483634612e+00
 5.9185907507e-01	 8.6373318519e-01	 8.1773761788e-01
 5.7507209351e-01	 8.7499958126e-01	 4.7789783685e-01
 5.5810444746e-01	 8.8591850960e-01	 1.2017463028e-01
 5.4096678193e-01	 8.9648598471e-01	-2.5571497104e-01
 6.3186986277e-01	 8.4961623276e-01	 1.2121123102e+00
 6.1529143883e-01	 8.6169815582e-01	 9.0671299033e-01
 5.9850917703e-01	 8.7343805244e-01	 5.9404014770e-01
 5.8153357770e-01	 8.8483103723e-01	 2.7563740178e-01
 5.6437528395e-01	 8.9587265016e-01	-5.8277208435e-02
 5.4704506038e-01	 9.0655886094e-01	-4.1044461932e-01
 5.1665366814e-01	 8.5619447978e-01	 5.0802199587e-01
 5.0013411782e-01	 8.6594795698e-01	 6.5842456129e-03
 4.8347278617e-01	 8.7535939192e-01	-5.0440809612e-01
 4.6668006318e-01	 8.8442620870e-01	-1.0232814340e+00
 4.4976637320e-01	 8.9314624197e-01	-1.5483712395e+00
 4.3274215528e-01	 9.0151773529e-01	-2.0780291140e+00
 5.2273194659e-01	 8.6626735601e-01	 2.9449522666e-01
 5.0601804862e-01	 8.7613558000e-01	-1.7539278336e-01
 4.8916070131e-01	 8.8565773771e-01	-6.5313786052e-01
 4.7217041686e-01	 8.9483122292e-01	-1.1373096927e+00
 4.5505774230e-01	 9.0365384481e-01	-1.6264941576e+00
 4.3783323946e-01	 9.1212382629e-01	-2.1192995243e+00
 5.2881022504e-01	 8.7634023224e-01	 9.6314425275e-02
 5.1190197941e-01	 8.8632320302e-01	-3.4411022747e-01
 4.9484861644e-01	 8.9595608350e-01	-7.9080787637e-01
 4.7766077055e-01	 9.0523623714e-01	-1.2425798317e+00
 4.6034911139e-01	 9.1416144766e-01	-1.6982493374e+00
 4.4292432364e-01	 9.2272991730e-01	-2.1566669903e+00
 5.3488850348e-01	 8.8641310847e-01	-8.6944037549e-02
 5.1778591021e-01	 8.9651082605e-01	-4.9978913107e-01
 5.0053653157e-01	 9.0625442929e-01	-9.1741864907e-01
 4.8315112423e-01	 9.1564125136e-01	-1.3388542004e+00
 4.6564048049e-01	 9.2466905051e-01	-1.7631437613e+00
 4.4801540782e-01	 9.3333600830e-01	-2.1893663907e+00
 5.4096678193e-01	 8.9648598471e-01	-2.5571497104e-01
 5.2366984101e-01	 9.0669844907e-01	-6.4267000394e-01
 5.0622444670e-01	 9.1655277507e-01	-1.0329990916e+00
 4.8864147792e-01	 9.2604626558e-01	-1.4259331420e+00
 4.7093184959e-01	 9.3517665335e-01	-1.8207326224e+00
 4.5310649200e-01	 9.4394209931e-01	-2.2166916470e+00
 5.4704506038e-01	 9.0655886094e-01	-4.1044461932e-01
 5.2955377181e-01	 9.1688607209e-01	-7.7301261832e-01
 5.1191236183e-01	 9.2685112086e-01	-1.1376058217e+00
 4.9413183160e-01	 9.3645127980e-01	-1.5036537491e+00
 4.7622321868e-01	 9.4568425620e-01	-1.8706174982e+00
 4.5819757618e-01	 9.5454819031e-01	-2.2379932769e+00
 4.3274215528e-01	 9.0151773529e-01	-2.0780291140e+00
 4.1561784371e-01	 9.0953933834e-01	-2.6095634461e+00
 3.9840384897e-01	 9.1721010304e-01	-3.1401557131e+00
 3.8111053912e-01	 9.2452947869e-01	-3.6680423950e+00
 3.6374822164e-01	 9.3149730609e-01	-4.1915398929e+00
 3.4632712587e-01	 9.3811381073e-01	-4.7090436534e+00
 4.3783323946e-01	 9.1212382629e-01	-2.1192995243e+00
 4.2050746540e-01	 9.2023980115e-01	-2.6134203406e+00
 4.0309095307e-01	 9.2800081014e-01	-3.1062404145e+00
 3.8559419252e-01	 9.3540629609e-01	-3.5959824140e+00
 3.6802761248e-01	 9.4245609793e-01	-4.0809506657e+00
 3.5040156264e-01	 9.4915044380e-01	-4.5595304307e+00
 4.4292432364e-01	 9.2272991730e-01	-2.1566669903e+00
 4.2539708709e-01	 9.3094026395e-01	-2.6158850425e+00
 4.0777805718e-01	 9.3879151723e-01	-3.0734971881e+00
 3.9007784592e-01	 9.4628311349e-01	-3.5277513395e+00
 3.7230700333e-01	 9.5341488976e-01	-3.9769790127e+00
 3.5447599942e-01	 9.6018707687e-01	-4.4195945008e+00
 4.4801540782e-01	 9.3333600830e-01	-2.1893663907e+00
 4.3028670878e-01	 9.4164072676e-01	-2.6159141163e+00
 4.1246516128e-01	 9.4958222433e-01	-3.0406073657e+00
 3.9456149932e-01	 9.5715993088e-01	-3.4617570401e+00
 3.7658639417e-01	 9.6437368160e-01	-3.8777598238e+00
 3.5855043619e-01	 9.7122370994e-01	-4.2870970038e+00
 4.5310649200e-01	 9.4394209931e-01	-2.2166916470e+00
 4.3517633047e-01	 9.5234118956e-01	-2.6125341545e+00
 4.1715226539e-01	 9.6037293142e-01	-3.0063330382e+00
 3.9904515272e-01	 9.6803674828e-01	-3.3964986931e+00
 3.8086578501e-01	 9.7533247344e-01	-3.7815297389e+00
 3.6262487297e-01	 9.8226034300e-01	-4.1600112350e+00
 4.5819757618e-01	 9.5454819031e-01	-2.2379932769e+00
 4.4006595216e-01	 9.6304165236e-01	-2.6048386962e+00
 4.2183936950e-01	 9.7116363852e-01	-2.9695133490e+00
 4.0352880613e-01	 9.7891356568e-01	-3.3305624580e+00
 3.8514517586e-01	 9.8629126527e-01	-3.6866222022e+00
 3.6669930974e-01	 9.9329697607e-01	-4.0364170802e+00
 3.4632712587e-01	 9.3811381073e-01	-4.7090436534e+00
 3.2885738599e-01	 9.4437959512e-01	-5.2166218248e+00
 3.1134902473e-01	 9.5029563021e-01	-5.7098933806e+00
 2.9381193771e-01	 9.5586324611e-01	-6.1867976936e+00
 2.7625587852e-01	 9.6108412201e-01	-6.6454826170e+00
 2.5869044459e-01	 9.6596027552e-01	-7.0842980113e+00
 3.5040156264e-01	 9.4915044380e-01	-4.5595304307e+00
 3.3272629641e-01	 9.5548994330e-01	-5.0282840044e+00
 3.1501195444e-01	 9.6147557880e-01	-5.4835696271e+00
 2.9726854874e-01	 9.6710869606e-01	-5.9236533608e+00
 2.7950594768e-01	 9.7239099404e-01	-6.3469662943e+00
 2.6173386159e-01	 9.7732451405e-01	-6.7520976800e+00
 3.5447599942e-01	 9.6018707687e-01	-4.4195945008e+00
 3.3659520684e-01	 9.6660029148e-01	-4.8525340867e+00
 3.1867488414e-01	 9.7265552739e-01	-5.2726956100e+00
 3.0072515978e-01	 9.7835414602e-01	-5.6785997147e+00
 2.8275601684e-01	 9.8369786606e-01	-6.0688994282e+00
 2.6477727858e-01	 9.8868875259e-01	-6.4423728381e+00
 3.5855043619e-01	 9.7122370994e-01	-4.2870970038e+00
 3.4046411726e-01	 9.7771063965e-01	-4.6869978109e+00
 3.2233781384e-01	 9.8383547598e-01	-5.0747417271e+00
 3.0418177081e-01	 9.8959959597e-01	-5.4490343338e+00
 2.8600608600e-01	 9.9500473808e-01	-5.8086915111e+00
 2.6782069558e-01	 1.0000529911e+00	-6.1526315808e+00
 3.6262487297e-01	 9.8226034300e-01	-4.1600112350e+00
 3.4433302768e-01	 9.8882098783e-01	-4.5294217017e+00
 3.2600074355e-01	 9.9501542457e-01	-4.8873041604e+00
 3.0763838184e-01	 1.0008450459e+00	-5.2324818583e+00
 2.8925615515e-01	 1.0063116101e+00	-5.5638765748e+00
 2.7086411257e-01	 1.0114172297e+00	-5.8805001543e+00
 3.6669930974e-01	 9.9329697607e-01	-4.0364170802e+00
 3.4820193811e-01	 9.9993133601e-01	-4.3776669799e+00
 3.2966367325e-01	 1.0061953732e+00	-4.7080984622e+00
 3.1109499287e-01	 1.0120904959e+00	-5.0265874566e+00
 2.9250622431e-01	 1.0176184821e+00	-5.3321067467e+00
 2.7390752957e-01	 1.0227814682e+00	-5.6237168150e+00
 2.5869044459e-01	 9.6596027552e-01	-7.0842980113e+00
 2.4112506387e-01	 9.7049405128e-01	-7.5013862771e+00
 2.2356898224e-01	 9.7468810918e-01	-7.8949873653e+00
 2.0603125189e-01	 9.7854541195e-01	-8.2638339468e+00
 1.8852072043e-01	 9.8206921241e-01	-8.6067732811e+00
 1.7104602093e-01	 9.8526304037e-01	-8.9227614814e+00
 2.6173386159e-01	 9.7732451405e-01	-6.7520976800e+00
 2.4396182932e-01	 9.8191162836e-01	-7.1372152667e+00
 2.2619920556e-01	 9.8615502811e-01	-7.5004937892e+00
 2.0845514897e-01	 9.9005771091e-01	-7.8407453045e+00
 1.9073861126e-01	 9.9362296785e-01	-8.1569071787e+00
 1.7305832706e-01	 9.9685437026e-01	-8.4480350010e+00
 2.6477727858e-01	 9.8868875259e-01	-6.4423728381e+00
 2.4679859478e-01	 9.9332920543e-01	-6.7973774806e+00
 2.2882942888e-01	 9.9762194704e-01	-7.1322225018e+00
 2.1087904605e-01	 1.0015700099e+00	-7.4458011035e+00
 1.9295650209e-01	 1.0051767233e+00	-7.7371315604e+00
 1.7507063319e-01	 1.0084457001e+00	-8.0053492088e+00
 2.6782069558e-01	 1.0000529911e+00	-6.1526315808e+00
 2.4963536024e-01	 1.0047467825e+00	-6.4794751053e+00
 2.3145965220e-01	 1.0090888660e+00	-6.7877734075e+00
 2.1330294313e-01	 1.0130823088e+00	-7.0765035462e+00
 1.9517439291e-01	 1.0167304787e+00	-7.3447566918e+00
 1.7708293932e-01	 1.0200370300e+00	-7.5917296028e+00
 2.7086411257e-01	 1.0114172297e+00	-5.8805001543e+00
 2.5247212569e-01	 1.0161643596e+00	-6.1812223428e+00
 2.3408987552e-01	 1.0205557849e+00	-6.4648566945e+00
 2.1572684021e-01	 1.0245946078e+00	-6.7304677687e+00
 1.9739228374e-01	 1.0282842342e+00	-6.9772127714e+00
 1.7909524545e-01	 1.0316283599e+00	-7.2043329171e+00
 2.7390752957e-01	 1.0227814682e+00	-5.6237168150e+00
 2.5530889115e-01	 1.0275819367e+00	-5.9004395604e+00
 2.3672009884e-01	 1.0320227038e+00	-6.1612870306e+00
 2.1815073729e-01	 1.0361069068e+00	-6.4054158411e+00
 1.9961017457e-01	 1.0398379896e+00	-6.6320434939e+00
 1.8110755158e-01	 1.0432196898e+00	-6.8404400136e+00
 1.7104602093e-01	 9.8526304037e-01	-8.9227614814e+00
 1.5361556282e-01	 9.8813068916e-01	-9.2103142373e+00
 1.3623752361e-01	 9.9067620198e-01	-9.4681699850e+00
 1.1891984155e-01	 9.9290385803e-01	-9.6958176479e+00
 1.0167020908e-01	 9.9481815855e-01	-9.8929005441e+00
 8.4496067130e-02	 9.9642381276e-01	-1.0059209014e+01
 1.7305832706e-01	 9.9685437026e-01	-8.4480350010e+00
 1.5542280473e-01	 9.9975575609e-01	-8.7129790383e+00
 1.3784031801e-01	 1.0023312161e+00	-8.9507686605e+00
 1.2031889851e-01	 1.0045850799e+00	-9.1609080005e+00
 1.0286632918e-01	 1.0065219016e+00	-9.3430229992e+00
 8.5490138508e-02	 1.0081464459e+00	-9.4968551545e+00
 1.7507063319e-01	 1.0084457001e+00	-8.0053492088e+00
 1.5723004665e-01	 1.0113808230e+00	-8.2494600169e+00
 1.3944311240e-01	 1.0139862303e+00	-8.4686424370e+00
 1.2171795547e-01	 1.0162663017e+00	-8.6624469630e+00
 1.0406244929e-01	 1.0182256446e+00	-8.8305169693e+00
 8.6484209886e-02	 1.0198690789e+00	-8.9725832135e+00
 1.7708293932e-01	 1.0200370300e+00	-7.5917296028e+00
 1.5903728857e-01	 1.0230058900e+00	-7.8164772820e+00
 1.4104590680e-01	 1.0256412444e+00	-8.0182558147e+00
 1.2311701243e-01	 1.0279475236e+00	-8.1966919704e+00
 1.0525856940e-01	 1.0299293877e+00	-8.3514800234e+00
 8.7478281264e-02	 1.0315917120e+00	-8.4823766427e+00
 1.7909524545e-01	 1.0316283599e+00	-7.2043329171e+00
 1.6084453048e-01	 1.0346309569e+00	-7.4108945597e+00
 1.4264870119e-01	 1.0372962585e+00	-7.5962272230e+00
 1.2451606939e-01	 1.0396287455e+00	-7.7600627017e+00
 1.0645468951e-01	 1.0416331307e+00	-7.9021783642e+00
 8.8472352642e-02	 1.0433143451e+00	-8.0223920725e+00
 1.8110755158e-01	 1.0432196898e+00	-6.8404400136e+00
 1.6265177240e-01	 1.0462560238e+00	-7.0297113566e+00
 1.4425149559e-01	 1.0489512727e+00	-7.1993205740e+00
 1.2591512635e-01	 1.0513099673e+00	-7.3491321371e+00
 1.0765080961e-01	 1.0533368738e+00	-7.4790375036e+00
 8.9466424020e-02	 1.0550369782e+00	-7.5889497115e+00
 8.4496067130e-02	 9.9642381276e-01	-1.0059209014e+01
 6.7404600309e-02	 9.9772572376e-01	-1.0194965600e+01
 5.0402732834e-02	 9.9872897451e-01	-1.0300382269e+01
 3.3497125286e-02	 9.9943881383e-01	-1.0375409547e+01
 1.6694172137e-02	 9.9986064260e-01	-1.0420089686e+01
 0.0000000000e+00	 1.0000000000e+00	-1.0434555117e+01
 8.5490138508e-02	 1.0081464459e+00	-9.4968551545e+00
 6.8197595607e-02	 1.0094636735e+00	-9.6224029414e+00
 5.0995706161e-02	 1.0104787271e+00	-9.7197784274e+00
 3.3891209113e-02	 1.0111969175e+00	-9.7890292514e+00
 1.6890574162e-02	 1.0116237090e+00	-9.8302718378e+00
 0.0000000000e+00	 1.0117647059e+00	-9.8436903926e+00
 8.6484209886e-02	 1.0198690789e+00	-8.9725832135e+00
 6.8990590905e-02	 1.0212016231e+00	-9.0884961590e+00
 5.1588679489e-02	 1.0222284798e+00	-9.1782976330e+00
 3.4285292940e-02	 1.0229550212e+00	-9.2421046232e+00
 1.7086976187e-02	 1.0233867754e+00	-9.2800819595e+00
 0.0000000000e+00	 1.0235294118e+00	-9.2924418653e+00
 8.7478281264e-02	 1.0315917120e+00	-8.4823766427e+00
 6.9783586202e-02	 1.0329395728e+00	-8.5891470966e+00
 5.2181652816e-02	 1.0339782324e+00	-8.6717810473e+00
 3.4679376767e-02	 1.0347131249e+00	-8.7304379683e+00
 1.7283378212e-02	 1.0351498417e+00	-8.7653061401e+00
 0.0000000000e+00	 1.0352941176e+00	-8.7766027680e+00
 8.8472352642e-02	 1.0433143451e+00	-8.0223920725e+00
 7.0576581500e-02	 1.0446775225e+00	-8.1204340803e+00
 5.2774626143e-02	 1.0457279851e+00	-8.1962489071e+00
 3.5073460594e-02	 1.0464712286e+00	-8.2500125159e+00
 1.7479780237e-02	 1.0469129081e+00	-8.2819124624e+00
 0.0000000000e+00	 1.0470588235e+00	-8.2921485914e+00
 8.9466424020e-02	 1.0550369782e+00	-7.5889497115e+00
 7.1369576798e-02	 1.0564154722e+00	-7.6786021177e+00
 5.3367599471e-02	 1.0574777377e+00	-7.7478905690e+00
 3.5467544421e-02	 1.0582293323e+00	-7.7969823557e+00
 1.7676182262e-02	 1.0586759745e+00	-7.8260408832e+00
 0.0000000000e+00	 1.0588235294e+00	-7.8352269592e+00
 1.0588235294e+00	 0.0000000000e+00	 1.4507890261e+00
 1.0586759745e+00	 1.7676182262e-02	 1.4554717374e+00
 1.0582293323e+00	 3.5467544421e-02	 1.4682122353e+00
 1.0574777377e+00	 5.3367599471e-02	 1.4894455166e+00
 1.0564154722e+00	 7.1369576798e-02	 1.5192741082e+00
 1.0550369782e+00	 8.9466424020e-02	 1.5574667154e+00
 1.0705882353e+00	 0.0000000000e+00	 1.6716844805e+00
 1.0704390409e+00	 1.7872584288e-02	 1.6757993864e+00
 1.0699874360e+00	 3.5861628248e-02	 1.6866315714e+00
 1.0692274904e+00	 5.3960572798e-02	 1.7046472156e+00
 1.0681534219e+00	 7.2162572096e-02	 1.7299651363e+00
 1.0667596113e+00	 9.0460495398e-02	 1.7623565033e+00
 1.0823529412e+00	 0.0000000000e+00	 1.8782634071e+00
 1.0822021073e+00	 1.8068986313e-02	 1.8817725888e+00
 1.0817455397e+00	 3.6255712075e-02	 1.8907099731e+00
 1.0809772430e+00	 5.4553546126e-02	 1.9055583529e+00
 1.0798913716e+00	 7.2955567393e-02	 1.9264371332e+00
 1.0784822444e+00	 9.1454566776e-02	 1.9531032606e+00
 1.0941176471e+00	 0.0000000000e+00	 2.0692792347e+00
 1.0939651737e+00	 1.8265388338e-02	 2.0721233987e+00
 1.0935036434e+00	 3.6649795902e-02	 2.0791669317e+00
 1.0927269956e+00	 5.5146519453e-02	 2.0908944746e+00
 1.0916293213e+00	 7.3748562691e-02	 2.1074100753e+00
 1.0902048775e+00	 9.2448638154e-02	 2.1284394895e+00
 1.1058823529e+00	 0.0000000000e+00	 2.2435423515e+00
 1.1057282400e+00	 1.8461790363e-02	 2.2456410001e+00
 1.1052617471e+00	 3.7043879729e-02	 2.2507792138e+00
 1.1044767483e+00	 5.5739492781e-02	 2.2594284881e+00
 1.1033672710e+00	 7.4541557989e-02	 2.2716612962e+00
 1.1019275106e+00	 9.3442709532e-02	 2.2871549197e+00
 1.1176470588e+00	 0.0000000000e+00	 2.3999171078e+00
 1.1174913064e+00	 1.8658192388e-02	 2.4011686972e+00
 1.1170198508e+00	 3.7437963555e-02	 2.4043778428e+00
 1.1162265009e+00	 5.6332466108e-02	 2.4099876417e+00
 1.1151052207e+00	 7.5334553287e-02	 2.4180224671e+00
 1.1136501437e+00	 9.4436780910e-02	 2.4280934955e+00
 1.0550369782e+00	 8.9466424020e-02	 1.5574667154e+00
 1.0533368738e+00	 1.0765080961e-01	 1.6043541968e+00
 1.0513099673e+00	 1.2591512635e-01	 1.6602198843e+00
 1.0489512727e+00	 1.4425149559e-01	 1.7242893640e+00
 1.0462560238e+00	 1.6265177240e-01	 1.7955048827e+00
 1.0432196898e+00	 1.8110755158e-01	 1.8725461191e+00
 1.0667596113e+00	 9.0460495398e-02	 1.7623565033e+00
 1.0650406168e+00	 1.0884692972e-01	 1.8021585109e+00
 1.0629911892e+00	 1.2731418331e-01	 1.8496408930e+00
 1.0606062868e+00	 1.4585428998e-01	 1.9039839857e+00
 1.0578810907e+00	 1.6445901431e-01	 1.9640755511e+00
 1.0548110197e+00	 1.8311985770e-01	 2.0285339140e+00
 1.0784822444e+00	 9.1454566776e-02	 1.9531032606e+00
 1.0767443598e+00	 1.1004304983e-01	 1.9858869628e+00
 1.0746724110e+00	 1.2871324027e-01	 2.0250903533e+00
 1.0722613010e+00	 1.4745708438e-01	 2.0699209926e+00
 1.0695061577e+00	 1.6626625623e-01	 2.1192856649e+00
 1.0664023496e+00	 1.8513216383e-01	 2.1718156928e+00
 1.0902048775e+00	 9.2448638154e-02	 2.1284394895e+00
 1.0884481029e+00	 1.1123916993e-01	 2.1542909518e+00
 1.0863536329e+00	 1.3011229723e-01	 2.1853412430e+00
 1.0839163151e+00	 1.4905987878e-01	 2.2208943162e+00
 1.0811312246e+00	 1.6807349814e-01	 2.2599461252e+00
 1.0779936795e+00	 1.8714446996e-01	 2.3012119443e+00
 1.1019275106e+00	 9.3442709532e-02	 2.2871549197e+00
 1.1001518459e+00	 1.1243529004e-01	 2.3061788766e+00
 1.0980348548e+00	 1.3151135419e-01	 2.3292233198e+00
 1.0955713292e+00	 1.5066267317e-01	 2.3557545497e+00
 1.0927562915e+00	 1.6988074006e-01	 2.3849245716e+00
 1.0895850094e+00	 1.8915677609e-01	 2.4156002646e+00
 1.1136501437e+00	 9.4436780910e-02	 2.4280934955e+00
 1.1118555890e+00	 1.1363141015e-01	 2.4404131291e+00
 1.1097160766e+00	 1.3291041115e-01	 2.4556201178e+00
 1.1072263434e+00	 1.5226546757e-01	 2.4734059347e+00
 1.1043813585e+00	 1.7168798197e-01	 2.4931423416e+00
 1.1011763392e+00	 1.9116908222e-01	 2.5139122640e+00
 1.0432196898e+00	 1.8110755158e-01	 1.8725461191e+00
 1.0398379896e+00	 1.9961017457e-01	 1.9556479852e+00
 1.0361069068e+00	 2.1815073729e-01	 2.0454942019e+00
 1.0320227038e+00	 2.3672009884e-01	 2.1411262189e+00
 1.0275819367e+00	 2.5530889115e-01	 2.2414365764e+00
 1.0227814682e+00	 2.7390752957e-01	 2.3451983944e+00
 1.0548110197e+00	 1.8311985770e-01	 2.0285339140e+00
 1.0513917451e+00	 2.0182806540e-01	 2.0975170115e+00
 1.0476192057e+00	 2.2057463438e-01	 2.1717987917e+00
 1.0434896228e+00	 2.3935032216e-01	 2.2506065098e+00
 1.0389995137e+00	 2.5814565661e-01	 2.3330195658e+00
 1.0341457067e+00	 2.7695094656e-01	 2.4180002526e+00
 1.0664023496e+00	 1.8513216383e-01	 2.1718156928e+00
 1.0629455005e+00	 2.0404595623e-01	 2.2276235271e+00
 1.0591315047e+00	 2.2299853146e-01	 2.2875161918e+00
 1.0549565417e+00	 2.4198054548e-01	 2.3508485086e+00
 1.0504170908e+00	 2.6098242207e-01	 2.4168286395e+00
 1.0455099453e+00	 2.7999436356e-01	 2.4845505103e+00
 1.0779936795e+00	 1.8714446996e-01	 2.3012119443e+00
 1.0744992559e+00	 2.0626384706e-01	 2.3447957352e+00
 1.0706438037e+00	 2.2542242854e-01	 2.3914888821e+00
 1.0664234606e+00	 2.4461076880e-01	 2.4407165401e+00
 1.0618346679e+00	 2.6381918752e-01	 2.4917585857e+00
 1.0568741838e+00	 2.8303778055e-01	 2.5437841383e+00
 1.0895850094e+00	 1.8915677609e-01	 2.4156002646e+00
 1.0860530114e+00	 2.0848173789e-01	 2.4479193259e+00
 1.0821561026e+00	 2.2784632562e-01	 2.4826168182e+00
 1.0778903796e+00	 2.4724099212e-01	 2.5191319189e+00
 1.0732522449e+00	 2.6665595298e-01	 2.5567601405e+00
 1.0682384223e+00	 2.8608119755e-01	 2.5946903765e+00
 1.1011763392e+00	 1.9116908222e-01	 2.5139122640e+00
 1.0976067668e+00	 2.1069962871e-01	 2.5359343204e+00
 1.0936684016e+00	 2.3027022270e-01	 2.5598542211e+00
 1.0893572985e+00	 2.4987121544e-01	 2.5850696966e+00
 1.0846698220e+00	 2.6949271844e-01	 2.6108367076e+00
 1.0796026609e+00	 2.8912461454e-01	 2.6363094472e+00
 1.0227814682e+00	 2.7390752957e-01	 2.3451983944e+00
 1.0176184821e+00	 2.9250622431e-01	 2.4531929886e+00
 1.0120904959e+00	 3.1109499287e-01	 2.5653965573e+00
 1.0061953732e+00	 3.2966367325e-01	 2.6792567747e+00
 9.9993133601e-01	 3.4820193811e-01	 2.7921853362e+00
 9.9329697607e-01	 3.6669930974e-01	 2.9015882490e+00
 1.0341457067e+00	 2.7695094656e-01	 2.4180002526e+00
 1.0289253542e+00	 2.9575629347e-01	 2.5064550286e+00
 1.0233359458e+00	 3.1455160390e-01	 2.5984583740e+00
 1.0173753218e+00	 3.3332660295e-01	 2.6916132576e+00
 1.0110416842e+00	 3.5207084853e-01	 2.7834925553e+00
 1.0043336091e+00	 3.7077374652e-01	 2.8716697819e+00
 1.0455099453e+00	 2.7999436356e-01	 2.4845505103e+00
 1.0402322262e+00	 2.9900636263e-01	 2.5549989535e+00
 1.0345813958e+00	 3.1800821493e-01	 2.6283270483e+00
 1.0285552703e+00	 3.3698953265e-01	 2.7022787553e+00
 1.0221520324e+00	 3.5593975896e-01	 2.7745765750e+00
 1.0153702422e+00	 3.7484818329e-01	 2.8429529031e+00
 1.0568741838e+00	 2.8303778055e-01	 2.5437841383e+00
 1.0515390982e+00	 3.0225643179e-01	 2.5978112763e+00
 1.0458268457e+00	 3.2146482597e-01	 2.6540528724e+00
 1.0397352189e+00	 3.4065246236e-01	 2.7103795959e+00
 1.0332623805e+00	 3.5980866938e-01	 2.7646520780e+00
 1.0264068753e+00	 3.7892262007e-01	 2.8147530735e+00
 1.0682384223e+00	 2.8608119755e-01	 2.5946903765e+00
 1.0628459702e+00	 3.0550650095e-01	 2.6339303687e+00
 1.0570722957e+00	 3.2492143700e-01	 2.6747347939e+00
 1.0509151675e+00	 3.4431539206e-01	 2.7150867511e+00
 1.0443727287e+00	 3.6367757980e-01	 2.7529735573e+00
 1.0374435083e+00	 3.8299705684e-01	 2.7864199040e+00
 1.0796026609e+00	 2.8912461454e-01	 2.6363094472e+00
 1.0741528422e+00	 3.0875657011e-01	 2.6624431888e+00
 1.0683177456e+00	 3.2837804803e-01	 2.6895171859e+00
 1.0620951161e+00	 3.4797832176e-01	 2.7156126752e+00
 1.0554830769e+00	 3.6754649023e-01	 2.7388322534e+00
 1.0484801414e+00	 3.8707149362e-01	 2.7573342184e+00
 9.9329697607e-01	 3.6669930974e-01	 2.9015882490e+00
 9.8629126527e-01	 3.8514517586e-01	 3.0082749046e+00
 9.7891356568e-01	 4.0352880613e-01	 3.1137145730e+00
 9.7116363852e-01	 4.2183936950e-01	 3.2163803282e+00
 9.6304165236e-01	 4.4006595216e-01	 3.3148392147e+00
 9.5454819031e-01	 4.5819757618e-01	 3.4077580188e+00
 1.0043336091e+00	 3.7077374652e-01	 2.8716697819e+00
 9.9725005711e-01	 3.8942456670e-01	 2.9571608331e+00
 9.8979038307e-01	 4.0801245953e-01	 3.0415370336e+00
 9.8195434561e-01	 4.2652647360e-01	 3.1232888964e+00
 9.7374211517e-01	 4.4495557385e-01	 3.2010028489e+00
 9.6515428131e-01	 4.6328866036e-01	 3.2733661231e+00
 1.0153702422e+00	 3.7484818329e-01	 2.8429529031e+00
 1.0082088489e+00	 3.9370395754e-01	 2.9086080340e+00
 1.0006672005e+00	 4.1249611293e-01	 2.9732008749e+00
 9.9274505271e-01	 4.3121357771e-01	 3.0352415994e+00
 9.8444257797e-01	 4.4984519554e-01	 3.0933342398e+00
 9.7576037232e-01	 4.6837974454e-01	 3.1461805043e+00
 1.0264068753e+00	 3.7892262007e-01	 2.8147530735e+00
 1.0191676408e+00	 3.9798334838e-01	 2.8620181380e+00
 1.0115440179e+00	 4.1697976633e-01	 2.9081519692e+00
 1.0035357598e+00	 4.3590068181e-01	 2.9516864781e+00
 9.9514304078e-01	 4.5473481723e-01	 2.9912415734e+00
 9.8636646332e-01	 4.7347082872e-01	 3.0255277153e+00
 1.0374435083e+00	 3.8299705684e-01	 2.7864199040e+00
 1.0301264326e+00	 4.0226273923e-01	 2.8168215926e+00
 1.0224208353e+00	 4.2146341973e-01	 2.8458611736e+00
 1.0143264669e+00	 4.4058778592e-01	 2.8720942519e+00
 1.0058435036e+00	 4.5962443892e-01	 2.8941549579e+00
 9.9697255432e-01	 4.7856191290e-01	 2.9107570470e+00
 1.0484801414e+00	 3.8707149362e-01	 2.7573342184e+00
 1.0410852245e+00	 4.0654213007e-01	 2.7724748188e+00
 1.0332976527e+00	 4.2594707313e-01	 2.7858214879e+00
 1.0251171740e+00	 4.4527489002e-01	 2.7959553855e+00
 1.0165439664e+00	 4.6451406061e-01	 2.8015233070e+00
 1.0075786453e+00	 4.8365299708e-01	 2.8012371353e+00
 9.5454819031e-01	 4.5819757618e-01	 3.4077580188e+00
 9.4568425620e-01	 4.7622321868e-01	 3.4942478615e+00
 9.3645127980e-01	 4.9413183160e-01	 3.5725167096e+00
 9.2685112086e-01	 5.1191236183e-01	 3.6399950391e+00
 9.1688607209e-01	 5.2955377181e-01	 3.6941629027e+00
 9.0655886094e-01	 5.4704506038e-01	 3.7325378413e+00
 9.6515428131e-01	 4.6328866036e-01	 3.2733661231e+00
 9.5619185905e-01	 4.8151458778e-01	 3.3395110876e+00
 9.4685629402e-01	 4.9962218529e-01	 3.3978240815e+00
 9.3714946665e-01	 5.1760027696e-01	 3.4460016578e+00
 9.2707369512e-01	 5.3543770260e-01	 3.4818003335e+00
 9.1663173717e-01	 5.5312333883e-01	 3.5030206412e+00
 9.7576037232e-01	 4.6837974454e-01	 3.1461805043e+00
 9.6669946189e-01	 4.8680595688e-01	 3.1930173805e+00
 9.5726130824e-01	 5.0511253897e-01	 3.2325229470e+00
 9.4744781244e-01	 5.2328819209e-01	 3.2627024032e+00
 9.3726131814e-01	 5.4132163340e-01	 3.2816401826e+00
 9.2670461341e-01	 5.5920161728e-01	 3.2874798389e+00
 9.8636646332e-01	 4.7347082872e-01	 3.0255277153e+00
 9.7720706474e-01	 4.9209732597e-01	 3.0540191222e+00
 9.6766632246e-01	 5.1060289266e-01	 3.0758475928e+00
 9.5774615822e-01	 5.2897610723e-01	 3.0893689076e+00
 9.4744894116e-01	 5.4720556420e-01	 3.0930461130e+00
 9.3677748964e-01	 5.6527989573e-01	 3.0854249273e+00
 9.9697255432e-01	 4.7856191290e-01	 2.9107570470e+00
 9.8771466759e-01	 4.9738869507e-01	 2.9217917645e+00
 9.7807133668e-01	 5.1609324634e-01	 2.9270531990e+00
 9.6804450401e-01	 5.3466402236e-01	 2.9252890895e+00
 9.5763656419e-01	 5.5308949500e-01	 2.9153911230e+00
 9.4685036587e-01	 5.7135817418e-01	 2.8963655362e+00
 1.0075786453e+00	 4.8365299708e-01	 2.8012371353e+00
 9.9822227043e-01	 5.0268006417e-01	 2.7956301763e+00
 9.8847635090e-01	 5.2158360002e-01	 2.7854120536e+00
 9.7834284980e-01	 5.4035193749e-01	 2.7697633591e+00
 9.6782418721e-01	 5.5897342580e-01	 2.7480538642e+00
 9.5692324210e-01	 5.7743645262e-01	 2.7198079819e+00
 9.0655886094e-01	 5.4704506038e-01	 3.7325378413e+00
 8.9587265016e-01	 5.6437528395e-01	 3.7597843252e+00
 8.8483103723e-01	 5.8153357770e-01	 3.7828853508e+00
 8.7343805244e-01	 5.9850917703e-01	 3.7984635033e+00
 8.6169815582e-01	 6.1529143883e-01	 3.7906530335e+00
 8.4961623276e-01	 6.3186986277e-01	 3.7619299284e+00
 9.1663173717e-01	 5.5312333883e-01	 3.5030206412e+00
 9.0582679072e-01	 5.7064612043e-01	 3.5156698813e+00
 8.9466249320e-01	 5.8799506190e-01	 3.5280520077e+00
 8.8314291969e-01	 6.0515927900e-01	 3.5285172458e+00
 8.7127257977e-01	 6.2212801037e-01	 3.5065999071e+00
 8.5905641312e-01	 6.3889063902e-01	 3.4671324861e+00
 9.2670461341e-01	 5.5920161728e-01	 3.2874798389e+00
 9.1578093128e-01	 5.7691695692e-01	 3.2875902051e+00
 9.0449394916e-01	 5.9445654610e-01	 3.2896364228e+00
 8.9284778694e-01	 6.1180938097e-01	 3.2742125696e+00
 8.8084700373e-01	 6.2896458191e-01	 3.2393995186e+00
 8.6849659348e-01	 6.4591141527e-01	 3.1903087082e+00
 9.3677748964e-01	 5.6527989573e-01	 3.0854249273e+00
 9.2573507183e-01	 5.8318779341e-01	 3.0751955612e+00
 9.1432540513e-01	 6.0091803029e-01	 3.0648284653e+00
 9.0255265418e-01	 6.1845948293e-01	 3.0347231388e+00
 8.9042142768e-01	 6.3580115346e-01	 2.9881719239e+00
 8.7793677385e-01	 6.5293219153e-01	 2.9304704063e+00
 9.4685036587e-01	 5.7135817418e-01	 2.8963655362e+00
 9.3568921239e-01	 5.8945862990e-01	 2.8780470557e+00
 9.2415686110e-01	 6.0737951449e-01	 2.8528027167e+00
 9.1225752143e-01	 6.2510958490e-01	 2.8092297807e+00
 8.9999585163e-01	 6.4263772500e-01	 2.7520464200e+00
 8.8737695421e-01	 6.5995296778e-01	 2.6866429800e+00
 9.5692324210e-01	 5.7743645262e-01	 2.7198079819e+00
 9.4564335295e-01	 5.9572946639e-01	 2.6928814905e+00
 9.3398831707e-01	 6.1384099869e-01	 2.6527437813e+00
 9.2196238868e-01	 6.3175968687e-01	 2.5969204113e+00
 9.0957027559e-01	 6.4947429654e-01	 2.5301614131e+00
 8.9681713458e-01	 6.6697374403e-01	 2.4578650998e+00
 8.4961623276e-01	 6.3186986277e-01	 3.7619299284e+00
 8.3719758836e-01	 6.4823411239e-01	 3.7148482409e+00
 8.2444794063e-01	 6.6437403594e-01	 3.6496586529e+00
 8.1137341229e-01	 6.8027968680e-01	 3.5680857340e+00
 7.9798052153e-01	 6.9594134357e-01	 3.4721251889e+00
 7.8427617152e-01	 7.1134952958e-01	 3.3640222116e+00
 8.5905641312e-01	 6.3889063902e-01	 3.4671324861e+00
 8.4649978379e-01	 6.5543671364e-01	 3.4118363856e+00
 8.3360847330e-01	 6.7175596967e-01	 3.3399545251e+00
 8.2038867242e-01	 6.8783834999e-01	 3.2533155895e+00
 8.0684697177e-01	 7.0367402516e-01	 3.1540058345e+00
 7.9299035120e-01	 7.1925341324e-01	 3.0443463613e+00
 8.6849659348e-01	 6.4591141527e-01	 3.1903087082e+00
 8.5580197922e-01	 6.6263931489e-01	 3.1277176221e+00
 8.4276900597e-01	 6.7913790341e-01	 3.0498257379e+00
 8.2940393256e-01	 6.9539701317e-01	 2.9585823979e+00
 8.1571342201e-01	 7.1140670676e-01	 2.8561864928e+00
 8.0170453088e-01	 7.2715729690e-01	 2.7450625445e+00
 8.7793677385e-01	 6.5293219153e-01	 2.9304704063e+00
 8.6510417464e-01	 6.6984191614e-01	 2.8613885568e+00
 8.5192953865e-01	 6.8651983714e-01	 2.7780920758e+00
 8.3841919270e-01	 7.0295567636e-01	 2.6826669617e+00
 8.2457987225e-01	 7.1913938835e-01	 2.5774461966e+00
 8.1041871057e-01	 7.3506118056e-01	 2.4649845284e+00
 8.8737695421e-01	 6.5995296778e-01	 2.6866429800e+00
 8.7440637007e-01	 6.7704451739e-01	 2.6117639602e+00
 8.6109007132e-01	 6.9390177087e-01	 2.5235943581e+00
 8.4743445283e-01	 7.1051433955e-01	 2.4243723014e+00
 8.3344632249e-01	 7.2687206995e-01	 2.3165857198e+00
 8.1913289025e-01	 7.4296506422e-01	 2.2029457162e+00
 8.9681713458e-01	 6.6697374403e-01	 2.4578650998e+00
 8.8370856550e-01	 6.8424711864e-01	 2.3777762453e+00
 8.7025060399e-01	 7.0128370460e-01	 2.2851937920e+00
 8.5644971297e-01	 7.1807300273e-01	 2.1825229644e+00
 8.4231277273e-01	 7.3460475154e-01	 2.0724269184e+00
 8.2784706993e-01	 7.5086894789e-01	 1.9577985963e+00
 7.8427617152e-01	 7.1134952958e-01	 3.3640222116e+00
 7.7026763867e-01	 7.2649503181e-01	 3.2361636425e+00
 7.5596255999e-01	 7.4136891918e-01	 3.0824288830e+00
 7.4136891918e-01	 7.5596255999e-01	 2.9075710542e+00
 7.2649503181e-01	 7.7026763867e-01	 2.7164399813e+00
 7.1134952958e-01	 7.8427617152e-01	 2.5139417610e+00
 7.9299035120e-01	 7.1925341324e-01	 3.0443463613e+00
 7.7882616799e-01	 7.3456719883e-01	 2.9165985078e+00
 7.6436214399e-01	 7.4960635161e-01	 2.7645398971e+00
 7.4960635161e-01	 7.6436214399e-01	 2.5930174639e+00
 7.3456719883e-01	 7.7882616799e-01	 2.4069654751e+00
 7.1925341324e-01	 7.9299035120e-01	 2.2113633942e+00
 8.0170453088e-01	 7.2715729690e-01	 2.7450625445e+00
 7.8738469731e-01	 7.4263936585e-01	 2.6174020969e+00
 7.7276172799e-01	 7.5784378405e-01	 2.4669053529e+00
 7.5784378405e-01	 7.7276172799e-01	 2.2984983355e+00
 7.4263936585e-01	 7.8738469731e-01	 2.1171861293e+00
 7.2715729690e-01	 8.0170453088e-01	 1.9280090719e+00
 8.1041871057e-01	 7.3506118056e-01	 2.4649845284e+00
 7.9594322663e-01	 7.5071153287e-01	 2.3374444342e+00
 7.8116131199e-01	 7.6608121648e-01	 2.1884591409e+00
 7.6608121648e-01	 7.8116131199e-01	 2.0230198721e+00
 7.5071153287e-01	 7.9594322663e-01	 1.8461897468e+00
 7.3506118056e-01	 8.1041871057e-01	 1.6630583202e+00
 8.1913289025e-01	 7.4296506422e-01	 2.2029457162e+00
 8.0450175595e-01	 7.5878369989e-01	 2.0756120889e+00
 7.8956089599e-01	 7.7431864892e-01	 1.9281482200e+00
 7.7431864892e-01	 7.8956089599e-01	 1.7655974592e+00
 7.5878369989e-01	 8.0450175595e-01	 1.5930689940e+00
 7.4296506422e-01	 8.1913289025e-01	 1.4156907585e+00
 8.2784706993e-01	 7.5086894789e-01	 1.9577985963e+00
 8.1306028527e-01	 7.6685586691e-01	 1.8308077755e+00
 7.9796047999e-01	 7.8255608135e-01	 1.6849323795e+00
 7.8255608135e-01	 7.9796047999e-01	 1.5252556003e+00
 7.6685586691e-01	 8.1306028527e-01	 1.3569215249e+00
 7.5086894789e-01	 8.2784706993e-01	 1.1850864264e+00
 7.1134952958e-01	 7.8427617152e-01	 2.5139417610e+00
 6.9594134357e-01	 7.9798052153e-01	 2.2944143424e+00
 6.8027968680e-01	 8.1137341229e-01	 2.0511774583e+00
 6.6437403594e-01	 8.2444794063e-01	 1.7875719243e+00
 6.4823411239e-01	 8.3719758836e-01	 1.5068425022e+00
 6.3186986277e-01	 8.4961623276e-01	 1.2121123102e+00
 7.1925341324e-01	 7.9299035120e-01	 2.2113633942e+00
 7.0367402516e-01	 8.0684697177e-01	 2.0004823439e+00
 6.8783834999e-01	 8.2038867242e-01	 1.7676153881e+00
 6.7175596967e-01	 8.3360847330e-01	 1.5162303292e+00
 6.5543671364e-01	 8.4649978379e-01	 1.2497009656e+00
 6.3889063902e-01	 8.5905641312e-01	 9.7127955946e-01
 7.2715729690e-01	 8.0170453088e-01	 1.9280090719e+00
 7.1140670676e-01	 8.1571342201e-01	 1.7252258246e+00
 6.9539701317e-01	 8.2940393256e-01	 1.5021758713e+00
 6.7913790341e-01	 8.4276900597e-01	 1.2624654750e+00
 6.6263931489e-01	 8.5580197922e-01	 1.0096022208e+00
 6.4591141527e-01	 8.6849659348e-01	 7.4696546674e-01
 7.3506118056e-01	 8.1041871057e-01	 1.6630583202e+00
 7.1913938835e-01	 8.2457987225e-01	 1.4678993852e+00
 7.0295567636e-01	 8.3841919270e-01	 1.2541445573e+00
 6.8651983714e-01	 8.5192953865e-01	 1.0255500668e+00
 6.6984191614e-01	 8.6510417464e-01	 7.8576221172e-01
 6.5293219153e-01	 8.7793677385e-01	 5.3828571242e-01
 7.4296506422e-01	 8.1913289025e-01	 1.4156907585e+00
 7.2687206995e-01	 8.3344632249e-01	 1.2277536549e+00
 7.1051433955e-01	 8.4743445283e-01	 1.0228009490e+00
 6.9390177087e-01	 8.6109007132e-01	 8.0475039794e-01
 6.7704451739e-01	 8.7440637007e-01	 5.7739213080e-01
 6.5995296778e-01	 8.8737695421e-01	 3.4435481965e-01
 7.5086894789e-01	 8.2784706993e-01	 1.1850864264e+00
 7.3460475154e-01	 8.4231277273e-01	 1.0040357767e+00
 7.1807300273e-01	 8.5644971297e-01	 8.0741894103e-01
 7.0128370460e-01	 8.7025060399e-01	 5.9932683492e-01
 6.8424711864e-01	 8.8370856550e-01	 3.8369874276e-01
 6.6697374403e-01	 8.9681713458e-01	 1.6428621147e-01
 6.3186986277e-01	 8.4961623276e-01	 1.2121123102e+00
 6.1529143883e-01	 8.6169815582e-01	 9.0671299033e-01
 5.9850917703e-01	 8.7343805244e-01	 5.9404014770e-01
 5.8153357770e-01	 8.8483103723e-01	 2.7563740178e-01
 5.6437528395e-01	 8.9587265016e-01	-5.8277208435e-02
 5.4704506038e-01	 9.0655886094e-01	-4.1044461932e-01
 6.3889063902e-01	 8.5905641312e-01	 9.7127955946e-01
 6.2212801037e-01	 8.7127257977e-01	 6.8319636425e-01
 6.0515927900e-01	 8.8314291969e-01	 3.8770624737e-01
 5.8799506190e-01	 8.9466249320e-01	 8.7588632440e-02
 5.7064612043e-01	 9.0582679072e-01	-2.2351966503e-01
 5.5312333883e-01	 9.1663173717e-01	-5.5322397266e-01
 6.4591141527e-01	 8.6849659348e-01	 7.4696546674e-01
 6.2896458191e-01	 8.8084700373e-01	 4.7559276542e-01
 6.1180938097e-01	 8.9284778694e-01	 1.9650037554e-01
 5.9445654610e-01	 9.0449394916e-01	-8.7496679603e-02
 5.7691695692e-01	 9.1578093128e-01	-3.7776423113e-01
 5.5920161728e-01	 9.2670461341e-01	-6.8608901016e-01
 6.5293219153e-01	 8.7793677385e-01	 5.3828571242e-01
 6.3580115346e-01	 8.9042142768e-01	 2.8294436488e-01
 6.1845948293e-01	 9.0255265418e-01	 1.9488294024e-02
 6.0091803029e-01	 9.1432540513e-01	-2.4924086872e-01
 5.8318779341e-01	 9.2573507183e-01	-5.2170995117e-01
 5.6527989573e-01	 9.3677748964e-01	-8.0942457053e-01
 6.5995296778e-01	 8.8737695421e-01	 3.4435481965e-01
 6.4263772500e-01	 8.9999585163e-01	 1.0429473820e-01
 6.2510958490e-01	 9.1225752143e-01	-1.4426427215e-01
 6.0737951449e-01	 9.2415686110e-01	-3.9846107244e-01
 5.8945862990e-01	 9.3568921239e-01	-6.5601632523e-01
 5.7135817418e-01	 9.4685036587e-01	-9.2363200271e-01
 6.6697374403e-01	 8.9681713458e-01	 1.6428621147e-01
 6.4947429654e-01	 9.0957027559e-01	-6.1311292617e-02
 6.3175968687e-01	 9.2196238868e-01	-2.9569179958e-01
 6.1384099869e-01	 9.3398831707e-01	-5.3598142558e-01
 5.9572946639e-01	 9.4564335295e-01	-7.7987802014e-01
 5.7743645262e-01	 9.5692324210e-01	-1.0291291668e+00
 5.4704506038e-01	 9.0655886094e-01	-4.1044461932e-01
 5.2955377181e-01	 9.1688607209e-01	-7.7301261832e-01
 5.1191236183e-01	 9.2685112086e-01	-1.1376058217e+00
 4.9413183160e-01	 9.3645127980e-01	-1.5036537491e+00
 4.7622321868e-01	 9.4568425620e-01	-1.8706174982e+00
 4.5819757618e-01	 9.5454819031e-01	-2.2379932769e+00
 5.5312333883e-01	 9.1663173717e-01	-5.5322397266e-01
 5.3543770260e-01	 9.2707369512e-01	-8.9282127395e-01
 5.1760027696e-01	 9.3714946665e-01	-1.2331509531e+00
 4.9962218529e-01	 9.4685629402e-01	-1.5738343497e+00
 4.8151458778e-01	 9.5619185905e-01	-1.9145323365e+00
 4.6328866036e-01	 9.6515428131e-01	-2.2549481693e+00
 5.5920161728e-01	 9.2670461341e-01	-6.8608901016e-01
 5.4132163340e-01	 9.3726131814e-01	-1.0039470871e+00
 5.2328819209e-01	 9.4744781244e-01	-1.3213665486e+00
 5.0511253897e-01	 9.5726130824e-01	-1.6381572460e+00
 4.8680595688e-01	 9.6669946189e-01	-1.9541893645e+00
 4.6837974454e-01	 9.7576037232e-01	-2.2693952647e+00
 5.6527989573e-01	 9.3677748964e-01	-8.0942457053e-01
 5.4720556420e-01	 9.4744894116e-01	-1.1064567838e+00
 5.2897610723e-01	 9.5774615822e-01	-1.4020888821e+00
 5.1060289266e-01	 9.6766632246e-01	-1.6963156178e+00
 4.9209732597e-01	 9.7720706474e-01	-1.9892254976e+00
 4.7347082872e-01	 9.8636646332e-01	-2.2810012946e+00
 5.7135817418e-01	 9.4685036587e-01	-9.2363200271e-01
 5.5308949500e-01	 9.5763656419e-01	-1.2004463780e+00
 5.3466402236e-01	 9.6804450401e-01	-1.4751923928e+00
 5.1609324634e-01	 9.7807133668e-01	-1.7480458032e+00
 4.9738869507e-01	 9.8771466759e-01	-2.0193219447e+00
 4.7856191290e-01	 9.9697255432e-01	-2.2894746012e+00
 5.7743645262e-01	 9.5692324210e-01	-1.0291291668e+00
 5.5897342580e-01	 9.6782418721e-01	-1.2860405044e+00
 5.4035193749e-01	 9.7834284980e-01	-1.5405885505e+00
 5.2158360002e-01	 9.8847635090e-01	-1.7931258941e+00
 5.0268006417e-01	 9.9822227043e-01	-2.0442027324e+00
 4.8365299708e-01	 1.0075786453e+00	-2.2945637846e+00
 4.5819757618e-01	 9.5454819031e-01	-2.2379932769e+00
 4.4006595216e-01	 9.6304165236e-01	-2.6048386962e+00
 4.2183936950e-01	 9.7116363852e-01	-2.9695133490e+00
 4.0352880613e-01	 9.7891356568e-01	-3.3305624580e+00
 3.8514517586e-01	 9.8629126527e-01	-3.6866222022e+00
 3.6669930974e-01	 9.9329697607e-01	-4.0364170802e+00
 4.6328866036e-01	 9.6515428131e-01	-2.2549481693e+00
 4.4495557385e-01	 9.7374211517e-01	-2.5944827848e+00
 4.2652647360e-01	 9.8195434561e-01	-2.9317812000e+00
 4.0801245953e-01	 9.8979038307e-01	-3.2655141804e+00
 3.8942456670e-01	 9.9725005711e-01	-3.5944434556e+00
 3.7077374652e-01	 1.0043336091e+00	-3.9174183330e+00
 4.6837974454e-01	 9.7576037232e-01	-2.2693952647e+00
 4.4984519554e-01	 9.8444257797e-01	-2.5834809539e+00
 4.3121357771e-01	 9.9274505271e-01	-2.8952864293e+00
 4.1249611293e-01	 1.0006672005e+00	-3.2035564251e+00
 3.9370395754e-01	 1.0082088489e+00	-3.5071209895e+00
 3.7484818329e-01	 1.0153702422e+00	-3.8048917969e+00
 4.7347082872e-01	 9.8636646332e-01	-2.2810012946e+00
 4.5473481723e-01	 9.9514304078e-01	-2.5715438461e+00
 4.3590068181e-01	 1.0035357598e+00	-2.8597277658e+00
 4.1697976633e-01	 1.0115440179e+00	-3.1443224891e+00
 3.9798334838e-01	 1.0191676408e+00	-3.4241716055e+00
 3.7892262007e-01	 1.0264068753e+00	-3.6981893033e+00
 4.7856191290e-01	 9.9697255432e-01	-2.2894746012e+00
 4.5962443892e-01	 1.0058435036e+00	-2.5584202862e+00
 4.4058778592e-01	 1.0143264669e+00	-2.8248409351e+00
 4.2146341973e-01	 1.0224208353e+00	-3.0874836389e+00
 4.0226273923e-01	 1.0301264326e+00	-3.3451531170e+00
 3.8299705684e-01	 1.0374435083e+00	-3.5967087167e+00
 4.8365299708e-01	 1.0075786453e+00	-2.2945637846e+00
 4.6451406061e-01	 1.0165439664e+00	-2.5438960861e+00
 4.4527489002e-01	 1.0251171740e+00	-2.7903974977e+00
 4.2594707313e-01	 1.0332976527e+00	-3.0327478644e+00
 4.0654213007e-01	 1.0410852245e+00	-3.2696629069e+00
 3.8707149362e-01	 1.0484801414e+00	-3.4998921872e+00
 3.6669930974e-01	 9.9329697607e-01	-4.0364170802e+00
 3.4820193811e-01	 9.9993133601e-01	-4.3776669799e+00
 3.2966367325e-01	 1.0061953732e+00	-4.7080984622e+00
 3.1109499287e-01	 1.0120904959e+00	-5.0265874566e+00
 2.9250622431e-01	 1.0176184821e+00	-5.3321067467e+00
 2.7390752957e-01	 1.0227814682e+00	-5.6237168150e+00
 3.7077374652e-01	 1.0043336091e+00	-3.9174183330e+00
 3.5207084853e-01	 1.0110416842e+00	-4.2323919876e+00
 3.3332660295e-01	 1.0173753218e+00	-4.5372767376e+00
 3.1455160390e-01	 1.0233359458e+00	-4.8310022662e+00
 2.9575629347e-01	 1.0289253542e+00	-5.1125961843e+00
 2.7695094656e-01	 1.0341457067e+00	-5.3811740241e+00
 3.7484818329e-01	 1.0153702422e+00	-3.8048917969e+00
 3.5593975896e-01	 1.0221520324e+00	-4.0950326582e+00
 3.3698953265e-01	 1.0285552703e+00	-4.3757081115e+00
 3.1800821493e-01	 1.0345813958e+00	-4.6459660756e+00
 2.9900636263e-01	 1.0402322262e+00	-4.9049491073e+00
 2.7999436356e-01	 1.0455099453e+00	-5.1518833030e+00
 3.7892262007e-01	 1.0264068753e+00	-3.6981893033e+00
 3.5980866938e-01	 1.0332623805e+00	-3.9647399205e+00
 3.4065246236e-01	 1.0397352189e+00	-4.2223162627e+00
 3.2146482597e-01	 1.0458268457e+00	-4.4701472970e+00
 3.0225643179e-01	 1.0515390982e+00	-4.7075490906e+00
 2.8303778055e-01	 1.0568741838e+00	-4.9339123743e+00
 3.8299705684e-01	 1.0374435083e+00	-3.5967087167e+00
 3.6367757980e-01	 1.0443727287e+00	-3.8407172224e+00
 3.4431539206e-01	 1.0509151675e+00	-4.0760849513e+00
 3.2492143700e-01	 1.0570722957e+00	-4.3022831581e+00
 3.0550650095e-01	 1.0628459702e+00	-4.5188585179e+00
 2.8608119755e-01	 1.0682384223e+00	-4.7254191073e+00
 3.8707149362e-01	 1.0484801414e+00	-3.4998921872e+00
 3.6754649023e-01	 1.0554830769e+00	-3.7222183970e+00
 3.4797832176e-01	 1.0620951161e+00	-3.9360554415e+00
 3.2837804803e-01	 1.0683177456e+00	-4.1411766158e+00
 3.0875657011e-01	 1.0741528422e+00	-4.3374149194e+00
 2.8912461454e-01	 1.0796026609e+00	-4.5246472079e+00
 2.7390752957e-01	 1.0227814682e+00	-5.6237168150e+00
 2.5530889115e-01	 1.0275819367e+00	-5.9004395604e+00
 2.3672009884e-01	 1.0320227038e+00	-6.1612870306e+00
 2.1815073729e-01	 1.0361069068e+00	-6.4054158411e+00
 1.9961017457e-01	 1.0398379896e+00	-6.6320434939e+00
 1.8110755158e-01	 1.0432196898e+00	-6.8404400136e+00
 2.7695094656e-01	 1.0341457067e+00	-5.3811740241e+00
 2.5814565661e-01	 1.0389995137e+00	-5.6357891886e+00
 2.3935032216e-01	 1.0434896228e+00	-5.8755255470e+00
 2.2057463438e-01	 1.0476192057e+00	-6.0996306934e+00
 2.0182806540e-01	 1.0513917451e+00	-6.3073809357e+00
 1.8311985770e-01	 1.0548110197e+00	-6.4980731838e+00
 2.7999436356e-01	 1.0455099453e+00	-5.1518833030e+00
 2.6098242207e-01	 1.0504170908e+00	-5.3858008415e+00
 2.4198054548e-01	 1.0549565417e+00	-5.6057604940e+00
 2.2299853146e-01	 1.0591315047e+00	-5.8110936019e+00
 2.0404595623e-01	 1.0629455005e+00	-6.0011372332e+00
 1.8513216383e-01	 1.0664023496e+00	-6.1752259030e+00
 2.8303778055e-01	 1.0568741838e+00	-4.9339123743e+00
 2.6381918752e-01	 1.0618346679e+00	-5.1482504658e+00
 2.4461076880e-01	 1.0664234606e+00	-5.3495563126e+00
 2.2542242854e-01	 1.0706438037e+00	-5.5372379009e+00
 2.0626384706e-01	 1.0744992559e+00	-5.7106949263e+00
 1.8714446996e-01	 1.0779936795e+00	-5.8693099309e+00
 2.8608119755e-01	 1.0682384223e+00	-4.7254191073e+00
 2.6665595298e-01	 1.0732522449e+00	-4.9210145166e+00
 2.4724099212e-01	 1.0778903796e+00	-5.1045849690e+00
 2.2784632562e-01	 1.0821561026e+00	-5.2756081402e+00
 2.0848173789e-01	 1.0860530114e+00	-5.4335481603e+00
 1.8915677609e-01	 1.0895850094e+00	-5.5778457551e+00
 2.8912461454e-01	 1.0796026609e+00	-4.5246472079e+00
 2.6949271844e-01	 1.0846698220e+00	-4.7020650497e+00
 2.4987121544e-01	 1.0893572985e+00	-4.8686206277e+00
 2.3027022270e-01	 1.0936684016e+00	-5.0238545146e+00
 2.1069962871e-01	 1.0976067668e+00	-5.1672970466e+00
 1.9116908222e-01	 1.1011763392e+00	-5.2984570595e+00
 1.8110755158e-01	 1.0432196898e+00	-6.8404400136e+00
 1.6265177240e-01	 1.0462560238e+00	-7.0297113566e+00
 1.4425149559e-01	 1.0489512727e+00	-7.1993205740e+00
 1.2591512635e-01	 1.0513099673e+00	-7.3491321371e+00
 1.0765080961e-01	 1.0533368738e+00	-7.4790375036e+00
 8.9466424020e-02	 1.0550369782e+00	-7.5889497115e+00
 1.8311985770e-01	 1.0548110197e+00	-6.4980731838e+00
 1.6445901431e-01	 1.0578810907e+00	-6.6709367318e+00
 1.4585428998e-01	 1.0606062868e+00	-6.8256451385e+00
 1.2731418331e-01	 1.0629911892e+00	-6.9621840113e+00
 1.0884692972e-01	 1.0650406168e+00	-7.0805484579e+00
 9.0460495398e-02	 1.0667596113e+00	-7.1807373149e+00
 1.8513216383e-01	 1.0664023496e+00	-6.1752259030e+00
 1.6626625623e-01	 1.0695061577e+00	-6.3327759993e+00
 1.4745708438e-01	 1.0722613010e+00	-6.4736922563e+00
 1.2871324027e-01	 1.0746724110e+00	-6.5980328395e+00
 1.1004304983e-01	 1.0767443598e+00	-6.7058468406e+00
 9.1454566776e-02	 1.0784822444e+00	-6.7971684026e+00
 1.8714446996e-01	 1.0779936795e+00	-5.8693099309e+00
 1.6807349814e-01	 1.0811312246e+00	-6.0127023196e+00
 1.4905987878e-01	 1.0839163151e+00	-6.1409825692e+00
 1.3011229723e-01	 1.0863536329e+00	-6.2542349521e+00
 1.1123916993e-01	 1.0884481029e+00	-6.3525149792e+00
 9.2448638154e-02	 1.0902048775e+00	-6.4358436779e+00
 1.8915677609e-01	 1.0895850094e+00	-5.5778457551e+00
 1.6988074006e-01	 1.0927562915e+00	-5.7082934939e+00
 1.5066267317e-01	 1.0955713292e+00	-5.8251380420e+00
 1.3151135419e-01	 1.0980348548e+00	-5.9284453819e+00
 1.1243529004e-01	 1.1001518459e+00	-6.0182319071e+00
 9.3442709532e-02	 1.1019275106e+00	-6.0944591014e+00
 1.9116908222e-01	 1.1011763392e+00	-5.2984570595e+00
 1.7168798197e-01	 1.1043813585e+00	-5.4172266055e+00
 1.5226546757e-01	 1.1072263434e+00	-5.5238767406e+00
 1.3291041115e-01	 1.1097160766e+00	-5.6184127464e+00
 1.1363141015e-01	 1.1118555890e+00	-5.7007683209e+00
 9.4436780910e-02	 1.1136501437e+00	-5.7708009025e+00
 8.9466424020e-02	 1.0550369782e+00	-7.5889497115e+00
 7.1369576798e-02	 1.0564154722e+00	-7.6786021177e+00
 5.3367599471e-02	 1.0574777377e+00	-7.7478905690e+00
 3.5467544421e-02	 1.0582293323e+00	-7.7969823557e+00
 1.7676182262e-02	 1.0586759745e+00	-7.8260408832e+00
 0.0000000000e+00	 1.0588235294e+00	-7.8352269592e+00
 9.0460495398e-02	 1.0667596113e+00	-7.1807373149e+00
 7.2162572096e-02	 1.0681534219e+00	-7.2624833129e+00
 5.3960572798e-02	 1.0692274904e+00	-7.3256349461e+00
 3.5861628248e-02	 1.0699874360e+00	-7.3703495426e+00
 1.7872584288e-02	 1.0704390409e+00	-7.3967647317e+00
 0.0000000000e+00	 1.0705882353e+00	-7.4050003289e+00
 9.1454566776e-02	 1.0784822444e+00	-6.7971684026e+00
 7.2955567393e-02	 1.0798913716e+00	-6.8716926842e+00
 5.4553546126e-02	 1.0809772430e+00	-6.9292335104e+00
 3.6255712075e-02	 1.0817455397e+00	-6.9699599809e+00
 1.8068986313e-02	 1.0822021073e+00	-6.9940033324e+00
 0.0000000000e+00	 1.0823529412e+00	-7.0014594278e+00
 9.2448638154e-02	 1.0902048775e+00	-6.4358436779e+00
 7.3748562691e-02	 1.0916293213e+00	-6.5038429467e+00
 5.5146519453e-02	 1.0927269956e+00	-6.5563042238e+00
 3.6649795902e-02	 1.0935036434e+00	-6.5934296706e+00
 1.8265388338e-02	 1.0939651737e+00	-6.6153630793e+00
 0.0000000000e+00	 1.0941176471e+00	-6.6221929713e+00
 9.3442709532e-02	 1.1019275106e+00	-6.0944591014e+00
 7.4541557989e-02	 1.1033672710e+00	-6.1566411327e+00
 5.5739492781e-02	 1.1044767483e+00	-6.2045589602e+00
 3.7043879729e-02	 1.1052617471e+00	-6.2384686801e+00
 1.8461790363e-02	 1.1057282400e+00	-6.2585451769e+00
 0.0000000000e+00	 1.1058823529e+00	-6.2648858348e+00
 9.4436780910e-02	 1.1136501437e+00	-5.7708009025e+00
 7.5334553287e-02	 1.1151052207e+00	-5.8278836350e+00
 5.6332466108e-02	 1.1162265009e+00	-5.8717985578e+00
 3.7437963555e-02	 1.1170198508e+00	-5.9028761850e+00
 1.8658192388e-02	 1.1174913064e+00	-5.9213406416e+00
 0.0000000000e+00	 1.1176470588e+00	-5.9273139929e+00
 1.1176470588e+00	 0.0000000000e+00	 2.3999171078e+00
 1.1174913064e+00	 1.8658192388e-02	 2.4011686972e+00
 1.1170198508e+00	 3.7437963555e-02	 2.4043778428e+00
 1.1162265009e+00	 5.6332466108e-02	 2.4099876417e+00
 1.1151052207e+00	 7.5334553287e-02	 2.4180224671e+00
 1.1136501437e+00	 9.4436780910e-02	 2.4280934955e+00
 1.1294117647e+00	 0.0000000000e+00	 2.5425189612e+00
 1.1292543728e+00	 1.8854594413e-02	 2.5429848104e+00
 1.1287779544e+00	 3.7832047382e-02	 2.5444663886e+00
 1.1279762536e+00	 5.6925439436e-02	 2.5473670659e+00
 1.1268431704e+00	 7.6127548585e-02	 2.5516505426e+00
 1.1253727768e+00	 9.5430852288e-02	 2.5568482305e+00
 1.1411764706e+00	 0.0000000000e+00	 2.6755546106e+00
 1.1410174392e+00	 1.9050996438e-02	 2.6754524427e+00
 1.1405360581e+00	 3.8226131209e-02	 2.6756267673e+00
 1.1397260062e+00	 5.7518412763e-02	 2.6764336296e+00
 1.1385811201e+00	 7.6920543882e-02	 2.6777672379e+00
 1.1370954099e+00	 9.6424923666e-02	 2.6790693478e+00
 1.1529411765e+00	 0.0000000000e+00	 2.7980962397e+00
 1.1527805056e+00	 1.9247398464e-02	 2.7976135532e+00
 1.1522941618e+00	 3.8620215036e-02	 2.7968794886e+00
 1.1514757588e+00	 5.8111386091e-02	 2.7961945772e+00
 1.1503190697e+00	 7.7713539180e-02	 2.7953740705e+00
 1.1488180429e+00	 9.7418995044e-02	 2.7937594807e+00
 1.1647058824e+00	 0.0000000000e+00	 2.9092572361e+00
 1.1645435720e+00	 1.9443800489e-02	 2.9085518102e+00
 1.1640522655e+00	 3.9014298863e-02	 2.9072872667e+00
 1.1632255115e+00	 5.8704359418e-02	 2.9056998210e+00
 1.1620570194e+00	 7.8506534478e-02	 2.9035156326e+00
 1.1605406760e+00	 9.8413066422e-02	 2.8999646665e+00
 1.1764705882e+00	 0.0000000000e+00	 3.0081901312e+00
 1.1763066384e+00	 1.9640202514e-02	 3.0073905039e+00
 1.1758103692e+00	 3.9408382690e-02	 3.0059529075e+00
 1.1749752641e+00	 5.9297332745e-02	 3.0040398038e+00
 1.1737949691e+00	 7.9299529776e-02	 3.0012774337e+00
 1.1722633091e+00	 9.9407137800e-02	 2.9967721685e+00
 1.1136501437e+00	 9.4436780910e-02	 2.4280934955e+00
 1.1118555890e+00	 1.1363141015e-01	 2.4404131291e+00
 1.1097160766e+00	 1.3291041115e-01	 2.4556201178e+00
 1.1072263434e+00	 1.5226546757e-01	 2.4734059347e+00
 1.1043813585e+00	 1.7168798197e-01	 2.4931423416e+00
 1.1011763392e+00	 1.9116908222e-01	 2.5139122640e+00
 1.1253727768e+00	 9.5430852288e-02	 2.5568482305e+00
 1.1235593320e+00	 1.1482753025e-01	 2.5630876798e+00
 1.1213972985e+00	 1.3430946811e-01	 2.5711260938e+00
 1.1188813575e+00	 1.5386826196e-01	 2.5808623681e+00
 1.1160064254e+00	 1.7349522389e-01	 2.5918707854e+00
 1.1127676691e+00	 1.9318138835e-01	 2.6034338615e+00
 1.1370954099e+00	 9.6424923666e-02	 2.6790693478e+00
 1.1352630751e+00	 1.1602365036e-01	 2.6803516133e+00
 1.1330785203e+00	 1.3570852507e-01	 2.6824025639e+00
 1.1305363717e+00	 1.5547105636e-01	 2.6852335465e+00
 1.1276314923e+00	 1.7530246580e-01	 2.6885265711e+00
 1.1243589990e+00	 1.9519369448e-01	 2.6916697884e+00
 1.1488180429e+00	 9.7418995044e-02	 2.7937594807e+00
 1.1469668181e+00	 1.1721977047e-01	 2.7912226402e+00
 1.1447597422e+00	 1.3710758203e-01	 2.7885051256e+00
 1.1421913858e+00	 1.5707385075e-01	 2.7856376275e+00
 1.1392565593e+00	 1.7710970772e-01	 2.7823169465e+00
 1.1359503289e+00	 1.9720600060e-01	 2.7779447699e+00
 1.1605406760e+00	 9.8413066422e-02	 2.8999646665e+00
 1.1586705611e+00	 1.1841589057e-01	 2.8947617848e+00
 1.1564409641e+00	 1.3850663899e-01	 2.8885317705e+00
 1.1538463999e+00	 1.5867664515e-01	 2.8812332832e+00
 1.1508816262e+00	 1.7891694964e-01	 2.8724867076e+00
 1.1475416588e+00	 1.9921830673e-01	 2.8616168971e+00
 1.1722633091e+00	 9.9407137800e-02	 2.9967721685e+00
 1.1703743042e+00	 1.1961201068e-01	 2.9900712053e+00
 1.1681221859e+00	 1.3990569595e-01	 2.9816207368e+00
 1.1655014141e+00	 1.6027943954e-01	 2.9712176274e+00
 1.1625066931e+00	 1.8072419155e-01	 2.9583162443e+00
 1.1591329887e+00	 2.0123061286e-01	 2.9420758431e+00
 1.1011763392e+00	 1.9116908222e-01	 2.5139122640e+00
 1.0976067668e+00	 2.1069962871e-01	 2.5359343204e+00
 1.0936684016e+00	 2.3027022270e-01	 2.5598542211e+00
 1.0893572985e+00	 2.4987121544e-01	 2.5850696966e+00
 1.0846698220e+00	 2.6949271844e-01	 2.6108367076e+00
 1.0796026609e+00	 2.8912461454e-01	 2.6363094472e+00
 1.1127676691e+00	 1.9318138835e-01	 2.6034338615e+00
 1.1091605223e+00	 2.1291751954e-01	 2.6158432336e+00
 1.1051807006e+00	 2.3269411978e-01	 2.6296586562e+00
 1.1008242174e+00	 2.5250143876e-01	 2.6442378412e+00
 1.0960873991e+00	 2.7232948390e-01	 2.6587989975e+00
 1.0909668994e+00	 2.9216803154e-01	 2.6724639275e+00
 1.1243589990e+00	 1.9519369448e-01	 2.6916697884e+00
 1.1207142777e+00	 2.1513541037e-01	 2.6949490991e+00
 1.1166929995e+00	 2.3511801686e-01	 2.6988584720e+00
 1.1122911364e+00	 2.5513166209e-01	 2.7027714989e+00
 1.1075049762e+00	 2.7516624935e-01	 2.7059249950e+00
 1.1023311379e+00	 2.9521144853e-01	 2.7074650433e+00
 1.1359503289e+00	 1.9720600060e-01	 2.7779447699e+00
 1.1322680331e+00	 2.1735330120e-01	 2.7727041655e+00
 1.1282052985e+00	 2.3754191394e-01	 2.7670220235e+00
 1.1237580553e+00	 2.5776188541e-01	 2.7603409111e+00
 1.1189225532e+00	 2.7800301481e-01	 2.7519698555e+00
 1.1136953765e+00	 2.9825486553e-01	 2.7411332042e+00
 1.1475416588e+00	 1.9921830673e-01	 2.8616168971e+00
 1.1438217886e+00	 2.1957119203e-01	 2.8485893413e+00
 1.1397175974e+00	 2.3996581102e-01	 2.8337419150e+00
 1.1352249742e+00	 2.6039210873e-01	 2.8166365233e+00
 1.1303401303e+00	 2.8083978027e-01	 2.7967053296e+00
 1.1250596150e+00	 3.0129828252e-01	 2.7733023172e+00
 1.1591329887e+00	 2.0123061286e-01	 2.9420758431e+00
 1.1553755440e+00	 2.2178908286e-01	 2.9221125960e+00
 1.1512298964e+00	 2.4238970811e-01	 2.8986335590e+00
 1.1466918932e+00	 2.6302233205e-01	 2.8713676696e+00
 1.1417577074e+00	 2.8367654572e-01	 2.8399185376e+00
 1.1364238535e+00	 3.0434169952e-01	 2.8038186111e+00
 1.0796026609e+00	 2.8912461454e-01	 2.6363094472e+00
 1.0741528422e+00	 3.0875657011e-01	 2.6624431888e+00
 1.0683177456e+00	 3.2837804803e-01	 2.6895171859e+00
 1.0620951161e+00	 3.4797832176e-01	 2.7156126752e+00
 1.0554830769e+00	 3.6754649023e-01	 2.7388322534e+00
 1.0484801414e+00	 3.8707149362e-01	 2.7573342184e+00
 1.0909668994e+00	 2.9216803154e-01	 2.6724639275e+00
 1.0854597143e+00	 3.1200663927e-01	 2.6861526507e+00
 1.0795631956e+00	 3.3183465906e-01	 2.7002222988e+00
 1.0732750647e+00	 3.5164125147e-01	 2.7129101291e+00
 1.0665934251e+00	 3.7141540065e-01	 2.7224930331e+00
 1.0595167745e+00	 3.9114593039e-01	 2.7273228078e+00
 1.1023311379e+00	 2.9521144853e-01	 2.7074650433e+00
 1.0967665863e+00	 3.1525670843e-01	 2.7083482465e+00
 1.0908086456e+00	 3.3529127009e-01	 2.7091282323e+00
 1.0844550133e+00	 3.5530418117e-01	 2.7083252098e+00
 1.0777037733e+00	 3.7528431107e-01	 2.7045167162e+00
 1.0705534075e+00	 3.9522036717e-01	 2.6963731275e+00
 1.1136953765e+00	 2.9825486553e-01	 2.7411332042e+00
 1.1080734583e+00	 3.1850677759e-01	 2.7288904335e+00
 1.1020540955e+00	 3.3874788113e-01	 2.7161033863e+00
 1.0956349619e+00	 3.5896711087e-01	 2.7016975734e+00
 1.0888141214e+00	 3.7915322150e-01	 2.6846730651e+00
 1.0815900406e+00	 3.9929480394e-01	 2.6641395681e+00
 1.1250596150e+00	 3.0129828252e-01	 2.7733023172e+00
 1.1193803303e+00	 3.2175684674e-01	 2.7476507763e+00
 1.1132995455e+00	 3.4220449216e-01	 2.7210258397e+00
 1.1068149105e+00	 3.6263004057e-01	 2.6928762598e+00
 1.0999244696e+00	 3.8302213192e-01	 2.6627422349e+00
 1.0926266737e+00	 4.0336924072e-01	 2.6302894006e+00
 1.1364238535e+00	 3.0434169952e-01	 2.8038186111e+00
 1.1306872024e+00	 3.2500691590e-01	 2.7645107671e+00
 1.1245449954e+00	 3.4566110319e-01	 2.7237821051e+00
 1.1179948591e+00	 3.6629297028e-01	 2.6817183073e+00
 1.1110348178e+00	 3.8689104234e-01	 2.6385131675e+00
 1.1036633067e+00	 4.0744367749e-01	 2.5945008604e+00
 1.0484801414e+00	 3.8707149362e-01	 2.7573342184e+00
 1.0410852245e+00	 4.0654213007e-01	 2.7724748188e+00
 1.0332976527e+00	 4.2594707313e-01	 2.7858214879e+00
 1.0251171740e+00	 4.4527489002e-01	 2.7959553855e+00
 1.0165439664e+00	 4.6451406061e-01	 2.8015233070e+00
 1.0075786453e+00	 4.8365299708e-01	 2.8012371353e+00
 1.0595167745e+00	 3.9114593039e-01	 2.7273228078e+00
 1.0520440163e+00	 4.1082152091e-01	 2.7286423993e+00
 1.0441744701e+00	 4.3043072653e-01	 2.7277252638e+00
 1.0359078811e+00	 4.4996199413e-01	 2.7230818827e+00
 1.0272444292e+00	 4.6940368230e-01	 2.7132772832e+00
 1.0181847363e+00	 4.8874408126e-01	 2.6969293123e+00
 1.0705534075e+00	 3.9522036717e-01	 2.6963731275e+00
 1.0630028081e+00	 4.1510091176e-01	 2.6850231471e+00
 1.0550512874e+00	 4.3491437994e-01	 2.6712331482e+00
 1.0466985882e+00	 4.5464909823e-01	 2.6532528538e+00
 1.0379448920e+00	 4.7429330399e-01	 2.6293823315e+00
 1.0287908273e+00	 4.9383516544e-01	 2.5979702060e+00
 1.0815900406e+00	 3.9929480394e-01	 2.6641395681e+00
 1.0739616000e+00	 4.1938030260e-01	 2.6411553384e+00
 1.0659281048e+00	 4.3939803334e-01	 2.6158181753e+00
 1.0574892953e+00	 4.5933620234e-01	 2.5859330827e+00
 1.0486453548e+00	 4.7918292568e-01	 2.5493581005e+00
 1.0393969183e+00	 4.9892624962e-01	 2.5040035456e+00
 1.0926266737e+00	 4.0336924072e-01	 2.6302894006e+00
 1.0849203918e+00	 4.2365969344e-01	 2.5965922957e+00
 1.0768049222e+00	 4.4388168674e-01	 2.5609682000e+00
 1.0682800024e+00	 4.6402330645e-01	 2.5205993328e+00
 1.0593458176e+00	 4.8407254737e-01	 2.4727305437e+00
 1.0500030093e+00	 5.0401733379e-01	 2.4146706503e+00
 1.1036633067e+00	 4.0744367749e-01	 2.5945008604e+00
 1.0958791836e+00	 4.2793908428e-01	 2.5509001631e+00
 1.0876817396e+00	 4.4836534014e-01	 2.5061834692e+00
 1.0790707095e+00	 4.6871041055e-01	 2.4567378318e+00
 1.0700462804e+00	 4.8896216907e-01	 2.3990294487e+00
 1.0606091003e+00	 5.0910841797e-01	 2.3296081447e+00
 1.0075786453e+00	 4.8365299708e-01	 2.8012371353e+00
 9.9822227043e-01	 5.0268006417e-01	 2.7956301763e+00
 9.8847635090e-01	 5.2158360002e-01	 2.7854120536e+00
 9.7834284980e-01	 5.4035193749e-01	 2.7697633591e+00
 9.6782418721e-01	 5.5897342580e-01	 2.7480538642e+00
 9.5692324210e-01	 5.7743645262e-01	 2.7198079819e+00
 1.0181847363e+00	 4.8874408126e-01	 2.6969293123e+00
 1.0087298733e+00	 5.0797143326e-01	 2.6754068928e+00
 9.9888136512e-01	 5.2707395371e-01	 2.6506538152e+00
 9.8864119558e-01	 5.4603985262e-01	 2.6223828260e+00
 9.7801181023e-01	 5.6485735659e-01	 2.5905430054e+00
 9.6699611834e-01	 5.8351473107e-01	 2.5552793101e+00
 1.0287908273e+00	 4.9383516544e-01	 2.5979702060e+00
 1.0192374761e+00	 5.1326280236e-01	 2.5613150891e+00
 1.0092863793e+00	 5.3256430739e-01	 2.5229066735e+00
 9.9893954137e-01	 5.5172776775e-01	 2.4831451428e+00
 9.8819943326e-01	 5.7074128739e-01	 2.4427096455e+00
 9.7706899457e-01	 5.8959300952e-01	 2.4024000598e+00
 1.0393969183e+00	 4.9892624962e-01	 2.5040035456e+00
 1.0297450790e+00	 5.1855417145e-01	 2.4531354347e+00
 1.0196913936e+00	 5.3805466108e-01	 2.4020380073e+00
 1.0092378872e+00	 5.5741568288e-01	 2.3519502645e+00
 9.9838705628e-01	 5.7662521819e-01	 2.3044284610e+00
 9.8714187080e-01	 5.9567128797e-01	 2.2578697747e+00
 1.0500030093e+00	 5.0401733379e-01	 2.4146706503e+00
 1.0402526818e+00	 5.2384554055e-01	 2.3506367576e+00
 1.0300964078e+00	 5.4354501476e-01	 2.2878958049e+00
 1.0195362329e+00	 5.6310359801e-01	 2.2286733063e+00
 1.0085746793e+00	 5.8250914899e-01	 2.1755461522e+00
 9.9721474703e-01	 6.0174956642e-01	 2.1197573663e+00
 1.0606091003e+00	 5.0910841797e-01	 2.3296081447e+00
 1.0507602847e+00	 5.2913690965e-01	 2.2535739713e+00
 1.0405014220e+00	 5.4903536845e-01	 2.1803067041e+00
 1.0298345787e+00	 5.6879151315e-01	 2.1131625869e+00
 1.0187623023e+00	 5.8839307979e-01	 2.0558777472e+00
 1.0072876233e+00	 6.0782784487e-01	 1.9874281551e+00
 9.5692324210e-01	 5.7743645262e-01	 2.7198079819e+00
 9.4564335295e-01	 5.9572946639e-01	 2.6928814905e+00
 9.3398831707e-01	 6.1384099869e-01	 2.6527437813e+00
 9.2196238868e-01	 6.3175968687e-01	 2.5969204113e+00
 9.0957027559e-01	 6.4947429654e-01	 2.5301614131e+00
 8.9681713458e-01	 6.6697374403e-01	 2.4578650998e+00
 9.6699611834e-01	 5.8351473107e-01	 2.5552793101e+00
 9.5559749351e-01	 6.0200030287e-01	 2.5175392331e+00
 9.4381977304e-01	 6.2030248288e-01	 2.4639287758e+00
 9.3166725593e-01	 6.3840978883e-01	 2.3971698172e+00
 9.1914469954e-01	 6.5631086808e-01	 2.3219278177e+00
 9.0625731494e-01	 6.7399452029e-01	 2.2434901513e+00
 9.7706899457e-01	 5.8959300952e-01	 2.4024000598e+00
 9.6555163406e-01	 6.0827113936e-01	 2.3512551171e+00
 9.5365122901e-01	 6.2676396708e-01	 2.2856141494e+00
 9.4137212318e-01	 6.4505989080e-01	 2.2092820436e+00
 9.2871912349e-01	 6.6314743963e-01	 2.1266873342e+00
 9.1569749530e-01	 6.8101529654e-01	 2.0428568258e+00
 9.8714187080e-01	 5.9567128797e-01	 2.2578697747e+00
 9.7550577462e-01	 6.1454197585e-01	 2.1932855959e+00
 9.6348268498e-01	 6.3322545128e-01	 2.1169657986e+00
 9.5107699043e-01	 6.5170999277e-01	 2.0323533258e+00
 9.3829354745e-01	 6.6998401117e-01	 1.9434918857e+00
 9.2513767567e-01	 6.8803607279e-01	 1.8550025197e+00
 9.9721474703e-01	 6.0174956642e-01	 2.1197573663e+00
 9.8545991518e-01	 6.2081281234e-01	 2.0428924340e+00
 9.7331414095e-01	 6.3968693547e-01	 1.9571588061e+00
 9.6078185768e-01	 6.5836009474e-01	 1.8654920543e+00
 9.4786797140e-01	 6.7682058271e-01	 1.7714074158e+00
 9.3457785603e-01	 6.9505684904e-01	 1.6789792168e+00
 1.0072876233e+00	 6.0782784487e-01	 1.9874281551e+00
 9.9541405574e-01	 6.2708364883e-01	 1.8993429723e+00
 9.8314559692e-01	 6.4614841967e-01	 1.8053775859e+00
 9.7048672493e-01	 6.6501019670e-01	 1.7078188373e+00
 9.5744239535e-01	 6.8365715425e-01	 1.6095139162e+00
 9.4401803640e-01	 7.0207762530e-01	 1.5138535382e+00
 8.9681713458e-01	 6.6697374403e-01	 2.4578650998e+00
 8.8370856550e-01	 6.8424711864e-01	 2.3777762453e+00
 8.7025060399e-01	 7.0128370460e-01	 2.2851937920e+00
 8.5644971297e-01	 7.1807300273e-01	 2.1825229644e+00
 8.4231277273e-01	 7.3460475154e-01	 2.0724269184e+00
 8.2784706993e-01	 7.5086894789e-01	 1.9577985963e+00
 9.0625731494e-01	 6.7399452029e-01	 2.2434901513e+00
 8.9301076092e-01	 6.9144971989e-01	 2.1586409176e+00
 8.7941113667e-01	 7.0866563834e-01	 2.0619393538e+00
 8.6546497310e-01	 7.2563166592e-01	 1.9560010513e+00
 8.5117922297e-01	 7.4233743314e-01	 1.8437110528e+00
 8.3656124962e-01	 7.5877283155e-01	 1.7281939212e+00
 9.1569749530e-01	 6.8101529654e-01	 2.0428568258e+00
 9.0231295635e-01	 6.9865232114e-01	 1.9536314219e+00
 8.8857166934e-01	 7.1604757207e-01	 1.8529922111e+00
 8.7448023324e-01	 7.3319032911e-01	 1.7438356228e+00
 8.6004567321e-01	 7.5007011473e-01	 1.6293405804e+00
 8.4527542930e-01	 7.6667671521e-01	 1.5129363604e+00
 9.2513767567e-01	 6.8803607279e-01	 1.8550025197e+00
 9.1161515177e-01	 7.0585492239e-01	 1.7617907094e+00
 8.9773220202e-01	 7.2342950580e-01	 1.6574069050e+00
 8.8349549338e-01	 7.4074899229e-01	 1.5450967559e+00
 8.6891212345e-01	 7.5780279633e-01	 1.4284029946e+00
 8.5398960898e-01	 7.7458059887e-01	 1.3111306678e+00
 9.3457785603e-01	 6.9505684904e-01	 1.6789792168e+00
 9.2091734720e-01	 7.1305752363e-01	 1.5821759688e+00
 9.0689273469e-01	 7.3081143954e-01	 1.4742515044e+00
 8.9251075351e-01	 7.4830765548e-01	 1.3588670665e+00
 8.7777857369e-01	 7.6553547792e-01	 1.2399971410e+00
 8.6270378867e-01	 7.8248448253e-01	 1.1218916477e+00
 9.4401803640e-01	 7.0207762530e-01	 1.5138535382e+00
 9.3021954263e-01	 7.2026012488e-01	 1.4138587336e+00
 9.1605326736e-01	 7.3819337327e-01	 1.3026077799e+00
 9.0152601365e-01	 7.5586631867e-01	 1.1842419531e+00
 8.8664502393e-01	 7.7326815952e-01	 1.0632335291e+00
 8.7141796835e-01	 7.9038836620e-01	 9.4434453070e-01
 8.2784706993e-01	 7.5086894789e-01	 1.9577985963e+00
 8.1306028527e-01	 7.6685586691e-01	 1.8308077755e+00
 7.9796047999e-01	 7.8255608135e-01	 1.6849323795e+00
 7.8255608135e-01	 7.9796047999e-01	 1.5252556003e+00
 7.6685586691e-01	 8.1306028527e-01	 1.3569215249e+00
 7.5086894789e-01	 8.2784706993e-01	 1.1850864264e+00
 8.3656124962e-01	 7.5877283155e-01	 1.7281939212e+00
 8.2161881459e-01	 7.7492803393e-01	 1.6016481121e+00
 8.0636006399e-01	 7.9079351379e-01	 1.4574358986e+00
 7.9079351379e-01	 8.0636006399e-01	 1.3006589093e+00
 7.7492803393e-01	 8.2161881459e-01	 1.1364747619e+00
 7.5877283155e-01	 8.3656124962e-01	 9.7004680052e-01
 8.4527542930e-01	 7.6667671521e-01	 1.5129363604e+00
 8.3017734391e-01	 7.8300020095e-01	 1.3868799929e+00
 8.1475964799e-01	 7.9903094622e-01	 1.2443793182e+00
 7.9903094622e-01	 8.1475964799e-01	 1.0905242074e+00
 7.8300020095e-01	 8.3017734391e-01	 9.3045460585e-01
 7.6667671521e-01	 8.4527542930e-01	 7.6930882783e-01
 8.5398960898e-01	 7.7458059887e-01	 1.3111306678e+00
 8.3873587322e-01	 7.9107236797e-01	 1.1856198913e+00
 8.2315923199e-01	 8.0726837866e-01	 1.0448820452e+00
 8.0726837866e-01	 8.2315923199e-01	 8.9396629423e-01
 7.9107236797e-01	 8.3873587322e-01	 7.3796500776e-01
 7.7458059887e-01	 8.5398960898e-01	 5.8196072032e-01
 8.6270378867e-01	 7.8248448253e-01	 1.1218916477e+00
 8.4729440254e-01	 7.9914453499e-01	 9.9699313780e-01
 8.3155881599e-01	 8.1550581110e-01	 8.5807139932e-01
 8.1550581110e-01	 8.3155881599e-01	 7.1010714609e-01
 7.9914453499e-01	 8.4729440254e-01	 5.5811653201e-01
 7.8248448253e-01	 8.6270378867e-01	 4.0709687510e-01
 8.7141796835e-01	 7.9038836620e-01	 9.4434453070e-01
 8.5585293186e-01	 8.0721670201e-01	 8.2013434429e-01
 8.3995839999e-01	 8.2374324353e-01	 6.8308306088e-01
 8.2374324353e-01	 8.3995839999e-01	 5.3807636913e-01
 8.0721670201e-01	 8.5585293186e-01	 3.9002679537e-01
 7.9038836620e-01	 8.7141796835e-01	 2.4381828356e-01
 7.5086894789e-01	 8.2784706993e-01	 1.1850864264e+00
 7.3460475154e-01	 8.4231277273e-01	 1.0040357767e+00
 7.1807300273e-01	 8.5644971297e-01	 8.0741894103e-01
 7.0128370460e-01	 8.7025060399e-01	 5.9932683492e-01
 6.8424711864e-01	 8.8370856550e-01	 3.8369874276e-01
 6.6697374403e-01	 8.9681713458e-01	 1.6428621147e-01
 7.5877283155e-01	 8.3656124962e-01	 9.7004680052e-01
 7.4233743314e-01	 8.5117922297e-01	 7.9560388257e-01
 7.2563166592e-01	 8.6546497310e-01	 6.0687157356e-01
 7.0866563834e-01	 8.7941113667e-01	 4.0812395799e-01
 6.9144971989e-01	 8.9301076092e-01	 2.0345835341e-01
 6.7399452029e-01	 9.0625731494e-01	-3.2432181628e-03
 7.6667671521e-01	 8.4527542930e-01	 7.6930882783e-01
 7.5007011473e-01	 8.6004567321e-01	 6.0120760684e-01
 7.3319032911e-01	 8.7448023324e-01	 4.1992661729e-01
 7.1604757207e-01	 8.8857166934e-01	 2.2993156609e-01
 6.9865232114e-01	 9.0231295635e-01	 3.5490159474e-02
 6.8101529654e-01	 9.1569749530e-01	-1.5936904591e-01
 7.7458059887e-01	 8.5398960898e-01	 5.8196072032e-01
 7.5780279633e-01	 8.6891212345e-01	 4.1993272237e-01
 7.4074899229e-01	 8.8349549338e-01	 2.4569814332e-01
 7.2342950580e-01	 8.9773220202e-01	 6.3922963167e-02
 7.0585492239e-01	 9.1161515177e-01	-1.2094224982e-01
 6.8803607279e-01	 9.2513767567e-01	-3.0470631127e-01
 7.8248448253e-01	 8.6270378867e-01	 4.0709687510e-01
 7.6553547792e-01	 8.7777857369e-01	 2.5087017951e-01
 7.4830765548e-01	 8.9251075351e-01	 8.3303131326e-02
 7.3081143954e-01	 9.0689273469e-01	-9.0729152343e-02
 7.1305752363e-01	 9.2091734720e-01	-2.6658062904e-01
 6.9505684904e-01	 9.3457785603e-01	-4.3988133490e-01
 7.9038836620e-01	 8.7141796835e-01	 2.4381828356e-01
 7.7326815952e-01	 8.8664502393e-01	 9.3116505911e-02
 7.5586631867e-01	 9.0152601365e-01	-6.8138084846e-02
 7.3819337327e-01	 9.1605326736e-01	-2.3485214069e-01
 7.2026012488e-01	 9.3021954263e-01	-4.0217137325e-01
 7.0207762530e-01	 9.4401803640e-01	-5.6553080376e-01
 6.6697374403e-01	 8.9681713458e-01	 1.6428621147e-01
 6.4947429654e-01	 9.0957027559e-01	-6.1311292617e-02
 6.3175968687e-01	 9.2196238868e-01	-2.9569179958e-01
 6.1384099869e-01	 9.3398831707e-01	-5.3598142558e-01
 5.9572946639e-01	 9.4564335295e-01	-7.7987802014e-01
 5.7743645262e-01	 9.5692324210e-01	-1.0291291668e+00
 6.7399452029e-01	 9.0625731494e-01	-3.2432181628e-03
 6.5631086808e-01	 9.1914469954e-01	-2.1527123480e-01
 6.3840978883e-01	 9.3166725593e-01	-4.3618880559e-01
 6.2030248288e-01	 9.4381977304e-01	-6.6311736661e-01
 6.0200030287e-01	 9.5559749351e-01	-8.9373942330e-01
 5.8351473107e-01	 9.6699611834e-01	-1.1269773239e+00
 6.8101529654e-01	 9.1569749530e-01	-1.5936904591e-01
 6.6314743963e-01	 9.2871912349e-01	-3.5867697723e-01
 6.4505989080e-01	 9.4137212318e-01	-5.6682591605e-01
 6.2676396708e-01	 9.5365122901e-01	-7.8094171034e-01
 6.0827113936e-01	 9.6555163406e-01	-9.9871043275e-01
 5.8959300952e-01	 9.7706899457e-01	-1.2183893669e+00
 6.8803607279e-01	 9.2513767567e-01	-3.0470631127e-01
 6.6998401117e-01	 9.3829354745e-01	-4.9203742947e-01
 6.5170999277e-01	 9.5107699043e-01	-6.8806704064e-01
 6.3322545128e-01	 9.6348268498e-01	-8.8993374319e-01
 6.1454197585e-01	 9.7550577462e-01	-1.0953451713e+00
 5.9567128797e-01	 9.8714187080e-01	-1.3025901458e+00
 6.9505684904e-01	 9.3457785603e-01	-4.3988133490e-01
 6.7682058271e-01	 9.4786797140e-01	-6.1587801984e-01
 6.5836009474e-01	 9.6078185768e-01	-8.0039526481e-01
 6.3968693547e-01	 9.7331414095e-01	-9.9059200777e-01
 6.2081281234e-01	 9.8545991518e-01	-1.1842145338e+00
 6.0174956642e-01	 9.9721474703e-01	-1.3796096732e+00
 7.0207762530e-01	 9.4401803640e-01	-5.6553080376e-01
 6.8365715425e-01	 9.5744239535e-01	-7.3073960802e-01
 6.6501019670e-01	 9.7048672493e-01	-9.0431172144e-01
 6.4614841967e-01	 9.8314559692e-01	-1.0834332642e+00
 6.2708364883e-01	 9.9541405574e-01	-1.2659053665e+00
 6.0782784487e-01	 1.0072876233e+00	-1.4501583072e+00
 5.7743645262e-01	 9.5692324210e-01	-1.0291291668e+00
 5.5897342580e-01	 9.6782418721e-01	-1.2860405044e+00
 5.4035193749e-01	 9.7834284980e-01	-1.5405885505e+00
 5.2158360002e-01	 9.8847635090e-01	-1.7931258941e+00
 5.0268006417e-01	 9.9822227043e-01	-2.0442027324e+00
 4.8365299708e-01	 1.0075786453e+00	-2.2945637846e+00
 5.8351473107e-01	 9.6699611834e-01	-1.1269773239e+00
 5.6485735659e-01	 9.7801181023e-01	-1.3641502060e+00
 5.4603985262e-01	 9.8864119558e-01	-1.5991147705e+00
 5.2707395371e-01	 9.9888136512e-01	-1.8323654400e+00
 5.0797143326e-01	 1.0087298733e+00	-2.0646507643e+00
 4.8874408126e-01	 1.0181847363e+00	-2.2969685977e+00
 5.8959300952e-01	 9.7706899457e-01	-1.2183893669e+00
 5.7074128739e-01	 9.8819943326e-01	-1.4361520073e+00
 5.5172776775e-01	 9.9893954137e-01	-1.6521963768e+00
 5.3256430739e-01	 1.0092863793e+00	-1.8671505277e+00
 5.1326280236e-01	 1.0192374761e+00	-2.0818824927e+00
 4.9383516544e-01	 1.0287908273e+00	-2.2975502782e+00
 5.9567128797e-01	 9.8714187080e-01	-1.3025901458e+00
 5.7662521819e-01	 9.9838705628e-01	-1.5028898445e+00
 5.5741568288e-01	 1.0092378872e+00	-1.7006538727e+00
 5.3805466108e-01	 1.0196913936e+00	-1.8981583099e+00
 5.1855417145e-01	 1.0297450790e+00	-2.0963145334e+00
 4.9892624962e-01	 1.0393969183e+00	-2.2963507960e+00
 6.0174956642e-01	 9.9721474703e-01	-1.3796096732e+00
 5.8250914899e-01	 1.0085746793e+00	-1.5652083380e+00
 5.6310359801e-01	 1.0195362329e+00	-1.7453085096e+00
 5.4354501476e-01	 1.0300964078e+00	-1.9260714095e+00
 5.2384554055e-01	 1.0402526818e+00	-2.1083782471e+00
 5.0401733379e-01	 1.0500030093e+00	-2.2934405762e+00
 6.0782784487e-01	 1.0072876233e+00	-1.4501583072e+00
 5.8839307979e-01	 1.0187623023e+00	-1.6239528511e+00
 5.6879151315e-01	 1.0298345787e+00	-1.7869831217e+00
 5.4903536845e-01	 1.0405014220e+00	-1.9515785140e+00
 5.2913690965e-01	 1.0507602847e+00	-2.1185198588e+00
 5.0910841797e-01	 1.0606091003e+00	-2.2889179169e+00
 4.8365299708e-01	 1.0075786453e+00	-2.2945637846e+00
 4.6451406061e-01	 1.0165439664e+00	-2.5438960861e+00
 4.4527489002e-01	 1.0251171740e+00	-2.7903974977e+00
 4.2594707313e-01	 1.0332976527e+00	-3.0327478644e+00
 4.0654213007e-01	 1.0410852245e+00	-3.2696629069e+00
 3.8707149362e-01	 1.0484801414e+00	-3.4998921872e+00
 4.8874408126e-01	 1.0181847363e+00	-2.2969685977e+00
 4.6940368230e-01	 1.0272444292e+00	-2.5284554924e+00
 4.4996199413e-01	 1.0359078811e+00	-2.7565668367e+00
 4.3043072653e-01	 1.0441744701e+00	-2.9799731234e+00
 4.1082152091e-01	 1.0520440163e+00	-3.1973621341e+00
 3.9114593039e-01	 1.0595167745e+00	-3.4074374417e+00
 4.9383516544e-01	 1.0287908273e+00	-2.2975502782e+00
 4.7429330399e-01	 1.0379448920e+00	-2.5124606098e+00
 4.5464909823e-01	 1.0466985882e+00	-2.7232135291e+00
 4.3491437994e-01	 1.0550512874e+00	-2.9286260176e+00
 4.1510091176e-01	 1.0630028081e+00	-3.1275251032e+00
 3.9522036717e-01	 1.0705534075e+00	-3.3187456479e+00
 4.9892624962e-01	 1.0393969183e+00	-2.2963507960e+00
 4.7918292568e-01	 1.0486453548e+00	-2.4955735812e+00
 4.5933620234e-01	 1.0574892953e+00	-2.6897181714e+00
 4.3939803334e-01	 1.0659281048e+00	-2.8778988632e+00
 4.1938030260e-01	 1.0739616000e+00	-3.0592439238e+00
 3.9929480394e-01	 1.0815900406e+00	-3.2328914271e+00
 5.0401733379e-01	 1.0500030093e+00	-2.2934405762e+00
 4.8407254737e-01	 1.0593458176e+00	-2.4774987597e+00
 4.6402330645e-01	 1.0682800024e+00	-2.6555132029e+00
 4.4388168674e-01	 1.0768049222e+00	-2.8270415476e+00
 4.2365969344e-01	 1.0849203918e+00	-2.9916703270e+00
 4.0336924072e-01	 1.0926266737e+00	-3.1490076322e+00
 5.0910841797e-01	 1.0606091003e+00	-2.2889179169e+00
 4.8896216907e-01	 1.0700462804e+00	-2.4579814168e+00
 4.6871041055e-01	 1.0790707095e+00	-2.6200811051e+00
 4.4836534014e-01	 1.0876817396e+00	-2.7753594101e+00
 4.2793908428e-01	 1.0958791836e+00	-2.9240134084e+00
 4.0744367749e-01	 1.1036633067e+00	-3.0662831198e+00
 3.8707149362e-01	 1.0484801414e+00	-3.4998921872e+00
 3.6754649023e-01	 1.0554830769e+00	-3.7222183970e+00
 3.4797832176e-01	 1.0620951161e+00	-3.9360554415e+00
 3.2837804803e-01	 1.0683177456e+00	-4.1411766158e+00
 3.0875657011e-01	 1.0741528422e+00	-4.3374149194e+00
 2.8912461454e-01	 1.0796026609e+00	-4.5246472079e+00
 3.9114593039e-01	 1.0595167745e+00	-3.4074374417e+00
 3.7141540065e-01	 1.0665934251e+00	-3.6092956230e+00
 3.5164125147e-01	 1.0732750647e+00	-3.8028739171e+00
 3.3183465906e-01	 1.0795631956e+00	-3.9881900604e+00
 3.1200663927e-01	 1.0854597143e+00	-4.1653061807e+00
 2.9216803154e-01	 1.0909668994e+00	-4.3343113378e+00
 3.9522036717e-01	 1.0705534075e+00	-3.3187456479e+00
 3.7528431107e-01	 1.0777037733e+00	-3.5018444647e+00
 3.5530418117e-01	 1.0844550133e+00	-3.6771903501e+00
 3.3529127009e-01	 1.0908086456e+00	-3.8448754642e+00
 3.1525670843e-01	 1.0967665863e+00	-4.0050257463e+00
 2.9521144853e-01	 1.1023311379e+00	-4.1577825161e+00
 3.9929480394e-01	 1.0815900406e+00	-3.2328914271e+00
 3.7915322150e-01	 1.0888141214e+00	-3.3989630847e+00
 3.5896711087e-01	 1.0956349619e+00	-3.5581333489e+00
 3.3874788113e-01	 1.1020540955e+00	-3.7104046000e+00
 3.1850677759e-01	 1.1080734583e+00	-3.8558069777e+00
 2.9825486553e-01	 1.1136953765e+00	-3.9943796993e+00
 4.0336924072e-01	 1.0926266737e+00	-3.1490076322e+00
 3.8302213192e-01	 1.0999244696e+00	-3.2998047516e+00
 3.6263004057e-01	 1.1068149105e+00	-3.4448831689e+00
 3.4220449216e-01	 1.1132995455e+00	-3.5839968835e+00
 3.2175684674e-01	 1.1193803303e+00	-3.7169261248e+00
 3.0129828252e-01	 1.1250596150e+00	-3.8434590269e+00
 4.0744367749e-01	 1.1036633067e+00	-3.0662831198e+00
 3.8689104234e-01	 1.1110348178e+00	-3.2035757246e+00
 3.6629297028e-01	 1.1179948591e+00	-3.3366697231e+00
 3.4566110319e-01	 1.1245449954e+00	-3.4649175353e+00
 3.2500691590e-01	 1.1306872024e+00	-3.5877006752e+00
 3.0434169952e-01	 1.1364238535e+00	-3.7044124051e+00
 2.8912461454e-01	 1.0796026609e+00	-4.5246472079e+00
 2.6949271844e-01	 1.0846698220e+00	-4.7020650497e+00
 2.4987121544e-01	 1.0893572985e+00	-4.8686206277e+00
 2.3027022270e-01	 1.0936684016e+00	-5.0238545146e+00
 2.1069962871e-01	 1.0976067668e+00	-5.1672970466e+00
 1.9116908222e-01	 1.1011763392e+00	-5.2984570595e+00
 2.9216803154e-01	 1.0909668994e+00	-4.3343113378e+00
 2.7232948390e-01	 1.0960873991e+00	-4.4945925541e+00
 2.5250143876e-01	 1.1008242174e+00	-4.6451988619e+00
 2.3269411978e-01	 1.1051807006e+00	-4.7857247270e+00
 2.1291751954e-01	 1.1091605223e+00	-4.9157574914e+00
 1.9318138835e-01	 1.1127676691e+00	-5.0348646945e+00
 2.9521144853e-01	 1.1023311379e+00	-4.1577825161e+00
 2.7516624935e-01	 1.1075049762e+00	-4.3026652948e+00
 2.5513166209e-01	 1.1122911364e+00	-4.4388582709e+00
 2.3511801686e-01	 1.1166929995e+00	-4.5659994079e+00
 2.1513541037e-01	 1.1207142777e+00	-4.6837139401e+00
 1.9519369448e-01	 1.1243589990e+00	-4.7916006600e+00
 2.9825486553e-01	 1.1136953765e+00	-3.9943796993e+00
 2.7800301481e-01	 1.1189225532e+00	-4.1256659886e+00
 2.5776188541e-01	 1.1237580553e+00	-4.2489748421e+00
 2.3754191394e-01	 1.1282052985e+00	-4.3639787083e+00
 2.1735330120e-01	 1.1322680331e+00	-4.4703231422e+00
 1.9720600060e-01	 1.1359503289e+00	-4.5676124275e+00
 3.0129828252e-01	 1.1250596150e+00	-3.8434590269e+00
 2.8083978027e-01	 1.1303401303e+00	-3.9630097573e+00
 2.6039210873e-01	 1.1352249742e+00	-4.0749551081e+00
 2.3996581102e-01	 1.1397175974e+00	-4.1789943522e+00
 2.1957119203e-01	 1.1438217886e+00	-4.2747772983e+00
 1.9921830673e-01	 1.1475416588e+00	-4.3618896029e+00
 3.0434169952e-01	 1.1364238535e+00	-3.7044124051e+00
 2.8367654572e-01	 1.1417577074e+00	-3.8141428986e+00
 2.6302233205e-01	 1.1466918932e+00	-3.9162349598e+00
 2.4238970811e-01	 1.1512298964e+00	-4.0104083490e+00
 2.2178908286e-01	 1.1553755440e+00	-4.0963025305e+00
 2.0123061286e-01	 1.1591329887e+00	-4.1734620172e+00
 1.9116908222e-01	 1.1011763392e+00	-5.2984570595e+00
 1.7168798197e-01	 1.1043813585e+00	-5.4172266055e+00
 1.5226546757e-01	 1.1072263434e+00	-5.5238767406e+00
 1.3291041115e-01	 1.1097160766e+00	-5.6184127464e+00
 1.1363141015e-01	 1.1118555890e+00	-5.7007683209e+00
 9.4436780910e-02	 1.1136501437e+00	-5.7708009025e+00
 1.9318138835e-01	 1.1127676691e+00	-5.0348646945e+00
 1.7349522389e-01	 1.1160064254e+00	-5.1429275847e+00
 1.5386826196e-01	 1.1188813575e+00	-5.2401567031e+00
 1.3430946811e-01	 1.1213972985e+00	-5.3265250187e+00
 1.1482753025e-01	 1.1235593320e+00	-5.4019116244e+00
 9.5430852288e-02	 1.1253727768e+00	-5.4660975419e+00
 1.9519369448e-01	 1.1243589990e+00	-4.7916006600e+00
 1.7530246580e-01	 1.1276314923e+00	-4.8894468309e+00
 1.5547105636e-01	 1.1305363717e+00	-4.9774050623e+00
 1.3570852507e-01	 1.1330785203e+00	-5.0555119698e+00
 1.1602365036e-01	 1.1352630751e+00	-5.1236885639e+00
 9.6424923666e-02	 1.1370954099e+00	-5.1817359780e+00
 1.9720600060e-01	 1.1359503289e+00	-4.5676124275e+00
 1.7710970772e-01	 1.1392565593e+00	-4.6555081892e+00
 1.5707385075e-01	 1.1421913858e+00	-4.7341561748e+00
 1.3710758203e-01	 1.1447597422e+00	-4.8037498020e+00
 1.1721977047e-01	 1.1469668181e+00	-4.8643456818e+00
 9.7418995044e-02	 1.1488180429e+00	-4.9158587164e+00
 1.9921830673e-01	 1.1475416588e+00	-4.3618896029e+00
 1.7891694964e-01	 1.1508816262e+00	-4.4398850683e+00
 1.5867664515e-01	 1.1538463999e+00	-4.5090001981e+00
 1.3850663899e-01	 1.1564409641e+00	-4.5696756964e+00
 1.1841589057e-01	 1.1586705611e+00	-4.6221947491e+00
 9.8413066422e-02	 1.1605406760e+00	-4.6666769461e+00
 2.0123061286e-01	 1.1591329887e+00	-4.1734620172e+00
 1.8072419155e-01	 1.1625066931e+00	-4.2413981178e+00
 1.6027943954e-01	 1.1655014141e+00	-4.3005804169e+00
 1.3990569595e-01	 1.1681221859e+00	-4.3517848453e+00
 1.1961201068e-01	 1.1703743042e+00	-4.3956095566e+00
 9.9407137800e-02	 1.1722633091e+00	-4.4324671332e+00
 9.4436780910e-02	 1.1136501437e+00	-5.7708009025e+00
 7.5334553287e-02	 1.1151052207e+00	-5.8278836350e+00
 5.6332466108e-02	 1.1162265009e+00	-5.8717985578e+00
 3.7437963555e-02	 1.1170198508e+00	-5.9028761850e+00
 1.8658192388e-02	 1.1174913064e+00	-5.9213406416e+00
 0.0000000000e+00	 1.1176470588e+00	-5.9273139929e+00
 9.5430852288e-02	 1.1253727768e+00	-5.4660975419e+00
 7.6127548585e-02	 1.1268431704e+00	-5.5183387941e+00
 5.6925439436e-02	 1.1279762536e+00	-5.5584256142e+00
 3.7832047382e-02	 1.1287779544e+00	-5.5867651816e+00
 1.8854594413e-02	 1.1292543728e+00	-5.6036333808e+00
 0.0000000000e+00	 1.1294117647e+00	-5.6091796988e+00
 9.6424923666e-02	 1.1370954099e+00	-5.1817359780e+00
 7.6920543882e-02	 1.1385811201e+00	-5.2288752066e+00
 5.7518412763e-02	 1.1397260062e+00	-5.2649108729e+00
 3.8226131209e-02	 1.1405360581e+00	-5.2903113519e+00
 1.9050996438e-02	 1.1410174392e+00	-5.3053916203e+00
 0.0000000000e+00	 1.1411764706e+00	-5.3103186176e+00
 9.7418995044e-02	 1.1488180429e+00	-4.9158587164e+00
 7.7713539180e-02	 1.1503190697e+00	-4.9575595354e+00
 5.8111386091e-02	 1.1514757588e+00	-4.9892781662e+00
 3.8620215036e-02	 1.1522941618e+00	-5.0115291086e+00
 1.9247398464e-02	 1.1527805056e+00	-5.0246540534e+00
 0.0000000000e+00	 1.1529411765e+00	-5.0288276035e+00
 9.8413066422e-02	 1.1605406760e+00	-4.6666769461e+00
 7.8506534478e-02	 1.1620570194e+00	-4.7025296951e+00
 5.8704359418e-02	 1.1632255115e+00	-4.7296240772e+00
 3.9014298863e-02	 1.1640522655e+00	-4.7485060386e+00
 1.9443800489e-02	 1.1645435720e+00	-4.7595318889e+00
 0.0000000000e+00	 1.1647058824e+00	-4.7628742834e+00
 9.9407137800e-02	 1.1722633091e+00	-4.4324671332e+00
 7.9299529776e-02	 1.1737949691e+00	-4.4619912992e+00
 5.9297332745e-02	 1.1749752641e+00	-4.4841143000e+00
 3.9408382690e-02	 1.1758103692e+00	-4.4993992350e+00
 1.9640202514e-02	 1.1763066384e+00	-4.5082052172e+00
 0.0000000000e+00	 1.1764705882e+00	-4.5106935184e+00
 1.1764705882e+00	 0.0000000000e+00	 3.0081901312e+00
 1.1763066384e+00	 1.9640202514e-02	 3.0073905039e+00
 1.1758103692e+00	 3.9408382690e-02	 3.0059529075e+00
 1.1749752641e+00	 5.9297332745e-02	 3.0040398038e+00
 1.1737949691e+00	 7.9299529776e-02	 3.0012774337e+00
 1.1722633091e+00	 9.9407137800e-02	 2.9967721685e+00
 1.1882352941e+00	 0.0000000000e+00	 3.0976231693e+00
 1.1880697047e+00	 1.9836604539e-02	 3.0961533517e+00
 1.1875684729e+00	 3.9802466517e-02	 3.0929893484e+00
 1.1867250168e+00	 5.9890306073e-02	 3.0882904810e+00
 1.1855329188e+00	 8.0092525073e-02	 3.0818222427e+00
 1.1839859422e+00	 1.0040120918e-01	 3.0729813204e+00
 1.2000000000e+00	 0.0000000000e+00	 3.1804352184e+00
 1.1998327711e+00	 2.0033006564e-02	 3.1782783682e+00
 1.1993265766e+00	 4.0196550344e-02	 3.1736289626e+00
 1.1984747694e+00	 6.0483279400e-02	 3.1664583804e+00
 1.1972708685e+00	 8.0885520371e-02	 3.1563534061e+00
 1.1957085753e+00	 1.0139528056e-01	 3.1425431812e+00
 1.2117647059e+00	 0.0000000000e+00	 3.2560479126e+00
 1.2115958375e+00	 2.0229408589e-02	 3.2532127960e+00
 1.2110846803e+00	 4.0590634171e-02	 3.2473947655e+00
 1.2102245221e+00	 6.1076252728e-02	 3.2383666851e+00
 1.2090088182e+00	 8.1678515669e-02	 3.2255256021e+00
 1.2074312084e+00	 1.0238935193e-01	 3.2079216295e+00
 1.2235294118e+00	 0.0000000000e+00	 3.3239020961e+00
 1.2233589039e+00	 2.0425810614e-02	 3.3204178007e+00
 1.2228427840e+00	 4.0984717998e-02	 3.3137553202e+00
 1.2219742747e+00	 6.1669226055e-02	 3.3034786824e+00
 1.2207467679e+00	 8.2471510967e-02	 3.2887844624e+00
 1.2191538415e+00	 1.0338342331e-01	 3.2685325965e+00
 1.2352941176e+00	 0.0000000000e+00	 3.3834569086e+00
 1.2351219703e+00	 2.0622212639e-02	 3.3793719080e+00
 1.2346008877e+00	 4.1378801824e-02	 3.3721958885e+00
 1.2337240273e+00	 6.2262199383e-02	 3.3612739760e+00
 1.2324847176e+00	 8.3264506264e-02	 3.3455918361e+00
 1.2308764746e+00	 1.0437749469e-01	 3.3238084160e+00
 1.1722633091e+00	 9.9407137800e-02	 2.9967721685e+00
 1.1703743042e+00	 1.1961201068e-01	 2.9900712053e+00
 1.1681221859e+00	 1.3990569595e-01	 2.9816207368e+00
 1.1655014141e+00	 1.6027943954e-01	 2.9712176274e+00
 1.1625066931e+00	 1.8072419155e-01	 2.9583162443e+00
 1.1591329887e+00	 2.0123061286e-01	 2.9420758431e+00
 1.1839859422e+00	 1.0040120918e-01	 3.0729813204e+00
 1.1820780472e+00	 1.2080813079e-01	 3.0617542389e+00
 1.1798034078e+00	 1.4130475290e-01	 3.0491824599e+00
 1.1771564282e+00	 1.6188223394e-01	 3.0358040918e+00
 1.1741317601e+00	 1.8253143347e-01	 3.0209855451e+00
 1.1707243186e+00	 2.0324291899e-01	 3.0020079547e+00
 1.1957085753e+00	 1.0139528056e-01	 3.1425431812e+00
 1.1937817903e+00	 1.2200425089e-01	 3.1248835972e+00
 1.1914846296e+00	 1.4270380986e-01	 3.1043630063e+00
 1.1888114424e+00	 1.6348502833e-01	 3.0814938357e+00
 1.1857568270e+00	 1.8433867538e-01	 3.0565885602e+00
 1.1823156484e+00	 2.0525522512e-01	 3.0297833069e+00
 1.2074312084e+00	 1.0238935193e-01	 3.2079216295e+00
 1.2054855333e+00	 1.2320037100e-01	 3.1852878464e+00
 1.2031658515e+00	 1.4410286682e-01	 3.1586188885e+00
 1.2004664565e+00	 1.6508782273e-01	 3.1284665482e+00
 1.1973818939e+00	 1.8614591730e-01	 3.0952041024e+00
 1.1939069783e+00	 2.0726753125e-01	 3.0590506133e+00
 1.2191538415e+00	 1.0338342331e-01	 3.2685325965e+00
 1.2171892763e+00	 1.2439649111e-01	 3.2423341804e+00
 1.2148470734e+00	 1.4550192378e-01	 3.2112410079e+00
 1.2121214707e+00	 1.6669061713e-01	 3.1759073700e+00
 1.2090069609e+00	 1.8795315921e-01	 3.1368295152e+00
 1.2054983082e+00	 2.0927983738e-01	 3.0943702188e+00
 1.2308764746e+00	 1.0437749469e-01	 3.3238084160e+00
 1.2288930194e+00	 1.2559261121e-01	 3.2954069487e+00
 1.2265282952e+00	 1.4690098074e-01	 3.2615390825e+00
 1.2237764848e+00	 1.6829341152e-01	 3.2230229155e+00
 1.2206320278e+00	 1.8976040113e-01	 3.1805380368e+00
 1.2170896381e+00	 2.1129214350e-01	 3.1346499385e+00
 1.1591329887e+00	 2.0123061286e-01	 2.9420758431e+00
 1.1553755440e+00	 2.2178908286e-01	 2.9221125960e+00
 1.1512298964e+00	 2.4238970811e-01	 2.8986335590e+00
 1.1466918932e+00	 2.6302233205e-01	 2.8713676696e+00
 1.1417577074e+00	 2.8367654572e-01	 2.8399185376e+00
 1.1364238535e+00	 3.0434169952e-01	 2.8038186111e+00
 1.1707243186e+00	 2.0324291899e-01	 3.0020079547e+00
 1.1669292995e+00	 2.2400697369e-01	 2.9779497301e+00
 1.1627421954e+00	 2.4481360519e-01	 2.9487339562e+00
 1.1581588121e+00	 2.6565255537e-01	 2.9141676927e+00
 1.1531752845e+00	 2.8651331118e-01	 2.8739387848e+00
 1.1477880921e+00	 3.0738511652e-01	 2.8276733010e+00
 1.1823156484e+00	 2.0525522512e-01	 3.0297833069e+00
 1.1784830549e+00	 2.2622486451e-01	 3.0011174540e+00
 1.1742544943e+00	 2.4723750227e-01	 2.9706058670e+00
 1.1696257310e+00	 2.6828277869e-01	 2.9341084209e+00
 1.1645928615e+00	 2.8935007664e-01	 2.8904928899e+00
 1.1591523306e+00	 3.1042853351e-01	 2.8392658060e+00
 1.1939069783e+00	 2.0726753125e-01	 3.0590506133e+00
 1.1900368103e+00	 2.2844275534e-01	 3.0197272057e+00
 1.1857667933e+00	 2.4966139935e-01	 2.9775910154e+00
 1.1810926499e+00	 2.7091300201e-01	 2.9335950353e+00
 1.1760104386e+00	 2.9218684210e-01	 2.8885108198e+00
 1.1705165692e+00	 3.1347195051e-01	 2.8375961824e+00
 1.2054983082e+00	 2.0927983738e-01	 3.0943702188e+00
 1.2015905658e+00	 2.3066064617e-01	 3.0479696339e+00
 1.1972790923e+00	 2.5208529643e-01	 2.9973776076e+00
 1.1925595689e+00	 2.7354322533e-01	 2.9432331469e+00
 1.1874280157e+00	 2.9502360755e-01	 2.8860510256e+00
 1.1818808077e+00	 3.1651536750e-01	 2.8262370844e+00
 1.2170896381e+00	 2.1129214350e-01	 3.1346499385e+00
 1.2131443212e+00	 2.3287853700e-01	 3.0845865328e+00
 1.2087913912e+00	 2.5450919351e-01	 3.0293974349e+00
 1.2040264878e+00	 2.7617344865e-01	 2.9692241889e+00
 1.1988455928e+00	 2.9786037301e-01	 2.9041100921e+00
 1.1932450462e+00	 3.1955878450e-01	 2.8340188966e+00
 1.1364238535e+00	 3.0434169952e-01	 2.8038186111e+00
 1.1306872024e+00	 3.2500691590e-01	 2.7645107671e+00
 1.1245449954e+00	 3.4566110319e-01	 2.7237821051e+00
 1.1179948591e+00	 3.6629297028e-01	 2.6817183073e+00
 1.1110348178e+00	 3.8689104234e-01	 2.6385131675e+00
 1.1036633067e+00	 4.0744367749e-01	 2.5945008604e+00
 1.1477880921e+00	 3.0738511652e-01	 2.8276733010e+00
 1.1419940744e+00	 3.2825698506e-01	 2.7769500437e+00
 1.1357904454e+00	 3.4911771422e-01	 2.7240181835e+00
 1.1291748077e+00	 3.6995589998e-01	 2.6695696583e+00
 1.1221451660e+00	 3.9075995277e-01	 2.6144231682e+00
 1.1146999398e+00	 4.1151811427e-01	 2.5595549310e+00
 1.1591523306e+00	 3.1042853351e-01	 2.8392658060e+00
 1.1533009464e+00	 3.3150705422e-01	 2.7819117073e+00
 1.1470358953e+00	 3.5257432525e-01	 2.7209366069e+00
 1.1403547563e+00	 3.7361882968e-01	 2.6574694820e+00
 1.1332555141e+00	 3.9462886319e-01	 2.5927888932e+00
 1.1257365729e+00	 4.1559255104e-01	 2.5283532628e+00
 1.1705165692e+00	 3.1347195051e-01	 2.8375961824e+00
 1.1646078184e+00	 3.3475712338e-01	 2.7785078351e+00
 1.1582813453e+00	 3.5603093629e-01	 2.7137874973e+00
 1.1515347048e+00	 3.7728175938e-01	 2.6448364203e+00
 1.1443658623e+00	 3.9849777361e-01	 2.5732325273e+00
 1.1367732059e+00	 4.1966698782e-01	 2.5007612432e+00
 1.1818808077e+00	 3.1651536750e-01	 2.8262370844e+00
 1.1759146905e+00	 3.3800719254e-01	 2.7658866563e+00
 1.1695267952e+00	 3.5948754732e-01	 2.7018500678e+00
 1.1627146534e+00	 3.8094468909e-01	 2.6311095586e+00
 1.1554762105e+00	 4.0236668404e-01	 2.5553862842e+00
 1.1478098390e+00	 4.2374142459e-01	 2.4766419288e+00
 1.1932450462e+00	 3.1955878450e-01	 2.8340188966e+00
 1.1872215625e+00	 3.4125726170e-01	 2.7605017510e+00
 1.1807722452e+00	 3.6294415835e-01	 2.6871040968e+00
 1.1738946020e+00	 3.8460761879e-01	 2.6157464427e+00
 1.1665865587e+00	 4.0623559446e-01	 2.5388907366e+00
 1.1588464721e+00	 4.2781586137e-01	 2.4558547658e+00
 1.1036633067e+00	 4.0744367749e-01	 2.5945008604e+00
 1.0958791836e+00	 4.2793908428e-01	 2.5509001631e+00
 1.0876817396e+00	 4.4836534014e-01	 2.5061834692e+00
 1.0790707095e+00	 4.6871041055e-01	 2.4567378318e+00
 1.0700462804e+00	 4.8896216907e-01	 2.3990294487e+00
 1.0606091003e+00	 5.0910841797e-01	 2.3296081447e+00
 1.1146999398e+00	 4.1151811427e-01	 2.5595549310e+00
 1.1068379755e+00	 4.3221847513e-01	 2.5064226957e+00
 1.0985585570e+00	 4.5284899354e-01	 2.4528633212e+00
 1.0898614166e+00	 4.7339751466e-01	 2.3946178016e+00
 1.0807467432e+00	 4.9385179076e-01	 2.3275247263e+00
 1.0712151913e+00	 5.1419950215e-01	 2.2475270637e+00
 1.1257365729e+00	 4.1559255104e-01	 2.5283532628e+00
 1.1177967673e+00	 4.3649786597e-01	 2.4658591193e+00
 1.1094353744e+00	 4.5733264694e-01	 2.4029168088e+00
 1.1006521237e+00	 4.7808461876e-01	 2.3350791272e+00
 1.0914472060e+00	 4.9874141245e-01	 2.2580119787e+00
 1.0818212823e+00	 5.1929058633e-01	 2.1675007709e+00
 1.1367732059e+00	 4.1966698782e-01	 2.5007612432e+00
 1.1287555591e+00	 4.4077725681e-01	 2.4293066629e+00
 1.1203121918e+00	 4.6181630034e-01	 2.3565986376e+00
 1.1114428307e+00	 4.8277172287e-01	 2.2784464681e+00
 1.1021476688e+00	 5.0363103414e-01	 2.1907853327e+00
 1.0924273734e+00	 5.2438167051e-01	 2.0896796417e+00
 1.1478098390e+00	 4.2374142459e-01	 2.4766419288e+00
 1.1397143510e+00	 4.4505664766e-01	 2.3968478922e+00
 1.1311890092e+00	 4.6629995375e-01	 2.3141389863e+00
 1.1222335378e+00	 4.8745882697e-01	 2.2250130965e+00
 1.1128481316e+00	 5.0852065583e-01	 2.1261042054e+00
 1.1030334644e+00	 5.2947275469e-01	 2.0141800902e+00
 1.1588464721e+00	 4.2781586137e-01	 2.4558547658e+00
 1.1506731428e+00	 4.4933603850e-01	 2.3685498032e+00
 1.1420658266e+00	 4.7078360715e-01	 2.2757428416e+00
 1.1330242449e+00	 4.9214593108e-01	 2.1750403166e+00
 1.1235485944e+00	 5.1341027752e-01	 2.0641926261e+00
 1.1136395554e+00	 5.3456383887e-01	 1.9410835912e+00
 1.0606091003e+00	 5.0910841797e-01	 2.3296081447e+00
 1.0507602847e+00	 5.2913690965e-01	 2.2535739713e+00
 1.0405014220e+00	 5.4903536845e-01	 2.1803067041e+00
 1.0298345787e+00	 5.6879151315e-01	 2.1131625869e+00
 1.0187623023e+00	 5.8839307979e-01	 2.0558777472e+00
 1.0072876233e+00	 6.0782784487e-01	 1.9874281551e+00
 1.0712151913e+00	 5.1419950215e-01	 2.2475270637e+00
 1.0612678875e+00	 5.3442827874e-01	 2.1607187524e+00
 1.0509064362e+00	 5.5452572213e-01	 2.0785393064e+00
 1.0401329245e+00	 5.7447942828e-01	 2.0053815900e+00
 1.0289499254e+00	 5.9427701058e-01	 1.9436094737e+00
 1.0173604995e+00	 6.1390612332e-01	 1.8615664574e+00
 1.0818212823e+00	 5.1929058633e-01	 2.1675007709e+00
 1.0717754904e+00	 5.3971964784e-01	 2.0709990679e+00
 1.0613114504e+00	 5.6001607582e-01	 1.9818599991e+00
 1.0504312703e+00	 5.8016734341e-01	 1.9051899847e+00
 1.0391375484e+00	 6.0016094138e-01	 1.8368225752e+00
 1.0274333757e+00	 6.1998440177e-01	 1.7427948434e+00
 1.0924273734e+00	 5.2438167051e-01	 2.0896796417e+00
 1.0822830932e+00	 5.4501101694e-01	 1.9843698538e+00
 1.0717164647e+00	 5.6550642950e-01	 1.8900534106e+00
 1.0607296161e+00	 5.8585525854e-01	 1.8122376899e+00
 1.0493251714e+00	 6.0604487218e-01	 1.7348001759e+00
 1.0375062520e+00	 6.2606268021e-01	 1.6303919944e+00
 1.1030334644e+00	 5.2947275469e-01	 2.0141800902e+00
 1.0927906961e+00	 5.5030238603e-01	 1.9007545914e+00
 1.0821214789e+00	 5.7099678318e-01	 1.8028740840e+00
 1.0710279619e+00	 5.9154317367e-01	 1.7253713146e+00
 1.0595127944e+00	 6.1192880298e-01	 1.6368313188e+00
 1.0475791282e+00	 6.3214095866e-01	 1.5236433820e+00
 1.1136395554e+00	 5.3456383887e-01	 1.9410835912e+00
 1.1032982989e+00	 5.5559375513e-01	 1.8200439359e+00
 1.0925264931e+00	 5.7648713687e-01	 1.7200447598e+00
 1.0813263077e+00	 5.9723108880e-01	 1.6406880987e+00
 1.0697004174e+00	 6.1781273377e-01	 1.5422113504e+00
 1.0576520044e+00	 6.3821923711e-01	 1.4218417055e+00
 1.0072876233e+00	 6.0782784487e-01	 1.9874281551e+00
 9.9541405574e-01	 6.2708364883e-01	 1.8993429723e+00
 9.8314559692e-01	 6.4614841967e-01	 1.8053775859e+00
 9.7048672493e-01	 6.6501019670e-01	 1.7078188373e+00
 9.5744239535e-01	 6.8365715425e-01	 1.6095139162e+00
 9.4401803640e-01	 7.0207762530e-01	 1.5138535382e+00
 1.0173604995e+00	 6.1390612332e-01	 1.8615664574e+00
 1.0053681963e+00	 6.3335448532e-01	 1.7633230540e+00
 9.9297705289e-01	 6.5260990387e-01	 1.6620100902e+00
 9.8019159218e-01	 6.7166029867e-01	 1.5592713580e+00
 9.6701681931e-01	 6.9049372580e-01	 1.4572924017e+00
 9.5345821676e-01	 7.0909840155e-01	 1.3587875223e+00
 1.0274333757e+00	 6.1998440177e-01	 1.7427948434e+00
 1.0153223368e+00	 6.3962532180e-01	 1.6355365620e+00
 1.0028085089e+00	 6.5907138806e-01	 1.5275272660e+00
 9.8989645943e-01	 6.7831040064e-01	 1.4199146702e+00
 9.7659124326e-01	 6.9733029734e-01	 1.3143693359e+00
 9.6289839712e-01	 7.1611917780e-01	 1.2130747612e+00
 1.0375062520e+00	 6.2606268021e-01	 1.6303919944e+00
 1.0252764774e+00	 6.4589615829e-01	 1.5152868332e+00
 1.0126399648e+00	 6.6553287226e-01	 1.4012495954e+00
 9.9960132668e-01	 6.8496050260e-01	 1.2890743184e+00
 9.8616566721e-01	 7.0416686888e-01	 1.1800587131e+00
 9.7233857749e-01	 7.2313995406e-01	 1.0759966196e+00
 1.0475791282e+00	 6.3214095866e-01	 1.5236433820e+00
 1.0352306180e+00	 6.5216699478e-01	 1.4018837010e+00
 1.0224714208e+00	 6.7199435646e-01	 1.2825039803e+00
 1.0093061939e+00	 6.9161060457e-01	 1.1660825591e+00
 9.9574009117e-01	 7.1100344042e-01	 1.0536820541e+00
 9.8177875785e-01	 7.3016073031e-01	 9.4684347961e-01
 1.0576520044e+00	 6.3821923711e-01	 1.4218417055e+00
 1.0451847585e+00	 6.5843783127e-01	 1.2946440350e+00
 1.0323028768e+00	 6.7845584065e-01	 1.1706243672e+00
 1.0190110612e+00	 6.9826070654e-01	 1.0502790447e+00
 1.0053145151e+00	 7.1784001197e-01	 9.3456911654e-01
 9.9121893822e-01	 7.3718150656e-01	 8.2491543513e-01
 9.4401803640e-01	 7.0207762530e-01	 1.5138535382e+00
 9.3021954263e-01	 7.2026012488e-01	 1.4138587336e+00
 9.1605326736e-01	 7.3819337327e-01	 1.3026077799e+00
 9.0152601365e-01	 7.5586631867e-01	 1.1842419531e+00
 8.8664502393e-01	 7.7326815952e-01	 1.0632335291e+00
 8.7141796835e-01	 7.9038836620e-01	 9.4434453070e-01
 9.5345821676e-01	 7.0909840155e-01	 1.3587875223e+00
 9.3952173805e-01	 7.2746272613e-01	 1.2559166684e+00
 9.2521380004e-01	 7.4557530700e-01	 1.1416509132e+00
 9.1054127379e-01	 7.6342498185e-01	 1.0205932135e+00
 8.9551147417e-01	 7.8100084112e-01	 8.9769654027e-01
 8.8013214804e-01	 7.9829224986e-01	 7.7821923754e-01
 9.6289839712e-01	 7.1611917780e-01	 1.2130747612e+00
 9.4882393348e-01	 7.3466532738e-01	 1.1075244822e+00
 9.3437433271e-01	 7.5295724073e-01	 9.9061522803e-01
 9.1955653392e-01	 7.7098364504e-01	 8.6731367779e-01
 9.0437792441e-01	 7.8873352271e-01	 7.4295646369e-01
 8.8884632772e-01	 8.0619613352e-01	 6.2320265466e-01
 9.7233857749e-01	 7.2313995406e-01	 1.0759966196e+00
 9.5812612891e-01	 7.4186792863e-01	 9.6791791054e-01
 9.4353486538e-01	 7.6033917447e-01	 8.4869069575e-01
 9.2857179406e-01	 7.7854230823e-01	 7.2355022150e-01
 9.1324437465e-01	 7.9646620431e-01	 5.9812260121e-01
 8.9756050740e-01	 8.1410001718e-01	 4.7837492406e-01
 9.8177875785e-01	 7.3016073031e-01	 9.4684347961e-01
 9.6742832433e-01	 7.4907052988e-01	 8.3634354908e-01
 9.5269539806e-01	 7.6772110820e-01	 7.1507983462e-01
 9.3758705420e-01	 7.8610097141e-01	 5.8846368527e-01
 9.2211082488e-01	 8.0419888590e-01	 4.6231925523e-01
 9.0627468709e-01	 8.2200390084e-01	 3.4283173138e-01
 9.9121893822e-01	 7.3718150656e-01	 8.2491543513e-01
 9.7673051976e-01	 7.5627313113e-01	 7.1205950390e-01
 9.6185593073e-01	 7.7510304193e-01	 5.8899831462e-01
 9.4660231433e-01	 7.9365963460e-01	 4.6122943459e-01
 9.3097727512e-01	 8.1193156750e-01	 3.3468625076e-01
 9.1498886677e-01	 8.2990778450e-01	 2.1568480197e-01
 8.7141796835e-01	 7.9038836620e-01	 9.4434453070e-01
 8.5585293186e-01	 8.0721670201e-01	 8.2013434429e-01
 8.3995839999e-01	 8.2374324353e-01	 6.8308306088e-01
 8.2374324353e-01	 8.3995839999e-01	 5.3807636913e-01
 8.0721670201e-01	 8.5585293186e-01	 3.9002679537e-01
 7.9038836620e-01	 8.7141796835e-01	 2.4381828356e-01
 8.8013214804e-01	 7.9829224986e-01	 7.7821923754e-01
 8.6441146118e-01	 8.1528886903e-01	 6.5478921116e-01
 8.4835798399e-01	 8.3198067597e-01	 5.1957083545e-01
 8.3198067597e-01	 8.4835798399e-01	 3.7737515897e-01
 8.1528886903e-01	 8.6441146118e-01	 2.3303361710e-01
 7.9829224986e-01	 8.8013214804e-01	 9.1341280650e-02
 8.8884632772e-01	 8.0619613352e-01	 6.2320265466e-01
 8.7296999050e-01	 8.2336103605e-01	 5.0064955141e-01
 8.5675756799e-01	 8.4021810840e-01	 3.6715049897e-01
 8.4021810840e-01	 8.5675756799e-01	 2.2750745597e-01
 8.2336103605e-01	 8.7296999050e-01	 8.6541383553e-02
 8.0619613352e-01	 8.8884632772e-01	-5.0966297092e-02
 8.9756050740e-01	 8.1410001718e-01	 4.7837492406e-01
 8.8152851982e-01	 8.3143320307e-01	 3.5678744693e-01
 8.6515715199e-01	 8.4845554084e-01	 2.2491694308e-01
 8.4845554084e-01	 8.6515715199e-01	 8.7620337470e-02
 8.3143320307e-01	 8.8152851982e-01	-5.0222807119e-02
 8.1410001718e-01	 8.9756050740e-01	-1.8377108231e-01
 9.0627468709e-01	 8.2200390084e-01	 3.4283173138e-01
 8.9008704914e-01	 8.3950537009e-01	 2.2229009088e-01
 8.7355673599e-01	 8.5669297327e-01	 9.1978396048e-02
 8.5669297327e-01	 8.7355673599e-01	-4.3128829137e-02
 8.3950537009e-01	 8.9008704914e-01	-1.7802580973e-01
 8.2200390084e-01	 9.0627468709e-01	-3.0773901938e-01
 9.1498886677e-01	 8.2990778450e-01	 2.1568480197e-01
 8.9864557845e-01	 8.4757753711e-01	 9.6260292774e-02
 8.8195631999e-01	 8.6493040571e-01	-3.2543010578e-02
 8.6493040571e-01	 8.8195631999e-01	-1.6557170880e-01
 8.4757753711e-01	 8.9864557845e-01	-2.9762759709e-01
 8.2990778450e-01	 9.1498886677e-01	-4.2353432893e-01
 7.9038836620e-01	 8.7141796835e-01	 2.4381828356e-01
 7.7326815952e-01	 8.8664502393e-01	 9.3116505911e-02
 7.5586631867e-01	 9.0152601365e-01	-6.8138084846e-02
 7.3819337327e-01	 9.1605326736e-01	-2.3485214069e-01
 7.2026012488e-01	 9.3021954263e-01	-4.0217137325e-01
 7.0207762530e-01	 9.4401803640e-01	-5.6553080376e-01
 7.9829224986e-01	 8.8013214804e-01	 9.1341280650e-02
 7.8100084112e-01	 8.9551147417e-01	-5.4143938895e-02
 7.6342498185e-01	 9.1054127379e-01	-2.0938581427e-01
 7.4557530700e-01	 9.2521380004e-01	-3.6908916751e-01
 7.2746272613e-01	 9.3952173805e-01	-5.2821108058e-01
 7.0909840155e-01	 9.5345821676e-01	-6.8201438743e-01
 8.0619613352e-01	 8.8884632772e-01	-5.0966297092e-02
 7.8873352271e-01	 9.0437792441e-01	-1.9151158636e-01
 7.7098364504e-01	 9.1955653392e-01	-3.4098306868e-01
 7.5295724073e-01	 9.3437433271e-01	-4.9392455642e-01
 7.3466532738e-01	 9.4882393348e-01	-6.4515525067e-01
 7.1611917780e-01	 9.6289839712e-01	-7.8982625867e-01
 8.1410001718e-01	 8.9756050740e-01	-1.8377108231e-01
 7.9646620431e-01	 9.1324437465e-01	-3.1956635925e-01
 7.7854230823e-01	 9.2857179406e-01	-4.6348623758e-01
 7.6033917447e-01	 9.4353486538e-01	-6.0995251900e-01
 7.4186792863e-01	 9.5812612891e-01	-7.5369525283e-01
 7.2313995406e-01	 9.7233857749e-01	-8.8981207572e-01
 8.2200390084e-01	 9.0627468709e-01	-3.0773901938e-01
 8.0419888590e-01	 9.2211082488e-01	-4.3889218202e-01
 7.8610097141e-01	 9.3758705420e-01	-5.7745803053e-01
 7.6772110820e-01	 9.5269539806e-01	-7.1777357618e-01
 7.4907052988e-01	 9.6742832433e-01	-8.5452647460e-01
 7.3016073031e-01	 9.8177875785e-01	-9.8281699799e-01
 8.2990778450e-01	 9.1498886677e-01	-4.2353432893e-01
 8.1193156750e-01	 9.3097727512e-01	-5.5007578608e-01
 7.9365963460e-01	 9.4660231433e-01	-6.8346624460e-01
 7.7510304193e-01	 9.6185593073e-01	-8.1799340660e-01
 7.5627313113e-01	 9.7673051976e-01	-9.4834736625e-01
 7.3718150656e-01	 9.9121893822e-01	-1.0696850383e+00
 7.0207762530e-01	 9.4401803640e-01	-5.6553080376e-01
 6.8365715425e-01	 9.5744239535e-01	-7.3073960802e-01
 6.6501019670e-01	 9.7048672493e-01	-9.0431172144e-01
 6.4614841967e-01	 9.8314559692e-01	-1.0834332642e+00
 6.2708364883e-01	 9.9541405574e-01	-1.2659053665e+00
 6.0782784487e-01	 1.0072876233e+00	-1.4501583072e+00
 7.0909840155e-01	 9.5345821676e-01	-6.8201438743e-01
 6.9049372580e-01	 9.6701681931e-01	-8.3690980233e-01
 6.7166029867e-01	 9.8019159218e-01	-1.0001099745e+00
 6.5260990387e-01	 9.9297705289e-01	-1.1688066645e+00
 6.3335448532e-01	 1.0053681963e+00	-1.3408316761e+00
 6.1390612332e-01	 1.0173604995e+00	-1.5146722175e+00
 7.1611917780e-01	 9.6289839712e-01	-7.8982625867e-01
 6.9733029734e-01	 9.7659124326e-01	-9.3495995701e-01
 6.7831040064e-01	 9.8989645943e-01	-1.0884077636e+00
 6.5907138806e-01	 1.0028085089e+00	-1.2473184774e+00
 6.3962532180e-01	 1.0153223368e+00	-1.4094916766e+00
 6.1998440177e-01	 1.0274333757e+00	-1.5733949615e+00
 7.2313995406e-01	 9.7233857749e-01	-8.8981207572e-01
 7.0416686888e-01	 9.8616566721e-01	-1.0258646014e+00
 6.8496050260e-01	 9.9960132668e-01	-1.1702027091e+00
 6.6553287226e-01	 1.0126399648e+00	-1.3198848180e+00
 6.4589615829e-01	 1.0252764774e+00	-1.4726168810e+00
 6.2606268021e-01	 1.0375062520e+00	-1.6267721675e+00
 7.3016073031e-01	 9.8177875785e-01	-9.8281699799e-01
 7.1100344042e-01	 9.9574009117e-01	-1.1105941671e+00
 6.9161060457e-01	 1.0093061939e+00	-1.2464887125e+00
 6.7199435646e-01	 1.0224714208e+00	-1.3874223627e+00
 6.5216699478e-01	 1.0352306180e+00	-1.5309474579e+00
 6.3214095866e-01	 1.0475791282e+00	-1.6752699305e+00
 7.3718150656e-01	 9.9121893822e-01	-1.0696850383e+00
 7.1784001197e-01	 1.0053145151e+00	-1.1901146086e+00
 6.9826070654e-01	 1.0190110612e+00	-1.3182556595e+00
 6.7845584065e-01	 1.0323028768e+00	-1.4508479513e+00
 6.5843783127e-01	 1.0451847585e+00	-1.5852315523e+00
 6.3821923711e-01	 1.0576520044e+00	-1.7193736733e+00
 6.0782784487e-01	 1.0072876233e+00	-1.4501583072e+00
 5.8839307979e-01	 1.0187623023e+00	-1.6239528511e+00
 5.6879151315e-01	 1.0298345787e+00	-1.7869831217e+00
 5.4903536845e-01	 1.0405014220e+00	-1.9515785140e+00
 5.2913690965e-01	 1.0507602847e+00	-2.1185198588e+00
 5.0910841797e-01	 1.0606091003e+00	-2.2889179169e+00
 6.1390612332e-01	 1.0173604995e+00	-1.5146722175e+00
 5.9427701058e-01	 1.0289499254e+00	-1.6783492708e+00
 5.7447942828e-01	 1.0401329245e+00	-1.8258252493e+00
 5.5452572213e-01	 1.0509064362e+00	-1.9745947827e+00
 5.3442827874e-01	 1.0612678875e+00	-2.1265295070e+00
 5.1419950215e-01	 1.0712151913e+00	-2.2826891712e+00
 6.1998440177e-01	 1.0274333757e+00	-1.5733949615e+00
 6.0016094138e-01	 1.0391375484e+00	-1.7272735325e+00
 5.8016734341e-01	 1.0504312703e+00	-1.8614601727e+00
 5.6001607582e-01	 1.0613114504e+00	-1.9945918418e+00
 5.3971964784e-01	 1.0717754904e+00	-2.1319873670e+00
 5.1929058633e-01	 1.0818212823e+00	-2.2748337839e+00
 6.2606268021e-01	 1.0375062520e+00	-1.6267721675e+00
 6.0604487218e-01	 1.0493251714e+00	-1.7709026077e+00
 5.8585525854e-01	 1.0607296161e+00	-1.8939549518e+00
 5.6550642950e-01	 1.0717164647e+00	-2.0116235066e+00
 5.4501101694e-01	 1.0822830932e+00	-2.1350572175e+00
 5.2438167051e-01	 1.0924273734e+00	-2.2657435912e+00
 6.3214095866e-01	 1.0475791282e+00	-1.6752699305e+00
 6.1192880298e-01	 1.0595127944e+00	-1.8094448764e+00
 5.9154317367e-01	 1.0710279619e+00	-1.9230619133e+00
 5.7099678318e-01	 1.0821214789e+00	-2.0257770282e+00
 5.5030238603e-01	 1.0927906961e+00	-2.1359308021e+00
 5.2947275469e-01	 1.1030334644e+00	-2.2558281873e+00
 6.3821923711e-01	 1.0576520044e+00	-1.7193736733e+00
 6.1781273377e-01	 1.0697004174e+00	-1.8431385703e+00
 5.9723108880e-01	 1.0813263077e+00	-1.9473735925e+00
 5.7648713687e-01	 1.0925264931e+00	-2.0371723689e+00
 5.5559375513e-01	 1.1032982989e+00	-2.1348273563e+00
 5.3456383887e-01	 1.1136395554e+00	-2.2455149219e+00
 5.0910841797e-01	 1.0606091003e+00	-2.2889179169e+00
 4.8896216907e-01	 1.0700462804e+00	-2.4579814168e+00
 4.6871041055e-01	 1.0790707095e+00	-2.6200811051e+00
 4.4836534014e-01	 1.0876817396e+00	-2.7753594101e+00
 4.2793908428e-01	 1.0958791836e+00	-2.9240134084e+00
 4.0744367749e-01	 1.1036633067e+00	-3.0662831198e+00
 5.1419950215e-01	 1.0712151913e+00	-2.2826891712e+00
 4.9385179076e-01	 1.0807467432e+00	-2.4374235358e+00
 4.7339751466e-01	 1.0898614166e+00	-2.5845735847e+00
 4.5284899354e-01	 1.0985585570e+00	-2.7247482933e+00
 4.3221847513e-01	 1.1068379755e+00	-2.8586367546e+00
 4.1151811427e-01	 1.1146999398e+00	-2.9869926739e+00
 5.1929058633e-01	 1.0818212823e+00	-2.2748337839e+00
 4.9874141245e-01	 1.0914472060e+00	-2.4167776934e+00
 4.7808461876e-01	 1.1006521237e+00	-2.5509208171e+00
 4.5733264694e-01	 1.1094353744e+00	-2.6779717719e+00
 4.3649786597e-01	 1.1177967673e+00	-2.7987336126e+00
 4.1559255104e-01	 1.1257365729e+00	-2.9140868360e+00
 5.2438167051e-01	 1.0924273734e+00	-2.2657435912e+00
 5.0363103414e-01	 1.1021476688e+00	-2.3966506343e+00
 4.8277172287e-01	 1.1114428307e+00	-2.5198112916e+00
 4.6181630034e-01	 1.1203121918e+00	-2.6356786566e+00
 4.4077725681e-01	 1.1287555591e+00	-2.7448036715e+00
 4.1966698782e-01	 1.1367732059e+00	-2.8478189054e+00
 5.2947275469e-01	 1.1030334644e+00	-2.2558281873e+00
 5.0852065583e-01	 1.1128481316e+00	-2.3776569755e+00
 4.8745882697e-01	 1.1222335378e+00	-2.4919364359e+00
 4.6629995375e-01	 1.1311890092e+00	-2.5985202797e+00
 4.4505664766e-01	 1.1397143510e+00	-2.6973527995e+00
 4.2374142459e-01	 1.1478098390e+00	-2.7884556447e+00
 5.3456383887e-01	 1.1136395554e+00	-2.2455149219e+00
 5.1341027752e-01	 1.1235485944e+00	-2.3604196542e+00
 4.9214593108e-01	 1.1330242449e+00	-2.4679912732e+00
 4.7078360715e-01	 1.1420658266e+00	-2.5671511405e+00
 4.4933603850e-01	 1.1506731428e+00	-2.6568934792e+00
 4.2781586137e-01	 1.1588464721e+00	-2.7362773288e+00
 4.0744367749e-01	 1.1036633067e+00	-3.0662831198e+00
 3.8689104234e-01	 1.1110348178e+00	-3.2035757246e+00
 3.6629297028e-01	 1.1179948591e+00	-3.3366697231e+00
 3.4566110319e-01	 1.1245449954e+00	-3.4649175353e+00
 3.2500691590e-01	 1.1306872024e+00	-3.5877006752e+00
 3.0434169952e-01	 1.1364238535e+00	-3.7044124051e+00
 4.1151811427e-01	 1.1146999398e+00	-2.9869926739e+00
 3.9075995277e-01	 1.1221451660e+00	-3.1116770534e+00
 3.6995589998e-01	 1.1291748077e+00	-3.2333183974e+00
 3.4911771422e-01	 1.1357904454e+00	-3.3508932390e+00
 3.2825698506e-01	 1.1419940744e+00	-3.4634109950e+00
 3.0738511652e-01	 1.1477880921e+00	-3.5698974025e+00
 4.1559255104e-01	 1.1257365729e+00	-2.9140868360e+00
 3.9462886319e-01	 1.1332555141e+00	-3.0259804486e+00
 3.7361882968e-01	 1.1403547563e+00	-3.1349210324e+00
 3.5257432525e-01	 1.1470358953e+00	-3.2397067277e+00
 3.3150705422e-01	 1.1533009464e+00	-3.3391699319e+00
 3.1042853351e-01	 1.1591523306e+00	-3.4321605247e+00
 4.1966698782e-01	 1.1367732059e+00	-2.8478189054e+00
 3.9849777361e-01	 1.1443658623e+00	-2.9464535865e+00
 3.7728175938e-01	 1.1515347048e+00	-3.0411667746e+00
 3.5603093629e-01	 1.1582813453e+00	-3.1307705093e+00
 3.3475712338e-01	 1.1646078184e+00	-3.2141101426e+00
 3.1347195051e-01	 1.1705165692e+00	-3.2900463684e+00
 4.2374142459e-01	 1.1478098390e+00	-2.7884556447e+00
 4.0236668404e-01	 1.1554762105e+00	-2.8730863092e+00
 3.8094468909e-01	 1.1627146534e+00	-2.9517752995e+00
 3.5948754732e-01	 1.1695267952e+00	-3.0235358704e+00
 3.3800719254e-01	 1.1759146905e+00	-3.0874114229e+00
 3.1651536750e-01	 1.1818808077e+00	-3.1471494744e+00
 4.2781586137e-01	 1.1588464721e+00	-2.7362773288e+00
 4.0623559446e-01	 1.1665865587e+00	-2.8058902162e+00
 3.8460761879e-01	 1.1738946020e+00	-2.8664959587e+00
 3.6294415835e-01	 1.1807722452e+00	-2.9203432606e+00
 3.4125726170e-01	 1.1872215625e+00	-2.9764833316e+00
 3.1955878450e-01	 1.1932450462e+00	-3.0334379191e+00
 3.0434169952e-01	 1.1364238535e+00	-3.7044124051e+00
 2.8367654572e-01	 1.1417577074e+00	-3.8141428986e+00
 2.6302233205e-01	 1.1466918932e+00	-3.9162349598e+00
 2.4238970811e-01	 1.1512298964e+00	-4.0104083490e+00
 2.2178908286e-01	 1.1553755440e+00	-4.0963025305e+00
 2.0123061286e-01	 1.1591329887e+00	-4.1734620172e+00
 3.0738511652e-01	 1.1477880921e+00	-3.5698974025e+00
 2.8651331118e-01	 1.1531752845e+00	-3.6690490751e+00
 2.6565255537e-01	 1.1581588121e+00	-3.7601480403e+00
 2.4481360519e-01	 1.1627421954e+00	-3.8430261592e+00
 2.2400697369e-01	 1.1669292995e+00	-3.9174033093e+00
 2.0324291899e-01	 1.1707243186e+00	-3.9828722717e+00
 3.1042853351e-01	 1.1591523306e+00	-3.4321605247e+00
 2.8935007664e-01	 1.1645928615e+00	-3.5170972573e+00
 2.6828277869e-01	 1.1696257310e+00	-3.5933110809e+00
 2.4723750227e-01	 1.1742544943e+00	-3.6609310735e+00
 2.2622486451e-01	 1.1784830549e+00	-3.7206318001e+00
 2.0525522512e-01	 1.1823156484e+00	-3.7760060762e+00
 3.1347195051e-01	 1.1705165692e+00	-3.2900463684e+00
 2.9218684210e-01	 1.1760104386e+00	-3.3568833164e+00
 2.7091300201e-01	 1.1810926499e+00	-3.4176870840e+00
 2.4966139935e-01	 1.1857667933e+00	-3.4769194102e+00
 2.2844275534e-01	 1.1900368103e+00	-3.5333477456e+00
 2.0726753125e-01	 1.1939069783e+00	-3.5855807586e+00
 3.1651536750e-01	 1.1818808077e+00	-3.1471494744e+00
 2.9502360755e-01	 1.1874280157e+00	-3.2066307862e+00
 2.7354322533e-01	 1.1925595689e+00	-3.2639629659e+00
 2.5208529643e-01	 1.1972790923e+00	-3.3184953495e+00
 2.3066064617e-01	 1.2015905658e+00	-3.3694319466e+00
 2.0927983738e-01	 1.2054983082e+00	-3.4158491871e+00
 3.1955878450e-01	 1.1932450462e+00	-3.0334379191e+00
 2.9786037301e-01	 1.1988455928e+00	-3.0879302465e+00
 2.7617344865e-01	 1.2040264878e+00	-3.1384732535e+00
 2.5450919351e-01	 1.2087913912e+00	-3.1850463357e+00
 2.3287853700e-01	 1.2131443212e+00	-3.2274888337e+00
 2.1129214350e-01	 1.2170896381e+00	-3.2655148758e+00
 2.0123061286e-01	 1.1591329887e+00	-4.1734620172e+00
 1.8072419155e-01	 1.1625066931e+00	-4.2413981178e+00
 1.6027943954e-01	 1.1655014141e+00	-4.3005804169e+00
 1.3990569595e-01	 1.1681221859e+00	-4.3517848453e+00
 1.1961201068e-01	 1.1703743042e+00	-4.3956095566e+00
 9.9407137800e-02	 1.1722633091e+00	-4.4324671332e+00
 2.0324291899e-01	 1.1707243186e+00	-3.9828722717e+00
 1.8253143347e-01	 1.1741317601e+00	-4.0390803901e+00
 1.6188223394e-01	 1.1771564282e+00	-4.0869316585e+00
 1.4130475290e-01	 1.1798034078e+00	-4.1292025497e+00
 1.2080813079e-01	 1.1820780472e+00	-4.1667273205e+00
 1.0040120918e-01	 1.1839859422e+00	-4.1993381476e+00
 2.0525522512e-01	 1.1823156484e+00	-3.7760060762e+00
 1.8433867538e-01	 1.1857568270e+00	-3.8264369292e+00
 1.6348502833e-01	 1.1888114424e+00	-3.8717950030e+00
 1.4270380986e-01	 1.1914846296e+00	-3.9122233864e+00
 1.2200425089e-01	 1.1937817903e+00	-3.9477887181e+00
 1.0139528056e-01	 1.1957085753e+00	-3.9784846386e+00
 2.0726753125e-01	 1.1939069783e+00	-3.5855807586e+00
 1.8614591730e-01	 1.1973818939e+00	-3.6325997200e+00
 1.6508782273e-01	 1.2004664565e+00	-3.6745608005e+00
 1.4410286682e-01	 1.2031658515e+00	-3.7116903958e+00
 1.2320037100e-01	 1.2054855333e+00	-3.7441349261e+00
 1.0238935193e-01	 1.2074312084e+00	-3.7719640899e+00
 2.0927983738e-01	 1.2054983082e+00	-3.4158491871e+00
 1.8795315921e-01	 1.2090069609e+00	-3.4572741421e+00
 1.6669061713e-01	 1.2121214707e+00	-3.4941014098e+00
 1.4550192378e-01	 1.2148470734e+00	-3.5265576638e+00
 1.2439649111e-01	 1.2171892763e+00	-3.5547859703e+00
 1.0338342331e-01	 1.2191538415e+00	-3.5788492611e+00
 2.1129214350e-01	 1.2170896381e+00	-3.2655148758e+00
 1.8976040113e-01	 1.2206320278e+00	-3.2992809638e+00
 1.6829341152e-01	 1.2237764848e+00	-3.3293346059e+00
 1.4690098074e-01	 1.2265282952e+00	-3.3558222131e+00
 1.2559261121e-01	 1.2288930194e+00	-3.3788028519e+00
 1.0437749469e-01	 1.2308764746e+00	-3.3982523470e+00
 9.9407137800e-02	 1.1722633091e+00	-4.4324671332e+00
 7.9299529776e-02	 1.1737949691e+00	-4.4619912992e+00
 5.9297332745e-02	 1.1749752641e+00	-4.4841143000e+00
 3.9408382690e-02	 1.1758103692e+00	-4.4993992350e+00
 1.9640202514e-02	 1.1763066384e+00	-4.5082052172e+00
 0.0000000000e+00	 1.1764705882e+00	-4.5106935184e+00
 1.0040120918e-01	 1.1839859422e+00	-4.1993381476e+00
 8.0092525073e-02	 1.1855329188e+00	-4.2261930475e+00
 5.9890306073e-02	 1.1867250168e+00	-4.2467439247e+00
 3.9802466517e-02	 1.1875684729e+00	-4.2611624447e+00
 1.9836604539e-02	 1.1880697047e+00	-4.2695509931e+00
 0.0000000000e+00	 1.1882352941e+00	-4.2719420231e+00
 1.0139528056e-01	 1.1957085753e+00	-3.9784846386e+00
 8.0885520371e-02	 1.1972708685e+00	-4.0036432080e+00
 6.0483279400e-02	 1.1984747694e+00	-4.0228339669e+00
 4.0196550344e-02	 1.1993265766e+00	-4.0363013068e+00
 2.0033006564e-02	 1.1998327711e+00	-4.0442189742e+00
 0.0000000000e+00	 1.2000000000e+00	-4.0466889066e+00
 1.0238935193e-01	 1.2074312084e+00	-3.7719640899e+00
 8.1678515669e-02	 1.2090088182e+00	-3.7946283313e+00
 6.1076252728e-02	 1.2102245221e+00	-3.8118394398e+00
 4.0590634171e-02	 1.2110846803e+00	-3.8239472428e+00
 2.0229408589e-02	 1.2115958375e+00	-3.8312258614e+00
 0.0000000000e+00	 1.2117647059e+00	-3.8338720487e+00
 1.0338342331e-01	 1.2191538415e+00	-3.5788492611e+00
 8.2471510967e-02	 1.2207467679e+00	-3.5982557302e+00
 6.1669226055e-02	 1.2219742747e+00	-3.6128767868e+00
 4.0984717998e-02	 1.2228427840e+00	-3.6231996391e+00
 2.0425810614e-02	 1.2233589039e+00	-3.6296271135e+00
 0.0000000000e+00	 1.2235294118e+00	-3.6324755070e+00
 1.0437749469e-01	 1.2308764746e+00	-3.3982523470e+00
 8.3264506264e-02	 1.2324847176e+00	-3.4136712232e+00
 6.2262199383e-02	 1.2337240273e+00	-3.4251009166e+00
 4.1378801824e-02	 1.2346008877e+00	-3.4331972276e+00
 2.0622212639e-02	 1.2351219703e+00	-3.4385193641e+00
 0.0000000000e+00	 1.2352941176e+00	-3.4415273182e+00
 1.2352941176e+00	 0.0000000000e+00	 3.3834569086e+00
 1.2351219703e+00	 2.0622212639e-02	 3.3793719080e+00
 1.2346008877e+00	 4.1378801824e-02	 3.3721958885e+00
 1.2337240273e+00	 6.2262199383e-02	 3.3612739760e+00
 1.2324847176e+00	 8.3264506264e-02	 3.3455918361e+00
 1.2308764746e+00	 1.0437749469e-01	 3.3238084160e+00
 1.2470588235e+00	 0.0000000000e+00	 3.4365267381e+00
 1.2468850367e+00	 2.0818614665e-02	 3.4319291831e+00
 1.2463589914e+00	 4.1772885651e-02	 3.4243662095e+00
 1.2454737800e+00	 6.2855172710e-02	 3.4129967351e+00
 1.2442226673e+00	 8.4057501562e-02	 3.3966297237e+00
 1.2425991077e+00	 1.0537156607e-01	 3.3737587106e+00
 1.2588235294e+00	 0.0000000000e+00	 3.4849632567e+00
 1.2586481030e+00	 2.1015016690e-02	 3.4799831822e+00
 1.2581170951e+00	 4.2166969478e-02	 3.4719661446e+00
 1.2572235326e+00	 6.3448146038e-02	 3.4599587041e+00
 1.2559606170e+00	 8.4850496860e-02	 3.4426703204e+00
 1.2543217408e+00	 1.0636563745e-01	 3.4185093829e+00
 1.2705882353e+00	 0.0000000000e+00	 3.5283056410e+00
 1.2704111694e+00	 2.1211418715e-02	 3.5230943033e+00
 1.2698751988e+00	 4.2561053305e-02	 3.5145773379e+00
 1.2689732853e+00	 6.4041119365e-02	 3.5017607219e+00
 1.2676985667e+00	 8.5643492158e-02	 3.4833295024e+00
 1.2660443739e+00	 1.0735970882e-01	 3.4576850511e+00
 1.2823529412e+00	 0.0000000000e+00	 3.5661070831e+00
 1.2821742358e+00	 2.1407820740e-02	 3.5608359325e+00
 1.2816333024e+00	 4.2955137132e-02	 3.5517931876e+00
 1.2807230379e+00	 6.4634092693e-02	 3.5380140343e+00
 1.2794365164e+00	 8.6436487455e-02	 3.5182321867e+00
 1.2777670070e+00	 1.0835378020e-01	 3.4909180851e+00
 1.2941176471e+00	 0.0000000000e+00	 3.5979341531e+00
 1.2939373022e+00	 2.1604222765e-02	 3.5927938309e+00
 1.2933914061e+00	 4.3349220959e-02	 3.5832182679e+00
 1.2924727905e+00	 6.5227066020e-02	 3.5683397581e+00
 1.2911744660e+00	 8.7229482753e-02	 3.5470118408e+00
 1.2894896400e+00	 1.0934785158e-01	 3.5178481632e+00
 1.2308764746e+00	 1.0437749469e-01	 3.3238084160e+00
 1.2288930194e+00	 1.2559261121e-01	 3.2954069487e+00
 1.2265282952e+00	 1.4690098074e-01	 3.2615390825e+00
 1.2237764848e+00	 1.6829341152e-01	 3.2230229155e+00
 1.2206320278e+00	 1.8976040113e-01	 3.1805380368e+00
 1.2170896381e+00	 2.1129214350e-01	 3.1346499385e+00
 1.2425991077e+00	 1.0537156607e-01	 3.3737587106e+00
 1.2405967624e+00	 1.2678873132e-01	 3.3437569953e+00
 1.2382095171e+00	 1.4830003770e-01	 3.3078651568e+00
 1.2354314989e+00	 1.6989620592e-01	 3.2670581304e+00
 1.2322570947e+00	 1.9156764304e-01	 3.2221915651e+00
 1.2286809680e+00	 2.1330444963e-01	 3.1740260346e+00
 1.2543217408e+00	 1.0636563745e-01	 3.4185093829e+00
 1.2523005055e+00	 1.2798485143e-01	 3.3867876879e+00
 1.2498907389e+00	 1.4969909466e-01	 3.3487798680e+00
 1.2470865131e+00	 1.7149900031e-01	 3.3055451716e+00
 1.2438821616e+00	 1.9337488496e-01	 3.2580431091e+00
 1.2402722979e+00	 2.1531675576e-01	 3.2071577801e+00
 1.2660443739e+00	 1.0735970882e-01	 3.4576850511e+00
 1.2640042485e+00	 1.2918097153e-01	 3.4241295406e+00
 1.2615719608e+00	 1.5109815162e-01	 3.3839231752e+00
 1.2587415272e+00	 1.7310179471e-01	 3.3381392730e+00
 1.2555072286e+00	 1.9518212688e-01	 3.2877713077e+00
 1.2518636278e+00	 2.1732906189e-01	 3.2337576645e+00
 1.2777670070e+00	 1.0835378020e-01	 3.4909180851e+00
 1.2757079916e+00	 1.3037709164e-01	 3.4554194998e+00
 1.2732531826e+00	 1.5249720858e-01	 3.4129399027e+00
 1.2703965414e+00	 1.7470458910e-01	 3.3644986518e+00
 1.2671322955e+00	 1.9698936879e-01	 3.3110555201e+00
 1.2634549577e+00	 2.1934136802e-01	 3.2535361826e+00
 1.2894896400e+00	 1.0934785158e-01	 3.5178481632e+00
 1.2874117346e+00	 1.3157321175e-01	 3.4803005527e+00
 1.2849344045e+00	 1.5389626554e-01	 3.4354794168e+00
 1.2820515555e+00	 1.7630738350e-01	 3.3842842749e+00
 1.2787573624e+00	 1.9879661071e-01	 3.3275757049e+00
 1.2750462875e+00	 2.2135367415e-01	 3.2662018548e+00
 1.2170896381e+00	 2.1129214350e-01	 3.1346499385e+00
 1.2131443212e+00	 2.3287853700e-01	 3.0845865328e+00
 1.2087913912e+00	 2.5450919351e-01	 3.0293974349e+00
 1.2040264878e+00	 2.7617344865e-01	 2.9692241889e+00
 1.1988455928e+00	 2.9786037301e-01	 2.9041100921e+00
 1.1932450462e+00	 3.1955878450e-01	 2.8340188966e+00
 1.2286809680e+00	 2.1330444963e-01	 3.1740260346e+00
 1.2246980767e+00	 2.3509642783e-01	 3.1216496527e+00
 1.2203036902e+00	 2.5693309059e-01	 3.0635150405e+00
 1.2154934067e+00	 2.7880367197e-01	 2.9993051302e+00
 1.2102631698e+00	 3.0069713847e-01	 2.9286312401e+00
 1.2046092848e+00	 3.2260220149e-01	 2.8510549988e+00
 1.2402722979e+00	 2.1531675576e-01	 3.2071577801e+00
 1.2362518321e+00	 2.3731431866e-01	 3.1518754734e+00
 1.2318159892e+00	 2.5935698767e-01	 3.0903055779e+00
 1.2269603257e+00	 2.8143389529e-01	 3.0219250871e+00
 1.2216807469e+00	 3.0353390393e-01	 2.9461647421e+00
 1.2159735233e+00	 3.2564561849e-01	 2.8624327852e+00
 1.2518636278e+00	 2.1732906189e-01	 3.2337576645e+00
 1.2478055875e+00	 2.3953220949e-01	 3.1749948200e+00
 1.2433282881e+00	 2.6178088475e-01	 3.1094705587e+00
 1.2384272446e+00	 2.8406411861e-01	 3.0367016474e+00
 1.2330983240e+00	 3.0637066938e-01	 2.9561826813e+00
 1.2273377618e+00	 3.2868903548e-01	 2.8674102933e+00
 1.2634549577e+00	 2.1934136802e-01	 3.2535361826e+00
 1.2593593430e+00	 2.4175010031e-01	 3.1907343238e+00
 1.2548405871e+00	 2.6420478183e-01	 3.1207068090e+00
 1.2498941635e+00	 2.8669434193e-01	 3.0432491944e+00
 1.2445159011e+00	 3.0920743484e-01	 2.9581576548e+00
 1.2387020004e+00	 3.3173245248e-01	 2.8652522901e+00
 1.2750462875e+00	 2.2135367415e-01	 3.2662018548e+00
 1.2709130984e+00	 2.4396799114e-01	 3.1988165674e+00
 1.2663528861e+00	 2.6662867892e-01	 3.1237066687e+00
 1.2613610825e+00	 2.8932456525e-01	 3.0411790794e+00
 1.2559334781e+00	 3.1204420030e-01	 2.9515628242e+00
 1.2500662389e+00	 3.3477586947e-01	 2.8552300968e+00
 1.1932450462e+00	 3.1955878450e-01	 2.8340188966e+00
 1.1872215625e+00	 3.4125726170e-01	 2.7605017510e+00
 1.1807722452e+00	 3.6294415835e-01	 2.6871040968e+00
 1.1738946020e+00	 3.8460761879e-01	 2.6157464427e+00
 1.1665865587e+00	 4.0623559446e-01	 2.5388907366e+00
 1.1588464721e+00	 4.2781586137e-01	 2.4558547658e+00
 1.2046092848e+00	 3.2260220149e-01	 2.8510549988e+00
 1.1985284345e+00	 3.4450733086e-01	 2.7674496883e+00
 1.1920176951e+00	 3.6640076938e-01	 2.6809709609e+00
 1.1850745506e+00	 3.8827054849e-01	 2.5945329225e+00
 1.1776969069e+00	 4.1010450488e-01	 2.5109842337e+00
 1.1698831051e+00	 4.3189029814e-01	 2.4275904003e+00
 1.2159735233e+00	 3.2564561849e-01	 2.8624327852e+00
 1.2098353065e+00	 3.4775740002e-01	 2.7710335202e+00
 1.2032631451e+00	 3.6985738041e-01	 2.6745721059e+00
 1.1962544992e+00	 3.9193347820e-01	 2.5758715318e+00
 1.1888072550e+00	 4.1397341531e-01	 2.4777075521e+00
 1.1809197382e+00	 4.3596473492e-01	 2.3828035307e+00
 1.2273377618e+00	 3.2868903548e-01	 2.8674102933e+00
 1.2211421786e+00	 3.5100746918e-01	 2.7702578042e+00
 1.2145085951e+00	 3.7331399145e-01	 2.6666559100e+00
 1.2074344478e+00	 3.9559640790e-01	 2.5591803785e+00
 1.1999176032e+00	 4.1784232573e-01	 2.4503757665e+00
 1.1919563713e+00	 4.4003917169e-01	 2.3427520447e+00
 1.2387020004e+00	 3.3173245248e-01	 2.8652522901e+00
 1.2324490506e+00	 3.5425753833e-01	 2.7641414770e+00
 1.2257540450e+00	 3.7677060248e-01	 2.6559928663e+00
 1.2186143964e+00	 3.9925933760e-01	 2.5429832570e+00
 1.2110279514e+00	 4.2171123615e-01	 2.4272721030e+00
 1.2029930044e+00	 4.4411360847e-01	 2.3110007154e+00
 1.2500662389e+00	 3.3477586947e-01	 2.8552300968e+00
 1.2437559226e+00	 3.5750760749e-01	 2.7517173941e+00
 1.2369994950e+00	 3.8022721351e-01	 2.6413748399e+00
 1.2297943450e+00	 4.0292226730e-01	 2.5258327159e+00
 1.2221382996e+00	 4.2558014658e-01	 2.4067156865e+00
 1.2140296374e+00	 4.4818804524e-01	 2.2856453676e+00
 1.1588464721e+00	 4.2781586137e-01	 2.4558547658e+00
 1.1506731428e+00	 4.4933603850e-01	 2.3685498032e+00
 1.1420658266e+00	 4.7078360715e-01	 2.2757428416e+00
 1.1330242449e+00	 4.9214593108e-01	 2.1750403166e+00
 1.1235485944e+00	 5.1341027752e-01	 2.0641926261e+00
 1.1136395554e+00	 5.3456383887e-01	 1.9410835912e+00
 1.1698831051e+00	 4.3189029814e-01	 2.4275904003e+00
 1.1616319347e+00	 4.5361542934e-01	 2.3363103013e+00
 1.1529426440e+00	 4.7526726055e-01	 2.2362344354e+00
 1.1438149520e+00	 4.9683303518e-01	 2.1261419933e+00
 1.1342490572e+00	 5.1829989921e-01	 2.0049732148e+00
 1.1242456464e+00	 5.3965492305e-01	 1.8718102375e+00
 1.1809197382e+00	 4.3596473492e-01	 2.3828035307e+00
 1.1725907265e+00	 4.5789482018e-01	 2.2910719425e+00
 1.1638194614e+00	 4.7975091395e-01	 2.1893903010e+00
 1.1546056591e+00	 5.0152013929e-01	 2.0749395941e+00
 1.1449495200e+00	 5.2318952090e-01	 1.9475925944e+00
 1.1348517374e+00	 5.4474600723e-01	 1.8073947851e+00
 1.1919563713e+00	 4.4003917169e-01	 2.3427520447e+00
 1.1835495183e+00	 4.6217421103e-01	 2.2374401830e+00
 1.1746962788e+00	 4.8423456735e-01	 2.1338466022e+00
 1.1653963662e+00	 5.0620724339e-01	 2.0201960084e+00
 1.1556499828e+00	 5.2807914259e-01	 1.8910863982e+00
 1.1454578284e+00	 5.4983709141e-01	 1.7472998519e+00
 1.2029930044e+00	 4.4411360847e-01	 2.3110007154e+00
 1.1945083102e+00	 4.6645360187e-01	 2.1945524841e+00
 1.1855730962e+00	 4.8871822075e-01	 2.0775216666e+00
 1.1761870733e+00	 5.1089434750e-01	 1.9606910092e+00
 1.1663504456e+00	 5.3296876428e-01	 1.8344915665e+00
 1.1560639194e+00	 5.5492817559e-01	 1.6909678043e+00
 1.2140296374e+00	 4.4818804524e-01	 2.2856453676e+00
 1.2054671020e+00	 4.7073299271e-01	 2.1621531345e+00
 1.1964499136e+00	 4.9320187415e-01	 2.0354893860e+00
 1.1869777804e+00	 5.1558145161e-01	 1.9067479305e+00
 1.1770509084e+00	 5.3785838597e-01	 1.7768768901e+00
 1.1666700104e+00	 5.6001925977e-01	 1.6378189106e+00
 1.1136395554e+00	 5.3456383887e-01	 1.9410835912e+00
 1.1032982989e+00	 5.5559375513e-01	 1.8200439359e+00
 1.0925264931e+00	 5.7648713687e-01	 1.7200447598e+00
 1.0813263077e+00	 5.9723108880e-01	 1.6406880987e+00
 1.0697004174e+00	 6.1781273377e-01	 1.5422113504e+00
 1.0576520044e+00	 6.3821923711e-01	 1.4218417055e+00
 1.1242456464e+00	 5.3965492305e-01	 1.8718102375e+00
 1.1138059017e+00	 5.6088512423e-01	 1.7441601028e+00
 1.1029315073e+00	 5.8197749055e-01	 1.6432450641e+00
 1.0916246535e+00	 6.0291900393e-01	 1.5586123628e+00
 1.0798880405e+00	 6.2369666457e-01	 1.4510297407e+00
 1.0677248807e+00	 6.4429751556e-01	 1.3245358866e+00
 1.1348517374e+00	 5.4474600723e-01	 1.8073947851e+00
 1.1243135046e+00	 5.6617649332e-01	 1.6750590556e+00
 1.1133365215e+00	 5.8746784424e-01	 1.5744732145e+00
 1.1019229992e+00	 6.0860691907e-01	 1.4804590910e+00
 1.0900756635e+00	 6.2958059537e-01	 1.3638591104e+00
 1.0777977569e+00	 6.5037579401e-01	 1.2315740849e+00
 1.1454578284e+00	 5.4983709141e-01	 1.7472998519e+00
 1.1348211074e+00	 5.7146786242e-01	 1.6126258945e+00
 1.1237415358e+00	 5.9295819792e-01	 1.5122132240e+00
 1.1122213450e+00	 6.1429483420e-01	 1.4063104761e+00
 1.1002632865e+00	 6.3546452617e-01	 1.2807105288e+00
 1.0878706331e+00	 6.5645407246e-01	 1.1426980998e+00
 1.1560639194e+00	 5.5492817559e-01	 1.6909678043e+00
 1.1453287103e+00	 5.7675923152e-01	 1.5567038121e+00
 1.1341465500e+00	 5.9844855161e-01	 1.4537089158e+00
 1.1225196908e+00	 6.1998274933e-01	 1.3362276724e+00
 1.1104509095e+00	 6.4134845697e-01	 1.2015778246e+00
 1.0979435094e+00	 6.6253235091e-01	 1.0576435185e+00
 1.1666700104e+00	 5.6001925977e-01	 1.6378189106e+00
 1.1558363131e+00	 5.8205060061e-01	 1.5070929427e+00
 1.1445515642e+00	 6.0393890529e-01	 1.3988468874e+00
 1.1328180366e+00	 6.2567066446e-01	 1.2702525858e+00
 1.1206385326e+00	 6.4723238776e-01	 1.1264393108e+00
 1.1080163856e+00	 6.6861062935e-01	 9.7614104032e-01
 1.0576520044e+00	 6.3821923711e-01	 1.4218417055e+00
 1.0451847585e+00	 6.5843783127e-01	 1.2946440350e+00
 1.0323028768e+00	 6.7845584065e-01	 1.1706243672e+00
 1.0190110612e+00	 6.9826070654e-01	 1.0502790447e+00
 1.0053145151e+00	 7.1784001197e-01	 9.3456911654e-01
 9.9121893822e-01	 7.3718150656e-01	 8.2491543513e-01
 1.0677248807e+00	 6.4429751556e-01	 1.3245358866e+00
 1.0551388991e+00	 6.6470866776e-01	 1.1929709464e+00
 1.0421343327e+00	 6.8491732485e-01	 1.0651763648e+00
 1.0287159284e+00	 7.0491080850e-01	 9.4154735553e-01
 1.0148889391e+00	 7.2467658351e-01	 8.2293180815e-01
 1.0006591186e+00	 7.4420228281e-01	 7.1062659430e-01
 1.0777977569e+00	 6.5037579401e-01	 1.2315740849e+00
 1.0650930396e+00	 6.7097950425e-01	 1.0963268751e+00
 1.0519657887e+00	 6.9137880905e-01	 9.6561393571e-01
 1.0384207957e+00	 7.1156091047e-01	 8.3956295636e-01
 1.0244633630e+00	 7.3151315505e-01	 7.1875734581e-01
 1.0100992989e+00	 7.5122305907e-01	 6.0423487202e-01
 1.0878706331e+00	 6.5645407246e-01	 1.1426980998e+00
 1.0750471802e+00	 6.7725034073e-01	 1.0041279257e+00
 1.0617972447e+00	 6.9784029324e-01	 8.7112118238e-01
 1.0481256629e+00	 7.1821101244e-01	 7.4337569110e-01
 1.0340377870e+00	 7.3834972659e-01	 6.2106288265e-01
 1.0195394793e+00	 7.5824383532e-01	 5.0482988767e-01
 1.0979435094e+00	 6.6253235091e-01	 1.0576435185e+00
 1.0850013208e+00	 6.8352117722e-01	 9.1579701472e-01
 1.0716287006e+00	 7.0430177744e-01	 7.8089850198e-01
 1.0578305302e+00	 7.2486111441e-01	 6.5205746247e-01
 1.0436122109e+00	 7.4518629814e-01	 5.2888951190e-01
 1.0289796597e+00	 7.6526461157e-01	 4.1152304630e-01
 1.1080163856e+00	 6.6861062935e-01	 9.7614104032e-01
 1.0949554613e+00	 6.8979201371e-01	 8.3076469980e-01
 1.0814601566e+00	 7.1076326164e-01	 6.9416307239e-01
 1.0675353974e+00	 7.3151121637e-01	 5.6470253581e-01
 1.0531866349e+00	 7.5202286968e-01	 4.4130255525e-01
 1.0384198400e+00	 7.7228538783e-01	 3.2344798473e-01
 9.9121893822e-01	 7.3718150656e-01	 8.2491543513e-01
 9.7673051976e-01	 7.5627313113e-01	 7.1205950390e-01
 9.6185593073e-01	 7.7510304193e-01	 5.8899831462e-01
 9.4660231433e-01	 7.9365963460e-01	 4.6122943459e-01
 9.3097727512e-01	 8.1193156750e-01	 3.3468625076e-01
 9.1498886677e-01	 8.2990778450e-01	 2.1568480197e-01
 1.0006591186e+00	 7.4420228281e-01	 7.1062659430e-01
 9.8603271519e-01	 7.6347573238e-01	 5.9546108904e-01
 9.7101646340e-01	 7.8248497566e-01	 4.7065229767e-01
 9.5561757447e-01	 8.0121829779e-01	 3.4178201441e-01
 9.3984372536e-01	 8.1966424909e-01	 2.1489037158e-01
 9.2370304645e-01	 8.3781166817e-01	 9.6421277118e-02
 1.0100992989e+00	 7.5122305907e-01	 6.0423487202e-01
 9.9533491061e-01	 7.7067833362e-01	 4.8689434984e-01
 9.8017699608e-01	 7.8986690940e-01	 3.6029191559e-01
 9.6463283461e-01	 8.0877696097e-01	 2.3017633261e-01
 9.4871017560e-01	 8.2739693069e-01	 1.0277519549e-01
 9.3241722614e-01	 8.4571555183e-01	-1.5261502022e-02
 1.0195394793e+00	 7.5824383532e-01	 5.0482988767e-01
 1.0046371060e+00	 7.7788093487e-01	 3.8556551064e-01
 9.8933752875e-01	 7.9724884313e-01	 2.5721933624e-01
 9.7364809474e-01	 8.1633562416e-01	 1.2578765608e-01
 9.5757662584e-01	 8.3512961228e-01	-2.2358203628e-03
 9.4113140582e-01	 8.5361943549e-01	-1.1991873498e-01
 1.0289796597e+00	 7.6526461157e-01	 4.1152304630e-01
 1.0139393015e+00	 7.8508353612e-01	 2.9069861348e-01
 9.9849806143e-01	 8.0463077686e-01	 1.6075112845e-01
 9.8266335488e-01	 8.2389428735e-01	 2.8002858779e-02
 9.6644307608e-01	 8.4286229388e-01	-1.0070971139e-01
 9.4984558550e-01	 8.6152331915e-01	-2.1809744771e-01
 1.0384198400e+00	 7.7228538783e-01	 3.2344798473e-01
 1.0232414969e+00	 7.9228613737e-01	 2.0153619330e-01
 1.0076585941e+00	 8.1201271059e-01	 7.0219129923e-02
 9.9167861502e-01	 8.3145295053e-01	-6.3778558047e-02
 9.7530952632e-01	 8.5059497547e-01	-1.9320287675e-01
 9.5855976519e-01	 8.6942720281e-01	-3.1033530234e-01
 9.1498886677e-01	 8.2990778450e-01	 2.1568480197e-01
 8.9864557845e-01	 8.4757753711e-01	 9.6260292774e-02
 8.8195631999e-01	 8.6493040571e-01	-3.2543010578e-02
 8.6493040571e-01	 8.8195631999e-01	-1.6557170880e-01
 8.4757753711e-01	 8.9864557845e-01	-2.9762759709e-01
 8.2990778450e-01	 9.1498886677e-01	-4.2353432893e-01
 9.2370304645e-01	 8.3781166817e-01	 9.6421277118e-02
 9.0720410777e-01	 8.5564970413e-01	-2.1838847748e-02
 8.9035590399e-01	 8.7316783814e-01	-1.4907501647e-01
 8.7316783814e-01	 8.9035590399e-01	-2.7994974481e-01
 8.5564970413e-01	 9.0720410777e-01	-4.0906690600e-01
 8.3781166817e-01	 9.2370304645e-01	-5.3104168945e-01
 9.3241722614e-01	 8.4571555183e-01	-1.5261502022e-02
 9.1576263709e-01	 8.6372187115e-01	-1.3233409847e-01
 8.9875548799e-01	 8.8140527058e-01	-2.5787591168e-01
 8.8140527058e-01	 8.9875548799e-01	-3.8641419556e-01
 8.6372187115e-01	 9.1576263709e-01	-5.1240798256e-01
 8.4571555183e-01	 9.3241722614e-01	-6.3032114873e-01
 9.4113140582e-01	 8.5361943549e-01	-1.1991873498e-01
 9.2432116641e-01	 8.7179403817e-01	-2.3579030129e-01
 9.0715507199e-01	 8.8964270301e-01	-3.5955301742e-01
 8.8964270301e-01	 9.0715507199e-01	-4.8564599383e-01
 8.7179403817e-01	 9.2432116641e-01	-6.0843465461e-01
 8.5361943549e-01	 9.4113140582e-01	-7.2228672999e-01
 9.4984558550e-01	 8.6152331915e-01	-2.1809744771e-01
 9.3287969573e-01	 8.7986620519e-01	-3.3276453587e-01
 9.1555465599e-01	 8.9788013545e-01	-4.5470530424e-01
 8.9788013545e-01	 9.1555465599e-01	-5.7831618238e-01
 8.7986620519e-01	 9.3287969573e-01	-6.9791841968e-01
 8.6152331915e-01	 9.4984558550e-01	-8.0783683629e-01
 9.5855976519e-01	 8.6942720281e-01	-3.1033530234e-01
 9.4143822505e-01	 8.8793837221e-01	-4.2380492223e-01
 9.2395423999e-01	 9.0611756788e-01	-5.4392224502e-01
 9.0611756788e-01	 9.2395423999e-01	-6.6508487247e-01
 8.8793837221e-01	 9.4143822505e-01	-7.8161756151e-01
 8.6942720281e-01	 9.5855976519e-01	-8.8785357437e-01
 8.2990778450e-01	 9.1498886677e-01	-4.2353432893e-01
 8.1193156750e-01	 9.3097727512e-01	-5.5007578608e-01
 7.9365963460e-01	 9.4660231433e-01	-6.8346624460e-01
 7.7510304193e-01	 9.6185593073e-01	-8.1799340660e-01
 7.5627313113e-01	 9.7673051976e-01	-9.4834736625e-01
 7.3718150656e-01	 9.9121893822e-01	-1.0696850383e+00
 8.3781166817e-01	 9.2370304645e-01	-5.3104168945e-01
 8.1966424909e-01	 9.3984372536e-01	-6.5296975359e-01
 8.0121829779e-01	 9.5561757447e-01	-7.8145188344e-01
 7.8248497566e-01	 9.7101646340e-01	-9.1070845201e-01
 7.6347573238e-01	 9.8603271519e-01	-1.0354110160e+00
 7.4420228281e-01	 1.0006591186e+00	-1.1507494705e+00
 8.4571555183e-01	 9.3241722614e-01	-6.3032114873e-01
 8.2739693069e-01	 9.4871017560e-01	-7.4771506044e-01
 8.0877696097e-01	 9.6463283461e-01	-8.7165230806e-01
 7.8986690940e-01	 9.8017699608e-01	-9.9621646797e-01
 7.7067833362e-01	 9.9533491061e-01	-1.1159761327e+00
 7.5122305907e-01	 1.0100992989e+00	-1.2260554987e+00
 8.5361943549e-01	 9.4113140582e-01	-7.2228672999e-01
 8.3512961228e-01	 9.5757662584e-01	-8.3531961802e-01
 8.1633562416e-01	 9.7364809474e-01	-9.5507152903e-01
 7.9724884313e-01	 9.8933752875e-01	-1.0754210841e+00
 7.7788093487e-01	 1.0046371060e+00	-1.1907510579e+00
 7.5824383532e-01	 1.0195394793e+00	-1.2960231064e+00
 8.6152331915e-01	 9.4984558550e-01	-8.0783683629e-01
 8.4286229388e-01	 9.6644307608e-01	-9.1677388723e-01
 8.2389428735e-01	 9.8266335488e-01	-1.0326979638e+00
 8.0463077686e-01	 9.9849806143e-01	-1.1492158035e+00
 7.8508353612e-01	 1.0139393015e+00	-1.2604429916e+00
 7.6526461157e-01	 1.0289796597e+00	-1.3610835381e+00
 8.6942720281e-01	 9.5855976519e-01	-8.8785357437e-01
 8.5059497547e-01	 9.7530952632e-01	-9.9305035347e-01
 8.3145295053e-01	 9.9167861502e-01	-1.1055039046e+00
 8.1201271059e-01	 1.0076585941e+00	-1.2184833075e+00
 7.9228613737e-01	 1.0232414969e+00	-1.3257569818e+00
 7.7228538783e-01	 1.0384198400e+00	-1.4216778237e+00
 7.3718150656e-01	 9.9121893822e-01	-1.0696850383e+00
 7.1784001197e-01	 1.0053145151e+00	-1.1901146086e+00
 6.9826070654e-01	 1.0190110612e+00	-1.3182556595e+00
 6.7845584065e-01	 1.0323028768e+00	-1.4508479513e+00
 6.5843783127e-01	 1.0451847585e+00	-1.5852315523e+00
 6.3821923711e-01	 1.0576520044e+00	-1.7193736733e+00
 7.4420228281e-01	 1.0006591186e+00	-1.1507494705e+00
 7.2467658351e-01	 1.0148889391e+00	-1.2646673036e+00
 7.0491080850e-01	 1.0287159284e+00	-1.3855036534e+00
 6.8491732485e-01	 1.0421343327e+00	-1.5098784845e+00
 6.6470866776e-01	 1.0551388991e+00	-1.6349893062e+00
 6.4429751556e-01	 1.0677248807e+00	-1.7586415310e+00
 7.5122305907e-01	 1.0100992989e+00	-1.2260554987e+00
 7.3151315505e-01	 1.0244633630e+00	-1.3339583908e+00
 7.1156091047e-01	 1.0384207957e+00	-1.4476368117e+00
 6.9137880905e-01	 1.0519657887e+00	-1.5637561006e+00
 6.7097950425e-01	 1.0650930396e+00	-1.6795643218e+00
 6.5037579401e-01	 1.0777977569e+00	-1.7929248555e+00
 7.5824383532e-01	 1.0195394793e+00	-1.2960231064e+00
 7.3834972659e-01	 1.0340377870e+00	-1.3981649642e+00
 7.1821101244e-01	 1.0481256629e+00	-1.5047685255e+00
 6.9784029324e-01	 1.0617972447e+00	-1.6127041053e+00
 6.7725034073e-01	 1.0750471802e+00	-1.7194573953e+00
 6.5645407246e-01	 1.0878706331e+00	-1.8231630246e+00
 7.6526461157e-01	 1.0289796597e+00	-1.3610835381e+00
 7.4518629814e-01	 1.0436122109e+00	-1.4574860788e+00
 7.2486111441e-01	 1.0578305302e+00	-1.5570382021e+00
 7.0430177744e-01	 1.0716287006e+00	-1.6569694014e+00
 6.8352117722e-01	 1.0850013208e+00	-1.7551842129e+00
 6.6253235091e-01	 1.0979435094e+00	-1.8502955160e+00
 7.7228538783e-01	 1.0384198400e+00	-1.4216778237e+00
 7.5202286968e-01	 1.0531866349e+00	-1.5121408936e+00
 7.3151121637e-01	 1.0675353974e+00	-1.6046093332e+00
 7.1076326164e-01	 1.0814601566e+00	-1.6968207773e+00
 6.8979201371e-01	 1.0949554613e+00	-1.7872741471e+00
 6.6861062935e-01	 1.1080163856e+00	-1.8752614882e+00
 6.3821923711e-01	 1.0576520044e+00	-1.7193736733e+00
 6.1781273377e-01	 1.0697004174e+00	-1.8431385703e+00
 5.9723108880e-01	 1.0813263077e+00	-1.9473735925e+00
 5.7648713687e-01	 1.0925264931e+00	-2.0371723689e+00
 5.5559375513e-01	 1.1032982989e+00	-2.1348273563e+00
 5.3456383887e-01	 1.1136395554e+00	-2.2455149219e+00
 6.4429751556e-01	 1.0677248807e+00	-1.7586415310e+00
 6.2369666457e-01	 1.0798880405e+00	-1.8719558282e+00
 6.0291900393e-01	 1.0916246535e+00	-1.9673114203e+00
 5.8197749055e-01	 1.1029315073e+00	-2.0469596356e+00
 5.6088512423e-01	 1.1138059017e+00	-2.1329954282e+00
 5.3965492305e-01	 1.1242456464e+00	-2.2353635742e+00
 6.5037579401e-01	 1.0777977569e+00	-1.7929248555e+00
 6.2958059537e-01	 1.0900756635e+00	-1.8965833605e+00
 6.0860691907e-01	 1.1019229992e+00	-1.9843561706e+00
 5.8746784424e-01	 1.1133365215e+00	-2.0570879624e+00
 5.6617649332e-01	 1.1243135046e+00	-2.1321714306e+00
 5.4474600723e-01	 1.1348517374e+00	-2.2258934058e+00
 6.5645407246e-01	 1.0878706331e+00	-1.8231630246e+00
 6.3546452617e-01	 1.1002632865e+00	-1.9183429051e+00
 6.1429483420e-01	 1.1122213450e+00	-1.9999519265e+00
 5.9295819792e-01	 1.1237415358e+00	-2.0681748415e+00
 5.7146786242e-01	 1.1348211074e+00	-2.1333271829e+00
 5.4983709141e-01	 1.1454578284e+00	-2.2175000915e+00
 6.6253235091e-01	 1.0979435094e+00	-1.8502955160e+00
 6.4134845697e-01	 1.1104509095e+00	-1.9385433708e+00
 6.1998274933e-01	 1.1225196908e+00	-2.0155263237e+00
 5.9844855161e-01	 1.1341465500e+00	-2.0803344445e+00
 5.7675923152e-01	 1.1453287103e+00	-2.1374357503e+00
 5.5492817559e-01	 1.1560639194e+00	-2.2106002538e+00
 6.6861062935e-01	 1.1080163856e+00	-1.8752614882e+00
 6.4723238776e-01	 1.1206385326e+00	-1.9584811176e+00
 6.2567066446e-01	 1.1328180366e+00	-2.0324911060e+00
 6.0393890529e-01	 1.1445515642e+00	-2.0948461478e+00
 5.8205060061e-01	 1.1558363131e+00	-2.1454722474e+00
 5.6001925977e-01	 1.1666700104e+00	-2.2056313567e+00
 5.3456383887e-01	 1.1136395554e+00	-2.2455149219e+00
 5.1341027752e-01	 1.1235485944e+00	-2.3604196542e+00
 4.9214593108e-01	 1.1330242449e+00	-2.4679912732e+00
 4.7078360715e-01	 1.1420658266e+00	-2.5671511405e+00
 4.4933603850e-01	 1.1506731428e+00	-2.6568934792e+00
 4.2781586137e-01	 1.1588464721e+00	-2.7362773288e+00
 5.3965492305e-01	 1.1242456464e+00	-2.2353635742e+00
 5.1829989921e-01	 1.1342490572e+00	-2.3437107773e+00
 4.9683303518e-01	 1.1438149520e+00	-2.4440549369e+00
 4.7526726055e-01	 1.1529426440e+00	-2.5344503764e+00
 4.5361542934e-01	 1.1616319347e+00	-2.6130122071e+00
 4.3189029814e-01	 1.1698831051e+00	-2.6779129761e+00
 5.4474600723e-01	 1.1348517374e+00	-2.2258934058e+00
 5.2318952090e-01	 1.1449495200e+00	-2.3257382580e+00
 5.0152013929e-01	 1.1546056591e+00	-2.4153255739e+00
 4.7975091395e-01	 1.1638194614e+00	-2.4922903585e+00
 4.5789482018e-01	 1.1725907265e+00	-2.5543377299e+00
 4.3596473492e-01	 1.1809197382e+00	-2.6020471959e+00
 5.4983709141e-01	 1.1454578284e+00	-2.2175000915e+00
 5.2807914259e-01	 1.1556499828e+00	-2.3063163684e+00
 5.0620724339e-01	 1.1653963662e+00	-2.3812208496e+00
 4.8423456735e-01	 1.1746962788e+00	-2.4398641070e+00
 4.6217421103e-01	 1.1835495183e+00	-2.4868439232e+00
 4.4003917169e-01	 1.1919563713e+00	-2.5333200702e+00
 5.5492817559e-01	 1.1560639194e+00	-2.2106002538e+00
 5.3296876428e-01	 1.1663504456e+00	-2.2853000197e+00
 5.1089434750e-01	 1.1761870733e+00	-2.3412117891e+00
 4.8871822075e-01	 1.1855730962e+00	-2.3872816708e+00
 4.6645360187e-01	 1.1945083102e+00	-2.4333975410e+00
 4.4411360847e-01	 1.2029930044e+00	-2.4767241001e+00
 5.6001925977e-01	 1.1666700104e+00	-2.2056313567e+00
 5.3785838597e-01	 1.1770509084e+00	-2.2626240135e+00
 5.1558145161e-01	 1.1869777804e+00	-2.3086201273e+00
 4.9320187415e-01	 1.1964499136e+00	-2.3532502423e+00
 4.7073299271e-01	 1.2054671020e+00	-2.3947789810e+00
 4.4818804524e-01	 1.2140296374e+00	-2.4311056003e+00
 4.2781586137e-01	 1.1588464721e+00	-2.7362773288e+00
 4.0623559446e-01	 1.1665865587e+00	-2.8058902162e+00
 3.8460761879e-01	 1.1738946020e+00	-2.8664959587e+00
 3.6294415835e-01	 1.1807722452e+00	-2.9203432606e+00
 3.4125726170e-01	 1.1872215625e+00	-2.9764833316e+00
 3.1955878450e-01	 1.1932450462e+00	-3.0334379191e+00
 4.3189029814e-01	 1.1698831051e+00	-2.6779129761e+00
 4.1010450488e-01	 1.1776969069e+00	-2.7294738977e+00
 3.8827054849e-01	 1.1850745506e+00	-2.7793814770e+00
 3.6640076938e-01	 1.1920176951e+00	-2.8320333767e+00
 3.4450733086e-01	 1.1985284345e+00	-2.8854240502e+00
 3.2260220149e-01	 1.2046092848e+00	-2.9373569936e+00
 4.3596473492e-01	 1.1809197382e+00	-2.6020471959e+00
 4.1397341531e-01	 1.1888072550e+00	-2.6492990251e+00
 3.9193347820e-01	 1.1962544992e+00	-2.6984345106e+00
 3.6985738041e-01	 1.2032631451e+00	-2.7480720736e+00
 3.4775740002e-01	 1.2098353065e+00	-2.7965860611e+00
 3.2564561849e-01	 1.2159735233e+00	-2.8421421396e+00
 4.4003917169e-01	 1.1919563713e+00	-2.5333200702e+00
 4.1784232573e-01	 1.1999176032e+00	-2.5787019507e+00
 3.9559640790e-01	 1.2074344478e+00	-2.6238301853e+00
 3.7331399145e-01	 1.2145085951e+00	-2.6678075781e+00
 3.5100746918e-01	 1.2211421786e+00	-2.7094712905e+00
 3.2868903548e-01	 1.2273377618e+00	-2.7474277539e+00
 4.4411360847e-01	 1.2029930044e+00	-2.4767241001e+00
 4.2171123615e-01	 1.2110279514e+00	-2.5166956424e+00
 3.9925933760e-01	 1.2186143964e+00	-2.5547650854e+00
 3.7677060248e-01	 1.2257540450e+00	-2.5906041619e+00
 3.5425753833e-01	 1.2324490506e+00	-2.6235934370e+00
 3.3173245248e-01	 1.2387020004e+00	-2.6528564556e+00
 4.4818804524e-01	 1.2140296374e+00	-2.4311056003e+00
 4.2558014658e-01	 1.2221382996e+00	-2.4623178879e+00
 4.0292226730e-01	 1.2297943450e+00	-2.4904554169e+00
 3.8022721351e-01	 1.2369994950e+00	-2.5158410602e+00
 3.5750760749e-01	 1.2437559226e+00	-2.5384771183e+00
 3.3477586947e-01	 1.2500662389e+00	-2.5580784270e+00
 3.1955878450e-01	 1.1932450462e+00	-3.0334379191e+00
 2.9786037301e-01	 1.1988455928e+00	-3.0879302465e+00
 2.7617344865e-01	 1.2040264878e+00	-3.1384732535e+00
 2.5450919351e-01	 1.2087913912e+00	-3.1850463357e+00
 2.3287853700e-01	 1.2131443212e+00	-3.2274888337e+00
 2.1129214350e-01	 1.2170896381e+00	-3.2655148758e+00
 3.2260220149e-01	 1.2046092848e+00	-2.9373569936e+00
 3.0069713847e-01	 1.2102631698e+00	-2.9849015759e+00
 2.7880367197e-01	 1.2154934067e+00	-3.0271198691e+00
 2.5693309059e-01	 1.2203036902e+00	-3.0645744205e+00
 2.3509642783e-01	 1.2246980767e+00	-3.0976952897e+00
 2.1330444963e-01	 1.2286809680e+00	-3.1267920866e+00
 3.2564561849e-01	 1.2159735233e+00	-2.8421421396e+00
 3.0353390393e-01	 1.2216807469e+00	-2.8822854176e+00
 2.8143389529e-01	 1.2269603257e+00	-2.9165445168e+00
 2.5935698767e-01	 1.2318159892e+00	-2.9458219095e+00
 2.3731431866e-01	 1.2362518321e+00	-2.9708930126e+00
 2.1531675576e-01	 1.2402722979e+00	-2.9924167244e+00
 3.2868903548e-01	 1.2273377618e+00	-2.7474277539e+00
 3.0637066938e-01	 1.2330983240e+00	-2.7798046740e+00
 2.8406411861e-01	 1.2384272446e+00	-2.8064978775e+00
 2.6178088475e-01	 1.2433282881e+00	-2.8285132747e+00
 2.3953220949e-01	 1.2478055875e+00	-2.8467330494e+00
 2.1732906189e-01	 1.2518636278e+00	-2.8619259782e+00
 3.3173245248e-01	 1.2387020004e+00	-2.6528564556e+00
 3.0920743484e-01	 1.2445159011e+00	-2.6771884707e+00
 2.8669434193e-01	 1.2498941635e+00	-2.6967370141e+00
 2.6420478183e-01	 1.2548405871e+00	-2.7123814361e+00
 2.4175010031e-01	 1.2593593430e+00	-2.7248786156e+00
 2.1934136802e-01	 1.2634549577e+00	-2.7348743272e+00
 3.3477586947e-01	 1.2500662389e+00	-2.5580784270e+00
 3.1204420030e-01	 1.2559334781e+00	-2.5741716182e+00
 2.8932456525e-01	 1.2613610825e+00	-2.5870248563e+00
 2.6662867892e-01	 1.2663528861e+00	-2.5971671800e+00
 2.4396799114e-01	 1.2709130984e+00	-2.6050043691e+00
 2.2135367415e-01	 1.2750462875e+00	-2.6108326062e+00
 2.1129214350e-01	 1.2170896381e+00	-3.2655148758e+00
 1.8976040113e-01	 1.2206320278e+00	-3.2992809638e+00
 1.6829341152e-01	 1.2237764848e+00	-3.3293346059e+00
 1.4690098074e-01	 1.2265282952e+00	-3.3558222131e+00
 1.2559261121e-01	 1.2288930194e+00	-3.3788028519e+00
 1.0437749469e-01	 1.2308764746e+00	-3.3982523470e+00
 2.1330444963e-01	 1.2286809680e+00	-3.1267920866e+00
 1.9156764304e-01	 1.2322570947e+00	-3.1525401114e+00
 1.6989620592e-01	 1.2354314989e+00	-3.1755486332e+00
 1.4830003770e-01	 1.2382095171e+00	-3.1958730721e+00
 1.2678873132e-01	 1.2405967624e+00	-3.2134783512e+00
 1.0537156607e-01	 1.2425991077e+00	-3.2282436550e+00
 2.1531675576e-01	 1.2402722979e+00	-2.9924167244e+00
 1.9337488496e-01	 1.2438821616e+00	-3.0113323638e+00
 1.7149900031e-01	 1.2470865131e+00	-3.0282569251e+00
 1.4969909466e-01	 1.2498907389e+00	-3.0432110652e+00
 1.2798485143e-01	 1.2523005055e+00	-3.0561230697e+00
 1.0636563745e-01	 1.2543217408e+00	-3.0668339174e+00
 2.1732906189e-01	 1.2518636278e+00	-2.8619259782e+00
 1.9518212688e-01	 1.2555072286e+00	-2.8750723980e+00
 1.7310179471e-01	 1.2587415272e+00	-2.8867690406e+00
 1.5109815162e-01	 1.2615719608e+00	-2.8970562129e+00
 1.2918097153e-01	 1.2640042485e+00	-2.9058812617e+00
 1.0735970882e-01	 1.2660443739e+00	-2.9131035997e+00
 2.1934136802e-01	 1.2634549577e+00	-2.7348743272e+00
 1.9698936879e-01	 1.2671322955e+00	-2.7431975361e+00
 1.7470458910e-01	 1.2703965414e+00	-2.7504218145e+00
 1.5249720858e-01	 1.2732531826e+00	-2.7566597840e+00
 1.3037709164e-01	 1.2757079916e+00	-2.7619318102e+00
 1.0835378020e-01	 1.2777670070e+00	-2.7661706504e+00
 2.2135367415e-01	 1.2750462875e+00	-2.6108326062e+00
 1.9879661071e-01	 1.2787573624e+00	-2.6151665896e+00
 1.7630738350e-01	 1.2820515555e+00	-2.6185780118e+00
 1.5389626554e-01	 1.2849344045e+00	-2.6213027879e+00
 1.3157321175e-01	 1.2874117346e+00	-2.6234865821e+00
 1.0934785158e-01	 1.2894896400e+00	-2.6251887420e+00
 1.0437749469e-01	 1.2308764746e+00	-3.3982523470e+00
 8.3264506264e-02	 1.2324847176e+00	-3.4136712232e+00
 6.2262199383e-02	 1.2337240273e+00	-3.4251009166e+00
 4.1378801824e-02	 1.2346008877e+00	-3.4331972276e+00
 2.0622212639e-02	 1.2351219703e+00	-3.4385193641e+00
 0.0000000000e+00	 1.2352941176e+00	-3.4415273182e+00
 1.0537156607e-01	 1.2425991077e+00	-3.2282436550e+00
 8.4057501562e-02	 1.2442226673e+00	-3.2396404286e+00
 6.2855172710e-02	 1.2454737800e+00	-3.2478472279e+00
 4.1772885651e-02	 1.2463589914e+00	-3.2536628501e+00
 2.0818614665e-02	 1.2468850367e+00	-3.2577782856e+00
 0.0000000000e+00	 1.2470588235e+00	-3.2607736708e+00
 1.0636563745e-01	 1.2543217408e+00	-3.0668339174e+00
 8.4850496860e-02	 1.2559606170e+00	-3.0748141192e+00
 6.3448146038e-02	 1.2572235326e+00	-3.0803119111e+00
 4.2166969478e-02	 1.2581170951e+00	-3.0841886225e+00
 2.1015016690e-02	 1.2586481030e+00	-3.0871919739e+00
 0.0000000000e+00	 1.2588235294e+00	-3.0899526987e+00
 1.0735970882e-01	 1.2660443739e+00	-2.9131035997e+00
 8.5643492158e-02	 1.2676985667e+00	-2.9182245209e+00
 6.4041119365e-02	 1.2689732853e+00	-2.9215007335e+00
 4.2561053305e-02	 1.2698751988e+00	-2.9237777726e+00
 2.1211418715e-02	 1.2704111694e+00	-2.9257870796e+00
 0.0000000000e+00	 1.2705882353e+00	-2.9281423848e+00
 1.0835378020e-01	 1.2777670070e+00	-2.7661706504e+00
 8.6436487455e-02	 1.2794365164e+00	-2.7689435414e+00
 6.4634092693e-02	 1.2807230379e+00	-2.7704604619e+00
 4.2955137132e-02	 1.2816333024e+00	-2.7714748867e+00
 2.1407820740e-02	 1.2821742358e+00	-2.7726309407e+00
 0.0000000000e+00	 1.2823529412e+00	-2.7744596303e+00
 1.0934785158e-01	 1.2894896400e+00	-2.6251887420e+00
 8.7229482753e-02	 1.2911744660e+00	-2.6260809258e+00
 6.5227066020e-02	 1.2924727905e+00	-2.6262769698e+00
 4.3349220959e-02	 1.2933914061e+00	-2.6263640116e+00
 2.1604222765e-02	 1.2939373022e+00	-2.6268297250e+00
 0.0000000000e+00	 1.2941176471e+00	-2.6280584858e+00
 1.2941176471e+00	 0.0000000000e+00	 3.5979341531e+00
 1.2939373022e+00	 2.1604222765e-02	 3.5927938309e+00
 1.2933914061e+00	 4.3349220959e-02	 3.5832182679e+00
 1.2924727905e+00	 6.5227066020e-02	 3.5683397581e+00
 1.2911744660e+00	 8.7229482753e-02	 3.5470118408e+00
 1.2894896400e+00	 1.0934785158e-01	 3.5178481632e+00
 1.3058823529e+00	 0.0000000000e+00	 3.6252216737e+00
 1.3057003686e+00	 2.1800624790e-02	 3.6202198601e+00
 1.3051495098e+00	 4.3743304786e-02	 3.6101270697e+00
 1.3042225432e+00	 6.5820039347e-02	 3.5941724288e+00
 1.3029124157e+00	 8.8022478051e-02	 3.5713303734e+00
 1.3012122731e+00	 1.1034192296e-01	 3.5403601533e+00
 1.3176470588e+00	 0.0000000000e+00	 3.6494932114e+00
 1.3174634350e+00	 2.1997026815e-02	 3.6444506152e+00
 1.3169076135e+00	 4.4137388613e-02	 3.6338718974e+00
 1.3159722958e+00	 6.6413012675e-02	 3.6170170703e+00
 1.3146503654e+00	 8.8815473349e-02	 3.5929150128e+00
 1.3129349062e+00	 1.1133599434e-01	 3.5604038392e+00
 1.3294117647e+00	 0.0000000000e+00	 3.6704637421e+00
 1.3292265013e+00	 2.2193428841e-02	 3.6652129294e+00
 1.3286657172e+00	 4.4531472440e-02	 3.6541865437e+00
 1.3277220485e+00	 6.7005986002e-02	 3.6366114320e+00
 1.3263883151e+00	 8.9608468646e-02	 3.6115064098e+00
 1.3246575393e+00	 1.1233006571e-01	 3.5777237150e+00
 1.3411764706e+00	 0.0000000000e+00	 3.6878554743e+00
 1.3409895677e+00	 2.2389830866e-02	 3.6822401046e+00
 1.3404238209e+00	 4.4925556267e-02	 3.6708104909e+00
 1.3394718011e+00	 6.7598959330e-02	 3.6526981106e+00
 1.3381262648e+00	 9.0401463944e-02	 3.6268491109e+00
 1.3363801724e+00	 1.1332413709e-01	 3.5920670583e+00
 1.3529411765e+00	 0.0000000000e+00	 3.7013975344e+00
 1.3527526341e+00	 2.2586232891e-02	 3.6952716091e+00
 1.3521819246e+00	 4.5319640093e-02	 3.6834886226e+00
 1.3512215537e+00	 6.8191932657e-02	 3.6650242822e+00
 1.3498642145e+00	 9.1194459242e-02	 3.6386913183e+00
 1.3481028055e+00	 1.1431820847e-01	 3.6031837318e+00
 1.2894896400e+00	 1.0934785158e-01	 3.5178481632e+00
 1.2874117346e+00	 1.3157321175e-01	 3.4803005527e+00
 1.2849344045e+00	 1.5389626554e-01	 3.4354794168e+00
 1.2820515555e+00	 1.7630738350e-01	 3.3842842749e+00
 1.2787573624e+00	 1.9879661071e-01	 3.3275757049e+00
 1.2750462875e+00	 2.2135367415e-01	 3.2662018548e+00
 1.3012122731e+00	 1.1034192296e-01	 3.5403601533e+00
 1.2991154776e+00	 1.3276933186e-01	 3.5008274114e+00
 1.2966156264e+00	 1.5529532250e-01	 3.4537533081e+00
 1.2937065696e+00	 1.7791017789e-01	 3.3999121510e+00
 1.2903824294e+00	 2.0060385262e-01	 3.3400601538e+00
 1.2866376174e+00	 2.2336598028e-01	 3.2749629410e+00
 1.3129349062e+00	 1.1133599434e-01	 3.5604038392e+00
 1.3108192207e+00	 1.3396545196e-01	 3.5191165849e+00
 1.3082968482e+00	 1.5669437946e-01	 3.4700183916e+00
 1.3053615838e+00	 1.7951297229e-01	 3.4138112396e+00
 1.3020074963e+00	 2.0241109454e-01	 3.3511998784e+00
 1.2982289473e+00	 2.2537828640e-01	 3.2829199752e+00
 1.3246575393e+00	 1.1233006571e-01	 3.5777237150e+00
 1.3225229637e+00	 1.3516157207e-01	 3.5349095217e+00
 1.3199780701e+00	 1.5809343642e-01	 3.4839961877e+00
 1.3170165979e+00	 1.8111576668e-01	 3.4256650332e+00
 1.3136325632e+00	 2.0421833645e-01	 3.3606210301e+00
 1.3098202772e+00	 2.2739059253e-01	 3.2896212459e+00
 1.3363801724e+00	 1.1332413709e-01	 3.5920670583e+00
 1.3342267068e+00	 1.3635769218e-01	 3.5479494789e+00
 1.3316592919e+00	 1.5949249338e-01	 3.4954095584e+00
 1.3286716121e+00	 1.8271856108e-01	 3.4351584686e+00
 1.3252576302e+00	 2.0602557837e-01	 3.3679519395e+00
 1.3214116071e+00	 2.2940289866e-01	 3.2946186462e+00
 1.3481028055e+00	 1.1431820847e-01	 3.6031837318e+00
 1.3459304498e+00	 1.3755381228e-01	 3.5579813638e+00
 1.3433405138e+00	 1.6089155034e-01	 3.5039825721e+00
 1.3403266262e+00	 1.8432135548e-01	 3.4419777980e+00
 1.3368826971e+00	 2.0783282028e-01	 3.3728229723e+00
 1.3330029370e+00	 2.3141520479e-01	 3.2974674937e+00
 1.2750462875e+00	 2.2135367415e-01	 3.2662018548e+00
 1.2709130984e+00	 2.4396799114e-01	 3.1988165674e+00
 1.2663528861e+00	 2.6662867892e-01	 3.1237066687e+00
 1.2613610825e+00	 2.8932456525e-01	 3.0411790794e+00
 1.2559334781e+00	 3.1204420030e-01	 2.9515628242e+00
 1.2500662389e+00	 3.3477586947e-01	 2.8552300968e+00
 1.2866376174e+00	 2.2336598028e-01	 3.2749629410e+00
 1.2824668539e+00	 2.4618588197e-01	 3.2030992677e+00
 1.2778651850e+00	 2.6905257600e-01	 3.1229831682e+00
 1.2728280014e+00	 2.9195478857e-01	 3.0354775042e+00
 1.2673510552e+00	 3.1488096575e-01	 2.9414894680e+00
 1.2614304774e+00	 3.3781928647e-01	 2.8419891262e+00
 1.2982289473e+00	 2.2537828640e-01	 3.2829199752e+00
 1.2940206093e+00	 2.4840377280e-01	 3.2072732371e+00
 1.2893774840e+00	 2.7147647308e-01	 3.1228721485e+00
 1.2842949203e+00	 2.9458501189e-01	 3.0309990470e+00
 1.2787686323e+00	 3.1771773121e-01	 2.9330055918e+00
 1.2727947160e+00	 3.4086270346e-01	 2.8303295465e+00
 1.3098202772e+00	 2.2739059253e-01	 3.2896212459e+00
 1.3055743647e+00	 2.5062166363e-01	 3.2108115791e+00
 1.3008897829e+00	 2.7390037016e-01	 3.1228009439e+00
 1.2957618393e+00	 2.9721523521e-01	 3.0271587625e+00
 1.2901862094e+00	 3.2055449667e-01	 2.9255514880e+00
 1.2841589545e+00	 3.4390612046e-01	 2.8197583691e+00
 1.3214116071e+00	 2.2940289866e-01	 3.2946186462e+00
 1.3171281202e+00	 2.5283955446e-01	 3.2131923197e+00
 1.3124020819e+00	 2.7632426724e-01	 3.1222020961e+00
 1.3072287582e+00	 2.9984545853e-01	 3.0233760339e+00
 1.3016037864e+00	 3.2339126213e-01	 2.9185695998e+00
 1.2955231930e+00	 3.4694953745e-01	 2.8097811460e+00
 1.3330029370e+00	 2.3141520479e-01	 3.2974674937e+00
 1.3286818756e+00	 2.5505744529e-01	 3.2138982038e+00
 1.3239143809e+00	 2.7874816432e-01	 3.1205131812e+00
 1.3186956771e+00	 3.0247568185e-01	 3.0190744878e+00
 1.3130213635e+00	 3.2622802758e-01	 2.9115045901e+00
 1.3068874316e+00	 3.4999295445e-01	 2.7999022644e+00
 1.2500662389e+00	 3.3477586947e-01	 2.8552300968e+00
 1.2437559226e+00	 3.5750760749e-01	 2.7517173941e+00
 1.2369994950e+00	 3.8022721351e-01	 2.6413748399e+00
 1.2297943450e+00	 4.0292226730e-01	 2.5258327159e+00
 1.2221382996e+00	 4.2558014658e-01	 2.4067156865e+00
 1.2140296374e+00	 4.4818804524e-01	 2.2856453676e+00
 1.2614304774e+00	 3.3781928647e-01	 2.8419891262e+00
 1.2550627946e+00	 3.6075767665e-01	 2.7365321147e+00
 1.2482449449e+00	 3.8368382454e-01	 2.6247305676e+00
 1.2409742936e+00	 4.0658519701e-01	 2.5076951649e+00
 1.2332486477e+00	 4.2944905700e-01	 2.3865401364e+00
 1.2250662705e+00	 4.5226248202e-01	 2.2623890423e+00
 1.2727947160e+00	 3.4086270346e-01	 2.8303295465e+00
 1.2663696667e+00	 3.6400774581e-01	 2.7224908513e+00
 1.2594903949e+00	 3.8714043557e-01	 2.6085247070e+00
 1.2521542422e+00	 4.1024812671e-01	 2.4892173693e+00
 1.2443589959e+00	 4.3331796742e-01	 2.3653648250e+00
 1.2361029036e+00	 4.5633691879e-01	 2.2377807054e+00
 1.2841589545e+00	 3.4390612046e-01	 2.8197583691e+00
 1.2776765387e+00	 3.6725781497e-01	 2.7091704419e+00
 1.2707358448e+00	 3.9059704660e-01	 2.5923626604e+00
 1.2633341908e+00	 4.1391105641e-01	 2.4699869461e+00
 1.2554693441e+00	 4.3718687785e-01	 2.3427081606e+00
 1.2471395366e+00	 4.6041135557e-01	 2.2112130908e+00
 1.2955231930e+00	 3.4694953745e-01	 2.8097811460e+00
 1.2889834107e+00	 3.7050788413e-01	 2.6961425716e+00
 1.2819812948e+00	 3.9405365764e-01	 2.5758424552e+00
 1.2745141393e+00	 4.1757398611e-01	 2.4495835615e+00
 1.2665796923e+00	 4.4105578827e-01	 2.3180818413e+00
 1.2581761697e+00	 4.6448579234e-01	 2.1820754439e+00
 1.3068874316e+00	 3.4999295445e-01	 2.7999022644e+00
 1.3002902827e+00	 3.7375795329e-01	 2.6829743040e+00
 1.2932267447e+00	 3.9751026867e-01	 2.5585554564e+00
 1.2856940879e+00	 4.2123691582e-01	 2.4275797598e+00
 1.2776900405e+00	 4.4492469869e-01	 2.2909917271e+00
 1.2692128028e+00	 4.6856022912e-01	 2.1497543590e+00
 1.2140296374e+00	 4.4818804524e-01	 2.2856453676e+00
 1.2054671020e+00	 4.7073299271e-01	 2.1621531345e+00
 1.1964499136e+00	 4.9320187415e-01	 2.0354893860e+00
 1.1869777804e+00	 5.1558145161e-01	 1.9067479305e+00
 1.1770509084e+00	 5.3785838597e-01	 1.7768768901e+00
 1.1666700104e+00	 5.6001925977e-01	 1.6378189106e+00
 1.2250662705e+00	 4.5226248202e-01	 2.2623890423e+00
 1.2164258938e+00	 4.7501238356e-01	 2.1340333506e+00
 1.2073267310e+00	 4.9768552755e-01	 2.0004227342e+00
 1.1977684875e+00	 5.2026855571e-01	 1.8628749405e+00
 1.1877513712e+00	 5.4274800766e-01	 1.7226323536e+00
 1.1772761014e+00	 5.6511034395e-01	 1.5808529504e+00
 1.2361029036e+00	 4.5633691879e-01	 2.2377807054e+00
 1.2273846857e+00	 4.7929177440e-01	 2.1048201131e+00
 1.2182035484e+00	 5.0216918096e-01	 1.9653693922e+00
 1.2085591946e+00	 5.2495565982e-01	 1.8210542851e+00
 1.1984518341e+00	 5.4763762935e-01	 1.6734936098e+00
 1.1878821924e+00	 5.7020142813e-01	 1.5242908763e+00
 1.2471395366e+00	 4.6041135557e-01	 2.2112130908e+00
 1.2383434775e+00	 4.8357116524e-01	 2.0737396678e+00
 1.2290803658e+00	 5.0665283436e-01	 1.9293657802e+00
 1.2193499017e+00	 5.2964276392e-01	 1.7801069514e+00
 1.2091522969e+00	 5.5252725104e-01	 1.6280383554e+00
 1.1984882834e+00	 5.7529251231e-01	 1.4752866870e+00
 1.2581761697e+00	 4.6448579234e-01	 2.1820754439e+00
 1.2493022693e+00	 4.8785055608e-01	 2.0400194133e+00
 1.2399571832e+00	 5.1113648776e-01	 1.8914549009e+00
 1.2301406088e+00	 5.3432986803e-01	 1.7388667896e+00
 1.2198527597e+00	 5.5741687273e-01	 1.5848643371e+00
 1.2090943744e+00	 5.8038359649e-01	 1.4321729093e+00
 1.2692128028e+00	 4.6856022912e-01	 2.1497543590e+00
 1.2602610612e+00	 4.9212994693e-01	 2.0028886457e+00
 1.2508340006e+00	 5.1562014116e-01	 1.8506869625e+00
 1.2409313159e+00	 5.3901697213e-01	 1.6961809781e+00
 1.2305532225e+00	 5.6230649443e-01	 1.5425896219e+00
 1.2197004654e+00	 5.8547468067e-01	 1.3933103031e+00
 1.1666700104e+00	 5.6001925977e-01	 1.6378189106e+00
 1.1558363131e+00	 5.8205060061e-01	 1.5070929427e+00
 1.1445515642e+00	 6.0393890529e-01	 1.3988468874e+00
 1.1328180366e+00	 6.2567066446e-01	 1.2702525858e+00
 1.1206385326e+00	 6.4723238776e-01	 1.1264393108e+00
 1.1080163856e+00	 6.6861062935e-01	 9.7614104032e-01
 1.1772761014e+00	 5.6511034395e-01	 1.5808529504e+00
 1.1663439160e+00	 5.8734196971e-01	 1.4583977600e+00
 1.1549565784e+00	 6.0942925898e-01	 1.3442608967e+00
 1.1431163824e+00	 6.3135857959e-01	 1.2071706659e+00
 1.1308261556e+00	 6.5311631856e-01	 1.0558571730e+00
 1.1180892618e+00	 6.7468890780e-01	 8.9978906611e-01
 1.1878821924e+00	 5.7020142813e-01	 1.5242908763e+00
 1.1768515188e+00	 5.9263333881e-01	 1.4031040020e+00
 1.1653615926e+00	 6.1491961266e-01	 1.2857005759e+00
 1.1534147282e+00	 6.3704649472e-01	 1.1448241770e+00
 1.1410137786e+00	 6.5900024936e-01	 9.8958823394e-01
 1.1281621381e+00	 6.8076718625e-01	 8.2972899690e-01
 1.1984882834e+00	 5.7529251231e-01	 1.4752866870e+00
 1.1873591217e+00	 5.9792470790e-01	 1.3470654362e+00
 1.1757666069e+00	 6.2040996634e-01	 1.2217840287e+00
 1.1637130740e+00	 6.4273440985e-01	 1.0818534700e+00
 1.1512014016e+00	 6.6488418016e-01	 9.2641607555e-01
 1.1382350143e+00	 6.8684546470e-01	 7.6502074056e-01
 1.2090943744e+00	 5.8038359649e-01	 1.4321729093e+00
 1.1978667245e+00	 6.0321607700e-01	 1.2970497531e+00
 1.1861716211e+00	 6.2590032003e-01	 1.1583516882e+00
 1.1740114198e+00	 6.4842232499e-01	 1.0169339552e+00
 1.1613890247e+00	 6.7076811095e-01	 8.6515599259e-01
 1.1483078905e+00	 6.9292374315e-01	 7.0474783458e-01
 1.2197004654e+00	 5.8547468067e-01	 1.3933103031e+00
 1.2083743274e+00	 6.0850744609e-01	 1.2512377706e+00
 1.1965766353e+00	 6.3139067371e-01	 1.1030537291e+00
 1.1843097655e+00	 6.5411024012e-01	 9.5307289883e-01
 1.1715766477e+00	 6.7665204175e-01	 8.0465480530e-01
 1.1583807668e+00	 6.9900202160e-01	 6.4801771944e-01
 1.1080163856e+00	 6.6861062935e-01	 9.7614104032e-01
 1.0949554613e+00	 6.8979201371e-01	 8.3076469980e-01
 1.0814601566e+00	 7.1076326164e-01	 6.9416307239e-01
 1.0675353974e+00	 7.3151121637e-01	 5.6470253581e-01
 1.0531866349e+00	 7.5202286968e-01	 4.4130255525e-01
 1.0384198400e+00	 7.7228538783e-01	 3.2344798473e-01
 1.1180892618e+00	 6.7468890780e-01	 8.9978906611e-01
 1.1049096019e+00	 6.9606285020e-01	 7.5078029106e-01
 1.0912916126e+00	 7.1722474583e-01	 6.1222373956e-01
 1.0772402647e+00	 7.3816131834e-01	 4.8188815911e-01
 1.0627610588e+00	 7.5885944122e-01	 3.5814356596e-01
 1.0478600204e+00	 7.7930616408e-01	 2.3997851332e-01
 1.1281621381e+00	 6.8076718625e-01	 8.2972899690e-01
 1.1148637424e+00	 7.0233368669e-01	 6.7753974419e-01
 1.1011230685e+00	 7.2368623003e-01	 5.3662359884e-01
 1.0869451319e+00	 7.4481142031e-01	 4.0458680728e-01
 1.0723354828e+00	 7.6569601276e-01	 2.7967340636e-01
 1.0573002008e+00	 7.8632694033e-01	 1.6078502100e-01
 1.1382350143e+00	 6.8684546470e-01	 7.6502074056e-01
 1.1248178830e+00	 7.0860452318e-01	 6.1041013849e-01
 1.1109545245e+00	 7.3014771423e-01	 4.6694943117e-01
 1.0966499992e+00	 7.5146152227e-01	 3.3250550112e-01
 1.0819099068e+00	 7.7253258431e-01	 2.0560815697e-01
 1.0667403811e+00	 7.9334771659e-01	 8.5470068148e-02
 1.1483078905e+00	 6.9292374315e-01	 7.0474783458e-01
 1.1347720235e+00	 7.1487535966e-01	 5.4877291412e-01
 1.1207859805e+00	 7.3660919842e-01	 4.0279604129e-01
 1.1063548664e+00	 7.5811162424e-01	 2.6535626919e-01
 1.0914843307e+00	 7.7936915585e-01	 1.3566959433e-01
 1.0761805615e+00	 8.0036849284e-01	 1.3646679697e-02
 1.1583807668e+00	 6.9900202160e-01	 6.4801771944e-01
 1.1447261641e+00	 7.2114619615e-01	 4.9202465098e-01
 1.1306174365e+00	 7.4307068262e-01	 3.4376740650e-01
 1.1160597337e+00	 7.6476172621e-01	 2.0285751294e-01
 1.1010587547e+00	 7.8620572739e-01	 6.9586601370e-02
 1.0856207419e+00	 8.0738926909e-01	-5.5060387692e-02
 1.0384198400e+00	 7.7228538783e-01	 3.2344798473e-01
 1.0232414969e+00	 7.9228613737e-01	 2.0153619330e-01
 1.0076585941e+00	 8.1201271059e-01	 7.0219129923e-02
 9.9167861502e-01	 8.3145295053e-01	-6.3778558047e-02
 9.7530952632e-01	 8.5059497547e-01	-1.9320287675e-01
 9.5855976519e-01	 8.6942720281e-01	-3.1033530234e-01
 1.0478600204e+00	 7.7930616408e-01	 2.3997851332e-01
 1.0325436923e+00	 7.9948873862e-01	 1.1740700270e-01
 1.0168191268e+00	 8.1939464433e-01	-1.4794527894e-02
 1.0006938752e+00	 8.3901161372e-01	-1.4957847200e-01
 9.8417597656e-01	 8.5832765707e-01	-2.7934985685e-01
 9.6727394487e-01	 8.7733108648e-01	-3.9603398846e-01
 1.0573002008e+00	 7.8632694033e-01	 1.6078502100e-01
 1.0418458877e+00	 8.0669133987e-01	 3.7752977386e-02
 1.0259796594e+00	 8.2677657806e-01	-9.4742400575e-02
 1.0097091353e+00	 8.4657027691e-01	-2.2956042955e-01
 9.9304242680e-01	 8.6606033866e-01	-3.5898769755e-01
 9.7598812455e-01	 8.8523497014e-01	-4.7480725841e-01
 1.0667403811e+00	 7.9334771659e-01	 8.5470068148e-02
 1.0511480832e+00	 8.1389394112e-01	-3.7987325766e-02
 1.0351401921e+00	 8.3415851179e-01	-1.7031696745e-01
 1.0187243954e+00	 8.5412894009e-01	-3.0450909792e-01
 1.0019088770e+00	 8.7379302026e-01	-4.3294855937e-01
 9.8470230424e-01	 8.9313885380e-01	-5.4748427817e-01
 1.0761805615e+00	 8.0036849284e-01	 1.3646679697e-02
 1.0604502786e+00	 8.2109654237e-01	-1.1035858607e-01
 1.0443007248e+00	 8.4154044553e-01	-2.4218905733e-01
 1.0277396556e+00	 8.6168760328e-01	-3.7518423643e-01
 1.0107753273e+00	 8.8152570185e-01	-5.0203827742e-01
 9.9341648392e-01	 9.0104273746e-01	-6.1486851430e-01
 1.0856207419e+00	 8.0738926909e-01	-5.5060387692e-02
 1.0697524740e+00	 8.2829914362e-01	-1.7988767317e-01
 1.0534612575e+00	 8.4892237926e-01	-3.1100697484e-01
 1.0367549157e+00	 8.6924626647e-01	-4.4231993681e-01
 1.0196417775e+00	 8.8925838345e-01	-5.6703564864e-01
 1.0021306636e+00	 9.0894662112e-01	-6.7773699233e-01
 9.5855976519e-01	 8.6942720281e-01	-3.1033530234e-01
 9.4143822505e-01	 8.8793837221e-01	-4.2380492223e-01
 9.2395423999e-01	 9.0611756788e-01	-5.4392224502e-01
 9.0611756788e-01	 9.2395423999e-01	-6.6508487247e-01
 8.8793837221e-01	 9.4143822505e-01	-7.8161756151e-01
 8.6942720281e-01	 9.5855976519e-01	-8.8785357437e-01
 9.6727394487e-01	 8.7733108648e-01	-3.9603398846e-01
 9.4999675437e-01	 8.9601053923e-01	-5.0833943316e-01
 9.3235382399e-01	 9.1435500032e-01	-6.2685712767e-01
 9.1435500032e-01	 9.3235382399e-01	-7.4592028574e-01
 8.9601053923e-01	 9.4999675437e-01	-8.5979121640e-01
 8.7733108648e-01	 9.6727394487e-01	-9.6274574403e-01
 9.7598812455e-01	 8.8523497014e-01	-4.7480725841e-01
 9.5855528368e-01	 9.0408270625e-01	-5.8597116651e-01
 9.4075340799e-01	 9.2259243275e-01	-7.0326552543e-01
 9.2259243275e-01	 9.4075340799e-01	-8.2078794762e-01
 9.0408270625e-01	 9.5855528368e-01	-9.3256255730e-01
 8.8523497014e-01	 9.7598812455e-01	-1.0326285690e+00
 9.8470230424e-01	 8.9313885380e-01	-5.4748427817e-01
 9.6711381300e-01	 9.1215487327e-01	-6.5748641355e-01
 9.4915299199e-01	 9.3082986519e-01	-7.7386803759e-01
 9.3082986519e-01	 9.4915299199e-01	-8.9032389373e-01
 9.1215487327e-01	 9.6711381300e-01	-1.0004681292e+00
 8.9313885380e-01	 9.8470230424e-01	-1.0979281123e+00
 9.9341648392e-01	 9.0104273746e-01	-6.1486851430e-01
 9.7567234232e-01	 9.2022704029e-01	-7.2364805861e-01
 9.5755257599e-01	 9.3906729763e-01	-8.3936520712e-01
 9.3906729763e-01	 9.5755257599e-01	-9.5514835910e-01
 9.2022704029e-01	 9.7567234232e-01	-1.0640336794e+00
 9.0104273746e-01	 9.9341648392e-01	-1.1590652283e+00
 1.0021306636e+00	 9.0894662112e-01	-6.7773699233e-01
 9.8423087164e-01	 9.2829920731e-01	-7.8519474930e-01
 9.6595215999e-01	 9.4730473006e-01	-9.0043656959e-01
 9.4730473006e-01	 9.6595215999e-01	-1.0158646788e+00
 9.2829920731e-01	 9.8423087164e-01	-1.1237728902e+00
 9.0894662112e-01	 1.0021306636e+00	-1.2164541126e+00
 8.6942720281e-01	 9.5855976519e-01	-8.8785357437e-01
 8.5059497547e-01	 9.7530952632e-01	-9.9305035347e-01
 8.3145295053e-01	 9.9167861502e-01	-1.1055039046e+00
 8.1201271059e-01	 1.0076585941e+00	-1.2184833075e+00
 7.9228613737e-01	 1.0232414969e+00	-1.3257569818e+00
 7.7228538783e-01	 1.0384198400e+00	-1.4216778237e+00
 8.7733108648e-01	 9.6727394487e-01	-9.6274574403e-01
 8.5832765707e-01	 9.8417597656e-01	-1.0644481455e+00
 8.3901161372e-01	 1.0006938752e+00	-1.1734645133e+00
 8.1939464433e-01	 1.0168191268e+00	-1.2827964429e+00
 7.9948873862e-01	 1.0325436923e+00	-1.3859348799e+00
 7.7930616408e-01	 1.0478600204e+00	-1.4769506104e+00
 8.8523497014e-01	 9.7598812455e-01	-1.0326285690e+00
 8.6606033866e-01	 9.9304242680e-01	-1.1308647439e+00
 8.4657027691e-01	 1.0097091353e+00	-1.2361628644e+00
 8.2677657806e-01	 1.0259796594e+00	-1.3414582127e+00
 8.0669133987e-01	 1.0418458877e+00	-1.4401783415e+00
 7.8632694033e-01	 1.0573002008e+00	-1.5263378166e+00
 8.9313885380e-01	 9.8470230424e-01	-1.0979281123e+00
 8.7379302026e-01	 1.0019088770e+00	-1.1926566281e+00
 8.5412894009e-01	 1.0187243954e+00	-1.2939720420e+00
 8.3415851179e-01	 1.0351401921e+00	-1.3949383096e+00
 8.1389394112e-01	 1.0511480832e+00	-1.4891272346e+00
 7.9334771659e-01	 1.0667403811e+00	-1.5707163916e+00
 9.0104273746e-01	 9.9341648392e-01	-1.1590652283e+00
 8.8152570185e-01	 1.0107753273e+00	-1.2501793960e+00
 8.6168760328e-01	 1.0277396556e+00	-1.3472656925e+00
 8.4154044553e-01	 1.0443007248e+00	-1.4437057336e+00
 8.2109654237e-01	 1.0604502786e+00	-1.5334169704e+00
 8.0036849284e-01	 1.0761805615e+00	-1.6109527493e+00
 9.0894662112e-01	 1.0021306636e+00	-1.2164541126e+00
 8.8925838345e-01	 1.0196417775e+00	-1.3037861965e+00
 8.6924626647e-01	 1.0367549157e+00	-1.3964164768e+00
 8.4892237926e-01	 1.0534612575e+00	-1.4882273894e+00
 8.2829914362e-01	 1.0697524740e+00	-1.5736773621e+00
 8.0738926909e-01	 1.0856207419e+00	-1.6479019972e+00
 7.7228538783e-01	 1.0384198400e+00	-1.4216778237e+00
 7.5202286968e-01	 1.0531866349e+00	-1.5121408936e+00
 7.3151121637e-01	 1.0675353974e+00	-1.6046093332e+00
 7.1076326164e-01	 1.0814601566e+00	-1.6968207773e+00
 6.8979201371e-01	 1.0949554613e+00	-1.7872741471e+00
 6.6861062935e-01	 1.1080163856e+00	-1.8752614882e+00
 7.7930616408e-01	 1.0478600204e+00	-1.4769506104e+00
 7.5885944122e-01	 1.0627610588e+00	-1.5615933654e+00
 7.3816131834e-01	 1.0772402647e+00	-1.6475623746e+00
 7.1722474583e-01	 1.0912916126e+00	-1.7329524457e+00
 6.9606285020e-01	 1.1049096019e+00	-1.8167096377e+00
 6.7468890780e-01	 1.1180892618e+00	-1.8986625435e+00
 7.8632694033e-01	 1.0573002008e+00	-1.5263378166e+00
 7.6569601276e-01	 1.0723354828e+00	-1.6058692371e+00
 7.4481142031e-01	 1.0869451319e+00	-1.6865973435e+00
 7.2368623003e-01	 1.1011230685e+00	-1.7665343096e+00
 7.0233368669e-01	 1.1148637424e+00	-1.8446149301e+00
 6.8076718625e-01	 1.1281621381e+00	-1.9207303187e+00
 7.9334771659e-01	 1.0667403811e+00	-1.5707163916e+00
 7.7253258431e-01	 1.0819099068e+00	-1.6460334226e+00
 7.5146152227e-01	 1.0966499992e+00	-1.7228137772e+00
 7.3014771423e-01	 1.1109545245e+00	-1.7985583716e+00
 7.0860452318e-01	 1.1248178830e+00	-1.8717438872e+00
 6.8684546470e-01	 1.1382350143e+00	-1.9418618249e+00
 8.0036849284e-01	 1.0761805615e+00	-1.6109527493e+00
 7.7936915585e-01	 1.0914843307e+00	-1.6831359398e+00
 7.5811162424e-01	 1.1063548664e+00	-1.7572972917e+00
 7.3660919842e-01	 1.1207859805e+00	-1.8300085901e+00
 7.1487535966e-01	 1.1347720235e+00	-1.8988526638e+00
 6.9292374315e-01	 1.1483078905e+00	-1.9624707047e+00
 8.0738926909e-01	 1.0856207419e+00	-1.6479019972e+00
 7.8620572739e-01	 1.1010587547e+00	-1.7182114404e+00
 7.6476172621e-01	 1.1160597337e+00	-1.7911191841e+00
 7.4307068262e-01	 1.1306174365e+00	-1.8618603453e+00
 7.2114619615e-01	 1.1447261641e+00	-1.9266988433e+00
 6.9900202160e-01	 1.1583807668e+00	-1.9829858662e+00
 6.6861062935e-01	 1.1080163856e+00	-1.8752614882e+00
 6.4723238776e-01	 1.1206385326e+00	-1.9584811176e+00
 6.2567066446e-01	 1.1328180366e+00	-2.0324911060e+00
 6.0393890529e-01	 1.1445515642e+00	-2.0948461478e+00
 5.8205060061e-01	 1.1558363131e+00	-2.1454722474e+00
 5.6001925977e-01	 1.1666700104e+00	-2.2056313567e+00
 6.7468890780e-01	 1.1180892618e+00	-1.8986625435e+00
 6.5311631856e-01	 1.1308261556e+00	-1.9773423151e+00
 6.3135857959e-01	 1.1431163824e+00	-2.0477428995e+00
 6.0942925898e-01	 1.1549565784e+00	-2.1058957316e+00
 5.8734196971e-01	 1.1663439160e+00	-2.1489760717e+00
 5.6511034395e-01	 1.1772761014e+00	-2.1921040600e+00
 6.8076718625e-01	 1.1281621381e+00	-1.9207303187e+00
 6.5900024936e-01	 1.1410137786e+00	-1.9934884213e+00
 6.3704649472e-01	 1.1534147282e+00	-2.0571714447e+00
 6.1491961266e-01	 1.1653615926e+00	-2.1067354345e+00
 5.9263333881e-01	 1.1768515188e+00	-2.1382616066e+00
 5.7020142813e-01	 1.1878821924e+00	-2.1736675149e+00
 6.8684546470e-01	 1.1382350143e+00	-1.9418618249e+00
 6.6488418016e-01	 1.1512014016e+00	-2.0069927728e+00
 6.4273440985e-01	 1.1637130740e+00	-2.0606950847e+00
 6.2040996634e-01	 1.1757666069e+00	-2.0972845940e+00
 5.9792470790e-01	 1.1873591217e+00	-2.1245446017e+00
 5.7529251231e-01	 1.1984882834e+00	-2.1607558747e+00
 6.9292374315e-01	 1.1483078905e+00	-1.9624707047e+00
 6.7076811095e-01	 1.1613890247e+00	-2.0179583151e+00
 6.4842232499e-01	 1.1740114198e+00	-2.0582686011e+00
 6.2590032003e-01	 1.1861716211e+00	-2.0865611892e+00
 6.0321607700e-01	 1.1978667245e+00	-2.1179228834e+00
 5.8038359649e-01	 1.2090943744e+00	-2.1528503459e+00
 6.9900202160e-01	 1.1583807668e+00	-1.9829858662e+00
 6.7665204175e-01	 1.1715766477e+00	-2.0265157942e+00
 6.5411024012e-01	 1.1843097655e+00	-2.0552950495e+00
 6.3139067371e-01	 1.1965766353e+00	-2.0856648297e+00
 6.0850744609e-01	 1.2083743274e+00	-2.1175615090e+00
 5.8547468067e-01	 1.2197004654e+00	-2.1494276623e+00
 5.6001925977e-01	 1.1666700104e+00	-2.2056313567e+00
 5.3785838597e-01	 1.1770509084e+00	-2.2626240135e+00
 5.1558145161e-01	 1.1869777804e+00	-2.3086201273e+00
 4.9320187415e-01	 1.1964499136e+00	-2.3532502423e+00
 4.7073299271e-01	 1.2054671020e+00	-2.3947789810e+00
 4.4818804524e-01	 1.2140296374e+00	-2.4311056003e+00
 5.6511034395e-01	 1.1772761014e+00	-2.1921040600e+00
 5.4274800766e-01	 1.1877513712e+00	-2.2416735209e+00
 5.2026855571e-01	 1.1977684875e+00	-2.2868701561e+00
 4.9768552755e-01	 1.2073267310e+00	-2.3272279511e+00
 4.7501238356e-01	 1.2164258938e+00	-2.3619076605e+00
 4.5226248202e-01	 1.2250662705e+00	-2.3897443152e+00
 5.7020142813e-01	 1.1878821924e+00	-2.1736675149e+00
 5.4763762935e-01	 1.1984518341e+00	-2.2229139104e+00
 5.2495565982e-01	 1.2085591946e+00	-2.2646267449e+00
 5.0216918096e-01	 1.2182035484e+00	-2.2991856735e+00
 4.7929177440e-01	 1.2273846857e+00	-2.3266231958e+00
 4.5633691879e-01	 1.2361029036e+00	-2.3466686500e+00
 5.7529251231e-01	 1.1984882834e+00	-2.1607558747e+00
 5.5252725104e-01	 1.2091522969e+00	-2.2061520014e+00
 5.2964276392e-01	 1.2193499017e+00	-2.2419066016e+00
 5.0665283436e-01	 1.2290803658e+00	-2.2692386308e+00
 4.8357116524e-01	 1.2383434775e+00	-2.2890285971e+00
 4.6041135557e-01	 1.2471395366e+00	-2.3018596302e+00
 5.8038359649e-01	 1.2090943744e+00	-2.1528503459e+00
 5.5741687273e-01	 1.2198527597e+00	-2.1911809243e+00
 5.3432986803e-01	 1.2301406088e+00	-2.2187070091e+00
 5.1113648776e-01	 1.2399571832e+00	-2.2374808038e+00
 4.8785055608e-01	 1.2493022693e+00	-2.2492077032e+00
 4.6448579234e-01	 1.2581761697e+00	-2.2552850186e+00
 5.8547468067e-01	 1.2197004654e+00	-2.1494276623e+00
 5.6230649443e-01	 1.2305532225e+00	-2.1777801158e+00
 5.3901697213e-01	 1.2409313159e+00	-2.1950061096e+00
 5.1562014116e-01	 1.2508340006e+00	-2.2039853356e+00
 4.9212994693e-01	 1.2602610612e+00	-2.2072255334e+00
 4.6856022912e-01	 1.2692128028e+00	-2.2068994480e+00
 4.4818804524e-01	 1.2140296374e+00	-2.4311056003e+00
 4.2558014658e-01	 1.2221382996e+00	-2.4623178879e+00
 4.0292226730e-01	 1.2297943450e+00	-2.4904554169e+00
 3.8022721351e-01	 1.2369994950e+00	-2.5158410602e+00
 3.5750760749e-01	 1.2437559226e+00	-2.5384771183e+00
 3.3477586947e-01	 1.2500662389e+00	-2.5580784270e+00
 4.5226248202e-01	 1.2250662705e+00	-2.3897443152e+00
 4.2944905700e-01	 1.2332486477e+00	-2.4114035378e+00
 4.0658519701e-01	 1.2409742936e+00	-2.4292381854e+00
 3.8368382454e-01	 1.2482449449e+00	-2.4441170910e+00
 3.6075767665e-01	 1.2550627946e+00	-2.4565611209e+00
 3.3781928647e-01	 1.2614304774e+00	-2.4667757095e+00
 4.5633691879e-01	 1.2361029036e+00	-2.3466686500e+00
 4.3331796742e-01	 1.2443589959e+00	-2.3602914727e+00
 4.1024812671e-01	 1.2521542422e+00	-2.3697254540e+00
 3.8714043557e-01	 1.2594903949e+00	-2.3760990589e+00
 3.6400774581e-01	 1.2663696667e+00	-2.3801731447e+00
 3.4086270346e-01	 1.2727947160e+00	-2.3823741165e+00
 4.6041135557e-01	 1.2471395366e+00	-2.3018596302e+00
 4.3718687785e-01	 1.2554693441e+00	-2.3087891363e+00
 4.1391105641e-01	 1.2633341908e+00	-2.3115615389e+00
 3.9059704660e-01	 1.2707358448e+00	-2.3112854979e+00
 3.6725781497e-01	 1.2776765387e+00	-2.3086900367e+00
 3.4390612046e-01	 1.2841589545e+00	-2.3041594990e+00
 4.6448579234e-01	 1.2581761697e+00	-2.2552850186e+00
 4.4105578827e-01	 1.2665796923e+00	-2.2566984047e+00
 4.1757398611e-01	 1.2745141393e+00	-2.2543924831e+00
 3.9405365764e-01	 1.2819812948e+00	-2.2491833090e+00
 3.7050788413e-01	 1.2889834107e+00	-2.2415027527e+00
 3.4694953745e-01	 1.2955231930e+00	-2.2314364210e+00
 4.6856022912e-01	 1.2692128028e+00	-2.2068994480e+00
 4.4492469869e-01	 1.2776900405e+00	-2.2038154217e+00
 4.2123691582e-01	 1.2856940879e+00	-2.1978656088e+00
 3.9751026867e-01	 1.2932267447e+00	-2.1893070590e+00
 3.7375795329e-01	 1.3002902827e+00	-2.1780154394e+00
 3.4999295445e-01	 1.3068874316e+00	-2.1635270719e+00
 3.3477586947e-01	 1.2500662389e+00	-2.5580784270e+00
 3.1204420030e-01	 1.2559334781e+00	-2.5741716182e+00
 2.8932456525e-01	 1.2613610825e+00	-2.5870248563e+00
 2.6662867892e-01	 1.2663528861e+00	-2.5971671800e+00
 2.4396799114e-01	 1.2709130984e+00	-2.6050043691e+00
 2.2135367415e-01	 1.2750462875e+00	-2.6108326062e+00
 3.3781928647e-01	 1.2614304774e+00	-2.4667757095e+00
 3.1488096575e-01	 1.2673510552e+00	-2.4749581380e+00
 2.9195478857e-01	 1.2728280014e+00	-2.4814841912e+00
 2.6905257600e-01	 1.2778651850e+00	-2.4865054907e+00
 2.4618588197e-01	 1.2824668539e+00	-2.4900496100e+00
 2.2336598028e-01	 1.2866376174e+00	-2.4920361984e+00
 3.4086270346e-01	 1.2727947160e+00	-2.3823741165e+00
 3.1771773121e-01	 1.2787686323e+00	-2.3834030756e+00
 2.9458501189e-01	 1.2842949203e+00	-2.3838582694e+00
 2.7147647308e-01	 1.2893774840e+00	-2.3836762233e+00
 2.4840377280e-01	 1.2940206093e+00	-2.3826706471e+00
 2.2537828640e-01	 1.2982289473e+00	-2.3805501370e+00
 3.4390612046e-01	 1.2841589545e+00	-2.3041594990e+00
 3.2055449667e-01	 1.2901862094e+00	-2.2987389291e+00
 2.9721523521e-01	 1.2957618393e+00	-2.2933634256e+00
 2.7390037016e-01	 1.3008897829e+00	-2.2879121008e+00
 2.5062166363e-01	 1.3055743647e+00	-2.2821445175e+00
 2.2739059253e-01	 1.3098202772e+00	-2.2757190958e+00
 3.4694953745e-01	 1.2955231930e+00	-2.2314364210e+00
 3.2339126213e-01	 1.3016037864e+00	-2.2202201240e+00
 2.9984545853e-01	 1.3072287582e+00	-2.2092397565e+00
 2.7632426724e-01	 1.3124020819e+00	-2.1984702217e+00
 2.5283955446e-01	 1.3171281202e+00	-2.1877721836e+00
 2.2940289866e-01	 1.3214116071e+00	-2.1769103180e+00
 3.4999295445e-01	 1.3068874316e+00	-2.1635270719e+00
 3.2622802758e-01	 1.3130213635e+00	-2.1471218157e+00
 3.0247568185e-01	 1.3186956771e+00	-2.1307498720e+00
 2.7874816432e-01	 1.3239143809e+00	-2.1146308108e+00
 2.5505744529e-01	 1.3286818756e+00	-2.0988773279e+00
 2.3141520479e-01	 1.3330029370e+00	-2.0835124934e+00
 2.2135367415e-01	 1.2750462875e+00	-2.6108326062e+00
 1.9879661071e-01	 1.2787573624e+00	-2.6151665896e+00
 1.7630738350e-01	 1.2820515555e+00	-2.6185780118e+00
 1.5389626554e-01	 1.2849344045e+00	-2.6213027879e+00
 1.3157321175e-01	 1.2874117346e+00	-2.6234865821e+00
 1.0934785158e-01	 1.2894896400e+00	-2.6251887420e+00
 2.2336598028e-01	 1.2866376174e+00	-2.4920361984e+00
 2.0060385262e-01	 1.2903824294e+00	-2.4926757233e+00
 1.7791017789e-01	 1.2937065696e+00	-2.4925585976e+00
 1.5529532250e-01	 1.2966156264e+00	-2.4920336779e+00
 1.3276933186e-01	 1.2991154776e+00	-2.4913622808e+00
 1.1034192296e-01	 1.3012122731e+00	-2.4907214048e+00
 2.2537828640e-01	 1.2982289473e+00	-2.3805501370e+00
 2.0241109454e-01	 1.3020074963e+00	-2.3773694896e+00
 1.7951297229e-01	 1.3053615838e+00	-2.3737297537e+00
 1.5669437946e-01	 1.3082968482e+00	-2.3700234483e+00
 1.3396545196e-01	 1.3108192207e+00	-2.3665583724e+00
 1.1133599434e-01	 1.3129349062e+00	-2.3635604487e+00
 2.2739059253e-01	 1.3098202772e+00	-2.2757190958e+00
 2.0421833645e-01	 1.3136325632e+00	-2.2686612043e+00
 1.8111576668e-01	 1.3170165979e+00	-2.2615564456e+00
 1.5809343642e-01	 1.3199780701e+00	-2.2547736318e+00
 1.3516157207e-01	 1.3225229637e+00	-2.2485997951e+00
 1.1233006571e-01	 1.3246575393e+00	-2.2432429813e+00
 2.2940289866e-01	 1.3214116071e+00	-2.1769103180e+00
 2.0602557837e-01	 1.3252576302e+00	-2.1659852731e+00
 1.8271856108e-01	 1.3286716121e+00	-2.1555237540e+00
 1.5949249338e-01	 1.3316592919e+00	-2.1458053399e+00
 1.3635769218e-01	 1.3342267068e+00	-2.1370309004e+00
 1.1332413709e-01	 1.3363801724e+00	-2.1293256618e+00
 2.3141520479e-01	 1.3330029370e+00	-2.0835124934e+00
 2.0783282028e-01	 1.3368826971e+00	-2.0687961533e+00
 1.8432135548e-01	 1.3403266262e+00	-2.0551358990e+00
 1.6089155034e-01	 1.3433405138e+00	-2.0426583282e+00
 1.3755381228e-01	 1.3459304498e+00	-2.0314145415e+00
 1.1431820847e-01	 1.3481028055e+00	-2.0213837983e+00
 1.0934785158e-01	 1.2894896400e+00	-2.6251887420e+00
 8.7229482753e-02	 1.2911744660e+00	-2.6260809258e+00
 6.5227066020e-02	 1.2924727905e+00	-2.6262769698e+00
 4.3349220959e-02	 1.2933914061e+00	-2.6263640116e+00
 2.1604222765e-02	 1.2939373022e+00	-2.6268297250e+00
 0.0000000000e+00	 1.2941176471e+00	-2.6280584858e+00
 1.1034192296e-01	 1.3012122731e+00	-2.4907214048e+00
 8.8022478051e-02	 1.3029124157e+00	-2.4898922457e+00
 6.5820039347e-02	 1.3042225432e+00	-2.4889075854e+00
 4.3743304786e-02	 1.3051495098e+00	-2.4881957094e+00
 2.1800624790e-02	 1.3057003686e+00	-2.4880964950e+00
 0.0000000000e+00	 1.3058823529e+00	-2.4888574095e+00
 1.1133599434e-01	 1.3129349062e+00	-2.3635604487e+00
 8.8815473349e-02	 1.3146503654e+00	-2.3608928992e+00
 6.6413012675e-02	 1.3159722958e+00	-2.3585842675e+00
 4.4137388613e-02	 1.3169076135e+00	-2.3569904365e+00
 2.1997026815e-02	 1.3174634350e+00	-2.3563872384e+00
 0.0000000000e+00	 1.3176470588e+00	-2.3569659993e+00
 1.1233006571e-01	 1.3246575393e+00	-2.2432429813e+00
 8.9608468646e-02	 1.3263883151e+00	-2.2386251450e+00
 6.7005986002e-02	 1.3277220485e+00	-2.2348488420e+00
 4.4531472440e-02	 1.3286657172e+00	-2.2322818053e+00
 2.2193428841e-02	 1.3292265013e+00	-2.2312174489e+00
 0.0000000000e+00	 1.3294117647e+00	-2.2318696752e+00
 1.1332413709e-01	 1.3363801724e+00	-2.1293256618e+00
 9.0401463944e-02	 1.3381262648e+00	-2.1226510893e+00
 6.7598959330e-02	 1.3394718011e+00	-2.1172633882e+00
 4.4925556267e-02	 1.3404238209e+00	-2.1136242766e+00
 2.2389830866e-02	 1.3409895677e+00	-2.1121243306e+00
 0.0000000000e+00	 1.3411764706e+00	-2.1130767727e+00
 1.1431820847e-01	 1.3481028055e+00	-2.0213837983e+00
 9.1194459242e-02	 1.3498642145e+00	-2.0125517839e+00
 6.8191932657e-02	 1.3512215537e+00	-2.0054093304e+00
 4.5319640093e-02	 1.3521819246e+00	-2.0005922358e+00
 2.2586232891e-02	 1.3527526341e+00	-1.9986658463e+00
 0.0000000000e+00	 1.3529411765e+00	-2.0001175460e+00
 1.3529411765e+00	 0.0000000000e+00	 3.7013975344e+00
 1.3527526341e+00	 2.2586232891e-02	 3.6952716091e+00
 1.3521819246e+00	 4.5319640093e-02	 3.6834886226e+00
 1.3512215537e+00	 6.8191932657e-02	 3.6650242822e+00
 1.3498642145e+00	 9.1194459242e-02	 3.6386913183e+00
 1.3481028055e+00	 1.1431820847e-01	 3.6031837318e+00
 1.3647058824e+00	 0.0000000000e+00	 3.7118805498e+00
 1.3645157005e+00	 2.2782634916e-02	 3.7052419323e+00
 1.3639400283e+00	 4.5713723920e-02	 3.6931114218e+00
 1.3629713064e+00	 6.8784905985e-02	 3.6743276282e+00
 1.3616021642e+00	 9.1987454540e-02	 3.6475898047e+00
 1.3598254386e+00	 1.1531227985e-01	 3.6115034629e+00
 1.3764705882e+00	 0.0000000000e+00	 3.7201040612e+00
 1.3762787669e+00	 2.2979036941e-02	 3.7131106758e+00
 1.3756981320e+00	 4.6107807747e-02	 3.7006077398e+00
 1.3747210590e+00	 6.9377879312e-02	 3.6813917654e+00
 1.3733401139e+00	 9.2780449837e-02	 3.6541463618e+00
 1.3715480717e+00	 1.1630635123e-01	 3.6174887641e+00
 1.3882352941e+00	 0.0000000000e+00	 3.7258199861e+00
 1.3880418333e+00	 2.3175438966e-02	 3.7186626562e+00
 1.3874562357e+00	 4.6501891574e-02	 3.7057860524e+00
 1.3864708117e+00	 6.9970852640e-02	 3.6860373186e+00
 1.3850780636e+00	 9.3573445135e-02	 3.6581799652e+00
 1.3832707048e+00	 1.1730042260e-01	 3.6209408565e+00
 1.4000000000e+00	 0.0000000000e+00	 3.7287859286e+00
 1.3998048996e+00	 2.3371840991e-02	 3.7216868348e+00
 1.3992143394e+00	 4.6895975401e-02	 3.7084575805e+00
 1.3982205643e+00	 7.0563825967e-02	 3.6880865003e+00
 1.3968160133e+00	 9.4366440433e-02	 3.6595103635e+00
 1.3949933379e+00	 1.1829449398e-01	 3.6216613639e+00
 1.4117647059e+00	 0.0000000000e+00	 3.7287649424e+00
 1.4115679660e+00	 2.3568243017e-02	 3.7219761247e+00
 1.4109724431e+00	 4.7290059228e-02	 3.7084361377e+00
 1.4099703170e+00	 7.1156799295e-02	 3.6873629924e+00
 1.4085539630e+00	 9.5159435731e-02	 3.6579579846e+00
 1.4067159710e+00	 1.1928856536e-01	 3.6194522313e+00
 1.3481028055e+00	 1.1431820847e-01	 3.6031837318e+00
 1.3459304498e+00	 1.3755381228e-01	 3.5579813638e+00
 1.3433405138e+00	 1.6089155034e-01	 3.5039825721e+00
 1.3403266262e+00	 1.8432135548e-01	 3.4419777980e+00
 1.3368826971e+00	 2.0783282028e-01	 3.3728229723e+00
 1.3330029370e+00	 2.3141520479e-01	 3.2974674937e+00
 1.3598254386e+00	 1.1531227985e-01	 3.6115034629e+00
 1.3576341928e+00	 1.3874993239e-01	 3.5654146117e+00
 1.3550217357e+00	 1.6229060730e-01	 3.5101654231e+00
 1.3519816403e+00	 1.8592414987e-01	 3.4466096923e+00
 1.3485077640e+00	 2.0964006220e-01	 3.3756876967e+00
 1.3445942669e+00	 2.3342751092e-01	 3.2984537528e+00
 1.3715480717e+00	 1.1630635123e-01	 3.6174887641e+00
 1.3693379359e+00	 1.3994605250e-01	 3.5706783423e+00
 1.3667029575e+00	 1.6368966426e-01	 3.5144279436e+00
 1.3636366545e+00	 1.8752694427e-01	 3.4495758218e+00
 1.3601328310e+00	 2.1144730412e-01	 3.3770678121e+00
 1.3561855967e+00	 2.3543981705e-01	 3.2979847830e+00
 1.3832707048e+00	 1.1730042260e-01	 3.6209408565e+00
 1.3810416789e+00	 1.4114217260e-01	 3.5735483468e+00
 1.3783841794e+00	 1.6508872122e-01	 3.5165244095e+00
 1.3752916686e+00	 1.8912973866e-01	 3.4506152945e+00
 1.3717578979e+00	 2.1325454603e-01	 3.3766960508e+00
 1.3677769266e+00	 2.3745212318e-01	 3.2957981772e+00
 1.3949933379e+00	 1.1829449398e-01	 3.6216613639e+00
 1.3927454220e+00	 1.4233829271e-01	 3.5738006348e+00
 1.3900654012e+00	 1.6648777818e-01	 3.5162089493e+00
 1.3869466828e+00	 1.9073253306e-01	 3.4494664650e+00
 1.3833829648e+00	 2.1506178795e-01	 3.3743034826e+00
 1.3793682565e+00	 2.3946442930e-01	 3.2916285914e+00
 1.4067159710e+00	 1.1928856536e-01	 3.6194522313e+00
 1.4044491650e+00	 1.4353441282e-01	 3.5712113622e+00
 1.4017466231e+00	 1.6788683513e-01	 3.5132354964e+00
 1.3986016969e+00	 1.9233532745e-01	 3.4458669273e+00
 1.3950080318e+00	 2.1686902986e-01	 3.3696195710e+00
 1.3909595864e+00	 2.4147673543e-01	 3.2852078876e+00
 1.3330029370e+00	 2.3141520479e-01	 3.2974674937e+00
 1.3286818756e+00	 2.5505744529e-01	 3.2138982038e+00
 1.3239143809e+00	 2.7874816432e-01	 3.1205131812e+00
 1.3186956771e+00	 3.0247568185e-01	 3.0190744878e+00
 1.3130213635e+00	 3.2622802758e-01	 2.9115045901e+00
 1.3068874316e+00	 3.4999295445e-01	 2.7999022644e+00
 1.3445942669e+00	 2.3342751092e-01	 3.2984537528e+00
 1.3402356311e+00	 2.5727533612e-01	 3.2128948143e+00
 1.3354266798e+00	 2.8117206140e-01	 3.1173346474e+00
 1.3301625961e+00	 3.0510590517e-01	 3.0135686193e+00
 1.3244389406e+00	 3.2906479304e-01	 2.9035860987e+00
 1.3182516701e+00	 3.5303637144e-01	 2.7895867766e+00
 1.3561855967e+00	 2.3543981705e-01	 3.2979847830e+00
 1.3517893865e+00	 2.5949322694e-01	 3.2103165764e+00
 1.3469389788e+00	 2.8359595848e-01	 3.1124469477e+00
 1.3416295150e+00	 3.0773612849e-01	 3.0063233957e+00
 1.3358565176e+00	 3.3190155850e-01	 2.8941196259e+00
 1.3296159087e+00	 3.5607978844e-01	 2.7782515597e+00
 1.3677769266e+00	 2.3745212318e-01	 3.2957981772e+00
 1.3633431419e+00	 2.6171111777e-01	 3.2058998077e+00
 1.3584512778e+00	 2.8601985556e-01	 3.1055581284e+00
 1.3530964339e+00	 3.1036635181e-01	 2.9969887883e+00
 1.3472740947e+00	 3.3473832395e-01	 2.8826644409e+00
 1.3409801472e+00	 3.5912320543e-01	 2.7653297218e+00
 1.3793682565e+00	 2.3946442930e-01	 3.2916285914e+00
 1.3748968974e+00	 2.6392900860e-01	 3.1993768498e+00
 1.3699635767e+00	 2.8844375265e-01	 3.0963721715e+00
 1.3645633529e+00	 3.1299657514e-01	 2.9852116703e+00
 1.3586916718e+00	 3.3757508941e-01	 2.8687788394e+00
 1.3523443857e+00	 3.6216662243e-01	 2.7502567801e+00
 1.3909595864e+00	 2.4147673543e-01	 3.2852078876e+00
 1.3864506528e+00	 2.6614689943e-01	 3.1904762968e+00
 1.3814758757e+00	 2.9086764973e-01	 3.0845892767e+00
 1.3760302718e+00	 3.1562679846e-01	 2.9706361201e+00
 1.3701092489e+00	 3.4041185487e-01	 2.8520204286e+00
 1.3637086243e+00	 3.6521003942e-01	 2.7324708839e+00
 1.3068874316e+00	 3.4999295445e-01	 2.7999022644e+00
 1.3002902827e+00	 3.7375795329e-01	 2.6829743040e+00
 1.2932267447e+00	 3.9751026867e-01	 2.5585554564e+00
 1.2856940879e+00	 4.2123691582e-01	 2.4275797598e+00
 1.2776900405e+00	 4.4492469869e-01	 2.2909917271e+00
 1.2692128028e+00	 4.6856022912e-01	 2.1497543590e+00
 1.3182516701e+00	 3.5303637144e-01	 2.7895867766e+00
 1.3115971547e+00	 3.7700802245e-01	 2.6697295861e+00
 1.3044721947e+00	 4.0096687970e-01	 2.5413762214e+00
 1.2968740365e+00	 4.2489984552e-01	 2.4056988096e+00
 1.2888003886e+00	 4.4879360912e-01	 2.2638780301e+00
 1.2802494358e+00	 4.7263466589e-01	 2.1171101484e+00
 1.3296159087e+00	 3.5607978844e-01	 2.7782515597e+00
 1.3229040268e+00	 3.8025809161e-01	 2.6562984499e+00
 1.3157176446e+00	 4.0442349073e-01	 2.5249326370e+00
 1.3080539851e+00	 4.2856277522e-01	 2.3854036388e+00
 1.2999107368e+00	 4.5266251954e-01	 2.2389720685e+00
 1.2912860689e+00	 4.7670910267e-01	 2.0869167345e+00
 1.3409801472e+00	 3.5912320543e-01	 2.7653297218e+00
 1.3342108988e+00	 3.8350816077e-01	 2.6419882279e+00
 1.3269630946e+00	 4.0788010176e-01	 2.5084473620e+00
 1.3192339337e+00	 4.3222570493e-01	 2.3658777415e+00
 1.3110210850e+00	 4.5653142996e-01	 2.2154679816e+00
 1.3023227020e+00	 4.8078353944e-01	 2.0584328963e+00
 1.3523443857e+00	 3.6216662243e-01	 2.7502567801e+00
 1.3455177708e+00	 3.8675822993e-01	 2.6261120971e+00
 1.3382085445e+00	 4.1133671280e-01	 2.4911510182e+00
 1.3304138823e+00	 4.3588863463e-01	 2.3463132187e+00
 1.3221314332e+00	 4.6040034039e-01	 2.1925675316e+00
 1.3133593350e+00	 4.8485797622e-01	 2.0309222676e+00
 1.3637086243e+00	 3.6521003942e-01	 2.7324708839e+00
 1.3568246428e+00	 3.9000829908e-01	 2.6079892484e+00
 1.3494539945e+00	 4.1479332383e-01	 2.4722823669e+00
 1.3415938309e+00	 4.3955156433e-01	 2.3259110343e+00
 1.3332417813e+00	 4.6426925081e-01	 2.1694805124e+00
 1.3243959681e+00	 4.8893241299e-01	 2.0036539804e+00
 1.2692128028e+00	 4.6856022912e-01	 2.1497543590e+00
 1.2602610612e+00	 4.9212994693e-01	 2.0028886457e+00
 1.2508340006e+00	 5.1562014116e-01	 1.8506869625e+00
 1.2409313159e+00	 5.3901697213e-01	 1.6961809781e+00
 1.2305532225e+00	 5.6230649443e-01	 1.5425896219e+00
 1.2197004654e+00	 5.8547468067e-01	 1.3933103031e+00
 1.2802494358e+00	 4.7263466589e-01	 2.1171101484e+00
 1.2712198530e+00	 4.9640933777e-01	 1.9652130324e+00
 1.2617108180e+00	 5.2010379456e-01	 1.8095443733e+00
 1.2517220230e+00	 5.4370407624e-01	 1.6538141531e+00
 1.2412536853e+00	 5.6719611612e-01	 1.5019789217e+00
 1.2303065564e+00	 5.9056576485e-01	 1.3578331418e+00
 1.2912860689e+00	 4.7670910267e-01	 2.0869167345e+00
 1.2821786449e+00	 5.0068872861e-01	 1.9299227146e+00
 1.2725876354e+00	 5.2458744796e-01	 1.7707054078e+00
 1.2625127301e+00	 5.4839118034e-01	 1.6138369169e+00
 1.2519541481e+00	 5.7208573781e-01	 1.4641899422e+00
 1.2409126474e+00	 5.9565684903e-01	 1.3229067421e+00
 1.3023227020e+00	 4.8078353944e-01	 2.0584328963e+00
 1.2931374367e+00	 5.0496811946e-01	 1.8963464762e+00
 1.2834644528e+00	 5.2907110136e-01	 1.7335196820e+00
 1.2733034372e+00	 5.5307828445e-01	 1.5755658091e+00
 1.2626546109e+00	 5.7697535950e-01	 1.4284475694e+00
 1.2515187384e+00	 6.0074793321e-01	 1.2871235397e+00
 1.3133593350e+00	 4.8485797622e-01	 2.0309222676e+00
 1.3040962285e+00	 5.0924751030e-01	 1.8638150209e+00
 1.2943412702e+00	 5.3355475477e-01	 1.6973374418e+00
 1.2840941443e+00	 5.5776538856e-01	 1.5383184885e+00
 1.2733550737e+00	 5.8186498119e-01	 1.3939802074e+00
 1.2621248294e+00	 6.0583901739e-01	 1.2496781897e+00
 1.3243959681e+00	 4.8893241299e-01	 2.0036539804e+00
 1.3150550204e+00	 5.1352690114e-01	 1.8316618621e+00
 1.3052180876e+00	 5.3803840817e-01	 1.6615106352e+00
 1.2948848514e+00	 5.6245249266e-01	 1.5014149173e+00
 1.2840555365e+00	 5.8675460288e-01	 1.3600209969e+00
 1.2727309204e+00	 6.1093010157e-01	 1.2098048027e+00
 1.2197004654e+00	 5.8547468067e-01	 1.3933103031e+00
 1.2083743274e+00	 6.0850744609e-01	 1.2512377706e+00
 1.1965766353e+00	 6.3139067371e-01	 1.1030537291e+00
 1.1843097655e+00	 6.5411024012e-01	 9.5307289883e-01
 1.1715766477e+00	 6.7665204175e-01	 8.0465480530e-01
 1.1583807668e+00	 6.9900202160e-01	 6.4801771944e-01
 1.2303065564e+00	 5.9056576485e-01	 1.3578331418e+00
 1.2188819302e+00	 6.1379881519e-01	 1.2079099030e+00
 1.2069816495e+00	 6.3688102740e-01	 1.0530420459e+00
 1.1946081113e+00	 6.5979815525e-01	 8.9686883863e-01
 1.1817642707e+00	 6.8253597255e-01	 7.4300753651e-01
 1.1684536430e+00	 7.0508030005e-01	 5.9132615099e-01
 1.2409126474e+00	 5.9565684903e-01	 1.3229067421e+00
 1.2293895331e+00	 6.1909018429e-01	 1.1658641398e+00
 1.2173866637e+00	 6.4237138108e-01	 1.0059234567e+00
 1.2049064571e+00	 6.6548607038e-01	 8.4538827352e-01
 1.1919518937e+00	 6.8841990335e-01	 6.8649091704e-01
 1.1785265192e+00	 7.1115857850e-01	 5.3143057322e-01
 1.2515187384e+00	 6.0074793321e-01	 1.2871235397e+00
 1.2398971359e+00	 6.2438155338e-01	 1.1241474462e+00
 1.2277916780e+00	 6.4786173477e-01	 9.6064713818e-01
 1.2152048029e+00	 6.7117398551e-01	 7.9749437465e-01
 1.2021395167e+00	 6.9430383415e-01	 6.3544039894e-01
 1.1885993955e+00	 7.1723685694e-01	 4.7516369127e-01
 1.2621248294e+00	 6.0583901739e-01	 1.2496781897e+00
 1.2504047388e+00	 6.2967292248e-01	 1.0818518138e+00
 1.2381966922e+00	 6.5335208845e-01	 9.1621164635e-01
 1.2255031487e+00	 6.7686190064e-01	 7.5210364119e-01
 1.2123271398e+00	 7.0018776494e-01	 5.8870390711e-01
 1.1986722717e+00	 7.2331513539e-01	 4.2507672369e-01
 1.2727309204e+00	 6.1093010157e-01	 1.2098048027e+00
 1.2609123416e+00	 6.3496429158e-01	 1.0381131621e+00
 1.2486017064e+00	 6.5884244214e-01	 8.7166361578e-01
 1.2358014945e+00	 6.8254981578e-01	 7.0818441691e-01
 1.2225147628e+00	 7.0607169574e-01	 5.4518452897e-01
 1.2087451479e+00	 7.2939341384e-01	 3.8002251983e-01
 1.1583807668e+00	 6.9900202160e-01	 6.4801771944e-01
 1.1447261641e+00	 7.2114619615e-01	 4.9202465098e-01
 1.1306174365e+00	 7.4307068262e-01	 3.4376740650e-01
 1.1160597337e+00	 7.6476172621e-01	 2.0285751294e-01
 1.1010587547e+00	 7.8620572739e-01	 6.9586601370e-02
 1.0856207419e+00	 8.0738926909e-01	-5.5060387692e-02
 1.1684536430e+00	 7.0508030005e-01	 5.9132615099e-01
 1.1546803047e+00	 7.2741703264e-01	 4.3747781493e-01
 1.1404488924e+00	 7.4953216682e-01	 2.8833317090e-01
 1.1257646009e+00	 7.7141182818e-01	 1.4470136375e-01
 1.1106331786e+00	 7.9304229893e-01	 8.0725311994e-03
 1.0950609222e+00	 8.1441004534e-01	-1.1937420751e-01
 1.1785265192e+00	 7.1115857850e-01	 5.3143057322e-01
 1.1646344452e+00	 7.3368786913e-01	 3.8224798017e-01
 1.1502803484e+00	 7.5599365101e-01	 2.3462488717e-01
 1.1354694682e+00	 7.7806193014e-01	 9.0183307947e-02
 1.1202076026e+00	 7.9987887048e-01	-4.8522687325e-02
 1.1045011026e+00	 8.2143082160e-01	-1.7824737132e-01
 1.1885993955e+00	 7.1723685694e-01	 4.7516369127e-01
 1.1745885858e+00	 7.3995870562e-01	 3.2546969974e-01
 1.1601118044e+00	 7.6245513521e-01	 1.8176995776e-01
 1.1451743354e+00	 7.8471203211e-01	 3.8455883177e-02
 1.1297820265e+00	 8.0671544202e-01	-1.0098620767e-01
 1.1139412829e+00	 8.2845159785e-01	-2.3236868459e-01
 1.1986722717e+00	 7.2331513539e-01	 4.2507672369e-01
 1.1845427263e+00	 7.4622954211e-01	 2.6965347513e-01
 1.1699432603e+00	 7.6891661941e-01	 1.2892677613e-01
 1.1548792027e+00	 7.9136213408e-01	-1.1296645044e-02
 1.1393564505e+00	 8.1355201356e-01	-1.5007414020e-01
 1.1233814633e+00	 8.3547237410e-01	-2.8239813953e-01
 1.2087451479e+00	 7.2939341384e-01	 3.8002251983e-01
 1.1944968669e+00	 7.5250037859e-01	 2.2044623164e-01
 1.1797747163e+00	 7.7537810361e-01	 7.5786310466e-02
 1.1645840699e+00	 7.9801223604e-01	-5.9857769023e-02
 1.1489308744e+00	 8.2038858510e-01	-1.9651092958e-01
 1.1328216437e+00	 8.4249315036e-01	-3.2896613150e-01
 1.0856207419e+00	 8.0738926909e-01	-5.5060387692e-02
 1.0697524740e+00	 8.2829914362e-01	-1.7988767317e-01
 1.0534612575e+00	 8.4892237926e-01	-3.1100697484e-01
 1.0367549157e+00	 8.6924626647e-01	-4.4231993681e-01
 1.0196417775e+00	 8.8925838345e-01	-5.6703564864e-01
 1.0021306636e+00	 9.0894662112e-01	-6.7773699233e-01
 1.0950609222e+00	 8.1441004534e-01	-1.1937420751e-01
 1.0790546694e+00	 8.3550174486e-01	-2.4530599539e-01
 1.0626217901e+00	 8.5630431299e-01	-3.7588942556e-01
 1.0457701758e+00	 8.7680492965e-01	-5.0559076788e-01
 1.0285082278e+00	 8.9699106504e-01	-6.2813372213e-01
 1.0108448433e+00	 9.1685050479e-01	-7.3656353577e-01
 1.1045011026e+00	 8.2143082160e-01	-1.7824737132e-01
 1.0883568649e+00	 8.4270434611e-01	-3.0540232885e-01
 1.0717823228e+00	 8.6368624672e-01	-4.3587508353e-01
 1.0547854360e+00	 8.8436359284e-01	-5.6449565224e-01
 1.0373746780e+00	 9.0472374664e-01	-6.8530299723e-01
 1.0195590230e+00	 9.2475438845e-01	-7.9160802270e-01
 1.1139412829e+00	 8.2845159785e-01	-2.3236868459e-01
 1.0976590603e+00	 8.4990694736e-01	-3.6075670911e-01
 1.0809428555e+00	 8.7106818046e-01	-4.9145778500e-01
 1.0638006961e+00	 8.9192225603e-01	-6.1946991771e-01
 1.0462411282e+00	 9.1245642823e-01	-7.3895296119e-01
 1.0282732027e+00	 9.3265827211e-01	-8.4329158418e-01
 1.1233814633e+00	 8.3547237410e-01	-2.8239813953e-01
 1.1069612557e+00	 8.5710954861e-01	-4.1192322772e-01
 1.0901033882e+00	 8.7845011419e-01	-5.4310783915e-01
 1.0728159562e+00	 8.9948091921e-01	-6.7092716980e-01
 1.0551075785e+00	 9.2018910983e-01	-7.8947241089e-01
 1.0369873823e+00	 9.4056215577e-01	-8.9201475904e-01
 1.1328216437e+00	 8.4249315036e-01	-3.2896613150e-01
 1.1162634512e+00	 8.6431214986e-01	-4.5942907308e-01
 1.0992639208e+00	 8.8583204792e-01	-5.9127092524e-01
 1.0818312164e+00	 9.0703958240e-01	-7.1925808395e-01
 1.0639740287e+00	 9.2792179142e-01	-8.3722818589e-01
 1.0457015620e+00	 9.4846603943e-01	-9.3815622052e-01
 1.0021306636e+00	 9.0894662112e-01	-6.7773699233e-01
 9.8423087164e-01	 9.2829920731e-01	-7.8519474930e-01
 9.6595215999e-01	 9.4730473006e-01	-9.0043656959e-01
 9.4730473006e-01	 9.6595215999e-01	-1.0158646788e+00
 9.2829920731e-01	 9.8423087164e-01	-1.1237728902e+00
 9.0894662112e-01	 1.0021306636e+00	-1.2164541126e+00
 1.0108448433e+00	 9.1685050479e-01	-7.3656353577e-01
 9.9278940096e-01	 9.3637137433e-01	-8.4251621078e-01
 9.7435174399e-01	 9.5554216250e-01	-9.5713332791e-01
 9.5554216250e-01	 9.7435174399e-01	-1.0720939383e+00
 9.3637137433e-01	 9.9278940096e-01	-1.1789496549e+00
 9.1685050479e-01	 1.0108448433e+00	-1.2692396938e+00
 1.0195590230e+00	 9.2475438845e-01	-7.9160802270e-01
 1.0013479303e+00	 9.4444354135e-01	-8.9583780031e-01
 9.8275132799e-01	 9.6377959493e-01	-1.0094102609e+00
 9.6377959493e-01	 9.8275132799e-01	-1.1234416446e+00
 9.4444354135e-01	 1.0013479303e+00	-1.2289005303e+00
 9.2475438845e-01	 1.0195590230e+00	-1.3167296721e+00
 1.0282732027e+00	 9.3265827211e-01	-8.4329158418e-01
 1.0099064596e+00	 9.5251570837e-01	-9.4561789093e-01
 9.9115091199e-01	 9.7201702737e-01	-1.0577705838e+00
 9.7201702737e-01	 9.9115091199e-01	-1.1704589051e+00
 9.5251570837e-01	 1.0099064596e+00	-1.2742229383e+00
 9.3265827211e-01	 1.0282732027e+00	-1.3595615209e+00
 1.0369873823e+00	 9.4056215577e-01	-8.9201475904e-01
 1.0184649889e+00	 9.6058787539e-01	-9.9229382279e-01
 9.9955049599e-01	 9.8025445980e-01	-1.1026960942e+00
 9.8025445980e-01	 9.9955049599e-01	-1.2136752182e+00
 9.6058787539e-01	 1.0184649889e+00	-1.3154928291e+00
 9.4056215577e-01	 1.0369873823e+00	-1.3983518390e+00
 1.0457015620e+00	 9.4846603943e-01	-9.3815622052e-01
 1.0270235182e+00	 9.6866004241e-01	-1.0362806595e+00
 1.0079500800e+00	 9.8849189224e-01	-1.1446459697e+00
 9.8849189224e-01	 1.0079500800e+00	-1.2535973175e+00
 9.6866004241e-01	 1.0270235182e+00	-1.3532635701e+00
 9.4846603943e-01	 1.0457015620e+00	-1.4336952783e+00
 9.0894662112e-01	 1.0021306636e+00	-1.2164541126e+00
 8.8925838345e-01	 1.0196417775e+00	-1.3037861965e+00
 8.6924626647e-01	 1.0367549157e+00	-1.3964164768e+00
 8.4892237926e-01	 1.0534612575e+00	-1.4882273894e+00
 8.2829914362e-01	 1.0697524740e+00	-1.5736773621e+00
 8.0738926909e-01	 1.0856207419e+00	-1.6479019972e+00
 9.1685050479e-01	 1.0108448433e+00	-1.2692396938e+00
 8.9699106504e-01	 1.0285082278e+00	-1.3528787832e+00
 8.7680492965e-01	 1.0457701758e+00	-1.4413421543e+00
 8.5630431299e-01	 1.0626217901e+00	-1.5289734146e+00
 8.3550174486e-01	 1.0790546694e+00	-1.6107363556e+00
 8.1441004534e-01	 1.0950609222e+00	-1.6823175902e+00
 9.2475438845e-01	 1.0195590230e+00	-1.3167296721e+00
 9.0472374664e-01	 1.0373746780e+00	-1.3970709267e+00
 8.8436359284e-01	 1.0547854360e+00	-1.4821467948e+00
 8.6368624672e-01	 1.0717823228e+00	-1.5665071735e+00
 8.4270434611e-01	 1.0883568649e+00	-1.6453624205e+00
 8.2143082160e-01	 1.1045011026e+00	-1.7146890957e+00
 9.3265827211e-01	 1.0282732027e+00	-1.3595615209e+00
 9.1245642823e-01	 1.0462411282e+00	-1.4370171992e+00
 8.9192225603e-01	 1.0638006961e+00	-1.5194692128e+00
 8.7106818046e-01	 1.0809428555e+00	-1.6014243572e+00
 8.4990694736e-01	 1.0976590603e+00	-1.6780862805e+00
 8.2845159785e-01	 1.1139412829e+00	-1.7454659744e+00
 9.4056215577e-01	 1.0369873823e+00	-1.3983518390e+00
 9.2018910983e-01	 1.0551075785e+00	-1.4733528877e+00
 8.9948091921e-01	 1.0728159562e+00	-1.5539318171e+00
 8.7845011419e-01	 1.0901033882e+00	-1.6343081989e+00
 8.5710954861e-01	 1.1069612557e+00	-1.7094309940e+00
 8.3547237410e-01	 1.1233814633e+00	-1.7750954283e+00
 9.4846603943e-01	 1.0457015620e+00	-1.4336952783e+00
 9.2792179142e-01	 1.0639740287e+00	-1.5066929292e+00
 9.0703958240e-01	 1.0818312164e+00	-1.5861395117e+00
 8.8583204792e-01	 1.0992639208e+00	-1.6657283061e+00
 8.6431214986e-01	 1.1162634512e+00	-1.7399106887e+00
 8.4249315036e-01	 1.1328216437e+00	-1.8040210209e+00
 8.0738926909e-01	 1.0856207419e+00	-1.6479019972e+00
 7.8620572739e-01	 1.1010587547e+00	-1.7182114404e+00
 7.6476172621e-01	 1.1160597337e+00	-1.7911191841e+00
 7.4307068262e-01	 1.1306174365e+00	-1.8618603453e+00
 7.2114619615e-01	 1.1447261641e+00	-1.9266988433e+00
 6.9900202160e-01	 1.1583807668e+00	-1.9829858662e+00
 8.1441004534e-01	 1.0950609222e+00	-1.6823175902e+00
 7.9304229893e-01	 1.1106331786e+00	-1.7512712732e+00
 7.7141182818e-01	 1.1257646009e+00	-1.8229920183e+00
 7.4953216682e-01	 1.1404488924e+00	-1.8912595411e+00
 7.2741703264e-01	 1.1546803047e+00	-1.9508963920e+00
 7.0508030005e-01	 1.1684536430e+00	-1.9978386129e+00
 8.2143082160e-01	 1.1045011026e+00	-1.7146890957e+00
 7.9987887048e-01	 1.1202076026e+00	-1.7819045349e+00
 7.7806193014e-01	 1.1354694682e+00	-1.8511796183e+00
 7.5599365101e-01	 1.1502803484e+00	-1.9149986119e+00
 7.3368786913e-01	 1.1646344452e+00	-1.9669124176e+00
 7.1115857850e-01	 1.1785265192e+00	-2.0019203332e+00
 8.2845159785e-01	 1.1139412829e+00	-1.7454659744e+00
 8.0671544202e-01	 1.1297820265e+00	-1.8105033310e+00
 7.8471203211e-01	 1.1451743354e+00	-1.8760738417e+00
 7.6245513521e-01	 1.1601118044e+00	-1.9335212315e+00
 7.3995870562e-01	 1.1745885858e+00	-1.9752893197e+00
 7.1723685694e-01	 1.1885993955e+00	-2.0051604963e+00
 8.3547237410e-01	 1.1233814633e+00	-1.7750954283e+00
 8.1355201356e-01	 1.1393564505e+00	-1.8374621345e+00
 7.9136213408e-01	 1.1548792027e+00	-1.8980716003e+00
 7.6891661941e-01	 1.1699432603e+00	-1.9472769988e+00
 7.4622954211e-01	 1.1845427263e+00	-1.9804833744e+00
 7.2331513539e-01	 1.1986722717e+00	-2.0117434362e+00
 8.4249315036e-01	 1.1328216437e+00	-1.8040210209e+00
 8.2038858510e-01	 1.1489308744e+00	-1.8631763316e+00
 7.9801223604e-01	 1.1645840699e+00	-1.9175734154e+00
 7.7537810361e-01	 1.1797747163e+00	-1.9572760490e+00
 7.5250037859e-01	 1.1944968669e+00	-1.9901503341e+00
 7.2939341384e-01	 1.2087451479e+00	-2.0211594914e+00
 6.9900202160e-01	 1.1583807668e+00	-1.9829858662e+00
 6.7665204175e-01	 1.1715766477e+00	-2.0265157942e+00
 6.5411024012e-01	 1.1843097655e+00	-2.0552950495e+00
 6.3139067371e-01	 1.1965766353e+00	-2.0856648297e+00
 6.0850744609e-01	 1.2083743274e+00	-2.1175615090e+00
 5.8547468067e-01	 1.2197004654e+00	-2.1494276623e+00
 7.0508030005e-01	 1.1684536430e+00	-1.9978386129e+00
 6.8253597255e-01	 1.1817642707e+00	-2.0288465719e+00
 6.5979815525e-01	 1.1946081113e+00	-2.0581888101e+00
 6.3688102740e-01	 1.2069816495e+00	-2.0887615607e+00
 6.1379881519e-01	 1.2188819302e+00	-2.1190348400e+00
 5.9056576485e-01	 1.2303065564e+00	-2.1476978744e+00
 7.1115857850e-01	 1.1785265192e+00	-2.0019203332e+00
 6.8841990335e-01	 1.1919518937e+00	-2.0312950055e+00
 6.6548607038e-01	 1.2049064571e+00	-2.0612127193e+00
 6.4237138108e-01	 1.2173866637e+00	-2.0905282339e+00
 6.1909018429e-01	 1.2293895331e+00	-2.1183463647e+00
 5.9565684903e-01	 1.2409126474e+00	-2.1439828307e+00
 7.1723685694e-01	 1.1885993955e+00	-2.0051604963e+00
 6.9430383415e-01	 1.2021395167e+00	-2.0354818171e+00
 6.7117398551e-01	 1.2152048029e+00	-2.0641364341e+00
 6.4786173477e-01	 1.2277916780e+00	-2.0907769939e+00
 6.2438155338e-01	 1.2398971359e+00	-2.1152905576e+00
 6.0074793321e-01	 1.2515187384e+00	-2.1377540342e+00
 7.2331513539e-01	 1.1986722717e+00	-2.0117434362e+00
 7.0018776494e-01	 1.2123271398e+00	-2.0410587112e+00
 6.7686190064e-01	 1.2255031487e+00	-2.0667081668e+00
 6.5335208845e-01	 1.2381966922e+00	-2.0892980917e+00
 6.2967292248e-01	 1.2504047388e+00	-2.1096416674e+00
 6.0583901739e-01	 1.2621248294e+00	-2.1287082765e+00
 7.2939341384e-01	 1.2087451479e+00	-2.0211594914e+00
 7.0607169574e-01	 1.2225147628e+00	-2.0476591336e+00
 6.8254981578e-01	 1.2358014945e+00	-2.0686554913e+00
 6.5884244214e-01	 1.2486017064e+00	-2.0858606613e+00
 6.3496429158e-01	 1.2609123416e+00	-2.1011543785e+00
 6.1093010157e-01	 1.2727309204e+00	-2.1165264926e+00
 5.8547468067e-01	 1.2197004654e+00	-2.1494276623e+00
 5.6230649443e-01	 1.2305532225e+00	-2.1777801158e+00
 5.3901697213e-01	 1.2409313159e+00	-2.1950061096e+00
 5.1562014116e-01	 1.2508340006e+00	-2.2039853356e+00
 4.9212994693e-01	 1.2602610612e+00	-2.2072255334e+00
 4.6856022912e-01	 1.2692128028e+00	-2.2068994480e+00
 5.9056576485e-01	 1.2303065564e+00	-2.1476978744e+00
 5.6719611612e-01	 1.2412536853e+00	-2.1652111019e+00
 5.4370407624e-01	 1.2517220230e+00	-2.1717662228e+00
 5.2010379456e-01	 1.2617108180e+00	-2.1710601576e+00
 4.9640933777e-01	 1.2712198530e+00	-2.1662163924e+00
 4.7263466589e-01	 1.2802494358e+00	-2.1599937927e+00
 5.9565684903e-01	 1.2409126474e+00	-2.1439828307e+00
 5.7208573781e-01	 1.2519541481e+00	-2.1526312170e+00
 5.4839118034e-01	 1.2625127301e+00	-2.1496451858e+00
 5.2458744796e-01	 1.2725876354e+00	-2.1405928172e+00
 5.0068872861e-01	 1.2821786449e+00	-2.1288678468e+00
 4.7670910267e-01	 1.2912860689e+00	-2.1174802316e+00
 6.0074793321e-01	 1.2515187384e+00	-2.1377540342e+00
 5.7697535950e-01	 1.2626546109e+00	-2.1396465042e+00
 5.5307828445e-01	 1.2733034372e+00	-2.1281473799e+00
 5.2907110136e-01	 1.2834644528e+00	-2.1120109851e+00
 5.0496811946e-01	 1.2931374367e+00	-2.0945638789e+00
 4.8078353944e-01	 1.3023227020e+00	-2.0787399687e+00
 6.0583901739e-01	 1.2621248294e+00	-2.1287082765e+00
 5.8186498119e-01	 1.2733550737e+00	-2.1258537347e+00
 5.5776538856e-01	 1.2840941443e+00	-2.1067730860e+00
 5.3355475477e-01	 1.2943412702e+00	-2.0847425739e+00
 5.0924751030e-01	 1.3040962285e+00	-2.0626919410e+00
 4.8485797622e-01	 1.3133593350e+00	-2.0431595149e+00
 6.1093010157e-01	 1.2727309204e+00	-2.1165264926e+00
 5.8675460288e-01	 1.2840555365e+00	-2.1108402148e+00
 5.6245249266e-01	 1.2948848514e+00	-2.0850181149e+00
 5.3803840817e-01	 1.3052180876e+00	-2.0582152252e+00
 5.1352690114e-01	 1.3150550204e+00	-2.0326423463e+00
 4.8893241299e-01	 1.3243959681e+00	-2.0101300392e+00
 4.6856022912e-01	 1.2692128028e+00	-2.2068994480e+00
 4.4492469869e-01	 1.2776900405e+00	-2.2038154217e+00
 4.2123691582e-01	 1.2856940879e+00	-2.1978656088e+00
 3.9751026867e-01	 1.2932267447e+00	-2.1893070590e+00
 3.7375795329e-01	 1.3002902827e+00	-2.1780154394e+00
 3.4999295445e-01	 1.3068874316e+00	-2.1635270719e+00
 4.7263466589e-01	 1.2802494358e+00	-2.1599937927e+00
 4.4879360912e-01	 1.2888003886e+00	-2.1528868152e+00
 4.2489984552e-01	 1.2968740365e+00	-2.1437195526e+00
 4.0096687970e-01	 1.3044721947e+00	-2.1321832683e+00
 3.7700802245e-01	 1.3115971547e+00	-2.1175938942e+00
 3.5303637144e-01	 1.3182516701e+00	-2.0989381544e+00
 4.7670910267e-01	 1.2912860689e+00	-2.1174802316e+00
 4.5266251954e-01	 1.2999107368e+00	-2.1064058771e+00
 4.2856277522e-01	 1.3080539851e+00	-2.0935763411e+00
 4.0442349073e-01	 1.3157176446e+00	-2.0783613256e+00
 3.8025809161e-01	 1.3229040268e+00	-2.0597605218e+00
 3.5607978844e-01	 1.3296159087e+00	-2.0364526298e+00
 4.8078353944e-01	 1.3023227020e+00	-2.0787399687e+00
 4.5653142996e-01	 1.3110210850e+00	-2.0637891263e+00
 4.3222570493e-01	 1.3192339337e+00	-2.0469135455e+00
 4.0788010176e-01	 1.3269630946e+00	-2.0273990565e+00
 3.8350816077e-01	 1.3342108988e+00	-2.0041661276e+00
 3.5912320543e-01	 1.3409801472e+00	-1.9758206094e+00
 4.8485797622e-01	 1.3133593350e+00	-2.0431595149e+00
 4.6040034039e-01	 1.3221314332e+00	-2.0244589168e+00
 4.3588863463e-01	 1.3304138823e+00	-2.0032141967e+00
 4.1133671280e-01	 1.3382085445e+00	-1.9788586762e+00
 3.8675822993e-01	 1.3455177708e+00	-1.9504643506e+00
 3.6216662243e-01	 1.3523443857e+00	-1.9167932029e+00
 4.8893241299e-01	 1.3243959681e+00	-2.0101300392e+00
 4.6426925081e-01	 1.3332417813e+00	-1.9878428032e+00
 4.3955156433e-01	 1.3415938309e+00	-1.9619662001e+00
 4.1479332383e-01	 1.3494539945e+00	-1.9323062818e+00
 3.9000829908e-01	 1.3568246428e+00	-1.8983112519e+00
 3.6521003942e-01	 1.3637086243e+00	-1.8591222143e+00
 3.4999295445e-01	 1.3068874316e+00	-2.1635270719e+00
 3.2622802758e-01	 1.3130213635e+00	-2.1471218157e+00
 3.0247568185e-01	 1.3186956771e+00	-2.1307498720e+00
 2.7874816432e-01	 1.3239143809e+00	-2.1146308108e+00
 2.5505744529e-01	 1.3286818756e+00	-2.0988773279e+00
 2.3141520479e-01	 1.3330029370e+00	-2.0835124934e+00
 3.5303637144e-01	 1.3182516701e+00	-2.0989381544e+00
 3.2906479304e-01	 1.3244389406e+00	-2.0775716192e+00
 3.0510590517e-01	 1.3301625961e+00	-2.0560431394e+00
 2.8117206140e-01	 1.3354266798e+00	-2.0348225874e+00
 2.5727533612e-01	 1.3402356311e+00	-2.0142797099e+00
 2.3342751092e-01	 1.3445942669e+00	-1.9947003613e+00
 3.5607978844e-01	 1.3296159087e+00	-2.0364526298e+00
 3.3190155850e-01	 1.3358565176e+00	-2.0100544332e+00
 3.0773612849e-01	 1.3416295150e+00	-1.9836529261e+00
 2.8359595848e-01	 1.3469389788e+00	-1.9578357780e+00
 2.5949322694e-01	 1.3517893865e+00	-1.9330940280e+00
 2.3543981705e-01	 1.3561855967e+00	-1.9098381139e+00
 3.5912320543e-01	 1.3409801472e+00	-1.9758206094e+00
 3.3473832395e-01	 1.3472740947e+00	-1.9443962492e+00
 3.1036635181e-01	 1.3530964339e+00	-1.9134343333e+00
 2.8601985556e-01	 1.3584512778e+00	-1.8835111583e+00
 2.6171111777e-01	 1.3633431419e+00	-1.8551067010e+00
 2.3745212318e-01	 1.3677769266e+00	-1.8286212413e+00
 3.6216662243e-01	 1.3523443857e+00	-1.9167932029e+00
 3.3757508941e-01	 1.3586916718e+00	-1.8804229365e+00
 3.1299657514e-01	 1.3645633529e+00	-1.8452427115e+00
 2.8844375265e-01	 1.3699635767e+00	-1.8116915008e+00
 2.6392900860e-01	 1.3748968974e+00	-1.7801091490e+00
 2.3946442930e-01	 1.3793682565e+00	-1.7507543770e+00
 3.6521003942e-01	 1.3637086243e+00	-1.8591222143e+00
 3.4041185487e-01	 1.3701092489e+00	-1.8179600128e+00
 3.1562679846e-01	 1.3760302718e+00	-1.7789334432e+00
 2.9086764973e-01	 1.3814758757e+00	-1.7422213098e+00
 2.6614689943e-01	 1.3864506528e+00	-1.7078974270e+00
 2.4147673543e-01	 1.3909595864e+00	-1.6759507810e+00
 2.3141520479e-01	 1.3330029370e+00	-2.0835124934e+00
 2.0783282028e-01	 1.3368826971e+00	-2.0687961533e+00
 1.8432135548e-01	 1.3403266262e+00	-2.0551358990e+00
 1.6089155034e-01	 1.3433405138e+00	-2.0426583282e+00
 1.3755381228e-01	 1.3459304498e+00	-2.0314145415e+00
 1.1431820847e-01	 1.3481028055e+00	-2.0213837983e+00
 2.3342751092e-01	 1.3445942669e+00	-1.9947003613e+00
 2.0964006220e-01	 1.3485077640e+00	-1.9764657740e+00
 1.8592414987e-01	 1.3519816403e+00	-1.9598240246e+00
 1.6229060730e-01	 1.3550217357e+00	-1.9447502902e+00
 1.3874993239e-01	 1.3576341928e+00	-1.9311494348e+00
 1.1531227985e-01	 1.3598254386e+00	-1.9188601540e+00
 2.3543981705e-01	 1.3561855967e+00	-1.9098381139e+00
 2.1144730412e-01	 1.3601328310e+00	-1.8884498057e+00
 1.8752694427e-01	 1.3636366545e+00	-1.8690306862e+00
 1.6368966426e-01	 1.3667029575e+00	-1.8514688931e+00
 1.3994605250e-01	 1.3693379359e+00	-1.8355912072e+00
 1.1630635123e-01	 1.3715480717e+00	-1.8211671784e+00
 2.3745212318e-01	 1.3677769266e+00	-1.8286212413e+00
 2.1325454603e-01	 1.3717578979e+00	-1.8043530655e+00
 1.8912973866e-01	 1.3752916686e+00	-1.7823034966e+00
 1.6508872122e-01	 1.3783841794e+00	-1.7623360616e+00
 1.4114217260e-01	 1.3810416789e+00	-1.7442656317e+00
 1.1730042260e-01	 1.3832707048e+00	-1.7278620263e+00
 2.3946442930e-01	 1.3793682565e+00	-1.7507543770e+00
 2.1506178795e-01	 1.3833829648e+00	-1.7237935536e+00
 1.9073253306e-01	 1.3869466828e+00	-1.6992060713e+00
 1.6648777818e-01	 1.3900654012e+00	-1.6768913885e+00
 1.4233829271e-01	 1.3927454220e+00	-1.6567167265e+00
 1.1829449398e-01	 1.3949933379e+00	-1.6385196555e+00
 2.4147673543e-01	 1.3909595864e+00	-1.6759507810e+00
 2.1686902986e-01	 1.3950080318e+00	-1.6464017887e+00
 1.9233532745e-01	 1.3986016969e+00	-1.6193172654e+00
 1.6788683513e-01	 1.4017466231e+00	-1.5946913188e+00
 1.4353441282e-01	 1.4044491650e+00	-1.5725059306e+00
 1.1928856536e-01	 1.4067159710e+00	-1.5527320350e+00
 1.1431820847e-01	 1.3481028055e+00	-2.0213837983e+00
 9.1194459242e-02	 1.3498642145e+00	-2.0125517839e+00
 6.8191932657e-02	 1.3512215537e+00	-2.0054093304e+00
 4.5319640093e-02	 1.3521819246e+00	-2.0005922358e+00
 2.2586232891e-02	 1.3527526341e+00	-1.9986658463e+00
 0.0000000000e+00	 1.3529411765e+00	-2.0001175460e+00
 1.1531227985e-01	 1.3598254386e+00	-1.9188601540e+00
 9.1987454540e-02	 1.3616021642e+00	-1.9079182504e+00
 6.8784905985e-02	 1.3629713064e+00	-1.8990682401e+00
 4.5713723920e-02	 1.3639400283e+00	-1.8931153910e+00
 2.2782634916e-02	 1.3645157005e+00	-1.8907938092e+00
 0.0000000000e+00	 1.3647058824e+00	-1.8927577008e+00
 1.1630635123e-01	 1.3715480717e+00	-1.8211671784e+00
 9.2780449837e-02	 1.3733401139e+00	-1.8083279740e+00
 6.9377879312e-02	 1.3747210590e+00	-1.7980107924e+00
 4.6107807747e-02	 1.3756981320e+00	-1.7911040374e+00
 2.2979036941e-02	 1.3762787669e+00	-1.7884238887e+00
 0.0000000000e+00	 1.3764705882e+00	-1.7907047507e+00
 1.1730042260e-01	 1.3832707048e+00	-1.7278620263e+00
 9.3573445135e-02	 1.3850780636e+00	-1.7133688353e+00
 6.9970852640e-02	 1.3864708117e+00	-1.7018296994e+00
 4.6501891574e-02	 1.3874562357e+00	-1.6941322467e+00
 2.3175438966e-02	 1.3880418333e+00	-1.6910904781e+00
 0.0000000000e+00	 1.3882352941e+00	-1.6934348094e+00
 1.1829449398e-01	 1.3949933379e+00	-1.6385196555e+00
 9.4366440433e-02	 1.3968160133e+00	-1.6226460060e+00
 7.0563825967e-02	 1.3982205643e+00	-1.6101352325e+00
 4.6895975401e-02	 1.3992143394e+00	-1.6017926208e+00
 2.3371840991e-02	 1.3998048996e+00	-1.5983480953e+00
 0.0000000000e+00	 1.4000000000e+00	-1.6004462558e+00
 1.1928856536e-01	 1.4067159710e+00	-1.5527320350e+00
 9.5159435731e-02	 1.4085539630e+00	-1.5357811908e+00
 7.1156799295e-02	 1.4099703170e+00	-1.5225544648e+00
 4.7290059228e-02	 1.4109724431e+00	-1.5136955030e+00
 2.3568243017e-02	 1.4115679660e+00	-1.5097705371e+00
 0.0000000000e+00	 1.4117647059e+00	-1.5112588065e+00
 1.4117647059e+00	 0.0000000000e+00	 3.7287649424e+00
 1.4115679660e+00	 2.3568243017e-02	 3.7219761247e+00
 1.4109724431e+00	 4.7290059228e-02	 3.7084361377e+00
 1.4099703170e+00	 7.1156799295e-02	 3.6873629924e+00
 1.4085539630e+00	 9.5159435731e-02	 3.6579579846e+00
 1.4067159710e+00	 1.1928856536e-01	 3.6194522313e+00
 1.4235294118e+00	 0.0000000000e+00	 3.7265368333e+00
 1.4233310324e+00	 2.3764645042e-02	 3.7201023205e+00
 1.4227305468e+00	 4.7684143055e-02	 3.7062879999e+00
 1.4217200696e+00	 7.1749772622e-02	 3.6845452118e+00
 1.4202919126e+00	 9.5952431028e-02	 3.6543444723e+00
 1.4184386040e+00	 1.2028263674e-01	 3.6152214451e+00
 1.4352941176e+00	 0.0000000000e+00	 3.7229399432e+00
 1.4350940988e+00	 2.3961047067e-02	 3.7166803937e+00
 1.4344886504e+00	 4.8078226882e-02	 3.7026099894e+00
 1.4334698222e+00	 7.2342745949e-02	 3.6803351018e+00
 1.4320298623e+00	 9.6745426326e-02	 3.6495165184e+00
 1.4301612371e+00	 1.2127670812e-01	 3.6099150782e+00
 1.4470588235e+00	 0.0000000000e+00	 3.7178306978e+00
 1.4468571652e+00	 2.4157449092e-02	 3.7115719746e+00
 1.4462467541e+00	 4.8472310709e-02	 3.6972641805e+00
 1.4452195749e+00	 7.2935719277e-02	 3.6745927039e+00
 1.4437678120e+00	 9.7538421624e-02	 3.6433319955e+00
 1.4418838702e+00	 1.2227077949e-01	 3.6033910852e+00
 1.4588235294e+00	 0.0000000000e+00	 3.7110676092e+00
 1.4586202316e+00	 2.4353851117e-02	 3.7046400955e+00
 1.4580048578e+00	 4.8866394536e-02	 3.6901133726e+00
 1.4569693275e+00	 7.3528692604e-02	 3.6671780676e+00
 1.4555057617e+00	 9.8331416922e-02	 3.6356479786e+00
 1.4536065033e+00	 1.2326485087e-01	 3.5955056802e+00
 1.4705882353e+00	 0.0000000000e+00	 3.7025111922e+00
 1.4703832979e+00	 2.4550253142e-02	 3.6957491154e+00
 1.4697629615e+00	 4.9260478362e-02	 3.6810210257e+00
 1.4687190802e+00	 7.4121665932e-02	 3.6579512030e+00
 1.4672437114e+00	 9.9124412219e-02	 3.6263207245e+00
 1.4653291364e+00	 1.2425892225e-01	 3.5861133530e+00
 1.4067159710e+00	 1.1928856536e-01	 3.6194522313e+00
 1.4044491650e+00	 1.4353441282e-01	 3.5712113622e+00
 1.4017466231e+00	 1.6788683513e-01	 3.5132354964e+00
 1.3986016969e+00	 1.9233532745e-01	 3.4458669273e+00
 1.3950080318e+00	 2.1686902986e-01	 3.3696195710e+00
 1.3909595864e+00	 2.4147673543e-01	 3.2852078876e+00
 1.4184386040e+00	 1.2028263674e-01	 3.6152214451e+00
 1.4161529081e+00	 1.4473053292e-01	 3.5666614476e+00
 1.4134278450e+00	 1.6928589209e-01	 3.5083927394e+00
 1.4102567110e+00	 1.9393812185e-01	 3.4405167153e+00
 1.4066330987e+00	 2.1867627178e-01	 3.3633282329e+00
 1.4025509163e+00	 2.4348904156e-01	 3.2773452423e+00
 1.4301612371e+00	 1.2127670812e-01	 3.6099150782e+00
 1.4278566511e+00	 1.4592665303e-01	 3.5610852870e+00
 1.4251090668e+00	 1.7068494905e-01	 3.5025278998e+00
 1.4219117252e+00	 1.9554091624e-01	 3.4341668126e+00
 1.4182581656e+00	 2.2048351369e-01	 3.3561417948e+00
 1.4141422462e+00	 2.4550134769e-01	 3.2688384166e+00
 1.4418838702e+00	 1.2227077949e-01	 3.6033910852e+00
 1.4395603941e+00	 1.4712277314e-01	 3.5543373333e+00
 1.4367902887e+00	 1.7208400601e-01	 3.4954801541e+00
 1.4335667393e+00	 1.9714371064e-01	 3.4266282159e+00
 1.4298832325e+00	 2.2229075561e-01	 3.3478290214e+00
 1.4257335761e+00	 2.4751365382e-01	 3.2593987185e+00
 1.4536065033e+00	 1.2326485087e-01	 3.5955056802e+00
 1.4512641372e+00	 1.4831889324e-01	 3.5462694330e+00
 1.4484715105e+00	 1.7348306297e-01	 3.4870855748e+00
 1.4452217535e+00	 1.9874650503e-01	 3.4177087478e+00
 1.4415082995e+00	 2.2409799752e-01	 3.3381559208e+00
 1.4373249060e+00	 2.4952595995e-01	 3.2487356650e+00
 1.4653291364e+00	 1.2425892225e-01	 3.5861133530e+00
 1.4629678802e+00	 1.4951501335e-01	 3.5367308835e+00
 1.4601527324e+00	 1.7488211993e-01	 3.4771772203e+00
 1.4568767676e+00	 2.0034929943e-01	 3.4072131721e+00
 1.4531333664e+00	 2.2590523944e-01	 3.3268858752e+00
 1.4489162358e+00	 2.5153826608e-01	 3.2365571128e+00
 1.3909595864e+00	 2.4147673543e-01	 3.2852078876e+00
 1.3864506528e+00	 2.6614689943e-01	 3.1904762968e+00
 1.3814758757e+00	 2.9086764973e-01	 3.0845892767e+00
 1.3760302718e+00	 3.1562679846e-01	 2.9706361201e+00
 1.3701092489e+00	 3.4041185487e-01	 2.8520204286e+00
 1.3637086243e+00	 3.6521003942e-01	 2.7324708839e+00
 1.4025509163e+00	 2.4348904156e-01	 3.2773452423e+00
 1.3980044083e+00	 2.6836479026e-01	 3.1802997378e+00
 1.3929881747e+00	 2.9329154681e-01	 3.0716759215e+00
 1.3874971907e+00	 3.1825702178e-01	 2.9550537766e+00
 1.3815268259e+00	 3.4324862033e-01	 2.8343544858e+00
 1.3750728628e+00	 3.6825345642e-01	 2.7138486398e+00
 1.4141422462e+00	 2.4550134769e-01	 3.2688384166e+00
 1.4095581637e+00	 2.7058268109e-01	 3.1698971403e+00
 1.4045004736e+00	 2.9571544389e-01	 3.0590273499e+00
 1.3989641096e+00	 3.2088724510e-01	 2.9401898114e+00
 1.3929444030e+00	 3.4608538578e-01	 2.8177127499e+00
 1.3864371013e+00	 3.7129687341e-01	 2.6962979848e+00
 1.4257335761e+00	 2.4751365382e-01	 3.2593987185e+00
 1.4211119191e+00	 2.7280057192e-01	 3.1589164901e+00
 1.4160127726e+00	 2.9813934097e-01	 3.0462345674e+00
 1.4104310286e+00	 3.2351746842e-01	 2.9255876703e+00
 1.4043619801e+00	 3.4892215124e-01	 2.8016035840e+00
 1.3978013399e+00	 3.7434029041e-01	 2.6793076991e+00
 1.4373249060e+00	 2.4952595995e-01	 3.2487356650e+00
 1.4326656746e+00	 2.7501846274e-01	 3.1470052088e+00
 1.4275250715e+00	 3.0056323805e-01	 3.0328891258e+00
 1.4218979475e+00	 3.2614769174e-01	 2.9107922508e+00
 1.4157795572e+00	 3.5175891670e-01	 2.7855374123e+00
 1.4091655784e+00	 3.7738370740e-01	 2.6623688445e+00
 1.4489162358e+00	 2.5153826608e-01	 3.2365571128e+00
 1.4442194300e+00	 2.7723635357e-01	 3.1338102858e+00
 1.4390373705e+00	 3.0298713513e-01	 3.0185832706e+00
 1.4333648664e+00	 3.2877791506e-01	 2.8953500831e+00
 1.4271971342e+00	 3.5459568216e-01	 2.7690269573e+00
 1.4205298169e+00	 3.8042712440e-01	 2.6449750813e+00
 1.3637086243e+00	 3.6521003942e-01	 2.7324708839e+00
 1.3568246428e+00	 3.9000829908e-01	 2.6079892484e+00
 1.3494539945e+00	 4.1479332383e-01	 2.4722823669e+00
 1.3415938309e+00	 4.3955156433e-01	 2.3259110343e+00
 1.3332417813e+00	 4.6426925081e-01	 2.1694805124e+00
 1.3243959681e+00	 4.8893241299e-01	 2.0036539804e+00
 1.3750728628e+00	 3.6825345642e-01	 2.7138486398e+00
 1.3681315149e+00	 3.9325836824e-01	 2.5891087269e+00
 1.3606994445e+00	 4.1824993486e-01	 2.4527925088e+00
 1.3527737795e+00	 4.4321449403e-01	 2.3051015983e+00
 1.3443521295e+00	 4.6813816123e-01	 2.1463003461e+00
 1.3354326012e+00	 4.9300684976e-01	 1.9767324912e+00
 1.3864371013e+00	 3.7129687341e-01	 2.6962979848e+00
 1.3794383869e+00	 3.9650843740e-01	 2.5710605483e+00
 1.3719448944e+00	 4.2170654589e-01	 2.4337745188e+00
 1.3639537281e+00	 4.4687742374e-01	 2.2844640587e+00
 1.3554624777e+00	 4.7200707166e-01	 2.1232361160e+00
 1.3464692342e+00	 4.9708128654e-01	 1.9502994274e+00
 1.3978013399e+00	 3.7434029041e-01	 2.6793076991e+00
 1.3907452589e+00	 3.9975850656e-01	 2.5533215056e+00
 1.3831903444e+00	 4.2516315692e-01	 2.4146880759e+00
 1.3751336767e+00	 4.5054035344e-01	 2.2634315416e+00
 1.3665728259e+00	 4.7587598208e-01	 2.0996805476e+00
 1.3575058673e+00	 5.0115572331e-01	 1.9236887732e+00
 1.4091655784e+00	 3.7738370740e-01	 2.6623688445e+00
 1.4020521309e+00	 4.0300857572e-01	 2.5353707568e+00
 1.3944357943e+00	 4.2861976796e-01	 2.3949955782e+00
 1.3863136252e+00	 4.5420328314e-01	 2.2414406459e+00
 1.3776831741e+00	 4.7974489250e-01	 2.0750311206e+00
 1.3685425004e+00	 5.0523016009e-01	 1.8962412025e+00
 1.4205298169e+00	 3.8042712440e-01	 2.6449750813e+00
 1.4133590030e+00	 4.0625864488e-01	 2.5166902397e+00
 1.4056812443e+00	 4.3207637899e-01	 2.3741626520e+00
 1.3974935738e+00	 4.5786621285e-01	 2.2179320392e+00
 1.3887935222e+00	 4.8361380293e-01	 2.0486907382e+00
 1.3795791334e+00	 5.0930459686e-01	 1.8673048041e+00
 1.3243959681e+00	 4.8893241299e-01	 2.0036539804e+00
 1.3150550204e+00	 5.1352690114e-01	 1.8316618621e+00
 1.3052180876e+00	 5.3803840817e-01	 1.6615106352e+00
 1.2948848514e+00	 5.6245249266e-01	 1.5014149173e+00
 1.2840555365e+00	 5.8675460288e-01	 1.3600209969e+00
 1.2727309204e+00	 6.1093010157e-01	 1.2098048027e+00
 1.3354326012e+00	 4.9300684976e-01	 1.9767324912e+00
 1.3260138122e+00	 5.1780629198e-01	 1.8004119409e+00
 1.3160949050e+00	 5.4252206157e-01	 1.6272041410e+00
 1.3056755585e+00	 5.6713959677e-01	 1.4666644803e+00
 1.2947559993e+00	 5.9164422457e-01	 1.3280137305e+00
 1.2833370114e+00	 6.1602118575e-01	 1.1699378189e+00
 1.3464692342e+00	 4.9708128654e-01	 1.9502994274e+00
 1.3369726040e+00	 5.2208568283e-01	 1.7705355577e+00
 1.3269717224e+00	 5.4700571497e-01	 1.5954635516e+00
 1.3164662655e+00	 5.7182670087e-01	 1.4357268457e+00
 1.3054564621e+00	 5.9653384626e-01	 1.2977879268e+00
 1.2939431024e+00	 6.2111226993e-01	 1.1324581147e+00
 1.3575058673e+00	 5.0115572331e-01	 1.9236887732e+00
 1.3479313959e+00	 5.2636507367e-01	 1.7412933020e+00
 1.3378485398e+00	 5.5148936837e-01	 1.5654721190e+00
 1.3272569726e+00	 5.7651380498e-01	 1.4077100073e+00
 1.3161569249e+00	 6.0142346795e-01	 1.2683861289e+00
 1.3045491934e+00	 6.2620335411e-01	 1.0965793392e+00
 1.3685425004e+00	 5.0523016009e-01	 1.8962412025e+00
 1.3588901877e+00	 5.3064446451e-01	 1.7119549022e+00
 1.3487253572e+00	 5.5597302177e-01	 1.5364248258e+00
 1.3380476797e+00	 5.8120090908e-01	 1.3817361993e+00
 1.3268573877e+00	 6.0631308964e-01	 1.2390438245e+00
 1.3151552844e+00	 6.3129443829e-01	 1.0615553862e+00
 1.3795791334e+00	 5.0930459686e-01	 1.8673048041e+00
 1.3698489795e+00	 5.3492385536e-01	 1.6817999913e+00
 1.3596021745e+00	 5.6045667517e-01	 1.5075291899e+00
 1.3488383868e+00	 5.8588801319e-01	 1.3569427473e+00
 1.3375578505e+00	 6.1120271133e-01	 1.2090354069e+00
 1.3257613754e+00	 6.3638552247e-01	 1.0266793422e+00
 1.2727309204e+00	 6.1093010157e-01	 1.2098048027e+00
 1.2609123416e+00	 6.3496429158e-01	 1.0381131621e+00
 1.2486017064e+00	 6.5884244214e-01	 8.7166361578e-01
 1.2358014945e+00	 6.8254981578e-01	 7.0818441691e-01
 1.2225147628e+00	 7.0607169574e-01	 5.4518452897e-01
 1.2087451479e+00	 7.2939341384e-01	 3.8002251983e-01
 1.2833370114e+00	 6.1602118575e-01	 1.1699378189e+00
 1.2714199444e+00	 6.4025566067e-01	 9.9491978901e-01
 1.2590067206e+00	 6.6433279582e-01	 8.2816587597e-01
 1.2460998403e+00	 6.8823773091e-01	 6.6589131423e-01
 1.2327023858e+00	 7.1195562654e-01	 5.0404333441e-01
 1.2188180242e+00	 7.3547169229e-01	 3.3838046548e-01
 1.2939431024e+00	 6.2111226993e-01	 1.1324581147e+00
 1.2819275473e+00	 6.4554702977e-01	 9.5429063046e-01
 1.2694117348e+00	 6.6982314950e-01	 7.8699128530e-01
 1.2563981861e+00	 6.9392564604e-01	 6.2555718746e-01
 1.2428900088e+00	 7.1783955734e-01	 4.6467027483e-01
 1.2288909004e+00	 7.4154997074e-01	 2.9878549125e-01
 1.3045491934e+00	 6.2620335411e-01	 1.0965793392e+00
 1.2924351501e+00	 6.5083839887e-01	 9.1547061036e-01
 1.2798167491e+00	 6.7531350319e-01	 7.4741746369e-01
 1.2666965318e+00	 6.9961356117e-01	 5.8648645468e-01
 1.2530776319e+00	 7.2372348814e-01	 4.2638326216e-01
 1.2389637766e+00	 7.4762824919e-01	 2.6054822327e-01
 1.3151552844e+00	 6.3129443829e-01	 1.0615553862e+00
 1.3029427530e+00	 6.5612976796e-01	 8.7774479187e-01
 1.2902217633e+00	 6.8080385687e-01	 7.0876201627e-01
 1.2769948776e+00	 7.0530147630e-01	 5.4802356445e-01
 1.2632652549e+00	 7.2960741893e-01	 3.8854073114e-01
 1.2490366529e+00	 7.5370652764e-01	 2.2302099743e-01
 1.3257613754e+00	 6.3638552247e-01	 1.0266793422e+00
 1.3134503558e+00	 6.6142113706e-01	 8.4043729602e-01
 1.3006267775e+00	 6.8629421056e-01	 6.7038142799e-01
 1.2872932234e+00	 7.1098939143e-01	 5.0955186195e-01
 1.2734528779e+00	 7.3549134973e-01	 3.5054046376e-01
 1.2591095291e+00	 7.5978480608e-01	 1.8559661952e-01
 1.2087451479e+00	 7.2939341384e-01	 3.8002251983e-01
 1.1944968669e+00	 7.5250037859e-01	 2.2044623164e-01
 1.1797747163e+00	 7.7537810361e-01	 7.5786310466e-02
 1.1645840699e+00	 7.9801223604e-01	-5.9857769023e-02
 1.1489308744e+00	 8.2038858510e-01	-1.9651092958e-01
 1.1328216437e+00	 8.4249315036e-01	-3.2896613150e-01
 1.2188180242e+00	 7.3547169229e-01	 3.3838046548e-01
 1.2044510074e+00	 7.5877121508e-01	 1.7599748474e-01
 1.1896061723e+00	 7.8183958780e-01	 2.6901374162e-02
 1.1742889372e+00	 8.0466233801e-01	-1.0880783063e-01
 1.1585052984e+00	 8.2722515665e-01	-2.4151258469e-01
 1.1422618240e+00	 8.4951392661e-01	-3.7283215327e-01
 1.2288909004e+00	 7.4154997074e-01	 2.9878549125e-01
 1.2144051480e+00	 7.6504205157e-01	 1.3453032017e-01
 1.1994376282e+00	 7.8830107200e-01	-1.7614148485e-02
 1.1839938044e+00	 8.1131243998e-01	-1.5727147741e-01
 1.1680797223e+00	 8.3406172819e-01	-2.8615820122e-01
 1.1517020044e+00	 8.5653470286e-01	-4.1467665892e-01
 1.2389637766e+00	 7.4762824919e-01	 2.6054822327e-01
 1.2243592886e+00	 7.7131288806e-01	 9.5332260908e-02
 1.2092690842e+00	 7.9476255620e-01	-5.8497288443e-02
 1.1936986717e+00	 8.1796254194e-01	-2.0076317330e-01
 1.1776541463e+00	 8.4089829973e-01	-3.3087182373e-01
 1.1611421848e+00	 8.6355547912e-01	-4.5496634306e-01
 1.2490366529e+00	 7.5370652764e-01	 2.2302099743e-01
 1.2343134291e+00	 7.7758372455e-01	 5.7734264858e-02
 1.2191005402e+00	 8.0122404039e-01	-9.6439841395e-02
 1.2034035389e+00	 8.2461264391e-01	-2.3979889720e-01
 1.1872285702e+00	 8.4773487127e-01	-3.7222797240e-01
 1.1705823651e+00	 8.7057625537e-01	-4.9413716675e-01
 1.2591095291e+00	 7.5978480608e-01	 1.8559661952e-01
 1.2442675697e+00	 7.8385456104e-01	 2.1109404820e-02
 1.2289319961e+00	 8.0768552459e-01	-1.3208976472e-01
 1.2131084062e+00	 8.3126274588e-01	-2.7504276517e-01
 1.1968029942e+00	 8.5457144282e-01	-4.0838436626e-01
 1.1800225455e+00	 8.7759703162e-01	-5.3221472969e-01
 1.1328216437e+00	 8.4249315036e-01	-3.2896613150e-01
 1.1162634512e+00	 8.6431214986e-01	-4.5942907308e-01
 1.0992639208e+00	 8.8583204792e-01	-5.9127092524e-01
 1.0818312164e+00	 9.0703958240e-01	-7.1925808395e-01
 1.0639740287e+00	 9.2792179142e-01	-8.3722818589e-01
 1.0457015620e+00	 9.4846603943e-01	-9.3815622052e-01
 1.1422618240e+00	 8.4951392661e-01	-3.7283215327e-01
 1.1255656466e+00	 8.7151475111e-01	-5.0358623646e-01
 1.1084244535e+00	 8.9321398165e-01	-6.3588368988e-01
 1.0908464765e+00	 9.1459824559e-01	-7.6412425969e-01
 1.0728404790e+00	 9.3565447302e-01	-8.8173296725e-01
 1.0544157417e+00	 9.5636992310e-01	-9.8122923347e-01
 1.1517020044e+00	 8.5653470286e-01	-4.1467665892e-01
 1.1348678420e+00	 8.7871735236e-01	-5.4468275531e-01
 1.1175849862e+00	 9.0059591539e-01	-6.7689818335e-01
 1.0998617367e+00	 9.2215690877e-01	-8.0522547635e-01
 1.0817069292e+00	 9.4338715461e-01	-9.2254300072e-01
 1.0631299214e+00	 9.6427380676e-01	-1.0207778577e+00
 1.1611421848e+00	 8.6355547912e-01	-4.5496634306e-01
 1.1441700374e+00	 8.8591995361e-01	-5.8316637035e-01
 1.1267455189e+00	 9.0797784912e-01	-7.1474131844e-01
 1.1088769968e+00	 9.2971557196e-01	-8.4296928799e-01
 1.0905733794e+00	 9.5111983621e-01	-9.6005121157e-01
 1.0718441011e+00	 9.7217769042e-01	-1.0571882868e+00
 1.1705823651e+00	 8.7057625537e-01	-4.9413716675e-01
 1.1534722329e+00	 8.9312255486e-01	-6.1945366364e-01
 1.1359060515e+00	 9.1535978285e-01	-7.4980884322e-01
 1.1178922569e+00	 9.3727423515e-01	-8.7773240282e-01
 1.0994398297e+00	 9.5885251780e-01	-9.9462022589e-01
 1.0805582808e+00	 9.8008157408e-01	-1.0908170888e+00
 1.1800225455e+00	 8.7759703162e-01	-5.3221472969e-01
 1.1627744283e+00	 9.0032515610e-01	-6.5392902066e-01
 1.1450665842e+00	 9.2274171658e-01	-7.8246425771e-01
 1.1269075171e+00	 9.4483289833e-01	-9.0985955555e-01
 1.1083062799e+00	 9.6658519940e-01	-1.0265812036e+00
 1.0892724604e+00	 9.8798545774e-01	-1.1219900098e+00
 1.0457015620e+00	 9.4846603943e-01	-9.3815622052e-01
 1.0270235182e+00	 9.6866004241e-01	-1.0362806595e+00
 1.0079500800e+00	 9.8849189224e-01	-1.1446459697e+00
 9.8849189224e-01	 1.0079500800e+00	-1.2535973175e+00
 9.6866004241e-01	 1.0270235182e+00	-1.3532635701e+00
 9.4846603943e-01	 1.0457015620e+00	-1.4336952783e+00
 1.0544157417e+00	 9.5636992310e-01	-9.8122923347e-01
 1.0355820476e+00	 9.7673220943e-01	-1.0772354927e+00
 1.0163496640e+00	 9.9672932467e-01	-1.1834957070e+00
 9.9672932467e-01	 1.0163496640e+00	-1.2903211243e+00
 9.7673220943e-01	 1.0355820476e+00	-1.3877807560e+00
 9.5636992310e-01	 1.0544157417e+00	-1.4658437778e+00
 1.0631299214e+00	 9.6427380676e-01	-1.0207778577e+00
 1.0441405769e+00	 9.8480437646e-01	-1.1148219376e+00
 1.0247492480e+00	 1.0049667571e+00	-1.2191002303e+00
 1.0049667571e+00	 1.0247492480e+00	-1.3238943801e+00
 9.8480437646e-01	 1.0441405769e+00	-1.4192159970e+00
 9.6427380676e-01	 1.0631299214e+00	-1.4949535980e+00
 1.0718441011e+00	 9.7217769042e-01	-1.0571882868e+00
 1.0526991062e+00	 9.9287654348e-01	-1.1494265112e+00
 1.0331488320e+00	 1.0132041895e+00	-1.2518501063e+00
 1.0132041895e+00	 1.0331488320e+00	-1.3547147165e+00
 9.9287654348e-01	 1.0526991062e+00	-1.4479762082e+00
 9.7217769042e-01	 1.0718441011e+00	-1.5214422804e+00
 1.0805582808e+00	 9.8008157408e-01	-1.0908170888e+00
 1.0612576355e+00	 1.0009487105e+00	-1.1814069295e+00
 1.0415484160e+00	 1.0214416220e+00	-1.2821081712e+00
 1.0214416220e+00	 1.0415484160e+00	-1.3831533581e+00
 1.0009487105e+00	 1.0612576355e+00	-1.4744434783e+00
 9.8008157408e-01	 1.0805582808e+00	-1.5457043790e+00
 1.0892724604e+00	 9.8798545774e-01	-1.1219900098e+00
 1.0698161648e+00	 1.0090208775e+00	-1.2110908881e+00
 1.0499480000e+00	 1.0296790544e+00	-1.3102082940e+00
 1.0296790544e+00	 1.0499480000e+00	-1.4095538734e+00
 1.0090208775e+00	 1.0698161648e+00	-1.4989738100e+00
 9.8798545774e-01	 1.0892724604e+00	-1.5681101918e+00
 9.4846603943e-01	 1.0457015620e+00	-1.4336952783e+00
 9.2792179142e-01	 1.0639740287e+00	-1.5066929292e+00
 9.0703958240e-01	 1.0818312164e+00	-1.5861395117e+00
 8.8583204792e-01	 1.0992639208e+00	-1.6657283061e+00
 8.6431214986e-01	 1.1162634512e+00	-1.7399106887e+00
 8.4249315036e-01	 1.1328216437e+00	-1.8040210209e+00
 9.5636992310e-01	 1.0544157417e+00	-1.4658437778e+00
 9.3565447302e-01	 1.0728404790e+00	-1.5370928744e+00
 9.1459824559e-01	 1.0908464765e+00	-1.6157804806e+00
 8.9321398165e-01	 1.1084244535e+00	-1.6949014622e+00
 8.7151475111e-01	 1.1255656466e+00	-1.7682365512e+00
 8.4951392661e-01	 1.1422618240e+00	-1.8304864903e+00
 9.6427380676e-01	 1.0631299214e+00	-1.4949535980e+00
 9.4338715461e-01	 1.0817069292e+00	-1.5645070436e+00
 9.2215690877e-01	 1.0998617367e+00	-1.6424613304e+00
 9.0059591539e-01	 1.1175849862e+00	-1.7210055184e+00
 8.7871735236e-01	 1.1348678420e+00	-1.7931441988e+00
 8.5653470286e-01	 1.1517020044e+00	-1.8528417570e+00
 9.7217769042e-01	 1.0718441011e+00	-1.5214422804e+00
 9.5111983621e-01	 1.0905733794e+00	-1.5893676246e+00
 9.2971557196e-01	 1.1088769968e+00	-1.6666372569e+00
 9.0797784912e-01	 1.1267455189e+00	-1.7445285550e+00
 8.8591995361e-01	 1.1441700374e+00	-1.8151659140e+00
 8.6355547912e-01	 1.1611421848e+00	-1.8716759974e+00
 9.8008157408e-01	 1.0805582808e+00	-1.5457043790e+00
 9.5885251780e-01	 1.0994398297e+00	-1.6120857944e+00
 9.3727423515e-01	 1.1178922569e+00	-1.6887443847e+00
 9.1535978285e-01	 1.1359060515e+00	-1.7659413937e+00
 8.9312255486e-01	 1.1534722329e+00	-1.8348183162e+00
 8.7057625537e-01	 1.1705823651e+00	-1.8875640121e+00
 9.8798545774e-01	 1.0892724604e+00	-1.5681101918e+00
 9.6658519940e-01	 1.1083062799e+00	-1.6330504504e+00
 9.4483289833e-01	 1.1269075171e+00	-1.7091985096e+00
 9.2274171658e-01	 1.1450665842e+00	-1.7856963660e+00
 9.0032515610e-01	 1.1627744283e+00	-1.8526011737e+00
 8.7759703162e-01	 1.1800225455e+00	-1.9013111204e+00
 8.4249315036e-01	 1.1328216437e+00	-1.8040210209e+00
 8.2038858510e-01	 1.1489308744e+00	-1.8631763316e+00
 7.9801223604e-01	 1.1645840699e+00	-1.9175734154e+00
 7.7537810361e-01	 1.1797747163e+00	-1.9572760490e+00
 7.5250037859e-01	 1.1944968669e+00	-1.9901503341e+00
 7.2939341384e-01	 1.2087451479e+00	-2.0211594914e+00
 8.4951392661e-01	 1.1422618240e+00	-1.8304864903e+00
 8.2722515665e-01	 1.1585052984e+00	-1.8855575104e+00
 8.0466233801e-01	 1.1742889372e+00	-1.9323772042e+00
 7.8183958780e-01	 1.1896061723e+00	-1.9682234546e+00
 7.5877121508e-01	 1.2044510074e+00	-2.0017042171e+00
 7.3547169229e-01	 1.2188180242e+00	-2.0314179528e+00
 8.5653470286e-01	 1.1517020044e+00	-1.8528417570e+00
 8.3406172819e-01	 1.1680797223e+00	-1.9026932071e+00
 8.1131243998e-01	 1.1839938044e+00	-1.9427303835e+00
 7.8830107200e-01	 1.1994376282e+00	-1.9792883437e+00
 7.6504205157e-01	 1.2144051480e+00	-2.0124570131e+00
 7.4154997074e-01	 1.2288909004e+00	-2.0405369524e+00
 8.6355547912e-01	 1.1611421848e+00	-1.8716759974e+00
 8.4089829973e-01	 1.1776541463e+00	-1.9152762092e+00
 8.1796254194e-01	 1.1936986717e+00	-1.9537257978e+00
 7.9476255620e-01	 1.2092690842e+00	-1.9899673062e+00
 7.7131288806e-01	 1.2243592886e+00	-2.0219117227e+00
 7.4762824919e-01	 1.2389637766e+00	-2.0480000227e+00
 8.7057625537e-01	 1.1705823651e+00	-1.8875640121e+00
 8.4773487127e-01	 1.1872285702e+00	-1.9271025686e+00
 8.2461264391e-01	 1.2034035389e+00	-1.9650192382e+00
 8.0122404039e-01	 1.2191005402e+00	-1.9997430294e+00
 7.7758372455e-01	 1.2343134291e+00	-2.0295576586e+00
 7.5370652764e-01	 1.2490366529e+00	-2.0532780940e+00
 8.7759703162e-01	 1.1800225455e+00	-1.9013111204e+00
 8.5457144282e-01	 1.1968029942e+00	-1.9398897212e+00
 8.3126274588e-01	 1.2131084062e+00	-1.9760547365e+00
 8.0768552459e-01	 1.2289319961e+00	-2.0080851538e+00
 7.8385456104e-01	 1.2442675697e+00	-2.0348712298e+00
 7.5978480608e-01	 1.2591095291e+00	-2.0558301721e+00
 7.2939341384e-01	 1.2087451479e+00	-2.0211594914e+00
 7.0607169574e-01	 1.2225147628e+00	-2.0476591336e+00
 6.8254981578e-01	 1.2358014945e+00	-2.0686554913e+00
 6.5884244214e-01	 1.2486017064e+00	-2.0858606613e+00
 6.3496429158e-01	 1.2609123416e+00	-2.1011543785e+00
 6.1093010157e-01	 1.2727309204e+00	-2.1165264926e+00
 7.3547169229e-01	 1.2188180242e+00	-2.0314179528e+00
 7.1195562654e-01	 1.2327023858e+00	-2.0544139708e+00
 6.8823773091e-01	 1.2460998403e+00	-2.0703257254e+00
 6.6433279582e-01	 1.2590067206e+00	-2.0819072616e+00
 6.4025566067e-01	 1.2714199444e+00	-2.0920373646e+00
 6.1602118575e-01	 1.2833370114e+00	-2.1036554633e+00
 7.4154997074e-01	 1.2288909004e+00	-2.0405369524e+00
 7.1783955734e-01	 1.2428900088e+00	-2.0603469611e+00
 6.9392564604e-01	 1.2563981861e+00	-2.0718801108e+00
 6.6982314950e-01	 1.2694117348e+00	-2.0786593554e+00
 6.4554702977e-01	 1.2819275473e+00	-2.0842937463e+00
 6.2111226993e-01	 1.2939431024e+00	-2.0924089745e+00
 7.4762824919e-01	 1.2389637766e+00	-2.0480000227e+00
 7.2372348814e-01	 1.2530776319e+00	-2.0649089775e+00
 6.9961356117e-01	 1.2666965318e+00	-2.0727446159e+00
 6.7531350319e-01	 1.2798167491e+00	-2.0755323891e+00
 6.5083839887e-01	 1.2924351501e+00	-2.0773493200e+00
 6.2620335411e-01	 1.3045491934e+00	-2.0822503675e+00
 7.5370652764e-01	 1.2490366529e+00	-2.0532780940e+00
 7.2960741893e-01	 1.2632652549e+00	-2.0675398582e+00
 7.0530147630e-01	 1.2769948776e+00	-2.0723355670e+00
 6.8080385687e-01	 1.2902217633e+00	-2.0719331897e+00
 6.5612976796e-01	 1.3029427530e+00	-2.0706217180e+00
 6.3129443829e-01	 1.3151552844e+00	-2.0726345164e+00
 7.5978480608e-01	 1.2591095291e+00	-2.0558301721e+00
 7.3549134973e-01	 1.2734528779e+00	-2.0676689595e+00
 7.1098939143e-01	 1.2872932234e+00	-2.0700600855e+00
 6.8629421056e-01	 1.3006267775e+00	-2.0672603026e+00
 6.6142113706e-01	 1.3134503558e+00	-2.0635206748e+00
 6.3638552247e-01	 1.3257613754e+00	-2.0630080567e+00
 6.1093010157e-01	 1.2727309204e+00	-2.1165264926e+00
 5.8675460288e-01	 1.2840555365e+00	-2.1108402148e+00
 5.6245249266e-01	 1.2948848514e+00	-2.0850181149e+00
 5.3803840817e-01	 1.3052180876e+00	-2.0582152252e+00
 5.1352690114e-01	 1.3150550204e+00	-2.0326423463e+00
 4.8893241299e-01	 1.3243959681e+00	-2.0101300392e+00
 6.1602118575e-01	 1.2833370114e+00	-2.1036554633e+00
 5.9164422457e-01	 1.2947559993e+00	-2.0963168089e+00
 5.6713959677e-01	 1.3056755585e+00	-2.0641644824e+00
 5.4252206157e-01	 1.3160949050e+00	-2.0327657075e+00
 5.1780629198e-01	 1.3260138122e+00	-2.0039030099e+00
 4.9300684976e-01	 1.3354326012e+00	-1.9786294079e+00
 6.2111226993e-01	 1.2939431024e+00	-2.0924089745e+00
 5.9653384626e-01	 1.3054564621e+00	-2.0832605506e+00
 5.7182670087e-01	 1.3164662655e+00	-2.0455629659e+00
 5.4700571497e-01	 1.3269717224e+00	-2.0088834296e+00
 5.2208568283e-01	 1.3369726040e+00	-1.9761763660e+00
 4.9708128654e-01	 1.3464692342e+00	-1.9478820870e+00
 6.2620335411e-01	 1.3045491934e+00	-2.0822503675e+00
 6.0142346795e-01	 1.3161569249e+00	-2.0711243395e+00
 5.7651380498e-01	 1.3272569726e+00	-2.0288020939e+00
 5.5148936837e-01	 1.3378485398e+00	-1.9862175533e+00
 5.2636507367e-01	 1.3479313959e+00	-1.9491693436e+00
 5.0115572331e-01	 1.3575058673e+00	-1.9176454593e+00
 6.3129443829e-01	 1.3151552844e+00	-2.0726345164e+00
 6.0631308964e-01	 1.3268573877e+00	-2.0594203047e+00
 5.8120090908e-01	 1.3380476797e+00	-2.0134611227e+00
 5.5597302177e-01	 1.3487253572e+00	-1.9644078922e+00
 5.3064446451e-01	 1.3588901877e+00	-1.9225795318e+00
 5.0523016009e-01	 1.3685425004e+00	-1.8876677921e+00
 6.3638552247e-01	 1.3257613754e+00	-2.0630080567e+00
 6.1120271133e-01	 1.3375578505e+00	-2.0476514855e+00
 5.8588801319e-01	 1.3488383868e+00	-1.9991098853e+00
 5.6045667517e-01	 1.3596021745e+00	-1.9430848004e+00
 5.3492385536e-01	 1.3698489795e+00	-1.8960951051e+00
 5.0930459686e-01	 1.3795791334e+00	-1.8576881892e+00
 4.8893241299e-01	 1.3243959681e+00	-2.0101300392e+00
 4.6426925081e-01	 1.3332417813e+00	-1.9878428032e+00
 4.3955156433e-01	 1.3415938309e+00	-1.9619662001e+00
 4.1479332383e-01	 1.3494539945e+00	-1.9323062818e+00
 3.9000829908e-01	 1.3568246428e+00	-1.8983112519e+00
 3.6521003942e-01	 1.3637086243e+00	-1.8591222143e+00
 4.9300684976e-01	 1.3354326012e+00	-1.9786294079e+00
 4.6813816123e-01	 1.3443521295e+00	-1.9529070413e+00
 4.4321449403e-01	 1.3527737795e+00	-1.9225086257e+00
 4.1824993486e-01	 1.3606994445e+00	-1.8876631737e+00
 3.9325836824e-01	 1.3681315149e+00	-1.8482436709e+00
 3.6825345642e-01	 1.3750728628e+00	-1.8038170639e+00
 4.9708128654e-01	 1.3464692342e+00	-1.9478820870e+00
 4.7200707166e-01	 1.3554624777e+00	-1.9188576766e+00
 4.4687742374e-01	 1.3639537281e+00	-1.8843744658e+00
 4.2170654589e-01	 1.3719448944e+00	-1.8449653883e+00
 3.9650843740e-01	 1.3794383869e+00	-1.8008064205e+00
 3.7129687341e-01	 1.3864371013e+00	-1.7517665367e+00
 5.0115572331e-01	 1.3575058673e+00	-1.9176454593e+00
 4.7587598208e-01	 1.3665728259e+00	-1.8854793823e+00
 4.5054035344e-01	 1.3751336767e+00	-1.8473412619e+00
 4.2516315692e-01	 1.3831903444e+00	-1.8039514702e+00
 3.9975850656e-01	 1.3907452589e+00	-1.7556698003e+00
 3.7434029041e-01	 1.3978013399e+00	-1.7025461103e+00
 5.0523016009e-01	 1.3685425004e+00	-1.8876677921e+00
 4.7974489250e-01	 1.3776831741e+00	-1.8525486552e+00
 4.5420328314e-01	 1.3863136252e+00	-1.8111803861e+00
 4.2861976796e-01	 1.3944357943e+00	-1.7643567750e+00
 4.0300857572e-01	 1.4020521309e+00	-1.7125047824e+00
 3.7738370740e-01	 1.4091655784e+00	-1.6557365824e+00
 5.0930459686e-01	 1.3795791334e+00	-1.8576881892e+00
 4.8361380293e-01	 1.3887935222e+00	-1.8198337654e+00
 4.5786621285e-01	 1.3974935738e+00	-1.7756569429e+00
 4.3207637899e-01	 1.4056812443e+00	-1.7259132845e+00
 4.0625864488e-01	 1.4133590030e+00	-1.6709827025e+00
 3.8042712440e-01	 1.4205298169e+00	-1.6109236057e+00
 3.6521003942e-01	 1.3637086243e+00	-1.8591222143e+00
 3.4041185487e-01	 1.3701092489e+00	-1.8179600128e+00
 3.1562679846e-01	 1.3760302718e+00	-1.7789334432e+00
 2.9086764973e-01	 1.3814758757e+00	-1.7422213098e+00
 2.6614689943e-01	 1.3864506528e+00	-1.7078974270e+00
 2.4147673543e-01	 1.3909595864e+00	-1.6759507810e+00
 3.6825345642e-01	 1.3750728628e+00	-1.8038170639e+00
 3.4324862033e-01	 1.3815268259e+00	-1.7582015593e+00
 3.1825702178e-01	 1.3874971907e+00	-1.7156268057e+00
 2.9329154681e-01	 1.3929881747e+00	-1.6759787335e+00
 2.6836479026e-01	 1.3980044083e+00	-1.6390346201e+00
 2.4348904156e-01	 1.4025509163e+00	-1.6044855037e+00
 3.7129687341e-01	 1.3864371013e+00	-1.7517665367e+00
 3.4608538578e-01	 1.3929444030e+00	-1.7021160563e+00
 3.2088724510e-01	 1.3989641096e+00	-1.6561757049e+00
 2.9571544389e-01	 1.4045004736e+00	-1.6135926946e+00
 2.7058268109e-01	 1.4095581637e+00	-1.5739092739e+00
 2.4550134769e-01	 1.4141422462e+00	-1.5365868199e+00
 3.7434029041e-01	 1.3978013399e+00	-1.7025461103e+00
 3.4892215124e-01	 1.4043619801e+00	-1.6491976920e+00
 3.2351746842e-01	 1.4104310286e+00	-1.6000436876e+00
 2.9813934097e-01	 1.4160127726e+00	-1.5545448960e+00
 2.7280057192e-01	 1.4211119191e+00	-1.5120681144e+00
 2.4751365382e-01	 1.4257335761e+00	-1.4719113436e+00
 3.7738370740e-01	 1.4091655784e+00	-1.6557365824e+00
 3.5175891670e-01	 1.4157795572e+00	-1.5989501078e+00
 3.2614769174e-01	 1.4218979475e+00	-1.5467061693e+00
 3.0056323805e-01	 1.4275250715e+00	-1.4983296611e+00
 2.7501846274e-01	 1.4326656746e+00	-1.4530696354e+00
 2.4952595995e-01	 1.4373249060e+00	-1.4101250603e+00
 3.8042712440e-01	 1.4205298169e+00	-1.6109236057e+00
 3.5459568216e-01	 1.4271971342e+00	-1.5508857957e+00
 3.2877791506e-01	 1.4333648664e+00	-1.4956497604e+00
 3.0298713513e-01	 1.4390373705e+00	-1.4444532553e+00
 2.7723635357e-01	 1.4442194300e+00	-1.3964834765e+00
 2.5153826608e-01	 1.4489162358e+00	-1.3509028223e+00
 2.4147673543e-01	 1.3909595864e+00	-1.6759507810e+00
 2.1686902986e-01	 1.3950080318e+00	-1.6464017887e+00
 1.9233532745e-01	 1.3986016969e+00	-1.6193172654e+00
 1.6788683513e-01	 1.4017466231e+00	-1.5946913188e+00
 1.4353441282e-01	 1.4044491650e+00	-1.5725059306e+00
 1.1928856536e-01	 1.4067159710e+00	-1.5527320350e+00
 2.4348904156e-01	 1.4025509163e+00	-1.6044855037e+00
 2.1867627178e-01	 1.4066330987e+00	-1.5722888452e+00
 1.9393812185e-01	 1.4102567110e+00	-1.5427063997e+00
 1.6928589209e-01	 1.4134278450e+00	-1.5158367434e+00
 1.4473053292e-01	 1.4161529081e+00	-1.4917857255e+00
 1.2028263674e-01	 1.4184386040e+00	-1.4706660022e+00
 2.4550134769e-01	 1.4141422462e+00	-1.5365868199e+00
 2.2048351369e-01	 1.4182581656e+00	-1.5016455523e+00
 1.9554091624e-01	 1.4219117252e+00	-1.4695971466e+00
 1.7068494905e-01	 1.4251090668e+00	-1.4406075426e+00
 1.4592665303e-01	 1.4278566511e+00	-1.4148643157e+00
 1.2127670812e-01	 1.4301612371e+00	-1.3925750807e+00
 2.4751365382e-01	 1.4257335761e+00	-1.4719113436e+00
 2.2229075561e-01	 1.4298832325e+00	-1.4342365133e+00
 1.9714371064e-01	 1.4335667393e+00	-1.3998155175e+00
 1.7208400601e-01	 1.4367902887e+00	-1.3688457036e+00
 1.4712277314e-01	 1.4395603941e+00	-1.3415554841e+00
 1.2227077949e-01	 1.4418838702e+00	-1.3182020159e+00
 2.4952595995e-01	 1.4373249060e+00	-1.4101250603e+00
 2.2409799752e-01	 1.4415082995e+00	-1.3698332704e+00
 1.9874650503e-01	 1.4452217535e+00	-1.3331934329e+00
 1.7348306297e-01	 1.4484715105e+00	-1.3003994596e+00
 1.4831889324e-01	 1.4512641372e+00	-1.2716809229e+00
 1.2326485087e-01	 1.4536065033e+00	-1.2473004097e+00
 2.5153826608e-01	 1.4489162358e+00	-1.3509028223e+00
 2.2590523944e-01	 1.4531333664e+00	-1.3082139160e+00
 2.0034929943e-01	 1.4568767676e+00	-1.2695683935e+00
 1.7488211993e-01	 1.4601527324e+00	-1.2351229634e+00
 1.4951501335e-01	 1.4629678802e+00	-1.2050698554e+00
 1.2425892225e-01	 1.4653291364e+00	-1.1796342381e+00
 1.1928856536e-01	 1.4067159710e+00	-1.5527320350e+00
 9.5159435731e-02	 1.4085539630e+00	-1.5357811908e+00
 7.1156799295e-02	 1.4099703170e+00	-1.5225544648e+00
 4.7290059228e-02	 1.4109724431e+00	-1.5136955030e+00
 2.3568243017e-02	 1.4115679660e+00	-1.5097705371e+00
 0.0000000000e+00	 1.4117647059e+00	-1.5112588065e+00
 1.2028263674e-01	 1.4184386040e+00	-1.4706660022e+00
 9.5952431028e-02	 1.4202919126e+00	-1.4528666031e+00
 7.1749772622e-02	 1.4217200696e+00	-1.4390497266e+00
 4.7684143055e-02	 1.4227305468e+00	-1.4296887790e+00
 2.3764645042e-02	 1.4233310324e+00	-1.4251802376e+00
 0.0000000000e+00	 1.4235294118e+00	-1.4258343616e+00
 1.2127670812e-01	 1.4301612371e+00	-1.3925750807e+00
 9.6745426326e-02	 1.4320298623e+00	-1.3740146155e+00
 7.2342745949e-02	 1.4334698222e+00	-1.3595845844e+00
 4.8078226882e-02	 1.4344886504e+00	-1.3496476174e+00
 2.3961047067e-02	 1.4350940988e+00	-1.3444952491e+00
 0.0000000000e+00	 1.4352941176e+00	-1.3443383410e+00
 1.2227077949e-01	 1.4418838702e+00	-1.3182020159e+00
 9.7538421624e-02	 1.4437678120e+00	-1.2988997125e+00
 7.2935719277e-02	 1.4452195749e+00	-1.2838116115e+00
 4.8472310709e-02	 1.4462467541e+00	-1.2732473389e+00
 2.4157449092e-02	 1.4468571652e+00	-1.2674565477e+00
 0.0000000000e+00	 1.4470588235e+00	-1.2666184790e+00
 1.2326485087e-01	 1.4536065033e+00	-1.2473004097e+00
 9.8331416922e-02	 1.4555057617e+00	-1.2272099972e+00
 7.3528692604e-02	 1.4569693275e+00	-1.2113981745e+00
 4.8866394536e-02	 1.4580048578e+00	-1.2001777021e+00
 2.4353851117e-02	 1.4586202316e+00	-1.1938177221e+00
 0.0000000000e+00	 1.4588235294e+00	-1.1925318902e+00
 1.2425892225e-01	 1.4653291364e+00	-1.1796342381e+00
 9.9124412219e-02	 1.4672437114e+00	-1.1586466115e+00
 7.4121665932e-02	 1.4687190802e+00	-1.1420258168e+00
 4.9260478362e-02	 1.4697629615e+00	-1.1301423108e+00
 2.4550253142e-02	 1.4703832979e+00	-1.1233444617e+00
 0.0000000000e+00	 1.4705882353e+00	-1.1219446932e+00
 1.4705882353e+00	 0.0000000000e+00	 3.7025111922e+00
 1.4703832979e+00	 2.4550253142e-02	 3.6957491154e+00
 1.4697629615e+00	 4.9260478362e-02	 3.6810210257e+00
 1.4687190802e+00	 7.4121665932e-02	 3.6579512030e+00
 1.4672437114e+00	 9.9124412219e-02	 3.6263207245e+00
 1.4653291364e+00	 1.2425892225e-01	 3.5861133530e+00
 1.4823529412e+00	 0.0000000000e+00	 3.6925147734e+00
 1.4821463643e+00	 2.4746655167e-02	 3.6853341026e+00
 1.4815210652e+00	 4.9654562189e-02	 3.6704032624e+00
 1.4804688328e+00	 7.4714639259e-02	 3.6472556032e+00
 1.4789816611e+00	 9.9917407517e-02	 3.6156145003e+00
 1.4770517695e+00	 1.2525299363e-01	 3.5754394861e+00
 1.4941176471e+00	 0.0000000000e+00	 3.6814252081e+00
 1.4939094307e+00	 2.4943057193e-02	 3.6738520666e+00
 1.4932791689e+00	 5.0048646016e-02	 3.6587171168e+00
 1.4922185854e+00	 7.5307612587e-02	 3.6354836795e+00
 1.4907196108e+00	 1.0071040281e-01	 3.6038380084e+00
 1.4887744026e+00	 1.2624706501e-01	 3.5637353906e+00
 1.5058823529e+00	 0.0000000000e+00	 3.6690963709e+00
 1.5056724971e+00	 2.5139459218e-02	 3.6612013328e+00
 1.5050372726e+00	 5.0442729843e-02	 3.6458868135e+00
 1.5039683381e+00	 7.5900585914e-02	 3.6225669113e+00
 1.5024575605e+00	 1.0150339811e-01	 3.5909112854e+00
 1.5004970357e+00	 1.2724113638e-01	 3.5508909455e+00
 1.5176470588e+00	 0.0000000000e+00	 3.6553842205e+00
 1.5174355635e+00	 2.5335861243e-02	 3.6472803442e+00
 1.5167953763e+00	 5.0836813670e-02	 3.6318351796e+00
 1.5157180907e+00	 7.6493559242e-02	 3.6084343502e+00
 1.5141955102e+00	 1.0229639341e-01	 3.5767514277e+00
 1.5122196688e+00	 1.2823520776e-01	 3.5367931245e+00
 1.5294117647e+00	 0.0000000000e+00	 3.6401467204e+00
 1.5291986299e+00	 2.5532263268e-02	 3.6319876387e+00
 1.5285534800e+00	 5.1230897497e-02	 3.6164836662e+00
 1.5274678434e+00	 7.7086532569e-02	 3.5930126720e+00
 1.5259334599e+00	 1.0308938871e-01	 3.5612726586e+00
 1.5239423019e+00	 1.2922927914e-01	 3.5213260658e+00
 1.4653291364e+00	 1.2425892225e-01	 3.5861133530e+00
 1.4629678802e+00	 1.4951501335e-01	 3.5367308835e+00
 1.4601527324e+00	 1.7488211993e-01	 3.4771772203e+00
 1.4568767676e+00	 2.0034929943e-01	 3.4072131721e+00
 1.4531333664e+00	 2.2590523944e-01	 3.3268858752e+00
 1.4489162358e+00	 2.5153826608e-01	 3.2365571128e+00
 1.4770517695e+00	 1.2525299363e-01	 3.5754394861e+00
 1.4746716233e+00	 1.5071113346e-01	 3.5259779617e+00
 1.4718339543e+00	 1.7628117689e-01	 3.4660884867e+00
 1.4685317818e+00	 2.0195209382e-01	 3.3955656268e+00
 1.4647584333e+00	 2.2771248135e-01	 3.3145152064e+00
 1.4605075657e+00	 2.5355057221e-01	 3.2233814319e+00
 1.4887744026e+00	 1.2624706501e-01	 3.5637353906e+00
 1.4863753663e+00	 1.5190725356e-01	 3.5142713686e+00
 1.4835151761e+00	 1.7768023385e-01	 3.4541454809e+00
 1.4801867959e+00	 2.0355488822e-01	 3.3831821475e+00
 1.4763835003e+00	 2.2951972327e-01	 3.3015433246e+00
 1.4720988956e+00	 2.5556287833e-01	 3.2097543674e+00
 1.5004970357e+00	 1.2724113638e-01	 3.5508909455e+00
 1.4980791093e+00	 1.5310337367e-01	 3.5014631438e+00
 1.4951963980e+00	 1.7907929081e-01	 3.4411662329e+00
 1.4918418100e+00	 2.0515768262e-01	 3.3698512859e+00
 1.4880085672e+00	 2.3132696519e-01	 3.2877345036e+00
 1.4836902255e+00	 2.5757518446e-01	 3.1954217416e+00
 1.5122196688e+00	 1.2823520776e-01	 3.5367931245e+00
 1.5097828524e+00	 1.5429949378e-01	 3.4874026936e+00
 1.5068776198e+00	 1.8047834777e-01	 3.4269663187e+00
 1.5034968242e+00	 2.0676047701e-01	 3.3553592322e+00
 1.4996336341e+00	 2.3313420710e-01	 3.2728506646e+00
 1.4952815554e+00	 2.5958749059e-01	 3.1801269527e+00
 1.5239423019e+00	 1.2922927914e-01	 3.5213260658e+00
 1.5214865954e+00	 1.5549561388e-01	 3.4719368597e+00
 1.5185588417e+00	 1.8187740473e-01	 3.4113589405e+00
 1.5151518383e+00	 2.0836327141e-01	 3.3394899185e+00
 1.5112587011e+00	 2.3494144902e-01	 3.2566515162e+00
 1.5068728853e+00	 2.6159979672e-01	 3.1636111648e+00
 1.4489162358e+00	 2.5153826608e-01	 3.2365571128e+00
 1.4442194300e+00	 2.7723635357e-01	 3.1338102858e+00
 1.4390373705e+00	 3.0298713513e-01	 3.0185832706e+00
 1.4333648664e+00	 3.2877791506e-01	 2.8953500831e+00
 1.4271971342e+00	 3.5459568216e-01	 2.7690269573e+00
 1.4205298169e+00	 3.8042712440e-01	 2.6449750813e+00
 1.4605075657e+00	 2.5355057221e-01	 3.2233814319e+00
 1.4557731855e+00	 2.7945424440e-01	 3.1198091494e+00
 1.4505496695e+00	 3.0541103221e-01	 3.0037275670e+00
 1.4448317854e+00	 3.3140813838e-01	 2.8796221464e+00
 1.4386147113e+00	 3.5743244761e-01	 2.7524429821e+00
 1.4318940555e+00	 3.8347054140e-01	 2.6276070529e+00
 1.4720988956e+00	 2.5556287833e-01	 3.2097543674e+00
 1.4673269409e+00	 2.8167213523e-01	 3.1055310866e+00
 1.4620619684e+00	 3.0783492929e-01	 2.9887945464e+00
 1.4562987043e+00	 3.3403836170e-01	 2.8640256956e+00
 1.4500322884e+00	 3.6026921307e-01	 2.7361896338e+00
 1.4432582940e+00	 3.8651395839e-01	 2.6107373051e+00
 1.4836902255e+00	 2.5757518446e-01	 3.1954217416e+00
 1.4788806963e+00	 2.8389002606e-01	 3.0906988146e+00
 1.4735742674e+00	 3.1025882637e-01	 2.9734687690e+00
 1.4677656232e+00	 3.3666858502e-01	 2.8481927901e+00
 1.4614498655e+00	 3.6310597853e-01	 2.7198328220e+00
 1.4546225325e+00	 3.8955737539e-01	 2.5938526263e+00
 1.4952815554e+00	 2.5958749059e-01	 3.1801269527e+00
 1.4904344518e+00	 2.8610791689e-01	 3.0750328184e+00
 1.4850865664e+00	 3.1268272346e-01	 2.9574333571e+00
 1.4792325422e+00	 3.3929880834e-01	 2.8317554362e+00
 1.4728674425e+00	 3.6594274398e-01	 2.7029403641e+00
 1.4659867711e+00	 3.9260079238e-01	 2.5764442326e+00
 1.5068728853e+00	 2.6159979672e-01	 3.1636111648e+00
 1.5019882072e+00	 2.8832580772e-01	 3.0582515912e+00
 1.4965988653e+00	 3.1510662054e-01	 2.9403702717e+00
 1.4906994611e+00	 3.4192903166e-01	 2.8143458883e+00
 1.4842850196e+00	 3.6877950944e-01	 2.6850823009e+00
 1.4773510096e+00	 3.9564420938e-01	 2.5580080854e+00
 1.4205298169e+00	 3.8042712440e-01	 2.6449750813e+00
 1.4133590030e+00	 4.0625864488e-01	 2.5166902397e+00
 1.4056812443e+00	 4.3207637899e-01	 2.3741626520e+00
 1.3974935738e+00	 4.5786621285e-01	 2.2179320392e+00
 1.3887935222e+00	 4.8361380293e-01	 2.0486907382e+00
 1.3795791334e+00	 5.0930459686e-01	 1.8673048041e+00
 1.4318940555e+00	 3.8347054140e-01	 2.6276070529e+00
 1.4246658750e+00	 4.0950871404e-01	 2.4979874015e+00
 1.4169266942e+00	 4.3553299002e-01	 2.3531847939e+00
 1.4086735224e+00	 4.6152914255e-01	 2.1941819721e+00
 1.3999038704e+00	 4.8748271335e-01	 2.0221417925e+00
 1.3906157665e+00	 5.1337903364e-01	 1.8384278090e+00
 1.4432582940e+00	 3.8651395839e-01	 2.6107373051e+00
 1.4359727470e+00	 4.1275878320e-01	 2.4799184087e+00
 1.4281721442e+00	 4.3898960105e-01	 2.3329806086e+00
 1.4198534710e+00	 4.6519207225e-01	 2.1713839592e+00
 1.4110142186e+00	 4.9135162378e-01	 1.9968000364e+00
 1.4016523996e+00	 5.1745347041e-01	 1.8111319881e+00
 1.4546225325e+00	 3.8955737539e-01	 2.5938526263e+00
 1.4472796190e+00	 4.1600885236e-01	 2.4618956335e+00
 1.4394175941e+00	 4.4244621208e-01	 2.3129096122e+00
 1.4310334196e+00	 4.6885500195e-01	 2.1488655520e+00
 1.4221245668e+00	 4.9522053420e-01	 1.9719811433e+00
 1.4126890326e+00	 5.2152790719e-01	 1.7847402870e+00
 1.4659867711e+00	 3.9260079238e-01	 2.5764442326e+00
 1.4585864911e+00	 4.1925892152e-01	 2.4433384032e+00
 1.4506630441e+00	 4.4590282312e-01	 2.2923402820e+00
 1.4422133682e+00	 4.7251793166e-01	 2.1259647561e+00
 1.4332349149e+00	 4.9908944462e-01	 1.9470122292e+00
 1.4237256657e+00	 5.2560234396e-01	 1.7585875838e+00
 1.4773510096e+00	 3.9564420938e-01	 2.5580080854e+00
 1.4698933631e+00	 4.2250899067e-01	 2.4236733308e+00
 1.4619084940e+00	 4.4935943415e-01	 2.2706504294e+00
 1.4533933168e+00	 4.7618086136e-01	 2.1020304753e+00
 1.4443452631e+00	 5.0295835505e-01	 1.9212323958e+00
 1.4347622988e+00	 5.2967678074e-01	 1.7320213586e+00
 1.3795791334e+00	 5.0930459686e-01	 1.8673048041e+00
 1.3698489795e+00	 5.3492385536e-01	 1.6817999913e+00
 1.3596021745e+00	 5.6045667517e-01	 1.5075291899e+00
 1.3488383868e+00	 5.8588801319e-01	 1.3569427473e+00
 1.3375578505e+00	 6.1120271133e-01	 1.2090354069e+00
 1.3257613754e+00	 6.3638552247e-01	 1.0266793422e+00
 1.3906157665e+00	 5.1337903364e-01	 1.8384278090e+00
 1.3808077714e+00	 5.3920324620e-01	 1.6522631718e+00
 1.3704789919e+00	 5.6494032858e-01	 1.4799848778e+00
 1.3596290939e+00	 5.9057511729e-01	 1.3339147626e+00
 1.3482583133e+00	 6.1609233302e-01	 1.1792669933e+00
 1.3363674664e+00	 6.4147660665e-01	 9.9280136910e-01
 1.4016523996e+00	 5.1745347041e-01	 1.8111319881e+00
 1.3917665632e+00	 5.4348263704e-01	 1.6247965838e+00
 1.3813558093e+00	 5.6942398198e-01	 1.4550334681e+00
 1.3704198010e+00	 5.9526222140e-01	 1.3116485321e+00
 1.3589587761e+00	 6.2098195471e-01	 1.1506837109e+00
 1.3469735574e+00	 6.4656769083e-01	 9.6075875240e-01
 1.4126890326e+00	 5.2152790719e-01	 1.7847402870e+00
 1.4027253551e+00	 5.4776202788e-01	 1.5987231227e+00
 1.3922326267e+00	 5.7390763538e-01	 1.4319656164e+00
 1.3812105081e+00	 5.9994932550e-01	 1.2892147522e+00
 1.3696592389e+00	 6.2587157640e-01	 1.1226737858e+00
 1.3575796484e+00	 6.5165877501e-01	 9.2988269679e-01
 1.4237256657e+00	 5.2560234396e-01	 1.7585875838e+00
 1.4136841469e+00	 5.5204141873e-01	 1.5733784036e+00
 1.4031094441e+00	 5.7839128878e-01	 1.4100865224e+00
 1.3920012152e+00	 6.0463642961e-01	 1.2660657476e+00
 1.3803597017e+00	 6.3076119809e-01	 1.0946603176e+00
 1.3681857394e+00	 6.5674985919e-01	 8.9954173853e-01
 1.4347622988e+00	 5.2967678074e-01	 1.7320213586e+00
 1.4246429387e+00	 5.5632080957e-01	 1.5481115519e+00
 1.4139862615e+00	 5.8287494218e-01	 1.3887168057e+00
 1.4027919223e+00	 6.0932353372e-01	 1.2416861926e+00
 1.3910601645e+00	 6.3565081979e-01	 1.0661003153e+00
 1.3787918304e+00	 6.6184094337e-01	 8.6914064236e-01
 1.3257613754e+00	 6.3638552247e-01	 1.0266793422e+00
 1.3134503558e+00	 6.6142113706e-01	 8.4043729602e-01
 1.3006267775e+00	 6.8629421056e-01	 6.7038142799e-01
 1.2872932234e+00	 7.1098939143e-01	 5.0955186195e-01
 1.2734528779e+00	 7.3549134973e-01	 3.5054046376e-01
 1.2591095291e+00	 7.5978480608e-01	 1.8559661952e-01
 1.3363674664e+00	 6.4147660665e-01	 9.9280136910e-01
 1.3239579587e+00	 6.6671250616e-01	 8.0450233114e-01
 1.3110317917e+00	 6.9178456424e-01	 6.3341215521e-01
 1.2975915692e+00	 7.1667730656e-01	 4.7235684415e-01
 1.2836405009e+00	 7.4137528053e-01	 3.1367505472e-01
 1.2691824053e+00	 7.6586308453e-01	 1.4932742691e-01
 1.3469735574e+00	 6.4656769083e-01	 9.6075875240e-01
 1.3344655615e+00	 6.7200387525e-01	 7.7082612238e-01
 1.3214368059e+00	 6.9727491793e-01	 5.9889259823e-01
 1.3078899150e+00	 7.2236522170e-01	 4.3762446618e-01
 1.2938281240e+00	 7.4725921133e-01	 2.7916816154e-01
 1.2792552815e+00	 7.7194136298e-01	 1.1526295560e-01
 1.3575796484e+00	 6.5165877501e-01	 9.2988269679e-01
 1.3449731644e+00	 6.7729524435e-01	 7.3868988623e-01
 1.3318418202e+00	 7.0276527161e-01	 5.6609193314e-01
 1.3181882608e+00	 7.2805313683e-01	 4.0464852420e-01
 1.3040157470e+00	 7.5314314212e-01	 2.4637341328e-01
 1.2893281578e+00	 7.7801964143e-01	 8.2850271254e-02
 1.3681857394e+00	 6.5674985919e-01	 8.9954173853e-01
 1.3554807672e+00	 6.8258661345e-01	 7.0741440687e-01
 1.3422468344e+00	 7.0825562530e-01	 5.3431997650e-01
 1.3284866066e+00	 7.3374105196e-01	 3.7276341905e-01
 1.3142033700e+00	 7.5902707292e-01	 2.1468395667e-01
 1.2994010340e+00	 7.8409791988e-01	 5.1573878075e-02
 1.3787918304e+00	 6.6184094337e-01	 8.6914064236e-01
 1.3659883701e+00	 6.8787798254e-01	 6.7635880483e-01
 1.3526518486e+00	 7.1374597898e-01	 5.0292587394e-01
 1.3387849524e+00	 7.3942896709e-01	 3.4134281176e-01
 1.3243909930e+00	 7.6491100372e-01	 1.8353112382e-01
 1.3094739102e+00	 7.9017619833e-01	 2.0954442827e-02
 1.2591095291e+00	 7.5978480608e-01	 1.8559661952e-01
 1.2442675697e+00	 7.8385456104e-01	 2.1109404820e-02
 1.2289319961e+00	 8.0768552459e-01	-1.3208976472e-01
 1.2131084062e+00	 8.3126274588e-01	-2.7504276517e-01
 1.1968029942e+00	 8.5457144282e-01	-4.0838436626e-01
 1.1800225455e+00	 8.7759703162e-01	-5.3221472969e-01
 1.2691824053e+00	 7.6586308453e-01	 1.4932742691e-01
 1.2542217102e+00	 7.9012539752e-01	-1.4032342699e-02
 1.2387634521e+00	 8.1414700879e-01	-1.6565981327e-01
 1.2228132734e+00	 8.3791284785e-01	-3.0744890427e-01
 1.2063774181e+00	 8.6140801436e-01	-4.4089475042e-01
 1.1894627259e+00	 8.8461780787e-01	-5.6695642167e-01
 1.2792552815e+00	 7.7194136298e-01	 1.1526295560e-01
 1.2641758508e+00	 7.9639623401e-01	-4.7103611141e-02
 1.2485949081e+00	 8.2060849298e-01	-1.9721818593e-01
 1.2325181407e+00	 8.4456294981e-01	-3.3777776109e-01
 1.2159518421e+00	 8.6824458590e-01	-4.7109310299e-01
 1.1989029062e+00	 8.9163858413e-01	-5.9894183300e-01
 1.2893281578e+00	 7.7801964143e-01	 8.2850271254e-02
 1.2741299913e+00	 8.0266707050e-01	-7.8557307599e-02
 1.2584263641e+00	 8.2706997718e-01	-2.2713800985e-01
 1.2422230079e+00	 8.5121305178e-01	-3.6634440026e-01
 1.2255262661e+00	 8.7508115744e-01	-4.9925961238e-01
 1.2083430866e+00	 8.9865936038e-01	-6.2844092354e-01
 1.2994010340e+00	 7.8409791988e-01	 5.1573878075e-02
 1.2840841319e+00	 8.0893790699e-01	-1.0881112784e-01
 1.2682578200e+00	 8.3353146138e-01	-2.5575874123e-01
 1.2519278752e+00	 8.5786315375e-01	-3.9343102433e-01
 1.2351006900e+00	 8.8191772899e-01	-5.2564164095e-01
 1.2177832670e+00	 9.0568013663e-01	-6.5569005320e-01
 1.3094739102e+00	 7.9017619833e-01	 2.0954442827e-02
 1.2940382725e+00	 8.1520874348e-01	-1.3824876411e-01
 1.2780892760e+00	 8.3999294557e-01	-2.8338732461e-01
 1.2616327424e+00	 8.6451325571e-01	-4.1928810520e-01
 1.2446751140e+00	 8.8875430053e-01	-5.5045485107e-01
 1.2272234473e+00	 9.1270091289e-01	-6.8089312615e-01
 1.1800225455e+00	 8.7759703162e-01	-5.3221472969e-01
 1.1627744283e+00	 9.0032515610e-01	-6.5392902066e-01
 1.1450665842e+00	 9.2274171658e-01	-7.8246425771e-01
 1.1269075171e+00	 9.4483289833e-01	-9.0985955555e-01
 1.1083062799e+00	 9.6658519940e-01	-1.0265812036e+00
 1.0892724604e+00	 9.8798545774e-01	-1.1219900098e+00
 1.1894627259e+00	 8.8461780787e-01	-5.6695642167e-01
 1.1720766237e+00	 9.0752775735e-01	-6.8811132869e-01
 1.1542271169e+00	 9.3012365032e-01	-8.1383817028e-01
 1.1359227772e+00	 9.5239156152e-01	-9.3994936806e-01
 1.1171727301e+00	 9.7431788100e-01	-1.0560077719e+00
 1.0979866401e+00	 9.9588934141e-01	-1.1504133392e+00
 1.1989029062e+00	 8.9163858413e-01	-5.9894183300e-01
 1.1813788191e+00	 9.1473035860e-01	-7.2272856515e-01
 1.1633876496e+00	 9.3750558405e-01	-8.4490445201e-01
 1.1449380373e+00	 9.5995022471e-01	-9.6847411926e-01
 1.1260391804e+00	 9.8205056259e-01	-1.0828748118e+00
 1.1067008198e+00	 1.0037932251e+00	-1.1757147304e+00
 1.2083430866e+00	 8.9865936038e-01	-6.2844092354e-01
 1.1906810146e+00	 9.2193295985e-01	-7.5466409429e-01
 1.1725481822e+00	 9.4488751778e-01	-8.7574410022e-01
 1.1539532975e+00	 9.6750888789e-01	-9.9554085716e-01
 1.1349056306e+00	 9.8978324419e-01	-1.1073168881e+00
 1.1154149995e+00	 1.0116971087e+00	-1.1980536952e+00
 1.2177832670e+00	 9.0568013663e-01	-6.5569005320e-01
 1.1999832100e+00	 9.2913556110e-01	-7.8366615032e-01
 1.1817087149e+00	 9.5226945152e-01	-9.0584267849e-01
 1.1629685576e+00	 9.7506755108e-01	-1.0212242104e+00
 1.1437720809e+00	 9.9751592578e-01	-1.1294352761e+00
 1.1241291792e+00	 1.0196009924e+00	-1.2175561057e+00
 1.2272234473e+00	 9.1270091289e-01	-6.8089312615e-01
 1.2092854054e+00	 9.3633816235e-01	-8.0994264153e-01
 1.1908692476e+00	 9.5965138525e-01	-9.3272872723e-01
 1.1719838177e+00	 9.8262621427e-01	-1.0455650440e+00
 1.1526385311e+00	 1.0052486074e+00	-1.1492966329e+00
 1.1328433589e+00	 1.0275048761e+00	-1.2343128742e+00
 1.0892724604e+00	 9.8798545774e-01	-1.1219900098e+00
 1.0698161648e+00	 1.0090208775e+00	-1.2110908881e+00
 1.0499480000e+00	 1.0296790544e+00	-1.3102082940e+00
 1.0296790544e+00	 1.0499480000e+00	-1.4095538734e+00
 1.0090208775e+00	 1.0698161648e+00	-1.4989738100e+00
 9.8798545774e-01	 1.0892724604e+00	-1.5681101918e+00
 1.0979866401e+00	 9.9588934141e-01	-1.1504133392e+00
 1.0783746941e+00	 1.0170930445e+00	-1.2380799718e+00
 1.0583475840e+00	 1.0379164868e+00	-1.3358423037e+00
 1.0379164868e+00	 1.0583475840e+00	-1.4337842490e+00
 1.0170930445e+00	 1.0783746941e+00	-1.5215884942e+00
 9.9588934141e-01	 1.0979866401e+00	-1.5887035889e+00
 1.1067008198e+00	 1.0037932251e+00	-1.1757147304e+00
 1.0869332235e+00	 1.0251652116e+00	-1.2619106974e+00
 1.0667471680e+00	 1.0461539193e+00	-1.3586503524e+00
 1.0461539193e+00	 1.0667471680e+00	-1.4556774478e+00
 1.0251652116e+00	 1.0869332235e+00	-1.5422971394e+00
 1.0037932251e+00	 1.1067008198e+00	-1.6075501922e+00
 1.1154149995e+00	 1.0116971087e+00	-1.1980536952e+00
 1.0954917528e+00	 1.0332373786e+00	-1.2827655736e+00
 1.0751467520e+00	 1.0543913517e+00	-1.3788423076e+00
 1.0543913517e+00	 1.0751467520e+00	-1.4754794061e+00
 1.0332373786e+00	 1.0954917528e+00	-1.5613946935e+00
 1.0116971087e+00	 1.1154149995e+00	-1.6250110143e+00
 1.1241291792e+00	 1.0196009924e+00	-1.2175561057e+00
 1.1040502821e+00	 1.0413095456e+00	-1.3007936131e+00
 1.0835463360e+00	 1.0626287842e+00	-1.3965949744e+00
 1.0626287842e+00	 1.0835463360e+00	-1.4934035675e+00
 1.0413095456e+00	 1.1040502821e+00	-1.5791441623e+00
 1.0196009924e+00	 1.1241291792e+00	-1.6414155007e+00
 1.1328433589e+00	 1.0275048761e+00	-1.2343128742e+00
 1.1126088114e+00	 1.0493817126e+00	-1.3161090195e+00
 1.0919459200e+00	 1.0708662166e+00	-1.4120507908e+00
 1.0708662166e+00	 1.0919459200e+00	-1.5096295962e+00
 1.0493817126e+00	 1.1126088114e+00	-1.5957753564e+00
 1.0275048761e+00	 1.1328433589e+00	-1.6570603310e+00
 9.8798545774e-01	 1.0892724604e+00	-1.5681101918e+00
 9.6658519940e-01	 1.1083062799e+00	-1.6330504504e+00
 9.4483289833e-01	 1.1269075171e+00	-1.7091985096e+00
 9.2274171658e-01	 1.1450665842e+00	-1.7856963660e+00
 9.0032515610e-01	 1.1627744283e+00	-1.8526011737e+00
 8.7759703162e-01	 1.1800225455e+00	-1.9013111204e+00
 9.9588934141e-01	 1.0979866401e+00	-1.5887035889e+00
 9.7431788100e-01	 1.1171727301e+00	-1.6521325202e+00
 9.5239156152e-01	 1.1359227772e+00	-1.7276012431e+00
 9.3012365032e-01	 1.1542271169e+00	-1.8031672398e+00
 9.0752775735e-01	 1.1720766237e+00	-1.8678374668e+00
 8.8461780787e-01	 1.1894627259e+00	-1.9146770701e+00
 1.0037932251e+00	 1.1067008198e+00	-1.6075501922e+00
 9.8205056259e-01	 1.1260391804e+00	-1.6692619563e+00
 9.5995022471e-01	 1.1449380373e+00	-1.7436429238e+00
 9.3750558405e-01	 1.1633876496e+00	-1.8178343198e+00
 9.1473035860e-01	 1.1813788191e+00	-1.8801662444e+00
 8.9163858413e-01	 1.1989029062e+00	-1.9269015384e+00
 1.0116971087e+00	 1.1154149995e+00	-1.6250110143e+00
 9.8978324419e-01	 1.1349056306e+00	-1.6848760043e+00
 9.6750888789e-01	 1.1539532975e+00	-1.7578342397e+00
 9.4488751778e-01	 1.1725481822e+00	-1.8302738241e+00
 9.2193295985e-01	 1.1906810146e+00	-1.8908909124e+00
 8.9865936038e-01	 1.2083430866e+00	-1.9374736809e+00
 1.0196009924e+00	 1.1241291792e+00	-1.6414155007e+00
 9.9751592578e-01	 1.1437720809e+00	-1.6993807219e+00
 9.7506755108e-01	 1.1629685576e+00	-1.7706554345e+00
 9.5226945152e-01	 1.1817087149e+00	-1.8409827460e+00
 9.2913556110e-01	 1.1999832100e+00	-1.8996885825e+00
 9.0568013663e-01	 1.2177832670e+00	-1.9458710174e+00
 1.0275048761e+00	 1.1328433589e+00	-1.6570603310e+00
 1.0052486074e+00	 1.1526385311e+00	-1.7131498449e+00
 9.8262621427e-01	 1.1719838177e+00	-1.7825552380e+00
 9.5965138525e-01	 1.1908692476e+00	-1.8498065790e+00
 9.3633816235e-01	 1.2092854054e+00	-1.9060166214e+00
 9.1270091289e-01	 1.2272234473e+00	-1.9515605427e+00
 8.7759703162e-01	 1.1800225455e+00	-1.9013111204e+00
 8.5457144282e-01	 1.1968029942e+00	-1.9398897212e+00
 8.3126274588e-01	 1.2131084062e+00	-1.9760547365e+00
 8.0768552459e-01	 1.2289319961e+00	-2.0080851538e+00
 7.8385456104e-01	 1.2442675697e+00	-2.0348712298e+00
 7.5978480608e-01	 1.2591095291e+00	-2.0558301721e+00
 8.8461780787e-01	 1.1894627259e+00	-1.9146770701e+00
 8.6140801436e-01	 1.2063774181e+00	-1.9526445305e+00
 8.3791284785e-01	 1.2228132734e+00	-1.9866939403e+00
 8.1414700879e-01	 1.2387634521e+00	-2.0157546840e+00
 7.9012539752e-01	 1.2542217102e+00	-2.0393678792e+00
 7.6586308453e-01	 1.2691824053e+00	-2.0575942126e+00
 8.9163858413e-01	 1.1989029062e+00	-1.9269015384e+00
 8.6824458590e-01	 1.2159518421e+00	-1.9644351236e+00
 8.4456294981e-01	 1.2325181407e+00	-1.9968175799e+00
 8.2060849298e-01	 1.2485949081e+00	-2.0234905912e+00
 7.9639623401e-01	 1.2641758508e+00	-2.0445068720e+00
 7.7194136298e-01	 1.2792552815e+00	-2.0604306717e+00
 8.9865936038e-01	 1.2083430866e+00	-1.9374736809e+00
 8.7508115744e-01	 1.2255262661e+00	-1.9747411949e+00
 8.5121305178e-01	 1.2422230079e+00	-2.0058811015e+00
 8.2706997718e-01	 1.2584263641e+00	-2.0307128100e+00
 8.0266707050e-01	 1.2741299913e+00	-2.0496649024e+00
 7.7801964143e-01	 1.2893281578e+00	-2.0636687978e+00
 9.0568013663e-01	 1.2177832670e+00	-1.9458710174e+00
 8.8191772899e-01	 1.2351006900e+00	-1.9830312346e+00
 8.5786315375e-01	 1.2519278752e+00	-2.0133295895e+00
 8.3353146138e-01	 1.2682578200e+00	-2.0368320860e+00
 8.0893790699e-01	 1.2840841319e+00	-2.0542108954e+00
 7.8409791988e-01	 1.2994010340e+00	-2.0666316546e+00
 9.1270091289e-01	 1.2272234473e+00	-1.9515605427e+00
 8.8875430053e-01	 1.2446751140e+00	-1.9887635578e+00
 8.6451325571e-01	 1.2616327424e+00	-2.0185986960e+00
 8.3999294557e-01	 1.2780892760e+00	-2.0412507894e+00
 8.1520874348e-01	 1.2940382725e+00	-2.0575066948e+00
 7.9017619833e-01	 1.3094739102e+00	-2.0686366765e+00
 7.5978480608e-01	 1.2591095291e+00	-2.0558301721e+00
 7.3549134973e-01	 1.2734528779e+00	-2.0676689595e+00
 7.1098939143e-01	 1.2872932234e+00	-2.0700600855e+00
 6.8629421056e-01	 1.3006267775e+00	-2.0672603026e+00
 6.6142113706e-01	 1.3134503558e+00	-2.0635206748e+00
 6.3638552247e-01	 1.3257613754e+00	-2.0630080567e+00
 7.6586308453e-01	 1.2691824053e+00	-2.0575942126e+00
 7.4137528053e-01	 1.2836405009e+00	-2.0672139481e+00
 7.1667730656e-01	 1.2975915692e+00	-2.0674946188e+00
 6.9178456424e-01	 1.3110317917e+00	-2.0625930143e+00
 6.6671250616e-01	 1.3239579587e+00	-2.0566371894e+00
 6.4147660665e-01	 1.3363674664e+00	-2.0536463181e+00
 7.7194136298e-01	 1.2792552815e+00	-2.0604306717e+00
 7.4725921133e-01	 1.2938281240e+00	-2.0680119284e+00
 7.2236522170e-01	 1.3078899150e+00	-2.0661483831e+00
 6.9727491793e-01	 1.3214368059e+00	-2.0589679528e+00
 6.7200387525e-01	 1.3344655615e+00	-2.0505502753e+00
 6.4656769083e-01	 1.3469735574e+00	-2.0448443088e+00
 7.7801964143e-01	 1.2893281578e+00	-2.0636687978e+00
 7.5314314212e-01	 1.3040157470e+00	-2.0693598645e+00
 7.2805313683e-01	 1.3181882608e+00	-2.0653172604e+00
 7.0276527161e-01	 1.3318418202e+00	-2.0557095479e+00
 6.7729524435e-01	 1.3449731644e+00	-2.0446408563e+00
 6.5165877501e-01	 1.3575796484e+00	-2.0360655960e+00
 7.8409791988e-01	 1.2994010340e+00	-2.0666316546e+00
 7.5902707292e-01	 1.3142033700e+00	-2.0705497092e+00
 7.3374105196e-01	 1.3284866066e+00	-2.0642924086e+00
 7.0825562530e-01	 1.3422468344e+00	-2.0521369771e+00
 6.8258661345e-01	 1.3554807672e+00	-2.0382833283e+00
 6.5674985919e-01	 1.3681857394e+00	-2.0267652667e+00
 7.9017619833e-01	 1.3094739102e+00	-2.0686366765e+00
 7.6491100372e-01	 1.3243909930e+00	-2.0708688438e+00
 7.3942896709e-01	 1.3387849524e+00	-2.0623606227e+00
 7.1374597898e-01	 1.3526518486e+00	-2.0475644803e+00
 6.8787798254e-01	 1.3659883701e+00	-2.0308458617e+00
 6.6184094337e-01	 1.3787918304e+00	-2.0163902473e+00
 6.3638552247e-01	 1.3257613754e+00	-2.0630080567e+00
 6.1120271133e-01	 1.3375578505e+00	-2.0476514855e+00
 5.8588801319e-01	 1.3488383868e+00	-1.9991098853e+00
 5.6045667517e-01	 1.3596021745e+00	-1.9430848004e+00
 5.3492385536e-01	 1.3698489795e+00	-1.8960951051e+00
 5.0930459686e-01	 1.3795791334e+00	-1.8576881892e+00
 6.4147660665e-01	 1.3363674664e+00	-2.0536463181e+00
 6.1609233302e-01	 1.3482583133e+00	-2.0360553575e+00
 5.9057511729e-01	 1.3596290939e+00	-1.9859911894e+00
 5.6494032858e-01	 1.3704789919e+00	-1.9229260907e+00
 5.3920324620e-01	 1.3808077714e+00	-1.8706581454e+00
 5.1337903364e-01	 1.3906157665e+00	-1.8288035703e+00
 6.4656769083e-01	 1.3469735574e+00	-2.0448443088e+00
 6.2098195471e-01	 1.3589587761e+00	-2.0249061171e+00
 5.9526222140e-01	 1.3704198010e+00	-1.9735351950e+00
 5.6942398198e-01	 1.3813558093e+00	-1.9046104961e+00
 5.4348263704e-01	 1.3917665632e+00	-1.8471654584e+00
 5.1745347041e-01	 1.4016523996e+00	-1.8020045646e+00
 6.5165877501e-01	 1.3575796484e+00	-2.0360655960e+00
 6.2587157640e-01	 1.3696592389e+00	-2.0137473483e+00
 5.9994932550e-01	 1.3812105081e+00	-1.9611676431e+00
 5.7390763538e-01	 1.3922326267e+00	-1.8877548810e+00
 5.4776202788e-01	 1.4027253551e+00	-1.8252242306e+00
 5.2152790719e-01	 1.4126890326e+00	-1.7768603716e+00
 6.5674985919e-01	 1.3681857394e+00	-2.0267652667e+00
 6.3076119809e-01	 1.3803597017e+00	-2.0021124294e+00
 6.0463642961e-01	 1.3920012152e+00	-1.9484717287e+00
 5.7839128878e-01	 1.4031094441e+00	-1.8719657686e+00
 5.5204141873e-01	 1.4136841469e+00	-1.8044335858e+00
 5.2560234396e-01	 1.4237256657e+00	-1.7529352606e+00
 6.6184094337e-01	 1.3787918304e+00	-2.0163902473e+00
 6.3565081979e-01	 1.3910601645e+00	-1.9895248649e+00
 6.0932353372e-01	 1.4027919223e+00	-1.9350200920e+00
 5.8287494218e-01	 1.4139862615e+00	-1.8568392700e+00
 5.5632080957e-01	 1.4246429387e+00	-1.7843844621e+00
 5.2967678074e-01	 1.4347622988e+00	-1.7297883617e+00
 5.0930459686e-01	 1.3795791334e+00	-1.8576881892e+00
 4.8361380293e-01	 1.3887935222e+00	-1.8198337654e+00
 4.5786621285e-01	 1.3974935738e+00	-1.7756569429e+00
 4.3207637899e-01	 1.4056812443e+00	-1.7259132845e+00
 4.0625864488e-01	 1.4133590030e+00	-1.6709827025e+00
 3.8042712440e-01	 1.4205298169e+00	-1.6109236057e+00
 5.1337903364e-01	 1.3906157665e+00	-1.8288035703e+00
 4.8748271335e-01	 1.3999038704e+00	-1.7883933871e+00
 4.6152914255e-01	 1.4086735224e+00	-1.7416246570e+00
 4.3553299002e-01	 1.4169266942e+00	-1.6891651527e+00
 4.0950871404e-01	 1.4246658750e+00	-1.6312997896e+00
 3.8347054140e-01	 1.4318940555e+00	-1.5679871049e+00
 5.1745347041e-01	 1.4016523996e+00	-1.8020045646e+00
 4.9135162378e-01	 1.4110142186e+00	-1.7591347227e+00
 4.6519207225e-01	 1.4198534710e+00	-1.7097834981e+00
 4.3898960105e-01	 1.4281721442e+00	-1.6545412730e+00
 4.1275878320e-01	 1.4359727470e+00	-1.5936140843e+00
 3.8651395839e-01	 1.4432582940e+00	-1.5268821984e+00
 5.2152790719e-01	 1.4126890326e+00	-1.7768603716e+00
 4.9522053420e-01	 1.4221245668e+00	-1.7315913848e+00
 4.6885500195e-01	 1.4310334196e+00	-1.6796634462e+00
 4.4244621208e-01	 1.4394175941e+00	-1.6215990884e+00
 4.1600885236e-01	 1.4472796190e+00	-1.5575406734e+00
 3.8955737539e-01	 1.4546225325e+00	-1.4873108301e+00
 5.2560234396e-01	 1.4237256657e+00	-1.7529352606e+00
 4.9908944462e-01	 1.4332349149e+00	-1.7052950774e+00
 4.7251793166e-01	 1.4422133682e+00	-1.6507945554e+00
 4.4590282312e-01	 1.4506630441e+00	-1.5898970768e+00
 4.1925892152e-01	 1.4585864911e+00	-1.5226956360e+00
 3.9260079238e-01	 1.4659867711e+00	-1.4489749127e+00
 5.2967678074e-01	 1.4347622988e+00	-1.7297883617e+00
 5.0295835505e-01	 1.4443452631e+00	-1.6797753039e+00
 4.7618086136e-01	 1.4533933168e+00	-1.6227066188e+00
 4.4935943415e-01	 1.4619084940e+00	-1.5589944101e+00
 4.2250899067e-01	 1.4698933631e+00	-1.4886957344e+00
 3.9564420938e-01	 1.4773510096e+00	-1.4115760860e+00
 3.8042712440e-01	 1.4205298169e+00	-1.6109236057e+00
 3.5459568216e-01	 1.4271971342e+00	-1.5508857957e+00
 3.2877791506e-01	 1.4333648664e+00	-1.4956497604e+00
 3.0298713513e-01	 1.4390373705e+00	-1.4444532553e+00
 2.7723635357e-01	 1.4442194300e+00	-1.3964834765e+00
 2.5153826608e-01	 1.4489162358e+00	-1.3509028223e+00
 3.8347054140e-01	 1.4318940555e+00	-1.5679871049e+00
 3.5743244761e-01	 1.4386147113e+00	-1.5046804401e+00
 3.3140813838e-01	 1.4448317854e+00	-1.4464739129e+00
 3.0541103221e-01	 1.4505496695e+00	-1.3925378267e+00
 2.7945424440e-01	 1.4557731855e+00	-1.3420182487e+00
 2.5355057221e-01	 1.4605075657e+00	-1.2940626310e+00
 3.8651395839e-01	 1.4432582940e+00	-1.5268821984e+00
 3.6026921307e-01	 1.4500322884e+00	-1.4601872550e+00
 3.3403836170e-01	 1.4562987043e+00	-1.3990018454e+00
 3.0783492929e-01	 1.4620619684e+00	-1.3424206618e+00
 2.8167213523e-01	 1.4673269409e+00	-1.2895355594e+00
 2.5556287833e-01	 1.4720988956e+00	-1.2394612970e+00
 3.8955737539e-01	 1.4546225325e+00	-1.4873108301e+00
 3.6310597853e-01	 1.4614498655e+00	-1.4171906761e+00
 3.3666858502e-01	 1.4677656232e+00	-1.3530632444e+00
 3.1025882637e-01	 1.4735742674e+00	-1.2939395918e+00
 2.8389002606e-01	 1.4788806963e+00	-1.2388445249e+00
 2.5757518446e-01	 1.4836902255e+00	-1.1868427132e+00
 3.9260079238e-01	 1.4659867711e+00	-1.4489749127e+00
 3.6594274398e-01	 1.4728674425e+00	-1.3754741375e+00
 3.3929880834e-01	 1.4792325422e+00	-1.3084868894e+00
 3.1268272346e-01	 1.4850865664e+00	-1.2469326931e+00
 2.8610791689e-01	 1.4904344518e+00	-1.1897567037e+00
 2.5958749059e-01	 1.4952815554e+00	-1.1359564437e+00
 3.9564420938e-01	 1.4773510096e+00	-1.4115760860e+00
 3.6877950944e-01	 1.4842850196e+00	-1.3348198929e+00
 3.4192903166e-01	 1.4906994611e+00	-1.2651004965e+00
 3.1510662054e-01	 1.4965988653e+00	-1.2012381099e+00
 2.8832580772e-01	 1.5019882072e+00	-1.1420858574e+00
 2.6159979672e-01	 1.5068728853e+00	-1.0865573814e+00
 2.5153826608e-01	 1.4489162358e+00	-1.3509028223e+00
 2.2590523944e-01	 1.4531333664e+00	-1.3082139160e+00
 2.0034929943e-01	 1.4568767676e+00	-1.2695683935e+00
 1.7488211993e-01	 1.4601527324e+00	-1.2351229634e+00
 1.4951501335e-01	 1.4629678802e+00	-1.2050698554e+00
 1.2425892225e-01	 1.4653291364e+00	-1.1796342381e+00
 2.5355057221e-01	 1.4605075657e+00	-1.2940626310e+00
 2.2771248135e-01	 1.4647584333e+00	-1.2492649509e+00
 2.0195209382e-01	 1.4685317818e+00	-1.2088304714e+00
 1.7628117689e-01	 1.4718339543e+00	-1.1728642269e+00
 1.5071113346e-01	 1.4746716233e+00	-1.1415075616e+00
 1.2525299363e-01	 1.4770517695e+00	-1.1149356335e+00
 2.5556287833e-01	 1.4720988956e+00	-1.2394612970e+00
 2.2951972327e-01	 1.4763835003e+00	-1.1927992028e+00
 2.0355488822e-01	 1.4801867959e+00	-1.1507374096e+00
 1.7768023385e-01	 1.4835151761e+00	-1.1133331155e+00
 1.5190725356e-01	 1.4863753663e+00	-1.0806870997e+00
 1.2624706501e-01	 1.4887744026e+00	-1.0529409699e+00
 2.5757518446e-01	 1.4836902255e+00	-1.1868427132e+00
 2.3132696519e-01	 1.4880085672e+00	-1.1384958099e+00
 2.0515768262e-01	 1.4918418100e+00	-1.0949405084e+00
 1.7907929081e-01	 1.4951963980e+00	-1.0561895900e+00
 1.5310337367e-01	 1.4980791093e+00	-1.0223131017e+00
 1.2724113638e-01	 1.5004970357e+00	-9.9343500704e-01
 2.5958749059e-01	 1.4952815554e+00	-1.1359564437e+00
 2.3313420710e-01	 1.4996336341e+00	-1.0860426943e+00
 2.0676047701e-01	 1.5034968242e+00	-1.0411017171e+00
 1.8047834777e-01	 1.5068776198e+00	-1.0011048904e+00
 1.5429949378e-01	 1.5097828524e+00	-9.6610088954e-01
 1.2823520776e-01	 1.5122196688e+00	-9.3621140544e-01
 2.6159979672e-01	 1.5068728853e+00	-1.0865573814e+00
 2.3494144902e-01	 1.5112587011e+00	-1.0351361184e+00
 2.0836327141e-01	 1.5151518383e+00	-9.8889313543e-01
 1.8187740473e-01	 1.5185588417e+00	-9.4776102841e-01
 1.5549561388e-01	 1.5214865954e+00	-9.1177600532e-01
 1.2922927914e-01	 1.5239423019e+00	-8.8107233830e-01
 1.2425892225e-01	 1.4653291364e+00	-1.1796342381e+00
 9.9124412219e-02	 1.4672437114e+00	-1.1586466115e+00
 7.4121665932e-02	 1.4687190802e+00	-1.1420258168e+00
 4.9260478362e-02	 1.4697629615e+00	-1.1301423108e+00
 2.4550253142e-02	 1.4703832979e+00	-1.1233444617e+00
 0.0000000000e+00	 1.4705882353e+00	-1.1219446932e+00
 1.2525299363e-01	 1.4770517695e+00	-1.1149356335e+00
 9.9917407517e-02	 1.4789816611e+00	-1.0929475681e+00
 7.4714639259e-02	 1.4804688328e+00	-1.0754982484e+00
 4.9654562189e-02	 1.4815210652e+00	-1.0630272208e+00
 2.4746655167e-02	 1.4821463643e+00	-1.0559734534e+00
 0.0000000000e+00	 1.4823529412e+00	-1.0547594094e+00
 1.2624706501e-01	 1.4887744026e+00	-1.0529409699e+00
 1.0071040281e-01	 1.4907196108e+00	-1.0299456582e+00
 7.5307612587e-02	 1.4922185854e+00	-1.0117440829e+00
 5.0048646016e-02	 1.4932791689e+00	-9.9881488091e-01
 2.4943057193e-02	 1.4939094307e+00	-9.9165250497e-01
 0.0000000000e+00	 1.4941176471e+00	-9.9074961325e-01
 1.2724113638e-01	 1.5004970357e+00	-9.9343500704e-01
 1.0150339811e-01	 1.5024575605e+00	-9.6949924196e-01
 7.5900585914e-02	 1.5039683381e+00	-9.5064785633e-01
 5.0442729843e-02	 1.5050372726e+00	-9.3736968131e-01
 2.5139459218e-02	 1.5056724971e+00	-9.3018073427e-01
 0.0000000000e+00	 1.5058823529e+00	-9.2960530522e-01
 1.2823520776e-01	 1.5122196688e+00	-9.3621140544e-01
 1.0229639341e-01	 1.5141955102e+00	-9.1147389515e-01
 7.6493559242e-02	 1.5157180907e+00	-8.9210101066e-01
 5.0836813670e-02	 1.5167953763e+00	-8.7856395240e-01
 2.5335861243e-02	 1.5174355635e+00	-8.7136754496e-01
 0.0000000000e+00	 1.5176470588e+00	-8.7103039276e-01
 1.2922927914e-01	 1.5239423019e+00	-8.8107233830e-01
 1.0308938871e-01	 1.5259334599e+00	-8.5574209772e-01
 7.7086532569e-02	 1.5274678434e+00	-8.3600160406e-01
 5.1230897497e-02	 1.5285534800e+00	-8.2227764444e-01
 2.5532263268e-02	 1.5291986299e+00	-8.1503222391e-01
 0.0000000000e+00	 1.5294117647e+00	-8.1474215564e-01
 1.5294117647e+00	 0.0000000000e+00	 3.6401467204e+00
 1.5291986299e+00	 2.5532263268e-02	 3.6319876387e+00
 1.5285534800e+00	 5.1230897497e-02	 3.6164836662e+00
 1.5274678434e+00	 7.7086532569e-02	 3.5930126720e+00
 1.5259334599e+00	 1.0308938871e-01	 3.5612726586e+00
 1.5239423019e+00	 1.2922927914e-01	 3.5213260658e+00
 1.5411764706e+00	 0.0000000000e+00	 3.6238057781e+00
 1.5409616962e+00	 2.5728665293e-02	 3.6156318573e+00
 1.5403115837e+00	 5.1624981324e-02	 3.6001373494e+00
 1.5392175960e+00	 7.7679505897e-02	 3.5766738032e+00
 1.5376714096e+00	 1.0388238401e-01	 3.5449445877e+00
 1.5356649350e+00	 1.3022335052e-01	 3.5050481973e+00
 1.5529411765e+00	 0.0000000000e+00	 3.6068144902e+00
 1.5527247626e+00	 2.5925067318e-02	 3.5985361965e+00
 1.5520696874e+00	 5.2019065151e-02	 3.5831050913e+00
 1.5509673486e+00	 7.8272479224e-02	 3.5597898380e+00
 1.5494093593e+00	 1.0467537930e-01	 3.5282418237e+00
 1.5473875681e+00	 1.3121742190e-01	 3.4885375335e+00
 1.5647058824e+00	 0.0000000000e+00	 3.5890793956e+00
 1.5644878290e+00	 2.6121469343e-02	 3.5806206175e+00
 1.5638277911e+00	 5.2413148978e-02	 3.5653118443e+00
 1.5627171013e+00	 7.8865452551e-02	 3.5422842008e+00
 1.5611473089e+00	 1.0546837460e-01	 3.5110817084e+00
 1.5591102011e+00	 1.3221149327e-01	 3.4717027834e+00
 1.5764705882e+00	 0.0000000000e+00	 3.5705074678e+00
 1.5762508954e+00	 2.6317871368e-02	 3.5618044613e+00
 1.5755858947e+00	 5.2807232805e-02	 3.5466810387e+00
 1.5744668539e+00	 7.9458425879e-02	 3.5240780222e+00
 1.5728852586e+00	 1.0626136990e-01	 3.4933786224e+00
 1.5708328342e+00	 1.3320556465e-01	 3.4544491065e+00
 1.5882352941e+00	 0.0000000000e+00	 3.5510060987e+00
 1.5880139618e+00	 2.6514273394e-02	 3.5420064548e+00
 1.5873439984e+00	 5.3201316631e-02	 3.5271346099e+00
 1.5862166066e+00	 8.0051399206e-02	 3.5050901862e+00
 1.5846232083e+00	 1.0705436520e-01	 3.4750440561e+00
 1.5825554673e+00	 1.3419963603e-01	 3.4366782115e+00
 1.5239423019e+00	 1.2922927914e-01	 3.5213260658e+00
 1.5214865954e+00	 1.5549561388e-01	 3.4719368597e+00
 1.5185588417e+00	 1.8187740473e-01	 3.4113589405e+00
 1.5151518383e+00	 2.0836327141e-01	 3.3394899185e+00
 1.5112587011e+00	 2.3494144902e-01	 3.2566515162e+00
 1.5068728853e+00	 2.6159979672e-01	 3.1636111648e+00
 1.5356649350e+00	 1.3022335052e-01	 3.5050481973e+00
 1.5331903385e+00	 1.5669173399e-01	 3.4556806064e+00
 1.5302400635e+00	 1.8327646169e-01	 3.3949942564e+00
 1.5268068525e+00	 2.0996606580e-01	 3.3229186609e+00
 1.5228837680e+00	 2.3674869093e-01	 3.2398379803e+00
 1.5184642152e+00	 2.6361210285e-01	 3.1466109159e+00
 1.5473875681e+00	 1.3121742190e-01	 3.4885375335e+00
 1.5448940815e+00	 1.5788785410e-01	 3.4392843525e+00
 1.5419212854e+00	 1.8467551865e-01	 3.3785654307e+00
 1.5384618666e+00	 2.1156886020e-01	 3.3063626552e+00
 1.5345088349e+00	 2.3855593285e-01	 3.2231427049e+00
 1.5300555450e+00	 2.6562440898e-01	 3.1298749552e+00
 1.5591102011e+00	 1.3221149327e-01	 3.4717027834e+00
 1.5565978246e+00	 1.5908397420e-01	 3.4226431953e+00
 1.5536025073e+00	 1.8607457561e-01	 3.3619453241e+00
 1.5501168807e+00	 2.1317165459e-01	 3.2896640920e+00
 1.5461339019e+00	 2.4036317476e-01	 3.2063689503e+00
 1.5416468749e+00	 2.6763671511e-01	 3.1131594999e+00
 1.5708328342e+00	 1.3320556465e-01	 3.4544491065e+00
 1.5683015676e+00	 1.6028009431e-01	 3.4056482788e+00
 1.5652837291e+00	 1.8747363257e-01	 3.3450027640e+00
 1.5617718949e+00	 2.1477444899e-01	 3.2726613968e+00
 1.5577589688e+00	 2.4217041668e-01	 3.1893168499e+00
 1.5532382048e+00	 2.6964902123e-01	 3.0962186670e+00
 1.5825554673e+00	 1.3419963603e-01	 3.4366782115e+00
 1.5800053106e+00	 1.6147621442e-01	 3.3881869210e+00
 1.5769649510e+00	 1.8887268953e-01	 3.3276026977e+00
 1.5734269090e+00	 2.1637724338e-01	 3.2551894053e+00
 1.5693840357e+00	 2.4397765859e-01	 3.1717836035e+00
 1.5648295347e+00	 2.7166132736e-01	 3.0788046814e+00
 1.5068728853e+00	 2.6159979672e-01	 3.1636111648e+00
 1.5019882072e+00	 2.8832580772e-01	 3.0582515912e+00
 1.4965988653e+00	 3.1510662054e-01	 2.9403702717e+00
 1.4906994611e+00	 3.4192903166e-01	 2.8143458883e+00
 1.4842850196e+00	 3.6877950944e-01	 2.6850823009e+00
 1.4773510096e+00	 3.9564420938e-01	 2.5580080854e+00
 1.5184642152e+00	 2.6361210285e-01	 3.1466109159e+00
 1.5135419627e+00	 2.9054369854e-01	 3.0411358984e+00
 1.5081111643e+00	 3.1753051762e-01	 2.9231026735e+00
 1.5021663800e+00	 3.4455925498e-01	 2.7968238469e+00
 1.4957025967e+00	 3.7161627490e-01	 2.6671460083e+00
 1.4887152481e+00	 3.9868762637e-01	 2.5394484338e+00
 1.5300555450e+00	 2.6562440898e-01	 3.1298749552e+00
 1.5250957181e+00	 2.9276158937e-01	 3.0244589933e+00
 1.5196234633e+00	 3.1995441470e-01	 2.9064357723e+00
 1.5136332990e+00	 3.4718947830e-01	 2.7800300718e+00
 1.5071201738e+00	 3.7445304036e-01	 2.6500085224e+00
 1.5000794867e+00	 4.0173104337e-01	 2.5216774943e+00
 1.5416468749e+00	 2.6763671511e-01	 3.1131594999e+00
 1.5366494735e+00	 2.9497948020e-01	 3.0079260256e+00
 1.5311357622e+00	 3.2237831178e-01	 2.8900242694e+00
 1.5251002179e+00	 3.4981970162e-01	 2.7635703517e+00
 1.5185377508e+00	 3.7728980581e-01	 2.6332291091e+00
 1.5114437252e+00	 4.0477446036e-01	 2.5042111860e+00
 1.5532382048e+00	 2.6964902123e-01	 3.0962186670e+00
 1.5482032290e+00	 2.9719737103e-01	 2.9912413580e+00
 1.5426480612e+00	 3.2480220886e-01	 2.8735235583e+00
 1.5365671368e+00	 3.5244992494e-01	 2.7470527947e+00
 1.5299553279e+00	 3.8012657127e-01	 2.6163711113e+00
 1.5228079638e+00	 4.0781787736e-01	 2.4865713714e+00
 1.5648295347e+00	 2.7166132736e-01	 3.0788046814e+00
 1.5597569844e+00	 2.9941526186e-01	 2.9741087906e+00
 1.5541603602e+00	 3.2722610594e-01	 2.8565899675e+00
 1.5480340558e+00	 3.5508014826e-01	 2.7300880974e+00
 1.5413729050e+00	 3.8296333673e-01	 2.5990022504e+00
 1.5341722023e+00	 4.1086129435e-01	 2.4682861970e+00
 1.4773510096e+00	 3.9564420938e-01	 2.5580080854e+00
 1.4698933631e+00	 4.2250899067e-01	 2.4236733308e+00
 1.4619084940e+00	 4.4935943415e-01	 2.2706504294e+00
 1.4533933168e+00	 4.7618086136e-01	 2.1020304753e+00
 1.4443452631e+00	 5.0295835505e-01	 1.9212323958e+00
 1.4347622988e+00	 5.2967678074e-01	 1.7320213586e+00
 1.4887152481e+00	 3.9868762637e-01	 2.5394484338e+00
 1.4812002351e+00	 4.2575905983e-01	 2.4038224553e+00
 1.4731539440e+00	 4.5281604518e-01	 2.2487915259e+00
 1.4645732654e+00	 4.7984379106e-01	 2.0780512103e+00
 1.4554556113e+00	 5.0682726547e-01	 1.8956687511e+00
 1.4457989318e+00	 5.3375121751e-01	 1.7061008831e+00
 1.5000794867e+00	 4.0173104337e-01	 2.5216774943e+00
 1.4925071071e+00	 4.2900912899e-01	 2.3847321663e+00
 1.4843993940e+00	 4.5627265621e-01	 2.2277421694e+00
 1.4757532140e+00	 4.8350672076e-01	 2.0550318022e+00
 1.4665659595e+00	 5.1069617589e-01	 1.8713404787e+00
 1.4568355649e+00	 5.3782565429e-01	 1.6818398762e+00
 1.5114437252e+00	 4.0477446036e-01	 2.5042111860e+00
 1.5038139791e+00	 4.3225919815e-01	 2.3658770014e+00
 1.4956448439e+00	 4.5972926724e-01	 2.2069354440e+00
 1.4869331626e+00	 4.8716965047e-01	 2.0323632326e+00
 1.4776763077e+00	 5.1456508632e-01	 1.8475951462e+00
 1.4678721980e+00	 5.4190009106e-01	 1.6585404350e+00
 1.5228079638e+00	 4.0781787736e-01	 2.4865713714e+00
 1.5151208512e+00	 4.3550926731e-01	 2.3467394495e+00
 1.5068902939e+00	 4.6318587827e-01	 2.1858145851e+00
 1.4981131112e+00	 4.9083258017e-01	 2.0094490304e+00
 1.4887866558e+00	 5.1843399674e-01	 1.8237954595e+00
 1.4789088310e+00	 5.4597452784e-01	 1.6355225770e+00
 1.5341722023e+00	 4.1086129435e-01	 2.4682861970e+00
 1.5264277232e+00	 4.3875933647e-01	 2.3268103359e+00
 1.5181357438e+00	 4.6664248931e-01	 2.1638334134e+00
 1.5092930597e+00	 4.9449550987e-01	 1.9857057561e+00
 1.4998970040e+00	 5.2230290716e-01	 1.7993197994e+00
 1.4899454641e+00	 5.5004896461e-01	 1.6121248308e+00
 1.4347622988e+00	 5.2967678074e-01	 1.7320213586e+00
 1.4246429387e+00	 5.5632080957e-01	 1.5481115519e+00
 1.4139862615e+00	 5.8287494218e-01	 1.3887168057e+00
 1.4027919223e+00	 6.0932353372e-01	 1.2416861926e+00
 1.3910601645e+00	 6.3565081979e-01	 1.0661003153e+00
 1.3787918304e+00	 6.6184094337e-01	 8.6914064236e-01
 1.4457989318e+00	 5.3375121751e-01	 1.7061008831e+00
 1.4356017306e+00	 5.6060020041e-01	 1.5239802989e+00
 1.4248630789e+00	 5.8735859558e-01	 1.3688601895e+00
 1.4135826294e+00	 6.1401063782e-01	 1.2172123671e+00
 1.4017606273e+00	 6.4054044148e-01	 1.0380447970e+00
 1.3893979214e+00	 6.6693202755e-01	 8.3961861792e-01
 1.4568355649e+00	 5.3782565429e-01	 1.6818398762e+00
 1.4465605224e+00	 5.6487959126e-01	 1.5019626859e+00
 1.4357398963e+00	 5.9184224898e-01	 1.3507574559e+00
 1.4243733365e+00	 6.1869774193e-01	 1.1937034728e+00
 1.4124610901e+00	 6.4543006317e-01	 1.0114911708e+00
 1.4000040125e+00	 6.7202311173e-01	 8.1190426386e-01
 1.4678721980e+00	 5.4190009106e-01	 1.6585404350e+00
 1.4575193142e+00	 5.6915898210e-01	 1.4813141563e+00
 1.4466167137e+00	 5.9632590239e-01	 1.3323712514e+00
 1.4351640436e+00	 6.2338484603e-01	 1.1705781938e+00
 1.4231615529e+00	 6.5031968486e-01	 9.8586693310e-01
 1.4106101035e+00	 6.7711419591e-01	 7.8543902732e-01
 1.4789088310e+00	 5.4597452784e-01	 1.6355225770e+00
 1.4684781061e+00	 5.7343837294e-01	 1.4613109910e+00
 1.4574935311e+00	 6.0080955579e-01	 1.3131074666e+00
 1.4459547507e+00	 6.2807195014e-01	 1.1472888954e+00
 1.4338620157e+00	 6.5520930655e-01	 9.6063343805e-01
 1.4212161945e+00	 6.8220528009e-01	 7.5969822299e-01
 1.4899454641e+00	 5.5004896461e-01	 1.6121248308e+00
 1.4794368979e+00	 5.7771776378e-01	 1.4412509547e+00
 1.4683703485e+00	 6.0529320919e-01	 1.2924452374e+00
 1.4567454578e+00	 6.3275905424e-01	 1.1233206105e+00
 1.4445624785e+00	 6.6009892824e-01	 9.3528482193e-01
 1.4318222855e+00	 6.8729636427e-01	 7.3418990339e-01
 1.3787918304e+00	 6.6184094337e-01	 8.6914064236e-01
 1.3659883701e+00	 6.8787798254e-01	 6.7635880483e-01
 1.3526518486e+00	 7.1374597898e-01	 5.0292587394e-01
 1.3387849524e+00	 7.3942896709e-01	 3.4134281176e-01
 1.3243909930e+00	 7.6491100372e-01	 1.8353112382e-01
 1.3094739102e+00	 7.9017619833e-01	 2.0954442827e-02
 1.3893979214e+00	 6.6693202755e-01	 8.3961861792e-01
 1.3764959729e+00	 6.9316935164e-01	 6.4635865950e-01
 1.3630568628e+00	 7.1923633266e-01	 4.7267140093e-01
 1.3490832981e+00	 7.4511688222e-01	 3.1109630598e-01
 1.3345786160e+00	 7.7079493452e-01	 1.5358255340e-01
 1.3195467865e+00	 7.9625447678e-01	-8.3868209271e-03
 1.4000040125e+00	 6.7202311173e-01	 8.1190426386e-01
 1.3870035758e+00	 6.9846072074e-01	 6.1828059448e-01
 1.3734618770e+00	 7.2472668635e-01	 4.4436912281e-01
 1.3593816439e+00	 7.5080479735e-01	 2.8278236641e-01
 1.3447662391e+00	 7.7667886532e-01	 1.2553144124e-01
 1.3296196627e+00	 8.0233275523e-01	-3.5847457555e-02
 1.4106101035e+00	 6.7711419591e-01	 7.8543902732e-01
 1.3975111786e+00	 7.0375208983e-01	 5.9158434658e-01
 1.3838668913e+00	 7.3021704003e-01	 4.1749903833e-01
 1.3696799897e+00	 7.5649271248e-01	 2.5590247030e-01
 1.3549538621e+00	 7.8256279611e-01	 9.8901145664e-02
 1.3396925389e+00	 8.0841103367e-01	-6.1882699845e-02
 1.4212161945e+00	 6.8220528009e-01	 7.5969822299e-01
 1.4080187815e+00	 7.0904345893e-01	 5.6576340985e-01
 1.3942719055e+00	 7.3570739372e-01	 3.9157476490e-01
 1.3799783355e+00	 7.6218062762e-01	 2.2999158779e-01
 1.3651414851e+00	 7.8844672691e-01	 7.3248445034e-02
 1.3497654152e+00	 8.1448931212e-01	-8.6914341863e-02
 1.4318222855e+00	 6.8729636427e-01	 7.3418990339e-01
 1.4185263843e+00	 7.1433482802e-01	 5.4034385945e-01
 1.4046769197e+00	 7.4119774740e-01	 3.6614232081e-01
 1.3902766813e+00	 7.6786854275e-01	 2.0461692689e-01
 1.3753291081e+00	 7.9433065771e-01	 4.8162248997e-02
 1.3598382914e+00	 8.2056759057e-01	-1.1133205856e-01
 1.3094739102e+00	 7.9017619833e-01	 2.0954442827e-02
 1.2940382725e+00	 8.1520874348e-01	-1.3824876411e-01
 1.2780892760e+00	 8.3999294557e-01	-2.8338732461e-01
 1.2616327424e+00	 8.6451325571e-01	-4.1928810520e-01
 1.2446751140e+00	 8.8875430053e-01	-5.5045485107e-01
 1.2272234473e+00	 9.1270091289e-01	-6.8089312615e-01
 1.3195467865e+00	 7.9625447678e-01	-8.3868209271e-03
 1.3039924130e+00	 8.2147957996e-01	-1.6633235308e-01
 1.2879207320e+00	 8.4645442977e-01	-3.0962877820e-01
 1.2713376097e+00	 8.7116335768e-01	-4.4372250772e-01
 1.2542495379e+00	 8.9559087207e-01	-5.7376248483e-01
 1.2366636277e+00	 9.1972168914e-01	-7.0441595966e-01
 1.3296196627e+00	 8.0233275523e-01	-3.5847457555e-02
 1.3139465536e+00	 8.2775041645e-01	-1.9258420931e-01
 1.2977521879e+00	 8.5291591397e-01	-3.3416314236e-01
 1.2810424769e+00	 8.7781345965e-01	-4.6660437442e-01
 1.2638239619e+00	 9.0242744361e-01	-5.9565279660e-01
 1.2461038080e+00	 9.2674246539e-01	-7.2658474615e-01
 1.3396925389e+00	 8.0841103367e-01	-6.1882699845e-02
 1.3239006941e+00	 8.3402125294e-01	-2.1742777948e-01
 1.3075836439e+00	 8.5937739816e-01	-3.5736103749e-01
 1.2907473442e+00	 8.8446356161e-01	-4.8823175909e-01
 1.2733983858e+00	 9.0926401516e-01	-6.1633296311e-01
 1.2555439884e+00	 9.3376324164e-01	-7.4749903030e-01
 1.3497654152e+00	 8.1448931212e-01	-8.6914341863e-02
 1.3338548347e+00	 8.4029208943e-01	-2.4125327625e-01
 1.3174150999e+00	 8.6583888236e-01	-3.7956059108e-01
 1.3004522114e+00	 8.9111366358e-01	-5.0887146025e-01
 1.2829728098e+00	 9.1610058670e-01	-6.3598060017e-01
 1.2649841688e+00	 9.4078401790e-01	-7.6723090761e-01
 1.3598382914e+00	 8.2056759057e-01	-1.1133205856e-01
 1.3438089752e+00	 8.4656292592e-01	-2.6441901351e-01
 1.3272465558e+00	 8.7230036656e-01	-4.0106876140e-01
 1.3101570787e+00	 8.9776376555e-01	-5.2876030696e-01
 1.2925472337e+00	 9.2293715824e-01	-6.5474498558e-01
 1.2744243491e+00	 9.4780479415e-01	-7.8582616063e-01
 1.2272234473e+00	 9.1270091289e-01	-6.8089312615e-01
 1.2092854054e+00	 9.3633816235e-01	-8.0994264153e-01
 1.1908692476e+00	 9.5965138525e-01	-9.3272872723e-01
 1.1719838177e+00	 9.8262621427e-01	-1.0455650440e+00
 1.1526385311e+00	 1.0052486074e+00	-1.1492966329e+00
 1.1328433589e+00	 1.0275048761e+00	-1.2343128742e+00
 1.2366636277e+00	 9.1972168914e-01	-7.0441595966e-01
 1.2185876008e+00	 9.4354076360e-01	-8.3418643133e-01
 1.2000297802e+00	 9.6703331898e-01	-9.5707233809e-01
 1.1809990779e+00	 9.9018487745e-01	-1.0692527781e+00
 1.1615049813e+00	 1.0129812890e+00	-1.1680249484e+00
 1.1415575385e+00	 1.0354087597e+00	-1.2493693751e+00
 1.2461038080e+00	 9.2674246539e-01	-7.2658474615e-01
 1.2278897963e+00	 9.5074336485e-01	-8.5698091941e-01
 1.2091903129e+00	 9.7441525271e-01	-9.7970372004e-01
 1.1900143380e+00	 9.9774354064e-01	-1.0911986569e+00
 1.1703714316e+00	 1.0207139706e+00	-1.1865315815e+00
 1.1502717182e+00	 1.0433126434e+00	-1.2635665326e+00
 1.2555439884e+00	 9.3376324164e-01	-7.4749903030e-01
 1.2371919917e+00	 9.5794596609e-01	-8.7832535919e-01
 1.2183508456e+00	 9.8179718645e-01	-1.0005516367e+00
 1.1990295982e+00	 1.0053022038e+00	-1.1109543320e+00
 1.1792378818e+00	 1.0284466522e+00	-1.2044200841e+00
 1.1589858979e+00	 1.0512165270e+00	-1.2766378109e+00
 1.2649841688e+00	 9.4078401790e-01	-7.6723090761e-01
 1.2464941871e+00	 9.6514856734e-01	-8.9819337589e-01
 1.2275113783e+00	 9.8917912018e-01	-1.0195200982e+00
 1.2080448583e+00	 1.0128608670e+00	-1.1283822609e+00
 1.1881043321e+00	 1.0361793338e+00	-1.2200280517e+00
 1.1677000776e+00	 1.0591204107e+00	-1.2882837043e+00
 1.2744243491e+00	 9.4780479415e-01	-7.8582616063e-01
 1.2557963825e+00	 9.7235116859e-01	-9.1653401853e-01
 1.2366719109e+00	 9.9656105391e-01	-1.0364893563e+00
 1.2170601184e+00	 1.0204195302e+00	-1.1433210834e+00
 1.1969707823e+00	 1.0439120154e+00	-1.2327070724e+00
 1.1764142573e+00	 1.0670242944e+00	-1.2981701299e+00
 1.1328433589e+00	 1.0275048761e+00	-1.2343128742e+00
 1.1126088114e+00	 1.0493817126e+00	-1.3161090195e+00
 1.0919459200e+00	 1.0708662166e+00	-1.4120507908e+00
 1.0708662166e+00	 1.0919459200e+00	-1.5096295962e+00
 1.0493817126e+00	 1.1126088114e+00	-1.5957753564e+00
 1.0275048761e+00	 1.1328433589e+00	-1.6570603310e+00
 1.1415575385e+00	 1.0354087597e+00	-1.2493693751e+00
 1.1211673407e+00	 1.0574538796e+00	-1.3294822900e+00
 1.1003455040e+00	 1.0791036490e+00	-1.4256014694e+00
 1.0791036490e+00	 1.1003455040e+00	-1.5241853385e+00
 1.0574538796e+00	 1.1211673407e+00	-1.6110881833e+00
 1.0354087597e+00	 1.1415575385e+00	-1.6717759344e+00
 1.1502717182e+00	 1.0433126434e+00	-1.2635665326e+00
 1.1297258701e+00	 1.0655260467e+00	-1.3415095856e+00
 1.1087450880e+00	 1.0873410815e+00	-1.4375131899e+00
 1.0873410815e+00	 1.1087450880e+00	-1.5370370720e+00
 1.0655260467e+00	 1.1297258701e+00	-1.6248965324e+00
 1.0433126434e+00	 1.1502717182e+00	-1.6854902446e+00
 1.1589858979e+00	 1.0512165270e+00	-1.2766378109e+00
 1.1382843994e+00	 1.0735982137e+00	-1.3519920615e+00
 1.1171446720e+00	 1.0955785139e+00	-1.4476876014e+00
 1.0955785139e+00	 1.1171446720e+00	-1.5482184120e+00
 1.0735982137e+00	 1.1382843994e+00	-1.6373959282e+00
 1.0512165270e+00	 1.1589858979e+00	-1.6985889259e+00
 1.1677000776e+00	 1.0591204107e+00	-1.2882837043e+00
 1.1468429287e+00	 1.0816703807e+00	-1.3606967627e+00
 1.1255442560e+00	 1.1038159463e+00	-1.4559906055e+00
 1.1038159463e+00	 1.1255442560e+00	-1.5577251128e+00
 1.0816703807e+00	 1.1468429287e+00	-1.6487414663e+00
 1.0591204107e+00	 1.1677000776e+00	-1.7114142091e+00
 1.1764142573e+00	 1.0670242944e+00	-1.2981701299e+00
 1.1554014580e+00	 1.0897425477e+00	-1.3673550707e+00
 1.1339438400e+00	 1.1120533788e+00	-1.4622508908e+00
 1.1120533788e+00	 1.1339438400e+00	-1.5655137223e+00
 1.0897425477e+00	 1.1554014580e+00	-1.6590466181e+00
 1.0670242944e+00	 1.1764142573e+00	-1.7242638776e+00
 1.0275048761e+00	 1.1328433589e+00	-1.6570603310e+00
 1.0052486074e+00	 1.1526385311e+00	-1.7131498449e+00
 9.8262621427e-01	 1.1719838177e+00	-1.7825552380e+00
 9.5965138525e-01	 1.1908692476e+00	-1.8498065790e+00
 9.3633816235e-01	 1.2092854054e+00	-1.9060166214e+00
 9.1270091289e-01	 1.2272234473e+00	-1.9515605427e+00
 1.0354087597e+00	 1.1415575385e+00	-1.6717759344e+00
 1.0129812890e+00	 1.1615049813e+00	-1.7263700595e+00
 9.9018487745e-01	 1.1809990779e+00	-1.7940658715e+00
 9.6703331898e-01	 1.2000297802e+00	-1.8571443595e+00
 9.4354076360e-01	 1.2185876008e+00	-1.9108908228e+00
 9.1972168914e-01	 1.2366636277e+00	-1.9560057628e+00
 1.0433126434e+00	 1.1502717182e+00	-1.6854902446e+00
 1.0207139706e+00	 1.1703714316e+00	-1.7393868697e+00
 9.9774354064e-01	 1.1900143380e+00	-1.8043329993e+00
 9.7441525271e-01	 1.2091903129e+00	-1.8635577982e+00
 9.5074336485e-01	 1.2278897963e+00	-1.9154229513e+00
 9.2674246539e-01	 1.2461038080e+00	-1.9606585268e+00
 1.0512165270e+00	 1.1589858979e+00	-1.6985889259e+00
 1.0284466522e+00	 1.1792378818e+00	-1.7525945351e+00
 1.0053022038e+00	 1.1990295982e+00	-1.8128341280e+00
 9.8179718645e-01	 1.2183508456e+00	-1.8687114472e+00
 9.5794596609e-01	 1.2371919917e+00	-1.9191986900e+00
 9.3376324164e-01	 1.2555439884e+00	-1.9649559434e+00
 1.0591204107e+00	 1.1677000776e+00	-1.7114142091e+00
 1.0361793338e+00	 1.1881043321e+00	-1.7639077395e+00
 1.0128608670e+00	 1.2080448583e+00	-1.8192273044e+00
 9.8917912018e-01	 1.2275113783e+00	-1.8722571235e+00
 9.6514856734e-01	 1.2464941871e+00	-1.9217933561e+00
 9.4078401790e-01	 1.2649841688e+00	-1.9683290821e+00
 1.0670242944e+00	 1.1764142573e+00	-1.7242638776e+00
 1.0439120154e+00	 1.1969707823e+00	-1.7722068278e+00
 1.0204195302e+00	 1.2170601184e+00	-1.8231589811e+00
 9.9656105391e-01	 1.2366719109e+00	-1.8738353433e+00
 9.7235116859e-01	 1.2557963825e+00	-1.9227731854e+00
 9.4780479415e-01	 1.2744243491e+00	-1.9702040301e+00
 9.1270091289e-01	 1.2272234473e+00	-1.9515605427e+00
 8.8875430053e-01	 1.2446751140e+00	-1.9887635578e+00
 8.6451325571e-01	 1.2616327424e+00	-2.0185986960e+00
 8.3999294557e-01	 1.2780892760e+00	-2.0412507894e+00
 8.1520874348e-01	 1.2940382725e+00	-2.0575066948e+00
 7.9017619833e-01	 1.3094739102e+00	-2.0686366765e+00
 9.1972168914e-01	 1.2366636277e+00	-1.9560057628e+00
 8.9559087207e-01	 1.2542495379e+00	-1.9935807676e+00
 8.7116335768e-01	 1.2713376097e+00	-2.0232916066e+00
 8.4645442977e-01	 1.2879207320e+00	-2.0453938202e+00
 8.2147957996e-01	 1.3039924130e+00	-2.0607457971e+00
 7.9625447678e-01	 1.3195467865e+00	-2.0706841242e+00
 9.2674246539e-01	 1.2461038080e+00	-1.9606585268e+00
 9.0242744361e-01	 1.2638239619e+00	-1.9990142264e+00
 8.7781345965e-01	 1.2810424769e+00	-2.0288480530e+00
 8.5291591397e-01	 1.2977521879e+00	-2.0505152448e+00
 8.2775041645e-01	 1.3139465536e+00	-2.0649856665e+00
 8.0233275523e-01	 1.3296196627e+00	-2.0737124477e+00
 9.3376324164e-01	 1.2555439884e+00	-1.9649559434e+00
 9.0926401516e-01	 1.2733983858e+00	-2.0043466541e+00
 8.8446356161e-01	 1.2907473442e+00	-2.0344523825e+00
 8.5937739816e-01	 1.3075836439e+00	-2.0557565946e+00
 8.3402125294e-01	 1.3239006941e+00	-2.0693799513e+00
 8.0841103367e-01	 1.3396925389e+00	-2.0769415510e+00
 9.4078401790e-01	 1.2649841688e+00	-1.9683290821e+00
 9.1610058670e-01	 1.2829728098e+00	-2.0088591388e+00
 8.9111366358e-01	 1.3004522114e+00	-2.0392899855e+00
 8.6583888236e-01	 1.3174150999e+00	-2.0602614306e+00
 8.4029208943e-01	 1.3338548347e+00	-2.0730836782e+00
 8.1448931212e-01	 1.3497654152e+00	-2.0795904816e+00
 9.4780479415e-01	 1.2744243491e+00	-1.9702040301e+00
 9.2293715824e-01	 1.2925472337e+00	-2.0118319590e+00
 8.9776376555e-01	 1.3101570787e+00	-2.0425479426e+00
 8.7230036656e-01	 1.3272465558e+00	-2.0631758767e+00
 8.4656292592e-01	 1.3438089752e+00	-2.0752537309e+00
 8.2056759057e-01	 1.3598382914e+00	-2.0808779135e+00
 7.9017619833e-01	 1.3094739102e+00	-2.0686366765e+00
 7.6491100372e-01	 1.3243909930e+00	-2.0708688438e+00
 7.3942896709e-01	 1.3387849524e+00	-2.0623606227e+00
 7.1374597898e-01	 1.3526518486e+00	-2.0475644803e+00
 6.8787798254e-01	 1.3659883701e+00	-2.0308458617e+00
 6.6184094337e-01	 1.3787918304e+00	-2.0163902473e+00
 7.9625447678e-01	 1.3195467865e+00	-2.0706841242e+00
 7.7079493452e-01	 1.3345786160e+00	-2.0712416285e+00
 7.4511688222e-01	 1.3490832981e+00	-2.0604753263e+00
 7.1923633266e-01	 1.3630568628e+00	-2.0430339227e+00
 6.9316935164e-01	 1.3764959729e+00	-2.0234683433e+00
 6.6693202755e-01	 1.3893979214e+00	-2.0061343727e+00
 8.0233275523e-01	 1.3296196627e+00	-2.0737124477e+00
 7.7667886532e-01	 1.3447662391e+00	-2.0726061754e+00
 7.5080479735e-01	 1.3593816439e+00	-2.0596454012e+00
 7.2472668635e-01	 1.3734618770e+00	-2.0396520263e+00
 6.9846072074e-01	 1.3870035758e+00	-2.0173342380e+00
 6.7202311173e-01	 1.4000040125e+00	-1.9971848002e+00
 8.0841103367e-01	 1.3396925389e+00	-2.0769415510e+00
 7.8256279611e-01	 1.3549538621e+00	-2.0742644088e+00
 7.5649271248e-01	 1.3696799897e+00	-2.0592334172e+00
 7.3021704003e-01	 1.3838668913e+00	-2.0368215677e+00
 7.0375208983e-01	 1.3975111786e+00	-2.0118670303e+00
 6.7711419591e-01	 1.4106101035e+00	-1.9889671564e+00
 8.1448931212e-01	 1.3497654152e+00	-2.0795904816e+00
 7.8844672691e-01	 1.3651414851e+00	-2.0755147528e+00
 7.6218062762e-01	 1.3799783355e+00	-2.0585965261e+00
 7.3570739372e-01	 1.3942719055e+00	-2.0339387100e+00
 7.0904345893e-01	 1.4080187815e+00	-2.0064831101e+00
 6.8220528009e-01	 1.4212161945e+00	-1.9809001967e+00
 8.2056759057e-01	 1.3598382914e+00	-2.0808779135e+00
 7.9433065771e-01	 1.3753291081e+00	-2.0756526339e+00
 7.6786854275e-01	 1.3902766813e+00	-2.0570869598e+00
 7.4119774740e-01	 1.4046769197e+00	-2.0303934715e+00
 7.1433482802e-01	 1.4185263843e+00	-2.0005921904e+00
 6.8729636427e-01	 1.4318222855e+00	-1.9723961492e+00
 6.6184094337e-01	 1.3787918304e+00	-2.0163902473e+00
 6.3565081979e-01	 1.3910601645e+00	-1.9895248649e+00
 6.0932353372e-01	 1.4027919223e+00	-1.9350200920e+00
 5.8287494218e-01	 1.4139862615e+00	-1.8568392700e+00
 5.5632080957e-01	 1.4246429387e+00	-1.7843844621e+00
 5.2967678074e-01	 1.4347622988e+00	-1.7297883617e+00
 6.6693202755e-01	 1.3893979214e+00	-2.0061343727e+00
 6.4054044148e-01	 1.4017606273e+00	-1.9771288840e+00
 6.1401063782e-01	 1.4135826294e+00	-1.9218066320e+00
 5.8735859558e-01	 1.4248630789e+00	-1.8431580280e+00
 5.6060020041e-01	 1.4356017306e+00	-1.7656276242e+00
 5.3375121751e-01	 1.4457989318e+00	-1.7077621346e+00
 6.7202311173e-01	 1.4000040125e+00	-1.9971848002e+00
 6.4543006317e-01	 1.4124610901e+00	-1.9660112771e+00
 6.1869774193e-01	 1.4243733365e+00	-1.9097430107e+00
 5.9184224898e-01	 1.4357398963e+00	-1.8312373417e+00
 5.6487959126e-01	 1.4465605224e+00	-1.7486547959e+00
 5.3782565429e-01	 1.4568355649e+00	-1.6871859329e+00
 6.7711419591e-01	 1.4106101035e+00	-1.9889671564e+00
 6.5031968486e-01	 1.4231615529e+00	-1.9555972247e+00
 6.2338484603e-01	 1.4351640436e+00	-1.8982660673e+00
 5.9632590239e-01	 1.4466167137e+00	-1.8197559636e+00
 5.6915898210e-01	 1.4575193142e+00	-1.7329574443e+00
 5.4190009106e-01	 1.4678721980e+00	-1.6675911963e+00
 6.8220528009e-01	 1.4212161945e+00	-1.9809001967e+00
 6.5520930655e-01	 1.4338620157e+00	-1.9453055001e+00
 6.2807195014e-01	 1.4459547507e+00	-1.8868065084e+00
 6.0080955579e-01	 1.4574935311e+00	-1.8081447129e+00
 5.7343837294e-01	 1.4684781061e+00	-1.7180206213e+00
 5.4597452784e-01	 1.4789088310e+00	-1.6485038069e+00
 6.8729636427e-01	 1.4318222855e+00	-1.9723961492e+00
 6.6009892824e-01	 1.4445624785e+00	-1.9345487353e+00
 6.3275905424e-01	 1.4567454578e+00	-1.8747891091e+00
 6.0529320919e-01	 1.4683703485e+00	-1.7958512482e+00
 5.7771776378e-01	 1.4794368979e+00	-1.7033227805e+00
 5.5004896461e-01	 1.4899454641e+00	-1.6294439097e+00
 5.2967678074e-01	 1.4347622988e+00	-1.7297883617e+00
 5.0295835505e-01	 1.4443452631e+00	-1.6797753039e+00
 4.7618086136e-01	 1.4533933168e+00	-1.6227066188e+00
 4.4935943415e-01	 1.4619084940e+00	-1.5589944101e+00
 4.2250899067e-01	 1.4698933631e+00	-1.4886957344e+00
 3.9564420938e-01	 1.4773510096e+00	-1.4115760860e+00
 5.3375121751e-01	 1.4457989318e+00	-1.7077621346e+00
 5.0682726547e-01	 1.4554556113e+00	-1.6552472233e+00
 4.7984379106e-01	 1.4645732654e+00	-1.5955821696e+00
 4.5281604518e-01	 1.4731539440e+00	-1.5291139846e+00
 4.2575905983e-01	 1.4812002351e+00	-1.4558525833e+00
 3.9868762637e-01	 1.4887152481e+00	-1.3755356829e+00
 5.3782565429e-01	 1.4568355649e+00	-1.6871859329e+00
 5.1069617589e-01	 1.4665659595e+00	-1.6319560332e+00
 4.8350672076e-01	 1.4757532140e+00	-1.5696510205e+00
 4.5627265621e-01	 1.4843993940e+00	-1.5005180765e+00
 4.2900912899e-01	 1.4925071071e+00	-1.4244849604e+00
 4.0173104337e-01	 1.5000794867e+00	-1.3412265391e+00
 5.4190009106e-01	 1.4678721980e+00	-1.6675911963e+00
 5.1456508632e-01	 1.4776763077e+00	-1.6094710806e+00
 4.8716965047e-01	 1.4869331626e+00	-1.5445109364e+00
 4.5972926724e-01	 1.4956448439e+00	-1.4728236969e+00
 4.3225919815e-01	 1.5038139791e+00	-1.3942203033e+00
 4.0477446036e-01	 1.5114437252e+00	-1.3082780884e+00
 5.4597452784e-01	 1.4789088310e+00	-1.6485038069e+00
 5.1843399674e-01	 1.4887866558e+00	-1.5873570344e+00
 4.9083258017e-01	 1.4981131112e+00	-1.5197561153e+00
 4.6318587827e-01	 1.5068902939e+00	-1.4456456120e+00
 4.3550926731e-01	 1.5151208512e+00	-1.3646853192e+00
 4.0781787736e-01	 1.5228079638e+00	-1.2763207192e+00
 5.5004896461e-01	 1.4899454641e+00	-1.6294439097e+00
 5.2230290716e-01	 1.4998970040e+00	-1.5651737059e+00
 4.9449550987e-01	 1.5092930597e+00	-1.4949769992e+00
 4.6664248931e-01	 1.5181357438e+00	-1.4185961359e+00
 4.3875933647e-01	 1.5264277232e+00	-1.3355057493e+00
 4.1086129435e-01	 1.5341722023e+00	-1.2449855049e+00
 3.9564420938e-01	 1.4773510096e+00	-1.4115760860e+00
 3.6877950944e-01	 1.4842850196e+00	-1.3348198929e+00
 3.4192903166e-01	 1.4906994611e+00	-1.2651004965e+00
 3.1510662054e-01	 1.4965988653e+00	-1.2012381099e+00
 2.8832580772e-01	 1.5019882072e+00	-1.1420858574e+00
 2.6159979672e-01	 1.5068728853e+00	-1.0865573814e+00
 3.9868762637e-01	 1.4887152481e+00	-1.3755356829e+00
 3.7161627490e-01	 1.4957025967e+00	-1.2957322974e+00
 3.4455925498e-01	 1.5021663800e+00	-1.2234363938e+00
 3.1753051762e-01	 1.5081111643e+00	-1.1573642454e+00
 2.9054369854e-01	 1.5135419627e+00	-1.0962720956e+00
 2.6361210285e-01	 1.5184642152e+00	-1.0389846788e+00
 4.0173104337e-01	 1.5000794867e+00	-1.3412265391e+00
 3.7445304036e-01	 1.5071201738e+00	-1.2586178093e+00
 3.4718947830e-01	 1.5136332990e+00	-1.1839148190e+00
 3.1995441470e-01	 1.5196234633e+00	-1.1157281354e+00
 2.9276158937e-01	 1.5250957181e+00	-1.0527194258e+00
 2.6562440898e-01	 1.5300555450e+00	-9.9363073760e-01
 4.0477446036e-01	 1.5114437252e+00	-1.3082780884e+00
 3.7728980581e-01	 1.5185377508e+00	-1.2231128387e+00
 3.4981970162e-01	 1.5251002179e+00	-1.1461970741e+00
 3.2237831178e-01	 1.5311357622e+00	-1.0760335705e+00
 2.9497948020e-01	 1.5366494735e+00	-1.0111913827e+00
 2.6763671511e-01	 1.5416468749e+00	-9.5033572860e-01
 4.0781787736e-01	 1.5228079638e+00	-1.2763207192e+00
 3.8012657127e-01	 1.5299553279e+00	-1.1888561999e+00
 3.5244992494e-01	 1.5365671368e+00	-1.1099476871e+00
 3.2480220886e-01	 1.5426480612e+00	-1.0379877664e+00
 2.9719737103e-01	 1.5482032290e+00	-9.7145450786e-01
 2.6964902123e-01	 1.5532382048e+00	-9.0894180272e-01
 4.1086129435e-01	 1.5341722023e+00	-1.2449855049e+00
 3.8296333673e-01	 1.5413729050e+00	-1.1554888145e+00
 3.5508014826e-01	 1.5480340558e+00	-1.0748341090e+00
 3.2722610594e-01	 1.5541603602e+00	-1.0013010757e+00
 2.9941526186e-01	 1.5597569844e+00	-9.3327809849e-01
 2.7166132736e-01	 1.5648295347e+00	-8.6929289748e-01
 2.6159979672e-01	 1.5068728853e+00	-1.0865573814e+00
 2.3494144902e-01	 1.5112587011e+00	-1.0351361184e+00
 2.0836327141e-01	 1.5151518383e+00	-9.8889313543e-01
 1.8187740473e-01	 1.5185588417e+00	-9.4776102841e-01
 1.5549561388e-01	 1.5214865954e+00	-9.1177600532e-01
 1.2922927914e-01	 1.5239423019e+00	-8.8107233830e-01
 2.6361210285e-01	 1.5184642152e+00	-1.0389846788e+00
 2.3674869093e-01	 1.5228837680e+00	-9.8601859216e-01
 2.0996606580e-01	 1.5268068525e+00	-9.3849339011e-01
 1.8327646169e-01	 1.5302400635e+00	-8.9630329736e-01
 1.5669173399e-01	 1.5331903385e+00	-8.5947346102e-01
 1.3022335052e-01	 1.5356649350e+00	-8.2815306812e-01
 2.6562440898e-01	 1.5300555450e+00	-9.9363073760e-01
 2.3855593285e-01	 1.5345088349e+00	-9.3906939973e-01
 2.1156886020e-01	 1.5384618666e+00	-8.9025620753e-01
 1.8467551865e-01	 1.5419212854e+00	-8.4704558921e-01
 1.5788785410e-01	 1.5448940815e+00	-8.0944601730e-01
 1.3121742190e-01	 1.5473875681e+00	-7.7761198336e-01
 2.6763671511e-01	 1.5416468749e+00	-9.5033572860e-01
 2.4036317476e-01	 1.5461339019e+00	-8.9419687776e-01
 2.1317165459e-01	 1.5501168807e+00	-8.4412457612e-01
 1.8607457561e-01	 1.5536025073e+00	-7.9993220235e-01
 1.5908397420e-01	 1.5565978246e+00	-7.6160620579e-01
 1.3221149327e-01	 1.5591102011e+00	-7.2929712601e-01
 2.6964902123e-01	 1.5532382048e+00	-9.0894180272e-01
 2.4217041668e-01	 1.5577589688e+00	-8.5131046299e-01
 2.1477444899e-01	 1.5617718949e+00	-8.0004259802e-01
 1.8747363257e-01	 1.5652837291e+00	-7.5490945111e-01
 1.6028009431e-01	 1.5683015676e+00	-7.1587035821e-01
 1.3320556465e-01	 1.5708328342e+00	-6.8306299524e-01
 2.7166132736e-01	 1.5648295347e+00	-8.6929289748e-01
 2.4397765859e-01	 1.5693840357e+00	-8.1032054946e-01
 2.1637724338e-01	 1.5734269090e+00	-7.5795536240e-01
 1.8887268953e-01	 1.5769649510e+00	-7.1192552088e-01
 1.6147621442e-01	 1.5800053106e+00	-6.7215840907e-01
 1.3419963603e-01	 1.5825554673e+00	-6.3877026416e-01
 1.2922927914e-01	 1.5239423019e+00	-8.8107233830e-01
 1.0308938871e-01	 1.5259334599e+00	-8.5574209772e-01
 7.7086532569e-02	 1.5274678434e+00	-8.3600160406e-01
 5.1230897497e-02	 1.5285534800e+00	-8.2227764444e-01
 2.5532263268e-02	 1.5291986299e+00	-8.1503222391e-01
 0.0000000000e+00	 1.5294117647e+00	-8.1474215564e-01
 1.3022335052e-01	 1.5356649350e+00	-8.2815306812e-01
 1.0388238401e-01	 1.5376714096e+00	-8.0241383803e-01
 7.7679505897e-02	 1.5392175960e+00	-7.8239832702e-01
 5.1624981324e-02	 1.5403115837e+00	-7.6848872925e-01
 2.5728665293e-02	 1.5409616962e+00	-7.6110472658e-01
 0.0000000000e+00	 1.5411764706e+00	-7.6068246016e-01
 1.3121742190e-01	 1.5473875681e+00	-7.7761198336e-01
 1.0467537930e-01	 1.5494093593e+00	-7.5153452980e-01
 7.8272479224e-02	 1.5509673486e+00	-7.3124403398e-01
 5.2019065151e-02	 1.5520696874e+00	-7.1710331933e-01
 2.5925067318e-02	 1.5527247626e+00	-7.0952105960e-01
 0.0000000000e+00	 1.5529411765e+00	-7.0892966762e-01
 1.3221149327e-01	 1.5591102011e+00	-7.2929712601e-01
 1.0546837460e-01	 1.5611473089e+00	-7.0289168605e-01
 7.8865452551e-02	 1.5627171013e+00	-6.8230560304e-01
 5.2413148978e-02	 1.5638277911e+00	-6.6790679166e-01
 2.6121469343e-02	 1.5644878290e+00	-6.6012340594e-01
 0.0000000000e+00	 1.5647058824e+00	-6.5942018467e-01
 1.3320556465e-01	 1.5708328342e+00	-6.8306299524e-01
 1.0626136990e-01	 1.5728852586e+00	-6.5628171470e-01
 7.9458425879e-02	 1.5744668539e+00	-6.3535995600e-01
 5.2807232805e-02	 1.5755858947e+00	-6.2069445318e-01
 2.6317871368e-02	 1.5762508954e+00	-6.1276253116e-01
 0.0000000000e+00	 1.5764705882e+00	-6.1209645079e-01
 1.3419963603e-01	 1.5825554673e+00	-6.3877026416e-01
 1.0705436520e-01	 1.5846232083e+00	-6.1150955609e-01
 8.0051399206e-02	 1.5862166066e+00	-5.9019366320e-01
 5.3201316631e-02	 1.5873439984e+00	-5.7527115864e-01
 2.6514273394e-02	 1.5880139618e+00	-5.6729745889e-01
 0.0000000000e+00	 1.5882352941e+00	-5.6690671486e-01
 1.5882352941e+00	 0.0000000000e+00	 3.5510060987e+00
 1.5880139618e+00	 2.6514273394e-02	 3.5420064548e+00
 1.5873439984e+00	 5.3201316631e-02	 3.5271346099e+00
 1.5862166066e+00	 8.0051399206e-02	 3.5050901862e+00
 1.5846232083e+00	 1.0705436520e-01	 3.4750440561e+00
 1.5825554673e+00	 1.3419963603e-01	 3.4366782115e+00
 1.6000000000e+00	 0.0000000000e+00	 3.5307264213e+00
 1.5997770282e+00	 2.6710675419e-02	 3.5214059905e+00
 1.5991021021e+00	 5.3595400458e-02	 3.5067982071e+00
 1.5979663592e+00	 8.0644372534e-02	 3.4853451009e+00
 1.5963611580e+00	 1.0784736049e-01	 3.4559885101e+00
 1.5942781004e+00	 1.3519370741e-01	 3.4182090193e+00
 1.6117647059e+00	 0.0000000000e+00	 3.5098334356e+00
 1.6115400945e+00	 2.6907077444e-02	 3.5002099490e+00
 1.6108602058e+00	 5.3989484285e-02	 3.4858344898e+00
 1.6097161119e+00	 8.1237345861e-02	 3.4649085998e+00
 1.6080991077e+00	 1.0864035579e-01	 3.4361622001e+00
 1.6060007335e+00	 1.3618777879e-01	 3.3988913039e+00
 1.6235294118e+00	 0.0000000000e+00	 3.4882554778e+00
 1.6233031609e+00	 2.7103479469e-02	 3.4783764682e+00
 1.6226183095e+00	 5.4383568112e-02	 3.4642174852e+00
 1.6214658645e+00	 8.1830319189e-02	 3.4437570476e+00
 1.6198370574e+00	 1.0943335109e-01	 3.4155306702e+00
 1.6177233666e+00	 1.3718185016e-01	 3.3786670459e+00
 1.6352941176e+00	 0.0000000000e+00	 3.4659206757e+00
 1.6350662273e+00	 2.7299881494e-02	 3.4558619073e+00
 1.6343764132e+00	 5.4777651939e-02	 3.4419181980e+00
 1.6332156171e+00	 8.2423292516e-02	 3.4218628978e+00
 1.6315750071e+00	 1.1022634639e-01	 3.3940550448e+00
 1.6294459997e+00	 1.3817592154e-01	 3.3574737030e+00
 1.6470588235e+00	 0.0000000000e+00	 3.4427569562e+00
 1.6468292937e+00	 2.7496283519e-02	 3.4326208933e+00
 1.6461345169e+00	 5.5171735766e-02	 3.4189046906e+00
 1.6449653698e+00	 8.3016265844e-02	 3.3991947986e+00
 1.6433129568e+00	 1.1101934169e-01	 3.3716921537e+00
 1.6411686328e+00	 1.3916999292e-01	 3.3352443484e+00
 1.5825554673e+00	 1.3419963603e-01	 3.4366782115e+00
 1.5800053106e+00	 1.6147621442e-01	 3.3881869210e+00
 1.5769649510e+00	 1.8887268953e-01	 3.3276026977e+00
 1.5734269090e+00	 2.1637724338e-01	 3.2551894053e+00
 1.5693840357e+00	 2.4397765859e-01	 3.1717836035e+00
 1.5648295347e+00	 2.7166132736e-01	 3.0788046814e+00
 1.5942781004e+00	 1.3519370741e-01	 3.4182090193e+00
 1.5917090537e+00	 1.6267233453e-01	 3.3700341872e+00
 1.5886461728e+00	 1.9027174649e-01	 3.3095219164e+00
 1.5850819232e+00	 2.1798003778e-01	 3.2370657943e+00
 1.5810091027e+00	 2.4578490051e-01	 3.1536603581e+00
 1.5764208646e+00	 2.7367363349e-01	 3.0609080382e+00
 1.6060007335e+00	 1.3618777879e-01	 3.3988913039e+00
 1.6034127967e+00	 1.6386845463e-01	 3.3509834336e+00
 1.6003273947e+00	 1.9167080345e-01	 3.2905435254e+00
 1.5967369373e+00	 2.1958283217e-01	 3.2181033818e+00
 1.5926341696e+00	 2.4759214243e-01	 3.1348232520e+00
 1.5880121945e+00	 2.7568593962e-01	 3.0424953147e+00
 1.6177233666e+00	 1.3718185016e-01	 3.3786670459e+00
 1.6151165398e+00	 1.6506457474e-01	 3.3309433269e+00
 1.6120086166e+00	 1.9306986040e-01	 3.2705362408e+00
 1.6083919514e+00	 2.2118562657e-01	 3.1981248914e+00
 1.6042592365e+00	 2.4939938434e-01	 3.1150435445e+00
 1.5996035244e+00	 2.7769824575e-01	 3.0232813683e+00
 1.6294459997e+00	 1.3817592154e-01	 3.3574737030e+00
 1.6268202828e+00	 1.6626069485e-01	 3.3098182637e+00
 1.6236898384e+00	 1.9446891736e-01	 3.2493650607e+00
 1.6200469656e+00	 2.2278842097e-01	 3.1769501954e+00
 1.6158843034e+00	 2.5120662626e-01	 3.0940908366e+00
 1.6111948543e+00	 2.7971055188e-01	 3.0029809279e+00
 1.6411686328e+00	 1.3916999292e-01	 3.3352443484e+00
 1.6385240259e+00	 1.6745681495e-01	 3.2875085163e+00
 1.6353710603e+00	 1.9586797432e-01	 3.2268914180e+00
 1.6317019797e+00	 2.2439121536e-01	 3.1543964728e+00
 1.6275093704e+00	 2.5301386817e-01	 3.0717332338e+00
 1.6227861841e+00	 2.8172285801e-01	 2.9813087608e+00
 1.5648295347e+00	 2.7166132736e-01	 3.0788046814e+00
 1.5597569844e+00	 2.9941526186e-01	 2.9741087906e+00
 1.5541603602e+00	 3.2722610594e-01	 2.8565899675e+00
 1.5480340558e+00	 3.5508014826e-01	 2.7300880974e+00
 1.5413729050e+00	 3.8296333673e-01	 2.5990022504e+00
 1.5341722023e+00	 4.1086129435e-01	 2.4682861970e+00
 1.5764208646e+00	 2.7367363349e-01	 3.0609080382e+00
 1.5713107399e+00	 3.0163315269e-01	 2.9566410677e+00
 1.5656726591e+00	 3.2965000302e-01	 2.8394784971e+00
 1.5595009747e+00	 3.5771037158e-01	 2.7130870625e+00
 1.5527904821e+00	 3.8580010219e-01	 2.5816965400e+00
 1.5455364408e+00	 4.1390471135e-01	 2.4500945198e+00
 1.5880121945e+00	 2.7568593962e-01	 3.0424953147e+00
 1.5828644953e+00	 3.0385104352e-01	 2.9389207672e+00
 1.5771849581e+00	 3.3207390010e-01	 2.8224118152e+00
 1.5709678936e+00	 3.6034059490e-01	 2.6964302968e+00
 1.5642080591e+00	 3.8863686764e-01	 2.5650044423e+00
 1.5569006794e+00	 4.1694812834e-01	 2.4327229966e+00
 1.5996035244e+00	 2.7769824575e-01	 3.0232813683e+00
 1.5944182507e+00	 3.0606893434e-01	 2.9206072400e+00
 1.5886972570e+00	 3.3449779719e-01	 2.8050009877e+00
 1.5824348126e+00	 3.6297081822e-01	 2.6796889870e+00
 1.5756256362e+00	 3.9147363310e-01	 2.5484667670e+00
 1.5682649179e+00	 4.1999154534e-01	 2.4156925644e+00
 1.6111948543e+00	 2.7971055188e-01	 3.0029809279e+00
 1.6059720062e+00	 3.0828682517e-01	 2.9013614287e+00
 1.6002095560e+00	 3.3692169427e-01	 2.7868604176e+00
 1.5939017315e+00	 3.6560104154e-01	 2.6624394047e+00
 1.5870432133e+00	 3.9431039856e-01	 2.5316311347e+00
 1.5796291564e+00	 4.2303496233e-01	 2.3985326463e+00
 1.6227861841e+00	 2.8172285801e-01	 2.9813087608e+00
 1.6175257616e+00	 3.1050471600e-01	 2.8808460425e+00
 1.6117218550e+00	 3.3934559135e-01	 2.7676080390e+00
 1.6053686504e+00	 3.6823126487e-01	 2.6442631312e+00
 1.5984607903e+00	 3.9714716401e-01	 2.5140522449e+00
 1.5909933950e+00	 4.2607837933e-01	 2.3807814775e+00
 1.5341722023e+00	 4.1086129435e-01	 2.4682861970e+00
 1.5264277232e+00	 4.3875933647e-01	 2.3268103359e+00
 1.5181357438e+00	 4.6664248931e-01	 2.1638334134e+00
 1.5092930597e+00	 4.9449550987e-01	 1.9857057561e+00
 1.4998970040e+00	 5.2230290716e-01	 1.7993197994e+00
 1.4899454641e+00	 5.5004896461e-01	 1.6121248308e+00
 1.5455364408e+00	 4.1390471135e-01	 2.4500945198e+00
 1.5377345952e+00	 4.4200940563e-01	 2.3069851054e+00
 1.5293811938e+00	 4.7009910034e-01	 2.1420206405e+00
 1.5204730083e+00	 4.9815843958e-01	 1.9622577310e+00
 1.5110073522e+00	 5.2617181759e-01	 1.7753346638e+00
 1.5009820972e+00	 5.5412340139e-01	 1.5894852584e+00
 1.5569006794e+00	 4.1694812834e-01	 2.4327229966e+00
 1.5490414672e+00	 4.4525947479e-01	 2.2881566381e+00
 1.5406266437e+00	 4.7355571137e-01	 2.1214040106e+00
 1.5316529569e+00	 5.0182136928e-01	 1.9402222230e+00
 1.5221177004e+00	 5.3004072801e-01	 1.7529861065e+00
 1.5120187302e+00	 5.5819783816e-01	 1.5687011844e+00
 1.5682649179e+00	 4.1999154534e-01	 2.4156925644e+00
 1.5603483393e+00	 4.4850954395e-01	 2.2698259763e+00
 1.5518720937e+00	 4.7701232240e-01	 2.1014535038e+00
 1.5428329055e+00	 5.0548429898e-01	 1.9190269307e+00
 1.5332280485e+00	 5.3390963843e-01	 1.7316482124e+00
 1.5230553633e+00	 5.6227227494e-01	 1.5490815782e+00
 1.5796291564e+00	 4.2303496233e-01	 2.3985326463e+00
 1.5716552113e+00	 4.5175961311e-01	 2.2515045720e+00
 1.5631175436e+00	 4.8046893343e-01	 2.0816519896e+00
 1.5540128541e+00	 5.0914722868e-01	 1.8981154635e+00
 1.5443383967e+00	 5.3777854886e-01	 1.7107145207e+00
 1.5340919964e+00	 5.6634671171e-01	 1.5299589022e+00
 1.5909933950e+00	 4.2607837933e-01	 2.3807814775e+00
 1.5829620833e+00	 4.5500968227e-01	 2.2327146713e+00
 1.5743629936e+00	 4.8392554447e-01	 2.0614956632e+00
 1.5651928027e+00	 5.1281015839e-01	 1.8769478195e+00
 1.5554487449e+00	 5.4164745928e-01	 1.6895985333e+00
 1.5451286294e+00	 5.7042114849e-01	 1.5106896439e+00
 1.4899454641e+00	 5.5004896461e-01	 1.6121248308e+00
 1.4794368979e+00	 5.7771776378e-01	 1.4412509547e+00
 1.4683703485e+00	 6.0529320919e-01	 1.2924452374e+00
 1.4567454578e+00	 6.3275905424e-01	 1.1233206105e+00
 1.4445624785e+00	 6.6009892824e-01	 9.3528482193e-01
 1.4318222855e+00	 6.8729636427e-01	 7.3418990339e-01
 1.5009820972e+00	 5.5412340139e-01	 1.5894852584e+00
 1.4903956897e+00	 5.8199715463e-01	 1.4221655540e+00
 1.4792471659e+00	 6.0977686259e-01	 1.2714805189e+00
 1.4675361649e+00	 6.3744615835e-01	 1.0996180120e+00
 1.4552629413e+00	 6.6498854993e-01	 9.1061482090e-01
 1.4424283765e+00	 6.9238744845e-01	 7.0958907432e-01
 1.5120187302e+00	 5.5819783816e-01	 1.5687011844e+00
 1.5013544816e+00	 5.8627654547e-01	 1.4050281010e+00
 1.4901239833e+00	 6.1426051599e-01	 1.2512500065e+00
 1.4783268720e+00	 6.4213326245e-01	 1.0770687866e+00
 1.4659634042e+00	 6.6987817162e-01	 8.8737252260e-01
 1.4530344675e+00	 6.9747853263e-01	 6.8654765025e-01
 1.5230553633e+00	 5.6227227494e-01	 1.5490815782e+00
 1.5123132734e+00	 5.9055593631e-01	 1.3888729942e+00
 1.5010008007e+00	 6.1874416939e-01	 1.2311927112e+00
 1.4891175791e+00	 6.4682036656e-01	 1.0551213580e+00
 1.4766638670e+00	 6.7476779331e-01	 8.6503354827e-01
 1.4636405585e+00	 7.0256961681e-01	 6.6458657084e-01
 1.5340919964e+00	 5.6634671171e-01	 1.5299589022e+00
 1.5232720653e+00	 5.9483532716e-01	 1.3719732671e+00
 1.5118776181e+00	 6.2322782279e-01	 1.2107801574e+00
 1.4999082862e+00	 6.5150747067e-01	 1.0332565585e+00
 1.4873643298e+00	 6.7965741500e-01	 8.4310527891e-01
 1.4742466495e+00	 7.0766070098e-01	 6.4325736259e-01
 1.5451286294e+00	 5.7042114849e-01	 1.5106896439e+00
 1.5342308571e+00	 5.9911471800e-01	 1.3536802256e+00
 1.5227544355e+00	 6.2771147620e-01	 1.1895153430e+00
 1.5106989933e+00	 6.5619457477e-01	 1.0109865276e+00
 1.4980647926e+00	 6.8454703669e-01	 8.2112571393e-01
 1.4848527405e+00	 7.1275178516e-01	 6.2214097781e-01
 1.4318222855e+00	 6.8729636427e-01	 7.3418990339e-01
 1.4185263843e+00	 7.1433482802e-01	 5.4034385945e-01
 1.4046769197e+00	 7.4119774740e-01	 3.6614232081e-01
 1.3902766813e+00	 7.6786854275e-01	 2.0461692689e-01
 1.3753291081e+00	 7.9433065771e-01	 4.8162248997e-02
 1.3598382914e+00	 8.2056759057e-01	-1.1133205856e-01
 1.4424283765e+00	 6.9238744845e-01	 7.0958907432e-01
 1.4290339871e+00	 7.1962619712e-01	 5.1593477305e-01
 1.4150819339e+00	 7.4668810109e-01	 3.4178346143e-01
 1.4005750271e+00	 7.7355645788e-01	 1.8035129311e-01
 1.3855167312e+00	 8.0021458851e-01	 2.4202943348e-02
 1.3699111676e+00	 8.2664586902e-01	-1.3461472104e-01
 1.4530344675e+00	 6.9747853263e-01	 6.8654765025e-01
 1.4395415900e+00	 7.2491756622e-01	 4.9314315274e-01
 1.4254869481e+00	 7.5217845477e-01	 3.1908955290e-01
 1.4108733729e+00	 7.7924437301e-01	 1.5778006919e-01
 1.3957043542e+00	 8.0609851931e-01	 1.9383763292e-03
 1.3799840439e+00	 8.3272414747e-01	-1.5624626721e-01
 1.4636405585e+00	 7.0256961681e-01	 6.6458657084e-01
 1.4500491928e+00	 7.3020893531e-01	 4.7153841677e-01
 1.4358919624e+00	 7.5766880846e-01	 2.9766670155e-01
 1.4211717187e+00	 7.8493228814e-01	 1.3653453932e-01
 1.4058919772e+00	 8.1198245010e-01	-1.8986238865e-02
 1.3900569201e+00	 8.3880242592e-01	-1.7657856737e-01
 1.4742466495e+00	 7.0766070098e-01	 6.4325736259e-01
 1.4605567957e+00	 7.3550030441e-01	 4.5071933051e-01
 1.4462969766e+00	 7.6315916214e-01	 2.7714950964e-01
 1.4314700644e+00	 7.9062020327e-01	 1.1627403522e-01
 1.4160796002e+00	 8.1786638090e-01	-3.8897675394e-02
 1.4001297963e+00	 8.4488070437e-01	-1.9593508860e-01
 1.4848527405e+00	 7.1275178516e-01	 6.2214097781e-01
 1.4710643985e+00	 7.4079167351e-01	 4.3031283151e-01
 1.4567019908e+00	 7.6864951583e-01	 2.5719987674e-01
 1.4417684102e+00	 7.9630811840e-01	 9.6684704678e-02
 1.4262672233e+00	 8.2375031170e-01	-5.8095965839e-02
 1.4102026726e+00	 8.5095898282e-01	-2.1461221779e-01
 1.3598382914e+00	 8.2056759057e-01	-1.1133205856e-01
 1.3438089752e+00	 8.4656292592e-01	-2.6441901351e-01
 1.3272465558e+00	 8.7230036656e-01	-4.0106876140e-01
 1.3101570787e+00	 8.9776376555e-01	-5.2876030696e-01
 1.2925472337e+00	 9.2293715824e-01	-6.5474498558e-01
 1.2744243491e+00	 9.4780479415e-01	-7.8582616063e-01
 1.3699111676e+00	 8.2664586902e-01	-1.3461472104e-01
 1.3537631158e+00	 8.5283376241e-01	-2.8647756565e-01
 1.3370780118e+00	 8.7876185075e-01	-4.2153698397e-01
 1.3198619459e+00	 9.0441386752e-01	-5.4767186809e-01
 1.3021216577e+00	 9.2977372978e-01	-6.7254187837e-01
 1.2838645295e+00	 9.5482557040e-01	-8.0335825052e-01
 1.3799840439e+00	 8.3272414747e-01	-1.5624626721e-01
 1.3637172564e+00	 8.5910459889e-01	-3.0699816050e-01
 1.3469094678e+00	 8.8522333495e-01	-4.4063610500e-01
 1.3295668132e+00	 9.1106396948e-01	-5.6539308994e-01
 1.3116960816e+00	 9.3661030133e-01	-6.8928565865e-01
 1.2933047099e+00	 9.6184634666e-01	-8.1987587531e-01
 1.3900569201e+00	 8.3880242592e-01	-1.7657856737e-01
 1.3736713969e+00	 8.6537543538e-01	-3.2631869852e-01
 1.3567409237e+00	 8.9168481915e-01	-4.5865780640e-01
 1.3392716804e+00	 9.1771407145e-01	-5.8213840907e-01
 1.3212705056e+00	 9.4344687287e-01	-7.0508388506e-01
 1.3027448902e+00	 9.6886712291e-01	-8.3535164645e-01
 1.4001297963e+00	 8.4488070437e-01	-1.9593508860e-01
 1.3836255375e+00	 8.7164627187e-01	-3.4474848701e-01
 1.3665723797e+00	 8.9814630334e-01	-4.7586578903e-01
 1.3489765477e+00	 9.2436417342e-01	-5.9809565670e-01
 1.3308449295e+00	 9.5028344441e-01	-7.2001961145e-01
 1.3121850706e+00	 9.7588789916e-01	-8.4973645687e-01
 1.4102026726e+00	 8.5095898282e-01	-2.1461221779e-01
 1.3935796780e+00	 8.7791710836e-01	-3.6256959863e-01
 1.3764038357e+00	 9.0460778754e-01	-4.9249713003e-01
 1.3586814149e+00	 9.3101427538e-01	-6.1342737912e-01
 1.3404193535e+00	 9.5712001595e-01	-7.3415263573e-01
 1.3216252510e+00	 9.8290867542e-01	-8.6296062497e-01
 1.2744243491e+00	 9.4780479415e-01	-7.8582616063e-01
 1.2557963825e+00	 9.7235116859e-01	-9.1653401853e-01
 1.2366719109e+00	 9.9656105391e-01	-1.0364893563e+00
 1.2170601184e+00	 1.0204195302e+00	-1.1433210834e+00
 1.1969707823e+00	 1.0439120154e+00	-1.2327070724e+00
 1.1764142573e+00	 1.0670242944e+00	-1.2981701299e+00
 1.2838645295e+00	 9.5482557040e-01	-8.0335825052e-01
 1.2650985780e+00	 9.7955376984e-01	-9.3360838888e-01
 1.2458324436e+00	 1.0039429876e+00	-1.0519387542e+00
 1.2260753786e+00	 1.0279781934e+00	-1.1564743448e+00
 1.2058372325e+00	 1.0516446969e+00	-1.2433683900e+00
 1.1851284370e+00	 1.0749281780e+00	-1.3065859541e+00
 1.2933047099e+00	 9.6184634666e-01	-8.1987587531e-01
 1.2744007734e+00	 9.8675637109e-01	-9.4963149431e-01
 1.2549929763e+00	 1.0113249214e+00	-1.0662933727e+00
 1.2350906387e+00	 1.0355368566e+00	-1.1684970579e+00
 1.2147036828e+00	 1.0593773785e+00	-1.2528950408e+00
 1.1938426166e+00	 1.0828320617e+00	-1.3139276283e+00
 1.3027448902e+00	 9.6886712291e-01	-8.3535164645e-01
 1.2837029688e+00	 9.9395897234e-01	-9.6445033720e-01
 1.2641535090e+00	 1.0187068551e+00	-1.0793205229e+00
 1.2441058988e+00	 1.0430955198e+00	-1.1791231483e+00
 1.2235701330e+00	 1.0671100601e+00	-1.2610341779e+00
 1.2025567963e+00	 1.0907359453e+00	-1.3200023345e+00
 1.3121850706e+00	 9.7588789916e-01	-8.4973645687e-01
 1.2930051643e+00	 1.0011615736e+00	-9.7789260764e-01
 1.2733140416e+00	 1.0260887888e+00	-1.0907691919e+00
 1.2531211590e+00	 1.0506541829e+00	-1.1880677966e+00
 1.2324365833e+00	 1.0748427417e+00	-1.2675123931e+00
 1.2112709760e+00	 1.0986398290e+00	-1.3245935301e+00
 1.3216252510e+00	 9.8290867542e-01	-8.6296062497e-01
 1.3023073597e+00	 1.0083641748e+00	-9.8976772704e-01
 1.2824745743e+00	 1.0334707226e+00	-1.1003710279e+00
 1.2621364191e+00	 1.0582128461e+00	-1.1950284066e+00
 1.2413030335e+00	 1.0825754233e+00	-1.2720367097e+00
 1.2199851557e+00	 1.1065437127e+00	-1.3274619786e+00
 1.1764142573e+00	 1.0670242944e+00	-1.2981701299e+00
 1.1554014580e+00	 1.0897425477e+00	-1.3673550707e+00
 1.1339438400e+00	 1.1120533788e+00	-1.4622508908e+00
 1.1120533788e+00	 1.1339438400e+00	-1.5655137223e+00
 1.0897425477e+00	 1.1554014580e+00	-1.6590466181e+00
 1.0670242944e+00	 1.1764142573e+00	-1.7242638776e+00
 1.1851284370e+00	 1.0749281780e+00	-1.3065859541e+00
 1.1639599873e+00	 1.0978147147e+00	-1.3730225780e+00
 1.1423434240e+00	 1.1202908112e+00	-1.4676543084e+00
 1.1202908112e+00	 1.1423434240e+00	-1.5729095104e+00
 1.0978147147e+00	 1.1639599873e+00	-1.6698119800e+00
 1.0749281780e+00	 1.1851284370e+00	-1.7365729782e+00
 1.1938426166e+00	 1.0828320617e+00	-1.3139276283e+00
 1.1725185166e+00	 1.1058868818e+00	-1.3787815382e+00
 1.1507430080e+00	 1.1285282436e+00	-1.4734214172e+00
 1.1285282436e+00	 1.1507430080e+00	-1.5812549912e+00
 1.1058868818e+00	 1.1725185166e+00	-1.6825115853e+00
 1.0828320617e+00	 1.1938426166e+00	-1.7471167976e+00
 1.2025567963e+00	 1.0907359453e+00	-1.3200023345e+00
 1.1810770460e+00	 1.1139590488e+00	-1.3842408151e+00
 1.1591425920e+00	 1.1367656761e+00	-1.4793703253e+00
 1.1367656761e+00	 1.1591425920e+00	-1.5904677931e+00
 1.1139590488e+00	 1.1810770460e+00	-1.6963568453e+00
 1.0907359453e+00	 1.2025567963e+00	-1.7552545432e+00
 1.2112709760e+00	 1.0986398290e+00	-1.3245935301e+00
 1.1896355753e+00	 1.1220312158e+00	-1.3886179425e+00
 1.1675421760e+00	 1.1450031085e+00	-1.4852729349e+00
 1.1450031085e+00	 1.1675421760e+00	-1.6004184412e+00
 1.1220312158e+00	 1.1896355753e+00	-1.7069492126e+00
 1.0986398290e+00	 1.2112709760e+00	-1.7603468378e+00
 1.2199851557e+00	 1.1065437127e+00	-1.3274619786e+00
 1.1981941046e+00	 1.1301033828e+00	-1.3916635581e+00
 1.1759417600e+00	 1.1532405409e+00	-1.4908536034e+00
 1.1532405409e+00	 1.1759417600e+00	-1.6109290934e+00
 1.1301033828e+00	 1.1981941046e+00	-1.7130390418e+00
 1.1065437127e+00	 1.2199851557e+00	-1.7617568749e+00
 1.0670242944e+00	 1.1764142573e+00	-1.7242638776e+00
 1.0439120154e+00	 1.1969707823e+00	-1.7722068278e+00
 1.0204195302e+00	 1.2170601184e+00	-1.8231589811e+00
 9.9656105391e-01	 1.2366719109e+00	-1.8738353433e+00
 9.7235116859e-01	 1.2557963825e+00	-1.9227731854e+00
 9.4780479415e-01	 1.2744243491e+00	-1.9702040301e+00
 1.0749281780e+00	 1.1851284370e+00	-1.7365729782e+00
 1.0516446969e+00	 1.2058372325e+00	-1.7786494523e+00
 1.0279781934e+00	 1.2260753786e+00	-1.8259854935e+00
 1.0039429876e+00	 1.2458324436e+00	-1.8749372493e+00
 9.7955376984e-01	 1.2650985780e+00	-1.9236792535e+00
 9.5482557040e-01	 1.2838645295e+00	-1.9720716525e+00
 1.0828320617e+00	 1.1938426166e+00	-1.7471167976e+00
 1.0593773785e+00	 1.2147036828e+00	-1.7842696253e+00
 1.0355368566e+00	 1.2350906387e+00	-1.8289054643e+00
 1.0113249214e+00	 1.2549929763e+00	-1.8768980202e+00
 9.8675637109e-01	 1.2744007734e+00	-1.9259348530e+00
 9.6184634666e-01	 1.2933047099e+00	-1.9753801430e+00
 1.0907359453e+00	 1.2025567963e+00	-1.7552545432e+00
 1.0671100601e+00	 1.2235701330e+00	-1.7884569773e+00
 1.0430955198e+00	 1.2441058988e+00	-1.8313206379e+00
 1.0187068551e+00	 1.2641535090e+00	-1.8791162767e+00
 9.9395897234e-01	 1.2837029688e+00	-1.9289233179e+00
 9.6886712291e-01	 1.3027448902e+00	-1.9794885339e+00
 1.0986398290e+00	 1.2112709760e+00	-1.7603468378e+00
 1.0748427417e+00	 1.2324365833e+00	-1.7906019065e+00
 1.0506541829e+00	 1.2531211590e+00	-1.8326332606e+00
 1.0260887888e+00	 1.2733140416e+00	-1.8809911052e+00
 1.0011615736e+00	 1.2930051643e+00	-1.9320285836e+00
 9.7588789916e-01	 1.3121850706e+00	-1.9837567075e+00
 1.1065437127e+00	 1.2199851557e+00	-1.7617568749e+00
 1.0825754233e+00	 1.2413030335e+00	-1.7900968014e+00
 1.0582128461e+00	 1.2621364191e+00	-1.8322472580e+00
 1.0334707226e+00	 1.2824745743e+00	-1.8819231753e+00
 1.0083641748e+00	 1.3023073597e+00	-1.9346362304e+00
 9.8290867542e-01	 1.3216252510e+00	-1.9875463575e+00
 9.4780479415e-01	 1.2744243491e+00	-1.9702040301e+00
 9.2293715824e-01	 1.2925472337e+00	-2.0118319590e+00
 8.9776376555e-01	 1.3101570787e+00	-2.0425479426e+00
 8.7230036656e-01	 1.3272465558e+00	-2.0631758767e+00
 8.4656292592e-01	 1.3438089752e+00	-2.0752537309e+00
 8.2056759057e-01	 1.3598382914e+00	-2.0808779135e+00
 9.5482557040e-01	 1.2838645295e+00	-1.9720716525e+00
 9.2977372978e-01	 1.3021216577e+00	-2.0146487098e+00
 9.0441386752e-01	 1.3198619459e+00	-2.0455087742e+00
 8.7876185075e-01	 1.3370780118e+00	-2.0657032792e+00
 8.5283376241e-01	 1.3537631158e+00	-2.0770470615e+00
 8.2664586902e-01	 1.3699111676e+00	-2.0819532332e+00
 9.6184634666e-01	 1.2933047099e+00	-1.9753801430e+00
 9.3661030133e-01	 1.3116960816e+00	-2.0187286494e+00
 9.1106396948e-01	 1.3295668132e+00	-2.0495379914e+00
 8.8522333495e-01	 1.3469094678e+00	-2.0691460023e+00
 8.5910459889e-01	 1.3637172564e+00	-2.0797041673e+00
 8.3272414747e-01	 1.3799840439e+00	-2.0840022955e+00
 9.6886712291e-01	 1.3027448902e+00	-1.9794885339e+00
 9.4344687287e-01	 1.3212705056e+00	-2.0234056687e+00
 9.1771407145e-01	 1.3392716804e+00	-2.0539490645e+00
 8.9168481915e-01	 1.3567409237e+00	-2.0728010820e+00
 8.6537543538e-01	 1.3736713969e+00	-2.0825088930e+00
 8.3880242592e-01	 1.3900569201e+00	-2.0862982364e+00
 9.7588789916e-01	 1.3121850706e+00	-1.9837567075e+00
 9.5028344441e-01	 1.3308449295e+00	-2.0280146704e+00
 9.2436417342e-01	 1.3489765477e+00	-2.0580564262e+00
 8.9814630334e-01	 1.3665723797e+00	-2.0759663124e+00
 8.7164627187e-01	 1.3836255375e+00	-2.0847455406e+00
 8.4488070437e-01	 1.4001297963e+00	-2.0881143075e+00
 9.8290867542e-01	 1.3216252510e+00	-1.9875463575e+00
 9.5712001595e-01	 1.3404193535e+00	-2.0318924462e+00
 9.3101427538e-01	 1.3586814149e+00	-2.0611762678e+00
 9.0460778754e-01	 1.3764038357e+00	-2.0779409656e+00
 8.7791710836e-01	 1.3935796780e+00	-2.0856995139e+00
 8.5095898282e-01	 1.4102026726e+00	-2.0887244469e+00
 8.2056759057e-01	 1.3598382914e+00	-2.0808779135e+00
 7.9433065771e-01	 1.3753291081e+00	-2.0756526339e+00
 7.6786854275e-01	 1.3902766813e+00	-2.0570869598e+00
 7.4119774740e-01	 1.4046769197e+00	-2.0303934715e+00
 7.1433482802e-01	 1.4185263843e+00	-2.0005921904e+00
 6.8729636427e-01	 1.4318222855e+00	-1.9723961492e+00
 8.2664586902e-01	 1.3699111676e+00	-2.0819532332e+00
 8.0021458851e-01	 1.3855167312e+00	-2.0758311961e+00
 7.7355645788e-01	 1.4005750271e+00	-2.0558427305e+00
 7.4668810109e-01	 1.4150819339e+00	-2.0272900063e+00
 7.1962619712e-01	 1.4290339871e+00	-1.9952483284e+00
 6.9238744845e-01	 1.4424283765e+00	-1.9644474810e+00
 8.3272414747e-01	 1.3799840439e+00	-2.0840022955e+00
 8.0609851931e-01	 1.3957043542e+00	-2.0771852810e+00
 7.7924437301e-01	 1.4108733729e+00	-2.0559449899e+00
 7.5217845477e-01	 1.4254869481e+00	-2.0256531822e+00
 7.2491756622e-01	 1.4395415900e+00	-1.9914198771e+00
 6.9747853263e-01	 1.4530344675e+00	-1.9579703694e+00
 8.3880242592e-01	 1.3900569201e+00	-2.0862982364e+00
 8.1198245010e-01	 1.4058919772e+00	-2.0789804322e+00
 7.8493228814e-01	 1.4211717187e+00	-2.0566565347e+00
 7.5766880846e-01	 1.4358919624e+00	-2.0247487065e+00
 7.3020893531e-01	 1.4500491928e+00	-1.9883818460e+00
 7.0256961681e-01	 1.4636405585e+00	-1.9522561657e+00
 8.4488070437e-01	 1.4001297963e+00	-2.0881143075e+00
 8.1786638090e-01	 1.4160796002e+00	-2.0804819412e+00
 7.9062020327e-01	 1.4314700644e+00	-2.0572394961e+00
 7.6315916214e-01	 1.4462969766e+00	-2.0238411664e+00
 7.3550030441e-01	 1.4605567957e+00	-1.9854076325e+00
 7.0766070098e-01	 1.4742466495e+00	-1.9465940802e+00
 8.5095898282e-01	 1.4102026726e+00	-2.0887244469e+00
 8.2375031170e-01	 1.4262672233e+00	-2.0809553459e+00
 7.9630811840e-01	 1.4417684102e+00	-2.0569557704e+00
 7.6864951583e-01	 1.4567019908e+00	-2.0221943966e+00
 7.4079167351e-01	 1.4710643985e+00	-1.9817693296e+00
 7.1275178516e-01	 1.4848527405e+00	-1.9402714364e+00
 6.8729636427e-01	 1.4318222855e+00	-1.9723961492e+00
 6.6009892824e-01	 1.4445624785e+00	-1.9345487353e+00
 6.3275905424e-01	 1.4567454578e+00	-1.8747891091e+00
 6.0529320919e-01	 1.4683703485e+00	-1.7958512482e+00
 5.7771776378e-01	 1.4794368979e+00	-1.7033227805e+00
 5.5004896461e-01	 1.4899454641e+00	-1.6294439097e+00
 6.9238744845e-01	 1.4424283765e+00	-1.9644474810e+00
 6.6498854993e-01	 1.4552629413e+00	-1.9242628988e+00
 6.3744615835e-01	 1.4675361649e+00	-1.8631069571e+00
 6.0977686259e-01	 1.4792471659e+00	-1.7837335862e+00
 5.8199715463e-01	 1.4903956897e+00	-1.6896860332e+00
 5.5412340139e-01	 1.5009820972e+00	-1.6111980106e+00
 6.9747853263e-01	 1.4530344675e+00	-1.9579703694e+00
 6.6987817162e-01	 1.4659634042e+00	-1.9153243961e+00
 6.4213326245e-01	 1.4783268720e+00	-1.8526093700e+00
 6.1426051599e-01	 1.4901239833e+00	-1.7726210374e+00
 5.8627654547e-01	 1.5013544816e+00	-1.6779170502e+00
 5.5819783816e-01	 1.5120187302e+00	-1.5945524297e+00
 7.0256961681e-01	 1.4636405585e+00	-1.9522561657e+00
 6.7476779331e-01	 1.4766638670e+00	-1.9070498902e+00
 6.4682036656e-01	 1.4891175791e+00	-1.8426484561e+00
 6.1874416939e-01	 1.5010008007e+00	-1.7619106431e+00
 5.9055593631e-01	 1.5123132734e+00	-1.6673098297e+00
 5.6227227494e-01	 1.5230553633e+00	-1.5790177351e+00
 7.0766070098e-01	 1.4742466495e+00	-1.9465940802e+00
 6.7965741500e-01	 1.4873643298e+00	-1.8987532979e+00
 6.5150747067e-01	 1.4999082862e+00	-1.8325728742e+00
 6.2322782279e-01	 1.5118776181e+00	-1.7509952184e+00
 5.9483532716e-01	 1.5232720653e+00	-1.6565367080e+00
 5.6634671171e-01	 1.5340919964e+00	-1.5640978600e+00
 7.1275178516e-01	 1.4848527405e+00	-1.9402714364e+00
 6.8454703669e-01	 1.4980647926e+00	-1.8897459987e+00
 6.5619457477e-01	 1.5106989933e+00	-1.8217280060e+00
 6.2771147620e-01	 1.5227544355e+00	-1.7392634976e+00
 5.9911471800e-01	 1.5342308571e+00	-1.6449304720e+00
 5.7042114849e-01	 1.5451286294e+00	-1.5492899660e+00
 5.5004896461e-01	 1.4899454641e+00	-1.6294439097e+00
 5.2230290716e-01	 1.4998970040e+00	-1.5651737059e+00
 4.9449550987e-01	 1.5092930597e+00	-1.4949769992e+00
 4.6664248931e-01	 1.5181357438e+00	-1.4185961359e+00
 4.3875933647e-01	 1.5264277232e+00	-1.3355057493e+00
 4.1086129435e-01	 1.5341722023e+00	-1.2449855049e+00
 5.5412340139e-01	 1.5009820972e+00	-1.6111980106e+00
 5.2617181759e-01	 1.5110073522e+00	-1.5436528406e+00
 4.9815843958e-01	 1.5204730083e+00	-1.4708216713e+00
 4.7009910034e-01	 1.5293811938e+00	-1.3922085942e+00
 4.4200940563e-01	 1.5377345952e+00	-1.3070667061e+00
 4.1390471135e-01	 1.5455364408e+00	-1.2144733829e+00
 5.5819783816e-01	 1.5120187302e+00	-1.5945524297e+00
 5.3004072801e-01	 1.5221177004e+00	-1.5235402004e+00
 5.0182136928e-01	 1.5316529569e+00	-1.4479647262e+00
 4.7355571137e-01	 1.5406266437e+00	-1.3670536968e+00
 4.4525947479e-01	 1.5490414672e+00	-1.2798000254e+00
 4.1694812834e-01	 1.5569006794e+00	-1.1850399141e+00
 5.6227227494e-01	 1.5230553633e+00	-1.5790177351e+00
 5.3390963843e-01	 1.5332280485e+00	-1.5044082102e+00
 5.0548429898e-01	 1.5428329055e+00	-1.4260292159e+00
 4.7701232240e-01	 1.5518720937e+00	-1.3427942680e+00
 4.4850954395e-01	 1.5603483393e+00	-1.2533978665e+00
 4.1999154534e-01	 1.5682649179e+00	-1.1563966130e+00
 5.6634671171e-01	 1.5340919964e+00	-1.5640978600e+00
 5.3777854886e-01	 1.5443383967e+00	-1.4858229798e+00
 5.0914722868e-01	 1.5540128541e+00	-1.4046324637e+00
 4.8046893343e-01	 1.5631175436e+00	-1.3190882355e+00
 4.5175961311e-01	 1.5716552113e+00	-1.2275485486e+00
 4.2303496233e-01	 1.5796291564e+00	-1.1282524135e+00
 5.7042114849e-01	 1.5451286294e+00	-1.5492899660e+00
 5.4164745928e-01	 1.5554487449e+00	-1.4673441874e+00
 5.1281015839e-01	 1.5651928027e+00	-1.3833859578e+00
 4.8392554447e-01	 1.5743629936e+00	-1.2955885245e+00
 4.5500968227e-01	 1.5829620833e+00	-1.2019364352e+00
 4.2607837933e-01	 1.5909933950e+00	-1.1003135349e+00
 4.1086129435e-01	 1.5341722023e+00	-1.2449855049e+00
 3.8296333673e-01	 1.5413729050e+00	-1.1554888145e+00
 3.5508014826e-01	 1.5480340558e+00	-1.0748341090e+00
 3.2722610594e-01	 1.5541603602e+00	-1.0013010757e+00
 2.9941526186e-01	 1.5597569844e+00	-9.3327809849e-01
 2.7166132736e-01	 1.5648295347e+00	-8.6929289748e-01
 4.1390471135e-01	 1.5455364408e+00	-1.2144733829e+00
 3.8580010219e-01	 1.5527904821e+00	-1.1230039600e+00
 3.5771037158e-01	 1.5595009747e+00	-1.0406494288e+00
 3.2965000302e-01	 1.5656726591e+00	-9.6559699834e-01
 3.0163315269e-01	 1.5713107399e+00	-8.9616712360e-01
 2.7367363349e-01	 1.5764208646e+00	-8.3084428575e-01
 4.1694812834e-01	 1.5569006794e+00	-1.1850399141e+00
 3.8863686764e-01	 1.5642080591e+00	-1.0914487763e+00
 3.6034059490e-01	 1.5709678936e+00	-1.0072234488e+00
 3.3207390010e-01	 1.5771849581e+00	-9.3050158909e-01
 3.0385104352e-01	 1.5828644953e+00	-8.5957736945e-01
 2.7568593962e-01	 1.5880121945e+00	-7.9293222830e-01
 4.1999154534e-01	 1.5682649179e+00	-1.1563966130e+00
 3.9147363310e-01	 1.5756256362e+00	-1.0605456107e+00
 3.6297081822e-01	 1.5824348126e+00	-9.7428111583e-01
 3.3449779719e-01	 1.5886972570e+00	-8.9573294361e-01
 3.0606893434e-01	 1.5944182507e+00	-8.2320947645e-01
 2.7769824575e-01	 1.5996035244e+00	-7.5522821689e-01
 4.2303496233e-01	 1.5796291564e+00	-1.1282524135e+00
 3.9431039856e-01	 1.5870432133e+00	-1.0300156430e+00
 3.6560104154e-01	 1.5939017315e+00	-9.4154776183e-01
 3.3692169427e-01	 1.6002095560e+00	-8.6101126548e-01
 3.0828682517e-01	 1.6059720062e+00	-7.8676811482e-01
 2.7971055188e-01	 1.6111948543e+00	-7.1740992310e-01
 4.2607837933e-01	 1.5909933950e+00	-1.1003135349e+00
 3.9714716401e-01	 1.5984607903e+00	-9.9957872621e-01
 3.6823126487e-01	 1.6053686504e+00	-9.0874891300e-01
 3.3934559135e-01	 1.6117218550e+00	-8.2605863559e-01
 3.1050471600e-01	 1.6175257616e+00	-7.4996170591e-01
 2.8172285801e-01	 1.6227861841e+00	-6.7916086198e-01
 2.7166132736e-01	 1.5648295347e+00	-8.6929289748e-01
 2.4397765859e-01	 1.5693840357e+00	-8.1032054946e-01
 2.1637724338e-01	 1.5734269090e+00	-7.5795536240e-01
 1.8887268953e-01	 1.5769649510e+00	-7.1192552088e-01
 1.6147621442e-01	 1.5800053106e+00	-6.7215840907e-01
 1.3419963603e-01	 1.5825554673e+00	-6.3877026416e-01
 2.7367363349e-01	 1.5764208646e+00	-8.3084428575e-01
 2.4578490051e-01	 1.5810091027e+00	-7.7069464524e-01
 2.1798003778e-01	 1.5850819232e+00	-7.1737117767e-01
 1.9027174649e-01	 1.5886461728e+00	-6.7053861688e-01
 1.6267233453e-01	 1.5917090537e+00	-6.3007390071e-01
 1.3519370741e-01	 1.5942781004e+00	-5.9605522706e-01
 2.7568593962e-01	 1.5880121945e+00	-7.9293222830e-01
 2.4759214243e-01	 1.5926341696e+00	-7.3172348501e-01
 2.1958283217e-01	 1.5967369373e+00	-6.7760661141e-01
 1.9167080345e-01	 1.6003273947e+00	-6.3014332037e-01
 1.6386845463e-01	 1.6034127967e+00	-5.8912813094e-01
 1.3618777879e-01	 1.6060007335e+00	-5.5457664438e-01
 2.7769824575e-01	 1.5996035244e+00	-7.5522821689e-01
 2.4939938434e-01	 1.6042592365e+00	-6.9305913105e-01
 2.2118562657e-01	 1.6083919514e+00	-6.3832654904e-01
 1.9306986040e-01	 1.6120086166e+00	-5.9045017480e-01
 1.6506457474e-01	 1.6151165398e+00	-5.4911063993e-01
 1.3718185016e-01	 1.6177233666e+00	-5.1423681775e-01
 2.7971055188e-01	 1.6111948543e+00	-7.1740992310e-01
 2.5120662626e-01	 1.6158843034e+00	-6.5436158600e-01
 2.2278842097e-01	 1.6200469656e+00	-5.9920453840e-01
 1.9446891736e-01	 1.6236898384e+00	-5.5117805320e-01
 1.6626069485e-01	 1.6268202828e+00	-5.0981789654e-01
 1.3817592154e-01	 1.6294459997e+00	-4.7494249837e-01
 2.8172285801e-01	 1.6227861841e+00	-6.7916086198e-01
 2.5301386817e-01	 1.6275093704e+00	-6.1529841110e-01
 2.2439121536e-01	 1.6317019797e+00	-5.5992239822e-01
 1.9586797432e-01	 1.6353710603e+00	-5.1205379317e-01
 1.6745681495e-01	 1.6385240259e+00	-4.7105299662e-01
 1.3916999292e-01	 1.6411686328e+00	-4.3660468574e-01
 1.3419963603e-01	 1.5825554673e+00	-6.3877026416e-01
 1.0705436520e-01	 1.5846232083e+00	-6.1150955609e-01
 8.0051399206e-02	 1.5862166066e+00	-5.9019366320e-01
 5.3201316631e-02	 1.5873439984e+00	-5.7527115864e-01
 2.6514273394e-02	 1.5880139618e+00	-5.6729745889e-01
 0.0000000000e+00	 1.5882352941e+00	-5.6690671486e-01
 1.3519370741e-01	 1.5942781004e+00	-5.9605522706e-01
 1.0784736049e-01	 1.5963611580e+00	-5.6824918800e-01
 8.0644372534e-02	 1.5979663592e+00	-5.4654130665e-01
 5.3595400458e-02	 1.5991021021e+00	-5.3144649417e-01
 2.6710675419e-02	 1.5997770282e+00	-5.2361189049e-01
 0.0000000000e+00	 1.6000000000e+00	-5.2378624435e-01
 1.3618777879e-01	 1.6060007335e+00	-5.5457664438e-01
 1.0864035579e-01	 1.6080991077e+00	-5.2630283549e-01
 8.1237345861e-02	 1.6097161119e+00	-5.0431071248e-01
 5.3989484285e-02	 1.6108602058e+00	-4.8918819956e-01
 2.6907077444e-02	 1.6115400945e+00	-4.8167332590e-01
 0.0000000000e+00	 1.6117647059e+00	-4.8262142687e-01
 1.3718185016e-01	 1.6177233666e+00	-5.1423681775e-01
 1.0943335109e-01	 1.6198370574e+00	-4.8567568057e-01
 8.1830319189e-02	 1.6214658645e+00	-4.6355633889e-01
 5.4383568112e-02	 1.6226183095e+00	-4.4854675591e-01
 2.7103479469e-02	 1.6233031609e+00	-4.4147549299e-01
 0.0000000000e+00	 1.6235294118e+00	-4.4329705735e-01
 1.3817592154e-01	 1.6294459997e+00	-4.7494249837e-01
 1.1022634639e-01	 1.6315750071e+00	-4.4637505619e-01
 8.2423292516e-02	 1.6332156171e+00	-4.2433393854e-01
 5.4777651939e-02	 1.6343764132e+00	-4.0957451833e-01
 2.7299881494e-02	 1.6350662273e+00	-4.0301599998e-01
 0.0000000000e+00	 1.6352941176e+00	-4.0570523180e-01
 1.3916999292e-01	 1.6411686328e+00	-4.3660468574e-01
 1.1101934169e-01	 1.6433129568e+00	-4.0841033774e-01
 8.3016265844e-02	 1.6449653698e+00	-3.8670049010e-01
 5.5171735766e-02	 1.6461345169e+00	-3.7232563520e-01
 2.7496283519e-02	 1.6468292937e+00	-3.6629619033e-01
 0.0000000000e+00	 1.6470588235e+00	-3.6974508647e-01
 1.6470588235e+00	 0.0000000000e+00	 3.4427569562e+00
 1.6468292937e+00	 2.7496283519e-02	 3.4326208933e+00
 1.6461345169e+00	 5.5171735766e-02	 3.4189046906e+00
 1.6449653698e+00	 8.3016265844e-02	 3.3991947986e+00
 1.6433129568e+00	 1.1101934169e-01	 3.3716921537e+00
 1.6411686328e+00	 1.3916999292e-01	 3.3352443484e+00
 1.6588235294e+00	 0.0000000000e+00	 3.4190353335e+00
 1.6585923601e+00	 2.7692685544e-02	 3.4088930534e+00
 1.6578926206e+00	 5.5565819593e-02	 3.3954959321e+00
 1.6567151224e+00	 8.3609239171e-02	 3.3762379973e+00
 1.6550509065e+00	 1.1181233698e-01	 3.3491564823e+00
 1.6528912659e+00	 1.4016406430e-01	 3.3129616152e+00
 1.6705882353e+00	 0.0000000000e+00	 3.3950182507e+00
 1.6703554265e+00	 2.7889087570e-02	 3.3849002503e+00
 1.6696507243e+00	 5.5959903420e-02	 3.3719874638e+00
 1.6684648751e+00	 8.4202212499e-02	 3.3534529398e+00
 1.6667888562e+00	 1.1260533228e-01	 3.3271413999e+00
 1.6646138990e+00	 1.4115813568e-01	 3.2915965352e+00
 1.6823529412e+00	 0.0000000000e+00	 3.3706207608e+00
 1.6821184928e+00	 2.8085489595e-02	 3.3605685063e+00
 1.6814088280e+00	 5.6353987247e-02	 3.3483086652e+00
 1.6802146277e+00	 8.4795185826e-02	 3.3307663291e+00
 1.6785268059e+00	 1.1339832758e-01	 3.3055665110e+00
 1.6763365321e+00	 1.4215220705e-01	 3.2710588280e+00
 1.6941176471e+00	 0.0000000000e+00	 3.3457580851e+00
 1.6938815592e+00	 2.8281891620e-02	 3.3358229396e+00
 1.6931669317e+00	 5.6748071074e-02	 3.3243871062e+00
 1.6919643803e+00	 8.5388159153e-02	 3.3081023147e+00
 1.6902647556e+00	 1.1419132288e-01	 3.2843482820e+00
 1.6880591652e+00	 1.4314627843e-01	 3.2512546440e+00
 1.7058823529e+00	 0.0000000000e+00	 3.3203456065e+00
 1.7056446256e+00	 2.8478293645e-02	 3.3105877805e+00
 1.7049250354e+00	 5.7142154900e-02	 3.3001485832e+00
 1.7037141330e+00	 8.5981132481e-02	 3.2853825511e+00
 1.7020027052e+00	 1.1498431817e-01	 3.2634001231e+00
 1.6997817982e+00	 1.4414034981e-01	 3.2320866732e+00
 1.6411686328e+00	 1.3916999292e-01	 3.3352443484e+00
 1.6385240259e+00	 1.6745681495e-01	 3.2875085163e+00
 1.6353710603e+00	 1.9586797432e-01	 3.2268914180e+00
 1.6317019797e+00	 2.2439121536e-01	 3.1543964728e+00
 1.6275093704e+00	 2.5301386817e-01	 3.0717332338e+00
 1.6227861841e+00	 2.8172285801e-01	 2.9813087608e+00
 1.6528912659e+00	 1.4016406430e-01	 3.3129616152e+00
 1.6502277689e+00	 1.6865293506e-01	 3.2652786143e+00
 1.6470522821e+00	 1.9726703128e-01	 3.2046401969e+00
 1.6433569939e+00	 2.2599400976e-01	 3.1321873945e+00
 1.6391344373e+00	 2.5482111009e-01	 3.0497906610e+00
 1.6343775140e+00	 2.8373516413e-01	 2.9600367713e+00
 1.6646138990e+00	 1.4115813568e-01	 3.2915965352e+00
 1.6619315119e+00	 1.6984905517e-01	 3.2443935841e+00
 1.6587335040e+00	 1.9866608824e-01	 3.1841484651e+00
 1.6550120080e+00	 2.2759680415e-01	 3.1120712516e+00
 1.6507595042e+00	 2.5662835200e-01	 3.0301220307e+00
 1.6459688439e+00	 2.8574747026e-01	 2.9409933494e+00
 1.6763365321e+00	 1.4215220705e-01	 3.2710588280e+00
 1.6736352550e+00	 1.7104517527e-01	 3.2247485384e+00
 1.6704147259e+00	 2.0006514520e-01	 3.1652905388e+00
 1.6666670221e+00	 2.2919959855e-01	 3.0938977269e+00
 1.6623845712e+00	 2.5843559392e-01	 3.0125509052e+00
 1.6575601738e+00	 2.8775977639e-01	 2.9239767823e+00
 1.6880591652e+00	 1.4314627843e-01	 3.2512546440e+00
 1.6853389980e+00	 1.7224129538e-01	 3.2062348365e+00
 1.6820959477e+00	 2.0146420216e-01	 3.1479371197e+00
 1.6783220363e+00	 2.3080239294e-01	 3.0775133197e+00
 1.6740096381e+00	 2.6024283583e-01	 2.9968983533e+00
 1.6691515037e+00	 2.8977208252e-01	 2.9087837734e+00
 1.6997817982e+00	 1.4414034981e-01	 3.2320866732e+00
 1.6970427411e+00	 1.7343741549e-01	 3.1887402185e+00
 1.6937771696e+00	 2.0286325912e-01	 3.1319554545e+00
 1.6899770504e+00	 2.3240518734e-01	 3.0627615322e+00
 1.6856347050e+00	 2.6205007775e-01	 2.9829831638e+00
 1.6807428336e+00	 2.9178438865e-01	 2.8952096881e+00
 1.6227861841e+00	 2.8172285801e-01	 2.9813087608e+00
 1.6175257616e+00	 3.1050471600e-01	 2.8808460425e+00
 1.6117218550e+00	 3.3934559135e-01	 2.7676080390e+00
 1.6053686504e+00	 3.6823126487e-01	 2.6442631312e+00
 1.5984607903e+00	 3.9714716401e-01	 2.5140522449e+00
 1.5909933950e+00	 4.2607837933e-01	 2.3807814775e+00
 1.6343775140e+00	 2.8373516413e-01	 2.9600367713e+00
 1.6290795171e+00	 3.1272260683e-01	 2.8606216018e+00
 1.6232341539e+00	 3.4176948843e-01	 2.7484903029e+00
 1.6168355693e+00	 3.7086148819e-01	 2.6260674363e+00
 1.6098783674e+00	 3.9998392947e-01	 2.4963505072e+00
 1.6023576335e+00	 4.2912179632e-01	 2.3629018024e+00
 1.6459688439e+00	 2.8574747026e-01	 2.9409933494e+00
 1.6406332725e+00	 3.1494049766e-01	 2.8423203152e+00
 1.6347464529e+00	 3.4419338551e-01	 2.7308305351e+00
 1.6283024883e+00	 3.7349171151e-01	 2.6088293910e+00
 1.6212959445e+00	 4.0282069493e-01	 2.4791945478e+00
 1.6137218720e+00	 4.3216521332e-01	 2.3453662277e+00
 1.6575601738e+00	 2.8775977639e-01	 2.9239767823e+00
 1.6521870279e+00	 3.1715838849e-01	 2.8257134174e+00
 1.6462587519e+00	 3.4661728259e-01	 2.7143655775e+00
 1.6397694072e+00	 3.7612193483e-01	 2.5922419210e+00
 1.6327135216e+00	 4.0565746039e-01	 2.4622215572e+00
 1.6250861106e+00	 4.3520863031e-01	 2.3277419833e+00
 1.6691515037e+00	 2.8977208252e-01	 2.9087837734e+00
 1.6637407834e+00	 3.1937627932e-01	 2.8105717847e+00
 1.6577710508e+00	 3.4904117967e-01	 2.6988336268e+00
 1.6512363261e+00	 3.7875215815e-01	 2.5760015803e+00
 1.6441310986e+00	 4.0849422584e-01	 2.4450752582e+00
 1.6364503491e+00	 4.3825204731e-01	 2.3096064318e+00
 1.6807428336e+00	 2.9178438865e-01	 2.8952096881e+00
 1.6752945388e+00	 3.2159417014e-01	 2.7966662139e+00
 1.6692833498e+00	 3.5146507675e-01	 2.6839745422e+00
 1.6627032451e+00	 3.8138238147e-01	 2.5598088805e+00
 1.6555486757e+00	 4.1133099130e-01	 2.4274062471e+00
 1.6478145876e+00	 4.4129546430e-01	 2.2905474110e+00
 1.5909933950e+00	 4.2607837933e-01	 2.3807814775e+00
 1.5829620833e+00	 4.5500968227e-01	 2.2327146713e+00
 1.5743629936e+00	 4.8392554447e-01	 2.0614956632e+00
 1.5651928027e+00	 5.1281015839e-01	 1.8769478195e+00
 1.5554487449e+00	 5.4164745928e-01	 1.6895985333e+00
 1.5451286294e+00	 5.7042114849e-01	 1.5106896439e+00
 1.6023576335e+00	 4.2912179632e-01	 2.3629018024e+00
 1.5942689553e+00	 4.5825975142e-01	 2.2139351516e+00
 1.5856084435e+00	 4.8738215550e-01	 2.0415995942e+00
 1.5763727513e+00	 5.1647308809e-01	 1.8563240225e+00
 1.5665590931e+00	 5.4551636970e-01	 1.6692630318e+00
 1.5561652625e+00	 5.7449558526e-01	 1.4923069298e+00
 1.6137218720e+00	 4.3216521332e-01	 2.3453662277e+00
 1.6055758274e+00	 4.6150982058e-01	 2.1956118996e+00
 1.5968538935e+00	 4.9083876653e-01	 2.0225136232e+00
 1.5875526999e+00	 5.2013601779e-01	 1.8369592477e+00
 1.5776694413e+00	 5.4938528013e-01	 1.6505809472e+00
 1.5672018956e+00	 5.7857002204e-01	 1.4757656367e+00
 1.6250861106e+00	 4.3520863031e-01	 2.3277419833e+00
 1.6168826994e+00	 4.6475988974e-01	 2.1772364451e+00
 1.6080993435e+00	 4.9429537756e-01	 2.0036599191e+00
 1.5987326485e+00	 5.2379894749e-01	 1.8182154791e+00
 1.5887797894e+00	 5.5325419055e-01	 1.6328660040e+00
 1.5782385286e+00	 5.8264445881e-01	 1.4603458115e+00
 1.6364503491e+00	 4.3825204731e-01	 2.3096064318e+00
 1.6281895714e+00	 4.6800995890e-01	 2.1583145061e+00
 1.6193447934e+00	 4.9775198859e-01	 1.9844790003e+00
 1.6099125971e+00	 5.2746187720e-01	 1.7994772182e+00
 1.5998901376e+00	 5.5712310097e-01	 1.6154585162e+00
 1.5892751617e+00	 5.8671889559e-01	 1.4453579593e+00
 1.6478145876e+00	 4.4129546430e-01	 2.2905474110e+00
 1.6394964434e+00	 4.7126002806e-01	 2.1383663278e+00
 1.6305902434e+00	 5.0120859963e-01	 1.9644300777e+00
 1.6210925457e+00	 5.3112480690e-01	 1.7801518419e+00
 1.6110004858e+00	 5.6099201140e-01	 1.5977257727e+00
 1.6003117948e+00	 5.9079333236e-01	 1.4299766309e+00
 1.5451286294e+00	 5.7042114849e-01	 1.5106896439e+00
 1.5342308571e+00	 5.9911471800e-01	 1.3536802256e+00
 1.5227544355e+00	 6.2771147620e-01	 1.1895153430e+00
 1.5106989933e+00	 6.5619457477e-01	 1.0109865276e+00
 1.4980647926e+00	 6.8454703669e-01	 8.2112571393e-01
 1.4848527405e+00	 7.1275178516e-01	 6.2214097781e-01
 1.5561652625e+00	 5.7449558526e-01	 1.4923069298e+00
 1.5451896489e+00	 6.0339410884e-01	 1.3351749175e+00
 1.5336312529e+00	 6.3219512960e-01	 1.1684510914e+00
 1.5214897003e+00	 6.6088167888e-01	 9.8918782981e-01
 1.5087652554e+00	 6.8943665838e-01	 7.9979420057e-01
 1.4954588315e+00	 7.1784286934e-01	 6.0180565241e-01
 1.5672018956e+00	 5.7857002204e-01	 1.4757656367e+00
 1.5561484408e+00	 6.0767349968e-01	 1.3175801428e+00
 1.5445080703e+00	 6.3667878300e-01	 1.1485966044e+00
 1.5322804074e+00	 6.6556878298e-01	 9.6870473109e-01
 1.5194657182e+00	 6.9432628007e-01	 7.7978451605e-01
 1.5060649225e+00	 7.2293395352e-01	 5.8279489016e-01
 1.5782385286e+00	 5.8264445881e-01	 1.4603458115e+00
 1.5671072326e+00	 6.1195289053e-01	 1.3003652420e+00
 1.5553848877e+00	 6.4116243640e-01	 1.1294359055e+00
 1.5430711145e+00	 6.7025588709e-01	 9.4904658706e-01
 1.5301661810e+00	 6.9921590176e-01	 7.6064057537e-01
 1.5166710135e+00	 7.2802503770e-01	 5.6469489681e-01
 1.5892751617e+00	 5.8671889559e-01	 1.4453579593e+00
 1.5780660244e+00	 6.1623228137e-01	 1.2830304964e+00
 1.5662617051e+00	 6.4564608980e-01	 1.1104834351e+00
 1.5538618216e+00	 6.7494299119e-01	 9.2975229102e-01
 1.5408666438e+00	 7.0410552345e-01	 7.4193467114e-01
 1.5272771045e+00	 7.3311612188e-01	 5.4711888942e-01
 1.6003117948e+00	 5.9079333236e-01	 1.4299766309e+00
 1.5890248163e+00	 6.2051167221e-01	 1.2651060991e+00
 1.5771385225e+00	 6.5012974320e-01	 1.0912829661e+00
 1.5646525287e+00	 6.7963009530e-01	 9.1038914732e-01
 1.5515671066e+00	 7.0899514514e-01	 7.2326631553e-01
 1.5378831955e+00	 7.3820720606e-01	 5.2970591636e-01
 1.4848527405e+00	 7.1275178516e-01	 6.2214097781e-01
 1.4710643985e+00	 7.4079167351e-01	 4.3031283151e-01
 1.4567019908e+00	 7.6864951583e-01	 2.5719987674e-01
 1.4417684102e+00	 7.9630811840e-01	 9.6684704678e-02
 1.4262672233e+00	 8.2375031170e-01	-5.8095965839e-02
 1.4102026726e+00	 8.5095898282e-01	-2.1461221779e-01
 1.4954588315e+00	 7.1784286934e-01	 6.0180565241e-01
 1.4815720014e+00	 7.4608304260e-01	 4.1082407738e-01
 1.4671070050e+00	 7.7413986951e-01	 2.3830100569e-01
 1.4520667560e+00	 8.0199603354e-01	 7.8242762051e-02
 1.4364548463e+00	 8.2963424250e-01	-7.6122682906e-02
 1.4202755488e+00	 8.5703726126e-01	-2.3220533407e-01
 1.5060649225e+00	 7.2293395352e-01	 5.8279489016e-01
 1.4920796042e+00	 7.5137441170e-01	 3.9273283268e-01
 1.4775120192e+00	 7.7963022319e-01	 2.2091433058e-01
 1.4623651018e+00	 8.0768394867e-01	 6.1411350340e-02
 1.4466424693e+00	 8.3551817329e-01	-9.2517921486e-02
 1.4303484250e+00	 8.6311553971e-01	-2.4828717115e-01
 1.5166710135e+00	 7.2802503770e-01	 5.6469489681e-01
 1.5025872071e+00	 7.5666578080e-01	 3.7566834803e-01
 1.4879170335e+00	 7.8512057688e-01	 2.0470797014e-01
 1.4726634476e+00	 8.1337186380e-01	 4.5894769781e-02
 1.4568300923e+00	 8.4140210409e-01	-1.0754243775e-01
 1.4404213013e+00	 8.6919381816e-01	-2.6308338332e-01
 1.5272771045e+00	 7.3311612188e-01	 5.4711888942e-01
 1.5130948099e+00	 7.6195714989e-01	 3.5928553797e-01
 1.4983220477e+00	 7.9061093056e-01	 1.8937454472e-01
 1.4829617934e+00	 8.1905977893e-01	 3.1420829920e-02
 1.4670177154e+00	 8.4728603489e-01	-1.2143431836e-01
 1.4504941775e+00	 8.7527209661e-01	-2.7679766242e-01
 1.5378831955e+00	 7.3820720606e-01	 5.2970591636e-01
 1.5236024128e+00	 7.6724851899e-01	 3.4326378210e-01
 1.5087270619e+00	 7.9610128425e-01	 1.7462995672e-01
 1.4932601392e+00	 8.2474769406e-01	 1.7739608897e-02
 1.4772053384e+00	 8.5316996569e-01	-1.3441024110e-01
 1.4605670537e+00	 8.8135037506e-01	-2.8961301566e-01
 1.4102026726e+00	 8.5095898282e-01	-2.1461221779e-01
 1.3935796780e+00	 8.7791710836e-01	-3.6256959863e-01
 1.3764038357e+00	 9.0460778754e-01	-4.9249713003e-01
 1.3586814149e+00	 9.3101427538e-01	-6.1342737912e-01
 1.3404193535e+00	 9.5712001595e-01	-7.3415263573e-01
 1.3216252510e+00	 9.8290867542e-01	-8.6296062497e-01
 1.4202755488e+00	 8.5703726126e-01	-2.3220533407e-01
 1.4035338186e+00	 8.8418794485e-01	-3.7946746348e-01
 1.3862352917e+00	 9.1106927174e-01	-5.0833831162e-01
 1.3683862822e+00	 9.3766437735e-01	-6.2802005355e-01
 1.3499937774e+00	 9.6395658750e-01	-7.4745829126e-01
 1.3310654313e+00	 9.8992945167e-01	-8.7506918476e-01
 1.4303484250e+00	 8.6311553971e-01	-2.4828717115e-01
 1.4134879591e+00	 8.9045878134e-01	-3.9508618644e-01
 1.3960667476e+00	 9.1753075593e-01	-5.2312815791e-01
 1.3780911494e+00	 9.4431447932e-01	-6.4171886201e-01
 1.3595682014e+00	 9.7079315904e-01	-7.5988999007e-01
 1.3405056117e+00	 9.9695022792e-01	-8.8611791370e-01
 1.4404213013e+00	 8.6919381816e-01	-2.6308338332e-01
 1.4234420997e+00	 8.9672961782e-01	-4.0960954618e-01
 1.4058982036e+00	 9.2399224013e-01	-5.3699708999e-01
 1.3877960166e+00	 9.5096458128e-01	-6.5459098969e-01
 1.3691426254e+00	 9.7762973058e-01	-7.7144352882e-01
 1.3499457920e+00	 1.0039710042e+00	-8.9602491034e-01
 1.4504941775e+00	 8.7527209661e-01	-2.7679766242e-01
 1.4333962403e+00	 9.0300045431e-01	-4.2320010218e-01
 1.4157296596e+00	 9.3045372433e-01	-5.5005520990e-01
 1.3975008839e+00	 9.5761468325e-01	-6.6668430984e-01
 1.3787170493e+00	 9.8446630212e-01	-7.8209645809e-01
 1.3593859724e+00	 1.0109917804e+00	-9.0469110532e-01
 1.4605670537e+00	 8.8135037506e-01	-2.8961301566e-01
 1.4433503808e+00	 9.0927129080e-01	-4.3600048064e-01
 1.4255611155e+00	 9.3691520852e-01	-5.6239358071e-01
 1.4072057511e+00	 9.6426478522e-01	-6.7802864530e-01
 1.3882914733e+00	 9.9130287367e-01	-7.9180931404e-01
 1.3688261528e+00	 1.0180125567e+00	-9.1200145320e-01
 1.3216252510e+00	 9.8290867542e-01	-8.6296062497e-01
 1.3023073597e+00	 1.0083641748e+00	-9.8976772704e-01
 1.2824745743e+00	 1.0334707226e+00	-1.1003710279e+00
 1.2621364191e+00	 1.0582128461e+00	-1.1950284066e+00
 1.2413030335e+00	 1.0825754233e+00	-1.2720367097e+00
 1.2199851557e+00	 1.1065437127e+00	-1.3274619786e+00
 1.3310654313e+00	 9.8992945167e-01	-8.7506918476e-01
 1.3116095551e+00	 1.0155667761e+00	-1.0001991886e+00
 1.2916351070e+00	 1.0408526563e+00	-1.1083803753e+00
 1.2711516792e+00	 1.0657715093e+00	-1.2004585550e+00
 1.2501694837e+00	 1.0903081049e+00	-1.2753426665e+00
 1.2286993354e+00	 1.1144475963e+00	-1.3297205207e+00
 1.3405056117e+00	 9.9695022792e-01	-8.8611791370e-01
 1.3209117505e+00	 1.0227693773e+00	-1.0093552774e+00
 1.3007956397e+00	 1.0482345900e+00	-1.1151194377e+00
 1.2801669394e+00	 1.0733301725e+00	-1.2048913593e+00
 1.2590359340e+00	 1.0980407865e+00	-1.2782452669e+00
 1.2374135151e+00	 1.1223514800e+00	-1.3325492913e+00
 1.3499457920e+00	 1.0039710042e+00	-8.9602491034e-01
 1.3302139460e+00	 1.0299719786e+00	-1.0170864446e+00
 1.3099561723e+00	 1.0556165238e+00	-1.1203960284e+00
 1.2891821995e+00	 1.0808888357e+00	-1.2081168232e+00
 1.2679023842e+00	 1.1057734681e+00	-1.2805413458e+00
 1.2461276947e+00	 1.1302553637e+00	-1.3357763917e+00
 1.3593859724e+00	 1.0109917804e+00	-9.0469110532e-01
 1.3395161414e+00	 1.0371745798e+00	-1.0232266199e+00
 1.3191167050e+00	 1.0629984575e+00	-1.1240012515e+00
 1.2981974597e+00	 1.0884474989e+00	-1.2099072464e+00
 1.2767688345e+00	 1.1135061497e+00	-1.2820082596e+00
 1.2548418744e+00	 1.1381592473e+00	-1.3392079259e+00
 1.3688261528e+00	 1.0180125567e+00	-9.1200145320e-01
 1.3488183368e+00	 1.0443771811e+00	-1.0275943679e+00
 1.3282772377e+00	 1.0703803912e+00	-1.1257106441e+00
 1.3072127198e+00	 1.0960061621e+00	-1.2100183694e+00
 1.2856352847e+00	 1.1212388313e+00	-1.2824050529e+00
 1.2635560541e+00	 1.1460631310e+00	-1.3426292051e+00
 1.2199851557e+00	 1.1065437127e+00	-1.3274619786e+00
 1.1981941046e+00	 1.1301033828e+00	-1.3916635581e+00
 1.1759417600e+00	 1.1532405409e+00	-1.4908536034e+00
 1.1532405409e+00	 1.1759417600e+00	-1.6109290934e+00
 1.1301033828e+00	 1.1981941046e+00	-1.7130390418e+00
 1.1065437127e+00	 1.2199851557e+00	-1.7617568749e+00
 1.2286993354e+00	 1.1144475963e+00	-1.3297205207e+00
 1.2067526339e+00	 1.1381755498e+00	-1.3949382072e+00
 1.1843413440e+00	 1.1614779734e+00	-1.4978510595e+00
 1.1614779734e+00	 1.1843413440e+00	-1.6215284900e+00
 1.1381755498e+00	 1.2067526339e+00	-1.7166778152e+00
 1.1144475963e+00	 1.2286993354e+00	-1.7616742112e+00
 1.2374135151e+00	 1.1223514800e+00	-1.3325492913e+00
 1.2153111632e+00	 1.1462477169e+00	-1.4000453832e+00
 1.1927409280e+00	 1.1697154058e+00	-1.5081055510e+00
 1.1697154058e+00	 1.1927409280e+00	-1.6306587633e+00
 1.1462477169e+00	 1.2153111632e+00	-1.7198656498e+00
 1.1223514800e+00	 1.2374135151e+00	-1.7621789890e+00
 1.2461276947e+00	 1.1302553637e+00	-1.3357763917e+00
 1.2238696926e+00	 1.1543198839e+00	-1.4068440021e+00
 1.2011405120e+00	 1.1779528382e+00	-1.5213768793e+00
 1.1779528382e+00	 1.2011405120e+00	-1.6375630251e+00
 1.1543198839e+00	 1.2238696926e+00	-1.7218490626e+00
 1.1302553637e+00	 1.2461276947e+00	-1.7624814376e+00
 1.2548418744e+00	 1.1381592473e+00	-1.3392079259e+00
 1.2324282219e+00	 1.1623920509e+00	-1.4151684417e+00
 1.2095400960e+00	 1.1861902707e+00	-1.5332409059e+00
 1.1861902707e+00	 1.2095400960e+00	-1.6416817784e+00
 1.1623920509e+00	 1.2324282219e+00	-1.7218853465e+00
 1.1381592473e+00	 1.2548418744e+00	-1.7618039404e+00
 1.2635560541e+00	 1.1460631310e+00	-1.3426292051e+00
 1.2409867512e+00	 1.1704642179e+00	-1.4248297778e+00
 1.2179396800e+00	 1.1944277031e+00	-1.5410908849e+00
 1.1944277031e+00	 1.2179396800e+00	-1.6425644368e+00
 1.1704642179e+00	 1.2409867512e+00	-1.7192437087e+00
 1.1460631310e+00	 1.2635560541e+00	-1.7593820844e+00
 1.1065437127e+00	 1.2199851557e+00	-1.7617568749e+00
 1.0825754233e+00	 1.2413030335e+00	-1.7900968014e+00
 1.0582128461e+00	 1.2621364191e+00	-1.8322472580e+00
 1.0334707226e+00	 1.2824745743e+00	-1.8819231753e+00
 1.0083641748e+00	 1.3023073597e+00	-1.9346362304e+00
 9.8290867542e-01	 1.3216252510e+00	-1.9875463575e+00
 1.1144475963e+00	 1.2286993354e+00	-1.7616742112e+00
 1.0903081049e+00	 1.2501694837e+00	-1.7890587133e+00
 1.0657715093e+00	 1.2711516792e+00	-1.8320507588e+00
 1.0408526563e+00	 1.2916351070e+00	-1.8834888753e+00
 1.0155667761e+00	 1.3116095551e+00	-1.9380064816e+00
 9.8992945167e-01	 1.3310654313e+00	-1.9918798253e+00
 1.1223514800e+00	 1.2374135151e+00	-1.7621789890e+00
 1.0980407865e+00	 1.2590359340e+00	-1.7894515158e+00
 1.0733301725e+00	 1.2801669394e+00	-1.8337676229e+00
 1.0482345900e+00	 1.3007956397e+00	-1.8871198257e+00
 1.0227693773e+00	 1.3209117505e+00	-1.9433027228e+00
 9.9695022792e-01	 1.3405056117e+00	-1.9977567326e+00
 1.1302553637e+00	 1.2461276947e+00	-1.7624814376e+00
 1.1057734681e+00	 1.2679023842e+00	-1.7904493974e+00
 1.0808888357e+00	 1.2891821995e+00	-1.8365666784e+00
 1.0556165238e+00	 1.3099561723e+00	-1.8920099096e+00
 1.0299719786e+00	 1.3302139460e+00	-1.9497740141e+00
 1.0039710042e+00	 1.3499457920e+00	-2.0045111072e+00
 1.1381592473e+00	 1.2548418744e+00	-1.7618039404e+00
 1.1135061497e+00	 1.2767688345e+00	-1.7912397743e+00
 1.0884474989e+00	 1.2981974597e+00	-1.8396299341e+00
 1.0629984575e+00	 1.3191167050e+00	-1.8973650583e+00
 1.0371745798e+00	 1.3395161414e+00	-1.9566792882e+00
 1.0109917804e+00	 1.3593859724e+00	-2.0114836779e+00
 1.1460631310e+00	 1.2635560541e+00	-1.7593820844e+00
 1.1212388313e+00	 1.2856352847e+00	-1.7910242544e+00
 1.0960061621e+00	 1.3072127198e+00	-1.8421534847e+00
 1.0703803912e+00	 1.3282772377e+00	-1.9024041281e+00
 1.0443771811e+00	 1.3488183368e+00	-1.9632882293e+00
 1.0180125567e+00	 1.3688261528e+00	-2.0180227820e+00
 9.8290867542e-01	 1.3216252510e+00	-1.9875463575e+00
 9.5712001595e-01	 1.3404193535e+00	-2.0318924462e+00
 9.3101427538e-01	 1.3586814149e+00	-2.0611762678e+00
 9.0460778754e-01	 1.3764038357e+00	-2.0779409656e+00
 8.7791710836e-01	 1.3935796780e+00	-2.0856995139e+00
 8.5095898282e-01	 1.4102026726e+00	-2.0887244469e+00
 9.8992945167e-01	 1.3310654313e+00	-1.9918798253e+00
 9.6395658750e-01	 1.3499937774e+00	-2.0359649171e+00
 9.3766437735e-01	 1.3683862822e+00	-2.0642584006e+00
 9.1106927174e-01	 1.3862352917e+00	-2.0797745379e+00
 8.8418794485e-01	 1.4035338186e+00	-2.0865466276e+00
 8.5703726126e-01	 1.4202755488e+00	-2.0894039415e+00
 9.9695022792e-01	 1.3405056117e+00	-1.9977567326e+00
 9.7079315904e-01	 1.3595682014e+00	-2.0412050405e+00
 9.4431447932e-01	 1.3780911494e+00	-2.0683369386e+00
 9.1753075593e-01	 1.3960667476e+00	-2.0826070064e+00
 8.9045878134e-01	 1.4134879591e+00	-2.0885297520e+00
 8.6311553971e-01	 1.4303484250e+00	-2.0914436676e+00
 1.0039710042e+00	 1.3499457920e+00	-2.0045111072e+00
 9.7762973058e-01	 1.3691426254e+00	-2.0470242514e+00
 9.5096458128e-01	 1.3877960166e+00	-2.0728570067e+00
 9.2399224013e-01	 1.4058982036e+00	-2.0858749901e+00
 8.9672961782e-01	 1.4234420997e+00	-2.0910364387e+00
 8.6919381816e-01	 1.4404213013e+00	-2.0941432761e+00
 1.0109917804e+00	 1.3593859724e+00	-2.0114836779e+00
 9.8446630212e-01	 1.3787170493e+00	-2.0528375935e+00
 9.5761468325e-01	 1.3975008839e+00	-2.0772653705e+00
 9.3045372433e-01	 1.4157296596e+00	-2.0890159022e+00
 9.0300045431e-01	 1.4333962403e+00	-2.0934553039e+00
 8.7527209661e-01	 1.4504941775e+00	-2.0968048605e+00
 1.0180125567e+00	 1.3688261528e+00	-2.0180227820e+00
 9.9130287367e-01	 1.3882914733e+00	-2.0580646490e+00
 9.6426478522e-01	 1.4072057511e+00	-2.0810113448e+00
 9.3691520852e-01	 1.4255611155e+00	-2.0914687975e+00
 9.0927129080e-01	 1.4433503808e+00	-2.0951767744e+00
 8.8135037506e-01	 1.4605670537e+00	-2.0987335631e+00
 8.5095898282e-01	 1.4102026726e+00	-2.0887244469e+00
 8.2375031170e-01	 1.4262672233e+00	-2.0809553459e+00
 7.9630811840e-01	 1.4417684102e+00	-2.0569557704e+00
 7.6864951583e-01	 1.4567019908e+00	-2.0221943966e+00
 7.4079167351e-01	 1.4710643985e+00	-1.9817693296e+00
 7.1275178516e-01	 1.4848527405e+00	-1.9402714364e+00
 8.5703726126e-01	 1.4202755488e+00	-2.0894039415e+00
 8.2963424250e-01	 1.4364548463e+00	-2.0817104246e+00
 8.0199603354e-01	 1.4520667560e+00	-2.0570916604e+00
 7.7413986951e-01	 1.4671070050e+00	-2.0210273876e+00
 7.4608304260e-01	 1.4815720014e+00	-1.9785926706e+00
 7.1784286934e-01	 1.4954588315e+00	-1.9343162322e+00
 8.6311553971e-01	 1.4303484250e+00	-2.0914436676e+00
 8.3551817329e-01	 1.4466424693e+00	-2.0840207217e+00
 8.0768394867e-01	 1.4623651018e+00	-2.0588713816e+00
 7.7963022319e-01	 1.4775120192e+00	-2.0214966913e+00
 7.5137441170e-01	 1.4920796042e+00	-1.9769655580e+00
 7.2293395352e-01	 1.5060649225e+00	-1.9297675940e+00
 8.6919381816e-01	 1.4404213013e+00	-2.0941432761e+00
 8.4140210409e-01	 1.4568300923e+00	-2.0871004961e+00
 8.1337186380e-01	 1.4726634476e+00	-2.0614666447e+00
 7.8512057688e-01	 1.4879170335e+00	-2.0227744543e+00
 7.5666578080e-01	 1.5025872071e+00	-1.9761035134e+00
 7.2802503770e-01	 1.5166710135e+00	-1.9259271193e+00
 8.7527209661e-01	 1.4504941775e+00	-2.0968048605e+00
 8.4728603489e-01	 1.4670177154e+00	-2.0901678234e+00
 8.1905977893e-01	 1.4829617934e+00	-2.0640532610e+00
 7.9061093056e-01	 1.4983220477e+00	-2.0240361456e+00
 7.6195714989e-01	 1.5130948099e+00	-1.9752235683e+00
 7.3311612188e-01	 1.5272771045e+00	-1.9220950999e+00
 8.8135037506e-01	 1.4605670537e+00	-2.0987335631e+00
 8.5316996569e-01	 1.4772053384e+00	-2.0924450630e+00
 8.2474769406e-01	 1.4932601392e+00	-2.0658115107e+00
 7.9610128425e-01	 1.5087270619e+00	-2.0244608645e+00
 7.6724851899e-01	 1.5236024128e+00	-1.9735445519e+00
 7.3820720606e-01	 1.5378831955e+00	-1.9175708271e+00
 7.1275178516e-01	 1.4848527405e+00	-1.9402714364e+00
 6.8454703669e-01	 1.4980647926e+00	-1.8897459987e+00
 6.5619457477e-01	 1.5106989933e+00	-1.8217280060e+00
 6.2771147620e-01	 1.5227544355e+00	-1.7392634976e+00
 5.9911471800e-01	 1.5342308571e+00	-1.6449304720e+00
 5.7042114849e-01	 1.5451286294e+00	-1.5492899660e+00
 7.1784286934e-01	 1.4954588315e+00	-1.9343162322e+00
 6.8943665838e-01	 1.5087652554e+00	-1.8809687531e+00
 6.6088167888e-01	 1.5214897003e+00	-1.8109772660e+00
 6.3219512960e-01	 1.5336312529e+00	-1.7275081907e+00
 6.0339410884e-01	 1.5451896489e+00	-1.6332114276e+00
 5.7449558526e-01	 1.5561652625e+00	-1.5352223307e+00
 7.2293395352e-01	 1.5060649225e+00	-1.9297675940e+00
 6.9432628007e-01	 1.5194657182e+00	-1.8734174262e+00
 6.6556878298e-01	 1.5322804074e+00	-1.8012493832e+00
 6.3667878300e-01	 1.5445080703e+00	-1.7165639996e+00
 6.0767349968e-01	 1.5561484408e+00	-1.6220853452e+00
 5.7857002204e-01	 1.5672018956e+00	-1.5224178942e+00
 7.2802503770e-01	 1.5166710135e+00	-1.9259271193e+00
 6.9921590176e-01	 1.5301661810e+00	-1.8664811173e+00
 6.7025588709e-01	 1.5430711145e+00	-1.7919812066e+00
 6.4116243640e-01	 1.5553848877e+00	-1.7058755589e+00
 6.1195289053e-01	 1.5671072326e+00	-1.6109644953e+00
 5.8264445881e-01	 1.5782385286e+00	-1.5102083669e+00
 7.3311612188e-01	 1.5272771045e+00	-1.9220950999e+00
 7.0410552345e-01	 1.5408666438e+00	-1.8595449645e+00
 6.7494299119e-01	 1.5538618216e+00	-1.7826042882e+00
 6.4564608980e-01	 1.5662617051e+00	-1.6948822043e+00
 6.1623228137e-01	 1.5780660244e+00	-1.5992571895e+00
 5.8671889559e-01	 1.5892751617e+00	-1.4979222016e+00
 7.3820720606e-01	 1.5378831955e+00	-1.9175708271e+00
 7.0899514514e-01	 1.5515671066e+00	-1.8519904692e+00
 6.7963009530e-01	 1.5646525287e+00	-1.7725451863e+00
 6.5012974320e-01	 1.5771385225e+00	-1.6830182140e+00
 6.2051167221e-01	 1.5890248163e+00	-1.5863679219e+00
 5.9079333236e-01	 1.6003117948e+00	-1.4847136793e+00
 5.7042114849e-01	 1.5451286294e+00	-1.5492899660e+00
 5.4164745928e-01	 1.5554487449e+00	-1.4673441874e+00
 5.1281015839e-01	 1.5651928027e+00	-1.3833859578e+00
 4.8392554447e-01	 1.5743629936e+00	-1.2955885245e+00
 4.5500968227e-01	 1.5829620833e+00	-1.2019364352e+00
 4.2607837933e-01	 1.5909933950e+00	-1.1003135349e+00
 5.7449558526e-01	 1.5561652625e+00	-1.5352223307e+00
 5.4551636970e-01	 1.5665590931e+00	-1.4494938993e+00
 5.1647308809e-01	 1.5763727513e+00	-1.3627019731e+00
 4.8738215550e-01	 1.5856084435e+00	-1.2726268776e+00
 4.5825975142e-01	 1.5942689553e+00	-1.1768801040e+00
 4.2912179632e-01	 1.6023576335e+00	-1.0729957576e+00
 5.7857002204e-01	 1.5672018956e+00	-1.5224178942e+00
 5.4938528013e-01	 1.5776694413e+00	-1.4326056355e+00
 5.2013601779e-01	 1.5875526999e+00	-1.3427626991e+00
 4.9083876653e-01	 1.5968538935e+00	-1.2503039050e+00
 4.6150982058e-01	 1.6055758274e+00	-1.1525051734e+00
 4.3216521332e-01	 1.6137218720e+00	-1.0465979351e+00
 5.8264445881e-01	 1.5782385286e+00	-1.5102083669e+00
 5.5325419055e-01	 1.5887797894e+00	-1.4159520070e+00
 5.2379894749e-01	 1.5987326485e+00	-1.3228324975e+00
 4.9429537756e-01	 1.6080993435e+00	-1.2279251420e+00
 4.6475988974e-01	 1.6168826994e+00	-1.1282062517e+00
 4.3520863031e-01	 1.6250861106e+00	-1.0206500385e+00
 5.8671889559e-01	 1.5892751617e+00	-1.4979222016e+00
 5.5712310097e-01	 1.5998901376e+00	-1.3988061921e+00
 5.2746187720e-01	 1.6099125971e+00	-1.3021786502e+00
 4.9775198859e-01	 1.6193447934e+00	-1.2047999531e+00
 4.6800995890e-01	 1.6281895714e+00	-1.1033812748e+00
 4.3825204731e-01	 1.6364503491e+00	-9.9468348947e-01
 5.9079333236e-01	 1.6003117948e+00	-1.4847136793e+00
 5.6099201140e-01	 1.6110004858e+00	-1.3804415861e+00
 5.3112480690e-01	 1.6210925457e+00	-1.2800709577e+00
 5.0120859963e-01	 1.6305902434e+00	-1.1802411276e+00
 4.7126002806e-01	 1.6394964434e+00	-1.0774311463e+00
 4.4129546430e-01	 1.6478145876e+00	-9.6823089214e-01
 4.2607837933e-01	 1.5909933950e+00	-1.1003135349e+00
 3.9714716401e-01	 1.5984607903e+00	-9.9957872621e-01
 3.6823126487e-01	 1.6053686504e+00	-9.0874891300e-01
 3.3934559135e-01	 1.6117218550e+00	-8.2605863559e-01
 3.1050471600e-01	 1.6175257616e+00	-7.4996170591e-01
 2.8172285801e-01	 1.6227861841e+00	-6.7916086198e-01
 4.2912179632e-01	 1.6023576335e+00	-1.0729957576e+00
 3.9998392947e-01	 1.6098783674e+00	-9.6988019656e-01
 3.7086148819e-01	 1.6168355693e+00	-8.7683512839e-01
 3.4176948843e-01	 1.6232341539e+00	-7.9213484136e-01
 3.1272260683e-01	 1.6290795171e+00	-7.1429179992e-01
 2.8373516413e-01	 1.6343775140e+00	-6.4208597027e-01
 4.3216521332e-01	 1.6137218720e+00	-1.0465979351e+00
 4.0282069493e-01	 1.6212959445e+00	-9.4153652387e-01
 3.7349171151e-01	 1.6283024883e+00	-8.4680474826e-01
 3.4419338551e-01	 1.6347464529e+00	-7.6061485064e-01
 3.1494049766e-01	 1.6406332725e+00	-6.8143542992e-01
 2.8574747026e-01	 1.6459688439e+00	-6.0802100688e-01
 4.3520863031e-01	 1.6250861106e+00	-1.0206500385e+00
 4.0565746039e-01	 1.6327135216e+00	-9.1422268624e-01
 3.7612193483e-01	 1.6397694072e+00	-8.1845322290e-01
 3.4661728259e-01	 1.6462587519e+00	-7.3139211257e-01
 3.1715838849e-01	 1.6521870279e+00	-6.5136367528e-01
 2.8775977639e-01	 1.6575601738e+00	-5.7699645311e-01
 4.3825204731e-01	 1.6364503491e+00	-9.9468348947e-01
 4.0849422584e-01	 1.6441310986e+00	-8.8761287283e-01
 3.7875215815e-01	 1.6512363261e+00	-7.9157355367e-01
 3.4904117967e-01	 1.6577710508e+00	-7.0435648538e-01
 3.1937627932e-01	 1.6637407834e+00	-6.2404333852e-01
 2.8977208252e-01	 1.6691515037e+00	-5.4903822168e-01
 4.4129546430e-01	 1.6478145876e+00	-9.6823089214e-01
 4.1133099130e-01	 1.6555486757e+00	-8.6138031675e-01
 3.8138238147e-01	 1.6627032451e+00	-7.6595620616e-01
 3.5146507675e-01	 1.6692833498e+00	-6.7939421038e-01
 3.2159417014e-01	 1.6752945388e+00	-5.9943696293e-01
 2.9178438865e-01	 1.6807428336e+00	-5.2416770283e-01
 2.8172285801e-01	 1.6227861841e+00	-6.7916086198e-01
 2.5301386817e-01	 1.6275093704e+00	-6.1529841110e-01
 2.2439121536e-01	 1.6317019797e+00	-5.5992239822e-01
 1.9586797432e-01	 1.6353710603e+00	-5.1205379317e-01
 1.6745681495e-01	 1.6385240259e+00	-4.7105299662e-01
 1.3916999292e-01	 1.6411686328e+00	-4.3660468574e-01
 2.8373516413e-01	 1.6343775140e+00	-6.4208597027e-01
 2.5482111009e-01	 1.6391344373e+00	-5.7740775498e-01
 2.2599400976e-01	 1.6433569939e+00	-5.2183722660e-01
 1.9726703128e-01	 1.6470522821e+00	-4.7419553445e-01
 1.6865293506e-01	 1.6502277689e+00	-4.3368699343e-01
 1.4016406430e-01	 1.6528912659e+00	-3.9988245685e-01
 2.8574747026e-01	 1.6459688439e+00	-6.0802100688e-01
 2.5662835200e-01	 1.6507595042e+00	-5.4249255703e-01
 2.2759680415e-01	 1.6550120080e+00	-4.8656473788e-01
 1.9866608824e-01	 1.6587335040e+00	-4.3893238173e-01
 1.6984905517e-01	 1.6619315119e+00	-3.9871157322e-01
 1.4115813568e-01	 1.6646138990e+00	-3.6542143355e-01
 2.8775977639e-01	 1.6575601738e+00	-5.7699645311e-01
 2.5843559392e-01	 1.6623845712e+00	-5.1061972705e-01
 2.2919959855e-01	 1.6666670221e+00	-4.5417809497e-01
 2.0006514520e-01	 1.6704147259e+00	-4.0631214528e-01
 1.7104517527e-01	 1.6736352550e+00	-3.6611627977e-01
 1.4215220705e-01	 1.6763365321e+00	-3.3311879211e-01
 2.8977208252e-01	 1.6691515037e+00	-5.4903822168e-01
 2.6024283583e-01	 1.6740096381e+00	-4.8185183923e-01
 2.3080239294e-01	 1.6783220363e+00	-4.2474708257e-01
 2.0146420216e-01	 1.6820959477e+00	-3.7638097934e-01
 1.7224129538e-01	 1.6853389980e+00	-3.3589152567e-01
 1.4314627843e-01	 1.6880591652e+00	-3.0287594042e-01
 2.9178438865e-01	 1.6807428336e+00	-5.2416770283e-01
 2.6205007775e-01	 1.6856347050e+00	-4.5624718710e-01
 2.3240518734e-01	 1.6899770504e+00	-3.9833814459e-01
 2.0286325912e-01	 1.6937771696e+00	-3.4918337427e-01
 1.7343741549e-01	 1.6970427411e+00	-3.0802851016e-01
 1.4414034981e-01	 1.6997817982e+00	-2.7459833125e-01
 1.3916999292e-01	 1.6411686328e+00	-4.3660468574e-01
 1.1101934169e-01	 1.6433129568e+00	-4.0841033774e-01
 8.3016265844e-02	 1.6449653698e+00	-3.8670049010e-01
 5.5171735766e-02	 1.6461345169e+00	-3.7232563520e-01
 2.7496283519e-02	 1.6468292937e+00	-3.6629619033e-01
 0.0000000000e+00	 1.6470588235e+00	-3.6974508647e-01
 1.4016406430e-01	 1.6528912659e+00	-3.9988245685e-01
 1.1181233698e-01	 1.6550509065e+00	-3.7226703859e-01
 8.3609239171e-02	 1.6567151224e+00	-3.5097910075e-01
 5.5565819593e-02	 1.6578926206e+00	-3.3697097088e-01
 2.7692685544e-02	 1.6585923601e+00	-3.3135215207e-01
 0.0000000000e+00	 1.6588235294e+00	-3.3535056476e-01
 1.4115813568e-01	 1.6646138990e+00	-3.6542143355e-01
 1.1260533228e-01	 1.6667888562e+00	-3.3829551431e-01
 8.4202212499e-02	 1.6684648751e+00	-3.1730495152e-01
 5.5959903420e-02	 1.6696507243e+00	-3.0350914328e-01
 2.7889087570e-02	 1.6703554265e+00	-2.9813121815e-01
 0.0000000000e+00	 1.6705882353e+00	-3.0251737903e-01
 1.4215220705e-01	 1.6763365321e+00	-3.3311879211e-01
 1.1339832758e-01	 1.6785268059e+00	-3.0630947733e-01
 8.4795185826e-02	 1.6802146277e+00	-2.8546072934e-01
 5.6353987247e-02	 1.6814088280e+00	-2.7174386898e-01
 2.8085489595e-02	 1.6821184928e+00	-2.6650970205e-01
 0.0000000000e+00	 1.6823529412e+00	-2.7124541871e-01
 1.4314627843e-01	 1.6880591652e+00	-3.0287594042e-01
 1.1419132288e-01	 1.6902647556e+00	-2.7612988083e-01
 8.5388159153e-02	 1.6919643803e+00	-2.5523781184e-01
 5.6748071074e-02	 1.6931669317e+00	-2.4148746077e-01
 2.8281891620e-02	 1.6938815592e+00	-2.3637089292e-01
 0.0000000000e+00	 1.6941176471e+00	-2.4153842367e-01
 1.4414034981e-01	 1.6997817982e+00	-2.7459833125e-01
 1.1498431817e-01	 1.7020027052e+00	-2.4758463857e-01
 8.5981132481e-02	 1.7037141330e+00	-2.2643594623e-01
 5.7142154900e-02	 1.7049250354e+00	-2.1256051793e-01
 2.8478293645e-02	 1.7056446256e+00	-2.0760480881e-01
 0.0000000000e+00	 1.7058823529e+00	-2.1340385149e-01
 1.7058823529e+00	 0.0000000000e+00	 3.3203456065e+00
 1.7056446256e+00	 2.8478293645e-02	 3.3105877805e+00
 1.7049250354e+00	 5.7142154900e-02	 3.3001485832e+00
 1.7037141330e+00	 8.5981132481e-02	 3.2853825511e+00
 1.7020027052e+00	 1.1498431817e-01	 3.2634001231e+00
 1.6997817982e+00	 1.4414034981e-01	 3.2320866732e+00
 1.7176470588e+00	 0.0000000000e+00	 3.2945027028e+00
 1.7174076920e+00	 2.8674695670e-02	 3.2849178594e+00
 1.7166831391e+00	 5.7536238727e-02	 3.2753714395e+00
 1.7154638856e+00	 8.6574105808e-02	 3.2619501078e+00
 1.7137406549e+00	 1.1577731347e-01	 3.2415261057e+00
 1.7115044313e+00	 1.4513442119e-01	 3.2117730419e+00
 1.7294117647e+00	 0.0000000000e+00	 3.2683816609e+00
 1.7291707584e+00	 2.8871097695e-02	 3.2589030467e+00
 1.7284412427e+00	 5.7930322554e-02	 3.2498760191e+00
 1.7272136383e+00	 8.7167079136e-02	 3.2372004287e+00
 1.7254786046e+00	 1.1657030877e-01	 3.2175950059e+00
 1.7232270644e+00	 1.4612849257e-01	 3.1886093735e+00
 1.7411764706e+00	 0.0000000000e+00	 3.2419464586e+00
 1.7409338248e+00	 2.9067499720e-02	 3.2325177531e+00
 1.7401993464e+00	 5.8324406381e-02	 3.2236472349e+00
 1.7389633909e+00	 8.7760052463e-02	 3.2111284885e+00
 1.7372165543e+00	 1.1736330407e-01	 3.1916108837e+00
 1.7349496975e+00	 1.4712256394e-01	 3.1626072656e+00
 1.7529411765e+00	 0.0000000000e+00	 3.2151599229e+00
 1.7526968911e+00	 2.9263901746e-02	 3.2057341420e+00
 1.7519574501e+00	 5.8718490208e-02	 3.1966666370e+00
 1.7507131436e+00	 8.8353025791e-02	 3.1837248223e+00
 1.7489545040e+00	 1.1815629937e-01	 3.1635723802e+00
 1.7466723306e+00	 1.4811663532e-01	 3.1337720731e+00
 1.7647058824e+00	 0.0000000000e+00	 3.1879837676e+00
 1.7644599575e+00	 2.9460303771e-02	 3.1785221901e+00
 1.7637155538e+00	 5.9112574035e-02	 3.1689125016e+00
 1.7624628962e+00	 8.8945999118e-02	 3.1549756474e+00
 1.7606924537e+00	 1.1894929466e-01	 3.1334728771e+00
 1.7583949637e+00	 1.4911070670e-01	 3.1021031100e+00
 1.6997817982e+00	 1.4414034981e-01	 3.2320866732e+00
 1.6970427411e+00	 1.7343741549e-01	 3.1887402185e+00
 1.6937771696e+00	 2.0286325912e-01	 3.1319554545e+00
 1.6899770504e+00	 2.3240518734e-01	 3.0627615322e+00
 1.6856347050e+00	 2.6205007775e-01	 2.9829831638e+00
 1.6807428336e+00	 2.9178438865e-01	 2.8952096881e+00
 1.7115044313e+00	 1.4513442119e-01	 3.2117730419e+00
 1.7087464841e+00	 1.7463353559e-01	 3.1699074257e+00
 1.7054583914e+00	 2.0426231608e-01	 3.1144988040e+00
 1.7016320646e+00	 2.3400798173e-01	 3.0464765631e+00
 1.6972597720e+00	 2.6385731967e-01	 2.9675748051e+00
 1.6923341635e+00	 2.9379669478e-01	 2.8802964441e+00
 1.7232270644e+00	 1.4612849257e-01	 3.1886093735e+00
 1.7204502271e+00	 1.7582965570e-01	 3.1474620440e+00
 1.7171396133e+00	 2.0566137304e-01	 3.0927927261e+00
 1.7132870787e+00	 2.3561077613e-01	 3.0255361235e+00
 1.7088848389e+00	 2.6566456158e-01	 2.9474368890e+00
 1.7039254933e+00	 2.9580900091e-01	 2.8610078024e+00
 1.7349496975e+00	 1.4712256394e-01	 3.1626072656e+00
 1.7321539702e+00	 1.7702577581e-01	 3.1214084179e+00
 1.7288208352e+00	 2.0706043000e-01	 3.0668058992e+00
 1.7249420929e+00	 2.3721357052e-01	 2.9998436241e+00
 1.7205099058e+00	 2.6747180350e-01	 2.9223767449e+00
 1.7155168232e+00	 2.9782130703e-01	 2.8370229579e+00
 1.7466723306e+00	 1.4811663532e-01	 3.1337720731e+00
 1.7438577132e+00	 1.7822189591e-01	 3.0917443798e+00
 1.7405020570e+00	 2.0845948696e-01	 3.0365011791e+00
 1.7365971070e+00	 2.3881636492e-01	 2.9692983689e+00
 1.7321349728e+00	 2.6927904541e-01	 2.8922004047e+00
 1.7271081531e+00	 2.9983361316e-01	 2.8080237705e+00
 1.7583949637e+00	 1.4911070670e-01	 3.1021031100e+00
 1.7555614563e+00	 1.7941801602e-01	 3.0584614835e+00
 1.7521832789e+00	 2.0985854392e-01	 3.0018358420e+00
 1.7482521211e+00	 2.4041915932e-01	 2.9337957861e+00
 1.7437600397e+00	 2.7108628733e-01	 2.8567127953e+00
 1.7386994830e+00	 3.0184591929e-01	 2.7736948953e+00
 1.6807428336e+00	 2.9178438865e-01	 2.8952096881e+00
 1.6752945388e+00	 3.2159417014e-01	 2.7966662139e+00
 1.6692833498e+00	 3.5146507675e-01	 2.6839745422e+00
 1.6627032451e+00	 3.8138238147e-01	 2.5598088805e+00
 1.6555486757e+00	 4.1133099130e-01	 2.4274062471e+00
 1.6478145876e+00	 4.4129546430e-01	 2.2905474110e+00
 1.6923341635e+00	 2.9379669478e-01	 2.8802964441e+00
 1.6868482943e+00	 3.2381206097e-01	 2.7816903131e+00
 1.6807956488e+00	 3.5388897383e-01	 2.6683874039e+00
 1.6741701640e+00	 3.8401260479e-01	 2.5432527586e+00
 1.6669662528e+00	 4.1416775676e-01	 2.4097091878e+00
 1.6591788262e+00	 4.4433888130e-01	 2.2717144792e+00
 1.7039254933e+00	 2.9580900091e-01	 2.8610078024e+00
 1.6984020497e+00	 3.2602995180e-01	 2.7631875494e+00
 1.6923079477e+00	 3.5631287091e-01	 2.6504774520e+00
 1.6856370829e+00	 3.8664282811e-01	 2.5257176447e+00
 1.6783838299e+00	 4.1700452221e-01	 2.3923013459e+00
 1.6705430647e+00	 4.4738229829e-01	 2.2541494034e+00
 1.7155168232e+00	 2.9782130703e-01	 2.8370229579e+00
 1.7099558051e+00	 3.2824784263e-01	 2.7407087901e+00
 1.7038202467e+00	 3.5873676800e-01	 2.6297031526e+00
 1.6971040019e+00	 3.8927305143e-01	 2.5066105673e+00
 1.6898014069e+00	 4.1984128767e-01	 2.3745841833e+00
 1.6819073033e+00	 4.5042571529e-01	 2.2372987055e+00
 1.7271081531e+00	 2.9983361316e-01	 2.8080237705e+00
 1.7215095606e+00	 3.3046573346e-01	 2.7138118540e+00
 1.7153325457e+00	 3.6116066508e-01	 2.6055335807e+00
 1.7085709208e+00	 3.9190327475e-01	 2.4853520693e+00
 1.7012189840e+00	 4.2267805313e-01	 2.3559747042e+00
 1.6932715418e+00	 4.5346913228e-01	 2.2206254718e+00
 1.7386994830e+00	 3.0184591929e-01	 2.7736948953e+00
 1.7330633160e+00	 3.3268362429e-01	 2.6820615787e+00
 1.7268448446e+00	 3.6358456216e-01	 2.5774484594e+00
 1.7200378397e+00	 3.9453349807e-01	 2.4613762573e+00
 1.7126365611e+00	 4.2551481859e-01	 2.3359055566e+00
 1.7046357803e+00	 4.5651254928e-01	 2.2036095514e+00
 1.6478145876e+00	 4.4129546430e-01	 2.2905474110e+00
 1.6394964434e+00	 4.7126002806e-01	 2.1383663278e+00
 1.6305902434e+00	 5.0120859963e-01	 1.9644300777e+00
 1.6210925457e+00	 5.3112480690e-01	 1.7801518419e+00
 1.6110004858e+00	 5.6099201140e-01	 1.5977257727e+00
 1.6003117948e+00	 5.9079333236e-01	 1.4299766309e+00
 1.6591788262e+00	 4.4433888130e-01	 2.2717144792e+00
 1.6508033155e+00	 4.7451009722e-01	 2.1188281912e+00
 1.6418356933e+00	 5.0466521066e-01	 1.9449361532e+00
 1.6322724942e+00	 5.3478773660e-01	 1.7614613817e+00
 1.6221108340e+00	 5.6486092182e-01	 1.5806113483e+00
 1.6113484278e+00	 5.9486776914e-01	 1.4143565889e+00
 1.6705430647e+00	 4.4738229829e-01	 2.2541494034e+00
 1.6621101875e+00	 4.7776016638e-01	 2.1011099688e+00
 1.6530811433e+00	 5.0812182169e-01	 1.9274510036e+00
 1.6434524428e+00	 5.3845066631e-01	 1.7446884566e+00
 1.6332211821e+00	 5.6872983224e-01	 1.5651187032e+00
 1.6223850609e+00	 5.9894220591e-01	 1.3993361664e+00
 1.6819073033e+00	 4.5042571529e-01	 2.2372987055e+00
 1.6734170595e+00	 4.8101023554e-01	 2.0847163957e+00
 1.6643265932e+00	 5.1157843272e-01	 1.9115087674e+00
 1.6546323914e+00	 5.4211359601e-01	 1.7293656423e+00
 1.6443315303e+00	 5.7259874267e-01	 1.5507456618e+00
 1.6334216940e+00	 6.0301664269e-01	 1.3845185884e+00
 1.6932715418e+00	 4.5346913228e-01	 2.2206254718e+00
 1.6847239315e+00	 4.8426030470e-01	 2.0691697844e+00
 1.6755720432e+00	 5.1503504375e-01	 1.8966632761e+00
 1.6658123400e+00	 5.4577652571e-01	 1.7150484601e+00
 1.6554418785e+00	 5.7646765309e-01	 1.5370174137e+00
 1.6444583270e+00	 6.0709107946e-01	 1.3695336876e+00
 1.7046357803e+00	 4.5651254928e-01	 2.2036095514e+00
 1.6960308036e+00	 4.8751037386e-01	 2.0540103336e+00
 1.6868174931e+00	 5.1849165479e-01	 1.8824884486e+00
 1.6769922886e+00	 5.4943945541e-01	 1.7013158300e+00
 1.6665522267e+00	 5.8033656351e-01	 1.5234869967e+00
 1.6554949601e+00	 6.1116551624e-01	 1.3540369963e+00
 1.6003117948e+00	 5.9079333236e-01	 1.4299766309e+00
 1.5890248163e+00	 6.2051167221e-01	 1.2651060991e+00
 1.5771385225e+00	 6.5012974320e-01	 1.0912829661e+00
 1.5646525287e+00	 6.7963009530e-01	 9.1038914732e-01
 1.5515671066e+00	 7.0899514514e-01	 7.2326631553e-01
 1.5378831955e+00	 7.3820720606e-01	 5.2970591636e-01
 1.6113484278e+00	 5.9486776914e-01	 1.4143565889e+00
 1.5999836081e+00	 6.2479106305e-01	 1.2473466483e+00
 1.5880153399e+00	 6.5461339660e-01	 1.0725598989e+00
 1.5754432358e+00	 6.8431719940e-01	 8.9170320642e-01
 1.5622675694e+00	 7.1388476684e-01	 7.0540804774e-01
 1.5484892865e+00	 7.4329829024e-01	 5.1321870741e-01
 1.6223850609e+00	 5.9894220591e-01	 1.3993361664e+00
 1.6109423999e+00	 6.2907045390e-01	 1.2304788655e+00
 1.5988921573e+00	 6.5909705001e-01	 1.0549753602e+00
 1.5862339429e+00	 6.8900430351e-01	 8.7435458574e-01
 1.5729680322e+00	 7.1877438853e-01	 6.8904081385e-01
 1.5590953775e+00	 7.4838937442e-01	 4.9833996810e-01
 1.6334216940e+00	 6.0301664269e-01	 1.3845185884e+00
 1.6219011918e+00	 6.3334984474e-01	 1.2140346798e+00
 1.6097689747e+00	 6.6358070341e-01	 1.0380203161e+00
 1.5970246500e+00	 6.9369140762e-01	 8.5782441068e-01
 1.5836684950e+00	 7.2366401022e-01	 6.7366770559e-01
 1.5697014685e+00	 7.5348045860e-01	 4.8462713113e-01
 1.6444583270e+00	 6.0709107946e-01	 1.3695336876e+00
 1.6328599836e+00	 6.3762923558e-01	 1.1975741489e+00
 1.6206457921e+00	 6.6806435681e-01	 1.0212144737e+00
 1.6078153571e+00	 6.9837851172e-01	 8.4162226810e-01
 1.5943689578e+00	 7.2855363191e-01	 6.5881912614e-01
 1.5803075595e+00	 7.5857154278e-01	 4.7166294245e-01
 1.6554949601e+00	 6.1116551624e-01	 1.3540369963e+00
 1.6438187755e+00	 6.4190862643e-01	 1.1806844213e+00
 1.6315226095e+00	 6.7254801021e-01	 1.0041051412e+00
 1.6186060642e+00	 7.0306561583e-01	 8.2528499580e-01
 1.6050694206e+00	 7.3344325360e-01	 6.4405153927e-01
 1.5909136505e+00	 7.6366262696e-01	 4.5905420098e-01
 1.5378831955e+00	 7.3820720606e-01	 5.2970591636e-01
 1.5236024128e+00	 7.6724851899e-01	 3.4326378210e-01
 1.5087270619e+00	 7.9610128425e-01	 1.7462995672e-01
 1.4932601392e+00	 8.2474769406e-01	 1.7739608897e-02
 1.4772053384e+00	 8.5316996569e-01	-1.3441024110e-01
 1.4605670537e+00	 8.8135037506e-01	-2.8961301566e-01
 1.5484892865e+00	 7.4329829024e-01	 5.1321870741e-01
 1.5341100156e+00	 7.7253988809e-01	 3.2828426418e-01
 1.5191320761e+00	 8.0159163793e-01	 1.6101578330e-01
 1.5035584850e+00	 8.3043560919e-01	 5.2288040254e-03
 1.4873929614e+00	 8.5905389649e-01	-1.4624609554e-01
 1.4706399300e+00	 8.8742865351e-01	-3.0141345588e-01
 1.5590953775e+00	 7.4838937442e-01	 4.9833996810e-01
 1.5446176185e+00	 7.7783125718e-01	 3.1497085399e-01
 1.5295370903e+00	 8.0708199162e-01	 1.4904269972e-01
 1.5138568307e+00	 8.3612352432e-01	-5.7355144969e-03
 1.4975805844e+00	 8.6493782728e-01	-1.5668811792e-01
 1.4807128062e+00	 8.9350693196e-01	-3.1202092922e-01
 1.5697014685e+00	 7.5348045860e-01	 4.8462713113e-01
 1.5551252213e+00	 7.8312262628e-01	 3.0295253564e-01
 1.5399421046e+00	 8.1257234530e-01	 1.3841314914e-01
 1.5241551765e+00	 8.4181143946e-01	-1.5375325139e-02
 1.5077682074e+00	 8.7082175808e-01	-1.6588045319e-01
 1.4907856824e+00	 8.9958521040e-01	-3.2149944031e-01
 1.5803075595e+00	 7.5857154278e-01	 4.7166294245e-01
 1.5656328242e+00	 7.8841399538e-01	 2.9188120290e-01
 1.5503471188e+00	 8.1806269899e-01	 1.2885011961e-01
 1.5344535223e+00	 8.4749935459e-01	-2.3894362909e-02
 1.5179558305e+00	 8.7670568888e-01	-1.7395121812e-01
 1.5008585587e+00	 9.0566348885e-01	-3.2989907364e-01
 1.5909136505e+00	 7.6366262696e-01	 4.5905420098e-01
 1.5761404270e+00	 7.9370536447e-01	 2.8143040700e-01
 1.5607521330e+00	 8.2355305267e-01	 1.2009590357e-01
 1.5447518681e+00	 8.5318726972e-01	-3.1479344492e-02
 1.5281434535e+00	 8.8258961968e-01	-1.8101370699e-01
 1.5109314349e+00	 9.1174176730e-01	-3.3725717586e-01
 1.4605670537e+00	 8.8135037506e-01	-2.8961301566e-01
 1.4433503808e+00	 9.0927129080e-01	-4.3600048064e-01
 1.4255611155e+00	 9.3691520852e-01	-5.6239358071e-01
 1.4072057511e+00	 9.6426478522e-01	-6.7802864530e-01
 1.3882914733e+00	 9.9130287367e-01	-7.9180931404e-01
 1.3688261528e+00	 1.0180125567e+00	-9.1200145320e-01
 1.4706399300e+00	 8.8742865351e-01	-3.0141345588e-01
 1.4533045214e+00	 9.1554212729e-01	-4.4793056044e-01
 1.4353925715e+00	 9.4337669272e-01	-5.7391473780e-01
 1.4169106184e+00	 9.7091488719e-01	-6.8849222627e-01
 1.3978658972e+00	 9.9813944521e-01	-8.0043919515e-01
 1.3782663331e+00	 1.0250333329e+00	-9.1786895155e-01
 1.4807128062e+00	 8.9350693196e-01	-3.1202092922e-01
 1.4632586619e+00	 9.2181296378e-01	-4.5882681109e-01
 1.4452240275e+00	 9.4983817692e-01	-5.8443854962e-01
 1.4266154856e+00	 9.7756498915e-01	-6.9788249115e-01
 1.4074403212e+00	 1.0049760168e+00	-8.0782439695e-01
 1.3877065135e+00	 1.0320541092e+00	-9.2224881378e-01
 1.4907856824e+00	 8.9958521040e-01	-3.2149944031e-01
 1.4732128025e+00	 9.2808380027e-01	-4.6868267040e-01
 1.4550554834e+00	 9.5629966111e-01	-5.9390933932e-01
 1.4363203529e+00	 9.8421509112e-01	-7.0611613564e-01
 1.4170147451e+00	 1.0118125883e+00	-8.1387553946e-01
 1.3971466939e+00	 1.0390748854e+00	-9.2506723011e-01
 1.5008585587e+00	 9.0566348885e-01	-3.2989907364e-01
 1.4831669430e+00	 9.3435463675e-01	-4.7747932023e-01
 1.4648869394e+00	 9.6276114531e-01	-6.0226006287e-01
 1.4460252201e+00	 9.9086519309e-01	-7.1309859294e-01
 1.4265891691e+00	 1.0186491598e+00	-8.1849129725e-01
 1.4065868742e+00	 1.0460956617e+00	-9.2623697562e-01
 1.5109314349e+00	 9.1174176730e-01	-3.3725717586e-01
 1.4931210836e+00	 9.4062547324e-01	-4.8518685174e-01
 1.4747183954e+00	 9.6922262951e-01	-6.0941347393e-01
 1.4557300874e+00	 9.9751529505e-01	-7.1872521510e-01
 1.4361635930e+00	 1.0254857314e+00	-8.2155961353e-01
 1.4160270546e+00	 1.0531164379e+00	-9.2565867335e-01
 1.3688261528e+00	 1.0180125567e+00	-9.1200145320e-01
 1.3488183368e+00	 1.0443771811e+00	-1.0275943679e+00
 1.3282772377e+00	 1.0703803912e+00	-1.1257106441e+00
 1.3072127198e+00	 1.0960061621e+00	-1.2100183694e+00
 1.2856352847e+00	 1.1212388313e+00	-1.2824050529e+00
 1.2635560541e+00	 1.1460631310e+00	-1.3426292051e+00
 1.3782663331e+00	 1.0250333329e+00	-9.1786895155e-01
 1.3581205322e+00	 1.0515797823e+00	-1.0302685591e+00
 1.3374377703e+00	 1.0777623250e+00	-1.1258751698e+00
 1.3162279799e+00	 1.1035648253e+00	-1.2091520494e+00
 1.2945017349e+00	 1.1289715129e+00	-1.2828307312e+00
 1.2722702338e+00	 1.1539670146e+00	-1.3475451066e+00
 1.3877065135e+00	 1.0320541092e+00	-9.2224881378e-01
 1.3674227277e+00	 1.0587823836e+00	-1.0314245260e+00
 1.3465983030e+00	 1.0851442587e+00	-1.1249651448e+00
 1.3252432401e+00	 1.1111234884e+00	-1.2081218004e+00
 1.3033681852e+00	 1.1367041945e+00	-1.2844585432e+00
 1.2809844135e+00	 1.1618708983e+00	-1.3554685796e+00
 1.3971466939e+00	 1.0390748854e+00	-9.2506723011e-01
 1.3767249231e+00	 1.0659849848e+00	-1.0310026291e+00
 1.3557588357e+00	 1.0925261924e+00	-1.1229111890e+00
 1.3342585002e+00	 1.1186821516e+00	-1.2068256272e+00
 1.3122346354e+00	 1.1444368761e+00	-1.2871321897e+00
 1.2896985932e+00	 1.1697747820e+00	-1.3661686573e+00
 1.4065868742e+00	 1.0460956617e+00	-9.2623697562e-01
 1.3860271185e+00	 1.0731875861e+00	-1.0289281852e+00
 1.3649193684e+00	 1.0999081262e+00	-1.1196277101e+00
 1.3432737603e+00	 1.1262408148e+00	-1.2051446064e+00
 1.3211010857e+00	 1.1521695577e+00	-1.2906781732e+00
 1.2984127728e+00	 1.1776786656e+00	-1.3793234969e+00
 1.4160270546e+00	 1.0531164379e+00	-9.2565867335e-01
 1.3953293139e+00	 1.0803901873e+00	-1.0251127746e+00
 1.3740799010e+00	 1.1072900599e+00	-1.1150142299e+00
 1.3522890205e+00	 1.1337994780e+00	-1.2029442060e+00
 1.3299675359e+00	 1.1599022393e+00	-1.2949070859e+00
 1.3071269525e+00	 1.1855825493e+00	-1.3906889826e+00
 1.2635560541e+00	 1.1460631310e+00	-1.3426292051e+00
 1.2409867512e+00	 1.1704642179e+00	-1.4248297778e+00
 1.2179396800e+00	 1.1944277031e+00	-1.5410908849e+00
 1.1944277031e+00	 1.2179396800e+00	-1.6425644368e+00
 1.1704642179e+00	 1.2409867512e+00	-1.7192437087e+00
 1.1460631310e+00	 1.2635560541e+00	-1.7593820844e+00
 1.2722702338e+00	 1.1539670146e+00	-1.3475451066e+00
 1.2495452805e+00	 1.1785363849e+00	-1.4374782635e+00
 1.2263392640e+00	 1.2026651356e+00	-1.5468400090e+00
 1.2026651356e+00	 1.2263392640e+00	-1.6422863350e+00
 1.1785363849e+00	 1.2495452805e+00	-1.7158478678e+00
 1.1539670146e+00	 1.2722702338e+00	-1.7570685473e+00
 1.2809844135e+00	 1.1618708983e+00	-1.3554685796e+00
 1.2581038098e+00	 1.1866085520e+00	-1.4503654407e+00
 1.2347388480e+00	 1.2109025680e+00	-1.5523511009e+00
 1.2109025680e+00	 1.2347388480e+00	-1.6428534977e+00
 1.1866085520e+00	 1.2581038098e+00	-1.7139716417e+00
 1.1618708983e+00	 1.2809844135e+00	-1.7566643854e+00
 1.2896985932e+00	 1.1697747820e+00	-1.3661686573e+00
 1.2666623392e+00	 1.1946807190e+00	-1.4612664693e+00
 1.2431384320e+00	 1.2191400004e+00	-1.5571328594e+00
 1.2191400004e+00	 1.2431384320e+00	-1.6437215632e+00
 1.1946807190e+00	 1.2666623392e+00	-1.7131621470e+00
 1.1697747820e+00	 1.2896985932e+00	-1.7573527469e+00
 1.2984127728e+00	 1.1776786656e+00	-1.3793234969e+00
 1.2752208685e+00	 1.2027528860e+00	-1.4697846501e+00
 1.2515380160e+00	 1.2273774329e+00	-1.5607276762e+00
 1.2273774329e+00	 1.2515380160e+00	-1.6443807386e+00
 1.2027528860e+00	 1.2752208685e+00	-1.7128668780e+00
 1.1776786656e+00	 1.2984127728e+00	-1.7583467932e+00
 1.3071269525e+00	 1.1855825493e+00	-1.3906889826e+00
 1.2837793978e+00	 1.2108250530e+00	-1.4755550392e+00
 1.2599376000e+00	 1.2356148653e+00	-1.5627107967e+00
 1.2356148653e+00	 1.2599376000e+00	-1.6443549480e+00
 1.2108250530e+00	 1.2837793978e+00	-1.7125676423e+00
 1.1855825493e+00	 1.3071269525e+00	-1.7594594455e+00
 1.1460631310e+00	 1.2635560541e+00	-1.7593820844e+00
 1.1212388313e+00	 1.2856352847e+00	-1.7910242544e+00
 1.0960061621e+00	 1.3072127198e+00	-1.8421534847e+00
 1.0703803912e+00	 1.3282772377e+00	-1.9024041281e+00
 1.0443771811e+00	 1.3488183368e+00	-1.9632882293e+00
 1.0180125567e+00	 1.3688261528e+00	-2.0180227820e+00
 1.1539670146e+00	 1.2722702338e+00	-1.7570685473e+00
 1.1289715129e+00	 1.2945017349e+00	-1.7914913972e+00
 1.1035648253e+00	 1.3162279799e+00	-1.8456159631e+00
 1.0777623250e+00	 1.3374377703e+00	-1.9083996488e+00
 1.0515797823e+00	 1.3581205322e+00	-1.9707182103e+00
 1.0250333329e+00	 1.3782663331e+00	-2.0251859354e+00
 1.1618708983e+00	 1.2809844135e+00	-1.7566643854e+00
 1.1367041945e+00	 1.3033681852e+00	-1.7943146879e+00
 1.1111234884e+00	 1.3252432401e+00	-1.8515037621e+00
 1.0851442587e+00	 1.3465983030e+00	-1.9166397671e+00
 1.0587823836e+00	 1.3674227277e+00	-1.9800938885e+00
 1.0320541092e+00	 1.3877065135e+00	-2.0340122551e+00
 1.1697747820e+00	 1.2896985932e+00	-1.7573527469e+00
 1.1444368761e+00	 1.3122346354e+00	-1.7986982623e+00
 1.1186821516e+00	 1.3342585002e+00	-1.8590487296e+00
 1.0925261924e+00	 1.3557588357e+00	-1.9263887760e+00
 1.0659849848e+00	 1.3767249231e+00	-1.9907148047e+00
 1.0390748854e+00	 1.3971466939e+00	-2.0438374569e+00
 1.1776786656e+00	 1.2984127728e+00	-1.7583467932e+00
 1.1521695577e+00	 1.3211010857e+00	-1.8038655563e+00
 1.1262408148e+00	 1.3432737603e+00	-1.8675007785e+00
 1.0999081262e+00	 1.3649193684e+00	-1.9369273988e+00
 1.0731875861e+00	 1.3860271185e+00	-2.0018949867e+00
 1.0460956617e+00	 1.4065868742e+00	-2.0540095821e+00
 1.1855825493e+00	 1.3071269525e+00	-1.7594594455e+00
 1.1599022393e+00	 1.3299675359e+00	-1.8090602405e+00
 1.1337994780e+00	 1.3522890205e+00	-1.8761287979e+00
 1.1072900599e+00	 1.3740799010e+00	-1.9475536832e+00
 1.0803901873e+00	 1.3953293139e+00	-2.0129638284e+00
 1.0531164379e+00	 1.4160270546e+00	-2.0638898635e+00
 1.0180125567e+00	 1.3688261528e+00	-2.0180227820e+00
 9.9130287367e-01	 1.3882914733e+00	-2.0580646490e+00
 9.6426478522e-01	 1.4072057511e+00	-2.0810113448e+00
 9.3691520852e-01	 1.4255611155e+00	-2.0914687975e+00
 9.0927129080e-01	 1.4433503808e+00	-2.0951767744e+00
 8.8135037506e-01	 1.4605670537e+00	-2.0987335631e+00
 1.0250333329e+00	 1.3782663331e+00	-2.0251859354e+00
 9.9813944521e-01	 1.3978658972e+00	-2.0637962524e+00
 9.7091488719e-01	 1.4169106184e+00	-2.0852540244e+00
 9.4337669272e-01	 1.4353925715e+00	-2.0944567040e+00
 9.1554212729e-01	 1.4533045214e+00	-2.0974480404e+00
 8.8742865351e-01	 1.4706399300e+00	-2.1011294850e+00
 1.0320541092e+00	 1.3877065135e+00	-2.0340122551e+00
 1.0049760168e+00	 1.4074403212e+00	-2.0710801664e+00
 9.7756498915e-01	 1.4266154856e+00	-2.0911056211e+00
 9.4983817692e-01	 1.4452240275e+00	-2.0991738876e+00
 9.2181296378e-01	 1.4632586619e+00	-2.1015285798e+00
 8.9350693196e-01	 1.4807128062e+00	-2.1052699168e+00
 1.0390748854e+00	 1.3971466939e+00	-2.0438374569e+00
 1.0118125883e+00	 1.4170147451e+00	-2.0792824451e+00
 9.8421509112e-01	 1.4363203529e+00	-2.0979532093e+00
 9.5629966111e-01	 1.4550554834e+00	-2.1050222181e+00
 9.2808380027e-01	 1.4732128025e+00	-2.1068319218e+00
 8.9958521040e-01	 1.4907856824e+00	-2.1105799691e+00
 1.0460956617e+00	 1.4065868742e+00	-2.0540095821e+00
 1.0186491598e+00	 1.4265891691e+00	-2.0877793136e+00
 9.9086519309e-01	 1.4460252201e+00	-2.1051920247e+00
 9.6276114531e-01	 1.4648869394e+00	-2.1114098233e+00
 9.3435463675e-01	 1.4831669430e+00	-2.1127760173e+00
 9.0566348885e-01	 1.5008585587e+00	-2.1164873678e+00
 1.0531164379e+00	 1.4160270546e+00	-2.0638898635e+00
 1.0254857314e+00	 1.4361635930e+00	-2.0959580151e+00
 9.9751529505e-01	 1.4557300874e+00	-2.1122262836e+00
 9.6922262951e-01	 1.4747183954e+00	-2.1177518746e+00
 9.4062547324e-01	 1.4931210836e+00	-2.1187839886e+00
 9.1174176730e-01	 1.5109314349e+00	-2.1224231647e+00
 8.8135037506e-01	 1.4605670537e+00	-2.0987335631e+00
 8.5316996569e-01	 1.4772053384e+00	-2.0924450630e+00
 8.2474769406e-01	 1.4932601392e+00	-2.0658115107e+00
 7.9610128425e-01	 1.5087270619e+00	-2.0244608645e+00
 7.6724851899e-01	 1.5236024128e+00	-1.9735445519e+00
 7.3820720606e-01	 1.5378831955e+00	-1.9175708271e+00
 8.8742865351e-01	 1.4706399300e+00	-2.1011294850e+00
 8.5905389649e-01	 1.4873929614e+00	-2.0950254507e+00
 8.3043560919e-01	 1.5035584850e+00	-2.0677232139e+00
 8.0159163793e-01	 1.5191320761e+00	-2.0249457805e+00
 7.7253988809e-01	 1.5341100156e+00	-1.9719292040e+00
 7.4329829024e-01	 1.5484892865e+00	-1.9132484440e+00
 8.9350693196e-01	 1.4807128062e+00	-2.1052699168e+00
 8.6493782728e-01	 1.4975805844e+00	-2.0991337771e+00
 8.3612352432e-01	 1.5138568307e+00	-2.0709100883e+00
 8.0708199162e-01	 1.5295370903e+00	-2.0264895962e+00
 7.7783125718e-01	 1.5446176185e+00	-1.9712561840e+00
 7.4838937442e-01	 1.5590953775e+00	-1.9099047490e+00
 8.9958521040e-01	 1.4907856824e+00	-2.1105799691e+00
 8.7082175808e-01	 1.5077682074e+00	-2.1041937528e+00
 8.4181143946e-01	 1.5241551765e+00	-2.0747660150e+00
 8.1257234530e-01	 1.5399421046e+00	-2.0284271684e+00
 7.8312262628e-01	 1.5551252213e+00	-1.9707713886e+00
 7.5348045860e-01	 1.5697014685e+00	-1.9066660190e+00
 9.0566348885e-01	 1.5008585587e+00	-2.1164873678e+00
 8.7670568888e-01	 1.5179558305e+00	-2.1096303126e+00
 8.4749935459e-01	 1.5344535223e+00	-2.0786855785e+00
 8.1806269899e-01	 1.5503471188e+00	-2.0300944611e+00
 7.8841399538e-01	 1.5656328242e+00	-1.9697232010e+00
 7.5857154278e-01	 1.5803075595e+00	-1.9026634182e+00
 9.1174176730e-01	 1.5109314349e+00	-2.1224231647e+00
 8.8258961968e-01	 1.5281434535e+00	-2.1148702756e+00
 8.5318726972e-01	 1.5447518681e+00	-2.0820646480e+00
 8.2355305267e-01	 1.5607521330e+00	-2.0308290204e+00
 7.9370536447e-01	 1.5761404270e+00	-1.9673628310e+00
 7.6366262696e-01	 1.5909136505e+00	-1.8970331744e+00
 7.3820720606e-01	 1.5378831955e+00	-1.9175708271e+00
 7.0899514514e-01	 1.5515671066e+00	-1.8519904692e+00
 6.7963009530e-01	 1.5646525287e+00	-1.7725451863e+00
 6.5012974320e-01	 1.5771385225e+00	-1.6830182140e+00
 6.2051167221e-01	 1.5890248163e+00	-1.5863679219e+00
 5.9079333236e-01	 1.6003117948e+00	-1.4847136793e+00
 7.4329829024e-01	 1.5484892865e+00	-1.9132484440e+00
 7.1388476684e-01	 1.5622675694e+00	-1.8447886449e+00
 6.8431719940e-01	 1.5754432358e+00	-1.7628518927e+00
 6.5461339660e-01	 1.5880153399e+00	-1.6713900130e+00
 6.2479106305e-01	 1.5999836081e+00	-1.5734362702e+00
 5.9486776914e-01	 1.6113484278e+00	-1.4710921950e+00
 7.4838937442e-01	 1.5590953775e+00	-1.9099047490e+00
 7.1877438853e-01	 1.5729680322e+00	-1.8386738506e+00
 6.8900430351e-01	 1.5862339429e+00	-1.7542924265e+00
 6.5909705001e-01	 1.5988921573e+00	-1.6608569139e+00
 6.2907045390e-01	 1.6109423999e+00	-1.5614637047e+00
 5.9894220591e-01	 1.6223850609e+00	-1.4581965872e+00
 7.5348045860e-01	 1.5697014685e+00	-1.9066660190e+00
 7.2366401022e-01	 1.5836684950e+00	-1.8326752427e+00
 6.9369140762e-01	 1.5970246500e+00	-1.7458751939e+00
 6.6358070341e-01	 1.6097689747e+00	-1.6504830556e+00
 6.3334984474e-01	 1.6219011918e+00	-1.5496463763e+00
 6.0301664269e-01	 1.6334216940e+00	-1.4454307825e+00
 7.5857154278e-01	 1.5803075595e+00	-1.9026634182e+00
 7.2855363191e-01	 1.5943689578e+00	-1.8258288825e+00
 6.9837851172e-01	 1.6078153571e+00	-1.7366157094e+00
 6.6806435681e-01	 1.6206457921e+00	-1.6393380830e+00
 6.3762923558e-01	 1.6328599836e+00	-1.5371825443e+00
 6.0709107946e-01	 1.6444583270e+00	-1.4321956374e+00
 7.6366262696e-01	 1.5909136505e+00	-1.8970331744e+00
 7.3344325360e-01	 1.6050694206e+00	-1.8171777653e+00
 7.0306561583e-01	 1.6186060642e+00	-1.7255365453e+00
 6.7254801021e-01	 1.6315226095e+00	-1.6264970830e+00
 6.4190862643e-01	 1.6438187755e+00	-1.5232725664e+00
 6.1116551624e-01	 1.6554949601e+00	-1.4178890477e+00
 5.9079333236e-01	 1.6003117948e+00	-1.4847136793e+00
 5.6099201140e-01	 1.6110004858e+00	-1.3804415861e+00
 5.3112480690e-01	 1.6210925457e+00	-1.2800709577e+00
 5.0120859963e-01	 1.6305902434e+00	-1.1802411276e+00
 4.7126002806e-01	 1.6394964434e+00	-1.0774311463e+00
 4.4129546430e-01	 1.6478145876e+00	-9.6823089214e-01
 5.9486776914e-01	 1.6113484278e+00	-1.4710921950e+00
 5.6486092182e-01	 1.6221108340e+00	-1.3620259129e+00
 5.3478773660e-01	 1.6322724942e+00	-1.2576939202e+00
 5.0466521066e-01	 1.6418356933e+00	-1.1553741808e+00
 4.7451009722e-01	 1.6508033155e+00	-1.0512726730e+00
 4.4433888130e-01	 1.6591788262e+00	-9.4176604142e-01
 5.9894220591e-01	 1.6223850609e+00	-1.4581965872e+00
 5.6872983224e-01	 1.6332211821e+00	-1.3449509259e+00
 5.3845066631e-01	 1.6434524428e+00	-1.2365493060e+00
 5.0812182169e-01	 1.6530811433e+00	-1.1316506108e+00
 4.7776016638e-01	 1.6621101875e+00	-1.0260752499e+00
 4.4738229829e-01	 1.6705430647e+00	-9.1586241671e-01
 6.0301664269e-01	 1.6334216940e+00	-1.4454307825e+00
 5.7259874267e-01	 1.6443315303e+00	-1.3288185865e+00
 5.4211359601e-01	 1.6546323914e+00	-1.2163758824e+00
 5.1157843272e-01	 1.6643265932e+00	-1.1088663624e+00
 4.8101023554e-01	 1.6734170595e+00	-1.0016145033e+00
 4.5042571529e-01	 1.6819073033e+00	-8.9020016358e-01
 6.0709107946e-01	 1.6444583270e+00	-1.4321956374e+00
 5.7646765309e-01	 1.6554418785e+00	-1.3132209477e+00
 5.4577652571e-01	 1.6658123400e+00	-1.1969010359e+00
 5.1503504375e-01	 1.6755720432e+00	-1.0868065894e+00
 4.8426030470e-01	 1.6847239315e+00	-9.7765785407e-01
 4.5346913228e-01	 1.6932715418e+00	-8.6445573297e-01
 6.1116551624e-01	 1.6554949601e+00	-1.4178890477e+00
 5.8033656351e-01	 1.6665522267e+00	-1.2977401624e+00
 5.4943945541e-01	 1.6769922886e+00	-1.1778408586e+00
 5.1849165479e-01	 1.6868174931e+00	-1.0652457495e+00
 4.8751037386e-01	 1.6960308036e+00	-9.5396455401e-01
 4.5651254928e-01	 1.7046357803e+00	-8.3830179240e-01
 4.4129546430e-01	 1.6478145876e+00	-9.6823089214e-01
 4.1133099130e-01	 1.6555486757e+00	-8.6138031675e-01
 3.8138238147e-01	 1.6627032451e+00	-7.6595620616e-01
 3.5146507675e-01	 1.6692833498e+00	-6.7939421038e-01
 3.2159417014e-01	 1.6752945388e+00	-5.9943696293e-01
 2.9178438865e-01	 1.6807428336e+00	-5.2416770283e-01
 4.4433888130e-01	 1.6591788262e+00	-9.4176604142e-01
 4.1416775676e-01	 1.6669662528e+00	-8.3525451566e-01
 3.8401260479e-01	 1.6741701640e+00	-7.4038988443e-01
 3.5388897383e-01	 1.6807956488e+00	-6.5432473866e-01
 3.2381206097e-01	 1.6868482943e+00	-5.7453677965e-01
 2.9379669478e-01	 1.6923341635e+00	-4.9886390432e-01
 4.4738229829e-01	 1.6705430647e+00	-9.1586241671e-01
 4.1700452221e-01	 1.6783838299e+00	-8.0889761768e-01
 3.8664282811e-01	 1.6856370829e+00	-7.1347505820e-01
 3.5631287091e-01	 1.6923079477e+00	-6.2669961167e-01
 3.2602995180e-01	 1.6984020497e+00	-5.4602368162e-01
 2.9580900091e-01	 1.7039254933e+00	-4.6928234267e-01
 4.5042571529e-01	 1.6819073033e+00	-8.9020016358e-01
 4.1984128767e-01	 1.6898014069e+00	-7.8188194186e-01
 3.8927305143e-01	 1.6971040019e+00	-6.8472143759e-01
 3.5873676800e-01	 1.7038202467e+00	-5.9600574317e-01
 3.2824784263e-01	 1.7099558051e+00	-5.1339620284e-01
 2.9782130703e-01	 1.7155168232e+00	-4.3496221673e-01
 4.5346913228e-01	 1.6932715418e+00	-8.6445573297e-01
 4.2267805313e-01	 1.7012189840e+00	-7.5378085497e-01
 3.9190327475e-01	 1.7085709208e+00	-6.5364320325e-01
 3.6116066508e-01	 1.7153325457e+00	-5.6173676126e-01
 3.3046573346e-01	 1.7215095606e+00	-4.7616079796e-01
 2.9983361316e-01	 1.7271081531e+00	-3.9545095677e-01
 4.5651254928e-01	 1.7046357803e+00	-8.3830179240e-01
 4.2551481859e-01	 1.7126365611e+00	-7.2416854859e-01
 3.9453349807e-01	 1.7200378397e+00	-6.1975869178e-01
 3.6358456216e-01	 1.7268448446e+00	-5.2339263986e-01
 3.3268362429e-01	 1.7330633160e+00	-4.3383145288e-01
 3.0184591929e-01	 1.7386994830e+00	-3.5030384256e-01
 2.9178438865e-01	 1.6807428336e+00	-5.2416770283e-01
 2.6205007775e-01	 1.6856347050e+00	-4.5624718710e-01
 2.3240518734e-01	 1.6899770504e+00	-3.9833814459e-01
 2.0286325912e-01	 1.6937771696e+00	-3.4918337427e-01
 1.7343741549e-01	 1.6970427411e+00	-3.0802851016e-01
 1.4414034981e-01	 1.6997817982e+00	-2.7459833125e-01
 2.9379669478e-01	 1.6923341635e+00	-4.9886390432e-01
 2.6385731967e-01	 1.6972597720e+00	-4.3020060933e-01
 2.3400798173e-01	 1.7016320646e+00	-3.7160314329e-01
 2.0426231608e-01	 1.7054583914e+00	-3.2184246330e-01
 1.7463353559e-01	 1.7087464841e+00	-2.8021580275e-01
 1.4513442119e-01	 1.7115044313e+00	-2.4652121792e-01
 2.9580900091e-01	 1.7039254933e+00	-4.6928234267e-01
 2.6566456158e-01	 1.7088848389e+00	-3.9979755838e-01
 2.3561077613e-01	 1.7132870787e+00	-3.4092546078e-01
 2.0566137304e-01	 1.7171396133e+00	-2.9128387592e-01
 1.7582965570e-01	 1.7204502271e+00	-2.5004864501e-01
 1.4612849257e-01	 1.7232270644e+00	-2.1692688626e-01
 2.9782130703e-01	 1.7155168232e+00	-4.3496221673e-01
 2.6747180350e-01	 1.7205099058e+00	-3.6463526056e-01
 2.3721357052e-01	 1.7249420929e+00	-3.0597197770e-01
 2.0706043000e-01	 1.7288208352e+00	-2.5725928340e-01
 1.7702577581e-01	 1.7321539702e+00	-2.1738205264e-01
 1.4712256394e-01	 1.7349496975e+00	-1.8579556837e-01
 2.9983361316e-01	 1.7271081531e+00	-3.9545095677e-01
 2.6927904541e-01	 1.7321349728e+00	-3.2431890133e-01
 2.3881636492e-01	 1.7365971070e+00	-2.6641683239e-01
 2.0845948696e-01	 1.7405020570e+00	-2.1952639071e-01
 1.7822189591e-01	 1.7438577132e+00	-1.8207523852e-01
 1.4811663532e-01	 1.7466723306e+00	-1.5310915802e-01
 3.0184591929e-01	 1.7386994830e+00	-3.5030384256e-01
 2.7108628733e-01	 1.7437600397e+00	-2.7846126881e-01
 2.4041915932e-01	 1.7482521211e+00	-2.2194110270e-01
 2.0985854392e-01	 1.7521832789e+00	-1.7784867279e-01
 1.7941801602e-01	 1.7555614563e+00	-1.4399142249e-01
 1.4911070670e-01	 1.7583949637e+00	-1.1885111590e-01
 1.4414034981e-01	 1.6997817982e+00	-2.7459833125e-01
 1.1498431817e-01	 1.7020027052e+00	-2.4758463857e-01
 8.5981132481e-02	 1.7037141330e+00	-2.2643594623e-01
 5.7142154900e-02	 1.7049250354e+00	-2.1256051793e-01
 2.8478293645e-02	 1.7056446256e+00	-2.0760480881e-01
 0.0000000000e+00	 1.7058823529e+00	-2.1340385149e-01
 1.4513442119e-01	 1.7115044313e+00	-2.4652121792e-01
 1.1577731347e-01	 1.7137406549e+00	-2.1937781026e-01
 8.6574105808e-02	 1.7154638856e+00	-1.9816837387e-01
 5.7536238727e-02	 1.7166831391e+00	-1.8442830275e-01
 2.8674695670e-02	 1.7174076920e+00	-1.7996606982e-01
 0.0000000000e+00	 1.7176470588e+00	-1.8680995953e-01
 1.4612849257e-01	 1.7232270644e+00	-2.1692688626e-01
 1.1657030877e-01	 1.7254786046e+00	-1.9038774676e-01
 8.7167079136e-02	 1.7272136383e+00	-1.6978580594e-01
 5.7930322554e-02	 1.7284412427e+00	-1.5679309324e-01
 2.8871097695e-02	 1.7291707584e+00	-1.5338281213e-01
 0.0000000000e+00	 1.7294117647e+00	-1.6177269716e-01
 1.4712256394e-01	 1.7349496975e+00	-1.8579556837e-01
 1.1736330407e-01	 1.7372165543e+00	-1.6070835644e-01
 8.7760052463e-02	 1.7389633909e+00	-1.4144887175e-01
 5.8324406381e-02	 1.7401993464e+00	-1.2983560829e-01
 2.9067499720e-02	 1.7409338248e+00	-1.2800964983e-01
 0.0000000000e+00	 1.7411764706e+00	-1.3837492266e-01
 1.4811663532e-01	 1.7466723306e+00	-1.5310915802e-01
 1.1815629937e-01	 1.7489545040e+00	-1.3043287496e-01
 8.8353025791e-02	 1.7507131436e+00	-1.1331634946e-01
 5.8718490208e-02	 1.7519574501e+00	-1.0373468884e-01
 2.9263901746e-02	 1.7526968911e+00	-1.0400043715e-01
 0.0000000000e+00	 1.7529411765e+00	-1.1670098818e-01
 1.4911070670e-01	 1.7583949637e+00	-1.1885111590e-01
 1.1894929466e-01	 1.7606924537e+00	-9.9653858281e-02
 8.8945999118e-02	 1.7624628962e+00	-8.5545207079e-02
 5.9112574035e-02	 1.7637155538e+00	-7.8667347553e-02
 2.9460303771e-02	 1.7644599575e+00	-8.1508287697e-02
 0.0000000000e+00	 1.7647058824e+00	-9.6836689990e-02
 1.7647058824e+00	 0.0000000000e+00	 3.1879837676e+00
 1.7644599575e+00	 2.9460303771e-02	 3.1785221901e+00
 1.7637155538e+00	 5.9112574035e-02	 3.1689125016e+00
 1.7624628962e+00	 8.8945999118e-02	 3.1549756474e+00
 1.7606924537e+00	 1.1894929466e-01	 3.1334728771e+00
 1.7583949637e+00	 1.4911070670e-01	 3.1021031100e+00
 1.7764705882e+00	 0.0000000000e+00	 3.1605711768e+00
 1.7762230239e+00	 2.9656705796e-02	 3.1520127960e+00
 1.7754736575e+00	 5.9506657862e-02	 3.1441510427e+00
 1.7742126488e+00	 8.9538972446e-02	 3.1326168859e+00
 1.7724304034e+00	 1.1974228996e-01	 3.1137070480e+00
 1.7701175968e+00	 1.5010477808e-01	 3.0843815459e+00
 1.7882352941e+00	 0.0000000000e+00	 3.1330070115e+00
 1.7879860903e+00	 2.9853107821e-02	 3.1255108563e+00
 1.7872317612e+00	 5.9900741689e-02	 3.1192609506e+00
 1.7859624015e+00	 9.0131945773e-02	 3.1100692161e+00
 1.7841683531e+00	 1.2053528526e-01	 3.0944034492e+00
 1.7818402299e+00	 1.5109884946e-01	 3.0693829232e+00
 1.8000000000e+00	 0.0000000000e+00	 3.1051529884e+00
 1.7997491567e+00	 3.0049509846e-02	 3.0988672484e+00
 1.7989898649e+00	 6.0294825516e-02	 3.0939681096e+00
 1.7977121541e+00	 9.0724919101e-02	 3.0864565632e+00
 1.7959063028e+00	 1.2132828056e-01	 3.0729827456e+00
 1.7935628630e+00	 1.5209292083e-01	 3.0508397078e+00
 1.8117647059e+00	 0.0000000000e+00	 3.0768751079e+00
 1.8115122231e+00	 3.0245911871e-02	 3.0719469989e+00
 1.8107479686e+00	 6.0688909343e-02	 3.0681565835e+00
 1.8094619068e+00	 9.1317892428e-02	 3.0617019528e+00
 1.8076442525e+00	 1.2212127585e-01	 3.0494267276e+00
 1.8052854961e+00	 1.5308699221e-01	 3.0288121005e+00
 1.8235294118e+00	 0.0000000000e+00	 3.0480435165e+00
 1.8232752894e+00	 3.0442313896e-02	 3.0446198411e+00
 1.8225060723e+00	 6.1082993169e-02	 3.0417151889e+00
 1.8212116594e+00	 9.1910865755e-02	 3.0357326934e+00
 1.8193822022e+00	 1.2291427115e-01	 3.0237204806e+00
 1.8170081292e+00	 1.5408106359e-01	 3.0033620919e+00
 1.7583949637e+00	 1.4911070670e-01	 3.1021031100e+00
 1.7555614563e+00	 1.7941801602e-01	 3.0584614835e+00
 1.7521832789e+00	 2.0985854392e-01	 3.0018358420e+00
 1.7482521211e+00	 2.4041915932e-01	 2.9337957861e+00
 1.7437600397e+00	 2.7108628733e-01	 2.8567127953e+00
 1.7386994830e+00	 3.0184591929e-01	 2.7736948953e+00
 1.7701175968e+00	 1.5010477808e-01	 3.0843815459e+00
 1.7672651993e+00	 1.8061413613e-01	 3.0411877751e+00
 1.7638645007e+00	 2.1125760088e-01	 2.9823213198e+00
 1.7599071353e+00	 2.4202195371e-01	 2.9112633314e+00
 1.7553851066e+00	 2.7289352924e-01	 2.8317802669e+00
 1.7502908129e+00	 3.0385822542e-01	 2.7473244357e+00
 1.7818402299e+00	 1.5109884946e-01	 3.0693829232e+00
 1.7789689424e+00	 1.8181025623e-01	 3.0315833473e+00
 1.7755457226e+00	 2.1265665784e-01	 2.9791495128e+00
 1.7715621494e+00	 2.4362474811e-01	 2.9125098264e+00
 1.7670101736e+00	 2.7470077116e-01	 2.8327147763e+00
 1.7618821428e+00	 3.0587053155e-01	 2.7426151379e+00
 1.7935628630e+00	 1.5209292083e-01	 3.0508397078e+00
 1.7906726854e+00	 1.8300637634e-01	 3.0165815102e+00
 1.7872269444e+00	 2.1405571480e-01	 2.9683449265e+00
 1.7832171636e+00	 2.4522754250e-01	 2.9067170874e+00
 1.7786352405e+00	 2.7650801307e-01	 2.8328674939e+00
 1.7734734727e+00	 3.0788283768e-01	 2.7485450241e+00
 1.8052854961e+00	 1.5308699221e-01	 3.0288121005e+00
 1.8023764284e+00	 1.8420249645e-01	 2.9963380987e+00
 1.7989081663e+00	 2.1545477176e-01	 2.9500634935e+00
 1.7948721777e+00	 2.4683033690e-01	 2.8907259420e+00
 1.7902603074e+00	 2.7831525499e-01	 2.8196076781e+00
 1.7850648026e+00	 3.0989514381e-01	 2.7385297506e+00
 1.8170081292e+00	 1.5408106359e-01	 3.0033620919e+00
 1.8140801715e+00	 1.8539861655e-01	 2.9710087758e+00
 1.8105893882e+00	 2.1685382872e-01	 2.9245692931e+00
 1.8065271918e+00	 2.4843313129e-01	 2.8649239430e+00
 1.8018853744e+00	 2.8012249690e-01	 2.7934617148e+00
 1.7966561324e+00	 3.1190744993e-01	 2.7120718691e+00
 1.7386994830e+00	 3.0184591929e-01	 2.7736948953e+00
 1.7330633160e+00	 3.3268362429e-01	 2.6820615787e+00
 1.7268448446e+00	 3.6358456216e-01	 2.5774484594e+00
 1.7200378397e+00	 3.9453349807e-01	 2.4613762573e+00
 1.7126365611e+00	 4.2551481859e-01	 2.3359055566e+00
 1.7046357803e+00	 4.5651254928e-01	 2.2036095514e+00
 1.7502908129e+00	 3.0385822542e-01	 2.7473244357e+00
 1.7446170715e+00	 3.3490151512e-01	 2.6556937207e+00
 1.7383571436e+00	 3.6600845924e-01	 2.5524525322e+00
 1.7315047587e+00	 3.9716372139e-01	 2.4386160797e+00
 1.7240541382e+00	 4.2835158404e-01	 2.3157288683e+00
 1.7160000189e+00	 4.5955596628e-01	 2.1858368509e+00
 1.7618821428e+00	 3.0587053155e-01	 2.7426151379e+00
 1.7561708269e+00	 3.3711940594e-01	 2.6455048717e+00
 1.7498694425e+00	 3.6843235632e-01	 2.5381776128e+00
 1.7429716776e+00	 3.9979394471e-01	 2.4216086251e+00
 1.7354717152e+00	 4.3118834950e-01	 2.2972796690e+00
 1.7273642574e+00	 4.6259938327e-01	 2.1671475822e+00
 1.7734734727e+00	 3.0788283768e-01	 2.7485450241e+00
 1.7677245823e+00	 3.3933729677e-01	 2.6505885663e+00
 1.7613817415e+00	 3.7085625340e-01	 2.5350420383e+00
 1.7544385965e+00	 4.0242416803e-01	 2.4106973897e+00
 1.7468892923e+00	 4.3402511496e-01	 2.2807250436e+00
 1.7387284959e+00	 4.6564280027e-01	 2.1474218628e+00
 1.7850648026e+00	 3.0989514381e-01	 2.7385297506e+00
 1.7792783378e+00	 3.4155518760e-01	 2.6449085039e+00
 1.7728940405e+00	 3.7328015048e-01	 2.5341609442e+00
 1.7659055155e+00	 4.0505439135e-01	 2.4060245392e+00
 1.7583068694e+00	 4.3686188042e-01	 2.2662303795e+00
 1.7500927345e+00	 4.6868621726e-01	 2.1265483903e+00
 1.7966561324e+00	 3.1190744993e-01	 2.7120718691e+00
 1.7908320932e+00	 3.4377307843e-01	 2.6187817724e+00
 1.7844063394e+00	 3.7570404756e-01	 2.5102402494e+00
 1.7773724344e+00	 4.0768461467e-01	 2.3871141546e+00
 1.7697244465e+00	 4.3969864587e-01	 2.2507315924e+00
 1.7614569730e+00	 4.7172963426e-01	 2.1044249712e+00
 1.7046357803e+00	 4.5651254928e-01	 2.2036095514e+00
 1.6960308036e+00	 4.8751037386e-01	 2.0540103336e+00
 1.6868174931e+00	 5.1849165479e-01	 1.8824884486e+00
 1.6769922886e+00	 5.4943945541e-01	 1.7013158300e+00
 1.6665522267e+00	 5.8033656351e-01	 1.5234869967e+00
 1.6554949601e+00	 6.1116551624e-01	 1.3540369963e+00
 1.7160000189e+00	 4.5955596628e-01	 2.1858368509e+00
 1.7073376756e+00	 4.9076044301e-01	 2.0380681968e+00
 1.6980629431e+00	 5.2194826582e-01	 1.8678488272e+00
 1.6881722372e+00	 5.5310238512e-01	 1.6875526277e+00
 1.6776625749e+00	 5.8420547394e-01	 1.5102478790e+00
 1.6665315932e+00	 6.1523995301e-01	 1.3388818552e+00
 1.7273642574e+00	 4.6259938327e-01	 2.1671475822e+00
 1.7186445476e+00	 4.9401051217e-01	 2.0201761914e+00
 1.7093083930e+00	 5.2540487685e-01	 1.8514327237e+00
 1.6993521858e+00	 5.5676531482e-01	 1.6728695377e+00
 1.6887729230e+00	 5.8807438436e-01	 1.4971103968e+00
 1.6775682263e+00	 6.1931438979e-01	 1.3247159667e+00
 1.7387284959e+00	 4.6564280027e-01	 2.1474218628e+00
 1.7299514196e+00	 4.9726058133e-01	 1.9999067705e+00
 1.7205538430e+00	 5.2886148788e-01	 1.8325868525e+00
 1.7105321344e+00	 5.6042824452e-01	 1.6564794618e+00
 1.6998832712e+00	 5.9194329478e-01	 1.4831015530e+00
 1.6886048593e+00	 6.2338882656e-01	 1.3109290400e+00
 1.7500927345e+00	 4.6868621726e-01	 2.1265483903e+00
 1.7412582916e+00	 5.0051065049e-01	 1.9768521761e+00
 1.7317992929e+00	 5.3231809891e-01	 1.8106871756e+00
 1.7217120830e+00	 5.6409117423e-01	 1.6376319712e+00
 1.7109936194e+00	 5.9581220521e-01	 1.4673499364e+00
 1.6996414924e+00	 6.2746326334e-01	 1.2969417232e+00
 1.7614569730e+00	 4.7172963426e-01	 2.1044249712e+00
 1.7525651637e+00	 5.0376071965e-01	 1.9506247588e+00
 1.7430447429e+00	 5.3577470994e-01	 1.7851390804e+00
 1.7328920316e+00	 5.6775410393e-01	 1.6156134199e+00
 1.7221039676e+00	 5.9968111563e-01	 1.4492480812e+00
 1.7106781255e+00	 6.3153770011e-01	 1.2822044612e+00
 1.6554949601e+00	 6.1116551624e-01	 1.3540369963e+00
 1.6438187755e+00	 6.4190862643e-01	 1.1806844213e+00
 1.6315226095e+00	 6.7254801021e-01	 1.0041051412e+00
 1.6186060642e+00	 7.0306561583e-01	 8.2528499580e-01
 1.6050694206e+00	 7.3344325360e-01	 6.4405153927e-01
 1.5909136505e+00	 7.6366262696e-01	 4.5905420098e-01
 1.6665315932e+00	 6.1523995301e-01	 1.3388818552e+00
 1.6547775673e+00	 6.4618801727e-01	 1.1645103727e+00
 1.6423994269e+00	 6.7703166361e-01	 9.8787108270e-01
 1.6293967713e+00	 7.0775271993e-01	 8.0986084199e-01
 1.6157698834e+00	 7.3833287529e-01	 6.3020683097e-01
 1.6015197415e+00	 7.6875371114e-01	 4.4744382927e-01
 1.6775682263e+00	 6.1931438979e-01	 1.3247159667e+00
 1.6657363591e+00	 6.5046740811e-01	 1.1501086302e+00
 1.6532762443e+00	 6.8151531701e-01	 9.7368427599e-01
 1.6401874784e+00	 7.1243982404e-01	 7.9643434116e-01
 1.6264703462e+00	 7.4322249698e-01	 6.1816547323e-01
 1.6121258325e+00	 7.7384479532e-01	 4.3747256823e-01
 1.6886048593e+00	 6.2338882656e-01	 1.3109290400e+00
 1.6766951510e+00	 6.5474679895e-01	 1.1369748958e+00
 1.6641530616e+00	 6.8599897041e-01	 9.6112086379e-01
 1.6509781855e+00	 7.1712692814e-01	 7.8463375967e-01
 1.6371708090e+00	 7.4811211867e-01	 6.0757679485e-01
 1.6227319235e+00	 7.7893587950e-01	 4.2877702243e-01
 1.6996414924e+00	 6.2746326334e-01	 1.2969417232e+00
 1.6876539428e+00	 6.5902618980e-01	 1.1246322686e+00
 1.6750298790e+00	 6.9048262381e-01	 9.4978141238e-01
 1.6617688926e+00	 7.2181403225e-01	 7.7410949771e-01
 1.6478712718e+00	 7.5300174036e-01	 5.9811076736e-01
 1.6333380145e+00	 7.8402696368e-01	 4.2101385993e-01
 1.7106781255e+00	 6.3153770011e-01	 1.2822044612e+00
 1.6986127346e+00	 6.6330558064e-01	 1.1126301303e+00
 1.6859066964e+00	 6.9496627722e-01	 9.3928980529e-01
 1.6725595997e+00	 7.2650113635e-01	 7.6453296964e-01
 1.6585717346e+00	 7.5789136205e-01	 5.8945684814e-01
 1.6439441055e+00	 7.8911804786e-01	 4.1385859144e-01
 1.5909136505e+00	 7.6366262696e-01	 4.5905420098e-01
 1.5761404270e+00	 7.9370536447e-01	 2.8143040700e-01
 1.5607521330e+00	 8.2355305267e-01	 1.2009590357e-01
 1.5447518681e+00	 8.5318726972e-01	-3.1479344492e-02
 1.5281434535e+00	 8.8258961968e-01	-1.8101370699e-01
 1.5109314349e+00	 9.1174176730e-01	-3.3725717586e-01
 1.6015197415e+00	 7.6875371114e-01	 4.4744382927e-01
 1.5866480298e+00	 7.9899673357e-01	 2.7210721063e-01
 1.5711571472e+00	 8.2904340635e-01	 1.1257366945e-01
 1.5550502139e+00	 8.5887518485e-01	-3.7757549827e-02
 1.5383310765e+00	 8.8847355048e-01	-1.8672677573e-01
 1.5210043111e+00	 9.1782004575e-01	-3.4325577289e-01
 1.6121258325e+00	 7.7384479532e-01	 4.3747256823e-01
 1.5971556327e+00	 8.0428810266e-01	 2.6436575214e-01
 1.5815621614e+00	 8.3453376004e-01	 1.0662792780e-01
 1.5653485597e+00	 8.6456309998e-01	-4.2435078073e-02
 1.5485186995e+00	 8.9435748127e-01	-1.9080219690e-01
 1.5310771874e+00	 9.2389832420e-01	-3.4757742380e-01
 1.6227319235e+00	 7.7893587950e-01	 4.2877702243e-01
 1.6076632355e+00	 8.0957947176e-01	 2.5783111621e-01
 1.5919671757e+00	 8.4002411372e-01	 1.0191108611e-01
 1.5756469055e+00	 8.7025101511e-01	-4.5792228853e-02
 1.5587063226e+00	 9.0024141207e-01	-1.9341206677e-01
 1.5411500636e+00	 9.2997660265e-01	-3.5024437105e-01
 1.6333380145e+00	 7.8402696368e-01	 4.2101385993e-01
 1.6181708384e+00	 8.1487084086e-01	 2.5214791474e-01
 1.6023721899e+00	 8.4551446741e-01	 9.8093645919e-02
 1.5859452513e+00	 8.7593893024e-01	-4.8093532963e-02
 1.5688939456e+00	 9.0612534287e-01	-1.9471592416e-01
 1.5512229398e+00	 9.3605488110e-01	-3.5127039058e-01
 1.6439441055e+00	 7.8911804786e-01	 4.1385859144e-01
 1.6286784412e+00	 8.2016220995e-01	 2.4697900506e-01
 1.6127772041e+00	 8.5100482109e-01	 9.4862894080e-02
 1.5962435970e+00	 8.8162684538e-01	-4.9589052981e-02
 1.5790815686e+00	 9.1200927367e-01	-1.9486200708e-01
 1.5612958161e+00	 9.4213315955e-01	-3.5066196816e-01
 1.5109314349e+00	 9.1174176730e-01	-3.3725717586e-01
 1.4931210836e+00	 9.4062547324e-01	-4.8518685174e-01
 1.4747183954e+00	 9.6922262951e-01	-6.0941347393e-01
 1.4557300874e+00	 9.9751529505e-01	-7.1872521510e-01
 1.4361635930e+00	 1.0254857314e+00	-8.2155961353e-01
 1.4160270546e+00	 1.0531164379e+00	-9.2565867335e-01
 1.5210043111e+00	 9.1782004575e-01	-3.4325577289e-01
 1.5030752242e+00	 9.4689630973e-01	-4.9152506206e-01
 1.4845498513e+00	 9.7568411370e-01	-6.1516107671e-01
 1.4654349546e+00	 1.0041653970e+00	-7.2289799154e-01
 1.4457380170e+00	 1.0323223029e+00	-8.2314067279e-01
 1.4254672350e+00	 1.0601372142e+00	-9.2361143864e-01
 1.5310771874e+00	 9.2389832420e-01	-3.4757742380e-01
 1.5130293647e+00	 9.5316714622e-01	-4.9616003380e-01
 1.4943813073e+00	 9.8214559790e-01	-6.1920934414e-01
 1.4751398219e+00	 1.0108154990e+00	-7.2542535211e-01
 1.4553124409e+00	 1.0391588745e+00	-8.2321515081e-01
 1.4349074153e+00	 1.0671579905e+00	-9.2033123210e-01
 1.5411500636e+00	 9.2997660265e-01	-3.5024437105e-01
 1.5229835053e+00	 9.5943798271e-01	-4.9896945483e-01
 1.5042127633e+00	 9.8860708210e-01	-6.2134393615e-01
 1.4848446891e+00	 1.0174656010e+00	-7.2605324990e-01
 1.4648868649e+00	 1.0459954460e+00	-8.2154135742e-01
 1.4443475957e+00	 1.0741787667e+00	-9.1564047418e-01
 1.5512229398e+00	 9.3605488110e-01	-3.5127039058e-01
 1.5329376458e+00	 9.6570881920e-01	-4.9982627673e-01
 1.5140442193e+00	 9.9506856629e-01	-6.2134790376e-01
 1.4945495564e+00	 1.0241157029e+00	-7.2452554932e-01
 1.4744612888e+00	 1.0528320175e+00	-8.1787442967e-01
 1.4537877760e+00	 1.0811995430e+00	-9.0935573452e-01
 1.5612958161e+00	 9.4213315955e-01	-3.5066196816e-01
 1.5428917864e+00	 9.7197965568e-01	-4.9859981357e-01
 1.5238756752e+00	 1.0015300505e+00	-6.1900275258e-01
 1.5042544236e+00	 1.0307658049e+00	-7.2058509614e-01
 1.4840357128e+00	 1.0596685891e+00	-8.1196744983e-01
 1.4632279564e+00	 1.0882203192e+00	-9.0128893870e-01
 1.4160270546e+00	 1.0531164379e+00	-9.2565867335e-01
 1.3953293139e+00	 1.0803901873e+00	-1.0251127746e+00
 1.3740799010e+00	 1.1072900599e+00	-1.1150142299e+00
 1.3522890205e+00	 1.1337994780e+00	-1.2029442060e+00
 1.3299675359e+00	 1.1599022393e+00	-1.2949070859e+00
 1.3071269525e+00	 1.1855825493e+00	-1.3906889826e+00
 1.4254672350e+00	 1.0601372142e+00	-9.2361143864e-01
 1.4046315094e+00	 1.0875927886e+00	-1.0200990079e+00
 1.3832404337e+00	 1.1146719936e+00	-1.1098800694e+00
 1.3613042806e+00	 1.1413581412e+00	-1.2012798781e+00
 1.3388339861e+00	 1.1676349209e+00	-1.3010734106e+00
 1.3158411322e+00	 1.1934864330e+00	-1.3993875423e+00
 1.4349074153e+00	 1.0671579905e+00	-9.2033123210e-01
 1.4139337048e+00	 1.0947953898e+00	-1.0144253627e+00
 1.3924009664e+00	 1.1220539274e+00	-1.1050531041e+00
 1.3703195407e+00	 1.1489168044e+00	-1.2012326480e+00
 1.3477004364e+00	 1.1753676025e+00	-1.3104492705e+00
 1.3245553119e+00	 1.2013903166e+00	-1.4068448342e+00
 1.4443475957e+00	 1.0741787667e+00	-9.1564047418e-01
 1.4232359002e+00	 1.1019979911e+00	-1.0079803053e+00
 1.4015614991e+00	 1.1294358611e+00	-1.1004414009e+00
 1.3793348009e+00	 1.1564754676e+00	-1.2026857274e+00
 1.3565668866e+00	 1.1831002841e+00	-1.3207021640e+00
 1.3332694916e+00	 1.2092942003e+00	-1.4128631474e+00
 1.4537877760e+00	 1.0811995430e+00	-9.0935573452e-01
 1.4325380956e+00	 1.1092005923e+00	-1.0006434814e+00
 1.4107220317e+00	 1.1368177948e+00	-1.0959422165e+00
 1.3883500610e+00	 1.1640341307e+00	-1.2055104759e+00
 1.3654333368e+00	 1.1908329657e+00	-1.3280699491e+00
 1.3419836713e+00	 1.2171980839e+00	-1.4172717610e+00
 1.4632279564e+00	 1.0882203192e+00	-9.0128893870e-01
 1.4418402911e+00	 1.1164031936e+00	-9.9228701076e-01
 1.4198825644e+00	 1.1441997286e+00	-1.0914433364e+00
 1.3973653212e+00	 1.1715927939e+00	-1.2095677439e+00
 1.3742997871e+00	 1.1985656473e+00	-1.3324344143e+00
 1.3506978509e+00	 1.2251019676e+00	-1.4199261691e+00
 1.3071269525e+00	 1.1855825493e+00	-1.3906889826e+00
 1.2837793978e+00	 1.2108250530e+00	-1.4755550392e+00
 1.2599376000e+00	 1.2356148653e+00	-1.5627107967e+00
 1.2356148653e+00	 1.2599376000e+00	-1.6443549480e+00
 1.2108250530e+00	 1.2837793978e+00	-1.7125676423e+00
 1.1855825493e+00	 1.3071269525e+00	-1.7594594455e+00
 1.3158411322e+00	 1.1934864330e+00	-1.3993875423e+00
 1.2923379271e+00	 1.2188972200e+00	-1.4800182290e+00
 1.2683371840e+00	 1.2438522977e+00	-1.5645196407e+00
 1.2438522977e+00	 1.2683371840e+00	-1.6450456392e+00
 1.2188972200e+00	 1.2923379271e+00	-1.7136211789e+00
 1.1934864330e+00	 1.3158411322e+00	-1.7622977742e+00
 1.3245553119e+00	 1.2013903166e+00	-1.4068448342e+00
 1.3008964564e+00	 1.2269693871e+00	-1.4846281484e+00
 1.2767367680e+00	 1.2520897302e+00	-1.5675869271e+00
 1.2520897302e+00	 1.2767367680e+00	-1.6478372532e+00
 1.2269693871e+00	 1.3008964564e+00	-1.7173599762e+00
 1.2013903166e+00	 1.3245553119e+00	-1.7681628876e+00
 1.3332694916e+00	 1.2092942003e+00	-1.4128631474e+00
 1.3094549857e+00	 1.2350415541e+00	-1.4890855445e+00
 1.2851363520e+00	 1.2603271626e+00	-1.5715286790e+00
 1.2603271626e+00	 1.2851363520e+00	-1.6522776803e+00
 1.2350415541e+00	 1.3094549857e+00	-1.7232800719e+00
 1.2092942003e+00	 1.3332694916e+00	-1.7765148646e+00
 1.3419836713e+00	 1.2171980839e+00	-1.4172717610e+00
 1.3180135151e+00	 1.2431137211e+00	-1.4931203071e+00
 1.2935359360e+00	 1.2685645950e+00	-1.5759918026e+00
 1.2685645950e+00	 1.2935359360e+00	-1.6579470184e+00
 1.2431137211e+00	 1.3180135151e+00	-1.7309106147e+00
 1.2171980839e+00	 1.3419836713e+00	-1.7868473729e+00
 1.3506978509e+00	 1.2251019676e+00	-1.4199261691e+00
 1.3265720444e+00	 1.2511858881e+00	-1.4964906342e+00
 1.3019355200e+00	 1.2768020275e+00	-1.5806532113e+00
 1.2768020275e+00	 1.3019355200e+00	-1.6644566725e+00
 1.2511858881e+00	 1.3265720444e+00	-1.7398129577e+00
 1.2251019676e+00	 1.3506978509e+00	-1.7986867744e+00
 1.1855825493e+00	 1.3071269525e+00	-1.7594594455e+00
 1.1599022393e+00	 1.3299675359e+00	-1.8090602405e+00
 1.1337994780e+00	 1.3522890205e+00	-1.8761287979e+00
 1.1072900599e+00	 1.3740799010e+00	-1.9475536832e+00
 1.0803901873e+00	 1.3953293139e+00	-2.0129638284e+00
 1.0531164379e+00	 1.4160270546e+00	-2.0638898635e+00
 1.1934864330e+00	 1.3158411322e+00	-1.7622977742e+00
 1.1676349209e+00	 1.3388339861e+00	-1.8154197829e+00
 1.1413581412e+00	 1.3613042806e+00	-1.8861319937e+00
 1.1146719936e+00	 1.3832404337e+00	-1.9595207207e+00
 1.0875927886e+00	 1.4046315094e+00	-2.0251995515e+00
 1.0601372142e+00	 1.4254672350e+00	-2.0747343789e+00
 1.2013903166e+00	 1.3245553119e+00	-1.7681628876e+00
 1.1753676025e+00	 1.3477004364e+00	-1.8240483396e+00
 1.1489168044e+00	 1.3703195407e+00	-1.8986914452e+00
 1.1220539274e+00	 1.3924009664e+00	-1.9740907163e+00
 1.0947953898e+00	 1.4139337048e+00	-2.0399294147e+00
 1.0671579905e+00	 1.4349074153e+00	-2.0879014397e+00
 1.2092942003e+00	 1.3332694916e+00	-1.7765148646e+00
 1.1831002841e+00	 1.3565668866e+00	-1.8345931619e+00
 1.1564754676e+00	 1.3793348009e+00	-1.9130812140e+00
 1.1294358611e+00	 1.4015614991e+00	-1.9906043642e+00
 1.1019979911e+00	 1.4232359002e+00	-2.0565811241e+00
 1.0741787667e+00	 1.4443475957e+00	-2.1029254465e+00
 1.2171980839e+00	 1.3419836713e+00	-1.7868473729e+00
 1.1908329657e+00	 1.3654333368e+00	-1.8471477556e+00
 1.1640341307e+00	 1.3883500610e+00	-1.9285995031e+00
 1.1368177948e+00	 1.4107220317e+00	-2.0084236639e+00
 1.1092005923e+00	 1.4325380956e+00	-2.0746000640e+00
 1.0811995430e+00	 1.4537877760e+00	-2.1193541233e+00
 1.2251019676e+00	 1.3506978509e+00	-1.7986867744e+00
 1.1985656473e+00	 1.3742997871e+00	-1.8612339882e+00
 1.1715927939e+00	 1.3973653212e+00	-1.9445695351e+00
 1.1441997286e+00	 1.4198825644e+00	-2.0269328142e+00
 1.1164031936e+00	 1.4418402911e+00	-2.0934502233e+00
 1.0882203192e+00	 1.4632279564e+00	-2.1367494920e+00
 1.0531164379e+00	 1.4160270546e+00	-2.0638898635e+00
 1.0254857314e+00	 1.4361635930e+00	-2.0959580151e+00
 9.9751529505e-01	 1.4557300874e+00	-2.1122262836e+00
 9.6922262951e-01	 1.4747183954e+00	-2.1177518746e+00
 9.4062547324e-01	 1.4931210836e+00	-2.1187839886e+00
 9.1174176730e-01	 1.5109314349e+00	-2.1224231647e+00
 1.0601372142e+00	 1.4254672350e+00	-2.0747343789e+00
 1.0323223029e+00	 1.4457380170e+00	-2.1049886101e+00
 1.0041653970e+00	 1.4654349546e+00	-2.1201025917e+00
 9.7568411370e-01	 1.4845498513e+00	-2.1249771980e+00
 9.4689630973e-01	 1.5030752242e+00	-2.1257091946e+00
 9.1782004575e-01	 1.5210043111e+00	-2.1292375983e+00
 1.0671579905e+00	 1.4349074153e+00	-2.0879014397e+00
 1.0391588745e+00	 1.4553124409e+00	-2.1161861707e+00
 1.0108154990e+00	 1.4751398219e+00	-2.1300201345e+00
 9.8214559790e-01	 1.4943813073e+00	-2.1341385495e+00
 9.5316714622e-01	 1.5130293647e+00	-2.1344631630e+00
 9.2389832420e-01	 1.5310771874e+00	-2.1377354223e+00
 1.0741787667e+00	 1.4443475957e+00	-2.1029254465e+00
 1.0459954460e+00	 1.4648868649e+00	-2.1291706311e+00
 1.0174656010e+00	 1.4848446891e+00	-2.1416237466e+00
 9.8860708210e-01	 1.5042127633e+00	-2.1448465202e+00
 9.5943798271e-01	 1.5229835053e+00	-2.1445647475e+00
 9.2997660265e-01	 1.5411500636e+00	-2.1472880471e+00
 1.0811995430e+00	 1.4537877760e+00	-2.1193541233e+00
 1.0528320175e+00	 1.4744612888e+00	-2.1435712730e+00
 1.0241157029e+00	 1.4945495564e+00	-2.1545650882e+00
 9.9506856629e-01	 1.5140442193e+00	-2.1567174695e+00
 9.6570881920e-01	 1.5329376458e+00	-2.1555389831e+00
 9.3605488110e-01	 1.5512229398e+00	-2.1572749495e+00
 1.0882203192e+00	 1.4632279564e+00	-2.1367494920e+00
 1.0596685891e+00	 1.4840357128e+00	-2.1590277329e+00
 1.0307658049e+00	 1.5042544236e+00	-2.1685036345e+00
 1.0015300505e+00	 1.5238756752e+00	-2.1693744460e+00
 9.7197965568e-01	 1.5428917864e+00	-2.1669178905e+00
 9.4213315955e-01	 1.5612958161e+00	-2.1670843113e+00
 9.1174176730e-01	 1.5109314349e+00	-2.1224231647e+00
 8.8258961968e-01	 1.5281434535e+00	-2.1148702756e+00
 8.5318726972e-01	 1.5447518681e+00	-2.0820646480e+00
 8.2355305267e-01	 1.5607521330e+00	-2.0308290204e+00
 7.9370536447e-01	 1.5761404270e+00	-1.9673628310e+00
 7.6366262696e-01	 1.5909136505e+00	-1.8970331744e+00
 9.1782004575e-01	 1.5210043111e+00	-2.1292375983e+00
 8.8847355048e-01	 1.5383310765e+00	-2.1208419075e+00
 8.5887518485e-01	 1.5550502139e+00	-2.0859469041e+00
 8.2904340635e-01	 1.5711571472e+00	-2.0317815903e+00
 7.9899673357e-01	 1.5866480298e+00	-1.9649047822e+00
 7.6875371114e-01	 1.6015197415e+00	-1.8909860464e+00
 9.2389832420e-01	 1.5310771874e+00	-2.1377354223e+00
 8.9435748127e-01	 1.5485186995e+00	-2.1283356745e+00
 8.6456309998e-01	 1.5653485597e+00	-2.0912077257e+00
 8.3453376004e-01	 1.5815621614e+00	-2.0339669497e+00
 8.0428810266e-01	 1.5971556327e+00	-1.9635235993e+00
 7.7384479532e-01	 1.6121258325e+00	-1.8858531470e+00
 9.2997660265e-01	 1.5411500636e+00	-2.1472880471e+00
 9.0024141207e-01	 1.5587063226e+00	-2.1365806369e+00
 8.7025101511e-01	 1.5756469055e+00	-2.0969992181e+00
 8.4002411372e-01	 1.5919671757e+00	-2.0365265771e+00
 8.0957947176e-01	 1.6076632355e+00	-1.9624171196e+00
 7.7893587950e-01	 1.6227319235e+00	-1.8809560300e+00
 9.3605488110e-01	 1.5512229398e+00	-2.1572749495e+00
 9.0612534287e-01	 1.5688939456e+00	-2.1448157432e+00
 8.7593893024e-01	 1.5859452513e+00	-2.1024836107e+00
 8.4551446741e-01	 1.6023721899e+00	-2.0386107394e+00
 8.1487084086e-01	 1.6181708384e+00	-1.9607890780e+00
 7.8402696368e-01	 1.6333380145e+00	-1.8756177217e+00
 9.4213315955e-01	 1.5612958161e+00	-2.1670843113e+00
 9.1200927367e-01	 1.5790815686e+00	-2.1522903070e+00
 8.8162684538e-01	 1.5962435970e+00	-2.1068336246e+00
 8.5100482109e-01	 1.6127772041e+00	-2.0393788035e+00
 8.2016220995e-01	 1.6286784412e+00	-1.9578494177e+00
 7.8911804786e-01	 1.6439441055e+00	-1.8691630838e+00
 7.6366262696e-01	 1.5909136505e+00	-1.8970331744e+00
 7.3344325360e-01	 1.6050694206e+00	-1.8171777653e+00
 7.0306561583e-01	 1.6186060642e+00	-1.7255365453e+00
 6.7254801021e-01	 1.6315226095e+00	-1.6264970830e+00
 6.4190862643e-01	 1.6438187755e+00	-1.5232725664e+00
 6.1116551624e-01	 1.6554949601e+00	-1.4178890477e+00
 7.6875371114e-01	 1.6015197415e+00	-1.8909860464e+00
 7.3833287529e-01	 1.6157698834e+00	-1.8078769291e+00
 7.0775271993e-01	 1.6293967713e+00	-1.7137066291e+00
 6.7703166361e-01	 1.6423994269e+00	-1.6128923572e+00
 6.4618801727e-01	 1.6547775673e+00	-1.5086245691e+00
 6.1523995301e-01	 1.6665315932e+00	-1.4028541159e+00
 7.7384479532e-01	 1.6121258325e+00	-1.8858531470e+00
 7.4322249698e-01	 1.6264703462e+00	-1.7993401299e+00
 7.1243982404e-01	 1.6401874784e+00	-1.7024839387e+00
 6.8151531701e-01	 1.6532762443e+00	-1.5996685341e+00
 6.5046740811e-01	 1.6657363591e+00	-1.4939764925e+00
 6.1931438979e-01	 1.6775682263e+00	-1.3871770032e+00
 7.7893587950e-01	 1.6227319235e+00	-1.8809560300e+00
 7.4811211867e-01	 1.6371708090e+00	-1.7910016022e+00
 7.1712692814e-01	 1.6509781855e+00	-1.6913268449e+00
 6.8599897041e-01	 1.6641530616e+00	-1.5862211534e+00
 6.5474679895e-01	 1.6766951510e+00	-1.4785757757e+00
 6.2338882656e-01	 1.6886048593e+00	-1.3698735845e+00
 7.8402696368e-01	 1.6333380145e+00	-1.8756177217e+00
 7.5300174036e-01	 1.6478712718e+00	-1.7822931542e+00
 7.2181403225e-01	 1.6617688926e+00	-1.6796899512e+00
 6.9048262381e-01	 1.6750298790e+00	-1.5719431774e+00
 6.5902618980e-01	 1.6876539428e+00	-1.4616709631e+00
 6.2746326334e-01	 1.6996414924e+00	-1.3499669708e+00
 7.8911804786e-01	 1.6439441055e+00	-1.8691630838e+00
 7.5789136205e-01	 1.6585717346e+00	-1.7726445719e+00
 7.2650113635e-01	 1.6725595997e+00	-1.6670244635e+00
 6.9496627722e-01	 1.6859066964e+00	-1.5562252501e+00
 6.6330558064e-01	 1.6986127346e+00	-1.4425117801e+00
 6.3153770011e-01	 1.7106781255e+00	-1.3264873292e+00
 6.1116551624e-01	 1.6554949601e+00	-1.4178890477e+00
 5.8033656351e-01	 1.6665522267e+00	-1.2977401624e+00
 5.4943945541e-01	 1.6769922886e+00	-1.1778408586e+00
 5.1849165479e-01	 1.6868174931e+00	-1.0652457495e+00
 4.8751037386e-01	 1.6960308036e+00	-9.5396455401e-01
 4.5651254928e-01	 1.7046357803e+00	-8.3830179240e-01
 6.1523995301e-01	 1.6665315932e+00	-1.4028541159e+00
 5.8420547394e-01	 1.6776625749e+00	-1.2821457136e+00
 5.5310238512e-01	 1.6881722372e+00	-1.1583830234e+00
 5.2194826582e-01	 1.6980629431e+00	-1.0430191944e+00
 4.9076044301e-01	 1.7073376756e+00	-9.2953290568e-01
 4.5955596628e-01	 1.7160000189e+00	-8.1171587226e-01
 6.1931438979e-01	 1.6775682263e+00	-1.3871770032e+00
 5.8807438436e-01	 1.6887729230e+00	-1.2656877237e+00
 5.5676531482e-01	 1.6993521858e+00	-1.1370890722e+00
 5.2540487685e-01	 1.7093083930e+00	-1.0183731391e+00
 4.9401051217e-01	 1.7186445476e+00	-9.0294466531e-01
 4.6259938327e-01	 1.7273642574e+00	-7.8455872406e-01
 6.2338882656e-01	 1.6886048593e+00	-1.3698735845e+00
 5.9194329478e-01	 1.6998832712e+00	-1.2468483919e+00
 5.6042824452e-01	 1.7105321344e+00	-1.1127372896e+00
 5.2886148788e-01	 1.7205538430e+00	-9.9019957730e-01
 4.9726058133e-01	 1.7299514196e+00	-8.7333412504e-01
 4.6564280027e-01	 1.7387284959e+00	-7.5632524298e-01
 6.2746326334e-01	 1.6996414924e+00	-1.3499669708e+00
 5.9581220521e-01	 1.7109936194e+00	-1.2240785641e+00
 5.6409117423e-01	 1.7217120830e+00	-1.0841184706e+00
 5.3231809891e-01	 1.7317992929e+00	-9.5740225391e-01
 5.0051065049e-01	 1.7412582916e+00	-8.3984313974e-01
 4.6868621726e-01	 1.7500927345e+00	-7.2651052881e-01
 6.3153770011e-01	 1.7106781255e+00	-1.3264873292e+00
 5.9968111563e-01	 1.7221039676e+00	-1.1962259436e+00
 5.6775410393e-01	 1.7328920316e+00	-1.0500352335e+00
 5.3577470994e-01	 1.7430447429e+00	-9.1889602935e-01
 5.0376071965e-01	 1.7525651637e+00	-8.0162065299e-01
 4.7172963426e-01	 1.7614569730e+00	-6.9460967412e-01
 4.5651254928e-01	 1.7046357803e+00	-8.3830179240e-01
 4.2551481859e-01	 1.7126365611e+00	-7.2416854859e-01
 3.9453349807e-01	 1.7200378397e+00	-6.1975869178e-01
 3.6358456216e-01	 1.7268448446e+00	-5.2339263986e-01
 3.3268362429e-01	 1.7330633160e+00	-4.3383145288e-01
 3.0184591929e-01	 1.7386994830e+00	-3.5030384256e-01
 4.5955596628e-01	 1.7160000189e+00	-8.1171587226e-01
 4.2835158404e-01	 1.7240541382e+00	-6.9504546831e-01
 3.9716372139e-01	 1.7315047587e+00	-5.8790657203e-01
 3.6600845924e-01	 1.7383571436e+00	-4.8908780826e-01
 3.3490151512e-01	 1.7446170715e+00	-3.9785290849e-01
 3.0385822542e-01	 1.7502908129e+00	-3.1396445019e-01
 4.6259938327e-01	 1.7273642574e+00	-7.8455872406e-01
 4.3118834950e-01	 1.7354717152e+00	-6.6860334900e-01
 3.9979394471e-01	 1.7429716776e+00	-5.6332701138e-01
 3.6843235632e-01	 1.7498694425e+00	-4.6746108624e-01
 3.3711940594e-01	 1.7561708269e+00	-3.8024045665e-01
 3.0587053155e-01	 1.7618821428e+00	-3.0142693346e-01
 4.6564280027e-01	 1.7387284959e+00	-7.5632524298e-01
 4.3402511496e-01	 1.7468892923e+00	-6.4469831762e-01
 4.0242416803e-01	 1.7544385965e+00	-5.4613424692e-01
 3.7085625340e-01	 1.7613817415e+00	-4.5879226779e-01
 3.3933729677e-01	 1.7677245823e+00	-3.7996104566e-01
 3.0788283768e-01	 1.7734734727e+00	-3.0113394515e-01
 4.6868621726e-01	 1.7500927345e+00	-7.2651052881e-01
 4.3686188042e-01	 1.7583068694e+00	-6.2317922747e-01
 4.0505439135e-01	 1.7659055155e+00	-5.3621734260e-01
 3.7328015048e-01	 1.7728940405e+00	-4.5323561971e-01
 3.4155518760e-01	 1.7792783378e+00	-3.6901618880e-01
 3.0989514381e-01	 1.7850648026e+00	-2.8489657197e-01
 4.7172963426e-01	 1.7614569730e+00	-6.9460967412e-01
 4.3969864587e-01	 1.7697244465e+00	-6.0024695984e-01
 4.0768461467e-01	 1.7773724344e+00	-5.1058585920e-01
 3.7570404756e-01	 1.7844063394e+00	-4.2288363945e-01
 3.4377307843e-01	 1.7908320932e+00	-3.3660351214e-01
 3.1190744993e-01	 1.7966561324e+00	-2.5181569045e-01
 3.0184591929e-01	 1.7386994830e+00	-3.5030384256e-01
 2.7108628733e-01	 1.7437600397e+00	-2.7846126881e-01
 2.4041915932e-01	 1.7482521211e+00	-2.2194110270e-01
 2.0985854392e-01	 1.7521832789e+00	-1.7784867279e-01
 1.7941801602e-01	 1.7555614563e+00	-1.4399142249e-01
 1.4911070670e-01	 1.7583949637e+00	-1.1885111590e-01
 3.0385822542e-01	 1.7502908129e+00	-3.1396445019e-01
 2.7289352924e-01	 1.7553851066e+00	-2.4386953345e-01
 2.4202195371e-01	 1.7599071353e+00	-1.9111602039e-01
 2.1125760088e-01	 1.7638645007e+00	-1.5208037262e-01
 1.8061413613e-01	 1.7672651993e+00	-1.2285474139e-01
 1.5010477808e-01	 1.7701175968e+00	-9.9760299140e-02
 3.0587053155e-01	 1.7618821428e+00	-3.0142693346e-01
 2.7470077116e-01	 1.7670101736e+00	-2.3701190520e-01
 2.4362474811e-01	 1.7715621494e+00	-1.8550118015e-01
 2.1265665784e-01	 1.7755457226e+00	-1.4371161619e-01
 1.8181025623e-01	 1.7789689424e+00	-1.1028039274e-01
 1.5109884946e-01	 1.7818402299e+00	-8.4357631096e-02
 3.0788283768e-01	 1.7734734727e+00	-3.0113394515e-01
 2.7650801307e-01	 1.7786352405e+00	-2.3029695626e-01
 2.4522754250e-01	 1.7832171636e+00	-1.7349192692e-01
 2.1405571480e-01	 1.7872269444e+00	-1.2831858432e-01
 1.8300637634e-01	 1.7906726854e+00	-9.2978535926e-02
 1.5209292083e-01	 1.7935628630e+00	-6.6206958868e-02
 3.0989514381e-01	 1.7850648026e+00	-2.8489657197e-01
 2.7831525499e-01	 1.7902603074e+00	-2.1039419478e-01
 2.4683033690e-01	 1.7948721777e+00	-1.5166714874e-01
 2.1545477176e-01	 1.7989081663e+00	-1.0592336797e-01
 1.8420249645e-01	 1.8023764284e+00	-7.0988170127e-02
 1.5308699221e-01	 1.8052854961e+00	-4.5237315896e-02
 3.1190744993e-01	 1.7966561324e+00	-2.5181569045e-01
 2.8012249690e-01	 1.8018853744e+00	-1.7758350498e-01
 2.4843313129e-01	 1.8065271918e+00	-1.2023774511e-01
 2.1685382872e-01	 1.8105893882e+00	-7.6656284451e-02
 1.8539861655e-01	 1.8140801715e+00	-4.4346227506e-02
 1.5408106359e-01	 1.8170081292e+00	-2.1378285338e-02
 1.4911070670e-01	 1.7583949637e+00	-1.1885111590e-01
 1.1894929466e-01	 1.7606924537e+00	-9.9653858281e-02
 8.8945999118e-02	 1.7624628962e+00	-8.5545207079e-02
 5.9112574035e-02	 1.7637155538e+00	-7.8667347553e-02
 2.9460303771e-02	 1.7644599575e+00	-8.1508287697e-02
 0.0000000000e+00	 1.7647058824e+00	-9.6836689990e-02
 1.5010477808e-01	 1.7701175968e+00	-9.9760299140e-02
 1.1974228996e-01	 1.7724304034e+00	-8.0697697657e-02
 8.9538972446e-02	 1.7742126488e+00	-6.5804582948e-02
 5.9506657862e-02	 1.7754736575e+00	-5.8300739200e-02
 2.9656705796e-02	 1.7762230239e+00	-6.1471704031e-02
 0.0000000000e+00	 1.7764705882e+00	-7.8612440887e-02
 1.5109884946e-01	 1.7818402299e+00	-8.4357631096e-02
 1.2053528526e-01	 1.7841683531e+00	-6.3314218331e-02
 9.0131945773e-02	 1.7859624015e+00	-4.7085864545e-02
 5.9900741689e-02	 1.7872317612e+00	-3.9099094145e-02
 2.9853107821e-02	 1.7879860903e+00	-4.2843987427e-02
 0.0000000000e+00	 1.7882352941e+00	-6.1817325223e-02
 1.5209292083e-01	 1.7935628630e+00	-6.6206958868e-02
 1.2132828056e-01	 1.7959063028e+00	-4.4763430169e-02
 9.0724919101e-02	 1.7977121541e+00	-2.8385447196e-02
 6.0294825516e-02	 1.7989898649e+00	-2.0726445983e-02
 3.0049509846e-02	 1.7997491567e+00	-2.5510419434e-02
 0.0000000000e+00	 1.8000000000e+00	-4.6474024454e-02
 1.5308699221e-01	 1.8052854961e+00	-4.5237315896e-02
 1.2212127585e-01	 1.8076442525e+00	-2.4884535623e-02
 9.1317892428e-02	 1.8094619068e+00	-9.5075965964e-03
 6.0688909343e-02	 1.8107479686e+00	-3.0061744642e-03
 3.0245911871e-02	 1.8115122231e+00	-9.3665930947e-03
 0.0000000000e+00	 1.8117647059e+00	-3.2602393629e-02
 1.5408106359e-01	 1.8170081292e+00	-2.1378285338e-02
 1.2291427115e-01	 1.8193822022e+00	-3.5194062659e-03
 9.1910865755e-02	 1.8212116594e+00	 9.7400358180e-03
 6.1082993169e-02	 1.8225060723e+00	 1.4235627913e-02
 3.0442313896e-02	 1.8232752894e+00	 5.6912323692e-03
 0.0000000000e+00	 1.8235294118e+00	-2.0219552563e-02
 1.8235294118e+00	 0.0000000000e+00	 3.0480435165e+00
 1.8232752894e+00	 3.0442313896e-02	 3.0446198411e+00
 1.8225060723e+00	 6.1082993169e-02	 3.0417151889e+00
 1.8212116594e+00	 9.1910865755e-02	 3.0357326934e+00
 1.8193822022e+00	 1.2291427115e-01	 3.0237204806e+00
 1.8170081292e+00	 1.5408106359e-01	 3.0033620919e+00
 1.8352941176e+00	 0.0000000000e+00	 3.0190086774e+00
 1.8350383558e+00	 3.0638715922e-02	 3.0174018620e+00
 1.8342641760e+00	 6.1477076996e-02	 3.0154035673e+00
 1.8329614120e+00	 9.2503839083e-02	 3.0096807815e+00
 1.8311201518e+00	 1.2370726645e-01	 2.9975478341e+00
 1.8287307622e+00	 1.5507513497e-01	 2.9769550466e+00
 1.8470588235e+00	 0.0000000000e+00	 2.9900611593e+00
 1.8468014222e+00	 3.0835117947e-02	 2.9907705790e+00
 1.8460222797e+00	 6.1871160823e-02	 2.9899540019e+00
 1.8447111647e+00	 9.3096812410e-02	 2.9846506179e+00
 1.8428581015e+00	 1.2450026175e-01	 2.9725519977e+00
 1.8404533953e+00	 1.5606920635e-01	 2.9519885606e+00
 1.8588235294e+00	 0.0000000000e+00	 2.9609889162e+00
 1.8585644886e+00	 3.1031519972e-02	 2.9645457550e+00
 1.8577803834e+00	 6.2265244650e-02	 2.9652219316e+00
 1.8564609173e+00	 9.3689785738e-02	 2.9605351290e+00
 1.8545960512e+00	 1.2529325705e-01	 2.9486631028e+00
 1.8521760284e+00	 1.5706327772e-01	 2.9284275631e+00
 1.8705882353e+00	 0.0000000000e+00	 2.9315859071e+00
 1.8703275550e+00	 3.1227921997e-02	 2.9385529298e+00
 1.8695384871e+00	 6.2659328477e-02	 2.9410682378e+00
 1.8682106700e+00	 9.4282759065e-02	 2.9372322874e+00
 1.8663340009e+00	 1.2608625234e-01	 2.9258159179e+00
 1.8638986615e+00	 1.5805734910e-01	 2.9062412483e+00
 1.8823529412e+00	 0.0000000000e+00	 2.9016519084e+00
 1.8820906214e+00	 3.1424324022e-02	 2.9126232527e+00
 1.8812965907e+00	 6.3053412304e-02	 2.9173590951e+00
 1.8799604226e+00	 9.4875732393e-02	 2.9146449813e+00
 1.8780719506e+00	 1.2687924764e-01	 2.9039497336e+00
 1.8756212946e+00	 1.5905142048e-01	 2.8854029708e+00
 1.8170081292e+00	 1.5408106359e-01	 3.0033620919e+00
 1.8140801715e+00	 1.8539861655e-01	 2.9710087758e+00
 1.8105893882e+00	 2.1685382872e-01	 2.9245692931e+00
 1.8065271918e+00	 2.4843313129e-01	 2.8649239430e+00
 1.8018853744e+00	 2.8012249690e-01	 2.7934617148e+00
 1.7966561324e+00	 3.1190744993e-01	 2.7120718691e+00
 1.8287307622e+00	 1.5507513497e-01	 2.9769550466e+00
 1.8257839145e+00	 1.8659473666e-01	 2.9441080783e+00
 1.8222706100e+00	 2.1825288567e-01	 2.8966932439e+00
 1.8181822060e+00	 2.5003592569e-01	 2.8357158107e+00
 1.8135104413e+00	 2.8192973882e-01	 2.7626530711e+00
 1.8082474623e+00	 3.1391975606e-01	 2.6794433217e+00
 1.8404533953e+00	 1.5606920635e-01	 2.9519885606e+00
 1.8374876576e+00	 1.8779085677e-01	 2.9190399077e+00
 1.8339518319e+00	 2.1965194263e-01	 2.8710964039e+00
 1.8298372201e+00	 2.5163872008e-01	 2.8092609412e+00
 1.8251355082e+00	 2.8373698074e-01	 2.7350683539e+00
 1.8198387922e+00	 3.1593206219e-01	 2.6504717876e+00
 1.8521760284e+00	 1.5706327772e-01	 2.9284275631e+00
 1.8491914006e+00	 1.8898697687e-01	 2.8957969635e+00
 1.8456330537e+00	 2.2105099959e-01	 2.8477893220e+00
 1.8414922343e+00	 2.5324151448e-01	 2.7855782948e+00
 1.8367605751e+00	 2.8554422265e-01	 2.7107260292e+00
 1.8314301221e+00	 3.1794436832e-01	 2.6251669155e+00
 1.8638986615e+00	 1.5805734910e-01	 2.9062412483e+00
 1.8608951436e+00	 1.9018309698e-01	 2.8743759888e+00
 1.8573142756e+00	 2.2245005655e-01	 2.8267865912e+00
 1.8531472484e+00	 2.5484430887e-01	 2.7646910856e+00
 1.8483856421e+00	 2.8735146457e-01	 2.6896492239e+00
 1.8430214520e+00	 3.1995667445e-01	 2.6035436079e+00
 1.8756212946e+00	 1.5905142048e-01	 2.8854029708e+00
 1.8725988867e+00	 1.9137921709e-01	 2.8547776675e+00
 1.8689954975e+00	 2.2384911351e-01	 2.8081067370e+00
 1.8648022625e+00	 2.5644710327e-01	 2.7466266513e+00
 1.8600107090e+00	 2.8915870648e-01	 2.6718655667e+00
 1.8546127819e+00	 3.2196898058e-01	 2.5856218221e+00
 1.7966561324e+00	 3.1190744993e-01	 2.7120718691e+00
 1.7908320932e+00	 3.4377307843e-01	 2.6187817724e+00
 1.7844063394e+00	 3.7570404756e-01	 2.5102402494e+00
 1.7773724344e+00	 4.0768461467e-01	 2.3871141546e+00
 1.7697244465e+00	 4.3969864587e-01	 2.2507315924e+00
 1.7614569730e+00	 4.7172963426e-01	 2.1044249712e+00
 1.8082474623e+00	 3.1391975606e-01	 2.6794433217e+00
 1.8023858487e+00	 3.4599096926e-01	 2.5846505887e+00
 1.7959186384e+00	 3.7812794464e-01	 2.4761330166e+00
 1.7888393533e+00	 4.1031483799e-01	 2.3555437835e+00
 1.7811420235e+00	 4.4253541133e-01	 2.2251368509e+00
 1.7728212115e+00	 4.7477305125e-01	 2.0878059895e+00
 1.8198387922e+00	 3.1593206219e-01	 2.6504717876e+00
 1.8139396041e+00	 3.4820886009e-01	 2.5544419579e+00
 1.8074309374e+00	 3.8055184173e-01	 2.4457388185e+00
 1.8003062723e+00	 4.1294506131e-01	 2.3267025391e+00
 1.7925596006e+00	 4.4537217679e-01	 2.2002199460e+00
 1.7841854501e+00	 4.7781646825e-01	 2.0697577198e+00
 1.8314301221e+00	 3.1794436832e-01	 2.6251669155e+00
 1.8254933595e+00	 3.5042675092e-01	 2.5281812497e+00
 1.8189432363e+00	 3.8297573881e-01	 2.4191597604e+00
 1.8117731912e+00	 4.1557528463e-01	 2.3008362987e+00
 1.8039771777e+00	 4.4820894224e-01	 2.1764435347e+00
 1.7955496886e+00	 4.8085988524e-01	 2.0497420351e+00
 1.8430214520e+00	 3.1995667445e-01	 2.6035436079e+00
 1.8370471150e+00	 3.5264464174e-01	 2.5058990411e+00
 1.8304555353e+00	 3.8539963589e-01	 2.3965015586e+00
 1.8232401101e+00	 4.1820550795e-01	 2.2781912578e+00
 1.8153947548e+00	 4.5104570770e-01	 2.1542654611e+00
 1.8069139271e+00	 4.8390330224e-01	 2.0285053581e+00
 1.8546127819e+00	 3.2196898058e-01	 2.5856218221e+00
 1.8486008704e+00	 3.5486253257e-01	 2.4876308963e+00
 1.8419678343e+00	 3.8782353297e-01	 2.3778733428e+00
 1.8347070290e+00	 4.2083573127e-01	 2.2590138062e+00
 1.8268123318e+00	 4.5388247316e-01	 2.1341387604e+00
 1.8182781657e+00	 4.8694671923e-01	 2.0067823806e+00
 1.7614569730e+00	 4.7172963426e-01	 2.1044249712e+00
 1.7525651637e+00	 5.0376071965e-01	 1.9506247588e+00
 1.7430447429e+00	 5.3577470994e-01	 1.7851390804e+00
 1.7328920316e+00	 5.6775410393e-01	 1.6156134199e+00
 1.7221039676e+00	 5.9968111563e-01	 1.4492480812e+00
 1.7106781255e+00	 6.3153770011e-01	 1.2822044612e+00
 1.7728212115e+00	 4.7477305125e-01	 2.0878059895e+00
 1.7638720357e+00	 5.0701078881e-01	 1.9337328739e+00
 1.7542901929e+00	 5.3923132098e-01	 1.7652632004e+00
 1.7440719802e+00	 5.7141703363e-01	 1.5962735383e+00
 1.7332143157e+00	 6.0355002605e-01	 1.4316042447e+00
 1.7217147585e+00	 6.3561213689e-01	 1.2672245135e+00
 1.7841854501e+00	 4.7781646825e-01	 2.0697577198e+00
 1.7751789077e+00	 5.1026085797e-01	 1.9265920338e+00
 1.7655356428e+00	 5.4268793201e-01	 1.7611637528e+00
 1.7552519287e+00	 5.7507996333e-01	 1.5863885685e+00
 1.7443246639e+00	 6.0741893648e-01	 1.4180324667e+00
 1.7327513916e+00	 6.3968657366e-01	 1.2530104619e+00
 1.7955496886e+00	 4.8085988524e-01	 2.0497420351e+00
 1.7864857797e+00	 5.1351092713e-01	 1.9131968014e+00
 1.7767810928e+00	 5.4614454304e-01	 1.7577900790e+00
 1.7664318773e+00	 5.7874289304e-01	 1.5863555779e+00
 1.7554350121e+00	 6.1128784690e-01	 1.4091570169e+00
 1.7437880247e+00	 6.4376101044e-01	 1.2397926163e+00
 1.8069139271e+00	 4.8390330224e-01	 2.0285053581e+00
 1.7977926518e+00	 5.1676099629e-01	 1.8944780811e+00
 1.7880265427e+00	 5.4960115407e-01	 1.7442586317e+00
 1.7776118259e+00	 5.8240582274e-01	 1.5806056273e+00
 1.7665453603e+00	 6.1515675732e-01	 1.4052715394e+00
 1.7548246577e+00	 6.4783544721e-01	 1.2278091652e+00
 1.8182781657e+00	 4.8694671923e-01	 2.0067823806e+00
 1.8090995238e+00	 5.2001106545e-01	 1.8714297998e+00
 1.7992719927e+00	 5.5305776510e-01	 1.7216900936e+00
 1.7887917745e+00	 5.8606875244e-01	 1.5609113902e+00
 1.7776557085e+00	 6.1902566775e-01	 1.3917281593e+00
 1.7658612908e+00	 6.5190988399e-01	 1.2171841147e+00
 1.7106781255e+00	 6.3153770011e-01	 1.2822044612e+00
 1.6986127346e+00	 6.6330558064e-01	 1.1126301303e+00
 1.6859066964e+00	 6.9496627722e-01	 9.3928980529e-01
 1.6725595997e+00	 7.2650113635e-01	 7.6453296964e-01
 1.6585717346e+00	 7.5789136205e-01	 5.8945684814e-01
 1.6439441055e+00	 7.8911804786e-01	 4.1385859144e-01
 1.7217147585e+00	 6.3561213689e-01	 1.2672245135e+00
 1.7095715265e+00	 6.6758497148e-01	 1.1004291298e+00
 1.6967835138e+00	 6.9944993062e-01	 9.2904350842e-01
 1.6833503068e+00	 7.3118824046e-01	 7.5582685121e-01
 1.6692721974e+00	 7.6278098374e-01	 5.8226812773e-01
 1.6545501965e+00	 7.9420913204e-01	 4.0853101286e-01
 1.7327513916e+00	 6.3968657366e-01	 1.2530104619e+00
 1.7205303183e+00	 6.7186436233e-01	 1.0876318506e+00
 1.7076603312e+00	 7.0393358402e-01	 9.1832102841e-01
 1.6941410139e+00	 7.3587534456e-01	 7.4764268720e-01
 1.6799726602e+00	 7.6767060543e-01	 5.7689315730e-01
 1.6651562875e+00	 7.9930021622e-01	 4.0604155349e-01
 1.7437880247e+00	 6.4376101044e-01	 1.2397926163e+00
 1.7314891101e+00	 6.7614375317e-01	 1.0740333890e+00
 1.7185371486e+00	 7.0841723742e-01	 9.0660353301e-01
 1.7049317210e+00	 7.4056244867e-01	 7.3928168424e-01
 1.6906731230e+00	 7.7256022712e-01	 5.7259957279e-01
 1.6757623785e+00	 8.0439130040e-01	 4.0578277696e-01
 1.7548246577e+00	 6.4783544721e-01	 1.2278091652e+00
 1.7424479020e+00	 6.8042314401e-01	 1.0594464612e+00
 1.7294139660e+00	 7.1290089082e-01	 8.9339640437e-01
 1.7157224280e+00	 7.4524955278e-01	 7.3007244052e-01
 1.7013735858e+00	 7.7744984881e-01	 5.6868189747e-01
 1.6863684695e+00	 8.0948238458e-01	 4.0716969062e-01
 1.7658612908e+00	 6.5190988399e-01	 1.2171841147e+00
 1.7534066938e+00	 6.8470253485e-01	 1.0437005001e+00
 1.7402907834e+00	 7.1738454422e-01	 8.7822803552e-01
 1.7265131351e+00	 7.4993665688e-01	 7.1936954937e-01
 1.7120740486e+00	 7.8233947050e-01	 5.6446006941e-01
 1.6969745605e+00	 8.1457346876e-01	 4.0963832340e-01
 1.6439441055e+00	 7.8911804786e-01	 4.1385859144e-01
 1.6286784412e+00	 8.2016220995e-01	 2.4697900506e-01
 1.6127772041e+00	 8.5100482109e-01	 9.4862894080e-02
 1.5962435970e+00	 8.8162684538e-01	-4.9589052981e-02
 1.5790815686e+00	 9.1200927367e-01	-1.9486200708e-01
 1.5612958161e+00	 9.4213315955e-01	-3.5066196816e-01
 1.6545501965e+00	 7.9420913204e-01	 4.0853101286e-01
 1.6391860441e+00	 8.2545357905e-01	 2.4368999672e-01
 1.6231822183e+00	 8.5649517478e-01	 9.3393910101e-02
 1.6065419428e+00	 8.8731476051e-01	-4.9478582652e-02
 1.5892691916e+00	 9.1789320446e-01	-1.9346320519e-01
 1.5713686923e+00	 9.4821143799e-01	-3.4834401426e-01
 1.6651562875e+00	 7.9930021622e-01	 4.0604155349e-01
 1.6496936469e+00	 8.3074494815e-01	 2.4358071893e-01
 1.6335872325e+00	 8.6198552846e-01	 9.4898814264e-02
 1.6168402886e+00	 8.9300267564e-01	-4.6866642220e-02
 1.5994568147e+00	 9.2377713526e-01	-1.9002721937e-01
 1.5814415685e+00	 9.5428971644e-01	-3.4417827468e-01
 1.6757623785e+00	 8.0439130040e-01	 4.0578277696e-01
 1.6602012498e+00	 8.3603631724e-01	 2.4624127565e-01
 1.6439922468e+00	 8.6747588215e-01	 9.9141126183e-02
 1.6271386344e+00	 8.9869059077e-01	-4.1844897588e-02
 1.6096444377e+00	 9.2966106606e-01	-1.8453402432e-01
 1.5915144448e+00	 9.6036799489e-01	-3.3807071912e-01
 1.6863684695e+00	 8.0948238458e-01	 4.0716969062e-01
 1.6707088526e+00	 8.4132768634e-01	 2.5127803719e-01
 1.6543972610e+00	 8.7296623583e-01	 1.0589519612e-01
 1.6374369802e+00	 9.0437850590e-01	-3.4498727099e-02
 1.6198320607e+00	 9.3554499686e-01	-1.7696080975e-01
 1.6015873210e+00	 9.6644627334e-01	-3.2992685033e-01
 1.6969745605e+00	 8.1457346876e-01	 4.0963832340e-01
 1.6812164555e+00	 8.4661905544e-01	 2.5831232686e-01
 1.6648022752e+00	 8.7845658951e-01	 1.1494498275e-01
 1.6477353260e+00	 9.1006642103e-01	-2.4908373934e-02
 1.6300196837e+00	 9.4142892766e-01	-1.6728308794e-01
 1.6116601972e+00	 9.7252455179e-01	-3.1965279536e-01
 1.5612958161e+00	 9.4213315955e-01	-3.5066196816e-01
 1.5428917864e+00	 9.7197965568e-01	-4.9859981357e-01
 1.5238756752e+00	 1.0015300505e+00	-6.1900275258e-01
 1.5042544236e+00	 1.0307658049e+00	-7.2058509614e-01
 1.4840357128e+00	 1.0596685891e+00	-8.1196744983e-01
 1.4632279564e+00	 1.0882203192e+00	-9.0128893870e-01
 1.5713686923e+00	 9.4821143799e-01	-3.4834401426e-01
 1.5528459269e+00	 9.7825049217e-01	-4.9536109016e-01
 1.5337071312e+00	 1.0079915347e+00	-6.1442917035e-01
 1.5139592909e+00	 1.0374159069e+00	-7.1437100885e-01
 1.4936101368e+00	 1.0665051606e+00	-8.0400817398e-01
 1.4726681368e+00	 1.0952410955e+00	-8.9176394238e-01
 1.5814415685e+00	 9.5428971644e-01	-3.4417827468e-01
 1.5628000675e+00	 9.8452132866e-01	-4.9017561292e-01
 1.5435385872e+00	 1.0144530189e+00	-6.0777576930e-01
 1.5236641581e+00	 1.0440660088e+00	-7.0605788974e-01
 1.5031845607e+00	 1.0733417322e+00	-7.9419990724e-01
 1.4821083171e+00	 1.1022618717e+00	-8.8107118670e-01
 1.5915144448e+00	 9.6036799489e-01	-3.3807071912e-01
 1.5727542081e+00	 9.9079216515e-01	-4.8290237574e-01
 1.5533700431e+00	 1.0209145031e+00	-5.9886604918e-01
 1.5333690254e+00	 1.0507161108e+00	-6.9544253063e-01
 1.5127589847e+00	 1.0801783037e+00	-7.8231890000e-01
 1.4915484975e+00	 1.1092826480e+00	-8.6897001239e-01
 1.6015873210e+00	 9.6644627334e-01	-3.2992685033e-01
 1.5827083486e+00	 9.9706300164e-01	-4.7340128319e-01
 1.5632014991e+00	 1.0273759873e+00	-5.8752523064e-01
 1.5430738926e+00	 1.0573662128e+00	-6.8232374281e-01
 1.5223334086e+00	 1.0870148753e+00	-7.6814326944e-01
 1.5009886779e+00	 1.1163034242e+00	-8.5522108784e-01
 1.6116601972e+00	 9.7252455179e-01	-3.1965279536e-01
 1.5926624892e+00	 1.0033338381e+00	-4.6153424559e-01
 1.5730329551e+00	 1.0338374715e+00	-5.7358136194e-01
 1.5527787599e+00	 1.0640163147e+00	-6.6650348108e-01
 1.5319078326e+00	 1.0938514468e+00	-7.5145414411e-01
 1.5104288582e+00	 1.1233242005e+00	-8.3958757514e-01
 1.4632279564e+00	 1.0882203192e+00	-9.0128893870e-01
 1.4418402911e+00	 1.1164031936e+00	-9.9228701076e-01
 1.4198825644e+00	 1.1441997286e+00	-1.0914433364e+00
 1.3973653212e+00	 1.1715927939e+00	-1.2095677439e+00
 1.3742997871e+00	 1.1985656473e+00	-1.3324344143e+00
 1.3506978509e+00	 1.2251019676e+00	-1.4199261691e+00
 1.4726681368e+00	 1.0952410955e+00	-8.9176394238e-01
 1.4511424865e+00	 1.1236057948e+00	-9.8345435963e-01
 1.4290430971e+00	 1.1515816623e+00	-1.0877206833e+00
 1.4063805813e+00	 1.1791514571e+00	-1.2155066053e+00
 1.3831662373e+00	 1.2062983289e+00	-1.3350829141e+00
 1.3594120306e+00	 1.2330058513e+00	-1.4221530470e+00
 1.4821083171e+00	 1.1022618717e+00	-8.8107118670e-01
 1.4604446819e+00	 1.1308083961e+00	-9.7459947394e-01
 1.4382036298e+00	 1.1589635960e+00	-1.0854210336e+00
 1.4153958414e+00	 1.1867101203e+00	-1.2204142155e+00
 1.3920326876e+00	 1.2140310104e+00	-1.3371792467e+00
 1.3681262103e+00	 1.2409097349e+00	-1.4251728211e+00
 1.4915484975e+00	 1.1092826480e+00	-8.6897001239e-01
 1.4697468774e+00	 1.1380109973e+00	-9.6545517336e-01
 1.4473641624e+00	 1.1663455298e+00	-1.0842317186e+00
 1.4244111016e+00	 1.1942687835e+00	-1.2230354529e+00
 1.4008991378e+00	 1.2217636920e+00	-1.3385183730e+00
 1.3768403900e+00	 1.2488136186e+00	-1.4287223258e+00
 1.5009886779e+00	 1.1163034242e+00	-8.5522108784e-01
 1.4790490728e+00	 1.1452135986e+00	-9.5575502025e-01
 1.4565246951e+00	 1.1737274635e+00	-1.0838404316e+00
 1.4334263617e+00	 1.2018274467e+00	-1.2232408914e+00
 1.4097655880e+00	 1.2294963736e+00	-1.3389222088e+00
 1.3855545697e+00	 1.2567175023e+00	-1.4325663361e+00
 1.5104288582e+00	 1.1233242005e+00	-8.3958757514e-01
 1.4883512682e+00	 1.1524161998e+00	-9.4523449751e-01
 1.4656852278e+00	 1.1811093972e+00	-1.0830674289e+00
 1.4424416218e+00	 1.2093861099e+00	-1.2209264704e+00
 1.4186320383e+00	 1.2372290552e+00	-1.3382387139e+00
 1.3942687494e+00	 1.2646213859e+00	-1.4364966309e+00
 1.3506978509e+00	 1.2251019676e+00	-1.4199261691e+00
 1.3265720444e+00	 1.2511858881e+00	-1.4964906342e+00
 1.3019355200e+00	 1.2768020275e+00	-1.5806532113e+00
 1.2768020275e+00	 1.3019355200e+00	-1.6644566725e+00
 1.2511858881e+00	 1.3265720444e+00	-1.7398129577e+00
 1.2251019676e+00	 1.3506978509e+00	-1.7986867744e+00
 1.3594120306e+00	 1.2330058513e+00	-1.4221530470e+00
 1.3351305737e+00	 1.2592580551e+00	-1.5004526432e+00
 1.3103351040e+00	 1.2850394599e+00	-1.5866385638e+00
 1.2850394599e+00	 1.3103351040e+00	-1.6727800276e+00
 1.2592580551e+00	 1.3351305737e+00	-1.7508260474e+00
 1.2330058513e+00	 1.3594120306e+00	-1.8127964218e+00
 1.3681262103e+00	 1.2409097349e+00	-1.4251728211e+00
 1.3436891030e+00	 1.2673302222e+00	-1.5061888434e+00
 1.3187346880e+00	 1.2932768923e+00	-1.5950421196e+00
 1.2932768923e+00	 1.3187346880e+00	-1.6839099367e+00
 1.2673302222e+00	 1.3436891030e+00	-1.7648668864e+00
 1.2409097349e+00	 1.3681262103e+00	-1.8300830713e+00
 1.3768403900e+00	 1.2488136186e+00	-1.4287223258e+00
 1.3522476323e+00	 1.2754023892e+00	-1.5133898359e+00
 1.3271342720e+00	 1.3015143248e+00	-1.6055377878e+00
 1.3015143248e+00	 1.3271342720e+00	-1.6975315766e+00
 1.2754023892e+00	 1.3522476323e+00	-1.7816581716e+00
 1.2488136186e+00	 1.3768403900e+00	-1.8503313736e+00
 1.3855545697e+00	 1.2567175023e+00	-1.4325663361e+00
 1.3608061617e+00	 1.2834745562e+00	-1.5217749061e+00
 1.3355338560e+00	 1.3097517572e+00	-1.6178282122e+00
 1.3097517572e+00	 1.3355338560e+00	-1.7133582440e+00
 1.2834745562e+00	 1.3608061617e+00	-1.8009494671e+00
 1.2567175023e+00	 1.3855545697e+00	-1.8733509852e+00
 1.3942687494e+00	 1.2646213859e+00	-1.4364966309e+00
 1.3693646910e+00	 1.2915467232e+00	-1.5310910761e+00
 1.3439334400e+00	 1.3179891896e+00	-1.6316438393e+00
 1.3179891896e+00	 1.3439334400e+00	-1.7311304631e+00
 1.2915467232e+00	 1.3693646910e+00	-1.8225163770e+00
 1.2646213859e+00	 1.3942687494e+00	-1.8989758301e+00
 1.2251019676e+00	 1.3506978509e+00	-1.7986867744e+00
 1.1985656473e+00	 1.3742997871e+00	-1.8612339882e+00
 1.1715927939e+00	 1.3973653212e+00	-1.9445695351e+00
 1.1441997286e+00	 1.4198825644e+00	-2.0269328142e+00
 1.1164031936e+00	 1.4418402911e+00	-2.0934502233e+00
 1.0882203192e+00	 1.4632279564e+00	-2.1367494920e+00
 1.2330058513e+00	 1.3594120306e+00	-1.8127964218e+00
 1.2062983289e+00	 1.3831662373e+00	-1.8776293337e+00
 1.1791514571e+00	 1.4063805813e+00	-1.9617382812e+00
 1.1515816623e+00	 1.4290430971e+00	-2.0469663271e+00
 1.1236057948e+00	 1.4511424865e+00	-2.1141432769e+00
 1.0952410955e+00	 1.4726681368e+00	-2.1562685513e+00
 1.2409097349e+00	 1.3681262103e+00	-1.8300830713e+00
 1.2140310104e+00	 1.3920326876e+00	-1.8973029289e+00
 1.1867101203e+00	 1.4153958414e+00	-1.9819588664e+00
 1.1589635960e+00	 1.4382036298e+00	-2.0695230612e+00
 1.1308083961e+00	 1.4604446819e+00	-2.1377846855e+00
 1.1022618717e+00	 1.4821083171e+00	-2.1790542169e+00
 1.2488136186e+00	 1.3768403900e+00	-1.8503313736e+00
 1.2217636920e+00	 1.4008991378e+00	-1.9200951206e+00
 1.1942687835e+00	 1.4244111016e+00	-2.0053418260e+00
 1.1663455298e+00	 1.4473641624e+00	-2.0942657279e+00
 1.1380109973e+00	 1.4697468774e+00	-2.1640077096e+00
 1.1092826480e+00	 1.4915484975e+00	-2.2046726032e+00
 1.2567175023e+00	 1.3855545697e+00	-1.8733509852e+00
 1.2294963736e+00	 1.4097655880e+00	-1.9458695458e+00
 1.2018274467e+00	 1.4334263617e+00	-2.0317697268e+00
 1.1737274635e+00	 1.4565246951e+00	-2.1208776378e+00
 1.1452135986e+00	 1.4790490728e+00	-2.1924651990e+00
 1.1163034242e+00	 1.5009886779e+00	-2.2327091105e+00
 1.2646213859e+00	 1.3942687494e+00	-1.8989758301e+00
 1.2372290552e+00	 1.4186320383e+00	-1.9745124806e+00
 1.2093861099e+00	 1.4424416218e+00	-2.0611469943e+00
 1.1811093972e+00	 1.4656852278e+00	-2.1493389279e+00
 1.1524161998e+00	 1.4883512682e+00	-2.2228306018e+00
 1.1233242005e+00	 1.5104288582e+00	-2.2627693478e+00
 1.0882203192e+00	 1.4632279564e+00	-2.1367494920e+00
 1.0596685891e+00	 1.4840357128e+00	-2.1590277329e+00
 1.0307658049e+00	 1.5042544236e+00	-2.1685036345e+00
 1.0015300505e+00	 1.5238756752e+00	-2.1693744460e+00
 9.7197965568e-01	 1.5428917864e+00	-2.1669178905e+00
 9.4213315955e-01	 1.5612958161e+00	-2.1670843113e+00
 1.0952410955e+00	 1.4726681368e+00	-2.1562685513e+00
 1.0665051606e+00	 1.4936101368e+00	-2.1767497744e+00
 1.0374159069e+00	 1.5139592909e+00	-2.1845933735e+00
 1.0079915347e+00	 1.5337071312e+00	-2.1838371127e+00
 9.7825049217e-01	 1.5528459269e+00	-2.1795501638e+00
 9.4821143799e-01	 1.5713686923e+00	-2.1774106347e+00
 1.1022618717e+00	 1.4821083171e+00	-2.1790542169e+00
 1.0733417322e+00	 1.5031845607e+00	-2.1978422914e+00
 1.0440660088e+00	 1.5236641581e+00	-2.2038628988e+00
 1.0144530189e+00	 1.5435385872e+00	-2.2010486204e+00
 9.8452132866e-01	 1.5628000675e+00	-2.1943252193e+00
 9.5428971644e-01	 1.5814415685e+00	-2.1891734768e+00
 1.1092826480e+00	 1.4915484975e+00	-2.2046726032e+00
 1.0801783037e+00	 1.5127589847e+00	-2.2218094740e+00
 1.0507161108e+00	 1.5333690254e+00	-2.2258020921e+00
 1.0209145031e+00	 1.5533700431e+00	-2.2205324316e+00
 9.9079216515e-01	 1.5727542081e+00	-2.2108481119e+00
 9.6036799489e-01	 1.5915144448e+00	-2.2021074515e+00
 1.1163034242e+00	 1.5009886779e+00	-2.2327091105e+00
 1.0870148753e+00	 1.5223334086e+00	-2.2481741739e+00
 1.0573662128e+00	 1.5430738926e+00	-2.2499175372e+00
 1.0273759873e+00	 1.5632014991e+00	-2.2418254641e+00
 9.9706300164e-01	 1.5827083486e+00	-2.2287328681e+00
 9.6644627334e-01	 1.6015873210e+00	-2.2159504757e+00
 1.1233242005e+00	 1.5104288582e+00	-2.2627693478e+00
 1.0938514468e+00	 1.5319078326e+00	-2.2764787455e+00
 1.0640163147e+00	 1.5527787599e+00	-2.2757333181e+00
 1.0338374715e+00	 1.5730329551e+00	-2.2644788832e+00
 1.0033338381e+00	 1.5926624892e+00	-2.2476033082e+00
 9.7252455179e-01	 1.6116601972e+00	-2.2304446591e+00
 9.4213315955e-01	 1.5612958161e+00	-2.1670843113e+00
 9.1200927367e-01	 1.5790815686e+00	-2.1522903070e+00
 8.8162684538e-01	 1.5962435970e+00	-2.1068336246e+00
 8.5100482109e-01	 1.6127772041e+00	-2.0393788035e+00
 8.2016220995e-01	 1.6286784412e+00	-1.9578494177e+00
 7.8911804786e-01	 1.6439441055e+00	-1.8691630838e+00
 9.4821143799e-01	 1.5713686923e+00	-2.1774106347e+00
 9.1789320446e-01	 1.5892691916e+00	-2.1596389288e+00
 8.8731476051e-01	 1.6065419428e+00	-2.1107281584e+00
 8.5649517478e-01	 1.6231822183e+00	-2.0396019541e+00
 8.2545357905e-01	 1.6391860441e+00	-1.9544318658e+00
 7.9420913204e-01	 1.6545501965e+00	-1.8623602294e+00
 9.5428971644e-01	 1.5814415685e+00	-2.1891734768e+00
 9.2377713526e-01	 1.5994568147e+00	-2.1678727499e+00
 8.9300267564e-01	 1.6168402886e+00	-2.1152433195e+00
 8.6198552846e-01	 1.6335872325e+00	-2.0403402717e+00
 8.3074494815e-01	 1.6496936469e+00	-1.9514239452e+00
 7.9930021622e-01	 1.6651562875e+00	-1.8556717232e+00
 9.6036799489e-01	 1.5915144448e+00	-2.2021074515e+00
 9.2966106606e-01	 1.6096444377e+00	-2.1768124977e+00
 8.9869059077e-01	 1.6271386344e+00	-2.1201535292e+00
 8.6747588215e-01	 1.6439922468e+00	-2.0411931435e+00
 8.3603631724e-01	 1.6602012498e+00	-1.9481252329e+00
 8.0439130040e-01	 1.6757623785e+00	-1.8479767368e+00
 9.6644627334e-01	 1.6015873210e+00	-2.2159504757e+00
 9.3554499686e-01	 1.6198320607e+00	-2.1862776981e+00
 9.0437850590e-01	 1.6374369802e+00	-2.1252309531e+00
 8.7296623583e-01	 1.6543972610e+00	-2.0417600462e+00
 8.4132768634e-01	 1.6707088526e+00	-1.9438410771e+00
 8.0948238458e-01	 1.6863684695e+00	-1.8381691617e+00
 9.7252455179e-01	 1.6116601972e+00	-2.2304446591e+00
 9.4142892766e-01	 1.6300196837e+00	-2.1960875981e+00
 9.1006642103e-01	 1.6477353260e+00	-2.1302463497e+00
 8.7845658951e-01	 1.6648022752e+00	-2.0416412165e+00
 8.4661905544e-01	 1.6812164555e+00	-1.9378829914e+00
 8.1457346876e-01	 1.6969745605e+00	-1.8251576276e+00
 7.8911804786e-01	 1.6439441055e+00	-1.8691630838e+00
 7.5789136205e-01	 1.6585717346e+00	-1.7726445719e+00
 7.2650113635e-01	 1.6725595997e+00	-1.6670244635e+00
 6.9496627722e-01	 1.6859066964e+00	-1.5562252501e+00
 6.6330558064e-01	 1.6986127346e+00	-1.4425117801e+00
 6.3153770011e-01	 1.7106781255e+00	-1.3264873292e+00
 7.9420913204e-01	 1.6545501965e+00	-1.8623602294e+00
 7.6278098374e-01	 1.6692721974e+00	-1.7625464951e+00
 7.3118824046e-01	 1.6833503068e+00	-1.6535001473e+00
 6.9944993062e-01	 1.6967835138e+00	-1.5391623343e+00
 6.6758497148e-01	 1.7095715265e+00	-1.4216847463e+00
 6.3561213689e-01	 1.7217147585e+00	-1.3014276427e+00
 7.9930021622e-01	 1.6651562875e+00	-1.8556717232e+00
 7.6767060543e-01	 1.6799726602e+00	-1.7518766767e+00
 7.3587534456e-01	 1.6941410139e+00	-1.6385877000e+00
 7.0393358402e-01	 1.7076603312e+00	-1.5202770346e+00
 6.7186436233e-01	 1.7205303183e+00	-1.3995348492e+00
 6.3968657366e-01	 1.7327513916e+00	-1.2770650571e+00
 8.0439130040e-01	 1.6757623785e+00	-1.8479767368e+00
 7.7256022712e-01	 1.6906731230e+00	-1.7391611712e+00
 7.4056244867e-01	 1.7049317210e+00	-1.6207055659e+00
 7.0841723742e-01	 1.7185371486e+00	-1.4981150176e+00
 6.7614375317e-01	 1.7314891101e+00	-1.3749584733e+00
 6.4376101044e-01	 1.7437880247e+00	-1.2528582144e+00
 8.0948238458e-01	 1.6863684695e+00	-1.8381691617e+00
 7.7744984881e-01	 1.7013735858e+00	-1.7229482668e+00
 7.4524955278e-01	 1.7157224280e+00	-1.5982960417e+00
 7.1290089082e-01	 1.7294139660e+00	-1.4712418090e+00
 6.8042314401e-01	 1.7424479020e+00	-1.3468625504e+00
 6.4783544721e-01	 1.7548246577e+00	-1.2282619785e+00
 8.1457346876e-01	 1.6969745605e+00	-1.8251576276e+00
 7.8233947050e-01	 1.7120740486e+00	-1.7018081798e+00
 7.4993665688e-01	 1.7265131351e+00	-1.5698248367e+00
 7.1738454422e-01	 1.7402907834e+00	-1.4382424019e+00
 6.8470253485e-01	 1.7534066938e+00	-1.3141643898e+00
 6.5190988399e-01	 1.7658612908e+00	-1.2025795669e+00
 6.3153770011e-01	 1.7106781255e+00	-1.3264873292e+00
 5.9968111563e-01	 1.7221039676e+00	-1.1962259436e+00
 5.6775410393e-01	 1.7328920316e+00	-1.0500352335e+00
 5.3577470994e-01	 1.7430447429e+00	-9.1889602935e-01
 5.0376071965e-01	 1.7525651637e+00	-8.0162065299e-01
 4.7172963426e-01	 1.7614569730e+00	-6.9460967412e-01
 6.3561213689e-01	 1.7217147585e+00	-1.3014276427e+00
 6.0355002605e-01	 1.7332143157e+00	-1.1678791061e+00
 5.7141703363e-01	 1.7440719802e+00	-1.0185050298e+00
 5.3923132098e-01	 1.7542901929e+00	-8.8641498134e-01
 5.0701078881e-01	 1.7638720357e+00	-7.7376402986e-01
 4.7477305125e-01	 1.7728212115e+00	-6.6883982494e-01
 6.3968657366e-01	 1.7327513916e+00	-1.2770650571e+00
 6.0741893648e-01	 1.7443246639e+00	-1.1443942295e+00
 5.7507996333e-01	 1.7552519287e+00	-9.9853153811e-01
 5.4268793201e-01	 1.7655356428e+00	-8.7256496541e-01
 5.1026085797e-01	 1.7751789077e+00	-7.5717851954e-01
 4.7781646825e-01	 1.7841854501e+00	-6.4147917274e-01
 6.4376101044e-01	 1.7437880247e+00	-1.2528582144e+00
 6.1128784690e-01	 1.7554350121e+00	-1.1257667428e+00
 5.7874289304e-01	 1.7664318773e+00	-9.9001221715e-01
 5.4614454304e-01	 1.7767810928e+00	-8.5893537376e-01
 5.1351092713e-01	 1.7864857797e+00	-7.3252421375e-01
 4.8085988524e-01	 1.7955496886e+00	-6.1114761525e-01
 6.4783544721e-01	 1.7548246577e+00	-1.2282619785e+00
 6.1515675732e-01	 1.7665453603e+00	-1.1115744986e+00
 5.8240582274e-01	 1.7776118259e+00	-9.7358526008e-01
 5.4960115407e-01	 1.7880265427e+00	-8.3197484539e-01
 5.1676099629e-01	 1.7977926518e+00	-7.0021724211e-01
 4.8390330224e-01	 1.8069139271e+00	-5.7795263320e-01
 6.5190988399e-01	 1.7658612908e+00	-1.2025795669e+00
 6.1902566775e-01	 1.7776557085e+00	-1.0832625276e+00
 5.8606875244e-01	 1.7887917745e+00	-9.3871656278e-01
 5.5305776510e-01	 1.7992719927e+00	-7.9238774989e-01
 5.2001106545e-01	 1.8090995238e+00	-6.6076043521e-01
 4.8694671923e-01	 1.8182781657e+00	-5.4200287119e-01
 4.7172963426e-01	 1.7614569730e+00	-6.9460967412e-01
 4.3969864587e-01	 1.7697244465e+00	-6.0024695984e-01
 4.0768461467e-01	 1.7773724344e+00	-5.1058585920e-01
 3.7570404756e-01	 1.7844063394e+00	-4.2288363945e-01
 3.4377307843e-01	 1.7908320932e+00	-3.3660351214e-01
 3.1190744993e-01	 1.7966561324e+00	-2.5181569045e-01
 4.7477305125e-01	 1.7728212115e+00	-6.6883982494e-01
 4.4253541133e-01	 1.7811420235e+00	-5.6615250069e-01
 4.1031483799e-01	 1.7888393533e+00	-4.7151212840e-01
 3.7812794464e-01	 1.7959186384e+00	-3.8233154377e-01
 3.4599096926e-01	 1.8023858487e+00	-2.9672853490e-01
 3.1391975606e-01	 1.8082474623e+00	-2.1341965929e-01
 4.7781646825e-01	 1.7841854501e+00	-6.4147917274e-01
 4.4537217679e-01	 1.7925596006e+00	-5.3324210042e-01
 4.1294506131e-01	 1.8003062723e+00	-4.3637781586e-01
 3.8055184173e-01	 1.8074309374e+00	-3.4722160736e-01
 3.4820886009e-01	 1.8139396041e+00	-2.6282964202e-01
 3.1593206219e-01	 1.8198387922e+00	-1.8087644386e-01
 4.8085988524e-01	 1.7955496886e+00	-6.1114761525e-01
 4.4820894224e-01	 1.8039771777e+00	-5.0120645960e-01
 4.1557528463e-01	 1.8117731912e+00	-4.0464062286e-01
 3.8297573881e-01	 1.8189432363e+00	-3.1695554359e-01
 3.5042675092e-01	 1.8254933595e+00	-2.3442343120e-01
 3.1794436832e-01	 1.8314301221e+00	-1.5398190463e-01
 4.8390330224e-01	 1.8069139271e+00	-5.7795263320e-01
 4.5104570770e-01	 1.8153947548e+00	-4.6974696743e-01
 4.1820550795e-01	 1.8232401101e+00	-3.7577408937e-01
 3.8539963589e-01	 1.8304555353e+00	-2.9095167597e-01
 3.5264464174e-01	 1.8370471150e+00	-2.1103965534e-01
 3.1995667445e-01	 1.8430214520e+00	-1.3253753597e-01
 4.8694671923e-01	 1.8182781657e+00	-5.4200287119e-01
 4.5388247316e-01	 1.8268123318e+00	-4.3857552205e-01
 4.2083573127e-01	 1.8347070290e+00	-3.4926723023e-01
 3.8782353297e-01	 1.8419678343e+00	-2.6864452933e-01
 3.5486253257e-01	 1.8486008704e+00	-1.9222090343e-01
 3.2196898058e-01	 1.8546127819e+00	-1.1635036602e-01
 3.1190744993e-01	 1.7966561324e+00	-2.5181569045e-01
 2.8012249690e-01	 1.8018853744e+00	-1.7758350498e-01
 2.4843313129e-01	 1.8065271918e+00	-1.2023774511e-01
 2.1685382872e-01	 1.8105893882e+00	-7.6656284451e-02
 1.8539861655e-01	 1.8140801715e+00	-4.4346227506e-02
 1.5408106359e-01	 1.8170081292e+00	-2.1378285338e-02
 3.1391975606e-01	 1.8082474623e+00	-2.1341965929e-01
 2.8192973882e-01	 1.8135104413e+00	-1.4104903059e-01
 2.5003592569e-01	 1.8181822060e+00	-8.6276892139e-02
 2.1825288567e-01	 1.8222706100e+00	-4.5744296142e-02
 1.8659473666e-01	 1.8257839145e+00	-1.6717721165e-02
 1.5507513497e-01	 1.8287307622e+00	 2.9748590607e-03
 3.1593206219e-01	 1.8198387922e+00	-1.8087644386e-01
 2.8373698074e-01	 1.8251355082e+00	-1.0985586399e-01
 2.5163872008e-01	 1.8298372201e+00	-5.6902980239e-02
 2.1965194263e-01	 1.8339518319e+00	-1.8546600463e-02
 1.8779085677e-01	 1.8374876576e+00	 8.0903015461e-03
 1.5606920635e-01	 1.8404533953e+00	 2.5352022999e-02
 3.1794436832e-01	 1.8314301221e+00	-1.5398190463e-01
 2.8554422265e-01	 1.8367605751e+00	-8.4097988631e-02
 2.5324151448e-01	 1.8414922343e+00	-3.2384819438e-02
 2.2105099959e-01	 1.8456330537e+00	 4.6179184018e-03
 1.8898697687e-01	 1.8491914006e+00	 2.9834771230e-02
 1.5706327772e-01	 1.8521760284e+00	 4.5712662632e-02
 3.1995667445e-01	 1.8430214520e+00	-1.3253753597e-01
 2.8735146457e-01	 1.8483856421e+00	-6.3867090125e-02
 2.5484430887e-01	 1.8531472484e+00	-1.2984150197e-02
 2.2245005655e-01	 1.8573142756e+00	 2.3439028037e-02
 1.9018309698e-01	 1.8608951436e+00	 4.8279642072e-02
 1.5805734910e-01	 1.8638986615e+00	 6.4018406868e-02
 3.2196898058e-01	 1.8546127819e+00	-1.1635036602e-01
 2.8915870648e-01	 1.8600107090e+00	-4.9252690191e-02
 2.5644710327e-01	 1.8648022625e+00	 1.0440855143e-03
 2.2384911351e-01	 1.8689954975e+00	 3.7614837410e-02
 1.9137921709e-01	 1.8725988867e+00	 6.3195640905e-02
 1.5905142048e-01	 1.8756212946e+00	 8.0232965265e-02
 1.5408106359e-01	 1.8170081292e+00	-2.1378285338e-02
 1.2291427115e-01	 1.8193822022e+00	-3.5194062659e-03
 9.1910865755e-02	 1.8212116594e+00	 9.7400358180e-03
 6.1082993169e-02	 1.8225060723e+00	 1.4235627913e-02
 3.0442313896e-02	 1.8232752894e+00	 5.6912323692e-03
 0.0000000000e+00	 1.8235294118e+00	-2.0219552563e-02
 1.5507513497e-01	 1.8287307622e+00	 2.9748590607e-03
 1.2370726645e-01	 1.8311201518e+00	 1.7882772050e-02
 9.2503839083e-02	 1.8329614120e+00	 2.8571550690e-02
 6.1477076996e-02	 1.8342641760e+00	 3.0693514016e-02
 3.0638715922e-02	 1.8350383558e+00	 1.9743375165e-02
 0.0000000000e+00	 1.8352941176e+00	-8.8776385449e-03
 1.5606920635e-01	 1.8404533953e+00	 2.5352022999e-02
 1.2450026175e-01	 1.8428581015e+00	 3.7870885626e-02
 9.3096812410e-02	 1.8447111647e+00	 4.6205123296e-02
 6.1871160823e-02	 1.8460222797e+00	 4.6003182964e-02
 3.0835117947e-02	 1.8468014222e+00	 3.2677605858e-02
 0.0000000000e+00	 1.8470588235e+00	 1.4725725248e-03
 1.5706327772e-01	 1.8521760284e+00	 4.5712662632e-02
 1.2529325705e-01	 1.8545960512e+00	 5.6596345193e-02
 9.3689785738e-02	 1.8564609173e+00	 6.2834205686e-02
 6.2265244650e-02	 1.8577803834e+00	 6.0248024055e-02
 3.1031519972e-02	 1.8585644886e+00	 4.4313360487e-02
 0.0000000000e+00	 1.8588235294e+00	 1.0231277627e-02
 1.5805734910e-01	 1.8638986615e+00	 6.4018406868e-02
 1.2608625234e-01	 1.8663340009e+00	 7.4208123290e-02
 9.4282759065e-02	 1.8682106700e+00	 7.8648955276e-02
 6.2659328477e-02	 1.8695384871e+00	 7.3511094436e-02
 3.1227921997e-02	 1.8703275550e+00	 5.4476578531e-02
 0.0000000000e+00	 1.8705882353e+00	 1.6815930051e-02
 1.5905142048e-01	 1.8756212946e+00	 8.0232965265e-02
 1.2687924764e-01	 1.8780719506e+00	 9.0852812361e-02
 9.4875732393e-02	 1.8799604226e+00	 9.3836324964e-02
 6.3053412304e-02	 1.8812965907e+00	 8.5875121247e-02
 3.1424324022e-02	 1.8820906214e+00	 6.2999495644e-02
 0.0000000000e+00	 1.8823529412e+00	 2.0660700134e-02
 1.8823529412e+00	 0.0000000000e+00	 2.9016519084e+00
 1.8820906214e+00	 3.1424324022e-02	 2.9126232527e+00
 1.8812965907e+00	 6.3053412304e-02	 2.9173590951e+00
 1.8799604226e+00	 9.4875732393e-02	 2.9146449813e+00
 1.8780719506e+00	 1.2687924764e-01	 2.9039497336e+00
 1.8756212946e+00	 1.5905142048e-01	 2.8854029708e+00
 1.8941176471e+00	 0.0000000000e+00	 2.8717167077e+00
 1.8938536877e+00	 3.1620726047e-02	 2.8876718470e+00
 1.8930546944e+00	 6.3447496131e-02	 2.8949355911e+00
 1.8917101752e+00	 9.5468705720e-02	 2.8932077198e+00
 1.8898099003e+00	 1.2767224294e-01	 2.8828829809e+00
 1.8873439277e+00	 1.6004549186e-01	 2.8650240287e+00
 1.9058823529e+00	 0.0000000000e+00	 2.8418188058e+00
 1.9056167541e+00	 3.1817128072e-02	 2.8643562754e+00
 1.9048127981e+00	 6.3841579958e-02	 2.8745652105e+00
 1.9034599279e+00	 9.6061679048e-02	 2.8734122476e+00
 1.9015478500e+00	 1.2846523824e-01	 2.8625657461e+00
 1.8990665608e+00	 1.6103956324e-01	 2.8443621408e+00
 1.9176470588e+00	 0.0000000000e+00	 2.8110429636e+00
 1.9173798205e+00	 3.2013530097e-02	 2.8421365457e+00
 1.9165709018e+00	 6.4235663785e-02	 2.8560134193e+00
 1.9152096805e+00	 9.6654652375e-02	 2.8552528636e+00
 1.9132857997e+00	 1.2925823353e-01	 2.8431377449e+00
 1.9107891939e+00	 1.6203363461e-01	 2.8236123031e+00
 1.9294117647e+00	 0.0000000000e+00	 2.7784969147e+00
 1.9291428869e+00	 3.2209932123e-02	 2.8204871017e+00
 1.9283290055e+00	 6.4629747612e-02	 2.8390532587e+00
 1.9269594332e+00	 9.7247625702e-02	 2.8387264176e+00
 1.9250237494e+00	 1.3005122883e-01	 2.8247382179e+00
 1.9225118270e+00	 1.6302770599e-01	 2.8029681664e+00
 1.9411764706e+00	 0.0000000000e+00	 2.7433106700e+00
 1.9409059533e+00	 3.2406334148e-02	 2.7988963977e+00
 1.9400871092e+00	 6.5023831438e-02	 2.8234651360e+00
 1.9387091858e+00	 9.7840599030e-02	 2.8238322590e+00
 1.9367616991e+00	 1.3084422413e-01	 2.8075059713e+00
 1.9342344601e+00	 1.6402177737e-01	 2.7826221015e+00
 1.8756212946e+00	 1.5905142048e-01	 2.8854029708e+00
 1.8725988867e+00	 1.9137921709e-01	 2.8547776675e+00
 1.8689954975e+00	 2.2384911351e-01	 2.8081067370e+00
 1.8648022625e+00	 2.5644710327e-01	 2.7466266513e+00
 1.8600107090e+00	 2.8915870648e-01	 2.6718655667e+00
 1.8546127819e+00	 3.2196898058e-01	 2.5856218221e+00
 1.8873439277e+00	 1.6004549186e-01	 2.8650240287e+00
 1.8843026297e+00	 1.9257533720e-01	 2.8354194429e+00
 1.8806767193e+00	 2.2524817047e-01	 2.7895288314e+00
 1.8764572767e+00	 2.5804989767e-01	 2.7286034178e+00
 1.8716357759e+00	 2.9096594840e-01	 2.6541340067e+00
 1.8662041118e+00	 3.2398128671e-01	 2.5678267823e+00
 1.8990665608e+00	 1.6103956324e-01	 2.8443621408e+00
 1.8960063728e+00	 1.9377145730e-01	 2.8148517717e+00
 1.8923579412e+00	 2.2664722743e-01	 2.7689566544e+00
 1.8881122908e+00	 2.5965269206e-01	 2.7079608107e+00
 1.8832608429e+00	 2.9277319031e-01	 2.6333348539e+00
 1.8777954417e+00	 3.2599359284e-01	 2.5467089575e+00
 1.9107891939e+00	 1.6203363461e-01	 2.8236123031e+00
 1.9077101158e+00	 1.9496757741e-01	 2.7932769057e+00
 1.9040391630e+00	 2.2804628439e-01	 2.7465980306e+00
 1.8997673050e+00	 2.6125548646e-01	 2.6849102408e+00
 1.8948859098e+00	 2.9458043223e-01	 2.6096808347e+00
 1.8893867715e+00	 3.2800589896e-01	 2.5224798542e+00
 1.9225118270e+00	 1.6302770599e-01	 2.8029681664e+00
 1.9194138589e+00	 1.9616369752e-01	 2.7708960095e+00
 1.9157203849e+00	 2.2944534135e-01	 2.7226599498e+00
 1.9114223191e+00	 2.6285828085e-01	 2.6596625395e+00
 1.9065109767e+00	 2.9638767414e-01	 2.5833843615e+00
 1.9009781014e+00	 3.3001820509e-01	 2.4953509502e+00
 1.9342344601e+00	 1.6402177737e-01	 2.7826221015e+00
 1.9311176019e+00	 1.9735981762e-01	 2.7479092103e+00
 1.9274016068e+00	 2.3084439831e-01	 2.6973485990e+00
 1.9230773332e+00	 2.6446107525e-01	 2.6324279677e+00
 1.9181360437e+00	 2.9819491606e-01	 2.5546575156e+00
 1.9125694313e+00	 3.3203051122e-01	 2.4655336464e+00
 1.8546127819e+00	 3.2196898058e-01	 2.5856218221e+00
 1.8486008704e+00	 3.5486253257e-01	 2.4876308963e+00
 1.8419678343e+00	 3.8782353297e-01	 2.3778733428e+00
 1.8347070290e+00	 4.2083573127e-01	 2.2590138062e+00
 1.8268123318e+00	 4.5388247316e-01	 2.1341387604e+00
 1.8182781657e+00	 4.8694671923e-01	 2.0067823806e+00
 1.8662041118e+00	 3.2398128671e-01	 2.5678267823e+00
 1.8601546259e+00	 3.5708042340e-01	 2.4696607936e+00
 1.8534801332e+00	 3.9024743005e-01	 2.3597485493e+00
 1.8461739480e+00	 4.2346595459e-01	 2.2404263964e+00
 1.8382299089e+00	 4.5671923862e-01	 2.1144175580e+00
 1.8296424042e+00	 4.8999013623e-01	 1.9848580167e+00
 1.8777954417e+00	 3.2599359284e-01	 2.5467089575e+00
 1.8717083813e+00	 3.5929831423e-01	 2.4483797016e+00
 1.8649924322e+00	 3.9267132713e-01	 2.3386395834e+00
 1.8576408669e+00	 4.2609617792e-01	 2.2194691936e+00
 1.8496474860e+00	 4.5955600407e-01	 2.0931958088e+00
 1.8410066428e+00	 4.9303355322e-01	 1.9625191925e+00
 1.8893867715e+00	 3.2800589896e-01	 2.5224798542e+00
 1.8832621367e+00	 3.6151620506e-01	 2.4239876856e+00
 1.8765047311e+00	 3.9509522421e-01	 2.3147175799e+00
 1.8691077858e+00	 4.2872640124e-01	 2.1962673417e+00
 1.8610650630e+00	 4.6239276953e-01	 2.0705361038e+00
 1.8523708813e+00	 4.9607697022e-01	 1.9397499499e+00
 1.9009781014e+00	 3.3001820509e-01	 2.4953509502e+00
 1.8948158922e+00	 3.6373409589e-01	 2.3966852792e+00
 1.8880170301e+00	 3.9751912129e-01	 2.2881550330e+00
 1.8805747048e+00	 4.3135662456e-01	 2.1709486269e+00
 1.8724826401e+00	 4.6522953499e-01	 2.0465053473e+00
 1.8637351198e+00	 4.9912038721e-01	 1.9165406998e+00
 1.9125694313e+00	 3.3203051122e-01	 2.4655336464e+00
 1.9063696476e+00	 3.6595198672e-01	 2.3666733949e+00
 1.8995293291e+00	 3.9994301837e-01	 2.2591256508e+00
 1.8920416237e+00	 4.3398684788e-01	 2.1436432604e+00
 1.8839002172e+00	 4.6806630045e-01	 2.0211744530e+00
 1.8750993584e+00	 5.0216380421e-01	 1.8928878163e+00
 1.8182781657e+00	 4.8694671923e-01	 2.0067823806e+00
 1.8090995238e+00	 5.2001106545e-01	 1.8714297998e+00
 1.7992719927e+00	 5.5305776510e-01	 1.7216900936e+00
 1.7887917745e+00	 5.8606875244e-01	 1.5609113902e+00
 1.7776557085e+00	 6.1902566775e-01	 1.3917281593e+00
 1.7658612908e+00	 6.5190988399e-01	 1.2171841147e+00
 1.8296424042e+00	 4.8999013623e-01	 1.9848580167e+00
 1.8204063958e+00	 5.2326113460e-01	 1.8468993862e+00
 1.8105174426e+00	 5.5651437614e-01	 1.6956491693e+00
 1.7999717231e+00	 5.8973168214e-01	 1.5352138639e+00
 1.7887660566e+00	 6.2289457817e-01	 1.3696682293e+00
 1.7768979239e+00	 6.5598432076e-01	 1.2042834297e+00
 1.8410066428e+00	 4.9303355322e-01	 1.9625191925e+00
 1.8317132678e+00	 5.2651120376e-01	 1.8230312400e+00
 1.8217628926e+00	 5.5997098717e-01	 1.6709287006e+00
 1.8111516717e+00	 5.9339461185e-01	 1.5107702306e+00
 1.7998764048e+00	 6.2676348859e-01	 1.3481870705e+00
 1.7879345569e+00	 6.6005875754e-01	 1.1899277016e+00
 1.8523708813e+00	 4.9607697022e-01	 1.9397499499e+00
 1.8430201399e+00	 5.2976127292e-01	 1.7997575325e+00
 1.8330083425e+00	 5.6342759820e-01	 1.6474819686e+00
 1.8223316203e+00	 5.9705754155e-01	 1.4876941830e+00
 1.8109867530e+00	 6.3063239902e-01	 1.3275531755e+00
 1.7989711900e+00	 6.6413319431e-01	 1.1746199203e+00
 1.8637351198e+00	 4.9912038721e-01	 1.9165406998e+00
 1.8543270119e+00	 5.3301134208e-01	 1.7770182134e+00
 1.8442537925e+00	 5.6688420923e-01	 1.6252696811e+00
 1.8335115689e+00	 6.0072047125e-01	 1.4661030129e+00
 1.8220971012e+00	 6.3450130944e-01	 1.3080256565e+00
 1.8100078231e+00	 6.6820763109e-01	 1.1588476609e+00
 1.8750993584e+00	 5.0216380421e-01	 1.8928878163e+00
 1.8656338839e+00	 5.3626141124e-01	 1.7547605228e+00
 1.8554992424e+00	 5.7034082026e-01	 1.6042594518e+00
 1.8446915175e+00	 6.0438340096e-01	 1.4461085107e+00
 1.8332074494e+00	 6.3837021987e-01	 1.2898543616e+00
 1.8210444561e+00	 6.7228206786e-01	 1.1430833961e+00
 1.7658612908e+00	 6.5190988399e-01	 1.2171841147e+00
 1.7534066938e+00	 6.8470253485e-01	 1.0437005001e+00
 1.7402907834e+00	 7.1738454422e-01	 8.7822803552e-01
 1.7265131351e+00	 7.4993665688e-01	 7.1936954937e-01
 1.7120740486e+00	 7.8233947050e-01	 5.6446006941e-01
 1.6969745605e+00	 8.1457346876e-01	 4.0963832340e-01
 1.7768979239e+00	 6.5598432076e-01	 1.2042834297e+00
 1.7643654857e+00	 6.8898192570e-01	 1.0350763826e+00
 1.7511676008e+00	 7.2186819762e-01	 8.6726162159e-01
 1.7373038422e+00	 7.5462376099e-01	 7.1087036284e-01
 1.7227745114e+00	 7.8722909220e-01	 5.6137326702e-01
 1.7075806516e+00	 8.1966455294e-01	 4.1310807452e-01
 1.7879345569e+00	 6.6005875754e-01	 1.1899277016e+00
 1.7753242775e+00	 6.9326131654e-01	 1.0327515333e+00
 1.7620444182e+00	 7.2635185103e-01	 8.6733269569e-01
 1.7480945493e+00	 7.5931086509e-01	 7.0903386070e-01
 1.7334749743e+00	 7.9211871389e-01	 5.6152043517e-01
 1.7181867426e+00	 8.2475563712e-01	 4.1785128014e-01
 1.7989711900e+00	 6.6413319431e-01	 1.1746199203e+00
 1.7862830693e+00	 6.9754070738e-01	 1.0266110545e+00
 1.7729212356e+00	 7.3083550443e-01	 8.7372036162e-01
 1.7588852564e+00	 7.6399796920e-01	 7.1437161867e-01
 1.7441754371e+00	 7.9700833558e-01	 5.6522740145e-01
 1.7287928336e+00	 8.2984672130e-01	 4.2385150796e-01
 1.8100078231e+00	 6.6820763109e-01	 1.1588476609e+00
 1.7972418612e+00	 7.0182009823e-01	 1.0173484542e+00
 1.7837980530e+00	 7.3531915783e-01	 8.7444106333e-01
 1.7696759635e+00	 7.6868507330e-01	 7.2561319647e-01
 1.7548758999e+00	 8.0189795727e-01	 5.7281686186e-01
 1.7393989246e+00	 8.3493780548e-01	 4.3109583172e-01
 1.8210444561e+00	 6.7228206786e-01	 1.1430833961e+00
 1.8082006530e+00	 7.0609948907e-01	 1.0056464393e+00
 1.7946748704e+00	 7.3980281123e-01	 8.6971241053e-01
 1.7804666706e+00	 7.7337217741e-01	 7.3080604666e-01
 1.7655763627e+00	 8.0678757896e-01	 5.8455786561e-01
 1.7500050156e+00	 8.4002888966e-01	 4.3957386581e-01
 1.6969745605e+00	 8.1457346876e-01	 4.0963832340e-01
 1.6812164555e+00	 8.4661905544e-01	 2.5831232686e-01
 1.6648022752e+00	 8.7845658951e-01	 1.1494498275e-01
 1.6477353260e+00	 9.1006642103e-01	-2.4908373934e-02
 1.6300196837e+00	 9.4142892766e-01	-1.6728308794e-01
 1.6116601972e+00	 9.7252455179e-01	-3.1965279536e-01
 1.7075806516e+00	 8.1966455294e-01	 4.1310807452e-01
 1.6917240583e+00	 8.5191042453e-01	 2.6679141755e-01
 1.6752072894e+00	 8.8394694320e-01	 1.2602576512e-01
 1.6580336718e+00	 9.1575433616e-01	-1.2664205013e-02
 1.6402073067e+00	 9.4731285845e-01	-1.5438684838e-01
 1.6217330735e+00	 9.7860283024e-01	-3.0573666866e-01
 1.7181867426e+00	 8.2475563712e-01	 4.1785128014e-01
 1.7022316612e+00	 8.5720179363e-01	 2.7615613741e-01
 1.6856123036e+00	 8.8943729688e-01	 1.3862219119e-01
 1.6683320175e+00	 9.2144225130e-01	 2.2730915154e-03
 1.6503949298e+00	 9.5319678925e-01	-1.3751457581e-01
 1.6318059497e+00	 9.8468110869e-01	-2.8686703182e-01
 1.7287928336e+00	 8.2984672130e-01	 4.2385150796e-01
 1.7127392640e+00	 8.6249316273e-01	 2.8603722866e-01
 1.6960173179e+00	 8.9492765057e-01	 1.5216018757e-01
 1.6786303633e+00	 9.2713016643e-01	 1.9282367423e-02
 1.6605825528e+00	 9.5908072005e-01	-1.1716749163e-01
 1.6418788259e+00	 9.9075938713e-01	-2.6324943312e-01
 1.7393989246e+00	 8.3493780548e-01	 4.3109583172e-01
 1.7232468669e+00	 8.6778453182e-01	 2.9607594706e-01
 1.7064223321e+00	 9.0041800425e-01	 1.6607975027e-01
 1.6889287091e+00	 9.3281808156e-01	 3.7756453309e-02
 1.6707701758e+00	 9.6496465085e-01	-9.3836763298e-02
 1.6519517022e+00	 9.9683766558e-01	-2.3508730659e-01
 1.7500050156e+00	 8.4002888966e-01	 4.3957386581e-01
 1.7337544697e+00	 8.7307590092e-01	 3.0592279432e-01
 1.7168273463e+00	 9.0590835794e-01	 1.7983348543e-01
 1.6992270549e+00	 9.3850599669e-01	 5.7100625044e-02
 1.6809577988e+00	 9.7084858165e-01	-6.8004988142e-02
 1.6620245784e+00	 1.0029159440e+00	-2.0258327556e-01
 1.6116601972e+00	 9.7252455179e-01	-3.1965279536e-01
 1.5926624892e+00	 1.0033338381e+00	-4.6153424559e-01
 1.5730329551e+00	 1.0338374715e+00	-5.7358136194e-01
 1.5527787599e+00	 1.0640163147e+00	-6.6650348108e-01
 1.5319078326e+00	 1.0938514468e+00	-7.5145414411e-01
 1.5104288582e+00	 1.1233242005e+00	-8.3958757514e-01
 1.6217330735e+00	 9.7860283024e-01	-3.0573666866e-01
 1.6026166297e+00	 1.0096046746e+00	-4.4593668795e-01
 1.5828644110e+00	 1.0402989557e+00	-5.5623786812e-01
 1.5624836271e+00	 1.0706664167e+00	-6.4795492734e-01
 1.5414822565e+00	 1.1006880183e+00	-7.3298571541e-01
 1.5198690386e+00	 1.1303449767e+00	-8.2335513794e-01
 1.6318059497e+00	 9.8468110869e-01	-2.8686703182e-01
 1.6125707703e+00	 1.0158755111e+00	-4.2523774444e-01
 1.5926958670e+00	 1.0467604399e+00	-5.3453518279e-01
 1.5721884944e+00	 1.0773165187e+00	-6.2638686323e-01
 1.5510566805e+00	 1.1075245899e+00	-7.1316678183e-01
 1.5293092190e+00	 1.1373657530e+00	-8.0752844771e-01
 1.6418788259e+00	 9.9075938713e-01	-2.6324943312e-01
 1.6225249108e+00	 1.0221463476e+00	-3.9929647440e-01
 1.6025273230e+00	 1.0532219241e+00	-5.0806907238e-01
 1.5818933616e+00	 1.0839666206e+00	-6.0122018404e-01
 1.5606311044e+00	 1.1143611614e+00	-6.9133691530e-01
 1.5387493993e+00	 1.1443865292e+00	-7.9146431052e-01
 1.6519517022e+00	 9.9683766558e-01	-2.3508730659e-01
 1.6324790514e+00	 1.0284171841e+00	-3.6797870312e-01
 1.6123587789e+00	 1.0596834083e+00	-4.7644860065e-01
 1.5915982289e+00	 1.0906167226e+00	-5.7189312301e-01
 1.5702055284e+00	 1.1211977330e+00	-6.6685444325e-01
 1.5481895797e+00	 1.1514073055e+00	-7.7453695977e-01
 1.6620245784e+00	 1.0029159440e+00	-2.0258327556e-01
 1.6424331920e+00	 1.0346880206e+00	-3.3115810715e-01
 1.6221902349e+00	 1.0661448925e+00	-4.3929705647e-01
 1.6013030961e+00	 1.0972668246e+00	-5.3786208635e-01
 1.5797799523e+00	 1.1280343045e+00	-6.3909725900e-01
 1.5576297601e+00	 1.1584280817e+00	-7.5613891369e-01
 1.5104288582e+00	 1.1233242005e+00	-8.3958757514e-01
 1.4883512682e+00	 1.1524161998e+00	-9.4523449751e-01
 1.4656852278e+00	 1.1811093972e+00	-1.0830674289e+00
 1.4424416218e+00	 1.2093861099e+00	-1.2209264704e+00
 1.4186320383e+00	 1.2372290552e+00	-1.3382387139e+00
 1.3942687494e+00	 1.2646213859e+00	-1.4364966309e+00
 1.5198690386e+00	 1.1303449767e+00	-8.2335513794e-01
 1.4976534636e+00	 1.1596188011e+00	-9.3536257491e-01
 1.4748457605e+00	 1.1884913310e+00	-1.0801408070e+00
 1.4514568820e+00	 1.2169447731e+00	-1.2173899746e+00
 1.4274984885e+00	 1.2449617368e+00	-1.3373934263e+00
 1.4029829290e+00	 1.2725252696e+00	-1.4411195425e+00
 1.5293092190e+00	 1.1373657530e+00	-8.0752844771e-01
 1.5069556591e+00	 1.1668214023e+00	-9.2738816021e-01
 1.4840062931e+00	 1.1958732647e+00	-1.0762137667e+00
 1.4604721421e+00	 1.2245034362e+00	-1.2138555634e+00
 1.4363649388e+00	 1.2526944184e+00	-1.3372988260e+00
 1.4116971087e+00	 1.2804291532e+00	-1.4470829571e+00
 1.5387493993e+00	 1.1443865292e+00	-7.9146431052e-01
 1.5162578545e+00	 1.1740240036e+00	-9.2072925292e-01
 1.4931668258e+00	 1.2032551984e+00	-1.0710526850e+00
 1.4694874023e+00	 1.2320620994e+00	-1.2101468118e+00
 1.4452313890e+00	 1.2604271000e+00	-1.3378206601e+00
 1.4204112884e+00	 1.2883330369e+00	-1.4542782485e+00
 1.5481895797e+00	 1.1514073055e+00	-7.7453695977e-01
 1.5255600499e+00	 1.1812266048e+00	-9.1405224870e-01
 1.5023273585e+00	 1.2106371322e+00	-1.0644512682e+00
 1.4785026624e+00	 1.2396207626e+00	-1.2061126090e+00
 1.4540978392e+00	 1.2681597816e+00	-1.3388484377e+00
 1.4291254681e+00	 1.2962369206e+00	-1.4626194959e+00
 1.5576297601e+00	 1.1584280817e+00	-7.5613891369e-01
 1.5348622453e+00	 1.1884292061e+00	-9.0440238429e-01
 1.5114878911e+00	 1.2180190659e+00	-1.0562295088e+00
 1.4875179225e+00	 1.2471794258e+00	-1.2016261711e+00
 1.4629642895e+00	 1.2758924632e+00	-1.3402944895e+00
 1.4378396478e+00	 1.3041408042e+00	-1.4720425829e+00
 1.3942687494e+00	 1.2646213859e+00	-1.4364966309e+00
 1.3693646910e+00	 1.2915467232e+00	-1.5310910761e+00
 1.3439334400e+00	 1.3179891896e+00	-1.6316438393e+00
 1.3179891896e+00	 1.3439334400e+00	-1.7311304631e+00
 1.2915467232e+00	 1.3693646910e+00	-1.8225163770e+00
 1.2646213859e+00	 1.3942687494e+00	-1.8989758301e+00
 1.4029829290e+00	 1.2725252696e+00	-1.4411195425e+00
 1.3779232203e+00	 1.2996188902e+00	-1.5417874114e+00
 1.3523330240e+00	 1.3262266221e+00	-1.6474351371e+00
 1.3262266221e+00	 1.3523330240e+00	-1.7514085742e+00
 1.2996188902e+00	 1.3779232203e+00	-1.8470821580e+00
 1.2725252696e+00	 1.4029829290e+00	-1.9280847912e+00
 1.4116971087e+00	 1.2804291532e+00	-1.4470829571e+00
 1.3864817496e+00	 1.3076910573e+00	-1.5543902471e+00
 1.3607326080e+00	 1.3344640545e+00	-1.6657364485e+00
 1.3344640545e+00	 1.3607326080e+00	-1.7748155207e+00
 1.3076910573e+00	 1.3864817496e+00	-1.8753848373e+00
 1.2804291532e+00	 1.4116971087e+00	-1.9614985228e+00
 1.4204112884e+00	 1.2883330369e+00	-1.4542782485e+00
 1.3950402789e+00	 1.3157632243e+00	-1.5687998753e+00
 1.3691321920e+00	 1.3427014870e+00	-1.6864413628e+00
 1.3427014870e+00	 1.3691321920e+00	-1.8012228933e+00
 1.3157632243e+00	 1.3950402789e+00	-1.9072590336e+00
 1.2883330369e+00	 1.4204112884e+00	-1.9990000285e+00
 1.4291254681e+00	 1.2962369206e+00	-1.4626194959e+00
 1.4035988083e+00	 1.3238353913e+00	-1.5849387301e+00
 1.3775317760e+00	 1.3509389194e+00	-1.7094655044e+00
 1.3509389194e+00	 1.3775317760e+00	-1.8305246455e+00
 1.3238353913e+00	 1.4035988083e+00	-1.9425624672e+00
 1.2962369206e+00	 1.4291254681e+00	-2.0403965347e+00
 1.4378396478e+00	 1.3041408042e+00	-1.4720425829e+00
 1.4121573376e+00	 1.3319075583e+00	-1.6027505173e+00
 1.3859313600e+00	 1.3591763518e+00	-1.7347456849e+00
 1.3591763518e+00	 1.3859313600e+00	-1.8626362608e+00
 1.3319075583e+00	 1.4121573376e+00	-1.9811751335e+00
 1.3041408042e+00	 1.4378396478e+00	-2.0855186640e+00
 1.2646213859e+00	 1.3942687494e+00	-1.8989758301e+00
 1.2372290552e+00	 1.4186320383e+00	-1.9745124806e+00
 1.2093861099e+00	 1.4424416218e+00	-2.0611469943e+00
 1.1811093972e+00	 1.4656852278e+00	-2.1493389279e+00
 1.1524161998e+00	 1.4883512682e+00	-2.2228306018e+00
 1.1233242005e+00	 1.5104288582e+00	-2.2627693478e+00
 1.2725252696e+00	 1.4029829290e+00	-1.9280847912e+00
 1.2449617368e+00	 1.4274984885e+00	-2.0069837305e+00
 1.2169447731e+00	 1.4514568820e+00	-2.0944255261e+00
 1.1884913310e+00	 1.4748457605e+00	-2.1814504890e+00
 1.1596188011e+00	 1.4976534636e+00	-2.2557227487e+00
 1.1303449767e+00	 1.5198690386e+00	-2.2954137989e+00
 1.2804291532e+00	 1.4116971087e+00	-1.9614985228e+00
 1.2526944184e+00	 1.4363649388e+00	-2.0441335187e+00
 1.2245034362e+00	 1.4604721421e+00	-2.1324634314e+00
 1.1958732647e+00	 1.4840062931e+00	-2.2181733324e+00
 1.1668214023e+00	 1.5069556591e+00	-2.2918977504e+00
 1.1373657530e+00	 1.5293092190e+00	-2.3315504591e+00
 1.2883330369e+00	 1.4204112884e+00	-1.9990000285e+00
 1.2604271000e+00	 1.4452313890e+00	-2.0857193546e+00
 1.2320620994e+00	 1.4694874023e+00	-2.1750586153e+00
 1.2032551984e+00	 1.4931668258e+00	-2.2594103478e+00
 1.1740240036e+00	 1.5162578545e+00	-2.3312657161e+00
 1.1443865292e+00	 1.5387493993e+00	-2.3713302933e+00
 1.2962369206e+00	 1.4291254681e+00	-2.0403965347e+00
 1.2681597816e+00	 1.4540978392e+00	-2.1315234603e+00
 1.2396207626e+00	 1.4785026624e+00	-2.2220325621e+00
 1.2106371322e+00	 1.5023273585e+00	-2.3050852562e+00
 1.1812266048e+00	 1.5255600499e+00	-2.3740703903e+00
 1.1514073055e+00	 1.5481895797e+00	-2.4149164630e+00
 1.3041408042e+00	 1.4378396478e+00	-2.0855186640e+00
 1.2758924632e+00	 1.4629642895e+00	-2.1813519661e+00
 1.2471794258e+00	 1.4875179225e+00	-2.2732296052e+00
 1.2180190659e+00	 1.5114878911e+00	-2.3551420049e+00
 1.1884292061e+00	 1.5348622453e+00	-2.4213726455e+00
 1.1584280817e+00	 1.5576297601e+00	-2.4624855956e+00
 1.1233242005e+00	 1.5104288582e+00	-2.2627693478e+00
 1.0938514468e+00	 1.5319078326e+00	-2.2764787455e+00
 1.0640163147e+00	 1.5527787599e+00	-2.2757333181e+00
 1.0338374715e+00	 1.5730329551e+00	-2.2644788832e+00
 1.0033338381e+00	 1.5926624892e+00	-2.2476033082e+00
 9.7252455179e-01	 1.6116601972e+00	-2.2304446591e+00
 1.1303449767e+00	 1.5198690386e+00	-2.2954137989e+00
 1.1006880183e+00	 1.5414822565e+00	-2.3073070544e+00
 1.0706664167e+00	 1.5624836271e+00	-2.3039367745e+00
 1.0402989557e+00	 1.5828644110e+00	-2.2893114572e+00
 1.0096046746e+00	 1.6026166297e+00	-2.2683610079e+00
 9.7860283024e-01	 1.6217330735e+00	-2.2464254781e+00
 1.1373657530e+00	 1.5293092190e+00	-2.3315504591e+00
 1.1075245899e+00	 1.5510566805e+00	-2.3417626415e+00
 1.0773165187e+00	 1.5721884944e+00	-2.3357681811e+00
 1.0467604399e+00	 1.5926958670e+00	-2.3175908766e+00
 1.0158755111e+00	 1.6125707703e+00	-2.2921172116e+00
 9.8468110869e-01	 1.6318059497e+00	-2.2645660025e+00
 1.1443865292e+00	 1.5387493993e+00	-2.3713302933e+00
 1.1143611614e+00	 1.5606311044e+00	-2.3801853900e+00
 1.0839666206e+00	 1.5818933616e+00	-2.3715949284e+00
 1.0532219241e+00	 1.6025273230e+00	-2.3495534696e+00
 1.0221463476e+00	 1.6225249108e+00	-2.3188219033e+00
 9.9075938713e-01	 1.6418788259e+00	-2.2843782925e+00
 1.1514073055e+00	 1.5481895797e+00	-2.4149164630e+00
 1.1211977330e+00	 1.5702055284e+00	-2.4229201478e+00
 1.0906167226e+00	 1.5915982289e+00	-2.4117859245e+00
 1.0596834083e+00	 1.6123587789e+00	-2.3854374077e+00
 1.0284171841e+00	 1.6324790514e+00	-2.3484309875e+00
 9.9683766558e-01	 1.6519517022e+00	-2.3053881227e+00
 1.1584280817e+00	 1.5576297601e+00	-2.4624855956e+00
 1.1280343045e+00	 1.5797799523e+00	-2.4703181107e+00
 1.0972668246e+00	 1.6013030961e+00	-2.4567129726e+00
 1.0661448925e+00	 1.6221902349e+00	-2.4254839610e+00
 1.0346880206e+00	 1.6424331920e+00	-2.3809073063e+00
 1.0029159440e+00	 1.6620245784e+00	-2.3271356480e+00
 9.7252455179e-01	 1.6116601972e+00	-2.2304446591e+00
 9.4142892766e-01	 1.6300196837e+00	-2.1960875981e+00
 9.1006642103e-01	 1.6477353260e+00	-2.1302463497e+00
 8.7845658951e-01	 1.6648022752e+00	-2.0416412165e+00
 8.4661905544e-01	 1.6812164555e+00	-1.9378829914e+00
 8.1457346876e-01	 1.6969745605e+00	-1.8251576276e+00
 9.7860283024e-01	 1.6217330735e+00	-2.2464254781e+00
 9.4731285845e-01	 1.6402073067e+00	-2.2067561164e+00
 9.1575433616e-01	 1.6580336718e+00	-2.1352574779e+00
 8.8394694320e-01	 1.6752072894e+00	-2.0405541045e+00
 8.5191042453e-01	 1.6917240583e+00	-1.9300285793e+00
 8.1966455294e-01	 1.7075806516e+00	-1.8094968585e+00
 9.8468110869e-01	 1.6318059497e+00	-2.2645660025e+00
 9.5319678925e-01	 1.6503949298e+00	-2.2183079265e+00
 9.2144225130e-01	 1.6683320175e+00	-2.1397232112e+00
 8.8943729688e-01	 1.6856123036e+00	-2.0377179590e+00
 8.5720179363e-01	 1.7022316612e+00	-1.9198608243e+00
 8.2475563712e-01	 1.7181867426e+00	-1.7920454808e+00
 9.9075938713e-01	 1.6418788259e+00	-2.2843782925e+00
 9.5908072005e-01	 1.6605825528e+00	-2.2298442409e+00
 9.2713016643e-01	 1.6786303633e+00	-2.1425328955e+00
 8.9492765057e-01	 1.6960173179e+00	-2.0320026487e+00
 8.6249316273e-01	 1.7127392640e+00	-1.9064153178e+00
 8.2984672130e-01	 1.7287928336e+00	-1.7721822428e+00
 9.9683766558e-01	 1.6519517022e+00	-2.3053881227e+00
 9.6496465085e-01	 1.6707701758e+00	-2.2404871932e+00
 9.3281808156e-01	 1.6889287091e+00	-2.1425992761e+00
 9.0041800425e-01	 1.7064223321e+00	-2.0222993976e+00
 8.6778453182e-01	 1.7232468669e+00	-1.8887426578e+00
 8.3493780548e-01	 1.7393989246e+00	-1.7492904708e+00
 1.0029159440e+00	 1.6620245784e+00	-2.3271356480e+00
 9.7084858165e-01	 1.6809577988e+00	-2.2493801727e+00
 9.3850599669e-01	 1.6992270549e+00	-2.1388586446e+00
 9.0590835794e-01	 1.7168273463e+00	-2.0075208848e+00
 8.7307590092e-01	 1.7337544697e+00	-1.8659086359e+00
 8.4002888966e-01	 1.7500050156e+00	-1.7227584727e+00
 8.1457346876e-01	 1.6969745605e+00	-1.8251576276e+00
 7.8233947050e-01	 1.7120740486e+00	-1.7018081798e+00
 7.4993665688e-01	 1.7265131351e+00	-1.5698248367e+00
 7.1738454422e-01	 1.7402907834e+00	-1.4382424019e+00
 6.8470253485e-01	 1.7534066938e+00	-1.3141643898e+00
 6.5190988399e-01	 1.7658612908e+00	-1.2025795669e+00
 8.1966455294e-01	 1.7075806516e+00	-1.8094968585e+00
 7.8722909220e-01	 1.7227745114e+00	-1.6781050727e+00
 7.5462376099e-01	 1.7373038422e+00	-1.5402474548e+00
 7.2186819762e-01	 1.7511676008e+00	-1.4069043356e+00
 6.8898192570e-01	 1.7643654857e+00	-1.2871442285e+00
 6.5598432076e-01	 1.7768979239e+00	-1.1717155353e+00
 8.2475563712e-01	 1.7181867426e+00	-1.7920454808e+00
 7.9211871389e-01	 1.7334749743e+00	-1.6549522212e+00
 7.5931086509e-01	 1.7480945493e+00	-1.5154270607e+00
 7.2635185103e-01	 1.7620444182e+00	-1.3858092049e+00
 6.9326131654e-01	 1.7753242775e+00	-1.2650137955e+00
 6.6005875754e-01	 1.7879345569e+00	-1.1370290330e+00
 8.2984672130e-01	 1.7287928336e+00	-1.7721822428e+00
 7.9700833558e-01	 1.7441754371e+00	-1.6320555345e+00
 7.6399796920e-01	 1.7588852564e+00	-1.4952003784e+00
 7.3083550443e-01	 1.7729212356e+00	-1.3684426124e+00
 6.9754070738e-01	 1.7862830693e+00	-1.2348152684e+00
 6.6413319431e-01	 1.7989711900e+00	-1.0983463315e+00
 8.3493780548e-01	 1.7393989246e+00	-1.7492904708e+00
 8.0189795727e-01	 1.7548758999e+00	-1.6091157405e+00
 7.6868507330e-01	 1.7696759635e+00	-1.4773119044e+00
 7.3531915783e-01	 1.7837980530e+00	-1.3398586918e+00
 7.0182009823e-01	 1.7972418612e+00	-1.1968134763e+00
 6.6820763109e-01	 1.8100078231e+00	-1.0555104690e+00
 8.4002888966e-01	 1.7500050156e+00	-1.7227584727e+00
 8.0678757896e-01	 1.7655763627e+00	-1.5857721361e+00
 7.7337217741e-01	 1.7804666706e+00	-1.4471801046e+00
 7.3980281123e-01	 1.7946748704e+00	-1.2999365579e+00
 7.0609948907e-01	 1.8082006530e+00	-1.1512916482e+00
 6.7228206786e-01	 1.8210444561e+00	-1.0083807898e+00
 6.5190988399e-01	 1.7658612908e+00	-1.2025795669e+00
 6.1902566775e-01	 1.7776557085e+00	-1.0832625276e+00
 5.8606875244e-01	 1.7887917745e+00	-9.3871656278e-01
 5.5305776510e-01	 1.7992719927e+00	-7.9238774989e-01
 5.2001106545e-01	 1.8090995238e+00	-6.6076043521e-01
 4.8694671923e-01	 1.8182781657e+00	-5.4200287119e-01
 6.5598432076e-01	 1.7768979239e+00	-1.1717155353e+00
 6.2289457817e-01	 1.7887660566e+00	-1.0429508851e+00
 5.8973168214e-01	 1.7999717231e+00	-8.9611853147e-01
 5.5651437614e-01	 1.8105174426e+00	-7.4835890153e-01
 5.2326113460e-01	 1.8204063958e+00	-6.1923920310e-01
 4.8999013623e-01	 1.8296424042e+00	-5.0528344781e-01
 6.6005875754e-01	 1.7879345569e+00	-1.1370290330e+00
 6.2676348859e-01	 1.7998764048e+00	-1.0022385019e+00
 5.9339461185e-01	 1.8111516717e+00	-8.5510101107e-01
 5.5997098717e-01	 1.8217628926e+00	-7.0698304974e-01
 5.2651120376e-01	 1.8317132678e+00	-5.7987389264e-01
 4.9303355322e-01	 1.8410066428e+00	-4.6938175749e-01
 6.6413319431e-01	 1.7989711900e+00	-1.0983463315e+00
 6.3063239902e-01	 1.8109867530e+00	-9.6052312717e-01
 5.9705754155e-01	 1.8223316203e+00	-8.1472405793e-01
 5.6342759820e-01	 1.8330083425e+00	-6.6734272768e-01
 5.2976127292e-01	 1.8430201399e+00	-5.4188270740e-01
 4.9607697022e-01	 1.8523708813e+00	-4.3382304893e-01
 6.6820763109e-01	 1.8100078231e+00	-1.0555104690e+00
 6.3450130944e-01	 1.8220971012e+00	-9.1722894254e-01
 6.0072047125e-01	 1.8335115689e+00	-7.7417492233e-01
 5.6688420923e-01	 1.8442537925e+00	-6.2854935384e-01
 5.3301134208e-01	 1.8543270119e+00	-5.0450837059e-01
 4.9912038721e-01	 1.8637351198e+00	-3.9814862607e-01
 6.7228206786e-01	 1.8210444561e+00	-1.0083807898e+00
 6.3837021987e-01	 1.8332074494e+00	-8.7180583450e-01
 6.0438340096e-01	 1.8446915175e+00	-7.3267147473e-01
 5.7034082026e-01	 1.8554992424e+00	-5.8974260021e-01
 5.3626141124e-01	 1.8656338839e+00	-4.6701759372e-01
 5.0216380421e-01	 1.8750993584e+00	-3.6191554416e-01
 4.8694671923e-01	 1.8182781657e+00	-5.4200287119e-01
 4.5388247316e-01	 1.8268123318e+00	-4.3857552205e-01
 4.2083573127e-01	 1.8347070290e+00	-3.4926723023e-01
 3.8782353297e-01	 1.8419678343e+00	-2.6864452933e-01
 3.5486253257e-01	 1.8486008704e+00	-1.9222090343e-01
 3.2196898058e-01	 1.8546127819e+00	-1.1635036602e-01
 4.8999013623e-01	 1.8296424042e+00	-5.0528344781e-01
 4.5671923862e-01	 1.8382299089e+00	-4.0715567940e-01
 4.2346595459e-01	 1.8461739480e+00	-3.2283204488e-01
 3.9024743005e-01	 1.8534801332e+00	-2.4671037582e-01
 3.5708042340e-01	 1.8601546259e+00	-1.7424390440e-01
 3.2398128671e-01	 1.8662041118e+00	-1.0183004096e-01
 4.9303355322e-01	 1.8410066428e+00	-4.6938175749e-01
 4.5955600407e-01	 1.8496474860e+00	-3.7505059875e-01
 4.2609617792e-01	 1.8576408669e+00	-2.9460597544e-01
 3.9267132713e-01	 1.8649924322e+00	-2.2240783851e-01
 3.5929831423e-01	 1.8717083813e+00	-1.5395866338e-01
 3.2599359284e-01	 1.8777954417e+00	-8.5787744565e-02
 4.9607697022e-01	 1.8523708813e+00	-4.3382304893e-01
 4.6239276953e-01	 1.8610650630e+00	-3.4213438166e-01
 4.2872640124e-01	 1.8691077858e+00	-2.6472706270e-01
 3.9509522421e-01	 1.8765047311e+00	-1.9605247945e-01
 3.6151620506e-01	 1.8832621367e+00	-1.3177055890e-01
 3.2800589896e-01	 1.8893867715e+00	-6.8629896760e-02
 4.9912038721e-01	 1.8637351198e+00	-3.9814862607e-01
 4.6522953499e-01	 1.8724826401e+00	-3.0828778515e-01
 4.3135662456e-01	 1.8805747048e+00	-2.3333275959e-01
 3.9751912129e-01	 1.8880170301e+00	-1.6795422203e-01
 3.6373409589e-01	 1.8948158922e+00	-1.0807650148e-01
 3.3001820509e-01	 1.9009781014e+00	-5.0753863561e-02
 5.0216380421e-01	 1.8750993584e+00	-3.6191554416e-01
 4.6806630045e-01	 1.8839002172e+00	-2.7339817613e-01
 4.3398684788e-01	 1.8920416237e+00	-2.0056008141e-01
 3.9994301837e-01	 1.8995293291e+00	-1.3841763306e-01
 3.6595198672e-01	 1.9063696476e+00	-8.3265282693e-02
 3.3203051122e-01	 1.9125694313e+00	-3.2548307662e-02
 3.2196898058e-01	 1.8546127819e+00	-1.1635036602e-01
 2.8915870648e-01	 1.8600107090e+00	-4.9252690191e-02
 2.5644710327e-01	 1.8648022625e+00	 1.0440855143e-03
 2.2384911351e-01	 1.8689954975e+00	 3.7614837410e-02
 1.9137921709e-01	 1.8725988867e+00	 6.3195640905e-02
 1.5905142048e-01	 1.8756212946e+00	 8.0232965265e-02
 3.2398128671e-01	 1.8662041118e+00	-1.0183004096e-01
 2.9096594840e-01	 1.8716357759e+00	-3.7112931875e-02
 2.5804989767e-01	 1.8764572767e+00	 1.2269869432e-02
 2.2524817047e-01	 1.8806767193e+00	 4.9092786168e-02
 1.9257533720e-01	 1.8843026297e+00	 7.5915044347e-02
 1.6004549186e-01	 1.8873439277e+00	 9.5124568864e-02
 3.2599359284e-01	 1.8777954417e+00	-8.5787744565e-02
 2.9277319031e-01	 1.8832608429e+00	-2.4499292263e-02
 2.5965269206e-01	 1.8881122908e+00	 2.3189869518e-02
 2.2664722743e-01	 1.8923579412e+00	 5.9777764623e-02
 1.9377145730e-01	 1.8960063728e+00	 8.7668259840e-02
 1.6103956324e-01	 1.8990665608e+00	 1.0920958496e-01
 3.2800589896e-01	 1.8893867715e+00	-6.8629896760e-02
 2.9458043223e-01	 1.8948859098e+00	-1.1783035123e-02
 2.6125548646e-01	 1.8997673050e+00	 3.3450807689e-02
 2.2804628439e-01	 1.9040391630e+00	 6.9317088245e-02
 1.9496757741e-01	 1.9077101158e+00	 9.8085652202e-02
 1.6203363461e-01	 1.9107891939e+00	 1.2208379598e-01
 3.3001820509e-01	 1.9009781014e+00	-5.0753863561e-02
 2.9638767414e-01	 1.9065109767e+00	 6.7325980929e-04
 2.6285828085e-01	 1.9114223191e+00	 4.2708072638e-02
 2.2944534135e-01	 1.9157203849e+00	 7.7367087759e-02
 1.9616369752e-01	 1.9194138589e+00	 1.0680732802e-01
 1.6302770599e-01	 1.9225118270e+00	 1.3335384211e-01
 3.3203051122e-01	 1.9125694313e+00	-3.2548307662e-02
 2.9819491606e-01	 1.9181360437e+00	 1.2515371583e-02
 2.6446107525e-01	 1.9230773332e+00	 5.0625407187e-02
 2.3084439831e-01	 1.9274016068e+00	 8.3592796192e-02
 1.9735981762e-01	 1.9311176019e+00	 1.1348280933e-01
 1.6402177737e-01	 1.9342344601e+00	 1.4263686835e-01
 1.5905142048e-01	 1.8756212946e+00	 8.0232965265e-02
 1.2687924764e-01	 1.8780719506e+00	 9.0852812361e-02
 9.4875732393e-02	 1.8799604226e+00	 9.3836324964e-02
 6.3053412304e-02	 1.8812965907e+00	 8.5875121247e-02
 3.1424324022e-02	 1.8820906214e+00	 6.2999495644e-02
 0.0000000000e+00	 1.8823529412e+00	 2.0660700134e-02
 1.6004549186e-01	 1.8873439277e+00	 9.5124568864e-02
 1.2767224294e-01	 1.8898099003e+00	 1.0675831132e-01
 9.5468705720e-02	 1.8917101752e+00	 1.0820717283e-01
 6.3447496131e-02	 1.8930546944e+00	 9.7098259573e-02
 3.1620726047e-02	 1.8938536877e+00	 7.0214214881e-02
 0.0000000000e+00	 1.8941176471e+00	 2.3579591845e-02
 1.6103956324e-01	 1.8990665608e+00	 1.0920958496e-01
 1.2846523824e-01	 1.9015478500e+00	 1.2181194615e-01
 9.6061679048e-02	 1.9034599279e+00	 1.2135198462e-01
 6.3841579958e-02	 1.9048127981e+00	 1.0704022421e-01
 3.1817128072e-02	 1.9056167541e+00	 7.7070564834e-02
 0.0000000000e+00	 1.9058823529e+00	 2.8706949334e-02
 1.6203363461e-01	 1.9107891939e+00	 1.2208379598e-01
 1.2925823353e-01	 1.9132857997e+00	 1.3565538189e-01
 9.6654652375e-02	 1.9152096805e+00	 1.3312860034e-01
 6.4235663785e-02	 1.9165709018e+00	 1.1593278000e-01
 3.2013530097e-02	 1.9173798205e+00	 8.4319342494e-02
 0.0000000000e+00	 1.9176470588e+00	 3.7445000806e-02
 1.6302770599e-01	 1.9225118270e+00	 1.3335384211e-01
 1.3005122883e-01	 1.9250237494e+00	 1.4794026387e-01
 9.7247625702e-02	 1.9269594332e+00	 1.4339978861e-01
 6.4629747612e-02	 1.9283290055e+00	 1.2400371060e-01
 3.2209932123e-02	 1.9291428869e+00	 9.2694914202e-02
 0.0000000000e+00	 1.9294117647e+00	 5.1163874639e-02
 1.6402177737e-01	 1.9342344601e+00	 1.4263686835e-01
 1.3084422413e-01	 1.9367616991e+00	 1.5832789755e-01
 9.7840599030e-02	 1.9387091858e+00	 1.5203308477e-01
 6.5023831438e-02	 1.9400871092e+00	 1.3147693107e-01
 3.2406334148e-02	 1.9409059533e+00	 1.0291570963e-01
 0.0000000000e+00	 1.9411764706e+00	 7.1202572102e-02
 1.9411764706e+00	 0.0000000000e+00	 2.7433106700e+00
 1.9409059533e+00	 3.2406334148e-02	 2.7988963977e+00
 1.9400871092e+00	 6.5023831438e-02	 2.8234651360e+00
 1.9387091858e+00	 9.7840599030e-02	 2.8238322590e+00
 1.9367616991e+00	 1.3084422413e-01	 2.8075059713e+00
 1.9342344601e+00	 1.6402177737e-01	 2.7826221015e+00
 1.9529411765e+00	 0.0000000000e+00	 2.7131075054e+00
 1.9526690197e+00	 3.2602736173e-02	 2.7808847120e+00
 1.9518452129e+00	 6.5417915265e-02	 2.8100263945e+00
 1.9504589385e+00	 9.8433572357e-02	 2.8098023225e+00
 1.9484996488e+00	 1.3163721943e-01	 2.7900949175e+00
 1.9459570932e+00	 1.6501584875e-01	 2.7613175163e+00
 1.9647058824e+00	 0.0000000000e+00	 2.6932676006e+00
 1.9644320860e+00	 3.2799138198e-02	 2.7691509921e+00
 1.9636033166e+00	 6.5811999092e-02	 2.7996766553e+00
 1.9622086911e+00	 9.9026545685e-02	 2.7965789058e+00
 1.9602375985e+00	 1.3243021473e-01	 2.7719855975e+00
 1.9576797263e+00	 1.6600992013e-01	 2.7383136946e+00
 1.9764705882e+00	 0.0000000000e+00	 2.6796484273e+00
 1.9761951524e+00	 3.2995540223e-02	 2.7619938708e+00
 1.9753614203e+00	 6.6206082919e-02	 2.7924460435e+00
 1.9739584437e+00	 9.9619519012e-02	 2.7852115417e+00
 1.9719755481e+00	 1.3322321002e-01	 2.7545340694e+00
 1.9694023593e+00	 1.6700399150e-01	 2.7145612274e+00
 1.9882352941e+00	 0.0000000000e+00	 2.6682061361e+00
 1.9879582188e+00	 3.3191942248e-02	 2.7577535357e+00
 1.9871195240e+00	 6.6600166746e-02	 2.7883658699e+00
 1.9857081964e+00	 1.0021249234e-01	 2.7767273835e+00
 1.9837134978e+00	 1.3401620532e-01	 2.7390672649e+00
 1.9811249924e+00	 1.6799806288e-01	 2.6909916253e+00
 2.0000000000e+00	 0.0000000000e+00	 2.6549926543e+00
 1.9997212852e+00	 3.3388344273e-02	 2.7548105188e+00
 1.9988776277e+00	 6.6994250573e-02	 2.7874686152e+00
 1.9974579490e+00	 1.0080546567e-01	 2.7721318870e+00
 1.9954514475e+00	 1.3480920062e-01	 2.7268838698e+00
 1.9928476255e+00	 1.6899213426e-01	 2.6685178987e+00
 1.9342344601e+00	 1.6402177737e-01	 2.7826221015e+00
 1.9311176019e+00	 1.9735981762e-01	 2.7479092103e+00
 1.9274016068e+00	 2.3084439831e-01	 2.6973485990e+00
 1.9230773332e+00	 2.6446107525e-01	 2.6324279677e+00
 1.9181360437e+00	 2.9819491606e-01	 2.5546575156e+00
 1.9125694313e+00	 3.3203051122e-01	 2.4655336464e+00
 1.9459570932e+00	 1.6501584875e-01	 2.7613175163e+00
 1.9428213449e+00	 1.9855593773e-01	 2.7235891545e+00
 1.9390828286e+00	 2.3224345527e-01	 2.6707445672e+00
 1.9347323474e+00	 2.6606386964e-01	 2.6041330984e+00
 1.9297611106e+00	 3.0000215798e-01	 2.5250885477e+00
 1.9241607612e+00	 3.3404281735e-01	 2.4348915026e+00
 1.9576797263e+00	 1.6600992013e-01	 2.7383136946e+00
 1.9545250880e+00	 1.9975205784e-01	 2.6972754635e+00
 1.9507640505e+00	 2.3364251223e-01	 2.6426978121e+00
 1.9463873615e+00	 2.6766666404e-01	 2.5753338801e+00
 1.9413861775e+00	 3.0180939989e-01	 2.4959187613e+00
 1.9357520911e+00	 3.3605512348e-01	 2.4051342453e+00
 1.9694023593e+00	 1.6700399150e-01	 2.7145612274e+00
 1.9662288310e+00	 2.0094817794e-01	 2.6692654863e+00
 1.9624452723e+00	 2.3504156919e-01	 2.6130736074e+00
 1.9580423757e+00	 2.6926945843e-01	 2.5456937098e+00
 1.9530112445e+00	 3.0361664181e-01	 2.4668485409e+00
 1.9473434210e+00	 3.3806742961e-01	 2.3762463736e+00
 1.9811249924e+00	 1.6799806288e-01	 2.6909916253e+00
 1.9779325741e+00	 2.0214429805e-01	 2.6398533382e+00
 1.9741264942e+00	 2.3644062615e-01	 2.5817445413e+00
 1.9696973898e+00	 2.7087225283e-01	 2.5148883332e+00
 1.9646363114e+00	 3.0542388372e-01	 2.4375899368e+00
 1.9589347509e+00	 3.4007973574e-01	 2.3482174602e+00
 1.9928476255e+00	 1.6899213426e-01	 2.6685178987e+00
 1.9896363171e+00	 2.0334041816e-01	 2.6093300072e+00
 1.9858077161e+00	 2.3783968311e-01	 2.5485902991e+00
 1.9813524040e+00	 2.7247504722e-01	 2.4826054629e+00
 1.9762613783e+00	 3.0723112564e-01	 2.4078662833e+00
 1.9705260807e+00	 3.4209204186e-01	 2.3210419387e+00
 1.9125694313e+00	 3.3203051122e-01	 2.4655336464e+00
 1.9063696476e+00	 3.6595198672e-01	 2.3666733949e+00
 1.8995293291e+00	 3.9994301837e-01	 2.2591256508e+00
 1.8920416237e+00	 4.3398684788e-01	 2.1436432604e+00
 1.8839002172e+00	 4.6806630045e-01	 2.0211744530e+00
 1.8750993584e+00	 5.0216380421e-01	 1.8928878163e+00
 1.9241607612e+00	 3.3404281735e-01	 2.4348915026e+00
 1.9179234031e+00	 3.6816987754e-01	 2.3355498718e+00
 1.9110416280e+00	 4.0236691545e-01	 2.2285333900e+00
 1.9035085426e+00	 4.3661707120e-01	 2.1143429424e+00
 1.8953177943e+00	 4.7090306590e-01	 1.9936053751e+00
 1.8864635969e+00	 5.0520722120e-01	 1.8670965742e+00
 1.9357520911e+00	 3.3605512348e-01	 2.4051342453e+00
 1.9294771585e+00	 3.7038776837e-01	 2.3050011702e+00
 1.9225539270e+00	 4.0479081254e-01	 2.1975352662e+00
 1.9149754616e+00	 4.3924729452e-01	 2.0833735825e+00
 1.9067353713e+00	 4.7373983136e-01	 1.9631869939e+00
 1.8978278354e+00	 5.0825063820e-01	 1.8376984594e+00
 1.9473434210e+00	 3.3806742961e-01	 2.3762463736e+00
 1.9410309139e+00	 3.7260565920e-01	 2.2753590618e+00
 1.9340662260e+00	 4.0721470962e-01	 2.1666792079e+00
 1.9264423805e+00	 4.4187751784e-01	 2.0513608034e+00
 1.9181529484e+00	 4.7657659682e-01	 1.9304770731e+00
 1.9091920740e+00	 5.1129405519e-01	 1.8050310124e+00
 1.9589347509e+00	 3.4007973574e-01	 2.3482174602e+00
 1.9525846694e+00	 3.7482355003e-01	 2.2469522499e+00
 1.9455785249e+00	 4.0963860670e-01	 2.1365049870e+00
 1.9379092994e+00	 4.4450774116e-01	 2.0189202205e+00
 1.9295705255e+00	 4.7941336227e-01	 1.8960249324e+00
 1.9205563125e+00	 5.1433747219e-01	 1.7694284800e+00
 1.9705260807e+00	 3.4209204186e-01	 2.3210419387e+00
 1.9641384248e+00	 3.7704144086e-01	 2.2201063672e+00
 1.9570908239e+00	 4.1206250378e-01	 2.1075443347e+00
 1.9493762184e+00	 4.4713796448e-01	 1.9866575758e+00
 1.9409881026e+00	 4.8225012773e-01	 1.8603714968e+00
 1.9319205510e+00	 5.1738088918e-01	 1.7312216719e+00
 1.8750993584e+00	 5.0216380421e-01	 1.8928878163e+00
 1.8656338839e+00	 5.3626141124e-01	 1.7547605228e+00
 1.8554992424e+00	 5.7034082026e-01	 1.6042594518e+00
 1.8446915175e+00	 6.0438340096e-01	 1.4461085107e+00
 1.8332074494e+00	 6.3837021987e-01	 1.2898543616e+00
 1.8210444561e+00	 6.7228206786e-01	 1.1430833961e+00
 1.8864635969e+00	 5.0520722120e-01	 1.8670965742e+00
 1.8769407559e+00	 5.3951148040e-01	 1.7309059445e+00
 1.8667446924e+00	 5.7379743130e-01	 1.5824260637e+00
 1.8558714661e+00	 6.0804633066e-01	 1.4261950329e+00
 1.8443177975e+00	 6.4223913029e-01	 1.2723566929e+00
 1.8320810892e+00	 6.7635650464e-01	 1.1278616608e+00
 1.8978278354e+00	 5.0825063820e-01	 1.8376984594e+00
 1.8882476280e+00	 5.4276154956e-01	 1.7034615132e+00
 1.8779901424e+00	 5.7725404233e-01	 1.5577063058e+00
 1.8670514146e+00	 6.1170926036e-01	 1.4046937434e+00
 1.8554281457e+00	 6.4610804071e-01	 1.2546093733e+00
 1.8431177223e+00	 6.8043094141e-01	 1.1134071688e+00
 1.9091920740e+00	 5.1129405519e-01	 1.8050310124e+00
 1.8995545000e+00	 5.4601161872e-01	 1.6725101928e+00
 1.8892355923e+00	 5.8071065336e-01	 1.5300208247e+00
 1.8782313632e+00	 6.1537219006e-01	 1.3814823443e+00
 1.8665384939e+00	 6.4997695114e-01	 1.2364939106e+00
 1.8541543553e+00	 6.8450537819e-01	 1.0997138420e+00
 1.9205563125e+00	 5.1433747219e-01	 1.7694284800e+00
 1.9108613720e+00	 5.4926168788e-01	 1.6381376118e+00
 1.9004810423e+00	 5.8416726439e-01	 1.4992967133e+00
 1.8894113118e+00	 6.1903511977e-01	 1.3564382013e+00
 1.8776488421e+00	 6.5384586156e-01	 1.2178911269e+00
 1.8651909884e+00	 6.8857981496e-01	 1.0867720214e+00
 1.9319205510e+00	 5.1738088918e-01	 1.7312216719e+00
 1.9221682440e+00	 5.5251175704e-01	 1.6004316992e+00
 1.9117264922e+00	 5.8762387542e-01	 1.4654669895e+00
 1.9005912604e+00	 6.2269804947e-01	 1.3294382136e+00
 1.8887591902e+00	 6.5771477198e-01	 1.1986810542e+00
 1.8762276215e+00	 6.9265425174e-01	 1.0745684638e+00
 1.8210444561e+00	 6.7228206786e-01	 1.1430833961e+00
 1.8082006530e+00	 7.0609948907e-01	 1.0056464393e+00
 1.7946748704e+00	 7.3980281123e-01	 8.6971241053e-01
 1.7804666706e+00	 7.7337217741e-01	 7.3080604666e-01
 1.7655763627e+00	 8.0678757896e-01	 5.8455786561e-01
 1.7500050156e+00	 8.4002888966e-01	 4.3957386581e-01
 1.8320810892e+00	 6.7635650464e-01	 1.1278616608e+00
 1.8191594448e+00	 7.1037887991e-01	 9.9349796426e-01
 1.8055516878e+00	 7.4428646463e-01	 8.6294871298e-01
 1.7912573777e+00	 7.7805928151e-01	 7.3208737796e-01
 1.7762768255e+00	 8.1167720065e-01	 5.9690482191e-01
 1.7606111066e+00	 8.4511997384e-01	 4.5439518543e-01
 1.8431177223e+00	 6.8043094141e-01	 1.1134071688e+00
 1.8301182367e+00	 7.1465827075e-01	 9.8254129307e-01
 1.8164285052e+00	 7.4877011803e-01	 8.5719820185e-01
 1.8020480848e+00	 7.8274638562e-01	 7.3370304037e-01
 1.7869772883e+00	 8.1656682234e-01	 6.0849623585e-01
 1.7712171976e+00	 8.5021105802e-01	 4.7801207615e-01
 1.8541543553e+00	 6.8450537819e-01	 1.0997138420e+00
 1.8410770285e+00	 7.1893766160e-01	 9.7290659068e-01
 1.8273053226e+00	 7.5325377143e-01	 8.5266126774e-01
 1.8128387919e+00	 7.8743348973e-01	 7.3585550039e-01
 1.7976777511e+00	 8.2145644403e-01	 6.1946656596e-01
 1.7818232886e+00	 8.5530214220e-01	 5.0044369425e-01
 1.8651909884e+00	 6.8857981496e-01	 1.0867720214e+00
 1.8520358203e+00	 7.2321705244e-01	 9.6471699463e-01
 1.8381821400e+00	 7.5773742484e-01	 8.4952939080e-01
 1.8236294990e+00	 7.9212059383e-01	 7.3873803444e-01
 1.8083782139e+00	 8.2634606572e-01	 6.2994244067e-01
 1.7924293796e+00	 8.6039322638e-01	 5.2067798173e-01
 1.8762276215e+00	 6.9265425174e-01	 1.0745684638e+00
 1.8629946122e+00	 7.2749644328e-01	 9.5808872899e-01
 1.8490589574e+00	 7.6222107824e-01	 8.4798532527e-01
 1.8344202061e+00	 7.9680769794e-01	 7.4253493577e-01
 1.8190786767e+00	 8.3123568741e-01	 6.4004283805e-01
 1.8030354706e+00	 8.6548431056e-01	 5.3870008861e-01
 1.7500050156e+00	 8.4002888966e-01	 4.3957386581e-01
 1.7337544697e+00	 8.7307590092e-01	 3.0592279432e-01
 1.7168273463e+00	 9.0590835794e-01	 1.7983348543e-01
 1.6992270549e+00	 9.3850599669e-01	 5.7100625044e-02
 1.6809577988e+00	 9.7084858165e-01	-6.8004988142e-02
 1.6620245784e+00	 1.0029159440e+00	-2.0258327556e-01
 1.7606111066e+00	 8.4511997384e-01	 4.5439518543e-01
 1.7442620725e+00	 8.7836727002e-01	 3.2006292420e-01
 1.7272323605e+00	 9.1139871162e-01	 1.9690456803e-01
 1.7095254007e+00	 9.4419391182e-01	 7.9640799400e-02
 1.6911454219e+00	 9.7673251244e-01	-3.8440142049e-02
 1.6720974546e+00	 1.0089942225e+00	-1.6532211437e-01
 1.7712171976e+00	 8.5021105802e-01	 4.7801207615e-01
 1.7547696754e+00	 8.8365863911e-01	 3.4297630929e-01
 1.7376373747e+00	 9.1688906531e-01	 2.2087298826e-01
 1.7198237465e+00	 9.4988182695e-01	 1.0786680681e-01
 1.7013330449e+00	 9.8261644324e-01	-3.7192747611e-03
 1.6821703309e+00	 1.0150725009e+00	-1.2271586293e-01
 1.7818232886e+00	 8.5530214220e-01	 5.0044369425e-01
 1.7652772782e+00	 8.8895000821e-01	 3.7429865074e-01
 1.7480423890e+00	 9.2237941899e-01	 2.5134887564e-01
 1.7301220923e+00	 9.5556974209e-01	 1.4143982505e-01
 1.7115206679e+00	 9.8850037404e-01	 3.5964932045e-02
 1.6922432071e+00	 1.0211507794e+00	-7.4715367727e-02
 1.7924293796e+00	 8.6039322638e-01	 5.2067798173e-01
 1.7757848811e+00	 8.9424137730e-01	 4.0720525478e-01
 1.7584474032e+00	 9.2786977267e-01	 2.8794626737e-01
 1.7404204381e+00	 9.6125765722e-01	 1.8002213911e-01
 1.7217082909e+00	 9.9438430484e-01	 8.0416124150e-02
 1.7023160833e+00	 1.0272290578e+00	-2.1281884686e-02
 1.8030354706e+00	 8.6548431056e-01	 5.3870008861e-01
 1.7862924839e+00	 8.9953274640e-01	 4.3623923843e-01
 1.7688524174e+00	 9.3336012636e-01	 3.2946553274e-01
 1.7507187838e+00	 9.6694557235e-01	 2.2327585370e-01
 1.7318959140e+00	 1.0002682356e+00	 1.2943305436e-01
 1.7123889596e+00	 1.0333073363e+00	 3.7611834211e-02
 1.6620245784e+00	 1.0029159440e+00	-2.0258327556e-01
 1.6424331920e+00	 1.0346880206e+00	-3.3115810715e-01
 1.6221902349e+00	 1.0661448925e+00	-4.3929705647e-01
 1.6013030961e+00	 1.0972668246e+00	-5.3786208635e-01
 1.5797799523e+00	 1.1280343045e+00	-6.3909725900e-01
 1.5576297601e+00	 1.1584280817e+00	-7.5613891369e-01
 1.6720974546e+00	 1.0089942225e+00	-1.6532211437e-01
 1.6523873325e+00	 1.0409588571e+00	-2.8891016370e-01
 1.6320216909e+00	 1.0726063767e+00	-3.9698498322e-01
 1.6110079634e+00	 1.1039169265e+00	-4.9965601225e-01
 1.5893543763e+00	 1.1348708761e+00	-6.0867344667e-01
 1.5670699404e+00	 1.1654488580e+00	-7.3693369554e-01
 1.6821703309e+00	 1.0150725009e+00	-1.2271586293e-01
 1.6623414731e+00	 1.0472296935e+00	-2.4117484339e-01
 1.6418531469e+00	 1.0790678609e+00	-3.4977316557e-01
 1.6207128306e+00	 1.1105670285e+00	-4.5770690458e-01
 1.5989288002e+00	 1.1417074476e+00	-5.7609264790e-01
 1.5765101208e+00	 1.1724696342e+00	-7.1746917562e-01
 1.6922432071e+00	 1.0211507794e+00	-7.4715367727e-02
 1.6722956136e+00	 1.0535005300e+00	-1.8764149738e-01
 1.6516846028e+00	 1.0855293450e+00	-2.9714778584e-01
 1.6304176979e+00	 1.1172171305e+00	-4.1135872252e-01
 1.6085032242e+00	 1.1485440191e+00	-5.4062014685e-01
 1.5859503011e+00	 1.1794904105e+00	-6.9675494487e-01
 1.7023160833e+00	 1.0272290578e+00	-2.1281884686e-02
 1.6822497542e+00	 1.0597713665e+00	-1.2801675022e-01
 1.6615160588e+00	 1.0919908292e+00	-2.3861742134e-01
 1.6401225651e+00	 1.1238672324e+00	-3.5998112075e-01
 1.6180776481e+00	 1.1553805907e+00	-5.0154833173e-01
 1.5953904815e+00	 1.1865111868e+00	-6.7222038019e-01
 1.7123889596e+00	 1.0333073363e+00	 3.7611834211e-02
 1.6922038947e+00	 1.0660422030e+00	-6.2025439086e-02
 1.6713475148e+00	 1.0984523134e+00	-1.7371387668e-01
 1.6498274324e+00	 1.1305173344e+00	-3.0297021716e-01
 1.6276520721e+00	 1.1622171622e+00	-4.5819744192e-01
 1.6048306619e+00	 1.1935319630e+00	-6.4304768609e-01
 1.5576297601e+00	 1.1584280817e+00	-7.5613891369e-01
 1.5348622453e+00	 1.1884292061e+00	-9.0440238429e-01
 1.5114878911e+00	 1.2180190659e+00	-1.0562295088e+00
 1.4875179225e+00	 1.2471794258e+00	-1.2016261711e+00
 1.4629642895e+00	 1.2758924632e+00	-1.3402944895e+00
 1.4378396478e+00	 1.3041408042e+00	-1.4720425829e+00
 1.5670699404e+00	 1.1654488580e+00	-7.3693369554e-01
 1.5441644408e+00	 1.1956318073e+00	-8.9257810705e-01
 1.5206484238e+00	 1.2254009996e+00	-1.0473832275e+00
 1.4965331827e+00	 1.2547380890e+00	-1.1976235143e+00
 1.4718307397e+00	 1.2836251448e+00	-1.3429995105e+00
 1.4465538275e+00	 1.3120446879e+00	-1.4832724128e+00
 1.5765101208e+00	 1.1724696342e+00	-7.1746917562e-01
 1.5534666362e+00	 1.2028344086e+00	-8.7945998984e-01
 1.5298089565e+00	 1.2327829334e+00	-1.0387733576e+00
 1.5055484428e+00	 1.2622967522e+00	-1.1949087304e+00
 1.4806971900e+00	 1.2913578264e+00	-1.3476862696e+00
 1.4552680071e+00	 1.3199485715e+00	-1.4969406691e+00
 1.5859503011e+00	 1.1794904105e+00	-6.9675494487e-01
 1.5627688316e+00	 1.2100370098e+00	-8.6465614799e-01
 1.5389694892e+00	 1.2401648671e+00	-1.0300581585e+00
 1.5145637029e+00	 1.2698554154e+00	-1.1931948337e+00
 1.4895636402e+00	 1.2990905080e+00	-1.3541253589e+00
 1.4639821868e+00	 1.3278524552e+00	-1.5128764549e+00
 1.5953904815e+00	 1.1865111868e+00	-6.7222038019e-01
 1.5720710270e+00	 1.2172396111e+00	-8.4780436491e-01
 1.5481300218e+00	 1.2475468008e+00	-1.0209236169e+00
 1.5235789631e+00	 1.2774140785e+00	-1.1922206411e+00
 1.4984300904e+00	 1.3068231896e+00	-1.3621113077e+00
 1.4726963665e+00	 1.3357563389e+00	-1.5309310453e+00
 1.6048306619e+00	 1.1935319630e+00	-6.4304768609e-01
 1.5813732225e+00	 1.2244422123e+00	-8.2857087267e-01
 1.5572905545e+00	 1.2549287346e+00	-1.0110822720e+00
 1.5325942232e+00	 1.2849727417e+00	-1.1917496488e+00
 1.5072965407e+00	 1.3145558712e+00	-1.3714615161e+00
 1.4814105462e+00	 1.3436602225e+00	-1.5509768815e+00
 1.4378396478e+00	 1.3041408042e+00	-1.4720425829e+00
 1.4121573376e+00	 1.3319075583e+00	-1.6027505173e+00
 1.3859313600e+00	 1.3591763518e+00	-1.7347456849e+00
 1.3591763518e+00	 1.3859313600e+00	-1.8626362608e+00
 1.3319075583e+00	 1.4121573376e+00	-1.9811751335e+00
 1.3041408042e+00	 1.4378396478e+00	-2.0855186640e+00
 1.4465538275e+00	 1.3120446879e+00	-1.4832724128e+00
 1.4207158669e+00	 1.3399797253e+00	-1.6228407962e+00
 1.3943309440e+00	 1.3674137843e+00	-1.7627828962e+00
 1.3674137843e+00	 1.3943309440e+00	-1.8979876753e+00
 1.3399797253e+00	 1.4207158669e+00	-2.0235081989e+00
 1.3120446879e+00	 1.4465538275e+00	-2.1348298293e+00
 1.4552680071e+00	 1.3199485715e+00	-1.4969406691e+00
 1.4292743962e+00	 1.3480518924e+00	-1.6457525504e+00
 1.4027305280e+00	 1.3756512167e+00	-1.7940473371e+00
 1.3756512167e+00	 1.4027305280e+00	-1.9370105446e+00
 1.3480518924e+00	 1.4292743962e+00	-2.0700073815e+00
 1.3199485715e+00	 1.4552680071e+00	-2.1888607309e+00
 1.4639821868e+00	 1.3278524552e+00	-1.5128764549e+00
 1.4378329255e+00	 1.3561240594e+00	-1.6713671276e+00
 1.4111301120e+00	 1.3838886491e+00	-1.8284602214e+00
 1.3838886491e+00	 1.4111301120e+00	-1.9796532206e+00
 1.3561240594e+00	 1.4378329255e+00	-2.1206350748e+00
 1.3278524552e+00	 1.4639821868e+00	-2.2475743322e+00
 1.4726963665e+00	 1.3357563389e+00	-1.5309310453e+00
 1.4463914548e+00	 1.3641962264e+00	-1.6995865451e+00
 1.4195296960e+00	 1.3921260816e+00	-1.8659623257e+00
 1.3921260816e+00	 1.4195296960e+00	-2.0258828998e+00
 1.3641962264e+00	 1.4463914548e+00	-2.1753721764e+00
 1.3357563389e+00	 1.4726963665e+00	-2.3109521258e+00
 1.4814105462e+00	 1.3436602225e+00	-1.5509768815e+00
 1.4549499842e+00	 1.3722683934e+00	-1.7303325435e+00
 1.4279292800e+00	 1.4003635140e+00	-1.9065130973e+00
 1.4003635140e+00	 1.4279292800e+00	-2.0756847782e+00
 1.3722683934e+00	 1.4549499842e+00	-2.2342172855e+00
 1.3436602225e+00	 1.4814105462e+00	-2.3789933673e+00
 1.3041408042e+00	 1.4378396478e+00	-2.0855186640e+00
 1.2758924632e+00	 1.4629642895e+00	-2.1813519661e+00
 1.2471794258e+00	 1.4875179225e+00	-2.2732296052e+00
 1.2180190659e+00	 1.5114878911e+00	-2.3551420049e+00
 1.1884292061e+00	 1.5348622453e+00	-2.4213726455e+00
 1.1584280817e+00	 1.5576297601e+00	-2.4624855956e+00
 1.3120446879e+00	 1.4465538275e+00	-2.1348298293e+00
 1.2836251448e+00	 1.4718307397e+00	-2.2358293087e+00
 1.2547380890e+00	 1.4965331827e+00	-2.3295101051e+00
 1.2254009996e+00	 1.5206484238e+00	-2.4106623246e+00
 1.1956318073e+00	 1.5441644408e+00	-2.4744510933e+00
 1.1654488580e+00	 1.5670699404e+00	-2.5150188859e+00
 1.3199485715e+00	 1.4552680071e+00	-2.1888607309e+00
 1.2913578264e+00	 1.4806971900e+00	-2.2956757035e+00
 1.2622967522e+00	 1.5055484428e+00	-2.3918520085e+00
 1.2327829334e+00	 1.5298089565e+00	-2.4728628141e+00
 1.2028344086e+00	 1.5534666362e+00	-2.5346541924e+00
 1.1724696342e+00	 1.5765101208e+00	-2.5736681249e+00
 1.3278524552e+00	 1.4639821868e+00	-2.2475743322e+00
 1.2990905080e+00	 1.4895636402e+00	-2.3608724464e+00
 1.2698554154e+00	 1.5145637029e+00	-2.4603055415e+00
 1.2401648671e+00	 1.5389694892e+00	-2.5419151344e+00
 1.2100370098e+00	 1.5627688316e+00	-2.6023292924e+00
 1.1794904105e+00	 1.5859503011e+00	-2.6390158055e+00
 1.3357563389e+00	 1.4726963665e+00	-2.3109521258e+00
 1.3068231896e+00	 1.4984300904e+00	-2.4314189911e+00
 1.2774140785e+00	 1.5235789631e+00	-2.5349375184e+00
 1.2475468008e+00	 1.5481300218e+00	-2.6180046950e+00
 1.2172396111e+00	 1.5720710270e+00	-2.6778333154e+00
 1.1865111868e+00	 1.5953904815e+00	-2.7126141333e+00
 1.3436602225e+00	 1.4814105462e+00	-2.3789933673e+00
 1.3145558712e+00	 1.5072965407e+00	-2.5073322344e+00
 1.2849727417e+00	 1.5325942232e+00	-2.6158307162e+00
 1.2549287346e+00	 1.5572905545e+00	-2.7013301585e+00
 1.2244422123e+00	 1.5813732225e+00	-2.7615324317e+00
 1.1935319630e+00	 1.6048306619e+00	-2.7952720464e+00
 1.1584280817e+00	 1.5576297601e+00	-2.4624855956e+00
 1.1280343045e+00	 1.5797799523e+00	-2.4703181107e+00
 1.0972668246e+00	 1.6013030961e+00	-2.4567129726e+00
 1.0661448925e+00	 1.6221902349e+00	-2.4254839610e+00
 1.0346880206e+00	 1.6424331920e+00	-2.3809073063e+00
 1.0029159440e+00	 1.6620245784e+00	-2.3271356480e+00
 1.1654488580e+00	 1.5670699404e+00	-2.5150188859e+00
 1.1348708761e+00	 1.5893543763e+00	-2.5229548511e+00
 1.1039169265e+00	 1.6110079634e+00	-2.5062974517e+00
 1.0726063767e+00	 1.6320216909e+00	-2.4689526503e+00
 1.0409588571e+00	 1.6523873325e+00	-2.4150799794e+00
 1.0089942225e+00	 1.6720974546e+00	-2.3484870568e+00
 1.1724696342e+00	 1.5765101208e+00	-2.5736681249e+00
 1.1417074476e+00	 1.5989288002e+00	-2.5815945402e+00
 1.1105670285e+00	 1.6207128306e+00	-2.5606741119e+00
 1.0790678609e+00	 1.6418531469e+00	-2.5153422530e+00
 1.0472296935e+00	 1.6623414731e+00	-2.4500387546e+00
 1.0150725009e+00	 1.6821703309e+00	-2.3685804406e+00
 1.1794904105e+00	 1.5859503011e+00	-2.6390158055e+00
 1.1485440191e+00	 1.6085032242e+00	-2.6468800269e+00
 1.1172171305e+00	 1.6304176979e+00	-2.6205376090e+00
 1.0855293450e+00	 1.6516846028e+00	-2.5652549786e+00
 1.0535005300e+00	 1.6722956136e+00	-2.4861440709e+00
 1.0211507794e+00	 1.6922432071e+00	-2.3873805141e+00
 1.1865111868e+00	 1.5953904815e+00	-2.7126141333e+00
 1.1553805907e+00	 1.6180776481e+00	-2.7194595888e+00
 1.1238672324e+00	 1.6401225651e+00	-2.6865835553e+00
 1.0919908292e+00	 1.6615160588e+00	-2.6192928294e+00
 1.0597713665e+00	 1.6822497542e+00	-2.5237584873e+00
 1.0272290578e+00	 1.7023160833e+00	-2.4048601001e+00
 1.1935319630e+00	 1.6048306619e+00	-2.7952720464e+00
 1.1622171622e+00	 1.6276520721e+00	-2.7999884076e+00
 1.1305173344e+00	 1.6498274324e+00	-2.7595100124e+00
 1.0984523134e+00	 1.6713475148e+00	-2.6780590102e+00
 1.0660422030e+00	 1.6922038947e+00	-2.5632479052e+00
 1.0333073363e+00	 1.7123889596e+00	-2.4210010569e+00
 1.0029159440e+00	 1.6620245784e+00	-2.3271356480e+00
 9.7084858165e-01	 1.6809577988e+00	-2.2493801727e+00
 9.3850599669e-01	 1.6992270549e+00	-2.1388586446e+00
 9.0590835794e-01	 1.7168273463e+00	-2.0075208848e+00
 8.7307590092e-01	 1.7337544697e+00	-1.8659086359e+00
 8.4002888966e-01	 1.7500050156e+00	-1.7227584727e+00
 1.0089942225e+00	 1.6720974546e+00	-2.3484870568e+00
 9.7673251244e-01	 1.6911454219e+00	-2.2561865108e+00
 9.4419391182e-01	 1.7095254007e+00	-2.1324234503e+00
 9.1139871162e-01	 1.7272323605e+00	-1.9905092671e+00
 8.7836727002e-01	 1.7442620725e+00	-1.8423916833e+00
 8.4511997384e-01	 1.7606111066e+00	-1.6982329240e+00
 1.0150725009e+00	 1.6821703309e+00	-2.3685804406e+00
 9.8261644324e-01	 1.7013330449e+00	-2.2608199920e+00
 9.4988182695e-01	 1.7198237465e+00	-2.1245893769e+00
 9.1688906531e-01	 1.7376373747e+00	-1.9741858245e+00
 8.8365863911e-01	 1.7547696754e+00	-1.8226172505e+00
 8.5021105802e-01	 1.7712171976e+00	-1.6784301953e+00
 1.0211507794e+00	 1.6922432071e+00	-2.3873805141e+00
 9.8850037404e-01	 1.7115206679e+00	-2.2628265022e+00
 9.5556974209e-01	 1.7301220923e+00	-2.1145991405e+00
 9.2237941899e-01	 1.7480423890e+00	-1.9576129473e+00
 8.8895000821e-01	 1.7652772782e+00	-1.8055790052e+00
 8.5530214220e-01	 1.7818232886e+00	-1.6521713032e+00
 1.0272290578e+00	 1.7023160833e+00	-2.4048601001e+00
 9.9438430484e-01	 1.7217082909e+00	-2.2617666466e+00
 9.6125765722e-01	 1.7404204381e+00	-2.1017141791e+00
 9.2786977267e-01	 1.7584474032e+00	-1.9398730235e+00
 8.9424137730e-01	 1.7757848811e+00	-1.7837979696e+00
 8.6039322638e-01	 1.7924293796e+00	-1.6183567036e+00
 1.0333073363e+00	 1.7123889596e+00	-2.4210010569e+00
 1.0002682356e+00	 1.7318959140e+00	-2.2572163629e+00
 9.6694557235e-01	 1.7507187838e+00	-2.0852150323e+00
 9.3336012636e-01	 1.7688524174e+00	-1.9193104392e+00
 8.9953274640e-01	 1.7862924839e+00	-1.7516739169e+00
 8.6548431056e-01	 1.8030354706e+00	-1.5770011317e+00
 8.4002888966e-01	 1.7500050156e+00	-1.7227584727e+00
 8.0678757896e-01	 1.7655763627e+00	-1.5857721361e+00
 7.7337217741e-01	 1.7804666706e+00	-1.4471801046e+00
 7.3980281123e-01	 1.7946748704e+00	-1.2999365579e+00
 7.0609948907e-01	 1.8082006530e+00	-1.1512916482e+00
 6.7228206786e-01	 1.8210444561e+00	-1.0083807898e+00
 8.4511997384e-01	 1.7606111066e+00	-1.6982329240e+00
 8.1167720065e-01	 1.7762768255e+00	-1.5582291997e+00
 7.7805928151e-01	 1.7912573777e+00	-1.4079947383e+00
 7.4428646463e-01	 1.8055516878e+00	-1.2534069456e+00
 7.1037887991e-01	 1.8191594448e+00	-1.1012231838e+00
 6.7635650464e-01	 1.8320810892e+00	-9.5804137398e-01
 8.5021105802e-01	 1.7712171976e+00	-1.6784301953e+00
 8.1656682234e-01	 1.7869772883e+00	-1.5255639922e+00
 7.8274638562e-01	 1.8020480848e+00	-1.3654569568e+00
 7.4877011803e-01	 1.8164285052e+00	-1.2046110072e+00
 7.1465827075e-01	 1.8301182367e+00	-1.0492359918e+00
 6.8043094141e-01	 1.8431177223e+00	-9.0531738531e-01
 8.5530214220e-01	 1.7818232886e+00	-1.6521713032e+00
 8.2145644403e-01	 1.7976777511e+00	-1.4878533027e+00
 7.8743348973e-01	 1.8128387919e+00	-1.3196393854e+00
 7.5325377143e-01	 1.8273053226e+00	-1.1535232097e+00
 7.1893766160e-01	 1.8410770285e+00	-9.9511363172e-01
 6.8450537819e-01	 1.8541543553e+00	-8.4971026315e-01
 8.6039322638e-01	 1.7924293796e+00	-1.6183567036e+00
 8.2634606572e-01	 1.8083782139e+00	-1.4451861557e+00
 7.9212059383e-01	 1.8236294990e+00	-1.2706266478e+00
 7.5773742484e-01	 1.8381821400e+00	-1.1001319455e+00
 7.2321705244e-01	 1.8520358203e+00	-9.3865763903e-01
 6.8857981496e-01	 1.8651909884e+00	-7.9074555406e-01
 8.6548431056e-01	 1.8030354706e+00	-1.5770011317e+00
 8.3123568741e-01	 1.8190786767e+00	-1.3976633085e+00
 7.9680769794e-01	 1.8344202061e+00	-1.2185149120e+00
 7.6222107824e-01	 1.8490589574e+00	-1.0444390590e+00
 7.2749644328e-01	 1.8629946122e+00	-8.7968696826e-01
 6.9265425174e-01	 1.8762276215e+00	-7.2797220732e-01
 6.7228206786e-01	 1.8210444561e+00	-1.0083807898e+00
 6.3837021987e-01	 1.8332074494e+00	-8.7180583450e-01
 6.0438340096e-01	 1.8446915175e+00	-7.3267147473e-01
 5.7034082026e-01	 1.8554992424e+00	-5.8974260021e-01
 5.3626141124e-01	 1.8656338839e+00	-4.6701759372e-01
 5.0216380421e-01	 1.8750993584e+00	-3.6191554416e-01
 6.7635650464e-01	 1.8320810892e+00	-9.5804137398e-01
 6.4223913029e-01	 1.8443177975e+00	-8.2370895949e-01
 6.0804633066e-01	 1.8558714661e+00	-6.8853135806e-01
 5.7379743130e-01	 1.8667446924e+00	-5.4860563982e-01
 5.3951148040e-01	 1.8769407559e+00	-4.2705986186e-01
 5.0520722120e-01	 1.8864635969e+00	-3.2334131507e-01
 6.8043094141e-01	 1.8431177223e+00	-9.0531738531e-01
 6.4610804071e-01	 1.8554281457e+00	-7.7225186069e-01
 6.1170926036e-01	 1.8670514146e+00	-6.4007078697e-01
 5.7725404233e-01	 1.8779901424e+00	-5.0298007141e-01
 5.4276154956e-01	 1.8882476280e+00	-3.8262610639e-01
 5.0825063820e-01	 1.8978278354e+00	-2.8118854188e-01
 6.8450537819e-01	 1.8541543553e+00	-8.4971026315e-01
 6.4997695114e-01	 1.8665384939e+00	-7.1671292245e-01
 6.1537219006e-01	 1.8782313632e+00	-5.8654978823e-01
 5.8071065336e-01	 1.8892355923e+00	-4.5228030613e-01
 5.4601161872e-01	 1.8995545000e+00	-3.3352117953e-01
 5.1129405519e-01	 1.9091920740e+00	-2.3584050495e-01
 6.8857981496e-01	 1.8651909884e+00	-7.9074555406e-01
 6.5384586156e-01	 1.8776488421e+00	-6.5639928691e-01
 6.1903511977e-01	 1.8894113118e+00	-5.2725686738e-01
 5.8416726439e-01	 1.9004810423e+00	-3.9594214130e-01
 5.4926168788e-01	 1.9108613720e+00	-2.7956089442e-01
 5.1433747219e-01	 1.9205563125e+00	-1.8767666311e-01
 6.9265425174e-01	 1.8762276215e+00	-7.2797220732e-01
 6.5771477198e-01	 1.8887591902e+00	-5.9064604200e-01
 6.2269804947e-01	 1.9005912604e+00	-4.6150823058e-01
 5.8762387542e-01	 1.9117264922e+00	-3.3342237855e-01
 5.5251175704e-01	 1.9221682440e+00	-2.2057191731e-01
 5.1738088918e-01	 1.9319205510e+00	-1.3707295089e-01
 5.0216380421e-01	 1.8750993584e+00	-3.6191554416e-01
 4.6806630045e-01	 1.8839002172e+00	-2.7339817613e-01
 4.3398684788e-01	 1.8920416237e+00	-2.0056008141e-01
 3.9994301837e-01	 1.8995293291e+00	-1.3841763306e-01
 3.6595198672e-01	 1.9063696476e+00	-8.3265282693e-02
 3.3203051122e-01	 1.9125694313e+00	-3.2548307662e-02
 5.0520722120e-01	 1.8864635969e+00	-3.2334131507e-01
 4.7090306590e-01	 1.8953177943e+00	-2.3671157972e-01
 4.3661707120e-01	 1.9035085426e+00	-1.6685165820e-01
 4.0236691545e-01	 1.9110416280e+00	-1.0903992142e-01
 3.6816987754e-01	 1.9179234031e+00	-5.9805333526e-02
 3.3404281735e-01	 1.9241607612e+00	-1.6799366982e-02
 5.0825063820e-01	 1.8978278354e+00	-2.8118854188e-01
 4.7373983136e-01	 1.9067353713e+00	-1.9811792890e-01
 4.3924729452e-01	 1.9149754616e+00	-1.3316687277e-01
 4.0479081254e-01	 1.9225539270e+00	-8.1587874521e-02
 3.7038776837e-01	 1.9294771585e+00	-3.9773891227e-02
 3.3605512348e-01	 1.9357520911e+00	-5.1344724489e-03
 5.1129405519e-01	 1.9091920740e+00	-2.3584050495e-01
 4.7657659682e-01	 1.9181529484e+00	-1.5846317374e-01
 4.4187751784e-01	 1.9264423805e+00	-1.0040379459e-01
 4.0721470962e-01	 1.9340662260e+00	-5.6608516832e-02
 3.7260565920e-01	 1.9410309139e+00	-2.2972040477e-02
 3.3806742961e-01	 1.9473434210e+00	 3.7770206763e-03
 5.1433747219e-01	 1.9205563125e+00	-1.8767666311e-01
 4.7941336227e-01	 1.9295705255e+00	-1.1857749550e-01
 4.4450774116e-01	 1.9379092994e+00	-6.9442590393e-02
 4.0963860670e-01	 1.9455785249e+00	-3.4638473722e-02
 3.7482355003e-01	 1.9525846694e+00	-9.2074094450e-03
 3.4007973574e-01	 1.9589347509e+00	 1.1233052188e-02
 5.1738088918e-01	 1.9319205510e+00	-1.3707295089e-01
 4.8225012773e-01	 1.9409881026e+00	-7.9275928250e-02
 4.4713796448e-01	 1.9493762184e+00	-4.1146184357e-02
 4.1206250378e-01	 1.9570908239e+00	-1.6204389377e-02
 3.7704144086e-01	 1.9641384248e+00	 1.7059296371e-03
 3.4209204186e-01	 1.9705260807e+00	 1.8499742401e-02
 3.3203051122e-01	 1.9125694313e+00	-3.2548307662e-02
 2.9819491606e-01	 1.9181360437e+00	 1.2515371583e-02
 2.6446107525e-01	 1.9230773332e+00	 5.0625407187e-02
 2.3084439831e-01	 1.9274016068e+00	 8.3592796192e-02
 1.9735981762e-01	 1.9311176019e+00	 1.1348280933e-01
 1.6402177737e-01	 1.9342344601e+00	 1.4263686835e-01
 3.3404281735e-01	 1.9241607612e+00	-1.6799366982e-02
 3.0000215798e-01	 1.9297611106e+00	 2.1260189360e-02
 2.6606386964e-01	 1.9347323474e+00	 5.5416045055e-02
 2.3224345527e-01	 1.9390828286e+00	 8.7071454141e-02
 1.9855593773e-01	 1.9428213449e+00	 1.1790096899e-01
 1.6501584875e-01	 1.9459570932e+00	 1.4987216567e-01
 3.3605512348e-01	 1.9357520911e+00	-5.1344724489e-03
 3.0180939989e-01	 1.9413861775e+00	 2.6116966493e-02
 2.6766666404e-01	 1.9463873615e+00	 5.6854792662e-02
 2.3364251223e-01	 1.9507640505e+00	 8.7655604047e-02
 1.9975205784e-01	 1.9545250880e+00	 1.1919464257e-01
 1.6600992013e-01	 1.9576797263e+00	 1.5227835532e-01
 3.3806742961e-01	 1.9473434210e+00	 3.7770206763e-03
 3.0361664181e-01	 1.9530112445e+00	 2.9236527850e-02
 2.6926945843e-01	 1.9580423757e+00	 5.6917784243e-02
 2.3504156919e-01	 1.9624452723e+00	 8.6164856064e-02
 2.0094817794e-01	 1.9662288310e+00	 1.1606031096e-01
 1.6700399150e-01	 1.9694023593e+00	 1.4547948291e-01
 3.4007973574e-01	 1.9589347509e+00	 1.1233052188e-02
 3.0542388372e-01	 1.9646363114e+00	 3.2718124125e-02
 2.7087225283e-01	 1.9696973898e+00	 5.7534183523e-02
 2.3644062615e-01	 1.9741264942e+00	 8.3399626291e-02
 2.0214429805e-01	 1.9779325741e+00	 1.0722585922e-01
 1.6799806288e-01	 1.9811249924e+00	 1.2520401891e-01
 3.4209204186e-01	 1.9705260807e+00	 1.8499742401e-02
 3.0723112564e-01	 1.9762613783e+00	 3.8610886609e-02
 2.7247504722e-01	 1.9813524040e+00	 6.0587515320e-02
 2.3783968311e-01	 1.9858077161e+00	 8.0141661788e-02
 2.0334041816e-01	 1.9896363171e+00	 9.1449622152e-02
 1.6899213426e-01	 1.9928476255e+00	 8.7281763792e-02
 1.6402177737e-01	 1.9342344601e+00	 1.4263686835e-01
 1.3084422413e-01	 1.9367616991e+00	 1.5832789755e-01
 9.7840599030e-02	 1.9387091858e+00	 1.5203308477e-01
 6.5023831438e-02	 1.9400871092e+00	 1.3147693107e-01
 3.2406334148e-02	 1.9409059533e+00	 1.0291570963e-01
 0.0000000000e+00	 1.9411764706e+00	 7.1202572102e-02
 1.6501584875e-01	 1.9459570932e+00	 1.4987216567e-01
 1.3163721943e-01	 1.9484996488e+00	 1.6638315594e-01
 9.8433572357e-02	 1.9504589385e+00	 1.5818786027e-01
 6.5417915265e-02	 1.9518452129e+00	 1.3749959696e-01
 3.2602736173e-02	 1.9526690197e+00	 1.1520231495e-01
 0.0000000000e+00	 1.9529411765e+00	 1.0088517005e-01
 1.6600992013e-01	 1.9576797263e+00	 1.5227835532e-01
 1.3243021473e-01	 1.9602375985e+00	 1.6756937015e-01
 9.9026545685e-02	 1.9622086911e+00	 1.5752082087e-01
 6.5811999092e-02	 1.9636033166e+00	 1.4027278014e-01
 3.2799138198e-02	 1.9644320860e+00	 1.3331739223e-01
 0.0000000000e+00	 1.9647058824e+00	 1.5346756834e-01
 1.6700399150e-01	 1.9694023593e+00	 1.4547948291e-01
 1.3322321002e-01	 1.9719755481e+00	 1.5551922929e-01
 9.9619519012e-02	 1.9739584437e+00	 1.4474613984e-01
 6.6206082919e-02	 1.9753614203e+00	 1.3862102690e-01
 3.2995540223e-02	 1.9761951524e+00	 1.6317468753e-01
 0.0000000000e+00	 1.9764705882e+00	 2.4487572657e-01
 1.6799806288e-01	 1.9811249924e+00	 1.2520401891e-01
 1.3401620532e-01	 1.9837134978e+00	 1.2401724471e-01
 1.0021249234e-01	 1.9857081964e+00	 1.1470445531e-01
 6.6600166746e-02	 1.9871195240e+00	 1.3139828784e-01
 3.3191942248e-02	 1.9879582188e+00	 2.1054978323e-01
 0.0000000000e+00	 1.9882352941e+00	 3.9066069723e-01
 1.6899213426e-01	 1.9928476255e+00	 8.7281763792e-02
 1.3480920062e-01	 1.9954514475e+00	 6.6995267201e-02
 1.0080546567e-01	 1.9974579490e+00	 6.2359138509e-02
 6.6994250573e-02	 1.9988776277e+00	 1.1748704520e-01
 3.3388344273e-02	 1.9997212852e+00	 2.8108415789e-01
 0.0000000000e+00	 2.0000000000e+00	 6.0600965244e-01
