x	y	stress_xx
 1.0000000000e+00	 0.0000000000e+00	 4.4807378428e-02
 9.9917018182e-01	 4.0730182473e-02	 8.9482070591e-02
 9.9662827990e-01	 8.2049202936e-02	 2.0790321263e-01
 9.9229956079e-01	 1.2386113861e-01	 3.9892140283e-01
 9.8611547993e-01	 1.6606101359e-01	 6.6199929209e-01
 9.7801486613e-01	 2.0853518078e-01	 9.9722629076e-01
 1.0285714286e+00	 0.0000000000e+00	 5.8881698357e-01
 1.0277179013e+00	 4.1893901972e-02	 6.2306515337e-01
 1.0251033736e+00	 8.4393465877e-02	 7.1137679241e-01
 1.0206509768e+00	 1.2740002829e-01	 8.5297731687e-01
 1.0142902079e+00	 1.7080561397e-01	 1.0478006176e+00
 1.0059581480e+00	 2.1449332880e-01	 1.2964969463e+00
 1.0571428571e+00	 0.0000000000e+00	 1.0835989936e+00
 1.0562656208e+00	 4.3057621472e-02	 1.1090940778e+00
 1.0535784673e+00	 8.6737728818e-02	 1.1711588969e+00
 1.0490023928e+00	 1.3093891796e-01	 1.2694952190e+00
 1.0424649359e+00	 1.7555021436e-01	 1.4045948398e+00
 1.0339014299e+00	 2.2045147683e-01	 1.5777371503e+00
 1.0857142857e+00	 0.0000000000e+00	 1.5133614135e+00
 1.0848133403e+00	 4.4221340971e-02	 1.5316136849e+00
 1.0820535610e+00	 8.9081991759e-02	 1.5710739789e+00
 1.0773538089e+00	 1.3447780764e-01	 1.6320160415e+00
 1.0706396639e+00	 1.8029481475e-01	 1.7155701664e+00
 1.0618447118e+00	 2.2640962485e-01	 1.8237070907e+00
 1.1142857143e+00	 0.0000000000e+00	 1.8638728416e+00
 1.1133610597e+00	 4.5385060470e-02	 1.8762527270e+00
 1.1105286547e+00	 9.1426254700e-02	 1.8965603743e+00
 1.1057052249e+00	 1.3801669731e-01	 1.9257315920e+00
 1.0988143919e+00	 1.8503941514e-01	 1.9656100755e+00
 1.0897879937e+00	 2.3236777287e-01	 2.0189144175e+00
 1.1428571429e+00	 0.0000000000e+00	 2.1222673950e+00
 1.1419087792e+00	 4.6548779969e-02	 2.1300267118e+00
 1.1390037485e+00	 9.3770517641e-02	 2.1344701873e+00
 1.1340566409e+00	 1.4155558699e-01	 2.1372805395e+00
 1.1269891199e+00	 1.8978401553e-01	 2.1410843970e+00
 1.1177312756e+00	 2.3832592089e-01	 2.1493993534e+00
 9.7801486613e-01	 2.0853518078e-01	 9.9722629076e-01
 9.6794509807e-01	 2.5116187434e-01	 1.3937451622e+00
 9.5586324611e-01	 2.9381193771e-01	 1.8274322475e+00
 9.4173715035e-01	 3.3634972819e-01	 2.2791580193e+00
 9.2554640484e-01	 3.7863419350e-01	 2.7305101503e+00
 9.0728321762e-01	 4.2052011013e-01	 3.1643564528e+00
 1.0059581480e+00	 2.1449332880e-01	 1.2964969463e+00
 9.9560067230e-01	 2.5833792790e-01	 1.5894000845e+00
 9.8317362457e-01	 3.0220656450e-01	 1.9063110990e+00
 9.6864392607e-01	 3.4595972042e-01	 2.2328453669e+00
 9.5199058784e-01	 3.8945231331e-01	 2.5552659299e+00
 9.3320559527e-01	 4.3253497042e-01	 2.8609189841e+00
 1.0339014299e+00	 2.2045147683e-01	 1.5777371503e+00
 1.0232562465e+00	 2.6551398145e-01	 1.7802318850e+00
 1.0104840030e+00	 3.1060119130e-01	 1.9951439388e+00
 9.9555070180e-01	 3.5556971266e-01	 2.2122086904e+00
 9.7843477083e-01	 4.0027043312e-01	 2.4217401360e+00
 9.5912797291e-01	 4.4454983071e-01	 2.6149546434e+00
 1.0618447118e+00	 2.2640962485e-01	 1.8237070907e+00
 1.0509118208e+00	 2.7269003500e-01	 1.9485525870e+00
 1.0377943815e+00	 3.1899581809e-01	 2.0758640985e+00
 1.0224574775e+00	 3.6517970489e-01	 2.1989177653e+00
 1.0048789538e+00	 4.1108855294e-01	 2.3114990968e+00
 9.8505035056e-01	 4.5656469100e-01	 2.4081298341e+00
 1.0897879937e+00	 2.3236777287e-01	 2.0189144175e+00
 1.0785673950e+00	 2.7986608855e-01	 2.0784757974e+00
 1.0651047599e+00	 3.2739044488e-01	 2.1322531763e+00
 1.0493642532e+00	 3.7478969713e-01	 2.1765250529e+00
 1.0313231368e+00	 4.2190667275e-01	 2.2080092662e+00
 1.0109727282e+00	 4.6857955129e-01	 2.2240070263e+00
 1.1177312756e+00	 2.3832592089e-01	 2.1493993534e+00
 1.1062229692e+00	 2.8704214211e-01	 2.1556955096e+00
 1.0924151384e+00	 3.3578507167e-01	 2.1497143623e+00
 1.0762710290e+00	 3.8439968936e-01	 2.1302349863e+00
 1.0577673198e+00	 4.3272479257e-01	 2.0964045084e+00
 1.0368951059e+00	 4.8059441158e-01	 2.0478126582e+00
 9.0728321762e-01	 4.2052011013e-01	 3.1643564528e+00
 8.8695311730e-01	 4.6185946749e-01	 3.5611867069e+00
 8.6457547924e-01	 5.0250297581e-01	 3.8944833423e+00
 8.4018384779e-01	 5.4230167058e-01	 4.1396743540e+00
 8.1382603605e-01	 5.8110858111e-01	 4.2752820008e+00
 7.8556399032e-01	 6.1878042723e-01	 4.2838051576e+00
 9.3320559527e-01	 4.3253497042e-01	 2.8609189841e+00
 9.1229463494e-01	 4.7505545227e-01	 3.1337980637e+00
 8.8927763579e-01	 5.1686020369e-01	 3.3527198473e+00
 8.6418910058e-01	 5.5779600403e-01	 3.4997547289e+00
 8.3707820851e-01	 5.9771168343e-01	 3.5594315445e+00
 8.0800867575e-01	 6.3645986801e-01	 3.5194278645e+00
 9.5912797291e-01	 4.4454983071e-01	 2.6149546434e+00
 9.3763615258e-01	 4.8825143706e-01	 2.7788896271e+00
 9.1397979234e-01	 5.3121743157e-01	 2.8969344448e+00
 8.8819435337e-01	 5.7329033747e-01	 2.9568064331e+00
 8.6033038097e-01	 6.1431478575e-01	 2.9481260840e+00
 8.3045336119e-01	 6.5413930878e-01	 2.8629426171e+00
 9.8505035056e-01	 4.5656469100e-01	 2.4081298341e+00
 9.6297767021e-01	 5.0144742184e-01	 2.4784583608e+00
 9.3868194889e-01	 5.4557465945e-01	 2.5097363088e+00
 9.1219960617e-01	 5.8878467092e-01	 2.4944078864e+00
 8.8358255343e-01	 6.3091788807e-01	 2.4263409653e+00
 8.5289804663e-01	 6.7181874956e-01	 2.3012137661e+00
 1.0109727282e+00	 4.6857955129e-01	 2.2240070263e+00
 9.8831918785e-01	 5.1464340663e-01	 2.2163689356e+00
 9.6338410544e-01	 5.5993188733e-01	 2.1755443980e+00
 9.3620485896e-01	 6.0427900437e-01	 2.0978520694e+00
 9.0683472589e-01	 6.4752099039e-01	 1.9806263157e+00
 8.7534273207e-01	 6.8949819034e-01	 1.8224894802e+00
 1.0368951059e+00	 4.8059441158e-01	 2.0478126582e+00
 1.0136607055e+00	 5.2783939141e-01	 1.9781252343e+00
 9.8808626199e-01	 5.7428911521e-01	 1.8803662257e+00
 9.6021011176e-01	 6.1977333781e-01	 1.7539372077e+00
 9.3008689834e-01	 6.6412409270e-01	 1.5989152138e+00
 8.9778741750e-01	 7.0717763112e-01	 1.4162338167e+00
 7.8556399032e-01	 6.1878042723e-01	 4.2838051576e+00
 7.5547341314e-01	 6.5517930525e-01	 4.1611147909e+00
 7.2364314644e-01	 6.9017432335e-01	 3.9103308042e+00
 6.9017432335e-01	 7.2364314644e-01	 3.5303080074e+00
 6.5517930525e-01	 7.5547341314e-01	 3.0228146860e+00
 6.1878042723e-01	 7.8556399032e-01	 2.3927581788e+00
 8.0800867575e-01	 6.3645986801e-01	 3.5194278645e+00
 7.7705836781e-01	 6.7389871398e-01	 3.3752149039e+00
 7.4431866491e-01	 7.0989358973e-01	 3.1282851346e+00
 7.0989358973e-01	 7.4431866491e-01	 2.7796819524e+00
 6.7389871398e-01	 7.7705836781e-01	 2.3327359121e+00
 6.3645986801e-01	 8.0800867575e-01	 1.7932236562e+00
 8.3045336119e-01	 6.5413930878e-01	 2.8629426171e+00
 7.9864332247e-01	 6.9261812270e-01	 2.6966927277e+00
 7.6499418338e-01	 7.2961285611e-01	 2.4497574890e+00
 7.2961285611e-01	 7.6499418338e-01	 2.1249339950e+00
 6.9261812270e-01	 7.9864332247e-01	 1.7267576698e+00
 6.5413930878e-01	 8.3045336119e-01	 1.2616069372e+00
 8.5289804663e-01	 6.7181874956e-01	 2.3012137661e+00
 8.2022827713e-01	 7.1133753142e-01	 2.1146609248e+00
 7.8566970185e-01	 7.4933212249e-01	 1.8663255156e+00
 7.4933212249e-01	 7.8566970185e-01	 1.5603650995e+00
 7.1133753142e-01	 8.2022827713e-01	 1.2022004106e+00
 6.7181874956e-01	 8.5289804663e-01	 7.9857751190e-01
 8.7534273207e-01	 6.8949819034e-01	 1.8224894802e+00
 8.4181323179e-01	 7.3005694014e-01	 1.6193874016e+00
 8.0634522032e-01	 7.6905138887e-01	 1.3704704817e+00
 7.6905138887e-01	 8.0634522032e-01	 1.0809008081e+00
 7.3005694014e-01	 8.4181323179e-01	 7.5669871753e-01
 6.8949819034e-01	 8.7534273207e-01	 4.0477361422e-01
 8.9778741750e-01	 7.0717763112e-01	 1.4162338167e+00
 8.6339818645e-01	 7.4877634886e-01	 1.2021560063e+00
 8.2702073879e-01	 7.8877065525e-01	 9.5546950735e-01
 7.8877065525e-01	 8.2702073879e-01	 6.8201846339e-01
 7.4877634886e-01	 8.6339818645e-01	 3.8816745692e-01
 7.0717763112e-01	 8.9778741750e-01	 8.0811672546e-02
 6.1878042723e-01	 7.8556399032e-01	 2.3927581788e+00
 5.8110858111e-01	 8.1382603605e-01	 1.6613081042e+00
 5.4230167058e-01	 8.4018384779e-01	 8.6266873895e-01
 5.0250297581e-01	 8.6457547924e-01	 2.2138819405e-02
 4.6185946749e-01	 8.8695311730e-01	-8.3743820286e-01
 4.2052011013e-01	 9.0728321762e-01	-1.6959971554e+00
 6.3645986801e-01	 8.0800867575e-01	 1.7932236562e+00
 5.9771168343e-01	 8.3707820851e-01	 1.1753945604e+00
 5.5779600403e-01	 8.6418910058e-01	 5.0354436711e-01
 5.1686020369e-01	 8.8927763579e-01	-2.0091134577e-01
 4.7505545227e-01	 9.1229463494e-01	-9.1859311970e-01
 4.3253497042e-01	 9.3320559527e-01	-1.6324378250e+00
 6.5413930878e-01	 8.3045336119e-01	 1.2616069372e+00
 6.1431478575e-01	 8.6033038097e-01	 7.3821429882e-01
 5.7329033747e-01	 8.8819435337e-01	 1.7283392503e-01
 5.3121743157e-01	 9.1397979234e-01	-4.1653803871e-01
 4.8825143706e-01	 9.3763615258e-01	-1.0135781223e+00
 4.4454983071e-01	 9.5912797291e-01	-1.6038782293e+00
 6.7181874956e-01	 8.5289804663e-01	 7.9857751190e-01
 6.3091788807e-01	 8.8358255343e-01	 3.5388928624e-01
 5.8878467092e-01	 9.1219960617e-01	-1.2204514372e-01
 5.4557465945e-01	 9.3868194889e-01	-6.1420385137e-01
 5.0144742184e-01	 9.6297767021e-01	-1.1089252923e+00
 4.5656469100e-01	 9.8505035056e-01	-1.5941186068e+00
 6.8949819034e-01	 8.7534273207e-01	 4.0477361422e-01
 6.4752099039e-01	 9.0683472589e-01	 2.6152996281e-02
 6.0427900437e-01	 9.3620485896e-01	-3.7440633327e-01
 5.5993188733e-01	 9.6338410544e-01	-7.8442808882e-01
 5.1464340663e-01	 9.8831918785e-01	-1.1925310595e+00
 4.6857955129e-01	 1.0109727282e+00	-1.5886119794e+00
 7.0717763112e-01	 8.9778741750e-01	 8.0811672546e-02
 6.6412409270e-01	 9.3008689834e-01	-2.4159537712e-01
 6.1977333781e-01	 9.6021011176e-01	-5.7819698484e-01
 5.7428911521e-01	 9.8808626199e-01	-9.1864894179e-01
 5.2783939141e-01	 1.0136607055e+00	-1.2534799805e+00
 4.8059441158e-01	 1.0368951059e+00	-1.5742520258e+00
 4.2052011013e-01	 9.0728321762e-01	-1.6959971554e+00
 3.7863419350e-01	 9.2554640484e-01	-2.5315962992e+00
 3.3634972819e-01	 9.4173715035e-01	-3.3170466800e+00
 2.9381193771e-01	 9.5586324611e-01	-4.0310847748e+00
 2.5116187434e-01	 9.6794509807e-01	-4.6584198408e+00
 2.0853518078e-01	 9.7801486613e-01	-5.1896490025e+00
 4.3253497042e-01	 9.3320559527e-01	-1.6324378250e+00
 3.8945231331e-01	 9.5199058784e-01	-2.3264327994e+00
 3.4595972042e-01	 9.6864392607e-01	-2.9806110785e+00
 3.0220656450e-01	 9.8317362457e-01	-3.5774620992e+00
 2.5833792790e-01	 9.9560067230e-01	-4.1043505651e+00
 2.1449332880e-01	 1.0059581480e+00	-4.5534604386e+00
 4.4454983071e-01	 9.5912797291e-01	-1.6038782293e+00
 4.0027043312e-01	 9.7843477083e-01	-2.1762882552e+00
 3.5556971266e-01	 9.9555070180e-01	-2.7167914507e+00
 3.1060119130e-01	 1.0104840030e+00	-3.2111480534e+00
 2.6551398145e-01	 1.0232562465e+00	-3.6490623021e+00
 2.2045147683e-01	 1.0339014299e+00	-4.0241515324e+00
 4.5656469100e-01	 9.8505035056e-01	-1.5941186068e+00
 4.1108855294e-01	 1.0048789538e+00	-2.0625832286e+00
 3.6517970489e-01	 1.0224574775e+00	-2.5051510508e+00
 3.1899581809e-01	 1.0377943815e+00	-2.9103938060e+00
 2.7269003500e-01	 1.0509118208e+00	-3.2700519701e+00
 2.2640962485e-01	 1.0618447118e+00	-3.5790256389e+00
 4.6857955129e-01	 1.0109727282e+00	-1.5886119794e+00
 4.2190667275e-01	 1.0313231368e+00	-1.9686443627e+00
 3.7478969713e-01	 1.0493642532e+00	-2.3273596460e+00
 3.2739044488e-01	 1.0651047599e+00	-2.6557019190e+00
 2.7986608855e-01	 1.0785673950e+00	-2.9471555217e+00
 2.3236777287e-01	 1.0897879937e+00	-3.1977548222e+00
 4.8059441158e-01	 1.0368951059e+00	-1.5742520258e+00
 4.3272479257e-01	 1.0577673198e+00	-1.8794608405e+00
 3.8439968936e-01	 1.0762710290e+00	-2.1669252707e+00
 3.3578507167e-01	 1.0924151384e+00	-2.4295404418e+00
 2.8704214211e-01	 1.1062229692e+00	-2.6622516193e+00
 2.3832592089e-01	 1.1177312756e+00	-2.8620804333e+00
 2.0853518078e-01	 9.7801486613e-01	-5.1896490025e+00
 1.6606101359e-01	 9.8611547993e-01	-5.6241693670e+00
 1.2386113861e-01	 9.9229956079e-01	-5.9611660643e+00
 8.2049202936e-02	 9.9662827990e-01	-6.1978305014e+00
 4.0730182473e-02	 9.9917018182e-01	-6.3346326452e+00
 0.0000000000e+00	 1.0000000000e+00	-6.3749810178e+00
 2.1449332880e-01	 1.0059581480e+00	-4.5534604386e+00
 1.7080561397e-01	 1.0142902079e+00	-4.9223246164e+00
 1.2740002829e-01	 1.0206509768e+00	-5.2085153972e+00
 8.4393465877e-02	 1.0251033736e+00	-5.4101839529e+00
 4.1893901972e-02	 1.0277179013e+00	-5.5284515397e+00
 0.0000000000e+00	 1.0285714286e+00	-5.5670782217e+00
 2.2045147683e-01	 1.0339014299e+00	-4.0241515324e+00
 1.7555021436e-01	 1.0424649359e+00	-4.3331528678e+00
 1.3093891796e-01	 1.0490023928e+00	-4.5728690279e+00
 8.6737728818e-02	 1.0535784673e+00	-4.7420739996e+00
 4.3057621472e-02	 1.0562656208e+00	-4.8422573282e+00
 0.0000000000e+00	 1.0571428571e+00	-4.8773057759e+00
 2.2640962485e-01	 1.0618447118e+00	-3.5790256389e+00
 1.8029481475e-01	 1.0706396639e+00	-3.8340731041e+00
 1.3447780764e-01	 1.0773538089e+00	-4.0318418832e+00
 8.9081991759e-02	 1.0820535610e+00	-4.1714197689e+00
 4.4221340971e-02	 1.0848133403e+00	-4.2544068873e+00
 0.0000000000e+00	 1.0857142857e+00	-4.2846144182e+00
 2.3236777287e-01	 1.0897879937e+00	-3.1977548222e+00
 1.8503941514e-01	 1.0988143919e+00	-3.4048700775e+00
 1.3801669731e-01	 1.1057052249e+00	-3.5654021434e+00
 9.1426254700e-02	 1.1105286547e+00	-3.6784682835e+00
 4.5385060470e-02	 1.1133610597e+00	-3.7455438502e+00
 0.0000000000e+00	 1.1142857143e+00	-3.7701821368e+00
 2.3832592089e-01	 1.1177312756e+00	-2.8620804333e+00
 1.8978401553e-01	 1.1269891199e+00	-3.0273959169e+00
 1.4155558699e-01	 1.1340566409e+00	-3.1555751054e+00
 9.3770517641e-02	 1.1390037485e+00	-3.2455021885e+00
 4.6548779969e-02	 1.1419087792e+00	-3.2983121447e+00
 0.0000000000e+00	 1.1428571429e+00	-3.3171357642e+00
 1.1428571429e+00	 0.0000000000e+00	 2.1222673950e+00
 1.1419087792e+00	 4.6548779969e-02	 2.1300267118e+00
 1.1390037485e+00	 9.3770517641e-02	 2.1344701873e+00
 1.1340566409e+00	 1.4155558699e-01	 2.1372805395e+00
 1.1269891199e+00	 1.8978401553e-01	 2.1410843970e+00
 1.1177312756e+00	 2.3832592089e-01	 2.1493993534e+00
 1.1714285714e+00	 0.0000000000e+00	 2.3227600783e+00
 1.1704564987e+00	 4.7712499468e-02	 2.3268522191e+00
 1.1674788422e+00	 9.6114780582e-02	 2.3179220407e+00
 1.1624080569e+00	 1.4509447666e-01	 2.2984193711e+00
 1.1551638479e+00	 1.9452861591e-01	 2.2717625101e+00
 1.1456745575e+00	 2.4428406891e-01	 2.2422643611e+00
 1.2000000000e+00	 0.0000000000e+00	 2.5028220487e+00
 1.1990042182e+00	 4.8876218968e-02	 2.5038741562e+00
 1.1959539359e+00	 9.8459043523e-02	 2.4832630319e+00
 1.1907594729e+00	 1.4863336634e-01	 2.4441663074e+00
 1.1833385759e+00	 1.9927321630e-01	 2.3907470230e+00
 1.1736178394e+00	 2.5024221694e-01	 2.3280598908e+00
 1.2285714286e+00	 0.0000000000e+00	 2.6558457301e+00
 1.2275519377e+00	 5.0039938467e-02	 2.6543564903e+00
 1.2244290296e+00	 1.0080330646e-01	 2.6236300102e+00
 1.2191108890e+00	 1.5217225601e-01	 2.5675346757e+00
 1.2115133039e+00	 2.0401781669e-01	 2.4909334714e+00
 1.2015611212e+00	 2.5620036496e-01	 2.3995714552e+00
 1.2571428571e+00	 0.0000000000e+00	 2.7757718519e+00
 1.2560996571e+00	 5.1203657966e-02	 2.7721327678e+00
 1.2529041233e+00	 1.0314756940e-01	 2.7327509962e+00
 1.2474623050e+00	 1.5571114569e-01	 2.6621503784e+00
 1.2396880319e+00	 2.0876241708e-01	 2.5658507033e+00
 1.2295044031e+00	 2.6215851298e-01	 2.4502375077e+00
 1.2857142857e+00	 0.0000000000e+00	 2.8570285265e+00
 1.2846473766e+00	 5.2367377465e-02	 2.8515435562e+00
 1.2813792170e+00	 1.0549183235e-01	 2.8048808868e+00
 1.2758137210e+00	 1.5925003536e-01	 2.7221857997e+00
 1.2678627599e+00	 2.1350701747e-01	 2.6095929620e+00
 1.2574476850e+00	 2.6811666100e-01	 2.4740797196e+00
 1.1177312756e+00	 2.3832592089e-01	 2.1493993534e+00
 1.1062229692e+00	 2.8704214211e-01	 2.1556955096e+00
 1.0924151384e+00	 3.3578507167e-01	 2.1497143623e+00
 1.0762710290e+00	 3.8439968936e-01	 2.1302349863e+00
 1.0577673198e+00	 4.3272479257e-01	 2.0964045084e+00
 1.0368951059e+00	 4.8059441158e-01	 2.0478126582e+00
 1.1456745575e+00	 2.4428406891e-01	 2.2422643611e+00
 1.1338785435e+00	 2.9421819566e-01	 2.2039791314e+00
 1.1197255169e+00	 3.4417969846e-01	 2.1481342074e+00
 1.1031778047e+00	 3.9400968159e-01	 2.0756269490e+00
 1.0842115028e+00	 4.4354291238e-01	 1.9876511818e+00
 1.0628174835e+00	 4.9260927187e-01	 1.8857123717e+00
 1.1736178394e+00	 2.5024221694e-01	 2.3280598908e+00
 1.1615341177e+00	 3.0139424921e-01	 2.2506774128e+00
 1.1470358953e+00	 3.5257432525e-01	 2.1511055051e+00
 1.1300845804e+00	 4.0361967383e-01	 2.0320863572e+00
 1.1106556858e+00	 4.5436103219e-01	 1.8965878828e+00
 1.0887398611e+00	 5.0462413216e-01	 1.7477665683e+00
 1.2015611212e+00	 2.5620036496e-01	 2.3995714552e+00
 1.1891896919e+00	 3.0857030276e-01	 2.2884796596e+00
 1.1743462738e+00	 3.6096895205e-01	 2.1512508061e+00
 1.1569913561e+00	 4.1322966606e-01	 1.9922149335e+00
 1.1370998688e+00	 4.6517915201e-01	 1.8158578239e+00
 1.1146622388e+00	 5.1663899245e-01	 1.6267382320e+00
 1.2295044031e+00	 2.6215851298e-01	 2.4502375077e+00
 1.2168452661e+00	 3.1574635632e-01	 2.3107458790e+00
 1.2016566522e+00	 3.6936357884e-01	 2.1418776802e+00
 1.1838981319e+00	 4.2283965830e-01	 1.9493087020e+00
 1.1635440518e+00	 4.7599727182e-01	 1.7388012428e+00
 1.1405846164e+00	 5.2865385273e-01	 1.5160821063e+00
 1.2574476850e+00	 2.6811666100e-01	 2.4740797196e+00
 1.2445008404e+00	 3.2292240987e-01	 2.3114353489e+00
 1.2289670307e+00	 3.7775820563e-01	 2.1169058521e+00
 1.2108049076e+00	 4.3244965053e-01	 1.8972841518e+00
 1.1899882348e+00	 4.8681539164e-01	 1.6593812400e+00
 1.1665069941e+00	 5.4066871302e-01	 1.4098710304e+00
 1.0368951059e+00	 4.8059441158e-01	 2.0478126582e+00
 1.0136607055e+00	 5.2783939141e-01	 1.9781252343e+00
 9.8808626199e-01	 5.7428911521e-01	 1.8803662257e+00
 9.6021011176e-01	 6.1977333781e-01	 1.7539372077e+00
 9.3008689834e-01	 6.6412409270e-01	 1.5989152138e+00
 8.9778741750e-01	 7.0717763112e-01	 1.4162338167e+00
 1.0628174835e+00	 4.9260927187e-01	 1.8857123717e+00
 1.0390022231e+00	 5.4103537620e-01	 1.7650214028e+00
 1.0127884185e+00	 5.8864634309e-01	 1.6207417817e+00
 9.8421536455e-01	 6.3526767126e-01	 1.4547772687e+00
 9.5333907080e-01	 6.8072719502e-01	 1.2694152443e+00
 9.2023210294e-01	 7.2485707189e-01	 1.0674333946e+00
 1.0887398611e+00	 5.0462413216e-01	 1.7477665683e+00
 1.0643437408e+00	 5.5423136099e-01	 1.5822136826e+00
 1.0374905751e+00	 6.0300357097e-01	 1.3969668797e+00
 1.0082206173e+00	 6.5076200470e-01	 1.1960427823e+00
 9.7659124326e-01	 6.9733029734e-01	 9.8358015894e-01
 9.4267678838e-01	 7.4253651267e-01	 7.6388292778e-01
 1.1146622388e+00	 5.1663899245e-01	 1.6267382320e+00
 1.0896852584e+00	 5.6742734577e-01	 1.4226657900e+00
 1.0621927316e+00	 6.1736079886e-01	 1.2022968429e+00
 1.0322258701e+00	 6.6625633815e-01	 9.7139698882e-01
 9.9984341572e-01	 7.1393339966e-01	 7.3562126787e-01
 9.6512147382e-01	 7.6021595345e-01	 5.0050363135e-01
 1.1405846164e+00	 5.2865385273e-01	 1.5160821063e+00
 1.1150267760e+00	 5.8062333056e-01	 1.2800197649e+00
 1.0868948882e+00	 6.3171802674e-01	 1.0306428999e+00
 1.0562311229e+00	 6.8175067159e-01	 7.7512541581e-01
 1.0230955882e+00	 7.3053650197e-01	 5.2032526764e-01
 9.8756615925e-01	 7.7789539423e-01	 2.7273000253e-01
 1.1665069941e+00	 5.4066871302e-01	 1.4098710304e+00
 1.1403682937e+00	 5.9381931534e-01	 1.1485236730e+00
 1.1115970447e+00	 6.4607525462e-01	 8.7650223542e-01
 1.0802363757e+00	 6.9724500504e-01	 6.0206953141e-01
 1.0463477606e+00	 7.4713960429e-01	 3.3299300169e-01
 1.0100108447e+00	 7.9557483501e-01	 7.6455426024e-02
 8.9778741750e-01	 7.0717763112e-01	 1.4162338167e+00
 8.6339818645e-01	 7.4877634886e-01	 1.2021560063e+00
 8.2702073879e-01	 7.8877065525e-01	 9.5546950735e-01
 7.8877065525e-01	 8.2702073879e-01	 6.8201846339e-01
 7.4877634886e-01	 8.6339818645e-01	 3.8816745692e-01
 7.0717763112e-01	 8.9778741750e-01	 8.0811672546e-02
 9.2023210294e-01	 7.2485707189e-01	 1.0674333946e+00
 8.8498314111e-01	 7.6749575758e-01	 8.4542654716e-01
 8.4769625726e-01	 8.0848992163e-01	 6.0193222674e-01
 8.0848992163e-01	 8.4769625726e-01	 3.4324992643e-01
 7.6749575758e-01	 8.8498314111e-01	 7.5915838116e-02
 7.2485707189e-01	 9.2023210294e-01	-1.9330007219e-01
 9.4267678838e-01	 7.4253651267e-01	 7.6388292778e-01
 9.0656809577e-01	 7.8621516630e-01	 5.3394593793e-01
 8.6837177573e-01	 8.2820918802e-01	 2.9219809435e-01
 8.2820918802e-01	 8.6837177573e-01	 4.5251299655e-02
 7.8621516630e-01	 9.0656809577e-01	-2.0028793988e-01
 7.4253651267e-01	 9.4267678838e-01	-4.3782985389e-01
 9.6512147382e-01	 7.6021595345e-01	 5.0050363135e-01
 9.2815305043e-01	 8.0493457503e-01	 2.6347722692e-01
 8.8904729420e-01	 8.4792845440e-01	 2.2969658454e-02
 8.4792845440e-01	 8.8904729420e-01	-2.1422578725e-01
 8.0493457503e-01	 9.2815305043e-01	-4.4152353266e-01
 7.6021595345e-01	 9.6512147382e-01	-6.5256089742e-01
 9.8756615925e-01	 7.7789539423e-01	 2.7273000253e-01
 9.4973800510e-01	 8.2365398375e-01	 3.0222164277e-02
 9.0972281267e-01	 8.6764772078e-01	-2.0869581759e-01
 8.6764772078e-01	 9.0972281267e-01	-4.3716956249e-01
 8.2365398375e-01	 9.4973800510e-01	-6.4871666824e-01
 7.7789539423e-01	 9.8756615925e-01	-8.3724126233e-01
 1.0100108447e+00	 7.9557483501e-01	 7.6455426024e-02
 9.7132295976e-01	 8.4237339247e-01	-1.6922490304e-01
 9.3039833114e-01	 8.8736698716e-01	-4.0542306184e-01
 8.8736698716e-01	 9.3039833114e-01	-6.2533418314e-01
 8.4237339247e-01	 9.7132295976e-01	-8.2265323838e-01
 7.9557483501e-01	 1.0100108447e+00	-9.9158452571e-01
 7.0717763112e-01	 8.9778741750e-01	 8.0811672546e-02
 6.6412409270e-01	 9.3008689834e-01	-2.4159537712e-01
 6.1977333781e-01	 9.6021011176e-01	-5.7819698484e-01
 5.7428911521e-01	 9.8808626199e-01	-9.1864894179e-01
 5.2783939141e-01	 1.0136607055e+00	-1.2534799805e+00
 4.8059441158e-01	 1.0368951059e+00	-1.5742520258e+00
 7.2485707189e-01	 9.2023210294e-01	-1.9330007219e-01
 6.8072719502e-01	 9.5333907080e-01	-4.6787841901e-01
 6.3526767126e-01	 9.8421536455e-01	-7.4996859120e-01
 5.8864634309e-01	 1.0127884185e+00	-1.0310641872e+00
 5.4103537620e-01	 1.0390022231e+00	-1.3033470000e+00
 4.9260927187e-01	 1.0628174835e+00	-1.5598273586e+00
 7.4253651267e-01	 9.4267678838e-01	-4.3782985389e-01
 6.9733029734e-01	 9.7659124326e-01	-6.7226672781e-01
 6.5076200470e-01	 1.0082206173e+00	-9.0808362378e-01
 6.0300357097e-01	 1.0374905751e+00	-1.1384313817e+00
 5.5423136099e-01	 1.0643437408e+00	-1.3569964561e+00
 5.0462413216e-01	 1.0887398611e+00	-1.5581220162e+00
 7.6021595345e-01	 9.6512147382e-01	-6.5256089742e-01
 7.1393339966e-01	 9.9984341572e-01	-8.5322928566e-01
 6.6625633815e-01	 1.0322258701e+00	-1.0497980288e+00
 6.1736079886e-01	 1.0621927316e+00	-1.2368998808e+00
 5.6742734577e-01	 1.0896852584e+00	-1.4095802167e+00
 5.1663899245e-01	 1.1146622388e+00	-1.5633994955e+00
 7.7789539423e-01	 9.8756615925e-01	-8.3724126233e-01
 7.3053650197e-01	 1.0230955882e+00	-1.0093214085e+00
 6.8175067159e-01	 1.0562311229e+00	-1.1725676673e+00
 6.3171802674e-01	 1.0868948882e+00	-1.3229242666e+00
 5.8062333056e-01	 1.1150267760e+00	-1.4566522379e+00
 5.2865385273e-01	 1.1405846164e+00	-1.5704137695e+00
 7.9557483501e-01	 1.0100108447e+00	-9.9158452571e-01
 7.4713960429e-01	 1.0463477606e+00	-1.1391717029e+00
 6.9724500504e-01	 1.0802363757e+00	-1.2740224364e+00
 6.4607525462e-01	 1.1115970447e+00	-1.3932265871e+00
 5.9381931534e-01	 1.1403682937e+00	-1.4941199185e+00
 5.4066871302e-01	 1.1665069941e+00	-1.5743507782e+00
 4.8059441158e-01	 1.0368951059e+00	-1.5742520258e+00
 4.3272479257e-01	 1.0577673198e+00	-1.8794608405e+00
 3.8439968936e-01	 1.0762710290e+00	-2.1669252707e+00
 3.3578507167e-01	 1.0924151384e+00	-2.4295404418e+00
 2.8704214211e-01	 1.1062229692e+00	-2.6622516193e+00
 2.3832592089e-01	 1.1177312756e+00	-2.8620804333e+00
 4.9260927187e-01	 1.0628174835e+00	-1.5598273586e+00
 4.4354291238e-01	 1.0842115028e+00	-1.8010684253e+00
 3.9400968159e-01	 1.1031778047e+00	-2.0273933402e+00
 3.4417969846e-01	 1.1197255169e+00	-2.2333332937e+00
 2.9421819566e-01	 1.1338785435e+00	-2.4150652897e+00
 2.4428406891e-01	 1.1456745575e+00	-2.5704550060e+00
 5.0462413216e-01	 1.0887398611e+00	-1.5581220162e+00
 4.5436103219e-01	 1.1106556858e+00	-1.7440986227e+00
 4.0361967383e-01	 1.1300845804e+00	-1.9173142298e+00
 3.5257432525e-01	 1.1470358953e+00	-2.0737213493e+00
 3.0139424921e-01	 1.1615341177e+00	-2.2105505933e+00
 2.5024221694e-01	 1.1736178394e+00	-2.3263728515e+00
 5.1663899245e-01	 1.1146622388e+00	-1.5633994955e+00
 4.6517915201e-01	 1.1370998688e+00	-1.7020272251e+00
 4.1322966606e-01	 1.1569913561e+00	-1.8294750605e+00
 3.6096895205e-01	 1.1743462738e+00	-1.9429084017e+00
 3.0857030276e-01	 1.1891896919e+00	-2.0404371249e+00
 2.5620036496e-01	 1.2015611212e+00	-2.1211999264e+00
 5.2865385273e-01	 1.1405846164e+00	-1.5704137695e+00
 4.7599727182e-01	 1.1635440518e+00	-1.6689010684e+00
 4.2283965830e-01	 1.1838981319e+00	-1.7573066778e+00
 3.6936357884e-01	 1.2016566522e+00	-1.8338058819e+00
 3.1574635632e-01	 1.2168452661e+00	-1.8972165296e+00
 2.6215851298e-01	 1.2295044031e+00	-1.9471085690e+00
 5.4066871302e-01	 1.1665069941e+00	-1.5743507782e+00
 4.8681539164e-01	 1.1899882348e+00	-1.6392706211e+00
 4.3244965053e-01	 1.2108049076e+00	-1.6948083174e+00
 3.7775820563e-01	 1.2289670307e+00	-1.7399506783e+00
 3.2292240987e-01	 1.2445008404e+00	-1.7740546301e+00
 2.6811666100e-01	 1.2574476850e+00	-1.7969851411e+00
 2.3832592089e-01	 1.1177312756e+00	-2.8620804333e+00
 1.8978401553e-01	 1.1269891199e+00	-3.0273959169e+00
 1.4155558699e-01	 1.1340566409e+00	-3.1555751054e+00
 9.3770517641e-02	 1.1390037485e+00	-3.2455021885e+00
 4.6548779969e-02	 1.1419087792e+00	-3.2983121447e+00
 0.0000000000e+00	 1.1428571429e+00	-3.3171357642e+00
 2.4428406891e-01	 1.1456745575e+00	-2.5704550060e+00
 1.9452861591e-01	 1.1551638479e+00	-2.6990916048e+00
 1.4509447666e-01	 1.1624080569e+00	-2.7990232022e+00
 9.6114780582e-02	 1.1674788422e+00	-2.8687980499e+00
 4.7712499468e-02	 1.1704564987e+00	-2.9091323362e+00
 0.0000000000e+00	 1.1714285714e+00	-2.9226823723e+00
 2.5024221694e-01	 1.1736178394e+00	-2.3263728515e+00
 1.9927321630e-01	 1.1833385759e+00	-2.4221381267e+00
 1.4863336634e-01	 1.1907594729e+00	-2.4968023398e+00
 9.8459043523e-02	 1.1959539359e+00	-2.5486161053e+00
 4.8876218968e-02	 1.1990042182e+00	-2.5779187590e+00
 0.0000000000e+00	 1.2000000000e+00	-2.5869377833e+00
 2.5620036496e-01	 1.2015611212e+00	-2.1211999264e+00
 2.0401781669e-01	 1.2115133039e+00	-2.1875904979e+00
 1.5217225601e-01	 1.2191108890e+00	-2.2396461493e+00
 1.0080330646e-01	 1.2244290296e+00	-2.2753504166e+00
 5.0039938467e-02	 1.2275519377e+00	-2.2947006491e+00
 0.0000000000e+00	 1.2285714286e+00	-2.2995349366e+00
 2.6215851298e-01	 1.2295044031e+00	-1.9471085690e+00
 2.0876241708e-01	 1.2396880319e+00	-1.9873491387e+00
 1.5571114569e-01	 1.2474623050e+00	-2.0191726263e+00
 1.0314756940e-01	 1.2529041233e+00	-2.0403185316e+00
 5.1203657966e-02	 1.2560996571e+00	-2.0504702220e+00
 0.0000000000e+00	 1.2571428571e+00	-2.0511098161e+00
 2.6811666100e-01	 1.2574476850e+00	-1.7969851411e+00
 2.1350701747e-01	 1.2678627599e+00	-1.8140636902e+00
 1.5925003536e-01	 1.2758137210e+00	-1.8277841738e+00
 1.0549183235e-01	 1.2813792170e+00	-1.8356577585e+00
 5.2367377465e-02	 1.2846473766e+00	-1.8370751325e+00
 0.0000000000e+00	 1.2857142857e+00	-1.8331900009e+00
 1.2857142857e+00	 0.0000000000e+00	 2.8570285265e+00
 1.2846473766e+00	 5.2367377465e-02	 2.8515435562e+00
 1.2813792170e+00	 1.0549183235e-01	 2.8048808868e+00
 1.2758137210e+00	 1.5925003536e-01	 2.7221857997e+00
 1.2678627599e+00	 2.1350701747e-01	 2.6095929620e+00
 1.2574476850e+00	 2.6811666100e-01	 2.4740797196e+00
 1.3142857143e+00	 0.0000000000e+00	 2.9143756988e+00
 1.3131950961e+00	 5.3531096965e-02	 2.9074539366e+00
 1.3098543107e+00	 1.0783609529e-01	 2.8545560645e+00
 1.3041651370e+00	 1.6278892504e-01	 2.7614733677e+00
 1.2960374879e+00	 2.1825161785e-01	 2.6349750534e+00
 1.2853909669e+00	 2.7407480903e-01	 2.4826444961e+00
 1.3428571429e+00	 0.0000000000e+00	 2.9639754545e+00
 1.3417428156e+00	 5.4694816464e-02	 2.9561456192e+00
 1.3383294044e+00	 1.1018035823e-01	 2.8977440482e+00
 1.3325165531e+00	 1.6632781471e-01	 2.7952849876e+00
 1.3242122159e+00	 2.2299621824e-01	 2.6562471410e+00
 1.3133342488e+00	 2.8003295705e-01	 2.4888907245e+00
 1.3714285714e+00	 0.0000000000e+00	 3.0028521257e+00
 1.3702905351e+00	 5.5858535963e-02	 2.9946029614e+00
 1.3668044981e+00	 1.1252462117e-01	 2.9313911912e+00
 1.3608679691e+00	 1.6986670438e-01	 2.8205229101e+00
 1.3523869439e+00	 2.2774081863e-01	 2.6702530354e+00
 1.3412775307e+00	 2.8599110507e-01	 2.4895812421e+00
 1.4000000000e+00	 0.0000000000e+00	 3.0282259189e+00
 1.3988382545e+00	 5.7022255462e-02	 3.0200213950e+00
 1.3952795919e+00	 1.1486888411e-01	 2.9526700087e+00
 1.3892193851e+00	 1.7340559406e-01	 2.8343308259e+00
 1.3805616719e+00	 2.3248541902e-01	 2.6740938059e+00
 1.3692208126e+00	 2.9194925309e-01	 2.4817529040e+00
 1.4285714286e+00	 0.0000000000e+00	 3.0374933267e+00
 1.4273859740e+00	 5.8185974962e-02	 3.0297869631e+00
 1.4237546856e+00	 1.1721314705e-01	 2.9589577689e+00
 1.4175708011e+00	 1.7694448373e-01	 2.8340713917e+00
 1.4087363999e+00	 2.3723001941e-01	 2.6651040750e+00
 1.3971640945e+00	 2.9790740112e-01	 2.4626914336e+00
 1.2574476850e+00	 2.6811666100e-01	 2.4740797196e+00
 1.2445008404e+00	 3.2292240987e-01	 2.3114353489e+00
 1.2289670307e+00	 3.7775820563e-01	 2.1169058521e+00
 1.2108049076e+00	 4.3244965053e-01	 1.8972841518e+00
 1.1899882348e+00	 4.8681539164e-01	 1.6593812400e+00
 1.1665069941e+00	 5.4066871302e-01	 1.4098710304e+00
 1.2853909669e+00	 2.7407480903e-01	 2.4826444961e+00
 1.2721564146e+00	 3.3009846342e-01	 2.3006358283e+00
 1.2562774092e+00	 3.8615283242e-01	 2.0848038018e+00
 1.2377116833e+00	 4.4205964276e-01	 1.8428493941e+00
 1.2164324178e+00	 4.9763351145e-01	 1.5824281327e+00
 1.1924293717e+00	 5.5268357331e-01	 1.3109675612e+00
 1.3133342488e+00	 2.8003295705e-01	 2.4888907245e+00
 1.2998119888e+00	 3.3727451697e-01	 2.2898185174e+00
 1.2835877876e+00	 3.9454745921e-01	 2.0554039143e+00
 1.2646184590e+00	 4.5166963500e-01	 1.7940647092e+00
 1.2428766008e+00	 5.0845163127e-01	 1.5141186657e+00
 1.2183517494e+00	 5.6469843360e-01	 1.2235790433e+00
 1.3412775307e+00	 2.8599110507e-01	 2.4895812421e+00
 1.3274675631e+00	 3.4445057053e-01	 2.2756641872e+00
 1.3108981661e+00	 4.0294208600e-01	 2.0253367204e+00
 1.2915252348e+00	 4.6127962723e-01	 1.7475515248e+00
 1.2693207838e+00	 5.1926975108e-01	 1.4511156209e+00
 1.2442741270e+00	 5.7671329389e-01	 1.1444691501e+00
 1.3692208126e+00	 2.9194925309e-01	 2.4817529040e+00
 1.3551231373e+00	 3.5162662408e-01	 2.2551433775e+00
 1.3382085445e+00	 4.1133671280e-01	 1.9915344569e+00
 1.3184320105e+00	 4.7088961947e-01	 1.7002403058e+00
 1.2957649668e+00	 5.3008787089e-01	 1.3903928312e+00
 1.2701965047e+00	 5.8872815418e-01	 1.0707086827e+00
 1.3971640945e+00	 2.9790740112e-01	 2.4626914336e+00
 1.3827787115e+00	 3.5880267763e-01	 2.2254897838e+00
 1.3655189230e+00	 4.1973133959e-01	 1.9512032571e+00
 1.3453387862e+00	 4.8049961170e-01	 1.6493419075e+00
 1.3222091498e+00	 5.4090599071e-01	 1.3292061462e+00
 1.2961188823e+00	 6.0074301447e-01	 9.9964668501e-01
 1.1665069941e+00	 5.4066871302e-01	 1.4098710304e+00
 1.1403682937e+00	 5.9381931534e-01	 1.1485236730e+00
 1.1115970447e+00	 6.4607525462e-01	 8.7650223542e-01
 1.0802363757e+00	 6.9724500504e-01	 6.0206953141e-01
 1.0463477606e+00	 7.4713960429e-01	 3.3299300169e-01
 1.0100108447e+00	 7.9557483501e-01	 7.6455426024e-02
 1.1924293717e+00	 5.5268357331e-01	 1.3109675612e+00
 1.1657098113e+00	 6.0701530013e-01	 1.0290106409e+00
 1.1362992013e+00	 6.6043248250e-01	 7.3868637298e-01
 1.1042416285e+00	 7.1273933848e-01	 4.4911802802e-01
 1.0695999331e+00	 7.6374270661e-01	 1.6877664786e-01
 1.0324555301e+00	 8.1325427578e-01	-9.4636749336e-02
 1.2183517494e+00	 5.6469843360e-01	 1.2235790433e+00
 1.1910513289e+00	 6.2021128491e-01	 9.2365435763e-01
 1.1610013578e+00	 6.7478971038e-01	 6.1733047923e-01
 1.1282468813e+00	 7.2823367193e-01	 3.1444661805e-01
 1.0928521056e+00	 7.8034580893e-01	 2.4052257593e-02
 1.0549002156e+00	 8.3093371656e-01	-2.4573547906e-01
 1.2442741270e+00	 5.7671329389e-01	 1.1444691501e+00
 1.2163928466e+00	 6.3340726970e-01	 8.2937177820e-01
 1.1857035144e+00	 6.8914693826e-01	 5.0955055123e-01
 1.1522521341e+00	 7.4372800537e-01	 1.9542509952e-01
 1.1161042780e+00	 7.9694891124e-01	-1.0349375321e-01
 1.0773449010e+00	 8.4861315734e-01	-3.7876809973e-01
 1.2701965047e+00	 5.8872815418e-01	 1.0707086827e+00
 1.2417343642e+00	 6.4660325448e-01	 7.4337788531e-01
 1.2104056709e+00	 7.0350416614e-01	 4.1274708488e-01
 1.1762573869e+00	 7.5922233882e-01	 8.9689286655e-02
 1.1393564505e+00	 8.1355201356e-01	-2.1593286080e-01
 1.0997895864e+00	 8.6629259812e-01	-4.9544959430e-01
 1.2961188823e+00	 6.0074301447e-01	 9.9964668501e-01
 1.2670758819e+00	 6.5979923927e-01	 6.6315744078e-01
 1.2351078275e+00	 7.1786139402e-01	 3.2457790346e-01
 1.2002626397e+00	 7.7471667226e-01	-4.8845623108e-03
 1.1626086229e+00	 8.3015511588e-01	-3.1511781193e-01
 1.1222342719e+00	 8.8397203890e-01	-5.9730311970e-01
 1.0100108447e+00	 7.9557483501e-01	 7.6455426024e-02
 9.7132295976e-01	 8.4237339247e-01	-1.6922490304e-01
 9.3039833114e-01	 8.8736698716e-01	-4.0542306184e-01
 8.8736698716e-01	 9.3039833114e-01	-6.2533418314e-01
 8.4237339247e-01	 9.7132295976e-01	-8.2265323838e-01
 7.9557483501e-01	 1.0100108447e+00	-9.9158452571e-01
 1.0324555301e+00	 8.1325427578e-01	-9.4636749336e-02
 9.9290791442e-01	 8.6109280119e-01	-3.4234811742e-01
 9.5107384961e-01	 9.0708625354e-01	-5.7554394303e-01
 9.0708625354e-01	 9.5107384961e-01	-7.8753909802e-01
 8.6109280119e-01	 9.9290791442e-01	-9.7225675686e-01
 8.1325427578e-01	 1.0324555301e+00	-1.1242293597e+00
 1.0549002156e+00	 8.3093371656e-01	-2.4573547906e-01
 1.0144928691e+00	 8.7981220991e-01	-4.9564147877e-01
 9.7174936808e-01	 9.2680551992e-01	-7.2658664544e-01
 9.2680551992e-01	 9.7174936808e-01	-9.3203984520e-01
 8.7981220991e-01	 1.0144928691e+00	-1.1061835001e+00
 8.3093371656e-01	 1.0549002156e+00	-1.2439034566e+00
 1.0773449010e+00	 8.4861315734e-01	-3.7876809973e-01
 1.0360778237e+00	 8.9853161863e-01	-6.3060976918e-01
 9.9242488655e-01	 9.4652478630e-01	-8.5963261901e-01
 9.4652478630e-01	 9.9242488655e-01	-1.0594916401e+00
 8.9853161863e-01	 1.0360778237e+00	-1.2246577824e+00
 8.4861315734e-01	 1.0773449010e+00	-1.3503940851e+00
 1.0997895864e+00	 8.6629259812e-01	-4.9544959430e-01
 1.0576627784e+00	 9.1725102736e-01	-7.4857823072e-01
 1.0131004050e+00	 9.6624405269e-01	-9.7561676190e-01
 9.6624405269e-01	 1.0131004050e+00	-1.1704365825e+00
 9.1725102736e-01	 1.0576627784e+00	-1.3278250064e+00
 8.6629259812e-01	 1.0997895864e+00	-1.4434449296e+00
 1.1222342719e+00	 8.8397203890e-01	-5.9730311970e-01
 1.0792477331e+00	 9.3597043608e-01	-8.5070985038e-01
 1.0337759235e+00	 9.8596331907e-01	-1.0753413534e+00
 9.8596331907e-01	 1.0337759235e+00	-1.2653141029e+00
 9.3597043608e-01	 1.0792477331e+00	-1.4157584675e+00
 8.8397203890e-01	 1.1222342719e+00	-1.5227590788e+00
 7.9557483501e-01	 1.0100108447e+00	-9.9158452571e-01
 7.4713960429e-01	 1.0463477606e+00	-1.1391717029e+00
 6.9724500504e-01	 1.0802363757e+00	-1.2740224364e+00
 6.4607525462e-01	 1.1115970447e+00	-1.3932265871e+00
 5.9381931534e-01	 1.1403682937e+00	-1.4941199185e+00
 5.4066871302e-01	 1.1665069941e+00	-1.5743507782e+00
 8.1325427578e-01	 1.0324555301e+00	-1.1242293597e+00
 7.6374270661e-01	 1.0695999331e+00	-1.2508334931e+00
 7.1273933848e-01	 1.1042416285e+00	-1.3614369605e+00
 6.6043248250e-01	 1.1362992013e+00	-1.4541317746e+00
 6.0701530013e-01	 1.1657098113e+00	-1.5271914039e+00
 5.5268357331e-01	 1.1924293717e+00	-1.5791212121e+00
 8.3093371656e-01	 1.0549002156e+00	-1.2439034566e+00
 7.8034580893e-01	 1.0928521056e+00	-1.3528060052e+00
 7.2823367193e-01	 1.1282468813e+00	-1.4428289972e+00
 6.7478971038e-01	 1.1610013578e+00	-1.5129463379e+00
 6.2021128491e-01	 1.1910513289e+00	-1.5622380274e+00
 5.6469843360e-01	 1.2183517494e+00	-1.5899266983e+00
 8.4861315734e-01	 1.0773449010e+00	-1.3503940851e+00
 7.9694891124e-01	 1.1161042780e+00	-1.4444307169e+00
 7.4372800537e-01	 1.1522521341e+00	-1.5170876127e+00
 6.8914693826e-01	 1.1857035144e+00	-1.5681058319e+00
 6.3340726970e-01	 1.2163928466e+00	-1.5972457198e+00
 5.7671329389e-01	 1.2442741270e+00	-1.6043116601e+00
 8.6629259812e-01	 1.0997895864e+00	-1.4434449296e+00
 8.1355201356e-01	 1.1393564505e+00	-1.5250424519e+00
 7.5922233882e-01	 1.1762573869e+00	-1.5831338496e+00
 7.0350416614e-01	 1.2104056709e+00	-1.6181179040e+00
 6.4660325448e-01	 1.2417343642e+00	-1.6303138772e+00
 5.8872815418e-01	 1.2701965047e+00	-1.6199763533e+00
 8.8397203890e-01	 1.1222342719e+00	-1.5227590788e+00
 8.3015511588e-01	 1.1626086229e+00	-1.5939683557e+00
 7.7471667226e-01	 1.2002626397e+00	-1.6399155080e+00
 7.1786139402e-01	 1.2351078275e+00	-1.6615527522e+00
 6.5979923927e-01	 1.2670758819e+00	-1.6596414129e+00
 6.0074301447e-01	 1.2961188823e+00	-1.6347584845e+00
 5.4066871302e-01	 1.1665069941e+00	-1.5743507782e+00
 4.8681539164e-01	 1.1899882348e+00	-1.6392706211e+00
 4.3244965053e-01	 1.2108049076e+00	-1.6948083174e+00
 3.7775820563e-01	 1.2289670307e+00	-1.7399506783e+00
 3.2292240987e-01	 1.2445008404e+00	-1.7740546301e+00
 2.6811666100e-01	 1.2574476850e+00	-1.7969851411e+00
 5.5268357331e-01	 1.1924293717e+00	-1.5791212121e+00
 4.9763351145e-01	 1.2164324178e+00	-1.6155776077e+00
 4.4205964276e-01	 1.2377116833e+00	-1.6429226194e+00
 3.8615283242e-01	 1.2562774092e+00	-1.6609243895e+00
 3.3009846342e-01	 1.2721564146e+00	-1.6694686913e+00
 2.7407480903e-01	 1.2853909669e+00	-1.6687244751e+00
 5.6469843360e-01	 1.2183517494e+00	-1.5899266983e+00
 5.0845163127e-01	 1.2428766008e+00	-1.6016648101e+00
 4.5166963500e-01	 1.2646184590e+00	-1.6041101698e+00
 3.9454745921e-01	 1.2835877876e+00	-1.5979364061e+00
 3.3727451697e-01	 1.2998119888e+00	-1.5836933164e+00
 2.8003295705e-01	 1.3133342488e+00	-1.5619954725e+00
 5.7671329389e-01	 1.2442741270e+00	-1.6043116601e+00
 5.1926975108e-01	 1.2693207838e+00	-1.5946878245e+00
 4.6127962723e-01	 1.2915252348e+00	-1.5752229398e+00
 4.0294208600e-01	 1.3108981661e+00	-1.5476045137e+00
 3.4445057053e-01	 1.3274675631e+00	-1.5131644422e+00
 2.8599110507e-01	 1.3412775307e+00	-1.4730865732e+00
 5.8872815418e-01	 1.2701965047e+00	-1.6199763533e+00
 5.3008787089e-01	 1.2957649668e+00	-1.5919977810e+00
 4.7088961947e-01	 1.3184320105e+00	-1.5533426734e+00
 4.1133671280e-01	 1.3382085445e+00	-1.5068060724e+00
 3.5162662408e-01	 1.3551231373e+00	-1.4546039737e+00
 2.9194925309e-01	 1.3692208126e+00	-1.3985961845e+00
 6.0074301447e-01	 1.2961188823e+00	-1.6347584845e+00
 5.4090599071e-01	 1.3222091498e+00	-1.5911188833e+00
 4.8049961170e-01	 1.3453387862e+00	-1.5357549963e+00
 4.1973133959e-01	 1.3655189230e+00	-1.4726492474e+00
 3.5880267763e-01	 1.3827787115e+00	-1.4049885834e+00
 2.9790740112e-01	 1.3971640945e+00	-1.3353993842e+00
 2.6811666100e-01	 1.2574476850e+00	-1.7969851411e+00
 2.1350701747e-01	 1.2678627599e+00	-1.8140636902e+00
 1.5925003536e-01	 1.2758137210e+00	-1.8277841738e+00
 1.0549183235e-01	 1.2813792170e+00	-1.8356577585e+00
 5.2367377465e-02	 1.2846473766e+00	-1.8370751325e+00
 0.0000000000e+00	 1.2857142857e+00	-1.8331900009e+00
 2.7407480903e-01	 1.2853909669e+00	-1.6687244751e+00
 2.1825161785e-01	 1.2960374879e+00	-1.6654803995e+00
 1.6278892504e-01	 1.3041651370e+00	-1.6633484992e+00
 1.0783609529e-01	 1.3098543107e+00	-1.6594156504e+00
 5.3531096965e-02	 1.3131950961e+00	-1.6526052125e+00
 0.0000000000e+00	 1.3142857143e+00	-1.6435937776e+00
 2.8003295705e-01	 1.3133342488e+00	-1.5619954725e+00
 2.2299621824e-01	 1.3242122159e+00	-1.5411497934e+00
 1.6632781471e-01	 1.3325165531e+00	-1.5255671604e+00
 1.1018035823e-01	 1.3383294044e+00	-1.5115194019e+00
 5.4694816464e-02	 1.3417428156e+00	-1.4971077727e+00
 0.0000000000e+00	 1.3428571429e+00	-1.4822214296e+00
 2.8599110507e-01	 1.3412775307e+00	-1.4730865732e+00
 2.2774081863e-01	 1.3523869439e+00	-1.4372125201e+00
 1.6986670438e-01	 1.3608679691e+00	-1.4104217379e+00
 1.1252462117e-01	 1.3668044981e+00	-1.3877967739e+00
 5.5858535963e-02	 1.3702905351e+00	-1.3662776831e+00
 0.0000000000e+00	 1.3714285714e+00	-1.3446706999e+00
 2.9194925309e-01	 1.3692208126e+00	-1.3985961845e+00
 2.3248541902e-01	 1.3805616719e+00	-1.3501431094e+00
 1.7340559406e-01	 1.3892193851e+00	-1.3142518740e+00
 1.1486888411e-01	 1.3952795919e+00	-1.2844561377e+00
 5.7022255462e-02	 1.3988382545e+00	-1.2562095487e+00
 0.0000000000e+00	 1.4000000000e+00	-1.2269531022e+00
 2.9790740112e-01	 1.3971640945e+00	-1.3353993842e+00
 2.3723001941e-01	 1.4087363999e+00	-1.2767146720e+00
 1.7694448373e-01	 1.4175708011e+00	-1.2337180006e+00
 1.1721314705e-01	 1.4237546856e+00	-1.1980474339e+00
 5.8185974962e-02	 1.4273859740e+00	-1.1633572527e+00
 0.0000000000e+00	 1.4285714286e+00	-1.1254525431e+00
 1.4285714286e+00	 0.0000000000e+00	 3.0374933267e+00
 1.4273859740e+00	 5.8185974962e-02	 3.0297869631e+00
 1.4237546856e+00	 1.1721314705e-01	 2.9589577689e+00
 1.4175708011e+00	 1.7694448373e-01	 2.8340713917e+00
 1.4087363999e+00	 2.3723001941e-01	 2.6651040750e+00
 1.3971640945e+00	 2.9790740112e-01	 2.4626914336e+00
 1.4571428571e+00	 0.0000000000e+00	 3.0379212978e+00
 1.4559336935e+00	 5.9349694461e-02	 3.0307277480e+00
 1.4522297793e+00	 1.1955740999e-01	 2.9570820622e+00
 1.4459222171e+00	 1.8048337341e-01	 2.8267101967e+00
 1.4369111279e+00	 2.4197461980e-01	 2.6501768427e+00
 1.4251073764e+00	 3.0386554914e-01	 2.4386546603e+00
 1.4857142857e+00	 0.0000000000e+00	 3.0372221367e+00
 1.4844814130e+00	 6.0513413960e-02	 3.0298124752e+00
 1.4807048730e+00	 1.2190167293e-01	 2.9530972856e+00
 1.4742736332e+00	 1.8402226308e-01	 2.8175206515e+00
 1.4650858559e+00	 2.4671922018e-01	 2.6343250513e+00
 1.4530506583e+00	 3.0982369716e-01	 2.4152643300e+00
 1.5142857143e+00	 0.0000000000e+00	 3.0336921330e+00
 1.5130291325e+00	 6.1677133459e-02	 3.0255214409e+00
 1.5091799667e+00	 1.2424593587e-01	 2.9455610563e+00
 1.5026250492e+00	 1.8756115276e-01	 2.8049012698e+00
 1.4932605839e+00	 2.5146382057e-01	 2.6153682960e+00
 1.4809939401e+00	 3.1578184518e-01	 2.3892074858e+00
 1.5428571429e+00	 0.0000000000e+00	 3.0257635336e+00
 1.5415768519e+00	 6.2840852958e-02	 3.0164621613e+00
 1.5376550604e+00	 1.2659019882e-01	 2.9332135851e+00
 1.5309764652e+00	 1.9110004243e-01	 2.7876872977e+00
 1.5214353119e+00	 2.5620842096e-01	 2.5922048214e+00
 1.5089372220e+00	 3.2173999320e-01	 2.3593934383e+00
 1.5714285714e+00	 0.0000000000e+00	 3.0119921826e+00
 1.5701245714e+00	 6.4004572458e-02	 3.0013534500e+00
 1.5661301541e+00	 1.2893446176e-01	 2.9148972325e+00
 1.5593278812e+00	 1.9463893211e-01	 2.7648097787e+00
 1.5496100399e+00	 2.6095302135e-01	 2.5638247001e+00
 1.5368805039e+00	 3.2769814123e-01	 2.3248474784e+00
 1.3971640945e+00	 2.9790740112e-01	 2.4626914336e+00
 1.3827787115e+00	 3.5880267763e-01	 2.2254897838e+00
 1.3655189230e+00	 4.1973133959e-01	 1.9512032571e+00
 1.3453387862e+00	 4.8049961170e-01	 1.6493419075e+00
 1.3222091498e+00	 5.4090599071e-01	 1.3292061462e+00
 1.2961188823e+00	 6.0074301447e-01	 9.9964668501e-01
 1.4251073764e+00	 3.0386554914e-01	 2.4386546603e+00
 1.4104342858e+00	 3.6597873119e-01	 2.1919989444e+00
 1.3928293015e+00	 4.2812596638e-01	 1.9085686706e+00
 1.3722455619e+00	 4.9010960393e-01	 1.5979639556e+00
 1.3486533328e+00	 5.5172411052e-01	 1.2695527982e+00
 1.3220412600e+00	 6.1275787476e-01	 9.3222663586e-01
 1.4530506583e+00	 3.0982369716e-01	 2.4152643300e+00
 1.4380898600e+00	 3.7315478474e-01	 2.1605063368e+00
 1.4201396799e+00	 4.3652059317e-01	 1.8686355485e+00
 1.3991523377e+00	 4.9971959617e-01	 1.5500313608e+00
 1.3750975158e+00	 5.6254223034e-01	 1.2142554210e+00
 1.3479636376e+00	 6.2477273505e-01	 8.7019218431e-01
 1.4809939401e+00	 3.1578184518e-01	 2.3892074858e+00
 1.4657454342e+00	 3.8033083829e-01	 2.1275325426e+00
 1.4474500584e+00	 4.4491521996e-01	 1.8294571357e+00
 1.4260591134e+00	 5.0932958840e-01	 1.5042821925e+00
 1.4015416988e+00	 5.7336035015e-01	 1.1621099862e+00
 1.3738860153e+00	 6.3678759534e-01	 8.1239101640e-01
 1.5089372220e+00	 3.2173999320e-01	 2.3593934383e+00
 1.4934010084e+00	 3.8750689184e-01	 2.0913824621e+00
 1.4747604369e+00	 4.5330984676e-01	 1.7880701856e+00
 1.4529658891e+00	 5.1893958064e-01	 1.4586504189e+00
 1.4279858818e+00	 5.8417846996e-01	 1.1120446551e+00
 1.3998083929e+00	 6.4880245563e-01	 7.5780165575e-01
 1.5368805039e+00	 3.2769814123e-01	 2.3248474784e+00
 1.5210565827e+00	 3.9468294540e-01	 2.0511054732e+00
 1.5020708153e+00	 4.6170447355e-01	 1.7434201870e+00
 1.4798726648e+00	 5.2854957287e-01	 1.4108511432e+00
 1.4544300648e+00	 5.9499658978e-01	 1.0621416230e+00
 1.4257307705e+00	 6.6081731592e-01	 7.0552227654e-01
 1.2961188823e+00	 6.0074301447e-01	 9.9964668501e-01
 1.2670758819e+00	 6.5979923927e-01	 6.6315744078e-01
 1.2351078275e+00	 7.1786139402e-01	 3.2457790346e-01
 1.2002626397e+00	 7.7471667226e-01	-4.8845623108e-03
 1.1626086229e+00	 8.3015511588e-01	-3.1511781193e-01
 1.1222342719e+00	 8.8397203890e-01	-5.9730311970e-01
 1.3220412600e+00	 6.1275787476e-01	 9.3222663586e-01
 1.2924173995e+00	 6.7299522405e-01	 5.8868476454e-01
 1.2598099840e+00	 7.3221862190e-01	 2.4414273168e-01
 1.2242678925e+00	 7.9021100571e-01	-8.9965381749e-02
 1.1858607954e+00	 8.4675821820e-01	-4.0337587457e-01
 1.1446789573e+00	 9.0165147967e-01	-6.8720717033e-01
 1.3479636376e+00	 6.2477273505e-01	 8.7019218431e-01
 1.3177589171e+00	 6.8619120884e-01	 5.2068191842e-01
 1.2845121406e+00	 7.4657584978e-01	 1.7121685101e-01
 1.2482731453e+00	 8.0570533915e-01	-1.6663946835e-01
 1.2091129678e+00	 8.6336132051e-01	-4.8256599632e-01
 1.1671236428e+00	 9.1933092045e-01	-7.6770797665e-01
 1.3738860153e+00	 6.3678759534e-01	 8.1239101640e-01
 1.3431004348e+00	 6.9938719362e-01	 4.5804615382e-01
 1.3092142971e+00	 7.6093307766e-01	 1.0475128124e-01
 1.2722783981e+00	 8.2119967260e-01	-2.3589167513e-01
 1.2323651403e+00	 8.7996442283e-01	-5.5359274019e-01
 1.1895683282e+00	 9.3701036123e-01	-8.3960849990e-01
 1.3998083929e+00	 6.4880245563e-01	 7.5780165575e-01
 1.3684419524e+00	 7.1258317841e-01	 3.9980341958e-01
 1.3339164537e+00	 7.7529030554e-01	 4.3822674577e-02
 1.2962836509e+00	 8.3669400604e-01	-2.9858533507e-01
 1.2556173128e+00	 8.9656752515e-01	-6.1724444256e-01
 1.2120130136e+00	 9.5468980201e-01	-9.0360210399e-01
 1.4257307705e+00	 6.6081731592e-01	 7.0552227654e-01
 1.3937834700e+00	 7.2577916320e-01	 3.4509697471e-01
 1.3586186102e+00	 7.8964753342e-01	-1.2378177835e-02
 1.3202889037e+00	 8.5218833949e-01	-3.5547372424e-01
 1.2788694852e+00	 9.1317062747e-01	-6.7420446852e-01
 1.2344576991e+00	 9.7236924279e-01	-9.6028338917e-01
 1.1222342719e+00	 8.8397203890e-01	-5.9730311970e-01
 1.0792477331e+00	 9.3597043608e-01	-8.5070985038e-01
 1.0337759235e+00	 9.8596331907e-01	-1.0753413534e+00
 9.8596331907e-01	 1.0337759235e+00	-1.2653141029e+00
 9.3597043608e-01	 1.0792477331e+00	-1.4157584675e+00
 8.8397203890e-01	 1.1222342719e+00	-1.5227590788e+00
 1.1446789573e+00	 9.0165147967e-01	-6.8720717033e-01
 1.1008326877e+00	 9.5468984480e-01	-9.4035430231e-01
 1.0544514420e+00	 1.0056825854e+00	-1.1625514658e+00
 1.0056825854e+00	 1.0544514420e+00	-1.3481529940e+00
 9.5468984480e-01	 1.1008326877e+00	-1.4926095543e+00
 9.0165147967e-01	 1.1446789573e+00	-1.5923879296e+00
 1.1671236428e+00	 9.1933092045e-01	-7.6770797665e-01
 1.1224176424e+00	 9.7340925352e-01	-1.0206532259e+00
 1.0751269604e+00	 1.0254018518e+00	-1.2408646133e+00
 1.0254018518e+00	 1.0751269604e+00	-1.4228944138e+00
 9.7340925352e-01	 1.1224176424e+00	-1.5624454002e+00
 9.1933092045e-01	 1.1671236428e+00	-1.6562701965e+00
 1.1895683282e+00	 9.3701036123e-01	-8.3960849990e-01
 1.1440025970e+00	 9.9212866224e-01	-1.0922638587e+00
 1.0958024789e+00	 1.0451211182e+00	-1.3107296469e+00
 1.0451211182e+00	 1.0958024789e+00	-1.4897194184e+00
 9.9212866224e-01	 1.1440025970e+00	-1.6251248066e+00
 9.3701036123e-01	 1.1895683282e+00	-1.7138943787e+00
 1.2120130136e+00	 9.5468980201e-01	-9.0360210399e-01
 1.1655875517e+00	 1.0108480710e+00	-1.1557433663e+00
 1.1164779974e+00	 1.0648403846e+00	-1.3725091235e+00
 1.0648403846e+00	 1.1164779974e+00	-1.5487406616e+00
 1.0108480710e+00	 1.1655875517e+00	-1.6804600223e+00
 9.5468980201e-01	 1.2120130136e+00	-1.7647280575e+00
 1.2344576991e+00	 9.7236924279e-01	-9.6028338917e-01
 1.1871725064e+00	 1.0295674797e+00	-1.2115588826e+00
 1.1371535158e+00	 1.0845596510e+00	-1.4264880517e+00
 1.0845596510e+00	 1.1371535158e+00	-1.6000093586e+00
 1.0295674797e+00	 1.1871725064e+00	-1.7282214647e+00
 9.7236924279e-01	 1.2344576991e+00	-1.8082199470e+00
 8.8397203890e-01	 1.1222342719e+00	-1.5227590788e+00
 8.3015511588e-01	 1.1626086229e+00	-1.5939683557e+00
 7.7471667226e-01	 1.2002626397e+00	-1.6399155080e+00
 7.1786139402e-01	 1.2351078275e+00	-1.6615527522e+00
 6.5979923927e-01	 1.2670758819e+00	-1.6596414129e+00
 6.0074301447e-01	 1.2961188823e+00	-1.6347584845e+00
 9.0165147967e-01	 1.1446789573e+00	-1.5923879296e+00
 8.4675821820e-01	 1.1858607954e+00	-1.6549109511e+00
 7.9021100571e-01	 1.2242678925e+00	-1.6906521162e+00
 7.3221862190e-01	 1.2598099840e+00	-1.7011669119e+00
 6.7299522405e-01	 1.2924173995e+00	-1.6877072740e+00
 6.1275787476e-01	 1.3220412600e+00	-1.6512156685e+00
 9.1933092045e-01	 1.1671236428e+00	-1.6562701965e+00
 8.6336132051e-01	 1.2091129678e+00	-1.7114492382e+00
 8.0570533915e-01	 1.2482731453e+00	-1.7384850359e+00
 7.4657584978e-01	 1.2845121406e+00	-1.7397287862e+00
 6.8619120884e-01	 1.3177589171e+00	-1.7171248805e+00
 6.2477273505e-01	 1.3479636376e+00	-1.6721826973e+00
 9.3701036123e-01	 1.1895683282e+00	-1.7138943787e+00
 8.7996442283e-01	 1.2323651403e+00	-1.7627222589e+00
 8.2119967260e-01	 1.2722783981e+00	-1.7822819001e+00
 7.6093307766e-01	 1.3092142971e+00	-1.7759013682e+00
 6.9938719362e-01	 1.3431004348e+00	-1.7464066459e+00
 6.3678759534e-01	 1.3738860153e+00	-1.6960613785e+00
 9.5468980201e-01	 1.2120130136e+00	-1.7647280575e+00
 8.9656752515e-01	 1.2556173128e+00	-1.8078728134e+00
 8.3669400604e-01	 1.2962836509e+00	-1.8209339603e+00
 7.7529030554e-01	 1.3339164537e+00	-1.8083875093e+00
 7.1258317841e-01	 1.3684419524e+00	-1.7741187019e+00
 6.4880245563e-01	 1.3998083929e+00	-1.7213199623e+00
 9.7236924279e-01	 1.2344576991e+00	-1.8082199470e+00
 9.1317062747e-01	 1.2788694852e+00	-1.8460468699e+00
 8.5218833949e-01	 1.3202889037e+00	-1.8533532657e+00
 7.8964753342e-01	 1.3586186102e+00	-1.8359252007e+00
 7.2577916320e-01	 1.3937834700e+00	-1.7988745327e+00
 6.6081731592e-01	 1.4257307705e+00	-1.7464852960e+00
 6.0074301447e-01	 1.2961188823e+00	-1.6347584845e+00
 5.4090599071e-01	 1.3222091498e+00	-1.5911188833e+00
 4.8049961170e-01	 1.3453387862e+00	-1.5357549963e+00
 4.1973133959e-01	 1.3655189230e+00	-1.4726492474e+00
 3.5880267763e-01	 1.3827787115e+00	-1.4049885834e+00
 2.9790740112e-01	 1.3971640945e+00	-1.3353993842e+00
 6.1275787476e-01	 1.3220412600e+00	-1.6512156685e+00
 5.5172411052e-01	 1.3486533328e+00	-1.5951689726e+00
 4.9010960393e-01	 1.3722455619e+00	-1.5264460395e+00
 4.2812596638e-01	 1.3928293015e+00	-1.4500227949e+00
 3.6597873119e-01	 1.4104342858e+00	-1.3698807785e+00
 3.0386554914e-01	 1.4251073764e+00	-1.2892582416e+00
 6.2477273505e-01	 1.3479636376e+00	-1.6721826973e+00
 5.6254223034e-01	 1.3750975158e+00	-1.6076748669e+00
 4.9971959617e-01	 1.3991523377e+00	-1.5299236822e+00
 4.3652059317e-01	 1.4201396799e+00	-1.4444522982e+00
 3.7315478474e-01	 1.4380898600e+00	-1.3548761837e+00
 3.0982369716e-01	 1.4530506583e+00	-1.2622219544e+00
 6.3678759534e-01	 1.3738860153e+00	-1.6960613785e+00
 5.7336035015e-01	 1.4015416988e+00	-1.6269572905e+00
 5.0932958840e-01	 1.4260591134e+00	-1.5444695960e+00
 4.4491521996e-01	 1.4474500584e+00	-1.4511850620e+00
 3.8033083829e-01	 1.4657454342e+00	-1.3491025115e+00
 3.1578184518e-01	 1.4809939401e+00	-1.2450501227e+00
 6.4880245563e-01	 1.3998083929e+00	-1.7213199623e+00
 5.8417846996e-01	 1.4279858818e+00	-1.6514158545e+00
 5.1893958064e-01	 1.4529658891e+00	-1.5632224155e+00
 4.5330984676e-01	 1.4747604369e+00	-1.4592769500e+00
 3.8750689184e-01	 1.4934010084e+00	-1.3478240953e+00
 3.2173999320e-01	 1.5089372220e+00	-1.2356467865e+00
 6.6081731592e-01	 1.4257307705e+00	-1.7464852960e+00
 5.9499658978e-01	 1.4544300648e+00	-1.6735957667e+00
 5.2854957287e-01	 1.4798726648e+00	-1.5769954264e+00
 4.6170447355e-01	 1.5020708153e+00	-1.4661755969e+00
 3.9468294540e-01	 1.5210565827e+00	-1.3490869551e+00
 3.2769814123e-01	 1.5368805039e+00	-1.2321339913e+00
 2.9790740112e-01	 1.3971640945e+00	-1.3353993842e+00
 2.3723001941e-01	 1.4087363999e+00	-1.2767146720e+00
 1.7694448373e-01	 1.4175708011e+00	-1.2337180006e+00
 1.1721314705e-01	 1.4237546856e+00	-1.1980474339e+00
 5.8185974962e-02	 1.4273859740e+00	-1.1633572527e+00
 0.0000000000e+00	 1.4285714286e+00	-1.1254525431e+00
 3.0386554914e-01	 1.4251073764e+00	-1.2892582416e+00
 2.4197461980e-01	 1.4369111279e+00	-1.2217639695e+00
 1.8048337341e-01	 1.4459222171e+00	-1.1713773673e+00
 1.1955740999e-01	 1.4522297793e+00	-1.1289919291e+00
 5.9349694461e-02	 1.4559336935e+00	-1.0870572993e+00
 0.0000000000e+00	 1.4571428571e+00	-1.0397742935e+00
 3.0982369716e-01	 1.4530506583e+00	-1.2622219544e+00
 2.4671922018e-01	 1.4650858559e+00	-1.1835621967e+00
 1.8402226308e-01	 1.4742736332e+00	-1.1250170581e+00
 1.2190167293e-01	 1.4807048730e+00	-1.0758660125e+00
 6.0513413960e-02	 1.4844814130e+00	-1.0267625678e+00
 0.0000000000e+00	 1.4857142857e+00	-9.7009184072e-01
 3.1578184518e-01	 1.4809939401e+00	-1.2450501227e+00
 2.5146382057e-01	 1.4932605839e+00	-1.1573609068e+00
 1.8756115276e-01	 1.5026250492e+00	-1.0919052718e+00
 1.2424593587e-01	 1.5091799667e+00	-1.0365328878e+00
 6.1677133459e-02	 1.5130291325e+00	-9.8032551943e-01
 0.0000000000e+00	 1.5142857143e+00	-9.1402535080e-01
 3.2173999320e-01	 1.5089372220e+00	-1.2356467865e+00
 2.5620842096e-01	 1.5214353119e+00	-1.1412616842e+00
 1.9110004243e-01	 1.5309764652e+00	-1.0701885636e+00
 1.2659019882e-01	 1.5376550604e+00	-1.0091083906e+00
 6.2840852958e-02	 1.5415768519e+00	-9.4574254999e-01
 0.0000000000e+00	 1.5428571429e+00	-8.6935175985e-01
 3.2769814123e-01	 1.5368805039e+00	-1.2321339913e+00
 2.6095302135e-01	 1.5496100399e+00	-1.1334838113e+00
 1.9463893211e-01	 1.5593278812e+00	-1.0581273805e+00
 1.2893446176e-01	 1.5661301541e+00	-9.9182447321e-01
 6.4004572458e-02	 1.5701245714e+00	-9.2113542832e-01
 0.0000000000e+00	 1.5714285714e+00	-8.3399052209e-01
 1.5714285714e+00	 0.0000000000e+00	 3.0119921826e+00
 1.5701245714e+00	 6.4004572458e-02	 3.0013534500e+00
 1.5661301541e+00	 1.2893446176e-01	 2.9148972325e+00
 1.5593278812e+00	 1.9463893211e-01	 2.7648097787e+00
 1.5496100399e+00	 2.6095302135e-01	 2.5638247001e+00
 1.5368805039e+00	 3.2769814123e-01	 2.3248474784e+00
 1.6000000000e+00	 0.0000000000e+00	 2.9968128234e+00
 1.5986722909e+00	 6.5168291957e-02	 2.9837356856e+00
 1.5946052478e+00	 1.3127872470e-01	 2.8935588124e+00
 1.5876792973e+00	 1.9817782178e-01	 2.7388526843e+00
 1.5777847679e+00	 2.6569762174e-01	 2.5326069127e+00
 1.5648237858e+00	 3.3365628925e-01	 2.2878279147e+00
 1.6285714286e+00	 0.0000000000e+00	 2.9849285011e+00
 1.6272200104e+00	 6.6332011456e-02	 2.9673625231e+00
 1.6230803416e+00	 1.3362298764e-01	 2.8723069771e+00
 1.6160307133e+00	 2.0171671146e-01	 2.7125192838e+00
 1.6059594959e+00	 2.7044222212e-01	 2.5010215133e+00
 1.5927670677e+00	 3.3961443727e-01	 2.2506756699e+00
 1.6571428571e+00	 0.0000000000e+00	 2.9754397164e+00
 1.6557677299e+00	 6.7495730955e-02	 2.9514026674e+00
 1.6515554353e+00	 1.3596725058e-01	 2.8503484937e+00
 1.6443821293e+00	 2.0525560113e-01	 2.6850359031e+00
 1.6341342239e+00	 2.7518682251e-01	 2.4683082554e+00
 1.6207103496e+00	 3.4557258529e-01	 2.2126507688e+00
 1.6857142857e+00	 0.0000000000e+00	 2.9675168824e+00
 1.6843154494e+00	 6.8659450455e-02	 2.9350901709e+00
 1.6800305290e+00	 1.3831151352e-01	 2.8269530355e+00
 1.6727335453e+00	 2.0879449081e-01	 2.6556906642e+00
 1.6623089519e+00	 2.7993142290e-01	 2.4337680636e+00
 1.6486536315e+00	 3.5153073332e-01	 2.1730733786e+00
 1.7142857143e+00	 0.0000000000e+00	 2.9603944987e+00
 1.7128631688e+00	 6.9823169954e-02	 2.9177189007e+00
 1.7085056227e+00	 1.4065577646e-01	 2.8014477726e+00
 1.7010849614e+00	 2.1233338048e-01	 2.6238280956e+00
 1.6904836799e+00	 2.8467602329e-01	 2.3967576302e+00
 1.6765969134e+00	 3.5748888134e-01	 2.1313184271e+00
 1.5368805039e+00	 3.2769814123e-01	 2.3248474784e+00
 1.5210565827e+00	 3.9468294540e-01	 2.0511054732e+00
 1.5020708153e+00	 4.6170447355e-01	 1.7434201870e+00
 1.4798726648e+00	 5.2854957287e-01	 1.4108511432e+00
 1.4544300648e+00	 5.9499658978e-01	 1.0621416230e+00
 1.4257307705e+00	 6.6081731592e-01	 7.0552227654e-01
 1.5648237858e+00	 3.3365628925e-01	 2.2878279147e+00
 1.5487121569e+00	 4.0185899895e-01	 2.0088593335e+00
 1.5293811938e+00	 4.7009910034e-01	 1.6975383433e+00
 1.5067794406e+00	 5.3815956510e-01	 1.3627069051e+00
 1.4808742477e+00	 6.0581470959e-01	 1.0128446160e+00
 1.4516531482e+00	 6.7283217621e-01	 6.5586413259e-01
 1.5927670677e+00	 3.3961443727e-01	 2.2506756699e+00
 1.5763677311e+00	 4.0903505250e-01	 1.9668882702e+00
 1.5566915722e+00	 4.7849372713e-01	 1.6525496177e+00
 1.5336862163e+00	 5.4776955734e-01	 1.3161581479e+00
 1.5073184307e+00	 6.1663282941e-01	 9.6580164392e-01
 1.4775755258e+00	 6.8484703650e-01	 6.0895922047e-01
 1.6207103496e+00	 3.4557258529e-01	 2.2126507688e+00
 1.6040233054e+00	 4.1621110605e-01	 1.9244801829e+00
 1.5840019507e+00	 4.8688835392e-01	 1.6077731870e+00
 1.5605929920e+00	 5.5737954957e-01	 1.2705647668e+00
 1.5337626137e+00	 6.2745094922e-01	 9.2042892426e-01
 1.5034979035e+00	 6.9686189679e-01	 5.6429105290e-01
 1.6486536315e+00	 3.5153073332e-01	 2.1730733786e+00
 1.6316788796e+00	 4.2338715961e-01	 1.8809816167e+00
 1.6113123292e+00	 4.9528298071e-01	 1.5625851850e+00
 1.5874997677e+00	 5.6698954181e-01	 1.2253413202e+00
 1.5602067967e+00	 6.3826906904e-01	 8.7619402328e-01
 1.5294202811e+00	 7.0887675708e-01	 5.2140056735e-01
 1.6765969134e+00	 3.5748888134e-01	 2.1313184271e+00
 1.6593344538e+00	 4.3056321316e-01	 1.8357924450e+00
 1.6386227076e+00	 5.0367760751e-01	 1.5164134664e+00
 1.6144065435e+00	 5.7659953404e-01	 1.1799519241e+00
 1.5866509797e+00	 6.4908718885e-01	 8.3261096521e-01
 1.5553426588e+00	 7.2089161737e-01	 4.7987074940e-01
 1.4257307705e+00	 6.6081731592e-01	 7.0552227654e-01
 1.3937834700e+00	 7.2577916320e-01	 3.4509697471e-01
 1.3586186102e+00	 7.8964753342e-01	-1.2378177835e-02
 1.3202889037e+00	 8.5218833949e-01	-3.5547372424e-01
 1.2788694852e+00	 9.1317062747e-01	-6.7420446852e-01
 1.2344576991e+00	 9.7236924279e-01	-9.6028338917e-01
 1.4516531482e+00	 6.7283217621e-01	 6.5586413259e-01
 1.4191249877e+00	 7.3897514798e-01	 2.9431119101e-01
 1.3833207668e+00	 8.0400476130e-01	-6.4216745234e-02
 1.3442941565e+00	 8.6768267293e-01	-4.0767044906e-01
 1.3021216577e+00	 9.2977372978e-01	-7.2622069491e-01
 1.2569023845e+00	 9.9004868356e-01	-1.0118085608e+00
 1.4775755258e+00	 6.8484703650e-01	 6.0895922047e-01
 1.4444665053e+00	 7.5217113277e-01	 2.4776406095e-01
 1.4080229233e+00	 8.1836198918e-01	-1.1174698479e-01
 1.3682994093e+00	 8.8317700638e-01	-4.5591498349e-01
 1.3253738301e+00	 9.4637683210e-01	-7.7460814815e-01
 1.2793470699e+00	 1.0077281243e+00	-1.0598528782e+00
 1.5034979035e+00	 6.9686189679e-01	 5.6429105290e-01
 1.4698080230e+00	 7.6536711755e-01	 2.0389456063e-01
 1.4327250799e+00	 8.3271921706e-01	-1.5520637800e-01
 1.3923046620e+00	 8.9867133983e-01	-5.0028586362e-01
 1.3486260026e+00	 9.6297993442e-01	-8.1929951695e-01
 1.3017917554e+00	 1.0254075651e+00	-1.1042006266e+00
 1.5294202811e+00	 7.0887675708e-01	 5.2140056735e-01
 1.4951495406e+00	 7.7856310234e-01	 1.6223012276e-01
 1.4574272364e+00	 8.4707644494e-01	-1.9570243849e-01
 1.4163099148e+00	 9.1416567327e-01	-5.4081630682e-01
 1.3718781751e+00	 9.7958303674e-01	-8.6019291184e-01
 1.3242364408e+00	 1.0430870059e+00	-1.1446117231e+00
 1.5553426588e+00	 7.2089161737e-01	 4.7987074940e-01
 1.5204910582e+00	 7.9175908712e-01	 1.2244529485e-01
 1.4821293930e+00	 8.6143367282e-01	-2.3393942937e-01
 1.4403151676e+00	 9.2966000672e-01	-5.7765761157e-01
 1.3951303475e+00	 9.9618613905e-01	-8.9715670415e-01
 1.3466811263e+00	 1.0607664467e+00	-1.1808259327e+00
 1.2344576991e+00	 9.7236924279e-01	-9.6028338917e-01
 1.1871725064e+00	 1.0295674797e+00	-1.2115588826e+00
 1.1371535158e+00	 1.0845596510e+00	-1.4264880517e+00
 1.0845596510e+00	 1.1371535158e+00	-1.6000093586e+00
 1.0295674797e+00	 1.1871725064e+00	-1.7282214647e+00
 9.7236924279e-01	 1.2344576991e+00	-1.8082199470e+00
 1.2569023845e+00	 9.9004868356e-01	-1.0118085608e+00
 1.2087574610e+00	 1.0482868884e+00	-1.2619692898e+00
 1.1578290343e+00	 1.1042789174e+00	-1.4748000115e+00
 1.1042789174e+00	 1.1578290343e+00	-1.6454552222e+00
 1.0482868884e+00	 1.2087574610e+00	-1.7702329039e+00
 9.9004868356e-01	 1.2569023845e+00	-1.8463837576e+00
 1.2793470699e+00	 1.0077281243e+00	-1.0598528782e+00
 1.2303424157e+00	 1.0670062971e+00	-1.3087533403e+00
 1.1785045528e+00	 1.1239981837e+00	-1.5191761938e+00
 1.1239981837e+00	 1.1785045528e+00	-1.6867505910e+00
 1.0670062971e+00	 1.2303424157e+00	-1.8082622147e+00
 1.0077281243e+00	 1.2793470699e+00	-1.8814234765e+00
 1.3017917554e+00	 1.0254075651e+00	-1.1042006266e+00
 1.2519273704e+00	 1.0857257058e+00	-1.3515807769e+00
 1.1991800712e+00	 1.1437174501e+00	-1.5592311483e+00
 1.1437174501e+00	 1.1991800712e+00	-1.7235032722e+00
 1.0857257058e+00	 1.2519273704e+00	-1.8419480644e+00
 1.0254075651e+00	 1.3017917554e+00	-1.9130354621e+00
 1.3242364408e+00	 1.0430870059e+00	-1.1446117231e+00
 1.2735123250e+00	 1.1044451146e+00	-1.3901039887e+00
 1.2198555897e+00	 1.1634367165e+00	-1.5945641095e+00
 1.1634367165e+00	 1.2198555897e+00	-1.7553036647e+00
 1.1044451146e+00	 1.2735123250e+00	-1.8709064678e+00
 1.0430870059e+00	 1.3242364408e+00	-1.9408861273e+00
 1.3466811263e+00	 1.0607664467e+00	-1.1808259327e+00
 1.2950972797e+00	 1.1231645233e+00	-1.4239617435e+00
 1.2405311082e+00	 1.1831559829e+00	-1.6247625273e+00
 1.1831559829e+00	 1.2405311082e+00	-1.7817282973e+00
 1.1231645233e+00	 1.2950972797e+00	-1.8947344772e+00
 1.0607664467e+00	 1.3466811263e+00	-1.9646158488e+00
 9.7236924279e-01	 1.2344576991e+00	-1.8082199470e+00
 9.1317062747e-01	 1.2788694852e+00	-1.8460468699e+00
 8.5218833949e-01	 1.3202889037e+00	-1.8533532657e+00
 7.8964753342e-01	 1.3586186102e+00	-1.8359252007e+00
 7.2577916320e-01	 1.3937834700e+00	-1.7988745327e+00
 6.6081731592e-01	 1.4257307705e+00	-1.7464852960e+00
 9.9004868356e-01	 1.2569023845e+00	-1.8463837576e+00
 9.2977372978e-01	 1.3021216577e+00	-1.8799212638e+00
 8.6768267293e-01	 1.3442941565e+00	-1.8832659443e+00
 8.0400476130e-01	 1.3833207668e+00	-1.8634515787e+00
 7.3897514798e-01	 1.4191249877e+00	-1.8267156063e+00
 6.7283217621e-01	 1.4516531482e+00	-1.7736163391e+00
 1.0077281243e+00	 1.2793470699e+00	-1.8814234765e+00
 9.4637683210e-01	 1.3253738301e+00	-1.9125502367e+00
 8.8317700638e-01	 1.3682994093e+00	-1.9148181188e+00
 8.1836198918e-01	 1.4080229233e+00	-1.8962384915e+00
 7.5217113277e-01	 1.4444665053e+00	-1.8616585113e+00
 6.8484703650e-01	 1.4775755258e+00	-1.8022382190e+00
 1.0254075651e+00	 1.3017917554e+00	-1.9130354621e+00
 9.6297993442e-01	 1.3486260026e+00	-1.9436213982e+00
 8.9867133983e-01	 1.3923046620e+00	-1.9475459729e+00
 8.3271921706e-01	 1.4327250799e+00	-1.9334020736e+00
 7.6536711755e-01	 1.4698080230e+00	-1.8945441547e+00
 6.9686189679e-01	 1.5034979035e+00	-1.8306838851e+00
 1.0430870059e+00	 1.3242364408e+00	-1.9408861273e+00
 9.7958303674e-01	 1.3718781751e+00	-1.9727898482e+00
 9.1416567327e-01	 1.4163099148e+00	-1.9809610098e+00
 8.4707644494e-01	 1.4574272364e+00	-1.9678037870e+00
 7.7856310234e-01	 1.4951495406e+00	-1.9236283664e+00
 7.0887675708e-01	 1.5294202811e+00	-1.8574619974e+00
 1.0607664467e+00	 1.3466811263e+00	-1.9646158488e+00
 9.9618613905e-01	 1.3951303475e+00	-1.9996818378e+00
 9.2966000672e-01	 1.4403151676e+00	-2.0134850432e+00
 8.6143367282e-01	 1.4821293930e+00	-1.9954156165e+00
 7.9175908712e-01	 1.5204910582e+00	-1.9479992195e+00
 7.2089161737e-01	 1.5553426588e+00	-1.8811788482e+00
 6.6081731592e-01	 1.4257307705e+00	-1.7464852960e+00
 5.9499658978e-01	 1.4544300648e+00	-1.6735957667e+00
 5.2854957287e-01	 1.4798726648e+00	-1.5769954264e+00
 4.6170447355e-01	 1.5020708153e+00	-1.4661755969e+00
 3.9468294540e-01	 1.5210565827e+00	-1.3490869551e+00
 3.2769814123e-01	 1.5368805039e+00	-1.2321339913e+00
 6.7283217621e-01	 1.4516531482e+00	-1.7736163391e+00
 6.0581470959e-01	 1.4808742477e+00	-1.6937159538e+00
 5.3815956510e-01	 1.5067794406e+00	-1.5917011275e+00
 4.7009910034e-01	 1.5293811938e+00	-1.4767247020e+00
 4.0185899895e-01	 1.5487121569e+00	-1.3563223788e+00
 3.3365628925e-01	 1.5648237858e+00	-1.2364887369e+00
 6.8484703650e-01	 1.4775755258e+00	-1.8022382190e+00
 6.1663282941e-01	 1.5073184307e+00	-1.7180759887e+00
 5.4776955734e-01	 1.5336862163e+00	-1.6129879332e+00
 4.7849372713e-01	 1.5566915722e+00	-1.4956305349e+00
 4.0903505250e-01	 1.5763677311e+00	-1.3731871146e+00
 3.3961443727e-01	 1.5927670677e+00	-1.2514422717e+00
 6.9686189679e-01	 1.5034979035e+00	-1.8306838851e+00
 6.2745094922e-01	 1.5337626137e+00	-1.7446398851e+00
 5.5737954957e-01	 1.5605929920e+00	-1.6386967097e+00
 4.8688835392e-01	 1.5840019507e+00	-1.5209291846e+00
 4.1621110605e-01	 1.6040233054e+00	-1.3982276900e+00
 3.4557258529e-01	 1.6207103496e+00	-1.2763589642e+00
 7.0887675708e-01	 1.5294202811e+00	-1.8574619974e+00
 6.3826906904e-01	 1.5602067967e+00	-1.7715040296e+00
 5.6698954181e-01	 1.5874997677e+00	-1.6668066515e+00
 4.9528298071e-01	 1.6113123292e+00	-1.5507795156e+00
 4.2338715961e-01	 1.6316788796e+00	-1.4300766328e+00
 3.5153073332e-01	 1.6486536315e+00	-1.3106317958e+00
 7.2089161737e-01	 1.5553426588e+00	-1.8811788482e+00
 6.4908718885e-01	 1.5866509797e+00	-1.7968874805e+00
 5.7659953404e-01	 1.6144065435e+00	-1.6954249901e+00
 5.0367760751e-01	 1.6386227076e+00	-1.5834540617e+00
 4.3056321316e-01	 1.6593344538e+00	-1.4674463003e+00
 3.5748888134e-01	 1.6765969134e+00	-1.3536808256e+00
 3.2769814123e-01	 1.5368805039e+00	-1.2321339913e+00
 2.6095302135e-01	 1.5496100399e+00	-1.1334838113e+00
 1.9463893211e-01	 1.5593278812e+00	-1.0581273805e+00
 1.2893446176e-01	 1.5661301541e+00	-9.9182447321e-01
 6.4004572458e-02	 1.5701245714e+00	-9.2113542832e-01
 0.0000000000e+00	 1.5714285714e+00	-8.3399052209e-01
 3.3365628925e-01	 1.5648237858e+00	-1.2364887369e+00
 2.6569762174e-01	 1.5777847679e+00	-1.1346865580e+00
 1.9817782178e-01	 1.5876792973e+00	-1.0554114213e+00
 1.3127872470e-01	 1.5946052478e+00	-9.8398631147e-01
 6.5168291957e-02	 1.5986722909e+00	-9.0612741666e-01
 0.0000000000e+00	 1.6000000000e+00	-8.0859205018e-01
 3.3961443727e-01	 1.5927670677e+00	-1.2514422717e+00
 2.7044222212e-01	 1.6059594959e+00	-1.1467279270e+00
 2.0171671146e-01	 1.6160307133e+00	-1.0630397926e+00
 1.3362298764e-01	 1.6230803416e+00	-9.8597378299e-01
 6.6332011456e-02	 1.6272200104e+00	-9.0083017844e-01
 0.0000000000e+00	 1.6285714286e+00	-7.9335606310e-01
 3.4557258529e-01	 1.6207103496e+00	-1.2763589642e+00
 2.7518682251e-01	 1.6341342239e+00	-1.1696897466e+00
 2.0525560113e-01	 1.6443821293e+00	-1.0812873313e+00
 1.3596725058e-01	 1.6515554353e+00	-9.9770174715e-01
 6.7495730955e-02	 1.6557677299e+00	-9.0422608045e-01
 0.0000000000e+00	 1.6571428571e+00	-7.8574891874e-01
 3.5153073332e-01	 1.6486536315e+00	-1.3106317958e+00
 2.7993142290e-01	 1.6623089519e+00	-1.2036321897e+00
 2.0879449081e-01	 1.6727335453e+00	-1.1103929060e+00
 1.3831151352e-01	 1.6800305290e+00	-1.0190727544e+00
 6.8659450455e-02	 1.6843154494e+00	-9.1534820659e-01
 0.0000000000e+00	 1.6857142857e+00	-7.8339088704e-01
 3.5748888134e-01	 1.6765969134e+00	-1.3536808256e+00
 2.8467602329e-01	 1.6904836799e+00	-1.2485962675e+00
 2.1233338048e-01	 1.7010849614e+00	-1.1505629337e+00
 1.4065577646e-01	 1.7085056227e+00	-1.0499784153e+00
 6.9823169954e-02	 1.7128631688e+00	-9.3327629986e-01
 0.0000000000e+00	 1.7142857143e+00	-7.8404332400e-01
 1.7142857143e+00	 0.0000000000e+00	 2.9603944987e+00
 1.7128631688e+00	 6.9823169954e-02	 2.9177189007e+00
 1.7085056227e+00	 1.4065577646e-01	 2.8014477726e+00
 1.7010849614e+00	 2.1233338048e-01	 2.6238280956e+00
 1.6904836799e+00	 2.8467602329e-01	 2.3967576302e+00
 1.6765969134e+00	 3.5748888134e-01	 2.1313184271e+00
 1.7428571429e+00	 0.0000000000e+00	 2.9611244770e+00
 1.7414108883e+00	 7.0986889453e-02	 2.9016714293e+00
 1.7369807164e+00	 1.4300003940e-01	 2.7739183809e+00
 1.7294363774e+00	 2.1587227016e-01	 2.5889709292e+00
 1.7186584079e+00	 2.8942062368e-01	 2.3572716651e+00
 1.7045401953e+00	 3.6344702936e-01	 2.0881438168e+00
 1.7714285714e+00	 0.0000000000e+00	 2.9770204471e+00
 1.7699586078e+00	 7.2150608952e-02	 2.8896259652e+00
 1.7654558101e+00	 1.4534430234e-01	 2.7446908911e+00
 1.7577877934e+00	 2.1941115983e-01	 2.5507814166e+00
 1.7468331359e+00	 2.9416522407e-01	 2.3153443340e+00
 1.7324834771e+00	 3.6940517738e-01	 2.0442960694e+00
 1.8000000000e+00	 0.0000000000e+00	 3.0077762398e+00
 1.7985063273e+00	 7.3314328452e-02	 2.8813782180e+00
 1.7939309038e+00	 1.4768856528e-01	 2.7135120283e+00
 1.7861392094e+00	 2.2295004951e-01	 2.5088779337e+00
 1.7750078639e+00	 2.9890982445e-01	 2.2704621893e+00
 1.7604267590e+00	 3.7536332541e-01	 1.9992058363e+00
 1.8285714286e+00	 0.0000000000e+00	 3.0531130534e+00
 1.8270540468e+00	 7.4478047951e-02	 2.8767445451e+00
 1.8224059975e+00	 1.5003282823e-01	 2.6801519873e+00
 1.8144906254e+00	 2.2648893918e-01	 2.4629102158e+00
 1.8031825919e+00	 3.0365442484e-01	 2.2221513424e+00
 1.7883700409e+00	 3.8132147343e-01	 1.9523468580e+00
 1.8571428571e+00	 0.0000000000e+00	 3.1127773488e+00
 1.8556017662e+00	 7.5641767450e-02	 2.8755602838e+00
 1.8508810912e+00	 1.5237709117e-01	 2.6444024776e+00
 1.8428420415e+00	 2.3002782885e-01	 2.4125567319e+00
 1.8313573199e+00	 3.0839902523e-01	 2.1699741513e+00
 1.8163133228e+00	 3.8727962145e-01	 1.9032323287e+00
 1.6765969134e+00	 3.5748888134e-01	 2.1313184271e+00
 1.6593344538e+00	 4.3056321316e-01	 1.8357924450e+00
 1.6386227076e+00	 5.0367760751e-01	 1.5164134664e+00
 1.6144065435e+00	 5.7659953404e-01	 1.1799519241e+00
 1.5866509797e+00	 6.4908718885e-01	 8.3261096521e-01
 1.5553426588e+00	 7.2089161737e-01	 4.7987074940e-01
 1.7045401953e+00	 3.6344702936e-01	 2.0881438168e+00
 1.6869900281e+00	 4.3773926671e-01	 1.7900846825e+00
 1.6659330861e+00	 5.1207223430e-01	 1.4704446324e+00
 1.6413133192e+00	 5.8620952627e-01	 1.1353259206e+00
 1.6130951627e+00	 6.5990530866e-01	 7.9021698003e-01
 1.5812650364e+00	 7.3290647765e-01	 4.3985445266e-01
 1.7324834771e+00	 3.6940517738e-01	 2.0442960694e+00
 1.7146456023e+00	 4.4491532026e-01	 1.7450197214e+00
 1.6932434645e+00	 5.2046686109e-01	 1.4258709139e+00
 1.6682200949e+00	 5.9581951851e-01	 1.0924216358e+00
 1.6395393457e+00	 6.7072342848e-01	 7.4959996918e-01
 1.6071874141e+00	 7.4492133794e-01	 4.0156620840e-01
 1.7604267590e+00	 3.7536332541e-01	 1.9992058363e+00
 1.7423011765e+00	 4.5209137382e-01	 1.7000521682e+00
 1.7205538430e+00	 5.2886148788e-01	 1.3821958087e+00
 1.6951268706e+00	 6.0542951074e-01	 1.0508091423e+00
 1.6659835287e+00	 6.8154154829e-01	 7.1040658950e-01
 1.6331097917e+00	 7.5693619823e-01	 3.6473129724e-01
 1.7883700409e+00	 3.8132147343e-01	 1.9523468580e+00
 1.7699567508e+00	 4.5926742737e-01	 1.6546783143e+00
 1.7478642215e+00	 5.3725611467e-01	 1.3389615756e+00
 1.7220336464e+00	 6.1503950298e-01	 1.0100932706e+00
 1.6924277117e+00	 6.9235966811e-01	 6.7231365160e-01
 1.6590321694e+00	 7.6895105852e-01	 3.2910045497e-01
 1.8163133228e+00	 3.8727962145e-01	 1.9032323287e+00
 1.7976123250e+00	 4.6644348092e-01	 1.6084325591e+00
 1.7751745999e+00	 5.4565074146e-01	 1.2957458333e+00
 1.7489404221e+00	 6.2464949521e-01	 9.6991046665e-01
 1.7188718947e+00	 7.0317778792e-01	 6.3502527812e-01
 1.6849545470e+00	 7.8096591881e-01	 2.9444733507e-01
 1.5553426588e+00	 7.2089161737e-01	 4.7987074940e-01
 1.5204910582e+00	 7.9175908712e-01	 1.2244529485e-01
 1.4821293930e+00	 8.6143367282e-01	-2.3393942937e-01
 1.4403151676e+00	 9.2966000672e-01	-5.7765761157e-01
 1.3951303475e+00	 9.9618613905e-01	-8.9715670415e-01
 1.3466811263e+00	 1.0607664467e+00	-1.1808259327e+00
 1.5812650364e+00	 7.3290647765e-01	 4.3985445266e-01
 1.5458325759e+00	 8.0495507191e-01	 8.4428032767e-02
 1.5068315495e+00	 8.7579090070e-01	-2.7019841542e-01
 1.4643204204e+00	 9.4515434016e-01	-6.1214848562e-01
 1.4183825200e+00	 1.0127892414e+00	-9.3067394774e-01
 1.3691258117e+00	 1.0784458875e+00	-1.2136020586e+00
 1.6071874141e+00	 7.4492133794e-01	 4.0156620840e-01
 1.5711740935e+00	 8.1815105669e-01	 4.8125384608e-02
 1.5315337061e+00	 8.9014812858e-01	-3.0471177253e-01
 1.4883256732e+00	 9.6064867361e-01	-6.4483802421e-01
 1.4416346924e+00	 1.0293923437e+00	-9.6138502056e-01
 1.3915704971e+00	 1.0961253282e+00	-1.2436759090e+00
 1.6331097917e+00	 7.5693619823e-01	 3.6473129724e-01
 1.5965156111e+00	 8.3134704148e-01	 1.3342379983e-02
 1.5562358626e+00	 9.0450535646e-01	-3.3758806970e-01
 1.5123309260e+00	 9.7614300705e-01	-6.7574022027e-01
 1.4648868649e+00	 1.0459954460e+00	-9.9002933494e-01
 1.4140151826e+00	 1.1138047690e+00	-1.2707352271e+00
 1.6590321694e+00	 7.6895105852e-01	 3.2910045497e-01
 1.6218571288e+00	 8.4454302626e-01	-2.0095209850e-02
 1.5809380192e+00	 9.1886258434e-01	-3.6892017213e-01
 1.5363361788e+00	 9.9163734050e-01	-7.0485877307e-01
 1.4881390374e+00	 1.0625985483e+00	-1.0166241488e+00
 1.4364598680e+00	 1.1314842098e+00	-1.2945314161e+00
 1.6849545470e+00	 7.8096591881e-01	 2.9444733507e-01
 1.6471986464e+00	 8.5773901105e-01	-5.2343107545e-02
 1.6056401757e+00	 9.3321981222e-01	-3.9878715267e-01
 1.5603414316e+00	 1.0071316739e+00	-7.3218864751e-01
 1.5113912098e+00	 1.0792016506e+00	-1.0410714939e+00
 1.4589045534e+00	 1.1491636506e+00	-1.3155762868e+00
 1.3466811263e+00	 1.0607664467e+00	-1.1808259327e+00
 1.2950972797e+00	 1.1231645233e+00	-1.4239617435e+00
 1.2405311082e+00	 1.1831559829e+00	-1.6247625273e+00
 1.1831559829e+00	 1.2405311082e+00	-1.7817282973e+00
 1.1231645233e+00	 1.2950972797e+00	-1.8947344772e+00
 1.0607664467e+00	 1.3466811263e+00	-1.9646158488e+00
 1.3691258117e+00	 1.0784458875e+00	-1.2136020586e+00
 1.3166822343e+00	 1.1418839320e+00	-1.4543528202e+00
 1.2612066267e+00	 1.2028752493e+00	-1.6516015657e+00
 1.2028752493e+00	 1.2612066267e+00	-1.8051829801e+00
 1.1418839320e+00	 1.3166822343e+00	-1.9164373017e+00
 1.0784458875e+00	 1.3691258117e+00	-1.9877115271e+00
 1.3915704971e+00	 1.0961253282e+00	-1.2436759090e+00
 1.3382671890e+00	 1.1606033407e+00	-1.4824485503e+00
 1.2818821451e+00	 1.2225945156e+00	-1.6768071444e+00
 1.2225945156e+00	 1.2818821451e+00	-1.8279901650e+00
 1.1606033407e+00	 1.3382671890e+00	-1.9388956858e+00
 1.0961253282e+00	 1.3915704971e+00	-2.0134930106e+00
 1.4140151826e+00	 1.1138047690e+00	-1.2707352271e+00
 1.3598521437e+00	 1.1793227495e+00	-1.5078383523e+00
 1.3025576636e+00	 1.2423137820e+00	-1.6998885855e+00
 1.2423137820e+00	 1.3025576636e+00	-1.8495962425e+00
 1.1793227495e+00	 1.3598521437e+00	-1.9615101558e+00
 1.1138047690e+00	 1.4140151826e+00	-2.0413326924e+00
 1.4364598680e+00	 1.1314842098e+00	-1.2945314161e+00
 1.3814370983e+00	 1.1980421582e+00	-1.5301140522e+00
 1.3232331821e+00	 1.2620330484e+00	-1.7203609107e+00
 1.2620330484e+00	 1.3232331821e+00	-1.8694540642e+00
 1.1980421582e+00	 1.3814370983e+00	-1.9836862214e+00
 1.1314842098e+00	 1.4364598680e+00	-2.0702074355e+00
 1.4589045534e+00	 1.1491636506e+00	-1.3155762868e+00
 1.4030220530e+00	 1.2167615669e+00	-1.5488731219e+00
 1.3439087005e+00	 1.2817523148e+00	-1.7377478011e+00
 1.2817523148e+00	 1.3439087005e+00	-1.8870256704e+00
 1.2167615669e+00	 1.4030220530e+00	-2.0048369047e+00
 1.1491636506e+00	 1.4589045534e+00	-2.0949509312e+00
 1.0607664467e+00	 1.3466811263e+00	-1.9646158488e+00
 9.9618613905e-01	 1.3951303475e+00	-1.9996818378e+00
 9.2966000672e-01	 1.4403151676e+00	-2.0134850432e+00
 8.6143367282e-01	 1.4821293930e+00	-1.9954156165e+00
 7.9175908712e-01	 1.5204910582e+00	-1.9479992195e+00
 7.2089161737e-01	 1.5553426588e+00	-1.8811788482e+00
 1.0784458875e+00	 1.3691258117e+00	-1.9877115271e+00
 1.0127892414e+00	 1.4183825200e+00	-2.0280116488e+00
 9.4515434016e-01	 1.4643204204e+00	-2.0421618070e+00
 8.7579090070e-01	 1.5068315495e+00	-2.0197185925e+00
 8.0495507191e-01	 1.5458325759e+00	-1.9704221410e+00
 7.3290647765e-01	 1.5812650364e+00	-1.9036716937e+00
 1.0961253282e+00	 1.3915704971e+00	-2.0134930106e+00
 1.0293923437e+00	 1.4416346924e+00	-2.0601021437e+00
 9.6064867361e-01	 1.4883256732e+00	-2.0696419268e+00
 8.9014812858e-01	 1.5315337061e+00	-2.0442120433e+00
 8.1815105669e-01	 1.5711740935e+00	-1.9938471663e+00
 7.4492133794e-01	 1.6071874141e+00	-1.9271826208e+00
 1.1138047690e+00	 1.4140151826e+00	-2.0413326924e+00
 1.0459954460e+00	 1.4648868649e+00	-2.0897208758e+00
 9.7614300705e-01	 1.5123309260e+00	-2.0955834707e+00
 9.0450535646e-01	 1.5562358626e+00	-2.0684559612e+00
 8.3134704148e-01	 1.5965156111e+00	-2.0177177117e+00
 7.5693619823e-01	 1.6331097917e+00	-1.9510301914e+00
 1.1314842098e+00	 1.4364598680e+00	-2.0702074355e+00
 1.0625985483e+00	 1.4881390374e+00	-2.1158742087e+00
 9.9163734050e-01	 1.5363361788e+00	-2.1196758795e+00
 9.1886258434e-01	 1.5809380192e+00	-2.0920456743e+00
 8.4454302626e-01	 1.6218571288e+00	-2.0415175230e+00
 7.6895105852e-01	 1.6590321694e+00	-1.9745786947e+00
 1.1491636506e+00	 1.4589045534e+00	-2.0949509312e+00
 1.0792016506e+00	 1.5113912098e+00	-2.1383467066e+00
 1.0071316739e+00	 1.5603414316e+00	-2.1416386667e+00
 9.3321981222e-01	 1.6056401757e+00	-2.1146102304e+00
 8.5773901105e-01	 1.6471986464e+00	-2.0647686641e+00
 7.8096591881e-01	 1.6849545470e+00	-1.9972357021e+00
 7.2089161737e-01	 1.5553426588e+00	-1.8811788482e+00
 6.4908718885e-01	 1.5866509797e+00	-1.7968874805e+00
 5.7659953404e-01	 1.6144065435e+00	-1.6954249901e+00
 5.0367760751e-01	 1.6386227076e+00	-1.5834540617e+00
 4.3056321316e-01	 1.6593344538e+00	-1.4674463003e+00
 3.5748888134e-01	 1.6765969134e+00	-1.3536808256e+00
 7.3290647765e-01	 1.5812650364e+00	-1.9036716937e+00
 6.5990530866e-01	 1.6130951627e+00	-1.8217058237e+00
 5.8620952627e-01	 1.6413133192e+00	-1.7247677048e+00
 5.1207223430e-01	 1.6659330861e+00	-1.6187070320e+00
 4.3773926671e-01	 1.6869900281e+00	-1.5098087142e+00
 3.6344702936e-01	 1.7045401953e+00	-1.4047498646e+00
 7.4492133794e-01	 1.6071874141e+00	-1.9271826208e+00
 6.7072342848e-01	 1.6395393457e+00	-1.8474239914e+00
 5.9581951851e-01	 1.6682200949e+00	-1.7555401602e+00
 5.2046686109e-01	 1.6932434645e+00	-1.6565179190e+00
 4.4491532026e-01	 1.7146456023e+00	-1.5563965350e+00
 3.6940517738e-01	 1.7324834771e+00	-1.4621847811e+00
 7.5693619823e-01	 1.6331097917e+00	-1.9510301914e+00
 6.8154154829e-01	 1.6659835287e+00	-1.8732129728e+00
 6.0542951074e-01	 1.6951268706e+00	-1.7867227905e+00
 5.2886148788e-01	 1.7205538430e+00	-1.6956357356e+00
 4.5209137382e-01	 1.7423011765e+00	-1.6056893676e+00
 3.7536332541e-01	 1.7604267590e+00	-1.5241613285e+00
 7.6895105852e-01	 1.6590321694e+00	-1.9745786947e+00
 6.9235966811e-01	 1.6924277117e+00	-1.8982962070e+00
 6.1503950298e-01	 1.7220336464e+00	-1.8173578231e+00
 5.3725611467e-01	 1.7478642215e+00	-1.7348831658e+00
 4.5926742737e-01	 1.7699567508e+00	-1.6562547835e+00
 3.8132147343e-01	 1.7883700409e+00	-1.5889597961e+00
 7.8096591881e-01	 1.6849545470e+00	-1.9972357021e+00
 7.0317778792e-01	 1.7188718947e+00	-1.9219465891e+00
 6.2464949521e-01	 1.7489404221e+00	-1.8465455187e+00
 5.4565074146e-01	 1.7751745999e+00	-1.7731518240e+00
 4.6644348092e-01	 1.7976123250e+00	-1.7067423914e+00
 3.8727962145e-01	 1.8163133228e+00	-1.6549576970e+00
 3.5748888134e-01	 1.6765969134e+00	-1.3536808256e+00
 2.8467602329e-01	 1.6904836799e+00	-1.2485962675e+00
 2.1233338048e-01	 1.7010849614e+00	-1.1505629337e+00
 1.4065577646e-01	 1.7085056227e+00	-1.0499784153e+00
 6.9823169954e-02	 1.7128631688e+00	-9.3327629986e-01
 0.0000000000e+00	 1.7142857143e+00	-7.8404332400e-01
 3.6344702936e-01	 1.7045401953e+00	-1.4047498646e+00
 2.8942062368e-01	 1.7186584079e+00	-1.3033845270e+00
 2.1587227016e-01	 1.7294363774e+00	-1.2001792272e+00
 1.4300003940e-01	 1.7369807164e+00	-1.0891392051e+00
 7.0986889453e-02	 1.7414108883e+00	-9.5874545645e-01
 0.0000000000e+00	 1.7428571429e+00	-7.9318263462e-01
 3.6940517738e-01	 1.7324834771e+00	-1.4621847811e+00
 2.9416522407e-01	 1.7468331359e+00	-1.3655418022e+00
 2.1941115983e-01	 1.7577877934e+00	-1.2567595632e+00
 1.4534430234e-01	 1.7654558101e+00	-1.1355036714e+00
 7.2150608952e-02	 1.7699586078e+00	-9.9444693468e-01
 0.0000000000e+00	 1.7714285714e+00	-8.2053716561e-01
 3.7536332541e-01	 1.7604267590e+00	-1.5241613285e+00
 2.9890982445e-01	 1.7750078639e+00	-1.4332887531e+00
 2.2295004951e-01	 1.7861392094e+00	-1.3192342142e+00
 1.4768856528e-01	 1.7939309038e+00	-1.1892756291e+00
 7.3314328452e-02	 1.7985063273e+00	-1.0423176865e+00
 0.0000000000e+00	 1.8000000000e+00	-8.7013059008e-01
 3.8132147343e-01	 1.7883700409e+00	-1.5889597961e+00
 3.0365442484e-01	 1.8031825919e+00	-1.5049455607e+00
 2.2648893918e-01	 1.8144906254e+00	-1.3865867248e+00
 1.5003282823e-01	 1.8224059975e+00	-1.2506310802e+00
 7.4478047951e-02	 1.8270540468e+00	-1.1041575432e+00
 0.0000000000e+00	 1.8285714286e+00	-9.4571863664e-01
 3.8727962145e-01	 1.8163133228e+00	-1.6549576970e+00
 3.0839902523e-01	 1.8313573199e+00	-1.5789248735e+00
 2.3002782885e-01	 1.8428420415e+00	-1.4578502743e+00
 1.5237709117e-01	 1.8508810912e+00	-1.3197206621e+00
 7.5641767450e-02	 1.8556017662e+00	-1.1816399168e+00
 0.0000000000e+00	 1.8571428571e+00	-1.0508097005e+00
 1.8571428571e+00	 0.0000000000e+00	 3.1127773488e+00
 1.8556017662e+00	 7.5641767450e-02	 2.8755602838e+00
 1.8508810912e+00	 1.5237709117e-01	 2.6444024776e+00
 1.8428420415e+00	 2.3002782885e-01	 2.4125567319e+00
 1.8313573199e+00	 3.0839902523e-01	 2.1699741513e+00
 1.8163133228e+00	 3.8727962145e-01	 1.9032323287e+00
 1.8857142857e+00	 0.0000000000e+00	 3.1923871918e+00
 1.8841494857e+00	 7.6805486949e-02	 2.8769931477e+00
 1.8793561850e+00	 1.5472135411e-01	 2.6036237628e+00
 1.8711934575e+00	 2.3356671853e-01	 2.3562742847e+00
 1.8595320479e+00	 3.1314362562e-01	 2.1147279896e+00
 1.8442566047e+00	 3.9323776947e-01	 1.8547247350e+00
 1.9142857143e+00	 0.0000000000e+00	 3.3008897301e+00
 1.9126972052e+00	 7.7969206448e-02	 2.8815605464e+00
 1.9078312787e+00	 1.5706561705e-01	 2.5549959940e+00
 1.8995448735e+00	 2.3710560820e-01	 2.2913650993e+00
 1.8877067759e+00	 3.1788822601e-01	 2.0557394784e+00
 1.8721998866e+00	 3.9919591749e-01	 1.8086560333e+00
 1.9428571429e+00	 0.0000000000e+00	 3.4428387325e+00
 1.9412449247e+00	 7.9132925948e-02	 2.8910583550e+00
 1.9363063724e+00	 1.5940987999e-01	 2.4980811533e+00
 1.9278962895e+00	 2.4064449788e-01	 2.2158902470e+00
 1.9158815039e+00	 3.2263282639e-01	 1.9905101926e+00
 1.9001431685e+00	 4.0515406552e-01	 1.7631140101e+00
 1.9714285714e+00	 0.0000000000e+00	 3.6225316167e+00
 1.9697926442e+00	 8.0296645447e-02	 2.9071852761e+00
 1.9647814661e+00	 1.6175414293e-01	 2.4324730023e+00
 1.9562477056e+00	 2.4418338755e-01	 2.1280291777e+00
 1.9440562319e+00	 3.2737742678e-01	 1.9166922301e+00
 1.9280864504e+00	 4.1111221354e-01	 1.7163027941e+00
 2.0000000000e+00	 0.0000000000e+00	 3.8440277597e+00
 1.9983403636e+00	 8.1460364946e-02	 2.9315497075e+00
 1.9932565598e+00	 1.6409840587e-01	 2.3577946759e+00
 1.9845991216e+00	 2.4772227723e-01	 2.0260710745e+00
 1.9722309599e+00	 3.3212202717e-01	 1.8320772230e+00
 1.9560297323e+00	 4.1707036156e-01	 1.6665342667e+00
 1.8163133228e+00	 3.8727962145e-01	 1.9032323287e+00
 1.7976123250e+00	 4.6644348092e-01	 1.6084325591e+00
 1.7751745999e+00	 5.4565074146e-01	 1.2957458333e+00
 1.7489404221e+00	 6.2464949521e-01	 9.6991046665e-01
 1.7188718947e+00	 7.0317778792e-01	 6.3502527812e-01
 1.6849545470e+00	 7.8096591881e-01	 2.9444733507e-01
 1.8442566047e+00	 3.9323776947e-01	 1.8547247350e+00
 1.8252678992e+00	 4.7361953448e-01	 1.5647698493e+00
 1.8024849784e+00	 5.5404536826e-01	 1.2552755506e+00
 1.7758471978e+00	 6.3425948744e-01	 9.3155947191e-01
 1.7453160777e+00	 7.1399590773e-01	 5.9827635568e-01
 1.7108769247e+00	 7.9298077910e-01	 2.5929413807e-01
 1.8721998866e+00	 3.9919591749e-01	 1.8086560333e+00
 1.8529234734e+00	 4.8079558803e-01	 1.5268877679e+00
 1.8297953568e+00	 5.6243999505e-01	 1.2206167643e+00
 1.8027539735e+00	 6.4386947968e-01	 8.9706288997e-01
 1.7717602607e+00	 7.2481402755e-01	 5.6266609872e-01
 1.7367993023e+00	 8.0499563939e-01	 2.2289378368e-01
 1.9001431685e+00	 4.0515406552e-01	 1.7631140101e+00
 1.8805790477e+00	 4.8797164158e-01	 1.4940019460e+00
 1.8571057353e+00	 5.7083462184e-01	 1.1918796714e+00
 1.8296607492e+00	 6.5347947191e-01	 8.6713629388e-01
 1.7982044437e+00	 7.3563214736e-01	 5.2917322083e-01
 1.7627216799e+00	 8.1701049968e-01	 1.8609687080e-01
 1.9280864504e+00	 4.1111221354e-01	 1.7163027941e+00
 1.9082346219e+00	 4.9514769513e-01	 1.4653788415e+00
 1.8844161138e+00	 5.7922924863e-01	 1.1691733401e+00
 1.8565675250e+00	 6.6308946415e-01	 8.4245895344e-01
 1.8246486267e+00	 7.4645026718e-01	 4.9872480315e-01
 1.7886440576e+00	 8.2902535997e-01	 1.4970972783e-01
 1.9560297323e+00	 4.1707036156e-01	 1.6665342667e+00
 1.9358901961e+00	 5.0232374869e-01	 1.4403317893e+00
 1.9117264922e+00	 5.8762387542e-01	 1.1526054327e+00
 1.8834743007e+00	 6.7269945638e-01	 8.2367602834e-01
 1.8510928097e+00	 7.5726838699e-01	 4.7219953659e-01
 1.8145664352e+00	 8.4104022026e-01	 1.1449707804e-01
 1.6849545470e+00	 7.8096591881e-01	 2.9444733507e-01
 1.6471986464e+00	 8.5773901105e-01	-5.2343107545e-02
 1.6056401757e+00	 9.3321981222e-01	-3.9878715267e-01
 1.5603414316e+00	 1.0071316739e+00	-7.3218864751e-01
 1.5113912098e+00	 1.0792016506e+00	-1.0410714939e+00
 1.4589045534e+00	 1.1491636506e+00	-1.3155762868e+00
 1.7108769247e+00	 7.9298077910e-01	 2.5929413807e-01
 1.6725401641e+00	 8.7093499583e-01	-8.5396405378e-02
 1.6303423323e+00	 9.4757704010e-01	-4.2907698567e-01
 1.5843466844e+00	 1.0226260074e+00	-7.5910362527e-01
 1.5346433823e+00	 1.0958047530e+00	-1.0640497971e+00
 1.4813492389e+00	 1.1668430913e+00	-1.3341209526e+00
 1.7367993023e+00	 8.0499563939e-01	 2.2289378368e-01
 1.6978816817e+00	 8.8413098062e-01	-1.2080980376e-01
 1.6550444888e+00	 9.6193426798e-01	-4.6154216896e-01
 1.6083519372e+00	 1.0381203408e+00	-7.8715116748e-01
 1.5578955547e+00	 1.1124078553e+00	-1.0867139707e+00
 1.5037939243e+00	 1.1845225321e+00	-1.3509579387e+00
 1.7627216799e+00	 8.1701049968e-01	 1.8609687080e-01
 1.7232231993e+00	 8.9732696540e-01	-1.5808446836e-01
 1.6797466454e+00	 9.7629149586e-01	-4.9605093999e-01
 1.6323571900e+00	 1.0536146743e+00	-8.1656567314e-01
 1.5811477272e+00	 1.1290109576e+00	-1.1096471432e+00
 1.5262386098e+00	 1.2022019729e+00	-1.3669852048e+00
 1.7886440576e+00	 8.2902535997e-01	 1.4970972783e-01
 1.7485647170e+00	 9.1052295019e-01	-1.9674547795e-01
 1.7044488019e+00	 9.9064872374e-01	-5.3247413651e-01
 1.6563624428e+00	 1.0691090077e+00	-8.4756276025e-01
 1.6043998996e+00	 1.1456140599e+00	-1.1333931054e+00
 1.5486832952e+00	 1.2198814137e+00	-1.3830425258e+00
 1.8145664352e+00	 8.4104022026e-01	 1.1449707804e-01
 1.7739062346e+00	 9.2371893498e-01	-2.3634066945e-01
 1.7291509585e+00	 1.0050059516e+00	-5.7068562486e-01
 1.6803676956e+00	 1.0846033412e+00	-8.8034128499e-01
 1.6276520721e+00	 1.1622171622e+00	-1.1584598616e+00
 1.5711279806e+00	 1.2375608545e+00	-1.3999164495e+00
 1.4589045534e+00	 1.1491636506e+00	-1.3155762868e+00
 1.4030220530e+00	 1.2167615669e+00	-1.5488731219e+00
 1.3439087005e+00	 1.2817523148e+00	-1.7377478011e+00
 1.2817523148e+00	 1.3439087005e+00	-1.8870256704e+00
 1.2167615669e+00	 1.4030220530e+00	-2.0048369047e+00
 1.1491636506e+00	 1.4589045534e+00	-2.0949509312e+00
 1.4813492389e+00	 1.1668430913e+00	-1.3341209526e+00
 1.4246070076e+00	 1.2354809756e+00	-1.5636480822e+00
 1.3645842190e+00	 1.3014715812e+00	-1.7515918288e+00
 1.3014715812e+00	 1.3645842190e+00	-1.9023034158e+00
 1.2354809756e+00	 1.4246070076e+00	-2.0257659898e+00
 1.1668430913e+00	 1.4813492389e+00	-2.1164127178e+00
 1.5037939243e+00	 1.1845225321e+00	-1.3509579387e+00
 1.4461919623e+00	 1.2542003843e+00	-1.5752079088e+00
 1.3852597375e+00	 1.3211908475e+00	-1.7622081731e+00
 1.3211908475e+00	 1.3852597375e+00	-1.9156404980e+00
 1.2542003843e+00	 1.4461919623e+00	-2.0452567236e+00
 1.1845225321e+00	 1.5037939243e+00	-2.1355523594e+00
 1.5262386098e+00	 1.2022019729e+00	-1.3669852048e+00
 1.4677769170e+00	 1.2729197931e+00	-1.5851616158e+00
 1.4059352559e+00	 1.3409101139e+00	-1.7702510811e+00
 1.3409101139e+00	 1.4059352559e+00	-1.9270393141e+00
 1.2729197931e+00	 1.4677769170e+00	-2.0592249474e+00
 1.2022019729e+00	 1.5262386098e+00	-2.1504002499e+00
 1.5486832952e+00	 1.2198814137e+00	-1.3830425258e+00
 1.4893618716e+00	 1.2916392018e+00	-1.5944673502e+00
 1.4266107744e+00	 1.3606293803e+00	-1.7763322040e+00
 1.3606293803e+00	 1.4266107744e+00	-1.9364936496e+00
 1.2916392018e+00	 1.4893618716e+00	-2.0670566279e+00
 1.2198814137e+00	 1.5486832952e+00	-2.1591185371e+00
 1.5711279806e+00	 1.2375608545e+00	-1.3999164495e+00
 1.5109468263e+00	 1.3103586105e+00	-1.6040071392e+00
 1.4472862929e+00	 1.3803486467e+00	-1.7813804501e+00
 1.3803486467e+00	 1.4472862929e+00	-1.9424155074e+00
 1.3103586105e+00	 1.5109468263e+00	-2.0682757282e+00
 1.2375608545e+00	 1.5711279806e+00	-2.1599924085e+00
 1.1491636506e+00	 1.4589045534e+00	-2.0949509312e+00
 1.0792016506e+00	 1.5113912098e+00	-2.1383467066e+00
 1.0071316739e+00	 1.5603414316e+00	-2.1416386667e+00
 9.3321981222e-01	 1.6056401757e+00	-2.1146102304e+00
 8.5773901105e-01	 1.6471986464e+00	-2.0647686641e+00
 7.8096591881e-01	 1.6849545470e+00	-1.9972357021e+00
 1.1668430913e+00	 1.4813492389e+00	-2.1164127178e+00
 1.0958047530e+00	 1.5346433823e+00	-2.1602494417e+00
 1.0226260074e+00	 1.5843466844e+00	-2.1649067312e+00
 9.4757704010e-01	 1.6303423323e+00	-2.1390727350e+00
 8.7093499583e-01	 1.6725401641e+00	-2.0891182922e+00
 7.9298077910e-01	 1.7108769247e+00	-2.0190192850e+00
 1.1845225321e+00	 1.5037939243e+00	-2.1355523594e+00
 1.1124078553e+00	 1.5578955547e+00	-2.1827083411e+00
 1.0381203408e+00	 1.6083519372e+00	-2.1909927165e+00
 9.6193426798e-01	 1.6550444888e+00	-2.1672860268e+00
 8.8413098062e-01	 1.6978816817e+00	-2.1167848838e+00
 8.0499563939e-01	 1.7367993023e+00	-2.0429371604e+00
 1.2022019729e+00	 1.5262386098e+00	-2.1504002499e+00
 1.1290109576e+00	 1.5811477272e+00	-2.2027020742e+00
 1.0536146743e+00	 1.6323571900e+00	-2.2169032558e+00
 9.7629149586e-01	 1.6797466454e+00	-2.1973927902e+00
 8.9732696540e-01	 1.7232231993e+00	-2.1481640802e+00
 8.1701049968e-01	 1.7627216799e+00	-2.0727445984e+00
 1.2198814137e+00	 1.5486832952e+00	-2.1591185371e+00
 1.1456140599e+00	 1.6043998996e+00	-2.2174002252e+00
 1.0691090077e+00	 1.6563624428e+00	-2.2398323802e+00
 9.9064872374e-01	 1.7044488019e+00	-2.2276552586e+00
 9.1052295019e-01	 1.7485647170e+00	-2.1836383597e+00
 8.2902535997e-01	 1.7886440576e+00	-2.1119867040e+00
 1.2375608545e+00	 1.5711279806e+00	-2.1599924085e+00
 1.1622171622e+00	 1.6276520721e+00	-2.2241503527e+00
 1.0846033412e+00	 1.6803676956e+00	-2.2571488466e+00
 1.0050059516e+00	 1.7291509585e+00	-2.2564474139e+00
 9.2371893498e-01	 1.7739062346e+00	-2.2235787426e+00
 8.4104022026e-01	 1.8145664352e+00	-2.1640142132e+00
 7.8096591881e-01	 1.6849545470e+00	-1.9972357021e+00
 7.0317778792e-01	 1.7188718947e+00	-1.9219465891e+00
 6.2464949521e-01	 1.7489404221e+00	-1.8465455187e+00
 5.4565074146e-01	 1.7751745999e+00	-1.7731518240e+00
 4.6644348092e-01	 1.7976123250e+00	-1.7067423914e+00
 3.8727962145e-01	 1.8163133228e+00	-1.6549576970e+00
 7.9298077910e-01	 1.7108769247e+00	-2.0190192850e+00
 7.1399590773e-01	 1.7453160777e+00	-1.9426509173e+00
 6.3425948744e-01	 1.7758471978e+00	-1.8720662353e+00
 5.5404536826e-01	 1.8024849784e+00	-1.8087547411e+00
 4.7361953448e-01	 1.8252678992e+00	-1.7568221376e+00
 3.9323776947e-01	 1.8442566047e+00	-1.7228307094e+00
 8.0499563939e-01	 1.7367993023e+00	-2.0429371604e+00
 7.2481402755e-01	 1.7717602607e+00	-1.9636906632e+00
 6.4386947968e-01	 1.8027539735e+00	-1.8962888996e+00
 5.6243999505e-01	 1.8297953568e+00	-1.8423675409e+00
 4.8079558803e-01	 1.8529234734e+00	-1.8043044151e+00
 3.9919591749e-01	 1.8721998866e+00	-1.7852304433e+00
 8.1701049968e-01	 1.7627216799e+00	-2.0727445984e+00
 7.3563214736e-01	 1.7982044437e+00	-1.9912827744e+00
 6.5347947191e-01	 1.8296607492e+00	-1.9249737508e+00
 5.7083462184e-01	 1.8571057353e+00	-1.8763646658e+00
 4.8797164158e-01	 1.8805790477e+00	-1.8452852658e+00
 4.0515406552e-01	 1.9001431685e+00	-1.8291621697e+00
 8.2902535997e-01	 1.7886440576e+00	-2.1119867040e+00
 7.4645026718e-01	 1.8246486267e+00	-2.0312889381e+00
 6.6308946415e-01	 1.8565675250e+00	-1.9635497108e+00
 5.7922924863e-01	 1.8844161138e+00	-1.9129828694e+00
 4.9514769513e-01	 1.9082346219e+00	-1.8760842923e+00
 4.1111221354e-01	 1.9280864504e+00	-1.8423790135e+00
 8.4104022026e-01	 1.8145664352e+00	-2.1640142132e+00
 7.5726838699e-01	 1.8510928097e+00	-2.0892417496e+00
 6.7269945638e-01	 1.8834743007e+00	-2.0171388340e+00
 5.8762387542e-01	 1.9117264922e+00	-1.9543318065e+00
 5.0232374869e-01	 1.9358901961e+00	-1.8932293911e+00
 4.1707036156e-01	 1.9560297323e+00	-1.8133291610e+00
 3.8727962145e-01	 1.8163133228e+00	-1.6549576970e+00
 3.0839902523e-01	 1.8313573199e+00	-1.5789248735e+00
 2.3002782885e-01	 1.8428420415e+00	-1.4578502743e+00
 1.5237709117e-01	 1.8508810912e+00	-1.3197206621e+00
 7.5641767450e-02	 1.8556017662e+00	-1.1816399168e+00
 0.0000000000e+00	 1.8571428571e+00	-1.0508097005e+00
 3.9323776947e-01	 1.8442566047e+00	-1.7228307094e+00
 3.1314362562e-01	 1.8595320479e+00	-1.6560778301e+00
 2.3356671853e-01	 1.8711934575e+00	-1.5331896330e+00
 1.5472135411e-01	 1.8793561850e+00	-1.3958269547e+00
 7.6805486949e-02	 1.8841494857e+00	-1.2756878780e+00
 0.0000000000e+00	 1.8857142857e+00	-1.1949844006e+00
 3.9919591749e-01	 1.8721998866e+00	-1.7852304433e+00
 3.1788822601e-01	 1.8877067759e+00	-1.7251675080e+00
 2.3710560820e-01	 1.8995448735e+00	-1.6026847189e+00
 1.5706561705e-01	 1.9078312787e+00	-1.4761137306e+00
 7.7969206448e-02	 1.9126972052e+00	-1.3988508778e+00
 0.0000000000e+00	 1.9142857143e+00	-1.4187205010e+00
 4.0515406552e-01	 1.9001431685e+00	-1.8291621697e+00
 3.2263282639e-01	 1.9158815039e+00	-1.7674005226e+00
 2.4064449788e-01	 1.9278962895e+00	-1.6509769018e+00
 1.5940987999e-01	 1.9363063724e+00	-1.5576603800e+00
 7.9132925948e-02	 1.9412449247e+00	-1.5693028360e+00
 0.0000000000e+00	 1.9428571429e+00	-1.7694946416e+00
 4.1111221354e-01	 1.9280864504e+00	-1.8423790135e+00
 3.2737742678e-01	 1.9440562319e+00	-1.7650648903e+00
 2.4418338755e-01	 1.9562477056e+00	-1.6635874398e+00
 1.6175414293e-01	 1.9647814661e+00	-1.6377030632e+00
 8.0296645447e-02	 1.9697926442e+00	-1.8041499349e+00
 0.0000000000e+00	 1.9714285714e+00	-2.2920159214e+00
 4.1707036156e-01	 1.9560297323e+00	-1.8133291610e+00
 3.3212202717e-01	 1.9722309599e+00	-1.7014533136e+00
 2.4772227723e-01	 1.9845991216e+00	-1.6268550401e+00
 1.6409840587e-01	 1.9932565598e+00	-1.7136237925e+00
 8.1460364946e-02	 1.9983403636e+00	-2.1195070274e+00
 0.0000000000e+00	 2.0000000000e+00	-3.0284235801e+00
