x	y	stress_yy
 1.000000e+00	 0.000000e+00	 3.017834e+01
 9.998606e-01	 1.669417e-02	 3.015948e+01
 9.994388e-01	 3.349713e-02	 3.009935e+01
 9.987290e-01	 5.040273e-02	 2.999802e+01
 9.977257e-01	 6.740460e-02	 2.985544e+01
 9.964238e-01	 8.449607e-02	 2.967154e+01
 1.011765e+00	 0.000000e+00	 2.936537e+01
 1.011624e+00	 1.689057e-02	 2.934794e+01
 1.011197e+00	 3.389121e-02	 2.929172e+01
 1.010479e+00	 5.099571e-02	 2.919672e+01
 1.009464e+00	 6.819760e-02	 2.906287e+01
 1.008146e+00	 8.549014e-02	 2.889002e+01
 1.023529e+00	 0.000000e+00	 2.859918e+01
 1.023387e+00	 1.708698e-02	 2.858302e+01
 1.022955e+00	 3.428529e-02	 2.853043e+01
 1.022228e+00	 5.158868e-02	 2.844138e+01
 1.021202e+00	 6.899059e-02	 2.831577e+01
 1.019869e+00	 8.648421e-02	 2.815338e+01
 1.035294e+00	 0.000000e+00	 2.787519e+01
 1.035150e+00	 1.728338e-02	 2.786016e+01
 1.034713e+00	 3.467938e-02	 2.781095e+01
 1.033978e+00	 5.218165e-02	 2.772750e+01
 1.032940e+00	 6.978359e-02	 2.760967e+01
 1.031592e+00	 8.747828e-02	 2.745720e+01
 1.047059e+00	 0.000000e+00	 2.718905e+01
 1.046913e+00	 1.747978e-02	 2.717502e+01
 1.046471e+00	 3.507346e-02	 2.712896e+01
 1.045728e+00	 5.277463e-02	 2.705079e+01
 1.044678e+00	 7.057658e-02	 2.694033e+01
 1.043314e+00	 8.847235e-02	 2.679729e+01
 1.058824e+00	 0.000000e+00	 2.653661e+01
 1.058676e+00	 1.767618e-02	 2.652345e+01
 1.058229e+00	 3.546754e-02	 2.648034e+01
 1.057478e+00	 5.336760e-02	 2.640716e+01
 1.056415e+00	 7.136958e-02	 2.630370e+01
 1.055037e+00	 8.946642e-02	 2.616966e+01
 9.964238e-01	 8.449607e-02	 2.967154e+01
 9.948182e-01	 1.016702e-01	 2.944622e+01
 9.929039e-01	 1.189198e-01	 2.917940e+01
 9.906762e-01	 1.362375e-01	 2.887088e+01
 9.881307e-01	 1.536156e-01	 2.852045e+01
 9.852630e-01	 1.710460e-01	 2.812790e+01
 1.008146e+00	 8.549014e-02	 2.889002e+01
 1.006522e+00	 1.028663e-01	 2.867826e+01
 1.004585e+00	 1.203189e-01	 2.842770e+01
 1.002331e+00	 1.378403e-01	 2.813812e+01
 9.997558e-01	 1.554228e-01	 2.780928e+01
 9.968544e-01	 1.730583e-01	 2.744090e+01
 1.019869e+00	 8.648421e-02	 2.815338e+01
 1.018226e+00	 1.040624e-01	 2.795443e+01
 1.016266e+00	 1.217180e-01	 2.771918e+01
 1.013986e+00	 1.394431e-01	 2.744738e+01
 1.011381e+00	 1.572300e-01	 2.713875e+01
 1.008446e+00	 1.750706e-01	 2.679292e+01
 1.031592e+00	 8.747828e-02	 2.745720e+01
 1.029929e+00	 1.052586e-01	 2.727039e+01
 1.027948e+00	 1.231170e-01	 2.704961e+01
 1.025641e+00	 1.410459e-01	 2.679456e+01
 1.023006e+00	 1.590373e-01	 2.650488e+01
 1.020037e+00	 1.770829e-01	 2.618018e+01
 1.043314e+00	 8.847235e-02	 2.679729e+01
 1.041633e+00	 1.064547e-01	 2.662203e+01
 1.039629e+00	 1.245161e-01	 2.641496e+01
 1.037296e+00	 1.426487e-01	 2.617572e+01
 1.034631e+00	 1.608445e-01	 2.590391e+01
 1.031628e+00	 1.790952e-01	 2.559904e+01
 1.055037e+00	 8.946642e-02	 2.616966e+01
 1.053337e+00	 1.076508e-01	 2.600540e+01
 1.051310e+00	 1.259151e-01	 2.581137e+01
 1.048951e+00	 1.442515e-01	 2.558714e+01
 1.046256e+00	 1.626518e-01	 2.533221e+01
 1.043220e+00	 1.811076e-01	 2.504604e+01
 9.852630e-01	 1.710460e-01	 2.812790e+01
 9.820692e-01	 1.885207e-01	 2.769543e+01
 9.785454e-01	 2.060313e-01	 2.722523e+01
 9.746881e-01	 2.235690e-01	 2.671704e+01
 9.704941e-01	 2.411251e-01	 2.617058e+01
 9.659603e-01	 2.586904e-01	 2.558553e+01
 9.968544e-01	 1.730583e-01	 2.744090e+01
 9.936230e-01	 1.907386e-01	 2.703501e+01
 9.900577e-01	 2.084551e-01	 2.659366e+01
 9.861550e-01	 2.261992e-01	 2.611652e+01
 9.819116e-01	 2.439618e-01	 2.560325e+01
 9.773245e-01	 2.617339e-01	 2.505348e+01
 1.008446e+00	 1.750706e-01	 2.679292e+01
 1.005177e+00	 1.929565e-01	 2.641184e+01
 1.001570e+00	 2.108790e-01	 2.599744e+01
 9.976219e-01	 2.288294e-01	 2.554939e+01
 9.933292e-01	 2.467986e-01	 2.506729e+01
 9.886888e-01	 2.647773e-01	 2.455071e+01
 1.020037e+00	 1.770829e-01	 2.618018e+01
 1.016730e+00	 1.951744e-01	 2.582227e+01
 1.013082e+00	 2.133029e-01	 2.543310e+01
 1.009089e+00	 2.314597e-01	 2.501230e+01
 1.004747e+00	 2.496354e-01	 2.455943e+01
 1.000053e+00	 2.678207e-01	 2.407405e+01
 1.031628e+00	 1.790952e-01	 2.559904e+01
 1.028284e+00	 1.973923e-01	 2.526287e+01
 1.024595e+00	 2.157268e-01	 2.489733e+01
 1.020556e+00	 2.340899e-01	 2.450204e+01
 1.016164e+00	 2.524721e-01	 2.407657e+01
 1.011417e+00	 2.708641e-01	 2.362044e+01
 1.043220e+00	 1.811076e-01	 2.504604e+01
 1.039838e+00	 1.996102e-01	 2.473031e+01
 1.036107e+00	 2.181507e-01	 2.438693e+01
 1.032023e+00	 2.367201e-01	 2.401554e+01
 1.027582e+00	 2.553089e-01	 2.361572e+01
 1.022781e+00	 2.739075e-01	 2.318697e+01
 9.659603e-01	 2.586904e-01	 2.558553e+01
 9.610841e-01	 2.762559e-01	 2.496727e+01
 9.558632e-01	 2.938119e-01	 2.432092e+01
 9.502956e-01	 3.113490e-01	 2.364577e+01
 9.443796e-01	 3.288574e-01	 2.294103e+01
 9.381138e-01	 3.463271e-01	 2.220588e+01
 9.773245e-01	 2.617339e-01	 2.505348e+01
 9.723910e-01	 2.795059e-01	 2.447241e+01
 9.671087e-01	 2.972685e-01	 2.386492e+01
 9.614756e-01	 3.150120e-01	 2.323002e+01
 9.554899e-01	 3.327263e-01	 2.256664e+01
 9.491504e-01	 3.504016e-01	 2.187363e+01
 9.886888e-01	 2.647773e-01	 2.455071e+01
 9.836979e-01	 2.827560e-01	 2.400464e+01
 9.783541e-01	 3.007252e-01	 2.343361e+01
 9.726555e-01	 3.186749e-01	 2.283644e+01
 9.666003e-01	 3.365952e-01	 2.221180e+01
 9.601871e-01	 3.544760e-01	 2.155826e+01
 1.000053e+00	 2.678207e-01	 2.407405e+01
 9.950047e-01	 2.860061e-01	 2.356084e+01
 9.895996e-01	 3.041818e-01	 2.302399e+01
 9.838355e-01	 3.223378e-01	 2.246213e+01
 9.777106e-01	 3.404641e-01	 2.187373e+01
 9.712237e-01	 3.585504e-01	 2.125714e+01
 1.011417e+00	 2.708641e-01	 2.362044e+01
 1.006312e+00	 2.892562e-01	 2.313803e+01
 1.000845e+00	 3.076384e-01	 2.263315e+01
 9.950154e-01	 3.260007e-01	 2.210429e+01
 9.888210e-01	 3.443330e-01	 2.154977e+01
 9.822603e-01	 3.626249e-01	 2.096774e+01
 1.022781e+00	 2.739075e-01	 2.318697e+01
 1.017618e+00	 2.925062e-01	 2.273336e+01
 1.012090e+00	 3.110950e-01	 2.225832e+01
 1.006195e+00	 3.296637e-01	 2.176024e+01
 9.999313e-01	 3.482019e-01	 2.123733e+01
 9.932970e-01	 3.666993e-01	 2.068762e+01
 9.381138e-01	 3.463271e-01	 2.220588e+01
 9.314973e-01	 3.637482e-01	 2.144788e+01
 9.245295e-01	 3.811105e-01	 2.067453e+01
 9.172101e-01	 3.984038e-01	 1.988484e+01
 9.095393e-01	 4.156178e-01	 1.907781e+01
 9.015177e-01	 4.327422e-01	 1.825241e+01
 9.491504e-01	 3.504016e-01	 2.187363e+01
 9.424561e-01	 3.680276e-01	 2.115853e+01
 9.354063e-01	 3.855942e-01	 2.042902e+01
 9.280008e-01	 4.030910e-01	 1.968403e+01
 9.202398e-01	 4.205075e-01	 1.892246e+01
 9.121238e-01	 4.378332e-01	 1.814315e+01
 9.601871e-01	 3.544760e-01	 2.155826e+01
 9.534149e-01	 3.723070e-01	 2.088342e+01
 9.462831e-01	 3.900778e-01	 2.019514e+01
 9.387915e-01	 4.077781e-01	 1.949221e+01
 9.309403e-01	 4.253971e-01	 1.877340e+01
 9.227299e-01	 4.429243e-01	 1.803739e+01
 9.712237e-01	 3.585504e-01	 2.125714e+01
 9.643737e-01	 3.765864e-01	 2.062007e+01
 9.571599e-01	 3.945615e-01	 1.997055e+01
 9.495822e-01	 4.124652e-01	 1.930721e+01
 9.416407e-01	 4.302867e-01	 1.862861e+01
 9.333360e-01	 4.480154e-01	 1.793322e+01
 9.822603e-01	 3.626249e-01	 2.096774e+01
 9.753325e-01	 3.808658e-01	 2.036609e+01
 9.680367e-01	 3.990452e-01	 1.975299e+01
 9.603729e-01	 4.171523e-01	 1.912689e+01
 9.523412e-01	 4.351763e-01	 1.848609e+01
 9.439421e-01	 4.531065e-01	 1.782878e+01
 9.932970e-01	 3.666993e-01	 2.068762e+01
 9.862913e-01	 3.851452e-01	 2.011916e+01
 9.789136e-01	 4.035288e-01	 1.954029e+01
 9.711636e-01	 4.218394e-01	 1.894919e+01
 9.630417e-01	 4.400660e-01	 1.834388e+01
 9.545482e-01	 4.581976e-01	 1.772224e+01
 9.015177e-01	 4.327422e-01	 1.825241e+01
 8.931462e-01	 4.497664e-01	 1.741878e+01
 8.844262e-01	 4.666801e-01	 1.658642e+01
 8.753594e-01	 4.834728e-01	 1.575315e+01
 8.659480e-01	 5.001341e-01	 1.491663e+01
 8.561945e-01	 5.166537e-01	 1.407434e+01
 9.121238e-01	 4.378332e-01	 1.814315e+01
 9.036538e-01	 4.550577e-01	 1.735551e+01
 8.948312e-01	 4.721704e-01	 1.656800e+01
 8.856577e-01	 4.891607e-01	 1.577788e+01
 8.761356e-01	 5.060180e-01	 1.498218e+01
 8.662674e-01	 5.227319e-01	 1.417772e+01
 9.227299e-01	 4.429243e-01	 1.803739e+01
 9.141614e-01	 4.603491e-01	 1.729280e+01
 9.052362e-01	 4.776608e-01	 1.654718e+01
 8.959561e-01	 4.948486e-01	 1.579729e+01
 8.863232e-01	 5.119020e-01	 1.503967e+01
 8.763402e-01	 5.288102e-01	 1.427062e+01
 9.333360e-01	 4.480154e-01	 1.793322e+01
 9.246691e-01	 4.656405e-01	 1.722892e+01
 9.156413e-01	 4.831511e-01	 1.652243e+01
 9.062544e-01	 5.005365e-01	 1.581013e+01
 8.965108e-01	 5.177859e-01	 1.508818e+01
 8.864131e-01	 5.348885e-01	 1.435246e+01
 9.439421e-01	 4.531065e-01	 1.782878e+01
 9.351767e-01	 4.709318e-01	 1.716216e+01
 9.260463e-01	 4.886415e-01	 1.649225e+01
 9.165528e-01	 5.062244e-01	 1.581517e+01
 9.066984e-01	 5.236698e-01	 1.512677e+01
 8.964860e-01	 5.409668e-01	 1.442265e+01
 9.545482e-01	 4.581976e-01	 1.772224e+01
 9.456843e-01	 4.762232e-01	 1.709084e+01
 9.364513e-01	 4.941318e-01	 1.645517e+01
 9.268511e-01	 5.119124e-01	 1.581116e+01
 9.168861e-01	 5.295538e-01	 1.515449e+01
 9.065589e-01	 5.470451e-01	 1.448057e+01
 8.561945e-01	 5.166537e-01	 1.407434e+01
 8.461019e-01	 5.330211e-01	 1.323673e+01
 8.356738e-01	 5.492262e-01	 1.241633e+01
 8.249137e-01	 5.652587e-01	 1.161377e+01
 8.138260e-01	 5.811086e-01	 1.083004e+01
 8.024153e-01	 5.967660e-01	 1.006164e+01
 8.662674e-01	 5.227319e-01	 1.417772e+01
 8.560561e-01	 5.392919e-01	 1.337661e+01
 8.455052e-01	 5.556876e-01	 1.259360e+01
 8.346186e-01	 5.719088e-01	 1.182973e+01
 8.234005e-01	 5.879452e-01	 1.108640e+01
 8.118555e-01	 6.037868e-01	 1.034823e+01
 8.763402e-01	 5.288102e-01	 1.427062e+01
 8.660102e-01	 5.455628e-01	 1.350423e+01
 8.553367e-01	 5.621491e-01	 1.275779e+01
 8.443235e-01	 5.785589e-01	 1.203261e+01
 8.329749e-01	 5.947817e-01	 1.132693e+01
 8.212957e-01	 6.108075e-01	 1.061471e+01
 8.864131e-01	 5.348885e-01	 1.435246e+01
 8.759644e-01	 5.518336e-01	 1.361938e+01
 8.651681e-01	 5.686106e-01	 1.290896e+01
 8.540283e-01	 5.852090e-01	 1.222268e+01
 8.425493e-01	 6.016183e-01	 1.154713e+01
 8.307359e-01	 6.178283e-01	 1.086021e+01
 8.964860e-01	 5.409668e-01	 1.442265e+01
 8.859185e-01	 5.581044e-01	 1.372181e+01
 8.749996e-01	 5.750721e-01	 1.304711e+01
 8.637332e-01	 5.918591e-01	 1.239889e+01
 8.521237e-01	 6.084549e-01	 1.174602e+01
 8.401761e-01	 6.248491e-01	 1.108384e+01
 9.065589e-01	 5.470451e-01	 1.448057e+01
 8.958727e-01	 5.643753e-01	 1.381120e+01
 8.848310e-01	 5.815336e-01	 1.317218e+01
 8.734381e-01	 5.985092e-01	 1.255460e+01
 8.616982e-01	 6.152914e-01	 1.192262e+01
 8.496162e-01	 6.318699e-01	 1.128465e+01
 8.024153e-01	 5.967660e-01	 1.006164e+01
 7.906866e-01	 6.122211e-01	 9.297108e+00
 7.786453e-01	 6.274644e-01	 8.548907e+00
 7.662971e-01	 6.424864e-01	 7.824903e+00
 7.536483e-01	 6.572779e-01	 7.133231e+00
 7.407053e-01	 6.718301e-01	 6.482228e+00
 8.118555e-01	 6.037868e-01	 1.034823e+01
 7.999888e-01	 6.194237e-01	 9.610604e+00
 7.878058e-01	 6.348463e-01	 8.887905e+00
 7.753124e-01	 6.500450e-01	 8.187793e+00
 7.625147e-01	 6.650106e-01	 7.518173e+00
 7.494195e-01	 6.797340e-01	 6.887139e+00
 8.212957e-01	 6.108075e-01	 1.061471e+01
 8.092910e-01	 6.266263e-01	 9.903496e+00
 7.969663e-01	 6.422282e-01	 9.205668e+00
 7.843276e-01	 6.576037e-01	 8.528709e+00
 7.713812e-01	 6.727433e-01	 7.880334e+00
 7.581336e-01	 6.876379e-01	 7.268427e+00
 8.307359e-01	 6.178283e-01	 1.086021e+01
 8.185932e-01	 6.338289e-01	 1.017495e+01
 8.061269e-01	 6.496102e-01	 9.501396e+00
 7.933429e-01	 6.651624e-01	 8.846889e+00
 7.802476e-01	 6.804760e-01	 8.218990e+00
 7.668478e-01	 6.955418e-01	 7.625412e+00
 8.401761e-01	 6.248491e-01	 1.108384e+01
 8.278954e-01	 6.410315e-01	 1.042410e+01
 8.152874e-01	 6.569921e-01	 9.774244e+00
 8.023582e-01	 6.727210e-01	 9.141523e+00
 7.891141e-01	 6.882087e-01	 8.533372e+00
 7.755620e-01	 7.034456e-01	 7.957364e+00
 8.496162e-01	 6.318699e-01	 1.128465e+01
 8.371976e-01	 6.482341e-01	 1.065001e+01
 8.244479e-01	 6.643740e-01	 1.002333e+01
 8.113734e-01	 6.802797e-01	 9.411763e+00
 7.979805e-01	 6.959413e-01	 8.822666e+00
 7.842762e-01	 7.113495e-01	 8.263508e+00
 7.407053e-01	 6.718301e-01	 6.482228e+00
 7.274750e-01	 6.861342e-01	 5.859245e+00
 7.139646e-01	 7.001818e-01	 5.251808e+00
 7.001818e-01	 7.139646e-01	 4.668576e+00
 6.861342e-01	 7.274750e-01	 4.118081e+00
 6.718301e-01	 7.407053e-01	 3.608657e+00
 7.494195e-01	 6.797340e-01	 6.887139e+00
 7.360335e-01	 6.942064e-01	 6.281437e+00
 7.223642e-01	 7.084192e-01	 5.688419e+00
 7.084192e-01	 7.223642e-01	 5.117139e+00
 6.942064e-01	 7.360335e-01	 4.576532e+00
 6.797340e-01	 7.494195e-01	 4.075342e+00
 7.581336e-01	 6.876379e-01	 7.268427e+00
 7.445921e-01	 7.022785e-01	 6.679283e+00
 7.307638e-01	 7.166566e-01	 6.100170e+00
 7.166566e-01	 7.307638e-01	 5.540483e+00
 7.022785e-01	 7.445921e-01	 5.009504e+00
 6.876379e-01	 7.581336e-01	 4.516327e+00
 7.668478e-01	 6.955418e-01	 7.625412e+00
 7.531506e-01	 7.103507e-01	 7.052138e+00
 7.391634e-01	 7.248941e-01	 6.486437e+00
 7.248941e-01	 7.391634e-01	 5.937992e+00
 7.103507e-01	 7.531506e-01	 5.416377e+00
 6.955418e-01	 7.668478e-01	 4.930981e+00
 7.755620e-01	 7.034456e-01	 7.957364e+00
 7.617091e-01	 7.184229e-01	 7.399305e+00
 7.475630e-01	 7.331315e-01	 6.846543e+00
 7.331315e-01	 7.475630e-01	 6.308994e+00
 7.184229e-01	 7.617091e-01	 5.796476e+00
 7.034456e-01	 7.755620e-01	 5.318619e+00
 7.842762e-01	 7.113495e-01	 8.263508e+00
 7.702676e-01	 7.264950e-01	 7.720042e+00
 7.559626e-01	 7.413689e-01	 7.179760e+00
 7.413689e-01	 7.559626e-01	 6.652769e+00
 7.264950e-01	 7.702676e-01	 6.149078e+00
 7.113495e-01	 7.842762e-01	 5.678505e+00
 6.718301e-01	 7.407053e-01	 3.608657e+00
 6.572779e-01	 7.536483e-01	 3.132950e+00
 6.424864e-01	 7.662971e-01	 2.681260e+00
 6.274644e-01	 7.786453e-01	 2.257717e+00
 6.122211e-01	 7.906866e-01	 1.865758e+00
 5.967660e-01	 8.024153e-01	 1.508104e+00
 6.797340e-01	 7.494195e-01	 4.075342e+00
 6.650106e-01	 7.625147e-01	 3.605331e+00
 6.500450e-01	 7.753124e-01	 3.155909e+00
 6.348463e-01	 7.878058e-01	 2.731620e+00
 6.194237e-01	 7.999888e-01	 2.336329e+00
 6.037868e-01	 8.118555e-01	 1.973189e+00
 6.876379e-01	 7.581336e-01	 4.516327e+00
 6.727433e-01	 7.713812e-01	 4.051888e+00
 6.576037e-01	 7.843276e-01	 3.604830e+00
 6.422282e-01	 7.969663e-01	 3.180144e+00
 6.266263e-01	 8.092910e-01	 2.782153e+00
 6.108075e-01	 8.212957e-01	 2.414480e+00
 6.955418e-01	 7.668478e-01	 4.930981e+00
 6.804760e-01	 7.802476e-01	 4.471981e+00
 6.651624e-01	 7.933429e-01	 4.027376e+00
 6.496102e-01	 8.061269e-01	 3.602638e+00
 6.338289e-01	 8.185932e-01	 3.202583e+00
 6.178283e-01	 8.307359e-01	 2.831332e+00
 7.034456e-01	 7.755620e-01	 5.318619e+00
 6.882087e-01	 7.891141e-01	 4.864912e+00
 6.727210e-01	 8.023582e-01	 4.422843e+00
 6.569921e-01	 8.152874e-01	 3.998395e+00
 6.410315e-01	 8.278954e-01	 3.596911e+00
 6.248491e-01	 8.401761e-01	 3.223041e+00
 7.113495e-01	 7.842762e-01	 5.678505e+00
 6.959413e-01	 7.979805e-01	 5.229934e+00
 6.802797e-01	 8.113734e-01	 4.790474e+00
 6.643740e-01	 8.244479e-01	 4.366656e+00
 6.482341e-01	 8.371976e-01	 3.964377e+00
 6.318699e-01	 8.496162e-01	 3.588849e+00
 5.967660e-01	 8.024153e-01	 1.508104e+00
 5.811086e-01	 8.138260e-01	 1.185925e+00
 5.652587e-01	 8.249137e-01	 8.955748e-01
 5.492262e-01	 8.356738e-01	 6.346425e-01
 5.330211e-01	 8.461019e-01	 4.007234e-01
 5.166537e-01	 8.561945e-01	 1.908313e-01
 6.037868e-01	 8.118555e-01	 1.973189e+00
 5.879452e-01	 8.234005e-01	 1.643895e+00
 5.719088e-01	 8.346186e-01	 1.345862e+00
 5.556876e-01	 8.455052e-01	 1.075164e+00
 5.392919e-01	 8.560561e-01	 8.292951e-01
 5.227319e-01	 8.662674e-01	 6.051264e-01
 6.108075e-01	 8.212957e-01	 2.414480e+00
 5.947817e-01	 8.329749e-01	 2.078671e+00
 5.785589e-01	 8.443235e-01	 1.773525e+00
 5.621491e-01	 8.553367e-01	 1.493969e+00
 5.455628e-01	 8.660102e-01	 1.236981e+00
 5.288102e-01	 8.763402e-01	 9.992920e-01
 6.178283e-01	 8.307359e-01	 2.831332e+00
 6.016183e-01	 8.425493e-01	 2.490105e+00
 5.852090e-01	 8.540283e-01	 2.177964e+00
 5.686106e-01	 8.651681e-01	 1.890526e+00
 5.518336e-01	 8.759644e-01	 1.623340e+00
 5.348885e-01	 8.864131e-01	 1.372998e+00
 6.248491e-01	 8.401761e-01	 3.223041e+00
 6.084549e-01	 8.521237e-01	 2.877511e+00
 5.918591e-01	 8.637332e-01	 2.558657e+00
 5.750721e-01	 8.749996e-01	 2.264240e+00
 5.581044e-01	 8.859185e-01	 1.987865e+00
 5.409668e-01	 8.964860e-01	 1.725846e+00
 6.318699e-01	 8.496162e-01	 3.588849e+00
 6.152914e-01	 8.616982e-01	 3.240144e+00
 5.985092e-01	 8.734381e-01	 2.915599e+00
 5.815336e-01	 8.848310e-01	 2.614458e+00
 5.643753e-01	 8.958727e-01	 2.329988e+00
 5.470451e-01	 9.065589e-01	 2.057373e+00
 5.166537e-01	 8.561945e-01	 1.908313e-01
 5.001341e-01	 8.659480e-01	 5.480779e-03
 4.834728e-01	 8.753594e-01	-1.530735e-01
 4.666801e-01	 8.844262e-01	-2.858917e-01
 4.497664e-01	 8.931462e-01	-3.943708e-01
 4.327422e-01	 9.015177e-01	-4.802153e-01
 5.227319e-01	 8.662674e-01	 6.051264e-01
 5.060180e-01	 8.761356e-01	 4.037163e-01
 4.891607e-01	 8.856577e-01	 2.279205e-01
 4.721704e-01	 8.948312e-01	 7.658430e-02
 4.550577e-01	 9.036538e-01	-5.179490e-02
 4.378332e-01	 9.121238e-01	-1.590360e-01
 5.288102e-01	 8.763402e-01	 9.992920e-01
 5.119020e-01	 8.863232e-01	 7.826069e-01
 4.948486e-01	 8.959561e-01	 5.904907e-01
 4.776608e-01	 9.052362e-01	 4.217044e-01
 4.603491e-01	 9.141614e-01	 2.746509e-01
 4.429243e-01	 9.227299e-01	 1.474074e-01
 5.348885e-01	 8.864131e-01	 1.372998e+00
 5.177859e-01	 8.965108e-01	 1.141950e+00
 5.005365e-01	 9.062544e-01	 9.345746e-01
 4.831511e-01	 9.156413e-01	 7.495580e-01
 4.656405e-01	 9.246691e-01	 5.852184e-01
 4.480154e-01	 9.333360e-01	 4.395393e-01
 5.409668e-01	 8.964860e-01	 1.725846e+00
 5.236698e-01	 9.066984e-01	 1.481473e+00
 5.062244e-01	 9.165528e-01	 1.260036e+00
 4.886415e-01	 9.260463e-01	 1.060156e+00
 4.709318e-01	 9.351767e-01	 8.800776e-01
 4.531065e-01	 9.439421e-01	 7.176976e-01
 5.470451e-01	 9.065589e-01	 2.057373e+00
 5.295538e-01	 9.168861e-01	 1.800833e+00
 5.119124e-01	 9.268511e-01	 1.566666e+00
 4.941318e-01	 9.364513e-01	 1.353437e+00
 4.762232e-01	 9.456843e-01	 1.159320e+00
 4.581976e-01	 9.545482e-01	 9.821380e-01
 4.327422e-01	 9.015177e-01	-4.802153e-01
 4.156178e-01	 9.095393e-01	-5.451485e-01
 3.984038e-01	 9.172101e-01	-5.911202e-01
 3.811105e-01	 9.245295e-01	-6.205500e-01
 3.637482e-01	 9.314973e-01	-6.360439e-01
 3.463271e-01	 9.381138e-01	-6.403540e-01
 4.378332e-01	 9.121238e-01	-1.590360e-01
 4.205075e-01	 9.202398e-01	-2.469307e-01
 4.030910e-01	 9.280008e-01	-3.170820e-01
 3.855942e-01	 9.354063e-01	-3.714030e-01
 3.680276e-01	 9.424561e-01	-4.119896e-01
 3.504016e-01	 9.491504e-01	-4.410811e-01
 4.429243e-01	 9.227299e-01	 1.474074e-01
 4.253971e-01	 9.309403e-01	 3.817872e-02
 4.077781e-01	 9.387915e-01	-5.431736e-02
 3.900778e-01	 9.462831e-01	-1.316144e-01
 3.723070e-01	 9.534149e-01	-1.954265e-01
 3.544760e-01	 9.601871e-01	-2.476097e-01
 4.480154e-01	 9.333360e-01	 4.395393e-01
 4.302867e-01	 9.416407e-01	 3.107657e-01
 4.124652e-01	 9.495822e-01	 1.978931e-01
 3.945615e-01	 9.571599e-01	 9.964451e-02
 3.765864e-01	 9.643737e-01	 1.456286e-02
 3.585504e-01	 9.712237e-01	-5.895069e-02
 4.531065e-01	 9.439421e-01	 7.176976e-01
 4.351763e-01	 9.523412e-01	 5.713263e-01
 4.171523e-01	 9.603729e-01	 4.401770e-01
 3.990452e-01	 9.680367e-01	 3.231099e-01
 3.808658e-01	 9.753325e-01	 2.188034e-01
 3.626249e-01	 9.822603e-01	 1.257935e-01
 4.581976e-01	 9.545482e-01	 9.821380e-01
 4.400660e-01	 9.630417e-01	 8.202710e-01
 4.218394e-01	 9.711636e-01	 6.730745e-01
 4.035288e-01	 9.789136e-01	 5.394295e-01
 3.851452e-01	 9.862913e-01	 4.180318e-01
 3.666993e-01	 9.932970e-01	 3.074331e-01
 3.463271e-01	 9.381138e-01	-6.403540e-01
 3.288574e-01	 9.443796e-01	-6.335185e-01
 3.113490e-01	 9.502956e-01	-6.151524e-01
 2.938119e-01	 9.558632e-01	-5.875120e-01
 2.762559e-01	 9.610841e-01	-5.528978e-01
 2.586904e-01	 9.659603e-01	-5.136193e-01
 3.504016e-01	 9.491504e-01	-4.410811e-01
 3.327263e-01	 9.554899e-01	-4.584095e-01
 3.150120e-01	 9.614756e-01	-4.636236e-01
 2.972685e-01	 9.671087e-01	-4.589636e-01
 2.795059e-01	 9.723910e-01	-4.466967e-01
 2.617339e-01	 9.773245e-01	-4.290813e-01
 3.544760e-01	 9.601871e-01	-2.476097e-01
 3.365952e-01	 9.666003e-01	-2.876612e-01
 3.186749e-01	 9.726555e-01	-3.152101e-01
 3.007252e-01	 9.783541e-01	-3.324260e-01
 2.827560e-01	 9.836979e-01	-3.414918e-01
 2.647773e-01	 9.886888e-01	-3.445669e-01
 3.585504e-01	 9.712237e-01	-5.895069e-02
 3.404641e-01	 9.777106e-01	-1.202290e-01
 3.223378e-01	 9.838355e-01	-1.688320e-01
 3.041818e-01	 9.895996e-01	-2.068068e-01
 2.860061e-01	 9.950047e-01	-2.362033e-01
 2.678207e-01	 1.000053e+00	-2.590366e-01
 3.626249e-01	 9.822603e-01	 1.257935e-01
 3.443330e-01	 9.888210e-01	 4.484158e-02
 3.260007e-01	 9.950154e-01	-2.349672e-02
 3.076384e-01	 1.000845e+00	-8.109694e-02
 2.892562e-01	 1.006312e+00	-1.298300e-01
 2.708641e-01	 1.011417e+00	-1.715238e-01
 3.666993e-01	 9.932970e-01	 3.074331e-01
 3.482019e-01	 9.999313e-01	 2.084197e-01
 3.296637e-01	 1.006195e+00	 1.217055e-01
 3.110950e-01	 1.012090e+00	 4.563330e-02
 2.925062e-01	 1.017618e+00	-2.144525e-02
 2.739075e-01	 1.022781e+00	-8.113081e-02
 2.586904e-01	 9.659603e-01	-5.136193e-01
 2.411251e-01	 9.704941e-01	-4.706782e-01
 2.235690e-01	 9.746881e-01	-4.246103e-01
 2.060313e-01	 9.785454e-01	-3.769296e-01
 1.885207e-01	 9.820692e-01	-3.290234e-01
 1.710460e-01	 9.852630e-01	-2.821342e-01
 2.617339e-01	 9.773245e-01	-4.290813e-01
 2.439618e-01	 9.819116e-01	-4.069368e-01
 2.261992e-01	 9.861550e-01	-3.806850e-01
 2.084551e-01	 9.900577e-01	-3.518794e-01
 1.907386e-01	 9.936230e-01	-3.219473e-01
 1.730583e-01	 9.968544e-01	-2.921710e-01
 2.647773e-01	 9.886888e-01	-3.445669e-01
 2.467986e-01	 9.933292e-01	-3.423357e-01
 2.288294e-01	 9.976219e-01	-3.351395e-01
 2.108790e-01	 1.001570e+00	-3.245000e-01
 1.929565e-01	 1.005177e+00	-3.118098e-01
 1.750706e-01	 1.008446e+00	-2.983108e-01
 2.678207e-01	 1.000053e+00	-2.590366e-01
 2.496354e-01	 1.004747e+00	-2.758633e-01
 2.314597e-01	 1.009089e+00	-2.869366e-01
 2.133029e-01	 1.013082e+00	-2.936803e-01
 1.951744e-01	 1.016730e+00	-2.973797e-01
 1.770829e-01	 1.020037e+00	-2.991602e-01
 2.708641e-01	 1.011417e+00	-1.715238e-01
 2.524721e-01	 1.016164e+00	-2.065750e-01
 2.340899e-01	 1.020556e+00	-2.351043e-01
 2.157268e-01	 1.024595e+00	-2.583732e-01
 1.973923e-01	 1.028284e+00	-2.774917e-01
 1.790952e-01	 1.031628e+00	-2.933963e-01
 2.739075e-01	 1.022781e+00	-8.113081e-02
 2.553089e-01	 1.027582e+00	-1.335906e-01
 2.367201e-01	 1.032023e+00	-1.787314e-01
 2.181507e-01	 1.036107e+00	-2.175926e-01
 1.996102e-01	 1.039838e+00	-2.510436e-01
 1.811076e-01	 1.043220e+00	-2.797626e-01
 1.710460e-01	 9.852630e-01	-2.821342e-01
 1.536156e-01	 9.881307e-01	-2.363272e-01
 1.362375e-01	 9.906762e-01	-1.919392e-01
 1.189198e-01	 9.929039e-01	-1.503832e-01
 1.016702e-01	 9.948182e-01	-1.129077e-01
 8.449607e-02	 9.964238e-01	-8.059287e-02
 1.730583e-01	 9.968544e-01	-2.921710e-01
 1.554228e-01	 9.997558e-01	-2.627093e-01
 1.378403e-01	 1.002331e+00	-2.337871e-01
 1.203189e-01	 1.004585e+00	-2.065344e-01
 1.028663e-01	 1.006522e+00	-1.819009e-01
 8.549014e-02	 1.008146e+00	-1.606521e-01
 1.750706e-01	 1.008446e+00	-2.983108e-01
 1.572300e-01	 1.011381e+00	-2.841266e-01
 1.394431e-01	 1.013986e+00	-2.693760e-01
 1.217180e-01	 1.016266e+00	-2.550253e-01
 1.040624e-01	 1.018226e+00	-2.418427e-01
 8.648421e-02	 1.019869e+00	-2.303967e-01
 1.770829e-01	 1.020037e+00	-2.991602e-01
 1.590373e-01	 1.023006e+00	-2.990247e-01
 1.410459e-01	 1.025641e+00	-2.970300e-01
 1.231170e-01	 1.027948e+00	-2.940930e-01
 1.052586e-01	 1.029929e+00	-2.909154e-01
 8.747828e-02	 1.031592e+00	-2.879815e-01
 1.790952e-01	 1.031628e+00	-2.933963e-01
 1.608445e-01	 1.034631e+00	-3.059243e-01
 1.426487e-01	 1.037296e+00	-3.151504e-01
 1.245161e-01	 1.039629e+00	-3.220540e-01
 1.064547e-01	 1.041633e+00	-3.273811e-01
 8.847235e-02	 1.043314e+00	-3.316413e-01
 1.811076e-01	 1.043220e+00	-2.797626e-01
 1.626518e-01	 1.046256e+00	-3.034164e-01
 1.442515e-01	 1.048951e+00	-3.222122e-01
 1.259151e-01	 1.051310e+00	-3.373001e-01
 1.076508e-01	 1.053337e+00	-3.495777e-01
 8.946642e-02	 1.055037e+00	-3.596864e-01
 8.449607e-02	 9.964238e-01	-8.059287e-02
 6.740460e-02	 9.977257e-01	-5.399198e-02
 5.040273e-02	 9.987290e-01	-3.313627e-02
 3.349713e-02	 9.994388e-01	-1.807432e-02
 1.669417e-02	 9.998606e-01	-8.702785e-03
 0.000000e+00	 1.000000e+00	-4.780660e-03
 8.549014e-02	 1.008146e+00	-1.606521e-01
 6.819760e-02	 1.009464e+00	-1.430095e-01
 5.099571e-02	 1.010479e+00	-1.290208e-01
 3.389121e-02	 1.011197e+00	-1.189173e-01
 1.689057e-02	 1.011624e+00	-1.127589e-01
 0.000000e+00	 1.011765e+00	-1.104482e-01
 8.648421e-02	 1.019869e+00	-2.303967e-01
 6.899059e-02	 1.021202e+00	-2.206939e-01
 5.158868e-02	 1.022228e+00	-2.127983e-01
 3.428529e-02	 1.022955e+00	-2.070645e-01
 1.708698e-02	 1.023387e+00	-2.036564e-01
 0.000000e+00	 1.023529e+00	-2.025620e-01
 8.747828e-02	 1.031592e+00	-2.879815e-01
 6.978359e-02	 1.032940e+00	-2.851885e-01
 5.218165e-02	 1.033978e+00	-2.826088e-01
 3.467938e-02	 1.034713e+00	-2.806622e-01
 1.728338e-02	 1.035150e+00	-2.795600e-01
 0.000000e+00	 1.035294e+00	-2.793191e-01
 8.847235e-02	 1.043314e+00	-3.316413e-01
 7.057658e-02	 1.044678e+00	-3.347163e-01
 5.277463e-02	 1.045728e+00	-3.366711e-01
 3.507346e-02	 1.046471e+00	-3.379358e-01
 1.747978e-02	 1.046913e+00	-3.387132e-01
 0.000000e+00	 1.047059e+00	-3.389949e-01
 8.946642e-02	 1.055037e+00	-3.596864e-01
 7.136958e-02	 1.056415e+00	-3.675753e-01
 5.336760e-02	 1.057478e+00	-3.732794e-01
 3.546754e-02	 1.058229e+00	-3.771848e-01
 1.767618e-02	 1.058676e+00	-3.794334e-01
 0.000000e+00	 1.058824e+00	-3.799383e-01
 1.058824e+00	 0.000000e+00	 2.653661e+01
 1.058676e+00	 1.767618e-02	 2.652345e+01
 1.058229e+00	 3.546754e-02	 2.648034e+01
 1.057478e+00	 5.336760e-02	 2.640716e+01
 1.056415e+00	 7.136958e-02	 2.630370e+01
 1.055037e+00	 8.946642e-02	 2.616966e+01
 1.070588e+00	 0.000000e+00	 2.591713e+01
 1.070439e+00	 1.787258e-02	 2.590473e+01
 1.069987e+00	 3.586163e-02	 2.586435e+01
 1.069227e+00	 5.396057e-02	 2.579585e+01
 1.068153e+00	 7.216257e-02	 2.569901e+01
 1.066760e+00	 9.046050e-02	 2.557347e+01
 1.082353e+00	 0.000000e+00	 2.533056e+01
 1.082202e+00	 1.806899e-02	 2.531878e+01
 1.081746e+00	 3.625571e-02	 2.528090e+01
 1.080977e+00	 5.455355e-02	 2.521677e+01
 1.079891e+00	 7.295557e-02	 2.512609e+01
 1.078482e+00	 9.145457e-02	 2.500850e+01
 1.094118e+00	 0.000000e+00	 2.477398e+01
 1.093965e+00	 1.826539e-02	 2.476270e+01
 1.093504e+00	 3.664980e-02	 2.472712e+01
 1.092727e+00	 5.514652e-02	 2.466702e+01
 1.091629e+00	 7.374856e-02	 2.458209e+01
 1.090205e+00	 9.244864e-02	 2.447190e+01
 1.105882e+00	 0.000000e+00	 2.424462e+01
 1.105728e+00	 1.846179e-02	 2.423372e+01
 1.105262e+00	 3.704388e-02	 2.420022e+01
 1.104477e+00	 5.573949e-02	 2.414387e+01
 1.103367e+00	 7.454156e-02	 2.406427e+01
 1.101928e+00	 9.344271e-02	 2.396095e+01
 1.117647e+00	 0.000000e+00	 2.373983e+01
 1.117491e+00	 1.865819e-02	 2.372920e+01
 1.117020e+00	 3.743796e-02	 2.369759e+01
 1.116227e+00	 5.633247e-02	 2.364468e+01
 1.115105e+00	 7.533455e-02	 2.357002e+01
 1.113650e+00	 9.443678e-02	 2.347305e+01
 1.055037e+00	 8.946642e-02	 2.616966e+01
 1.053337e+00	 1.076508e-01	 2.600540e+01
 1.051310e+00	 1.259151e-01	 2.581137e+01
 1.048951e+00	 1.442515e-01	 2.558714e+01
 1.046256e+00	 1.626518e-01	 2.533221e+01
 1.043220e+00	 1.811076e-01	 2.504604e+01
 1.066760e+00	 9.046050e-02	 2.557347e+01
 1.065041e+00	 1.088469e-01	 2.541962e+01
 1.062991e+00	 1.273142e-01	 2.523788e+01
 1.060606e+00	 1.458543e-01	 2.502778e+01
 1.057881e+00	 1.644590e-01	 2.478878e+01
 1.054811e+00	 1.831199e-01	 2.452024e+01
 1.078482e+00	 9.145457e-02	 2.500850e+01
 1.076744e+00	 1.100430e-01	 2.486435e+01
 1.074672e+00	 1.287132e-01	 2.469405e+01
 1.072261e+00	 1.474571e-01	 2.449713e+01
 1.069506e+00	 1.662663e-01	 2.427302e+01
 1.066402e+00	 1.851322e-01	 2.402106e+01
 1.090205e+00	 9.244864e-02	 2.447190e+01
 1.088448e+00	 1.112392e-01	 2.433676e+01
 1.086354e+00	 1.301123e-01	 2.417709e+01
 1.083916e+00	 1.490599e-01	 2.399242e+01
 1.081131e+00	 1.680735e-01	 2.378220e+01
 1.077994e+00	 1.871445e-01	 2.354578e+01
 1.101928e+00	 9.344271e-02	 2.396095e+01
 1.100152e+00	 1.124353e-01	 2.383416e+01
 1.098035e+00	 1.315114e-01	 2.368432e+01
 1.095571e+00	 1.506627e-01	 2.351099e+01
 1.092756e+00	 1.698807e-01	 2.331369e+01
 1.089585e+00	 1.891568e-01	 2.309181e+01
 1.113650e+00	 9.443678e-02	 2.347305e+01
 1.111856e+00	 1.136314e-01	 2.335396e+01
 1.109716e+00	 1.329104e-01	 2.321315e+01
 1.107226e+00	 1.522655e-01	 2.305030e+01
 1.104381e+00	 1.716880e-01	 2.286497e+01
 1.101176e+00	 1.911691e-01	 2.265666e+01
 1.043220e+00	 1.811076e-01	 2.504604e+01
 1.039838e+00	 1.996102e-01	 2.473031e+01
 1.036107e+00	 2.181507e-01	 2.438693e+01
 1.032023e+00	 2.367201e-01	 2.401554e+01
 1.027582e+00	 2.553089e-01	 2.361572e+01
 1.022781e+00	 2.739075e-01	 2.318697e+01
 1.054811e+00	 1.831199e-01	 2.452024e+01
 1.051392e+00	 2.018281e-01	 2.422379e+01
 1.047619e+00	 2.205746e-01	 2.390127e+01
 1.043490e+00	 2.393503e-01	 2.355237e+01
 1.039000e+00	 2.581457e-01	 2.317665e+01
 1.034146e+00	 2.769509e-01	 2.277361e+01
 1.066402e+00	 1.851322e-01	 2.402106e+01
 1.062946e+00	 2.040460e-01	 2.374278e+01
 1.059132e+00	 2.229985e-01	 2.343997e+01
 1.054957e+00	 2.419805e-01	 2.311230e+01
 1.050417e+00	 2.609824e-01	 2.275934e+01
 1.045510e+00	 2.799944e-01	 2.238060e+01
 1.077994e+00	 1.871445e-01	 2.354578e+01
 1.074499e+00	 2.062638e-01	 2.328461e+01
 1.070644e+00	 2.254224e-01	 2.300039e+01
 1.066423e+00	 2.446108e-01	 2.269278e+01
 1.061835e+00	 2.638192e-01	 2.236134e+01
 1.056874e+00	 2.830378e-01	 2.200555e+01
 1.089585e+00	 1.891568e-01	 2.309181e+01
 1.086053e+00	 2.084817e-01	 2.284673e+01
 1.082156e+00	 2.278463e-01	 2.258003e+01
 1.077890e+00	 2.472410e-01	 2.229135e+01
 1.073252e+00	 2.666560e-01	 2.198025e+01
 1.068238e+00	 2.860812e-01	 2.164616e+01
 1.101176e+00	 1.911691e-01	 2.265666e+01
 1.097607e+00	 2.106996e-01	 2.242667e+01
 1.093668e+00	 2.302702e-01	 2.217647e+01
 1.089357e+00	 2.498712e-01	 2.190567e+01
 1.084670e+00	 2.694927e-01	 2.161378e+01
 1.079603e+00	 2.891246e-01	 2.130022e+01
 1.022781e+00	 2.739075e-01	 2.318697e+01
 1.017618e+00	 2.925062e-01	 2.273336e+01
 1.012090e+00	 3.110950e-01	 2.225832e+01
 1.006195e+00	 3.296637e-01	 2.176024e+01
 9.999313e-01	 3.482019e-01	 2.123733e+01
 9.932970e-01	 3.666993e-01	 2.068762e+01
 1.034146e+00	 2.769509e-01	 2.277361e+01
 1.028925e+00	 2.957563e-01	 2.234701e+01
 1.023336e+00	 3.145516e-01	 2.189992e+01
 1.017375e+00	 3.333266e-01	 2.143066e+01
 1.011042e+00	 3.520708e-01	 2.093737e+01
 1.004334e+00	 3.707737e-01	 2.041797e+01
 1.045510e+00	 2.799944e-01	 2.238060e+01
 1.040232e+00	 2.990064e-01	 2.197948e+01
 1.034581e+00	 3.180082e-01	 2.155874e+01
 1.028555e+00	 3.369895e-01	 2.111666e+01
 1.022152e+00	 3.559398e-01	 2.065132e+01
 1.015370e+00	 3.748482e-01	 2.016057e+01
 1.056874e+00	 2.830378e-01	 2.200555e+01
 1.051539e+00	 3.022564e-01	 2.162850e+01
 1.045827e+00	 3.214648e-01	 2.123265e+01
 1.039735e+00	 3.406525e-01	 2.081627e+01
 1.033262e+00	 3.598087e-01	 2.037741e+01
 1.026407e+00	 3.789226e-01	 1.991390e+01
 1.068238e+00	 2.860812e-01	 2.164616e+01
 1.062846e+00	 3.055065e-01	 2.129189e+01
 1.057072e+00	 3.249214e-01	 2.091961e+01
 1.050915e+00	 3.443154e-01	 2.052761e+01
 1.044373e+00	 3.636776e-01	 2.011395e+01
 1.037444e+00	 3.829971e-01	 1.967646e+01
 1.079603e+00	 2.891246e-01	 2.130022e+01
 1.074153e+00	 3.087566e-01	 2.096752e+01
 1.068318e+00	 3.283780e-01	 2.061762e+01
 1.062095e+00	 3.479783e-01	 2.024883e+01
 1.055483e+00	 3.675465e-01	 1.985926e+01
 1.048480e+00	 3.870715e-01	 1.944678e+01
 9.932970e-01	 3.666993e-01	 2.068762e+01
 9.862913e-01	 3.851452e-01	 2.011916e+01
 9.789136e-01	 4.035288e-01	 1.954029e+01
 9.711636e-01	 4.218394e-01	 1.894919e+01
 9.630417e-01	 4.400660e-01	 1.834388e+01
 9.545482e-01	 4.581976e-01	 1.772224e+01
 1.004334e+00	 3.707737e-01	 2.041797e+01
 9.972501e-01	 3.894246e-01	 1.988073e+01
 9.897904e-01	 4.080125e-01	 1.933410e+01
 9.819543e-01	 4.265265e-01	 1.877597e+01
 9.737421e-01	 4.449556e-01	 1.820404e+01
 9.651543e-01	 4.632887e-01	 1.761583e+01
 1.015370e+00	 3.748482e-01	 2.016057e+01
 1.008209e+00	 3.937040e-01	 1.965288e+01
 1.000667e+00	 4.124961e-01	 1.913673e+01
 9.927451e-01	 4.312136e-01	 1.860969e+01
 9.844426e-01	 4.498452e-01	 1.806910e+01
 9.757604e-01	 4.683797e-01	 1.751207e+01
 1.026407e+00	 3.789226e-01	 1.991390e+01
 1.019168e+00	 3.979833e-01	 1.943428e+01
 1.011544e+00	 4.169798e-01	 1.894697e+01
 1.003536e+00	 4.359007e-01	 1.844917e+01
 9.951430e-01	 4.547348e-01	 1.793786e+01
 9.863665e-01	 4.734708e-01	 1.740968e+01
 1.037444e+00	 3.829971e-01	 1.967646e+01
 1.030126e+00	 4.022627e-01	 1.922364e+01
 1.022421e+00	 4.214634e-01	 1.876362e+01
 1.014326e+00	 4.405878e-01	 1.829327e+01
 1.005844e+00	 4.596244e-01	 1.780912e+01
 9.969726e-01	 4.785619e-01	 1.730733e+01
 1.048480e+00	 3.870715e-01	 1.944678e+01
 1.041085e+00	 4.065421e-01	 1.901964e+01
 1.033298e+00	 4.259471e-01	 1.858550e+01
 1.025117e+00	 4.452749e-01	 1.814082e+01
 1.016544e+00	 4.645141e-01	 1.768168e+01
 1.007579e+00	 4.836530e-01	 1.720371e+01
 9.545482e-01	 4.581976e-01	 1.772224e+01
 9.456843e-01	 4.762232e-01	 1.709084e+01
 9.364513e-01	 4.941318e-01	 1.645517e+01
 9.268511e-01	 5.119124e-01	 1.581116e+01
 9.168861e-01	 5.295538e-01	 1.515449e+01
 9.065589e-01	 5.470451e-01	 1.448057e+01
 9.651543e-01	 4.632887e-01	 1.761583e+01
 9.561919e-01	 4.815146e-01	 1.701737e+01
 9.468563e-01	 4.996222e-01	 1.641382e+01
 9.371495e-01	 5.176003e-01	 1.580106e+01
 9.270737e-01	 5.354377e-01	 1.517470e+01
 9.166317e-01	 5.531233e-01	 1.453010e+01
 9.757604e-01	 4.683797e-01	 1.751207e+01
 9.666995e-01	 4.868060e-01	 1.694431e+01
 9.572613e-01	 5.051125e-01	 1.637094e+01
 9.474478e-01	 5.232882e-01	 1.578789e+01
 9.372613e-01	 5.413216e-01	 1.519086e+01
 9.267046e-01	 5.592016e-01	 1.457532e+01
 9.863665e-01	 4.734708e-01	 1.740968e+01
 9.772071e-01	 4.920973e-01	 1.687028e+01
 9.676663e-01	 5.106029e-01	 1.632518e+01
 9.577462e-01	 5.289761e-01	 1.577049e+01
 9.474489e-01	 5.472056e-01	 1.520213e+01
 9.367775e-01	 5.652799e-01	 1.461584e+01
 9.969726e-01	 4.785619e-01	 1.730733e+01
 9.877147e-01	 4.973887e-01	 1.679389e+01
 9.780713e-01	 5.160932e-01	 1.627521e+01
 9.680445e-01	 5.346640e-01	 1.574771e+01
 9.576366e-01	 5.530895e-01	 1.520765e+01
 9.468504e-01	 5.713582e-01	 1.465120e+01
 1.007579e+00	 4.836530e-01	 1.720371e+01
 9.982223e-01	 5.026801e-01	 1.671374e+01
 9.884764e-01	 5.215836e-01	 1.621968e+01
 9.783428e-01	 5.403519e-01	 1.571835e+01
 9.678242e-01	 5.589734e-01	 1.520652e+01
 9.569232e-01	 5.774365e-01	 1.468091e+01
 9.065589e-01	 5.470451e-01	 1.448057e+01
 8.958727e-01	 5.643753e-01	 1.381120e+01
 8.848310e-01	 5.815336e-01	 1.317218e+01
 8.734381e-01	 5.985092e-01	 1.255460e+01
 8.616982e-01	 6.152914e-01	 1.192262e+01
 8.496162e-01	 6.318699e-01	 1.128465e+01
 9.166317e-01	 5.531233e-01	 1.453010e+01
 9.058268e-01	 5.706461e-01	 1.389203e+01
 8.946625e-01	 5.879951e-01	 1.328925e+01
 8.831429e-01	 6.051593e-01	 1.269342e+01
 8.712726e-01	 6.221280e-01	 1.208179e+01
 8.590564e-01	 6.388906e-01	 1.146780e+01
 9.267046e-01	 5.592016e-01	 1.457532e+01
 9.157809e-01	 5.769170e-01	 1.396908e+01
 9.044939e-01	 5.944565e-01	 1.339934e+01
 8.928478e-01	 6.118094e-01	 1.282011e+01
 8.808470e-01	 6.289646e-01	 1.222864e+01
 8.684966e-01	 6.459114e-01	 1.163853e+01
 9.367775e-01	 5.652799e-01	 1.461584e+01
 9.257351e-01	 5.831878e-01	 1.404238e+01
 9.143254e-01	 6.009180e-01	 1.349701e+01
 9.025527e-01	 6.184595e-01	 1.293400e+01
 8.904214e-01	 6.358012e-01	 1.236247e+01
 8.779368e-01	 6.529322e-01	 1.179595e+01
 9.468504e-01	 5.713582e-01	 1.465120e+01
 9.356892e-01	 5.894586e-01	 1.411169e+01
 9.241569e-01	 6.073795e-01	 1.358146e+01
 9.122575e-01	 6.251096e-01	 1.303442e+01
 8.999959e-01	 6.426377e-01	 1.248256e+01
 8.873770e-01	 6.599530e-01	 1.193920e+01
 9.569232e-01	 5.774365e-01	 1.468091e+01
 9.456434e-01	 5.957295e-01	 1.417021e+01
 9.339883e-01	 6.138410e-01	 1.365185e+01
 9.219624e-01	 6.317597e-01	 1.312062e+01
 9.095703e-01	 6.494743e-01	 1.258815e+01
 8.968171e-01	 6.669737e-01	 1.206734e+01
 8.496162e-01	 6.318699e-01	 1.128465e+01
 8.371976e-01	 6.482341e-01	 1.065001e+01
 8.244479e-01	 6.643740e-01	 1.002333e+01
 8.113734e-01	 6.802797e-01	 9.411763e+00
 7.979805e-01	 6.959413e-01	 8.822666e+00
 7.842762e-01	 7.113495e-01	 8.263508e+00
 8.590564e-01	 6.388906e-01	 1.146780e+01
 8.464998e-01	 6.554367e-01	 1.085800e+01
 8.336085e-01	 6.717560e-01	 1.025398e+01
 8.203887e-01	 6.878383e-01	 9.662905e+00
 8.068470e-01	 7.036740e-01	 9.092078e+00
 7.929904e-01	 7.192534e-01	 8.548935e+00
 8.684966e-01	 6.459114e-01	 1.163853e+01
 8.558020e-01	 6.626393e-01	 1.105327e+01
 8.427690e-01	 6.791379e-01	 1.047136e+01
 8.294039e-01	 6.953970e-01	 9.899993e+00
 8.157134e-01	 7.114067e-01	 9.346540e+00
 8.017045e-01	 7.271573e-01	 8.818482e+00
 8.779368e-01	 6.529322e-01	 1.179595e+01
 8.651042e-01	 6.698419e-01	 1.123475e+01
 8.519295e-01	 6.865198e-01	 1.067425e+01
 8.384192e-01	 7.029557e-01	 1.012176e+01
 8.245799e-01	 7.191394e-01	 9.584789e+00
 8.104187e-01	 7.350612e-01	 9.070955e+00
 8.873770e-01	 6.599530e-01	 1.193920e+01
 8.744064e-01	 6.770445e-01	 1.140136e+01
 8.610901e-01	 6.939018e-01	 1.086145e+01
 8.474345e-01	 7.105143e-01	 1.032694e+01
 8.334463e-01	 7.268721e-01	 9.805551e+00
 8.191329e-01	 7.429651e-01	 9.305142e+00
 8.968171e-01	 6.669737e-01	 1.206734e+01
 8.837086e-01	 6.842471e-01	 1.155200e+01
 8.702506e-01	 7.012837e-01	 1.103172e+01
 8.564497e-01	 7.180730e-01	 1.051423e+01
 8.423128e-01	 7.346048e-01	 1.000754e+01
 8.278471e-01	 7.508689e-01	 9.519818e+00
 7.842762e-01	 7.113495e-01	 8.263508e+00
 7.702676e-01	 7.264950e-01	 7.720042e+00
 7.559626e-01	 7.413689e-01	 7.179760e+00
 7.413689e-01	 7.559626e-01	 6.652769e+00
 7.264950e-01	 7.702676e-01	 6.149078e+00
 7.113495e-01	 7.842762e-01	 5.678505e+00
 7.929904e-01	 7.192534e-01	 8.548935e+00
 7.788262e-01	 7.345672e-01	 8.019317e+00
 7.643621e-01	 7.496064e-01	 7.490943e+00
 7.496064e-01	 7.643621e-01	 6.974079e+00
 7.345672e-01	 7.788262e-01	 6.478894e+00
 7.192534e-01	 7.929904e-01	 6.015370e+00
 8.017045e-01	 7.271573e-01	 8.818482e+00
 7.873847e-01	 7.426394e-01	 8.301895e+00
 7.727617e-01	 7.578438e-01	 7.784787e+00
 7.578438e-01	 7.727617e-01	 7.277577e+00
 7.426394e-01	 7.873847e-01	 6.790586e+00
 7.271573e-01	 8.017045e-01	 6.333945e+00
 8.104187e-01	 7.350612e-01	 9.070955e+00
 7.959432e-01	 7.507115e-01	 8.566671e+00
 7.811613e-01	 7.660812e-01	 8.060274e+00
 7.660812e-01	 7.811613e-01	 7.562324e+00
 7.507115e-01	 7.959432e-01	 7.083286e+00
 7.350612e-01	 8.104187e-01	 6.633430e+00
 8.191329e-01	 7.429651e-01	 9.305142e+00
 8.045018e-01	 7.587837e-01	 8.812523e+00
 7.895609e-01	 7.743186e-01	 8.316361e+00
 7.743186e-01	 7.895609e-01	 7.827351e+00
 7.587837e-01	 8.045018e-01	 7.356093e+00
 7.429651e-01	 8.191329e-01	 6.912987e+00
 8.278471e-01	 7.508689e-01	 9.519818e+00
 8.130603e-01	 7.668559e-01	 9.038311e+00
 7.979605e-01	 7.825561e-01	 8.551986e+00
 7.825561e-01	 7.979605e-01	 8.071665e+00
 7.668559e-01	 8.130603e-01	 7.608077e+00
 7.508689e-01	 8.278471e-01	 7.171746e+00
 7.113495e-01	 7.842762e-01	 5.678505e+00
 6.959413e-01	 7.979805e-01	 5.229934e+00
 6.802797e-01	 8.113734e-01	 4.790474e+00
 6.643740e-01	 8.244479e-01	 4.366656e+00
 6.482341e-01	 8.371976e-01	 3.964377e+00
 6.318699e-01	 8.496162e-01	 3.588849e+00
 7.192534e-01	 7.929904e-01	 6.015370e+00
 7.036740e-01	 8.068470e-01	 5.571867e+00
 6.878383e-01	 8.203887e-01	 5.135218e+00
 6.717560e-01	 8.336085e-01	 4.712476e+00
 6.554367e-01	 8.464998e-01	 4.310071e+00
 6.388906e-01	 8.590564e-01	 3.933748e+00
 7.271573e-01	 8.017045e-01	 6.333945e+00
 7.114067e-01	 8.157134e-01	 5.895569e+00
 6.953970e-01	 8.294039e-01	 5.462050e+00
 6.791379e-01	 8.427690e-01	 5.040897e+00
 6.626393e-01	 8.558020e-01	 4.638990e+00
 6.459114e-01	 8.684966e-01	 4.262523e+00
 7.350612e-01	 8.104187e-01	 6.633430e+00
 7.191394e-01	 8.245799e-01	 6.200277e+00
 7.029557e-01	 8.384192e-01	 5.770191e+00
 6.865198e-01	 8.519295e-01	 5.351067e+00
 6.698419e-01	 8.651042e-01	 4.950165e+00
 6.529322e-01	 8.779368e-01	 4.574040e+00
 7.429651e-01	 8.191329e-01	 6.912987e+00
 7.268721e-01	 8.334463e-01	 6.485186e+00
 7.105143e-01	 8.474345e-01	 6.058817e+00
 6.939018e-01	 8.610901e-01	 5.642097e+00
 6.770445e-01	 8.744064e-01	 5.242591e+00
 6.599530e-01	 8.873770e-01	 4.867136e+00
 7.508689e-01	 8.278471e-01	 7.171746e+00
 7.346048e-01	 8.423128e-01	 6.749456e+00
 7.180730e-01	 8.564497e-01	 6.327069e+00
 7.012837e-01	 8.702506e-01	 5.913061e+00
 6.842471e-01	 8.837086e-01	 5.515230e+00
 6.669737e-01	 8.968171e-01	 5.140623e+00
 6.318699e-01	 8.496162e-01	 3.588849e+00
 6.152914e-01	 8.616982e-01	 3.240144e+00
 5.985092e-01	 8.734381e-01	 2.915599e+00
 5.815336e-01	 8.848310e-01	 2.614458e+00
 5.643753e-01	 8.958727e-01	 2.329988e+00
 5.470451e-01	 9.065589e-01	 2.057373e+00
 6.388906e-01	 8.590564e-01	 3.933748e+00
 6.221280e-01	 8.712726e-01	 3.582742e+00
 6.051593e-01	 8.831429e-01	 3.253271e+00
 5.879951e-01	 8.946625e-01	 2.945168e+00
 5.706461e-01	 9.058268e-01	 2.653353e+00
 5.531233e-01	 9.166317e-01	 2.370979e+00
 6.459114e-01	 8.684966e-01	 4.262523e+00
 6.289646e-01	 8.808470e-01	 3.909734e+00
 6.118094e-01	 8.928478e-01	 3.575705e+00
 5.944565e-01	 9.044939e-01	 3.260467e+00
 5.769170e-01	 9.157809e-01	 2.961320e+00
 5.592016e-01	 9.267046e-01	 2.669889e+00
 6.529322e-01	 8.779368e-01	 4.574040e+00
 6.358012e-01	 8.904214e-01	 4.219854e+00
 6.184595e-01	 9.025527e-01	 3.881605e+00
 6.009180e-01	 9.143254e-01	 3.559643e+00
 5.831878e-01	 9.257351e-01	 3.252819e+00
 5.652799e-01	 9.367775e-01	 2.953294e+00
 6.599530e-01	 8.873770e-01	 4.867136e+00
 6.426377e-01	 8.999959e-01	 4.511811e+00
 6.251096e-01	 9.122575e-01	 4.169648e+00
 6.073795e-01	 9.241569e-01	 3.841437e+00
 5.894586e-01	 9.356892e-01	 3.526760e+00
 5.713582e-01	 9.468504e-01	 3.220337e+00
 6.669737e-01	 8.968171e-01	 5.140623e+00
 6.494743e-01	 9.095703e-01	 4.784290e+00
 6.317597e-01	 9.219624e-01	 4.438491e+00
 6.138410e-01	 9.339883e-01	 4.104565e+00
 5.957295e-01	 9.456434e-01	 3.782637e+00
 5.774365e-01	 9.569232e-01	 3.470115e+00
 5.470451e-01	 9.065589e-01	 2.057373e+00
 5.295538e-01	 9.168861e-01	 1.800833e+00
 5.119124e-01	 9.268511e-01	 1.566666e+00
 4.941318e-01	 9.364513e-01	 1.353437e+00
 4.762232e-01	 9.456843e-01	 1.159320e+00
 4.581976e-01	 9.545482e-01	 9.821380e-01
 5.531233e-01	 9.166317e-01	 2.370979e+00
 5.354377e-01	 9.270737e-01	 2.103321e+00
 5.176003e-01	 9.371495e-01	 1.857705e+00
 4.996222e-01	 9.468563e-01	 1.632563e+00
 4.815146e-01	 9.561919e-01	 1.425919e+00
 4.632887e-01	 9.651543e-01	 1.235428e+00
 5.592016e-01	 9.267046e-01	 2.669889e+00
 5.413216e-01	 9.372613e-01	 2.392145e+00
 5.232882e-01	 9.474478e-01	 2.136340e+00
 5.051125e-01	 9.572613e-01	 1.900609e+00
 4.868060e-01	 9.666995e-01	 1.682654e+00
 4.683797e-01	 9.757604e-01	 1.479783e+00
 5.652799e-01	 9.367775e-01	 2.953294e+00
 5.472056e-01	 9.474489e-01	 2.666755e+00
 5.289761e-01	 9.577462e-01	 2.402186e+00
 5.106029e-01	 9.676663e-01	 2.157272e+00
 4.920973e-01	 9.772071e-01	 1.929227e+00
 4.734708e-01	 9.863665e-01	 1.714834e+00
 5.713582e-01	 9.468504e-01	 3.220337e+00
 5.530895e-01	 9.576366e-01	 2.926541e+00
 5.346640e-01	 9.680445e-01	 2.654796e+00
 5.160932e-01	 9.780713e-01	 2.402187e+00
 4.973887e-01	 9.877147e-01	 2.165278e+00
 4.785619e-01	 9.969726e-01	 1.940158e+00
 5.774365e-01	 9.569232e-01	 3.470115e+00
 5.589734e-01	 9.678242e-01	 3.170840e+00
 5.403519e-01	 9.783428e-01	 2.893665e+00
 5.215836e-01	 9.884764e-01	 2.634931e+00
 5.026801e-01	 9.982223e-01	 2.390394e+00
 4.836530e-01	 1.007579e+00	 2.155280e+00
 4.581976e-01	 9.545482e-01	 9.821380e-01
 4.400660e-01	 9.630417e-01	 8.202710e-01
 4.218394e-01	 9.711636e-01	 6.730745e-01
 4.035288e-01	 9.789136e-01	 5.394295e-01
 3.851452e-01	 9.862913e-01	 4.180318e-01
 3.666993e-01	 9.932970e-01	 3.074331e-01
 4.632887e-01	 9.651543e-01	 1.235428e+00
 4.449556e-01	 9.737421e-01	 1.059484e+00
 4.265265e-01	 9.819543e-01	 8.976088e-01
 4.080125e-01	 9.897904e-01	 7.487309e-01
 3.894246e-01	 9.972501e-01	 6.115940e-01
 3.707737e-01	 1.004334e+00	 4.847967e-01
 4.683797e-01	 9.757604e-01	 1.479783e+00
 4.498452e-01	 9.844426e-01	 1.290350e+00
 4.312136e-01	 9.927451e-01	 1.114218e+00
 4.124961e-01	 1.000667e+00	 9.505322e-01
 3.937040e-01	 1.008209e+00	 7.982536e-01
 3.748482e-01	 1.015370e+00	 6.562040e-01
 4.734708e-01	 9.863665e-01	 1.714834e+00
 4.547348e-01	 9.951430e-01	 1.512430e+00
 4.359007e-01	 1.003536e+00	 1.322469e+00
 4.169798e-01	 1.011544e+00	 1.144470e+00
 3.979833e-01	 1.019168e+00	 9.777772e-01
 3.789226e-01	 1.026407e+00	 8.216034e-01
 4.785619e-01	 9.969726e-01	 1.940158e+00
 4.596244e-01	 1.005844e+00	 1.725240e+00
 4.405878e-01	 1.014326e+00	 1.521886e+00
 4.214634e-01	 1.022421e+00	 1.330140e+00
 4.022627e-01	 1.030126e+00	 1.149888e+00
 3.829971e-01	 1.037444e+00	 9.808963e-01
 4.836530e-01	 1.007579e+00	 2.155280e+00
 4.645141e-01	 1.016544e+00	 1.928251e+00
 4.452749e-01	 1.025117e+00	 1.711951e+00
 4.259471e-01	 1.033298e+00	 1.507096e+00
 4.065421e-01	 1.041085e+00	 1.314267e+00
 3.870715e-01	 1.048480e+00	 1.133939e+00
 3.666993e-01	 9.932970e-01	 3.074331e-01
 3.482019e-01	 9.999313e-01	 2.084197e-01
 3.296637e-01	 1.006195e+00	 1.217055e-01
 3.110950e-01	 1.012090e+00	 4.563330e-02
 2.925062e-01	 1.017618e+00	-2.144525e-02
 2.739075e-01	 1.022781e+00	-8.113081e-02
 3.707737e-01	 1.004334e+00	 4.847967e-01
 3.520708e-01	 1.011042e+00	 3.691848e-01
 3.333266e-01	 1.017375e+00	 2.656127e-01
 3.145516e-01	 1.023336e+00	 1.725939e-01
 2.957563e-01	 1.028925e+00	 8.865381e-02
 2.769509e-01	 1.034146e+00	 1.236993e-02
 3.748482e-01	 1.015370e+00	 6.562040e-01
 3.559398e-01	 1.022152e+00	 5.254014e-01
 3.369895e-01	 1.028555e+00	 4.067426e-01
 3.180082e-01	 1.034581e+00	 2.987743e-01
 2.990064e-01	 1.040232e+00	 2.000593e-01
 2.799944e-01	 1.045510e+00	 1.092178e-01
 3.789226e-01	 1.026407e+00	 8.216034e-01
 3.598087e-01	 1.033262e+00	 6.772147e-01
 3.406525e-01	 1.039735e+00	 5.454223e-01
 3.214648e-01	 1.045827e+00	 4.246721e-01
 3.022564e-01	 1.051539e+00	 3.134308e-01
 2.830378e-01	 1.056874e+00	 2.102296e-01
 3.829971e-01	 1.037444e+00	 9.808963e-01
 3.636776e-01	 1.044373e+00	 8.247190e-01
 3.443154e-01	 1.050915e+00	 6.819246e-01
 3.249214e-01	 1.057072e+00	 5.507273e-01
 3.055065e-01	 1.062846e+00	 4.293679e-01
 2.860812e-01	 1.068238e+00	 3.161602e-01
 3.870715e-01	 1.048480e+00	 1.133939e+00
 3.675465e-01	 1.055483e+00	 9.679597e-01
 3.479783e-01	 1.062095e+00	 8.164699e-01
 3.283780e-01	 1.068318e+00	 6.773250e-01
 3.087566e-01	 1.074153e+00	 5.484128e-01
 2.891246e-01	 1.079603e+00	 4.277042e-01
 2.739075e-01	 1.022781e+00	-8.113081e-02
 2.553089e-01	 1.027582e+00	-1.335906e-01
 2.367201e-01	 1.032023e+00	-1.787314e-01
 2.181507e-01	 1.036107e+00	-2.175926e-01
 1.996102e-01	 1.039838e+00	-2.510436e-01
 1.811076e-01	 1.043220e+00	-2.797626e-01
 2.769509e-01	 1.034146e+00	 1.236993e-02
 2.581457e-01	 1.039000e+00	-5.618184e-02
 2.393503e-01	 1.043490e+00	-1.166521e-01
 2.205746e-01	 1.047619e+00	-1.698649e-01
 2.018281e-01	 1.051392e+00	-2.164548e-01
 1.831199e-01	 1.054811e+00	-2.568463e-01
 2.799944e-01	 1.045510e+00	 1.092178e-01
 2.609824e-01	 1.050417e+00	 2.649118e-02
 2.419805e-01	 1.054957e+00	-4.754918e-02
 2.229985e-01	 1.059132e+00	-1.135823e-01
 2.040460e-01	 1.062946e+00	-1.720810e-01
 1.851322e-01	 1.066402e+00	-2.232902e-01
 2.830378e-01	 1.056874e+00	 2.102296e-01
 2.638192e-01	 1.061835e+00	 1.153799e-01
 2.446108e-01	 1.066423e+00	 2.962106e-02
 2.254224e-01	 1.070644e+00	-4.764995e-02
 2.062638e-01	 1.074499e+00	-1.168152e-01
 1.871445e-01	 1.077994e+00	-1.780132e-01
 2.860812e-01	 1.068238e+00	 3.161602e-01
 2.666560e-01	 1.073252e+00	 2.113719e-01
 2.472410e-01	 1.077890e+00	 1.158382e-01
 2.278463e-01	 1.082156e+00	 2.896455e-02
 2.084817e-01	 1.086053e+00	-4.961010e-02
 1.891568e-01	 1.089585e+00	-1.199889e-01
 2.891246e-01	 1.079603e+00	 4.277042e-01
 2.694927e-01	 1.084670e+00	 3.152934e-01
 2.498712e-01	 1.089357e+00	 2.120208e-01
 2.302702e-01	 1.093668e+00	 1.172342e-01
 2.106996e-01	 1.097607e+00	 3.052536e-02
 1.911691e-01	 1.101176e+00	-4.824336e-02
 1.811076e-01	 1.043220e+00	-2.797626e-01
 1.626518e-01	 1.046256e+00	-3.034164e-01
 1.442515e-01	 1.048951e+00	-3.222122e-01
 1.259151e-01	 1.051310e+00	-3.373001e-01
 1.076508e-01	 1.053337e+00	-3.495777e-01
 8.946642e-02	 1.055037e+00	-3.596864e-01
 1.831199e-01	 1.054811e+00	-2.568463e-01
 1.644590e-01	 1.057881e+00	-2.905966e-01
 1.458543e-01	 1.060606e+00	-3.180951e-01
 1.273142e-01	 1.062991e+00	-3.406470e-01
 1.088469e-01	 1.065041e+00	-3.592859e-01
 9.046050e-02	 1.066760e+00	-3.747684e-01
 1.851322e-01	 1.066402e+00	-2.232902e-01
 1.662663e-01	 1.069506e+00	-2.667403e-01
 1.474571e-01	 1.072261e+00	-3.029458e-01
 1.287132e-01	 1.074672e+00	-3.332338e-01
 1.100430e-01	 1.076744e+00	-3.586402e-01
 9.145457e-02	 1.078482e+00	-3.799038e-01
 1.871445e-01	 1.077994e+00	-1.780132e-01
 1.680735e-01	 1.081131e+00	-2.307988e-01
 1.490599e-01	 1.083916e+00	-2.757295e-01
 1.301123e-01	 1.086354e+00	-3.140260e-01
 1.112392e-01	 1.088448e+00	-3.465978e-01
 9.244864e-02	 1.090205e+00	-3.740375e-01
 1.891568e-01	 1.089585e+00	-1.199889e-01
 1.698807e-01	 1.092756e+00	-1.817741e-01
 1.506627e-01	 1.095571e+00	-2.354587e-01
 1.315114e-01	 1.098035e+00	-2.820339e-01
 1.124353e-01	 1.100152e+00	-3.221591e-01
 9.344271e-02	 1.101928e+00	-3.561566e-01
 1.911691e-01	 1.101176e+00	-4.824336e-02
 1.716880e-01	 1.104381e+00	-1.187161e-01
 1.522655e-01	 1.107226e+00	-1.811910e-01
 1.329104e-01	 1.109716e+00	-2.363108e-01
 1.136314e-01	 1.111856e+00	-2.843656e-01
 9.443678e-02	 1.113650e+00	-3.252889e-01
 8.946642e-02	 1.055037e+00	-3.596864e-01
 7.136958e-02	 1.056415e+00	-3.675753e-01
 5.336760e-02	 1.057478e+00	-3.732794e-01
 3.546754e-02	 1.058229e+00	-3.771848e-01
 1.767618e-02	 1.058676e+00	-3.794334e-01
 0.000000e+00	 1.058824e+00	-3.799383e-01
 9.046050e-02	 1.066760e+00	-3.747684e-01
 7.216257e-02	 1.068153e+00	-3.870953e-01
 5.396057e-02	 1.069227e+00	-3.962635e-01
 3.586163e-02	 1.069987e+00	-4.026110e-01
 1.787258e-02	 1.070439e+00	-4.062121e-01
 0.000000e+00	 1.070588e+00	-4.068947e-01
 9.145457e-02	 1.078482e+00	-3.799038e-01
 7.295557e-02	 1.079891e+00	-3.969737e-01
 5.455355e-02	 1.080977e+00	-4.098242e-01
 3.625571e-02	 1.081746e+00	-4.187865e-01
 1.806899e-02	 1.082202e+00	-4.239069e-01
 0.000000e+00	 1.082353e+00	-4.249646e-01
 9.244864e-02	 1.090205e+00	-3.740375e-01
 7.374856e-02	 1.091629e+00	-3.961473e-01
 5.514652e-02	 1.092727e+00	-4.128972e-01
 3.664980e-02	 1.093504e+00	-4.246524e-01
 1.826539e-02	 1.093965e+00	-4.314696e-01
 0.000000e+00	 1.094118e+00	-4.331145e-01
 9.344271e-02	 1.101928e+00	-3.561566e-01
 7.454156e-02	 1.103367e+00	-3.835942e-01
 5.573949e-02	 1.104477e+00	-4.044591e-01
 3.704388e-02	 1.105262e+00	-4.191907e-01
 1.846179e-02	 1.105728e+00	-4.278927e-01
 0.000000e+00	 1.105882e+00	-4.303522e-01
 9.443678e-02	 1.113650e+00	-3.252889e-01
 7.533455e-02	 1.115105e+00	-3.583323e-01
 5.633247e-02	 1.116227e+00	-3.835260e-01
 3.743796e-02	 1.117020e+00	-4.014220e-01
 1.865819e-02	 1.117491e+00	-4.122076e-01
 0.000000e+00	 1.117647e+00	-4.157246e-01
 1.117647e+00	 0.000000e+00	 2.373983e+01
 1.117491e+00	 1.865819e-02	 2.372920e+01
 1.117020e+00	 3.743796e-02	 2.369759e+01
 1.116227e+00	 5.633247e-02	 2.364468e+01
 1.115105e+00	 7.533455e-02	 2.357002e+01
 1.113650e+00	 9.443678e-02	 2.347305e+01
 1.129412e+00	 0.000000e+00	 2.325932e+01
 1.129254e+00	 1.885459e-02	 2.324894e+01
 1.128778e+00	 3.783205e-02	 2.321913e+01
 1.127976e+00	 5.692544e-02	 2.316951e+01
 1.126843e+00	 7.612755e-02	 2.309955e+01
 1.125373e+00	 9.543085e-02	 2.300864e+01
 1.141176e+00	 0.000000e+00	 2.280304e+01
 1.141017e+00	 1.905100e-02	 2.279294e+01
 1.140536e+00	 3.822613e-02	 2.276496e+01
 1.139726e+00	 5.751841e-02	 2.271861e+01
 1.138581e+00	 7.692054e-02	 2.265331e+01
 1.137095e+00	 9.642492e-02	 2.256834e+01
 1.152941e+00	 0.000000e+00	 2.236880e+01
 1.152781e+00	 1.924740e-02	 2.235904e+01
 1.152294e+00	 3.862022e-02	 2.233289e+01
 1.151476e+00	 5.811139e-02	 2.228981e+01
 1.150319e+00	 7.771354e-02	 2.222911e+01
 1.148818e+00	 9.741900e-02	 2.215000e+01
 1.164706e+00	 0.000000e+00	 2.195456e+01
 1.164544e+00	 1.944380e-02	 2.194515e+01
 1.164052e+00	 3.901430e-02	 2.192085e+01
 1.163226e+00	 5.870436e-02	 2.188103e+01
 1.162057e+00	 7.850653e-02	 2.182488e+01
 1.160541e+00	 9.841307e-02	 2.175155e+01
 1.176471e+00	 0.000000e+00	 2.155832e+01
 1.176307e+00	 1.964020e-02	 2.154928e+01
 1.175810e+00	 3.940838e-02	 2.152685e+01
 1.174975e+00	 5.929733e-02	 2.149026e+01
 1.173795e+00	 7.929953e-02	 2.143864e+01
 1.172263e+00	 9.940714e-02	 2.137101e+01
 1.113650e+00	 9.443678e-02	 2.347305e+01
 1.111856e+00	 1.136314e-01	 2.335396e+01
 1.109716e+00	 1.329104e-01	 2.321315e+01
 1.107226e+00	 1.522655e-01	 2.305030e+01
 1.104381e+00	 1.716880e-01	 2.286497e+01
 1.101176e+00	 1.911691e-01	 2.265666e+01
 1.125373e+00	 9.543085e-02	 2.300864e+01
 1.123559e+00	 1.148275e-01	 2.289683e+01
 1.121397e+00	 1.343095e-01	 2.276455e+01
 1.118881e+00	 1.538683e-01	 2.261153e+01
 1.116006e+00	 1.734952e-01	 2.243742e+01
 1.112768e+00	 1.931814e-01	 2.224181e+01
 1.137095e+00	 9.642492e-02	 2.256834e+01
 1.135263e+00	 1.160237e-01	 2.246367e+01
 1.133079e+00	 1.357085e-01	 2.233967e+01
 1.130536e+00	 1.554711e-01	 2.219612e+01
 1.127631e+00	 1.753025e-01	 2.203275e+01
 1.124359e+00	 1.951937e-01	 2.184920e+01
 1.148818e+00	 9.741900e-02	 2.215000e+01
 1.146967e+00	 1.172198e-01	 2.205233e+01
 1.144760e+00	 1.371076e-01	 2.193644e+01
 1.142191e+00	 1.570739e-01	 2.180211e+01
 1.139257e+00	 1.771097e-01	 2.164911e+01
 1.135950e+00	 1.972060e-01	 2.147713e+01
 1.160541e+00	 9.841307e-02	 2.175155e+01
 1.158671e+00	 1.184159e-01	 2.166079e+01
 1.156441e+00	 1.385066e-01	 2.155288e+01
 1.153846e+00	 1.586766e-01	 2.142760e+01
 1.150882e+00	 1.789169e-01	 2.128473e+01
 1.147542e+00	 1.992183e-01	 2.112399e+01
 1.172263e+00	 9.940714e-02	 2.137101e+01
 1.170374e+00	 1.196120e-01	 2.128708e+01
 1.168122e+00	 1.399057e-01	 2.118708e+01
 1.165501e+00	 1.602794e-01	 2.107077e+01
 1.162507e+00	 1.807242e-01	 2.093789e+01
 1.159133e+00	 2.012306e-01	 2.078820e+01
 1.101176e+00	 1.911691e-01	 2.265666e+01
 1.097607e+00	 2.106996e-01	 2.242667e+01
 1.093668e+00	 2.302702e-01	 2.217647e+01
 1.089357e+00	 2.498712e-01	 2.190567e+01
 1.084670e+00	 2.694927e-01	 2.161378e+01
 1.079603e+00	 2.891246e-01	 2.130022e+01
 1.112768e+00	 1.931814e-01	 2.224181e+01
 1.109161e+00	 2.129175e-01	 2.202595e+01
 1.105181e+00	 2.326941e-01	 2.179117e+01
 1.100824e+00	 2.525014e-01	 2.153706e+01
 1.096087e+00	 2.723295e-01	 2.126313e+01
 1.090967e+00	 2.921680e-01	 2.096876e+01
 1.124359e+00	 1.951937e-01	 2.184920e+01
 1.120714e+00	 2.151354e-01	 2.164662e+01
 1.116693e+00	 2.351180e-01	 2.142619e+01
 1.112291e+00	 2.551317e-01	 2.118752e+01
 1.107505e+00	 2.751662e-01	 2.093015e+01
 1.102331e+00	 2.952114e-01	 2.065348e+01
 1.135950e+00	 1.972060e-01	 2.147713e+01
 1.132268e+00	 2.173533e-01	 2.128714e+01
 1.128205e+00	 2.375419e-01	 2.108014e+01
 1.123758e+00	 2.577619e-01	 2.085579e+01
 1.118923e+00	 2.780030e-01	 2.061366e+01
 1.113695e+00	 2.982549e-01	 2.035322e+01
 1.147542e+00	 1.992183e-01	 2.112399e+01
 1.143822e+00	 2.195712e-01	 2.094606e+01
 1.139718e+00	 2.399658e-01	 2.075168e+01
 1.135225e+00	 2.603921e-01	 2.054061e+01
 1.130340e+00	 2.808398e-01	 2.031249e+01
 1.125060e+00	 3.012983e-01	 2.006689e+01
 1.159133e+00	 2.012306e-01	 2.078820e+01
 1.155376e+00	 2.217891e-01	 2.062195e+01
 1.151230e+00	 2.423897e-01	 2.043952e+01
 1.146692e+00	 2.630223e-01	 2.024079e+01
 1.141758e+00	 2.836765e-01	 2.002552e+01
 1.136424e+00	 3.043417e-01	 1.979338e+01
 1.079603e+00	 2.891246e-01	 2.130022e+01
 1.074153e+00	 3.087566e-01	 2.096752e+01
 1.068318e+00	 3.283780e-01	 2.061762e+01
 1.062095e+00	 3.479783e-01	 2.024883e+01
 1.055483e+00	 3.675465e-01	 1.985926e+01
 1.048480e+00	 3.870715e-01	 1.944678e+01
 1.090967e+00	 2.921680e-01	 2.096876e+01
 1.085460e+00	 3.120066e-01	 2.065627e+01
 1.079563e+00	 3.318347e-01	 2.032742e+01
 1.073275e+00	 3.516413e-01	 1.998061e+01
 1.066593e+00	 3.714154e-01	 1.961403e+01
 1.059517e+00	 3.911459e-01	 1.922564e+01
 1.102331e+00	 2.952114e-01	 2.065348e+01
 1.096767e+00	 3.152567e-01	 2.035964e+01
 1.090809e+00	 3.352913e-01	 2.005033e+01
 1.084455e+00	 3.553042e-01	 1.972409e+01
 1.077704e+00	 3.752843e-01	 1.937926e+01
 1.070553e+00	 3.952204e-01	 1.901394e+01
 1.113695e+00	 2.982549e-01	 2.035322e+01
 1.108073e+00	 3.185068e-01	 2.007651e+01
 1.102054e+00	 3.387479e-01	 1.978524e+01
 1.095635e+00	 3.589671e-01	 1.947814e+01
 1.088814e+00	 3.791532e-01	 1.915376e+01
 1.081590e+00	 3.992948e-01	 1.881042e+01
 1.125060e+00	 3.012983e-01	 2.006689e+01
 1.119380e+00	 3.217568e-01	 1.980580e+01
 1.113300e+00	 3.422045e-01	 1.953104e+01
 1.106815e+00	 3.626300e-01	 1.924163e+01
 1.099924e+00	 3.830221e-01	 1.893636e+01
 1.092627e+00	 4.033692e-01	 1.861383e+01
 1.136424e+00	 3.043417e-01	 1.979338e+01
 1.130687e+00	 3.250069e-01	 1.954642e+01
 1.124545e+00	 3.456611e-01	 1.928666e+01
 1.117995e+00	 3.662930e-01	 1.901345e+01
 1.111035e+00	 3.868910e-01	 1.872589e+01
 1.103663e+00	 4.074437e-01	 1.842291e+01
 1.048480e+00	 3.870715e-01	 1.944678e+01
 1.041085e+00	 4.065421e-01	 1.901964e+01
 1.033298e+00	 4.259471e-01	 1.858550e+01
 1.025117e+00	 4.452749e-01	 1.814082e+01
 1.016544e+00	 4.645141e-01	 1.768168e+01
 1.007579e+00	 4.836530e-01	 1.720371e+01
 1.059517e+00	 3.911459e-01	 1.922564e+01
 1.052044e+00	 4.108215e-01	 1.882322e+01
 1.044174e+00	 4.304307e-01	 1.841367e+01
 1.035908e+00	 4.499620e-01	 1.799305e+01
 1.027244e+00	 4.694037e-01	 1.755694e+01
 1.018185e+00	 4.887441e-01	 1.710038e+01
 1.070553e+00	 3.952204e-01	 1.901394e+01
 1.063003e+00	 4.151009e-01	 1.863527e+01
 1.055051e+00	 4.349144e-01	 1.824914e+01
 1.046699e+00	 4.546491e-01	 1.785114e+01
 1.037945e+00	 4.742933e-01	 1.743634e+01
 1.028791e+00	 4.938352e-01	 1.699919e+01
 1.081590e+00	 3.992948e-01	 1.881042e+01
 1.073962e+00	 4.193803e-01	 1.845447e+01
 1.065928e+00	 4.393980e-01	 1.809056e+01
 1.057489e+00	 4.593362e-01	 1.771383e+01
 1.048645e+00	 4.791829e-01	 1.731877e+01
 1.039397e+00	 4.989262e-01	 1.689923e+01
 1.092627e+00	 4.033692e-01	 1.861383e+01
 1.084920e+00	 4.236597e-01	 1.827950e+01
 1.076805e+00	 4.438817e-01	 1.793663e+01
 1.068280e+00	 4.640233e-01	 1.757986e+01
 1.059346e+00	 4.840725e-01	 1.720309e+01
 1.050003e+00	 5.040173e-01	 1.679955e+01
 1.103663e+00	 4.074437e-01	 1.842291e+01
 1.095879e+00	 4.279391e-01	 1.810903e+01
 1.087682e+00	 4.483653e-01	 1.778602e+01
 1.079071e+00	 4.687104e-01	 1.744795e+01
 1.070046e+00	 4.889622e-01	 1.708815e+01
 1.060609e+00	 5.091084e-01	 1.669917e+01
 1.007579e+00	 4.836530e-01	 1.720371e+01
 9.982223e-01	 5.026801e-01	 1.671374e+01
 9.884764e-01	 5.215836e-01	 1.621968e+01
 9.783428e-01	 5.403519e-01	 1.571835e+01
 9.678242e-01	 5.589734e-01	 1.520652e+01
 9.569232e-01	 5.774365e-01	 1.468091e+01
 1.018185e+00	 4.887441e-01	 1.710038e+01
 1.008730e+00	 5.079714e-01	 1.663167e+01
 9.988814e-01	 5.270740e-01	 1.616083e+01
 9.886412e-01	 5.460399e-01	 1.568521e+01
 9.780118e-01	 5.648574e-01	 1.520217e+01
 9.669961e-01	 5.835147e-01	 1.470909e+01
 1.028791e+00	 4.938352e-01	 1.699919e+01
 1.019237e+00	 5.132628e-01	 1.654998e+01
 1.009286e+00	 5.325643e-01	 1.610150e+01
 9.989395e-01	 5.517278e-01	 1.565167e+01
 9.881994e-01	 5.707413e-01	 1.519851e+01
 9.770690e-01	 5.895930e-01	 1.473988e+01
 1.039397e+00	 4.989262e-01	 1.689923e+01
 1.029745e+00	 5.185542e-01	 1.646798e+01
 1.019691e+00	 5.380547e-01	 1.604117e+01
 1.009238e+00	 5.574157e-01	 1.561735e+01
 9.983871e-01	 5.766252e-01	 1.519527e+01
 9.871419e-01	 5.956713e-01	 1.476590e+01
 1.050003e+00	 5.040173e-01	 1.679955e+01
 1.040253e+00	 5.238455e-01	 1.638495e+01
 1.030096e+00	 5.435450e-01	 1.597929e+01
 1.019536e+00	 5.631036e-01	 1.558183e+01
 1.008575e+00	 5.825091e-01	 1.519210e+01
 9.972147e-01	 6.017496e-01	 1.478307e+01
 1.060609e+00	 5.091084e-01	 1.669917e+01
 1.050760e+00	 5.291369e-01	 1.630010e+01
 1.040501e+00	 5.490354e-01	 1.591522e+01
 1.029835e+00	 5.687915e-01	 1.554459e+01
 1.018762e+00	 5.883931e-01	 1.518857e+01
 1.007288e+00	 6.078278e-01	 1.479034e+01
 9.569232e-01	 5.774365e-01	 1.468091e+01
 9.456434e-01	 5.957295e-01	 1.417021e+01
 9.339883e-01	 6.138410e-01	 1.365185e+01
 9.219624e-01	 6.317597e-01	 1.312062e+01
 9.095703e-01	 6.494743e-01	 1.258815e+01
 8.968171e-01	 6.669737e-01	 1.206734e+01
 9.669961e-01	 5.835147e-01	 1.470909e+01
 9.555975e-01	 6.020003e-01	 1.421867e+01
 9.438198e-01	 6.203025e-01	 1.371239e+01
 9.316673e-01	 6.384098e-01	 1.319702e+01
 9.191447e-01	 6.563109e-01	 1.268367e+01
 9.062573e-01	 6.739945e-01	 1.218469e+01
 9.770690e-01	 5.895930e-01	 1.473988e+01
 9.655516e-01	 6.082711e-01	 1.426098e+01
 9.536512e-01	 6.267640e-01	 1.376723e+01
 9.413721e-01	 6.450599e-01	 1.326787e+01
 9.287191e-01	 6.631474e-01	 1.277338e+01
 9.156975e-01	 6.810153e-01	 1.229545e+01
 9.871419e-01	 5.956713e-01	 1.476590e+01
 9.755058e-01	 6.145420e-01	 1.429614e+01
 9.634827e-01	 6.332255e-01	 1.381537e+01
 9.510770e-01	 6.517100e-01	 1.333214e+01
 9.382935e-01	 6.699840e-01	 1.285620e+01
 9.251377e-01	 6.880361e-01	 1.239845e+01
 9.972147e-01	 6.017496e-01	 1.478307e+01
 9.854599e-01	 6.208128e-01	 1.432314e+01
 9.733141e-01	 6.396869e-01	 1.385580e+01
 9.607819e-01	 6.583601e-01	 1.338881e+01
 9.478680e-01	 6.768206e-01	 1.293105e+01
 9.345779e-01	 6.950568e-01	 1.249253e+01
 1.007288e+00	 6.078278e-01	 1.479034e+01
 9.954141e-01	 6.270836e-01	 1.434096e+01
 9.831456e-01	 6.461484e-01	 1.388750e+01
 9.704867e-01	 6.650102e-01	 1.343681e+01
 9.574424e-01	 6.836572e-01	 1.299683e+01
 9.440180e-01	 7.020776e-01	 1.257653e+01
 8.968171e-01	 6.669737e-01	 1.206734e+01
 8.837086e-01	 6.842471e-01	 1.155200e+01
 8.702506e-01	 7.012837e-01	 1.103172e+01
 8.564497e-01	 7.180730e-01	 1.051423e+01
 8.423128e-01	 7.346048e-01	 1.000754e+01
 8.278471e-01	 7.508689e-01	 9.519818e+00
 9.062573e-01	 6.739945e-01	 1.218469e+01
 8.930108e-01	 6.914497e-01	 1.169082e+01
 8.794111e-01	 7.086656e-01	 1.118914e+01
 8.654650e-01	 7.256317e-01	 1.068770e+01
 8.511792e-01	 7.423374e-01	 1.019486e+01
 8.365612e-01	 7.587728e-01	 9.719208e+00
 9.156975e-01	 6.810153e-01	 1.229545e+01
 9.023130e-01	 6.986523e-01	 1.182194e+01
 8.885717e-01	 7.160476e-01	 1.133778e+01
 8.744802e-01	 7.331903e-01	 1.085142e+01
 8.600457e-01	 7.500701e-01	 1.037167e+01
 8.452754e-01	 7.666767e-01	 9.907584e+00
 9.251377e-01	 6.880361e-01	 1.239845e+01
 9.116152e-01	 7.058549e-01	 1.194413e+01
 8.977322e-01	 7.234295e-01	 1.147639e+01
 8.834955e-01	 7.407490e-01	 1.100414e+01
 8.689121e-01	 7.578028e-01	 1.053673e+01
 8.539896e-01	 7.745806e-01	 1.008379e+01
 9.345779e-01	 6.950568e-01	 1.249253e+01
 9.209173e-01	 7.130575e-01	 1.205616e+01
 9.068927e-01	 7.308114e-01	 1.160370e+01
 8.925108e-01	 7.483077e-01	 1.114461e+01
 8.777786e-01	 7.655355e-01	 1.068882e+01
 8.627038e-01	 7.824845e-01	 1.024665e+01
 9.440180e-01	 7.020776e-01	 1.257653e+01
 9.302195e-01	 7.202601e-01	 1.215681e+01
 9.160533e-01	 7.381934e-01	 1.171847e+01
 9.015260e-01	 7.558663e-01	 1.127157e+01
 8.866450e-01	 7.732682e-01	 1.082673e+01
 8.714180e-01	 7.903884e-01	 1.039502e+01
 8.278471e-01	 7.508689e-01	 9.519818e+00
 8.130603e-01	 7.668559e-01	 9.038311e+00
 7.979605e-01	 7.825561e-01	 8.551986e+00
 7.825561e-01	 7.979605e-01	 8.071665e+00
 7.668559e-01	 8.130603e-01	 7.608077e+00
 7.508689e-01	 8.278471e-01	 7.171746e+00
 8.365612e-01	 7.587728e-01	 9.719208e+00
 8.216188e-01	 7.749280e-01	 9.248421e+00
 8.063601e-01	 7.907935e-01	 8.771685e+00
 7.907935e-01	 8.063601e-01	 8.299922e+00
 7.749280e-01	 8.216188e-01	 7.843957e+00
 7.587728e-01	 8.365612e-01	 7.414404e+00
 8.452754e-01	 7.666767e-01	 9.907584e+00
 8.301773e-01	 7.830002e-01	 9.447272e+00
 8.147596e-01	 7.990309e-01	 8.980001e+00
 7.990309e-01	 8.147596e-01	 8.516737e+00
 7.830002e-01	 8.301773e-01	 8.068345e+00
 7.666767e-01	 8.452754e-01	 7.645470e+00
 8.539896e-01	 7.745806e-01	 1.008379e+01
 8.387359e-01	 7.910724e-01	 9.633764e+00
 8.231592e-01	 8.072684e-01	 9.175856e+00
 8.072684e-01	 8.231592e-01	 8.721024e+00
 7.910724e-01	 8.387359e-01	 8.280120e+00
 7.745806e-01	 8.539896e-01	 7.863759e+00
 8.627038e-01	 7.824845e-01	 1.024665e+01
 8.472944e-01	 7.991445e-01	 9.806788e+00
 8.315588e-01	 8.155058e-01	 9.358162e+00
 8.155058e-01	 8.315588e-01	 8.911688e+00
 7.991445e-01	 8.472944e-01	 8.478148e+00
 7.824845e-01	 8.627038e-01	 8.068077e+00
 8.714180e-01	 7.903884e-01	 1.039502e+01
 8.558529e-01	 8.072167e-01	 9.965231e+00
 8.399584e-01	 8.237432e-01	 9.525830e+00
 8.237432e-01	 8.399584e-01	 9.087627e+00
 8.072167e-01	 8.558529e-01	 8.661292e+00
 7.903884e-01	 8.714180e-01	 8.257223e+00
 7.508689e-01	 8.278471e-01	 7.171746e+00
 7.346048e-01	 8.423128e-01	 6.749456e+00
 7.180730e-01	 8.564497e-01	 6.327069e+00
 7.012837e-01	 8.702506e-01	 5.913061e+00
 6.842471e-01	 8.837086e-01	 5.515230e+00
 6.669737e-01	 8.968171e-01	 5.140623e+00
 7.587728e-01	 8.365612e-01	 7.414404e+00
 7.423374e-01	 8.511792e-01	 6.997649e+00
 7.256317e-01	 8.654650e-01	 6.579284e+00
 7.086656e-01	 8.794111e-01	 6.168042e+00
 6.914497e-01	 8.930108e-01	 5.771953e+00
 6.739945e-01	 9.062573e-01	 5.398266e+00
 7.666767e-01	 8.452754e-01	 7.645470e+00
 7.500701e-01	 8.600457e-01	 7.234080e+00
 7.331903e-01	 8.744802e-01	 6.819554e+00
 7.160476e-01	 8.885717e-01	 6.410938e+00
 6.986523e-01	 9.023130e-01	 6.016553e+00
 6.810153e-01	 9.156975e-01	 5.643913e+00
 7.745806e-01	 8.539896e-01	 7.863759e+00
 7.578028e-01	 8.689121e-01	 7.457507e+00
 7.407490e-01	 8.834955e-01	 7.046618e+00
 7.234295e-01	 8.977322e-01	 6.640503e+00
 7.058549e-01	 9.116152e-01	 6.247837e+00
 6.880361e-01	 9.251377e-01	 5.876458e+00
 7.824845e-01	 8.627038e-01	 8.068077e+00
 7.655355e-01	 8.777786e-01	 7.666680e+00
 7.483077e-01	 8.925108e-01	 7.259204e+00
 7.308114e-01	 9.068927e-01	 6.855481e+00
 7.130575e-01	 9.209173e-01	 6.464593e+00
 6.950568e-01	 9.345779e-01	 6.094769e+00
 7.903884e-01	 8.714180e-01	 8.257223e+00
 7.732682e-01	 8.866450e-01	 7.860343e+00
 7.558663e-01	 9.015260e-01	 7.456034e+00
 7.381934e-01	 9.160533e-01	 7.054602e+00
 7.202601e-01	 9.302195e-01	 6.665598e+00
 7.020776e-01	 9.440180e-01	 6.297698e+00
 6.669737e-01	 8.968171e-01	 5.140623e+00
 6.494743e-01	 9.095703e-01	 4.784290e+00
 6.317597e-01	 9.219624e-01	 4.438491e+00
 6.138410e-01	 9.339883e-01	 4.104565e+00
 5.957295e-01	 9.456434e-01	 3.782637e+00
 5.774365e-01	 9.569232e-01	 3.470115e+00
 6.739945e-01	 9.062573e-01	 5.398266e+00
 6.563109e-01	 9.191447e-01	 5.041154e+00
 6.384098e-01	 9.316673e-01	 4.692245e+00
 6.203025e-01	 9.438198e-01	 4.353418e+00
 6.020003e-01	 9.555975e-01	 4.025324e+00
 5.835147e-01	 9.669961e-01	 3.707096e+00
 6.810153e-01	 9.156975e-01	 5.643913e+00
 6.631474e-01	 9.287191e-01	 5.286470e+00
 6.450599e-01	 9.413721e-01	 4.935246e+00
 6.267640e-01	 9.536512e-01	 4.592522e+00
 6.082711e-01	 9.655516e-01	 4.259328e+00
 5.895930e-01	 9.770690e-01	 3.935435e+00
 6.880361e-01	 9.251377e-01	 5.876458e+00
 6.699840e-01	 9.382935e-01	 5.519197e+00
 6.517100e-01	 9.510770e-01	 5.166445e+00
 6.332255e-01	 9.634827e-01	 4.820753e+00
 6.145420e-01	 9.755058e-01	 4.483388e+00
 5.956713e-01	 9.871419e-01	 4.154319e+00
 6.950568e-01	 9.345779e-01	 6.094769e+00
 6.768206e-01	 9.478680e-01	 5.738264e+00
 6.583601e-01	 9.607819e-01	 5.384763e+00
 6.396869e-01	 9.733141e-01	 5.036961e+00
 6.208128e-01	 9.854599e-01	 4.696222e+00
 6.017496e-01	 9.972147e-01	 4.362565e+00
 7.020776e-01	 9.440180e-01	 6.297698e+00
 6.836572e-01	 9.574424e-01	 5.942578e+00
 6.650102e-01	 9.704867e-01	 5.589097e+00
 6.461484e-01	 9.831456e-01	 5.239969e+00
 6.270836e-01	 9.954141e-01	 4.896526e+00
 6.078278e-01	 1.007288e+00	 4.558692e+00
 5.774365e-01	 9.569232e-01	 3.470115e+00
 5.589734e-01	 9.678242e-01	 3.170840e+00
 5.403519e-01	 9.783428e-01	 2.893665e+00
 5.215836e-01	 9.884764e-01	 2.634931e+00
 5.026801e-01	 9.982223e-01	 2.390394e+00
 4.836530e-01	 1.007579e+00	 2.155280e+00
 5.835147e-01	 9.669961e-01	 3.707096e+00
 5.648574e-01	 9.780118e-01	 3.403640e+00
 5.460399e-01	 9.886412e-01	 3.122000e+00
 5.270740e-01	 9.988814e-01	 2.857846e+00
 5.079714e-01	 1.008730e+00	 2.606205e+00
 4.887441e-01	 1.018185e+00	 2.361522e+00
 5.895930e-01	 9.770690e-01	 3.935435e+00
 5.707413e-01	 9.881994e-01	 3.628350e+00
 5.517278e-01	 9.989395e-01	 3.342334e+00
 5.325643e-01	 1.009286e+00	 3.072652e+00
 5.132628e-01	 1.019237e+00	 2.813904e+00
 4.938352e-01	 1.028791e+00	 2.560069e+00
 5.956713e-01	 9.871419e-01	 4.154319e+00
 5.766252e-01	 9.983871e-01	 3.843381e+00
 5.574157e-01	 1.009238e+00	 3.553096e+00
 5.380547e-01	 1.019691e+00	 3.277932e+00
 5.185542e-01	 1.029745e+00	 3.012355e+00
 4.989262e-01	 1.039397e+00	 2.750177e+00
 6.017496e-01	 9.972147e-01	 4.362565e+00
 5.825091e-01	 1.008575e+00	 4.047128e+00
 5.631036e-01	 1.019536e+00	 3.752704e+00
 5.435450e-01	 1.030096e+00	 3.472254e+00
 5.238455e-01	 1.040253e+00	 3.200392e+00
 5.040173e-01	 1.050003e+00	 2.931063e+00
 6.078278e-01	 1.007288e+00	 4.558692e+00
 5.883931e-01	 1.018762e+00	 4.237971e+00
 5.687915e-01	 1.029835e+00	 3.939558e+00
 5.490354e-01	 1.040501e+00	 3.654164e+00
 5.291369e-01	 1.050760e+00	 3.376827e+00
 5.091084e-01	 1.060609e+00	 3.101904e+00
 4.836530e-01	 1.007579e+00	 2.155280e+00
 4.645141e-01	 1.016544e+00	 1.928251e+00
 4.452749e-01	 1.025117e+00	 1.711951e+00
 4.259471e-01	 1.033298e+00	 1.507096e+00
 4.065421e-01	 1.041085e+00	 1.314267e+00
 3.870715e-01	 1.048480e+00	 1.133939e+00
 4.887441e-01	 1.018185e+00	 2.361522e+00
 4.694037e-01	 1.027244e+00	 2.123063e+00
 4.499620e-01	 1.035908e+00	 1.894944e+00
 4.304307e-01	 1.044174e+00	 1.678382e+00
 4.108215e-01	 1.052044e+00	 1.474472e+00
 3.911459e-01	 1.059517e+00	 1.284216e+00
 4.938352e-01	 1.028791e+00	 2.560069e+00
 4.742933e-01	 1.037945e+00	 2.311423e+00
 4.546491e-01	 1.046699e+00	 2.073434e+00
 4.349144e-01	 1.055051e+00	 1.847337e+00
 4.151009e-01	 1.063003e+00	 1.634243e+00
 3.952204e-01	 1.070553e+00	 1.435181e+00
 4.989262e-01	 1.039397e+00	 2.750177e+00
 4.791829e-01	 1.048645e+00	 2.492954e+00
 4.593362e-01	 1.057489e+00	 2.247263e+00
 4.393980e-01	 1.065928e+00	 2.013885e+00
 4.193803e-01	 1.073962e+00	 1.793471e+00
 3.992948e-01	 1.081590e+00	 1.586581e+00
 5.040173e-01	 1.050003e+00	 2.931063e+00
 4.840725e-01	 1.059346e+00	 2.667230e+00
 4.640233e-01	 1.068280e+00	 2.416216e+00
 4.438817e-01	 1.076805e+00	 2.177896e+00
 4.236597e-01	 1.084920e+00	 1.951994e+00
 4.033692e-01	 1.092627e+00	 1.738126e+00
 5.091084e-01	 1.060609e+00	 3.101904e+00
 4.889622e-01	 1.070046e+00	 2.833775e+00
 4.687104e-01	 1.079071e+00	 2.580026e+00
 4.483653e-01	 1.087682e+00	 2.339188e+00
 4.279391e-01	 1.095879e+00	 2.109603e+00
 4.074437e-01	 1.103663e+00	 1.889482e+00
 3.870715e-01	 1.048480e+00	 1.133939e+00
 3.675465e-01	 1.055483e+00	 9.679597e-01
 3.479783e-01	 1.062095e+00	 8.164699e-01
 3.283780e-01	 1.068318e+00	 6.773250e-01
 3.087566e-01	 1.074153e+00	 5.484128e-01
 2.891246e-01	 1.079603e+00	 4.277042e-01
 3.911459e-01	 1.059517e+00	 1.284216e+00
 3.714154e-01	 1.066593e+00	 1.109508e+00
 3.516413e-01	 1.073275e+00	 9.500128e-01
 3.318347e-01	 1.079563e+00	 8.033419e-01
 3.120066e-01	 1.085460e+00	 6.671470e-01
 2.921680e-01	 1.090967e+00	 5.391736e-01
 3.952204e-01	 1.070553e+00	 1.435181e+00
 3.752843e-01	 1.077704e+00	 1.251677e+00
 3.553042e-01	 1.084455e+00	 1.083079e+00
 3.352913e-01	 1.090809e+00	 9.271026e-01
 3.152567e-01	 1.096767e+00	 7.815143e-01
 2.952114e-01	 1.102331e+00	 6.441846e-01
 3.992948e-01	 1.081590e+00	 1.586581e+00
 3.791532e-01	 1.088814e+00	 1.394064e+00
 3.589671e-01	 1.095635e+00	 1.215188e+00
 3.387479e-01	 1.102054e+00	 1.048110e+00
 3.185068e-01	 1.108073e+00	 8.910482e-01
 2.982549e-01	 1.113695e+00	 7.423359e-01
 4.033692e-01	 1.092627e+00	 1.738126e+00
 3.830221e-01	 1.099924e+00	 1.536240e+00
 3.626300e-01	 1.106815e+00	 1.345841e+00
 3.422045e-01	 1.113300e+00	 1.165851e+00
 3.217568e-01	 1.119380e+00	 9.952674e-01
 3.012983e-01	 1.125060e+00	 8.332130e-01
 4.074437e-01	 1.103663e+00	 1.889482e+00
 3.868910e-01	 1.111035e+00	 1.677742e+00
 3.662930e-01	 1.117995e+00	 1.474512e+00
 3.456611e-01	 1.124545e+00	 1.279794e+00
 3.250069e-01	 1.130687e+00	 1.093676e+00
 3.043417e-01	 1.136424e+00	 9.163887e-01
 2.891246e-01	 1.079603e+00	 4.277042e-01
 2.694927e-01	 1.084670e+00	 3.152934e-01
 2.498712e-01	 1.089357e+00	 2.120208e-01
 2.302702e-01	 1.093668e+00	 1.172342e-01
 2.106996e-01	 1.097607e+00	 3.052536e-02
 1.911691e-01	 1.101176e+00	-4.824336e-02
 2.921680e-01	 1.090967e+00	 5.391736e-01
 2.723295e-01	 1.096087e+00	 4.194124e-01
 2.525014e-01	 1.100824e+00	 3.087125e-01
 2.326941e-01	 1.105181e+00	 2.063809e-01
 2.129175e-01	 1.109161e+00	 1.119797e-01
 1.931814e-01	 1.112768e+00	 2.535461e-02
 2.952114e-01	 1.102331e+00	 6.441846e-01
 2.751662e-01	 1.107505e+00	 5.152796e-01
 2.551317e-01	 1.112291e+00	 3.957660e-01
 2.351180e-01	 1.116693e+00	 2.850073e-01
 2.151354e-01	 1.120714e+00	 1.826353e-01
 1.951937e-01	 1.124359e+00	 8.858038e-02
 2.982549e-01	 1.113695e+00	 7.423359e-01
 2.780030e-01	 1.118923e+00	 6.025909e-01
 2.577619e-01	 1.123758e+00	 4.730088e-01
 2.375419e-01	 1.128205e+00	 3.531020e-01
 2.173533e-01	 1.132268e+00	 2.426673e-01
 1.972060e-01	 1.135950e+00	 1.418168e-01
 3.012983e-01	 1.125060e+00	 8.332130e-01
 2.808398e-01	 1.130340e+00	 6.810295e-01
 2.603921e-01	 1.135225e+00	 5.402542e-01
 2.399658e-01	 1.139718e+00	 4.106370e-01
 2.195712e-01	 1.143822e+00	 2.922304e-01
 1.992183e-01	 1.147542e+00	 1.854213e-01
 3.043417e-01	 1.136424e+00	 9.163887e-01
 2.836765e-01	 1.141758e+00	 7.502660e-01
 2.630223e-01	 1.146692e+00	 5.973017e-01
 2.423897e-01	 1.151230e+00	 4.575678e-01
 2.217891e-01	 1.155376e+00	 3.314593e-01
 2.012306e-01	 1.159133e+00	 2.197265e-01
 1.911691e-01	 1.101176e+00	-4.824336e-02
 1.716880e-01	 1.104381e+00	-1.187161e-01
 1.522655e-01	 1.107226e+00	-1.811910e-01
 1.329104e-01	 1.109716e+00	-2.363108e-01
 1.136314e-01	 1.111856e+00	-2.843656e-01
 9.443678e-02	 1.113650e+00	-3.252889e-01
 1.931814e-01	 1.112768e+00	 2.535461e-02
 1.734952e-01	 1.116006e+00	-5.311754e-02
 1.538683e-01	 1.118881e+00	-1.235368e-01
 1.343095e-01	 1.121397e+00	-1.862692e-01
 1.148275e-01	 1.123559e+00	-2.413052e-01
 9.543085e-02	 1.125373e+00	-2.882566e-01
 1.951937e-01	 1.124359e+00	 8.858038e-02
 1.753025e-01	 1.127631e+00	 3.316320e-03
 1.554711e-01	 1.130536e+00	-7.322102e-02
 1.357085e-01	 1.133079e+00	-1.413740e-01
 1.160237e-01	 1.135263e+00	-2.010840e-01
 9.642492e-02	 1.137095e+00	-2.518878e-01
 1.972060e-01	 1.135950e+00	 1.418168e-01
 1.771097e-01	 1.139257e+00	 5.115803e-02
 1.570739e-01	 1.142191e+00	-2.953085e-02
 1.371076e-01	 1.144760e+00	-1.008146e-01
 1.172198e-01	 1.146967e+00	-1.628289e-01
 9.741900e-02	 1.148818e+00	-2.152751e-01
 1.992183e-01	 1.147542e+00	 1.854213e-01
 1.789169e-01	 1.150882e+00	 9.095013e-02
 1.586766e-01	 1.153846e+00	 8.213662e-03
 1.385066e-01	 1.156441e+00	-6.381467e-02
 1.184159e-01	 1.158671e+00	-1.257015e-01
 9.841307e-02	 1.160541e+00	-1.775454e-01
 2.012306e-01	 1.159133e+00	 2.197265e-01
 1.807242e-01	 1.162507e+00	 1.232064e-01
 1.602794e-01	 1.165501e+00	 4.066096e-02
 1.399057e-01	 1.168122e+00	-2.963079e-02
 1.196120e-01	 1.170374e+00	-8.889663e-02
 9.940714e-02	 1.172263e+00	-1.378589e-01
 9.443678e-02	 1.113650e+00	-3.252889e-01
 7.533455e-02	 1.115105e+00	-3.583323e-01
 5.633247e-02	 1.116227e+00	-3.835260e-01
 3.743796e-02	 1.117020e+00	-4.014220e-01
 1.865819e-02	 1.117491e+00	-4.122076e-01
 0.000000e+00	 1.117647e+00	-4.157246e-01
 9.543085e-02	 1.125373e+00	-2.882566e-01
 7.612755e-02	 1.126843e+00	-3.261283e-01
 5.692544e-02	 1.127976e+00	-3.550224e-01
 3.783205e-02	 1.128778e+00	-3.756090e-01
 1.885459e-02	 1.129254e+00	-3.881631e-01
 0.000000e+00	 1.129412e+00	-3.925836e-01
 9.642492e-02	 1.137095e+00	-2.518878e-01
 7.692054e-02	 1.138581e+00	-2.927517e-01
 5.751841e-02	 1.139726e+00	-3.238783e-01
 3.822613e-02	 1.140536e+00	-3.460289e-01
 1.905100e-02	 1.141017e+00	-3.595392e-01
 0.000000e+00	 1.141176e+00	-3.643385e-01
 9.741900e-02	 1.148818e+00	-2.152751e-01
 7.771354e-02	 1.150319e+00	-2.572799e-01
 5.811139e-02	 1.151476e+00	-2.891716e-01
 3.862022e-02	 1.152294e+00	-3.117769e-01
 1.924740e-02	 1.152781e+00	-3.254664e-01
 0.000000e+00	 1.152941e+00	-3.301735e-01
 9.841307e-02	 1.160541e+00	-1.775454e-01
 7.850653e-02	 1.162057e+00	-2.188244e-01
 5.870436e-02	 1.163226e+00	-2.500138e-01
 3.901430e-02	 1.164052e+00	-2.719814e-01
 1.944380e-02	 1.164544e+00	-2.851072e-01
 0.000000e+00	 1.164706e+00	-2.893034e-01
 9.940714e-02	 1.172263e+00	-1.378589e-01
 7.929953e-02	 1.173795e+00	-1.765294e-01
 5.929733e-02	 1.174975e+00	-2.055485e-01
 3.940838e-02	 1.175810e+00	-2.258015e-01
 1.964020e-02	 1.176307e+00	-2.376536e-01
 0.000000e+00	 1.176471e+00	-2.409716e-01
 1.176471e+00	 0.000000e+00	 2.155832e+01
 1.176307e+00	 1.964020e-02	 2.154928e+01
 1.175810e+00	 3.940838e-02	 2.152685e+01
 1.174975e+00	 5.929733e-02	 2.149026e+01
 1.173795e+00	 7.929953e-02	 2.143864e+01
 1.172263e+00	 9.940714e-02	 2.137101e+01
 1.188235e+00	 0.000000e+00	 2.117977e+01
 1.188070e+00	 1.983660e-02	 2.117084e+01
 1.187568e+00	 3.980247e-02	 2.114950e+01
 1.186725e+00	 5.989031e-02	 2.111490e+01
 1.185533e+00	 8.009253e-02	 2.106617e+01
 1.183986e+00	 1.004012e-01	 2.100241e+01
 1.200000e+00	 0.000000e+00	 2.081894e+01
 1.199833e+00	 2.003301e-02	 2.081012e+01
 1.199327e+00	 4.019655e-02	 2.078989e+01
 1.198475e+00	 6.048328e-02	 2.075728e+01
 1.197271e+00	 8.088552e-02	 2.071126e+01
 1.195709e+00	 1.013953e-01	 2.065083e+01
 1.211765e+00	 0.000000e+00	 2.047449e+01
 1.211596e+00	 2.022941e-02	 2.046577e+01
 1.211085e+00	 4.059063e-02	 2.044673e+01
 1.210225e+00	 6.107625e-02	 2.041622e+01
 1.209009e+00	 8.167852e-02	 2.037309e+01
 1.207431e+00	 1.023894e-01	 2.031620e+01
 1.223529e+00	 0.000000e+00	 2.014512e+01
 1.223359e+00	 2.042581e-02	 2.013650e+01
 1.222843e+00	 4.098472e-02	 2.011871e+01
 1.221974e+00	 6.166923e-02	 2.009042e+01
 1.220747e+00	 8.247151e-02	 2.005032e+01
 1.219154e+00	 1.033834e-01	 1.999715e+01
 1.235294e+00	 0.000000e+00	 1.982955e+01
 1.235122e+00	 2.062221e-02	 1.982105e+01
 1.234601e+00	 4.137880e-02	 1.980457e+01
 1.233724e+00	 6.226220e-02	 1.977860e+01
 1.232485e+00	 8.326451e-02	 1.974166e+01
 1.230876e+00	 1.043775e-01	 1.969236e+01
 1.172263e+00	 9.940714e-02	 2.137101e+01
 1.170374e+00	 1.196120e-01	 2.128708e+01
 1.168122e+00	 1.399057e-01	 2.118708e+01
 1.165501e+00	 1.602794e-01	 2.107077e+01
 1.162507e+00	 1.807242e-01	 2.093789e+01
 1.159133e+00	 2.012306e-01	 2.078820e+01
 1.183986e+00	 1.004012e-01	 2.100241e+01
 1.182078e+00	 1.208081e-01	 2.092356e+01
 1.179803e+00	 1.413048e-01	 2.083018e+01
 1.177156e+00	 1.618822e-01	 2.072239e+01
 1.174132e+00	 1.825314e-01	 2.059995e+01
 1.170724e+00	 2.032429e-01	 2.046191e+01
 1.195709e+00	 1.013953e-01	 2.065083e+01
 1.193782e+00	 1.220043e-01	 2.057593e+01
 1.191485e+00	 1.427038e-01	 2.048718e+01
 1.188811e+00	 1.634850e-01	 2.038473e+01
 1.185757e+00	 1.843387e-01	 2.026878e+01
 1.182316e+00	 2.052552e-01	 2.013970e+01
 1.207431e+00	 1.023894e-01	 2.031620e+01
 1.205486e+00	 1.232004e-01	 2.024551e+01
 1.203166e+00	 1.441029e-01	 2.016179e+01
 1.200466e+00	 1.650878e-01	 2.006518e+01
 1.197382e+00	 1.861459e-01	 1.995598e+01
 1.193907e+00	 2.072675e-01	 1.983463e+01
 1.219154e+00	 1.033834e-01	 1.999715e+01
 1.217189e+00	 1.243965e-01	 1.993091e+01
 1.214847e+00	 1.455019e-01	 1.985251e+01
 1.212121e+00	 1.666906e-01	 1.976214e+01
 1.209007e+00	 1.879532e-01	 1.966017e+01
 1.205498e+00	 2.092798e-01	 1.954716e+01
 1.230876e+00	 1.043775e-01	 1.969236e+01
 1.228893e+00	 1.255926e-01	 1.963076e+01
 1.226528e+00	 1.469010e-01	 1.955788e+01
 1.223776e+00	 1.682934e-01	 1.947401e+01
 1.220632e+00	 1.897604e-01	 1.937961e+01
 1.217090e+00	 2.112921e-01	 1.927535e+01
 1.159133e+00	 2.012306e-01	 2.078820e+01
 1.155376e+00	 2.217891e-01	 2.062195e+01
 1.151230e+00	 2.423897e-01	 2.043952e+01
 1.146692e+00	 2.630223e-01	 2.024079e+01
 1.141758e+00	 2.836765e-01	 2.002552e+01
 1.136424e+00	 3.043417e-01	 1.979338e+01
 1.170724e+00	 2.032429e-01	 2.046191e+01
 1.166929e+00	 2.240070e-01	 2.030792e+01
 1.162742e+00	 2.448136e-01	 2.013784e+01
 1.158159e+00	 2.656526e-01	 1.995165e+01
 1.153175e+00	 2.865133e-01	 1.974922e+01
 1.147788e+00	 3.073851e-01	 1.953030e+01
 1.182316e+00	 2.052552e-01	 2.013970e+01
 1.178483e+00	 2.262249e-01	 1.999710e+01
 1.174254e+00	 2.472375e-01	 1.984040e+01
 1.169626e+00	 2.682828e-01	 1.966802e+01
 1.164593e+00	 2.893501e-01	 1.947955e+01
 1.159152e+00	 3.104285e-01	 1.927481e+01
 1.193907e+00	 2.072675e-01	 1.983463e+01
 1.190037e+00	 2.284428e-01	 1.970010e+01
 1.185767e+00	 2.496614e-01	 1.955148e+01
 1.181093e+00	 2.709130e-01	 1.938946e+01
 1.176010e+00	 2.921868e-01	 1.921464e+01
 1.170517e+00	 3.134720e-01	 1.902516e+01
 1.205498e+00	 2.092798e-01	 1.954716e+01
 1.201591e+00	 2.306606e-01	 1.942144e+01
 1.197279e+00	 2.520853e-01	 1.928136e+01
 1.192560e+00	 2.735432e-01	 1.912761e+01
 1.187428e+00	 2.950236e-01	 1.896083e+01
 1.181881e+00	 3.165154e-01	 1.878158e+01
 1.217090e+00	 2.112921e-01	 1.927535e+01
 1.213144e+00	 2.328785e-01	 1.915900e+01
 1.208791e+00	 2.545092e-01	 1.902817e+01
 1.204026e+00	 2.761734e-01	 1.888349e+01
 1.198846e+00	 2.978604e-01	 1.872559e+01
 1.193245e+00	 3.195588e-01	 1.855506e+01
 1.136424e+00	 3.043417e-01	 1.979338e+01
 1.130687e+00	 3.250069e-01	 1.954642e+01
 1.124545e+00	 3.456611e-01	 1.928666e+01
 1.117995e+00	 3.662930e-01	 1.901345e+01
 1.111035e+00	 3.868910e-01	 1.872589e+01
 1.103663e+00	 4.074437e-01	 1.842291e+01
 1.147788e+00	 3.073851e-01	 1.953030e+01
 1.141994e+00	 3.282570e-01	 1.929705e+01
 1.135790e+00	 3.491177e-01	 1.905172e+01
 1.129175e+00	 3.699559e-01	 1.879398e+01
 1.122145e+00	 3.907600e-01	 1.852328e+01
 1.114700e+00	 4.115181e-01	 1.823885e+01
 1.159152e+00	 3.104285e-01	 1.927481e+01
 1.153301e+00	 3.315071e-01	 1.905601e+01
 1.147036e+00	 3.525743e-01	 1.882559e+01
 1.140355e+00	 3.736188e-01	 1.858350e+01
 1.133256e+00	 3.946289e-01	 1.832948e+01
 1.125737e+00	 4.155926e-01	 1.806303e+01
 1.170517e+00	 3.134720e-01	 1.902516e+01
 1.164608e+00	 3.347571e-01	 1.882170e+01
 1.158281e+00	 3.560309e-01	 1.860684e+01
 1.151535e+00	 3.772818e-01	 1.838075e+01
 1.144366e+00	 3.984978e-01	 1.814341e+01
 1.136773e+00	 4.196670e-01	 1.789456e+01
 1.181881e+00	 3.165154e-01	 1.878158e+01
 1.175915e+00	 3.380072e-01	 1.859258e+01
 1.169527e+00	 3.594875e-01	 1.839406e+01
 1.162715e+00	 3.809447e-01	 1.818447e+01
 1.155476e+00	 4.023667e-01	 1.796396e+01
 1.147810e+00	 4.237414e-01	 1.773248e+01
 1.193245e+00	 3.195588e-01	 1.855506e+01
 1.187222e+00	 3.412573e-01	 1.837448e+01
 1.180772e+00	 3.629442e-01	 1.818701e+01
 1.173895e+00	 3.846076e-01	 1.799340e+01
 1.166587e+00	 4.062356e-01	 1.779002e+01
 1.158846e+00	 4.278159e-01	 1.757584e+01
 1.103663e+00	 4.074437e-01	 1.842291e+01
 1.095879e+00	 4.279391e-01	 1.810903e+01
 1.087682e+00	 4.483653e-01	 1.778602e+01
 1.079071e+00	 4.687104e-01	 1.744795e+01
 1.070046e+00	 4.889622e-01	 1.708815e+01
 1.060609e+00	 5.091084e-01	 1.669917e+01
 1.114700e+00	 4.115181e-01	 1.823885e+01
 1.106838e+00	 4.322185e-01	 1.794423e+01
 1.098559e+00	 4.528490e-01	 1.763974e+01
 1.089861e+00	 4.733975e-01	 1.731898e+01
 1.080747e+00	 4.938518e-01	 1.697478e+01
 1.071215e+00	 5.141995e-01	 1.659918e+01
 1.125737e+00	 4.155926e-01	 1.806303e+01
 1.117797e+00	 4.364979e-01	 1.778666e+01
 1.109435e+00	 4.573326e-01	 1.749930e+01
 1.100652e+00	 4.780846e-01	 1.719436e+01
 1.091447e+00	 4.987414e-01	 1.686439e+01
 1.081821e+00	 5.192906e-01	 1.650113e+01
 1.136773e+00	 4.196670e-01	 1.789456e+01
 1.128756e+00	 4.407773e-01	 1.763556e+01
 1.120312e+00	 4.618163e-01	 1.736412e+01
 1.111443e+00	 4.827717e-01	 1.707363e+01
 1.102148e+00	 5.036310e-01	 1.675663e+01
 1.092427e+00	 5.243817e-01	 1.640475e+01
 1.147810e+00	 4.237414e-01	 1.773248e+01
 1.139714e+00	 4.450566e-01	 1.749017e+01
 1.131189e+00	 4.663000e-01	 1.723356e+01
 1.122234e+00	 4.874588e-01	 1.695628e+01
 1.112848e+00	 5.085207e-01	 1.665105e+01
 1.103033e+00	 5.294728e-01	 1.630964e+01
 1.158846e+00	 4.278159e-01	 1.757584e+01
 1.150673e+00	 4.493360e-01	 1.734967e+01
 1.142066e+00	 4.707836e-01	 1.710694e+01
 1.133024e+00	 4.921459e-01	 1.684174e+01
 1.123549e+00	 5.134103e-01	 1.654717e+01
 1.113640e+00	 5.345638e-01	 1.621536e+01
 1.060609e+00	 5.091084e-01	 1.669917e+01
 1.050760e+00	 5.291369e-01	 1.630010e+01
 1.040501e+00	 5.490354e-01	 1.591522e+01
 1.029835e+00	 5.687915e-01	 1.554459e+01
 1.018762e+00	 5.883931e-01	 1.518857e+01
 1.007288e+00	 6.078278e-01	 1.479034e+01
 1.071215e+00	 5.141995e-01	 1.659918e+01
 1.061268e+00	 5.344283e-01	 1.621503e+01
 1.050906e+00	 5.545257e-01	 1.585127e+01
 1.040133e+00	 5.744794e-01	 1.550866e+01
 1.028950e+00	 5.942770e-01	 1.518270e+01
 1.017360e+00	 6.139061e-01	 1.479118e+01
 1.081821e+00	 5.192906e-01	 1.650113e+01
 1.071775e+00	 5.397196e-01	 1.613174e+01
 1.061311e+00	 5.600161e-01	 1.579000e+01
 1.050431e+00	 5.801673e-01	 1.547723e+01
 1.039138e+00	 6.001609e-01	 1.517271e+01
 1.027433e+00	 6.199844e-01	 1.478907e+01
 1.092427e+00	 5.243817e-01	 1.640475e+01
 1.082283e+00	 5.450110e-01	 1.604994e+01
 1.071716e+00	 5.655064e-01	 1.573110e+01
 1.060730e+00	 5.858553e-01	 1.544990e+01
 1.049325e+00	 6.060449e-01	 1.515760e+01
 1.037506e+00	 6.260627e-01	 1.478289e+01
 1.103033e+00	 5.294728e-01	 1.630964e+01
 1.092791e+00	 5.503024e-01	 1.596927e+01
 1.082121e+00	 5.709968e-01	 1.567417e+01
 1.071028e+00	 5.915432e-01	 1.542440e+01
 1.059513e+00	 6.119288e-01	 1.513635e+01
 1.047579e+00	 6.321410e-01	 1.477157e+01
 1.113640e+00	 5.345638e-01	 1.621536e+01
 1.103298e+00	 5.555938e-01	 1.588929e+01
 1.092526e+00	 5.764871e-01	 1.561873e+01
 1.081326e+00	 5.972311e-01	 1.539210e+01
 1.069700e+00	 6.178127e-01	 1.510794e+01
 1.057652e+00	 6.382192e-01	 1.475399e+01
 1.007288e+00	 6.078278e-01	 1.479034e+01
 9.954141e-01	 6.270836e-01	 1.434096e+01
 9.831456e-01	 6.461484e-01	 1.388750e+01
 9.704867e-01	 6.650102e-01	 1.343681e+01
 9.574424e-01	 6.836572e-01	 1.299683e+01
 9.440180e-01	 7.020776e-01	 1.257653e+01
 1.017360e+00	 6.139061e-01	 1.479118e+01
 1.005368e+00	 6.333545e-01	 1.435322e+01
 9.929771e-01	 6.526099e-01	 1.391399e+01
 9.801916e-01	 6.716603e-01	 1.347945e+01
 9.670168e-01	 6.904937e-01	 1.305659e+01
 9.534582e-01	 7.090984e-01	 1.265335e+01
 1.027433e+00	 6.199844e-01	 1.478907e+01
 1.015322e+00	 6.396253e-01	 1.436343e+01
 1.002809e+00	 6.590714e-01	 1.393866e+01
 9.898965e-01	 6.783104e-01	 1.351990e+01
 9.765912e-01	 6.973303e-01	 1.311330e+01
 9.628984e-01	 7.161192e-01	 1.272591e+01
 1.037506e+00	 6.260627e-01	 1.478289e+01
 1.025276e+00	 6.458962e-01	 1.437043e+01
 1.012640e+00	 6.655329e-01	 1.396030e+01
 9.996013e-01	 6.849605e-01	 1.355696e+01
 9.861657e-01	 7.041669e-01	 1.316579e+01
 9.723386e-01	 7.231400e-01	 1.279309e+01
 1.047579e+00	 6.321410e-01	 1.477157e+01
 1.035231e+00	 6.521670e-01	 1.437305e+01
 1.022471e+00	 6.719944e-01	 1.397770e+01
 1.009306e+00	 6.916106e-01	 1.358941e+01
 9.957401e-01	 7.110034e-01	 1.321290e+01
 9.817788e-01	 7.301607e-01	 1.285377e+01
 1.057652e+00	 6.382192e-01	 1.475399e+01
 1.045185e+00	 6.584378e-01	 1.437011e+01
 1.032303e+00	 6.784558e-01	 1.398968e+01
 1.019011e+00	 6.982607e-01	 1.361606e+01
 1.005315e+00	 7.178400e-01	 1.325345e+01
 9.912189e-01	 7.371815e-01	 1.290687e+01
 9.440180e-01	 7.020776e-01	 1.257653e+01
 9.302195e-01	 7.202601e-01	 1.215681e+01
 9.160533e-01	 7.381934e-01	 1.171847e+01
 9.015260e-01	 7.558663e-01	 1.127157e+01
 8.866450e-01	 7.732682e-01	 1.082673e+01
 8.714180e-01	 7.903884e-01	 1.039502e+01
 9.534582e-01	 7.090984e-01	 1.265335e+01
 9.395217e-01	 7.274627e-01	 1.224903e+01
 9.252138e-01	 7.455753e-01	 1.182386e+01
 9.105413e-01	 7.634250e-01	 1.138850e+01
 8.955115e-01	 7.810008e-01	 1.095421e+01
 8.801321e-01	 7.982922e-01	 1.053281e+01
 9.628984e-01	 7.161192e-01	 1.272591e+01
 9.488239e-01	 7.346653e-01	 1.233586e+01
 9.343743e-01	 7.529572e-01	 1.192317e+01
 9.195565e-01	 7.709836e-01	 1.149895e+01
 9.043779e-01	 7.887335e-01	 1.107505e+01
 8.888463e-01	 8.061961e-01	 1.066388e+01
 9.723386e-01	 7.231400e-01	 1.279309e+01
 9.581261e-01	 7.418679e-01	 1.241625e+01
 9.435349e-01	 7.603392e-01	 1.201533e+01
 9.285718e-01	 7.785423e-01	 1.160184e+01
 9.132444e-01	 7.964662e-01	 1.118806e+01
 8.975605e-01	 8.141000e-01	 1.078695e+01
 9.817788e-01	 7.301607e-01	 1.285377e+01
 9.674283e-01	 7.490705e-01	 1.248912e+01
 9.526954e-01	 7.677211e-01	 1.209929e+01
 9.375871e-01	 7.861010e-01	 1.169608e+01
 9.221108e-01	 8.041989e-01	 1.129212e+01
 9.062747e-01	 8.220039e-01	 1.090076e+01
 9.912189e-01	 7.371815e-01	 1.290687e+01
 9.767305e-01	 7.562731e-01	 1.255344e+01
 9.618559e-01	 7.751030e-01	 1.217403e+01
 9.466023e-01	 7.936596e-01	 1.178062e+01
 9.309773e-01	 8.119316e-01	 1.138608e+01
 9.149889e-01	 8.299078e-01	 1.100408e+01
 8.714180e-01	 7.903884e-01	 1.039502e+01
 8.558529e-01	 8.072167e-01	 9.965231e+00
 8.399584e-01	 8.237432e-01	 9.525830e+00
 8.237432e-01	 8.399584e-01	 9.087627e+00
 8.072167e-01	 8.558529e-01	 8.661292e+00
 7.903884e-01	 8.714180e-01	 8.257223e+00
 8.801321e-01	 7.982922e-01	 1.053281e+01
 8.644115e-01	 8.152889e-01	 1.011300e+01
 8.483580e-01	 8.319807e-01	 9.682574e+00
 8.319807e-01	 8.483580e-01	 9.252308e+00
 8.152889e-01	 8.644115e-01	 8.832803e+00
 7.982922e-01	 8.801321e-01	 8.434374e+00
 8.888463e-01	 8.061961e-01	 1.066388e+01
 8.729700e-01	 8.233610e-01	 1.025381e+01
 8.567576e-01	 8.402181e-01	 9.831910e+00
 8.402181e-01	 8.567576e-01	 9.409030e+00
 8.233610e-01	 8.729700e-01	 8.995855e+00
 8.061961e-01	 8.888463e-01	 8.602780e+00
 8.975605e-01	 8.141000e-01	 1.078695e+01
 8.815285e-01	 8.314332e-01	 1.038631e+01
 8.651572e-01	 8.484555e-01	 9.972451e+00
 8.484555e-01	 8.651572e-01	 9.556444e+00
 8.314332e-01	 8.815285e-01	 9.149202e+00
 8.141000e-01	 8.975605e-01	 8.761349e+00
 9.062747e-01	 8.220039e-01	 1.090076e+01
 8.900870e-01	 8.395054e-01	 1.050915e+01
 8.735567e-01	 8.566930e-01	 1.010283e+01
 8.566930e-01	 8.735567e-01	 9.693221e+00
 8.395054e-01	 8.900870e-01	 9.291607e+00
 8.220039e-01	 9.062747e-01	 8.908993e+00
 9.149889e-01	 8.299078e-01	 1.100408e+01
 8.986456e-01	 8.475775e-01	 1.062100e+01
 8.819563e-01	 8.649304e-01	 1.022170e+01
 8.649304e-01	 8.819563e-01	 9.818047e+00
 8.475775e-01	 8.986456e-01	 9.421844e+00
 8.299078e-01	 9.149889e-01	 9.044625e+00
 7.903884e-01	 8.714180e-01	 8.257223e+00
 7.732682e-01	 8.866450e-01	 7.860343e+00
 7.558663e-01	 9.015260e-01	 7.456034e+00
 7.381934e-01	 9.160533e-01	 7.054602e+00
 7.202601e-01	 9.302195e-01	 6.665598e+00
 7.020776e-01	 9.440180e-01	 6.297698e+00
 7.982922e-01	 8.801321e-01	 8.434374e+00
 7.810008e-01	 8.955115e-01	 8.041822e+00
 7.634250e-01	 9.105413e-01	 7.640746e+00
 7.455753e-01	 9.252138e-01	 7.241861e+00
 7.274627e-01	 9.395217e-01	 6.855111e+00
 7.090984e-01	 9.534582e-01	 6.489544e+00
 8.061961e-01	 8.888463e-01	 8.602780e+00
 7.887335e-01	 9.043779e-01	 8.214646e+00
 7.709836e-01	 9.195565e-01	 7.817214e+00
 7.529572e-01	 9.343743e-01	 7.421427e+00
 7.346653e-01	 9.488239e-01	 7.037424e+00
 7.161192e-01	 9.628984e-01	 6.674416e+00
 8.141000e-01	 8.975605e-01	 8.761349e+00
 7.964662e-01	 9.132444e-01	 8.377851e+00
 7.785423e-01	 9.285718e-01	 7.984497e+00
 7.603392e-01	 9.435349e-01	 7.592280e+00
 7.418679e-01	 9.581261e-01	 7.211349e+00
 7.231400e-01	 9.723386e-01	 6.850869e+00
 8.220039e-01	 9.062747e-01	 8.908993e+00
 8.041989e-01	 9.221108e-01	 8.530470e+00
 7.861010e-01	 9.375871e-01	 8.141644e+00
 7.677211e-01	 9.526954e-01	 7.753393e+00
 7.490705e-01	 9.674283e-01	 7.375690e+00
 7.301607e-01	 9.817788e-01	 7.017458e+00
 8.299078e-01	 9.149889e-01	 9.044625e+00
 8.119316e-01	 9.309773e-01	 8.671530e+00
 7.936596e-01	 9.466023e-01	 8.287697e+00
 7.751030e-01	 9.618559e-01	 7.903730e+00
 7.562731e-01	 9.767305e-01	 7.529247e+00
 7.371815e-01	 9.912189e-01	 7.172741e+00
 7.020776e-01	 9.440180e-01	 6.297698e+00
 6.836572e-01	 9.574424e-01	 5.942578e+00
 6.650102e-01	 9.704867e-01	 5.589097e+00
 6.461484e-01	 9.831456e-01	 5.239969e+00
 6.270836e-01	 9.954141e-01	 4.896526e+00
 6.078278e-01	 1.007288e+00	 4.558692e+00
 7.090984e-01	 9.534582e-01	 6.489544e+00
 6.904937e-01	 9.670168e-01	 6.136137e+00
 6.716603e-01	 9.801916e-01	 5.782907e+00
 6.526099e-01	 9.929771e-01	 5.432661e+00
 6.333545e-01	 1.005368e+00	 5.086767e+00
 6.139061e-01	 1.017360e+00	 4.745130e+00
 7.161192e-01	 9.628984e-01	 6.674416e+00
 6.973303e-01	 9.765912e-01	 6.322564e+00
 6.783104e-01	 9.898965e-01	 5.969232e+00
 6.590714e-01	 1.002809e+00	 5.617576e+00
 6.396253e-01	 1.015322e+00	 5.269272e+00
 6.199844e-01	 1.027433e+00	 4.924492e+00
 7.231400e-01	 9.723386e-01	 6.850869e+00
 7.041669e-01	 9.861657e-01	 6.500187e+00
 6.849605e-01	 9.996013e-01	 6.146315e+00
 6.655329e-01	 1.012640e+00	 5.793006e+00
 6.458962e-01	 1.025276e+00	 5.442509e+00
 6.260627e-01	 1.037506e+00	 5.095539e+00
 7.301607e-01	 9.817788e-01	 7.017458e+00
 7.110034e-01	 9.957401e-01	 6.667343e+00
 6.916106e-01	 1.009306e+00	 6.312410e+00
 6.719944e-01	 1.022471e+00	 5.957249e+00
 6.521670e-01	 1.035231e+00	 5.604941e+00
 6.321410e-01	 1.047579e+00	 5.257012e+00
 7.371815e-01	 9.912189e-01	 7.172741e+00
 7.178400e-01	 1.005315e+00	 6.822377e+00
 6.982607e-01	 1.019011e+00	 6.465776e+00
 6.784558e-01	 1.032303e+00	 6.108605e+00
 6.584378e-01	 1.045185e+00	 5.755024e+00
 6.382192e-01	 1.057652e+00	 5.407635e+00
 6.078278e-01	 1.007288e+00	 4.558692e+00
 5.883931e-01	 1.018762e+00	 4.237971e+00
 5.687915e-01	 1.029835e+00	 3.939558e+00
 5.490354e-01	 1.040501e+00	 3.654164e+00
 5.291369e-01	 1.050760e+00	 3.376827e+00
 5.091084e-01	 1.060609e+00	 3.101904e+00
 6.139061e-01	 1.017360e+00	 4.745130e+00
 5.942770e-01	 1.028950e+00	 4.419348e+00
 5.744794e-01	 1.040133e+00	 4.117488e+00
 5.545257e-01	 1.050906e+00	 3.828316e+00
 5.344283e-01	 1.061268e+00	 3.546660e+00
 5.141995e-01	 1.071215e+00	 3.267151e+00
 6.199844e-01	 1.027433e+00	 4.924492e+00
 6.001609e-01	 1.039138e+00	 4.595094e+00
 5.801673e-01	 1.050431e+00	 4.290805e+00
 5.600161e-01	 1.061311e+00	 3.999689e+00
 5.397196e-01	 1.071775e+00	 3.714888e+00
 5.192906e-01	 1.081821e+00	 3.430753e+00
 6.260627e-01	 1.037506e+00	 5.095539e+00
 6.060449e-01	 1.049325e+00	 4.764224e+00
 5.858553e-01	 1.060730e+00	 4.458589e+00
 5.655064e-01	 1.071716e+00	 4.167287e+00
 5.450110e-01	 1.082283e+00	 3.880283e+00
 5.243817e-01	 1.092427e+00	 3.591111e+00
 6.321410e-01	 1.047579e+00	 5.257012e+00
 6.119288e-01	 1.059513e+00	 4.925719e+00
 5.915432e-01	 1.071028e+00	 4.620026e+00
 5.709968e-01	 1.082121e+00	 4.330076e+00
 5.503024e-01	 1.092791e+00	 4.041590e+00
 5.294728e-01	 1.103033e+00	 3.746616e+00
 6.382192e-01	 1.057652e+00	 5.407635e+00
 6.178127e-01	 1.069700e+00	 5.078533e+00
 5.972311e-01	 1.081326e+00	 4.774783e+00
 5.764871e-01	 1.092526e+00	 4.486988e+00
 5.555938e-01	 1.103298e+00	 4.197531e+00
 5.345638e-01	 1.113640e+00	 3.895649e+00
 5.091084e-01	 1.060609e+00	 3.101904e+00
 4.889622e-01	 1.070046e+00	 2.833775e+00
 4.687104e-01	 1.079071e+00	 2.580026e+00
 4.483653e-01	 1.087682e+00	 2.339188e+00
 4.279391e-01	 1.095879e+00	 2.109603e+00
 4.074437e-01	 1.103663e+00	 1.889482e+00
 5.141995e-01	 1.071215e+00	 3.267151e+00
 4.938518e-01	 1.080747e+00	 2.995270e+00
 4.733975e-01	 1.089861e+00	 2.738823e+00
 4.528490e-01	 1.098559e+00	 2.495247e+00
 4.322185e-01	 1.106838e+00	 2.261761e+00
 4.115181e-01	 1.114700e+00	 2.035428e+00
 5.192906e-01	 1.081821e+00	 3.430753e+00
 4.987414e-01	 1.091447e+00	 3.153471e+00
 4.780846e-01	 1.100652e+00	 2.891644e+00
 4.573326e-01	 1.109435e+00	 2.642538e+00
 4.364979e-01	 1.117797e+00	 2.403187e+00
 4.155926e-01	 1.125737e+00	 2.170461e+00
 5.243817e-01	 1.092427e+00	 3.591111e+00
 5.036310e-01	 1.102148e+00	 3.306479e+00
 4.827717e-01	 1.111443e+00	 3.036550e+00
 4.618163e-01	 1.120312e+00	 2.779312e+00
 4.407773e-01	 1.128756e+00	 2.532524e+00
 4.196670e-01	 1.136773e+00	 2.293785e+00
 5.294728e-01	 1.103033e+00	 3.746616e+00
 5.085207e-01	 1.112848e+00	 3.452400e+00
 4.874588e-01	 1.122234e+00	 3.171613e+00
 4.663000e-01	 1.131189e+00	 2.903827e+00
 4.450566e-01	 1.139714e+00	 2.648410e+00
 4.237414e-01	 1.147810e+00	 2.404583e+00
 5.345638e-01	 1.113640e+00	 3.895649e+00
 5.134103e-01	 1.123549e+00	 3.589349e+00
 4.921459e-01	 1.133024e+00	 3.294917e+00
 4.707836e-01	 1.142066e+00	 3.014350e+00
 4.493360e-01	 1.150673e+00	 2.749478e+00
 4.278159e-01	 1.158846e+00	 2.502014e+00
 4.074437e-01	 1.103663e+00	 1.889482e+00
 3.868910e-01	 1.111035e+00	 1.677742e+00
 3.662930e-01	 1.117995e+00	 1.474512e+00
 3.456611e-01	 1.124545e+00	 1.279794e+00
 3.250069e-01	 1.130687e+00	 1.093676e+00
 3.043417e-01	 1.136424e+00	 9.163887e-01
 4.115181e-01	 1.114700e+00	 2.035428e+00
 3.907600e-01	 1.122145e+00	 1.814593e+00
 3.699559e-01	 1.129175e+00	 1.600254e+00
 3.491177e-01	 1.135790e+00	 1.393429e+00
 3.282570e-01	 1.141994e+00	 1.195237e+00
 3.073851e-01	 1.147788e+00	 1.006947e+00
 4.155926e-01	 1.125737e+00	 2.170461e+00
 3.946289e-01	 1.133256e+00	 1.943015e+00
 3.736188e-01	 1.140355e+00	 1.722684e+00
 3.525743e-01	 1.147036e+00	 1.511081e+00
 3.315071e-01	 1.153301e+00	 1.309929e+00
 3.104285e-01	 1.159152e+00	 1.121105e+00
 4.196670e-01	 1.136773e+00	 2.293785e+00
 3.984978e-01	 1.144366e+00	 2.062794e+00
 3.772818e-01	 1.151535e+00	 1.842066e+00
 3.560309e-01	 1.158281e+00	 1.633403e+00
 3.347571e-01	 1.164608e+00	 1.438715e+00
 3.134720e-01	 1.170517e+00	 1.260066e+00
 4.237414e-01	 1.147810e+00	 2.404583e+00
 4.023667e-01	 1.155476e+00	 2.173675e+00
 3.809447e-01	 1.162715e+00	 1.958613e+00
 3.594875e-01	 1.169527e+00	 1.760986e+00
 3.380072e-01	 1.175915e+00	 1.582484e+00
 3.165154e-01	 1.181881e+00	 1.414008e+00
 4.278159e-01	 1.158846e+00	 2.502014e+00
 4.062356e-01	 1.166587e+00	 2.275368e+00
 3.846076e-01	 1.173895e+00	 2.072486e+00
 3.629442e-01	 1.180772e+00	 1.887706e+00
 3.412573e-01	 1.187222e+00	 1.699682e+00
 3.195588e-01	 1.193245e+00	 1.511806e+00
 3.043417e-01	 1.136424e+00	 9.163887e-01
 2.836765e-01	 1.141758e+00	 7.502660e-01
 2.630223e-01	 1.146692e+00	 5.973017e-01
 2.423897e-01	 1.151230e+00	 4.575678e-01
 2.217891e-01	 1.155376e+00	 3.314593e-01
 2.012306e-01	 1.159133e+00	 2.197265e-01
 3.073851e-01	 1.147788e+00	 1.006947e+00
 2.865133e-01	 1.153175e+00	 8.317905e-01
 2.656526e-01	 1.158159e+00	 6.720207e-01
 2.448136e-01	 1.162742e+00	 5.278157e-01
 2.240070e-01	 1.166929e+00	 3.996991e-01
 2.032429e-01	 1.170724e+00	 2.885726e-01
 3.104285e-01	 1.159152e+00	 1.121105e+00
 2.893501e-01	 1.164593e+00	 9.482652e-01
 2.682828e-01	 1.169626e+00	 7.934037e-01
 2.472375e-01	 1.174254e+00	 6.563012e-01
 2.262249e-01	 1.178483e+00	 5.355132e-01
 2.052552e-01	 1.182316e+00	 4.228396e-01
 3.134720e-01	 1.170517e+00	 1.260066e+00
 2.921868e-01	 1.176010e+00	 1.101048e+00
 2.709130e-01	 1.181093e+00	 9.546358e-01
 2.496614e-01	 1.185767e+00	 8.107512e-01
 2.284428e-01	 1.190037e+00	 6.726251e-01
 2.072675e-01	 1.193907e+00	 5.438683e-01
 3.165154e-01	 1.181881e+00	 1.414008e+00
 2.950236e-01	 1.187428e+00	 1.245829e+00
 2.735432e-01	 1.192560e+00	 1.082141e+00
 2.520853e-01	 1.197279e+00	 9.249500e-01
 2.306606e-01	 1.201591e+00	 7.766005e-01
 2.092798e-01	 1.205498e+00	 6.397368e-01
 3.195588e-01	 1.193245e+00	 1.511806e+00
 2.978604e-01	 1.198846e+00	 1.330782e+00
 2.761734e-01	 1.204026e+00	 1.159475e+00
 2.545092e-01	 1.208791e+00	 9.984923e-01
 2.328785e-01	 1.213144e+00	 8.487758e-01
 2.112921e-01	 1.217090e+00	 7.115627e-01
 2.012306e-01	 1.159133e+00	 2.197265e-01
 1.807242e-01	 1.162507e+00	 1.232064e-01
 1.602794e-01	 1.165501e+00	 4.066096e-02
 1.399057e-01	 1.168122e+00	-2.963079e-02
 1.196120e-01	 1.170374e+00	-8.889663e-02
 9.940714e-02	 1.172263e+00	-1.378589e-01
 2.032429e-01	 1.170724e+00	 2.885726e-01
 1.825314e-01	 1.174132e+00	 1.951008e-01
 1.618822e-01	 1.177156e+00	 1.170862e-01
 1.413048e-01	 1.179803e+00	 4.822116e-02
 1.208081e-01	 1.182078e+00	-1.320183e-02
 1.004012e-01	 1.183986e+00	-6.649555e-02
 2.052552e-01	 1.182316e+00	 4.228396e-01
 1.843387e-01	 1.185757e+00	 3.198145e-01
 1.634850e-01	 1.188811e+00	 2.268334e-01
 1.427038e-01	 1.191485e+00	 1.438204e-01
 1.220043e-01	 1.193782e+00	 7.092627e-02
 1.013953e-01	 1.195709e+00	 8.515845e-03
 2.072675e-01	 1.193907e+00	 5.438683e-01
 1.861459e-01	 1.197382e+00	 4.272194e-01
 1.650878e-01	 1.200466e+00	 3.226400e-01
 1.441029e-01	 1.203166e+00	 2.299482e-01
 1.232004e-01	 1.205486e+00	 1.491838e-01
 1.023894e-01	 1.207431e+00	 8.059689e-02
 2.092798e-01	 1.205498e+00	 6.397368e-01
 1.879532e-01	 1.209007e+00	 5.160767e-01
 1.666906e-01	 1.212121e+00	 4.052722e-01
 1.455019e-01	 1.214847e+00	 3.072382e-01
 1.243965e-01	 1.217189e+00	 2.221065e-01
 1.033834e-01	 1.219154e+00	 1.502138e-01
 2.112921e-01	 1.217090e+00	 7.115627e-01
 1.897604e-01	 1.220632e+00	 5.872910e-01
 1.682934e-01	 1.223776e+00	 4.754671e-01
 1.469010e-01	 1.226528e+00	 3.762995e-01
 1.255926e-01	 1.228893e+00	 2.902085e-01
 1.043775e-01	 1.230876e+00	 2.178129e-01
 9.940714e-02	 1.172263e+00	-1.378589e-01
 7.929953e-02	 1.173795e+00	-1.765294e-01
 5.929733e-02	 1.174975e+00	-2.055485e-01
 3.940838e-02	 1.175810e+00	-2.258015e-01
 1.964020e-02	 1.176307e+00	-2.376536e-01
 0.000000e+00	 1.176471e+00	-2.409716e-01
 1.004012e-01	 1.183986e+00	-6.649555e-02
 8.009253e-02	 1.185533e+00	-1.105219e-01
 5.989031e-02	 1.186725e+00	-1.447778e-01
 3.980247e-02	 1.187568e+00	-1.692177e-01
 1.983660e-02	 1.188070e+00	-1.835914e-01
 0.000000e+00	 1.188235e+00	-1.874487e-01
 1.013953e-01	 1.195709e+00	 8.515845e-03
 8.088552e-02	 1.197271e+00	-4.259931e-02
 6.048328e-02	 1.198475e+00	-8.212492e-02
 4.019655e-02	 1.199327e+00	-1.101639e-01
 2.003301e-02	 1.199833e+00	-1.266162e-01
 0.000000e+00	 1.200000e+00	-1.311819e-01
 1.023894e-01	 1.207431e+00	 8.059689e-02
 8.167852e-02	 1.209009e+00	 2.482818e-02
 6.107625e-02	 1.210225e+00	-1.806758e-02
 4.059063e-02	 1.211085e+00	-4.841280e-02
 2.022941e-02	 1.211596e+00	-6.632453e-02
 0.000000e+00	 1.211765e+00	-7.171604e-02
 1.033834e-01	 1.219154e+00	 1.502138e-01
 8.247151e-02	 1.220747e+00	 9.217826e-02
 6.166923e-02	 1.221974e+00	 4.778271e-02
 4.098472e-02	 1.222843e+00	 1.641621e-02
 2.042581e-02	 1.223359e+00	-2.320646e-03
 0.000000e+00	 1.223529e+00	-8.615683e-03
 1.043775e-01	 1.230876e+00	 2.178129e-01
 8.326451e-02	 1.232485e+00	 1.598503e-01
 6.226220e-02	 1.233724e+00	 1.157971e-01
 4.137880e-02	 1.234601e+00	 8.468655e-02
 2.062221e-02	 1.235122e+00	 6.577346e-02
 0.000000e+00	 1.235294e+00	 5.853572e-02
 1.235294e+00	 0.000000e+00	 1.982955e+01
 1.235122e+00	 2.062221e-02	 1.982105e+01
 1.234601e+00	 4.137880e-02	 1.980457e+01
 1.233724e+00	 6.226220e-02	 1.977860e+01
 1.232485e+00	 8.326451e-02	 1.974166e+01
 1.230876e+00	 1.043775e-01	 1.969236e+01
 1.247059e+00	 0.000000e+00	 1.952758e+01
 1.246885e+00	 2.081861e-02	 1.951924e+01
 1.246359e+00	 4.177289e-02	 1.950404e+01
 1.245474e+00	 6.285517e-02	 1.948030e+01
 1.244223e+00	 8.405750e-02	 1.944642e+01
 1.242599e+00	 1.053716e-01	 1.940087e+01
 1.258824e+00	 0.000000e+00	 1.923909e+01
 1.258648e+00	 2.101502e-02	 1.923096e+01
 1.258117e+00	 4.216697e-02	 1.921693e+01
 1.257224e+00	 6.344815e-02	 1.919520e+01
 1.255961e+00	 8.485050e-02	 1.916405e+01
 1.254322e+00	 1.063656e-01	 1.912187e+01
 1.270588e+00	 0.000000e+00	 1.896300e+01
 1.270411e+00	 2.121142e-02	 1.895514e+01
 1.269875e+00	 4.256105e-02	 1.894219e+01
 1.268973e+00	 6.404112e-02	 1.892225e+01
 1.267699e+00	 8.564349e-02	 1.889354e+01
 1.266044e+00	 1.073597e-01	 1.885439e+01
 1.282353e+00	 0.000000e+00	 1.869826e+01
 1.282174e+00	 2.140782e-02	 1.869075e+01
 1.281633e+00	 4.295514e-02	 1.867880e+01
 1.280723e+00	 6.463409e-02	 1.866046e+01
 1.279437e+00	 8.643649e-02	 1.863390e+01
 1.277767e+00	 1.083538e-01	 1.859744e+01
 1.294118e+00	 0.000000e+00	 1.844388e+01
 1.293937e+00	 2.160422e-02	 1.843678e+01
 1.293391e+00	 4.334922e-02	 1.842576e+01
 1.292473e+00	 6.522707e-02	 1.840884e+01
 1.291174e+00	 8.722948e-02	 1.838417e+01
 1.289490e+00	 1.093479e-01	 1.835009e+01
 1.230876e+00	 1.043775e-01	 1.969236e+01
 1.228893e+00	 1.255926e-01	 1.963076e+01
 1.226528e+00	 1.469010e-01	 1.955788e+01
 1.223776e+00	 1.682934e-01	 1.947401e+01
 1.220632e+00	 1.897604e-01	 1.937961e+01
 1.217090e+00	 2.112921e-01	 1.927535e+01
 1.242599e+00	 1.053716e-01	 1.940087e+01
 1.240597e+00	 1.267887e-01	 1.934374e+01
 1.238210e+00	 1.483000e-01	 1.927623e+01
 1.235431e+00	 1.698962e-01	 1.919865e+01
 1.232257e+00	 1.915676e-01	 1.911159e+01
 1.228681e+00	 2.133044e-01	 1.901582e+01
 1.254322e+00	 1.063656e-01	 1.912187e+01
 1.252301e+00	 1.279849e-01	 1.906882e+01
 1.249891e+00	 1.496991e-01	 1.900619e+01
 1.247087e+00	 1.714990e-01	 1.893437e+01
 1.243882e+00	 1.933749e-01	 1.885399e+01
 1.240272e+00	 2.153168e-01	 1.876594e+01
 1.266044e+00	 1.073597e-01	 1.885439e+01
 1.264004e+00	 1.291810e-01	 1.880503e+01
 1.261572e+00	 1.510982e-01	 1.874686e+01
 1.258742e+00	 1.731018e-01	 1.868030e+01
 1.255507e+00	 1.951821e-01	 1.860601e+01
 1.251864e+00	 2.173291e-01	 1.852499e+01
 1.277767e+00	 1.083538e-01	 1.859744e+01
 1.275708e+00	 1.303771e-01	 1.855142e+01
 1.273253e+00	 1.524972e-01	 1.849733e+01
 1.270397e+00	 1.747046e-01	 1.843557e+01
 1.267132e+00	 1.969894e-01	 1.836686e+01
 1.263455e+00	 2.193414e-01	 1.829224e+01
 1.289490e+00	 1.093479e-01	 1.835009e+01
 1.287412e+00	 1.315732e-01	 1.830708e+01
 1.284934e+00	 1.538963e-01	 1.825671e+01
 1.282052e+00	 1.763074e-01	 1.819936e+01
 1.278757e+00	 1.987966e-01	 1.813576e+01
 1.275046e+00	 2.213537e-01	 1.806700e+01
 1.217090e+00	 2.112921e-01	 1.927535e+01
 1.213144e+00	 2.328785e-01	 1.915900e+01
 1.208791e+00	 2.545092e-01	 1.902817e+01
 1.204026e+00	 2.761734e-01	 1.888349e+01
 1.198846e+00	 2.978604e-01	 1.872559e+01
 1.193245e+00	 3.195588e-01	 1.855506e+01
 1.228681e+00	 2.133044e-01	 1.901582e+01
 1.224698e+00	 2.350964e-01	 1.890864e+01
 1.220304e+00	 2.569331e-01	 1.878703e+01
 1.215493e+00	 2.788037e-01	 1.865159e+01
 1.210263e+00	 3.006971e-01	 1.850297e+01
 1.204609e+00	 3.226022e-01	 1.834182e+01
 1.240272e+00	 2.153168e-01	 1.876594e+01
 1.236252e+00	 2.373143e-01	 1.866711e+01
 1.231816e+00	 2.593570e-01	 1.855403e+01
 1.226960e+00	 2.814339e-01	 1.842738e+01
 1.221681e+00	 3.035339e-01	 1.828790e+01
 1.215974e+00	 3.256456e-01	 1.813641e+01
 1.251864e+00	 2.173291e-01	 1.852499e+01
 1.247806e+00	 2.395322e-01	 1.843375e+01
 1.243328e+00	 2.617809e-01	 1.832852e+01
 1.238427e+00	 2.840641e-01	 1.821013e+01
 1.233098e+00	 3.063707e-01	 1.807954e+01
 1.227338e+00	 3.286890e-01	 1.793781e+01
 1.263455e+00	 2.193414e-01	 1.829224e+01
 1.259359e+00	 2.417501e-01	 1.820791e+01
 1.254841e+00	 2.642048e-01	 1.810984e+01
 1.249894e+00	 2.866943e-01	 1.799913e+01
 1.244516e+00	 3.092074e-01	 1.787705e+01
 1.238702e+00	 3.317325e-01	 1.774500e+01
 1.275046e+00	 2.213537e-01	 1.806700e+01
 1.270913e+00	 2.439680e-01	 1.798892e+01
 1.266353e+00	 2.666287e-01	 1.789733e+01
 1.261361e+00	 2.893246e-01	 1.779368e+01
 1.255933e+00	 3.120442e-01	 1.767962e+01
 1.250066e+00	 3.347759e-01	 1.755698e+01
 1.193245e+00	 3.195588e-01	 1.855506e+01
 1.187222e+00	 3.412573e-01	 1.837448e+01
 1.180772e+00	 3.629442e-01	 1.818701e+01
 1.173895e+00	 3.846076e-01	 1.799340e+01
 1.166587e+00	 4.062356e-01	 1.779002e+01
 1.158846e+00	 4.278159e-01	 1.757584e+01
 1.204609e+00	 3.226022e-01	 1.834182e+01
 1.198528e+00	 3.445073e-01	 1.817044e+01
 1.192018e+00	 3.664008e-01	 1.799175e+01
 1.185075e+00	 3.882705e-01	 1.780715e+01
 1.177697e+00	 4.101045e-01	 1.761766e+01
 1.169883e+00	 4.318903e-01	 1.742154e+01
 1.215974e+00	 3.256456e-01	 1.813641e+01
 1.209835e+00	 3.477574e-01	 1.797485e+01
 1.203263e+00	 3.698574e-01	 1.780577e+01
 1.196254e+00	 3.919335e-01	 1.763068e+01
 1.188807e+00	 4.139734e-01	 1.745081e+01
 1.180920e+00	 4.359647e-01	 1.726693e+01
 1.227338e+00	 3.286890e-01	 1.793781e+01
 1.221142e+00	 3.510075e-01	 1.778648e+01
 1.214509e+00	 3.733140e-01	 1.762757e+01
 1.207434e+00	 3.955964e-01	 1.746267e+01
 1.199918e+00	 4.178423e-01	 1.729309e+01
 1.191956e+00	 4.400392e-01	 1.711970e+01
 1.238702e+00	 3.317325e-01	 1.774500e+01
 1.232449e+00	 3.542575e-01	 1.760409e+01
 1.225754e+00	 3.767706e-01	 1.745570e+01
 1.218614e+00	 3.992593e-01	 1.730142e+01
 1.211028e+00	 4.217112e-01	 1.714256e+01
 1.202993e+00	 4.441136e-01	 1.698003e+01
 1.250066e+00	 3.347759e-01	 1.755698e+01
 1.243756e+00	 3.575076e-01	 1.742648e+01
 1.236999e+00	 3.802272e-01	 1.728873e+01
 1.229794e+00	 4.029223e-01	 1.714526e+01
 1.222138e+00	 4.255801e-01	 1.699733e+01
 1.214030e+00	 4.481880e-01	 1.684577e+01
 1.158846e+00	 4.278159e-01	 1.757584e+01
 1.150673e+00	 4.493360e-01	 1.734967e+01
 1.142066e+00	 4.707836e-01	 1.710694e+01
 1.133024e+00	 4.921459e-01	 1.684174e+01
 1.123549e+00	 5.134103e-01	 1.654717e+01
 1.113640e+00	 5.345638e-01	 1.621536e+01
 1.169883e+00	 4.318903e-01	 1.742154e+01
 1.161632e+00	 4.536154e-01	 1.721206e+01
 1.152943e+00	 4.752673e-01	 1.698341e+01
 1.143815e+00	 4.968330e-01	 1.673025e+01
 1.134249e+00	 5.182999e-01	 1.644621e+01
 1.124246e+00	 5.396549e-01	 1.612390e+01
 1.180920e+00	 4.359647e-01	 1.726693e+01
 1.172591e+00	 4.578948e-01	 1.707447e+01
 1.163819e+00	 4.797509e-01	 1.686118e+01
 1.154606e+00	 5.015201e-01	 1.662120e+01
 1.144950e+00	 5.231895e-01	 1.634874e+01
 1.134852e+00	 5.447460e-01	 1.603695e+01
 1.191956e+00	 4.400392e-01	 1.711970e+01
 1.183550e+00	 4.621742e-01	 1.693734e+01
 1.174696e+00	 4.842346e-01	 1.673813e+01
 1.165396e+00	 5.062072e-01	 1.651267e+01
 1.155650e+00	 5.280791e-01	 1.625322e+01
 1.145458e+00	 5.498371e-01	 1.595359e+01
 1.202993e+00	 4.441136e-01	 1.698003e+01
 1.194508e+00	 4.664536e-01	 1.680739e+01
 1.185573e+00	 4.887182e-01	 1.661612e+01
 1.176187e+00	 5.108943e-01	 1.640272e+01
 1.166350e+00	 5.329688e-01	 1.615812e+01
 1.156064e+00	 5.549282e-01	 1.587281e+01
 1.214030e+00	 4.481880e-01	 1.684577e+01
 1.205467e+00	 4.707330e-01	 1.668309e+01
 1.196450e+00	 4.932019e-01	 1.650020e+01
 1.186978e+00	 5.155815e-01	 1.629440e+01
 1.177051e+00	 5.378584e-01	 1.606183e+01
 1.166670e+00	 5.600193e-01	 1.579355e+01
 1.113640e+00	 5.345638e-01	 1.621536e+01
 1.103298e+00	 5.555938e-01	 1.588929e+01
 1.092526e+00	 5.764871e-01	 1.561873e+01
 1.081326e+00	 5.972311e-01	 1.539210e+01
 1.069700e+00	 6.178127e-01	 1.510794e+01
 1.057652e+00	 6.382192e-01	 1.475399e+01
 1.124246e+00	 5.396549e-01	 1.612390e+01
 1.113806e+00	 5.608851e-01	 1.581245e+01
 1.102932e+00	 5.819775e-01	 1.556745e+01
 1.091625e+00	 6.029190e-01	 1.535449e+01
 1.079888e+00	 6.236967e-01	 1.507484e+01
 1.067725e+00	 6.442975e-01	 1.473265e+01
 1.134852e+00	 5.447460e-01	 1.603695e+01
 1.124314e+00	 5.661765e-01	 1.574132e+01
 1.113337e+00	 5.874678e-01	 1.552341e+01
 1.101923e+00	 6.086069e-01	 1.531453e+01
 1.090076e+00	 6.295806e-01	 1.504002e+01
 1.077798e+00	 6.503758e-01	 1.471034e+01
 1.145458e+00	 5.498371e-01	 1.595359e+01
 1.134821e+00	 5.714679e-01	 1.567554e+01
 1.123742e+00	 5.929582e-01	 1.548270e+01
 1.112221e+00	 6.142948e-01	 1.527202e+01
 1.100263e+00	 6.354645e-01	 1.500319e+01
 1.087871e+00	 6.564541e-01	 1.468645e+01
 1.156064e+00	 5.549282e-01	 1.587281e+01
 1.145329e+00	 5.767592e-01	 1.561463e+01
 1.134147e+00	 5.984486e-01	 1.543860e+01
 1.122520e+00	 6.199827e-01	 1.522675e+01
 1.110451e+00	 6.413485e-01	 1.496406e+01
 1.097944e+00	 6.625324e-01	 1.466034e+01
 1.166670e+00	 5.600193e-01	 1.579355e+01
 1.155836e+00	 5.820506e-01	 1.555804e+01
 1.144552e+00	 6.039389e-01	 1.539062e+01
 1.132818e+00	 6.256707e-01	 1.517846e+01
 1.120639e+00	 6.472324e-01	 1.492230e+01
 1.108016e+00	 6.686106e-01	 1.463140e+01
 1.057652e+00	 6.382192e-01	 1.475399e+01
 1.045185e+00	 6.584378e-01	 1.437011e+01
 1.032303e+00	 6.784558e-01	 1.398968e+01
 1.019011e+00	 6.982607e-01	 1.361606e+01
 1.005315e+00	 7.178400e-01	 1.325345e+01
 9.912189e-01	 7.371815e-01	 1.290687e+01
 1.067725e+00	 6.442975e-01	 1.473265e+01
 1.055139e+00	 6.647087e-01	 1.436416e+01
 1.042134e+00	 6.849173e-01	 1.399889e+01
 1.028716e+00	 7.049108e-01	 1.363973e+01
 1.014889e+00	 7.246766e-01	 1.329038e+01
 1.000659e+00	 7.442023e-01	 1.295536e+01
 1.077798e+00	 6.503758e-01	 1.471034e+01
 1.065093e+00	 6.709795e-01	 1.435783e+01
 1.051966e+00	 6.913788e-01	 1.400792e+01
 1.038421e+00	 7.115609e-01	 1.366302e+01
 1.024463e+00	 7.315132e-01	 1.332636e+01
 1.010099e+00	 7.512231e-01	 1.300200e+01
 1.087871e+00	 6.564541e-01	 1.468645e+01
 1.075047e+00	 6.772503e-01	 1.435010e+01
 1.061797e+00	 6.978403e-01	 1.401548e+01
 1.048126e+00	 7.182110e-01	 1.368450e+01
 1.034038e+00	 7.383497e-01	 1.335992e+01
 1.019539e+00	 7.582438e-01	 1.304537e+01
 1.097944e+00	 6.625324e-01	 1.466034e+01
 1.085001e+00	 6.835212e-01	 1.433998e+01
 1.071629e+00	 7.043018e-01	 1.402030e+01
 1.057831e+00	 7.248611e-01	 1.370273e+01
 1.043612e+00	 7.451863e-01	 1.338959e+01
 1.028980e+00	 7.652646e-01	 1.308411e+01
 1.108016e+00	 6.686106e-01	 1.463140e+01
 1.094955e+00	 6.897920e-01	 1.432645e+01
 1.081460e+00	 7.107633e-01	 1.402114e+01
 1.067535e+00	 7.315112e-01	 1.371635e+01
 1.053187e+00	 7.520229e-01	 1.341397e+01
 1.038420e+00	 7.722854e-01	 1.311688e+01
 9.912189e-01	 7.371815e-01	 1.290687e+01
 9.767305e-01	 7.562731e-01	 1.255344e+01
 9.618559e-01	 7.751030e-01	 1.217403e+01
 9.466023e-01	 7.936596e-01	 1.178062e+01
 9.309773e-01	 8.119316e-01	 1.138608e+01
 9.149889e-01	 8.299078e-01	 1.100408e+01
 1.000659e+00	 7.442023e-01	 1.295536e+01
 9.860327e-01	 7.634757e-01	 1.261214e+01
 9.710165e-01	 7.824850e-01	 1.224232e+01
 9.556176e-01	 8.012183e-01	 1.185805e+01
 9.398437e-01	 8.196642e-01	 1.147244e+01
 9.237030e-01	 8.378117e-01	 1.109942e+01
 1.010099e+00	 7.512231e-01	 1.300200e+01
 9.953349e-01	 7.706783e-01	 1.266796e+01
 9.801770e-01	 7.898669e-01	 1.230684e+01
 9.646328e-01	 8.087770e-01	 1.193098e+01
 9.487102e-01	 8.273969e-01	 1.155378e+01
 9.324172e-01	 8.457156e-01	 1.118951e+01
 1.019539e+00	 7.582438e-01	 1.304537e+01
 1.004637e+00	 7.778809e-01	 1.271963e+01
 9.893375e-01	 7.972488e-01	 1.236642e+01
 9.736481e-01	 8.163356e-01	 1.199836e+01
 9.575766e-01	 8.351296e-01	 1.162915e+01
 9.411314e-01	 8.536194e-01	 1.127346e+01
 1.028980e+00	 7.652646e-01	 1.308411e+01
 1.013939e+00	 7.850835e-01	 1.276591e+01
 9.984981e-01	 8.046308e-01	 1.241995e+01
 9.826634e-01	 8.238943e-01	 1.205916e+01
 9.664431e-01	 8.428623e-01	 1.169761e+01
 9.498456e-01	 8.615233e-01	 1.135040e+01
 1.038420e+00	 7.722854e-01	 1.311688e+01
 1.023241e+00	 7.922861e-01	 1.280558e+01
 1.007659e+00	 8.120127e-01	 1.246633e+01
 9.916786e-01	 8.314530e-01	 1.211240e+01
 9.753095e-01	 8.505950e-01	 1.175826e+01
 9.585598e-01	 8.694272e-01	 1.141951e+01
 9.149889e-01	 8.299078e-01	 1.100408e+01
 8.986456e-01	 8.475775e-01	 1.062100e+01
 8.819563e-01	 8.649304e-01	 1.022170e+01
 8.649304e-01	 8.819563e-01	 9.818047e+00
 8.475775e-01	 8.986456e-01	 9.421844e+00
 8.299078e-01	 9.149889e-01	 9.044625e+00
 9.237030e-01	 8.378117e-01	 1.109942e+01
 9.072041e-01	 8.556497e-01	 1.072462e+01
 8.903559e-01	 8.731678e-01	 1.033218e+01
 8.731678e-01	 8.903559e-01	 9.934463e+00
 8.556497e-01	 9.072041e-01	 9.543767e+00
 8.378117e-01	 9.237030e-01	 9.172163e+00
 9.324172e-01	 8.457156e-01	 1.118951e+01
 9.157626e-01	 8.637219e-01	 1.082302e+01
 8.987555e-01	 8.814053e-01	 1.043768e+01
 8.814053e-01	 8.987555e-01	 1.004619e+01
 8.637219e-01	 9.157626e-01	 9.661240e+00
 8.457156e-01	 9.324172e-01	 9.295283e+00
 9.411314e-01	 8.536194e-01	 1.127346e+01
 9.243212e-01	 8.717940e-01	 1.091536e+01
 9.071551e-01	 8.896427e-01	 1.053730e+01
 8.896427e-01	 9.071551e-01	 1.015223e+01
 8.717940e-01	 9.243212e-01	 9.773080e+00
 8.536194e-01	 9.411314e-01	 9.412565e+00
 9.498456e-01	 8.615233e-01	 1.135040e+01
 9.328797e-01	 8.798662e-01	 1.100080e+01
 9.155547e-01	 8.978801e-01	 1.063017e+01
 8.978801e-01	 9.155547e-01	 1.025159e+01
 8.798662e-01	 9.328797e-01	 9.878127e+00
 8.615233e-01	 9.498456e-01	 9.522620e+00
 9.585598e-01	 8.694272e-01	 1.141951e+01
 9.414382e-01	 8.879384e-01	 1.107852e+01
 9.239542e-01	 9.061176e-01	 1.071542e+01
 9.061176e-01	 9.239542e-01	 1.034331e+01
 8.879384e-01	 9.414382e-01	 9.975247e+00
 8.694272e-01	 9.585598e-01	 9.624090e+00
 8.299078e-01	 9.149889e-01	 9.044625e+00
 8.119316e-01	 9.309773e-01	 8.671530e+00
 7.936596e-01	 9.466023e-01	 8.287697e+00
 7.751030e-01	 9.618559e-01	 7.903730e+00
 7.562731e-01	 9.767305e-01	 7.529247e+00
 7.371815e-01	 9.912189e-01	 7.172741e+00
 8.378117e-01	 9.237030e-01	 9.172163e+00
 8.196642e-01	 9.398437e-01	 8.804621e+00
 8.012183e-01	 9.556176e-01	 8.425642e+00
 7.824850e-01	 9.710165e-01	 8.045623e+00
 7.634757e-01	 9.860327e-01	 7.673903e+00
 7.442023e-01	 1.000659e+00	 7.318618e+00
 8.457156e-01	 9.324172e-01	 9.295283e+00
 8.273969e-01	 9.487102e-01	 8.932895e+00
 8.087770e-01	 9.646328e-01	 8.557992e+00
 7.898669e-01	 9.801770e-01	 8.181056e+00
 7.706783e-01	 9.953349e-01	 7.811461e+00
 7.512231e-01	 1.010099e+00	 7.457320e+00
 8.536194e-01	 9.411314e-01	 9.412565e+00
 8.351296e-01	 9.575766e-01	 9.054744e+00
 8.163356e-01	 9.736481e-01	 8.683100e+00
 7.972488e-01	 9.893375e-01	 8.308484e+00
 7.778809e-01	 1.004637e+00	 7.940612e+00
 7.582438e-01	 1.019539e+00	 7.587898e+00
 8.615233e-01	 9.498456e-01	 9.522620e+00
 8.428623e-01	 9.664431e-01	 9.168595e+00
 8.238943e-01	 9.826634e-01	 8.799349e+00
 8.046308e-01	 9.984981e-01	 8.426383e+00
 7.850835e-01	 1.013939e+00	 8.060055e+00
 7.652646e-01	 1.028980e+00	 7.709398e+00
 8.694272e-01	 9.585598e-01	 9.624090e+00
 8.505950e-01	 9.753095e-01	 9.272908e+00
 8.314530e-01	 9.916786e-01	 8.905156e+00
 8.120127e-01	 1.007659e+00	 8.533258e+00
 7.922861e-01	 1.023241e+00	 8.168505e+00
 7.722854e-01	 1.038420e+00	 7.820861e+00
 7.371815e-01	 9.912189e-01	 7.172741e+00
 7.178400e-01	 1.005315e+00	 6.822377e+00
 6.982607e-01	 1.019011e+00	 6.465776e+00
 6.784558e-01	 1.032303e+00	 6.108605e+00
 6.584378e-01	 1.045185e+00	 5.755024e+00
 6.382192e-01	 1.057652e+00	 5.407635e+00
 7.442023e-01	 1.000659e+00	 7.318618e+00
 7.246766e-01	 1.014889e+00	 6.967888e+00
 7.049108e-01	 1.028716e+00	 6.610144e+00
 6.849173e-01	 1.042134e+00	 6.251922e+00
 6.647087e-01	 1.055139e+00	 5.898244e+00
 6.442975e-01	 1.067725e+00	 5.552555e+00
 7.512231e-01	 1.010099e+00	 7.457320e+00
 7.315132e-01	 1.024463e+00	 7.107141e+00
 7.115609e-01	 1.038421e+00	 6.749972e+00
 6.913788e-01	 1.051966e+00	 6.392586e+00
 6.709795e-01	 1.065093e+00	 6.040198e+00
 6.503758e-01	 1.077798e+00	 5.696392e+00
 7.582438e-01	 1.019539e+00	 7.587898e+00
 7.383497e-01	 1.034038e+00	 7.239468e+00
 7.182110e-01	 1.048126e+00	 6.884600e+00
 6.978403e-01	 1.061797e+00	 6.529694e+00
 6.772503e-01	 1.075047e+00	 6.179506e+00
 6.564541e-01	 1.087871e+00	 5.837074e+00
 7.652646e-01	 1.028980e+00	 7.709398e+00
 7.451863e-01	 1.043612e+00	 7.364180e+00
 7.248611e-01	 1.057831e+00	 7.013344e+00
 7.043018e-01	 1.071629e+00	 6.662323e+00
 6.835212e-01	 1.085001e+00	 6.314783e+00
 6.625324e-01	 1.097944e+00	 5.972552e+00
 7.722854e-01	 1.038420e+00	 7.820861e+00
 7.520229e-01	 1.053187e+00	 7.480573e+00
 7.315112e-01	 1.067535e+00	 7.135500e+00
 7.107633e-01	 1.081460e+00	 6.789536e+00
 6.897920e-01	 1.094955e+00	 6.444644e+00
 6.686106e-01	 1.108016e+00	 6.100793e+00
 6.382192e-01	 1.057652e+00	 5.407635e+00
 6.178127e-01	 1.069700e+00	 5.078533e+00
 5.972311e-01	 1.081326e+00	 4.774783e+00
 5.764871e-01	 1.092526e+00	 4.486988e+00
 5.555938e-01	 1.103298e+00	 4.197531e+00
 5.345638e-01	 1.113640e+00	 3.895649e+00
 6.442975e-01	 1.067725e+00	 5.552555e+00
 6.236967e-01	 1.079888e+00	 5.226167e+00
 6.029190e-01	 1.091625e+00	 4.924065e+00
 5.819775e-01	 1.102932e+00	 4.636974e+00
 5.608851e-01	 1.113806e+00	 4.346050e+00
 5.396549e-01	 1.124246e+00	 4.037262e+00
 6.503758e-01	 1.077798e+00	 5.696392e+00
 6.295806e-01	 1.090076e+00	 5.371063e+00
 6.086069e-01	 1.101923e+00	 5.067840e+00
 5.874678e-01	 1.113337e+00	 4.778089e+00
 5.661765e-01	 1.124314e+00	 4.484814e+00
 5.447460e-01	 1.134852e+00	 4.171160e+00
 6.564541e-01	 1.087871e+00	 5.837074e+00
 6.354645e-01	 1.100263e+00	 5.510601e+00
 6.142948e-01	 1.112221e+00	 5.203386e+00
 5.929582e-01	 1.123742e+00	 4.908215e+00
 5.714679e-01	 1.134821e+00	 4.612109e+00
 5.498371e-01	 1.145458e+00	 4.296669e+00
 6.625324e-01	 1.097944e+00	 5.972552e+00
 6.413485e-01	 1.110451e+00	 5.642196e+00
 6.199827e-01	 1.122520e+00	 5.328020e+00
 5.984486e-01	 1.134147e+00	 5.025474e+00
 5.767592e-01	 1.145329e+00	 4.726208e+00
 5.549282e-01	 1.156064e+00	 4.413072e+00
 6.686106e-01	 1.108016e+00	 6.100793e+00
 6.472324e-01	 1.120639e+00	 5.763301e+00
 6.256707e-01	 1.132818e+00	 5.439095e+00
 6.039389e-01	 1.144552e+00	 5.127515e+00
 5.820506e-01	 1.155836e+00	 4.825379e+00
 5.600193e-01	 1.166670e+00	 4.519607e+00
 5.345638e-01	 1.113640e+00	 3.895649e+00
 5.134103e-01	 1.123549e+00	 3.589349e+00
 4.921459e-01	 1.133024e+00	 3.294917e+00
 4.707836e-01	 1.142066e+00	 3.014350e+00
 4.493360e-01	 1.150673e+00	 2.749478e+00
 4.278159e-01	 1.158846e+00	 2.502014e+00
 5.396549e-01	 1.124246e+00	 4.037262e+00
 5.182999e-01	 1.134249e+00	 3.720359e+00
 4.968330e-01	 1.143815e+00	 3.415796e+00
 4.752673e-01	 1.152943e+00	 3.127812e+00
 4.536154e-01	 1.161632e+00	 2.860515e+00
 4.318903e-01	 1.169883e+00	 2.617910e+00
 5.447460e-01	 1.134852e+00	 4.171160e+00
 5.231895e-01	 1.144950e+00	 3.849986e+00
 5.015201e-01	 1.154606e+00	 3.545576e+00
 4.797509e-01	 1.163819e+00	 3.263255e+00
 4.578948e-01	 1.172591e+00	 3.008214e+00
 4.359647e-01	 1.180920e+00	 2.778993e+00
 5.498371e-01	 1.145458e+00	 4.296669e+00
 5.280791e-01	 1.155650e+00	 3.978565e+00
 5.062072e-01	 1.165396e+00	 3.685253e+00
 4.842346e-01	 1.174696e+00	 3.422021e+00
 4.621742e-01	 1.183550e+00	 3.178021e+00
 4.400392e-01	 1.191956e+00	 2.927257e+00
 5.549282e-01	 1.156064e+00	 4.413072e+00
 5.329688e-01	 1.166350e+00	 4.106352e+00
 5.108943e-01	 1.176187e+00	 3.835725e+00
 4.887182e-01	 1.185573e+00	 3.580032e+00
 4.664536e-01	 1.194508e+00	 3.316120e+00
 4.441136e-01	 1.202993e+00	 3.050695e+00
 5.600193e-01	 1.166670e+00	 4.519607e+00
 5.378584e-01	 1.177051e+00	 4.233434e+00
 5.155815e-01	 1.186978e+00	 3.965619e+00
 4.932019e-01	 1.196450e+00	 3.693295e+00
 4.707330e-01	 1.205467e+00	 3.420333e+00
 4.481880e-01	 1.214030e+00	 3.151664e+00
 4.278159e-01	 1.158846e+00	 2.502014e+00
 4.062356e-01	 1.166587e+00	 2.275368e+00
 3.846076e-01	 1.173895e+00	 2.072486e+00
 3.629442e-01	 1.180772e+00	 1.887706e+00
 3.412573e-01	 1.187222e+00	 1.699682e+00
 3.195588e-01	 1.193245e+00	 1.511806e+00
 4.318903e-01	 1.169883e+00	 2.617910e+00
 4.101045e-01	 1.177697e+00	 2.404464e+00
 3.882705e-01	 1.185075e+00	 2.198178e+00
 3.664008e-01	 1.192018e+00	 1.988780e+00
 3.445073e-01	 1.198528e+00	 1.781049e+00
 3.226022e-01	 1.204609e+00	 1.580305e+00
 4.359647e-01	 1.180920e+00	 2.778993e+00
 4.139734e-01	 1.188807e+00	 2.548729e+00
 3.919335e-01	 1.196254e+00	 2.317707e+00
 3.698574e-01	 1.203263e+00	 2.089506e+00
 3.477574e-01	 1.209835e+00	 1.868330e+00
 3.256456e-01	 1.215974e+00	 1.658925e+00
 4.400392e-01	 1.191956e+00	 2.927257e+00
 4.178423e-01	 1.199918e+00	 2.676706e+00
 3.955964e-01	 1.207434e+00	 2.430389e+00
 3.733140e-01	 1.214509e+00	 2.191136e+00
 3.510075e-01	 1.221142e+00	 1.962401e+00
 3.286890e-01	 1.227338e+00	 1.748184e+00
 4.441136e-01	 1.202993e+00	 3.050695e+00
 4.217112e-01	 1.211028e+00	 2.790405e+00
 3.992593e-01	 1.218614e+00	 2.537838e+00
 3.767706e-01	 1.225754e+00	 2.294897e+00
 3.542575e-01	 1.232449e+00	 2.064120e+00
 3.317325e-01	 1.238702e+00	 1.848596e+00
 4.481880e-01	 1.214030e+00	 3.151664e+00
 4.255801e-01	 1.222138e+00	 2.891789e+00
 4.029223e-01	 1.229794e+00	 2.641628e+00
 3.802272e-01	 1.236999e+00	 2.401991e+00
 3.575076e-01	 1.243756e+00	 2.174332e+00
 3.347759e-01	 1.250066e+00	 1.960669e+00
 3.195588e-01	 1.193245e+00	 1.511806e+00
 2.978604e-01	 1.198846e+00	 1.330782e+00
 2.761734e-01	 1.204026e+00	 1.159475e+00
 2.545092e-01	 1.208791e+00	 9.984923e-01
 2.328785e-01	 1.213144e+00	 8.487758e-01
 2.112921e-01	 1.217090e+00	 7.115627e-01
 3.226022e-01	 1.204609e+00	 1.580305e+00
 3.006971e-01	 1.210263e+00	 1.392313e+00
 2.788037e-01	 1.215493e+00	 1.218397e+00
 2.569331e-01	 1.220304e+00	 1.057841e+00
 2.350964e-01	 1.224698e+00	 9.102567e-01
 2.133044e-01	 1.228681e+00	 7.755493e-01
 3.256456e-01	 1.215974e+00	 1.658925e+00
 3.035339e-01	 1.221681e+00	 1.465986e+00
 2.814339e-01	 1.226960e+00	 1.289657e+00
 2.593570e-01	 1.231816e+00	 1.128472e+00
 2.373143e-01	 1.236252e+00	 9.812810e-01
 2.153168e-01	 1.240272e+00	 8.472256e-01
 3.286890e-01	 1.227338e+00	 1.748184e+00
 3.063707e-01	 1.233098e+00	 1.552036e+00
 2.840641e-01	 1.238427e+00	 1.373324e+00
 2.617809e-01	 1.243328e+00	 1.210381e+00
 2.395322e-01	 1.247806e+00	 1.061853e+00
 2.173291e-01	 1.251864e+00	 9.266683e-01
 3.317325e-01	 1.238702e+00	 1.848596e+00
 3.092074e-01	 1.244516e+00	 1.650704e+00
 2.866943e-01	 1.249894e+00	 1.469473e+00
 2.642048e-01	 1.254841e+00	 1.303572e+00
 2.417501e-01	 1.259359e+00	 1.151981e+00
 2.193414e-01	 1.263455e+00	 1.013955e+00
 3.347759e-01	 1.250066e+00	 1.960669e+00
 3.120442e-01	 1.255933e+00	 1.762234e+00
 2.893246e-01	 1.261361e+00	 1.578186e+00
 2.666287e-01	 1.266353e+00	 1.408056e+00
 2.439680e-01	 1.270913e+00	 1.251681e+00
 2.213537e-01	 1.275046e+00	 1.109165e+00
 2.112921e-01	 1.217090e+00	 7.115627e-01
 1.897604e-01	 1.220632e+00	 5.872910e-01
 1.682934e-01	 1.223776e+00	 4.754671e-01
 1.469010e-01	 1.226528e+00	 3.762995e-01
 1.255926e-01	 1.228893e+00	 2.902085e-01
 1.043775e-01	 1.230876e+00	 2.178129e-01
 2.133044e-01	 1.228681e+00	 7.755493e-01
 1.915676e-01	 1.232257e+00	 6.530415e-01
 1.698962e-01	 1.235431e+00	 5.422206e-01
 1.483000e-01	 1.238210e+00	 4.436073e-01
 1.267887e-01	 1.240597e+00	 3.579286e-01
 1.053716e-01	 1.242599e+00	 2.861033e-01
 2.153168e-01	 1.240272e+00	 8.472256e-01
 1.933749e-01	 1.243882e+00	 7.250316e-01
 1.714990e-01	 1.247087e+00	 6.142076e-01
 1.496991e-01	 1.249891e+00	 5.154329e-01
 1.279849e-01	 1.252301e+00	 4.295876e-01
 1.063656e-01	 1.254322e+00	 3.577380e-01
 2.173291e-01	 1.251864e+00	 9.266683e-01
 1.951821e-01	 1.255507e+00	 8.034256e-01
 1.731018e-01	 1.258742e+00	 6.916579e-01
 1.510982e-01	 1.261572e+00	 5.920538e-01
 1.291810e-01	 1.264004e+00	 5.054978e-01
 1.073597e-01	 1.266044e+00	 4.330552e-01
 2.193414e-01	 1.263455e+00	 1.013955e+00
 1.969894e-01	 1.267132e+00	 8.883840e-01
 1.747046e-01	 1.270397e+00	 7.747935e-01
 1.524972e-01	 1.273253e+00	 6.737373e-01
 1.303771e-01	 1.275708e+00	 5.859589e-01
 1.083538e-01	 1.277767e+00	 5.123789e-01
 2.213537e-01	 1.275046e+00	 1.109165e+00
 1.987966e-01	 1.278757e+00	 9.800639e-01
 1.763074e-01	 1.282052e+00	 8.638299e-01
 1.538963e-01	 1.284934e+00	 7.607408e-01
 1.315732e-01	 1.287412e+00	 6.712590e-01
 1.093479e-01	 1.289490e+00	 5.960197e-01
 1.043775e-01	 1.230876e+00	 2.178129e-01
 8.326451e-02	 1.232485e+00	 1.598503e-01
 6.226220e-02	 1.233724e+00	 1.157971e-01
 4.137880e-02	 1.234601e+00	 8.468655e-02
 2.062221e-02	 1.235122e+00	 6.577346e-02
 0.000000e+00	 1.235294e+00	 5.853572e-02
 1.053716e-01	 1.242599e+00	 2.861033e-01
 8.405750e-02	 1.244223e+00	 2.290043e-01
 6.285517e-02	 1.245474e+00	 1.858458e-01
 4.177289e-02	 1.246359e+00	 1.553648e-01
 2.081861e-02	 1.246885e+00	 1.365280e-01
 0.000000e+00	 1.247059e+00	 1.285356e-01
 1.063656e-01	 1.254322e+00	 3.577380e-01
 8.485050e-02	 1.255961e+00	 3.007918e-01
 6.344815e-02	 1.257224e+00	 2.578251e-01
 4.216697e-02	 1.258117e+00	 2.274599e-01
 2.101502e-02	 1.258648e+00	 2.085497e-01
 0.000000e+00	 1.258824e+00	 2.001847e-01
 1.073597e-01	 1.266044e+00	 4.330552e-01
 8.564349e-02	 1.267699e+00	 3.755748e-01
 6.404112e-02	 1.268973e+00	 3.321199e-01
 4.256105e-02	 1.269875e+00	 3.013732e-01
 2.121142e-02	 1.270411e+00	 2.822449e-01
 0.000000e+00	 1.270588e+00	 2.738783e-01
 1.083538e-01	 1.277767e+00	 5.123789e-01
 8.643649e-02	 1.279437e+00	 4.537002e-01
 6.463409e-02	 1.280723e+00	 4.090986e-01
 4.295514e-02	 1.281633e+00	 3.774888e-01
 2.140782e-02	 1.282174e+00	 3.580026e-01
 0.000000e+00	 1.282353e+00	 3.499947e-01
 1.093479e-01	 1.289490e+00	 5.960197e-01
 8.722948e-02	 1.291174e+00	 5.354998e-01
 6.522707e-02	 1.292473e+00	 4.891138e-01
 4.334922e-02	 1.293391e+00	 4.561745e-01
 2.160422e-02	 1.293937e+00	 4.361955e-01
 0.000000e+00	 1.294118e+00	 4.288966e-01
 1.294118e+00	 0.000000e+00	 1.844388e+01
 1.293937e+00	 2.160422e-02	 1.843678e+01
 1.293391e+00	 4.334922e-02	 1.842576e+01
 1.292473e+00	 6.522707e-02	 1.840884e+01
 1.291174e+00	 8.722948e-02	 1.838417e+01
 1.289490e+00	 1.093479e-01	 1.835009e+01
 1.305882e+00	 0.000000e+00	 1.819970e+01
 1.305700e+00	 2.180062e-02	 1.819300e+01
 1.305150e+00	 4.374330e-02	 1.818286e+01
 1.304223e+00	 6.582004e-02	 1.816726e+01
 1.302912e+00	 8.802248e-02	 1.814434e+01
 1.301212e+00	 1.103419e-01	 1.811247e+01
 1.317647e+00	 0.000000e+00	 1.796577e+01
 1.317463e+00	 2.199703e-02	 1.795937e+01
 1.316908e+00	 4.413739e-02	 1.795008e+01
 1.315972e+00	 6.641301e-02	 1.793579e+01
 1.314650e+00	 8.881547e-02	 1.791461e+01
 1.312935e+00	 1.113360e-01	 1.788492e+01
 1.329412e+00	 0.000000e+00	 1.774143e+01
 1.329227e+00	 2.219343e-02	 1.773523e+01
 1.328666e+00	 4.453147e-02	 1.772672e+01
 1.327722e+00	 6.700599e-02	 1.771372e+01
 1.326388e+00	 8.960847e-02	 1.769429e+01
 1.324658e+00	 1.123301e-01	 1.766676e+01
 1.341176e+00	 0.000000e+00	 1.752604e+01
 1.340990e+00	 2.238983e-02	 1.751990e+01
 1.340424e+00	 4.492556e-02	 1.751212e+01
 1.339472e+00	 6.759896e-02	 1.750040e+01
 1.338126e+00	 9.040146e-02	 1.748271e+01
 1.336380e+00	 1.133241e-01	 1.745735e+01
 1.352941e+00	 0.000000e+00	 1.731896e+01
 1.352753e+00	 2.258623e-02	 1.731273e+01
 1.352182e+00	 4.531964e-02	 1.730562e+01
 1.351222e+00	 6.819193e-02	 1.729516e+01
 1.349864e+00	 9.119446e-02	 1.727922e+01
 1.348103e+00	 1.143182e-01	 1.725604e+01
 1.289490e+00	 1.093479e-01	 1.835009e+01
 1.287412e+00	 1.315732e-01	 1.830708e+01
 1.284934e+00	 1.538963e-01	 1.825671e+01
 1.282052e+00	 1.763074e-01	 1.819936e+01
 1.278757e+00	 1.987966e-01	 1.813576e+01
 1.275046e+00	 2.213537e-01	 1.806700e+01
 1.301212e+00	 1.103419e-01	 1.811247e+01
 1.299115e+00	 1.327693e-01	 1.807228e+01
 1.296616e+00	 1.552953e-01	 1.802541e+01
 1.293707e+00	 1.779102e-01	 1.797223e+01
 1.290382e+00	 2.006039e-01	 1.791347e+01
 1.286638e+00	 2.233660e-01	 1.785028e+01
 1.312935e+00	 1.113360e-01	 1.788492e+01
 1.310819e+00	 1.339655e-01	 1.784746e+01
 1.308297e+00	 1.566944e-01	 1.780397e+01
 1.305362e+00	 1.795130e-01	 1.775481e+01
 1.302007e+00	 2.024111e-01	 1.770074e+01
 1.298229e+00	 2.253783e-01	 1.764299e+01
 1.324658e+00	 1.123301e-01	 1.766676e+01
 1.322523e+00	 1.351616e-01	 1.763197e+01
 1.319978e+00	 1.580934e-01	 1.759172e+01
 1.317017e+00	 1.811158e-01	 1.754639e+01
 1.313633e+00	 2.042183e-01	 1.749681e+01
 1.309820e+00	 2.273906e-01	 1.744426e+01
 1.336380e+00	 1.133241e-01	 1.745735e+01
 1.334227e+00	 1.363577e-01	 1.742516e+01
 1.331659e+00	 1.594925e-01	 1.738800e+01
 1.328672e+00	 1.827186e-01	 1.734628e+01
 1.325258e+00	 2.060256e-01	 1.730090e+01
 1.321412e+00	 2.294029e-01	 1.725325e+01
 1.348103e+00	 1.143182e-01	 1.725604e+01
 1.345930e+00	 1.375538e-01	 1.722640e+01
 1.343341e+00	 1.608916e-01	 1.719215e+01
 1.340327e+00	 1.843214e-01	 1.715378e+01
 1.336883e+00	 2.078328e-01	 1.711227e+01
 1.333003e+00	 2.314152e-01	 1.706911e+01
 1.275046e+00	 2.213537e-01	 1.806700e+01
 1.270913e+00	 2.439680e-01	 1.798892e+01
 1.266353e+00	 2.666287e-01	 1.789733e+01
 1.261361e+00	 2.893246e-01	 1.779368e+01
 1.255933e+00	 3.120442e-01	 1.767962e+01
 1.250066e+00	 3.347759e-01	 1.755698e+01
 1.286638e+00	 2.233660e-01	 1.785028e+01
 1.282467e+00	 2.461859e-01	 1.777811e+01
 1.277865e+00	 2.690526e-01	 1.769258e+01
 1.272828e+00	 2.919548e-01	 1.759551e+01
 1.267351e+00	 3.148810e-01	 1.748899e+01
 1.261430e+00	 3.378193e-01	 1.737528e+01
 1.298229e+00	 2.253783e-01	 1.764299e+01
 1.294021e+00	 2.484038e-01	 1.757661e+01
 1.289377e+00	 2.714765e-01	 1.749695e+01
 1.284295e+00	 2.945850e-01	 1.740622e+01
 1.278769e+00	 3.177177e-01	 1.730687e+01
 1.272795e+00	 3.408627e-01	 1.720160e+01
 1.309820e+00	 2.273906e-01	 1.744426e+01
 1.305574e+00	 2.506217e-01	 1.738346e+01
 1.300890e+00	 2.739004e-01	 1.730949e+01
 1.295762e+00	 2.972152e-01	 1.722486e+01
 1.290186e+00	 3.205545e-01	 1.713238e+01
 1.284159e+00	 3.439061e-01	 1.703517e+01
 1.321412e+00	 2.294029e-01	 1.725325e+01
 1.317128e+00	 2.528396e-01	 1.719773e+01
 1.312402e+00	 2.763243e-01	 1.712921e+01
 1.307229e+00	 2.998455e-01	 1.705047e+01
 1.301604e+00	 3.233913e-01	 1.696466e+01
 1.295523e+00	 3.469495e-01	 1.687528e+01
 1.333003e+00	 2.314152e-01	 1.706911e+01
 1.328682e+00	 2.550574e-01	 1.701851e+01
 1.323914e+00	 2.787482e-01	 1.695518e+01
 1.318696e+00	 3.024757e-01	 1.688215e+01
 1.313021e+00	 3.262280e-01	 1.680286e+01
 1.306887e+00	 3.499930e-01	 1.672117e+01
 1.250066e+00	 3.347759e-01	 1.755698e+01
 1.243756e+00	 3.575076e-01	 1.742648e+01
 1.236999e+00	 3.802272e-01	 1.728873e+01
 1.229794e+00	 4.029223e-01	 1.714526e+01
 1.222138e+00	 4.255801e-01	 1.699733e+01
 1.214030e+00	 4.481880e-01	 1.684577e+01
 1.261430e+00	 3.378193e-01	 1.737528e+01
 1.255063e+00	 3.607577e-01	 1.725471e+01
 1.248245e+00	 3.836838e-01	 1.712710e+01
 1.240974e+00	 4.065852e-01	 1.699393e+01
 1.233249e+00	 4.294491e-01	 1.685640e+01
 1.225066e+00	 4.522625e-01	 1.671528e+01
 1.272795e+00	 3.408627e-01	 1.720160e+01
 1.266370e+00	 3.640077e-01	 1.709023e+01
 1.259490e+00	 3.871404e-01	 1.697184e+01
 1.252154e+00	 4.102481e-01	 1.684791e+01
 1.244359e+00	 4.333180e-01	 1.671965e+01
 1.236103e+00	 4.563369e-01	 1.658787e+01
 1.284159e+00	 3.439061e-01	 1.703517e+01
 1.277677e+00	 3.672578e-01	 1.693245e+01
 1.270736e+00	 3.905970e-01	 1.682242e+01
 1.263334e+00	 4.139111e-01	 1.670670e+01
 1.255469e+00	 4.371869e-01	 1.658657e+01
 1.247140e+00	 4.604114e-01	 1.646292e+01
 1.295523e+00	 3.469495e-01	 1.687528e+01
 1.288983e+00	 3.705079e-01	 1.678074e+01
 1.281981e+00	 3.940537e-01	 1.667832e+01
 1.274514e+00	 4.175740e-01	 1.656979e+01
 1.266580e+00	 4.410558e-01	 1.645662e+01
 1.258176e+00	 4.644858e-01	 1.633982e+01
 1.306887e+00	 3.499930e-01	 1.672117e+01
 1.300290e+00	 3.737580e-01	 1.663450e+01
 1.293227e+00	 3.975103e-01	 1.653899e+01
 1.285694e+00	 4.212369e-01	 1.643668e+01
 1.277690e+00	 4.449247e-01	 1.632926e+01
 1.269213e+00	 4.685602e-01	 1.621796e+01
 1.214030e+00	 4.481880e-01	 1.684577e+01
 1.205467e+00	 4.707330e-01	 1.668309e+01
 1.196450e+00	 4.932019e-01	 1.650020e+01
 1.186978e+00	 5.155815e-01	 1.629440e+01
 1.177051e+00	 5.378584e-01	 1.606183e+01
 1.166670e+00	 5.600193e-01	 1.579355e+01
 1.225066e+00	 4.522625e-01	 1.671528e+01
 1.216426e+00	 4.750124e-01	 1.656233e+01
 1.207327e+00	 4.976855e-01	 1.638825e+01
 1.197768e+00	 5.202686e-01	 1.619120e+01
 1.187751e+00	 5.427480e-01	 1.596825e+01
 1.177276e+00	 5.651103e-01	 1.571527e+01
 1.236103e+00	 4.563369e-01	 1.658787e+01
 1.227385e+00	 4.792918e-01	 1.644399e+01
 1.218204e+00	 5.021692e-01	 1.627894e+01
 1.208559e+00	 5.249557e-01	 1.609176e+01
 1.198452e+00	 5.476376e-01	 1.588056e+01
 1.187882e+00	 5.702014e-01	 1.564232e+01
 1.247140e+00	 4.604114e-01	 1.646292e+01
 1.238343e+00	 4.835712e-01	 1.632733e+01
 1.229080e+00	 5.066528e-01	 1.617139e+01
 1.219350e+00	 5.296428e-01	 1.599510e+01
 1.209152e+00	 5.525273e-01	 1.579762e+01
 1.198488e+00	 5.752925e-01	 1.557715e+01
 1.258176e+00	 4.644858e-01	 1.633982e+01
 1.249302e+00	 4.878506e-01	 1.621163e+01
 1.239957e+00	 5.111365e-01	 1.606476e+01
 1.230141e+00	 5.343299e-01	 1.590022e+01
 1.219853e+00	 5.574169e-01	 1.571833e+01
 1.209094e+00	 5.803836e-01	 1.551850e+01
 1.269213e+00	 4.685602e-01	 1.621796e+01
 1.260261e+00	 4.921299e-01	 1.609614e+01
 1.250834e+00	 5.156201e-01	 1.595819e+01
 1.240931e+00	 5.390170e-01	 1.580617e+01
 1.230553e+00	 5.623065e-01	 1.564157e+01
 1.219700e+00	 5.854747e-01	 1.546513e+01
 1.166670e+00	 5.600193e-01	 1.579355e+01
 1.155836e+00	 5.820506e-01	 1.555804e+01
 1.144552e+00	 6.039389e-01	 1.539062e+01
 1.132818e+00	 6.256707e-01	 1.517846e+01
 1.120639e+00	 6.472324e-01	 1.492230e+01
 1.108016e+00	 6.686106e-01	 1.463140e+01
 1.177276e+00	 5.651103e-01	 1.571527e+01
 1.166344e+00	 5.873420e-01	 1.550625e+01
 1.154957e+00	 6.094293e-01	 1.534009e+01
 1.143116e+00	 6.313586e-01	 1.512929e+01
 1.130826e+00	 6.531163e-01	 1.488051e+01
 1.118089e+00	 6.746889e-01	 1.460229e+01
 1.187882e+00	 5.702014e-01	 1.564232e+01
 1.176852e+00	 5.926333e-01	 1.545580e+01
 1.165362e+00	 6.149196e-01	 1.528761e+01
 1.153415e+00	 6.370465e-01	 1.508056e+01
 1.141014e+00	 6.590002e-01	 1.484056e+01
 1.128162e+00	 6.807672e-01	 1.457522e+01
 1.198488e+00	 5.752925e-01	 1.557715e+01
 1.187359e+00	 5.979247e-01	 1.540320e+01
 1.175767e+00	 6.204100e-01	 1.523168e+01
 1.163713e+00	 6.427344e-01	 1.503078e+01
 1.151201e+00	 6.648842e-01	 1.480106e+01
 1.138235e+00	 6.868455e-01	 1.454891e+01
 1.209094e+00	 5.803836e-01	 1.551850e+01
 1.197867e+00	 6.032161e-01	 1.535068e+01
 1.186172e+00	 6.259003e-01	 1.517393e+01
 1.174011e+00	 6.484223e-01	 1.497850e+01
 1.161389e+00	 6.707681e-01	 1.476064e+01
 1.148308e+00	 6.929237e-01	 1.452211e+01
 1.219700e+00	 5.854747e-01	 1.546513e+01
 1.208374e+00	 6.085074e-01	 1.529700e+01
 1.196577e+00	 6.313907e-01	 1.511714e+01
 1.184310e+00	 6.541102e-01	 1.492419e+01
 1.171577e+00	 6.766520e-01	 1.471794e+01
 1.158381e+00	 6.990020e-01	 1.449361e+01
 1.108016e+00	 6.686106e-01	 1.463140e+01
 1.094955e+00	 6.897920e-01	 1.432645e+01
 1.081460e+00	 7.107633e-01	 1.402114e+01
 1.067535e+00	 7.315112e-01	 1.371635e+01
 1.053187e+00	 7.520229e-01	 1.341397e+01
 1.038420e+00	 7.722854e-01	 1.311688e+01
 1.118089e+00	 6.746889e-01	 1.460229e+01
 1.104910e+00	 6.960629e-01	 1.431198e+01
 1.091292e+00	 7.172247e-01	 1.402012e+01
 1.077240e+00	 7.381613e-01	 1.372721e+01
 1.062761e+00	 7.588594e-01	 1.343478e+01
 1.047860e+00	 7.793062e-01	 1.314549e+01
 1.128162e+00	 6.807672e-01	 1.457522e+01
 1.114864e+00	 7.023337e-01	 1.429885e+01
 1.101123e+00	 7.236862e-01	 1.401951e+01
 1.086945e+00	 7.448114e-01	 1.373745e+01
 1.072335e+00	 7.656960e-01	 1.345409e+01
 1.057300e+00	 7.863269e-01	 1.317202e+01
 1.138235e+00	 6.868455e-01	 1.454891e+01
 1.124818e+00	 7.086045e-01	 1.428594e+01
 1.110955e+00	 7.301477e-01	 1.401827e+01
 1.096650e+00	 7.514615e-01	 1.374613e+01
 1.081910e+00	 7.725326e-01	 1.347101e+01
 1.066740e+00	 7.933477e-01	 1.319564e+01
 1.148308e+00	 6.929237e-01	 1.452211e+01
 1.134772e+00	 7.148754e-01	 1.427212e+01
 1.120786e+00	 7.366092e-01	 1.401540e+01
 1.106355e+00	 7.581116e-01	 1.375237e+01
 1.091484e+00	 7.793692e-01	 1.348472e+01
 1.076181e+00	 8.003685e-01	 1.321554e+01
 1.158381e+00	 6.990020e-01	 1.449361e+01
 1.144726e+00	 7.211462e-01	 1.425631e+01
 1.130617e+00	 7.430707e-01	 1.400996e+01
 1.116060e+00	 7.647617e-01	 1.375528e+01
 1.101059e+00	 7.862057e-01	 1.349442e+01
 1.085621e+00	 8.073893e-01	 1.323095e+01
 1.038420e+00	 7.722854e-01	 1.311688e+01
 1.023241e+00	 7.922861e-01	 1.280558e+01
 1.007659e+00	 8.120127e-01	 1.246633e+01
 9.916786e-01	 8.314530e-01	 1.211240e+01
 9.753095e-01	 8.505950e-01	 1.175826e+01
 9.585598e-01	 8.694272e-01	 1.141951e+01
 1.047860e+00	 7.793062e-01	 1.314549e+01
 1.032544e+00	 7.994887e-01	 1.284075e+01
 1.016819e+00	 8.193946e-01	 1.250804e+01
 1.000694e+00	 8.390116e-01	 1.216090e+01
 9.841760e-01	 8.583277e-01	 1.181416e+01
 9.672739e-01	 8.773311e-01	 1.148384e+01
 1.057300e+00	 7.863269e-01	 1.317202e+01
 1.041846e+00	 8.066913e-01	 1.287370e+01
 1.025980e+00	 8.267766e-01	 1.254764e+01
 1.009709e+00	 8.465703e-01	 1.220748e+01
 9.930424e-01	 8.660603e-01	 1.186825e+01
 9.759881e-01	 8.852350e-01	 1.154619e+01
 1.066740e+00	 7.933477e-01	 1.319564e+01
 1.051148e+00	 8.138939e-01	 1.290358e+01
 1.035140e+00	 8.341585e-01	 1.258423e+01
 1.018724e+00	 8.541289e-01	 1.225116e+01
 1.001909e+00	 8.737930e-01	 1.191943e+01
 9.847023e-01	 8.931389e-01	 1.160536e+01
 1.076181e+00	 8.003685e-01	 1.321554e+01
 1.060450e+00	 8.210965e-01	 1.292958e+01
 1.044301e+00	 8.415404e-01	 1.261695e+01
 1.027740e+00	 8.616876e-01	 1.229103e+01
 1.010775e+00	 8.815257e-01	 1.196670e+01
 9.934165e-01	 9.010427e-01	 1.166022e+01
 1.085621e+00	 8.073893e-01	 1.323095e+01
 1.069752e+00	 8.282991e-01	 1.295091e+01
 1.053461e+00	 8.489224e-01	 1.264499e+01
 1.036755e+00	 8.692463e-01	 1.232619e+01
 1.019642e+00	 8.892584e-01	 1.200909e+01
 1.002131e+00	 9.089466e-01	 1.170969e+01
 9.585598e-01	 8.694272e-01	 1.141951e+01
 9.414382e-01	 8.879384e-01	 1.107852e+01
 9.239542e-01	 9.061176e-01	 1.071542e+01
 9.061176e-01	 9.239542e-01	 1.034331e+01
 8.879384e-01	 9.414382e-01	 9.975247e+00
 8.694272e-01	 9.585598e-01	 9.624090e+00
 9.672739e-01	 8.773311e-01	 1.148384e+01
 9.499968e-01	 8.960105e-01	 1.115126e+01
 9.323538e-01	 9.143550e-01	 1.079528e+01
 9.143550e-01	 9.323538e-01	 1.042906e+01
 8.960105e-01	 9.499968e-01	 1.006578e+01
 8.773311e-01	 9.672739e-01	 9.718388e+00
 9.759881e-01	 8.852350e-01	 1.154619e+01
 9.585553e-01	 9.040827e-01	 1.122143e+01
 9.407534e-01	 9.225924e-01	 1.087165e+01
 9.225924e-01	 9.407534e-01	 1.051037e+01
 9.040827e-01	 9.585553e-01	 1.015115e+01
 8.852350e-01	 9.759881e-01	 9.807324e+00
 9.847023e-01	 8.931389e-01	 1.160536e+01
 9.671138e-01	 9.121549e-01	 1.128776e+01
 9.491530e-01	 9.308299e-01	 1.094329e+01
 9.308299e-01	 9.491530e-01	 1.058609e+01
 9.121549e-01	 9.671138e-01	 1.023037e+01
 8.931389e-01	 9.847023e-01	 9.890175e+00
 9.934165e-01	 9.010427e-01	 1.166022e+01
 9.756723e-01	 9.202270e-01	 1.134902e+01
 9.575526e-01	 9.390673e-01	 1.100898e+01
 9.390673e-01	 9.575526e-01	 1.065509e+01
 9.202270e-01	 9.756723e-01	 1.030251e+01
 9.010427e-01	 9.934165e-01	 9.966243e+00
 1.002131e+00	 9.089466e-01	 1.170969e+01
 9.842309e-01	 9.282992e-01	 1.140407e+01
 9.659522e-01	 9.473047e-01	 1.106758e+01
 9.473047e-01	 9.659522e-01	 1.071633e+01
 9.282992e-01	 9.842309e-01	 1.036666e+01
 9.089466e-01	 1.002131e+00	 1.003485e+01
 8.694272e-01	 9.585598e-01	 9.624090e+00
 8.505950e-01	 9.753095e-01	 9.272908e+00
 8.314530e-01	 9.916786e-01	 8.905156e+00
 8.120127e-01	 1.007659e+00	 8.533258e+00
 7.922861e-01	 1.023241e+00	 8.168505e+00
 7.722854e-01	 1.038420e+00	 7.820861e+00
 8.773311e-01	 9.672739e-01	 9.718388e+00
 8.583277e-01	 9.841760e-01	 9.369764e+00
 8.390116e-01	 1.000694e+00	 9.003660e+00
 8.193946e-01	 1.016819e+00	 8.633316e+00
 7.994887e-01	 1.032544e+00	 8.270846e+00
 7.793062e-01	 1.047860e+00	 7.927030e+00
 8.852350e-01	 9.759881e-01	 9.807324e+00
 8.660603e-01	 9.930424e-01	 9.461884e+00
 8.465703e-01	 1.009709e+00	 9.098656e+00
 8.267766e-01	 1.025980e+00	 8.731227e+00
 8.066913e-01	 1.041846e+00	 8.372032e+00
 7.863269e-01	 1.057300e+00	 8.032137e+00
 8.931389e-01	 9.847023e-01	 9.890175e+00
 8.737930e-01	 1.001909e+00	 9.548728e+00
 8.541289e-01	 1.018724e+00	 9.189584e+00
 8.341585e-01	 1.035140e+00	 8.826220e+00
 8.138939e-01	 1.051148e+00	 8.470909e+00
 7.933477e-01	 1.066740e+00	 8.134487e+00
 9.010427e-01	 9.934165e-01	 9.966243e+00
 8.815257e-01	 1.010775e+00	 9.629767e+00
 8.616876e-01	 1.027740e+00	 9.275889e+00
 8.415404e-01	 1.044301e+00	 8.917534e+00
 8.210965e-01	 1.060450e+00	 8.566340e+00
 8.003685e-01	 1.076181e+00	 8.232419e+00
 9.089466e-01	 1.002131e+00	 1.003485e+01
 8.892584e-01	 1.019642e+00	 9.704487e+00
 8.692463e-01	 1.036755e+00	 9.357028e+00
 8.489224e-01	 1.053461e+00	 9.004422e+00
 8.282991e-01	 1.069752e+00	 8.657215e+00
 8.073893e-01	 1.085621e+00	 8.324307e+00
 7.722854e-01	 1.038420e+00	 7.820861e+00
 7.520229e-01	 1.053187e+00	 7.480573e+00
 7.315112e-01	 1.067535e+00	 7.135500e+00
 7.107633e-01	 1.081460e+00	 6.789536e+00
 6.897920e-01	 1.094955e+00	 6.444644e+00
 6.686106e-01	 1.108016e+00	 6.100793e+00
 7.793062e-01	 1.047860e+00	 7.927030e+00
 7.588594e-01	 1.062761e+00	 7.592072e+00
 7.381613e-01	 1.077240e+00	 7.252475e+00
 7.172247e-01	 1.091292e+00	 6.910830e+00
 6.960629e-01	 1.104910e+00	 6.567646e+00
 6.746889e-01	 1.118089e+00	 6.221282e+00
 7.863269e-01	 1.057300e+00	 8.032137e+00
 7.656960e-01	 1.072335e+00	 7.701144e+00
 7.448114e-01	 1.086945e+00	 7.364662e+00
 7.236862e-01	 1.101123e+00	 7.025014e+00
 7.023337e-01	 1.114864e+00	 6.682327e+00
 6.807672e-01	 1.128162e+00	 6.334457e+00
 7.933477e-01	 1.066740e+00	 8.134487e+00
 7.725326e-01	 1.081910e+00	 7.805662e+00
 7.514615e-01	 1.096650e+00	 7.469855e+00
 7.301477e-01	 1.110955e+00	 7.130126e+00
 7.086045e-01	 1.124818e+00	 6.787264e+00
 6.868455e-01	 1.138235e+00	 6.439706e+00
 8.003685e-01	 1.076181e+00	 8.232419e+00
 7.793692e-01	 1.091484e+00	 7.903545e+00
 7.581116e-01	 1.106355e+00	 7.565892e+00
 7.366092e-01	 1.120786e+00	 7.224234e+00
 7.148754e-01	 1.134772e+00	 6.881045e+00
 6.929237e-01	 1.148308e+00	 6.536394e+00
 8.073893e-01	 1.085621e+00	 8.324307e+00
 7.862057e-01	 1.101059e+00	 7.992757e+00
 7.647617e-01	 1.116060e+00	 7.650652e+00
 7.430707e-01	 1.130617e+00	 7.305436e+00
 7.211462e-01	 1.144726e+00	 6.962262e+00
 6.990020e-01	 1.158381e+00	 6.623860e+00
 6.686106e-01	 1.108016e+00	 6.100793e+00
 6.472324e-01	 1.120639e+00	 5.763301e+00
 6.256707e-01	 1.132818e+00	 5.439095e+00
 6.039389e-01	 1.144552e+00	 5.127515e+00
 5.820506e-01	 1.155836e+00	 4.825379e+00
 5.600193e-01	 1.166670e+00	 4.519607e+00
 6.746889e-01	 1.118089e+00	 6.221282e+00
 6.531163e-01	 1.130826e+00	 5.876970e+00
 6.313586e-01	 1.143116e+00	 5.545290e+00
 6.094293e-01	 1.154957e+00	 5.229508e+00
 5.873420e-01	 1.166344e+00	 4.930912e+00
 5.651103e-01	 1.177276e+00	 4.641942e+00
 6.807672e-01	 1.128162e+00	 6.334457e+00
 6.590002e-01	 1.141014e+00	 5.988063e+00
 6.370465e-01	 1.153415e+00	 5.657428e+00
 6.149196e-01	 1.165362e+00	 5.348645e+00
 5.926333e-01	 1.176852e+00	 5.065794e+00
 5.702014e-01	 1.187882e+00	 4.773103e+00
 6.868455e-01	 1.138235e+00	 6.439706e+00
 6.648842e-01	 1.151201e+00	 6.096721e+00
 6.427344e-01	 1.163713e+00	 5.776052e+00
 6.204100e-01	 1.175767e+00	 5.485552e+00
 5.979247e-01	 1.187359e+00	 5.202253e+00
 5.752925e-01	 1.198488e+00	 4.889564e+00
 6.929237e-01	 1.148308e+00	 6.536394e+00
 6.707681e-01	 1.161389e+00	 6.203026e+00
 6.484223e-01	 1.174011e+00	 5.901631e+00
 6.259003e-01	 1.186172e+00	 5.619640e+00
 6.032161e-01	 1.197867e+00	 5.317291e+00
 5.803836e-01	 1.209094e+00	 4.993335e+00
 6.990020e-01	 1.158381e+00	 6.623860e+00
 6.766520e-01	 1.171577e+00	 6.307012e+00
 6.541102e-01	 1.184310e+00	 6.021933e+00
 6.313907e-01	 1.196577e+00	 5.725472e+00
 6.085074e-01	 1.208374e+00	 5.413457e+00
 5.854747e-01	 1.219700e+00	 5.086408e+00
 5.600193e-01	 1.166670e+00	 4.519607e+00
 5.378584e-01	 1.177051e+00	 4.233434e+00
 5.155815e-01	 1.186978e+00	 3.965619e+00
 4.932019e-01	 1.196450e+00	 3.693295e+00
 4.707330e-01	 1.205467e+00	 3.420333e+00
 4.481880e-01	 1.214030e+00	 3.151664e+00
 5.651103e-01	 1.177276e+00	 4.641942e+00
 5.427480e-01	 1.187751e+00	 4.352501e+00
 5.202686e-01	 1.197768e+00	 4.066920e+00
 4.976855e-01	 1.207327e+00	 3.785755e+00
 4.750124e-01	 1.216426e+00	 3.510685e+00
 4.522625e-01	 1.225066e+00	 3.244405e+00
 5.702014e-01	 1.187882e+00	 4.773103e+00
 5.476376e-01	 1.198452e+00	 4.463767e+00
 5.249557e-01	 1.208559e+00	 4.166851e+00
 5.021692e-01	 1.218204e+00	 3.880928e+00
 4.792918e-01	 1.227385e+00	 3.605662e+00
 4.563369e-01	 1.236103e+00	 3.341693e+00
 5.752925e-01	 1.198488e+00	 4.889564e+00
 5.525273e-01	 1.209152e+00	 4.568669e+00
 5.296428e-01	 1.219350e+00	 4.266363e+00
 5.066528e-01	 1.229080e+00	 3.979393e+00
 4.835712e-01	 1.238343e+00	 3.705570e+00
 4.604114e-01	 1.247140e+00	 3.443665e+00
 5.803836e-01	 1.209094e+00	 4.993335e+00
 5.574169e-01	 1.219853e+00	 4.668638e+00
 5.343299e-01	 1.230141e+00	 4.366419e+00
 5.111365e-01	 1.239957e+00	 4.081746e+00
 4.878506e-01	 1.249302e+00	 3.810741e+00
 4.644858e-01	 1.258176e+00	 3.550485e+00
 5.854747e-01	 1.219700e+00	 5.086408e+00
 5.623065e-01	 1.230553e+00	 4.765102e+00
 5.390170e-01	 1.240931e+00	 4.467988e+00
 5.156201e-01	 1.250834e+00	 4.188600e+00
 4.921299e-01	 1.260261e+00	 3.921530e+00
 4.685602e-01	 1.269213e+00	 3.662342e+00
 4.481880e-01	 1.214030e+00	 3.151664e+00
 4.255801e-01	 1.222138e+00	 2.891789e+00
 4.029223e-01	 1.229794e+00	 2.641628e+00
 3.802272e-01	 1.236999e+00	 2.401991e+00
 3.575076e-01	 1.243756e+00	 2.174332e+00
 3.347759e-01	 1.250066e+00	 1.960669e+00
 4.522625e-01	 1.225066e+00	 3.244405e+00
 4.294491e-01	 1.233249e+00	 2.989110e+00
 4.065852e-01	 1.240974e+00	 2.744318e+00
 3.836838e-01	 1.248245e+00	 2.509941e+00
 3.607577e-01	 1.255063e+00	 2.286548e+00
 3.378193e-01	 1.261430e+00	 2.075284e+00
 4.563369e-01	 1.236103e+00	 3.341693e+00
 4.333180e-01	 1.244359e+00	 3.089359e+00
 4.102481e-01	 1.252154e+00	 2.847456e+00
 3.871404e-01	 1.259490e+00	 2.615548e+00
 3.640077e-01	 1.266370e+00	 2.393863e+00
 3.408627e-01	 1.272795e+00	 2.183221e+00
 4.604114e-01	 1.247140e+00	 3.443665e+00
 4.371869e-01	 1.255469e+00	 3.192593e+00
 4.139111e-01	 1.263334e+00	 2.951098e+00
 3.905970e-01	 1.270736e+00	 2.718924e+00
 3.672578e-01	 1.277677e+00	 2.496497e+00
 3.439061e-01	 1.284159e+00	 2.284840e+00
 4.644858e-01	 1.258176e+00	 3.550485e+00
 4.410558e-01	 1.266580e+00	 3.298897e+00
 4.175740e-01	 1.274514e+00	 3.055318e+00
 3.940537e-01	 1.281981e+00	 2.820199e+00
 3.705079e-01	 1.288983e+00	 2.594680e+00
 3.469495e-01	 1.295523e+00	 2.380503e+00
 4.685602e-01	 1.269213e+00	 3.662342e+00
 4.449247e-01	 1.277690e+00	 3.408380e+00
 4.212369e-01	 1.285694e+00	 3.160218e+00
 3.975103e-01	 1.293227e+00	 2.919521e+00
 3.737580e-01	 1.300290e+00	 2.688652e+00
 3.499930e-01	 1.306887e+00	 2.470576e+00
 3.347759e-01	 1.250066e+00	 1.960669e+00
 3.120442e-01	 1.255933e+00	 1.762234e+00
 2.893246e-01	 1.261361e+00	 1.578186e+00
 2.666287e-01	 1.266353e+00	 1.408056e+00
 2.439680e-01	 1.270913e+00	 1.251681e+00
 2.213537e-01	 1.275046e+00	 1.109165e+00
 3.378193e-01	 1.261430e+00	 2.075284e+00
 3.148810e-01	 1.267351e+00	 1.876501e+00
 2.919548e-01	 1.272828e+00	 1.689663e+00
 2.690526e-01	 1.277865e+00	 1.515225e+00
 2.461859e-01	 1.282467e+00	 1.353939e+00
 2.233660e-01	 1.286638e+00	 1.206816e+00
 3.408627e-01	 1.272795e+00	 2.183221e+00
 3.177177e-01	 1.278769e+00	 1.983535e+00
 2.945850e-01	 1.284295e+00	 1.794401e+00
 2.714765e-01	 1.289377e+00	 1.616810e+00
 2.484038e-01	 1.294021e+00	 1.452043e+00
 2.253783e-01	 1.298229e+00	 1.301630e+00
 3.439061e-01	 1.284159e+00	 2.284840e+00
 3.205545e-01	 1.290186e+00	 2.083810e+00
 2.972152e-01	 1.295762e+00	 1.892924e+00
 2.739004e-01	 1.300890e+00	 1.713329e+00
 2.506217e-01	 1.305574e+00	 1.546460e+00
 2.273906e-01	 1.309820e+00	 1.393986e+00
 3.469495e-01	 1.295523e+00	 2.380503e+00
 3.233913e-01	 1.301604e+00	 2.177800e+00
 2.998455e-01	 1.307229e+00	 1.985748e+00
 2.763243e-01	 1.312402e+00	 1.805291e+00
 2.528396e-01	 1.317128e+00	 1.637644e+00
 2.294029e-01	 1.321412e+00	 1.484255e+00
 3.499930e-01	 1.306887e+00	 2.470576e+00
 3.262280e-01	 1.313021e+00	 2.265973e+00
 3.024757e-01	 1.318696e+00	 2.073384e+00
 2.787482e-01	 1.323914e+00	 1.893193e+00
 2.550574e-01	 1.328682e+00	 1.726043e+00
 2.314152e-01	 1.333003e+00	 1.572798e+00
 2.213537e-01	 1.275046e+00	 1.109165e+00
 1.987966e-01	 1.278757e+00	 9.800639e-01
 1.763074e-01	 1.282052e+00	 8.638299e-01
 1.538963e-01	 1.284934e+00	 7.607408e-01
 1.315732e-01	 1.287412e+00	 6.712590e-01
 1.093479e-01	 1.289490e+00	 5.960197e-01
 2.233660e-01	 1.286638e+00	 1.206816e+00
 2.006039e-01	 1.290382e+00	 1.074072e+00
 1.779102e-01	 1.293707e+00	 9.550519e-01
 1.552953e-01	 1.296616e+00	 8.497770e-01
 1.327693e-01	 1.299115e+00	 7.584456e-01
 1.103419e-01	 1.301212e+00	 6.814242e-01
 2.253783e-01	 1.298229e+00	 1.301630e+00
 2.024111e-01	 1.302007e+00	 1.166111e+00
 1.795130e-01	 1.305362e+00	 1.044766e+00
 1.566944e-01	 1.308297e+00	 9.375300e-01
 1.339655e-01	 1.310819e+00	 8.445078e-01
 1.113360e-01	 1.312935e+00	 7.659643e-01
 2.273906e-01	 1.309820e+00	 1.393986e+00
 2.042183e-01	 1.313633e+00	 1.256476e+00
 1.811158e-01	 1.317017e+00	 1.133209e+00
 1.580934e-01	 1.319978e+00	 1.024202e+00
 1.351616e-01	 1.322523e+00	 9.296313e-01
 1.123301e-01	 1.324658e+00	 8.498231e-01
 2.294029e-01	 1.321412e+00	 1.484255e+00
 2.060256e-01	 1.325258e+00	 1.345454e+00
 1.827186e-01	 1.328672e+00	 1.220611e+00
 1.594925e-01	 1.331659e+00	 1.109988e+00
 1.363577e-01	 1.334227e+00	 1.013995e+00
 1.133241e-01	 1.336380e+00	 9.331759e-01
 2.314152e-01	 1.333003e+00	 1.572798e+00
 2.078328e-01	 1.336883e+00	 1.433325e+00
 1.843214e-01	 1.340327e+00	 1.307196e+00
 1.608916e-01	 1.343341e+00	 1.195078e+00
 1.375538e-01	 1.345930e+00	 1.097771e+00
 1.143182e-01	 1.348103e+00	 1.016191e+00
 1.093479e-01	 1.289490e+00	 5.960197e-01
 8.722948e-02	 1.291174e+00	 5.354998e-01
 6.522707e-02	 1.292473e+00	 4.891138e-01
 4.334922e-02	 1.293391e+00	 4.561745e-01
 2.160422e-02	 1.293937e+00	 4.361955e-01
 0.000000e+00	 1.294118e+00	 4.288966e-01
 1.103419e-01	 1.301212e+00	 6.814242e-01
 8.802248e-02	 1.302912e+00	 6.189816e-01
 6.582004e-02	 1.304223e+00	 5.707656e-01
 4.374330e-02	 1.305150e+00	 5.364668e-01
 2.180062e-02	 1.305700e+00	 5.159593e-01
 0.000000e+00	 1.305882e+00	 5.093067e-01
 1.113360e-01	 1.312935e+00	 7.659643e-01
 8.881547e-02	 1.314650e+00	 7.020655e-01
 6.641301e-02	 1.315972e+00	 6.525522e-01
 4.413739e-02	 1.316908e+00	 6.172921e-01
 2.199703e-02	 1.317463e+00	 5.963245e-01
 0.000000e+00	 1.317647e+00	 5.898659e-01
 1.123301e-01	 1.324658e+00	 8.498231e-01
 8.960847e-02	 1.326388e+00	 7.849346e-01
 6.700599e-02	 1.327722e+00	 7.346553e-01
 4.453147e-02	 1.328666e+00	 6.988349e-01
 2.219343e-02	 1.329227e+00	 6.774866e-01
 0.000000e+00	 1.329412e+00	 6.707946e-01
 1.133241e-01	 1.336380e+00	 9.331759e-01
 9.040146e-02	 1.338126e+00	 8.677638e-01
 6.759896e-02	 1.339472e+00	 8.172482e-01
 4.492556e-02	 1.340424e+00	 7.812705e-01
 2.238983e-02	 1.340990e+00	 7.596320e-01
 0.000000e+00	 1.341176e+00	 7.523036e-01
 1.143182e-01	 1.348103e+00	 1.016191e+00
 9.119446e-02	 1.349864e+00	 9.507200e-01
 6.819193e-02	 1.351222e+00	 9.004960e-01
 4.531964e-02	 1.352182e+00	 8.647662e-01
 2.258623e-02	 1.352753e+00	 8.429386e-01
 0.000000e+00	 1.352941e+00	 8.345942e-01
 1.352941e+00	 0.000000e+00	 1.731896e+01
 1.352753e+00	 2.258623e-02	 1.731273e+01
 1.352182e+00	 4.531964e-02	 1.730562e+01
 1.351222e+00	 6.819193e-02	 1.729516e+01
 1.349864e+00	 9.119446e-02	 1.727922e+01
 1.348103e+00	 1.143182e-01	 1.725604e+01
 1.364706e+00	 0.000000e+00	 1.712002e+01
 1.364516e+00	 2.278263e-02	 1.711362e+01
 1.363940e+00	 4.571372e-02	 1.710707e+01
 1.362971e+00	 6.878491e-02	 1.709779e+01
 1.361602e+00	 9.198745e-02	 1.708356e+01
 1.359825e+00	 1.153123e-01	 1.706253e+01
 1.376471e+00	 0.000000e+00	 1.692909e+01
 1.376279e+00	 2.297904e-02	 1.692250e+01
 1.375698e+00	 4.610781e-02	 1.691643e+01
 1.374721e+00	 6.937788e-02	 1.690821e+01
 1.373340e+00	 9.278045e-02	 1.689554e+01
 1.371548e+00	 1.163064e-01	 1.687658e+01
 1.388235e+00	 0.000000e+00	 1.674559e+01
 1.388042e+00	 2.317544e-02	 1.673884e+01
 1.387456e+00	 4.650189e-02	 1.673318e+01
 1.386471e+00	 6.997085e-02	 1.672589e+01
 1.385078e+00	 9.357345e-02	 1.671466e+01
 1.383271e+00	 1.173004e-01	 1.669768e+01
 1.400000e+00	 0.000000e+00	 1.656895e+01
 1.399805e+00	 2.337184e-02	 1.656211e+01
 1.399214e+00	 4.689598e-02	 1.655682e+01
 1.398221e+00	 7.056383e-02	 1.655034e+01
 1.396816e+00	 9.436644e-02	 1.654042e+01
 1.394993e+00	 1.182945e-01	 1.652530e+01
 1.411765e+00	 0.000000e+00	 1.639862e+01
 1.411568e+00	 2.356824e-02	 1.639179e+01
 1.410972e+00	 4.729006e-02	 1.638684e+01
 1.409970e+00	 7.115680e-02	 1.638108e+01
 1.408554e+00	 9.515944e-02	 1.637232e+01
 1.406716e+00	 1.192886e-01	 1.635891e+01
 1.348103e+00	 1.143182e-01	 1.725604e+01
 1.345930e+00	 1.375538e-01	 1.722640e+01
 1.343341e+00	 1.608916e-01	 1.719215e+01
 1.340327e+00	 1.843214e-01	 1.715378e+01
 1.336883e+00	 2.078328e-01	 1.711227e+01
 1.333003e+00	 2.314152e-01	 1.706911e+01
 1.359825e+00	 1.153123e-01	 1.706253e+01
 1.357634e+00	 1.387499e-01	 1.703538e+01
 1.355022e+00	 1.622906e-01	 1.700391e+01
 1.351982e+00	 1.859241e-01	 1.696865e+01
 1.348508e+00	 2.096401e-01	 1.693066e+01
 1.344594e+00	 2.334275e-01	 1.689153e+01
 1.371548e+00	 1.163064e-01	 1.687658e+01
 1.369338e+00	 1.399461e-01	 1.685188e+01
 1.366703e+00	 1.636897e-01	 1.682308e+01
 1.363637e+00	 1.875269e-01	 1.679074e+01
 1.360133e+00	 2.114473e-01	 1.675597e+01
 1.356186e+00	 2.354398e-01	 1.672044e+01
 1.383271e+00	 1.173004e-01	 1.669768e+01
 1.381042e+00	 1.411422e-01	 1.667535e+01
 1.378384e+00	 1.650887e-01	 1.664911e+01
 1.375292e+00	 1.891297e-01	 1.661951e+01
 1.371758e+00	 2.132545e-01	 1.658768e+01
 1.367777e+00	 2.374521e-01	 1.655538e+01
 1.394993e+00	 1.182945e-01	 1.652530e+01
 1.392745e+00	 1.423383e-01	 1.650523e+01
 1.390065e+00	 1.664878e-01	 1.648142e+01
 1.386947e+00	 1.907325e-01	 1.645439e+01
 1.383383e+00	 2.150618e-01	 1.642528e+01
 1.379368e+00	 2.394644e-01	 1.639586e+01
 1.406716e+00	 1.192886e-01	 1.635891e+01
 1.404449e+00	 1.435344e-01	 1.634099e+01
 1.401747e+00	 1.678868e-01	 1.631948e+01
 1.398602e+00	 1.923353e-01	 1.629487e+01
 1.395008e+00	 2.168690e-01	 1.626825e+01
 1.390960e+00	 2.414767e-01	 1.624141e+01
 1.333003e+00	 2.314152e-01	 1.706911e+01
 1.328682e+00	 2.550574e-01	 1.701851e+01
 1.323914e+00	 2.787482e-01	 1.695518e+01
 1.318696e+00	 3.024757e-01	 1.688215e+01
 1.313021e+00	 3.262280e-01	 1.680286e+01
 1.306887e+00	 3.499930e-01	 1.672117e+01
 1.344594e+00	 2.334275e-01	 1.689153e+01
 1.340236e+00	 2.572753e-01	 1.684539e+01
 1.335427e+00	 2.811721e-01	 1.678695e+01
 1.330163e+00	 3.051059e-01	 1.671944e+01
 1.324439e+00	 3.290648e-01	 1.664664e+01
 1.318252e+00	 3.530364e-01	 1.657278e+01
 1.356186e+00	 2.354398e-01	 1.672044e+01
 1.351789e+00	 2.594932e-01	 1.667831e+01
 1.346939e+00	 2.835960e-01	 1.662438e+01
 1.341630e+00	 3.077361e-01	 1.656219e+01
 1.335857e+00	 3.319016e-01	 1.649585e+01
 1.329616e+00	 3.560798e-01	 1.643001e+01
 1.367777e+00	 2.374521e-01	 1.655538e+01
 1.363343e+00	 2.617111e-01	 1.651682e+01
 1.358451e+00	 2.860199e-01	 1.646704e+01
 1.353096e+00	 3.103664e-01	 1.640991e+01
 1.347274e+00	 3.347383e-01	 1.634992e+01
 1.340980e+00	 3.591232e-01	 1.629218e+01
 1.379368e+00	 2.394644e-01	 1.639586e+01
 1.374897e+00	 2.639290e-01	 1.636048e+01
 1.369964e+00	 2.884438e-01	 1.631449e+01
 1.364563e+00	 3.129966e-01	 1.626211e+01
 1.358692e+00	 3.375751e-01	 1.620829e+01
 1.352344e+00	 3.621666e-01	 1.615859e+01
 1.390960e+00	 2.414767e-01	 1.624141e+01
 1.386451e+00	 2.661469e-01	 1.620885e+01
 1.381476e+00	 2.908676e-01	 1.616627e+01
 1.376030e+00	 3.156268e-01	 1.611831e+01
 1.370109e+00	 3.404119e-01	 1.607038e+01
 1.363709e+00	 3.652100e-01	 1.602855e+01
 1.306887e+00	 3.499930e-01	 1.672117e+01
 1.300290e+00	 3.737580e-01	 1.663450e+01
 1.293227e+00	 3.975103e-01	 1.653899e+01
 1.285694e+00	 4.212369e-01	 1.643668e+01
 1.277690e+00	 4.449247e-01	 1.632926e+01
 1.269213e+00	 4.685602e-01	 1.621796e+01
 1.318252e+00	 3.530364e-01	 1.657278e+01
 1.311597e+00	 3.770080e-01	 1.649400e+01
 1.304472e+00	 4.009669e-01	 1.640510e+01
 1.296874e+00	 4.248998e-01	 1.630837e+01
 1.288800e+00	 4.487936e-01	 1.620577e+01
 1.280249e+00	 4.726347e-01	 1.609877e+01
 1.329616e+00	 3.560798e-01	 1.643001e+01
 1.322904e+00	 3.802581e-01	 1.635935e+01
 1.315718e+00	 4.044235e-01	 1.627704e+01
 1.308054e+00	 4.285628e-01	 1.618561e+01
 1.299911e+00	 4.526625e-01	 1.608724e+01
 1.291286e+00	 4.767091e-01	 1.598364e+01
 1.340980e+00	 3.591232e-01	 1.629218e+01
 1.334211e+00	 3.835082e-01	 1.622973e+01
 1.326963e+00	 4.078801e-01	 1.615394e+01
 1.319234e+00	 4.322257e-01	 1.606752e+01
 1.311021e+00	 4.565314e-01	 1.597287e+01
 1.302323e+00	 4.807835e-01	 1.587189e+01
 1.352344e+00	 3.621666e-01	 1.615859e+01
 1.345518e+00	 3.867582e-01	 1.610434e+01
 1.338209e+00	 4.113367e-01	 1.603492e+01
 1.330414e+00	 4.358886e-01	 1.595323e+01
 1.322131e+00	 4.604003e-01	 1.586184e+01
 1.313359e+00	 4.848580e-01	 1.576285e+01
 1.363709e+00	 3.652100e-01	 1.602855e+01
 1.356825e+00	 3.900083e-01	 1.598237e+01
 1.349454e+00	 4.147933e-01	 1.591914e+01
 1.341594e+00	 4.395516e-01	 1.584190e+01
 1.333242e+00	 4.642693e-01	 1.575337e+01
 1.324396e+00	 4.889324e-01	 1.565584e+01
 1.269213e+00	 4.685602e-01	 1.621796e+01
 1.260261e+00	 4.921299e-01	 1.609614e+01
 1.250834e+00	 5.156201e-01	 1.595819e+01
 1.240931e+00	 5.390170e-01	 1.580617e+01
 1.230553e+00	 5.623065e-01	 1.564157e+01
 1.219700e+00	 5.854747e-01	 1.546513e+01
 1.280249e+00	 4.726347e-01	 1.609877e+01
 1.271220e+00	 4.964093e-01	 1.598235e+01
 1.261711e+00	 5.201038e-01	 1.585307e+01
 1.251722e+00	 5.437041e-01	 1.571414e+01
 1.241254e+00	 5.671961e-01	 1.556827e+01
 1.230307e+00	 5.905658e-01	 1.541667e+01
 1.291286e+00	 4.767091e-01	 1.598364e+01
 1.282179e+00	 5.006887e-01	 1.587184e+01
 1.272588e+00	 5.245874e-01	 1.575105e+01
 1.262513e+00	 5.483912e-01	 1.562567e+01
 1.251954e+00	 5.720857e-01	 1.549976e+01
 1.240913e+00	 5.956568e-01	 1.536749e+01
 1.302323e+00	 4.807835e-01	 1.587189e+01
 1.293137e+00	 5.049681e-01	 1.576405e+01
 1.283464e+00	 5.290711e-01	 1.565162e+01
 1.273303e+00	 5.530783e-01	 1.554028e+01
 1.262655e+00	 5.769754e-01	 1.543548e+01
 1.251519e+00	 6.007479e-01	 1.531585e+01
 1.313359e+00	 4.848580e-01	 1.576285e+01
 1.304096e+00	 5.092475e-01	 1.565844e+01
 1.294341e+00	 5.335548e-01	 1.555432e+01
 1.284094e+00	 5.577654e-01	 1.545751e+01
 1.273355e+00	 5.818650e-01	 1.537490e+01
 1.262125e+00	 6.058390e-01	 1.526136e+01
 1.324396e+00	 4.889324e-01	 1.565584e+01
 1.315055e+00	 5.135269e-01	 1.555446e+01
 1.305218e+00	 5.380384e-01	 1.545866e+01
 1.294885e+00	 5.624525e-01	 1.537687e+01
 1.284056e+00	 5.867546e-01	 1.531752e+01
 1.272731e+00	 6.109301e-01	 1.520374e+01
 1.219700e+00	 5.854747e-01	 1.546513e+01
 1.208374e+00	 6.085074e-01	 1.529700e+01
 1.196577e+00	 6.313907e-01	 1.511714e+01
 1.184310e+00	 6.541102e-01	 1.492419e+01
 1.171577e+00	 6.766520e-01	 1.471794e+01
 1.158381e+00	 6.990020e-01	 1.449361e+01
 1.230307e+00	 5.905658e-01	 1.541667e+01
 1.218882e+00	 6.137988e-01	 1.524251e+01
 1.206982e+00	 6.368810e-01	 1.506139e+01
 1.194608e+00	 6.597982e-01	 1.487199e+01
 1.181764e+00	 6.825360e-01	 1.467331e+01
 1.168454e+00	 7.050803e-01	 1.446321e+01
 1.240913e+00	 5.956568e-01	 1.536749e+01
 1.229390e+00	 6.190902e-01	 1.518796e+01
 1.217387e+00	 6.423714e-01	 1.500713e+01
 1.204906e+00	 6.654861e-01	 1.482231e+01
 1.191952e+00	 6.884199e-01	 1.463099e+01
 1.178527e+00	 7.111586e-01	 1.443097e+01
 1.251519e+00	 6.007479e-01	 1.531585e+01
 1.239897e+00	 6.243816e-01	 1.513292e+01
 1.227792e+00	 6.478617e-01	 1.495386e+01
 1.215205e+00	 6.711740e-01	 1.477461e+01
 1.202140e+00	 6.943038e-01	 1.459109e+01
 1.188599e+00	 7.172369e-01	 1.439938e+01
 1.262125e+00	 6.058390e-01	 1.526136e+01
 1.250405e+00	 6.296729e-01	 1.507697e+01
 1.238197e+00	 6.533521e-01	 1.490118e+01
 1.225503e+00	 6.768619e-01	 1.472847e+01
 1.212327e+00	 7.001878e-01	 1.455314e+01
 1.198672e+00	 7.233151e-01	 1.436952e+01
 1.272731e+00	 6.109301e-01	 1.520374e+01
 1.260912e+00	 6.349643e-01	 1.501979e+01
 1.248602e+00	 6.588424e-01	 1.484873e+01
 1.235801e+00	 6.825498e-01	 1.468351e+01
 1.222515e+00	 7.060717e-01	 1.451677e+01
 1.208745e+00	 7.293934e-01	 1.434099e+01
 1.158381e+00	 6.990020e-01	 1.449361e+01
 1.144726e+00	 7.211462e-01	 1.425631e+01
 1.130617e+00	 7.430707e-01	 1.400996e+01
 1.116060e+00	 7.647617e-01	 1.375528e+01
 1.101059e+00	 7.862057e-01	 1.349442e+01
 1.085621e+00	 8.073893e-01	 1.323095e+01
 1.168454e+00	 7.050803e-01	 1.446321e+01
 1.154680e+00	 7.274170e-01	 1.423886e+01
 1.140449e+00	 7.495322e-01	 1.400296e+01
 1.125765e+00	 7.714118e-01	 1.375659e+01
 1.110633e+00	 7.930423e-01	 1.350236e+01
 1.095061e+00	 8.144100e-01	 1.324440e+01
 1.178527e+00	 7.111586e-01	 1.443097e+01
 1.164634e+00	 7.336879e-01	 1.422016e+01
 1.150280e+00	 7.559937e-01	 1.399539e+01
 1.135469e+00	 7.780619e-01	 1.375790e+01
 1.120208e+00	 7.998789e-01	 1.351063e+01
 1.104501e+00	 8.214308e-01	 1.325822e+01
 1.188599e+00	 7.172369e-01	 1.439938e+01
 1.174589e+00	 7.399587e-01	 1.419925e+01
 1.160112e+00	 7.624551e-01	 1.398629e+01
 1.145174e+00	 7.847120e-01	 1.375822e+01
 1.129782e+00	 8.067154e-01	 1.351828e+01
 1.113941e+00	 8.284516e-01	 1.327144e+01
 1.198672e+00	 7.233151e-01	 1.436952e+01
 1.184543e+00	 7.462295e-01	 1.417670e+01
 1.169943e+00	 7.689166e-01	 1.397474e+01
 1.154879e+00	 7.913621e-01	 1.375667e+01
 1.139356e+00	 8.135520e-01	 1.352439e+01
 1.123381e+00	 8.354724e-01	 1.328316e+01
 1.208745e+00	 7.293934e-01	 1.434099e+01
 1.194497e+00	 7.525004e-01	 1.415484e+01
 1.179775e+00	 7.753781e-01	 1.396009e+01
 1.164584e+00	 7.980122e-01	 1.375238e+01
 1.148931e+00	 8.203886e-01	 1.352812e+01
 1.132822e+00	 8.424932e-01	 1.329255e+01
 1.085621e+00	 8.073893e-01	 1.323095e+01
 1.069752e+00	 8.282991e-01	 1.295091e+01
 1.053461e+00	 8.489224e-01	 1.264499e+01
 1.036755e+00	 8.692463e-01	 1.232619e+01
 1.019642e+00	 8.892584e-01	 1.200909e+01
 1.002131e+00	 9.089466e-01	 1.170969e+01
 1.095061e+00	 8.144100e-01	 1.324440e+01
 1.079055e+00	 8.355017e-01	 1.297001e+01
 1.062622e+00	 8.563043e-01	 1.267043e+01
 1.045770e+00	 8.768049e-01	 1.235829e+01
 1.028508e+00	 8.969911e-01	 1.204787e+01
 1.010845e+00	 9.168505e-01	 1.175495e+01
 1.104501e+00	 8.214308e-01	 1.325822e+01
 1.088357e+00	 8.427043e-01	 1.298911e+01
 1.071782e+00	 8.636862e-01	 1.269522e+01
 1.054785e+00	 8.843636e-01	 1.238894e+01
 1.037375e+00	 9.047237e-01	 1.208443e+01
 1.019559e+00	 9.247544e-01	 1.179745e+01
 1.113941e+00	 8.284516e-01	 1.327144e+01
 1.097659e+00	 8.499069e-01	 1.300729e+01
 1.080943e+00	 8.710682e-01	 1.271846e+01
 1.063801e+00	 8.919223e-01	 1.241732e+01
 1.046241e+00	 9.124564e-01	 1.211805e+01
 1.028273e+00	 9.326583e-01	 1.183655e+01
 1.123381e+00	 8.354724e-01	 1.328316e+01
 1.106961e+00	 8.571095e-01	 1.302365e+01
 1.090103e+00	 8.784501e-01	 1.273933e+01
 1.072816e+00	 8.994809e-01	 1.244266e+01
 1.055108e+00	 9.201891e-01	 1.214804e+01
 1.036987e+00	 9.405622e-01	 1.187169e+01
 1.132822e+00	 8.424932e-01	 1.329255e+01
 1.116263e+00	 8.643121e-01	 1.303738e+01
 1.099264e+00	 8.858320e-01	 1.275705e+01
 1.081831e+00	 9.070396e-01	 1.246426e+01
 1.063974e+00	 9.279218e-01	 1.217379e+01
 1.045702e+00	 9.484660e-01	 1.190235e+01
 1.002131e+00	 9.089466e-01	 1.170969e+01
 9.842309e-01	 9.282992e-01	 1.140407e+01
 9.659522e-01	 9.473047e-01	 1.106758e+01
 9.473047e-01	 9.659522e-01	 1.071633e+01
 9.282992e-01	 9.842309e-01	 1.036666e+01
 9.089466e-01	 1.002131e+00	 1.003485e+01
 1.010845e+00	 9.168505e-01	 1.175495e+01
 9.927894e-01	 9.363714e-01	 1.145441e+01
 9.743517e-01	 9.555422e-01	 1.112118e+01
 9.555422e-01	 9.743517e-01	 1.077253e+01
 9.363714e-01	 9.927894e-01	 1.042603e+01
 9.168505e-01	 1.010845e+00	 1.009922e+01
 1.019559e+00	 9.247544e-01	 1.179745e+01
 1.001348e+00	 9.444435e-01	 1.150187e+01
 9.827513e-01	 9.637796e-01	 1.117220e+01
 9.637796e-01	 9.827513e-01	 1.082667e+01
 9.444435e-01	 1.001348e+00	 1.048382e+01
 9.247544e-01	 1.019559e+00	 1.016227e+01
 1.028273e+00	 9.326583e-01	 1.183655e+01
 1.009906e+00	 9.525157e-01	 1.154590e+01
 9.911509e-01	 9.720170e-01	 1.122009e+01
 9.720170e-01	 9.911509e-01	 1.087807e+01
 9.525157e-01	 1.009906e+00	 1.053921e+01
 9.326583e-01	 1.028273e+00	 1.022296e+01
 1.036987e+00	 9.405622e-01	 1.187169e+01
 1.018465e+00	 9.605879e-01	 1.158599e+01
 9.995505e-01	 9.802545e-01	 1.126430e+01
 9.802545e-01	 9.995505e-01	 1.092613e+01
 9.605879e-01	 1.018465e+00	 1.059143e+01
 9.405622e-01	 1.036987e+00	 1.028030e+01
 1.045702e+00	 9.484660e-01	 1.190235e+01
 1.027024e+00	 9.686600e-01	 1.162169e+01
 1.007950e+00	 9.884919e-01	 1.130438e+01
 9.884919e-01	 1.007950e+00	 1.097028e+01
 9.686600e-01	 1.027024e+00	 1.063976e+01
 9.484660e-01	 1.045702e+00	 1.033336e+01
 9.089466e-01	 1.002131e+00	 1.003485e+01
 8.892584e-01	 1.019642e+00	 9.704487e+00
 8.692463e-01	 1.036755e+00	 9.357028e+00
 8.489224e-01	 1.053461e+00	 9.004422e+00
 8.282991e-01	 1.069752e+00	 8.657215e+00
 8.073893e-01	 1.085621e+00	 8.324307e+00
 9.168505e-01	 1.010845e+00	 1.009922e+01
 8.969911e-01	 1.028508e+00	 9.775432e+00
 8.768049e-01	 1.045770e+00	 9.434411e+00
 8.563043e-01	 1.062622e+00	 9.087141e+00
 8.355017e-01	 1.079055e+00	 8.743090e+00
 8.144100e-01	 1.095061e+00	 8.409963e+00
 9.247544e-01	 1.019559e+00	 1.016227e+01
 9.047237e-01	 1.037375e+00	 9.844638e+00
 8.843636e-01	 1.054785e+00	 9.508930e+00
 8.636862e-01	 1.071782e+00	 9.165622e+00
 8.427043e-01	 1.088357e+00	 8.823580e+00
 8.214308e-01	 1.104501e+00	 8.489801e+00
 9.326583e-01	 1.028273e+00	 1.022296e+01
 9.124564e-01	 1.046241e+00	 9.910881e+00
 8.919223e-01	 1.063801e+00	 9.579317e+00
 8.710682e-01	 1.080943e+00	 9.238679e+00
 8.499069e-01	 1.097659e+00	 8.897695e+00
 8.284516e-01	 1.113941e+00	 8.563135e+00
 9.405622e-01	 1.036987e+00	 1.028030e+01
 9.201891e-01	 1.055108e+00	 9.972993e+00
 8.994809e-01	 1.072816e+00	 9.644354e+00
 8.784501e-01	 1.090103e+00	 9.305167e+00
 8.571095e-01	 1.106961e+00	 8.964476e+00
 8.354724e-01	 1.123381e+00	 8.629293e+00
 9.484660e-01	 1.045702e+00	 1.033336e+01
 9.279218e-01	 1.063974e+00	 1.002986e+01
 9.070396e-01	 1.081831e+00	 9.702876e+00
 8.858320e-01	 1.099264e+00	 9.363987e+00
 8.643121e-01	 1.116263e+00	 9.022995e+00
 8.424932e-01	 1.132822e+00	 8.687620e+00
 8.073893e-01	 1.085621e+00	 8.324307e+00
 7.862057e-01	 1.101059e+00	 7.992757e+00
 7.647617e-01	 1.116060e+00	 7.650652e+00
 7.430707e-01	 1.130617e+00	 7.305436e+00
 7.211462e-01	 1.144726e+00	 6.962262e+00
 6.990020e-01	 1.158381e+00	 6.623860e+00
 8.144100e-01	 1.095061e+00	 8.409963e+00
 7.930423e-01	 1.110633e+00	 8.074812e+00
 7.714118e-01	 1.125765e+00	 7.728532e+00
 7.495322e-01	 1.140449e+00	 7.381529e+00
 7.274170e-01	 1.154680e+00	 7.041930e+00
 7.050803e-01	 1.168454e+00	 6.715433e+00
 8.214308e-01	 1.104501e+00	 8.489801e+00
 7.998789e-01	 1.120208e+00	 8.152290e+00
 7.780619e-01	 1.135469e+00	 7.805156e+00
 7.559937e-01	 1.150280e+00	 7.461413e+00
 7.336879e-01	 1.164634e+00	 7.131793e+00
 7.111586e-01	 1.178527e+00	 6.823864e+00
 8.284516e-01	 1.113941e+00	 8.563135e+00
 8.067154e-01	 1.129782e+00	 8.224789e+00
 7.847120e-01	 1.145174e+00	 7.880267e+00
 7.624551e-01	 1.160112e+00	 7.544856e+00
 7.399587e-01	 1.174589e+00	 7.231527e+00
 7.172369e-01	 1.188599e+00	 6.927043e+00
 8.354724e-01	 1.123381e+00	 8.629293e+00
 8.135520e-01	 1.139356e+00	 8.291902e+00
 7.913621e-01	 1.154879e+00	 7.953597e+00
 7.689166e-01	 1.169943e+00	 7.631605e+00
 7.462295e-01	 1.184543e+00	 7.331660e+00
 7.233151e-01	 1.198672e+00	 7.016202e+00
 8.424932e-01	 1.132822e+00	 8.687620e+00
 8.203886e-01	 1.148931e+00	 8.353227e+00
 7.980122e-01	 1.164584e+00	 8.024868e+00
 7.753781e-01	 1.179775e+00	 7.720095e+00
 7.525004e-01	 1.194497e+00	 7.415186e+00
 7.293934e-01	 1.208745e+00	 7.093490e+00
 6.990020e-01	 1.158381e+00	 6.623860e+00
 6.766520e-01	 1.171577e+00	 6.307012e+00
 6.541102e-01	 1.184310e+00	 6.021933e+00
 6.313907e-01	 1.196577e+00	 5.725472e+00
 6.085074e-01	 1.208374e+00	 5.413457e+00
 5.854747e-01	 1.219700e+00	 5.086408e+00
 7.050803e-01	 1.168454e+00	 6.715433e+00
 6.825360e-01	 1.181764e+00	 6.417428e+00
 6.597982e-01	 1.194608e+00	 6.121380e+00
 6.368810e-01	 1.206982e+00	 5.815777e+00
 6.137988e-01	 1.218882e+00	 5.500173e+00
 5.905658e-01	 1.230307e+00	 5.174341e+00
 7.111586e-01	 1.178527e+00	 6.823864e+00
 6.884199e-01	 1.191952e+00	 6.519833e+00
 6.654861e-01	 1.204906e+00	 6.213205e+00
 6.423714e-01	 1.217387e+00	 5.902365e+00
 6.190902e-01	 1.229390e+00	 5.585821e+00
 5.956568e-01	 1.240913e+00	 5.262288e+00
 7.172369e-01	 1.188599e+00	 6.927043e+00
 6.943038e-01	 1.202140e+00	 6.611538e+00
 6.711740e-01	 1.215205e+00	 6.298981e+00
 6.478617e-01	 1.227792e+00	 5.986519e+00
 6.243816e-01	 1.239897e+00	 5.671403e+00
 6.007479e-01	 1.251519e+00	 5.351082e+00
 7.233151e-01	 1.198672e+00	 7.016202e+00
 7.001878e-01	 1.212327e+00	 6.694414e+00
 6.768619e-01	 1.225503e+00	 6.380295e+00
 6.533521e-01	 1.238197e+00	 6.069545e+00
 6.296729e-01	 1.250405e+00	 5.757949e+00
 6.058390e-01	 1.262125e+00	 5.441487e+00
 7.293934e-01	 1.208745e+00	 7.093490e+00
 7.060717e-01	 1.222515e+00	 6.770340e+00
 6.825498e-01	 1.235801e+00	 6.458753e+00
 6.588424e-01	 1.248602e+00	 6.152774e+00
 6.349643e-01	 1.260912e+00	 5.846521e+00
 6.109301e-01	 1.272731e+00	 5.534307e+00
 5.854747e-01	 1.219700e+00	 5.086408e+00
 5.623065e-01	 1.230553e+00	 4.765102e+00
 5.390170e-01	 1.240931e+00	 4.467988e+00
 5.156201e-01	 1.250834e+00	 4.188600e+00
 4.921299e-01	 1.260261e+00	 3.921530e+00
 4.685602e-01	 1.269213e+00	 3.662342e+00
 5.905658e-01	 1.230307e+00	 5.174341e+00
 5.671961e-01	 1.241254e+00	 4.859753e+00
 5.437041e-01	 1.251722e+00	 4.569476e+00
 5.201038e-01	 1.261711e+00	 4.295832e+00
 4.964093e-01	 1.271220e+00	 4.032292e+00
 4.726347e-01	 1.280249e+00	 3.773313e+00
 5.956568e-01	 1.240913e+00	 5.262288e+00
 5.720857e-01	 1.251954e+00	 4.953650e+00
 5.483912e-01	 1.262513e+00	 4.668904e+00
 5.245874e-01	 1.272588e+00	 4.399179e+00
 5.006887e-01	 1.282179e+00	 4.137467e+00
 4.767091e-01	 1.291286e+00	 3.877767e+00
 6.007479e-01	 1.251519e+00	 5.351082e+00
 5.769754e-01	 1.262655e+00	 5.047296e+00
 5.530783e-01	 1.273303e+00	 4.766702e+00
 5.290711e-01	 1.283464e+00	 4.499079e+00
 5.049681e-01	 1.293137e+00	 4.237575e+00
 4.807835e-01	 1.302323e+00	 3.976360e+00
 6.058390e-01	 1.262125e+00	 5.441487e+00
 5.818650e-01	 1.273355e+00	 5.141229e+00
 5.577654e-01	 1.284094e+00	 4.863326e+00
 5.335548e-01	 1.294341e+00	 4.595997e+00
 5.092475e-01	 1.304096e+00	 4.333155e+00
 4.848580e-01	 1.313359e+00	 4.069759e+00
 6.109301e-01	 1.272731e+00	 5.534307e+00
 5.867546e-01	 1.284056e+00	 5.236017e+00
 5.624525e-01	 1.294885e+00	 4.959269e+00
 5.380384e-01	 1.305218e+00	 4.690426e+00
 5.135269e-01	 1.315055e+00	 4.424768e+00
 4.889324e-01	 1.324396e+00	 4.158646e+00
 4.685602e-01	 1.269213e+00	 3.662342e+00
 4.449247e-01	 1.277690e+00	 3.408380e+00
 4.212369e-01	 1.285694e+00	 3.160218e+00
 3.975103e-01	 1.293227e+00	 2.919521e+00
 3.737580e-01	 1.300290e+00	 2.688652e+00
 3.499930e-01	 1.306887e+00	 2.470576e+00
 4.726347e-01	 1.280249e+00	 3.773313e+00
 4.487936e-01	 1.288800e+00	 3.516182e+00
 4.248998e-01	 1.296874e+00	 3.262931e+00
 4.009669e-01	 1.304472e+00	 3.016420e+00
 3.770080e-01	 1.311597e+00	 2.780216e+00
 3.530364e-01	 1.318252e+00	 2.558484e+00
 4.767091e-01	 1.291286e+00	 3.877767e+00
 4.526625e-01	 1.299911e+00	 3.617865e+00
 4.285628e-01	 1.308054e+00	 3.361032e+00
 4.044235e-01	 1.315718e+00	 3.110796e+00
 3.802581e-01	 1.322904e+00	 2.871397e+00
 3.560798e-01	 1.329616e+00	 2.647670e+00
 4.807835e-01	 1.302323e+00	 3.976360e+00
 4.565314e-01	 1.311021e+00	 3.714192e+00
 4.322257e-01	 1.319234e+00	 3.455297e+00
 4.078801e-01	 1.326963e+00	 3.203360e+00
 3.835082e-01	 1.334211e+00	 2.962779e+00
 3.591232e-01	 1.340980e+00	 2.738541e+00
 4.848580e-01	 1.313359e+00	 4.069759e+00
 4.604003e-01	 1.322131e+00	 3.805933e+00
 4.358886e-01	 1.330414e+00	 3.546506e+00
 4.113367e-01	 1.338209e+00	 3.294826e+00
 3.867582e-01	 1.345518e+00	 3.054948e+00
 3.621666e-01	 1.352344e+00	 2.831504e+00
 4.889324e-01	 1.324396e+00	 4.158646e+00
 4.642693e-01	 1.333242e+00	 3.893860e+00
 4.395516e-01	 1.341594e+00	 3.635438e+00
 4.147933e-01	 1.349454e+00	 3.385907e+00
 3.900083e-01	 1.356825e+00	 3.148489e+00
 3.652100e-01	 1.363709e+00	 2.926975e+00
 3.499930e-01	 1.306887e+00	 2.470576e+00
 3.262280e-01	 1.313021e+00	 2.265973e+00
 3.024757e-01	 1.318696e+00	 2.073384e+00
 2.787482e-01	 1.323914e+00	 1.893193e+00
 2.550574e-01	 1.328682e+00	 1.726043e+00
 2.314152e-01	 1.333003e+00	 1.572798e+00
 3.530364e-01	 1.318252e+00	 2.558484e+00
 3.290648e-01	 1.324439e+00	 2.352314e+00
 3.051059e-01	 1.330163e+00	 2.159495e+00
 2.811721e-01	 1.335427e+00	 1.979837e+00
 2.572753e-01	 1.340236e+00	 1.813405e+00
 2.334275e-01	 1.344594e+00	 1.660470e+00
 3.560798e-01	 1.329616e+00	 2.647670e+00
 3.319016e-01	 1.335857e+00	 2.440656e+00
 3.077361e-01	 1.341630e+00	 2.247495e+00
 2.835960e-01	 1.346939e+00	 2.067758e+00
 2.594932e-01	 1.351789e+00	 1.901253e+00
 2.354398e-01	 1.356186e+00	 1.747984e+00
 3.591232e-01	 1.340980e+00	 2.738541e+00
 3.347383e-01	 1.347274e+00	 2.531239e+00
 3.103664e-01	 1.353096e+00	 2.337528e+00
 2.860199e-01	 1.358451e+00	 2.157054e+00
 2.617111e-01	 1.363343e+00	 1.989690e+00
 2.374521e-01	 1.367777e+00	 1.835491e+00
 3.621666e-01	 1.352344e+00	 2.831504e+00
 3.375751e-01	 1.358692e+00	 2.624311e+00
 3.129966e-01	 1.364563e+00	 2.429742e+00
 2.884438e-01	 1.369964e+00	 2.247831e+00
 2.639290e-01	 1.374897e+00	 2.078824e+00
 2.394644e-01	 1.379368e+00	 1.923139e+00
 3.652100e-01	 1.363709e+00	 2.926975e+00
 3.404119e-01	 1.370109e+00	 2.720127e+00
 3.156268e-01	 1.376030e+00	 2.524294e+00
 2.908676e-01	 1.381476e+00	 2.340199e+00
 2.661469e-01	 1.386451e+00	 2.168767e+00
 2.414767e-01	 1.390960e+00	 2.011080e+00
 2.314152e-01	 1.333003e+00	 1.572798e+00
 2.078328e-01	 1.336883e+00	 1.433325e+00
 1.843214e-01	 1.340327e+00	 1.307196e+00
 1.608916e-01	 1.343341e+00	 1.195078e+00
 1.375538e-01	 1.345930e+00	 1.097771e+00
 1.143182e-01	 1.348103e+00	 1.016191e+00
 2.334275e-01	 1.344594e+00	 1.660470e+00
 2.096401e-01	 1.348508e+00	 1.520478e+00
 1.859241e-01	 1.351982e+00	 1.393251e+00
 1.622906e-01	 1.355022e+00	 1.279847e+00
 1.387499e-01	 1.357634e+00	 1.181438e+00
 1.153123e-01	 1.359825e+00	 1.099299e+00
 2.354398e-01	 1.356186e+00	 1.747984e+00
 2.114473e-01	 1.360133e+00	 1.607253e+00
 1.875269e-01	 1.363637e+00	 1.479066e+00
 1.636897e-01	 1.366703e+00	 1.364692e+00
 1.399461e-01	 1.369338e+00	 1.265500e+00
 1.163064e-01	 1.371548e+00	 1.182940e+00
 2.374521e-01	 1.367777e+00	 1.835491e+00
 2.132545e-01	 1.371758e+00	 1.693846e+00
 1.891297e-01	 1.375292e+00	 1.564857e+00
 1.650887e-01	 1.378384e+00	 1.449831e+00
 1.411422e-01	 1.381042e+00	 1.350154e+00
 1.173004e-01	 1.383271e+00	 1.267280e+00
 2.394644e-01	 1.379368e+00	 1.923139e+00
 2.150618e-01	 1.383383e+00	 1.780452e+00
 1.907325e-01	 1.386947e+00	 1.650838e+00
 1.664878e-01	 1.390065e+00	 1.535473e+00
 1.423383e-01	 1.392745e+00	 1.435591e+00
 1.182945e-01	 1.394993e+00	 1.352479e+00
 2.414767e-01	 1.390960e+00	 2.011080e+00
 2.168690e-01	 1.395008e+00	 1.867262e+00
 1.923353e-01	 1.398602e+00	 1.737217e+00
 1.678868e-01	 1.401747e+00	 1.621822e+00
 1.435344e-01	 1.404449e+00	 1.521997e+00
 1.192886e-01	 1.406716e+00	 1.438690e+00
 1.143182e-01	 1.348103e+00	 1.016191e+00
 9.119446e-02	 1.349864e+00	 9.507200e-01
 6.819193e-02	 1.351222e+00	 9.004960e-01
 4.531964e-02	 1.352182e+00	 8.647662e-01
 2.258623e-02	 1.352753e+00	 8.429386e-01
 0.000000e+00	 1.352941e+00	 8.345942e-01
 1.153123e-01	 1.359825e+00	 1.099299e+00
 9.198745e-02	 1.361602e+00	 1.033928e+00
 6.878491e-02	 1.362971e+00	 9.840942e-01
 4.571372e-02	 1.363940e+00	 9.486665e-01
 2.278263e-02	 1.364516e+00	 9.266734e-01
 0.000000e+00	 1.364706e+00	 9.173203e-01
 1.163064e-01	 1.371548e+00	 1.182940e+00
 9.278045e-02	 1.373340e+00	 1.117504e+00
 6.937788e-02	 1.374721e+00	 1.067732e+00
 4.610781e-02	 1.375698e+00	 1.032320e+00
 2.297904e-02	 1.376279e+00	 1.010120e+00
 0.000000e+00	 1.376471e+00	 1.000161e+00
 1.173004e-01	 1.383271e+00	 1.267280e+00
 9.357345e-02	 1.385078e+00	 1.201591e+00
 6.997085e-02	 1.386471e+00	 1.151552e+00
 4.650189e-02	 1.387456e+00	 1.115886e+00
 2.317544e-02	 1.388042e+00	 1.093469e+00
 0.000000e+00	 1.388235e+00	 1.083340e+00
 1.182945e-01	 1.394993e+00	 1.352479e+00
 9.436644e-02	 1.396816e+00	 1.286329e+00
 7.056383e-02	 1.398221e+00	 1.235693e+00
 4.689598e-02	 1.399214e+00	 1.199521e+00
 2.337184e-02	 1.399805e+00	 1.176900e+00
 0.000000e+00	 1.400000e+00	 1.167074e+00
 1.192886e-01	 1.406716e+00	 1.438690e+00
 9.515944e-02	 1.408554e+00	 1.371847e+00
 7.115680e-02	 1.409970e+00	 1.320284e+00
 4.729006e-02	 1.410972e+00	 1.283368e+00
 2.356824e-02	 1.411568e+00	 1.260587e+00
 0.000000e+00	 1.411765e+00	 1.251567e+00
 1.411765e+00	 0.000000e+00	 1.639862e+01
 1.411568e+00	 2.356824e-02	 1.639179e+01
 1.410972e+00	 4.729006e-02	 1.638684e+01
 1.409970e+00	 7.115680e-02	 1.638108e+01
 1.408554e+00	 9.515944e-02	 1.637232e+01
 1.406716e+00	 1.192886e-01	 1.635891e+01
 1.423529e+00	 0.000000e+00	 1.623451e+01
 1.423331e+00	 2.376465e-02	 1.622771e+01
 1.422731e+00	 4.768414e-02	 1.622309e+01
 1.421720e+00	 7.174977e-02	 1.621800e+01
 1.420292e+00	 9.595243e-02	 1.621033e+01
 1.418439e+00	 1.202826e-01	 1.619853e+01
 1.435294e+00	 0.000000e+00	 1.607669e+01
 1.435094e+00	 2.396105e-02	 1.606983e+01
 1.434489e+00	 4.807823e-02	 1.606550e+01
 1.433470e+00	 7.234275e-02	 1.606108e+01
 1.432030e+00	 9.674543e-02	 1.605449e+01
 1.430161e+00	 1.212767e-01	 1.604428e+01
 1.447059e+00	 0.000000e+00	 1.592482e+01
 1.446857e+00	 2.415745e-02	 1.591777e+01
 1.446247e+00	 4.847231e-02	 1.591369e+01
 1.445220e+00	 7.293572e-02	 1.590993e+01
 1.443768e+00	 9.753842e-02	 1.590442e+01
 1.441884e+00	 1.222708e-01	 1.589578e+01
 1.458824e+00	 0.000000e+00	 1.577856e+01
 1.458620e+00	 2.435385e-02	 1.577118e+01
 1.458005e+00	 4.886639e-02	 1.576728e+01
 1.456969e+00	 7.352869e-02	 1.576415e+01
 1.455506e+00	 9.833142e-02	 1.575973e+01
 1.453607e+00	 1.232649e-01	 1.575266e+01
 1.470588e+00	 0.000000e+00	 1.563759e+01
 1.470383e+00	 2.455025e-02	 1.562970e+01
 1.469763e+00	 4.926048e-02	 1.562589e+01
 1.468719e+00	 7.412167e-02	 1.562337e+01
 1.467244e+00	 9.912441e-02	 1.562004e+01
 1.465329e+00	 1.242589e-01	 1.561453e+01
 1.406716e+00	 1.192886e-01	 1.635891e+01
 1.404449e+00	 1.435344e-01	 1.634099e+01
 1.401747e+00	 1.678868e-01	 1.631948e+01
 1.398602e+00	 1.923353e-01	 1.629487e+01
 1.395008e+00	 2.168690e-01	 1.626825e+01
 1.390960e+00	 2.414767e-01	 1.624141e+01
 1.418439e+00	 1.202826e-01	 1.619853e+01
 1.416153e+00	 1.447305e-01	 1.618264e+01
 1.413428e+00	 1.692859e-01	 1.616331e+01
 1.410257e+00	 1.939381e-01	 1.614095e+01
 1.406633e+00	 2.186763e-01	 1.611666e+01
 1.402551e+00	 2.434890e-01	 1.609223e+01
 1.430161e+00	 1.212767e-01	 1.604428e+01
 1.427857e+00	 1.459267e-01	 1.603033e+01
 1.425109e+00	 1.706849e-01	 1.601303e+01
 1.421912e+00	 1.955409e-01	 1.599278e+01
 1.418258e+00	 2.204835e-01	 1.597066e+01
 1.414142e+00	 2.455013e-01	 1.594851e+01
 1.441884e+00	 1.222708e-01	 1.589578e+01
 1.439560e+00	 1.471228e-01	 1.588369e+01
 1.436790e+00	 1.720840e-01	 1.586830e+01
 1.433567e+00	 1.971437e-01	 1.584997e+01
 1.429883e+00	 2.222908e-01	 1.582985e+01
 1.425734e+00	 2.475137e-01	 1.580983e+01
 1.453607e+00	 1.232649e-01	 1.575266e+01
 1.451264e+00	 1.483189e-01	 1.574237e+01
 1.448472e+00	 1.734831e-01	 1.572874e+01
 1.445222e+00	 1.987465e-01	 1.571217e+01
 1.441508e+00	 2.240980e-01	 1.569384e+01
 1.437325e+00	 2.495260e-01	 1.567573e+01
 1.465329e+00	 1.242589e-01	 1.561453e+01
 1.462968e+00	 1.495150e-01	 1.560599e+01
 1.460153e+00	 1.748821e-01	 1.559398e+01
 1.456877e+00	 2.003493e-01	 1.557897e+01
 1.453133e+00	 2.259052e-01	 1.556221e+01
 1.448916e+00	 2.515383e-01	 1.554578e+01
 1.390960e+00	 2.414767e-01	 1.624141e+01
 1.386451e+00	 2.661469e-01	 1.620885e+01
 1.381476e+00	 2.908676e-01	 1.616627e+01
 1.376030e+00	 3.156268e-01	 1.611831e+01
 1.370109e+00	 3.404119e-01	 1.607038e+01
 1.363709e+00	 3.652100e-01	 1.602855e+01
 1.402551e+00	 2.434890e-01	 1.609223e+01
 1.398004e+00	 2.683648e-01	 1.606229e+01
 1.392988e+00	 2.932915e-01	 1.602292e+01
 1.387497e+00	 3.182570e-01	 1.597918e+01
 1.381527e+00	 3.432486e-01	 1.593691e+01
 1.375073e+00	 3.682535e-01	 1.590270e+01
 1.414142e+00	 2.455013e-01	 1.594851e+01
 1.409558e+00	 2.705827e-01	 1.592114e+01
 1.404500e+00	 2.957154e-01	 1.588493e+01
 1.398964e+00	 3.208872e-01	 1.584532e+01
 1.392944e+00	 3.460854e-01	 1.580856e+01
 1.386437e+00	 3.712969e-01	 1.578170e+01
 1.425734e+00	 2.475137e-01	 1.580983e+01
 1.421112e+00	 2.728006e-01	 1.578489e+01
 1.416013e+00	 2.981393e-01	 1.575175e+01
 1.410431e+00	 3.235175e-01	 1.571616e+01
 1.404362e+00	 3.489222e-01	 1.568474e+01
 1.397801e+00	 3.743403e-01	 1.566494e+01
 1.437325e+00	 2.495260e-01	 1.567573e+01
 1.432666e+00	 2.750185e-01	 1.565307e+01
 1.427525e+00	 3.005632e-01	 1.562287e+01
 1.421898e+00	 3.261477e-01	 1.559116e+01
 1.415780e+00	 3.517589e-01	 1.556486e+01
 1.409166e+00	 3.773837e-01	 1.555181e+01
 1.448916e+00	 2.515383e-01	 1.554578e+01
 1.444219e+00	 2.772364e-01	 1.552519e+01
 1.439037e+00	 3.029871e-01	 1.549776e+01
 1.433365e+00	 3.287779e-01	 1.546974e+01
 1.427197e+00	 3.545957e-01	 1.544834e+01
 1.420530e+00	 3.804271e-01	 1.544170e+01
 1.363709e+00	 3.652100e-01	 1.602855e+01
 1.356825e+00	 3.900083e-01	 1.598237e+01
 1.349454e+00	 4.147933e-01	 1.591914e+01
 1.341594e+00	 4.395516e-01	 1.584190e+01
 1.333242e+00	 4.642693e-01	 1.575337e+01
 1.324396e+00	 4.889324e-01	 1.565584e+01
 1.375073e+00	 3.682535e-01	 1.590270e+01
 1.368132e+00	 3.932584e-01	 1.586427e+01
 1.360699e+00	 4.182499e-01	 1.580686e+01
 1.352774e+00	 4.432145e-01	 1.573366e+01
 1.344352e+00	 4.681382e-01	 1.564760e+01
 1.335433e+00	 4.930068e-01	 1.555120e+01
 1.386437e+00	 3.712969e-01	 1.578170e+01
 1.379438e+00	 3.965084e-01	 1.575061e+01
 1.371945e+00	 4.217065e-01	 1.569848e+01
 1.363954e+00	 4.468774e-01	 1.562880e+01
 1.355462e+00	 4.720071e-01	 1.554480e+01
 1.346469e+00	 4.970813e-01	 1.544938e+01
 1.397801e+00	 3.743403e-01	 1.566494e+01
 1.390745e+00	 3.997585e-01	 1.564075e+01
 1.383190e+00	 4.251632e-01	 1.559340e+01
 1.375134e+00	 4.505404e-01	 1.552676e+01
 1.366573e+00	 4.758760e-01	 1.544449e+01
 1.357506e+00	 5.011557e-01	 1.534995e+01
 1.409166e+00	 3.773837e-01	 1.555181e+01
 1.402052e+00	 4.030086e-01	 1.553407e+01
 1.394436e+00	 4.286198e-01	 1.549102e+01
 1.386314e+00	 4.542033e-01	 1.542698e+01
 1.377683e+00	 4.797449e-01	 1.534615e+01
 1.368543e+00	 5.052302e-01	 1.525248e+01
 1.420530e+00	 3.804271e-01	 1.544170e+01
 1.413359e+00	 4.062586e-01	 1.542999e+01
 1.405681e+00	 4.320764e-01	 1.539076e+01
 1.397494e+00	 4.578662e-01	 1.532893e+01
 1.388794e+00	 4.836138e-01	 1.524931e+01
 1.379579e+00	 5.093046e-01	 1.515656e+01
 1.324396e+00	 4.889324e-01	 1.565584e+01
 1.315055e+00	 5.135269e-01	 1.555446e+01
 1.305218e+00	 5.380384e-01	 1.545866e+01
 1.294885e+00	 5.624525e-01	 1.537687e+01
 1.284056e+00	 5.867546e-01	 1.531752e+01
 1.272731e+00	 6.109301e-01	 1.520374e+01
 1.335433e+00	 4.930068e-01	 1.555120e+01
 1.326014e+00	 5.178063e-01	 1.545282e+01
 1.316095e+00	 5.425221e-01	 1.536576e+01
 1.305676e+00	 5.671396e-01	 1.529983e+01
 1.294756e+00	 5.916442e-01	 1.526306e+01
 1.283337e+00	 6.160212e-01	 1.514482e+01
 1.346469e+00	 4.970813e-01	 1.544938e+01
 1.336973e+00	 5.220857e-01	 1.535428e+01
 1.326972e+00	 5.470057e-01	 1.527674e+01
 1.316466e+00	 5.718267e-01	 1.522779e+01
 1.305456e+00	 5.965338e-01	 1.520771e+01
 1.293943e+00	 6.211123e-01	 1.508630e+01
 1.357506e+00	 5.011557e-01	 1.534995e+01
 1.347931e+00	 5.263651e-01	 1.525846e+01
 1.337849e+00	 5.514894e-01	 1.519119e+01
 1.327257e+00	 5.765138e-01	 1.516023e+01
 1.316157e+00	 6.014235e-01	 1.515078e+01
 1.304549e+00	 6.262034e-01	 1.502775e+01
 1.368543e+00	 5.052302e-01	 1.525248e+01
 1.358890e+00	 5.306445e-01	 1.516498e+01
 1.348725e+00	 5.559730e-01	 1.510869e+01
 1.338048e+00	 5.812009e-01	 1.509663e+01
 1.326857e+00	 6.063131e-01	 1.509200e+01
 1.315155e+00	 6.312944e-01	 1.496879e+01
 1.379579e+00	 5.093046e-01	 1.515656e+01
 1.369849e+00	 5.349239e-01	 1.507347e+01
 1.359602e+00	 5.604567e-01	 1.502885e+01
 1.348838e+00	 5.858880e-01	 1.503650e+01
 1.337558e+00	 6.112027e-01	 1.503116e+01
 1.325761e+00	 6.363855e-01	 1.490913e+01
 1.272731e+00	 6.109301e-01	 1.520374e+01
 1.260912e+00	 6.349643e-01	 1.501979e+01
 1.248602e+00	 6.588424e-01	 1.484873e+01
 1.235801e+00	 6.825498e-01	 1.468351e+01
 1.222515e+00	 7.060717e-01	 1.451677e+01
 1.208745e+00	 7.293934e-01	 1.434099e+01
 1.283337e+00	 6.160212e-01	 1.514482e+01
 1.271420e+00	 6.402557e-01	 1.496288e+01
 1.259007e+00	 6.643328e-01	 1.479742e+01
 1.246100e+00	 6.882377e-01	 1.463998e+01
 1.232702e+00	 7.119556e-01	 1.448160e+01
 1.218818e+00	 7.354717e-01	 1.431304e+01
 1.293943e+00	 6.211123e-01	 1.508630e+01
 1.281928e+00	 6.455470e-01	 1.490751e+01
 1.269412e+00	 6.698231e-01	 1.474796e+01
 1.256398e+00	 6.939256e-01	 1.459798e+01
 1.242890e+00	 7.178396e-01	 1.444727e+01
 1.228891e+00	 7.415500e-01	 1.428512e+01
 1.304549e+00	 6.262034e-01	 1.502775e+01
 1.292435e+00	 6.508384e-01	 1.485314e+01
 1.279817e+00	 6.753135e-01	 1.469981e+01
 1.266697e+00	 6.996136e-01	 1.455707e+01
 1.253078e+00	 7.237235e-01	 1.441350e+01
 1.238964e+00	 7.476282e-01	 1.425718e+01
 1.315155e+00	 6.312944e-01	 1.496879e+01
 1.302943e+00	 6.561298e-01	 1.479934e+01
 1.290222e+00	 6.808039e-01	 1.465253e+01
 1.276995e+00	 7.053015e-01	 1.451689e+01
 1.263265e+00	 7.296074e-01	 1.438010e+01
 1.249037e+00	 7.537065e-01	 1.422926e+01
 1.325761e+00	 6.363855e-01	 1.490913e+01
 1.313450e+00	 6.614211e-01	 1.474572e+01
 1.300627e+00	 6.862942e-01	 1.460574e+01
 1.287293e+00	 7.109894e-01	 1.447714e+01
 1.273453e+00	 7.354913e-01	 1.434694e+01
 1.259110e+00	 7.597848e-01	 1.420145e+01
 1.208745e+00	 7.293934e-01	 1.434099e+01
 1.194497e+00	 7.525004e-01	 1.415484e+01
 1.179775e+00	 7.753781e-01	 1.396009e+01
 1.164584e+00	 7.980122e-01	 1.375238e+01
 1.148931e+00	 8.203886e-01	 1.352812e+01
 1.132822e+00	 8.424932e-01	 1.329255e+01
 1.218818e+00	 7.354717e-01	 1.431304e+01
 1.204451e+00	 7.587712e-01	 1.413297e+01
 1.189606e+00	 7.818396e-01	 1.394430e+01
 1.174289e+00	 8.046623e-01	 1.374480e+01
 1.158505e+00	 8.272252e-01	 1.352947e+01
 1.142262e+00	 8.495139e-01	 1.330014e+01
 1.228891e+00	 7.415500e-01	 1.428512e+01
 1.214405e+00	 7.650421e-01	 1.411065e+01
 1.199438e+00	 7.883011e-01	 1.392805e+01
 1.183994e+00	 8.113124e-01	 1.373485e+01
 1.168080e+00	 8.340617e-01	 1.352885e+01
 1.151702e+00	 8.565347e-01	 1.330679e+01
 1.238964e+00	 7.476282e-01	 1.425718e+01
 1.224359e+00	 7.713129e-01	 1.408806e+01
 1.209269e+00	 7.947626e-01	 1.391166e+01
 1.193699e+00	 8.179625e-01	 1.372494e+01
 1.177654e+00	 8.408983e-01	 1.352612e+01
 1.161142e+00	 8.635555e-01	 1.331224e+01
 1.249037e+00	 7.537065e-01	 1.422926e+01
 1.234313e+00	 7.775837e-01	 1.406545e+01
 1.219101e+00	 8.012240e-01	 1.389551e+01
 1.203404e+00	 8.246126e-01	 1.371557e+01
 1.187229e+00	 8.477349e-01	 1.352300e+01
 1.170582e+00	 8.705763e-01	 1.331630e+01
 1.259110e+00	 7.597848e-01	 1.420145e+01
 1.244268e+00	 7.838546e-01	 1.404314e+01
 1.228932e+00	 8.076855e-01	 1.388003e+01
 1.213108e+00	 8.312627e-01	 1.370720e+01
 1.196803e+00	 8.545714e-01	 1.352092e+01
 1.180023e+00	 8.775970e-01	 1.331900e+01
 1.132822e+00	 8.424932e-01	 1.329255e+01
 1.116263e+00	 8.643121e-01	 1.303738e+01
 1.099264e+00	 8.858320e-01	 1.275705e+01
 1.081831e+00	 9.070396e-01	 1.246426e+01
 1.063974e+00	 9.279218e-01	 1.217379e+01
 1.045702e+00	 9.484660e-01	 1.190235e+01
 1.142262e+00	 8.495139e-01	 1.330014e+01
 1.125566e+00	 8.715148e-01	 1.304946e+01
 1.108424e+00	 8.932140e-01	 1.277296e+01
 1.090846e+00	 9.145982e-01	 1.248371e+01
 1.072840e+00	 9.356545e-01	 1.219702e+01
 1.054416e+00	 9.563699e-01	 1.193026e+01
 1.151702e+00	 8.565347e-01	 1.330679e+01
 1.134868e+00	 8.787174e-01	 1.306111e+01
 1.117585e+00	 9.005959e-01	 1.278854e+01
 1.099862e+00	 9.221569e-01	 1.250266e+01
 1.081707e+00	 9.433872e-01	 1.221945e+01
 1.063130e+00	 9.642738e-01	 1.195708e+01
 1.161142e+00	 8.635555e-01	 1.331224e+01
 1.144170e+00	 8.859200e-01	 1.307193e+01
 1.126746e+00	 9.079778e-01	 1.280331e+01
 1.108877e+00	 9.297156e-01	 1.252059e+01
 1.090573e+00	 9.511198e-01	 1.224055e+01
 1.071844e+00	 9.721777e-01	 1.198232e+01
 1.170582e+00	 8.705763e-01	 1.331630e+01
 1.153472e+00	 8.931226e-01	 1.308161e+01
 1.135906e+00	 9.153598e-01	 1.281687e+01
 1.117892e+00	 9.372742e-01	 1.253705e+01
 1.099440e+00	 9.588525e-01	 1.225985e+01
 1.080558e+00	 9.800816e-01	 1.200552e+01
 1.180023e+00	 8.775970e-01	 1.331900e+01
 1.162774e+00	 9.003252e-01	 1.308989e+01
 1.145067e+00	 9.227417e-01	 1.282890e+01
 1.126908e+00	 9.448329e-01	 1.255168e+01
 1.108306e+00	 9.665852e-01	 1.227699e+01
 1.089272e+00	 9.879855e-01	 1.202634e+01
 1.045702e+00	 9.484660e-01	 1.190235e+01
 1.027024e+00	 9.686600e-01	 1.162169e+01
 1.007950e+00	 9.884919e-01	 1.130438e+01
 9.884919e-01	 1.007950e+00	 1.097028e+01
 9.686600e-01	 1.027024e+00	 1.063976e+01
 9.484660e-01	 1.045702e+00	 1.033336e+01
 1.054416e+00	 9.563699e-01	 1.193026e+01
 1.035582e+00	 9.767322e-01	 1.165457e+01
 1.016350e+00	 9.967293e-01	 1.134162e+01
 9.967293e-01	 1.016350e+00	 1.101153e+01
 9.767322e-01	 1.035582e+00	 1.068499e+01
 9.563699e-01	 1.054416e+00	 1.038289e+01
 1.063130e+00	 9.642738e-01	 1.195708e+01
 1.044141e+00	 9.848044e-01	 1.168615e+01
 1.024749e+00	 1.004967e+00	 1.137728e+01
 1.004967e+00	 1.024749e+00	 1.105088e+01
 9.848044e-01	 1.044141e+00	 1.072798e+01
 9.642738e-01	 1.063130e+00	 1.042984e+01
 1.071844e+00	 9.721777e-01	 1.198232e+01
 1.052699e+00	 9.928765e-01	 1.171592e+01
 1.033149e+00	 1.013204e+00	 1.141087e+01
 1.013204e+00	 1.033149e+00	 1.108785e+01
 9.928765e-01	 1.052699e+00	 1.076824e+01
 9.721777e-01	 1.071844e+00	 1.047367e+01
 1.080558e+00	 9.800816e-01	 1.200552e+01
 1.061258e+00	 1.000949e+00	 1.174349e+01
 1.041548e+00	 1.021442e+00	 1.144198e+01
 1.021442e+00	 1.041548e+00	 1.112202e+01
 1.000949e+00	 1.061258e+00	 1.080531e+01
 9.800816e-01	 1.080558e+00	 1.051389e+01
 1.089272e+00	 9.879855e-01	 1.202634e+01
 1.069816e+00	 1.009021e+00	 1.176850e+01
 1.049948e+00	 1.029679e+00	 1.147029e+01
 1.029679e+00	 1.049948e+00	 1.115303e+01
 1.009021e+00	 1.069816e+00	 1.083881e+01
 9.879855e-01	 1.089272e+00	 1.055009e+01
 9.484660e-01	 1.045702e+00	 1.033336e+01
 9.279218e-01	 1.063974e+00	 1.002986e+01
 9.070396e-01	 1.081831e+00	 9.702876e+00
 8.858320e-01	 1.099264e+00	 9.363987e+00
 8.643121e-01	 1.116263e+00	 9.022995e+00
 8.424932e-01	 1.132822e+00	 8.687620e+00
 9.563699e-01	 1.054416e+00	 1.038289e+01
 9.356545e-01	 1.072840e+00	 1.008254e+01
 9.145982e-01	 1.090846e+00	 9.756578e+00
 8.932140e-01	 1.108424e+00	 9.417670e+00
 8.715148e-01	 1.125566e+00	 9.076686e+00
 8.495139e-01	 1.142262e+00	 8.742366e+00
 9.642738e-01	 1.063130e+00	 1.042984e+01
 9.433872e-01	 1.081707e+00	 1.013239e+01
 9.221569e-01	 1.099862e+00	 9.807486e+00
 9.005959e-01	 1.117585e+00	 9.469054e+00
 8.787174e-01	 1.134868e+00	 9.129199e+00
 8.565347e-01	 1.151702e+00	 8.797858e+00
 9.721777e-01	 1.071844e+00	 1.047367e+01
 9.511198e-01	 1.090573e+00	 1.017884e+01
 9.297156e-01	 1.108877e+00	 9.855014e+00
 9.079778e-01	 1.126746e+00	 9.517559e+00
 8.859200e-01	 1.144170e+00	 9.179982e+00
 8.635555e-01	 1.161142e+00	 8.853587e+00
 9.800816e-01	 1.080558e+00	 1.051389e+01
 9.588525e-01	 1.099440e+00	 1.022135e+01
 9.372742e-01	 1.117892e+00	 9.898623e+00
 9.153598e-01	 1.135906e+00	 9.562648e+00
 8.931226e-01	 1.153472e+00	 9.228516e+00
 8.705763e-01	 1.170582e+00	 8.909068e+00
 9.879855e-01	 1.089272e+00	 1.055009e+01
 9.665852e-01	 1.108306e+00	 1.025947e+01
 9.448329e-01	 1.126908e+00	 9.937824e+00
 9.227417e-01	 1.145067e+00	 9.603827e+00
 9.003252e-01	 1.162774e+00	 9.274318e+00
 8.775970e-01	 1.180023e+00	 8.963270e+00
 8.424932e-01	 1.132822e+00	 8.687620e+00
 8.203886e-01	 1.148931e+00	 8.353227e+00
 7.980122e-01	 1.164584e+00	 8.024868e+00
 7.753781e-01	 1.179775e+00	 7.720095e+00
 7.525004e-01	 1.194497e+00	 7.415186e+00
 7.293934e-01	 1.208745e+00	 7.093490e+00
 8.495139e-01	 1.142262e+00	 8.742366e+00
 8.272252e-01	 1.158505e+00	 8.413514e+00
 8.046623e-01	 1.174289e+00	 8.098858e+00
 7.818396e-01	 1.189606e+00	 7.798832e+00
 7.587712e-01	 1.204451e+00	 7.487635e+00
 7.354717e-01	 1.218818e+00	 7.163375e+00
 8.565347e-01	 1.151702e+00	 8.797858e+00
 8.340617e-01	 1.168080e+00	 8.477435e+00
 8.113124e-01	 1.183994e+00	 8.174889e+00
 7.883011e-01	 1.199438e+00	 7.869294e+00
 7.650421e-01	 1.214405e+00	 7.554666e+00
 7.415500e-01	 1.228891e+00	 7.229895e+00
 8.635555e-01	 1.161142e+00	 8.853587e+00
 8.408983e-01	 1.177654e+00	 8.544385e+00
 8.179625e-01	 1.193699e+00	 8.242038e+00
 7.947626e-01	 1.209269e+00	 7.933499e+00
 7.713129e-01	 1.224359e+00	 7.618079e+00
 7.476282e-01	 1.238964e+00	 7.294570e+00
 8.705763e-01	 1.170582e+00	 8.909068e+00
 8.477349e-01	 1.187229e+00	 8.606474e+00
 8.246126e-01	 1.203404e+00	 8.302009e+00
 8.012240e-01	 1.219101e+00	 7.993471e+00
 7.775837e-01	 1.234313e+00	 7.679685e+00
 7.537065e-01	 1.249037e+00	 7.358943e+00
 8.775970e-01	 1.180023e+00	 8.963270e+00
 8.545714e-01	 1.196803e+00	 8.660559e+00
 8.312627e-01	 1.213108e+00	 8.356974e+00
 8.076855e-01	 1.228932e+00	 8.051239e+00
 7.838546e-01	 1.244268e+00	 7.741309e+00
 7.597848e-01	 1.259110e+00	 7.424576e+00
 7.293934e-01	 1.208745e+00	 7.093490e+00
 7.060717e-01	 1.222515e+00	 6.770340e+00
 6.825498e-01	 1.235801e+00	 6.458753e+00
 6.588424e-01	 1.248602e+00	 6.152774e+00
 6.349643e-01	 1.260912e+00	 5.846521e+00
 6.109301e-01	 1.272731e+00	 5.534307e+00
 7.354717e-01	 1.218818e+00	 7.163375e+00
 7.119556e-01	 1.232702e+00	 6.841733e+00
 6.882377e-01	 1.246100e+00	 6.534568e+00
 6.643328e-01	 1.259007e+00	 6.234400e+00
 6.402557e-01	 1.271420e+00	 5.933819e+00
 6.160212e-01	 1.283337e+00	 5.625620e+00
 7.415500e-01	 1.228891e+00	 7.229895e+00
 7.178396e-01	 1.242890e+00	 6.910584e+00
 6.939256e-01	 1.256398e+00	 6.607595e+00
 6.698231e-01	 1.269412e+00	 6.312381e+00
 6.455470e-01	 1.281928e+00	 6.016475e+00
 6.211123e-01	 1.293943e+00	 5.711626e+00
 7.476282e-01	 1.238964e+00	 7.294570e+00
 7.237235e-01	 1.253078e+00	 6.978159e+00
 6.996136e-01	 1.266697e+00	 6.678935e+00
 6.753135e-01	 1.279817e+00	 6.387735e+00
 6.508384e-01	 1.292435e+00	 6.095485e+00
 6.262034e-01	 1.304549e+00	 5.793362e+00
 7.537065e-01	 1.249037e+00	 7.358943e+00
 7.296074e-01	 1.263265e+00	 7.045751e+00
 7.053015e-01	 1.276995e+00	 6.749723e+00
 6.808039e-01	 1.290222e+00	 6.461508e+00
 6.561298e-01	 1.302943e+00	 6.171879e+00
 6.312944e-01	 1.315155e+00	 5.871890e+00
 7.597848e-01	 1.259110e+00	 7.424576e+00
 7.354913e-01	 1.273453e+00	 7.114682e+00
 7.109894e-01	 1.287293e+00	 6.821121e+00
 6.862942e-01	 1.300627e+00	 6.534781e+00
 6.614211e-01	 1.313450e+00	 6.246715e+00
 6.363855e-01	 1.325761e+00	 5.948300e+00
 6.109301e-01	 1.272731e+00	 5.534307e+00
 5.867546e-01	 1.284056e+00	 5.236017e+00
 5.624525e-01	 1.294885e+00	 4.959269e+00
 5.380384e-01	 1.305218e+00	 4.690426e+00
 5.135269e-01	 1.315055e+00	 4.424768e+00
 4.889324e-01	 1.324396e+00	 4.158646e+00
 6.160212e-01	 1.283337e+00	 5.625620e+00
 5.916442e-01	 1.294756e+00	 5.328337e+00
 5.671396e-01	 1.305676e+00	 5.052362e+00
 5.425221e-01	 1.316095e+00	 4.781846e+00
 5.178063e-01	 1.326014e+00	 4.513405e+00
 4.930068e-01	 1.335433e+00	 4.244906e+00
 6.211123e-01	 1.293943e+00	 5.711626e+00
 5.965338e-01	 1.305456e+00	 5.415465e+00
 5.718267e-01	 1.316466e+00	 5.140747e+00
 5.470057e-01	 1.326972e+00	 4.869999e+00
 5.220857e-01	 1.336973e+00	 4.600193e+00
 4.970813e-01	 1.346469e+00	 4.330376e+00
 6.262034e-01	 1.304549e+00	 5.793362e+00
 6.014235e-01	 1.316157e+00	 5.498492e+00
 5.765138e-01	 1.327257e+00	 5.225418e+00
 5.514894e-01	 1.337849e+00	 4.955801e+00
 5.263651e-01	 1.347931e+00	 4.685927e+00
 5.011557e-01	 1.357506e+00	 4.415695e+00
 6.312944e-01	 1.315155e+00	 5.871890e+00
 6.063131e-01	 1.326857e+00	 5.578500e+00
 5.812009e-01	 1.338048e+00	 5.307383e+00
 5.559730e-01	 1.348725e+00	 5.040186e+00
 5.306445e-01	 1.358890e+00	 4.771417e+00
 5.052302e-01	 1.368543e+00	 4.501512e+00
 6.363855e-01	 1.325761e+00	 5.948300e+00
 6.112027e-01	 1.337558e+00	 5.656598e+00
 5.858880e-01	 1.348838e+00	 5.387669e+00
 5.604567e-01	 1.359602e+00	 5.124101e+00
 5.349239e-01	 1.369849e+00	 4.857489e+00
 5.093046e-01	 1.379579e+00	 4.588498e+00
 4.889324e-01	 1.324396e+00	 4.158646e+00
 4.642693e-01	 1.333242e+00	 3.893860e+00
 4.395516e-01	 1.341594e+00	 3.635438e+00
 4.147933e-01	 1.349454e+00	 3.385907e+00
 3.900083e-01	 1.356825e+00	 3.148489e+00
 3.652100e-01	 1.363709e+00	 2.926975e+00
 4.930068e-01	 1.335433e+00	 4.244906e+00
 4.681382e-01	 1.344352e+00	 3.979755e+00
 4.432145e-01	 1.352774e+00	 3.722969e+00
 4.182499e-01	 1.360699e+00	 3.476157e+00
 3.932584e-01	 1.368132e+00	 3.241610e+00
 3.682535e-01	 1.375073e+00	 3.022183e+00
 4.970813e-01	 1.346469e+00	 4.330376e+00
 4.720071e-01	 1.355462e+00	 4.065202e+00
 4.468774e-01	 1.363954e+00	 3.809715e+00
 4.217065e-01	 1.371945e+00	 3.564890e+00
 3.965084e-01	 1.379438e+00	 3.332371e+00
 3.712969e-01	 1.386437e+00	 3.114356e+00
 5.011557e-01	 1.357506e+00	 4.415695e+00
 4.758760e-01	 1.366573e+00	 4.150690e+00
 4.505404e-01	 1.375134e+00	 3.896079e+00
 4.251632e-01	 1.383190e+00	 3.652472e+00
 3.997585e-01	 1.390745e+00	 3.421142e+00
 3.743403e-01	 1.397801e+00	 3.203910e+00
 5.052302e-01	 1.368543e+00	 4.501512e+00
 4.797449e-01	 1.377683e+00	 4.236728e+00
 4.542033e-01	 1.386314e+00	 3.982479e+00
 4.286198e-01	 1.394436e+00	 3.739280e+00
 4.030086e-01	 1.402052e+00	 3.508303e+00
 3.773837e-01	 1.409166e+00	 3.291262e+00
 5.093046e-01	 1.379579e+00	 4.588498e+00
 4.836138e-01	 1.388794e+00	 4.323842e+00
 4.578662e-01	 1.397494e+00	 4.069351e+00
 4.320764e-01	 1.405681e+00	 3.825707e+00
 4.062586e-01	 1.413359e+00	 3.594247e+00
 3.804271e-01	 1.420530e+00	 3.376841e+00
 3.652100e-01	 1.363709e+00	 2.926975e+00
 3.404119e-01	 1.370109e+00	 2.720127e+00
 3.156268e-01	 1.376030e+00	 2.524294e+00
 2.908676e-01	 1.381476e+00	 2.340199e+00
 2.661469e-01	 1.386451e+00	 2.168767e+00
 2.414767e-01	 1.390960e+00	 2.011080e+00
 3.682535e-01	 1.375073e+00	 3.022183e+00
 3.432486e-01	 1.381527e+00	 2.815631e+00
 3.182570e-01	 1.387497e+00	 2.618429e+00
 2.932915e-01	 1.392988e+00	 2.432049e+00
 2.683648e-01	 1.398004e+00	 2.258152e+00
 2.434890e-01	 1.402551e+00	 2.098536e+00
 3.712969e-01	 1.386437e+00	 3.114356e+00
 3.460854e-01	 1.392944e+00	 2.907896e+00
 3.208872e-01	 1.398964e+00	 2.709587e+00
 2.957154e-01	 1.404500e+00	 2.521470e+00
 2.705827e-01	 1.409558e+00	 2.345761e+00
 2.455013e-01	 1.414142e+00	 2.184791e+00
 3.743403e-01	 1.397801e+00	 3.203910e+00
 3.489222e-01	 1.404362e+00	 2.997374e+00
 3.235175e-01	 1.410431e+00	 2.798215e+00
 2.981393e-01	 1.416013e+00	 2.608870e+00
 2.728006e-01	 1.421112e+00	 2.431931e+00
 2.475137e-01	 1.425734e+00	 2.270084e+00
 3.773837e-01	 1.409166e+00	 3.291262e+00
 3.517589e-01	 1.415780e+00	 3.084520e+00
 3.261477e-01	 1.421898e+00	 2.884762e+00
 3.005632e-01	 1.427525e+00	 2.694656e+00
 2.750185e-01	 1.432666e+00	 2.516998e+00
 2.495260e-01	 1.437325e+00	 2.354653e+00
 3.804271e-01	 1.420530e+00	 3.376841e+00
 3.545957e-01	 1.427197e+00	 3.169789e+00
 3.287779e-01	 1.433365e+00	 2.969674e+00
 3.029871e-01	 1.439037e+00	 2.779232e+00
 2.772364e-01	 1.444219e+00	 2.601294e+00
 2.515383e-01	 1.448916e+00	 2.438734e+00
 2.414767e-01	 1.390960e+00	 2.011080e+00
 2.168690e-01	 1.395008e+00	 1.867262e+00
 1.923353e-01	 1.398602e+00	 1.737217e+00
 1.678868e-01	 1.401747e+00	 1.621822e+00
 1.435344e-01	 1.404449e+00	 1.521997e+00
 1.192886e-01	 1.406716e+00	 1.438690e+00
 2.434890e-01	 1.402551e+00	 2.098536e+00
 2.186763e-01	 1.406633e+00	 1.953737e+00
 1.939381e-01	 1.410257e+00	 1.823400e+00
 1.692859e-01	 1.413428e+00	 1.708085e+00
 1.447305e-01	 1.416153e+00	 1.608368e+00
 1.202826e-01	 1.418439e+00	 1.524845e+00
 2.455013e-01	 1.414142e+00	 2.184791e+00
 2.204835e-01	 1.418258e+00	 2.039313e+00
 1.955409e-01	 1.421912e+00	 1.908722e+00
 1.706849e-01	 1.425109e+00	 1.793375e+00
 1.459267e-01	 1.427857e+00	 1.693629e+00
 1.212767e-01	 1.430161e+00	 1.609839e+00
 2.475137e-01	 1.425734e+00	 2.270084e+00
 2.222908e-01	 1.429883e+00	 2.124137e+00
 1.971437e-01	 1.433567e+00	 1.993272e+00
 1.720840e-01	 1.436790e+00	 1.877758e+00
 1.471228e-01	 1.439560e+00	 1.777847e+00
 1.222708e-01	 1.441884e+00	 1.693770e+00
 2.495260e-01	 1.437325e+00	 2.354653e+00
 2.240980e-01	 1.441508e+00	 2.208356e+00
 1.987465e-01	 1.445222e+00	 2.077139e+00
 1.734831e-01	 1.448472e+00	 1.961298e+00
 1.483189e-01	 1.451264e+00	 1.861089e+00
 1.232649e-01	 1.453607e+00	 1.776730e+00
 2.515383e-01	 1.448916e+00	 2.438734e+00
 2.259052e-01	 1.453133e+00	 2.292117e+00
 2.003493e-01	 1.456877e+00	 2.160416e+00
 1.748821e-01	 1.460153e+00	 2.044060e+00
 1.495150e-01	 1.462968e+00	 1.943420e+00
 1.242589e-01	 1.465329e+00	 1.858809e+00
 1.192886e-01	 1.406716e+00	 1.438690e+00
 9.515944e-02	 1.408554e+00	 1.371847e+00
 7.115680e-02	 1.409970e+00	 1.320284e+00
 4.729006e-02	 1.410972e+00	 1.283368e+00
 2.356824e-02	 1.411568e+00	 1.260587e+00
 0.000000e+00	 1.411765e+00	 1.251567e+00
 1.202826e-01	 1.418439e+00	 1.524845e+00
 9.595243e-02	 1.420292e+00	 1.457248e+00
 7.174977e-02	 1.421720e+00	 1.404726e+00
 4.768414e-02	 1.422731e+00	 1.367077e+00
 2.376465e-02	 1.423331e+00	 1.344201e+00
 0.000000e+00	 1.423529e+00	 1.336123e+00
 1.212767e-01	 1.430161e+00	 1.609839e+00
 9.674543e-02	 1.432030e+00	 1.541636e+00
 7.234275e-02	 1.433470e+00	 1.488426e+00
 4.807823e-02	 1.434489e+00	 1.450284e+00
 2.396105e-02	 1.435094e+00	 1.427372e+00
 0.000000e+00	 1.435294e+00	 1.419955e+00
 1.222708e-01	 1.441884e+00	 1.693770e+00
 9.753842e-02	 1.443768e+00	 1.625135e+00
 7.293572e-02	 1.445220e+00	 1.571516e+00
 4.847231e-02	 1.446247e+00	 1.533114e+00
 2.415745e-02	 1.446857e+00	 1.510199e+00
 0.000000e+00	 1.447059e+00	 1.503128e+00
 1.232649e-01	 1.453607e+00	 1.776730e+00
 9.833142e-02	 1.455506e+00	 1.707867e+00
 7.352869e-02	 1.456969e+00	 1.654124e+00
 4.886639e-02	 1.458005e+00	 1.615684e+00
 2.435385e-02	 1.458620e+00	 1.592777e+00
 0.000000e+00	 1.458824e+00	 1.585706e+00
 1.242589e-01	 1.465329e+00	 1.858809e+00
 9.912441e-02	 1.467244e+00	 1.789945e+00
 7.412167e-02	 1.468719e+00	 1.736372e+00
 4.926048e-02	 1.469763e+00	 1.698105e+00
 2.455025e-02	 1.470383e+00	 1.675193e+00
 0.000000e+00	 1.470588e+00	 1.667743e+00
 1.470588e+00	 0.000000e+00	 1.563759e+01
 1.470383e+00	 2.455025e-02	 1.562970e+01
 1.469763e+00	 4.926048e-02	 1.562589e+01
 1.468719e+00	 7.412167e-02	 1.562337e+01
 1.467244e+00	 9.912441e-02	 1.562004e+01
 1.465329e+00	 1.242589e-01	 1.561453e+01
 1.482353e+00	 0.000000e+00	 1.550180e+01
 1.482146e+00	 2.474666e-02	 1.549324e+01
 1.481521e+00	 4.965456e-02	 1.548940e+01
 1.480469e+00	 7.471464e-02	 1.548743e+01
 1.478982e+00	 9.991741e-02	 1.548516e+01
 1.477052e+00	 1.252530e-01	 1.548123e+01
 1.494118e+00	 0.000000e+00	 1.537106e+01
 1.493909e+00	 2.494306e-02	 1.536175e+01
 1.493279e+00	 5.004865e-02	 1.535781e+01
 1.492219e+00	 7.530761e-02	 1.535630e+01
 1.490720e+00	 1.007104e-01	 1.535504e+01
 1.488774e+00	 1.262471e-01	 1.535266e+01
 1.505882e+00	 0.000000e+00	 1.524502e+01
 1.505672e+00	 2.513946e-02	 1.523495e+01
 1.505037e+00	 5.044273e-02	 1.523086e+01
 1.503968e+00	 7.590059e-02	 1.522975e+01
 1.502458e+00	 1.015034e-01	 1.522943e+01
 1.500497e+00	 1.272411e-01	 1.522852e+01
 1.517647e+00	 0.000000e+00	 1.512336e+01
 1.517436e+00	 2.533586e-02	 1.511258e+01
 1.516795e+00	 5.083681e-02	 1.510832e+01
 1.515718e+00	 7.649356e-02	 1.510756e+01
 1.514196e+00	 1.022964e-01	 1.510808e+01
 1.512220e+00	 1.282352e-01	 1.510853e+01
 1.529412e+00	 0.000000e+00	 1.500573e+01
 1.529199e+00	 2.553226e-02	 1.499436e+01
 1.528553e+00	 5.123090e-02	 1.498996e+01
 1.527468e+00	 7.708653e-02	 1.498950e+01
 1.525933e+00	 1.030894e-01	 1.499075e+01
 1.523942e+00	 1.292293e-01	 1.499239e+01
 1.465329e+00	 1.242589e-01	 1.561453e+01
 1.462968e+00	 1.495150e-01	 1.560599e+01
 1.460153e+00	 1.748821e-01	 1.559398e+01
 1.456877e+00	 2.003493e-01	 1.557897e+01
 1.453133e+00	 2.259052e-01	 1.556221e+01
 1.448916e+00	 2.515383e-01	 1.554578e+01
 1.477052e+00	 1.252530e-01	 1.548123e+01
 1.474672e+00	 1.507111e-01	 1.547442e+01
 1.471834e+00	 1.762812e-01	 1.546395e+01
 1.468532e+00	 2.019521e-01	 1.545036e+01
 1.464758e+00	 2.277125e-01	 1.543498e+01
 1.460508e+00	 2.535506e-01	 1.542002e+01
 1.488774e+00	 1.262471e-01	 1.535266e+01
 1.486375e+00	 1.519073e-01	 1.534755e+01
 1.483515e+00	 1.776802e-01	 1.533857e+01
 1.480187e+00	 2.035549e-01	 1.532630e+01
 1.476384e+00	 2.295197e-01	 1.531218e+01
 1.472099e+00	 2.555629e-01	 1.529855e+01
 1.500497e+00	 1.272411e-01	 1.522852e+01
 1.498079e+00	 1.531034e-01	 1.522504e+01
 1.495196e+00	 1.790793e-01	 1.521745e+01
 1.491842e+00	 2.051577e-01	 1.520641e+01
 1.488009e+00	 2.313270e-01	 1.519345e+01
 1.483690e+00	 2.575752e-01	 1.518105e+01
 1.512220e+00	 1.282352e-01	 1.510853e+01
 1.509783e+00	 1.542995e-01	 1.510654e+01
 1.506878e+00	 1.804783e-01	 1.510024e+01
 1.503497e+00	 2.067605e-01	 1.509032e+01
 1.499634e+00	 2.331342e-01	 1.507842e+01
 1.495282e+00	 2.595875e-01	 1.506717e+01
 1.523942e+00	 1.292293e-01	 1.499239e+01
 1.521487e+00	 1.554956e-01	 1.499173e+01
 1.518559e+00	 1.818774e-01	 1.498655e+01
 1.515152e+00	 2.083633e-01	 1.497763e+01
 1.511259e+00	 2.349414e-01	 1.496673e+01
 1.506873e+00	 2.615998e-01	 1.495659e+01
 1.448916e+00	 2.515383e-01	 1.554578e+01
 1.444219e+00	 2.772364e-01	 1.552519e+01
 1.439037e+00	 3.029871e-01	 1.549776e+01
 1.433365e+00	 3.287779e-01	 1.546974e+01
 1.427197e+00	 3.545957e-01	 1.544834e+01
 1.420530e+00	 3.804271e-01	 1.544170e+01
 1.460508e+00	 2.535506e-01	 1.542002e+01
 1.455773e+00	 2.794542e-01	 1.540130e+01
 1.450550e+00	 3.054110e-01	 1.537648e+01
 1.444832e+00	 3.314081e-01	 1.535200e+01
 1.438615e+00	 3.574324e-01	 1.533531e+01
 1.431894e+00	 3.834705e-01	 1.533484e+01
 1.472099e+00	 2.555629e-01	 1.529855e+01
 1.467327e+00	 2.816721e-01	 1.528157e+01
 1.462062e+00	 3.078349e-01	 1.525924e+01
 1.456299e+00	 3.340384e-01	 1.523817e+01
 1.450032e+00	 3.602692e-01	 1.522602e+01
 1.443258e+00	 3.865140e-01	 1.523147e+01
 1.483690e+00	 2.575752e-01	 1.518105e+01
 1.478881e+00	 2.838900e-01	 1.516570e+01
 1.473574e+00	 3.102588e-01	 1.514573e+01
 1.467766e+00	 3.366686e-01	 1.512789e+01
 1.461450e+00	 3.631060e-01	 1.512005e+01
 1.454623e+00	 3.895574e-01	 1.513109e+01
 1.495282e+00	 2.595875e-01	 1.506717e+01
 1.490434e+00	 2.861079e-01	 1.505337e+01
 1.485087e+00	 3.126827e-01	 1.503563e+01
 1.479233e+00	 3.392988e-01	 1.502082e+01
 1.472867e+00	 3.659427e-01	 1.501697e+01
 1.465987e+00	 3.926008e-01	 1.503318e+01
 1.506873e+00	 2.615998e-01	 1.495659e+01
 1.501988e+00	 2.883258e-01	 1.494429e+01
 1.496599e+00	 3.151066e-01	 1.492863e+01
 1.490699e+00	 3.419290e-01	 1.491662e+01
 1.484285e+00	 3.687795e-01	 1.491640e+01
 1.477351e+00	 3.956442e-01	 1.493723e+01
 1.420530e+00	 3.804271e-01	 1.544170e+01
 1.413359e+00	 4.062586e-01	 1.542999e+01
 1.405681e+00	 4.320764e-01	 1.539076e+01
 1.397494e+00	 4.578662e-01	 1.532893e+01
 1.388794e+00	 4.836138e-01	 1.524931e+01
 1.379579e+00	 5.093046e-01	 1.515656e+01
 1.431894e+00	 3.834705e-01	 1.533484e+01
 1.424666e+00	 4.095087e-01	 1.532883e+01
 1.416927e+00	 4.355330e-01	 1.529312e+01
 1.408674e+00	 4.615291e-01	 1.523325e+01
 1.399904e+00	 4.874827e-01	 1.515476e+01
 1.390616e+00	 5.133790e-01	 1.506309e+01
 1.443258e+00	 3.865140e-01	 1.523147e+01
 1.435973e+00	 4.127588e-01	 1.523091e+01
 1.428172e+00	 4.389896e-01	 1.519851e+01
 1.419853e+00	 4.651921e-01	 1.514051e+01
 1.411014e+00	 4.913516e-01	 1.506322e+01
 1.401652e+00	 5.174535e-01	 1.497294e+01
 1.454623e+00	 3.895574e-01	 1.513109e+01
 1.447280e+00	 4.160089e-01	 1.513562e+01
 1.439418e+00	 4.424462e-01	 1.510628e+01
 1.431033e+00	 4.688550e-01	 1.505007e+01
 1.422125e+00	 4.952205e-01	 1.497412e+01
 1.412689e+00	 5.215279e-01	 1.488564e+01
 1.465987e+00	 3.926008e-01	 1.503318e+01
 1.458586e+00	 4.192589e-01	 1.504235e+01
 1.450663e+00	 4.459028e-01	 1.501581e+01
 1.442213e+00	 4.725179e-01	 1.496133e+01
 1.433235e+00	 4.990894e-01	 1.488691e+01
 1.423726e+00	 5.256023e-01	 1.480075e+01
 1.477351e+00	 3.956442e-01	 1.493723e+01
 1.469893e+00	 4.225090e-01	 1.495054e+01
 1.461908e+00	 4.493594e-01	 1.492649e+01
 1.453393e+00	 4.761809e-01	 1.487368e+01
 1.444345e+00	 5.029584e-01	 1.480106e+01
 1.434762e+00	 5.296768e-01	 1.471788e+01
 1.379579e+00	 5.093046e-01	 1.515656e+01
 1.369849e+00	 5.349239e-01	 1.507347e+01
 1.359602e+00	 5.604567e-01	 1.502885e+01
 1.348838e+00	 5.858880e-01	 1.503650e+01
 1.337558e+00	 6.112027e-01	 1.503116e+01
 1.325761e+00	 6.363855e-01	 1.490913e+01
 1.390616e+00	 5.133790e-01	 1.506309e+01
 1.380808e+00	 5.392032e-01	 1.498484e+01
 1.370479e+00	 5.649403e-01	 1.495248e+01
 1.359629e+00	 5.905751e-01	 1.497970e+01
 1.348258e+00	 6.160923e-01	 1.496913e+01
 1.336367e+00	 6.414766e-01	 1.484946e+01
 1.401652e+00	 5.174535e-01	 1.497294e+01
 1.391767e+00	 5.434826e-01	 1.490001e+01
 1.381356e+00	 5.694240e-01	 1.488041e+01
 1.370420e+00	 5.952622e-01	 1.492225e+01
 1.358959e+00	 6.209820e-01	 1.490680e+01
 1.346974e+00	 6.465677e-01	 1.479046e+01
 1.412689e+00	 5.215279e-01	 1.488564e+01
 1.402725e+00	 5.477620e-01	 1.481860e+01
 1.392233e+00	 5.739076e-01	 1.481228e+01
 1.381211e+00	 5.999493e-01	 1.486331e+01
 1.369659e+00	 6.258716e-01	 1.484408e+01
 1.357580e+00	 6.516588e-01	 1.473190e+01
 1.423726e+00	 5.256023e-01	 1.480075e+01
 1.413684e+00	 5.520414e-01	 1.474027e+01
 1.403109e+00	 5.783913e-01	 1.474775e+01
 1.392001e+00	 6.046364e-01	 1.480294e+01
 1.380360e+00	 6.307612e-01	 1.478095e+01
 1.368186e+00	 6.567499e-01	 1.467361e+01
 1.434762e+00	 5.296768e-01	 1.471788e+01
 1.424643e+00	 5.563208e-01	 1.466471e+01
 1.413986e+00	 5.828749e-01	 1.468650e+01
 1.402792e+00	 6.093235e-01	 1.474122e+01
 1.391060e+00	 6.356508e-01	 1.471744e+01
 1.378792e+00	 6.618409e-01	 1.461549e+01
 1.325761e+00	 6.363855e-01	 1.490913e+01
 1.313450e+00	 6.614211e-01	 1.474572e+01
 1.300627e+00	 6.862942e-01	 1.460574e+01
 1.287293e+00	 7.109894e-01	 1.447714e+01
 1.273453e+00	 7.354913e-01	 1.434694e+01
 1.259110e+00	 7.597848e-01	 1.420145e+01
 1.336367e+00	 6.414766e-01	 1.484946e+01
 1.323958e+00	 6.667125e-01	 1.469285e+01
 1.311032e+00	 6.917846e-01	 1.455999e+01
 1.297592e+00	 7.166773e-01	 1.443837e+01
 1.283641e+00	 7.413753e-01	 1.431450e+01
 1.269182e+00	 7.658631e-01	 1.417412e+01
 1.346974e+00	 6.465677e-01	 1.479046e+01
 1.334466e+00	 6.720039e-01	 1.464127e+01
 1.321437e+00	 6.972749e-01	 1.451572e+01
 1.307890e+00	 7.223652e-01	 1.440096e+01
 1.293828e+00	 7.472592e-01	 1.428311e+01
 1.279255e+00	 7.719414e-01	 1.414746e+01
 1.357580e+00	 6.516588e-01	 1.473190e+01
 1.344973e+00	 6.772952e-01	 1.459059e+01
 1.331842e+00	 7.027653e-01	 1.447250e+01
 1.318188e+00	 7.280531e-01	 1.436453e+01
 1.304016e+00	 7.531431e-01	 1.425250e+01
 1.289328e+00	 7.780196e-01	 1.412137e+01
 1.368186e+00	 6.567499e-01	 1.467361e+01
 1.355481e+00	 6.825866e-01	 1.454051e+01
 1.342247e+00	 7.082556e-01	 1.442996e+01
 1.328487e+00	 7.337411e-01	 1.432873e+01
 1.314203e+00	 7.590271e-01	 1.422244e+01
 1.299401e+00	 7.840979e-01	 1.409586e+01
 1.378792e+00	 6.618409e-01	 1.461549e+01
 1.365988e+00	 6.878780e-01	 1.449078e+01
 1.352652e+00	 7.137460e-01	 1.438783e+01
 1.338785e+00	 7.394290e-01	 1.429333e+01
 1.324391e+00	 7.649110e-01	 1.419281e+01
 1.309474e+00	 7.901762e-01	 1.407096e+01
 1.259110e+00	 7.597848e-01	 1.420145e+01
 1.244268e+00	 7.838546e-01	 1.404314e+01
 1.228932e+00	 8.076855e-01	 1.388003e+01
 1.213108e+00	 8.312627e-01	 1.370720e+01
 1.196803e+00	 8.545714e-01	 1.352092e+01
 1.180023e+00	 8.775970e-01	 1.331900e+01
 1.269182e+00	 7.658631e-01	 1.417412e+01
 1.254222e+00	 7.901254e-01	 1.402117e+01
 1.238763e+00	 8.141470e-01	 1.386481e+01
 1.222813e+00	 8.379128e-01	 1.369893e+01
 1.206377e+00	 8.614080e-01	 1.351859e+01
 1.189463e+00	 8.846178e-01	 1.332033e+01
 1.279255e+00	 7.719414e-01	 1.414746e+01
 1.264176e+00	 7.963962e-01	 1.399944e+01
 1.248595e+00	 8.206085e-01	 1.384933e+01
 1.232518e+00	 8.445629e-01	 1.368985e+01
 1.215952e+00	 8.682446e-01	 1.351484e+01
 1.198903e+00	 8.916386e-01	 1.331961e+01
 1.289328e+00	 7.780196e-01	 1.412137e+01
 1.274130e+00	 8.026671e-01	 1.397810e+01
 1.258426e+00	 8.270700e-01	 1.383395e+01
 1.242223e+00	 8.512131e-01	 1.368049e+01
 1.225526e+00	 8.750812e-01	 1.351037e+01
 1.208343e+00	 8.986594e-01	 1.331766e+01
 1.299401e+00	 7.840979e-01	 1.409586e+01
 1.284084e+00	 8.089379e-01	 1.395736e+01
 1.268258e+00	 8.335315e-01	 1.381907e+01
 1.251928e+00	 8.578632e-01	 1.367145e+01
 1.235101e+00	 8.819177e-01	 1.350594e+01
 1.217783e+00	 9.056801e-01	 1.331537e+01
 1.309474e+00	 7.901762e-01	 1.407096e+01
 1.294038e+00	 8.152087e-01	 1.393748e+01
 1.278089e+00	 8.399929e-01	 1.380517e+01
 1.261633e+00	 8.645133e-01	 1.366337e+01
 1.244675e+00	 8.887543e-01	 1.350234e+01
 1.227223e+00	 9.127009e-01	 1.331369e+01
 1.180023e+00	 8.775970e-01	 1.331900e+01
 1.162774e+00	 9.003252e-01	 1.308989e+01
 1.145067e+00	 9.227417e-01	 1.282890e+01
 1.126908e+00	 9.448329e-01	 1.255168e+01
 1.108306e+00	 9.665852e-01	 1.227699e+01
 1.089272e+00	 9.879855e-01	 1.202634e+01
 1.189463e+00	 8.846178e-01	 1.332033e+01
 1.172077e+00	 9.075278e-01	 1.309518e+01
 1.154227e+00	 9.301237e-01	 1.283839e+01
 1.135923e+00	 9.523916e-01	 1.256421e+01
 1.117173e+00	 9.743179e-01	 1.229244e+01
 1.097987e+00	 9.958893e-01	 1.204581e+01
 1.198903e+00	 8.916386e-01	 1.331961e+01
 1.181379e+00	 9.147304e-01	 1.309658e+01
 1.163388e+00	 9.375056e-01	 1.284483e+01
 1.144938e+00	 9.599502e-01	 1.257490e+01
 1.126039e+00	 9.820506e-01	 1.230713e+01
 1.106701e+00	 1.003793e+00	 1.206525e+01
 1.208343e+00	 8.986594e-01	 1.331766e+01
 1.190681e+00	 9.219330e-01	 1.309624e+01
 1.172548e+00	 9.448875e-01	 1.284876e+01
 1.153953e+00	 9.675089e-01	 1.258422e+01
 1.134906e+00	 9.897832e-01	 1.232140e+01
 1.115415e+00	 1.011697e+00	 1.208481e+01
 1.217783e+00	 9.056801e-01	 1.331537e+01
 1.199983e+00	 9.291356e-01	 1.309534e+01
 1.181709e+00	 9.522695e-01	 1.285105e+01
 1.162969e+00	 9.750676e-01	 1.259274e+01
 1.143772e+00	 9.975159e-01	 1.233567e+01
 1.124129e+00	 1.019601e+00	 1.210471e+01
 1.227223e+00	 9.127009e-01	 1.331369e+01
 1.209285e+00	 9.363382e-01	 1.309489e+01
 1.190869e+00	 9.596514e-01	 1.285369e+01
 1.171984e+00	 9.826262e-01	 1.260106e+01
 1.152639e+00	 1.005249e+00	 1.235045e+01
 1.132843e+00	 1.027505e+00	 1.212528e+01
 1.089272e+00	 9.879855e-01	 1.202634e+01
 1.069816e+00	 1.009021e+00	 1.176850e+01
 1.049948e+00	 1.029679e+00	 1.147029e+01
 1.029679e+00	 1.049948e+00	 1.115303e+01
 1.009021e+00	 1.069816e+00	 1.083881e+01
 9.879855e-01	 1.089272e+00	 1.055009e+01
 1.097987e+00	 9.958893e-01	 1.204581e+01
 1.078375e+00	 1.017093e+00	 1.179222e+01
 1.058348e+00	 1.037916e+00	 1.149697e+01
 1.037916e+00	 1.058348e+00	 1.118185e+01
 1.017093e+00	 1.078375e+00	 1.086948e+01
 9.958893e-01	 1.097987e+00	 1.058291e+01
 1.106701e+00	 1.003793e+00	 1.206525e+01
 1.086933e+00	 1.025165e+00	 1.181601e+01
 1.066747e+00	 1.046154e+00	 1.152324e+01
 1.046154e+00	 1.066747e+00	 1.120945e+01
 1.025165e+00	 1.086933e+00	 1.089808e+01
 1.003793e+00	 1.106701e+00	 1.061306e+01
 1.115415e+00	 1.011697e+00	 1.208481e+01
 1.095492e+00	 1.033237e+00	 1.183983e+01
 1.075147e+00	 1.054391e+00	 1.154891e+01
 1.054391e+00	 1.075147e+00	 1.123555e+01
 1.033237e+00	 1.095492e+00	 1.092431e+01
 1.011697e+00	 1.115415e+00	 1.064031e+01
 1.124129e+00	 1.019601e+00	 1.210471e+01
 1.104050e+00	 1.041310e+00	 1.186371e+01
 1.083546e+00	 1.062629e+00	 1.157389e+01
 1.062629e+00	 1.083546e+00	 1.125999e+01
 1.041310e+00	 1.104050e+00	 1.094798e+01
 1.019601e+00	 1.124129e+00	 1.066445e+01
 1.132843e+00	 1.027505e+00	 1.212528e+01
 1.112609e+00	 1.049382e+00	 1.188778e+01
 1.091946e+00	 1.070866e+00	 1.159815e+01
 1.070866e+00	 1.091946e+00	 1.128268e+01
 1.049382e+00	 1.112609e+00	 1.096896e+01
 1.027505e+00	 1.132843e+00	 1.068539e+01
 9.879855e-01	 1.089272e+00	 1.055009e+01
 9.665852e-01	 1.108306e+00	 1.025947e+01
 9.448329e-01	 1.126908e+00	 9.937824e+00
 9.227417e-01	 1.145067e+00	 9.603827e+00
 9.003252e-01	 1.162774e+00	 9.274318e+00
 8.775970e-01	 1.180023e+00	 8.963270e+00
 9.958893e-01	 1.097987e+00	 1.058291e+01
 9.743179e-01	 1.117173e+00	 1.029402e+01
 9.523916e-01	 1.135923e+00	 9.973705e+00
 9.301237e-01	 1.154227e+00	 9.642387e+00
 9.075278e-01	 1.172077e+00	 9.318614e+00
 8.846178e-01	 1.189463e+00	 9.011743e+00
 1.003793e+00	 1.106701e+00	 1.061306e+01
 9.820506e-01	 1.126039e+00	 1.032589e+01
 9.599502e-01	 1.144938e+00	 1.000743e+01
 9.375056e-01	 1.163388e+00	 9.679619e+00
 9.147304e-01	 1.181379e+00	 9.362021e+00
 8.916386e-01	 1.198903e+00	 9.055767e+00
 1.011697e+00	 1.115415e+00	 1.064031e+01
 9.897832e-01	 1.134906e+00	 1.035485e+01
 9.675089e-01	 1.153953e+00	 1.003870e+01
 9.448875e-01	 1.172548e+00	 9.715106e+00
 9.219330e-01	 1.190681e+00	 9.402297e+00
 8.986594e-01	 1.208343e+00	 9.097113e+00
 1.019601e+00	 1.124129e+00	 1.066445e+01
 9.975159e-01	 1.143772e+00	 1.038073e+01
 9.750676e-01	 1.162969e+00	 1.006727e+01
 9.522695e-01	 1.181709e+00	 9.748598e+00
 9.291356e-01	 1.199983e+00	 9.440910e+00
 9.056801e-01	 1.217783e+00	 9.137567e+00
 1.027505e+00	 1.132843e+00	 1.068539e+01
 1.005249e+00	 1.152639e+00	 1.040340e+01
 9.826262e-01	 1.171984e+00	 1.009298e+01
 9.596514e-01	 1.190869e+00	 9.781274e+00
 9.363382e-01	 1.209285e+00	 9.479821e+00
 9.127009e-01	 1.227223e+00	 9.178923e+00
 8.775970e-01	 1.180023e+00	 8.963270e+00
 8.545714e-01	 1.196803e+00	 8.660559e+00
 8.312627e-01	 1.213108e+00	 8.356974e+00
 8.076855e-01	 1.228932e+00	 8.051239e+00
 7.838546e-01	 1.244268e+00	 7.741309e+00
 7.597848e-01	 1.259110e+00	 7.424576e+00
 8.846178e-01	 1.189463e+00	 9.011743e+00
 8.614080e-01	 1.206377e+00	 8.708856e+00
 8.379128e-01	 1.222813e+00	 8.407592e+00
 8.141470e-01	 1.238763e+00	 8.105782e+00
 7.901254e-01	 1.254222e+00	 7.800449e+00
 7.658631e-01	 1.269182e+00	 7.488024e+00
 8.916386e-01	 1.198903e+00	 9.055767e+00
 8.682446e-01	 1.215952e+00	 8.753156e+00
 8.445629e-01	 1.232518e+00	 8.454072e+00
 8.206085e-01	 1.248595e+00	 8.155697e+00
 7.963962e-01	 1.264176e+00	 7.854371e+00
 7.719414e-01	 1.279255e+00	 7.545822e+00
 8.986594e-01	 1.208343e+00	 9.097113e+00
 8.750812e-01	 1.225526e+00	 8.795072e+00
 8.512131e-01	 1.242223e+00	 8.497934e+00
 8.270700e-01	 1.258426e+00	 8.202468e+00
 8.026671e-01	 1.274130e+00	 7.904574e+00
 7.780196e-01	 1.289328e+00	 7.599530e+00
 9.056801e-01	 1.217783e+00	 9.137567e+00
 8.819177e-01	 1.235101e+00	 8.836232e+00
 8.578632e-01	 1.251928e+00	 8.540715e+00
 8.335315e-01	 1.268258e+00	 8.247597e+00
 8.089379e-01	 1.284084e+00	 7.952575e+00
 7.840979e-01	 1.299401e+00	 7.650724e+00
 9.127009e-01	 1.227223e+00	 9.178923e+00
 8.887543e-01	 1.244675e+00	 8.878282e+00
 8.645133e-01	 1.261633e+00	 8.583970e+00
 8.399929e-01	 1.278089e+00	 8.292603e+00
 8.152087e-01	 1.294038e+00	 7.999909e+00
 7.901762e-01	 1.309474e+00	 7.700996e+00
 7.597848e-01	 1.259110e+00	 7.424576e+00
 7.354913e-01	 1.273453e+00	 7.114682e+00
 7.109894e-01	 1.287293e+00	 6.821121e+00
 6.862942e-01	 1.300627e+00	 6.534781e+00
 6.614211e-01	 1.313450e+00	 6.246715e+00
 6.363855e-01	 1.325761e+00	 5.948300e+00
 7.658631e-01	 1.269182e+00	 7.488024e+00
 7.413753e-01	 1.283641e+00	 7.181378e+00
 7.166773e-01	 1.297592e+00	 6.890099e+00
 6.917846e-01	 1.311032e+00	 6.605430e+00
 6.667125e-01	 1.323958e+00	 6.318821e+00
 6.414766e-01	 1.336367e+00	 6.022091e+00
 7.719414e-01	 1.279255e+00	 7.545822e+00
 7.472592e-01	 1.293828e+00	 7.242440e+00
 7.223652e-01	 1.307890e+00	 6.953901e+00
 6.972749e-01	 1.321437e+00	 6.671617e+00
 6.720039e-01	 1.334466e+00	 6.387248e+00
 6.465677e-01	 1.346974e+00	 6.092863e+00
 7.780196e-01	 1.289328e+00	 7.599530e+00
 7.531431e-01	 1.304016e+00	 7.299478e+00
 7.280531e-01	 1.318188e+00	 7.014129e+00
 7.027653e-01	 1.331842e+00	 6.734885e+00
 6.772952e-01	 1.344973e+00	 6.453426e+00
 6.516588e-01	 1.357580e+00	 6.161888e+00
 7.840979e-01	 1.299401e+00	 7.650724e+00
 7.590271e-01	 1.314203e+00	 7.354119e+00
 7.337411e-01	 1.328487e+00	 7.072402e+00
 7.082556e-01	 1.342247e+00	 6.796788e+00
 6.825866e-01	 1.355481e+00	 6.518802e+00
 6.567499e-01	 1.368186e+00	 6.230457e+00
 7.901762e-01	 1.309474e+00	 7.700996e+00
 7.649110e-01	 1.324391e+00	 7.408001e+00
 7.394290e-01	 1.338785e+00	 7.130348e+00
 7.137460e-01	 1.352652e+00	 6.858896e+00
 6.878780e-01	 1.365988e+00	 6.584836e+00
 6.618409e-01	 1.378792e+00	 6.299879e+00
 6.363855e-01	 1.325761e+00	 5.948300e+00
 6.112027e-01	 1.337558e+00	 5.656598e+00
 5.858880e-01	 1.348838e+00	 5.387669e+00
 5.604567e-01	 1.359602e+00	 5.124101e+00
 5.349239e-01	 1.369849e+00	 4.857489e+00
 5.093046e-01	 1.379579e+00	 4.588498e+00
 6.414766e-01	 1.336367e+00	 6.022091e+00
 6.160923e-01	 1.348258e+00	 5.732404e+00
 5.905751e-01	 1.359629e+00	 5.465587e+00
 5.649403e-01	 1.370479e+00	 5.206224e+00
 5.392032e-01	 1.380808e+00	 4.942262e+00
 5.133790e-01	 1.390616e+00	 4.674447e+00
 6.465677e-01	 1.346974e+00	 6.092863e+00
 6.209820e-01	 1.358959e+00	 5.805518e+00
 5.952622e-01	 1.370420e+00	 5.540746e+00
 5.694240e-01	 1.381356e+00	 5.285155e+00
 5.434826e-01	 1.391767e+00	 5.023829e+00
 5.174535e-01	 1.401652e+00	 4.757225e+00
 6.516588e-01	 1.357580e+00	 6.161888e+00
 6.258716e-01	 1.369659e+00	 5.877051e+00
 5.999493e-01	 1.381211e+00	 5.614204e+00
 5.739076e-01	 1.392233e+00	 5.361756e+00
 5.477620e-01	 1.402725e+00	 5.103003e+00
 5.215279e-01	 1.412689e+00	 4.837624e+00
 6.567499e-01	 1.368186e+00	 6.230457e+00
 6.307612e-01	 1.380360e+00	 5.948135e+00
 6.046364e-01	 1.392001e+00	 5.686969e+00
 5.783913e-01	 1.403109e+00	 5.436907e+00
 5.520414e-01	 1.413684e+00	 5.180615e+00
 5.256023e-01	 1.423726e+00	 4.916456e+00
 6.618409e-01	 1.378792e+00	 6.299879e+00
 6.356508e-01	 1.391060e+00	 6.019927e+00
 6.093235e-01	 1.402792e+00	 5.760073e+00
 5.828749e-01	 1.413986e+00	 5.511513e+00
 5.563208e-01	 1.424643e+00	 5.257514e+00
 5.296768e-01	 1.434762e+00	 4.994544e+00
 5.093046e-01	 1.379579e+00	 4.588498e+00
 4.836138e-01	 1.388794e+00	 4.323842e+00
 4.578662e-01	 1.397494e+00	 4.069351e+00
 4.320764e-01	 1.405681e+00	 3.825707e+00
 4.062586e-01	 1.413359e+00	 3.594247e+00
 3.804271e-01	 1.420530e+00	 3.376841e+00
 5.133790e-01	 1.390616e+00	 4.674447e+00
 4.874827e-01	 1.399904e+00	 4.409940e+00
 4.615291e-01	 1.408674e+00	 4.155081e+00
 4.355330e-01	 1.416927e+00	 3.910813e+00
 4.095087e-01	 1.424666e+00	 3.678727e+00
 3.834705e-01	 1.431894e+00	 3.460940e+00
 5.174535e-01	 1.401652e+00	 4.757225e+00
 4.913516e-01	 1.411014e+00	 4.493082e+00
 4.651921e-01	 1.419853e+00	 4.238240e+00
 4.389896e-01	 1.428172e+00	 3.993825e+00
 4.127588e-01	 1.435973e+00	 3.761610e+00
 3.865140e-01	 1.443258e+00	 3.543873e+00
 5.215279e-01	 1.412689e+00	 4.837624e+00
 4.952205e-01	 1.422125e+00	 4.574045e+00
 4.688550e-01	 1.431033e+00	 4.319558e+00
 4.424462e-01	 1.439418e+00	 4.075408e+00
 4.160089e-01	 1.447280e+00	 3.843468e+00
 3.895574e-01	 1.454623e+00	 3.626108e+00
 5.256023e-01	 1.423726e+00	 4.916456e+00
 4.990894e-01	 1.433235e+00	 4.653617e+00
 4.725179e-01	 1.442213e+00	 4.399777e+00
 4.459028e-01	 1.450663e+00	 4.156229e+00
 4.192589e-01	 1.458586e+00	 3.924883e+00
 3.926008e-01	 1.465987e+00	 3.708116e+00
 5.296768e-01	 1.434762e+00	 4.994544e+00
 5.029584e-01	 1.444345e+00	 4.732596e+00
 4.761809e-01	 1.453393e+00	 4.479644e+00
 4.493594e-01	 1.461908e+00	 4.236969e+00
 4.225090e-01	 1.469893e+00	 4.006440e+00
 3.956442e-01	 1.477351e+00	 3.790378e+00
 3.804271e-01	 1.420530e+00	 3.376841e+00
 3.545957e-01	 1.427197e+00	 3.169789e+00
 3.287779e-01	 1.433365e+00	 2.969674e+00
 3.029871e-01	 1.439037e+00	 2.779232e+00
 2.772364e-01	 1.444219e+00	 2.601294e+00
 2.515383e-01	 1.448916e+00	 2.438734e+00
 3.834705e-01	 1.431894e+00	 3.460940e+00
 3.574324e-01	 1.438615e+00	 3.253707e+00
 3.314081e-01	 1.444832e+00	 3.053434e+00
 3.054110e-01	 1.450550e+00	 2.862869e+00
 2.794542e-01	 1.455773e+00	 2.684828e+00
 2.535506e-01	 1.460508e+00	 2.522134e+00
 3.865140e-01	 1.443258e+00	 3.543873e+00
 3.602692e-01	 1.450032e+00	 3.336733e+00
 3.340384e-01	 1.456299e+00	 3.136413e+00
 3.078349e-01	 1.462062e+00	 2.945727e+00
 2.816721e-01	 1.467327e+00	 2.767528e+00
 2.555629e-01	 1.472099e+00	 2.604645e+00
 3.895574e-01	 1.454623e+00	 3.626108e+00
 3.631060e-01	 1.461450e+00	 3.419232e+00
 3.366686e-01	 1.467766e+00	 3.218900e+00
 3.102588e-01	 1.473574e+00	 3.028044e+00
 2.838900e-01	 1.478881e+00	 2.849607e+00
 2.575752e-01	 1.483690e+00	 2.686476e+00
 3.926008e-01	 1.465987e+00	 3.708116e+00
 3.659427e-01	 1.472867e+00	 3.501576e+00
 3.392988e-01	 1.479233e+00	 3.301190e+00
 3.126827e-01	 1.485087e+00	 3.110063e+00
 2.861079e-01	 1.490434e+00	 2.931278e+00
 2.595875e-01	 1.495282e+00	 2.767837e+00
 3.956442e-01	 1.477351e+00	 3.790378e+00
 3.687795e-01	 1.484285e+00	 3.584139e+00
 3.419290e-01	 1.490699e+00	 3.383582e+00
 3.151066e-01	 1.496599e+00	 3.192030e+00
 2.883258e-01	 1.501988e+00	 3.012761e+00
 2.615998e-01	 1.506873e+00	 2.848937e+00
 2.515383e-01	 1.448916e+00	 2.438734e+00
 2.259052e-01	 1.453133e+00	 2.292117e+00
 2.003493e-01	 1.456877e+00	 2.160416e+00
 1.748821e-01	 1.460153e+00	 2.044060e+00
 1.495150e-01	 1.462968e+00	 1.943420e+00
 1.242589e-01	 1.465329e+00	 1.858809e+00
 2.535506e-01	 1.460508e+00	 2.522134e+00
 2.277125e-01	 1.464758e+00	 2.375191e+00
 2.019521e-01	 1.468532e+00	 2.242975e+00
 1.762812e-01	 1.471834e+00	 2.126082e+00
 1.507111e-01	 1.474672e+00	 2.025027e+00
 1.252530e-01	 1.477052e+00	 1.940246e+00
 2.555629e-01	 1.472099e+00	 2.604645e+00
 2.295197e-01	 1.476384e+00	 2.457393e+00
 2.035549e-01	 1.480187e+00	 2.324764e+00
 1.776802e-01	 1.483515e+00	 2.207478e+00
 1.519073e-01	 1.486375e+00	 2.106146e+00
 1.262471e-01	 1.488774e+00	 2.021279e+00
 2.575752e-01	 1.483690e+00	 2.686476e+00
 2.313270e-01	 1.488009e+00	 2.538934e+00
 2.051577e-01	 1.491842e+00	 2.405981e+00
 1.790793e-01	 1.495196e+00	 2.288418e+00
 1.531034e-01	 1.498079e+00	 2.186908e+00
 1.272411e-01	 1.500497e+00	 2.101988e+00
 2.595875e-01	 1.495282e+00	 2.767837e+00
 2.331342e-01	 1.499634e+00	 2.620021e+00
 2.067605e-01	 1.503497e+00	 2.486819e+00
 1.804783e-01	 1.506878e+00	 2.369068e+00
 1.542995e-01	 1.509783e+00	 2.267440e+00
 1.282352e-01	 1.512220e+00	 2.182449e+00
 2.615998e-01	 1.506873e+00	 2.848937e+00
 2.349414e-01	 1.511259e+00	 2.700863e+00
 2.083633e-01	 1.515152e+00	 2.567469e+00
 1.818774e-01	 1.518559e+00	 2.449591e+00
 1.554956e-01	 1.521487e+00	 2.347866e+00
 1.292293e-01	 1.523942e+00	 2.262739e+00
 1.242589e-01	 1.465329e+00	 1.858809e+00
 9.912441e-02	 1.467244e+00	 1.789945e+00
 7.412167e-02	 1.468719e+00	 1.736372e+00
 4.926048e-02	 1.469763e+00	 1.698105e+00
 2.455025e-02	 1.470383e+00	 1.675193e+00
 0.000000e+00	 1.470588e+00	 1.667743e+00
 1.252530e-01	 1.477052e+00	 1.940246e+00
 9.991741e-02	 1.478982e+00	 1.871501e+00
 7.471464e-02	 1.480469e+00	 1.818186e+00
 4.965456e-02	 1.481521e+00	 1.780127e+00
 2.474666e-02	 1.482146e+00	 1.757159e+00
 0.000000e+00	 1.482353e+00	 1.749164e+00
 1.262471e-01	 1.488774e+00	 2.021279e+00
 1.007104e-01	 1.490720e+00	 1.952618e+00
 7.530761e-02	 1.492219e+00	 1.899438e+00
 5.004865e-02	 1.493279e+00	 1.861455e+00
 2.494306e-02	 1.493909e+00	 1.838378e+00
 0.000000e+00	 1.494118e+00	 1.829946e+00
 1.272411e-01	 1.500497e+00	 2.101988e+00
 1.015034e-01	 1.502458e+00	 2.033336e+00
 7.590059e-02	 1.503968e+00	 1.980154e+00
 5.044273e-02	 1.505037e+00	 1.942131e+00
 2.513946e-02	 1.505672e+00	 1.918928e+00
 0.000000e+00	 1.505882e+00	 1.910221e+00
 1.282352e-01	 1.512220e+00	 2.182449e+00
 1.022964e-01	 1.514196e+00	 2.113692e+00
 7.649356e-02	 1.515718e+00	 2.060360e+00
 5.083681e-02	 1.516795e+00	 2.022191e+00
 2.533586e-02	 1.517436e+00	 1.998880e+00
 0.000000e+00	 1.517647e+00	 1.990117e+00
 1.292293e-01	 1.523942e+00	 2.262739e+00
 1.030894e-01	 1.525933e+00	 2.193722e+00
 7.708653e-02	 1.527468e+00	 2.140077e+00
 5.123090e-02	 1.528553e+00	 2.101670e+00
 2.553226e-02	 1.529199e+00	 2.078302e+00
 0.000000e+00	 1.529412e+00	 2.069755e+00
 1.529412e+00	 0.000000e+00	 1.500573e+01
 1.529199e+00	 2.553226e-02	 1.499436e+01
 1.528553e+00	 5.123090e-02	 1.498996e+01
 1.527468e+00	 7.708653e-02	 1.498950e+01
 1.525933e+00	 1.030894e-01	 1.499075e+01
 1.523942e+00	 1.292293e-01	 1.499239e+01
 1.541176e+00	 0.000000e+00	 1.489207e+01
 1.540962e+00	 2.572867e-02	 1.488020e+01
 1.540312e+00	 5.162498e-02	 1.487570e+01
 1.539218e+00	 7.767951e-02	 1.487551e+01
 1.537671e+00	 1.038824e-01	 1.487743e+01
 1.535665e+00	 1.302234e-01	 1.488011e+01
 1.552941e+00	 0.000000e+00	 1.478238e+01
 1.552725e+00	 2.592507e-02	 1.477004e+01
 1.552070e+00	 5.201907e-02	 1.476547e+01
 1.550967e+00	 7.827248e-02	 1.476559e+01
 1.549409e+00	 1.046754e-01	 1.476813e+01
 1.547388e+00	 1.312174e-01	 1.477178e+01
 1.564706e+00	 0.000000e+00	 1.467644e+01
 1.564488e+00	 2.612147e-02	 1.466366e+01
 1.563828e+00	 5.241315e-02	 1.465906e+01
 1.562717e+00	 7.886545e-02	 1.465948e+01
 1.561147e+00	 1.054684e-01	 1.466264e+01
 1.559110e+00	 1.322115e-01	 1.466717e+01
 1.576471e+00	 0.000000e+00	 1.457403e+01
 1.576251e+00	 2.631787e-02	 1.456084e+01
 1.575586e+00	 5.280723e-02	 1.455623e+01
 1.574467e+00	 7.945843e-02	 1.455697e+01
 1.572885e+00	 1.062614e-01	 1.456071e+01
 1.570833e+00	 1.332056e-01	 1.456605e+01
 1.588235e+00	 0.000000e+00	 1.447494e+01
 1.588014e+00	 2.651427e-02	 1.446134e+01
 1.587344e+00	 5.320132e-02	 1.445674e+01
 1.586217e+00	 8.005140e-02	 1.445781e+01
 1.584623e+00	 1.070544e-01	 1.446212e+01
 1.582555e+00	 1.341996e-01	 1.446820e+01
 1.523942e+00	 1.292293e-01	 1.499239e+01
 1.521487e+00	 1.554956e-01	 1.499173e+01
 1.518559e+00	 1.818774e-01	 1.498655e+01
 1.515152e+00	 2.083633e-01	 1.497763e+01
 1.511259e+00	 2.349414e-01	 1.496673e+01
 1.506873e+00	 2.615998e-01	 1.495659e+01
 1.535665e+00	 1.302234e-01	 1.488011e+01
 1.533190e+00	 1.566917e-01	 1.488061e+01
 1.530240e+00	 1.832765e-01	 1.487645e+01
 1.526807e+00	 2.099661e-01	 1.486847e+01
 1.522884e+00	 2.367487e-01	 1.485853e+01
 1.518464e+00	 2.636121e-01	 1.484954e+01
 1.547388e+00	 1.312174e-01	 1.477178e+01
 1.544894e+00	 1.578879e-01	 1.477333e+01
 1.541921e+00	 1.846755e-01	 1.477011e+01
 1.538462e+00	 2.115689e-01	 1.476304e+01
 1.534509e+00	 2.385559e-01	 1.475409e+01
 1.530056e+00	 2.656244e-01	 1.474632e+01
 1.559110e+00	 1.322115e-01	 1.466717e+01
 1.556598e+00	 1.590840e-01	 1.466967e+01
 1.553603e+00	 1.860746e-01	 1.466732e+01
 1.550117e+00	 2.131717e-01	 1.466112e+01
 1.546134e+00	 2.403632e-01	 1.465316e+01
 1.541647e+00	 2.676367e-01	 1.464666e+01
 1.570833e+00	 1.332056e-01	 1.456605e+01
 1.568302e+00	 1.602801e-01	 1.456941e+01
 1.565284e+00	 1.874736e-01	 1.456785e+01
 1.561772e+00	 2.147744e-01	 1.456247e+01
 1.557759e+00	 2.421704e-01	 1.455549e+01
 1.553238e+00	 2.696490e-01	 1.455026e+01
 1.582555e+00	 1.341996e-01	 1.446820e+01
 1.580005e+00	 1.614762e-01	 1.447232e+01
 1.576965e+00	 1.888727e-01	 1.447148e+01
 1.573427e+00	 2.163772e-01	 1.446686e+01
 1.569384e+00	 2.439777e-01	 1.446082e+01
 1.564830e+00	 2.716613e-01	 1.445687e+01
 1.506873e+00	 2.615998e-01	 1.495659e+01
 1.501988e+00	 2.883258e-01	 1.494429e+01
 1.496599e+00	 3.151066e-01	 1.492863e+01
 1.490699e+00	 3.419290e-01	 1.491662e+01
 1.484285e+00	 3.687795e-01	 1.491640e+01
 1.477351e+00	 3.956442e-01	 1.493723e+01
 1.518464e+00	 2.636121e-01	 1.484954e+01
 1.513542e+00	 2.905437e-01	 1.483875e+01
 1.508111e+00	 3.175305e-01	 1.482509e+01
 1.502166e+00	 3.445593e-01	 1.481565e+01
 1.495703e+00	 3.716163e-01	 1.481869e+01
 1.488715e+00	 3.986876e-01	 1.484361e+01
 1.530056e+00	 2.656244e-01	 1.474632e+01
 1.525096e+00	 2.927616e-01	 1.473709e+01
 1.519623e+00	 3.199544e-01	 1.472535e+01
 1.513633e+00	 3.471895e-01	 1.471828e+01
 1.507120e+00	 3.744530e-01	 1.472422e+01
 1.500079e+00	 4.017310e-01	 1.475270e+01
 1.541647e+00	 2.676367e-01	 1.464666e+01
 1.536649e+00	 2.949795e-01	 1.463899e+01
 1.531136e+00	 3.223783e-01	 1.462907e+01
 1.525100e+00	 3.498197e-01	 1.462413e+01
 1.518538e+00	 3.772898e-01	 1.463260e+01
 1.511444e+00	 4.047745e-01	 1.466409e+01
 1.553238e+00	 2.696490e-01	 1.455026e+01
 1.548203e+00	 2.971974e-01	 1.454416e+01
 1.542648e+00	 3.248022e-01	 1.453593e+01
 1.536567e+00	 3.524499e-01	 1.453286e+01
 1.529955e+00	 3.801266e-01	 1.454345e+01
 1.522808e+00	 4.078179e-01	 1.457737e+01
 1.564830e+00	 2.716613e-01	 1.445687e+01
 1.559757e+00	 2.994153e-01	 1.445227e+01
 1.554160e+00	 3.272261e-01	 1.444558e+01
 1.548034e+00	 3.550801e-01	 1.444411e+01
 1.541373e+00	 3.829633e-01	 1.445640e+01
 1.534172e+00	 4.108613e-01	 1.449218e+01
 1.477351e+00	 3.956442e-01	 1.493723e+01
 1.469893e+00	 4.225090e-01	 1.495054e+01
 1.461908e+00	 4.493594e-01	 1.492649e+01
 1.453393e+00	 4.761809e-01	 1.487368e+01
 1.444345e+00	 5.029584e-01	 1.480106e+01
 1.434762e+00	 5.296768e-01	 1.471788e+01
 1.488715e+00	 3.986876e-01	 1.484361e+01
 1.481200e+00	 4.257591e-01	 1.486052e+01
 1.473154e+00	 4.528160e-01	 1.483873e+01
 1.464573e+00	 4.798438e-01	 1.478764e+01
 1.455456e+00	 5.068273e-01	 1.471718e+01
 1.445799e+00	 5.337512e-01	 1.463768e+01
 1.500079e+00	 4.017310e-01	 1.475270e+01
 1.492507e+00	 4.290091e-01	 1.477275e+01
 1.484399e+00	 4.562727e-01	 1.475299e+01
 1.475753e+00	 4.835067e-01	 1.470372e+01
 1.466566e+00	 5.106962e-01	 1.463583e+01
 1.456836e+00	 5.378257e-01	 1.456075e+01
 1.511444e+00	 4.047745e-01	 1.466409e+01
 1.503814e+00	 4.322592e-01	 1.468677e+01
 1.495645e+00	 4.597293e-01	 1.466885e+01
 1.486933e+00	 4.871697e-01	 1.462147e+01
 1.477676e+00	 5.145651e-01	 1.455652e+01
 1.467872e+00	 5.419001e-01	 1.448656e+01
 1.522808e+00	 4.078179e-01	 1.457737e+01
 1.515121e+00	 4.355093e-01	 1.460217e+01
 1.506890e+00	 4.631859e-01	 1.458586e+01
 1.498113e+00	 4.908326e-01	 1.454044e+01
 1.488787e+00	 5.184340e-01	 1.447882e+01
 1.478909e+00	 5.459745e-01	 1.441467e+01
 1.534172e+00	 4.108613e-01	 1.449218e+01
 1.526428e+00	 4.387593e-01	 1.451857e+01
 1.518136e+00	 4.666425e-01	 1.450362e+01
 1.509293e+00	 4.944955e-01	 1.446023e+01
 1.499897e+00	 5.223029e-01	 1.440229e+01
 1.489945e+00	 5.500490e-01	 1.434462e+01
 1.434762e+00	 5.296768e-01	 1.471788e+01
 1.424643e+00	 5.563208e-01	 1.466471e+01
 1.413986e+00	 5.828749e-01	 1.468650e+01
 1.402792e+00	 6.093235e-01	 1.474122e+01
 1.391060e+00	 6.356508e-01	 1.471744e+01
 1.378792e+00	 6.618409e-01	 1.461549e+01
 1.445799e+00	 5.337512e-01	 1.463768e+01
 1.435602e+00	 5.606002e-01	 1.459259e+01
 1.424863e+00	 5.873586e-01	 1.462907e+01
 1.413583e+00	 6.140106e-01	 1.467896e+01
 1.401761e+00	 6.405404e-01	 1.465413e+01
 1.389398e+00	 6.669320e-01	 1.455786e+01
 1.456836e+00	 5.378257e-01	 1.456075e+01
 1.446561e+00	 5.648796e-01	 1.452439e+01
 1.435740e+00	 5.918422e-01	 1.457421e+01
 1.424373e+00	 6.186977e-01	 1.461677e+01
 1.412461e+00	 6.454301e-01	 1.459146e+01
 1.400004e+00	 6.720231e-01	 1.450098e+01
 1.467872e+00	 5.419001e-01	 1.448656e+01
 1.457519e+00	 5.691590e-01	 1.445959e+01
 1.446617e+00	 5.963259e-01	 1.451844e+01
 1.435164e+00	 6.233848e-01	 1.455456e+01
 1.423162e+00	 6.503197e-01	 1.452935e+01
 1.410610e+00	 6.771142e-01	 1.444476e+01
 1.478909e+00	 5.459745e-01	 1.441467e+01
 1.468478e+00	 5.734384e-01	 1.439769e+01
 1.457494e+00	 6.008096e-01	 1.446158e+01
 1.445955e+00	 6.280720e-01	 1.449229e+01
 1.433862e+00	 6.552093e-01	 1.446777e+01
 1.421216e+00	 6.822053e-01	 1.438919e+01
 1.489945e+00	 5.500490e-01	 1.434462e+01
 1.479437e+00	 5.777178e-01	 1.433824e+01
 1.468370e+00	 6.052932e-01	 1.440365e+01
 1.456745e+00	 6.327591e-01	 1.443000e+01
 1.444562e+00	 6.600989e-01	 1.440676e+01
 1.431822e+00	 6.872964e-01	 1.433430e+01
 1.378792e+00	 6.618409e-01	 1.461549e+01
 1.365988e+00	 6.878780e-01	 1.449078e+01
 1.352652e+00	 7.137460e-01	 1.438783e+01
 1.338785e+00	 7.394290e-01	 1.429333e+01
 1.324391e+00	 7.649110e-01	 1.419281e+01
 1.309474e+00	 7.901762e-01	 1.407096e+01
 1.389398e+00	 6.669320e-01	 1.455786e+01
 1.376496e+00	 6.931694e-01	 1.444154e+01
 1.363057e+00	 7.192363e-01	 1.434613e+01
 1.349083e+00	 7.451169e-01	 1.425832e+01
 1.334579e+00	 7.707949e-01	 1.416363e+01
 1.319547e+00	 7.962545e-01	 1.404671e+01
 1.400004e+00	 6.720231e-01	 1.450098e+01
 1.387004e+00	 6.984607e-01	 1.439291e+01
 1.373462e+00	 7.247267e-01	 1.430496e+01
 1.359382e+00	 7.508048e-01	 1.422379e+01
 1.344766e+00	 7.766789e-01	 1.413493e+01
 1.329620e+00	 8.023328e-01	 1.402303e+01
 1.410610e+00	 6.771142e-01	 1.444476e+01
 1.397511e+00	 7.037521e-01	 1.434483e+01
 1.383867e+00	 7.302170e-01	 1.426423e+01
 1.369680e+00	 7.564927e-01	 1.418967e+01
 1.354954e+00	 7.825628e-01	 1.410668e+01
 1.339693e+00	 8.084110e-01	 1.399994e+01
 1.421216e+00	 6.822053e-01	 1.438919e+01
 1.408019e+00	 7.090435e-01	 1.429726e+01
 1.394272e+00	 7.357074e-01	 1.422394e+01
 1.379978e+00	 7.621806e-01	 1.415597e+01
 1.365141e+00	 7.884467e-01	 1.407893e+01
 1.349765e+00	 8.144893e-01	 1.397751e+01
 1.431822e+00	 6.872964e-01	 1.433430e+01
 1.418526e+00	 7.143348e-01	 1.425024e+01
 1.404677e+00	 7.411977e-01	 1.418413e+01
 1.390277e+00	 7.678685e-01	 1.412276e+01
 1.375329e+00	 7.943307e-01	 1.405175e+01
 1.359838e+00	 8.205676e-01	 1.395587e+01
 1.309474e+00	 7.901762e-01	 1.407096e+01
 1.294038e+00	 8.152087e-01	 1.393748e+01
 1.278089e+00	 8.399929e-01	 1.380517e+01
 1.261633e+00	 8.645133e-01	 1.366337e+01
 1.244675e+00	 8.887543e-01	 1.350234e+01
 1.227223e+00	 9.127009e-01	 1.331369e+01
 1.319547e+00	 7.962545e-01	 1.404671e+01
 1.303992e+00	 8.214796e-01	 1.391840e+01
 1.287921e+00	 8.464544e-01	 1.379197e+01
 1.271338e+00	 8.711634e-01	 1.365570e+01
 1.254250e+00	 8.955909e-01	 1.349873e+01
 1.236664e+00	 9.197217e-01	 1.331148e+01
 1.329620e+00	 8.023328e-01	 1.402303e+01
 1.313947e+00	 8.277504e-01	 1.389985e+01
 1.297752e+00	 8.529159e-01	 1.377896e+01
 1.281042e+00	 8.778135e-01	 1.364766e+01
 1.263824e+00	 9.024274e-01	 1.349406e+01
 1.246104e+00	 9.267425e-01	 1.330754e+01
 1.339693e+00	 8.084110e-01	 1.399994e+01
 1.323901e+00	 8.340213e-01	 1.388192e+01
 1.307584e+00	 8.593774e-01	 1.376634e+01
 1.290747e+00	 8.844636e-01	 1.363962e+01
 1.273398e+00	 9.092640e-01	 1.348894e+01
 1.255544e+00	 9.337632e-01	 1.330271e+01
 1.349765e+00	 8.144893e-01	 1.397751e+01
 1.333855e+00	 8.402921e-01	 1.386475e+01
 1.317415e+00	 8.658389e-01	 1.375438e+01
 1.300452e+00	 8.911137e-01	 1.363201e+01
 1.282973e+00	 9.161006e-01	 1.348402e+01
 1.264984e+00	 9.407840e-01	 1.329794e+01
 1.359838e+00	 8.205676e-01	 1.395587e+01
 1.343809e+00	 8.465629e-01	 1.384854e+01
 1.327247e+00	 8.723004e-01	 1.374339e+01
 1.310157e+00	 8.977638e-01	 1.362533e+01
 1.292547e+00	 9.229372e-01	 1.347999e+01
 1.274424e+00	 9.478048e-01	 1.329415e+01
 1.227223e+00	 9.127009e-01	 1.331369e+01
 1.209285e+00	 9.363382e-01	 1.309489e+01
 1.190869e+00	 9.596514e-01	 1.285369e+01
 1.171984e+00	 9.826262e-01	 1.260106e+01
 1.152639e+00	 1.005249e+00	 1.235045e+01
 1.132843e+00	 1.027505e+00	 1.212528e+01
 1.236664e+00	 9.197217e-01	 1.331148e+01
 1.218588e+00	 9.435408e-01	 1.309356e+01
 1.200030e+00	 9.670333e-01	 1.285532e+01
 1.180999e+00	 9.901849e-01	 1.260748e+01
 1.161505e+00	 1.012981e+00	 1.236396e+01
 1.141558e+00	 1.035409e+00	 1.214498e+01
 1.246104e+00	 9.267425e-01	 1.330754e+01
 1.227890e+00	 9.507434e-01	 1.309002e+01
 1.209190e+00	 9.744153e-01	 1.285458e+01
 1.190014e+00	 9.977435e-01	 1.261140e+01
 1.170371e+00	 1.020714e+00	 1.237477e+01
 1.150272e+00	 1.043313e+00	 1.216275e+01
 1.255544e+00	 9.337632e-01	 1.330271e+01
 1.237192e+00	 9.579460e-01	 1.308541e+01
 1.218351e+00	 9.817972e-01	 1.285278e+01
 1.199030e+00	 1.005302e+00	 1.261437e+01
 1.179238e+00	 1.028447e+00	 1.238408e+01
 1.158986e+00	 1.051217e+00	 1.217967e+01
 1.264984e+00	 9.407840e-01	 1.329794e+01
 1.246494e+00	 9.651486e-01	 1.308087e+01
 1.227511e+00	 9.891791e-01	 1.285125e+01
 1.208045e+00	 1.012861e+00	 1.261782e+01
 1.188104e+00	 1.036179e+00	 1.239379e+01
 1.167700e+00	 1.059120e+00	 1.219691e+01
 1.274424e+00	 9.478048e-01	 1.329415e+01
 1.255796e+00	 9.723512e-01	 1.307761e+01
 1.236672e+00	 9.965611e-01	 1.285136e+01
 1.217060e+00	 1.020420e+00	 1.262325e+01
 1.196971e+00	 1.043912e+00	 1.240562e+01
 1.176414e+00	 1.067024e+00	 1.221572e+01
 1.132843e+00	 1.027505e+00	 1.212528e+01
 1.112609e+00	 1.049382e+00	 1.188778e+01
 1.091946e+00	 1.070866e+00	 1.159815e+01
 1.070866e+00	 1.091946e+00	 1.128268e+01
 1.049382e+00	 1.112609e+00	 1.096896e+01
 1.027505e+00	 1.132843e+00	 1.068539e+01
 1.141558e+00	 1.035409e+00	 1.214498e+01
 1.121167e+00	 1.057454e+00	 1.191100e+01
 1.100346e+00	 1.079104e+00	 1.162131e+01
 1.079104e+00	 1.100346e+00	 1.130377e+01
 1.057454e+00	 1.121167e+00	 1.098774e+01
 1.035409e+00	 1.141558e+00	 1.070348e+01
 1.150272e+00	 1.043313e+00	 1.216275e+01
 1.129726e+00	 1.065526e+00	 1.193282e+01
 1.108745e+00	 1.087341e+00	 1.164336e+01
 1.087341e+00	 1.108745e+00	 1.132373e+01
 1.065526e+00	 1.129726e+00	 1.100491e+01
 1.043313e+00	 1.150272e+00	 1.071893e+01
 1.158986e+00	 1.051217e+00	 1.217967e+01
 1.138284e+00	 1.073598e+00	 1.195419e+01
 1.117145e+00	 1.095579e+00	 1.166507e+01
 1.095579e+00	 1.117145e+00	 1.134305e+01
 1.073598e+00	 1.138284e+00	 1.102065e+01
 1.051217e+00	 1.158986e+00	 1.073155e+01
 1.167700e+00	 1.059120e+00	 1.219691e+01
 1.146843e+00	 1.081670e+00	 1.197614e+01
 1.125544e+00	 1.103816e+00	 1.168727e+01
 1.103816e+00	 1.125544e+00	 1.136232e+01
 1.081670e+00	 1.146843e+00	 1.103523e+01
 1.059120e+00	 1.167700e+00	 1.074123e+01
 1.176414e+00	 1.067024e+00	 1.221572e+01
 1.155401e+00	 1.089743e+00	 1.199980e+01
 1.133944e+00	 1.112053e+00	 1.171090e+01
 1.112053e+00	 1.133944e+00	 1.138221e+01
 1.089743e+00	 1.155401e+00	 1.104901e+01
 1.067024e+00	 1.176414e+00	 1.074798e+01
 1.027505e+00	 1.132843e+00	 1.068539e+01
 1.005249e+00	 1.152639e+00	 1.040340e+01
 9.826262e-01	 1.171984e+00	 1.009298e+01
 9.596514e-01	 1.190869e+00	 9.781274e+00
 9.363382e-01	 1.209285e+00	 9.479821e+00
 9.127009e-01	 1.227223e+00	 9.178923e+00
 1.035409e+00	 1.141558e+00	 1.070348e+01
 1.012981e+00	 1.161505e+00	 1.042248e+01
 9.901849e-01	 1.180999e+00	 1.011473e+01
 9.670333e-01	 1.200030e+00	 9.812356e+00
 9.435408e-01	 1.218588e+00	 9.516925e+00
 9.197217e-01	 1.236664e+00	 9.218103e+00
 1.043313e+00	 1.150272e+00	 1.071893e+01
 1.020714e+00	 1.170371e+00	 1.043720e+01
 9.977435e-01	 1.190014e+00	 1.013455e+01
 9.744153e-01	 1.209190e+00	 9.840569e+00
 9.507434e-01	 1.227890e+00	 9.549746e+00
 9.267425e-01	 1.246104e+00	 9.251890e+00
 1.051217e+00	 1.158986e+00	 1.073155e+01
 1.028447e+00	 1.179238e+00	 1.044740e+01
 1.005302e+00	 1.199030e+00	 1.015428e+01
 9.817972e-01	 1.218351e+00	 9.867261e+00
 9.579460e-01	 1.237192e+00	 9.579707e+00
 9.337632e-01	 1.255544e+00	 9.281889e+00
 1.059120e+00	 1.167700e+00	 1.074123e+01
 1.036179e+00	 1.188104e+00	 1.045865e+01
 1.012861e+00	 1.208045e+00	 1.017532e+01
 9.891791e-01	 1.227511e+00	 9.893793e+00
 9.651486e-01	 1.246494e+00	 9.608243e+00
 9.407840e-01	 1.264984e+00	 9.309713e+00
 1.067024e+00	 1.176414e+00	 1.074798e+01
 1.043912e+00	 1.196971e+00	 1.047415e+01
 1.020420e+00	 1.217060e+00	 1.019908e+01
 9.965611e-01	 1.236672e+00	 9.921542e+00
 9.723512e-01	 1.255796e+00	 9.636802e+00
 9.478048e-01	 1.274424e+00	 9.336984e+00
 9.127009e-01	 1.227223e+00	 9.178923e+00
 8.887543e-01	 1.244675e+00	 8.878282e+00
 8.645133e-01	 1.261633e+00	 8.583970e+00
 8.399929e-01	 1.278089e+00	 8.292603e+00
 8.152087e-01	 1.294038e+00	 7.999909e+00
 7.901762e-01	 1.309474e+00	 7.700996e+00
 9.197217e-01	 1.236664e+00	 9.218103e+00
 8.955909e-01	 1.254250e+00	 8.917778e+00
 8.711634e-01	 1.271338e+00	 8.624418e+00
 8.464544e-01	 1.287921e+00	 8.334691e+00
 8.214796e-01	 1.303992e+00	 8.044369e+00
 7.962545e-01	 1.319547e+00	 7.748608e+00
 9.267425e-01	 1.246104e+00	 9.251890e+00
 9.024274e-01	 1.263824e+00	 8.951370e+00
 8.778135e-01	 1.281042e+00	 8.659006e+00
 8.529159e-01	 1.297752e+00	 8.371337e+00
 8.277504e-01	 1.313947e+00	 8.083984e+00
 8.023328e-01	 1.329620e+00	 7.791944e+00
 9.337632e-01	 1.255544e+00	 9.281889e+00
 9.092640e-01	 1.273398e+00	 8.980855e+00
 8.844636e-01	 1.290747e+00	 8.689641e+00
 8.593774e-01	 1.307584e+00	 8.404481e+00
 8.340213e-01	 1.323901e+00	 8.120653e+00
 8.084110e-01	 1.339693e+00	 7.832793e+00
 9.407840e-01	 1.264984e+00	 9.309713e+00
 9.161006e-01	 1.282973e+00	 9.008033e+00
 8.911137e-01	 1.300452e+00	 8.718232e+00
 8.658389e-01	 1.317415e+00	 8.436065e+00
 8.402921e-01	 1.333855e+00	 8.156281e+00
 8.144893e-01	 1.349765e+00	 7.872952e+00
 9.478048e-01	 1.274424e+00	 9.336984e+00
 9.229372e-01	 1.292547e+00	 9.034706e+00
 8.977638e-01	 1.310157e+00	 8.746687e+00
 8.723004e-01	 1.327247e+00	 8.468030e+00
 8.465629e-01	 1.343809e+00	 8.192770e+00
 8.205676e-01	 1.359838e+00	 7.914220e+00
 7.901762e-01	 1.309474e+00	 7.700996e+00
 7.649110e-01	 1.324391e+00	 7.408001e+00
 7.394290e-01	 1.338785e+00	 7.130348e+00
 7.137460e-01	 1.352652e+00	 6.858896e+00
 6.878780e-01	 1.365988e+00	 6.584836e+00
 6.618409e-01	 1.378792e+00	 6.299879e+00
 7.962545e-01	 1.319547e+00	 7.748608e+00
 7.707949e-01	 1.334579e+00	 7.459528e+00
 7.451169e-01	 1.349083e+00	 7.186228e+00
 7.192363e-01	 1.363057e+00	 6.919174e+00
 6.931694e-01	 1.376496e+00	 6.649190e+00
 6.669320e-01	 1.389398e+00	 6.367655e+00
 8.023328e-01	 1.329620e+00	 7.791944e+00
 7.766789e-01	 1.344766e+00	 7.507107e+00
 7.508048e-01	 1.359382e+00	 7.238240e+00
 7.247267e-01	 1.373462e+00	 6.975515e+00
 6.984607e-01	 1.387004e+00	 6.709492e+00
 6.720231e-01	 1.400004e+00	 6.431328e+00
 8.084110e-01	 1.339693e+00	 7.832793e+00
 7.825628e-01	 1.354954e+00	 7.552399e+00
 7.564927e-01	 1.369680e+00	 7.287948e+00
 7.302170e-01	 1.383867e+00	 7.029406e+00
 7.037521e-01	 1.397511e+00	 6.767176e+00
 6.771142e-01	 1.410610e+00	 6.492300e+00
 8.144893e-01	 1.349765e+00	 7.872952e+00
 7.884467e-01	 1.365141e+00	 7.597077e+00
 7.621806e-01	 1.379978e+00	 7.336922e+00
 7.357074e-01	 1.394272e+00	 7.082347e+00
 7.090435e-01	 1.408019e+00	 6.823689e+00
 6.822053e-01	 1.421216e+00	 6.551985e+00
 8.205676e-01	 1.359838e+00	 7.914220e+00
 7.943307e-01	 1.375329e+00	 7.642818e+00
 7.678685e-01	 1.390277e+00	 7.386749e+00
 7.411977e-01	 1.404677e+00	 7.135850e+00
 7.143348e-01	 1.418526e+00	 6.880494e+00
 6.872964e-01	 1.431822e+00	 6.611813e+00
 6.618409e-01	 1.378792e+00	 6.299879e+00
 6.356508e-01	 1.391060e+00	 6.019927e+00
 6.093235e-01	 1.402792e+00	 5.760073e+00
 5.828749e-01	 1.413986e+00	 5.511513e+00
 5.563208e-01	 1.424643e+00	 5.257514e+00
 5.296768e-01	 1.434762e+00	 4.994544e+00
 6.669320e-01	 1.389398e+00	 6.367655e+00
 6.405404e-01	 1.401761e+00	 6.090038e+00
 6.140106e-01	 1.413583e+00	 5.831475e+00
 5.873586e-01	 1.424863e+00	 5.583965e+00
 5.606002e-01	 1.435602e+00	 5.332581e+00
 5.337512e-01	 1.445799e+00	 5.071146e+00
 6.720231e-01	 1.400004e+00	 6.431328e+00
 6.454301e-01	 1.412461e+00	 6.156200e+00
 6.186977e-01	 1.424373e+00	 5.899293e+00
 5.918422e-01	 1.435740e+00	 5.652982e+00
 5.648796e-01	 1.446561e+00	 5.404822e+00
 5.378257e-01	 1.456836e+00	 5.145592e+00
 6.771142e-01	 1.410610e+00	 6.492300e+00
 6.503197e-01	 1.423162e+00	 6.219778e+00
 6.233848e-01	 1.435164e+00	 5.964825e+00
 5.963259e-01	 1.446617e+00	 5.720099e+00
 5.691590e-01	 1.457519e+00	 5.475307e+00
 5.419001e-01	 1.467872e+00	 5.218832e+00
 6.822053e-01	 1.421216e+00	 6.551985e+00
 6.552093e-01	 1.433862e+00	 6.282149e+00
 6.280720e-01	 1.445955e+00	 6.029383e+00
 6.008096e-01	 1.457494e+00	 5.786548e+00
 5.734384e-01	 1.468478e+00	 5.545119e+00
 5.459745e-01	 1.478909e+00	 5.291834e+00
 6.872964e-01	 1.431822e+00	 6.611813e+00
 6.600989e-01	 1.444562e+00	 6.344703e+00
 6.327591e-01	 1.456745e+00	 6.094295e+00
 6.052932e-01	 1.468370e+00	 5.853569e+00
 5.777178e-01	 1.479437e+00	 5.615356e+00
 5.500490e-01	 1.489945e+00	 5.365575e+00
 5.296768e-01	 1.434762e+00	 4.994544e+00
 5.029584e-01	 1.444345e+00	 4.732596e+00
 4.761809e-01	 1.453393e+00	 4.479644e+00
 4.493594e-01	 1.461908e+00	 4.236969e+00
 4.225090e-01	 1.469893e+00	 4.006440e+00
 3.956442e-01	 1.477351e+00	 3.790378e+00
 5.337512e-01	 1.445799e+00	 5.071146e+00
 5.068273e-01	 1.455456e+00	 4.810404e+00
 4.798438e-01	 1.464573e+00	 4.558552e+00
 4.528160e-01	 1.473154e+00	 4.316862e+00
 4.257591e-01	 1.481200e+00	 4.087176e+00
 3.986876e-01	 1.488715e+00	 3.871753e+00
 5.378257e-01	 1.456836e+00	 5.145592e+00
 5.106962e-01	 1.466566e+00	 4.886478e+00
 4.835067e-01	 1.475753e+00	 4.635874e+00
 4.562727e-01	 1.484399e+00	 4.395124e+00
 4.290091e-01	 1.492507e+00	 4.166116e+00
 4.017310e-01	 1.500079e+00	 3.951129e+00
 5.419001e-01	 1.467872e+00	 5.218832e+00
 5.145651e-01	 1.477676e+00	 4.961655e+00
 4.871697e-01	 1.486933e+00	 4.712349e+00
 4.597293e-01	 1.495645e+00	 4.472408e+00
 4.322592e-01	 1.503814e+00	 4.243844e+00
 4.047745e-01	 1.511444e+00	 4.029032e+00
 5.459745e-01	 1.478909e+00	 5.291834e+00
 5.184340e-01	 1.488787e+00	 5.036786e+00
 4.908326e-01	 1.498113e+00	 4.788728e+00
 4.631859e-01	 1.506890e+00	 4.549379e+00
 4.355093e-01	 1.515121e+00	 4.320954e+00
 4.078179e-01	 1.522808e+00	 4.105994e+00
 5.500490e-01	 1.489945e+00	 5.365575e+00
 5.223029e-01	 1.499897e+00	 5.112733e+00
 4.944955e-01	 1.509293e+00	 4.865771e+00
 4.666425e-01	 1.518136e+00	 4.626712e+00
 4.387593e-01	 1.526428e+00	 4.398045e+00
 4.108613e-01	 1.534172e+00	 4.182556e+00
 3.956442e-01	 1.477351e+00	 3.790378e+00
 3.687795e-01	 1.484285e+00	 3.584139e+00
 3.419290e-01	 1.490699e+00	 3.383582e+00
 3.151066e-01	 1.496599e+00	 3.192030e+00
 2.883258e-01	 1.501988e+00	 3.012761e+00
 2.615998e-01	 1.506873e+00	 2.848937e+00
 3.986876e-01	 1.488715e+00	 3.871753e+00
 3.716163e-01	 1.495703e+00	 3.665711e+00
 3.445593e-01	 1.502166e+00	 3.464890e+00
 3.175305e-01	 1.508111e+00	 3.272850e+00
 2.905437e-01	 1.513542e+00	 3.093076e+00
 2.636121e-01	 1.518464e+00	 2.928907e+00
 4.017310e-01	 1.500079e+00	 3.951129e+00
 3.744530e-01	 1.507120e+00	 3.745136e+00
 3.471895e-01	 1.513633e+00	 3.543997e+00
 3.199544e-01	 1.519623e+00	 3.351488e+00
 2.927616e-01	 1.525096e+00	 3.171280e+00
 2.656244e-01	 1.530056e+00	 3.006862e+00
 4.047745e-01	 1.511444e+00	 4.029032e+00
 3.772898e-01	 1.518538e+00	 3.822886e+00
 3.498197e-01	 1.525100e+00	 3.621312e+00
 3.223783e-01	 1.531136e+00	 3.428286e+00
 2.949795e-01	 1.536649e+00	 3.247641e+00
 2.676367e-01	 1.541647e+00	 3.082995e+00
 4.078179e-01	 1.522808e+00	 4.105994e+00
 3.801266e-01	 1.529955e+00	 3.899437e+00
 3.524499e-01	 1.536567e+00	 3.697248e+00
 3.248022e-01	 1.542648e+00	 3.503588e+00
 2.971974e-01	 1.548203e+00	 3.322433e+00
 2.696490e-01	 1.553238e+00	 3.157503e+00
 4.108613e-01	 1.534172e+00	 4.182556e+00
 3.829633e-01	 1.541373e+00	 3.975269e+00
 3.550801e-01	 1.548034e+00	 3.772222e+00
 3.272261e-01	 1.554160e+00	 3.577742e+00
 2.994153e-01	 1.559757e+00	 3.395928e+00
 2.716613e-01	 1.564830e+00	 3.230582e+00
 2.615998e-01	 1.506873e+00	 2.848937e+00
 2.349414e-01	 1.511259e+00	 2.700863e+00
 2.083633e-01	 1.515152e+00	 2.567469e+00
 1.818774e-01	 1.518559e+00	 2.449591e+00
 1.554956e-01	 1.521487e+00	 2.347866e+00
 1.292293e-01	 1.523942e+00	 2.262739e+00
 2.636121e-01	 1.518464e+00	 2.928907e+00
 2.367487e-01	 1.522884e+00	 2.780642e+00
 2.099661e-01	 1.526807e+00	 2.647121e+00
 1.832765e-01	 1.530240e+00	 2.529171e+00
 1.566917e-01	 1.533190e+00	 2.427384e+00
 1.302234e-01	 1.535665e+00	 2.342125e+00
 2.656244e-01	 1.530056e+00	 3.006862e+00
 2.385559e-01	 1.534509e+00	 2.858487e+00
 2.115689e-01	 1.538462e+00	 2.724894e+00
 1.846755e-01	 1.541921e+00	 2.606924e+00
 1.578879e-01	 1.544894e+00	 2.505147e+00
 1.312174e-01	 1.547388e+00	 2.419874e+00
 2.676367e-01	 1.541647e+00	 3.082995e+00
 2.403632e-01	 1.546134e+00	 2.934524e+00
 2.131717e-01	 1.550117e+00	 2.800867e+00
 1.860746e-01	 1.553603e+00	 2.682904e+00
 1.590840e-01	 1.556598e+00	 2.581206e+00
 1.322115e-01	 1.559110e+00	 2.496052e+00
 2.696490e-01	 1.553238e+00	 3.157503e+00
 2.421704e-01	 1.557759e+00	 3.008882e+00
 2.147744e-01	 1.561772e+00	 2.875124e+00
 1.874736e-01	 1.565284e+00	 2.757170e+00
 1.602801e-01	 1.568302e+00	 2.655614e+00
 1.332056e-01	 1.570833e+00	 2.570726e+00
 2.716613e-01	 1.564830e+00	 3.230582e+00
 2.439777e-01	 1.569384e+00	 3.081689e+00
 2.163772e-01	 1.573427e+00	 2.947748e+00
 1.888727e-01	 1.576965e+00	 2.829778e+00
 1.614762e-01	 1.580005e+00	 2.728421e+00
 1.341996e-01	 1.582555e+00	 2.643957e+00
 1.292293e-01	 1.523942e+00	 2.262739e+00
 1.030894e-01	 1.525933e+00	 2.193722e+00
 7.708653e-02	 1.527468e+00	 2.140077e+00
 5.123090e-02	 1.528553e+00	 2.101670e+00
 2.553226e-02	 1.529199e+00	 2.078302e+00
 0.000000e+00	 1.529412e+00	 2.069755e+00
 1.302234e-01	 1.535665e+00	 2.342125e+00
 1.038824e-01	 1.537671e+00	 2.272851e+00
 7.767951e-02	 1.539218e+00	 2.218928e+00
 5.162498e-02	 1.540312e+00	 2.180350e+00
 2.572867e-02	 1.540962e+00	 2.157022e+00
 0.000000e+00	 1.541176e+00	 2.148816e+00
 1.312174e-01	 1.547388e+00	 2.419874e+00
 1.046754e-01	 1.549409e+00	 2.350538e+00
 7.827248e-02	 1.550967e+00	 2.296582e+00
 5.201907e-02	 1.552070e+00	 2.258047e+00
 2.592507e-02	 1.552725e+00	 2.234868e+00
 0.000000e+00	 1.552941e+00	 2.226924e+00
 1.322115e-01	 1.559110e+00	 2.496052e+00
 1.054684e-01	 1.561147e+00	 2.426869e+00
 7.886545e-02	 1.562717e+00	 2.373126e+00
 5.241315e-02	 1.563828e+00	 2.334839e+00
 2.612147e-02	 1.564488e+00	 2.311896e+00
 0.000000e+00	 1.564706e+00	 2.304106e+00
 1.332056e-01	 1.570833e+00	 2.570726e+00
 1.062614e-01	 1.572885e+00	 2.501924e+00
 7.945843e-02	 1.574467e+00	 2.448643e+00
 5.280723e-02	 1.575586e+00	 2.410801e+00
 2.631787e-02	 1.576251e+00	 2.388160e+00
 0.000000e+00	 1.576471e+00	 2.380386e+00
 1.341996e-01	 1.582555e+00	 2.643957e+00
 1.070544e-01	 1.584623e+00	 2.575781e+00
 8.005140e-02	 1.586217e+00	 2.523213e+00
 5.320132e-02	 1.587344e+00	 2.486001e+00
 2.651427e-02	 1.588014e+00	 2.463711e+00
 0.000000e+00	 1.588235e+00	 2.455787e+00
 1.588235e+00	 0.000000e+00	 1.447494e+01
 1.588014e+00	 2.651427e-02	 1.446134e+01
 1.587344e+00	 5.320132e-02	 1.445674e+01
 1.586217e+00	 8.005140e-02	 1.445781e+01
 1.584623e+00	 1.070544e-01	 1.446212e+01
 1.582555e+00	 1.341996e-01	 1.446820e+01
 1.600000e+00	 0.000000e+00	 1.437906e+01
 1.599777e+00	 2.671068e-02	 1.436507e+01
 1.599102e+00	 5.359540e-02	 1.436047e+01
 1.597966e+00	 8.064437e-02	 1.436184e+01
 1.596361e+00	 1.078474e-01	 1.436666e+01
 1.594278e+00	 1.351937e-01	 1.437340e+01
 1.611765e+00	 0.000000e+00	 1.428632e+01
 1.611540e+00	 2.690708e-02	 1.427200e+01
 1.610860e+00	 5.398948e-02	 1.426739e+01
 1.609716e+00	 8.123735e-02	 1.426899e+01
 1.608099e+00	 1.086404e-01	 1.427424e+01
 1.606001e+00	 1.361878e-01	 1.428152e+01
 1.623529e+00	 0.000000e+00	 1.419655e+01
 1.623303e+00	 2.710348e-02	 1.418198e+01
 1.622618e+00	 5.438357e-02	 1.417737e+01
 1.621466e+00	 8.183032e-02	 1.417916e+01
 1.619837e+00	 1.094334e-01	 1.418472e+01
 1.617723e+00	 1.371819e-01	 1.419241e+01
 1.635294e+00	 0.000000e+00	 1.410959e+01
 1.635066e+00	 2.729988e-02	 1.409488e+01
 1.634376e+00	 5.477765e-02	 1.409029e+01
 1.633216e+00	 8.242329e-02	 1.409222e+01
 1.631575e+00	 1.102263e-01	 1.409800e+01
 1.629446e+00	 1.381759e-01	 1.410593e+01
 1.647059e+00	 0.000000e+00	 1.402527e+01
 1.646829e+00	 2.749628e-02	 1.401056e+01
 1.646135e+00	 5.517174e-02	 1.400604e+01
 1.644965e+00	 8.301627e-02	 1.400806e+01
 1.643313e+00	 1.110193e-01	 1.401393e+01
 1.641169e+00	 1.391700e-01	 1.402192e+01
 1.582555e+00	 1.341996e-01	 1.446820e+01
 1.580005e+00	 1.614762e-01	 1.447232e+01
 1.576965e+00	 1.888727e-01	 1.447148e+01
 1.573427e+00	 2.163772e-01	 1.446686e+01
 1.569384e+00	 2.439777e-01	 1.446082e+01
 1.564830e+00	 2.716613e-01	 1.445687e+01
 1.594278e+00	 1.351937e-01	 1.437340e+01
 1.591709e+00	 1.626723e-01	 1.437820e+01
 1.588646e+00	 1.902717e-01	 1.437802e+01
 1.585082e+00	 2.179800e-01	 1.437415e+01
 1.581009e+00	 2.457849e-01	 1.436905e+01
 1.576421e+00	 2.736736e-01	 1.436642e+01
 1.606001e+00	 1.361878e-01	 1.428152e+01
 1.603413e+00	 1.638685e-01	 1.428690e+01
 1.600327e+00	 1.916708e-01	 1.428732e+01
 1.596737e+00	 2.195828e-01	 1.428418e+01
 1.592634e+00	 2.475921e-01	 1.428008e+01
 1.588012e+00	 2.756859e-01	 1.427882e+01
 1.617723e+00	 1.371819e-01	 1.419241e+01
 1.615117e+00	 1.650646e-01	 1.419823e+01
 1.612009e+00	 1.930699e-01	 1.419917e+01
 1.608392e+00	 2.211856e-01	 1.419673e+01
 1.604259e+00	 2.493994e-01	 1.419362e+01
 1.599604e+00	 2.776982e-01	 1.419378e+01
 1.629446e+00	 1.381759e-01	 1.410593e+01
 1.626820e+00	 1.662607e-01	 1.411203e+01
 1.623690e+00	 1.944689e-01	 1.411337e+01
 1.620047e+00	 2.227884e-01	 1.411156e+01
 1.615884e+00	 2.512066e-01	 1.410939e+01
 1.611195e+00	 2.797106e-01	 1.411098e+01
 1.641169e+00	 1.391700e-01	 1.402192e+01
 1.638524e+00	 1.674568e-01	 1.402810e+01
 1.635371e+00	 1.958680e-01	 1.402970e+01
 1.631702e+00	 2.243912e-01	 1.402841e+01
 1.627509e+00	 2.530139e-01	 1.402713e+01
 1.622786e+00	 2.817229e-01	 1.403010e+01
 1.564830e+00	 2.716613e-01	 1.445687e+01
 1.559757e+00	 2.994153e-01	 1.445227e+01
 1.554160e+00	 3.272261e-01	 1.444558e+01
 1.548034e+00	 3.550801e-01	 1.444411e+01
 1.541373e+00	 3.829633e-01	 1.445640e+01
 1.534172e+00	 4.108613e-01	 1.449218e+01
 1.576421e+00	 2.736736e-01	 1.436642e+01
 1.571311e+00	 3.016332e-01	 1.436333e+01
 1.565673e+00	 3.296500e-01	 1.435810e+01
 1.559501e+00	 3.577104e-01	 1.435803e+01
 1.552790e+00	 3.858001e-01	 1.437167e+01
 1.545536e+00	 4.139047e-01	 1.440882e+01
 1.588012e+00	 2.756859e-01	 1.427882e+01
 1.582864e+00	 3.038510e-01	 1.427732e+01
 1.577185e+00	 3.320739e-01	 1.427351e+01
 1.570968e+00	 3.603406e-01	 1.427472e+01
 1.564208e+00	 3.886369e-01	 1.428948e+01
 1.556901e+00	 4.169481e-01	 1.432762e+01
 1.599604e+00	 2.776982e-01	 1.419378e+01
 1.594418e+00	 3.060689e-01	 1.419387e+01
 1.588697e+00	 3.344978e-01	 1.419146e+01
 1.582435e+00	 3.629708e-01	 1.419382e+01
 1.575626e+00	 3.914736e-01	 1.420948e+01
 1.568265e+00	 4.199915e-01	 1.424828e+01
 1.611195e+00	 2.797106e-01	 1.411098e+01
 1.605972e+00	 3.082868e-01	 1.411266e+01
 1.600210e+00	 3.369217e-01	 1.411159e+01
 1.593902e+00	 3.656010e-01	 1.411498e+01
 1.587043e+00	 3.943104e-01	 1.413134e+01
 1.579629e+00	 4.230350e-01	 1.417048e+01
 1.622786e+00	 2.817229e-01	 1.403010e+01
 1.617526e+00	 3.105047e-01	 1.403335e+01
 1.611722e+00	 3.393456e-01	 1.403355e+01
 1.605369e+00	 3.682313e-01	 1.403787e+01
 1.598461e+00	 3.971472e-01	 1.405474e+01
 1.590993e+00	 4.260784e-01	 1.409396e+01
 1.534172e+00	 4.108613e-01	 1.449218e+01
 1.526428e+00	 4.387593e-01	 1.451857e+01
 1.518136e+00	 4.666425e-01	 1.450362e+01
 1.509293e+00	 4.944955e-01	 1.446023e+01
 1.499897e+00	 5.223029e-01	 1.440229e+01
 1.489945e+00	 5.500490e-01	 1.434462e+01
 1.545536e+00	 4.139047e-01	 1.440882e+01
 1.537735e+00	 4.420094e-01	 1.443636e+01
 1.529381e+00	 4.700991e-01	 1.442264e+01
 1.520473e+00	 4.981584e-01	 1.438139e+01
 1.511007e+00	 5.261718e-01	 1.432751e+01
 1.500982e+00	 5.541234e-01	 1.427694e+01
 1.556901e+00	 4.169481e-01	 1.432762e+01
 1.549041e+00	 4.452595e-01	 1.435602e+01
 1.540627e+00	 4.735557e-01	 1.434345e+01
 1.531653e+00	 5.018214e-01	 1.430450e+01
 1.522118e+00	 5.300407e-01	 1.425503e+01
 1.512019e+00	 5.581978e-01	 1.421207e+01
 1.568265e+00	 4.199915e-01	 1.424828e+01
 1.560348e+00	 4.485095e-01	 1.427724e+01
 1.551872e+00	 4.770123e-01	 1.426576e+01
 1.542833e+00	 5.054843e-01	 1.422924e+01
 1.533228e+00	 5.339096e-01	 1.418445e+01
 1.523055e+00	 5.622723e-01	 1.414947e+01
 1.579629e+00	 4.230350e-01	 1.417048e+01
 1.571655e+00	 4.517596e-01	 1.419974e+01
 1.563118e+00	 4.804689e-01	 1.418928e+01
 1.554013e+00	 5.091472e-01	 1.415528e+01
 1.544338e+00	 5.377785e-01	 1.411538e+01
 1.534092e+00	 5.663467e-01	 1.408869e+01
 1.590993e+00	 4.260784e-01	 1.409396e+01
 1.582962e+00	 4.550097e-01	 1.412328e+01
 1.574363e+00	 4.839255e-01	 1.411377e+01
 1.565193e+00	 5.128102e-01	 1.408234e+01
 1.555449e+00	 5.416475e-01	 1.404750e+01
 1.545129e+00	 5.704211e-01	 1.402930e+01
 1.489945e+00	 5.500490e-01	 1.434462e+01
 1.479437e+00	 5.777178e-01	 1.433824e+01
 1.468370e+00	 6.052932e-01	 1.440365e+01
 1.456745e+00	 6.327591e-01	 1.443000e+01
 1.444562e+00	 6.600989e-01	 1.440676e+01
 1.431822e+00	 6.872964e-01	 1.433430e+01
 1.500982e+00	 5.541234e-01	 1.427694e+01
 1.490396e+00	 5.819972e-01	 1.428161e+01
 1.479247e+00	 6.097769e-01	 1.434527e+01
 1.467536e+00	 6.374462e-01	 1.436809e+01
 1.455263e+00	 6.649885e-01	 1.434652e+01
 1.442428e+00	 6.923874e-01	 1.428009e+01
 1.512019e+00	 5.581978e-01	 1.421207e+01
 1.501354e+00	 5.862765e-01	 1.422801e+01
 1.490124e+00	 6.142605e-01	 1.428691e+01
 1.478327e+00	 6.421333e-01	 1.430683e+01
 1.465963e+00	 6.698782e-01	 1.428711e+01
 1.453034e+00	 6.974785e-01	 1.422649e+01
 1.523055e+00	 5.622723e-01	 1.414947e+01
 1.512313e+00	 5.905559e-01	 1.417633e+01
 1.501001e+00	 6.187442e-01	 1.422837e+01
 1.489118e+00	 6.468204e-01	 1.424605e+01
 1.476664e+00	 6.747678e-01	 1.422843e+01
 1.463641e+00	 7.025696e-01	 1.417349e+01
 1.534092e+00	 5.663467e-01	 1.408869e+01
 1.523272e+00	 5.948353e-01	 1.412364e+01
 1.511878e+00	 6.232278e-01	 1.416956e+01
 1.499908e+00	 6.515075e-01	 1.418567e+01
 1.487364e+00	 6.796574e-01	 1.417044e+01
 1.474247e+00	 7.076607e-01	 1.412113e+01
 1.545129e+00	 5.704211e-01	 1.402930e+01
 1.534231e+00	 5.991147e-01	 1.406954e+01
 1.522754e+00	 6.277115e-01	 1.411040e+01
 1.510699e+00	 6.561946e-01	 1.412563e+01
 1.498065e+00	 6.845470e-01	 1.411314e+01
 1.484853e+00	 7.127518e-01	 1.406950e+01
 1.431822e+00	 6.872964e-01	 1.433430e+01
 1.418526e+00	 7.143348e-01	 1.425024e+01
 1.404677e+00	 7.411977e-01	 1.418413e+01
 1.390277e+00	 7.678685e-01	 1.412276e+01
 1.375329e+00	 7.943307e-01	 1.405175e+01
 1.359838e+00	 8.205676e-01	 1.395587e+01
 1.442428e+00	 6.923874e-01	 1.428009e+01
 1.429034e+00	 7.196262e-01	 1.420364e+01
 1.415082e+00	 7.466881e-01	 1.414460e+01
 1.400575e+00	 7.735565e-01	 1.408977e+01
 1.385517e+00	 8.002146e-01	 1.402485e+01
 1.369911e+00	 8.266459e-01	 1.393463e+01
 1.453034e+00	 6.974785e-01	 1.422649e+01
 1.439542e+00	 7.249176e-01	 1.415732e+01
 1.425487e+00	 7.521785e-01	 1.410514e+01
 1.410873e+00	 7.792444e-01	 1.405679e+01
 1.395704e+00	 8.060985e-01	 1.399794e+01
 1.379984e+00	 8.327241e-01	 1.391339e+01
 1.463641e+00	 7.025696e-01	 1.417349e+01
 1.450049e+00	 7.302089e-01	 1.411136e+01
 1.435892e+00	 7.576688e-01	 1.406591e+01
 1.421172e+00	 7.849323e-01	 1.402398e+01
 1.405892e+00	 8.119825e-01	 1.397120e+01
 1.390057e+00	 8.388024e-01	 1.389230e+01
 1.474247e+00	 7.076607e-01	 1.412113e+01
 1.460557e+00	 7.355003e-01	 1.406587e+01
 1.446297e+00	 7.631592e-01	 1.402710e+01
 1.431470e+00	 7.906202e-01	 1.399157e+01
 1.416080e+00	 8.178664e-01	 1.394485e+01
 1.400130e+00	 8.448807e-01	 1.387158e+01
 1.484853e+00	 7.127518e-01	 1.406950e+01
 1.471064e+00	 7.407917e-01	 1.402105e+01
 1.456702e+00	 7.686495e-01	 1.398893e+01
 1.441768e+00	 7.963081e-01	 1.395983e+01
 1.426267e+00	 8.237503e-01	 1.391918e+01
 1.410203e+00	 8.509590e-01	 1.385149e+01
 1.359838e+00	 8.205676e-01	 1.395587e+01
 1.343809e+00	 8.465629e-01	 1.384854e+01
 1.327247e+00	 8.723004e-01	 1.374339e+01
 1.310157e+00	 8.977638e-01	 1.362533e+01
 1.292547e+00	 9.229372e-01	 1.347999e+01
 1.274424e+00	 9.478048e-01	 1.329415e+01
 1.369911e+00	 8.266459e-01	 1.393463e+01
 1.353763e+00	 8.528338e-01	 1.383278e+01
 1.337078e+00	 8.787619e-01	 1.373274e+01
 1.319862e+00	 9.044139e-01	 1.361881e+01
 1.302122e+00	 9.297737e-01	 1.347597e+01
 1.283865e+00	 9.548256e-01	 1.329040e+01
 1.379984e+00	 8.327241e-01	 1.391339e+01
 1.363717e+00	 8.591046e-01	 1.381690e+01
 1.346909e+00	 8.852233e-01	 1.372169e+01
 1.329567e+00	 9.110640e-01	 1.361156e+01
 1.311696e+00	 9.366103e-01	 1.347099e+01
 1.293305e+00	 9.618463e-01	 1.328565e+01
 1.390057e+00	 8.388024e-01	 1.389230e+01
 1.373671e+00	 8.653754e-01	 1.380106e+01
 1.356741e+00	 8.916848e-01	 1.371049e+01
 1.339272e+00	 9.177141e-01	 1.360398e+01
 1.321271e+00	 9.434469e-01	 1.346565e+01
 1.302745e+00	 9.688671e-01	 1.328080e+01
 1.400130e+00	 8.448807e-01	 1.387158e+01
 1.383626e+00	 8.716463e-01	 1.378549e+01
 1.366572e+00	 8.981463e-01	 1.369943e+01
 1.348977e+00	 9.243642e-01	 1.359654e+01
 1.330845e+00	 9.502834e-01	 1.346062e+01
 1.312185e+00	 9.758879e-01	 1.327677e+01
 1.410203e+00	 8.509590e-01	 1.385149e+01
 1.393580e+00	 8.779171e-01	 1.377045e+01
 1.376404e+00	 9.046078e-01	 1.368887e+01
 1.358681e+00	 9.310143e-01	 1.358970e+01
 1.340419e+00	 9.571200e-01	 1.345660e+01
 1.321625e+00	 9.829087e-01	 1.327454e+01
 1.274424e+00	 9.478048e-01	 1.329415e+01
 1.255796e+00	 9.723512e-01	 1.307761e+01
 1.236672e+00	 9.965611e-01	 1.285136e+01
 1.217060e+00	 1.020420e+00	 1.262325e+01
 1.196971e+00	 1.043912e+00	 1.240562e+01
 1.176414e+00	 1.067024e+00	 1.221572e+01
 1.283865e+00	 9.548256e-01	 1.329040e+01
 1.265099e+00	 9.795538e-01	 1.307459e+01
 1.245832e+00	 1.003943e+00	 1.285194e+01
 1.226075e+00	 1.027978e+00	 1.262929e+01
 1.205837e+00	 1.051645e+00	 1.241799e+01
 1.185128e+00	 1.074928e+00	 1.223436e+01
 1.293305e+00	 9.618463e-01	 1.328565e+01
 1.274401e+00	 9.867564e-01	 1.307071e+01
 1.254993e+00	 1.011325e+00	 1.285178e+01
 1.235091e+00	 1.035537e+00	 1.263456e+01
 1.214704e+00	 1.059377e+00	 1.242928e+01
 1.193843e+00	 1.082832e+00	 1.225118e+01
 1.302745e+00	 9.688671e-01	 1.328080e+01
 1.283703e+00	 9.939590e-01	 1.306714e+01
 1.264154e+00	 1.018707e+00	 1.285224e+01
 1.244106e+00	 1.043096e+00	 1.264054e+01
 1.223570e+00	 1.067110e+00	 1.244100e+01
 1.202557e+00	 1.090736e+00	 1.226765e+01
 1.312185e+00	 9.758879e-01	 1.327677e+01
 1.293005e+00	 1.001162e+00	 1.306508e+01
 1.273314e+00	 1.026089e+00	 1.285472e+01
 1.253121e+00	 1.050654e+00	 1.264873e+01
 1.232437e+00	 1.074843e+00	 1.245470e+01
 1.211271e+00	 1.098640e+00	 1.228527e+01
 1.321625e+00	 9.829087e-01	 1.327454e+01
 1.302307e+00	 1.008364e+00	 1.306575e+01
 1.282475e+00	 1.033471e+00	 1.286061e+01
 1.262136e+00	 1.058213e+00	 1.266064e+01
 1.241303e+00	 1.082575e+00	 1.247191e+01
 1.219985e+00	 1.106544e+00	 1.230557e+01
 1.176414e+00	 1.067024e+00	 1.221572e+01
 1.155401e+00	 1.089743e+00	 1.199980e+01
 1.133944e+00	 1.112053e+00	 1.171090e+01
 1.112053e+00	 1.133944e+00	 1.138221e+01
 1.089743e+00	 1.155401e+00	 1.104901e+01
 1.067024e+00	 1.176414e+00	 1.074798e+01
 1.185128e+00	 1.074928e+00	 1.223436e+01
 1.163960e+00	 1.097815e+00	 1.202276e+01
 1.142343e+00	 1.120291e+00	 1.173313e+01
 1.120291e+00	 1.142343e+00	 1.139947e+01
 1.097815e+00	 1.163960e+00	 1.105831e+01
 1.074928e+00	 1.185128e+00	 1.075301e+01
 1.193843e+00	 1.082832e+00	 1.225118e+01
 1.172519e+00	 1.105887e+00	 1.204260e+01
 1.150743e+00	 1.128528e+00	 1.175116e+01
 1.128528e+00	 1.150743e+00	 1.141090e+01
 1.105887e+00	 1.172519e+00	 1.105952e+01
 1.082832e+00	 1.193843e+00	 1.075893e+01
 1.202557e+00	 1.090736e+00	 1.226765e+01
 1.181077e+00	 1.113959e+00	 1.206059e+01
 1.159143e+00	 1.136766e+00	 1.176604e+01
 1.136766e+00	 1.159143e+00	 1.141734e+01
 1.113959e+00	 1.181077e+00	 1.105510e+01
 1.090736e+00	 1.202557e+00	 1.076762e+01
 1.211271e+00	 1.098640e+00	 1.228527e+01
 1.189636e+00	 1.122031e+00	 1.207835e+01
 1.167542e+00	 1.145003e+00	 1.177892e+01
 1.145003e+00	 1.167542e+00	 1.141972e+01
 1.122031e+00	 1.189636e+00	 1.105586e+01
 1.098640e+00	 1.211271e+00	 1.078097e+01
 1.219985e+00	 1.106544e+00	 1.230557e+01
 1.198194e+00	 1.130103e+00	 1.209735e+01
 1.175942e+00	 1.153241e+00	 1.179105e+01
 1.153241e+00	 1.175942e+00	 1.141909e+01
 1.130103e+00	 1.198194e+00	 1.106518e+01
 1.106544e+00	 1.219985e+00	 1.080086e+01
 1.067024e+00	 1.176414e+00	 1.074798e+01
 1.043912e+00	 1.196971e+00	 1.047415e+01
 1.020420e+00	 1.217060e+00	 1.019908e+01
 9.965611e-01	 1.236672e+00	 9.921542e+00
 9.723512e-01	 1.255796e+00	 9.636802e+00
 9.478048e-01	 1.274424e+00	 9.336984e+00
 1.074928e+00	 1.185128e+00	 1.075301e+01
 1.051645e+00	 1.205837e+00	 1.049127e+01
 1.027978e+00	 1.226075e+00	 1.022280e+01
 1.003943e+00	 1.245832e+00	 9.947743e+00
 9.795538e-01	 1.265099e+00	 9.662722e+00
 9.548256e-01	 1.283865e+00	 9.361196e+00
 1.082832e+00	 1.193843e+00	 1.075893e+01
 1.059377e+00	 1.214704e+00	 1.050747e+01
 1.035537e+00	 1.235091e+00	 1.024384e+01
 1.011325e+00	 1.254993e+00	 9.969766e+00
 9.867564e-01	 1.274401e+00	 9.683437e+00
 9.618463e-01	 1.293305e+00	 9.379877e+00
 1.090736e+00	 1.202557e+00	 1.076762e+01
 1.067110e+00	 1.223570e+00	 1.052447e+01
 1.043096e+00	 1.244106e+00	 1.026383e+01
 1.018707e+00	 1.264154e+00	 9.989197e+00
 9.939590e-01	 1.283703e+00	 9.700554e+00
 9.688671e-01	 1.302745e+00	 9.394703e+00
 1.098640e+00	 1.211271e+00	 1.078097e+01
 1.074843e+00	 1.232437e+00	 1.054400e+01
 1.050654e+00	 1.253121e+00	 1.028438e+01
 1.026089e+00	 1.273314e+00	 1.000762e+01
 1.001162e+00	 1.293005e+00	 9.715677e+00
 9.758879e-01	 1.312185e+00	 9.407347e+00
 1.106544e+00	 1.219985e+00	 1.080086e+01
 1.082575e+00	 1.241303e+00	 1.056776e+01
 1.058213e+00	 1.262136e+00	 1.030712e+01
 1.033471e+00	 1.282475e+00	 1.002662e+01
 1.008364e+00	 1.302307e+00	 9.730405e+00
 9.829087e-01	 1.321625e+00	 9.419476e+00
 9.478048e-01	 1.274424e+00	 9.336984e+00
 9.229372e-01	 1.292547e+00	 9.034706e+00
 8.977638e-01	 1.310157e+00	 8.746687e+00
 8.723004e-01	 1.327247e+00	 8.468030e+00
 8.465629e-01	 1.343809e+00	 8.192770e+00
 8.205676e-01	 1.359838e+00	 7.914220e+00
 9.548256e-01	 1.283865e+00	 9.361196e+00
 9.297737e-01	 1.302122e+00	 9.058476e+00
 9.044139e-01	 1.319862e+00	 8.772604e+00
 8.787619e-01	 1.337078e+00	 8.497898e+00
 8.528338e-01	 1.353763e+00	 8.227531e+00
 8.266459e-01	 1.369911e+00	 7.953906e+00
 9.618463e-01	 1.293305e+00	 9.379877e+00
 9.366103e-01	 1.311696e+00	 9.076913e+00
 9.110640e-01	 1.329567e+00	 8.793519e+00
 8.852233e-01	 1.346909e+00	 8.523122e+00
 8.591046e-01	 1.363717e+00	 8.257930e+00
 8.327241e-01	 1.379984e+00	 7.989320e+00
 9.688671e-01	 1.302745e+00	 9.394703e+00
 9.434469e-01	 1.321271e+00	 9.091773e+00
 9.177141e-01	 1.339272e+00	 8.811237e+00
 8.916848e-01	 1.356741e+00	 8.545534e+00
 8.653754e-01	 1.373671e+00	 8.285796e+00
 8.388024e-01	 1.390057e+00	 8.022266e+00
 9.758879e-01	 1.312185e+00	 9.407347e+00
 9.502834e-01	 1.330845e+00	 9.104805e+00
 9.243642e-01	 1.348977e+00	 8.827560e+00
 8.981463e-01	 1.366572e+00	 8.566959e+00
 8.716463e-01	 1.383626e+00	 8.312954e+00
 8.448807e-01	 1.400130e+00	 8.054546e+00
 9.829087e-01	 1.321625e+00	 9.419476e+00
 9.571200e-01	 1.340419e+00	 9.117755e+00
 9.310143e-01	 1.358681e+00	 8.844283e+00
 9.046078e-01	 1.376404e+00	 8.589218e+00
 8.779171e-01	 1.393580e+00	 8.341228e+00
 8.509590e-01	 1.410203e+00	 8.087960e+00
 8.205676e-01	 1.359838e+00	 7.914220e+00
 7.943307e-01	 1.375329e+00	 7.642818e+00
 7.678685e-01	 1.390277e+00	 7.386749e+00
 7.411977e-01	 1.404677e+00	 7.135850e+00
 7.143348e-01	 1.418526e+00	 6.880494e+00
 6.872964e-01	 1.431822e+00	 6.611813e+00
 8.266459e-01	 1.369911e+00	 7.953906e+00
 8.002146e-01	 1.385517e+00	 7.686908e+00
 7.735565e-01	 1.400575e+00	 7.434792e+00
 7.466881e-01	 1.415082e+00	 7.187433e+00
 7.196262e-01	 1.429034e+00	 6.935301e+00
 6.923874e-01	 1.442428e+00	 6.669694e+00
 8.327241e-01	 1.379984e+00	 7.989320e+00
 8.060985e-01	 1.395704e+00	 7.726686e+00
 7.792444e-01	 1.410873e+00	 7.478507e+00
 7.521785e-01	 1.425487e+00	 7.234723e+00
 7.249176e-01	 1.439542e+00	 6.985931e+00
 6.974785e-01	 1.453034e+00	 6.723632e+00
 8.388024e-01	 1.390057e+00	 8.022266e+00
 8.119825e-01	 1.405892e+00	 7.763919e+00
 7.849323e-01	 1.421172e+00	 7.519621e+00
 7.576688e-01	 1.435892e+00	 7.279403e+00
 7.302089e-01	 1.450049e+00	 7.034023e+00
 7.025696e-01	 1.463641e+00	 6.775216e+00
 8.448807e-01	 1.400130e+00	 8.054546e+00
 8.178664e-01	 1.416080e+00	 7.800373e+00
 7.906202e-01	 1.431470e+00	 7.559863e+00
 7.631592e-01	 1.446297e+00	 7.323164e+00
 7.355003e-01	 1.460557e+00	 7.081223e+00
 7.076607e-01	 1.474247e+00	 6.826044e+00
 8.509590e-01	 1.410203e+00	 8.087960e+00
 8.237503e-01	 1.426267e+00	 7.837816e+00
 7.963081e-01	 1.441768e+00	 7.600966e+00
 7.686495e-01	 1.456702e+00	 7.367700e+00
 7.407917e-01	 1.471064e+00	 7.129182e+00
 7.127518e-01	 1.484853e+00	 6.877718e+00
 6.872964e-01	 1.431822e+00	 6.611813e+00
 6.600989e-01	 1.444562e+00	 6.344703e+00
 6.327591e-01	 1.456745e+00	 6.094295e+00
 6.052932e-01	 1.468370e+00	 5.853569e+00
 5.777178e-01	 1.479437e+00	 5.615356e+00
 5.500490e-01	 1.489945e+00	 5.365575e+00
 6.923874e-01	 1.442428e+00	 6.669694e+00
 6.649885e-01	 1.455263e+00	 6.405508e+00
 6.374462e-01	 1.467536e+00	 6.157730e+00
 6.097769e-01	 1.479247e+00	 5.919393e+00
 5.819972e-01	 1.490396e+00	 5.684257e+00
 5.541234e-01	 1.500982e+00	 5.438335e+00
 6.974785e-01	 1.453034e+00	 6.723632e+00
 6.698782e-01	 1.465963e+00	 6.462707e+00
 6.421333e-01	 1.478327e+00	 6.217919e+00
 6.142605e-01	 1.490124e+00	 5.982305e+00
 5.862765e-01	 1.501354e+00	 5.750108e+00
 5.581978e-01	 1.512019e+00	 5.508430e+00
 7.025696e-01	 1.463641e+00	 6.775216e+00
 6.747678e-01	 1.476664e+00	 6.517825e+00
 6.468204e-01	 1.489118e+00	 6.276304e+00
 6.187442e-01	 1.501001e+00	 6.043646e+00
 5.905559e-01	 1.512313e+00	 5.814165e+00
 5.622723e-01	 1.523055e+00	 5.576920e+00
 7.076607e-01	 1.474247e+00	 6.826044e+00
 6.796574e-01	 1.487364e+00	 6.572395e+00
 6.515075e-01	 1.499908e+00	 6.334336e+00
 6.232278e-01	 1.511878e+00	 6.104764e+00
 5.948353e-01	 1.523272e+00	 5.877978e+00
 5.663467e-01	 1.534092e+00	 5.644878e+00
 7.127518e-01	 1.484853e+00	 6.877718e+00
 6.845470e-01	 1.498065e+00	 6.627960e+00
 6.561946e-01	 1.510699e+00	 6.393476e+00
 6.277115e-01	 1.522754e+00	 6.167021e+00
 5.991147e-01	 1.534231e+00	 5.942839e+00
 5.704211e-01	 1.545129e+00	 5.713391e+00
 5.500490e-01	 1.489945e+00	 5.365575e+00
 5.223029e-01	 1.499897e+00	 5.112733e+00
 4.944955e-01	 1.509293e+00	 4.865771e+00
 4.666425e-01	 1.518136e+00	 4.626712e+00
 4.387593e-01	 1.526428e+00	 4.398045e+00
 4.108613e-01	 1.534172e+00	 4.182556e+00
 5.541234e-01	 1.500982e+00	 5.438335e+00
 5.261718e-01	 1.511007e+00	 5.187838e+00
 4.981584e-01	 1.520473e+00	 4.941933e+00
 4.700991e-01	 1.529381e+00	 4.703031e+00
 4.420094e-01	 1.537735e+00	 4.473980e+00
 4.139047e-01	 1.545536e+00	 4.257897e+00
 5.581978e-01	 1.512019e+00	 5.508430e+00
 5.300407e-01	 1.522118e+00	 5.260478e+00
 5.018214e-01	 1.531653e+00	 5.015701e+00
 4.735557e-01	 1.540627e+00	 4.776992e+00
 4.452595e-01	 1.549041e+00	 4.547655e+00
 4.169481e-01	 1.556901e+00	 4.331226e+00
 5.622723e-01	 1.523055e+00	 5.576920e+00
 5.339096e-01	 1.533228e+00	 5.331588e+00
 5.054843e-01	 1.542833e+00	 5.087902e+00
 4.770123e-01	 1.551872e+00	 4.849331e+00
 4.485095e-01	 1.560348e+00	 4.619727e+00
 4.199915e-01	 1.568265e+00	 4.403137e+00
 5.663467e-01	 1.534092e+00	 5.644878e+00
 5.377785e-01	 1.544338e+00	 5.402115e+00
 5.091472e-01	 1.554013e+00	 5.159372e+00
 4.804689e-01	 1.563118e+00	 4.920791e+00
 4.517596e-01	 1.571655e+00	 4.690861e+00
 4.230350e-01	 1.579629e+00	 4.474232e+00
 5.704211e-01	 1.545129e+00	 5.713391e+00
 5.416475e-01	 1.555449e+00	 5.473018e+00
 5.128102e-01	 1.565193e+00	 5.230963e+00
 4.839255e-01	 1.574363e+00	 4.992126e+00
 4.550097e-01	 1.582962e+00	 4.761731e+00
 4.260784e-01	 1.590993e+00	 4.545117e+00
 4.108613e-01	 1.534172e+00	 4.182556e+00
 3.829633e-01	 1.541373e+00	 3.975269e+00
 3.550801e-01	 1.548034e+00	 3.772222e+00
 3.272261e-01	 1.554160e+00	 3.577742e+00
 2.994153e-01	 1.559757e+00	 3.395928e+00
 2.716613e-01	 1.564830e+00	 3.230582e+00
 4.139047e-01	 1.545536e+00	 4.257897e+00
 3.858001e-01	 1.552790e+00	 4.049947e+00
 3.577104e-01	 1.559501e+00	 3.846206e+00
 3.296500e-01	 1.565673e+00	 3.651111e+00
 3.016332e-01	 1.571311e+00	 3.468824e+00
 2.736736e-01	 1.576421e+00	 3.303164e+00
 4.169481e-01	 1.556901e+00	 4.331226e+00
 3.886369e-01	 1.564208e+00	 4.123064e+00
 3.603406e-01	 1.570968e+00	 3.919208e+00
 3.320739e-01	 1.577185e+00	 3.724102e+00
 3.038510e-01	 1.582864e+00	 3.541872e+00
 2.756859e-01	 1.588012e+00	 3.376257e+00
 4.199915e-01	 1.568265e+00	 4.403137e+00
 3.914736e-01	 1.575626e+00	 4.195157e+00
 3.629708e-01	 1.582435e+00	 3.991704e+00
 3.344978e-01	 1.588697e+00	 3.797132e+00
 3.060689e-01	 1.594418e+00	 3.615434e+00
 2.776982e-01	 1.599604e+00	 3.450169e+00
 4.230350e-01	 1.579629e+00	 4.474232e+00
 3.943104e-01	 1.587043e+00	 4.266767e+00
 3.656010e-01	 1.593902e+00	 4.064170e+00
 3.369217e-01	 1.600210e+00	 3.870616e+00
 3.082868e-01	 1.605972e+00	 3.689868e+00
 2.797106e-01	 1.611195e+00	 3.525209e+00
 4.260784e-01	 1.590993e+00	 4.545117e+00
 3.971472e-01	 1.598461e+00	 4.338436e+00
 3.682313e-01	 1.605369e+00	 4.137089e+00
 3.393456e-01	 1.611722e+00	 3.944975e+00
 3.105047e-01	 1.617526e+00	 3.765535e+00
 2.817229e-01	 1.622786e+00	 3.601686e+00
 2.716613e-01	 1.564830e+00	 3.230582e+00
 2.439777e-01	 1.569384e+00	 3.081689e+00
 2.163772e-01	 1.573427e+00	 2.947748e+00
 1.888727e-01	 1.576965e+00	 2.829778e+00
 1.614762e-01	 1.580005e+00	 2.728421e+00
 1.341996e-01	 1.582555e+00	 2.643957e+00
 2.736736e-01	 1.576421e+00	 3.303164e+00
 2.457849e-01	 1.581009e+00	 3.153998e+00
 2.179800e-01	 1.585082e+00	 3.019811e+00
 1.902717e-01	 1.588646e+00	 2.901747e+00
 1.626723e-01	 1.591709e+00	 2.800531e+00
 1.351937e-01	 1.594278e+00	 2.716494e+00
 2.756859e-01	 1.588012e+00	 3.376257e+00
 2.475921e-01	 1.592634e+00	 3.226946e+00
 2.195828e-01	 1.596737e+00	 3.092473e+00
 1.916708e-01	 1.600327e+00	 2.974164e+00
 1.638685e-01	 1.603413e+00	 2.872885e+00
 1.361878e-01	 1.606001e+00	 2.789068e+00
 2.776982e-01	 1.599604e+00	 3.450169e+00
 2.493994e-01	 1.604259e+00	 3.300796e+00
 2.211856e-01	 1.608392e+00	 3.165945e+00
 1.930699e-01	 1.612009e+00	 3.047187e+00
 1.650646e-01	 1.615117e+00	 2.945584e+00
 1.371819e-01	 1.617723e+00	 2.861716e+00
 2.797106e-01	 1.611195e+00	 3.525209e+00
 2.512066e-01	 1.615884e+00	 3.375808e+00
 2.227884e-01	 1.620047e+00	 3.240439e+00
 1.944689e-01	 1.623690e+00	 3.120975e+00
 1.662607e-01	 1.626820e+00	 3.018726e+00
 1.381759e-01	 1.629446e+00	 2.934474e+00
 2.817229e-01	 1.622786e+00	 3.601686e+00
 2.530139e-01	 1.627509e+00	 3.452243e+00
 2.243912e-01	 1.631702e+00	 3.316164e+00
 1.958680e-01	 1.635371e+00	 3.195682e+00
 1.674568e-01	 1.638524e+00	 3.092410e+00
 1.391700e-01	 1.641169e+00	 3.007377e+00
 1.341996e-01	 1.582555e+00	 2.643957e+00
 1.070544e-01	 1.584623e+00	 2.575781e+00
 8.005140e-02	 1.586217e+00	 2.523213e+00
 5.320132e-02	 1.587344e+00	 2.486001e+00
 2.651427e-02	 1.588014e+00	 2.463711e+00
 0.000000e+00	 1.588235e+00	 2.455787e+00
 1.351937e-01	 1.594278e+00	 2.716494e+00
 1.078474e-01	 1.596361e+00	 2.648994e+00
 8.064437e-02	 1.597966e+00	 2.597182e+00
 5.359540e-02	 1.599102e+00	 2.560603e+00
 2.671068e-02	 1.599777e+00	 2.538594e+00
 0.000000e+00	 1.600000e+00	 2.530345e+00
 1.361878e-01	 1.606001e+00	 2.789068e+00
 1.086404e-01	 1.608099e+00	 2.722056e+00
 8.123735e-02	 1.609716e+00	 2.670817e+00
 5.398948e-02	 1.610860e+00	 2.634699e+00
 2.690708e-02	 1.611540e+00	 2.612818e+00
 0.000000e+00	 1.611765e+00	 2.604119e+00
 1.371819e-01	 1.617723e+00	 2.861716e+00
 1.094334e-01	 1.619837e+00	 2.794948e+00
 8.183032e-02	 1.621466e+00	 2.744075e+00
 5.438357e-02	 1.622618e+00	 2.708252e+00
 2.710348e-02	 1.623303e+00	 2.686375e+00
 0.000000e+00	 1.623529e+00	 2.677157e+00
 1.381759e-01	 1.629446e+00	 2.934474e+00
 1.102263e-01	 1.631575e+00	 2.867656e+00
 8.242329e-02	 1.633216e+00	 2.816917e+00
 5.477765e-02	 1.634376e+00	 2.781222e+00
 2.729988e-02	 1.635066e+00	 2.759257e+00
 0.000000e+00	 1.635294e+00	 2.749507e+00
 1.391700e-01	 1.641169e+00	 3.007377e+00
 1.110193e-01	 1.643313e+00	 2.940161e+00
 8.301627e-02	 1.644965e+00	 2.889299e+00
 5.517174e-02	 1.646135e+00	 2.853570e+00
 2.749628e-02	 1.646829e+00	 2.831453e+00
 0.000000e+00	 1.647059e+00	 2.821211e+00
 1.647059e+00	 0.000000e+00	 1.402527e+01
 1.646829e+00	 2.749628e-02	 1.401056e+01
 1.646135e+00	 5.517174e-02	 1.400604e+01
 1.644965e+00	 8.301627e-02	 1.400806e+01
 1.643313e+00	 1.110193e-01	 1.401393e+01
 1.641169e+00	 1.391700e-01	 1.402192e+01
 1.658824e+00	 0.000000e+00	 1.394356e+01
 1.658592e+00	 2.769269e-02	 1.392899e+01
 1.657893e+00	 5.556582e-02	 1.392460e+01
 1.656715e+00	 8.360924e-02	 1.392674e+01
 1.655051e+00	 1.118123e-01	 1.393267e+01
 1.652891e+00	 1.401641e-01	 1.394064e+01
 1.670588e+00	 0.000000e+00	 1.386441e+01
 1.670355e+00	 2.788909e-02	 1.385009e+01
 1.669651e+00	 5.595990e-02	 1.384595e+01
 1.668465e+00	 8.420221e-02	 1.384829e+01
 1.666789e+00	 1.126053e-01	 1.385437e+01
 1.664614e+00	 1.411581e-01	 1.386238e+01
 1.682353e+00	 0.000000e+00	 1.378763e+01
 1.682118e+00	 2.808549e-02	 1.377367e+01
 1.681409e+00	 5.635399e-02	 1.376986e+01
 1.680215e+00	 8.479519e-02	 1.377252e+01
 1.678527e+00	 1.133983e-01	 1.377884e+01
 1.676337e+00	 1.421522e-01	 1.378698e+01
 1.694118e+00	 0.000000e+00	 1.371303e+01
 1.693882e+00	 2.828189e-02	 1.369950e+01
 1.693167e+00	 5.674807e-02	 1.369614e+01
 1.691964e+00	 8.538816e-02	 1.369921e+01
 1.690265e+00	 1.141913e-01	 1.370588e+01
 1.688059e+00	 1.431463e-01	 1.371425e+01
 1.705882e+00	 0.000000e+00	 1.364039e+01
 1.705645e+00	 2.847829e-02	 1.362739e+01
 1.704925e+00	 5.714215e-02	 1.362456e+01
 1.703714e+00	 8.598113e-02	 1.362815e+01
 1.702003e+00	 1.149843e-01	 1.363529e+01
 1.699782e+00	 1.441403e-01	 1.364402e+01
 1.641169e+00	 1.391700e-01	 1.402192e+01
 1.638524e+00	 1.674568e-01	 1.402810e+01
 1.635371e+00	 1.958680e-01	 1.402970e+01
 1.631702e+00	 2.243912e-01	 1.402841e+01
 1.627509e+00	 2.530139e-01	 1.402713e+01
 1.622786e+00	 2.817229e-01	 1.403010e+01
 1.652891e+00	 1.401641e-01	 1.394064e+01
 1.650228e+00	 1.686529e-01	 1.394684e+01
 1.647052e+00	 1.972670e-01	 1.394867e+01
 1.643357e+00	 2.259940e-01	 1.394789e+01
 1.639134e+00	 2.548211e-01	 1.394750e+01
 1.634378e+00	 2.837352e-01	 1.395182e+01
 1.664614e+00	 1.411581e-01	 1.386238e+01
 1.661932e+00	 1.698491e-01	 1.386867e+01
 1.658734e+00	 1.986661e-01	 1.387084e+01
 1.655012e+00	 2.275968e-01	 1.387068e+01
 1.650760e+00	 2.566284e-01	 1.387126e+01
 1.645969e+00	 2.857475e-01	 1.387692e+01
 1.676337e+00	 1.421522e-01	 1.378698e+01
 1.673635e+00	 1.710452e-01	 1.379345e+01
 1.670415e+00	 2.000651e-01	 1.379609e+01
 1.666667e+00	 2.291996e-01	 1.379668e+01
 1.662385e+00	 2.584356e-01	 1.379828e+01
 1.657560e+00	 2.877598e-01	 1.380526e+01
 1.688059e+00	 1.431463e-01	 1.371425e+01
 1.685339e+00	 1.722413e-01	 1.372104e+01
 1.682096e+00	 2.014642e-01	 1.372428e+01
 1.678322e+00	 2.308024e-01	 1.372574e+01
 1.674010e+00	 2.602428e-01	 1.372844e+01
 1.669152e+00	 2.897721e-01	 1.373673e+01
 1.699782e+00	 1.441403e-01	 1.364402e+01
 1.697043e+00	 1.734374e-01	 1.365127e+01
 1.693777e+00	 2.028633e-01	 1.365527e+01
 1.689977e+00	 2.324052e-01	 1.365773e+01
 1.685635e+00	 2.620501e-01	 1.366162e+01
 1.680743e+00	 2.917844e-01	 1.367117e+01
 1.622786e+00	 2.817229e-01	 1.403010e+01
 1.617526e+00	 3.105047e-01	 1.403335e+01
 1.611722e+00	 3.393456e-01	 1.403355e+01
 1.605369e+00	 3.682313e-01	 1.403787e+01
 1.598461e+00	 3.971472e-01	 1.405474e+01
 1.590993e+00	 4.260784e-01	 1.409396e+01
 1.634378e+00	 2.837352e-01	 1.395182e+01
 1.629080e+00	 3.127226e-01	 1.395654e+01
 1.623234e+00	 3.417695e-01	 1.395788e+01
 1.616836e+00	 3.708615e-01	 1.396293e+01
 1.609878e+00	 3.999839e-01	 1.398007e+01
 1.602358e+00	 4.291218e-01	 1.401907e+01
 1.645969e+00	 2.857475e-01	 1.387692e+01
 1.640633e+00	 3.149405e-01	 1.388298e+01
 1.634746e+00	 3.441934e-01	 1.388523e+01
 1.628302e+00	 3.734917e-01	 1.389069e+01
 1.621296e+00	 4.028207e-01	 1.390777e+01
 1.613722e+00	 4.321652e-01	 1.394622e+01
 1.657560e+00	 2.877598e-01	 1.380526e+01
 1.652187e+00	 3.171584e-01	 1.381253e+01
 1.646259e+00	 3.466173e-01	 1.381542e+01
 1.639769e+00	 3.761219e-01	 1.382099e+01
 1.632714e+00	 4.056575e-01	 1.383763e+01
 1.625086e+00	 4.352086e-01	 1.387515e+01
 1.669152e+00	 2.897721e-01	 1.373673e+01
 1.663741e+00	 3.193763e-01	 1.374503e+01
 1.657771e+00	 3.490412e-01	 1.374831e+01
 1.651236e+00	 3.787522e-01	 1.375365e+01
 1.644131e+00	 4.084942e-01	 1.376948e+01
 1.636450e+00	 4.382520e-01	 1.380566e+01
 1.680743e+00	 2.917844e-01	 1.367117e+01
 1.675295e+00	 3.215942e-01	 1.368036e+01
 1.669283e+00	 3.514651e-01	 1.368376e+01
 1.662703e+00	 3.813824e-01	 1.368852e+01
 1.655549e+00	 4.113310e-01	 1.370314e+01
 1.647815e+00	 4.412955e-01	 1.373757e+01
 1.590993e+00	 4.260784e-01	 1.409396e+01
 1.582962e+00	 4.550097e-01	 1.412328e+01
 1.574363e+00	 4.839255e-01	 1.411377e+01
 1.565193e+00	 5.128102e-01	 1.408234e+01
 1.555449e+00	 5.416475e-01	 1.404750e+01
 1.545129e+00	 5.704211e-01	 1.402930e+01
 1.602358e+00	 4.291218e-01	 1.401907e+01
 1.594269e+00	 4.582598e-01	 1.404827e+01
 1.585608e+00	 4.873822e-01	 1.403969e+01
 1.576373e+00	 5.164731e-01	 1.401090e+01
 1.566559e+00	 5.455164e-01	 1.398122e+01
 1.556165e+00	 5.744956e-01	 1.397159e+01
 1.613722e+00	 4.321652e-01	 1.394622e+01
 1.605576e+00	 4.615098e-01	 1.397507e+01
 1.596854e+00	 4.908388e-01	 1.396738e+01
 1.587553e+00	 5.201360e-01	 1.394131e+01
 1.577669e+00	 5.493853e-01	 1.391684e+01
 1.567202e+00	 5.785700e-01	 1.391571e+01
 1.625086e+00	 4.352086e-01	 1.387515e+01
 1.616883e+00	 4.647599e-01	 1.390341e+01
 1.608099e+00	 4.942954e-01	 1.389653e+01
 1.598733e+00	 5.237989e-01	 1.387316e+01
 1.588780e+00	 5.532542e-01	 1.385387e+01
 1.578239e+00	 5.826445e-01	 1.386109e+01
 1.636450e+00	 4.382520e-01	 1.380566e+01
 1.628190e+00	 4.680100e-01	 1.383303e+01
 1.619345e+00	 4.977520e-01	 1.382683e+01
 1.609913e+00	 5.274619e-01	 1.380610e+01
 1.599890e+00	 5.571231e-01	 1.379189e+01
 1.589275e+00	 5.867189e-01	 1.380722e+01
 1.647815e+00	 4.412955e-01	 1.373757e+01
 1.639496e+00	 4.712600e-01	 1.376372e+01
 1.630590e+00	 5.012086e-01	 1.375802e+01
 1.621093e+00	 5.311248e-01	 1.373981e+01
 1.611000e+00	 5.609920e-01	 1.373052e+01
 1.600312e+00	 5.907933e-01	 1.375327e+01
 1.545129e+00	 5.704211e-01	 1.402930e+01
 1.534231e+00	 5.991147e-01	 1.406954e+01
 1.522754e+00	 6.277115e-01	 1.411040e+01
 1.510699e+00	 6.561946e-01	 1.412563e+01
 1.498065e+00	 6.845470e-01	 1.411314e+01
 1.484853e+00	 7.127518e-01	 1.406950e+01
 1.556165e+00	 5.744956e-01	 1.397159e+01
 1.545190e+00	 6.033941e-01	 1.401455e+01
 1.533631e+00	 6.321951e-01	 1.405122e+01
 1.521490e+00	 6.608817e-01	 1.406607e+01
 1.508765e+00	 6.894367e-01	 1.405647e+01
 1.495459e+00	 7.178429e-01	 1.401839e+01
 1.567202e+00	 5.785700e-01	 1.391571e+01
 1.556148e+00	 6.076735e-01	 1.395906e+01
 1.544508e+00	 6.366788e-01	 1.399222e+01
 1.532280e+00	 6.655688e-01	 1.400696e+01
 1.519466e+00	 6.943263e-01	 1.400024e+01
 1.506065e+00	 7.229340e-01	 1.396748e+01
 1.578239e+00	 5.826445e-01	 1.386109e+01
 1.567107e+00	 6.119529e-01	 1.390289e+01
 1.555385e+00	 6.411624e-01	 1.393320e+01
 1.543071e+00	 6.702559e-01	 1.394816e+01
 1.530166e+00	 6.992159e-01	 1.394436e+01
 1.516671e+00	 7.280250e-01	 1.391681e+01
 1.589275e+00	 5.867189e-01	 1.380722e+01
 1.578066e+00	 6.162323e-01	 1.384590e+01
 1.566262e+00	 6.456461e-01	 1.387404e+01
 1.553862e+00	 6.749430e-01	 1.388955e+01
 1.540867e+00	 7.041055e-01	 1.388880e+01
 1.527277e+00	 7.331161e-01	 1.386644e+01
 1.600312e+00	 5.907933e-01	 1.375327e+01
 1.589025e+00	 6.205117e-01	 1.378803e+01
 1.577139e+00	 6.501297e-01	 1.381465e+01
 1.564653e+00	 6.796301e-01	 1.383110e+01
 1.551567e+00	 7.089951e-01	 1.383358e+01
 1.537883e+00	 7.382072e-01	 1.381649e+01
 1.484853e+00	 7.127518e-01	 1.406950e+01
 1.471064e+00	 7.407917e-01	 1.402105e+01
 1.456702e+00	 7.686495e-01	 1.398893e+01
 1.441768e+00	 7.963081e-01	 1.395983e+01
 1.426267e+00	 8.237503e-01	 1.391918e+01
 1.410203e+00	 8.509590e-01	 1.385149e+01
 1.495459e+00	 7.178429e-01	 1.401839e+01
 1.481572e+00	 7.460830e-01	 1.397658e+01
 1.467107e+00	 7.741399e-01	 1.395102e+01
 1.452067e+00	 8.019960e-01	 1.392827e+01
 1.436455e+00	 8.296342e-01	 1.389361e+01
 1.420276e+00	 8.570373e-01	 1.383134e+01
 1.506065e+00	 7.229340e-01	 1.396748e+01
 1.492080e+00	 7.513744e-01	 1.393207e+01
 1.477512e+00	 7.796302e-01	 1.391290e+01
 1.462365e+00	 8.076839e-01	 1.389637e+01
 1.446642e+00	 8.355182e-01	 1.386755e+01
 1.430348e+00	 8.631155e-01	 1.381045e+01
 1.516671e+00	 7.280250e-01	 1.391681e+01
 1.502587e+00	 7.566658e-01	 1.388766e+01
 1.487917e+00	 7.851206e-01	 1.387480e+01
 1.472663e+00	 8.133719e-01	 1.386443e+01
 1.456830e+00	 8.414021e-01	 1.384132e+01
 1.440421e+00	 8.691938e-01	 1.378917e+01
 1.527277e+00	 7.331161e-01	 1.386644e+01
 1.513095e+00	 7.619571e-01	 1.384353e+01
 1.498322e+00	 7.906109e-01	 1.383700e+01
 1.482962e+00	 8.190598e-01	 1.383277e+01
 1.467018e+00	 8.472860e-01	 1.381531e+01
 1.450494e+00	 8.752721e-01	 1.376788e+01
 1.537883e+00	 7.382072e-01	 1.381649e+01
 1.523602e+00	 7.672485e-01	 1.379991e+01
 1.508727e+00	 7.961013e-01	 1.379980e+01
 1.493260e+00	 8.247477e-01	 1.380177e+01
 1.477205e+00	 8.531700e-01	 1.378990e+01
 1.460567e+00	 8.813504e-01	 1.374701e+01
 1.410203e+00	 8.509590e-01	 1.385149e+01
 1.393580e+00	 8.779171e-01	 1.377045e+01
 1.376404e+00	 9.046078e-01	 1.368887e+01
 1.358681e+00	 9.310143e-01	 1.358970e+01
 1.340419e+00	 9.571200e-01	 1.345660e+01
 1.321625e+00	 9.829087e-01	 1.327454e+01
 1.420276e+00	 8.570373e-01	 1.383134e+01
 1.403534e+00	 8.841879e-01	 1.375515e+01
 1.386235e+00	 9.110693e-01	 1.367797e+01
 1.368386e+00	 9.376644e-01	 1.358261e+01
 1.349994e+00	 9.639566e-01	 1.345271e+01
 1.331065e+00	 9.899295e-01	 1.327324e+01
 1.430348e+00	 8.631155e-01	 1.381045e+01
 1.413488e+00	 8.904588e-01	 1.373884e+01
 1.396067e+00	 9.175308e-01	 1.366589e+01
 1.378091e+00	 9.443145e-01	 1.357442e+01
 1.359568e+00	 9.707932e-01	 1.344807e+01
 1.340506e+00	 9.969502e-01	 1.327191e+01
 1.440421e+00	 8.691938e-01	 1.378917e+01
 1.423442e+00	 8.967296e-01	 1.372190e+01
 1.405898e+00	 9.239922e-01	 1.365310e+01
 1.387796e+00	 9.509646e-01	 1.356567e+01
 1.369143e+00	 9.776297e-01	 1.344337e+01
 1.349946e+00	 1.003971e+00	 1.327144e+01
 1.450494e+00	 8.752721e-01	 1.376788e+01
 1.433396e+00	 9.030005e-01	 1.370472e+01
 1.415730e+00	 9.304537e-01	 1.364007e+01
 1.397501e+00	 9.576147e-01	 1.355696e+01
 1.378717e+00	 9.844663e-01	 1.343934e+01
 1.359386e+00	 1.010992e+00	 1.327271e+01
 1.460567e+00	 8.813504e-01	 1.374701e+01
 1.443350e+00	 9.092713e-01	 1.368776e+01
 1.425561e+00	 9.369152e-01	 1.362731e+01
 1.407206e+00	 9.642648e-01	 1.354889e+01
 1.388291e+00	 9.913029e-01	 1.343672e+01
 1.368826e+00	 1.018013e+00	 1.327665e+01
 1.321625e+00	 9.829087e-01	 1.327454e+01
 1.302307e+00	 1.008364e+00	 1.306575e+01
 1.282475e+00	 1.033471e+00	 1.286061e+01
 1.262136e+00	 1.058213e+00	 1.266064e+01
 1.241303e+00	 1.082575e+00	 1.247191e+01
 1.219985e+00	 1.106544e+00	 1.230557e+01
 1.331065e+00	 9.899295e-01	 1.327324e+01
 1.311610e+00	 1.015567e+00	 1.306822e+01
 1.291635e+00	 1.040853e+00	 1.286873e+01
 1.271152e+00	 1.065772e+00	 1.267472e+01
 1.250169e+00	 1.090308e+00	 1.249058e+01
 1.228699e+00	 1.114448e+00	 1.232579e+01
 1.340506e+00	 9.969502e-01	 1.327191e+01
 1.320912e+00	 1.022769e+00	 1.307137e+01
 1.300796e+00	 1.048235e+00	 1.287774e+01
 1.280167e+00	 1.073330e+00	 1.268920e+01
 1.259036e+00	 1.098041e+00	 1.250839e+01
 1.237414e+00	 1.122351e+00	 1.234297e+01
 1.349946e+00	 1.003971e+00	 1.327144e+01
 1.330214e+00	 1.029972e+00	 1.307627e+01
 1.309956e+00	 1.055617e+00	 1.288877e+01
 1.289182e+00	 1.080889e+00	 1.270530e+01
 1.267902e+00	 1.105773e+00	 1.252656e+01
 1.246128e+00	 1.130255e+00	 1.235829e+01
 1.359386e+00	 1.010992e+00	 1.327271e+01
 1.339516e+00	 1.037175e+00	 1.308396e+01
 1.319117e+00	 1.062998e+00	 1.290301e+01
 1.298197e+00	 1.088447e+00	 1.272426e+01
 1.276769e+00	 1.113506e+00	 1.254637e+01
 1.254842e+00	 1.138159e+00	 1.237299e+01
 1.368826e+00	 1.018013e+00	 1.327665e+01
 1.348818e+00	 1.044377e+00	 1.309554e+01
 1.328277e+00	 1.070380e+00	 1.292167e+01
 1.307213e+00	 1.096006e+00	 1.274735e+01
 1.285635e+00	 1.121239e+00	 1.256909e+01
 1.263556e+00	 1.146063e+00	 1.238833e+01
 1.219985e+00	 1.106544e+00	 1.230557e+01
 1.198194e+00	 1.130103e+00	 1.209735e+01
 1.175942e+00	 1.153241e+00	 1.179105e+01
 1.153241e+00	 1.175942e+00	 1.141909e+01
 1.130103e+00	 1.198194e+00	 1.106518e+01
 1.106544e+00	 1.219985e+00	 1.080086e+01
 1.228699e+00	 1.114448e+00	 1.232579e+01
 1.206753e+00	 1.138176e+00	 1.211408e+01
 1.184341e+00	 1.161478e+00	 1.179818e+01
 1.161478e+00	 1.184341e+00	 1.141677e+01
 1.138176e+00	 1.206753e+00	 1.107861e+01
 1.114448e+00	 1.228699e+00	 1.082266e+01
 1.237414e+00	 1.122351e+00	 1.234297e+01
 1.215311e+00	 1.146248e+00	 1.212483e+01
 1.192741e+00	 1.169715e+00	 1.179594e+01
 1.169715e+00	 1.192741e+00	 1.141639e+01
 1.146248e+00	 1.215311e+00	 1.109169e+01
 1.122351e+00	 1.237414e+00	 1.084188e+01
 1.246128e+00	 1.130255e+00	 1.235829e+01
 1.223870e+00	 1.154320e+00	 1.213074e+01
 1.201141e+00	 1.177953e+00	 1.178575e+01
 1.177953e+00	 1.201141e+00	 1.142000e+01
 1.154320e+00	 1.223870e+00	 1.110645e+01
 1.130255e+00	 1.246128e+00	 1.086059e+01
 1.254842e+00	 1.138159e+00	 1.237299e+01
 1.232428e+00	 1.162392e+00	 1.213303e+01
 1.209540e+00	 1.186190e+00	 1.177872e+01
 1.186190e+00	 1.209540e+00	 1.142955e+01
 1.162392e+00	 1.232428e+00	 1.112488e+01
 1.138159e+00	 1.254842e+00	 1.088083e+01
 1.263556e+00	 1.146063e+00	 1.238833e+01
 1.240987e+00	 1.170464e+00	 1.213291e+01
 1.217940e+00	 1.194428e+00	 1.178163e+01
 1.194428e+00	 1.217940e+00	 1.144683e+01
 1.170464e+00	 1.240987e+00	 1.114895e+01
 1.146063e+00	 1.263556e+00	 1.090460e+01
 1.106544e+00	 1.219985e+00	 1.080086e+01
 1.082575e+00	 1.241303e+00	 1.056776e+01
 1.058213e+00	 1.262136e+00	 1.030712e+01
 1.033471e+00	 1.282475e+00	 1.002662e+01
 1.008364e+00	 1.302307e+00	 9.730405e+00
 9.829087e-01	 1.321625e+00	 9.419476e+00
 1.114448e+00	 1.228699e+00	 1.082266e+01
 1.090308e+00	 1.250169e+00	 1.059137e+01
 1.065772e+00	 1.271152e+00	 1.032823e+01
 1.040853e+00	 1.291635e+00	 1.004311e+01
 1.015567e+00	 1.311610e+00	 9.742372e+00
 9.899295e-01	 1.331065e+00	 9.429239e+00
 1.122351e+00	 1.237414e+00	 1.084188e+01
 1.098041e+00	 1.259036e+00	 1.061073e+01
 1.073330e+00	 1.280167e+00	 1.034423e+01
 1.048235e+00	 1.300796e+00	 1.005433e+01
 1.022769e+00	 1.320912e+00	 9.749453e+00
 9.969502e-01	 1.340506e+00	 9.434884e+00
 1.130255e+00	 1.246128e+00	 1.086059e+01
 1.105773e+00	 1.267902e+00	 1.062793e+01
 1.080889e+00	 1.289182e+00	 1.035721e+01
 1.055617e+00	 1.309956e+00	 1.006232e+01
 1.029972e+00	 1.330214e+00	 9.753591e+00
 1.003971e+00	 1.349946e+00	 9.438211e+00
 1.138159e+00	 1.254842e+00	 1.088083e+01
 1.113506e+00	 1.276769e+00	 1.064506e+01
 1.088447e+00	 1.298197e+00	 1.036925e+01
 1.062998e+00	 1.319117e+00	 1.006909e+01
 1.037175e+00	 1.339516e+00	 9.756704e+00
 1.010992e+00	 1.359386e+00	 9.441000e+00
 1.146063e+00	 1.263556e+00	 1.090460e+01
 1.121239e+00	 1.285635e+00	 1.066415e+01
 1.096006e+00	 1.307213e+00	 1.038237e+01
 1.070380e+00	 1.328277e+00	 1.007664e+01
 1.044377e+00	 1.348818e+00	 9.760683e+00
 1.018013e+00	 1.368826e+00	 9.445014e+00
 9.829087e-01	 1.321625e+00	 9.419476e+00
 9.571200e-01	 1.340419e+00	 9.117755e+00
 9.310143e-01	 1.358681e+00	 8.844283e+00
 9.046078e-01	 1.376404e+00	 8.589218e+00
 8.779171e-01	 1.393580e+00	 8.341228e+00
 8.509590e-01	 1.410203e+00	 8.087960e+00
 9.899295e-01	 1.331065e+00	 9.429239e+00
 9.639566e-01	 1.349994e+00	 9.128920e+00
 9.376644e-01	 1.368386e+00	 8.859538e+00
 9.110693e-01	 1.386235e+00	 8.610090e+00
 8.841879e-01	 1.403534e+00	 8.367991e+00
 8.570373e-01	 1.420276e+00	 8.119575e+00
 9.969502e-01	 1.340506e+00	 9.434884e+00
 9.707932e-01	 1.359568e+00	 9.136559e+00
 9.443145e-01	 1.378091e+00	 8.871337e+00
 9.175308e-01	 1.396067e+00	 8.627208e+00
 8.904588e-01	 1.413488e+00	 8.390500e+00
 8.631155e-01	 1.430348e+00	 8.146407e+00
 1.003971e+00	 1.349946e+00	 9.438211e+00
 9.776297e-01	 1.369143e+00	 9.142342e+00
 9.509646e-01	 1.387796e+00	 8.881281e+00
 9.239922e-01	 1.405898e+00	 8.642164e+00
 8.967296e-01	 1.423442e+00	 8.410390e+00
 8.691938e-01	 1.440421e+00	 8.170183e+00
 1.010992e+00	 1.359386e+00	 9.441000e+00
 9.844663e-01	 1.378717e+00	 9.147924e+00
 9.576147e-01	 1.397501e+00	 8.890965e+00
 9.304537e-01	 1.415730e+00	 8.656544e+00
 9.030005e-01	 1.433396e+00	 8.429290e+00
 8.752721e-01	 1.450494e+00	 8.192622e+00
 1.018013e+00	 1.368826e+00	 9.445014e+00
 9.913029e-01	 1.388291e+00	 9.154949e+00
 9.642648e-01	 1.407206e+00	 8.901970e+00
 9.369152e-01	 1.425561e+00	 8.671927e+00
 9.092713e-01	 1.443350e+00	 8.448824e+00
 8.813504e-01	 1.460567e+00	 8.215438e+00
 8.509590e-01	 1.410203e+00	 8.087960e+00
 8.237503e-01	 1.426267e+00	 7.837816e+00
 7.963081e-01	 1.441768e+00	 7.600966e+00
 7.686495e-01	 1.456702e+00	 7.367700e+00
 7.407917e-01	 1.471064e+00	 7.129182e+00
 7.127518e-01	 1.484853e+00	 6.877718e+00
 8.570373e-01	 1.420276e+00	 8.119575e+00
 8.296342e-01	 1.436455e+00	 7.873211e+00
 8.019960e-01	 1.452067e+00	 7.639973e+00
 7.741399e-01	 1.467107e+00	 7.410248e+00
 7.460830e-01	 1.481572e+00	 7.175370e+00
 7.178429e-01	 1.495459e+00	 6.927907e+00
 8.631155e-01	 1.430348e+00	 8.146407e+00
 8.355182e-01	 1.446642e+00	 7.903555e+00
 8.076839e-01	 1.462365e+00	 7.674007e+00
 7.796302e-01	 1.477512e+00	 7.448137e+00
 7.513744e-01	 1.492080e+00	 7.217342e+00
 7.229340e-01	 1.506065e+00	 6.974330e+00
 8.691938e-01	 1.440421e+00	 8.170183e+00
 8.414021e-01	 1.456830e+00	 7.930659e+00
 8.133719e-01	 1.472663e+00	 7.704916e+00
 7.851206e-01	 1.487917e+00	 7.483208e+00
 7.566658e-01	 1.502587e+00	 7.256878e+00
 7.280250e-01	 1.516671e+00	 7.018665e+00
 8.752721e-01	 1.450494e+00	 8.192622e+00
 8.472860e-01	 1.467018e+00	 7.956329e+00
 8.190598e-01	 1.482962e+00	 7.734544e+00
 7.906109e-01	 1.498322e+00	 7.517293e+00
 7.619571e-01	 1.513095e+00	 7.295758e+00
 7.331161e-01	 1.527277e+00	 7.062594e+00
 8.813504e-01	 1.460567e+00	 8.215438e+00
 8.531700e-01	 1.477205e+00	 7.982364e+00
 8.247477e-01	 1.493260e+00	 7.764729e+00
 7.961013e-01	 1.508727e+00	 7.552223e+00
 7.672485e-01	 1.523602e+00	 7.335759e+00
 7.382072e-01	 1.537883e+00	 7.107799e+00
 7.127518e-01	 1.484853e+00	 6.877718e+00
 6.845470e-01	 1.498065e+00	 6.627960e+00
 6.561946e-01	 1.510699e+00	 6.393476e+00
 6.277115e-01	 1.522754e+00	 6.167021e+00
 5.991147e-01	 1.534231e+00	 5.942839e+00
 5.704211e-01	 1.545129e+00	 5.713391e+00
 7.178429e-01	 1.495459e+00	 6.927907e+00
 6.894367e-01	 1.508765e+00	 6.682300e+00
 6.608817e-01	 1.521490e+00	 6.451555e+00
 6.321951e-01	 1.533631e+00	 6.228297e+00
 6.033941e-01	 1.545190e+00	 6.006728e+00
 5.744956e-01	 1.556165e+00	 5.780633e+00
 7.229340e-01	 1.506065e+00	 6.974330e+00
 6.943263e-01	 1.519466e+00	 6.733206e+00
 6.655688e-01	 1.532280e+00	 6.506405e+00
 6.366788e-01	 1.544508e+00	 6.286489e+00
 6.076735e-01	 1.556148e+00	 6.067690e+00
 5.785700e-01	 1.567202e+00	 5.844904e+00
 7.280250e-01	 1.516671e+00	 7.018665e+00
 6.992159e-01	 1.530166e+00	 6.782245e+00
 6.702559e-01	 1.543071e+00	 6.559505e+00
 6.411624e-01	 1.555385e+00	 6.343002e+00
 6.119529e-01	 1.567107e+00	 6.127078e+00
 5.826445e-01	 1.578239e+00	 5.907499e+00
 7.331161e-01	 1.527277e+00	 7.062594e+00
 7.041055e-01	 1.540867e+00	 6.830989e+00
 6.749430e-01	 1.553862e+00	 6.612336e+00
 6.456461e-01	 1.566262e+00	 6.399251e+00
 6.162323e-01	 1.578066e+00	 6.186253e+00
 5.867189e-01	 1.589275e+00	 5.969721e+00
 7.382072e-01	 1.537883e+00	 7.107799e+00
 7.089951e-01	 1.551567e+00	 6.881017e+00
 6.796301e-01	 1.564653e+00	 6.666390e+00
 6.501297e-01	 1.577139e+00	 6.456657e+00
 6.205117e-01	 1.589025e+00	 6.246587e+00
 5.907933e-01	 1.600312e+00	 6.032962e+00
 5.704211e-01	 1.545129e+00	 5.713391e+00
 5.416475e-01	 1.555449e+00	 5.473018e+00
 5.128102e-01	 1.565193e+00	 5.230963e+00
 4.839255e-01	 1.574363e+00	 4.992126e+00
 4.550097e-01	 1.582962e+00	 4.761731e+00
 4.260784e-01	 1.590993e+00	 4.545117e+00
 5.744956e-01	 1.556165e+00	 5.780633e+00
 5.455164e-01	 1.566559e+00	 5.542850e+00
 5.164731e-01	 1.576373e+00	 5.301675e+00
 4.873822e-01	 1.585608e+00	 5.062737e+00
 4.582598e-01	 1.594269e+00	 4.831951e+00
 4.291218e-01	 1.602358e+00	 4.615309e+00
 5.785700e-01	 1.567202e+00	 5.844904e+00
 5.493853e-01	 1.577669e+00	 5.610338e+00
 5.201360e-01	 1.587553e+00	 5.370700e+00
 4.908388e-01	 1.596854e+00	 5.132190e+00
 4.615098e-01	 1.605576e+00	 4.901253e+00
 4.321652e-01	 1.613722e+00	 4.684362e+00
 5.826445e-01	 1.578239e+00	 5.907499e+00
 5.532542e-01	 1.588780e+00	 5.676725e+00
 5.237989e-01	 1.598733e+00	 5.439187e+00
 4.942954e-01	 1.608099e+00	 5.201504e+00
 4.647599e-01	 1.616883e+00	 4.970492e+00
 4.352086e-01	 1.625086e+00	 4.752942e+00
 5.867189e-01	 1.589275e+00	 5.969721e+00
 5.571231e-01	 1.599890e+00	 5.743260e+00
 5.274619e-01	 1.609913e+00	 5.508287e+00
 4.977520e-01	 1.619345e+00	 5.271699e+00
 4.680100e-01	 1.628190e+00	 5.040529e+00
 4.382520e-01	 1.636450e+00	 4.821724e+00
 5.907933e-01	 1.600312e+00	 6.032962e+00
 5.609920e-01	 1.611000e+00	 5.811197e+00
 5.311248e-01	 1.621093e+00	 5.579161e+00
 5.012086e-01	 1.630590e+00	 5.343805e+00
 4.712600e-01	 1.639496e+00	 5.112230e+00
 4.412955e-01	 1.647815e+00	 4.891387e+00
 4.260784e-01	 1.590993e+00	 4.545117e+00
 3.971472e-01	 1.598461e+00	 4.338436e+00
 3.682313e-01	 1.605369e+00	 4.137089e+00
 3.393456e-01	 1.611722e+00	 3.944975e+00
 3.105047e-01	 1.617526e+00	 3.765535e+00
 2.817229e-01	 1.622786e+00	 3.601686e+00
 4.291218e-01	 1.602358e+00	 4.615309e+00
 3.999839e-01	 1.609878e+00	 4.409194e+00
 3.708615e-01	 1.616836e+00	 4.208732e+00
 3.417695e-01	 1.623234e+00	 4.017639e+00
 3.127226e-01	 1.629080e+00	 3.839123e+00
 2.837352e-01	 1.634378e+00	 3.675818e+00
 4.321652e-01	 1.613722e+00	 4.684362e+00
 4.028207e-01	 1.621296e+00	 4.478025e+00
 3.734917e-01	 1.628302e+00	 4.277279e+00
 3.441934e-01	 1.634746e+00	 4.085924e+00
 3.149405e-01	 1.640633e+00	 3.907197e+00
 2.857475e-01	 1.645969e+00	 3.743710e+00
 4.352086e-01	 1.625086e+00	 4.752942e+00
 4.056575e-01	 1.632714e+00	 4.545418e+00
 3.761219e-01	 1.639769e+00	 4.343084e+00
 3.466173e-01	 1.646259e+00	 4.150083e+00
 3.171584e-01	 1.652187e+00	 3.969940e+00
 2.877598e-01	 1.657560e+00	 3.805499e+00
 4.382520e-01	 1.636450e+00	 4.821724e+00
 4.084942e-01	 1.644131e+00	 4.611870e+00
 3.787522e-01	 1.651236e+00	 4.406508e+00
 3.490412e-01	 1.657771e+00	 4.210376e+00
 3.193763e-01	 1.663741e+00	 4.027541e+00
 2.897721e-01	 1.669152e+00	 3.861331e+00
 4.412955e-01	 1.647815e+00	 4.891387e+00
 4.113310e-01	 1.655549e+00	 4.677886e+00
 3.813824e-01	 1.662703e+00	 4.467917e+00
 3.514651e-01	 1.669283e+00	 4.267068e+00
 3.215942e-01	 1.675295e+00	 4.080196e+00
 2.917844e-01	 1.680743e+00	 3.911353e+00
 2.817229e-01	 1.622786e+00	 3.601686e+00
 2.530139e-01	 1.627509e+00	 3.452243e+00
 2.243912e-01	 1.631702e+00	 3.316164e+00
 1.958680e-01	 1.635371e+00	 3.195682e+00
 1.674568e-01	 1.638524e+00	 3.092410e+00
 1.391700e-01	 1.641169e+00	 3.007377e+00
 2.837352e-01	 1.634378e+00	 3.675818e+00
 2.548211e-01	 1.639134e+00	 3.526249e+00
 2.259940e-01	 1.643357e+00	 3.389531e+00
 1.972670e-01	 1.647052e+00	 3.268207e+00
 1.686529e-01	 1.650228e+00	 3.164140e+00
 1.401641e-01	 1.652891e+00	 3.078551e+00
 2.857475e-01	 1.645969e+00	 3.743710e+00
 2.566284e-01	 1.650760e+00	 3.593875e+00
 2.275968e-01	 1.655012e+00	 3.456870e+00
 1.986661e-01	 1.658734e+00	 3.335390e+00
 1.698491e-01	 1.661932e+00	 3.231397e+00
 1.411581e-01	 1.664614e+00	 3.146155e+00
 2.877598e-01	 1.657560e+00	 3.805499e+00
 2.584356e-01	 1.662385e+00	 3.655229e+00
 2.291996e-01	 1.666667e+00	 3.518263e+00
 2.000651e-01	 1.670415e+00	 3.397301e+00
 1.710452e-01	 1.673635e+00	 3.294250e+00
 1.421522e-01	 1.676337e+00	 3.210270e+00
 2.897721e-01	 1.669152e+00	 3.861331e+00
 2.602428e-01	 1.674010e+00	 3.710422e+00
 2.308024e-01	 1.678322e+00	 3.573797e+00
 2.014642e-01	 1.682096e+00	 3.454009e+00
 1.722413e-01	 1.685339e+00	 3.352764e+00
 1.431463e-01	 1.688059e+00	 3.270974e+00
 2.917844e-01	 1.680743e+00	 3.911353e+00
 2.620501e-01	 1.685635e+00	 3.759569e+00
 2.324052e-01	 1.689977e+00	 3.623560e+00
 2.028633e-01	 1.693777e+00	 3.505584e+00
 1.734374e-01	 1.697043e+00	 3.407006e+00
 1.441403e-01	 1.699782e+00	 3.328343e+00
 1.391700e-01	 1.641169e+00	 3.007377e+00
 1.110193e-01	 1.643313e+00	 2.940161e+00
 8.301627e-02	 1.644965e+00	 2.889299e+00
 5.517174e-02	 1.646135e+00	 2.853570e+00
 2.749628e-02	 1.646829e+00	 2.831453e+00
 0.000000e+00	 1.647059e+00	 2.821211e+00
 1.401641e-01	 1.652891e+00	 3.078551e+00
 1.118123e-01	 1.655051e+00	 3.011159e+00
 8.360924e-02	 1.656715e+00	 2.960413e+00
 5.556582e-02	 1.657893e+00	 2.924886e+00
 2.769269e-02	 1.658592e+00	 2.902831e+00
 0.000000e+00	 1.658824e+00	 2.892271e+00
 1.411581e-01	 1.664614e+00	 3.146155e+00
 1.126053e-01	 1.666789e+00	 3.079424e+00
 8.420221e-02	 1.668465e+00	 3.029543e+00
 5.595990e-02	 1.669651e+00	 2.994841e+00
 2.788909e-02	 1.670355e+00	 2.973302e+00
 0.000000e+00	 1.670588e+00	 2.962661e+00
 1.421522e-01	 1.676337e+00	 3.210270e+00
 1.133983e-01	 1.678527e+00	 3.145051e+00
 8.479519e-02	 1.680215e+00	 3.096782e+00
 5.635399e-02	 1.681409e+00	 3.063510e+00
 2.808549e-02	 1.682118e+00	 3.042910e+00
 0.000000e+00	 1.682353e+00	 3.032383e+00
 1.431463e-01	 1.688059e+00	 3.270974e+00
 1.141913e-01	 1.690265e+00	 3.208130e+00
 8.538816e-02	 1.691964e+00	 3.162219e+00
 5.674807e-02	 1.693167e+00	 3.130968e+00
 2.828189e-02	 1.693882e+00	 3.111698e+00
 0.000000e+00	 1.694118e+00	 3.101435e+00
 1.441403e-01	 1.699782e+00	 3.328343e+00
 1.149843e-01	 1.702003e+00	 3.268750e+00
 8.598113e-02	 1.703714e+00	 3.225940e+00
 5.714215e-02	 1.704925e+00	 3.197281e+00
 2.847829e-02	 1.705645e+00	 3.179705e+00
 0.000000e+00	 1.705882e+00	 3.169812e+00
 1.705882e+00	 0.000000e+00	 1.364039e+01
 1.705645e+00	 2.847829e-02	 1.362739e+01
 1.704925e+00	 5.714215e-02	 1.362456e+01
 1.703714e+00	 8.598113e-02	 1.362815e+01
 1.702003e+00	 1.149843e-01	 1.363529e+01
 1.699782e+00	 1.441403e-01	 1.364402e+01
 1.717647e+00	 0.000000e+00	 1.356964e+01
 1.717408e+00	 2.867470e-02	 1.355718e+01
 1.716683e+00	 5.753624e-02	 1.355487e+01
 1.715464e+00	 8.657411e-02	 1.355892e+01
 1.713741e+00	 1.157773e-01	 1.356644e+01
 1.711504e+00	 1.451344e-01	 1.357548e+01
 1.729412e+00	 0.000000e+00	 1.350074e+01
 1.729171e+00	 2.887110e-02	 1.348883e+01
 1.728441e+00	 5.793032e-02	 1.348689e+01
 1.727214e+00	 8.716708e-02	 1.349118e+01
 1.725479e+00	 1.165703e-01	 1.349884e+01
 1.723227e+00	 1.461285e-01	 1.350792e+01
 1.741176e+00	 0.000000e+00	 1.343363e+01
 1.740934e+00	 2.906750e-02	 1.342224e+01
 1.740199e+00	 5.832441e-02	 1.342054e+01
 1.738963e+00	 8.776005e-02	 1.342487e+01
 1.737217e+00	 1.173633e-01	 1.343244e+01
 1.734950e+00	 1.471226e-01	 1.344136e+01
 1.752941e+00	 0.000000e+00	 1.336820e+01
 1.752697e+00	 2.926390e-02	 1.335731e+01
 1.751957e+00	 5.871849e-02	 1.335571e+01
 1.750713e+00	 8.835303e-02	 1.335989e+01
 1.748955e+00	 1.181563e-01	 1.336718e+01
 1.746672e+00	 1.481166e-01	 1.337579e+01
 1.764706e+00	 0.000000e+00	 1.330438e+01
 1.764460e+00	 2.946030e-02	 1.329392e+01
 1.763716e+00	 5.911257e-02	 1.329229e+01
 1.762463e+00	 8.894600e-02	 1.329615e+01
 1.760692e+00	 1.189493e-01	 1.330299e+01
 1.758395e+00	 1.491107e-01	 1.331118e+01
 1.699782e+00	 1.441403e-01	 1.364402e+01
 1.697043e+00	 1.734374e-01	 1.365127e+01
 1.693777e+00	 2.028633e-01	 1.365527e+01
 1.689977e+00	 2.324052e-01	 1.365773e+01
 1.685635e+00	 2.620501e-01	 1.366162e+01
 1.680743e+00	 2.917844e-01	 1.367117e+01
 1.711504e+00	 1.451344e-01	 1.357548e+01
 1.708746e+00	 1.746335e-01	 1.358314e+01
 1.705458e+00	 2.042623e-01	 1.358791e+01
 1.701632e+00	 2.340080e-01	 1.359143e+01
 1.697260e+00	 2.638573e-01	 1.359658e+01
 1.692334e+00	 2.937967e-01	 1.360749e+01
 1.723227e+00	 1.461285e-01	 1.350792e+01
 1.720450e+00	 1.758297e-01	 1.351579e+01
 1.717140e+00	 2.056614e-01	 1.352117e+01
 1.713287e+00	 2.356108e-01	 1.352567e+01
 1.708885e+00	 2.656646e-01	 1.353210e+01
 1.703925e+00	 2.958090e-01	 1.354450e+01
 1.734950e+00	 1.471226e-01	 1.344136e+01
 1.732154e+00	 1.770258e-01	 1.344926e+01
 1.728821e+00	 2.070604e-01	 1.345508e+01
 1.724942e+00	 2.372136e-01	 1.346043e+01
 1.720510e+00	 2.674718e-01	 1.346806e+01
 1.715517e+00	 2.978213e-01	 1.348191e+01
 1.746672e+00	 1.481166e-01	 1.337579e+01
 1.743858e+00	 1.782219e-01	 1.338357e+01
 1.740502e+00	 2.084595e-01	 1.338966e+01
 1.736597e+00	 2.388164e-01	 1.339568e+01
 1.732135e+00	 2.692790e-01	 1.340433e+01
 1.727108e+00	 2.998336e-01	 1.341947e+01
 1.758395e+00	 1.491107e-01	 1.331118e+01
 1.755561e+00	 1.794180e-01	 1.331874e+01
 1.752183e+00	 2.098585e-01	 1.332491e+01
 1.748252e+00	 2.404192e-01	 1.333137e+01
 1.743760e+00	 2.710863e-01	 1.334078e+01
 1.738699e+00	 3.018459e-01	 1.335691e+01
 1.680743e+00	 2.917844e-01	 1.367117e+01
 1.675295e+00	 3.215942e-01	 1.368036e+01
 1.669283e+00	 3.514651e-01	 1.368376e+01
 1.662703e+00	 3.813824e-01	 1.368852e+01
 1.655549e+00	 4.113310e-01	 1.370314e+01
 1.647815e+00	 4.412955e-01	 1.373757e+01
 1.692334e+00	 2.937967e-01	 1.360749e+01
 1.686848e+00	 3.238121e-01	 1.361766e+01
 1.680796e+00	 3.538890e-01	 1.362126e+01
 1.674170e+00	 3.840126e-01	 1.362546e+01
 1.666966e+00	 4.141678e-01	 1.363881e+01
 1.659179e+00	 4.443389e-01	 1.367131e+01
 1.703925e+00	 2.958090e-01	 1.354450e+01
 1.698402e+00	 3.260300e-01	 1.355590e+01
 1.692308e+00	 3.563129e-01	 1.356008e+01
 1.685637e+00	 3.866428e-01	 1.356411e+01
 1.678384e+00	 4.170045e-01	 1.357651e+01
 1.670543e+00	 4.473823e-01	 1.360723e+01
 1.715517e+00	 2.978213e-01	 1.348191e+01
 1.709956e+00	 3.282478e-01	 1.349467e+01
 1.703820e+00	 3.587368e-01	 1.349972e+01
 1.697104e+00	 3.892731e-01	 1.350398e+01
 1.689801e+00	 4.198413e-01	 1.351580e+01
 1.681907e+00	 4.504257e-01	 1.354502e+01
 1.727108e+00	 2.998336e-01	 1.341947e+01
 1.721510e+00	 3.304657e-01	 1.343357e+01
 1.715333e+00	 3.611607e-01	 1.343973e+01
 1.708571e+00	 3.919033e-01	 1.344459e+01
 1.701219e+00	 4.226781e-01	 1.345626e+01
 1.693272e+00	 4.534691e-01	 1.348438e+01
 1.738699e+00	 3.018459e-01	 1.335691e+01
 1.733063e+00	 3.326836e-01	 1.337223e+01
 1.726845e+00	 3.635846e-01	 1.337967e+01
 1.720038e+00	 3.945335e-01	 1.338550e+01
 1.712637e+00	 4.255148e-01	 1.339751e+01
 1.704636e+00	 4.565125e-01	 1.342507e+01
 1.647815e+00	 4.412955e-01	 1.373757e+01
 1.639496e+00	 4.712600e-01	 1.376372e+01
 1.630590e+00	 5.012086e-01	 1.375802e+01
 1.621093e+00	 5.311248e-01	 1.373981e+01
 1.611000e+00	 5.609920e-01	 1.373052e+01
 1.600312e+00	 5.907933e-01	 1.375327e+01
 1.659179e+00	 4.443389e-01	 1.367131e+01
 1.650803e+00	 4.745101e-01	 1.369604e+01
 1.641836e+00	 5.046652e-01	 1.369066e+01
 1.632272e+00	 5.347877e-01	 1.367474e+01
 1.622111e+00	 5.648609e-01	 1.367004e+01
 1.611348e+00	 5.948678e-01	 1.369803e+01
 1.670543e+00	 4.473823e-01	 1.360723e+01
 1.662110e+00	 4.777602e-01	 1.363053e+01
 1.653081e+00	 5.081218e-01	 1.362531e+01
 1.643452e+00	 5.384507e-01	 1.361137e+01
 1.633221e+00	 5.687298e-01	 1.361074e+01
 1.622385e+00	 5.989422e-01	 1.364179e+01
 1.681907e+00	 4.504257e-01	 1.354502e+01
 1.673417e+00	 4.810102e-01	 1.356698e+01
 1.664327e+00	 5.115784e-01	 1.356184e+01
 1.654632e+00	 5.421136e-01	 1.354957e+01
 1.644332e+00	 5.725987e-01	 1.355243e+01
 1.633422e+00	 6.030166e-01	 1.358459e+01
 1.693272e+00	 4.534691e-01	 1.348438e+01
 1.684724e+00	 4.842603e-01	 1.350525e+01
 1.675572e+00	 5.150350e-01	 1.350017e+01
 1.665812e+00	 5.457765e-01	 1.348924e+01
 1.655442e+00	 5.764677e-01	 1.349494e+01
 1.644458e+00	 6.070911e-01	 1.352652e+01
 1.704636e+00	 4.565125e-01	 1.342507e+01
 1.696031e+00	 4.875104e-01	 1.344521e+01
 1.686817e+00	 5.184917e-01	 1.344022e+01
 1.676992e+00	 5.494395e-01	 1.343033e+01
 1.666552e+00	 5.803366e-01	 1.343817e+01
 1.655495e+00	 6.111655e-01	 1.346770e+01
 1.600312e+00	 5.907933e-01	 1.375327e+01
 1.589025e+00	 6.205117e-01	 1.378803e+01
 1.577139e+00	 6.501297e-01	 1.381465e+01
 1.564653e+00	 6.796301e-01	 1.383110e+01
 1.551567e+00	 7.089951e-01	 1.383358e+01
 1.537883e+00	 7.382072e-01	 1.381649e+01
 1.611348e+00	 5.948678e-01	 1.369803e+01
 1.599984e+00	 6.247911e-01	 1.372955e+01
 1.588015e+00	 6.546134e-01	 1.375516e+01
 1.575443e+00	 6.843172e-01	 1.377280e+01
 1.562268e+00	 7.138848e-01	 1.377856e+01
 1.548489e+00	 7.432983e-01	 1.376671e+01
 1.622385e+00	 5.989422e-01	 1.364179e+01
 1.610942e+00	 6.290705e-01	 1.367066e+01
 1.598892e+00	 6.590971e-01	 1.369557e+01
 1.586234e+00	 6.890043e-01	 1.371448e+01
 1.572968e+00	 7.187744e-01	 1.372344e+01
 1.559095e+00	 7.483894e-01	 1.371665e+01
 1.633422e+00	 6.030166e-01	 1.358459e+01
 1.621901e+00	 6.333498e-01	 1.361127e+01
 1.609769e+00	 6.635807e-01	 1.363570e+01
 1.597025e+00	 6.936914e-01	 1.365591e+01
 1.583668e+00	 7.236640e-01	 1.366802e+01
 1.569701e+00	 7.534805e-01	 1.366621e+01
 1.644458e+00	 6.070911e-01	 1.352652e+01
 1.632860e+00	 6.376292e-01	 1.355129e+01
 1.620646e+00	 6.680644e-01	 1.357538e+01
 1.607815e+00	 6.983785e-01	 1.359693e+01
 1.594369e+00	 7.285536e-01	 1.361217e+01
 1.580308e+00	 7.585715e-01	 1.361535e+01
 1.655495e+00	 6.111655e-01	 1.346770e+01
 1.643819e+00	 6.419086e-01	 1.349073e+01
 1.631523e+00	 6.725480e-01	 1.351453e+01
 1.618606e+00	 7.030656e-01	 1.353742e+01
 1.605069e+00	 7.334433e-01	 1.355580e+01
 1.590914e+00	 7.636626e-01	 1.356408e+01
 1.537883e+00	 7.382072e-01	 1.381649e+01
 1.523602e+00	 7.672485e-01	 1.379991e+01
 1.508727e+00	 7.961013e-01	 1.379980e+01
 1.493260e+00	 8.247477e-01	 1.380177e+01
 1.477205e+00	 8.531700e-01	 1.378990e+01
 1.460567e+00	 8.813504e-01	 1.374701e+01
 1.548489e+00	 7.432983e-01	 1.376671e+01
 1.534110e+00	 7.725399e-01	 1.375638e+01
 1.519132e+00	 8.015916e-01	 1.376256e+01
 1.503558e+00	 8.304356e-01	 1.377058e+01
 1.487393e+00	 8.590539e-01	 1.376410e+01
 1.470640e+00	 8.874287e-01	 1.372547e+01
 1.559095e+00	 7.483894e-01	 1.371665e+01
 1.544618e+00	 7.778313e-01	 1.371233e+01
 1.529537e+00	 8.070820e-01	 1.372455e+01
 1.513857e+00	 8.361235e-01	 1.373831e+01
 1.497581e+00	 8.649378e-01	 1.373693e+01
 1.480713e+00	 8.935069e-01	 1.370227e+01
 1.569701e+00	 7.534805e-01	 1.366621e+01
 1.555125e+00	 7.831226e-01	 1.366783e+01
 1.539942e+00	 8.125723e-01	 1.368592e+01
 1.524155e+00	 8.418114e-01	 1.370527e+01
 1.507768e+00	 8.708218e-01	 1.370882e+01
 1.490786e+00	 8.995852e-01	 1.367799e+01
 1.580308e+00	 7.585715e-01	 1.361535e+01
 1.565633e+00	 7.884140e-01	 1.362293e+01
 1.550347e+00	 8.180627e-01	 1.364690e+01
 1.534454e+00	 8.474994e-01	 1.367179e+01
 1.517956e+00	 8.767057e-01	 1.368022e+01
 1.500859e+00	 9.056635e-01	 1.365322e+01
 1.590914e+00	 7.636626e-01	 1.356408e+01
 1.576140e+00	 7.937054e-01	 1.357777e+01
 1.560752e+00	 8.235531e-01	 1.360770e+01
 1.544752e+00	 8.531873e-01	 1.363822e+01
 1.528143e+00	 8.825896e-01	 1.365163e+01
 1.510931e+00	 9.117418e-01	 1.362855e+01
 1.460567e+00	 8.813504e-01	 1.374701e+01
 1.443350e+00	 9.092713e-01	 1.368776e+01
 1.425561e+00	 9.369152e-01	 1.362731e+01
 1.407206e+00	 9.642648e-01	 1.354889e+01
 1.388291e+00	 9.913029e-01	 1.343672e+01
 1.368826e+00	 1.018013e+00	 1.327665e+01
 1.470640e+00	 8.874287e-01	 1.372547e+01
 1.453305e+00	 9.155421e-01	 1.366999e+01
 1.435393e+00	 9.433767e-01	 1.361393e+01
 1.416911e+00	 9.709149e-01	 1.354072e+01
 1.397866e+00	 9.981394e-01	 1.343487e+01
 1.378266e+00	 1.025033e+00	 1.328256e+01
 1.480713e+00	 8.935069e-01	 1.370227e+01
 1.463259e+00	 9.218130e-01	 1.365050e+01
 1.445224e+00	 9.498382e-01	 1.359915e+01
 1.426615e+00	 9.775650e-01	 1.353181e+01
 1.407440e+00	 1.004976e+00	 1.343314e+01
 1.387707e+00	 1.032054e+00	 1.328958e+01
 1.490786e+00	 8.995852e-01	 1.367799e+01
 1.473213e+00	 9.280838e-01	 1.362999e+01
 1.455055e+00	 9.562997e-01	 1.358376e+01
 1.436320e+00	 9.842151e-01	 1.352295e+01
 1.417015e+00	 1.011813e+00	 1.343234e+01
 1.397147e+00	 1.039075e+00	 1.329848e+01
 1.500859e+00	 9.056635e-01	 1.365322e+01
 1.483167e+00	 9.343546e-01	 1.360915e+01
 1.464887e+00	 9.627611e-01	 1.356852e+01
 1.446025e+00	 9.908652e-01	 1.351497e+01
 1.426589e+00	 1.018649e+00	 1.343327e+01
 1.406587e+00	 1.046096e+00	 1.331003e+01
 1.510931e+00	 9.117418e-01	 1.362855e+01
 1.493121e+00	 9.406255e-01	 1.358872e+01
 1.474718e+00	 9.692226e-01	 1.355423e+01
 1.455730e+00	 9.975153e-01	 1.350867e+01
 1.436164e+00	 1.025486e+00	 1.343676e+01
 1.416027e+00	 1.053116e+00	 1.332503e+01
 1.368826e+00	 1.018013e+00	 1.327665e+01
 1.348818e+00	 1.044377e+00	 1.309554e+01
 1.328277e+00	 1.070380e+00	 1.292167e+01
 1.307213e+00	 1.096006e+00	 1.274735e+01
 1.285635e+00	 1.121239e+00	 1.256909e+01
 1.263556e+00	 1.146063e+00	 1.238833e+01
 1.378266e+00	 1.025033e+00	 1.328256e+01
 1.358121e+00	 1.051580e+00	 1.310998e+01
 1.337438e+00	 1.077762e+00	 1.294317e+01
 1.316228e+00	 1.103565e+00	 1.277234e+01
 1.294502e+00	 1.128972e+00	 1.259178e+01
 1.272270e+00	 1.153967e+00	 1.240069e+01
 1.387707e+00	 1.032054e+00	 1.328958e+01
 1.367423e+00	 1.058782e+00	 1.312601e+01
 1.346598e+00	 1.085144e+00	 1.296566e+01
 1.325243e+00	 1.111123e+00	 1.279667e+01
 1.303368e+00	 1.136704e+00	 1.261122e+01
 1.280984e+00	 1.161871e+00	 1.240630e+01
 1.397147e+00	 1.039075e+00	 1.329848e+01
 1.376725e+00	 1.065985e+00	 1.314436e+01
 1.355759e+00	 1.092526e+00	 1.298986e+01
 1.334259e+00	 1.118682e+00	 1.282114e+01
 1.312235e+00	 1.144437e+00	 1.262830e+01
 1.289699e+00	 1.169775e+00	 1.240621e+01
 1.406587e+00	 1.046096e+00	 1.331003e+01
 1.386027e+00	 1.073188e+00	 1.316575e+01
 1.364919e+00	 1.099908e+00	 1.301654e+01
 1.343274e+00	 1.126241e+00	 1.284659e+01
 1.321101e+00	 1.152170e+00	 1.264397e+01
 1.298413e+00	 1.177679e+00	 1.240168e+01
 1.416027e+00	 1.053116e+00	 1.332503e+01
 1.395329e+00	 1.080390e+00	 1.319097e+01
 1.374080e+00	 1.107290e+00	 1.304648e+01
 1.352289e+00	 1.133799e+00	 1.287385e+01
 1.329968e+00	 1.159902e+00	 1.265917e+01
 1.307127e+00	 1.185583e+00	 1.240307e+01
 1.263556e+00	 1.146063e+00	 1.238833e+01
 1.240987e+00	 1.170464e+00	 1.213291e+01
 1.217940e+00	 1.194428e+00	 1.178163e+01
 1.194428e+00	 1.217940e+00	 1.144683e+01
 1.170464e+00	 1.240987e+00	 1.114895e+01
 1.146063e+00	 1.263556e+00	 1.090460e+01
 1.272270e+00	 1.153967e+00	 1.240069e+01
 1.249545e+00	 1.178536e+00	 1.212680e+01
 1.226339e+00	 1.202665e+00	 1.179055e+01
 1.202665e+00	 1.226339e+00	 1.146785e+01
 1.178536e+00	 1.249545e+00	 1.117492e+01
 1.153967e+00	 1.272270e+00	 1.092837e+01
 1.280984e+00	 1.161871e+00	 1.240630e+01
 1.258104e+00	 1.186609e+00	 1.212115e+01
 1.234739e+00	 1.210903e+00	 1.180146e+01
 1.210903e+00	 1.234739e+00	 1.148862e+01
 1.186609e+00	 1.258104e+00	 1.119890e+01
 1.161871e+00	 1.280984e+00	 1.094871e+01
 1.289699e+00	 1.169775e+00	 1.240621e+01
 1.266662e+00	 1.194681e+00	 1.212156e+01
 1.243138e+00	 1.219140e+00	 1.181591e+01
 1.219140e+00	 1.243138e+00	 1.151084e+01
 1.194681e+00	 1.266662e+00	 1.122270e+01
 1.169775e+00	 1.289699e+00	 1.096772e+01
 1.298413e+00	 1.177679e+00	 1.240168e+01
 1.275221e+00	 1.202753e+00	 1.212933e+01
 1.251538e+00	 1.227377e+00	 1.183534e+01
 1.227377e+00	 1.251538e+00	 1.153608e+01
 1.202753e+00	 1.275221e+00	 1.124803e+01
 1.177679e+00	 1.298413e+00	 1.098745e+01
 1.307127e+00	 1.185583e+00	 1.240307e+01
 1.283779e+00	 1.210825e+00	 1.214569e+01
 1.259938e+00	 1.235615e+00	 1.186112e+01
 1.235615e+00	 1.259938e+00	 1.156586e+01
 1.210825e+00	 1.283779e+00	 1.127655e+01
 1.185583e+00	 1.307127e+00	 1.100963e+01
 1.146063e+00	 1.263556e+00	 1.090460e+01
 1.121239e+00	 1.285635e+00	 1.066415e+01
 1.096006e+00	 1.307213e+00	 1.038237e+01
 1.070380e+00	 1.328277e+00	 1.007664e+01
 1.044377e+00	 1.348818e+00	 9.760683e+00
 1.018013e+00	 1.368826e+00	 9.445014e+00
 1.153967e+00	 1.272270e+00	 1.092837e+01
 1.128972e+00	 1.294502e+00	 1.068197e+01
 1.103565e+00	 1.316228e+00	 1.039366e+01
 1.077762e+00	 1.337438e+00	 1.008231e+01
 1.051580e+00	 1.358121e+00	 9.763106e+00
 1.025033e+00	 1.378266e+00	 9.447923e+00
 1.161871e+00	 1.280984e+00	 1.094871e+01
 1.136704e+00	 1.303368e+00	 1.069539e+01
 1.111123e+00	 1.325243e+00	 1.040028e+01
 1.085144e+00	 1.346598e+00	 1.008357e+01
 1.058782e+00	 1.367423e+00	 9.761611e+00
 1.032054e+00	 1.387707e+00	 9.447449e+00
 1.169775e+00	 1.289699e+00	 1.096772e+01
 1.144437e+00	 1.312235e+00	 1.070653e+01
 1.118682e+00	 1.334259e+00	 1.040435e+01
 1.092526e+00	 1.355759e+00	 1.008243e+01
 1.065985e+00	 1.376725e+00	 9.758137e+00
 1.039075e+00	 1.397147e+00	 9.445395e+00
 1.177679e+00	 1.298413e+00	 1.098745e+01
 1.152170e+00	 1.321101e+00	 1.071747e+01
 1.126241e+00	 1.343274e+00	 1.040792e+01
 1.099908e+00	 1.364919e+00	 1.008092e+01
 1.073188e+00	 1.386027e+00	 9.754590e+00
 1.046096e+00	 1.406587e+00	 9.443531e+00
 1.185583e+00	 1.307127e+00	 1.100963e+01
 1.159902e+00	 1.329968e+00	 1.073025e+01
 1.133799e+00	 1.352289e+00	 1.041300e+01
 1.107290e+00	 1.374080e+00	 1.008097e+01
 1.080390e+00	 1.395329e+00	 9.752832e+00
 1.053116e+00	 1.416027e+00	 9.443595e+00
 1.018013e+00	 1.368826e+00	 9.445014e+00
 9.913029e-01	 1.388291e+00	 9.154949e+00
 9.642648e-01	 1.407206e+00	 8.901970e+00
 9.369152e-01	 1.425561e+00	 8.671927e+00
 9.092713e-01	 1.443350e+00	 8.448824e+00
 8.813504e-01	 1.460567e+00	 8.215438e+00
 1.025033e+00	 1.378266e+00	 9.447923e+00
 9.981394e-01	 1.397866e+00	 9.161082e+00
 9.709149e-01	 1.416911e+00	 8.911918e+00
 9.433767e-01	 1.435393e+00	 8.685869e+00
 9.155421e-01	 1.453305e+00	 8.466485e+00
 8.874287e-01	 1.470640e+00	 8.236079e+00
 1.032054e+00	 1.387707e+00	 9.447449e+00
 1.004976e+00	 1.407440e+00	 9.164028e+00
 9.775650e-01	 1.426615e+00	 8.918452e+00
 9.498382e-01	 1.445224e+00	 8.695925e+00
 9.218130e-01	 1.463259e+00	 8.479736e+00
 8.935069e-01	 1.480713e+00	 8.251929e+00
 1.039075e+00	 1.397147e+00	 9.445395e+00
 1.011813e+00	 1.417015e+00	 9.165460e+00
 9.842151e-01	 1.436320e+00	 8.923164e+00
 9.562997e-01	 1.455055e+00	 8.703655e+00
 9.280838e-01	 1.473213e+00	 8.490141e+00
 8.995852e-01	 1.490786e+00	 8.264588e+00
 1.046096e+00	 1.406587e+00	 9.443531e+00
 1.018649e+00	 1.426589e+00	 9.167027e+00
 9.908652e-01	 1.446025e+00	 8.927631e+00
 9.627611e-01	 1.464887e+00	 8.710604e+00
 9.343546e-01	 1.483167e+00	 8.499250e+00
 9.056635e-01	 1.500859e+00	 8.275645e+00
 1.053116e+00	 1.416027e+00	 9.443595e+00
 1.025486e+00	 1.436164e+00	 9.170350e+00
 9.975153e-01	 1.455730e+00	 8.933406e+00
 9.692226e-01	 1.474718e+00	 8.718300e+00
 9.406255e-01	 1.493121e+00	 8.508603e+00
 9.117418e-01	 1.510931e+00	 8.286681e+00
 8.813504e-01	 1.460567e+00	 8.215438e+00
 8.531700e-01	 1.477205e+00	 7.982364e+00
 8.247477e-01	 1.493260e+00	 7.764729e+00
 7.961013e-01	 1.508727e+00	 7.552223e+00
 7.672485e-01	 1.523602e+00	 7.335759e+00
 7.382072e-01	 1.537883e+00	 7.107799e+00
 8.874287e-01	 1.470640e+00	 8.236079e+00
 8.590539e-01	 1.487393e+00	 8.006171e+00
 8.304356e-01	 1.503558e+00	 7.792814e+00
 8.015916e-01	 1.519132e+00	 7.585286e+00
 7.725399e-01	 1.534110e+00	 7.374148e+00
 7.432983e-01	 1.548489e+00	 7.151592e+00
 8.935069e-01	 1.480713e+00	 8.251929e+00
 8.649378e-01	 1.497581e+00	 8.025063e+00
 8.361235e-01	 1.513857e+00	 7.816058e+00
 8.070820e-01	 1.529537e+00	 7.613718e+00
 7.778313e-01	 1.544618e+00	 7.408201e+00
 7.483894e-01	 1.559095e+00	 7.191386e+00
 8.995852e-01	 1.490786e+00	 8.264588e+00
 8.708218e-01	 1.507768e+00	 8.040691e+00
 8.418114e-01	 1.524155e+00	 7.836158e+00
 8.125723e-01	 1.539942e+00	 7.639261e+00
 7.831226e-01	 1.555125e+00	 7.439706e+00
 7.534805e-01	 1.569701e+00	 7.229009e+00
 9.056635e-01	 1.500859e+00	 8.275645e+00
 8.767057e-01	 1.517956e+00	 8.054696e+00
 8.474994e-01	 1.534454e+00	 7.854804e+00
 8.180627e-01	 1.550347e+00	 7.663654e+00
 7.884140e-01	 1.565633e+00	 7.470443e+00
 7.585715e-01	 1.580308e+00	 7.266285e+00
 9.117418e-01	 1.510931e+00	 8.286681e+00
 8.825896e-01	 1.528143e+00	 8.068708e+00
 8.531873e-01	 1.544752e+00	 7.873678e+00
 8.235531e-01	 1.560752e+00	 7.688624e+00
 7.937054e-01	 1.576140e+00	 7.502188e+00
 7.636626e-01	 1.590914e+00	 7.305035e+00
 7.382072e-01	 1.537883e+00	 7.107799e+00
 7.089951e-01	 1.551567e+00	 6.881017e+00
 6.796301e-01	 1.564653e+00	 6.666390e+00
 6.501297e-01	 1.577139e+00	 6.456657e+00
 6.205117e-01	 1.589025e+00	 6.246587e+00
 5.907933e-01	 1.600312e+00	 6.032962e+00
 7.432983e-01	 1.548489e+00	 7.151592e+00
 7.138848e-01	 1.562268e+00	 6.929790e+00
 6.843172e-01	 1.575443e+00	 6.719348e+00
 6.546134e-01	 1.588015e+00	 6.513103e+00
 6.247911e-01	 1.599984e+00	 6.306059e+00
 5.948678e-01	 1.611348e+00	 6.095362e+00
 7.483894e-01	 1.559095e+00	 7.191386e+00
 7.187744e-01	 1.572968e+00	 6.974946e+00
 6.890043e-01	 1.586234e+00	 6.769084e+00
 6.590971e-01	 1.598892e+00	 6.566636e+00
 6.290705e-01	 1.610942e+00	 6.362736e+00
 5.989422e-01	 1.622385e+00	 6.154788e+00
 7.534805e-01	 1.569701e+00	 7.229009e+00
 7.236640e-01	 1.583668e+00	 7.018324e+00
 6.936914e-01	 1.597025e+00	 6.817388e+00
 6.635807e-01	 1.609769e+00	 6.618935e+00
 6.333498e-01	 1.621901e+00	 6.418129e+00
 6.030166e-01	 1.633422e+00	 6.212531e+00
 7.585715e-01	 1.580308e+00	 7.266285e+00
 7.285536e-01	 1.594369e+00	 7.061760e+00
 6.983785e-01	 1.607815e+00	 6.866045e+00
 6.680644e-01	 1.620646e+00	 6.671678e+00
 6.376292e-01	 1.632860e+00	 6.473753e+00
 6.070911e-01	 1.644458e+00	 6.269894e+00
 7.636626e-01	 1.590914e+00	 7.305035e+00
 7.334433e-01	 1.605069e+00	 7.107085e+00
 7.030656e-01	 1.618606e+00	 6.916838e+00
 6.725480e-01	 1.631523e+00	 6.726543e+00
 6.419086e-01	 1.643819e+00	 6.531129e+00
 6.111655e-01	 1.655495e+00	 6.328184e+00
 5.907933e-01	 1.600312e+00	 6.032962e+00
 5.609920e-01	 1.611000e+00	 5.811197e+00
 5.311248e-01	 1.621093e+00	 5.579161e+00
 5.012086e-01	 1.630590e+00	 5.343805e+00
 4.712600e-01	 1.639496e+00	 5.112230e+00
 4.412955e-01	 1.647815e+00	 4.891387e+00
 5.948678e-01	 1.611348e+00	 6.095362e+00
 5.648609e-01	 1.622111e+00	 5.878026e+00
 5.347877e-01	 1.632272e+00	 5.648851e+00
 5.046652e-01	 1.641836e+00	 5.414599e+00
 4.745101e-01	 1.650803e+00	 5.182554e+00
 4.443389e-01	 1.659179e+00	 4.959777e+00
 5.989422e-01	 1.622385e+00	 6.154788e+00
 5.687298e-01	 1.633221e+00	 5.941095e+00
 5.384507e-01	 1.643452e+00	 5.714228e+00
 5.081218e-01	 1.653081e+00	 5.480729e+00
 4.777602e-01	 1.662110e+00	 5.248426e+00
 4.473823e-01	 1.670543e+00	 5.024863e+00
 6.030166e-01	 1.633422e+00	 6.212531e+00
 5.725987e-01	 1.644332e+00	 6.001462e+00
 5.421136e-01	 1.654632e+00	 5.776205e+00
 5.115784e-01	 1.664327e+00	 5.543029e+00
 4.810102e-01	 1.673417e+00	 5.310670e+00
 4.504257e-01	 1.681907e+00	 5.087515e+00
 6.070911e-01	 1.644458e+00	 6.269894e+00
 5.764677e-01	 1.655442e+00	 6.060202e+00
 5.457765e-01	 1.665812e+00	 5.835708e+00
 5.150350e-01	 1.675572e+00	 5.602348e+00
 4.842603e-01	 1.684724e+00	 5.370118e+00
 4.534691e-01	 1.693272e+00	 5.148605e+00
 6.111655e-01	 1.655495e+00	 6.328184e+00
 5.803366e-01	 1.666552e+00	 6.118404e+00
 5.494395e-01	 1.676992e+00	 5.893677e+00
 5.184917e-01	 1.686817e+00	 5.659545e+00
 4.875104e-01	 1.696031e+00	 5.427611e+00
 4.565125e-01	 1.704636e+00	 5.209008e+00
 4.412955e-01	 1.647815e+00	 4.891387e+00
 4.113310e-01	 1.655549e+00	 4.677886e+00
 3.813824e-01	 1.662703e+00	 4.467917e+00
 3.514651e-01	 1.669283e+00	 4.267068e+00
 3.215942e-01	 1.675295e+00	 4.080196e+00
 2.917844e-01	 1.680743e+00	 3.911353e+00
 4.443389e-01	 1.659179e+00	 4.959777e+00
 4.141678e-01	 1.666966e+00	 4.743073e+00
 3.840126e-01	 1.674170e+00	 4.529258e+00
 3.538890e-01	 1.680796e+00	 4.324584e+00
 3.238121e-01	 1.686848e+00	 4.134512e+00
 2.937967e-01	 1.692334e+00	 3.963637e+00
 4.473823e-01	 1.670543e+00	 5.024863e+00
 4.170045e-01	 1.678384e+00	 4.807304e+00
 3.866428e-01	 1.685637e+00	 4.592806e+00
 3.563129e-01	 1.692308e+00	 4.387684e+00
 3.260300e-01	 1.698402e+00	 4.197396e+00
 2.958090e-01	 1.703925e+00	 4.026471e+00
 4.504257e-01	 1.681907e+00	 5.087515e+00
 4.198413e-01	 1.689801e+00	 4.871480e+00
 3.892731e-01	 1.697104e+00	 4.659428e+00
 3.587368e-01	 1.703820e+00	 4.457142e+00
 3.282478e-01	 1.709956e+00	 4.269486e+00
 2.978213e-01	 1.715517e+00	 4.100330e+00
 4.534691e-01	 1.693272e+00	 5.148605e+00
 4.226781e-01	 1.701219e+00	 4.936503e+00
 3.919033e-01	 1.708571e+00	 4.729986e+00
 3.611607e-01	 1.715333e+00	 4.533729e+00
 3.304657e-01	 1.721510e+00	 4.351418e+00
 2.998336e-01	 1.727108e+00	 4.185686e+00
 4.565125e-01	 1.704636e+00	 5.209008e+00
 4.255148e-01	 1.712637e+00	 5.003271e+00
 3.945335e-01	 1.720038e+00	 4.805338e+00
 3.635846e-01	 1.726845e+00	 4.618209e+00
 3.326836e-01	 1.733063e+00	 4.443822e+00
 3.018459e-01	 1.738699e+00	 4.283007e+00
 2.917844e-01	 1.680743e+00	 3.911353e+00
 2.620501e-01	 1.685635e+00	 3.759569e+00
 2.324052e-01	 1.689977e+00	 3.623560e+00
 2.028633e-01	 1.693777e+00	 3.505584e+00
 1.734374e-01	 1.697043e+00	 3.407006e+00
 1.441403e-01	 1.699782e+00	 3.328343e+00
 2.937967e-01	 1.692334e+00	 3.963637e+00
 2.638573e-01	 1.697260e+00	 3.811171e+00
 2.340080e-01	 1.701632e+00	 3.675607e+00
 2.042623e-01	 1.705458e+00	 3.559044e+00
 1.746335e-01	 1.708746e+00	 3.462630e+00
 1.451344e-01	 1.711504e+00	 3.386614e+00
 2.958090e-01	 1.703925e+00	 4.026471e+00
 2.656646e-01	 1.708885e+00	 3.873862e+00
 2.356108e-01	 1.713287e+00	 3.738068e+00
 2.056614e-01	 1.717140e+00	 3.621428e+00
 1.758297e-01	 1.720450e+00	 3.525266e+00
 1.461285e-01	 1.723227e+00	 3.449951e+00
 2.978213e-01	 1.715517e+00	 4.100330e+00
 2.674718e-01	 1.720510e+00	 3.947962e+00
 2.372136e-01	 1.724942e+00	 3.811142e+00
 2.070604e-01	 1.728821e+00	 3.692843e+00
 1.770258e-01	 1.732154e+00	 3.594950e+00
 1.471226e-01	 1.734950e+00	 3.518325e+00
 2.998336e-01	 1.727108e+00	 4.185686e+00
 2.692790e-01	 1.732135e+00	 4.033789e+00
 2.388164e-01	 1.736597e+00	 3.895029e+00
 2.084595e-01	 1.740502e+00	 3.773395e+00
 1.782219e-01	 1.743858e+00	 3.671715e+00
 1.481166e-01	 1.746672e+00	 3.591710e+00
 3.018459e-01	 1.738699e+00	 4.283007e+00
 2.710863e-01	 1.743760e+00	 4.131660e+00
 2.404192e-01	 1.748252e+00	 3.989927e+00
 2.098585e-01	 1.752183e+00	 3.863193e+00
 1.794180e-01	 1.755561e+00	 3.755596e+00
 1.491107e-01	 1.758395e+00	 3.670079e+00
 1.441403e-01	 1.699782e+00	 3.328343e+00
 1.149843e-01	 1.702003e+00	 3.268750e+00
 8.598113e-02	 1.703714e+00	 3.225940e+00
 5.714215e-02	 1.704925e+00	 3.197281e+00
 2.847829e-02	 1.705645e+00	 3.179705e+00
 0.000000e+00	 1.705882e+00	 3.169812e+00
 1.451344e-01	 1.711504e+00	 3.386614e+00
 1.157773e-01	 1.713741e+00	 3.329881e+00
 8.657411e-02	 1.715464e+00	 3.289848e+00
 5.753624e-02	 1.716683e+00	 3.263510e+00
 2.867470e-02	 1.717408e+00	 3.247385e+00
 0.000000e+00	 1.717647e+00	 3.237633e+00
 1.461285e-01	 1.723227e+00	 3.449951e+00
 1.165703e-01	 1.725479e+00	 3.394385e+00
 8.716708e-02	 1.727214e+00	 3.355727e+00
 5.793032e-02	 1.728441e+00	 3.330601e+00
 2.887110e-02	 1.729171e+00	 3.315115e+00
 0.000000e+00	 1.729412e+00	 3.304992e+00
 1.471226e-01	 1.734950e+00	 3.518325e+00
 1.173633e-01	 1.737217e+00	 3.462184e+00
 8.776005e-02	 1.738963e+00	 3.423476e+00
 5.832441e-02	 1.740199e+00	 3.398452e+00
 2.906750e-02	 1.740934e+00	 3.382815e+00
 0.000000e+00	 1.741176e+00	 3.371854e+00
 1.481166e-01	 1.746672e+00	 3.591710e+00
 1.181563e-01	 1.748955e+00	 3.533206e+00
 8.835303e-02	 1.750713e+00	 3.492997e+00
 5.871849e-02	 1.751957e+00	 3.466965e+00
 2.926390e-02	 1.752697e+00	 3.450408e+00
 0.000000e+00	 1.752941e+00	 3.438184e+00
 1.491107e-01	 1.758395e+00	 3.670079e+00
 1.189493e-01	 1.760692e+00	 3.607376e+00
 8.894600e-02	 1.762463e+00	 3.564193e+00
 5.911257e-02	 1.763716e+00	 3.536041e+00
 2.946030e-02	 1.764460e+00	 3.517815e+00
 0.000000e+00	 1.764706e+00	 3.503943e+00
 1.764706e+00	 0.000000e+00	 1.330438e+01
 1.764460e+00	 2.946030e-02	 1.329392e+01
 1.763716e+00	 5.911257e-02	 1.329229e+01
 1.762463e+00	 8.894600e-02	 1.329615e+01
 1.760692e+00	 1.189493e-01	 1.330299e+01
 1.758395e+00	 1.491107e-01	 1.331118e+01
 1.776471e+00	 0.000000e+00	 1.324211e+01
 1.776223e+00	 2.965671e-02	 1.323243e+01
 1.775474e+00	 5.950666e-02	 1.323173e+01
 1.774213e+00	 8.953897e-02	 1.323674e+01
 1.772430e+00	 1.197423e-01	 1.324492e+01
 1.770118e+00	 1.501048e-01	 1.325442e+01
 1.788235e+00	 0.000000e+00	 1.318120e+01
 1.787986e+00	 2.985311e-02	 1.317229e+01
 1.787232e+00	 5.990074e-02	 1.317241e+01
 1.785962e+00	 9.013195e-02	 1.317856e+01
 1.784168e+00	 1.205353e-01	 1.318840e+01
 1.781840e+00	 1.510988e-01	 1.320031e+01
 1.800000e+00	 0.000000e+00	 1.312133e+01
 1.799749e+00	 3.004951e-02	 1.311317e+01
 1.798990e+00	 6.029483e-02	 1.311399e+01
 1.797712e+00	 9.072492e-02	 1.312105e+01
 1.795906e+00	 1.213283e-01	 1.313224e+01
 1.793563e+00	 1.520929e-01	 1.314616e+01
 1.811765e+00	 0.000000e+00	 1.306218e+01
 1.811512e+00	 3.024591e-02	 1.305477e+01
 1.810748e+00	 6.068891e-02	 1.305621e+01
 1.809462e+00	 9.131789e-02	 1.306401e+01
 1.807644e+00	 1.221213e-01	 1.307635e+01
 1.805285e+00	 1.530870e-01	 1.309203e+01
 1.823529e+00	 0.000000e+00	 1.300345e+01
 1.823275e+00	 3.044231e-02	 1.299680e+01
 1.822506e+00	 6.108299e-02	 1.299880e+01
 1.821212e+00	 9.191087e-02	 1.300727e+01
 1.819382e+00	 1.229143e-01	 1.302063e+01
 1.817008e+00	 1.540811e-01	 1.303796e+01
 1.758395e+00	 1.491107e-01	 1.331118e+01
 1.755561e+00	 1.794180e-01	 1.331874e+01
 1.752183e+00	 2.098585e-01	 1.332491e+01
 1.748252e+00	 2.404192e-01	 1.333137e+01
 1.743760e+00	 2.710863e-01	 1.334078e+01
 1.738699e+00	 3.018459e-01	 1.335691e+01
 1.770118e+00	 1.501048e-01	 1.325442e+01
 1.767265e+00	 1.806141e-01	 1.326280e+01
 1.763865e+00	 2.112576e-01	 1.326877e+01
 1.759907e+00	 2.420220e-01	 1.327469e+01
 1.755385e+00	 2.728935e-01	 1.328367e+01
 1.750291e+00	 3.038582e-01	 1.329938e+01
 1.781840e+00	 1.510988e-01	 1.320031e+01
 1.778969e+00	 1.818103e-01	 1.321175e+01
 1.775546e+00	 2.126567e-01	 1.322124e+01
 1.771562e+00	 2.436247e-01	 1.322978e+01
 1.767010e+00	 2.747008e-01	 1.323916e+01
 1.761882e+00	 3.058705e-01	 1.325255e+01
 1.793563e+00	 1.520929e-01	 1.314616e+01
 1.790673e+00	 1.830064e-01	 1.316008e+01
 1.787227e+00	 2.140557e-01	 1.317224e+01
 1.783217e+00	 2.452275e-01	 1.318369e+01
 1.778635e+00	 2.765080e-01	 1.319614e+01
 1.773473e+00	 3.078828e-01	 1.321210e+01
 1.805285e+00	 1.530870e-01	 1.309203e+01
 1.802376e+00	 1.842025e-01	 1.310801e+01
 1.798908e+00	 2.154548e-01	 1.312214e+01
 1.794872e+00	 2.468303e-01	 1.313549e+01
 1.790260e+00	 2.783153e-01	 1.314975e+01
 1.785065e+00	 3.098951e-01	 1.316730e+01
 1.817008e+00	 1.540811e-01	 1.303796e+01
 1.814080e+00	 1.853986e-01	 1.305576e+01
 1.810589e+00	 2.168538e-01	 1.307132e+01
 1.806527e+00	 2.484331e-01	 1.308579e+01
 1.801885e+00	 2.801225e-01	 1.310083e+01
 1.796656e+00	 3.119074e-01	 1.311871e+01
 1.738699e+00	 3.018459e-01	 1.335691e+01
 1.733063e+00	 3.326836e-01	 1.337223e+01
 1.726845e+00	 3.635846e-01	 1.337967e+01
 1.720038e+00	 3.945335e-01	 1.338550e+01
 1.712637e+00	 4.255148e-01	 1.339751e+01
 1.704636e+00	 4.565125e-01	 1.342507e+01
 1.750291e+00	 3.038582e-01	 1.329938e+01
 1.744617e+00	 3.349015e-01	 1.331457e+01
 1.738357e+00	 3.660085e-01	 1.332225e+01
 1.731505e+00	 3.971637e-01	 1.332836e+01
 1.724054e+00	 4.283516e-01	 1.334036e+01
 1.716000e+00	 4.595560e-01	 1.336733e+01
 1.761882e+00	 3.058705e-01	 1.325255e+01
 1.756171e+00	 3.371194e-01	 1.326523e+01
 1.749869e+00	 3.684324e-01	 1.327101e+01
 1.742972e+00	 3.997939e-01	 1.327559e+01
 1.735472e+00	 4.311883e-01	 1.328620e+01
 1.727364e+00	 4.625994e-01	 1.331167e+01
 1.773473e+00	 3.078828e-01	 1.321210e+01
 1.767725e+00	 3.393373e-01	 1.322440e+01
 1.761382e+00	 3.708563e-01	 1.322676e+01
 1.754439e+00	 4.024242e-01	 1.322794e+01
 1.746889e+00	 4.340251e-01	 1.323556e+01
 1.738728e+00	 4.656428e-01	 1.325829e+01
 1.785065e+00	 3.098951e-01	 1.316730e+01
 1.779278e+00	 3.415552e-01	 1.318157e+01
 1.772894e+00	 3.732802e-01	 1.318634e+01
 1.765906e+00	 4.050544e-01	 1.318606e+01
 1.758307e+00	 4.368619e-01	 1.318899e+01
 1.750093e+00	 4.686862e-01	 1.320740e+01
 1.796656e+00	 3.119074e-01	 1.311871e+01
 1.790832e+00	 3.437731e-01	 1.313350e+01
 1.784406e+00	 3.757040e-01	 1.313974e+01
 1.777372e+00	 4.076846e-01	 1.314186e+01
 1.769724e+00	 4.396986e-01	 1.314569e+01
 1.761457e+00	 4.717296e-01	 1.315925e+01
 1.704636e+00	 4.565125e-01	 1.342507e+01
 1.696031e+00	 4.875104e-01	 1.344521e+01
 1.686817e+00	 5.184917e-01	 1.344022e+01
 1.676992e+00	 5.494395e-01	 1.343033e+01
 1.666552e+00	 5.803366e-01	 1.343817e+01
 1.655495e+00	 6.111655e-01	 1.346770e+01
 1.716000e+00	 4.595560e-01	 1.336733e+01
 1.707338e+00	 4.907604e-01	 1.338686e+01
 1.698063e+00	 5.219483e-01	 1.338194e+01
 1.688172e+00	 5.531024e-01	 1.337281e+01
 1.677663e+00	 5.842055e-01	 1.338212e+01
 1.666532e+00	 6.152400e-01	 1.340843e+01
 1.727364e+00	 4.625994e-01	 1.331167e+01
 1.718645e+00	 4.940105e-01	 1.333011e+01
 1.709308e+00	 5.254049e-01	 1.332497e+01
 1.699352e+00	 5.567653e-01	 1.331623e+01
 1.688773e+00	 5.880744e-01	 1.332637e+01
 1.677568e+00	 6.193144e-01	 1.334870e+01
 1.738728e+00	 4.656428e-01	 1.325829e+01
 1.729951e+00	 4.972606e-01	 1.327480e+01
 1.720554e+00	 5.288615e-01	 1.326886e+01
 1.710532e+00	 5.604282e-01	 1.326001e+01
 1.699883e+00	 5.919433e-01	 1.326996e+01
 1.688605e+00	 6.233888e-01	 1.328830e+01
 1.750093e+00	 4.686862e-01	 1.320740e+01
 1.741258e+00	 5.005107e-01	 1.322078e+01
 1.731799e+00	 5.323181e-01	 1.321324e+01
 1.721712e+00	 5.640912e-01	 1.320364e+01
 1.710994e+00	 5.958122e-01	 1.321214e+01
 1.699641e+00	 6.274633e-01	 1.322705e+01
 1.761457e+00	 4.717296e-01	 1.315925e+01
 1.752565e+00	 5.037607e-01	 1.316795e+01
 1.743045e+00	 5.357747e-01	 1.315779e+01
 1.732892e+00	 5.677541e-01	 1.314668e+01
 1.722104e+00	 5.996811e-01	 1.315272e+01
 1.710678e+00	 6.315377e-01	 1.316483e+01
 1.655495e+00	 6.111655e-01	 1.346770e+01
 1.643819e+00	 6.419086e-01	 1.349073e+01
 1.631523e+00	 6.725480e-01	 1.351453e+01
 1.618606e+00	 7.030656e-01	 1.353742e+01
 1.605069e+00	 7.334433e-01	 1.355580e+01
 1.590914e+00	 7.636626e-01	 1.356408e+01
 1.666532e+00	 6.152400e-01	 1.340843e+01
 1.654778e+00	 6.461880e-01	 1.342976e+01
 1.642399e+00	 6.770317e-01	 1.345318e+01
 1.629397e+00	 7.077527e-01	 1.347726e+01
 1.615770e+00	 7.383329e-01	 1.349865e+01
 1.601520e+00	 7.687537e-01	 1.351201e+01
 1.677568e+00	 6.193144e-01	 1.334870e+01
 1.665736e+00	 6.504674e-01	 1.336842e+01
 1.653276e+00	 6.815153e-01	 1.339133e+01
 1.640187e+00	 7.124398e-01	 1.341637e+01
 1.626470e+00	 7.432225e-01	 1.344049e+01
 1.612126e+00	 7.738448e-01	 1.345868e+01
 1.688605e+00	 6.233888e-01	 1.328830e+01
 1.676695e+00	 6.547468e-01	 1.330657e+01
 1.664153e+00	 6.859990e-01	 1.332892e+01
 1.650978e+00	 7.171269e-01	 1.335470e+01
 1.637171e+00	 7.481121e-01	 1.338128e+01
 1.622732e+00	 7.789359e-01	 1.340402e+01
 1.699641e+00	 6.274633e-01	 1.322705e+01
 1.687654e+00	 6.590262e-01	 1.324414e+01
 1.675030e+00	 6.904826e-01	 1.326593e+01
 1.661769e+00	 7.218140e-01	 1.329228e+01
 1.647871e+00	 7.530017e-01	 1.332104e+01
 1.633338e+00	 7.840270e-01	 1.334804e+01
 1.710678e+00	 6.315377e-01	 1.316483e+01
 1.698613e+00	 6.633056e-01	 1.318109e+01
 1.685907e+00	 6.949663e-01	 1.320238e+01
 1.672560e+00	 7.265011e-01	 1.322914e+01
 1.658572e+00	 7.578914e-01	 1.325980e+01
 1.643944e+00	 7.891180e-01	 1.329072e+01
 1.590914e+00	 7.636626e-01	 1.356408e+01
 1.576140e+00	 7.937054e-01	 1.357777e+01
 1.560752e+00	 8.235531e-01	 1.360770e+01
 1.544752e+00	 8.531873e-01	 1.363822e+01
 1.528143e+00	 8.825896e-01	 1.365163e+01
 1.510931e+00	 9.117418e-01	 1.362855e+01
 1.601520e+00	 7.687537e-01	 1.351201e+01
 1.586648e+00	 7.989967e-01	 1.353179e+01
 1.571157e+00	 8.290434e-01	 1.356760e+01
 1.555050e+00	 8.588752e-01	 1.360364e+01
 1.538331e+00	 8.884736e-01	 1.362198e+01
 1.521004e+00	 9.178200e-01	 1.360288e+01
 1.612126e+00	 7.738448e-01	 1.345868e+01
 1.597156e+00	 8.042881e-01	 1.348429e+01
 1.581562e+00	 8.345338e-01	 1.352568e+01
 1.565349e+00	 8.645631e-01	 1.356697e+01
 1.548519e+00	 8.943575e-01	 1.359007e+01
 1.531077e+00	 9.238983e-01	 1.357503e+01
 1.622732e+00	 7.789359e-01	 1.340402e+01
 1.607663e+00	 8.095795e-01	 1.343522e+01
 1.591967e+00	 8.400241e-01	 1.348193e+01
 1.575647e+00	 8.702510e-01	 1.352831e+01
 1.558706e+00	 9.002414e-01	 1.355623e+01
 1.541150e+00	 9.299766e-01	 1.354559e+01
 1.633338e+00	 7.840270e-01	 1.334804e+01
 1.618171e+00	 8.148708e-01	 1.338452e+01
 1.602372e+00	 8.455145e-01	 1.343637e+01
 1.585945e+00	 8.759389e-01	 1.348782e+01
 1.568894e+00	 9.061253e-01	 1.352078e+01
 1.551223e+00	 9.360549e-01	 1.351514e+01
 1.643944e+00	 7.891180e-01	 1.329072e+01
 1.628678e+00	 8.201622e-01	 1.333222e+01
 1.612777e+00	 8.510048e-01	 1.338904e+01
 1.596244e+00	 8.816268e-01	 1.344565e+01
 1.579082e+00	 9.120093e-01	 1.348407e+01
 1.561296e+00	 9.421332e-01	 1.348426e+01
 1.510931e+00	 9.117418e-01	 1.362855e+01
 1.493121e+00	 9.406255e-01	 1.358872e+01
 1.474718e+00	 9.692226e-01	 1.355423e+01
 1.455730e+00	 9.975153e-01	 1.350867e+01
 1.436164e+00	 1.025486e+00	 1.343676e+01
 1.416027e+00	 1.053116e+00	 1.332503e+01
 1.521004e+00	 9.178200e-01	 1.360288e+01
 1.503075e+00	 9.468963e-01	 1.356757e+01
 1.484550e+00	 9.756841e-01	 1.353983e+01
 1.465435e+00	 1.004165e+00	 1.350304e+01
 1.445738e+00	 1.032322e+00	 1.344172e+01
 1.425467e+00	 1.060137e+00	 1.334219e+01
 1.531077e+00	 9.238983e-01	 1.357503e+01
 1.513029e+00	 9.531671e-01	 1.354467e+01
 1.494381e+00	 9.821456e-01	 1.352436e+01
 1.475140e+00	 1.010815e+00	 1.349714e+01
 1.455312e+00	 1.039159e+00	 1.344713e+01
 1.434907e+00	 1.067158e+00	 1.336023e+01
 1.541150e+00	 9.299766e-01	 1.354559e+01
 1.522984e+00	 9.594380e-01	 1.352083e+01
 1.504213e+00	 9.886071e-01	 1.350877e+01
 1.484845e+00	 1.017466e+00	 1.349197e+01
 1.464887e+00	 1.045995e+00	 1.345394e+01
 1.444348e+00	 1.074179e+00	 1.337994e+01
 1.551223e+00	 9.360549e-01	 1.351514e+01
 1.532938e+00	 9.657088e-01	 1.349687e+01
 1.514044e+00	 9.950686e-01	 1.349402e+01
 1.494550e+00	 1.024116e+00	 1.348850e+01
 1.474461e+00	 1.052832e+00	 1.346307e+01
 1.453788e+00	 1.081200e+00	 1.340210e+01
 1.561296e+00	 9.421332e-01	 1.348426e+01
 1.542892e+00	 9.719797e-01	 1.347359e+01
 1.523876e+00	 1.001530e+00	 1.348106e+01
 1.504254e+00	 1.030766e+00	 1.348774e+01
 1.484036e+00	 1.059669e+00	 1.347545e+01
 1.463228e+00	 1.088220e+00	 1.342750e+01
 1.416027e+00	 1.053116e+00	 1.332503e+01
 1.395329e+00	 1.080390e+00	 1.319097e+01
 1.374080e+00	 1.107290e+00	 1.304648e+01
 1.352289e+00	 1.133799e+00	 1.287385e+01
 1.329968e+00	 1.159902e+00	 1.265917e+01
 1.307127e+00	 1.185583e+00	 1.240307e+01
 1.425467e+00	 1.060137e+00	 1.334219e+01
 1.404632e+00	 1.087593e+00	 1.321841e+01
 1.383240e+00	 1.114672e+00	 1.307771e+01
 1.361304e+00	 1.141358e+00	 1.290059e+01
 1.338834e+00	 1.167635e+00	 1.267126e+01
 1.315841e+00	 1.193486e+00	 1.241273e+01
 1.434907e+00	 1.067158e+00	 1.336023e+01
 1.413934e+00	 1.094795e+00	 1.324638e+01
 1.392401e+00	 1.122054e+00	 1.310812e+01
 1.370320e+00	 1.148917e+00	 1.292430e+01
 1.347700e+00	 1.175368e+00	 1.267746e+01
 1.324555e+00	 1.201390e+00	 1.242756e+01
 1.444348e+00	 1.074179e+00	 1.337994e+01
 1.423236e+00	 1.101998e+00	 1.327552e+01
 1.401561e+00	 1.129436e+00	 1.313831e+01
 1.379335e+00	 1.156475e+00	 1.294564e+01
 1.356567e+00	 1.183100e+00	 1.268357e+01
 1.333269e+00	 1.209294e+00	 1.244830e+01
 1.453788e+00	 1.081200e+00	 1.340210e+01
 1.432538e+00	 1.109201e+00	 1.330648e+01
 1.410722e+00	 1.136818e+00	 1.316888e+01
 1.388350e+00	 1.164034e+00	 1.296529e+01
 1.365433e+00	 1.190833e+00	 1.269869e+01
 1.341984e+00	 1.217198e+00	 1.247563e+01
 1.463228e+00	 1.088220e+00	 1.342750e+01
 1.441840e+00	 1.116403e+00	 1.333990e+01
 1.419883e+00	 1.144200e+00	 1.320045e+01
 1.397365e+00	 1.171593e+00	 1.298392e+01
 1.374300e+00	 1.198566e+00	 1.272336e+01
 1.350698e+00	 1.225102e+00	 1.251015e+01
 1.307127e+00	 1.185583e+00	 1.240307e+01
 1.283779e+00	 1.210825e+00	 1.214569e+01
 1.259938e+00	 1.235615e+00	 1.186112e+01
 1.235615e+00	 1.259938e+00	 1.156586e+01
 1.210825e+00	 1.283779e+00	 1.127655e+01
 1.185583e+00	 1.307127e+00	 1.100963e+01
 1.315841e+00	 1.193486e+00	 1.241273e+01
 1.292338e+00	 1.218897e+00	 1.216764e+01
 1.268337e+00	 1.243852e+00	 1.189034e+01
 1.243852e+00	 1.268337e+00	 1.159745e+01
 1.218897e+00	 1.292338e+00	 1.130576e+01
 1.193486e+00	 1.315841e+00	 1.103187e+01
 1.324555e+00	 1.201390e+00	 1.242756e+01
 1.300896e+00	 1.226969e+00	 1.219212e+01
 1.276737e+00	 1.252090e+00	 1.192007e+01
 1.252090e+00	 1.276737e+00	 1.162812e+01
 1.226969e+00	 1.300896e+00	 1.133316e+01
 1.201390e+00	 1.324555e+00	 1.105189e+01
 1.333269e+00	 1.209294e+00	 1.244830e+01
 1.309455e+00	 1.235042e+00	 1.222010e+01
 1.285136e+00	 1.260327e+00	 1.195148e+01
 1.260327e+00	 1.285136e+00	 1.165921e+01
 1.235042e+00	 1.309455e+00	 1.136024e+01
 1.209294e+00	 1.333269e+00	 1.107132e+01
 1.341984e+00	 1.217198e+00	 1.247563e+01
 1.318014e+00	 1.243114e+00	 1.225247e+01
 1.293536e+00	 1.268565e+00	 1.198568e+01
 1.268565e+00	 1.293536e+00	 1.169201e+01
 1.243114e+00	 1.318014e+00	 1.138843e+01
 1.217198e+00	 1.341984e+00	 1.109169e+01
 1.350698e+00	 1.225102e+00	 1.251015e+01
 1.326572e+00	 1.251186e+00	 1.229007e+01
 1.301936e+00	 1.276802e+00	 1.202367e+01
 1.276802e+00	 1.301936e+00	 1.172769e+01
 1.251186e+00	 1.326572e+00	 1.141905e+01
 1.225102e+00	 1.350698e+00	 1.111445e+01
 1.185583e+00	 1.307127e+00	 1.100963e+01
 1.159902e+00	 1.329968e+00	 1.073025e+01
 1.133799e+00	 1.352289e+00	 1.041300e+01
 1.107290e+00	 1.374080e+00	 1.008097e+01
 1.080390e+00	 1.395329e+00	 9.752832e+00
 1.053116e+00	 1.416027e+00	 9.443595e+00
 1.193486e+00	 1.315841e+00	 1.103187e+01
 1.167635e+00	 1.338834e+00	 1.074294e+01
 1.141358e+00	 1.361304e+00	 1.041767e+01
 1.114672e+00	 1.383240e+00	 1.008061e+01
 1.087593e+00	 1.404632e+00	 9.750748e+00
 1.060137e+00	 1.425467e+00	 9.443306e+00
 1.201390e+00	 1.324555e+00	 1.105189e+01
 1.175368e+00	 1.347700e+00	 1.075361e+01
 1.148917e+00	 1.370320e+00	 1.041998e+01
 1.122054e+00	 1.392401e+00	 1.007780e+01
 1.094795e+00	 1.413934e+00	 9.746165e+00
 1.067158e+00	 1.434907e+00	 9.440297e+00
 1.209294e+00	 1.333269e+00	 1.107132e+01
 1.183100e+00	 1.356567e+00	 1.076403e+01
 1.156475e+00	 1.379335e+00	 1.042186e+01
 1.129436e+00	 1.401561e+00	 1.007437e+01
 1.101998e+00	 1.423236e+00	 9.740801e+00
 1.074179e+00	 1.444348e+00	 9.436125e+00
 1.217198e+00	 1.341984e+00	 1.109169e+01
 1.190833e+00	 1.365433e+00	 1.077562e+01
 1.164034e+00	 1.388350e+00	 1.042519e+01
 1.136818e+00	 1.410722e+00	 1.007213e+01
 1.109201e+00	 1.432538e+00	 9.736328e+00
 1.081200e+00	 1.453788e+00	 9.432310e+00
 1.225102e+00	 1.350698e+00	 1.111445e+01
 1.198566e+00	 1.374300e+00	 1.078989e+01
 1.171593e+00	 1.397365e+00	 1.043176e+01
 1.144200e+00	 1.419883e+00	 1.007281e+01
 1.116403e+00	 1.441840e+00	 9.734371e+00
 1.088220e+00	 1.463228e+00	 9.430332e+00
 1.053116e+00	 1.416027e+00	 9.443595e+00
 1.025486e+00	 1.436164e+00	 9.170350e+00
 9.975153e-01	 1.455730e+00	 8.933406e+00
 9.692226e-01	 1.474718e+00	 8.718300e+00
 9.406255e-01	 1.493121e+00	 8.508603e+00
 9.117418e-01	 1.510931e+00	 8.286681e+00
 1.060137e+00	 1.425467e+00	 9.443306e+00
 1.032322e+00	 1.445738e+00	 9.172988e+00
 1.004165e+00	 1.465435e+00	 8.937933e+00
 9.756841e-01	 1.484550e+00	 8.724116e+00
 9.468963e-01	 1.503075e+00	 8.515551e+00
 9.178200e-01	 1.521004e+00	 8.295073e+00
 1.067158e+00	 1.434907e+00	 9.440297e+00
 1.039159e+00	 1.455312e+00	 9.172392e+00
 1.010815e+00	 1.475140e+00	 8.938551e+00
 9.821456e-01	 1.494381e+00	 8.725345e+00
 9.531671e-01	 1.513029e+00	 8.517402e+00
 9.238983e-01	 1.531077e+00	 8.298225e+00
 1.074179e+00	 1.444348e+00	 9.436125e+00
 1.045995e+00	 1.464887e+00	 9.169983e+00
 1.017466e+00	 1.484845e+00	 8.936620e+00
 9.886071e-01	 1.504213e+00	 8.723357e+00
 9.594380e-01	 1.522984e+00	 8.515609e+00
 9.299766e-01	 1.541150e+00	 8.297724e+00
 1.081200e+00	 1.453788e+00	 9.432310e+00
 1.052832e+00	 1.474461e+00	 9.167150e+00
 1.024116e+00	 1.494550e+00	 8.933476e+00
 9.950686e-01	 1.514044e+00	 8.719505e+00
 9.657088e-01	 1.532938e+00	 8.511602e+00
 9.360549e-01	 1.551223e+00	 8.295140e+00
 1.088220e+00	 1.463228e+00	 9.430332e+00
 1.059669e+00	 1.484036e+00	 9.165251e+00
 1.030766e+00	 1.504254e+00	 8.930426e+00
 1.001530e+00	 1.523876e+00	 8.715117e+00
 9.719797e-01	 1.542892e+00	 8.506791e+00
 9.421332e-01	 1.561296e+00	 8.292022e+00
 9.117418e-01	 1.510931e+00	 8.286681e+00
 8.825896e-01	 1.528143e+00	 8.068708e+00
 8.531873e-01	 1.544752e+00	 7.873678e+00
 8.235531e-01	 1.560752e+00	 7.688624e+00
 7.937054e-01	 1.576140e+00	 7.502188e+00
 7.636626e-01	 1.590914e+00	 7.305035e+00
 9.178200e-01	 1.521004e+00	 8.295073e+00
 8.884736e-01	 1.538331e+00	 8.080172e+00
 8.588752e-01	 1.555050e+00	 7.890279e+00
 8.290434e-01	 1.571157e+00	 7.711689e+00
 7.989967e-01	 1.586648e+00	 7.532396e+00
 7.687537e-01	 1.601520e+00	 7.342529e+00
 9.238983e-01	 1.531077e+00	 8.298225e+00
 8.943575e-01	 1.548519e+00	 8.086604e+00
 8.645631e-01	 1.565349e+00	 7.902194e+00
 8.345338e-01	 1.581562e+00	 7.730426e+00
 8.042881e-01	 1.597156e+00	 7.558520e+00
 7.738448e-01	 1.612126e+00	 7.375938e+00
 9.299766e-01	 1.541150e+00	 8.297724e+00
 9.002414e-01	 1.558706e+00	 8.089729e+00
 8.702510e-01	 1.575647e+00	 7.911217e+00
 8.400241e-01	 1.591967e+00	 7.746641e+00
 8.095795e-01	 1.607663e+00	 7.582317e+00
 7.789359e-01	 1.622732e+00	 7.406913e+00
 9.360549e-01	 1.551223e+00	 8.295140e+00
 9.061253e-01	 1.568894e+00	 8.091248e+00
 8.759389e-01	 1.585945e+00	 7.919127e+00
 8.455145e-01	 1.602372e+00	 7.762126e+00
 8.148708e-01	 1.618171e+00	 7.605537e+00
 7.840270e-01	 1.633338e+00	 7.437104e+00
 9.421332e-01	 1.561296e+00	 8.292022e+00
 9.120093e-01	 1.579082e+00	 8.092847e+00
 8.816268e-01	 1.596244e+00	 7.927684e+00
 8.510048e-01	 1.612777e+00	 7.778661e+00
 8.201622e-01	 1.628678e+00	 7.629919e+00
 7.891180e-01	 1.643944e+00	 7.468154e+00
 7.636626e-01	 1.590914e+00	 7.305035e+00
 7.334433e-01	 1.605069e+00	 7.107085e+00
 7.030656e-01	 1.618606e+00	 6.916838e+00
 6.725480e-01	 1.631523e+00	 6.726543e+00
 6.419086e-01	 1.643819e+00	 6.531129e+00
 6.111655e-01	 1.655495e+00	 6.328184e+00
 7.687537e-01	 1.601520e+00	 7.342529e+00
 7.383329e-01	 1.615770e+00	 7.151248e+00
 7.077527e-01	 1.629397e+00	 6.966407e+00
 6.770317e-01	 1.642399e+00	 6.780085e+00
 6.461880e-01	 1.654778e+00	 6.587182e+00
 6.152400e-01	 1.666532e+00	 6.385388e+00
 7.738448e-01	 1.612126e+00	 7.375938e+00
 7.432225e-01	 1.626470e+00	 7.191023e+00
 7.124398e-01	 1.640187e+00	 7.011228e+00
 6.815153e-01	 1.653276e+00	 6.828795e+00
 6.504674e-01	 1.665736e+00	 6.638947e+00
 6.193144e-01	 1.677568e+00	 6.439848e+00
 7.789359e-01	 1.622732e+00	 7.406913e+00
 7.481121e-01	 1.637171e+00	 7.227967e+00
 7.171269e-01	 1.650978e+00	 7.052838e+00
 6.859990e-01	 1.664153e+00	 6.874258e+00
 6.547468e-01	 1.676695e+00	 6.688116e+00
 6.233888e-01	 1.688605e+00	 6.493417e+00
 7.840270e-01	 1.633338e+00	 7.437104e+00
 7.530017e-01	 1.647871e+00	 7.263640e+00
 7.218140e-01	 1.661769e+00	 7.092777e+00
 6.904826e-01	 1.675030e+00	 6.918058e+00
 6.590262e-01	 1.687654e+00	 6.736378e+00
 6.274633e-01	 1.699641e+00	 6.547938e+00
 7.891180e-01	 1.643944e+00	 7.468154e+00
 7.578914e-01	 1.658572e+00	 7.299600e+00
 7.265011e-01	 1.672560e+00	 7.132586e+00
 6.949663e-01	 1.685907e+00	 6.961780e+00
 6.633056e-01	 1.698613e+00	 6.785419e+00
 6.315377e-01	 1.710678e+00	 6.605250e+00
 6.111655e-01	 1.655495e+00	 6.328184e+00
 5.803366e-01	 1.666552e+00	 6.118404e+00
 5.494395e-01	 1.676992e+00	 5.893677e+00
 5.184917e-01	 1.686817e+00	 5.659545e+00
 4.875104e-01	 1.696031e+00	 5.427611e+00
 4.565125e-01	 1.704636e+00	 5.209008e+00
 6.152400e-01	 1.666532e+00	 6.385388e+00
 5.842055e-01	 1.677663e+00	 6.175884e+00
 5.531024e-01	 1.688172e+00	 5.951972e+00
 5.219483e-01	 1.698063e+00	 5.717958e+00
 4.907604e-01	 1.707338e+00	 5.486606e+00
 4.595560e-01	 1.716000e+00	 5.270147e+00
 6.193144e-01	 1.677568e+00	 6.439848e+00
 5.880744e-01	 1.688773e+00	 6.233005e+00
 5.567653e-01	 1.699352e+00	 6.013001e+00
 5.254049e-01	 1.709308e+00	 5.781323e+00
 4.940105e-01	 1.718645e+00	 5.550673e+00
 4.625994e-01	 1.727364e+00	 5.333151e+00
 6.233888e-01	 1.688605e+00	 6.493417e+00
 5.919433e-01	 1.699883e+00	 6.291827e+00
 5.604282e-01	 1.710532e+00	 6.078540e+00
 5.288615e-01	 1.720554e+00	 5.851103e+00
 4.972606e-01	 1.729951e+00	 5.620825e+00
 4.656428e-01	 1.738728e+00	 5.398473e+00
 6.274633e-01	 1.699641e+00	 6.547938e+00
 5.958122e-01	 1.710994e+00	 6.354428e+00
 5.640912e-01	 1.721712e+00	 6.150356e+00
 5.323181e-01	 1.731799e+00	 5.928759e+00
 5.005107e-01	 1.741258e+00	 5.698081e+00
 4.686862e-01	 1.750093e+00	 5.466577e+00
 6.315377e-01	 1.710678e+00	 6.605250e+00
 5.996811e-01	 1.722104e+00	 6.422717e+00
 5.677541e-01	 1.732892e+00	 6.230212e+00
 5.357747e-01	 1.743045e+00	 6.015750e+00
 5.037607e-01	 1.752565e+00	 5.783464e+00
 4.717296e-01	 1.761457e+00	 5.537943e+00
 4.565125e-01	 1.704636e+00	 5.209008e+00
 4.255148e-01	 1.712637e+00	 5.003271e+00
 3.945335e-01	 1.720038e+00	 4.805338e+00
 3.635846e-01	 1.726845e+00	 4.618209e+00
 3.326836e-01	 1.733063e+00	 4.443822e+00
 3.018459e-01	 1.738699e+00	 4.283007e+00
 4.595560e-01	 1.716000e+00	 5.270147e+00
 4.283516e-01	 1.724054e+00	 5.068477e+00
 3.971637e-01	 1.731505e+00	 4.875377e+00
 3.660085e-01	 1.738357e+00	 4.692554e+00
 3.349015e-01	 1.744617e+00	 4.520583e+00
 3.038582e-01	 1.750291e+00	 4.358863e+00
 4.625994e-01	 1.727364e+00	 5.333151e+00
 4.311883e-01	 1.735472e+00	 5.128160e+00
 3.997939e-01	 1.742972e+00	 4.929151e+00
 3.684324e-01	 1.749869e+00	 4.737843e+00
 3.371194e-01	 1.756171e+00	 4.554749e+00
 3.058705e-01	 1.761882e+00	 4.379141e+00
 4.656428e-01	 1.738728e+00	 5.398473e+00
 4.340251e-01	 1.746889e+00	 5.182259e+00
 4.024242e-01	 1.754439e+00	 4.966269e+00
 3.708563e-01	 1.761382e+00	 4.753508e+00
 3.393373e-01	 1.767725e+00	 4.548971e+00
 3.078828e-01	 1.773473e+00	 4.371128e+00
 4.686862e-01	 1.750093e+00	 5.466577e+00
 4.368619e-01	 1.758307e+00	 5.230738e+00
 4.050544e-01	 1.765906e+00	 4.986864e+00
 3.732802e-01	 1.772894e+00	 4.762600e+00
 3.415552e-01	 1.779278e+00	 4.568757e+00
 3.098951e-01	 1.785065e+00	 4.400787e+00
 4.717296e-01	 1.761457e+00	 5.537943e+00
 4.396986e-01	 1.769724e+00	 5.282075e+00
 4.076846e-01	 1.777372e+00	 5.044431e+00
 3.757040e-01	 1.784406e+00	 4.830219e+00
 3.437731e-01	 1.790832e+00	 4.639380e+00
 3.119074e-01	 1.796656e+00	 4.470341e+00
 3.018459e-01	 1.738699e+00	 4.283007e+00
 2.710863e-01	 1.743760e+00	 4.131660e+00
 2.404192e-01	 1.748252e+00	 3.989927e+00
 2.098585e-01	 1.752183e+00	 3.863193e+00
 1.794180e-01	 1.755561e+00	 3.755596e+00
 1.491107e-01	 1.758395e+00	 3.670079e+00
 3.038582e-01	 1.750291e+00	 4.358863e+00
 2.728935e-01	 1.755385e+00	 4.202361e+00
 2.420220e-01	 1.759907e+00	 4.052323e+00
 2.112576e-01	 1.763865e+00	 3.915647e+00
 1.806141e-01	 1.767265e+00	 3.800329e+00
 1.501048e-01	 1.770118e+00	 3.714255e+00
 3.058705e-01	 1.761882e+00	 4.379141e+00
 2.747008e-01	 1.767010e+00	 4.208108e+00
 2.436247e-01	 1.771562e+00	 4.055663e+00
 2.126567e-01	 1.775546e+00	 3.927486e+00
 1.818103e-01	 1.778969e+00	 3.825490e+00
 1.510988e-01	 1.781840e+00	 3.750860e+00
 3.078828e-01	 1.773473e+00	 4.371128e+00
 2.765080e-01	 1.778635e+00	 4.213592e+00
 2.452275e-01	 1.783217e+00	 4.073921e+00
 2.140557e-01	 1.787227e+00	 3.955806e+00
 1.830064e-01	 1.790673e+00	 3.862044e+00
 1.520929e-01	 1.793563e+00	 3.794690e+00
 3.098951e-01	 1.785065e+00	 4.400787e+00
 2.783153e-01	 1.790260e+00	 4.250082e+00
 2.468303e-01	 1.794872e+00	 4.115203e+00
 2.154548e-01	 1.798908e+00	 4.000604e+00
 1.842025e-01	 1.802376e+00	 3.909835e+00
 1.530870e-01	 1.805285e+00	 3.845684e+00
 3.119074e-01	 1.796656e+00	 4.470341e+00
 2.801225e-01	 1.801885e+00	 4.317066e+00
 2.484331e-01	 1.806527e+00	 4.179130e+00
 2.168538e-01	 1.810589e+00	 4.061620e+00
 1.853986e-01	 1.814080e+00	 3.968707e+00
 1.540811e-01	 1.817008e+00	 3.903786e+00
 1.491107e-01	 1.758395e+00	 3.670079e+00
 1.189493e-01	 1.760692e+00	 3.607376e+00
 8.894600e-02	 1.762463e+00	 3.564193e+00
 5.911257e-02	 1.763716e+00	 3.536041e+00
 2.946030e-02	 1.764460e+00	 3.517815e+00
 0.000000e+00	 1.764706e+00	 3.503943e+00
 1.501048e-01	 1.770118e+00	 3.714255e+00
 1.197423e-01	 1.772430e+00	 3.655972e+00
 8.953897e-02	 1.774213e+00	 3.619325e+00
 5.950666e-02	 1.775474e+00	 3.597335e+00
 2.965671e-02	 1.776223e+00	 3.583052e+00
 0.000000e+00	 1.776471e+00	 3.569676e+00
 1.510988e-01	 1.781840e+00	 3.750860e+00
 1.205353e-01	 1.784168e+00	 3.702641e+00
 9.013195e-02	 1.785962e+00	 3.674460e+00
 5.990074e-02	 1.787232e+00	 3.658866e+00
 2.985311e-02	 1.787986e+00	 3.648444e+00
 0.000000e+00	 1.788235e+00	 3.635940e+00
 1.520929e-01	 1.793563e+00	 3.794690e+00
 1.213283e-01	 1.795906e+00	 3.753412e+00
 9.072492e-02	 1.797712e+00	 3.731534e+00
 6.029483e-02	 1.798990e+00	 3.721065e+00
 3.004951e-02	 1.799749e+00	 3.714057e+00
 0.000000e+00	 1.800000e+00	 3.702727e+00
 1.530870e-01	 1.805285e+00	 3.845684e+00
 1.221213e-01	 1.807644e+00	 3.808301e+00
 9.131789e-02	 1.809462e+00	 3.790603e+00
 6.068891e-02	 1.810748e+00	 3.783998e+00
 3.024591e-02	 1.811512e+00	 3.779934e+00
 0.000000e+00	 1.811765e+00	 3.770029e+00
 1.540811e-01	 1.817008e+00	 3.903786e+00
 1.229143e-01	 1.819382e+00	 3.867323e+00
 9.191087e-02	 1.821212e+00	 3.851724e+00
 6.108299e-02	 1.822506e+00	 3.847729e+00
 3.044231e-02	 1.823275e+00	 3.846118e+00
 0.000000e+00	 1.823529e+00	 3.837837e+00
 1.823529e+00	 0.000000e+00	 1.300345e+01
 1.823275e+00	 3.044231e-02	 1.299680e+01
 1.822506e+00	 6.108299e-02	 1.299880e+01
 1.821212e+00	 9.191087e-02	 1.300727e+01
 1.819382e+00	 1.229143e-01	 1.302063e+01
 1.817008e+00	 1.540811e-01	 1.303796e+01
 1.835294e+00	 0.000000e+00	 1.294502e+01
 1.835038e+00	 3.063872e-02	 1.293920e+01
 1.834264e+00	 6.147708e-02	 1.294187e+01
 1.832961e+00	 9.250384e-02	 1.295113e+01
 1.831120e+00	 1.237073e-01	 1.296571e+01
 1.828731e+00	 1.550751e-01	 1.298498e+01
 1.847059e+00	 0.000000e+00	 1.288663e+01
 1.846801e+00	 3.083512e-02	 1.288187e+01
 1.846022e+00	 6.187116e-02	 1.288545e+01
 1.844711e+00	 9.309681e-02	 1.289584e+01
 1.842858e+00	 1.245003e-01	 1.291212e+01
 1.840453e+00	 1.560692e-01	 1.293402e+01
 1.858824e+00	 0.000000e+00	 1.282778e+01
 1.858564e+00	 3.103152e-02	 1.282440e+01
 1.857780e+00	 6.226524e-02	 1.282924e+01
 1.856461e+00	 9.368979e-02	 1.284118e+01
 1.854596e+00	 1.252933e-01	 1.285973e+01
 1.852176e+00	 1.570633e-01	 1.288502e+01
 1.870588e+00	 0.000000e+00	 1.276800e+01
 1.870328e+00	 3.122792e-02	 1.276639e+01
 1.869538e+00	 6.265933e-02	 1.277291e+01
 1.868211e+00	 9.428276e-02	 1.278692e+01
 1.866334e+00	 1.260863e-01	 1.280839e+01
 1.863899e+00	 1.580573e-01	 1.283791e+01
 1.882353e+00	 0.000000e+00	 1.270681e+01
 1.882091e+00	 3.142432e-02	 1.270745e+01
 1.881297e+00	 6.305341e-02	 1.271617e+01
 1.879960e+00	 9.487573e-02	 1.273284e+01
 1.878072e+00	 1.268792e-01	 1.275796e+01
 1.875621e+00	 1.590514e-01	 1.279264e+01
 1.817008e+00	 1.540811e-01	 1.303796e+01
 1.814080e+00	 1.853986e-01	 1.305576e+01
 1.810589e+00	 2.168538e-01	 1.307132e+01
 1.806527e+00	 2.484331e-01	 1.308579e+01
 1.801885e+00	 2.801225e-01	 1.310083e+01
 1.796656e+00	 3.119074e-01	 1.311871e+01
 1.828731e+00	 1.550751e-01	 1.298498e+01
 1.825784e+00	 1.865947e-01	 1.300487e+01
 1.822271e+00	 2.182529e-01	 1.302198e+01
 1.818182e+00	 2.500359e-01	 1.303750e+01
 1.813510e+00	 2.819297e-01	 1.305308e+01
 1.808247e+00	 3.139198e-01	 1.307087e+01
 1.840453e+00	 1.560692e-01	 1.293402e+01
 1.837488e+00	 1.877909e-01	 1.295676e+01
 1.833952e+00	 2.196519e-01	 1.297606e+01
 1.829837e+00	 2.516387e-01	 1.299317e+01
 1.825136e+00	 2.837370e-01	 1.300969e+01
 1.819839e+00	 3.159321e-01	 1.302763e+01
 1.852176e+00	 1.570633e-01	 1.288502e+01
 1.849191e+00	 1.889870e-01	 1.291142e+01
 1.845633e+00	 2.210510e-01	 1.293362e+01
 1.841492e+00	 2.532415e-01	 1.295288e+01
 1.836761e+00	 2.855442e-01	 1.297073e+01
 1.831430e+00	 3.179444e-01	 1.298902e+01
 1.863899e+00	 1.580573e-01	 1.283791e+01
 1.860895e+00	 1.901831e-01	 1.286887e+01
 1.857314e+00	 2.224501e-01	 1.289470e+01
 1.853147e+00	 2.548443e-01	 1.291669e+01
 1.848386e+00	 2.873515e-01	 1.293627e+01
 1.843021e+00	 3.199567e-01	 1.295509e+01
 1.875621e+00	 1.590514e-01	 1.279264e+01
 1.872599e+00	 1.913792e-01	 1.282912e+01
 1.868995e+00	 2.238491e-01	 1.285937e+01
 1.864802e+00	 2.564471e-01	 1.288469e+01
 1.860011e+00	 2.891587e-01	 1.290638e+01
 1.854613e+00	 3.219690e-01	 1.292589e+01
 1.796656e+00	 3.119074e-01	 1.311871e+01
 1.790832e+00	 3.437731e-01	 1.313350e+01
 1.784406e+00	 3.757040e-01	 1.313974e+01
 1.777372e+00	 4.076846e-01	 1.314186e+01
 1.769724e+00	 4.396986e-01	 1.314569e+01
 1.761457e+00	 4.717296e-01	 1.315925e+01
 1.808247e+00	 3.139198e-01	 1.307087e+01
 1.802386e+00	 3.459910e-01	 1.308549e+01
 1.795919e+00	 3.781279e-01	 1.309215e+01
 1.788839e+00	 4.103148e-01	 1.309529e+01
 1.781142e+00	 4.425354e-01	 1.310059e+01
 1.772821e+00	 4.747731e-01	 1.311525e+01
 1.819839e+00	 3.159321e-01	 1.302763e+01
 1.813940e+00	 3.482089e-01	 1.304203e+01
 1.807431e+00	 3.805518e-01	 1.304867e+01
 1.800306e+00	 4.129451e-01	 1.305186e+01
 1.792560e+00	 4.453722e-01	 1.305709e+01
 1.784185e+00	 4.778165e-01	 1.307121e+01
 1.831430e+00	 3.179444e-01	 1.298902e+01
 1.825493e+00	 3.504268e-01	 1.300317e+01
 1.818943e+00	 3.829757e-01	 1.300943e+01
 1.811773e+00	 4.155753e-01	 1.301190e+01
 1.803977e+00	 4.482089e-01	 1.301579e+01
 1.795550e+00	 4.808599e-01	 1.302757e+01
 1.843021e+00	 3.199567e-01	 1.295509e+01
 1.837047e+00	 3.526446e-01	 1.296897e+01
 1.830456e+00	 3.853996e-01	 1.297458e+01
 1.823240e+00	 4.182055e-01	 1.297576e+01
 1.815395e+00	 4.510457e-01	 1.297734e+01
 1.806914e+00	 4.839033e-01	 1.298534e+01
 1.854613e+00	 3.219690e-01	 1.292589e+01
 1.848601e+00	 3.548625e-01	 1.293948e+01
 1.841968e+00	 3.878235e-01	 1.294428e+01
 1.834707e+00	 4.208357e-01	 1.294376e+01
 1.826812e+00	 4.538825e-01	 1.294232e+01
 1.818278e+00	 4.869467e-01	 1.294550e+01
 1.761457e+00	 4.717296e-01	 1.315925e+01
 1.752565e+00	 5.037607e-01	 1.316795e+01
 1.743045e+00	 5.357747e-01	 1.315779e+01
 1.732892e+00	 5.677541e-01	 1.314668e+01
 1.722104e+00	 5.996811e-01	 1.315272e+01
 1.710678e+00	 6.315377e-01	 1.316483e+01
 1.772821e+00	 4.747731e-01	 1.311525e+01
 1.763872e+00	 5.070108e-01	 1.312016e+01
 1.754290e+00	 5.392313e-01	 1.310515e+01
 1.744072e+00	 5.714170e-01	 1.309064e+01
 1.733214e+00	 6.035500e-01	 1.309253e+01
 1.721715e+00	 6.356121e-01	 1.310178e+01
 1.784185e+00	 4.778165e-01	 1.307121e+01
 1.775179e+00	 5.102609e-01	 1.307657e+01
 1.765536e+00	 5.426879e-01	 1.305902e+01
 1.755252e+00	 5.750800e-01	 1.303817e+01
 1.744325e+00	 6.074189e-01	 1.303335e+01
 1.732751e+00	 6.396866e-01	 1.303860e+01
 1.795550e+00	 4.808599e-01	 1.302757e+01
 1.786486e+00	 5.135109e-01	 1.303123e+01
 1.776781e+00	 5.461445e-01	 1.301397e+01
 1.766432e+00	 5.787429e-01	 1.299047e+01
 1.755435e+00	 6.112878e-01	 1.297651e+01
 1.743788e+00	 6.437610e-01	 1.297610e+01
 1.806914e+00	 4.839033e-01	 1.298534e+01
 1.797793e+00	 5.167610e-01	 1.298543e+01
 1.788027e+00	 5.496012e-01	 1.296632e+01
 1.777612e+00	 5.824058e-01	 1.294190e+01
 1.766545e+00	 6.151568e-01	 1.292319e+01
 1.754825e+00	 6.478354e-01	 1.291510e+01
 1.818278e+00	 4.869467e-01	 1.294550e+01
 1.809100e+00	 5.200111e-01	 1.294047e+01
 1.799272e+00	 5.530578e-01	 1.291749e+01
 1.788792e+00	 5.860688e-01	 1.288983e+01
 1.777656e+00	 6.190257e-01	 1.286811e+01
 1.765861e+00	 6.519099e-01	 1.285639e+01
 1.710678e+00	 6.315377e-01	 1.316483e+01
 1.698613e+00	 6.633056e-01	 1.318109e+01
 1.685907e+00	 6.949663e-01	 1.320238e+01
 1.672560e+00	 7.265011e-01	 1.322914e+01
 1.658572e+00	 7.578914e-01	 1.325980e+01
 1.643944e+00	 7.891180e-01	 1.329072e+01
 1.721715e+00	 6.356121e-01	 1.310178e+01
 1.709572e+00	 6.675850e-01	 1.311722e+01
 1.696784e+00	 6.994499e-01	 1.313796e+01
 1.683350e+00	 7.311882e-01	 1.316498e+01
 1.669272e+00	 7.627810e-01	 1.319726e+01
 1.654550e+00	 7.942091e-01	 1.323170e+01
 1.732751e+00	 6.396866e-01	 1.303860e+01
 1.720530e+00	 6.718644e-01	 1.305248e+01
 1.707660e+00	 7.039336e-01	 1.307220e+01
 1.694141e+00	 7.358753e-01	 1.309914e+01
 1.679973e+00	 7.676706e-01	 1.313273e+01
 1.665156e+00	 7.993002e-01	 1.317030e+01
 1.743788e+00	 6.437610e-01	 1.297610e+01
 1.731489e+00	 6.761438e-01	 1.298710e+01
 1.718537e+00	 7.084172e-01	 1.300493e+01
 1.704932e+00	 7.405624e-01	 1.303123e+01
 1.690673e+00	 7.725602e-01	 1.306574e+01
 1.675762e+00	 8.043913e-01	 1.310615e+01
 1.754825e+00	 6.478354e-01	 1.291510e+01
 1.742448e+00	 6.804231e-01	 1.292136e+01
 1.729414e+00	 7.129009e-01	 1.293603e+01
 1.715722e+00	 7.452496e-01	 1.296087e+01
 1.701374e+00	 7.774498e-01	 1.299584e+01
 1.686368e+00	 8.094824e-01	 1.303892e+01
 1.765861e+00	 6.519099e-01	 1.285639e+01
 1.753407e+00	 6.847025e-01	 1.285557e+01
 1.740291e+00	 7.173845e-01	 1.286543e+01
 1.726513e+00	 7.499367e-01	 1.288777e+01
 1.712074e+00	 7.823395e-01	 1.292266e+01
 1.696975e+00	 8.145735e-01	 1.296830e+01
 1.643944e+00	 7.891180e-01	 1.329072e+01
 1.628678e+00	 8.201622e-01	 1.333222e+01
 1.612777e+00	 8.510048e-01	 1.338904e+01
 1.596244e+00	 8.816268e-01	 1.344565e+01
 1.579082e+00	 9.120093e-01	 1.348407e+01
 1.561296e+00	 9.421332e-01	 1.348426e+01
 1.654550e+00	 7.942091e-01	 1.323170e+01
 1.639186e+00	 8.254536e-01	 1.327775e+01
 1.623182e+00	 8.564952e-01	 1.333922e+01
 1.606542e+00	 8.873148e-01	 1.340087e+01
 1.589269e+00	 9.178932e-01	 1.344502e+01
 1.571369e+00	 9.482114e-01	 1.345182e+01
 1.665156e+00	 7.993002e-01	 1.317030e+01
 1.649694e+00	 8.307449e-01	 1.322042e+01
 1.633587e+00	 8.619855e-01	 1.328608e+01
 1.616840e+00	 8.930027e-01	 1.335254e+01
 1.599457e+00	 9.237771e-01	 1.340256e+01
 1.581442e+00	 9.542897e-01	 1.341667e+01
 1.675762e+00	 8.043913e-01	 1.310615e+01
 1.660201e+00	 8.360363e-01	 1.316006e+01
 1.643992e+00	 8.674759e-01	 1.322965e+01
 1.627139e+00	 8.986906e-01	 1.330087e+01
 1.609644e+00	 9.296611e-01	 1.335708e+01
 1.591514e+00	 9.603680e-01	 1.337939e+01
 1.686368e+00	 8.094824e-01	 1.303892e+01
 1.670709e+00	 8.413277e-01	 1.309650e+01
 1.654397e+00	 8.729662e-01	 1.316994e+01
 1.637437e+00	 9.043785e-01	 1.324605e+01
 1.619832e+00	 9.355450e-01	 1.330897e+01
 1.601587e+00	 9.664463e-01	 1.334053e+01
 1.696975e+00	 8.145735e-01	 1.296830e+01
 1.681216e+00	 8.466191e-01	 1.302961e+01
 1.664802e+00	 8.784566e-01	 1.310699e+01
 1.647735e+00	 9.100664e-01	 1.318829e+01
 1.630020e+00	 9.414289e-01	 1.325861e+01
 1.611660e+00	 9.725246e-01	 1.330064e+01
 1.561296e+00	 9.421332e-01	 1.348426e+01
 1.542892e+00	 9.719797e-01	 1.347359e+01
 1.523876e+00	 1.001530e+00	 1.348106e+01
 1.504254e+00	 1.030766e+00	 1.348774e+01
 1.484036e+00	 1.059669e+00	 1.347545e+01
 1.463228e+00	 1.088220e+00	 1.342750e+01
 1.571369e+00	 9.482114e-01	 1.345182e+01
 1.552846e+00	 9.782505e-01	 1.344986e+01
 1.533707e+00	 1.007992e+00	 1.346865e+01
 1.513959e+00	 1.037416e+00	 1.348833e+01
 1.493610e+00	 1.066505e+00	 1.348956e+01
 1.472668e+00	 1.095241e+00	 1.345437e+01
 1.581442e+00	 9.542897e-01	 1.341667e+01
 1.562800e+00	 9.845213e-01	 1.342445e+01
 1.543539e+00	 1.014453e+00	 1.345551e+01
 1.523664e+00	 1.044066e+00	 1.348885e+01
 1.503185e+00	 1.073342e+00	 1.350382e+01
 1.482108e+00	 1.102262e+00	 1.348094e+01
 1.591514e+00	 9.603680e-01	 1.337939e+01
 1.572754e+00	 9.907922e-01	 1.339808e+01
 1.553370e+00	 1.020915e+00	 1.344244e+01
 1.533369e+00	 1.050716e+00	 1.349017e+01
 1.512759e+00	 1.080178e+00	 1.351909e+01
 1.491548e+00	 1.109283e+00	 1.350800e+01
 1.601587e+00	 9.664463e-01	 1.334053e+01
 1.582708e+00	 9.970630e-01	 1.337147e+01
 1.563201e+00	 1.027376e+00	 1.343026e+01
 1.543074e+00	 1.057366e+00	 1.349313e+01
 1.522333e+00	 1.087015e+00	 1.353620e+01
 1.500989e+00	 1.116303e+00	 1.353635e+01
 1.611660e+00	 9.725246e-01	 1.330064e+01
 1.592662e+00	 1.003334e+00	 1.334531e+01
 1.573033e+00	 1.033837e+00	 1.341974e+01
 1.552779e+00	 1.064016e+00	 1.349855e+01
 1.531908e+00	 1.093851e+00	 1.355597e+01
 1.510429e+00	 1.123324e+00	 1.356673e+01
 1.463228e+00	 1.088220e+00	 1.342750e+01
 1.441840e+00	 1.116403e+00	 1.333990e+01
 1.419883e+00	 1.144200e+00	 1.320045e+01
 1.397365e+00	 1.171593e+00	 1.298392e+01
 1.374300e+00	 1.198566e+00	 1.272336e+01
 1.350698e+00	 1.225102e+00	 1.251015e+01
 1.472668e+00	 1.095241e+00	 1.345437e+01
 1.451142e+00	 1.123606e+00	 1.337381e+01
 1.429043e+00	 1.151582e+00	 1.323095e+01
 1.406381e+00	 1.179151e+00	 1.300027e+01
 1.383166e+00	 1.206298e+00	 1.275525e+01
 1.359412e+00	 1.233006e+00	 1.254985e+01
 1.482108e+00	 1.102262e+00	 1.348094e+01
 1.460445e+00	 1.130808e+00	 1.340628e+01
 1.438204e+00	 1.158964e+00	 1.325841e+01
 1.415396e+00	 1.186710e+00	 1.302115e+01
 1.392033e+00	 1.214031e+00	 1.279214e+01
 1.368126e+00	 1.240910e+00	 1.259281e+01
 1.491548e+00	 1.109283e+00	 1.350800e+01
 1.469747e+00	 1.138011e+00	 1.343806e+01
 1.447364e+00	 1.166346e+00	 1.328362e+01
 1.424411e+00	 1.194269e+00	 1.304946e+01
 1.400899e+00	 1.221764e+00	 1.283449e+01
 1.376840e+00	 1.248814e+00	 1.263969e+01
 1.500989e+00	 1.116303e+00	 1.353635e+01
 1.479049e+00	 1.145214e+00	 1.346989e+01
 1.456525e+00	 1.173727e+00	 1.330736e+01
 1.433426e+00	 1.201827e+00	 1.308546e+01
 1.409766e+00	 1.229496e+00	 1.288267e+01
 1.385555e+00	 1.256718e+00	 1.269106e+01
 1.510429e+00	 1.123324e+00	 1.356673e+01
 1.488351e+00	 1.152416e+00	 1.350251e+01
 1.465685e+00	 1.181109e+00	 1.333243e+01
 1.442442e+00	 1.209386e+00	 1.312935e+01
 1.418632e+00	 1.237229e+00	 1.293702e+01
 1.394269e+00	 1.264621e+00	 1.274744e+01
 1.350698e+00	 1.225102e+00	 1.251015e+01
 1.326572e+00	 1.251186e+00	 1.229007e+01
 1.301936e+00	 1.276802e+00	 1.202367e+01
 1.276802e+00	 1.301936e+00	 1.172769e+01
 1.251186e+00	 1.326572e+00	 1.141905e+01
 1.225102e+00	 1.350698e+00	 1.111445e+01
 1.359412e+00	 1.233006e+00	 1.254985e+01
 1.335131e+00	 1.259258e+00	 1.233129e+01
 1.310335e+00	 1.285039e+00	 1.206427e+01
 1.285039e+00	 1.310335e+00	 1.176540e+01
 1.259258e+00	 1.335131e+00	 1.145145e+01
 1.233006e+00	 1.359412e+00	 1.113893e+01
 1.368126e+00	 1.240910e+00	 1.259281e+01
 1.343689e+00	 1.267330e+00	 1.237463e+01
 1.318735e+00	 1.293277e+00	 1.210635e+01
 1.293277e+00	 1.318735e+00	 1.180429e+01
 1.267330e+00	 1.343689e+00	 1.148488e+01
 1.240910e+00	 1.368126e+00	 1.116425e+01
 1.376840e+00	 1.248814e+00	 1.263969e+01
 1.352248e+00	 1.275402e+00	 1.242092e+01
 1.327134e+00	 1.301514e+00	 1.215087e+01
 1.301514e+00	 1.327134e+00	 1.184537e+01
 1.275402e+00	 1.352248e+00	 1.152036e+01
 1.248814e+00	 1.376840e+00	 1.119140e+01
 1.385555e+00	 1.256718e+00	 1.269106e+01
 1.360806e+00	 1.283475e+00	 1.247093e+01
 1.335534e+00	 1.309752e+00	 1.219871e+01
 1.309752e+00	 1.335534e+00	 1.188961e+01
 1.283475e+00	 1.360806e+00	 1.155888e+01
 1.256718e+00	 1.385555e+00	 1.122129e+01
 1.394269e+00	 1.264621e+00	 1.274744e+01
 1.369365e+00	 1.291547e+00	 1.252534e+01
 1.343933e+00	 1.317989e+00	 1.225068e+01
 1.317989e+00	 1.343933e+00	 1.193787e+01
 1.291547e+00	 1.369365e+00	 1.160130e+01
 1.264621e+00	 1.394269e+00	 1.125478e+01
 1.225102e+00	 1.350698e+00	 1.111445e+01
 1.198566e+00	 1.374300e+00	 1.078989e+01
 1.171593e+00	 1.397365e+00	 1.043176e+01
 1.144200e+00	 1.419883e+00	 1.007281e+01
 1.116403e+00	 1.441840e+00	 9.734371e+00
 1.088220e+00	 1.463228e+00	 9.430332e+00
 1.233006e+00	 1.359412e+00	 1.113893e+01
 1.206298e+00	 1.383166e+00	 1.080590e+01
 1.179151e+00	 1.406381e+00	 1.044039e+01
 1.151582e+00	 1.429043e+00	 1.007464e+01
 1.123606e+00	 1.451142e+00	 9.732644e+00
 1.095241e+00	 1.472668e+00	 9.427612e+00
 1.240910e+00	 1.368126e+00	 1.116425e+01
 1.214031e+00	 1.392033e+00	 1.082237e+01
 1.186710e+00	 1.415396e+00	 1.044910e+01
 1.158964e+00	 1.438204e+00	 1.007559e+01
 1.130808e+00	 1.460445e+00	 9.728700e+00
 1.102262e+00	 1.482108e+00	 9.421560e+00
 1.248814e+00	 1.376840e+00	 1.119140e+01
 1.221764e+00	 1.400899e+00	 1.084026e+01
 1.194269e+00	 1.424411e+00	 1.045876e+01
 1.166346e+00	 1.447364e+00	 1.007694e+01
 1.138011e+00	 1.469747e+00	 9.723840e+00
 1.109283e+00	 1.491548e+00	 9.413564e+00
 1.256718e+00	 1.385555e+00	 1.122129e+01
 1.229496e+00	 1.409766e+00	 1.086044e+01
 1.201827e+00	 1.433426e+00	 1.047023e+01
 1.173727e+00	 1.456525e+00	 1.007987e+01
 1.145214e+00	 1.479049e+00	 9.719316e+00
 1.116303e+00	 1.500989e+00	 9.404966e+00
 1.264621e+00	 1.394269e+00	 1.125478e+01
 1.237229e+00	 1.418632e+00	 1.088374e+01
 1.209386e+00	 1.442442e+00	 1.048435e+01
 1.181109e+00	 1.465685e+00	 1.008543e+01
 1.152416e+00	 1.488351e+00	 9.716329e+00
 1.123324e+00	 1.510429e+00	 9.397058e+00
 1.088220e+00	 1.463228e+00	 9.430332e+00
 1.059669e+00	 1.484036e+00	 9.165251e+00
 1.030766e+00	 1.504254e+00	 8.930426e+00
 1.001530e+00	 1.523876e+00	 8.715117e+00
 9.719797e-01	 1.542892e+00	 8.506791e+00
 9.421332e-01	 1.561296e+00	 8.292022e+00
 1.095241e+00	 1.472668e+00	 9.427612e+00
 1.066505e+00	 1.493610e+00	 9.161776e+00
 1.037416e+00	 1.513959e+00	 8.925303e+00
 1.007992e+00	 1.533707e+00	 8.708446e+00
 9.782505e-01	 1.552846e+00	 8.499729e+00
 9.482114e-01	 1.571369e+00	 8.286877e+00
 1.102262e+00	 1.482108e+00	 9.421560e+00
 1.073342e+00	 1.503185e+00	 9.154328e+00
 1.044066e+00	 1.523664e+00	 8.916091e+00
 1.014453e+00	 1.543539e+00	 8.697855e+00
 9.845213e-01	 1.562800e+00	 8.488950e+00
 9.542897e-01	 1.581442e+00	 8.277998e+00
 1.109283e+00	 1.491548e+00	 9.413564e+00
 1.080178e+00	 1.512759e+00	 9.144377e+00
 1.050716e+00	 1.533369e+00	 8.904277e+00
 1.020915e+00	 1.553370e+00	 8.684789e+00
 9.907922e-01	 1.572754e+00	 8.475805e+00
 9.603680e-01	 1.591514e+00	 8.266585e+00
 1.116303e+00	 1.500989e+00	 9.404966e+00
 1.087015e+00	 1.522333e+00	 9.133344e+00
 1.057366e+00	 1.543074e+00	 8.891307e+00
 1.027376e+00	 1.563201e+00	 8.670661e+00
 9.970630e-01	 1.582708e+00	 8.461616e+00
 9.664463e-01	 1.601587e+00	 8.253818e+00
 1.123324e+00	 1.510429e+00	 9.397058e+00
 1.093851e+00	 1.531908e+00	 9.122607e+00
 1.064016e+00	 1.552779e+00	 8.878583e+00
 1.033837e+00	 1.573033e+00	 8.656847e+00
 1.003334e+00	 1.592662e+00	 8.447678e+00
 9.725246e-01	 1.611660e+00	 8.240857e+00
 9.421332e-01	 1.561296e+00	 8.292022e+00
 9.120093e-01	 1.579082e+00	 8.092847e+00
 8.816268e-01	 1.596244e+00	 7.927684e+00
 8.510048e-01	 1.612777e+00	 7.778661e+00
 8.201622e-01	 1.628678e+00	 7.629919e+00
 7.891180e-01	 1.643944e+00	 7.468154e+00
 9.482114e-01	 1.571369e+00	 8.286877e+00
 9.178932e-01	 1.589269e+00	 8.092485e+00
 8.873148e-01	 1.606542e+00	 7.934005e+00
 8.564952e-01	 1.623182e+00	 7.792570e+00
 8.254536e-01	 1.639186e+00	 7.651414e+00
 7.942091e-01	 1.654550e+00	 7.496438e+00
 9.542897e-01	 1.581442e+00	 8.277998e+00
 9.237771e-01	 1.599457e+00	 8.087749e+00
 8.930027e-01	 1.616840e+00	 7.934819e+00
 8.619855e-01	 1.633587e+00	 7.799909e+00
 8.307449e-01	 1.649694e+00	 7.665941e+00
 7.993002e-01	 1.665156e+00	 7.518652e+00
 9.603680e-01	 1.591514e+00	 8.266585e+00
 9.296611e-01	 1.609644e+00	 8.079741e+00
 8.986906e-01	 1.627139e+00	 7.931283e+00
 8.674759e-01	 1.643992e+00	 7.802028e+00
 8.360363e-01	 1.660201e+00	 7.675173e+00
 8.043913e-01	 1.675762e+00	 7.536903e+00
 9.664463e-01	 1.601587e+00	 8.253818e+00
 9.355450e-01	 1.619832e+00	 8.069552e+00
 9.043785e-01	 1.637437e+00	 7.924546e+00
 8.729662e-01	 1.654397e+00	 7.800272e+00
 8.413277e-01	 1.670709e+00	 7.680771e+00
 8.094824e-01	 1.686368e+00	 7.553281e+00
 9.725246e-01	 1.611660e+00	 8.240857e+00
 9.414289e-01	 1.630020e+00	 8.058259e+00
 9.100664e-01	 1.647735e+00	 7.915748e+00
 8.784566e-01	 1.664802e+00	 7.795974e+00
 8.466191e-01	 1.681216e+00	 7.684382e+00
 8.145735e-01	 1.696975e+00	 7.569850e+00
 7.891180e-01	 1.643944e+00	 7.468154e+00
 7.578914e-01	 1.658572e+00	 7.299600e+00
 7.265011e-01	 1.672560e+00	 7.132586e+00
 6.949663e-01	 1.685907e+00	 6.961780e+00
 6.633056e-01	 1.698613e+00	 6.785419e+00
 6.315377e-01	 1.710678e+00	 6.605250e+00
 7.942091e-01	 1.654550e+00	 7.496438e+00
 7.627810e-01	 1.669272e+00	 7.333631e+00
 7.311882e-01	 1.683350e+00	 7.171756e+00
 6.994499e-01	 1.696784e+00	 7.005969e+00
 6.675850e-01	 1.709572e+00	 6.835202e+00
 6.356121e-01	 1.721715e+00	 6.662102e+00
 7.993002e-01	 1.665156e+00	 7.518652e+00
 7.676706e-01	 1.679973e+00	 7.364106e+00
 7.358753e-01	 1.694141e+00	 7.210365e+00
 7.039336e-01	 1.707660e+00	 7.051506e+00
 6.718644e-01	 1.720530e+00	 6.885562e+00
 6.396866e-01	 1.732751e+00	 6.714462e+00
 8.043913e-01	 1.675762e+00	 7.536903e+00
 7.725602e-01	 1.690673e+00	 7.393444e+00
 7.405624e-01	 1.704932e+00	 7.250814e+00
 7.084172e-01	 1.718537e+00	 7.100475e+00
 6.761438e-01	 1.731489e+00	 6.937997e+00
 6.437610e-01	 1.743788e+00	 6.763005e+00
 8.094824e-01	 1.686368e+00	 7.553281e+00
 7.774498e-01	 1.701374e+00	 7.424040e+00
 7.452496e-01	 1.715722e+00	 7.295480e+00
 7.129009e-01	 1.729414e+00	 7.154946e+00
 6.804231e-01	 1.742448e+00	 6.994007e+00
 6.478354e-01	 1.754825e+00	 6.808429e+00
 8.145735e-01	 1.696975e+00	 7.569850e+00
 7.823395e-01	 1.712074e+00	 7.458263e+00
 7.499367e-01	 1.726513e+00	 7.346719e+00
 7.173845e-01	 1.740291e+00	 7.216973e+00
 6.847025e-01	 1.753407e+00	 7.055090e+00
 6.519099e-01	 1.765861e+00	 6.851800e+00
 6.315377e-01	 1.710678e+00	 6.605250e+00
 5.996811e-01	 1.722104e+00	 6.422717e+00
 5.677541e-01	 1.732892e+00	 6.230212e+00
 5.357747e-01	 1.743045e+00	 6.015750e+00
 5.037607e-01	 1.752565e+00	 5.783464e+00
 4.717296e-01	 1.761457e+00	 5.537943e+00
 6.356121e-01	 1.721715e+00	 6.662102e+00
 6.035500e-01	 1.733214e+00	 6.486959e+00
 5.714170e-01	 1.744072e+00	 6.299673e+00
 5.392313e-01	 1.754290e+00	 6.084344e+00
 5.070108e-01	 1.763872e+00	 5.840966e+00
 4.747731e-01	 1.772821e+00	 5.592524e+00
 6.396866e-01	 1.732751e+00	 6.714462e+00
 6.074189e-01	 1.744325e+00	 6.536082e+00
 5.750800e-01	 1.755252e+00	 6.338777e+00
 5.426879e-01	 1.765536e+00	 6.105604e+00
 5.102609e-01	 1.775179e+00	 5.868309e+00
 4.778165e-01	 1.784185e+00	 5.647566e+00
 6.437610e-01	 1.743788e+00	 6.763005e+00
 6.112878e-01	 1.755435e+00	 6.570014e+00
 5.787429e-01	 1.766432e+00	 6.347899e+00
 5.461445e-01	 1.776781e+00	 6.122664e+00
 5.135109e-01	 1.786486e+00	 5.910563e+00
 4.808599e-01	 1.795550e+00	 5.705762e+00
 6.478354e-01	 1.754825e+00	 6.808429e+00
 6.151568e-01	 1.766545e+00	 6.589659e+00
 5.824058e-01	 1.777612e+00	 6.372342e+00
 5.496012e-01	 1.788027e+00	 6.167290e+00
 5.167610e-01	 1.797793e+00	 5.966692e+00
 4.839033e-01	 1.806914e+00	 5.766351e+00
 6.519099e-01	 1.765861e+00	 6.851800e+00
 6.190257e-01	 1.777656e+00	 6.638233e+00
 5.860688e-01	 1.788792e+00	 6.436799e+00
 5.530578e-01	 1.799272e+00	 6.237980e+00
 5.200111e-01	 1.809100e+00	 6.035461e+00
 4.869467e-01	 1.818278e+00	 5.828580e+00
 4.717296e-01	 1.761457e+00	 5.537943e+00
 4.396986e-01	 1.769724e+00	 5.282075e+00
 4.076846e-01	 1.777372e+00	 5.044431e+00
 3.757040e-01	 1.784406e+00	 4.830219e+00
 3.437731e-01	 1.790832e+00	 4.639380e+00
 3.119074e-01	 1.796656e+00	 4.470341e+00
 4.747731e-01	 1.772821e+00	 5.592524e+00
 4.425354e-01	 1.781142e+00	 5.358367e+00
 4.103148e-01	 1.788839e+00	 5.133400e+00
 3.781279e-01	 1.795919e+00	 4.922494e+00
 3.459910e-01	 1.802386e+00	 4.728743e+00
 3.139198e-01	 1.808247e+00	 4.553730e+00
 4.778165e-01	 1.784185e+00	 5.647566e+00
 4.453722e-01	 1.792560e+00	 5.429752e+00
 4.129451e-01	 1.800306e+00	 5.212286e+00
 3.805518e-01	 1.807431e+00	 5.002377e+00
 3.482089e-01	 1.813940e+00	 4.805461e+00
 3.159321e-01	 1.819839e+00	 4.625455e+00
 4.808599e-01	 1.795550e+00	 5.705762e+00
 4.482089e-01	 1.803977e+00	 5.495967e+00
 4.155753e-01	 1.811773e+00	 5.281162e+00
 3.829757e-01	 1.818943e+00	 5.070118e+00
 3.504268e-01	 1.825493e+00	 4.869815e+00
 3.179444e-01	 1.831430e+00	 4.685701e+00
 4.839033e-01	 1.806914e+00	 5.766351e+00
 4.510457e-01	 1.815395e+00	 5.556750e+00
 4.182055e-01	 1.823240e+00	 5.340097e+00
 3.853996e-01	 1.830456e+00	 5.125956e+00
 3.526446e-01	 1.837047e+00	 4.922076e+00
 3.199567e-01	 1.843021e+00	 4.734645e+00
 4.869467e-01	 1.818278e+00	 5.828580e+00
 4.538825e-01	 1.826812e+00	 5.611842e+00
 4.208357e-01	 1.834707e+00	 5.389153e+00
 3.878235e-01	 1.841968e+00	 5.170124e+00
 3.548625e-01	 1.848601e+00	 4.962508e+00
 3.219690e-01	 1.854613e+00	 4.772462e+00
 3.119074e-01	 1.796656e+00	 4.470341e+00
 2.801225e-01	 1.801885e+00	 4.317066e+00
 2.484331e-01	 1.806527e+00	 4.179130e+00
 2.168538e-01	 1.810589e+00	 4.061620e+00
 1.853986e-01	 1.814080e+00	 3.968707e+00
 1.540811e-01	 1.817008e+00	 3.903786e+00
 3.139198e-01	 1.808247e+00	 4.553730e+00
 2.819297e-01	 1.813510e+00	 4.394010e+00
 2.500359e-01	 1.818182e+00	 4.249980e+00
 2.182529e-01	 1.822271e+00	 4.127226e+00
 1.865947e-01	 1.825784e+00	 4.030409e+00
 1.550751e-01	 1.828731e+00	 3.963408e+00
 3.159321e-01	 1.819839e+00	 4.625455e+00
 2.837370e-01	 1.825136e+00	 4.460748e+00
 2.516387e-01	 1.829837e+00	 4.312253e+00
 2.196519e-01	 1.833952e+00	 4.185910e+00
 1.877909e-01	 1.837488e+00	 4.086745e+00
 1.560692e-01	 1.840453e+00	 4.019007e+00
 3.179444e-01	 1.831430e+00	 4.685701e+00
 2.855442e-01	 1.836761e+00	 4.517332e+00
 2.532415e-01	 1.841492e+00	 4.365914e+00
 2.210510e-01	 1.845633e+00	 4.237602e+00
 1.889870e-01	 1.849191e+00	 4.137660e+00
 1.570633e-01	 1.852176e+00	 4.070596e+00
 3.199567e-01	 1.843021e+00	 4.734645e+00
 2.873515e-01	 1.848386e+00	 4.563813e+00
 2.548443e-01	 1.853147e+00	 4.410930e+00
 2.224501e-01	 1.857314e+00	 4.282232e+00
 1.901831e-01	 1.860895e+00	 4.183099e+00
 1.580573e-01	 1.863899e+00	 4.118188e+00
 3.219690e-01	 1.854613e+00	 4.772462e+00
 2.891587e-01	 1.860011e+00	 4.600238e+00
 2.564471e-01	 1.864802e+00	 4.447268e+00
 2.238491e-01	 1.868995e+00	 4.319732e+00
 1.913792e-01	 1.872599e+00	 4.223009e+00
 1.590514e-01	 1.875621e+00	 4.161795e+00
 1.540811e-01	 1.817008e+00	 3.903786e+00
 1.229143e-01	 1.819382e+00	 3.867323e+00
 9.191087e-02	 1.821212e+00	 3.851724e+00
 6.108299e-02	 1.822506e+00	 3.847729e+00
 3.044231e-02	 1.823275e+00	 3.846118e+00
 0.000000e+00	 1.823529e+00	 3.837837e+00
 1.550751e-01	 1.828731e+00	 3.963408e+00
 1.237073e-01	 1.831120e+00	 3.926879e+00
 9.250384e-02	 1.832961e+00	 3.912765e+00
 6.147708e-02	 1.834264e+00	 3.911294e+00
 3.063872e-02	 1.835038e+00	 3.912712e+00
 0.000000e+00	 1.835294e+00	 3.907417e+00
 1.560692e-01	 1.840453e+00	 4.019007e+00
 1.245003e-01	 1.842858e+00	 3.983410e+00
 9.309681e-02	 1.844711e+00	 3.971624e+00
 6.187116e-02	 1.846022e+00	 3.973717e+00
 3.083512e-02	 1.846801e+00	 3.979742e+00
 0.000000e+00	 1.847059e+00	 3.979866e+00
 1.570633e-01	 1.852176e+00	 4.070596e+00
 1.252933e-01	 1.854596e+00	 4.037001e+00
 9.368979e-02	 1.856461e+00	 4.028396e+00
 6.226524e-02	 1.857780e+00	 4.035047e+00
 3.103152e-02	 1.858564e+00	 4.047142e+00
 0.000000e+00	 1.858824e+00	 4.054926e+00
 1.580573e-01	 1.863899e+00	 4.118188e+00
 1.260863e-01	 1.866334e+00	 4.087731e+00
 9.428276e-02	 1.868211e+00	 4.083177e+00
 6.265933e-02	 1.869538e+00	 4.095332e+00
 3.122792e-02	 1.870328e+00	 4.114847e+00
 0.000000e+00	 1.870588e+00	 4.132348e+00
 1.590514e-01	 1.875621e+00	 4.161795e+00
 1.268792e-01	 1.878072e+00	 4.135681e+00
 9.487573e-02	 1.879960e+00	 4.136060e+00
 6.305341e-02	 1.881297e+00	 4.154620e+00
 3.142432e-02	 1.882091e+00	 4.182793e+00
 0.000000e+00	 1.882353e+00	 4.211888e+00
 1.882353e+00	 0.000000e+00	 1.270681e+01
 1.882091e+00	 3.142432e-02	 1.270745e+01
 1.881297e+00	 6.305341e-02	 1.271617e+01
 1.879960e+00	 9.487573e-02	 1.273284e+01
 1.878072e+00	 1.268792e-01	 1.275796e+01
 1.875621e+00	 1.590514e-01	 1.279264e+01
 1.894118e+00	 0.000000e+00	 1.264384e+01
 1.893854e+00	 3.162073e-02	 1.264753e+01
 1.893055e+00	 6.344750e-02	 1.265904e+01
 1.891710e+00	 9.546871e-02	 1.267888e+01
 1.889810e+00	 1.276722e-01	 1.270820e+01
 1.887344e+00	 1.600455e-01	 1.274874e+01
 1.905882e+00	 0.000000e+00	 1.257755e+01
 1.905617e+00	 3.181713e-02	 1.258597e+01
 1.904813e+00	 6.384158e-02	 1.260135e+01
 1.903460e+00	 9.606168e-02	 1.262507e+01
 1.901548e+00	 1.284652e-01	 1.265912e+01
 1.899067e+00	 1.610396e-01	 1.270601e+01
 1.917647e+00	 0.000000e+00	 1.250580e+01
 1.917380e+00	 3.201353e-02	 1.252153e+01
 1.916571e+00	 6.423566e-02	 1.254255e+01
 1.915210e+00	 9.665465e-02	 1.257138e+01
 1.913286e+00	 1.292582e-01	 1.261099e+01
 1.910789e+00	 1.620336e-01	 1.266483e+01
 1.929412e+00	 0.000000e+00	 1.242653e+01
 1.929143e+00	 3.220993e-02	 1.245297e+01
 1.928329e+00	 6.462975e-02	 1.248212e+01
 1.926959e+00	 9.724763e-02	 1.251777e+01
 1.925024e+00	 1.300512e-01	 1.256408e+01
 1.922512e+00	 1.630277e-01	 1.262557e+01
 1.941176e+00	 0.000000e+00	 1.233769e+01
 1.940906e+00	 3.240633e-02	 1.237914e+01
 1.940087e+00	 6.502383e-02	 1.241955e+01
 1.938709e+00	 9.784060e-02	 1.246421e+01
 1.936762e+00	 1.308442e-01	 1.251865e+01
 1.934234e+00	 1.640218e-01	 1.258861e+01
 1.875621e+00	 1.590514e-01	 1.279264e+01
 1.872599e+00	 1.913792e-01	 1.282912e+01
 1.868995e+00	 2.238491e-01	 1.285937e+01
 1.864802e+00	 2.564471e-01	 1.288469e+01
 1.860011e+00	 2.891587e-01	 1.290638e+01
 1.854613e+00	 3.219690e-01	 1.292589e+01
 1.887344e+00	 1.600455e-01	 1.274874e+01
 1.884303e+00	 1.925753e-01	 1.279145e+01
 1.880677e+00	 2.252482e-01	 1.282670e+01
 1.876457e+00	 2.580499e-01	 1.285575e+01
 1.871636e+00	 2.909659e-01	 1.287980e+01
 1.866204e+00	 3.239813e-01	 1.290006e+01
 1.899067e+00	 1.610396e-01	 1.270601e+01
 1.896006e+00	 1.937715e-01	 1.275541e+01
 1.892358e+00	 2.266472e-01	 1.279598e+01
 1.888112e+00	 2.596527e-01	 1.282897e+01
 1.883261e+00	 2.927732e-01	 1.285548e+01
 1.877795e+00	 3.259936e-01	 1.287648e+01
 1.910789e+00	 1.620336e-01	 1.266483e+01
 1.907710e+00	 1.949676e-01	 1.272138e+01
 1.904039e+00	 2.280463e-01	 1.276760e+01
 1.899767e+00	 2.612555e-01	 1.280476e+01
 1.894886e+00	 2.945804e-01	 1.283383e+01
 1.889387e+00	 3.280059e-01	 1.285556e+01
 1.922512e+00	 1.630277e-01	 1.262557e+01
 1.919414e+00	 1.961637e-01	 1.268974e+01
 1.915720e+00	 2.294453e-01	 1.274197e+01
 1.911422e+00	 2.628583e-01	 1.278351e+01
 1.906511e+00	 2.963877e-01	 1.281526e+01
 1.900978e+00	 3.300182e-01	 1.283773e+01
 1.934234e+00	 1.640218e-01	 1.258861e+01
 1.931118e+00	 1.973598e-01	 1.266088e+01
 1.927402e+00	 2.308444e-01	 1.271947e+01
 1.923077e+00	 2.644611e-01	 1.276564e+01
 1.918136e+00	 2.981949e-01	 1.280019e+01
 1.912569e+00	 3.320305e-01	 1.282341e+01
 1.854613e+00	 3.219690e-01	 1.292589e+01
 1.848601e+00	 3.548625e-01	 1.293948e+01
 1.841968e+00	 3.878235e-01	 1.294428e+01
 1.834707e+00	 4.208357e-01	 1.294376e+01
 1.826812e+00	 4.538825e-01	 1.294232e+01
 1.818278e+00	 4.869467e-01	 1.294550e+01
 1.866204e+00	 3.239813e-01	 1.290006e+01
 1.860155e+00	 3.570804e-01	 1.291337e+01
 1.853480e+00	 3.902474e-01	 1.291740e+01
 1.846174e+00	 4.234660e-01	 1.291520e+01
 1.838230e+00	 4.567192e-01	 1.291069e+01
 1.829642e+00	 4.899901e-01	 1.290883e+01
 1.877795e+00	 3.259936e-01	 1.287648e+01
 1.871708e+00	 3.592983e-01	 1.288952e+01
 1.864992e+00	 3.926713e-01	 1.289295e+01
 1.857641e+00	 4.260962e-01	 1.288933e+01
 1.849647e+00	 4.595560e-01	 1.288205e+01
 1.841007e+00	 4.930336e-01	 1.287546e+01
 1.889387e+00	 3.280059e-01	 1.285556e+01
 1.883262e+00	 3.615162e-01	 1.286835e+01
 1.876505e+00	 3.950952e-01	 1.287129e+01
 1.869108e+00	 4.287264e-01	 1.286643e+01
 1.861065e+00	 4.623928e-01	 1.285658e+01
 1.852371e+00	 4.960770e-01	 1.284540e+01
 1.900978e+00	 3.300182e-01	 1.283773e+01
 1.894816e+00	 3.637341e-01	 1.285027e+01
 1.888017e+00	 3.975191e-01	 1.285278e+01
 1.880575e+00	 4.313566e-01	 1.284678e+01
 1.872483e+00	 4.652295e-01	 1.283443e+01
 1.863735e+00	 4.991204e-01	 1.281866e+01
 1.912569e+00	 3.320305e-01	 1.282341e+01
 1.906370e+00	 3.659520e-01	 1.283568e+01
 1.899529e+00	 3.999430e-01	 1.283778e+01
 1.892042e+00	 4.339868e-01	 1.283066e+01
 1.883900e+00	 4.680663e-01	 1.281577e+01
 1.875099e+00	 5.021638e-01	 1.279526e+01
 1.818278e+00	 4.869467e-01	 1.294550e+01
 1.809100e+00	 5.200111e-01	 1.294047e+01
 1.799272e+00	 5.530578e-01	 1.291749e+01
 1.788792e+00	 5.860688e-01	 1.288983e+01
 1.777656e+00	 6.190257e-01	 1.286811e+01
 1.765861e+00	 6.519099e-01	 1.285639e+01
 1.829642e+00	 4.899901e-01	 1.290883e+01
 1.820406e+00	 5.232611e-01	 1.289806e+01
 1.810517e+00	 5.565144e-01	 1.286994e+01
 1.799972e+00	 5.897317e-01	 1.283718e+01
 1.788766e+00	 6.228946e-01	 1.281078e+01
 1.776898e+00	 6.559843e-01	 1.279707e+01
 1.841007e+00	 4.930336e-01	 1.287546e+01
 1.831713e+00	 5.265112e-01	 1.285895e+01
 1.821763e+00	 5.599710e-01	 1.282509e+01
 1.811152e+00	 5.933946e-01	 1.278592e+01
 1.799876e+00	 6.267635e-01	 1.275364e+01
 1.787935e+00	 6.600588e-01	 1.273583e+01
 1.852371e+00	 4.960770e-01	 1.284540e+01
 1.843020e+00	 5.297613e-01	 1.282302e+01
 1.833008e+00	 5.634276e-01	 1.278281e+01
 1.822332e+00	 5.970575e-01	 1.273616e+01
 1.810987e+00	 6.306324e-01	 1.269693e+01
 1.798971e+00	 6.641332e-01	 1.267315e+01
 1.863735e+00	 4.991204e-01	 1.281866e+01
 1.854327e+00	 5.330113e-01	 1.279018e+01
 1.844254e+00	 5.668842e-01	 1.274299e+01
 1.833512e+00	 6.007205e-01	 1.268799e+01
 1.822097e+00	 6.345013e-01	 1.264086e+01
 1.810008e+00	 6.682076e-01	 1.260946e+01
 1.875099e+00	 5.021638e-01	 1.279526e+01
 1.865634e+00	 5.362614e-01	 1.276033e+01
 1.855499e+00	 5.703408e-01	 1.270551e+01
 1.844692e+00	 6.043834e-01	 1.264150e+01
 1.833207e+00	 6.383702e-01	 1.258563e+01
 1.821044e+00	 6.722821e-01	 1.254518e+01
 1.765861e+00	 6.519099e-01	 1.285639e+01
 1.753407e+00	 6.847025e-01	 1.285557e+01
 1.740291e+00	 7.173845e-01	 1.286543e+01
 1.726513e+00	 7.499367e-01	 1.288777e+01
 1.712074e+00	 7.823395e-01	 1.292266e+01
 1.696975e+00	 8.145735e-01	 1.296830e+01
 1.776898e+00	 6.559843e-01	 1.279707e+01
 1.764365e+00	 6.889819e-01	 1.279174e+01
 1.751168e+00	 7.218682e-01	 1.279426e+01
 1.737304e+00	 7.546238e-01	 1.281225e+01
 1.722775e+00	 7.872291e-01	 1.284589e+01
 1.707581e+00	 8.196646e-01	 1.289361e+01
 1.787935e+00	 6.600588e-01	 1.273583e+01
 1.775324e+00	 6.932613e-01	 1.272820e+01
 1.762044e+00	 7.263519e-01	 1.272444e+01
 1.748095e+00	 7.593109e-01	 1.273551e+01
 1.733475e+00	 7.921187e-01	 1.276596e+01
 1.718187e+00	 8.247556e-01	 1.281456e+01
 1.798971e+00	 6.641332e-01	 1.267315e+01
 1.786283e+00	 6.975407e-01	 1.266105e+01
 1.772921e+00	 7.308355e-01	 1.265475e+01
 1.758885e+00	 7.639980e-01	 1.265851e+01
 1.744175e+00	 7.970083e-01	 1.268357e+01
 1.728793e+00	 8.298467e-01	 1.273138e+01
 1.810008e+00	 6.682076e-01	 1.260946e+01
 1.797242e+00	 7.018201e-01	 1.259094e+01
 1.783798e+00	 7.353192e-01	 1.258054e+01
 1.769676e+00	 7.686851e-01	 1.258146e+01
 1.754876e+00	 8.018980e-01	 1.259941e+01
 1.739399e+00	 8.349378e-01	 1.264432e+01
 1.821044e+00	 6.722821e-01	 1.254518e+01
 1.808201e+00	 7.060995e-01	 1.251846e+01
 1.794675e+00	 7.398028e-01	 1.250223e+01
 1.780467e+00	 7.733722e-01	 1.249973e+01
 1.765576e+00	 8.067876e-01	 1.251415e+01
 1.750005e+00	 8.400289e-01	 1.255364e+01
 1.696975e+00	 8.145735e-01	 1.296830e+01
 1.681216e+00	 8.466191e-01	 1.302961e+01
 1.664802e+00	 8.784566e-01	 1.310699e+01
 1.647735e+00	 9.100664e-01	 1.318829e+01
 1.630020e+00	 9.414289e-01	 1.325861e+01
 1.611660e+00	 9.725246e-01	 1.330064e+01
 1.707581e+00	 8.196646e-01	 1.289361e+01
 1.691724e+00	 8.519104e-01	 1.295858e+01
 1.675207e+00	 8.839469e-01	 1.303997e+01
 1.658034e+00	 9.157543e-01	 1.312676e+01
 1.640207e+00	 9.473129e-01	 1.320511e+01
 1.621733e+00	 9.786028e-01	 1.325872e+01
 1.718187e+00	 8.247556e-01	 1.281456e+01
 1.702232e+00	 8.572018e-01	 1.288254e+01
 1.685612e+00	 8.894373e-01	 1.296771e+01
 1.668332e+00	 9.214423e-01	 1.306014e+01
 1.650395e+00	 9.531968e-01	 1.314711e+01
 1.631806e+00	 9.846811e-01	 1.321339e+01
 1.728793e+00	 8.298467e-01	 1.273138e+01
 1.712739e+00	 8.624932e-01	 1.280131e+01
 1.696017e+00	 8.949277e-01	 1.288976e+01
 1.678630e+00	 9.271302e-01	 1.298794e+01
 1.660583e+00	 9.590807e-01	 1.308427e+01
 1.641879e+00	 9.907594e-01	 1.316469e+01
 1.739399e+00	 8.349378e-01	 1.264432e+01
 1.723247e+00	 8.677845e-01	 1.271470e+01
 1.706422e+00	 9.004180e-01	 1.280571e+01
 1.688929e+00	 9.328181e-01	 1.290969e+01
 1.670770e+00	 9.649647e-01	 1.301627e+01
 1.651952e+00	 9.968377e-01	 1.311265e+01
 1.750005e+00	 8.400289e-01	 1.255364e+01
 1.733754e+00	 8.730759e-01	 1.262253e+01
 1.716827e+00	 9.059084e-01	 1.271513e+01
 1.699227e+00	 9.385060e-01	 1.282493e+01
 1.680958e+00	 9.708486e-01	 1.294280e+01
 1.662025e+00	 1.002916e+00	 1.305727e+01
 1.611660e+00	 9.725246e-01	 1.330064e+01
 1.592662e+00	 1.003334e+00	 1.334531e+01
 1.573033e+00	 1.033837e+00	 1.341974e+01
 1.552779e+00	 1.064016e+00	 1.349855e+01
 1.531908e+00	 1.093851e+00	 1.355597e+01
 1.510429e+00	 1.123324e+00	 1.356673e+01
 1.621733e+00	 9.786028e-01	 1.325872e+01
 1.602617e+00	 1.009605e+00	 1.331832e+01
 1.582864e+00	 1.040299e+00	 1.340925e+01
 1.562484e+00	 1.070666e+00	 1.350445e+01
 1.541482e+00	 1.100688e+00	 1.357617e+01
 1.519869e+00	 1.130345e+00	 1.359689e+01
 1.631806e+00	 9.846811e-01	 1.321339e+01
 1.612571e+00	 1.015876e+00	 1.328906e+01
 1.592696e+00	 1.046760e+00	 1.339717e+01
 1.572188e+00	 1.077317e+00	 1.350901e+01
 1.551057e+00	 1.107525e+00	 1.359485e+01
 1.529309e+00	 1.137366e+00	 1.362491e+01
 1.641879e+00	 9.907594e-01	 1.316469e+01
 1.622525e+00	 1.022146e+00	 1.325799e+01
 1.602527e+00	 1.053222e+00	 1.338427e+01
 1.581893e+00	 1.083967e+00	 1.351322e+01
 1.560631e+00	 1.114361e+00	 1.361315e+01
 1.538749e+00	 1.144387e+00	 1.365198e+01
 1.651952e+00	 9.968377e-01	 1.311265e+01
 1.632479e+00	 1.028417e+00	 1.322553e+01
 1.612359e+00	 1.059683e+00	 1.337129e+01
 1.591598e+00	 1.090617e+00	 1.351806e+01
 1.570206e+00	 1.121198e+00	 1.363218e+01
 1.548190e+00	 1.151407e+00	 1.367925e+01
 1.662025e+00	 1.002916e+00	 1.305727e+01
 1.642433e+00	 1.034688e+00	 1.319209e+01
 1.622190e+00	 1.066145e+00	 1.335893e+01
 1.601303e+00	 1.097267e+00	 1.352444e+01
 1.579780e+00	 1.128034e+00	 1.365300e+01
 1.557630e+00	 1.158428e+00	 1.370784e+01
 1.510429e+00	 1.123324e+00	 1.356673e+01
 1.488351e+00	 1.152416e+00	 1.350251e+01
 1.465685e+00	 1.181109e+00	 1.333243e+01
 1.442442e+00	 1.209386e+00	 1.312935e+01
 1.418632e+00	 1.237229e+00	 1.293702e+01
 1.394269e+00	 1.264621e+00	 1.274744e+01
 1.519869e+00	 1.130345e+00	 1.359689e+01
 1.497653e+00	 1.159619e+00	 1.353393e+01
 1.474846e+00	 1.188491e+00	 1.336461e+01
 1.451457e+00	 1.216945e+00	 1.317965e+01
 1.427498e+00	 1.244962e+00	 1.299672e+01
 1.402983e+00	 1.272525e+00	 1.280850e+01
 1.529309e+00	 1.137366e+00	 1.362491e+01
 1.506956e+00	 1.166821e+00	 1.356251e+01
 1.484006e+00	 1.195873e+00	 1.340280e+01
 1.460472e+00	 1.224503e+00	 1.323513e+01
 1.436365e+00	 1.252694e+00	 1.306105e+01
 1.411697e+00	 1.280429e+00	 1.287391e+01
 1.538749e+00	 1.144387e+00	 1.365198e+01
 1.516258e+00	 1.174024e+00	 1.358946e+01
 1.493167e+00	 1.203255e+00	 1.344746e+01
 1.469487e+00	 1.232062e+00	 1.329621e+01
 1.445231e+00	 1.260427e+00	 1.313043e+01
 1.420411e+00	 1.288333e+00	 1.294408e+01
 1.548190e+00	 1.151407e+00	 1.367925e+01
 1.525560e+00	 1.181227e+00	 1.361774e+01
 1.502327e+00	 1.210637e+00	 1.349900e+01
 1.478503e+00	 1.239621e+00	 1.336327e+01
 1.454098e+00	 1.268160e+00	 1.320522e+01
 1.429125e+00	 1.296237e+00	 1.301933e+01
 1.557630e+00	 1.158428e+00	 1.370784e+01
 1.534862e+00	 1.188429e+00	 1.365403e+01
 1.511488e+00	 1.218019e+00	 1.355774e+01
 1.487518e+00	 1.247179e+00	 1.343662e+01
 1.462964e+00	 1.275892e+00	 1.328571e+01
 1.437840e+00	 1.304141e+00	 1.309995e+01
 1.394269e+00	 1.264621e+00	 1.274744e+01
 1.369365e+00	 1.291547e+00	 1.252534e+01
 1.343933e+00	 1.317989e+00	 1.225068e+01
 1.317989e+00	 1.343933e+00	 1.193787e+01
 1.291547e+00	 1.369365e+00	 1.160130e+01
 1.264621e+00	 1.394269e+00	 1.125478e+01
 1.402983e+00	 1.272525e+00	 1.280850e+01
 1.377923e+00	 1.299619e+00	 1.258406e+01
 1.352333e+00	 1.326227e+00	 1.230662e+01
 1.326227e+00	 1.352333e+00	 1.198979e+01
 1.299619e+00	 1.377923e+00	 1.164703e+01
 1.272525e+00	 1.402983e+00	 1.129116e+01
 1.411697e+00	 1.280429e+00	 1.287391e+01
 1.386482e+00	 1.307691e+00	 1.264684e+01
 1.360733e+00	 1.334464e+00	 1.236619e+01
 1.334464e+00	 1.360733e+00	 1.204481e+01
 1.307691e+00	 1.386482e+00	 1.169535e+01
 1.280429e+00	 1.411697e+00	 1.132973e+01
 1.420411e+00	 1.288333e+00	 1.294408e+01
 1.395040e+00	 1.315763e+00	 1.271410e+01
 1.369132e+00	 1.342701e+00	 1.242982e+01
 1.342701e+00	 1.369132e+00	 1.210344e+01
 1.315763e+00	 1.395040e+00	 1.174688e+01
 1.288333e+00	 1.420411e+00	 1.137124e+01
 1.429125e+00	 1.296237e+00	 1.301933e+01
 1.403599e+00	 1.323835e+00	 1.278616e+01
 1.377532e+00	 1.350939e+00	 1.249789e+01
 1.350939e+00	 1.377532e+00	 1.216613e+01
 1.323835e+00	 1.403599e+00	 1.180215e+01
 1.296237e+00	 1.429125e+00	 1.141635e+01
 1.437840e+00	 1.304141e+00	 1.309995e+01
 1.412157e+00	 1.331908e+00	 1.286331e+01
 1.385931e+00	 1.359176e+00	 1.257072e+01
 1.359176e+00	 1.385931e+00	 1.223326e+01
 1.331908e+00	 1.412157e+00	 1.186166e+01
 1.304141e+00	 1.437840e+00	 1.146566e+01
 1.264621e+00	 1.394269e+00	 1.125478e+01
 1.237229e+00	 1.418632e+00	 1.088374e+01
 1.209386e+00	 1.442442e+00	 1.048435e+01
 1.181109e+00	 1.465685e+00	 1.008543e+01
 1.152416e+00	 1.488351e+00	 9.716329e+00
 1.123324e+00	 1.510429e+00	 9.397058e+00
 1.272525e+00	 1.402983e+00	 1.129116e+01
 1.244962e+00	 1.427498e+00	 1.090958e+01
 1.216945e+00	 1.451457e+00	 1.050088e+01
 1.188491e+00	 1.474846e+00	 1.009337e+01
 1.159619e+00	 1.497653e+00	 9.715283e+00
 1.130345e+00	 1.519869e+00	 9.389857e+00
 1.280429e+00	 1.411697e+00	 1.132973e+01
 1.252694e+00	 1.436365e+00	 1.093752e+01
 1.224503e+00	 1.460472e+00	 1.051967e+01
 1.195873e+00	 1.484006e+00	 1.010373e+01
 1.166821e+00	 1.506956e+00	 9.716417e+00
 1.137366e+00	 1.529309e+00	 9.382965e+00
 1.288333e+00	 1.420411e+00	 1.137124e+01
 1.260427e+00	 1.445231e+00	 1.096840e+01
 1.232062e+00	 1.469487e+00	 1.054158e+01
 1.203255e+00	 1.493167e+00	 1.011725e+01
 1.174024e+00	 1.516258e+00	 9.720600e+00
 1.144387e+00	 1.538749e+00	 9.376977e+00
 1.296237e+00	 1.429125e+00	 1.141635e+01
 1.268160e+00	 1.454098e+00	 1.100298e+01
 1.239621e+00	 1.478503e+00	 1.056736e+01
 1.210637e+00	 1.502327e+00	 1.013464e+01
 1.181227e+00	 1.525560e+00	 9.728499e+00
 1.151407e+00	 1.548190e+00	 9.372445e+00
 1.304141e+00	 1.437840e+00	 1.146566e+01
 1.275892e+00	 1.462964e+00	 1.104195e+01
 1.247179e+00	 1.487518e+00	 1.059772e+01
 1.218019e+00	 1.511488e+00	 1.015652e+01
 1.188429e+00	 1.534862e+00	 9.740257e+00
 1.158428e+00	 1.557630e+00	 9.369872e+00
 1.123324e+00	 1.510429e+00	 9.397058e+00
 1.093851e+00	 1.531908e+00	 9.122607e+00
 1.064016e+00	 1.552779e+00	 8.878583e+00
 1.033837e+00	 1.573033e+00	 8.656847e+00
 1.003334e+00	 1.592662e+00	 8.447678e+00
 9.725246e-01	 1.611660e+00	 8.240857e+00
 1.130345e+00	 1.519869e+00	 9.389857e+00
 1.100688e+00	 1.541482e+00	 9.111221e+00
 1.070666e+00	 1.562484e+00	 8.863877e+00
 1.040299e+00	 1.582864e+00	 8.639884e+00
 1.009605e+00	 1.602617e+00	 8.429761e+00
 9.786028e-01	 1.621733e+00	 8.223605e+00
 1.137366e+00	 1.529309e+00	 9.382965e+00
 1.107525e+00	 1.551057e+00	 9.097634e+00
 1.077317e+00	 1.572188e+00	 8.844323e+00
 1.046760e+00	 1.592696e+00	 8.615816e+00
 1.015876e+00	 1.612571e+00	 8.403436e+00
 9.846811e-01	 1.631806e+00	 8.198200e+00
 1.144387e+00	 1.538749e+00	 9.376977e+00
 1.114361e+00	 1.560631e+00	 9.082237e+00
 1.083967e+00	 1.581893e+00	 8.820314e+00
 1.053222e+00	 1.602527e+00	 8.585225e+00
 1.022146e+00	 1.622525e+00	 8.369648e+00
 9.907594e-01	 1.641879e+00	 8.166112e+00
 1.151407e+00	 1.548190e+00	 9.372445e+00
 1.121198e+00	 1.570206e+00	 9.065392e+00
 1.090617e+00	 1.591598e+00	 8.792216e+00
 1.059683e+00	 1.612359e+00	 8.548666e+00
 1.028417e+00	 1.632479e+00	 8.329312e+00
 9.968377e-01	 1.651952e+00	 8.128772e+00
 1.158428e+00	 1.557630e+00	 9.369872e+00
 1.128034e+00	 1.579780e+00	 9.047419e+00
 1.097267e+00	 1.601303e+00	 8.760363e+00
 1.066145e+00	 1.622190e+00	 8.506666e+00
 1.034688e+00	 1.642433e+00	 8.283314e+00
 1.002916e+00	 1.662025e+00	 8.087577e+00
 9.725246e-01	 1.611660e+00	 8.240857e+00
 9.414289e-01	 1.630020e+00	 8.058259e+00
 9.100664e-01	 1.647735e+00	 7.915748e+00
 8.784566e-01	 1.664802e+00	 7.795974e+00
 8.466191e-01	 1.681216e+00	 7.684382e+00
 8.145735e-01	 1.696975e+00	 7.569850e+00
 9.786028e-01	 1.621733e+00	 8.223605e+00
 9.473129e-01	 1.640207e+00	 8.043077e+00
 9.157543e-01	 1.658034e+00	 7.903999e+00
 8.839469e-01	 1.675207e+00	 7.789825e+00
 8.519104e-01	 1.691724e+00	 7.687024e+00
 8.196646e-01	 1.707581e+00	 7.585738e+00
 9.846811e-01	 1.631806e+00	 8.198200e+00
 9.531968e-01	 1.650395e+00	 8.021805e+00
 9.214423e-01	 1.668332e+00	 7.889045e+00
 8.894373e-01	 1.685612e+00	 7.782930e+00
 8.572018e-01	 1.702232e+00	 7.689662e+00
 8.247556e-01	 1.718187e+00	 7.599319e+00
 9.907594e-01	 1.641879e+00	 8.166112e+00
 9.590807e-01	 1.660583e+00	 7.996355e+00
 9.271302e-01	 1.678630e+00	 7.872946e+00
 8.949277e-01	 1.696017e+00	 7.777219e+00
 8.624932e-01	 1.712739e+00	 7.693840e+00
 8.298467e-01	 1.728793e+00	 7.611525e+00
 9.968377e-01	 1.651952e+00	 8.128772e+00
 9.649647e-01	 1.670770e+00	 7.968599e+00
 9.328181e-01	 1.688929e+00	 7.857720e+00
 9.004180e-01	 1.706422e+00	 7.774590e+00
 8.677845e-01	 1.723247e+00	 7.701088e+00
 8.349378e-01	 1.739399e+00	 7.623290e+00
 1.002916e+00	 1.662025e+00	 8.087577e+00
 9.708486e-01	 1.680958e+00	 7.940366e+00
 9.385060e-01	 1.699227e+00	 7.845348e+00
 9.059084e-01	 1.716827e+00	 7.776908e+00
 8.730759e-01	 1.733754e+00	 7.712916e+00
 8.400289e-01	 1.750005e+00	 7.635547e+00
 8.145735e-01	 1.696975e+00	 7.569850e+00
 7.823395e-01	 1.712074e+00	 7.458263e+00
 7.499367e-01	 1.726513e+00	 7.346719e+00
 7.173845e-01	 1.740291e+00	 7.216973e+00
 6.847025e-01	 1.753407e+00	 7.055090e+00
 6.519099e-01	 1.765861e+00	 6.851800e+00
 8.196646e-01	 1.707581e+00	 7.585738e+00
 7.872291e-01	 1.722775e+00	 7.490413e+00
 7.546238e-01	 1.737304e+00	 7.392042e+00
 7.218682e-01	 1.751168e+00	 7.266868e+00
 6.889819e-01	 1.764365e+00	 7.095552e+00
 6.559843e-01	 1.776898e+00	 6.901375e+00
 8.247556e-01	 1.718187e+00	 7.599319e+00
 7.921187e-01	 1.733475e+00	 7.513464e+00
 7.593109e-01	 1.748095e+00	 7.417460e+00
 7.263519e-01	 1.762044e+00	 7.283647e+00
 6.932613e-01	 1.775324e+00	 7.115751e+00
 6.600588e-01	 1.787935e+00	 6.952321e+00
 8.298467e-01	 1.728793e+00	 7.611525e+00
 7.970083e-01	 1.744175e+00	 7.527784e+00
 7.639980e-01	 1.758885e+00	 7.423085e+00
 7.308355e-01	 1.772921e+00	 7.282128e+00
 6.975407e-01	 1.786283e+00	 7.145297e+00
 6.641332e-01	 1.798971e+00	 7.003976e+00
 8.349378e-01	 1.739399e+00	 7.623290e+00
 8.018980e-01	 1.754876e+00	 7.533763e+00
 7.686851e-01	 1.769676e+00	 7.413915e+00
 7.353192e-01	 1.783798e+00	 7.296849e+00
 7.018201e-01	 1.797242e+00	 7.182977e+00
 6.682076e-01	 1.810008e+00	 7.055672e+00
 8.400289e-01	 1.750005e+00	 7.635547e+00
 8.067876e-01	 1.765576e+00	 7.531943e+00
 7.733722e-01	 1.780467e+00	 7.423749e+00
 7.398028e-01	 1.794675e+00	 7.327787e+00
 7.060995e-01	 1.808201e+00	 7.227555e+00
 6.722821e-01	 1.821044e+00	 7.106733e+00
 6.519099e-01	 1.765861e+00	 6.851800e+00
 6.190257e-01	 1.777656e+00	 6.638233e+00
 5.860688e-01	 1.788792e+00	 6.436799e+00
 5.530578e-01	 1.799272e+00	 6.237980e+00
 5.200111e-01	 1.809100e+00	 6.035461e+00
 4.869467e-01	 1.818278e+00	 5.828580e+00
 6.559843e-01	 1.776898e+00	 6.901375e+00
 6.228946e-01	 1.788766e+00	 6.710413e+00
 5.897317e-01	 1.799972e+00	 6.516769e+00
 5.565144e-01	 1.810517e+00	 6.317076e+00
 5.232611e-01	 1.820406e+00	 6.106920e+00
 4.899901e-01	 1.829642e+00	 5.889661e+00
 6.600588e-01	 1.787935e+00	 6.952321e+00
 6.267635e-01	 1.799876e+00	 6.777792e+00
 5.933946e-01	 1.811152e+00	 6.589126e+00
 5.599710e-01	 1.821763e+00	 6.388260e+00
 5.265112e-01	 1.831713e+00	 6.172294e+00
 4.930336e-01	 1.841007e+00	 5.947574e+00
 6.641332e-01	 1.798971e+00	 7.003976e+00
 6.306324e-01	 1.810987e+00	 6.840295e+00
 5.970575e-01	 1.822332e+00	 6.654227e+00
 5.634276e-01	 1.833008e+00	 6.452045e+00
 5.297613e-01	 1.843020e+00	 6.232113e+00
 4.960770e-01	 1.852371e+00	 6.002717e+00
 6.682076e-01	 1.810008e+00	 7.055672e+00
 6.345013e-01	 1.822097e+00	 6.897825e+00
 6.007205e-01	 1.833512e+00	 6.712361e+00
 5.668842e-01	 1.844254e+00	 6.508918e+00
 5.330113e-01	 1.854327e+00	 6.286884e+00
 4.991204e-01	 1.863735e+00	 6.055475e+00
 6.722821e-01	 1.821044e+00	 7.106733e+00
 6.383702e-01	 1.833207e+00	 6.950270e+00
 6.043834e-01	 1.844692e+00	 6.763791e+00
 5.703408e-01	 1.855499e+00	 6.559342e+00
 5.362614e-01	 1.865634e+00	 6.337094e+00
 5.021638e-01	 1.875099e+00	 6.106213e+00
 4.869467e-01	 1.818278e+00	 5.828580e+00
 4.538825e-01	 1.826812e+00	 5.611842e+00
 4.208357e-01	 1.834707e+00	 5.389153e+00
 3.878235e-01	 1.841968e+00	 5.170124e+00
 3.548625e-01	 1.848601e+00	 4.962508e+00
 3.219690e-01	 1.854613e+00	 4.772462e+00
 4.899901e-01	 1.829642e+00	 5.889661e+00
 4.567192e-01	 1.838230e+00	 5.663816e+00
 4.234660e-01	 1.846174e+00	 5.434363e+00
 3.902474e-01	 1.853480e+00	 5.210533e+00
 3.570804e-01	 1.860155e+00	 4.999657e+00
 3.239813e-01	 1.866204e+00	 4.807429e+00
 4.930336e-01	 1.841007e+00	 5.947574e+00
 4.595560e-01	 1.849647e+00	 5.715572e+00
 4.260962e-01	 1.857641e+00	 5.481776e+00
 3.926713e-01	 1.864992e+00	 5.254923e+00
 3.592983e-01	 1.871708e+00	 5.041818e+00
 3.259936e-01	 1.877795e+00	 4.847613e+00
 4.960770e-01	 1.852371e+00	 6.002717e+00
 4.623928e-01	 1.861065e+00	 5.767328e+00
 4.287264e-01	 1.869108e+00	 5.531462e+00
 3.950952e-01	 1.876505e+00	 5.303251e+00
 3.615162e-01	 1.883262e+00	 5.088880e+00
 3.280059e-01	 1.889387e+00	 4.892865e+00
 4.991204e-01	 1.863735e+00	 6.055475e+00
 4.652295e-01	 1.872483e+00	 5.819291e+00
 4.313566e-01	 1.880575e+00	 5.583485e+00
 3.975191e-01	 1.888017e+00	 5.355475e+00
 3.637341e-01	 1.894816e+00	 5.140728e+00
 3.300182e-01	 1.900978e+00	 4.943042e+00
 5.021638e-01	 1.875099e+00	 6.106213e+00
 4.680663e-01	 1.883900e+00	 5.871656e+00
 4.339868e-01	 1.892042e+00	 5.637903e+00
 3.999430e-01	 1.899529e+00	 5.411551e+00
 3.659520e-01	 1.906370e+00	 5.197250e+00
 3.320305e-01	 1.912569e+00	 4.997998e+00
 3.219690e-01	 1.854613e+00	 4.772462e+00
 2.891587e-01	 1.860011e+00	 4.600238e+00
 2.564471e-01	 1.864802e+00	 4.447268e+00
 2.238491e-01	 1.868995e+00	 4.319732e+00
 1.913792e-01	 1.872599e+00	 4.223009e+00
 1.590514e-01	 1.875621e+00	 4.161795e+00
 3.239813e-01	 1.866204e+00	 4.807429e+00
 2.909659e-01	 1.871636e+00	 4.634089e+00
 2.580499e-01	 1.876457e+00	 4.481278e+00
 2.252482e-01	 1.880677e+00	 4.355076e+00
 1.925753e-01	 1.884303e+00	 4.260817e+00
 1.600455e-01	 1.887344e+00	 4.203209e+00
 3.259936e-01	 1.877795e+00	 4.847613e+00
 2.927732e-01	 1.883261e+00	 4.672708e+00
 2.596527e-01	 1.888112e+00	 4.519215e+00
 2.266472e-01	 1.892358e+00	 4.393150e+00
 1.937715e-01	 1.896006e+00	 4.299844e+00
 1.610396e-01	 1.899067e+00	 4.244055e+00
 3.280059e-01	 1.889387e+00	 4.892865e+00
 2.945804e-01	 1.894886e+00	 4.715935e+00
 2.612555e-01	 1.899767e+00	 4.560901e+00
 2.280463e-01	 1.904039e+00	 4.433759e+00
 1.949676e-01	 1.907710e+00	 4.339876e+00
 1.620336e-01	 1.910789e+00	 4.284103e+00
 3.300182e-01	 1.900978e+00	 4.943042e+00
 2.963877e-01	 1.906511e+00	 4.763609e+00
 2.628583e-01	 1.911422e+00	 4.606163e+00
 2.294453e-01	 1.915720e+00	 4.476715e+00
 1.961637e-01	 1.919414e+00	 4.380710e+00
 1.630277e-01	 1.922512e+00	 4.323126e+00
 3.320305e-01	 1.912569e+00	 4.997998e+00
 2.981949e-01	 1.918136e+00	 4.815576e+00
 2.644611e-01	 1.923077e+00	 4.654833e+00
 2.308444e-01	 1.927402e+00	 4.521835e+00
 1.973598e-01	 1.931118e+00	 4.422142e+00
 1.640218e-01	 1.934234e+00	 4.360905e+00
 1.590514e-01	 1.875621e+00	 4.161795e+00
 1.268792e-01	 1.878072e+00	 4.135681e+00
 9.487573e-02	 1.879960e+00	 4.136060e+00
 6.305341e-02	 1.881297e+00	 4.154620e+00
 3.142432e-02	 1.882091e+00	 4.182793e+00
 0.000000e+00	 1.882353e+00	 4.211888e+00
 1.600455e-01	 1.887344e+00	 4.203209e+00
 1.276722e-01	 1.889810e+00	 4.181039e+00
 9.546871e-02	 1.891710e+00	 4.186133e+00
 6.344750e-02	 1.893055e+00	 4.211988e+00
 3.162073e-02	 1.893854e+00	 4.251722e+00
 0.000000e+00	 1.894118e+00	 4.298197e+00
 1.610396e-01	 1.899067e+00	 4.244055e+00
 1.284652e-01	 1.901548e+00	 4.223807e+00
 9.606168e-02	 1.903460e+00	 4.232377e+00
 6.384158e-02	 1.904813e+00	 4.266570e+00
 3.181713e-02	 1.905617e+00	 4.322657e+00
 0.000000e+00	 1.905882e+00	 4.396493e+00
 1.620336e-01	 1.910789e+00	 4.284103e+00
 1.292582e-01	 1.913286e+00	 4.263789e+00
 9.665465e-02	 1.915210e+00	 4.274725e+00
 6.423566e-02	 1.916571e+00	 4.318491e+00
 3.201353e-02	 1.917380e+00	 4.395956e+00
 0.000000e+00	 1.917647e+00	 4.507375e+00
 1.630277e-01	 1.922512e+00	 4.323126e+00
 1.300512e-01	 1.925024e+00	 4.300793e+00
 9.724763e-02	 1.926959e+00	 4.313110e+00
 6.462975e-02	 1.928329e+00	 4.367875e+00
 3.220993e-02	 1.929143e+00	 4.471970e+00
 0.000000e+00	 1.929412e+00	 4.631432e+00
 1.640218e-01	 1.934234e+00	 4.360905e+00
 1.308442e-01	 1.936762e+00	 4.334635e+00
 9.784060e-02	 1.938709e+00	 4.347468e+00
 6.502383e-02	 1.940087e+00	 4.414841e+00
 3.240633e-02	 1.940906e+00	 4.551039e+00
 0.000000e+00	 1.941176e+00	 4.769236e+00
 1.941176e+00	 0.000000e+00	 1.233769e+01
 1.940906e+00	 3.240633e-02	 1.237914e+01
 1.940087e+00	 6.502383e-02	 1.241955e+01
 1.938709e+00	 9.784060e-02	 1.246421e+01
 1.936762e+00	 1.308442e-01	 1.251865e+01
 1.934234e+00	 1.640218e-01	 1.258861e+01
 1.952941e+00	 0.000000e+00	 1.223985e+01
 1.952669e+00	 3.260274e-02	 1.230007e+01
 1.951845e+00	 6.541792e-02	 1.235455e+01
 1.950459e+00	 9.843357e-02	 1.241038e+01
 1.948500e+00	 1.316372e-01	 1.247457e+01
 1.945957e+00	 1.650158e-01	 1.255400e+01
 1.964706e+00	 0.000000e+00	 1.212832e+01
 1.964432e+00	 3.279914e-02	 1.221384e+01
 1.963603e+00	 6.581200e-02	 1.228718e+01
 1.962209e+00	 9.902655e-02	 1.235758e+01
 1.960238e+00	 1.324302e-01	 1.243359e+01
 1.957680e+00	 1.660099e-01	 1.252300e+01
 1.976471e+00	 0.000000e+00	 1.199346e+01
 1.976195e+00	 3.299554e-02	 1.211641e+01
 1.975361e+00	 6.620608e-02	 1.221739e+01
 1.973958e+00	 9.961952e-02	 1.230814e+01
 1.971976e+00	 1.332232e-01	 1.239880e+01
 1.969402e+00	 1.670040e-01	 1.249779e+01
 1.988235e+00	 0.000000e+00	 1.182582e+01
 1.987958e+00	 3.319194e-02	 1.200383e+01
 1.987120e+00	 6.660017e-02	 1.214515e+01
 1.985708e+00	 1.002125e-01	 1.226435e+01
 1.983713e+00	 1.340162e-01	 1.237322e+01
 1.981125e+00	 1.679981e-01	 1.248053e+01
 2.000000e+00	 0.000000e+00	 1.161618e+01
 1.999721e+00	 3.338834e-02	 1.187225e+01
 1.998878e+00	 6.699425e-02	 1.207042e+01
 1.997458e+00	 1.008055e-01	 1.222845e+01
 1.995451e+00	 1.348092e-01	 1.235979e+01
 1.992848e+00	 1.689921e-01	 1.247330e+01
 1.934234e+00	 1.640218e-01	 1.258861e+01
 1.931118e+00	 1.973598e-01	 1.266088e+01
 1.927402e+00	 2.308444e-01	 1.271947e+01
 1.923077e+00	 2.644611e-01	 1.276564e+01
 1.918136e+00	 2.981949e-01	 1.280019e+01
 1.912569e+00	 3.320305e-01	 1.282341e+01
 1.945957e+00	 1.650158e-01	 1.255400e+01
 1.942821e+00	 1.985559e-01	 1.263501e+01
 1.939083e+00	 2.322435e-01	 1.270053e+01
 1.934732e+00	 2.660639e-01	 1.275175e+01
 1.929761e+00	 3.000022e-01	 1.278930e+01
 1.924161e+00	 3.340428e-01	 1.281330e+01
 1.957680e+00	 1.660099e-01	 1.252300e+01
 1.954525e+00	 1.997521e-01	 1.261255e+01
 1.950764e+00	 2.336425e-01	 1.268514e+01
 1.946387e+00	 2.676667e-01	 1.274167e+01
 1.941386e+00	 3.018094e-01	 1.278257e+01
 1.935752e+00	 3.360551e-01	 1.280774e+01
 1.969402e+00	 1.670040e-01	 1.249779e+01
 1.966229e+00	 2.009482e-01	 1.259423e+01
 1.962445e+00	 2.350416e-01	 1.267304e+01
 1.958042e+00	 2.692695e-01	 1.273470e+01
 1.953011e+00	 3.036166e-01	 1.277933e+01
 1.947343e+00	 3.380674e-01	 1.280663e+01
 1.981125e+00	 1.679981e-01	 1.248053e+01
 1.977933e+00	 2.021443e-01	 1.258073e+01
 1.974126e+00	 2.364406e-01	 1.266399e+01
 1.969697e+00	 2.708723e-01	 1.273015e+01
 1.964636e+00	 3.054239e-01	 1.277892e+01
 1.958935e+00	 3.400797e-01	 1.280987e+01
 1.992848e+00	 1.689921e-01	 1.247330e+01
 1.989636e+00	 2.033404e-01	 1.257277e+01
 1.985808e+00	 2.378397e-01	 1.265777e+01
 1.981352e+00	 2.724750e-01	 1.272735e+01
 1.976261e+00	 3.072311e-01	 1.278073e+01
 1.970526e+00	 3.420920e-01	 1.281736e+01
 1.912569e+00	 3.320305e-01	 1.282341e+01
 1.906370e+00	 3.659520e-01	 1.283568e+01
 1.899529e+00	 3.999430e-01	 1.283778e+01
 1.892042e+00	 4.339868e-01	 1.283066e+01
 1.883900e+00	 4.680663e-01	 1.281577e+01
 1.875099e+00	 5.021638e-01	 1.279526e+01
 1.924161e+00	 3.340428e-01	 1.281330e+01
 1.917923e+00	 3.681699e-01	 1.282518e+01
 1.911042e+00	 4.023669e-01	 1.282669e+01
 1.903509e+00	 4.366171e-01	 1.281821e+01
 1.895318e+00	 4.709031e-01	 1.280048e+01
 1.886464e+00	 5.052072e-01	 1.277482e+01
 1.935752e+00	 3.360551e-01	 1.280774e+01
 1.929477e+00	 3.703878e-01	 1.281949e+01
 1.922554e+00	 4.047908e-01	 1.282033e+01
 1.914975e+00	 4.392473e-01	 1.281014e+01
 1.906735e+00	 4.737398e-01	 1.278900e+01
 1.897828e+00	 5.082506e-01	 1.275737e+01
 1.947343e+00	 3.380674e-01	 1.280663e+01
 1.941031e+00	 3.726057e-01	 1.281919e+01
 1.934066e+00	 4.072147e-01	 1.281967e+01
 1.926442e+00	 4.418775e-01	 1.280758e+01
 1.918153e+00	 4.765766e-01	 1.278234e+01
 1.909192e+00	 5.112941e-01	 1.274349e+01
 1.958935e+00	 3.400797e-01	 1.280987e+01
 1.952585e+00	 3.748236e-01	 1.282484e+01
 1.945579e+00	 4.096386e-01	 1.282570e+01
 1.937909e+00	 4.445077e-01	 1.281164e+01
 1.929571e+00	 4.794134e-01	 1.278147e+01
 1.920556e+00	 5.143375e-01	 1.273378e+01
 1.970526e+00	 3.420920e-01	 1.281736e+01
 1.964138e+00	 3.770414e-01	 1.283701e+01
 1.957091e+00	 4.120625e-01	 1.283936e+01
 1.949376e+00	 4.471380e-01	 1.282341e+01
 1.940988e+00	 4.822501e-01	 1.278735e+01
 1.931921e+00	 5.173809e-01	 1.272881e+01
 1.875099e+00	 5.021638e-01	 1.279526e+01
 1.865634e+00	 5.362614e-01	 1.276033e+01
 1.855499e+00	 5.703408e-01	 1.270551e+01
 1.844692e+00	 6.043834e-01	 1.264150e+01
 1.833207e+00	 6.383702e-01	 1.258563e+01
 1.821044e+00	 6.722821e-01	 1.254518e+01
 1.886464e+00	 5.052072e-01	 1.277482e+01
 1.876941e+00	 5.395115e-01	 1.273295e+01
 1.866745e+00	 5.737974e-01	 1.266987e+01
 1.855871e+00	 6.080463e-01	 1.259645e+01
 1.844318e+00	 6.422391e-01	 1.253131e+01
 1.832081e+00	 6.763565e-01	 1.248087e+01
 1.897828e+00	 5.082506e-01	 1.275737e+01
 1.888248e+00	 5.427615e-01	 1.270765e+01
 1.877990e+00	 5.772540e-01	 1.263552e+01
 1.867051e+00	 6.117093e-01	 1.255241e+01
 1.855428e+00	 6.461080e-01	 1.247765e+01
 1.843118e+00	 6.804309e-01	 1.241672e+01
 1.909192e+00	 5.112941e-01	 1.274349e+01
 1.899554e+00	 5.460116e-01	 1.268457e+01
 1.889236e+00	 5.807107e-01	 1.260230e+01
 1.878231e+00	 6.153722e-01	 1.250914e+01
 1.866538e+00	 6.499770e-01	 1.242439e+01
 1.854154e+00	 6.845054e-01	 1.235261e+01
 1.920556e+00	 5.143375e-01	 1.273378e+01
 1.910861e+00	 5.492617e-01	 1.266384e+01
 1.900481e+00	 5.841673e-01	 1.257006e+01
 1.889411e+00	 6.190351e-01	 1.246637e+01
 1.877649e+00	 6.538459e-01	 1.237124e+01
 1.865191e+00	 6.885798e-01	 1.228839e+01
 1.931921e+00	 5.173809e-01	 1.272881e+01
 1.922168e+00	 5.525118e-01	 1.264561e+01
 1.911726e+00	 5.876239e-01	 1.253865e+01
 1.900591e+00	 6.226980e-01	 1.242386e+01
 1.888759e+00	 6.577148e-01	 1.231790e+01
 1.876228e+00	 6.926543e-01	 1.222390e+01
 1.821044e+00	 6.722821e-01	 1.254518e+01
 1.808201e+00	 7.060995e-01	 1.251846e+01
 1.794675e+00	 7.398028e-01	 1.250223e+01
 1.780467e+00	 7.733722e-01	 1.249973e+01
 1.765576e+00	 8.067876e-01	 1.251415e+01
 1.750005e+00	 8.400289e-01	 1.255364e+01
 1.832081e+00	 6.763565e-01	 1.248087e+01
 1.819159e+00	 7.103789e-01	 1.244475e+01
 1.805552e+00	 7.442865e-01	 1.242137e+01
 1.791257e+00	 7.780593e-01	 1.241406e+01
 1.776277e+00	 8.116772e-01	 1.242611e+01
 1.760611e+00	 8.451200e-01	 1.246094e+01
 1.843118e+00	 6.804309e-01	 1.241672e+01
 1.830118e+00	 7.146583e-01	 1.237054e+01
 1.816429e+00	 7.487701e-01	 1.233914e+01
 1.802048e+00	 7.827464e-01	 1.232584e+01
 1.786977e+00	 8.165668e-01	 1.233394e+01
 1.771217e+00	 8.502111e-01	 1.236647e+01
 1.854154e+00	 6.845054e-01	 1.235261e+01
 1.841077e+00	 7.189377e-01	 1.229588e+01
 1.827305e+00	 7.532538e-01	 1.225560e+01
 1.812839e+00	 7.874335e-01	 1.223503e+01
 1.797678e+00	 8.214564e-01	 1.223739e+01
 1.781823e+00	 8.553021e-01	 1.226558e+01
 1.865191e+00	 6.885798e-01	 1.228839e+01
 1.852036e+00	 7.232171e-01	 1.222077e+01
 1.838182e+00	 7.577374e-01	 1.217079e+01
 1.823629e+00	 7.921206e-01	 1.214158e+01
 1.808378e+00	 8.263461e-01	 1.213618e+01
 1.792429e+00	 8.603932e-01	 1.215724e+01
 1.876228e+00	 6.926543e-01	 1.222390e+01
 1.862995e+00	 7.274964e-01	 1.214519e+01
 1.849059e+00	 7.622211e-01	 1.208472e+01
 1.834420e+00	 7.968077e-01	 1.204541e+01
 1.819079e+00	 8.312357e-01	 1.203002e+01
 1.803035e+00	 8.654843e-01	 1.204082e+01
 1.750005e+00	 8.400289e-01	 1.255364e+01
 1.733754e+00	 8.730759e-01	 1.262253e+01
 1.716827e+00	 9.059084e-01	 1.271513e+01
 1.699227e+00	 9.385060e-01	 1.282493e+01
 1.680958e+00	 9.708486e-01	 1.294280e+01
 1.662025e+00	 1.002916e+00	 1.305727e+01
 1.760611e+00	 8.451200e-01	 1.246094e+01
 1.744262e+00	 8.783673e-01	 1.252560e+01
 1.727232e+00	 9.113987e-01	 1.261797e+01
 1.709525e+00	 9.441939e-01	 1.273281e+01
 1.691145e+00	 9.767325e-01	 1.286238e+01
 1.672097e+00	 1.008994e+00	 1.299675e+01
 1.771217e+00	 8.502111e-01	 1.236647e+01
 1.754770e+00	 8.836586e-01	 1.242451e+01
 1.737637e+00	 9.168891e-01	 1.251403e+01
 1.719824e+00	 9.498818e-01	 1.263237e+01
 1.701333e+00	 9.826164e-01	 1.277348e+01
 1.682170e+00	 1.015073e+00	 1.292927e+01
 1.781823e+00	 8.553021e-01	 1.226558e+01
 1.765277e+00	 8.889500e-01	 1.231880e+01
 1.748042e+00	 9.223794e-01	 1.240269e+01
 1.730122e+00	 9.555697e-01	 1.252303e+01
 1.711521e+00	 9.885004e-01	 1.267573e+01
 1.692243e+00	 1.021151e+00	 1.285481e+01
 1.792429e+00	 8.603932e-01	 1.215724e+01
 1.775785e+00	 8.942414e-01	 1.220513e+01
 1.758447e+00	 9.278698e-01	 1.228335e+01
 1.740420e+00	 9.612577e-01	 1.240420e+01
 1.721708e+00	 9.943843e-01	 1.256870e+01
 1.702316e+00	 1.027229e+00	 1.277331e+01
 1.803035e+00	 8.654843e-01	 1.204082e+01
 1.786292e+00	 8.995327e-01	 1.208039e+01
 1.768852e+00	 9.333601e-01	 1.215506e+01
 1.750719e+00	 9.669456e-01	 1.227529e+01
 1.731896e+00	 1.000268e+00	 1.245197e+01
 1.712389e+00	 1.033307e+00	 1.268469e+01
 1.662025e+00	 1.002916e+00	 1.305727e+01
 1.642433e+00	 1.034688e+00	 1.319209e+01
 1.622190e+00	 1.066145e+00	 1.335893e+01
 1.601303e+00	 1.097267e+00	 1.352444e+01
 1.579780e+00	 1.128034e+00	 1.365300e+01
 1.557630e+00	 1.158428e+00	 1.370784e+01
 1.672097e+00	 1.008994e+00	 1.299675e+01
 1.652387e+00	 1.040959e+00	 1.315576e+01
 1.632022e+00	 1.072606e+00	 1.334534e+01
 1.611008e+00	 1.103917e+00	 1.353062e+01
 1.589354e+00	 1.134871e+00	 1.367404e+01
 1.567070e+00	 1.165449e+00	 1.373643e+01
 1.682170e+00	 1.015073e+00	 1.292927e+01
 1.662341e+00	 1.047230e+00	 1.311467e+01
 1.641853e+00	 1.079068e+00	 1.332867e+01
 1.620713e+00	 1.110567e+00	 1.353492e+01
 1.598929e+00	 1.141707e+00	 1.369388e+01
 1.576510e+00	 1.172470e+00	 1.376391e+01
 1.692243e+00	 1.021151e+00	 1.285481e+01
 1.672296e+00	 1.053501e+00	 1.306921e+01
 1.651685e+00	 1.085529e+00	 1.330966e+01
 1.630418e+00	 1.117217e+00	 1.353834e+01
 1.608503e+00	 1.148544e+00	 1.371370e+01
 1.585950e+00	 1.179490e+00	 1.379216e+01
 1.702316e+00	 1.027229e+00	 1.277331e+01
 1.682250e+00	 1.059771e+00	 1.301972e+01
 1.661516e+00	 1.091991e+00	 1.328898e+01
 1.640123e+00	 1.123867e+00	 1.354182e+01
 1.618078e+00	 1.155381e+00	 1.373464e+01
 1.595390e+00	 1.186511e+00	 1.382672e+01
 1.712389e+00	 1.033307e+00	 1.268469e+01
 1.692204e+00	 1.066042e+00	 1.296651e+01
 1.671348e+00	 1.098452e+00	 1.326726e+01
 1.649827e+00	 1.130517e+00	 1.354622e+01
 1.627652e+00	 1.162217e+00	 1.375775e+01
 1.604831e+00	 1.193532e+00	 1.386905e+01
 1.557630e+00	 1.158428e+00	 1.370784e+01
 1.534862e+00	 1.188429e+00	 1.365403e+01
 1.511488e+00	 1.218019e+00	 1.355774e+01
 1.487518e+00	 1.247179e+00	 1.343662e+01
 1.462964e+00	 1.275892e+00	 1.328571e+01
 1.437840e+00	 1.304141e+00	 1.309995e+01
 1.567070e+00	 1.165449e+00	 1.373643e+01
 1.544164e+00	 1.195632e+00	 1.369709e+01
 1.520648e+00	 1.225401e+00	 1.362233e+01
 1.496533e+00	 1.254738e+00	 1.351536e+01
 1.471831e+00	 1.283625e+00	 1.337146e+01
 1.446554e+00	 1.312045e+00	 1.318594e+01
 1.576510e+00	 1.172470e+00	 1.376391e+01
 1.553467e+00	 1.202834e+00	 1.374537e+01
 1.529809e+00	 1.232783e+00	 1.369166e+01
 1.505548e+00	 1.262297e+00	 1.359881e+01
 1.480697e+00	 1.291358e+00	 1.346224e+01
 1.455268e+00	 1.319949e+00	 1.327746e+01
 1.585950e+00	 1.179490e+00	 1.379216e+01
 1.562769e+00	 1.210037e+00	 1.379946e+01
 1.538969e+00	 1.240165e+00	 1.376630e+01
 1.514564e+00	 1.269855e+00	 1.368753e+01
 1.489564e+00	 1.299091e+00	 1.355855e+01
 1.463982e+00	 1.327852e+00	 1.337495e+01
 1.595390e+00	 1.186511e+00	 1.382672e+01
 1.572071e+00	 1.217240e+00	 1.385987e+01
 1.548130e+00	 1.247547e+00	 1.384676e+01
 1.523579e+00	 1.277414e+00	 1.378201e+01
 1.498430e+00	 1.306823e+00	 1.366085e+01
 1.472696e+00	 1.335756e+00	 1.347876e+01
 1.604831e+00	 1.193532e+00	 1.386905e+01
 1.581373e+00	 1.224442e+00	 1.392704e+01
 1.557291e+00	 1.254929e+00	 1.393352e+01
 1.532594e+00	 1.284973e+00	 1.388270e+01
 1.507297e+00	 1.314556e+00	 1.376950e+01
 1.481411e+00	 1.343660e+00	 1.358922e+01
 1.437840e+00	 1.304141e+00	 1.309995e+01
 1.412157e+00	 1.331908e+00	 1.286331e+01
 1.385931e+00	 1.359176e+00	 1.257072e+01
 1.359176e+00	 1.385931e+00	 1.223326e+01
 1.331908e+00	 1.412157e+00	 1.186166e+01
 1.304141e+00	 1.437840e+00	 1.146566e+01
 1.446554e+00	 1.312045e+00	 1.318594e+01
 1.420716e+00	 1.339980e+00	 1.294595e+01
 1.394331e+00	 1.367414e+00	 1.264900e+01
 1.367414e+00	 1.394331e+00	 1.230573e+01
 1.339980e+00	 1.420716e+00	 1.192634e+01
 1.312045e+00	 1.446554e+00	 1.152001e+01
 1.455268e+00	 1.319949e+00	 1.327746e+01
 1.429274e+00	 1.348052e+00	 1.303455e+01
 1.402731e+00	 1.375651e+00	 1.273346e+01
 1.375651e+00	 1.402731e+00	 1.238439e+01
 1.348052e+00	 1.429274e+00	 1.199704e+01
 1.319949e+00	 1.455268e+00	 1.158006e+01
 1.463982e+00	 1.327852e+00	 1.337495e+01
 1.437833e+00	 1.356124e+00	 1.312947e+01
 1.411130e+00	 1.383889e+00	 1.282440e+01
 1.383889e+00	 1.411130e+00	 1.246949e+01
 1.356124e+00	 1.437833e+00	 1.207400e+01
 1.327852e+00	 1.463982e+00	 1.164604e+01
 1.472696e+00	 1.335756e+00	 1.347876e+01
 1.446391e+00	 1.364196e+00	 1.323100e+01
 1.419530e+00	 1.392126e+00	 1.292204e+01
 1.392126e+00	 1.419530e+00	 1.256124e+01
 1.364196e+00	 1.446391e+00	 1.215739e+01
 1.335756e+00	 1.472696e+00	 1.171812e+01
 1.481411e+00	 1.343660e+00	 1.358922e+01
 1.454950e+00	 1.372268e+00	 1.333936e+01
 1.427929e+00	 1.400364e+00	 1.302657e+01
 1.400364e+00	 1.427929e+00	 1.265977e+01
 1.372268e+00	 1.454950e+00	 1.224735e+01
 1.343660e+00	 1.481411e+00	 1.179645e+01
 1.304141e+00	 1.437840e+00	 1.146566e+01
 1.275892e+00	 1.462964e+00	 1.104195e+01
 1.247179e+00	 1.487518e+00	 1.059772e+01
 1.218019e+00	 1.511488e+00	 1.015652e+01
 1.188429e+00	 1.534862e+00	 9.740257e+00
 1.158428e+00	 1.557630e+00	 9.369872e+00
 1.312045e+00	 1.446554e+00	 1.152001e+01
 1.283625e+00	 1.471831e+00	 1.108581e+01
 1.254738e+00	 1.496533e+00	 1.063264e+01
 1.225401e+00	 1.520648e+00	 1.018235e+01
 1.195632e+00	 1.544164e+00	 9.754927e+00
 1.165449e+00	 1.567070e+00	 9.368548e+00
 1.319949e+00	 1.455268e+00	 1.158006e+01
 1.291358e+00	 1.480697e+00	 1.113480e+01
 1.262297e+00	 1.505548e+00	 1.067184e+01
 1.232783e+00	 1.529809e+00	 1.021135e+01
 1.202834e+00	 1.553467e+00	 9.771439e+00
 1.172470e+00	 1.576510e+00	 9.367708e+00
 1.327852e+00	 1.463982e+00	 1.164604e+01
 1.299091e+00	 1.489564e+00	 1.118916e+01
 1.269855e+00	 1.514564e+00	 1.071556e+01
 1.240165e+00	 1.538969e+00	 1.024373e+01
 1.210037e+00	 1.562769e+00	 9.789946e+00
 1.179490e+00	 1.585950e+00	 9.367634e+00
 1.335756e+00	 1.472696e+00	 1.171812e+01
 1.306823e+00	 1.498430e+00	 1.124909e+01
 1.277414e+00	 1.523579e+00	 1.076396e+01
 1.247547e+00	 1.548130e+00	 1.027964e+01
 1.217240e+00	 1.572071e+00	 9.810547e+00
 1.186511e+00	 1.595390e+00	 9.368059e+00
 1.343660e+00	 1.481411e+00	 1.179645e+01
 1.314556e+00	 1.507297e+00	 1.131472e+01
 1.284973e+00	 1.532594e+00	 1.081719e+01
 1.254929e+00	 1.557291e+00	 1.031917e+01
 1.224442e+00	 1.581373e+00	 9.833292e+00
 1.193532e+00	 1.604831e+00	 9.368879e+00
 1.158428e+00	 1.557630e+00	 9.369872e+00
 1.128034e+00	 1.579780e+00	 9.047419e+00
 1.097267e+00	 1.601303e+00	 8.760363e+00
 1.066145e+00	 1.622190e+00	 8.506666e+00
 1.034688e+00	 1.642433e+00	 8.283314e+00
 1.002916e+00	 1.662025e+00	 8.087577e+00
 1.165449e+00	 1.567070e+00	 9.368548e+00
 1.134871e+00	 1.589354e+00	 9.028049e+00
 1.103917e+00	 1.611008e+00	 8.725242e+00
 1.072606e+00	 1.632022e+00	 8.460368e+00
 1.040959e+00	 1.652387e+00	 8.232921e+00
 1.008994e+00	 1.672097e+00	 8.042948e+00
 1.172470e+00	 1.576510e+00	 9.367708e+00
 1.141707e+00	 1.598929e+00	 9.007027e+00
 1.110567e+00	 1.620713e+00	 8.687331e+00
 1.079068e+00	 1.641853e+00	 8.410796e+00
 1.047230e+00	 1.662341e+00	 8.179099e+00
 1.015073e+00	 1.682170e+00	 7.994751e+00
 1.179490e+00	 1.585950e+00	 9.367634e+00
 1.148544e+00	 1.608503e+00	 8.984634e+00
 1.117217e+00	 1.630418e+00	 8.646896e+00
 1.085529e+00	 1.651685e+00	 8.358250e+00
 1.053501e+00	 1.672296e+00	 8.122230e+00
 1.021151e+00	 1.692243e+00	 7.943507e+00
 1.186511e+00	 1.595390e+00	 9.368059e+00
 1.155381e+00	 1.618078e+00	 8.961100e+00
 1.123867e+00	 1.640123e+00	 8.604162e+00
 1.091991e+00	 1.661516e+00	 8.302997e+00
 1.059771e+00	 1.682250e+00	 8.062671e+00
 1.027229e+00	 1.702316e+00	 7.889708e+00
 1.193532e+00	 1.604831e+00	 9.368879e+00
 1.162217e+00	 1.627652e+00	 8.936609e+00
 1.130517e+00	 1.649827e+00	 8.559313e+00
 1.098452e+00	 1.671348e+00	 8.245267e+00
 1.066042e+00	 1.692204e+00	 8.000745e+00
 1.033307e+00	 1.712389e+00	 7.833824e+00
 1.002916e+00	 1.662025e+00	 8.087577e+00
 9.708486e-01	 1.680958e+00	 7.940366e+00
 9.385060e-01	 1.699227e+00	 7.845348e+00
 9.059084e-01	 1.716827e+00	 7.776908e+00
 8.730759e-01	 1.733754e+00	 7.712916e+00
 8.400289e-01	 1.750005e+00	 7.635547e+00
 1.008994e+00	 1.672097e+00	 8.042948e+00
 9.767325e-01	 1.691145e+00	 7.909818e+00
 9.441939e-01	 1.709525e+00	 7.830665e+00
 9.113987e-01	 1.727232e+00	 7.775366e+00
 8.783673e-01	 1.744262e+00	 7.717317e+00
 8.451200e-01	 1.760611e+00	 7.634322e+00
 1.015073e+00	 1.682170e+00	 7.994751e+00
 9.826164e-01	 1.701333e+00	 7.874377e+00
 9.498818e-01	 1.719824e+00	 7.807754e+00
 9.168891e-01	 1.737637e+00	 7.760537e+00
 8.836586e-01	 1.754770e+00	 7.701941e+00
 8.502111e-01	 1.771217e+00	 7.612045e+00
 1.021151e+00	 1.692243e+00	 7.943507e+00
 9.885004e-01	 1.711521e+00	 7.834715e+00
 9.555697e-01	 1.730122e+00	 7.777419e+00
 9.223794e-01	 1.748042e+00	 7.733329e+00
 8.889500e-01	 1.765277e+00	 7.667801e+00
 8.553021e-01	 1.781823e+00	 7.593737e+00
 1.027229e+00	 1.702316e+00	 7.889708e+00
 9.943843e-01	 1.721708e+00	 7.791484e+00
 9.612577e-01	 1.740420e+00	 7.740446e+00
 9.278698e-01	 1.758447e+00	 7.694635e+00
 8.942414e-01	 1.775785e+00	 7.631067e+00
 8.603932e-01	 1.792429e+00	 7.580963e+00
 1.033307e+00	 1.712389e+00	 7.833824e+00
 1.000268e+00	 1.731896e+00	 7.745311e+00
 9.669456e-01	 1.750719e+00	 7.697602e+00
 9.333601e-01	 1.768852e+00	 7.647103e+00
 8.995327e-01	 1.786292e+00	 7.603613e+00
 8.654843e-01	 1.803035e+00	 7.572719e+00
 8.400289e-01	 1.750005e+00	 7.635547e+00
 8.067876e-01	 1.765576e+00	 7.531943e+00
 7.733722e-01	 1.780467e+00	 7.423749e+00
 7.398028e-01	 1.794675e+00	 7.327787e+00
 7.060995e-01	 1.808201e+00	 7.227555e+00
 6.722821e-01	 1.821044e+00	 7.106733e+00
 8.451200e-01	 1.760611e+00	 7.634322e+00
 8.116772e-01	 1.776277e+00	 7.531057e+00
 7.780593e-01	 1.791257e+00	 7.445469e+00
 7.442865e-01	 1.805552e+00	 7.364369e+00
 7.103789e-01	 1.819159e+00	 7.272454e+00
 6.763565e-01	 1.832081e+00	 7.154655e+00
 8.502111e-01	 1.771217e+00	 7.612045e+00
 8.165668e-01	 1.786977e+00	 7.532824e+00
 7.827464e-01	 1.802048e+00	 7.465813e+00
 7.487701e-01	 1.816429e+00	 7.396716e+00
 7.146583e-01	 1.830118e+00	 7.311763e+00
 6.804309e-01	 1.843118e+00	 7.197468e+00
 8.553021e-01	 1.781823e+00	 7.593737e+00
 8.214564e-01	 1.797678e+00	 7.536324e+00
 7.874335e-01	 1.812839e+00	 7.484018e+00
 7.532538e-01	 1.827305e+00	 7.424294e+00
 7.189377e-01	 1.841077e+00	 7.345238e+00
 6.845054e-01	 1.854154e+00	 7.235283e+00
 8.603932e-01	 1.792429e+00	 7.580963e+00
 8.263461e-01	 1.808378e+00	 7.540632e+00
 7.921206e-01	 1.823629e+00	 7.499310e+00
 7.577374e-01	 1.838182e+00	 7.446554e+00
 7.232171e-01	 1.852036e+00	 7.372620e+00
 6.885798e-01	 1.865191e+00	 7.268186e+00
 8.654843e-01	 1.803035e+00	 7.572719e+00
 8.312357e-01	 1.819079e+00	 7.544821e+00
 7.968077e-01	 1.834420e+00	 7.510913e+00
 7.622211e-01	 1.849059e+00	 7.462937e+00
 7.274964e-01	 1.862995e+00	 7.393631e+00
 6.926543e-01	 1.876228e+00	 7.296239e+00
 6.722821e-01	 1.821044e+00	 7.106733e+00
 6.383702e-01	 1.833207e+00	 6.950270e+00
 6.043834e-01	 1.844692e+00	 6.763791e+00
 5.703408e-01	 1.855499e+00	 6.559342e+00
 5.362614e-01	 1.865634e+00	 6.337094e+00
 5.021638e-01	 1.875099e+00	 6.106213e+00
 6.763565e-01	 1.832081e+00	 7.154655e+00
 6.422391e-01	 1.844318e+00	 6.998554e+00
 6.080463e-01	 1.855871e+00	 6.811877e+00
 5.737974e-01	 1.866745e+00	 6.608012e+00
 5.395115e-01	 1.876941e+00	 6.387558e+00
 5.052072e-01	 1.886464e+00	 6.158585e+00
 6.804309e-01	 1.843118e+00	 7.197468e+00
 6.461080e-01	 1.855428e+00	 7.043965e+00
 6.117093e-01	 1.867051e+00	 6.860150e+00
 5.772540e-01	 1.877990e+00	 6.659608e+00
 5.427615e-01	 1.888248e+00	 6.442879e+00
 5.082506e-01	 1.897828e+00	 6.215836e+00
 6.845054e-01	 1.854154e+00	 7.235283e+00
 6.499770e-01	 1.866538e+00	 7.086893e+00
 6.153722e-01	 1.878231e+00	 6.909092e+00
 5.807107e-01	 1.889236e+00	 6.714535e+00
 5.460116e-01	 1.899554e+00	 6.503200e+00
 5.112941e-01	 1.909192e+00	 6.277703e+00
 6.885798e-01	 1.865191e+00	 7.268186e+00
 6.538459e-01	 1.877649e+00	 7.127700e+00
 6.190351e-01	 1.889411e+00	 6.959156e+00
 5.841673e-01	 1.900481e+00	 6.773179e+00
 5.492617e-01	 1.910861e+00	 6.568649e+00
 5.143375e-01	 1.920556e+00	 6.343921e+00
 6.926543e-01	 1.876228e+00	 7.296239e+00
 6.577148e-01	 1.888759e+00	 7.166717e+00
 6.226980e-01	 1.900591e+00	 7.010765e+00
 5.876239e-01	 1.911726e+00	 6.835901e+00
 5.525118e-01	 1.922168e+00	 6.639342e+00
 5.173809e-01	 1.931921e+00	 6.414223e+00
 5.021638e-01	 1.875099e+00	 6.106213e+00
 4.680663e-01	 1.883900e+00	 5.871656e+00
 4.339868e-01	 1.892042e+00	 5.637903e+00
 3.999430e-01	 1.899529e+00	 5.411551e+00
 3.659520e-01	 1.906370e+00	 5.197250e+00
 3.320305e-01	 1.912569e+00	 4.997998e+00
 5.052072e-01	 1.886464e+00	 6.158585e+00
 4.709031e-01	 1.895318e+00	 5.925766e+00
 4.366171e-01	 1.903509e+00	 5.693220e+00
 4.023669e-01	 1.911042e+00	 5.467266e+00
 3.681699e-01	 1.917923e+00	 5.252313e+00
 3.340428e-01	 1.924161e+00	 5.051145e+00
 5.082506e-01	 1.897828e+00	 6.215836e+00
 4.737398e-01	 1.906735e+00	 5.982445e+00
 4.392473e-01	 1.914975e+00	 5.747472e+00
 4.047908e-01	 1.922554e+00	 5.518150e+00
 3.703878e-01	 1.929477e+00	 5.299861e+00
 3.360551e-01	 1.935752e+00	 5.096425e+00
 5.112941e-01	 1.909192e+00	 6.277703e+00
 4.765766e-01	 1.918153e+00	 6.041104e+00
 4.418775e-01	 1.926442e+00	 5.800025e+00
 4.072147e-01	 1.934066e+00	 5.563771e+00
 3.726057e-01	 1.941031e+00	 5.339898e+00
 3.380674e-01	 1.947343e+00	 5.134481e+00
 5.143375e-01	 1.920556e+00	 6.343921e+00
 4.794134e-01	 1.929571e+00	 6.101165e+00
 4.445077e-01	 1.937909e+00	 5.850252e+00
 4.096386e-01	 1.945579e+00	 5.603704e+00
 3.748236e-01	 1.952585e+00	 5.372423e+00
 3.400797e-01	 1.958935e+00	 5.165941e+00
 5.173809e-01	 1.931921e+00	 6.414223e+00
 4.822501e-01	 1.940988e+00	 6.162054e+00
 4.471380e-01	 1.949376e+00	 5.897538e+00
 4.120625e-01	 1.957091e+00	 5.637530e+00
 3.770414e-01	 1.964138e+00	 5.397433e+00
 3.420920e-01	 1.970526e+00	 5.191415e+00
 3.320305e-01	 1.912569e+00	 4.997998e+00
 2.981949e-01	 1.918136e+00	 4.815576e+00
 2.644611e-01	 1.923077e+00	 4.654833e+00
 2.308444e-01	 1.927402e+00	 4.521835e+00
 1.973598e-01	 1.931118e+00	 4.422142e+00
 1.640218e-01	 1.934234e+00	 4.360905e+00
 3.340428e-01	 1.924161e+00	 5.051145e+00
 3.000022e-01	 1.929761e+00	 4.866598e+00
 2.660639e-01	 1.934732e+00	 4.704162e+00
 2.322435e-01	 1.939083e+00	 4.569118e+00
 1.985559e-01	 1.942821e+00	 4.466275e+00
 1.650158e-01	 1.945957e+00	 4.400063e+00
 3.360551e-01	 1.935752e+00	 5.096425e+00
 3.018094e-01	 1.941386e+00	 4.912293e+00
 2.676667e-01	 1.946387e+00	 4.752223e+00
 2.336425e-01	 1.950764e+00	 4.619020e+00
 1.997521e-01	 1.954525e+00	 4.514988e+00
 1.660099e-01	 1.957680e+00	 4.442037e+00
 3.380674e-01	 1.947343e+00	 5.134481e+00
 3.036166e-01	 1.953011e+00	 4.953767e+00
 2.692695e-01	 1.958042e+00	 4.800062e+00
 2.350416e-01	 1.962445e+00	 4.672033e+00
 2.009482e-01	 1.966229e+00	 4.567763e+00
 1.670040e-01	 1.969402e+00	 4.484877e+00
 3.400797e-01	 1.958935e+00	 5.165941e+00
 3.054239e-01	 1.964636e+00	 4.992102e+00
 2.708723e-01	 1.969697e+00	 4.848700e+00
 2.364406e-01	 1.974126e+00	 4.728639e+00
 2.021443e-01	 1.977933e+00	 4.624095e+00
 1.679981e-01	 1.981125e+00	 4.526675e+00
 3.420920e-01	 1.970526e+00	 5.191415e+00
 3.072311e-01	 1.976261e+00	 5.028351e+00
 2.724750e-01	 1.981352e+00	 4.899135e+00
 2.378397e-01	 1.985808e+00	 4.789309e+00
 2.033404e-01	 1.989636e+00	 4.683491e+00
 1.689921e-01	 1.992848e+00	 4.565573e+00
 1.640218e-01	 1.934234e+00	 4.360905e+00
 1.308442e-01	 1.936762e+00	 4.334635e+00
 9.784060e-02	 1.938709e+00	 4.347468e+00
 6.502383e-02	 1.940087e+00	 4.414841e+00
 3.240633e-02	 1.940906e+00	 4.551039e+00
 0.000000e+00	 1.941176e+00	 4.769236e+00
 1.650158e-01	 1.945957e+00	 4.400063e+00
 1.316372e-01	 1.948500e+00	 4.366497e+00
 9.843357e-02	 1.950459e+00	 4.376673e+00
 6.541792e-02	 1.951845e+00	 4.456415e+00
 3.260274e-02	 1.952669e+00	 4.630218e+00
 0.000000e+00	 1.952941e+00	 4.921250e+00
 1.660099e-01	 1.957680e+00	 4.442037e+00
 1.324302e-01	 1.960238e+00	 4.395743e+00
 9.902655e-02	 1.962209e+00	 4.398044e+00
 6.581200e-02	 1.963603e+00	 4.489192e+00
 3.279914e-02	 1.964432e+00	 4.708085e+00
 0.000000e+00	 1.964706e+00	 5.092194e+00
 1.670040e-01	 1.969402e+00	 4.484877e+00
 1.332232e-01	 1.971976e+00	 4.419517e+00
 9.961952e-02	 1.973958e+00	 4.409232e+00
 6.620608e-02	 1.975361e+00	 4.512660e+00
 3.299554e-02	 1.976195e+00	 4.787213e+00
 0.000000e+00	 1.976471e+00	 5.288892e+00
 1.679981e-01	 1.981125e+00	 4.526675e+00
 1.340162e-01	 1.983713e+00	 4.435033e+00
 1.002125e-01	 1.985708e+00	 4.407943e+00
 6.660017e-02	 1.987120e+00	 4.526321e+00
 3.319194e-02	 1.987958e+00	 4.870116e+00
 0.000000e+00	 1.988235e+00	 5.518009e+00
 1.689921e-01	 1.992848e+00	 4.565573e+00
 1.348092e-01	 1.995451e+00	 4.439569e+00
 1.008055e-01	 1.997458e+00	 4.391942e+00
 6.699425e-02	 1.998878e+00	 4.529687e+00
 3.338834e-02	 1.999721e+00	 4.959249e+00
 0.000000e+00	 2.000000e+00	 5.786054e+00
