x	y	stress_yy
 1.000000e+00	 0.000000e+00	 3.076420e+01
 9.999449e-01	 1.049814e-02	 3.075640e+01
 9.997786e-01	 2.104029e-02	 3.073294e+01
 9.994998e-01	 3.162495e-02	 3.069329e+01
 9.991070e-01	 4.225058e-02	 3.063699e+01
 9.985990e-01	 5.291561e-02	 3.056372e+01
 1.007407e+00	 0.000000e+00	 3.023932e+01
 1.007352e+00	 1.057591e-02	 3.023138e+01
 1.007184e+00	 2.119614e-02	 3.020852e+01
 1.006904e+00	 3.185921e-02	 3.017024e+01
 1.006508e+00	 4.256355e-02	 3.011614e+01
 1.005996e+00	 5.330758e-02	 3.004593e+01
 1.014815e+00	 0.000000e+00	 2.973275e+01
 1.014759e+00	 1.065367e-02	 2.972492e+01
 1.014590e+00	 2.135200e-02	 2.970281e+01
 1.014307e+00	 3.209346e-02	 2.966594e+01
 1.013909e+00	 4.287651e-02	 2.961396e+01
 1.013393e+00	 5.369955e-02	 2.954661e+01
 1.022222e+00	 0.000000e+00	 2.924342e+01
 1.022166e+00	 1.073144e-02	 2.923586e+01
 1.021996e+00	 2.150785e-02	 2.921458e+01
 1.021711e+00	 3.232772e-02	 2.917915e+01
 1.021309e+00	 4.318948e-02	 2.912921e+01
 1.020790e+00	 5.409151e-02	 2.906453e+01
 1.029630e+00	 0.000000e+00	 2.877030e+01
 1.029573e+00	 1.080920e-02	 2.876305e+01
 1.029402e+00	 2.166371e-02	 2.874264e+01
 1.029115e+00	 3.256198e-02	 2.870864e+01
 1.028710e+00	 4.350245e-02	 2.866068e+01
 1.028187e+00	 5.448348e-02	 2.859852e+01
 1.037037e+00	 0.000000e+00	 2.831238e+01
 1.036980e+00	 1.088696e-02	 2.830542e+01
 1.036807e+00	 2.181956e-02	 2.828586e+01
 1.036518e+00	 3.279624e-02	 2.825324e+01
 1.036111e+00	 4.381542e-02	 2.820719e+01
 1.035584e+00	 5.487545e-02	 2.814744e+01
 9.985990e-01	 5.291561e-02	 3.056372e+01
 9.979743e-01	 6.361843e-02	 3.047378e+01
 9.972317e-01	 7.435736e-02	 3.036750e+01
 9.963698e-01	 8.513072e-02	 3.024481e+01
 9.953874e-01	 9.593675e-02	 3.010565e+01
 9.942834e-01	 1.067737e-01	 2.995006e+01
 1.005996e+00	 5.330758e-02	 3.004593e+01
 1.005367e+00	 6.408967e-02	 2.995976e+01
 1.004619e+00	 7.490816e-02	 2.985779e+01
 1.003750e+00	 8.576131e-02	 2.973988e+01
 1.002761e+00	 9.664739e-02	 2.960597e+01
 1.001648e+00	 1.075646e-01	 2.945608e+01
 1.013393e+00	 5.369955e-02	 2.954661e+01
 1.012759e+00	 6.456092e-02	 2.946395e+01
 1.012005e+00	 7.545895e-02	 2.936606e+01
 1.011131e+00	 8.639191e-02	 2.925277e+01
 1.010134e+00	 9.735803e-02	 2.912402e+01
 1.009013e+00	 1.083555e-01	 2.897980e+01
 1.020790e+00	 5.409151e-02	 2.906453e+01
 1.020152e+00	 6.503217e-02	 2.898516e+01
 1.019392e+00	 7.600975e-02	 2.889115e+01
 1.018511e+00	 8.702251e-02	 2.878234e+01
 1.017507e+00	 9.806867e-02	 2.865862e+01
 1.016379e+00	 1.091464e-01	 2.852000e+01
 1.028187e+00	 5.448348e-02	 2.859852e+01
 1.027544e+00	 6.550342e-02	 2.852226e+01
 1.026779e+00	 7.656054e-02	 2.843197e+01
 1.025892e+00	 8.765311e-02	 2.832746e+01
 1.024880e+00	 9.877932e-02	 2.820864e+01
 1.023744e+00	 1.099373e-01	 2.807549e+01
 1.035584e+00	 5.487545e-02	 2.814744e+01
 1.034936e+00	 6.597466e-02	 2.807415e+01
 1.034166e+00	 7.711134e-02	 2.798742e+01
 1.033272e+00	 8.828371e-02	 2.788706e+01
 1.032254e+00	 9.948996e-02	 2.777297e+01
 1.031109e+00	 1.107283e-01	 2.764511e+01
 9.942834e-01	 1.067737e-01	 2.995006e+01
 9.930563e-01	 1.176397e-01	 2.977778e+01
 9.917053e-01	 1.285329e-01	 2.958849e+01
 9.902289e-01	 1.394514e-01	 2.938224e+01
 9.886263e-01	 1.503932e-01	 2.915916e+01
 9.868962e-01	 1.613564e-01	 2.891945e+01
 1.001648e+00	 1.075646e-01	 2.945608e+01
 1.000412e+00	 1.185111e-01	 2.929013e+01
 9.990512e-01	 1.294850e-01	 2.910798e+01
 9.975640e-01	 1.404843e-01	 2.890972e+01
 9.959494e-01	 1.515072e-01	 2.869545e+01
 9.942065e-01	 1.625517e-01	 2.846538e+01
 1.009013e+00	 1.083555e-01	 2.897980e+01
 1.007768e+00	 1.193825e-01	 2.882012e+01
 1.006397e+00	 1.304371e-01	 2.864495e+01
 1.004899e+00	 1.415173e-01	 2.845435e+01
 1.003273e+00	 1.526213e-01	 2.824844e+01
 1.001517e+00	 1.637469e-01	 2.802741e+01
 1.016379e+00	 1.091464e-01	 2.852000e+01
 1.015124e+00	 1.202539e-01	 2.836650e+01
 1.013743e+00	 1.313891e-01	 2.819810e+01
 1.012234e+00	 1.425503e-01	 2.801487e+01
 1.010596e+00	 1.537353e-01	 2.781693e+01
 1.008827e+00	 1.649421e-01	 2.760446e+01
 1.023744e+00	 1.099373e-01	 2.807549e+01
 1.022480e+00	 1.211253e-01	 2.792801e+01
 1.021089e+00	 1.323412e-01	 2.776618e+01
 1.019569e+00	 1.435833e-01	 2.759006e+01
 1.017919e+00	 1.548493e-01	 2.739976e+01
 1.016138e+00	 1.661374e-01	 2.719544e+01
 1.031109e+00	 1.107283e-01	 2.764511e+01
 1.029836e+00	 1.219967e-01	 2.750347e+01
 1.028435e+00	 1.332933e-01	 2.734800e+01
 1.026904e+00	 1.446162e-01	 2.717875e+01
 1.025242e+00	 1.559633e-01	 2.699581e+01
 1.023448e+00	 1.673326e-01	 2.679934e+01
 9.868962e-01	 1.613564e-01	 2.891945e+01
 9.850377e-01	 1.723390e-01	 2.866331e+01
 9.830498e-01	 1.833389e-01	 2.839112e+01
 9.809315e-01	 1.943540e-01	 2.810345e+01
 9.786818e-01	 2.053822e-01	 2.780085e+01
 9.763001e-01	 2.164213e-01	 2.748393e+01
 9.942065e-01	 1.625517e-01	 2.846538e+01
 9.923343e-01	 1.736156e-01	 2.821950e+01
 9.903316e-01	 1.846970e-01	 2.795802e+01
 9.881976e-01	 1.957937e-01	 2.768152e+01
 9.859313e-01	 2.069035e-01	 2.739060e+01
 9.835319e-01	 2.180244e-01	 2.708588e+01
 1.001517e+00	 1.637469e-01	 2.802741e+01
 9.996308e-01	 1.748922e-01	 2.779118e+01
 9.976135e-01	 1.860550e-01	 2.753986e+01
 9.954638e-01	 1.972333e-01	 2.727406e+01
 9.931808e-01	 2.084249e-01	 2.699440e+01
 9.907638e-01	 2.196275e-01	 2.670152e+01
 1.008827e+00	 1.649421e-01	 2.760446e+01
 1.006927e+00	 1.761688e-01	 2.737734e+01
 1.004895e+00	 1.874131e-01	 2.713571e+01
 1.002730e+00	 1.986730e-01	 2.688017e+01
 1.000430e+00	 2.099462e-01	 2.661136e+01
 9.979956e-01	 2.212306e-01	 2.632995e+01
 1.016138e+00	 1.661374e-01	 2.719544e+01
 1.014224e+00	 1.774454e-01	 2.697702e+01
 1.012177e+00	 1.887712e-01	 2.674466e+01
 1.009996e+00	 2.001126e-01	 2.649897e+01
 1.007680e+00	 2.114676e-01	 2.624061e+01
 1.005227e+00	 2.228337e-01	 2.597027e+01
 1.023448e+00	 1.673326e-01	 2.679934e+01
 1.021521e+00	 1.787220e-01	 2.658929e+01
 1.019459e+00	 1.901292e-01	 2.636584e+01
 1.017262e+00	 2.015523e-01	 2.612963e+01
 1.014929e+00	 2.129889e-01	 2.588132e+01
 1.012459e+00	 2.244369e-01	 2.562161e+01
 9.763001e-01	 2.164213e-01	 2.748393e+01
 9.737853e-01	 2.274691e-01	 2.715196e+01
 9.711368e-01	 2.385234e-01	 2.680422e+01
 9.683537e-01	 2.495819e-01	 2.644135e+01
 9.654354e-01	 2.606423e-01	 2.606400e+01
 9.623813e-01	 2.717024e-01	 2.567279e+01
 9.835319e-01	 2.180244e-01	 2.708588e+01
 9.809985e-01	 2.291540e-01	 2.676663e+01
 9.783304e-01	 2.402902e-01	 2.643209e+01
 9.755267e-01	 2.514306e-01	 2.608287e+01
 9.725868e-01	 2.625730e-01	 2.571956e+01
 9.695101e-01	 2.737150e-01	 2.534274e+01
 9.907638e-01	 2.196275e-01	 2.670152e+01
 9.882118e-01	 2.308390e-01	 2.639463e+01
 9.855240e-01	 2.420570e-01	 2.607284e+01
 9.826997e-01	 2.532794e-01	 2.573673e+01
 9.797382e-01	 2.645037e-01	 2.538688e+01
 9.766388e-01	 2.757276e-01	 2.502384e+01
 9.979956e-01	 2.212306e-01	 2.632995e+01
 9.954250e-01	 2.325239e-01	 2.603500e+01
 9.927176e-01	 2.438239e-01	 2.572546e+01
 9.898727e-01	 2.551281e-01	 2.540192e+01
 9.868896e-01	 2.664344e-01	 2.506495e+01
 9.837676e-01	 2.777402e-01	 2.471509e+01
 1.005227e+00	 2.228337e-01	 2.597027e+01
 1.002638e+00	 2.342089e-01	 2.568680e+01
 9.999112e-01	 2.455907e-01	 2.538900e+01
 9.970457e-01	 2.569769e-01	 2.507747e+01
 9.940409e-01	 2.683651e-01	 2.475279e+01
 9.908963e-01	 2.797528e-01	 2.441553e+01
 1.012459e+00	 2.244369e-01	 2.562161e+01
 1.009851e+00	 2.358938e-01	 2.534914e+01
 1.007105e+00	 2.473576e-01	 2.506254e+01
 1.004219e+00	 2.588256e-01	 2.476244e+01
 1.001192e+00	 2.702957e-01	 2.444947e+01
 9.980251e-01	 2.817654e-01	 2.412421e+01
 9.623813e-01	 2.717024e-01	 2.567279e+01
 9.591908e-01	 2.827597e-01	 2.526832e+01
 9.558632e-01	 2.938119e-01	 2.485165e+01
 9.523983e-01	 3.048566e-01	 2.442410e+01
 9.487954e-01	 3.158914e-01	 2.398705e+01
 9.450542e-01	 3.269137e-01	 2.354189e+01
 9.695101e-01	 2.737150e-01	 2.534274e+01
 9.662959e-01	 2.848542e-01	 2.495317e+01
 9.629437e-01	 2.959883e-01	 2.455218e+01
 9.594531e-01	 3.071148e-01	 2.414116e+01
 9.558235e-01	 3.182313e-01	 2.372156e+01
 9.520546e-01	 3.293353e-01	 2.329483e+01
 9.766388e-01	 2.757276e-01	 2.502384e+01
 9.734010e-01	 2.869488e-01	 2.464858e+01
 9.700242e-01	 2.981647e-01	 2.426266e+01
 9.665079e-01	 3.093730e-01	 2.386754e+01
 9.628516e-01	 3.205713e-01	 2.346472e+01
 9.590550e-01	 3.317569e-01	 2.305569e+01
 9.837676e-01	 2.777402e-01	 2.471509e+01
 9.805061e-01	 2.890433e-01	 2.435354e+01
 9.771047e-01	 3.003411e-01	 2.398210e+01
 9.735627e-01	 3.116312e-01	 2.360229e+01
 9.698797e-01	 3.229112e-01	 2.321561e+01
 9.660554e-01	 3.341785e-01	 2.282358e+01
 9.908963e-01	 2.797528e-01	 2.441553e+01
 9.876112e-01	 2.911378e-01	 2.406710e+01
 9.841851e-01	 3.025175e-01	 2.370957e+01
 9.806175e-01	 3.138894e-01	 2.334447e+01
 9.769078e-01	 3.252511e-01	 2.297333e+01
 9.730558e-01	 3.366001e-01	 2.259765e+01
 9.980251e-01	 2.817654e-01	 2.412421e+01
 9.947164e-01	 2.932323e-01	 2.378834e+01
 9.912656e-01	 3.046939e-01	 2.344417e+01
 9.876723e-01	 3.161476e-01	 2.309322e+01
 9.839359e-01	 3.275911e-01	 2.273702e+01
 9.800562e-01	 3.390217e-01	 2.237707e+01
 9.450542e-01	 3.269137e-01	 2.354189e+01
 9.411744e-01	 3.379212e-01	 2.308547e+01
 9.371557e-01	 3.489113e-01	 2.261380e+01
 9.329980e-01	 3.598816e-01	 2.212693e+01
 9.287010e-01	 3.708294e-01	 2.162475e+01
 9.242647e-01	 3.817523e-01	 2.112572e+01
 9.520546e-01	 3.293353e-01	 2.329483e+01
 9.481461e-01	 3.404243e-01	 2.285649e+01
 9.440976e-01	 3.514959e-01	 2.240116e+01
 9.399091e-01	 3.625474e-01	 2.192878e+01
 9.355803e-01	 3.735763e-01	 2.144064e+01
 9.311111e-01	 3.845801e-01	 2.096155e+01
 9.590550e-01	 3.317569e-01	 2.305569e+01
 9.551177e-01	 3.429275e-01	 2.263459e+01
 9.510395e-01	 3.540804e-01	 2.219458e+01
 9.468202e-01	 3.652132e-01	 2.173553e+01
 9.424595e-01	 3.763232e-01	 2.126246e+01
 9.379575e-01	 3.874079e-01	 2.080230e+01
 9.660554e-01	 3.341785e-01	 2.282358e+01
 9.620894e-01	 3.454306e-01	 2.241891e+01
 9.579814e-01	 3.566649e-01	 2.199326e+01
 9.537313e-01	 3.678790e-01	 2.154642e+01
 9.493388e-01	 3.790701e-01	 2.108963e+01
 9.448039e-01	 3.902357e-01	 2.064742e+01
 9.730558e-01	 3.366001e-01	 2.259765e+01
 9.690610e-01	 3.479337e-01	 2.220864e+01
 9.649233e-01	 3.592495e-01	 2.179642e+01
 9.606424e-01	 3.705447e-01	 2.136075e+01
 9.562181e-01	 3.818170e-01	 2.092157e+01
 9.516503e-01	 3.930635e-01	 2.049639e+01
 9.800562e-01	 3.390217e-01	 2.237707e+01
 9.760327e-01	 3.504368e-01	 2.200299e+01
 9.718652e-01	 3.618340e-01	 2.160333e+01
 9.675535e-01	 3.732105e-01	 2.117908e+01
 9.630973e-01	 3.845639e-01	 2.075773e+01
 9.584967e-01	 3.958913e-01	 2.034872e+01
 9.242647e-01	 3.817523e-01	 2.112572e+01
 9.196890e-01	 3.926477e-01	 2.063211e+01
 9.149739e-01	 4.035130e-01	 2.013031e+01
 9.101196e-01	 4.143457e-01	 1.961914e+01
 9.051262e-01	 4.251431e-01	 1.909728e+01
 8.999938e-01	 4.359027e-01	 1.856330e+01
 9.311111e-01	 3.845801e-01	 2.096155e+01
 9.265015e-01	 3.955562e-01	 2.048713e+01
 9.217515e-01	 4.065020e-01	 2.000433e+01
 9.168612e-01	 4.174149e-01	 1.951193e+01
 9.118308e-01	 4.282923e-01	 1.900859e+01
 9.066604e-01	 4.391316e-01	 1.849285e+01
 9.379575e-01	 3.874079e-01	 2.080230e+01
 9.333140e-01	 3.984647e-01	 2.034603e+01
 9.285291e-01	 4.094910e-01	 1.988127e+01
 9.236028e-01	 4.204841e-01	 1.940677e+01
 9.185354e-01	 4.314415e-01	 1.892114e+01
 9.133271e-01	 4.423605e-01	 1.842291e+01
 9.448039e-01	 3.902357e-01	 2.064742e+01
 9.401265e-01	 4.013732e-01	 2.020833e+01
 9.353067e-01	 4.124800e-01	 1.976070e+01
 9.303445e-01	 4.235534e-01	 1.930324e+01
 9.252401e-01	 4.345907e-01	 1.883455e+01
 9.199937e-01	 4.455894e-01	 1.835315e+01
 9.516503e-01	 3.930635e-01	 2.049639e+01
 9.469390e-01	 4.042817e-01	 2.007355e+01
 9.420842e-01	 4.154690e-01	 1.964217e+01
 9.370861e-01	 4.266226e-01	 1.920096e+01
 9.319447e-01	 4.377399e-01	 1.874849e+01
 9.266603e-01	 4.488183e-01	 1.828324e+01
 9.584967e-01	 3.958913e-01	 2.034872e+01
 9.537515e-01	 4.071902e-01	 1.994122e+01
 9.488618e-01	 4.184580e-01	 1.952528e+01
 9.438277e-01	 4.296918e-01	 1.909955e+01
 9.386493e-01	 4.408891e-01	 1.866260e+01
 9.333269e-01	 4.520472e-01	 1.821287e+01
 8.999938e-01	 4.359027e-01	 1.856330e+01
 8.947229e-01	 4.466218e-01	 1.802518e+01
 8.893136e-01	 4.572978e-01	 1.749047e+01
 8.837665e-01	 4.679282e-01	 1.695697e+01
 8.780819e-01	 4.785104e-01	 1.642242e+01
 8.722604e-01	 4.890417e-01	 1.588451e+01
 9.066604e-01	 4.391316e-01	 1.849285e+01
 9.013504e-01	 4.499301e-01	 1.797277e+01
 8.959011e-01	 4.606852e-01	 1.745595e+01
 8.903129e-01	 4.713944e-01	 1.694013e+01
 8.845862e-01	 4.820549e-01	 1.642298e+01
 8.787216e-01	 4.926642e-01	 1.590211e+01
 9.133271e-01	 4.423605e-01	 1.842291e+01
 9.079780e-01	 4.532384e-01	 1.792021e+01
 9.024886e-01	 4.640726e-01	 1.742068e+01
 8.968593e-01	 4.748605e-01	 1.692196e+01
 8.910905e-01	 4.855994e-01	 1.642166e+01
 8.851828e-01	 4.962867e-01	 1.591729e+01
 9.199937e-01	 4.455894e-01	 1.835315e+01
 9.146056e-01	 4.565467e-01	 1.786720e+01
 9.090761e-01	 4.674600e-01	 1.738436e+01
 9.034057e-01	 4.783267e-01	 1.690220e+01
 8.975948e-01	 4.891440e-01	 1.641822e+01
 8.916440e-01	 4.999093e-01	 1.592983e+01
 9.266603e-01	 4.488183e-01	 1.828324e+01
 9.212332e-01	 4.598550e-01	 1.781344e+01
 9.156636e-01	 4.708474e-01	 1.734673e+01
 9.099521e-01	 4.817928e-01	 1.688059e+01
 9.040991e-01	 4.926885e-01	 1.641240e+01
 8.981052e-01	 5.035318e-01	 1.593950e+01
 9.333269e-01	 4.520472e-01	 1.821287e+01
 9.278607e-01	 4.631633e-01	 1.775863e+01
 9.222511e-01	 4.742348e-01	 1.730751e+01
 9.164986e-01	 4.852589e-01	 1.685687e+01
 9.106034e-01	 4.962330e-01	 1.640398e+01
 9.045664e-01	 5.071543e-01	 1.594606e+01
 8.722604e-01	 4.890417e-01	 1.588451e+01
 8.663026e-01	 4.995195e-01	 1.534611e+01
 8.602092e-01	 5.099413e-01	 1.481061e+01
 8.539809e-01	 5.203044e-01	 1.427654e+01
 8.476184e-01	 5.306063e-01	 1.374246e+01
 8.411226e-01	 5.408444e-01	 1.320706e+01
 8.787216e-01	 4.926642e-01	 1.590211e+01
 8.727197e-01	 5.032196e-01	 1.538075e+01
 8.665811e-01	 5.137186e-01	 1.486260e+01
 8.603067e-01	 5.241585e-01	 1.434592e+01
 8.538971e-01	 5.345367e-01	 1.382904e+01
 8.473532e-01	 5.448507e-01	 1.331039e+01
 8.851828e-01	 4.962867e-01	 1.591729e+01
 8.791368e-01	 5.069198e-01	 1.541241e+01
 8.729531e-01	 5.174959e-01	 1.491091e+01
 8.666325e-01	 5.280126e-01	 1.441086e+01
 8.601757e-01	 5.384671e-01	 1.391037e+01
 8.535837e-01	 5.488569e-01	 1.340762e+01
 8.916440e-01	 4.999093e-01	 1.592983e+01
 8.855538e-01	 5.106199e-01	 1.544085e+01
 8.793250e-01	 5.212733e-01	 1.495536e+01
 8.729582e-01	 5.318667e-01	 1.447123e+01
 8.664544e-01	 5.423975e-01	 1.398636e+01
 8.598143e-01	 5.528632e-01	 1.349874e+01
 8.981052e-01	 5.035318e-01	 1.593950e+01
 8.919709e-01	 5.143201e-01	 1.546587e+01
 8.856969e-01	 5.250506e-01	 1.499576e+01
 8.792840e-01	 5.357208e-01	 1.452688e+01
 8.727330e-01	 5.463280e-01	 1.405694e+01
 8.660448e-01	 5.568695e-01	 1.358375e+01
 9.045664e-01	 5.071543e-01	 1.594606e+01
 8.983879e-01	 5.180202e-01	 1.548724e+01
 8.920688e-01	 5.288280e-01	 1.503193e+01
 8.856098e-01	 5.395749e-01	 1.457767e+01
 8.790117e-01	 5.502584e-01	 1.412203e+01
 8.722753e-01	 5.608757e-01	 1.366262e+01
 8.411226e-01	 5.408444e-01	 1.320706e+01
 8.344945e-01	 5.510163e-01	 1.267551e+01
 8.277350e-01	 5.611192e-01	 1.215254e+01
 8.208451e-01	 5.711508e-01	 1.163631e+01
 8.138260e-01	 5.811086e-01	 1.112512e+01
 8.066789e-01	 5.909900e-01	 1.061745e+01
 8.473532e-01	 5.448507e-01	 1.331039e+01
 8.406760e-01	 5.550979e-01	 1.279485e+01
 8.338664e-01	 5.652757e-01	 1.228706e+01
 8.269255e-01	 5.753816e-01	 1.178531e+01
 8.198544e-01	 5.854131e-01	 1.128799e+01
 8.126543e-01	 5.953677e-01	 1.079370e+01
 8.535837e-01	 5.488569e-01	 1.340762e+01
 8.468574e-01	 5.591795e-01	 1.290735e+01
 8.399977e-01	 5.694321e-01	 1.241424e+01
 8.330058e-01	 5.796123e-01	 1.192661e+01
 8.258827e-01	 5.897176e-01	 1.144294e+01
 8.186297e-01	 5.997454e-01	 1.096186e+01
 8.598143e-01	 5.528632e-01	 1.349874e+01
 8.530388e-01	 5.632611e-01	 1.301307e+01
 8.461291e-01	 5.735885e-01	 1.253416e+01
 8.390861e-01	 5.838431e-01	 1.206031e+01
 8.319111e-01	 5.940221e-01	 1.159001e+01
 8.246051e-01	 6.041231e-01	 1.112192e+01
 8.660448e-01	 5.568695e-01	 1.358375e+01
 8.592203e-01	 5.673427e-01	 1.311207e+01
 8.522605e-01	 5.777450e-01	 1.264690e+01
 8.451665e-01	 5.880738e-01	 1.218649e+01
 8.379394e-01	 5.983266e-01	 1.172927e+01
 8.305805e-01	 6.085008e-01	 1.127387e+01
 8.722753e-01	 5.608757e-01	 1.366262e+01
 8.654017e-01	 5.714243e-01	 1.320439e+01
 8.583918e-01	 5.819014e-01	 1.275254e+01
 8.512468e-01	 5.923046e-01	 1.230522e+01
 8.439677e-01	 6.026311e-01	 1.186076e+01
 8.365559e-01	 6.128785e-01	 1.141769e+01
 8.066789e-01	 5.909900e-01	 1.061745e+01
 7.994049e-01	 6.007927e-01	 1.011512e+01
 7.920053e-01	 6.105142e-01	 9.621193e+00
 7.844816e-01	 6.201521e-01	 9.136278e+00
 7.768351e-01	 6.297040e-01	 8.661317e+00
 7.690674e-01	 6.391677e-01	 8.197596e+00
 8.126543e-01	 5.953677e-01	 1.079370e+01
 8.053264e-01	 6.052430e-01	 1.030479e+01
 7.978720e-01	 6.150365e-01	 9.824422e+00
 7.902926e-01	 6.247458e-01	 9.352757e+00
 7.825895e-01	 6.343685e-01	 8.890272e+00
 7.747642e-01	 6.439023e-01	 8.437770e+00
 8.186297e-01	 5.997454e-01	 1.096186e+01
 8.112479e-01	 6.096933e-01	 1.048604e+01
 8.037388e-01	 6.195588e-01	 1.001863e+01
 7.961036e-01	 6.293395e-01	 9.559428e+00
 7.883438e-01	 6.390330e-01	 9.108530e+00
 7.804609e-01	 6.486369e-01	 8.666353e+00
 8.246051e-01	 6.041231e-01	 1.112192e+01
 8.171694e-01	 6.141436e-01	 1.065882e+01
 8.096055e-01	 6.240811e-01	 1.020379e+01
 8.019145e-01	 6.339332e-01	 9.756349e+00
 7.940981e-01	 6.436975e-01	 9.316295e+00
 7.861577e-01	 6.533715e-01	 8.883751e+00
 8.305805e-01	 6.085008e-01	 1.127387e+01
 8.230909e-01	 6.185939e-01	 1.082307e+01
 8.154722e-01	 6.286035e-01	 1.037988e+01
 8.077255e-01	 6.385269e-01	 9.943573e+00
 7.998525e-01	 6.483619e-01	 9.513761e+00
 7.918545e-01	 6.581060e-01	 9.090359e+00
 8.365559e-01	 6.128785e-01	 1.141769e+01
 8.290125e-01	 6.230443e-01	 1.097876e+01
 8.213389e-01	 6.331258e-01	 1.054685e+01
 8.135365e-01	 6.431207e-01	 1.012115e+01
 8.056068e-01	 6.530264e-01	 9.701113e+00
 7.975513e-01	 6.628406e-01	 9.286555e+00
 7.690674e-01	 6.391677e-01	 8.197596e+00
 7.611798e-01	 6.485409e-01	 7.743320e+00
 7.531741e-01	 6.578212e-01	 7.295979e+00
 7.450519e-01	 6.670065e-01	 6.856339e+00
 7.368148e-01	 6.760946e-01	 6.426149e+00
 7.284647e-01	 6.850833e-01	 6.010392e+00
 7.747642e-01	 6.439023e-01	 8.437770e+00
 7.668182e-01	 6.533449e-01	 7.993125e+00
 7.587532e-01	 6.626940e-01	 7.554310e+00
 7.505708e-01	 6.719473e-01	 7.122863e+00
 7.422727e-01	 6.811027e-01	 6.700758e+00
 7.338607e-01	 6.901580e-01	 6.292057e+00
 7.804609e-01	 6.486369e-01	 8.666353e+00
 7.724566e-01	 6.581489e-01	 8.230763e+00
 7.643322e-01	 6.675667e-01	 7.800361e+00
 7.560897e-01	 6.768881e-01	 7.377275e+00
 7.477306e-01	 6.861108e-01	 6.964103e+00
 7.392568e-01	 6.952327e-01	 6.564010e+00
 7.861577e-01	 6.533715e-01	 8.883751e+00
 7.780949e-01	 6.629529e-01	 8.456824e+00
 7.699113e-01	 6.724395e-01	 8.034811e+00
 7.616086e-01	 6.818289e-01	 7.620251e+00
 7.531885e-01	 6.911189e-01	 7.216177e+00
 7.446528e-01	 7.003074e-01	 6.826144e+00
 7.918545e-01	 6.581060e-01	 9.090359e+00
 7.837333e-01	 6.677569e-01	 8.671882e+00
 7.754904e-01	 6.773122e-01	 8.258321e+00
 7.671275e-01	 6.867697e-01	 7.852448e+00
 7.586464e-01	 6.961270e-01	 7.457551e+00
 7.500488e-01	 7.053821e-01	 7.077456e+00
 7.975513e-01	 6.628406e-01	 9.286555e+00
 7.893717e-01	 6.725609e-01	 8.876492e+00
 7.810694e-01	 6.821850e-01	 8.471531e+00
 7.726464e-01	 6.917105e-01	 8.074506e+00
 7.641043e-01	 7.011351e-01	 7.688778e+00
 7.554449e-01	 7.104568e-01	 7.318262e+00
 7.284647e-01	 6.850833e-01	 6.010392e+00
 7.200033e-01	 6.939706e-01	 5.608247e+00
 7.114326e-01	 7.027543e-01	 5.218452e+00
 7.027543e-01	 7.114326e-01	 4.842024e+00
 6.939706e-01	 7.200033e-01	 4.480084e+00
 6.850833e-01	 7.284647e-01	 4.133850e+00
 7.338607e-01	 6.901580e-01	 6.292057e+00
 7.253367e-01	 6.991111e-01	 5.898919e+00
 7.167025e-01	 7.079599e-01	 5.518551e+00
 7.079599e-01	 7.167025e-01	 5.150483e+00
 6.991111e-01	 7.253367e-01	 4.794296e+00
 6.901580e-01	 7.338607e-01	 4.449632e+00
 7.392568e-01	 6.952327e-01	 6.564010e+00
 7.306701e-01	 7.042516e-01	 6.179038e+00
 7.219723e-01	 7.131655e-01	 5.806262e+00
 7.131655e-01	 7.219723e-01	 5.443970e+00
 7.042516e-01	 7.306701e-01	 5.090467e+00
 6.952327e-01	 7.392568e-01	 4.744080e+00
 7.446528e-01	 7.003074e-01	 6.826144e+00
 7.360034e-01	 7.093922e-01	 6.448848e+00
 7.272422e-01	 7.183711e-01	 6.081765e+00
 7.183711e-01	 7.272422e-01	 5.722718e+00
 7.093922e-01	 7.360034e-01	 5.368986e+00
 7.003074e-01	 7.446528e-01	 5.021301e+00
 7.500488e-01	 7.053821e-01	 7.077456e+00
 7.413368e-01	 7.145327e-01	 6.708604e+00
 7.325121e-01	 7.235767e-01	 6.345264e+00
 7.235767e-01	 7.325121e-01	 5.986980e+00
 7.145327e-01	 7.413368e-01	 5.630335e+00
 7.053821e-01	 7.500488e-01	 5.290539e+00
 7.554449e-01	 7.104568e-01	 7.318262e+00
 7.466701e-01	 7.196732e-01	 6.957531e+00
 7.377819e-01	 7.287823e-01	 6.596991e+00
 7.287823e-01	 7.377819e-01	 6.237035e+00
 7.196732e-01	 7.466701e-01	 5.881672e+00
 7.104568e-01	 7.554449e-01	 5.551708e+00
 6.850833e-01	 7.284647e-01	 4.133850e+00
 6.760946e-01	 7.368148e-01	 3.794600e+00
 6.670065e-01	 7.450519e-01	 3.454146e+00
 6.578212e-01	 7.531741e-01	 3.135385e+00
 6.485409e-01	 7.611798e-01	 2.839318e+00
 6.391677e-01	 7.690674e-01	 2.562282e+00
 6.901580e-01	 7.338607e-01	 4.449632e+00
 6.811027e-01	 7.422727e-01	 4.105519e+00
 6.719473e-01	 7.505708e-01	 3.771471e+00
 6.626940e-01	 7.587532e-01	 3.457770e+00
 6.533449e-01	 7.668182e-01	 3.162691e+00
 6.439023e-01	 7.747642e-01	 2.883855e+00
 6.952327e-01	 7.392568e-01	 4.744080e+00
 6.861108e-01	 7.477306e-01	 4.403115e+00
 6.768881e-01	 7.560897e-01	 4.077520e+00
 6.675667e-01	 7.643322e-01	 3.767835e+00
 6.581489e-01	 7.724566e-01	 3.473451e+00
 6.486369e-01	 7.804609e-01	 3.193124e+00
 7.003074e-01	 7.446528e-01	 5.021301e+00
 6.911189e-01	 7.531885e-01	 4.691097e+00
 6.818289e-01	 7.616086e-01	 4.372195e+00
 6.724395e-01	 7.699113e-01	 4.065584e+00
 6.629529e-01	 7.780949e-01	 3.771631e+00
 6.533715e-01	 7.861577e-01	 3.490075e+00
 7.053821e-01	 7.500488e-01	 5.290539e+00
 6.961270e-01	 7.586464e-01	 4.969149e+00
 6.867697e-01	 7.671275e-01	 4.655355e+00
 6.773122e-01	 7.754904e-01	 4.350977e+00
 6.677569e-01	 7.837333e-01	 4.057216e+00
 6.581060e-01	 7.918545e-01	 3.774652e+00
 7.104568e-01	 7.554449e-01	 5.551708e+00
 7.011351e-01	 7.641043e-01	 5.236919e+00
 6.917105e-01	 7.726464e-01	 4.926817e+00
 6.821850e-01	 7.810694e-01	 4.623925e+00
 6.725609e-01	 7.893717e-01	 4.330143e+00
 6.628406e-01	 7.975513e-01	 4.046750e+00
 6.391677e-01	 7.690674e-01	 2.562282e+00
 6.297040e-01	 7.768351e-01	 2.296444e+00
 6.201521e-01	 7.844816e-01	 2.038321e+00
 6.105142e-01	 7.920053e-01	 1.789957e+00
 6.007927e-01	 7.994049e-01	 1.552975e+00
 5.909900e-01	 8.066789e-01	 1.328576e+00
 6.439023e-01	 7.747642e-01	 2.883855e+00
 6.343685e-01	 7.825895e-01	 2.615770e+00
 6.247458e-01	 7.902926e-01	 2.356181e+00
 6.150365e-01	 7.978720e-01	 2.106740e+00
 6.052430e-01	 8.053264e-01	 1.868642e+00
 5.953677e-01	 8.126543e-01	 1.642629e+00
 6.486369e-01	 7.804609e-01	 3.193124e+00
 6.390330e-01	 7.883438e-01	 2.923243e+00
 6.293395e-01	 7.961036e-01	 2.662451e+00
 6.195588e-01	 8.037388e-01	 2.412040e+00
 6.096933e-01	 8.112479e-01	 2.172808e+00
 5.997454e-01	 8.186297e-01	 1.945072e+00
 6.533715e-01	 7.861577e-01	 3.490075e+00
 6.436975e-01	 7.940981e-01	 3.218792e+00
 6.339332e-01	 8.019145e-01	 2.957044e+00
 6.240811e-01	 8.096055e-01	 2.705789e+00
 6.141436e-01	 8.171694e-01	 2.465465e+00
 6.041231e-01	 8.246051e-01	 2.235995e+00
 6.581060e-01	 7.918545e-01	 3.774652e+00
 6.483619e-01	 7.998525e-01	 3.502304e+00
 6.385269e-01	 8.077255e-01	 3.239827e+00
 6.286035e-01	 8.154722e-01	 2.987878e+00
 6.185939e-01	 8.230909e-01	 2.746561e+00
 6.085008e-01	 8.305805e-01	 2.515442e+00
 6.628406e-01	 7.975513e-01	 4.046750e+00
 6.530264e-01	 8.056068e-01	 3.773618e+00
 6.431207e-01	 8.135365e-01	 3.510625e+00
 6.331258e-01	 8.213389e-01	 3.258150e+00
 6.230443e-01	 8.290125e-01	 3.015999e+00
 6.128785e-01	 8.365559e-01	 2.783409e+00
 5.909900e-01	 8.066789e-01	 1.328576e+00
 5.811086e-01	 8.138260e-01	 1.120011e+00
 5.711508e-01	 8.208451e-01	 9.285868e-01
 5.611192e-01	 8.277350e-01	 7.519418e-01
 5.510163e-01	 8.344945e-01	 5.872745e-01
 5.408444e-01	 8.411226e-01	 4.313633e-01
 5.953677e-01	 8.126543e-01	 1.642629e+00
 5.854131e-01	 8.198544e-01	 1.431271e+00
 5.753816e-01	 8.269255e-01	 1.235680e+00
 5.652757e-01	 8.338664e-01	 1.053729e+00
 5.550979e-01	 8.406760e-01	 8.828550e-01
 5.448507e-01	 8.473532e-01	 7.200721e-01
 5.997454e-01	 8.186297e-01	 1.945072e+00
 5.897176e-01	 8.258827e-01	 1.730932e+00
 5.796123e-01	 8.330058e-01	 1.531447e+00
 5.694321e-01	 8.399977e-01	 1.344667e+00
 5.591795e-01	 8.468574e-01	 1.168197e+00
 5.488569e-01	 8.535837e-01	 9.992194e-01
 6.041231e-01	 8.246051e-01	 2.235995e+00
 5.940221e-01	 8.319111e-01	 2.019173e+00
 5.838431e-01	 8.390861e-01	 1.816106e+00
 5.735885e-01	 8.461291e-01	 1.624959e+00
 5.632611e-01	 8.530388e-01	 1.443442e+00
 5.528632e-01	 8.598143e-01	 1.268835e+00
 6.085008e-01	 8.305805e-01	 2.515442e+00
 5.983266e-01	 8.379394e-01	 2.296126e+00
 5.880738e-01	 8.451665e-01	 2.089826e+00
 5.777450e-01	 8.522605e-01	 1.894762e+00
 5.673427e-01	 8.592203e-01	 1.708687e+00
 5.568695e-01	 8.660448e-01	 1.528907e+00
 6.128785e-01	 8.365559e-01	 2.783409e+00
 6.026311e-01	 8.439677e-01	 2.561874e+00
 5.923046e-01	 8.512468e-01	 2.352727e+00
 5.819014e-01	 8.583918e-01	 2.154185e+00
 5.714243e-01	 8.654017e-01	 1.963981e+00
 5.608757e-01	 8.722753e-01	 1.779382e+00
 5.408444e-01	 8.411226e-01	 4.313633e-01
 5.306063e-01	 8.476184e-01	 2.856343e-01
 5.203044e-01	 8.539809e-01	 1.530709e-01
 5.099413e-01	 8.602092e-01	 3.227912e-02
 4.995195e-01	 8.663026e-01	-7.839397e-02
 4.890417e-01	 8.722604e-01	-1.808407e-01
 5.448507e-01	 8.473532e-01	 7.200721e-01
 5.345367e-01	 8.538971e-01	 5.675213e-01
 5.241585e-01	 8.603067e-01	 4.285451e-01
 5.137186e-01	 8.665811e-01	 3.014357e-01
 5.032196e-01	 8.727197e-01	 1.842039e-01
 4.926642e-01	 8.787216e-01	 7.459998e-02
 5.488569e-01	 8.535837e-01	 9.992194e-01
 5.384671e-01	 8.601757e-01	 8.403935e-01
 5.280126e-01	 8.666325e-01	 6.953130e-01
 5.174959e-01	 8.729531e-01	 5.620165e-01
 5.069198e-01	 8.791368e-01	 4.382432e-01
 4.962867e-01	 8.851828e-01	 3.214541e-01
 5.528632e-01	 8.598143e-01	 1.268835e+00
 5.423975e-01	 8.664544e-01	 1.104178e+00
 5.318667e-01	 8.729582e-01	 9.532651e-01
 5.212733e-01	 8.793250e-01	 8.139389e-01
 5.106199e-01	 8.855538e-01	 6.837296e-01
 4.999093e-01	 8.916440e-01	 5.598764e-01
 5.568695e-01	 8.660448e-01	 1.528907e+00
 5.463280e-01	 8.727330e-01	 1.358766e+00
 5.357208e-01	 8.792840e-01	 1.202256e+00
 5.250506e-01	 8.856969e-01	 1.057085e+00
 5.143201e-01	 8.919709e-01	 9.206326e-01
 5.035318e-01	 8.981052e-01	 7.899819e-01
 5.608757e-01	 8.722753e-01	 1.779382e+00
 5.502584e-01	 8.790117e-01	 1.604008e+00
 5.395749e-01	 8.856098e-01	 1.442106e+00
 5.288280e-01	 8.920688e-01	 1.291301e+00
 5.180202e-01	 8.983879e-01	 1.148885e+00
 5.071543e-01	 9.045664e-01	 1.011847e+00
 4.890417e-01	 8.722604e-01	-1.808407e-01
 4.785104e-01	 8.780819e-01	-2.716580e-01
 4.679282e-01	 8.837665e-01	-3.481411e-01
 4.572978e-01	 8.893136e-01	-4.135453e-01
 4.466218e-01	 8.947229e-01	-4.713029e-01
 4.359027e-01	 8.999938e-01	-5.249985e-01
 4.926642e-01	 8.787216e-01	 7.459998e-02
 4.820549e-01	 8.845862e-01	-2.431503e-02
 4.713944e-01	 8.903129e-01	-1.098202e-01
 4.606852e-01	 8.959011e-01	-1.849989e-01
 4.499301e-01	 9.013504e-01	-2.531023e-01
 4.391316e-01	 9.066604e-01	-3.175246e-01
 4.962867e-01	 8.851828e-01	 3.214541e-01
 4.855994e-01	 8.910905e-01	 2.145823e-01
 4.748605e-01	 8.968593e-01	 1.204852e-01
 4.640726e-01	 9.024886e-01	 3.617957e-02
 4.532384e-01	 9.079780e-01	-4.148116e-02
 4.423605e-01	 9.133271e-01	-1.157816e-01
 4.999093e-01	 8.916440e-01	 5.598764e-01
 4.891440e-01	 8.975948e-01	 4.453361e-01
 4.783267e-01	 9.034057e-01	 3.431644e-01
 4.674600e-01	 9.090761e-01	 2.504073e-01
 4.565467e-01	 9.146056e-01	 1.639480e-01
 4.455894e-01	 9.199937e-01	 8.053237e-02
 5.035318e-01	 8.981052e-01	 7.899819e-01
 4.926885e-01	 9.040991e-01	 6.682065e-01
 4.817928e-01	 9.099521e-01	 5.585636e-01
 4.708474e-01	 9.156636e-01	 4.580592e-01
 4.598550e-01	 9.212332e-01	 3.635327e-01
 4.488183e-01	 9.266603e-01	 2.716829e-01
 5.071543e-01	 9.045664e-01	 1.011847e+00
 4.962330e-01	 9.106034e-01	 8.834120e-01
 4.852589e-01	 9.164986e-01	 7.669863e-01
 4.742348e-01	 9.222511e-01	 6.594682e-01
 4.631633e-01	 9.278607e-01	 5.575811e-01
 4.520472e-01	 9.333269e-01	 4.579005e-01
 4.359027e-01	 8.999938e-01	-5.249985e-01
 4.251431e-01	 9.051262e-01	-5.725414e-01
 4.143457e-01	 9.101196e-01	-6.098903e-01
 4.035130e-01	 9.149739e-01	-6.378034e-01
 3.926477e-01	 9.196890e-01	-6.570263e-01
 3.817523e-01	 9.242647e-01	-6.682746e-01
 4.391316e-01	 9.066604e-01	-3.175246e-01
 4.282923e-01	 9.118308e-01	-3.754364e-01
 4.174149e-01	 9.168612e-01	-4.223762e-01
 4.065020e-01	 9.217515e-01	-4.593930e-01
 3.955562e-01	 9.265015e-01	-4.875346e-01
 3.845801e-01	 9.311111e-01	-5.078293e-01
 4.423605e-01	 9.133271e-01	-1.157816e-01
 4.314415e-01	 9.185354e-01	-1.833648e-01
 4.204841e-01	 9.236028e-01	-2.394709e-01
 4.094910e-01	 9.285291e-01	-2.853851e-01
 3.984647e-01	 9.333140e-01	-3.224006e-01
 3.874079e-01	 9.379575e-01	-3.517977e-01
 4.455894e-01	 9.199937e-01	 8.053237e-02
 4.345907e-01	 9.252401e-01	 3.886840e-03
 4.235534e-01	 9.303445e-01	-6.099933e-02
 4.124800e-01	 9.353067e-01	-1.155955e-01
 4.013732e-01	 9.401265e-01	-1.613841e-01
 3.902357e-01	 9.448039e-01	-1.998396e-01
 4.488183e-01	 9.266603e-01	 2.716829e-01
 4.377399e-01	 9.319447e-01	 1.865005e-01
 4.266226e-01	 9.370861e-01	 1.131846e-01
 4.154690e-01	 9.420842e-01	 5.013306e-02
 4.042817e-01	 9.469390e-01	-4.272216e-03
 3.930635e-01	 9.516503e-01	-5.164284e-02
 4.520472e-01	 9.333269e-01	 4.579005e-01
 4.408891e-01	 9.386493e-01	 3.646267e-01
 4.296918e-01	 9.438277e-01	 2.831986e-01
 4.184580e-01	 9.488618e-01	 2.119304e-01
 4.071902e-01	 9.537515e-01	 1.491209e-01
 3.958913e-01	 9.584967e-01	 9.307638e-02
 3.817523e-01	 9.242647e-01	-6.682746e-01
 3.708294e-01	 9.287010e-01	-6.762633e-01
 3.598816e-01	 9.329980e-01	-6.830987e-01
 3.489113e-01	 9.371557e-01	-6.849708e-01
 3.379212e-01	 9.411744e-01	-6.802399e-01
 3.269137e-01	 9.450542e-01	-6.668859e-01
 3.845801e-01	 9.311111e-01	-5.078293e-01
 3.735763e-01	 9.355803e-01	-5.252957e-01
 3.625474e-01	 9.399091e-01	-5.432071e-01
 3.514959e-01	 9.440976e-01	-5.567315e-01
 3.404243e-01	 9.481461e-01	-5.635828e-01
 3.293353e-01	 9.520546e-01	-5.612816e-01
 3.874079e-01	 9.379575e-01	-3.517977e-01
 3.763232e-01	 9.424595e-01	-3.787029e-01
 3.652132e-01	 9.468202e-01	-4.070299e-01
 3.540804e-01	 9.510395e-01	-4.317061e-01
 3.429275e-01	 9.551177e-01	-4.495114e-01
 3.317569e-01	 9.590550e-01	-4.575245e-01
 3.902357e-01	 9.448039e-01	-1.998396e-01
 3.790701e-01	 9.493388e-01	-2.360289e-01
 3.678790e-01	 9.537313e-01	-2.740186e-01
 3.566649e-01	 9.579814e-01	-3.092301e-01
 3.454306e-01	 9.620894e-01	-3.372618e-01
 3.341785e-01	 9.660554e-01	-3.547681e-01
 3.930635e-01	 9.516503e-01	-5.164284e-02
 3.818170e-01	 9.562181e-01	-9.684742e-02
 3.705447e-01	 9.606424e-01	-1.436655e-01
 3.592495e-01	 9.649233e-01	-1.886776e-01
 3.479337e-01	 9.690610e-01	-2.261074e-01
 3.366001e-01	 9.730558e-01	-2.522015e-01
 3.958913e-01	 9.584967e-01	 9.307638e-02
 3.845639e-01	 9.630973e-01	 3.923822e-02
 3.732105e-01	 9.675535e-01	-1.567927e-02
 3.618340e-01	 9.718652e-01	-6.946213e-02
 3.504368e-01	 9.760327e-01	-1.153590e-01
 3.390217e-01	 9.800562e-01	-1.490491e-01
 3.269137e-01	 9.450542e-01	-6.668859e-01
 3.158914e-01	 9.487954e-01	-6.475602e-01
 3.048566e-01	 9.523983e-01	-6.268080e-01
 2.938119e-01	 9.558632e-01	-6.048849e-01
 2.827597e-01	 9.591908e-01	-5.816862e-01
 2.717024e-01	 9.623813e-01	-5.567536e-01
 3.293353e-01	 9.520546e-01	-5.612816e-01
 3.182313e-01	 9.558235e-01	-5.525428e-01
 3.071148e-01	 9.594531e-01	-5.422292e-01
 2.959883e-01	 9.629437e-01	-5.304775e-01
 2.848542e-01	 9.662959e-01	-5.170410e-01
 2.737150e-01	 9.695101e-01	-5.012982e-01
 3.317569e-01	 9.590550e-01	-4.575245e-01
 3.205713e-01	 9.628516e-01	-4.586218e-01
 3.093730e-01	 9.665079e-01	-4.580838e-01
 2.981647e-01	 9.700242e-01	-4.559473e-01
 2.869488e-01	 9.734010e-01	-4.518426e-01
 2.757276e-01	 9.766388e-01	-4.450029e-01
 3.341785e-01	 9.660554e-01	-3.547681e-01
 3.229112e-01	 9.698797e-01	-3.648861e-01
 3.116312e-01	 9.735627e-01	-3.734149e-01
 3.003411e-01	 9.771047e-01	-3.803101e-01
 2.890433e-01	 9.805061e-01	-3.850972e-01
 2.777402e-01	 9.837676e-01	-3.868814e-01
 3.366001e-01	 9.730558e-01	-2.522015e-01
 3.252511e-01	 9.769078e-01	-2.704580e-01
 3.138894e-01	 9.806175e-01	-2.872966e-01
 3.025175e-01	 9.841851e-01	-3.026104e-01
 2.911378e-01	 9.876112e-01	-3.158372e-01
 2.797528e-01	 9.908963e-01	-3.259712e-01
 3.390217e-01	 9.800562e-01	-1.490491e-01
 3.275911e-01	 9.839359e-01	-1.744931e-01
 3.161476e-01	 9.876723e-01	-1.988346e-01
 3.046939e-01	 9.912656e-01	-2.219216e-01
 2.932323e-01	 9.947164e-01	-2.431214e-01
 2.817654e-01	 9.980251e-01	-2.613333e-01
 2.717024e-01	 9.623813e-01	-5.567536e-01
 2.606423e-01	 9.654354e-01	-5.300368e-01
 2.495819e-01	 9.683537e-01	-5.021090e-01
 2.385234e-01	 9.711368e-01	-4.729694e-01
 2.274691e-01	 9.737853e-01	-4.423393e-01
 2.164213e-01	 9.763001e-01	-4.096841e-01
 2.737150e-01	 9.695101e-01	-5.012982e-01
 2.625730e-01	 9.725868e-01	-4.832748e-01
 2.514306e-01	 9.755267e-01	-4.637663e-01
 2.402902e-01	 9.783304e-01	-4.427960e-01
 2.291540e-01	 9.809985e-01	-4.200871e-01
 2.180244e-01	 9.835319e-01	-3.950862e-01
 2.757276e-01	 9.766388e-01	-4.450029e-01
 2.645037e-01	 9.797382e-01	-4.355225e-01
 2.532794e-01	 9.826997e-01	-4.243694e-01
 2.420570e-01	 9.855240e-01	-4.115429e-01
 2.308390e-01	 9.882118e-01	-3.967204e-01
 2.196275e-01	 9.907638e-01	-3.792818e-01
 2.777402e-01	 9.837676e-01	-3.868814e-01
 2.664344e-01	 9.868896e-01	-3.858142e-01
 2.551281e-01	 9.898727e-01	-3.829815e-01
 2.438239e-01	 9.927176e-01	-3.783121e-01
 2.325239e-01	 9.954250e-01	-3.713901e-01
 2.212306e-01	 9.979956e-01	-3.614816e-01
 2.797528e-01	 9.908963e-01	-3.259712e-01
 2.683651e-01	 9.940409e-01	-3.332048e-01
 2.569769e-01	 9.970457e-01	-3.386844e-01
 2.455907e-01	 9.999112e-01	-3.422216e-01
 2.342089e-01	 1.002638e+00	-3.432609e-01
 2.228337e-01	 1.005227e+00	-3.409072e-01
 2.817654e-01	 9.980251e-01	-2.613333e-01
 2.702957e-01	 1.001192e+00	-2.767702e-01
 2.588256e-01	 1.004219e+00	-2.905779e-01
 2.473576e-01	 1.007105e+00	-3.024051e-01
 2.358938e-01	 1.009851e+00	-3.115101e-01
 2.244369e-01	 1.012459e+00	-3.167908e-01
 2.164213e-01	 9.763001e-01	-4.096841e-01
 2.053822e-01	 9.786818e-01	-3.763872e-01
 1.943540e-01	 9.809315e-01	-3.443535e-01
 1.833389e-01	 9.830498e-01	-3.135004e-01
 1.723390e-01	 9.850377e-01	-2.835643e-01
 1.613564e-01	 9.868962e-01	-2.541300e-01
 2.180244e-01	 9.835319e-01	-3.950862e-01
 2.069035e-01	 9.859313e-01	-3.691206e-01
 1.957937e-01	 9.881976e-01	-3.440879e-01
 1.846970e-01	 9.903316e-01	-3.199406e-01
 1.736156e-01	 9.923343e-01	-2.964461e-01
 1.625517e-01	 9.942065e-01	-2.732157e-01
 2.196275e-01	 9.907638e-01	-3.792818e-01
 2.084249e-01	 9.931808e-01	-3.605283e-01
 1.972333e-01	 9.954638e-01	-3.424024e-01
 1.860550e-01	 9.976135e-01	-3.248765e-01
 1.748922e-01	 9.996308e-01	-3.077295e-01
 1.637469e-01	 1.001517e+00	-2.905790e-01
 2.212306e-01	 9.979956e-01	-3.614816e-01
 2.099462e-01	 1.000430e+00	-3.498735e-01
 1.986730e-01	 1.002730e+00	-3.385878e-01
 1.874131e-01	 1.004895e+00	-3.276003e-01
 1.761688e-01	 1.006927e+00	-3.166830e-01
 1.649421e-01	 1.008827e+00	-3.054383e-01
 2.228337e-01	 1.005227e+00	-3.409072e-01
 2.114676e-01	 1.007680e+00	-3.364284e-01
 2.001126e-01	 1.009996e+00	-3.319426e-01
 1.887712e-01	 1.012177e+00	-3.274122e-01
 1.774454e-01	 1.014224e+00	-3.225838e-01
 1.661374e-01	 1.016138e+00	-3.170229e-01
 2.244369e-01	 1.012459e+00	-3.167908e-01
 2.129889e-01	 1.014929e+00	-3.194737e-01
 2.015523e-01	 1.017262e+00	-3.217726e-01
 1.901292e-01	 1.019459e+00	-3.236199e-01
 1.787220e-01	 1.021521e+00	-3.247171e-01
 1.673326e-01	 1.023448e+00	-3.245718e-01
 1.613564e-01	 9.868962e-01	-2.541300e-01
 1.503932e-01	 9.886263e-01	-2.249766e-01
 1.394514e-01	 9.902289e-01	-1.964881e-01
 1.285329e-01	 9.917053e-01	-1.690282e-01
 1.176397e-01	 9.930563e-01	-1.429391e-01
 1.067737e-01	 9.942834e-01	-1.185688e-01
 1.625517e-01	 9.942065e-01	-2.732157e-01
 1.515072e-01	 9.959494e-01	-2.502065e-01
 1.404843e-01	 9.975640e-01	-2.278788e-01
 1.294850e-01	 9.990512e-01	-2.064619e-01
 1.185111e-01	 1.000412e+00	-1.861568e-01
 1.075646e-01	 1.001648e+00	-1.671649e-01
 1.637469e-01	 1.001517e+00	-2.905790e-01
 1.526213e-01	 1.003273e+00	-2.734719e-01
 1.415173e-01	 1.004899e+00	-2.569022e-01
 1.304371e-01	 1.006397e+00	-2.410110e-01
 1.193825e-01	 1.007768e+00	-2.259042e-01
 1.083555e-01	 1.009013e+00	-2.116839e-01
 1.649421e-01	 1.008827e+00	-3.054383e-01
 1.537353e-01	 1.010596e+00	-2.939447e-01
 1.425503e-01	 1.012234e+00	-2.827151e-01
 1.313891e-01	 1.013743e+00	-2.718459e-01
 1.202539e-01	 1.015124e+00	-2.613929e-01
 1.091464e-01	 1.016379e+00	-2.514042e-01
 1.661374e-01	 1.016138e+00	-3.170229e-01
 1.548493e-01	 1.017919e+00	-3.108093e-01
 1.435833e-01	 1.019569e+00	-3.044874e-01
 1.323412e-01	 1.021089e+00	-2.981511e-01
 1.211253e-01	 1.022480e+00	-2.918484e-01
 1.099373e-01	 1.023744e+00	-2.856170e-01
 1.673326e-01	 1.023448e+00	-3.245718e-01
 1.559633e-01	 1.025242e+00	-3.232620e-01
 1.446162e-01	 1.026904e+00	-3.214025e-01
 1.332933e-01	 1.028435e+00	-3.191245e-01
 1.219967e-01	 1.029836e+00	-3.165095e-01
 1.107283e-01	 1.031109e+00	-3.136261e-01
 1.067737e-01	 9.942834e-01	-1.185688e-01
 9.593675e-02	 9.953874e-01	-9.647980e-02
 8.513072e-02	 9.963698e-01	-7.683019e-02
 7.435736e-02	 9.972317e-01	-5.944584e-02
 6.361843e-02	 9.979743e-01	-4.425708e-02
 5.291561e-02	 9.985990e-01	-3.132186e-02
 1.075646e-01	 1.001648e+00	-1.671649e-01
 9.664739e-02	 1.002761e+00	-1.498483e-01
 8.576131e-02	 1.003750e+00	-1.343031e-01
 7.490816e-02	 1.004619e+00	-1.204165e-01
 6.408967e-02	 1.005367e+00	-1.081866e-01
 5.330758e-02	 1.005996e+00	-9.774614e-02
 1.083555e-01	 1.009013e+00	-2.116839e-01
 9.735803e-02	 1.010134e+00	-1.986033e-01
 8.639191e-02	 1.011131e+00	-1.867427e-01
 7.545895e-02	 1.012005e+00	-1.760315e-01
 6.456092e-02	 1.012759e+00	-1.665153e-01
 5.369955e-02	 1.013393e+00	-1.583818e-01
 1.091464e-01	 1.016379e+00	-2.514042e-01
 9.806867e-02	 1.017507e+00	-2.420943e-01
 8.702251e-02	 1.018511e+00	-2.335550e-01
 7.600975e-02	 1.019392e+00	-2.257379e-01
 6.503217e-02	 1.020152e+00	-2.187162e-01
 5.409151e-02	 1.020790e+00	-2.127113e-01
 1.099373e-01	 1.023744e+00	-2.856170e-01
 9.877932e-02	 1.024880e+00	-2.796831e-01
 8.765311e-02	 1.025892e+00	-2.741577e-01
 7.656054e-02	 1.026779e+00	-2.689947e-01
 6.550342e-02	 1.027544e+00	-2.642741e-01
 5.448348e-02	 1.028187e+00	-2.602302e-01
 1.107283e-01	 1.031109e+00	-3.136261e-01
 9.948996e-02	 1.032254e+00	-3.107431e-01
 8.828371e-02	 1.033272e+00	-3.079799e-01
 7.711134e-02	 1.034166e+00	-3.052722e-01
 6.597466e-02	 1.034936e+00	-3.026857e-01
 5.487545e-02	 1.035584e+00	-3.004464e-01
 5.291561e-02	 9.985990e-01	-3.132186e-02
 4.225058e-02	 9.991070e-01	-2.067627e-02
 3.162495e-02	 9.994998e-01	-1.218305e-02
 2.104029e-02	 9.997786e-01	-5.909554e-03
 1.049814e-02	 9.999449e-01	-2.149628e-03
 0.000000e+00	 1.000000e+00	-1.436790e-03
 5.330758e-02	 1.005996e+00	-9.774614e-02
 4.256355e-02	 1.006508e+00	-8.927165e-02
 3.185921e-02	 1.006904e+00	-8.261082e-02
 2.119614e-02	 1.007184e+00	-7.768609e-02
 1.057591e-02	 1.007352e+00	-7.465674e-02
-4.279350e-319	 1.007407e+00	-7.393192e-02
 5.369955e-02	 1.013393e+00	-1.583818e-01
 4.287651e-02	 1.013909e+00	-1.518953e-01
 3.209346e-02	 1.014307e+00	-1.468723e-01
 2.135200e-02	 1.014590e+00	-1.431238e-01
 1.065367e-02	 1.014759e+00	-1.407090e-01
-1.522182e-318	 1.014815e+00	-1.399403e-01
 5.409151e-02	 1.020790e+00	-2.127113e-01
 4.318948e-02	 1.021309e+00	-2.080369e-01
 3.232772e-02	 1.021711e+00	-2.044741e-01
 2.150785e-02	 1.021996e+00	-2.017551e-01
 1.073144e-02	 1.022166e+00	-1.998712e-01
-2.998386e-318	 1.022223e+00	-1.990601e-01
 5.448348e-02	 1.028187e+00	-2.602302e-01
 4.350245e-02	 1.028710e+00	-2.571999e-01
 3.256198e-02	 1.029115e+00	-2.549374e-01
 2.166371e-02	 1.029402e+00	-2.531265e-01
 1.080920e-02	 1.029573e+00	-2.517222e-01
-4.572182e-318	 1.029630e+00	-2.509066e-01
 5.487545e-02	 1.035584e+00	-3.004464e-01
 4.381542e-02	 1.036111e+00	-2.989011e-01
 3.279624e-02	 1.036518e+00	-2.977971e-01
 2.181956e-02	 1.036807e+00	-2.967988e-01
 1.088696e-02	 1.036980e+00	-2.958547e-01
-5.959188e-318	 1.037038e+00	-2.951122e-01
 1.037037e+00	 0.000000e+00	 2.831238e+01
 1.036980e+00	 1.088696e-02	 2.830542e+01
 1.036807e+00	 2.181956e-02	 2.828586e+01
 1.036518e+00	 3.279624e-02	 2.825324e+01
 1.036111e+00	 4.381542e-02	 2.820719e+01
 1.035584e+00	 5.487545e-02	 2.814744e+01
 1.044444e+00	 0.000000e+00	 2.786957e+01
 1.044387e+00	 1.096473e-02	 2.786282e+01
 1.044213e+00	 2.197541e-02	 2.784404e+01
 1.043922e+00	 3.303050e-02	 2.781274e+01
 1.043512e+00	 4.412838e-02	 2.776853e+01
 1.042981e+00	 5.526742e-02	 2.771112e+01
 1.051852e+00	 0.000000e+00	 2.744178e+01
 1.051794e+00	 1.104249e-02	 2.743520e+01
 1.051619e+00	 2.213127e-02	 2.741716e+01
 1.051326e+00	 3.326476e-02	 2.738712e+01
 1.050913e+00	 4.444135e-02	 2.734466e+01
 1.050378e+00	 5.565938e-02	 2.728949e+01
 1.059259e+00	 0.000000e+00	 2.702810e+01
 1.059201e+00	 1.112026e-02	 2.702167e+01
 1.059025e+00	 2.228712e-02	 2.700431e+01
 1.058729e+00	 3.349902e-02	 2.697547e+01
 1.058313e+00	 4.475432e-02	 2.693469e+01
 1.057775e+00	 5.605135e-02	 2.688166e+01
 1.066667e+00	 0.000000e+00	 2.662763e+01
 1.066608e+00	 1.119802e-02	 2.662134e+01
 1.066431e+00	 2.244298e-02	 2.660464e+01
 1.066133e+00	 3.373328e-02	 2.657694e+01
 1.065714e+00	 4.506728e-02	 2.653777e+01
 1.065172e+00	 5.644332e-02	 2.648678e+01
 1.074074e+00	 0.000000e+00	 2.623950e+01
 1.074015e+00	 1.127578e-02	 2.623337e+01
 1.073836e+00	 2.259883e-02	 2.621730e+01
 1.073537e+00	 3.396754e-02	 2.619069e+01
 1.073115e+00	 4.538025e-02	 2.615305e+01
 1.072569e+00	 5.683529e-02	 2.610402e+01
 1.035584e+00	 5.487545e-02	 2.814744e+01
 1.034936e+00	 6.597466e-02	 2.807415e+01
 1.034166e+00	 7.711134e-02	 2.798742e+01
 1.033272e+00	 8.828371e-02	 2.788706e+01
 1.032254e+00	 9.948996e-02	 2.777297e+01
 1.031109e+00	 1.107283e-01	 2.764511e+01
 1.042981e+00	 5.526742e-02	 2.771112e+01
 1.042329e+00	 6.644591e-02	 2.764068e+01
 1.041553e+00	 7.766213e-02	 2.755737e+01
 1.040653e+00	 8.891430e-02	 2.746099e+01
 1.039627e+00	 1.002006e-01	 2.735141e+01
 1.038474e+00	 1.115192e-01	 2.722863e+01
 1.050378e+00	 5.565938e-02	 2.728949e+01
 1.049721e+00	 6.691716e-02	 2.722179e+01
 1.048940e+00	 7.821293e-02	 2.714176e+01
 1.048033e+00	 8.954490e-02	 2.704918e+01
 1.047000e+00	 1.009112e-01	 2.694392e+01
 1.045839e+00	 1.123101e-01	 2.682597e+01
 1.057775e+00	 5.605135e-02	 2.688166e+01
 1.057114e+00	 6.738841e-02	 2.681659e+01
 1.056327e+00	 7.876372e-02	 2.673969e+01
 1.055414e+00	 9.017550e-02	 2.665074e+01
 1.054373e+00	 1.016219e-01	 2.654961e+01
 1.053204e+00	 1.131010e-01	 2.643627e+01
 1.065172e+00	 5.644332e-02	 2.648678e+01
 1.064506e+00	 6.785965e-02	 2.642423e+01
 1.063714e+00	 7.931452e-02	 2.635032e+01
 1.062794e+00	 9.080610e-02	 2.626483e+01
 1.061747e+00	 1.023325e-01	 2.616763e+01
 1.060569e+00	 1.138919e-01	 2.605867e+01
 1.072569e+00	 5.683529e-02	 2.610402e+01
 1.071898e+00	 6.833090e-02	 2.604385e+01
 1.071101e+00	 7.986531e-02	 2.597280e+01
 1.070175e+00	 9.143669e-02	 2.589061e+01
 1.069120e+00	 1.030432e-01	 2.579714e+01
 1.067934e+00	 1.146828e-01	 2.569235e+01
 1.031109e+00	 1.107283e-01	 2.764511e+01
 1.029836e+00	 1.219967e-01	 2.750347e+01
 1.028435e+00	 1.332933e-01	 2.734800e+01
 1.026904e+00	 1.446162e-01	 2.717875e+01
 1.025242e+00	 1.559633e-01	 2.699581e+01
 1.023448e+00	 1.673326e-01	 2.679934e+01
 1.038474e+00	 1.115192e-01	 2.722863e+01
 1.037192e+00	 1.228681e-01	 2.709260e+01
 1.035781e+00	 1.342454e-01	 2.694325e+01
 1.034239e+00	 1.456492e-01	 2.678062e+01
 1.032565e+00	 1.570774e-01	 2.660480e+01
 1.030758e+00	 1.685278e-01	 2.641595e+01
 1.045839e+00	 1.123101e-01	 2.682597e+01
 1.044548e+00	 1.237395e-01	 2.669529e+01
 1.043127e+00	 1.351975e-01	 2.655180e+01
 1.041574e+00	 1.466822e-01	 2.639553e+01
 1.039888e+00	 1.581914e-01	 2.622658e+01
 1.038069e+00	 1.697231e-01	 2.604508e+01
 1.053204e+00	 1.131010e-01	 2.643627e+01
 1.051904e+00	 1.246109e-01	 2.631068e+01
 1.050473e+00	 1.361496e-01	 2.617278e+01
 1.048909e+00	 1.477151e-01	 2.602260e+01
 1.047212e+00	 1.593054e-01	 2.586023e+01
 1.045379e+00	 1.709183e-01	 2.568581e+01
 1.060569e+00	 1.138919e-01	 2.605867e+01
 1.059260e+00	 1.254823e-01	 2.593793e+01
 1.057819e+00	 1.371017e-01	 2.580536e+01
 1.056244e+00	 1.487481e-01	 2.566099e+01
 1.054535e+00	 1.604194e-01	 2.550490e+01
 1.052689e+00	 1.721135e-01	 2.533724e+01
 1.067934e+00	 1.146828e-01	 2.569235e+01
 1.066616e+00	 1.263537e-01	 2.557622e+01
 1.065165e+00	 1.380538e-01	 2.544871e+01
 1.063579e+00	 1.497811e-01	 2.530985e+01
 1.061858e+00	 1.615335e-01	 2.515973e+01
 1.060000e+00	 1.733088e-01	 2.499851e+01
 1.023448e+00	 1.673326e-01	 2.679934e+01
 1.021521e+00	 1.787220e-01	 2.658929e+01
 1.019459e+00	 1.901292e-01	 2.636584e+01
 1.017262e+00	 2.015523e-01	 2.612963e+01
 1.014929e+00	 2.129889e-01	 2.588132e+01
 1.012459e+00	 2.244369e-01	 2.562161e+01
 1.030758e+00	 1.685278e-01	 2.641595e+01
 1.028817e+00	 1.799985e-01	 2.621400e+01
 1.026741e+00	 1.914873e-01	 2.599917e+01
 1.024528e+00	 2.029920e-01	 2.577211e+01
 1.022179e+00	 2.145103e-01	 2.553349e+01
 1.019691e+00	 2.260400e-01	 2.528400e+01
 1.038069e+00	 1.697231e-01	 2.604508e+01
 1.036114e+00	 1.812751e-01	 2.585097e+01
 1.034023e+00	 1.928454e-01	 2.564446e+01
 1.031795e+00	 2.044316e-01	 2.542623e+01
 1.029428e+00	 2.160316e-01	 2.519696e+01
 1.026923e+00	 2.276431e-01	 2.495735e+01
 1.045379e+00	 1.709183e-01	 2.568581e+01
 1.043410e+00	 1.825517e-01	 2.549924e+01
 1.041305e+00	 1.942034e-01	 2.530075e+01
 1.039061e+00	 2.058713e-01	 2.509101e+01
 1.036678e+00	 2.175530e-01	 2.487073e+01
 1.034155e+00	 2.292462e-01	 2.464063e+01
 1.052689e+00	 1.721135e-01	 2.533724e+01
 1.050707e+00	 1.838283e-01	 2.515790e+01
 1.048586e+00	 1.955615e-01	 2.496707e+01
 1.046327e+00	 2.073109e-01	 2.476547e+01
 1.043927e+00	 2.190743e-01	 2.455382e+01
 1.041387e+00	 2.308493e-01	 2.433287e+01
 1.060000e+00	 1.733088e-01	 2.499851e+01
 1.058003e+00	 1.851049e-01	 2.482604e+01
 1.055868e+00	 1.969196e-01	 2.464252e+01
 1.053593e+00	 2.087506e-01	 2.444869e+01
 1.051177e+00	 2.205957e-01	 2.424530e+01
 1.048619e+00	 2.324525e-01	 2.403313e+01
 1.012459e+00	 2.244369e-01	 2.562161e+01
 1.009851e+00	 2.358938e-01	 2.534914e+01
 1.007105e+00	 2.473576e-01	 2.506254e+01
 1.004219e+00	 2.588256e-01	 2.476244e+01
 1.001192e+00	 2.702957e-01	 2.444947e+01
 9.980251e-01	 2.817654e-01	 2.412421e+01
 1.019691e+00	 2.260400e-01	 2.528400e+01
 1.017065e+00	 2.375788e-01	 2.502210e+01
 1.014298e+00	 2.491244e-01	 2.474623e+01
 1.011392e+00	 2.606744e-01	 2.445708e+01
 1.008344e+00	 2.722264e-01	 2.415530e+01
 1.005154e+00	 2.837781e-01	 2.384152e+01
 1.026923e+00	 2.276431e-01	 2.495735e+01
 1.024278e+00	 2.392638e-01	 2.470566e+01
 1.021492e+00	 2.508912e-01	 2.444017e+01
 1.018565e+00	 2.625232e-01	 2.416161e+01
 1.015495e+00	 2.741571e-01	 2.387066e+01
 1.012283e+00	 2.857907e-01	 2.356797e+01
 1.034155e+00	 2.292462e-01	 2.464063e+01
 1.031491e+00	 2.409487e-01	 2.439881e+01
 1.028686e+00	 2.526581e-01	 2.414340e+01
 1.025738e+00	 2.643719e-01	 2.387514e+01
 1.022646e+00	 2.760878e-01	 2.359474e+01
 1.019411e+00	 2.878033e-01	 2.330288e+01
 1.041387e+00	 2.308493e-01	 2.433287e+01
 1.038704e+00	 2.426337e-01	 2.410059e+01
 1.035879e+00	 2.544249e-01	 2.385498e+01
 1.032911e+00	 2.662207e-01	 2.359680e+01
 1.029798e+00	 2.780185e-01	 2.332677e+01
 1.026540e+00	 2.898159e-01	 2.304559e+01
 1.048619e+00	 2.324525e-01	 2.403313e+01
 1.045918e+00	 2.443186e-01	 2.381006e+01
 1.043073e+00	 2.561918e-01	 2.357401e+01
 1.040084e+00	 2.680694e-01	 2.332575e+01
 1.036949e+00	 2.799492e-01	 2.306599e+01
 1.033669e+00	 2.918285e-01	 2.279544e+01
 9.980251e-01	 2.817654e-01	 2.412421e+01
 9.947164e-01	 2.932323e-01	 2.378834e+01
 9.912656e-01	 3.046939e-01	 2.344417e+01
 9.876723e-01	 3.161476e-01	 2.309322e+01
 9.839359e-01	 3.275911e-01	 2.273702e+01
 9.800562e-01	 3.390217e-01	 2.237707e+01
 1.005154e+00	 2.837781e-01	 2.384152e+01
 1.001821e+00	 2.953268e-01	 2.351766e+01
 9.983461e-01	 3.068702e-01	 2.318628e+01
 9.947271e-01	 3.184058e-01	 2.284889e+01
 9.909640e-01	 3.299310e-01	 2.250701e+01
 9.870566e-01	 3.414432e-01	 2.216211e+01
 1.012283e+00	 2.857907e-01	 2.356797e+01
 1.008927e+00	 2.974213e-01	 2.325569e+01
 1.005427e+00	 3.090466e-01	 2.293656e+01
 1.001782e+00	 3.206640e-01	 2.261212e+01
 9.979922e-01	 3.322709e-01	 2.228385e+01
 9.940570e-01	 3.438648e-01	 2.195324e+01
 1.019411e+00	 2.878033e-01	 2.330288e+01
 1.016032e+00	 2.995159e-01	 2.300184e+01
 1.012507e+00	 3.112230e-01	 2.269451e+01
 1.008837e+00	 3.229222e-01	 2.238243e+01
 1.005020e+00	 3.346109e-01	 2.206709e+01
 1.001057e+00	 3.462864e-01	 2.174994e+01
 1.026540e+00	 2.898159e-01	 2.304559e+01
 1.023137e+00	 3.016104e-01	 2.275556e+01
 1.019587e+00	 3.133994e-01	 2.245964e+01
 1.015891e+00	 3.251804e-01	 2.215938e+01
 1.012048e+00	 3.369508e-01	 2.185627e+01
 1.008058e+00	 3.487080e-01	 2.155175e+01
 1.033669e+00	 2.918285e-01	 2.279544e+01
 1.030242e+00	 3.037049e-01	 2.251632e+01
 1.026668e+00	 3.155758e-01	 2.223150e+01
 1.022946e+00	 3.274386e-01	 2.194255e+01
 1.019076e+00	 3.392907e-01	 2.165097e+01
 1.015058e+00	 3.511296e-01	 2.135818e+01
 9.800562e-01	 3.390217e-01	 2.237707e+01
 9.760327e-01	 3.504368e-01	 2.200299e+01
 9.718652e-01	 3.618340e-01	 2.160333e+01
 9.675535e-01	 3.732105e-01	 2.117908e+01
 9.630973e-01	 3.845639e-01	 2.075773e+01
 9.584967e-01	 3.958913e-01	 2.034872e+01
 9.870566e-01	 3.414432e-01	 2.216211e+01
 9.830044e-01	 3.529399e-01	 2.180219e+01
 9.788071e-01	 3.644185e-01	 2.141418e+01
 9.744646e-01	 3.758763e-01	 2.100268e+01
 9.699766e-01	 3.873107e-01	 2.059838e+01
 9.653431e-01	 3.987191e-01	 2.020468e+01
 9.940570e-01	 3.438648e-01	 2.195324e+01
 9.899760e-01	 3.554431e-01	 2.160661e+01
 9.857490e-01	 3.670030e-01	 2.122927e+01
 9.813757e-01	 3.785421e-01	 2.083186e+01
 9.768559e-01	 3.900576e-01	 2.044381e+01
 9.721895e-01	 4.015469e-01	 2.006458e+01
 1.001057e+00	 3.462864e-01	 2.174994e+01
 9.969477e-01	 3.579462e-01	 2.141568e+01
 9.926909e-01	 3.695876e-01	 2.104802e+01
 9.882868e-01	 3.812079e-01	 2.066610e+01
 9.837351e-01	 3.928045e-01	 2.029351e+01
 9.790359e-01	 4.043747e-01	 1.992790e+01
 1.008058e+00	 3.487080e-01	 2.155175e+01
 1.003919e+00	 3.604493e-01	 2.122889e+01
 9.996328e-01	 3.721721e-01	 2.087042e+01
 9.951979e-01	 3.838737e-01	 2.050490e+01
 9.906144e-01	 3.955514e-01	 2.014697e+01
 9.858823e-01	 4.072025e-01	 1.979418e+01
 1.015058e+00	 3.511296e-01	 2.135818e+01
 1.010891e+00	 3.629524e-01	 2.104573e+01
 1.006575e+00	 3.747566e-01	 2.069758e+01
 1.002109e+00	 3.865395e-01	 2.034779e+01
 9.974937e-01	 3.982983e-01	 2.000371e+01
 9.927287e-01	 4.100303e-01	 1.966293e+01
 9.584967e-01	 3.958913e-01	 2.034872e+01
 9.537515e-01	 4.071902e-01	 1.994122e+01
 9.488618e-01	 4.184580e-01	 1.952528e+01
 9.438277e-01	 4.296918e-01	 1.909955e+01
 9.386493e-01	 4.408891e-01	 1.866260e+01
 9.333269e-01	 4.520472e-01	 1.821287e+01
 9.653431e-01	 3.987191e-01	 2.020468e+01
 9.605640e-01	 4.100987e-01	 1.981169e+01
 9.556394e-01	 4.214469e-01	 1.941039e+01
 9.505693e-01	 4.327610e-01	 1.899944e+01
 9.453540e-01	 4.440383e-01	 1.857735e+01
 9.399935e-01	 4.552761e-01	 1.814254e+01
 9.721895e-01	 4.015469e-01	 2.006458e+01
 9.673765e-01	 4.130072e-01	 1.968526e+01
 9.624170e-01	 4.244359e-01	 1.929788e+01
 9.573110e-01	 4.358303e-01	 1.890103e+01
 9.520586e-01	 4.471875e-01	 1.849322e+01
 9.466602e-01	 4.585050e-01	 1.807280e+01
 9.790359e-01	 4.043747e-01	 1.992790e+01
 9.741890e-01	 4.159157e-01	 1.956148e+01
 9.691946e-01	 4.274249e-01	 1.918732e+01
 9.640526e-01	 4.388995e-01	 1.880398e+01
 9.587633e-01	 4.503368e-01	 1.840991e+01
 9.533268e-01	 4.617339e-01	 1.800342e+01
 9.858823e-01	 4.072025e-01	 1.979418e+01
 9.810016e-01	 4.188242e-01	 1.943989e+01
 9.759722e-01	 4.304139e-01	 1.907830e+01
 9.707942e-01	 4.419687e-01	 1.870792e+01
 9.654679e-01	 4.534860e-01	 1.832712e+01
 9.599934e-01	 4.649628e-01	 1.793418e+01
 9.927287e-01	 4.100303e-01	 1.966293e+01
 9.878141e-01	 4.217327e-01	 1.932004e+01
 9.827497e-01	 4.334029e-01	 1.897041e+01
 9.775358e-01	 4.450380e-01	 1.861248e+01
 9.721725e-01	 4.566352e-01	 1.824456e+01
 9.666600e-01	 4.681917e-01	 1.786485e+01
 9.333269e-01	 4.520472e-01	 1.821287e+01
 9.278607e-01	 4.631633e-01	 1.775863e+01
 9.222511e-01	 4.742348e-01	 1.730751e+01
 9.164986e-01	 4.852589e-01	 1.685687e+01
 9.106034e-01	 4.962330e-01	 1.640398e+01
 9.045664e-01	 5.071543e-01	 1.594606e+01
 9.399935e-01	 4.552761e-01	 1.814254e+01
 9.344883e-01	 4.664716e-01	 1.770330e+01
 9.288387e-01	 4.776222e-01	 1.726722e+01
 9.230450e-01	 4.887251e-01	 1.683157e+01
 9.171078e-01	 4.997775e-01	 1.639348e+01
 9.110275e-01	 5.107769e-01	 1.595004e+01
 9.466602e-01	 4.585050e-01	 1.807280e+01
 9.411159e-01	 4.697799e-01	 1.764804e+01
 9.354262e-01	 4.810096e-01	 1.722651e+01
 9.295914e-01	 4.921912e-01	 1.680532e+01
 9.236121e-01	 5.033220e-01	 1.638152e+01
 9.174887e-01	 5.143994e-01	 1.595207e+01
 9.533268e-01	 4.617339e-01	 1.800342e+01
 9.477435e-01	 4.730882e-01	 1.759271e+01
 9.420137e-01	 4.843970e-01	 1.718524e+01
 9.361378e-01	 4.956573e-01	 1.677804e+01
 9.301164e-01	 5.068666e-01	 1.636802e+01
 9.239499e-01	 5.180219e-01	 1.595201e+01
 9.599934e-01	 4.649628e-01	 1.793418e+01
 9.543711e-01	 4.763966e-01	 1.753715e+01
 9.486012e-01	 4.877844e-01	 1.714332e+01
 9.426842e-01	 4.991235e-01	 1.674961e+01
 9.366207e-01	 5.104111e-01	 1.635284e+01
 9.304111e-01	 5.216445e-01	 1.594971e+01
 9.666600e-01	 4.681917e-01	 1.786485e+01
 9.609986e-01	 4.797049e-01	 1.748118e+01
 9.551887e-01	 4.911717e-01	 1.710060e+01
 9.492306e-01	 5.025896e-01	 1.671994e+01
 9.431250e-01	 5.139556e-01	 1.633590e+01
 9.368723e-01	 5.252670e-01	 1.594504e+01
 9.045664e-01	 5.071543e-01	 1.594606e+01
 8.983879e-01	 5.180202e-01	 1.548724e+01
 8.920688e-01	 5.288280e-01	 1.503193e+01
 8.856098e-01	 5.395749e-01	 1.457767e+01
 8.790117e-01	 5.502584e-01	 1.412203e+01
 8.722753e-01	 5.608757e-01	 1.366262e+01
 9.110275e-01	 5.107769e-01	 1.595004e+01
 9.048050e-01	 5.217204e-01	 1.550554e+01
 8.984407e-01	 5.326053e-01	 1.506449e+01
 8.919356e-01	 5.434290e-01	 1.462430e+01
 8.852903e-01	 5.541888e-01	 1.418238e+01
 8.785059e-01	 5.648820e-01	 1.373619e+01
 9.174887e-01	 5.143994e-01	 1.595207e+01
 9.112220e-01	 5.254205e-01	 1.552137e+01
 9.048127e-01	 5.363827e-01	 1.509408e+01
 8.982614e-01	 5.472831e-01	 1.466745e+01
 8.915690e-01	 5.581192e-01	 1.423874e+01
 8.847364e-01	 5.688882e-01	 1.380527e+01
 9.239499e-01	 5.180219e-01	 1.595201e+01
 9.176391e-01	 5.291207e-01	 1.553458e+01
 9.111846e-01	 5.401600e-01	 1.512053e+01
 9.045872e-01	 5.511372e-01	 1.470696e+01
 8.978476e-01	 5.620496e-01	 1.429100e+01
 8.909669e-01	 5.728945e-01	 1.386978e+01
 9.304111e-01	 5.216445e-01	 1.594971e+01
 9.240562e-01	 5.328208e-01	 1.554499e+01
 9.175565e-01	 5.439373e-01	 1.514365e+01
 9.109129e-01	 5.549913e-01	 1.474267e+01
 9.041263e-01	 5.659800e-01	 1.433900e+01
 8.971975e-01	 5.769007e-01	 1.392964e+01
 9.368723e-01	 5.252670e-01	 1.594504e+01
 9.304732e-01	 5.365209e-01	 1.555241e+01
 9.239284e-01	 5.477147e-01	 1.516326e+01
 9.172387e-01	 5.588454e-01	 1.477438e+01
 9.104050e-01	 5.699105e-01	 1.438260e+01
 9.034280e-01	 5.809070e-01	 1.398476e+01
 8.722753e-01	 5.608757e-01	 1.366262e+01
 8.654017e-01	 5.714243e-01	 1.320439e+01
 8.583918e-01	 5.819014e-01	 1.275254e+01
 8.512468e-01	 5.923046e-01	 1.230522e+01
 8.439677e-01	 6.026311e-01	 1.186076e+01
 8.365559e-01	 6.128785e-01	 1.141769e+01
 8.785059e-01	 5.648820e-01	 1.373619e+01
 8.715832e-01	 5.755059e-01	 1.329090e+01
 8.645232e-01	 5.860579e-01	 1.285193e+01
 8.573271e-01	 5.965353e-01	 1.241730e+01
 8.499961e-01	 6.069356e-01	 1.198522e+01
 8.425313e-01	 6.172562e-01	 1.155408e+01
 8.847364e-01	 5.688882e-01	 1.380527e+01
 8.777646e-01	 5.795875e-01	 1.337243e+01
 8.706546e-01	 5.902143e-01	 1.294589e+01
 8.634075e-01	 6.007661e-01	 1.252354e+01
 8.560244e-01	 6.112401e-01	 1.210342e+01
 8.485067e-01	 6.216339e-01	 1.168379e+01
 8.909669e-01	 5.728945e-01	 1.386978e+01
 8.839460e-01	 5.836691e-01	 1.344896e+01
 8.767860e-01	 5.943707e-01	 1.303446e+01
 8.694878e-01	 6.049968e-01	 1.262399e+01
 8.620528e-01	 6.155446e-01	 1.221542e+01
 8.544821e-01	 6.260116e-01	 1.180686e+01
 8.971975e-01	 5.769007e-01	 1.392964e+01
 8.901275e-01	 5.877507e-01	 1.352048e+01
 8.829173e-01	 5.985272e-01	 1.311765e+01
 8.755681e-01	 6.092275e-01	 1.271868e+01
 8.680811e-01	 6.198492e-01	 1.232127e+01
 8.604575e-01	 6.303893e-01	 1.192331e+01
 9.034280e-01	 5.809070e-01	 1.398476e+01
 8.963089e-01	 5.918323e-01	 1.358694e+01
 8.890487e-01	 6.026836e-01	 1.319546e+01
 8.816485e-01	 6.134583e-01	 1.280764e+01
 8.741094e-01	 6.241537e-01	 1.242098e+01
 8.664329e-01	 6.347671e-01	 1.203317e+01
 8.365559e-01	 6.128785e-01	 1.141769e+01
 8.290125e-01	 6.230443e-01	 1.097876e+01
 8.213389e-01	 6.331258e-01	 1.054685e+01
 8.135365e-01	 6.431207e-01	 1.012115e+01
 8.056068e-01	 6.530264e-01	 9.701113e+00
 7.975513e-01	 6.628406e-01	 9.286555e+00
 8.425313e-01	 6.172562e-01	 1.155408e+01
 8.349340e-01	 6.274946e-01	 1.112656e+01
 8.272056e-01	 6.376481e-01	 1.070548e+01
 8.193475e-01	 6.477144e-01	 1.028996e+01
 8.113611e-01	 6.576909e-01	 9.879373e+00
 8.032481e-01	 6.675752e-01	 9.473474e+00
 8.485067e-01	 6.216339e-01	 1.168379e+01
 8.408555e-01	 6.319449e-01	 1.126724e+01
 8.330723e-01	 6.421704e-01	 1.085660e+01
 8.251584e-01	 6.523081e-01	 1.045091e+01
 8.171155e-01	 6.623554e-01	 1.004951e+01
 8.089449e-01	 6.723098e-01	 9.652097e+00
 8.544821e-01	 6.260116e-01	 1.180686e+01
 8.467770e-01	 6.363952e-01	 1.140084e+01
 8.389390e-01	 6.466928e-01	 1.100024e+01
 8.309694e-01	 6.569018e-01	 1.060405e+01
 8.228698e-01	 6.670198e-01	 1.021160e+01
 8.146417e-01	 6.770443e-01	 9.822553e+00
 8.604575e-01	 6.303893e-01	 1.192331e+01
 8.526985e-01	 6.408455e-01	 1.152737e+01
 8.448057e-01	 6.512151e-01	 1.113642e+01
 8.367804e-01	 6.614955e-01	 1.074943e+01
 8.286241e-01	 6.716843e-01	 1.036572e+01
 8.203385e-01	 6.817789e-01	 9.984956e+00
 8.664329e-01	 6.347671e-01	 1.203317e+01
 8.586201e-01	 6.452958e-01	 1.164683e+01
 8.506724e-01	 6.557374e-01	 1.126514e+01
 8.425914e-01	 6.660893e-01	 1.088706e+01
 8.343785e-01	 6.763488e-01	 1.051192e+01
 8.260353e-01	 6.865135e-01	 1.013941e+01
 7.975513e-01	 6.628406e-01	 9.286555e+00
 7.893717e-01	 6.725609e-01	 8.876492e+00
 7.810694e-01	 6.821850e-01	 8.471531e+00
 7.726464e-01	 6.917105e-01	 8.074506e+00
 7.641043e-01	 7.011351e-01	 7.688778e+00
 7.554449e-01	 7.104568e-01	 7.318262e+00
 8.032481e-01	 6.675752e-01	 9.473474e+00
 7.950100e-01	 6.773649e-01	 9.071794e+00
 7.866485e-01	 6.870577e-01	 8.675440e+00
 7.781653e-01	 6.966513e-01	 8.287168e+00
 7.695621e-01	 7.061433e-01	 7.910273e+00
 7.608409e-01	 7.155315e-01	 7.548610e+00
 8.089449e-01	 6.723098e-01	 9.652097e+00
 8.006484e-01	 6.821689e-01	 9.258688e+00
 7.922276e-01	 6.919305e-01	 8.870760e+00
 7.836842e-01	 7.015921e-01	 8.490892e+00
 7.750200e-01	 7.111514e-01	 8.122206e+00
 7.662370e-01	 7.206062e-01	 7.768391e+00
 8.146417e-01	 6.770443e-01	 9.822553e+00
 8.062868e-01	 6.869729e-01	 9.437343e+00
 7.978066e-01	 6.968032e-01	 9.057681e+00
 7.892031e-01	 7.065328e-01	 8.685869e+00
 7.804779e-01	 7.161595e-01	 8.324752e+00
 7.716330e-01	 7.256809e-01	 7.977750e+00
 8.203385e-01	 6.817789e-01	 9.984956e+00
 8.119251e-01	 6.917770e-01	 9.607914e+00
 8.033857e-01	 7.016760e-01	 9.236380e+00
 7.947220e-01	 7.114736e-01	 8.872276e+00
 7.859358e-01	 7.211676e-01	 8.518075e+00
 7.770290e-01	 7.307556e-01	 8.176820e+00
 8.260353e-01	 6.865135e-01	 1.013941e+01
 8.175635e-01	 6.965810e-01	 9.770541e+00
 8.089648e-01	 7.065487e-01	 9.407016e+00
 8.002409e-01	 7.164144e-01	 9.050280e+00
 7.913937e-01	 7.261757e-01	 8.702326e+00
 7.824251e-01	 7.358302e-01	 8.365728e+00
 7.554449e-01	 7.104568e-01	 7.318262e+00
 7.466701e-01	 7.196732e-01	 6.957531e+00
 7.377819e-01	 7.287823e-01	 6.596991e+00
 7.287823e-01	 7.377819e-01	 6.237035e+00
 7.196732e-01	 7.466701e-01	 5.881672e+00
 7.104568e-01	 7.554449e-01	 5.551708e+00
 7.608409e-01	 7.155315e-01	 7.548610e+00
 7.520035e-01	 7.248137e-01	 7.194717e+00
 7.430518e-01	 7.339879e-01	 6.836531e+00
 7.339879e-01	 7.430518e-01	 6.473623e+00
 7.248137e-01	 7.520035e-01	 6.126532e+00
 7.155315e-01	 7.608409e-01	 5.804015e+00
 7.662370e-01	 7.206062e-01	 7.768391e+00
 7.573368e-01	 7.299543e-01	 7.419874e+00
 7.483217e-01	 7.391935e-01	 7.062503e+00
 7.391935e-01	 7.483217e-01	 6.703461e+00
 7.299543e-01	 7.573368e-01	 6.363779e+00
 7.206062e-01	 7.662370e-01	 6.046799e+00
 7.716330e-01	 7.256809e-01	 7.977750e+00
 7.626702e-01	 7.350948e-01	 7.633152e+00
 7.535916e-01	 7.443991e-01	 7.276840e+00
 7.443991e-01	 7.535916e-01	 6.926938e+00
 7.350948e-01	 7.626702e-01	 6.592702e+00
 7.256809e-01	 7.716330e-01	 6.279614e+00
 7.770290e-01	 7.307556e-01	 8.176820e+00
 7.680036e-01	 7.402353e-01	 7.834692e+00
 7.588614e-01	 7.496046e-01	 7.484619e+00
 7.496046e-01	 7.588614e-01	 7.142181e+00
 7.402353e-01	 7.680036e-01	 6.812559e+00
 7.307556e-01	 7.770290e-01	 6.501977e+00
 7.824251e-01	 7.358302e-01	 8.365728e+00
 7.733369e-01	 7.453758e-01	 8.027005e+00
 7.641313e-01	 7.548102e-01	 7.684993e+00
 7.548102e-01	 7.641313e-01	 7.348067e+00
 7.453758e-01	 7.733369e-01	 7.022169e+00
 7.358302e-01	 7.824251e-01	 6.713371e+00
 7.104568e-01	 7.554449e-01	 5.551708e+00
 7.011351e-01	 7.641043e-01	 5.236919e+00
 6.917105e-01	 7.726464e-01	 4.926817e+00
 6.821850e-01	 7.810694e-01	 4.623925e+00
 6.725609e-01	 7.893717e-01	 4.330143e+00
 6.628406e-01	 7.975513e-01	 4.046750e+00
 7.155315e-01	 7.608409e-01	 5.804015e+00
 7.061433e-01	 7.695621e-01	 5.494165e+00
 6.966513e-01	 7.781653e-01	 5.186878e+00
 6.870577e-01	 7.866485e-01	 4.885208e+00
 6.773649e-01	 7.950100e-01	 4.591577e+00
 6.675752e-01	 8.032481e-01	 4.307779e+00
 7.206062e-01	 7.662370e-01	 6.046799e+00
 7.111514e-01	 7.750200e-01	 5.740792e+00
 7.015921e-01	 7.836842e-01	 5.435986e+00
 6.919305e-01	 7.922276e-01	 5.135752e+00
 6.821689e-01	 8.006484e-01	 4.842821e+00
 6.723098e-01	 8.089449e-01	 4.559271e+00
 7.256809e-01	 7.716330e-01	 6.279614e+00
 7.161595e-01	 7.804779e-01	 5.976610e+00
 7.065328e-01	 7.892031e-01	 5.674117e+00
 6.968032e-01	 7.978066e-01	 5.375621e+00
 6.869729e-01	 8.062868e-01	 5.083943e+00
 6.770443e-01	 8.146417e-01	 4.801232e+00
 7.307556e-01	 7.770290e-01	 6.501977e+00
 7.211676e-01	 7.859358e-01	 6.201382e+00
 7.114736e-01	 7.947220e-01	 5.901198e+00
 7.016760e-01	 8.033857e-01	 5.604825e+00
 6.917770e-01	 8.119251e-01	 5.314965e+00
 6.817789e-01	 8.203385e-01	 5.033619e+00
 7.358302e-01	 7.824251e-01	 6.713371e+00
 7.261757e-01	 7.913937e-01	 6.414830e+00
 7.164144e-01	 8.002409e-01	 6.117111e+00
 7.065487e-01	 8.089648e-01	 5.823326e+00
 6.965810e-01	 8.175635e-01	 5.535855e+00
 6.865135e-01	 8.260353e-01	 5.256341e+00
 6.628406e-01	 7.975513e-01	 4.046750e+00
 6.530264e-01	 8.056068e-01	 3.773618e+00
 6.431207e-01	 8.135365e-01	 3.510625e+00
 6.331258e-01	 8.213389e-01	 3.258150e+00
 6.230443e-01	 8.290125e-01	 3.015999e+00
 6.128785e-01	 8.365559e-01	 2.783409e+00
 6.675752e-01	 8.032481e-01	 4.307779e+00
 6.576909e-01	 8.113611e-01	 4.034268e+00
 6.477144e-01	 8.193475e-01	 3.771025e+00
 6.376481e-01	 8.272056e-01	 3.518197e+00
 6.274946e-01	 8.349340e-01	 3.275335e+00
 6.172562e-01	 8.425313e-01	 3.041397e+00
 6.723098e-01	 8.089449e-01	 4.559271e+00
 6.623554e-01	 8.171155e-01	 4.285882e+00
 6.523081e-01	 8.251584e-01	 4.022669e+00
 6.421704e-01	 8.330723e-01	 3.769609e+00
 6.319449e-01	 8.408555e-01	 3.526055e+00
 6.216339e-01	 8.485067e-01	 3.290750e+00
 6.770443e-01	 8.146417e-01	 4.801232e+00
 6.670198e-01	 8.228698e-01	 4.528374e+00
 6.569018e-01	 8.309694e-01	 4.265397e+00
 6.466928e-01	 8.389390e-01	 4.012165e+00
 6.363952e-01	 8.467770e-01	 3.767894e+00
 6.260116e-01	 8.544821e-01	 3.531165e+00
 6.817789e-01	 8.203385e-01	 5.033619e+00
 6.716843e-01	 8.286241e-01	 4.761614e+00
 6.614955e-01	 8.367804e-01	 4.499008e+00
 6.512151e-01	 8.448057e-01	 4.245606e+00
 6.408455e-01	 8.526985e-01	 4.000545e+00
 6.303893e-01	 8.604575e-01	 3.762303e+00
 6.865135e-01	 8.260353e-01	 5.256341e+00
 6.763488e-01	 8.343785e-01	 4.985427e+00
 6.660893e-01	 8.425914e-01	 4.723254e+00
 6.557374e-01	 8.506724e-01	 4.469628e+00
 6.452958e-01	 8.586201e-01	 4.223661e+00
 6.347671e-01	 8.664329e-01	 3.983783e+00
 6.128785e-01	 8.365559e-01	 2.783409e+00
 6.026311e-01	 8.439677e-01	 2.561874e+00
 5.923046e-01	 8.512468e-01	 2.352727e+00
 5.819014e-01	 8.583918e-01	 2.154185e+00
 5.714243e-01	 8.654017e-01	 1.963981e+00
 5.608757e-01	 8.722753e-01	 1.779382e+00
 6.172562e-01	 8.425313e-01	 3.041397e+00
 6.069356e-01	 8.499961e-01	 2.817819e+00
 5.965353e-01	 8.573271e-01	 2.606063e+00
 5.860579e-01	 8.645232e-01	 2.404312e+00
 5.755059e-01	 8.715832e-01	 2.210247e+00
 5.648820e-01	 8.785059e-01	 2.021067e+00
 6.216339e-01	 8.485067e-01	 3.290750e+00
 6.112401e-01	 8.560244e-01	 3.065139e+00
 6.007661e-01	 8.634075e-01	 2.850843e+00
 5.902143e-01	 8.706546e-01	 2.646009e+00
 5.795875e-01	 8.777646e-01	 2.448266e+00
 5.688882e-01	 8.847364e-01	 2.254746e+00
 6.260116e-01	 8.544821e-01	 3.531165e+00
 6.155446e-01	 8.620528e-01	 3.303514e+00
 6.049968e-01	 8.694878e-01	 3.086754e+00
 5.943707e-01	 8.767860e-01	 2.878995e+00
 5.836691e-01	 8.839460e-01	 2.677815e+00
 5.728945e-01	 8.909669e-01	 2.480276e+00
 6.303893e-01	 8.604575e-01	 3.762303e+00
 6.198492e-01	 8.680811e-01	 3.532587e+00
 6.092275e-01	 8.755681e-01	 3.313446e+00
 5.985272e-01	 8.829173e-01	 3.102952e+00
 5.877507e-01	 8.901275e-01	 2.898629e+00
 5.769007e-01	 8.971975e-01	 2.697473e+00
 6.347671e-01	 8.664329e-01	 3.983783e+00
 6.241537e-01	 8.741094e-01	 3.751963e+00
 6.134583e-01	 8.816485e-01	 3.530533e+00
 6.026836e-01	 8.890487e-01	 3.317525e+00
 5.918323e-01	 8.963089e-01	 3.110409e+00
 5.809070e-01	 9.034280e-01	 2.906114e+00
 5.608757e-01	 8.722753e-01	 1.779382e+00
 5.502584e-01	 8.790117e-01	 1.604008e+00
 5.395749e-01	 8.856098e-01	 1.442106e+00
 5.288280e-01	 8.920688e-01	 1.291301e+00
 5.180202e-01	 8.983879e-01	 1.148885e+00
 5.071543e-01	 9.045664e-01	 1.011847e+00
 5.648820e-01	 8.785059e-01	 2.021067e+00
 5.541888e-01	 8.852903e-01	 1.840697e+00
 5.434290e-01	 8.919356e-01	 1.673699e+00
 5.326053e-01	 8.984407e-01	 1.517612e+00
 5.217204e-01	 9.048050e-01	 1.369641e+00
 5.107769e-01	 9.110275e-01	 1.226680e+00
 5.688882e-01	 8.847364e-01	 2.254746e+00
 5.581192e-01	 8.915690e-01	 2.069717e+00
 5.472831e-01	 8.982614e-01	 1.898052e+00
 5.363827e-01	 9.048127e-01	 1.737153e+00
 5.254205e-01	 9.112220e-01	 1.584076e+00
 5.143994e-01	 9.174887e-01	 1.435559e+00
 5.728945e-01	 8.909669e-01	 2.480276e+00
 5.620496e-01	 8.978476e-01	 2.290996e+00
 5.511372e-01	 9.045872e-01	 2.115126e+00
 5.401600e-01	 9.111846e-01	 1.949877e+00
 5.291207e-01	 9.176391e-01	 1.792100e+00
 5.180219e-01	 9.239499e-01	 1.638316e+00
 5.769007e-01	 8.971975e-01	 2.697473e+00
 5.659800e-01	 9.041263e-01	 2.504420e+00
 5.549913e-01	 9.109129e-01	 2.324842e+00
 5.439373e-01	 9.175565e-01	 2.155701e+00
 5.328208e-01	 9.240562e-01	 1.993588e+00
 5.216445e-01	 9.304111e-01	 1.834749e+00
 5.809070e-01	 9.034280e-01	 2.906114e+00
 5.699105e-01	 9.104050e-01	 2.709839e+00
 5.588454e-01	 9.172387e-01	 2.527080e+00
 5.477147e-01	 9.239284e-01	 2.354502e+00
 5.365209e-01	 9.304732e-01	 2.188379e+00
 5.252670e-01	 9.368723e-01	 2.024622e+00
 5.071543e-01	 9.045664e-01	 1.011847e+00
 4.962330e-01	 9.106034e-01	 8.834120e-01
 4.852589e-01	 9.164986e-01	 7.669863e-01
 4.742348e-01	 9.222511e-01	 6.594682e-01
 4.631633e-01	 9.278607e-01	 5.575811e-01
 4.520472e-01	 9.333269e-01	 4.579005e-01
 5.107769e-01	 9.110275e-01	 1.226680e+00
 4.997775e-01	 9.171078e-01	 1.092057e+00
 4.887251e-01	 9.230450e-01	 9.692839e-01
 4.776222e-01	 9.288387e-01	 8.551549e-01
 4.664716e-01	 9.344883e-01	 7.462806e-01
 4.552761e-01	 9.399935e-01	 6.391164e-01
 5.143994e-01	 9.174887e-01	 1.435559e+00
 5.033220e-01	 9.236121e-01	 1.294975e+00
 4.921912e-01	 9.295914e-01	 1.165968e+00
 4.810096e-01	 9.354262e-01	 1.045301e+00
 4.697799e-01	 9.411159e-01	 9.295507e-01
 4.585050e-01	 9.466602e-01	 8.151307e-01
 5.180219e-01	 9.239499e-01	 1.638316e+00
 5.068666e-01	 9.301164e-01	 1.491926e+00
 4.956573e-01	 9.361378e-01	 1.356779e+00
 4.843970e-01	 9.420137e-01	 1.229682e+00
 4.730882e-01	 9.477435e-01	 1.107247e+00
 4.617339e-01	 9.533268e-01	 9.859286e-01
 5.216445e-01	 9.304111e-01	 1.834749e+00
 5.104111e-01	 9.366207e-01	 1.682639e+00
 4.991235e-01	 9.426842e-01	 1.541432e+00
 4.877844e-01	 9.486012e-01	 1.408044e+00
 4.763966e-01	 9.543711e-01	 1.279200e+00
 4.649628e-01	 9.599934e-01	 1.151466e+00
 5.252670e-01	 9.368723e-01	 2.024622e+00
 5.139556e-01	 9.431250e-01	 1.866817e+00
 5.025896e-01	 9.492306e-01	 1.719614e+00
 4.911717e-01	 9.551887e-01	 1.580109e+00
 4.797049e-01	 9.609986e-01	 1.445210e+00
 4.681917e-01	 9.666600e-01	 1.311670e+00
 4.520472e-01	 9.333269e-01	 4.579005e-01
 4.408891e-01	 9.386493e-01	 3.646267e-01
 4.296918e-01	 9.438277e-01	 2.831986e-01
 4.184580e-01	 9.488618e-01	 2.119304e-01
 4.071902e-01	 9.537515e-01	 1.491209e-01
 3.958913e-01	 9.584967e-01	 9.307638e-02
 4.552761e-01	 9.399935e-01	 6.391164e-01
 4.440383e-01	 9.453540e-01	 5.381085e-01
 4.327610e-01	 9.505693e-01	 4.489556e-01
 4.214469e-01	 9.556394e-01	 3.698663e-01
 4.100987e-01	 9.605640e-01	 2.990351e-01
 3.987191e-01	 9.653431e-01	 2.346655e-01
 4.585050e-01	 9.466602e-01	 8.151307e-01
 4.471875e-01	 9.520586e-01	 7.068002e-01
 4.358303e-01	 9.573110e-01	 6.104691e-01
 4.244359e-01	 9.624170e-01	 5.241503e-01
 4.130072e-01	 9.673765e-01	 4.458410e-01
 4.015469e-01	 9.721895e-01	 3.735478e-01
 4.617339e-01	 9.533268e-01	 9.859286e-01
 4.503368e-01	 9.587633e-01	 8.708218e-01
 4.388995e-01	 9.640526e-01	 7.679622e-01
 4.274249e-01	 9.691946e-01	 6.750774e-01
 4.159157e-01	 9.741890e-01	 5.898766e-01
 4.043747e-01	 9.790359e-01	 5.100768e-01
 4.649628e-01	 9.599934e-01	 1.151466e+00
 4.534860e-01	 9.654679e-01	 1.030262e+00
 4.419687e-01	 9.707942e-01	 9.216251e-01
 4.304139e-01	 9.759722e-01	 8.229096e-01
 4.188242e-01	 9.810016e-01	 7.314476e-01
 4.072025e-01	 9.858823e-01	 6.445754e-01
 4.681917e-01	 9.666600e-01	 1.311670e+00
 4.566352e-01	 9.721725e-01	 1.185180e+00
 4.450380e-01	 9.775358e-01	 1.071616e+00
 4.334029e-01	 9.827497e-01	 9.678770e-01
 4.217327e-01	 9.878141e-01	 8.708281e-01
 4.100303e-01	 9.927287e-01	 7.773363e-01
 3.958913e-01	 9.584967e-01	 9.307638e-02
 3.845639e-01	 9.630973e-01	 3.923822e-02
 3.732105e-01	 9.675535e-01	-1.567927e-02
 3.618340e-01	 9.718652e-01	-6.946213e-02
 3.504368e-01	 9.760327e-01	-1.153590e-01
 3.390217e-01	 9.800562e-01	-1.490491e-01
 3.987191e-01	 9.653431e-01	 2.346655e-01
 3.873107e-01	 9.699766e-01	 1.725409e-01
 3.758763e-01	 9.744646e-01	 1.099191e-01
 3.644185e-01	 9.788071e-01	 4.821970e-02
 3.529399e-01	 9.830044e-01	-5.598347e-03
 3.414432e-01	 9.870566e-01	-4.635590e-02
 4.015469e-01	 9.721895e-01	 3.735478e-01
 3.900576e-01	 9.768559e-01	 3.033729e-01
 3.785421e-01	 9.813757e-01	 2.331802e-01
 3.670030e-01	 9.857490e-01	 1.640126e-01
 3.554431e-01	 9.899760e-01	 1.023622e-01
 3.438648e-01	 9.940570e-01	 5.452939e-02
 4.043747e-01	 9.790359e-01	 5.100768e-01
 3.928045e-01	 9.837351e-01	 4.320866e-01
 3.812079e-01	 9.882868e-01	 3.544461e-01
 3.695876e-01	 9.926909e-01	 2.782089e-01
 3.579462e-01	 9.969477e-01	 2.088154e-01
 3.462864e-01	 1.001057e+00	 1.538819e-01
 4.072025e-01	 9.858823e-01	 6.445754e-01
 3.955514e-01	 9.906144e-01	 5.590052e-01
 3.838737e-01	 9.951979e-01	 4.740321e-01
 3.721721e-01	 9.996328e-01	 3.909952e-01
 3.604493e-01	 1.003919e+00	 3.140236e-01
 3.487080e-01	 1.008058e+00	 2.519517e-01
 4.100303e-01	 9.927287e-01	 7.773363e-01
 3.982983e-01	 9.974937e-01	 6.844236e-01
 3.865395e-01	 1.002109e+00	 5.922270e-01
 3.747566e-01	 1.006575e+00	 5.024138e-01
 3.629524e-01	 1.010891e+00	 4.182188e-01
 3.511296e-01	 1.015058e+00	 3.489639e-01
 3.390217e-01	 9.800562e-01	-1.490491e-01
 3.275911e-01	 9.839359e-01	-1.744931e-01
 3.161476e-01	 9.876723e-01	-1.988346e-01
 3.046939e-01	 9.912656e-01	-2.219216e-01
 2.932323e-01	 9.947164e-01	-2.431214e-01
 2.817654e-01	 9.980251e-01	-2.613333e-01
 3.414432e-01	 9.870566e-01	-4.635590e-02
 3.299310e-01	 9.909640e-01	-7.854143e-02
 3.184058e-01	 9.947271e-01	-1.100643e-01
 3.068702e-01	 9.983461e-01	-1.406808e-01
 2.953268e-01	 1.001821e+00	-1.696390e-01
 2.837781e-01	 1.005154e+00	-1.956921e-01
 3.438648e-01	 9.940570e-01	 5.452939e-02
 3.322709e-01	 9.979922e-01	 1.549152e-02
 3.206640e-01	 1.001782e+00	-2.338601e-02
 3.090466e-01	 1.005427e+00	-6.165905e-02
 2.974213e-01	 1.008927e+00	-9.834355e-02
 2.857907e-01	 1.012283e+00	-1.319299e-01
 3.462864e-01	 1.001057e+00	 1.538819e-01
 3.346109e-01	 1.005020e+00	 1.078768e-01
 3.229222e-01	 1.008837e+00	 6.151135e-02
 3.112230e-01	 1.012507e+00	 1.553643e-02
 2.995159e-01	 1.016032e+00	-2.872118e-02
 2.878033e-01	 1.019411e+00	-6.937496e-02
 3.487080e-01	 1.008058e+00	 2.519517e-01
 3.369508e-01	 1.012048e+00	 1.988653e-01
 3.251804e-01	 1.015891e+00	 1.449216e-01
 3.133994e-01	 1.019587e+00	 9.128255e-02
 3.016104e-01	 1.023137e+00	 3.972588e-02
 2.898159e-01	 1.026540e+00	-7.373049e-03
 3.511296e-01	 1.015058e+00	 3.489639e-01
 3.392907e-01	 1.019076e+00	 2.886870e-01
 3.274386e-01	 1.022946e+00	 2.271207e-01
 3.155758e-01	 1.026668e+00	 1.659399e-01
 3.037049e-01	 1.030242e+00	 1.074792e-01
 2.918285e-01	 1.033669e+00	 5.471256e-02
 2.817654e-01	 9.980251e-01	-2.613333e-01
 2.702957e-01	 1.001192e+00	-2.767702e-01
 2.588256e-01	 1.004219e+00	-2.905779e-01
 2.473576e-01	 1.007105e+00	-3.024051e-01
 2.358938e-01	 1.009851e+00	-3.115101e-01
 2.244369e-01	 1.012459e+00	-3.167908e-01
 2.837781e-01	 1.005154e+00	-1.956921e-01
 2.722264e-01	 1.008344e+00	-2.190135e-01
 2.606744e-01	 1.011392e+00	-2.407486e-01
 2.491244e-01	 1.014298e+00	-2.604206e-01
 2.375788e-01	 1.017065e+00	-2.771386e-01
 2.260400e-01	 1.019691e+00	-2.896298e-01
 2.857907e-01	 1.012283e+00	-1.319299e-01
 2.741571e-01	 1.015495e+00	-1.624840e-01
 2.625232e-01	 1.018565e+00	-1.912407e-01
 2.508912e-01	 1.021492e+00	-2.177154e-01
 2.392638e-01	 1.024278e+00	-2.409859e-01
 2.276431e-01	 1.026923e+00	-2.597258e-01
 2.878033e-01	 1.019411e+00	-6.937496e-02
 2.760878e-01	 1.022646e+00	-1.063567e-01
 2.643719e-01	 1.025738e+00	-1.411189e-01
 2.526581e-01	 1.028686e+00	-1.732840e-01
 2.409487e-01	 1.031491e+00	-2.020128e-01
 2.292462e-01	 1.034155e+00	-2.260397e-01
 2.898159e-01	 1.026540e+00	-7.373049e-03
 2.780185e-01	 1.029798e+00	-4.982611e-02
 2.662207e-01	 1.032911e+00	-8.946827e-02
 2.544249e-01	 1.035879e+00	-1.261410e-01
 2.426337e-01	 1.038704e+00	-1.591998e-01
 2.308493e-01	 1.041387e+00	-1.875507e-01
 2.918285e-01	 1.033669e+00	 5.471256e-02
 2.799492e-01	 1.036949e+00	 7.894576e-03
 2.680694e-01	 1.040084e+00	-3.539348e-02
 2.561918e-01	 1.043073e+00	-7.532095e-02
 2.443186e-01	 1.045918e+00	-1.115468e-01
 2.324525e-01	 1.048619e+00	-1.432564e-01
 2.244369e-01	 1.012459e+00	-3.167908e-01
 2.129889e-01	 1.014929e+00	-3.194737e-01
 2.015523e-01	 1.017262e+00	-3.217726e-01
 1.901292e-01	 1.019459e+00	-3.236199e-01
 1.787220e-01	 1.021521e+00	-3.247171e-01
 1.673326e-01	 1.023448e+00	-3.245718e-01
 2.260400e-01	 1.019691e+00	-2.896298e-01
 2.145103e-01	 1.022179e+00	-2.991103e-01
 2.029920e-01	 1.024528e+00	-3.078814e-01
 1.914873e-01	 1.026741e+00	-3.158237e-01
 1.799985e-01	 1.028817e+00	-3.225701e-01
 1.685278e-01	 1.030758e+00	-3.275458e-01
 2.276431e-01	 1.026923e+00	-2.597258e-01
 2.160316e-01	 1.029428e+00	-2.752272e-01
 2.044316e-01	 1.031795e+00	-2.898693e-01
 1.928454e-01	 1.034023e+00	-3.034528e-01
 1.812751e-01	 1.036114e+00	-3.155150e-01
 1.697231e-01	 1.038069e+00	-3.253711e-01
 2.292462e-01	 1.034155e+00	-2.260397e-01
 2.175530e-01	 1.036678e+00	-2.468077e-01
 2.058713e-01	 1.039061e+00	-2.667549e-01
 1.942034e-01	 1.041305e+00	-2.855747e-01
 1.825517e-01	 1.043410e+00	-3.026806e-01
 1.709183e-01	 1.045379e+00	-3.172502e-01
 2.308493e-01	 1.041387e+00	-1.875507e-01
 2.190743e-01	 1.043927e+00	-2.128521e-01
 2.073109e-01	 1.046327e+00	-2.375728e-01
 1.955615e-01	 1.048586e+00	-2.612708e-01
 1.838283e-01	 1.050707e+00	-2.832081e-01
 1.721135e-01	 1.052689e+00	-3.023967e-01
 2.324525e-01	 1.048619e+00	-1.432564e-01
 2.205957e-01	 1.051177e+00	-1.723774e-01
 2.087506e-01	 1.053593e+00	-2.013725e-01
 1.969196e-01	 1.055868e+00	-2.296362e-01
 1.851049e-01	 1.058003e+00	-2.562506e-01
 1.733088e-01	 1.060000e+00	-2.800340e-01
 1.673326e-01	 1.023448e+00	-3.245718e-01
 1.559633e-01	 1.025242e+00	-3.232620e-01
 1.446162e-01	 1.026904e+00	-3.214025e-01
 1.332933e-01	 1.028435e+00	-3.191245e-01
 1.219967e-01	 1.029836e+00	-3.165095e-01
 1.107283e-01	 1.031109e+00	-3.136261e-01
 1.685278e-01	 1.030758e+00	-3.275458e-01
 1.570774e-01	 1.032565e+00	-3.308383e-01
 1.456492e-01	 1.034239e+00	-3.331662e-01
 1.342454e-01	 1.035781e+00	-3.347058e-01
 1.228681e-01	 1.037192e+00	-3.355800e-01
 1.115192e-01	 1.038474e+00	-3.358962e-01
 1.697231e-01	 1.038069e+00	-3.253711e-01
 1.581914e-01	 1.039888e+00	-3.331179e-01
 1.466822e-01	 1.041574e+00	-3.395810e-01
 1.351975e-01	 1.043127e+00	-3.449587e-01
 1.237395e-01	 1.044548e+00	-3.493909e-01
 1.123101e-01	 1.045839e+00	-3.529987e-01
 1.709183e-01	 1.045379e+00	-3.172502e-01
 1.593054e-01	 1.047212e+00	-3.293788e-01
 1.477151e-01	 1.048909e+00	-3.399907e-01
 1.361496e-01	 1.050473e+00	-3.492827e-01
 1.246109e-01	 1.051904e+00	-3.573868e-01
 1.131010e-01	 1.053204e+00	-3.644129e-01
 1.721135e-01	 1.052689e+00	-3.023967e-01
 1.604194e-01	 1.054535e+00	-3.189082e-01
 1.487481e-01	 1.056244e+00	-3.337470e-01
 1.371017e-01	 1.057819e+00	-3.470842e-01
 1.254823e-01	 1.059260e+00	-3.590192e-01
 1.138919e-01	 1.060569e+00	-3.696246e-01
 1.733088e-01	 1.060000e+00	-2.800340e-01
 1.615335e-01	 1.061858e+00	-3.010018e-01
 1.497811e-01	 1.063579e+00	-3.202089e-01
 1.380538e-01	 1.065165e+00	-3.377763e-01
 1.263537e-01	 1.066616e+00	-3.537457e-01
 1.146828e-01	 1.067934e+00	-3.681259e-01
 1.107283e-01	 1.031109e+00	-3.136261e-01
 9.948996e-02	 1.032254e+00	-3.107431e-01
 8.828371e-02	 1.033272e+00	-3.079799e-01
 7.711134e-02	 1.034166e+00	-3.052722e-01
 6.597466e-02	 1.034936e+00	-3.026857e-01
 5.487545e-02	 1.035584e+00	-3.004464e-01
 1.115192e-01	 1.038474e+00	-3.358962e-01
 1.002006e-01	 1.039627e+00	-3.359559e-01
 8.891430e-02	 1.040653e+00	-3.358665e-01
 7.766213e-02	 1.041553e+00	-3.355360e-01
 6.644591e-02	 1.042329e+00	-3.350065e-01
 5.526742e-02	 1.042981e+00	-3.344859e-01
 1.123101e-01	 1.045839e+00	-3.529987e-01
 1.009112e-01	 1.047000e+00	-3.560842e-01
 8.954490e-02	 1.048033e+00	-3.587278e-01
 7.821293e-02	 1.048940e+00	-3.608115e-01
 6.691716e-02	 1.049721e+00	-3.623551e-01
 5.565938e-02	 1.050378e+00	-3.635500e-01
 1.131010e-01	 1.053204e+00	-3.644129e-01
 1.016219e-01	 1.054373e+00	-3.706372e-01
 9.017550e-02	 1.055414e+00	-3.761049e-01
 7.876372e-02	 1.056327e+00	-3.806721e-01
 6.738841e-02	 1.057114e+00	-3.843372e-01
 5.605135e-02	 1.057775e+00	-3.872760e-01
 1.138919e-01	 1.060569e+00	-3.696246e-01
 1.023325e-01	 1.061747e+00	-3.791310e-01
 9.080610e-02	 1.062794e+00	-3.875459e-01
 7.931452e-02	 1.063714e+00	-3.946990e-01
 6.785965e-02	 1.064506e+00	-4.005666e-01
 5.644332e-02	 1.065172e+00	-4.053088e-01
 1.146828e-01	 1.067934e+00	-3.681259e-01
 1.030432e-01	 1.069120e+00	-3.810887e-01
 9.143669e-02	 1.070175e+00	-3.926062e-01
 7.986531e-02	 1.071101e+00	-4.024804e-01
 6.833090e-02	 1.071898e+00	-4.106645e-01
 5.683529e-02	 1.072569e+00	-4.173014e-01
 5.487545e-02	 1.035584e+00	-3.004464e-01
 4.381542e-02	 1.036111e+00	-2.989011e-01
 3.279624e-02	 1.036518e+00	-2.977971e-01
 2.181956e-02	 1.036807e+00	-2.967988e-01
 1.088696e-02	 1.036980e+00	-2.958547e-01
-5.959188e-318	 1.037038e+00	-2.951122e-01
 5.526742e-02	 1.042981e+00	-3.344859e-01
 4.412838e-02	 1.043512e+00	-3.343352e-01
 3.303050e-02	 1.043922e+00	-3.343166e-01
 2.197541e-02	 1.044213e+00	-3.340909e-01
 1.096473e-02	 1.044387e+00	-3.336161e-01
-6.927275e-318	 1.044446e+00	-3.330179e-01
 5.565938e-02	 1.050378e+00	-3.635500e-01
 4.444135e-02	 1.050913e+00	-3.647836e-01
 3.326476e-02	 1.051326e+00	-3.658447e-01
 2.213127e-02	 1.051619e+00	-3.663936e-01
 1.104249e-02	 1.051794e+00	-3.664008e-01
-7.453361e-318	 1.051854e+00	-3.659732e-01
 5.605135e-02	 1.057775e+00	-3.872760e-01
 4.475432e-02	 1.058313e+00	-3.899091e-01
 3.349902e-02	 1.058729e+00	-3.920609e-01
 2.228712e-02	 1.059025e+00	-3.933929e-01
 1.112026e-02	 1.059201e+00	-3.938899e-01
-7.566635e-318	 1.059262e+00	-3.936443e-01
 5.644332e-02	 1.065172e+00	-4.053088e-01
 4.506728e-02	 1.065714e+00	-4.093833e-01
 3.373328e-02	 1.066133e+00	-4.126537e-01
 2.244298e-02	 1.066431e+00	-4.147842e-01
 1.119802e-02	 1.066608e+00	-4.157751e-01
-7.296287e-318	 1.066670e+00	-4.157074e-01
 5.683529e-02	 1.072569e+00	-4.173014e-01
 4.538025e-02	 1.073115e+00	-4.228854e-01
 3.396754e-02	 1.073537e+00	-4.273201e-01
 2.259883e-02	 1.073836e+00	-4.302722e-01
 1.127578e-02	 1.074015e+00	-4.317580e-01
-6.671512e-318	 1.074078e+00	-4.318484e-01
 1.074074e+00	 0.000000e+00	 2.623950e+01
 1.074015e+00	 1.127578e-02	 2.623337e+01
 1.073836e+00	 2.259883e-02	 2.621730e+01
 1.073537e+00	 3.396754e-02	 2.619069e+01
 1.073115e+00	 4.538025e-02	 2.615305e+01
 1.072569e+00	 5.683529e-02	 2.610402e+01
 1.081481e+00	 0.000000e+00	 2.586365e+01
 1.081422e+00	 1.135355e-02	 2.585767e+01
 1.081242e+00	 2.275468e-02	 2.584223e+01
 1.080941e+00	 3.420179e-02	 2.581669e+01
 1.080516e+00	 4.569322e-02	 2.578055e+01
 1.079966e+00	 5.722725e-02	 2.573341e+01
 1.088889e+00	 0.000000e+00	 2.550007e+01
 1.088829e+00	 1.143131e-02	 2.549425e+01
 1.088648e+00	 2.291054e-02	 2.547944e+01
 1.088344e+00	 3.443605e-02	 2.545496e+01
 1.087917e+00	 4.600619e-02	 2.542029e+01
 1.087363e+00	 5.761922e-02	 2.537502e+01
 1.096296e+00	 0.000000e+00	 2.514804e+01
 1.096236e+00	 1.150908e-02	 2.514238e+01
 1.096054e+00	 2.306639e-02	 2.512817e+01
 1.095748e+00	 3.467031e-02	 2.510473e+01
 1.095317e+00	 4.631915e-02	 2.507151e+01
 1.094760e+00	 5.801119e-02	 2.502808e+01
 1.103704e+00	 0.000000e+00	 2.480686e+01
 1.103643e+00	 1.158684e-02	 2.480133e+01
 1.103459e+00	 2.322225e-02	 2.478771e+01
 1.103152e+00	 3.490457e-02	 2.476528e+01
 1.102718e+00	 4.663212e-02	 2.473347e+01
 1.102157e+00	 5.840316e-02	 2.469184e+01
 1.111111e+00	 0.000000e+00	 2.447585e+01
 1.111050e+00	 1.166460e-02	 2.447043e+01
 1.110865e+00	 2.337810e-02	 2.445736e+01
 1.110555e+00	 3.513883e-02	 2.443590e+01
 1.110119e+00	 4.694509e-02	 2.440545e+01
 1.109554e+00	 5.879512e-02	 2.436557e+01
 1.072569e+00	 5.683529e-02	 2.610402e+01
 1.071898e+00	 6.833090e-02	 2.604385e+01
 1.071101e+00	 7.986531e-02	 2.597280e+01
 1.070175e+00	 9.143669e-02	 2.589061e+01
 1.069120e+00	 1.030432e-01	 2.579714e+01
 1.067934e+00	 1.146828e-01	 2.569235e+01
 1.079966e+00	 5.722725e-02	 2.573341e+01
 1.079291e+00	 6.880215e-02	 2.567557e+01
 1.078488e+00	 8.041611e-02	 2.560728e+01
 1.077555e+00	 9.206729e-02	 2.552830e+01
 1.076493e+00	 1.037538e-01	 2.543846e+01
 1.075299e+00	 1.154737e-01	 2.533772e+01
 1.087363e+00	 5.761922e-02	 2.537502e+01
 1.086683e+00	 6.927340e-02	 2.531947e+01
 1.085874e+00	 8.096690e-02	 2.525393e+01
 1.084936e+00	 9.269789e-02	 2.517811e+01
 1.083866e+00	 1.044645e-01	 2.509186e+01
 1.082664e+00	 1.162647e-01	 2.499512e+01
 1.094760e+00	 5.801119e-02	 2.502808e+01
 1.094076e+00	 6.974464e-02	 2.497478e+01
 1.093261e+00	 8.151770e-02	 2.491193e+01
 1.092317e+00	 9.332849e-02	 2.483924e+01
 1.091240e+00	 1.051751e-01	 2.475652e+01
 1.090029e+00	 1.170556e-01	 2.466370e+01
 1.102157e+00	 5.840316e-02	 2.469184e+01
 1.101468e+00	 7.021589e-02	 2.464075e+01
 1.100648e+00	 8.206849e-02	 2.458054e+01
 1.099697e+00	 9.395909e-02	 2.451090e+01
 1.098613e+00	 1.058857e-01	 2.443163e+01
 1.097394e+00	 1.178465e-01	 2.434265e+01
 1.109554e+00	 5.879512e-02	 2.436557e+01
 1.108860e+00	 7.068714e-02	 2.431663e+01
 1.108035e+00	 8.261929e-02	 2.425899e+01
 1.107078e+00	 9.458968e-02	 2.419233e+01
 1.105986e+00	 1.065964e-01	 2.411643e+01
 1.104759e+00	 1.186374e-01	 2.403118e+01
 1.067934e+00	 1.146828e-01	 2.569235e+01
 1.066616e+00	 1.263537e-01	 2.557622e+01
 1.065165e+00	 1.380538e-01	 2.544871e+01
 1.063579e+00	 1.497811e-01	 2.530985e+01
 1.061858e+00	 1.615335e-01	 2.515973e+01
 1.060000e+00	 1.733088e-01	 2.499851e+01
 1.075299e+00	 1.154737e-01	 2.533772e+01
 1.073972e+00	 1.272251e-01	 2.522605e+01
 1.072511e+00	 1.390059e-01	 2.510342e+01
 1.070914e+00	 1.508141e-01	 2.496985e+01
 1.069181e+00	 1.626475e-01	 2.482545e+01
 1.067310e+00	 1.745040e-01	 2.467038e+01
 1.082664e+00	 1.162647e-01	 2.499512e+01
 1.081328e+00	 1.280965e-01	 2.488784e+01
 1.079857e+00	 1.399580e-01	 2.476999e+01
 1.078249e+00	 1.518470e-01	 2.464161e+01
 1.076504e+00	 1.637615e-01	 2.450278e+01
 1.074620e+00	 1.756992e-01	 2.435366e+01
 1.090029e+00	 1.170556e-01	 2.466370e+01
 1.088684e+00	 1.289679e-01	 2.456074e+01
 1.087203e+00	 1.409101e-01	 2.444760e+01
 1.085584e+00	 1.528800e-01	 2.432430e+01
 1.083827e+00	 1.648755e-01	 2.419094e+01
 1.081931e+00	 1.768945e-01	 2.404765e+01
 1.097394e+00	 1.178465e-01	 2.434265e+01
 1.096040e+00	 1.298393e-01	 2.424393e+01
 1.094549e+00	 1.418622e-01	 2.413542e+01
 1.092919e+00	 1.539130e-01	 2.401715e+01
 1.091150e+00	 1.659895e-01	 2.388917e+01
 1.089241e+00	 1.780897e-01	 2.375165e+01
 1.104759e+00	 1.186374e-01	 2.403118e+01
 1.103396e+00	 1.307107e-01	 2.393660e+01
 1.101895e+00	 1.428143e-01	 2.383267e+01
 1.100254e+00	 1.549460e-01	 2.371936e+01
 1.098474e+00	 1.671036e-01	 2.359676e+01
 1.096551e+00	 1.792849e-01	 2.346498e+01
 1.060000e+00	 1.733088e-01	 2.499851e+01
 1.058003e+00	 1.851049e-01	 2.482604e+01
 1.055868e+00	 1.969196e-01	 2.464252e+01
 1.053593e+00	 2.087506e-01	 2.444869e+01
 1.051177e+00	 2.205957e-01	 2.424530e+01
 1.048619e+00	 2.324525e-01	 2.403313e+01
 1.067310e+00	 1.745040e-01	 2.467038e+01
 1.065300e+00	 1.863815e-01	 2.450445e+01
 1.063150e+00	 1.982776e-01	 2.432789e+01
 1.060859e+00	 2.101903e-01	 2.414143e+01
 1.058426e+00	 2.221170e-01	 2.394588e+01
 1.055850e+00	 2.340556e-01	 2.374200e+01
 1.074620e+00	 1.756992e-01	 2.435366e+01
 1.072597e+00	 1.876581e-01	 2.419406e+01
 1.070432e+00	 1.996357e-01	 2.402414e+01
 1.068125e+00	 2.116299e-01	 2.384470e+01
 1.065676e+00	 2.236384e-01	 2.365653e+01
 1.063082e+00	 2.356587e-01	 2.346044e+01
 1.081931e+00	 1.768945e-01	 2.404765e+01
 1.079893e+00	 1.889346e-01	 2.389419e+01
 1.077714e+00	 2.009938e-01	 2.373070e+01
 1.075392e+00	 2.130696e-01	 2.355797e+01
 1.072925e+00	 2.251597e-01	 2.337680e+01
 1.070314e+00	 2.372618e-01	 2.318800e+01
 1.089241e+00	 1.780897e-01	 2.375165e+01
 1.087190e+00	 1.902112e-01	 2.360423e+01
 1.084996e+00	 2.023518e-01	 2.344699e+01
 1.082658e+00	 2.145092e-01	 2.328072e+01
 1.080175e+00	 2.266811e-01	 2.310622e+01
 1.077546e+00	 2.388649e-01	 2.292430e+01
 1.096551e+00	 1.792849e-01	 2.346498e+01
 1.094486e+00	 1.914878e-01	 2.332356e+01
 1.092278e+00	 2.037099e-01	 2.317245e+01
 1.089924e+00	 2.159489e-01	 2.301245e+01
 1.087424e+00	 2.282024e-01	 2.284434e+01
 1.084778e+00	 2.404681e-01	 2.266892e+01
 1.048619e+00	 2.324525e-01	 2.403313e+01
 1.045918e+00	 2.443186e-01	 2.381006e+01
 1.043073e+00	 2.561918e-01	 2.357401e+01
 1.040084e+00	 2.680694e-01	 2.332575e+01
 1.036949e+00	 2.799492e-01	 2.306599e+01
 1.033669e+00	 2.918285e-01	 2.279544e+01
 1.055850e+00	 2.340556e-01	 2.374200e+01
 1.053131e+00	 2.460036e-01	 2.352769e+01
 1.050266e+00	 2.579586e-01	 2.330082e+01
 1.047257e+00	 2.699182e-01	 2.306216e+01
 1.044101e+00	 2.818799e-01	 2.281247e+01
 1.040798e+00	 2.938411e-01	 2.255246e+01
 1.063082e+00	 2.356587e-01	 2.346044e+01
 1.060344e+00	 2.476885e-01	 2.325430e+01
 1.057460e+00	 2.597254e-01	 2.303604e+01
 1.054430e+00	 2.717669e-01	 2.280649e+01
 1.051252e+00	 2.838105e-01	 2.256646e+01
 1.047926e+00	 2.958537e-01	 2.231671e+01
 1.070314e+00	 2.372618e-01	 2.318800e+01
 1.067557e+00	 2.493735e-01	 2.298950e+01
 1.064654e+00	 2.614923e-01	 2.277931e+01
 1.061603e+00	 2.736157e-01	 2.255835e+01
 1.058403e+00	 2.857412e-01	 2.232752e+01
 1.055055e+00	 2.978663e-01	 2.208769e+01
 1.077546e+00	 2.388649e-01	 2.292430e+01
 1.074770e+00	 2.510584e-01	 2.273292e+01
 1.071847e+00	 2.632591e-01	 2.253026e+01
 1.068776e+00	 2.754644e-01	 2.231736e+01
 1.065555e+00	 2.876719e-01	 2.209524e+01
 1.062184e+00	 2.998789e-01	 2.186488e+01
 1.084778e+00	 2.404681e-01	 2.266892e+01
 1.081984e+00	 2.527434e-01	 2.248421e+01
 1.079041e+00	 2.650260e-01	 2.228854e+01
 1.075949e+00	 2.773132e-01	 2.208315e+01
 1.072706e+00	 2.896026e-01	 2.186920e+01
 1.069313e+00	 3.018915e-01	 2.164782e+01
 1.033669e+00	 2.918285e-01	 2.279544e+01
 1.030242e+00	 3.037049e-01	 2.251632e+01
 1.026668e+00	 3.155758e-01	 2.223150e+01
 1.022946e+00	 3.274386e-01	 2.194255e+01
 1.019076e+00	 3.392907e-01	 2.165097e+01
 1.015058e+00	 3.511296e-01	 2.135818e+01
 1.040798e+00	 2.938411e-01	 2.255246e+01
 1.037347e+00	 3.057994e-01	 2.228412e+01
 1.033748e+00	 3.177522e-01	 2.201008e+01
 1.030001e+00	 3.296968e-01	 2.173195e+01
 1.026105e+00	 3.416307e-01	 2.145122e+01
 1.022059e+00	 3.535512e-01	 2.116927e+01
 1.047926e+00	 2.958537e-01	 2.231671e+01
 1.044452e+00	 3.078939e-01	 2.205889e+01
 1.040829e+00	 3.199286e-01	 2.179526e+01
 1.037056e+00	 3.319550e-01	 2.152742e+01
 1.033133e+00	 3.439706e-01	 2.125684e+01
 1.029059e+00	 3.559727e-01	 2.098486e+01
 1.055055e+00	 2.978663e-01	 2.208769e+01
 1.051557e+00	 3.099884e-01	 2.184005e+01
 1.047909e+00	 3.221049e-01	 2.158637e+01
 1.044111e+00	 3.342132e-01	 2.132825e+01
 1.040161e+00	 3.463106e-01	 2.106712e+01
 1.036059e+00	 3.583943e-01	 2.080427e+01
 1.062184e+00	 2.998789e-01	 2.186488e+01
 1.058662e+00	 3.120830e-01	 2.162700e+01
 1.054990e+00	 3.242813e-01	 2.138279e+01
 1.051165e+00	 3.364714e-01	 2.113379e+01
 1.047189e+00	 3.486505e-01	 2.088140e+01
 1.043060e+00	 3.608159e-01	 2.062684e+01
 1.069313e+00	 3.018915e-01	 2.164782e+01
 1.065768e+00	 3.141775e-01	 2.141921e+01
 1.062070e+00	 3.264577e-01	 2.118390e+01
 1.058220e+00	 3.387296e-01	 2.094340e+01
 1.054217e+00	 3.509904e-01	 2.069903e+01
 1.050060e+00	 3.632375e-01	 2.045193e+01
 1.015058e+00	 3.511296e-01	 2.135818e+01
 1.010891e+00	 3.629524e-01	 2.104573e+01
 1.006575e+00	 3.747566e-01	 2.069758e+01
 1.002109e+00	 3.865395e-01	 2.034779e+01
 9.974937e-01	 3.982983e-01	 2.000371e+01
 9.927287e-01	 4.100303e-01	 1.966293e+01
 1.022059e+00	 3.535512e-01	 2.116927e+01
 1.017863e+00	 3.654555e-01	 2.086621e+01
 1.013517e+00	 3.773412e-01	 2.052969e+01
 1.009020e+00	 3.892053e-01	 2.019486e+01
 1.004373e+00	 4.010452e-01	 1.986387e+01
 9.995751e-01	 4.128581e-01	 1.953434e+01
 1.029059e+00	 3.559727e-01	 2.098486e+01
 1.024834e+00	 3.679587e-01	 2.069023e+01
 1.020458e+00	 3.799257e-01	 2.036677e+01
 1.015931e+00	 3.918711e-01	 2.004624e+01
 1.011252e+00	 4.037920e-01	 1.972768e+01
 1.006422e+00	 4.156859e-01	 1.940879e+01
 1.036059e+00	 3.583943e-01	 2.080427e+01
 1.031806e+00	 3.704618e-01	 2.051717e+01
 1.027400e+00	 3.825102e-01	 2.020831e+01
 1.022842e+00	 3.945369e-01	 1.990149e+01
 1.018131e+00	 4.065389e-01	 1.959482e+01
 1.013268e+00	 4.185137e-01	 1.928606e+01
 1.043060e+00	 3.608159e-01	 2.062684e+01
 1.038778e+00	 3.729649e-01	 2.034758e+01
 1.034342e+00	 3.850947e-01	 2.005378e+01
 1.029753e+00	 3.972026e-01	 1.976017e+01
 1.025011e+00	 4.092858e-01	 1.946496e+01
 1.020114e+00	 4.213415e-01	 1.916598e+01
 1.050060e+00	 3.632375e-01	 2.045193e+01
 1.045749e+00	 3.754680e-01	 2.018193e+01
 1.041284e+00	 3.876793e-01	 1.990267e+01
 1.036664e+00	 3.998684e-01	 1.962185e+01
 1.031890e+00	 4.120327e-01	 1.933775e+01
 1.026961e+00	 4.241693e-01	 1.904835e+01
 9.927287e-01	 4.100303e-01	 1.966293e+01
 9.878141e-01	 4.217327e-01	 1.932004e+01
 9.827497e-01	 4.334029e-01	 1.897041e+01
 9.775358e-01	 4.450380e-01	 1.861248e+01
 9.721725e-01	 4.566352e-01	 1.824456e+01
 9.666600e-01	 4.681917e-01	 1.786485e+01
 9.995751e-01	 4.128581e-01	 1.953434e+01
 9.946266e-01	 4.246412e-01	 1.920216e+01
 9.895273e-01	 4.363919e-01	 1.886391e+01
 9.842775e-01	 4.481072e-01	 1.851796e+01
 9.788772e-01	 4.597844e-01	 1.816255e+01
 9.733267e-01	 4.714206e-01	 1.779580e+01
 1.006422e+00	 4.156859e-01	 1.940879e+01
 1.001439e+00	 4.275497e-01	 1.908673e+01
 9.963049e-01	 4.393809e-01	 1.875933e+01
 9.910191e-01	 4.511764e-01	 1.842488e+01
 9.855818e-01	 4.629336e-01	 1.808158e+01
 9.799933e-01	 4.746496e-01	 1.772745e+01
 1.013268e+00	 4.185137e-01	 1.928606e+01
 1.008252e+00	 4.304582e-01	 1.897367e+01
 1.003082e+00	 4.423698e-01	 1.865666e+01
 9.977607e-01	 4.542456e-01	 1.833328e+01
 9.922865e-01	 4.660828e-01	 1.800163e+01
 9.866599e-01	 4.778785e-01	 1.765968e+01
 1.020114e+00	 4.213415e-01	 1.916598e+01
 1.015064e+00	 4.333667e-01	 1.886292e+01
 1.009860e+00	 4.453588e-01	 1.855591e+01
 1.004502e+00	 4.573149e-01	 1.824314e+01
 9.989911e-01	 4.692320e-01	 1.792266e+01
 9.933265e-01	 4.811074e-01	 1.759235e+01
 1.026961e+00	 4.241693e-01	 1.904835e+01
 1.021877e+00	 4.362752e-01	 1.875440e+01
 1.016638e+00	 4.483478e-01	 1.845706e+01
 1.011244e+00	 4.603841e-01	 1.815448e+01
 1.005696e+00	 4.723812e-01	 1.784463e+01
 9.999931e-01	 4.843363e-01	 1.752531e+01
 9.666600e-01	 4.681917e-01	 1.786485e+01
 9.609986e-01	 4.797049e-01	 1.748118e+01
 9.551887e-01	 4.911717e-01	 1.710060e+01
 9.492306e-01	 5.025896e-01	 1.671994e+01
 9.431250e-01	 5.139556e-01	 1.633590e+01
 9.368723e-01	 5.252670e-01	 1.594504e+01
 9.733267e-01	 4.714206e-01	 1.779580e+01
 9.676262e-01	 4.830132e-01	 1.742522e+01
 9.617762e-01	 4.945591e-01	 1.705754e+01
 9.557771e-01	 5.060557e-01	 1.668949e+01
 9.496293e-01	 5.175001e-01	 1.631765e+01
 9.433335e-01	 5.288895e-01	 1.593849e+01
 9.799933e-01	 4.746496e-01	 1.772745e+01
 9.742538e-01	 4.863215e-01	 1.736964e+01
 9.683637e-01	 4.979465e-01	 1.701448e+01
 9.623235e-01	 5.095219e-01	 1.665861e+01
 9.561336e-01	 5.210447e-01	 1.629852e+01
 9.497947e-01	 5.325120e-01	 1.593054e+01
 9.866599e-01	 4.778785e-01	 1.765968e+01
 9.808814e-01	 4.896298e-01	 1.731419e+01
 9.749512e-01	 5.013339e-01	 1.697112e+01
 9.688699e-01	 5.129880e-01	 1.662701e+01
 9.626379e-01	 5.245892e-01	 1.627825e+01
 9.562559e-01	 5.361346e-01	 1.592104e+01
 9.933265e-01	 4.811074e-01	 1.759235e+01
 9.875089e-01	 4.929381e-01	 1.725864e+01
 9.815387e-01	 5.047213e-01	 1.692717e+01
 9.754163e-01	 5.164541e-01	 1.659439e+01
 9.691422e-01	 5.281337e-01	 1.625656e+01
 9.627171e-01	 5.397571e-01	 1.590980e+01
 9.999931e-01	 4.843363e-01	 1.752531e+01
 9.941365e-01	 4.962464e-01	 1.720274e+01
 9.881262e-01	 5.081087e-01	 1.688233e+01
 9.819627e-01	 5.199203e-01	 1.656042e+01
 9.756465e-01	 5.316782e-01	 1.623319e+01
 9.691782e-01	 5.433796e-01	 1.589665e+01
 9.368723e-01	 5.252670e-01	 1.594504e+01
 9.304732e-01	 5.365209e-01	 1.555241e+01
 9.239284e-01	 5.477147e-01	 1.516326e+01
 9.172387e-01	 5.588454e-01	 1.477438e+01
 9.104050e-01	 5.699105e-01	 1.438260e+01
 9.034280e-01	 5.809070e-01	 1.398476e+01
 9.433335e-01	 5.288895e-01	 1.593849e+01
 9.368903e-01	 5.402211e-01	 1.555736e+01
 9.303003e-01	 5.514920e-01	 1.517988e+01
 9.235645e-01	 5.626996e-01	 1.480267e+01
 9.166836e-01	 5.738409e-01	 1.442242e+01
 9.096586e-01	 5.849132e-01	 1.403581e+01
 9.497947e-01	 5.325120e-01	 1.593054e+01
 9.433073e-01	 5.439212e-01	 1.556044e+01
 9.366723e-01	 5.552694e-01	 1.519419e+01
 9.298903e-01	 5.665537e-01	 1.482829e+01
 9.229623e-01	 5.777713e-01	 1.445923e+01
 9.158891e-01	 5.889195e-01	 1.408353e+01
 9.562559e-01	 5.361346e-01	 1.592104e+01
 9.497244e-01	 5.476214e-01	 1.556157e+01
 9.430442e-01	 5.590467e-01	 1.520620e+01
 9.362161e-01	 5.704078e-01	 1.485124e+01
 9.292409e-01	 5.817017e-01	 1.449302e+01
 9.221196e-01	 5.929257e-01	 1.412785e+01
 9.627171e-01	 5.397571e-01	 1.590980e+01
 9.561414e-01	 5.513215e-01	 1.556068e+01
 9.494161e-01	 5.628241e-01	 1.521587e+01
 9.425419e-01	 5.742619e-01	 1.487153e+01
 9.355196e-01	 5.856321e-01	 1.452377e+01
 9.283502e-01	 5.969320e-01	 1.416871e+01
 9.691782e-01	 5.433796e-01	 1.589665e+01
 9.625585e-01	 5.550217e-01	 1.555766e+01
 9.557880e-01	 5.666014e-01	 1.522316e+01
 9.488676e-01	 5.781160e-01	 1.488911e+01
 9.417982e-01	 5.895626e-01	 1.455142e+01
 9.345807e-01	 6.009383e-01	 1.420600e+01
 9.034280e-01	 5.809070e-01	 1.398476e+01
 8.963089e-01	 5.918323e-01	 1.358694e+01
 8.890487e-01	 6.026836e-01	 1.319546e+01
 8.816485e-01	 6.134583e-01	 1.280764e+01
 8.741094e-01	 6.241537e-01	 1.242098e+01
 8.664329e-01	 6.347671e-01	 1.203317e+01
 9.096586e-01	 5.849132e-01	 1.403581e+01
 9.024904e-01	 5.959139e-01	 1.364906e+01
 8.951801e-01	 6.068400e-01	 1.326860e+01
 8.877288e-01	 6.176890e-01	 1.289157e+01
 8.801378e-01	 6.284582e-01	 1.251526e+01
 8.724083e-01	 6.391448e-01	 1.213715e+01
 9.158891e-01	 5.889195e-01	 1.408353e+01
 9.086718e-01	 5.999955e-01	 1.370751e+01
 9.013114e-01	 6.109965e-01	 1.333772e+01
 8.938091e-01	 6.219198e-01	 1.297110e+01
 8.861661e-01	 6.327627e-01	 1.260474e+01
 8.783837e-01	 6.435225e-01	 1.223593e+01
 9.221196e-01	 5.929257e-01	 1.412785e+01
 9.148532e-01	 6.040771e-01	 1.376218e+01
 9.074428e-01	 6.151529e-01	 1.340266e+01
 8.998895e-01	 6.261505e-01	 1.304606e+01
 8.921945e-01	 6.370672e-01	 1.268928e+01
 8.843591e-01	 6.479002e-01	 1.232943e+01
 9.283502e-01	 5.969320e-01	 1.416871e+01
 9.210347e-01	 6.081587e-01	 1.381294e+01
 9.135742e-01	 6.193094e-01	 1.346327e+01
 9.059698e-01	 6.303813e-01	 1.311629e+01
 8.982228e-01	 6.413717e-01	 1.276874e+01
 8.903345e-01	 6.522779e-01	 1.241756e+01
 9.345807e-01	 6.009383e-01	 1.420600e+01
 9.272161e-01	 6.122403e-01	 1.385962e+01
 9.197055e-01	 6.234658e-01	 1.351934e+01
 9.120501e-01	 6.346120e-01	 1.318160e+01
 9.042512e-01	 6.456762e-01	 1.284295e+01
 8.963099e-01	 6.566556e-01	 1.250018e+01
 8.664329e-01	 6.347671e-01	 1.203317e+01
 8.586201e-01	 6.452958e-01	 1.164683e+01
 8.506724e-01	 6.557374e-01	 1.126514e+01
 8.425914e-01	 6.660893e-01	 1.088706e+01
 8.343785e-01	 6.763488e-01	 1.051192e+01
 8.260353e-01	 6.865135e-01	 1.013941e+01
 8.724083e-01	 6.391448e-01	 1.213715e+01
 8.645416e-01	 6.497462e-01	 1.176000e+01
 8.565391e-01	 6.602598e-01	 1.138725e+01
 8.484023e-01	 6.706830e-01	 1.101786e+01
 8.401328e-01	 6.810133e-01	 1.065113e+01
 8.317321e-01	 6.912481e-01	 1.028678e+01
 8.783837e-01	 6.435225e-01	 1.223593e+01
 8.704631e-01	 6.541965e-01	 1.186764e+01
 8.624058e-01	 6.647821e-01	 1.150362e+01
 8.542133e-01	 6.752767e-01	 1.114274e+01
 8.458871e-01	 6.856777e-01	 1.078427e+01
 8.374289e-01	 6.959827e-01	 1.042789e+01
 8.843591e-01	 6.479002e-01	 1.232943e+01
 8.763846e-01	 6.586468e-01	 1.196974e+01
 8.682725e-01	 6.693044e-01	 1.161424e+01
 8.600243e-01	 6.798704e-01	 1.126172e+01
 8.516415e-01	 6.903422e-01	 1.091136e+01
 8.431257e-01	 7.007172e-01	 1.056274e+01
 8.903345e-01	 6.522779e-01	 1.241756e+01
 8.823061e-01	 6.630971e-01	 1.206623e+01
 8.741392e-01	 6.738267e-01	 1.171911e+01
 8.658353e-01	 6.844641e-01	 1.137483e+01
 8.573958e-01	 6.950067e-01	 1.103242e+01
 8.488225e-01	 7.054518e-01	 1.069133e+01
 8.963099e-01	 6.566556e-01	 1.250018e+01
 8.882276e-01	 6.675474e-01	 1.215706e+01
 8.800059e-01	 6.783491e-01	 1.181819e+01
 8.716462e-01	 6.890578e-01	 1.148203e+01
 8.631502e-01	 6.996711e-01	 1.114741e+01
 8.545193e-01	 7.101864e-01	 1.081360e+01
 8.260353e-01	 6.865135e-01	 1.013941e+01
 8.175635e-01	 6.965810e-01	 9.770541e+00
 8.089648e-01	 7.065487e-01	 9.407016e+00
 8.002409e-01	 7.164144e-01	 9.050280e+00
 7.913937e-01	 7.261757e-01	 8.702326e+00
 7.824251e-01	 7.358302e-01	 8.365728e+00
 8.317321e-01	 6.912481e-01	 1.028678e+01
 8.232019e-01	 7.013850e-01	 9.925938e+00
 8.145438e-01	 7.114215e-01	 9.570098e+00
 8.057598e-01	 7.213552e-01	 9.220215e+00
 7.968516e-01	 7.311838e-01	 8.877797e+00
 7.878211e-01	 7.409049e-01	 8.544934e+00
 8.374289e-01	 6.959827e-01	 1.042789e+01
 8.288402e-01	 7.061890e-01	 1.007474e+01
 8.201229e-01	 7.162942e-01	 9.726059e+00
 8.112787e-01	 7.262960e-01	 9.382393e+00
 8.023095e-01	 7.361919e-01	 9.044832e+00
 7.932171e-01	 7.459796e-01	 8.717128e+00
 8.431257e-01	 7.007172e-01	 1.056274e+01
 8.344786e-01	 7.109930e-01	 1.021694e+01
 8.257020e-01	 7.211670e-01	 9.874929e+00
 8.167976e-01	 7.312368e-01	 9.536914e+00
 8.077674e-01	 7.412000e-01	 9.203651e+00
 7.986132e-01	 7.510543e-01	 8.883472e+00
 8.488225e-01	 7.054518e-01	 1.069133e+01
 8.401170e-01	 7.157970e-01	 1.035251e+01
 8.312810e-01	 7.260397e-01	 1.001672e+01
 8.223165e-01	 7.361776e-01	 9.683862e+00
 8.132252e-01	 7.462081e-01	 9.355594e+00
 8.040092e-01	 7.561290e-01	 9.042804e+00
 8.545193e-01	 7.101864e-01	 1.081360e+01
 8.457553e-01	 7.206010e-01	 1.048142e+01
 8.368601e-01	 7.309125e-01	 1.015142e+01
 8.278354e-01	 7.411184e-01	 9.823301e+00
 8.186831e-01	 7.512162e-01	 9.500570e+00
 8.094052e-01	 7.612037e-01	 9.193925e+00
 7.824251e-01	 7.358302e-01	 8.365728e+00
 7.733369e-01	 7.453758e-01	 8.027005e+00
 7.641313e-01	 7.548102e-01	 7.684993e+00
 7.548102e-01	 7.641313e-01	 7.348067e+00
 7.453758e-01	 7.733369e-01	 7.022169e+00
 7.358302e-01	 7.824251e-01	 6.713371e+00
 7.878211e-01	 7.409049e-01	 8.544934e+00
 7.786703e-01	 7.505163e-01	 8.213574e+00
 7.694012e-01	 7.600158e-01	 7.878127e+00
 7.600158e-01	 7.694012e-01	 7.545555e+00
 7.505163e-01	 7.786703e-01	 7.222689e+00
 7.409049e-01	 7.878211e-01	 6.916175e+00
 7.932171e-01	 7.459796e-01	 8.717128e+00
 7.840036e-01	 7.556569e-01	 8.394144e+00
 7.746710e-01	 7.652214e-01	 8.064448e+00
 7.652214e-01	 7.746710e-01	 7.735828e+00
 7.556569e-01	 7.840036e-01	 7.415959e+00
 7.459796e-01	 7.932171e-01	 7.112345e+00
 7.986132e-01	 7.510543e-01	 8.883472e+00
 7.893370e-01	 7.607974e-01	 8.567723e+00
 7.799409e-01	 7.704270e-01	 8.243067e+00
 7.704270e-01	 7.799409e-01	 7.918078e+00
 7.607974e-01	 7.893370e-01	 7.601229e+00
 7.510543e-01	 7.986132e-01	 7.300841e+00
 8.040092e-01	 7.561290e-01	 9.042804e+00
 7.946704e-01	 7.659379e-01	 8.733272e+00
 7.852108e-01	 7.756326e-01	 8.413046e+00
 7.756326e-01	 7.852108e-01	 8.091444e+00
 7.659379e-01	 7.946704e-01	 7.777699e+00
 7.561290e-01	 8.040092e-01	 7.480900e+00
 8.094052e-01	 7.612037e-01	 9.193925e+00
 8.000037e-01	 7.710784e-01	 8.889711e+00
 7.904807e-01	 7.808382e-01	 8.573402e+00
 7.808382e-01	 7.904807e-01	 8.255020e+00
 7.710784e-01	 8.000037e-01	 7.944517e+00
 7.612037e-01	 8.094052e-01	 7.651711e+00
 7.358302e-01	 7.824251e-01	 6.713371e+00
 7.261757e-01	 7.913937e-01	 6.414830e+00
 7.164144e-01	 8.002409e-01	 6.117111e+00
 7.065487e-01	 8.089648e-01	 5.823326e+00
 6.965810e-01	 8.175635e-01	 5.535855e+00
 6.865135e-01	 8.260353e-01	 5.256341e+00
 7.409049e-01	 7.878211e-01	 6.916175e+00
 7.311838e-01	 7.968516e-01	 6.619548e+00
 7.213552e-01	 8.057598e-01	 6.324329e+00
 7.114215e-01	 8.145438e-01	 6.033264e+00
 7.013850e-01	 8.232019e-01	 5.748325e+00
 6.912481e-01	 8.317321e-01	 5.470707e+00
 7.459796e-01	 7.932171e-01	 7.112345e+00
 7.361919e-01	 8.023095e-01	 6.817964e+00
 7.262960e-01	 8.112787e-01	 6.525069e+00
 7.162942e-01	 8.201229e-01	 6.236486e+00
 7.061890e-01	 8.288402e-01	 5.953806e+00
 6.959827e-01	 8.374289e-01	 5.677805e+00
 7.510543e-01	 7.986132e-01	 7.300841e+00
 7.412000e-01	 8.077674e-01	 7.009496e+00
 7.312368e-01	 8.167976e-01	 6.718766e+00
 7.211670e-01	 8.257020e-01	 6.432446e+00
 7.109930e-01	 8.344786e-01	 6.151780e+00
 7.007172e-01	 8.431257e-01	 5.877153e+00
 7.561290e-01	 8.040092e-01	 7.480900e+00
 7.462081e-01	 8.132252e-01	 7.193210e+00
 7.361776e-01	 8.223165e-01	 6.904817e+00
 7.260397e-01	 8.312810e-01	 6.620562e+00
 7.157970e-01	 8.401170e-01	 6.341693e+00
 7.054518e-01	 8.488225e-01	 6.068228e+00
 7.612037e-01	 8.094052e-01	 7.651711e+00
 7.512162e-01	 8.186831e-01	 7.368129e+00
 7.411184e-01	 8.278354e-01	 7.082586e+00
 7.309125e-01	 8.368601e-01	 6.800218e+00
 7.206010e-01	 8.457553e-01	 6.522952e+00
 7.101864e-01	 8.545193e-01	 6.250471e+00
 6.865135e-01	 8.260353e-01	 5.256341e+00
 6.763488e-01	 8.343785e-01	 4.985427e+00
 6.660893e-01	 8.425914e-01	 4.723254e+00
 6.557374e-01	 8.506724e-01	 4.469628e+00
 6.452958e-01	 8.586201e-01	 4.223661e+00
 6.347671e-01	 8.664329e-01	 3.983783e+00
 6.912481e-01	 8.317321e-01	 5.470707e+00
 6.810133e-01	 8.401328e-01	 5.200871e+00
 6.706830e-01	 8.484023e-01	 4.939116e+00
 6.602598e-01	 8.565391e-01	 4.685260e+00
 6.497462e-01	 8.645416e-01	 4.438401e+00
 6.391448e-01	 8.724083e-01	 4.196934e+00
 6.959827e-01	 8.374289e-01	 5.677805e+00
 6.856777e-01	 8.458871e-01	 5.408866e+00
 6.752767e-01	 8.542133e-01	 5.147505e+00
 6.647821e-01	 8.624058e-01	 4.893519e+00
 6.541965e-01	 8.704631e-01	 4.645966e+00
 6.435225e-01	 8.783837e-01	 4.403169e+00
 7.007172e-01	 8.431257e-01	 5.877153e+00
 6.903422e-01	 8.516415e-01	 5.608964e+00
 6.798704e-01	 8.600243e-01	 5.348005e+00
 6.693044e-01	 8.682725e-01	 5.094026e+00
 6.586468e-01	 8.763846e-01	 4.846007e+00
 6.479002e-01	 8.843591e-01	 4.602173e+00
 7.054518e-01	 8.488225e-01	 6.068228e+00
 6.950067e-01	 8.573958e-01	 5.800677e+00
 6.844641e-01	 8.658353e-01	 5.540164e+00
 6.738267e-01	 8.741392e-01	 5.286359e+00
 6.630971e-01	 8.823061e-01	 5.038136e+00
 6.522779e-01	 8.903345e-01	 4.793590e+00
 7.101864e-01	 8.545193e-01	 6.250471e+00
 6.996711e-01	 8.631502e-01	 5.983481e+00
 6.890578e-01	 8.716462e-01	 5.723490e+00
 6.783491e-01	 8.800059e-01	 5.470058e+00
 6.675474e-01	 8.882276e-01	 5.221926e+00
 6.566556e-01	 8.963099e-01	 4.977025e+00
 6.347671e-01	 8.664329e-01	 3.983783e+00
 6.241537e-01	 8.741094e-01	 3.751963e+00
 6.134583e-01	 8.816485e-01	 3.530533e+00
 6.026836e-01	 8.890487e-01	 3.317525e+00
 5.918323e-01	 8.963089e-01	 3.110409e+00
 5.809070e-01	 9.034280e-01	 2.906114e+00
 6.391448e-01	 8.724083e-01	 4.196934e+00
 6.284582e-01	 8.801378e-01	 3.963139e+00
 6.176890e-01	 8.877288e-01	 3.739657e+00
 6.068400e-01	 8.951801e-01	 3.524455e+00
 5.959139e-01	 9.024904e-01	 3.314922e+00
 5.849132e-01	 9.096586e-01	 3.107893e+00
 6.435225e-01	 8.783837e-01	 4.403169e+00
 6.327627e-01	 8.861661e-01	 4.167717e+00
 6.219198e-01	 8.938091e-01	 3.942550e+00
 6.109965e-01	 9.013114e-01	 3.725521e+00
 5.999955e-01	 9.086718e-01	 3.513885e+00
 5.889195e-01	 9.158891e-01	 3.304329e+00
 6.479002e-01	 8.843591e-01	 4.602173e+00
 6.370672e-01	 8.921945e-01	 4.365400e+00
 6.261505e-01	 8.998895e-01	 4.138901e+00
 6.151529e-01	 9.074428e-01	 3.920364e+00
 6.040771e-01	 9.148532e-01	 3.706864e+00
 5.929257e-01	 9.221196e-01	 3.494882e+00
 6.522779e-01	 8.903345e-01	 4.793590e+00
 6.413717e-01	 8.982228e-01	 4.555851e+00
 6.303813e-01	 9.059698e-01	 4.328358e+00
 6.193094e-01	 9.135742e-01	 4.108591e+00
 6.081587e-01	 9.210347e-01	 3.893390e+00
 5.969320e-01	 9.283502e-01	 3.678981e+00
 6.566556e-01	 8.963099e-01	 4.977025e+00
 6.456762e-01	 9.042512e-01	 4.738691e+00
 6.346120e-01	 9.120501e-01	 4.510530e+00
 6.234658e-01	 9.197055e-01	 4.289767e+00
 6.122403e-01	 9.272161e-01	 4.072961e+00
 6.009383e-01	 9.345807e-01	 3.856026e+00
 5.809070e-01	 9.034280e-01	 2.906114e+00
 5.699105e-01	 9.104050e-01	 2.709839e+00
 5.588454e-01	 9.172387e-01	 2.527080e+00
 5.477147e-01	 9.239284e-01	 2.354502e+00
 5.365209e-01	 9.304732e-01	 2.188379e+00
 5.252670e-01	 9.368723e-01	 2.024622e+00
 5.849132e-01	 9.096586e-01	 3.107893e+00
 5.738409e-01	 9.166836e-01	 2.908742e+00
 5.626996e-01	 9.235645e-01	 2.723033e+00
 5.514920e-01	 9.303003e-01	 2.547159e+00
 5.402211e-01	 9.368903e-01	 2.377099e+00
 5.288895e-01	 9.433335e-01	 2.208452e+00
 5.889195e-01	 9.158891e-01	 3.304329e+00
 5.777713e-01	 9.229623e-01	 3.102337e+00
 5.665537e-01	 9.298903e-01	 2.913580e+00
 5.552694e-01	 9.366723e-01	 2.734271e+00
 5.439212e-01	 9.433073e-01	 2.560195e+00
 5.325120e-01	 9.497947e-01	 2.386745e+00
 5.929257e-01	 9.221196e-01	 3.494882e+00
 5.817017e-01	 9.292409e-01	 3.290000e+00
 5.704078e-01	 9.362161e-01	 3.098082e+00
 5.590467e-01	 9.430442e-01	 2.915251e+00
 5.476214e-01	 9.497244e-01	 2.737198e+00
 5.361346e-01	 9.562559e-01	 2.559209e+00
 5.969320e-01	 9.283502e-01	 3.678981e+00
 5.856321e-01	 9.355196e-01	 3.471081e+00
 5.742619e-01	 9.425419e-01	 3.275873e+00
 5.628241e-01	 9.494161e-01	 3.089486e+00
 5.513215e-01	 9.561414e-01	 2.907607e+00
 5.397571e-01	 9.627171e-01	 2.725517e+00
 6.009383e-01	 9.345807e-01	 3.856026e+00
 5.895626e-01	 9.417982e-01	 3.644899e+00
 5.781160e-01	 9.488676e-01	 3.446261e+00
 5.666014e-01	 9.557880e-01	 3.256334e+00
 5.550217e-01	 9.625585e-01	 3.070895e+00
 5.433796e-01	 9.691782e-01	 2.885316e+00
 5.252670e-01	 9.368723e-01	 2.024622e+00
 5.139556e-01	 9.431250e-01	 1.866817e+00
 5.025896e-01	 9.492306e-01	 1.719614e+00
 4.911717e-01	 9.551887e-01	 1.580109e+00
 4.797049e-01	 9.609986e-01	 1.445210e+00
 4.681917e-01	 9.666600e-01	 1.311670e+00
 5.288895e-01	 9.433335e-01	 2.208452e+00
 5.175001e-01	 9.496293e-01	 2.045082e+00
 5.060557e-01	 9.557771e-01	 1.892215e+00
 4.945591e-01	 9.617762e-01	 1.747072e+00
 4.830132e-01	 9.676262e-01	 1.606691e+00
 4.714206e-01	 9.733267e-01	 1.467959e+00
 5.325120e-01	 9.497947e-01	 2.386745e+00
 5.210447e-01	 9.561336e-01	 2.218204e+00
 5.095219e-01	 9.623235e-01	 2.060336e+00
 4.979465e-01	 9.683637e-01	 1.910320e+00
 4.863215e-01	 9.742538e-01	 1.765151e+00
 4.746496e-01	 9.799933e-01	 1.621667e+00
 5.361346e-01	 9.562559e-01	 2.559209e+00
 5.245892e-01	 9.626379e-01	 2.386056e+00
 5.129880e-01	 9.688699e-01	 2.223936e+00
 5.013339e-01	 9.749512e-01	 2.069820e+00
 4.896298e-01	 9.808814e-01	 1.920487e+00
 4.778785e-01	 9.866599e-01	 1.772550e+00
 5.397571e-01	 9.627171e-01	 2.725517e+00
 5.281337e-01	 9.691422e-01	 2.548478e+00
 5.164541e-01	 9.754163e-01	 2.382938e+00
 5.047213e-01	 9.815387e-01	 2.225503e+00
 4.929381e-01	 9.875089e-01	 2.072564e+00
 4.811074e-01	 9.933265e-01	 1.920339e+00
 5.433796e-01	 9.691782e-01	 2.885316e+00
 5.316782e-01	 9.756465e-01	 2.705273e+00
 5.199203e-01	 9.819627e-01	 2.537231e+00
 5.081087e-01	 9.881262e-01	 2.377265e+00
 4.962464e-01	 9.941365e-01	 2.221218e+00
 4.843363e-01	 9.999931e-01	 2.064742e+00
 4.681917e-01	 9.666600e-01	 1.311670e+00
 4.566352e-01	 9.721725e-01	 1.185180e+00
 4.450380e-01	 9.775358e-01	 1.071616e+00
 4.334029e-01	 9.827497e-01	 9.678770e-01
 4.217327e-01	 9.878141e-01	 8.708281e-01
 4.100303e-01	 9.927287e-01	 7.773363e-01
 4.714206e-01	 9.733267e-01	 1.467959e+00
 4.597844e-01	 9.788772e-01	 1.336679e+00
 4.481072e-01	 9.842775e-01	 1.218489e+00
 4.363919e-01	 9.895273e-01	 1.109888e+00
 4.246412e-01	 9.946266e-01	 1.007337e+00
 4.128581e-01	 9.995751e-01	 9.072971e-01
 4.746496e-01	 9.799933e-01	 1.621667e+00
 4.629336e-01	 9.855818e-01	 1.485601e+00
 4.511764e-01	 9.910191e-01	 1.362427e+00
 4.393809e-01	 9.963049e-01	 1.248443e+00
 4.275497e-01	 1.001439e+00	 1.139916e+00
 4.156859e-01	 1.006422e+00	 1.033106e+00
 4.778785e-01	 9.866599e-01	 1.772550e+00
 4.660828e-01	 9.922865e-01	 1.631570e+00
 4.542456e-01	 9.977607e-01	 1.502996e+00
 4.423698e-01	 1.003082e+00	 1.383128e+00
 4.304582e-01	 1.008252e+00	 1.268235e+00
 4.185137e-01	 1.013268e+00	 1.154584e+00
 4.811074e-01	 9.933265e-01	 1.920339e+00
 4.692320e-01	 9.989911e-01	 1.774186e+00
 4.573149e-01	 1.004502e+00	 1.639746e+00
 4.453588e-01	 1.009860e+00	 1.513512e+00
 4.333667e-01	 1.015064e+00	 1.391951e+00
 4.213415e-01	 1.020114e+00	 1.271537e+00
 4.843363e-01	 9.999931e-01	 2.064742e+00
 4.723812e-01	 1.005696e+00	 1.913035e+00
 4.603841e-01	 1.011244e+00	 1.772212e+00
 4.483478e-01	 1.016638e+00	 1.639149e+00
 4.362752e-01	 1.021877e+00	 1.510702e+00
 4.241693e-01	 1.026961e+00	 1.383749e+00
 4.100303e-01	 9.927287e-01	 7.773363e-01
 3.982983e-01	 9.974937e-01	 6.844236e-01
 3.865395e-01	 1.002109e+00	 5.922270e-01
 3.747566e-01	 1.006575e+00	 5.024138e-01
 3.629524e-01	 1.010891e+00	 4.182188e-01
 3.511296e-01	 1.015058e+00	 3.489639e-01
 4.128581e-01	 9.995751e-01	 9.072971e-01
 4.010452e-01	 1.004373e+00	 8.072194e-01
 3.892053e-01	 1.009020e+00	 7.081245e-01
 3.773412e-01	 1.013517e+00	 6.119524e-01
 3.654555e-01	 1.017863e+00	 5.213922e-01
 3.535512e-01	 1.022059e+00	 4.454819e-01
 4.156859e-01	 1.006422e+00	 1.033106e+00
 4.037920e-01	 1.011252e+00	 9.260939e-01
 3.918711e-01	 1.015931e+00	 8.207493e-01
 3.799257e-01	 1.020458e+00	 7.191462e-01
 3.679587e-01	 1.024834e+00	 6.236591e-01
 3.559727e-01	 1.029059e+00	 5.422967e-01
 4.185137e-01	 1.013268e+00	 1.154584e+00
 4.065389e-01	 1.018131e+00	 1.041041e+00
 3.945369e-01	 1.022842e+00	 9.302490e-01
 3.825102e-01	 1.027400e+00	 8.242817e-01
 3.704618e-01	 1.031806e+00	 7.253842e-01
 3.583943e-01	 1.036059e+00	 6.399269e-01
 4.213415e-01	 1.020114e+00	 1.271537e+00
 4.092858e-01	 1.025011e+00	 1.152033e+00
 3.972026e-01	 1.029753e+00	 1.036748e+00
 3.850947e-01	 1.034342e+00	 9.276203e-01
 3.729649e-01	 1.038778e+00	 8.267651e-01
 3.608159e-01	 1.043060e+00	 7.388541e-01
 4.241693e-01	 1.026961e+00	 1.383749e+00
 4.120327e-01	 1.031890e+00	 1.259022e+00
 3.998684e-01	 1.036664e+00	 1.140347e+00
 3.876793e-01	 1.041284e+00	 1.029398e+00
 3.754680e-01	 1.045749e+00	 9.280293e-01
 3.632375e-01	 1.050060e+00	 8.395218e-01
 3.511296e-01	 1.015058e+00	 3.489639e-01
 3.392907e-01	 1.019076e+00	 2.886870e-01
 3.274386e-01	 1.022946e+00	 2.271207e-01
 3.155758e-01	 1.026668e+00	 1.659399e-01
 3.037049e-01	 1.030242e+00	 1.074792e-01
 2.918285e-01	 1.033669e+00	 5.471256e-02
 3.535512e-01	 1.022059e+00	 4.454819e-01
 3.416307e-01	 1.026105e+00	 3.784343e-01
 3.296968e-01	 1.030001e+00	 3.096276e-01
 3.177522e-01	 1.033748e+00	 2.412686e-01
 3.057994e-01	 1.037347e+00	 1.762696e-01
 2.938411e-01	 1.040798e+00	 1.182250e-01
 3.559727e-01	 1.029059e+00	 5.422967e-01
 3.439706e-01	 1.033133e+00	 4.694982e-01
 3.319550e-01	 1.037056e+00	 3.942649e-01
 3.199286e-01	 1.040829e+00	 3.192748e-01
 3.078939e-01	 1.044452e+00	 2.479555e-01
 2.958537e-01	 1.047926e+00	 1.844587e-01
 3.583943e-01	 1.036059e+00	 6.399269e-01
 3.463106e-01	 1.040161e+00	 5.625140e-01
 3.342132e-01	 1.044111e+00	 4.817268e-01
 3.221049e-01	 1.047909e+00	 4.006551e-01
 3.099884e-01	 1.051557e+00	 3.231809e-01
 2.978663e-01	 1.055055e+00	 2.539516e-01
 3.608159e-01	 1.043060e+00	 7.388541e-01
 3.486505e-01	 1.047189e+00	 6.580815e-01
 3.364714e-01	 1.051165e+00	 5.726749e-01
 3.242813e-01	 1.054990e+00	 4.860774e-01
 3.120830e-01	 1.058662e+00	 4.025664e-01
 2.998789e-01	 1.062184e+00	 3.272248e-01
 3.632375e-01	 1.050060e+00	 8.395218e-01
 3.509904e-01	 1.054217e+00	 7.567651e-01
 3.387296e-01	 1.058220e+00	 6.677385e-01
 3.264577e-01	 1.062070e+00	 5.761817e-01
 3.141775e-01	 1.065768e+00	 4.867097e-01
 3.018915e-01	 1.069313e+00	 4.047824e-01
 2.918285e-01	 1.033669e+00	 5.471256e-02
 2.799492e-01	 1.036949e+00	 7.894576e-03
 2.680694e-01	 1.040084e+00	-3.539348e-02
 2.561918e-01	 1.043073e+00	-7.532095e-02
 2.443186e-01	 1.045918e+00	-1.115468e-01
 2.324525e-01	 1.048619e+00	-1.432564e-01
 2.938411e-01	 1.040798e+00	 1.182250e-01
 2.818799e-01	 1.044101e+00	 6.733283e-02
 2.699182e-01	 1.047257e+00	 2.048949e-02
 2.579586e-01	 1.050266e+00	-2.274512e-02
 2.460036e-01	 1.053131e+00	-6.227455e-02
 2.340556e-01	 1.055850e+00	-9.750394e-02
 2.958537e-01	 1.047926e+00	 1.844587e-01
 2.838105e-01	 1.051252e+00	 1.287933e-01
 2.717669e-01	 1.054430e+00	 7.722566e-02
 2.597254e-01	 1.057460e+00	 2.926357e-02
 2.476885e-01	 1.060344e+00	-1.501994e-02
 2.356587e-01	 1.063082e+00	-5.502659e-02
 2.978663e-01	 1.055055e+00	 2.539516e-01
 2.857412e-01	 1.058403e+00	 1.927060e-01
 2.736157e-01	 1.061603e+00	 1.351821e-01
 2.614923e-01	 1.064654e+00	 8.105021e-02
 2.493735e-01	 1.067557e+00	 3.057711e-02
 2.372618e-01	 1.070314e+00	-1.541645e-02
 2.998789e-01	 1.062184e+00	 3.272248e-01
 2.876719e-01	 1.065555e+00	 2.594897e-01
 2.754644e-01	 1.068776e+00	 1.947190e-01
 2.632591e-01	 1.071847e+00	 1.329560e-01
 2.510584e-01	 1.074770e+00	 7.487413e-02
 2.388649e-01	 1.077546e+00	 2.173202e-02
 3.018915e-01	 1.069313e+00	 4.047824e-01
 2.896026e-01	 1.072706e+00	 3.295523e-01
 2.773132e-01	 1.075949e+00	 2.561898e-01
 2.650260e-01	 1.079041e+00	 1.853177e-01
 2.527434e-01	 1.081984e+00	 1.182258e-01
 2.404681e-01	 1.084778e+00	 5.682172e-02
 2.324525e-01	 1.048619e+00	-1.432564e-01
 2.205957e-01	 1.051177e+00	-1.723774e-01
 2.087506e-01	 1.053593e+00	-2.013725e-01
 1.969196e-01	 1.055868e+00	-2.296362e-01
 1.851049e-01	 1.058003e+00	-2.562506e-01
 1.733088e-01	 1.060000e+00	-2.800340e-01
 2.340556e-01	 1.055850e+00	-9.750394e-02
 2.221170e-01	 1.058426e+00	-1.305472e-01
 2.101903e-01	 1.060859e+00	-1.638286e-01
 1.982776e-01	 1.063150e+00	-1.965935e-01
 1.863815e-01	 1.065300e+00	-2.277570e-01
 1.745040e-01	 1.067310e+00	-2.559561e-01
 2.356587e-01	 1.063082e+00	-5.502659e-02
 2.236384e-01	 1.065676e+00	-9.285920e-02
 2.116299e-01	 1.068125e+00	-1.308938e-01
 1.996357e-01	 1.070432e+00	-1.682815e-01
 1.876581e-01	 1.072597e+00	-2.038242e-01
 1.756992e-01	 1.074620e+00	-2.360290e-01
 2.372618e-01	 1.070314e+00	-1.541645e-02
 2.251597e-01	 1.072925e+00	-5.884663e-02
 2.130696e-01	 1.075392e+00	-1.020489e-01
 2.009938e-01	 1.077714e+00	-1.441334e-01
 1.889346e-01	 1.079893e+00	-1.838406e-01
 1.768945e-01	 1.081931e+00	-2.195974e-01
 2.388649e-01	 1.077546e+00	 2.173202e-02
 2.266811e-01	 1.080175e+00	-2.804543e-02
 2.145092e-01	 1.082658e+00	-7.677812e-02
 2.023518e-01	 1.084996e+00	-1.235869e-01
 1.902112e-01	 1.087190e+00	-1.672000e-01
 1.780897e-01	 1.089241e+00	-2.060124e-01
 2.404681e-01	 1.084778e+00	 5.682172e-02
 2.282024e-01	 1.087424e+00	 5.367250e-06
 2.159489e-01	 1.089924e+00	-5.456940e-02
 2.037099e-01	 1.092278e+00	-1.060837e-01
 1.914878e-01	 1.094486e+00	-1.533016e-01
 1.792849e-01	 1.096551e+00	-1.946315e-01
 1.733088e-01	 1.060000e+00	-2.800340e-01
 1.615335e-01	 1.061858e+00	-3.010018e-01
 1.497811e-01	 1.063579e+00	-3.202089e-01
 1.380538e-01	 1.065165e+00	-3.377763e-01
 1.263537e-01	 1.066616e+00	-3.537457e-01
 1.146828e-01	 1.067934e+00	-3.681259e-01
 1.745040e-01	 1.067310e+00	-2.559561e-01
 1.626475e-01	 1.069181e+00	-2.811509e-01
 1.508141e-01	 1.070914e+00	-3.044500e-01
 1.390059e-01	 1.072511e+00	-3.259389e-01
 1.272251e-01	 1.073972e+00	-3.456152e-01
 1.154737e-01	 1.075299e+00	-3.634383e-01
 1.756992e-01	 1.074620e+00	-2.360290e-01
 1.637615e-01	 1.076504e+00	-2.648501e-01
 1.518470e-01	 1.078249e+00	-2.914996e-01
 1.399580e-01	 1.079857e+00	-3.160797e-01
 1.280965e-01	 1.081328e+00	-3.385968e-01
 1.162647e-01	 1.082664e+00	-3.590126e-01
 1.768945e-01	 1.081931e+00	-2.195974e-01
 1.648755e-01	 1.083827e+00	-2.514121e-01
 1.528800e-01	 1.085584e+00	-2.806620e-01
 1.409101e-01	 1.087203e+00	-3.075163e-01
 1.289679e-01	 1.088684e+00	-3.320399e-01
 1.170556e-01	 1.090029e+00	-3.542474e-01
 1.780897e-01	 1.089241e+00	-2.060124e-01
 1.659895e-01	 1.091150e+00	-2.401575e-01
 1.539130e-01	 1.092919e+00	-2.712502e-01
 1.418622e-01	 1.094549e+00	-2.995748e-01
 1.298393e-01	 1.096040e+00	-3.253027e-01
 1.178465e-01	 1.097394e+00	-3.485496e-01
 1.792849e-01	 1.096551e+00	-1.946315e-01
 1.671036e-01	 1.098474e+00	-2.304144e-01
 1.549460e-01	 1.100254e+00	-2.625855e-01
 1.428143e-01	 1.101895e+00	-2.915899e-01
 1.307107e-01	 1.103396e+00	-3.177520e-01
 1.186374e-01	 1.104759e+00	-3.413340e-01
 1.146828e-01	 1.067934e+00	-3.681259e-01
 1.030432e-01	 1.069120e+00	-3.810887e-01
 9.143669e-02	 1.070175e+00	-3.926062e-01
 7.986531e-02	 1.071101e+00	-4.024804e-01
 6.833090e-02	 1.071898e+00	-4.106645e-01
 5.683529e-02	 1.072569e+00	-4.173014e-01
 1.154737e-01	 1.075299e+00	-3.634383e-01
 1.037538e-01	 1.076493e+00	-3.795445e-01
 9.206729e-02	 1.077555e+00	-3.938873e-01
 8.041611e-02	 1.078488e+00	-4.062424e-01
 6.880215e-02	 1.079291e+00	-4.165409e-01
 5.722725e-02	 1.079966e+00	-4.249102e-01
 1.162647e-01	 1.082664e+00	-3.590126e-01
 1.044645e-01	 1.083866e+00	-3.774793e-01
 9.269789e-02	 1.084936e+00	-3.939506e-01
 8.096690e-02	 1.085874e+00	-4.081804e-01
 6.927340e-02	 1.086683e+00	-4.200817e-01
 5.761922e-02	 1.087363e+00	-4.297698e-01
 1.170556e-01	 1.090029e+00	-3.542474e-01
 1.051751e-01	 1.091240e+00	-3.743471e-01
 9.332849e-02	 1.092317e+00	-3.923024e-01
 8.151770e-02	 1.093261e+00	-4.078484e-01
 6.974464e-02	 1.094076e+00	-4.208830e-01
 5.801119e-02	 1.094760e+00	-4.315122e-01
 1.178465e-01	 1.097394e+00	-3.485496e-01
 1.058857e-01	 1.098613e+00	-3.696099e-01
 9.395909e-02	 1.099697e+00	-3.884564e-01
 8.206849e-02	 1.100648e+00	-4.048077e-01
 7.021589e-02	 1.101468e+00	-4.185485e-01
 5.840316e-02	 1.102157e+00	-4.297768e-01
 1.186374e-01	 1.104759e+00	-3.413340e-01
 1.065964e-01	 1.105986e+00	-3.627370e-01
 9.458968e-02	 1.107078e+00	-3.819338e-01
 8.261929e-02	 1.108035e+00	-3.986272e-01
 7.068714e-02	 1.108860e+00	-4.126892e-01
 5.879512e-02	 1.109554e+00	-4.242107e-01
 5.683529e-02	 1.072569e+00	-4.173014e-01
 4.538025e-02	 1.073115e+00	-4.228854e-01
 3.396754e-02	 1.073537e+00	-4.273201e-01
 2.259883e-02	 1.073836e+00	-4.302722e-01
 1.127578e-02	 1.074015e+00	-4.317580e-01
-6.671512e-318	 1.074078e+00	-4.318484e-01
 5.722725e-02	 1.079966e+00	-4.249102e-01
 4.569322e-02	 1.080516e+00	-4.318792e-01
 3.420179e-02	 1.080941e+00	-4.373834e-01
 2.275468e-02	 1.081242e+00	-4.410847e-01
 1.135355e-02	 1.081422e+00	-4.430078e-01
-5.738182e-318	 1.081485e+00	-4.432056e-01
 5.761922e-02	 1.087363e+00	-4.297698e-01
 4.600619e-02	 1.087917e+00	-4.378088e-01
 3.443605e-02	 1.088344e+00	-4.441532e-01
 2.291054e-02	 1.088648e+00	-4.484448e-01
 1.143131e-02	 1.088829e+00	-4.507024e-01
-4.608886e-318	 1.088893e+00	-4.509449e-01
 5.801119e-02	 1.094760e+00	-4.315122e-01
 4.631915e-02	 1.095317e+00	-4.403364e-01
 3.467031e-02	 1.095748e+00	-4.473186e-01
 2.306639e-02	 1.096054e+00	-4.520642e-01
 1.150908e-02	 1.096236e+00	-4.545710e-01
-3.412882e-318	 1.096301e+00	-4.548075e-01
 5.840316e-02	 1.102157e+00	-4.297768e-01
 4.663212e-02	 1.102718e+00	-4.391324e-01
 3.490457e-02	 1.103152e+00	-4.465767e-01
 2.322225e-02	 1.103459e+00	-4.516628e-01
 1.158684e-02	 1.103643e+00	-4.543512e-01
-2.279421e-318	 1.103709e+00	-4.545433e-01
 5.879512e-02	 1.109554e+00	-4.242107e-01
 4.694509e-02	 1.110119e+00	-4.338745e-01
 3.513883e-02	 1.110555e+00	-4.416328e-01
 2.337810e-02	 1.110865e+00	-4.469688e-01
 1.166460e-02	 1.111050e+00	-4.497894e-01
-1.337772e-318	 1.111116e+00	-4.499110e-01
 1.111111e+00	 0.000000e+00	 2.447585e+01
 1.111050e+00	 1.166460e-02	 2.447043e+01
 1.110865e+00	 2.337810e-02	 2.445736e+01
 1.110555e+00	 3.513883e-02	 2.443590e+01
 1.110119e+00	 4.694509e-02	 2.440545e+01
 1.109554e+00	 5.879512e-02	 2.436557e+01
 1.118519e+00	 0.000000e+00	 2.415492e+01
 1.118457e+00	 1.174237e-02	 2.414957e+01
 1.118271e+00	 2.353395e-02	 2.413694e+01
 1.117959e+00	 3.537309e-02	 2.411630e+01
 1.117520e+00	 4.725806e-02	 2.408703e+01
 1.116951e+00	 5.918709e-02	 2.404863e+01
 1.125926e+00	 0.000000e+00	 2.384407e+01
 1.125864e+00	 1.182013e-02	 2.383876e+01
 1.125677e+00	 2.368981e-02	 2.382657e+01
 1.125363e+00	 3.560735e-02	 2.380674e+01
 1.124921e+00	 4.757102e-02	 2.377860e+01
 1.124348e+00	 5.957906e-02	 2.374166e+01
 1.133333e+00	 0.000000e+00	 2.354272e+01
 1.133271e+00	 1.189790e-02	 2.353745e+01
 1.133082e+00	 2.384566e-02	 2.352569e+01
 1.132766e+00	 3.584161e-02	 2.350666e+01
 1.132321e+00	 4.788399e-02	 2.347967e+01
 1.131746e+00	 5.997103e-02	 2.344418e+01
 1.140741e+00	 0.000000e+00	 2.325033e+01
 1.140678e+00	 1.197566e-02	 2.324509e+01
 1.140488e+00	 2.400152e-02	 2.323376e+01
 1.140170e+00	 3.607587e-02	 2.321552e+01
 1.139722e+00	 4.819696e-02	 2.318967e+01
 1.139143e+00	 6.036299e-02	 2.315564e+01
 1.148148e+00	 0.000000e+00	 2.296636e+01
 1.148085e+00	 1.205342e-02	 2.296116e+01
 1.147894e+00	 2.415737e-02	 2.295025e+01
 1.147574e+00	 3.631012e-02	 2.293280e+01
 1.147123e+00	 4.850992e-02	 2.290809e+01
 1.146540e+00	 6.075496e-02	 2.287552e+01
 1.109554e+00	 5.879512e-02	 2.436557e+01
 1.108860e+00	 7.068714e-02	 2.431663e+01
 1.108035e+00	 8.261929e-02	 2.425899e+01
 1.107078e+00	 9.458968e-02	 2.419233e+01
 1.105986e+00	 1.065964e-01	 2.411643e+01
 1.104759e+00	 1.186374e-01	 2.403118e+01
 1.116951e+00	 5.918709e-02	 2.404863e+01
 1.116253e+00	 7.115839e-02	 2.400153e+01
 1.115422e+00	 8.317009e-02	 2.394609e+01
 1.114458e+00	 9.522028e-02	 2.388198e+01
 1.113359e+00	 1.073070e-01	 2.380900e+01
 1.112124e+00	 1.194283e-01	 2.372709e+01
 1.124348e+00	 5.957906e-02	 2.374166e+01
 1.123645e+00	 7.162963e-02	 2.369632e+01
 1.122809e+00	 8.372088e-02	 2.364293e+01
 1.121839e+00	 9.585088e-02	 2.358114e+01
 1.120733e+00	 1.080177e-01	 2.351068e+01
 1.119489e+00	 1.202192e-01	 2.343143e+01
 1.131746e+00	 5.997103e-02	 2.344418e+01
 1.131038e+00	 7.210088e-02	 2.340061e+01
 1.130196e+00	 8.427168e-02	 2.334931e+01
 1.129219e+00	 9.648148e-02	 2.328987e+01
 1.128106e+00	 1.087283e-01	 2.322199e+01
 1.126854e+00	 1.210102e-01	 2.314553e+01
 1.139143e+00	 6.036299e-02	 2.315564e+01
 1.138430e+00	 7.257213e-02	 2.311385e+01
 1.137583e+00	 8.482247e-02	 2.306465e+01
 1.136600e+00	 9.711208e-02	 2.300760e+01
 1.135479e+00	 1.094390e-01	 2.294238e+01
 1.134220e+00	 1.218011e-01	 2.286879e+01
 1.146540e+00	 6.075496e-02	 2.287552e+01
 1.145822e+00	 7.304338e-02	 2.283550e+01
 1.144970e+00	 8.537327e-02	 2.278841e+01
 1.143980e+00	 9.774267e-02	 2.273377e+01
 1.142852e+00	 1.101496e-01	 2.267126e+01
 1.141585e+00	 1.225920e-01	 2.260063e+01
 1.104759e+00	 1.186374e-01	 2.403118e+01
 1.103396e+00	 1.307107e-01	 2.393660e+01
 1.101895e+00	 1.428143e-01	 2.383267e+01
 1.100254e+00	 1.549460e-01	 2.371936e+01
 1.098474e+00	 1.671036e-01	 2.359676e+01
 1.096551e+00	 1.792849e-01	 2.346498e+01
 1.112124e+00	 1.194283e-01	 2.372709e+01
 1.110752e+00	 1.315821e-01	 2.363638e+01
 1.109241e+00	 1.437664e-01	 2.353684e+01
 1.107589e+00	 1.559789e-01	 2.342842e+01
 1.105797e+00	 1.682176e-01	 2.331115e+01
 1.103862e+00	 1.804802e-01	 2.318517e+01
 1.119489e+00	 1.202192e-01	 2.343143e+01
 1.118108e+00	 1.324535e-01	 2.334360e+01
 1.116587e+00	 1.447185e-01	 2.324739e+01
 1.114924e+00	 1.570119e-01	 2.314284e+01
 1.113120e+00	 1.693316e-01	 2.303018e+01
 1.111172e+00	 1.816754e-01	 2.290972e+01
 1.126854e+00	 1.210102e-01	 2.314553e+01
 1.125464e+00	 1.333250e-01	 2.306075e+01
 1.123933e+00	 1.456706e-01	 2.296792e+01
 1.122259e+00	 1.580449e-01	 2.286705e+01
 1.120443e+00	 1.704456e-01	 2.275830e+01
 1.118482e+00	 1.828706e-01	 2.264194e+01
 1.134220e+00	 1.218011e-01	 2.286879e+01
 1.132820e+00	 1.341964e-01	 2.278721e+01
 1.131279e+00	 1.466227e-01	 2.269798e+01
 1.129594e+00	 1.590778e-01	 2.260109e+01
 1.127766e+00	 1.715597e-01	 2.249665e+01
 1.125793e+00	 1.840659e-01	 2.238490e+01
 1.141585e+00	 1.225920e-01	 2.260063e+01
 1.140176e+00	 1.350678e-01	 2.252237e+01
 1.138625e+00	 1.475748e-01	 2.243693e+01
 1.136930e+00	 1.601108e-01	 2.234426e+01
 1.135089e+00	 1.726737e-01	 2.224444e+01
 1.133103e+00	 1.852611e-01	 2.213770e+01
 1.096551e+00	 1.792849e-01	 2.346498e+01
 1.094486e+00	 1.914878e-01	 2.332356e+01
 1.092278e+00	 2.037099e-01	 2.317245e+01
 1.089924e+00	 2.159489e-01	 2.301245e+01
 1.087424e+00	 2.282024e-01	 2.284434e+01
 1.084778e+00	 2.404681e-01	 2.266892e+01
 1.103862e+00	 1.804802e-01	 2.318517e+01
 1.101783e+00	 1.927644e-01	 2.304984e+01
 1.099559e+00	 2.050680e-01	 2.290495e+01
 1.097190e+00	 2.173886e-01	 2.275128e+01
 1.094674e+00	 2.297238e-01	 2.258961e+01
 1.092010e+00	 2.420712e-01	 2.242073e+01
 1.111172e+00	 1.816754e-01	 2.290972e+01
 1.109079e+00	 1.940410e-01	 2.278058e+01
 1.106841e+00	 2.064260e-01	 2.264207e+01
 1.104456e+00	 2.188282e-01	 2.249496e+01
 1.101923e+00	 2.312451e-01	 2.234002e+01
 1.099242e+00	 2.436743e-01	 2.217802e+01
 1.118482e+00	 1.828706e-01	 2.264194e+01
 1.116376e+00	 1.953176e-01	 2.251718e+01
 1.114123e+00	 2.077841e-01	 2.238365e+01
 1.111722e+00	 2.202679e-01	 2.224247e+01
 1.109173e+00	 2.327665e-01	 2.209443e+01
 1.106473e+00	 2.452774e-01	 2.193960e+01
 1.125793e+00	 1.840659e-01	 2.238490e+01
 1.123673e+00	 1.965942e-01	 2.226478e+01
 1.121405e+00	 2.091422e-01	 2.213566e+01
 1.118988e+00	 2.217075e-01	 2.199856e+01
 1.116422e+00	 2.342878e-01	 2.185462e+01
 1.113705e+00	 2.468805e-01	 2.170503e+01
 1.133103e+00	 1.852611e-01	 2.213770e+01
 1.130969e+00	 1.978707e-01	 2.202273e+01
 1.128687e+00	 2.105002e-01	 2.189863e+01
 1.126255e+00	 2.231472e-01	 2.176634e+01
 1.123672e+00	 2.358092e-01	 2.162692e+01
 1.120937e+00	 2.484837e-01	 2.148149e+01
 1.084778e+00	 2.404681e-01	 2.266892e+01
 1.081984e+00	 2.527434e-01	 2.248421e+01
 1.079041e+00	 2.650260e-01	 2.228854e+01
 1.075949e+00	 2.773132e-01	 2.208315e+01
 1.072706e+00	 2.896026e-01	 2.186920e+01
 1.069313e+00	 3.018915e-01	 2.164782e+01
 1.092010e+00	 2.420712e-01	 2.242073e+01
 1.089197e+00	 2.544284e-01	 2.224268e+01
 1.086234e+00	 2.667928e-01	 2.205398e+01
 1.083122e+00	 2.791619e-01	 2.185598e+01
 1.079857e+00	 2.915333e-01	 2.165000e+01
 1.076441e+00	 3.039042e-01	 2.143732e+01
 1.099242e+00	 2.436743e-01	 2.217802e+01
 1.096410e+00	 2.561133e-01	 2.200707e+01
 1.093428e+00	 2.685596e-01	 2.182578e+01
 1.090295e+00	 2.810107e-01	 2.163558e+01
 1.087009e+00	 2.934640e-01	 2.143789e+01
 1.083570e+00	 3.059168e-01	 2.123405e+01
 1.106473e+00	 2.452774e-01	 2.193960e+01
 1.103623e+00	 2.577983e-01	 2.177613e+01
 1.100622e+00	 2.703265e-01	 2.160274e+01
 1.097468e+00	 2.828595e-01	 2.142088e+01
 1.094160e+00	 2.953946e-01	 2.123197e+01
 1.090699e+00	 3.079294e-01	 2.103736e+01
 1.113705e+00	 2.468805e-01	 2.170503e+01
 1.110837e+00	 2.594832e-01	 2.154867e+01
 1.107815e+00	 2.720933e-01	 2.138372e+01
 1.104641e+00	 2.847082e-01	 2.121082e+01
 1.101312e+00	 2.973253e-01	 2.103135e+01
 1.097828e+00	 3.099420e-01	 2.084662e+01
 1.120937e+00	 2.484837e-01	 2.148149e+01
 1.118050e+00	 2.611682e-01	 2.132914e+01
 1.115009e+00	 2.738601e-01	 2.116946e+01
 1.111814e+00	 2.865570e-01	 2.100444e+01
 1.108463e+00	 2.992560e-01	 2.083518e+01
 1.104956e+00	 3.119546e-01	 2.066123e+01
 1.069313e+00	 3.018915e-01	 2.164782e+01
 1.065768e+00	 3.141775e-01	 2.141921e+01
 1.062070e+00	 3.264577e-01	 2.118390e+01
 1.058220e+00	 3.387296e-01	 2.094340e+01
 1.054217e+00	 3.509904e-01	 2.069903e+01
 1.050060e+00	 3.632375e-01	 2.045193e+01
 1.076441e+00	 3.039042e-01	 2.143732e+01
 1.072873e+00	 3.162720e-01	 2.121753e+01
 1.069151e+00	 3.286341e-01	 2.099051e+01
 1.065275e+00	 3.409878e-01	 2.075774e+01
 1.061245e+00	 3.533304e-01	 2.052049e+01
 1.057061e+00	 3.656591e-01	 2.027985e+01
 1.083570e+00	 3.059168e-01	 2.123405e+01
 1.079978e+00	 3.183665e-01	 2.102294e+01
 1.076231e+00	 3.308105e-01	 2.080370e+01
 1.072330e+00	 3.432460e-01	 2.057787e+01
 1.068273e+00	 3.556703e-01	 2.034673e+01
 1.064061e+00	 3.680807e-01	 2.011136e+01
 1.090699e+00	 3.079294e-01	 2.103736e+01
 1.087083e+00	 3.204610e-01	 2.083503e+01
 1.083312e+00	 3.329869e-01	 2.062330e+01
 1.079385e+00	 3.455042e-01	 2.040377e+01
 1.075301e+00	 3.580102e-01	 2.017784e+01
 1.071061e+00	 3.705022e-01	 1.994660e+01
 1.097828e+00	 3.099420e-01	 2.084662e+01
 1.094188e+00	 3.225555e-01	 2.065345e+01
 1.090392e+00	 3.351632e-01	 2.044913e+01
 1.086439e+00	 3.477624e-01	 2.023545e+01
 1.082330e+00	 3.603502e-01	 2.001390e+01
 1.078062e+00	 3.729238e-01	 1.978687e+01
 1.104956e+00	 3.119546e-01	 2.066123e+01
 1.101293e+00	 3.246501e-01	 2.047784e+01
 1.097473e+00	 3.373396e-01	 2.028105e+01
 1.093494e+00	 3.500206e-01	 2.007288e+01
 1.089358e+00	 3.626901e-01	 1.985501e+01
 1.085062e+00	 3.753454e-01	 1.963326e+01
 1.050060e+00	 3.632375e-01	 2.045193e+01
 1.045749e+00	 3.754680e-01	 2.018193e+01
 1.041284e+00	 3.876793e-01	 1.990267e+01
 1.036664e+00	 3.998684e-01	 1.962185e+01
 1.031890e+00	 4.120327e-01	 1.933775e+01
 1.026961e+00	 4.241693e-01	 1.904835e+01
 1.057061e+00	 3.656591e-01	 2.027985e+01
 1.052721e+00	 3.779711e-01	 2.002035e+01
 1.048226e+00	 3.902638e-01	 1.975497e+01
 1.043576e+00	 4.025342e-01	 1.948642e+01
 1.038769e+00	 4.147796e-01	 1.921310e+01
 1.033807e+00	 4.269970e-01	 1.893310e+01
 1.064061e+00	 3.680807e-01	 2.011136e+01
 1.059693e+00	 3.804743e-01	 1.986344e+01
 1.055168e+00	 3.928483e-01	 1.961108e+01
 1.050487e+00	 4.052000e-01	 1.935408e+01
 1.045649e+00	 4.175265e-01	 1.909102e+01
 1.040654e+00	 4.298248e-01	 1.882012e+01
 1.071061e+00	 3.705022e-01	 1.994660e+01
 1.066664e+00	 3.829774e-01	 1.971133e+01
 1.062110e+00	 3.954329e-01	 1.947106e+01
 1.057398e+00	 4.078658e-01	 1.922482e+01
 1.052528e+00	 4.202734e-01	 1.897136e+01
 1.047500e+00	 4.326526e-01	 1.870909e+01
 1.078062e+00	 3.729238e-01	 1.978687e+01
 1.073636e+00	 3.854805e-01	 1.956415e+01
 1.069052e+00	 3.980174e-01	 1.933498e+01
 1.064309e+00	 4.105316e-01	 1.909860e+01
 1.059407e+00	 4.230202e-01	 1.885397e+01
 1.054346e+00	 4.354804e-01	 1.859973e+01
 1.085062e+00	 3.753454e-01	 1.963326e+01
 1.080608e+00	 3.879836e-01	 1.942201e+01
 1.075994e+00	 4.006019e-01	 1.920289e+01
 1.071220e+00	 4.131974e-01	 1.897539e+01
 1.066286e+00	 4.257671e-01	 1.873870e+01
 1.061193e+00	 4.383082e-01	 1.849170e+01
 1.026961e+00	 4.241693e-01	 1.904835e+01
 1.021877e+00	 4.362752e-01	 1.875440e+01
 1.016638e+00	 4.483478e-01	 1.845706e+01
 1.011244e+00	 4.603841e-01	 1.815448e+01
 1.005696e+00	 4.723812e-01	 1.784463e+01
 9.999931e-01	 4.843363e-01	 1.752531e+01
 1.033807e+00	 4.269970e-01	 1.893310e+01
 1.028689e+00	 4.391837e-01	 1.864815e+01
 1.023415e+00	 4.513368e-01	 1.836027e+01
 1.017986e+00	 4.634533e-01	 1.806752e+01
 1.012400e+00	 4.755304e-01	 1.776782e+01
 1.006660e+00	 4.875652e-01	 1.745885e+01
 1.040654e+00	 4.298248e-01	 1.882012e+01
 1.035502e+00	 4.420922e-01	 1.854399e+01
 1.030193e+00	 4.543258e-01	 1.826536e+01
 1.024727e+00	 4.665225e-01	 1.798221e+01
 1.019105e+00	 4.786796e-01	 1.769232e+01
 1.013326e+00	 4.907941e-01	 1.739325e+01
 1.047500e+00	 4.326526e-01	 1.870909e+01
 1.042314e+00	 4.450007e-01	 1.844148e+01
 1.036970e+00	 4.573148e-01	 1.817186e+01
 1.031469e+00	 4.695918e-01	 1.789808e+01
 1.025810e+00	 4.818288e-01	 1.761776e+01
 1.019993e+00	 4.940230e-01	 1.732834e+01
 1.054346e+00	 4.354804e-01	 1.859973e+01
 1.049127e+00	 4.479092e-01	 1.834018e+01
 1.043748e+00	 4.603037e-01	 1.807925e+01
 1.038210e+00	 4.726610e-01	 1.781463e+01
 1.032514e+00	 4.849780e-01	 1.754378e+01
 1.026660e+00	 4.972519e-01	 1.726392e+01
 1.061193e+00	 4.383082e-01	 1.849170e+01
 1.055939e+00	 4.508177e-01	 1.823963e+01
 1.050526e+00	 4.632927e-01	 1.798704e+01
 1.044952e+00	 4.757302e-01	 1.773141e+01
 1.039219e+00	 4.881272e-01	 1.746998e+01
 1.033326e+00	 5.004808e-01	 1.719981e+01
 9.999931e-01	 4.843363e-01	 1.752531e+01
 9.941365e-01	 4.962464e-01	 1.720274e+01
 9.881262e-01	 5.081087e-01	 1.688233e+01
 9.819627e-01	 5.199203e-01	 1.656042e+01
 9.756465e-01	 5.316782e-01	 1.623319e+01
 9.691782e-01	 5.433796e-01	 1.589665e+01
 1.006660e+00	 4.875652e-01	 1.745885e+01
 1.000764e+00	 4.995547e-01	 1.714674e+01
 9.947137e-01	 5.114961e-01	 1.683683e+01
 9.885092e-01	 5.233864e-01	 1.652536e+01
 9.821509e-01	 5.352227e-01	 1.620843e+01
 9.756394e-01	 5.470022e-01	 1.588194e+01
 1.013326e+00	 4.907941e-01	 1.739325e+01
 1.007392e+00	 5.028630e-01	 1.709110e+01
 1.001301e+00	 5.148835e-01	 1.679122e+01
 9.950556e-01	 5.268525e-01	 1.648980e+01
 9.886552e-01	 5.387673e-01	 1.618284e+01
 9.821006e-01	 5.506247e-01	 1.586616e+01
 1.019993e+00	 4.940230e-01	 1.732834e+01
 1.014019e+00	 5.061713e-01	 1.703584e+01
 1.007889e+00	 5.182709e-01	 1.674564e+01
 1.001602e+00	 5.303187e-01	 1.645389e+01
 9.951595e-01	 5.423118e-01	 1.615652e+01
 9.885618e-01	 5.542472e-01	 1.584925e+01
 1.026660e+00	 4.972519e-01	 1.726392e+01
 1.020647e+00	 5.094796e-01	 1.698095e+01
 1.014476e+00	 5.216583e-01	 1.670019e+01
 1.008148e+00	 5.337848e-01	 1.641776e+01
 1.001664e+00	 5.458563e-01	 1.612953e+01
 9.950230e-01	 5.578698e-01	 1.583115e+01
 1.033326e+00	 5.004808e-01	 1.719981e+01
 1.027274e+00	 5.127880e-01	 1.692642e+01
 1.021064e+00	 5.250457e-01	 1.665495e+01
 1.014695e+00	 5.372509e-01	 1.638150e+01
 1.008168e+00	 5.494008e-01	 1.610191e+01
 1.001484e+00	 5.614923e-01	 1.581175e+01
 9.691782e-01	 5.433796e-01	 1.589665e+01
 9.625585e-01	 5.550217e-01	 1.555766e+01
 9.557880e-01	 5.666014e-01	 1.522316e+01
 9.488676e-01	 5.781160e-01	 1.488911e+01
 9.417982e-01	 5.895626e-01	 1.455142e+01
 9.345807e-01	 6.009383e-01	 1.420600e+01
 9.756394e-01	 5.470022e-01	 1.588194e+01
 9.689756e-01	 5.587218e-01	 1.555296e+01
 9.621599e-01	 5.703787e-01	 1.522856e+01
 9.551934e-01	 5.819701e-01	 1.490452e+01
 9.480769e-01	 5.934930e-01	 1.457654e+01
 9.408113e-01	 6.049445e-01	 1.424030e+01
 9.821006e-01	 5.506247e-01	 1.586616e+01
 9.753926e-01	 5.624220e-01	 1.554697e+01
 9.685319e-01	 5.741561e-01	 1.523244e+01
 9.615192e-01	 5.858242e-01	 1.491814e+01
 9.543555e-01	 5.974234e-01	 1.459956e+01
 9.470418e-01	 6.089508e-01	 1.427217e+01
 9.885618e-01	 5.542472e-01	 1.584925e+01
 9.818097e-01	 5.661221e-01	 1.553949e+01
 9.749038e-01	 5.779334e-01	 1.523449e+01
 9.678450e-01	 5.896783e-01	 1.492963e+01
 9.606342e-01	 6.013538e-01	 1.462021e+01
 9.532723e-01	 6.129570e-01	 1.430145e+01
 9.950230e-01	 5.578698e-01	 1.583115e+01
 9.882267e-01	 5.698222e-01	 1.553029e+01
 9.812757e-01	 5.817108e-01	 1.523440e+01
 9.741708e-01	 5.935324e-01	 1.493867e+01
 9.669128e-01	 6.052842e-01	 1.463817e+01
 9.595029e-01	 6.169633e-01	 1.432793e+01
 1.001484e+00	 5.614923e-01	 1.581175e+01
 9.946438e-01	 5.735224e-01	 1.551912e+01
 9.876476e-01	 5.854881e-01	 1.523184e+01
 9.804966e-01	 5.973865e-01	 1.494488e+01
 9.731915e-01	 6.092146e-01	 1.465312e+01
 9.657334e-01	 6.209695e-01	 1.435139e+01
 9.345807e-01	 6.009383e-01	 1.420600e+01
 9.272161e-01	 6.122403e-01	 1.385962e+01
 9.197055e-01	 6.234658e-01	 1.351934e+01
 9.120501e-01	 6.346120e-01	 1.318160e+01
 9.042512e-01	 6.456762e-01	 1.284295e+01
 8.963099e-01	 6.566556e-01	 1.250018e+01
 9.408113e-01	 6.049445e-01	 1.424030e+01
 9.333976e-01	 6.163219e-01	 1.390285e+01
 9.258369e-01	 6.276222e-01	 1.357159e+01
 9.181305e-01	 6.388428e-01	 1.324276e+01
 9.102795e-01	 6.499807e-01	 1.291276e+01
 9.022853e-01	 6.610333e-01	 1.257817e+01
 9.470418e-01	 6.089508e-01	 1.427217e+01
 9.395790e-01	 6.204035e-01	 1.394336e+01
 9.319683e-01	 6.317787e-01	 1.362085e+01
 9.242108e-01	 6.430735e-01	 1.330070e+01
 9.163078e-01	 6.542852e-01	 1.297908e+01
 9.082607e-01	 6.654110e-01	 1.265235e+01
 9.532723e-01	 6.129570e-01	 1.430145e+01
 9.457604e-01	 6.244851e-01	 1.398107e+01
 9.380997e-01	 6.359351e-01	 1.366713e+01
 9.302912e-01	 6.473043e-01	 1.335541e+01
 9.223362e-01	 6.585897e-01	 1.304184e+01
 9.142361e-01	 6.697887e-01	 1.272253e+01
 9.595029e-01	 6.169633e-01	 1.432793e+01
 9.519419e-01	 6.285667e-01	 1.401591e+01
 9.442310e-01	 6.400916e-01	 1.371037e+01
 9.363715e-01	 6.515350e-01	 1.340682e+01
 9.283645e-01	 6.628942e-01	 1.310093e+01
 9.202115e-01	 6.741664e-01	 1.278847e+01
 9.657334e-01	 6.209695e-01	 1.435139e+01
 9.581233e-01	 6.326483e-01	 1.404774e+01
 9.503624e-01	 6.442480e-01	 1.375049e+01
 9.424518e-01	 6.557658e-01	 1.345487e+01
 9.343929e-01	 6.671987e-01	 1.315620e+01
 9.261869e-01	 6.785441e-01	 1.284991e+01
 8.963099e-01	 6.566556e-01	 1.250018e+01
 8.882276e-01	 6.675474e-01	 1.215706e+01
 8.800059e-01	 6.783491e-01	 1.181819e+01
 8.716462e-01	 6.890578e-01	 1.148203e+01
 8.631502e-01	 6.996711e-01	 1.114741e+01
 8.545193e-01	 7.101864e-01	 1.081360e+01
 9.022853e-01	 6.610333e-01	 1.257817e+01
 8.941492e-01	 6.719977e-01	 1.224303e+01
 8.858726e-01	 6.828714e-01	 1.191220e+01
 8.774572e-01	 6.936516e-01	 1.158393e+01
 8.689045e-01	 7.043356e-01	 1.125690e+01
 8.602161e-01	 7.149210e-01	 1.093020e+01
 9.082607e-01	 6.654110e-01	 1.265235e+01
 9.000707e-01	 6.764481e-01	 1.232482e+01
 8.917393e-01	 6.873937e-01	 1.200166e+01
 8.832682e-01	 6.982453e-01	 1.168101e+01
 8.746588e-01	 7.090001e-01	 1.136141e+01
 8.659129e-01	 7.196555e-01	 1.104185e+01
 9.142361e-01	 6.697887e-01	 1.272253e+01
 9.059922e-01	 6.808984e-01	 1.240212e+01
 8.976061e-01	 6.919160e-01	 1.208626e+01
 8.890792e-01	 7.028390e-01	 1.177299e+01
 8.804132e-01	 7.136646e-01	 1.146080e+01
 8.716097e-01	 7.243901e-01	 1.114862e+01
 9.202115e-01	 6.741664e-01	 1.278847e+01
 9.119137e-01	 6.853487e-01	 1.247459e+01
 9.034728e-01	 6.964384e-01	 1.216562e+01
 8.948901e-01	 7.074327e-01	 1.185956e+01
 8.861675e-01	 7.183290e-01	 1.155488e+01
 8.773065e-01	 7.291247e-01	 1.125055e+01
 9.261869e-01	 6.785441e-01	 1.284991e+01
 9.178352e-01	 6.897990e-01	 1.254187e+01
 9.093395e-01	 7.009607e-01	 1.223935e+01
 9.007011e-01	 7.120264e-01	 1.194038e+01
 8.919218e-01	 7.229935e-01	 1.164346e+01
 8.830033e-01	 7.338593e-01	 1.134763e+01
 8.545193e-01	 7.101864e-01	 1.081360e+01
 8.457553e-01	 7.206010e-01	 1.048142e+01
 8.368601e-01	 7.309125e-01	 1.015142e+01
 8.278354e-01	 7.411184e-01	 9.823301e+00
 8.186831e-01	 7.512162e-01	 9.500570e+00
 8.094052e-01	 7.612037e-01	 9.193925e+00
 8.602161e-01	 7.149210e-01	 1.093020e+01
 8.513937e-01	 7.254050e-01	 1.060452e+01
 8.424392e-01	 7.357852e-01	 1.028028e+01
 8.333543e-01	 7.460592e-01	 9.957039e+00
 8.241410e-01	 7.562243e-01	 9.639399e+00
 8.148013e-01	 7.662784e-01	 9.338232e+00
 8.659129e-01	 7.196555e-01	 1.104185e+01
 8.570321e-01	 7.302090e-01	 1.072292e+01
 8.480183e-01	 7.406580e-01	 1.040487e+01
 8.388732e-01	 7.509999e-01	 1.008620e+01
 8.295989e-01	 7.612324e-01	 9.773269e+00
 8.201973e-01	 7.713531e-01	 9.477422e+00
 8.716097e-01	 7.243901e-01	 1.114862e+01
 8.626705e-01	 7.350130e-01	 1.083692e+01
 8.535973e-01	 7.455307e-01	 1.052489e+01
 8.443921e-01	 7.559407e-01	 1.020992e+01
 8.350568e-01	 7.662406e-01	 9.901358e+00
 8.255933e-01	 7.764278e-01	 9.610677e+00
 8.773065e-01	 7.291247e-01	 1.125055e+01
 8.683088e-01	 7.398170e-01	 1.094678e+01
 8.591764e-01	 7.504035e-01	 1.063895e+01
 8.499110e-01	 7.608815e-01	 1.032726e+01
 8.405147e-01	 7.712487e-01	 1.002280e+01
 8.309894e-01	 7.815025e-01	 9.737139e+00
 8.830033e-01	 7.338593e-01	 1.134763e+01
 8.739472e-01	 7.446210e-01	 1.105162e+01
 8.647555e-01	 7.552762e-01	 1.074599e+01
 8.554299e-01	 7.658223e-01	 1.043728e+01
 8.459726e-01	 7.762568e-01	 1.013670e+01
 8.363854e-01	 7.865772e-01	 9.855910e+00
 8.094052e-01	 7.612037e-01	 9.193925e+00
 8.000037e-01	 7.710784e-01	 8.889711e+00
 7.904807e-01	 7.808382e-01	 8.573402e+00
 7.808382e-01	 7.904807e-01	 8.255020e+00
 7.710784e-01	 8.000037e-01	 7.944517e+00
 7.612037e-01	 8.094052e-01	 7.651711e+00
 8.148013e-01	 7.662784e-01	 9.338232e+00
 8.053371e-01	 7.762190e-01	 9.038976e+00
 7.957505e-01	 7.860438e-01	 8.726513e+00
 7.860438e-01	 7.957505e-01	 8.411500e+00
 7.762190e-01	 8.053371e-01	 8.104535e+00
 7.662784e-01	 8.148013e-01	 7.816088e+00
 8.201973e-01	 7.713531e-01	 9.477422e+00
 8.106704e-01	 7.813595e-01	 9.183198e+00
 8.010204e-01	 7.912493e-01	 8.874845e+00
 7.912493e-01	 8.010204e-01	 8.563552e+00
 7.813595e-01	 8.106704e-01	 8.260456e+00
 7.713531e-01	 8.201973e-01	 7.976574e+00
 8.255933e-01	 7.764278e-01	 9.610677e+00
 8.160038e-01	 7.865000e-01	 9.321525e+00
 8.062903e-01	 7.964549e-01	 9.017481e+00
 7.964549e-01	 8.062903e-01	 8.710161e+00
 7.865000e-01	 8.160038e-01	 8.411144e+00
 7.764278e-01	 8.255933e-01	 8.131889e+00
 8.309894e-01	 7.815025e-01	 9.737139e+00
 8.213371e-01	 7.916405e-01	 9.453066e+00
 8.115601e-01	 8.016605e-01	 9.153461e+00
 8.016605e-01	 8.115601e-01	 8.850277e+00
 7.916405e-01	 8.213371e-01	 8.555429e+00
 7.815025e-01	 8.309894e-01	 8.280716e+00
 8.363854e-01	 7.865772e-01	 9.855910e+00
 8.266705e-01	 7.967811e-01	 9.576887e+00
 8.168300e-01	 8.068661e-01	 9.281790e+00
 8.068661e-01	 8.168300e-01	 8.982811e+00
 7.967811e-01	 8.266705e-01	 8.692106e+00
 7.865772e-01	 8.363854e-01	 8.421713e+00
 7.612037e-01	 8.094052e-01	 7.651711e+00
 7.512162e-01	 8.186831e-01	 7.368129e+00
 7.411184e-01	 8.278354e-01	 7.082586e+00
 7.309125e-01	 8.368601e-01	 6.800218e+00
 7.206010e-01	 8.457553e-01	 6.522952e+00
 7.101864e-01	 8.545193e-01	 6.250471e+00
 7.662784e-01	 8.148013e-01	 7.816088e+00
 7.562243e-01	 8.241410e-01	 7.536849e+00
 7.460592e-01	 8.333543e-01	 7.254273e+00
 7.357852e-01	 8.424392e-01	 6.973418e+00
 7.254050e-01	 8.513937e-01	 6.697237e+00
 7.149210e-01	 8.602161e-01	 6.425383e+00
 7.713531e-01	 8.201973e-01	 7.976574e+00
 7.612324e-01	 8.295989e-01	 7.701595e+00
 7.509999e-01	 8.388732e-01	 7.421644e+00
 7.406580e-01	 8.480183e-01	 7.141813e+00
 7.302090e-01	 8.570321e-01	 6.865967e+00
 7.196555e-01	 8.659129e-01	 6.594344e+00
 7.764278e-01	 8.255933e-01	 8.131889e+00
 7.662406e-01	 8.350568e-01	 7.860979e+00
 7.559407e-01	 8.443921e-01	 7.583300e+00
 7.455307e-01	 8.535973e-01	 7.304169e+00
 7.350130e-01	 8.626705e-01	 7.028108e+00
 7.243901e-01	 8.716097e-01	 6.756568e+00
 7.815025e-01	 8.309894e-01	 8.280716e+00
 7.712487e-01	 8.405147e-01	 8.013582e+00
 7.608815e-01	 8.499110e-01	 7.737812e+00
 7.504035e-01	 8.591764e-01	 7.459131e+00
 7.398170e-01	 8.683088e-01	 7.182605e+00
 7.291247e-01	 8.773065e-01	 6.911235e+00
 7.865772e-01	 8.363854e-01	 8.421713e+00
 7.762568e-01	 8.459726e-01	 8.157955e+00
 7.658223e-01	 8.554299e-01	 7.883722e+00
 7.552762e-01	 8.647555e-01	 7.605322e+00
 7.446210e-01	 8.739472e-01	 7.328409e+00
 7.338593e-01	 8.830033e-01	 7.057491e+00
 7.101864e-01	 8.545193e-01	 6.250471e+00
 6.996711e-01	 8.631502e-01	 5.983481e+00
 6.890578e-01	 8.716462e-01	 5.723490e+00
 6.783491e-01	 8.800059e-01	 5.470058e+00
 6.675474e-01	 8.882276e-01	 5.221926e+00
 6.566556e-01	 8.963099e-01	 4.977025e+00
 7.149210e-01	 8.602161e-01	 6.425383e+00
 7.043356e-01	 8.689045e-01	 6.158885e+00
 6.936516e-01	 8.774572e-01	 5.899620e+00
 6.828714e-01	 8.858726e-01	 5.646933e+00
 6.719977e-01	 8.941492e-01	 5.399313e+00
 6.610333e-01	 9.022853e-01	 5.154410e+00
 7.196555e-01	 8.659129e-01	 6.594344e+00
 7.090001e-01	 8.746588e-01	 6.328416e+00
 6.982453e-01	 8.832682e-01	 6.070275e+00
 6.873937e-01	 8.917393e-01	 5.818865e+00
 6.764481e-01	 9.000707e-01	 5.572229e+00
 6.654110e-01	 9.082607e-01	 5.327530e+00
 7.243901e-01	 8.716097e-01	 6.756568e+00
 7.136646e-01	 8.804132e-01	 6.491515e+00
 7.028390e-01	 8.890792e-01	 6.235021e+00
 6.919160e-01	 8.976061e-01	 5.985442e+00
 6.808984e-01	 9.059922e-01	 5.740182e+00
 6.697887e-01	 9.142361e-01	 5.495716e+00
 7.291247e-01	 8.773065e-01	 6.911235e+00
 7.183290e-01	 8.861675e-01	 6.647589e+00
 7.074327e-01	 8.948901e-01	 6.393384e+00
 6.964384e-01	 9.034728e-01	 6.146208e+00
 6.853487e-01	 9.119137e-01	 5.902640e+00
 6.741664e-01	 9.202115e-01	 5.658266e+00
 7.338593e-01	 8.830033e-01	 7.057491e+00
 7.229935e-01	 8.919218e-01	 6.796006e+00
 7.120264e-01	 9.007011e-01	 6.544849e+00
 7.009607e-01	 9.093395e-01	 6.300670e+00
 6.897990e-01	 9.178352e-01	 6.059033e+00
 6.785441e-01	 9.261869e-01	 5.814443e+00
 6.566556e-01	 8.963099e-01	 4.977025e+00
 6.456762e-01	 9.042512e-01	 4.738691e+00
 6.346120e-01	 9.120501e-01	 4.510530e+00
 6.234658e-01	 9.197055e-01	 4.289767e+00
 6.122403e-01	 9.272161e-01	 4.072961e+00
 6.009383e-01	 9.345807e-01	 3.856026e+00
 6.610333e-01	 9.022853e-01	 5.154410e+00
 6.499807e-01	 9.102795e-01	 4.915657e+00
 6.388428e-01	 9.181305e-01	 4.686838e+00
 6.276222e-01	 9.258369e-01	 4.464982e+00
 6.163219e-01	 9.333976e-01	 4.246419e+00
 6.049445e-01	 9.408113e-01	 4.026818e+00
 6.654110e-01	 9.082607e-01	 5.327530e+00
 6.542852e-01	 9.163078e-01	 5.088211e+00
 6.430735e-01	 9.242108e-01	 4.858392e+00
 6.317787e-01	 9.319683e-01	 4.635058e+00
 6.204035e-01	 9.395790e-01	 4.414478e+00
 6.089508e-01	 9.470418e-01	 4.192242e+00
 6.697887e-01	 9.142361e-01	 5.495716e+00
 6.585897e-01	 9.223362e-01	 5.255514e+00
 6.473043e-01	 9.302912e-01	 5.024286e+00
 6.359351e-01	 9.380997e-01	 4.799123e+00
 6.244851e-01	 9.457604e-01	 4.576394e+00
 6.129570e-01	 9.532723e-01	 4.351774e+00
 6.741664e-01	 9.202115e-01	 5.658266e+00
 6.628942e-01	 9.283645e-01	 5.416699e+00
 6.515350e-01	 9.363715e-01	 5.183587e+00
 6.400916e-01	 9.442310e-01	 4.956277e+00
 6.285667e-01	 9.519419e-01	 4.731392e+00
 6.169633e-01	 9.595029e-01	 4.504858e+00
 6.785441e-01	 9.261869e-01	 5.814443e+00
 6.671987e-01	 9.343929e-01	 5.570869e+00
 6.557658e-01	 9.424518e-01	 5.335337e+00
 6.442480e-01	 9.503624e-01	 5.105595e+00
 6.326483e-01	 9.581233e-01	 4.878671e+00
 6.209695e-01	 9.657334e-01	 4.650903e+00
 6.009383e-01	 9.345807e-01	 3.856026e+00
 5.895626e-01	 9.417982e-01	 3.644899e+00
 5.781160e-01	 9.488676e-01	 3.446261e+00
 5.666014e-01	 9.557880e-01	 3.256334e+00
 5.550217e-01	 9.625585e-01	 3.070895e+00
 5.433796e-01	 9.691782e-01	 2.885316e+00
 6.049445e-01	 9.408113e-01	 4.026818e+00
 5.934930e-01	 9.480769e-01	 3.812507e+00
 5.819701e-01	 9.551934e-01	 3.610747e+00
 5.703787e-01	 9.621599e-01	 3.417771e+00
 5.587218e-01	 9.689756e-01	 3.229365e+00
 5.470022e-01	 9.756394e-01	 3.040905e+00
 6.089508e-01	 9.470418e-01	 4.192242e+00
 5.974234e-01	 9.543555e-01	 3.975226e+00
 5.858242e-01	 9.615192e-01	 3.771157e+00
 5.741561e-01	 9.685319e-01	 3.576033e+00
 5.624220e-01	 9.753926e-01	 3.385395e+00
 5.506247e-01	 9.821006e-01	 3.194362e+00
 6.129570e-01	 9.532723e-01	 4.351774e+00
 6.013538e-01	 9.606342e-01	 4.132736e+00
 5.896783e-01	 9.678450e-01	 3.927243e+00
 5.779334e-01	 9.749038e-01	 3.730825e+00
 5.661221e-01	 9.818097e-01	 3.538527e+00
 5.542472e-01	 9.885618e-01	 3.344951e+00
 6.169633e-01	 9.595029e-01	 4.504858e+00
 6.052842e-01	 9.669128e-01	 4.284676e+00
 5.935324e-01	 9.741708e-01	 4.078721e+00
 5.817108e-01	 9.812757e-01	 3.881818e+00
 5.698222e-01	 9.882267e-01	 3.688271e+00
 5.578698e-01	 9.950230e-01	 3.491914e+00
 6.209695e-01	 9.657334e-01	 4.650903e+00
 6.092146e-01	 9.731915e-01	 4.430649e+00
 5.973865e-01	 9.804966e-01	 4.225267e+00
 5.854881e-01	 9.876476e-01	 4.028644e+00
 5.735224e-01	 9.946438e-01	 3.834108e+00
 5.614923e-01	 1.001484e+00	 3.634471e+00
 5.433796e-01	 9.691782e-01	 2.885316e+00
 5.316782e-01	 9.756465e-01	 2.705273e+00
 5.199203e-01	 9.819627e-01	 2.537231e+00
 5.081087e-01	 9.881262e-01	 2.377265e+00
 4.962464e-01	 9.941365e-01	 2.221218e+00
 4.843363e-01	 9.999931e-01	 2.064742e+00
 5.470022e-01	 9.756394e-01	 3.040905e+00
 5.352227e-01	 9.821509e-01	 2.858267e+00
 5.233864e-01	 9.885092e-01	 2.687831e+00
 5.114961e-01	 9.947137e-01	 2.525246e+00
 4.995547e-01	 1.000764e+00	 2.365910e+00
 4.875652e-01	 1.006660e+00	 2.205013e+00
 5.506247e-01	 9.821006e-01	 3.194362e+00
 5.387673e-01	 9.886552e-01	 3.008783e+00
 5.268525e-01	 9.950556e-01	 2.835146e+00
 5.148835e-01	 1.001301e+00	 2.669023e+00
 5.028630e-01	 1.007392e+00	 2.505733e+00
 4.907941e-01	 1.013326e+00	 2.340380e+00
 5.542472e-01	 9.885618e-01	 3.344951e+00
 5.423118e-01	 9.951595e-01	 3.155841e+00
 5.303187e-01	 1.001602e+00	 2.978114e+00
 5.182709e-01	 1.007889e+00	 2.807616e+00
 5.061713e-01	 1.014019e+00	 2.639939e+00
 4.940230e-01	 1.019993e+00	 2.470468e+00
 5.578698e-01	 9.950230e-01	 3.491914e+00
 5.458563e-01	 1.001664e+00	 3.298445e+00
 5.337848e-01	 1.008148e+00	 3.115667e+00
 5.216583e-01	 1.014476e+00	 2.940033e+00
 5.094796e-01	 1.020647e+00	 2.767763e+00
 4.972519e-01	 1.026660e+00	 2.594880e+00
 5.614923e-01	 1.001484e+00	 3.634471e+00
 5.494008e-01	 1.008168e+00	 3.435587e+00
 5.372509e-01	 1.014695e+00	 3.246723e+00
 5.250457e-01	 1.021064e+00	 3.065274e+00
 5.127880e-01	 1.027274e+00	 2.888426e+00
 5.004808e-01	 1.033326e+00	 2.713193e+00
 4.843363e-01	 9.999931e-01	 2.064742e+00
 4.723812e-01	 1.005696e+00	 1.913035e+00
 4.603841e-01	 1.011244e+00	 1.772212e+00
 4.483478e-01	 1.016638e+00	 1.639149e+00
 4.362752e-01	 1.021877e+00	 1.510702e+00
 4.241693e-01	 1.026961e+00	 1.383749e+00
 4.875652e-01	 1.006660e+00	 2.205013e+00
 4.755304e-01	 1.012400e+00	 2.047854e+00
 4.634533e-01	 1.017986e+00	 1.901116e+00
 4.513368e-01	 1.023415e+00	 1.761911e+00
 4.391837e-01	 1.028689e+00	 1.627345e+00
 4.269970e-01	 1.033807e+00	 1.494551e+00
 4.907941e-01	 1.013326e+00	 2.340380e+00
 4.786796e-01	 1.019105e+00	 2.178682e+00
 4.665225e-01	 1.024727e+00	 2.027653e+00
 4.543258e-01	 1.030193e+00	 1.884180e+00
 4.420922e-01	 1.035502e+00	 1.745144e+00
 4.298248e-01	 1.040654e+00	 1.607456e+00
 4.940230e-01	 1.019993e+00	 2.470468e+00
 4.818288e-01	 1.025810e+00	 2.305509e+00
 4.695918e-01	 1.031469e+00	 2.152026e+00
 4.573148e-01	 1.036970e+00	 2.006228e+00
 4.450007e-01	 1.042314e+00	 1.864310e+00
 4.326526e-01	 1.047500e+00	 1.722490e+00
 4.972519e-01	 1.026660e+00	 2.594880e+00
 4.849780e-01	 1.032514e+00	 2.428294e+00
 4.726610e-01	 1.038210e+00	 2.274405e+00
 4.603037e-01	 1.043748e+00	 2.128297e+00
 4.479092e-01	 1.049127e+00	 1.985025e+00
 4.354804e-01	 1.054346e+00	 1.839654e+00
 5.004808e-01	 1.033326e+00	 2.713193e+00
 4.881272e-01	 1.039219e+00	 2.546966e+00
 4.757302e-01	 1.044952e+00	 2.394923e+00
 4.632927e-01	 1.050526e+00	 2.250590e+00
 4.508177e-01	 1.055939e+00	 2.107437e+00
 4.383082e-01	 1.061193e+00	 1.958923e+00
 4.241693e-01	 1.026961e+00	 1.383749e+00
 4.120327e-01	 1.031890e+00	 1.259022e+00
 3.998684e-01	 1.036664e+00	 1.140347e+00
 3.876793e-01	 1.041284e+00	 1.029398e+00
 3.754680e-01	 1.045749e+00	 9.280293e-01
 3.632375e-01	 1.050060e+00	 8.395218e-01
 4.269970e-01	 1.033807e+00	 1.494551e+00
 4.147796e-01	 1.038769e+00	 1.365031e+00
 4.025342e-01	 1.043576e+00	 1.243075e+00
 3.902638e-01	 1.048226e+00	 1.130160e+00
 3.779711e-01	 1.052721e+00	 1.027947e+00
 3.656591e-01	 1.057061e+00	 9.387980e-01
 4.298248e-01	 1.040654e+00	 1.607456e+00
 4.175265e-01	 1.045649e+00	 1.473010e+00
 4.052000e-01	 1.050487e+00	 1.346674e+00
 3.928483e-01	 1.055168e+00	 1.229992e+00
 3.804743e-01	 1.059693e+00	 1.124698e+00
 3.680807e-01	 1.064061e+00	 1.032846e+00
 4.326526e-01	 1.047500e+00	 1.722490e+00
 4.202734e-01	 1.052528e+00	 1.582766e+00
 4.078658e-01	 1.057398e+00	 1.450788e+00
 3.954329e-01	 1.062110e+00	 1.328423e+00
 3.829774e-01	 1.066664e+00	 1.217736e+00
 3.705022e-01	 1.071061e+00	 1.121014e+00
 4.354804e-01	 1.054346e+00	 1.839654e+00
 4.230202e-01	 1.059407e+00	 1.694093e+00
 4.105316e-01	 1.064309e+00	 1.555052e+00
 3.980174e-01	 1.069052e+00	 1.424974e+00
 3.854805e-01	 1.073636e+00	 1.306510e+00
 3.729238e-01	 1.078062e+00	 1.202539e+00
 4.383082e-01	 1.061193e+00	 1.958923e+00
 4.257671e-01	 1.066286e+00	 1.806762e+00
 4.131974e-01	 1.071220e+00	 1.659087e+00
 4.006019e-01	 1.075994e+00	 1.519161e+00
 3.879836e-01	 1.080608e+00	 1.390467e+00
 3.753454e-01	 1.085062e+00	 1.276727e+00
 3.632375e-01	 1.050060e+00	 8.395218e-01
 3.509904e-01	 1.054217e+00	 7.567651e-01
 3.387296e-01	 1.058220e+00	 6.677385e-01
 3.264577e-01	 1.062070e+00	 5.761817e-01
 3.141775e-01	 1.065768e+00	 4.867097e-01
 3.018915e-01	 1.069313e+00	 4.047824e-01
 3.656591e-01	 1.057061e+00	 9.387980e-01
 3.533304e-01	 1.061245e+00	 8.537124e-01
 3.409878e-01	 1.065275e+00	 7.606412e-01
 3.286341e-01	 1.069151e+00	 6.637790e-01
 3.162720e-01	 1.072873e+00	 5.682398e-01
 3.039042e-01	 1.076441e+00	 4.800234e-01
 3.680807e-01	 1.064061e+00	 1.032846e+00
 3.556703e-01	 1.068273e+00	 9.433334e-01
 3.432460e-01	 1.072330e+00	 8.444398e-01
 3.308105e-01	 1.076231e+00	 7.411824e-01
 3.183665e-01	 1.079978e+00	 6.395480e-01
 3.059168e-01	 1.083570e+00	 5.464557e-01
 3.705022e-01	 1.071061e+00	 1.121014e+00
 3.580102e-01	 1.075301e+00	 1.025053e+00
 3.455042e-01	 1.079385e+00	 9.187327e-01
 3.329869e-01	 1.083312e+00	 8.082553e-01
 3.204610e-01	 1.087083e+00	 7.008467e-01
 3.079294e-01	 1.090699e+00	 6.047170e-01
 3.729238e-01	 1.078062e+00	 1.202539e+00
 3.603502e-01	 1.082330e+00	 1.098285e+00
 3.477624e-01	 1.086439e+00	 9.831097e-01
 3.351632e-01	 1.090392e+00	 8.648506e-01
 3.225555e-01	 1.094188e+00	 7.523328e-01
 3.099420e-01	 1.097828e+00	 6.554220e-01
 3.753454e-01	 1.085062e+00	 1.276727e+00
 3.626901e-01	 1.089358e+00	 1.162437e+00
 3.500206e-01	 1.093494e+00	 1.037151e+00
 3.373396e-01	 1.097473e+00	 9.108096e-01
 3.246501e-01	 1.101293e+00	 7.941873e-01
 3.119546e-01	 1.104956e+00	 6.991629e-01
 3.018915e-01	 1.069313e+00	 4.047824e-01
 2.896026e-01	 1.072706e+00	 3.295523e-01
 2.773132e-01	 1.075949e+00	 2.561898e-01
 2.650260e-01	 1.079041e+00	 1.853177e-01
 2.527434e-01	 1.081984e+00	 1.182258e-01
 2.404681e-01	 1.084778e+00	 5.682172e-02
 3.039042e-01	 1.076441e+00	 4.800234e-01
 2.915333e-01	 1.079857e+00	 3.981633e-01
 2.791619e-01	 1.083122e+00	 3.175936e-01
 2.667928e-01	 1.086234e+00	 2.393623e-01
 2.544284e-01	 1.089197e+00	 1.652210e-01
 2.420712e-01	 1.092010e+00	 9.757401e-02
 3.059168e-01	 1.083570e+00	 5.464557e-01
 2.934640e-01	 1.087009e+00	 4.610291e-01
 2.810107e-01	 1.090295e+00	 3.775836e-01
 2.685596e-01	 1.093428e+00	 2.970849e-01
 2.561133e-01	 1.096410e+00	 2.212396e-01
 2.436743e-01	 1.099242e+00	 1.524420e-01
 3.079294e-01	 1.090699e+00	 6.047170e-01
 2.953946e-01	 1.094160e+00	 5.191825e-01
 2.828595e-01	 1.097468e+00	 4.374626e-01
 2.703265e-01	 1.100622e+00	 3.599448e-01
 2.577983e-01	 1.103623e+00	 2.877946e-01
 2.452774e-01	 1.106473e+00	 2.228998e-01
 3.099420e-01	 1.097828e+00	 6.554220e-01
 2.973253e-01	 1.101312e+00	 5.736263e-01
 2.847082e-01	 1.104641e+00	 4.984998e-01
 2.720933e-01	 1.107815e+00	 4.293663e-01
 2.594832e-01	 1.110837e+00	 3.663642e-01
 2.468805e-01	 1.113705e+00	 3.063164e-01
 3.119546e-01	 1.104956e+00	 6.991629e-01
 2.992560e-01	 1.108463e+00	 6.253344e-01
 2.865570e-01	 1.111814e+00	 5.615744e-01
 2.738601e-01	 1.115009e+00	 4.963120e-01
 2.611682e-01	 1.118050e+00	 4.271679e-01
 2.484837e-01	 1.120937e+00	 3.573886e-01
 2.404681e-01	 1.084778e+00	 5.682172e-02
 2.282024e-01	 1.087424e+00	 5.367250e-06
 2.159489e-01	 1.089924e+00	-5.456940e-02
 2.037099e-01	 1.092278e+00	-1.060837e-01
 1.914878e-01	 1.094486e+00	-1.533016e-01
 1.792849e-01	 1.096551e+00	-1.946315e-01
 2.420712e-01	 1.092010e+00	 9.757401e-02
 2.297238e-01	 1.094674e+00	 3.562401e-02
 2.173886e-01	 1.097190e+00	-2.308222e-02
 2.050680e-01	 1.099559e+00	-7.779953e-02
 1.927644e-01	 1.101783e+00	-1.273399e-01
 1.804802e-01	 1.103862e+00	-1.701370e-01
 2.436743e-01	 1.099242e+00	 1.524420e-01
 2.312451e-01	 1.101923e+00	 8.976046e-02
 2.188282e-01	 1.104456e+00	 3.054941e-02
 2.064260e-01	 1.106841e+00	-2.449786e-02
 1.940410e-01	 1.109079e+00	-7.421924e-02
 1.816754e-01	 1.111172e+00	-1.170526e-01
 2.452774e-01	 1.106473e+00	 2.228998e-01
 2.327665e-01	 1.109173e+00	 1.637996e-01
 2.202679e-01	 1.111722e+00	 1.074086e-01
 2.077841e-01	 1.114123e+00	 5.055093e-02
 1.953176e-01	 1.116376e+00	-5.443113e-03
 1.828706e-01	 1.118482e+00	-5.713672e-02
 2.468805e-01	 1.113705e+00	 3.063164e-01
 2.342878e-01	 1.116422e+00	 2.430939e-01
 2.217075e-01	 1.118988e+00	 1.764769e-01
 2.091422e-01	 1.121405e+00	 1.096096e-01
 1.965942e-01	 1.123673e+00	 4.567487e-02
 1.840659e-01	 1.125793e+00	-1.215979e-02
 2.484837e-01	 1.120937e+00	 3.573886e-01
 2.358092e-01	 1.123672e+00	 2.867171e-01
 2.231472e-01	 1.126255e+00	 2.145085e-01
 2.105002e-01	 1.128687e+00	 1.436506e-01
 1.978707e-01	 1.130969e+00	 7.705757e-02
 1.852611e-01	 1.133103e+00	 1.761852e-02
 1.792849e-01	 1.096551e+00	-1.946315e-01
 1.671036e-01	 1.098474e+00	-2.304144e-01
 1.549460e-01	 1.100254e+00	-2.625855e-01
 1.428143e-01	 1.101895e+00	-2.915899e-01
 1.307107e-01	 1.103396e+00	-3.177520e-01
 1.186374e-01	 1.104759e+00	-3.413340e-01
 1.804802e-01	 1.103862e+00	-1.701370e-01
 1.682176e-01	 1.105797e+00	-2.067866e-01
 1.559789e-01	 1.107589e+00	-2.395627e-01
 1.437664e-01	 1.109241e+00	-2.690377e-01
 1.315821e-01	 1.110752e+00	-2.956547e-01
 1.194283e-01	 1.112124e+00	-3.200556e-01
 1.816754e-01	 1.111172e+00	-1.170526e-01
 1.693316e-01	 1.113120e+00	-1.553682e-01
 1.570119e-01	 1.114924e+00	-1.921741e-01
 1.447185e-01	 1.116587e+00	-2.270009e-01
 1.324535e-01	 1.118108e+00	-2.595354e-01
 1.202192e-01	 1.119489e+00	-2.896464e-01
 1.828706e-01	 1.118482e+00	-5.713672e-02
 1.704456e-01	 1.120443e+00	-1.041517e-01
 1.580449e-01	 1.122259e+00	-1.481612e-01
 1.456706e-01	 1.123933e+00	-1.889399e-01
 1.333250e-01	 1.125464e+00	-2.264153e-01
 1.210102e-01	 1.126854e+00	-2.606909e-01
 1.840659e-01	 1.125793e+00	-1.215979e-02
 1.715597e-01	 1.127766e+00	-6.403168e-02
 1.590778e-01	 1.129594e+00	-1.120620e-01
 1.466227e-01	 1.131279e+00	-1.561968e-01
 1.341964e-01	 1.132820e+00	-1.965311e-01
 1.218011e-01	 1.134220e+00	-2.333295e-01
 1.852611e-01	 1.133103e+00	 1.761852e-02
 1.726737e-01	 1.135089e+00	-3.529079e-02
 1.601108e-01	 1.136930e+00	-8.415731e-02
 1.475748e-01	 1.138625e+00	-1.290283e-01
 1.350678e-01	 1.140176e+00	-1.700959e-01
 1.225920e-01	 1.141585e+00	-2.077150e-01
 1.186374e-01	 1.104759e+00	-3.413340e-01
 1.065964e-01	 1.105986e+00	-3.627370e-01
 9.458968e-02	 1.107078e+00	-3.819338e-01
 8.261929e-02	 1.108035e+00	-3.986272e-01
 7.068714e-02	 1.108860e+00	-4.126892e-01
 5.879512e-02	 1.109554e+00	-4.242107e-01
 1.194283e-01	 1.112124e+00	-3.200556e-01
 1.073070e-01	 1.113359e+00	-3.430838e-01
 9.522028e-02	 1.114458e+00	-3.642725e-01
 8.317009e-02	 1.115422e+00	-3.830056e-01
 7.115839e-02	 1.116253e+00	-3.989567e-01
 5.918709e-02	 1.116951e+00	-4.121095e-01
 1.202192e-01	 1.119489e+00	-2.896464e-01
 1.080177e-01	 1.120733e+00	-3.174128e-01
 9.585088e-02	 1.121839e+00	-3.424415e-01
 8.372088e-02	 1.122809e+00	-3.642401e-01
 7.162963e-02	 1.123645e+00	-3.825900e-01
 5.957906e-02	 1.124348e+00	-3.975654e-01
 1.210102e-01	 1.126854e+00	-2.606909e-01
 1.087283e-01	 1.128106e+00	-2.919873e-01
 9.648148e-02	 1.129219e+00	-3.199505e-01
 8.427168e-02	 1.130196e+00	-3.441514e-01
 7.210088e-02	 1.131038e+00	-3.644205e-01
 5.997103e-02	 1.131746e+00	-3.808634e-01
 1.218011e-01	 1.134220e+00	-2.333295e-01
 1.094390e-01	 1.135479e+00	-2.668824e-01
 9.711208e-02	 1.136600e+00	-2.968127e-01
 8.482247e-02	 1.137583e+00	-3.226977e-01
 7.257213e-02	 1.138430e+00	-3.443593e-01
 6.036299e-02	 1.139143e+00	-3.618786e-01
 1.225920e-01	 1.141585e+00	-2.077150e-01
 1.101496e-01	 1.142852e+00	-2.421839e-01
 9.774267e-02	 1.143980e+00	-2.730512e-01
 8.537327e-02	 1.144970e+00	-2.998450e-01
 7.304338e-02	 1.145822e+00	-3.223245e-01
 6.075496e-02	 1.146540e+00	-3.404913e-01
 5.879512e-02	 1.109554e+00	-4.242107e-01
 4.694509e-02	 1.110119e+00	-4.338745e-01
 3.513883e-02	 1.110555e+00	-4.416328e-01
 2.337810e-02	 1.110865e+00	-4.469688e-01
 1.166460e-02	 1.111050e+00	-4.497894e-01
-1.337772e-318	 1.111116e+00	-4.499110e-01
 5.918709e-02	 1.116951e+00	-4.121095e-01
 4.725806e-02	 1.117520e+00	-4.231582e-01
 3.537309e-02	 1.117959e+00	-4.320596e-01
 2.353395e-02	 1.118271e+00	-4.382446e-01
 1.174237e-02	 1.118457e+00	-4.415750e-01
-6.870674e-319	 1.118524e+00	-4.417821e-01
 5.957906e-02	 1.124348e+00	-3.975654e-01
 4.757102e-02	 1.124921e+00	-4.100017e-01
 3.560735e-02	 1.125363e+00	-4.199706e-01
 2.368981e-02	 1.125677e+00	-4.269236e-01
 1.182013e-02	 1.125864e+00	-4.307191e-01
-3.059502e-319	 1.125932e+00	-4.310235e-01
 5.997103e-02	 1.131746e+00	-3.808634e-01
 4.788399e-02	 1.132321e+00	-3.944089e-01
 3.584161e-02	 1.132766e+00	-4.052373e-01
 2.384566e-02	 1.133082e+00	-4.128227e-01
 1.189790e-02	 1.133271e+00	-4.170214e-01
-1.429628e-319	 1.133340e+00	-4.174342e-01
 6.036299e-02	 1.139143e+00	-3.618786e-01
 4.819696e-02	 1.139722e+00	-3.762273e-01
 3.607587e-02	 1.140170e+00	-3.876845e-01
 2.400152e-02	 1.140488e+00	-3.957505e-01
 1.197566e-02	 1.140678e+00	-4.002816e-01
-1.466337e-319	 1.140748e+00	-4.008129e-01
 6.075496e-02	 1.146540e+00	-3.404913e-01
 4.850992e-02	 1.147123e+00	-3.553079e-01
 3.631012e-02	 1.147574e+00	-3.671397e-01
 2.415737e-02	 1.147894e+00	-3.755177e-01
 1.205342e-02	 1.148085e+00	-3.803004e-01
-2.654961e-319	 1.148155e+00	-3.809589e-01
 1.148148e+00	 0.000000e+00	 2.296636e+01
 1.148085e+00	 1.205342e-02	 2.296116e+01
 1.147894e+00	 2.415737e-02	 2.295025e+01
 1.147574e+00	 3.631012e-02	 2.293280e+01
 1.147123e+00	 4.850992e-02	 2.290809e+01
 1.146540e+00	 6.075496e-02	 2.287552e+01
 1.155556e+00	 0.000000e+00	 2.269072e+01
 1.155492e+00	 1.213119e-02	 2.268558e+01
 1.155300e+00	 2.431322e-02	 2.267510e+01
 1.154978e+00	 3.654438e-02	 2.265842e+01
 1.154524e+00	 4.882289e-02	 2.263481e+01
 1.153937e+00	 6.114693e-02	 2.260364e+01
 1.162963e+00	 0.000000e+00	 2.242342e+01
 1.162899e+00	 1.220895e-02	 2.241835e+01
 1.162706e+00	 2.446908e-02	 2.240828e+01
 1.162381e+00	 3.677864e-02	 2.239233e+01
 1.161924e+00	 4.913586e-02	 2.236975e+01
 1.161334e+00	 6.153890e-02	 2.233991e+01
 1.170370e+00	 0.000000e+00	 2.216400e+01
 1.170306e+00	 1.228672e-02	 2.215901e+01
 1.170111e+00	 2.462493e-02	 2.214933e+01
 1.169785e+00	 3.701290e-02	 2.213407e+01
 1.169325e+00	 4.944883e-02	 2.211248e+01
 1.168731e+00	 6.193086e-02	 2.208390e+01
 1.177778e+00	 0.000000e+00	 2.191201e+01
 1.177713e+00	 1.236448e-02	 2.190711e+01
 1.177517e+00	 2.478079e-02	 2.189780e+01
 1.177189e+00	 3.724716e-02	 2.188320e+01
 1.176726e+00	 4.976179e-02	 2.186255e+01
 1.176128e+00	 6.232283e-02	 2.183517e+01
 1.185185e+00	 0.000000e+00	 2.166704e+01
 1.185120e+00	 1.244224e-02	 2.166221e+01
 1.184923e+00	 2.493664e-02	 2.165325e+01
 1.184592e+00	 3.748142e-02	 2.163928e+01
 1.184127e+00	 5.007476e-02	 2.161952e+01
 1.183525e+00	 6.271480e-02	 2.159329e+01
 1.146540e+00	 6.075496e-02	 2.287552e+01
 1.145822e+00	 7.304338e-02	 2.283550e+01
 1.144970e+00	 8.537327e-02	 2.278841e+01
 1.143980e+00	 9.774267e-02	 2.273377e+01
 1.142852e+00	 1.101496e-01	 2.267126e+01
 1.141585e+00	 1.225920e-01	 2.260063e+01
 1.153937e+00	 6.114693e-02	 2.260364e+01
 1.153215e+00	 7.351463e-02	 2.256534e+01
 1.152357e+00	 8.592406e-02	 2.252029e+01
 1.151361e+00	 9.837327e-02	 2.246801e+01
 1.150225e+00	 1.108602e-01	 2.240812e+01
 1.148950e+00	 1.233829e-01	 2.234038e+01
 1.161334e+00	 6.153890e-02	 2.233991e+01
 1.160607e+00	 7.398587e-02	 2.230323e+01
 1.159743e+00	 8.647486e-02	 2.226011e+01
 1.158741e+00	 9.900387e-02	 2.221003e+01
 1.157599e+00	 1.115709e-01	 2.215260e+01
 1.156315e+00	 1.241738e-01	 2.208753e+01
 1.168731e+00	 6.193086e-02	 2.208390e+01
 1.168000e+00	 7.445712e-02	 2.204875e+01
 1.167130e+00	 8.702565e-02	 2.200745e+01
 1.166122e+00	 9.963447e-02	 2.195946e+01
 1.164972e+00	 1.122815e-01	 2.190434e+01
 1.163680e+00	 1.249647e-01	 2.184178e+01
 1.176128e+00	 6.232283e-02	 2.183517e+01
 1.175392e+00	 7.492837e-02	 2.180149e+01
 1.174517e+00	 8.757645e-02	 2.176194e+01
 1.173502e+00	 1.002651e-01	 2.171593e+01
 1.172345e+00	 1.129922e-01	 2.166300e+01
 1.171045e+00	 1.257557e-01	 2.160280e+01
 1.183525e+00	 6.271480e-02	 2.159329e+01
 1.182784e+00	 7.539962e-02	 2.156104e+01
 1.181904e+00	 8.812724e-02	 2.152317e+01
 1.180883e+00	 1.008957e-01	 2.147908e+01
 1.179718e+00	 1.137028e-01	 2.142825e+01
 1.178410e+00	 1.265466e-01	 2.137029e+01
 1.141585e+00	 1.225920e-01	 2.260063e+01
 1.140176e+00	 1.350678e-01	 2.252237e+01
 1.138625e+00	 1.475748e-01	 2.243693e+01
 1.136930e+00	 1.601108e-01	 2.234426e+01
 1.135089e+00	 1.726737e-01	 2.224444e+01
 1.133103e+00	 1.852611e-01	 2.213770e+01
 1.148950e+00	 1.233829e-01	 2.234038e+01
 1.147532e+00	 1.359392e-01	 2.226536e+01
 1.145971e+00	 1.485269e-01	 2.218363e+01
 1.144265e+00	 1.611438e-01	 2.209512e+01
 1.142413e+00	 1.737877e-01	 2.199990e+01
 1.140413e+00	 1.864563e-01	 2.189814e+01
 1.156315e+00	 1.241738e-01	 2.208753e+01
 1.154888e+00	 1.368106e-01	 2.201551e+01
 1.153316e+00	 1.494790e-01	 2.193722e+01
 1.151600e+00	 1.621768e-01	 2.185258e+01
 1.149736e+00	 1.749017e-01	 2.176162e+01
 1.147724e+00	 1.876516e-01	 2.166452e+01
 1.163680e+00	 1.249647e-01	 2.184178e+01
 1.162244e+00	 1.376820e-01	 2.177255e+01
 1.160662e+00	 1.504311e-01	 2.169747e+01
 1.158935e+00	 1.632097e-01	 2.161642e+01
 1.157059e+00	 1.760158e-01	 2.152945e+01
 1.155034e+00	 1.888468e-01	 2.143671e+01
 1.171045e+00	 1.257557e-01	 2.160280e+01
 1.169600e+00	 1.385534e-01	 2.153620e+01
 1.168008e+00	 1.513831e-01	 2.146411e+01
 1.166270e+00	 1.642427e-01	 2.138644e+01
 1.164382e+00	 1.771298e-01	 2.130321e+01
 1.162344e+00	 1.900420e-01	 2.121459e+01
 1.178410e+00	 1.265466e-01	 2.137029e+01
 1.176956e+00	 1.394248e-01	 2.130616e+01
 1.175354e+00	 1.523352e-01	 2.123691e+01
 1.173605e+00	 1.652757e-01	 2.116242e+01
 1.171705e+00	 1.782438e-01	 2.108275e+01
 1.169655e+00	 1.912373e-01	 2.099804e+01
 1.133103e+00	 1.852611e-01	 2.213770e+01
 1.130969e+00	 1.978707e-01	 2.202273e+01
 1.128687e+00	 2.105002e-01	 2.189863e+01
 1.126255e+00	 2.231472e-01	 2.176634e+01
 1.123672e+00	 2.358092e-01	 2.162692e+01
 1.120937e+00	 2.484837e-01	 2.148149e+01
 1.140413e+00	 1.864563e-01	 2.189814e+01
 1.138266e+00	 1.991473e-01	 2.178837e+01
 1.135969e+00	 2.118583e-01	 2.166942e+01
 1.133521e+00	 2.245868e-01	 2.154217e+01
 1.130921e+00	 2.373305e-01	 2.140759e+01
 1.128169e+00	 2.500868e-01	 2.126674e+01
 1.147724e+00	 1.876516e-01	 2.166452e+01
 1.145562e+00	 2.004239e-01	 2.155962e+01
 1.143250e+00	 2.132164e-01	 2.144555e+01
 1.140787e+00	 2.260265e-01	 2.132313e+01
 1.138171e+00	 2.388519e-01	 2.119326e+01
 1.135401e+00	 2.516899e-01	 2.105695e+01
 1.155034e+00	 1.888468e-01	 2.143671e+01
 1.152859e+00	 2.017005e-01	 2.133640e+01
 1.150532e+00	 2.145744e-01	 2.122698e+01
 1.148053e+00	 2.274662e-01	 2.110919e+01
 1.145420e+00	 2.403732e-01	 2.098391e+01
 1.142633e+00	 2.532930e-01	 2.085206e+01
 1.162344e+00	 1.900420e-01	 2.121459e+01
 1.160156e+00	 2.029771e-01	 2.111864e+01
 1.157814e+00	 2.159325e-01	 2.101364e+01
 1.155319e+00	 2.289058e-01	 2.090032e+01
 1.152670e+00	 2.418946e-01	 2.077947e+01
 1.149865e+00	 2.548962e-01	 2.065203e+01
 1.169655e+00	 1.912373e-01	 2.099804e+01
 1.167452e+00	 2.042537e-01	 2.090623e+01
 1.165096e+00	 2.172906e-01	 2.080548e+01
 1.162585e+00	 2.303455e-01	 2.069645e+01
 1.159919e+00	 2.434159e-01	 2.057993e+01
 1.157096e+00	 2.564993e-01	 2.045679e+01
 1.120937e+00	 2.484837e-01	 2.148149e+01
 1.118050e+00	 2.611682e-01	 2.132914e+01
 1.115009e+00	 2.738601e-01	 2.116946e+01
 1.111814e+00	 2.865570e-01	 2.100444e+01
 1.108463e+00	 2.992560e-01	 2.083518e+01
 1.104956e+00	 3.119546e-01	 2.066123e+01
 1.128169e+00	 2.500868e-01	 2.126674e+01
 1.125263e+00	 2.628531e-01	 2.111901e+01
 1.122202e+00	 2.756270e-01	 2.096420e+01
 1.118986e+00	 2.884057e-01	 2.080415e+01
 1.115614e+00	 3.011867e-01	 2.064079e+01
 1.112085e+00	 3.139672e-01	 2.047615e+01
 1.135401e+00	 2.516899e-01	 2.105695e+01
 1.132476e+00	 2.645381e-01	 2.091397e+01
 1.129396e+00	 2.773938e-01	 2.076448e+01
 1.126159e+00	 2.902545e-01	 2.061022e+01
 1.122766e+00	 3.031174e-01	 2.045304e+01
 1.119214e+00	 3.159798e-01	 2.029487e+01
 1.142633e+00	 2.532930e-01	 2.085206e+01
 1.139689e+00	 2.662231e-01	 2.071390e+01
 1.136590e+00	 2.791607e-01	 2.057004e+01
 1.133332e+00	 2.921032e-01	 2.042214e+01
 1.129917e+00	 3.050481e-01	 2.027201e+01
 1.126343e+00	 3.179924e-01	 2.012157e+01
 1.149865e+00	 2.548962e-01	 2.065203e+01
 1.146903e+00	 2.679080e-01	 2.051869e+01
 1.143783e+00	 2.809275e-01	 2.038059e+01
 1.140505e+00	 2.939520e-01	 2.023938e+01
 1.137068e+00	 3.069787e-01	 2.009687e+01
 1.133471e+00	 3.200050e-01	 1.995496e+01
 1.157096e+00	 2.564993e-01	 2.045679e+01
 1.154116e+00	 2.695930e-01	 2.032823e+01
 1.150977e+00	 2.826943e-01	 2.019587e+01
 1.147678e+00	 2.958007e-01	 2.006144e+01
 1.144220e+00	 3.089094e-01	 1.992676e+01
 1.140600e+00	 3.220177e-01	 1.979379e+01
 1.104956e+00	 3.119546e-01	 2.066123e+01
 1.101293e+00	 3.246501e-01	 2.047784e+01
 1.097473e+00	 3.373396e-01	 2.028105e+01
 1.093494e+00	 3.500206e-01	 2.007288e+01
 1.089358e+00	 3.626901e-01	 1.985501e+01
 1.085062e+00	 3.753454e-01	 1.963326e+01
 1.112085e+00	 3.139672e-01	 2.047615e+01
 1.108398e+00	 3.267446e-01	 2.030360e+01
 1.104553e+00	 3.395160e-01	 2.011522e+01
 1.100549e+00	 3.522788e-01	 1.991308e+01
 1.096386e+00	 3.650300e-01	 1.969904e+01
 1.092063e+00	 3.777670e-01	 1.948443e+01
 1.119214e+00	 3.159798e-01	 2.029487e+01
 1.115503e+00	 3.288391e-01	 2.012821e+01
 1.111634e+00	 3.416924e-01	 1.994668e+01
 1.107604e+00	 3.545370e-01	 1.975173e+01
 1.103414e+00	 3.673700e-01	 1.954251e+01
 1.099063e+00	 3.801886e-01	 1.933783e+01
 1.126343e+00	 3.179924e-01	 2.012157e+01
 1.122608e+00	 3.309336e-01	 1.996121e+01
 1.118714e+00	 3.438688e-01	 1.978249e+01
 1.114659e+00	 3.567952e-01	 1.958891e+01
 1.110442e+00	 3.697099e-01	 1.938352e+01
 1.106063e+00	 3.826102e-01	 1.919175e+01
 1.133471e+00	 3.200050e-01	 1.995496e+01
 1.129714e+00	 3.330281e-01	 1.980201e+01
 1.125794e+00	 3.460452e-01	 1.962748e+01
 1.121713e+00	 3.590534e-01	 1.943476e+01
 1.117470e+00	 3.720499e-01	 1.922748e+01
 1.113064e+00	 3.850317e-01	 1.904515e+01
 1.140600e+00	 3.220177e-01	 1.979379e+01
 1.136819e+00	 3.351226e-01	 1.964897e+01
 1.132875e+00	 3.482216e-01	 1.947971e+01
 1.128768e+00	 3.613116e-01	 1.928926e+01
 1.124498e+00	 3.743898e-01	 1.908348e+01
 1.120064e+00	 3.874533e-01	 1.890810e+01
 1.085062e+00	 3.753454e-01	 1.963326e+01
 1.080608e+00	 3.879836e-01	 1.942201e+01
 1.075994e+00	 4.006019e-01	 1.920289e+01
 1.071220e+00	 4.131974e-01	 1.897539e+01
 1.066286e+00	 4.257671e-01	 1.873870e+01
 1.061193e+00	 4.383082e-01	 1.849170e+01
 1.092063e+00	 3.777670e-01	 1.948443e+01
 1.087579e+00	 3.904867e-01	 1.928427e+01
 1.082936e+00	 4.031864e-01	 1.907471e+01
 1.078131e+00	 4.158632e-01	 1.885551e+01
 1.073166e+00	 4.285140e-01	 1.862610e+01
 1.068039e+00	 4.411360e-01	 1.838560e+01
 1.099063e+00	 3.801886e-01	 1.933783e+01
 1.094551e+00	 3.929899e-01	 1.914927e+01
 1.089877e+00	 4.057710e-01	 1.894960e+01
 1.085042e+00	 4.185290e-01	 1.873880e+01
 1.080045e+00	 4.312609e-01	 1.851657e+01
 1.074886e+00	 4.439638e-01	 1.828226e+01
 1.106063e+00	 3.826102e-01	 1.919175e+01
 1.101523e+00	 3.954930e-01	 1.901557e+01
 1.096819e+00	 4.083555e-01	 1.882642e+01
 1.091953e+00	 4.211947e-01	 1.862451e+01
 1.086924e+00	 4.340078e-01	 1.840976e+01
 1.081732e+00	 4.467916e-01	 1.818176e+01
 1.113064e+00	 3.850317e-01	 1.904515e+01
 1.108494e+00	 3.979961e-01	 1.888177e+01
 1.103761e+00	 4.109400e-01	 1.870409e+01
 1.098864e+00	 4.238605e-01	 1.851189e+01
 1.093803e+00	 4.367547e-01	 1.830529e+01
 1.088578e+00	 4.496194e-01	 1.808413e+01
 1.120064e+00	 3.874533e-01	 1.890810e+01
 1.115466e+00	 4.004992e-01	 1.874980e+01
 1.110703e+00	 4.135246e-01	 1.858152e+01
 1.105775e+00	 4.265263e-01	 1.840017e+01
 1.100683e+00	 4.395015e-01	 1.820278e+01
 1.095425e+00	 4.524472e-01	 1.798939e+01
 1.061193e+00	 4.383082e-01	 1.849170e+01
 1.055939e+00	 4.508177e-01	 1.823963e+01
 1.050526e+00	 4.632927e-01	 1.798704e+01
 1.044952e+00	 4.757302e-01	 1.773141e+01
 1.039219e+00	 4.881272e-01	 1.746998e+01
 1.033326e+00	 5.004808e-01	 1.719981e+01
 1.068039e+00	 4.411360e-01	 1.838560e+01
 1.062752e+00	 4.537262e-01	 1.814028e+01
 1.057303e+00	 4.662817e-01	 1.789547e+01
 1.051694e+00	 4.787995e-01	 1.764845e+01
 1.045924e+00	 4.912765e-01	 1.739631e+01
 1.039993e+00	 5.037097e-01	 1.713594e+01
 1.074886e+00	 4.439638e-01	 1.828226e+01
 1.069564e+00	 4.566347e-01	 1.804320e+01
 1.064081e+00	 4.692707e-01	 1.780555e+01
 1.058435e+00	 4.818687e-01	 1.756657e+01
 1.052628e+00	 4.944257e-01	 1.732329e+01
 1.046659e+00	 5.069386e-01	 1.707250e+01
 1.081732e+00	 4.467916e-01	 1.818176e+01
 1.076377e+00	 4.595433e-01	 1.794879e+01
 1.070858e+00	 4.722597e-01	 1.771791e+01
 1.065177e+00	 4.849379e-01	 1.748641e+01
 1.059333e+00	 4.975749e-01	 1.725138e+01
 1.053326e+00	 5.101675e-01	 1.700961e+01
 1.088578e+00	 4.496194e-01	 1.808413e+01
 1.083189e+00	 4.624518e-01	 1.785746e+01
 1.077636e+00	 4.752487e-01	 1.763311e+01
 1.071919e+00	 4.880071e-01	 1.740855e+01
 1.066037e+00	 5.007241e-01	 1.718100e+01
 1.059993e+00	 5.133965e-01	 1.694735e+01
 1.095425e+00	 4.524472e-01	 1.798939e+01
 1.090002e+00	 4.653603e-01	 1.776957e+01
 1.084414e+00	 4.782377e-01	 1.755169e+01
 1.078660e+00	 4.910764e-01	 1.733354e+01
 1.072742e+00	 5.038733e-01	 1.711254e+01
 1.066659e+00	 5.166254e-01	 1.688578e+01
 1.033326e+00	 5.004808e-01	 1.719981e+01
 1.027274e+00	 5.127880e-01	 1.692642e+01
 1.021064e+00	 5.250457e-01	 1.665495e+01
 1.014695e+00	 5.372509e-01	 1.638150e+01
 1.008168e+00	 5.494008e-01	 1.610191e+01
 1.001484e+00	 5.614923e-01	 1.581175e+01
 1.039993e+00	 5.037097e-01	 1.713594e+01
 1.033902e+00	 5.160963e-01	 1.687232e+01
 1.027651e+00	 5.284331e-01	 1.661018e+01
 1.021241e+00	 5.407171e-01	 1.634554e+01
 1.014672e+00	 5.529453e-01	 1.607419e+01
 1.007945e+00	 5.651148e-01	 1.579161e+01
 1.046659e+00	 5.069386e-01	 1.707250e+01
 1.040530e+00	 5.194046e-01	 1.681863e+01
 1.034239e+00	 5.318204e-01	 1.656578e+01
 1.027788e+00	 5.441832e-01	 1.630989e+01
 1.021177e+00	 5.564899e-01	 1.604658e+01
 1.014407e+00	 5.687374e-01	 1.577117e+01
 1.053326e+00	 5.101675e-01	 1.700961e+01
 1.047157e+00	 5.227129e-01	 1.676507e+01
 1.040826e+00	 5.352078e-01	 1.652129e+01
 1.034334e+00	 5.476494e-01	 1.627398e+01
 1.027681e+00	 5.600344e-01	 1.601855e+01
 1.020868e+00	 5.723599e-01	 1.575009e+01
 1.059993e+00	 5.133965e-01	 1.694735e+01
 1.053785e+00	 5.260212e-01	 1.671138e+01
 1.047414e+00	 5.385952e-01	 1.647619e+01
 1.040880e+00	 5.511155e-01	 1.623720e+01
 1.034185e+00	 5.635789e-01	 1.598955e+01
 1.027329e+00	 5.759824e-01	 1.572803e+01
 1.066659e+00	 5.166254e-01	 1.688578e+01
 1.060412e+00	 5.293295e-01	 1.665725e+01
 1.054001e+00	 5.419826e-01	 1.642996e+01
 1.047427e+00	 5.545816e-01	 1.619895e+01
 1.040690e+00	 5.671234e-01	 1.595901e+01
 1.033790e+00	 5.796049e-01	 1.570461e+01
 1.001484e+00	 5.614923e-01	 1.581175e+01
 9.946438e-01	 5.735224e-01	 1.551912e+01
 9.876476e-01	 5.854881e-01	 1.523184e+01
 9.804966e-01	 5.973865e-01	 1.494488e+01
 9.731915e-01	 6.092146e-01	 1.465312e+01
 9.657334e-01	 6.209695e-01	 1.435139e+01
 1.007945e+00	 5.651148e-01	 1.579161e+01
 1.001061e+00	 5.772225e-01	 1.550650e+01
 9.940195e-01	 5.892655e-01	 1.522727e+01
 9.868224e-01	 6.012406e-01	 1.494872e+01
 9.794702e-01	 6.131451e-01	 1.466552e+01
 9.719639e-01	 6.249758e-01	 1.437234e+01
 1.014407e+00	 5.687374e-01	 1.577117e+01
 1.007478e+00	 5.809227e-01	 1.549306e+01
 1.000391e+00	 5.930428e-01	 1.522143e+01
 9.931481e-01	 6.050947e-01	 1.495091e+01
 9.857488e-01	 6.170755e-01	 1.467607e+01
 9.781945e-01	 6.289820e-01	 1.439141e+01
 1.020868e+00	 5.723599e-01	 1.575009e+01
 1.013895e+00	 5.846228e-01	 1.547871e+01
 1.006763e+00	 5.968201e-01	 1.521433e+01
 9.994739e-01	 6.089488e-01	 1.495154e+01
 9.920275e-01	 6.210059e-01	 1.468478e+01
 9.844250e-01	 6.329883e-01	 1.440844e+01
 1.027329e+00	 5.759824e-01	 1.572803e+01
 1.020312e+00	 5.883230e-01	 1.546329e+01
 1.013135e+00	 6.005975e-01	 1.520597e+01
 1.005800e+00	 6.128029e-01	 1.495061e+01
 9.983061e-01	 6.249363e-01	 1.469160e+01
 9.906556e-01	 6.369946e-01	 1.442325e+01
 1.033790e+00	 5.796049e-01	 1.570461e+01
 1.026729e+00	 5.920231e-01	 1.544665e+01
 1.019507e+00	 6.043748e-01	 1.519630e+01
 1.012125e+00	 6.166570e-01	 1.494812e+01
 1.004585e+00	 6.288667e-01	 1.469648e+01
 9.968861e-01	 6.410008e-01	 1.443563e+01
 9.657334e-01	 6.209695e-01	 1.435139e+01
 9.581233e-01	 6.326483e-01	 1.404774e+01
 9.503624e-01	 6.442480e-01	 1.375049e+01
 9.424518e-01	 6.557658e-01	 1.345487e+01
 9.343929e-01	 6.671987e-01	 1.315620e+01
 9.261869e-01	 6.785441e-01	 1.284991e+01
 9.719639e-01	 6.249758e-01	 1.437234e+01
 9.643048e-01	 6.367299e-01	 1.407718e+01
 9.564938e-01	 6.484044e-01	 1.378820e+01
 9.485322e-01	 6.599965e-01	 1.350030e+01
 9.404212e-01	 6.715032e-01	 1.320842e+01
 9.321623e-01	 6.829218e-01	 1.290763e+01
 9.781945e-01	 6.289820e-01	 1.439141e+01
 9.704862e-01	 6.408115e-01	 1.410476e+01
 9.626251e-01	 6.525609e-01	 1.382401e+01
 9.546125e-01	 6.642273e-01	 1.354365e+01
 9.464495e-01	 6.758078e-01	 1.325824e+01
 9.381377e-01	 6.872995e-01	 1.296240e+01
 9.844250e-01	 6.329883e-01	 1.440844e+01
 9.766677e-01	 6.448931e-01	 1.413018e+01
 9.687565e-01	 6.567173e-01	 1.385751e+01
 9.606928e-01	 6.684580e-01	 1.358448e+01
 9.524779e-01	 6.801123e-01	 1.330523e+01
 9.441131e-01	 6.916772e-01	 1.301390e+01
 9.906556e-01	 6.369946e-01	 1.442325e+01
 9.828491e-01	 6.489747e-01	 1.415309e+01
 9.748879e-01	 6.608737e-01	 1.388825e+01
 9.667732e-01	 6.726888e-01	 1.362232e+01
 9.585062e-01	 6.844168e-01	 1.334894e+01
 9.500885e-01	 6.960549e-01	 1.306179e+01
 9.968861e-01	 6.410008e-01	 1.443563e+01
 9.890305e-01	 6.530563e-01	 1.417311e+01
 9.810193e-01	 6.650302e-01	 1.391575e+01
 9.728535e-01	 6.769195e-01	 1.365666e+01
 9.645346e-01	 6.887213e-01	 1.338891e+01
 9.560638e-01	 7.004326e-01	 1.310568e+01
 9.261869e-01	 6.785441e-01	 1.284991e+01
 9.178352e-01	 6.897990e-01	 1.254187e+01
 9.093395e-01	 7.009607e-01	 1.223935e+01
 9.007011e-01	 7.120264e-01	 1.194038e+01
 8.919218e-01	 7.229935e-01	 1.164346e+01
 8.830033e-01	 7.338593e-01	 1.134763e+01
 9.321623e-01	 6.829218e-01	 1.290763e+01
 9.237567e-01	 6.942493e-01	 1.260477e+01
 9.152062e-01	 7.054830e-01	 1.230841e+01
 9.065121e-01	 7.166202e-01	 1.201663e+01
 8.976762e-01	 7.276580e-01	 1.172805e+01
 8.887001e-01	 7.385938e-01	 1.144187e+01
 9.381377e-01	 6.872995e-01	 1.296240e+01
 9.296783e-01	 6.986996e-01	 1.266424e+01
 9.210729e-01	 7.100054e-01	 1.237396e+01
 9.123231e-01	 7.212139e-01	 1.208978e+01
 9.034305e-01	 7.323225e-01	 1.181051e+01
 8.943969e-01	 7.433284e-01	 1.153482e+01
 9.441131e-01	 6.916772e-01	 1.301390e+01
 9.355998e-01	 7.031499e-01	 1.272011e+01
 9.269396e-01	 7.145277e-01	 1.243596e+01
 9.181340e-01	 7.258076e-01	 1.215993e+01
 9.091848e-01	 7.369869e-01	 1.189105e+01
 9.000936e-01	 7.480630e-01	 1.162263e+01
 9.500885e-01	 6.960549e-01	 1.306179e+01
 9.415213e-01	 7.076003e-01	 1.277215e+01
 9.328063e-01	 7.190500e-01	 1.249434e+01
 9.239450e-01	 7.304013e-01	 1.222712e+01
 9.149392e-01	 7.416514e-01	 1.196974e+01
 9.057904e-01	 7.527976e-01	 1.170380e+01
 9.560638e-01	 7.004326e-01	 1.310568e+01
 9.474428e-01	 7.120506e-01	 1.282011e+01
 9.386730e-01	 7.235723e-01	 1.254897e+01
 9.297560e-01	 7.349950e-01	 1.229136e+01
 9.206935e-01	 7.463159e-01	 1.204223e+01
 9.114872e-01	 7.575321e-01	 1.177725e+01
 8.830033e-01	 7.338593e-01	 1.134763e+01
 8.739472e-01	 7.446210e-01	 1.105162e+01
 8.647555e-01	 7.552762e-01	 1.074599e+01
 8.554299e-01	 7.658223e-01	 1.043728e+01
 8.459726e-01	 7.762568e-01	 1.013670e+01
 8.363854e-01	 7.865772e-01	 9.855910e+00
 8.887001e-01	 7.385938e-01	 1.144187e+01
 8.795856e-01	 7.494250e-01	 1.115106e+01
 8.703345e-01	 7.601490e-01	 1.084768e+01
 8.609488e-01	 7.707631e-01	 1.054206e+01
 8.514305e-01	 7.812649e-01	 1.024547e+01
 8.417814e-01	 7.916518e-01	 9.969567e+00
 8.943969e-01	 7.433284e-01	 1.153482e+01
 8.852239e-01	 7.542290e-01	 1.124638e+01
 8.759136e-01	 7.650217e-01	 1.094579e+01
 8.664677e-01	 7.757039e-01	 1.064378e+01
 8.568883e-01	 7.862730e-01	 1.035152e+01
 8.471775e-01	 7.967265e-01	 1.008062e+01
 9.000936e-01	 7.480630e-01	 1.162263e+01
 8.908623e-01	 7.590330e-01	 1.133668e+01
 8.814927e-01	 7.698945e-01	 1.103946e+01
 8.719866e-01	 7.806447e-01	 1.074152e+01
 8.623462e-01	 7.912811e-01	 1.045390e+01
 8.525735e-01	 8.018012e-01	 1.018802e+01
 9.057904e-01	 7.527976e-01	 1.170380e+01
 8.965007e-01	 7.638371e-01	 1.142099e+01
 8.870717e-01	 7.747672e-01	 1.112774e+01
 8.775055e-01	 7.855855e-01	 1.083437e+01
 8.678041e-01	 7.962892e-01	 1.055164e+01
 8.579695e-01	 8.068759e-01	 1.029069e+01
 9.114872e-01	 7.575321e-01	 1.177725e+01
 9.021390e-01	 7.686411e-01	 1.149832e+01
 8.926508e-01	 7.796400e-01	 1.120970e+01
 8.830244e-01	 7.905263e-01	 1.092136e+01
 8.732620e-01	 8.012973e-01	 1.064371e+01
 8.633656e-01	 8.119506e-01	 1.038752e+01
 8.363854e-01	 7.865772e-01	 9.855910e+00
 8.266705e-01	 7.967811e-01	 9.576887e+00
 8.168300e-01	 8.068661e-01	 9.281790e+00
 8.068661e-01	 8.168300e-01	 8.982811e+00
 7.967811e-01	 8.266705e-01	 8.692106e+00
 7.865772e-01	 8.363854e-01	 8.421713e+00
 8.417814e-01	 7.916518e-01	 9.969567e+00
 8.320039e-01	 8.019216e-01	 9.695548e+00
 8.220999e-01	 8.120717e-01	 9.404895e+00
 8.120717e-01	 8.220999e-01	 9.110014e+00
 8.019216e-01	 8.320039e-01	 8.823280e+00
 7.916518e-01	 8.417814e-01	 8.556946e+00
 8.471775e-01	 7.967265e-01	 1.008062e+01
 8.373372e-01	 8.070621e-01	 9.811498e+00
 8.273697e-01	 8.172773e-01	 9.525084e+00
 8.172773e-01	 8.273697e-01	 9.234049e+00
 8.070621e-01	 8.373372e-01	 8.951034e+00
 7.967265e-01	 8.471775e-01	 8.688565e+00
 8.525735e-01	 8.018012e-01	 1.018802e+01
 8.426706e-01	 8.122026e-01	 9.923580e+00
 8.326396e-01	 8.224829e-01	 9.641130e+00
 8.224829e-01	 8.326396e-01	 9.353648e+00
 8.122026e-01	 8.426706e-01	 9.074092e+00
 8.018012e-01	 8.525735e-01	 8.815312e+00
 8.579695e-01	 8.068759e-01	 1.029069e+01
 8.480039e-01	 8.173431e-01	 1.003062e+01
 8.379095e-01	 8.276885e-01	 9.751783e+00
 8.276885e-01	 8.379095e-01	 9.467520e+00
 8.173431e-01	 8.480039e-01	 9.191151e+00
 8.068759e-01	 8.579695e-01	 8.935900e+00
 8.633656e-01	 8.119506e-01	 1.038752e+01
 8.533373e-01	 8.224837e-01	 1.013140e+01
 8.431794e-01	 8.328940e-01	 9.855769e+00
 8.328940e-01	 8.431794e-01	 9.574352e+00
 8.224837e-01	 8.533373e-01	 9.300885e+00
 8.119506e-01	 8.633656e-01	 9.049020e+00
 7.865772e-01	 8.363854e-01	 8.421713e+00
 7.762568e-01	 8.459726e-01	 8.157955e+00
 7.658223e-01	 8.554299e-01	 7.883722e+00
 7.552762e-01	 8.647555e-01	 7.605322e+00
 7.446210e-01	 8.739472e-01	 7.328409e+00
 7.338593e-01	 8.830033e-01	 7.057491e+00
 7.916518e-01	 8.417814e-01	 8.556946e+00
 7.812649e-01	 8.514305e-01	 8.296323e+00
 7.707631e-01	 8.609488e-01	 8.023569e+00
 7.601490e-01	 8.703345e-01	 7.745627e+00
 7.494250e-01	 8.795856e-01	 7.468796e+00
 7.385938e-01	 8.887001e-01	 7.198621e+00
 7.967265e-01	 8.471775e-01	 8.688565e+00
 7.862730e-01	 8.568883e-01	 8.431076e+00
 7.757039e-01	 8.664677e-01	 8.160046e+00
 7.650217e-01	 8.759136e-01	 7.882993e+00
 7.542290e-01	 8.852239e-01	 7.606791e+00
 7.433284e-01	 8.943969e-01	 7.337595e+00
 8.018012e-01	 8.525735e-01	 8.815312e+00
 7.912811e-01	 8.623462e-01	 8.560965e+00
 7.806447e-01	 8.719866e-01	 8.291880e+00
 7.698945e-01	 8.814927e-01	 8.016083e+00
 7.590330e-01	 8.908623e-01	 7.740958e+00
 7.480630e-01	 9.000936e-01	 7.473164e+00
 8.068759e-01	 8.579695e-01	 8.935900e+00
 7.962892e-01	 8.678041e-01	 8.684717e+00
 7.855855e-01	 8.775055e-01	 8.417770e+00
 7.747672e-01	 8.870717e-01	 8.143535e+00
 7.638371e-01	 8.965007e-01	 7.869839e+00
 7.527976e-01	 9.057904e-01	 7.603777e+00
 8.119506e-01	 8.633656e-01	 9.049020e+00
 8.012973e-01	 8.732620e-01	 8.801033e+00
 7.905263e-01	 8.830244e-01	 8.536392e+00
 7.796400e-01	 8.926508e-01	 8.263962e+00
 7.686411e-01	 9.021390e-01	 7.991952e+00
 7.575321e-01	 9.114872e-01	 7.727825e+00
 7.338593e-01	 8.830033e-01	 7.057491e+00
 7.229935e-01	 8.919218e-01	 6.796006e+00
 7.120264e-01	 9.007011e-01	 6.544849e+00
 7.009607e-01	 9.093395e-01	 6.300670e+00
 6.897990e-01	 9.178352e-01	 6.059033e+00
 6.785441e-01	 9.261869e-01	 5.814443e+00
 7.385938e-01	 8.887001e-01	 7.198621e+00
 7.276580e-01	 8.976762e-01	 6.939681e+00
 7.166202e-01	 9.065121e-01	 6.691671e+00
 7.054830e-01	 9.152062e-01	 6.450328e+00
 6.942493e-01	 9.237567e-01	 6.210233e+00
 6.829218e-01	 9.321623e-01	 5.964837e+00
 7.433284e-01	 8.943969e-01	 7.337595e+00
 7.323225e-01	 9.034305e-01	 7.080959e+00
 7.212139e-01	 9.123231e-01	 6.835474e+00
 7.100054e-01	 9.210729e-01	 6.596144e+00
 6.986996e-01	 9.296783e-01	 6.356802e+00
 6.872995e-01	 9.381377e-01	 6.110094e+00
 7.480630e-01	 9.000936e-01	 7.473164e+00
 7.369869e-01	 9.091848e-01	 7.218313e+00
 7.258076e-01	 9.181340e-01	 6.974759e+00
 7.145277e-01	 9.269396e-01	 6.736767e+00
 7.031499e-01	 9.355998e-01	 6.497660e+00
 6.916772e-01	 9.441131e-01	 6.249515e+00
 7.527976e-01	 9.057904e-01	 7.603777e+00
 7.416514e-01	 9.149392e-01	 7.350210e+00
 7.304013e-01	 9.239450e-01	 7.108010e+00
 7.190500e-01	 9.328063e-01	 6.870831e+00
 7.076003e-01	 9.415213e-01	 6.631699e+00
 6.960549e-01	 9.500885e-01	 6.382363e+00
 7.575321e-01	 9.114872e-01	 7.727825e+00
 7.463159e-01	 9.206935e-01	 7.475396e+00
 7.349950e-01	 9.297560e-01	 7.233698e+00
 7.235723e-01	 9.386730e-01	 6.996949e+00
 7.120506e-01	 9.474428e-01	 6.757788e+00
 7.004326e-01	 9.560638e-01	 6.507870e+00
 6.785441e-01	 9.261869e-01	 5.814443e+00
 6.671987e-01	 9.343929e-01	 5.570869e+00
 6.557658e-01	 9.424518e-01	 5.335337e+00
 6.442480e-01	 9.503624e-01	 5.105595e+00
 6.326483e-01	 9.581233e-01	 4.878671e+00
 6.209695e-01	 9.657334e-01	 4.650903e+00
 6.829218e-01	 9.321623e-01	 5.964837e+00
 6.715032e-01	 9.404212e-01	 5.718876e+00
 6.599965e-01	 9.485322e-01	 5.481056e+00
 6.484044e-01	 9.564938e-01	 5.249392e+00
 6.367299e-01	 9.643048e-01	 5.021181e+00
 6.249758e-01	 9.719639e-01	 4.793024e+00
 6.872995e-01	 9.381377e-01	 6.110094e+00
 6.758078e-01	 9.464495e-01	 5.861955e+00
 6.642273e-01	 9.546125e-01	 5.622773e+00
 6.525609e-01	 9.626251e-01	 5.390425e+00
 6.408115e-01	 9.704862e-01	 5.162049e+00
 6.289820e-01	 9.781945e-01	 4.934072e+00
 6.916772e-01	 9.441131e-01	 6.249515e+00
 6.801123e-01	 9.524779e-01	 5.999737e+00
 6.684580e-01	 9.606928e-01	 5.760243e+00
 6.567173e-01	 9.687565e-01	 5.528374e+00
 6.448931e-01	 9.766677e-01	 5.300692e+00
 6.329883e-01	 9.844250e-01	 5.073017e+00
 6.960549e-01	 9.500885e-01	 6.382363e+00
 6.844168e-01	 9.585062e-01	 6.131807e+00
 6.726888e-01	 9.667732e-01	 5.893175e+00
 6.608737e-01	 9.748879e-01	 5.662876e+00
 6.489747e-01	 9.828491e-01	 5.436491e+00
 6.369946e-01	 9.906556e-01	 5.208807e+00
 7.004326e-01	 9.560638e-01	 6.507870e+00
 6.887213e-01	 9.645346e-01	 6.257713e+00
 6.769195e-01	 9.728535e-01	 6.021233e+00
 6.650302e-01	 9.810193e-01	 5.793527e+00
 6.530563e-01	 9.890305e-01	 5.568793e+00
 6.410008e-01	 9.968861e-01	 5.340368e+00
 6.209695e-01	 9.657334e-01	 4.650903e+00
 6.092146e-01	 9.731915e-01	 4.430649e+00
 5.973865e-01	 9.804966e-01	 4.225267e+00
 5.854881e-01	 9.876476e-01	 4.028644e+00
 5.735224e-01	 9.946438e-01	 3.834108e+00
 5.614923e-01	 1.001484e+00	 3.634471e+00
 6.249758e-01	 9.719639e-01	 4.793024e+00
 6.131451e-01	 9.794702e-01	 4.573222e+00
 6.012406e-01	 9.868224e-01	 4.368397e+00
 5.892655e-01	 9.940195e-01	 4.171665e+00
 5.772225e-01	 1.001061e+00	 3.975540e+00
 5.651148e-01	 1.007945e+00	 3.771984e+00
 6.289820e-01	 9.781945e-01	 4.934072e+00
 6.170755e-01	 9.857488e-01	 4.714295e+00
 6.050947e-01	 9.931481e-01	 4.508825e+00
 5.930428e-01	 1.000391e+00	 4.310543e+00
 5.809227e-01	 1.007478e+00	 4.111713e+00
 5.687374e-01	 1.014407e+00	 3.904028e+00
 6.329883e-01	 9.844250e-01	 5.073017e+00
 6.210059e-01	 9.920275e-01	 4.852442e+00
 6.089488e-01	 9.994739e-01	 4.644988e+00
 5.968201e-01	 1.006763e+00	 4.443834e+00
 5.846228e-01	 1.013895e+00	 4.241542e+00
 5.723599e-01	 1.020868e+00	 4.030102e+00
 6.369946e-01	 9.906556e-01	 5.208807e+00
 6.249363e-01	 9.983061e-01	 4.986224e+00
 6.128029e-01	 1.005800e+00	 4.775317e+00
 6.005975e-01	 1.013135e+00	 4.570082e+00
 5.883230e-01	 1.020312e+00	 4.363920e+00
 5.759824e-01	 1.027329e+00	 4.149676e+00
 6.410008e-01	 9.968861e-01	 5.340368e+00
 6.288667e-01	 1.004585e+00	 5.114190e+00
 6.166570e-01	 1.012125e+00	 4.898233e+00
 6.043748e-01	 1.019507e+00	 4.687824e+00
 5.920231e-01	 1.026729e+00	 4.477728e+00
 5.796049e-01	 1.033790e+00	 4.262190e+00
 5.614923e-01	 1.001484e+00	 3.634471e+00
 5.494008e-01	 1.008168e+00	 3.435587e+00
 5.372509e-01	 1.014695e+00	 3.246723e+00
 5.250457e-01	 1.021064e+00	 3.065274e+00
 5.127880e-01	 1.027274e+00	 2.888426e+00
 5.004808e-01	 1.033326e+00	 2.713193e+00
 5.651148e-01	 1.007945e+00	 3.771984e+00
 5.529453e-01	 1.014672e+00	 3.567527e+00
 5.407171e-01	 1.021241e+00	 3.373134e+00
 5.284331e-01	 1.027651e+00	 3.186874e+00
 5.160963e-01	 1.033902e+00	 3.006631e+00
 5.037097e-01	 1.039993e+00	 2.830132e+00
 5.687374e-01	 1.014407e+00	 3.904028e+00
 5.564899e-01	 1.021177e+00	 3.695253e+00
 5.441832e-01	 1.027788e+00	 3.497667e+00
 5.318204e-01	 1.034239e+00	 3.309170e+00
 5.194046e-01	 1.040530e+00	 3.127473e+00
 5.069386e-01	 1.046659e+00	 2.950131e+00
 5.723599e-01	 1.020868e+00	 4.030102e+00
 5.600344e-01	 1.027681e+00	 3.818796e+00
 5.476494e-01	 1.034334e+00	 3.620566e+00
 5.352078e-01	 1.040826e+00	 3.432312e+00
 5.227129e-01	 1.047157e+00	 3.250724e+00
 5.101675e-01	 1.053326e+00	 3.072310e+00
 5.759824e-01	 1.027329e+00	 4.149676e+00
 5.635789e-01	 1.034185e+00	 3.938147e+00
 5.511155e-01	 1.040880e+00	 3.742029e+00
 5.385952e-01	 1.047414e+00	 3.556411e+00
 5.260212e-01	 1.053785e+00	 3.376123e+00
 5.133965e-01	 1.059993e+00	 3.195776e+00
 5.796049e-01	 1.033790e+00	 4.262190e+00
 5.671234e-01	 1.040690e+00	 4.053255e+00
 5.545816e-01	 1.047427e+00	 3.862210e+00
 5.419826e-01	 1.054001e+00	 3.681535e+00
 5.293295e-01	 1.060412e+00	 3.503381e+00
 5.166254e-01	 1.066659e+00	 3.319624e+00
 5.004808e-01	 1.033326e+00	 2.713193e+00
 4.881272e-01	 1.039219e+00	 2.546966e+00
 4.757302e-01	 1.044952e+00	 2.394923e+00
 4.632927e-01	 1.050526e+00	 2.250590e+00
 4.508177e-01	 1.055939e+00	 2.107437e+00
 4.383082e-01	 1.061193e+00	 1.958923e+00
 5.037097e-01	 1.039993e+00	 2.830132e+00
 4.912765e-01	 1.045924e+00	 2.664652e+00
 4.787995e-01	 1.051694e+00	 2.513972e+00
 4.662817e-01	 1.057303e+00	 2.370401e+00
 4.537262e-01	 1.062752e+00	 2.226174e+00
 4.411360e-01	 1.068039e+00	 2.073499e+00
 5.069386e-01	 1.046659e+00	 2.950131e+00
 4.944257e-01	 1.052628e+00	 2.783554e+00
 4.818687e-01	 1.058435e+00	 2.630700e+00
 4.692707e-01	 1.064081e+00	 2.483767e+00
 4.566347e-01	 1.069564e+00	 2.334879e+00
 4.439638e-01	 1.074886e+00	 2.176131e+00
 5.101675e-01	 1.053326e+00	 3.072310e+00
 4.975749e-01	 1.059333e+00	 2.902186e+00
 4.849379e-01	 1.065177e+00	 2.743358e+00
 4.722597e-01	 1.070858e+00	 2.588994e+00
 4.595433e-01	 1.076377e+00	 2.432205e+00
 4.467916e-01	 1.081732e+00	 2.266094e+00
 5.133965e-01	 1.059993e+00	 3.195776e+00
 5.007241e-01	 1.066037e+00	 3.019070e+00
 4.880071e-01	 1.071919e+00	 2.850210e+00
 4.752487e-01	 1.077636e+00	 2.684398e+00
 4.624518e-01	 1.083189e+00	 2.516813e+00
 4.496194e-01	 1.088578e+00	 2.342655e+00
 5.166254e-01	 1.066659e+00	 3.319624e+00
 5.038733e-01	 1.072742e+00	 3.132727e+00
 4.910764e-01	 1.078660e+00	 2.949532e+00
 4.782377e-01	 1.084414e+00	 2.768310e+00
 4.653603e-01	 1.090002e+00	 2.587366e+00
 4.524472e-01	 1.095425e+00	 2.405072e+00
 4.383082e-01	 1.061193e+00	 1.958923e+00
 4.257671e-01	 1.066286e+00	 1.806762e+00
 4.131974e-01	 1.071220e+00	 1.659087e+00
 4.006019e-01	 1.075994e+00	 1.519161e+00
 3.879836e-01	 1.080608e+00	 1.390467e+00
 3.753454e-01	 1.085062e+00	 1.276727e+00
 4.411360e-01	 1.068039e+00	 2.073499e+00
 4.285140e-01	 1.073166e+00	 1.914454e+00
 4.158632e-01	 1.078131e+00	 1.758883e+00
 4.031864e-01	 1.082936e+00	 1.610819e+00
 3.904867e-01	 1.087579e+00	 1.474522e+00
 3.777670e-01	 1.092063e+00	 1.354499e+00
 4.439638e-01	 1.074886e+00	 2.176131e+00
 4.312609e-01	 1.080045e+00	 2.011008e+00
 4.185290e-01	 1.085042e+00	 1.851114e+00
 4.057710e-01	 1.089877e+00	 1.700906e+00
 3.929899e-01	 1.094551e+00	 1.565074e+00
 3.801886e-01	 1.099063e+00	 1.448563e+00
 4.467916e-01	 1.081732e+00	 2.266094e+00
 4.340078e-01	 1.086924e+00	 2.096405e+00
 4.211947e-01	 1.091953e+00	 1.936383e+00
 4.083555e-01	 1.096819e+00	 1.790572e+00
 3.954930e-01	 1.101523e+00	 1.663752e+00
 3.826102e-01	 1.106063e+00	 1.560959e+00
 4.496194e-01	 1.088578e+00	 2.342655e+00
 4.367547e-01	 1.093803e+00	 2.170602e+00
 4.238605e-01	 1.098864e+00	 2.015256e+00
 4.109400e-01	 1.103761e+00	 1.880918e+00
 3.979961e-01	 1.108494e+00	 1.772121e+00
 3.850317e-01	 1.113064e+00	 1.689993e+00
 4.524472e-01	 1.095425e+00	 2.405072e+00
 4.395015e-01	 1.100683e+00	 2.233531e+00
 4.265263e-01	 1.105775e+00	 2.088263e+00
 4.135246e-01	 1.110703e+00	 1.972996e+00
 4.004992e-01	 1.115466e+00	 1.872995e+00
 3.874533e-01	 1.120064e+00	 1.771187e+00
 3.753454e-01	 1.085062e+00	 1.276727e+00
 3.626901e-01	 1.089358e+00	 1.162437e+00
 3.500206e-01	 1.093494e+00	 1.037151e+00
 3.373396e-01	 1.097473e+00	 9.108096e-01
 3.246501e-01	 1.101293e+00	 7.941873e-01
 3.119546e-01	 1.104956e+00	 6.991629e-01
 3.777670e-01	 1.092063e+00	 1.354499e+00
 3.650300e-01	 1.096386e+00	 1.234975e+00
 3.522788e-01	 1.100549e+00	 1.105034e+00
 3.395160e-01	 1.104553e+00	 9.764730e-01
 3.267446e-01	 1.108398e+00	 8.617645e-01
 3.139672e-01	 1.112085e+00	 7.737883e-01
 3.801886e-01	 1.099063e+00	 1.448563e+00
 3.673700e-01	 1.103414e+00	 1.335303e+00
 3.545370e-01	 1.107604e+00	 1.212817e+00
 3.416924e-01	 1.111634e+00	 1.093574e+00
 3.288391e-01	 1.115503e+00	 9.754208e-01
 3.159798e-01	 1.119214e+00	 8.678620e-01
 3.826102e-01	 1.106063e+00	 1.560959e+00
 3.697099e-01	 1.110442e+00	 1.465653e+00
 3.567952e-01	 1.114659e+00	 1.351431e+00
 3.438688e-01	 1.118714e+00	 1.214383e+00
 3.309336e-01	 1.122608e+00	 1.073954e+00
 3.179924e-01	 1.126343e+00	 9.509981e-01
 3.850317e-01	 1.113064e+00	 1.689993e+00
 3.720499e-01	 1.117470e+00	 1.590240e+00
 3.590534e-01	 1.121713e+00	 1.454934e+00
 3.460452e-01	 1.125794e+00	 1.302200e+00
 3.330281e-01	 1.129714e+00	 1.151416e+00
 3.200050e-01	 1.133471e+00	 1.022892e+00
 3.874533e-01	 1.120064e+00	 1.771187e+00
 3.743898e-01	 1.124498e+00	 1.655977e+00
 3.613116e-01	 1.128768e+00	 1.512912e+00
 3.482216e-01	 1.132875e+00	 1.357520e+00
 3.351226e-01	 1.136819e+00	 1.207967e+00
 3.220177e-01	 1.140600e+00	 1.083217e+00
 3.119546e-01	 1.104956e+00	 6.991629e-01
 2.992560e-01	 1.108463e+00	 6.253344e-01
 2.865570e-01	 1.111814e+00	 5.615744e-01
 2.738601e-01	 1.115009e+00	 4.963120e-01
 2.611682e-01	 1.118050e+00	 4.271679e-01
 2.484837e-01	 1.120937e+00	 3.573886e-01
 3.139672e-01	 1.112085e+00	 7.737883e-01
 3.011867e-01	 1.115614e+00	 6.984084e-01
 2.884057e-01	 1.118986e+00	 6.212053e-01
 2.756270e-01	 1.122202e+00	 5.432113e-01
 2.628531e-01	 1.125263e+00	 4.658313e-01
 2.500868e-01	 1.128169e+00	 3.907459e-01
 3.159798e-01	 1.119214e+00	 8.678620e-01
 3.031174e-01	 1.122766e+00	 7.743131e-01
 2.902545e-01	 1.126159e+00	 6.838535e-01
 2.773938e-01	 1.129396e+00	 5.965236e-01
 2.645381e-01	 1.132476e+00	 5.127117e-01
 2.516899e-01	 1.135401e+00	 4.330601e-01
 3.179924e-01	 1.126343e+00	 9.509981e-01
 3.050481e-01	 1.129917e+00	 8.469338e-01
 2.921032e-01	 1.133332e+00	 7.483690e-01
 2.791607e-01	 1.136590e+00	 6.548664e-01
 2.662231e-01	 1.139689e+00	 5.663137e-01
 2.532930e-01	 1.142633e+00	 4.828317e-01
 3.200050e-01	 1.133471e+00	 1.022892e+00
 3.069787e-01	 1.137068e+00	 9.154720e-01
 2.939520e-01	 1.140505e+00	 8.135978e-01
 2.809275e-01	 1.143783e+00	 7.168579e-01
 2.679080e-01	 1.146903e+00	 6.251451e-01
 2.548962e-01	 1.149865e+00	 5.385642e-01
 3.220177e-01	 1.140600e+00	 1.083217e+00
 3.089094e-01	 1.144220e+00	 9.791186e-01
 2.958007e-01	 1.147678e+00	 8.783824e-01
 2.826943e-01	 1.150977e+00	 7.811174e-01
 2.695930e-01	 1.154116e+00	 6.877165e-01
 2.564993e-01	 1.157096e+00	 5.987642e-01
 2.484837e-01	 1.120937e+00	 3.573886e-01
 2.358092e-01	 1.123672e+00	 2.867171e-01
 2.231472e-01	 1.126255e+00	 2.145085e-01
 2.105002e-01	 1.128687e+00	 1.436506e-01
 1.978707e-01	 1.130969e+00	 7.705757e-02
 1.852611e-01	 1.133103e+00	 1.761852e-02
 2.500868e-01	 1.128169e+00	 3.907459e-01
 2.373305e-01	 1.130921e+00	 3.164367e-01
 2.245868e-01	 1.133521e+00	 2.419068e-01
 2.118583e-01	 1.135969e+00	 1.698165e-01
 1.991473e-01	 1.138266e+00	 1.028382e-01
 1.864563e-01	 1.140413e+00	 4.360833e-02
 2.516899e-01	 1.135401e+00	 4.330601e-01
 2.388519e-01	 1.138171e+00	 3.553066e-01
 2.260265e-01	 1.140787e+00	 2.783102e-01
 2.132164e-01	 1.143250e+00	 2.045649e-01
 2.004239e-01	 1.145562e+00	 1.365625e-01
 1.876516e-01	 1.147724e+00	 7.674652e-02
 2.532930e-01	 1.142633e+00	 4.828317e-01
 2.403732e-01	 1.145420e+00	 4.018865e-01
 2.274662e-01	 1.148053e+00	 3.223608e-01
 2.145744e-01	 1.150532e+00	 2.466422e-01
 2.017005e-01	 1.152859e+00	 1.771003e-01
 1.888468e-01	 1.155034e+00	 1.160433e-01
 2.548962e-01	 1.149865e+00	 5.385642e-01
 2.418946e-01	 1.152670e+00	 4.547378e-01
 2.289058e-01	 1.155319e+00	 3.727015e-01
 2.159325e-01	 1.157814e+00	 2.947939e-01
 2.029771e-01	 1.160156e+00	 2.233188e-01
 1.900420e-01	 1.162344e+00	 1.605050e-01
 2.564993e-01	 1.157096e+00	 5.987642e-01
 2.434159e-01	 1.159919e+00	 5.124237e-01
 2.303455e-01	 1.162585e+00	 4.279756e-01
 2.172906e-01	 1.165096e+00	 3.477647e-01
 2.042537e-01	 1.167452e+00	 2.740833e-01
 1.912373e-01	 1.169655e+00	 2.091337e-01
 1.852611e-01	 1.133103e+00	 1.761852e-02
 1.726737e-01	 1.135089e+00	-3.529079e-02
 1.601108e-01	 1.136930e+00	-8.415731e-02
 1.475748e-01	 1.138625e+00	-1.290283e-01
 1.350678e-01	 1.140176e+00	-1.700959e-01
 1.225920e-01	 1.141585e+00	-2.077150e-01
 1.864563e-01	 1.140413e+00	 4.360833e-02
 1.737877e-01	 1.142413e+00	-8.915024e-03
 1.611438e-01	 1.144265e+00	-5.749430e-02
 1.485269e-01	 1.145971e+00	-1.022220e-01
 1.359392e-01	 1.147532e+00	-1.433320e-01
 1.233829e-01	 1.148950e+00	-1.812150e-01
 1.876516e-01	 1.147724e+00	 7.674652e-02
 1.749017e-01	 1.149736e+00	 2.374798e-02
 1.621768e-01	 1.151600e+00	-2.539083e-02
 1.494790e-01	 1.153316e+00	-7.076533e-02
 1.368106e-01	 1.154888e+00	-1.126109e-01
 1.241738e-01	 1.156315e+00	-1.513149e-01
 1.888468e-01	 1.155034e+00	 1.160433e-01
 1.760158e-01	 1.157059e+00	 6.185424e-02
 1.632097e-01	 1.158935e+00	 1.144866e-02
 1.504311e-01	 1.160662e+00	-3.523153e-02
 1.376820e-01	 1.162244e+00	-7.838459e-02
 1.249647e-01	 1.163680e+00	-1.183579e-01
 1.900420e-01	 1.162344e+00	 1.605050e-01
 1.771298e-01	 1.164382e+00	 1.045543e-01
 1.642427e-01	 1.166270e+00	 5.231322e-02
 1.513831e-01	 1.168008e+00	 3.799087e-03
 1.385534e-01	 1.169600e+00	-4.111278e-02
 1.257557e-01	 1.171045e+00	-8.269495e-02
 1.912373e-01	 1.169655e+00	 2.091337e-01
 1.782438e-01	 1.171705e+00	 1.509934e-01
 1.652757e-01	 1.173605e+00	 9.648539e-02
 1.523352e-01	 1.175354e+00	 4.573901e-02
 1.394248e-01	 1.176956e+00	-1.262511e-03
 1.265466e-01	 1.178410e+00	-4.468411e-02
 1.225920e-01	 1.141585e+00	-2.077150e-01
 1.101496e-01	 1.142852e+00	-2.421839e-01
 9.774267e-02	 1.143980e+00	-2.730512e-01
 8.537327e-02	 1.144970e+00	-2.998450e-01
 7.304338e-02	 1.145822e+00	-3.223245e-01
 6.075496e-02	 1.146540e+00	-3.404913e-01
 1.233829e-01	 1.148950e+00	-1.812150e-01
 1.108602e-01	 1.150225e+00	-2.161430e-01
 9.837327e-02	 1.151361e+00	-2.475857e-01
 8.592406e-02	 1.152357e+00	-2.750126e-01
 7.351463e-02	 1.153215e+00	-2.981102e-01
 6.114693e-02	 1.153937e+00	-3.167907e-01
 1.241738e-01	 1.156315e+00	-1.513149e-01
 1.115709e-01	 1.157599e+00	-1.871080e-01
 9.900387e-02	 1.158741e+00	-2.194150e-01
 8.647486e-02	 1.159743e+00	-2.476817e-01
 7.398587e-02	 1.160607e+00	-2.715556e-01
 6.153890e-02	 1.161334e+00	-2.908929e-01
 1.249647e-01	 1.163680e+00	-1.183579e-01
 1.122815e-01	 1.164972e+00	-1.553238e-01
 9.963447e-02	 1.166122e+00	-1.886925e-01
 8.702565e-02	 1.167130e+00	-2.179216e-01
 7.445712e-02	 1.168000e+00	-2.426547e-01
 6.193086e-02	 1.168731e+00	-2.627256e-01
 1.257557e-01	 1.171045e+00	-8.269495e-02
 1.129922e-01	 1.172345e+00	-1.210421e-01
 1.002651e-01	 1.173502e+00	-1.555778e-01
 8.757645e-02	 1.174517e+00	-1.858076e-01
 7.492837e-02	 1.175392e+00	-2.114067e-01
 6.232283e-02	 1.176128e+00	-2.322206e-01
 1.265466e-01	 1.178410e+00	-4.468411e-02
 1.137028e-01	 1.179718e+00	-8.452175e-02
 1.008957e-01	 1.180883e+00	-1.202371e-01
 8.812724e-02	 1.181904e+00	-1.514208e-01
 7.539962e-02	 1.182784e+00	-1.778156e-01
 6.271480e-02	 1.183525e+00	-1.993142e-01
 6.075496e-02	 1.146540e+00	-3.404913e-01
 4.850992e-02	 1.147123e+00	-3.553079e-01
 3.631012e-02	 1.147574e+00	-3.671397e-01
 2.415737e-02	 1.147894e+00	-3.755177e-01
 1.205342e-02	 1.148085e+00	-3.803004e-01
-2.654961e-319	 1.148155e+00	-3.809589e-01
 6.114693e-02	 1.153937e+00	-3.167907e-01
 4.882289e-02	 1.154524e+00	-3.319860e-01
 3.654438e-02	 1.154978e+00	-3.441274e-01
 2.431322e-02	 1.155300e+00	-3.527668e-01
 1.213119e-02	 1.155492e+00	-3.577548e-01
-1.239771e-09	 1.155563e+00	-3.584862e-01
 6.153890e-02	 1.161334e+00	-2.908929e-01
 4.913586e-02	 1.161924e+00	-3.066088e-01
 3.677864e-02	 1.162381e+00	-3.191772e-01
 2.446908e-02	 1.162706e+00	-3.281476e-01
 1.220895e-02	 1.162899e+00	-3.333388e-01
-9.918169e-09	 1.162971e+00	-3.340459e-01
 6.193086e-02	 1.168731e+00	-2.627256e-01
 4.944883e-02	 1.169325e+00	-2.790504e-01
 3.701290e-02	 1.169785e+00	-2.921275e-01
 2.462493e-02	 1.170111e+00	-3.014823e-01
 1.228672e-02	 1.170306e+00	-3.068796e-01
-3.347382e-08	 1.170379e+00	-3.074920e-01
 6.232283e-02	 1.176128e+00	-2.322206e-01
 4.976179e-02	 1.176726e+00	-2.491886e-01
 3.724716e-02	 1.177189e+00	-2.628198e-01
 2.478079e-02	 1.177517e+00	-2.725947e-01
 1.236448e-02	 1.177713e+00	-2.782041e-01
-7.934537e-08	 1.177787e+00	-2.786769e-01
 6.271480e-02	 1.183525e+00	-1.993142e-01
 5.007476e-02	 1.184127e+00	-2.169048e-01
 3.748142e-02	 1.184592e+00	-2.310976e-01
 2.493664e-02	 1.184923e+00	-2.413102e-01
 1.244224e-02	 1.185120e+00	-2.471396e-01
-1.549714e-07	 1.185194e+00	-2.474517e-01
 1.185185e+00	 0.000000e+00	 2.166704e+01
 1.185120e+00	 1.244224e-02	 2.166221e+01
 1.184923e+00	 2.493664e-02	 2.165325e+01
 1.184592e+00	 3.748142e-02	 2.163928e+01
 1.184127e+00	 5.007476e-02	 2.161952e+01
 1.183525e+00	 6.271480e-02	 2.159329e+01
 1.192593e+00	 0.000000e+00	 2.142901e+01
 1.192527e+00	 1.252001e-02	 2.142425e+01
 1.192329e+00	 2.509249e-02	 2.141562e+01
 1.191996e+00	 3.771568e-02	 2.140225e+01
 1.191528e+00	 5.038773e-02	 2.138335e+01
 1.190922e+00	 6.310677e-02	 2.135823e+01
 1.200000e+00	 0.000000e+00	 2.119793e+01
 1.199934e+00	 1.259777e-02	 2.119322e+01
 1.199734e+00	 2.524835e-02	 2.118490e+01
 1.199400e+00	 3.794994e-02	 2.117210e+01
 1.198928e+00	 5.070070e-02	 2.115403e+01
 1.198319e+00	 6.349873e-02	 2.112999e+01
 1.207407e+00	 0.000000e+00	 2.097343e+01
 1.207341e+00	 1.267554e-02	 2.096875e+01
 1.207140e+00	 2.540420e-02	 2.096074e+01
 1.206803e+00	 3.818419e-02	 2.094850e+01
 1.206329e+00	 5.101366e-02	 2.093124e+01
 1.205716e+00	 6.389070e-02	 2.090824e+01
 1.214815e+00	 0.000000e+00	 2.075514e+01
 1.214748e+00	 1.275330e-02	 2.075051e+01
 1.214546e+00	 2.556006e-02	 2.074279e+01
 1.214207e+00	 3.841845e-02	 2.073111e+01
 1.213730e+00	 5.132663e-02	 2.071464e+01
 1.213113e+00	 6.428267e-02	 2.069264e+01
 1.222222e+00	 0.000000e+00	 2.054273e+01
 1.222155e+00	 1.283106e-02	 2.053814e+01
 1.221952e+00	 2.571591e-02	 2.053072e+01
 1.221611e+00	 3.865271e-02	 2.051959e+01
 1.221131e+00	 5.163960e-02	 2.050390e+01
 1.220510e+00	 6.467464e-02	 2.048289e+01
 1.183525e+00	 6.271480e-02	 2.159329e+01
 1.182784e+00	 7.539962e-02	 2.156104e+01
 1.181904e+00	 8.812724e-02	 2.152317e+01
 1.180883e+00	 1.008957e-01	 2.147908e+01
 1.179718e+00	 1.137028e-01	 2.142825e+01
 1.178410e+00	 1.265466e-01	 2.137029e+01
 1.190922e+00	 6.310677e-02	 2.135823e+01
 1.190177e+00	 7.587086e-02	 2.132735e+01
 1.189291e+00	 8.867804e-02	 2.129111e+01
 1.188263e+00	 1.015263e-01	 2.124885e+01
 1.187092e+00	 1.144135e-01	 2.120004e+01
 1.185775e+00	 1.273375e-01	 2.114423e+01
 1.198319e+00	 6.349873e-02	 2.112999e+01
 1.197569e+00	 7.634211e-02	 2.110043e+01
 1.196678e+00	 8.922883e-02	 2.106573e+01
 1.195644e+00	 1.021569e-01	 2.102524e+01
 1.194465e+00	 1.151241e-01	 2.097837e+01
 1.193140e+00	 1.281284e-01	 2.092465e+01
 1.205716e+00	 6.389070e-02	 2.090824e+01
 1.204962e+00	 7.681336e-02	 2.087994e+01
 1.204065e+00	 8.977963e-02	 2.084674e+01
 1.203024e+00	 1.027875e-01	 2.080795e+01
 1.201838e+00	 1.158347e-01	 2.076297e+01
 1.200505e+00	 1.289193e-01	 2.071128e+01
 1.213113e+00	 6.428267e-02	 2.069264e+01
 1.212354e+00	 7.728461e-02	 2.066557e+01
 1.211452e+00	 9.033042e-02	 2.063383e+01
 1.210405e+00	 1.034181e-01	 2.059670e+01
 1.209211e+00	 1.165454e-01	 2.055355e+01
 1.207870e+00	 1.297102e-01	 2.050386e+01
 1.220510e+00	 6.467464e-02	 2.048289e+01
 1.219746e+00	 7.775585e-02	 2.045701e+01
 1.218839e+00	 9.088122e-02	 2.042669e+01
 1.217785e+00	 1.040487e-01	 2.039118e+01
 1.216585e+00	 1.172560e-01	 2.034984e+01
 1.215235e+00	 1.305012e-01	 2.030214e+01
 1.178410e+00	 1.265466e-01	 2.137029e+01
 1.176956e+00	 1.394248e-01	 2.130616e+01
 1.175354e+00	 1.523352e-01	 2.123691e+01
 1.173605e+00	 1.652757e-01	 2.116242e+01
 1.171705e+00	 1.782438e-01	 2.108275e+01
 1.169655e+00	 1.912373e-01	 2.099804e+01
 1.185775e+00	 1.273375e-01	 2.114423e+01
 1.184312e+00	 1.402962e-01	 2.108248e+01
 1.182700e+00	 1.532873e-01	 2.101595e+01
 1.180940e+00	 1.663087e-01	 2.094454e+01
 1.179028e+00	 1.793578e-01	 2.086829e+01
 1.176965e+00	 1.924325e-01	 2.078735e+01
 1.193140e+00	 1.281284e-01	 2.092465e+01
 1.191668e+00	 1.411676e-01	 2.086522e+01
 1.190046e+00	 1.542394e-01	 2.080135e+01
 1.188275e+00	 1.673416e-01	 2.073295e+01
 1.186352e+00	 1.804719e-01	 2.066003e+01
 1.184275e+00	 1.936277e-01	 2.058276e+01
 1.200505e+00	 1.289193e-01	 2.071128e+01
 1.199024e+00	 1.420390e-01	 2.065412e+01
 1.197392e+00	 1.551915e-01	 2.059287e+01
 1.195610e+00	 1.683746e-01	 2.052742e+01
 1.193675e+00	 1.815859e-01	 2.045777e+01
 1.191586e+00	 1.948230e-01	 2.038408e+01
 1.207870e+00	 1.297102e-01	 2.050386e+01
 1.206380e+00	 1.429104e-01	 2.044894e+01
 1.204738e+00	 1.561436e-01	 2.039028e+01
 1.202945e+00	 1.694076e-01	 2.032773e+01
 1.200998e+00	 1.826999e-01	 2.026129e+01
 1.198896e+00	 1.960182e-01	 2.019108e+01
 1.215235e+00	 1.305012e-01	 2.030214e+01
 1.213736e+00	 1.437818e-01	 2.024946e+01
 1.212084e+00	 1.570957e-01	 2.019336e+01
 1.210280e+00	 1.704405e-01	 2.013369e+01
 1.208321e+00	 1.838139e-01	 2.007038e+01
 1.206206e+00	 1.972134e-01	 2.000356e+01
 1.169655e+00	 1.912373e-01	 2.099804e+01
 1.167452e+00	 2.042537e-01	 2.090623e+01
 1.165096e+00	 2.172906e-01	 2.080548e+01
 1.162585e+00	 2.303455e-01	 2.069645e+01
 1.159919e+00	 2.434159e-01	 2.057993e+01
 1.157096e+00	 2.564993e-01	 2.045679e+01
 1.176965e+00	 1.924325e-01	 2.078735e+01
 1.174749e+00	 2.055302e-01	 2.069954e+01
 1.172378e+00	 2.186486e-01	 2.060286e+01
 1.169852e+00	 2.317851e-01	 2.049797e+01
 1.167169e+00	 2.449373e-01	 2.038560e+01
 1.164328e+00	 2.581024e-01	 2.026662e+01
 1.184275e+00	 1.936277e-01	 2.058276e+01
 1.182045e+00	 2.068068e-01	 2.049883e+01
 1.179660e+00	 2.200067e-01	 2.040608e+01
 1.177118e+00	 2.332248e-01	 2.030514e+01
 1.174418e+00	 2.464586e-01	 2.019675e+01
 1.171560e+00	 2.597055e-01	 2.008175e+01
 1.191586e+00	 1.948230e-01	 2.038408e+01
 1.189342e+00	 2.080834e-01	 2.030389e+01
 1.186942e+00	 2.213648e-01	 2.021492e+01
 1.184384e+00	 2.346645e-01	 2.011778e+01
 1.181668e+00	 2.479800e-01	 2.001320e+01
 1.178792e+00	 2.613086e-01	 1.990201e+01
 1.198896e+00	 1.960182e-01	 2.019108e+01
 1.196638e+00	 2.093600e-01	 2.011451e+01
 1.194223e+00	 2.227228e-01	 2.002919e+01
 1.191650e+00	 2.361041e-01	 1.993571e+01
 1.188917e+00	 2.495013e-01	 1.983478e+01
 1.186024e+00	 2.629118e-01	 1.972725e+01
 1.206206e+00	 1.972134e-01	 2.000356e+01
 1.203935e+00	 2.106366e-01	 1.993050e+01
 1.201505e+00	 2.240809e-01	 1.984869e+01
 1.198916e+00	 2.375438e-01	 1.975873e+01
 1.196167e+00	 2.510227e-01	 1.966132e+01
 1.193256e+00	 2.645149e-01	 1.955730e+01
 1.157096e+00	 2.564993e-01	 2.045679e+01
 1.154116e+00	 2.695930e-01	 2.032823e+01
 1.150977e+00	 2.826943e-01	 2.019587e+01
 1.147678e+00	 2.958007e-01	 2.006144e+01
 1.144220e+00	 3.089094e-01	 1.992676e+01
 1.140600e+00	 3.220177e-01	 1.979379e+01
 1.164328e+00	 2.581024e-01	 2.026662e+01
 1.161329e+00	 2.712779e-01	 2.014265e+01
 1.158171e+00	 2.844612e-01	 2.001579e+01
 1.154851e+00	 2.976495e-01	 1.988779e+01
 1.151371e+00	 3.108401e-01	 1.976055e+01
 1.147729e+00	 3.240303e-01	 1.963606e+01
 1.171560e+00	 2.597055e-01	 2.008175e+01
 1.168542e+00	 2.729629e-01	 1.996213e+01
 1.165364e+00	 2.862280e-01	 1.984039e+01
 1.162024e+00	 2.994982e-01	 1.971832e+01
 1.158523e+00	 3.127708e-01	 1.959781e+01
 1.154858e+00	 3.260429e-01	 1.948088e+01
 1.178792e+00	 2.613086e-01	 1.990201e+01
 1.175756e+00	 2.746478e-01	 1.978654e+01
 1.172558e+00	 2.879949e-01	 1.966964e+01
 1.169197e+00	 3.013470e-01	 1.955308e+01
 1.165674e+00	 3.147015e-01	 1.943875e+01
 1.161986e+00	 3.280555e-01	 1.932866e+01
 1.186024e+00	 2.629118e-01	 1.972725e+01
 1.182969e+00	 2.763328e-01	 1.961577e+01
 1.179751e+00	 2.897617e-01	 1.950349e+01
 1.176370e+00	 3.031958e-01	 1.939214e+01
 1.172825e+00	 3.166322e-01	 1.928359e+01
 1.169115e+00	 3.300681e-01	 1.917980e+01
 1.193256e+00	 2.645149e-01	 1.955730e+01
 1.190182e+00	 2.780177e-01	 1.944968e+01
 1.186945e+00	 2.915285e-01	 1.934188e+01
 1.183543e+00	 3.050445e-01	 1.923556e+01
 1.179977e+00	 3.185628e-01	 1.913252e+01
 1.176244e+00	 3.320807e-01	 1.903468e+01
 1.140600e+00	 3.220177e-01	 1.979379e+01
 1.136819e+00	 3.351226e-01	 1.964897e+01
 1.132875e+00	 3.482216e-01	 1.947971e+01
 1.128768e+00	 3.613116e-01	 1.928926e+01
 1.124498e+00	 3.743898e-01	 1.908348e+01
 1.120064e+00	 3.874533e-01	 1.890810e+01
 1.147729e+00	 3.240303e-01	 1.963606e+01
 1.143924e+00	 3.372172e-01	 1.949908e+01
 1.139955e+00	 3.503979e-01	 1.933521e+01
 1.135823e+00	 3.635698e-01	 1.914756e+01
 1.131526e+00	 3.767297e-01	 1.894620e+01
 1.127065e+00	 3.898749e-01	 1.877917e+01
 1.154858e+00	 3.260429e-01	 1.948088e+01
 1.151029e+00	 3.393117e-01	 1.935079e+01
 1.147036e+00	 3.525743e-01	 1.919160e+01
 1.142878e+00	 3.658280e-01	 1.900641e+01
 1.138554e+00	 3.790697e-01	 1.881147e+01
 1.134065e+00	 3.922965e-01	 1.865343e+01
 1.161986e+00	 3.280555e-01	 1.932866e+01
 1.158134e+00	 3.414062e-01	 1.920465e+01
 1.154116e+00	 3.547507e-01	 1.904940e+01
 1.149933e+00	 3.680862e-01	 1.886615e+01
 1.145583e+00	 3.814096e-01	 1.867927e+01
 1.141065e+00	 3.947181e-01	 1.853035e+01
 1.169115e+00	 3.300681e-01	 1.917980e+01
 1.165239e+00	 3.435007e-01	 1.906117e+01
 1.161197e+00	 3.569271e-01	 1.890913e+01
 1.156988e+00	 3.703444e-01	 1.872713e+01
 1.152611e+00	 3.837495e-01	 1.854955e+01
 1.148066e+00	 3.971397e-01	 1.840937e+01
 1.176244e+00	 3.320807e-01	 1.903468e+01
 1.172344e+00	 3.455952e-01	 1.892087e+01
 1.168277e+00	 3.591035e-01	 1.877126e+01
 1.164042e+00	 3.726026e-01	 1.859054e+01
 1.159639e+00	 3.860895e-01	 1.842226e+01
 1.155066e+00	 3.995612e-01	 1.828995e+01
 1.120064e+00	 3.874533e-01	 1.890810e+01
 1.115466e+00	 4.004992e-01	 1.874980e+01
 1.110703e+00	 4.135246e-01	 1.858152e+01
 1.105775e+00	 4.265263e-01	 1.840017e+01
 1.100683e+00	 4.395015e-01	 1.820278e+01
 1.095425e+00	 4.524472e-01	 1.798939e+01
 1.127065e+00	 3.898749e-01	 1.877917e+01
 1.122438e+00	 4.030023e-01	 1.862647e+01
 1.117645e+00	 4.161091e-01	 1.846112e+01
 1.112686e+00	 4.291921e-01	 1.828531e+01
 1.107562e+00	 4.422484e-01	 1.809857e+01
 1.102271e+00	 4.552750e-01	 1.789492e+01
 1.134065e+00	 3.922965e-01	 1.865343e+01
 1.129409e+00	 4.055055e-01	 1.850756e+01
 1.124587e+00	 4.186936e-01	 1.834686e+01
 1.119598e+00	 4.318579e-01	 1.817364e+01
 1.114441e+00	 4.449953e-01	 1.798988e+01
 1.109118e+00	 4.581028e-01	 1.779655e+01
 1.141065e+00	 3.947181e-01	 1.853035e+01
 1.136381e+00	 4.080086e-01	 1.839198e+01
 1.131529e+00	 4.212781e-01	 1.823720e+01
 1.126509e+00	 4.345237e-01	 1.806832e+01
 1.121320e+00	 4.477422e-01	 1.788743e+01
 1.115964e+00	 4.609306e-01	 1.769629e+01
 1.148066e+00	 3.971397e-01	 1.840937e+01
 1.143353e+00	 4.105117e-01	 1.827864e+01
 1.138471e+00	 4.238627e-01	 1.813057e+01
 1.133420e+00	 4.371895e-01	 1.796740e+01
 1.128200e+00	 4.504891e-01	 1.779121e+01
 1.122810e+00	 4.637584e-01	 1.760379e+01
 1.155066e+00	 3.995612e-01	 1.828995e+01
 1.150324e+00	 4.130148e-01	 1.816646e+01
 1.145413e+00	 4.264472e-01	 1.802543e+01
 1.140331e+00	 4.398553e-01	 1.786896e+01
 1.135079e+00	 4.532360e-01	 1.769901e+01
 1.129657e+00	 4.665862e-01	 1.751730e+01
 1.095425e+00	 4.524472e-01	 1.798939e+01
 1.090002e+00	 4.653603e-01	 1.776957e+01
 1.084414e+00	 4.782377e-01	 1.755169e+01
 1.078660e+00	 4.910764e-01	 1.733354e+01
 1.072742e+00	 5.038733e-01	 1.711254e+01
 1.066659e+00	 5.166254e-01	 1.688578e+01
 1.102271e+00	 4.552750e-01	 1.789492e+01
 1.096814e+00	 4.682688e-01	 1.768357e+01
 1.091191e+00	 4.812266e-01	 1.747307e+01
 1.085402e+00	 4.941456e-01	 1.726152e+01
 1.079447e+00	 5.070225e-01	 1.704661e+01
 1.073326e+00	 5.198543e-01	 1.682560e+01
 1.109118e+00	 4.581028e-01	 1.779655e+01
 1.103627e+00	 4.711773e-01	 1.759608e+01
 1.097969e+00	 4.842156e-01	 1.739480e+01
 1.092144e+00	 4.972148e-01	 1.719103e+01
 1.086151e+00	 5.101717e-01	 1.698266e+01
 1.079993e+00	 5.230832e-01	 1.676711e+01
 1.115964e+00	 4.609306e-01	 1.769629e+01
 1.110439e+00	 4.740858e-01	 1.750477e+01
 1.104746e+00	 4.872046e-01	 1.731466e+01
 1.098885e+00	 5.002840e-01	 1.712017e+01
 1.092856e+00	 5.133209e-01	 1.691934e+01
 1.086659e+00	 5.263121e-01	 1.670970e+01
 1.122810e+00	 4.637584e-01	 1.760379e+01
 1.117252e+00	 4.769943e-01	 1.741416e+01
 1.111524e+00	 4.901936e-01	 1.723048e+01
 1.105627e+00	 5.033533e-01	 1.704706e+01
 1.099561e+00	 5.164701e-01	 1.685528e+01
 1.093326e+00	 5.295410e-01	 1.665273e+01
 1.129657e+00	 4.665862e-01	 1.751730e+01
 1.124064e+00	 4.799028e-01	 1.733171e+01
 1.118301e+00	 4.931826e-01	 1.714933e+01
 1.112368e+00	 5.064225e-01	 1.697011e+01
 1.106265e+00	 5.196193e-01	 1.678912e+01
 1.099992e+00	 5.327699e-01	 1.659556e+01
 1.066659e+00	 5.166254e-01	 1.688578e+01
 1.060412e+00	 5.293295e-01	 1.665725e+01
 1.054001e+00	 5.419826e-01	 1.642996e+01
 1.047427e+00	 5.545816e-01	 1.619895e+01
 1.040690e+00	 5.671234e-01	 1.595901e+01
 1.033790e+00	 5.796049e-01	 1.570461e+01
 1.073326e+00	 5.198543e-01	 1.682560e+01
 1.067040e+00	 5.326378e-01	 1.660322e+01
 1.060589e+00	 5.453700e-01	 1.638286e+01
 1.053973e+00	 5.580478e-01	 1.615925e+01
 1.047194e+00	 5.706680e-01	 1.592684e+01
 1.040251e+00	 5.832275e-01	 1.567981e+01
 1.079993e+00	 5.230832e-01	 1.676711e+01
 1.073667e+00	 5.359461e-01	 1.655012e+01
 1.067176e+00	 5.487574e-01	 1.633590e+01
 1.060520e+00	 5.615139e-01	 1.611903e+01
 1.053698e+00	 5.742125e-01	 1.589378e+01
 1.046713e+00	 5.868500e-01	 1.565413e+01
 1.086659e+00	 5.263121e-01	 1.670970e+01
 1.080295e+00	 5.392544e-01	 1.649807e+01
 1.073764e+00	 5.521448e-01	 1.628966e+01
 1.067066e+00	 5.649800e-01	 1.607906e+01
 1.060203e+00	 5.777570e-01	 1.586050e+01
 1.053174e+00	 5.904725e-01	 1.562785e+01
 1.093326e+00	 5.295410e-01	 1.665273e+01
 1.086923e+00	 5.425627e-01	 1.644712e+01
 1.080351e+00	 5.555322e-01	 1.624465e+01
 1.073613e+00	 5.684462e-01	 1.604003e+01
 1.066707e+00	 5.813015e-01	 1.582760e+01
 1.059635e+00	 5.940951e-01	 1.560125e+01
 1.099992e+00	 5.327699e-01	 1.659556e+01
 1.093550e+00	 5.458710e-01	 1.639733e+01
 1.086939e+00	 5.589196e-01	 1.620132e+01
 1.080159e+00	 5.719123e-01	 1.600258e+01
 1.073211e+00	 5.848460e-01	 1.579562e+01
 1.066096e+00	 5.977176e-01	 1.557450e+01
 1.033790e+00	 5.796049e-01	 1.570461e+01
 1.026729e+00	 5.920231e-01	 1.544665e+01
 1.019507e+00	 6.043748e-01	 1.519630e+01
 1.012125e+00	 6.166570e-01	 1.494812e+01
 1.004585e+00	 6.288667e-01	 1.469648e+01
 9.968861e-01	 6.410008e-01	 1.443563e+01
 1.040251e+00	 5.832275e-01	 1.567981e+01
 1.033146e+00	 5.957233e-01	 1.542906e+01
 1.025879e+00	 6.081522e-01	 1.518596e+01
 1.018451e+00	 6.205112e-01	 1.494502e+01
 1.010863e+00	 6.327971e-01	 1.470055e+01
 1.003117e+00	 6.450071e-01	 1.444670e+01
 1.046713e+00	 5.868500e-01	 1.565413e+01
 1.039563e+00	 5.994234e-01	 1.541088e+01
 1.032251e+00	 6.119295e-01	 1.517535e+01
 1.024777e+00	 6.243653e-01	 1.494187e+01
 1.017142e+00	 6.367276e-01	 1.470455e+01
 1.009347e+00	 6.490133e-01	 1.445728e+01
 1.053174e+00	 5.904725e-01	 1.562785e+01
 1.045980e+00	 6.031235e-01	 1.539196e+01
 1.038623e+00	 6.157069e-01	 1.516401e+01
 1.031103e+00	 6.282194e-01	 1.493800e+01
 1.023421e+00	 6.406580e-01	 1.470769e+01
 1.015578e+00	 6.530196e-01	 1.446662e+01
 1.059635e+00	 5.940951e-01	 1.560125e+01
 1.052397e+00	 6.068237e-01	 1.537212e+01
 1.044995e+00	 6.194842e-01	 1.515142e+01
 1.037429e+00	 6.320735e-01	 1.493267e+01
 1.029699e+00	 6.445884e-01	 1.470916e+01
 1.021808e+00	 6.570258e-01	 1.447394e+01
 1.066096e+00	 5.977176e-01	 1.557450e+01
 1.058814e+00	 6.105238e-01	 1.535113e+01
 1.051367e+00	 6.232615e-01	 1.513704e+01
 1.043754e+00	 6.359276e-01	 1.492515e+01
 1.035978e+00	 6.485188e-01	 1.470813e+01
 1.028039e+00	 6.610321e-01	 1.447844e+01
 9.968861e-01	 6.410008e-01	 1.443563e+01
 9.890305e-01	 6.530563e-01	 1.417311e+01
 9.810193e-01	 6.650302e-01	 1.391575e+01
 9.728535e-01	 6.769195e-01	 1.365666e+01
 9.645346e-01	 6.887213e-01	 1.338891e+01
 9.560638e-01	 7.004326e-01	 1.310568e+01
 1.003117e+00	 6.450071e-01	 1.444670e+01
 9.952120e-01	 6.571379e-01	 1.419114e+01
 9.871506e-01	 6.691866e-01	 1.394066e+01
 9.789338e-01	 6.811502e-01	 1.368788e+01
 9.705629e-01	 6.930258e-01	 1.342548e+01
 9.620392e-01	 7.048103e-01	 1.314616e+01
 1.009347e+00	 6.490133e-01	 1.445728e+01
 1.001393e+00	 6.612195e-01	 1.420797e+01
 9.932820e-01	 6.733431e-01	 1.396360e+01
 9.850142e-01	 6.853810e-01	 1.371658e+01
 9.765912e-01	 6.973303e-01	 1.345930e+01
 9.680146e-01	 7.091880e-01	 1.318422e+01
 1.015578e+00	 6.530196e-01	 1.446662e+01
 1.007575e+00	 6.653011e-01	 1.422294e+01
 9.994134e-01	 6.774995e-01	 1.398411e+01
 9.910945e-01	 6.896117e-01	 1.374244e+01
 9.826196e-01	 7.016348e-01	 1.349026e+01
 9.739900e-01	 7.135657e-01	 1.321996e+01
 1.021808e+00	 6.570258e-01	 1.447394e+01
 1.013756e+00	 6.693827e-01	 1.423541e+01
 1.005545e+00	 6.816559e-01	 1.400165e+01
 9.971748e-01	 6.938425e-01	 1.376509e+01
 9.886479e-01	 7.059393e-01	 1.351819e+01
 9.799654e-01	 7.179434e-01	 1.325346e+01
 1.028039e+00	 6.610321e-01	 1.447844e+01
 1.019938e+00	 6.734643e-01	 1.424466e+01
 1.011676e+00	 6.858124e-01	 1.401566e+01
 1.003255e+00	 6.980732e-01	 1.378415e+01
 9.946763e-01	 7.102438e-01	 1.354289e+01
 9.859408e-01	 7.223211e-01	 1.328470e+01
 9.560638e-01	 7.004326e-01	 1.310568e+01
 9.474428e-01	 7.120506e-01	 1.282011e+01
 9.386730e-01	 7.235723e-01	 1.254897e+01
 9.297560e-01	 7.349950e-01	 1.229136e+01
 9.206935e-01	 7.463159e-01	 1.204223e+01
 9.114872e-01	 7.575321e-01	 1.177725e+01
 9.620392e-01	 7.048103e-01	 1.314616e+01
 9.533643e-01	 7.165009e-01	 1.286515e+01
 9.445397e-01	 7.280947e-01	 1.260176e+01
 9.355670e-01	 7.395888e-01	 1.235540e+01
 9.264478e-01	 7.509804e-01	 1.210881e+01
 9.171840e-01	 7.622667e-01	 1.184568e+01
 9.680146e-01	 7.091880e-01	 1.318422e+01
 9.592859e-01	 7.209512e-01	 1.290886e+01
 9.504064e-01	 7.326170e-01	 1.265507e+01
 9.413779e-01	 7.441825e-01	 1.242007e+01
 9.322022e-01	 7.556448e-01	 1.217189e+01
 9.228808e-01	 7.670013e-01	 1.191180e+01
 9.739900e-01	 7.135657e-01	 1.321996e+01
 9.652074e-01	 7.254015e-01	 1.295155e+01
 9.562731e-01	 7.371393e-01	 1.270929e+01
 9.471889e-01	 7.487762e-01	 1.247961e+01
 9.379565e-01	 7.603093e-01	 1.223061e+01
 9.285776e-01	 7.717359e-01	 1.197457e+01
 9.799654e-01	 7.179434e-01	 1.325346e+01
 9.711289e-01	 7.298518e-01	 1.299347e+01
 9.621398e-01	 7.416616e-01	 1.276458e+01
 9.529999e-01	 7.533699e-01	 1.253297e+01
 9.437108e-01	 7.649738e-01	 1.228406e+01
 9.342744e-01	 7.764704e-01	 1.203291e+01
 9.859408e-01	 7.223211e-01	 1.328470e+01
 9.770504e-01	 7.343022e-01	 1.303479e+01
 9.680065e-01	 7.461840e-01	 1.281486e+01
 9.588109e-01	 7.579636e-01	 1.257930e+01
 9.494652e-01	 7.696383e-01	 1.233132e+01
 9.399712e-01	 7.812050e-01	 1.208574e+01
 9.114872e-01	 7.575321e-01	 1.177725e+01
 9.021390e-01	 7.686411e-01	 1.149832e+01
 8.926508e-01	 7.796400e-01	 1.120970e+01
 8.830244e-01	 7.905263e-01	 1.092136e+01
 8.732620e-01	 8.012973e-01	 1.064371e+01
 8.633656e-01	 8.119506e-01	 1.038752e+01
 9.171840e-01	 7.622667e-01	 1.184568e+01
 9.077774e-01	 7.734451e-01	 1.157149e+01
 8.982299e-01	 7.845127e-01	 1.128800e+01
 8.885433e-01	 7.954670e-01	 1.100486e+01
 8.787199e-01	 8.063054e-01	 1.073217e+01
 8.687616e-01	 8.170253e-01	 1.048035e+01
 9.228808e-01	 7.670013e-01	 1.191180e+01
 9.134158e-01	 7.782491e-01	 1.164319e+01
 9.038089e-01	 7.893855e-01	 1.136508e+01
 8.940622e-01	 8.004078e-01	 1.108699e+01
 8.841778e-01	 8.113135e-01	 1.081888e+01
 8.741576e-01	 8.221000e-01	 1.057101e+01
 9.285776e-01	 7.717359e-01	 1.197457e+01
 9.190541e-01	 7.830531e-01	 1.171218e+01
 9.093880e-01	 7.942582e-01	 1.143962e+01
 8.995811e-01	 8.053486e-01	 1.116642e+01
 8.896357e-01	 8.163216e-01	 1.090256e+01
 8.795537e-01	 8.271747e-01	 1.065832e+01
 9.342744e-01	 7.764704e-01	 1.203291e+01
 9.246925e-01	 7.878571e-01	 1.177723e+01
 9.149671e-01	 7.991310e-01	 1.151029e+01
 9.051001e-01	 8.102894e-01	 1.124180e+01
 8.950936e-01	 8.213297e-01	 1.098190e+01
 8.849497e-01	 8.322494e-01	 1.074109e+01
 9.399712e-01	 7.812050e-01	 1.208574e+01
 9.303309e-01	 7.926611e-01	 1.183709e+01
 9.205461e-01	 8.040037e-01	 1.157575e+01
 9.106190e-01	 8.152302e-01	 1.131176e+01
 9.005514e-01	 8.263379e-01	 1.105560e+01
 8.903458e-01	 8.373241e-01	 1.081813e+01
 8.633656e-01	 8.119506e-01	 1.038752e+01
 8.533373e-01	 8.224837e-01	 1.013140e+01
 8.431794e-01	 8.328940e-01	 9.855769e+00
 8.328940e-01	 8.431794e-01	 9.574352e+00
 8.224837e-01	 8.533373e-01	 9.300885e+00
 8.119506e-01	 8.633656e-01	 9.049020e+00
 8.687616e-01	 8.170253e-01	 1.048035e+01
 8.586707e-01	 8.276242e-01	 1.022782e+01
 8.484492e-01	 8.380996e-01	 9.955214e+00
 8.380996e-01	 8.484492e-01	 9.676595e+00
 8.276242e-01	 8.586707e-01	 9.406054e+00
 8.170253e-01	 8.687616e-01	 9.157600e+00
 8.741576e-01	 8.221000e-01	 1.057101e+01
 8.640040e-01	 8.327647e-01	 1.032188e+01
 8.537191e-01	 8.433052e-01	 1.005242e+01
 8.433052e-01	 8.537191e-01	 9.776870e+00
 8.327647e-01	 8.640040e-01	 9.509505e+00
 8.221000e-01	 8.741576e-01	 9.264515e+00
 8.795537e-01	 8.271747e-01	 1.065832e+01
 8.693374e-01	 8.379052e-01	 1.041250e+01
 8.589890e-01	 8.485108e-01	 1.014634e+01
 8.485108e-01	 8.589890e-01	 9.874085e+00
 8.379052e-01	 8.693374e-01	 9.610020e+00
 8.271747e-01	 8.795537e-01	 9.368348e+00
 8.849497e-01	 8.322494e-01	 1.074109e+01
 8.746707e-01	 8.430458e-01	 1.049861e+01
 8.642588e-01	 8.537164e-01	 1.023592e+01
 8.537164e-01	 8.642588e-01	 9.967129e+00
 8.430458e-01	 8.746707e-01	 9.706365e+00
 8.322494e-01	 8.849497e-01	 9.467671e+00
 8.903458e-01	 8.373241e-01	 1.081813e+01
 8.800041e-01	 8.481863e-01	 1.057910e+01
 8.695287e-01	 8.589220e-01	 1.032008e+01
 8.589220e-01	 8.695287e-01	 1.005487e+01
 8.481863e-01	 8.800041e-01	 9.797290e+00
 8.373241e-01	 8.903458e-01	 9.561046e+00
 8.119506e-01	 8.633656e-01	 9.049020e+00
 8.012973e-01	 8.732620e-01	 8.801033e+00
 7.905263e-01	 8.830244e-01	 8.536392e+00
 7.796400e-01	 8.926508e-01	 8.263962e+00
 7.686411e-01	 9.021390e-01	 7.991952e+00
 7.575321e-01	 9.114872e-01	 7.727825e+00
 8.170253e-01	 8.687616e-01	 9.157600e+00
 8.063054e-01	 8.787199e-01	 8.912778e+00
 7.954670e-01	 8.885433e-01	 8.650371e+00
 7.845127e-01	 8.982299e-01	 8.379692e+00
 7.734451e-01	 9.077774e-01	 8.109385e+00
 7.622667e-01	 9.171840e-01	 7.847343e+00
 8.221000e-01	 8.741576e-01	 9.264515e+00
 8.113135e-01	 8.841778e-01	 9.022629e+00
 8.004078e-01	 8.940622e-01	 8.762100e+00
 7.893855e-01	 9.038089e-01	 8.492851e+00
 7.782491e-01	 9.134158e-01	 8.224140e+00
 7.670013e-01	 9.228808e-01	 7.964469e+00
 8.271747e-01	 8.795537e-01	 9.368348e+00
 8.163216e-01	 8.896357e-01	 9.128985e+00
 8.053486e-01	 8.995811e-01	 8.869880e+00
 7.942582e-01	 9.093880e-01	 8.601730e+00
 7.830531e-01	 9.190541e-01	 8.334579e+00
 7.717359e-01	 9.285776e-01	 8.077718e+00
 8.322494e-01	 8.849497e-01	 9.467671e+00
 8.213297e-01	 8.950936e-01	 9.230235e+00
 8.102894e-01	 9.051001e-01	 8.972003e+00
 7.991310e-01	 9.149671e-01	 8.704608e+00
 7.878571e-01	 9.246925e-01	 8.439051e+00
 7.764704e-01	 9.342744e-01	 8.185587e+00
 8.373241e-01	 8.903458e-01	 9.561046e+00
 8.263379e-01	 9.005514e-01	 9.324760e+00
 8.152302e-01	 9.106190e-01	 9.066755e+00
 8.040037e-01	 9.205461e-01	 8.799758e+00
 7.926611e-01	 9.303309e-01	 8.535892e+00
 7.812050e-01	 9.399712e-01	 8.286555e+00
 7.575321e-01	 9.114872e-01	 7.727825e+00
 7.463159e-01	 9.206935e-01	 7.475396e+00
 7.349950e-01	 9.297560e-01	 7.233698e+00
 7.235723e-01	 9.386730e-01	 6.996949e+00
 7.120506e-01	 9.474428e-01	 6.757788e+00
 7.004326e-01	 9.560638e-01	 6.507870e+00
 7.622667e-01	 9.171840e-01	 7.847343e+00
 7.509804e-01	 9.264478e-01	 7.596345e+00
 7.395888e-01	 9.355670e-01	 7.354721e+00
 7.280947e-01	 9.445397e-01	 7.118501e+00
 7.165009e-01	 9.533643e-01	 6.879595e+00
 7.048103e-01	 9.620392e-01	 6.629576e+00
 7.670013e-01	 9.228808e-01	 7.964469e+00
 7.556448e-01	 9.322022e-01	 7.715606e+00
 7.441825e-01	 9.413779e-01	 7.474422e+00
 7.326170e-01	 9.504064e-01	 7.238998e+00
 7.209512e-01	 9.592859e-01	 7.000649e+00
 7.091880e-01	 9.680146e-01	 6.750476e+00
 7.717359e-01	 9.285776e-01	 8.077718e+00
 7.603093e-01	 9.379565e-01	 7.831834e+00
 7.487762e-01	 9.471889e-01	 7.592010e+00
 7.371393e-01	 9.562731e-01	 7.357210e+00
 7.254015e-01	 9.652074e-01	 7.119568e+00
 7.135657e-01	 9.739900e-01	 6.868951e+00
 7.764704e-01	 9.342744e-01	 8.185587e+00
 7.649738e-01	 9.437108e-01	 7.943661e+00
 7.533699e-01	 9.529999e-01	 7.706178e+00
 7.416616e-01	 9.621398e-01	 7.471901e+00
 7.298518e-01	 9.711289e-01	 7.234951e+00
 7.179434e-01	 9.799654e-01	 6.983367e+00
 7.812050e-01	 9.399712e-01	 8.286555e+00
 7.696383e-01	 9.494652e-01	 8.049697e+00
 7.579636e-01	 9.588109e-01	 7.815576e+00
 7.461840e-01	 9.680065e-01	 7.582305e+00
 7.343022e-01	 9.770504e-01	 7.345379e+00
 7.223211e-01	 9.859408e-01	 7.092078e+00
 7.004326e-01	 9.560638e-01	 6.507870e+00
 6.887213e-01	 9.645346e-01	 6.257713e+00
 6.769195e-01	 9.728535e-01	 6.021233e+00
 6.650302e-01	 9.810193e-01	 5.793527e+00
 6.530563e-01	 9.890305e-01	 5.568793e+00
 6.410008e-01	 9.968861e-01	 5.340368e+00
 7.048103e-01	 9.620392e-01	 6.629576e+00
 6.930258e-01	 9.705629e-01	 6.380221e+00
 6.811502e-01	 9.789338e-01	 6.145961e+00
 6.691866e-01	 9.871506e-01	 5.920605e+00
 6.571379e-01	 9.952120e-01	 5.696991e+00
 6.450071e-01	 1.003117e+00	 5.467033e+00
 7.091880e-01	 9.680146e-01	 6.750476e+00
 6.973303e-01	 9.765912e-01	 6.501231e+00
 6.853810e-01	 9.850142e-01	 6.267981e+00
 6.733431e-01	 9.932820e-01	 6.043671e+00
 6.612195e-01	 1.001393e+00	 5.820219e+00
 6.490133e-01	 1.009347e+00	 5.588570e+00
 7.135657e-01	 9.739900e-01	 6.868951e+00
 7.016348e-01	 9.826196e-01	 6.618948e+00
 6.896117e-01	 9.910945e-01	 6.385536e+00
 6.774995e-01	 9.994134e-01	 6.161205e+00
 6.653011e-01	 1.007575e+00	 5.937390e+00
 6.530196e-01	 1.015578e+00	 5.704509e+00
 7.179434e-01	 9.799654e-01	 6.983367e+00
 7.059393e-01	 9.886479e-01	 6.731571e+00
 6.938425e-01	 9.971748e-01	 6.496857e+00
 6.816559e-01	 1.005545e+00	 6.271675e+00
 6.693827e-01	 1.013756e+00	 6.047391e+00
 6.570258e-01	 1.021808e+00	 5.814341e+00
 7.223211e-01	 9.859408e-01	 7.092078e+00
 7.102438e-01	 9.946763e-01	 6.837286e+00
 6.980732e-01	 1.003255e+00	 6.600169e+00
 6.858124e-01	 1.011676e+00	 6.373531e+00
 6.734643e-01	 1.019938e+00	 6.149089e+00
 6.610321e-01	 1.028039e+00	 5.917521e+00
 6.410008e-01	 9.968861e-01	 5.340368e+00
 6.288667e-01	 1.004585e+00	 5.114190e+00
 6.166570e-01	 1.012125e+00	 4.898233e+00
 6.043748e-01	 1.019507e+00	 4.687824e+00
 5.920231e-01	 1.026729e+00	 4.477728e+00
 5.796049e-01	 1.033790e+00	 4.262190e+00
 6.450071e-01	 1.003117e+00	 5.467033e+00
 6.327971e-01	 1.010863e+00	 5.236821e+00
 6.205112e-01	 1.018451e+00	 5.016176e+00
 6.081522e-01	 1.025879e+00	 4.801523e+00
 5.957233e-01	 1.033146e+00	 4.588757e+00
 5.832275e-01	 1.040251e+00	 4.373280e+00
 6.490133e-01	 1.009347e+00	 5.588570e+00
 6.367276e-01	 1.017142e+00	 5.355621e+00
 6.243653e-01	 1.024777e+00	 5.132770e+00
 6.119295e-01	 1.032251e+00	 4.916585e+00
 5.994234e-01	 1.039563e+00	 4.703108e+00
 5.868500e-01	 1.046713e+00	 4.487889e+00
 6.530196e-01	 1.015578e+00	 5.704509e+00
 6.406580e-01	 1.023421e+00	 5.470629e+00
 6.282194e-01	 1.031103e+00	 5.248173e+00
 6.157069e-01	 1.038623e+00	 5.032920e+00
 6.031235e-01	 1.045980e+00	 4.820092e+00
 5.904725e-01	 1.053174e+00	 4.604394e+00
 6.570258e-01	 1.021808e+00	 5.814341e+00
 6.445884e-01	 1.029699e+00	 5.581833e+00
 6.320735e-01	 1.037429e+00	 5.362493e+00
 6.194842e-01	 1.044995e+00	 5.150394e+00
 6.068237e-01	 1.052397e+00	 4.938990e+00
 5.940951e-01	 1.059635e+00	 4.721170e+00
 6.610321e-01	 1.028039e+00	 5.917521e+00
 6.485188e-01	 1.035978e+00	 5.689173e+00
 6.359276e-01	 1.043754e+00	 5.475787e+00
 6.232615e-01	 1.051367e+00	 5.268828e+00
 6.105238e-01	 1.058814e+00	 5.059056e+00
 5.977176e-01	 1.066096e+00	 4.836586e+00
 5.796049e-01	 1.033790e+00	 4.262190e+00
 5.671234e-01	 1.040690e+00	 4.053255e+00
 5.545816e-01	 1.047427e+00	 3.862210e+00
 5.419826e-01	 1.054001e+00	 3.681535e+00
 5.293295e-01	 1.060412e+00	 3.503381e+00
 5.166254e-01	 1.066659e+00	 3.319624e+00
 5.832275e-01	 1.040251e+00	 4.373280e+00
 5.706680e-01	 1.047194e+00	 4.167507e+00
 5.580478e-01	 1.053973e+00	 3.980899e+00
 5.453700e-01	 1.060589e+00	 3.803772e+00
 5.326378e-01	 1.067040e+00	 3.626053e+00
 5.198543e-01	 1.073326e+00	 3.437345e+00
 5.868500e-01	 1.046713e+00	 4.487889e+00
 5.742125e-01	 1.053698e+00	 4.282725e+00
 5.615139e-01	 1.060520e+00	 4.096036e+00
 5.487574e-01	 1.067176e+00	 3.917632e+00
 5.359461e-01	 1.073667e+00	 3.736915e+00
 5.230832e-01	 1.079993e+00	 3.542944e+00
 5.904725e-01	 1.053174e+00	 4.604394e+00
 5.777570e-01	 1.060203e+00	 4.396492e+00
 5.649800e-01	 1.067066e+00	 4.204984e+00
 5.521448e-01	 1.073764e+00	 4.020800e+00
 5.392544e-01	 1.080295e+00	 3.834483e+00
 5.263121e-01	 1.086659e+00	 3.636246e+00
 5.940951e-01	 1.059635e+00	 4.721170e+00
 5.813015e-01	 1.066707e+00	 4.506408e+00
 5.684462e-01	 1.073613e+00	 4.305128e+00
 5.555322e-01	 1.080351e+00	 4.110978e+00
 5.425627e-01	 1.086923e+00	 3.917271e+00
 5.295410e-01	 1.093326e+00	 3.717042e+00
 5.977176e-01	 1.066096e+00	 4.836586e+00
 5.848460e-01	 1.073211e+00	 4.610087e+00
 5.719123e-01	 1.080159e+00	 4.393877e+00
 5.589196e-01	 1.086939e+00	 4.185882e+00
 5.458710e-01	 1.093550e+00	 3.983792e+00
 5.327699e-01	 1.099992e+00	 3.785094e+00
 5.166254e-01	 1.066659e+00	 3.319624e+00
 5.038733e-01	 1.072742e+00	 3.132727e+00
 4.910764e-01	 1.078660e+00	 2.949532e+00
 4.782377e-01	 1.084414e+00	 2.768310e+00
 4.653603e-01	 1.090002e+00	 2.587366e+00
 4.524472e-01	 1.095425e+00	 2.405072e+00
 5.198543e-01	 1.073326e+00	 3.437345e+00
 5.070225e-01	 1.079447e+00	 3.240142e+00
 4.941456e-01	 1.085402e+00	 3.044813e+00
 4.812266e-01	 1.091191e+00	 2.852615e+00
 4.682688e-01	 1.096814e+00	 2.664884e+00
 4.552750e-01	 1.102271e+00	 2.483070e+00
 5.230832e-01	 1.079993e+00	 3.542944e+00
 5.101717e-01	 1.086151e+00	 3.340085e+00
 4.972148e-01	 1.092144e+00	 3.142133e+00
 4.842156e-01	 1.097969e+00	 2.952139e+00
 4.711773e-01	 1.103627e+00	 2.773262e+00
 4.581028e-01	 1.109118e+00	 2.608794e+00
 5.263121e-01	 1.086659e+00	 3.636246e+00
 5.133209e-01	 1.092856e+00	 3.433715e+00
 5.002840e-01	 1.098885e+00	 3.243591e+00
 4.872046e-01	 1.104746e+00	 3.069556e+00
 4.740858e-01	 1.110439e+00	 2.915401e+00
 4.609306e-01	 1.115964e+00	 2.760390e+00
 5.295410e-01	 1.093326e+00	 3.717042e+00
 5.164701e-01	 1.099561e+00	 3.522127e+00
 5.033533e-01	 1.105627e+00	 3.351205e+00
 4.901936e-01	 1.111524e+00	 3.207266e+00
 4.769943e-01	 1.117252e+00	 3.054338e+00
 4.637584e-01	 1.122810e+00	 2.870981e+00
 5.327699e-01	 1.099992e+00	 3.785094e+00
 5.196193e-01	 1.106265e+00	 3.606355e+00
 5.064225e-01	 1.112368e+00	 3.465236e+00
 4.931826e-01	 1.118301e+00	 3.313572e+00
 4.799028e-01	 1.124064e+00	 3.134949e+00
 4.665862e-01	 1.129657e+00	 2.938597e+00
 4.524472e-01	 1.095425e+00	 2.405072e+00
 4.395015e-01	 1.100683e+00	 2.233531e+00
 4.265263e-01	 1.105775e+00	 2.088263e+00
 4.135246e-01	 1.110703e+00	 1.972996e+00
 4.004992e-01	 1.115466e+00	 1.872995e+00
 3.874533e-01	 1.120064e+00	 1.771187e+00
 4.552750e-01	 1.102271e+00	 2.483070e+00
 4.422484e-01	 1.107562e+00	 2.322065e+00
 4.291921e-01	 1.112686e+00	 2.194860e+00
 4.161091e-01	 1.117645e+00	 2.068727e+00
 4.030023e-01	 1.122438e+00	 1.940956e+00
 3.898749e-01	 1.127065e+00	 1.822365e+00
 4.581028e-01	 1.109118e+00	 2.608794e+00
 4.449953e-01	 1.114441e+00	 2.463343e+00
 4.318579e-01	 1.119598e+00	 2.311922e+00
 4.186936e-01	 1.124587e+00	 2.158877e+00
 4.055055e-01	 1.129409e+00	 2.013264e+00
 3.922965e-01	 1.134065e+00	 1.884630e+00
 4.609306e-01	 1.115964e+00	 2.760390e+00
 4.477422e-01	 1.121320e+00	 2.586077e+00
 4.345237e-01	 1.126509e+00	 2.411699e+00
 4.212781e-01	 1.131529e+00	 2.243870e+00
 4.080086e-01	 1.136381e+00	 2.089743e+00
 3.947181e-01	 1.141065e+00	 1.956951e+00
 4.637584e-01	 1.122810e+00	 2.870981e+00
 4.504891e-01	 1.128200e+00	 2.679031e+00
 4.371895e-01	 1.133420e+00	 2.495438e+00
 4.238627e-01	 1.138471e+00	 2.324298e+00
 4.105117e-01	 1.143353e+00	 2.170235e+00
 3.971397e-01	 1.148066e+00	 2.038337e+00
 4.665862e-01	 1.129657e+00	 2.938597e+00
 4.532360e-01	 1.135079e+00	 2.743976e+00
 4.398553e-01	 1.140331e+00	 2.564373e+00
 4.264472e-01	 1.145413e+00	 2.400757e+00
 4.130148e-01	 1.150324e+00	 2.254602e+00
 3.995612e-01	 1.155066e+00	 2.127832e+00
 3.874533e-01	 1.120064e+00	 1.771187e+00
 3.743898e-01	 1.124498e+00	 1.655977e+00
 3.613116e-01	 1.128768e+00	 1.512912e+00
 3.482216e-01	 1.132875e+00	 1.357520e+00
 3.351226e-01	 1.136819e+00	 1.207967e+00
 3.220177e-01	 1.140600e+00	 1.083217e+00
 3.898749e-01	 1.127065e+00	 1.822365e+00
 3.767297e-01	 1.131526e+00	 1.699938e+00
 3.635698e-01	 1.135823e+00	 1.556210e+00
 3.503979e-01	 1.139955e+00	 1.403697e+00
 3.372172e-01	 1.143924e+00	 1.259438e+00
 3.240303e-01	 1.147729e+00	 1.141197e+00
 3.922965e-01	 1.134065e+00	 1.884630e+00
 3.790697e-01	 1.138554e+00	 1.757911e+00
 3.658280e-01	 1.142878e+00	 1.613649e+00
 3.525743e-01	 1.147036e+00	 1.462034e+00
 3.393117e-01	 1.151029e+00	 1.319855e+00
 3.260429e-01	 1.154858e+00	 1.204723e+00
 3.947181e-01	 1.141065e+00	 1.956951e+00
 3.814096e-01	 1.145583e+00	 1.828110e+00
 3.680862e-01	 1.149933e+00	 1.682861e+00
 3.547507e-01	 1.154116e+00	 1.529965e+00
 3.414062e-01	 1.158134e+00	 1.386676e+00
 3.280555e-01	 1.161986e+00	 1.271490e+00
 3.971397e-01	 1.148066e+00	 2.038337e+00
 3.837495e-01	 1.152611e+00	 1.908804e+00
 3.703444e-01	 1.156988e+00	 1.761530e+00
 3.569271e-01	 1.161197e+00	 1.604971e+00
 3.435007e-01	 1.165239e+00	 1.457404e+00
 3.300681e-01	 1.169115e+00	 1.339226e+00
 3.995612e-01	 1.155066e+00	 2.127832e+00
 3.860895e-01	 1.159639e+00	 1.998312e+00
 3.726026e-01	 1.164042e+00	 1.847383e+00
 3.591035e-01	 1.168277e+00	 1.684584e+00
 3.455952e-01	 1.172344e+00	 1.529589e+00
 3.320807e-01	 1.176244e+00	 1.405693e+00
 3.220177e-01	 1.140600e+00	 1.083217e+00
 3.089094e-01	 1.144220e+00	 9.791186e-01
 2.958007e-01	 1.147678e+00	 8.783824e-01
 2.826943e-01	 1.150977e+00	 7.811174e-01
 2.695930e-01	 1.154116e+00	 6.877165e-01
 2.564993e-01	 1.157096e+00	 5.987642e-01
 3.240303e-01	 1.147729e+00	 1.141197e+00
 3.108401e-01	 1.151371e+00	 1.042212e+00
 2.976495e-01	 1.154851e+00	 9.438521e-01
 2.844612e-01	 1.158171e+00	 8.468710e-01
 2.712779e-01	 1.161329e+00	 7.522857e-01
 2.581024e-01	 1.164328e+00	 6.612828e-01
 3.260429e-01	 1.154858e+00	 1.204723e+00
 3.127708e-01	 1.158523e+00	 1.108287e+00
 2.994982e-01	 1.162024e+00	 1.010728e+00
 2.862280e-01	 1.165364e+00	 9.132142e-01
 2.729629e-01	 1.168542e+00	 8.171493e-01
 2.597055e-01	 1.171560e+00	 7.240800e-01
 3.280555e-01	 1.161986e+00	 1.271490e+00
 3.147015e-01	 1.165674e+00	 1.175337e+00
 3.013470e-01	 1.169197e+00	 1.077249e+00
 2.879949e-01	 1.172558e+00	 9.785785e-01
 2.746478e-01	 1.175756e+00	 8.808818e-01
 2.613086e-01	 1.178792e+00	 7.858283e-01
 3.300681e-01	 1.169115e+00	 1.339226e+00
 3.166322e-01	 1.172825e+00	 1.241383e+00
 3.031958e-01	 1.176370e+00	 1.141671e+00
 2.897617e-01	 1.179751e+00	 1.041404e+00
 2.763328e-01	 1.182969e+00	 9.420614e-01
 2.629118e-01	 1.186024e+00	 8.452010e-01
 3.320807e-01	 1.176244e+00	 1.405693e+00
 3.185628e-01	 1.179977e+00	 1.304467e+00
 3.050445e-01	 1.183543e+00	 1.202264e+00
 2.915285e-01	 1.186945e+00	 1.100140e+00
 2.780177e-01	 1.190182e+00	 9.992704e-01
 2.645149e-01	 1.193256e+00	 9.008723e-01
 2.564993e-01	 1.157096e+00	 5.987642e-01
 2.434159e-01	 1.159919e+00	 5.124237e-01
 2.303455e-01	 1.162585e+00	 4.279756e-01
 2.172906e-01	 1.165096e+00	 3.477647e-01
 2.042537e-01	 1.167452e+00	 2.740833e-01
 1.912373e-01	 1.169655e+00	 2.091337e-01
 2.581024e-01	 1.164328e+00	 6.612828e-01
 2.449373e-01	 1.167169e+00	 5.726123e-01
 2.317851e-01	 1.169852e+00	 4.857959e-01
 2.186486e-01	 1.172378e+00	 4.032283e-01
 2.055302e-01	 1.174749e+00	 3.272323e-01
 1.924325e-01	 1.176965e+00	 2.600241e-01
 2.597055e-01	 1.171560e+00	 7.240800e-01
 2.464586e-01	 1.174418e+00	 6.330977e-01
 2.332248e-01	 1.177118e+00	 5.439059e-01
 2.200067e-01	 1.179660e+00	 4.589817e-01
 2.068068e-01	 1.182045e+00	 3.807082e-01
 1.936277e-01	 1.184275e+00	 3.113428e-01
 2.613086e-01	 1.178792e+00	 7.858283e-01
 2.479800e-01	 1.181668e+00	 6.926324e-01
 2.346645e-01	 1.184384e+00	 6.011429e-01
 2.213648e-01	 1.186942e+00	 5.139499e-01
 2.080834e-01	 1.189342e+00	 4.335250e-01
 1.948230e-01	 1.191586e+00	 3.621925e-01
 2.629118e-01	 1.186024e+00	 8.452010e-01
 2.495013e-01	 1.188917e+00	 7.499675e-01
 2.361041e-01	 1.191650e+00	 6.563408e-01
 2.227228e-01	 1.194223e+00	 5.670531e-01
 2.093600e-01	 1.196638e+00	 4.846909e-01
 1.960182e-01	 1.198896e+00	 4.116696e-01
 2.645149e-01	 1.193256e+00	 9.008723e-01
 2.510227e-01	 1.196167e+00	 8.038528e-01
 2.375438e-01	 1.198916e+00	 7.083304e-01
 2.240809e-01	 1.201505e+00	 6.172071e-01
 2.106366e-01	 1.203935e+00	 5.332088e-01
 1.972134e-01	 1.206206e+00	 4.588642e-01
 1.912373e-01	 1.169655e+00	 2.091337e-01
 1.782438e-01	 1.171705e+00	 1.509934e-01
 1.652757e-01	 1.173605e+00	 9.648539e-02
 1.523352e-01	 1.175354e+00	 4.573901e-02
 1.394248e-01	 1.176956e+00	-1.262511e-03
 1.265466e-01	 1.178410e+00	-4.468411e-02
 1.924325e-01	 1.176965e+00	 2.600241e-01
 1.793578e-01	 1.179028e+00	 1.995879e-01
 1.663087e-01	 1.180940e+00	 1.427278e-01
 1.532873e-01	 1.182700e+00	 8.968248e-02
 1.402962e-01	 1.184312e+00	 4.053956e-02
 1.273375e-01	 1.185775e+00	-4.762308e-03
 1.936277e-01	 1.184275e+00	 3.113428e-01
 1.804719e-01	 1.186352e+00	 2.487923e-01
 1.673416e-01	 1.188275e+00	 1.898138e-01
 1.542394e-01	 1.190046e+00	 1.347143e-01
 1.411676e-01	 1.191668e+00	 8.364561e-02
 1.281284e-01	 1.193140e+00	 3.660979e-02
 1.948230e-01	 1.191586e+00	 3.621925e-01
 1.815859e-01	 1.193675e+00	 2.978000e-01
 1.683746e-01	 1.195610e+00	 2.370318e-01
 1.551915e-01	 1.197392e+00	 1.802224e-01
 1.420390e-01	 1.199024e+00	 1.275463e-01
 1.289193e-01	 1.200505e+00	 7.902811e-02
 1.960182e-01	 1.198896e+00	 4.116696e-01
 1.826999e-01	 1.200998e+00	 3.457974e-01
 1.694076e-01	 1.202945e+00	 2.836637e-01
 1.561436e-01	 1.204738e+00	 2.255879e-01
 1.429104e-01	 1.206380e+00	 1.717257e-01
 1.297102e-01	 1.207870e+00	 1.220821e-01
 1.972134e-01	 1.206206e+00	 4.588642e-01
 1.838139e-01	 1.208321e+00	 3.919646e-01
 1.704405e-01	 1.210280e+00	 3.289844e-01
 1.570957e-01	 1.212084e+00	 2.701855e-01
 1.437818e-01	 1.213736e+00	 2.156612e-01
 1.305012e-01	 1.215235e+00	 1.653547e-01
 1.265466e-01	 1.178410e+00	-4.468411e-02
 1.137028e-01	 1.179718e+00	-8.452175e-02
 1.008957e-01	 1.180883e+00	-1.202371e-01
 8.812724e-02	 1.181904e+00	-1.514208e-01
 7.539962e-02	 1.182784e+00	-1.778156e-01
 6.271480e-02	 1.183525e+00	-1.993142e-01
 1.273375e-01	 1.185775e+00	-4.762308e-03
 1.144135e-01	 1.187092e+00	-4.612072e-02
 1.015263e-01	 1.188263e+00	-8.303388e-02
 8.867804e-02	 1.189291e+00	-1.151787e-01
 7.587086e-02	 1.190177e+00	-1.423672e-01
 6.310677e-02	 1.190922e+00	-1.645398e-01
 1.281284e-01	 1.193140e+00	 3.660979e-02
 1.151241e-01	 1.194465e+00	-6.218689e-03
 1.021569e-01	 1.195644e+00	-4.435192e-02
 8.922883e-02	 1.196678e+00	-7.752010e-02
 7.634211e-02	 1.197569e+00	-1.055715e-01
 6.349873e-02	 1.198319e+00	-1.284624e-01
 1.289193e-01	 1.200505e+00	 7.902811e-02
 1.158347e-01	 1.201838e+00	 3.488325e-02
 1.027875e-01	 1.203024e+00	-4.397269e-03
 8.977963e-02	 1.204065e+00	-3.856588e-02
 7.681336e-02	 1.204962e+00	-6.747661e-02
 6.389070e-02	 1.205716e+00	-9.107149e-02
 1.297102e-01	 1.207870e+00	 1.220821e-01
 1.165454e-01	 1.209211e+00	 7.687780e-02
 1.034181e-01	 1.210405e+00	 3.661834e-02
 9.033042e-02	 1.211452e+00	 1.557937e-03
 7.728461e-02	 1.212354e+00	-2.813485e-02
 6.428267e-02	 1.213113e+00	-5.235956e-02
 1.305012e-01	 1.215235e+00	 1.653547e-01
 1.172560e-01	 1.216585e+00	 1.194515e-01
 1.040487e-01	 1.217785e+00	 7.847745e-02
 9.088122e-02	 1.218839e+00	 4.272026e-02
 7.775585e-02	 1.219746e+00	 1.239730e-02
 6.467464e-02	 1.220510e+00	-1.232246e-02
 6.271480e-02	 1.183525e+00	-1.993142e-01
 5.007476e-02	 1.184127e+00	-2.169048e-01
 3.748142e-02	 1.184592e+00	-2.310976e-01
 2.493664e-02	 1.184923e+00	-2.413102e-01
 1.244224e-02	 1.185120e+00	-2.471396e-01
-1.549714e-07	 1.185194e+00	-2.474517e-01
 6.310677e-02	 1.190922e+00	-1.645398e-01
 5.038773e-02	 1.191528e+00	-1.827378e-01
 3.771568e-02	 1.191996e+00	-1.974802e-01
 2.509249e-02	 1.192329e+00	-2.081264e-01
 1.252001e-02	 1.192527e+00	-2.141838e-01
-2.640660e-07	 1.192602e+00	-2.143581e-01
 6.349873e-02	 1.198319e+00	-1.284624e-01
 5.070070e-02	 1.198928e+00	-1.472655e-01
 3.794994e-02	 1.199400e+00	-1.625280e-01
 2.524835e-02	 1.199734e+00	-1.735796e-01
 1.259777e-02	 1.199934e+00	-1.798650e-01
-3.954445e-07	 1.200010e+00	-3.854565e-01
 6.389070e-02	 1.205716e+00	-9.107149e-02
 5.101366e-02	 1.206329e+00	-1.104313e-01
 3.818419e-02	 1.206803e+00	-1.261491e-01
 2.540420e-02	 1.207140e+00	-1.375542e-01
 1.267554e-02	 1.207341e+00	-1.440553e-01
-5.341976e-07	 1.207418e+00	-3.419700e-01
 6.428267e-02	 1.213113e+00	-5.235956e-02
 5.132663e-02	 1.213730e+00	-7.218092e-02
 3.841845e-02	 1.214207e+00	-8.825279e-02
 2.556006e-02	 1.214546e+00	-9.993406e-02
 1.275330e-02	 1.214748e+00	-1.066262e-01
-6.654160e-07	 1.214826e+00	-2.960211e-01
 6.467464e-02	 1.220510e+00	-1.232246e-02
 5.163960e-02	 1.221131e+00	-3.246202e-02
 3.865271e-02	 1.221611e+00	-4.874917e-02
 2.571591e-02	 1.221952e+00	-6.060345e-02
 1.283106e-02	 1.222155e+00	-6.744803e-02
-7.741905e-07	 1.222233e+00	-2.474891e-01
 1.222222e+00	 0.000000e+00	 2.054273e+01
 1.222155e+00	 1.283106e-02	 2.053814e+01
 1.221952e+00	 2.571591e-02	 2.053072e+01
 1.221611e+00	 3.865271e-02	 2.051959e+01
 1.221131e+00	 5.163960e-02	 2.050390e+01
 1.220510e+00	 6.467464e-02	 2.048289e+01
 1.229630e+00	 0.000000e+00	 2.033613e+01
 1.229562e+00	 1.290883e-02	 2.033160e+01
 1.229357e+00	 2.587176e-02	 2.032449e+01
 1.229015e+00	 3.888697e-02	 2.031389e+01
 1.228532e+00	 5.195256e-02	 2.029895e+01
 1.227907e+00	 6.506660e-02	 2.027888e+01
 1.237037e+00	 0.000000e+00	 2.013531e+01
 1.236969e+00	 1.298659e-02	 2.013089e+01
 1.236763e+00	 2.602762e-02	 2.012408e+01
 1.236418e+00	 3.912123e-02	 2.011398e+01
 1.235932e+00	 5.226553e-02	 2.009974e+01
 1.235304e+00	 6.545857e-02	 2.008055e+01
 1.244444e+00	 0.000000e+00	 1.993998e+01
 1.244376e+00	 1.306436e-02	 1.993570e+01
 1.244169e+00	 2.618347e-02	 1.992920e+01
 1.243822e+00	 3.935549e-02	 1.991958e+01
 1.243333e+00	 5.257850e-02	 1.990599e+01
 1.242701e+00	 6.585054e-02	 1.988762e+01
 1.251852e+00	 0.000000e+00	 1.974986e+01
 1.251783e+00	 1.314212e-02	 1.974576e+01
 1.251575e+00	 2.633933e-02	 1.973957e+01
 1.251226e+00	 3.958975e-02	 1.973041e+01
 1.250734e+00	 5.289147e-02	 1.971743e+01
 1.250098e+00	 6.624251e-02	 1.969983e+01
 1.259259e+00	 0.000000e+00	 1.956465e+01
 1.259190e+00	 1.321988e-02	 1.956078e+01
 1.258980e+00	 2.649518e-02	 1.955490e+01
 1.258629e+00	 3.982401e-02	 1.954618e+01
 1.258135e+00	 5.320443e-02	 1.953378e+01
 1.257495e+00	 6.663447e-02	 1.951691e+01
 1.220510e+00	 6.467464e-02	 2.048289e+01
 1.219746e+00	 7.775585e-02	 2.045701e+01
 1.218839e+00	 9.088122e-02	 2.042669e+01
 1.217785e+00	 1.040487e-01	 2.039118e+01
 1.216585e+00	 1.172560e-01	 2.034984e+01
 1.215235e+00	 1.305012e-01	 2.030214e+01
 1.227907e+00	 6.506660e-02	 2.027888e+01
 1.227139e+00	 7.822710e-02	 2.025415e+01
 1.226226e+00	 9.143201e-02	 2.022518e+01
 1.225166e+00	 1.046793e-01	 2.019124e+01
 1.223958e+00	 1.179667e-01	 2.015167e+01
 1.222600e+00	 1.312921e-01	 2.010590e+01
 1.235304e+00	 6.545857e-02	 2.008055e+01
 1.234531e+00	 7.869835e-02	 2.005689e+01
 1.233612e+00	 9.198281e-02	 2.002923e+01
 1.232546e+00	 1.053098e-01	 1.999679e+01
 1.231331e+00	 1.186773e-01	 1.995891e+01
 1.229965e+00	 1.320830e-01	 1.991498e+01
 1.242701e+00	 6.585054e-02	 1.988762e+01
 1.241924e+00	 7.916960e-02	 1.986498e+01
 1.240999e+00	 9.253360e-02	 1.983857e+01
 1.239927e+00	 1.059404e-01	 1.980760e+01
 1.238704e+00	 1.193880e-01	 1.977136e+01
 1.237330e+00	 1.328739e-01	 1.972922e+01
 1.250098e+00	 6.624251e-02	 1.969983e+01
 1.249316e+00	 7.964084e-02	 1.967817e+01
 1.248386e+00	 9.308440e-02	 1.965298e+01
 1.247307e+00	 1.065710e-01	 1.962345e+01
 1.246078e+00	 1.200986e-01	 1.958882e+01
 1.244695e+00	 1.336648e-01	 1.954844e+01
 1.257495e+00	 6.663447e-02	 1.951691e+01
 1.256708e+00	 8.011209e-02	 1.949619e+01
 1.255773e+00	 9.363520e-02	 1.947221e+01
 1.254688e+00	 1.072016e-01	 1.944411e+01
 1.253451e+00	 1.208092e-01	 1.941110e+01
 1.252061e+00	 1.344557e-01	 1.937247e+01
 1.215235e+00	 1.305012e-01	 2.030214e+01
 1.213736e+00	 1.437818e-01	 2.024946e+01
 1.212084e+00	 1.570957e-01	 2.019336e+01
 1.210280e+00	 1.704405e-01	 2.013369e+01
 1.208321e+00	 1.838139e-01	 2.007038e+01
 1.206206e+00	 1.972134e-01	 2.000356e+01
 1.222600e+00	 1.312921e-01	 2.010590e+01
 1.221092e+00	 1.446532e-01	 2.005539e+01
 1.219430e+00	 1.580478e-01	 2.000177e+01
 1.217615e+00	 1.714735e-01	 1.994486e+01
 1.215644e+00	 1.849280e-01	 1.988457e+01
 1.213517e+00	 1.984087e-01	 1.982099e+01
 1.229965e+00	 1.320830e-01	 1.991498e+01
 1.228447e+00	 1.455246e-01	 1.986653e+01
 1.226776e+00	 1.589999e-01	 1.981524e+01
 1.224950e+00	 1.725065e-01	 1.976091e+01
 1.222967e+00	 1.860420e-01	 1.970346e+01
 1.220827e+00	 1.996039e-01	 1.964294e+01
 1.237330e+00	 1.328739e-01	 1.972922e+01
 1.235803e+00	 1.463960e-01	 1.968274e+01
 1.234122e+00	 1.599520e-01	 1.963365e+01
 1.232285e+00	 1.735395e-01	 1.958175e+01
 1.230290e+00	 1.871560e-01	 1.952696e+01
 1.228137e+00	 2.007991e-01	 1.946931e+01
 1.244695e+00	 1.336648e-01	 1.954844e+01
 1.243159e+00	 1.472674e-01	 1.950386e+01
 1.241468e+00	 1.609041e-01	 1.945688e+01
 1.239620e+00	 1.745724e-01	 1.940727e+01
 1.237614e+00	 1.882700e-01	 1.935497e+01
 1.235448e+00	 2.019944e-01	 1.930002e+01
 1.252061e+00	 1.344557e-01	 1.937247e+01
 1.250515e+00	 1.481388e-01	 1.932977e+01
 1.248814e+00	 1.618562e-01	 1.928479e+01
 1.246955e+00	 1.756054e-01	 1.923736e+01
 1.244937e+00	 1.893840e-01	 1.918740e+01
 1.242758e+00	 2.031896e-01	 1.913499e+01
 1.206206e+00	 1.972134e-01	 2.000356e+01
 1.203935e+00	 2.106366e-01	 1.993050e+01
 1.201505e+00	 2.240809e-01	 1.984869e+01
 1.198916e+00	 2.375438e-01	 1.975873e+01
 1.196167e+00	 2.510227e-01	 1.966132e+01
 1.193256e+00	 2.645149e-01	 1.955730e+01
 1.213517e+00	 1.984087e-01	 1.982099e+01
 1.211232e+00	 2.119132e-01	 1.975130e+01
 1.208787e+00	 2.254390e-01	 1.967288e+01
 1.206182e+00	 2.389834e-01	 1.958631e+01
 1.203416e+00	 2.525440e-01	 1.949230e+01
 1.200488e+00	 2.661180e-01	 1.939167e+01
 1.220827e+00	 1.996039e-01	 1.964294e+01
 1.218528e+00	 2.131898e-01	 1.957645e+01
 1.216069e+00	 2.267970e-01	 1.950132e+01
 1.213449e+00	 2.404231e-01	 1.941806e+01
 1.210666e+00	 2.540654e-01	 1.932736e+01
 1.207719e+00	 2.677211e-01	 1.923004e+01
 1.228137e+00	 2.007991e-01	 1.946931e+01
 1.225825e+00	 2.144663e-01	 1.940589e+01
 1.223351e+00	 2.281551e-01	 1.933394e+01
 1.220715e+00	 2.418628e-01	 1.925394e+01
 1.217915e+00	 2.555867e-01	 1.916653e+01
 1.214951e+00	 2.693242e-01	 1.907248e+01
 1.235448e+00	 2.019944e-01	 1.930002e+01
 1.233121e+00	 2.157429e-01	 1.923954e+01
 1.230633e+00	 2.295132e-01	 1.917071e+01
 1.227981e+00	 2.433024e-01	 1.909395e+01
 1.225165e+00	 2.571081e-01	 1.900983e+01
 1.222183e+00	 2.709274e-01	 1.891908e+01
 1.242758e+00	 2.031896e-01	 1.913499e+01
 1.240418e+00	 2.170195e-01	 1.907730e+01
 1.237915e+00	 2.308712e-01	 1.901155e+01
 1.235247e+00	 2.447421e-01	 1.893804e+01
 1.232414e+00	 2.586294e-01	 1.885728e+01
 1.229415e+00	 2.725305e-01	 1.876992e+01
 1.193256e+00	 2.645149e-01	 1.955730e+01
 1.190182e+00	 2.780177e-01	 1.944968e+01
 1.186945e+00	 2.915285e-01	 1.934188e+01
 1.183543e+00	 3.050445e-01	 1.923556e+01
 1.179977e+00	 3.185628e-01	 1.913252e+01
 1.176244e+00	 3.320807e-01	 1.903468e+01
 1.200488e+00	 2.661180e-01	 1.939167e+01
 1.197395e+00	 2.797027e-01	 1.928779e+01
 1.194139e+00	 2.932954e-01	 1.918435e+01
 1.190716e+00	 3.068933e-01	 1.908296e+01
 1.187128e+00	 3.204935e-01	 1.898536e+01
 1.183373e+00	 3.340933e-01	 1.889344e+01
 1.207719e+00	 2.677211e-01	 1.923004e+01
 1.204608e+00	 2.813877e-01	 1.912976e+01
 1.201332e+00	 2.950622e-01	 1.903055e+01
 1.197889e+00	 3.087420e-01	 1.893398e+01
 1.194279e+00	 3.224242e-01	 1.884177e+01
 1.190501e+00	 3.361059e-01	 1.875580e+01
 1.214951e+00	 2.693242e-01	 1.907248e+01
 1.211822e+00	 2.830726e-01	 1.897573e+01
 1.208526e+00	 2.968291e-01	 1.888060e+01
 1.205062e+00	 3.105908e-01	 1.878865e+01
 1.201431e+00	 3.243549e-01	 1.870166e+01
 1.197630e+00	 3.381185e-01	 1.862148e+01
 1.222183e+00	 2.709274e-01	 1.891908e+01
 1.219035e+00	 2.847576e-01	 1.882582e+01
 1.215719e+00	 2.985959e-01	 1.873458e+01
 1.212235e+00	 3.124395e-01	 1.864701e+01
 1.208582e+00	 3.262856e-01	 1.856490e+01
 1.204759e+00	 3.401311e-01	 1.849020e+01
 1.229415e+00	 2.725305e-01	 1.876992e+01
 1.226248e+00	 2.864425e-01	 1.868013e+01
 1.222913e+00	 3.003627e-01	 1.859261e+01
 1.219408e+00	 3.142883e-01	 1.850907e+01
 1.215734e+00	 3.282163e-01	 1.843141e+01
 1.211888e+00	 3.421438e-01	 1.836165e+01
 1.176244e+00	 3.320807e-01	 1.903468e+01
 1.172344e+00	 3.455952e-01	 1.892087e+01
 1.168277e+00	 3.591035e-01	 1.877126e+01
 1.164042e+00	 3.726026e-01	 1.859054e+01
 1.159639e+00	 3.860895e-01	 1.842226e+01
 1.155066e+00	 3.995612e-01	 1.828995e+01
 1.183373e+00	 3.340933e-01	 1.889344e+01
 1.179449e+00	 3.476897e-01	 1.878430e+01
 1.175358e+00	 3.612799e-01	 1.863669e+01
 1.171097e+00	 3.748607e-01	 1.845829e+01
 1.166667e+00	 3.884294e-01	 1.829827e+01
 1.162067e+00	 4.019828e-01	 1.817254e+01
 1.190501e+00	 3.361059e-01	 1.875580e+01
 1.186555e+00	 3.497843e-01	 1.865138e+01
 1.182438e+00	 3.634562e-01	 1.850565e+01
 1.178152e+00	 3.771189e-01	 1.833093e+01
 1.173695e+00	 3.907693e-01	 1.817837e+01
 1.169067e+00	 4.044044e-01	 1.805804e+01
 1.197630e+00	 3.381185e-01	 1.862148e+01
 1.193660e+00	 3.518788e-01	 1.852166e+01
 1.189519e+00	 3.656326e-01	 1.837768e+01
 1.185207e+00	 3.793771e-01	 1.820799e+01
 1.180723e+00	 3.931093e-01	 1.806231e+01
 1.176067e+00	 4.068260e-01	 1.794654e+01
 1.204759e+00	 3.401311e-01	 1.849020e+01
 1.200765e+00	 3.539733e-01	 1.839470e+01
 1.196599e+00	 3.678090e-01	 1.825228e+01
 1.192262e+00	 3.816353e-01	 1.808903e+01
 1.187751e+00	 3.954492e-01	 1.794984e+01
 1.183068e+00	 4.092476e-01	 1.783813e+01
 1.211888e+00	 3.421438e-01	 1.836165e+01
 1.207870e+00	 3.560678e-01	 1.827006e+01
 1.203680e+00	 3.699854e-01	 1.812900e+01
 1.199316e+00	 3.838935e-01	 1.797358e+01
 1.194779e+00	 3.977892e-01	 1.784068e+01
 1.190068e+00	 4.116692e-01	 1.773284e+01
 1.155066e+00	 3.995612e-01	 1.828995e+01
 1.150324e+00	 4.130148e-01	 1.816646e+01
 1.145413e+00	 4.264472e-01	 1.802543e+01
 1.140331e+00	 4.398553e-01	 1.786896e+01
 1.135079e+00	 4.532360e-01	 1.769901e+01
 1.129657e+00	 4.665862e-01	 1.751730e+01
 1.162067e+00	 4.019828e-01	 1.817254e+01
 1.157296e+00	 4.155179e-01	 1.805516e+01
 1.152354e+00	 4.290317e-01	 1.792066e+01
 1.147242e+00	 4.425211e-01	 1.777097e+01
 1.141958e+00	 4.559829e-01	 1.760794e+01
 1.136503e+00	 4.694140e-01	 1.743324e+01
 1.169067e+00	 4.044044e-01	 1.805804e+01
 1.164268e+00	 4.180211e-01	 1.794550e+01
 1.159296e+00	 4.316163e-01	 1.781654e+01
 1.154153e+00	 4.451869e-01	 1.767304e+01
 1.148838e+00	 4.587297e-01	 1.751683e+01
 1.143350e+00	 4.722418e-01	 1.734957e+01
 1.176067e+00	 4.068260e-01	 1.794654e+01
 1.171239e+00	 4.205242e-01	 1.783789e+01
 1.166238e+00	 4.342008e-01	 1.771362e+01
 1.161064e+00	 4.478526e-01	 1.757567e+01
 1.155717e+00	 4.614766e-01	 1.742593e+01
 1.150196e+00	 4.750696e-01	 1.726615e+01
 1.183068e+00	 4.092476e-01	 1.783813e+01
 1.178211e+00	 4.230273e-01	 1.773272e+01
 1.173180e+00	 4.367853e-01	 1.761242e+01
 1.167975e+00	 4.505184e-01	 1.747933e+01
 1.162596e+00	 4.642235e-01	 1.733549e+01
 1.157042e+00	 4.778974e-01	 1.718280e+01
 1.190068e+00	 4.116692e-01	 1.773284e+01
 1.185183e+00	 4.255304e-01	 1.763033e+01
 1.180122e+00	 4.393698e-01	 1.751341e+01
 1.174886e+00	 4.531842e-01	 1.738446e+01
 1.169475e+00	 4.669704e-01	 1.724573e+01
 1.163889e+00	 4.807252e-01	 1.709935e+01
 1.129657e+00	 4.665862e-01	 1.751730e+01
 1.124064e+00	 4.799028e-01	 1.733171e+01
 1.118301e+00	 4.931826e-01	 1.714933e+01
 1.112368e+00	 5.064225e-01	 1.697011e+01
 1.106265e+00	 5.196193e-01	 1.678912e+01
 1.099992e+00	 5.327699e-01	 1.659556e+01
 1.136503e+00	 4.694140e-01	 1.743324e+01
 1.130877e+00	 4.828113e-01	 1.725345e+01
 1.125079e+00	 4.961716e-01	 1.707447e+01
 1.119110e+00	 5.094917e-01	 1.689631e+01
 1.112970e+00	 5.227685e-01	 1.671841e+01
 1.106659e+00	 5.359988e-01	 1.653603e+01
 1.143350e+00	 4.722418e-01	 1.734957e+01
 1.137689e+00	 4.857198e-01	 1.717662e+01
 1.131857e+00	 4.991606e-01	 1.700257e+01
 1.125852e+00	 5.125610e-01	 1.682750e+01
 1.119675e+00	 5.259177e-01	 1.665093e+01
 1.113326e+00	 5.392277e-01	 1.647174e+01
 1.150196e+00	 4.750696e-01	 1.726615e+01
 1.144502e+00	 4.886283e-01	 1.710054e+01
 1.138634e+00	 5.021495e-01	 1.693248e+01
 1.132593e+00	 5.156302e-01	 1.676205e+01
 1.126379e+00	 5.290670e-01	 1.658878e+01
 1.119992e+00	 5.424566e-01	 1.641161e+01
 1.157042e+00	 4.778974e-01	 1.718280e+01
 1.151314e+00	 4.915368e-01	 1.702455e+01
 1.145412e+00	 5.051385e-01	 1.686305e+01
 1.139335e+00	 5.186994e-01	 1.669832e+01
 1.133084e+00	 5.322162e-01	 1.652985e+01
 1.126659e+00	 5.456855e-01	 1.635662e+01
 1.163889e+00	 4.807252e-01	 1.709935e+01
 1.158127e+00	 4.944453e-01	 1.694799e+01
 1.152189e+00	 5.081275e-01	 1.679314e+01
 1.146077e+00	 5.217686e-01	 1.663470e+01
 1.139788e+00	 5.353654e-01	 1.647209e+01
 1.133326e+00	 5.489144e-01	 1.630424e+01
 1.099992e+00	 5.327699e-01	 1.659556e+01
 1.093550e+00	 5.458710e-01	 1.639733e+01
 1.086939e+00	 5.589196e-01	 1.620132e+01
 1.080159e+00	 5.719123e-01	 1.600258e+01
 1.073211e+00	 5.848460e-01	 1.579562e+01
 1.066096e+00	 5.977176e-01	 1.557450e+01
 1.106659e+00	 5.359988e-01	 1.653603e+01
 1.100178e+00	 5.491794e-01	 1.634759e+01
 1.093526e+00	 5.623070e-01	 1.615953e+01
 1.086705e+00	 5.753784e-01	 1.596725e+01
 1.079716e+00	 5.883906e-01	 1.576554e+01
 1.072557e+00	 6.013401e-01	 1.554863e+01
 1.113326e+00	 5.392277e-01	 1.647174e+01
 1.106805e+00	 5.524877e-01	 1.629505e+01
 1.100114e+00	 5.656944e-01	 1.611705e+01
 1.093252e+00	 5.788446e-01	 1.593260e+01
 1.086220e+00	 5.919351e-01	 1.573674e+01
 1.079018e+00	 6.049627e-01	 1.552390e+01
 1.119992e+00	 5.424566e-01	 1.641161e+01
 1.113433e+00	 5.557960e-01	 1.623799e+01
 1.106701e+00	 5.690817e-01	 1.607122e+01
 1.099798e+00	 5.823107e-01	 1.589624e+01
 1.092724e+00	 5.954796e-01	 1.570739e+01
 1.085480e+00	 6.085852e-01	 1.549930e+01
 1.126659e+00	 5.456855e-01	 1.635662e+01
 1.120060e+00	 5.591043e-01	 1.618484e+01
 1.113289e+00	 5.724691e-01	 1.602020e+01
 1.106345e+00	 5.857768e-01	 1.585576e+01
 1.099228e+00	 5.990241e-01	 1.567563e+01
 1.091941e+00	 6.122077e-01	 1.547380e+01
 1.133326e+00	 5.489144e-01	 1.630424e+01
 1.126688e+00	 5.624126e-01	 1.613601e+01
 1.119876e+00	 5.758565e-01	 1.597196e+01
 1.112891e+00	 5.892430e-01	 1.580932e+01
 1.105733e+00	 6.025686e-01	 1.563959e+01
 1.098402e+00	 6.158303e-01	 1.544635e+01
 1.066096e+00	 5.977176e-01	 1.557450e+01
 1.058814e+00	 6.105238e-01	 1.535113e+01
 1.051367e+00	 6.232615e-01	 1.513704e+01
 1.043754e+00	 6.359276e-01	 1.492515e+01
 1.035978e+00	 6.485188e-01	 1.470813e+01
 1.028039e+00	 6.610321e-01	 1.447844e+01
 1.072557e+00	 6.013401e-01	 1.554863e+01
 1.065231e+00	 6.142240e-01	 1.532980e+01
 1.057739e+00	 6.270389e-01	 1.512141e+01
 1.050080e+00	 6.397817e-01	 1.491575e+01
 1.042257e+00	 6.524492e-01	 1.470482e+01
 1.034269e+00	 6.650383e-01	 1.448040e+01
 1.079018e+00	 6.049627e-01	 1.552390e+01
 1.071648e+00	 6.179241e-01	 1.530903e+01
 1.064111e+00	 6.308162e-01	 1.510575e+01
 1.056406e+00	 6.436358e-01	 1.490572e+01
 1.048535e+00	 6.563796e-01	 1.470033e+01
 1.040500e+00	 6.690446e-01	 1.448068e+01
 1.085480e+00	 6.085852e-01	 1.549930e+01
 1.078066e+00	 6.216243e-01	 1.528866e+01
 1.070483e+00	 6.345936e-01	 1.509039e+01
 1.062732e+00	 6.474899e-01	 1.489561e+01
 1.054814e+00	 6.603101e-01	 1.469510e+01
 1.046730e+00	 6.730509e-01	 1.447927e+01
 1.091941e+00	 6.122077e-01	 1.547380e+01
 1.084483e+00	 6.253244e-01	 1.526847e+01
 1.076855e+00	 6.383709e-01	 1.507562e+01
 1.069058e+00	 6.513440e-01	 1.488589e+01
 1.061093e+00	 6.642405e-01	 1.468947e+01
 1.052961e+00	 6.770571e-01	 1.447608e+01
 1.098402e+00	 6.158303e-01	 1.544635e+01
 1.090900e+00	 6.290246e-01	 1.524820e+01
 1.083226e+00	 6.421483e-01	 1.506166e+01
 1.075383e+00	 6.551981e-01	 1.487697e+01
 1.067371e+00	 6.681709e-01	 1.468374e+01
 1.059191e+00	 6.810634e-01	 1.447098e+01
 1.028039e+00	 6.610321e-01	 1.447844e+01
 1.019938e+00	 6.734643e-01	 1.424466e+01
 1.011676e+00	 6.858124e-01	 1.401566e+01
 1.003255e+00	 6.980732e-01	 1.378415e+01
 9.946763e-01	 7.102438e-01	 1.354289e+01
 9.859408e-01	 7.223211e-01	 1.328470e+01
 1.034269e+00	 6.650383e-01	 1.448040e+01
 1.026119e+00	 6.775459e-01	 1.425125e+01
 1.017807e+00	 6.899688e-01	 1.402712e+01
 1.009335e+00	 7.023040e-01	 1.380112e+01
 1.000705e+00	 7.145483e-01	 1.356642e+01
 9.919162e-01	 7.266988e-01	 1.331627e+01
 1.040500e+00	 6.690446e-01	 1.448068e+01
 1.032301e+00	 6.816275e-01	 1.425593e+01
 1.023939e+00	 6.941253e-01	 1.403695e+01
 1.015416e+00	 7.065347e-01	 1.381729e+01
 1.006733e+00	 7.188528e-01	 1.359059e+01
 9.978916e-01	 7.310765e-01	 1.335062e+01
 1.046730e+00	 6.730509e-01	 1.447927e+01
 1.038482e+00	 6.857091e-01	 1.425818e+01
 1.030070e+00	 6.982817e-01	 1.404436e+01
 1.021496e+00	 7.107655e-01	 1.383183e+01
 1.012761e+00	 7.231573e-01	 1.361475e+01
 1.003867e+00	 7.354542e-01	 1.338749e+01
 1.052961e+00	 6.770571e-01	 1.447608e+01
 1.044663e+00	 6.897907e-01	 1.425743e+01
 1.036202e+00	 7.024381e-01	 1.404852e+01
 1.027576e+00	 7.149962e-01	 1.384386e+01
 1.018790e+00	 7.274619e-01	 1.363820e+01
 1.009842e+00	 7.398319e-01	 1.342656e+01
 1.059191e+00	 6.810634e-01	 1.447098e+01
 1.050845e+00	 6.938723e-01	 1.425309e+01
 1.042333e+00	 7.065946e-01	 1.404857e+01
 1.033657e+00	 7.192270e-01	 1.385247e+01
 1.024818e+00	 7.317664e-01	 1.366017e+01
 1.015818e+00	 7.442096e-01	 1.346384e+01
 9.859408e-01	 7.223211e-01	 1.328470e+01
 9.770504e-01	 7.343022e-01	 1.303479e+01
 9.680065e-01	 7.461840e-01	 1.281486e+01
 9.588109e-01	 7.579636e-01	 1.257930e+01
 9.494652e-01	 7.696383e-01	 1.233132e+01
 9.399712e-01	 7.812050e-01	 1.208574e+01
 9.919162e-01	 7.266988e-01	 1.331627e+01
 9.829719e-01	 7.387525e-01	 1.307846e+01
 9.738732e-01	 7.507063e-01	 1.285942e+01
 9.646218e-01	 7.625574e-01	 1.262076e+01
 9.552195e-01	 7.743027e-01	 1.237453e+01
 9.456680e-01	 7.859396e-01	 1.213520e+01
 9.978916e-01	 7.310765e-01	 1.335062e+01
 9.888934e-01	 7.432028e-01	 1.312589e+01
 9.797399e-01	 7.552286e-01	 1.290053e+01
 9.704328e-01	 7.671511e-01	 1.265976e+01
 9.609738e-01	 7.789672e-01	 1.241614e+01
 9.513648e-01	 7.906742e-01	 1.218365e+01
 1.003867e+00	 7.354542e-01	 1.338749e+01
 9.948150e-01	 7.476531e-01	 1.316902e+01
 9.856066e-01	 7.597510e-01	 1.293762e+01
 9.762438e-01	 7.717448e-01	 1.269582e+01
 9.667282e-01	 7.836317e-01	 1.245559e+01
 9.570616e-01	 7.954087e-01	 1.223029e+01
 1.009842e+00	 7.398319e-01	 1.342656e+01
 1.000736e+00	 7.521034e-01	 1.320599e+01
 9.914734e-01	 7.642733e-01	 1.297009e+01
 9.820548e-01	 7.763385e-01	 1.272845e+01
 9.724825e-01	 7.882962e-01	 1.249232e+01
 9.627584e-01	 8.001433e-01	 1.227433e+01
 1.015818e+00	 7.442096e-01	 1.346384e+01
 1.006658e+00	 7.565537e-01	 1.323593e+01
 9.973401e-01	 7.687956e-01	 1.299734e+01
 9.878657e-01	 7.809322e-01	 1.275712e+01
 9.782368e-01	 7.929606e-01	 1.252574e+01
 9.684552e-01	 8.048779e-01	 1.231496e+01
 9.399712e-01	 7.812050e-01	 1.208574e+01
 9.303309e-01	 7.926611e-01	 1.183709e+01
 9.205461e-01	 8.040037e-01	 1.157575e+01
 9.106190e-01	 8.152302e-01	 1.131176e+01
 9.005514e-01	 8.263379e-01	 1.105560e+01
 8.903458e-01	 8.373241e-01	 1.081813e+01
 9.456680e-01	 7.859396e-01	 1.213520e+01
 9.359693e-01	 7.974651e-01	 1.189396e+01
 9.261252e-01	 8.088765e-01	 1.163837e+01
 9.161379e-01	 8.201710e-01	 1.137886e+01
 9.060093e-01	 8.313460e-01	 1.112635e+01
 8.957418e-01	 8.423988e-01	 1.089215e+01
 9.513648e-01	 7.906742e-01	 1.218365e+01
 9.416076e-01	 8.022691e-01	 1.195017e+01
 9.317043e-01	 8.137492e-01	 1.170053e+01
 9.216568e-01	 8.251118e-01	 1.144558e+01
 9.114672e-01	 8.363541e-01	 1.119669e+01
 9.011378e-01	 8.474735e-01	 1.096563e+01
 9.570616e-01	 7.954087e-01	 1.223029e+01
 9.472460e-01	 8.070731e-01	 1.200463e+01
 9.372833e-01	 8.186220e-01	 1.176093e+01
 9.271757e-01	 8.300526e-01	 1.151046e+01
 9.169251e-01	 8.413622e-01	 1.126504e+01
 9.065339e-01	 8.525481e-01	 1.103697e+01
 9.627584e-01	 8.001433e-01	 1.227433e+01
 9.528844e-01	 8.118771e-01	 1.205627e+01
 9.428624e-01	 8.234947e-01	 1.181827e+01
 9.326946e-01	 8.349934e-01	 1.157204e+01
 9.223830e-01	 8.463703e-01	 1.132987e+01
 9.119299e-01	 8.576228e-01	 1.110457e+01
 9.684552e-01	 8.048779e-01	 1.231496e+01
 9.585227e-01	 8.166811e-01	 1.210400e+01
 9.484415e-01	 8.283675e-01	 1.187127e+01
 9.382135e-01	 8.399341e-01	 1.162887e+01
 9.278409e-01	 8.513784e-01	 1.138962e+01
 9.173259e-01	 8.626975e-01	 1.116686e+01
 8.903458e-01	 8.373241e-01	 1.081813e+01
 8.800041e-01	 8.481863e-01	 1.057910e+01
 8.695287e-01	 8.589220e-01	 1.032008e+01
 8.589220e-01	 8.695287e-01	 1.005487e+01
 8.481863e-01	 8.800041e-01	 9.797290e+00
 8.373241e-01	 8.903458e-01	 9.561046e+00
 8.957418e-01	 8.423988e-01	 1.089215e+01
 8.853374e-01	 8.533268e-01	 1.065653e+01
 8.747986e-01	 8.641276e-01	 1.040103e+01
 8.641276e-01	 8.747986e-01	 1.013914e+01
 8.533268e-01	 8.853374e-01	 9.884359e+00
 8.423988e-01	 8.957418e-01	 9.650064e+00
 9.011378e-01	 8.474735e-01	 1.096563e+01
 8.906708e-01	 8.584673e-01	 1.073311e+01
 8.800685e-01	 8.693332e-01	 1.048065e+01
 8.693332e-01	 8.800685e-01	 1.022156e+01
 8.584673e-01	 8.906708e-01	 9.969156e+00
 8.474735e-01	 9.011378e-01	 9.736604e+00
 9.065339e-01	 8.525481e-01	 1.103697e+01
 8.960042e-01	 8.636079e-01	 1.080728e+01
 8.853383e-01	 8.745387e-01	 1.055745e+01
 8.745387e-01	 8.853383e-01	 1.030076e+01
 8.636079e-01	 8.960042e-01	 1.005045e+01
 8.525481e-01	 9.065339e-01	 9.819639e+00
 9.119299e-01	 8.576228e-01	 1.110457e+01
 9.013375e-01	 8.687484e-01	 1.087745e+01
 8.906082e-01	 8.797443e-01	 1.062992e+01
 8.797443e-01	 8.906082e-01	 1.037532e+01
 8.687484e-01	 9.013375e-01	 1.012699e+01
 8.576228e-01	 9.119299e-01	 9.898129e+00
 9.173259e-01	 8.626975e-01	 1.116686e+01
 9.066709e-01	 8.738889e-01	 1.094207e+01
 8.958781e-01	 8.849499e-01	 1.069656e+01
 8.849499e-01	 8.958781e-01	 1.044387e+01
 8.738889e-01	 9.066709e-01	 1.019755e+01
 8.626975e-01	 9.173259e-01	 9.971023e+00
 8.373241e-01	 8.903458e-01	 9.561046e+00
 8.263379e-01	 9.005514e-01	 9.324760e+00
 8.152302e-01	 9.106190e-01	 9.066755e+00
 8.040037e-01	 9.205461e-01	 8.799758e+00
 7.926611e-01	 9.303309e-01	 8.535892e+00
 7.812050e-01	 9.399712e-01	 8.286555e+00
 8.423988e-01	 8.957418e-01	 9.650064e+00
 8.313460e-01	 9.060093e-01	 9.414600e+00
 8.201710e-01	 9.161379e-01	 9.156911e+00
 8.088765e-01	 9.261252e-01	 8.890730e+00
 7.974651e-01	 9.359693e-01	 8.629203e+00
 7.859396e-01	 9.456680e-01	 8.384767e+00
 8.474735e-01	 9.011378e-01	 9.736604e+00
 8.363541e-01	 9.114672e-01	 9.502294e+00
 8.251118e-01	 9.216568e-01	 9.245786e+00
 8.137492e-01	 9.317043e-01	 8.981480e+00
 8.022691e-01	 9.416076e-01	 8.723194e+00
 7.906742e-01	 9.513648e-01	 8.484035e+00
 8.525481e-01	 9.065339e-01	 9.819639e+00
 8.413622e-01	 9.169251e-01	 9.586951e+00
 8.300526e-01	 9.271757e-01	 9.332450e+00
 8.186220e-01	 9.372833e-01	 9.070870e+00
 8.070731e-01	 9.472460e-01	 8.816357e+00
 7.954087e-01	 9.570616e-01	 8.582326e+00
 8.576228e-01	 9.119299e-01	 9.898129e+00
 8.463703e-01	 9.223830e-01	 9.667664e+00
 8.349934e-01	 9.326946e-01	 9.415954e+00
 8.234947e-01	 9.428624e-01	 9.157749e+00
 8.118771e-01	 9.528844e-01	 8.907177e+00
 8.001433e-01	 9.627584e-01	 8.677609e+00
 8.626975e-01	 9.173259e-01	 9.971023e+00
 8.513784e-01	 9.278409e-01	 9.743510e+00
 8.399341e-01	 9.382135e-01	 9.495337e+00
 8.283675e-01	 9.484415e-01	 9.240951e+00
 8.166811e-01	 9.585227e-01	 8.994133e+00
 8.048779e-01	 9.684552e-01	 8.767858e+00
 7.812050e-01	 9.399712e-01	 8.286555e+00
 7.696383e-01	 9.494652e-01	 8.049697e+00
 7.579636e-01	 9.588109e-01	 7.815576e+00
 7.461840e-01	 9.680065e-01	 7.582305e+00
 7.343022e-01	 9.770504e-01	 7.345379e+00
 7.223211e-01	 9.859408e-01	 7.092078e+00
 7.859396e-01	 9.456680e-01	 8.384767e+00
 7.743027e-01	 9.552195e-01	 8.153432e+00
 7.625574e-01	 9.646218e-01	 7.922570e+00
 7.507063e-01	 9.738732e-01	 7.689883e+00
 7.387525e-01	 9.829719e-01	 7.451345e+00
 7.266988e-01	 9.919162e-01	 7.195550e+00
 7.906742e-01	 9.513648e-01	 8.484035e+00
 7.789672e-01	 9.609738e-01	 8.257633e+00
 7.671511e-01	 9.704328e-01	 8.028695e+00
 7.552286e-01	 9.797399e-01	 7.795133e+00
 7.432028e-01	 9.888934e-01	 7.553191e+00
 7.310765e-01	 9.978916e-01	 7.294595e+00
 7.954087e-01	 9.570616e-01	 8.582326e+00
 7.836317e-01	 9.667282e-01	 8.359824e+00
 7.717448e-01	 9.762438e-01	 8.131338e+00
 7.597510e-01	 9.856066e-01	 7.895604e+00
 7.476531e-01	 9.948150e-01	 7.649675e+00
 7.354542e-01	 1.003867e+00	 7.388047e+00
 8.001433e-01	 9.627584e-01	 8.677609e+00
 7.882962e-01	 9.724825e-01	 8.457540e+00
 7.763385e-01	 9.820548e-01	 8.227898e+00
 7.642733e-01	 9.914734e-01	 7.988848e+00
 7.521034e-01	 1.000736e+00	 7.738882e+00
 7.398319e-01	 1.009842e+00	 7.474717e+00
 8.048779e-01	 9.684552e-01	 8.767858e+00
 7.929606e-01	 9.782368e-01	 8.548329e+00
 7.809322e-01	 9.878657e-01	 8.315791e+00
 7.687956e-01	 9.973401e-01	 8.072430e+00
 7.565537e-01	 1.006658e+00	 7.818794e+00
 7.442096e-01	 1.015818e+00	 7.553711e+00
 7.223211e-01	 9.859408e-01	 7.092078e+00
 7.102438e-01	 9.946763e-01	 6.837286e+00
 6.980732e-01	 1.003255e+00	 6.600169e+00
 6.858124e-01	 1.011676e+00	 6.373531e+00
 6.734643e-01	 1.019938e+00	 6.149089e+00
 6.610321e-01	 1.028039e+00	 5.917521e+00
 7.266988e-01	 9.919162e-01	 7.195550e+00
 7.145483e-01	 1.000705e+00	 6.937656e+00
 7.023040e-01	 1.009335e+00	 6.698820e+00
 6.899688e-01	 1.017807e+00	 6.471910e+00
 6.775459e-01	 1.026119e+00	 6.248688e+00
 6.650383e-01	 1.034269e+00	 6.019861e+00
 7.310765e-01	 9.978916e-01	 7.294595e+00
 7.188528e-01	 1.006733e+00	 7.035122e+00
 7.065347e-01	 1.015416e+00	 6.797169e+00
 6.941253e-01	 1.023939e+00	 6.572690e+00
 6.816275e-01	 1.032301e+00	 6.352487e+00
 6.690446e-01	 1.040500e+00	 6.126253e+00
 7.354542e-01	 1.003867e+00	 7.388047e+00
 7.231573e-01	 1.012761e+00	 7.129161e+00
 7.107655e-01	 1.021496e+00	 6.894912e+00
 6.982817e-01	 1.030070e+00	 6.675391e+00
 6.857091e-01	 1.038482e+00	 6.459447e+00
 6.730509e-01	 1.046730e+00	 6.234739e+00
 7.398319e-01	 1.009842e+00	 7.474717e+00
 7.274619e-01	 1.018790e+00	 7.219208e+00
 7.149962e-01	 1.027576e+00	 6.991702e+00
 7.024381e-01	 1.036202e+00	 6.779493e+00
 6.897907e-01	 1.044663e+00	 6.568505e+00
 6.770571e-01	 1.052961e+00	 6.343355e+00
 7.442096e-01	 1.015818e+00	 7.553711e+00
 7.317664e-01	 1.024818e+00	 7.304656e+00
 7.192270e-01	 1.033657e+00	 7.087146e+00
 7.065946e-01	 1.042333e+00	 6.884436e+00
 6.938723e-01	 1.050845e+00	 6.678569e+00
 6.810634e-01	 1.059191e+00	 6.450136e+00
 6.610321e-01	 1.028039e+00	 5.917521e+00
 6.485188e-01	 1.035978e+00	 5.689173e+00
 6.359276e-01	 1.043754e+00	 5.475787e+00
 6.232615e-01	 1.051367e+00	 5.268828e+00
 6.105238e-01	 1.058814e+00	 5.059056e+00
 5.977176e-01	 1.066096e+00	 4.836586e+00
 6.650383e-01	 1.034269e+00	 6.019861e+00
 6.524492e-01	 1.042257e+00	 5.796035e+00
 6.397817e-01	 1.050080e+00	 5.587776e+00
 6.270389e-01	 1.057739e+00	 5.384349e+00
 6.142240e-01	 1.065231e+00	 5.174237e+00
 6.013401e-01	 1.072557e+00	 4.945203e+00
 6.690446e-01	 1.040500e+00	 6.126253e+00
 6.563796e-01	 1.048535e+00	 5.904041e+00
 6.436358e-01	 1.056406e+00	 5.696233e+00
 6.308162e-01	 1.064111e+00	 5.491579e+00
 6.179241e-01	 1.071648e+00	 5.278014e+00
 6.049627e-01	 1.079018e+00	 5.042727e+00
 6.730509e-01	 1.046730e+00	 6.234739e+00
 6.603101e-01	 1.054814e+00	 6.010456e+00
 6.474899e-01	 1.062732e+00	 5.798268e+00
 6.345936e-01	 1.070483e+00	 5.588059e+00
 6.216243e-01	 1.078066e+00	 5.368918e+00
 6.085852e-01	 1.085480e+00	 5.129201e+00
 6.770571e-01	 1.052961e+00	 6.343355e+00
 6.642405e-01	 1.061093e+00	 6.112562e+00
 6.513440e-01	 1.069058e+00	 5.891009e+00
 6.383709e-01	 1.076855e+00	 5.671342e+00
 6.253244e-01	 1.084483e+00	 5.445470e+00
 6.122077e-01	 1.091941e+00	 5.204621e+00
 6.810634e-01	 1.059191e+00	 6.450136e+00
 6.681709e-01	 1.067371e+00	 6.207655e+00
 6.551981e-01	 1.075383e+00	 5.971608e+00
 6.421483e-01	 1.083226e+00	 5.738992e+00
 6.290246e-01	 1.090900e+00	 5.506175e+00
 6.158303e-01	 1.098402e+00	 5.268941e+00
 5.977176e-01	 1.066096e+00	 4.836586e+00
 5.848460e-01	 1.073211e+00	 4.610087e+00
 5.719123e-01	 1.080159e+00	 4.393877e+00
 5.589196e-01	 1.086939e+00	 4.185882e+00
 5.458710e-01	 1.093550e+00	 3.983792e+00
 5.327699e-01	 1.099992e+00	 3.785094e+00
 6.013401e-01	 1.072557e+00	 4.945203e+00
 5.883906e-01	 1.079716e+00	 4.706697e+00
 5.753784e-01	 1.086705e+00	 4.478223e+00
 5.623070e-01	 1.093526e+00	 4.261999e+00
 5.491794e-01	 1.100178e+00	 4.060093e+00
 5.359988e-01	 1.106659e+00	 3.874456e+00
 6.049627e-01	 1.079018e+00	 5.042727e+00
 5.919351e-01	 1.086220e+00	 4.798048e+00
 5.788446e-01	 1.093252e+00	 4.568584e+00
 5.656944e-01	 1.100114e+00	 4.359335e+00
 5.524877e-01	 1.106805e+00	 4.175198e+00
 5.392277e-01	 1.113326e+00	 4.015854e+00
 6.085852e-01	 1.085480e+00	 5.129201e+00
 5.954796e-01	 1.092724e+00	 4.885669e+00
 5.823107e-01	 1.099798e+00	 4.667441e+00
 5.690817e-01	 1.106701e+00	 4.480812e+00
 5.557960e-01	 1.113433e+00	 4.326386e+00
 5.424566e-01	 1.119992e+00	 4.144451e+00
 6.122077e-01	 1.091941e+00	 5.204621e+00
 5.990241e-01	 1.099228e+00	 4.971011e+00
 5.857768e-01	 1.106345e+00	 4.777174e+00
 5.724691e-01	 1.113289e+00	 4.624376e+00
 5.591043e-01	 1.120060e+00	 4.450136e+00
 5.456855e-01	 1.126659e+00	 4.242153e+00
 6.158303e-01	 1.098402e+00	 5.268941e+00
 6.025686e-01	 1.105733e+00	 5.055446e+00
 5.892430e-01	 1.112891e+00	 4.896861e+00
 5.758565e-01	 1.119876e+00	 4.728668e+00
 5.624126e-01	 1.126688e+00	 4.530416e+00
 5.489144e-01	 1.133326e+00	 4.311672e+00
 5.327699e-01	 1.099992e+00	 3.785094e+00
 5.196193e-01	 1.106265e+00	 3.606355e+00
 5.064225e-01	 1.112368e+00	 3.465236e+00
 4.931826e-01	 1.118301e+00	 3.313572e+00
 4.799028e-01	 1.124064e+00	 3.134949e+00
 4.665862e-01	 1.129657e+00	 2.938597e+00
 5.359988e-01	 1.106659e+00	 3.874456e+00
 5.227685e-01	 1.112970e+00	 3.721643e+00
 5.094917e-01	 1.119110e+00	 3.563321e+00
 4.961716e-01	 1.125079e+00	 3.384368e+00
 4.828113e-01	 1.130877e+00	 3.191361e+00
 4.694140e-01	 1.136503e+00	 2.991681e+00
 5.392277e-01	 1.113326e+00	 4.015854e+00
 5.259177e-01	 1.119675e+00	 3.840968e+00
 5.125610e-01	 1.125852e+00	 3.653488e+00
 4.991606e-01	 1.131857e+00	 3.457102e+00
 4.857198e-01	 1.137689e+00	 3.256333e+00
 4.722418e-01	 1.143350e+00	 3.056479e+00
 5.424566e-01	 1.119992e+00	 4.144451e+00
 5.290670e-01	 1.126379e+00	 3.941467e+00
 5.156302e-01	 1.132593e+00	 3.736895e+00
 5.021495e-01	 1.138634e+00	 3.532159e+00
 4.886283e-01	 1.144502e+00	 3.329499e+00
 4.750696e-01	 1.150196e+00	 3.131910e+00
 5.456855e-01	 1.126659e+00	 4.242153e+00
 5.322162e-01	 1.133084e+00	 4.025085e+00
 5.186994e-01	 1.139335e+00	 3.814705e+00
 5.051385e-01	 1.145412e+00	 3.609947e+00
 4.915368e-01	 1.151314e+00	 3.410536e+00
 4.778974e-01	 1.157042e+00	 3.216945e+00
 5.489144e-01	 1.133326e+00	 4.311672e+00
 5.353654e-01	 1.139788e+00	 4.093757e+00
 5.217686e-01	 1.146077e+00	 3.888094e+00
 5.081275e-01	 1.152189e+00	 3.690896e+00
 4.944453e-01	 1.158127e+00	 3.499158e+00
 4.807252e-01	 1.163889e+00	 3.310608e+00
 4.665862e-01	 1.129657e+00	 2.938597e+00
 4.532360e-01	 1.135079e+00	 2.743976e+00
 4.398553e-01	 1.140331e+00	 2.564373e+00
 4.264472e-01	 1.145413e+00	 2.400757e+00
 4.130148e-01	 1.150324e+00	 2.254602e+00
 3.995612e-01	 1.155066e+00	 2.127832e+00
 4.694140e-01	 1.136503e+00	 2.991681e+00
 4.559829e-01	 1.141958e+00	 2.801772e+00
 4.425211e-01	 1.147242e+00	 2.631257e+00
 4.290317e-01	 1.152354e+00	 2.478240e+00
 4.155179e-01	 1.157296e+00	 2.341314e+00
 4.019828e-01	 1.162067e+00	 2.219515e+00
 4.722418e-01	 1.143350e+00	 3.056479e+00
 4.587297e-01	 1.148838e+00	 2.870980e+00
 4.451869e-01	 1.154153e+00	 2.706688e+00
 4.316163e-01	 1.159296e+00	 2.559966e+00
 4.180211e-01	 1.164268e+00	 2.427665e+00
 4.044044e-01	 1.169067e+00	 2.307072e+00
 4.750696e-01	 1.150196e+00	 3.131910e+00
 4.614766e-01	 1.155717e+00	 2.949952e+00
 4.478526e-01	 1.161064e+00	 2.788716e+00
 4.342008e-01	 1.166238e+00	 2.643928e+00
 4.205242e-01	 1.171239e+00	 2.511810e+00
 4.068260e-01	 1.176067e+00	 2.389025e+00
 4.778974e-01	 1.157042e+00	 3.216945e+00
 4.642235e-01	 1.162596e+00	 3.037107e+00
 4.505184e-01	 1.167975e+00	 2.875464e+00
 4.367853e-01	 1.173180e+00	 2.728188e+00
 4.230273e-01	 1.178211e+00	 2.591966e+00
 4.092476e-01	 1.183068e+00	 2.463945e+00
 4.807252e-01	 1.163889e+00	 3.310608e+00
 4.669704e-01	 1.169475e+00	 3.130928e+00
 4.531842e-01	 1.174886e+00	 2.965121e+00
 4.393698e-01	 1.180122e+00	 2.810873e+00
 4.255304e-01	 1.185183e+00	 2.666413e+00
 4.116692e-01	 1.190068e+00	 2.530452e+00
 3.995612e-01	 1.155066e+00	 2.127832e+00
 3.860895e-01	 1.159639e+00	 1.998312e+00
 3.726026e-01	 1.164042e+00	 1.847383e+00
 3.591035e-01	 1.168277e+00	 1.684584e+00
 3.455952e-01	 1.172344e+00	 1.529589e+00
 3.320807e-01	 1.176244e+00	 1.405693e+00
 4.019828e-01	 1.162067e+00	 2.219515e+00
 3.884294e-01	 1.166667e+00	 2.089160e+00
 3.748607e-01	 1.171097e+00	 1.933720e+00
 3.612799e-01	 1.175358e+00	 1.764411e+00
 3.476897e-01	 1.179449e+00	 1.601849e+00
 3.340933e-01	 1.183373e+00	 1.472281e+00
 4.044044e-01	 1.169067e+00	 2.307072e+00
 3.907693e-01	 1.173695e+00	 2.174205e+00
 3.771189e-01	 1.178152e+00	 2.014663e+00
 3.634562e-01	 1.182438e+00	 1.840995e+00
 3.497843e-01	 1.186555e+00	 1.673673e+00
 3.361059e-01	 1.190501e+00	 1.540964e+00
 4.068260e-01	 1.176067e+00	 2.389025e+00
 3.931093e-01	 1.180723e+00	 2.252334e+00
 3.793771e-01	 1.185207e+00	 2.089281e+00
 3.656326e-01	 1.189519e+00	 1.913328e+00
 3.518788e-01	 1.193660e+00	 1.743962e+00
 3.381185e-01	 1.197630e+00	 1.610419e+00
 4.092476e-01	 1.183068e+00	 2.463945e+00
 3.954492e-01	 1.187751e+00	 2.322470e+00
 3.816353e-01	 1.192262e+00	 2.156673e+00
 3.678090e-01	 1.196599e+00	 1.980425e+00
 3.539733e-01	 1.200765e+00	 1.811632e+00
 3.401311e-01	 1.204759e+00	 1.679341e+00
 4.116692e-01	 1.190068e+00	 2.530452e+00
 3.977892e-01	 1.194779e+00	 2.383575e+00
 3.838935e-01	 1.199316e+00	 2.215972e+00
 3.699854e-01	 1.203680e+00	 2.041319e+00
 3.560678e-01	 1.207870e+00	 1.875618e+00
 3.421438e-01	 1.211888e+00	 1.746443e+00
 3.320807e-01	 1.176244e+00	 1.405693e+00
 3.185628e-01	 1.179977e+00	 1.304467e+00
 3.050445e-01	 1.183543e+00	 1.202264e+00
 2.915285e-01	 1.186945e+00	 1.100140e+00
 2.780177e-01	 1.190182e+00	 9.992704e-01
 2.645149e-01	 1.193256e+00	 9.008723e-01
 3.340933e-01	 1.183373e+00	 1.472281e+00
 3.204935e-01	 1.187128e+00	 1.367739e+00
 3.068933e-01	 1.190716e+00	 1.262950e+00
 2.932954e-01	 1.194139e+00	 1.158786e+00
 2.797027e-01	 1.197395e+00	 1.056197e+00
 2.661180e-01	 1.200488e+00	 9.561272e-01
 3.361059e-01	 1.190501e+00	 1.540964e+00
 3.224242e-01	 1.194279e+00	 1.434597e+00
 3.087420e-01	 1.197889e+00	 1.327659e+00
 2.950622e-01	 1.201332e+00	 1.221207e+00
 2.813877e-01	 1.204608e+00	 1.116331e+00
 2.677211e-01	 1.207719e+00	 1.014069e+00
 3.381185e-01	 1.197630e+00	 1.610419e+00
 3.243549e-01	 1.201431e+00	 1.503486e+00
 3.105908e-01	 1.205062e+00	 1.394701e+00
 2.968291e-01	 1.208526e+00	 1.285667e+00
 2.830726e-01	 1.211822e+00	 1.177971e+00
 2.693242e-01	 1.214951e+00	 1.073105e+00
 3.401311e-01	 1.204759e+00	 1.679341e+00
 3.262856e-01	 1.208582e+00	 1.572870e+00
 3.124395e-01	 1.212235e+00	 1.462404e+00
 2.985959e-01	 1.215719e+00	 1.350445e+00
 2.847576e-01	 1.219035e+00	 1.239431e+00
 2.709274e-01	 1.222183e+00	 1.131656e+00
 3.421438e-01	 1.211888e+00	 1.746443e+00
 3.282163e-01	 1.215734e+00	 1.641232e+00
 3.142883e-01	 1.219408e+00	 1.529115e+00
 3.003627e-01	 1.222913e+00	 1.413838e+00
 2.864425e-01	 1.226248e+00	 1.299036e+00
 2.725305e-01	 1.229415e+00	 1.188148e+00
 2.645149e-01	 1.193256e+00	 9.008723e-01
 2.510227e-01	 1.196167e+00	 8.038528e-01
 2.375438e-01	 1.198916e+00	 7.083304e-01
 2.240809e-01	 1.201505e+00	 6.172071e-01
 2.106366e-01	 1.203935e+00	 5.332088e-01
 1.972134e-01	 1.206206e+00	 4.588642e-01
 2.661180e-01	 1.200488e+00	 9.561272e-01
 2.525440e-01	 1.203416e+00	 8.573291e-01
 2.389834e-01	 1.206182e+00	 7.600587e-01
 2.254390e-01	 1.208787e+00	 6.673299e-01
 2.119132e-01	 1.211232e+00	 5.819482e-01
 1.984087e-01	 1.213517e+00	 5.064939e-01
 2.677211e-01	 1.207719e+00	 1.014069e+00
 2.540654e-01	 1.210666e+00	 9.133002e-01
 2.404231e-01	 1.213449e+00	 8.143671e-01
 2.267970e-01	 1.216069e+00	 7.202550e-01
 2.131898e-01	 1.218528e+00	 6.337069e-01
 1.996039e-01	 1.220827e+00	 5.572108e-01
 2.693242e-01	 1.214951e+00	 1.073105e+00
 2.555867e-01	 1.217915e+00	 9.703126e-01
 2.418628e-01	 1.220715e+00	 8.699274e-01
 2.281551e-01	 1.223351e+00	 7.747683e-01
 2.144663e-01	 1.225825e+00	 6.873747e-01
 2.007991e-01	 1.228137e+00	 6.099994e-01
 2.709274e-01	 1.222183e+00	 1.131656e+00
 2.571081e-01	 1.225165e+00	 1.026918e+00
 2.433024e-01	 1.227981e+00	 9.254135e-01
 2.295132e-01	 1.230633e+00	 8.296550e-01
 2.157429e-01	 1.233121e+00	 7.418387e-01
 2.019944e-01	 1.235448e+00	 6.638412e-01
 2.725305e-01	 1.229415e+00	 1.188148e+00
 2.586294e-01	 1.232414e+00	 1.081675e+00
 2.447421e-01	 1.235247e+00	 9.795012e-01
 2.308712e-01	 1.237915e+00	 8.836999e-01
 2.170195e-01	 1.240418e+00	 7.959844e-01
 2.031896e-01	 1.242758e+00	 7.177145e-01
 1.972134e-01	 1.206206e+00	 4.588642e-01
 1.838139e-01	 1.208321e+00	 3.919646e-01
 1.704405e-01	 1.210280e+00	 3.289844e-01
 1.570957e-01	 1.212084e+00	 2.701855e-01
 1.437818e-01	 1.213736e+00	 2.156612e-01
 1.305012e-01	 1.215235e+00	 1.653547e-01
 1.984087e-01	 1.213517e+00	 5.064939e-01
 1.849280e-01	 1.215644e+00	 4.387099e-01
 1.714735e-01	 1.217615e+00	 3.749800e-01
 1.580478e-01	 1.219430e+00	 3.155295e-01
 1.446532e-01	 1.221092e+00	 2.604094e-01
 1.312921e-01	 1.222600e+00	 2.095197e-01
 1.996039e-01	 1.220827e+00	 5.572108e-01
 1.860420e-01	 1.222967e+00	 4.883808e-01
 1.725065e-01	 1.224950e+00	 4.235836e-01
 1.589999e-01	 1.226776e+00	 3.630905e-01
 1.455246e-01	 1.228447e+00	 3.069912e-01
 1.320830e-01	 1.229965e+00	 2.552221e-01
 2.007991e-01	 1.228137e+00	 6.099994e-01
 1.871560e-01	 1.230290e+00	 5.400590e-01
 1.735395e-01	 1.232285e+00	 4.739830e-01
 1.599520e-01	 1.234122e+00	 4.121687e-01
 1.463960e-01	 1.235803e+00	 3.548221e-01
 1.328739e-01	 1.237330e+00	 3.019923e-01
 2.019944e-01	 1.235448e+00	 6.638412e-01
 1.882700e-01	 1.237614e+00	 5.928219e-01
 1.745724e-01	 1.239620e+00	 5.253613e-01
 1.609041e-01	 1.241468e+00	 4.620589e-01
 1.472674e-01	 1.243159e+00	 4.033122e-01
 1.336648e-01	 1.244695e+00	 3.493555e-01
 2.031896e-01	 1.242758e+00	 7.177145e-01
 1.893840e-01	 1.244937e+00	 6.457432e-01
 1.756054e-01	 1.246955e+00	 5.768969e-01
 1.618562e-01	 1.248814e+00	 5.120513e-01
 1.481388e-01	 1.250515e+00	 4.518664e-01
 1.344557e-01	 1.252061e+00	 3.968315e-01
 1.305012e-01	 1.215235e+00	 1.653547e-01
 1.172560e-01	 1.216585e+00	 1.194515e-01
 1.040487e-01	 1.217785e+00	 7.847745e-02
 9.088122e-02	 1.218839e+00	 4.272026e-02
 7.775585e-02	 1.219746e+00	 1.239730e-02
 6.467464e-02	 1.220510e+00	-1.232246e-02
 1.312921e-01	 1.222600e+00	 2.095197e-01
 1.179667e-01	 1.223958e+00	 1.630121e-01
 1.046793e-01	 1.225166e+00	 1.214159e-01
 9.143201e-02	 1.226226e+00	 8.504335e-02
 7.822710e-02	 1.227139e+00	 5.415236e-02
 6.506660e-02	 1.227907e+00	 2.897210e-02
 1.320830e-01	 1.229965e+00	 2.552221e-01
 1.186773e-01	 1.231331e+00	 2.079428e-01
 1.053098e-01	 1.232546e+00	 1.656475e-01
 9.198281e-02	 1.233612e+00	 1.286303e-01
 7.869835e-02	 1.234531e+00	 9.714677e-02
 6.545857e-02	 1.235304e+00	 7.144470e-02
 1.328739e-01	 1.237330e+00	 3.019923e-01
 1.193880e-01	 1.238704e+00	 2.538841e-01
 1.059404e-01	 1.239927e+00	 2.109141e-01
 9.253360e-02	 1.240999e+00	 1.733141e-01
 7.916960e-02	 1.241924e+00	 1.412940e-01
 6.585054e-02	 1.242701e+00	 1.150774e-01
 1.336648e-01	 1.244695e+00	 3.493555e-01
 1.200986e-01	 1.246078e+00	 3.004711e-01
 1.065710e-01	 1.247307e+00	 2.569522e-01
 9.308440e-02	 1.248386e+00	 2.189232e-01
 7.964084e-02	 1.249316e+00	 1.865036e-01
 6.624251e-02	 1.250098e+00	 1.598492e-01
 1.344557e-01	 1.252061e+00	 3.968315e-01
 1.208092e-01	 1.253451e+00	 3.473337e-01
 1.072016e-01	 1.254688e+00	 3.034936e-01
 9.363520e-02	 1.255773e+00	 2.652818e-01
 8.011209e-02	 1.256708e+00	 2.326817e-01
 6.663447e-02	 1.257495e+00	 2.057363e-01
 6.467464e-02	 1.220510e+00	-1.232246e-02
 5.163960e-02	 1.221131e+00	-3.246202e-02
 3.865271e-02	 1.221611e+00	-4.874917e-02
 2.571591e-02	 1.221952e+00	-6.060345e-02
 1.283106e-02	 1.222155e+00	-6.744803e-02
-7.741905e-07	 1.222233e+00	-2.474891e-01
 6.506660e-02	 1.227907e+00	 2.897210e-02
 5.195256e-02	 1.228532e+00	 8.528155e-03
 3.888697e-02	 1.229015e+00	-7.964799e-03
 2.587176e-02	 1.229357e+00	-1.997971e-02
 1.290883e-02	 1.229562e+00	-2.695308e-02
-8.493324e-07	 1.229641e+00	-1.967186e-01
 6.545857e-02	 1.235304e+00	 7.144470e-02
 5.226553e-02	 1.235932e+00	 5.058488e-02
 3.912123e-02	 1.236418e+00	 3.376792e-02
 2.602762e-02	 1.236763e+00	 2.151201e-02
 1.298659e-02	 1.236969e+00	 1.441217e-02
-8.945357e-07	 1.237049e+00	-1.440808e-01
 6.585054e-02	 1.242701e+00	 1.150774e-01
 5.257850e-02	 1.243333e+00	 9.374610e-02
 3.935549e-02	 1.243822e+00	 7.652848e-02
 2.618347e-02	 1.244169e+00	 6.397596e-02
 1.306436e-02	 1.244376e+00	 5.675761e-02
-9.172148e-07	 1.244457e+00	-8.949268e-02
 6.624251e-02	 1.250098e+00	 1.598492e-01
 5.289147e-02	 1.250734e+00	 1.380478e-01
 3.958975e-02	 1.251226e+00	 1.203954e-01
 2.633933e-02	 1.251575e+00	 1.075165e-01
 1.314212e-02	 1.251783e+00	 1.001943e-01
-9.247845e-07	 1.251864e+00	-3.286929e-02
 6.663447e-02	 1.257495e+00	 2.057363e-01
 5.320443e-02	 1.258135e+00	 1.835239e-01
 3.982401e-02	 1.258629e+00	 1.654461e-01
 2.649518e-02	 1.258980e+00	 1.522379e-01
 1.321988e-02	 1.259190e+00	 1.448347e-01
-9.246592e-07	 1.259272e+00	 2.587615e-02
 1.259259e+00	 0.000000e+00	 1.956465e+01
 1.259190e+00	 1.321988e-02	 1.956078e+01
 1.258980e+00	 2.649518e-02	 1.955490e+01
 1.258629e+00	 3.982401e-02	 1.954618e+01
 1.258135e+00	 5.320443e-02	 1.953378e+01
 1.257495e+00	 6.663447e-02	 1.951691e+01
 1.266667e+00	 0.000000e+00	 1.938432e+01
 1.266597e+00	 1.329765e-02	 1.938069e+01
 1.266386e+00	 2.665103e-02	 1.937514e+01
 1.266033e+00	 4.005827e-02	 1.936684e+01
 1.265536e+00	 5.351740e-02	 1.935499e+01
 1.264892e+00	 6.702644e-02	 1.933879e+01
 1.274074e+00	 0.000000e+00	 1.920887e+01
 1.274004e+00	 1.337541e-02	 1.920550e+01
 1.273792e+00	 2.680689e-02	 1.920027e+01
 1.273437e+00	 4.029252e-02	 1.919238e+01
 1.272936e+00	 5.383037e-02	 1.918105e+01
 1.272289e+00	 6.741841e-02	 1.916548e+01
 1.281481e+00	 0.000000e+00	 1.903808e+01
 1.281411e+00	 1.345318e-02	 1.903496e+01
 1.281198e+00	 2.696274e-02	 1.903005e+01
 1.280840e+00	 4.052678e-02	 1.902257e+01
 1.280337e+00	 5.414334e-02	 1.901174e+01
 1.279686e+00	 6.781038e-02	 1.899675e+01
 1.288889e+00	 0.000000e+00	 1.887173e+01
 1.288818e+00	 1.353094e-02	 1.886884e+01
 1.288604e+00	 2.711860e-02	 1.886425e+01
 1.288244e+00	 4.076104e-02	 1.885718e+01
 1.287738e+00	 5.445630e-02	 1.884684e+01
 1.287083e+00	 6.820234e-02	 1.883241e+01
 1.296296e+00	 0.000000e+00	 1.870958e+01
 1.296225e+00	 1.360871e-02	 1.870692e+01
 1.296009e+00	 2.727445e-02	 1.870265e+01
 1.295648e+00	 4.099530e-02	 1.869599e+01
 1.295139e+00	 5.476927e-02	 1.868614e+01
 1.294480e+00	 6.859431e-02	 1.867226e+01
 1.257495e+00	 6.663447e-02	 1.951691e+01
 1.256708e+00	 8.011209e-02	 1.949619e+01
 1.255773e+00	 9.363520e-02	 1.947221e+01
 1.254688e+00	 1.072016e-01	 1.944411e+01
 1.253451e+00	 1.208092e-01	 1.941110e+01
 1.252061e+00	 1.344557e-01	 1.937247e+01
 1.264892e+00	 6.702644e-02	 1.933879e+01
 1.264101e+00	 8.058334e-02	 1.931897e+01
 1.263160e+00	 9.418599e-02	 1.929615e+01
 1.262068e+00	 1.078322e-01	 1.926944e+01
 1.260824e+00	 1.215199e-01	 1.923802e+01
 1.259426e+00	 1.352467e-01	 1.920113e+01
 1.272289e+00	 6.741841e-02	 1.916548e+01
 1.271493e+00	 8.105459e-02	 1.914647e+01
 1.270547e+00	 9.473679e-02	 1.912473e+01
 1.269449e+00	 1.084628e-01	 1.909934e+01
 1.268197e+00	 1.222305e-01	 1.906945e+01
 1.266791e+00	 1.360376e-01	 1.903428e+01
 1.279686e+00	 6.781038e-02	 1.899675e+01
 1.278886e+00	 8.152583e-02	 1.897850e+01
 1.277934e+00	 9.528758e-02	 1.895778e+01
 1.276829e+00	 1.090934e-01	 1.893366e+01
 1.275571e+00	 1.229412e-01	 1.890526e+01
 1.274156e+00	 1.368285e-01	 1.887177e+01
 1.287083e+00	 6.820234e-02	 1.883241e+01
 1.286278e+00	 8.199708e-02	 1.881488e+01
 1.285321e+00	 9.583838e-02	 1.879514e+01
 1.284210e+00	 1.097240e-01	 1.877224e+01
 1.282944e+00	 1.236518e-01	 1.874529e+01
 1.281521e+00	 1.376194e-01	 1.871348e+01
 1.294480e+00	 6.859431e-02	 1.867226e+01
 1.293670e+00	 8.246833e-02	 1.865542e+01
 1.292708e+00	 9.638917e-02	 1.863662e+01
 1.291590e+00	 1.103546e-01	 1.861492e+01
 1.290317e+00	 1.243625e-01	 1.858941e+01
 1.288886e+00	 1.384103e-01	 1.855927e+01
 1.252061e+00	 1.344557e-01	 1.937247e+01
 1.250515e+00	 1.481388e-01	 1.932977e+01
 1.248814e+00	 1.618562e-01	 1.928479e+01
 1.246955e+00	 1.756054e-01	 1.923736e+01
 1.244937e+00	 1.893840e-01	 1.918740e+01
 1.242758e+00	 2.031896e-01	 1.913499e+01
 1.259426e+00	 1.352467e-01	 1.920113e+01
 1.257871e+00	 1.490102e-01	 1.916028e+01
 1.256160e+00	 1.628083e-01	 1.911724e+01
 1.254290e+00	 1.766384e-01	 1.907187e+01
 1.252260e+00	 1.904981e-01	 1.902411e+01
 1.250069e+00	 2.043848e-01	 1.897403e+01
 1.266791e+00	 1.360376e-01	 1.903428e+01
 1.265227e+00	 1.498816e-01	 1.899524e+01
 1.263506e+00	 1.637604e-01	 1.895410e+01
 1.261625e+00	 1.776714e-01	 1.891069e+01
 1.259583e+00	 1.916121e-01	 1.886498e+01
 1.257379e+00	 2.055801e-01	 1.881706e+01
 1.274156e+00	 1.368285e-01	 1.887177e+01
 1.272583e+00	 1.507531e-01	 1.883454e+01
 1.270852e+00	 1.647125e-01	 1.879524e+01
 1.268960e+00	 1.787043e-01	 1.875374e+01
 1.266906e+00	 1.927261e-01	 1.870998e+01
 1.264689e+00	 2.067753e-01	 1.866404e+01
 1.281521e+00	 1.376194e-01	 1.871348e+01
 1.279939e+00	 1.516245e-01	 1.867804e+01
 1.278198e+00	 1.656646e-01	 1.864058e+01
 1.276295e+00	 1.797373e-01	 1.860093e+01
 1.274229e+00	 1.938401e-01	 1.855903e+01
 1.272000e+00	 2.079705e-01	 1.851497e+01
 1.288886e+00	 1.384103e-01	 1.855927e+01
 1.287295e+00	 1.524959e-01	 1.852563e+01
 1.285544e+00	 1.666167e-01	 1.849000e+01
 1.283630e+00	 1.807703e-01	 1.845218e+01
 1.281553e+00	 1.949542e-01	 1.841210e+01
 1.279310e+00	 2.091658e-01	 1.836981e+01
 1.242758e+00	 2.031896e-01	 1.913499e+01
 1.240418e+00	 2.170195e-01	 1.907730e+01
 1.237915e+00	 2.308712e-01	 1.901155e+01
 1.235247e+00	 2.447421e-01	 1.893804e+01
 1.232414e+00	 2.586294e-01	 1.885728e+01
 1.229415e+00	 2.725305e-01	 1.876992e+01
 1.250069e+00	 2.043848e-01	 1.897403e+01
 1.247714e+00	 2.182961e-01	 1.891898e+01
 1.245196e+00	 2.322293e-01	 1.885621e+01
 1.242513e+00	 2.461817e-01	 1.878594e+01
 1.239664e+00	 2.601508e-01	 1.870858e+01
 1.236647e+00	 2.741336e-01	 1.862474e+01
 1.257379e+00	 2.055801e-01	 1.881706e+01
 1.255011e+00	 2.195727e-01	 1.876443e+01
 1.252478e+00	 2.335874e-01	 1.870449e+01
 1.249779e+00	 2.476214e-01	 1.863738e+01
 1.246913e+00	 2.616721e-01	 1.856343e+01
 1.243879e+00	 2.757367e-01	 1.848319e+01
 1.264689e+00	 2.067753e-01	 1.866404e+01
 1.262308e+00	 2.208493e-01	 1.861368e+01
 1.259760e+00	 2.349454e-01	 1.855644e+01
 1.257045e+00	 2.490611e-01	 1.849240e+01
 1.254163e+00	 2.631935e-01	 1.842183e+01
 1.251110e+00	 2.773398e-01	 1.834523e+01
 1.272000e+00	 2.079705e-01	 1.851497e+01
 1.269604e+00	 2.221259e-01	 1.846672e+01
 1.267042e+00	 2.363035e-01	 1.841206e+01
 1.264312e+00	 2.505007e-01	 1.835099e+01
 1.261412e+00	 2.647148e-01	 1.828376e+01
 1.258342e+00	 2.789430e-01	 1.821080e+01
 1.279310e+00	 2.091658e-01	 1.836981e+01
 1.276901e+00	 2.234024e-01	 1.832356e+01
 1.274324e+00	 2.376616e-01	 1.827137e+01
 1.271578e+00	 2.519404e-01	 1.821318e+01
 1.268662e+00	 2.662362e-01	 1.814920e+01
 1.265574e+00	 2.805461e-01	 1.807985e+01
 1.229415e+00	 2.725305e-01	 1.876992e+01
 1.226248e+00	 2.864425e-01	 1.868013e+01
 1.222913e+00	 3.003627e-01	 1.859261e+01
 1.219408e+00	 3.142883e-01	 1.850907e+01
 1.215734e+00	 3.282163e-01	 1.843141e+01
 1.211888e+00	 3.421438e-01	 1.836165e+01
 1.236647e+00	 2.741336e-01	 1.862474e+01
 1.233461e+00	 2.881275e-01	 1.853847e+01
 1.230107e+00	 3.021296e-01	 1.845450e+01
 1.226581e+00	 3.161370e-01	 1.837466e+01
 1.222885e+00	 3.301469e-01	 1.830093e+01
 1.219016e+00	 3.441564e-01	 1.823541e+01
 1.243879e+00	 2.757367e-01	 1.848319e+01
 1.240675e+00	 2.898124e-01	 1.840051e+01
 1.237300e+00	 3.038964e-01	 1.832000e+01
 1.233754e+00	 3.179858e-01	 1.824357e+01
 1.230036e+00	 3.320776e-01	 1.817329e+01
 1.226145e+00	 3.461690e-01	 1.811135e+01
 1.251110e+00	 2.773398e-01	 1.834523e+01
 1.247888e+00	 2.914974e-01	 1.826616e+01
 1.244494e+00	 3.056633e-01	 1.818901e+01
 1.240927e+00	 3.198345e-01	 1.811576e+01
 1.237188e+00	 3.340083e-01	 1.804853e+01
 1.233274e+00	 3.481816e-01	 1.798960e+01
 1.258342e+00	 2.789430e-01	 1.821080e+01
 1.255101e+00	 2.931823e-01	 1.813533e+01
 1.251687e+00	 3.074301e-01	 1.806144e+01
 1.248100e+00	 3.216833e-01	 1.799116e+01
 1.244339e+00	 3.359390e-01	 1.792668e+01
 1.240403e+00	 3.501942e-01	 1.787032e+01
 1.265574e+00	 2.805461e-01	 1.807985e+01
 1.262314e+00	 2.948673e-01	 1.800794e+01
 1.258881e+00	 3.091969e-01	 1.793721e+01
 1.255273e+00	 3.235321e-01	 1.786973e+01
 1.251490e+00	 3.378697e-01	 1.780774e+01
 1.247531e+00	 3.522068e-01	 1.775361e+01
 1.211888e+00	 3.421438e-01	 1.836165e+01
 1.207870e+00	 3.560678e-01	 1.827006e+01
 1.203680e+00	 3.699854e-01	 1.812900e+01
 1.199316e+00	 3.838935e-01	 1.797358e+01
 1.194779e+00	 3.977892e-01	 1.784068e+01
 1.190068e+00	 4.116692e-01	 1.773284e+01
 1.219016e+00	 3.441564e-01	 1.823541e+01
 1.214975e+00	 3.581623e-01	 1.814709e+01
 1.210760e+00	 3.721618e-01	 1.800759e+01
 1.206371e+00	 3.861517e-01	 1.786081e+01
 1.201807e+00	 4.001291e-01	 1.773420e+01
 1.197069e+00	 4.140907e-01	 1.763046e+01
 1.226145e+00	 3.461690e-01	 1.811135e+01
 1.222080e+00	 3.602568e-01	 1.802564e+01
 1.217841e+00	 3.743382e-01	 1.788876e+01
 1.213426e+00	 3.884099e-01	 1.775028e+01
 1.208836e+00	 4.024690e-01	 1.762988e+01
 1.204069e+00	 4.165123e-01	 1.753048e+01
 1.233274e+00	 3.481816e-01	 1.798960e+01
 1.229185e+00	 3.623513e-01	 1.790593e+01
 1.224921e+00	 3.765146e-01	 1.777270e+01
 1.220481e+00	 3.906681e-01	 1.764207e+01
 1.215864e+00	 4.048090e-01	 1.752763e+01
 1.211069e+00	 4.189339e-01	 1.743257e+01
 1.240403e+00	 3.501942e-01	 1.787032e+01
 1.236290e+00	 3.644459e-01	 1.778820e+01
 1.232002e+00	 3.786909e-01	 1.765956e+01
 1.227536e+00	 3.929263e-01	 1.753625e+01
 1.222892e+00	 4.071489e-01	 1.742737e+01
 1.218070e+00	 4.213555e-01	 1.733639e+01
 1.247531e+00	 3.522068e-01	 1.775361e+01
 1.243395e+00	 3.665404e-01	 1.767264e+01
 1.239082e+00	 3.808673e-01	 1.754949e+01
 1.234590e+00	 3.951845e-01	 1.743288e+01
 1.229920e+00	 4.094888e-01	 1.732896e+01
 1.225070e+00	 4.237771e-01	 1.724158e+01
 1.190068e+00	 4.116692e-01	 1.773284e+01
 1.185183e+00	 4.255304e-01	 1.763033e+01
 1.180122e+00	 4.393698e-01	 1.751341e+01
 1.174886e+00	 4.531842e-01	 1.738446e+01
 1.169475e+00	 4.669704e-01	 1.724573e+01
 1.163889e+00	 4.807252e-01	 1.709935e+01
 1.197069e+00	 4.140907e-01	 1.763046e+01
 1.192154e+00	 4.280335e-01	 1.753102e+01
 1.187064e+00	 4.419544e-01	 1.741738e+01
 1.181797e+00	 4.558500e-01	 1.729216e+01
 1.176355e+00	 4.697173e-01	 1.715787e+01
 1.170735e+00	 4.835529e-01	 1.701685e+01
 1.204069e+00	 4.165123e-01	 1.753048e+01
 1.199126e+00	 4.305367e-01	 1.743450e+01
 1.194006e+00	 4.445389e-01	 1.732437e+01
 1.188709e+00	 4.585158e-01	 1.720288e+01
 1.183234e+00	 4.724642e-01	 1.707273e+01
 1.177582e+00	 4.863807e-01	 1.693642e+01
 1.211069e+00	 4.189339e-01	 1.743257e+01
 1.206098e+00	 4.330398e-01	 1.734019e+01
 1.200948e+00	 4.471234e-01	 1.723371e+01
 1.195620e+00	 4.611816e-01	 1.711601e+01
 1.190113e+00	 4.752110e-01	 1.698988e+01
 1.184428e+00	 4.892085e-01	 1.685795e+01
 1.218070e+00	 4.213555e-01	 1.733639e+01
 1.213069e+00	 4.355429e-01	 1.724754e+01
 1.207890e+00	 4.497080e-01	 1.714474e+01
 1.202531e+00	 4.638474e-01	 1.703091e+01
 1.196992e+00	 4.779579e-01	 1.690887e+01
 1.191274e+00	 4.920363e-01	 1.678131e+01
 1.225070e+00	 4.237771e-01	 1.724158e+01
 1.220041e+00	 4.380460e-01	 1.715597e+01
 1.214832e+00	 4.522925e-01	 1.705681e+01
 1.209442e+00	 4.665132e-01	 1.694697e+01
 1.203872e+00	 4.807048e-01	 1.682925e+01
 1.198121e+00	 4.948641e-01	 1.670635e+01
 1.163889e+00	 4.807252e-01	 1.709935e+01
 1.158127e+00	 4.944453e-01	 1.694799e+01
 1.152189e+00	 5.081275e-01	 1.679314e+01
 1.146077e+00	 5.217686e-01	 1.663470e+01
 1.139788e+00	 5.353654e-01	 1.647209e+01
 1.133326e+00	 5.489144e-01	 1.630424e+01
 1.170735e+00	 4.835529e-01	 1.701685e+01
 1.164939e+00	 4.973538e-01	 1.687149e+01
 1.158967e+00	 5.111165e-01	 1.672279e+01
 1.152818e+00	 5.248379e-01	 1.657056e+01
 1.146493e+00	 5.385146e-01	 1.641418e+01
 1.139992e+00	 5.521434e-01	 1.625254e+01
 1.177582e+00	 4.863807e-01	 1.693642e+01
 1.171752e+00	 5.002623e-01	 1.679625e+01
 1.165745e+00	 5.141055e-01	 1.665300e+01
 1.159560e+00	 5.279071e-01	 1.650652e+01
 1.153198e+00	 5.416638e-01	 1.635621e+01
 1.146659e+00	 5.553723e-01	 1.620100e+01
 1.184428e+00	 4.892085e-01	 1.685795e+01
 1.178564e+00	 5.031708e-01	 1.672245e+01
 1.172522e+00	 5.170945e-01	 1.658410e+01
 1.166301e+00	 5.309763e-01	 1.644285e+01
 1.159902e+00	 5.448130e-01	 1.629821e+01
 1.153325e+00	 5.586012e-01	 1.614922e+01
 1.191274e+00	 4.920363e-01	 1.678131e+01
 1.185377e+00	 5.060793e-01	 1.665026e+01
 1.179300e+00	 5.200835e-01	 1.651637e+01
 1.173043e+00	 5.340455e-01	 1.637977e+01
 1.166607e+00	 5.479622e-01	 1.624017e+01
 1.159992e+00	 5.618301e-01	 1.609678e+01
 1.198121e+00	 4.948641e-01	 1.670635e+01
 1.192189e+00	 5.089878e-01	 1.657983e+01
 1.186077e+00	 5.230724e-01	 1.645005e+01
 1.179785e+00	 5.371148e-01	 1.631748e+01
 1.173312e+00	 5.511114e-01	 1.618208e+01
 1.166659e+00	 5.650590e-01	 1.604328e+01
 1.133326e+00	 5.489144e-01	 1.630424e+01
 1.126688e+00	 5.624126e-01	 1.613601e+01
 1.119876e+00	 5.758565e-01	 1.597196e+01
 1.112891e+00	 5.892430e-01	 1.580932e+01
 1.105733e+00	 6.025686e-01	 1.563959e+01
 1.098402e+00	 6.158303e-01	 1.544635e+01
 1.139992e+00	 5.521434e-01	 1.625254e+01
 1.133316e+00	 5.657209e-01	 1.608916e+01
 1.126464e+00	 5.792439e-01	 1.592740e+01
 1.119438e+00	 5.927091e-01	 1.576486e+01
 1.112237e+00	 6.061132e-01	 1.559807e+01
 1.104863e+00	 6.194528e-01	 1.541634e+01
 1.146659e+00	 5.553723e-01	 1.620100e+01
 1.139943e+00	 5.690292e-01	 1.604320e+01
 1.133051e+00	 5.826313e-01	 1.588512e+01
 1.125984e+00	 5.961752e-01	 1.572455e+01
 1.118741e+00	 6.096577e-01	 1.555836e+01
 1.111324e+00	 6.230753e-01	 1.538234e+01
 1.153325e+00	 5.586012e-01	 1.614922e+01
 1.146571e+00	 5.723375e-01	 1.599726e+01
 1.139639e+00	 5.860187e-01	 1.584374e+01
 1.132530e+00	 5.996414e-01	 1.568664e+01
 1.125246e+00	 6.132022e-01	 1.552301e+01
 1.117786e+00	 6.266979e-01	 1.534894e+01
 1.159992e+00	 5.618301e-01	 1.609678e+01
 1.153198e+00	 5.756458e-01	 1.595044e+01
 1.146226e+00	 5.894061e-01	 1.580195e+01
 1.139077e+00	 6.031075e-01	 1.564936e+01
 1.131750e+00	 6.167467e-01	 1.548990e+01
 1.124247e+00	 6.303204e-01	 1.531984e+01
 1.166659e+00	 5.650590e-01	 1.604328e+01
 1.159826e+00	 5.789541e-01	 1.590186e+01
 1.152814e+00	 5.927935e-01	 1.575840e+01
 1.145623e+00	 6.065737e-01	 1.561099e+01
 1.138254e+00	 6.202913e-01	 1.545692e+01
 1.130708e+00	 6.339429e-01	 1.529262e+01
 1.098402e+00	 6.158303e-01	 1.544635e+01
 1.090900e+00	 6.290246e-01	 1.524820e+01
 1.083226e+00	 6.421483e-01	 1.506166e+01
 1.075383e+00	 6.551981e-01	 1.487697e+01
 1.067371e+00	 6.681709e-01	 1.468374e+01
 1.059191e+00	 6.810634e-01	 1.447098e+01
 1.104863e+00	 6.194528e-01	 1.541634e+01
 1.097317e+00	 6.327247e-01	 1.522803e+01
 1.089598e+00	 6.459256e-01	 1.504925e+01
 1.081709e+00	 6.590522e-01	 1.486988e+01
 1.073650e+00	 6.721013e-01	 1.467901e+01
 1.065422e+00	 6.850696e-01	 1.446504e+01
 1.111324e+00	 6.230753e-01	 1.538234e+01
 1.103734e+00	 6.364248e-01	 1.520666e+01
 1.095970e+00	 6.497029e-01	 1.503734e+01
 1.088035e+00	 6.629063e-01	 1.486396e+01
 1.079929e+00	 6.760317e-01	 1.467520e+01
 1.071653e+00	 6.890759e-01	 1.445895e+01
 1.117786e+00	 6.266979e-01	 1.534894e+01
 1.110151e+00	 6.401250e-01	 1.518155e+01
 1.102342e+00	 6.534803e-01	 1.502346e+01
 1.094361e+00	 6.667604e-01	 1.485704e+01
 1.086207e+00	 6.799621e-01	 1.467069e+01
 1.077883e+00	 6.930821e-01	 1.445188e+01
 1.124247e+00	 6.303204e-01	 1.531984e+01
 1.116568e+00	 6.438251e-01	 1.515466e+01
 1.108714e+00	 6.572576e-01	 1.500510e+01
 1.100686e+00	 6.706145e-01	 1.484692e+01
 1.092486e+00	 6.838926e-01	 1.466382e+01
 1.084114e+00	 6.970884e-01	 1.444297e+01
 1.130708e+00	 6.339429e-01	 1.529262e+01
 1.122985e+00	 6.475253e-01	 1.513123e+01
 1.115086e+00	 6.610350e-01	 1.498206e+01
 1.107012e+00	 6.744686e-01	 1.483140e+01
 1.098765e+00	 6.878230e-01	 1.465290e+01
 1.090344e+00	 7.010946e-01	 1.443129e+01
 1.059191e+00	 6.810634e-01	 1.447098e+01
 1.050845e+00	 6.938723e-01	 1.425309e+01
 1.042333e+00	 7.065946e-01	 1.404857e+01
 1.033657e+00	 7.192270e-01	 1.385247e+01
 1.024818e+00	 7.317664e-01	 1.366017e+01
 1.015818e+00	 7.442096e-01	 1.346384e+01
 1.065422e+00	 6.850696e-01	 1.446504e+01
 1.057026e+00	 6.979539e-01	 1.424628e+01
 1.048464e+00	 7.107510e-01	 1.404595e+01
 1.039737e+00	 7.234577e-01	 1.385960e+01
 1.030846e+00	 7.360709e-01	 1.368325e+01
 1.021793e+00	 7.485873e-01	 1.349445e+01
 1.071653e+00	 6.890759e-01	 1.445895e+01
 1.063208e+00	 7.020355e-01	 1.423857e+01
 1.054596e+00	 7.149075e-01	 1.404303e+01
 1.045818e+00	 7.276885e-01	 1.386832e+01
 1.036875e+00	 7.403754e-01	 1.371094e+01
 1.027769e+00	 7.529651e-01	 1.352102e+01
 1.077883e+00	 6.930821e-01	 1.445188e+01
 1.069389e+00	 7.061171e-01	 1.422993e+01
 1.060727e+00	 7.190639e-01	 1.404027e+01
 1.051898e+00	 7.319192e-01	 1.387926e+01
 1.042903e+00	 7.446799e-01	 1.373867e+01
 1.033744e+00	 7.573428e-01	 1.354304e+01
 1.084114e+00	 6.970884e-01	 1.444297e+01
 1.075571e+00	 7.101987e-01	 1.422025e+01
 1.066858e+00	 7.232203e-01	 1.403804e+01
 1.057978e+00	 7.361500e-01	 1.389300e+01
 1.048931e+00	 7.489844e-01	 1.375946e+01
 1.039719e+00	 7.617205e-01	 1.355996e+01
 1.090344e+00	 7.010946e-01	 1.443129e+01
 1.081752e+00	 7.142803e-01	 1.420934e+01
 1.072990e+00	 7.273768e-01	 1.403662e+01
 1.064059e+00	 7.403807e-01	 1.391000e+01
 1.054960e+00	 7.532889e-01	 1.377304e+01
 1.045695e+00	 7.660982e-01	 1.357126e+01
 1.015818e+00	 7.442096e-01	 1.346384e+01
 1.006658e+00	 7.565537e-01	 1.323593e+01
 9.973401e-01	 7.687956e-01	 1.299734e+01
 9.878657e-01	 7.809322e-01	 1.275712e+01
 9.782368e-01	 7.929606e-01	 1.252574e+01
 9.684552e-01	 8.048779e-01	 1.231496e+01
 1.021793e+00	 7.485873e-01	 1.349445e+01
 1.012580e+00	 7.610041e-01	 1.326166e+01
 1.003207e+00	 7.733179e-01	 1.302231e+01
 9.936767e-01	 7.855259e-01	 1.278469e+01
 9.839912e-01	 7.976251e-01	 1.255839e+01
 9.741520e-01	 8.096125e-01	 1.235435e+01
 1.027769e+00	 7.529651e-01	 1.352102e+01
 1.018501e+00	 7.654544e-01	 1.328593e+01
 1.009073e+00	 7.778403e-01	 1.304755e+01
 9.994877e-01	 7.901197e-01	 1.281338e+01
 9.897455e-01	 8.022896e-01	 1.259225e+01
 9.798488e-01	 8.143470e-01	 1.239426e+01
 1.033744e+00	 7.573428e-01	 1.354304e+01
 1.024423e+00	 7.699047e-01	 1.330780e+01
 1.014940e+00	 7.823626e-01	 1.307180e+01
 1.005299e+00	 7.947134e-01	 1.284179e+01
 9.954998e-01	 8.069541e-01	 1.262586e+01
 9.855456e-01	 8.190816e-01	 1.243335e+01
 1.039719e+00	 7.617205e-01	 1.355996e+01
 1.030344e+00	 7.743550e-01	 1.332632e+01
 1.020807e+00	 7.868849e-01	 1.309383e+01
 1.011110e+00	 7.993071e-01	 1.286853e+01
 1.001254e+00	 8.116185e-01	 1.265779e+01
 9.912424e-01	 8.238162e-01	 1.247025e+01
 1.045695e+00	 7.660982e-01	 1.357126e+01
 1.036266e+00	 7.788053e-01	 1.334055e+01
 1.026674e+00	 7.914072e-01	 1.311242e+01
 1.016921e+00	 8.039008e-01	 1.289221e+01
 1.007009e+00	 8.162830e-01	 1.268662e+01
 9.969392e-01	 8.285508e-01	 1.250363e+01
 9.684552e-01	 8.048779e-01	 1.231496e+01
 9.585227e-01	 8.166811e-01	 1.210400e+01
 9.484415e-01	 8.283675e-01	 1.187127e+01
 9.382135e-01	 8.399341e-01	 1.162887e+01
 9.278409e-01	 8.513784e-01	 1.138962e+01
 9.173259e-01	 8.626975e-01	 1.116686e+01
 9.741520e-01	 8.096125e-01	 1.235435e+01
 9.641611e-01	 8.214851e-01	 1.214968e+01
 9.540205e-01	 8.332402e-01	 1.192158e+01
 9.437324e-01	 8.448749e-01	 1.168260e+01
 9.332988e-01	 8.563865e-01	 1.144605e+01
 9.227220e-01	 8.677722e-01	 1.122583e+01
 9.798488e-01	 8.143470e-01	 1.239426e+01
 9.697995e-01	 8.262891e-01	 1.219500e+01
 9.595996e-01	 8.381130e-01	 1.197094e+01
 9.492513e-01	 8.498157e-01	 1.173508e+01
 9.387567e-01	 8.613946e-01	 1.150119e+01
 9.281180e-01	 8.728469e-01	 1.128374e+01
 9.855456e-01	 8.190816e-01	 1.243335e+01
 9.754378e-01	 8.310931e-01	 1.223875e+01
 9.651787e-01	 8.429857e-01	 1.201822e+01
 9.547702e-01	 8.547565e-01	 1.178519e+01
 9.442145e-01	 8.664027e-01	 1.155393e+01
 9.335140e-01	 8.779216e-01	 1.133947e+01
 9.912424e-01	 8.238162e-01	 1.247025e+01
 9.810762e-01	 8.358972e-01	 1.227968e+01
 9.707577e-01	 8.478585e-01	 1.206226e+01
 9.602891e-01	 8.596973e-01	 1.183184e+01
 9.496724e-01	 8.714108e-01	 1.160319e+01
 9.389101e-01	 8.829963e-01	 1.139187e+01
 9.969392e-01	 8.285508e-01	 1.250363e+01
 9.867146e-01	 8.407012e-01	 1.231659e+01
 9.763368e-01	 8.527312e-01	 1.210193e+01
 9.658080e-01	 8.646381e-01	 1.187394e+01
 9.551303e-01	 8.764189e-01	 1.164788e+01
 9.443061e-01	 8.880710e-01	 1.143983e+01
 9.173259e-01	 8.626975e-01	 1.116686e+01
 9.066709e-01	 8.738889e-01	 1.094207e+01
 8.958781e-01	 8.849499e-01	 1.069656e+01
 8.849499e-01	 8.958781e-01	 1.044387e+01
 8.738889e-01	 9.066709e-01	 1.019755e+01
 8.626975e-01	 9.173259e-01	 9.971023e+00
 9.227220e-01	 8.677722e-01	 1.122583e+01
 9.120042e-01	 8.790294e-01	 1.100346e+01
 9.011479e-01	 8.901555e-01	 1.076003e+01
 8.901555e-01	 9.011479e-01	 1.050936e+01
 8.790294e-01	 9.120042e-01	 1.026524e+01
 8.677722e-01	 9.227220e-01	 1.004134e+01
 9.281180e-01	 8.728469e-01	 1.128374e+01
 9.173376e-01	 8.841699e-01	 1.106415e+01
 9.064178e-01	 8.953611e-01	 1.082316e+01
 8.953611e-01	 9.064178e-01	 1.057477e+01
 8.841699e-01	 9.173376e-01	 1.033301e+01
 8.728469e-01	 9.281180e-01	 1.011177e+01
 9.335140e-01	 8.779216e-01	 1.133947e+01
 9.226709e-01	 8.893105e-01	 1.112297e+01
 9.116877e-01	 9.005667e-01	 1.088468e+01
 9.005667e-01	 9.116877e-01	 1.063876e+01
 8.893105e-01	 9.226709e-01	 1.039942e+01
 8.779216e-01	 9.335140e-01	 1.018074e+01
 9.389101e-01	 8.829963e-01	 1.139187e+01
 9.280043e-01	 8.944510e-01	 1.117871e+01
 9.169576e-01	 9.057723e-01	 1.094331e+01
 9.057723e-01	 9.169576e-01	 1.069996e+01
 8.944510e-01	 9.280043e-01	 1.046302e+01
 8.829963e-01	 9.389101e-01	 1.024671e+01
 9.443061e-01	 8.880710e-01	 1.143983e+01
 9.333377e-01	 8.995915e-01	 1.123020e+01
 9.222274e-01	 9.109779e-01	 1.099781e+01
 9.109779e-01	 9.222274e-01	 1.075705e+01
 8.995915e-01	 9.333377e-01	 1.052238e+01
 8.880710e-01	 9.443061e-01	 1.030814e+01
 8.626975e-01	 9.173259e-01	 9.971023e+00
 8.513784e-01	 9.278409e-01	 9.743510e+00
 8.399341e-01	 9.382135e-01	 9.495337e+00
 8.283675e-01	 9.484415e-01	 9.240951e+00
 8.166811e-01	 9.585227e-01	 8.994133e+00
 8.048779e-01	 9.684552e-01	 8.767858e+00
 8.677722e-01	 9.227220e-01	 1.004134e+01
 8.563865e-01	 9.332988e-01	 9.817065e+00
 8.448749e-01	 9.437324e-01	 9.572489e+00
 8.332402e-01	 9.540205e-01	 9.321697e+00
 8.214851e-01	 9.641611e-01	 9.078057e+00
 8.096125e-01	 9.741520e-01	 8.854081e+00
 8.728469e-01	 9.281180e-01	 1.011177e+01
 8.613946e-01	 9.387567e-01	 9.890438e+00
 8.498157e-01	 9.492513e-01	 9.648868e+00
 8.381130e-01	 9.595996e-01	 9.400964e+00
 8.262891e-01	 9.697995e-01	 9.159881e+00
 8.143470e-01	 9.798488e-01	 8.937870e+00
 8.779216e-01	 9.335140e-01	 1.018074e+01
 8.664027e-01	 9.442145e-01	 9.962002e+00
 8.547565e-01	 9.547702e-01	 9.722856e+00
 8.429857e-01	 9.651787e-01	 9.477220e+00
 8.310931e-01	 9.754378e-01	 9.238228e+00
 8.190816e-01	 9.855456e-01	 9.018072e+00
 8.829963e-01	 9.389101e-01	 1.024671e+01
 8.714108e-01	 9.496724e-01	 1.003014e+01
 8.596973e-01	 9.602891e-01	 9.792846e+00
 8.478585e-01	 9.707577e-01	 9.548936e+00
 8.358972e-01	 9.810762e-01	 9.311720e+00
 8.238162e-01	 9.912424e-01	 9.093528e+00
 8.880710e-01	 9.443061e-01	 1.030814e+01
 8.764189e-01	 9.551303e-01	 1.009326e+01
 8.646381e-01	 9.658080e-01	 9.857239e+00
 8.527312e-01	 9.763368e-01	 9.614591e+00
 8.407012e-01	 9.867146e-01	 9.378979e+00
 8.285508e-01	 9.969392e-01	 9.163071e+00
 8.048779e-01	 9.684552e-01	 8.767858e+00
 7.929606e-01	 9.782368e-01	 8.548329e+00
 7.809322e-01	 9.878657e-01	 8.315791e+00
 7.687956e-01	 9.973401e-01	 8.072430e+00
 7.565537e-01	 1.006658e+00	 7.818794e+00
 7.442096e-01	 1.015818e+00	 7.553711e+00
 8.096125e-01	 9.741520e-01	 8.854081e+00
 7.976251e-01	 9.839912e-01	 8.634237e+00
 7.855259e-01	 9.936767e-01	 8.398704e+00
 7.733179e-01	 1.003207e+00	 8.151696e+00
 7.610041e-01	 1.012580e+00	 7.895830e+00
 7.485873e-01	 1.021793e+00	 7.632031e+00
 8.143470e-01	 9.798488e-01	 8.937870e+00
 8.022896e-01	 9.897455e-01	 8.718276e+00
 7.901197e-01	 9.994877e-01	 8.481322e+00
 7.778403e-01	 1.009073e+00	 8.232690e+00
 7.654544e-01	 1.018501e+00	 7.976483e+00
 7.529651e-01	 1.027769e+00	 7.715121e+00
 8.190816e-01	 9.855456e-01	 9.018072e+00
 8.069541e-01	 9.954998e-01	 8.799435e+00
 7.947134e-01	 1.005299e+00	 8.562548e+00
 7.823626e-01	 1.014940e+00	 8.314012e+00
 7.699047e-01	 1.024423e+00	 8.058844e+00
 7.573428e-01	 1.033744e+00	 7.800368e+00
 8.238162e-01	 9.912424e-01	 9.093528e+00
 8.116185e-01	 1.001254e+00	 8.876691e+00
 7.993071e-01	 1.011110e+00	 8.641272e+00
 7.868849e-01	 1.020807e+00	 8.394253e+00
 7.743550e-01	 1.030344e+00	 8.141004e+00
 7.617205e-01	 1.039719e+00	 7.885170e+00
 8.285508e-01	 9.969392e-01	 9.163071e+00
 8.162830e-01	 1.007009e+00	 8.949006e+00
 8.039008e-01	 1.016921e+00	 8.716372e+00
 7.914072e-01	 1.026674e+00	 8.471996e+00
 7.788053e-01	 1.036266e+00	 8.221053e+00
 7.660982e-01	 1.045695e+00	 7.966942e+00
 7.442096e-01	 1.015818e+00	 7.553711e+00
 7.317664e-01	 1.024818e+00	 7.304656e+00
 7.192270e-01	 1.033657e+00	 7.087146e+00
 7.065946e-01	 1.042333e+00	 6.884436e+00
 6.938723e-01	 1.050845e+00	 6.678569e+00
 6.810634e-01	 1.059191e+00	 6.450136e+00
 7.485873e-01	 1.021793e+00	 7.632031e+00
 7.360709e-01	 1.030846e+00	 7.389955e+00
 7.234577e-01	 1.039737e+00	 7.182542e+00
 7.107510e-01	 1.048464e+00	 6.988257e+00
 6.979539e-01	 1.057026e+00	 6.785463e+00
 6.850696e-01	 1.065422e+00	 6.550919e+00
 7.529651e-01	 1.027769e+00	 7.715121e+00
 7.403754e-01	 1.036875e+00	 7.477935e+00
 7.276885e-01	 1.045818e+00	 7.277384e+00
 7.149075e-01	 1.054596e+00	 7.087575e+00
 7.020355e-01	 1.063208e+00	 6.884502e+00
 6.890759e-01	 1.071653e+00	 6.642446e+00
 7.573428e-01	 1.033744e+00	 7.800368e+00
 7.446799e-01	 1.042903e+00	 7.566002e+00
 7.319192e-01	 1.051898e+00	 7.368564e+00
 7.190639e-01	 1.060727e+00	 7.179677e+00
 7.061171e-01	 1.069389e+00	 6.973804e+00
 6.930821e-01	 1.077883e+00	 6.724077e+00
 7.617205e-01	 1.039719e+00	 7.885170e+00
 7.489844e-01	 1.048931e+00	 7.651694e+00
 7.361500e-01	 1.057978e+00	 7.452988e+00
 7.232203e-01	 1.066858e+00	 7.261860e+00
 7.101987e-01	 1.075571e+00	 7.051479e+00
 6.970884e-01	 1.084114e+00	 6.795137e+00
 7.660982e-01	 1.045695e+00	 7.966942e+00
 7.532889e-01	 1.054960e+00	 7.731896e+00
 7.403807e-01	 1.064059e+00	 7.527581e+00
 7.273768e-01	 1.072990e+00	 7.331429e+00
 7.142803e-01	 1.081752e+00	 7.115628e+00
 7.010946e-01	 1.090344e+00	 6.854914e+00
 6.810634e-01	 1.059191e+00	 6.450136e+00
 6.681709e-01	 1.067371e+00	 6.207655e+00
 6.551981e-01	 1.075383e+00	 5.971608e+00
 6.421483e-01	 1.083226e+00	 5.738992e+00
 6.290246e-01	 1.090900e+00	 5.506175e+00
 6.158303e-01	 1.098402e+00	 5.268941e+00
 6.850696e-01	 1.065422e+00	 6.550919e+00
 6.721013e-01	 1.073650e+00	 6.294927e+00
 6.590522e-01	 1.081709e+00	 6.045395e+00
 6.459256e-01	 1.089598e+00	 5.803931e+00
 6.327247e-01	 1.097317e+00	 5.571628e+00
 6.194528e-01	 1.104863e+00	 5.349092e+00
 6.890759e-01	 1.071653e+00	 6.642446e+00
 6.760317e-01	 1.079929e+00	 6.375796e+00
 6.629063e-01	 1.088035e+00	 6.120589e+00
 6.497029e-01	 1.095970e+00	 5.882006e+00
 6.364248e-01	 1.103734e+00	 5.664786e+00
 6.230753e-01	 1.111324e+00	 5.473213e+00
 6.930821e-01	 1.077883e+00	 6.724077e+00
 6.799621e-01	 1.086207e+00	 6.450855e+00
 6.667604e-01	 1.094361e+00	 6.198619e+00
 6.534803e-01	 1.102342e+00	 5.975096e+00
 6.401250e-01	 1.110151e+00	 5.787623e+00
 6.266979e-01	 1.117786e+00	 5.600281e+00
 6.970884e-01	 1.084114e+00	 6.795137e+00
 6.838926e-01	 1.092486e+00	 6.520635e+00
 6.706145e-01	 1.100686e+00	 6.280830e+00
 6.572576e-01	 1.108714e+00	 6.084994e+00
 6.438251e-01	 1.116568e+00	 5.914163e+00
 6.303204e-01	 1.124247e+00	 5.695278e+00
 7.010946e-01	 1.090344e+00	 6.854914e+00
 6.878230e-01	 1.098765e+00	 6.585603e+00
 6.744686e-01	 1.107012e+00	 6.368488e+00
 6.610350e-01	 1.115086e+00	 6.199093e+00
 6.475253e-01	 1.122985e+00	 5.998721e+00
 6.339429e-01	 1.130708e+00	 5.761143e+00
 6.158303e-01	 1.098402e+00	 5.268941e+00
 6.025686e-01	 1.105733e+00	 5.055446e+00
 5.892430e-01	 1.112891e+00	 4.896861e+00
 5.758565e-01	 1.119876e+00	 4.728668e+00
 5.624126e-01	 1.126688e+00	 4.530416e+00
 5.489144e-01	 1.133326e+00	 4.311672e+00
 6.194528e-01	 1.104863e+00	 5.349092e+00
 6.061132e-01	 1.112237e+00	 5.168151e+00
 5.927091e-01	 1.119438e+00	 4.997160e+00
 5.792439e-01	 1.126464e+00	 4.803129e+00
 5.657209e-01	 1.133316e+00	 4.592290e+00
 5.521434e-01	 1.139992e+00	 4.372073e+00
 6.230753e-01	 1.111324e+00	 5.473213e+00
 6.096577e-01	 1.118741e+00	 5.285921e+00
 5.961752e-01	 1.125984e+00	 5.085937e+00
 5.826313e-01	 1.133051e+00	 4.875720e+00
 5.690292e-01	 1.139943e+00	 4.658935e+00
 5.553723e-01	 1.146659e+00	 4.440415e+00
 6.266979e-01	 1.117786e+00	 5.600281e+00
 6.132022e-01	 1.125246e+00	 5.382402e+00
 5.996414e-01	 1.132530e+00	 5.165017e+00
 5.860187e-01	 1.139639e+00	 4.947605e+00
 5.723375e-01	 1.146571e+00	 4.730812e+00
 5.586012e-01	 1.153325e+00	 4.516419e+00
 6.303204e-01	 1.124247e+00	 5.695278e+00
 6.167467e-01	 1.131750e+00	 5.460016e+00
 6.031075e-01	 1.139077e+00	 5.236230e+00
 5.894061e-01	 1.146226e+00	 5.019970e+00
 5.756458e-01	 1.153198e+00	 4.808419e+00
 5.618301e-01	 1.159992e+00	 4.599858e+00
 6.339429e-01	 1.130708e+00	 5.761143e+00
 6.202913e-01	 1.138254e+00	 5.521180e+00
 6.065737e-01	 1.145623e+00	 5.301409e+00
 5.927935e-01	 1.152814e+00	 5.094020e+00
 5.789541e-01	 1.159826e+00	 4.892286e+00
 5.650590e-01	 1.166659e+00	 4.690552e+00
 5.489144e-01	 1.133326e+00	 4.311672e+00
 5.353654e-01	 1.139788e+00	 4.093757e+00
 5.217686e-01	 1.146077e+00	 3.888094e+00
 5.081275e-01	 1.152189e+00	 3.690896e+00
 4.944453e-01	 1.158127e+00	 3.499158e+00
 4.807252e-01	 1.163889e+00	 3.310608e+00
 5.521434e-01	 1.139992e+00	 4.372073e+00
 5.385146e-01	 1.146493e+00	 4.159712e+00
 5.248379e-01	 1.152818e+00	 3.962496e+00
 5.111165e-01	 1.158967e+00	 3.774413e+00
 4.973538e-01	 1.164939e+00	 3.590229e+00
 4.835529e-01	 1.170735e+00	 3.405446e+00
 5.553723e-01	 1.146659e+00	 4.440415e+00
 5.416638e-01	 1.153198e+00	 4.233269e+00
 5.279071e-01	 1.159560e+00	 4.041719e+00
 5.141055e-01	 1.165745e+00	 3.858722e+00
 5.002623e-01	 1.171752e+00	 3.678028e+00
 4.863807e-01	 1.177582e+00	 3.494139e+00
 5.586012e-01	 1.153325e+00	 4.516419e+00
 5.448130e-01	 1.159902e+00	 4.313545e+00
 5.309763e-01	 1.166301e+00	 4.124554e+00
 5.170945e-01	 1.172522e+00	 3.942552e+00
 5.031708e-01	 1.178564e+00	 3.761462e+00
 4.892085e-01	 1.184428e+00	 3.575992e+00
 5.618301e-01	 1.159992e+00	 4.599858e+00
 5.479622e-01	 1.166607e+00	 4.399718e+00
 5.340455e-01	 1.173043e+00	 4.209862e+00
 5.200835e-01	 1.179300e+00	 4.024698e+00
 5.060793e-01	 1.185377e+00	 3.839499e+00
 4.920363e-01	 1.191274e+00	 3.650359e+00
 5.650590e-01	 1.166659e+00	 4.690552e+00
 5.511114e-01	 1.173312e+00	 4.491024e+00
 5.371148e-01	 1.179785e+00	 4.296565e+00
 5.230724e-01	 1.186077e+00	 4.104022e+00
 5.089878e-01	 1.192189e+00	 3.911165e+00
 4.948641e-01	 1.198121e+00	 3.716641e+00
 4.807252e-01	 1.163889e+00	 3.310608e+00
 4.669704e-01	 1.169475e+00	 3.130928e+00
 4.531842e-01	 1.174886e+00	 2.965121e+00
 4.393698e-01	 1.180122e+00	 2.810873e+00
 4.255304e-01	 1.185183e+00	 2.666413e+00
 4.116692e-01	 1.190068e+00	 2.530452e+00
 4.835529e-01	 1.170735e+00	 3.405446e+00
 4.697173e-01	 1.176355e+00	 3.224368e+00
 4.558500e-01	 1.181797e+00	 3.053155e+00
 4.419544e-01	 1.187064e+00	 2.891090e+00
 4.280335e-01	 1.192154e+00	 2.738030e+00
 4.140907e-01	 1.197069e+00	 2.594342e+00
 4.863807e-01	 1.177582e+00	 3.494139e+00
 4.724642e-01	 1.183234e+00	 3.311137e+00
 4.585158e-01	 1.188709e+00	 3.136098e+00
 4.445389e-01	 1.194006e+00	 2.969030e+00
 4.305367e-01	 1.199126e+00	 2.810542e+00
 4.165123e-01	 1.204069e+00	 2.661765e+00
 4.892085e-01	 1.184428e+00	 3.575992e+00
 4.752110e-01	 1.190113e+00	 3.390928e+00
 4.611816e-01	 1.195620e+00	 3.213808e+00
 4.471234e-01	 1.200948e+00	 3.044519e+00
 4.330398e-01	 1.206098e+00	 2.883552e+00
 4.189339e-01	 1.211069e+00	 2.731939e+00
 4.920363e-01	 1.191274e+00	 3.650359e+00
 4.779579e-01	 1.196992e+00	 3.463467e+00
 4.638474e-01	 1.202531e+00	 3.286175e+00
 4.497080e-01	 1.207890e+00	 3.117409e+00
 4.355429e-01	 1.213069e+00	 2.956700e+00
 4.213555e-01	 1.218070e+00	 2.804119e+00
 4.948641e-01	 1.198121e+00	 3.716641e+00
 4.807048e-01	 1.203872e+00	 3.528519e+00
 4.665132e-01	 1.209442e+00	 3.353119e+00
 4.522925e-01	 1.214832e+00	 3.187582e+00
 4.380460e-01	 1.220041e+00	 3.029650e+00
 4.237771e-01	 1.225070e+00	 2.877596e+00
 4.116692e-01	 1.190068e+00	 2.530452e+00
 3.977892e-01	 1.194779e+00	 2.383575e+00
 3.838935e-01	 1.199316e+00	 2.215972e+00
 3.699854e-01	 1.203680e+00	 2.041319e+00
 3.560678e-01	 1.207870e+00	 1.875618e+00
 3.421438e-01	 1.211888e+00	 1.746443e+00
 4.140907e-01	 1.197069e+00	 2.594342e+00
 4.001291e-01	 1.201807e+00	 2.442631e+00
 3.861517e-01	 1.206371e+00	 2.273796e+00
 3.721618e-01	 1.210760e+00	 2.101202e+00
 3.581623e-01	 1.214975e+00	 1.939368e+00
 3.441564e-01	 1.219016e+00	 1.813637e+00
 4.165123e-01	 1.204069e+00	 2.661765e+00
 4.024690e-01	 1.208836e+00	 2.506481e+00
 3.884099e-01	 1.213426e+00	 2.336332e+00
 3.743382e-01	 1.217841e+00	 2.164809e+00
 3.602568e-01	 1.222080e+00	 2.005839e+00
 3.461690e-01	 1.226145e+00	 1.882565e+00
 4.189339e-01	 1.211069e+00	 2.731939e+00
 4.048090e-01	 1.215864e+00	 2.573942e+00
 3.906681e-01	 1.220481e+00	 2.402122e+00
 3.765146e-01	 1.224921e+00	 2.230524e+00
 3.623513e-01	 1.229185e+00	 2.073279e+00
 3.481816e-01	 1.233274e+00	 1.951565e+00
 4.213555e-01	 1.218070e+00	 2.804119e+00
 4.071489e-01	 1.222892e+00	 2.643873e+00
 3.929263e-01	 1.227536e+00	 2.469754e+00
 3.786909e-01	 1.232002e+00	 2.296781e+00
 3.644459e-01	 1.236290e+00	 2.139974e+00
 3.501942e-01	 1.240403e+00	 2.019011e+00
 4.237771e-01	 1.225070e+00	 2.877596e+00
 4.094888e-01	 1.229920e+00	 2.715178e+00
 3.951845e-01	 1.234590e+00	 2.537861e+00
 3.808673e-01	 1.239082e+00	 2.362060e+00
 3.665404e-01	 1.243395e+00	 2.204252e+00
 3.522068e-01	 1.247531e+00	 2.083307e+00
 3.421438e-01	 1.211888e+00	 1.746443e+00
 3.282163e-01	 1.215734e+00	 1.641232e+00
 3.142883e-01	 1.219408e+00	 1.529115e+00
 3.003627e-01	 1.222913e+00	 1.413838e+00
 2.864425e-01	 1.226248e+00	 1.299036e+00
 2.725305e-01	 1.229415e+00	 1.188148e+00
 3.441564e-01	 1.219016e+00	 1.813637e+00
 3.301469e-01	 1.222885e+00	 1.709654e+00
 3.161370e-01	 1.226581e+00	 1.595754e+00
 3.021296e-01	 1.230107e+00	 1.477027e+00
 2.881275e-01	 1.233461e+00	 1.358401e+00
 2.741336e-01	 1.236647e+00	 1.244552e+00
 3.461690e-01	 1.226145e+00	 1.882565e+00
 3.320776e-01	 1.230036e+00	 1.779188e+00
 3.179858e-01	 1.233754e+00	 1.663365e+00
 3.038964e-01	 1.237300e+00	 1.541391e+00
 2.898124e-01	 1.240675e+00	 1.419335e+00
 2.757367e-01	 1.243879e+00	 1.302961e+00
 3.481816e-01	 1.233274e+00	 1.951565e+00
 3.340083e-01	 1.237188e+00	 1.848302e+00
 3.198345e-01	 1.240927e+00	 1.730508e+00
 3.056633e-01	 1.244494e+00	 1.605543e+00
 2.914974e-01	 1.247888e+00	 1.480474e+00
 2.773398e-01	 1.251110e+00	 1.361998e+00
 3.501942e-01	 1.240403e+00	 2.019011e+00
 3.359390e-01	 1.244339e+00	 1.915490e+00
 3.216833e-01	 1.248100e+00	 1.795761e+00
 3.074301e-01	 1.251687e+00	 1.668110e+00
 2.931823e-01	 1.255101e+00	 1.540461e+00
 2.789430e-01	 1.258342e+00	 1.420293e+00
 3.522068e-01	 1.247531e+00	 2.083307e+00
 3.378697e-01	 1.251490e+00	 1.979269e+00
 3.235321e-01	 1.255273e+00	 1.857718e+00
 3.091969e-01	 1.258881e+00	 1.727733e+00
 2.948673e-01	 1.262314e+00	 1.597951e+00
 2.805461e-01	 1.265574e+00	 1.476485e+00
 2.725305e-01	 1.229415e+00	 1.188148e+00
 2.586294e-01	 1.232414e+00	 1.081675e+00
 2.447421e-01	 1.235247e+00	 9.795012e-01
 2.308712e-01	 1.237915e+00	 8.836999e-01
 2.170195e-01	 1.240418e+00	 7.959844e-01
 2.031896e-01	 1.242758e+00	 7.177145e-01
 2.741336e-01	 1.236647e+00	 1.244552e+00
 2.601508e-01	 1.239664e+00	 1.136612e+00
 2.461817e-01	 1.242513e+00	 1.034013e+00
 2.322293e-01	 1.245196e+00	 9.383631e-01
 2.182961e-01	 1.247714e+00	 8.508691e-01
 2.043848e-01	 1.250069e+00	 7.723474e-01
 2.757367e-01	 1.243879e+00	 1.302961e+00
 2.616721e-01	 1.246913e+00	 1.193795e+00
 2.476214e-01	 1.249779e+00	 1.090747e+00
 2.335874e-01	 1.252478e+00	 9.950503e-01
 2.195727e-01	 1.255011e+00	 9.074913e-01
 2.055801e-01	 1.257379e+00	 8.284279e-01
 2.773398e-01	 1.251110e+00	 1.361998e+00
 2.631935e-01	 1.254163e+00	 1.251839e+00
 2.490611e-01	 1.257045e+00	 1.148347e+00
 2.349454e-01	 1.259760e+00	 1.052467e+00
 2.208493e-01	 1.262308e+00	 9.646474e-01
 2.067753e-01	 1.264689e+00	 8.848701e-01
 2.789430e-01	 1.258342e+00	 1.420293e+00
 2.647148e-01	 1.261412e+00	 1.309364e+00
 2.505007e-01	 1.264312e+00	 1.205461e+00
 2.363035e-01	 1.267042e+00	 1.109320e+00
 2.221259e-01	 1.269604e+00	 1.021134e+00
 2.079705e-01	 1.272000e+00	 9.405871e-01
 2.805461e-01	 1.265574e+00	 1.476485e+00
 2.662362e-01	 1.268662e+00	 1.364999e+00
 2.519404e-01	 1.271578e+00	 1.260741e+00
 2.376616e-01	 1.274324e+00	 1.164319e+00
 2.234024e-01	 1.276901e+00	 1.075749e+00
 2.091658e-01	 1.279310e+00	 9.944906e-01
 2.031896e-01	 1.242758e+00	 7.177145e-01
 1.893840e-01	 1.244937e+00	 6.457432e-01
 1.756054e-01	 1.246955e+00	 5.768969e-01
 1.618562e-01	 1.248814e+00	 5.120513e-01
 1.481388e-01	 1.250515e+00	 4.518664e-01
 1.344557e-01	 1.252061e+00	 3.968315e-01
 2.043848e-01	 1.250069e+00	 7.723474e-01
 1.904981e-01	 1.252260e+00	 6.993855e-01
 1.766384e-01	 1.254290e+00	 6.291223e-01
 1.628083e-01	 1.256160e+00	 5.627193e-01
 1.490102e-01	 1.257871e+00	 5.011077e-01
 1.352467e-01	 1.259426e+00	 4.450390e-01
 2.055801e-01	 1.257379e+00	 8.284279e-01
 1.916121e-01	 1.259583e+00	 7.542942e-01
 1.776714e-01	 1.261625e+00	 6.825645e-01
 1.637604e-01	 1.263506e+00	 6.146347e-01
 1.498816e-01	 1.265227e+00	 5.516538e-01
 1.360376e-01	 1.266791e+00	 4.945813e-01
 2.067753e-01	 1.264689e+00	 8.848701e-01
 1.927261e-01	 1.266906e+00	 8.095113e-01
 1.787043e-01	 1.268960e+00	 7.363881e-01
 1.647125e-01	 1.270852e+00	 6.670778e-01
 1.507531e-01	 1.272583e+00	 6.028934e-01
 1.368285e-01	 1.274156e+00	 5.449466e-01
 2.079705e-01	 1.272000e+00	 9.405871e-01
 1.938401e-01	 1.274229e+00	 8.640759e-01
 1.797373e-01	 1.276295e+00	 7.897533e-01
 1.656646e-01	 1.278198e+00	 7.193241e-01
 1.516245e-01	 1.279939e+00	 6.542098e-01
 1.376194e-01	 1.281521e+00	 5.956185e-01
 2.091658e-01	 1.279310e+00	 9.944906e-01
 1.949542e-01	 1.281553e+00	 9.170241e-01
 1.807703e-01	 1.283630e+00	 8.418162e-01
 1.666167e-01	 1.285544e+00	 7.706442e-01
 1.524959e-01	 1.287295e+00	 7.049816e-01
 1.384103e-01	 1.288886e+00	 6.460753e-01
 1.344557e-01	 1.252061e+00	 3.968315e-01
 1.208092e-01	 1.253451e+00	 3.473337e-01
 1.072016e-01	 1.254688e+00	 3.034936e-01
 9.363520e-02	 1.255773e+00	 2.652818e-01
 8.011209e-02	 1.256708e+00	 2.326817e-01
 6.663447e-02	 1.257495e+00	 2.057363e-01
 1.352467e-01	 1.259426e+00	 4.450390e-01
 1.215199e-01	 1.260824e+00	 3.949871e-01
 1.078322e-01	 1.262068e+00	 3.508758e-01
 9.418599e-02	 1.263160e+00	 3.125189e-01
 8.058334e-02	 1.264101e+00	 2.797609e-01
 6.702644e-02	 1.264892e+00	 2.525295e-01
 1.360376e-01	 1.266791e+00	 4.945813e-01
 1.222305e-01	 1.268197e+00	 4.439211e-01
 1.084628e-01	 1.269449e+00	 3.994067e-01
 9.473679e-02	 1.270547e+00	 3.607338e-01
 8.105459e-02	 1.271493e+00	 3.276470e-01
 6.741841e-02	 1.272289e+00	 2.999974e-01
 1.368285e-01	 1.274156e+00	 5.449466e-01
 1.229412e-01	 1.275571e+00	 4.937201e-01
 1.090934e-01	 1.276829e+00	 4.487662e-01
 9.528758e-02	 1.277934e+00	 4.096996e-01
 8.152583e-02	 1.278886e+00	 3.762004e-01
 6.781038e-02	 1.279686e+00	 3.480793e-01
 1.376194e-01	 1.281521e+00	 5.956185e-01
 1.236518e-01	 1.282944e+00	 5.439637e-01
 1.097240e-01	 1.284210e+00	 4.986306e-01
 9.583838e-02	 1.285321e+00	 4.591857e-01
 8.199708e-02	 1.286278e+00	 4.252786e-01
 6.820234e-02	 1.287083e+00	 3.967122e-01
 1.384103e-01	 1.288886e+00	 6.460753e-01
 1.243625e-01	 1.290317e+00	 5.942271e-01
 1.103546e-01	 1.291590e+00	 5.486715e-01
 9.638917e-02	 1.292708e+00	 5.089580e-01
 8.246833e-02	 1.293670e+00	 4.747358e-01
 6.859431e-02	 1.294480e+00	 4.458309e-01
 6.663447e-02	 1.257495e+00	 2.057363e-01
 5.320443e-02	 1.258135e+00	 1.835239e-01
 3.982401e-02	 1.258629e+00	 1.654461e-01
 2.649518e-02	 1.258980e+00	 1.522379e-01
 1.321988e-02	 1.259190e+00	 1.448347e-01
-9.246592e-07	 1.259272e+00	 2.587615e-02
 6.702644e-02	 1.264892e+00	 2.525295e-01
 5.351740e-02	 1.265536e+00	 2.299052e-01
 4.005827e-02	 1.266033e+00	 2.114071e-01
 2.665103e-02	 1.266386e+00	 1.978782e-01
 1.329765e-02	 1.266597e+00	 1.904050e-01
-9.230182e-07	 1.266680e+00	 8.638419e-02
 6.741841e-02	 1.272289e+00	 2.999974e-01
 5.383037e-02	 1.272936e+00	 2.769043e-01
 4.029252e-02	 1.273437e+00	 2.579873e-01
 2.680689e-02	 1.273792e+00	 2.441565e-01
 1.337541e-02	 1.274004e+00	 2.366100e-01
-9.211000e-07	 1.274088e+00	 1.482697e-01
 6.781038e-02	 1.279686e+00	 3.480793e-01
 5.414334e-02	 1.280337e+00	 3.245255e-01
 4.052678e-02	 1.280840e+00	 3.052371e-01
 2.696274e-02	 1.281198e+00	 2.911494e-01
 1.345318e-02	 1.281411e+00	 2.835317e-01
-9.189079e-07	 1.281495e+00	 2.115842e-01
 6.820234e-02	 1.287083e+00	 3.967122e-01
 5.445630e-02	 1.287738e+00	 3.727714e-01
 4.076104e-02	 1.288244e+00	 3.532064e-01
 2.711860e-02	 1.288604e+00	 3.389343e-01
 1.353094e-02	 1.288818e+00	 3.312540e-01
-9.164450e-07	 1.288903e+00	 2.763815e-01
 6.859431e-02	 1.294480e+00	 4.458309e-01
 5.476927e-02	 1.295139e+00	 4.216434e-01
 4.099530e-02	 1.295648e+00	 4.019445e-01
 2.727445e-02	 1.296009e+00	 3.875889e-01
 1.360871e-02	 1.296225e+00	 3.798621e-01
-9.137145e-07	 1.296311e+00	 3.427180e-01
 1.296296e+00	 0.000000e+00	 1.870958e+01
 1.296225e+00	 1.360871e-02	 1.870692e+01
 1.296009e+00	 2.727445e-02	 1.870265e+01
 1.295648e+00	 4.099530e-02	 1.869599e+01
 1.295139e+00	 5.476927e-02	 1.868614e+01
 1.294480e+00	 6.859431e-02	 1.867226e+01
 1.303704e+00	 0.000000e+00	 1.855159e+01
 1.303632e+00	 1.368647e-02	 1.854917e+01
 1.303415e+00	 2.743030e-02	 1.854521e+01
 1.303052e+00	 4.122956e-02	 1.853894e+01
 1.302540e+00	 5.508224e-02	 1.852956e+01
 1.301877e+00	 6.898628e-02	 1.851620e+01
 1.311111e+00	 0.000000e+00	 1.839774e+01
 1.311039e+00	 1.376423e-02	 1.839558e+01
 1.310821e+00	 2.758616e-02	 1.839193e+01
 1.310455e+00	 4.146382e-02	 1.838603e+01
 1.309940e+00	 5.539520e-02	 1.837707e+01
 1.309274e+00	 6.937825e-02	 1.836418e+01
 1.318519e+00	 0.000000e+00	 1.824782e+01
 1.318446e+00	 1.384200e-02	 1.824597e+01
 1.318227e+00	 2.774201e-02	 1.824263e+01
 1.317859e+00	 4.169808e-02	 1.823707e+01
 1.317341e+00	 5.570817e-02	 1.822848e+01
 1.316671e+00	 6.977021e-02	 1.821602e+01
 1.325926e+00	 0.000000e+00	 1.810162e+01
 1.325853e+00	 1.391976e-02	 1.810012e+01
 1.325632e+00	 2.789787e-02	 1.809710e+01
 1.325263e+00	 4.193234e-02	 1.809187e+01
 1.324742e+00	 5.602114e-02	 1.808364e+01
 1.324068e+00	 7.016218e-02	 1.807158e+01
 1.333333e+00	 0.000000e+00	 1.795896e+01
 1.333260e+00	 1.399753e-02	 1.795786e+01
 1.333038e+00	 2.805372e-02	 1.795517e+01
 1.332666e+00	 4.216660e-02	 1.795025e+01
 1.332143e+00	 5.633411e-02	 1.794237e+01
 1.331465e+00	 7.055415e-02	 1.793068e+01
 1.294480e+00	 6.859431e-02	 1.867226e+01
 1.293670e+00	 8.246833e-02	 1.865542e+01
 1.292708e+00	 9.638917e-02	 1.863662e+01
 1.291590e+00	 1.103546e-01	 1.861492e+01
 1.290317e+00	 1.243625e-01	 1.858941e+01
 1.288886e+00	 1.384103e-01	 1.855927e+01
 1.301877e+00	 6.898628e-02	 1.851620e+01
 1.301063e+00	 8.293958e-02	 1.850002e+01
 1.300095e+00	 9.693997e-02	 1.848213e+01
 1.298971e+00	 1.109852e-01	 1.846158e+01
 1.297690e+00	 1.250731e-01	 1.843747e+01
 1.296251e+00	 1.392012e-01	 1.840896e+01
 1.309274e+00	 6.937825e-02	 1.836418e+01
 1.308455e+00	 8.341082e-02	 1.834861e+01
 1.307482e+00	 9.749076e-02	 1.833158e+01
 1.306352e+00	 1.116158e-01	 1.831215e+01
 1.305064e+00	 1.257837e-01	 1.828939e+01
 1.303616e+00	 1.399921e-01	 1.826244e+01
 1.316671e+00	 6.977021e-02	 1.821602e+01
 1.315848e+00	 8.388207e-02	 1.820104e+01
 1.314868e+00	 9.804156e-02	 1.818485e+01
 1.313732e+00	 1.122464e-01	 1.816651e+01
 1.312437e+00	 1.264944e-01	 1.814507e+01
 1.310981e+00	 1.407831e-01	 1.811966e+01
 1.324068e+00	 7.016218e-02	 1.807158e+01
 1.323240e+00	 8.435332e-02	 1.805716e+01
 1.322255e+00	 9.859235e-02	 1.804180e+01
 1.321113e+00	 1.128770e-01	 1.802454e+01
 1.319810e+00	 1.272050e-01	 1.800443e+01
 1.318346e+00	 1.415740e-01	 1.798053e+01
 1.331465e+00	 7.055415e-02	 1.793068e+01
 1.330632e+00	 8.482457e-02	 1.791682e+01
 1.329642e+00	 9.914315e-02	 1.790230e+01
 1.328493e+00	 1.135076e-01	 1.788614e+01
 1.327183e+00	 1.279157e-01	 1.786736e+01
 1.325711e+00	 1.423649e-01	 1.784500e+01
 1.288886e+00	 1.384103e-01	 1.855927e+01
 1.287295e+00	 1.524959e-01	 1.852563e+01
 1.285544e+00	 1.666167e-01	 1.849000e+01
 1.283630e+00	 1.807703e-01	 1.845218e+01
 1.281553e+00	 1.949542e-01	 1.841210e+01
 1.279310e+00	 2.091658e-01	 1.836981e+01
 1.296251e+00	 1.392012e-01	 1.840896e+01
 1.294651e+00	 1.533673e-01	 1.837708e+01
 1.292890e+00	 1.675688e-01	 1.834321e+01
 1.290965e+00	 1.818033e-01	 1.830716e+01
 1.288876e+00	 1.960682e-01	 1.826881e+01
 1.286620e+00	 2.103610e-01	 1.822821e+01
 1.303616e+00	 1.399921e-01	 1.826244e+01
 1.302007e+00	 1.542387e-01	 1.823223e+01
 1.300236e+00	 1.685209e-01	 1.820002e+01
 1.298300e+00	 1.828362e-01	 1.816560e+01
 1.296199e+00	 1.971822e-01	 1.812886e+01
 1.293931e+00	 2.115562e-01	 1.808983e+01
 1.310981e+00	 1.407831e-01	 1.811966e+01
 1.309363e+00	 1.551101e-01	 1.809105e+01
 1.307582e+00	 1.694730e-01	 1.806040e+01
 1.305635e+00	 1.838692e-01	 1.802750e+01
 1.303522e+00	 1.982962e-01	 1.799225e+01
 1.301241e+00	 2.127515e-01	 1.795468e+01
 1.318346e+00	 1.415740e-01	 1.798053e+01
 1.316719e+00	 1.559815e-01	 1.795349e+01
 1.314928e+00	 1.704251e-01	 1.792433e+01
 1.312970e+00	 1.849022e-01	 1.789285e+01
 1.310845e+00	 1.994103e-01	 1.785897e+01
 1.308551e+00	 2.139467e-01	 1.782273e+01
 1.325711e+00	 1.423649e-01	 1.784500e+01
 1.324075e+00	 1.568529e-01	 1.781951e+01
 1.322274e+00	 1.713771e-01	 1.779177e+01
 1.320305e+00	 1.859351e-01	 1.776163e+01
 1.318168e+00	 2.005243e-01	 1.772901e+01
 1.315862e+00	 2.151419e-01	 1.769399e+01
 1.279310e+00	 2.091658e-01	 1.836981e+01
 1.276901e+00	 2.234024e-01	 1.832356e+01
 1.274324e+00	 2.376616e-01	 1.827137e+01
 1.271578e+00	 2.519404e-01	 1.821318e+01
 1.268662e+00	 2.662362e-01	 1.814920e+01
 1.265574e+00	 2.805461e-01	 1.807985e+01
 1.286620e+00	 2.103610e-01	 1.822821e+01
 1.284197e+00	 2.246790e-01	 1.818388e+01
 1.281606e+00	 2.390196e-01	 1.813407e+01
 1.278844e+00	 2.533800e-01	 1.807870e+01
 1.275911e+00	 2.677575e-01	 1.801791e+01
 1.272806e+00	 2.821492e-01	 1.795207e+01
 1.293931e+00	 2.115562e-01	 1.808983e+01
 1.291494e+00	 2.259556e-01	 1.804734e+01
 1.288887e+00	 2.403777e-01	 1.799988e+01
 1.286110e+00	 2.548197e-01	 1.794730e+01
 1.283161e+00	 2.692789e-01	 1.788965e+01
 1.280038e+00	 2.837523e-01	 1.782728e+01
 1.301241e+00	 2.127515e-01	 1.795468e+01
 1.298790e+00	 2.272322e-01	 1.791394e+01
 1.296169e+00	 2.417358e-01	 1.786880e+01
 1.293376e+00	 2.562594e-01	 1.781899e+01
 1.290410e+00	 2.708002e-01	 1.776449e+01
 1.287270e+00	 2.853554e-01	 1.770555e+01
 1.308551e+00	 2.139467e-01	 1.782273e+01
 1.306087e+00	 2.285088e-01	 1.778367e+01
 1.303451e+00	 2.430938e-01	 1.774082e+01
 1.300642e+00	 2.576990e-01	 1.769379e+01
 1.297660e+00	 2.723216e-01	 1.764245e+01
 1.294502e+00	 2.869586e-01	 1.758697e+01
 1.315862e+00	 2.151419e-01	 1.769399e+01
 1.313384e+00	 2.297854e-01	 1.765651e+01
 1.310733e+00	 2.444519e-01	 1.761594e+01
 1.307909e+00	 2.591387e-01	 1.757171e+01
 1.304909e+00	 2.738429e-01	 1.752359e+01
 1.301733e+00	 2.885617e-01	 1.747161e+01
 1.265574e+00	 2.805461e-01	 1.807985e+01
 1.262314e+00	 2.948673e-01	 1.800794e+01
 1.258881e+00	 3.091969e-01	 1.793721e+01
 1.255273e+00	 3.235321e-01	 1.786973e+01
 1.251490e+00	 3.378697e-01	 1.780774e+01
 1.247531e+00	 3.522068e-01	 1.775361e+01
 1.272806e+00	 2.821492e-01	 1.795207e+01
 1.269528e+00	 2.965523e-01	 1.788362e+01
 1.266075e+00	 3.109638e-01	 1.781591e+01
 1.262446e+00	 3.253808e-01	 1.775106e+01
 1.258642e+00	 3.398004e-01	 1.769137e+01
 1.254660e+00	 3.542194e-01	 1.763930e+01
 1.280038e+00	 2.837523e-01	 1.782728e+01
 1.276741e+00	 2.982372e-01	 1.776214e+01
 1.273268e+00	 3.127306e-01	 1.769725e+01
 1.269619e+00	 3.272296e-01	 1.763482e+01
 1.265793e+00	 3.417311e-01	 1.757724e+01
 1.261789e+00	 3.562320e-01	 1.752708e+01
 1.287270e+00	 2.853554e-01	 1.770555e+01
 1.283954e+00	 2.999222e-01	 1.764363e+01
 1.280462e+00	 3.144975e-01	 1.758137e+01
 1.276792e+00	 3.290783e-01	 1.752109e+01
 1.272944e+00	 3.436617e-01	 1.746535e+01
 1.268918e+00	 3.582446e-01	 1.741684e+01
 1.294502e+00	 2.869586e-01	 1.758697e+01
 1.291167e+00	 3.016071e-01	 1.752820e+01
 1.287655e+00	 3.162643e-01	 1.746835e+01
 1.283965e+00	 3.309271e-01	 1.740994e+01
 1.280096e+00	 3.455924e-01	 1.735569e+01
 1.276046e+00	 3.602572e-01	 1.730849e+01
 1.301733e+00	 2.885617e-01	 1.747161e+01
 1.298380e+00	 3.032921e-01	 1.741594e+01
 1.294849e+00	 3.180311e-01	 1.735830e+01
 1.291138e+00	 3.327758e-01	 1.730143e+01
 1.287247e+00	 3.475231e-01	 1.724825e+01
 1.283175e+00	 3.622699e-01	 1.720189e+01
 1.247531e+00	 3.522068e-01	 1.775361e+01
 1.243395e+00	 3.665404e-01	 1.767264e+01
 1.239082e+00	 3.808673e-01	 1.754949e+01
 1.234590e+00	 3.951845e-01	 1.743288e+01
 1.229920e+00	 4.094888e-01	 1.732896e+01
 1.225070e+00	 4.237771e-01	 1.724158e+01
 1.254660e+00	 3.542194e-01	 1.763930e+01
 1.250501e+00	 3.686349e-01	 1.755932e+01
 1.246162e+00	 3.830437e-01	 1.744267e+01
 1.241645e+00	 3.974427e-01	 1.733227e+01
 1.236948e+00	 4.118288e-01	 1.723279e+01
 1.232071e+00	 4.261987e-01	 1.714837e+01
 1.261789e+00	 3.562320e-01	 1.752708e+01
 1.257606e+00	 3.707294e-01	 1.744807e+01
 1.253243e+00	 3.852201e-01	 1.733902e+01
 1.248700e+00	 3.997009e-01	 1.723456e+01
 1.243976e+00	 4.141687e-01	 1.713914e+01
 1.239071e+00	 4.286202e-01	 1.705723e+01
 1.268918e+00	 3.582446e-01	 1.741684e+01
 1.264711e+00	 3.728239e-01	 1.733949e+01
 1.260323e+00	 3.873965e-01	 1.723822e+01
 1.255755e+00	 4.019591e-01	 1.713943e+01
 1.251004e+00	 4.165086e-01	 1.704783e+01
 1.246071e+00	 4.310418e-01	 1.696809e+01
 1.276046e+00	 3.602572e-01	 1.730849e+01
 1.271816e+00	 3.749184e-01	 1.723379e+01
 1.267404e+00	 3.895729e-01	 1.713995e+01
 1.262810e+00	 4.042173e-01	 1.704659e+01
 1.258032e+00	 4.188486e-01	 1.695861e+01
 1.253072e+00	 4.334634e-01	 1.688088e+01
 1.283175e+00	 3.622699e-01	 1.720189e+01
 1.278921e+00	 3.770130e-01	 1.713065e+01
 1.274484e+00	 3.917493e-01	 1.704385e+01
 1.269864e+00	 4.064755e-01	 1.695572e+01
 1.265060e+00	 4.211885e-01	 1.687126e+01
 1.260072e+00	 4.358850e-01	 1.679552e+01
 1.225070e+00	 4.237771e-01	 1.724158e+01
 1.220041e+00	 4.380460e-01	 1.715597e+01
 1.214832e+00	 4.522925e-01	 1.705681e+01
 1.209442e+00	 4.665132e-01	 1.694697e+01
 1.203872e+00	 4.807048e-01	 1.682925e+01
 1.198121e+00	 4.948641e-01	 1.670635e+01
 1.232071e+00	 4.261987e-01	 1.714837e+01
 1.227013e+00	 4.405491e-01	 1.706549e+01
 1.221773e+00	 4.548770e-01	 1.696975e+01
 1.216353e+00	 4.691790e-01	 1.686394e+01
 1.210751e+00	 4.834517e-01	 1.675084e+01
 1.204967e+00	 4.976919e-01	 1.663315e+01
 1.239071e+00	 4.286202e-01	 1.705723e+01
 1.233984e+00	 4.430523e-01	 1.697658e+01
 1.228715e+00	 4.574615e-01	 1.688390e+01
 1.223264e+00	 4.718447e-01	 1.678198e+01
 1.217630e+00	 4.861986e-01	 1.667362e+01
 1.211814e+00	 5.005197e-01	 1.656157e+01
 1.246071e+00	 4.310418e-01	 1.696809e+01
 1.240956e+00	 4.455554e-01	 1.688931e+01
 1.235657e+00	 4.600461e-01	 1.679937e+01
 1.230175e+00	 4.745105e-01	 1.670112e+01
 1.224509e+00	 4.889455e-01	 1.659744e+01
 1.218660e+00	 5.033475e-01	 1.649115e+01
 1.253072e+00	 4.334634e-01	 1.688088e+01
 1.247928e+00	 4.480585e-01	 1.680374e+01
 1.242599e+00	 4.626306e-01	 1.671625e+01
 1.237086e+00	 4.771763e-01	 1.662138e+01
 1.231389e+00	 4.916924e-01	 1.652212e+01
 1.225506e+00	 5.061753e-01	 1.642141e+01
 1.260072e+00	 4.358850e-01	 1.679552e+01
 1.254899e+00	 4.505616e-01	 1.671992e+01
 1.249541e+00	 4.652151e-01	 1.663461e+01
 1.243997e+00	 4.798421e-01	 1.654274e+01
 1.238268e+00	 4.944392e-01	 1.644747e+01
 1.232353e+00	 5.090031e-01	 1.635188e+01
 1.198121e+00	 4.948641e-01	 1.670635e+01
 1.192189e+00	 5.089878e-01	 1.657983e+01
 1.186077e+00	 5.230724e-01	 1.645005e+01
 1.179785e+00	 5.371148e-01	 1.631748e+01
 1.173312e+00	 5.511114e-01	 1.618208e+01
 1.166659e+00	 5.650590e-01	 1.604328e+01
 1.204967e+00	 4.976919e-01	 1.663315e+01
 1.199002e+00	 5.118963e-01	 1.651161e+01
 1.192855e+00	 5.260614e-01	 1.638598e+01
 1.186526e+00	 5.401840e-01	 1.625703e+01
 1.180016e+00	 5.542606e-01	 1.612503e+01
 1.173325e+00	 5.682879e-01	 1.598965e+01
 1.211814e+00	 5.005197e-01	 1.656157e+01
 1.205814e+00	 5.148048e-01	 1.644550e+01
 1.199632e+00	 5.290504e-01	 1.632423e+01
 1.193268e+00	 5.432532e-01	 1.619883e+01
 1.186721e+00	 5.574098e-01	 1.606980e+01
 1.179992e+00	 5.715168e-01	 1.593707e+01
 1.218660e+00	 5.033475e-01	 1.649115e+01
 1.212627e+00	 5.177133e-01	 1.638075e+01
 1.206410e+00	 5.320394e-01	 1.626397e+01
 1.200010e+00	 5.463225e-01	 1.614211e+01
 1.193426e+00	 5.605590e-01	 1.601588e+01
 1.186659e+00	 5.747457e-01	 1.588544e+01
 1.225506e+00	 5.061753e-01	 1.642141e+01
 1.219439e+00	 5.206218e-01	 1.631662e+01
 1.213188e+00	 5.350284e-01	 1.620436e+01
 1.206751e+00	 5.493917e-01	 1.608610e+01
 1.200130e+00	 5.637082e-01	 1.596275e+01
 1.193325e+00	 5.779746e-01	 1.583468e+01
 1.232353e+00	 5.090031e-01	 1.635188e+01
 1.226252e+00	 5.235303e-01	 1.625238e+01
 1.219965e+00	 5.380174e-01	 1.614457e+01
 1.213493e+00	 5.524609e-01	 1.603005e+01
 1.206835e+00	 5.668575e-01	 1.590989e+01
 1.199992e+00	 5.812035e-01	 1.578466e+01
 1.166659e+00	 5.650590e-01	 1.604328e+01
 1.159826e+00	 5.789541e-01	 1.590186e+01
 1.152814e+00	 5.927935e-01	 1.575840e+01
 1.145623e+00	 6.065737e-01	 1.561099e+01
 1.138254e+00	 6.202913e-01	 1.545692e+01
 1.130708e+00	 6.339429e-01	 1.529262e+01
 1.173325e+00	 5.682879e-01	 1.598965e+01
 1.166454e+00	 5.822625e-01	 1.585212e+01
 1.159401e+00	 5.961809e-01	 1.571331e+01
 1.152170e+00	 6.100398e-01	 1.557130e+01
 1.144759e+00	 6.238358e-01	 1.542346e+01
 1.137169e+00	 6.375654e-01	 1.526629e+01
 1.179992e+00	 5.715168e-01	 1.593707e+01
 1.173081e+00	 5.855708e-01	 1.580264e+01
 1.165989e+00	 5.995683e-01	 1.566802e+01
 1.158716e+00	 6.135059e-01	 1.553137e+01
 1.151263e+00	 6.273803e-01	 1.539010e+01
 1.143630e+00	 6.411880e-01	 1.524079e+01
 1.186659e+00	 5.747457e-01	 1.588544e+01
 1.179709e+00	 5.888791e-01	 1.575369e+01
 1.172576e+00	 6.029557e-01	 1.562293e+01
 1.165262e+00	 6.169721e-01	 1.549139e+01
 1.157767e+00	 6.309248e-01	 1.535655e+01
 1.150092e+00	 6.448105e-01	 1.521508e+01
 1.193325e+00	 5.779746e-01	 1.583468e+01
 1.186336e+00	 5.921874e-01	 1.570555e+01
 1.179164e+00	 6.063431e-01	 1.557837e+01
 1.171809e+00	 6.204382e-01	 1.545152e+01
 1.164272e+00	 6.344693e-01	 1.532254e+01
 1.156553e+00	 6.484330e-01	 1.518815e+01
 1.199992e+00	 5.812035e-01	 1.578466e+01
 1.192964e+00	 5.954957e-01	 1.565845e+01
 1.185751e+00	 6.097304e-01	 1.553470e+01
 1.178355e+00	 6.239043e-01	 1.541192e+01
 1.170776e+00	 6.380139e-01	 1.528777e+01
 1.163014e+00	 6.520556e-01	 1.515897e+01
 1.130708e+00	 6.339429e-01	 1.529262e+01
 1.122985e+00	 6.475253e-01	 1.513123e+01
 1.115086e+00	 6.610350e-01	 1.498206e+01
 1.107012e+00	 6.744686e-01	 1.483140e+01
 1.098765e+00	 6.878230e-01	 1.465290e+01
 1.090344e+00	 7.010946e-01	 1.443129e+01
 1.137169e+00	 6.375654e-01	 1.526629e+01
 1.129402e+00	 6.512254e-01	 1.511025e+01
 1.121458e+00	 6.648123e-01	 1.496205e+01
 1.113338e+00	 6.783228e-01	 1.481059e+01
 1.105043e+00	 6.917534e-01	 1.463808e+01
 1.096575e+00	 7.051009e-01	 1.441797e+01
 1.143630e+00	 6.411880e-01	 1.524079e+01
 1.135819e+00	 6.549256e-01	 1.509111e+01
 1.127830e+00	 6.685897e-01	 1.494511e+01
 1.119664e+00	 6.821769e-01	 1.479199e+01
 1.111322e+00	 6.956838e-01	 1.461920e+01
 1.102805e+00	 7.091071e-01	 1.440370e+01
 1.150092e+00	 6.448105e-01	 1.521508e+01
 1.142236e+00	 6.586257e-01	 1.507204e+01
 1.134202e+00	 6.723670e-01	 1.492903e+01
 1.125990e+00	 6.860310e-01	 1.477564e+01
 1.117601e+00	 6.996142e-01	 1.459972e+01
 1.109036e+00	 7.131134e-01	 1.438684e+01
 1.156553e+00	 6.484330e-01	 1.518815e+01
 1.148653e+00	 6.623259e-01	 1.505128e+01
 1.140574e+00	 6.761443e-01	 1.491165e+01
 1.132315e+00	 6.898851e-01	 1.475924e+01
 1.123879e+00	 7.035446e-01	 1.458243e+01
 1.115266e+00	 7.171197e-01	 1.436789e+01
 1.163014e+00	 6.520556e-01	 1.515897e+01
 1.155070e+00	 6.660260e-01	 1.502712e+01
 1.146946e+00	 6.799217e-01	 1.489083e+01
 1.138641e+00	 6.937392e-01	 1.474055e+01
 1.130158e+00	 7.074751e-01	 1.456524e+01
 1.121497e+00	 7.211259e-01	 1.435230e+01
 1.090344e+00	 7.010946e-01	 1.443129e+01
 1.081752e+00	 7.142803e-01	 1.420934e+01
 1.072990e+00	 7.273768e-01	 1.403662e+01
 1.064059e+00	 7.403807e-01	 1.391000e+01
 1.054960e+00	 7.532889e-01	 1.377304e+01
 1.045695e+00	 7.660982e-01	 1.357126e+01
 1.096575e+00	 7.051009e-01	 1.441797e+01
 1.087934e+00	 7.183619e-01	 1.419933e+01
 1.079121e+00	 7.315332e-01	 1.403887e+01
 1.070139e+00	 7.446114e-01	 1.392827e+01
 1.060988e+00	 7.575934e-01	 1.378233e+01
 1.051670e+00	 7.704759e-01	 1.357970e+01
 1.102805e+00	 7.091071e-01	 1.440370e+01
 1.094115e+00	 7.224435e-01	 1.419183e+01
 1.085253e+00	 7.356896e-01	 1.404711e+01
 1.076219e+00	 7.488422e-01	 1.394295e+01
 1.067016e+00	 7.618979e-01	 1.378992e+01
 1.057646e+00	 7.748536e-01	 1.358784e+01
 1.109036e+00	 7.131134e-01	 1.438684e+01
 1.100296e+00	 7.265251e-01	 1.418578e+01
 1.091384e+00	 7.398461e-01	 1.406071e+01
 1.082300e+00	 7.530729e-01	 1.395319e+01
 1.073045e+00	 7.662024e-01	 1.379505e+01
 1.063621e+00	 7.792313e-01	 1.359485e+01
 1.115266e+00	 7.171197e-01	 1.436789e+01
 1.106478e+00	 7.306067e-01	 1.418010e+01
 1.097515e+00	 7.440025e-01	 1.407498e+01
 1.088380e+00	 7.573037e-01	 1.395814e+01
 1.079073e+00	 7.705069e-01	 1.379700e+01
 1.069596e+00	 7.836090e-01	 1.359991e+01
 1.121497e+00	 7.211259e-01	 1.435230e+01
 1.112659e+00	 7.346883e-01	 1.417389e+01
 1.103647e+00	 7.481590e-01	 1.408039e+01
 1.094460e+00	 7.615344e-01	 1.395700e+01
 1.085101e+00	 7.748114e-01	 1.379504e+01
 1.075572e+00	 7.879867e-01	 1.360220e+01
 1.045695e+00	 7.660982e-01	 1.357126e+01
 1.036266e+00	 7.788053e-01	 1.334055e+01
 1.026674e+00	 7.914072e-01	 1.311242e+01
 1.016921e+00	 8.039008e-01	 1.289221e+01
 1.007009e+00	 8.162830e-01	 1.268662e+01
 9.969392e-01	 8.285508e-01	 1.250363e+01
 1.051670e+00	 7.704759e-01	 1.357970e+01
 1.042187e+00	 7.832556e-01	 1.335294e+01
 1.032540e+00	 7.959296e-01	 1.312975e+01
 1.022732e+00	 8.084945e-01	 1.291481e+01
 1.012763e+00	 8.209475e-01	 1.271422e+01
 1.002636e+00	 8.332854e-01	 1.253537e+01
 1.057646e+00	 7.748536e-01	 1.358784e+01
 1.048109e+00	 7.877060e-01	 1.336589e+01
 1.038407e+00	 8.004519e-01	 1.314803e+01
 1.028543e+00	 8.130883e-01	 1.293840e+01
 1.018517e+00	 8.256120e-01	 1.274255e+01
 1.008333e+00	 8.380199e-01	 1.256740e+01
 1.063621e+00	 7.792313e-01	 1.359485e+01
 1.054030e+00	 7.921563e-01	 1.337840e+01
 1.044274e+00	 8.049742e-01	 1.316616e+01
 1.034354e+00	 8.176820e-01	 1.296178e+01
 1.024272e+00	 8.302764e-01	 1.277038e+01
 1.014030e+00	 8.427545e-01	 1.259846e+01
 1.069596e+00	 7.836090e-01	 1.359991e+01
 1.059952e+00	 7.966066e-01	 1.338948e+01
 1.050140e+00	 8.094966e-01	 1.318302e+01
 1.040165e+00	 8.222757e-01	 1.298377e+01
 1.030026e+00	 8.349409e-01	 1.279648e+01
 1.019726e+00	 8.474891e-01	 1.262735e+01
 1.075572e+00	 7.879867e-01	 1.360220e+01
 1.065873e+00	 8.010569e-01	 1.339817e+01
 1.056007e+00	 8.140189e-01	 1.319755e+01
 1.045975e+00	 8.268694e-01	 1.300322e+01
 1.035780e+00	 8.396054e-01	 1.281967e+01
 1.025423e+00	 8.522237e-01	 1.265287e+01
 9.969392e-01	 8.285508e-01	 1.250363e+01
 9.867146e-01	 8.407012e-01	 1.231659e+01
 9.763368e-01	 8.527312e-01	 1.210193e+01
 9.658080e-01	 8.646381e-01	 1.187394e+01
 9.551303e-01	 8.764189e-01	 1.164788e+01
 9.443061e-01	 8.880710e-01	 1.143983e+01
 1.002636e+00	 8.332854e-01	 1.253537e+01
 9.923529e-01	 8.455052e-01	 1.235143e+01
 9.819159e-01	 8.576040e-01	 1.213925e+01
 9.713269e-01	 8.695789e-01	 1.191354e+01
 9.605882e-01	 8.814270e-01	 1.169005e+01
 9.497021e-01	 8.931457e-01	 1.148538e+01
 1.008333e+00	 8.380199e-01	 1.256740e+01
 9.979913e-01	 8.503092e-01	 1.238612e+01
 9.874949e-01	 8.624767e-01	 1.217615e+01
 9.768458e-01	 8.745197e-01	 1.195260e+01
 9.660461e-01	 8.864352e-01	 1.173167e+01
 9.550982e-01	 8.982204e-01	 1.153049e+01
 1.014030e+00	 8.427545e-01	 1.259846e+01
 1.003630e+00	 8.551132e-01	 1.241944e+01
 9.930740e-01	 8.673495e-01	 1.221142e+01
 9.823647e-01	 8.794605e-01	 1.198991e+01
 9.715040e-01	 8.914433e-01	 1.177156e+01
 9.604942e-01	 9.032951e-01	 1.157402e+01
 1.019726e+00	 8.474891e-01	 1.262735e+01
 1.009268e+00	 8.599172e-01	 1.245018e+01
 9.986531e-01	 8.722222e-01	 1.224388e+01
 9.878836e-01	 8.844012e-01	 1.202432e+01
 9.769619e-01	 8.964514e-01	 1.180859e+01
 9.658902e-01	 9.083697e-01	 1.161484e+01
 1.025423e+00	 8.522237e-01	 1.265287e+01
 1.014906e+00	 8.647212e-01	 1.247718e+01
 1.004232e+00	 8.770950e-01	 1.227237e+01
 9.934025e-01	 8.893420e-01	 1.205469e+01
 9.824198e-01	 9.014595e-01	 1.184164e+01
 9.712863e-01	 9.134444e-01	 1.165185e+01
 9.443061e-01	 8.880710e-01	 1.143983e+01
 9.333377e-01	 8.995915e-01	 1.123020e+01
 9.222274e-01	 9.109779e-01	 1.099781e+01
 9.109779e-01	 9.222274e-01	 1.075705e+01
 8.995915e-01	 9.333377e-01	 1.052238e+01
 8.880710e-01	 9.443061e-01	 1.030814e+01
 9.497021e-01	 8.931457e-01	 1.148538e+01
 9.386710e-01	 9.047320e-01	 1.127941e+01
 9.274973e-01	 9.161834e-01	 1.105010e+01
 9.161834e-01	 9.274973e-01	 1.081195e+01
 9.047320e-01	 9.386710e-01	 1.057949e+01
 8.931457e-01	 9.497021e-01	 1.036716e+01
 9.550982e-01	 8.982204e-01	 1.153049e+01
 9.440044e-01	 9.098726e-01	 1.132832e+01
 9.327672e-01	 9.213890e-01	 1.110219e+01
 9.213890e-01	 9.327672e-01	 1.086668e+01
 9.098726e-01	 9.440044e-01	 1.063644e+01
 8.982204e-01	 9.550982e-01	 1.042604e+01
 9.604942e-01	 9.032951e-01	 1.157402e+01
 9.493377e-01	 9.150131e-01	 1.137580e+01
 9.380370e-01	 9.265946e-01	 1.115291e+01
 9.265946e-01	 9.380370e-01	 1.092006e+01
 9.150131e-01	 9.493377e-01	 1.069202e+01
 9.032951e-01	 9.604942e-01	 1.048347e+01
 9.658902e-01	 9.083697e-01	 1.161484e+01
 9.546711e-01	 9.201536e-01	 1.142073e+01
 9.433069e-01	 9.318002e-01	 1.120115e+01
 9.318002e-01	 9.433069e-01	 1.097094e+01
 9.201536e-01	 9.546711e-01	 1.074501e+01
 9.083697e-01	 9.658902e-01	 1.053819e+01
 9.712863e-01	 9.134444e-01	 1.165185e+01
 9.600045e-01	 9.252941e-01	 1.146202e+01
 9.485768e-01	 9.370058e-01	 1.124581e+01
 9.370058e-01	 9.485768e-01	 1.101820e+01
 9.252941e-01	 9.600045e-01	 1.079425e+01
 9.134444e-01	 9.712863e-01	 1.058894e+01
 8.880710e-01	 9.443061e-01	 1.030814e+01
 8.764189e-01	 9.551303e-01	 1.009326e+01
 8.646381e-01	 9.658080e-01	 9.857239e+00
 8.527312e-01	 9.763368e-01	 9.614591e+00
 8.407012e-01	 9.867146e-01	 9.378979e+00
 8.285508e-01	 9.969392e-01	 9.163071e+00
 8.931457e-01	 9.497021e-01	 1.036716e+01
 8.814270e-01	 9.605882e-01	 1.015373e+01
 8.695789e-01	 9.713269e-01	 9.918763e+00
 8.576040e-01	 9.819159e-01	 9.677223e+00
 8.455052e-01	 9.923529e-01	 9.443219e+00
 8.332854e-01	 1.002636e+00	 9.229837e+00
 8.982204e-01	 9.550982e-01	 1.042604e+01
 8.864352e-01	 9.660461e-01	 1.021409e+01
 8.745197e-01	 9.768458e-01	 9.980244e+00
 8.624767e-01	 9.874949e-01	 9.739895e+00
 8.503092e-01	 9.979913e-01	 9.507566e+00
 8.380199e-01	 1.008333e+00	 9.296738e+00
 9.032951e-01	 9.604942e-01	 1.048347e+01
 8.914433e-01	 9.715040e-01	 1.027296e+01
 8.794605e-01	 9.823647e-01	 1.004026e+01
 8.673495e-01	 9.930740e-01	 9.801141e+00
 8.551132e-01	 1.003630e+00	 9.570529e+00
 8.427545e-01	 1.014030e+00	 9.362274e+00
 9.083697e-01	 9.658902e-01	 1.053819e+01
 8.964514e-01	 9.769619e-01	 1.032901e+01
 8.844012e-01	 9.878836e-01	 1.009740e+01
 8.722222e-01	 9.986531e-01	 9.859510e+00
 8.599172e-01	 1.009268e+00	 9.630627e+00
 8.474891e-01	 1.019726e+00	 9.424955e+00
 9.134444e-01	 9.712863e-01	 1.058894e+01
 9.014595e-01	 9.824198e-01	 1.038091e+01
 8.893420e-01	 9.934025e-01	 1.015028e+01
 8.770950e-01	 1.004232e+00	 9.913566e+00
 8.647212e-01	 1.014906e+00	 9.686397e+00
 8.522237e-01	 1.025423e+00	 9.483302e+00
 8.285508e-01	 9.969392e-01	 9.163071e+00
 8.162830e-01	 1.007009e+00	 8.949006e+00
 8.039008e-01	 1.016921e+00	 8.716372e+00
 7.914072e-01	 1.026674e+00	 8.471996e+00
 7.788053e-01	 1.036266e+00	 8.221053e+00
 7.660982e-01	 1.045695e+00	 7.966942e+00
 8.332854e-01	 1.002636e+00	 9.229837e+00
 8.209475e-01	 1.012763e+00	 9.019022e+00
 8.084945e-01	 1.022732e+00	 8.789666e+00
 7.959296e-01	 1.032540e+00	 8.548212e+00
 7.832556e-01	 1.042187e+00	 8.299388e+00
 7.704759e-01	 1.051670e+00	 8.046083e+00
 8.380199e-01	 1.008333e+00	 9.296738e+00
 8.256120e-01	 1.018517e+00	 9.089062e+00
 8.130883e-01	 1.028543e+00	 8.862695e+00
 8.004519e-01	 1.038407e+00	 8.623740e+00
 7.877060e-01	 1.048109e+00	 8.376529e+00
 7.748536e-01	 1.057646e+00	 8.123485e+00
 8.427545e-01	 1.014030e+00	 9.362274e+00
 8.302764e-01	 1.024272e+00	 9.157616e+00
 8.176820e-01	 1.034354e+00	 8.933903e+00
 8.049742e-01	 1.044274e+00	 8.696959e+00
 7.921563e-01	 1.054030e+00	 8.450761e+00
 7.792313e-01	 1.063621e+00	 8.197306e+00
 8.474891e-01	 1.019726e+00	 9.424955e+00
 8.349409e-01	 1.030026e+00	 9.223176e+00
 8.222757e-01	 1.040165e+00	 9.001746e+00
 8.094966e-01	 1.050140e+00	 8.766252e+00
 7.966066e-01	 1.059952e+00	 8.520368e+00
 7.836090e-01	 1.069596e+00	 8.265707e+00
 8.522237e-01	 1.025423e+00	 9.483302e+00
 8.396054e-01	 1.035780e+00	 9.284249e+00
 8.268694e-01	 1.045975e+00	 9.064682e+00
 8.140189e-01	 1.056007e+00	 8.830008e+00
 8.010569e-01	 1.065873e+00	 8.583641e+00
 7.879867e-01	 1.075572e+00	 8.326857e+00
 7.660982e-01	 1.045695e+00	 7.966942e+00
 7.532889e-01	 1.054960e+00	 7.731896e+00
 7.403807e-01	 1.064059e+00	 7.527581e+00
 7.273768e-01	 1.072990e+00	 7.331429e+00
 7.142803e-01	 1.081752e+00	 7.115628e+00
 7.010946e-01	 1.090344e+00	 6.854914e+00
 7.704759e-01	 1.051670e+00	 8.046083e+00
 7.575934e-01	 1.060988e+00	 7.808102e+00
 7.446114e-01	 1.070139e+00	 7.596694e+00
 7.315332e-01	 1.079121e+00	 7.395394e+00
 7.183619e-01	 1.087934e+00	 7.176936e+00
 7.051009e-01	 1.096575e+00	 6.917964e+00
 7.748536e-01	 1.057646e+00	 8.123485e+00
 7.618979e-01	 1.067016e+00	 7.882633e+00
 7.488422e-01	 1.076219e+00	 7.665814e+00
 7.356896e-01	 1.085253e+00	 7.461840e+00
 7.224435e-01	 1.094115e+00	 7.247095e+00
 7.091071e-01	 1.102805e+00	 6.999665e+00
 7.792313e-01	 1.063621e+00	 8.197306e+00
 7.662024e-01	 1.073045e+00	 7.953628e+00
 7.530729e-01	 1.082300e+00	 7.733303e+00
 7.398461e-01	 1.091384e+00	 7.529671e+00
 7.265251e-01	 1.100296e+00	 7.325681e+00
 7.131134e-01	 1.109036e+00	 7.100466e+00
 7.836090e-01	 1.069596e+00	 8.265707e+00
 7.705069e-01	 1.079073e+00	 8.019230e+00
 7.573037e-01	 1.088380e+00	 7.797509e+00
 7.440025e-01	 1.097515e+00	 7.598128e+00
 7.306067e-01	 1.106478e+00	 7.412228e+00
 7.171197e-01	 1.115266e+00	 7.207135e+00
 7.879867e-01	 1.075572e+00	 8.326857e+00
 7.748114e-01	 1.085101e+00	 8.077581e+00
 7.615344e-01	 1.094460e+00	 7.856775e+00
 7.481590e-01	 1.103647e+00	 7.666804e+00
 7.346883e-01	 1.112659e+00	 7.504437e+00
 7.211259e-01	 1.121497e+00	 7.276764e+00
 7.010946e-01	 1.090344e+00	 6.854914e+00
 6.878230e-01	 1.098765e+00	 6.585603e+00
 6.744686e-01	 1.107012e+00	 6.368488e+00
 6.610350e-01	 1.115086e+00	 6.199093e+00
 6.475253e-01	 1.122985e+00	 5.998721e+00
 6.339429e-01	 1.130708e+00	 5.761143e+00
 7.051009e-01	 1.096575e+00	 6.917964e+00
 6.917534e-01	 1.105043e+00	 6.663678e+00
 6.783228e-01	 1.113338e+00	 6.477378e+00
 6.648123e-01	 1.121458e+00	 6.284938e+00
 6.512254e-01	 1.129402e+00	 6.061788e+00
 6.375654e-01	 1.137169e+00	 5.816067e+00
 7.091071e-01	 1.102805e+00	 6.999665e+00
 6.956838e-01	 1.111322e+00	 6.773281e+00
 6.821769e-01	 1.119664e+00	 6.577482e+00
 6.685897e-01	 1.127830e+00	 6.359542e+00
 6.549256e-01	 1.135819e+00	 6.123988e+00
 6.411880e-01	 1.143630e+00	 5.876922e+00
 7.131134e-01	 1.109036e+00	 7.100466e+00
 6.996142e-01	 1.117601e+00	 6.880804e+00
 6.860310e-01	 1.125990e+00	 6.657253e+00
 6.723670e-01	 1.134202e+00	 6.425819e+00
 6.586257e-01	 1.142236e+00	 6.187468e+00
 6.448105e-01	 1.150092e+00	 5.944680e+00
 7.171197e-01	 1.115266e+00	 7.207135e+00
 7.035446e-01	 1.123879e+00	 6.958216e+00
 6.898851e-01	 1.132315e+00	 6.719907e+00
 6.761443e-01	 1.140574e+00	 6.486671e+00
 6.623259e-01	 1.148653e+00	 6.254382e+00
 6.484330e-01	 1.156553e+00	 6.020338e+00
 7.211259e-01	 1.121497e+00	 7.276764e+00
 7.074751e-01	 1.130158e+00	 7.008573e+00
 6.937392e-01	 1.138641e+00	 6.768641e+00
 6.799217e-01	 1.146946e+00	 6.544983e+00
 6.660260e-01	 1.155070e+00	 6.326885e+00
 6.520556e-01	 1.163014e+00	 6.104923e+00
 6.339429e-01	 1.130708e+00	 5.761143e+00
 6.202913e-01	 1.138254e+00	 5.521180e+00
 6.065737e-01	 1.145623e+00	 5.301409e+00
 5.927935e-01	 1.152814e+00	 5.094020e+00
 5.789541e-01	 1.159826e+00	 4.892286e+00
 5.650590e-01	 1.166659e+00	 4.690552e+00
 6.375654e-01	 1.137169e+00	 5.816067e+00
 6.238358e-01	 1.144759e+00	 5.578957e+00
 6.100398e-01	 1.152170e+00	 5.367505e+00
 5.961809e-01	 1.159401e+00	 5.170628e+00
 5.822625e-01	 1.166454e+00	 4.978305e+00
 5.682879e-01	 1.173325e+00	 4.781570e+00
 6.411880e-01	 1.143630e+00	 5.876922e+00
 6.273803e-01	 1.151263e+00	 5.644665e+00
 6.135059e-01	 1.158716e+00	 5.439647e+00
 5.995683e-01	 1.165989e+00	 5.249112e+00
 5.855708e-01	 1.173081e+00	 5.061378e+00
 5.715168e-01	 1.179992e+00	 4.865830e+00
 6.448105e-01	 1.150092e+00	 5.944680e+00
 6.309248e-01	 1.157767e+00	 5.718141e+00
 6.169721e-01	 1.165262e+00	 5.517002e+00
 6.029557e-01	 1.172576e+00	 5.328407e+00
 5.888791e-01	 1.179709e+00	 5.140619e+00
 5.747457e-01	 1.186659e+00	 4.943009e+00
 6.484330e-01	 1.156553e+00	 6.020338e+00
 6.344693e-01	 1.164272e+00	 5.799272e+00
 6.204382e-01	 1.171809e+00	 5.598804e+00
 6.063431e-01	 1.179164e+00	 5.407521e+00
 5.921874e-01	 1.186336e+00	 5.215207e+00
 5.779746e-01	 1.193325e+00	 5.012833e+00
 6.520556e-01	 1.163014e+00	 6.104923e+00
 6.380139e-01	 1.170776e+00	 5.888000e+00
 6.239043e-01	 1.178355e+00	 5.684352e+00
 6.097304e-01	 1.185751e+00	 5.485528e+00
 5.954957e-01	 1.192964e+00	 5.284387e+00
 5.812035e-01	 1.199992e+00	 5.075079e+00
 5.650590e-01	 1.166659e+00	 4.690552e+00
 5.511114e-01	 1.173312e+00	 4.491024e+00
 5.371148e-01	 1.179785e+00	 4.296565e+00
 5.230724e-01	 1.186077e+00	 4.104022e+00
 5.089878e-01	 1.192189e+00	 3.911165e+00
 4.948641e-01	 1.198121e+00	 3.716641e+00
 5.682879e-01	 1.173325e+00	 4.781570e+00
 5.542606e-01	 1.180016e+00	 4.580648e+00
 5.401840e-01	 1.186526e+00	 4.380254e+00
 5.260614e-01	 1.192855e+00	 4.179700e+00
 5.118963e-01	 1.199002e+00	 3.979286e+00
 4.976919e-01	 1.204967e+00	 3.780241e+00
 5.715168e-01	 1.179992e+00	 4.865830e+00
 5.574098e-01	 1.186721e+00	 4.662412e+00
 5.432532e-01	 1.193268e+00	 4.457562e+00
 5.290504e-01	 1.199632e+00	 4.252014e+00
 5.148048e-01	 1.205814e+00	 4.047529e+00
 5.005197e-01	 1.211814e+00	 3.846839e+00
 5.747457e-01	 1.186659e+00	 4.943009e+00
 5.605590e-01	 1.193426e+00	 4.736578e+00
 5.463225e-01	 1.200010e+00	 4.529050e+00
 5.320394e-01	 1.206410e+00	 4.321545e+00
 5.177133e-01	 1.212627e+00	 4.116243e+00
 5.033475e-01	 1.218660e+00	 3.916312e+00
 5.779746e-01	 1.193325e+00	 5.012833e+00
 5.637082e-01	 1.200130e+00	 4.803448e+00
 5.493917e-01	 1.206751e+00	 4.595305e+00
 5.350284e-01	 1.213188e+00	 4.388901e+00
 5.206218e-01	 1.219439e+00	 4.185803e+00
 5.061753e-01	 1.225506e+00	 3.988576e+00
 5.812035e-01	 1.199992e+00	 5.075079e+00
 5.668575e-01	 1.206835e+00	 4.863358e+00
 5.524609e-01	 1.213493e+00	 4.656943e+00
 5.380174e-01	 1.219965e+00	 4.454715e+00
 5.235303e-01	 1.226252e+00	 4.256616e+00
 5.090031e-01	 1.232353e+00	 4.063584e+00
 4.948641e-01	 1.198121e+00	 3.716641e+00
 4.807048e-01	 1.203872e+00	 3.528519e+00
 4.665132e-01	 1.209442e+00	 3.353119e+00
 4.522925e-01	 1.214832e+00	 3.187582e+00
 4.380460e-01	 1.220041e+00	 3.029650e+00
 4.237771e-01	 1.225070e+00	 2.877596e+00
 4.976919e-01	 1.204967e+00	 3.780241e+00
 4.834517e-01	 1.210751e+00	 3.592025e+00
 4.691790e-01	 1.216353e+00	 3.419386e+00
 4.548770e-01	 1.221773e+00	 3.257627e+00
 4.405491e-01	 1.227013e+00	 3.102641e+00
 4.261987e-01	 1.232071e+00	 2.950853e+00
 5.005197e-01	 1.211814e+00	 3.846839e+00
 4.861986e-01	 1.217630e+00	 3.659638e+00
 4.718447e-01	 1.223264e+00	 3.489130e+00
 4.574615e-01	 1.228715e+00	 3.329471e+00
 4.430523e-01	 1.233984e+00	 3.175415e+00
 4.286202e-01	 1.239071e+00	 3.022244e+00
 5.033475e-01	 1.218660e+00	 3.916312e+00
 4.889455e-01	 1.224509e+00	 3.730749e+00
 4.745105e-01	 1.230175e+00	 3.561439e+00
 4.600461e-01	 1.235657e+00	 3.402072e+00
 4.455554e-01	 1.240956e+00	 3.246953e+00
 4.310418e-01	 1.246071e+00	 3.090927e+00
 5.061753e-01	 1.225506e+00	 3.988576e+00
 4.916924e-01	 1.231389e+00	 3.804798e+00
 4.771763e-01	 1.237086e+00	 3.635451e+00
 4.626306e-01	 1.242599e+00	 3.474436e+00
 4.480585e-01	 1.247928e+00	 3.316285e+00
 4.334634e-01	 1.253072e+00	 3.156099e+00
 5.090031e-01	 1.232353e+00	 4.063584e+00
 4.944392e-01	 1.238268e+00	 3.881266e+00
 4.798421e-01	 1.243997e+00	 3.710355e+00
 4.652151e-01	 1.249541e+00	 3.545617e+00
 4.505616e-01	 1.254899e+00	 3.382488e+00
 4.358850e-01	 1.260072e+00	 3.216997e+00
 4.237771e-01	 1.225070e+00	 2.877596e+00
 4.094888e-01	 1.229920e+00	 2.715178e+00
 3.951845e-01	 1.234590e+00	 2.537861e+00
 3.808673e-01	 1.239082e+00	 2.362060e+00
 3.665404e-01	 1.243395e+00	 2.204252e+00
 3.522068e-01	 1.247531e+00	 2.083307e+00
 4.261987e-01	 1.232071e+00	 2.950853e+00
 4.118288e-01	 1.236948e+00	 2.785852e+00
 3.974427e-01	 1.241645e+00	 2.605072e+00
 3.830437e-01	 1.246162e+00	 2.426282e+00
 3.686349e-01	 1.250501e+00	 2.267427e+00
 3.542194e-01	 1.254660e+00	 2.147022e+00
 4.286202e-01	 1.239071e+00	 3.022244e+00
 4.141687e-01	 1.243976e+00	 2.854146e+00
 3.997009e-01	 1.248700e+00	 2.670484e+00
 3.852201e-01	 1.253243e+00	 2.489906e+00
 3.707294e-01	 1.257606e+00	 2.331276e+00
 3.562320e-01	 1.261789e+00	 2.212981e+00
 4.310418e-01	 1.246071e+00	 3.090927e+00
 4.165086e-01	 1.251004e+00	 2.919396e+00
 4.019591e-01	 1.255755e+00	 2.733494e+00
 3.873965e-01	 1.260323e+00	 2.552273e+00
 3.728239e-01	 1.264711e+00	 2.395002e+00
 3.582446e-01	 1.268918e+00	 2.280023e+00
 4.334634e-01	 1.253072e+00	 3.156099e+00
 4.188486e-01	 1.258032e+00	 2.980974e+00
 4.042173e-01	 1.262810e+00	 2.793527e+00
 3.895729e-01	 1.267404e+00	 2.612753e+00
 3.749184e-01	 1.271816e+00	 2.457858e+00
 3.602572e-01	 1.276046e+00	 2.347011e+00
 4.358850e-01	 1.260072e+00	 3.216997e+00
 4.211885e-01	 1.265060e+00	 3.038283e+00
 4.064755e-01	 1.269864e+00	 2.850037e+00
 3.917493e-01	 1.274484e+00	 2.670742e+00
 3.770130e-01	 1.278921e+00	 2.519085e+00
 3.622699e-01	 1.283175e+00	 2.412843e+00
 3.522068e-01	 1.247531e+00	 2.083307e+00
 3.378697e-01	 1.251490e+00	 1.979269e+00
 3.235321e-01	 1.255273e+00	 1.857718e+00
 3.091969e-01	 1.258881e+00	 1.727733e+00
 2.948673e-01	 1.262314e+00	 1.597951e+00
 2.805461e-01	 1.265574e+00	 1.476485e+00
 3.542194e-01	 1.254660e+00	 2.147022e+00
 3.398004e-01	 1.258642e+00	 2.042817e+00
 3.253808e-01	 1.262446e+00	 1.919577e+00
 3.109638e-01	 1.266075e+00	 1.787252e+00
 2.965523e-01	 1.269528e+00	 1.655267e+00
 2.821492e-01	 1.272806e+00	 1.532443e+00
 3.562320e-01	 1.261789e+00	 2.212981e+00
 3.417311e-01	 1.265793e+00	 2.109346e+00
 3.272296e-01	 1.269619e+00	 1.984424e+00
 3.127306e-01	 1.273268e+00	 1.849328e+00
 2.982372e-01	 1.276741e+00	 1.714559e+00
 2.837523e-01	 1.280038e+00	 1.589931e+00
 3.582446e-01	 1.268918e+00	 2.280023e+00
 3.436617e-01	 1.272944e+00	 2.177461e+00
 3.290783e-01	 1.276792e+00	 2.050721e+00
 3.144975e-01	 1.280462e+00	 1.912361e+00
 2.999222e-01	 1.283954e+00	 1.774241e+00
 2.853554e-01	 1.287270e+00	 1.647446e+00
 3.602572e-01	 1.276046e+00	 2.347011e+00
 3.455924e-01	 1.280096e+00	 2.245794e+00
 3.309271e-01	 1.283965e+00	 2.116952e+00
 3.162643e-01	 1.287655e+00	 1.974770e+00
 3.016071e-01	 1.291167e+00	 1.832741e+00
 2.869586e-01	 1.294502e+00	 1.703495e+00
 3.622699e-01	 1.283175e+00	 2.412843e+00
 3.475231e-01	 1.287247e+00	 2.313005e+00
 3.327758e-01	 1.291138e+00	 2.181629e+00
 3.180311e-01	 1.294849e+00	 2.034997e+00
 3.032921e-01	 1.298380e+00	 1.888506e+00
 2.885617e-01	 1.301733e+00	 1.756600e+00
 2.805461e-01	 1.265574e+00	 1.476485e+00
 2.662362e-01	 1.268662e+00	 1.364999e+00
 2.519404e-01	 1.271578e+00	 1.260741e+00
 2.376616e-01	 1.274324e+00	 1.164319e+00
 2.234024e-01	 1.276901e+00	 1.075749e+00
 2.091658e-01	 1.279310e+00	 9.944906e-01
 2.821492e-01	 1.272806e+00	 1.532443e+00
 2.677575e-01	 1.275911e+00	 1.420406e+00
 2.533800e-01	 1.278844e+00	 1.315863e+00
 2.390196e-01	 1.281606e+00	 1.219272e+00
 2.246790e-01	 1.284197e+00	 1.130446e+00
 2.103610e-01	 1.286620e+00	 1.048591e+00
 2.837523e-01	 1.280038e+00	 1.589931e+00
 2.692789e-01	 1.283161e+00	 1.477224e+00
 2.548197e-01	 1.286110e+00	 1.372530e+00
 2.403777e-01	 1.288887e+00	 1.276034e+00
 2.259556e-01	 1.291494e+00	 1.187217e+00
 2.115562e-01	 1.293931e+00	 1.104906e+00
 2.853554e-01	 1.287270e+00	 1.647446e+00
 2.708002e-01	 1.290410e+00	 1.534060e+00
 2.562594e-01	 1.293376e+00	 1.429445e+00
 2.417358e-01	 1.296169e+00	 1.333393e+00
 2.272322e-01	 1.298790e+00	 1.244925e+00
 2.127515e-01	 1.301241e+00	 1.162358e+00
 2.869586e-01	 1.294502e+00	 1.703495e+00
 2.723216e-01	 1.297660e+00	 1.589527e+00
 2.576990e-01	 1.300642e+00	 1.485317e+00
 2.430938e-01	 1.303451e+00	 1.390138e+00
 2.285088e-01	 1.306087e+00	 1.302430e+00
 2.139467e-01	 1.308551e+00	 1.219868e+00
 2.885617e-01	 1.301733e+00	 1.756600e+00
 2.738429e-01	 1.304909e+00	 1.642248e+00
 2.591387e-01	 1.307909e+00	 1.538857e+00
 2.444519e-01	 1.310733e+00	 1.445061e+00
 2.297854e-01	 1.313384e+00	 1.358591e+00
 2.151419e-01	 1.315862e+00	 1.276356e+00
 2.091658e-01	 1.279310e+00	 9.944906e-01
 1.949542e-01	 1.281553e+00	 9.170241e-01
 1.807703e-01	 1.283630e+00	 8.418162e-01
 1.666167e-01	 1.285544e+00	 7.706442e-01
 1.524959e-01	 1.287295e+00	 7.049816e-01
 1.384103e-01	 1.288886e+00	 6.460753e-01
 2.103610e-01	 1.286620e+00	 1.048591e+00
 1.960682e-01	 1.288876e+00	 9.702510e-01
 1.818033e-01	 1.290965e+00	 8.942116e-01
 1.675688e-01	 1.292890e+00	 8.223319e-01
 1.533673e-01	 1.294651e+00	 7.561451e-01
 1.392012e-01	 1.296251e+00	 6.969432e-01
 2.115562e-01	 1.293931e+00	 1.104906e+00
 1.971822e-01	 1.296199e+00	 1.025622e+00
 1.828362e-01	 1.298300e+00	 9.485228e-01
 1.685209e-01	 1.300236e+00	 8.756219e-01
 1.542387e-01	 1.302007e+00	 8.085823e-01
 1.399921e-01	 1.303616e+00	 7.488096e-01
 2.127515e-01	 1.301241e+00	 1.162358e+00
 1.982962e-01	 1.303522e+00	 1.082125e+00
 1.838692e-01	 1.305635e+00	 1.003824e+00
 1.694730e-01	 1.307582e+00	 9.296907e-01
 1.551101e-01	 1.309363e+00	 8.615838e-01
 1.407831e-01	 1.310981e+00	 8.010882e-01
 2.139467e-01	 1.308551e+00	 1.219868e+00
 1.994103e-01	 1.310845e+00	 1.138748e+00
 1.849022e-01	 1.312970e+00	 1.059189e+00
 1.704251e-01	 1.314928e+00	 9.837117e-01
 1.559815e-01	 1.316719e+00	 9.144369e-01
 1.415740e-01	 1.318346e+00	 8.531891e-01
 2.151419e-01	 1.315862e+00	 1.276356e+00
 2.005243e-01	 1.318168e+00	 1.194477e+00
 1.859351e-01	 1.320305e+00	 1.113686e+00
 1.713771e-01	 1.322274e+00	 1.036856e+00
 1.568529e-01	 1.324075e+00	 9.664258e-01
 1.423649e-01	 1.325711e+00	 9.045187e-01
 1.384103e-01	 1.288886e+00	 6.460753e-01
 1.243625e-01	 1.290317e+00	 5.942271e-01
 1.103546e-01	 1.291590e+00	 5.486715e-01
 9.638917e-02	 1.292708e+00	 5.089580e-01
 8.246833e-02	 1.293670e+00	 4.747358e-01
 6.859431e-02	 1.294480e+00	 4.458309e-01
 1.392012e-01	 1.296251e+00	 6.969432e-01
 1.250731e-01	 1.297690e+00	 6.449245e-01
 1.109852e-01	 1.298971e+00	 5.991752e-01
 9.693997e-02	 1.300095e+00	 5.592244e-01
 8.293958e-02	 1.301063e+00	 5.247173e-01
 6.898628e-02	 1.301877e+00	 4.955001e-01
 1.399921e-01	 1.303616e+00	 7.488096e-01
 1.257837e-01	 1.305064e+00	 6.964483e-01
 1.116158e-01	 1.306352e+00	 6.504165e-01
 9.749076e-02	 1.307482e+00	 6.101860e-01
 8.341082e-02	 1.308455e+00	 5.753617e-01
 6.937825e-02	 1.309274e+00	 5.457731e-01
 1.407831e-01	 1.310981e+00	 8.010882e-01
 1.264944e-01	 1.312437e+00	 7.483345e-01
 1.122464e-01	 1.313732e+00	 7.020443e-01
 9.804156e-02	 1.314868e+00	 6.615937e-01
 8.388207e-02	 1.315848e+00	 6.265086e-01
 6.977021e-02	 1.316671e+00	 5.965639e-01
 1.415740e-01	 1.318346e+00	 8.531891e-01
 1.272050e-01	 1.319810e+00	 8.001153e-01
 1.128770e-01	 1.321113e+00	 7.537037e-01
 9.859235e-02	 1.322255e+00	 7.131945e-01
 8.435332e-02	 1.323240e+00	 6.779946e-01
 7.016218e-02	 1.324068e+00	 6.477845e-01
 1.423649e-01	 1.325711e+00	 9.045187e-01
 1.279157e-01	 1.327183e+00	 8.513188e-01
 1.135076e-01	 1.328493e+00	 8.050359e-01
 9.914315e-02	 1.329642e+00	 7.647322e-01
 8.482457e-02	 1.330632e+00	 7.296535e-01
 7.055415e-02	 1.331465e+00	 6.993446e-01
 6.859431e-02	 1.294480e+00	 4.458309e-01
 5.476927e-02	 1.295139e+00	 4.216434e-01
 4.099530e-02	 1.295648e+00	 4.019445e-01
 2.727445e-02	 1.296009e+00	 3.875889e-01
 1.360871e-02	 1.296225e+00	 3.798621e-01
-9.137145e-07	 1.296311e+00	 3.427180e-01
 6.898628e-02	 1.301877e+00	 4.955001e-01
 5.508224e-02	 1.302540e+00	 4.710853e-01
 4.122956e-02	 1.303052e+00	 4.512651e-01
 2.743030e-02	 1.303415e+00	 4.368323e-01
 1.368647e-02	 1.303632e+00	 4.290615e-01
-9.107196e-07	 1.303719e+00	 4.103943e-01
 6.937825e-02	 1.309274e+00	 5.457731e-01
 5.539520e-02	 1.309940e+00	 5.210256e-01
 4.146382e-02	 1.310455e+00	 5.009659e-01
 2.758616e-02	 1.310821e+00	 4.863704e-01
 1.376423e-02	 1.311039e+00	 4.785488e-01
-9.074629e-07	 1.311126e+00	 4.792073e-01
 6.977021e-02	 1.316671e+00	 5.965639e-01
 5.570817e-02	 1.317341e+00	 5.714397e-01
 4.169808e-02	 1.317859e+00	 5.510717e-01
 2.774201e-02	 1.318227e+00	 5.362623e-01
 1.384200e-02	 1.318446e+00	 5.283992e-01
-9.039470e-07	 1.318534e+00	 5.492111e-01
 7.016218e-02	 1.324068e+00	 6.477845e-01
 5.602114e-02	 1.324742e+00	 6.223019e-01
 4.193234e-02	 1.325263e+00	 6.016071e-01
 2.789787e-02	 1.325632e+00	 5.865677e-01
 1.391976e-02	 1.325853e+00	 5.786897e-01
-9.001744e-07	 1.325942e+00	 6.204620e-01
 7.055415e-02	 1.331465e+00	 6.993446e-01
 5.633411e-02	 1.332143e+00	 6.735854e-01
 4.216660e-02	 1.332666e+00	 6.525964e-01
 2.805372e-02	 1.333038e+00	 6.373472e-01
 1.399753e-02	 1.333260e+00	 6.294991e-01
-8.961478e-07	 1.333349e+00	 6.930188e-01
 1.333333e+00	 0.000000e+00	 1.795896e+01
 1.333260e+00	 1.399753e-02	 1.795786e+01
 1.333038e+00	 2.805372e-02	 1.795517e+01
 1.332666e+00	 4.216660e-02	 1.795025e+01
 1.332143e+00	 5.633411e-02	 1.794237e+01
 1.331465e+00	 7.055415e-02	 1.793068e+01
 1.340741e+00	 0.000000e+00	 1.781981e+01
 1.340667e+00	 1.407529e-02	 1.781912e+01
 1.340444e+00	 2.820957e-02	 1.781677e+01
 1.340070e+00	 4.240085e-02	 1.781217e+01
 1.339544e+00	 5.664707e-02	 1.780460e+01
 1.338862e+00	 7.094612e-02	 1.779327e+01
 1.348148e+00	 0.000000e+00	 1.768417e+01
 1.348074e+00	 1.415305e-02	 1.768390e+01
 1.347850e+00	 2.836543e-02	 1.768189e+01
 1.347474e+00	 4.263511e-02	 1.767759e+01
 1.346944e+00	 5.696004e-02	 1.767032e+01
 1.346259e+00	 7.133808e-02	 1.765929e+01
 1.355556e+00	 0.000000e+00	 1.755192e+01
 1.355481e+00	 1.423082e-02	 1.755204e+01
 1.355255e+00	 2.852128e-02	 1.755036e+01
 1.354878e+00	 4.286937e-02	 1.754636e+01
 1.354345e+00	 5.727301e-02	 1.753938e+01
 1.353656e+00	 7.173005e-02	 1.752863e+01
 1.362963e+00	 0.000000e+00	 1.742291e+01
 1.362888e+00	 1.430858e-02	 1.742340e+01
 1.362661e+00	 2.867714e-02	 1.742204e+01
 1.362281e+00	 4.310363e-02	 1.741833e+01
 1.361746e+00	 5.758597e-02	 1.741163e+01
 1.361053e+00	 7.212202e-02	 1.740115e+01
 1.370370e+00	 0.000000e+00	 1.729703e+01
 1.370295e+00	 1.438635e-02	 1.729783e+01
 1.370067e+00	 2.883299e-02	 1.729677e+01
 1.369685e+00	 4.333789e-02	 1.729335e+01
 1.369147e+00	 5.789894e-02	 1.728693e+01
 1.368450e+00	 7.251399e-02	 1.727674e+01
 1.331465e+00	 7.055415e-02	 1.793068e+01
 1.330632e+00	 8.482457e-02	 1.791682e+01
 1.329642e+00	 9.914315e-02	 1.790230e+01
 1.328493e+00	 1.135076e-01	 1.788614e+01
 1.327183e+00	 1.279157e-01	 1.786736e+01
 1.325711e+00	 1.423649e-01	 1.784500e+01
 1.338862e+00	 7.094612e-02	 1.779327e+01
 1.338025e+00	 8.529582e-02	 1.777991e+01
 1.337029e+00	 9.969394e-02	 1.776621e+01
 1.335874e+00	 1.141382e-01	 1.775113e+01
 1.334556e+00	 1.286263e-01	 1.773367e+01
 1.333076e+00	 1.431558e-01	 1.771283e+01
 1.346259e+00	 7.133808e-02	 1.765929e+01
 1.345417e+00	 8.576706e-02	 1.764639e+01
 1.344416e+00	 1.002447e-01	 1.763342e+01
 1.343254e+00	 1.147688e-01	 1.761935e+01
 1.341930e+00	 1.293369e-01	 1.760315e+01
 1.340441e+00	 1.439467e-01	 1.758382e+01
 1.353656e+00	 7.173005e-02	 1.752863e+01
 1.352810e+00	 8.623831e-02	 1.751614e+01
 1.351803e+00	 1.007955e-01	 1.750385e+01
 1.350635e+00	 1.153994e-01	 1.749074e+01
 1.349303e+00	 1.300476e-01	 1.747576e+01
 1.347806e+00	 1.447376e-01	 1.745789e+01
 1.361053e+00	 7.212202e-02	 1.740115e+01
 1.360202e+00	 8.670956e-02	 1.738905e+01
 1.359190e+00	 1.013463e-01	 1.737741e+01
 1.358015e+00	 1.160300e-01	 1.736521e+01
 1.356676e+00	 1.307582e-01	 1.735141e+01
 1.355171e+00	 1.455286e-01	 1.733497e+01
 1.368450e+00	 7.251399e-02	 1.727674e+01
 1.367594e+00	 8.718081e-02	 1.726502e+01
 1.366577e+00	 1.018971e-01	 1.725401e+01
 1.365396e+00	 1.166606e-01	 1.724268e+01
 1.364049e+00	 1.314689e-01	 1.723002e+01
 1.362536e+00	 1.463195e-01	 1.721500e+01
 1.325711e+00	 1.423649e-01	 1.784500e+01
 1.324075e+00	 1.568529e-01	 1.781951e+01
 1.322274e+00	 1.713771e-01	 1.779177e+01
 1.320305e+00	 1.859351e-01	 1.776163e+01
 1.318168e+00	 2.005243e-01	 1.772901e+01
 1.315862e+00	 2.151419e-01	 1.769399e+01
 1.333076e+00	 1.431558e-01	 1.771283e+01
 1.331431e+00	 1.577243e-01	 1.768888e+01
 1.329620e+00	 1.723292e-01	 1.766253e+01
 1.327640e+00	 1.869681e-01	 1.763363e+01
 1.325492e+00	 2.016383e-01	 1.760216e+01
 1.323172e+00	 2.163372e-01	 1.756820e+01
 1.340441e+00	 1.439467e-01	 1.758382e+01
 1.338787e+00	 1.585957e-01	 1.756137e+01
 1.336966e+00	 1.732813e-01	 1.753637e+01
 1.334975e+00	 1.880011e-01	 1.750867e+01
 1.332815e+00	 2.027523e-01	 1.747824e+01
 1.330482e+00	 2.175324e-01	 1.744520e+01
 1.347806e+00	 1.447376e-01	 1.745789e+01
 1.346143e+00	 1.594671e-01	 1.743694e+01
 1.344312e+00	 1.742334e-01	 1.741326e+01
 1.342310e+00	 1.890341e-01	 1.738671e+01
 1.340138e+00	 2.038664e-01	 1.735728e+01
 1.337793e+00	 2.187276e-01	 1.732507e+01
 1.355171e+00	 1.455286e-01	 1.733497e+01
 1.353499e+00	 1.603385e-01	 1.731551e+01
 1.351658e+00	 1.751855e-01	 1.729315e+01
 1.349645e+00	 1.900670e-01	 1.726776e+01
 1.347461e+00	 2.049804e-01	 1.723930e+01
 1.345103e+00	 2.199229e-01	 1.720787e+01
 1.362536e+00	 1.463195e-01	 1.721500e+01
 1.360855e+00	 1.612099e-01	 1.719702e+01
 1.359003e+00	 1.761376e-01	 1.717600e+01
 1.356980e+00	 1.911000e-01	 1.715179e+01
 1.354784e+00	 2.060944e-01	 1.712432e+01
 1.352413e+00	 2.211181e-01	 1.709369e+01
 1.315862e+00	 2.151419e-01	 1.769399e+01
 1.313384e+00	 2.297854e-01	 1.765651e+01
 1.310733e+00	 2.444519e-01	 1.761594e+01
 1.307909e+00	 2.591387e-01	 1.757171e+01
 1.304909e+00	 2.738429e-01	 1.752359e+01
 1.301733e+00	 2.885617e-01	 1.747161e+01
 1.323172e+00	 2.163372e-01	 1.756820e+01
 1.320680e+00	 2.310620e-01	 1.753218e+01
 1.318015e+00	 2.458099e-01	 1.749380e+01
 1.315175e+00	 2.605783e-01	 1.745238e+01
 1.312159e+00	 2.753642e-01	 1.740751e+01
 1.308965e+00	 2.901648e-01	 1.735912e+01
 1.330482e+00	 2.175324e-01	 1.744520e+01
 1.327977e+00	 2.323385e-01	 1.741048e+01
 1.325297e+00	 2.471680e-01	 1.737418e+01
 1.322441e+00	 2.620180e-01	 1.733548e+01
 1.319408e+00	 2.768856e-01	 1.729385e+01
 1.316197e+00	 2.917679e-01	 1.724913e+01
 1.337793e+00	 2.187276e-01	 1.732507e+01
 1.335273e+00	 2.336151e-01	 1.729153e+01
 1.332579e+00	 2.485261e-01	 1.725721e+01
 1.329707e+00	 2.634577e-01	 1.722115e+01
 1.326658e+00	 2.784069e-01	 1.718273e+01
 1.323429e+00	 2.933710e-01	 1.714167e+01
 1.345103e+00	 2.199229e-01	 1.720787e+01
 1.342570e+00	 2.348917e-01	 1.717546e+01
 1.339860e+00	 2.498841e-01	 1.714302e+01
 1.336973e+00	 2.648973e-01	 1.710952e+01
 1.333907e+00	 2.799283e-01	 1.707422e+01
 1.330661e+00	 2.949742e-01	 1.703677e+01
 1.352413e+00	 2.211181e-01	 1.709369e+01
 1.349866e+00	 2.361683e-01	 1.706236e+01
 1.347142e+00	 2.512422e-01	 1.703174e+01
 1.344239e+00	 2.663370e-01	 1.700070e+01
 1.341157e+00	 2.814496e-01	 1.696842e+01
 1.337893e+00	 2.965773e-01	 1.693446e+01
 1.301733e+00	 2.885617e-01	 1.747161e+01
 1.298380e+00	 3.032921e-01	 1.741594e+01
 1.294849e+00	 3.180311e-01	 1.735830e+01
 1.291138e+00	 3.327758e-01	 1.730143e+01
 1.287247e+00	 3.475231e-01	 1.724825e+01
 1.283175e+00	 3.622699e-01	 1.720189e+01
 1.308965e+00	 2.901648e-01	 1.735912e+01
 1.305594e+00	 3.049770e-01	 1.730659e+01
 1.302043e+00	 3.197980e-01	 1.725105e+01
 1.298311e+00	 3.346246e-01	 1.719545e+01
 1.294399e+00	 3.494538e-01	 1.714298e+01
 1.290304e+00	 3.642825e-01	 1.709697e+01
 1.316197e+00	 2.917679e-01	 1.724913e+01
 1.312807e+00	 3.066620e-01	 1.719979e+01
 1.309236e+00	 3.215648e-01	 1.714631e+01
 1.305484e+00	 3.364733e-01	 1.709185e+01
 1.301550e+00	 3.513845e-01	 1.703980e+01
 1.297433e+00	 3.662951e-01	 1.699375e+01
 1.323429e+00	 2.933710e-01	 1.714167e+01
 1.320020e+00	 3.083470e-01	 1.709553e+01
 1.316430e+00	 3.233317e-01	 1.704404e+01
 1.312657e+00	 3.383221e-01	 1.699056e+01
 1.308701e+00	 3.533152e-01	 1.693868e+01
 1.304561e+00	 3.683077e-01	 1.689223e+01
 1.330661e+00	 2.949742e-01	 1.703677e+01
 1.327233e+00	 3.100319e-01	 1.699377e+01
 1.323623e+00	 3.250985e-01	 1.694417e+01
 1.319830e+00	 3.401709e-01	 1.689151e+01
 1.315853e+00	 3.552458e-01	 1.683958e+01
 1.311690e+00	 3.703203e-01	 1.679242e+01
 1.337893e+00	 2.965773e-01	 1.693446e+01
 1.334447e+00	 3.117169e-01	 1.689448e+01
 1.330817e+00	 3.268653e-01	 1.684663e+01
 1.327003e+00	 3.420196e-01	 1.679461e+01
 1.323004e+00	 3.571765e-01	 1.674242e+01
 1.318819e+00	 3.723329e-01	 1.669478e+01
 1.283175e+00	 3.622699e-01	 1.720189e+01
 1.278921e+00	 3.770130e-01	 1.713065e+01
 1.274484e+00	 3.917493e-01	 1.704385e+01
 1.269864e+00	 4.064755e-01	 1.695572e+01
 1.265060e+00	 4.211885e-01	 1.687126e+01
 1.260072e+00	 4.358850e-01	 1.679552e+01
 1.290304e+00	 3.642825e-01	 1.709697e+01
 1.286026e+00	 3.791075e-01	 1.702986e+01
 1.281565e+00	 3.939256e-01	 1.694967e+01
 1.276919e+00	 4.087337e-01	 1.686654e+01
 1.272089e+00	 4.235284e-01	 1.678561e+01
 1.267073e+00	 4.383066e-01	 1.671205e+01
 1.297433e+00	 3.662951e-01	 1.699375e+01
 1.293131e+00	 3.812020e-01	 1.693137e+01
 1.288645e+00	 3.961020e-01	 1.685731e+01
 1.283974e+00	 4.109919e-01	 1.677895e+01
 1.279117e+00	 4.258684e-01	 1.670155e+01
 1.274073e+00	 4.407281e-01	 1.663042e+01
 1.304561e+00	 3.683077e-01	 1.689223e+01
 1.300236e+00	 3.832965e-01	 1.683515e+01
 1.295726e+00	 3.982784e-01	 1.676677e+01
 1.291029e+00	 4.132501e-01	 1.669290e+01
 1.286145e+00	 4.282083e-01	 1.661894e+01
 1.281073e+00	 4.431497e-01	 1.655039e+01
 1.311690e+00	 3.703203e-01	 1.679242e+01
 1.307341e+00	 3.853910e-01	 1.674116e+01
 1.302806e+00	 4.004548e-01	 1.667799e+01
 1.298084e+00	 4.155083e-01	 1.660831e+01
 1.293173e+00	 4.305483e-01	 1.653765e+01
 1.288074e+00	 4.455713e-01	 1.647170e+01
 1.318819e+00	 3.723329e-01	 1.669478e+01
 1.314447e+00	 3.874855e-01	 1.664934e+01
 1.309887e+00	 4.026312e-01	 1.659094e+01
 1.305138e+00	 4.177665e-01	 1.652509e+01
 1.300201e+00	 4.328882e-01	 1.645752e+01
 1.295074e+00	 4.479929e-01	 1.639410e+01
 1.260072e+00	 4.358850e-01	 1.679552e+01
 1.254899e+00	 4.505616e-01	 1.671992e+01
 1.249541e+00	 4.652151e-01	 1.663461e+01
 1.243997e+00	 4.798421e-01	 1.654274e+01
 1.238268e+00	 4.944392e-01	 1.644747e+01
 1.232353e+00	 5.090031e-01	 1.635188e+01
 1.267073e+00	 4.383066e-01	 1.671205e+01
 1.261871e+00	 4.530647e-01	 1.663818e+01
 1.256483e+00	 4.677997e-01	 1.655503e+01
 1.250908e+00	 4.825079e-01	 1.646595e+01
 1.245147e+00	 4.971861e-01	 1.637423e+01
 1.239199e+00	 5.118309e-01	 1.628314e+01
 1.274073e+00	 4.407281e-01	 1.663042e+01
 1.268843e+00	 4.555679e-01	 1.655860e+01
 1.263425e+00	 4.703842e-01	 1.647780e+01
 1.257820e+00	 4.851737e-01	 1.639147e+01
 1.252027e+00	 4.999330e-01	 1.630305e+01
 1.246046e+00	 5.146587e-01	 1.621590e+01
 1.281073e+00	 4.431497e-01	 1.655039e+01
 1.275814e+00	 4.580710e-01	 1.648083e+01
 1.270367e+00	 4.729687e-01	 1.640250e+01
 1.264731e+00	 4.878395e-01	 1.631891e+01
 1.258906e+00	 5.026799e-01	 1.623358e+01
 1.252892e+00	 5.174865e-01	 1.614994e+01
 1.288074e+00	 4.455713e-01	 1.647170e+01
 1.282786e+00	 4.605741e-01	 1.640453e+01
 1.277309e+00	 4.755532e-01	 1.632874e+01
 1.271642e+00	 4.905053e-01	 1.624787e+01
 1.265785e+00	 5.054268e-01	 1.616546e+01
 1.259738e+00	 5.203143e-01	 1.608500e+01
 1.295074e+00	 4.479929e-01	 1.639410e+01
 1.289758e+00	 4.630772e-01	 1.632934e+01
 1.284250e+00	 4.781378e-01	 1.625611e+01
 1.278553e+00	 4.931711e-01	 1.617794e+01
 1.272664e+00	 5.081737e-01	 1.609835e+01
 1.266585e+00	 5.231421e-01	 1.602082e+01
 1.232353e+00	 5.090031e-01	 1.635188e+01
 1.226252e+00	 5.235303e-01	 1.625238e+01
 1.219965e+00	 5.380174e-01	 1.614457e+01
 1.213493e+00	 5.524609e-01	 1.603005e+01
 1.206835e+00	 5.668575e-01	 1.590989e+01
 1.199992e+00	 5.812035e-01	 1.578466e+01
 1.239199e+00	 5.118309e-01	 1.628314e+01
 1.233064e+00	 5.264388e-01	 1.618833e+01
 1.226743e+00	 5.410064e-01	 1.608471e+01
 1.220234e+00	 5.555301e-01	 1.597398e+01
 1.213540e+00	 5.700067e-01	 1.585745e+01
 1.206658e+00	 5.844324e-01	 1.573588e+01
 1.246046e+00	 5.146587e-01	 1.621590e+01
 1.239877e+00	 5.293473e-01	 1.612519e+01
 1.233520e+00	 5.439953e-01	 1.602534e+01
 1.226976e+00	 5.585994e-01	 1.591834e+01
 1.220244e+00	 5.731559e-01	 1.580572e+01
 1.213325e+00	 5.876614e-01	 1.568857e+01
 1.252892e+00	 5.174865e-01	 1.614994e+01
 1.246689e+00	 5.322558e-01	 1.606279e+01
 1.240298e+00	 5.469843e-01	 1.596635e+01
 1.233718e+00	 5.616686e-01	 1.586292e+01
 1.226949e+00	 5.763051e-01	 1.575438e+01
 1.219992e+00	 5.908903e-01	 1.564219e+01
 1.259738e+00	 5.203143e-01	 1.608500e+01
 1.253502e+00	 5.351643e-01	 1.600098e+01
 1.247076e+00	 5.499733e-01	 1.590759e+01
 1.240459e+00	 5.647378e-01	 1.580753e+01
 1.233653e+00	 5.794543e-01	 1.570311e+01
 1.226658e+00	 5.941192e-01	 1.559623e+01
 1.266585e+00	 5.231421e-01	 1.602082e+01
 1.260314e+00	 5.380728e-01	 1.593959e+01
 1.253853e+00	 5.529623e-01	 1.584893e+01
 1.247201e+00	 5.678070e-01	 1.575199e+01
 1.240358e+00	 5.826035e-01	 1.565160e+01
 1.233325e+00	 5.973481e-01	 1.555016e+01
 1.199992e+00	 5.812035e-01	 1.578466e+01
 1.192964e+00	 5.954957e-01	 1.565845e+01
 1.185751e+00	 6.097304e-01	 1.553470e+01
 1.178355e+00	 6.239043e-01	 1.541192e+01
 1.170776e+00	 6.380139e-01	 1.528777e+01
 1.163014e+00	 6.520556e-01	 1.515897e+01
 1.206658e+00	 5.844324e-01	 1.573588e+01
 1.199591e+00	 5.988040e-01	 1.561332e+01
 1.192339e+00	 6.131178e-01	 1.549310e+01
 1.184902e+00	 6.273705e-01	 1.537386e+01
 1.177280e+00	 6.415584e-01	 1.525333e+01
 1.169475e+00	 6.556781e-01	 1.512819e+01
 1.213325e+00	 5.876614e-01	 1.568857e+01
 1.206219e+00	 6.021123e-01	 1.557044e+01
 1.198926e+00	 6.165052e-01	 1.545405e+01
 1.191448e+00	 6.308366e-01	 1.533805e+01
 1.183784e+00	 6.451029e-01	 1.522015e+01
 1.175936e+00	 6.593006e-01	 1.509696e+01
 1.219992e+00	 5.908903e-01	 1.564219e+01
 1.212847e+00	 6.054206e-01	 1.552911e+01
 1.205514e+00	 6.198926e-01	 1.541674e+01
 1.197995e+00	 6.343027e-01	 1.530373e+01
 1.190289e+00	 6.486474e-01	 1.518766e+01
 1.182397e+00	 6.629232e-01	 1.506498e+01
 1.226658e+00	 5.941192e-01	 1.559623e+01
 1.219474e+00	 6.087289e-01	 1.548859e+01
 1.212102e+00	 6.232800e-01	 1.538041e+01
 1.204541e+00	 6.377689e-01	 1.527017e+01
 1.196793e+00	 6.521919e-01	 1.515528e+01
 1.188859e+00	 6.665457e-01	 1.503199e+01
 1.233325e+00	 5.973481e-01	 1.555016e+01
 1.226102e+00	 6.120372e-01	 1.544821e+01
 1.218689e+00	 6.266674e-01	 1.534429e+01
 1.211087e+00	 6.412350e-01	 1.523665e+01
 1.203297e+00	 6.557365e-01	 1.512247e+01
 1.195320e+00	 6.701682e-01	 1.499770e+01
 1.163014e+00	 6.520556e-01	 1.515897e+01
 1.155070e+00	 6.660260e-01	 1.502712e+01
 1.146946e+00	 6.799217e-01	 1.489083e+01
 1.138641e+00	 6.937392e-01	 1.474055e+01
 1.130158e+00	 7.074751e-01	 1.456524e+01
 1.121497e+00	 7.211259e-01	 1.435230e+01
 1.169475e+00	 6.556781e-01	 1.512819e+01
 1.161487e+00	 6.697261e-01	 1.499968e+01
 1.153318e+00	 6.836990e-01	 1.486640e+01
 1.144967e+00	 6.975933e-01	 1.471936e+01
 1.136437e+00	 7.114055e-01	 1.454824e+01
 1.127727e+00	 7.251322e-01	 1.434125e+01
 1.175936e+00	 6.593006e-01	 1.509696e+01
 1.167904e+00	 6.734263e-01	 1.497024e+01
 1.159689e+00	 6.874764e-01	 1.483966e+01
 1.151293e+00	 7.014474e-01	 1.469698e+01
 1.142715e+00	 7.153359e-01	 1.453271e+01
 1.133958e+00	 7.291384e-01	 1.433604e+01
 1.182397e+00	 6.629232e-01	 1.506498e+01
 1.174321e+00	 6.771264e-01	 1.493879e+01
 1.166061e+00	 6.912537e-01	 1.481072e+01
 1.157619e+00	 7.053015e-01	 1.467344e+01
 1.148994e+00	 7.192663e-01	 1.451846e+01
 1.140188e+00	 7.331447e-01	 1.433606e+01
 1.188859e+00	 6.665457e-01	 1.503199e+01
 1.180738e+00	 6.808266e-01	 1.490532e+01
 1.172433e+00	 6.950311e-01	 1.477967e+01
 1.163944e+00	 7.091556e-01	 1.464877e+01
 1.155272e+00	 7.231967e-01	 1.450527e+01
 1.146419e+00	 7.371509e-01	 1.434069e+01
 1.195320e+00	 6.701682e-01	 1.499770e+01
 1.187155e+00	 6.845267e-01	 1.486980e+01
 1.178805e+00	 6.988084e-01	 1.474659e+01
 1.170270e+00	 7.130097e-01	 1.462298e+01
 1.161551e+00	 7.271271e-01	 1.449294e+01
 1.152650e+00	 7.411572e-01	 1.434924e+01
 1.121497e+00	 7.211259e-01	 1.435230e+01
 1.112659e+00	 7.346883e-01	 1.417389e+01
 1.103647e+00	 7.481590e-01	 1.408039e+01
 1.094460e+00	 7.615344e-01	 1.395700e+01
 1.085101e+00	 7.748114e-01	 1.379504e+01
 1.075572e+00	 7.879867e-01	 1.360220e+01
 1.127727e+00	 7.251322e-01	 1.434125e+01
 1.118841e+00	 7.387699e-01	 1.417466e+01
 1.109778e+00	 7.523154e-01	 1.407826e+01
 1.100541e+00	 7.657652e-01	 1.395187e+01
 1.091130e+00	 7.791159e-01	 1.379155e+01
 1.081547e+00	 7.923644e-01	 1.360409e+01
 1.133958e+00	 7.291384e-01	 1.433604e+01
 1.125022e+00	 7.428515e-01	 1.418461e+01
 1.115909e+00	 7.564718e-01	 1.407231e+01
 1.106621e+00	 7.699959e-01	 1.394420e+01
 1.097158e+00	 7.834205e-01	 1.378820e+01
 1.087523e+00	 7.967421e-01	 1.360741e+01
 1.140188e+00	 7.331447e-01	 1.433606e+01
 1.131204e+00	 7.469331e-01	 1.419309e+01
 1.122041e+00	 7.606283e-01	 1.406666e+01
 1.112701e+00	 7.742267e-01	 1.393244e+01
 1.103186e+00	 7.877250e-01	 1.378321e+01
 1.093498e+00	 8.011198e-01	 1.361053e+01
 1.146419e+00	 7.371509e-01	 1.434069e+01
 1.137385e+00	 7.510147e-01	 1.419752e+01
 1.128172e+00	 7.647847e-01	 1.406014e+01
 1.118782e+00	 7.784574e-01	 1.392024e+01
 1.109215e+00	 7.920295e-01	 1.377486e+01
 1.099473e+00	 8.054975e-01	 1.361188e+01
 1.152650e+00	 7.411572e-01	 1.434924e+01
 1.143567e+00	 7.550963e-01	 1.419690e+01
 1.134304e+00	 7.689412e-01	 1.405151e+01
 1.124862e+00	 7.826882e-01	 1.390828e+01
 1.115243e+00	 7.963340e-01	 1.376310e+01
 1.105449e+00	 8.098752e-01	 1.360992e+01
 1.075572e+00	 7.879867e-01	 1.360220e+01
 1.065873e+00	 8.010569e-01	 1.339817e+01
 1.056007e+00	 8.140189e-01	 1.319755e+01
 1.045975e+00	 8.268694e-01	 1.300322e+01
 1.035780e+00	 8.396054e-01	 1.281967e+01
 1.025423e+00	 8.522237e-01	 1.265287e+01
 1.081547e+00	 7.923644e-01	 1.360409e+01
 1.071795e+00	 8.055072e-01	 1.340662e+01
 1.061874e+00	 8.185412e-01	 1.321160e+01
 1.051786e+00	 8.314631e-01	 1.302174e+01
 1.041535e+00	 8.442699e-01	 1.284137e+01
 1.031120e+00	 8.569582e-01	 1.267644e+01
 1.087523e+00	 7.967421e-01	 1.360741e+01
 1.077716e+00	 8.099575e-01	 1.341667e+01
 1.067741e+00	 8.230635e-01	 1.322693e+01
 1.057597e+00	 8.360569e-01	 1.304093e+01
 1.047289e+00	 8.489343e-01	 1.286312e+01
 1.036817e+00	 8.616928e-01	 1.269962e+01
 1.093498e+00	 8.011198e-01	 1.361053e+01
 1.083638e+00	 8.144079e-01	 1.342691e+01
 1.073607e+00	 8.275859e-01	 1.324230e+01
 1.063408e+00	 8.406506e-01	 1.305971e+01
 1.053043e+00	 8.535988e-01	 1.288394e+01
 1.042514e+00	 8.664274e-01	 1.272150e+01
 1.099473e+00	 8.054975e-01	 1.361188e+01
 1.089559e+00	 8.188582e-01	 1.343596e+01
 1.079474e+00	 8.321082e-01	 1.325651e+01
 1.069219e+00	 8.452443e-01	 1.307703e+01
 1.058798e+00	 8.582633e-01	 1.290289e+01
 1.048210e+00	 8.711620e-01	 1.274121e+01
 1.105449e+00	 8.098752e-01	 1.360992e+01
 1.095481e+00	 8.233085e-01	 1.344251e+01
 1.085341e+00	 8.366305e-01	 1.326842e+01
 1.075030e+00	 8.498380e-01	 1.309190e+01
 1.064552e+00	 8.629278e-01	 1.291907e+01
 1.053907e+00	 8.758965e-01	 1.275793e+01
 1.025423e+00	 8.522237e-01	 1.265287e+01
 1.014906e+00	 8.647212e-01	 1.247718e+01
 1.004232e+00	 8.770950e-01	 1.227237e+01
 9.934025e-01	 8.893420e-01	 1.205469e+01
 9.824198e-01	 9.014595e-01	 1.184164e+01
 9.712863e-01	 9.134444e-01	 1.165185e+01
 1.031120e+00	 8.569582e-01	 1.267644e+01
 1.020545e+00	 8.695252e-01	 1.250203e+01
 1.009811e+00	 8.819677e-01	 1.229878e+01
 9.989214e-01	 8.942828e-01	 1.208320e+01
 9.878776e-01	 9.064676e-01	 1.187310e+01
 9.766823e-01	 9.185191e-01	 1.168748e+01
 1.036817e+00	 8.616928e-01	 1.269962e+01
 1.026183e+00	 8.743292e-01	 1.252646e+01
 1.015390e+00	 8.868405e-01	 1.232510e+01
 1.004440e+00	 8.992236e-01	 1.211208e+01
 9.933355e-01	 9.114757e-01	 1.190532e+01
 9.820783e-01	 9.235938e-01	 1.172398e+01
 1.042514e+00	 8.664274e-01	 1.272150e+01
 1.031822e+00	 8.791332e-01	 1.254960e+01
 1.020969e+00	 8.917132e-01	 1.235042e+01
 1.009959e+00	 9.041644e-01	 1.214035e+01
 9.987934e-01	 9.164838e-01	 1.193720e+01
 9.874744e-01	 9.286685e-01	 1.176008e+01
 1.048210e+00	 8.711620e-01	 1.274121e+01
 1.037460e+00	 8.839372e-01	 1.257059e+01
 1.026548e+00	 8.965860e-01	 1.237386e+01
 1.015478e+00	 9.091052e-01	 1.216704e+01
 1.004251e+00	 9.214919e-01	 1.196765e+01
 9.928704e-01	 9.337432e-01	 1.179454e+01
 1.053907e+00	 8.758965e-01	 1.275793e+01
 1.043098e+00	 8.887412e-01	 1.258863e+01
 1.032127e+00	 9.014587e-01	 1.239459e+01
 1.020997e+00	 9.140460e-01	 1.219126e+01
 1.009709e+00	 9.265000e-01	 1.199566e+01
 9.982665e-01	 9.388179e-01	 1.182619e+01
 9.712863e-01	 9.134444e-01	 1.165185e+01
 9.600045e-01	 9.252941e-01	 1.146202e+01
 9.485768e-01	 9.370058e-01	 1.124581e+01
 9.370058e-01	 9.485768e-01	 1.101820e+01
 9.252941e-01	 9.600045e-01	 1.079425e+01
 9.134444e-01	 9.712863e-01	 1.058894e+01
 9.766823e-01	 9.185191e-01	 1.168748e+01
 9.653378e-01	 9.304346e-01	 1.150187e+01
 9.538467e-01	 9.422114e-01	 1.128870e+01
 9.422114e-01	 9.538467e-01	 1.106324e+01
 9.304346e-01	 9.653378e-01	 1.084087e+01
 9.185191e-01	 9.766823e-01	 1.063689e+01
 9.820783e-01	 9.235938e-01	 1.172398e+01
 9.706712e-01	 9.355752e-01	 1.154223e+01
 9.591165e-01	 9.474170e-01	 1.133140e+01
 9.474170e-01	 9.591165e-01	 1.110733e+01
 9.355752e-01	 9.706712e-01	 1.088603e+01
 9.235938e-01	 9.820783e-01	 1.068344e+01
 9.874744e-01	 9.286685e-01	 1.176008e+01
 9.760045e-01	 9.407157e-01	 1.158170e+01
 9.643864e-01	 9.526226e-01	 1.137248e+01
 9.526226e-01	 9.643864e-01	 1.114913e+01
 9.407157e-01	 9.760045e-01	 1.092858e+01
 9.286685e-01	 9.874744e-01	 1.072770e+01
 9.928704e-01	 9.337432e-01	 1.179454e+01
 9.813379e-01	 9.458562e-01	 1.161892e+01
 9.696563e-01	 9.578282e-01	 1.141056e+01
 9.578282e-01	 9.696563e-01	 1.118734e+01
 9.458562e-01	 9.813379e-01	 1.096738e+01
 9.337432e-01	 9.928704e-01	 1.076882e+01
 9.982665e-01	 9.388179e-01	 1.182619e+01
 9.866712e-01	 9.509967e-01	 1.165258e+01
 9.749261e-01	 9.630337e-01	 1.144431e+01
 9.630337e-01	 9.749261e-01	 1.122070e+01
 9.509967e-01	 9.866712e-01	 1.100135e+01
 9.388179e-01	 9.982665e-01	 1.080596e+01
 9.134444e-01	 9.712863e-01	 1.058894e+01
 9.014595e-01	 9.824198e-01	 1.038091e+01
 8.893420e-01	 9.934025e-01	 1.015028e+01
 8.770950e-01	 1.004232e+00	 9.913566e+00
 8.647212e-01	 1.014906e+00	 9.686397e+00
 8.522237e-01	 1.025423e+00	 9.483302e+00
 9.185191e-01	 9.766823e-01	 1.063689e+01
 9.064676e-01	 9.878776e-01	 1.043019e+01
 8.942828e-01	 9.989214e-01	 1.020103e+01
 8.819677e-01	 1.009811e+00	 9.966052e+00
 8.695252e-01	 1.020545e+00	 9.740973e+00
 8.569582e-01	 1.031120e+00	 9.540406e+00
 9.235938e-01	 9.820783e-01	 1.068344e+01
 9.114757e-01	 9.933355e-01	 1.047884e+01
 8.992236e-01	 1.004440e+00	 1.025229e+01
 8.868405e-01	 1.015390e+00	 1.002010e+01
 8.743292e-01	 1.026183e+00	 9.797653e+00
 8.616928e-01	 1.036817e+00	 9.599168e+00
 9.286685e-01	 9.874744e-01	 1.072770e+01
 9.164838e-01	 9.987934e-01	 1.052618e+01
 9.041644e-01	 1.009959e+00	 1.030338e+01
 8.917132e-01	 1.020969e+00	 1.007488e+01
 8.791332e-01	 1.031822e+00	 9.855247e+00
 8.664274e-01	 1.042514e+00	 9.657853e+00
 9.337432e-01	 9.928704e-01	 1.076882e+01
 9.214919e-01	 1.004251e+00	 1.057158e+01
 9.091052e-01	 1.015478e+00	 1.035369e+01
 8.965860e-01	 1.026548e+00	 1.012958e+01
 8.839372e-01	 1.037460e+00	 9.912581e+00
 8.711620e-01	 1.048210e+00	 9.714756e+00
 9.388179e-01	 9.982665e-01	 1.080596e+01
 9.265000e-01	 1.009709e+00	 1.061440e+01
 9.140460e-01	 1.020997e+00	 1.040259e+01
 9.014587e-01	 1.032127e+00	 1.018339e+01
 8.887412e-01	 1.043098e+00	 9.968501e+00
 8.758965e-01	 1.053907e+00	 9.768197e+00
 8.522237e-01	 1.025423e+00	 9.483302e+00
 8.396054e-01	 1.035780e+00	 9.284249e+00
 8.268694e-01	 1.045975e+00	 9.064682e+00
 8.140189e-01	 1.056007e+00	 8.830008e+00
 8.010569e-01	 1.065873e+00	 8.583641e+00
 7.879867e-01	 1.075572e+00	 8.326857e+00
 8.569582e-01	 1.031120e+00	 9.540406e+00
 8.442699e-01	 1.041535e+00	 9.343349e+00
 8.314631e-01	 1.051786e+00	 9.124494e+00
 8.185412e-01	 1.061874e+00	 8.889588e+00
 8.055072e-01	 1.071795e+00	 8.642331e+00
 7.923644e-01	 1.081547e+00	 8.384211e+00
 8.616928e-01	 1.036817e+00	 9.599168e+00
 8.489343e-01	 1.047289e+00	 9.402526e+00
 8.360569e-01	 1.057597e+00	 9.182491e+00
 8.230635e-01	 1.067741e+00	 8.946144e+00
 8.099575e-01	 1.077716e+00	 8.698489e+00
 7.967421e-01	 1.087523e+00	 8.442290e+00
 8.664274e-01	 1.042514e+00	 9.657853e+00
 8.535988e-01	 1.053043e+00	 9.459613e+00
 8.406506e-01	 1.063408e+00	 9.236455e+00
 8.275859e-01	 1.073607e+00	 8.997767e+00
 8.144079e-01	 1.083638e+00	 8.750868e+00
 8.011198e-01	 1.093498e+00	 8.500836e+00
 8.711620e-01	 1.048210e+00	 9.714756e+00
 8.582633e-01	 1.058798e+00	 9.512477e+00
 8.452443e-01	 1.069219e+00	 9.284198e+00
 8.321082e-01	 1.079474e+00	 9.042570e+00
 8.188582e-01	 1.089559e+00	 8.798221e+00
 8.054975e-01	 1.099473e+00	 8.559568e+00
 8.758965e-01	 1.053907e+00	 9.768197e+00
 8.629278e-01	 1.064552e+00	 9.559019e+00
 8.498380e-01	 1.075030e+00	 9.323563e+00
 8.366305e-01	 1.085341e+00	 9.078686e+00
 8.233085e-01	 1.095481e+00	 8.839305e+00
 8.098752e-01	 1.105449e+00	 8.618183e+00
 7.879867e-01	 1.075572e+00	 8.326857e+00
 7.748114e-01	 1.085101e+00	 8.077581e+00
 7.615344e-01	 1.094460e+00	 7.856775e+00
 7.481590e-01	 1.103647e+00	 7.666804e+00
 7.346883e-01	 1.112659e+00	 7.504437e+00
 7.211259e-01	 1.121497e+00	 7.276764e+00
 7.923644e-01	 1.081547e+00	 8.384211e+00
 7.791159e-01	 1.091130e+00	 8.135469e+00
 7.657652e-01	 1.100541e+00	 7.922087e+00
 7.523154e-01	 1.109778e+00	 7.750705e+00
 7.387699e-01	 1.118841e+00	 7.581417e+00
 7.251322e-01	 1.127727e+00	 7.326086e+00
 7.967421e-01	 1.087523e+00	 8.442290e+00
 7.834205e-01	 1.097158e+00	 8.201347e+00
 7.699959e-01	 1.106621e+00	 8.006182e+00
 7.564718e-01	 1.115909e+00	 7.850236e+00
 7.428515e-01	 1.125022e+00	 7.647592e+00
 7.291384e-01	 1.133958e+00	 7.374451e+00
 8.011198e-01	 1.093498e+00	 8.500836e+00
 7.877250e-01	 1.103186e+00	 8.275825e+00
 7.742267e-01	 1.112701e+00	 8.108359e+00
 7.606283e-01	 1.122041e+00	 7.932569e+00
 7.469331e-01	 1.131204e+00	 7.706268e+00
 7.331447e-01	 1.140188e+00	 7.423094e+00
 8.054975e-01	 1.099473e+00	 8.559568e+00
 7.920295e-01	 1.109215e+00	 8.359465e+00
 7.784574e-01	 1.118782e+00	 8.197179e+00
 7.647847e-01	 1.128172e+00	 7.999572e+00
 7.510147e-01	 1.137385e+00	 7.759959e+00
 7.371509e-01	 1.146419e+00	 7.473275e+00
 8.098752e-01	 1.105449e+00	 8.618183e+00
 7.963340e-01	 1.115243e+00	 8.442857e+00
 7.826882e-01	 1.124862e+00	 8.262800e+00
 7.689412e-01	 1.134304e+00	 8.054356e+00
 7.550963e-01	 1.143567e+00	 7.811045e+00
 7.411572e-01	 1.152650e+00	 7.526285e+00
 7.211259e-01	 1.121497e+00	 7.276764e+00
 7.074751e-01	 1.130158e+00	 7.008573e+00
 6.937392e-01	 1.138641e+00	 6.768641e+00
 6.799217e-01	 1.146946e+00	 6.544983e+00
 6.660260e-01	 1.155070e+00	 6.326885e+00
 6.520556e-01	 1.163014e+00	 6.104923e+00
 7.251322e-01	 1.127727e+00	 7.326086e+00
 7.114055e-01	 1.136437e+00	 7.048817e+00
 6.975933e-01	 1.144967e+00	 6.814582e+00
 6.836990e-01	 1.153318e+00	 6.604969e+00
 6.697261e-01	 1.161487e+00	 6.402692e+00
 6.556781e-01	 1.169475e+00	 6.191631e+00
 7.291384e-01	 1.133958e+00	 7.374451e+00
 7.153359e-01	 1.142715e+00	 7.093869e+00
 7.014474e-01	 1.151293e+00	 6.866289e+00
 6.874764e-01	 1.159689e+00	 6.668337e+00
 6.734263e-01	 1.167904e+00	 6.477664e+00
 6.593006e-01	 1.175936e+00	 6.273002e+00
 7.331447e-01	 1.140188e+00	 7.423094e+00
 7.192663e-01	 1.148994e+00	 7.143784e+00
 7.053015e-01	 1.157619e+00	 6.923140e+00
 6.912537e-01	 1.166061e+00	 6.734264e+00
 6.771264e-01	 1.174321e+00	 6.551228e+00
 6.629232e-01	 1.182397e+00	 6.349141e+00
 7.371509e-01	 1.146419e+00	 7.473275e+00
 7.231967e-01	 1.155272e+00	 7.198667e+00
 7.091556e-01	 1.163944e+00	 6.984575e+00
 6.950311e-01	 1.172433e+00	 6.801994e+00
 6.808266e-01	 1.180738e+00	 6.622875e+00
 6.665457e-01	 1.188859e+00	 6.420198e+00
 7.411572e-01	 1.152650e+00	 7.526285e+00
 7.271271e-01	 1.161551e+00	 7.258673e+00
 7.130097e-01	 1.170270e+00	 7.050101e+00
 6.988084e-01	 1.178805e+00	 6.870840e+00
 6.845267e-01	 1.187155e+00	 6.692157e+00
 6.701682e-01	 1.195320e+00	 6.486372e+00
 6.520556e-01	 1.163014e+00	 6.104923e+00
 6.380139e-01	 1.170776e+00	 5.888000e+00
 6.239043e-01	 1.178355e+00	 5.684352e+00
 6.097304e-01	 1.185751e+00	 5.485528e+00
 5.954957e-01	 1.192964e+00	 5.284387e+00
 5.812035e-01	 1.199992e+00	 5.075079e+00
 6.556781e-01	 1.169475e+00	 6.191631e+00
 6.415584e-01	 1.177280e+00	 5.976378e+00
 6.273705e-01	 1.184902e+00	 5.767469e+00
 6.131178e-01	 1.192339e+00	 5.559683e+00
 5.988040e-01	 1.199591e+00	 5.349230e+00
 5.844324e-01	 1.206658e+00	 5.133718e+00
 6.593006e-01	 1.175936e+00	 6.273002e+00
 6.451029e-01	 1.183784e+00	 6.057002e+00
 6.308366e-01	 1.191448e+00	 5.843200e+00
 6.165052e-01	 1.198926e+00	 5.628660e+00
 6.021123e-01	 1.206219e+00	 5.411966e+00
 5.876614e-01	 1.213325e+00	 5.193190e+00
 6.629232e-01	 1.182397e+00	 6.349141e+00
 6.486474e-01	 1.190289e+00	 6.130688e+00
 6.343027e-01	 1.197995e+00	 5.912747e+00
 6.198926e-01	 1.205514e+00	 5.693730e+00
 6.054206e-01	 1.212847e+00	 5.473643e+00
 5.908903e-01	 1.219992e+00	 5.254044e+00
 6.665457e-01	 1.188859e+00	 6.420198e+00
 6.521919e-01	 1.196793e+00	 6.198283e+00
 6.377689e-01	 1.204541e+00	 5.977329e+00
 6.232800e-01	 1.212102e+00	 5.756182e+00
 6.087289e-01	 1.219474e+00	 5.535331e+00
 5.941192e-01	 1.226658e+00	 5.316860e+00
 6.701682e-01	 1.195320e+00	 6.486372e+00
 6.557365e-01	 1.203297e+00	 6.260665e+00
 6.412350e-01	 1.211087e+00	 6.038190e+00
 6.266674e-01	 1.218689e+00	 5.817328e+00
 6.120372e-01	 1.226102e+00	 5.598125e+00
 5.973481e-01	 1.233325e+00	 5.382249e+00
 5.812035e-01	 1.199992e+00	 5.075079e+00
 5.668575e-01	 1.206835e+00	 4.863358e+00
 5.524609e-01	 1.213493e+00	 4.656943e+00
 5.380174e-01	 1.219965e+00	 4.454715e+00
 5.235303e-01	 1.226252e+00	 4.256616e+00
 5.090031e-01	 1.232353e+00	 4.063584e+00
 5.844324e-01	 1.206658e+00	 5.133718e+00
 5.700067e-01	 1.213540e+00	 4.921073e+00
 5.555301e-01	 1.220234e+00	 4.717640e+00
 5.410064e-01	 1.226743e+00	 4.520505e+00
 5.264388e-01	 1.233064e+00	 4.327808e+00
 5.118309e-01	 1.239199e+00	 4.138680e+00
 5.876614e-01	 1.213325e+00	 5.193190e+00
 5.731559e-01	 1.220244e+00	 4.981101e+00
 5.585994e-01	 1.226976e+00	 4.780412e+00
 5.439953e-01	 1.233520e+00	 4.587029e+00
 5.293473e-01	 1.239877e+00	 4.397922e+00
 5.146587e-01	 1.246046e+00	 4.211062e+00
 5.908903e-01	 1.219992e+00	 5.254044e+00
 5.763051e-01	 1.226949e+00	 5.043460e+00
 5.616686e-01	 1.233718e+00	 4.844944e+00
 5.469843e-01	 1.240298e+00	 4.653831e+00
 5.322558e-01	 1.246689e+00	 4.466541e+00
 5.174865e-01	 1.252892e+00	 4.280522e+00
 5.941192e-01	 1.226658e+00	 5.316860e+00
 5.794543e-01	 1.233653e+00	 5.108209e+00
 5.647378e-01	 1.240459e+00	 4.910971e+00
 5.499733e-01	 1.247076e+00	 4.720505e+00
 5.351643e-01	 1.253502e+00	 4.533295e+00
 5.203143e-01	 1.259738e+00	 4.346890e+00
 5.973481e-01	 1.233325e+00	 5.382249e+00
 5.826035e-01	 1.240358e+00	 5.175449e+00
 5.678070e-01	 1.247201e+00	 4.978275e+00
 5.529623e-01	 1.253853e+00	 4.786695e+00
 5.380728e-01	 1.260314e+00	 4.597862e+00
 5.231421e-01	 1.266585e+00	 4.410039e+00
 5.090031e-01	 1.232353e+00	 4.063584e+00
 4.944392e-01	 1.238268e+00	 3.881266e+00
 4.798421e-01	 1.243997e+00	 3.710355e+00
 4.652151e-01	 1.249541e+00	 3.545617e+00
 4.505616e-01	 1.254899e+00	 3.382488e+00
 4.358850e-01	 1.260072e+00	 3.216997e+00
 5.118309e-01	 1.239199e+00	 4.138680e+00
 4.971861e-01	 1.245147e+00	 3.957087e+00
 4.825079e-01	 1.250908e+00	 3.783908e+00
 4.677997e-01	 1.256483e+00	 3.614920e+00
 4.530647e-01	 1.261871e+00	 3.446611e+00
 4.383066e-01	 1.267073e+00	 3.276092e+00
 5.146587e-01	 1.246046e+00	 4.211062e+00
 4.999330e-01	 1.252027e+00	 4.029510e+00
 4.851737e-01	 1.257820e+00	 3.854436e+00
 4.703842e-01	 1.263425e+00	 3.682282e+00
 4.555679e-01	 1.268843e+00	 3.510225e+00
 4.407281e-01	 1.274073e+00	 3.336092e+00
 5.174865e-01	 1.252892e+00	 4.280522e+00
 5.026799e-01	 1.258906e+00	 4.098547e+00
 4.878395e-01	 1.264731e+00	 3.922042e+00
 4.729687e-01	 1.270367e+00	 3.747767e+00
 4.580710e-01	 1.275814e+00	 3.573240e+00
 4.431497e-01	 1.281073e+00	 3.396644e+00
 5.203143e-01	 1.259738e+00	 4.346890e+00
 5.054268e-01	 1.265785e+00	 4.164244e+00
 4.905053e-01	 1.271642e+00	 3.986856e+00
 4.755532e-01	 1.277309e+00	 3.811470e+00
 4.605741e-01	 1.282786e+00	 3.635599e+00
 4.455713e-01	 1.288074e+00	 3.457428e+00
 5.231421e-01	 1.266585e+00	 4.410039e+00
 5.081737e-01	 1.272664e+00	 4.226679e+00
 4.931711e-01	 1.278553e+00	 4.049039e+00
 4.781378e-01	 1.284250e+00	 3.873513e+00
 4.630772e-01	 1.289758e+00	 3.697270e+00
 4.479929e-01	 1.295074e+00	 3.518156e+00
 4.358850e-01	 1.260072e+00	 3.216997e+00
 4.211885e-01	 1.265060e+00	 3.038283e+00
 4.064755e-01	 1.269864e+00	 2.850037e+00
 3.917493e-01	 1.274484e+00	 2.670742e+00
 3.770130e-01	 1.278921e+00	 2.519085e+00
 3.622699e-01	 1.283175e+00	 2.412843e+00
 4.383066e-01	 1.267073e+00	 3.276092e+00
 4.235284e-01	 1.272089e+00	 3.094402e+00
 4.087337e-01	 1.276919e+00	 2.905962e+00
 3.939256e-01	 1.281565e+00	 2.728588e+00
 3.791075e-01	 1.286026e+00	 2.580291e+00
 3.642825e-01	 1.290304e+00	 2.478438e+00
 4.407281e-01	 1.274073e+00	 3.336092e+00
 4.258684e-01	 1.279117e+00	 3.152351e+00
 4.109919e-01	 1.283974e+00	 2.964011e+00
 3.961020e-01	 1.288645e+00	 2.788356e+00
 3.812020e-01	 1.293131e+00	 2.642858e+00
 3.662951e-01	 1.297433e+00	 2.544666e+00
 4.431497e-01	 1.281073e+00	 3.396644e+00
 4.282083e-01	 1.286145e+00	 3.211497e+00
 4.132501e-01	 1.291029e+00	 3.023343e+00
 3.982784e-01	 1.295726e+00	 2.849068e+00
 3.832965e-01	 1.300236e+00	 2.705746e+00
 3.683077e-01	 1.304561e+00	 2.610389e+00
 4.455713e-01	 1.288074e+00	 3.457428e+00
 4.305483e-01	 1.293173e+00	 3.271241e+00
 4.155083e-01	 1.298084e+00	 3.083156e+00
 4.004548e-01	 1.302806e+00	 2.909788e+00
 3.853910e-01	 1.307341e+00	 2.767948e+00
 3.703203e-01	 1.311690e+00	 2.674507e+00
 4.479929e-01	 1.295074e+00	 3.518156e+00
 4.328882e-01	 1.300201e+00	 3.331022e+00
 4.177665e-01	 1.305138e+00	 3.142682e+00
 4.026312e-01	 1.309887e+00	 2.969612e+00
 3.874855e-01	 1.314447e+00	 2.828496e+00
 3.723329e-01	 1.318819e+00	 2.736086e+00
 3.622699e-01	 1.283175e+00	 2.412843e+00
 3.475231e-01	 1.287247e+00	 2.313005e+00
 3.327758e-01	 1.291138e+00	 2.181629e+00
 3.180311e-01	 1.294849e+00	 2.034997e+00
 3.032921e-01	 1.298380e+00	 1.888506e+00
 2.885617e-01	 1.301733e+00	 1.756600e+00
 3.642825e-01	 1.290304e+00	 2.478438e+00
 3.494538e-01	 1.294399e+00	 2.379887e+00
 3.346246e-01	 1.298311e+00	 2.245826e+00
 3.197980e-01	 1.302043e+00	 2.094622e+00
 3.049770e-01	 1.305594e+00	 1.943660e+00
 2.901648e-01	 1.308965e+00	 1.809271e+00
 3.662951e-01	 1.297433e+00	 2.544666e+00
 3.513845e-01	 1.301550e+00	 2.447349e+00
 3.364733e-01	 1.305484e+00	 2.310827e+00
 3.215648e-01	 1.309236e+00	 2.155460e+00
 3.066620e-01	 1.312807e+00	 2.000516e+00
 2.917679e-01	 1.316197e+00	 1.864107e+00
 3.683077e-01	 1.304561e+00	 2.610389e+00
 3.533152e-01	 1.308701e+00	 2.514270e+00
 3.383221e-01	 1.312657e+00	 2.375502e+00
 3.233317e-01	 1.316430e+00	 2.216340e+00
 3.083470e-01	 1.320020e+00	 2.057839e+00
 2.933710e-01	 1.323429e+00	 1.919779e+00
 3.703203e-01	 1.311690e+00	 2.674507e+00
 3.552458e-01	 1.315853e+00	 2.579559e+00
 3.401709e-01	 1.319830e+00	 2.438739e+00
 3.250985e-01	 1.323623e+00	 2.276109e+00
 3.100319e-01	 1.327233e+00	 2.114405e+00
 2.949742e-01	 1.330661e+00	 1.974972e+00
 3.723329e-01	 1.318819e+00	 2.736086e+00
 3.571765e-01	 1.323004e+00	 2.642152e+00
 3.420196e-01	 1.327003e+00	 2.499450e+00
 3.268653e-01	 1.330817e+00	 2.333629e+00
 3.117169e-01	 1.334447e+00	 2.169008e+00
 2.965773e-01	 1.337893e+00	 2.028385e+00
 2.885617e-01	 1.301733e+00	 1.756600e+00
 2.738429e-01	 1.304909e+00	 1.642248e+00
 2.591387e-01	 1.307909e+00	 1.538857e+00
 2.444519e-01	 1.310733e+00	 1.445061e+00
 2.297854e-01	 1.313384e+00	 1.358591e+00
 2.151419e-01	 1.315862e+00	 1.276356e+00
 2.901648e-01	 1.308965e+00	 1.809271e+00
 2.753642e-01	 1.312159e+00	 1.694803e+00
 2.605783e-01	 1.315175e+00	 1.592434e+00
 2.458099e-01	 1.318015e+00	 1.500155e+00
 2.310620e-01	 1.320680e+00	 1.414979e+00
 2.163372e-01	 1.323172e+00	 1.333034e+00
 2.917679e-01	 1.316197e+00	 1.864107e+00
 2.768856e-01	 1.319408e+00	 1.749745e+00
 2.620180e-01	 1.322441e+00	 1.648322e+00
 2.471680e-01	 1.325297e+00	 1.557290e+00
 2.323385e-01	 1.327977e+00	 1.473048e+00
 2.175324e-01	 1.330482e+00	 1.391044e+00
 2.933710e-01	 1.323429e+00	 1.919779e+00
 2.784069e-01	 1.326658e+00	 1.805671e+00
 2.634577e-01	 1.329707e+00	 1.705100e+00
 2.485261e-01	 1.332579e+00	 1.615078e+00
 2.336151e-01	 1.335273e+00	 1.531491e+00
 2.187276e-01	 1.337793e+00	 1.449204e+00
 2.949742e-01	 1.330661e+00	 1.974972e+00
 2.799283e-01	 1.333907e+00	 1.861192e+00
 2.648973e-01	 1.336973e+00	 1.761357e+00
 2.498841e-01	 1.339860e+00	 1.672138e+00
 2.348917e-01	 1.342570e+00	 1.589004e+00
 2.199229e-01	 1.345103e+00	 1.506334e+00
 2.965773e-01	 1.337893e+00	 2.028385e+00
 2.814496e-01	 1.341157e+00	 1.914928e+00
 2.663370e-01	 1.344239e+00	 1.815689e+00
 2.512422e-01	 1.347142e+00	 1.727097e+00
 2.361683e-01	 1.349866e+00	 1.644291e+00
 2.211181e-01	 1.352413e+00	 1.561255e+00
 2.151419e-01	 1.315862e+00	 1.276356e+00
 2.005243e-01	 1.318168e+00	 1.194477e+00
 1.859351e-01	 1.320305e+00	 1.113686e+00
 1.713771e-01	 1.322274e+00	 1.036856e+00
 1.568529e-01	 1.324075e+00	 9.664258e-01
 1.423649e-01	 1.325711e+00	 9.045187e-01
 2.163372e-01	 1.323172e+00	 1.333034e+00
 2.016383e-01	 1.325492e+00	 1.250327e+00
 1.869681e-01	 1.327640e+00	 1.168279e+00
 1.723292e-01	 1.329620e+00	 1.090107e+00
 1.577243e-01	 1.331431e+00	 1.018566e+00
 1.431558e-01	 1.333076e+00	 9.560708e-01
 2.175324e-01	 1.330482e+00	 1.391044e+00
 2.027523e-01	 1.332815e+00	 1.307301e+00
 1.880011e-01	 1.334975e+00	 1.223946e+00
 1.732813e-01	 1.336966e+00	 1.144478e+00
 1.585957e-01	 1.338787e+00	 1.071900e+00
 1.439467e-01	 1.340441e+00	 1.008849e+00
 2.187276e-01	 1.337793e+00	 1.449204e+00
 2.038664e-01	 1.340138e+00	 1.364358e+00
 1.890341e-01	 1.342310e+00	 1.279779e+00
 1.742334e-01	 1.344312e+00	 1.199182e+00
 1.594671e-01	 1.346143e+00	 1.125749e+00
 1.447376e-01	 1.347806e+00	 1.062270e+00
 2.199229e-01	 1.345103e+00	 1.506334e+00
 2.049804e-01	 1.347461e+00	 1.420456e+00
 1.900670e-01	 1.349645e+00	 1.334866e+00
 1.751855e-01	 1.351658e+00	 1.253426e+00
 1.603385e-01	 1.353499e+00	 1.179429e+00
 1.455286e-01	 1.355171e+00	 1.115744e+00
 2.211181e-01	 1.352413e+00	 1.561255e+00
 2.060944e-01	 1.354784e+00	 1.474554e+00
 1.911000e-01	 1.356980e+00	 1.388292e+00
 1.761376e-01	 1.359003e+00	 1.306416e+00
 1.612099e-01	 1.360855e+00	 1.232252e+00
 1.463195e-01	 1.362536e+00	 1.168679e+00
 1.423649e-01	 1.325711e+00	 9.045187e-01
 1.279157e-01	 1.327183e+00	 8.513188e-01
 1.135076e-01	 1.328493e+00	 8.050359e-01
 9.914315e-02	 1.329642e+00	 7.647322e-01
 8.482457e-02	 1.330632e+00	 7.296535e-01
 7.055415e-02	 1.331465e+00	 6.993446e-01
 1.431558e-01	 1.333076e+00	 9.560708e-01
 1.286263e-01	 1.334556e+00	 9.028149e-01
 1.141382e-01	 1.335874e+00	 8.567074e-01
 9.969394e-02	 1.337029e+00	 8.166355e-01
 8.529582e-02	 1.338025e+00	 7.816864e-01
 7.094612e-02	 1.338862e+00	 7.512718e-01
 1.439467e-01	 1.340441e+00	 1.008849e+00
 1.293369e-01	 1.341930e+00	 9.554630e-01
 1.147688e-01	 1.343254e+00	 9.093632e-01
 1.002447e-01	 1.344416e+00	 8.693080e-01
 8.576706e-02	 1.345417e+00	 8.342720e-01
 7.133808e-02	 1.346259e+00	 8.035797e-01
 1.447376e-01	 1.347806e+00	 1.062270e+00
 1.300476e-01	 1.349303e+00	 1.008770e+00
 1.153994e-01	 1.350635e+00	 9.626062e-01
 1.007955e-01	 1.351803e+00	 9.224502e-01
 8.623831e-02	 1.352810e+00	 8.872066e-01
 7.173005e-02	 1.353656e+00	 8.561547e-01
 1.455286e-01	 1.355171e+00	 1.115744e+00
 1.307582e-01	 1.356676e+00	 1.062239e+00
 1.160300e-01	 1.358015e+00	 1.016036e+00
 1.013463e-01	 1.359190e+00	 9.757598e-01
 8.670956e-02	 1.360202e+00	 9.402838e-01
 7.212202e-02	 1.361053e+00	 9.088815e-01
 1.463195e-01	 1.362536e+00	 1.168679e+00
 1.314689e-01	 1.364049e+00	 1.115370e+00
 1.166606e-01	 1.365396e+00	 1.069249e+00
 1.018971e-01	 1.366577e+00	 1.028932e+00
 8.718081e-02	 1.367594e+00	 9.932952e-01
 7.251399e-02	 1.368450e+00	 9.616427e-01
 7.055415e-02	 1.331465e+00	 6.993446e-01
 5.633411e-02	 1.332143e+00	 6.735854e-01
 4.216660e-02	 1.332666e+00	 6.525964e-01
 2.805372e-02	 1.333038e+00	 6.373472e-01
 1.399753e-02	 1.333260e+00	 6.294991e-01
-8.961478e-07	 1.333349e+00	 6.930188e-01
 7.094612e-02	 1.338862e+00	 7.512718e-01
 5.664707e-02	 1.339544e+00	 7.252294e-01
 4.240085e-02	 1.340070e+00	 7.039500e-01
 2.820957e-02	 1.340444e+00	 6.885001e-01
 1.407529e-02	 1.340667e+00	 6.806928e-01
-8.918696e-07	 1.340757e+00	 7.666300e-01
 7.133808e-02	 1.346259e+00	 8.035797e-01
 5.696004e-02	 1.346944e+00	 7.771666e-01
 4.263511e-02	 1.347474e+00	 7.555724e-01
 2.836543e-02	 1.347850e+00	 7.399146e-01
 1.415305e-02	 1.348074e+00	 7.321139e-01
-8.873419e-07	 1.348165e+00	 8.410066e-01
 7.173005e-02	 1.353656e+00	 8.561547e-01
 5.727301e-02	 1.354345e+00	 8.293594e-01
 4.286937e-02	 1.354878e+00	 8.074793e-01
 2.852128e-02	 1.355255e+00	 7.916357e-01
 1.423082e-02	 1.355481e+00	 7.838111e-01
-8.825668e-07	 1.355573e+00	 9.161542e-01
 7.212202e-02	 1.361053e+00	 9.088815e-01
 5.758597e-02	 1.361746e+00	 8.817688e-01
 4.310363e-02	 1.362281e+00	 8.596860e-01
 2.867714e-02	 1.362661e+00	 8.437092e-01
 1.430858e-02	 1.362888e+00	 8.358354e-01
-8.775462e-07	 1.362980e+00	 9.920819e-01
 7.251399e-02	 1.368450e+00	 9.616427e-01
 5.789894e-02	 1.369147e+00	 9.343544e-01
 4.333789e-02	 1.369685e+00	 9.122074e-01
 2.883299e-02	 1.370067e+00	 8.961818e-01
 1.438635e-02	 1.370295e+00	 8.882397e-01
-8.722822e-07	 1.370388e+00	 1.068802e+00
 1.370370e+00	 0.000000e+00	 1.729703e+01
 1.370295e+00	 1.438635e-02	 1.729783e+01
 1.370067e+00	 2.883299e-02	 1.729677e+01
 1.369685e+00	 4.333789e-02	 1.729335e+01
 1.369147e+00	 5.789894e-02	 1.728693e+01
 1.368450e+00	 7.251399e-02	 1.727674e+01
 1.377778e+00	 0.000000e+00	 1.717422e+01
 1.377702e+00	 1.446411e-02	 1.717532e+01
 1.377473e+00	 2.898884e-02	 1.717452e+01
 1.377089e+00	 4.357215e-02	 1.717138e+01
 1.376547e+00	 5.821191e-02	 1.716524e+01
 1.375847e+00	 7.290595e-02	 1.715532e+01
 1.385185e+00	 0.000000e+00	 1.705447e+01
 1.385109e+00	 1.454187e-02	 1.705586e+01
 1.384879e+00	 2.914470e-02	 1.705531e+01
 1.384492e+00	 4.380641e-02	 1.705241e+01
 1.383948e+00	 5.852488e-02	 1.704653e+01
 1.383245e+00	 7.329792e-02	 1.703688e+01
 1.392593e+00	 0.000000e+00	 1.693763e+01
 1.392516e+00	 1.461964e-02	 1.693930e+01
 1.392284e+00	 2.930055e-02	 1.693900e+01
 1.391896e+00	 4.404067e-02	 1.693633e+01
 1.391349e+00	 5.883784e-02	 1.693070e+01
 1.390642e+00	 7.368989e-02	 1.692131e+01
 1.400000e+00	 0.000000e+00	 1.682354e+01
 1.399923e+00	 1.469740e-02	 1.682551e+01
 1.399690e+00	 2.945641e-02	 1.682545e+01
 1.399300e+00	 4.427493e-02	 1.682301e+01
 1.398750e+00	 5.915081e-02	 1.681763e+01
 1.398039e+00	 7.408186e-02	 1.680853e+01
 1.407407e+00	 0.000000e+00	 1.671208e+01
 1.407330e+00	 1.477517e-02	 1.671435e+01
 1.407096e+00	 2.961226e-02	 1.671452e+01
 1.406703e+00	 4.450918e-02	 1.671232e+01
 1.406151e+00	 5.946378e-02	 1.670722e+01
 1.405436e+00	 7.447382e-02	 1.669845e+01
 1.368450e+00	 7.251399e-02	 1.727674e+01
 1.367594e+00	 8.718081e-02	 1.726502e+01
 1.366577e+00	 1.018971e-01	 1.725401e+01
 1.365396e+00	 1.166606e-01	 1.724268e+01
 1.364049e+00	 1.314689e-01	 1.723002e+01
 1.362536e+00	 1.463195e-01	 1.721500e+01
 1.375847e+00	 7.290595e-02	 1.715532e+01
 1.374987e+00	 8.765205e-02	 1.714398e+01
 1.373964e+00	 1.024479e-01	 1.713356e+01
 1.372776e+00	 1.172912e-01	 1.712308e+01
 1.371423e+00	 1.321795e-01	 1.711151e+01
 1.369902e+00	 1.471104e-01	 1.709782e+01
 1.383245e+00	 7.329792e-02	 1.703688e+01
 1.382379e+00	 8.812330e-02	 1.702590e+01
 1.381351e+00	 1.029987e-01	 1.701604e+01
 1.380157e+00	 1.179218e-01	 1.700635e+01
 1.378796e+00	 1.328902e-01	 1.699580e+01
 1.377267e+00	 1.479013e-01	 1.698336e+01
 1.390642e+00	 7.368989e-02	 1.692131e+01
 1.389772e+00	 8.859455e-02	 1.691070e+01
 1.388737e+00	 1.035495e-01	 1.690140e+01
 1.387537e+00	 1.185524e-01	 1.689247e+01
 1.386169e+00	 1.336008e-01	 1.688290e+01
 1.384632e+00	 1.486922e-01	 1.687165e+01
 1.398039e+00	 7.408186e-02	 1.680853e+01
 1.397164e+00	 8.906580e-02	 1.679831e+01
 1.396124e+00	 1.041003e-01	 1.678959e+01
 1.394918e+00	 1.191830e-01	 1.678143e+01
 1.393542e+00	 1.343114e-01	 1.677282e+01
 1.391997e+00	 1.494831e-01	 1.676272e+01
 1.405436e+00	 7.447382e-02	 1.669845e+01
 1.404556e+00	 8.953704e-02	 1.668867e+01
 1.403511e+00	 1.046511e-01	 1.668056e+01
 1.402298e+00	 1.198136e-01	 1.667319e+01
 1.400916e+00	 1.350221e-01	 1.666554e+01
 1.399362e+00	 1.502741e-01	 1.665658e+01
 1.362536e+00	 1.463195e-01	 1.721500e+01
 1.360855e+00	 1.612099e-01	 1.719702e+01
 1.359003e+00	 1.761376e-01	 1.717600e+01
 1.356980e+00	 1.911000e-01	 1.715179e+01
 1.354784e+00	 2.060944e-01	 1.712432e+01
 1.352413e+00	 2.211181e-01	 1.709369e+01
 1.369902e+00	 1.471104e-01	 1.709782e+01
 1.368211e+00	 1.620813e-01	 1.708126e+01
 1.366349e+00	 1.770897e-01	 1.706155e+01
 1.364315e+00	 1.921330e-01	 1.703850e+01
 1.362107e+00	 2.072084e-01	 1.701202e+01
 1.359724e+00	 2.223133e-01	 1.698219e+01
 1.377267e+00	 1.479013e-01	 1.698336e+01
 1.375567e+00	 1.629527e-01	 1.696812e+01
 1.373695e+00	 1.780418e-01	 1.694963e+01
 1.371650e+00	 1.931660e-01	 1.692766e+01
 1.369430e+00	 2.083225e-01	 1.690212e+01
 1.367034e+00	 2.235086e-01	 1.687307e+01
 1.384632e+00	 1.486922e-01	 1.687165e+01
 1.382923e+00	 1.638241e-01	 1.685765e+01
 1.381041e+00	 1.789939e-01	 1.684029e+01
 1.378985e+00	 1.941989e-01	 1.681933e+01
 1.376754e+00	 2.094365e-01	 1.679467e+01
 1.374344e+00	 2.247038e-01	 1.676636e+01
 1.391997e+00	 1.494831e-01	 1.676272e+01
 1.390279e+00	 1.646955e-01	 1.674990e+01
 1.388387e+00	 1.799460e-01	 1.673360e+01
 1.386320e+00	 1.952319e-01	 1.671358e+01
 1.384077e+00	 2.105505e-01	 1.668973e+01
 1.381655e+00	 2.258990e-01	 1.666209e+01
 1.399362e+00	 1.502741e-01	 1.665658e+01
 1.397635e+00	 1.655669e-01	 1.664490e+01
 1.395733e+00	 1.808981e-01	 1.662961e+01
 1.393656e+00	 1.962649e-01	 1.661046e+01
 1.391400e+00	 2.116645e-01	 1.658734e+01
 1.388965e+00	 2.270943e-01	 1.656030e+01
 1.352413e+00	 2.211181e-01	 1.709369e+01
 1.349866e+00	 2.361683e-01	 1.706236e+01
 1.347142e+00	 2.512422e-01	 1.703174e+01
 1.344239e+00	 2.663370e-01	 1.700070e+01
 1.341157e+00	 2.814496e-01	 1.696842e+01
 1.337893e+00	 2.965773e-01	 1.693446e+01
 1.359724e+00	 2.223133e-01	 1.698219e+01
 1.357163e+00	 2.374449e-01	 1.695195e+01
 1.354424e+00	 2.526003e-01	 1.692312e+01
 1.351506e+00	 2.677766e-01	 1.689447e+01
 1.348406e+00	 2.829710e-01	 1.686509e+01
 1.345125e+00	 2.981804e-01	 1.683448e+01
 1.367034e+00	 2.235086e-01	 1.687307e+01
 1.364460e+00	 2.387215e-01	 1.684390e+01
 1.361706e+00	 2.539583e-01	 1.681683e+01
 1.358772e+00	 2.692163e-01	 1.679051e+01
 1.355656e+00	 2.844923e-01	 1.676397e+01
 1.352356e+00	 2.997835e-01	 1.673661e+01
 1.374344e+00	 2.247038e-01	 1.676636e+01
 1.371756e+00	 2.399981e-01	 1.673823e+01
 1.368988e+00	 2.553164e-01	 1.671288e+01
 1.366038e+00	 2.706559e-01	 1.668886e+01
 1.362905e+00	 2.860137e-01	 1.666509e+01
 1.359588e+00	 3.013866e-01	 1.664089e+01
 1.381655e+00	 2.258990e-01	 1.666209e+01
 1.379053e+00	 2.412746e-01	 1.663496e+01
 1.376270e+00	 2.566745e-01	 1.661128e+01
 1.373304e+00	 2.720956e-01	 1.658951e+01
 1.370155e+00	 2.875350e-01	 1.656846e+01
 1.366820e+00	 3.029898e-01	 1.654736e+01
 1.388965e+00	 2.270943e-01	 1.656030e+01
 1.386349e+00	 2.425512e-01	 1.653409e+01
 1.383552e+00	 2.580325e-01	 1.651204e+01
 1.380570e+00	 2.735353e-01	 1.649246e+01
 1.377404e+00	 2.890564e-01	 1.647408e+01
 1.374052e+00	 3.045929e-01	 1.645604e+01
 1.337893e+00	 2.965773e-01	 1.693446e+01
 1.334447e+00	 3.117169e-01	 1.689448e+01
 1.330817e+00	 3.268653e-01	 1.684663e+01
 1.327003e+00	 3.420196e-01	 1.679461e+01
 1.323004e+00	 3.571765e-01	 1.674242e+01
 1.318819e+00	 3.723329e-01	 1.669478e+01
 1.345125e+00	 2.981804e-01	 1.683448e+01
 1.341660e+00	 3.134018e-01	 1.679738e+01
 1.338011e+00	 3.286322e-01	 1.675114e+01
 1.334176e+00	 3.438684e-01	 1.669964e+01
 1.330155e+00	 3.591072e-01	 1.664706e+01
 1.325948e+00	 3.743455e-01	 1.659978e+01
 1.352356e+00	 2.997835e-01	 1.673661e+01
 1.348873e+00	 3.150868e-01	 1.670226e+01
 1.345204e+00	 3.303990e-01	 1.665753e+01
 1.341349e+00	 3.457171e-01	 1.660645e+01
 1.337307e+00	 3.610379e-01	 1.655340e+01
 1.333076e+00	 3.763581e-01	 1.650731e+01
 1.359588e+00	 3.013866e-01	 1.664089e+01
 1.356086e+00	 3.167717e-01	 1.660920e+01
 1.352398e+00	 3.321659e-01	 1.656586e+01
 1.348522e+00	 3.475659e-01	 1.651509e+01
 1.344458e+00	 3.629686e-01	 1.646147e+01
 1.340205e+00	 3.783707e-01	 1.641727e+01
 1.366820e+00	 3.029898e-01	 1.654736e+01
 1.363299e+00	 3.184567e-01	 1.651825e+01
 1.359591e+00	 3.339327e-01	 1.647619e+01
 1.355695e+00	 3.494146e-01	 1.642561e+01
 1.351610e+00	 3.648993e-01	 1.637127e+01
 1.347334e+00	 3.803834e-01	 1.632954e+01
 1.374052e+00	 3.045929e-01	 1.645604e+01
 1.370513e+00	 3.201416e-01	 1.642943e+01
 1.366785e+00	 3.356995e-01	 1.638856e+01
 1.362868e+00	 3.512634e-01	 1.633801e+01
 1.358761e+00	 3.668299e-01	 1.628279e+01
 1.354463e+00	 3.823960e-01	 1.624400e+01
 1.318819e+00	 3.723329e-01	 1.669478e+01
 1.314447e+00	 3.874855e-01	 1.664934e+01
 1.309887e+00	 4.026312e-01	 1.659094e+01
 1.305138e+00	 4.177665e-01	 1.652509e+01
 1.300201e+00	 4.328882e-01	 1.645752e+01
 1.295074e+00	 4.479929e-01	 1.639410e+01
 1.325948e+00	 3.743455e-01	 1.659978e+01
 1.321552e+00	 3.895801e-01	 1.655976e+01
 1.316967e+00	 4.048076e-01	 1.650578e+01
 1.312193e+00	 4.200247e-01	 1.644353e+01
 1.307229e+00	 4.352281e-01	 1.637889e+01
 1.302075e+00	 4.504145e-01	 1.631789e+01
 1.333076e+00	 3.763581e-01	 1.650731e+01
 1.328657e+00	 3.916746e-01	 1.647239e+01
 1.324048e+00	 4.069839e-01	 1.642264e+01
 1.319248e+00	 4.222829e-01	 1.636385e+01
 1.314257e+00	 4.375681e-01	 1.630203e+01
 1.309075e+00	 4.528361e-01	 1.624340e+01
 1.340205e+00	 3.783707e-01	 1.641727e+01
 1.335762e+00	 3.937691e-01	 1.638709e+01
 1.331128e+00	 4.091603e-01	 1.634131e+01
 1.326303e+00	 4.245411e-01	 1.628582e+01
 1.321285e+00	 4.399080e-01	 1.622674e+01
 1.316075e+00	 4.552576e-01	 1.617041e+01
 1.347334e+00	 3.803834e-01	 1.632954e+01
 1.342867e+00	 3.958636e-01	 1.630369e+01
 1.338209e+00	 4.113367e-01	 1.626160e+01
 1.333358e+00	 4.267993e-01	 1.620923e+01
 1.328314e+00	 4.422479e-01	 1.615279e+01
 1.323076e+00	 4.576792e-01	 1.609871e+01
 1.354463e+00	 3.823960e-01	 1.624400e+01
 1.349972e+00	 3.979581e-01	 1.622202e+01
 1.345289e+00	 4.135131e-01	 1.618331e+01
 1.340412e+00	 4.290575e-01	 1.613387e+01
 1.335342e+00	 4.445879e-01	 1.607995e+01
 1.330076e+00	 4.601008e-01	 1.602808e+01
 1.295074e+00	 4.479929e-01	 1.639410e+01
 1.289758e+00	 4.630772e-01	 1.632934e+01
 1.284250e+00	 4.781378e-01	 1.625611e+01
 1.278553e+00	 4.931711e-01	 1.617794e+01
 1.272664e+00	 5.081737e-01	 1.609835e+01
 1.266585e+00	 5.231421e-01	 1.602082e+01
 1.302075e+00	 4.504145e-01	 1.631789e+01
 1.296729e+00	 4.655803e-01	 1.625547e+01
 1.291192e+00	 4.807223e-01	 1.618475e+01
 1.285464e+00	 4.958369e-01	 1.610923e+01
 1.279544e+00	 5.109205e-01	 1.603239e+01
 1.273431e+00	 5.259699e-01	 1.595770e+01
 1.309075e+00	 4.528361e-01	 1.624340e+01
 1.303701e+00	 4.680835e-01	 1.618324e+01
 1.298134e+00	 4.833068e-01	 1.611493e+01
 1.292375e+00	 4.985026e-01	 1.604195e+01
 1.286423e+00	 5.136674e-01	 1.596780e+01
 1.280278e+00	 5.287977e-01	 1.589593e+01
 1.316075e+00	 4.552576e-01	 1.617041e+01
 1.310672e+00	 4.705866e-01	 1.611244e+01
 1.305076e+00	 4.858914e-01	 1.604644e+01
 1.299286e+00	 5.011684e-01	 1.597590e+01
 1.293302e+00	 5.164143e-01	 1.590431e+01
 1.287124e+00	 5.316255e-01	 1.583517e+01
 1.323076e+00	 4.576792e-01	 1.609871e+01
 1.317644e+00	 4.730897e-01	 1.604287e+01
 1.312018e+00	 4.884759e-01	 1.597907e+01
 1.306197e+00	 5.038342e-01	 1.591082e+01
 1.300181e+00	 5.191612e-01	 1.584167e+01
 1.293971e+00	 5.344533e-01	 1.577513e+01
 1.330076e+00	 4.601008e-01	 1.602808e+01
 1.324616e+00	 4.755928e-01	 1.597431e+01
 1.318960e+00	 4.910604e-01	 1.591260e+01
 1.313108e+00	 5.065000e-01	 1.584650e+01
 1.307061e+00	 5.219081e-01	 1.577960e+01
 1.300817e+00	 5.372811e-01	 1.571550e+01
 1.266585e+00	 5.231421e-01	 1.602082e+01
 1.260314e+00	 5.380728e-01	 1.593959e+01
 1.253853e+00	 5.529623e-01	 1.584893e+01
 1.247201e+00	 5.678070e-01	 1.575199e+01
 1.240358e+00	 5.826035e-01	 1.565160e+01
 1.233325e+00	 5.973481e-01	 1.555016e+01
 1.273431e+00	 5.259699e-01	 1.595770e+01
 1.267127e+00	 5.409813e-01	 1.587916e+01
 1.260631e+00	 5.559513e-01	 1.579108e+01
 1.253943e+00	 5.708763e-01	 1.569716e+01
 1.247063e+00	 5.857527e-01	 1.560073e+01
 1.239991e+00	 6.005770e-01	 1.550473e+01
 1.280278e+00	 5.287977e-01	 1.589593e+01
 1.273940e+00	 5.438898e-01	 1.582008e+01
 1.267408e+00	 5.589403e-01	 1.573462e+01
 1.260684e+00	 5.739455e-01	 1.564374e+01
 1.253767e+00	 5.889019e-01	 1.555129e+01
 1.246658e+00	 6.038059e-01	 1.546071e+01
 1.287124e+00	 5.316255e-01	 1.583517e+01
 1.280752e+00	 5.467983e-01	 1.576197e+01
 1.274186e+00	 5.619293e-01	 1.567914e+01
 1.267426e+00	 5.770147e-01	 1.559131e+01
 1.260472e+00	 5.920511e-01	 1.550282e+01
 1.253325e+00	 6.070348e-01	 1.541761e+01
 1.293971e+00	 5.344533e-01	 1.577513e+01
 1.287565e+00	 5.497068e-01	 1.570449e+01
 1.280963e+00	 5.649182e-01	 1.562422e+01
 1.274167e+00	 5.800840e-01	 1.553941e+01
 1.267177e+00	 5.952003e-01	 1.545485e+01
 1.259991e+00	 6.102637e-01	 1.537497e+01
 1.300817e+00	 5.372811e-01	 1.571550e+01
 1.294377e+00	 5.526153e-01	 1.564728e+01
 1.287741e+00	 5.679072e-01	 1.556948e+01
 1.280909e+00	 5.831532e-01	 1.548762e+01
 1.273881e+00	 5.983495e-01	 1.540694e+01
 1.266658e+00	 6.134926e-01	 1.533232e+01
 1.233325e+00	 5.973481e-01	 1.555016e+01
 1.226102e+00	 6.120372e-01	 1.544821e+01
 1.218689e+00	 6.266674e-01	 1.534429e+01
 1.211087e+00	 6.412350e-01	 1.523665e+01
 1.203297e+00	 6.557365e-01	 1.512247e+01
 1.195320e+00	 6.701682e-01	 1.499770e+01
 1.239991e+00	 6.005770e-01	 1.550473e+01
 1.232729e+00	 6.153455e-01	 1.540844e+01
 1.225277e+00	 6.300548e-01	 1.530865e+01
 1.217634e+00	 6.447011e-01	 1.520335e+01
 1.209802e+00	 6.592810e-01	 1.508947e+01
 1.201781e+00	 6.737908e-01	 1.496270e+01
 1.246658e+00	 6.038059e-01	 1.546071e+01
 1.239357e+00	 6.186539e-01	 1.536995e+01
 1.231864e+00	 6.334422e-01	 1.527399e+01
 1.224180e+00	 6.481673e-01	 1.517066e+01
 1.216306e+00	 6.628255e-01	 1.505669e+01
 1.208242e+00	 6.774133e-01	 1.492758e+01
 1.253325e+00	 6.070348e-01	 1.541761e+01
 1.245984e+00	 6.219622e-01	 1.533224e+01
 1.238452e+00	 6.368296e-01	 1.523985e+01
 1.230727e+00	 6.516334e-01	 1.513816e+01
 1.222810e+00	 6.663700e-01	 1.502379e+01
 1.214703e+00	 6.810358e-01	 1.489208e+01
 1.259991e+00	 6.102637e-01	 1.537497e+01
 1.252612e+00	 6.252705e-01	 1.529484e+01
 1.245039e+00	 6.402170e-01	 1.520578e+01
 1.237273e+00	 6.550995e-01	 1.510546e+01
 1.229315e+00	 6.699146e-01	 1.499043e+01
 1.221165e+00	 6.846583e-01	 1.485597e+01
 1.266658e+00	 6.134926e-01	 1.533232e+01
 1.259240e+00	 6.285788e-01	 1.525729e+01
 1.251627e+00	 6.436044e-01	 1.517135e+01
 1.243819e+00	 6.585657e-01	 1.507216e+01
 1.235819e+00	 6.734591e-01	 1.495628e+01
 1.227626e+00	 6.882809e-01	 1.481899e+01
 1.195320e+00	 6.701682e-01	 1.499770e+01
 1.187155e+00	 6.845267e-01	 1.486980e+01
 1.178805e+00	 6.988084e-01	 1.474659e+01
 1.170270e+00	 7.130097e-01	 1.462298e+01
 1.161551e+00	 7.271271e-01	 1.449294e+01
 1.152650e+00	 7.411572e-01	 1.434924e+01
 1.201781e+00	 6.737908e-01	 1.496270e+01
 1.193573e+00	 6.882269e-01	 1.483331e+01
 1.185177e+00	 7.025857e-01	 1.471298e+01
 1.176596e+00	 7.168638e-01	 1.459788e+01
 1.167830e+00	 7.310576e-01	 1.448329e+01
 1.158880e+00	 7.451634e-01	 1.435599e+01
 1.208242e+00	 6.774133e-01	 1.492758e+01
 1.199990e+00	 6.919270e-01	 1.479681e+01
 1.191549e+00	 7.063631e-01	 1.468021e+01
 1.182922e+00	 7.207179e-01	 1.457517e+01
 1.174108e+00	 7.349880e-01	 1.447824e+01
 1.165111e+00	 7.491697e-01	 1.435789e+01
 1.214703e+00	 6.810358e-01	 1.489208e+01
 1.206407e+00	 6.956271e-01	 1.476013e+01
 1.197921e+00	 7.101404e-01	 1.464816e+01
 1.189247e+00	 7.245720e-01	 1.455474e+01
 1.180387e+00	 7.389184e-01	 1.447763e+01
 1.171341e+00	 7.531760e-01	 1.435493e+01
 1.221165e+00	 6.846583e-01	 1.485597e+01
 1.212824e+00	 6.993273e-01	 1.472309e+01
 1.204293e+00	 7.139178e-01	 1.461670e+01
 1.195573e+00	 7.284261e-01	 1.453648e+01
 1.186666e+00	 7.428488e-01	 1.447967e+01
 1.177572e+00	 7.571822e-01	 1.434716e+01
 1.227626e+00	 6.882809e-01	 1.481899e+01
 1.219241e+00	 7.030274e-01	 1.468553e+01
 1.210665e+00	 7.176951e-01	 1.458572e+01
 1.201899e+00	 7.322802e-01	 1.452028e+01
 1.192944e+00	 7.467792e-01	 1.447564e+01
 1.183802e+00	 7.611885e-01	 1.433468e+01
 1.152650e+00	 7.411572e-01	 1.434924e+01
 1.143567e+00	 7.550963e-01	 1.419690e+01
 1.134304e+00	 7.689412e-01	 1.405151e+01
 1.124862e+00	 7.826882e-01	 1.390828e+01
 1.115243e+00	 7.963340e-01	 1.376310e+01
 1.105449e+00	 8.098752e-01	 1.360992e+01
 1.158880e+00	 7.451634e-01	 1.435599e+01
 1.149748e+00	 7.591779e-01	 1.419231e+01
 1.140435e+00	 7.730976e-01	 1.404129e+01
 1.130942e+00	 7.869189e-01	 1.389662e+01
 1.121271e+00	 8.006385e-01	 1.375259e+01
 1.111424e+00	 8.142529e-01	 1.360428e+01
 1.165111e+00	 7.491697e-01	 1.435789e+01
 1.155929e+00	 7.632595e-01	 1.418537e+01
 1.146566e+00	 7.772540e-01	 1.403066e+01
 1.137023e+00	 7.911497e-01	 1.388597e+01
 1.127300e+00	 8.049430e-01	 1.374405e+01
 1.117400e+00	 8.186306e-01	 1.359837e+01
 1.171341e+00	 7.531760e-01	 1.435493e+01
 1.162111e+00	 7.673412e-01	 1.417604e+01
 1.152698e+00	 7.814105e-01	 1.401952e+01
 1.143103e+00	 7.953804e-01	 1.387612e+01
 1.133328e+00	 8.092475e-01	 1.373710e+01
 1.123375e+00	 8.230083e-01	 1.359433e+01
 1.177572e+00	 7.571822e-01	 1.434716e+01
 1.168292e+00	 7.714228e-01	 1.416436e+01
 1.158829e+00	 7.855669e-01	 1.400783e+01
 1.149183e+00	 7.996112e-01	 1.386693e+01
 1.139356e+00	 8.135520e-01	 1.373142e+01
 1.129350e+00	 8.273860e-01	 1.359166e+01
 1.183802e+00	 7.611885e-01	 1.433468e+01
 1.174474e+00	 7.755044e-01	 1.415041e+01
 1.164960e+00	 7.897233e-01	 1.399561e+01
 1.155264e+00	 8.038419e-01	 1.385830e+01
 1.145385e+00	 8.178565e-01	 1.372678e+01
 1.135326e+00	 8.317637e-01	 1.358991e+01
 1.105449e+00	 8.098752e-01	 1.360992e+01
 1.095481e+00	 8.233085e-01	 1.344251e+01
 1.085341e+00	 8.366305e-01	 1.326842e+01
 1.075030e+00	 8.498380e-01	 1.309190e+01
 1.064552e+00	 8.629278e-01	 1.291907e+01
 1.053907e+00	 8.758965e-01	 1.275793e+01
 1.111424e+00	 8.142529e-01	 1.360428e+01
 1.101402e+00	 8.277588e-01	 1.344667e+01
 1.091207e+00	 8.411528e-01	 1.327888e+01
 1.080841e+00	 8.544317e-01	 1.310588e+01
 1.070306e+00	 8.675922e-01	 1.293464e+01
 1.059604e+00	 8.806311e-01	 1.277405e+01
 1.117400e+00	 8.186306e-01	 1.359837e+01
 1.107324e+00	 8.322091e-01	 1.344866e+01
 1.097074e+00	 8.456752e-01	 1.328860e+01
 1.086652e+00	 8.590255e-01	 1.312030e+01
 1.076061e+00	 8.722567e-01	 1.295143e+01
 1.065301e+00	 8.853657e-01	 1.279167e+01
 1.123375e+00	 8.230083e-01	 1.359433e+01
 1.113245e+00	 8.366594e-01	 1.344765e+01
 1.102941e+00	 8.501975e-01	 1.329632e+01
 1.092463e+00	 8.636192e-01	 1.313384e+01
 1.081815e+00	 8.769212e-01	 1.296814e+01
 1.070998e+00	 8.901003e-01	 1.280956e+01
 1.129350e+00	 8.273860e-01	 1.359166e+01
 1.119167e+00	 8.411097e-01	 1.344676e+01
 1.108807e+00	 8.547198e-01	 1.330081e+01
 1.098274e+00	 8.682129e-01	 1.314523e+01
 1.087569e+00	 8.815856e-01	 1.298350e+01
 1.076694e+00	 8.948348e-01	 1.282654e+01
 1.135326e+00	 8.317637e-01	 1.358991e+01
 1.125088e+00	 8.455601e-01	 1.344647e+01
 1.114674e+00	 8.592421e-01	 1.330183e+01
 1.104085e+00	 8.728066e-01	 1.315329e+01
 1.093324e+00	 8.862501e-01	 1.299635e+01
 1.082391e+00	 8.995694e-01	 1.284151e+01
 1.053907e+00	 8.758965e-01	 1.275793e+01
 1.043098e+00	 8.887412e-01	 1.258863e+01
 1.032127e+00	 9.014587e-01	 1.239459e+01
 1.020997e+00	 9.140460e-01	 1.219126e+01
 1.009709e+00	 9.265000e-01	 1.199566e+01
 9.982665e-01	 9.388179e-01	 1.182619e+01
 1.059604e+00	 8.806311e-01	 1.277405e+01
 1.048737e+00	 8.935452e-01	 1.260593e+01
 1.037707e+00	 9.063315e-01	 1.241433e+01
 1.026516e+00	 9.189868e-01	 1.221415e+01
 1.015167e+00	 9.315081e-01	 1.202193e+01
 1.003662e+00	 9.438926e-01	 1.185562e+01
 1.065301e+00	 8.853657e-01	 1.279167e+01
 1.054375e+00	 8.983492e-01	 1.262447e+01
 1.043286e+00	 9.112042e-01	 1.243467e+01
 1.032035e+00	 9.239276e-01	 1.223686e+01
 1.020625e+00	 9.365162e-01	 1.204731e+01
 1.009059e+00	 9.489673e-01	 1.188374e+01
 1.070998e+00	 8.901003e-01	 1.280956e+01
 1.060013e+00	 9.031532e-01	 1.264312e+01
 1.048865e+00	 9.160770e-01	 1.245462e+01
 1.037554e+00	 9.288683e-01	 1.225853e+01
 1.026083e+00	 9.415243e-01	 1.207107e+01
 1.014455e+00	 9.540420e-01	 1.190997e+01
 1.076694e+00	 8.948348e-01	 1.282654e+01
 1.065652e+00	 9.079573e-01	 1.266083e+01
 1.054444e+00	 9.209497e-01	 1.247324e+01
 1.043073e+00	 9.338091e-01	 1.227835e+01
 1.031541e+00	 9.465325e-01	 1.209252e+01
 1.019851e+00	 9.591167e-01	 1.193373e+01
 1.082391e+00	 8.995694e-01	 1.284151e+01
 1.071290e+00	 9.127613e-01	 1.267660e+01
 1.060023e+00	 9.258225e-01	 1.248966e+01
 1.048592e+00	 9.387499e-01	 1.229555e+01
 1.036999e+00	 9.515406e-01	 1.211103e+01
 1.025247e+00	 9.641914e-01	 1.195451e+01
 9.982665e-01	 9.388179e-01	 1.182619e+01
 9.866712e-01	 9.509967e-01	 1.165258e+01
 9.749261e-01	 9.630337e-01	 1.144431e+01
 9.630337e-01	 9.749261e-01	 1.122070e+01
 9.509967e-01	 9.866712e-01	 1.100135e+01
 9.388179e-01	 9.982665e-01	 1.080596e+01
 1.003662e+00	 9.438926e-01	 1.185562e+01
 9.920046e-01	 9.561373e-01	 1.168368e+01
 9.801960e-01	 9.682393e-01	 1.147550e+01
 9.682393e-01	 9.801960e-01	 1.125181e+01
 9.561373e-01	 9.920046e-01	 1.103369e+01
 9.438926e-01	 1.003662e+00	 1.084235e+01
 1.009059e+00	 9.489673e-01	 1.188374e+01
 9.973380e-01	 9.612778e-01	 1.171368e+01
 9.854659e-01	 9.734449e-01	 1.150635e+01
 9.734449e-01	 9.854659e-01	 1.128357e+01
 9.612778e-01	 9.973380e-01	 1.106760e+01
 9.489673e-01	 1.009059e+00	 1.088083e+01
 1.014455e+00	 9.540420e-01	 1.190997e+01
 1.002671e+00	 9.664183e-01	 1.174204e+01
 9.907357e-01	 9.786505e-01	 1.153626e+01
 9.786505e-01	 9.907357e-01	 1.131525e+01
 9.664183e-01	 1.002671e+00	 1.110209e+01
 9.540420e-01	 1.014455e+00	 1.092005e+01
 1.019851e+00	 9.591167e-01	 1.193373e+01
 1.008005e+00	 9.715588e-01	 1.176826e+01
 9.960056e-01	 9.838561e-01	 1.156470e+01
 9.838561e-01	 9.960056e-01	 1.134615e+01
 9.715588e-01	 1.008005e+00	 1.113620e+01
 9.591167e-01	 1.019851e+00	 1.095871e+01
 1.025247e+00	 9.641914e-01	 1.195451e+01
 1.013338e+00	 9.766994e-01	 1.179189e+01
 1.001275e+00	 9.890617e-01	 1.159116e+01
 9.890617e-01	 1.001275e+00	 1.137559e+01
 9.766994e-01	 1.013338e+00	 1.116903e+01
 9.641914e-01	 1.025247e+00	 1.099555e+01
 9.388179e-01	 9.982665e-01	 1.080596e+01
 9.265000e-01	 1.009709e+00	 1.061440e+01
 9.140460e-01	 1.020997e+00	 1.040259e+01
 9.014587e-01	 1.032127e+00	 1.018339e+01
 8.887412e-01	 1.043098e+00	 9.968501e+00
 8.758965e-01	 1.053907e+00	 9.768197e+00
 9.438926e-01	 1.003662e+00	 1.084235e+01
 9.315081e-01	 1.015167e+00	 1.065706e+01
 9.189868e-01	 1.026516e+00	 1.045114e+01
 9.063315e-01	 1.037707e+00	 1.023603e+01
 8.935452e-01	 1.048737e+00	 1.002190e+01
 8.806311e-01	 1.059604e+00	 9.817414e+00
 9.489673e-01	 1.009059e+00	 1.088083e+01
 9.365162e-01	 1.020625e+00	 1.070127e+01
 9.239276e-01	 1.032035e+00	 1.049966e+01
 9.112042e-01	 1.043286e+00	 1.028669e+01
 8.983492e-01	 1.054375e+00	 1.007170e+01
 8.853657e-01	 1.065301e+00	 9.862438e+00
 9.540420e-01	 1.014455e+00	 1.092005e+01
 9.415243e-01	 1.026083e+00	 1.074540e+01
 9.288683e-01	 1.037554e+00	 1.054649e+01
 9.160770e-01	 1.048865e+00	 1.033391e+01
 9.031532e-01	 1.060013e+00	 1.011683e+01
 8.901003e-01	 1.070998e+00	 9.902812e+00
 9.591167e-01	 1.019851e+00	 1.095871e+01
 9.465325e-01	 1.031541e+00	 1.078788e+01
 9.338091e-01	 1.043073e+00	 1.059002e+01
 9.209497e-01	 1.054444e+00	 1.037623e+01
 9.079573e-01	 1.065652e+00	 1.015625e+01
 8.948348e-01	 1.076694e+00	 9.938092e+00
 9.641914e-01	 1.025247e+00	 1.099555e+01
 9.515406e-01	 1.036999e+00	 1.082718e+01
 9.387499e-01	 1.048592e+00	 1.062866e+01
 9.258225e-01	 1.060023e+00	 1.041228e+01
 9.127613e-01	 1.071290e+00	 1.018894e+01
 8.995694e-01	 1.082391e+00	 9.967847e+00
 8.758965e-01	 1.053907e+00	 9.768197e+00
 8.629278e-01	 1.064552e+00	 9.559019e+00
 8.498380e-01	 1.075030e+00	 9.323563e+00
 8.366305e-01	 1.085341e+00	 9.078686e+00
 8.233085e-01	 1.095481e+00	 8.839305e+00
 8.098752e-01	 1.105449e+00	 8.618183e+00
 8.806311e-01	 1.059604e+00	 9.817414e+00
 8.675922e-01	 1.070306e+00	 9.600503e+00
 8.544317e-01	 1.080841e+00	 9.359080e+00
 8.411528e-01	 1.091207e+00	 9.114257e+00
 8.277588e-01	 1.101402e+00	 8.885283e+00
 8.142529e-01	 1.111424e+00	 8.689269e+00
 8.853657e-01	 1.065301e+00	 9.862438e+00
 8.722567e-01	 1.076061e+00	 9.639641e+00
 8.590255e-01	 1.086652e+00	 9.396921e+00
 8.456752e-01	 1.097074e+00	 9.158817e+00
 8.322091e-01	 1.107324e+00	 8.948053e+00
 8.186306e-01	 1.117400e+00	 8.764832e+00
 8.901003e-01	 1.070998e+00	 9.902812e+00
 8.769212e-01	 1.081815e+00	 9.676523e+00
 8.636192e-01	 1.092463e+00	 9.437402e+00
 8.501975e-01	 1.102941e+00	 9.212600e+00
 8.366594e-01	 1.113245e+00	 9.025354e+00
 8.230083e-01	 1.123375e+00	 8.829370e+00
 8.948348e-01	 1.076694e+00	 9.938092e+00
 8.815856e-01	 1.087569e+00	 9.711237e+00
 8.682129e-01	 1.098274e+00	 9.480825e+00
 8.547198e-01	 1.108807e+00	 9.275822e+00
 8.411097e-01	 1.119167e+00	 9.094103e+00
 8.273860e-01	 1.129350e+00	 8.884792e+00
 8.995694e-01	 1.082391e+00	 9.967847e+00
 8.862501e-01	 1.093324e+00	 9.743870e+00
 8.728066e-01	 1.104085e+00	 9.527486e+00
 8.592421e-01	 1.114674e+00	 9.343653e+00
 8.455601e-01	 1.125088e+00	 9.150031e+00
 8.317637e-01	 1.135326e+00	 8.933028e+00
 8.098752e-01	 1.105449e+00	 8.618183e+00
 7.963340e-01	 1.115243e+00	 8.442857e+00
 7.826882e-01	 1.124862e+00	 8.262800e+00
 7.689412e-01	 1.134304e+00	 8.054356e+00
 7.550963e-01	 1.143567e+00	 7.811045e+00
 7.411572e-01	 1.152650e+00	 7.526285e+00
 8.142529e-01	 1.111424e+00	 8.689269e+00
 8.006385e-01	 1.121271e+00	 8.508574e+00
 7.869189e-01	 1.130942e+00	 8.316143e+00
 7.730976e-01	 1.140435e+00	 8.103345e+00
 7.591779e-01	 1.149748e+00	 7.861251e+00
 7.451634e-01	 1.158880e+00	 7.580760e+00
 8.186306e-01	 1.117400e+00	 8.764832e+00
 8.049430e-01	 1.127300e+00	 8.567390e+00
 7.911497e-01	 1.137023e+00	 8.366331e+00
 7.772540e-01	 1.146566e+00	 8.151121e+00
 7.632595e-01	 1.155929e+00	 7.910866e+00
 7.491697e-01	 1.165111e+00	 7.634448e+00
 8.230083e-01	 1.123375e+00	 8.829370e+00
 8.092475e-01	 1.133328e+00	 8.620493e+00
 7.953804e-01	 1.143103e+00	 8.414053e+00
 7.814105e-01	 1.152698e+00	 8.198071e+00
 7.673412e-01	 1.162111e+00	 7.960163e+00
 7.531760e-01	 1.171341e+00	 7.687686e+00
 8.273860e-01	 1.129350e+00	 8.884792e+00
 8.135520e-01	 1.139356e+00	 8.669102e+00
 7.996112e-01	 1.149183e+00	 8.460042e+00
 7.855669e-01	 1.158829e+00	 8.244631e+00
 7.714228e-01	 1.168292e+00	 8.009466e+00
 7.571822e-01	 1.177572e+00	 7.740866e+00
 8.317637e-01	 1.135326e+00	 8.933028e+00
 8.178565e-01	 1.145385e+00	 8.714474e+00
 8.038419e-01	 1.155264e+00	 8.505074e+00
 7.897233e-01	 1.164960e+00	 8.291289e+00
 7.755044e-01	 1.174474e+00	 8.059152e+00
 7.611885e-01	 1.183802e+00	 7.794424e+00
 7.411572e-01	 1.152650e+00	 7.526285e+00
 7.271271e-01	 1.161551e+00	 7.258673e+00
 7.130097e-01	 1.170270e+00	 7.050101e+00
 6.988084e-01	 1.178805e+00	 6.870840e+00
 6.845267e-01	 1.187155e+00	 6.692157e+00
 6.701682e-01	 1.195320e+00	 6.486372e+00
 7.451634e-01	 1.158880e+00	 7.580760e+00
 7.310576e-01	 1.167830e+00	 7.319949e+00
 7.168638e-01	 1.176596e+00	 7.116017e+00
 7.025857e-01	 1.185177e+00	 6.938509e+00
 6.882269e-01	 1.193573e+00	 6.758698e+00
 6.737908e-01	 1.201781e+00	 6.548962e+00
 7.491697e-01	 1.165111e+00	 7.634448e+00
 7.349880e-01	 1.174108e+00	 7.378864e+00
 7.207179e-01	 1.182922e+00	 7.179338e+00
 7.063631e-01	 1.191549e+00	 7.003574e+00
 6.919270e-01	 1.199990e+00	 6.822826e+00
 6.774133e-01	 1.208242e+00	 6.609498e+00
 7.531760e-01	 1.171341e+00	 7.687686e+00
 7.389184e-01	 1.180387e+00	 7.435967e+00
 7.245720e-01	 1.189247e+00	 7.240711e+00
 7.101404e-01	 1.197921e+00	 7.066723e+00
 6.956271e-01	 1.206407e+00	 6.885214e+00
 6.810358e-01	 1.214703e+00	 6.668581e+00
 7.571822e-01	 1.177572e+00	 7.740866e+00
 7.428488e-01	 1.186666e+00	 7.492001e+00
 7.284261e-01	 1.195573e+00	 7.300815e+00
 7.139178e-01	 1.204293e+00	 7.128676e+00
 6.993273e-01	 1.212824e+00	 6.946566e+00
 6.846583e-01	 1.221165e+00	 6.726849e+00
 7.611885e-01	 1.183802e+00	 7.794424e+00
 7.467792e-01	 1.192944e+00	 7.548384e+00
 7.322802e-01	 1.201899e+00	 7.360368e+00
 7.176951e-01	 1.210665e+00	 7.190188e+00
 7.030274e-01	 1.219241e+00	 7.007623e+00
 6.882809e-01	 1.227626e+00	 6.784973e+00
 6.701682e-01	 1.195320e+00	 6.486372e+00
 6.557365e-01	 1.203297e+00	 6.260665e+00
 6.412350e-01	 1.211087e+00	 6.038190e+00
 6.266674e-01	 1.218689e+00	 5.817328e+00
 6.120372e-01	 1.226102e+00	 5.598125e+00
 5.973481e-01	 1.233325e+00	 5.382249e+00
 6.737908e-01	 1.201781e+00	 6.548962e+00
 6.592810e-01	 1.209802e+00	 6.319705e+00
 6.447011e-01	 1.217634e+00	 6.096635e+00
 6.300548e-01	 1.225277e+00	 5.877238e+00
 6.153455e-01	 1.232729e+00	 5.660678e+00
 6.005770e-01	 1.239991e+00	 5.447753e+00
 6.774133e-01	 1.208242e+00	 6.609498e+00
 6.628255e-01	 1.216306e+00	 6.377003e+00
 6.481673e-01	 1.224180e+00	 6.153431e+00
 6.334422e-01	 1.231864e+00	 5.935397e+00
 6.186539e-01	 1.239357e+00	 5.721212e+00
 6.038059e-01	 1.246658e+00	 5.510846e+00
 6.810358e-01	 1.214703e+00	 6.668581e+00
 6.663700e-01	 1.222810e+00	 6.433082e+00
 6.516334e-01	 1.230727e+00	 6.209057e+00
 6.368296e-01	 1.238452e+00	 5.992274e+00
 6.219622e-01	 1.245984e+00	 5.780224e+00
 6.070348e-01	 1.253325e+00	 5.572084e+00
 6.846583e-01	 1.221165e+00	 6.726849e+00
 6.699146e-01	 1.229315e+00	 6.488500e+00
 6.550995e-01	 1.237273e+00	 6.264027e+00
 6.402170e-01	 1.245039e+00	 6.048375e+00
 6.252705e-01	 1.252612e+00	 5.838245e+00
 6.102637e-01	 1.259991e+00	 5.632056e+00
 6.882809e-01	 1.227626e+00	 6.784973e+00
 6.734591e-01	 1.235819e+00	 6.543854e+00
 6.585657e-01	 1.243819e+00	 6.318893e+00
 6.436044e-01	 1.251627e+00	 6.104242e+00
 6.285788e-01	 1.259240e+00	 5.895841e+00
 6.134926e-01	 1.266658e+00	 5.691385e+00
 5.973481e-01	 1.233325e+00	 5.382249e+00
 5.826035e-01	 1.240358e+00	 5.175449e+00
 5.678070e-01	 1.247201e+00	 4.978275e+00
 5.529623e-01	 1.253853e+00	 4.786695e+00
 5.380728e-01	 1.260314e+00	 4.597862e+00
 5.231421e-01	 1.266585e+00	 4.410039e+00
 6.005770e-01	 1.239991e+00	 5.447753e+00
 5.857527e-01	 1.247063e+00	 5.242465e+00
 5.708763e-01	 1.253943e+00	 5.044719e+00
 5.559513e-01	 1.260631e+00	 4.851340e+00
 5.409813e-01	 1.267127e+00	 4.660396e+00
 5.259699e-01	 1.273431e+00	 4.471125e+00
 6.038059e-01	 1.246658e+00	 5.510846e+00
 5.889019e-01	 1.253767e+00	 5.306842e+00
 5.739455e-01	 1.260684e+00	 5.108669e+00
 5.589403e-01	 1.267408e+00	 4.913922e+00
 5.438898e-01	 1.273940e+00	 4.721492e+00
 5.287977e-01	 1.280278e+00	 4.531495e+00
 6.070348e-01	 1.253325e+00	 5.572084e+00
 5.920511e-01	 1.260472e+00	 5.369182e+00
 5.770147e-01	 1.267426e+00	 5.170717e+00
 5.619293e-01	 1.274186e+00	 4.974963e+00
 5.467983e-01	 1.280752e+00	 4.781545e+00
 5.316255e-01	 1.287124e+00	 4.591364e+00
 6.102637e-01	 1.259991e+00	 5.632056e+00
 5.952003e-01	 1.267177e+00	 5.430121e+00
 5.800840e-01	 1.274167e+00	 5.231485e+00
 5.649182e-01	 1.280963e+00	 5.035014e+00
 5.497068e-01	 1.287565e+00	 4.840982e+00
 5.344533e-01	 1.293971e+00	 4.650981e+00
 6.134926e-01	 1.266658e+00	 5.691385e+00
 5.983495e-01	 1.273881e+00	 5.490326e+00
 5.831532e-01	 1.280909e+00	 5.291623e+00
 5.679072e-01	 1.287741e+00	 5.094657e+00
 5.526153e-01	 1.294377e+00	 4.900260e+00
 5.372811e-01	 1.300817e+00	 4.710626e+00
 5.231421e-01	 1.266585e+00	 4.410039e+00
 5.081737e-01	 1.272664e+00	 4.226679e+00
 4.931711e-01	 1.278553e+00	 4.049039e+00
 4.781378e-01	 1.284250e+00	 3.873513e+00
 4.630772e-01	 1.289758e+00	 3.697270e+00
 4.479929e-01	 1.295074e+00	 3.518156e+00
 5.259699e-01	 1.273431e+00	 4.471125e+00
 5.109205e-01	 1.279544e+00	 4.287416e+00
 4.958369e-01	 1.285464e+00	 4.109983e+00
 4.807223e-01	 1.291192e+00	 3.934771e+00
 4.655803e-01	 1.296729e+00	 3.758500e+00
 4.504145e-01	 1.302075e+00	 3.578571e+00
 5.287977e-01	 1.280278e+00	 4.531495e+00
 5.136674e-01	 1.286423e+00	 4.347951e+00
 4.985026e-01	 1.292375e+00	 4.170873e+00
 4.833068e-01	 1.298134e+00	 3.995876e+00
 4.680835e-01	 1.303701e+00	 3.819361e+00
 4.528361e-01	 1.309075e+00	 3.638410e+00
 5.316255e-01	 1.287124e+00	 4.591364e+00
 5.164143e-01	 1.293302e+00	 4.408317e+00
 5.011684e-01	 1.299286e+00	 4.231604e+00
 4.858914e-01	 1.305076e+00	 4.056633e+00
 4.705866e-01	 1.310672e+00	 3.879606e+00
 4.552576e-01	 1.316075e+00	 3.697422e+00
 5.344533e-01	 1.293971e+00	 4.650981e+00
 5.191612e-01	 1.300181e+00	 4.468583e+00
 5.038342e-01	 1.306197e+00	 4.292110e+00
 4.884759e-01	 1.312018e+00	 4.116882e+00
 4.730897e-01	 1.317644e+00	 3.939027e+00
 4.576792e-01	 1.323076e+00	 3.755386e+00
 5.372811e-01	 1.300817e+00	 4.710626e+00
 5.219081e-01	 1.307061e+00	 4.528850e+00
 5.065000e-01	 1.313108e+00	 4.352358e+00
 4.910604e-01	 1.318960e+00	 4.176496e+00
 4.755928e-01	 1.324616e+00	 3.997445e+00
 4.601008e-01	 1.330076e+00	 3.812113e+00
 4.479929e-01	 1.295074e+00	 3.518156e+00
 4.328882e-01	 1.300201e+00	 3.331022e+00
 4.177665e-01	 1.305138e+00	 3.142682e+00
 4.026312e-01	 1.309887e+00	 2.969612e+00
 3.874855e-01	 1.314447e+00	 2.828496e+00
 3.723329e-01	 1.318819e+00	 2.736086e+00
 4.504145e-01	 1.302075e+00	 3.578571e+00
 4.352281e-01	 1.307229e+00	 3.390454e+00
 4.200247e-01	 1.312193e+00	 3.201775e+00
 4.048076e-01	 1.316967e+00	 3.028864e+00
 3.895801e-01	 1.321552e+00	 2.888276e+00
 3.743455e-01	 1.325948e+00	 2.796642e+00
 4.528361e-01	 1.309075e+00	 3.638410e+00
 4.375681e-01	 1.314257e+00	 3.449320e+00
 4.222829e-01	 1.319248e+00	 3.260550e+00
 4.069839e-01	 1.324048e+00	 3.088152e+00
 3.916746e-01	 1.328657e+00	 2.948409e+00
 3.763581e-01	 1.333076e+00	 2.857691e+00
 4.552576e-01	 1.316075e+00	 3.697422e+00
 4.399080e-01	 1.321285e+00	 3.507355e+00
 4.245411e-01	 1.326303e+00	 3.318685e+00
 4.091603e-01	 1.331128e+00	 3.147046e+00
 3.937691e-01	 1.335762e+00	 3.008320e+00
 3.783707e-01	 1.340205e+00	 2.918476e+00
 4.576792e-01	 1.323076e+00	 3.755386e+00
 4.422479e-01	 1.328314e+00	 3.564326e+00
 4.267993e-01	 1.333358e+00	 3.375883e+00
 4.113367e-01	 1.338209e+00	 3.205148e+00
 3.958636e-01	 1.342867e+00	 3.067463e+00
 3.803834e-01	 1.347334e+00	 2.978267e+00
 4.601008e-01	 1.330076e+00	 3.812113e+00
 4.445879e-01	 1.335342e+00	 3.620027e+00
 4.290575e-01	 1.340412e+00	 3.431877e+00
 4.135131e-01	 1.345289e+00	 3.262083e+00
 3.979581e-01	 1.349972e+00	 3.125322e+00
 3.823960e-01	 1.354463e+00	 3.036366e+00
 3.723329e-01	 1.318819e+00	 2.736086e+00
 3.571765e-01	 1.323004e+00	 2.642152e+00
 3.420196e-01	 1.327003e+00	 2.499450e+00
 3.268653e-01	 1.330817e+00	 2.333629e+00
 3.117169e-01	 1.334447e+00	 2.169008e+00
 2.965773e-01	 1.337893e+00	 2.028385e+00
 3.743455e-01	 1.325948e+00	 2.796642e+00
 3.591072e-01	 1.330155e+00	 2.703673e+00
 3.438684e-01	 1.334176e+00	 2.559378e+00
 3.286322e-01	 1.338011e+00	 2.390634e+00
 3.134018e-01	 1.341660e+00	 2.223315e+00
 2.981804e-01	 1.345125e+00	 2.081634e+00
 3.763581e-01	 1.333076e+00	 2.857691e+00
 3.610379e-01	 1.337307e+00	 2.765733e+00
 3.457171e-01	 1.341349e+00	 2.620172e+00
 3.303990e-01	 1.345204e+00	 2.448745e+00
 3.150868e-01	 1.348873e+00	 2.278909e+00
 2.997835e-01	 1.352356e+00	 2.136326e+00
 3.783707e-01	 1.340205e+00	 2.918476e+00
 3.629686e-01	 1.344458e+00	 2.827299e+00
 3.475659e-01	 1.348522e+00	 2.680652e+00
 3.321659e-01	 1.352398e+00	 2.506687e+00
 3.167717e-01	 1.356086e+00	 2.334478e+00
 3.013866e-01	 1.359588e+00	 2.191163e+00
 3.803834e-01	 1.347334e+00	 2.978267e+00
 3.648993e-01	 1.351610e+00	 2.887370e+00
 3.494146e-01	 1.355695e+00	 2.739665e+00
 3.339327e-01	 1.359591e+00	 2.563210e+00
 3.184567e-01	 1.363299e+00	 2.388728e+00
 3.029898e-01	 1.366820e+00	 2.244860e+00
 3.823960e-01	 1.354463e+00	 3.036366e+00
 3.668299e-01	 1.358761e+00	 2.944981e+00
 3.512634e-01	 1.362868e+00	 2.796089e+00
 3.356995e-01	 1.366785e+00	 2.617091e+00
 3.201416e-01	 1.370513e+00	 2.440388e+00
 3.045929e-01	 1.374052e+00	 2.296150e+00
 2.965773e-01	 1.337893e+00	 2.028385e+00
 2.814496e-01	 1.341157e+00	 1.914928e+00
 2.663370e-01	 1.344239e+00	 1.815689e+00
 2.512422e-01	 1.347142e+00	 1.727097e+00
 2.361683e-01	 1.349866e+00	 1.644291e+00
 2.211181e-01	 1.352413e+00	 1.561255e+00
 2.981804e-01	 1.345125e+00	 2.081634e+00
 2.829710e-01	 1.348406e+00	 1.968538e+00
 2.677766e-01	 1.351506e+00	 1.869885e+00
 2.526003e-01	 1.354424e+00	 1.781895e+00
 2.374449e-01	 1.357163e+00	 1.699411e+00
 2.223133e-01	 1.359724e+00	 1.616047e+00
 2.997835e-01	 1.352356e+00	 2.136326e+00
 2.844923e-01	 1.355656e+00	 2.023751e+00
 2.692163e-01	 1.358772e+00	 1.925845e+00
 2.539583e-01	 1.361706e+00	 1.838595e+00
 2.387215e-01	 1.364460e+00	 1.756521e+00
 2.235086e-01	 1.367034e+00	 1.672834e+00
 3.013866e-01	 1.359588e+00	 2.191163e+00
 2.860137e-01	 1.362905e+00	 2.079307e+00
 2.706559e-01	 1.366038e+00	 1.982349e+00
 2.553164e-01	 1.368988e+00	 1.896018e+00
 2.399981e-01	 1.371756e+00	 1.814480e+00
 2.247038e-01	 1.374344e+00	 1.730505e+00
 3.029898e-01	 1.366820e+00	 2.244860e+00
 2.875350e-01	 1.370155e+00	 2.133959e+00
 2.720956e-01	 1.373304e+00	 2.038186e+00
 2.566745e-01	 1.376270e+00	 1.952988e+00
 2.412746e-01	 1.379053e+00	 1.872144e+00
 2.258990e-01	 1.381655e+00	 1.787949e+00
 3.045929e-01	 1.374052e+00	 2.296150e+00
 2.890564e-01	 1.377404e+00	 2.186468e+00
 2.735353e-01	 1.380570e+00	 2.092151e+00
 2.580325e-01	 1.383552e+00	 2.008333e+00
 2.425512e-01	 1.386349e+00	 1.928377e+00
 2.270943e-01	 1.388965e+00	 1.844059e+00
 2.211181e-01	 1.352413e+00	 1.561255e+00
 2.060944e-01	 1.354784e+00	 1.474554e+00
 1.911000e-01	 1.356980e+00	 1.388292e+00
 1.761376e-01	 1.359003e+00	 1.306416e+00
 1.612099e-01	 1.360855e+00	 1.232252e+00
 1.463195e-01	 1.362536e+00	 1.168679e+00
 2.223133e-01	 1.359724e+00	 1.616047e+00
 2.072084e-01	 1.362107e+00	 1.528594e+00
 1.921330e-01	 1.364315e+00	 1.441731e+00
 1.770897e-01	 1.366349e+00	 1.359473e+00
 1.620813e-01	 1.368211e+00	 1.285175e+00
 1.471104e-01	 1.369902e+00	 1.221707e+00
 2.235086e-01	 1.367034e+00	 1.672834e+00
 2.083225e-01	 1.369430e+00	 1.584502e+00
 1.931660e-01	 1.371650e+00	 1.496795e+00
 1.780418e-01	 1.373695e+00	 1.413846e+00
 1.629527e-01	 1.375567e+00	 1.339079e+00
 1.479013e-01	 1.377267e+00	 1.275401e+00
 2.247038e-01	 1.374344e+00	 1.730505e+00
 2.094365e-01	 1.376754e+00	 1.641212e+00
 1.941989e-01	 1.378985e+00	 1.552486e+00
 1.789939e-01	 1.381041e+00	 1.468620e+00
 1.638241e-01	 1.382923e+00	 1.393155e+00
 1.486922e-01	 1.384632e+00	 1.329073e+00
 2.258990e-01	 1.381655e+00	 1.787949e+00
 2.105505e-01	 1.384077e+00	 1.697655e+00
 1.952319e-01	 1.386320e+00	 1.607801e+00
 1.799460e-01	 1.388387e+00	 1.522885e+00
 1.646955e-01	 1.390279e+00	 1.446597e+00
 1.494831e-01	 1.391997e+00	 1.382035e+00
 2.270943e-01	 1.388965e+00	 1.844059e+00
 2.116645e-01	 1.391400e+00	 1.752763e+00
 1.962649e-01	 1.393656e+00	 1.661739e+00
 1.808981e-01	 1.395733e+00	 1.575723e+00
 1.655669e-01	 1.397635e+00	 1.498593e+00
 1.502741e-01	 1.399362e+00	 1.433593e+00
 1.463195e-01	 1.362536e+00	 1.168679e+00
 1.314689e-01	 1.364049e+00	 1.115370e+00
 1.166606e-01	 1.365396e+00	 1.069249e+00
 1.018971e-01	 1.366577e+00	 1.028932e+00
 8.718081e-02	 1.367594e+00	 9.932952e-01
 7.251399e-02	 1.368450e+00	 9.616427e-01
 1.471104e-01	 1.369902e+00	 1.221707e+00
 1.321795e-01	 1.371423e+00	 1.168565e+00
 1.172912e-01	 1.372776e+00	 1.122506e+00
 1.024479e-01	 1.373964e+00	 1.082139e+00
 8.765205e-02	 1.374987e+00	 1.046350e+00
 7.290595e-02	 1.375847e+00	 1.014477e+00
 1.479013e-01	 1.377267e+00	 1.275401e+00
 1.328902e-01	 1.378796e+00	 1.222189e+00
 1.179218e-01	 1.380157e+00	 1.176042e+00
 1.029987e-01	 1.381351e+00	 1.135537e+00
 8.812330e-02	 1.382379e+00	 1.099546e+00
 7.329792e-02	 1.383245e+00	 1.067411e+00
 1.486922e-01	 1.384632e+00	 1.329073e+00
 1.336008e-01	 1.386169e+00	 1.275677e+00
 1.185524e-01	 1.387537e+00	 1.229412e+00
 1.035495e-01	 1.388737e+00	 1.188796e+00
 8.859455e-02	 1.389772e+00	 1.152652e+00
 7.368989e-02	 1.390642e+00	 1.120305e+00
 1.494831e-01	 1.391997e+00	 1.382035e+00
 1.343114e-01	 1.393542e+00	 1.328464e+00
 1.191830e-01	 1.394918e+00	 1.282170e+00
 1.041003e-01	 1.396124e+00	 1.241578e+00
 8.906580e-02	 1.397164e+00	 1.205436e+00
 7.408186e-02	 1.398039e+00	 1.173017e+00
 1.502741e-01	 1.399362e+00	 1.433593e+00
 1.350221e-01	 1.400916e+00	 1.379980e+00
 1.198136e-01	 1.402298e+00	 1.333865e+00
 1.046511e-01	 1.403511e+00	 1.293547e+00
 8.953704e-02	 1.404556e+00	 1.257664e+00
 7.447382e-02	 1.405436e+00	 1.225403e+00
 7.251399e-02	 1.368450e+00	 9.616427e-01
 5.789894e-02	 1.369147e+00	 9.343544e-01
 4.333789e-02	 1.369685e+00	 9.122074e-01
 2.883299e-02	 1.370067e+00	 8.961818e-01
 1.438635e-02	 1.370295e+00	 8.882397e-01
-8.722822e-07	 1.370388e+00	 1.068802e+00
 7.290595e-02	 1.375847e+00	 1.014477e+00
 5.821191e-02	 1.376547e+00	 9.870553e-01
 4.357215e-02	 1.377089e+00	 9.648783e-01
 2.898884e-02	 1.377473e+00	 9.488220e-01
 1.446411e-02	 1.377702e+00	 9.408070e-01
-8.667768e-07	 1.377795e+00	 1.146211e+00
 7.329792e-02	 1.383245e+00	 1.067411e+00
 5.852488e-02	 1.383948e+00	 1.039796e+00
 4.380641e-02	 1.384492e+00	 1.017522e+00
 2.914470e-02	 1.384879e+00	 1.001393e+00
 1.454187e-02	 1.385109e+00	 9.933212e-01
-8.610316e-07	 1.385203e+00	 1.224215e+00
 7.368989e-02	 1.390642e+00	 1.120305e+00
 5.883784e-02	 1.391349e+00	 1.092513e+00
 4.404067e-02	 1.391896e+00	 1.070135e+00
 2.930055e-02	 1.392284e+00	 1.053932e+00
 1.461964e-02	 1.392516e+00	 1.045840e+00
-8.550482e-07	 1.392611e+00	 1.302844e+00
 7.408186e-02	 1.398039e+00	 1.173017e+00
 5.915081e-02	 1.398750e+00	 1.145142e+00
 4.427493e-02	 1.399300e+00	 1.122715e+00
 2.945641e-02	 1.399690e+00	 1.106481e+00
 1.469740e-02	 1.399923e+00	 1.098424e+00
-8.488283e-07	 1.400018e+00	 1.382130e+00
 7.447382e-02	 1.405436e+00	 1.225403e+00
 5.946378e-02	 1.406151e+00	 1.197619e+00
 4.450918e-02	 1.406703e+00	 1.175259e+00
 2.961226e-02	 1.407096e+00	 1.159078e+00
 1.477517e-02	 1.407330e+00	 1.151135e+00
-8.423735e-07	 1.407426e+00	 1.462107e+00
 1.407407e+00	 0.000000e+00	 1.671208e+01
 1.407330e+00	 1.477517e-02	 1.671435e+01
 1.407096e+00	 2.961226e-02	 1.671452e+01
 1.406703e+00	 4.450918e-02	 1.671232e+01
 1.406151e+00	 5.946378e-02	 1.670722e+01
 1.405436e+00	 7.447382e-02	 1.669845e+01
 1.414815e+00	 0.000000e+00	 1.660321e+01
 1.414737e+00	 1.485293e-02	 1.660576e+01
 1.414502e+00	 2.976811e-02	 1.660616e+01
 1.414107e+00	 4.474344e-02	 1.660419e+01
 1.413551e+00	 5.977675e-02	 1.659936e+01
 1.412833e+00	 7.486579e-02	 1.659092e+01
 1.422222e+00	 0.000000e+00	 1.649695e+01
 1.422144e+00	 1.493069e-02	 1.649974e+01
 1.421907e+00	 2.992397e-02	 1.650034e+01
 1.421511e+00	 4.497770e-02	 1.649857e+01
 1.420952e+00	 6.008971e-02	 1.649397e+01
 1.420230e+00	 7.525776e-02	 1.648584e+01
 1.429630e+00	 0.000000e+00	 1.639320e+01
 1.429551e+00	 1.500846e-02	 1.639620e+01
 1.429313e+00	 3.007982e-02	 1.639696e+01
 1.428915e+00	 4.521196e-02	 1.639536e+01
 1.428353e+00	 6.040268e-02	 1.639097e+01
 1.427627e+00	 7.564973e-02	 1.638312e+01
 1.437037e+00	 0.000000e+00	 1.629188e+01
 1.436958e+00	 1.508622e-02	 1.629504e+01
 1.436719e+00	 3.023568e-02	 1.629593e+01
 1.436318e+00	 4.544622e-02	 1.629447e+01
 1.435754e+00	 6.071565e-02	 1.629028e+01
 1.435024e+00	 7.604169e-02	 1.628268e+01
 1.444444e+00	 0.000000e+00	 1.619290e+01
 1.444365e+00	 1.516399e-02	 1.619618e+01
 1.444125e+00	 3.039153e-02	 1.619716e+01
 1.443722e+00	 4.568048e-02	 1.619583e+01
 1.443155e+00	 6.102861e-02	 1.619181e+01
 1.442421e+00	 7.643366e-02	 1.618443e+01
 1.405436e+00	 7.447382e-02	 1.669845e+01
 1.404556e+00	 8.953704e-02	 1.668867e+01
 1.403511e+00	 1.046511e-01	 1.668056e+01
 1.402298e+00	 1.198136e-01	 1.667319e+01
 1.400916e+00	 1.350221e-01	 1.666554e+01
 1.399362e+00	 1.502741e-01	 1.665658e+01
 1.412833e+00	 7.486579e-02	 1.659092e+01
 1.411949e+00	 9.000829e-02	 1.658159e+01
 1.410898e+00	 1.052019e-01	 1.657408e+01
 1.409679e+00	 1.204442e-01	 1.656747e+01
 1.408289e+00	 1.357327e-01	 1.656077e+01
 1.406727e+00	 1.510650e-01	 1.655291e+01
 1.420230e+00	 7.525776e-02	 1.648584e+01
 1.419341e+00	 9.047954e-02	 1.647690e+01
 1.418285e+00	 1.057527e-01	 1.646992e+01
 1.417059e+00	 1.210748e-01	 1.646400e+01
 1.415662e+00	 1.364434e-01	 1.645817e+01
 1.414092e+00	 1.518559e-01	 1.645136e+01
 1.427627e+00	 7.564973e-02	 1.638312e+01
 1.426734e+00	 9.095079e-02	 1.637453e+01
 1.425672e+00	 1.063035e-01	 1.636801e+01
 1.424440e+00	 1.217054e-01	 1.636272e+01
 1.423035e+00	 1.371540e-01	 1.635768e+01
 1.421457e+00	 1.526468e-01	 1.635188e+01
 1.435024e+00	 7.604169e-02	 1.628268e+01
 1.434126e+00	 9.142203e-02	 1.627440e+01
 1.433059e+00	 1.068543e-01	 1.626829e+01
 1.431820e+00	 1.223360e-01	 1.626355e+01
 1.430409e+00	 1.378647e-01	 1.625926e+01
 1.428822e+00	 1.534377e-01	 1.625442e+01
 1.442421e+00	 7.643366e-02	 1.618443e+01
 1.441518e+00	 9.189328e-02	 1.617643e+01
 1.440446e+00	 1.074051e-01	 1.617068e+01
 1.439201e+00	 1.229666e-01	 1.616644e+01
 1.437782e+00	 1.385753e-01	 1.616284e+01
 1.436187e+00	 1.542286e-01	 1.615893e+01
 1.399362e+00	 1.502741e-01	 1.665658e+01
 1.397635e+00	 1.655669e-01	 1.664490e+01
 1.395733e+00	 1.808981e-01	 1.662961e+01
 1.393656e+00	 1.962649e-01	 1.661046e+01
 1.391400e+00	 2.116645e-01	 1.658734e+01
 1.388965e+00	 2.270943e-01	 1.656030e+01
 1.406727e+00	 1.510650e-01	 1.655291e+01
 1.404991e+00	 1.664383e-01	 1.654235e+01
 1.403079e+00	 1.818502e-01	 1.652804e+01
 1.400991e+00	 1.972978e-01	 1.650972e+01
 1.398723e+00	 2.127785e-01	 1.648728e+01
 1.396275e+00	 2.282895e-01	 1.646075e+01
 1.414092e+00	 1.518559e-01	 1.645136e+01
 1.412347e+00	 1.673097e-01	 1.644190e+01
 1.410425e+00	 1.828023e-01	 1.642857e+01
 1.408326e+00	 1.983308e-01	 1.641109e+01
 1.406046e+00	 2.138926e-01	 1.638932e+01
 1.403586e+00	 2.294847e-01	 1.636327e+01
 1.421457e+00	 1.526468e-01	 1.635188e+01
 1.419703e+00	 1.681811e-01	 1.634351e+01
 1.417771e+00	 1.837544e-01	 1.633119e+01
 1.415661e+00	 1.993638e-01	 1.631460e+01
 1.413369e+00	 2.150066e-01	 1.629354e+01
 1.410896e+00	 2.306800e-01	 1.626800e+01
 1.428822e+00	 1.534377e-01	 1.625442e+01
 1.427059e+00	 1.690526e-01	 1.624714e+01
 1.425117e+00	 1.847065e-01	 1.623589e+01
 1.422996e+00	 2.003968e-01	 1.622027e+01
 1.420693e+00	 2.161206e-01	 1.620002e+01
 1.418206e+00	 2.318752e-01	 1.617507e+01
 1.436187e+00	 1.542286e-01	 1.615893e+01
 1.434415e+00	 1.699240e-01	 1.615276e+01
 1.432463e+00	 1.856586e-01	 1.614265e+01
 1.430331e+00	 2.014297e-01	 1.612812e+01
 1.428016e+00	 2.172346e-01	 1.610882e+01
 1.425517e+00	 2.330704e-01	 1.608460e+01
 1.388965e+00	 2.270943e-01	 1.656030e+01
 1.386349e+00	 2.425512e-01	 1.653409e+01
 1.383552e+00	 2.580325e-01	 1.651204e+01
 1.380570e+00	 2.735353e-01	 1.649246e+01
 1.377404e+00	 2.890564e-01	 1.647408e+01
 1.374052e+00	 3.045929e-01	 1.645604e+01
 1.396275e+00	 2.282895e-01	 1.646075e+01
 1.393646e+00	 2.438278e-01	 1.643537e+01
 1.390833e+00	 2.593906e-01	 1.641485e+01
 1.387836e+00	 2.749749e-01	 1.639740e+01
 1.384654e+00	 2.905777e-01	 1.638165e+01
 1.381284e+00	 3.061960e-01	 1.636663e+01
 1.403586e+00	 2.294847e-01	 1.636327e+01
 1.400942e+00	 2.451044e-01	 1.633864e+01
 1.398115e+00	 2.607487e-01	 1.631957e+01
 1.395103e+00	 2.764146e-01	 1.630416e+01
 1.391903e+00	 2.920991e-01	 1.629094e+01
 1.388516e+00	 3.077991e-01	 1.627889e+01
 1.410896e+00	 2.306800e-01	 1.626800e+01
 1.408239e+00	 2.463810e-01	 1.624411e+01
 1.405397e+00	 2.621067e-01	 1.622642e+01
 1.402369e+00	 2.778542e-01	 1.621294e+01
 1.399153e+00	 2.936204e-01	 1.620214e+01
 1.395748e+00	 3.094022e-01	 1.619294e+01
 1.418206e+00	 2.318752e-01	 1.617507e+01
 1.415536e+00	 2.476576e-01	 1.615196e+01
 1.412679e+00	 2.634648e-01	 1.613560e+01
 1.409635e+00	 2.792939e-01	 1.612397e+01
 1.406402e+00	 2.951418e-01	 1.611544e+01
 1.402979e+00	 3.110054e-01	 1.610889e+01
 1.425517e+00	 2.330704e-01	 1.608460e+01
 1.422832e+00	 2.489342e-01	 1.606235e+01
 1.419961e+00	 2.648229e-01	 1.604733e+01
 1.416901e+00	 2.807336e-01	 1.603742e+01
 1.413652e+00	 2.966631e-01	 1.603098e+01
 1.410211e+00	 3.126085e-01	 1.602684e+01
 1.374052e+00	 3.045929e-01	 1.645604e+01
 1.370513e+00	 3.201416e-01	 1.642943e+01
 1.366785e+00	 3.356995e-01	 1.638856e+01
 1.362868e+00	 3.512634e-01	 1.633801e+01
 1.358761e+00	 3.668299e-01	 1.628279e+01
 1.354463e+00	 3.823960e-01	 1.624400e+01
 1.381284e+00	 3.061960e-01	 1.636663e+01
 1.377726e+00	 3.218266e-01	 1.634250e+01
 1.373979e+00	 3.374664e-01	 1.630275e+01
 1.370041e+00	 3.531121e-01	 1.625218e+01
 1.365912e+00	 3.687606e-01	 1.619598e+01
 1.361591e+00	 3.844086e-01	 1.616056e+01
 1.388516e+00	 3.077991e-01	 1.627889e+01
 1.384939e+00	 3.235116e-01	 1.625720e+01
 1.381172e+00	 3.392332e-01	 1.621855e+01
 1.377214e+00	 3.549609e-01	 1.616792e+01
 1.373064e+00	 3.706913e-01	 1.611070e+01
 1.368720e+00	 3.864212e-01	 1.607909e+01
 1.395748e+00	 3.094022e-01	 1.619294e+01
 1.392152e+00	 3.251965e-01	 1.617358e+01
 1.388366e+00	 3.410001e-01	 1.613594e+01
 1.384387e+00	 3.568096e-01	 1.608516e+01
 1.380215e+00	 3.726220e-01	 1.602734e+01
 1.375849e+00	 3.884338e-01	 1.599940e+01
 1.402979e+00	 3.110054e-01	 1.610889e+01
 1.399366e+00	 3.268815e-01	 1.609168e+01
 1.395559e+00	 3.427669e-01	 1.605490e+01
 1.391560e+00	 3.586584e-01	 1.600385e+01
 1.387366e+00	 3.745527e-01	 1.594599e+01
 1.382978e+00	 3.904464e-01	 1.592130e+01
 1.410211e+00	 3.126085e-01	 1.602684e+01
 1.406579e+00	 3.285664e-01	 1.601153e+01
 1.402753e+00	 3.445337e-01	 1.597540e+01
 1.398733e+00	 3.605072e-01	 1.592390e+01
 1.394518e+00	 3.764834e-01	 1.586648e+01
 1.390106e+00	 3.924590e-01	 1.584457e+01
 1.354463e+00	 3.823960e-01	 1.624400e+01
 1.349972e+00	 3.979581e-01	 1.622202e+01
 1.345289e+00	 4.135131e-01	 1.618331e+01
 1.340412e+00	 4.290575e-01	 1.613387e+01
 1.335342e+00	 4.445879e-01	 1.607995e+01
 1.330076e+00	 4.601008e-01	 1.602808e+01
 1.361591e+00	 3.844086e-01	 1.616056e+01
 1.357077e+00	 4.000526e-01	 1.614206e+01
 1.352369e+00	 4.156895e-01	 1.610649e+01
 1.347467e+00	 4.313157e-01	 1.605985e+01
 1.342370e+00	 4.469278e-01	 1.600843e+01
 1.337077e+00	 4.625224e-01	 1.595880e+01
 1.368720e+00	 3.864212e-01	 1.607909e+01
 1.364182e+00	 4.021472e-01	 1.606376e+01
 1.359450e+00	 4.178659e-01	 1.603118e+01
 1.354522e+00	 4.335739e-01	 1.598731e+01
 1.349398e+00	 4.492677e-01	 1.593844e+01
 1.344077e+00	 4.649440e-01	 1.589115e+01
 1.375849e+00	 3.884338e-01	 1.599940e+01
 1.371288e+00	 4.042417e-01	 1.598693e+01
 1.366530e+00	 4.200423e-01	 1.595716e+01
 1.361577e+00	 4.358321e-01	 1.591601e+01
 1.356426e+00	 4.516077e-01	 1.586973e+01
 1.351077e+00	 4.673656e-01	 1.582486e+01
 1.382978e+00	 3.904464e-01	 1.592130e+01
 1.378393e+00	 4.063362e-01	 1.591134e+01
 1.373611e+00	 4.222186e-01	 1.588421e+01
 1.368632e+00	 4.380903e-01	 1.584572e+01
 1.363454e+00	 4.539476e-01	 1.580205e+01
 1.358078e+00	 4.697871e-01	 1.575968e+01
 1.390106e+00	 3.924590e-01	 1.584457e+01
 1.385498e+00	 4.084307e-01	 1.583679e+01
 1.380691e+00	 4.243950e-01	 1.581210e+01
 1.375686e+00	 4.403485e-01	 1.577620e+01
 1.370482e+00	 4.562876e-01	 1.573515e+01
 1.365078e+00	 4.722087e-01	 1.569536e+01
 1.330076e+00	 4.601008e-01	 1.602808e+01
 1.324616e+00	 4.755928e-01	 1.597431e+01
 1.318960e+00	 4.910604e-01	 1.591260e+01
 1.313108e+00	 5.065000e-01	 1.584650e+01
 1.307061e+00	 5.219081e-01	 1.577960e+01
 1.300817e+00	 5.372811e-01	 1.571550e+01
 1.337077e+00	 4.625224e-01	 1.595880e+01
 1.331587e+00	 4.780959e-01	 1.590711e+01
 1.325902e+00	 4.936449e-01	 1.584741e+01
 1.320019e+00	 5.091658e-01	 1.578332e+01
 1.313940e+00	 5.246550e-01	 1.571852e+01
 1.307663e+00	 5.401088e-01	 1.565669e+01
 1.344077e+00	 4.649440e-01	 1.589115e+01
 1.338559e+00	 4.805991e-01	 1.584159e+01
 1.332844e+00	 4.962295e-01	 1.578385e+01
 1.326930e+00	 5.118316e-01	 1.572167e+01
 1.320819e+00	 5.274019e-01	 1.565884e+01
 1.314510e+00	 5.429366e-01	 1.559917e+01
 1.351077e+00	 4.673656e-01	 1.582486e+01
 1.345531e+00	 4.831022e-01	 1.577747e+01
 1.339786e+00	 4.988140e-01	 1.572164e+01
 1.333842e+00	 5.144974e-01	 1.566126e+01
 1.327698e+00	 5.301487e-01	 1.560028e+01
 1.321356e+00	 5.457644e-01	 1.554267e+01
 1.358078e+00	 4.697871e-01	 1.575968e+01
 1.352502e+00	 4.856053e-01	 1.571450e+01
 1.346728e+00	 5.013985e-01	 1.566053e+01
 1.340753e+00	 5.171632e-01	 1.560185e+01
 1.334578e+00	 5.328956e-01	 1.554260e+01
 1.328203e+00	 5.485922e-01	 1.548695e+01
 1.365078e+00	 4.722087e-01	 1.569536e+01
 1.359474e+00	 4.881084e-01	 1.565240e+01
 1.353669e+00	 5.039830e-01	 1.560024e+01
 1.347664e+00	 5.198290e-01	 1.554316e+01
 1.341457e+00	 5.356425e-01	 1.548553e+01
 1.335049e+00	 5.514200e-01	 1.543176e+01
 1.300817e+00	 5.372811e-01	 1.571550e+01
 1.294377e+00	 5.526153e-01	 1.564728e+01
 1.287741e+00	 5.679072e-01	 1.556948e+01
 1.280909e+00	 5.831532e-01	 1.548762e+01
 1.273881e+00	 5.983495e-01	 1.540694e+01
 1.266658e+00	 6.134926e-01	 1.533232e+01
 1.307663e+00	 5.401088e-01	 1.565669e+01
 1.301190e+00	 5.555238e-01	 1.559079e+01
 1.294519e+00	 5.708962e-01	 1.551542e+01
 1.287651e+00	 5.862224e-01	 1.543650e+01
 1.280586e+00	 6.014987e-01	 1.535967e+01
 1.273325e+00	 6.167215e-01	 1.529023e+01
 1.314510e+00	 5.429366e-01	 1.559917e+01
 1.308002e+00	 5.584323e-01	 1.553555e+01
 1.301296e+00	 5.738852e-01	 1.546263e+01
 1.294392e+00	 5.892916e-01	 1.538666e+01
 1.287291e+00	 6.046479e-01	 1.531366e+01
 1.279991e+00	 6.199504e-01	 1.524928e+01
 1.321356e+00	 5.457644e-01	 1.554267e+01
 1.314815e+00	 5.613408e-01	 1.548128e+01
 1.308074e+00	 5.768742e-01	 1.541080e+01
 1.301134e+00	 5.923609e-01	 1.533778e+01
 1.293995e+00	 6.077972e-01	 1.526850e+01
 1.286658e+00	 6.231793e-01	 1.520896e+01
 1.328203e+00	 5.485922e-01	 1.548695e+01
 1.321627e+00	 5.642493e-01	 1.542774e+01
 1.314851e+00	 5.798632e-01	 1.535967e+01
 1.307876e+00	 5.954301e-01	 1.528950e+01
 1.300700e+00	 6.109464e-01	 1.522380e+01
 1.293324e+00	 6.264083e-01	 1.516878e+01
 1.335049e+00	 5.514200e-01	 1.543176e+01
 1.328440e+00	 5.671578e-01	 1.537468e+01
 1.321629e+00	 5.828521e-01	 1.530895e+01
 1.314617e+00	 5.984993e-01	 1.524154e+01
 1.307404e+00	 6.140956e-01	 1.517918e+01
 1.299991e+00	 6.296372e-01	 1.512829e+01
 1.266658e+00	 6.134926e-01	 1.533232e+01
 1.259240e+00	 6.285788e-01	 1.525729e+01
 1.251627e+00	 6.436044e-01	 1.517135e+01
 1.243819e+00	 6.585657e-01	 1.507216e+01
 1.235819e+00	 6.734591e-01	 1.495628e+01
 1.227626e+00	 6.882809e-01	 1.481899e+01
 1.273325e+00	 6.167215e-01	 1.529023e+01
 1.265867e+00	 6.318871e-01	 1.522014e+01
 1.258214e+00	 6.469918e-01	 1.513705e+01
 1.250366e+00	 6.620318e-01	 1.503876e+01
 1.242323e+00	 6.770036e-01	 1.492189e+01
 1.234087e+00	 6.919034e-01	 1.478186e+01
 1.279991e+00	 6.199504e-01	 1.524928e+01
 1.272495e+00	 6.351954e-01	 1.518385e+01
 1.264802e+00	 6.503791e-01	 1.510331e+01
 1.256912e+00	 6.654979e-01	 1.500567e+01
 1.248828e+00	 6.805481e-01	 1.488780e+01
 1.240548e+00	 6.955259e-01	 1.474535e+01
 1.286658e+00	 6.231793e-01	 1.520896e+01
 1.279122e+00	 6.385037e-01	 1.514786e+01
 1.271389e+00	 6.537665e-01	 1.506957e+01
 1.263459e+00	 6.689641e-01	 1.497243e+01
 1.255332e+00	 6.840926e-01	 1.485367e+01
 1.247009e+00	 6.991485e-01	 1.470933e+01
 1.293324e+00	 6.264083e-01	 1.516878e+01
 1.285750e+00	 6.418120e-01	 1.511163e+01
 1.277977e+00	 6.571539e-01	 1.503529e+01
 1.270005e+00	 6.724302e-01	 1.493856e+01
 1.261836e+00	 6.876372e-01	 1.481918e+01
 1.253471e+00	 7.027710e-01	 1.467371e+01
 1.299991e+00	 6.296372e-01	 1.512829e+01
 1.292377e+00	 6.451203e-01	 1.507464e+01
 1.284564e+00	 6.605413e-01	 1.499996e+01
 1.276552e+00	 6.758964e-01	 1.490365e+01
 1.268341e+00	 6.911817e-01	 1.478404e+01
 1.259932e+00	 7.063935e-01	 1.463837e+01
 1.227626e+00	 6.882809e-01	 1.481899e+01
 1.219241e+00	 7.030274e-01	 1.468553e+01
 1.210665e+00	 7.176951e-01	 1.458572e+01
 1.201899e+00	 7.322802e-01	 1.452028e+01
 1.192944e+00	 7.467792e-01	 1.447564e+01
 1.183802e+00	 7.611885e-01	 1.433468e+01
 1.234087e+00	 6.919034e-01	 1.478186e+01
 1.225658e+00	 7.067276e-01	 1.464841e+01
 1.217037e+00	 7.214724e-01	 1.455641e+01
 1.208225e+00	 7.361344e-01	 1.450751e+01
 1.199223e+00	 7.507096e-01	 1.446599e+01
 1.190033e+00	 7.651947e-01	 1.431908e+01
 1.240548e+00	 6.955259e-01	 1.474535e+01
 1.232075e+00	 7.104277e-01	 1.461281e+01
 1.223409e+00	 7.252498e-01	 1.453012e+01
 1.214551e+00	 7.399885e-01	 1.449966e+01
 1.205502e+00	 7.546401e-01	 1.445249e+01
 1.196263e+00	 7.692010e-01	 1.430187e+01
 1.247009e+00	 6.991485e-01	 1.470933e+01
 1.238492e+00	 7.141279e-01	 1.457880e+01
 1.229781e+00	 7.290271e-01	 1.450698e+01
 1.220876e+00	 7.438426e-01	 1.449339e+01
 1.211780e+00	 7.585705e-01	 1.443544e+01
 1.202494e+00	 7.732072e-01	 1.428316e+01
 1.253471e+00	 7.027710e-01	 1.467371e+01
 1.244909e+00	 7.178280e-01	 1.454645e+01
 1.236153e+00	 7.328045e-01	 1.448714e+01
 1.227202e+00	 7.476967e-01	 1.448200e+01
 1.218059e+00	 7.625009e-01	 1.441520e+01
 1.208724e+00	 7.772135e-01	 1.426310e+01
 1.259932e+00	 7.063935e-01	 1.463837e+01
 1.251326e+00	 7.215282e-01	 1.451584e+01
 1.242524e+00	 7.365818e-01	 1.447072e+01
 1.233528e+00	 7.515508e-01	 1.446580e+01
 1.224338e+00	 7.664313e-01	 1.439219e+01
 1.214955e+00	 7.812197e-01	 1.424192e+01
 1.183802e+00	 7.611885e-01	 1.433468e+01
 1.174474e+00	 7.755044e-01	 1.415041e+01
 1.164960e+00	 7.897233e-01	 1.399561e+01
 1.155264e+00	 8.038419e-01	 1.385830e+01
 1.145385e+00	 8.178565e-01	 1.372678e+01
 1.135326e+00	 8.317637e-01	 1.358991e+01
 1.190033e+00	 7.651947e-01	 1.431908e+01
 1.180655e+00	 7.795860e-01	 1.413540e+01
 1.171092e+00	 7.938798e-01	 1.398353e+01
 1.161344e+00	 8.080727e-01	 1.385028e+01
 1.151413e+00	 8.221610e-01	 1.372267e+01
 1.141301e+00	 8.361414e-01	 1.358821e+01
 1.196263e+00	 7.692010e-01	 1.430187e+01
 1.186837e+00	 7.836676e-01	 1.412035e+01
 1.177223e+00	 7.980362e-01	 1.397202e+01
 1.167424e+00	 8.123034e-01	 1.384274e+01
 1.157441e+00	 8.264655e-01	 1.371855e+01
 1.147277e+00	 8.405191e-01	 1.358587e+01
 1.202494e+00	 7.732072e-01	 1.428316e+01
 1.193018e+00	 7.877492e-01	 1.410514e+01
 1.183354e+00	 8.021927e-01	 1.396085e+01
 1.173505e+00	 8.165341e-01	 1.383544e+01
 1.163470e+00	 8.307700e-01	 1.371424e+01
 1.153252e+00	 8.448968e-01	 1.358288e+01
 1.208724e+00	 7.772135e-01	 1.426310e+01
 1.199200e+00	 7.918308e-01	 1.408975e+01
 1.189486e+00	 8.063491e-01	 1.394988e+01
 1.179585e+00	 8.207649e-01	 1.382824e+01
 1.169498e+00	 8.350746e-01	 1.370967e+01
 1.159227e+00	 8.492745e-01	 1.357931e+01
 1.214955e+00	 7.812197e-01	 1.424192e+01
 1.205381e+00	 7.959124e-01	 1.407420e+01
 1.195617e+00	 8.105055e-01	 1.393904e+01
 1.185665e+00	 8.249956e-01	 1.382102e+01
 1.175526e+00	 8.393791e-01	 1.370479e+01
 1.165203e+00	 8.536522e-01	 1.357526e+01
 1.135326e+00	 8.317637e-01	 1.358991e+01
 1.125088e+00	 8.455601e-01	 1.344647e+01
 1.114674e+00	 8.592421e-01	 1.330183e+01
 1.104085e+00	 8.728066e-01	 1.315329e+01
 1.093324e+00	 8.862501e-01	 1.299635e+01
 1.082391e+00	 8.995694e-01	 1.284151e+01
 1.141301e+00	 8.361414e-01	 1.358821e+01
 1.131010e+00	 8.500104e-01	 1.344583e+01
 1.120541e+00	 8.637645e-01	 1.330212e+01
 1.109896e+00	 8.774003e-01	 1.315738e+01
 1.099078e+00	 8.909146e-01	 1.300666e+01
 1.088088e+00	 9.043040e-01	 1.285504e+01
 1.147277e+00	 8.405191e-01	 1.358587e+01
 1.136931e+00	 8.544607e-01	 1.344435e+01
 1.126408e+00	 8.682868e-01	 1.330191e+01
 1.115707e+00	 8.819940e-01	 1.315882e+01
 1.104832e+00	 8.955791e-01	 1.301490e+01
 1.093785e+00	 9.090386e-01	 1.286803e+01
 1.153252e+00	 8.448968e-01	 1.358288e+01
 1.142853e+00	 8.589110e-01	 1.344216e+01
 1.132274e+00	 8.728091e-01	 1.330140e+01
 1.121518e+00	 8.865878e-01	 1.316045e+01
 1.110587e+00	 9.002435e-01	 1.302077e+01
 1.099481e+00	 9.137731e-01	 1.288002e+01
 1.159227e+00	 8.492745e-01	 1.357931e+01
 1.148774e+00	 8.633613e-01	 1.343947e+01
 1.138141e+00	 8.773315e-01	 1.330085e+01
 1.127329e+00	 8.911815e-01	 1.316261e+01
 1.116341e+00	 9.049080e-01	 1.302551e+01
 1.105178e+00	 9.185077e-01	 1.289057e+01
 1.165203e+00	 8.536522e-01	 1.357526e+01
 1.154696e+00	 8.678116e-01	 1.343652e+01
 1.144008e+00	 8.818538e-01	 1.330059e+01
 1.133140e+00	 8.957752e-01	 1.316560e+01
 1.122095e+00	 9.095725e-01	 1.303132e+01
 1.110875e+00	 9.232423e-01	 1.289933e+01
 1.082391e+00	 8.995694e-01	 1.284151e+01
 1.071290e+00	 9.127613e-01	 1.267660e+01
 1.060023e+00	 9.258225e-01	 1.248966e+01
 1.048592e+00	 9.387499e-01	 1.229555e+01
 1.036999e+00	 9.515406e-01	 1.211103e+01
 1.025247e+00	 9.641914e-01	 1.195451e+01
 1.088088e+00	 9.043040e-01	 1.285504e+01
 1.076928e+00	 9.175653e-01	 1.269149e+01
 1.065602e+00	 9.306952e-01	 1.250527e+01
 1.054110e+00	 9.436907e-01	 1.231174e+01
 1.042457e+00	 9.565487e-01	 1.212825e+01
 1.030643e+00	 9.692660e-01	 1.197390e+01
 1.093785e+00	 9.090386e-01	 1.286803e+01
 1.082567e+00	 9.223693e-01	 1.270671e+01
 1.071181e+00	 9.355680e-01	 1.252148e+01
 1.059629e+00	 9.486315e-01	 1.232843e+01
 1.047914e+00	 9.615568e-01	 1.214571e+01
 1.036039e+00	 9.743407e-01	 1.199330e+01
 1.099481e+00	 9.137731e-01	 1.288002e+01
 1.088205e+00	 9.271733e-01	 1.272161e+01
 1.076760e+00	 9.404407e-01	 1.253754e+01
 1.065148e+00	 9.535723e-01	 1.234482e+01
 1.053372e+00	 9.665649e-01	 1.216261e+01
 1.041435e+00	 9.794154e-01	 1.201202e+01
 1.105178e+00	 9.185077e-01	 1.289057e+01
 1.093844e+00	 9.319773e-01	 1.273561e+01
 1.082339e+00	 9.453135e-01	 1.255278e+01
 1.070667e+00	 9.585131e-01	 1.236020e+01
 1.058830e+00	 9.715730e-01	 1.217827e+01
 1.046831e+00	 9.844901e-01	 1.202943e+01
 1.110875e+00	 9.232423e-01	 1.289933e+01
 1.099482e+00	 9.367813e-01	 1.274819e+01
 1.087918e+00	 9.501862e-01	 1.256657e+01
 1.076186e+00	 9.634539e-01	 1.237392e+01
 1.064288e+00	 9.765811e-01	 1.219205e+01
 1.052227e+00	 9.895648e-01	 1.204496e+01
 1.025247e+00	 9.641914e-01	 1.195451e+01
 1.013338e+00	 9.766994e-01	 1.179189e+01
 1.001275e+00	 9.890617e-01	 1.159116e+01
 9.890617e-01	 1.001275e+00	 1.137559e+01
 9.766994e-01	 1.013338e+00	 1.116903e+01
 9.641914e-01	 1.025247e+00	 1.099555e+01
 1.030643e+00	 9.692660e-01	 1.197390e+01
 1.018671e+00	 9.818399e-01	 1.181428e+01
 1.006545e+00	 9.942673e-01	 1.161662e+01
 9.942673e-01	 1.006545e+00	 1.140423e+01
 9.818399e-01	 1.018671e+00	 1.120096e+01
 9.692660e-01	 1.030643e+00	 1.103094e+01
 1.036039e+00	 9.743407e-01	 1.199330e+01
 1.024005e+00	 9.869804e-01	 1.183661e+01
 1.011815e+00	 9.994729e-01	 1.164199e+01
 9.994729e-01	 1.011815e+00	 1.143268e+01
 9.869804e-01	 1.024005e+00	 1.123251e+01
 9.743407e-01	 1.036039e+00	 1.106559e+01
 1.041435e+00	 9.794154e-01	 1.201202e+01
 1.029338e+00	 9.921209e-01	 1.185828e+01
 1.017085e+00	 1.004678e+00	 1.166670e+01
 1.004678e+00	 1.017085e+00	 1.146039e+01
 9.921209e-01	 1.029338e+00	 1.126309e+01
 9.794154e-01	 1.041435e+00	 1.109882e+01
 1.046831e+00	 9.844901e-01	 1.202943e+01
 1.034671e+00	 9.972614e-01	 1.187873e+01
 1.022355e+00	 1.009884e+00	 1.169022e+01
 1.009884e+00	 1.022355e+00	 1.148684e+01
 9.972614e-01	 1.034671e+00	 1.129214e+01
 9.844901e-01	 1.046831e+00	 1.113000e+01
 1.052227e+00	 9.895648e-01	 1.204496e+01
 1.040005e+00	 1.002402e+00	 1.189747e+01
 1.027625e+00	 1.015090e+00	 1.171211e+01
 1.015090e+00	 1.027625e+00	 1.151156e+01
 1.002402e+00	 1.040005e+00	 1.131917e+01
 9.895648e-01	 1.052227e+00	 1.115857e+01
 9.641914e-01	 1.025247e+00	 1.099555e+01
 9.515406e-01	 1.036999e+00	 1.082718e+01
 9.387499e-01	 1.048592e+00	 1.062866e+01
 9.258225e-01	 1.060023e+00	 1.041228e+01
 9.127613e-01	 1.071290e+00	 1.018894e+01
 8.995694e-01	 1.082391e+00	 9.967847e+00
 9.692660e-01	 1.030643e+00	 1.103094e+01
 9.565487e-01	 1.042457e+00	 1.086411e+01
 9.436907e-01	 1.054110e+00	 1.066410e+01
 9.306952e-01	 1.065602e+00	 1.044481e+01
 9.175653e-01	 1.076928e+00	 1.021875e+01
 9.043040e-01	 1.088088e+00	 9.996768e+00
 9.743407e-01	 1.036039e+00	 1.106559e+01
 9.615568e-01	 1.047914e+00	 1.089994e+01
 9.486315e-01	 1.059629e+00	 1.069850e+01
 9.355680e-01	 1.071181e+00	 1.047698e+01
 9.223693e-01	 1.082567e+00	 1.024974e+01
 9.090386e-01	 1.093785e+00	 1.002947e+01
 9.794154e-01	 1.041435e+00	 1.109882e+01
 9.665649e-01	 1.053372e+00	 1.093393e+01
 9.535723e-01	 1.065148e+00	 1.073111e+01
 9.404407e-01	 1.076760e+00	 1.050808e+01
 9.271733e-01	 1.088205e+00	 1.028127e+01
 9.137731e-01	 1.099481e+00	 1.006543e+01
 9.844901e-01	 1.046831e+00	 1.113000e+01
 9.715730e-01	 1.058830e+00	 1.096540e+01
 9.585131e-01	 1.070667e+00	 1.076122e+01
 9.453135e-01	 1.082339e+00	 1.053744e+01
 9.319773e-01	 1.093844e+00	 1.031273e+01
 9.185077e-01	 1.105178e+00	 1.010416e+01
 9.895648e-01	 1.052227e+00	 1.115857e+01
 9.765811e-01	 1.064288e+00	 1.099372e+01
 9.634539e-01	 1.076186e+00	 1.078819e+01
 9.501862e-01	 1.087918e+00	 1.056442e+01
 9.367813e-01	 1.099482e+00	 1.034357e+01
 9.232423e-01	 1.110875e+00	 1.014520e+01
 8.995694e-01	 1.082391e+00	 9.967847e+00
 8.862501e-01	 1.093324e+00	 9.743870e+00
 8.728066e-01	 1.104085e+00	 9.527486e+00
 8.592421e-01	 1.114674e+00	 9.343653e+00
 8.455601e-01	 1.125088e+00	 9.150031e+00
 8.317637e-01	 1.135326e+00	 8.933028e+00
 9.043040e-01	 1.088088e+00	 9.996768e+00
 8.909146e-01	 1.099078e+00	 9.779332e+00
 8.774003e-01	 1.109896e+00	 9.581755e+00
 8.637645e-01	 1.120541e+00	 9.400376e+00
 8.500104e-01	 1.131010e+00	 9.197633e+00
 8.361414e-01	 1.141301e+00	 8.976864e+00
 9.090386e-01	 1.093785e+00	 1.002947e+01
 8.955791e-01	 1.104832e+00	 9.822167e+00
 8.819940e-01	 1.115707e+00	 9.640539e+00
 8.682868e-01	 1.126408e+00	 9.449240e+00
 8.544607e-01	 1.136931e+00	 9.240887e+00
 8.405191e-01	 1.147277e+00	 9.018741e+00
 9.137731e-01	 1.099481e+00	 1.006543e+01
 9.002435e-01	 1.110587e+00	 9.871933e+00
 8.865878e-01	 1.121518e+00	 9.690058e+00
 8.728091e-01	 1.132274e+00	 9.492331e+00
 8.589110e-01	 1.142853e+00	 9.281611e+00
 8.448968e-01	 1.153252e+00	 9.060101e+00
 9.185077e-01	 1.105178e+00	 1.010416e+01
 9.049080e-01	 1.116341e+00	 9.921098e+00
 8.911815e-01	 1.127329e+00	 9.732058e+00
 8.773315e-01	 1.138141e+00	 9.531747e+00
 8.633613e-01	 1.148774e+00	 9.321639e+00
 8.492745e-01	 1.159227e+00	 9.102412e+00
 9.232423e-01	 1.110875e+00	 1.014520e+01
 9.095725e-01	 1.122095e+00	 9.960868e+00
 8.957752e-01	 1.133140e+00	 9.768802e+00
 8.818538e-01	 1.144008e+00	 9.569599e+00
 8.678116e-01	 1.154696e+00	 9.362823e+00
 8.536522e-01	 1.165203e+00	 9.147168e+00
 8.317637e-01	 1.135326e+00	 8.933028e+00
 8.178565e-01	 1.145385e+00	 8.714474e+00
 8.038419e-01	 1.155264e+00	 8.505074e+00
 7.897233e-01	 1.164960e+00	 8.291289e+00
 7.755044e-01	 1.174474e+00	 8.059152e+00
 7.611885e-01	 1.183802e+00	 7.794424e+00
 8.361414e-01	 1.141301e+00	 8.976864e+00
 8.221610e-01	 1.151413e+00	 8.757857e+00
 8.080727e-01	 1.161344e+00	 8.549248e+00
 7.938798e-01	 1.171092e+00	 8.337352e+00
 7.795860e-01	 1.180655e+00	 8.108062e+00
 7.651947e-01	 1.190033e+00	 7.847018e+00
 8.405191e-01	 1.147277e+00	 9.018741e+00
 8.264655e-01	 1.157441e+00	 8.800343e+00
 8.123034e-01	 1.167424e+00	 8.592638e+00
 7.980362e-01	 1.177223e+00	 8.382170e+00
 7.836676e-01	 1.186837e+00	 8.155089e+00
 7.692010e-01	 1.196263e+00	 7.897315e+00
 8.448968e-01	 1.153252e+00	 9.060101e+00
 8.307700e-01	 1.163470e+00	 8.843003e+00
 8.165341e-01	 1.173505e+00	 8.636040e+00
 8.021927e-01	 1.183354e+00	 8.426365e+00
 7.877492e-01	 1.193018e+00	 8.200767e+00
 7.732072e-01	 1.202494e+00	 7.945835e+00
 8.492745e-01	 1.159227e+00	 9.102412e+00
 8.350746e-01	 1.169498e+00	 8.886940e+00
 8.207649e-01	 1.179585e+00	 8.680293e+00
 8.063491e-01	 1.189486e+00	 8.470601e+00
 7.918308e-01	 1.199200e+00	 8.245669e+00
 7.772135e-01	 1.208724e+00	 7.993148e+00
 8.536522e-01	 1.165203e+00	 9.147168e+00
 8.393791e-01	 1.175526e+00	 8.933289e+00
 8.249956e-01	 1.185665e+00	 8.726271e+00
 8.105055e-01	 1.195617e+00	 8.515582e+00
 7.959124e-01	 1.205381e+00	 8.290414e+00
 7.812197e-01	 1.214955e+00	 8.039861e+00
 7.611885e-01	 1.183802e+00	 7.794424e+00
 7.467792e-01	 1.192944e+00	 7.548384e+00
 7.322802e-01	 1.201899e+00	 7.360368e+00
 7.176951e-01	 1.210665e+00	 7.190188e+00
 7.030274e-01	 1.219241e+00	 7.007623e+00
 6.882809e-01	 1.227626e+00	 6.784973e+00
 7.651947e-01	 1.190033e+00	 7.847018e+00
 7.507096e-01	 1.199223e+00	 7.603860e+00
 7.361344e-01	 1.208225e+00	 7.418072e+00
 7.214724e-01	 1.217037e+00	 7.250000e+00
 7.067276e-01	 1.225658e+00	 7.067160e+00
 6.919034e-01	 1.234087e+00	 6.841747e+00
 7.692010e-01	 1.196263e+00	 7.897315e+00
 7.546401e-01	 1.205502e+00	 7.657002e+00
 7.399885e-01	 1.214551e+00	 7.472543e+00
 7.252498e-01	 1.223409e+00	 7.306770e+00
 7.104277e-01	 1.232075e+00	 7.123908e+00
 6.955259e-01	 1.240548e+00	 6.895995e+00
 7.732072e-01	 1.202494e+00	 7.945835e+00
 7.585705e-01	 1.211780e+00	 7.708360e+00
 7.438426e-01	 1.220876e+00	 7.524745e+00
 7.290271e-01	 1.229781e+00	 7.361183e+00
 7.141279e-01	 1.238492e+00	 7.178595e+00
 6.991485e-01	 1.247009e+00	 6.948485e+00
 7.772135e-01	 1.208724e+00	 7.993148e+00
 7.625009e-01	 1.218059e+00	 7.758528e+00
 7.476967e-01	 1.227202e+00	 7.575978e+00
 7.328045e-01	 1.236153e+00	 7.413952e+00
 7.178280e-01	 1.244909e+00	 7.231978e+00
 7.027710e-01	 1.253471e+00	 7.000014e+00
 7.812197e-01	 1.214955e+00	 8.039861e+00
 7.664313e-01	 1.224338e+00	 7.808141e+00
 7.515508e-01	 1.233528e+00	 7.626919e+00
 7.365818e-01	 1.242524e+00	 7.465824e+00
 7.215282e-01	 1.251326e+00	 7.284845e+00
 7.063935e-01	 1.259932e+00	 7.051410e+00
 6.882809e-01	 1.227626e+00	 6.784973e+00
 6.734591e-01	 1.235819e+00	 6.543854e+00
 6.585657e-01	 1.243819e+00	 6.318893e+00
 6.436044e-01	 1.251627e+00	 6.104242e+00
 6.285788e-01	 1.259240e+00	 5.895841e+00
 6.134926e-01	 1.266658e+00	 5.691385e+00
 6.919034e-01	 1.234087e+00	 6.841747e+00
 6.770036e-01	 1.242323e+00	 6.597967e+00
 6.620318e-01	 1.250366e+00	 6.372553e+00
 6.469918e-01	 1.258214e+00	 6.158878e+00
 6.318871e-01	 1.265867e+00	 5.952144e+00
 6.167215e-01	 1.273325e+00	 5.749346e+00
 6.955259e-01	 1.240548e+00	 6.895995e+00
 6.805481e-01	 1.248828e+00	 6.649768e+00
 6.654979e-01	 1.256912e+00	 6.424048e+00
 6.503791e-01	 1.264802e+00	 6.211441e+00
 6.351954e-01	 1.272495e+00	 6.006422e+00
 6.199504e-01	 1.279991e+00	 5.805299e+00
 6.991485e-01	 1.247009e+00	 6.948485e+00
 6.840926e-01	 1.255332e+00	 6.700057e+00
 6.689641e-01	 1.263459e+00	 6.474195e+00
 6.537665e-01	 1.271389e+00	 6.262753e+00
 6.385037e-01	 1.279122e+00	 6.059489e+00
 6.231793e-01	 1.286658e+00	 5.860033e+00
 7.027710e-01	 1.253471e+00	 7.000014e+00
 6.876372e-01	 1.261836e+00	 6.749662e+00
 6.724302e-01	 1.270005e+00	 6.523844e+00
 6.571539e-01	 1.277977e+00	 6.313667e+00
 6.418120e-01	 1.285750e+00	 6.112185e+00
 6.264083e-01	 1.293324e+00	 5.914368e+00
 7.063935e-01	 1.259932e+00	 7.051410e+00
 6.911817e-01	 1.268341e+00	 6.799442e+00
 6.758964e-01	 1.276552e+00	 6.573868e+00
 6.605413e-01	 1.284564e+00	 6.365061e+00
 6.451203e-01	 1.292377e+00	 6.165383e+00
 6.296372e-01	 1.299991e+00	 5.969151e+00
 6.134926e-01	 1.266658e+00	 5.691385e+00
 5.983495e-01	 1.273881e+00	 5.490326e+00
 5.831532e-01	 1.280909e+00	 5.291623e+00
 5.679072e-01	 1.287741e+00	 5.094657e+00
 5.526153e-01	 1.294377e+00	 4.900260e+00
 5.372811e-01	 1.300817e+00	 4.710626e+00
 6.167215e-01	 1.273325e+00	 5.749346e+00
 6.014987e-01	 1.280586e+00	 5.549178e+00
 5.862224e-01	 1.287651e+00	 5.350557e+00
 5.708962e-01	 1.294519e+00	 5.153307e+00
 5.555238e-01	 1.301190e+00	 4.958748e+00
 5.401088e-01	 1.307663e+00	 4.769609e+00
 6.199504e-01	 1.279991e+00	 5.805299e+00
 6.046479e-01	 1.287291e+00	 5.606089e+00
 5.892916e-01	 1.294392e+00	 5.407707e+00
 5.738852e-01	 1.301296e+00	 5.210366e+00
 5.584323e-01	 1.308002e+00	 5.015822e+00
 5.429366e-01	 1.314510e+00	 4.827281e+00
 6.231793e-01	 1.286658e+00	 5.860033e+00
 6.077972e-01	 1.293995e+00	 5.661808e+00
 5.923609e-01	 1.301134e+00	 5.463762e+00
 5.768742e-01	 1.308074e+00	 5.266443e+00
 5.613408e-01	 1.314815e+00	 5.071990e+00
 5.457644e-01	 1.321356e+00	 4.884035e+00
 6.264083e-01	 1.293324e+00	 5.914368e+00
 6.109464e-01	 1.300700e+00	 5.717115e+00
 5.954301e-01	 1.307876e+00	 5.519441e+00
 5.798632e-01	 1.314851e+00	 5.322176e+00
 5.642493e-01	 1.321627e+00	 5.127792e+00
 5.485922e-01	 1.328203e+00	 4.940295e+00
 6.296372e-01	 1.299991e+00	 5.969151e+00
 6.140956e-01	 1.307404e+00	 5.772816e+00
 5.984993e-01	 1.314617e+00	 5.575488e+00
 5.828521e-01	 1.321629e+00	 5.378231e+00
 5.671578e-01	 1.328440e+00	 5.183795e+00
 5.514200e-01	 1.335049e+00	 4.996515e+00
 5.372811e-01	 1.300817e+00	 4.710626e+00
 5.219081e-01	 1.307061e+00	 4.528850e+00
 5.065000e-01	 1.313108e+00	 4.352358e+00
 4.910604e-01	 1.318960e+00	 4.176496e+00
 4.755928e-01	 1.324616e+00	 3.997445e+00
 4.601008e-01	 1.330076e+00	 3.812113e+00
 5.401088e-01	 1.307663e+00	 4.769609e+00
 5.246550e-01	 1.313940e+00	 4.588406e+00
 5.091658e-01	 1.320019e+00	 4.411697e+00
 4.936449e-01	 1.325902e+00	 4.234971e+00
 4.780959e-01	 1.331587e+00	 4.054580e+00
 4.625224e-01	 1.337077e+00	 3.867619e+00
 5.429366e-01	 1.314510e+00	 4.827281e+00
 5.274019e-01	 1.320819e+00	 4.646622e+00
 5.118316e-01	 1.326930e+00	 4.469584e+00
 4.962295e-01	 1.332844e+00	 4.291916e+00
 4.805991e-01	 1.338559e+00	 4.110249e+00
 4.649440e-01	 1.344077e+00	 3.921988e+00
 5.457644e-01	 1.321356e+00	 4.884035e+00
 5.301487e-01	 1.327698e+00	 4.703776e+00
 5.144974e-01	 1.333842e+00	 4.526199e+00
 4.988140e-01	 1.339786e+00	 4.347420e+00
 4.831022e-01	 1.345531e+00	 4.164472e+00
 4.673656e-01	 1.351077e+00	 3.975180e+00
 5.485922e-01	 1.328203e+00	 4.940295e+00
 5.328956e-01	 1.334578e+00	 4.760177e+00
 5.171632e-01	 1.340753e+00	 4.581749e+00
 5.013985e-01	 1.346728e+00	 4.401608e+00
 4.856053e-01	 1.352502e+00	 4.217299e+00
 4.697871e-01	 1.358078e+00	 4.027183e+00
 5.514200e-01	 1.335049e+00	 4.996515e+00
 5.356425e-01	 1.341457e+00	 4.816164e+00
 5.198290e-01	 1.347664e+00	 4.636473e+00
 5.039830e-01	 1.353669e+00	 4.454633e+00
 4.881084e-01	 1.359474e+00	 4.268809e+00
 4.722087e-01	 1.365078e+00	 4.078015e+00
 4.601008e-01	 1.330076e+00	 3.812113e+00
 4.445879e-01	 1.335342e+00	 3.620027e+00
 4.290575e-01	 1.340412e+00	 3.431877e+00
 4.135131e-01	 1.345289e+00	 3.262083e+00
 3.979581e-01	 1.349972e+00	 3.125322e+00
 3.823960e-01	 1.354463e+00	 3.036366e+00
 4.625224e-01	 1.337077e+00	 3.867619e+00
 4.469278e-01	 1.342370e+00	 3.674799e+00
 4.313157e-01	 1.347467e+00	 3.487321e+00
 4.156895e-01	 1.352369e+00	 3.318803e+00
 4.000526e-01	 1.357077e+00	 3.183125e+00
 3.844086e-01	 1.361591e+00	 3.094266e+00
 4.649440e-01	 1.344077e+00	 3.921988e+00
 4.492677e-01	 1.349398e+00	 3.729024e+00
 4.335739e-01	 1.354522e+00	 3.542900e+00
 4.178659e-01	 1.359450e+00	 3.376302e+00
 4.021472e-01	 1.364182e+00	 3.242181e+00
 3.864212e-01	 1.368720e+00	 3.153593e+00
 4.673656e-01	 1.351077e+00	 3.975180e+00
 4.516077e-01	 1.356426e+00	 3.782600e+00
 4.358321e-01	 1.361577e+00	 3.598437e+00
 4.200423e-01	 1.366530e+00	 3.434315e+00
 4.042417e-01	 1.371288e+00	 3.302131e+00
 3.884338e-01	 1.375849e+00	 3.213888e+00
 4.697871e-01	 1.358078e+00	 4.027183e+00
 4.539476e-01	 1.363454e+00	 3.835451e+00
 4.380903e-01	 1.368632e+00	 3.653779e+00
 4.222186e-01	 1.373611e+00	 3.492603e+00
 4.063362e-01	 1.378393e+00	 3.362639e+00
 3.904464e-01	 1.382978e+00	 3.274717e+00
 4.722087e-01	 1.365078e+00	 4.078015e+00
 4.562876e-01	 1.370482e+00	 3.887532e+00
 4.403485e-01	 1.375686e+00	 3.708802e+00
 4.243950e-01	 1.380691e+00	 3.550952e+00
 4.084307e-01	 1.385498e+00	 3.423397e+00
 3.924590e-01	 1.390106e+00	 3.335670e+00
 3.823960e-01	 1.354463e+00	 3.036366e+00
 3.668299e-01	 1.358761e+00	 2.944981e+00
 3.512634e-01	 1.362868e+00	 2.796089e+00
 3.356995e-01	 1.366785e+00	 2.617091e+00
 3.201416e-01	 1.370513e+00	 2.440388e+00
 3.045929e-01	 1.374052e+00	 2.296150e+00
 3.844086e-01	 1.361591e+00	 3.094266e+00
 3.687606e-01	 1.365912e+00	 3.001815e+00
 3.531121e-01	 1.370041e+00	 2.851854e+00
 3.374664e-01	 1.373979e+00	 2.670476e+00
 3.218266e-01	 1.377726e+00	 2.491739e+00
 3.061960e-01	 1.381284e+00	 2.347315e+00
 3.864212e-01	 1.368720e+00	 3.153593e+00
 3.706913e-01	 1.373064e+00	 3.059746e+00
 3.549609e-01	 1.377214e+00	 2.909080e+00
 3.392332e-01	 1.381172e+00	 2.725672e+00
 3.235116e-01	 1.384939e+00	 2.545161e+00
 3.077991e-01	 1.388516e+00	 2.400643e+00
 3.884338e-01	 1.375849e+00	 3.213888e+00
 3.726220e-01	 1.380215e+00	 3.118361e+00
 3.568096e-01	 1.384387e+00	 2.966977e+00
 3.410001e-01	 1.388366e+00	 2.781735e+00
 3.251965e-01	 1.392152e+00	 2.599559e+00
 3.094022e-01	 1.395748e+00	 2.454894e+00
 3.904464e-01	 1.382978e+00	 3.274717e+00
 3.745527e-01	 1.387366e+00	 3.177223e+00
 3.586584e-01	 1.391560e+00	 3.024781e+00
 3.427669e-01	 1.395559e+00	 2.837743e+00
 3.268815e-01	 1.399366e+00	 2.653861e+00
 3.110054e-01	 1.402979e+00	 2.508846e+00
 3.924590e-01	 1.390106e+00	 3.335670e+00
 3.764834e-01	 1.394518e+00	 3.235810e+00
 3.605072e-01	 1.398733e+00	 3.081758e+00
 3.445337e-01	 1.402753e+00	 2.892802e+00
 3.285664e-01	 1.406579e+00	 2.707014e+00
 3.126085e-01	 1.410211e+00	 2.561297e+00
 3.045929e-01	 1.374052e+00	 2.296150e+00
 2.890564e-01	 1.377404e+00	 2.186468e+00
 2.735353e-01	 1.380570e+00	 2.092151e+00
 2.580325e-01	 1.383552e+00	 2.008333e+00
 2.425512e-01	 1.386349e+00	 1.928377e+00
 2.270943e-01	 1.388965e+00	 1.844059e+00
 3.061960e-01	 1.381284e+00	 2.347315e+00
 2.905777e-01	 1.384654e+00	 2.238944e+00
 2.749749e-01	 1.387836e+00	 2.146047e+00
 2.593906e-01	 1.390833e+00	 2.063504e+00
 2.438278e-01	 1.393646e+00	 1.984308e+00
 2.282895e-01	 1.396275e+00	 1.899767e+00
 3.077991e-01	 1.388516e+00	 2.400643e+00
 2.920991e-01	 1.391903e+00	 2.293407e+00
 2.764146e-01	 1.395103e+00	 2.201538e+00
 2.607487e-01	 1.398115e+00	 2.119796e+00
 2.451044e-01	 1.400942e+00	 2.040938e+00
 2.294847e-01	 1.403586e+00	 1.955933e+00
 3.094022e-01	 1.395748e+00	 2.454894e+00
 2.936204e-01	 1.399153e+00	 2.348508e+00
 2.778542e-01	 1.402369e+00	 2.257224e+00
 2.621067e-01	 1.405397e+00	 2.175817e+00
 2.463810e-01	 1.408239e+00	 2.096937e+00
 2.306800e-01	 1.410896e+00	 2.011339e+00
 3.110054e-01	 1.402979e+00	 2.508846e+00
 2.951418e-01	 1.406402e+00	 2.402910e+00
 2.792939e-01	 1.409635e+00	 2.311719e+00
 2.634648e-01	 1.412679e+00	 2.230188e+00
 2.476576e-01	 1.415536e+00	 2.150986e+00
 2.318752e-01	 1.418206e+00	 2.064773e+00
 3.126085e-01	 1.410211e+00	 2.561297e+00
 2.966631e-01	 1.413652e+00	 2.455296e+00
 2.807336e-01	 1.416901e+00	 2.363650e+00
 2.648229e-01	 1.419961e+00	 2.281540e+00
 2.489342e-01	 1.422832e+00	 2.201771e+00
 2.330704e-01	 1.425517e+00	 2.115027e+00
 2.270943e-01	 1.388965e+00	 1.844059e+00
 2.116645e-01	 1.391400e+00	 1.752763e+00
 1.962649e-01	 1.393656e+00	 1.661739e+00
 1.808981e-01	 1.395733e+00	 1.575723e+00
 1.655669e-01	 1.397635e+00	 1.498593e+00
 1.502741e-01	 1.399362e+00	 1.433593e+00
 2.282895e-01	 1.396275e+00	 1.899767e+00
 2.127785e-01	 1.398723e+00	 1.807463e+00
 1.972978e-01	 1.400991e+00	 1.715365e+00
 1.818502e-01	 1.403079e+00	 1.628406e+00
 1.664383e-01	 1.404991e+00	 1.550603e+00
 1.510650e-01	 1.406727e+00	 1.485299e+00
 2.294847e-01	 1.403586e+00	 1.955933e+00
 2.138926e-01	 1.406046e+00	 1.862668e+00
 1.983308e-01	 1.408326e+00	 1.769773e+00
 1.828023e-01	 1.410425e+00	 1.682253e+00
 1.673097e-01	 1.412347e+00	 1.604140e+00
 1.518559e-01	 1.414092e+00	 1.538749e+00
 2.306800e-01	 1.410896e+00	 2.011339e+00
 2.150066e-01	 1.413369e+00	 1.917293e+00
 1.993638e-01	 1.415661e+00	 1.824002e+00
 1.837544e-01	 1.417771e+00	 1.736422e+00
 1.681811e-01	 1.419703e+00	 1.658474e+00
 1.526468e-01	 1.421457e+00	 1.593316e+00
 2.318752e-01	 1.418206e+00	 2.064773e+00
 2.161206e-01	 1.420693e+00	 1.970252e+00
 2.003968e-01	 1.422996e+00	 1.877092e+00
 1.847065e-01	 1.425117e+00	 1.790071e+00
 1.690526e-01	 1.427059e+00	 1.712873e+00
 1.534377e-01	 1.428822e+00	 1.648368e+00
 2.330704e-01	 1.425517e+00	 2.115027e+00
 2.172346e-01	 1.428016e+00	 2.020464e+00
 2.014297e-01	 1.430331e+00	 1.928081e+00
 1.856586e-01	 1.432463e+00	 1.842354e+00
 1.699240e-01	 1.434415e+00	 1.766599e+00
 1.542286e-01	 1.436187e+00	 1.703270e+00
 1.502741e-01	 1.399362e+00	 1.433593e+00
 1.350221e-01	 1.400916e+00	 1.379980e+00
 1.198136e-01	 1.402298e+00	 1.333865e+00
 1.046511e-01	 1.403511e+00	 1.293547e+00
 8.953704e-02	 1.404556e+00	 1.257664e+00
 7.447382e-02	 1.405436e+00	 1.225403e+00
 1.510650e-01	 1.406727e+00	 1.485299e+00
 1.357327e-01	 1.408289e+00	 1.431711e+00
 1.204442e-01	 1.409679e+00	 1.385789e+00
 1.052019e-01	 1.410898e+00	 1.345726e+00
 9.000829e-02	 1.411949e+00	 1.310069e+00
 7.486579e-02	 1.412833e+00	 1.277942e+00
 1.518559e-01	 1.414092e+00	 1.538749e+00
 1.364434e-01	 1.415662e+00	 1.485174e+00
 1.210748e-01	 1.417059e+00	 1.439251e+00
 1.057527e-01	 1.418285e+00	 1.399148e+00
 9.047954e-02	 1.419341e+00	 1.363391e+00
 7.525776e-02	 1.420230e+00	 1.331111e+00
 1.526468e-01	 1.421457e+00	 1.593316e+00
 1.371540e-01	 1.423035e+00	 1.539839e+00
 1.217054e-01	 1.424440e+00	 1.493827e+00
 1.063035e-01	 1.425672e+00	 1.453487e+00
 9.095079e-02	 1.426734e+00	 1.417397e+00
 7.564973e-02	 1.427627e+00	 1.384759e+00
 1.534377e-01	 1.428822e+00	 1.648368e+00
 1.378647e-01	 1.430409e+00	 1.595176e+00
 1.223360e-01	 1.431820e+00	 1.549088e+00
 1.068543e-01	 1.433059e+00	 1.508415e+00
 9.142203e-02	 1.434126e+00	 1.471851e+00
 7.604169e-02	 1.435024e+00	 1.438735e+00
 1.542286e-01	 1.436187e+00	 1.703270e+00
 1.385753e-01	 1.437782e+00	 1.650649e+00
 1.229666e-01	 1.439201e+00	 1.604599e+00
 1.074051e-01	 1.440446e+00	 1.563600e+00
 9.189328e-02	 1.441518e+00	 1.526517e+00
 7.643366e-02	 1.442421e+00	 1.492886e+00
 7.447382e-02	 1.405436e+00	 1.225403e+00
 5.946378e-02	 1.406151e+00	 1.197619e+00
 4.450918e-02	 1.406703e+00	 1.175259e+00
 2.961226e-02	 1.407096e+00	 1.159078e+00
 1.477517e-02	 1.407330e+00	 1.151135e+00
-8.423735e-07	 1.407426e+00	 1.462107e+00
 7.486579e-02	 1.412833e+00	 1.277942e+00
 5.977675e-02	 1.413551e+00	 1.250237e+00
 4.474344e-02	 1.414107e+00	 1.227935e+00
 2.976811e-02	 1.414502e+00	 1.211791e+00
 1.485293e-02	 1.414737e+00	 1.203932e+00
-8.356854e-07	 1.414834e+00	 1.542573e+00
 7.525776e-02	 1.420230e+00	 1.331111e+00
 6.008971e-02	 1.420952e+00	 1.303282e+00
 4.497770e-02	 1.421511e+00	 1.280894e+00
 2.992397e-02	 1.421907e+00	 1.264663e+00
 1.493069e-02	 1.422144e+00	 1.256750e+00
-8.287652e-07	 1.422241e+00	 1.623291e+00
 7.564973e-02	 1.427627e+00	 1.384759e+00
 6.040268e-02	 1.428353e+00	 1.356675e+00
 4.521196e-02	 1.428915e+00	 1.334109e+00
 3.007982e-02	 1.429313e+00	 1.317703e+00
 1.500846e-02	 1.429551e+00	 1.309610e+00
-8.216143e-07	 1.429649e+00	 1.704254e+00
 7.604169e-02	 1.435024e+00	 1.438735e+00
 6.071565e-02	 1.435754e+00	 1.410332e+00
 4.544622e-02	 1.436318e+00	 1.387552e+00
 3.023568e-02	 1.436719e+00	 1.370918e+00
 1.508622e-02	 1.436958e+00	 1.362538e+00
-8.142338e-07	 1.437056e+00	 1.785454e+00
 7.643366e-02	 1.442421e+00	 1.492886e+00
 6.102861e-02	 1.443155e+00	 1.464171e+00
 4.568048e-02	 1.443722e+00	 1.441196e+00
 3.039153e-02	 1.444125e+00	 1.424320e+00
 1.516399e-02	 1.444365e+00	 1.415563e+00
-8.066251e-07	 1.444464e+00	 1.866889e+00
 1.444444e+00	 0.000000e+00	 1.619290e+01
 1.444365e+00	 1.516399e-02	 1.619618e+01
 1.444125e+00	 3.039153e-02	 1.619716e+01
 1.443722e+00	 4.568048e-02	 1.619583e+01
 1.443155e+00	 6.102861e-02	 1.619181e+01
 1.442421e+00	 7.643366e-02	 1.618443e+01
 1.451852e+00	 0.000000e+00	 1.609623e+01
 1.451772e+00	 1.524175e-02	 1.609961e+01
 1.451530e+00	 3.054738e-02	 1.610068e+01
 1.451126e+00	 4.591474e-02	 1.609947e+01
 1.450555e+00	 6.134158e-02	 1.609562e+01
 1.449818e+00	 7.682563e-02	 1.608849e+01
 1.459259e+00	 0.000000e+00	 1.600184e+01
 1.459179e+00	 1.531951e-02	 1.600534e+01
 1.458936e+00	 3.070324e-02	 1.600652e+01
 1.458529e+00	 4.614900e-02	 1.600545e+01
 1.457956e+00	 6.165455e-02	 1.600183e+01
 1.457215e+00	 7.721760e-02	 1.599499e+01
 1.466667e+00	 0.000000e+00	 1.590963e+01
 1.466586e+00	 1.539728e-02	 1.591326e+01
 1.466342e+00	 3.085909e-02	 1.591458e+01
 1.465933e+00	 4.638326e-02	 1.591371e+01
 1.465357e+00	 6.196752e-02	 1.591037e+01
 1.464612e+00	 7.760956e-02	 1.590392e+01
 1.474074e+00	 0.000000e+00	 1.581951e+01
 1.473993e+00	 1.547504e-02	 1.582326e+01
 1.473748e+00	 3.101495e-02	 1.582474e+01
 1.473337e+00	 4.661751e-02	 1.582413e+01
 1.472758e+00	 6.228048e-02	 1.582117e+01
 1.472009e+00	 7.800153e-02	 1.581524e+01
 1.481481e+00	 0.000000e+00	 1.573137e+01
 1.481400e+00	 1.555281e-02	 1.573524e+01
 1.481154e+00	 3.117080e-02	 1.573692e+01
 1.480740e+00	 4.685177e-02	 1.573664e+01
 1.480159e+00	 6.259345e-02	 1.573417e+01
 1.479406e+00	 7.839350e-02	 1.572891e+01
 1.442421e+00	 7.643366e-02	 1.618443e+01
 1.441518e+00	 9.189328e-02	 1.617643e+01
 1.440446e+00	 1.074051e-01	 1.617068e+01
 1.439201e+00	 1.229666e-01	 1.616644e+01
 1.437782e+00	 1.385753e-01	 1.616284e+01
 1.436187e+00	 1.542286e-01	 1.615893e+01
 1.449818e+00	 7.682563e-02	 1.608849e+01
 1.448911e+00	 9.236453e-02	 1.608076e+01
 1.447833e+00	 1.079559e-01	 1.607534e+01
 1.446581e+00	 1.235972e-01	 1.607155e+01
 1.445155e+00	 1.392859e-01	 1.606858e+01
 1.443552e+00	 1.550196e-01	 1.606551e+01
 1.457215e+00	 7.721760e-02	 1.599499e+01
 1.456303e+00	 9.283578e-02	 1.598759e+01
 1.455220e+00	 1.085067e-01	 1.598253e+01
 1.453962e+00	 1.242278e-01	 1.597918e+01
 1.452528e+00	 1.399966e-01	 1.597676e+01
 1.450917e+00	 1.558105e-01	 1.597438e+01
 1.464612e+00	 7.760956e-02	 1.590392e+01
 1.463696e+00	 9.330702e-02	 1.589694e+01
 1.462606e+00	 1.090575e-01	 1.589230e+01
 1.461342e+00	 1.248584e-01	 1.588940e+01
 1.459902e+00	 1.407072e-01	 1.588750e+01
 1.458282e+00	 1.566014e-01	 1.588572e+01
 1.472009e+00	 7.800153e-02	 1.581524e+01
 1.471088e+00	 9.377827e-02	 1.580881e+01
 1.469993e+00	 1.096083e-01	 1.580469e+01
 1.468723e+00	 1.254890e-01	 1.580231e+01
 1.467275e+00	 1.414179e-01	 1.580093e+01
 1.465647e+00	 1.573923e-01	 1.579967e+01
 1.479406e+00	 7.839350e-02	 1.572891e+01
 1.478480e+00	 9.424952e-02	 1.572321e+01
 1.477380e+00	 1.101591e-01	 1.571975e+01
 1.476103e+00	 1.261196e-01	 1.571798e+01
 1.474648e+00	 1.421285e-01	 1.571715e+01
 1.473012e+00	 1.581832e-01	 1.571637e+01
 1.436187e+00	 1.542286e-01	 1.615893e+01
 1.434415e+00	 1.699240e-01	 1.615276e+01
 1.432463e+00	 1.856586e-01	 1.614265e+01
 1.430331e+00	 2.014297e-01	 1.612812e+01
 1.428016e+00	 2.172346e-01	 1.610882e+01
 1.425517e+00	 2.330704e-01	 1.608460e+01
 1.443552e+00	 1.550196e-01	 1.606551e+01
 1.441771e+00	 1.707954e-01	 1.606035e+01
 1.439809e+00	 1.866107e-01	 1.605134e+01
 1.437666e+00	 2.024627e-01	 1.603789e+01
 1.435339e+00	 2.183487e-01	 1.601959e+01
 1.432827e+00	 2.342656e-01	 1.599621e+01
 1.450917e+00	 1.558105e-01	 1.597438e+01
 1.449127e+00	 1.716668e-01	 1.597006e+01
 1.447155e+00	 1.875628e-01	 1.596196e+01
 1.445001e+00	 2.034957e-01	 1.594944e+01
 1.442662e+00	 2.194627e-01	 1.593203e+01
 1.440137e+00	 2.354609e-01	 1.590946e+01
 1.458282e+00	 1.566014e-01	 1.588572e+01
 1.456483e+00	 1.725382e-01	 1.588207e+01
 1.454501e+00	 1.885149e-01	 1.587469e+01
 1.452336e+00	 2.045287e-01	 1.586292e+01
 1.449985e+00	 2.205767e-01	 1.584625e+01
 1.447448e+00	 2.366561e-01	 1.582440e+01
 1.465647e+00	 1.573923e-01	 1.579967e+01
 1.463839e+00	 1.734096e-01	 1.579655e+01
 1.461847e+00	 1.894670e-01	 1.578971e+01
 1.459671e+00	 2.055616e-01	 1.577849e+01
 1.457308e+00	 2.216907e-01	 1.576237e+01
 1.454758e+00	 2.378513e-01	 1.574107e+01
 1.473012e+00	 1.581832e-01	 1.571637e+01
 1.471195e+00	 1.742810e-01	 1.571366e+01
 1.469193e+00	 1.904191e-01	 1.570718e+01
 1.467006e+00	 2.065946e-01	 1.569629e+01
 1.464631e+00	 2.228048e-01	 1.568048e+01
 1.462068e+00	 2.390466e-01	 1.565950e+01
 1.425517e+00	 2.330704e-01	 1.608460e+01
 1.422832e+00	 2.489342e-01	 1.606235e+01
 1.419961e+00	 2.648229e-01	 1.604733e+01
 1.416901e+00	 2.807336e-01	 1.603742e+01
 1.413652e+00	 2.966631e-01	 1.603098e+01
 1.410211e+00	 3.126085e-01	 1.602684e+01
 1.432827e+00	 2.342656e-01	 1.599621e+01
 1.430129e+00	 2.502107e-01	 1.597492e+01
 1.427243e+00	 2.661809e-01	 1.596124e+01
 1.424167e+00	 2.821732e-01	 1.595302e+01
 1.420901e+00	 2.981845e-01	 1.594856e+01
 1.417443e+00	 3.142116e-01	 1.594666e+01
 1.440137e+00	 2.354609e-01	 1.590946e+01
 1.437425e+00	 2.514873e-01	 1.588914e+01
 1.434524e+00	 2.675390e-01	 1.587682e+01
 1.431433e+00	 2.836129e-01	 1.587028e+01
 1.428151e+00	 2.997058e-01	 1.586777e+01
 1.424675e+00	 3.158147e-01	 1.586805e+01
 1.447448e+00	 2.366561e-01	 1.582440e+01
 1.444722e+00	 2.527639e-01	 1.580500e+01
 1.441806e+00	 2.688971e-01	 1.579400e+01
 1.438699e+00	 2.850525e-01	 1.578910e+01
 1.435400e+00	 3.012272e-01	 1.578848e+01
 1.431907e+00	 3.174178e-01	 1.579089e+01
 1.454758e+00	 2.378513e-01	 1.574107e+01
 1.452019e+00	 2.540405e-01	 1.572247e+01
 1.449088e+00	 2.702551e-01	 1.571268e+01
 1.445966e+00	 2.864922e-01	 1.570934e+01
 1.442650e+00	 3.027485e-01	 1.571056e+01
 1.439139e+00	 3.190210e-01	 1.571503e+01
 1.462068e+00	 2.390466e-01	 1.565950e+01
 1.459315e+00	 2.553171e-01	 1.564151e+01
 1.456370e+00	 2.716132e-01	 1.563279e+01
 1.453232e+00	 2.879319e-01	 1.563089e+01
 1.449899e+00	 3.042699e-01	 1.563386e+01
 1.446370e+00	 3.206241e-01	 1.564033e+01
 1.410211e+00	 3.126085e-01	 1.602684e+01
 1.406579e+00	 3.285664e-01	 1.601153e+01
 1.402753e+00	 3.445337e-01	 1.597540e+01
 1.398733e+00	 3.605072e-01	 1.592390e+01
 1.394518e+00	 3.764834e-01	 1.586648e+01
 1.390106e+00	 3.924590e-01	 1.584457e+01
 1.417443e+00	 3.142116e-01	 1.594666e+01
 1.413792e+00	 3.302514e-01	 1.593308e+01
 1.409947e+00	 3.463006e-01	 1.589750e+01
 1.405906e+00	 3.623559e-01	 1.584548e+01
 1.401669e+00	 3.784140e-01	 1.578898e+01
 1.397235e+00	 3.944716e-01	 1.576948e+01
 1.424675e+00	 3.158147e-01	 1.586805e+01
 1.421005e+00	 3.319363e-01	 1.585618e+01
 1.417140e+00	 3.480674e-01	 1.582121e+01
 1.413079e+00	 3.642047e-01	 1.576876e+01
 1.408821e+00	 3.803447e-01	 1.571376e+01
 1.404364e+00	 3.964842e-01	 1.569643e+01
 1.431907e+00	 3.174178e-01	 1.579089e+01
 1.428218e+00	 3.336213e-01	 1.578072e+01
 1.424334e+00	 3.498343e-01	 1.574643e+01
 1.420252e+00	 3.660534e-01	 1.569367e+01
 1.415972e+00	 3.822754e-01	 1.564074e+01
 1.411493e+00	 3.984968e-01	 1.562540e+01
 1.439139e+00	 3.190210e-01	 1.571503e+01
 1.435432e+00	 3.353062e-01	 1.570658e+01
 1.431528e+00	 3.516011e-01	 1.567306e+01
 1.427425e+00	 3.679022e-01	 1.562015e+01
 1.423123e+00	 3.842061e-01	 1.556982e+01
 1.418621e+00	 4.005095e-01	 1.555637e+01
 1.446370e+00	 3.206241e-01	 1.564033e+01
 1.442645e+00	 3.369912e-01	 1.563360e+01
 1.438721e+00	 3.533679e-01	 1.560099e+01
 1.434598e+00	 3.697509e-01	 1.554811e+01
 1.430275e+00	 3.861368e-01	 1.550091e+01
 1.425750e+00	 4.025221e-01	 1.548930e+01
 1.390106e+00	 3.924590e-01	 1.584457e+01
 1.385498e+00	 4.084307e-01	 1.583679e+01
 1.380691e+00	 4.243950e-01	 1.581210e+01
 1.375686e+00	 4.403485e-01	 1.577620e+01
 1.370482e+00	 4.562876e-01	 1.573515e+01
 1.365078e+00	 4.722087e-01	 1.569536e+01
 1.397235e+00	 3.944716e-01	 1.576948e+01
 1.392603e+00	 4.105252e-01	 1.576356e+01
 1.387772e+00	 4.265714e-01	 1.574112e+01
 1.382741e+00	 4.426067e-01	 1.570772e+01
 1.377510e+00	 4.586275e-01	 1.566928e+01
 1.372079e+00	 4.746303e-01	 1.563211e+01
 1.404364e+00	 3.964842e-01	 1.569643e+01
 1.399708e+00	 4.126197e-01	 1.569214e+01
 1.394852e+00	 4.287478e-01	 1.567175e+01
 1.389796e+00	 4.448649e-01	 1.564069e+01
 1.384538e+00	 4.609674e-01	 1.560477e+01
 1.379079e+00	 4.770519e-01	 1.557019e+01
 1.411493e+00	 3.984968e-01	 1.562540e+01
 1.406813e+00	 4.147143e-01	 1.562254e+01
 1.401933e+00	 4.309242e-01	 1.560402e+01
 1.396851e+00	 4.471231e-01	 1.557511e+01
 1.391567e+00	 4.633074e-01	 1.554152e+01
 1.386079e+00	 4.794735e-01	 1.550931e+01
 1.418621e+00	 4.005095e-01	 1.555637e+01
 1.413918e+00	 4.168088e-01	 1.555482e+01
 1.409013e+00	 4.331006e-01	 1.553795e+01
 1.403906e+00	 4.493813e-01	 1.551095e+01
 1.398595e+00	 4.656473e-01	 1.547940e+01
 1.393080e+00	 4.818951e-01	 1.544924e+01
 1.425750e+00	 4.025221e-01	 1.548930e+01
 1.421023e+00	 4.189033e-01	 1.548897e+01
 1.416094e+00	 4.352769e-01	 1.547359e+01
 1.410960e+00	 4.516395e-01	 1.544821e+01
 1.405623e+00	 4.679872e-01	 1.541830e+01
 1.400080e+00	 4.843166e-01	 1.538970e+01
 1.365078e+00	 4.722087e-01	 1.569536e+01
 1.359474e+00	 4.881084e-01	 1.565240e+01
 1.353669e+00	 5.039830e-01	 1.560024e+01
 1.347664e+00	 5.198290e-01	 1.554316e+01
 1.341457e+00	 5.356425e-01	 1.548553e+01
 1.335049e+00	 5.514200e-01	 1.543176e+01
 1.372079e+00	 4.746303e-01	 1.563211e+01
 1.366446e+00	 4.906116e-01	 1.559145e+01
 1.360611e+00	 5.065676e-01	 1.554111e+01
 1.354575e+00	 5.224948e-01	 1.548560e+01
 1.348336e+00	 5.383894e-01	 1.542954e+01
 1.341895e+00	 5.542478e-01	 1.537761e+01
 1.379079e+00	 4.770519e-01	 1.557019e+01
 1.373417e+00	 4.931147e-01	 1.553180e+01
 1.367553e+00	 5.091521e-01	 1.548328e+01
 1.361486e+00	 5.251605e-01	 1.542937e+01
 1.355216e+00	 5.411363e-01	 1.537494e+01
 1.348742e+00	 5.570756e-01	 1.532493e+01
 1.386079e+00	 4.794735e-01	 1.550931e+01
 1.380389e+00	 4.956178e-01	 1.547305e+01
 1.374495e+00	 5.117366e-01	 1.542628e+01
 1.368397e+00	 5.278263e-01	 1.537397e+01
 1.362095e+00	 5.438832e-01	 1.532125e+01
 1.355588e+00	 5.599034e-01	 1.527336e+01
 1.393080e+00	 4.818951e-01	 1.544924e+01
 1.387361e+00	 4.981209e-01	 1.541480e+01
 1.381437e+00	 5.143212e-01	 1.536962e+01
 1.375308e+00	 5.304921e-01	 1.531890e+01
 1.368974e+00	 5.466301e-01	 1.526804e+01
 1.362435e+00	 5.627312e-01	 1.522255e+01
 1.400080e+00	 4.843166e-01	 1.538970e+01
 1.394332e+00	 5.006240e-01	 1.535665e+01
 1.388379e+00	 5.169057e-01	 1.531283e+01
 1.382219e+00	 5.331579e-01	 1.526368e+01
 1.375853e+00	 5.493769e-01	 1.521485e+01
 1.369281e+00	 5.655590e-01	 1.517217e+01
 1.335049e+00	 5.514200e-01	 1.543176e+01
 1.328440e+00	 5.671578e-01	 1.537468e+01
 1.321629e+00	 5.828521e-01	 1.530895e+01
 1.314617e+00	 5.984993e-01	 1.524154e+01
 1.307404e+00	 6.140956e-01	 1.517918e+01
 1.299991e+00	 6.296372e-01	 1.512829e+01
 1.341895e+00	 5.542478e-01	 1.537761e+01
 1.335252e+00	 5.700663e-01	 1.532263e+01
 1.328407e+00	 5.858411e-01	 1.525916e+01
 1.321359e+00	 6.015685e-01	 1.519433e+01
 1.314109e+00	 6.172448e-01	 1.513503e+01
 1.306658e+00	 6.328661e-01	 1.508785e+01
 1.348742e+00	 5.570756e-01	 1.532493e+01
 1.342065e+00	 5.729748e-01	 1.527210e+01
 1.335184e+00	 5.888301e-01	 1.521084e+01
 1.328100e+00	 6.046378e-01	 1.514842e+01
 1.320814e+00	 6.203940e-01	 1.509186e+01
 1.313324e+00	 6.360950e-01	 1.504788e+01
 1.355588e+00	 5.599034e-01	 1.527336e+01
 1.348877e+00	 5.758833e-01	 1.522285e+01
 1.341962e+00	 5.918191e-01	 1.516380e+01
 1.334842e+00	 6.077070e-01	 1.510360e+01
 1.327518e+00	 6.235432e-01	 1.504941e+01
 1.319991e+00	 6.393239e-01	 1.500807e+01
 1.362435e+00	 5.627312e-01	 1.522255e+01
 1.355690e+00	 5.787918e-01	 1.517464e+01
 1.348739e+00	 5.948081e-01	 1.511785e+01
 1.341584e+00	 6.107762e-01	 1.505971e+01
 1.334223e+00	 6.266924e-01	 1.500748e+01
 1.326658e+00	 6.425528e-01	 1.496808e+01
 1.369281e+00	 5.655590e-01	 1.517217e+01
 1.362502e+00	 5.817003e-01	 1.512722e+01
 1.355517e+00	 5.977971e-01	 1.507282e+01
 1.348325e+00	 6.138455e-01	 1.501659e+01
 1.340928e+00	 6.298416e-01	 1.496586e+01
 1.333324e+00	 6.457817e-01	 1.492763e+01
 1.299991e+00	 6.296372e-01	 1.512829e+01
 1.292377e+00	 6.451203e-01	 1.507464e+01
 1.284564e+00	 6.605413e-01	 1.499996e+01
 1.276552e+00	 6.758964e-01	 1.490365e+01
 1.268341e+00	 6.911817e-01	 1.478404e+01
 1.259932e+00	 7.063935e-01	 1.463837e+01
 1.306658e+00	 6.328661e-01	 1.508785e+01
 1.299005e+00	 6.484286e-01	 1.503727e+01
 1.291152e+00	 6.639287e-01	 1.496408e+01
 1.283098e+00	 6.793625e-01	 1.486832e+01
 1.274845e+00	 6.947262e-01	 1.474907e+01
 1.266393e+00	 7.100161e-01	 1.460431e+01
 1.313324e+00	 6.360950e-01	 1.504788e+01
 1.305633e+00	 6.517370e-01	 1.499995e+01
 1.297739e+00	 6.673161e-01	 1.492815e+01
 1.289644e+00	 6.828286e-01	 1.483325e+01
 1.281349e+00	 6.982707e-01	 1.471509e+01
 1.272854e+00	 7.136386e-01	 1.457248e+01
 1.319991e+00	 6.393239e-01	 1.500807e+01
 1.312260e+00	 6.550453e-01	 1.496226e+01
 1.304327e+00	 6.707035e-01	 1.489173e+01
 1.296191e+00	 6.862948e-01	 1.479802e+01
 1.287853e+00	 7.018152e-01	 1.468180e+01
 1.279315e+00	 7.172611e-01	 1.454275e+01
 1.326658e+00	 6.425528e-01	 1.496808e+01
 1.318888e+00	 6.583536e-01	 1.492379e+01
 1.310914e+00	 6.740909e-01	 1.485441e+01
 1.302737e+00	 6.897609e-01	 1.476227e+01
 1.294358e+00	 7.053598e-01	 1.464893e+01
 1.285776e+00	 7.208837e-01	 1.451504e+01
 1.333324e+00	 6.457817e-01	 1.492763e+01
 1.325515e+00	 6.616619e-01	 1.488418e+01
 1.317502e+00	 6.774783e-01	 1.481578e+01
 1.309284e+00	 6.932270e-01	 1.472564e+01
 1.300862e+00	 7.089043e-01	 1.461623e+01
 1.292238e+00	 7.245062e-01	 1.448927e+01
 1.259932e+00	 7.063935e-01	 1.463837e+01
 1.251326e+00	 7.215282e-01	 1.451584e+01
 1.242524e+00	 7.365818e-01	 1.447072e+01
 1.233528e+00	 7.515508e-01	 1.446580e+01
 1.224338e+00	 7.664313e-01	 1.439219e+01
 1.214955e+00	 7.812197e-01	 1.424192e+01
 1.266393e+00	 7.100161e-01	 1.460431e+01
 1.257743e+00	 7.252283e-01	 1.448797e+01
 1.248896e+00	 7.403592e-01	 1.445859e+01
 1.239854e+00	 7.554049e-01	 1.444581e+01
 1.230616e+00	 7.703617e-01	 1.436715e+01
 1.221185e+00	 7.852260e-01	 1.422003e+01
 1.272854e+00	 7.136386e-01	 1.457248e+01
 1.264160e+00	 7.289284e-01	 1.446383e+01
 1.255268e+00	 7.441365e-01	 1.444773e+01
 1.246180e+00	 7.592590e-01	 1.442302e+01
 1.236895e+00	 7.742922e-01	 1.434074e+01
 1.227416e+00	 7.892322e-01	 1.419775e+01
 1.279315e+00	 7.172611e-01	 1.454275e+01
 1.270577e+00	 7.326286e-01	 1.444343e+01
 1.261640e+00	 7.479138e-01	 1.443290e+01
 1.252505e+00	 7.631131e-01	 1.439797e+01
 1.243174e+00	 7.782226e-01	 1.431337e+01
 1.233647e+00	 7.932385e-01	 1.417525e+01
 1.285776e+00	 7.208837e-01	 1.451504e+01
 1.276994e+00	 7.363287e-01	 1.442683e+01
 1.268012e+00	 7.516912e-01	 1.441463e+01
 1.258831e+00	 7.669672e-01	 1.437123e+01
 1.249452e+00	 7.821530e-01	 1.428549e+01
 1.239877e+00	 7.972448e-01	 1.415276e+01
 1.292238e+00	 7.245062e-01	 1.448927e+01
 1.283411e+00	 7.400289e-01	 1.441411e+01
 1.274384e+00	 7.554685e-01	 1.439355e+01
 1.265157e+00	 7.708213e-01	 1.434340e+01
 1.255731e+00	 7.860834e-01	 1.425761e+01
 1.246108e+00	 8.012510e-01	 1.413057e+01
 1.214955e+00	 7.812197e-01	 1.424192e+01
 1.205381e+00	 7.959124e-01	 1.407420e+01
 1.195617e+00	 8.105055e-01	 1.393904e+01
 1.185665e+00	 8.249956e-01	 1.382102e+01
 1.175526e+00	 8.393791e-01	 1.370479e+01
 1.165203e+00	 8.536522e-01	 1.357526e+01
 1.221185e+00	 7.852260e-01	 1.422003e+01
 1.211562e+00	 7.999940e-01	 1.405867e+01
 1.201749e+00	 8.146620e-01	 1.392842e+01
 1.191746e+00	 8.292264e-01	 1.381387e+01
 1.181555e+00	 8.436836e-01	 1.369968e+01
 1.171178e+00	 8.580299e-01	 1.357071e+01
 1.227416e+00	 7.892322e-01	 1.419775e+01
 1.217744e+00	 8.040756e-01	 1.404323e+01
 1.207880e+00	 8.188184e-01	 1.391798e+01
 1.197826e+00	 8.334571e-01	 1.380675e+01
 1.187583e+00	 8.479881e-01	 1.369428e+01
 1.177154e+00	 8.624076e-01	 1.356556e+01
 1.233647e+00	 7.932385e-01	 1.417525e+01
 1.223925e+00	 8.081572e-01	 1.402781e+01
 1.214011e+00	 8.229749e-01	 1.390757e+01
 1.203906e+00	 8.376879e-01	 1.379947e+01
 1.193612e+00	 8.522926e-01	 1.368852e+01
 1.183129e+00	 8.667854e-01	 1.355993e+01
 1.239877e+00	 7.972448e-01	 1.415276e+01
 1.230107e+00	 8.122388e-01	 1.401244e+01
 1.220143e+00	 8.271313e-01	 1.389706e+01
 1.209987e+00	 8.419186e-01	 1.379192e+01
 1.199640e+00	 8.565971e-01	 1.368236e+01
 1.189104e+00	 8.711631e-01	 1.355398e+01
 1.246108e+00	 8.012510e-01	 1.413057e+01
 1.236288e+00	 8.163204e-01	 1.399718e+01
 1.226274e+00	 8.312877e-01	 1.388642e+01
 1.216067e+00	 8.461494e-01	 1.378404e+01
 1.205668e+00	 8.609016e-01	 1.367586e+01
 1.195080e+00	 8.755408e-01	 1.354795e+01
 1.165203e+00	 8.536522e-01	 1.357526e+01
 1.154696e+00	 8.678116e-01	 1.343652e+01
 1.144008e+00	 8.818538e-01	 1.330059e+01
 1.133140e+00	 8.957752e-01	 1.316560e+01
 1.122095e+00	 9.095725e-01	 1.303132e+01
 1.110875e+00	 9.232423e-01	 1.289933e+01
 1.171178e+00	 8.580299e-01	 1.357071e+01
 1.160617e+00	 8.722620e-01	 1.343303e+01
 1.149874e+00	 8.863761e-01	 1.329987e+01
 1.138951e+00	 9.003689e-01	 1.316823e+01
 1.127850e+00	 9.142370e-01	 1.303673e+01
 1.116572e+00	 9.279769e-01	 1.290581e+01
 1.177154e+00	 8.624076e-01	 1.356556e+01
 1.166539e+00	 8.767123e-01	 1.342867e+01
 1.155741e+00	 8.908984e-01	 1.329802e+01
 1.144762e+00	 9.049626e-01	 1.316948e+01
 1.133604e+00	 9.189014e-01	 1.304052e+01
 1.122269e+00	 9.327114e-01	 1.291042e+01
 1.183129e+00	 8.667854e-01	 1.355993e+01
 1.172460e+00	 8.811626e-01	 1.342377e+01
 1.161608e+00	 8.954208e-01	 1.329556e+01
 1.150573e+00	 9.095564e-01	 1.317000e+01
 1.139358e+00	 9.235659e-01	 1.304341e+01
 1.127965e+00	 9.374460e-01	 1.291391e+01
 1.189104e+00	 8.711631e-01	 1.355398e+01
 1.178382e+00	 8.856129e-01	 1.341875e+01
 1.167475e+00	 8.999431e-01	 1.329305e+01
 1.156384e+00	 9.141501e-01	 1.317048e+01
 1.145113e+00	 9.282304e-01	 1.304618e+01
 1.133662e+00	 9.421806e-01	 1.291709e+01
 1.195080e+00	 8.755408e-01	 1.354795e+01
 1.184304e+00	 8.900632e-01	 1.341403e+01
 1.173341e+00	 9.044654e-01	 1.329112e+01
 1.162195e+00	 9.187438e-01	 1.317166e+01
 1.150867e+00	 9.328949e-01	 1.304963e+01
 1.139359e+00	 9.469152e-01	 1.292079e+01
 1.110875e+00	 9.232423e-01	 1.289933e+01
 1.099482e+00	 9.367813e-01	 1.274819e+01
 1.087918e+00	 9.501862e-01	 1.256657e+01
 1.076186e+00	 9.634539e-01	 1.237392e+01
 1.064288e+00	 9.765811e-01	 1.219205e+01
 1.052227e+00	 9.895648e-01	 1.204496e+01
 1.116572e+00	 9.279769e-01	 1.290581e+01
 1.105120e+00	 9.415853e-01	 1.275786e+01
 1.093497e+00	 9.550590e-01	 1.257819e+01
 1.081705e+00	 9.683947e-01	 1.238611e+01
 1.069746e+00	 9.815892e-01	 1.220489e+01
 1.057623e+00	 9.946395e-01	 1.206007e+01
 1.122269e+00	 9.327114e-01	 1.291042e+01
 1.110759e+00	 9.463893e-01	 1.276364e+01
 1.099076e+00	 9.599317e-01	 1.258741e+01
 1.087224e+00	 9.733355e-01	 1.239739e+01
 1.075204e+00	 9.865973e-01	 1.221807e+01
 1.063019e+00	 9.997142e-01	 1.207631e+01
 1.127965e+00	 9.374460e-01	 1.291391e+01
 1.116397e+00	 9.511933e-01	 1.276696e+01
 1.104655e+00	 9.648045e-01	 1.259450e+01
 1.092743e+00	 9.782762e-01	 1.240790e+01
 1.080662e+00	 9.916054e-01	 1.223154e+01
 1.068415e+00	 1.004789e+00	 1.209340e+01
 1.133662e+00	 9.421806e-01	 1.291709e+01
 1.122035e+00	 9.559973e-01	 1.276987e+01
 1.110234e+00	 9.696772e-01	 1.259981e+01
 1.098262e+00	 9.832170e-01	 1.241784e+01
 1.086120e+00	 9.966135e-01	 1.224533e+01
 1.073811e+00	 1.009864e+00	 1.211116e+01
 1.139359e+00	 9.469152e-01	 1.292079e+01
 1.127674e+00	 9.608013e-01	 1.277319e+01
 1.115813e+00	 9.745500e-01	 1.260444e+01
 1.103781e+00	 9.881578e-01	 1.242751e+01
 1.091578e+00	 1.001622e+00	 1.225955e+01
 1.079207e+00	 1.014938e+00	 1.212945e+01
 1.052227e+00	 9.895648e-01	 1.204496e+01
 1.040005e+00	 1.002402e+00	 1.189747e+01
 1.027625e+00	 1.015090e+00	 1.171211e+01
 1.015090e+00	 1.027625e+00	 1.151156e+01
 1.002402e+00	 1.040005e+00	 1.131917e+01
 9.895648e-01	 1.052227e+00	 1.115857e+01
 1.057623e+00	 9.946395e-01	 1.206007e+01
 1.045338e+00	 1.007542e+00	 1.191596e+01
 1.032895e+00	 1.020295e+00	 1.173346e+01
 1.020295e+00	 1.032895e+00	 1.153518e+01
 1.007542e+00	 1.045338e+00	 1.134439e+01
 9.946395e-01	 1.057623e+00	 1.118468e+01
 1.063019e+00	 9.997142e-01	 1.207631e+01
 1.050672e+00	 1.012683e+00	 1.193560e+01
 1.038165e+00	 1.025501e+00	 1.175525e+01
 1.025501e+00	 1.038165e+00	 1.155817e+01
 1.012683e+00	 1.050672e+00	 1.136797e+01
 9.997142e-01	 1.063019e+00	 1.120861e+01
 1.068415e+00	 1.004789e+00	 1.209340e+01
 1.056005e+00	 1.017824e+00	 1.195591e+01
 1.043434e+00	 1.030706e+00	 1.177690e+01
 1.030706e+00	 1.043434e+00	 1.157997e+01
 1.017824e+00	 1.056005e+00	 1.138946e+01
 1.004789e+00	 1.068415e+00	 1.123010e+01
 1.073811e+00	 1.009864e+00	 1.211116e+01
 1.061338e+00	 1.022964e+00	 1.197649e+01
 1.048704e+00	 1.035912e+00	 1.179792e+01
 1.035912e+00	 1.048704e+00	 1.160010e+01
 1.022964e+00	 1.061338e+00	 1.140847e+01
 1.009864e+00	 1.073811e+00	 1.124895e+01
 1.079207e+00	 1.014938e+00	 1.212945e+01
 1.066672e+00	 1.028105e+00	 1.199703e+01
 1.053974e+00	 1.041118e+00	 1.181790e+01
 1.041118e+00	 1.053974e+00	 1.161813e+01
 1.028105e+00	 1.066672e+00	 1.142468e+01
 1.014938e+00	 1.079207e+00	 1.126502e+01
 9.895648e-01	 1.052227e+00	 1.115857e+01
 9.765811e-01	 1.064288e+00	 1.099372e+01
 9.634539e-01	 1.076186e+00	 1.078819e+01
 9.501862e-01	 1.087918e+00	 1.056442e+01
 9.367813e-01	 1.099482e+00	 1.034357e+01
 9.232423e-01	 1.110875e+00	 1.014520e+01
 9.946395e-01	 1.057623e+00	 1.118468e+01
 9.815892e-01	 1.069746e+00	 1.101945e+01
 9.683947e-01	 1.081705e+00	 1.081334e+01
 9.550590e-01	 1.093497e+00	 1.059110e+01
 9.415853e-01	 1.105120e+00	 1.037627e+01
 9.279769e-01	 1.116572e+00	 1.018512e+01
 9.997142e-01	 1.063019e+00	 1.120861e+01
 9.865973e-01	 1.075204e+00	 1.104350e+01
 9.733355e-01	 1.087224e+00	 1.083832e+01
 9.599317e-01	 1.099076e+00	 1.061976e+01
 9.463893e-01	 1.110759e+00	 1.041337e+01
 9.327114e-01	 1.122269e+00	 1.022082e+01
 1.004789e+00	 1.068415e+00	 1.123010e+01
 9.916054e-01	 1.080662e+00	 1.106575e+01
 9.782762e-01	 1.092743e+00	 1.086303e+01
 9.648045e-01	 1.104655e+00	 1.065020e+01
 9.511933e-01	 1.116397e+00	 1.045082e+01
 9.374460e-01	 1.127965e+00	 1.025400e+01
 1.009864e+00	 1.073811e+00	 1.124895e+01
 9.966135e-01	 1.086120e+00	 1.108616e+01
 9.832170e-01	 1.098262e+00	 1.088743e+01
 9.696772e-01	 1.110234e+00	 1.068221e+01
 9.559973e-01	 1.122035e+00	 1.048529e+01
 9.421806e-01	 1.133662e+00	 1.028636e+01
 1.014938e+00	 1.079207e+00	 1.126502e+01
 1.001622e+00	 1.091578e+00	 1.110471e+01
 9.881578e-01	 1.103781e+00	 1.091152e+01
 9.745500e-01	 1.115813e+00	 1.071429e+01
 9.608013e-01	 1.127674e+00	 1.051883e+01
 9.469152e-01	 1.139359e+00	 1.031964e+01
 9.232423e-01	 1.110875e+00	 1.014520e+01
 9.095725e-01	 1.122095e+00	 9.960868e+00
 8.957752e-01	 1.133140e+00	 9.768802e+00
 8.818538e-01	 1.144008e+00	 9.569599e+00
 8.678116e-01	 1.154696e+00	 9.362823e+00
 8.536522e-01	 1.165203e+00	 9.147168e+00
 9.279769e-01	 1.116572e+00	 1.018512e+01
 9.142370e-01	 1.127850e+00	 9.995036e+00
 9.003689e-01	 1.138951e+00	 9.802401e+00
 8.863761e-01	 1.149874e+00	 9.605962e+00
 8.722620e-01	 1.160617e+00	 9.403340e+00
 8.580299e-01	 1.171178e+00	 9.191207e+00
 9.327114e-01	 1.122269e+00	 1.022082e+01
 9.189014e-01	 1.133604e+00	 1.002682e+01
 9.049626e-01	 1.144762e+00	 9.834201e+00
 8.908984e-01	 1.155741e+00	 9.640198e+00
 8.767123e-01	 1.166539e+00	 9.440862e+00
 8.624076e-01	 1.177154e+00	 9.231229e+00
 9.374460e-01	 1.127965e+00	 1.025400e+01
 9.235659e-01	 1.139358e+00	 1.005758e+01
 9.095564e-01	 1.150573e+00	 9.865344e+00
 8.954208e-01	 1.161608e+00	 9.673380e+00
 8.811626e-01	 1.172460e+00	 9.476526e+00
 8.667854e-01	 1.183129e+00	 9.268558e+00
 9.421806e-01	 1.133662e+00	 1.028636e+01
 9.282304e-01	 1.145113e+00	 1.008868e+01
 9.141501e-01	 1.156384e+00	 9.896997e+00
 8.999431e-01	 1.167475e+00	 9.706608e+00
 8.856129e-01	 1.178382e+00	 9.511491e+00
 8.711631e-01	 1.189104e+00	 9.304536e+00
 9.469152e-01	 1.139359e+00	 1.031964e+01
 9.328949e-01	 1.150867e+00	 1.012150e+01
 9.187438e-01	 1.162195e+00	 9.930356e+00
 9.044654e-01	 1.173341e+00	 9.741008e+00
 8.900632e-01	 1.184304e+00	 9.546945e+00
 8.755408e-01	 1.195080e+00	 9.340532e+00
 8.536522e-01	 1.165203e+00	 9.147168e+00
 8.393791e-01	 1.175526e+00	 8.933289e+00
 8.249956e-01	 1.185665e+00	 8.726271e+00
 8.105055e-01	 1.195617e+00	 8.515582e+00
 7.959124e-01	 1.205381e+00	 8.290414e+00
 7.812197e-01	 1.214955e+00	 8.039861e+00
 8.580299e-01	 1.171178e+00	 9.191207e+00
 8.436836e-01	 1.181555e+00	 8.978489e+00
 8.292264e-01	 1.191746e+00	 8.770809e+00
 8.146620e-01	 1.201749e+00	 8.559004e+00
 7.999940e-01	 1.211562e+00	 8.333687e+00
 7.852260e-01	 1.221185e+00	 8.085417e+00
 8.624076e-01	 1.177154e+00	 9.231229e+00
 8.479881e-01	 1.187583e+00	 9.019195e+00
 8.334571e-01	 1.197826e+00	 8.811168e+00
 8.188184e-01	 1.207880e+00	 8.599062e+00
 8.040756e-01	 1.217744e+00	 8.374601e+00
 7.892322e-01	 1.227416e+00	 8.129497e+00
 8.667854e-01	 1.183129e+00	 9.268558e+00
 8.522926e-01	 1.193612e+00	 9.056912e+00
 8.376879e-01	 1.203906e+00	 8.848911e+00
 8.229749e-01	 1.214011e+00	 8.637254e+00
 8.081572e-01	 1.223925e+00	 8.414475e+00
 7.932385e-01	 1.233647e+00	 8.173126e+00
 8.711631e-01	 1.189104e+00	 9.304536e+00
 8.565971e-01	 1.199640e+00	 9.093164e+00
 8.419186e-01	 1.209987e+00	 8.885619e+00
 8.271313e-01	 1.220143e+00	 8.675098e+00
 8.122388e-01	 1.230107e+00	 8.454651e+00
 7.972448e-01	 1.239877e+00	 8.217359e+00
 8.755408e-01	 1.195080e+00	 9.340532e+00
 8.609016e-01	 1.205668e+00	 9.129496e+00
 8.461494e-01	 1.216067e+00	 8.922891e+00
 8.312877e-01	 1.226274e+00	 8.714135e+00
 8.163204e-01	 1.236288e+00	 8.496496e+00
 8.012510e-01	 1.246108e+00	 8.263282e+00
 7.812197e-01	 1.214955e+00	 8.039861e+00
 7.664313e-01	 1.224338e+00	 7.808141e+00
 7.515508e-01	 1.233528e+00	 7.626919e+00
 7.365818e-01	 1.242524e+00	 7.465824e+00
 7.215282e-01	 1.251326e+00	 7.284845e+00
 7.063935e-01	 1.259932e+00	 7.051410e+00
 7.852260e-01	 1.221185e+00	 8.085417e+00
 7.703617e-01	 1.230616e+00	 7.856888e+00
 7.554049e-01	 1.239854e+00	 7.677074e+00
 7.403592e-01	 1.248896e+00	 7.515936e+00
 7.252283e-01	 1.257743e+00	 7.335878e+00
 7.100161e-01	 1.266393e+00	 7.101040e+00
 7.892322e-01	 1.227416e+00	 8.129497e+00
 7.742922e-01	 1.236895e+00	 7.904488e+00
 7.592590e-01	 1.246180e+00	 7.725850e+00
 7.441365e-01	 1.255268e+00	 7.563636e+00
 7.289284e-01	 1.264160e+00	 7.383633e+00
 7.136386e-01	 1.272854e+00	 7.147250e+00
 7.932385e-01	 1.233647e+00	 8.173126e+00
 7.782226e-01	 1.243174e+00	 7.951679e+00
 7.631131e-01	 1.252505e+00	 7.773820e+00
 7.479138e-01	 1.261640e+00	 7.609998e+00
 7.326286e-01	 1.270577e+00	 7.428757e+00
 7.172611e-01	 1.279315e+00	 7.190872e+00
 7.972448e-01	 1.239877e+00	 8.217359e+00
 7.821530e-01	 1.249452e+00	 7.999237e+00
 7.669672e-01	 1.258831e+00	 7.821595e+00
 7.516912e-01	 1.268012e+00	 7.655585e+00
 7.363287e-01	 1.276994e+00	 7.471925e+00
 7.208837e-01	 1.285776e+00	 7.232767e+00
 8.012510e-01	 1.246108e+00	 8.263282e+00
 7.860834e-01	 1.255731e+00	 8.047973e+00
 7.708213e-01	 1.265157e+00	 7.869825e+00
 7.554685e-01	 1.274384e+00	 7.700998e+00
 7.400289e-01	 1.283411e+00	 7.513842e+00
 7.245062e-01	 1.292238e+00	 7.273821e+00
 7.063935e-01	 1.259932e+00	 7.051410e+00
 6.911817e-01	 1.268341e+00	 6.799442e+00
 6.758964e-01	 1.276552e+00	 6.573868e+00
 6.605413e-01	 1.284564e+00	 6.365061e+00
 6.451203e-01	 1.292377e+00	 6.165383e+00
 6.296372e-01	 1.299991e+00	 5.969151e+00
 7.100161e-01	 1.266393e+00	 7.101040e+00
 6.947262e-01	 1.274845e+00	 6.847726e+00
 6.793625e-01	 1.283098e+00	 6.622757e+00
 6.639287e-01	 1.291152e+00	 6.415677e+00
 6.484286e-01	 1.299005e+00	 6.218056e+00
 6.328661e-01	 1.306658e+00	 6.023459e+00
 7.136386e-01	 1.272854e+00	 7.147250e+00
 6.982707e-01	 1.281349e+00	 6.892927e+00
 6.828286e-01	 1.289644e+00	 6.669139e+00
 6.673161e-01	 1.297739e+00	 6.464401e+00
 6.517370e-01	 1.305633e+00	 6.269284e+00
 6.360950e-01	 1.313324e+00	 6.076388e+00
 7.172611e-01	 1.279315e+00	 7.190872e+00
 7.018152e-01	 1.287853e+00	 6.936068e+00
 6.862948e-01	 1.296191e+00	 6.714137e+00
 6.707035e-01	 1.304327e+00	 6.512368e+00
 6.550453e-01	 1.312260e+00	 6.320130e+00
 6.393239e-01	 1.319991e+00	 6.128848e+00
 7.208837e-01	 1.285776e+00	 7.232767e+00
 7.053598e-01	 1.294358e+00	 6.978196e+00
 6.897609e-01	 1.302737e+00	 6.758895e+00
 6.740909e-01	 1.310914e+00	 6.560734e+00
 6.583536e-01	 1.318888e+00	 6.371678e+00
 6.425528e-01	 1.326658e+00	 6.181774e+00
 7.245062e-01	 1.292238e+00	 7.273821e+00
 7.089043e-01	 1.300862e+00	 7.020380e+00
 6.932270e-01	 1.309284e+00	 6.804579e+00
 6.774783e-01	 1.317502e+00	 6.610675e+00
 6.616619e-01	 1.325515e+00	 6.425036e+00
 6.457817e-01	 1.333324e+00	 6.236126e+00
 6.296372e-01	 1.299991e+00	 5.969151e+00
 6.140956e-01	 1.307404e+00	 5.772816e+00
 5.984993e-01	 1.314617e+00	 5.575488e+00
 5.828521e-01	 1.321629e+00	 5.378231e+00
 5.671578e-01	 1.328440e+00	 5.183795e+00
 5.514200e-01	 1.335049e+00	 4.996515e+00
 6.328661e-01	 1.306658e+00	 6.023459e+00
 6.172448e-01	 1.314109e+00	 5.827892e+00
 6.015685e-01	 1.321359e+00	 5.630669e+00
 5.858411e-01	 1.328407e+00	 5.433155e+00
 5.700663e-01	 1.335252e+00	 5.238452e+00
 5.542478e-01	 1.341895e+00	 5.051293e+00
 6.360950e-01	 1.313324e+00	 6.076388e+00
 6.203940e-01	 1.320814e+00	 5.881256e+00
 6.046378e-01	 1.328100e+00	 5.683655e+00
 5.888301e-01	 1.335184e+00	 5.485428e+00
 5.729748e-01	 1.342065e+00	 5.290218e+00
 5.570756e-01	 1.348742e+00	 5.103350e+00
 6.393239e-01	 1.319991e+00	 6.128848e+00
 6.235432e-01	 1.327518e+00	 5.933658e+00
 6.077070e-01	 1.334842e+00	 5.735093e+00
 5.918191e-01	 1.341962e+00	 5.535654e+00
 5.758833e-01	 1.348877e+00	 5.339707e+00
 5.599034e-01	 1.355588e+00	 5.153363e+00
 6.425528e-01	 1.326658e+00	 6.181774e+00
 6.266924e-01	 1.334223e+00	 5.985876e+00
 6.107762e-01	 1.341584e+00	 5.785662e+00
 5.948081e-01	 1.348739e+00	 5.584466e+00
 5.787918e-01	 1.355690e+00	 5.387562e+00
 5.627312e-01	 1.362435e+00	 5.202035e+00
 6.457817e-01	 1.333324e+00	 6.236126e+00
 6.298416e-01	 1.340928e+00	 6.038713e+00
 6.138455e-01	 1.348325e+00	 5.836066e+00
 5.977971e-01	 1.355517e+00	 5.632526e+00
 5.817003e-01	 1.362502e+00	 5.434452e+00
 5.655590e-01	 1.369281e+00	 5.250093e+00
 5.514200e-01	 1.335049e+00	 4.996515e+00
 5.356425e-01	 1.341457e+00	 4.816164e+00
 5.198290e-01	 1.347664e+00	 4.636473e+00
 5.039830e-01	 1.353669e+00	 4.454633e+00
 4.881084e-01	 1.359474e+00	 4.268809e+00
 4.722087e-01	 1.365078e+00	 4.078015e+00
 5.542478e-01	 1.341895e+00	 5.051293e+00
 5.383894e-01	 1.348336e+00	 4.870801e+00
 5.224948e-01	 1.354575e+00	 4.690099e+00
 5.065676e-01	 1.360611e+00	 4.506900e+00
 4.906116e-01	 1.366446e+00	 4.319922e+00
 4.746303e-01	 1.372079e+00	 4.128763e+00
 5.570756e-01	 1.348742e+00	 5.103350e+00
 5.411363e-01	 1.355216e+00	 4.923386e+00
 5.251605e-01	 1.361486e+00	 4.742633e+00
 5.091521e-01	 1.367553e+00	 4.559085e+00
 4.931147e-01	 1.373417e+00	 4.371770e+00
 4.770519e-01	 1.379079e+00	 4.180616e+00
 5.599034e-01	 1.355588e+00	 5.153363e+00
 5.438832e-01	 1.362095e+00	 4.974642e+00
 5.278263e-01	 1.368397e+00	 4.794773e+00
 5.117366e-01	 1.374495e+00	 4.611789e+00
 4.956178e-01	 1.380389e+00	 4.424787e+00
 4.794735e-01	 1.386079e+00	 4.233781e+00
 5.627312e-01	 1.362435e+00	 5.202035e+00
 5.466301e-01	 1.368974e+00	 5.025320e+00
 5.304921e-01	 1.375308e+00	 4.847238e+00
 5.143212e-01	 1.381437e+00	 4.665633e+00
 4.981209e-01	 1.387361e+00	 4.479430e+00
 4.818951e-01	 1.393080e+00	 4.288491e+00
 5.655590e-01	 1.369281e+00	 5.250093e+00
 5.493769e-01	 1.375853e+00	 5.076190e+00
 5.331579e-01	 1.382219e+00	 4.900772e+00
 5.169057e-01	 1.388379e+00	 4.721261e+00
 5.006240e-01	 1.394332e+00	 4.536181e+00
 4.843166e-01	 1.400080e+00	 4.345004e+00
 4.722087e-01	 1.365078e+00	 4.078015e+00
 4.562876e-01	 1.370482e+00	 3.887532e+00
 4.403485e-01	 1.375686e+00	 3.708802e+00
 4.243950e-01	 1.380691e+00	 3.550952e+00
 4.084307e-01	 1.385498e+00	 3.423397e+00
 3.924590e-01	 1.390106e+00	 3.335670e+00
 4.746303e-01	 1.372079e+00	 4.128763e+00
 4.586275e-01	 1.377510e+00	 3.939629e+00
 4.426067e-01	 1.382741e+00	 3.763664e+00
 4.265714e-01	 1.387772e+00	 3.608772e+00
 4.105252e-01	 1.392603e+00	 3.483157e+00
 3.944716e-01	 1.397235e+00	 3.395145e+00
 4.770519e-01	 1.379079e+00	 4.180616e+00
 4.609674e-01	 1.384538e+00	 3.992515e+00
 4.448649e-01	 1.389796e+00	 3.818437e+00
 4.287478e-01	 1.394852e+00	 3.665354e+00
 4.126197e-01	 1.399708e+00	 3.540550e+00
 3.964842e-01	 1.404364e+00	 3.451444e+00
 4.794735e-01	 1.386079e+00	 4.233781e+00
 4.633074e-01	 1.391567e+00	 4.046167e+00
 4.471231e-01	 1.396851e+00	 3.872913e+00
 4.309242e-01	 1.401933e+00	 3.720348e+00
 4.147143e-01	 1.406813e+00	 3.595128e+00
 3.984968e-01	 1.411493e+00	 3.504054e+00
 4.818951e-01	 1.393080e+00	 4.288491e+00
 4.656473e-01	 1.398595e+00	 4.100588e+00
 4.493813e-01	 1.403906e+00	 3.926912e+00
 4.331006e-01	 1.409013e+00	 3.773435e+00
 4.168088e-01	 1.413918e+00	 3.646469e+00
 4.005095e-01	 1.418621e+00	 3.552488e+00
 4.843166e-01	 1.400080e+00	 4.345004e+00
 4.679872e-01	 1.405623e+00	 4.155810e+00
 4.516395e-01	 1.410960e+00	 3.980286e+00
 4.352769e-01	 1.416094e+00	 3.824324e+00
 4.189033e-01	 1.421023e+00	 3.694182e+00
 4.025221e-01	 1.425750e+00	 3.596289e+00
 3.924590e-01	 1.390106e+00	 3.335670e+00
 3.764834e-01	 1.394518e+00	 3.235810e+00
 3.605072e-01	 1.398733e+00	 3.081758e+00
 3.445337e-01	 1.402753e+00	 2.892802e+00
 3.285664e-01	 1.406579e+00	 2.707014e+00
 3.126085e-01	 1.410211e+00	 2.561297e+00
 3.944716e-01	 1.397235e+00	 3.395145e+00
 3.784140e-01	 1.401669e+00	 3.292611e+00
 3.623559e-01	 1.405906e+00	 3.136772e+00
 3.463006e-01	 1.409947e+00	 2.946451e+00
 3.302514e-01	 1.413792e+00	 2.759383e+00
 3.142116e-01	 1.417443e+00	 2.613464e+00
 3.964842e-01	 1.404364e+00	 3.451444e+00
 3.803447e-01	 1.408821e+00	 3.346057e+00
 3.642047e-01	 1.413079e+00	 3.188680e+00
 3.480674e-01	 1.417140e+00	 2.998275e+00
 3.319363e-01	 1.421005e+00	 2.811435e+00
 3.158147e-01	 1.424675e+00	 2.666733e+00
 3.984968e-01	 1.411493e+00	 3.504054e+00
 3.822754e-01	 1.415972e+00	 3.395581e+00
 3.660534e-01	 1.420252e+00	 3.236787e+00
 3.498343e-01	 1.424334e+00	 3.047479e+00
 3.336213e-01	 1.428218e+00	 2.862294e+00
 3.174178e-01	 1.431907e+00	 2.720178e+00
 4.005095e-01	 1.418621e+00	 3.552488e+00
 3.842061e-01	 1.423123e+00	 3.440643e+00
 3.679022e-01	 1.427425e+00	 3.280432e+00
 3.516011e-01	 1.431528e+00	 3.093292e+00
 3.353062e-01	 1.435432e+00	 2.911109e+00
 3.190210e-01	 1.439139e+00	 2.772889e+00
 4.025221e-01	 1.425750e+00	 3.596289e+00
 3.861368e-01	 1.430275e+00	 3.480728e+00
 3.697509e-01	 1.434598e+00	 3.318985e+00
 3.533679e-01	 1.438721e+00	 3.134973e+00
 3.369912e-01	 1.442645e+00	 2.957048e+00
 3.206241e-01	 1.446370e+00	 2.823974e+00
 3.126085e-01	 1.410211e+00	 2.561297e+00
 2.966631e-01	 1.413652e+00	 2.455296e+00
 2.807336e-01	 1.416901e+00	 2.363650e+00
 2.648229e-01	 1.419961e+00	 2.281540e+00
 2.489342e-01	 1.422832e+00	 2.201771e+00
 2.330704e-01	 1.425517e+00	 2.115027e+00
 3.142116e-01	 1.417443e+00	 2.613464e+00
 2.981845e-01	 1.420901e+00	 2.507674e+00
 2.821732e-01	 1.424167e+00	 2.415707e+00
 2.661809e-01	 1.427243e+00	 2.333058e+00
 2.502107e-01	 1.430129e+00	 2.252716e+00
 2.342656e-01	 1.432827e+00	 2.165430e+00
 3.158147e-01	 1.424675e+00	 2.666733e+00
 2.997058e-01	 1.428151e+00	 2.562282e+00
 2.836129e-01	 1.431433e+00	 2.470822e+00
 2.675390e-01	 1.434524e+00	 2.388148e+00
 2.514873e-01	 1.437425e+00	 2.307408e+00
 2.354609e-01	 1.440137e+00	 2.219381e+00
 3.174178e-01	 1.431907e+00	 2.720178e+00
 3.012272e-01	 1.435400e+00	 2.618156e+00
 2.850525e-01	 1.438699e+00	 2.527999e+00
 2.688971e-01	 1.441806e+00	 2.445783e+00
 2.527639e-01	 1.444722e+00	 2.364785e+00
 2.366561e-01	 1.447448e+00	 2.275784e+00
 3.190210e-01	 1.439139e+00	 2.772889e+00
 3.027485e-01	 1.442650e+00	 2.674346e+00
 2.864922e-01	 1.445966e+00	 2.586253e+00
 2.702551e-01	 1.449088e+00	 2.504942e+00
 2.540405e-01	 1.452019e+00	 2.423793e+00
 2.378513e-01	 1.454758e+00	 2.333545e+00
 3.206241e-01	 1.446370e+00	 2.823974e+00
 3.042699e-01	 1.449899e+00	 2.729915e+00
 2.879319e-01	 1.453232e+00	 2.644604e+00
 2.716132e-01	 1.456370e+00	 2.564609e+00
 2.553171e-01	 1.459315e+00	 2.483379e+00
 2.390466e-01	 1.462068e+00	 2.391573e+00
 2.330704e-01	 1.425517e+00	 2.115027e+00
 2.172346e-01	 1.428016e+00	 2.020464e+00
 2.014297e-01	 1.430331e+00	 1.928081e+00
 1.856586e-01	 1.432463e+00	 1.842354e+00
 1.699240e-01	 1.434415e+00	 1.766599e+00
 1.542286e-01	 1.436187e+00	 1.703270e+00
 2.342656e-01	 1.432827e+00	 2.165430e+00
 2.183487e-01	 1.435339e+00	 2.070779e+00
 2.024627e-01	 1.437666e+00	 1.979054e+00
 1.866107e-01	 1.439809e+00	 1.894456e+00
 1.707954e-01	 1.441771e+00	 1.819956e+00
 1.550196e-01	 1.443552e+00	 1.757610e+00
 2.354609e-01	 1.440137e+00	 2.219381e+00
 2.194627e-01	 1.442662e+00	 2.124023e+00
 2.034957e-01	 1.445001e+00	 2.032012e+00
 1.875628e-01	 1.447155e+00	 1.947445e+00
 1.716668e-01	 1.449127e+00	 1.873119e+00
 1.558105e-01	 1.450917e+00	 1.810860e+00
 2.366561e-01	 1.447448e+00	 2.275784e+00
 2.205767e-01	 1.449985e+00	 2.179085e+00
 2.045287e-01	 1.452336e+00	 2.085869e+00
 1.885149e-01	 1.454501e+00	 2.000299e+00
 1.725382e-01	 1.456483e+00	 1.925161e+00
 1.566014e-01	 1.458282e+00	 1.862212e+00
 2.378513e-01	 1.454758e+00	 2.333545e+00
 2.216907e-01	 1.457308e+00	 2.234855e+00
 2.055616e-01	 1.459671e+00	 2.139541e+00
 1.894670e-01	 1.461847e+00	 2.051996e+00
 1.734096e-01	 1.463839e+00	 1.975154e+00
 1.573923e-01	 1.465647e+00	 1.910856e+00
 2.390466e-01	 1.462068e+00	 2.391573e+00
 2.228048e-01	 1.464631e+00	 2.290224e+00
 2.065946e-01	 1.467006e+00	 2.191948e+00
 1.904191e-01	 1.469193e+00	 2.101518e+00
 1.742810e-01	 1.471195e+00	 2.022170e+00
 1.581832e-01	 1.473012e+00	 1.955981e+00
 1.542286e-01	 1.436187e+00	 1.703270e+00
 1.385753e-01	 1.437782e+00	 1.650649e+00
 1.229666e-01	 1.439201e+00	 1.604599e+00
 1.074051e-01	 1.440446e+00	 1.563600e+00
 9.189328e-02	 1.441518e+00	 1.526517e+00
 7.643366e-02	 1.442421e+00	 1.492886e+00
 1.550196e-01	 1.443552e+00	 1.757610e+00
 1.392859e-01	 1.445155e+00	 1.705416e+00
 1.235972e-01	 1.446581e+00	 1.659345e+00
 1.079559e-01	 1.447833e+00	 1.618028e+00
 9.236453e-02	 1.448911e+00	 1.580495e+00
 7.682563e-02	 1.449818e+00	 1.546461e+00
 1.558105e-01	 1.450917e+00	 1.810860e+00
 1.399966e-01	 1.452528e+00	 1.758541e+00
 1.242278e-01	 1.453962e+00	 1.712229e+00
 1.085067e-01	 1.455220e+00	 1.670627e+00
 9.283578e-02	 1.456303e+00	 1.632841e+00
 7.721760e-02	 1.457215e+00	 1.598687e+00
 1.566014e-01	 1.458282e+00	 1.862212e+00
 1.407072e-01	 1.459902e+00	 1.809343e+00
 1.248584e-01	 1.461342e+00	 1.762701e+00
 1.090575e-01	 1.462606e+00	 1.720972e+00
 9.330702e-02	 1.463696e+00	 1.683254e+00
 7.760956e-02	 1.464612e+00	 1.649377e+00
 1.573923e-01	 1.465647e+00	 1.910856e+00
 1.414179e-01	 1.467275e+00	 1.857143e+00
 1.254890e-01	 1.468723e+00	 1.810209e+00
 1.096083e-01	 1.469993e+00	 1.768637e+00
 9.377827e-02	 1.471088e+00	 1.731427e+00
 7.800153e-02	 1.472009e+00	 1.698337e+00
 1.581832e-01	 1.473012e+00	 1.955981e+00
 1.421285e-01	 1.474648e+00	 1.901257e+00
 1.261196e-01	 1.476103e+00	 1.854200e+00
 1.101591e-01	 1.477380e+00	 1.813194e+00
 9.424952e-02	 1.478480e+00	 1.777055e+00
 7.839350e-02	 1.479406e+00	 1.745377e+00
 7.643366e-02	 1.442421e+00	 1.492886e+00
 6.102861e-02	 1.443155e+00	 1.464171e+00
 4.568048e-02	 1.443722e+00	 1.441196e+00
 3.039153e-02	 1.444125e+00	 1.424320e+00
 1.516399e-02	 1.444365e+00	 1.415563e+00
-8.066251e-07	 1.444464e+00	 1.866889e+00
 7.682563e-02	 1.449818e+00	 1.546461e+00
 6.134158e-02	 1.450555e+00	 1.517574e+00
 4.591474e-02	 1.451126e+00	 1.494546e+00
 3.054738e-02	 1.451530e+00	 1.477546e+00
 1.524175e-02	 1.451772e+00	 1.468484e+00
-7.987894e-07	 1.451871e+00	 1.948545e+00
 7.721760e-02	 1.457215e+00	 1.598687e+00
 6.165455e-02	 1.457956e+00	 1.569921e+00
 4.614900e-02	 1.458529e+00	 1.547113e+00
 3.070324e-02	 1.458936e+00	 1.530244e+00
 1.531951e-02	 1.459179e+00	 1.521111e+00
-7.907276e-07	 1.459279e+00	 2.030408e+00
 7.760956e-02	 1.464612e+00	 1.649377e+00
 6.196752e-02	 1.465357e+00	 1.621119e+00
 4.638326e-02	 1.465933e+00	 1.598880e+00
 3.085909e-02	 1.466342e+00	 1.582443e+00
 1.539728e-02	 1.466586e+00	 1.573488e+00
-7.824409e-07	 1.466686e+00	 2.112477e+00
 7.800153e-02	 1.472009e+00	 1.698337e+00
 6.228048e-02	 1.472758e+00	 1.671076e+00
 4.661751e-02	 1.473337e+00	 1.649830e+00
 3.101495e-02	 1.473748e+00	 1.634175e+00
 1.547504e-02	 1.473993e+00	 1.625665e+00
-7.739301e-07	 1.474094e+00	 2.194755e+00
 7.839350e-02	 1.479406e+00	 1.745377e+00
 6.259345e-02	 1.480159e+00	 1.719699e+00
 4.685177e-02	 1.480740e+00	 1.699944e+00
 3.117080e-02	 1.481154e+00	 1.685469e+00
 1.555281e-02	 1.481400e+00	 1.677689e+00
-7.651964e-07	 1.481501e+00	 2.277248e+00
 1.481481e+00	 0.000000e+00	 1.573137e+01
 1.481400e+00	 1.555281e-02	 1.573524e+01
 1.481154e+00	 3.117080e-02	 1.573692e+01
 1.480740e+00	 4.685177e-02	 1.573664e+01
 1.480159e+00	 6.259345e-02	 1.573417e+01
 1.479406e+00	 7.839350e-02	 1.572891e+01
 1.488889e+00	 0.000000e+00	 1.564519e+01
 1.488807e+00	 1.563057e-02	 1.564903e+01
 1.488559e+00	 3.132665e-02	 1.565060e+01
 1.488144e+00	 4.708603e-02	 1.565022e+01
 1.487559e+00	 6.290642e-02	 1.564776e+01
 1.486803e+00	 7.878547e-02	 1.564271e+01
 1.496296e+00	 0.000000e+00	 1.556100e+01
 1.496214e+00	 1.570833e-02	 1.556474e+01
 1.495965e+00	 3.148251e-02	 1.556621e+01
 1.495548e+00	 4.732029e-02	 1.556576e+01
 1.494960e+00	 6.321939e-02	 1.556333e+01
 1.494200e+00	 7.917743e-02	 1.555844e+01
 1.503704e+00	 0.000000e+00	 1.547873e+01
 1.503621e+00	 1.578610e-02	 1.548232e+01
 1.503371e+00	 3.163836e-02	 1.548371e+01
 1.502952e+00	 4.755455e-02	 1.548327e+01
 1.502361e+00	 6.353235e-02	 1.548096e+01
 1.501597e+00	 7.956940e-02	 1.547638e+01
 1.511111e+00	 0.000000e+00	 1.539832e+01
 1.511028e+00	 1.586386e-02	 1.540171e+01
 1.510777e+00	 3.179422e-02	 1.540303e+01
 1.510355e+00	 4.778881e-02	 1.540267e+01
 1.509762e+00	 6.384532e-02	 1.540061e+01
 1.508994e+00	 7.996137e-02	 1.539646e+01
 1.518519e+00	 0.000000e+00	 1.531971e+01
 1.518435e+00	 1.594163e-02	 1.532287e+01
 1.518182e+00	 3.195007e-02	 1.532414e+01
 1.517759e+00	 4.802307e-02	 1.532393e+01
 1.517163e+00	 6.415829e-02	 1.532221e+01
 1.516391e+00	 8.035334e-02	 1.531861e+01
 1.479406e+00	 7.839350e-02	 1.572891e+01
 1.478480e+00	 9.424952e-02	 1.572321e+01
 1.477380e+00	 1.101591e-01	 1.571975e+01
 1.476103e+00	 1.261196e-01	 1.571798e+01
 1.474648e+00	 1.421285e-01	 1.571715e+01
 1.473012e+00	 1.581832e-01	 1.571637e+01
 1.486803e+00	 7.878547e-02	 1.564271e+01
 1.485873e+00	 9.472077e-02	 1.563738e+01
 1.484767e+00	 1.107098e-01	 1.563440e+01
 1.483484e+00	 1.267502e-01	 1.563331e+01
 1.482021e+00	 1.428392e-01	 1.563337e+01
 1.480377e+00	 1.589741e-01	 1.563360e+01
 1.494200e+00	 7.917743e-02	 1.555844e+01
 1.493265e+00	 9.519201e-02	 1.555328e+01
 1.492154e+00	 1.112606e-01	 1.555039e+01
 1.490864e+00	 1.273808e-01	 1.554941e+01
 1.489395e+00	 1.435498e-01	 1.554972e+01
 1.487742e+00	 1.597650e-01	 1.555047e+01
 1.501597e+00	 7.956940e-02	 1.547638e+01
 1.500658e+00	 9.566326e-02	 1.547152e+01
 1.499541e+00	 1.118114e-01	 1.546880e+01
 1.498245e+00	 1.280114e-01	 1.546796e+01
 1.496768e+00	 1.442604e-01	 1.546847e+01
 1.495108e+00	 1.605560e-01	 1.546959e+01
 1.508994e+00	 7.996137e-02	 1.539646e+01
 1.508050e+00	 9.613451e-02	 1.539202e+01
 1.506928e+00	 1.123622e-01	 1.538955e+01
 1.505625e+00	 1.286420e-01	 1.538889e+01
 1.504141e+00	 1.449711e-01	 1.538958e+01
 1.502473e+00	 1.613469e-01	 1.539098e+01
 1.516391e+00	 8.035334e-02	 1.531861e+01
 1.515442e+00	 9.660576e-02	 1.531471e+01
 1.514315e+00	 1.129130e-01	 1.531258e+01
 1.513006e+00	 1.292726e-01	 1.531213e+01
 1.511514e+00	 1.456817e-01	 1.531300e+01
 1.509838e+00	 1.621378e-01	 1.531461e+01
 1.473012e+00	 1.581832e-01	 1.571637e+01
 1.471195e+00	 1.742810e-01	 1.571366e+01
 1.469193e+00	 1.904191e-01	 1.570718e+01
 1.467006e+00	 2.065946e-01	 1.569629e+01
 1.464631e+00	 2.228048e-01	 1.568048e+01
 1.462068e+00	 2.390466e-01	 1.565950e+01
 1.480377e+00	 1.589741e-01	 1.563360e+01
 1.478551e+00	 1.751524e-01	 1.563179e+01
 1.476539e+00	 1.913711e-01	 1.562608e+01
 1.474341e+00	 2.076276e-01	 1.561582e+01
 1.471955e+00	 2.239188e-01	 1.560051e+01
 1.469379e+00	 2.402418e-01	 1.557988e+01
 1.487742e+00	 1.597650e-01	 1.555047e+01
 1.485907e+00	 1.760238e-01	 1.554966e+01
 1.483885e+00	 1.923232e-01	 1.554533e+01
 1.481676e+00	 2.086606e-01	 1.553654e+01
 1.479278e+00	 2.250328e-01	 1.552244e+01
 1.476689e+00	 2.414370e-01	 1.550261e+01
 1.495108e+00	 1.605560e-01	 1.546959e+01
 1.493263e+00	 1.768952e-01	 1.546941e+01
 1.491231e+00	 1.932753e-01	 1.546603e+01
 1.489011e+00	 2.096935e-01	 1.545857e+01
 1.486601e+00	 2.261468e-01	 1.544612e+01
 1.483999e+00	 2.426323e-01	 1.542786e+01
 1.502473e+00	 1.613469e-01	 1.539098e+01
 1.500618e+00	 1.777666e-01	 1.539128e+01
 1.498577e+00	 1.942274e-01	 1.538863e+01
 1.496346e+00	 2.107265e-01	 1.538212e+01
 1.493924e+00	 2.272609e-01	 1.537083e+01
 1.491310e+00	 2.438275e-01	 1.535391e+01
 1.509838e+00	 1.621378e-01	 1.531461e+01
 1.507974e+00	 1.786380e-01	 1.531528e+01
 1.505923e+00	 1.951795e-01	 1.531319e+01
 1.503681e+00	 2.117595e-01	 1.530736e+01
 1.501247e+00	 2.283749e-01	 1.529680e+01
 1.498620e+00	 2.450227e-01	 1.528059e+01
 1.462068e+00	 2.390466e-01	 1.565950e+01
 1.459315e+00	 2.553171e-01	 1.564151e+01
 1.456370e+00	 2.716132e-01	 1.563279e+01
 1.453232e+00	 2.879319e-01	 1.563089e+01
 1.449899e+00	 3.042699e-01	 1.563386e+01
 1.446370e+00	 3.206241e-01	 1.564033e+01
 1.469379e+00	 2.402418e-01	 1.557988e+01
 1.466612e+00	 2.565937e-01	 1.556238e+01
 1.463652e+00	 2.729713e-01	 1.555454e+01
 1.460498e+00	 2.893715e-01	 1.555384e+01
 1.457149e+00	 3.057912e-01	 1.555830e+01
 1.453602e+00	 3.222272e-01	 1.556652e+01
 1.476689e+00	 2.414370e-01	 1.550261e+01
 1.473908e+00	 2.578702e-01	 1.548572e+01
 1.470934e+00	 2.743293e-01	 1.547861e+01
 1.467764e+00	 2.908112e-01	 1.547878e+01
 1.464398e+00	 3.073126e-01	 1.548428e+01
 1.460834e+00	 3.238303e-01	 1.549378e+01
 1.483999e+00	 2.426323e-01	 1.542786e+01
 1.481205e+00	 2.591468e-01	 1.541204e+01
 1.478216e+00	 2.756874e-01	 1.540562e+01
 1.475030e+00	 2.922508e-01	 1.540637e+01
 1.471648e+00	 3.088339e-01	 1.541244e+01
 1.468066e+00	 3.254335e-01	 1.542264e+01
 1.491310e+00	 2.438275e-01	 1.535391e+01
 1.488501e+00	 2.604234e-01	 1.533980e+01
 1.485497e+00	 2.770455e-01	 1.533525e+01
 1.482296e+00	 2.936905e-01	 1.533717e+01
 1.478897e+00	 3.103553e-01	 1.534337e+01
 1.475298e+00	 3.270366e-01	 1.535361e+01
 1.498620e+00	 2.450227e-01	 1.528059e+01
 1.495798e+00	 2.617000e-01	 1.526719e+01
 1.492779e+00	 2.784035e-01	 1.526370e+01
 1.489563e+00	 2.951302e-01	 1.526739e+01
 1.486147e+00	 3.118766e-01	 1.527584e+01
 1.482530e+00	 3.286397e-01	 1.528709e+01
 1.446370e+00	 3.206241e-01	 1.564033e+01
 1.442645e+00	 3.369912e-01	 1.563360e+01
 1.438721e+00	 3.533679e-01	 1.560099e+01
 1.434598e+00	 3.697509e-01	 1.554811e+01
 1.430275e+00	 3.861368e-01	 1.550091e+01
 1.425750e+00	 4.025221e-01	 1.548930e+01
 1.453602e+00	 3.222272e-01	 1.556652e+01
 1.449858e+00	 3.386762e-01	 1.556138e+01
 1.445915e+00	 3.551348e-01	 1.552967e+01
 1.441771e+00	 3.715997e-01	 1.547709e+01
 1.437426e+00	 3.880675e-01	 1.543342e+01
 1.432879e+00	 4.045347e-01	 1.542377e+01
 1.460834e+00	 3.238303e-01	 1.549378e+01
 1.457071e+00	 3.403611e-01	 1.548983e+01
 1.453108e+00	 3.569016e-01	 1.545883e+01
 1.448944e+00	 3.734484e-01	 1.540695e+01
 1.444577e+00	 3.899981e-01	 1.536670e+01
 1.440008e+00	 4.065473e-01	 1.535908e+01
 1.468066e+00	 3.254335e-01	 1.542264e+01
 1.464285e+00	 3.420461e-01	 1.541937e+01
 1.460302e+00	 3.586685e-01	 1.538868e+01
 1.456117e+00	 3.752972e-01	 1.533771e+01
 1.451729e+00	 3.919288e-01	 1.530053e+01
 1.447136e+00	 4.085599e-01	 1.529478e+01
 1.475298e+00	 3.270366e-01	 1.535361e+01
 1.471498e+00	 3.437310e-01	 1.535036e+01
 1.467496e+00	 3.604353e-01	 1.531945e+01
 1.463290e+00	 3.771459e-01	 1.526935e+01
 1.458880e+00	 3.938595e-01	 1.523469e+01
 1.454265e+00	 4.105725e-01	 1.523043e+01
 1.482530e+00	 3.286397e-01	 1.528709e+01
 1.478711e+00	 3.454160e-01	 1.528317e+01
 1.474689e+00	 3.622021e-01	 1.525135e+01
 1.470463e+00	 3.789947e-01	 1.520184e+01
 1.466032e+00	 3.957902e-01	 1.516897e+01
 1.461394e+00	 4.125851e-01	 1.516562e+01
 1.425750e+00	 4.025221e-01	 1.548930e+01
 1.421023e+00	 4.189033e-01	 1.548897e+01
 1.416094e+00	 4.352769e-01	 1.547359e+01
 1.410960e+00	 4.516395e-01	 1.544821e+01
 1.405623e+00	 4.679872e-01	 1.541830e+01
 1.400080e+00	 4.843166e-01	 1.538970e+01
 1.432879e+00	 4.045347e-01	 1.542377e+01
 1.428128e+00	 4.209978e-01	 1.542482e+01
 1.423174e+00	 4.374533e-01	 1.541098e+01
 1.418015e+00	 4.538977e-01	 1.538716e+01
 1.412651e+00	 4.703272e-01	 1.535869e+01
 1.407081e+00	 4.867382e-01	 1.533122e+01
 1.440008e+00	 4.065473e-01	 1.535908e+01
 1.435234e+00	 4.230923e-01	 1.536172e+01
 1.430255e+00	 4.396297e-01	 1.534969e+01
 1.425070e+00	 4.561559e-01	 1.532766e+01
 1.419679e+00	 4.726671e-01	 1.530071e+01
 1.414081e+00	 4.891598e-01	 1.527428e+01
 1.447136e+00	 4.085599e-01	 1.529478e+01
 1.442339e+00	 4.251868e-01	 1.529906e+01
 1.437335e+00	 4.418061e-01	 1.528902e+01
 1.432125e+00	 4.584140e-01	 1.526902e+01
 1.426707e+00	 4.750070e-01	 1.524382e+01
 1.421081e+00	 4.915814e-01	 1.521857e+01
 1.454265e+00	 4.105725e-01	 1.523043e+01
 1.449444e+00	 4.272814e-01	 1.523622e+01
 1.444416e+00	 4.439825e-01	 1.522829e+01
 1.439180e+00	 4.606722e-01	 1.521058e+01
 1.433735e+00	 4.773470e-01	 1.518748e+01
 1.428082e+00	 4.940030e-01	 1.516377e+01
 1.461394e+00	 4.125851e-01	 1.516562e+01
 1.456549e+00	 4.293759e-01	 1.517259e+01
 1.451496e+00	 4.461589e-01	 1.516680e+01
 1.446234e+00	 4.629304e-01	 1.515168e+01
 1.440763e+00	 4.796869e-01	 1.513116e+01
 1.435082e+00	 4.964246e-01	 1.510959e+01
 1.400080e+00	 4.843166e-01	 1.538970e+01
 1.394332e+00	 5.006240e-01	 1.535665e+01
 1.388379e+00	 5.169057e-01	 1.531283e+01
 1.382219e+00	 5.331579e-01	 1.526368e+01
 1.375853e+00	 5.493769e-01	 1.521485e+01
 1.369281e+00	 5.655590e-01	 1.517217e+01
 1.407081e+00	 4.867382e-01	 1.533122e+01
 1.401304e+00	 5.031272e-01	 1.529911e+01
 1.395321e+00	 5.194902e-01	 1.525638e+01
 1.389130e+00	 5.358237e-01	 1.520871e+01
 1.382733e+00	 5.521238e-01	 1.516207e+01
 1.376127e+00	 5.683868e-01	 1.512261e+01
 1.414081e+00	 4.891598e-01	 1.527428e+01
 1.408276e+00	 5.056303e-01	 1.524288e+01
 1.402263e+00	 5.220747e-01	 1.520103e+01
 1.396041e+00	 5.384895e-01	 1.515476e+01
 1.389612e+00	 5.548707e-01	 1.511035e+01
 1.382974e+00	 5.712146e-01	 1.507435e+01
 1.421081e+00	 4.915814e-01	 1.521857e+01
 1.415247e+00	 5.081334e-01	 1.518788e+01
 1.409205e+00	 5.246593e-01	 1.514686e+01
 1.402953e+00	 5.411553e-01	 1.510189e+01
 1.396491e+00	 5.576176e-01	 1.505966e+01
 1.389820e+00	 5.740424e-01	 1.502714e+01
 1.428082e+00	 4.940030e-01	 1.516377e+01
 1.422219e+00	 5.106365e-01	 1.513405e+01
 1.416146e+00	 5.272438e-01	 1.509391e+01
 1.409864e+00	 5.438211e-01	 1.505017e+01
 1.403370e+00	 5.603645e-01	 1.501000e+01
 1.396667e+00	 5.768702e-01	 1.498078e+01
 1.435082e+00	 4.964246e-01	 1.510959e+01
 1.429191e+00	 5.131396e-01	 1.508131e+01
 1.423088e+00	 5.298283e-01	 1.504224e+01
 1.416775e+00	 5.464869e-01	 1.499971e+01
 1.410250e+00	 5.631114e-01	 1.496135e+01
 1.403513e+00	 5.796980e-01	 1.493506e+01
 1.369281e+00	 5.655590e-01	 1.517217e+01
 1.362502e+00	 5.817003e-01	 1.512722e+01
 1.355517e+00	 5.977971e-01	 1.507282e+01
 1.348325e+00	 6.138455e-01	 1.501659e+01
 1.340928e+00	 6.298416e-01	 1.496586e+01
 1.333324e+00	 6.457817e-01	 1.492763e+01
 1.376127e+00	 5.683868e-01	 1.512261e+01
 1.369315e+00	 5.846088e-01	 1.508107e+01
 1.362294e+00	 6.007861e-01	 1.502919e+01
 1.355067e+00	 6.169147e-01	 1.497469e+01
 1.347632e+00	 6.329908e-01	 1.492499e+01
 1.339991e+00	 6.490106e-01	 1.488712e+01
 1.382974e+00	 5.712146e-01	 1.507435e+01
 1.376127e+00	 5.875173e-01	 1.503644e+01
 1.369072e+00	 6.037750e-01	 1.498712e+01
 1.361809e+00	 6.199839e-01	 1.493418e+01
 1.354337e+00	 6.361400e-01	 1.488507e+01
 1.346657e+00	 6.522395e-01	 1.484691e+01
 1.389820e+00	 5.740424e-01	 1.502714e+01
 1.382940e+00	 5.904258e-01	 1.499290e+01
 1.375850e+00	 6.067640e-01	 1.494607e+01
 1.368550e+00	 6.230531e-01	 1.489448e+01
 1.361042e+00	 6.392892e-01	 1.484563e+01
 1.353324e+00	 6.554684e-01	 1.480669e+01
 1.396667e+00	 5.768702e-01	 1.498078e+01
 1.389752e+00	 5.933343e-01	 1.495002e+01
 1.382627e+00	 6.097530e-01	 1.490550e+01
 1.375292e+00	 6.261224e-01	 1.485504e+01
 1.367746e+00	 6.424384e-01	 1.480620e+01
 1.359991e+00	 6.586973e-01	 1.476619e+01
 1.403513e+00	 5.796980e-01	 1.493506e+01
 1.396565e+00	 5.962428e-01	 1.490741e+01
 1.389405e+00	 6.127420e-01	 1.486490e+01
 1.382033e+00	 6.291916e-01	 1.481535e+01
 1.374451e+00	 6.455877e-01	 1.476635e+01
 1.366657e+00	 6.619262e-01	 1.472515e+01
 1.333324e+00	 6.457817e-01	 1.492763e+01
 1.325515e+00	 6.616619e-01	 1.488418e+01
 1.317502e+00	 6.774783e-01	 1.481578e+01
 1.309284e+00	 6.932270e-01	 1.472564e+01
 1.300862e+00	 7.089043e-01	 1.461623e+01
 1.292238e+00	 7.245062e-01	 1.448927e+01
 1.339991e+00	 6.490106e-01	 1.488712e+01
 1.332143e+00	 6.649702e-01	 1.484381e+01
 1.324089e+00	 6.808657e-01	 1.477630e+01
 1.315830e+00	 6.966932e-01	 1.468866e+01
 1.307366e+00	 7.124488e-01	 1.458435e+01
 1.298699e+00	 7.281287e-01	 1.446611e+01
 1.346657e+00	 6.522395e-01	 1.484691e+01
 1.338771e+00	 6.682785e-01	 1.480325e+01
 1.330677e+00	 6.842531e-01	 1.473667e+01
 1.322376e+00	 7.001593e-01	 1.465213e+01
 1.313871e+00	 7.159933e-01	 1.455406e+01
 1.305160e+00	 7.317512e-01	 1.444621e+01
 1.353324e+00	 6.554684e-01	 1.480669e+01
 1.345398e+00	 6.715868e-01	 1.476236e+01
 1.337264e+00	 6.876404e-01	 1.469688e+01
 1.328923e+00	 7.036254e-01	 1.461609e+01
 1.320375e+00	 7.195379e-01	 1.452536e+01
 1.311621e+00	 7.353738e-01	 1.442948e+01
 1.359991e+00	 6.586973e-01	 1.476619e+01
 1.352026e+00	 6.748951e-01	 1.472107e+01
 1.343852e+00	 6.910278e-01	 1.465698e+01
 1.335469e+00	 7.070916e-01	 1.458062e+01
 1.326879e+00	 7.230824e-01	 1.449830e+01
 1.318082e+00	 7.389963e-01	 1.441583e+01
 1.366657e+00	 6.619262e-01	 1.472515e+01
 1.358653e+00	 6.782034e-01	 1.467932e+01
 1.350439e+00	 6.944152e-01	 1.461701e+01
 1.342016e+00	 7.105577e-01	 1.454581e+01
 1.333384e+00	 7.266269e-01	 1.447295e+01
 1.324544e+00	 7.426188e-01	 1.440430e+01
 1.292238e+00	 7.245062e-01	 1.448927e+01
 1.283411e+00	 7.400289e-01	 1.441411e+01
 1.274384e+00	 7.554685e-01	 1.439355e+01
 1.265157e+00	 7.708213e-01	 1.434340e+01
 1.255731e+00	 7.860834e-01	 1.425761e+01
 1.246108e+00	 8.012510e-01	 1.413057e+01
 1.298699e+00	 7.281287e-01	 1.446611e+01
 1.289828e+00	 7.437290e-01	 1.440317e+01
 1.280756e+00	 7.592459e-01	 1.437057e+01
 1.271483e+00	 7.746754e-01	 1.431509e+01
 1.262010e+00	 7.900138e-01	 1.422993e+01
 1.252338e+00	 8.052573e-01	 1.410849e+01
 1.305160e+00	 7.317512e-01	 1.444621e+01
 1.296245e+00	 7.474292e-01	 1.438929e+01
 1.287128e+00	 7.630232e-01	 1.434628e+01
 1.277808e+00	 7.785295e-01	 1.428653e+01
 1.268288e+00	 7.939442e-01	 1.420239e+01
 1.258569e+00	 8.092635e-01	 1.408628e+01
 1.311621e+00	 7.353738e-01	 1.442948e+01
 1.302662e+00	 7.511293e-01	 1.437263e+01
 1.293500e+00	 7.668006e-01	 1.432092e+01
 1.284134e+00	 7.823836e-01	 1.425796e+01
 1.274567e+00	 7.978747e-01	 1.417521e+01
 1.264799e+00	 8.132698e-01	 1.406414e+01
 1.318082e+00	 7.389963e-01	 1.441583e+01
 1.309080e+00	 7.548295e-01	 1.435354e+01
 1.299872e+00	 7.705779e-01	 1.429479e+01
 1.290460e+00	 7.862377e-01	 1.422961e+01
 1.280846e+00	 8.018051e-01	 1.414863e+01
 1.271030e+00	 8.172760e-01	 1.404235e+01
 1.324544e+00	 7.426188e-01	 1.440430e+01
 1.315497e+00	 7.585296e-01	 1.433243e+01
 1.306244e+00	 7.743552e-01	 1.426823e+01
 1.296786e+00	 7.900918e-01	 1.420181e+01
 1.287124e+00	 8.057355e-01	 1.412295e+01
 1.277260e+00	 8.212823e-01	 1.402123e+01
 1.246108e+00	 8.012510e-01	 1.413057e+01
 1.236288e+00	 8.163204e-01	 1.399718e+01
 1.226274e+00	 8.312877e-01	 1.388642e+01
 1.216067e+00	 8.461494e-01	 1.378404e+01
 1.205668e+00	 8.609016e-01	 1.367586e+01
 1.195080e+00	 8.755408e-01	 1.354795e+01
 1.252338e+00	 8.052573e-01	 1.410849e+01
 1.242470e+00	 8.204020e-01	 1.398161e+01
 1.232405e+00	 8.354442e-01	 1.387517e+01
 1.222147e+00	 8.503801e-01	 1.377542e+01
 1.211697e+00	 8.652061e-01	 1.366869e+01
 1.201055e+00	 8.799185e-01	 1.354162e+01
 1.258569e+00	 8.092635e-01	 1.408628e+01
 1.248651e+00	 8.244836e-01	 1.396538e+01
 1.238537e+00	 8.396006e-01	 1.386299e+01
 1.228228e+00	 8.546109e-01	 1.376580e+01
 1.217725e+00	 8.695106e-01	 1.366065e+01
 1.207031e+00	 8.842962e-01	 1.353472e+01
 1.264799e+00	 8.132698e-01	 1.406414e+01
 1.254832e+00	 8.285652e-01	 1.394875e+01
 1.244668e+00	 8.437571e-01	 1.385014e+01
 1.234308e+00	 8.588416e-01	 1.375546e+01
 1.223753e+00	 8.738151e-01	 1.365202e+01
 1.213006e+00	 8.886739e-01	 1.352752e+01
 1.271030e+00	 8.172760e-01	 1.404235e+01
 1.261014e+00	 8.326468e-01	 1.393202e+01
 1.250800e+00	 8.479135e-01	 1.383695e+01
 1.240388e+00	 8.630724e-01	 1.374473e+01
 1.229782e+00	 8.781196e-01	 1.364313e+01
 1.218981e+00	 8.930516e-01	 1.352033e+01
 1.277260e+00	 8.212823e-01	 1.402123e+01
 1.267195e+00	 8.367284e-01	 1.391554e+01
 1.256931e+00	 8.520699e-01	 1.382379e+01
 1.246469e+00	 8.673031e-01	 1.373399e+01
 1.235810e+00	 8.824241e-01	 1.363435e+01
 1.224957e+00	 8.974293e-01	 1.351352e+01
 1.195080e+00	 8.755408e-01	 1.354795e+01
 1.184304e+00	 8.900632e-01	 1.341403e+01
 1.173341e+00	 9.044654e-01	 1.329112e+01
 1.162195e+00	 9.187438e-01	 1.317166e+01
 1.150867e+00	 9.328949e-01	 1.304963e+01
 1.139359e+00	 9.469152e-01	 1.292079e+01
 1.201055e+00	 8.799185e-01	 1.354162e+01
 1.190225e+00	 8.945135e-01	 1.340935e+01
 1.179208e+00	 9.089877e-01	 1.328927e+01
 1.168006e+00	 9.233375e-01	 1.317275e+01
 1.156621e+00	 9.375593e-01	 1.305266e+01
 1.145056e+00	 9.516498e-01	 1.292361e+01
 1.207031e+00	 8.842962e-01	 1.353472e+01
 1.196147e+00	 8.989639e-01	 1.340426e+01
 1.185075e+00	 9.135101e-01	 1.328680e+01
 1.173817e+00	 9.279312e-01	 1.317274e+01
 1.162376e+00	 9.422238e-01	 1.305396e+01
 1.150753e+00	 9.563843e-01	 1.292411e+01
 1.213006e+00	 8.886739e-01	 1.352752e+01
 1.202068e+00	 9.034142e-01	 1.339903e+01
 1.190941e+00	 9.180324e-01	 1.328404e+01
 1.179628e+00	 9.325250e-01	 1.317208e+01
 1.168130e+00	 9.468883e-01	 1.305420e+01
 1.156449e+00	 9.611189e-01	 1.292316e+01
 1.218981e+00	 8.930516e-01	 1.352033e+01
 1.207990e+00	 9.078645e-01	 1.339401e+01
 1.196808e+00	 9.225547e-01	 1.328139e+01
 1.185439e+00	 9.371187e-01	 1.317131e+01
 1.173884e+00	 9.515528e-01	 1.305407e+01
 1.162146e+00	 9.658535e-01	 1.292168e+01
 1.224957e+00	 8.974293e-01	 1.351352e+01
 1.213911e+00	 9.123148e-01	 1.338955e+01
 1.202675e+00	 9.270771e-01	 1.327929e+01
 1.191250e+00	 9.417124e-01	 1.317099e+01
 1.179639e+00	 9.562172e-01	 1.305430e+01
 1.167843e+00	 9.705881e-01	 1.292065e+01
 1.139359e+00	 9.469152e-01	 1.292079e+01
 1.127674e+00	 9.608013e-01	 1.277319e+01
 1.115813e+00	 9.745500e-01	 1.260444e+01
 1.103781e+00	 9.881578e-01	 1.242751e+01
 1.091578e+00	 1.001622e+00	 1.225955e+01
 1.079207e+00	 1.014938e+00	 1.212945e+01
 1.145056e+00	 9.516498e-01	 1.292361e+01
 1.133312e+00	 9.656053e-01	 1.277532e+01
 1.121393e+00	 9.794227e-01	 1.260779e+01
 1.109299e+00	 9.930986e-01	 1.243498e+01
 1.097035e+00	 1.006630e+00	 1.227249e+01
 1.084603e+00	 1.020013e+00	 1.214697e+01
 1.150753e+00	 9.563843e-01	 1.292411e+01
 1.138951e+00	 9.704093e-01	 1.277479e+01
 1.126972e+00	 9.842955e-01	 1.260848e+01
 1.114818e+00	 9.980394e-01	 1.243902e+01
 1.102493e+00	 1.011638e+00	 1.228291e+01
 1.089999e+00	 1.025088e+00	 1.216291e+01
 1.156449e+00	 9.611189e-01	 1.292316e+01
 1.144589e+00	 9.752133e-01	 1.277269e+01
 1.132551e+00	 9.891682e-01	 1.260772e+01
 1.120337e+00	 1.002980e+00	 1.244176e+01
 1.107951e+00	 1.016646e+00	 1.229176e+01
 1.095395e+00	 1.030162e+00	 1.217809e+01
 1.162146e+00	 9.658535e-01	 1.292168e+01
 1.150227e+00	 9.800173e-01	 1.277016e+01
 1.138130e+00	 9.940410e-01	 1.260679e+01
 1.125856e+00	 1.007921e+00	 1.244458e+01
 1.113409e+00	 1.021654e+00	 1.230013e+01
 1.100791e+00	 1.035237e+00	 1.219340e+01
 1.167843e+00	 9.705881e-01	 1.292065e+01
 1.155866e+00	 9.848214e-01	 1.276836e+01
 1.143709e+00	 9.989137e-01	 1.260699e+01
 1.131375e+00	 1.012862e+00	 1.244883e+01
 1.118867e+00	 1.026662e+00	 1.230985e+01
 1.106187e+00	 1.040312e+00	 1.220978e+01
 1.079207e+00	 1.014938e+00	 1.212945e+01
 1.066672e+00	 1.028105e+00	 1.199703e+01
 1.053974e+00	 1.041118e+00	 1.181790e+01
 1.041118e+00	 1.053974e+00	 1.161813e+01
 1.028105e+00	 1.066672e+00	 1.142468e+01
 1.014938e+00	 1.079207e+00	 1.126502e+01
 1.084603e+00	 1.020013e+00	 1.214697e+01
 1.072005e+00	 1.033245e+00	 1.201681e+01
 1.059244e+00	 1.046323e+00	 1.183688e+01
 1.046323e+00	 1.059244e+00	 1.163483e+01
 1.033245e+00	 1.072005e+00	 1.143933e+01
 1.020013e+00	 1.084603e+00	 1.127962e+01
 1.089999e+00	 1.025088e+00	 1.216291e+01
 1.077338e+00	 1.038386e+00	 1.203567e+01
 1.064514e+00	 1.051529e+00	 1.185537e+01
 1.051529e+00	 1.064514e+00	 1.165128e+01
 1.038386e+00	 1.077338e+00	 1.145377e+01
 1.025088e+00	 1.089999e+00	 1.129386e+01
 1.095395e+00	 1.030162e+00	 1.217809e+01
 1.082672e+00	 1.043526e+00	 1.205422e+01
 1.069784e+00	 1.056734e+00	 1.187377e+01
 1.056734e+00	 1.069784e+00	 1.166764e+01
 1.043526e+00	 1.082672e+00	 1.146789e+01
 1.030162e+00	 1.095395e+00	 1.130735e+01
 1.100791e+00	 1.035237e+00	 1.219340e+01
 1.088005e+00	 1.048667e+00	 1.207317e+01
 1.075054e+00	 1.061940e+00	 1.189258e+01
 1.061940e+00	 1.075054e+00	 1.168415e+01
 1.048667e+00	 1.088005e+00	 1.148168e+01
 1.035237e+00	 1.100791e+00	 1.131978e+01
 1.106187e+00	 1.040312e+00	 1.220978e+01
 1.093338e+00	 1.053807e+00	 1.209328e+01
 1.080324e+00	 1.067145e+00	 1.191235e+01
 1.067145e+00	 1.080324e+00	 1.170114e+01
 1.053807e+00	 1.093338e+00	 1.149520e+01
 1.040312e+00	 1.106187e+00	 1.133093e+01
 1.014938e+00	 1.079207e+00	 1.126502e+01
 1.001622e+00	 1.091578e+00	 1.110471e+01
 9.881578e-01	 1.103781e+00	 1.091152e+01
 9.745500e-01	 1.115813e+00	 1.071429e+01
 9.608013e-01	 1.127674e+00	 1.051883e+01
 9.469152e-01	 1.139359e+00	 1.031964e+01
 1.020013e+00	 1.084603e+00	 1.127962e+01
 1.006630e+00	 1.097035e+00	 1.112218e+01
 9.930986e-01	 1.109299e+00	 1.093492e+01
 9.794227e-01	 1.121393e+00	 1.074356e+01
 9.656053e-01	 1.133312e+00	 1.055062e+01
 9.516498e-01	 1.145056e+00	 1.035185e+01
 1.025088e+00	 1.089999e+00	 1.129386e+01
 1.011638e+00	 1.102493e+00	 1.113882e+01
 9.980394e-01	 1.114818e+00	 1.095666e+01
 9.842955e-01	 1.126972e+00	 1.076990e+01
 9.704093e-01	 1.138951e+00	 1.057937e+01
 9.563843e-01	 1.150753e+00	 1.038084e+01
 1.030162e+00	 1.095395e+00	 1.130735e+01
 1.016646e+00	 1.107951e+00	 1.115398e+01
 1.002980e+00	 1.120337e+00	 1.097686e+01
 9.891682e-01	 1.132551e+00	 1.079468e+01
 9.752133e-01	 1.144589e+00	 1.060646e+01
 9.611189e-01	 1.156449e+00	 1.040808e+01
 1.035237e+00	 1.100791e+00	 1.131978e+01
 1.021654e+00	 1.113409e+00	 1.116741e+01
 1.007921e+00	 1.125856e+00	 1.099691e+01
 9.940410e-01	 1.138130e+00	 1.081925e+01
 9.800173e-01	 1.150227e+00	 1.063327e+01
 9.658535e-01	 1.162146e+00	 1.043507e+01
 1.040312e+00	 1.106187e+00	 1.133093e+01
 1.026662e+00	 1.118867e+00	 1.118175e+01
 1.012862e+00	 1.131375e+00	 1.101825e+01
 9.989137e-01	 1.143709e+00	 1.084501e+01
 9.848214e-01	 1.155866e+00	 1.066122e+01
 9.705881e-01	 1.167843e+00	 1.046332e+01
 9.469152e-01	 1.139359e+00	 1.031964e+01
 9.328949e-01	 1.150867e+00	 1.012150e+01
 9.187438e-01	 1.162195e+00	 9.930356e+00
 9.044654e-01	 1.173341e+00	 9.741008e+00
 8.900632e-01	 1.184304e+00	 9.546945e+00
 8.755408e-01	 1.195080e+00	 9.340532e+00
 9.516498e-01	 1.145056e+00	 1.035185e+01
 9.375593e-01	 1.156621e+00	 1.015347e+01
 9.233375e-01	 1.168006e+00	 9.962758e+00
 9.089877e-01	 1.179208e+00	 9.774213e+00
 8.945135e-01	 1.190225e+00	 9.580966e+00
 8.799185e-01	 1.201055e+00	 9.375017e+00
 9.563843e-01	 1.150753e+00	 1.038084e+01
 9.422238e-01	 1.162376e+00	 1.018210e+01
 9.279312e-01	 1.173817e+00	 9.991838e+00
 9.135101e-01	 1.185075e+00	 9.804191e+00
 8.989639e-01	 1.196147e+00	 9.611899e+00
 8.842962e-01	 1.207031e+00	 9.406540e+00
 9.611189e-01	 1.156449e+00	 1.040808e+01
 9.468883e-01	 1.168130e+00	 1.020899e+01
 9.325250e-01	 1.179628e+00	 1.001925e+01
 9.180324e-01	 1.190941e+00	 9.832608e+00
 9.034142e-01	 1.202068e+00	 9.641359e+00
 8.886739e-01	 1.213006e+00	 9.436613e+00
 9.658535e-01	 1.162146e+00	 1.043507e+01
 9.515528e-01	 1.173884e+00	 1.023575e+01
 9.371187e-01	 1.185439e+00	 1.004667e+01
 9.225547e-01	 1.196808e+00	 9.861137e+00
 9.078645e-01	 1.207990e+00	 9.670971e+00
 8.930516e-01	 1.218981e+00	 9.466759e+00
 9.705881e-01	 1.167843e+00	 1.046332e+01
 9.562172e-01	 1.179639e+00	 1.026400e+01
 9.417124e-01	 1.191250e+00	 1.007577e+01
 9.270771e-01	 1.202675e+00	 9.891461e+00
 9.123148e-01	 1.213911e+00	 9.702373e+00
 8.974293e-01	 1.224957e+00	 9.498517e+00
 8.755408e-01	 1.195080e+00	 9.340532e+00
 8.609016e-01	 1.205668e+00	 9.129496e+00
 8.461494e-01	 1.216067e+00	 8.922891e+00
 8.312877e-01	 1.226274e+00	 8.714135e+00
 8.163204e-01	 1.236288e+00	 8.496496e+00
 8.012510e-01	 1.246108e+00	 8.263282e+00
 8.799185e-01	 1.201055e+00	 9.375017e+00
 8.652061e-01	 1.211697e+00	 9.164471e+00
 8.503801e-01	 1.222147e+00	 8.959075e+00
 8.354442e-01	 1.232405e+00	 8.752338e+00
 8.204020e-01	 1.242470e+00	 8.537613e+00
 8.052573e-01	 1.252338e+00	 8.308301e+00
 8.842962e-01	 1.207031e+00	 9.406540e+00
 8.695106e-01	 1.217725e+00	 9.196537e+00
 8.546109e-01	 1.228228e+00	 8.992317e+00
 8.396006e-01	 1.238537e+00	 8.787495e+00
 8.244836e-01	 1.248651e+00	 8.575538e+00
 8.092635e-01	 1.258569e+00	 8.349965e+00
 8.886739e-01	 1.213006e+00	 9.436613e+00
 8.738151e-01	 1.223753e+00	 9.227095e+00
 8.588416e-01	 1.234308e+00	 9.023944e+00
 8.437571e-01	 1.244668e+00	 8.820902e+00
 8.285652e-01	 1.254832e+00	 8.611569e+00
 8.132698e-01	 1.264799e+00	 8.389615e+00
 8.930516e-01	 1.218981e+00	 9.466759e+00
 8.781196e-01	 1.229782e+00	 9.257560e+00
 8.630724e-01	 1.240388e+00	 9.055303e+00
 8.479135e-01	 1.250800e+00	 8.853872e+00
 8.326468e-01	 1.261014e+00	 8.647026e+00
 8.172760e-01	 1.271030e+00	 8.428612e+00
 8.974293e-01	 1.224957e+00	 9.498517e+00
 8.824241e-01	 1.235810e+00	 9.289365e+00
 8.673031e-01	 1.246469e+00	 9.087757e+00
 8.520699e-01	 1.256931e+00	 8.887739e+00
 8.367284e-01	 1.267195e+00	 8.683249e+00
 8.212823e-01	 1.277260e+00	 8.468336e+00
 8.012510e-01	 1.246108e+00	 8.263282e+00
 7.860834e-01	 1.255731e+00	 8.047973e+00
 7.708213e-01	 1.265157e+00	 7.869825e+00
 7.554685e-01	 1.274384e+00	 7.700998e+00
 7.400289e-01	 1.283411e+00	 7.513842e+00
 7.245062e-01	 1.292238e+00	 7.273821e+00
 8.052573e-01	 1.252338e+00	 8.308301e+00
 7.900138e-01	 1.262010e+00	 8.095465e+00
 7.746754e-01	 1.271483e+00	 7.916589e+00
 7.592459e-01	 1.280756e+00	 7.744941e+00
 7.437290e-01	 1.289828e+00	 7.554064e+00
 7.281287e-01	 1.298699e+00	 7.313618e+00
 8.092635e-01	 1.258569e+00	 8.349965e+00
 7.939442e-01	 1.268288e+00	 8.139633e+00
 7.785295e-01	 1.277808e+00	 7.960382e+00
 7.630232e-01	 1.287128e+00	 7.786502e+00
 7.474292e-01	 1.296245e+00	 7.592621e+00
 7.317512e-01	 1.305160e+00	 7.351720e+00
 8.132698e-01	 1.264799e+00	 8.389615e+00
 7.978747e-01	 1.274567e+00	 8.181845e+00
 7.823836e-01	 1.284134e+00	 8.002534e+00
 7.668006e-01	 1.293500e+00	 7.826909e+00
 7.511293e-01	 1.302662e+00	 7.630589e+00
 7.353738e-01	 1.311621e+00	 7.389016e+00
 8.172760e-01	 1.271030e+00	 8.428612e+00
 8.018051e-01	 1.280846e+00	 8.223487e+00
 7.862377e-01	 1.290460e+00	 8.044395e+00
 7.705779e-01	 1.299872e+00	 7.867412e+00
 7.548295e-01	 1.309080e+00	 7.669060e+00
 7.389963e-01	 1.318082e+00	 7.426419e+00
 8.212823e-01	 1.277260e+00	 8.468336e+00
 8.057355e-01	 1.287124e+00	 8.265968e+00
 7.900918e-01	 1.296786e+00	 8.087337e+00
 7.743552e-01	 1.306244e+00	 7.909287e+00
 7.585296e-01	 1.315497e+00	 7.709151e+00
 7.426188e-01	 1.324544e+00	 7.464953e+00
 7.245062e-01	 1.292238e+00	 7.273821e+00
 7.089043e-01	 1.300862e+00	 7.020380e+00
 6.932270e-01	 1.309284e+00	 6.804579e+00
 6.774783e-01	 1.317502e+00	 6.610675e+00
 6.616619e-01	 1.325515e+00	 6.425036e+00
 6.457817e-01	 1.333324e+00	 6.236126e+00
 7.281287e-01	 1.298699e+00	 7.313618e+00
 7.124488e-01	 1.307366e+00	 7.062000e+00
 6.966932e-01	 1.315830e+00	 6.849978e+00
 6.808657e-01	 1.324089e+00	 6.660263e+00
 6.649702e-01	 1.332143e+00	 6.477693e+00
 6.490106e-01	 1.339991e+00	 6.289221e+00
 7.317512e-01	 1.305160e+00	 7.351720e+00
 7.159933e-01	 1.313871e+00	 7.102179e+00
 7.001593e-01	 1.322376e+00	 6.893528e+00
 6.842531e-01	 1.330677e+00	 6.707251e+00
 6.682785e-01	 1.338771e+00	 6.526981e+00
 6.522395e-01	 1.346657e+00	 6.338505e+00
 7.353738e-01	 1.311621e+00	 7.389016e+00
 7.195379e-01	 1.320375e+00	 7.141638e+00
 7.036254e-01	 1.328923e+00	 6.935903e+00
 6.876404e-01	 1.337264e+00	 6.752373e+00
 6.715868e-01	 1.345398e+00	 6.573806e+00
 6.554684e-01	 1.353324e+00	 6.385155e+00
 7.389963e-01	 1.318082e+00	 7.426419e+00
 7.230824e-01	 1.326879e+00	 7.181126e+00
 7.070916e-01	 1.335469e+00	 6.977802e+00
 6.910278e-01	 1.343852e+00	 6.796393e+00
 6.748951e-01	 1.352026e+00	 6.619099e+00
 6.586973e-01	 1.359991e+00	 6.430371e+00
 7.426188e-01	 1.324544e+00	 7.464953e+00
 7.266269e-01	 1.333384e+00	 7.221419e+00
 7.105577e-01	 1.342016e+00	 7.019954e+00
 6.944152e-01	 1.350439e+00	 6.840100e+00
 6.782034e-01	 1.358653e+00	 6.663814e+00
 6.619262e-01	 1.366657e+00	 6.475370e+00
 6.457817e-01	 1.333324e+00	 6.236126e+00
 6.298416e-01	 1.340928e+00	 6.038713e+00
 6.138455e-01	 1.348325e+00	 5.836066e+00
 5.977971e-01	 1.355517e+00	 5.632526e+00
 5.817003e-01	 1.362502e+00	 5.434452e+00
 5.655590e-01	 1.369281e+00	 5.250093e+00
 6.490106e-01	 1.339991e+00	 6.289221e+00
 6.329908e-01	 1.347632e+00	 6.089940e+00
 6.169147e-01	 1.355067e+00	 5.884959e+00
 6.007861e-01	 1.362294e+00	 5.679465e+00
 5.846088e-01	 1.369315e+00	 5.480742e+00
 5.683868e-01	 1.376127e+00	 5.298035e+00
 6.522395e-01	 1.346657e+00	 6.338505e+00
 6.361400e-01	 1.354337e+00	 6.137714e+00
 6.199839e-01	 1.361809e+00	 5.931487e+00
 6.037750e-01	 1.369072e+00	 5.725371e+00
 5.875173e-01	 1.376127e+00	 5.527072e+00
 5.712146e-01	 1.382974e+00	 5.346322e+00
 6.554684e-01	 1.353324e+00	 6.385155e+00
 6.392892e-01	 1.361042e+00	 6.183449e+00
 6.230531e-01	 1.368550e+00	 5.977127e+00
 6.067640e-01	 1.375850e+00	 5.771616e+00
 5.904258e-01	 1.382940e+00	 5.574556e+00
 5.740424e-01	 1.389820e+00	 5.395663e+00
 6.586973e-01	 1.359991e+00	 6.430371e+00
 6.424384e-01	 1.367746e+00	 6.228574e+00
 6.261224e-01	 1.375292e+00	 6.023368e+00
 6.097530e-01	 1.382627e+00	 5.819589e+00
 5.933343e-01	 1.389752e+00	 5.624327e+00
 5.768702e-01	 1.396667e+00	 5.446791e+00
 6.619262e-01	 1.366657e+00	 6.475370e+00
 6.455877e-01	 1.374451e+00	 6.274529e+00
 6.291916e-01	 1.382033e+00	 6.071710e+00
 6.127420e-01	 1.389405e+00	 5.870691e+00
 5.962428e-01	 1.396565e+00	 5.677537e+00
 5.796980e-01	 1.403513e+00	 5.500464e+00
 5.655590e-01	 1.369281e+00	 5.250093e+00
 5.493769e-01	 1.375853e+00	 5.076190e+00
 5.331579e-01	 1.382219e+00	 4.900772e+00
 5.169057e-01	 1.388379e+00	 4.721261e+00
 5.006240e-01	 1.394332e+00	 4.536181e+00
 4.843166e-01	 1.400080e+00	 4.345004e+00
 5.683868e-01	 1.376127e+00	 5.298035e+00
 5.521238e-01	 1.382733e+00	 5.127039e+00
 5.358237e-01	 1.389130e+00	 4.953904e+00
 5.194902e-01	 1.395321e+00	 4.775875e+00
 5.031272e-01	 1.401304e+00	 4.591318e+00
 4.867382e-01	 1.407081e+00	 4.399571e+00
 5.712146e-01	 1.382974e+00	 5.346322e+00
 5.548707e-01	 1.389612e+00	 5.177324e+00
 5.384895e-01	 1.396041e+00	 5.004711e+00
 5.220747e-01	 1.402263e+00	 4.826251e+00
 5.056303e-01	 1.408276e+00	 4.640872e+00
 4.891598e-01	 1.414081e+00	 4.448502e+00
 5.740424e-01	 1.389820e+00	 5.395663e+00
 5.576176e-01	 1.396491e+00	 5.227366e+00
 5.411553e-01	 1.402953e+00	 5.053297e+00
 5.246593e-01	 1.409205e+00	 4.872440e+00
 5.081334e-01	 1.415247e+00	 4.684988e+00
 4.915814e-01	 1.421081e+00	 4.492178e+00
 5.768702e-01	 1.396667e+00	 5.446791e+00
 5.603645e-01	 1.403370e+00	 5.277517e+00
 5.438211e-01	 1.409864e+00	 5.099798e+00
 5.272438e-01	 1.416146e+00	 4.914520e+00
 5.106365e-01	 1.422219e+00	 4.723837e+00
 4.940030e-01	 1.428082e+00	 4.531002e+00
 5.796980e-01	 1.403513e+00	 5.500464e+00
 5.631114e-01	 1.410250e+00	 5.328159e+00
 5.464869e-01	 1.416775e+00	 5.144386e+00
 5.298283e-01	 1.423088e+00	 4.952607e+00
 5.131396e-01	 1.429191e+00	 4.757624e+00
 4.964246e-01	 1.435082e+00	 4.565402e+00
 4.843166e-01	 1.400080e+00	 4.345004e+00
 4.679872e-01	 1.405623e+00	 4.155810e+00
 4.516395e-01	 1.410960e+00	 3.980286e+00
 4.352769e-01	 1.416094e+00	 3.824324e+00
 4.189033e-01	 1.421023e+00	 3.694182e+00
 4.025221e-01	 1.425750e+00	 3.596289e+00
 4.867382e-01	 1.407081e+00	 4.399571e+00
 4.703272e-01	 1.412651e+00	 4.209290e+00
 4.538977e-01	 1.418015e+00	 4.032605e+00
 4.374533e-01	 1.423174e+00	 3.875098e+00
 4.209978e-01	 1.428128e+00	 3.742731e+00
 4.045347e-01	 1.432879e+00	 3.641658e+00
 4.891598e-01	 1.414081e+00	 4.448502e+00
 4.726671e-01	 1.419679e+00	 4.258848e+00
 4.561559e-01	 1.425070e+00	 4.083980e+00
 4.396297e-01	 1.430255e+00	 3.928430e+00
 4.230923e-01	 1.435234e+00	 3.797127e+00
 4.065473e-01	 1.440008e+00	 3.695194e+00
 4.915814e-01	 1.421081e+00	 4.492178e+00
 4.750070e-01	 1.426707e+00	 4.305092e+00
 4.584140e-01	 1.432125e+00	 4.135098e+00
 4.418061e-01	 1.437335e+00	 3.984955e+00
 4.251868e-01	 1.442339e+00	 3.857821e+00
 4.085599e-01	 1.447136e+00	 3.757061e+00
 4.940030e-01	 1.428082e+00	 4.531002e+00
 4.773470e-01	 1.433735e+00	 4.348646e+00
 4.606722e-01	 1.439180e+00	 4.186659e+00
 4.439825e-01	 1.444416e+00	 4.045313e+00
 4.272814e-01	 1.449444e+00	 3.925280e+00
 4.105725e-01	 1.454265e+00	 3.827442e+00
 4.964246e-01	 1.435082e+00	 4.565402e+00
 4.796869e-01	 1.440763e+00	 4.390151e+00
 4.629304e-01	 1.446234e+00	 4.239376e+00
 4.461589e-01	 1.451496e+00	 4.110160e+00
 4.293759e-01	 1.456549e+00	 3.999983e+00
 4.125851e-01	 1.461394e+00	 3.906532e+00
 4.025221e-01	 1.425750e+00	 3.596289e+00
 3.861368e-01	 1.430275e+00	 3.480728e+00
 3.697509e-01	 1.434598e+00	 3.318985e+00
 3.533679e-01	 1.438721e+00	 3.134973e+00
 3.369912e-01	 1.442645e+00	 2.957048e+00
 3.206241e-01	 1.446370e+00	 2.823974e+00
 4.045347e-01	 1.432879e+00	 3.641658e+00
 3.880675e-01	 1.437426e+00	 3.522721e+00
 3.715997e-01	 1.441771e+00	 3.359085e+00
 3.551348e-01	 1.445915e+00	 3.177976e+00
 3.386762e-01	 1.449858e+00	 3.003941e+00
 3.222272e-01	 1.453602e+00	 2.875319e+00
 4.065473e-01	 1.440008e+00	 3.695194e+00
 3.899981e-01	 1.444577e+00	 3.573719e+00
 3.734484e-01	 1.448944e+00	 3.407633e+00
 3.569016e-01	 1.453108e+00	 3.227678e+00
 3.403611e-01	 1.457071e+00	 3.055407e+00
 3.238303e-01	 1.460834e+00	 2.928484e+00
 4.085599e-01	 1.447136e+00	 3.757061e+00
 3.919288e-01	 1.451729e+00	 3.633564e+00
 3.752972e-01	 1.456117e+00	 3.464188e+00
 3.586685e-01	 1.460302e+00	 3.283265e+00
 3.420461e-01	 1.464285e+00	 3.110343e+00
 3.254335e-01	 1.468066e+00	 2.982117e+00
 4.105725e-01	 1.454265e+00	 3.827442e+00
 3.938595e-01	 1.458880e+00	 3.702112e+00
 3.771459e-01	 1.463290e+00	 3.528312e+00
 3.604353e-01	 1.467496e+00	 3.343956e+00
 3.437310e-01	 1.471498e+00	 3.167674e+00
 3.270366e-01	 1.475298e+00	 3.034895e+00
 4.125851e-01	 1.461394e+00	 3.906532e+00
 3.957902e-01	 1.466032e+00	 3.779244e+00
 3.789947e-01	 1.470463e+00	 3.599588e+00
 3.622021e-01	 1.474689e+00	 3.409003e+00
 3.454160e-01	 1.478711e+00	 3.226356e+00
 3.286397e-01	 1.482530e+00	 3.086136e+00
 3.206241e-01	 1.446370e+00	 2.823974e+00
 3.042699e-01	 1.449899e+00	 2.729915e+00
 2.879319e-01	 1.453232e+00	 2.644604e+00
 2.716132e-01	 1.456370e+00	 2.564609e+00
 2.553171e-01	 1.459315e+00	 2.483379e+00
 2.390466e-01	 1.462068e+00	 2.391573e+00
 3.222272e-01	 1.453602e+00	 2.875319e+00
 3.057912e-01	 1.457149e+00	 2.784707e+00
 2.893715e-01	 1.460498e+00	 2.701017e+00
 2.729713e-01	 1.463652e+00	 2.621307e+00
 2.565937e-01	 1.466612e+00	 2.539342e+00
 2.402418e-01	 1.469379e+00	 2.445942e+00
 3.238303e-01	 1.460834e+00	 2.928484e+00
 3.073126e-01	 1.464398e+00	 2.838159e+00
 2.908112e-01	 1.467764e+00	 2.753036e+00
 2.743293e-01	 1.470934e+00	 2.671187e+00
 2.578702e-01	 1.473908e+00	 2.587213e+00
 2.414370e-01	 1.476689e+00	 2.492608e+00
 3.254335e-01	 1.468066e+00	 2.982117e+00
 3.088339e-01	 1.471648e+00	 2.888750e+00
 2.922508e-01	 1.475030e+00	 2.799074e+00
 2.756874e-01	 1.478216e+00	 2.712691e+00
 2.591468e-01	 1.481205e+00	 2.625549e+00
 2.426323e-01	 1.483999e+00	 2.531395e+00
 3.270366e-01	 1.475298e+00	 3.034895e+00
 3.103553e-01	 1.478897e+00	 2.934984e+00
 2.936905e-01	 1.482296e+00	 2.837836e+00
 2.770455e-01	 1.485497e+00	 2.749623e+00
 2.604234e-01	 1.488501e+00	 2.665431e+00
 2.438275e-01	 1.491310e+00	 2.574824e+00
 3.286397e-01	 1.482530e+00	 3.086136e+00
 3.118766e-01	 1.486147e+00	 2.986010e+00
 2.951302e-01	 1.489563e+00	 2.894011e+00
 2.784035e-01	 1.492779e+00	 2.807554e+00
 2.617000e-01	 1.495798e+00	 2.721224e+00
 2.450227e-01	 1.498620e+00	 2.627302e+00
 2.390466e-01	 1.462068e+00	 2.391573e+00
 2.228048e-01	 1.464631e+00	 2.290224e+00
 2.065946e-01	 1.467006e+00	 2.191948e+00
 1.904191e-01	 1.469193e+00	 2.101518e+00
 1.742810e-01	 1.471195e+00	 2.022170e+00
 1.581832e-01	 1.473012e+00	 1.955981e+00
 2.402418e-01	 1.469379e+00	 2.445942e+00
 2.239188e-01	 1.471955e+00	 2.342730e+00
 2.076276e-01	 1.474341e+00	 2.243075e+00
 1.913711e-01	 1.476539e+00	 2.151978e+00
 1.751524e-01	 1.478551e+00	 2.072817e+00
 1.589741e-01	 1.480377e+00	 2.007742e+00
 2.414370e-01	 1.476689e+00	 2.492608e+00
 2.250328e-01	 1.479278e+00	 2.389942e+00
 2.086606e-01	 1.481676e+00	 2.293050e+00
 1.923232e-01	 1.483885e+00	 2.206353e+00
 1.760238e-01	 1.485907e+00	 2.131407e+00
 1.597650e-01	 1.487742e+00	 2.068891e+00
 2.426323e-01	 1.483999e+00	 2.531395e+00
 2.261468e-01	 1.486601e+00	 2.433257e+00
 2.096935e-01	 1.489011e+00	 2.342016e+00
 1.932753e-01	 1.491231e+00	 2.259698e+00
 1.768952e-01	 1.493263e+00	 2.187529e+00
 1.605560e-01	 1.495108e+00	 2.126279e+00
 2.438275e-01	 1.491310e+00	 2.574824e+00
 2.272609e-01	 1.493924e+00	 2.479572e+00
 2.107265e-01	 1.496346e+00	 2.391081e+00
 1.942274e-01	 1.498577e+00	 2.311119e+00
 1.777666e-01	 1.500618e+00	 2.240658e+00
 1.613469e-01	 1.502473e+00	 2.180204e+00
 2.450227e-01	 1.498620e+00	 2.627302e+00
 2.283749e-01	 1.501247e+00	 2.529999e+00
 2.117595e-01	 1.503681e+00	 2.440940e+00
 1.951795e-01	 1.505923e+00	 2.361288e+00
 1.786380e-01	 1.507974e+00	 2.291411e+00
 1.621378e-01	 1.509838e+00	 2.231215e+00
 1.581832e-01	 1.473012e+00	 1.955981e+00
 1.421285e-01	 1.474648e+00	 1.901257e+00
 1.261196e-01	 1.476103e+00	 1.854200e+00
 1.101591e-01	 1.477380e+00	 1.813194e+00
 9.424952e-02	 1.478480e+00	 1.777055e+00
 7.839350e-02	 1.479406e+00	 1.745377e+00
 1.589741e-01	 1.480377e+00	 2.007742e+00
 1.428392e-01	 1.482021e+00	 1.955100e+00
 1.267502e-01	 1.483484e+00	 1.909949e+00
 1.107098e-01	 1.484767e+00	 1.869992e+00
 9.472077e-02	 1.485873e+00	 1.833982e+00
 7.878547e-02	 1.486803e+00	 1.801726e+00
 1.597650e-01	 1.487742e+00	 2.068891e+00
 1.435498e-01	 1.489395e+00	 2.016597e+00
 1.273808e-01	 1.490864e+00	 1.970566e+00
 1.112606e-01	 1.492154e+00	 1.929139e+00
 9.519201e-02	 1.493265e+00	 1.891437e+00
 7.917743e-02	 1.494200e+00	 1.857608e+00
 1.605560e-01	 1.495108e+00	 2.126279e+00
 1.442604e-01	 1.496768e+00	 2.074031e+00
 1.280114e-01	 1.498245e+00	 2.027312e+00
 1.118114e-01	 1.499541e+00	 1.984815e+00
 9.566326e-02	 1.500658e+00	 1.945984e+00
 7.956940e-02	 1.501597e+00	 1.911259e+00
 1.613469e-01	 1.502473e+00	 2.180204e+00
 1.449711e-01	 1.504141e+00	 2.127860e+00
 1.286420e-01	 1.505625e+00	 2.080561e+00
 1.123622e-01	 1.506928e+00	 2.037306e+00
 9.613451e-02	 1.508050e+00	 1.997823e+00
 7.996137e-02	 1.508994e+00	 1.962800e+00
 1.621378e-01	 1.509838e+00	 2.231215e+00
 1.456817e-01	 1.511514e+00	 2.178548e+00
 1.292726e-01	 1.513006e+00	 2.130688e+00
 1.129130e-01	 1.514315e+00	 2.086903e+00
 9.660576e-02	 1.515442e+00	 2.047159e+00
 8.035334e-02	 1.516391e+00	 2.012355e+00
 7.839350e-02	 1.479406e+00	 1.745377e+00
 6.259345e-02	 1.480159e+00	 1.719699e+00
 4.685177e-02	 1.480740e+00	 1.699944e+00
 3.117080e-02	 1.481154e+00	 1.685469e+00
 1.555281e-02	 1.481400e+00	 1.677689e+00
-7.651964e-07	 1.481501e+00	 2.277248e+00
 7.878547e-02	 1.486803e+00	 1.801726e+00
 6.290642e-02	 1.487559e+00	 1.775072e+00
 4.708603e-02	 1.488144e+00	 1.754189e+00
 3.132665e-02	 1.488559e+00	 1.738681e+00
 1.563057e-02	 1.488807e+00	 1.730150e+00
-7.562406e-07	 1.488909e+00	 2.359506e+00
 7.917743e-02	 1.494200e+00	 1.857608e+00
 6.321939e-02	 1.494960e+00	 1.829692e+00
 4.732029e-02	 1.495548e+00	 1.807832e+00
 3.148251e-02	 1.495965e+00	 1.791581e+00
 1.570833e-02	 1.496214e+00	 1.782448e+00
-7.470636e-07	 1.496316e+00	 2.439947e+00
 7.956940e-02	 1.501597e+00	 1.911259e+00
 6.353235e-02	 1.502361e+00	 1.882802e+00
 4.755455e-02	 1.502952e+00	 1.860618e+00
 3.163836e-02	 1.503371e+00	 1.844104e+00
 1.578610e-02	 1.503621e+00	 1.834571e+00
-7.376661e-07	 1.503724e+00	 2.518596e+00
 7.996137e-02	 1.508994e+00	 1.962800e+00
 6.384532e-02	 1.509762e+00	 1.934457e+00
 4.778881e-02	 1.510355e+00	 1.912554e+00
 3.179422e-02	 1.510777e+00	 1.896233e+00
 1.586386e-02	 1.511028e+00	 1.886507e+00
-7.280489e-07	 1.511131e+00	 2.595481e+00
 8.035334e-02	 1.516391e+00	 2.012355e+00
 6.415829e-02	 1.517163e+00	 1.984709e+00
 4.802307e-02	 1.517759e+00	 1.963646e+00
 3.195007e-02	 1.518182e+00	 1.947952e+00
 1.594163e-02	 1.518435e+00	 1.938245e+00
-7.182127e-07	 1.518539e+00	 2.670625e+00
 1.518519e+00	 0.000000e+00	 1.531971e+01
 1.518435e+00	 1.594163e-02	 1.532287e+01
 1.518182e+00	 3.195007e-02	 1.532414e+01
 1.517759e+00	 4.802307e-02	 1.532393e+01
 1.517163e+00	 6.415829e-02	 1.532221e+01
 1.516391e+00	 8.035334e-02	 1.531861e+01
 1.525926e+00	 0.000000e+00	 1.524287e+01
 1.525842e+00	 1.601939e-02	 1.524578e+01
 1.525588e+00	 3.210592e-02	 1.524701e+01
 1.525163e+00	 4.825733e-02	 1.524695e+01
 1.524563e+00	 6.447125e-02	 1.524561e+01
 1.523788e+00	 8.074530e-02	 1.524261e+01
 1.533333e+00	 0.000000e+00	 1.516776e+01
 1.533249e+00	 1.609715e-02	 1.517042e+01
 1.532994e+00	 3.226178e-02	 1.517158e+01
 1.532566e+00	 4.849159e-02	 1.517164e+01
 1.531964e+00	 6.478422e-02	 1.517063e+01
 1.531185e+00	 8.113727e-02	 1.516820e+01
 1.540741e+00	 0.000000e+00	 1.509428e+01
 1.540656e+00	 1.617492e-02	 1.509671e+01
 1.540400e+00	 3.241763e-02	 1.509777e+01
 1.539970e+00	 4.872584e-02	 1.509791e+01
 1.539365e+00	 6.509719e-02	 1.509718e+01
 1.538582e+00	 8.152924e-02	 1.509527e+01
 1.548148e+00	 0.000000e+00	 1.502234e+01
 1.548063e+00	 1.625268e-02	 1.502457e+01
 1.547805e+00	 3.257349e-02	 1.502553e+01
 1.547374e+00	 4.896010e-02	 1.502570e+01
 1.546766e+00	 6.541016e-02	 1.502518e+01
 1.545979e+00	 8.192121e-02	 1.502374e+01
 1.555556e+00	 0.000000e+00	 1.495187e+01
 1.555470e+00	 1.633045e-02	 1.495394e+01
 1.555211e+00	 3.272934e-02	 1.495478e+01
 1.554777e+00	 4.919436e-02	 1.495493e+01
 1.554167e+00	 6.572312e-02	 1.495455e+01
 1.553376e+00	 8.231317e-02	 1.495349e+01
 1.516391e+00	 8.035334e-02	 1.531861e+01
 1.515442e+00	 9.660576e-02	 1.531471e+01
 1.514315e+00	 1.129130e-01	 1.531258e+01
 1.513006e+00	 1.292726e-01	 1.531213e+01
 1.511514e+00	 1.456817e-01	 1.531300e+01
 1.509838e+00	 1.621378e-01	 1.531461e+01
 1.523788e+00	 8.074530e-02	 1.524261e+01
 1.522835e+00	 9.707701e-02	 1.523930e+01
 1.521702e+00	 1.134638e-01	 1.523754e+01
 1.520386e+00	 1.299032e-01	 1.523734e+01
 1.518887e+00	 1.463924e-01	 1.523839e+01
 1.517203e+00	 1.629287e-01	 1.524019e+01
 1.531185e+00	 8.113727e-02	 1.516820e+01
 1.530227e+00	 9.754825e-02	 1.516546e+01
 1.529089e+00	 1.140146e-01	 1.516409e+01
 1.527767e+00	 1.305338e-01	 1.516413e+01
 1.526261e+00	 1.471030e-01	 1.516536e+01
 1.524568e+00	 1.637196e-01	 1.516735e+01
 1.538582e+00	 8.152924e-02	 1.509527e+01
 1.537620e+00	 9.801950e-02	 1.509308e+01
 1.536475e+00	 1.145654e-01	 1.509207e+01
 1.535148e+00	 1.311644e-01	 1.509234e+01
 1.533634e+00	 1.478137e-01	 1.509375e+01
 1.531933e+00	 1.645105e-01	 1.509590e+01
 1.545979e+00	 8.192121e-02	 1.502374e+01
 1.545012e+00	 9.849075e-02	 1.502205e+01
 1.543862e+00	 1.151162e-01	 1.502136e+01
 1.542528e+00	 1.317950e-01	 1.502184e+01
 1.541007e+00	 1.485243e-01	 1.502339e+01
 1.539298e+00	 1.653015e-01	 1.502568e+01
 1.553376e+00	 8.231317e-02	 1.495349e+01
 1.552404e+00	 9.896200e-02	 1.495223e+01
 1.551249e+00	 1.156670e-01	 1.495182e+01
 1.549909e+00	 1.324256e-01	 1.495247e+01
 1.548380e+00	 1.492349e-01	 1.495412e+01
 1.546663e+00	 1.660924e-01	 1.495653e+01
 1.509838e+00	 1.621378e-01	 1.531461e+01
 1.507974e+00	 1.786380e-01	 1.531528e+01
 1.505923e+00	 1.951795e-01	 1.531319e+01
 1.503681e+00	 2.117595e-01	 1.530736e+01
 1.501247e+00	 2.283749e-01	 1.529680e+01
 1.498620e+00	 2.450227e-01	 1.528059e+01
 1.517203e+00	 1.629287e-01	 1.524019e+01
 1.515330e+00	 1.795094e-01	 1.524121e+01
 1.513269e+00	 1.961316e-01	 1.523965e+01
 1.511016e+00	 2.127924e-01	 1.523447e+01
 1.508570e+00	 2.294889e-01	 1.522459e+01
 1.505930e+00	 2.462180e-01	 1.520900e+01
 1.524568e+00	 1.637196e-01	 1.516735e+01
 1.522686e+00	 1.803808e-01	 1.516871e+01
 1.520615e+00	 1.970837e-01	 1.516775e+01
 1.518351e+00	 2.138254e-01	 1.516334e+01
 1.515894e+00	 2.306029e-01	 1.515433e+01
 1.513241e+00	 2.474132e-01	 1.513966e+01
 1.531933e+00	 1.645105e-01	 1.509590e+01
 1.530042e+00	 1.812522e-01	 1.509760e+01
 1.527961e+00	 1.980358e-01	 1.509725e+01
 1.525686e+00	 2.148584e-01	 1.509367e+01
 1.523217e+00	 2.317170e-01	 1.508568e+01
 1.520551e+00	 2.486084e-01	 1.507213e+01
 1.539298e+00	 1.653015e-01	 1.502568e+01
 1.537398e+00	 1.821236e-01	 1.502769e+01
 1.535307e+00	 1.989879e-01	 1.502793e+01
 1.533021e+00	 2.158914e-01	 1.502520e+01
 1.530540e+00	 2.328310e-01	 1.501827e+01
 1.527862e+00	 2.498037e-01	 1.500597e+01
 1.546663e+00	 1.660924e-01	 1.495653e+01
 1.544754e+00	 1.829950e-01	 1.495880e+01
 1.542653e+00	 1.999400e-01	 1.495957e+01
 1.540356e+00	 2.169243e-01	 1.495765e+01
 1.537863e+00	 2.339450e-01	 1.495178e+01
 1.535172e+00	 2.509989e-01	 1.494075e+01
 1.498620e+00	 2.450227e-01	 1.528059e+01
 1.495798e+00	 2.617000e-01	 1.526719e+01
 1.492779e+00	 2.784035e-01	 1.526370e+01
 1.489563e+00	 2.951302e-01	 1.526739e+01
 1.486147e+00	 3.118766e-01	 1.527584e+01
 1.482530e+00	 3.286397e-01	 1.528709e+01
 1.505930e+00	 2.462180e-01	 1.520900e+01
 1.503095e+00	 2.629766e-01	 1.519602e+01
 1.500061e+00	 2.797616e-01	 1.519293e+01
 1.496829e+00	 2.965698e-01	 1.519735e+01
 1.493396e+00	 3.133980e-01	 1.520723e+01
 1.489762e+00	 3.302428e-01	 1.522089e+01
 1.513241e+00	 2.474132e-01	 1.513966e+01
 1.510391e+00	 2.642532e-01	 1.512738e+01
 1.507343e+00	 2.811197e-01	 1.512472e+01
 1.504095e+00	 2.980095e-01	 1.512962e+01
 1.500646e+00	 3.149193e-01	 1.514027e+01
 1.496993e+00	 3.318459e-01	 1.515523e+01
 1.520551e+00	 2.486084e-01	 1.507213e+01
 1.517688e+00	 2.655298e-01	 1.506075e+01
 1.514625e+00	 2.824777e-01	 1.505861e+01
 1.511361e+00	 2.994491e-01	 1.506384e+01
 1.507895e+00	 3.164407e-01	 1.507481e+01
 1.504225e+00	 3.334491e-01	 1.509026e+01
 1.527862e+00	 2.498037e-01	 1.500597e+01
 1.524984e+00	 2.668063e-01	 1.499564e+01
 1.521907e+00	 2.838358e-01	 1.499413e+01
 1.518627e+00	 3.008888e-01	 1.499966e+01
 1.515144e+00	 3.179620e-01	 1.501072e+01
 1.511457e+00	 3.350522e-01	 1.502613e+01
 1.535172e+00	 2.509989e-01	 1.494075e+01
 1.532281e+00	 2.680829e-01	 1.493159e+01
 1.529189e+00	 2.851939e-01	 1.493083e+01
 1.525893e+00	 3.023285e-01	 1.493675e+01
 1.522394e+00	 3.194834e-01	 1.494786e+01
 1.518689e+00	 3.366553e-01	 1.496301e+01
 1.482530e+00	 3.286397e-01	 1.528709e+01
 1.478711e+00	 3.454160e-01	 1.528317e+01
 1.474689e+00	 3.622021e-01	 1.525135e+01
 1.470463e+00	 3.789947e-01	 1.520184e+01
 1.466032e+00	 3.957902e-01	 1.516897e+01
 1.461394e+00	 4.125851e-01	 1.516562e+01
 1.489762e+00	 3.302428e-01	 1.522089e+01
 1.485924e+00	 3.471009e-01	 1.521987e+01
 1.481883e+00	 3.639690e-01	 1.518845e+01
 1.477636e+00	 3.808435e-01	 1.513888e+01
 1.473183e+00	 3.977209e-01	 1.510654e+01
 1.468523e+00	 4.145977e-01	 1.510280e+01
 1.496993e+00	 3.318459e-01	 1.515523e+01
 1.493137e+00	 3.487859e-01	 1.515642e+01
 1.489076e+00	 3.657358e-01	 1.512828e+01
 1.484809e+00	 3.826922e-01	 1.508331e+01
 1.480334e+00	 3.996516e-01	 1.505139e+01
 1.475651e+00	 4.166103e-01	 1.504553e+01
 1.504225e+00	 3.334491e-01	 1.509026e+01
 1.500351e+00	 3.504709e-01	 1.509245e+01
 1.496270e+00	 3.675027e-01	 1.506605e+01
 1.491982e+00	 3.845410e-01	 1.502598e+01
 1.487486e+00	 4.015823e-01	 1.499958e+01
 1.482780e+00	 4.186229e-01	 1.499478e+01
 1.511457e+00	 3.350522e-01	 1.502613e+01
 1.507564e+00	 3.521558e-01	 1.502845e+01
 1.503464e+00	 3.692695e-01	 1.500252e+01
 1.499155e+00	 3.863897e-01	 1.496597e+01
 1.494637e+00	 4.035129e-01	 1.494326e+01
 1.489909e+00	 4.206356e-01	 1.494213e+01
 1.518689e+00	 3.366553e-01	 1.496301e+01
 1.514777e+00	 3.538408e-01	 1.496489e+01
 1.510657e+00	 3.710363e-01	 1.493848e+01
 1.506328e+00	 3.882385e-01	 1.490425e+01
 1.501788e+00	 4.054436e-01	 1.488346e+01
 1.497038e+00	 4.226482e-01	 1.488401e+01
 1.461394e+00	 4.125851e-01	 1.516562e+01
 1.456549e+00	 4.293759e-01	 1.517259e+01
 1.451496e+00	 4.461589e-01	 1.516680e+01
 1.446234e+00	 4.629304e-01	 1.515168e+01
 1.440763e+00	 4.796869e-01	 1.513116e+01
 1.435082e+00	 4.964246e-01	 1.510959e+01
 1.468523e+00	 4.145977e-01	 1.510280e+01
 1.463654e+00	 4.314704e-01	 1.510984e+01
 1.458577e+00	 4.483353e-01	 1.510546e+01
 1.453289e+00	 4.651886e-01	 1.509260e+01
 1.447791e+00	 4.820269e-01	 1.507472e+01
 1.442083e+00	 4.988461e-01	 1.505579e+01
 1.475651e+00	 4.166103e-01	 1.504553e+01
 1.470759e+00	 4.335649e-01	 1.505091e+01
 1.465657e+00	 4.505116e-01	 1.504643e+01
 1.460344e+00	 4.674468e-01	 1.503467e+01
 1.454820e+00	 4.843668e-01	 1.501875e+01
 1.449083e+00	 5.012677e-01	 1.500227e+01
 1.482780e+00	 4.186229e-01	 1.499478e+01
 1.477864e+00	 4.356594e-01	 1.499706e+01
 1.472737e+00	 4.526880e-01	 1.499090e+01
 1.467399e+00	 4.697050e-01	 1.497886e+01
 1.461848e+00	 4.867067e-01	 1.496378e+01
 1.456083e+00	 5.036893e-01	 1.494901e+01
 1.489909e+00	 4.206356e-01	 1.494213e+01
 1.484969e+00	 4.377539e-01	 1.494769e+01
 1.479818e+00	 4.548644e-01	 1.494003e+01
 1.474454e+00	 4.719632e-01	 1.492608e+01
 1.468876e+00	 4.890467e-01	 1.491035e+01
 1.463084e+00	 5.061109e-01	 1.489597e+01
 1.497038e+00	 4.226482e-01	 1.488401e+01
 1.492075e+00	 4.398485e-01	 1.489266e+01
 1.486898e+00	 4.570408e-01	 1.489040e+01
 1.481508e+00	 4.742214e-01	 1.487726e+01
 1.475904e+00	 4.913866e-01	 1.485896e+01
 1.470084e+00	 5.085325e-01	 1.484312e+01
 1.435082e+00	 4.964246e-01	 1.510959e+01
 1.429191e+00	 5.131396e-01	 1.508131e+01
 1.423088e+00	 5.298283e-01	 1.504224e+01
 1.416775e+00	 5.464869e-01	 1.499971e+01
 1.410250e+00	 5.631114e-01	 1.496135e+01
 1.403513e+00	 5.796980e-01	 1.493506e+01
 1.442083e+00	 4.988461e-01	 1.505579e+01
 1.436162e+00	 5.156428e-01	 1.502958e+01
 1.430030e+00	 5.324129e-01	 1.499203e+01
 1.423686e+00	 5.491526e-01	 1.495092e+01
 1.417129e+00	 5.658582e-01	 1.491434e+01
 1.410359e+00	 5.825258e-01	 1.489063e+01
 1.449083e+00	 5.012677e-01	 1.500227e+01
 1.443134e+00	 5.181459e-01	 1.497838e+01
 1.436972e+00	 5.349974e-01	 1.494276e+01
 1.430597e+00	 5.518184e-01	 1.490348e+01
 1.424008e+00	 5.686051e-01	 1.486894e+01
 1.417206e+00	 5.853536e-01	 1.484781e+01
 1.456083e+00	 5.036893e-01	 1.494901e+01
 1.450106e+00	 5.206490e-01	 1.492712e+01
 1.443914e+00	 5.375819e-01	 1.489350e+01
 1.437508e+00	 5.544842e-01	 1.485632e+01
 1.430887e+00	 5.713520e-01	 1.482417e+01
 1.424052e+00	 5.881814e-01	 1.480593e+01
 1.463084e+00	 5.061109e-01	 1.489597e+01
 1.457077e+00	 5.231521e-01	 1.487524e+01
 1.450856e+00	 5.401664e-01	 1.484334e+01
 1.444419e+00	 5.571500e-01	 1.480842e+01
 1.437767e+00	 5.740989e-01	 1.477910e+01
 1.430899e+00	 5.910092e-01	 1.476437e+01
 1.470084e+00	 5.085325e-01	 1.484312e+01
 1.464049e+00	 5.256552e-01	 1.482218e+01
 1.457798e+00	 5.427510e-01	 1.479141e+01
 1.451330e+00	 5.598158e-01	 1.475879e+01
 1.444646e+00	 5.768458e-01	 1.473284e+01
 1.437745e+00	 5.938370e-01	 1.472255e+01
 1.403513e+00	 5.796980e-01	 1.493506e+01
 1.396565e+00	 5.962428e-01	 1.490741e+01
 1.389405e+00	 6.127420e-01	 1.486490e+01
 1.382033e+00	 6.291916e-01	 1.481535e+01
 1.374451e+00	 6.455877e-01	 1.476635e+01
 1.366657e+00	 6.619262e-01	 1.472515e+01
 1.410359e+00	 5.825258e-01	 1.489063e+01
 1.403377e+00	 5.991513e-01	 1.486558e+01
 1.396182e+00	 6.157310e-01	 1.482462e+01
 1.388775e+00	 6.322608e-01	 1.477563e+01
 1.381155e+00	 6.487369e-01	 1.472623e+01
 1.373324e+00	 6.651552e-01	 1.468378e+01
 1.417206e+00	 5.853536e-01	 1.484781e+01
 1.410190e+00	 6.020598e-01	 1.482510e+01
 1.402960e+00	 6.187200e-01	 1.478532e+01
 1.395517e+00	 6.353300e-01	 1.473647e+01
 1.387860e+00	 6.518861e-01	 1.468635e+01
 1.379991e+00	 6.683841e-01	 1.464250e+01
 1.424052e+00	 5.881814e-01	 1.480593e+01
 1.417002e+00	 6.049683e-01	 1.478567e+01
 1.409738e+00	 6.217090e-01	 1.474695e+01
 1.402258e+00	 6.383993e-01	 1.469800e+01
 1.394565e+00	 6.550353e-01	 1.464689e+01
 1.386657e+00	 6.716130e-01	 1.460138e+01
 1.430899e+00	 5.910092e-01	 1.476437e+01
 1.423815e+00	 6.078768e-01	 1.474704e+01
 1.416515e+00	 6.246979e-01	 1.470951e+01
 1.409000e+00	 6.414685e-01	 1.466037e+01
 1.401269e+00	 6.581845e-01	 1.460801e+01
 1.393324e+00	 6.748419e-01	 1.456055e+01
 1.437745e+00	 5.938370e-01	 1.472255e+01
 1.430627e+00	 6.107853e-01	 1.470897e+01
 1.423293e+00	 6.276869e-01	 1.467302e+01
 1.415742e+00	 6.445377e-01	 1.462374e+01
 1.407974e+00	 6.613337e-01	 1.456993e+01
 1.399990e+00	 6.780708e-01	 1.452013e+01
 1.366657e+00	 6.619262e-01	 1.472515e+01
 1.358653e+00	 6.782034e-01	 1.467932e+01
 1.350439e+00	 6.944152e-01	 1.461701e+01
 1.342016e+00	 7.105577e-01	 1.454581e+01
 1.333384e+00	 7.266269e-01	 1.447295e+01
 1.324544e+00	 7.426188e-01	 1.440430e+01
 1.373324e+00	 6.651552e-01	 1.468378e+01
 1.365281e+00	 6.815117e-01	 1.463746e+01
 1.357027e+00	 6.978026e-01	 1.457746e+01
 1.348562e+00	 7.140238e-01	 1.451220e+01
 1.339888e+00	 7.301714e-01	 1.444979e+01
 1.331005e+00	 7.462414e-01	 1.439019e+01
 1.379991e+00	 6.683841e-01	 1.464250e+01
 1.371908e+00	 6.848200e-01	 1.459584e+01
 1.363614e+00	 7.011900e-01	 1.453866e+01
 1.355109e+00	 7.174900e-01	 1.448009e+01
 1.346392e+00	 7.337159e-01	 1.442906e+01
 1.337466e+00	 7.498639e-01	 1.437333e+01
 1.386657e+00	 6.716130e-01	 1.460138e+01
 1.378536e+00	 6.881284e-01	 1.455441e+01
 1.370202e+00	 7.045774e-01	 1.450045e+01
 1.361655e+00	 7.209561e-01	 1.444927e+01
 1.352897e+00	 7.372605e-01	 1.441048e+01
 1.343927e+00	 7.534864e-01	 1.435398e+01
 1.393324e+00	 6.748419e-01	 1.456055e+01
 1.385164e+00	 6.914367e-01	 1.451317e+01
 1.376789e+00	 7.079648e-01	 1.446273e+01
 1.368201e+00	 7.244222e-01	 1.441954e+01
 1.359401e+00	 7.408050e-01	 1.439381e+01
 1.350388e+00	 7.571090e-01	 1.433245e+01
 1.399990e+00	 6.780708e-01	 1.452013e+01
 1.391791e+00	 6.947450e-01	 1.447215e+01
 1.383377e+00	 7.113522e-01	 1.442544e+01
 1.374748e+00	 7.278884e-01	 1.439077e+01
 1.365905e+00	 7.443495e-01	 1.437602e+01
 1.356850e+00	 7.607315e-01	 1.430910e+01
 1.324544e+00	 7.426188e-01	 1.440430e+01
 1.315497e+00	 7.585296e-01	 1.433243e+01
 1.306244e+00	 7.743552e-01	 1.426823e+01
 1.296786e+00	 7.900918e-01	 1.420181e+01
 1.287124e+00	 8.057355e-01	 1.412295e+01
 1.277260e+00	 8.212823e-01	 1.402123e+01
 1.331005e+00	 7.462414e-01	 1.439019e+01
 1.321914e+00	 7.622297e-01	 1.430985e+01
 1.312616e+00	 7.781326e-01	 1.424145e+01
 1.303112e+00	 7.939459e-01	 1.417444e+01
 1.293403e+00	 8.096659e-01	 1.409780e+01
 1.283491e+00	 8.252885e-01	 1.400023e+01
 1.337466e+00	 7.498639e-01	 1.437333e+01
 1.328331e+00	 7.659299e-01	 1.428623e+01
 1.318987e+00	 7.819099e-01	 1.421462e+01
 1.309437e+00	 7.978001e-01	 1.414736e+01
 1.299682e+00	 8.135963e-01	 1.407278e+01
 1.289721e+00	 8.292948e-01	 1.397881e+01
 1.343927e+00	 7.534864e-01	 1.435398e+01
 1.334748e+00	 7.696300e-01	 1.426187e+01
 1.325359e+00	 7.856873e-01	 1.418804e+01
 1.315763e+00	 8.016542e-01	 1.412092e+01
 1.305960e+00	 8.175267e-01	 1.404827e+01
 1.295952e+00	 8.333011e-01	 1.395737e+01
 1.350388e+00	 7.571090e-01	 1.433245e+01
 1.341165e+00	 7.733302e-01	 1.423708e+01
 1.331731e+00	 7.894646e-01	 1.416207e+01
 1.322089e+00	 8.055083e-01	 1.409550e+01
 1.312239e+00	 8.214572e-01	 1.402468e+01
 1.302182e+00	 8.373073e-01	 1.393636e+01
 1.356850e+00	 7.607315e-01	 1.430910e+01
 1.347582e+00	 7.770303e-01	 1.421224e+01
 1.338103e+00	 7.932420e-01	 1.413710e+01
 1.328415e+00	 8.093624e-01	 1.407151e+01
 1.318518e+00	 8.253876e-01	 1.400246e+01
 1.308413e+00	 8.413136e-01	 1.391627e+01
 1.277260e+00	 8.212823e-01	 1.402123e+01
 1.267195e+00	 8.367284e-01	 1.391554e+01
 1.256931e+00	 8.520699e-01	 1.382379e+01
 1.246469e+00	 8.673031e-01	 1.373399e+01
 1.235810e+00	 8.824241e-01	 1.363435e+01
 1.224957e+00	 8.974293e-01	 1.351352e+01
 1.283491e+00	 8.252885e-01	 1.400023e+01
 1.273377e+00	 8.408100e-01	 1.389872e+01
 1.263062e+00	 8.562264e-01	 1.381008e+01
 1.252549e+00	 8.715339e-01	 1.372271e+01
 1.241838e+00	 8.867286e-01	 1.362519e+01
 1.230932e+00	 9.018070e-01	 1.350656e+01
 1.289721e+00	 8.292948e-01	 1.397881e+01
 1.279558e+00	 8.448916e-01	 1.388095e+01
 1.269194e+00	 8.603828e-01	 1.379525e+01
 1.258629e+00	 8.757646e-01	 1.371036e+01
 1.247867e+00	 8.910332e-01	 1.361513e+01
 1.236908e+00	 9.061847e-01	 1.349886e+01
 1.295952e+00	 8.333011e-01	 1.395737e+01
 1.285740e+00	 8.489732e-01	 1.386267e+01
 1.275325e+00	 8.645392e-01	 1.377974e+01
 1.264710e+00	 8.799953e-01	 1.369737e+01
 1.253895e+00	 8.953377e-01	 1.360456e+01
 1.242883e+00	 9.105624e-01	 1.349077e+01
 1.302182e+00	 8.373073e-01	 1.393636e+01
 1.291921e+00	 8.530548e-01	 1.384435e+01
 1.281456e+00	 8.686957e-01	 1.376402e+01
 1.270790e+00	 8.842261e-01	 1.368420e+01
 1.259923e+00	 8.996422e-01	 1.359391e+01
 1.248858e+00	 9.149401e-01	 1.348268e+01
 1.308413e+00	 8.413136e-01	 1.391627e+01
 1.298103e+00	 8.571364e-01	 1.382651e+01
 1.287588e+00	 8.728521e-01	 1.374862e+01
 1.276870e+00	 8.884568e-01	 1.367134e+01
 1.265952e+00	 9.039467e-01	 1.358366e+01
 1.254834e+00	 9.193178e-01	 1.347501e+01
 1.224957e+00	 8.974293e-01	 1.351352e+01
 1.213911e+00	 9.123148e-01	 1.338955e+01
 1.202675e+00	 9.270771e-01	 1.327929e+01
 1.191250e+00	 9.417124e-01	 1.317099e+01
 1.179639e+00	 9.562172e-01	 1.305430e+01
 1.167843e+00	 9.705881e-01	 1.292065e+01
 1.230932e+00	 9.018070e-01	 1.350656e+01
 1.219833e+00	 9.167651e-01	 1.338501e+01
 1.208541e+00	 9.315994e-01	 1.327696e+01
 1.197061e+00	 9.463061e-01	 1.317016e+01
 1.185393e+00	 9.608817e-01	 1.305380e+01
 1.173540e+00	 9.753226e-01	 1.291884e+01
 1.236908e+00	 9.061847e-01	 1.349886e+01
 1.225754e+00	 9.212154e-01	 1.337968e+01
 1.214408e+00	 9.361217e-01	 1.327351e+01
 1.202872e+00	 9.508998e-01	 1.316779e+01
 1.191147e+00	 9.655462e-01	 1.305140e+01
 1.179237e+00	 9.800572e-01	 1.291501e+01
 1.242883e+00	 9.105624e-01	 1.349077e+01
 1.231676e+00	 9.256658e-01	 1.337388e+01
 1.220275e+00	 9.406440e-01	 1.326934e+01
 1.208683e+00	 9.554936e-01	 1.316439e+01
 1.196902e+00	 9.702107e-01	 1.304780e+01
 1.184933e+00	 9.847918e-01	 1.291009e+01
 1.248858e+00	 9.149401e-01	 1.348268e+01
 1.237597e+00	 9.301161e-01	 1.336799e+01
 1.226142e+00	 9.451664e-01	 1.326485e+01
 1.214494e+00	 9.600873e-01	 1.316051e+01
 1.202656e+00	 9.748751e-01	 1.304372e+01
 1.190630e+00	 9.895264e-01	 1.290505e+01
 1.254834e+00	 9.193178e-01	 1.347501e+01
 1.243519e+00	 9.345664e-01	 1.336242e+01
 1.232008e+00	 9.496887e-01	 1.326054e+01
 1.220305e+00	 9.646810e-01	 1.315673e+01
 1.208410e+00	 9.795396e-01	 1.303992e+01
 1.196327e+00	 9.942609e-01	 1.290090e+01
 1.167843e+00	 9.705881e-01	 1.292065e+01
 1.155866e+00	 9.848214e-01	 1.276836e+01
 1.143709e+00	 9.989137e-01	 1.260699e+01
 1.131375e+00	 1.012862e+00	 1.244883e+01
 1.118867e+00	 1.026662e+00	 1.230985e+01
 1.106187e+00	 1.040312e+00	 1.220978e+01
 1.173540e+00	 9.753226e-01	 1.291884e+01
 1.161504e+00	 9.896254e-01	 1.276597e+01
 1.149288e+00	 1.003786e+00	 1.260683e+01
 1.136894e+00	 1.017803e+00	 1.245288e+01
 1.124325e+00	 1.031670e+00	 1.231929e+01
 1.111583e+00	 1.045386e+00	 1.222514e+01
 1.179237e+00	 9.800572e-01	 1.291501e+01
 1.167142e+00	 9.944294e-01	 1.276164e+01
 1.154867e+00	 1.008659e+00	 1.260484e+01
 1.142413e+00	 1.022743e+00	 1.245512e+01
 1.129783e+00	 1.036678e+00	 1.232670e+01
 1.116979e+00	 1.050461e+00	 1.223777e+01
 1.184933e+00	 9.847918e-01	 1.291009e+01
 1.172781e+00	 9.992334e-01	 1.275656e+01
 1.160446e+00	 1.013532e+00	 1.260237e+01
 1.147932e+00	 1.027684e+00	 1.245698e+01
 1.135241e+00	 1.041687e+00	 1.233355e+01
 1.122375e+00	 1.055536e+00	 1.224922e+01
 1.190630e+00	 9.895264e-01	 1.290505e+01
 1.178419e+00	 1.004037e+00	 1.275193e+01
 1.166025e+00	 1.018405e+00	 1.260079e+01
 1.153451e+00	 1.032625e+00	 1.245993e+01
 1.140699e+00	 1.046695e+00	 1.234131e+01
 1.127771e+00	 1.060610e+00	 1.226092e+01
 1.196327e+00	 9.942609e-01	 1.290090e+01
 1.184057e+00	 1.008841e+00	 1.274898e+01
 1.171604e+00	 1.023277e+00	 1.260150e+01
 1.158970e+00	 1.037566e+00	 1.246544e+01
 1.146156e+00	 1.051703e+00	 1.235149e+01
 1.133167e+00	 1.065685e+00	 1.227433e+01
 1.106187e+00	 1.040312e+00	 1.220978e+01
 1.093338e+00	 1.053807e+00	 1.209328e+01
 1.080324e+00	 1.067145e+00	 1.191235e+01
 1.067145e+00	 1.080324e+00	 1.170114e+01
 1.053807e+00	 1.093338e+00	 1.149520e+01
 1.040312e+00	 1.106187e+00	 1.133093e+01
 1.111583e+00	 1.045386e+00	 1.222514e+01
 1.098672e+00	 1.058948e+00	 1.211240e+01
 1.085593e+00	 1.072351e+00	 1.193091e+01
 1.072351e+00	 1.085593e+00	 1.171643e+01
 1.058948e+00	 1.098672e+00	 1.150616e+01
 1.045386e+00	 1.111583e+00	 1.133832e+01
 1.116979e+00	 1.050461e+00	 1.223777e+01
 1.104005e+00	 1.064088e+00	 1.212847e+01
 1.090863e+00	 1.077557e+00	 1.194622e+01
 1.077557e+00	 1.090863e+00	 1.172795e+01
 1.064088e+00	 1.104005e+00	 1.151241e+01
 1.050461e+00	 1.116979e+00	 1.134348e+01
 1.122375e+00	 1.055536e+00	 1.224922e+01
 1.109338e+00	 1.069229e+00	 1.214258e+01
 1.096133e+00	 1.082762e+00	 1.195917e+01
 1.082762e+00	 1.096133e+00	 1.173634e+01
 1.069229e+00	 1.109338e+00	 1.151431e+01
 1.055536e+00	 1.122375e+00	 1.135059e+01
 1.127771e+00	 1.060610e+00	 1.226092e+01
 1.114672e+00	 1.074369e+00	 1.215592e+01
 1.101403e+00	 1.087968e+00	 1.197070e+01
 1.087968e+00	 1.101403e+00	 1.174233e+01
 1.074369e+00	 1.114672e+00	 1.151437e+01
 1.060610e+00	 1.127771e+00	 1.136147e+01
 1.133167e+00	 1.065685e+00	 1.227433e+01
 1.120005e+00	 1.079510e+00	 1.216986e+01
 1.106673e+00	 1.093173e+00	 1.198189e+01
 1.093173e+00	 1.106673e+00	 1.174674e+01
 1.079510e+00	 1.120005e+00	 1.152050e+01
 1.065685e+00	 1.133167e+00	 1.137793e+01
 1.040312e+00	 1.106187e+00	 1.133093e+01
 1.026662e+00	 1.118867e+00	 1.118175e+01
 1.012862e+00	 1.131375e+00	 1.101825e+01
 9.989137e-01	 1.143709e+00	 1.084501e+01
 9.848214e-01	 1.155866e+00	 1.066122e+01
 9.705881e-01	 1.167843e+00	 1.046332e+01
 1.045386e+00	 1.111583e+00	 1.133832e+01
 1.031670e+00	 1.124325e+00	 1.119650e+01
 1.017803e+00	 1.136894e+00	 1.103953e+01
 1.003786e+00	 1.149288e+00	 1.087018e+01
 9.896254e-01	 1.161504e+00	 1.068817e+01
 9.753226e-01	 1.173540e+00	 1.049041e+01
 1.050461e+00	 1.116979e+00	 1.134348e+01
 1.036678e+00	 1.129783e+00	 1.121074e+01
 1.022743e+00	 1.142413e+00	 1.105939e+01
 1.008659e+00	 1.154867e+00	 1.089297e+01
 9.944294e-01	 1.167142e+00	 1.071194e+01
 9.800572e-01	 1.179237e+00	 1.051386e+01
 1.055536e+00	 1.122375e+00	 1.135059e+01
 1.041687e+00	 1.135241e+00	 1.122603e+01
 1.027684e+00	 1.147932e+00	 1.107925e+01
 1.013532e+00	 1.160446e+00	 1.091472e+01
 9.992334e-01	 1.172781e+00	 1.073382e+01
 9.847918e-01	 1.184933e+00	 1.053503e+01
 1.060610e+00	 1.127771e+00	 1.136147e+01
 1.046695e+00	 1.140699e+00	 1.124398e+01
 1.032625e+00	 1.153451e+00	 1.110055e+01
 1.018405e+00	 1.166025e+00	 1.093678e+01
 1.004037e+00	 1.178419e+00	 1.075517e+01
 9.895264e-01	 1.190630e+00	 1.055529e+01
 1.065685e+00	 1.133167e+00	 1.137793e+01
 1.051703e+00	 1.146156e+00	 1.126617e+01
 1.037566e+00	 1.158970e+00	 1.112471e+01
 1.023277e+00	 1.171604e+00	 1.096048e+01
 1.008841e+00	 1.184057e+00	 1.077729e+01
 9.942609e-01	 1.196327e+00	 1.057601e+01
 9.705881e-01	 1.167843e+00	 1.046332e+01
 9.562172e-01	 1.179639e+00	 1.026400e+01
 9.417124e-01	 1.191250e+00	 1.007577e+01
 9.270771e-01	 1.202675e+00	 9.891461e+00
 9.123148e-01	 1.213911e+00	 9.702373e+00
 8.974293e-01	 1.224957e+00	 9.498517e+00
 9.753226e-01	 1.173540e+00	 1.049041e+01
 9.608817e-01	 1.185393e+00	 1.029114e+01
 9.463061e-01	 1.197061e+00	 1.010381e+01
 9.315994e-01	 1.208541e+00	 9.920767e+00
 9.167651e-01	 1.219833e+00	 9.732753e+00
 9.018070e-01	 1.230932e+00	 9.529186e+00
 9.800572e-01	 1.179237e+00	 1.051386e+01
 9.655462e-01	 1.191147e+00	 1.031448e+01
 9.508998e-01	 1.202872e+00	 1.012797e+01
 9.361217e-01	 1.214408e+00	 9.946192e+00
 9.212154e-01	 1.225754e+00	 9.759341e+00
 9.061847e-01	 1.236908e+00	 9.556232e+00
 9.847918e-01	 1.184933e+00	 1.053503e+01
 9.702107e-01	 1.196902e+00	 1.033545e+01
 9.554936e-01	 1.208683e+00	 1.014977e+01
 9.406440e-01	 1.220275e+00	 9.969352e+00
 9.256658e-01	 1.231676e+00	 9.783844e+00
 9.105624e-01	 1.242883e+00	 9.581453e+00
 9.895264e-01	 1.190630e+00	 1.055529e+01
 9.748751e-01	 1.202656e+00	 1.035550e+01
 9.600873e-01	 1.214494e+00	 1.017074e+01
 9.451664e-01	 1.226142e+00	 9.991867e+00
 9.301161e-01	 1.237597e+00	 9.807969e+00
 9.149401e-01	 1.248858e+00	 9.606649e+00
 9.942609e-01	 1.196327e+00	 1.057601e+01
 9.795396e-01	 1.208410e+00	 1.037610e+01
 9.646810e-01	 1.220305e+00	 1.019242e+01
 9.496887e-01	 1.232008e+00	 1.001536e+01
 9.345664e-01	 1.243519e+00	 9.833427e+00
 9.193178e-01	 1.254834e+00	 9.633620e+00
 8.974293e-01	 1.224957e+00	 9.498517e+00
 8.824241e-01	 1.235810e+00	 9.289365e+00
 8.673031e-01	 1.246469e+00	 9.087757e+00
 8.520699e-01	 1.256931e+00	 8.887739e+00
 8.367284e-01	 1.267195e+00	 8.683249e+00
 8.212823e-01	 1.277260e+00	 8.468336e+00
 9.018070e-01	 1.230932e+00	 9.529186e+00
 8.867286e-01	 1.241838e+00	 9.320064e+00
 8.715339e-01	 1.252549e+00	 9.119222e+00
 8.562264e-01	 1.263062e+00	 8.920783e+00
 8.408100e-01	 1.273377e+00	 8.718779e+00
 8.252885e-01	 1.283491e+00	 8.507381e+00
 9.061847e-01	 1.236908e+00	 9.556232e+00
 8.910332e-01	 1.247867e+00	 9.347485e+00
 8.757646e-01	 1.258629e+00	 9.147912e+00
 8.603828e-01	 1.269194e+00	 8.951535e+00
 8.448916e-01	 1.279558e+00	 8.752295e+00
 8.292948e-01	 1.289721e+00	 8.544289e+00
 9.105624e-01	 1.242883e+00	 9.581453e+00
 8.953377e-01	 1.253895e+00	 9.373480e+00
 8.799953e-01	 1.264710e+00	 9.175658e+00
 8.645392e-01	 1.275325e+00	 8.981731e+00
 8.489732e-01	 1.285740e+00	 8.785364e+00
 8.333011e-01	 1.295952e+00	 8.580388e+00
 9.149401e-01	 1.248858e+00	 9.606649e+00
 8.996422e-01	 1.259923e+00	 9.399903e+00
 8.842261e-01	 1.270790e+00	 9.204293e+00
 8.686957e-01	 1.281456e+00	 9.013110e+00
 8.530548e-01	 1.291921e+00	 8.819561e+00
 8.373073e-01	 1.302182e+00	 8.617024e+00
 9.193178e-01	 1.254834e+00	 9.633620e+00
 9.039467e-01	 1.265952e+00	 9.428609e+00
 8.884568e-01	 1.276870e+00	 9.235654e+00
 8.728521e-01	 1.287588e+00	 9.047419e+00
 8.571364e-01	 1.298103e+00	 8.856475e+00
 8.413136e-01	 1.308413e+00	 8.655557e+00
 8.212823e-01	 1.277260e+00	 8.468336e+00
 8.057355e-01	 1.287124e+00	 8.265968e+00
 7.900918e-01	 1.296786e+00	 8.087337e+00
 7.743552e-01	 1.306244e+00	 7.909287e+00
 7.585296e-01	 1.315497e+00	 7.709151e+00
 7.426188e-01	 1.324544e+00	 7.464953e+00
 8.252885e-01	 1.283491e+00	 8.507381e+00
 8.096659e-01	 1.293403e+00	 8.307629e+00
 7.939459e-01	 1.303112e+00	 8.129246e+00
 7.781326e-01	 1.312616e+00	 7.949938e+00
 7.622297e-01	 1.321914e+00	 7.747955e+00
 7.462414e-01	 1.331005e+00	 7.502289e+00
 8.292948e-01	 1.289721e+00	 8.544289e+00
 8.135963e-01	 1.299682e+00	 8.346596e+00
 7.978001e-01	 1.309437e+00	 8.167744e+00
 7.819099e-01	 1.318987e+00	 7.986577e+00
 7.659299e-01	 1.328331e+00	 7.782549e+00
 7.498639e-01	 1.337466e+00	 7.535919e+00
 8.333011e-01	 1.295952e+00	 8.580388e+00
 8.175267e-01	 1.305960e+00	 8.383984e+00
 8.016542e-01	 1.315763e+00	 8.203845e+00
 7.856873e-01	 1.325359e+00	 8.020224e+00
 7.696300e-01	 1.334748e+00	 7.814060e+00
 7.534864e-01	 1.343927e+00	 7.567183e+00
 8.373073e-01	 1.302182e+00	 8.617024e+00
 8.214572e-01	 1.312239e+00	 8.420928e+00
 8.055083e-01	 1.322089e+00	 8.238585e+00
 7.894646e-01	 1.331731e+00	 8.051922e+00
 7.733302e-01	 1.341165e+00	 7.843644e+00
 7.571090e-01	 1.350388e+00	 7.597439e+00
 8.413136e-01	 1.308413e+00	 8.655557e+00
 8.253876e-01	 1.318518e+00	 8.458586e+00
 8.093624e-01	 1.328415e+00	 8.273026e+00
 7.932420e-01	 1.338103e+00	 8.082741e+00
 7.770303e-01	 1.347582e+00	 7.872475e+00
 7.607315e-01	 1.356850e+00	 7.628064e+00
 7.426188e-01	 1.324544e+00	 7.464953e+00
 7.266269e-01	 1.333384e+00	 7.221419e+00
 7.105577e-01	 1.342016e+00	 7.019954e+00
 6.944152e-01	 1.350439e+00	 6.840100e+00
 6.782034e-01	 1.358653e+00	 6.663814e+00
 6.619262e-01	 1.366657e+00	 6.475370e+00
 7.462414e-01	 1.331005e+00	 7.502289e+00
 7.301714e-01	 1.339888e+00	 7.260306e+00
 7.140238e-01	 1.348562e+00	 7.061111e+00
 6.978026e-01	 1.357027e+00	 6.883213e+00
 6.815117e-01	 1.365281e+00	 6.708284e+00
 6.651552e-01	 1.373324e+00	 6.520384e+00
 7.498639e-01	 1.337466e+00	 7.535919e+00
 7.337159e-01	 1.346392e+00	 7.296077e+00
 7.174900e-01	 1.355109e+00	 7.100591e+00
 7.011900e-01	 1.363614e+00	 6.925907e+00
 6.848200e-01	 1.371908e+00	 6.753025e+00
 6.683841e-01	 1.379991e+00	 6.565393e+00
 7.534864e-01	 1.343927e+00	 7.567183e+00
 7.372605e-01	 1.352897e+00	 7.330283e+00
 7.209561e-01	 1.361655e+00	 7.139992e+00
 7.045774e-01	 1.370202e+00	 6.969679e+00
 6.881284e-01	 1.378536e+00	 6.799289e+00
 6.716130e-01	 1.386657e+00	 6.611266e+00
 7.571090e-01	 1.350388e+00	 7.597439e+00
 7.408050e-01	 1.359401e+00	 7.364481e+00
 7.244222e-01	 1.368201e+00	 7.180923e+00
 7.079648e-01	 1.376789e+00	 7.016039e+00
 6.914367e-01	 1.385164e+00	 6.848346e+00
 6.748419e-01	 1.393324e+00	 6.658894e+00
 7.607315e-01	 1.356850e+00	 7.628064e+00
 7.443495e-01	 1.365905e+00	 7.400521e+00
 7.278884e-01	 1.374748e+00	 7.224998e+00
 7.113522e-01	 1.383377e+00	 7.066506e+00
 6.947450e-01	 1.391791e+00	 6.901479e+00
 6.780708e-01	 1.399990e+00	 6.709193e+00
 6.619262e-01	 1.366657e+00	 6.475370e+00
 6.455877e-01	 1.374451e+00	 6.274529e+00
 6.291916e-01	 1.382033e+00	 6.071710e+00
 6.127420e-01	 1.389405e+00	 5.870691e+00
 5.962428e-01	 1.396565e+00	 5.677537e+00
 5.796980e-01	 1.403513e+00	 5.500464e+00
 6.651552e-01	 1.373324e+00	 6.520384e+00
 6.487369e-01	 1.381155e+00	 6.320443e+00
 6.322608e-01	 1.388775e+00	 6.119564e+00
 6.157310e-01	 1.396182e+00	 5.920659e+00
 5.991513e-01	 1.403377e+00	 5.728962e+00
 5.825258e-01	 1.410359e+00	 5.551894e+00
 6.683841e-01	 1.379991e+00	 6.565393e+00
 6.518861e-01	 1.387860e+00	 6.364819e+00
 6.353300e-01	 1.395517e+00	 6.163610e+00
 6.187200e-01	 1.402960e+00	 5.964643e+00
 6.020598e-01	 1.410190e+00	 5.773171e+00
 5.853536e-01	 1.417206e+00	 5.596692e+00
 6.716130e-01	 1.386657e+00	 6.611266e+00
 6.550353e-01	 1.394565e+00	 6.408193e+00
 6.383993e-01	 1.402258e+00	 6.204282e+00
 6.217090e-01	 1.409738e+00	 6.003190e+00
 6.049683e-01	 1.417002e+00	 5.811035e+00
 5.881814e-01	 1.424052e+00	 5.636244e+00
 6.748419e-01	 1.393324e+00	 6.658894e+00
 6.581845e-01	 1.401269e+00	 6.451131e+00
 6.414685e-01	 1.409000e+00	 6.242044e+00
 6.246979e-01	 1.416515e+00	 6.036881e+00
 6.078768e-01	 1.423815e+00	 5.843444e+00
 5.910092e-01	 1.430899e+00	 5.671943e+00
 6.780708e-01	 1.399990e+00	 6.709193e+00
 6.613337e-01	 1.407974e+00	 6.494228e+00
 6.445377e-01	 1.415742e+00	 6.277393e+00
 6.276869e-01	 1.423293e+00	 6.066319e+00
 6.107853e-01	 1.430627e+00	 5.871314e+00
 5.938370e-01	 1.437745e+00	 5.705197e+00
 5.796980e-01	 1.403513e+00	 5.500464e+00
 5.631114e-01	 1.410250e+00	 5.328159e+00
 5.464869e-01	 1.416775e+00	 5.144386e+00
 5.298283e-01	 1.423088e+00	 4.952607e+00
 5.131396e-01	 1.429191e+00	 4.757624e+00
 4.964246e-01	 1.435082e+00	 4.565402e+00
 5.825258e-01	 1.410359e+00	 5.551894e+00
 5.658582e-01	 1.417129e+00	 5.376815e+00
 5.491526e-01	 1.423686e+00	 5.188066e+00
 5.324129e-01	 1.430030e+00	 4.991252e+00
 5.156428e-01	 1.436162e+00	 4.793395e+00
 4.988461e-01	 1.442083e+00	 4.602737e+00
 5.853536e-01	 1.417206e+00	 5.596692e+00
 5.686051e-01	 1.424008e+00	 5.421948e+00
 5.518184e-01	 1.430597e+00	 5.232979e+00
 5.349974e-01	 1.436972e+00	 5.036029e+00
 5.181459e-01	 1.443134e+00	 4.838806e+00
 5.012677e-01	 1.449083e+00	 4.650291e+00
 5.881814e-01	 1.424052e+00	 5.636244e+00
 5.713520e-01	 1.430887e+00	 5.465370e+00
 5.544842e-01	 1.437508e+00	 5.281026e+00
 5.375819e-01	 1.443914e+00	 5.088606e+00
 5.206490e-01	 1.450106e+00	 4.895003e+00
 5.036893e-01	 1.456083e+00	 4.708417e+00
 5.910092e-01	 1.430899e+00	 5.671943e+00
 5.740989e-01	 1.437767e+00	 5.508897e+00
 5.571500e-01	 1.444419e+00	 5.334107e+00
 5.401664e-01	 1.450856e+00	 5.150655e+00
 5.231521e-01	 1.457077e+00	 4.963144e+00
 5.061109e-01	 1.463084e+00	 4.777491e+00
 5.938370e-01	 1.437745e+00	 5.705197e+00
 5.768458e-01	 1.444646e+00	 5.554345e+00
 5.598158e-01	 1.451330e+00	 5.394119e+00
 5.427510e-01	 1.457798e+00	 5.223854e+00
 5.256552e-01	 1.464049e+00	 5.044395e+00
 5.085325e-01	 1.470084e+00	 4.857913e+00
 4.964246e-01	 1.435082e+00	 4.565402e+00
 4.796869e-01	 1.440763e+00	 4.390151e+00
 4.629304e-01	 1.446234e+00	 4.239376e+00
 4.461589e-01	 1.451496e+00	 4.110160e+00
 4.293759e-01	 1.456549e+00	 3.999983e+00
 4.125851e-01	 1.461394e+00	 3.906532e+00
 4.988461e-01	 1.442083e+00	 4.602737e+00
 4.820269e-01	 1.447791e+00	 4.434233e+00
 4.651886e-01	 1.453289e+00	 4.292655e+00
 4.483353e-01	 1.458577e+00	 4.172182e+00
 4.314704e-01	 1.463654e+00	 4.067393e+00
 4.145977e-01	 1.468523e+00	 3.973076e+00
 5.012677e-01	 1.449083e+00	 4.650291e+00
 4.843668e-01	 1.454820e+00	 4.484767e+00
 4.674468e-01	 1.460344e+00	 4.344718e+00
 4.505116e-01	 1.465657e+00	 4.222680e+00
 4.335649e-01	 1.470759e+00	 4.111601e+00
 4.166103e-01	 1.475651e+00	 4.004644e+00
 5.036893e-01	 1.456083e+00	 4.708417e+00
 4.867067e-01	 1.461848e+00	 4.541305e+00
 4.697050e-01	 1.467399e+00	 4.394550e+00
 4.526880e-01	 1.472737e+00	 4.260285e+00
 4.356594e-01	 1.477864e+00	 4.131076e+00
 4.186229e-01	 1.482780e+00	 4.001158e+00
 5.061109e-01	 1.463084e+00	 4.777491e+00
 4.890467e-01	 1.468876e+00	 4.603436e+00
 4.719632e-01	 1.474454e+00	 4.441179e+00
 4.548644e-01	 1.479818e+00	 4.283674e+00
 4.377539e-01	 1.484969e+00	 4.135158e+00
 4.206356e-01	 1.489909e+00	 4.017527e+00
 5.085325e-01	 1.470084e+00	 4.857913e+00
 4.913866e-01	 1.475904e+00	 4.670787e+00
 4.742214e-01	 1.481508e+00	 4.483684e+00
 4.570408e-01	 1.486898e+00	 4.318638e+00
 4.398485e-01	 1.492075e+00	 4.190217e+00
 4.226482e-01	 1.497038e+00	 4.082466e+00
 4.125851e-01	 1.461394e+00	 3.906532e+00
 3.957902e-01	 1.466032e+00	 3.779244e+00
 3.789947e-01	 1.470463e+00	 3.599588e+00
 3.622021e-01	 1.474689e+00	 3.409003e+00
 3.454160e-01	 1.478711e+00	 3.226356e+00
 3.286397e-01	 1.482530e+00	 3.086136e+00
 4.145977e-01	 1.468523e+00	 3.973076e+00
 3.977209e-01	 1.473183e+00	 3.838371e+00
 3.808435e-01	 1.477636e+00	 3.647731e+00
 3.639690e-01	 1.481883e+00	 3.446179e+00
 3.471009e-01	 1.485924e+00	 3.266207e+00
 3.302428e-01	 1.489762e+00	 3.141614e+00
 4.166103e-01	 1.475651e+00	 4.004644e+00
 3.996516e-01	 1.480334e+00	 3.852024e+00
 3.826922e-01	 1.484809e+00	 3.650231e+00
 3.657358e-01	 1.489076e+00	 3.462900e+00
 3.487859e-01	 1.493137e+00	 3.303956e+00
 3.318459e-01	 1.496993e+00	 3.193753e+00
 4.186229e-01	 1.482780e+00	 4.001158e+00
 4.015823e-01	 1.487486e+00	 3.847938e+00
 3.845410e-01	 1.491982e+00	 3.664601e+00
 3.675027e-01	 1.496270e+00	 3.491721e+00
 3.504709e-01	 1.500351e+00	 3.345515e+00
 3.334491e-01	 1.504225e+00	 3.243926e+00
 4.206356e-01	 1.489909e+00	 4.017527e+00
 4.035129e-01	 1.494637e+00	 3.878120e+00
 3.863897e-01	 1.499155e+00	 3.702474e+00
 3.692695e-01	 1.503464e+00	 3.533504e+00
 3.521558e-01	 1.507564e+00	 3.391998e+00
 3.350522e-01	 1.511457e+00	 3.293501e+00
 4.226482e-01	 1.497038e+00	 4.082466e+00
 4.054436e-01	 1.501788e+00	 3.943887e+00
 3.882385e-01	 1.506328e+00	 3.764400e+00
 3.710363e-01	 1.510657e+00	 3.589137e+00
 3.538408e-01	 1.514777e+00	 3.444509e+00
 3.366553e-01	 1.518689e+00	 3.343838e+00
 3.286397e-01	 1.482530e+00	 3.086136e+00
 3.118766e-01	 1.486147e+00	 2.986010e+00
 2.951302e-01	 1.489563e+00	 2.894011e+00
 2.784035e-01	 1.492779e+00	 2.807554e+00
 2.617000e-01	 1.495798e+00	 2.721224e+00
 2.450227e-01	 1.498620e+00	 2.627302e+00
 3.302428e-01	 1.489762e+00	 3.141614e+00
 3.133980e-01	 1.493396e+00	 3.052317e+00
 2.965698e-01	 1.496829e+00	 2.963034e+00
 2.797616e-01	 1.500061e+00	 2.873815e+00
 2.629766e-01	 1.503095e+00	 2.781894e+00
 2.462180e-01	 1.505930e+00	 2.682208e+00
 3.318459e-01	 1.496993e+00	 3.193753e+00
 3.149193e-01	 1.500646e+00	 3.111958e+00
 2.980095e-01	 1.504095e+00	 3.024374e+00
 2.811197e-01	 1.507343e+00	 2.933003e+00
 2.642532e-01	 1.510391e+00	 2.837048e+00
 2.474132e-01	 1.513241e+00	 2.733422e+00
 3.334491e-01	 1.504225e+00	 3.243926e+00
 3.164407e-01	 1.507895e+00	 3.166511e+00
 2.994491e-01	 1.511361e+00	 3.079702e+00
 2.824777e-01	 1.514625e+00	 2.986782e+00
 2.655298e-01	 1.517688e+00	 2.888253e+00
 2.486084e-01	 1.520551e+00	 2.782343e+00
 3.350522e-01	 1.511457e+00	 3.293501e+00
 3.179620e-01	 1.515144e+00	 3.217545e+00
 3.008888e-01	 1.518627e+00	 3.130680e+00
 2.838358e-01	 1.521907e+00	 3.036809e+00
 2.668063e-01	 1.524984e+00	 2.937073e+00
 2.498037e-01	 1.527862e+00	 2.830361e+00
 3.366553e-01	 1.518689e+00	 3.343838e+00
 3.194834e-01	 1.522394e+00	 3.266621e+00
 3.023285e-01	 1.525893e+00	 3.178961e+00
 2.851939e-01	 1.529189e+00	 3.084729e+00
 2.680829e-01	 1.532281e+00	 2.985063e+00
 2.509989e-01	 1.535172e+00	 2.878866e+00
 2.450227e-01	 1.498620e+00	 2.627302e+00
 2.283749e-01	 1.501247e+00	 2.529999e+00
 2.117595e-01	 1.503681e+00	 2.440940e+00
 1.951795e-01	 1.505923e+00	 2.361288e+00
 1.786380e-01	 1.507974e+00	 2.291411e+00
 1.621378e-01	 1.509838e+00	 2.231215e+00
 2.462180e-01	 1.505930e+00	 2.682208e+00
 2.294889e-01	 1.508570e+00	 2.581185e+00
 2.127924e-01	 1.511016e+00	 2.490425e+00
 1.961316e-01	 1.513269e+00	 2.410378e+00
 1.795094e-01	 1.515330e+00	 2.340705e+00
 1.629287e-01	 1.517203e+00	 2.280606e+00
 2.474132e-01	 1.513241e+00	 2.733422e+00
 2.306029e-01	 1.515894e+00	 2.630119e+00
 2.138254e-01	 1.518351e+00	 2.538584e+00
 1.970837e-01	 1.520615e+00	 2.458688e+00
 1.803808e-01	 1.522686e+00	 2.389520e+00
 1.637196e-01	 1.524568e+00	 2.329709e+00
 2.486084e-01	 1.520551e+00	 2.782343e+00
 2.317170e-01	 1.523217e+00	 2.677999e+00
 2.148584e-01	 1.525686e+00	 2.586438e+00
 1.980358e-01	 1.527961e+00	 2.507082e+00
 1.812522e-01	 1.530042e+00	 2.438579e+00
 1.645105e-01	 1.531933e+00	 2.379128e+00
 2.498037e-01	 1.527862e+00	 2.830361e+00
 2.328310e-01	 1.530540e+00	 2.726023e+00
 2.158914e-01	 1.533021e+00	 2.635008e+00
 1.989879e-01	 1.535307e+00	 2.556422e+00
 1.821236e-01	 1.537398e+00	 2.488609e+00
 1.653015e-01	 1.539298e+00	 2.429468e+00
 2.509989e-01	 1.535172e+00	 2.878866e+00
 2.339450e-01	 1.537863e+00	 2.775386e+00
 2.169243e-01	 1.540356e+00	 2.685317e+00
 1.999400e-01	 1.542653e+00	 2.607578e+00
 1.829950e-01	 1.544754e+00	 2.540340e+00
 1.660924e-01	 1.546663e+00	 2.481339e+00
 1.621378e-01	 1.509838e+00	 2.231215e+00
 1.456817e-01	 1.511514e+00	 2.178548e+00
 1.292726e-01	 1.513006e+00	 2.130688e+00
 1.129130e-01	 1.514315e+00	 2.086903e+00
 9.660576e-02	 1.515442e+00	 2.047159e+00
 8.035334e-02	 1.516391e+00	 2.012355e+00
 1.629287e-01	 1.517203e+00	 2.280606e+00
 1.463924e-01	 1.518887e+00	 2.227614e+00
 1.299032e-01	 1.520386e+00	 2.179318e+00
 1.134638e-01	 1.521702e+00	 2.135209e+00
 9.707701e-02	 1.522835e+00	 2.095450e+00
 8.074530e-02	 1.523788e+00	 2.061101e+00
 1.637196e-01	 1.524568e+00	 2.329709e+00
 1.471030e-01	 1.526261e+00	 2.276597e+00
 1.305338e-01	 1.527767e+00	 2.228085e+00
 1.140146e-01	 1.529089e+00	 2.183837e+00
 9.754825e-02	 1.530227e+00	 2.144160e+00
 8.113727e-02	 1.531185e+00	 2.110234e+00
 1.645105e-01	 1.531933e+00	 2.379128e+00
 1.478137e-01	 1.533634e+00	 2.325992e+00
 1.311644e-01	 1.535148e+00	 2.277381e+00
 1.145654e-01	 1.536475e+00	 2.233084e+00
 9.801950e-02	 1.537620e+00	 2.193509e+00
 8.152924e-02	 1.538582e+00	 2.159904e+00
 1.653015e-01	 1.539298e+00	 2.429468e+00
 1.485243e-01	 1.541007e+00	 2.376296e+00
 1.317950e-01	 1.542528e+00	 2.327602e+00
 1.151162e-01	 1.543862e+00	 2.283253e+00
 9.849075e-02	 1.545012e+00	 2.243715e+00
 8.192121e-02	 1.545979e+00	 2.210262e+00
 1.660924e-01	 1.546663e+00	 2.481339e+00
 1.492349e-01	 1.548380e+00	 2.428011e+00
 1.324256e-01	 1.549909e+00	 2.379145e+00
 1.156670e-01	 1.551249e+00	 2.334647e+00
 9.896200e-02	 1.552404e+00	 2.294998e+00
 8.231317e-02	 1.553376e+00	 2.261458e+00
 8.035334e-02	 1.516391e+00	 2.012355e+00
 6.415829e-02	 1.517163e+00	 1.984709e+00
 4.802307e-02	 1.517759e+00	 1.963646e+00
 3.195007e-02	 1.518182e+00	 1.947952e+00
 1.594163e-02	 1.518435e+00	 1.938245e+00
-7.182127e-07	 1.518539e+00	 2.670625e+00
 8.074530e-02	 1.523788e+00	 2.061101e+00
 6.447125e-02	 1.524563e+00	 2.034347e+00
 4.825733e-02	 1.525163e+00	 2.014274e+00
 3.210592e-02	 1.525588e+00	 1.999325e+00
 1.601939e-02	 1.525842e+00	 1.989729e+00
-7.081582e-07	 1.525946e+00	 2.744160e+00
 8.113727e-02	 1.531185e+00	 2.110234e+00
 6.478422e-02	 1.531964e+00	 2.084185e+00
 4.849159e-02	 1.532566e+00	 2.064853e+00
 3.226178e-02	 1.532994e+00	 2.050450e+00
 1.609715e-02	 1.533249e+00	 2.040930e+00
-6.978861e-07	 1.533353e+00	 2.816221e+00
 8.152924e-02	 1.538582e+00	 2.159904e+00
 6.509719e-02	 1.539365e+00	 2.134321e+00
 4.872584e-02	 1.539970e+00	 2.115440e+00
 3.241763e-02	 1.540400e+00	 2.101359e+00
 1.617492e-02	 1.540656e+00	 2.091868e+00
-6.873970e-07	 1.540761e+00	 2.886838e+00
 8.192121e-02	 1.545979e+00	 2.210262e+00
 6.541016e-02	 1.546766e+00	 2.184850e+00
 4.896010e-02	 1.547374e+00	 2.166091e+00
 3.257349e-02	 1.547805e+00	 2.152082e+00
 1.625268e-02	 1.548063e+00	 2.142560e+00
-6.766914e-07	 1.548168e+00	 2.956032e+00
 8.231317e-02	 1.553376e+00	 2.261458e+00
 6.572312e-02	 1.554167e+00	 2.235869e+00
 4.919436e-02	 1.554777e+00	 2.216861e+00
 3.272934e-02	 1.555211e+00	 2.202646e+00
 1.633045e-02	 1.555470e+00	 2.193019e+00
-6.657699e-07	 1.555576e+00	 3.023824e+00
 1.555556e+00	 0.000000e+00	 1.495187e+01
 1.555470e+00	 1.633045e-02	 1.495394e+01
 1.555211e+00	 3.272934e-02	 1.495478e+01
 1.554777e+00	 4.919436e-02	 1.495493e+01
 1.554167e+00	 6.572312e-02	 1.495455e+01
 1.553376e+00	 8.231317e-02	 1.495349e+01
 1.562963e+00	 0.000000e+00	 1.488285e+01
 1.562877e+00	 1.640821e-02	 1.488477e+01
 1.562617e+00	 3.288519e-02	 1.488550e+01
 1.562181e+00	 4.942862e-02	 1.488562e+01
 1.561567e+00	 6.603609e-02	 1.488539e+01
 1.560773e+00	 8.270514e-02	 1.488468e+01
 1.570370e+00	 0.000000e+00	 1.481533e+01
 1.570284e+00	 1.648597e-02	 1.481706e+01
 1.570023e+00	 3.304105e-02	 1.481769e+01
 1.569585e+00	 4.966288e-02	 1.481783e+01
 1.568968e+00	 6.634906e-02	 1.481777e+01
 1.568170e+00	 8.309711e-02	 1.481746e+01
 1.577778e+00	 0.000000e+00	 1.474927e+01
 1.577691e+00	 1.656374e-02	 1.475077e+01
 1.577429e+00	 3.319690e-02	 1.475129e+01
 1.576989e+00	 4.989714e-02	 1.475148e+01
 1.576369e+00	 6.666203e-02	 1.475164e+01
 1.575567e+00	 8.348908e-02	 1.475174e+01
 1.585185e+00	 0.000000e+00	 1.468465e+01
 1.585098e+00	 1.664150e-02	 1.468585e+01
 1.584834e+00	 3.335276e-02	 1.468626e+01
 1.584392e+00	 5.013140e-02	 1.468651e+01
 1.583770e+00	 6.697499e-02	 1.468692e+01
 1.582964e+00	 8.388104e-02	 1.468747e+01
 1.592593e+00	 0.000000e+00	 1.462143e+01
 1.592505e+00	 1.671927e-02	 1.462227e+01
 1.592240e+00	 3.350861e-02	 1.462254e+01
 1.591796e+00	 5.036566e-02	 1.462287e+01
 1.591170e+00	 6.728796e-02	 1.462355e+01
 1.590361e+00	 8.427301e-02	 1.462458e+01
 1.553376e+00	 8.231317e-02	 1.495349e+01
 1.552404e+00	 9.896200e-02	 1.495223e+01
 1.551249e+00	 1.156670e-01	 1.495182e+01
 1.549909e+00	 1.324256e-01	 1.495247e+01
 1.548380e+00	 1.492349e-01	 1.495412e+01
 1.546663e+00	 1.660924e-01	 1.495653e+01
 1.560773e+00	 8.270514e-02	 1.488468e+01
 1.559797e+00	 9.943324e-02	 1.488382e+01
 1.558636e+00	 1.162178e-01	 1.488366e+01
 1.557289e+00	 1.330562e-01	 1.488446e+01
 1.555754e+00	 1.499456e-01	 1.488622e+01
 1.554028e+00	 1.668833e-01	 1.488874e+01
 1.568170e+00	 8.309711e-02	 1.481746e+01
 1.567189e+00	 9.990449e-02	 1.481701e+01
 1.566023e+00	 1.167686e-01	 1.481711e+01
 1.564670e+00	 1.336868e-01	 1.481806e+01
 1.563127e+00	 1.506562e-01	 1.481994e+01
 1.561393e+00	 1.676742e-01	 1.482259e+01
 1.575567e+00	 8.348908e-02	 1.475174e+01
 1.574582e+00	 1.003757e-01	 1.475172e+01
 1.573410e+00	 1.173194e-01	 1.475206e+01
 1.572050e+00	 1.343174e-01	 1.475315e+01
 1.570500e+00	 1.513669e-01	 1.475513e+01
 1.568758e+00	 1.684651e-01	 1.475791e+01
 1.582964e+00	 8.388104e-02	 1.468747e+01
 1.581974e+00	 1.008470e-01	 1.468788e+01
 1.580797e+00	 1.178702e-01	 1.468844e+01
 1.579431e+00	 1.349479e-01	 1.468962e+01
 1.577873e+00	 1.520775e-01	 1.469165e+01
 1.576123e+00	 1.692560e-01	 1.469451e+01
 1.590361e+00	 8.427301e-02	 1.462458e+01
 1.589366e+00	 1.013182e-01	 1.462540e+01
 1.588184e+00	 1.184210e-01	 1.462615e+01
 1.586811e+00	 1.355785e-01	 1.462736e+01
 1.585247e+00	 1.527882e-01	 1.462935e+01
 1.583488e+00	 1.700470e-01	 1.463220e+01
 1.546663e+00	 1.660924e-01	 1.495653e+01
 1.544754e+00	 1.829950e-01	 1.495880e+01
 1.542653e+00	 1.999400e-01	 1.495957e+01
 1.540356e+00	 2.169243e-01	 1.495765e+01
 1.537863e+00	 2.339450e-01	 1.495178e+01
 1.535172e+00	 2.509989e-01	 1.494075e+01
 1.554028e+00	 1.668833e-01	 1.488874e+01
 1.552110e+00	 1.838664e-01	 1.489127e+01
 1.549999e+00	 2.008921e-01	 1.489257e+01
 1.547691e+00	 2.179573e-01	 1.489141e+01
 1.545186e+00	 2.350590e-01	 1.488653e+01
 1.542482e+00	 2.521941e-01	 1.487668e+01
 1.561393e+00	 1.676742e-01	 1.482259e+01
 1.559466e+00	 1.847378e-01	 1.482543e+01
 1.557345e+00	 2.018442e-01	 1.482727e+01
 1.555026e+00	 2.189903e-01	 1.482687e+01
 1.552509e+00	 2.361730e-01	 1.482292e+01
 1.549793e+00	 2.533894e-01	 1.481413e+01
 1.568758e+00	 1.684651e-01	 1.475791e+01
 1.566822e+00	 1.856092e-01	 1.476106e+01
 1.564691e+00	 2.027963e-01	 1.476345e+01
 1.562361e+00	 2.200233e-01	 1.476380e+01
 1.559833e+00	 2.372871e-01	 1.476074e+01
 1.557103e+00	 2.545846e-01	 1.475292e+01
 1.576123e+00	 1.692560e-01	 1.469451e+01
 1.574178e+00	 1.864807e-01	 1.469793e+01
 1.572036e+00	 2.037484e-01	 1.470087e+01
 1.569696e+00	 2.210562e-01	 1.470197e+01
 1.567156e+00	 2.384011e-01	 1.469979e+01
 1.564413e+00	 2.557798e-01	 1.469290e+01
 1.583488e+00	 1.700470e-01	 1.463220e+01
 1.581534e+00	 1.873521e-01	 1.463583e+01
 1.579382e+00	 2.047005e-01	 1.463930e+01
 1.577031e+00	 2.220892e-01	 1.464116e+01
 1.574479e+00	 2.395151e-01	 1.463987e+01
 1.571724e+00	 2.569751e-01	 1.463391e+01
 1.535172e+00	 2.509989e-01	 1.494075e+01
 1.532281e+00	 2.680829e-01	 1.493159e+01
 1.529189e+00	 2.851939e-01	 1.493083e+01
 1.525893e+00	 3.023285e-01	 1.493675e+01
 1.522394e+00	 3.194834e-01	 1.494786e+01
 1.518689e+00	 3.366553e-01	 1.496301e+01
 1.542482e+00	 2.521941e-01	 1.487668e+01
 1.539577e+00	 2.693595e-01	 1.486862e+01
 1.536470e+00	 2.865519e-01	 1.486866e+01
 1.533160e+00	 3.037681e-01	 1.487508e+01
 1.529643e+00	 3.210047e-01	 1.488643e+01
 1.525921e+00	 3.382584e-01	 1.490157e+01
 1.549793e+00	 2.533894e-01	 1.481413e+01
 1.546874e+00	 2.706361e-01	 1.480701e+01
 1.543752e+00	 2.879100e-01	 1.480774e+01
 1.540426e+00	 3.052078e-01	 1.481469e+01
 1.536893e+00	 3.225261e-01	 1.482646e+01
 1.533153e+00	 3.398615e-01	 1.484200e+01
 1.557103e+00	 2.545846e-01	 1.475292e+01
 1.554171e+00	 2.719127e-01	 1.474662e+01
 1.551034e+00	 2.892681e-01	 1.474792e+01
 1.547692e+00	 3.066474e-01	 1.475534e+01
 1.544142e+00	 3.240474e-01	 1.476758e+01
 1.540385e+00	 3.414647e-01	 1.478372e+01
 1.564413e+00	 2.557798e-01	 1.469290e+01
 1.561467e+00	 2.731893e-01	 1.468731e+01
 1.558316e+00	 2.906261e-01	 1.468905e+01
 1.554958e+00	 3.080871e-01	 1.469679e+01
 1.551392e+00	 3.255688e-01	 1.470944e+01
 1.547616e+00	 3.430678e-01	 1.472621e+01
 1.571724e+00	 2.569751e-01	 1.463391e+01
 1.568764e+00	 2.744659e-01	 1.462897e+01
 1.565598e+00	 2.919842e-01	 1.463097e+01
 1.562224e+00	 3.095267e-01	 1.463883e+01
 1.558641e+00	 3.270901e-01	 1.465168e+01
 1.554848e+00	 3.446709e-01	 1.466891e+01
 1.518689e+00	 3.366553e-01	 1.496301e+01
 1.514777e+00	 3.538408e-01	 1.496489e+01
 1.510657e+00	 3.710363e-01	 1.493848e+01
 1.506328e+00	 3.882385e-01	 1.490425e+01
 1.501788e+00	 4.054436e-01	 1.488346e+01
 1.497038e+00	 4.226482e-01	 1.488401e+01
 1.525921e+00	 3.382584e-01	 1.490157e+01
 1.521990e+00	 3.555257e-01	 1.490316e+01
 1.517851e+00	 3.728032e-01	 1.487639e+01
 1.513501e+00	 3.900872e-01	 1.484392e+01
 1.508940e+00	 4.073743e-01	 1.482413e+01
 1.504166e+00	 4.246608e-01	 1.482512e+01
 1.533153e+00	 3.398615e-01	 1.484200e+01
 1.529204e+00	 3.572107e-01	 1.484383e+01
 1.525044e+00	 3.745700e-01	 1.481745e+01
 1.520674e+00	 3.919360e-01	 1.478689e+01
 1.516091e+00	 4.093050e-01	 1.476802e+01
 1.511295e+00	 4.266734e-01	 1.476902e+01
 1.540385e+00	 3.414647e-01	 1.478372e+01
 1.536417e+00	 3.588956e-01	 1.478617e+01
 1.532238e+00	 3.763368e-01	 1.476085e+01
 1.527847e+00	 3.937847e-01	 1.473241e+01
 1.523243e+00	 4.112357e-01	 1.471453e+01
 1.518424e+00	 4.286860e-01	 1.471540e+01
 1.547616e+00	 3.430678e-01	 1.472621e+01
 1.543630e+00	 3.605806e-01	 1.472947e+01
 1.539432e+00	 3.781037e-01	 1.470579e+01
 1.535020e+00	 3.956335e-01	 1.467974e+01
 1.530394e+00	 4.131664e-01	 1.466311e+01
 1.525553e+00	 4.306986e-01	 1.466396e+01
 1.554848e+00	 3.446709e-01	 1.466891e+01
 1.550843e+00	 3.622655e-01	 1.467304e+01
 1.546625e+00	 3.798705e-01	 1.465149e+01
 1.542193e+00	 3.974822e-01	 1.462815e+01
 1.537545e+00	 4.150970e-01	 1.461320e+01
 1.532681e+00	 4.327112e-01	 1.461443e+01
 1.497038e+00	 4.226482e-01	 1.488401e+01
 1.492075e+00	 4.398485e-01	 1.489266e+01
 1.486898e+00	 4.570408e-01	 1.489040e+01
 1.481508e+00	 4.742214e-01	 1.487726e+01
 1.475904e+00	 4.913866e-01	 1.485896e+01
 1.470084e+00	 5.085325e-01	 1.484312e+01
 1.504166e+00	 4.246608e-01	 1.482512e+01
 1.499180e+00	 4.419430e-01	 1.483518e+01
 1.493979e+00	 4.592172e-01	 1.483664e+01
 1.488563e+00	 4.764796e-01	 1.482935e+01
 1.482932e+00	 4.937265e-01	 1.481374e+01
 1.477085e+00	 5.109541e-01	 1.479403e+01
 1.511295e+00	 4.266734e-01	 1.476902e+01
 1.506285e+00	 4.440375e-01	 1.477952e+01
 1.501059e+00	 4.613936e-01	 1.478308e+01
 1.495618e+00	 4.787378e-01	 1.477945e+01
 1.489960e+00	 4.960665e-01	 1.476889e+01
 1.484085e+00	 5.133756e-01	 1.475225e+01
 1.518424e+00	 4.286860e-01	 1.471540e+01
 1.513390e+00	 4.461320e-01	 1.472572e+01
 1.508140e+00	 4.635699e-01	 1.473018e+01
 1.502673e+00	 4.809960e-01	 1.472846e+01
 1.496988e+00	 4.984064e-01	 1.472074e+01
 1.491085e+00	 5.157972e-01	 1.470772e+01
 1.525553e+00	 4.306986e-01	 1.466396e+01
 1.520495e+00	 4.482265e-01	 1.467384e+01
 1.515220e+00	 4.657463e-01	 1.467838e+01
 1.509728e+00	 4.832542e-01	 1.467727e+01
 1.504016e+00	 5.007463e-01	 1.467065e+01
 1.498086e+00	 5.182188e-01	 1.465914e+01
 1.532681e+00	 4.327112e-01	 1.461443e+01
 1.527600e+00	 4.503210e-01	 1.462395e+01
 1.522301e+00	 4.679227e-01	 1.462815e+01
 1.516782e+00	 4.855124e-01	 1.462678e+01
 1.511044e+00	 5.030863e-01	 1.461999e+01
 1.505086e+00	 5.206404e-01	 1.460840e+01
 1.470084e+00	 5.085325e-01	 1.484312e+01
 1.464049e+00	 5.256552e-01	 1.482218e+01
 1.457798e+00	 5.427510e-01	 1.479141e+01
 1.451330e+00	 5.598158e-01	 1.475879e+01
 1.444646e+00	 5.768458e-01	 1.473284e+01
 1.437745e+00	 5.938370e-01	 1.472255e+01
 1.477085e+00	 5.109541e-01	 1.479403e+01
 1.471021e+00	 5.281584e-01	 1.477043e+01
 1.464740e+00	 5.453355e-01	 1.473918e+01
 1.458241e+00	 5.624816e-01	 1.470807e+01
 1.451525e+00	 5.795927e-01	 1.468546e+01
 1.444591e+00	 5.966647e-01	 1.468033e+01
 1.484085e+00	 5.133756e-01	 1.475225e+01
 1.477992e+00	 5.306615e-01	 1.472419e+01
 1.471682e+00	 5.479200e-01	 1.469009e+01
 1.465152e+00	 5.651474e-01	 1.465875e+01
 1.458405e+00	 5.823396e-01	 1.463849e+01
 1.451438e+00	 5.994925e-01	 1.463827e+01
 1.491085e+00	 5.157972e-01	 1.470772e+01
 1.484964e+00	 5.331646e-01	 1.468345e+01
 1.478623e+00	 5.505046e-01	 1.464621e+01
 1.472063e+00	 5.678132e-01	 1.461270e+01
 1.465284e+00	 5.850864e-01	 1.459323e+01
 1.458284e+00	 6.023203e-01	 1.459679e+01
 1.498086e+00	 5.182188e-01	 1.465914e+01
 1.491936e+00	 5.356677e-01	 1.463839e+01
 1.485565e+00	 5.530891e-01	 1.460688e+01
 1.478975e+00	 5.704790e-01	 1.457173e+01
 1.472163e+00	 5.878333e-01	 1.455097e+01
 1.465131e+00	 6.051481e-01	 1.455635e+01
 1.505086e+00	 5.206404e-01	 1.460840e+01
 1.498907e+00	 5.381708e-01	 1.458924e+01
 1.492507e+00	 5.556736e-01	 1.456261e+01
 1.485886e+00	 5.731448e-01	 1.453454e+01
 1.479042e+00	 5.905802e-01	 1.451301e+01
 1.471977e+00	 6.079759e-01	 1.451742e+01
 1.437745e+00	 5.938370e-01	 1.472255e+01
 1.430627e+00	 6.107853e-01	 1.470897e+01
 1.423293e+00	 6.276869e-01	 1.467302e+01
 1.415742e+00	 6.445377e-01	 1.462374e+01
 1.407974e+00	 6.613337e-01	 1.456993e+01
 1.399990e+00	 6.780708e-01	 1.452013e+01
 1.444591e+00	 5.966647e-01	 1.468033e+01
 1.437440e+00	 6.136938e-01	 1.467144e+01
 1.430070e+00	 6.306759e-01	 1.463769e+01
 1.422483e+00	 6.476070e-01	 1.458854e+01
 1.414679e+00	 6.644829e-01	 1.453324e+01
 1.406657e+00	 6.812997e-01	 1.448073e+01
 1.451438e+00	 5.994925e-01	 1.463827e+01
 1.444252e+00	 6.166023e-01	 1.463428e+01
 1.436848e+00	 6.336649e-01	 1.460304e+01
 1.429225e+00	 6.506762e-01	 1.455431e+01
 1.421383e+00	 6.676321e-01	 1.449769e+01
 1.413324e+00	 6.845286e-01	 1.444251e+01
 1.458284e+00	 6.023203e-01	 1.459679e+01
 1.451065e+00	 6.195108e-01	 1.459707e+01
 1.443625e+00	 6.366539e-01	 1.456814e+01
 1.435966e+00	 6.537454e-01	 1.451993e+01
 1.428088e+00	 6.707813e-01	 1.446232e+01
 1.419990e+00	 6.877575e-01	 1.440499e+01
 1.465131e+00	 6.051481e-01	 1.455635e+01
 1.457877e+00	 6.224193e-01	 1.455943e+01
 1.450403e+00	 6.396429e-01	 1.453208e+01
 1.442708e+00	 6.568146e-01	 1.448433e+01
 1.434793e+00	 6.739305e-01	 1.442623e+01
 1.426657e+00	 6.909864e-01	 1.436776e+01
 1.471977e+00	 6.079759e-01	 1.451742e+01
 1.464690e+00	 6.253278e-01	 1.452100e+01
 1.457181e+00	 6.426319e-01	 1.449403e+01
 1.449450e+00	 6.598839e-01	 1.444650e+01
 1.441497e+00	 6.770797e-01	 1.438854e+01
 1.433323e+00	 6.942153e-01	 1.433043e+01
 1.399990e+00	 6.780708e-01	 1.452013e+01
 1.391791e+00	 6.947450e-01	 1.447215e+01
 1.383377e+00	 7.113522e-01	 1.442544e+01
 1.374748e+00	 7.278884e-01	 1.439077e+01
 1.365905e+00	 7.443495e-01	 1.437602e+01
 1.356850e+00	 7.607315e-01	 1.430910e+01
 1.406657e+00	 6.812997e-01	 1.448073e+01
 1.398419e+00	 6.980533e-01	 1.443180e+01
 1.389964e+00	 7.147396e-01	 1.438881e+01
 1.381294e+00	 7.313545e-01	 1.436293e+01
 1.372409e+00	 7.478940e-01	 1.435456e+01
 1.363311e+00	 7.643540e-01	 1.428397e+01
 1.413324e+00	 6.845286e-01	 1.444251e+01
 1.405046e+00	 7.013616e-01	 1.439259e+01
 1.396552e+00	 7.181270e-01	 1.435336e+01
 1.387841e+00	 7.348207e-01	 1.433640e+01
 1.378914e+00	 7.514385e-01	 1.433002e+01
 1.369772e+00	 7.679766e-01	 1.425722e+01
 1.419990e+00	 6.877575e-01	 1.440499e+01
 1.411674e+00	 7.046699e-01	 1.435463e+01
 1.403139e+00	 7.215144e-01	 1.431952e+01
 1.394387e+00	 7.382868e-01	 1.431168e+01
 1.385418e+00	 7.549831e-01	 1.430336e+01
 1.376233e+00	 7.715991e-01	 1.422944e+01
 1.426657e+00	 6.909864e-01	 1.436776e+01
 1.418301e+00	 7.079782e-01	 1.431802e+01
 1.409727e+00	 7.249018e-01	 1.428773e+01
 1.400934e+00	 7.417529e-01	 1.428915e+01
 1.391922e+00	 7.585276e-01	 1.427554e+01
 1.382694e+00	 7.752216e-01	 1.420131e+01
 1.433323e+00	 6.942153e-01	 1.433043e+01
 1.424929e+00	 7.112865e-01	 1.428292e+01
 1.416314e+00	 7.282891e-01	 1.425847e+01
 1.407480e+00	 7.452191e-01	 1.426652e+01
 1.398427e+00	 7.620721e-01	 1.424758e+01
 1.389155e+00	 7.788442e-01	 1.417350e+01
 1.356850e+00	 7.607315e-01	 1.430910e+01
 1.347582e+00	 7.770303e-01	 1.421224e+01
 1.338103e+00	 7.932420e-01	 1.413710e+01
 1.328415e+00	 8.093624e-01	 1.407151e+01
 1.318518e+00	 8.253876e-01	 1.400246e+01
 1.308413e+00	 8.413136e-01	 1.391627e+01
 1.363311e+00	 7.643540e-01	 1.428397e+01
 1.353999e+00	 7.807305e-01	 1.418722e+01
 1.344475e+00	 7.970193e-01	 1.411286e+01
 1.334740e+00	 8.132165e-01	 1.404860e+01
 1.324796e+00	 8.293180e-01	 1.398119e+01
 1.314644e+00	 8.453198e-01	 1.389660e+01
 1.369772e+00	 7.679766e-01	 1.425722e+01
 1.360416e+00	 7.844306e-01	 1.416172e+01
 1.350847e+00	 8.007966e-01	 1.408880e+01
 1.341066e+00	 8.170706e-01	 1.402606e+01
 1.331075e+00	 8.332484e-01	 1.396010e+01
 1.320874e+00	 8.493261e-01	 1.387666e+01
 1.376233e+00	 7.715991e-01	 1.422944e+01
 1.366833e+00	 7.881308e-01	 1.413602e+01
 1.357219e+00	 8.045740e-01	 1.406495e+01
 1.347392e+00	 8.209247e-01	 1.400385e+01
 1.337353e+00	 8.371788e-01	 1.393924e+01
 1.327105e+00	 8.533323e-01	 1.385674e+01
 1.382694e+00	 7.752216e-01	 1.420131e+01
 1.373250e+00	 7.918309e-01	 1.411038e+01
 1.363591e+00	 8.083513e-01	 1.404139e+01
 1.353718e+00	 8.247788e-01	 1.398199e+01
 1.343632e+00	 8.411092e-01	 1.391871e+01
 1.333335e+00	 8.573386e-01	 1.383714e+01
 1.389155e+00	 7.788442e-01	 1.417350e+01
 1.379667e+00	 7.955310e-01	 1.408515e+01
 1.369963e+00	 8.121287e-01	 1.401823e+01
 1.360044e+00	 8.286329e-01	 1.396051e+01
 1.349911e+00	 8.450397e-01	 1.389862e+01
 1.339566e+00	 8.613448e-01	 1.381822e+01
 1.308413e+00	 8.413136e-01	 1.391627e+01
 1.298103e+00	 8.571364e-01	 1.382651e+01
 1.287588e+00	 8.728521e-01	 1.374862e+01
 1.276870e+00	 8.884568e-01	 1.367134e+01
 1.265952e+00	 9.039467e-01	 1.358366e+01
 1.254834e+00	 9.193178e-01	 1.347501e+01
 1.314644e+00	 8.453198e-01	 1.389660e+01
 1.304284e+00	 8.612180e-01	 1.380856e+01
 1.293719e+00	 8.770086e-01	 1.373285e+01
 1.282951e+00	 8.926876e-01	 1.365804e+01
 1.271980e+00	 9.082512e-01	 1.357294e+01
 1.260809e+00	 9.236955e-01	 1.346681e+01
 1.320874e+00	 8.493261e-01	 1.387666e+01
 1.310465e+00	 8.652996e-01	 1.378992e+01
 1.299851e+00	 8.811650e-01	 1.371615e+01
 1.289031e+00	 8.969183e-01	 1.364367e+01
 1.278008e+00	 9.125557e-01	 1.356103e+01
 1.266785e+00	 9.280732e-01	 1.345722e+01
 1.327105e+00	 8.533323e-01	 1.385674e+01
 1.316647e+00	 8.693812e-01	 1.377113e+01
 1.305982e+00	 8.853214e-01	 1.369921e+01
 1.295111e+00	 9.011491e-01	 1.362900e+01
 1.284037e+00	 9.168602e-01	 1.354869e+01
 1.272760e+00	 9.324509e-01	 1.344690e+01
 1.333335e+00	 8.573386e-01	 1.383714e+01
 1.322828e+00	 8.734628e-01	 1.375274e+01
 1.312113e+00	 8.894779e-01	 1.368275e+01
 1.301192e+00	 9.053798e-01	 1.361483e+01
 1.290065e+00	 9.211647e-01	 1.353671e+01
 1.278735e+00	 9.368286e-01	 1.343653e+01
 1.339566e+00	 8.613448e-01	 1.381822e+01
 1.329010e+00	 8.775444e-01	 1.373534e+01
 1.318245e+00	 8.936343e-01	 1.366753e+01
 1.307272e+00	 9.096106e-01	 1.360198e+01
 1.296093e+00	 9.254692e-01	 1.352589e+01
 1.284711e+00	 9.412063e-01	 1.342682e+01
 1.254834e+00	 9.193178e-01	 1.347501e+01
 1.243519e+00	 9.345664e-01	 1.336242e+01
 1.232008e+00	 9.496887e-01	 1.326054e+01
 1.220305e+00	 9.646810e-01	 1.315673e+01
 1.208410e+00	 9.795396e-01	 1.303992e+01
 1.196327e+00	 9.942609e-01	 1.290090e+01
 1.260809e+00	 9.236955e-01	 1.346681e+01
 1.249440e+00	 9.390167e-01	 1.335616e+01
 1.237875e+00	 9.542110e-01	 1.325538e+01
 1.226116e+00	 9.692747e-01	 1.315210e+01
 1.214165e+00	 9.842041e-01	 1.303551e+01
 1.202024e+00	 9.989955e-01	 1.289675e+01
 1.266785e+00	 9.280732e-01	 1.345722e+01
 1.255362e+00	 9.434670e-01	 1.334825e+01
 1.243742e+00	 9.587333e-01	 1.324839e+01
 1.231927e+00	 9.738684e-01	 1.314560e+01
 1.219919e+00	 9.888686e-01	 1.302947e+01
 1.207721e+00	 1.003730e+00	 1.289153e+01
 1.272760e+00	 9.324509e-01	 1.344690e+01
 1.261283e+00	 9.479173e-01	 1.333922e+01
 1.249608e+00	 9.632557e-01	 1.324006e+01
 1.237738e+00	 9.784621e-01	 1.313778e+01
 1.225673e+00	 9.935330e-01	 1.302241e+01
 1.213417e+00	 1.008465e+00	 1.288602e+01
 1.278735e+00	 9.368286e-01	 1.343653e+01
 1.267205e+00	 9.523677e-01	 1.332967e+01
 1.255475e+00	 9.677780e-01	 1.323095e+01
 1.243549e+00	 9.830559e-01	 1.312920e+01
 1.231428e+00	 9.981975e-01	 1.301500e+01
 1.219114e+00	 1.013199e+00	 1.288104e+01
 1.284711e+00	 9.412063e-01	 1.342682e+01
 1.273126e+00	 9.568180e-01	 1.332019e+01
 1.261342e+00	 9.723003e-01	 1.322160e+01
 1.249360e+00	 9.876496e-01	 1.312045e+01
 1.237182e+00	 1.002862e+00	 1.300794e+01
 1.224811e+00	 1.017934e+00	 1.287746e+01
 1.196327e+00	 9.942609e-01	 1.290090e+01
 1.184057e+00	 1.008841e+00	 1.274898e+01
 1.171604e+00	 1.023277e+00	 1.260150e+01
 1.158970e+00	 1.037566e+00	 1.246544e+01
 1.146156e+00	 1.051703e+00	 1.235149e+01
 1.133167e+00	 1.065685e+00	 1.227433e+01
 1.202024e+00	 9.989955e-01	 1.289675e+01
 1.189696e+00	 1.013645e+00	 1.274672e+01
 1.177183e+00	 1.028150e+00	 1.260320e+01
 1.164488e+00	 1.042506e+00	 1.247183e+01
 1.151614e+00	 1.056711e+00	 1.236190e+01
 1.138563e+00	 1.070760e+00	 1.228670e+01
 1.207721e+00	 1.003730e+00	 1.289153e+01
 1.195334e+00	 1.018449e+00	 1.274391e+01
 1.182762e+00	 1.033023e+00	 1.260438e+01
 1.170007e+00	 1.047447e+00	 1.247716e+01
 1.157072e+00	 1.061719e+00	 1.237011e+01
 1.143959e+00	 1.075835e+00	 1.229509e+01
 1.213417e+00	 1.008465e+00	 1.288602e+01
 1.200973e+00	 1.023253e+00	 1.274151e+01
 1.188341e+00	 1.037896e+00	 1.260611e+01
 1.175526e+00	 1.052388e+00	 1.248259e+01
 1.162530e+00	 1.066727e+00	 1.237734e+01
 1.149355e+00	 1.080909e+00	 1.230071e+01
 1.219114e+00	 1.013199e+00	 1.288104e+01
 1.206611e+00	 1.028057e+00	 1.274052e+01
 1.193920e+00	 1.042768e+00	 1.260952e+01
 1.181045e+00	 1.057329e+00	 1.248934e+01
 1.167988e+00	 1.071735e+00	 1.238484e+01
 1.154751e+00	 1.085984e+00	 1.230483e+01
 1.224811e+00	 1.017934e+00	 1.287746e+01
 1.212249e+00	 1.032861e+00	 1.274195e+01
 1.199499e+00	 1.047641e+00	 1.261576e+01
 1.186564e+00	 1.062270e+00	 1.249865e+01
 1.173446e+00	 1.076743e+00	 1.239390e+01
 1.160147e+00	 1.091059e+00	 1.230874e+01
 1.133167e+00	 1.065685e+00	 1.227433e+01
 1.120005e+00	 1.079510e+00	 1.216986e+01
 1.106673e+00	 1.093173e+00	 1.198189e+01
 1.093173e+00	 1.106673e+00	 1.174674e+01
 1.079510e+00	 1.120005e+00	 1.152050e+01
 1.065685e+00	 1.133167e+00	 1.137793e+01
 1.138563e+00	 1.070760e+00	 1.228670e+01
 1.125339e+00	 1.084650e+00	 1.218108e+01
 1.111943e+00	 1.098379e+00	 1.198878e+01
 1.098379e+00	 1.111943e+00	 1.174524e+01
 1.084650e+00	 1.125339e+00	 1.152971e+01
 1.070760e+00	 1.138563e+00	 1.139627e+01
 1.143959e+00	 1.075835e+00	 1.229509e+01
 1.130672e+00	 1.089791e+00	 1.218613e+01
 1.117213e+00	 1.103585e+00	 1.198727e+01
 1.103585e+00	 1.117213e+00	 1.174073e+01
 1.089791e+00	 1.130672e+00	 1.153856e+01
 1.075835e+00	 1.143959e+00	 1.141287e+01
 1.149355e+00	 1.080909e+00	 1.230071e+01
 1.136005e+00	 1.094931e+00	 1.218623e+01
 1.122483e+00	 1.108790e+00	 1.197842e+01
 1.108790e+00	 1.122483e+00	 1.173917e+01
 1.094931e+00	 1.136005e+00	 1.154909e+01
 1.080909e+00	 1.149355e+00	 1.142964e+01
 1.154751e+00	 1.085984e+00	 1.230483e+01
 1.141339e+00	 1.100072e+00	 1.218260e+01
 1.127752e+00	 1.113996e+00	 1.196541e+01
 1.113996e+00	 1.127752e+00	 1.174265e+01
 1.100072e+00	 1.141339e+00	 1.156333e+01
 1.085984e+00	 1.154751e+00	 1.144852e+01
 1.160147e+00	 1.091059e+00	 1.230874e+01
 1.146672e+00	 1.105212e+00	 1.217652e+01
 1.133022e+00	 1.119201e+00	 1.195935e+01
 1.119201e+00	 1.133022e+00	 1.175289e+01
 1.105212e+00	 1.146672e+00	 1.158330e+01
 1.091059e+00	 1.160147e+00	 1.147138e+01
 1.065685e+00	 1.133167e+00	 1.137793e+01
 1.051703e+00	 1.146156e+00	 1.126617e+01
 1.037566e+00	 1.158970e+00	 1.112471e+01
 1.023277e+00	 1.171604e+00	 1.096048e+01
 1.008841e+00	 1.184057e+00	 1.077729e+01
 9.942609e-01	 1.196327e+00	 1.057601e+01
 1.070760e+00	 1.138563e+00	 1.139627e+01
 1.056711e+00	 1.151614e+00	 1.128884e+01
 1.042506e+00	 1.164488e+00	 1.114812e+01
 1.028150e+00	 1.177183e+00	 1.098252e+01
 1.013645e+00	 1.189696e+00	 1.079730e+01
 9.989955e-01	 1.202024e+00	 1.059476e+01
 1.075835e+00	 1.143959e+00	 1.141287e+01
 1.061719e+00	 1.157072e+00	 1.130839e+01
 1.047447e+00	 1.170007e+00	 1.116739e+01
 1.033023e+00	 1.182762e+00	 1.099986e+01
 1.018449e+00	 1.195334e+00	 1.081257e+01
 1.003730e+00	 1.207721e+00	 1.060938e+01
 1.080909e+00	 1.149355e+00	 1.142964e+01
 1.066727e+00	 1.162530e+00	 1.132665e+01
 1.052388e+00	 1.175526e+00	 1.118430e+01
 1.037896e+00	 1.188341e+00	 1.101422e+01
 1.023253e+00	 1.200973e+00	 1.082484e+01
 1.008465e+00	 1.213417e+00	 1.062163e+01
 1.085984e+00	 1.154751e+00	 1.144852e+01
 1.071735e+00	 1.167988e+00	 1.134543e+01
 1.057329e+00	 1.181045e+00	 1.120057e+01
 1.042768e+00	 1.193920e+00	 1.102732e+01
 1.028057e+00	 1.206611e+00	 1.083582e+01
 1.013199e+00	 1.219114e+00	 1.063326e+01
 1.091059e+00	 1.160147e+00	 1.147138e+01
 1.076743e+00	 1.173446e+00	 1.136652e+01
 1.062270e+00	 1.186564e+00	 1.121796e+01
 1.047641e+00	 1.199499e+00	 1.104087e+01
 1.032861e+00	 1.212249e+00	 1.084722e+01
 1.017934e+00	 1.224811e+00	 1.064602e+01
 9.942609e-01	 1.196327e+00	 1.057601e+01
 9.795396e-01	 1.208410e+00	 1.037610e+01
 9.646810e-01	 1.220305e+00	 1.019242e+01
 9.496887e-01	 1.232008e+00	 1.001536e+01
 9.345664e-01	 1.243519e+00	 9.833427e+00
 9.193178e-01	 1.254834e+00	 9.633620e+00
 9.989955e-01	 1.202024e+00	 1.059476e+01
 9.842041e-01	 1.214165e+00	 1.039523e+01
 9.692747e-01	 1.226116e+00	 1.021315e+01
 9.542110e-01	 1.237875e+00	 1.003835e+01
 9.390167e-01	 1.249440e+00	 9.858725e+00
 9.236955e-01	 1.260809e+00	 9.660608e+00
 1.003730e+00	 1.207721e+00	 1.060938e+01
 9.888686e-01	 1.219919e+00	 1.041115e+01
 9.738684e-01	 1.231927e+00	 1.023143e+01
 9.587333e-01	 1.243742e+00	 1.005942e+01
 9.434670e-01	 1.255362e+00	 9.882298e+00
 9.280732e-01	 1.266785e+00	 9.685619e+00
 1.008465e+00	 1.213417e+00	 1.062163e+01
 9.935330e-01	 1.225673e+00	 1.042562e+01
 9.784621e-01	 1.237738e+00	 1.024903e+01
 9.632557e-01	 1.249608e+00	 1.008028e+01
 9.479173e-01	 1.261283e+00	 9.905750e+00
 9.324509e-01	 1.272760e+00	 9.710104e+00
 1.013199e+00	 1.219114e+00	 1.063326e+01
 9.981975e-01	 1.231428e+00	 1.044045e+01
 9.830559e-01	 1.243549e+00	 1.026771e+01
 9.677780e-01	 1.255475e+00	 1.010263e+01
 9.523677e-01	 1.267205e+00	 9.930677e+00
 9.368286e-01	 1.278735e+00	 9.735516e+00
 1.017934e+00	 1.224811e+00	 1.064602e+01
 1.002862e+00	 1.237182e+00	 1.045740e+01
 9.876496e-01	 1.249360e+00	 1.028922e+01
 9.723003e-01	 1.261342e+00	 1.012817e+01
 9.568180e-01	 1.273126e+00	 9.958676e+00
 9.412063e-01	 1.284711e+00	 9.763307e+00
 9.193178e-01	 1.254834e+00	 9.633620e+00
 9.039467e-01	 1.265952e+00	 9.428609e+00
 8.884568e-01	 1.276870e+00	 9.235654e+00
 8.728521e-01	 1.287588e+00	 9.047419e+00
 8.571364e-01	 1.298103e+00	 8.856475e+00
 8.413136e-01	 1.308413e+00	 8.655557e+00
 9.236955e-01	 1.260809e+00	 9.660608e+00
 9.082512e-01	 1.271980e+00	 9.457291e+00
 8.926876e-01	 1.282951e+00	 9.266741e+00
 8.770086e-01	 1.293719e+00	 9.081036e+00
 8.612180e-01	 1.304284e+00	 8.892148e+00
 8.453198e-01	 1.314644e+00	 8.692216e+00
 9.280732e-01	 1.266785e+00	 9.685619e+00
 9.125557e-01	 1.278008e+00	 9.483289e+00
 8.969183e-01	 1.289031e+00	 9.294209e+00
 8.811650e-01	 1.299851e+00	 9.110115e+00
 8.652996e-01	 1.310465e+00	 8.922638e+00
 8.493261e-01	 1.320874e+00	 8.723588e+00
 9.324509e-01	 1.272760e+00	 9.710104e+00
 9.168602e-01	 1.284037e+00	 9.507937e+00
 9.011491e-01	 1.295111e+00	 9.319384e+00
 8.853214e-01	 1.305982e+00	 9.136078e+00
 8.693812e-01	 1.316647e+00	 8.949562e+00
 8.533323e-01	 1.327105e+00	 8.751584e+00
 9.368286e-01	 1.278735e+00	 9.735516e+00
 9.211647e-01	 1.290065e+00	 9.532577e+00
 9.053798e-01	 1.301192e+00	 9.343601e+00
 8.894779e-01	 1.312113e+00	 9.160355e+00
 8.734628e-01	 1.322828e+00	 8.974544e+00
 8.573386e-01	 1.333335e+00	 8.778114e+00
 9.412063e-01	 1.284711e+00	 9.763307e+00
 9.254692e-01	 1.296093e+00	 9.558551e+00
 9.096106e-01	 1.307272e+00	 9.368198e+00
 8.936343e-01	 1.318245e+00	 9.184381e+00
 8.775444e-01	 1.329010e+00	 8.999210e+00
 8.613448e-01	 1.339566e+00	 8.805087e+00
 8.413136e-01	 1.308413e+00	 8.655557e+00
 8.253876e-01	 1.318518e+00	 8.458586e+00
 8.093624e-01	 1.328415e+00	 8.273026e+00
 7.932420e-01	 1.338103e+00	 8.082741e+00
 7.770303e-01	 1.347582e+00	 7.872475e+00
 7.607315e-01	 1.356850e+00	 7.628064e+00
 8.453198e-01	 1.314644e+00	 8.692216e+00
 8.293180e-01	 1.324796e+00	 8.494066e+00
 8.132165e-01	 1.334740e+00	 8.305589e+00
 7.970193e-01	 1.344475e+00	 8.112406e+00
 7.807305e-01	 1.353999e+00	 7.901124e+00
 7.643540e-01	 1.363311e+00	 7.659545e+00
 8.493261e-01	 1.320874e+00	 8.723588e+00
 8.332484e-01	 1.331075e+00	 8.525125e+00
 8.170706e-01	 1.341066e+00	 8.335407e+00
 8.007966e-01	 1.350847e+00	 8.141213e+00
 7.844306e-01	 1.360416e+00	 7.930389e+00
 7.679766e-01	 1.369772e+00	 7.692059e+00
 8.533323e-01	 1.327105e+00	 8.751584e+00
 8.371788e-01	 1.337353e+00	 8.553897e+00
 8.209247e-01	 1.347392e+00	 8.364624e+00
 8.045740e-01	 1.357219e+00	 8.171104e+00
 7.881308e-01	 1.366833e+00	 7.961808e+00
 7.715991e-01	 1.376233e+00	 7.726551e+00
 8.573386e-01	 1.333335e+00	 8.778114e+00
 8.411092e-01	 1.343632e+00	 8.582515e+00
 8.247788e-01	 1.353718e+00	 8.395382e+00
 8.083513e-01	 1.363591e+00	 8.204026e+00
 7.918309e-01	 1.373250e+00	 7.996936e+00
 7.752216e-01	 1.382694e+00	 7.763994e+00
 8.613448e-01	 1.339566e+00	 8.805087e+00
 8.450397e-01	 1.349911e+00	 8.613111e+00
 8.286329e-01	 1.360044e+00	 8.429822e+00
 8.121287e-01	 1.369963e+00	 8.241928e+00
 7.955310e-01	 1.379667e+00	 8.037337e+00
 7.788442e-01	 1.389155e+00	 7.805382e+00
 7.607315e-01	 1.356850e+00	 7.628064e+00
 7.443495e-01	 1.365905e+00	 7.400521e+00
 7.278884e-01	 1.374748e+00	 7.224998e+00
 7.113522e-01	 1.383377e+00	 7.066506e+00
 6.947450e-01	 1.391791e+00	 6.901479e+00
 6.780708e-01	 1.399990e+00	 6.709193e+00
 7.643540e-01	 1.363311e+00	 7.659545e+00
 7.478940e-01	 1.372409e+00	 7.437817e+00
 7.313545e-01	 1.381294e+00	 7.269299e+00
 7.147396e-01	 1.389964e+00	 7.116125e+00
 6.980533e-01	 1.398419e+00	 6.952538e+00
 6.812997e-01	 1.406657e+00	 6.756494e+00
 7.679766e-01	 1.369772e+00	 7.692059e+00
 7.514385e-01	 1.378914e+00	 7.474747e+00
 7.348207e-01	 1.387841e+00	 7.310012e+00
 7.181270e-01	 1.396552e+00	 7.159240e+00
 7.013616e-01	 1.405046e+00	 6.995173e+00
 6.845286e-01	 1.413324e+00	 6.795711e+00
 7.715991e-01	 1.376233e+00	 7.726551e+00
 7.549831e-01	 1.385418e+00	 7.511749e+00
 7.382868e-01	 1.394387e+00	 7.347435e+00
 7.215144e-01	 1.403139e+00	 7.196350e+00
 7.046699e-01	 1.411674e+00	 7.030392e+00
 6.877575e-01	 1.419990e+00	 6.828657e+00
 7.752216e-01	 1.382694e+00	 7.763994e+00
 7.585276e-01	 1.391922e+00	 7.549298e+00
 7.417529e-01	 1.400934e+00	 7.381914e+00
 7.249018e-01	 1.409727e+00	 7.227978e+00
 7.079782e-01	 1.418301e+00	 7.059220e+00
 6.909864e-01	 1.426657e+00	 6.857145e+00
 7.788442e-01	 1.389155e+00	 7.805382e+00
 7.620721e-01	 1.398427e+00	 7.587902e+00
 7.452191e-01	 1.407480e+00	 7.414112e+00
 7.282891e-01	 1.416314e+00	 7.254674e+00
 7.112865e-01	 1.424929e+00	 7.082701e+00
 6.942153e-01	 1.433323e+00	 6.882995e+00
 6.780708e-01	 1.399990e+00	 6.709193e+00
 6.613337e-01	 1.407974e+00	 6.494228e+00
 6.445377e-01	 1.415742e+00	 6.277393e+00
 6.276869e-01	 1.423293e+00	 6.066319e+00
 6.107853e-01	 1.430627e+00	 5.871314e+00
 5.938370e-01	 1.437745e+00	 5.705197e+00
 6.812997e-01	 1.406657e+00	 6.756494e+00
 6.644829e-01	 1.414679e+00	 6.534518e+00
 6.476070e-01	 1.422483e+00	 6.311320e+00
 6.306759e-01	 1.430070e+00	 6.096255e+00
 6.136938e-01	 1.437440e+00	 5.901460e+00
 5.966647e-01	 1.444591e+00	 5.741697e+00
 6.845286e-01	 1.413324e+00	 6.795711e+00
 6.676321e-01	 1.421383e+00	 6.570287e+00
 6.506762e-01	 1.429225e+00	 6.346241e+00
 6.336649e-01	 1.436848e+00	 6.132561e+00
 6.166023e-01	 1.444252e+00	 5.941095e+00
 5.994925e-01	 1.451438e+00	 5.786384e+00
 6.877575e-01	 1.419990e+00	 6.828657e+00
 6.707813e-01	 1.428088e+00	 6.604022e+00
 6.537454e-01	 1.435966e+00	 6.384798e+00
 6.366539e-01	 1.443625e+00	 6.177551e+00
 6.195108e-01	 1.451065e+00	 5.991744e+00
 6.023203e-01	 1.458284e+00	 5.839575e+00
 6.909864e-01	 1.426657e+00	 6.857145e+00
 6.739305e-01	 1.434793e+00	 6.638201e+00
 6.568146e-01	 1.442708e+00	 6.429624e+00
 6.396429e-01	 1.450403e+00	 6.233534e+00
 6.224193e-01	 1.457877e+00	 6.054946e+00
 6.051481e-01	 1.465131e+00	 5.901619e+00
 6.942153e-01	 1.433323e+00	 6.882995e+00
 6.770797e-01	 1.441497e+00	 6.675293e+00
 6.598839e-01	 1.449450e+00	 6.483341e+00
 6.426319e-01	 1.457181e+00	 6.302813e+00
 6.253278e-01	 1.464690e+00	 6.132245e+00
 6.079759e-01	 1.471977e+00	 5.972896e+00
 5.938370e-01	 1.437745e+00	 5.705197e+00
 5.768458e-01	 1.444646e+00	 5.554345e+00
 5.598158e-01	 1.451330e+00	 5.394119e+00
 5.427510e-01	 1.457798e+00	 5.223854e+00
 5.256552e-01	 1.464049e+00	 5.044395e+00
 5.085325e-01	 1.470084e+00	 4.857913e+00
 5.966647e-01	 1.444591e+00	 5.741697e+00
 5.795927e-01	 1.451525e+00	 5.601945e+00
 5.624816e-01	 1.458241e+00	 5.452514e+00
 5.453355e-01	 1.464740e+00	 5.289263e+00
 5.281584e-01	 1.471021e+00	 5.109567e+00
 5.109541e-01	 1.477085e+00	 4.912132e+00
 5.994925e-01	 1.451438e+00	 5.786384e+00
 5.823396e-01	 1.458405e+00	 5.650111e+00
 5.651474e-01	 1.465152e+00	 5.498367e+00
 5.479200e-01	 1.471682e+00	 5.325492e+00
 5.306615e-01	 1.477992e+00	 5.127380e+00
 5.133756e-01	 1.484085e+00	 4.907928e+00
 6.023203e-01	 1.458284e+00	 5.839575e+00
 5.850864e-01	 1.465284e+00	 5.697976e+00
 5.678132e-01	 1.472063e+00	 5.530066e+00
 5.505046e-01	 1.478623e+00	 5.330594e+00
 5.331646e-01	 1.484964e+00	 5.107904e+00
 5.157972e-01	 1.491085e+00	 4.914339e+00
 6.051481e-01	 1.465131e+00	 5.901619e+00
 5.878333e-01	 1.472163e+00	 5.744726e+00
 5.704790e-01	 1.478975e+00	 5.546063e+00
 5.530891e-01	 1.485565e+00	 5.319182e+00
 5.356677e-01	 1.491936e+00	 5.121328e+00
 5.182188e-01	 1.498086e+00	 4.949197e+00
 6.079759e-01	 1.471977e+00	 5.972896e+00
 5.905802e-01	 1.479042e+00	 5.789600e+00
 5.731448e-01	 1.485886e+00	 5.563980e+00
 5.556736e-01	 1.492507e+00	 5.360153e+00
 5.381708e-01	 1.498907e+00	 5.178038e+00
 5.206404e-01	 1.505086e+00	 5.011427e+00
 5.085325e-01	 1.470084e+00	 4.857913e+00
 4.913866e-01	 1.475904e+00	 4.670787e+00
 4.742214e-01	 1.481508e+00	 4.483684e+00
 4.570408e-01	 1.486898e+00	 4.318638e+00
 4.398485e-01	 1.492075e+00	 4.190217e+00
 4.226482e-01	 1.497038e+00	 4.082466e+00
 5.109541e-01	 1.477085e+00	 4.912132e+00
 4.937265e-01	 1.482932e+00	 4.702925e+00
 4.764796e-01	 1.488563e+00	 4.525676e+00
 4.592172e-01	 1.493979e+00	 4.386021e+00
 4.419430e-01	 1.499180e+00	 4.270195e+00
 4.246608e-01	 1.504166e+00	 4.163919e+00
 5.133756e-01	 1.484085e+00	 4.907928e+00
 4.960665e-01	 1.489960e+00	 4.720413e+00
 4.787378e-01	 1.495618e+00	 4.570822e+00
 4.613936e-01	 1.501059e+00	 4.447532e+00
 4.440375e-01	 1.506285e+00	 4.338450e+00
 4.266734e-01	 1.511295e+00	 4.230989e+00
 5.157972e-01	 1.491085e+00	 4.914339e+00
 4.984064e-01	 1.496988e+00	 4.752845e+00
 4.809960e-01	 1.502673e+00	 4.619371e+00
 4.635699e-01	 1.508140e+00	 4.503979e+00
 4.461320e-01	 1.513390e+00	 4.396275e+00
 4.286860e-01	 1.518424e+00	 4.285386e+00
 5.182188e-01	 1.498086e+00	 4.949197e+00
 5.007463e-01	 1.504016e+00	 4.799832e+00
 4.832542e-01	 1.509728e+00	 4.671553e+00
 4.657463e-01	 1.515220e+00	 4.556143e+00
 4.482265e-01	 1.520495e+00	 4.444931e+00
 4.306986e-01	 1.525553e+00	 4.328775e+00
 5.206404e-01	 1.505086e+00	 5.011427e+00
 5.030863e-01	 1.511044e+00	 4.860979e+00
 4.855124e-01	 1.516782e+00	 4.727583e+00
 4.679227e-01	 1.522301e+00	 4.604777e+00
 4.503210e-01	 1.527600e+00	 4.485645e+00
 4.327112e-01	 1.532681e+00	 4.362788e+00
 4.226482e-01	 1.497038e+00	 4.082466e+00
 4.054436e-01	 1.501788e+00	 3.943887e+00
 3.882385e-01	 1.506328e+00	 3.764400e+00
 3.710363e-01	 1.510657e+00	 3.589137e+00
 3.538408e-01	 1.514777e+00	 3.444509e+00
 3.366553e-01	 1.518689e+00	 3.343838e+00
 4.246608e-01	 1.504166e+00	 4.163919e+00
 4.073743e-01	 1.508940e+00	 4.019831e+00
 3.900872e-01	 1.513501e+00	 3.832001e+00
 3.728032e-01	 1.517851e+00	 3.647287e+00
 3.555257e-01	 1.521990e+00	 3.497270e+00
 3.382584e-01	 1.525921e+00	 3.393447e+00
 4.266734e-01	 1.511295e+00	 4.230989e+00
 4.093050e-01	 1.516091e+00	 4.081736e+00
 3.919360e-01	 1.520674e+00	 3.888013e+00
 3.745700e-01	 1.525044e+00	 3.697369e+00
 3.572107e-01	 1.529204e+00	 3.545206e+00
 3.398615e-01	 1.533153e+00	 3.441217e+00
 4.286860e-01	 1.518424e+00	 4.285386e+00
 4.112357e-01	 1.523243e+00	 4.131613e+00
 3.937847e-01	 1.527847e+00	 3.934621e+00
 3.763368e-01	 1.532238e+00	 3.741620e+00
 3.588956e-01	 1.536417e+00	 3.590459e+00
 3.414647e-01	 1.540385e+00	 3.489068e+00
 4.306986e-01	 1.525553e+00	 4.328775e+00
 4.131664e-01	 1.530394e+00	 4.171434e+00
 3.956335e-01	 1.535020e+00	 3.973966e+00
 3.781037e-01	 1.539432e+00	 3.782233e+00
 3.605806e-01	 1.543630e+00	 3.635143e+00
 3.430678e-01	 1.547616e+00	 3.538895e+00
 4.327112e-01	 1.532681e+00	 4.362788e+00
 4.150970e-01	 1.537545e+00	 4.203127e+00
 3.974822e-01	 1.542193e+00	 4.008147e+00
 3.798705e-01	 1.546625e+00	 3.821362e+00
 3.622655e-01	 1.550843e+00	 3.681346e+00
 3.446709e-01	 1.554848e+00	 3.592577e+00
 3.366553e-01	 1.518689e+00	 3.343838e+00
 3.194834e-01	 1.522394e+00	 3.266621e+00
 3.023285e-01	 1.525893e+00	 3.178961e+00
 2.851939e-01	 1.529189e+00	 3.084729e+00
 2.680829e-01	 1.532281e+00	 2.985063e+00
 2.509989e-01	 1.535172e+00	 2.878866e+00
 3.382584e-01	 1.525921e+00	 3.393447e+00
 3.210047e-01	 1.529643e+00	 3.314537e+00
 3.037681e-01	 1.533160e+00	 3.225956e+00
 2.865519e-01	 1.536470e+00	 3.131445e+00
 2.693595e-01	 1.539577e+00	 3.032045e+00
 2.521941e-01	 1.542482e+00	 2.926586e+00
 3.398615e-01	 1.533153e+00	 3.441217e+00
 3.225261e-01	 1.536893e+00	 3.362181e+00
 3.052078e-01	 1.540426e+00	 3.272973e+00
 2.879100e-01	 1.543752e+00	 3.177659e+00
 2.706361e-01	 1.546874e+00	 3.077631e+00
 2.533894e-01	 1.549793e+00	 2.972105e+00
 3.414647e-01	 1.540385e+00	 3.489068e+00
 3.240474e-01	 1.544142e+00	 3.411227e+00
 3.066474e-01	 1.547692e+00	 3.321498e+00
 2.892681e-01	 1.551034e+00	 3.224711e+00
 2.719127e-01	 1.554171e+00	 3.123058e+00
 2.545846e-01	 1.557103e+00	 3.016590e+00
 3.430678e-01	 1.547616e+00	 3.538895e+00
 3.255688e-01	 1.551392e+00	 3.463339e+00
 3.080871e-01	 1.554958e+00	 3.373009e+00
 2.906261e-01	 1.558316e+00	 3.273937e+00
 2.731893e-01	 1.561467e+00	 3.169560e+00
 2.557798e-01	 1.564413e+00	 3.061208e+00
 3.446709e-01	 1.554848e+00	 3.592577e+00
 3.270901e-01	 1.558641e+00	 3.520166e+00
 3.095267e-01	 1.562224e+00	 3.428976e+00
 2.919842e-01	 1.565598e+00	 3.326672e+00
 2.744659e-01	 1.568764e+00	 3.218372e+00
 2.569751e-01	 1.571724e+00	 3.107126e+00
 2.509989e-01	 1.535172e+00	 2.878866e+00
 2.339450e-01	 1.537863e+00	 2.775386e+00
 2.169243e-01	 1.540356e+00	 2.685317e+00
 1.999400e-01	 1.542653e+00	 2.607578e+00
 1.829950e-01	 1.544754e+00	 2.540340e+00
 1.660924e-01	 1.546663e+00	 2.481339e+00
 2.521941e-01	 1.542482e+00	 2.926586e+00
 2.350590e-01	 1.545186e+00	 2.824178e+00
 2.179573e-01	 1.547691e+00	 2.735263e+00
 2.008921e-01	 1.549999e+00	 2.658556e+00
 1.838664e-01	 1.552110e+00	 2.592042e+00
 1.668833e-01	 1.554028e+00	 2.533279e+00
 2.533894e-01	 1.549793e+00	 2.972105e+00
 2.361730e-01	 1.552509e+00	 2.870424e+00
 2.189903e-01	 1.555026e+00	 2.782737e+00
 2.018442e-01	 1.557345e+00	 2.707392e+00
 1.847378e-01	 1.559466e+00	 2.642027e+00
 1.676742e-01	 1.561393e+00	 2.583864e+00
 2.545846e-01	 1.557103e+00	 3.016590e+00
 2.372871e-01	 1.559833e+00	 2.915226e+00
 2.200233e-01	 1.562361e+00	 2.828755e+00
 2.027963e-01	 1.564691e+00	 2.755000e+00
 1.856092e-01	 1.566822e+00	 2.691092e+00
 1.684651e-01	 1.568758e+00	 2.633770e+00
 2.557798e-01	 1.564413e+00	 3.061208e+00
 2.384011e-01	 1.567156e+00	 2.959686e+00
 2.210562e-01	 1.569696e+00	 2.874336e+00
 2.037484e-01	 1.572036e+00	 2.802294e+00
 1.864807e-01	 1.574178e+00	 2.740039e+00
 1.692560e-01	 1.576123e+00	 2.683674e+00
 2.569751e-01	 1.571724e+00	 3.107126e+00
 2.395151e-01	 1.574479e+00	 3.004909e+00
 2.220892e-01	 1.577031e+00	 2.920495e+00
 2.047005e-01	 1.579382e+00	 2.850191e+00
 1.873521e-01	 1.581534e+00	 2.789670e+00
 1.700470e-01	 1.583488e+00	 2.734254e+00
 1.660924e-01	 1.546663e+00	 2.481339e+00
 1.492349e-01	 1.548380e+00	 2.428011e+00
 1.324256e-01	 1.549909e+00	 2.379145e+00
 1.156670e-01	 1.551249e+00	 2.334647e+00
 9.896200e-02	 1.552404e+00	 2.294998e+00
 8.231317e-02	 1.553376e+00	 2.261458e+00
 1.668833e-01	 1.554028e+00	 2.533279e+00
 1.499456e-01	 1.555754e+00	 2.479830e+00
 1.330562e-01	 1.557289e+00	 2.430773e+00
 1.162178e-01	 1.558636e+00	 2.386074e+00
 9.943324e-02	 1.559797e+00	 2.346251e+00
 8.270514e-02	 1.560773e+00	 2.312571e+00
 1.676742e-01	 1.561393e+00	 2.583864e+00
 1.506562e-01	 1.563127e+00	 2.530476e+00
 1.336868e-01	 1.564670e+00	 2.481271e+00
 1.167686e-01	 1.566023e+00	 2.436358e+00
 9.990449e-02	 1.567189e+00	 2.396376e+00
 8.309711e-02	 1.568170e+00	 2.362678e+00
 1.684651e-01	 1.568758e+00	 2.633770e+00
 1.513669e-01	 1.570500e+00	 2.580503e+00
 1.343174e-01	 1.572050e+00	 2.531078e+00
 1.173194e-01	 1.573410e+00	 2.485832e+00
 1.003757e-01	 1.574582e+00	 2.445609e+00
 8.348908e-02	 1.575567e+00	 2.411934e+00
 1.692560e-01	 1.576123e+00	 2.683674e+00
 1.520775e-01	 1.577873e+00	 2.630464e+00
 1.349479e-01	 1.579431e+00	 2.580633e+00
 1.178702e-01	 1.580797e+00	 2.534831e+00
 1.008470e-01	 1.581974e+00	 2.494191e+00
 8.388104e-02	 1.582964e+00	 2.460490e+00
 1.700470e-01	 1.583488e+00	 2.734254e+00
 1.527882e-01	 1.585247e+00	 2.680919e+00
 1.355785e-01	 1.586811e+00	 2.630380e+00
 1.184210e-01	 1.588184e+00	 2.583692e+00
 1.013182e-01	 1.589366e+00	 2.542361e+00
 8.427301e-02	 1.590361e+00	 2.508504e+00
 8.231317e-02	 1.553376e+00	 2.261458e+00
 6.572312e-02	 1.554167e+00	 2.235869e+00
 4.919436e-02	 1.554777e+00	 2.216861e+00
 3.272934e-02	 1.555211e+00	 2.202646e+00
 1.633045e-02	 1.555470e+00	 2.193019e+00
-6.657699e-07	 1.555576e+00	 3.023824e+00
 8.270514e-02	 1.560773e+00	 2.312571e+00
 6.603609e-02	 1.561567e+00	 2.286772e+00
 4.942862e-02	 1.562181e+00	 2.267492e+00
 3.288519e-02	 1.562617e+00	 2.253052e+00
 1.640821e-02	 1.562877e+00	 2.243292e+00
-6.546350e-07	 1.562983e+00	 3.089980e+00
 8.309711e-02	 1.568170e+00	 2.362678e+00
 6.634906e-02	 1.568968e+00	 2.336942e+00
 4.966288e-02	 1.569585e+00	 2.317710e+00
 3.304105e-02	 1.570023e+00	 2.303282e+00
 1.648597e-02	 1.570284e+00	 2.293414e+00
-6.432967e-07	 1.570390e+00	 3.154276e+00
 8.348908e-02	 1.575567e+00	 2.411934e+00
 6.666203e-02	 1.576369e+00	 2.386461e+00
 4.989714e-02	 1.576989e+00	 2.367547e+00
 3.319690e-02	 1.577429e+00	 2.353338e+00
 1.656374e-02	 1.577691e+00	 2.343382e+00
-6.317667e-07	 1.577797e+00	 3.216739e+00
 8.388104e-02	 1.582964e+00	 2.460490e+00
 6.697499e-02	 1.583770e+00	 2.435412e+00
 5.013140e-02	 1.584392e+00	 2.417030e+00
 3.335276e-02	 1.584834e+00	 2.403217e+00
 1.664150e-02	 1.585098e+00	 2.393190e+00
-6.200567e-07	 1.585205e+00	 3.277397e+00
 8.427301e-02	 1.590361e+00	 2.508504e+00
 6.728796e-02	 1.591170e+00	 2.483877e+00
 5.036566e-02	 1.591796e+00	 2.466189e+00
 3.350861e-02	 1.592240e+00	 2.452917e+00
 1.671927e-02	 1.592505e+00	 2.442828e+00
-6.081786e-07	 1.592612e+00	 3.336271e+00
 1.592593e+00	 0.000000e+00	 1.462143e+01
 1.592505e+00	 1.671927e-02	 1.462227e+01
 1.592240e+00	 3.350861e-02	 1.462254e+01
 1.591796e+00	 5.036566e-02	 1.462287e+01
 1.591170e+00	 6.728796e-02	 1.462355e+01
 1.590361e+00	 8.427301e-02	 1.462458e+01
 1.600000e+00	 0.000000e+00	 1.455958e+01
 1.599912e+00	 1.679703e-02	 1.456002e+01
 1.599646e+00	 3.366446e-02	 1.456014e+01
 1.599200e+00	 5.059991e-02	 1.456054e+01
 1.598571e+00	 6.760093e-02	 1.456150e+01
 1.597758e+00	 8.466498e-02	 1.456302e+01
 1.607407e+00	 0.000000e+00	 1.449903e+01
 1.607319e+00	 1.687479e-02	 1.449911e+01
 1.607052e+00	 3.382032e-02	 1.449906e+01
 1.606603e+00	 5.083417e-02	 1.449950e+01
 1.605972e+00	 6.791389e-02	 1.450072e+01
 1.605155e+00	 8.505695e-02	 1.450273e+01
 1.614815e+00	 0.000000e+00	 1.443971e+01
 1.614726e+00	 1.695256e-02	 1.443948e+01
 1.614457e+00	 3.397617e-02	 1.443927e+01
 1.614007e+00	 5.106843e-02	 1.443972e+01
 1.613373e+00	 6.822686e-02	 1.444116e+01
 1.612552e+00	 8.544891e-02	 1.444364e+01
 1.622222e+00	 0.000000e+00	 1.438155e+01
 1.622133e+00	 1.703032e-02	 1.438108e+01
 1.621863e+00	 3.413203e-02	 1.438073e+01
 1.621411e+00	 5.130269e-02	 1.438116e+01
 1.620774e+00	 6.853983e-02	 1.438277e+01
 1.619949e+00	 8.584088e-02	 1.438566e+01
 1.629630e+00	 0.000000e+00	 1.432447e+01
 1.629540e+00	 1.710809e-02	 1.432388e+01
 1.629269e+00	 3.428788e-02	 1.432341e+01
 1.628814e+00	 5.153695e-02	 1.432379e+01
 1.628174e+00	 6.885280e-02	 1.432549e+01
 1.627346e+00	 8.623285e-02	 1.432870e+01
 1.590361e+00	 8.427301e-02	 1.462458e+01
 1.589366e+00	 1.013182e-01	 1.462540e+01
 1.588184e+00	 1.184210e-01	 1.462615e+01
 1.586811e+00	 1.355785e-01	 1.462736e+01
 1.585247e+00	 1.527882e-01	 1.462935e+01
 1.583488e+00	 1.700470e-01	 1.463220e+01
 1.597758e+00	 8.466498e-02	 1.456302e+01
 1.596759e+00	 1.017895e-01	 1.456429e+01
 1.595571e+00	 1.189718e-01	 1.456522e+01
 1.594192e+00	 1.362091e-01	 1.456644e+01
 1.592620e+00	 1.534988e-01	 1.456835e+01
 1.590853e+00	 1.708379e-01	 1.457112e+01
 1.605155e+00	 8.505695e-02	 1.450273e+01
 1.604151e+00	 1.022607e-01	 1.450448e+01
 1.602958e+00	 1.195226e-01	 1.450565e+01
 1.601572e+00	 1.368397e-01	 1.450693e+01
 1.599993e+00	 1.542094e-01	 1.450878e+01
 1.598218e+00	 1.716288e-01	 1.451143e+01
 1.612552e+00	 8.544891e-02	 1.444364e+01
 1.611544e+00	 1.027320e-01	 1.444587e+01
 1.610344e+00	 1.200734e-01	 1.444729e+01
 1.608953e+00	 1.374703e-01	 1.444866e+01
 1.607366e+00	 1.549201e-01	 1.445047e+01
 1.605583e+00	 1.724197e-01	 1.445300e+01
 1.619949e+00	 8.584088e-02	 1.438566e+01
 1.618936e+00	 1.032032e-01	 1.438834e+01
 1.617731e+00	 1.206242e-01	 1.439003e+01
 1.616333e+00	 1.381009e-01	 1.439150e+01
 1.614740e+00	 1.556307e-01	 1.439328e+01
 1.612949e+00	 1.732106e-01	 1.439569e+01
 1.627346e+00	 8.623285e-02	 1.432870e+01
 1.626328e+00	 1.036745e-01	 1.433178e+01
 1.625118e+00	 1.211750e-01	 1.433372e+01
 1.623714e+00	 1.387315e-01	 1.433530e+01
 1.622113e+00	 1.563414e-01	 1.433708e+01
 1.620314e+00	 1.740015e-01	 1.433938e+01
 1.583488e+00	 1.700470e-01	 1.463220e+01
 1.581534e+00	 1.873521e-01	 1.463583e+01
 1.579382e+00	 2.047005e-01	 1.463930e+01
 1.577031e+00	 2.220892e-01	 1.464116e+01
 1.574479e+00	 2.395151e-01	 1.463987e+01
 1.571724e+00	 2.569751e-01	 1.463391e+01
 1.590853e+00	 1.708379e-01	 1.457112e+01
 1.588890e+00	 1.882235e-01	 1.457489e+01
 1.586728e+00	 2.056526e-01	 1.457887e+01
 1.584366e+00	 2.231222e-01	 1.458150e+01
 1.581802e+00	 2.406291e-01	 1.458118e+01
 1.579034e+00	 2.581703e-01	 1.457628e+01
 1.598218e+00	 1.716288e-01	 1.451143e+01
 1.596246e+00	 1.890949e-01	 1.451530e+01
 1.594074e+00	 2.066047e-01	 1.451974e+01
 1.591701e+00	 2.241551e-01	 1.452316e+01
 1.589125e+00	 2.417432e-01	 1.452388e+01
 1.586344e+00	 2.593655e-01	 1.452019e+01
 1.605583e+00	 1.724197e-01	 1.445300e+01
 1.603602e+00	 1.899663e-01	 1.445691e+01
 1.601420e+00	 2.075568e-01	 1.446177e+01
 1.599036e+00	 2.251881e-01	 1.446594e+01
 1.596448e+00	 2.428572e-01	 1.446770e+01
 1.593655e+00	 2.605608e-01	 1.446529e+01
 1.612949e+00	 1.732106e-01	 1.439569e+01
 1.610958e+00	 1.908377e-01	 1.439962e+01
 1.608766e+00	 2.085089e-01	 1.440482e+01
 1.606371e+00	 2.262211e-01	 1.440966e+01
 1.603771e+00	 2.439712e-01	 1.441239e+01
 1.600965e+00	 2.617560e-01	 1.441123e+01
 1.620314e+00	 1.740015e-01	 1.433938e+01
 1.618314e+00	 1.917091e-01	 1.434329e+01
 1.616112e+00	 2.094610e-01	 1.434875e+01
 1.613706e+00	 2.272541e-01	 1.435414e+01
 1.611095e+00	 2.450852e-01	 1.435772e+01
 1.608275e+00	 2.629512e-01	 1.435768e+01
 1.571724e+00	 2.569751e-01	 1.463391e+01
 1.568764e+00	 2.744659e-01	 1.462897e+01
 1.565598e+00	 2.919842e-01	 1.463097e+01
 1.562224e+00	 3.095267e-01	 1.463883e+01
 1.558641e+00	 3.270901e-01	 1.465168e+01
 1.554848e+00	 3.446709e-01	 1.466891e+01
 1.579034e+00	 2.581703e-01	 1.457628e+01
 1.576060e+00	 2.757424e-01	 1.457207e+01
 1.572880e+00	 2.933423e-01	 1.457430e+01
 1.569490e+00	 3.109664e-01	 1.458213e+01
 1.565891e+00	 3.286115e-01	 1.459491e+01
 1.562080e+00	 3.462740e-01	 1.461222e+01
 1.586344e+00	 2.593655e-01	 1.452019e+01
 1.583357e+00	 2.770190e-01	 1.451690e+01
 1.580161e+00	 2.947003e-01	 1.451946e+01
 1.576756e+00	 3.124061e-01	 1.452724e+01
 1.573140e+00	 3.301328e-01	 1.453977e+01
 1.569312e+00	 3.478771e-01	 1.455678e+01
 1.593655e+00	 2.605608e-01	 1.446529e+01
 1.590653e+00	 2.782956e-01	 1.446301e+01
 1.587443e+00	 2.960584e-01	 1.446599e+01
 1.584023e+00	 3.138457e-01	 1.447375e+01
 1.580390e+00	 3.316542e-01	 1.448595e+01
 1.576544e+00	 3.494803e-01	 1.450245e+01
 1.600965e+00	 2.617560e-01	 1.441123e+01
 1.597950e+00	 2.795722e-01	 1.441000e+01
 1.594725e+00	 2.974165e-01	 1.441347e+01
 1.591289e+00	 3.152854e-01	 1.442127e+01
 1.587639e+00	 3.331755e-01	 1.443315e+01
 1.583776e+00	 3.510834e-01	 1.444907e+01
 1.608275e+00	 2.629512e-01	 1.435768e+01
 1.605247e+00	 2.808488e-01	 1.435745e+01
 1.602007e+00	 2.987745e-01	 1.436146e+01
 1.598555e+00	 3.167250e-01	 1.436940e+01
 1.594889e+00	 3.346969e-01	 1.438109e+01
 1.591008e+00	 3.526865e-01	 1.439653e+01
 1.554848e+00	 3.446709e-01	 1.466891e+01
 1.550843e+00	 3.622655e-01	 1.467304e+01
 1.546625e+00	 3.798705e-01	 1.465149e+01
 1.542193e+00	 3.974822e-01	 1.462815e+01
 1.537545e+00	 4.150970e-01	 1.461320e+01
 1.532681e+00	 4.327112e-01	 1.461443e+01
 1.562080e+00	 3.462740e-01	 1.461222e+01
 1.558056e+00	 3.639505e-01	 1.461691e+01
 1.553819e+00	 3.816374e-01	 1.459761e+01
 1.549366e+00	 3.993310e-01	 1.457708e+01
 1.544697e+00	 4.170277e-01	 1.456413e+01
 1.539810e+00	 4.347238e-01	 1.456628e+01
 1.569312e+00	 3.478771e-01	 1.455678e+01
 1.565270e+00	 3.656355e-01	 1.456158e+01
 1.561012e+00	 3.834042e-01	 1.454437e+01
 1.556539e+00	 4.011798e-01	 1.452642e+01
 1.551848e+00	 4.189584e-01	 1.451551e+01
 1.546939e+00	 4.367364e-01	 1.451892e+01
 1.576544e+00	 3.494803e-01	 1.450245e+01
 1.572483e+00	 3.673204e-01	 1.450706e+01
 1.568206e+00	 3.851710e-01	 1.449178e+01
 1.563712e+00	 4.030285e-01	 1.447615e+01
 1.558999e+00	 4.208891e-01	 1.446722e+01
 1.554068e+00	 4.387491e-01	 1.447199e+01
 1.583776e+00	 3.510834e-01	 1.444907e+01
 1.579696e+00	 3.690054e-01	 1.445333e+01
 1.575400e+00	 3.869379e-01	 1.443990e+01
 1.570885e+00	 4.048773e-01	 1.442630e+01
 1.566151e+00	 4.228198e-01	 1.441912e+01
 1.561196e+00	 4.407617e-01	 1.442515e+01
 1.591008e+00	 3.526865e-01	 1.439653e+01
 1.586909e+00	 3.706903e-01	 1.440042e+01
 1.582593e+00	 3.887047e-01	 1.438876e+01
 1.578058e+00	 4.067260e-01	 1.437688e+01
 1.573302e+00	 4.247505e-01	 1.437112e+01
 1.568325e+00	 4.427743e-01	 1.437808e+01
 1.532681e+00	 4.327112e-01	 1.461443e+01
 1.527600e+00	 4.503210e-01	 1.462395e+01
 1.522301e+00	 4.679227e-01	 1.462815e+01
 1.516782e+00	 4.855124e-01	 1.462678e+01
 1.511044e+00	 5.030863e-01	 1.461999e+01
 1.505086e+00	 5.206404e-01	 1.460840e+01
 1.539810e+00	 4.347238e-01	 1.456628e+01
 1.534705e+00	 4.524156e-01	 1.457592e+01
 1.529381e+00	 4.700991e-01	 1.457996e+01
 1.523837e+00	 4.877706e-01	 1.457820e+01
 1.518073e+00	 5.054262e-01	 1.457082e+01
 1.512087e+00	 5.230620e-01	 1.455844e+01
 1.546939e+00	 4.367364e-01	 1.451892e+01
 1.541810e+00	 4.545101e-01	 1.452917e+01
 1.536462e+00	 4.722755e-01	 1.453351e+01
 1.530892e+00	 4.900288e-01	 1.453171e+01
 1.525101e+00	 5.077662e-01	 1.452394e+01
 1.519087e+00	 5.254836e-01	 1.451081e+01
 1.554068e+00	 4.387491e-01	 1.447199e+01
 1.548915e+00	 4.566046e-01	 1.448314e+01
 1.543542e+00	 4.744519e-01	 1.448812e+01
 1.537947e+00	 4.922870e-01	 1.448667e+01
 1.532129e+00	 5.101061e-01	 1.447888e+01
 1.526087e+00	 5.279051e-01	 1.446529e+01
 1.561196e+00	 4.407617e-01	 1.442515e+01
 1.556021e+00	 4.586991e-01	 1.443726e+01
 1.550623e+00	 4.766283e-01	 1.444316e+01
 1.545002e+00	 4.945452e-01	 1.444245e+01
 1.539157e+00	 5.124460e-01	 1.443514e+01
 1.533088e+00	 5.303267e-01	 1.442167e+01
 1.568325e+00	 4.427743e-01	 1.437808e+01
 1.563126e+00	 4.607936e-01	 1.439100e+01
 1.557703e+00	 4.788046e-01	 1.439798e+01
 1.552056e+00	 4.968034e-01	 1.439845e+01
 1.546185e+00	 5.147860e-01	 1.439226e+01
 1.540088e+00	 5.327483e-01	 1.437975e+01
 1.505086e+00	 5.206404e-01	 1.460840e+01
 1.498907e+00	 5.381708e-01	 1.458924e+01
 1.492507e+00	 5.556736e-01	 1.456261e+01
 1.485886e+00	 5.731448e-01	 1.453454e+01
 1.479042e+00	 5.905802e-01	 1.451301e+01
 1.471977e+00	 6.079759e-01	 1.451742e+01
 1.512087e+00	 5.230620e-01	 1.455844e+01
 1.505879e+00	 5.406740e-01	 1.453970e+01
 1.499449e+00	 5.582581e-01	 1.451613e+01
 1.492797e+00	 5.758105e-01	 1.449376e+01
 1.485922e+00	 5.933271e-01	 1.447953e+01
 1.478823e+00	 6.108037e-01	 1.448245e+01
 1.519087e+00	 5.254836e-01	 1.451081e+01
 1.512851e+00	 5.431771e-01	 1.449204e+01
 1.506391e+00	 5.608427e-01	 1.447031e+01
 1.499708e+00	 5.784763e-01	 1.445167e+01
 1.492801e+00	 5.960740e-01	 1.444297e+01
 1.485670e+00	 6.136315e-01	 1.445196e+01
 1.526087e+00	 5.279051e-01	 1.446529e+01
 1.519822e+00	 5.456802e-01	 1.444638e+01
 1.513333e+00	 5.634272e-01	 1.442568e+01
 1.506619e+00	 5.811421e-01	 1.440922e+01
 1.499680e+00	 5.988209e-01	 1.440380e+01
 1.492516e+00	 6.164593e-01	 1.441701e+01
 1.533088e+00	 5.303267e-01	 1.442167e+01
 1.526794e+00	 5.481833e-01	 1.440288e+01
 1.520275e+00	 5.660117e-01	 1.438275e+01
 1.513530e+00	 5.838079e-01	 1.436735e+01
 1.506559e+00	 6.015677e-01	 1.436342e+01
 1.499363e+00	 6.192871e-01	 1.437842e+01
 1.540088e+00	 5.327483e-01	 1.437975e+01
 1.533766e+00	 5.506864e-01	 1.436167e+01
 1.527217e+00	 5.685963e-01	 1.434206e+01
 1.520441e+00	 5.864737e-01	 1.432701e+01
 1.513439e+00	 6.043146e-01	 1.432322e+01
 1.506209e+00	 6.221149e-01	 1.433806e+01
 1.471977e+00	 6.079759e-01	 1.451742e+01
 1.464690e+00	 6.253278e-01	 1.452100e+01
 1.457181e+00	 6.426319e-01	 1.449403e+01
 1.449450e+00	 6.598839e-01	 1.444650e+01
 1.441497e+00	 6.770797e-01	 1.438854e+01
 1.433323e+00	 6.942153e-01	 1.433043e+01
 1.478823e+00	 6.108037e-01	 1.448245e+01
 1.471502e+00	 6.282363e-01	 1.448320e+01
 1.463958e+00	 6.456208e-01	 1.445455e+01
 1.456191e+00	 6.629531e-01	 1.440639e+01
 1.448202e+00	 6.802289e-01	 1.434896e+01
 1.439990e+00	 6.974442e-01	 1.429277e+01
 1.485670e+00	 6.136315e-01	 1.445196e+01
 1.478315e+00	 6.311448e-01	 1.444906e+01
 1.470736e+00	 6.486098e-01	 1.441619e+01
 1.462933e+00	 6.660223e-01	 1.436596e+01
 1.454906e+00	 6.833781e-01	 1.430873e+01
 1.446657e+00	 7.006731e-01	 1.425528e+01
 1.492516e+00	 6.164593e-01	 1.441701e+01
 1.485127e+00	 6.340533e-01	 1.441861e+01
 1.477513e+00	 6.515988e-01	 1.438110e+01
 1.469675e+00	 6.690915e-01	 1.432718e+01
 1.461611e+00	 6.865274e-01	 1.426937e+01
 1.453323e+00	 7.039021e-01	 1.421870e+01
 1.499363e+00	 6.192871e-01	 1.437842e+01
 1.491940e+00	 6.369618e-01	 1.438352e+01
 1.484291e+00	 6.545878e-01	 1.435029e+01
 1.476416e+00	 6.721608e-01	 1.429203e+01
 1.468316e+00	 6.896766e-01	 1.423240e+01
 1.459990e+00	 7.071310e-01	 1.418383e+01
 1.506209e+00	 6.221149e-01	 1.433806e+01
 1.498752e+00	 6.398703e-01	 1.434452e+01
 1.491069e+00	 6.575768e-01	 1.431603e+01
 1.483158e+00	 6.752300e-01	 1.426213e+01
 1.475020e+00	 6.928258e-01	 1.419938e+01
 1.466657e+00	 7.103599e-01	 1.415150e+01
 1.433323e+00	 6.942153e-01	 1.433043e+01
 1.424929e+00	 7.112865e-01	 1.428292e+01
 1.416314e+00	 7.282891e-01	 1.425847e+01
 1.407480e+00	 7.452191e-01	 1.426652e+01
 1.398427e+00	 7.620721e-01	 1.424758e+01
 1.389155e+00	 7.788442e-01	 1.417350e+01
 1.439990e+00	 6.974442e-01	 1.429277e+01
 1.431557e+00	 7.145948e-01	 1.424933e+01
 1.422902e+00	 7.316765e-01	 1.423184e+01
 1.414026e+00	 7.486852e-01	 1.424322e+01
 1.404931e+00	 7.656166e-01	 1.421984e+01
 1.395617e+00	 7.824667e-01	 1.414599e+01
 1.446657e+00	 7.006731e-01	 1.425528e+01
 1.438184e+00	 7.179031e-01	 1.421706e+01
 1.429489e+00	 7.350639e-01	 1.420723e+01
 1.420573e+00	 7.521513e-01	 1.421886e+01
 1.411435e+00	 7.691612e-01	 1.419178e+01
 1.402078e+00	 7.860892e-01	 1.411827e+01
 1.453323e+00	 7.039021e-01	 1.421870e+01
 1.444812e+00	 7.212114e-01	 1.418610e+01
 1.436077e+00	 7.384513e-01	 1.418411e+01
 1.427119e+00	 7.556175e-01	 1.419317e+01
 1.417940e+00	 7.727057e-01	 1.416314e+01
 1.408539e+00	 7.897117e-01	 1.409035e+01
 1.459990e+00	 7.071310e-01	 1.418383e+01
 1.451439e+00	 7.245198e-01	 1.415649e+01
 1.442664e+00	 7.418387e-01	 1.416185e+01
 1.433666e+00	 7.590836e-01	 1.416591e+01
 1.424444e+00	 7.762502e-01	 1.413369e+01
 1.415000e+00	 7.933343e-01	 1.406228e+01
 1.466657e+00	 7.103599e-01	 1.415150e+01
 1.458067e+00	 7.278281e-01	 1.412832e+01
 1.449252e+00	 7.452261e-01	 1.413799e+01
 1.440212e+00	 7.625497e-01	 1.413690e+01
 1.430948e+00	 7.797947e-01	 1.410325e+01
 1.421461e+00	 7.969568e-01	 1.403415e+01
 1.389155e+00	 7.788442e-01	 1.417350e+01
 1.379667e+00	 7.955310e-01	 1.408515e+01
 1.369963e+00	 8.121287e-01	 1.401823e+01
 1.360044e+00	 8.286329e-01	 1.396051e+01
 1.349911e+00	 8.450397e-01	 1.389862e+01
 1.339566e+00	 8.613448e-01	 1.381822e+01
 1.395617e+00	 7.824667e-01	 1.414599e+01
 1.386084e+00	 7.992312e-01	 1.405989e+01
 1.376335e+00	 8.159060e-01	 1.399477e+01
 1.366369e+00	 8.324870e-01	 1.393857e+01
 1.356189e+00	 8.489701e-01	 1.387810e+01
 1.345796e+00	 8.653511e-01	 1.379916e+01
 1.402078e+00	 7.860892e-01	 1.411827e+01
 1.392501e+00	 8.029313e-01	 1.403418e+01
 1.382707e+00	 8.196834e-01	 1.397060e+01
 1.372695e+00	 8.363411e-01	 1.391575e+01
 1.362468e+00	 8.529005e-01	 1.385667e+01
 1.352027e+00	 8.693573e-01	 1.377936e+01
 1.408539e+00	 7.897117e-01	 1.409035e+01
 1.398918e+00	 8.066315e-01	 1.400839e+01
 1.389079e+00	 8.234607e-01	 1.394633e+01
 1.379021e+00	 8.401952e-01	 1.389278e+01
 1.368747e+00	 8.568309e-01	 1.383507e+01
 1.358257e+00	 8.733636e-01	 1.375945e+01
 1.415000e+00	 7.933343e-01	 1.406228e+01
 1.405335e+00	 8.103316e-01	 1.398291e+01
 1.395451e+00	 8.272380e-01	 1.392260e+01
 1.385347e+00	 8.440493e-01	 1.387042e+01
 1.375025e+00	 8.607613e-01	 1.381406e+01
 1.364488e+00	 8.773699e-01	 1.374007e+01
 1.421461e+00	 7.969568e-01	 1.403415e+01
 1.411752e+00	 8.140318e-01	 1.395817e+01
 1.401822e+00	 8.310154e-01	 1.390007e+01
 1.391673e+00	 8.479034e-01	 1.384944e+01
 1.381304e+00	 8.646917e-01	 1.379443e+01
 1.370718e+00	 8.813761e-01	 1.372192e+01
 1.339566e+00	 8.613448e-01	 1.381822e+01
 1.329010e+00	 8.775444e-01	 1.373534e+01
 1.318245e+00	 8.936343e-01	 1.366753e+01
 1.307272e+00	 9.096106e-01	 1.360198e+01
 1.296093e+00	 9.254692e-01	 1.352589e+01
 1.284711e+00	 9.412063e-01	 1.342682e+01
 1.345796e+00	 8.653511e-01	 1.379916e+01
 1.335191e+00	 8.816260e-01	 1.371821e+01
 1.324376e+00	 8.977908e-01	 1.365281e+01
 1.313352e+00	 9.138413e-01	 1.358962e+01
 1.302122e+00	 9.297737e-01	 1.351529e+01
 1.290686e+00	 9.455840e-01	 1.341671e+01
 1.352027e+00	 8.693573e-01	 1.377936e+01
 1.341373e+00	 8.857076e-01	 1.370055e+01
 1.330507e+00	 9.019472e-01	 1.363761e+01
 1.319433e+00	 9.180721e-01	 1.357667e+01
 1.308150e+00	 9.340782e-01	 1.350375e+01
 1.296662e+00	 9.499617e-01	 1.340507e+01
 1.358257e+00	 8.733636e-01	 1.375945e+01
 1.347554e+00	 8.897892e-01	 1.368285e+01
 1.336639e+00	 9.061036e-01	 1.362238e+01
 1.325513e+00	 9.223028e-01	 1.356357e+01
 1.314178e+00	 9.383827e-01	 1.349179e+01
 1.302637e+00	 9.543394e-01	 1.339258e+01
 1.364488e+00	 8.773699e-01	 1.374007e+01
 1.353736e+00	 8.938708e-01	 1.366564e+01
 1.342770e+00	 9.102601e-01	 1.360757e+01
 1.331593e+00	 9.265336e-01	 1.355078e+01
 1.320207e+00	 9.426873e-01	 1.347995e+01
 1.308612e+00	 9.587171e-01	 1.337992e+01
 1.370718e+00	 8.813761e-01	 1.372192e+01
 1.359917e+00	 8.979524e-01	 1.364947e+01
 1.348901e+00	 9.144165e-01	 1.359368e+01
 1.337674e+00	 9.307643e-01	 1.353879e+01
 1.326235e+00	 9.469918e-01	 1.346880e+01
 1.314588e+00	 9.630948e-01	 1.336780e+01
 1.284711e+00	 9.412063e-01	 1.342682e+01
 1.273126e+00	 9.568180e-01	 1.332019e+01
 1.261342e+00	 9.723003e-01	 1.322160e+01
 1.249360e+00	 9.876496e-01	 1.312045e+01
 1.237182e+00	 1.002862e+00	 1.300794e+01
 1.224811e+00	 1.017934e+00	 1.287746e+01
 1.290686e+00	 9.455840e-01	 1.341671e+01
 1.279048e+00	 9.612683e-01	 1.330967e+01
 1.267209e+00	 9.768227e-01	 1.321098e+01
 1.255171e+00	 9.922433e-01	 1.311060e+01
 1.242936e+00	 1.007526e+00	 1.300036e+01
 1.230508e+00	 1.022668e+00	 1.287439e+01
 1.296662e+00	 9.499617e-01	 1.340507e+01
 1.284969e+00	 9.657186e-01	 1.329714e+01
 1.273075e+00	 9.813450e-01	 1.319825e+01
 1.260982e+00	 9.968370e-01	 1.309890e+01
 1.248691e+00	 1.012191e+00	 1.299152e+01
 1.236205e+00	 1.027403e+00	 1.287089e+01
 1.302637e+00	 9.543394e-01	 1.339258e+01
 1.290891e+00	 9.701689e-01	 1.328340e+01
 1.278942e+00	 9.858673e-01	 1.318430e+01
 1.266793e+00	 1.001431e+00	 1.308627e+01
 1.254445e+00	 1.016855e+00	 1.298229e+01
 1.241901e+00	 1.032138e+00	 1.286774e+01
 1.308612e+00	 9.587171e-01	 1.337992e+01
 1.296812e+00	 9.746192e-01	 1.326930e+01
 1.284809e+00	 9.903896e-01	 1.317005e+01
 1.272604e+00	 1.006024e+00	 1.307364e+01
 1.260199e+00	 1.021520e+00	 1.297356e+01
 1.247598e+00	 1.036872e+00	 1.286572e+01
 1.314588e+00	 9.630948e-01	 1.336780e+01
 1.302734e+00	 9.790695e-01	 1.325566e+01
 1.290675e+00	 9.949120e-01	 1.315643e+01
 1.278414e+00	 1.010618e+00	 1.306198e+01
 1.265954e+00	 1.026184e+00	 1.296624e+01
 1.253295e+00	 1.041607e+00	 1.286564e+01
 1.224811e+00	 1.017934e+00	 1.287746e+01
 1.212249e+00	 1.032861e+00	 1.274195e+01
 1.199499e+00	 1.047641e+00	 1.261576e+01
 1.186564e+00	 1.062270e+00	 1.249865e+01
 1.173446e+00	 1.076743e+00	 1.239390e+01
 1.160147e+00	 1.091059e+00	 1.230874e+01
 1.230508e+00	 1.022668e+00	 1.287439e+01
 1.217888e+00	 1.037665e+00	 1.274473e+01
 1.205079e+00	 1.052514e+00	 1.262335e+01
 1.192083e+00	 1.067210e+00	 1.250847e+01
 1.178904e+00	 1.081751e+00	 1.240181e+01
 1.165544e+00	 1.096133e+00	 1.230899e+01
 1.236205e+00	 1.027403e+00	 1.287089e+01
 1.223526e+00	 1.042469e+00	 1.274754e+01
 1.210658e+00	 1.057387e+00	 1.263043e+01
 1.197602e+00	 1.072151e+00	 1.251632e+01
 1.184362e+00	 1.086759e+00	 1.240541e+01
 1.170940e+00	 1.101208e+00	 1.230176e+01
 1.241901e+00	 1.032138e+00	 1.286774e+01
 1.229164e+00	 1.047273e+00	 1.275103e+01
 1.216237e+00	 1.062259e+00	 1.263762e+01
 1.203121e+00	 1.077092e+00	 1.252283e+01
 1.189819e+00	 1.091768e+00	 1.240538e+01
 1.176336e+00	 1.106283e+00	 1.228784e+01
 1.247598e+00	 1.036872e+00	 1.286572e+01
 1.234803e+00	 1.052077e+00	 1.275588e+01
 1.221816e+00	 1.067132e+00	 1.264554e+01
 1.208640e+00	 1.082033e+00	 1.252861e+01
 1.195277e+00	 1.096776e+00	 1.240239e+01
 1.181732e+00	 1.111357e+00	 1.226803e+01
 1.253295e+00	 1.041607e+00	 1.286564e+01
 1.240441e+00	 1.056881e+00	 1.276279e+01
 1.227395e+00	 1.072005e+00	 1.265484e+01
 1.214159e+00	 1.086974e+00	 1.253433e+01
 1.200735e+00	 1.101784e+00	 1.239718e+01
 1.187128e+00	 1.116432e+00	 1.225085e+01
 1.160147e+00	 1.091059e+00	 1.230874e+01
 1.146672e+00	 1.105212e+00	 1.217652e+01
 1.133022e+00	 1.119201e+00	 1.195935e+01
 1.119201e+00	 1.133022e+00	 1.175289e+01
 1.105212e+00	 1.146672e+00	 1.158330e+01
 1.091059e+00	 1.160147e+00	 1.147138e+01
 1.165544e+00	 1.096133e+00	 1.230899e+01
 1.152005e+00	 1.110353e+00	 1.216382e+01
 1.138292e+00	 1.124407e+00	 1.195748e+01
 1.124407e+00	 1.138292e+00	 1.176543e+01
 1.110353e+00	 1.152005e+00	 1.160440e+01
 1.096133e+00	 1.165544e+00	 1.149373e+01
 1.170940e+00	 1.101208e+00	 1.230176e+01
 1.157339e+00	 1.115493e+00	 1.214506e+01
 1.143562e+00	 1.129613e+00	 1.195554e+01
 1.129613e+00	 1.143562e+00	 1.177573e+01
 1.115493e+00	 1.157339e+00	 1.162190e+01
 1.101208e+00	 1.170940e+00	 1.151138e+01
 1.176336e+00	 1.106283e+00	 1.228784e+01
 1.162672e+00	 1.120634e+00	 1.213005e+01
 1.148832e+00	 1.134818e+00	 1.195517e+01
 1.134818e+00	 1.148832e+00	 1.178563e+01
 1.120634e+00	 1.162672e+00	 1.163744e+01
 1.106283e+00	 1.176336e+00	 1.152663e+01
 1.181732e+00	 1.111357e+00	 1.226803e+01
 1.168005e+00	 1.125775e+00	 1.212030e+01
 1.154102e+00	 1.140024e+00	 1.195792e+01
 1.140024e+00	 1.154102e+00	 1.179687e+01
 1.125775e+00	 1.168005e+00	 1.165298e+01
 1.111357e+00	 1.181732e+00	 1.154173e+01
 1.187128e+00	 1.116432e+00	 1.225085e+01
 1.173339e+00	 1.130915e+00	 1.211714e+01
 1.159372e+00	 1.145229e+00	 1.196528e+01
 1.145229e+00	 1.159372e+00	 1.181113e+01
 1.130915e+00	 1.173339e+00	 1.167039e+01
 1.116432e+00	 1.187128e+00	 1.155845e+01
 1.091059e+00	 1.160147e+00	 1.147138e+01
 1.076743e+00	 1.173446e+00	 1.136652e+01
 1.062270e+00	 1.186564e+00	 1.121796e+01
 1.047641e+00	 1.199499e+00	 1.104087e+01
 1.032861e+00	 1.212249e+00	 1.084722e+01
 1.017934e+00	 1.224811e+00	 1.064602e+01
 1.096133e+00	 1.165544e+00	 1.149373e+01
 1.081751e+00	 1.178904e+00	 1.138592e+01
 1.067210e+00	 1.192083e+00	 1.123317e+01
 1.052514e+00	 1.205079e+00	 1.105238e+01
 1.037665e+00	 1.217888e+00	 1.085719e+01
 1.022668e+00	 1.230508e+00	 1.065833e+01
 1.101208e+00	 1.170940e+00	 1.151138e+01
 1.086759e+00	 1.184362e+00	 1.140006e+01
 1.072151e+00	 1.197602e+00	 1.124342e+01
 1.057387e+00	 1.210658e+00	 1.105977e+01
 1.042469e+00	 1.223526e+00	 1.086414e+01
 1.027403e+00	 1.236205e+00	 1.066859e+01
 1.106283e+00	 1.176336e+00	 1.152663e+01
 1.091768e+00	 1.189819e+00	 1.141133e+01
 1.077092e+00	 1.203121e+00	 1.125109e+01
 1.062259e+00	 1.216237e+00	 1.106530e+01
 1.047273e+00	 1.229164e+00	 1.087009e+01
 1.032138e+00	 1.241901e+00	 1.067851e+01
 1.111357e+00	 1.181732e+00	 1.154173e+01
 1.096776e+00	 1.195277e+00	 1.142211e+01
 1.082033e+00	 1.208640e+00	 1.125853e+01
 1.067132e+00	 1.221816e+00	 1.107123e+01
 1.052077e+00	 1.234803e+00	 1.087705e+01
 1.036872e+00	 1.247598e+00	 1.068975e+01
 1.116432e+00	 1.187128e+00	 1.155845e+01
 1.101784e+00	 1.200735e+00	 1.143473e+01
 1.086974e+00	 1.214159e+00	 1.126807e+01
 1.072005e+00	 1.227395e+00	 1.107973e+01
 1.056881e+00	 1.240441e+00	 1.088699e+01
 1.041607e+00	 1.253295e+00	 1.070396e+01
 1.017934e+00	 1.224811e+00	 1.064602e+01
 1.002862e+00	 1.237182e+00	 1.045740e+01
 9.876496e-01	 1.249360e+00	 1.028922e+01
 9.723003e-01	 1.261342e+00	 1.012817e+01
 9.568180e-01	 1.273126e+00	 9.958676e+00
 9.412063e-01	 1.284711e+00	 9.763307e+00
 1.022668e+00	 1.230508e+00	 1.065833e+01
 1.007526e+00	 1.242936e+00	 1.047464e+01
 9.922433e-01	 1.255171e+00	 1.031115e+01
 9.768227e-01	 1.267209e+00	 1.015377e+01
 9.612683e-01	 1.279048e+00	 9.986109e+00
 9.455840e-01	 1.290686e+00	 9.789800e+00
 1.027403e+00	 1.236205e+00	 1.066859e+01
 1.012191e+00	 1.248691e+00	 1.049010e+01
 9.968370e-01	 1.260982e+00	 1.033072e+01
 9.813450e-01	 1.273075e+00	 1.017604e+01
 9.657186e-01	 1.284969e+00	 1.000925e+01
 9.499617e-01	 1.296662e+00	 9.811536e+00
 1.032138e+00	 1.241901e+00	 1.067851e+01
 1.016855e+00	 1.254445e+00	 1.050517e+01
 1.001431e+00	 1.266793e+00	 1.034920e+01
 9.858673e-01	 1.278942e+00	 1.019625e+01
 9.701689e-01	 1.290891e+00	 1.002955e+01
 9.543394e-01	 1.302637e+00	 9.830286e+00
 1.036872e+00	 1.247598e+00	 1.068975e+01
 1.021520e+00	 1.260199e+00	 1.052123e+01
 1.006024e+00	 1.272604e+00	 1.036781e+01
 9.903896e-01	 1.284809e+00	 1.021565e+01
 9.746192e-01	 1.296812e+00	 1.004844e+01
 9.587171e-01	 1.308612e+00	 9.847807e+00
 1.041607e+00	 1.253295e+00	 1.070396e+01
 1.026184e+00	 1.265954e+00	 1.053964e+01
 1.010618e+00	 1.278414e+00	 1.038780e+01
 9.949120e-01	 1.290675e+00	 1.023552e+01
 9.790695e-01	 1.302734e+00	 1.006736e+01
 9.630948e-01	 1.314588e+00	 9.865843e+00
 9.412063e-01	 1.284711e+00	 9.763307e+00
 9.254692e-01	 1.296093e+00	 9.558551e+00
 9.096106e-01	 1.307272e+00	 9.368198e+00
 8.936343e-01	 1.318245e+00	 9.184381e+00
 8.775444e-01	 1.329010e+00	 8.999210e+00
 8.613448e-01	 1.339566e+00	 8.805087e+00
 9.455840e-01	 1.290686e+00	 9.789800e+00
 9.297737e-01	 1.302122e+00	 9.582826e+00
 9.138413e-01	 1.313352e+00	 9.391226e+00
 8.977908e-01	 1.324376e+00	 9.207321e+00
 8.816260e-01	 1.335191e+00	 9.023450e+00
 8.653511e-01	 1.345796e+00	 8.832287e+00
 9.499617e-01	 1.296662e+00	 9.811536e+00
 9.340782e-01	 1.308150e+00	 9.602854e+00
 9.180721e-01	 1.319433e+00	 9.411287e+00
 9.019472e-01	 1.330507e+00	 9.228771e+00
 8.857076e-01	 1.341373e+00	 9.047275e+00
 8.693573e-01	 1.352027e+00	 8.859129e+00
 9.543394e-01	 1.302637e+00	 9.830286e+00
 9.383827e-01	 1.314178e+00	 9.620700e+00
 9.223028e-01	 1.325513e+00	 9.430543e+00
 9.061036e-01	 1.336639e+00	 9.250801e+00
 8.897892e-01	 1.347554e+00	 9.072485e+00
 8.733636e-01	 1.358257e+00	 8.886975e+00
 9.587171e-01	 1.308612e+00	 9.847807e+00
 9.426873e-01	 1.320207e+00	 9.638409e+00
 9.265336e-01	 1.331593e+00	 9.451140e+00
 9.102601e-01	 1.342770e+00	 9.275473e+00
 8.938708e-01	 1.353736e+00	 9.100880e+00
 8.773699e-01	 1.364488e+00	 8.917192e+00
 9.630948e-01	 1.314588e+00	 9.865843e+00
 9.469918e-01	 1.326235e+00	 9.658012e+00
 9.307643e-01	 1.337674e+00	 9.475207e+00
 9.144165e-01	 1.348901e+00	 9.304833e+00
 8.979524e-01	 1.359917e+00	 9.134251e+00
 8.813761e-01	 1.370718e+00	 8.951151e+00
 8.613448e-01	 1.339566e+00	 8.805087e+00
 8.450397e-01	 1.349911e+00	 8.613111e+00
 8.286329e-01	 1.360044e+00	 8.429822e+00
 8.121287e-01	 1.369963e+00	 8.241928e+00
 7.955310e-01	 1.379667e+00	 8.037337e+00
 7.788442e-01	 1.389155e+00	 7.805382e+00
 8.653511e-01	 1.345796e+00	 8.832287e+00
 8.489701e-01	 1.356189e+00	 8.644186e+00
 8.324870e-01	 1.366369e+00	 8.464438e+00
 8.159060e-01	 1.376335e+00	 8.279324e+00
 7.992312e-01	 1.386084e+00	 8.076353e+00
 7.824667e-01	 1.395617e+00	 7.844498e+00
 8.693573e-01	 1.352027e+00	 8.859129e+00
 8.529005e-01	 1.362468e+00	 8.673468e+00
 8.363411e-01	 1.372695e+00	 8.494870e+00
 8.196834e-01	 1.382707e+00	 8.310105e+00
 8.029313e-01	 1.392501e+00	 8.107231e+00
 7.860892e-01	 1.402078e+00	 7.875837e+00
 8.733636e-01	 1.358257e+00	 8.886975e+00
 8.568309e-01	 1.368747e+00	 8.701938e+00
 8.401952e-01	 1.379021e+00	 8.521993e+00
 8.234607e-01	 1.389079e+00	 8.335304e+00
 8.066315e-01	 1.398918e+00	 8.131413e+00
 7.897117e-01	 1.408539e+00	 7.901486e+00
 8.773699e-01	 1.364488e+00	 8.917192e+00
 8.607613e-01	 1.375025e+00	 8.730589e+00
 8.440493e-01	 1.385347e+00	 8.546701e+00
 8.272380e-01	 1.395451e+00	 8.355973e+00
 8.103316e-01	 1.405335e+00	 8.150351e+00
 7.933343e-01	 1.415000e+00	 7.923528e+00
 8.813761e-01	 1.370718e+00	 8.951151e+00
 8.646917e-01	 1.381304e+00	 8.760430e+00
 8.479034e-01	 1.391673e+00	 8.569904e+00
 8.310154e-01	 1.401822e+00	 8.373177e+00
 8.140318e-01	 1.411752e+00	 8.165507e+00
 7.969568e-01	 1.421461e+00	 7.944049e+00
 7.788442e-01	 1.389155e+00	 7.805382e+00
 7.620721e-01	 1.398427e+00	 7.587902e+00
 7.452191e-01	 1.407480e+00	 7.414112e+00
 7.282891e-01	 1.416314e+00	 7.254674e+00
 7.112865e-01	 1.424929e+00	 7.082701e+00
 6.942153e-01	 1.433323e+00	 6.882995e+00
 7.824667e-01	 1.395617e+00	 7.844498e+00
 7.656166e-01	 1.404931e+00	 7.624001e+00
 7.486852e-01	 1.414026e+00	 7.444553e+00
 7.316765e-01	 1.422902e+00	 7.280695e+00
 7.145948e-01	 1.431557e+00	 7.107286e+00
 6.974442e-01	 1.439990e+00	 6.911661e+00
 7.860892e-01	 1.402078e+00	 7.875837e+00
 7.691612e-01	 1.411435e+00	 7.655418e+00
 7.521513e-01	 1.420573e+00	 7.475170e+00
 7.350639e-01	 1.429489e+00	 7.311444e+00
 7.179031e-01	 1.438184e+00	 7.139734e+00
 7.006731e-01	 1.446657e+00	 6.947616e+00
 7.897117e-01	 1.408539e+00	 7.901486e+00
 7.727057e-01	 1.417940e+00	 7.684755e+00
 7.556175e-01	 1.427119e+00	 7.508622e+00
 7.384513e-01	 1.436077e+00	 7.349204e+00
 7.212114e-01	 1.444812e+00	 7.181564e+00
 7.039021e-01	 1.453323e+00	 6.991231e+00
 7.933343e-01	 1.415000e+00	 7.923528e+00
 7.762502e-01	 1.424444e+00	 7.714606e+00
 7.590836e-01	 1.433666e+00	 7.547559e+00
 7.418387e-01	 1.442664e+00	 7.396264e+00
 7.245198e-01	 1.451439e+00	 7.234300e+00
 7.071310e-01	 1.459990e+00	 7.042904e+00
 7.969568e-01	 1.421461e+00	 7.944049e+00
 7.797947e-01	 1.430948e+00	 7.747557e+00
 7.625497e-01	 1.440212e+00	 7.594621e+00
 7.452261e-01	 1.449252e+00	 7.455123e+00
 7.278281e-01	 1.458067e+00	 7.299472e+00
 7.103599e-01	 1.466657e+00	 7.103060e+00
 6.942153e-01	 1.433323e+00	 6.882995e+00
 6.770797e-01	 1.441497e+00	 6.675293e+00
 6.598839e-01	 1.449450e+00	 6.483341e+00
 6.426319e-01	 1.457181e+00	 6.302813e+00
 6.253278e-01	 1.464690e+00	 6.132245e+00
 6.079759e-01	 1.471977e+00	 5.972896e+00
 6.974442e-01	 1.439990e+00	 6.911661e+00
 6.802289e-01	 1.448202e+00	 6.715316e+00
 6.629531e-01	 1.456191e+00	 6.537138e+00
 6.456208e-01	 1.463958e+00	 6.366273e+00
 6.282363e-01	 1.471502e+00	 6.194694e+00
 6.108037e-01	 1.478823e+00	 6.017081e+00
 7.006731e-01	 1.446657e+00	 6.947616e+00
 6.833781e-01	 1.454906e+00	 6.756133e+00
 6.660223e-01	 1.462933e+00	 6.579505e+00
 6.486098e-01	 1.470736e+00	 6.402141e+00
 6.311448e-01	 1.478315e+00	 6.211289e+00
 6.136315e-01	 1.485670e+00	 6.013773e+00
 7.039021e-01	 1.453323e+00	 6.991231e+00
 6.865274e-01	 1.461611e+00	 6.797010e+00
 6.690915e-01	 1.469675e+00	 6.609048e+00
 6.515988e-01	 1.477513e+00	 6.408785e+00
 6.340533e-01	 1.485127e+00	 6.193068e+00
 6.164593e-01	 1.492516e+00	 6.028168e+00
 7.071310e-01	 1.459990e+00	 7.042904e+00
 6.896766e-01	 1.468316e+00	 6.837265e+00
 6.721608e-01	 1.476416e+00	 6.624437e+00
 6.545878e-01	 1.484291e+00	 6.391887e+00
 6.369618e-01	 1.491940e+00	 6.203749e+00
 6.192871e-01	 1.499363e+00	 6.065476e+00
 7.103599e-01	 1.466657e+00	 7.103060e+00
 6.928258e-01	 1.475020e+00	 6.876260e+00
 6.752300e-01	 1.483158e+00	 6.626905e+00
 6.575768e-01	 1.491069e+00	 6.412276e+00
 6.398703e-01	 1.498752e+00	 6.250581e+00
 6.221149e-01	 1.506209e+00	 6.124106e+00
 6.079759e-01	 1.471977e+00	 5.972896e+00
 5.905802e-01	 1.479042e+00	 5.789600e+00
 5.731448e-01	 1.485886e+00	 5.563980e+00
 5.556736e-01	 1.492507e+00	 5.360153e+00
 5.381708e-01	 1.498907e+00	 5.178038e+00
 5.206404e-01	 1.505086e+00	 5.011427e+00
 6.108037e-01	 1.478823e+00	 6.017081e+00
 5.933271e-01	 1.485922e+00	 5.812403e+00
 5.758105e-01	 1.492797e+00	 5.614064e+00
 5.582581e-01	 1.499449e+00	 5.427239e+00
 5.406740e-01	 1.505879e+00	 5.250135e+00
 5.230620e-01	 1.512087e+00	 5.080701e+00
 6.136315e-01	 1.485670e+00	 6.013773e+00
 5.960740e-01	 1.492801e+00	 5.841029e+00
 5.784763e-01	 1.499708e+00	 5.664868e+00
 5.608427e-01	 1.506391e+00	 5.487586e+00
 5.431771e-01	 1.512851e+00	 5.311373e+00
 5.254836e-01	 1.519087e+00	 5.138210e+00
 6.164593e-01	 1.492516e+00	 6.028168e+00
 5.988209e-01	 1.499680e+00	 5.880468e+00
 5.811421e-01	 1.506619e+00	 5.716234e+00
 5.634272e-01	 1.513333e+00	 5.541590e+00
 5.456802e-01	 1.519822e+00	 5.362596e+00
 5.279051e-01	 1.526087e+00	 5.185137e+00
 6.192871e-01	 1.499363e+00	 6.065476e+00
 6.015677e-01	 1.506559e+00	 5.929888e+00
 5.838079e-01	 1.513530e+00	 5.767984e+00
 5.660117e-01	 1.520275e+00	 5.589618e+00
 5.481833e-01	 1.526794e+00	 5.404609e+00
 5.303267e-01	 1.533088e+00	 5.222621e+00
 6.221149e-01	 1.506209e+00	 6.124106e+00
 6.043146e-01	 1.513439e+00	 5.988447e+00
 5.864737e-01	 1.520441e+00	 5.819920e+00
 5.685963e-01	 1.527217e+00	 5.632011e+00
 5.506864e-01	 1.533766e+00	 5.438186e+00
 5.327483e-01	 1.540088e+00	 5.251766e+00
 5.206404e-01	 1.505086e+00	 5.011427e+00
 5.030863e-01	 1.511044e+00	 4.860979e+00
 4.855124e-01	 1.516782e+00	 4.727583e+00
 4.679227e-01	 1.522301e+00	 4.604777e+00
 4.503210e-01	 1.527600e+00	 4.485645e+00
 4.327112e-01	 1.532681e+00	 4.362788e+00
 5.230620e-01	 1.512087e+00	 5.080701e+00
 5.054262e-01	 1.518073e+00	 4.923558e+00
 4.877706e-01	 1.523837e+00	 4.781650e+00
 4.700991e-01	 1.529381e+00	 4.649843e+00
 4.524156e-01	 1.534705e+00	 4.522544e+00
 4.347238e-01	 1.539810e+00	 4.393665e+00
 5.254836e-01	 1.519087e+00	 5.138210e+00
 5.077662e-01	 1.525101e+00	 4.976072e+00
 4.900288e-01	 1.530892e+00	 4.828857e+00
 4.722755e-01	 1.536462e+00	 4.691884e+00
 4.545101e-01	 1.541810e+00	 4.559998e+00
 4.367364e-01	 1.546939e+00	 4.427543e+00
 5.279051e-01	 1.526087e+00	 5.185137e+00
 5.101061e-01	 1.532129e+00	 5.019933e+00
 4.922870e-01	 1.537947e+00	 4.870744e+00
 4.744519e-01	 1.543542e+00	 4.732474e+00
 4.566046e-01	 1.548915e+00	 4.599537e+00
 4.387491e-01	 1.554068e+00	 4.465840e+00
 5.303267e-01	 1.533088e+00	 5.222621e+00
 5.124460e-01	 1.539157e+00	 5.056511e+00
 4.945452e-01	 1.545002e+00	 4.908808e+00
 4.766283e-01	 1.550623e+00	 4.773145e+00
 4.586991e-01	 1.556021e+00	 4.642652e+00
 4.407617e-01	 1.561196e+00	 4.509938e+00
 5.327483e-01	 1.540088e+00	 5.251766e+00
 5.147860e-01	 1.546185e+00	 5.087133e+00
 4.968034e-01	 1.552056e+00	 4.944502e+00
 4.788046e-01	 1.557703e+00	 4.815391e+00
 4.607936e-01	 1.563126e+00	 4.690797e+00
 4.427743e-01	 1.568325e+00	 4.561188e+00
 4.327112e-01	 1.532681e+00	 4.362788e+00
 4.150970e-01	 1.537545e+00	 4.203127e+00
 3.974822e-01	 1.542193e+00	 4.008147e+00
 3.798705e-01	 1.546625e+00	 3.821362e+00
 3.622655e-01	 1.550843e+00	 3.681346e+00
 3.446709e-01	 1.554848e+00	 3.592577e+00
 4.347238e-01	 1.539810e+00	 4.393665e+00
 4.170277e-01	 1.544697e+00	 4.232732e+00
 3.993310e-01	 1.549366e+00	 4.041273e+00
 3.816374e-01	 1.553819e+00	 3.860270e+00
 3.639505e-01	 1.558056e+00	 3.727374e+00
 3.462740e-01	 1.562080e+00	 3.646099e+00
 4.367364e-01	 1.546939e+00	 4.427543e+00
 4.189584e-01	 1.551848e+00	 4.265920e+00
 4.011798e-01	 1.556539e+00	 4.076960e+00
 3.834042e-01	 1.561012e+00	 3.899722e+00
 3.656355e-01	 1.565270e+00	 3.771144e+00
 3.478771e-01	 1.569312e+00	 3.695262e+00
 4.387491e-01	 1.554068e+00	 4.465840e+00
 4.208891e-01	 1.558999e+00	 4.304009e+00
 4.030285e-01	 1.563712e+00	 4.116506e+00
 3.851710e-01	 1.568206e+00	 3.941067e+00
 3.673204e-01	 1.572483e+00	 3.814132e+00
 3.494803e-01	 1.576544e+00	 3.741639e+00
 4.407617e-01	 1.561196e+00	 4.509938e+00
 4.228198e-01	 1.566151e+00	 4.348287e+00
 4.048773e-01	 1.570885e+00	 4.161181e+00
 3.869379e-01	 1.575400e+00	 3.985627e+00
 3.690054e-01	 1.579696e+00	 3.857792e+00
 3.510834e-01	 1.583776e+00	 3.786784e+00
 4.427743e-01	 1.568325e+00	 4.561188e+00
 4.247505e-01	 1.573302e+00	 4.400009e+00
 4.067260e-01	 1.578058e+00	 4.212226e+00
 3.887047e-01	 1.582593e+00	 4.034697e+00
 3.706903e-01	 1.586909e+00	 3.903565e+00
 3.526865e-01	 1.591008e+00	 3.832235e+00
 3.446709e-01	 1.554848e+00	 3.592577e+00
 3.270901e-01	 1.558641e+00	 3.520166e+00
 3.095267e-01	 1.562224e+00	 3.428976e+00
 2.919842e-01	 1.565598e+00	 3.326672e+00
 2.744659e-01	 1.568764e+00	 3.218372e+00
 2.569751e-01	 1.571724e+00	 3.107126e+00
 3.462740e-01	 1.562080e+00	 3.646099e+00
 3.286115e-01	 1.565891e+00	 3.576721e+00
 3.109664e-01	 1.569490e+00	 3.484600e+00
 2.933423e-01	 1.572880e+00	 3.379036e+00
 2.757424e-01	 1.576060e+00	 3.266832e+00
 2.581703e-01	 1.579034e+00	 3.152764e+00
 3.478771e-01	 1.569312e+00	 3.695262e+00
 3.301328e-01	 1.573140e+00	 3.628029e+00
 3.124061e-01	 1.576756e+00	 3.535220e+00
 2.947003e-01	 1.580161e+00	 3.427340e+00
 2.770190e-01	 1.583357e+00	 3.312457e+00
 2.593655e-01	 1.586344e+00	 3.196660e+00
 3.494803e-01	 1.576544e+00	 3.741639e+00
 3.316542e-01	 1.580390e+00	 3.675741e+00
 3.138457e-01	 1.584023e+00	 3.582493e+00
 2.960584e-01	 1.587443e+00	 3.473189e+00
 2.782956e-01	 1.590653e+00	 3.356745e+00
 2.605608e-01	 1.593655e+00	 3.240154e+00
 3.510834e-01	 1.583776e+00	 3.786784e+00
 3.331755e-01	 1.587639e+00	 3.721492e+00
 3.152854e-01	 1.591289e+00	 3.628067e+00
 2.974165e-01	 1.594725e+00	 3.518178e+00
 2.795722e-01	 1.597950e+00	 3.401183e+00
 2.617560e-01	 1.600965e+00	 3.284579e+00
 3.526865e-01	 1.591008e+00	 3.832235e+00
 3.346969e-01	 1.594889e+00	 3.766903e+00
 3.167250e-01	 1.598555e+00	 3.673575e+00
 2.987745e-01	 1.602007e+00	 3.563891e+00
 2.808488e-01	 1.605247e+00	 3.447254e+00
 2.629512e-01	 1.608275e+00	 3.331266e+00
 2.569751e-01	 1.571724e+00	 3.107126e+00
 2.395151e-01	 1.574479e+00	 3.004909e+00
 2.220892e-01	 1.577031e+00	 2.920495e+00
 2.047005e-01	 1.579382e+00	 2.850191e+00
 1.873521e-01	 1.581534e+00	 2.789670e+00
 1.700470e-01	 1.583488e+00	 2.734254e+00
 2.581703e-01	 1.579034e+00	 3.152764e+00
 2.406291e-01	 1.581802e+00	 3.049913e+00
 2.231222e-01	 1.584366e+00	 2.966430e+00
 2.056526e-01	 1.586728e+00	 2.897808e+00
 1.882235e-01	 1.588890e+00	 2.838944e+00
 1.708379e-01	 1.590853e+00	 2.784405e+00
 2.593655e-01	 1.586344e+00	 3.196660e+00
 2.417432e-01	 1.589125e+00	 3.093766e+00
 2.241551e-01	 1.591701e+00	 3.011333e+00
 2.066047e-01	 1.594074e+00	 2.944237e+00
 1.890949e-01	 1.596246e+00	 2.886791e+00
 1.716288e-01	 1.598218e+00	 2.833005e+00
 2.605608e-01	 1.593655e+00	 3.240154e+00
 2.428572e-01	 1.596448e+00	 3.137636e+00
 2.251881e-01	 1.599036e+00	 3.056223e+00
 2.075568e-01	 1.601420e+00	 2.990362e+00
 1.899663e-01	 1.603602e+00	 2.933976e+00
 1.724197e-01	 1.605583e+00	 2.880715e+00
 2.617560e-01	 1.600965e+00	 3.284579e+00
 2.439712e-01	 1.603771e+00	 3.182692e+00
 2.262211e-01	 1.606371e+00	 3.102117e+00
 2.085089e-01	 1.608766e+00	 3.037066e+00
 1.908377e-01	 1.610958e+00	 2.981266e+00
 1.732106e-01	 1.612949e+00	 2.928201e+00
 2.629512e-01	 1.608275e+00	 3.331266e+00
 2.450852e-01	 1.611095e+00	 3.230101e+00
 2.272541e-01	 1.613706e+00	 3.150036e+00
 2.094610e-01	 1.616112e+00	 3.085238e+00
 1.917091e-01	 1.618314e+00	 3.029432e+00
 1.740015e-01	 1.620314e+00	 2.976130e+00
 1.700470e-01	 1.583488e+00	 2.734254e+00
 1.527882e-01	 1.585247e+00	 2.680919e+00
 1.355785e-01	 1.586811e+00	 2.630380e+00
 1.184210e-01	 1.588184e+00	 2.583692e+00
 1.013182e-01	 1.589366e+00	 2.542361e+00
 8.427301e-02	 1.590361e+00	 2.508504e+00
 1.708379e-01	 1.590853e+00	 2.784405e+00
 1.534988e-01	 1.592620e+00	 2.730912e+00
 1.362091e-01	 1.594192e+00	 2.679679e+00
 1.189718e-01	 1.595571e+00	 2.632145e+00
 1.017895e-01	 1.596759e+00	 2.590171e+00
 8.466498e-02	 1.597758e+00	 2.556197e+00
 1.716288e-01	 1.598218e+00	 2.833005e+00
 1.542094e-01	 1.599993e+00	 2.779490e+00
 1.368397e-01	 1.601572e+00	 2.727900e+00
 1.195226e-01	 1.602958e+00	 2.679932e+00
 1.022607e-01	 1.604151e+00	 2.637686e+00
 8.505695e-02	 1.605155e+00	 2.603803e+00
 1.724197e-01	 1.605583e+00	 2.880715e+00
 1.549201e-01	 1.607366e+00	 2.827219e+00
 1.374703e-01	 1.608953e+00	 2.775504e+00
 1.200734e-01	 1.610344e+00	 2.727411e+00
 1.027320e-01	 1.611544e+00	 2.685164e+00
 8.544891e-02	 1.612552e+00	 2.651490e+00
 1.732106e-01	 1.612949e+00	 2.928201e+00
 1.556307e-01	 1.614740e+00	 2.874664e+00
 1.381009e-01	 1.616333e+00	 2.822954e+00
 1.206242e-01	 1.617731e+00	 2.774945e+00
 1.032032e-01	 1.618936e+00	 2.732867e+00
 8.584088e-02	 1.619949e+00	 2.699428e+00
 1.740015e-01	 1.620314e+00	 2.976130e+00
 1.563414e-01	 1.622113e+00	 2.922395e+00
 1.387315e-01	 1.623714e+00	 2.870717e+00
 1.211750e-01	 1.625118e+00	 2.822894e+00
 1.036745e-01	 1.626328e+00	 2.781057e+00
 8.623285e-02	 1.627346e+00	 2.747786e+00
 8.427301e-02	 1.590361e+00	 2.508504e+00
 6.728796e-02	 1.591170e+00	 2.483877e+00
 5.036566e-02	 1.591796e+00	 2.466189e+00
 3.350861e-02	 1.592240e+00	 2.452917e+00
 1.671927e-02	 1.592505e+00	 2.442828e+00
-6.081786e-07	 1.592612e+00	 3.336271e+00
 8.466498e-02	 1.597758e+00	 2.556197e+00
 6.760093e-02	 1.598571e+00	 2.532042e+00
 5.059991e-02	 1.599200e+00	 2.515055e+00
 3.366446e-02	 1.599646e+00	 2.502331e+00
 1.679703e-02	 1.599912e+00	 2.492195e+00
-5.961442e-07	 1.600019e+00	 3.393549e+00
 8.505695e-02	 1.605155e+00	 2.603803e+00
 6.791389e-02	 1.605972e+00	 2.580099e+00
 5.083417e-02	 1.606603e+00	 2.563669e+00
 3.382032e-02	 1.607052e+00	 2.551365e+00
 1.687479e-02	 1.607319e+00	 2.541206e+00
-5.839652e-07	 1.607427e+00	 3.449428e+00
 8.544891e-02	 1.612552e+00	 2.651490e+00
 6.822686e-02	 1.613373e+00	 2.628142e+00
 5.106843e-02	 1.614007e+00	 2.612073e+00
 3.397617e-02	 1.614457e+00	 2.600032e+00
 1.695256e-02	 1.614726e+00	 2.589869e+00
-5.716532e-07	 1.614834e+00	 3.503945e+00
 8.584088e-02	 1.619949e+00	 2.699428e+00
 6.853983e-02	 1.620774e+00	 2.676264e+00
 5.130269e-02	 1.621411e+00	 2.660309e+00
 3.413203e-02	 1.621863e+00	 2.648344e+00
 1.703032e-02	 1.622133e+00	 2.638188e+00
-5.592200e-07	 1.622241e+00	 3.557133e+00
 8.623285e-02	 1.627346e+00	 2.747786e+00
 6.885280e-02	 1.628174e+00	 2.724562e+00
 5.153695e-02	 1.628814e+00	 2.708418e+00
 3.428788e-02	 1.629269e+00	 2.696312e+00
 1.710809e-02	 1.629540e+00	 2.686168e+00
-5.466773e-07	 1.629648e+00	 3.609023e+00
 1.629630e+00	 0.000000e+00	 1.432447e+01
 1.629540e+00	 1.710809e-02	 1.432388e+01
 1.629269e+00	 3.428788e-02	 1.432341e+01
 1.628814e+00	 5.153695e-02	 1.432379e+01
 1.628174e+00	 6.885280e-02	 1.432549e+01
 1.627346e+00	 8.623285e-02	 1.432870e+01
 1.637037e+00	 0.000000e+00	 1.426847e+01
 1.636947e+00	 1.718585e-02	 1.426783e+01
 1.636675e+00	 3.444373e-02	 1.426728e+01
 1.636218e+00	 5.177121e-02	 1.426762e+01
 1.635575e+00	 6.916576e-02	 1.426940e+01
 1.634744e+00	 8.662482e-02	 1.427288e+01
 1.644444e+00	 0.000000e+00	 1.421362e+01
 1.644354e+00	 1.726361e-02	 1.421291e+01
 1.644080e+00	 3.459959e-02	 1.421231e+01
 1.643622e+00	 5.200547e-02	 1.421266e+01
 1.642976e+00	 6.947873e-02	 1.421454e+01
 1.642141e+00	 8.701678e-02	 1.421829e+01
 1.651852e+00	 0.000000e+00	 1.415990e+01
 1.651761e+00	 1.734138e-02	 1.415909e+01
 1.651486e+00	 3.475544e-02	 1.415846e+01
 1.651026e+00	 5.223973e-02	 1.415884e+01
 1.650377e+00	 6.979170e-02	 1.416086e+01
 1.649538e+00	 8.740875e-02	 1.416487e+01
 1.659259e+00	 0.000000e+00	 1.410730e+01
 1.659168e+00	 1.741914e-02	 1.410634e+01
 1.658892e+00	 3.491130e-02	 1.410566e+01
 1.658429e+00	 5.247399e-02	 1.410611e+01
 1.657778e+00	 7.010467e-02	 1.410828e+01
 1.656935e+00	 8.780072e-02	 1.411255e+01
 1.666667e+00	 0.000000e+00	 1.405580e+01
 1.666575e+00	 1.749691e-02	 1.405462e+01
 1.666298e+00	 3.506715e-02	 1.405388e+01
 1.665833e+00	 5.270824e-02	 1.405439e+01
 1.665178e+00	 7.041763e-02	 1.405674e+01
 1.664332e+00	 8.819269e-02	 1.406128e+01
 1.627346e+00	 8.623285e-02	 1.432870e+01
 1.626328e+00	 1.036745e-01	 1.433178e+01
 1.625118e+00	 1.211750e-01	 1.433372e+01
 1.623714e+00	 1.387315e-01	 1.433530e+01
 1.622113e+00	 1.563414e-01	 1.433708e+01
 1.620314e+00	 1.740015e-01	 1.433938e+01
 1.634744e+00	 8.662482e-02	 1.427288e+01
 1.633721e+00	 1.041457e-01	 1.427630e+01
 1.632505e+00	 1.217258e-01	 1.427846e+01
 1.631094e+00	 1.393621e-01	 1.428017e+01
 1.629486e+00	 1.570520e-01	 1.428198e+01
 1.627679e+00	 1.747925e-01	 1.428425e+01
 1.642141e+00	 8.701678e-02	 1.421829e+01
 1.641113e+00	 1.046170e-01	 1.422202e+01
 1.639892e+00	 1.222765e-01	 1.422439e+01
 1.638475e+00	 1.399927e-01	 1.422623e+01
 1.636859e+00	 1.577627e-01	 1.422811e+01
 1.635044e+00	 1.755834e-01	 1.423043e+01
 1.649538e+00	 8.740875e-02	 1.416487e+01
 1.648506e+00	 1.050882e-01	 1.416888e+01
 1.647279e+00	 1.228273e-01	 1.417143e+01
 1.645855e+00	 1.406233e-01	 1.417337e+01
 1.644233e+00	 1.584733e-01	 1.417533e+01
 1.642409e+00	 1.763743e-01	 1.417773e+01
 1.656935e+00	 8.780072e-02	 1.411255e+01
 1.655898e+00	 1.055595e-01	 1.411681e+01
 1.654666e+00	 1.233781e-01	 1.411950e+01
 1.653236e+00	 1.412539e-01	 1.412150e+01
 1.651606e+00	 1.591839e-01	 1.412351e+01
 1.649774e+00	 1.771652e-01	 1.412598e+01
 1.664332e+00	 8.819269e-02	 1.406128e+01
 1.663290e+00	 1.060307e-01	 1.406577e+01
 1.662053e+00	 1.239289e-01	 1.406853e+01
 1.660616e+00	 1.418845e-01	 1.407053e+01
 1.658979e+00	 1.598946e-01	 1.407251e+01
 1.657139e+00	 1.779561e-01	 1.407499e+01
 1.620314e+00	 1.740015e-01	 1.433938e+01
 1.618314e+00	 1.917091e-01	 1.434329e+01
 1.616112e+00	 2.094610e-01	 1.434875e+01
 1.613706e+00	 2.272541e-01	 1.435414e+01
 1.611095e+00	 2.450852e-01	 1.435772e+01
 1.608275e+00	 2.629512e-01	 1.435768e+01
 1.627679e+00	 1.747925e-01	 1.428425e+01
 1.625670e+00	 1.925805e-01	 1.428819e+01
 1.623458e+00	 2.104131e-01	 1.429390e+01
 1.621041e+00	 2.282870e-01	 1.429977e+01
 1.618418e+00	 2.461993e-01	 1.430408e+01
 1.615586e+00	 2.641465e-01	 1.430499e+01
 1.635044e+00	 1.755834e-01	 1.423043e+01
 1.633026e+00	 1.934519e-01	 1.423450e+01
 1.630804e+00	 2.113652e-01	 1.424053e+01
 1.628376e+00	 2.293200e-01	 1.424690e+01
 1.625741e+00	 2.473133e-01	 1.425188e+01
 1.622896e+00	 2.653417e-01	 1.425360e+01
 1.642409e+00	 1.763743e-01	 1.417773e+01
 1.640382e+00	 1.943233e-01	 1.418200e+01
 1.638150e+00	 2.123172e-01	 1.418838e+01
 1.635711e+00	 2.303530e-01	 1.419527e+01
 1.633064e+00	 2.484273e-01	 1.420088e+01
 1.630206e+00	 2.665369e-01	 1.420332e+01
 1.649774e+00	 1.771652e-01	 1.412598e+01
 1.647738e+00	 1.951947e-01	 1.413045e+01
 1.645496e+00	 2.132693e-01	 1.413721e+01
 1.643047e+00	 2.313860e-01	 1.414462e+01
 1.640387e+00	 2.495413e-01	 1.415085e+01
 1.637517e+00	 2.677322e-01	 1.415395e+01
 1.657139e+00	 1.779561e-01	 1.407499e+01
 1.655094e+00	 1.960661e-01	 1.407963e+01
 1.652842e+00	 2.142214e-01	 1.408678e+01
 1.650382e+00	 2.324189e-01	 1.409472e+01
 1.647710e+00	 2.506554e-01	 1.410157e+01
 1.644827e+00	 2.689274e-01	 1.410532e+01
 1.608275e+00	 2.629512e-01	 1.435768e+01
 1.605247e+00	 2.808488e-01	 1.435745e+01
 1.602007e+00	 2.987745e-01	 1.436146e+01
 1.598555e+00	 3.167250e-01	 1.436940e+01
 1.594889e+00	 3.346969e-01	 1.438109e+01
 1.591008e+00	 3.526865e-01	 1.439653e+01
 1.615586e+00	 2.641465e-01	 1.430499e+01
 1.612543e+00	 2.821254e-01	 1.430562e+01
 1.609289e+00	 3.001326e-01	 1.431014e+01
 1.605821e+00	 3.181647e-01	 1.431829e+01
 1.602138e+00	 3.362182e-01	 1.432995e+01
 1.598239e+00	 3.542896e-01	 1.434517e+01
 1.622896e+00	 2.653417e-01	 1.425360e+01
 1.619840e+00	 2.834020e-01	 1.425493e+01
 1.616571e+00	 3.014907e-01	 1.425985e+01
 1.613087e+00	 3.196044e-01	 1.426821e+01
 1.609388e+00	 3.377396e-01	 1.427994e+01
 1.605471e+00	 3.558927e-01	 1.429518e+01
 1.630206e+00	 2.665369e-01	 1.420332e+01
 1.627136e+00	 2.846785e-01	 1.420521e+01
 1.623853e+00	 3.028487e-01	 1.421043e+01
 1.620353e+00	 3.210440e-01	 1.421894e+01
 1.616637e+00	 3.392609e-01	 1.423078e+01
 1.612703e+00	 3.574959e-01	 1.424614e+01
 1.637517e+00	 2.677322e-01	 1.415395e+01
 1.634433e+00	 2.859551e-01	 1.415632e+01
 1.631134e+00	 3.042068e-01	 1.416173e+01
 1.627620e+00	 3.224837e-01	 1.417031e+01
 1.623887e+00	 3.407823e-01	 1.418219e+01
 1.619935e+00	 3.590990e-01	 1.419768e+01
 1.644827e+00	 2.689274e-01	 1.410532e+01
 1.641729e+00	 2.872317e-01	 1.410809e+01
 1.638416e+00	 3.055649e-01	 1.411359e+01
 1.634886e+00	 3.239233e-01	 1.412210e+01
 1.631136e+00	 3.423036e-01	 1.413391e+01
 1.627167e+00	 3.607021e-01	 1.414943e+01
 1.591008e+00	 3.526865e-01	 1.439653e+01
 1.586909e+00	 3.706903e-01	 1.440042e+01
 1.582593e+00	 3.887047e-01	 1.438876e+01
 1.578058e+00	 4.067260e-01	 1.437688e+01
 1.573302e+00	 4.247505e-01	 1.437112e+01
 1.568325e+00	 4.427743e-01	 1.437808e+01
 1.598239e+00	 3.542896e-01	 1.434517e+01
 1.594123e+00	 3.723753e-01	 1.434901e+01
 1.589787e+00	 3.904716e-01	 1.433912e+01
 1.585231e+00	 4.085748e-01	 1.432874e+01
 1.580454e+00	 4.266811e-01	 1.432402e+01
 1.575454e+00	 4.447869e-01	 1.433134e+01
 1.605471e+00	 3.558927e-01	 1.429518e+01
 1.601336e+00	 3.740602e-01	 1.429939e+01
 1.596980e+00	 3.922384e-01	 1.429135e+01
 1.592404e+00	 4.104235e-01	 1.428242e+01
 1.587605e+00	 4.286118e-01	 1.427849e+01
 1.582583e+00	 4.467995e-01	 1.428568e+01
 1.612703e+00	 3.574959e-01	 1.424614e+01
 1.608549e+00	 3.757452e-01	 1.425106e+01
 1.604174e+00	 3.940052e-01	 1.424495e+01
 1.599577e+00	 4.122723e-01	 1.423749e+01
 1.594756e+00	 4.305425e-01	 1.423427e+01
 1.589711e+00	 4.488121e-01	 1.424108e+01
 1.619935e+00	 3.590990e-01	 1.419768e+01
 1.615762e+00	 3.774301e-01	 1.420352e+01
 1.611368e+00	 3.957721e-01	 1.419941e+01
 1.606750e+00	 4.141210e-01	 1.419353e+01
 1.601908e+00	 4.324732e-01	 1.419110e+01
 1.596840e+00	 4.508247e-01	 1.419751e+01
 1.627167e+00	 3.607021e-01	 1.414943e+01
 1.622976e+00	 3.791151e-01	 1.415630e+01
 1.618561e+00	 3.975389e-01	 1.415427e+01
 1.613923e+00	 4.159698e-01	 1.415015e+01
 1.609059e+00	 4.344039e-01	 1.414873e+01
 1.603969e+00	 4.528373e-01	 1.415496e+01
 1.568325e+00	 4.427743e-01	 1.437808e+01
 1.563126e+00	 4.607936e-01	 1.439100e+01
 1.557703e+00	 4.788046e-01	 1.439798e+01
 1.552056e+00	 4.968034e-01	 1.439845e+01
 1.546185e+00	 5.147860e-01	 1.439226e+01
 1.540088e+00	 5.327483e-01	 1.437975e+01
 1.575454e+00	 4.447869e-01	 1.433134e+01
 1.570231e+00	 4.628881e-01	 1.434456e+01
 1.564784e+00	 4.809810e-01	 1.435245e+01
 1.559111e+00	 4.990616e-01	 1.435425e+01
 1.553213e+00	 5.171259e-01	 1.434970e+01
 1.547089e+00	 5.351699e-01	 1.433902e+01
 1.582583e+00	 4.467995e-01	 1.428568e+01
 1.577336e+00	 4.649827e-01	 1.429862e+01
 1.571864e+00	 4.831574e-01	 1.430700e+01
 1.566166e+00	 5.013198e-01	 1.430998e+01
 1.560241e+00	 5.194658e-01	 1.430722e+01
 1.554089e+00	 5.375915e-01	 1.429891e+01
 1.589711e+00	 4.488121e-01	 1.424108e+01
 1.584441e+00	 4.670772e-01	 1.425338e+01
 1.578944e+00	 4.853338e-01	 1.426191e+01
 1.573221e+00	 5.035780e-01	 1.426586e+01
 1.567269e+00	 5.218058e-01	 1.426488e+01
 1.561090e+00	 5.400131e-01	 1.425917e+01
 1.596840e+00	 4.508247e-01	 1.419751e+01
 1.591546e+00	 4.691717e-01	 1.420902e+01
 1.586025e+00	 4.875102e-01	 1.421747e+01
 1.580276e+00	 5.058362e-01	 1.422214e+01
 1.574297e+00	 5.241457e-01	 1.422275e+01
 1.568090e+00	 5.424346e-01	 1.421957e+01
 1.603969e+00	 4.528373e-01	 1.415496e+01
 1.598651e+00	 4.712662e-01	 1.416574e+01
 1.593105e+00	 4.896866e-01	 1.417396e+01
 1.587330e+00	 5.080944e-01	 1.417906e+01
 1.581326e+00	 5.264856e-01	 1.418090e+01
 1.575090e+00	 5.448562e-01	 1.417986e+01
 1.540088e+00	 5.327483e-01	 1.437975e+01
 1.533766e+00	 5.506864e-01	 1.436167e+01
 1.527217e+00	 5.685963e-01	 1.434206e+01
 1.520441e+00	 5.864737e-01	 1.432701e+01
 1.513439e+00	 6.043146e-01	 1.432322e+01
 1.506209e+00	 6.221149e-01	 1.433806e+01
 1.547089e+00	 5.351699e-01	 1.433902e+01
 1.540737e+00	 5.531896e-01	 1.432248e+01
 1.534159e+00	 5.711808e-01	 1.430370e+01
 1.527352e+00	 5.891395e-01	 1.428877e+01
 1.520318e+00	 6.070615e-01	 1.428434e+01
 1.513055e+00	 6.249427e-01	 1.429766e+01
 1.554089e+00	 5.375915e-01	 1.429891e+01
 1.547709e+00	 5.556927e-01	 1.428456e+01
 1.541101e+00	 5.737653e-01	 1.426700e+01
 1.534263e+00	 5.918053e-01	 1.425225e+01
 1.527197e+00	 6.098084e-01	 1.424684e+01
 1.519902e+00	 6.277705e-01	 1.425788e+01
 1.561090e+00	 5.400131e-01	 1.425917e+01
 1.554681e+00	 5.581958e-01	 1.424737e+01
 1.548042e+00	 5.763498e-01	 1.423133e+01
 1.541174e+00	 5.944711e-01	 1.421692e+01
 1.534076e+00	 6.125553e-01	 1.421050e+01
 1.526748e+00	 6.305983e-01	 1.421900e+01
 1.568090e+00	 5.424346e-01	 1.421957e+01
 1.561652e+00	 5.606989e-01	 1.421039e+01
 1.554984e+00	 5.789344e-01	 1.419609e+01
 1.548086e+00	 5.971369e-01	 1.418227e+01
 1.540956e+00	 6.153022e-01	 1.417510e+01
 1.533595e+00	 6.334261e-01	 1.418130e+01
 1.575090e+00	 5.448562e-01	 1.417986e+01
 1.568624e+00	 5.632020e-01	 1.417314e+01
 1.561926e+00	 5.815189e-01	 1.416068e+01
 1.554997e+00	 5.998026e-01	 1.414783e+01
 1.547835e+00	 6.180491e-01	 1.414046e+01
 1.540441e+00	 6.362539e-01	 1.414507e+01
 1.506209e+00	 6.221149e-01	 1.433806e+01
 1.498752e+00	 6.398703e-01	 1.434452e+01
 1.491069e+00	 6.575768e-01	 1.431603e+01
 1.483158e+00	 6.752300e-01	 1.426213e+01
 1.475020e+00	 6.928258e-01	 1.419938e+01
 1.466657e+00	 7.103599e-01	 1.415150e+01
 1.513055e+00	 6.249427e-01	 1.429766e+01
 1.505565e+00	 6.427789e-01	 1.430380e+01
 1.497846e+00	 6.605658e-01	 1.427835e+01
 1.489899e+00	 6.782992e-01	 1.423078e+01
 1.481725e+00	 6.959750e-01	 1.417190e+01
 1.473323e+00	 7.135888e-01	 1.412251e+01
 1.519902e+00	 6.277705e-01	 1.425788e+01
 1.512377e+00	 6.456874e-01	 1.426261e+01
 1.504624e+00	 6.635548e-01	 1.423891e+01
 1.496641e+00	 6.813685e-01	 1.419616e+01
 1.488430e+00	 6.991242e-01	 1.414513e+01
 1.479990e+00	 7.168177e-01	 1.409821e+01
 1.526748e+00	 6.305983e-01	 1.421900e+01
 1.519190e+00	 6.485959e-01	 1.422178e+01
 1.511401e+00	 6.665437e-01	 1.419891e+01
 1.503383e+00	 6.844377e-01	 1.415980e+01
 1.495134e+00	 7.022734e-01	 1.411511e+01
 1.486656e+00	 7.200466e-01	 1.407687e+01
 1.533595e+00	 6.334261e-01	 1.418130e+01
 1.526002e+00	 6.515044e-01	 1.418209e+01
 1.518179e+00	 6.695327e-01	 1.415958e+01
 1.510124e+00	 6.875069e-01	 1.412317e+01
 1.501839e+00	 7.054226e-01	 1.408351e+01
 1.493323e+00	 7.232755e-01	 1.405249e+01
 1.540441e+00	 6.362539e-01	 1.414507e+01
 1.532815e+00	 6.544129e-01	 1.414435e+01
 1.524956e+00	 6.725217e-01	 1.412211e+01
 1.516866e+00	 6.905761e-01	 1.408778e+01
 1.508544e+00	 7.085718e-01	 1.405197e+01
 1.499990e+00	 7.265044e-01	 1.402648e+01
 1.466657e+00	 7.103599e-01	 1.415150e+01
 1.458067e+00	 7.278281e-01	 1.412832e+01
 1.449252e+00	 7.452261e-01	 1.413799e+01
 1.440212e+00	 7.625497e-01	 1.413690e+01
 1.430948e+00	 7.797947e-01	 1.410325e+01
 1.421461e+00	 7.969568e-01	 1.403415e+01
 1.473323e+00	 7.135888e-01	 1.412251e+01
 1.464694e+00	 7.311364e-01	 1.410152e+01
 1.455839e+00	 7.486135e-01	 1.411146e+01
 1.446758e+00	 7.660159e-01	 1.410537e+01
 1.437453e+00	 7.833392e-01	 1.407088e+01
 1.427923e+00	 8.005793e-01	 1.400512e+01
 1.479990e+00	 7.168177e-01	 1.409821e+01
 1.471322e+00	 7.344447e-01	 1.407702e+01
 1.462427e+00	 7.520009e-01	 1.408316e+01
 1.453305e+00	 7.694820e-01	 1.407174e+01
 1.443957e+00	 7.868838e-01	 1.403659e+01
 1.434384e+00	 8.042019e-01	 1.397484e+01
 1.486656e+00	 7.200466e-01	 1.407687e+01
 1.477950e+00	 7.377530e-01	 1.405645e+01
 1.469014e+00	 7.553883e-01	 1.405497e+01
 1.459851e+00	 7.729481e-01	 1.403763e+01
 1.450461e+00	 7.904283e-01	 1.400163e+01
 1.440845e+00	 8.078244e-01	 1.394413e+01
 1.493323e+00	 7.232755e-01	 1.405249e+01
 1.484577e+00	 7.410613e-01	 1.404029e+01
 1.475602e+00	 7.587757e-01	 1.402876e+01
 1.466398e+00	 7.764143e-01	 1.400465e+01
 1.456966e+00	 7.939728e-01	 1.396728e+01
 1.447306e+00	 8.114469e-01	 1.391386e+01
 1.499990e+00	 7.265044e-01	 1.402648e+01
 1.491205e+00	 7.443696e-01	 1.402106e+01
 1.482189e+00	 7.621631e-01	 1.400638e+01
 1.472944e+00	 7.798804e-01	 1.397445e+01
 1.463470e+00	 7.975173e-01	 1.393485e+01
 1.453767e+00	 8.150695e-01	 1.388488e+01
 1.421461e+00	 7.969568e-01	 1.403415e+01
 1.411752e+00	 8.140318e-01	 1.395817e+01
 1.401822e+00	 8.310154e-01	 1.390007e+01
 1.391673e+00	 8.479034e-01	 1.384944e+01
 1.381304e+00	 8.646917e-01	 1.379443e+01
 1.370718e+00	 8.813761e-01	 1.372192e+01
 1.427923e+00	 8.005793e-01	 1.400512e+01
 1.418170e+00	 8.177319e-01	 1.393357e+01
 1.408194e+00	 8.347927e-01	 1.387833e+01
 1.397998e+00	 8.517575e-01	 1.382953e+01
 1.387583e+00	 8.686222e-01	 1.377581e+01
 1.376949e+00	 8.853824e-01	 1.370442e+01
 1.434384e+00	 8.042019e-01	 1.397484e+01
 1.424587e+00	 8.214321e-01	 1.390851e+01
 1.414566e+00	 8.385701e-01	 1.385662e+01
 1.404324e+00	 8.556117e-01	 1.380986e+01
 1.393861e+00	 8.725526e-01	 1.375733e+01
 1.383179e+00	 8.893886e-01	 1.368668e+01
 1.440845e+00	 8.078244e-01	 1.394413e+01
 1.431004e+00	 8.251322e-01	 1.388341e+01
 1.420938e+00	 8.423474e-01	 1.383512e+01
 1.410650e+00	 8.594658e-01	 1.379047e+01
 1.400140e+00	 8.764830e-01	 1.373904e+01
 1.389410e+00	 8.933949e-01	 1.366891e+01
 1.447306e+00	 8.114469e-01	 1.391386e+01
 1.437421e+00	 8.288323e-01	 1.385873e+01
 1.427310e+00	 8.461248e-01	 1.381399e+01
 1.416976e+00	 8.633199e-01	 1.377140e+01
 1.406419e+00	 8.804134e-01	 1.372101e+01
 1.395641e+00	 8.974011e-01	 1.365134e+01
 1.453767e+00	 8.150695e-01	 1.388488e+01
 1.443838e+00	 8.325325e-01	 1.383493e+01
 1.433682e+00	 8.499021e-01	 1.379346e+01
 1.423301e+00	 8.671740e-01	 1.375276e+01
 1.412697e+00	 8.843438e-01	 1.370335e+01
 1.401871e+00	 9.014074e-01	 1.363420e+01
 1.370718e+00	 8.813761e-01	 1.372192e+01
 1.359917e+00	 8.979524e-01	 1.364947e+01
 1.348901e+00	 9.144165e-01	 1.359368e+01
 1.337674e+00	 9.307643e-01	 1.353879e+01
 1.326235e+00	 9.469918e-01	 1.346880e+01
 1.314588e+00	 9.630948e-01	 1.336780e+01
 1.376949e+00	 8.853824e-01	 1.370442e+01
 1.366098e+00	 9.020340e-01	 1.363349e+01
 1.355033e+00	 9.185729e-01	 1.357959e+01
 1.343754e+00	 9.349951e-01	 1.352631e+01
 1.332263e+00	 9.512963e-01	 1.345697e+01
 1.320563e+00	 9.674725e-01	 1.335492e+01
 1.383179e+00	 8.893886e-01	 1.368668e+01
 1.372280e+00	 9.061156e-01	 1.361676e+01
 1.361164e+00	 9.227294e-01	 1.356426e+01
 1.349834e+00	 9.392258e-01	 1.351220e+01
 1.338292e+00	 9.556008e-01	 1.344328e+01
 1.326539e+00	 9.718502e-01	 1.334019e+01
 1.389410e+00	 8.933949e-01	 1.366891e+01
 1.378461e+00	 9.101972e-01	 1.359970e+01
 1.367296e+00	 9.268858e-01	 1.354830e+01
 1.355915e+00	 9.434566e-01	 1.349724e+01
 1.344320e+00	 9.599053e-01	 1.342865e+01
 1.332514e+00	 9.762279e-01	 1.332460e+01
 1.395641e+00	 8.974011e-01	 1.365134e+01
 1.384643e+00	 9.142788e-01	 1.358273e+01
 1.373427e+00	 9.310423e-01	 1.353232e+01
 1.361995e+00	 9.476873e-01	 1.348218e+01
 1.350348e+00	 9.642098e-01	 1.341395e+01
 1.338489e+00	 9.806057e-01	 1.330912e+01
 1.401871e+00	 9.014074e-01	 1.363420e+01
 1.390824e+00	 9.183604e-01	 1.356631e+01
 1.379558e+00	 9.351987e-01	 1.351694e+01
 1.368075e+00	 9.519180e-01	 1.346780e+01
 1.356377e+00	 9.685143e-01	 1.340008e+01
 1.344465e+00	 9.849834e-01	 1.329476e+01
 1.314588e+00	 9.630948e-01	 1.336780e+01
 1.302734e+00	 9.790695e-01	 1.325566e+01
 1.290675e+00	 9.949120e-01	 1.315643e+01
 1.278414e+00	 1.010618e+00	 1.306198e+01
 1.265954e+00	 1.026184e+00	 1.296624e+01
 1.253295e+00	 1.041607e+00	 1.286564e+01
 1.320563e+00	 9.674725e-01	 1.335492e+01
 1.308655e+00	 9.835199e-01	 1.324142e+01
 1.296542e+00	 9.994343e-01	 1.314256e+01
 1.284225e+00	 1.015212e+00	 1.305051e+01
 1.271708e+00	 1.030849e+00	 1.295956e+01
 1.258992e+00	 1.046341e+00	 1.286646e+01
 1.326539e+00	 9.718502e-01	 1.334019e+01
 1.314577e+00	 9.879702e-01	 1.322561e+01
 1.302409e+00	 1.003957e+00	 1.312759e+01
 1.290036e+00	 1.019806e+00	 1.303846e+01
 1.277462e+00	 1.035513e+00	 1.295260e+01
 1.264689e+00	 1.051076e+00	 1.286693e+01
 1.332514e+00	 9.762279e-01	 1.332460e+01
 1.320498e+00	 9.924205e-01	 1.320925e+01
 1.308275e+00	 1.008479e+00	 1.311255e+01
 1.295847e+00	 1.024399e+00	 1.302673e+01
 1.283217e+00	 1.040178e+00	 1.294613e+01
 1.270385e+00	 1.055810e+00	 1.286757e+01
 1.338489e+00	 9.806057e-01	 1.330912e+01
 1.326420e+00	 9.968708e-01	 1.319338e+01
 1.314142e+00	 1.013001e+00	 1.309843e+01
 1.301658e+00	 1.028993e+00	 1.301625e+01
 1.288971e+00	 1.044842e+00	 1.294090e+01
 1.276082e+00	 1.060545e+00	 1.286894e+01
 1.344465e+00	 9.849834e-01	 1.329476e+01
 1.332341e+00	 1.001321e+00	 1.317904e+01
 1.320009e+00	 1.017524e+00	 1.308625e+01
 1.307469e+00	 1.033587e+00	 1.300793e+01
 1.294725e+00	 1.049507e+00	 1.293768e+01
 1.281779e+00	 1.065280e+00	 1.287158e+01
 1.253295e+00	 1.041607e+00	 1.286564e+01
 1.240441e+00	 1.056881e+00	 1.276279e+01
 1.227395e+00	 1.072005e+00	 1.265484e+01
 1.214159e+00	 1.086974e+00	 1.253433e+01
 1.200735e+00	 1.101784e+00	 1.239718e+01
 1.187128e+00	 1.116432e+00	 1.225085e+01
 1.258992e+00	 1.046341e+00	 1.286646e+01
 1.246080e+00	 1.061685e+00	 1.277025e+01
 1.232974e+00	 1.076878e+00	 1.266343e+01
 1.219678e+00	 1.091914e+00	 1.253730e+01
 1.206193e+00	 1.106792e+00	 1.238653e+01
 1.192524e+00	 1.121507e+00	 1.223925e+01
 1.264689e+00	 1.051076e+00	 1.286693e+01
 1.251718e+00	 1.066489e+00	 1.277647e+01
 1.238553e+00	 1.081750e+00	 1.266892e+01
 1.225196e+00	 1.096855e+00	 1.253457e+01
 1.211651e+00	 1.111800e+00	 1.236718e+01
 1.197920e+00	 1.126581e+00	 1.222973e+01
 1.270385e+00	 1.055810e+00	 1.286757e+01
 1.257356e+00	 1.071293e+00	 1.278177e+01
 1.244132e+00	 1.086623e+00	 1.267157e+01
 1.230715e+00	 1.101796e+00	 1.252643e+01
 1.217109e+00	 1.116808e+00	 1.234814e+01
 1.203316e+00	 1.131656e+00	 1.222308e+01
 1.276082e+00	 1.060545e+00	 1.286894e+01
 1.262995e+00	 1.076097e+00	 1.278651e+01
 1.249711e+00	 1.091496e+00	 1.267165e+01
 1.236234e+00	 1.106737e+00	 1.251319e+01
 1.222567e+00	 1.121816e+00	 1.233502e+01
 1.208712e+00	 1.136731e+00	 1.222002e+01
 1.281779e+00	 1.065280e+00	 1.287158e+01
 1.268633e+00	 1.080901e+00	 1.279106e+01
 1.255290e+00	 1.096369e+00	 1.266947e+01
 1.241753e+00	 1.111678e+00	 1.249531e+01
 1.228025e+00	 1.126824e+00	 1.232823e+01
 1.214108e+00	 1.141806e+00	 1.222118e+01
 1.187128e+00	 1.116432e+00	 1.225085e+01
 1.173339e+00	 1.130915e+00	 1.211714e+01
 1.159372e+00	 1.145229e+00	 1.196528e+01
 1.145229e+00	 1.159372e+00	 1.181113e+01
 1.130915e+00	 1.173339e+00	 1.167039e+01
 1.116432e+00	 1.187128e+00	 1.155845e+01
 1.192524e+00	 1.121507e+00	 1.223925e+01
 1.178672e+00	 1.136056e+00	 1.211712e+01
 1.164641e+00	 1.150435e+00	 1.197385e+01
 1.150435e+00	 1.164641e+00	 1.182516e+01
 1.136056e+00	 1.178672e+00	 1.168664e+01
 1.121507e+00	 1.192524e+00	 1.157357e+01
 1.197920e+00	 1.126581e+00	 1.222973e+01
 1.184005e+00	 1.141196e+00	 1.211674e+01
 1.169911e+00	 1.155640e+00	 1.198023e+01
 1.155640e+00	 1.169911e+00	 1.183572e+01
 1.141196e+00	 1.184005e+00	 1.169866e+01
 1.126581e+00	 1.197920e+00	 1.158414e+01
 1.203316e+00	 1.131656e+00	 1.222308e+01
 1.189339e+00	 1.146337e+00	 1.211706e+01
 1.175181e+00	 1.160846e+00	 1.198572e+01
 1.160846e+00	 1.175181e+00	 1.184437e+01
 1.146337e+00	 1.189339e+00	 1.170820e+01
 1.131656e+00	 1.203316e+00	 1.159207e+01
 1.208712e+00	 1.136731e+00	 1.222002e+01
 1.194672e+00	 1.151477e+00	 1.211908e+01
 1.180451e+00	 1.166052e+00	 1.199160e+01
 1.166052e+00	 1.180451e+00	 1.185258e+01
 1.151477e+00	 1.194672e+00	 1.171693e+01
 1.136731e+00	 1.208712e+00	 1.159919e+01
 1.214108e+00	 1.141806e+00	 1.222118e+01
 1.200006e+00	 1.156618e+00	 1.212373e+01
 1.185721e+00	 1.171257e+00	 1.199903e+01
 1.171257e+00	 1.185721e+00	 1.186174e+01
 1.156618e+00	 1.200006e+00	 1.172642e+01
 1.141806e+00	 1.214108e+00	 1.160724e+01
 1.116432e+00	 1.187128e+00	 1.155845e+01
 1.101784e+00	 1.200735e+00	 1.143473e+01
 1.086974e+00	 1.214159e+00	 1.126807e+01
 1.072005e+00	 1.227395e+00	 1.107973e+01
 1.056881e+00	 1.240441e+00	 1.088699e+01
 1.041607e+00	 1.253295e+00	 1.070396e+01
 1.121507e+00	 1.192524e+00	 1.157357e+01
 1.106792e+00	 1.206193e+00	 1.144641e+01
 1.091914e+00	 1.219678e+00	 1.127679e+01
 1.076878e+00	 1.232974e+00	 1.108770e+01
 1.061685e+00	 1.246080e+00	 1.089667e+01
 1.046341e+00	 1.258992e+00	 1.071797e+01
 1.126581e+00	 1.197920e+00	 1.158414e+01
 1.111800e+00	 1.211651e+00	 1.145435e+01
 1.096855e+00	 1.225196e+00	 1.128170e+01
 1.081750e+00	 1.238553e+00	 1.109202e+01
 1.066489e+00	 1.251718e+00	 1.090297e+01
 1.051076e+00	 1.264689e+00	 1.072882e+01
 1.131656e+00	 1.203316e+00	 1.159207e+01
 1.116808e+00	 1.217109e+00	 1.146012e+01
 1.101796e+00	 1.230715e+00	 1.128500e+01
 1.086623e+00	 1.244132e+00	 1.109486e+01
 1.071293e+00	 1.257356e+00	 1.090795e+01
 1.055810e+00	 1.270385e+00	 1.073848e+01
 1.136731e+00	 1.208712e+00	 1.159919e+01
 1.121816e+00	 1.222567e+00	 1.146537e+01
 1.106737e+00	 1.236234e+00	 1.128884e+01
 1.091496e+00	 1.249711e+00	 1.109831e+01
 1.076097e+00	 1.262995e+00	 1.091366e+01
 1.060545e+00	 1.276082e+00	 1.074887e+01
 1.141806e+00	 1.214108e+00	 1.160724e+01
 1.126824e+00	 1.228025e+00	 1.147196e+01
 1.111678e+00	 1.241753e+00	 1.129531e+01
 1.096369e+00	 1.255290e+00	 1.110445e+01
 1.080901e+00	 1.268633e+00	 1.092209e+01
 1.065280e+00	 1.281779e+00	 1.076187e+01
 1.041607e+00	 1.253295e+00	 1.070396e+01
 1.026184e+00	 1.265954e+00	 1.053964e+01
 1.010618e+00	 1.278414e+00	 1.038780e+01
 9.949120e-01	 1.290675e+00	 1.023552e+01
 9.790695e-01	 1.302734e+00	 1.006736e+01
 9.630948e-01	 1.314588e+00	 9.865843e+00
 1.046341e+00	 1.258992e+00	 1.071797e+01
 1.030849e+00	 1.271708e+00	 1.055760e+01
 1.015212e+00	 1.284225e+00	 1.040703e+01
 9.994343e-01	 1.296542e+00	 1.025439e+01
 9.835199e-01	 1.308655e+00	 1.008531e+01
 9.674725e-01	 1.320563e+00	 9.883358e+00
 1.051076e+00	 1.264689e+00	 1.072882e+01
 1.035513e+00	 1.277462e+00	 1.057265e+01
 1.019806e+00	 1.290036e+00	 1.042369e+01
 1.003957e+00	 1.302409e+00	 1.027104e+01
 9.879702e-01	 1.314577e+00	 1.010130e+01
 9.718502e-01	 1.326539e+00	 9.899032e+00
 1.055810e+00	 1.270385e+00	 1.073848e+01
 1.040178e+00	 1.283217e+00	 1.058663e+01
 1.024399e+00	 1.295847e+00	 1.043947e+01
 1.008479e+00	 1.308275e+00	 1.028702e+01
 9.924205e-01	 1.320498e+00	 1.011677e+01
 9.762279e-01	 1.332514e+00	 9.914166e+00
 1.060545e+00	 1.276082e+00	 1.074887e+01
 1.044842e+00	 1.288971e+00	 1.060132e+01
 1.028993e+00	 1.301658e+00	 1.045604e+01
 1.013001e+00	 1.314142e+00	 1.030388e+01
 9.968708e-01	 1.326420e+00	 1.013312e+01
 9.806057e-01	 1.338489e+00	 9.930046e+00
 1.065280e+00	 1.281779e+00	 1.076187e+01
 1.049507e+00	 1.294725e+00	 1.061848e+01
 1.033587e+00	 1.307469e+00	 1.047504e+01
 1.017524e+00	 1.320009e+00	 1.032311e+01
 1.001321e+00	 1.332341e+00	 1.015175e+01
 9.849834e-01	 1.344465e+00	 9.947944e+00
 9.630948e-01	 1.314588e+00	 9.865843e+00
 9.469918e-01	 1.326235e+00	 9.658012e+00
 9.307643e-01	 1.337674e+00	 9.475207e+00
 9.144165e-01	 1.348901e+00	 9.304833e+00
 8.979524e-01	 1.359917e+00	 9.134251e+00
 8.813761e-01	 1.370718e+00	 8.951151e+00
 9.674725e-01	 1.320563e+00	 9.883358e+00
 9.512963e-01	 1.332263e+00	 9.677671e+00
 9.349951e-01	 1.343754e+00	 9.499579e+00
 9.185729e-01	 1.355033e+00	 9.334370e+00
 9.020340e-01	 1.366098e+00	 9.167240e+00
 8.853824e-01	 1.376949e+00	 8.983682e+00
 9.718502e-01	 1.326539e+00	 9.899032e+00
 9.556008e-01	 1.338292e+00	 9.695029e+00
 9.392258e-01	 1.349834e+00	 9.520540e+00
 9.227294e-01	 1.361164e+00	 9.359183e+00
 9.061156e-01	 1.372280e+00	 9.194445e+00
 8.893886e-01	 1.383179e+00	 9.010092e+00
 9.762279e-01	 1.332514e+00	 9.914166e+00
 9.599053e-01	 1.344320e+00	 9.711320e+00
 9.434566e-01	 1.355915e+00	 9.539376e+00
 9.268858e-01	 1.367296e+00	 9.380718e+00
 9.101972e-01	 1.378461e+00	 9.217578e+00
 8.933949e-01	 1.389410e+00	 9.032458e+00
 9.806057e-01	 1.338489e+00	 9.930046e+00
 9.642098e-01	 1.350348e+00	 9.727768e+00
 9.476873e-01	 1.361995e+00	 9.557365e+00
 9.310423e-01	 1.373427e+00	 9.400417e+00
 9.142788e-01	 1.384643e+00	 9.238345e+00
 8.974011e-01	 1.395641e+00	 9.052843e+00
 9.849834e-01	 1.344465e+00	 9.947944e+00
 9.685143e-01	 1.356377e+00	 9.745587e+00
 9.519180e-01	 1.368075e+00	 9.575776e+00
 9.351987e-01	 1.379558e+00	 9.419712e+00
 9.183604e-01	 1.390824e+00	 9.258440e+00
 9.014074e-01	 1.401871e+00	 9.073297e+00
 8.813761e-01	 1.370718e+00	 8.951151e+00
 8.646917e-01	 1.381304e+00	 8.760430e+00
 8.479034e-01	 1.391673e+00	 8.569904e+00
 8.310154e-01	 1.401822e+00	 8.373177e+00
 8.140318e-01	 1.411752e+00	 8.165507e+00
 7.969568e-01	 1.421461e+00	 7.944049e+00
 8.853824e-01	 1.376949e+00	 8.983682e+00
 8.686222e-01	 1.387583e+00	 8.787970e+00
 8.517575e-01	 1.397998e+00	 8.590752e+00
 8.347927e-01	 1.408194e+00	 8.388719e+00
 8.177319e-01	 1.418170e+00	 8.180373e+00
 8.005793e-01	 1.427923e+00	 7.966264e+00
 8.893886e-01	 1.383179e+00	 9.010092e+00
 8.725526e-01	 1.393861e+00	 8.810622e+00
 8.556117e-01	 1.404324e+00	 8.609381e+00
 8.385701e-01	 1.414566e+00	 8.405145e+00
 8.214321e-01	 1.424587e+00	 8.198630e+00
 8.042019e-01	 1.434384e+00	 7.992739e+00
 8.933949e-01	 1.389410e+00	 9.032458e+00
 8.764830e-01	 1.400140e+00	 8.830742e+00
 8.594658e-01	 1.410650e+00	 8.628180e+00
 8.423474e-01	 1.420938e+00	 8.424637e+00
 8.251322e-01	 1.431004e+00	 8.222035e+00
 8.078244e-01	 1.440845e+00	 8.024596e+00
 8.974011e-01	 1.395641e+00	 9.052843e+00
 8.804134e-01	 1.406419e+00	 8.850673e+00
 8.633199e-01	 1.416976e+00	 8.649522e+00
 8.461248e-01	 1.427310e+00	 8.449372e+00
 8.288323e-01	 1.437421e+00	 8.252345e+00
 8.114469e-01	 1.447306e+00	 8.062968e+00
 9.014074e-01	 1.401871e+00	 9.073297e+00
 8.843438e-01	 1.412697e+00	 8.872738e+00
 8.671740e-01	 1.423301e+00	 8.675768e+00
 8.499021e-01	 1.433682e+00	 8.481515e+00
 8.325325e-01	 1.443838e+00	 8.291320e+00
 8.150695e-01	 1.453767e+00	 8.109004e+00
 7.969568e-01	 1.421461e+00	 7.944049e+00
 7.797947e-01	 1.430948e+00	 7.747557e+00
 7.625497e-01	 1.440212e+00	 7.594621e+00
 7.452261e-01	 1.449252e+00	 7.455123e+00
 7.278281e-01	 1.458067e+00	 7.299472e+00
 7.103599e-01	 1.466657e+00	 7.103060e+00
 8.005793e-01	 1.427923e+00	 7.966264e+00
 7.833392e-01	 1.437453e+00	 7.783677e+00
 7.660159e-01	 1.446758e+00	 7.644393e+00
 7.486135e-01	 1.455839e+00	 7.513782e+00
 7.311364e-01	 1.464694e+00	 7.358384e+00
 7.135888e-01	 1.473323e+00	 7.147644e+00
 8.042019e-01	 1.434384e+00	 7.992739e+00
 7.868838e-01	 1.443957e+00	 7.821615e+00
 7.694820e-01	 1.453305e+00	 7.689672e+00
 7.520009e-01	 1.462427e+00	 7.558399e+00
 7.344447e-01	 1.471322e+00	 7.390935e+00
 7.168177e-01	 1.479990e+00	 7.151917e+00
 8.078244e-01	 1.440845e+00	 8.024596e+00
 7.904283e-01	 1.450461e+00	 7.861841e+00
 7.729481e-01	 1.459851e+00	 7.730445e+00
 7.553883e-01	 1.469014e+00	 7.588630e+00
 7.377530e-01	 1.477950e+00	 7.396591e+00
 7.200466e-01	 1.486656e+00	 7.137285e+00
 8.114469e-01	 1.447306e+00	 8.062968e+00
 7.939728e-01	 1.456966e+00	 7.904854e+00
 7.764143e-01	 1.466398e+00	 7.766732e+00
 7.587757e-01	 1.475602e+00	 7.604174e+00
 7.410613e-01	 1.484577e+00	 7.382351e+00
 7.232755e-01	 1.493323e+00	 7.151559e+00
 8.150695e-01	 1.453767e+00	 8.109004e+00
 7.975173e-01	 1.463470e+00	 7.951178e+00
 7.798804e-01	 1.472944e+00	 7.798594e+00
 7.621631e-01	 1.482189e+00	 7.605147e+00
 7.443696e-01	 1.491205e+00	 7.398784e+00
 7.265044e-01	 1.499990e+00	 7.194607e+00
 7.103599e-01	 1.466657e+00	 7.103060e+00
 6.928258e-01	 1.475020e+00	 6.876260e+00
 6.752300e-01	 1.483158e+00	 6.626905e+00
 6.575768e-01	 1.491069e+00	 6.412276e+00
 6.398703e-01	 1.498752e+00	 6.250581e+00
 6.221149e-01	 1.506209e+00	 6.124106e+00
 7.135888e-01	 1.473323e+00	 7.147644e+00
 6.959750e-01	 1.481725e+00	 6.887173e+00
 6.782992e-01	 1.489899e+00	 6.644798e+00
 6.605658e-01	 1.497846e+00	 6.458637e+00
 6.427789e-01	 1.505565e+00	 6.311863e+00
 6.249427e-01	 1.513055e+00	 6.187858e+00
 7.168177e-01	 1.479990e+00	 7.151917e+00
 6.991242e-01	 1.488430e+00	 6.884336e+00
 6.813685e-01	 1.496641e+00	 6.673567e+00
 6.635548e-01	 1.504624e+00	 6.506120e+00
 6.456874e-01	 1.512377e+00	 6.367064e+00
 6.277705e-01	 1.519902e+00	 6.241712e+00
 7.200466e-01	 1.486656e+00	 7.137285e+00
 7.022734e-01	 1.495134e+00	 6.902067e+00
 6.844377e-01	 1.503383e+00	 6.711761e+00
 6.665437e-01	 1.511401e+00	 6.553713e+00
 6.485959e-01	 1.519190e+00	 6.415711e+00
 6.305983e-01	 1.526748e+00	 6.285827e+00
 7.232755e-01	 1.493323e+00	 7.151559e+00
 7.054226e-01	 1.501839e+00	 6.938588e+00
 6.875069e-01	 1.510124e+00	 6.757927e+00
 6.695327e-01	 1.518179e+00	 6.600397e+00
 6.515044e-01	 1.526002e+00	 6.457318e+00
 6.334261e-01	 1.533595e+00	 6.320331e+00
 7.265044e-01	 1.499990e+00	 7.194607e+00
 7.085718e-01	 1.508544e+00	 6.992131e+00
 6.905761e-01	 1.516866e+00	 6.810613e+00
 6.725217e-01	 1.524956e+00	 6.645145e+00
 6.544129e-01	 1.532815e+00	 6.491380e+00
 6.362539e-01	 1.540441e+00	 6.345330e+00
 6.221149e-01	 1.506209e+00	 6.124106e+00
 6.043146e-01	 1.513439e+00	 5.988447e+00
 5.864737e-01	 1.520441e+00	 5.819920e+00
 5.685963e-01	 1.527217e+00	 5.632011e+00
 5.506864e-01	 1.533766e+00	 5.438186e+00
 5.327483e-01	 1.540088e+00	 5.251766e+00
 6.249427e-01	 1.513055e+00	 6.187858e+00
 6.070615e-01	 1.520318e+00	 6.046106e+00
 5.891395e-01	 1.527352e+00	 5.867989e+00
 5.711808e-01	 1.534159e+00	 5.669879e+00
 5.531896e-01	 1.540737e+00	 5.468134e+00
 5.351699e-01	 1.547089e+00	 5.278960e+00
 6.277705e-01	 1.519902e+00	 6.241712e+00
 6.098084e-01	 1.527197e+00	 6.093881e+00
 5.918053e-01	 1.534263e+00	 5.908987e+00
 5.737653e-01	 1.541101e+00	 5.704909e+00
 5.556927e-01	 1.547709e+00	 5.499503e+00
 5.375915e-01	 1.554089e+00	 5.310455e+00
 6.305983e-01	 1.526748e+00	 6.285827e+00
 6.125553e-01	 1.534076e+00	 6.132479e+00
 5.944711e-01	 1.541174e+00	 5.943946e+00
 5.763498e-01	 1.548042e+00	 5.738253e+00
 5.581958e-01	 1.554681e+00	 5.533374e+00
 5.400131e-01	 1.561090e+00	 5.347094e+00
 6.334261e-01	 1.533595e+00	 6.320331e+00
 6.153022e-01	 1.540956e+00	 6.162572e+00
 5.971369e-01	 1.548086e+00	 5.973859e+00
 5.789344e-01	 1.554984e+00	 5.771019e+00
 5.606989e-01	 1.561652e+00	 5.570790e+00
 5.424346e-01	 1.568090e+00	 5.389686e+00
 6.362539e-01	 1.540441e+00	 6.345330e+00
 6.180491e-01	 1.547835e+00	 6.184797e+00
 5.998026e-01	 1.554997e+00	 5.999677e+00
 5.815189e-01	 1.561926e+00	 5.804275e+00
 5.632020e-01	 1.568624e+00	 5.612753e+00
 5.448562e-01	 1.575090e+00	 5.439006e+00
 5.327483e-01	 1.540088e+00	 5.251766e+00
 5.147860e-01	 1.546185e+00	 5.087133e+00
 4.968034e-01	 1.552056e+00	 4.944502e+00
 4.788046e-01	 1.557703e+00	 4.815391e+00
 4.607936e-01	 1.563126e+00	 4.690797e+00
 4.427743e-01	 1.568325e+00	 4.561188e+00
 5.351699e-01	 1.547089e+00	 5.278960e+00
 5.171259e-01	 1.553213e+00	 5.117295e+00
 4.990616e-01	 1.559111e+00	 4.980651e+00
 4.809810e-01	 1.564784e+00	 4.858525e+00
 4.628881e-01	 1.570231e+00	 4.739877e+00
 4.447869e-01	 1.575454e+00	 4.613129e+00
 5.375915e-01	 1.554089e+00	 5.310455e+00
 5.194658e-01	 1.560241e+00	 5.152049e+00
 5.013198e-01	 1.566166e+00	 5.019501e+00
 4.831574e-01	 1.571864e+00	 4.901299e+00
 4.649827e-01	 1.577336e+00	 4.785386e+00
 4.467995e-01	 1.582583e+00	 4.659159e+00
 5.400131e-01	 1.561090e+00	 5.347094e+00
 5.218058e-01	 1.567269e+00	 5.192006e+00
 5.035780e-01	 1.573221e+00	 5.061583e+00
 4.853338e-01	 1.578944e+00	 4.944308e+00
 4.670772e-01	 1.584441e+00	 4.828110e+00
 4.488121e-01	 1.589711e+00	 4.700369e+00
 5.424346e-01	 1.568090e+00	 5.389686e+00
 5.241457e-01	 1.574297e+00	 5.237745e+00
 5.058362e-01	 1.580276e+00	 5.107404e+00
 4.875102e-01	 1.586025e+00	 4.988123e+00
 4.691717e-01	 1.591546e+00	 4.868808e+00
 4.508247e-01	 1.596840e+00	 4.737815e+00
 5.448562e-01	 1.575090e+00	 5.439006e+00
 5.264856e-01	 1.581326e+00	 5.289820e+00
 5.080944e-01	 1.587330e+00	 5.157444e+00
 4.896866e-01	 1.593105e+00	 5.033290e+00
 4.712662e-01	 1.598651e+00	 4.908214e+00
 4.528373e-01	 1.603969e+00	 4.772527e+00
 4.427743e-01	 1.568325e+00	 4.561188e+00
 4.247505e-01	 1.573302e+00	 4.400009e+00
 4.067260e-01	 1.578058e+00	 4.212226e+00
 3.887047e-01	 1.582593e+00	 4.034697e+00
 3.706903e-01	 1.586909e+00	 3.903565e+00
 3.526865e-01	 1.591008e+00	 3.832235e+00
 4.447869e-01	 1.575454e+00	 4.613129e+00
 4.266811e-01	 1.580454e+00	 4.452120e+00
 4.085748e-01	 1.585231e+00	 4.263446e+00
 3.904716e-01	 1.589787e+00	 4.083784e+00
 3.723753e-01	 1.594123e+00	 3.949123e+00
 3.542896e-01	 1.598239e+00	 3.876969e+00
 4.467995e-01	 1.582583e+00	 4.659159e+00
 4.286118e-01	 1.587605e+00	 4.497681e+00
 4.104235e-01	 1.592404e+00	 4.308904e+00
 3.922384e-01	 1.596980e+00	 4.128694e+00
 3.740602e-01	 1.601336e+00	 3.992247e+00
 3.558927e-01	 1.605471e+00	 3.920056e+00
 4.488121e-01	 1.589711e+00	 4.700369e+00
 4.305425e-01	 1.594756e+00	 4.538082e+00
 4.122723e-01	 1.599577e+00	 4.350188e+00
 3.940052e-01	 1.604174e+00	 4.171119e+00
 3.757452e-01	 1.608549e+00	 4.034652e+00
 3.574959e-01	 1.612703e+00	 3.963150e+00
 4.508247e-01	 1.596840e+00	 4.737815e+00
 4.324732e-01	 1.601908e+00	 4.574677e+00
 4.141210e-01	 1.606750e+00	 4.388850e+00
 3.957721e-01	 1.611368e+00	 4.212717e+00
 3.774301e-01	 1.615762e+00	 4.078017e+00
 3.590990e-01	 1.619935e+00	 4.007883e+00
 4.528373e-01	 1.603969e+00	 4.772527e+00
 4.344039e-01	 1.609059e+00	 4.608788e+00
 4.159698e-01	 1.613923e+00	 4.426409e+00
 3.975389e-01	 1.618561e+00	 4.255113e+00
 3.791151e-01	 1.622976e+00	 4.123990e+00
 3.607021e-01	 1.627167e+00	 4.055864e+00
 3.526865e-01	 1.591008e+00	 3.832235e+00
 3.346969e-01	 1.594889e+00	 3.766903e+00
 3.167250e-01	 1.598555e+00	 3.673575e+00
 2.987745e-01	 1.602007e+00	 3.563891e+00
 2.808488e-01	 1.605247e+00	 3.447254e+00
 2.629512e-01	 1.608275e+00	 3.331266e+00
 3.542896e-01	 1.598239e+00	 3.876969e+00
 3.362182e-01	 1.602138e+00	 3.811556e+00
 3.181647e-01	 1.605821e+00	 3.718445e+00
 3.001326e-01	 1.609289e+00	 3.609154e+00
 2.821254e-01	 1.612543e+00	 3.493045e+00
 2.641465e-01	 1.615586e+00	 3.377753e+00
 3.558927e-01	 1.605471e+00	 3.920056e+00
 3.377396e-01	 1.609388e+00	 3.854983e+00
 3.196044e-01	 1.613087e+00	 3.761966e+00
 3.014907e-01	 1.616571e+00	 3.652625e+00
 2.834020e-01	 1.619840e+00	 3.536506e+00
 2.653417e-01	 1.622896e+00	 3.421511e+00
 3.574959e-01	 1.612703e+00	 3.963150e+00
 3.392609e-01	 1.616637e+00	 3.898699e+00
 3.210440e-01	 1.620353e+00	 3.805547e+00
 3.028487e-01	 1.623853e+00	 3.695628e+00
 2.846785e-01	 1.627136e+00	 3.578903e+00
 2.665369e-01	 1.630206e+00	 3.463767e+00
 3.590990e-01	 1.619935e+00	 4.007883e+00
 3.407823e-01	 1.623887e+00	 3.944209e+00
 3.224837e-01	 1.627620e+00	 3.850586e+00
 3.042068e-01	 1.631134e+00	 3.739483e+00
 2.859551e-01	 1.634433e+00	 3.621495e+00
 2.677322e-01	 1.637517e+00	 3.505743e+00
 3.607021e-01	 1.627167e+00	 4.055864e+00
 3.423036e-01	 1.631136e+00	 3.992997e+00
 3.239233e-01	 1.634886e+00	 3.898470e+00
 3.055649e-01	 1.638416e+00	 3.785500e+00
 2.872317e-01	 1.641729e+00	 3.665537e+00
 2.689274e-01	 1.644827e+00	 3.548661e+00
 2.629512e-01	 1.608275e+00	 3.331266e+00
 2.450852e-01	 1.611095e+00	 3.230101e+00
 2.272541e-01	 1.613706e+00	 3.150036e+00
 2.094610e-01	 1.616112e+00	 3.085238e+00
 1.917091e-01	 1.618314e+00	 3.029432e+00
 1.740015e-01	 1.620314e+00	 2.976130e+00
 2.641465e-01	 1.615586e+00	 3.377753e+00
 2.461993e-01	 1.618418e+00	 3.277287e+00
 2.282870e-01	 1.621041e+00	 3.197668e+00
 2.104131e-01	 1.623458e+00	 3.133050e+00
 1.925805e-01	 1.625670e+00	 3.077188e+00
 1.747925e-01	 1.627679e+00	 3.023658e+00
 2.653417e-01	 1.622896e+00	 3.421511e+00
 2.473133e-01	 1.625741e+00	 3.321687e+00
 2.293200e-01	 1.628376e+00	 3.242762e+00
 2.113652e-01	 1.630804e+00	 3.178751e+00
 1.934519e-01	 1.633026e+00	 3.123316e+00
 1.755834e-01	 1.635044e+00	 3.069979e+00
 2.665369e-01	 1.630206e+00	 3.463767e+00
 2.484273e-01	 1.633064e+00	 3.364483e+00
 2.303530e-01	 1.635711e+00	 3.286424e+00
 2.123172e-01	 1.638150e+00	 3.223342e+00
 1.943233e-01	 1.640382e+00	 3.168692e+00
 1.763743e-01	 1.642409e+00	 3.115823e+00
 2.677322e-01	 1.637517e+00	 3.505743e+00
 2.495413e-01	 1.640387e+00	 3.406855e+00
 2.313860e-01	 1.643047e+00	 3.329759e+00
 2.132693e-01	 1.645496e+00	 3.267828e+00
 1.951947e-01	 1.647738e+00	 3.214194e+00
 1.771652e-01	 1.649774e+00	 3.161924e+00
 2.689274e-01	 1.644827e+00	 3.548661e+00
 2.506554e-01	 1.647710e+00	 3.449982e+00
 2.324189e-01	 1.650382e+00	 3.373871e+00
 2.142214e-01	 1.652842e+00	 3.313211e+00
 1.960661e-01	 1.655094e+00	 3.260700e+00
 1.779561e-01	 1.657139e+00	 3.209016e+00
 1.740015e-01	 1.620314e+00	 2.976130e+00
 1.563414e-01	 1.622113e+00	 2.922395e+00
 1.387315e-01	 1.623714e+00	 2.870717e+00
 1.211750e-01	 1.625118e+00	 2.822894e+00
 1.036745e-01	 1.626328e+00	 2.781057e+00
 8.623285e-02	 1.627346e+00	 2.747786e+00
 1.747925e-01	 1.627679e+00	 3.023658e+00
 1.570520e-01	 1.629486e+00	 2.969784e+00
 1.393621e-01	 1.631094e+00	 2.918204e+00
 1.217258e-01	 1.632505e+00	 2.870619e+00
 1.041457e-01	 1.633721e+00	 2.829050e+00
 8.662482e-02	 1.634744e+00	 2.795932e+00
 1.755834e-01	 1.635044e+00	 3.069979e+00
 1.577627e-01	 1.636859e+00	 3.016210e+00
 1.399927e-01	 1.638475e+00	 2.964811e+00
 1.222765e-01	 1.639892e+00	 2.917464e+00
 1.046170e-01	 1.641113e+00	 2.876150e+00
 8.701678e-02	 1.642141e+00	 2.843237e+00
 1.763743e-01	 1.642409e+00	 3.115823e+00
 1.584733e-01	 1.644233e+00	 3.062259e+00
 1.406233e-01	 1.645855e+00	 3.010995e+00
 1.228273e-01	 1.647279e+00	 2.963770e+00
 1.050882e-01	 1.648506e+00	 2.922605e+00
 8.740875e-02	 1.649538e+00	 2.889875e+00
 1.771652e-01	 1.649774e+00	 3.161924e+00
 1.591839e-01	 1.651606e+00	 3.108518e+00
 1.412539e-01	 1.653236e+00	 3.057213e+00
 1.233781e-01	 1.654666e+00	 3.009882e+00
 1.055595e-01	 1.655898e+00	 2.968665e+00
 8.780072e-02	 1.656935e+00	 2.936025e+00
 1.779561e-01	 1.657139e+00	 3.209016e+00
 1.598946e-01	 1.658979e+00	 3.155576e+00
 1.418845e-01	 1.660616e+00	 3.103923e+00
 1.239289e-01	 1.662053e+00	 3.056146e+00
 1.060307e-01	 1.663290e+00	 3.014583e+00
 8.819269e-02	 1.664332e+00	 2.981864e+00
 8.623285e-02	 1.627346e+00	 2.747786e+00
 6.885280e-02	 1.628174e+00	 2.724562e+00
 5.153695e-02	 1.628814e+00	 2.708418e+00
 3.428788e-02	 1.629269e+00	 2.696312e+00
 1.710809e-02	 1.629540e+00	 2.686168e+00
-5.466773e-07	 1.629648e+00	 3.609023e+00
 8.662482e-02	 1.634744e+00	 2.795932e+00
 6.916576e-02	 1.635575e+00	 2.772607e+00
 5.177121e-02	 1.636218e+00	 2.756243e+00
 3.444373e-02	 1.636675e+00	 2.743989e+00
 1.718585e-02	 1.636947e+00	 2.733885e+00
-5.340367e-07	 1.637055e+00	 3.659419e+00
 8.701678e-02	 1.642141e+00	 2.843237e+00
 6.947873e-02	 1.642976e+00	 2.819987e+00
 5.200547e-02	 1.643622e+00	 2.803645e+00
 3.459959e-02	 1.644080e+00	 2.791440e+00
 1.726361e-02	 1.644354e+00	 2.781416e+00
-5.213099e-07	 1.644463e+00	 3.708113e+00
 8.740875e-02	 1.649538e+00	 2.889875e+00
 6.979170e-02	 1.650377e+00	 2.866820e+00
 5.223973e-02	 1.651026e+00	 2.850688e+00
 3.475544e-02	 1.651486e+00	 2.838687e+00
 1.734138e-02	 1.651761e+00	 2.828760e+00
-5.085084e-07	 1.651870e+00	 3.755108e+00
 8.780072e-02	 1.656935e+00	 2.936025e+00
 7.010467e-02	 1.657778e+00	 2.913221e+00
 5.247399e-02	 1.658429e+00	 2.897437e+00
 3.491130e-02	 1.658892e+00	 2.885753e+00
 1.741914e-02	 1.659168e+00	 2.875910e+00
-4.956438e-07	 1.659277e+00	 3.800405e+00
 8.819269e-02	 1.664332e+00	 2.981864e+00
 7.041763e-02	 1.665178e+00	 2.959308e+00
 5.270824e-02	 1.665833e+00	 2.943953e+00
 3.506715e-02	 1.666298e+00	 2.932657e+00
 1.749691e-02	 1.666575e+00	 2.922860e+00
-4.827274e-07	 1.666684e+00	 3.844001e+00
 1.666667e+00	 0.000000e+00	 1.405580e+01
 1.666575e+00	 1.749691e-02	 1.405462e+01
 1.666298e+00	 3.506715e-02	 1.405388e+01
 1.665833e+00	 5.270824e-02	 1.405439e+01
 1.665178e+00	 7.041763e-02	 1.405674e+01
 1.664332e+00	 8.819269e-02	 1.406128e+01
 1.674074e+00	 0.000000e+00	 1.400538e+01
 1.673982e+00	 1.757467e-02	 1.400394e+01
 1.673703e+00	 3.522300e-02	 1.400312e+01
 1.673237e+00	 5.294250e-02	 1.400369e+01
 1.672579e+00	 7.073060e-02	 1.400621e+01
 1.671729e+00	 8.858465e-02	 1.401104e+01
 1.681481e+00	 0.000000e+00	 1.395595e+01
 1.681389e+00	 1.765243e-02	 1.395430e+01
 1.681109e+00	 3.537886e-02	 1.395340e+01
 1.680640e+00	 5.317676e-02	 1.395400e+01
 1.679980e+00	 7.104357e-02	 1.395667e+01
 1.679126e+00	 8.897662e-02	 1.396178e+01
 1.688889e+00	 0.000000e+00	 1.390745e+01
 1.688796e+00	 1.773020e-02	 1.390567e+01
 1.688515e+00	 3.553471e-02	 1.390470e+01
 1.688044e+00	 5.341102e-02	 1.390531e+01
 1.687381e+00	 7.135653e-02	 1.390809e+01
 1.686523e+00	 8.936859e-02	 1.391345e+01
 1.696296e+00	 0.000000e+00	 1.385982e+01
 1.696203e+00	 1.780796e-02	 1.385801e+01
 1.695921e+00	 3.569057e-02	 1.385700e+01
 1.695448e+00	 5.364528e-02	 1.385760e+01
 1.694782e+00	 7.166950e-02	 1.386043e+01
 1.693920e+00	 8.976056e-02	 1.386597e+01
 1.703704e+00	 0.000000e+00	 1.381299e+01
 1.703610e+00	 1.788573e-02	 1.381130e+01
 1.703327e+00	 3.584642e-02	 1.381030e+01
 1.702852e+00	 5.387954e-02	 1.381085e+01
 1.702182e+00	 7.198247e-02	 1.381366e+01
 1.701317e+00	 9.015252e-02	 1.381927e+01
 1.664332e+00	 8.819269e-02	 1.406128e+01
 1.663290e+00	 1.060307e-01	 1.406577e+01
 1.662053e+00	 1.239289e-01	 1.406853e+01
 1.660616e+00	 1.418845e-01	 1.407053e+01
 1.658979e+00	 1.598946e-01	 1.407251e+01
 1.657139e+00	 1.779561e-01	 1.407499e+01
 1.671729e+00	 8.858465e-02	 1.401104e+01
 1.670683e+00	 1.065020e-01	 1.401576e+01
 1.669440e+00	 1.244797e-01	 1.401861e+01
 1.667997e+00	 1.425151e-01	 1.402060e+01
 1.666352e+00	 1.606052e-01	 1.402252e+01
 1.664504e+00	 1.787470e-01	 1.402498e+01
 1.679126e+00	 8.897662e-02	 1.396178e+01
 1.678075e+00	 1.069732e-01	 1.396678e+01
 1.676827e+00	 1.250305e-01	 1.396978e+01
 1.675377e+00	 1.431457e-01	 1.397181e+01
 1.673726e+00	 1.613159e-01	 1.397373e+01
 1.671869e+00	 1.795380e-01	 1.397615e+01
 1.686523e+00	 8.936859e-02	 1.391345e+01
 1.685468e+00	 1.074445e-01	 1.391873e+01
 1.684213e+00	 1.255813e-01	 1.392190e+01
 1.682758e+00	 1.437763e-01	 1.392403e+01
 1.681099e+00	 1.620265e-01	 1.392597e+01
 1.679234e+00	 1.803289e-01	 1.392837e+01
 1.693920e+00	 8.976056e-02	 1.386597e+01
 1.692860e+00	 1.079157e-01	 1.387149e+01
 1.691600e+00	 1.261321e-01	 1.387484e+01
 1.690138e+00	 1.444069e-01	 1.387709e+01
 1.688472e+00	 1.627371e-01	 1.387909e+01
 1.686599e+00	 1.811198e-01	 1.388148e+01
 1.701317e+00	 9.015252e-02	 1.381927e+01
 1.700253e+00	 1.083869e-01	 1.382496e+01
 1.698987e+00	 1.266829e-01	 1.382848e+01
 1.697519e+00	 1.450375e-01	 1.383086e+01
 1.695845e+00	 1.634478e-01	 1.383293e+01
 1.693964e+00	 1.819107e-01	 1.383533e+01
 1.657139e+00	 1.779561e-01	 1.407499e+01
 1.655094e+00	 1.960661e-01	 1.407963e+01
 1.652842e+00	 2.142214e-01	 1.408678e+01
 1.650382e+00	 2.324189e-01	 1.409472e+01
 1.647710e+00	 2.506554e-01	 1.410157e+01
 1.644827e+00	 2.689274e-01	 1.410532e+01
 1.664504e+00	 1.787470e-01	 1.402498e+01
 1.662450e+00	 1.969375e-01	 1.402974e+01
 1.660188e+00	 2.151735e-01	 1.403723e+01
 1.657717e+00	 2.334519e-01	 1.404570e+01
 1.655034e+00	 2.517694e-01	 1.405321e+01
 1.652137e+00	 2.701226e-01	 1.405767e+01
 1.671869e+00	 1.795380e-01	 1.397615e+01
 1.669806e+00	 1.978089e-01	 1.398100e+01
 1.667534e+00	 2.161256e-01	 1.398879e+01
 1.665052e+00	 2.344849e-01	 1.399775e+01
 1.662357e+00	 2.528834e-01	 1.400592e+01
 1.659448e+00	 2.713179e-01	 1.401117e+01
 1.679234e+00	 1.803289e-01	 1.392837e+01
 1.677162e+00	 1.986803e-01	 1.393326e+01
 1.674880e+00	 2.170777e-01	 1.394128e+01
 1.672387e+00	 2.355179e-01	 1.395067e+01
 1.669680e+00	 2.539974e-01	 1.395947e+01
 1.666758e+00	 2.725131e-01	 1.396554e+01
 1.686599e+00	 1.811198e-01	 1.388148e+01
 1.684518e+00	 1.995517e-01	 1.388638e+01
 1.682226e+00	 2.180298e-01	 1.389456e+01
 1.679722e+00	 2.365508e-01	 1.390430e+01
 1.677003e+00	 2.551114e-01	 1.391366e+01
 1.674068e+00	 2.737083e-01	 1.392049e+01
 1.693964e+00	 1.819107e-01	 1.383533e+01
 1.691874e+00	 2.004231e-01	 1.384023e+01
 1.689572e+00	 2.189819e-01	 1.384849e+01
 1.687057e+00	 2.375838e-01	 1.385846e+01
 1.684326e+00	 2.562255e-01	 1.386825e+01
 1.681379e+00	 2.749036e-01	 1.387576e+01
 1.644827e+00	 2.689274e-01	 1.410532e+01
 1.641729e+00	 2.872317e-01	 1.410809e+01
 1.638416e+00	 3.055649e-01	 1.411359e+01
 1.634886e+00	 3.239233e-01	 1.412210e+01
 1.631136e+00	 3.423036e-01	 1.413391e+01
 1.627167e+00	 3.607021e-01	 1.414943e+01
 1.652137e+00	 2.701226e-01	 1.405767e+01
 1.649026e+00	 2.885083e-01	 1.406091e+01
 1.645698e+00	 3.069229e-01	 1.406651e+01
 1.642152e+00	 3.253630e-01	 1.407489e+01
 1.638386e+00	 3.438250e-01	 1.408648e+01
 1.634399e+00	 3.623052e-01	 1.410179e+01
 1.659448e+00	 2.713179e-01	 1.401117e+01
 1.656323e+00	 2.897849e-01	 1.401501e+01
 1.652980e+00	 3.082810e-01	 1.402082e+01
 1.649418e+00	 3.268027e-01	 1.402913e+01
 1.645635e+00	 3.453463e-01	 1.404043e+01
 1.641630e+00	 3.639083e-01	 1.405531e+01
 1.666758e+00	 2.725131e-01	 1.396554e+01
 1.663619e+00	 2.910615e-01	 1.397006e+01
 1.660262e+00	 3.096391e-01	 1.397617e+01
 1.656684e+00	 3.282423e-01	 1.398447e+01
 1.652885e+00	 3.468677e-01	 1.399548e+01
 1.648862e+00	 3.655115e-01	 1.400979e+01
 1.674068e+00	 2.737083e-01	 1.392049e+01
 1.670916e+00	 2.923381e-01	 1.392572e+01
 1.667544e+00	 3.109971e-01	 1.393222e+01
 1.663950e+00	 3.296820e-01	 1.394058e+01
 1.660134e+00	 3.483890e-01	 1.395136e+01
 1.656094e+00	 3.671146e-01	 1.396507e+01
 1.681379e+00	 2.749036e-01	 1.387576e+01
 1.678212e+00	 2.936146e-01	 1.388166e+01
 1.674826e+00	 3.123552e-01	 1.388861e+01
 1.671217e+00	 3.311216e-01	 1.389716e+01
 1.667384e+00	 3.499104e-01	 1.390780e+01
 1.663326e+00	 3.687177e-01	 1.392098e+01
 1.627167e+00	 3.607021e-01	 1.414943e+01
 1.622976e+00	 3.791151e-01	 1.415630e+01
 1.618561e+00	 3.975389e-01	 1.415427e+01
 1.613923e+00	 4.159698e-01	 1.415015e+01
 1.609059e+00	 4.344039e-01	 1.414873e+01
 1.603969e+00	 4.528373e-01	 1.415496e+01
 1.634399e+00	 3.623052e-01	 1.410179e+01
 1.630189e+00	 3.808001e-01	 1.410958e+01
 1.625755e+00	 3.993058e-01	 1.410950e+01
 1.621096e+00	 4.178185e-01	 1.410719e+01
 1.616210e+00	 4.363346e-01	 1.410698e+01
 1.611098e+00	 4.548499e-01	 1.411339e+01
 1.641630e+00	 3.639083e-01	 1.405531e+01
 1.637402e+00	 3.824850e-01	 1.406379e+01
 1.632948e+00	 4.010726e-01	 1.406538e+01
 1.628269e+00	 4.196673e-01	 1.406473e+01
 1.623362e+00	 4.382652e-01	 1.406577e+01
 1.618226e+00	 4.568625e-01	 1.407262e+01
 1.648862e+00	 3.655115e-01	 1.400979e+01
 1.644615e+00	 3.841700e-01	 1.401885e+01
 1.640142e+00	 4.028394e-01	 1.402185e+01
 1.635442e+00	 4.215161e-01	 1.402270e+01
 1.630513e+00	 4.401959e-01	 1.402498e+01
 1.625355e+00	 4.588752e-01	 1.403244e+01
 1.656094e+00	 3.671146e-01	 1.396507e+01
 1.651828e+00	 3.858549e-01	 1.397465e+01
 1.647336e+00	 4.046063e-01	 1.397888e+01
 1.642615e+00	 4.233648e-01	 1.398108e+01
 1.637665e+00	 4.421266e-01	 1.398452e+01
 1.632484e+00	 4.608878e-01	 1.399262e+01
 1.663326e+00	 3.687177e-01	 1.392098e+01
 1.659042e+00	 3.875399e-01	 1.393112e+01
 1.654529e+00	 4.063731e-01	 1.393643e+01
 1.649788e+00	 4.252136e-01	 1.393983e+01
 1.644816e+00	 4.440573e-01	 1.394429e+01
 1.639613e+00	 4.629004e-01	 1.395296e+01
 1.603969e+00	 4.528373e-01	 1.415496e+01
 1.598651e+00	 4.712662e-01	 1.416574e+01
 1.593105e+00	 4.896866e-01	 1.417396e+01
 1.587330e+00	 5.080944e-01	 1.417906e+01
 1.581326e+00	 5.264856e-01	 1.418090e+01
 1.575090e+00	 5.448562e-01	 1.417986e+01
 1.611098e+00	 4.548499e-01	 1.411339e+01
 1.605756e+00	 4.733607e-01	 1.412375e+01
 1.600186e+00	 4.918629e-01	 1.413181e+01
 1.594385e+00	 5.103526e-01	 1.413716e+01
 1.588354e+00	 5.288256e-01	 1.413984e+01
 1.582091e+00	 5.472778e-01	 1.414031e+01
 1.618226e+00	 4.568625e-01	 1.407262e+01
 1.612862e+00	 4.754552e-01	 1.408292e+01
 1.607266e+00	 4.940393e-01	 1.409102e+01
 1.601440e+00	 5.126108e-01	 1.409666e+01
 1.595382e+00	 5.311655e-01	 1.409993e+01
 1.589091e+00	 5.496994e-01	 1.410137e+01
 1.625355e+00	 4.588752e-01	 1.403244e+01
 1.619967e+00	 4.775498e-01	 1.404291e+01
 1.614347e+00	 4.962157e-01	 1.405127e+01
 1.608495e+00	 5.148690e-01	 1.405727e+01
 1.602410e+00	 5.335054e-01	 1.406105e+01
 1.596092e+00	 5.521210e-01	 1.406316e+01
 1.632484e+00	 4.608878e-01	 1.399262e+01
 1.627072e+00	 4.796443e-01	 1.400342e+01
 1.621427e+00	 4.983921e-01	 1.401222e+01
 1.615550e+00	 5.171272e-01	 1.401874e+01
 1.609438e+00	 5.358454e-01	 1.402309e+01
 1.603092e+00	 5.545426e-01	 1.402580e+01
 1.639613e+00	 4.629004e-01	 1.395296e+01
 1.634177e+00	 4.817388e-01	 1.396416e+01
 1.628508e+00	 5.005685e-01	 1.397356e+01
 1.622604e+00	 5.193854e-01	 1.398081e+01
 1.616466e+00	 5.381853e-01	 1.398593e+01
 1.610092e+00	 5.569641e-01	 1.398939e+01
 1.575090e+00	 5.448562e-01	 1.417986e+01
 1.568624e+00	 5.632020e-01	 1.417314e+01
 1.561926e+00	 5.815189e-01	 1.416068e+01
 1.554997e+00	 5.998026e-01	 1.414783e+01
 1.547835e+00	 6.180491e-01	 1.414046e+01
 1.540441e+00	 6.362539e-01	 1.414507e+01
 1.582091e+00	 5.472778e-01	 1.414031e+01
 1.575596e+00	 5.657052e-01	 1.413546e+01
 1.568868e+00	 5.841034e-01	 1.412468e+01
 1.561908e+00	 6.024684e-01	 1.411297e+01
 1.554714e+00	 6.207959e-01	 1.410597e+01
 1.547288e+00	 6.390817e-01	 1.410996e+01
 1.589091e+00	 5.496994e-01	 1.410137e+01
 1.582567e+00	 5.682083e-01	 1.409779e+01
 1.575810e+00	 5.866880e-01	 1.408827e+01
 1.568819e+00	 6.051342e-01	 1.407762e+01
 1.561594e+00	 6.235428e-01	 1.407129e+01
 1.554134e+00	 6.419095e-01	 1.407538e+01
 1.596092e+00	 5.521210e-01	 1.406316e+01
 1.589539e+00	 5.707114e-01	 1.406044e+01
 1.582752e+00	 5.892725e-01	 1.405188e+01
 1.575730e+00	 6.078000e-01	 1.404216e+01
 1.568473e+00	 6.262897e-01	 1.403660e+01
 1.560980e+00	 6.447373e-01	 1.404119e+01
 1.603092e+00	 5.545426e-01	 1.402580e+01
 1.596511e+00	 5.732145e-01	 1.402372e+01
 1.589694e+00	 5.918570e-01	 1.401590e+01
 1.582641e+00	 6.104658e-01	 1.400694e+01
 1.575352e+00	 6.290366e-01	 1.400209e+01
 1.567827e+00	 6.475651e-01	 1.400728e+01
 1.610092e+00	 5.569641e-01	 1.398939e+01
 1.603482e+00	 5.757176e-01	 1.398798e+01
 1.596636e+00	 5.944415e-01	 1.398076e+01
 1.589552e+00	 6.131316e-01	 1.397233e+01
 1.582231e+00	 6.317835e-01	 1.396797e+01
 1.574673e+00	 6.503929e-01	 1.397355e+01
 1.540441e+00	 6.362539e-01	 1.414507e+01
 1.532815e+00	 6.544129e-01	 1.414435e+01
 1.524956e+00	 6.725217e-01	 1.412211e+01
 1.516866e+00	 6.905761e-01	 1.408778e+01
 1.508544e+00	 7.085718e-01	 1.405197e+01
 1.499990e+00	 7.265044e-01	 1.402648e+01
 1.547288e+00	 6.390817e-01	 1.410996e+01
 1.539627e+00	 6.573214e-01	 1.410864e+01
 1.531734e+00	 6.755107e-01	 1.408696e+01
 1.523608e+00	 6.936454e-01	 1.405436e+01
 1.515248e+00	 7.117210e-01	 1.402140e+01
 1.506656e+00	 7.297333e-01	 1.399975e+01
 1.554134e+00	 6.419095e-01	 1.407538e+01
 1.546440e+00	 6.602299e-01	 1.407423e+01
 1.538512e+00	 6.784997e-01	 1.405348e+01
 1.530349e+00	 6.967146e-01	 1.402250e+01
 1.521953e+00	 7.148702e-01	 1.399169e+01
 1.513323e+00	 7.329622e-01	 1.397254e+01
 1.560980e+00	 6.447373e-01	 1.404119e+01
 1.553252e+00	 6.631384e-01	 1.404071e+01
 1.545289e+00	 6.814887e-01	 1.402122e+01
 1.537091e+00	 6.997838e-01	 1.399188e+01
 1.528658e+00	 7.180194e-01	 1.396287e+01
 1.519990e+00	 7.361911e-01	 1.394546e+01
 1.567827e+00	 6.475651e-01	 1.400728e+01
 1.560065e+00	 6.660469e-01	 1.400772e+01
 1.552067e+00	 6.844777e-01	 1.398974e+01
 1.543832e+00	 7.028530e-01	 1.396220e+01
 1.535362e+00	 7.211686e-01	 1.393501e+01
 1.526656e+00	 7.394201e-01	 1.391915e+01
 1.574673e+00	 6.503929e-01	 1.397355e+01
 1.566877e+00	 6.689554e-01	 1.397489e+01
 1.558844e+00	 6.874666e-01	 1.395861e+01
 1.550574e+00	 7.059223e-01	 1.393319e+01
 1.542067e+00	 7.243179e-01	 1.390818e+01
 1.533323e+00	 7.426490e-01	 1.389400e+01
 1.499990e+00	 7.265044e-01	 1.402648e+01
 1.491205e+00	 7.443696e-01	 1.402106e+01
 1.482189e+00	 7.621631e-01	 1.400638e+01
 1.472944e+00	 7.798804e-01	 1.397445e+01
 1.463470e+00	 7.975173e-01	 1.393485e+01
 1.453767e+00	 8.150695e-01	 1.388488e+01
 1.506656e+00	 7.297333e-01	 1.399975e+01
 1.497832e+00	 7.476779e-01	 1.399739e+01
 1.488777e+00	 7.655504e-01	 1.398267e+01
 1.479491e+00	 7.833465e-01	 1.394736e+01
 1.469974e+00	 8.010618e-01	 1.390416e+01
 1.460229e+00	 8.186920e-01	 1.385655e+01
 1.513323e+00	 7.329622e-01	 1.397254e+01
 1.504460e+00	 7.509862e-01	 1.397008e+01
 1.495364e+00	 7.689378e-01	 1.395443e+01
 1.486037e+00	 7.868127e-01	 1.392182e+01
 1.476478e+00	 8.046064e-01	 1.387554e+01
 1.466690e+00	 8.223145e-01	 1.382873e+01
 1.519990e+00	 7.361911e-01	 1.394546e+01
 1.511087e+00	 7.542945e-01	 1.394061e+01
 1.501952e+00	 7.723252e-01	 1.392345e+01
 1.492583e+00	 7.902788e-01	 1.389323e+01
 1.482983e+00	 8.081509e-01	 1.385072e+01
 1.473151e+00	 8.259371e-01	 1.380302e+01
 1.526656e+00	 7.394201e-01	 1.391915e+01
 1.517715e+00	 7.576029e-01	 1.391044e+01
 1.508539e+00	 7.757126e-01	 1.389150e+01
 1.499130e+00	 7.937449e-01	 1.386302e+01
 1.489487e+00	 8.116954e-01	 1.382584e+01
 1.479612e+00	 8.295596e-01	 1.378105e+01
 1.533323e+00	 7.426490e-01	 1.389400e+01
 1.524343e+00	 7.609112e-01	 1.388097e+01
 1.515127e+00	 7.791000e-01	 1.386028e+01
 1.505676e+00	 7.972111e-01	 1.383299e+01
 1.495991e+00	 8.152399e-01	 1.380010e+01
 1.486073e+00	 8.331821e-01	 1.376243e+01
 1.453767e+00	 8.150695e-01	 1.388488e+01
 1.443838e+00	 8.325325e-01	 1.383493e+01
 1.433682e+00	 8.499021e-01	 1.379346e+01
 1.423301e+00	 8.671740e-01	 1.375276e+01
 1.412697e+00	 8.843438e-01	 1.370335e+01
 1.401871e+00	 9.014074e-01	 1.363420e+01
 1.460229e+00	 8.186920e-01	 1.385655e+01
 1.450255e+00	 8.362326e-01	 1.381101e+01
 1.440054e+00	 8.536794e-01	 1.377239e+01
 1.429627e+00	 8.710281e-01	 1.373342e+01
 1.418976e+00	 8.882742e-01	 1.368506e+01
 1.408102e+00	 9.054136e-01	 1.361670e+01
 1.466690e+00	 8.223145e-01	 1.382873e+01
 1.456672e+00	 8.399328e-01	 1.378646e+01
 1.446426e+00	 8.574568e-01	 1.375007e+01
 1.435953e+00	 8.748822e-01	 1.371263e+01
 1.425255e+00	 8.922047e-01	 1.366543e+01
 1.414332e+00	 9.094199e-01	 1.359816e+01
 1.473151e+00	 8.259371e-01	 1.380302e+01
 1.463089e+00	 8.436329e-01	 1.376246e+01
 1.452798e+00	 8.612341e-01	 1.372736e+01
 1.442279e+00	 8.787363e-01	 1.369102e+01
 1.431533e+00	 8.961351e-01	 1.364493e+01
 1.420563e+00	 9.134262e-01	 1.357902e+01
 1.479612e+00	 8.295596e-01	 1.378105e+01
 1.469506e+00	 8.473331e-01	 1.374022e+01
 1.459170e+00	 8.650115e-01	 1.370514e+01
 1.448605e+00	 8.825904e-01	 1.366921e+01
 1.437812e+00	 9.000655e-01	 1.362406e+01
 1.426793e+00	 9.174324e-01	 1.355971e+01
 1.486073e+00	 8.331821e-01	 1.376243e+01
 1.475923e+00	 8.510332e-01	 1.372092e+01
 1.465542e+00	 8.687888e-01	 1.368427e+01
 1.454930e+00	 8.864445e-01	 1.364785e+01
 1.444091e+00	 9.039959e-01	 1.360330e+01
 1.433024e+00	 9.214387e-01	 1.354066e+01
 1.401871e+00	 9.014074e-01	 1.363420e+01
 1.390824e+00	 9.183604e-01	 1.356631e+01
 1.379558e+00	 9.351987e-01	 1.351694e+01
 1.368075e+00	 9.519180e-01	 1.346780e+01
 1.356377e+00	 9.685143e-01	 1.340008e+01
 1.344465e+00	 9.849834e-01	 1.329476e+01
 1.408102e+00	 9.054136e-01	 1.361670e+01
 1.397006e+00	 9.224420e-01	 1.354974e+01
 1.385690e+00	 9.393551e-01	 1.350147e+01
 1.374156e+00	 9.561488e-01	 1.345331e+01
 1.362405e+00	 9.728188e-01	 1.338613e+01
 1.350440e+00	 9.893611e-01	 1.328049e+01
 1.414332e+00	 9.094199e-01	 1.359816e+01
 1.403187e+00	 9.265236e-01	 1.353234e+01
 1.391821e+00	 9.435116e-01	 1.348511e+01
 1.380236e+00	 9.603795e-01	 1.343778e+01
 1.368433e+00	 9.771233e-01	 1.337102e+01
 1.356416e+00	 9.937388e-01	 1.326514e+01
 1.420563e+00	 9.134262e-01	 1.357902e+01
 1.409369e+00	 9.306052e-01	 1.351455e+01
 1.397952e+00	 9.476680e-01	 1.346835e+01
 1.386316e+00	 9.646103e-01	 1.342177e+01
 1.374462e+00	 9.814278e-01	 1.335541e+01
 1.362391e+00	 9.981165e-01	 1.324952e+01
 1.426793e+00	 9.174324e-01	 1.355971e+01
 1.415550e+00	 9.346868e-01	 1.349682e+01
 1.404084e+00	 9.518245e-01	 1.345168e+01
 1.392397e+00	 9.688410e-01	 1.340583e+01
 1.380490e+00	 9.857323e-01	 1.333998e+01
 1.368366e+00	 1.002494e+00	 1.323439e+01
 1.433024e+00	 9.214387e-01	 1.354066e+01
 1.421731e+00	 9.387684e-01	 1.347959e+01
 1.410215e+00	 9.559809e-01	 1.343560e+01
 1.398477e+00	 9.730718e-01	 1.339053e+01
 1.386518e+00	 9.900368e-01	 1.332536e+01
 1.374342e+00	 1.006872e+00	 1.322054e+01
 1.344465e+00	 9.849834e-01	 1.329476e+01
 1.332341e+00	 1.001321e+00	 1.317904e+01
 1.320009e+00	 1.017524e+00	 1.308625e+01
 1.307469e+00	 1.033587e+00	 1.300793e+01
 1.294725e+00	 1.049507e+00	 1.293768e+01
 1.281779e+00	 1.065280e+00	 1.287158e+01
 1.350440e+00	 9.893611e-01	 1.328049e+01
 1.338263e+00	 1.005771e+00	 1.316513e+01
 1.325876e+00	 1.022046e+00	 1.307483e+01
 1.313280e+00	 1.038180e+00	 1.300049e+01
 1.300480e+00	 1.054171e+00	 1.293501e+01
 1.287476e+00	 1.070014e+00	 1.287376e+01
 1.356416e+00	 9.937388e-01	 1.326514e+01
 1.344184e+00	 1.010222e+00	 1.315045e+01
 1.331742e+00	 1.026568e+00	 1.306292e+01
 1.319091e+00	 1.042774e+00	 1.299257e+01
 1.306234e+00	 1.058836e+00	 1.293136e+01
 1.293173e+00	 1.074749e+00	 1.287368e+01
 1.362391e+00	 9.981165e-01	 1.324952e+01
 1.350106e+00	 1.014672e+00	 1.313589e+01
 1.337609e+00	 1.031091e+00	 1.305142e+01
 1.324902e+00	 1.047368e+00	 1.298502e+01
 1.311988e+00	 1.063500e+00	 1.292747e+01
 1.298869e+00	 1.079483e+00	 1.287189e+01
 1.368366e+00	 1.002494e+00	 1.323439e+01
 1.356028e+00	 1.019122e+00	 1.312232e+01
 1.343476e+00	 1.035613e+00	 1.304123e+01
 1.330713e+00	 1.051962e+00	 1.297870e+01
 1.317743e+00	 1.068165e+00	 1.292405e+01
 1.304566e+00	 1.084218e+00	 1.286891e+01
 1.374342e+00	 1.006872e+00	 1.322054e+01
 1.361949e+00	 1.023573e+00	 1.311061e+01
 1.349342e+00	 1.040135e+00	 1.303325e+01
 1.336524e+00	 1.056555e+00	 1.297443e+01
 1.323497e+00	 1.072829e+00	 1.292182e+01
 1.310263e+00	 1.088952e+00	 1.286527e+01
 1.281779e+00	 1.065280e+00	 1.287158e+01
 1.268633e+00	 1.080901e+00	 1.279106e+01
 1.255290e+00	 1.096369e+00	 1.266947e+01
 1.241753e+00	 1.111678e+00	 1.249531e+01
 1.228025e+00	 1.126824e+00	 1.232823e+01
 1.214108e+00	 1.141806e+00	 1.222118e+01
 1.287476e+00	 1.070014e+00	 1.287376e+01
 1.274271e+00	 1.085705e+00	 1.279338e+01
 1.260869e+00	 1.101241e+00	 1.266276e+01
 1.247272e+00	 1.116618e+00	 1.247834e+01
 1.233483e+00	 1.131832e+00	 1.232522e+01
 1.219504e+00	 1.146880e+00	 1.222416e+01
 1.293173e+00	 1.074749e+00	 1.287368e+01
 1.279910e+00	 1.090510e+00	 1.279139e+01
 1.266448e+00	 1.106114e+00	 1.264925e+01
 1.252791e+00	 1.121559e+00	 1.246493e+01
 1.238940e+00	 1.136841e+00	 1.232340e+01
 1.224900e+00	 1.151955e+00	 1.222648e+01
 1.298869e+00	 1.079483e+00	 1.287189e+01
 1.285548e+00	 1.095314e+00	 1.278546e+01
 1.272027e+00	 1.110987e+00	 1.262924e+01
 1.258310e+00	 1.126500e+00	 1.245518e+01
 1.244398e+00	 1.141849e+00	 1.232301e+01
 1.230296e+00	 1.157030e+00	 1.222865e+01
 1.304566e+00	 1.084218e+00	 1.286891e+01
 1.291186e+00	 1.100118e+00	 1.277595e+01
 1.277606e+00	 1.115860e+00	 1.260889e+01
 1.263829e+00	 1.131441e+00	 1.244914e+01
 1.249856e+00	 1.146857e+00	 1.232425e+01
 1.235692e+00	 1.162104e+00	 1.223114e+01
 1.310263e+00	 1.088952e+00	 1.286527e+01
 1.296825e+00	 1.104922e+00	 1.276324e+01
 1.283186e+00	 1.120732e+00	 1.259475e+01
 1.269348e+00	 1.136381e+00	 1.244681e+01
 1.255314e+00	 1.151865e+00	 1.232730e+01
 1.241088e+00	 1.167179e+00	 1.223436e+01
 1.214108e+00	 1.141806e+00	 1.222118e+01
 1.200006e+00	 1.156618e+00	 1.212373e+01
 1.185721e+00	 1.171257e+00	 1.199903e+01
 1.171257e+00	 1.185721e+00	 1.186174e+01
 1.156618e+00	 1.200006e+00	 1.172642e+01
 1.141806e+00	 1.214108e+00	 1.160724e+01
 1.219504e+00	 1.146880e+00	 1.222416e+01
 1.205339e+00	 1.161758e+00	 1.212879e+01
 1.190991e+00	 1.176463e+00	 1.200599e+01
 1.176463e+00	 1.190991e+00	 1.186999e+01
 1.161758e+00	 1.205339e+00	 1.173489e+01
 1.146880e+00	 1.219504e+00	 1.161441e+01
 1.224900e+00	 1.151955e+00	 1.222648e+01
 1.210672e+00	 1.166899e+00	 1.213200e+01
 1.196261e+00	 1.181668e+00	 1.201041e+01
 1.181668e+00	 1.196261e+00	 1.187539e+01
 1.166899e+00	 1.210672e+00	 1.174046e+01
 1.151955e+00	 1.224900e+00	 1.161873e+01
 1.230296e+00	 1.157030e+00	 1.222865e+01
 1.216006e+00	 1.172039e+00	 1.213417e+01
 1.201531e+00	 1.186874e+00	 1.201334e+01
 1.186874e+00	 1.201531e+00	 1.187915e+01
 1.172039e+00	 1.216006e+00	 1.174444e+01
 1.157030e+00	 1.230296e+00	 1.162157e+01
 1.235692e+00	 1.162104e+00	 1.223114e+01
 1.221339e+00	 1.177180e+00	 1.213605e+01
 1.206800e+00	 1.192080e+00	 1.201572e+01
 1.192080e+00	 1.206800e+00	 1.188240e+01
 1.177180e+00	 1.221339e+00	 1.174808e+01
 1.162104e+00	 1.235692e+00	 1.162426e+01
 1.241088e+00	 1.167179e+00	 1.223436e+01
 1.226672e+00	 1.182320e+00	 1.213831e+01
 1.212070e+00	 1.197285e+00	 1.201848e+01
 1.197285e+00	 1.212070e+00	 1.188622e+01
 1.182320e+00	 1.226672e+00	 1.175256e+01
 1.167179e+00	 1.241088e+00	 1.162802e+01
 1.141806e+00	 1.214108e+00	 1.160724e+01
 1.126824e+00	 1.228025e+00	 1.147196e+01
 1.111678e+00	 1.241753e+00	 1.129531e+01
 1.096369e+00	 1.255290e+00	 1.110445e+01
 1.080901e+00	 1.268633e+00	 1.092209e+01
 1.065280e+00	 1.281779e+00	 1.076187e+01
 1.146880e+00	 1.219504e+00	 1.161441e+01
 1.131832e+00	 1.233483e+00	 1.147793e+01
 1.116618e+00	 1.247272e+00	 1.130177e+01
 1.101241e+00	 1.260869e+00	 1.111089e+01
 1.085705e+00	 1.274271e+00	 1.093052e+01
 1.070014e+00	 1.287476e+00	 1.077454e+01
 1.151955e+00	 1.224900e+00	 1.161873e+01
 1.136841e+00	 1.238940e+00	 1.148108e+01
 1.121559e+00	 1.252791e+00	 1.130543e+01
 1.106114e+00	 1.266448e+00	 1.111505e+01
 1.090510e+00	 1.279910e+00	 1.093613e+01
 1.074749e+00	 1.293173e+00	 1.078394e+01
 1.157030e+00	 1.230296e+00	 1.162157e+01
 1.141849e+00	 1.244398e+00	 1.148284e+01
 1.126500e+00	 1.258310e+00	 1.130776e+01
 1.110987e+00	 1.272027e+00	 1.111869e+01
 1.095314e+00	 1.285548e+00	 1.094070e+01
 1.079483e+00	 1.298869e+00	 1.079191e+01
 1.162104e+00	 1.235692e+00	 1.162426e+01
 1.146857e+00	 1.249856e+00	 1.148457e+01
 1.131441e+00	 1.263829e+00	 1.131020e+01
 1.115860e+00	 1.277606e+00	 1.112303e+01
 1.100118e+00	 1.291186e+00	 1.094597e+01
 1.084218e+00	 1.304566e+00	 1.080023e+01
 1.167179e+00	 1.241088e+00	 1.162802e+01
 1.151865e+00	 1.255314e+00	 1.148756e+01
 1.136381e+00	 1.269348e+00	 1.131409e+01
 1.120732e+00	 1.283186e+00	 1.112905e+01
 1.104922e+00	 1.296825e+00	 1.095363e+01
 1.088952e+00	 1.310263e+00	 1.081065e+01
 1.065280e+00	 1.281779e+00	 1.076187e+01
 1.049507e+00	 1.294725e+00	 1.061848e+01
 1.033587e+00	 1.307469e+00	 1.047504e+01
 1.017524e+00	 1.320009e+00	 1.032311e+01
 1.001321e+00	 1.332341e+00	 1.015175e+01
 9.849834e-01	 1.344465e+00	 9.947944e+00
 1.070014e+00	 1.287476e+00	 1.077454e+01
 1.054171e+00	 1.300480e+00	 1.063510e+01
 1.038180e+00	 1.313280e+00	 1.049353e+01
 1.022046e+00	 1.325876e+00	 1.034201e+01
 1.005771e+00	 1.338263e+00	 1.017019e+01
 9.893611e-01	 1.350440e+00	 9.965672e+00
 1.074749e+00	 1.293173e+00	 1.078394e+01
 1.058836e+00	 1.306234e+00	 1.064829e+01
 1.042774e+00	 1.319091e+00	 1.050878e+01
 1.026568e+00	 1.331742e+00	 1.035804e+01
 1.010222e+00	 1.344184e+00	 1.018615e+01
 9.937388e-01	 1.356416e+00	 9.981146e+00
 1.079483e+00	 1.298869e+00	 1.079191e+01
 1.063500e+00	 1.311988e+00	 1.065991e+01
 1.047368e+00	 1.324902e+00	 1.052261e+01
 1.031091e+00	 1.337609e+00	 1.037294e+01
 1.014672e+00	 1.350106e+00	 1.020123e+01
 9.981165e-01	 1.362391e+00	 9.995773e+00
 1.084218e+00	 1.304566e+00	 1.080023e+01
 1.068165e+00	 1.317743e+00	 1.067178e+01
 1.051962e+00	 1.330713e+00	 1.053683e+01
 1.035613e+00	 1.343476e+00	 1.038843e+01
 1.019122e+00	 1.356028e+00	 1.021702e+01
 1.002494e+00	 1.368366e+00	 1.001094e+01
 1.088952e+00	 1.310263e+00	 1.081065e+01
 1.072829e+00	 1.323497e+00	 1.068569e+01
 1.056555e+00	 1.336524e+00	 1.055320e+01
 1.040135e+00	 1.349342e+00	 1.040620e+01
 1.023573e+00	 1.361949e+00	 1.023506e+01
 1.006872e+00	 1.374342e+00	 1.002799e+01
 9.849834e-01	 1.344465e+00	 9.947944e+00
 9.685143e-01	 1.356377e+00	 9.745587e+00
 9.519180e-01	 1.368075e+00	 9.575776e+00
 9.351987e-01	 1.379558e+00	 9.419712e+00
 9.183604e-01	 1.390824e+00	 9.258440e+00
 9.014074e-01	 1.401871e+00	 9.073297e+00
 9.893611e-01	 1.350440e+00	 9.965672e+00
 9.728188e-01	 1.362405e+00	 9.762880e+00
 9.561488e-01	 1.374156e+00	 9.593022e+00
 9.393551e-01	 1.385690e+00	 9.437271e+00
 9.224420e-01	 1.397006e+00	 9.276668e+00
 9.054136e-01	 1.408102e+00	 9.092576e+00
 9.937388e-01	 1.356416e+00	 9.981146e+00
 9.771233e-01	 1.368433e+00	 9.777783e+00
 9.603795e-01	 1.380236e+00	 9.607479e+00
 9.435116e-01	 1.391821e+00	 9.451673e+00
 9.265236e-01	 1.403187e+00	 9.291699e+00
 9.094199e-01	 1.414332e+00	 9.109265e+00
 9.981165e-01	 1.362391e+00	 9.995773e+00
 9.814278e-01	 1.374462e+00	 9.791535e+00
 9.646103e-01	 1.386316e+00	 9.620349e+00
 9.476680e-01	 1.397952e+00	 9.464195e+00
 9.306052e-01	 1.409369e+00	 9.305003e+00
 9.134262e-01	 1.420563e+00	 9.125135e+00
 1.002494e+00	 1.368366e+00	 1.001094e+01
 9.857323e-01	 1.380490e+00	 9.805361e+00
 9.688410e-01	 1.392397e+00	 9.632816e+00
 9.518245e-01	 1.404084e+00	 9.476103e+00
 9.346868e-01	 1.415550e+00	 9.318037e+00
 9.174324e-01	 1.426793e+00	 9.141943e+00
 1.006872e+00	 1.374342e+00	 1.002799e+01
 9.900368e-01	 1.386518e+00	 9.820463e+00
 9.730718e-01	 1.398477e+00	 9.646052e+00
 9.559809e-01	 1.410215e+00	 9.488651e+00
 9.387684e-01	 1.421731e+00	 9.332246e+00
 9.214387e-01	 1.433024e+00	 9.161429e+00
 9.014074e-01	 1.401871e+00	 9.073297e+00
 8.843438e-01	 1.412697e+00	 8.872738e+00
 8.671740e-01	 1.423301e+00	 8.675768e+00
 8.499021e-01	 1.433682e+00	 8.481515e+00
 8.325325e-01	 1.443838e+00	 8.291320e+00
 8.150695e-01	 1.453767e+00	 8.109004e+00
 9.054136e-01	 1.408102e+00	 9.092576e+00
 8.882742e-01	 1.418976e+00	 8.895229e+00
 8.710281e-01	 1.429627e+00	 8.704141e+00
 8.536794e-01	 1.440054e+00	 8.516608e+00
 8.362326e-01	 1.450255e+00	 8.332191e+00
 8.186920e-01	 1.460229e+00	 8.152988e+00
 9.094199e-01	 1.414332e+00	 9.109265e+00
 8.922047e-01	 1.425255e+00	 8.916228e+00
 8.748822e-01	 1.435953e+00	 8.731586e+00
 8.574568e-01	 1.446426e+00	 8.549823e+00
 8.399328e-01	 1.456672e+00	 8.367704e+00
 8.223145e-01	 1.466690e+00	 8.184571e+00
 9.134262e-01	 1.420563e+00	 9.125135e+00
 8.961351e-01	 1.431533e+00	 8.937717e+00
 8.787363e-01	 1.442279e+00	 8.760028e+00
 8.612341e-01	 1.452798e+00	 8.582762e+00
 8.436329e-01	 1.463089e+00	 8.398892e+00
 8.259371e-01	 1.473151e+00	 8.203982e+00
 9.174324e-01	 1.426793e+00	 9.141943e+00
 9.000655e-01	 1.437812e+00	 8.961666e+00
 8.825904e-01	 1.448605e+00	 8.791377e+00
 8.650115e-01	 1.459170e+00	 8.617022e+00
 8.473331e-01	 1.469506e+00	 8.426795e+00
 8.295596e-01	 1.479612e+00	 8.211472e+00
 9.214387e-01	 1.433024e+00	 9.161429e+00
 9.039959e-01	 1.444091e+00	 8.990026e+00
 8.864445e-01	 1.454930e+00	 8.827533e+00
 8.687888e-01	 1.465542e+00	 8.654198e+00
 8.510332e-01	 1.475923e+00	 8.452463e+00
 8.331821e-01	 1.486073e+00	 8.219860e+00
 8.150695e-01	 1.453767e+00	 8.109004e+00
 7.975173e-01	 1.463470e+00	 7.951178e+00
 7.798804e-01	 1.472944e+00	 7.798594e+00
 7.621631e-01	 1.482189e+00	 7.605147e+00
 7.443696e-01	 1.491205e+00	 7.398784e+00
 7.265044e-01	 1.499990e+00	 7.194607e+00
 8.186920e-01	 1.460229e+00	 8.152988e+00
 8.010618e-01	 1.469974e+00	 7.987792e+00
 7.833465e-01	 1.479491e+00	 7.810049e+00
 7.655504e-01	 1.488777e+00	 7.611582e+00
 7.476779e-01	 1.497832e+00	 7.435773e+00
 7.297333e-01	 1.506656e+00	 7.248223e+00
 8.223145e-01	 1.466690e+00	 8.184571e+00
 8.046064e-01	 1.476478e+00	 8.000982e+00
 7.868127e-01	 1.486037e+00	 7.798913e+00
 7.689378e-01	 1.495364e+00	 7.629367e+00
 7.509862e-01	 1.504460e+00	 7.473408e+00
 7.329622e-01	 1.513323e+00	 7.294914e+00
 8.259371e-01	 1.473151e+00	 8.203982e+00
 8.081509e-01	 1.482983e+00	 7.991738e+00
 7.902788e-01	 1.492583e+00	 7.805830e+00
 7.723252e-01	 1.501952e+00	 7.656150e+00
 7.542945e-01	 1.511087e+00	 7.509898e+00
 7.361911e-01	 1.519990e+00	 7.333782e+00
 8.295596e-01	 1.479612e+00	 8.211472e+00
 8.116954e-01	 1.489487e+00	 7.996320e+00
 7.937449e-01	 1.499130e+00	 7.831069e+00
 7.757126e-01	 1.508539e+00	 7.689606e+00
 7.576029e-01	 1.517715e+00	 7.543470e+00
 7.394201e-01	 1.526656e+00	 7.363920e+00
 8.331821e-01	 1.486073e+00	 8.219860e+00
 8.152399e-01	 1.495991e+00	 8.028876e+00
 7.972111e-01	 1.505676e+00	 7.872152e+00
 7.791000e-01	 1.515127e+00	 7.727434e+00
 7.609112e-01	 1.524343e+00	 7.572363e+00
 7.426490e-01	 1.533323e+00	 7.384443e+00
 7.265044e-01	 1.499990e+00	 7.194607e+00
 7.085718e-01	 1.508544e+00	 6.992131e+00
 6.905761e-01	 1.516866e+00	 6.810613e+00
 6.725217e-01	 1.524956e+00	 6.645145e+00
 6.544129e-01	 1.532815e+00	 6.491380e+00
 6.362539e-01	 1.540441e+00	 6.345330e+00
 7.297333e-01	 1.506656e+00	 7.248223e+00
 7.117210e-01	 1.515248e+00	 7.048842e+00
 6.936454e-01	 1.523608e+00	 6.861851e+00
 6.755107e-01	 1.531734e+00	 6.686199e+00
 6.573214e-01	 1.539627e+00	 6.521435e+00
 6.390817e-01	 1.547288e+00	 6.367506e+00
 7.329622e-01	 1.513323e+00	 7.294914e+00
 7.148702e-01	 1.521953e+00	 7.096075e+00
 6.967146e-01	 1.530349e+00	 6.905056e+00
 6.784997e-01	 1.538512e+00	 6.723055e+00
 6.602299e-01	 1.546440e+00	 6.551885e+00
 6.419095e-01	 1.554134e+00	 6.393757e+00
 7.361911e-01	 1.519990e+00	 7.333782e+00
 7.180194e-01	 1.528658e+00	 7.133857e+00
 6.997838e-01	 1.537091e+00	 6.940822e+00
 6.814887e-01	 1.545289e+00	 6.756544e+00
 6.631384e-01	 1.553252e+00	 6.583479e+00
 6.447373e-01	 1.560980e+00	 6.424463e+00
 7.394201e-01	 1.526656e+00	 7.363920e+00
 7.211686e-01	 1.535362e+00	 7.162188e+00
 7.028530e-01	 1.543832e+00	 6.969711e+00
 6.844777e-01	 1.552067e+00	 6.787454e+00
 6.660469e-01	 1.560065e+00	 6.616930e+00
 6.475651e-01	 1.567827e+00	 6.459976e+00
 7.426490e-01	 1.533323e+00	 7.384443e+00
 7.243179e-01	 1.542067e+00	 7.181050e+00
 7.059223e-01	 1.550574e+00	 6.992248e+00
 6.874666e-01	 1.558844e+00	 6.816539e+00
 6.689554e-01	 1.566877e+00	 6.652914e+00
 6.503929e-01	 1.574673e+00	 6.500616e+00
 6.362539e-01	 1.540441e+00	 6.345330e+00
 6.180491e-01	 1.547835e+00	 6.184797e+00
 5.998026e-01	 1.554997e+00	 5.999677e+00
 5.815189e-01	 1.561926e+00	 5.804275e+00
 5.632020e-01	 1.568624e+00	 5.612753e+00
 5.448562e-01	 1.575090e+00	 5.439006e+00
 6.390817e-01	 1.547288e+00	 6.367506e+00
 6.207959e-01	 1.554714e+00	 6.205888e+00
 6.024684e-01	 1.561908e+00	 6.025764e+00
 5.841034e-01	 1.568868e+00	 5.838760e+00
 5.657052e-01	 1.575596e+00	 5.656310e+00
 5.472778e-01	 1.582091e+00	 5.489533e+00
 6.419095e-01	 1.554134e+00	 6.393757e+00
 6.235428e-01	 1.561594e+00	 6.232177e+00
 6.051342e-01	 1.568819e+00	 6.055747e+00
 5.866880e-01	 1.575810e+00	 5.874410e+00
 5.682083e-01	 1.582567e+00	 5.697877e+00
 5.496994e-01	 1.589091e+00	 5.535513e+00
 6.447373e-01	 1.560980e+00	 6.424463e+00
 6.262897e-01	 1.568473e+00	 6.263649e+00
 6.078000e-01	 1.575730e+00	 6.089427e+00
 5.892725e-01	 1.582752e+00	 5.911039e+00
 5.707114e-01	 1.589539e+00	 5.737466e+00
 5.521210e-01	 1.596092e+00	 5.577323e+00
 6.475651e-01	 1.567827e+00	 6.459976e+00
 6.290366e-01	 1.575352e+00	 6.300267e+00
 6.104658e-01	 1.582641e+00	 6.126587e+00
 5.918570e-01	 1.589694e+00	 5.948442e+00
 5.732145e-01	 1.596511e+00	 5.775067e+00
 5.545426e-01	 1.603092e+00	 5.615315e+00
 6.503929e-01	 1.574673e+00	 6.500616e+00
 6.317835e-01	 1.582231e+00	 6.341970e+00
 6.131316e-01	 1.589552e+00	 6.166989e+00
 5.944415e-01	 1.596636e+00	 5.986398e+00
 5.757176e-01	 1.603482e+00	 5.810650e+00
 5.569641e-01	 1.610092e+00	 5.649814e+00
 5.448562e-01	 1.575090e+00	 5.439006e+00
 5.264856e-01	 1.581326e+00	 5.289820e+00
 5.080944e-01	 1.587330e+00	 5.157444e+00
 4.896866e-01	 1.593105e+00	 5.033290e+00
 4.712662e-01	 1.598651e+00	 4.908214e+00
 4.528373e-01	 1.603969e+00	 4.772527e+00
 5.472778e-01	 1.582091e+00	 5.489533e+00
 5.288256e-01	 1.588354e+00	 5.342239e+00
 5.103526e-01	 1.594385e+00	 5.206981e+00
 4.918629e-01	 1.600186e+00	 5.077289e+00
 4.733607e-01	 1.605756e+00	 4.946138e+00
 4.548499e-01	 1.611098e+00	 4.805956e+00
 5.496994e-01	 1.589091e+00	 5.535513e+00
 5.311655e-01	 1.595382e+00	 5.389180e+00
 5.126108e-01	 1.601440e+00	 5.251674e+00
 4.940393e-01	 1.607266e+00	 5.118026e+00
 4.754552e-01	 1.612862e+00	 4.982704e+00
 4.568625e-01	 1.618226e+00	 4.839614e+00
 5.521210e-01	 1.596092e+00	 5.577323e+00
 5.335054e-01	 1.602410e+00	 5.431399e+00
 5.148690e-01	 1.608495e+00	 5.292532e+00
 4.962157e-01	 1.614347e+00	 5.156644e+00
 4.775498e-01	 1.619967e+00	 5.019071e+00
 4.588752e-01	 1.625355e+00	 4.874576e+00
 5.545426e-01	 1.603092e+00	 5.615315e+00
 5.358454e-01	 1.609438e+00	 5.469622e+00
 5.171272e-01	 1.615550e+00	 5.330530e+00
 4.983921e-01	 1.621427e+00	 5.194246e+00
 4.796443e-01	 1.627072e+00	 5.056366e+00
 4.608878e-01	 1.632484e+00	 4.911886e+00
 5.569641e-01	 1.610092e+00	 5.649814e+00
 5.381853e-01	 1.616466e+00	 5.504544e+00
 5.193854e-01	 1.622604e+00	 5.366607e+00
 5.005685e-01	 1.628508e+00	 5.231903e+00
 4.817388e-01	 1.634177e+00	 5.095681e+00
 4.629004e-01	 1.639613e+00	 4.952558e+00
 4.528373e-01	 1.603969e+00	 4.772527e+00
 4.344039e-01	 1.609059e+00	 4.608788e+00
 4.159698e-01	 1.613923e+00	 4.426409e+00
 3.975389e-01	 1.618561e+00	 4.255113e+00
 3.791151e-01	 1.622976e+00	 4.123990e+00
 3.607021e-01	 1.627167e+00	 4.055864e+00
 4.548499e-01	 1.611098e+00	 4.805956e+00
 4.363346e-01	 1.616210e+00	 4.642159e+00
 4.178185e-01	 1.621096e+00	 4.463763e+00
 3.993058e-01	 1.625755e+00	 4.297734e+00
 3.808001e-01	 1.630189e+00	 4.170412e+00
 3.623052e-01	 1.634399e+00	 4.103760e+00
 4.568625e-01	 1.618226e+00	 4.839614e+00
 4.382652e-01	 1.623362e+00	 4.676333e+00
 4.196673e-01	 1.628269e+00	 4.501475e+00
 4.010726e-01	 1.632948e+00	 4.339641e+00
 3.824850e-01	 1.637402e+00	 4.214822e+00
 3.639083e-01	 1.641630e+00	 4.148102e+00
 4.588752e-01	 1.625355e+00	 4.874576e+00
 4.401959e-01	 1.630513e+00	 4.712293e+00
 4.215161e-01	 1.635442e+00	 4.540512e+00
 4.028394e-01	 1.640142e+00	 4.381861e+00
 3.841700e-01	 1.644615e+00	 4.258372e+00
 3.655115e-01	 1.648862e+00	 4.190260e+00
 4.608878e-01	 1.632484e+00	 4.911886e+00
 4.421266e-01	 1.637665e+00	 4.750993e+00
 4.233648e-01	 1.642615e+00	 4.581817e+00
 4.046063e-01	 1.647336e+00	 4.425397e+00
 3.858549e-01	 1.651828e+00	 4.302193e+00
 3.671146e-01	 1.656094e+00	 4.231584e+00
 4.629004e-01	 1.639613e+00	 4.952558e+00
 4.440573e-01	 1.644816e+00	 4.793362e+00
 4.252136e-01	 1.649788e+00	 4.626310e+00
 4.063731e-01	 1.654529e+00	 4.471230e+00
 3.875399e-01	 1.659042e+00	 4.347389e+00
 3.687177e-01	 1.663326e+00	 4.273402e+00
 3.607021e-01	 1.627167e+00	 4.055864e+00
 3.423036e-01	 1.631136e+00	 3.992997e+00
 3.239233e-01	 1.634886e+00	 3.898470e+00
 3.055649e-01	 1.638416e+00	 3.785500e+00
 2.872317e-01	 1.641729e+00	 3.665537e+00
 2.689274e-01	 1.644827e+00	 3.548661e+00
 3.623052e-01	 1.634399e+00	 4.103760e+00
 3.438250e-01	 1.638386e+00	 4.041297e+00
 3.253630e-01	 1.642152e+00	 3.945690e+00
 3.069229e-01	 1.645698e+00	 3.830845e+00
 2.885083e-01	 1.649026e+00	 3.709020e+00
 2.701226e-01	 1.652137e+00	 3.591204e+00
 3.639083e-01	 1.641630e+00	 4.148102e+00
 3.453463e-01	 1.645635e+00	 4.085372e+00
 3.268027e-01	 1.649418e+00	 3.988864e+00
 3.082810e-01	 1.652980e+00	 3.872852e+00
 2.897849e-01	 1.656323e+00	 3.750080e+00
 2.713179e-01	 1.659448e+00	 3.632132e+00
 3.655115e-01	 1.648862e+00	 4.190260e+00
 3.468677e-01	 1.652885e+00	 4.126725e+00
 3.282423e-01	 1.656684e+00	 4.029554e+00
 3.096391e-01	 1.660262e+00	 3.913068e+00
 2.910615e-01	 1.663619e+00	 3.790183e+00
 2.725131e-01	 1.666758e+00	 3.672774e+00
 3.671146e-01	 1.656094e+00	 4.231584e+00
 3.483890e-01	 1.660134e+00	 4.166842e+00
 3.296820e-01	 1.663950e+00	 4.069304e+00
 3.109971e-01	 1.667544e+00	 3.953024e+00
 2.923381e-01	 1.670916e+00	 3.830787e+00
 2.737083e-01	 1.674068e+00	 3.714454e+00
 3.687177e-01	 1.663326e+00	 4.273402e+00
 3.499104e-01	 1.667384e+00	 4.207191e+00
 3.311216e-01	 1.671217e+00	 4.109643e+00
 3.123552e-01	 1.674826e+00	 3.994243e+00
 2.936146e-01	 1.678212e+00	 3.873341e+00
 2.749036e-01	 1.681379e+00	 3.758488e+00
 2.689274e-01	 1.644827e+00	 3.548661e+00
 2.506554e-01	 1.647710e+00	 3.449982e+00
 2.324189e-01	 1.650382e+00	 3.373871e+00
 2.142214e-01	 1.652842e+00	 3.313211e+00
 1.960661e-01	 1.655094e+00	 3.260700e+00
 1.779561e-01	 1.657139e+00	 3.209016e+00
 2.701226e-01	 1.652137e+00	 3.591204e+00
 2.517694e-01	 1.655034e+00	 3.492889e+00
 2.334519e-01	 1.657717e+00	 3.417825e+00
 2.151735e-01	 1.660188e+00	 3.358427e+00
 1.969375e-01	 1.662450e+00	 3.306982e+00
 1.787470e-01	 1.664504e+00	 3.255806e+00
 2.713179e-01	 1.659448e+00	 3.632132e+00
 2.528834e-01	 1.662357e+00	 3.534602e+00
 2.344849e-01	 1.665052e+00	 3.460642e+00
 2.161256e-01	 1.667534e+00	 3.402350e+00
 1.978089e-01	 1.669806e+00	 3.351762e+00
 1.795380e-01	 1.671869e+00	 3.300993e+00
 2.725131e-01	 1.666758e+00	 3.672774e+00
 2.539974e-01	 1.669680e+00	 3.576292e+00
 2.355179e-01	 1.672387e+00	 3.503353e+00
 2.170777e-01	 1.674880e+00	 3.445890e+00
 1.986803e-01	 1.677162e+00	 3.395846e+00
 1.803289e-01	 1.679234e+00	 3.345295e+00
 2.737083e-01	 1.674068e+00	 3.714454e+00
 2.551114e-01	 1.677003e+00	 3.619130e+00
 2.365508e-01	 1.679722e+00	 3.546991e+00
 2.180298e-01	 1.682226e+00	 3.489960e+00
 1.995517e-01	 1.684518e+00	 3.440043e+00
 1.811198e-01	 1.686599e+00	 3.389436e+00
 2.749036e-01	 1.681379e+00	 3.758488e+00
 2.562255e-01	 1.684326e+00	 3.664283e+00
 2.375838e-01	 1.687057e+00	 3.592589e+00
 2.189819e-01	 1.689572e+00	 3.535472e+00
 2.004231e-01	 1.691874e+00	 3.485162e+00
 1.819107e-01	 1.693964e+00	 3.434140e+00
 1.779561e-01	 1.657139e+00	 3.209016e+00
 1.598946e-01	 1.658979e+00	 3.155576e+00
 1.418845e-01	 1.660616e+00	 3.103923e+00
 1.239289e-01	 1.662053e+00	 3.056146e+00
 1.060307e-01	 1.663290e+00	 3.014583e+00
 8.819269e-02	 1.664332e+00	 2.981864e+00
 1.787470e-01	 1.664504e+00	 3.255806e+00
 1.606052e-01	 1.666352e+00	 3.202282e+00
 1.425151e-01	 1.667997e+00	 3.150276e+00
 1.244797e-01	 1.669440e+00	 3.102077e+00
 1.065020e-01	 1.670683e+00	 3.060209e+00
 8.858465e-02	 1.671729e+00	 3.027457e+00
 1.795380e-01	 1.671869e+00	 3.300993e+00
 1.613159e-01	 1.673726e+00	 3.247516e+00
 1.431457e-01	 1.675377e+00	 3.195470e+00
 1.250305e-01	 1.676827e+00	 3.147239e+00
 1.069732e-01	 1.678075e+00	 3.105429e+00
 8.897662e-02	 1.679126e+00	 3.072879e+00
 1.803289e-01	 1.679234e+00	 3.345295e+00
 1.620265e-01	 1.681099e+00	 3.291912e+00
 1.437763e-01	 1.682758e+00	 3.240040e+00
 1.255813e-01	 1.684213e+00	 3.192058e+00
 1.074445e-01	 1.685468e+00	 3.150554e+00
 8.936859e-02	 1.686523e+00	 3.118319e+00
 1.811198e-01	 1.686599e+00	 3.389436e+00
 1.627371e-01	 1.688472e+00	 3.336108e+00
 1.444069e-01	 1.690138e+00	 3.284522e+00
 1.261321e-01	 1.691600e+00	 3.236960e+00
 1.079157e-01	 1.692860e+00	 3.195894e+00
 8.976056e-02	 1.693920e+00	 3.163974e+00
 1.819107e-01	 1.693964e+00	 3.434140e+00
 1.634478e-01	 1.695845e+00	 3.380741e+00
 1.450375e-01	 1.697519e+00	 3.329456e+00
 1.266829e-01	 1.698987e+00	 3.282373e+00
 1.083869e-01	 1.700253e+00	 3.241760e+00
 9.015252e-02	 1.701317e+00	 3.210035e+00
 8.819269e-02	 1.664332e+00	 2.981864e+00
 7.041763e-02	 1.665178e+00	 2.959308e+00
 5.270824e-02	 1.665833e+00	 2.943953e+00
 3.506715e-02	 1.666298e+00	 2.932657e+00
 1.749691e-02	 1.666575e+00	 2.922860e+00
-4.827274e-07	 1.666684e+00	 3.844001e+00
 8.858465e-02	 1.671729e+00	 3.027457e+00
 7.073060e-02	 1.672579e+00	 3.005175e+00
 5.294250e-02	 1.673237e+00	 2.990246e+00
 3.522300e-02	 1.673703e+00	 2.979317e+00
 1.757467e-02	 1.673982e+00	 2.969537e+00
-4.697710e-07	 1.674091e+00	 3.886064e+00
 8.897662e-02	 1.679126e+00	 3.072879e+00
 7.104357e-02	 1.679980e+00	 3.050900e+00
 5.317676e-02	 1.680640e+00	 3.036300e+00
 3.537886e-02	 1.681109e+00	 3.025635e+00
 1.765243e-02	 1.681389e+00	 3.015881e+00
-4.567860e-07	 1.681498e+00	 3.926806e+00
 8.936859e-02	 1.686523e+00	 3.118319e+00
 7.135653e-02	 1.687381e+00	 3.096574e+00
 5.341102e-02	 1.688044e+00	 3.082140e+00
 3.553471e-02	 1.688515e+00	 3.071605e+00
 1.773020e-02	 1.688796e+00	 3.061892e+00
-4.437840e-07	 1.688905e+00	 3.966287e+00
 8.976056e-02	 1.693920e+00	 3.163974e+00
 7.166950e-02	 1.694782e+00	 3.142290e+00
 5.364528e-02	 1.695448e+00	 3.127794e+00
 3.569057e-02	 1.695921e+00	 3.117224e+00
 1.780796e-02	 1.696203e+00	 3.107568e+00
-4.307765e-07	 1.696312e+00	 4.004564e+00
 9.015252e-02	 1.701317e+00	 3.210035e+00
 7.198247e-02	 1.702182e+00	 3.188143e+00
 5.387954e-02	 1.702852e+00	 3.173288e+00
 3.584642e-02	 1.703327e+00	 3.162485e+00
 1.788573e-02	 1.703610e+00	 3.152908e+00
-4.177751e-07	 1.703720e+00	 4.041689e+00
 1.703704e+00	 0.000000e+00	 1.381299e+01
 1.703610e+00	 1.788573e-02	 1.381130e+01
 1.703327e+00	 3.584642e-02	 1.381030e+01
 1.702852e+00	 5.387954e-02	 1.381085e+01
 1.702182e+00	 7.198247e-02	 1.381366e+01
 1.701317e+00	 9.015252e-02	 1.381927e+01
 1.711111e+00	 0.000000e+00	 1.376698e+01
 1.711017e+00	 1.796349e-02	 1.376552e+01
 1.710732e+00	 3.600227e-02	 1.376459e+01
 1.710255e+00	 5.411380e-02	 1.376512e+01
 1.709583e+00	 7.229544e-02	 1.376787e+01
 1.708714e+00	 9.054449e-02	 1.377349e+01
 1.718519e+00	 0.000000e+00	 1.372184e+01
 1.718424e+00	 1.804125e-02	 1.372064e+01
 1.718138e+00	 3.615813e-02	 1.371983e+01
 1.717659e+00	 5.434806e-02	 1.372038e+01
 1.716984e+00	 7.260840e-02	 1.372311e+01
 1.716111e+00	 9.093646e-02	 1.372872e+01
 1.725926e+00	 0.000000e+00	 1.367757e+01
 1.725831e+00	 1.811902e-02	 1.367663e+01
 1.725544e+00	 3.631398e-02	 1.367597e+01
 1.725063e+00	 5.458232e-02	 1.367658e+01
 1.724385e+00	 7.292137e-02	 1.367931e+01
 1.723508e+00	 9.132843e-02	 1.368490e+01
 1.733333e+00	 0.000000e+00	 1.363417e+01
 1.733238e+00	 1.819678e-02	 1.363346e+01
 1.732950e+00	 3.646984e-02	 1.363296e+01
 1.732466e+00	 5.481657e-02	 1.363364e+01
 1.731786e+00	 7.323434e-02	 1.363639e+01
 1.730905e+00	 9.172039e-02	 1.364198e+01
 1.740741e+00	 0.000000e+00	 1.359165e+01
 1.740645e+00	 1.827455e-02	 1.359109e+01
 1.740355e+00	 3.662569e-02	 1.359073e+01
 1.739870e+00	 5.505083e-02	 1.359150e+01
 1.739186e+00	 7.354730e-02	 1.359430e+01
 1.738302e+00	 9.211236e-02	 1.359990e+01
 1.701317e+00	 9.015252e-02	 1.381927e+01
 1.700253e+00	 1.083869e-01	 1.382496e+01
 1.698987e+00	 1.266829e-01	 1.382848e+01
 1.697519e+00	 1.450375e-01	 1.383086e+01
 1.695845e+00	 1.634478e-01	 1.383293e+01
 1.693964e+00	 1.819107e-01	 1.383533e+01
 1.708714e+00	 9.054449e-02	 1.377349e+01
 1.707645e+00	 1.088582e-01	 1.377927e+01
 1.706374e+00	 1.272337e-01	 1.378293e+01
 1.704899e+00	 1.456681e-01	 1.378546e+01
 1.703218e+00	 1.641584e-01	 1.378766e+01
 1.701329e+00	 1.827016e-01	 1.379016e+01
 1.716111e+00	 9.093646e-02	 1.372872e+01
 1.715037e+00	 1.093294e-01	 1.373457e+01
 1.713761e+00	 1.277845e-01	 1.373837e+01
 1.712280e+00	 1.462987e-01	 1.374107e+01
 1.710592e+00	 1.648691e-01	 1.374346e+01
 1.708694e+00	 1.834925e-01	 1.374613e+01
 1.723508e+00	 9.132843e-02	 1.368490e+01
 1.722430e+00	 1.098007e-01	 1.369081e+01
 1.721148e+00	 1.283353e-01	 1.369473e+01
 1.719660e+00	 1.469293e-01	 1.369761e+01
 1.717965e+00	 1.655797e-01	 1.370021e+01
 1.716059e+00	 1.842834e-01	 1.370310e+01
 1.730905e+00	 9.172039e-02	 1.364198e+01
 1.729822e+00	 1.102719e-01	 1.364793e+01
 1.728535e+00	 1.288861e-01	 1.365196e+01
 1.727041e+00	 1.475599e-01	 1.365499e+01
 1.725338e+00	 1.662904e-01	 1.365779e+01
 1.723424e+00	 1.850744e-01	 1.366090e+01
 1.738302e+00	 9.211236e-02	 1.359990e+01
 1.737215e+00	 1.107432e-01	 1.360588e+01
 1.735922e+00	 1.294369e-01	 1.360999e+01
 1.734421e+00	 1.481905e-01	 1.361314e+01
 1.732711e+00	 1.670010e-01	 1.361609e+01
 1.730790e+00	 1.858653e-01	 1.361938e+01
 1.693964e+00	 1.819107e-01	 1.383533e+01
 1.691874e+00	 2.004231e-01	 1.384023e+01
 1.689572e+00	 2.189819e-01	 1.384849e+01
 1.687057e+00	 2.375838e-01	 1.385846e+01
 1.684326e+00	 2.562255e-01	 1.386825e+01
 1.681379e+00	 2.749036e-01	 1.387576e+01
 1.701329e+00	 1.827016e-01	 1.379016e+01
 1.699230e+00	 2.012945e-01	 1.379510e+01
 1.696918e+00	 2.199340e-01	 1.380342e+01
 1.694392e+00	 2.386168e-01	 1.381355e+01
 1.691649e+00	 2.573395e-01	 1.382367e+01
 1.688689e+00	 2.760988e-01	 1.383172e+01
 1.708694e+00	 1.834925e-01	 1.374613e+01
 1.706586e+00	 2.021659e-01	 1.375120e+01
 1.704264e+00	 2.208861e-01	 1.375964e+01
 1.701727e+00	 2.396497e-01	 1.376994e+01
 1.698973e+00	 2.584535e-01	 1.378033e+01
 1.695999e+00	 2.772940e-01	 1.378880e+01
 1.716059e+00	 1.842834e-01	 1.370310e+01
 1.713942e+00	 2.030373e-01	 1.370835e+01
 1.711610e+00	 2.218382e-01	 1.371691e+01
 1.709062e+00	 2.406827e-01	 1.372736e+01
 1.706296e+00	 2.595675e-01	 1.373798e+01
 1.703310e+00	 2.784893e-01	 1.374678e+01
 1.723424e+00	 1.850744e-01	 1.366090e+01
 1.721298e+00	 2.039088e-01	 1.366632e+01
 1.718956e+00	 2.227903e-01	 1.367500e+01
 1.716397e+00	 2.417157e-01	 1.368558e+01
 1.713619e+00	 2.606816e-01	 1.369638e+01
 1.710620e+00	 2.796845e-01	 1.370546e+01
 1.730790e+00	 1.858653e-01	 1.361938e+01
 1.728654e+00	 2.047802e-01	 1.362493e+01
 1.726302e+00	 2.237424e-01	 1.363369e+01
 1.723732e+00	 2.427487e-01	 1.364436e+01
 1.720942e+00	 2.617956e-01	 1.365531e+01
 1.717930e+00	 2.808797e-01	 1.366462e+01
 1.681379e+00	 2.749036e-01	 1.387576e+01
 1.678212e+00	 2.936146e-01	 1.388166e+01
 1.674826e+00	 3.123552e-01	 1.388861e+01
 1.671217e+00	 3.311216e-01	 1.389716e+01
 1.667384e+00	 3.499104e-01	 1.390780e+01
 1.663326e+00	 3.687177e-01	 1.392098e+01
 1.688689e+00	 2.760988e-01	 1.383172e+01
 1.685509e+00	 2.948912e-01	 1.383821e+01
 1.682107e+00	 3.137133e-01	 1.384560e+01
 1.678483e+00	 3.325613e-01	 1.385439e+01
 1.674633e+00	 3.514317e-01	 1.386499e+01
 1.670558e+00	 3.703208e-01	 1.387775e+01
 1.695999e+00	 2.772940e-01	 1.378880e+01
 1.692806e+00	 2.961678e-01	 1.379576e+01
 1.689389e+00	 3.150713e-01	 1.380352e+01
 1.685749e+00	 3.340010e-01	 1.381254e+01
 1.681883e+00	 3.529531e-01	 1.382314e+01
 1.677790e+00	 3.719239e-01	 1.383563e+01
 1.703310e+00	 2.784893e-01	 1.374678e+01
 1.700102e+00	 2.974444e-01	 1.375412e+01
 1.696671e+00	 3.164294e-01	 1.376220e+01
 1.693015e+00	 3.354406e-01	 1.377142e+01
 1.689132e+00	 3.544744e-01	 1.378203e+01
 1.685022e+00	 3.735271e-01	 1.379438e+01
 1.710620e+00	 2.796845e-01	 1.370546e+01
 1.707399e+00	 2.987210e-01	 1.371311e+01
 1.703953e+00	 3.177874e-01	 1.372145e+01
 1.700281e+00	 3.368803e-01	 1.373084e+01
 1.696382e+00	 3.559958e-01	 1.374145e+01
 1.692253e+00	 3.751302e-01	 1.375374e+01
 1.717930e+00	 2.808797e-01	 1.366462e+01
 1.714695e+00	 2.999976e-01	 1.367254e+01
 1.711235e+00	 3.191455e-01	 1.368110e+01
 1.707547e+00	 3.383199e-01	 1.369062e+01
 1.703631e+00	 3.575171e-01	 1.370120e+01
 1.699485e+00	 3.767333e-01	 1.371346e+01
 1.663326e+00	 3.687177e-01	 1.392098e+01
 1.659042e+00	 3.875399e-01	 1.393112e+01
 1.654529e+00	 4.063731e-01	 1.393643e+01
 1.649788e+00	 4.252136e-01	 1.393983e+01
 1.644816e+00	 4.440573e-01	 1.394429e+01
 1.639613e+00	 4.629004e-01	 1.395296e+01
 1.670558e+00	 3.703208e-01	 1.387775e+01
 1.666255e+00	 3.892248e-01	 1.388860e+01
 1.661723e+00	 4.081400e-01	 1.389494e+01
 1.656961e+00	 4.270623e-01	 1.389939e+01
 1.651967e+00	 4.459880e-01	 1.390470e+01
 1.646741e+00	 4.649130e-01	 1.391372e+01
 1.677790e+00	 3.719239e-01	 1.383563e+01
 1.673468e+00	 3.909098e-01	 1.384728e+01
 1.668917e+00	 4.099068e-01	 1.385465e+01
 1.664134e+00	 4.289111e-01	 1.386010e+01
 1.659119e+00	 4.479187e-01	 1.386609e+01
 1.653870e+00	 4.669256e-01	 1.387523e+01
 1.685022e+00	 3.735271e-01	 1.379438e+01
 1.680681e+00	 3.925948e-01	 1.380686e+01
 1.676110e+00	 4.116736e-01	 1.381527e+01
 1.671307e+00	 4.307598e-01	 1.382169e+01
 1.666270e+00	 4.498494e-01	 1.382831e+01
 1.660999e+00	 4.689382e-01	 1.383743e+01
 1.692253e+00	 3.751302e-01	 1.375374e+01
 1.687895e+00	 3.942797e-01	 1.376705e+01
 1.683304e+00	 4.134405e-01	 1.377652e+01
 1.678480e+00	 4.326086e-01	 1.378394e+01
 1.673421e+00	 4.517800e-01	 1.379120e+01
 1.668128e+00	 4.709508e-01	 1.380028e+01
 1.699485e+00	 3.767333e-01	 1.371346e+01
 1.695108e+00	 3.959647e-01	 1.372759e+01
 1.690497e+00	 4.152073e-01	 1.373815e+01
 1.685653e+00	 4.344573e-01	 1.374662e+01
 1.680573e+00	 4.537107e-01	 1.375460e+01
 1.675256e+00	 4.729634e-01	 1.376375e+01
 1.639613e+00	 4.629004e-01	 1.395296e+01
 1.634177e+00	 4.817388e-01	 1.396416e+01
 1.628508e+00	 5.005685e-01	 1.397356e+01
 1.622604e+00	 5.193854e-01	 1.398081e+01
 1.616466e+00	 5.381853e-01	 1.398593e+01
 1.610092e+00	 5.569641e-01	 1.398939e+01
 1.646741e+00	 4.649130e-01	 1.391372e+01
 1.641282e+00	 4.838333e-01	 1.392513e+01
 1.635588e+00	 5.027449e-01	 1.393510e+01
 1.629659e+00	 5.216436e-01	 1.394316e+01
 1.623494e+00	 5.405253e-01	 1.394925e+01
 1.617093e+00	 5.593857e-01	 1.395375e+01
 1.653870e+00	 4.669256e-01	 1.387523e+01
 1.648387e+00	 4.859278e-01	 1.388659e+01
 1.642669e+00	 5.049213e-01	 1.389693e+01
 1.636714e+00	 5.239018e-01	 1.390572e+01
 1.630522e+00	 5.428652e-01	 1.391282e+01
 1.624093e+00	 5.618073e-01	 1.391856e+01
 1.660999e+00	 4.689382e-01	 1.383743e+01
 1.655492e+00	 4.880223e-01	 1.384859e+01
 1.649749e+00	 5.070976e-01	 1.385916e+01
 1.643769e+00	 5.261600e-01	 1.386859e+01
 1.637551e+00	 5.452051e-01	 1.387671e+01
 1.631094e+00	 5.642289e-01	 1.388380e+01
 1.668128e+00	 4.709508e-01	 1.380028e+01
 1.662597e+00	 4.901169e-01	 1.381118e+01
 1.656830e+00	 5.092740e-01	 1.382191e+01
 1.650824e+00	 5.284182e-01	 1.383191e+01
 1.644579e+00	 5.475451e-01	 1.384100e+01
 1.638094e+00	 5.666505e-01	 1.384943e+01
 1.675256e+00	 4.729634e-01	 1.376375e+01
 1.669702e+00	 4.922114e-01	 1.377444e+01
 1.663910e+00	 5.114504e-01	 1.378530e+01
 1.657878e+00	 5.306764e-01	 1.379579e+01
 1.651607e+00	 5.498850e-01	 1.380575e+01
 1.645094e+00	 5.690721e-01	 1.381545e+01
 1.610092e+00	 5.569641e-01	 1.398939e+01
 1.603482e+00	 5.757176e-01	 1.398798e+01
 1.596636e+00	 5.944415e-01	 1.398076e+01
 1.589552e+00	 6.131316e-01	 1.397233e+01
 1.582231e+00	 6.317835e-01	 1.396797e+01
 1.574673e+00	 6.503929e-01	 1.397355e+01
 1.617093e+00	 5.593857e-01	 1.395375e+01
 1.610454e+00	 5.782208e-01	 1.395324e+01
 1.603578e+00	 5.970261e-01	 1.394663e+01
 1.596463e+00	 6.157974e-01	 1.393860e+01
 1.589111e+00	 6.345304e-01	 1.393439e+01
 1.581520e+00	 6.532206e-01	 1.393990e+01
 1.624093e+00	 5.618073e-01	 1.391856e+01
 1.617426e+00	 5.807239e-01	 1.391919e+01
 1.610519e+00	 5.996106e-01	 1.391335e+01
 1.603374e+00	 6.184632e-01	 1.390568e+01
 1.595990e+00	 6.372772e-01	 1.390142e+01
 1.588366e+00	 6.560484e-01	 1.390642e+01
 1.631094e+00	 5.642289e-01	 1.388380e+01
 1.624397e+00	 5.832270e-01	 1.388573e+01
 1.617461e+00	 6.021951e-01	 1.388076e+01
 1.610285e+00	 6.211290e-01	 1.387348e+01
 1.602869e+00	 6.400241e-01	 1.386907e+01
 1.595212e+00	 6.588762e-01	 1.387331e+01
 1.638094e+00	 5.666505e-01	 1.384943e+01
 1.631369e+00	 5.857301e-01	 1.385273e+01
 1.624403e+00	 6.047797e-01	 1.384871e+01
 1.617197e+00	 6.237948e-01	 1.384189e+01
 1.609748e+00	 6.427710e-01	 1.383735e+01
 1.602059e+00	 6.617040e-01	 1.384076e+01
 1.645094e+00	 5.690721e-01	 1.381545e+01
 1.638341e+00	 5.882332e-01	 1.382008e+01
 1.631345e+00	 6.073642e-01	 1.381708e+01
 1.624108e+00	 6.264605e-01	 1.381083e+01
 1.616628e+00	 6.455179e-01	 1.380627e+01
 1.608905e+00	 6.645318e-01	 1.380897e+01
 1.574673e+00	 6.503929e-01	 1.397355e+01
 1.566877e+00	 6.689554e-01	 1.397489e+01
 1.558844e+00	 6.874666e-01	 1.395861e+01
 1.550574e+00	 7.059223e-01	 1.393319e+01
 1.542067e+00	 7.243179e-01	 1.390818e+01
 1.533323e+00	 7.426490e-01	 1.389400e+01
 1.581520e+00	 6.532206e-01	 1.393990e+01
 1.573690e+00	 6.718639e-01	 1.394174e+01
 1.565622e+00	 6.904556e-01	 1.392711e+01
 1.557316e+00	 7.089915e-01	 1.390406e+01
 1.548771e+00	 7.274671e-01	 1.388173e+01
 1.539989e+00	 7.458779e-01	 1.386894e+01
 1.588366e+00	 6.560484e-01	 1.390642e+01
 1.580502e+00	 6.747724e-01	 1.390833e+01
 1.572400e+00	 6.934446e-01	 1.389513e+01
 1.564057e+00	 7.120607e-01	 1.387448e+01
 1.555476e+00	 7.306163e-01	 1.385516e+01
 1.546656e+00	 7.491068e-01	 1.384343e+01
 1.595212e+00	 6.588762e-01	 1.387331e+01
 1.587315e+00	 6.776809e-01	 1.387500e+01
 1.579177e+00	 6.964336e-01	 1.386308e+01
 1.570799e+00	 7.151300e-01	 1.384485e+01
 1.562181e+00	 7.337655e-01	 1.382874e+01
 1.553323e+00	 7.523357e-01	 1.381774e+01
 1.602059e+00	 6.617040e-01	 1.384076e+01
 1.594128e+00	 6.805894e-01	 1.384212e+01
 1.585955e+00	 6.994226e-01	 1.383141e+01
 1.577541e+00	 7.181992e-01	 1.381559e+01
 1.568885e+00	 7.369147e-01	 1.380276e+01
 1.559989e+00	 7.555646e-01	 1.379208e+01
 1.608905e+00	 6.645318e-01	 1.380897e+01
 1.600940e+00	 6.834979e-01	 1.381006e+01
 1.592732e+00	 7.024116e-01	 1.380055e+01
 1.584282e+00	 7.212684e-01	 1.378709e+01
 1.575590e+00	 7.400639e-01	 1.377748e+01
 1.566656e+00	 7.587935e-01	 1.376667e+01
 1.533323e+00	 7.426490e-01	 1.389400e+01
 1.524343e+00	 7.609112e-01	 1.388097e+01
 1.515127e+00	 7.791000e-01	 1.386028e+01
 1.505676e+00	 7.972111e-01	 1.383299e+01
 1.495991e+00	 8.152399e-01	 1.380010e+01
 1.486073e+00	 8.331821e-01	 1.376243e+01
 1.539989e+00	 7.458779e-01	 1.386894e+01
 1.530970e+00	 7.642195e-01	 1.385264e+01
 1.521714e+00	 7.824874e-01	 1.383053e+01
 1.512223e+00	 8.006772e-01	 1.380397e+01
 1.502496e+00	 8.187845e-01	 1.377419e+01
 1.492534e+00	 8.368046e-01	 1.374213e+01
 1.546656e+00	 7.491068e-01	 1.384343e+01
 1.537598e+00	 7.675278e-01	 1.382498e+01
 1.528302e+00	 7.858748e-01	 1.380183e+01
 1.518769e+00	 8.041434e-01	 1.377567e+01
 1.509000e+00	 8.223290e-01	 1.374794e+01
 1.498996e+00	 8.404272e-01	 1.371972e+01
 1.553323e+00	 7.523357e-01	 1.381774e+01
 1.544225e+00	 7.708361e-01	 1.379798e+01
 1.534889e+00	 7.892622e-01	 1.377411e+01
 1.525315e+00	 8.076095e-01	 1.374809e+01
 1.515504e+00	 8.258735e-01	 1.372160e+01
 1.505457e+00	 8.440497e-01	 1.369591e+01
 1.559989e+00	 7.555646e-01	 1.379208e+01
 1.550853e+00	 7.741444e-01	 1.377165e+01
 1.541477e+00	 7.926496e-01	 1.374729e+01
 1.531862e+00	 8.110756e-01	 1.372125e+01
 1.522009e+00	 8.294180e-01	 1.369544e+01
 1.511918e+00	 8.476722e-01	 1.367137e+01
 1.566656e+00	 7.587935e-01	 1.376667e+01
 1.557481e+00	 7.774527e-01	 1.374595e+01
 1.548064e+00	 7.960370e-01	 1.372126e+01
 1.538408e+00	 8.145418e-01	 1.369511e+01
 1.528513e+00	 8.329625e-01	 1.366969e+01
 1.518379e+00	 8.512948e-01	 1.364673e+01
 1.486073e+00	 8.331821e-01	 1.376243e+01
 1.475923e+00	 8.510332e-01	 1.372092e+01
 1.465542e+00	 8.687888e-01	 1.368427e+01
 1.454930e+00	 8.864445e-01	 1.364785e+01
 1.444091e+00	 9.039959e-01	 1.360330e+01
 1.433024e+00	 9.214387e-01	 1.354066e+01
 1.492534e+00	 8.368046e-01	 1.374213e+01
 1.482340e+00	 8.547334e-01	 1.370455e+01
 1.471914e+00	 8.725662e-01	 1.366427e+01
 1.461256e+00	 8.902986e-01	 1.362602e+01
 1.450369e+00	 9.079263e-01	 1.358146e+01
 1.439254e+00	 9.254449e-01	 1.352062e+01
 1.498996e+00	 8.404272e-01	 1.371972e+01
 1.488757e+00	 8.584335e-01	 1.368695e+01
 1.478285e+00	 8.763435e-01	 1.364520e+01
 1.467582e+00	 8.941527e-01	 1.360351e+01
 1.456648e+00	 9.118567e-01	 1.355805e+01
 1.445485e+00	 9.294512e-01	 1.349880e+01
 1.505457e+00	 8.440497e-01	 1.369591e+01
 1.495174e+00	 8.621336e-01	 1.366660e+01
 1.484657e+00	 8.801208e-01	 1.362790e+01
 1.473908e+00	 8.980068e-01	 1.358199e+01
 1.462927e+00	 9.157872e-01	 1.353457e+01
 1.451715e+00	 9.334574e-01	 1.347634e+01
 1.511918e+00	 8.476722e-01	 1.367137e+01
 1.501591e+00	 8.658338e-01	 1.364459e+01
 1.491029e+00	 8.838982e-01	 1.360910e+01
 1.480234e+00	 9.018609e-01	 1.356308e+01
 1.469205e+00	 9.197176e-01	 1.351246e+01
 1.457946e+00	 9.374637e-01	 1.345436e+01
 1.518379e+00	 8.512948e-01	 1.364673e+01
 1.508008e+00	 8.695339e-01	 1.362195e+01
 1.497401e+00	 8.876755e-01	 1.358923e+01
 1.486559e+00	 9.057150e-01	 1.354656e+01
 1.475484e+00	 9.236480e-01	 1.349319e+01
 1.464176e+00	 9.414699e-01	 1.343393e+01
 1.433024e+00	 9.214387e-01	 1.354066e+01
 1.421731e+00	 9.387684e-01	 1.347959e+01
 1.410215e+00	 9.559809e-01	 1.343560e+01
 1.398477e+00	 9.730718e-01	 1.339053e+01
 1.386518e+00	 9.900368e-01	 1.332536e+01
 1.374342e+00	 1.006872e+00	 1.322054e+01
 1.439254e+00	 9.254449e-01	 1.352062e+01
 1.427913e+00	 9.428500e-01	 1.346173e+01
 1.416347e+00	 9.601373e-01	 1.341919e+01
 1.404557e+00	 9.773025e-01	 1.337521e+01
 1.392547e+00	 9.943413e-01	 1.331109e+01
 1.380317e+00	 1.011250e+00	 1.320751e+01
 1.445485e+00	 9.294512e-01	 1.349880e+01
 1.434094e+00	 9.469316e-01	 1.344230e+01
 1.422478e+00	 9.642938e-01	 1.340154e+01
 1.410638e+00	 9.815333e-01	 1.335907e+01
 1.398575e+00	 9.986459e-01	 1.329644e+01
 1.386293e+00	 1.015627e+00	 1.319458e+01
 1.451715e+00	 9.334574e-01	 1.347634e+01
 1.440276e+00	 9.510132e-01	 1.342205e+01
 1.428609e+00	 9.684502e-01	 1.338312e+01
 1.416718e+00	 9.857640e-01	 1.334240e+01
 1.404603e+00	 1.002950e+00	 1.328168e+01
 1.392268e+00	 1.020005e+00	 1.318208e+01
 1.457946e+00	 9.374637e-01	 1.345436e+01
 1.446457e+00	 9.550948e-01	 1.340169e+01
 1.434741e+00	 9.726066e-01	 1.336438e+01
 1.422798e+00	 9.899948e-01	 1.332551e+01
 1.410632e+00	 1.007255e+00	 1.326706e+01
 1.398243e+00	 1.024383e+00	 1.317036e+01
 1.464176e+00	 9.414699e-01	 1.343393e+01
 1.452639e+00	 9.591764e-01	 1.338193e+01
 1.440872e+00	 9.767631e-01	 1.334576e+01
 1.428879e+00	 9.942255e-01	 1.330867e+01
 1.416660e+00	 1.011559e+00	 1.325284e+01
 1.404219e+00	 1.028760e+00	 1.315974e+01
 1.374342e+00	 1.006872e+00	 1.322054e+01
 1.361949e+00	 1.023573e+00	 1.311061e+01
 1.349342e+00	 1.040135e+00	 1.303325e+01
 1.336524e+00	 1.056555e+00	 1.297443e+01
 1.323497e+00	 1.072829e+00	 1.292182e+01
 1.310263e+00	 1.088952e+00	 1.286527e+01
 1.380317e+00	 1.011250e+00	 1.320751e+01
 1.367871e+00	 1.028023e+00	 1.310008e+01
 1.355209e+00	 1.044658e+00	 1.302633e+01
 1.342335e+00	 1.061149e+00	 1.297056e+01
 1.329251e+00	 1.077494e+00	 1.291864e+01
 1.315960e+00	 1.093687e+00	 1.285855e+01
 1.386293e+00	 1.015627e+00	 1.319458e+01
 1.373792e+00	 1.032473e+00	 1.308978e+01
 1.361076e+00	 1.049180e+00	 1.301914e+01
 1.348146e+00	 1.065743e+00	 1.296530e+01
 1.335006e+00	 1.082158e+00	 1.291236e+01
 1.321656e+00	 1.098422e+00	 1.284644e+01
 1.392268e+00	 1.020005e+00	 1.318208e+01
 1.379714e+00	 1.036924e+00	 1.308020e+01
 1.366943e+00	 1.053702e+00	 1.301227e+01
 1.353957e+00	 1.070337e+00	 1.295932e+01
 1.340760e+00	 1.086823e+00	 1.290370e+01
 1.327353e+00	 1.103156e+00	 1.282968e+01
 1.398243e+00	 1.024383e+00	 1.317036e+01
 1.385635e+00	 1.041374e+00	 1.307179e+01
 1.372809e+00	 1.058225e+00	 1.300627e+01
 1.359768e+00	 1.074930e+00	 1.295324e+01
 1.346514e+00	 1.091487e+00	 1.289334e+01
 1.333050e+00	 1.107891e+00	 1.280898e+01
 1.404219e+00	 1.028760e+00	 1.315974e+01
 1.391557e+00	 1.045824e+00	 1.306499e+01
 1.378676e+00	 1.062747e+00	 1.300168e+01
 1.365579e+00	 1.079524e+00	 1.294769e+01
 1.352269e+00	 1.096151e+00	 1.288195e+01
 1.338747e+00	 1.112625e+00	 1.278555e+01
 1.310263e+00	 1.088952e+00	 1.286527e+01
 1.296825e+00	 1.104922e+00	 1.276324e+01
 1.283186e+00	 1.120732e+00	 1.259475e+01
 1.269348e+00	 1.136381e+00	 1.244681e+01
 1.255314e+00	 1.151865e+00	 1.232730e+01
 1.241088e+00	 1.167179e+00	 1.223436e+01
 1.315960e+00	 1.093687e+00	 1.285855e+01
 1.302463e+00	 1.109726e+00	 1.274496e+01
 1.288765e+00	 1.125605e+00	 1.258444e+01
 1.274867e+00	 1.141322e+00	 1.244639e+01
 1.260772e+00	 1.156873e+00	 1.233094e+01
 1.246484e+00	 1.172254e+00	 1.223757e+01
 1.321656e+00	 1.098422e+00	 1.284644e+01
 1.308102e+00	 1.114530e+00	 1.272183e+01
 1.294344e+00	 1.130478e+00	 1.257584e+01
 1.280385e+00	 1.146263e+00	 1.244631e+01
 1.266230e+00	 1.161881e+00	 1.233410e+01
 1.251880e+00	 1.177328e+00	 1.223999e+01
 1.327353e+00	 1.103156e+00	 1.282968e+01
 1.313740e+00	 1.119334e+00	 1.270218e+01
 1.299923e+00	 1.135351e+00	 1.256921e+01
 1.285904e+00	 1.151204e+00	 1.244683e+01
 1.271688e+00	 1.166889e+00	 1.233705e+01
 1.257276e+00	 1.182403e+00	 1.224191e+01
 1.333050e+00	 1.107891e+00	 1.280898e+01
 1.319378e+00	 1.124138e+00	 1.268670e+01
 1.305502e+00	 1.140223e+00	 1.256475e+01
 1.291423e+00	 1.156145e+00	 1.244816e+01
 1.277146e+00	 1.171897e+00	 1.234001e+01
 1.262672e+00	 1.187478e+00	 1.224355e+01
 1.338747e+00	 1.112625e+00	 1.278555e+01
 1.325017e+00	 1.128942e+00	 1.267554e+01
 1.311081e+00	 1.145096e+00	 1.256263e+01
 1.296942e+00	 1.161085e+00	 1.245045e+01
 1.282604e+00	 1.176905e+00	 1.234315e+01
 1.268068e+00	 1.192552e+00	 1.224512e+01
 1.241088e+00	 1.167179e+00	 1.223436e+01
 1.226672e+00	 1.182320e+00	 1.213831e+01
 1.212070e+00	 1.197285e+00	 1.201848e+01
 1.197285e+00	 1.212070e+00	 1.188622e+01
 1.182320e+00	 1.226672e+00	 1.175256e+01
 1.167179e+00	 1.241088e+00	 1.162802e+01
 1.246484e+00	 1.172254e+00	 1.223757e+01
 1.232006e+00	 1.187461e+00	 1.214034e+01
 1.217340e+00	 1.202491e+00	 1.202081e+01
 1.202491e+00	 1.217340e+00	 1.188945e+01
 1.187461e+00	 1.232006e+00	 1.175637e+01
 1.172254e+00	 1.246484e+00	 1.163111e+01
 1.251880e+00	 1.177328e+00	 1.223999e+01
 1.237339e+00	 1.192601e+00	 1.214135e+01
 1.222610e+00	 1.207696e+00	 1.202167e+01
 1.207696e+00	 1.222610e+00	 1.189069e+01
 1.192601e+00	 1.237339e+00	 1.175777e+01
 1.177328e+00	 1.251880e+00	 1.163165e+01
 1.257276e+00	 1.182403e+00	 1.224191e+01
 1.242672e+00	 1.197742e+00	 1.214167e+01
 1.227880e+00	 1.212902e+00	 1.202148e+01
 1.212902e+00	 1.227880e+00	 1.189052e+01
 1.197742e+00	 1.242672e+00	 1.175754e+01
 1.182403e+00	 1.257276e+00	 1.163066e+01
 1.262672e+00	 1.187478e+00	 1.224355e+01
 1.248006e+00	 1.202882e+00	 1.214157e+01
 1.233150e+00	 1.218108e+00	 1.202062e+01
 1.218108e+00	 1.233150e+00	 1.188945e+01
 1.202882e+00	 1.248006e+00	 1.175639e+01
 1.187478e+00	 1.262672e+00	 1.162909e+01
 1.268068e+00	 1.192552e+00	 1.224512e+01
 1.253339e+00	 1.208023e+00	 1.214129e+01
 1.238420e+00	 1.223313e+00	 1.201941e+01
 1.223313e+00	 1.238420e+00	 1.188795e+01
 1.208023e+00	 1.253339e+00	 1.175498e+01
 1.192552e+00	 1.268068e+00	 1.162782e+01
 1.167179e+00	 1.241088e+00	 1.162802e+01
 1.151865e+00	 1.255314e+00	 1.148756e+01
 1.136381e+00	 1.269348e+00	 1.131409e+01
 1.120732e+00	 1.283186e+00	 1.112905e+01
 1.104922e+00	 1.296825e+00	 1.095363e+01
 1.088952e+00	 1.310263e+00	 1.081065e+01
 1.172254e+00	 1.246484e+00	 1.163111e+01
 1.156873e+00	 1.260772e+00	 1.149004e+01
 1.141322e+00	 1.274867e+00	 1.131784e+01
 1.125605e+00	 1.288765e+00	 1.113536e+01
 1.109726e+00	 1.302463e+00	 1.096256e+01
 1.093687e+00	 1.315960e+00	 1.082185e+01
 1.177328e+00	 1.251880e+00	 1.163165e+01
 1.161881e+00	 1.266230e+00	 1.149027e+01
 1.146263e+00	 1.280385e+00	 1.131990e+01
 1.130478e+00	 1.294344e+00	 1.114059e+01
 1.114530e+00	 1.308102e+00	 1.097136e+01
 1.098422e+00	 1.321656e+00	 1.083223e+01
 1.182403e+00	 1.257276e+00	 1.163066e+01
 1.166889e+00	 1.271688e+00	 1.148946e+01
 1.151204e+00	 1.285904e+00	 1.132162e+01
 1.135351e+00	 1.299923e+00	 1.114609e+01
 1.119334e+00	 1.313740e+00	 1.098075e+01
 1.103156e+00	 1.327353e+00	 1.084308e+01
 1.187478e+00	 1.262672e+00	 1.162909e+01
 1.171897e+00	 1.277146e+00	 1.148877e+01
 1.156145e+00	 1.291423e+00	 1.132424e+01
 1.140223e+00	 1.305502e+00	 1.115313e+01
 1.124138e+00	 1.319378e+00	 1.099187e+01
 1.107891e+00	 1.333050e+00	 1.085562e+01
 1.192552e+00	 1.268068e+00	 1.162782e+01
 1.176905e+00	 1.282604e+00	 1.148929e+01
 1.161085e+00	 1.296942e+00	 1.132898e+01
 1.145096e+00	 1.311081e+00	 1.116293e+01
 1.128942e+00	 1.325017e+00	 1.100588e+01
 1.112625e+00	 1.338747e+00	 1.087099e+01
 1.088952e+00	 1.310263e+00	 1.081065e+01
 1.072829e+00	 1.323497e+00	 1.068569e+01
 1.056555e+00	 1.336524e+00	 1.055320e+01
 1.040135e+00	 1.349342e+00	 1.040620e+01
 1.023573e+00	 1.361949e+00	 1.023506e+01
 1.006872e+00	 1.374342e+00	 1.002799e+01
 1.093687e+00	 1.315960e+00	 1.082185e+01
 1.077494e+00	 1.329251e+00	 1.069970e+01
 1.061149e+00	 1.342335e+00	 1.056899e+01
 1.044658e+00	 1.355209e+00	 1.042279e+01
 1.028023e+00	 1.367871e+00	 1.025150e+01
 1.011250e+00	 1.380317e+00	 1.004333e+01
 1.098422e+00	 1.321656e+00	 1.083223e+01
 1.082158e+00	 1.335006e+00	 1.071150e+01
 1.065743e+00	 1.348146e+00	 1.058106e+01
 1.049180e+00	 1.361076e+00	 1.043444e+01
 1.032473e+00	 1.373792e+00	 1.026243e+01
 1.015627e+00	 1.386293e+00	 1.005366e+01
 1.103156e+00	 1.327353e+00	 1.084308e+01
 1.086823e+00	 1.340760e+00	 1.072217e+01
 1.070337e+00	 1.353957e+00	 1.059048e+01
 1.053702e+00	 1.366943e+00	 1.044233e+01
 1.036924e+00	 1.379714e+00	 1.026929e+01
 1.020005e+00	 1.392268e+00	 1.006078e+01
 1.107891e+00	 1.333050e+00	 1.085562e+01
 1.091487e+00	 1.346514e+00	 1.073278e+01
 1.074930e+00	 1.359768e+00	 1.059829e+01
 1.058225e+00	 1.372809e+00	 1.044761e+01
 1.041374e+00	 1.385635e+00	 1.027347e+01
 1.024383e+00	 1.398243e+00	 1.006645e+01
 1.112625e+00	 1.338747e+00	 1.087099e+01
 1.096151e+00	 1.352269e+00	 1.074435e+01
 1.079524e+00	 1.365579e+00	 1.060548e+01
 1.062747e+00	 1.378676e+00	 1.045138e+01
 1.045824e+00	 1.391557e+00	 1.027630e+01
 1.028760e+00	 1.404219e+00	 1.007237e+01
 1.006872e+00	 1.374342e+00	 1.002799e+01
 9.900368e-01	 1.386518e+00	 9.820463e+00
 9.730718e-01	 1.398477e+00	 9.646052e+00
 9.559809e-01	 1.410215e+00	 9.488651e+00
 9.387684e-01	 1.421731e+00	 9.332246e+00
 9.214387e-01	 1.433024e+00	 9.161429e+00
 1.011250e+00	 1.380317e+00	 1.004333e+01
 9.943413e-01	 1.392547e+00	 9.834294e+00
 9.773025e-01	 1.404557e+00	 9.658986e+00
 9.601373e-01	 1.416347e+00	 9.502043e+00
 9.428500e-01	 1.427913e+00	 9.348272e+00
 9.254449e-01	 1.439254e+00	 9.183170e+00
 1.015627e+00	 1.386293e+00	 1.005366e+01
 9.986459e-01	 1.398575e+00	 9.844925e+00
 9.815333e-01	 1.410638e+00	 9.671200e+00
 9.642938e-01	 1.422478e+00	 9.516918e+00
 9.469316e-01	 1.434094e+00	 9.366729e+00
 9.294512e-01	 1.445485e+00	 9.206025e+00
 1.020005e+00	 1.392268e+00	 1.006078e+01
 1.002950e+00	 1.404603e+00	 9.854443e+00
 9.857640e-01	 1.416718e+00	 9.684800e+00
 9.684502e-01	 1.428609e+00	 9.535145e+00
 9.510132e-01	 1.440276e+00	 9.388994e+00
 9.334574e-01	 1.451715e+00	 9.230643e+00
 1.024383e+00	 1.398243e+00	 1.006645e+01
 1.007255e+00	 1.410632e+00	 9.864894e+00
 9.899948e-01	 1.422798e+00	 9.701858e+00
 9.726066e-01	 1.434741e+00	 9.558559e+00
 9.550948e-01	 1.446457e+00	 9.416426e+00
 9.374637e-01	 1.457946e+00	 9.257669e+00
 1.028760e+00	 1.404219e+00	 1.007237e+01
 1.011559e+00	 1.416660e+00	 9.878283e+00
 9.942255e-01	 1.428879e+00	 9.724404e+00
 9.767631e-01	 1.440872e+00	 9.588966e+00
 9.591764e-01	 1.452639e+00	 9.450363e+00
 9.414699e-01	 1.464176e+00	 9.287745e+00
 9.214387e-01	 1.433024e+00	 9.161429e+00
 9.039959e-01	 1.444091e+00	 8.990026e+00
 8.864445e-01	 1.454930e+00	 8.827533e+00
 8.687888e-01	 1.465542e+00	 8.654198e+00
 8.510332e-01	 1.475923e+00	 8.452463e+00
 8.331821e-01	 1.486073e+00	 8.219860e+00
 9.254449e-01	 1.439254e+00	 9.183170e+00
 9.079263e-01	 1.450369e+00	 9.019325e+00
 8.902986e-01	 1.461256e+00	 8.860714e+00
 8.725662e-01	 1.471914e+00	 8.682101e+00
 8.547334e-01	 1.482340e+00	 8.460796e+00
 8.368046e-01	 1.492534e+00	 8.246753e+00
 9.294512e-01	 1.445485e+00	 9.206025e+00
 9.118567e-01	 1.456648e+00	 9.044789e+00
 8.941527e-01	 1.467582e+00	 8.881680e+00
 8.763435e-01	 1.478285e+00	 8.687324e+00
 8.584335e-01	 1.488757e+00	 8.463065e+00
 8.404272e-01	 1.498996e+00	 8.276226e+00
 9.334574e-01	 1.451715e+00	 9.230643e+00
 9.157872e-01	 1.462927e+00	 9.066416e+00
 8.980068e-01	 1.473908e+00	 8.890145e+00
 8.801208e-01	 1.484657e+00	 8.674615e+00
 8.621336e-01	 1.495174e+00	 8.474658e+00
 8.440497e-01	 1.505457e+00	 8.307236e+00
 9.374637e-01	 1.457946e+00	 9.257669e+00
 9.197176e-01	 1.469205e+00	 9.084213e+00
 9.018609e-01	 1.480234e+00	 8.885844e+00
 8.838982e-01	 1.491029e+00	 8.672999e+00
 8.658338e-01	 1.501591e+00	 8.493809e+00
 8.476722e-01	 1.511918e+00	 8.338743e+00
 9.414699e-01	 1.464176e+00	 9.287745e+00
 9.236480e-01	 1.475484e+00	 9.098201e+00
 9.057150e-01	 1.486559e+00	 8.879767e+00
 8.876755e-01	 1.497401e+00	 8.685428e+00
 8.695339e-01	 1.508008e+00	 8.518765e+00
 8.512948e-01	 1.518379e+00	 8.369708e+00
 8.331821e-01	 1.486073e+00	 8.219860e+00
 8.152399e-01	 1.495991e+00	 8.028876e+00
 7.972111e-01	 1.505676e+00	 7.872152e+00
 7.791000e-01	 1.515127e+00	 7.727434e+00
 7.609112e-01	 1.524343e+00	 7.572363e+00
 7.426490e-01	 1.533323e+00	 7.384443e+00
 8.368046e-01	 1.492534e+00	 8.246753e+00
 8.187845e-01	 1.502496e+00	 8.073378e+00
 8.006772e-01	 1.512223e+00	 7.918066e+00
 7.824874e-01	 1.521714e+00	 7.764834e+00
 7.642195e-01	 1.530970e+00	 7.597745e+00
 7.458779e-01	 1.539989e+00	 7.400854e+00
 8.404272e-01	 1.498996e+00	 8.276226e+00
 8.223290e-01	 1.509000e+00	 8.115101e+00
 8.041434e-01	 1.518769e+00	 7.959536e+00
 7.858748e-01	 1.528302e+00	 7.798741e+00
 7.675278e-01	 1.537598e+00	 7.622090e+00
 7.491068e-01	 1.546656e+00	 7.419053e+00
 8.440497e-01	 1.505457e+00	 8.307236e+00
 8.258735e-01	 1.515504e+00	 8.153740e+00
 8.076095e-01	 1.525315e+00	 7.996701e+00
 7.892622e-01	 1.534889e+00	 7.829458e+00
 7.708361e-01	 1.544225e+00	 7.645598e+00
 7.523357e-01	 1.553323e+00	 7.438884e+00
 8.476722e-01	 1.511918e+00	 8.338743e+00
 8.294180e-01	 1.522009e+00	 8.188981e+00
 8.110756e-01	 1.531862e+00	 8.029684e+00
 7.926496e-01	 1.541477e+00	 7.857265e+00
 7.741444e-01	 1.550853e+00	 7.668449e+00
 7.555646e-01	 1.559989e+00	 7.460180e+00
 8.512948e-01	 1.518379e+00	 8.369708e+00
 8.329625e-01	 1.528513e+00	 8.220499e+00
 8.145418e-01	 1.538408e+00	 8.058588e+00
 7.960370e-01	 1.548064e+00	 7.882426e+00
 7.774527e-01	 1.557481e+00	 7.690805e+00
 7.587935e-01	 1.566656e+00	 7.482762e+00
 7.426490e-01	 1.533323e+00	 7.384443e+00
 7.243179e-01	 1.542067e+00	 7.181050e+00
 7.059223e-01	 1.550574e+00	 6.992248e+00
 6.874666e-01	 1.558844e+00	 6.816539e+00
 6.689554e-01	 1.566877e+00	 6.652914e+00
 6.503929e-01	 1.574673e+00	 6.500616e+00
 7.458779e-01	 1.539989e+00	 7.400854e+00
 7.274671e-01	 1.548771e+00	 7.197009e+00
 7.089915e-01	 1.557316e+00	 7.013585e+00
 6.904556e-01	 1.565622e+00	 6.846020e+00
 6.718639e-01	 1.573690e+00	 6.690360e+00
 6.532206e-01	 1.581520e+00	 6.542819e+00
 7.491068e-01	 1.546656e+00	 7.419053e+00
 7.306163e-01	 1.555476e+00	 7.216287e+00
 7.120607e-01	 1.564057e+00	 7.038050e+00
 6.934446e-01	 1.572400e+00	 6.877161e+00
 6.747724e-01	 1.580502e+00	 6.727416e+00
 6.560484e-01	 1.588366e+00	 6.582706e+00
 7.523357e-01	 1.553323e+00	 7.438884e+00
 7.337655e-01	 1.562181e+00	 7.238318e+00
 7.151300e-01	 1.570799e+00	 7.064909e+00
 6.964336e-01	 1.579177e+00	 6.909242e+00
 6.776809e-01	 1.587315e+00	 6.763548e+00
 6.588762e-01	 1.595212e+00	 6.620093e+00
 7.555646e-01	 1.559989e+00	 7.460180e+00
 7.369147e-01	 1.568885e+00	 7.262522e+00
 7.181992e-01	 1.577541e+00	 7.093420e+00
 6.994226e-01	 1.585955e+00	 6.941535e+00
 6.805894e-01	 1.594128e+00	 6.798209e+00
 6.617040e-01	 1.602059e+00	 6.654776e+00
 7.587935e-01	 1.566656e+00	 7.482762e+00
 7.400639e-01	 1.575590e+00	 7.288311e+00
 7.212684e-01	 1.584282e+00	 7.122832e+00
 7.024116e-01	 1.592732e+00	 6.973302e+00
 6.834979e-01	 1.600940e+00	 6.830840e+00
 6.645318e-01	 1.608905e+00	 6.686531e+00
 6.503929e-01	 1.574673e+00	 6.500616e+00
 6.317835e-01	 1.582231e+00	 6.341970e+00
 6.131316e-01	 1.589552e+00	 6.166989e+00
 5.944415e-01	 1.596636e+00	 5.986398e+00
 5.757176e-01	 1.603482e+00	 5.810650e+00
 5.569641e-01	 1.610092e+00	 5.649814e+00
 6.532206e-01	 1.581520e+00	 6.542819e+00
 6.345304e-01	 1.589111e+00	 6.384536e+00
 6.157974e-01	 1.596463e+00	 6.207369e+00
 5.970261e-01	 1.603578e+00	 6.023496e+00
 5.782208e-01	 1.610454e+00	 5.844826e+00
 5.593857e-01	 1.617093e+00	 5.682874e+00
 6.560484e-01	 1.588366e+00	 6.582706e+00
 6.372772e-01	 1.595990e+00	 6.423923e+00
 6.184632e-01	 1.603374e+00	 6.244917e+00
 5.996106e-01	 1.610519e+00	 6.058851e+00
 5.807239e-01	 1.617426e+00	 5.878602e+00
 5.618073e-01	 1.624093e+00	 5.716639e+00
 6.588762e-01	 1.595212e+00	 6.620093e+00
 6.400241e-01	 1.602869e+00	 6.460306e+00
 6.211290e-01	 1.610285e+00	 6.280044e+00
 6.021951e-01	 1.617461e+00	 6.092987e+00
 5.832270e-01	 1.624397e+00	 5.912503e+00
 5.642289e-01	 1.631094e+00	 5.751525e+00
 6.617040e-01	 1.602059e+00	 6.654776e+00
 6.427710e-01	 1.609748e+00	 6.493838e+00
 6.237948e-01	 1.617197e+00	 6.313132e+00
 6.047797e-01	 1.624403e+00	 6.126398e+00
 5.857301e-01	 1.631369e+00	 5.947026e+00
 5.666505e-01	 1.638094e+00	 5.787925e+00
 6.645318e-01	 1.608905e+00	 6.686531e+00
 6.455179e-01	 1.616628e+00	 6.524644e+00
 6.264605e-01	 1.624108e+00	 6.344535e+00
 6.073642e-01	 1.631345e+00	 6.159552e+00
 5.882332e-01	 1.638341e+00	 5.982637e+00
 5.690721e-01	 1.645094e+00	 5.826204e+00
 5.569641e-01	 1.610092e+00	 5.649814e+00
 5.381853e-01	 1.616466e+00	 5.504544e+00
 5.193854e-01	 1.622604e+00	 5.366607e+00
 5.005685e-01	 1.628508e+00	 5.231903e+00
 4.817388e-01	 1.634177e+00	 5.095681e+00
 4.629004e-01	 1.639613e+00	 4.952558e+00
 5.593857e-01	 1.617093e+00	 5.682874e+00
 5.405253e-01	 1.623494e+00	 5.538436e+00
 5.216436e-01	 1.629659e+00	 5.402185e+00
 5.027449e-01	 1.635588e+00	 5.269579e+00
 4.838333e-01	 1.641282e+00	 5.135386e+00
 4.649130e-01	 1.646741e+00	 4.993709e+00
 5.618073e-01	 1.624093e+00	 5.716639e+00
 5.428652e-01	 1.630522e+00	 5.573340e+00
 5.239018e-01	 1.636714e+00	 5.438276e+00
 5.049213e-01	 1.642669e+00	 5.306785e+00
 4.859278e-01	 1.648387e+00	 5.173483e+00
 4.669256e-01	 1.653870e+00	 5.032290e+00
 5.642289e-01	 1.631094e+00	 5.751525e+00
 5.452051e-01	 1.637551e+00	 5.609562e+00
 5.261600e-01	 1.643769e+00	 5.475167e+00
 5.070976e-01	 1.649749e+00	 5.343876e+00
 4.880223e-01	 1.655492e+00	 5.210475e+00
 4.689382e-01	 1.660999e+00	 5.069028e+00
 5.666505e-01	 1.638094e+00	 5.787925e+00
 5.475451e-01	 1.644579e+00	 5.647385e+00
 5.284182e-01	 1.650824e+00	 5.513122e+00
 5.092740e-01	 1.656830e+00	 5.381182e+00
 4.901169e-01	 1.662597e+00	 5.246839e+00
 4.709508e-01	 1.668128e+00	 5.104622e+00
 5.690721e-01	 1.645094e+00	 5.826204e+00
 5.498850e-01	 1.651607e+00	 5.687067e+00
 5.306764e-01	 1.657878e+00	 5.552382e+00
 5.114504e-01	 1.663910e+00	 5.419013e+00
 4.922114e-01	 1.669702e+00	 5.283031e+00
 4.729634e-01	 1.675256e+00	 5.139747e+00
 4.629004e-01	 1.639613e+00	 4.952558e+00
 4.440573e-01	 1.644816e+00	 4.793362e+00
 4.252136e-01	 1.649788e+00	 4.626310e+00
 4.063731e-01	 1.654529e+00	 4.471230e+00
 3.875399e-01	 1.659042e+00	 4.347389e+00
 3.687177e-01	 1.663326e+00	 4.273402e+00
 4.649130e-01	 1.646741e+00	 4.993709e+00
 4.459880e-01	 1.651967e+00	 4.836021e+00
 4.270623e-01	 1.656961e+00	 4.670800e+00
 4.081400e-01	 1.661723e+00	 4.516765e+00
 3.892248e-01	 1.666255e+00	 4.392101e+00
 3.703208e-01	 1.670558e+00	 4.314491e+00
 4.669256e-01	 1.653870e+00	 5.032290e+00
 4.479187e-01	 1.659119e+00	 4.875642e+00
 4.289111e-01	 1.664134e+00	 4.712264e+00
 4.099068e-01	 1.668917e+00	 4.559614e+00
 3.909098e-01	 1.673468e+00	 4.434629e+00
 3.719239e-01	 1.677790e+00	 4.353769e+00
 4.689382e-01	 1.660999e+00	 5.069028e+00
 4.498494e-01	 1.666270e+00	 4.913180e+00
 4.307598e-01	 1.671307e+00	 4.751834e+00
 4.116736e-01	 1.676110e+00	 4.601026e+00
 3.925948e-01	 1.680681e+00	 4.476286e+00
 3.735271e-01	 1.685022e+00	 4.392683e+00
 4.709508e-01	 1.668128e+00	 5.104622e+00
 4.517800e-01	 1.673421e+00	 4.949565e+00
 4.326086e-01	 1.678480e+00	 4.790611e+00
 4.134405e-01	 1.683304e+00	 4.642221e+00
 3.942797e-01	 1.687895e+00	 4.518356e+00
 3.751302e-01	 1.692253e+00	 4.432529e+00
 4.729634e-01	 1.675256e+00	 5.139747e+00
 4.537107e-01	 1.680573e+00	 4.985700e+00
 4.344573e-01	 1.685653e+00	 4.829671e+00
 4.152073e-01	 1.690497e+00	 4.684392e+00
 3.959647e-01	 1.695108e+00	 4.562095e+00
 3.767333e-01	 1.699485e+00	 4.474575e+00
 3.687177e-01	 1.663326e+00	 4.273402e+00
 3.499104e-01	 1.667384e+00	 4.207191e+00
 3.311216e-01	 1.671217e+00	 4.109643e+00
 3.123552e-01	 1.674826e+00	 3.994243e+00
 2.936146e-01	 1.678212e+00	 3.873341e+00
 2.749036e-01	 1.681379e+00	 3.758488e+00
 3.703208e-01	 1.670558e+00	 4.314491e+00
 3.514317e-01	 1.674633e+00	 4.246711e+00
 3.325613e-01	 1.678483e+00	 4.149311e+00
 3.137133e-01	 1.682107e+00	 4.035061e+00
 2.948912e-01	 1.685509e+00	 3.915740e+00
 2.760988e-01	 1.688689e+00	 3.802460e+00
 3.719239e-01	 1.677790e+00	 4.353769e+00
 3.529531e-01	 1.681883e+00	 4.284268e+00
 3.340010e-01	 1.685749e+00	 4.186909e+00
 3.150713e-01	 1.689389e+00	 4.073660e+00
 2.961678e-01	 1.692806e+00	 3.955755e+00
 2.772940e-01	 1.695999e+00	 3.843901e+00
 3.735271e-01	 1.685022e+00	 4.392683e+00
 3.544744e-01	 1.689132e+00	 4.321197e+00
 3.354406e-01	 1.693015e+00	 4.223735e+00
 3.164294e-01	 1.696671e+00	 4.111310e+00
 2.974444e-01	 1.700102e+00	 3.994633e+00
 2.784893e-01	 1.703310e+00	 3.884042e+00
 3.751302e-01	 1.692253e+00	 4.432529e+00
 3.559958e-01	 1.696382e+00	 4.358810e+00
 3.368803e-01	 1.700281e+00	 4.261075e+00
 3.177874e-01	 1.703953e+00	 4.149271e+00
 2.987210e-01	 1.707399e+00	 4.033615e+00
 2.796845e-01	 1.710620e+00	 3.924112e+00
 3.767333e-01	 1.699485e+00	 4.474575e+00
 3.575171e-01	 1.703631e+00	 4.398404e+00
 3.383199e-01	 1.707547e+00	 4.300200e+00
 3.191455e-01	 1.711235e+00	 4.188793e+00
 2.999976e-01	 1.714695e+00	 4.073932e+00
 2.808797e-01	 1.717930e+00	 3.965333e+00
 2.749036e-01	 1.681379e+00	 3.758488e+00
 2.562255e-01	 1.684326e+00	 3.664283e+00
 2.375838e-01	 1.687057e+00	 3.592589e+00
 2.189819e-01	 1.689572e+00	 3.535472e+00
 2.004231e-01	 1.691874e+00	 3.485162e+00
 1.819107e-01	 1.693964e+00	 3.434140e+00
 2.760988e-01	 1.688689e+00	 3.802460e+00
 2.573395e-01	 1.691649e+00	 3.709293e+00
 2.386168e-01	 1.694392e+00	 3.637892e+00
 2.199340e-01	 1.696918e+00	 3.580522e+00
 2.012945e-01	 1.699230e+00	 3.529698e+00
 1.827016e-01	 1.701329e+00	 3.478248e+00
 2.772940e-01	 1.695999e+00	 3.843901e+00
 2.584535e-01	 1.698973e+00	 3.751730e+00
 2.396497e-01	 1.701727e+00	 3.680716e+00
 2.208861e-01	 1.704264e+00	 3.623290e+00
 2.021659e-01	 1.706586e+00	 3.572213e+00
 1.834925e-01	 1.708694e+00	 3.520629e+00
 2.784893e-01	 1.703310e+00	 3.884042e+00
 2.595675e-01	 1.706296e+00	 3.792795e+00
 2.406827e-01	 1.709062e+00	 3.722202e+00
 2.218382e-01	 1.711610e+00	 3.664819e+00
 2.030373e-01	 1.713942e+00	 3.613625e+00
 1.842834e-01	 1.716059e+00	 3.562050e+00
 2.796845e-01	 1.710620e+00	 3.924112e+00
 2.606816e-01	 1.713619e+00	 3.833690e+00
 2.417157e-01	 1.716397e+00	 3.763485e+00
 2.227903e-01	 1.718956e+00	 3.706150e+00
 2.039088e-01	 1.721298e+00	 3.654852e+00
 1.850744e-01	 1.723424e+00	 3.603279e+00
 2.808797e-01	 1.717930e+00	 3.965333e+00
 2.617956e-01	 1.720942e+00	 3.875611e+00
 2.427487e-01	 1.723732e+00	 3.805700e+00
 2.237424e-01	 1.726302e+00	 3.748323e+00
 2.047802e-01	 1.728654e+00	 3.696811e+00
 1.858653e-01	 1.730790e+00	 3.645087e+00
 1.819107e-01	 1.693964e+00	 3.434140e+00
 1.634478e-01	 1.695845e+00	 3.380741e+00
 1.450375e-01	 1.697519e+00	 3.329456e+00
 1.266829e-01	 1.698987e+00	 3.282373e+00
 1.083869e-01	 1.700253e+00	 3.241760e+00
 9.015252e-02	 1.701317e+00	 3.210035e+00
 1.827016e-01	 1.701329e+00	 3.478248e+00
 1.641584e-01	 1.703218e+00	 3.424866e+00
 1.456681e-01	 1.704899e+00	 3.373989e+00
 1.272337e-01	 1.706374e+00	 3.327482e+00
 1.088582e-01	 1.707645e+00	 3.287380e+00
 9.054449e-02	 1.708714e+00	 3.255838e+00
 1.834925e-01	 1.708694e+00	 3.520629e+00
 1.648691e-01	 1.710592e+00	 3.467516e+00
 1.462987e-01	 1.712280e+00	 3.417226e+00
 1.277845e-01	 1.713761e+00	 3.371429e+00
 1.093294e-01	 1.715037e+00	 3.331951e+00
 9.093646e-02	 1.716111e+00	 3.300718e+00
 1.842834e-01	 1.716059e+00	 3.562050e+00
 1.655797e-01	 1.717965e+00	 3.509305e+00
 1.469293e-01	 1.719660e+00	 3.459645e+00
 1.283353e-01	 1.721148e+00	 3.414572e+00
 1.098007e-01	 1.722430e+00	 3.375740e+00
 9.132843e-02	 1.723508e+00	 3.344875e+00
 1.850744e-01	 1.723424e+00	 3.603279e+00
 1.662904e-01	 1.725338e+00	 3.550849e+00
 1.475599e-01	 1.727041e+00	 3.501726e+00
 1.288861e-01	 1.728535e+00	 3.457276e+00
 1.102719e-01	 1.729822e+00	 3.419015e+00
 9.172039e-02	 1.730905e+00	 3.388510e+00
 1.858653e-01	 1.730790e+00	 3.645087e+00
 1.670010e-01	 1.732711e+00	 3.592767e+00
 1.481905e-01	 1.734421e+00	 3.543952e+00
 1.294369e-01	 1.735922e+00	 3.499907e+00
 1.107432e-01	 1.737215e+00	 3.462050e+00
 9.211236e-02	 1.738302e+00	 3.431826e+00
 9.015252e-02	 1.701317e+00	 3.210035e+00
 7.198247e-02	 1.702182e+00	 3.188143e+00
 5.387954e-02	 1.702852e+00	 3.173288e+00
 3.584642e-02	 1.703327e+00	 3.162485e+00
 1.788573e-02	 1.703610e+00	 3.152908e+00
-4.177751e-07	 1.703720e+00	 4.041689e+00
 9.054449e-02	 1.708714e+00	 3.255838e+00
 7.229544e-02	 1.709583e+00	 3.233680e+00
 5.411380e-02	 1.710255e+00	 3.218426e+00
 3.600227e-02	 1.710732e+00	 3.207390e+00
 1.796349e-02	 1.711017e+00	 3.197954e+00
-4.047912e-07	 1.711127e+00	 4.077506e+00
 9.093646e-02	 1.716111e+00	 3.300718e+00
 7.260840e-02	 1.716984e+00	 3.278483e+00
 5.434806e-02	 1.717659e+00	 3.263057e+00
 3.615813e-02	 1.718138e+00	 3.251978e+00
 1.804125e-02	 1.718424e+00	 3.242756e+00
-3.918363e-07	 1.718534e+00	 4.111822e+00
 9.132843e-02	 1.723508e+00	 3.344875e+00
 7.292137e-02	 1.724385e+00	 3.322696e+00
 5.458232e-02	 1.725063e+00	 3.307271e+00
 3.631398e-02	 1.725544e+00	 3.296290e+00
 1.811902e-02	 1.725831e+00	 3.287318e+00
-3.789217e-07	 1.725941e+00	 4.144631e+00
 9.172039e-02	 1.730905e+00	 3.388510e+00
 7.323434e-02	 1.731786e+00	 3.366466e+00
 5.481657e-02	 1.732466e+00	 3.351160e+00
 3.646984e-02	 1.732950e+00	 3.340367e+00
 1.819678e-02	 1.733238e+00	 3.331640e+00
-3.660588e-07	 1.733348e+00	 4.175926e+00
 9.211236e-02	 1.738302e+00	 3.431826e+00
 7.354730e-02	 1.739186e+00	 3.409937e+00
 5.505083e-02	 1.739870e+00	 3.394812e+00
 3.662569e-02	 1.740355e+00	 3.384249e+00
 1.827455e-02	 1.740645e+00	 3.375720e+00
-3.532590e-07	 1.740755e+00	 4.205698e+00
 1.740741e+00	 0.000000e+00	 1.359165e+01
 1.740645e+00	 1.827455e-02	 1.359109e+01
 1.740355e+00	 3.662569e-02	 1.359073e+01
 1.739870e+00	 5.505083e-02	 1.359150e+01
 1.739186e+00	 7.354730e-02	 1.359430e+01
 1.738302e+00	 9.211236e-02	 1.359990e+01
 1.748148e+00	 0.000000e+00	 1.354997e+01
 1.748052e+00	 1.835231e-02	 1.354953e+01
 1.747761e+00	 3.678154e-02	 1.354927e+01
 1.747274e+00	 5.528509e-02	 1.355013e+01
 1.746587e+00	 7.386027e-02	 1.355297e+01
 1.745699e+00	 9.250433e-02	 1.355861e+01
 1.755556e+00	 0.000000e+00	 1.350909e+01
 1.755459e+00	 1.843007e-02	 1.350876e+01
 1.755167e+00	 3.693740e-02	 1.350860e+01
 1.754677e+00	 5.551935e-02	 1.350952e+01
 1.753988e+00	 7.417324e-02	 1.351239e+01
 1.753096e+00	 9.289630e-02	 1.351806e+01
 1.762963e+00	 0.000000e+00	 1.346897e+01
 1.762866e+00	 1.850784e-02	 1.346878e+01
 1.762573e+00	 3.709325e-02	 1.346870e+01
 1.762081e+00	 5.575361e-02	 1.346965e+01
 1.761389e+00	 7.448621e-02	 1.347252e+01
 1.760493e+00	 9.328826e-02	 1.347819e+01
 1.770370e+00	 0.000000e+00	 1.342957e+01
 1.770273e+00	 1.858560e-02	 1.342957e+01
 1.769978e+00	 3.724911e-02	 1.342958e+01
 1.769485e+00	 5.598787e-02	 1.343053e+01
 1.768790e+00	 7.479917e-02	 1.343335e+01
 1.767890e+00	 9.368023e-02	 1.343896e+01
 1.777778e+00	 0.000000e+00	 1.339085e+01
 1.777680e+00	 1.866337e-02	 1.339112e+01
 1.777384e+00	 3.740496e-02	 1.339124e+01
 1.776889e+00	 5.622213e-02	 1.339215e+01
 1.776190e+00	 7.511214e-02	 1.339484e+01
 1.775287e+00	 9.407220e-02	 1.340029e+01
 1.738302e+00	 9.211236e-02	 1.359990e+01
 1.737215e+00	 1.107432e-01	 1.360588e+01
 1.735922e+00	 1.294369e-01	 1.360999e+01
 1.734421e+00	 1.481905e-01	 1.361314e+01
 1.732711e+00	 1.670010e-01	 1.361609e+01
 1.730790e+00	 1.858653e-01	 1.361938e+01
 1.745699e+00	 9.250433e-02	 1.355861e+01
 1.744607e+00	 1.112144e-01	 1.356464e+01
 1.743309e+00	 1.299877e-01	 1.356884e+01
 1.741802e+00	 1.488211e-01	 1.357212e+01
 1.740085e+00	 1.677116e-01	 1.357520e+01
 1.738155e+00	 1.866562e-01	 1.357862e+01
 1.753096e+00	 9.289630e-02	 1.351806e+01
 1.751999e+00	 1.116857e-01	 1.352417e+01
 1.750696e+00	 1.305385e-01	 1.352849e+01
 1.749183e+00	 1.494517e-01	 1.353192e+01
 1.747458e+00	 1.684223e-01	 1.353515e+01
 1.745520e+00	 1.874471e-01	 1.353871e+01
 1.760493e+00	 9.328826e-02	 1.347819e+01
 1.759392e+00	 1.121569e-01	 1.348437e+01
 1.758082e+00	 1.310893e-01	 1.348881e+01
 1.756563e+00	 1.500823e-01	 1.349238e+01
 1.754831e+00	 1.691329e-01	 1.349576e+01
 1.752885e+00	 1.882380e-01	 1.349946e+01
 1.767890e+00	 9.368023e-02	 1.343896e+01
 1.766784e+00	 1.126282e-01	 1.344514e+01
 1.765469e+00	 1.316401e-01	 1.344967e+01
 1.763944e+00	 1.507129e-01	 1.345336e+01
 1.762204e+00	 1.698436e-01	 1.345688e+01
 1.760250e+00	 1.890289e-01	 1.346070e+01
 1.775287e+00	 9.407220e-02	 1.340029e+01
 1.774177e+00	 1.130994e-01	 1.340639e+01
 1.772856e+00	 1.321909e-01	 1.341094e+01
 1.771324e+00	 1.513435e-01	 1.341472e+01
 1.769578e+00	 1.705542e-01	 1.341834e+01
 1.767615e+00	 1.898199e-01	 1.342226e+01
 1.730790e+00	 1.858653e-01	 1.361938e+01
 1.728654e+00	 2.047802e-01	 1.362493e+01
 1.726302e+00	 2.237424e-01	 1.363369e+01
 1.723732e+00	 2.427487e-01	 1.364436e+01
 1.720942e+00	 2.617956e-01	 1.365531e+01
 1.717930e+00	 2.808797e-01	 1.366462e+01
 1.738155e+00	 1.866562e-01	 1.357862e+01
 1.736010e+00	 2.056516e-01	 1.358427e+01
 1.733648e+00	 2.246945e-01	 1.359309e+01
 1.731067e+00	 2.437816e-01	 1.360383e+01
 1.728265e+00	 2.629096e-01	 1.361494e+01
 1.725241e+00	 2.820750e-01	 1.362451e+01
 1.745520e+00	 1.874471e-01	 1.353871e+01
 1.743366e+00	 2.065230e-01	 1.354444e+01
 1.740994e+00	 2.256466e-01	 1.355332e+01
 1.738402e+00	 2.448146e-01	 1.356417e+01
 1.735588e+00	 2.640236e-01	 1.357546e+01
 1.732551e+00	 2.832702e-01	 1.358534e+01
 1.752885e+00	 1.882380e-01	 1.349946e+01
 1.750722e+00	 2.073944e-01	 1.350527e+01
 1.748340e+00	 2.265987e-01	 1.351420e+01
 1.745737e+00	 2.458476e-01	 1.352515e+01
 1.742911e+00	 2.651377e-01	 1.353665e+01
 1.739861e+00	 2.844654e-01	 1.354687e+01
 1.760250e+00	 1.890289e-01	 1.346070e+01
 1.758078e+00	 2.082658e-01	 1.346657e+01
 1.755686e+00	 2.275508e-01	 1.347554e+01
 1.753072e+00	 2.468806e-01	 1.348658e+01
 1.750235e+00	 2.662517e-01	 1.349829e+01
 1.747172e+00	 2.856607e-01	 1.350889e+01
 1.767615e+00	 1.898199e-01	 1.342226e+01
 1.765434e+00	 2.091372e-01	 1.342817e+01
 1.763032e+00	 2.285029e-01	 1.343715e+01
 1.760407e+00	 2.479135e-01	 1.344826e+01
 1.757558e+00	 2.673657e-01	 1.346018e+01
 1.754482e+00	 2.868559e-01	 1.347116e+01
 1.717930e+00	 2.808797e-01	 1.366462e+01
 1.714695e+00	 2.999976e-01	 1.367254e+01
 1.711235e+00	 3.191455e-01	 1.368110e+01
 1.707547e+00	 3.383199e-01	 1.369062e+01
 1.703631e+00	 3.575171e-01	 1.370120e+01
 1.699485e+00	 3.767333e-01	 1.371346e+01
 1.725241e+00	 2.820750e-01	 1.362451e+01
 1.721992e+00	 3.012742e-01	 1.363271e+01
 1.718517e+00	 3.205036e-01	 1.364149e+01
 1.714814e+00	 3.397596e-01	 1.365112e+01
 1.710881e+00	 3.590385e-01	 1.366160e+01
 1.706717e+00	 3.783364e-01	 1.367381e+01
 1.732551e+00	 2.832702e-01	 1.358534e+01
 1.729288e+00	 3.025507e-01	 1.359389e+01
 1.725798e+00	 3.218616e-01	 1.360293e+01
 1.722080e+00	 3.411993e-01	 1.361265e+01
 1.718130e+00	 3.605598e-01	 1.362298e+01
 1.713949e+00	 3.799395e-01	 1.363508e+01
 1.739861e+00	 2.844654e-01	 1.354687e+01
 1.736585e+00	 3.038273e-01	 1.355582e+01
 1.733080e+00	 3.232197e-01	 1.356515e+01
 1.729346e+00	 3.426389e-01	 1.357499e+01
 1.725380e+00	 3.620812e-01	 1.358514e+01
 1.721181e+00	 3.815427e-01	 1.359710e+01
 1.747172e+00	 2.856607e-01	 1.350889e+01
 1.743882e+00	 3.051039e-01	 1.351827e+01
 1.740362e+00	 3.245778e-01	 1.352794e+01
 1.736612e+00	 3.440786e-01	 1.353791e+01
 1.732629e+00	 3.636025e-01	 1.354787e+01
 1.728413e+00	 3.831458e-01	 1.355971e+01
 1.754482e+00	 2.868559e-01	 1.347116e+01
 1.751178e+00	 3.063805e-01	 1.348101e+01
 1.747644e+00	 3.259358e-01	 1.349104e+01
 1.743878e+00	 3.455182e-01	 1.350120e+01
 1.739879e+00	 3.651239e-01	 1.351099e+01
 1.735645e+00	 3.847489e-01	 1.352276e+01
 1.699485e+00	 3.767333e-01	 1.371346e+01
 1.695108e+00	 3.959647e-01	 1.372759e+01
 1.690497e+00	 4.152073e-01	 1.373815e+01
 1.685653e+00	 4.344573e-01	 1.374662e+01
 1.680573e+00	 4.537107e-01	 1.375460e+01
 1.675256e+00	 4.729634e-01	 1.376375e+01
 1.706717e+00	 3.783364e-01	 1.367381e+01
 1.702321e+00	 3.976496e-01	 1.368863e+01
 1.697691e+00	 4.169742e-01	 1.370022e+01
 1.692826e+00	 4.363061e-01	 1.370976e+01
 1.687724e+00	 4.556414e-01	 1.371851e+01
 1.682385e+00	 4.749760e-01	 1.372786e+01
 1.713949e+00	 3.799395e-01	 1.363508e+01
 1.709534e+00	 3.993346e-01	 1.365043e+01
 1.704885e+00	 4.187410e-01	 1.366292e+01
 1.699999e+00	 4.381548e-01	 1.367345e+01
 1.694876e+00	 4.575721e-01	 1.368298e+01
 1.689514e+00	 4.769886e-01	 1.369260e+01
 1.721181e+00	 3.815427e-01	 1.359710e+01
 1.716747e+00	 4.010195e-01	 1.361287e+01
 1.712078e+00	 4.205078e-01	 1.362617e+01
 1.707172e+00	 4.400036e-01	 1.363762e+01
 1.702027e+00	 4.595028e-01	 1.364793e+01
 1.696643e+00	 4.790013e-01	 1.365791e+01
 1.728413e+00	 3.831458e-01	 1.355971e+01
 1.723961e+00	 4.027045e-01	 1.357582e+01
 1.719272e+00	 4.222747e-01	 1.358986e+01
 1.714345e+00	 4.418524e-01	 1.360220e+01
 1.709178e+00	 4.614335e-01	 1.361330e+01
 1.703771e+00	 4.810139e-01	 1.362370e+01
 1.735645e+00	 3.847489e-01	 1.352276e+01
 1.731174e+00	 4.043894e-01	 1.353918e+01
 1.726465e+00	 4.240415e-01	 1.355392e+01
 1.721518e+00	 4.437011e-01	 1.356714e+01
 1.716330e+00	 4.633641e-01	 1.357903e+01
 1.710900e+00	 4.830265e-01	 1.358991e+01
 1.675256e+00	 4.729634e-01	 1.376375e+01
 1.669702e+00	 4.922114e-01	 1.377444e+01
 1.663910e+00	 5.114504e-01	 1.378530e+01
 1.657878e+00	 5.306764e-01	 1.379579e+01
 1.651607e+00	 5.498850e-01	 1.380575e+01
 1.645094e+00	 5.690721e-01	 1.381545e+01
 1.682385e+00	 4.749760e-01	 1.372786e+01
 1.676808e+00	 4.943059e-01	 1.373845e+01
 1.670991e+00	 5.136268e-01	 1.374944e+01
 1.664933e+00	 5.329346e-01	 1.376035e+01
 1.658635e+00	 5.522249e-01	 1.377104e+01
 1.652095e+00	 5.714936e-01	 1.378179e+01
 1.689514e+00	 4.769886e-01	 1.369260e+01
 1.683913e+00	 4.964004e-01	 1.370319e+01
 1.678071e+00	 5.158032e-01	 1.371433e+01
 1.671988e+00	 5.351928e-01	 1.372559e+01
 1.665663e+00	 5.545649e-01	 1.373687e+01
 1.659095e+00	 5.739152e-01	 1.374844e+01
 1.696643e+00	 4.790013e-01	 1.365791e+01
 1.691018e+00	 4.984949e-01	 1.366857e+01
 1.685152e+00	 5.179796e-01	 1.367989e+01
 1.679043e+00	 5.374510e-01	 1.369147e+01
 1.672691e+00	 5.569048e-01	 1.370322e+01
 1.666096e+00	 5.763368e-01	 1.371546e+01
 1.703771e+00	 4.810139e-01	 1.362370e+01
 1.698123e+00	 5.005894e-01	 1.363452e+01
 1.692232e+00	 5.201559e-01	 1.364605e+01
 1.686098e+00	 5.397092e-01	 1.365793e+01
 1.679719e+00	 5.592447e-01	 1.367010e+01
 1.673096e+00	 5.787584e-01	 1.368290e+01
 1.710900e+00	 4.830265e-01	 1.358991e+01
 1.705228e+00	 5.026840e-01	 1.360097e+01
 1.699312e+00	 5.223323e-01	 1.361276e+01
 1.693152e+00	 5.419673e-01	 1.362494e+01
 1.686747e+00	 5.615847e-01	 1.363751e+01
 1.680096e+00	 5.811800e-01	 1.365081e+01
 1.645094e+00	 5.690721e-01	 1.381545e+01
 1.638341e+00	 5.882332e-01	 1.382008e+01
 1.631345e+00	 6.073642e-01	 1.381708e+01
 1.624108e+00	 6.264605e-01	 1.381083e+01
 1.616628e+00	 6.455179e-01	 1.380627e+01
 1.608905e+00	 6.645318e-01	 1.380897e+01
 1.652095e+00	 5.714936e-01	 1.378179e+01
 1.645312e+00	 5.907364e-01	 1.378760e+01
 1.638287e+00	 6.099487e-01	 1.378559e+01
 1.631019e+00	 6.291263e-01	 1.377998e+01
 1.623507e+00	 6.482648e-01	 1.377555e+01
 1.615752e+00	 6.673596e-01	 1.377773e+01
 1.659095e+00	 5.739152e-01	 1.374844e+01
 1.652284e+00	 5.932395e-01	 1.375524e+01
 1.645229e+00	 6.125332e-01	 1.375415e+01
 1.637930e+00	 6.317921e-01	 1.374919e+01
 1.630386e+00	 6.510117e-01	 1.374500e+01
 1.622598e+00	 6.701874e-01	 1.374682e+01
 1.666096e+00	 5.763368e-01	 1.371546e+01
 1.659256e+00	 5.957426e-01	 1.372310e+01
 1.652171e+00	 6.151178e-01	 1.372288e+01
 1.644841e+00	 6.344579e-01	 1.371864e+01
 1.637265e+00	 6.537586e-01	 1.371478e+01
 1.629444e+00	 6.730152e-01	 1.371640e+01
 1.673096e+00	 5.787584e-01	 1.368290e+01
 1.666227e+00	 5.982457e-01	 1.369130e+01
 1.659113e+00	 6.177023e-01	 1.369195e+01
 1.651752e+00	 6.371237e-01	 1.368847e+01
 1.644145e+00	 6.565054e-01	 1.368507e+01
 1.636291e+00	 6.758430e-01	 1.368662e+01
 1.680096e+00	 5.811800e-01	 1.365081e+01
 1.673199e+00	 6.007488e-01	 1.365993e+01
 1.666055e+00	 6.202868e-01	 1.366149e+01
 1.658663e+00	 6.397895e-01	 1.365886e+01
 1.651024e+00	 6.592523e-01	 1.365603e+01
 1.643137e+00	 6.786708e-01	 1.365764e+01
 1.608905e+00	 6.645318e-01	 1.380897e+01
 1.600940e+00	 6.834979e-01	 1.381006e+01
 1.592732e+00	 7.024116e-01	 1.380055e+01
 1.584282e+00	 7.212684e-01	 1.378709e+01
 1.575590e+00	 7.400639e-01	 1.377748e+01
 1.566656e+00	 7.587935e-01	 1.376667e+01
 1.615752e+00	 6.673596e-01	 1.377773e+01
 1.607753e+00	 6.864064e-01	 1.377869e+01
 1.599510e+00	 7.054006e-01	 1.377037e+01
 1.591024e+00	 7.243376e-01	 1.375917e+01
 1.582295e+00	 7.432131e-01	 1.375238e+01
 1.573323e+00	 7.620224e-01	 1.374116e+01
 1.622598e+00	 6.701874e-01	 1.374682e+01
 1.614565e+00	 6.893149e-01	 1.374774e+01
 1.606288e+00	 7.083895e-01	 1.374057e+01
 1.597765e+00	 7.274069e-01	 1.373146e+01
 1.588999e+00	 7.463623e-01	 1.372665e+01
 1.579989e+00	 7.652513e-01	 1.371522e+01
 1.629444e+00	 6.730152e-01	 1.371640e+01
 1.621378e+00	 6.922234e-01	 1.371736e+01
 1.613065e+00	 7.113785e-01	 1.371127e+01
 1.604507e+00	 7.304761e-01	 1.370409e+01
 1.595704e+00	 7.495115e-01	 1.370054e+01
 1.586656e+00	 7.684802e-01	 1.368908e+01
 1.636291e+00	 6.758430e-01	 1.368662e+01
 1.628190e+00	 6.951319e-01	 1.368769e+01
 1.619843e+00	 7.143675e-01	 1.368261e+01
 1.611249e+00	 7.335453e-01	 1.367718e+01
 1.602409e+00	 7.526607e-01	 1.367430e+01
 1.593322e+00	 7.717091e-01	 1.366295e+01
 1.643137e+00	 6.786708e-01	 1.365764e+01
 1.635003e+00	 6.980404e-01	 1.365887e+01
 1.626620e+00	 7.173565e-01	 1.365471e+01
 1.617990e+00	 7.366145e-01	 1.365085e+01
 1.609113e+00	 7.558099e-01	 1.364817e+01
 1.599989e+00	 7.749380e-01	 1.363703e+01
 1.566656e+00	 7.587935e-01	 1.376667e+01
 1.557481e+00	 7.774527e-01	 1.374595e+01
 1.548064e+00	 7.960370e-01	 1.372126e+01
 1.538408e+00	 8.145418e-01	 1.369511e+01
 1.528513e+00	 8.329625e-01	 1.366969e+01
 1.518379e+00	 8.512948e-01	 1.364673e+01
 1.573323e+00	 7.620224e-01	 1.374116e+01
 1.564108e+00	 7.807610e-01	 1.372039e+01
 1.554652e+00	 7.994244e-01	 1.369554e+01
 1.544955e+00	 8.180079e-01	 1.366938e+01
 1.535017e+00	 8.365071e-01	 1.364432e+01
 1.524840e+00	 8.549173e-01	 1.362233e+01
 1.579989e+00	 7.652513e-01	 1.371522e+01
 1.570736e+00	 7.840693e-01	 1.369462e+01
 1.561239e+00	 8.028118e-01	 1.366986e+01
 1.551501e+00	 8.214740e-01	 1.364388e+01
 1.541522e+00	 8.400516e-01	 1.361928e+01
 1.531302e+00	 8.585398e-01	 1.359820e+01
 1.586656e+00	 7.684802e-01	 1.368908e+01
 1.577363e+00	 7.873776e-01	 1.366884e+01
 1.567827e+00	 8.061991e-01	 1.364439e+01
 1.558048e+00	 8.249402e-01	 1.361877e+01
 1.548026e+00	 8.435961e-01	 1.359472e+01
 1.537763e+00	 8.621624e-01	 1.357450e+01
 1.593322e+00	 7.717091e-01	 1.366295e+01
 1.583991e+00	 7.906859e-01	 1.364324e+01
 1.574414e+00	 8.095865e-01	 1.361928e+01
 1.564594e+00	 8.284063e-01	 1.359420e+01
 1.554530e+00	 8.471406e-01	 1.357078e+01
 1.544224e+00	 8.657849e-01	 1.355136e+01
 1.599989e+00	 7.749380e-01	 1.363703e+01
 1.590618e+00	 7.939943e-01	 1.361797e+01
 1.581002e+00	 8.129739e-01	 1.359468e+01
 1.571140e+00	 8.318724e-01	 1.357029e+01
 1.561034e+00	 8.506851e-01	 1.354758e+01
 1.550685e+00	 8.694074e-01	 1.352891e+01
 1.518379e+00	 8.512948e-01	 1.364673e+01
 1.508008e+00	 8.695339e-01	 1.362195e+01
 1.497401e+00	 8.876755e-01	 1.358923e+01
 1.486559e+00	 9.057150e-01	 1.354656e+01
 1.475484e+00	 9.236480e-01	 1.349319e+01
 1.464176e+00	 9.414699e-01	 1.343393e+01
 1.524840e+00	 8.549173e-01	 1.362233e+01
 1.514425e+00	 8.732341e-01	 1.359925e+01
 1.503773e+00	 8.914529e-01	 1.356888e+01
 1.492885e+00	 9.095691e-01	 1.352915e+01
 1.481763e+00	 9.275784e-01	 1.347702e+01
 1.470407e+00	 9.454762e-01	 1.341486e+01
 1.531302e+00	 8.585398e-01	 1.359820e+01
 1.520842e+00	 8.769342e-01	 1.357650e+01
 1.510145e+00	 8.952302e-01	 1.354794e+01
 1.499211e+00	 9.134233e-01	 1.351046e+01
 1.488041e+00	 9.315088e-01	 1.346103e+01
 1.476638e+00	 9.494825e-01	 1.339679e+01
 1.537763e+00	 8.621624e-01	 1.357450e+01
 1.527259e+00	 8.806344e-01	 1.355390e+01
 1.516517e+00	 8.990076e-01	 1.352664e+01
 1.505537e+00	 9.172774e-01	 1.349079e+01
 1.494320e+00	 9.354392e-01	 1.344342e+01
 1.482868e+00	 9.534887e-01	 1.338047e+01
 1.544224e+00	 8.657849e-01	 1.355136e+01
 1.533677e+00	 8.843345e-01	 1.353160e+01
 1.522889e+00	 9.027849e-01	 1.350519e+01
 1.511862e+00	 9.211315e-01	 1.347042e+01
 1.500599e+00	 9.393697e-01	 1.342456e+01
 1.489099e+00	 9.574950e-01	 1.336371e+01
 1.550685e+00	 8.694074e-01	 1.352891e+01
 1.540094e+00	 8.880347e-01	 1.350975e+01
 1.529261e+00	 9.065622e-01	 1.348378e+01
 1.518188e+00	 9.249856e-01	 1.344960e+01
 1.506877e+00	 9.433001e-01	 1.340479e+01
 1.495329e+00	 9.615012e-01	 1.334571e+01
 1.464176e+00	 9.414699e-01	 1.343393e+01
 1.452639e+00	 9.591764e-01	 1.338193e+01
 1.440872e+00	 9.767631e-01	 1.334576e+01
 1.428879e+00	 9.942255e-01	 1.330867e+01
 1.416660e+00	 1.011559e+00	 1.325284e+01
 1.404219e+00	 1.028760e+00	 1.315974e+01
 1.470407e+00	 9.454762e-01	 1.341486e+01
 1.458820e+00	 9.632580e-01	 1.336216e+01
 1.447003e+00	 9.809195e-01	 1.332639e+01
 1.434959e+00	 9.984563e-01	 1.329093e+01
 1.422688e+00	 1.015864e+00	 1.323805e+01
 1.410194e+00	 1.033138e+00	 1.314928e+01
 1.476638e+00	 9.494825e-01	 1.339679e+01
 1.465001e+00	 9.673396e-01	 1.334191e+01
 1.453135e+00	 9.850760e-01	 1.330576e+01
 1.441039e+00	 1.002687e+00	 1.327174e+01
 1.428717e+00	 1.020168e+00	 1.322206e+01
 1.416170e+00	 1.037516e+00	 1.313819e+01
 1.482868e+00	 9.534887e-01	 1.338047e+01
 1.471183e+00	 9.714212e-01	 1.332211e+01
 1.459266e+00	 9.892324e-01	 1.328482e+01
 1.447120e+00	 1.006918e+00	 1.325196e+01
 1.434745e+00	 1.024473e+00	 1.320558e+01
 1.422145e+00	 1.041894e+00	 1.312693e+01
 1.489099e+00	 9.574950e-01	 1.336371e+01
 1.477364e+00	 9.755028e-01	 1.330368e+01
 1.465398e+00	 9.933888e-01	 1.326445e+01
 1.453200e+00	 1.011149e+00	 1.323241e+01
 1.440774e+00	 1.028777e+00	 1.318928e+01
 1.428120e+00	 1.046271e+00	 1.311597e+01
 1.495329e+00	 9.615012e-01	 1.334571e+01
 1.483546e+00	 9.795844e-01	 1.328727e+01
 1.471529e+00	 9.975453e-01	 1.324554e+01
 1.459280e+00	 1.015379e+00	 1.321388e+01
 1.446802e+00	 1.033082e+00	 1.317381e+01
 1.434096e+00	 1.050649e+00	 1.310573e+01
 1.404219e+00	 1.028760e+00	 1.315974e+01
 1.391557e+00	 1.045824e+00	 1.306499e+01
 1.378676e+00	 1.062747e+00	 1.300168e+01
 1.365579e+00	 1.079524e+00	 1.294769e+01
 1.352269e+00	 1.096151e+00	 1.288195e+01
 1.338747e+00	 1.112625e+00	 1.278555e+01
 1.410194e+00	 1.033138e+00	 1.314928e+01
 1.397478e+00	 1.050275e+00	 1.305883e+01
 1.384543e+00	 1.067269e+00	 1.299742e+01
 1.371390e+00	 1.084118e+00	 1.294143e+01
 1.358023e+00	 1.100816e+00	 1.286816e+01
 1.344444e+00	 1.117360e+00	 1.276484e+01
 1.416170e+00	 1.037516e+00	 1.313819e+01
 1.403400e+00	 1.054725e+00	 1.305227e+01
 1.390409e+00	 1.071792e+00	 1.299218e+01
 1.377201e+00	 1.088711e+00	 1.293295e+01
 1.363777e+00	 1.105480e+00	 1.285041e+01
 1.350140e+00	 1.122094e+00	 1.274709e+01
 1.422145e+00	 1.041894e+00	 1.312693e+01
 1.409321e+00	 1.059175e+00	 1.304556e+01
 1.396276e+00	 1.076314e+00	 1.298614e+01
 1.383012e+00	 1.093305e+00	 1.292246e+01
 1.369532e+00	 1.110145e+00	 1.282901e+01
 1.355837e+00	 1.126829e+00	 1.273226e+01
 1.428120e+00	 1.046271e+00	 1.311597e+01
 1.415243e+00	 1.063626e+00	 1.303896e+01
 1.402143e+00	 1.080836e+00	 1.297945e+01
 1.388823e+00	 1.097899e+00	 1.291013e+01
 1.375286e+00	 1.114809e+00	 1.280686e+01
 1.361534e+00	 1.131564e+00	 1.272027e+01
 1.434096e+00	 1.050649e+00	 1.310573e+01
 1.421164e+00	 1.068076e+00	 1.303269e+01
 1.408009e+00	 1.085359e+00	 1.297225e+01
 1.394634e+00	 1.102493e+00	 1.289614e+01
 1.381040e+00	 1.119474e+00	 1.278932e+01
 1.367231e+00	 1.136298e+00	 1.271098e+01
 1.338747e+00	 1.112625e+00	 1.278555e+01
 1.325017e+00	 1.128942e+00	 1.267554e+01
 1.311081e+00	 1.145096e+00	 1.256263e+01
 1.296942e+00	 1.161085e+00	 1.245045e+01
 1.282604e+00	 1.176905e+00	 1.234315e+01
 1.268068e+00	 1.192552e+00	 1.224512e+01
 1.344444e+00	 1.117360e+00	 1.276484e+01
 1.330655e+00	 1.133746e+00	 1.266683e+01
 1.316660e+00	 1.149969e+00	 1.256118e+01
 1.302461e+00	 1.166026e+00	 1.245238e+01
 1.288061e+00	 1.181914e+00	 1.234548e+01
 1.273464e+00	 1.197627e+00	 1.224597e+01
 1.350140e+00	 1.122094e+00	 1.274709e+01
 1.336293e+00	 1.138550e+00	 1.265875e+01
 1.322239e+00	 1.154842e+00	 1.255894e+01
 1.307980e+00	 1.170967e+00	 1.245282e+01
 1.293519e+00	 1.186922e+00	 1.234628e+01
 1.278860e+00	 1.202702e+00	 1.224566e+01
 1.355837e+00	 1.126829e+00	 1.273226e+01
 1.341932e+00	 1.143354e+00	 1.265149e+01
 1.327818e+00	 1.159714e+00	 1.255624e+01
 1.313499e+00	 1.175908e+00	 1.245223e+01
 1.298977e+00	 1.191930e+00	 1.234597e+01
 1.284256e+00	 1.207777e+00	 1.224459e+01
 1.361534e+00	 1.131564e+00	 1.272027e+01
 1.347570e+00	 1.148158e+00	 1.264521e+01
 1.333397e+00	 1.164587e+00	 1.255340e+01
 1.319018e+00	 1.180849e+00	 1.245097e+01
 1.304435e+00	 1.196938e+00	 1.234498e+01
 1.289652e+00	 1.212851e+00	 1.224310e+01
 1.367231e+00	 1.136298e+00	 1.271098e+01
 1.353209e+00	 1.152962e+00	 1.264000e+01
 1.338976e+00	 1.169460e+00	 1.255066e+01
 1.324537e+00	 1.185789e+00	 1.244940e+01
 1.309893e+00	 1.201946e+00	 1.234363e+01
 1.295048e+00	 1.217926e+00	 1.224150e+01
 1.268068e+00	 1.192552e+00	 1.224512e+01
 1.253339e+00	 1.208023e+00	 1.214129e+01
 1.238420e+00	 1.223313e+00	 1.201941e+01
 1.223313e+00	 1.238420e+00	 1.188795e+01
 1.208023e+00	 1.253339e+00	 1.175498e+01
 1.192552e+00	 1.268068e+00	 1.162782e+01
 1.273464e+00	 1.197627e+00	 1.224597e+01
 1.258673e+00	 1.213163e+00	 1.214051e+01
 1.243690e+00	 1.228519e+00	 1.201777e+01
 1.228519e+00	 1.243690e+00	 1.188609e+01
 1.213163e+00	 1.258673e+00	 1.175335e+01
 1.197627e+00	 1.273464e+00	 1.162670e+01
 1.278860e+00	 1.202702e+00	 1.224566e+01
 1.264006e+00	 1.218304e+00	 1.213902e+01
 1.248959e+00	 1.233724e+00	 1.201567e+01
 1.233724e+00	 1.248959e+00	 1.188386e+01
 1.218304e+00	 1.264006e+00	 1.175137e+01
 1.202702e+00	 1.278860e+00	 1.162524e+01
 1.284256e+00	 1.207777e+00	 1.224459e+01
 1.269339e+00	 1.223444e+00	 1.213713e+01
 1.254229e+00	 1.238930e+00	 1.201337e+01
 1.238930e+00	 1.254229e+00	 1.188152e+01
 1.223444e+00	 1.269339e+00	 1.174932e+01
 1.207777e+00	 1.284256e+00	 1.162375e+01
 1.289652e+00	 1.212851e+00	 1.224310e+01
 1.274673e+00	 1.228585e+00	 1.213513e+01
 1.259499e+00	 1.244135e+00	 1.201111e+01
 1.244135e+00	 1.259499e+00	 1.187928e+01
 1.228585e+00	 1.274673e+00	 1.174741e+01
 1.212851e+00	 1.289652e+00	 1.162249e+01
 1.295048e+00	 1.217926e+00	 1.224150e+01
 1.280006e+00	 1.233726e+00	 1.213324e+01
 1.264769e+00	 1.249341e+00	 1.200907e+01
 1.249341e+00	 1.264769e+00	 1.187732e+01
 1.233726e+00	 1.280006e+00	 1.174583e+01
 1.217926e+00	 1.295048e+00	 1.162169e+01
 1.192552e+00	 1.268068e+00	 1.162782e+01
 1.176905e+00	 1.282604e+00	 1.148929e+01
 1.161085e+00	 1.296942e+00	 1.132898e+01
 1.145096e+00	 1.311081e+00	 1.116293e+01
 1.128942e+00	 1.325017e+00	 1.100588e+01
 1.112625e+00	 1.338747e+00	 1.087099e+01
 1.197627e+00	 1.273464e+00	 1.162670e+01
 1.181914e+00	 1.288061e+00	 1.149038e+01
 1.166026e+00	 1.302461e+00	 1.133450e+01
 1.149969e+00	 1.316660e+00	 1.117346e+01
 1.133746e+00	 1.330655e+00	 1.102023e+01
 1.117360e+00	 1.344444e+00	 1.088611e+01
 1.202702e+00	 1.278860e+00	 1.162524e+01
 1.186922e+00	 1.293519e+00	 1.149096e+01
 1.170967e+00	 1.307980e+00	 1.133904e+01
 1.154842e+00	 1.322239e+00	 1.118236e+01
 1.138550e+00	 1.336293e+00	 1.103223e+01
 1.122094e+00	 1.350140e+00	 1.089820e+01
 1.207777e+00	 1.284256e+00	 1.162375e+01
 1.191930e+00	 1.298977e+00	 1.149142e+01
 1.175908e+00	 1.313499e+00	 1.134310e+01
 1.159714e+00	 1.327818e+00	 1.119025e+01
 1.143354e+00	 1.341932e+00	 1.104268e+01
 1.126829e+00	 1.355837e+00	 1.090828e+01
 1.212851e+00	 1.289652e+00	 1.162249e+01
 1.196938e+00	 1.304435e+00	 1.149208e+01
 1.180849e+00	 1.319018e+00	 1.134711e+01
 1.164587e+00	 1.333397e+00	 1.119771e+01
 1.148158e+00	 1.347570e+00	 1.105231e+01
 1.131564e+00	 1.361534e+00	 1.091730e+01
 1.217926e+00	 1.295048e+00	 1.162169e+01
 1.201946e+00	 1.309893e+00	 1.149325e+01
 1.185789e+00	 1.324537e+00	 1.135145e+01
 1.169460e+00	 1.338976e+00	 1.120527e+01
 1.152962e+00	 1.353209e+00	 1.106183e+01
 1.136298e+00	 1.367231e+00	 1.092614e+01
 1.112625e+00	 1.338747e+00	 1.087099e+01
 1.096151e+00	 1.352269e+00	 1.074435e+01
 1.079524e+00	 1.365579e+00	 1.060548e+01
 1.062747e+00	 1.378676e+00	 1.045138e+01
 1.045824e+00	 1.391557e+00	 1.027630e+01
 1.028760e+00	 1.404219e+00	 1.007237e+01
 1.117360e+00	 1.344444e+00	 1.088611e+01
 1.100816e+00	 1.358023e+00	 1.075488e+01
 1.084118e+00	 1.371390e+00	 1.061090e+01
 1.067269e+00	 1.384543e+00	 1.045341e+01
 1.050275e+00	 1.397478e+00	 1.027813e+01
 1.033138e+00	 1.410194e+00	 1.007874e+01
 1.122094e+00	 1.350140e+00	 1.089820e+01
 1.105480e+00	 1.363777e+00	 1.076267e+01
 1.088711e+00	 1.377201e+00	 1.061377e+01
 1.071792e+00	 1.390409e+00	 1.045370e+01
 1.054725e+00	 1.403400e+00	 1.027928e+01
 1.037516e+00	 1.416170e+00	 1.008534e+01
 1.126829e+00	 1.355837e+00	 1.090828e+01
 1.110145e+00	 1.369532e+00	 1.076911e+01
 1.093305e+00	 1.383012e+00	 1.061552e+01
 1.076314e+00	 1.396276e+00	 1.045365e+01
 1.059175e+00	 1.409321e+00	 1.028105e+01
 1.041894e+00	 1.422145e+00	 1.009325e+01
 1.131564e+00	 1.361534e+00	 1.091730e+01
 1.114809e+00	 1.375286e+00	 1.077527e+01
 1.097899e+00	 1.388823e+00	 1.061754e+01
 1.080836e+00	 1.402143e+00	 1.045462e+01
 1.063626e+00	 1.415243e+00	 1.028466e+01
 1.046271e+00	 1.428120e+00	 1.010351e+01
 1.136298e+00	 1.367231e+00	 1.092614e+01
 1.119474e+00	 1.381040e+00	 1.078178e+01
 1.102493e+00	 1.394634e+00	 1.062114e+01
 1.085359e+00	 1.408009e+00	 1.045791e+01
 1.068076e+00	 1.421164e+00	 1.029130e+01
 1.050649e+00	 1.434096e+00	 1.011712e+01
 1.028760e+00	 1.404219e+00	 1.007237e+01
 1.011559e+00	 1.416660e+00	 9.878283e+00
 9.942255e-01	 1.428879e+00	 9.724404e+00
 9.767631e-01	 1.440872e+00	 9.588966e+00
 9.591764e-01	 1.452639e+00	 9.450363e+00
 9.414699e-01	 1.464176e+00	 9.287745e+00
 1.033138e+00	 1.410194e+00	 1.007874e+01
 1.015864e+00	 1.422688e+00	 9.893518e+00
 9.984563e-01	 1.434959e+00	 9.749201e+00
 9.809195e-01	 1.447003e+00	 9.620683e+00
 9.632580e-01	 1.458820e+00	 9.482968e+00
 9.454762e-01	 1.470407e+00	 9.311783e+00
 1.037516e+00	 1.416170e+00	 1.008534e+01
 1.020168e+00	 1.428717e+00	 9.908788e+00
 1.002687e+00	 1.441039e+00	 9.772183e+00
 9.850760e-01	 1.453135e+00	 9.647305e+00
 9.673396e-01	 1.465001e+00	 9.505993e+00
 9.494825e-01	 1.476638e+00	 9.320791e+00
 1.041894e+00	 1.422145e+00	 1.009325e+01
 1.024473e+00	 1.434745e+00	 9.924961e+00
 1.006918e+00	 1.447120e+00	 9.794090e+00
 9.892324e-01	 1.459266e+00	 9.669515e+00
 9.714212e-01	 1.471183e+00	 9.520137e+00
 9.534887e-01	 1.482868e+00	 9.316187e+00
 1.046271e+00	 1.428120e+00	 1.010351e+01
 1.028777e+00	 1.440774e+00	 9.942874e+00
 1.011149e+00	 1.453200e+00	 9.815636e+00
 9.933888e-01	 1.465398e+00	 9.687979e+00
 9.755028e-01	 1.477364e+00	 9.526082e+00
 9.574950e-01	 1.489099e+00	 9.315650e+00
 1.050649e+00	 1.434096e+00	 1.011712e+01
 1.033082e+00	 1.446802e+00	 9.963331e+00
 1.015379e+00	 1.459280e+00	 9.837510e+00
 9.975453e-01	 1.471529e+00	 9.703341e+00
 9.795844e-01	 1.483546e+00	 9.525684e+00
 9.615012e-01	 1.495329e+00	 9.326022e+00
 9.414699e-01	 1.464176e+00	 9.287745e+00
 9.236480e-01	 1.475484e+00	 9.098201e+00
 9.057150e-01	 1.486559e+00	 8.879767e+00
 8.876755e-01	 1.497401e+00	 8.685428e+00
 8.695339e-01	 1.508008e+00	 8.518765e+00
 8.512948e-01	 1.518379e+00	 8.369708e+00
 9.454762e-01	 1.470407e+00	 9.311783e+00
 9.275784e-01	 1.481763e+00	 9.099640e+00
 9.095691e-01	 1.492885e+00	 8.886807e+00
 8.914529e-01	 1.503773e+00	 8.705574e+00
 8.732341e-01	 1.514425e+00	 8.546141e+00
 8.549173e-01	 1.524840e+00	 8.399363e+00
 9.494825e-01	 1.476638e+00	 9.320791e+00
 9.315088e-01	 1.488041e+00	 9.096598e+00
 9.134233e-01	 1.499211e+00	 8.899524e+00
 8.952302e-01	 1.510145e+00	 8.727998e+00
 8.769342e-01	 1.520842e+00	 8.573269e+00
 8.585398e-01	 1.531302e+00	 8.427297e+00
 9.534887e-01	 1.482868e+00	 9.316187e+00
 9.354392e-01	 1.494320e+00	 9.102268e+00
 9.172774e-01	 1.505537e+00	 8.916971e+00
 8.990076e-01	 1.516517e+00	 8.751886e+00
 8.806344e-01	 1.527259e+00	 8.599485e+00
 8.621624e-01	 1.537763e+00	 8.452999e+00
 9.574950e-01	 1.489099e+00	 9.315650e+00
 9.393697e-01	 1.500599e+00	 9.115584e+00
 9.211315e-01	 1.511862e+00	 8.938201e+00
 9.027849e-01	 1.522889e+00	 8.776426e+00
 8.843345e-01	 1.533677e+00	 8.624120e+00
 8.657849e-01	 1.544224e+00	 8.475955e+00
 9.615012e-01	 1.495329e+00	 9.326022e+00
 9.433001e-01	 1.506877e+00	 9.135484e+00
 9.249856e-01	 1.518188e+00	 8.962270e+00
 9.065622e-01	 1.529261e+00	 8.800802e+00
 8.880347e-01	 1.540094e+00	 8.646499e+00
 8.694074e-01	 1.550685e+00	 8.495643e+00
 8.512948e-01	 1.518379e+00	 8.369708e+00
 8.329625e-01	 1.528513e+00	 8.220499e+00
 8.145418e-01	 1.538408e+00	 8.058588e+00
 7.960370e-01	 1.548064e+00	 7.882426e+00
 7.774527e-01	 1.557481e+00	 7.690805e+00
 7.587935e-01	 1.566656e+00	 7.482762e+00
 8.549173e-01	 1.524840e+00	 8.399363e+00
 8.365071e-01	 1.535017e+00	 8.249110e+00
 8.180079e-01	 1.544955e+00	 8.084708e+00
 7.994244e-01	 1.554652e+00	 7.905962e+00
 7.807610e-01	 1.564108e+00	 7.713033e+00
 7.620224e-01	 1.573323e+00	 7.506334e+00
 8.585398e-01	 1.531302e+00	 8.427297e+00
 8.400516e-01	 1.541522e+00	 8.275604e+00
 8.214740e-01	 1.551501e+00	 8.109089e+00
 8.028118e-01	 1.561239e+00	 7.928576e+00
 7.840693e-01	 1.570736e+00	 7.735252e+00
 7.652513e-01	 1.579989e+00	 7.530563e+00
 8.621624e-01	 1.537763e+00	 8.452999e+00
 8.435961e-01	 1.548026e+00	 8.299608e+00
 8.249402e-01	 1.558048e+00	 8.131449e+00
 8.061991e-01	 1.567827e+00	 7.950030e+00
 7.873776e-01	 1.577363e+00	 7.757233e+00
 7.684802e-01	 1.586656e+00	 7.555195e+00
 8.657849e-01	 1.544224e+00	 8.475955e+00
 8.471406e-01	 1.554530e+00	 8.320741e+00
 8.284063e-01	 1.564594e+00	 8.151493e+00
 8.095865e-01	 1.574414e+00	 7.970078e+00
 7.906859e-01	 1.583991e+00	 7.778735e+00
 7.717091e-01	 1.593322e+00	 7.579963e+00
 8.694074e-01	 1.550685e+00	 8.495643e+00
 8.506851e-01	 1.561034e+00	 8.338613e+00
 8.318724e-01	 1.571140e+00	 8.168918e+00
 8.129739e-01	 1.581002e+00	 7.988460e+00
 7.939943e-01	 1.590618e+00	 7.799509e+00
 7.749380e-01	 1.599989e+00	 7.604592e+00
 7.587935e-01	 1.566656e+00	 7.482762e+00
 7.400639e-01	 1.575590e+00	 7.288311e+00
 7.212684e-01	 1.584282e+00	 7.122832e+00
 7.024116e-01	 1.592732e+00	 6.973302e+00
 6.834979e-01	 1.600940e+00	 6.830840e+00
 6.645318e-01	 1.608905e+00	 6.686531e+00
 7.620224e-01	 1.573323e+00	 7.506334e+00
 7.432131e-01	 1.582295e+00	 7.315173e+00
 7.243376e-01	 1.591024e+00	 7.152922e+00
 7.054006e-01	 1.599510e+00	 7.004925e+00
 6.864064e-01	 1.607753e+00	 6.862471e+00
 6.673596e-01	 1.615752e+00	 6.716828e+00
 7.652513e-01	 1.579989e+00	 7.530563e+00
 7.463623e-01	 1.588999e+00	 7.342846e+00
 7.274069e-01	 1.597765e+00	 7.183743e+00
 7.083895e-01	 1.606288e+00	 7.037064e+00
 6.893149e-01	 1.614565e+00	 6.894309e+00
 6.701874e-01	 1.622598e+00	 6.747118e+00
 7.684802e-01	 1.586656e+00	 7.555195e+00
 7.495115e-01	 1.595704e+00	 7.371042e+00
 7.304761e-01	 1.604507e+00	 7.214949e+00
 7.113785e-01	 1.613065e+00	 7.069383e+00
 6.922234e-01	 1.621378e+00	 6.926041e+00
 6.730152e-01	 1.629444e+00	 6.777119e+00
 7.717091e-01	 1.593322e+00	 7.579963e+00
 7.526607e-01	 1.602409e+00	 7.399463e+00
 7.335453e-01	 1.611249e+00	 7.246178e+00
 7.143675e-01	 1.619843e+00	 7.101531e+00
 6.951319e-01	 1.628190e+00	 6.957338e+00
 6.758430e-01	 1.636291e+00	 6.806538e+00
 7.749380e-01	 1.599989e+00	 7.604592e+00
 7.558099e-01	 1.609113e+00	 7.427804e+00
 7.366145e-01	 1.617990e+00	 7.277057e+00
 7.173565e-01	 1.626620e+00	 7.133146e+00
 6.980404e-01	 1.635003e+00	 6.987860e+00
 6.786708e-01	 1.643137e+00	 6.835064e+00
 6.645318e-01	 1.608905e+00	 6.686531e+00
 6.455179e-01	 1.616628e+00	 6.524644e+00
 6.264605e-01	 1.624108e+00	 6.344535e+00
 6.073642e-01	 1.631345e+00	 6.159552e+00
 5.882332e-01	 1.638341e+00	 5.982637e+00
 5.690721e-01	 1.645094e+00	 5.826204e+00
 6.673596e-01	 1.615752e+00	 6.716828e+00
 6.482648e-01	 1.623507e+00	 6.554140e+00
 6.291263e-01	 1.631019e+00	 6.375137e+00
 6.099487e-01	 1.638287e+00	 6.192542e+00
 5.907364e-01	 1.645312e+00	 6.018607e+00
 5.714936e-01	 1.652095e+00	 5.864999e+00
 6.701874e-01	 1.622598e+00	 6.747118e+00
 6.510117e-01	 1.630386e+00	 6.583521e+00
 6.317921e-01	 1.637930e+00	 6.405504e+00
 6.125332e-01	 1.645229e+00	 6.225134e+00
 5.932395e-01	 1.652284e+00	 6.053950e+00
 5.739152e-01	 1.659095e+00	 5.902849e+00
 6.730152e-01	 1.629444e+00	 6.777119e+00
 6.537586e-01	 1.637265e+00	 6.612558e+00
 6.344579e-01	 1.644841e+00	 6.435474e+00
 6.151178e-01	 1.652171e+00	 6.257258e+00
 5.957426e-01	 1.659256e+00	 6.088710e+00
 5.763368e-01	 1.666096e+00	 5.939932e+00
 6.758430e-01	 1.636291e+00	 6.806538e+00
 6.565054e-01	 1.644145e+00	 6.641003e+00
 6.371237e-01	 1.651752e+00	 6.464869e+00
 6.177023e-01	 1.659113e+00	 6.288825e+00
 5.982457e-01	 1.666227e+00	 6.122910e+00
 5.787584e-01	 1.673096e+00	 5.976405e+00
 6.786708e-01	 1.643137e+00	 6.835064e+00
 6.592523e-01	 1.651024e+00	 6.668592e+00
 6.397895e-01	 1.658663e+00	 6.493493e+00
 6.202868e-01	 1.666055e+00	 6.319729e+00
 6.007488e-01	 1.673199e+00	 6.156554e+00
 5.811800e-01	 1.680096e+00	 6.012401e+00
 5.690721e-01	 1.645094e+00	 5.826204e+00
 5.498850e-01	 1.651607e+00	 5.687067e+00
 5.306764e-01	 1.657878e+00	 5.552382e+00
 5.114504e-01	 1.663910e+00	 5.419013e+00
 4.922114e-01	 1.669702e+00	 5.283031e+00
 4.729634e-01	 1.675256e+00	 5.139747e+00
 5.714936e-01	 1.652095e+00	 5.864999e+00
 5.522249e-01	 1.658635e+00	 5.727048e+00
 5.329346e-01	 1.664933e+00	 5.591589e+00
 5.136268e-01	 1.670991e+00	 5.456430e+00
 4.943059e-01	 1.676808e+00	 5.318566e+00
 4.749760e-01	 1.682385e+00	 5.174219e+00
 5.739152e-01	 1.659095e+00	 5.902849e+00
 5.545649e-01	 1.665663e+00	 5.765824e+00
 5.351928e-01	 1.671988e+00	 5.629526e+00
 5.158032e-01	 1.678071e+00	 5.492653e+00
 4.964004e-01	 1.683913e+00	 5.353069e+00
 4.769886e-01	 1.689514e+00	 5.207846e+00
 5.763368e-01	 1.666096e+00	 5.939932e+00
 5.569048e-01	 1.672691e+00	 5.803710e+00
 5.374510e-01	 1.679043e+00	 5.666619e+00
 5.179796e-01	 1.685152e+00	 5.528199e+00
 4.984949e-01	 1.691018e+00	 5.387126e+00
 4.790013e-01	 1.696643e+00	 5.241260e+00
 5.787584e-01	 1.673096e+00	 5.976405e+00
 5.592447e-01	 1.679719e+00	 5.840995e+00
 5.397092e-01	 1.686098e+00	 5.703270e+00
 5.201559e-01	 1.692232e+00	 5.563560e+00
 5.005894e-01	 1.698123e+00	 5.421297e+00
 4.810139e-01	 1.703771e+00	 5.275068e+00
 5.811800e-01	 1.680096e+00	 6.012401e+00
 5.615847e-01	 1.686747e+00	 5.877943e+00
 5.419673e-01	 1.693152e+00	 5.739855e+00
 5.223323e-01	 1.699312e+00	 5.599201e+00
 5.026840e-01	 1.705228e+00	 5.456116e+00
 4.830265e-01	 1.710900e+00	 5.309854e+00
 4.729634e-01	 1.675256e+00	 5.139747e+00
 4.537107e-01	 1.680573e+00	 4.985700e+00
 4.344573e-01	 1.685653e+00	 4.829671e+00
 4.152073e-01	 1.690497e+00	 4.684392e+00
 3.959647e-01	 1.695108e+00	 4.562095e+00
 3.767333e-01	 1.699485e+00	 4.474575e+00
 4.749760e-01	 1.682385e+00	 5.174219e+00
 4.556414e-01	 1.687724e+00	 5.021356e+00
 4.363061e-01	 1.692826e+00	 4.868433e+00
 4.169742e-01	 1.697691e+00	 4.726437e+00
 3.976496e-01	 1.702321e+00	 4.605853e+00
 3.783364e-01	 1.706717e+00	 4.516735e+00
 4.769886e-01	 1.689514e+00	 5.207846e+00
 4.575721e-01	 1.694876e+00	 5.056182e+00
 4.381548e-01	 1.699999e+00	 4.906130e+00
 4.187410e-01	 1.704885e+00	 4.767054e+00
 3.993346e-01	 1.709534e+00	 4.647808e+00
 3.799395e-01	 1.713949e+00	 4.556827e+00
 4.790013e-01	 1.696643e+00	 5.241260e+00
 4.595028e-01	 1.702027e+00	 5.090858e+00
 4.400036e-01	 1.707172e+00	 4.943516e+00
 4.205078e-01	 1.712078e+00	 4.807090e+00
 4.010195e-01	 1.716747e+00	 4.688922e+00
 3.815427e-01	 1.721181e+00	 4.595943e+00
 4.810139e-01	 1.703771e+00	 5.275068e+00
 4.614335e-01	 1.709178e+00	 5.126041e+00
 4.418524e-01	 1.714345e+00	 4.981321e+00
 4.222747e-01	 1.719272e+00	 4.847370e+00
 4.027045e-01	 1.723961e+00	 4.730135e+00
 3.831458e-01	 1.728413e+00	 4.635155e+00
 4.830265e-01	 1.710900e+00	 5.309854e+00
 4.633641e-01	 1.716330e+00	 5.162363e+00
 4.437011e-01	 1.721518e+00	 5.020253e+00
 4.240415e-01	 1.726465e+00	 4.888699e+00
 4.043894e-01	 1.731174e+00	 4.772363e+00
 3.847489e-01	 1.735645e+00	 4.675508e+00
 3.767333e-01	 1.699485e+00	 4.474575e+00
 3.575171e-01	 1.703631e+00	 4.398404e+00
 3.383199e-01	 1.707547e+00	 4.300200e+00
 3.191455e-01	 1.711235e+00	 4.188793e+00
 2.999976e-01	 1.714695e+00	 4.073932e+00
 2.808797e-01	 1.717930e+00	 3.965333e+00
 3.783364e-01	 1.706717e+00	 4.516735e+00
 3.590385e-01	 1.710881e+00	 4.437736e+00
 3.397596e-01	 1.714814e+00	 4.338888e+00
 3.205036e-01	 1.718517e+00	 4.227832e+00
 3.012742e-01	 1.721992e+00	 4.113814e+00
 2.820750e-01	 1.725241e+00	 4.006226e+00
 3.799395e-01	 1.713949e+00	 4.556827e+00
 3.605598e-01	 1.718130e+00	 4.474558e+00
 3.411993e-01	 1.722080e+00	 4.374966e+00
 3.218616e-01	 1.725798e+00	 4.264418e+00
 3.025507e-01	 1.729288e+00	 4.151553e+00
 2.832702e-01	 1.732551e+00	 4.045342e+00
 3.815427e-01	 1.721181e+00	 4.595943e+00
 3.620812e-01	 1.725380e+00	 4.510124e+00
 3.426389e-01	 1.729346e+00	 4.409752e+00
 3.232197e-01	 1.733080e+00	 4.299890e+00
 3.038273e-01	 1.736585e+00	 4.188467e+00
 2.844654e-01	 1.739861e+00	 4.083943e+00
 3.831458e-01	 1.728413e+00	 4.635155e+00
 3.636025e-01	 1.732629e+00	 4.545670e+00
 3.440786e-01	 1.736612e+00	 4.444550e+00
 3.245778e-01	 1.740362e+00	 4.335573e+00
 3.051039e-01	 1.743882e+00	 4.225864e+00
 2.856607e-01	 1.747172e+00	 4.123278e+00
 3.847489e-01	 1.735645e+00	 4.675508e+00
 3.651239e-01	 1.739879e+00	 4.582407e+00
 3.455182e-01	 1.743878e+00	 4.480645e+00
 3.259358e-01	 1.747644e+00	 4.372782e+00
 3.063805e-01	 1.751178e+00	 4.265043e+00
 2.868559e-01	 1.754482e+00	 4.164596e+00
 2.808797e-01	 1.717930e+00	 3.965333e+00
 2.617956e-01	 1.720942e+00	 3.875611e+00
 2.427487e-01	 1.723732e+00	 3.805700e+00
 2.237424e-01	 1.726302e+00	 3.748323e+00
 2.047802e-01	 1.728654e+00	 3.696811e+00
 1.858653e-01	 1.730790e+00	 3.645087e+00
 2.820750e-01	 1.725241e+00	 4.006226e+00
 2.629096e-01	 1.728265e+00	 3.917323e+00
 2.437816e-01	 1.731067e+00	 3.847795e+00
 2.246945e-01	 1.733648e+00	 3.790432e+00
 2.056516e-01	 1.736010e+00	 3.738725e+00
 1.866562e-01	 1.738155e+00	 3.686842e+00
 2.832702e-01	 1.732551e+00	 4.045342e+00
 2.640236e-01	 1.735588e+00	 3.957582e+00
 2.448146e-01	 1.738402e+00	 3.888690e+00
 2.256466e-01	 1.740994e+00	 3.831537e+00
 2.065230e-01	 1.743366e+00	 3.779804e+00
 1.874471e-01	 1.745520e+00	 3.727925e+00
 2.844654e-01	 1.739861e+00	 4.083943e+00
 2.651377e-01	 1.742911e+00	 3.997567e+00
 2.458476e-01	 1.745737e+00	 3.929471e+00
 2.265987e-01	 1.748340e+00	 3.872631e+00
 2.073944e-01	 1.750722e+00	 3.820940e+00
 1.882380e-01	 1.752885e+00	 3.769134e+00
 2.856607e-01	 1.747172e+00	 4.123278e+00
 2.662517e-01	 1.750235e+00	 4.038452e+00
 2.468806e-01	 1.753072e+00	 3.971226e+00
 2.275508e-01	 1.755686e+00	 3.914706e+00
 2.082658e-01	 1.758078e+00	 3.863029e+00
 1.890289e-01	 1.760250e+00	 3.811267e+00
 2.868559e-01	 1.754482e+00	 4.164596e+00
 2.673657e-01	 1.757558e+00	 4.081406e+00
 2.479135e-01	 1.760407e+00	 4.015038e+00
 2.285029e-01	 1.763032e+00	 3.958752e+00
 2.091372e-01	 1.765434e+00	 3.906964e+00
 1.898199e-01	 1.767615e+00	 3.855121e+00
 1.858653e-01	 1.730790e+00	 3.645087e+00
 1.670010e-01	 1.732711e+00	 3.592767e+00
 1.481905e-01	 1.734421e+00	 3.543952e+00
 1.294369e-01	 1.735922e+00	 3.499907e+00
 1.107432e-01	 1.737215e+00	 3.462050e+00
 9.211236e-02	 1.738302e+00	 3.431826e+00
 1.866562e-01	 1.738155e+00	 3.686842e+00
 1.677116e-01	 1.740085e+00	 3.634611e+00
 1.488211e-01	 1.741802e+00	 3.586085e+00
 1.299877e-01	 1.743309e+00	 3.542434e+00
 1.112144e-01	 1.744607e+00	 3.504977e+00
 9.250433e-02	 1.745699e+00	 3.475042e+00
 1.874471e-01	 1.745520e+00	 3.727925e+00
 1.684223e-01	 1.747458e+00	 3.675977e+00
 1.494517e-01	 1.749183e+00	 3.627952e+00
 1.305385e-01	 1.750696e+00	 3.584886e+00
 1.116857e-01	 1.751999e+00	 3.547969e+00
 9.289630e-02	 1.753096e+00	 3.518379e+00
 1.882380e-01	 1.752885e+00	 3.769134e+00
 1.691329e-01	 1.754831e+00	 3.717561e+00
 1.500823e-01	 1.756563e+00	 3.670131e+00
 1.310893e-01	 1.758082e+00	 3.627720e+00
 1.121569e-01	 1.759392e+00	 3.591359e+00
 9.328826e-02	 1.760493e+00	 3.562049e+00
 1.890289e-01	 1.760250e+00	 3.811267e+00
 1.698436e-01	 1.762204e+00	 3.760056e+00
 1.507129e-01	 1.763944e+00	 3.713201e+00
 1.316401e-01	 1.765469e+00	 3.671394e+00
 1.126282e-01	 1.766784e+00	 3.635482e+00
 9.368023e-02	 1.767890e+00	 3.606263e+00
 1.898199e-01	 1.767615e+00	 3.855121e+00
 1.705542e-01	 1.769578e+00	 3.804158e+00
 1.513435e-01	 1.771324e+00	 3.757746e+00
 1.321909e-01	 1.772856e+00	 3.716369e+00
 1.130994e-01	 1.774177e+00	 3.680673e+00
 9.407220e-02	 1.775287e+00	 3.651234e+00
 9.211236e-02	 1.738302e+00	 3.431826e+00
 7.354730e-02	 1.739186e+00	 3.409937e+00
 5.505083e-02	 1.739870e+00	 3.394812e+00
 3.662569e-02	 1.740355e+00	 3.384249e+00
 1.827455e-02	 1.740645e+00	 3.375720e+00
-3.532590e-07	 1.740755e+00	 4.205698e+00
 9.250433e-02	 1.745699e+00	 3.475042e+00
 7.386027e-02	 1.746587e+00	 3.453304e+00
 5.528509e-02	 1.747274e+00	 3.438332e+00
 3.678154e-02	 1.747761e+00	 3.427951e+00
 1.835231e-02	 1.748052e+00	 3.419561e+00
-3.405337e-07	 1.748162e+00	 4.234099e+00
 9.289630e-02	 1.753096e+00	 3.518379e+00
 7.417324e-02	 1.753988e+00	 3.496736e+00
 5.551935e-02	 1.754677e+00	 3.481786e+00
 3.693740e-02	 1.755167e+00	 3.471461e+00
 1.843007e-02	 1.755459e+00	 3.463160e+00
-3.278942e-07	 1.755569e+00	 4.261322e+00
 9.328826e-02	 1.760493e+00	 3.562049e+00
 7.448621e-02	 1.761389e+00	 3.540337e+00
 5.575361e-02	 1.762081e+00	 3.525205e+00
 3.709325e-02	 1.762573e+00	 3.514769e+00
 1.850784e-02	 1.762866e+00	 3.506508e+00
-3.153520e-07	 1.762976e+00	 3.495489e+00
 9.368023e-02	 1.767890e+00	 3.606263e+00
 7.479917e-02	 1.768790e+00	 3.584213e+00
 5.598787e-02	 1.769485e+00	 3.568620e+00
 3.724911e-02	 1.769978e+00	 3.557867e+00
 1.858560e-02	 1.770273e+00	 3.549593e+00
-3.029184e-07	 1.770383e+00	 3.538858e+00
 9.407220e-02	 1.775287e+00	 3.651234e+00
 7.511214e-02	 1.776190e+00	 3.628471e+00
 5.622213e-02	 1.776889e+00	 3.612063e+00
 3.740496e-02	 1.777384e+00	 3.600746e+00
 1.866337e-02	 1.777680e+00	 3.592399e+00
-2.906050e-07	 1.777790e+00	 3.582166e+00
 1.777778e+00	 0.000000e+00	 1.339085e+01
 1.777680e+00	 1.866337e-02	 1.339112e+01
 1.777384e+00	 3.740496e-02	 1.339124e+01
 1.776889e+00	 5.622213e-02	 1.339215e+01
 1.776190e+00	 7.511214e-02	 1.339484e+01
 1.775287e+00	 9.407220e-02	 1.340029e+01
 1.785185e+00	 0.000000e+00	 1.335282e+01
 1.785087e+00	 1.874113e-02	 1.335343e+01
 1.784790e+00	 3.756081e-02	 1.335370e+01
 1.784292e+00	 5.645639e-02	 1.335460e+01
 1.783591e+00	 7.542511e-02	 1.335715e+01
 1.782684e+00	 9.446417e-02	 1.336242e+01
 1.792593e+00	 0.000000e+00	 1.331552e+01
 1.792494e+00	 1.881890e-02	 1.331649e+01
 1.792196e+00	 3.771667e-02	 1.331698e+01
 1.791696e+00	 5.669065e-02	 1.331794e+01
 1.790992e+00	 7.573808e-02	 1.332043e+01
 1.790081e+00	 9.485613e-02	 1.332557e+01
 1.800000e+00	 0.000000e+00	 1.327890e+01
 1.799901e+00	 1.889666e-02	 1.328026e+01
 1.799602e+00	 3.787252e-02	 1.328101e+01
 1.799100e+00	 5.692490e-02	 1.328210e+01
 1.798393e+00	 7.605104e-02	 1.328461e+01
 1.797478e+00	 9.524810e-02	 1.328969e+01
 1.807407e+00	 0.000000e+00	 1.324294e+01
 1.807308e+00	 1.897442e-02	 1.324468e+01
 1.807007e+00	 3.802838e-02	 1.324573e+01
 1.806503e+00	 5.715916e-02	 1.324700e+01
 1.805793e+00	 7.636401e-02	 1.324960e+01
 1.804875e+00	 9.564007e-02	 1.325470e+01
 1.814815e+00	 0.000000e+00	 1.320762e+01
 1.814715e+00	 1.905219e-02	 1.320972e+01
 1.814413e+00	 3.818423e-02	 1.321109e+01
 1.813907e+00	 5.739342e-02	 1.321260e+01
 1.813194e+00	 7.667698e-02	 1.321536e+01
 1.812272e+00	 9.603204e-02	 1.322054e+01
 1.775287e+00	 9.407220e-02	 1.340029e+01
 1.774177e+00	 1.130994e-01	 1.340639e+01
 1.772856e+00	 1.321909e-01	 1.341094e+01
 1.771324e+00	 1.513435e-01	 1.341472e+01
 1.769578e+00	 1.705542e-01	 1.341834e+01
 1.767615e+00	 1.898199e-01	 1.342226e+01
 1.782684e+00	 9.446417e-02	 1.336242e+01
 1.781569e+00	 1.135707e-01	 1.336841e+01
 1.780243e+00	 1.327417e-01	 1.337298e+01
 1.778705e+00	 1.519741e-01	 1.337685e+01
 1.776951e+00	 1.712649e-01	 1.338060e+01
 1.774980e+00	 1.906108e-01	 1.338463e+01
 1.790081e+00	 9.485613e-02	 1.332557e+01
 1.788961e+00	 1.140419e-01	 1.333152e+01
 1.787630e+00	 1.332925e-01	 1.333618e+01
 1.786085e+00	 1.526047e-01	 1.334021e+01
 1.784324e+00	 1.719755e-01	 1.334415e+01
 1.782345e+00	 1.914017e-01	 1.334835e+01
 1.797478e+00	 9.524810e-02	 1.328969e+01
 1.796354e+00	 1.145132e-01	 1.329565e+01
 1.795017e+00	 1.338432e-01	 1.330046e+01
 1.793466e+00	 1.532353e-01	 1.330472e+01
 1.791697e+00	 1.726861e-01	 1.330889e+01
 1.789710e+00	 1.921926e-01	 1.331328e+01
 1.804875e+00	 9.564007e-02	 1.325470e+01
 1.803746e+00	 1.149844e-01	 1.326074e+01
 1.802404e+00	 1.343940e-01	 1.326576e+01
 1.800846e+00	 1.538659e-01	 1.327029e+01
 1.799071e+00	 1.733968e-01	 1.327473e+01
 1.797075e+00	 1.929835e-01	 1.327929e+01
 1.812272e+00	 9.603204e-02	 1.322054e+01
 1.811139e+00	 1.154557e-01	 1.322673e+01
 1.809791e+00	 1.349448e-01	 1.323203e+01
 1.808227e+00	 1.544965e-01	 1.323687e+01
 1.806444e+00	 1.741074e-01	 1.324157e+01
 1.804440e+00	 1.937744e-01	 1.324629e+01
 1.767615e+00	 1.898199e-01	 1.342226e+01
 1.765434e+00	 2.091372e-01	 1.342817e+01
 1.763032e+00	 2.285029e-01	 1.343715e+01
 1.760407e+00	 2.479135e-01	 1.344826e+01
 1.757558e+00	 2.673657e-01	 1.346018e+01
 1.754482e+00	 2.868559e-01	 1.347116e+01
 1.774980e+00	 1.906108e-01	 1.338463e+01
 1.772789e+00	 2.100086e-01	 1.339059e+01
 1.770378e+00	 2.294550e-01	 1.339956e+01
 1.767742e+00	 2.489465e-01	 1.341071e+01
 1.764881e+00	 2.684797e-01	 1.342279e+01
 1.761792e+00	 2.880511e-01	 1.343412e+01
 1.782345e+00	 1.914017e-01	 1.334835e+01
 1.780145e+00	 2.108800e-01	 1.335435e+01
 1.777723e+00	 2.304071e-01	 1.336329e+01
 1.775077e+00	 2.499795e-01	 1.337442e+01
 1.772204e+00	 2.695938e-01	 1.338659e+01
 1.769103e+00	 2.892464e-01	 1.339819e+01
 1.789710e+00	 1.921926e-01	 1.331328e+01
 1.787501e+00	 2.117514e-01	 1.331931e+01
 1.785069e+00	 2.313592e-01	 1.332816e+01
 1.782412e+00	 2.510124e-01	 1.333919e+01
 1.779527e+00	 2.707078e-01	 1.335136e+01
 1.776413e+00	 2.904416e-01	 1.336312e+01
 1.797075e+00	 1.929835e-01	 1.327929e+01
 1.794857e+00	 2.126228e-01	 1.328532e+01
 1.792415e+00	 2.323112e-01	 1.329400e+01
 1.789747e+00	 2.520454e-01	 1.330483e+01
 1.786850e+00	 2.718218e-01	 1.331688e+01
 1.783723e+00	 2.916368e-01	 1.332871e+01
 1.804440e+00	 1.937744e-01	 1.324629e+01
 1.802213e+00	 2.134942e-01	 1.325224e+01
 1.799761e+00	 2.332633e-01	 1.326064e+01
 1.797082e+00	 2.530784e-01	 1.327116e+01
 1.794174e+00	 2.729358e-01	 1.328296e+01
 1.791034e+00	 2.928321e-01	 1.329473e+01
 1.754482e+00	 2.868559e-01	 1.347116e+01
 1.751178e+00	 3.063805e-01	 1.348101e+01
 1.747644e+00	 3.259358e-01	 1.349104e+01
 1.743878e+00	 3.455182e-01	 1.350120e+01
 1.739879e+00	 3.651239e-01	 1.351099e+01
 1.735645e+00	 3.847489e-01	 1.352276e+01
 1.761792e+00	 2.880511e-01	 1.343412e+01
 1.758475e+00	 3.076571e-01	 1.344441e+01
 1.754926e+00	 3.272939e-01	 1.345481e+01
 1.751144e+00	 3.469579e-01	 1.346513e+01
 1.747128e+00	 3.666452e-01	 1.347475e+01
 1.742876e+00	 3.863520e-01	 1.348648e+01
 1.769103e+00	 2.892464e-01	 1.339819e+01
 1.765771e+00	 3.089337e-01	 1.340884e+01
 1.762208e+00	 3.286520e-01	 1.341955e+01
 1.758410e+00	 3.483975e-01	 1.343000e+01
 1.754378e+00	 3.681666e-01	 1.343940e+01
 1.750108e+00	 3.879551e-01	 1.345108e+01
 1.776413e+00	 2.904416e-01	 1.336312e+01
 1.773068e+00	 3.102103e-01	 1.337407e+01
 1.769490e+00	 3.300100e-01	 1.338503e+01
 1.765677e+00	 3.498372e-01	 1.339557e+01
 1.761627e+00	 3.696879e-01	 1.340472e+01
 1.757340e+00	 3.895583e-01	 1.341639e+01
 1.783723e+00	 2.916368e-01	 1.332871e+01
 1.780364e+00	 3.114868e-01	 1.333986e+01
 1.776771e+00	 3.313681e-01	 1.335102e+01
 1.772943e+00	 3.512769e-01	 1.336163e+01
 1.768877e+00	 3.712093e-01	 1.337054e+01
 1.764572e+00	 3.911614e-01	 1.338226e+01
 1.791034e+00	 2.928321e-01	 1.329473e+01
 1.787661e+00	 3.127634e-01	 1.330599e+01
 1.784053e+00	 3.327262e-01	 1.331731e+01
 1.780209e+00	 3.527165e-01	 1.332797e+01
 1.776126e+00	 3.727306e-01	 1.333671e+01
 1.771804e+00	 3.927645e-01	 1.334853e+01
 1.735645e+00	 3.847489e-01	 1.352276e+01
 1.731174e+00	 4.043894e-01	 1.353918e+01
 1.726465e+00	 4.240415e-01	 1.355392e+01
 1.721518e+00	 4.437011e-01	 1.356714e+01
 1.716330e+00	 4.633641e-01	 1.357903e+01
 1.710900e+00	 4.830265e-01	 1.358991e+01
 1.742876e+00	 3.863520e-01	 1.348648e+01
 1.738387e+00	 4.060744e-01	 1.350315e+01
 1.733659e+00	 4.258084e-01	 1.351854e+01
 1.728691e+00	 4.455499e-01	 1.353257e+01
 1.723481e+00	 4.652948e-01	 1.354523e+01
 1.718029e+00	 4.850391e-01	 1.355659e+01
 1.750108e+00	 3.879551e-01	 1.345108e+01
 1.745600e+00	 4.077594e-01	 1.346794e+01
 1.740853e+00	 4.275752e-01	 1.348389e+01
 1.735864e+00	 4.473986e-01	 1.349864e+01
 1.730632e+00	 4.672255e-01	 1.351198e+01
 1.725158e+00	 4.870517e-01	 1.352378e+01
 1.757340e+00	 3.895583e-01	 1.341639e+01
 1.752814e+00	 4.094443e-01	 1.343341e+01
 1.748046e+00	 4.293420e-01	 1.344985e+01
 1.743037e+00	 4.492474e-01	 1.346527e+01
 1.737784e+00	 4.691562e-01	 1.347925e+01
 1.732286e+00	 4.890643e-01	 1.349145e+01
 1.764572e+00	 3.911614e-01	 1.338226e+01
 1.760027e+00	 4.111293e-01	 1.339943e+01
 1.755240e+00	 4.311089e-01	 1.341636e+01
 1.750210e+00	 4.510961e-01	 1.343240e+01
 1.744935e+00	 4.710869e-01	 1.344698e+01
 1.739415e+00	 4.910769e-01	 1.345958e+01
 1.771804e+00	 3.927645e-01	 1.334853e+01
 1.767240e+00	 4.128142e-01	 1.336590e+01
 1.762433e+00	 4.328757e-01	 1.338331e+01
 1.757383e+00	 4.529449e-01	 1.339997e+01
 1.752087e+00	 4.730176e-01	 1.341514e+01
 1.746544e+00	 4.930895e-01	 1.342814e+01
 1.710900e+00	 4.830265e-01	 1.358991e+01
 1.705228e+00	 5.026840e-01	 1.360097e+01
 1.699312e+00	 5.223323e-01	 1.361276e+01
 1.693152e+00	 5.419673e-01	 1.362494e+01
 1.686747e+00	 5.615847e-01	 1.363751e+01
 1.680096e+00	 5.811800e-01	 1.365081e+01
 1.718029e+00	 4.850391e-01	 1.355659e+01
 1.712333e+00	 5.047785e-01	 1.356790e+01
 1.706393e+00	 5.245087e-01	 1.357994e+01
 1.700207e+00	 5.442255e-01	 1.359241e+01
 1.693775e+00	 5.639246e-01	 1.360532e+01
 1.687097e+00	 5.836016e-01	 1.361905e+01
 1.725158e+00	 4.870517e-01	 1.352378e+01
 1.719438e+00	 5.068730e-01	 1.353531e+01
 1.713473e+00	 5.266851e-01	 1.354755e+01
 1.707262e+00	 5.464837e-01	 1.356025e+01
 1.700804e+00	 5.662646e-01	 1.357344e+01
 1.694097e+00	 5.860231e-01	 1.358752e+01
 1.732286e+00	 4.890643e-01	 1.349145e+01
 1.726543e+00	 5.089675e-01	 1.350319e+01
 1.720554e+00	 5.288615e-01	 1.351561e+01
 1.714317e+00	 5.487419e-01	 1.352850e+01
 1.707832e+00	 5.686045e-01	 1.354193e+01
 1.701098e+00	 5.884447e-01	 1.355631e+01
 1.739415e+00	 4.910769e-01	 1.345958e+01
 1.733649e+00	 5.110620e-01	 1.347152e+01
 1.727634e+00	 5.310379e-01	 1.348412e+01
 1.721372e+00	 5.510001e-01	 1.349720e+01
 1.714860e+00	 5.709444e-01	 1.351083e+01
 1.708098e+00	 5.908663e-01	 1.352549e+01
 1.746544e+00	 4.930895e-01	 1.342814e+01
 1.740754e+00	 5.131565e-01	 1.344030e+01
 1.734715e+00	 5.332143e-01	 1.345310e+01
 1.728426e+00	 5.532583e-01	 1.346636e+01
 1.721888e+00	 5.732844e-01	 1.348022e+01
 1.715098e+00	 5.932879e-01	 1.349515e+01
 1.680096e+00	 5.811800e-01	 1.365081e+01
 1.673199e+00	 6.007488e-01	 1.365993e+01
 1.666055e+00	 6.202868e-01	 1.366149e+01
 1.658663e+00	 6.397895e-01	 1.365886e+01
 1.651024e+00	 6.592523e-01	 1.365603e+01
 1.643137e+00	 6.786708e-01	 1.365764e+01
 1.687097e+00	 5.836016e-01	 1.361905e+01
 1.680171e+00	 6.032520e-01	 1.362886e+01
 1.672997e+00	 6.228714e-01	 1.363134e+01
 1.665574e+00	 6.424553e-01	 1.362962e+01
 1.657903e+00	 6.619992e-01	 1.362744e+01
 1.649984e+00	 6.814986e-01	 1.362921e+01
 1.694097e+00	 5.860231e-01	 1.358752e+01
 1.687142e+00	 6.057551e-01	 1.359795e+01
 1.679938e+00	 6.254559e-01	 1.360132e+01
 1.672485e+00	 6.451211e-01	 1.360053e+01
 1.664783e+00	 6.647461e-01	 1.359906e+01
 1.656830e+00	 6.843264e-01	 1.360106e+01
 1.701098e+00	 5.884447e-01	 1.355631e+01
 1.694114e+00	 6.082582e-01	 1.356731e+01
 1.686880e+00	 6.280404e-01	 1.357158e+01
 1.679396e+00	 6.477869e-01	 1.357173e+01
 1.671662e+00	 6.674930e-01	 1.357101e+01
 1.663676e+00	 6.871542e-01	 1.357329e+01
 1.708098e+00	 5.908663e-01	 1.352549e+01
 1.701086e+00	 6.107613e-01	 1.353705e+01
 1.693822e+00	 6.306249e-01	 1.354222e+01
 1.686307e+00	 6.504526e-01	 1.354336e+01
 1.678541e+00	 6.702399e-01	 1.354342e+01
 1.670523e+00	 6.899820e-01	 1.354603e+01
 1.715098e+00	 5.932879e-01	 1.349515e+01
 1.708057e+00	 6.132644e-01	 1.350728e+01
 1.700764e+00	 6.332095e-01	 1.351338e+01
 1.693219e+00	 6.531184e-01	 1.351553e+01
 1.685420e+00	 6.729867e-01	 1.351641e+01
 1.677369e+00	 6.928098e-01	 1.351938e+01
 1.643137e+00	 6.786708e-01	 1.365764e+01
 1.635003e+00	 6.980404e-01	 1.365887e+01
 1.626620e+00	 7.173565e-01	 1.365471e+01
 1.617990e+00	 7.366145e-01	 1.365085e+01
 1.609113e+00	 7.558099e-01	 1.364817e+01
 1.599989e+00	 7.749380e-01	 1.363703e+01
 1.649984e+00	 6.814986e-01	 1.362921e+01
 1.641815e+00	 7.009489e-01	 1.363063e+01
 1.633398e+00	 7.203455e-01	 1.362732e+01
 1.624732e+00	 7.396838e-01	 1.362486e+01
 1.615818e+00	 7.589591e-01	 1.362199e+01
 1.606656e+00	 7.781670e-01	 1.361111e+01
 1.656830e+00	 6.843264e-01	 1.360106e+01
 1.648628e+00	 7.038574e-01	 1.360270e+01
 1.640175e+00	 7.233345e-01	 1.360017e+01
 1.631474e+00	 7.427530e-01	 1.359890e+01
 1.622522e+00	 7.621083e-01	 1.359562e+01
 1.613322e+00	 7.813959e-01	 1.358507e+01
 1.663676e+00	 6.871542e-01	 1.357329e+01
 1.655440e+00	 7.067659e-01	 1.357517e+01
 1.646953e+00	 7.263234e-01	 1.357337e+01
 1.638215e+00	 7.458222e-01	 1.357288e+01
 1.629227e+00	 7.652576e-01	 1.356930e+01
 1.619989e+00	 7.846248e-01	 1.355913e+01
 1.670523e+00	 6.899820e-01	 1.354603e+01
 1.662253e+00	 7.096744e-01	 1.354814e+01
 1.653731e+00	 7.293124e-01	 1.354702e+01
 1.644957e+00	 7.488915e-01	 1.354698e+01
 1.635932e+00	 7.684068e-01	 1.354321e+01
 1.626656e+00	 7.878537e-01	 1.353350e+01
 1.677369e+00	 6.928098e-01	 1.351938e+01
 1.669065e+00	 7.125829e-01	 1.352173e+01
 1.660508e+00	 7.323014e-01	 1.352122e+01
 1.651699e+00	 7.519607e-01	 1.352140e+01
 1.642636e+00	 7.715560e-01	 1.351754e+01
 1.633322e+00	 7.910826e-01	 1.350837e+01
 1.599989e+00	 7.749380e-01	 1.363703e+01
 1.590618e+00	 7.939943e-01	 1.361797e+01
 1.581002e+00	 8.129739e-01	 1.359468e+01
 1.571140e+00	 8.318724e-01	 1.357029e+01
 1.561034e+00	 8.506851e-01	 1.354758e+01
 1.550685e+00	 8.694074e-01	 1.352891e+01
 1.606656e+00	 7.781670e-01	 1.361111e+01
 1.597246e+00	 7.973026e-01	 1.359278e+01
 1.587589e+00	 8.163613e-01	 1.357027e+01
 1.577687e+00	 8.353386e-01	 1.354668e+01
 1.567539e+00	 8.542297e-01	 1.352477e+01
 1.557146e+00	 8.730300e-01	 1.350689e+01
 1.613322e+00	 7.813959e-01	 1.358507e+01
 1.603874e+00	 8.006109e-01	 1.356750e+01
 1.594177e+00	 8.197487e-01	 1.354582e+01
 1.584233e+00	 8.388047e-01	 1.352309e+01
 1.574043e+00	 8.577742e-01	 1.350205e+01
 1.563608e+00	 8.766525e-01	 1.348502e+01
 1.619989e+00	 7.846248e-01	 1.355913e+01
 1.610501e+00	 8.039192e-01	 1.354235e+01
 1.600764e+00	 8.231361e-01	 1.352153e+01
 1.590780e+00	 8.422708e-01	 1.349970e+01
 1.580547e+00	 8.613187e-01	 1.347954e+01
 1.570069e+00	 8.802750e-01	 1.346332e+01
 1.626656e+00	 7.878537e-01	 1.353350e+01
 1.617129e+00	 8.072275e-01	 1.351756e+01
 1.607352e+00	 8.265235e-01	 1.349763e+01
 1.597326e+00	 8.457370e-01	 1.347667e+01
 1.587052e+00	 8.648632e-01	 1.345733e+01
 1.576530e+00	 8.838975e-01	 1.344182e+01
 1.633322e+00	 7.910826e-01	 1.350837e+01
 1.623756e+00	 8.105358e-01	 1.349333e+01
 1.613940e+00	 8.299109e-01	 1.347429e+01
 1.603872e+00	 8.492031e-01	 1.345415e+01
 1.593556e+00	 8.684078e-01	 1.343552e+01
 1.582991e+00	 8.875201e-01	 1.342052e+01
 1.550685e+00	 8.694074e-01	 1.352891e+01
 1.540094e+00	 8.880347e-01	 1.350975e+01
 1.529261e+00	 9.065622e-01	 1.348378e+01
 1.518188e+00	 9.249856e-01	 1.344960e+01
 1.506877e+00	 9.433001e-01	 1.340479e+01
 1.495329e+00	 9.615012e-01	 1.334571e+01
 1.557146e+00	 8.730300e-01	 1.350689e+01
 1.546511e+00	 8.917348e-01	 1.348826e+01
 1.535633e+00	 9.103396e-01	 1.346255e+01
 1.524514e+00	 9.288397e-01	 1.342872e+01
 1.513156e+00	 9.472305e-01	 1.338465e+01
 1.501560e+00	 9.655075e-01	 1.332705e+01
 1.563608e+00	 8.766525e-01	 1.348502e+01
 1.552928e+00	 8.954349e-01	 1.346695e+01
 1.542005e+00	 9.141169e-01	 1.344150e+01
 1.530840e+00	 9.326938e-01	 1.340794e+01
 1.519434e+00	 9.511609e-01	 1.336446e+01
 1.507790e+00	 9.695137e-01	 1.330808e+01
 1.570069e+00	 8.802750e-01	 1.346332e+01
 1.559345e+00	 8.991351e-01	 1.344578e+01
 1.548377e+00	 9.178943e-01	 1.342056e+01
 1.537166e+00	 9.365479e-01	 1.338720e+01
 1.525713e+00	 9.550913e-01	 1.334421e+01
 1.514021e+00	 9.735200e-01	 1.328890e+01
 1.576530e+00	 8.838975e-01	 1.344182e+01
 1.565762e+00	 9.028352e-01	 1.342469e+01
 1.554749e+00	 9.216716e-01	 1.339963e+01
 1.543491e+00	 9.404020e-01	 1.336643e+01
 1.531992e+00	 9.590217e-01	 1.332388e+01
 1.520251e+00	 9.775262e-01	 1.326957e+01
 1.582991e+00	 8.875201e-01	 1.342052e+01
 1.572179e+00	 9.065354e-01	 1.340363e+01
 1.561120e+00	 9.254490e-01	 1.337861e+01
 1.549817e+00	 9.442561e-01	 1.334553e+01
 1.538270e+00	 9.629522e-01	 1.330341e+01
 1.526482e+00	 9.815325e-01	 1.325014e+01
 1.495329e+00	 9.615012e-01	 1.334571e+01
 1.483546e+00	 9.795844e-01	 1.328727e+01
 1.471529e+00	 9.975453e-01	 1.324554e+01
 1.459280e+00	 1.015379e+00	 1.321388e+01
 1.446802e+00	 1.033082e+00	 1.317381e+01
 1.434096e+00	 1.050649e+00	 1.310573e+01
 1.501560e+00	 9.655075e-01	 1.332705e+01
 1.489727e+00	 9.836661e-01	 1.327084e+01
 1.477660e+00	 1.001702e+00	 1.322849e+01
 1.465361e+00	 1.019610e+00	 1.319634e+01
 1.452830e+00	 1.037386e+00	 1.315865e+01
 1.440071e+00	 1.055027e+00	 1.309524e+01
 1.507790e+00	 9.695137e-01	 1.330808e+01
 1.495909e+00	 9.877477e-01	 1.325380e+01
 1.483792e+00	 1.005858e+00	 1.321330e+01
 1.471441e+00	 1.023841e+00	 1.317960e+01
 1.458859e+00	 1.041691e+00	 1.314318e+01
 1.446047e+00	 1.059404e+00	 1.308354e+01
 1.514021e+00	 9.735200e-01	 1.328890e+01
 1.502090e+00	 9.918293e-01	 1.323634e+01
 1.489923e+00	 1.010015e+00	 1.319804e+01
 1.477521e+00	 1.028071e+00	 1.316413e+01
 1.464887e+00	 1.045995e+00	 1.312783e+01
 1.452022e+00	 1.063782e+00	 1.307096e+01
 1.520251e+00	 9.775262e-01	 1.326957e+01
 1.508272e+00	 9.959109e-01	 1.321861e+01
 1.496054e+00	 1.014171e+00	 1.318232e+01
 1.483602e+00	 1.032302e+00	 1.315025e+01
 1.470915e+00	 1.050300e+00	 1.311299e+01
 1.457997e+00	 1.068160e+00	 1.305779e+01
 1.526482e+00	 9.815325e-01	 1.325014e+01
 1.514453e+00	 9.999925e-01	 1.320074e+01
 1.502186e+00	 1.018327e+00	 1.316629e+01
 1.489682e+00	 1.036533e+00	 1.313636e+01
 1.476944e+00	 1.054604e+00	 1.309903e+01
 1.463973e+00	 1.072537e+00	 1.304429e+01
 1.434096e+00	 1.050649e+00	 1.310573e+01
 1.421164e+00	 1.068076e+00	 1.303269e+01
 1.408009e+00	 1.085359e+00	 1.297225e+01
 1.394634e+00	 1.102493e+00	 1.289614e+01
 1.381040e+00	 1.119474e+00	 1.278932e+01
 1.367231e+00	 1.136298e+00	 1.271098e+01
 1.440071e+00	 1.055027e+00	 1.309524e+01
 1.427086e+00	 1.072526e+00	 1.302555e+01
 1.413876e+00	 1.089881e+00	 1.296337e+01
 1.400445e+00	 1.107086e+00	 1.287949e+01
 1.386795e+00	 1.124138e+00	 1.277529e+01
 1.372928e+00	 1.141033e+00	 1.270349e+01
 1.446047e+00	 1.059404e+00	 1.308354e+01
 1.433007e+00	 1.076977e+00	 1.301641e+01
 1.419743e+00	 1.094403e+00	 1.295172e+01
 1.406256e+00	 1.111680e+00	 1.285938e+01
 1.392549e+00	 1.128803e+00	 1.276358e+01
 1.378624e+00	 1.145767e+00	 1.269692e+01
 1.452022e+00	 1.063782e+00	 1.307096e+01
 1.438929e+00	 1.081427e+00	 1.300552e+01
 1.425610e+00	 1.098925e+00	 1.293752e+01
 1.412067e+00	 1.116274e+00	 1.284006e+01
 1.398303e+00	 1.133467e+00	 1.275393e+01
 1.384321e+00	 1.150502e+00	 1.269117e+01
 1.457997e+00	 1.068160e+00	 1.305779e+01
 1.444850e+00	 1.085877e+00	 1.299306e+01
 1.431476e+00	 1.103448e+00	 1.292096e+01
 1.417878e+00	 1.120867e+00	 1.282379e+01
 1.404058e+00	 1.138132e+00	 1.274603e+01
 1.390018e+00	 1.155237e+00	 1.268611e+01
 1.463973e+00	 1.072537e+00	 1.304429e+01
 1.450772e+00	 1.090327e+00	 1.297922e+01
 1.437343e+00	 1.107970e+00	 1.290219e+01
 1.423689e+00	 1.125461e+00	 1.281014e+01
 1.409812e+00	 1.142796e+00	 1.273956e+01
 1.395715e+00	 1.159971e+00	 1.268155e+01
 1.367231e+00	 1.136298e+00	 1.271098e+01
 1.353209e+00	 1.152962e+00	 1.264000e+01
 1.338976e+00	 1.169460e+00	 1.255066e+01
 1.324537e+00	 1.185789e+00	 1.244940e+01
 1.309893e+00	 1.201946e+00	 1.234363e+01
 1.295048e+00	 1.217926e+00	 1.224150e+01
 1.372928e+00	 1.141033e+00	 1.270349e+01
 1.358847e+00	 1.157766e+00	 1.263522e+01
 1.344555e+00	 1.174333e+00	 1.254755e+01
 1.330056e+00	 1.190730e+00	 1.244709e+01
 1.315351e+00	 1.206954e+00	 1.234154e+01
 1.300444e+00	 1.223001e+00	 1.223939e+01
 1.378624e+00	 1.145767e+00	 1.269692e+01
 1.364485e+00	 1.162570e+00	 1.263028e+01
 1.350134e+00	 1.179205e+00	 1.254359e+01
 1.335574e+00	 1.195671e+00	 1.244363e+01
 1.320809e+00	 1.211962e+00	 1.233832e+01
 1.305840e+00	 1.228075e+00	 1.223641e+01
 1.384321e+00	 1.150502e+00	 1.269117e+01
 1.370124e+00	 1.167374e+00	 1.262523e+01
 1.355713e+00	 1.184078e+00	 1.253897e+01
 1.341093e+00	 1.200612e+00	 1.243928e+01
 1.326267e+00	 1.216970e+00	 1.233424e+01
 1.311236e+00	 1.233150e+00	 1.223283e+01
 1.390018e+00	 1.155237e+00	 1.268611e+01
 1.375762e+00	 1.172178e+00	 1.262009e+01
 1.361292e+00	 1.188951e+00	 1.253382e+01
 1.346612e+00	 1.205553e+00	 1.243425e+01
 1.331725e+00	 1.221978e+00	 1.232957e+01
 1.316633e+00	 1.238225e+00	 1.222891e+01
 1.395715e+00	 1.159971e+00	 1.268155e+01
 1.381400e+00	 1.176982e+00	 1.261484e+01
 1.366872e+00	 1.193824e+00	 1.252825e+01
 1.352131e+00	 1.210493e+00	 1.242873e+01
 1.337182e+00	 1.226987e+00	 1.232451e+01
 1.322029e+00	 1.243299e+00	 1.222485e+01
 1.295048e+00	 1.217926e+00	 1.224150e+01
 1.280006e+00	 1.233726e+00	 1.213324e+01
 1.264769e+00	 1.249341e+00	 1.200907e+01
 1.249341e+00	 1.264769e+00	 1.187732e+01
 1.233726e+00	 1.280006e+00	 1.174583e+01
 1.217926e+00	 1.295048e+00	 1.162169e+01
 1.300444e+00	 1.223001e+00	 1.223939e+01
 1.285339e+00	 1.238866e+00	 1.213114e+01
 1.270039e+00	 1.254547e+00	 1.200707e+01
 1.254547e+00	 1.270039e+00	 1.187559e+01
 1.238866e+00	 1.285339e+00	 1.174465e+01
 1.223001e+00	 1.300444e+00	 1.162141e+01
 1.305840e+00	 1.228075e+00	 1.223641e+01
 1.290673e+00	 1.244007e+00	 1.212855e+01
 1.275309e+00	 1.259752e+00	 1.200495e+01
 1.259752e+00	 1.275309e+00	 1.187407e+01
 1.244007e+00	 1.290673e+00	 1.174389e+01
 1.228075e+00	 1.305840e+00	 1.162160e+01
 1.311236e+00	 1.233150e+00	 1.223283e+01
 1.296006e+00	 1.249147e+00	 1.212571e+01
 1.280579e+00	 1.264958e+00	 1.200293e+01
 1.264958e+00	 1.280579e+00	 1.187290e+01
 1.249147e+00	 1.296006e+00	 1.174362e+01
 1.233150e+00	 1.311236e+00	 1.162225e+01
 1.316633e+00	 1.238225e+00	 1.222891e+01
 1.301339e+00	 1.254288e+00	 1.212285e+01
 1.285849e+00	 1.270163e+00	 1.200115e+01
 1.270163e+00	 1.285849e+00	 1.187218e+01
 1.254288e+00	 1.301339e+00	 1.174386e+01
 1.238225e+00	 1.316633e+00	 1.162330e+01
 1.322029e+00	 1.243299e+00	 1.222485e+01
 1.306673e+00	 1.259428e+00	 1.212011e+01
 1.291118e+00	 1.275369e+00	 1.199973e+01
 1.275369e+00	 1.291118e+00	 1.187196e+01
 1.259428e+00	 1.306673e+00	 1.174461e+01
 1.243299e+00	 1.322029e+00	 1.162467e+01
 1.217926e+00	 1.295048e+00	 1.162169e+01
 1.201946e+00	 1.309893e+00	 1.149325e+01
 1.185789e+00	 1.324537e+00	 1.135145e+01
 1.169460e+00	 1.338976e+00	 1.120527e+01
 1.152962e+00	 1.353209e+00	 1.106183e+01
 1.136298e+00	 1.367231e+00	 1.092614e+01
 1.223001e+00	 1.300444e+00	 1.162141e+01
 1.206954e+00	 1.315351e+00	 1.149485e+01
 1.190730e+00	 1.330056e+00	 1.135585e+01
 1.174333e+00	 1.344555e+00	 1.121236e+01
 1.157766e+00	 1.358847e+00	 1.107044e+01
 1.141033e+00	 1.372928e+00	 1.093386e+01
 1.228075e+00	 1.305840e+00	 1.162160e+01
 1.211962e+00	 1.320809e+00	 1.149662e+01
 1.195671e+00	 1.335574e+00	 1.135976e+01
 1.179205e+00	 1.350134e+00	 1.121821e+01
 1.162570e+00	 1.364485e+00	 1.107713e+01
 1.145767e+00	 1.378624e+00	 1.093934e+01
 1.233150e+00	 1.311236e+00	 1.162225e+01
 1.216970e+00	 1.326267e+00	 1.149851e+01
 1.200612e+00	 1.341093e+00	 1.136319e+01
 1.184078e+00	 1.355713e+00	 1.122290e+01
 1.167374e+00	 1.370124e+00	 1.108218e+01
 1.150502e+00	 1.384321e+00	 1.094313e+01
 1.238225e+00	 1.316633e+00	 1.162330e+01
 1.221978e+00	 1.331725e+00	 1.150042e+01
 1.205553e+00	 1.346612e+00	 1.136606e+01
 1.188951e+00	 1.361292e+00	 1.122650e+01
 1.172178e+00	 1.375762e+00	 1.108586e+01
 1.155237e+00	 1.390018e+00	 1.094574e+01
 1.243299e+00	 1.322029e+00	 1.162467e+01
 1.226987e+00	 1.337182e+00	 1.150221e+01
 1.210493e+00	 1.352131e+00	 1.136828e+01
 1.193824e+00	 1.366872e+00	 1.122902e+01
 1.176982e+00	 1.381400e+00	 1.108835e+01
 1.159971e+00	 1.395715e+00	 1.094764e+01
 1.136298e+00	 1.367231e+00	 1.092614e+01
 1.119474e+00	 1.381040e+00	 1.078178e+01
 1.102493e+00	 1.394634e+00	 1.062114e+01
 1.085359e+00	 1.408009e+00	 1.045791e+01
 1.068076e+00	 1.421164e+00	 1.029130e+01
 1.050649e+00	 1.434096e+00	 1.011712e+01
 1.141033e+00	 1.372928e+00	 1.093386e+01
 1.124138e+00	 1.386795e+00	 1.078758e+01
 1.107086e+00	 1.400445e+00	 1.062535e+01
 1.089881e+00	 1.413876e+00	 1.046229e+01
 1.072526e+00	 1.427086e+00	 1.029936e+01
 1.055027e+00	 1.440071e+00	 1.013188e+01
 1.145767e+00	 1.378624e+00	 1.093934e+01
 1.128803e+00	 1.392549e+00	 1.079149e+01
 1.111680e+00	 1.406256e+00	 1.062906e+01
 1.094403e+00	 1.419743e+00	 1.046642e+01
 1.076977e+00	 1.433007e+00	 1.030712e+01
 1.059404e+00	 1.446047e+00	 1.014544e+01
 1.150502e+00	 1.384321e+00	 1.094313e+01
 1.133467e+00	 1.398303e+00	 1.079432e+01
 1.116274e+00	 1.412067e+00	 1.063295e+01
 1.098925e+00	 1.425610e+00	 1.047141e+01
 1.081427e+00	 1.438929e+00	 1.031553e+01
 1.063782e+00	 1.452022e+00	 1.015852e+01
 1.155237e+00	 1.390018e+00	 1.094574e+01
 1.138132e+00	 1.404058e+00	 1.079680e+01
 1.120867e+00	 1.417878e+00	 1.063764e+01
 1.103448e+00	 1.431476e+00	 1.047827e+01
 1.085877e+00	 1.444850e+00	 1.032548e+01
 1.068160e+00	 1.457997e+00	 1.017178e+01
 1.159971e+00	 1.395715e+00	 1.094764e+01
 1.142796e+00	 1.409812e+00	 1.079963e+01
 1.125461e+00	 1.423689e+00	 1.064392e+01
 1.107970e+00	 1.437343e+00	 1.048797e+01
 1.090327e+00	 1.450772e+00	 1.033783e+01
 1.072537e+00	 1.463973e+00	 1.018582e+01
 1.050649e+00	 1.434096e+00	 1.011712e+01
 1.033082e+00	 1.446802e+00	 9.963331e+00
 1.015379e+00	 1.459280e+00	 9.837510e+00
 9.975453e-01	 1.471529e+00	 9.703341e+00
 9.795844e-01	 1.483546e+00	 9.525684e+00
 9.615012e-01	 1.495329e+00	 9.326022e+00
 1.055027e+00	 1.440071e+00	 1.013188e+01
 1.037386e+00	 1.452830e+00	 9.983433e+00
 1.019610e+00	 1.465361e+00	 9.856177e+00
 1.001702e+00	 1.477660e+00	 9.711667e+00
 9.836661e-01	 1.489727e+00	 9.529872e+00
 9.655075e-01	 1.501560e+00	 9.342063e+00
 1.059404e+00	 1.446047e+00	 1.014544e+01
 1.041691e+00	 1.458859e+00	 1.000010e+01
 1.023841e+00	 1.471441e+00	 9.867941e+00
 1.005858e+00	 1.483792e+00	 9.710152e+00
 9.877477e-01	 1.495909e+00	 9.537780e+00
 9.695137e-01	 1.507790e+00	 9.358753e+00
 1.063782e+00	 1.452022e+00	 1.015852e+01
 1.045995e+00	 1.464887e+00	 1.001380e+01
 1.028071e+00	 1.477521e+00	 9.873214e+00
 1.010015e+00	 1.489923e+00	 9.711282e+00
 9.918293e-01	 1.502090e+00	 9.548288e+00
 9.735200e-01	 1.514021e+00	 9.375267e+00
 1.068160e+00	 1.457997e+00	 1.017178e+01
 1.050300e+00	 1.470915e+00	 1.002499e+01
 1.032302e+00	 1.483602e+00	 9.873179e+00
 1.014171e+00	 1.496054e+00	 9.717207e+00
 9.959109e-01	 1.508272e+00	 9.560275e+00
 9.775262e-01	 1.520251e+00	 9.390780e+00
 1.072537e+00	 1.463973e+00	 1.018582e+01
 1.054604e+00	 1.476944e+00	 1.003409e+01
 1.036533e+00	 1.489682e+00	 9.877283e+00
 1.018327e+00	 1.502186e+00	 9.726651e+00
 9.999925e-01	 1.514453e+00	 9.572631e+00
 9.815325e-01	 1.526482e+00	 9.404466e+00
 9.615012e-01	 1.495329e+00	 9.326022e+00
 9.433001e-01	 1.506877e+00	 9.135484e+00
 9.249856e-01	 1.518188e+00	 8.962270e+00
 9.065622e-01	 1.529261e+00	 8.800802e+00
 8.880347e-01	 1.540094e+00	 8.646499e+00
 8.694074e-01	 1.550685e+00	 8.495643e+00
 9.655075e-01	 1.501560e+00	 9.342063e+00
 9.472305e-01	 1.513156e+00	 9.157919e+00
 9.288397e-01	 1.524514e+00	 8.986715e+00
 9.103396e-01	 1.535633e+00	 8.824257e+00
 8.917348e-01	 1.546511e+00	 8.667399e+00
 8.730300e-01	 1.557146e+00	 8.513906e+00
 9.695137e-01	 1.507790e+00	 9.358753e+00
 9.511609e-01	 1.519434e+00	 9.179197e+00
 9.326938e-01	 1.530840e+00	 9.009494e+00
 9.141169e-01	 1.542005e+00	 8.846437e+00
 8.954349e-01	 1.552928e+00	 8.687909e+00
 8.766525e-01	 1.563608e+00	 8.532742e+00
 9.735200e-01	 1.514021e+00	 9.375267e+00
 9.550913e-01	 1.525713e+00	 9.198799e+00
 9.365479e-01	 1.537166e+00	 9.030286e+00
 9.178943e-01	 1.548377e+00	 8.867119e+00
 8.991351e-01	 1.559345e+00	 8.707813e+00
 8.802750e-01	 1.570069e+00	 8.551851e+00
 9.775262e-01	 1.520251e+00	 9.390780e+00
 9.590217e-01	 1.531992e+00	 9.216199e+00
 9.404020e-01	 1.543491e+00	 9.048761e+00
 9.216716e-01	 1.554749e+00	 8.886075e+00
 9.028352e-01	 1.565762e+00	 8.726886e+00
 8.838975e-01	 1.576530e+00	 8.570927e+00
 9.815325e-01	 1.526482e+00	 9.404466e+00
 9.629522e-01	 1.538270e+00	 9.230866e+00
 9.442561e-01	 1.549817e+00	 9.064584e+00
 9.254490e-01	 1.561120e+00	 8.903063e+00
 9.065354e-01	 1.572179e+00	 8.744894e+00
 8.875201e-01	 1.582991e+00	 8.589655e+00
 8.694074e-01	 1.550685e+00	 8.495643e+00
 8.506851e-01	 1.561034e+00	 8.338613e+00
 8.318724e-01	 1.571140e+00	 8.168918e+00
 8.129739e-01	 1.581002e+00	 7.988460e+00
 7.939943e-01	 1.590618e+00	 7.799509e+00
 7.749380e-01	 1.599989e+00	 7.604592e+00
 8.730300e-01	 1.557146e+00	 8.513906e+00
 8.542297e-01	 1.567539e+00	 8.355439e+00
 8.353386e-01	 1.577687e+00	 8.185738e+00
 8.163613e-01	 1.587589e+00	 8.006636e+00
 7.973026e-01	 1.597246e+00	 7.820336e+00
 7.781670e-01	 1.606656e+00	 7.629290e+00
 8.766525e-01	 1.563608e+00	 8.532742e+00
 8.577742e-01	 1.574043e+00	 8.373431e+00
 8.388047e-01	 1.584233e+00	 8.203859e+00
 8.197487e-01	 1.594177e+00	 8.025910e+00
 8.006109e-01	 1.603874e+00	 7.841839e+00
 7.813959e-01	 1.613322e+00	 7.654151e+00
 8.802750e-01	 1.570069e+00	 8.551851e+00
 8.613187e-01	 1.580547e+00	 8.392184e+00
 8.422708e-01	 1.590780e+00	 8.222810e+00
 8.231361e-01	 1.600764e+00	 8.045779e+00
 8.039192e-01	 1.610501e+00	 7.863519e+00
 7.846248e-01	 1.619989e+00	 7.678711e+00
 8.838975e-01	 1.576530e+00	 8.570927e+00
 8.648632e-01	 1.587052e+00	 8.411287e+00
 8.457370e-01	 1.597326e+00	 8.242111e+00
 8.265235e-01	 1.607352e+00	 8.065732e+00
 8.072275e-01	 1.617129e+00	 7.884871e+00
 7.878537e-01	 1.626656e+00	 7.702503e+00
 8.875201e-01	 1.582991e+00	 8.589655e+00
 8.684078e-01	 1.593556e+00	 8.430320e+00
 8.492031e-01	 1.603872e+00	 8.261278e+00
 8.299109e-01	 1.613940e+00	 8.085257e+00
 8.105358e-01	 1.623756e+00	 7.905384e+00
 7.910826e-01	 1.633322e+00	 7.725055e+00
 7.749380e-01	 1.599989e+00	 7.604592e+00
 7.558099e-01	 1.609113e+00	 7.427804e+00
 7.366145e-01	 1.617990e+00	 7.277057e+00
 7.173565e-01	 1.626620e+00	 7.133146e+00
 6.980404e-01	 1.635003e+00	 6.987860e+00
 6.786708e-01	 1.643137e+00	 6.835064e+00
 7.781670e-01	 1.606656e+00	 7.629290e+00
 7.589591e-01	 1.615818e+00	 7.455994e+00
 7.396838e-01	 1.624732e+00	 7.307455e+00
 7.203455e-01	 1.633398e+00	 7.164263e+00
 7.009489e-01	 1.641815e+00	 7.017875e+00
 6.814986e-01	 1.649984e+00	 6.863162e+00
 7.813959e-01	 1.613322e+00	 7.654151e+00
 7.621083e-01	 1.622522e+00	 7.483903e+00
 7.427530e-01	 1.631474e+00	 7.337234e+00
 7.233345e-01	 1.640175e+00	 7.194918e+00
 7.038574e-01	 1.648628e+00	 7.047665e+00
 6.843264e-01	 1.656830e+00	 6.891313e+00
 7.846248e-01	 1.619989e+00	 7.678711e+00
 7.652576e-01	 1.629227e+00	 7.511120e+00
 7.458222e-01	 1.638215e+00	 7.366058e+00
 7.263234e-01	 1.646953e+00	 7.224728e+00
 7.067659e-01	 1.655440e+00	 7.076886e+00
 6.871542e-01	 1.663676e+00	 6.919208e+00
 7.878537e-01	 1.626656e+00	 7.702503e+00
 7.684068e-01	 1.635932e+00	 7.537226e+00
 7.488915e-01	 1.644957e+00	 7.393556e+00
 7.293124e-01	 1.653731e+00	 7.253300e+00
 7.096744e-01	 1.662253e+00	 7.105184e+00
 6.899820e-01	 1.670523e+00	 6.946526e+00
 7.910826e-01	 1.633322e+00	 7.725055e+00
 7.715560e-01	 1.642636e+00	 7.561798e+00
 7.519607e-01	 1.651699e+00	 7.419341e+00
 7.323014e-01	 1.660508e+00	 7.280234e+00
 7.125829e-01	 1.669065e+00	 7.132191e+00
 6.928098e-01	 1.677369e+00	 6.972931e+00
 6.786708e-01	 1.643137e+00	 6.835064e+00
 6.592523e-01	 1.651024e+00	 6.668592e+00
 6.397895e-01	 1.658663e+00	 6.493493e+00
 6.202868e-01	 1.666055e+00	 6.319729e+00
 6.007488e-01	 1.673199e+00	 6.156554e+00
 5.811800e-01	 1.680096e+00	 6.012401e+00
 6.814986e-01	 1.649984e+00	 6.863162e+00
 6.619992e-01	 1.657903e+00	 6.695875e+00
 6.424553e-01	 1.665574e+00	 6.521883e+00
 6.228714e-01	 1.672997e+00	 6.350423e+00
 6.032520e-01	 1.680171e+00	 6.189961e+00
 5.836016e-01	 1.687097e+00	 6.048085e+00
 6.843264e-01	 1.656830e+00	 6.891313e+00
 6.647461e-01	 1.664783e+00	 6.723417e+00
 6.451211e-01	 1.672485e+00	 6.550581e+00
 6.254559e-01	 1.679938e+00	 6.381347e+00
 6.057551e-01	 1.687142e+00	 6.223416e+00
 5.860231e-01	 1.694097e+00	 6.083554e+00
 6.871542e-01	 1.663676e+00	 6.919208e+00
 6.674930e-01	 1.671662e+00	 6.750946e+00
 6.477869e-01	 1.679396e+00	 6.579370e+00
 6.280404e-01	 1.686880e+00	 6.412346e+00
 6.082582e-01	 1.694114e+00	 6.256841e+00
 5.884447e-01	 1.701098e+00	 6.118817e+00
 6.899820e-01	 1.670523e+00	 6.946526e+00
 6.702399e-01	 1.678541e+00	 6.778179e+00
 6.504526e-01	 1.686307e+00	 6.608013e+00
 6.306249e-01	 1.693822e+00	 6.443250e+00
 6.107613e-01	 1.701086e+00	 6.290139e+00
 5.908663e-01	 1.708098e+00	 6.153860e+00
 6.928098e-01	 1.677369e+00	 6.972931e+00
 6.729867e-01	 1.685420e+00	 6.804816e+00
 6.531184e-01	 1.693219e+00	 6.636263e+00
 6.332095e-01	 1.700764e+00	 6.473870e+00
 6.132644e-01	 1.708057e+00	 6.323194e+00
 5.932879e-01	 1.715098e+00	 6.188652e+00
 5.811800e-01	 1.680096e+00	 6.012401e+00
 5.615847e-01	 1.686747e+00	 5.877943e+00
 5.419673e-01	 1.693152e+00	 5.739855e+00
 5.223323e-01	 1.699312e+00	 5.599201e+00
 5.026840e-01	 1.705228e+00	 5.456116e+00
 4.830265e-01	 1.710900e+00	 5.309854e+00
 5.836016e-01	 1.687097e+00	 6.048085e+00
 5.639246e-01	 1.693775e+00	 5.914539e+00
 5.442255e-01	 1.700207e+00	 5.776148e+00
 5.245087e-01	 1.706393e+00	 5.634668e+00
 5.047785e-01	 1.712333e+00	 5.490888e+00
 4.850391e-01	 1.718029e+00	 5.344679e+00
 5.860231e-01	 1.694097e+00	 6.083554e+00
 5.662646e-01	 1.700804e+00	 5.950678e+00
 5.464837e-01	 1.707262e+00	 5.811823e+00
 5.266851e-01	 1.713473e+00	 5.669406e+00
 5.068730e-01	 1.719438e+00	 5.524830e+00
 4.870517e-01	 1.725158e+00	 5.378546e+00
 5.884447e-01	 1.701098e+00	 6.118817e+00
 5.686045e-01	 1.707832e+00	 5.986456e+00
 5.487419e-01	 1.714317e+00	 5.847069e+00
 5.288615e-01	 1.720554e+00	 5.703693e+00
 5.089675e-01	 1.726543e+00	 5.558311e+00
 4.890643e-01	 1.732286e+00	 5.411910e+00
 5.908663e-01	 1.708098e+00	 6.153860e+00
 5.709444e-01	 1.714860e+00	 6.021953e+00
 5.510001e-01	 1.721372e+00	 5.882054e+00
 5.310379e-01	 1.727634e+00	 5.737787e+00
 5.110620e-01	 1.733649e+00	 5.591676e+00
 4.910769e-01	 1.739415e+00	 5.445206e+00
 5.932879e-01	 1.715098e+00	 6.188652e+00
 5.732844e-01	 1.721888e+00	 6.057225e+00
 5.532583e-01	 1.728426e+00	 5.916924e+00
 5.332143e-01	 1.734715e+00	 5.771926e+00
 5.131565e-01	 1.740754e+00	 5.625252e+00
 4.930895e-01	 1.746544e+00	 5.478846e+00
 4.830265e-01	 1.710900e+00	 5.309854e+00
 4.633641e-01	 1.716330e+00	 5.162363e+00
 4.437011e-01	 1.721518e+00	 5.020253e+00
 4.240415e-01	 1.726465e+00	 4.888699e+00
 4.043894e-01	 1.731174e+00	 4.772363e+00
 3.847489e-01	 1.735645e+00	 4.675508e+00
 4.850391e-01	 1.718029e+00	 5.344679e+00
 4.652948e-01	 1.723481e+00	 5.198675e+00
 4.455499e-01	 1.728691e+00	 5.058992e+00
 4.258084e-01	 1.733659e+00	 4.929627e+00
 4.060744e-01	 1.738387e+00	 4.814059e+00
 3.863520e-01	 1.742876e+00	 4.715373e+00
 4.870517e-01	 1.725158e+00	 5.378546e+00
 4.672255e-01	 1.730632e+00	 5.233792e+00
 4.473986e-01	 1.735864e+00	 5.096204e+00
 4.275752e-01	 1.740853e+00	 4.968696e+00
 4.077594e-01	 1.745600e+00	 4.853658e+00
 3.879551e-01	 1.750108e+00	 4.753092e+00
 4.890643e-01	 1.732286e+00	 5.411910e+00
 4.691562e-01	 1.737784e+00	 5.268260e+00
 4.492474e-01	 1.743037e+00	 5.132535e+00
 4.293420e-01	 1.748046e+00	 5.006658e+00
 4.094443e-01	 1.752814e+00	 4.892023e+00
 3.895583e-01	 1.757340e+00	 4.789638e+00
 4.910769e-01	 1.739415e+00	 5.445206e+00
 4.710869e-01	 1.744935e+00	 5.302607e+00
 4.510961e-01	 1.750210e+00	 5.168612e+00
 4.311089e-01	 1.755240e+00	 5.044245e+00
 4.111293e-01	 1.760027e+00	 4.929995e+00
 3.911614e-01	 1.764572e+00	 4.825963e+00
 4.930895e-01	 1.746544e+00	 5.478846e+00
 4.730176e-01	 1.752087e+00	 5.337335e+00
 4.529449e-01	 1.757383e+00	 5.205037e+00
 4.328757e-01	 1.762433e+00	 5.082168e+00
 4.128142e-01	 1.767240e+00	 4.968393e+00
 3.927645e-01	 1.771804e+00	 4.862996e+00
 3.847489e-01	 1.735645e+00	 4.675508e+00
 3.651239e-01	 1.739879e+00	 4.582407e+00
 3.455182e-01	 1.743878e+00	 4.480645e+00
 3.259358e-01	 1.747644e+00	 4.372782e+00
 3.063805e-01	 1.751178e+00	 4.265043e+00
 2.868559e-01	 1.754482e+00	 4.164596e+00
 3.863520e-01	 1.742876e+00	 4.715373e+00
 3.666452e-01	 1.747128e+00	 4.618664e+00
 3.469579e-01	 1.751144e+00	 4.516237e+00
 3.272939e-01	 1.754926e+00	 4.409554e+00
 3.076571e-01	 1.758475e+00	 4.303856e+00
 2.880511e-01	 1.761792e+00	 4.205549e+00
 3.879551e-01	 1.750108e+00	 4.753092e+00
 3.681666e-01	 1.754378e+00	 4.652726e+00
 3.483975e-01	 1.758410e+00	 4.549483e+00
 3.286520e-01	 1.762208e+00	 4.443889e+00
 3.089337e-01	 1.765771e+00	 4.340128e+00
 2.892464e-01	 1.769103e+00	 4.243778e+00
 3.895583e-01	 1.757340e+00	 4.789638e+00
 3.696879e-01	 1.761627e+00	 4.685713e+00
 3.498372e-01	 1.765677e+00	 4.581577e+00
 3.300100e-01	 1.769490e+00	 4.477017e+00
 3.102103e-01	 1.773068e+00	 4.375093e+00
 2.904416e-01	 1.776413e+00	 4.280495e+00
 3.911614e-01	 1.764572e+00	 4.825963e+00
 3.712093e-01	 1.768877e+00	 4.718739e+00
 3.512769e-01	 1.772943e+00	 4.613693e+00
 3.313681e-01	 1.776771e+00	 4.510156e+00
 3.114868e-01	 1.780364e+00	 4.409978e+00
 2.916368e-01	 1.783723e+00	 4.316903e+00
 3.927645e-01	 1.771804e+00	 4.862996e+00
 3.727306e-01	 1.776126e+00	 4.752951e+00
 3.527165e-01	 1.780209e+00	 4.646990e+00
 3.327262e-01	 1.784053e+00	 4.544510e+00
 3.127634e-01	 1.787661e+00	 4.445999e+00
 2.928321e-01	 1.791034e+00	 4.354201e+00
 2.868559e-01	 1.754482e+00	 4.164596e+00
 2.673657e-01	 1.757558e+00	 4.081406e+00
 2.479135e-01	 1.760407e+00	 4.015038e+00
 2.285029e-01	 1.763032e+00	 3.958752e+00
 2.091372e-01	 1.765434e+00	 3.906964e+00
 1.898199e-01	 1.767615e+00	 3.855121e+00
 2.880511e-01	 1.761792e+00	 4.205549e+00
 2.684797e-01	 1.764881e+00	 4.123892e+00
 2.489465e-01	 1.767742e+00	 4.058213e+00
 2.294550e-01	 1.770378e+00	 4.001976e+00
 2.100086e-01	 1.772789e+00	 3.949926e+00
 1.906108e-01	 1.774980e+00	 3.897941e+00
 2.892464e-01	 1.769103e+00	 4.243778e+00
 2.695938e-01	 1.772204e+00	 4.163373e+00
 2.499795e-01	 1.775077e+00	 4.098065e+00
 2.304071e-01	 1.777723e+00	 4.041588e+00
 2.108800e-01	 1.780145e+00	 3.989090e+00
 1.914017e-01	 1.782345e+00	 3.936952e+00
 2.904416e-01	 1.776413e+00	 4.280495e+00
 2.707078e-01	 1.779527e+00	 4.201012e+00
 2.510124e-01	 1.782412e+00	 4.135686e+00
 2.313592e-01	 1.785069e+00	 4.078589e+00
 2.117514e-01	 1.787501e+00	 4.025345e+00
 1.921926e-01	 1.789710e+00	 3.972921e+00
 2.916368e-01	 1.783723e+00	 4.316903e+00
 2.718218e-01	 1.786850e+00	 4.237967e+00
 2.520454e-01	 1.789747e+00	 4.172162e+00
 2.323112e-01	 1.792415e+00	 4.113975e+00
 2.126228e-01	 1.794857e+00	 4.059583e+00
 1.929835e-01	 1.797075e+00	 4.006618e+00
 2.928321e-01	 1.791034e+00	 4.354201e+00
 2.729358e-01	 1.794174e+00	 4.275389e+00
 2.530784e-01	 1.797082e+00	 4.208578e+00
 2.332633e-01	 1.799761e+00	 4.148743e+00
 2.134942e-01	 1.802213e+00	 4.092696e+00
 1.937744e-01	 1.804440e+00	 4.038815e+00
 1.898199e-01	 1.767615e+00	 3.855121e+00
 1.705542e-01	 1.769578e+00	 3.804158e+00
 1.513435e-01	 1.771324e+00	 3.757746e+00
 1.321909e-01	 1.772856e+00	 3.716369e+00
 1.130994e-01	 1.774177e+00	 3.680673e+00
 9.407220e-02	 1.775287e+00	 3.651234e+00
 1.906108e-01	 1.774980e+00	 3.897941e+00
 1.712649e-01	 1.776951e+00	 3.847276e+00
 1.519741e-01	 1.778705e+00	 3.801416e+00
 1.327417e-01	 1.780243e+00	 3.760603e+00
 1.135707e-01	 1.781569e+00	 3.725246e+00
 9.446417e-02	 1.782684e+00	 3.695668e+00
 1.914017e-01	 1.782345e+00	 3.936952e+00
 1.719755e-01	 1.784324e+00	 3.886779e+00
 1.526047e-01	 1.786085e+00	 3.841817e+00
 1.332925e-01	 1.787630e+00	 3.802014e+00
 1.140419e-01	 1.788961e+00	 3.767494e+00
 9.485613e-02	 1.790081e+00	 3.738280e+00
 1.921926e-01	 1.789710e+00	 3.972921e+00
 1.726861e-01	 1.791697e+00	 3.923309e+00
 1.532353e-01	 1.793466e+00	 3.879469e+00
 1.338432e-01	 1.795017e+00	 3.841010e+00
 1.145132e-01	 1.796354e+00	 3.807726e+00
 9.524810e-02	 1.797478e+00	 3.779301e+00
 1.929835e-01	 1.797075e+00	 4.006618e+00
 1.733968e-01	 1.799071e+00	 3.957510e+00
 1.538659e-01	 1.800846e+00	 3.914895e+00
 1.343940e-01	 1.802404e+00	 3.878000e+00
 1.149844e-01	 1.803746e+00	 3.846253e+00
 9.564007e-02	 1.804875e+00	 3.818960e+00
 1.937744e-01	 1.804440e+00	 4.038815e+00
 1.741074e-01	 1.806444e+00	 3.990027e+00
 1.544965e-01	 1.808227e+00	 3.948619e+00
 1.349448e-01	 1.809791e+00	 3.913396e+00
 1.154557e-01	 1.811139e+00	 3.883387e+00
 9.603204e-02	 1.812272e+00	 3.857489e+00
 9.407220e-02	 1.775287e+00	 3.651234e+00
 7.511214e-02	 1.776190e+00	 3.628471e+00
 5.622213e-02	 1.776889e+00	 3.612063e+00
 3.740496e-02	 1.777384e+00	 3.600746e+00
 1.866337e-02	 1.777680e+00	 3.592399e+00
-2.906050e-07	 1.777790e+00	 3.582166e+00
 9.446417e-02	 1.782684e+00	 3.695668e+00
 7.542511e-02	 1.783591e+00	 3.672231e+00
 5.645639e-02	 1.784292e+00	 3.655044e+00
 3.756081e-02	 1.784790e+00	 3.643210e+00
 1.874113e-02	 1.785087e+00	 3.634868e+00
-2.784231e-07	 1.785197e+00	 3.625259e+00
 9.485613e-02	 1.790081e+00	 3.738280e+00
 7.573808e-02	 1.790992e+00	 3.714653e+00
 5.669065e-02	 1.791696e+00	 3.697119e+00
 3.771667e-02	 1.792196e+00	 3.685107e+00
 1.881890e-02	 1.792494e+00	 3.676961e+00
-2.663839e-07	 1.792604e+00	 3.667979e+00
 9.524810e-02	 1.797478e+00	 3.779301e+00
 7.605104e-02	 1.798393e+00	 3.755899e+00
 5.692490e-02	 1.799100e+00	 3.738392e+00
 3.787252e-02	 1.799602e+00	 3.726490e+00
 1.889666e-02	 1.799901e+00	 3.718700e+00
-2.544987e-07	 1.800011e+00	 3.710331e+00
 9.564007e-02	 1.804875e+00	 3.818960e+00
 7.636401e-02	 1.805793e+00	 3.796131e+00
 5.715916e-02	 1.806503e+00	 3.778964e+00
 3.802838e-02	 1.807007e+00	 3.767411e+00
 1.897442e-02	 1.807308e+00	 3.760102e+00
-2.427789e-07	 1.807418e+00	 3.752319e+00
 9.603204e-02	 1.812272e+00	 3.857489e+00
 7.667698e-02	 1.813194e+00	 3.835513e+00
 5.739342e-02	 1.813907e+00	 3.818936e+00
 3.818423e-02	 1.814413e+00	 3.807920e+00
 1.905219e-02	 1.814715e+00	 3.801181e+00
-2.312356e-07	 1.814825e+00	 3.793942e+00
 1.814815e+00	 0.000000e+00	 1.320762e+01
 1.814715e+00	 1.905219e-02	 1.320972e+01
 1.814413e+00	 3.818423e-02	 1.321109e+01
 1.813907e+00	 5.739342e-02	 1.321260e+01
 1.813194e+00	 7.667698e-02	 1.321536e+01
 1.812272e+00	 9.603204e-02	 1.322054e+01
 1.822222e+00	 0.000000e+00	 1.317290e+01
 1.822122e+00	 1.912995e-02	 1.317534e+01
 1.821819e+00	 3.834008e-02	 1.317699e+01
 1.821311e+00	 5.762768e-02	 1.317871e+01
 1.820595e+00	 7.698994e-02	 1.318159e+01
 1.819669e+00	 9.642400e-02	 1.318683e+01
 1.829630e+00	 0.000000e+00	 1.313876e+01
 1.829529e+00	 1.920772e-02	 1.314152e+01
 1.829225e+00	 3.849594e-02	 1.314337e+01
 1.828714e+00	 5.786194e-02	 1.314518e+01
 1.827996e+00	 7.730291e-02	 1.314804e+01
 1.827066e+00	 9.681597e-02	 1.315321e+01
 1.837037e+00	 0.000000e+00	 1.310520e+01
 1.836936e+00	 1.928548e-02	 1.310826e+01
 1.836630e+00	 3.865179e-02	 1.311025e+01
 1.836118e+00	 5.809620e-02	 1.311202e+01
 1.835397e+00	 7.761588e-02	 1.311470e+01
 1.834463e+00	 9.720794e-02	 1.311962e+01
 1.844444e+00	 0.000000e+00	 1.307220e+01
 1.844343e+00	 1.936324e-02	 1.307558e+01
 1.844036e+00	 3.880765e-02	 1.307762e+01
 1.843522e+00	 5.833046e-02	 1.307921e+01
 1.842797e+00	 7.792885e-02	 1.308154e+01
 1.841860e+00	 9.759991e-02	 1.308600e+01
 1.851852e+00	 0.000000e+00	 1.303974e+01
 1.851750e+00	 1.944101e-02	 1.304347e+01
 1.851442e+00	 3.896350e-02	 1.304550e+01
 1.850926e+00	 5.856472e-02	 1.304677e+01
 1.850198e+00	 7.824181e-02	 1.304854e+01
 1.849257e+00	 9.799187e-02	 1.305231e+01
 1.812272e+00	 9.603204e-02	 1.322054e+01
 1.811139e+00	 1.154557e-01	 1.322673e+01
 1.809791e+00	 1.349448e-01	 1.323203e+01
 1.808227e+00	 1.544965e-01	 1.323687e+01
 1.806444e+00	 1.741074e-01	 1.324157e+01
 1.804440e+00	 1.937744e-01	 1.324629e+01
 1.819669e+00	 9.642400e-02	 1.318683e+01
 1.818531e+00	 1.159269e-01	 1.319317e+01
 1.817178e+00	 1.354956e-01	 1.319871e+01
 1.815607e+00	 1.551271e-01	 1.320384e+01
 1.813817e+00	 1.748181e-01	 1.320881e+01
 1.811805e+00	 1.945654e-01	 1.321369e+01
 1.827066e+00	 9.681597e-02	 1.315321e+01
 1.825923e+00	 1.163982e-01	 1.315955e+01
 1.824565e+00	 1.360464e-01	 1.316524e+01
 1.822988e+00	 1.557577e-01	 1.317058e+01
 1.821190e+00	 1.755287e-01	 1.317578e+01
 1.819170e+00	 1.953563e-01	 1.318085e+01
 1.834463e+00	 9.720794e-02	 1.311962e+01
 1.833316e+00	 1.168694e-01	 1.312579e+01
 1.831951e+00	 1.365972e-01	 1.313147e+01
 1.830368e+00	 1.563883e-01	 1.313692e+01
 1.828564e+00	 1.762394e-01	 1.314229e+01
 1.826535e+00	 1.961472e-01	 1.314755e+01
 1.841860e+00	 9.759991e-02	 1.308600e+01
 1.840708e+00	 1.173407e-01	 1.309181e+01
 1.839338e+00	 1.371480e-01	 1.309730e+01
 1.837749e+00	 1.570189e-01	 1.310270e+01
 1.835937e+00	 1.769500e-01	 1.310815e+01
 1.833900e+00	 1.969381e-01	 1.311357e+01
 1.849257e+00	 9.799187e-02	 1.305231e+01
 1.848101e+00	 1.178119e-01	 1.305752e+01
 1.846725e+00	 1.376988e-01	 1.306260e+01
 1.845129e+00	 1.576495e-01	 1.306778e+01
 1.843310e+00	 1.776606e-01	 1.307318e+01
 1.841265e+00	 1.977290e-01	 1.307871e+01
 1.804440e+00	 1.937744e-01	 1.324629e+01
 1.802213e+00	 2.134942e-01	 1.325224e+01
 1.799761e+00	 2.332633e-01	 1.326064e+01
 1.797082e+00	 2.530784e-01	 1.327116e+01
 1.794174e+00	 2.729358e-01	 1.328296e+01
 1.791034e+00	 2.928321e-01	 1.329473e+01
 1.811805e+00	 1.945654e-01	 1.321369e+01
 1.809569e+00	 2.143656e-01	 1.321958e+01
 1.807107e+00	 2.342154e-01	 1.322774e+01
 1.804417e+00	 2.541114e-01	 1.323796e+01
 1.801497e+00	 2.740499e-01	 1.324954e+01
 1.798344e+00	 2.940273e-01	 1.326123e+01
 1.819170e+00	 1.953563e-01	 1.318085e+01
 1.816925e+00	 2.152370e-01	 1.318679e+01
 1.814453e+00	 2.351675e-01	 1.319487e+01
 1.811752e+00	 2.551443e-01	 1.320499e+01
 1.808820e+00	 2.751639e-01	 1.321653e+01
 1.805655e+00	 2.952225e-01	 1.322829e+01
 1.826535e+00	 1.961472e-01	 1.314755e+01
 1.824281e+00	 2.161084e-01	 1.315362e+01
 1.821799e+00	 2.361196e-01	 1.316179e+01
 1.819087e+00	 2.561773e-01	 1.317201e+01
 1.816143e+00	 2.762779e-01	 1.318371e+01
 1.812965e+00	 2.964178e-01	 1.319572e+01
 1.833900e+00	 1.969381e-01	 1.311357e+01
 1.831637e+00	 2.169798e-01	 1.311985e+01
 1.829145e+00	 2.370717e-01	 1.312826e+01
 1.826422e+00	 2.572103e-01	 1.313878e+01
 1.823466e+00	 2.773919e-01	 1.315086e+01
 1.820275e+00	 2.976130e-01	 1.316334e+01
 1.841265e+00	 1.977290e-01	 1.307871e+01
 1.838993e+00	 2.178512e-01	 1.308524e+01
 1.836491e+00	 2.380238e-01	 1.309402e+01
 1.833757e+00	 2.582433e-01	 1.310505e+01
 1.830789e+00	 2.785059e-01	 1.311777e+01
 1.827586e+00	 2.988082e-01	 1.313097e+01
 1.791034e+00	 2.928321e-01	 1.329473e+01
 1.787661e+00	 3.127634e-01	 1.330599e+01
 1.784053e+00	 3.327262e-01	 1.331731e+01
 1.780209e+00	 3.527165e-01	 1.332797e+01
 1.776126e+00	 3.727306e-01	 1.333671e+01
 1.771804e+00	 3.927645e-01	 1.334853e+01
 1.798344e+00	 2.940273e-01	 1.326123e+01
 1.794958e+00	 3.140400e-01	 1.327259e+01
 1.791335e+00	 3.340842e-01	 1.328404e+01
 1.787475e+00	 3.541562e-01	 1.329475e+01
 1.783376e+00	 3.742520e-01	 1.330336e+01
 1.779036e+00	 3.943676e-01	 1.331532e+01
 1.805655e+00	 2.952225e-01	 1.322829e+01
 1.802254e+00	 3.153166e-01	 1.323981e+01
 1.798617e+00	 3.354423e-01	 1.325142e+01
 1.794741e+00	 3.555958e-01	 1.326218e+01
 1.790625e+00	 3.757733e-01	 1.327069e+01
 1.786268e+00	 3.959707e-01	 1.328277e+01
 1.812965e+00	 2.964178e-01	 1.319572e+01
 1.809551e+00	 3.165932e-01	 1.320752e+01
 1.805899e+00	 3.368004e-01	 1.321934e+01
 1.802007e+00	 3.570355e-01	 1.323016e+01
 1.797875e+00	 3.772947e-01	 1.323861e+01
 1.793499e+00	 3.975739e-01	 1.325080e+01
 1.820275e+00	 2.976130e-01	 1.316334e+01
 1.816847e+00	 3.178698e-01	 1.317557e+01
 1.813181e+00	 3.381584e-01	 1.318769e+01
 1.809274e+00	 3.584752e-01	 1.319861e+01
 1.805124e+00	 3.788160e-01	 1.320703e+01
 1.800731e+00	 3.991770e-01	 1.321930e+01
 1.827586e+00	 2.988082e-01	 1.313097e+01
 1.824144e+00	 3.191463e-01	 1.314384e+01
 1.820463e+00	 3.395165e-01	 1.315637e+01
 1.816540e+00	 3.599148e-01	 1.316744e+01
 1.812374e+00	 3.803374e-01	 1.317588e+01
 1.807963e+00	 4.007801e-01	 1.318821e+01
 1.771804e+00	 3.927645e-01	 1.334853e+01
 1.767240e+00	 4.128142e-01	 1.336590e+01
 1.762433e+00	 4.328757e-01	 1.338331e+01
 1.757383e+00	 4.529449e-01	 1.339997e+01
 1.752087e+00	 4.730176e-01	 1.341514e+01
 1.746544e+00	 4.930895e-01	 1.342814e+01
 1.779036e+00	 3.943676e-01	 1.331532e+01
 1.774453e+00	 4.144992e-01	 1.333290e+01
 1.769627e+00	 4.346426e-01	 1.335078e+01
 1.764556e+00	 4.547936e-01	 1.336803e+01
 1.759238e+00	 4.749482e-01	 1.338375e+01
 1.753673e+00	 4.951021e-01	 1.339712e+01
 1.786268e+00	 3.959707e-01	 1.328277e+01
 1.781666e+00	 4.161841e-01	 1.330053e+01
 1.776821e+00	 4.364094e-01	 1.331881e+01
 1.771729e+00	 4.566424e-01	 1.333657e+01
 1.766389e+00	 4.768789e-01	 1.335277e+01
 1.760801e+00	 4.971148e-01	 1.336645e+01
 1.793499e+00	 3.975739e-01	 1.325080e+01
 1.788880e+00	 4.178691e-01	 1.326869e+01
 1.784014e+00	 4.381762e-01	 1.328732e+01
 1.778902e+00	 4.584911e-01	 1.330551e+01
 1.773541e+00	 4.788096e-01	 1.332214e+01
 1.767930e+00	 4.991274e-01	 1.333612e+01
 1.800731e+00	 3.991770e-01	 1.321930e+01
 1.796093e+00	 4.195541e-01	 1.323729e+01
 1.791208e+00	 4.399431e-01	 1.325620e+01
 1.786075e+00	 4.603399e-01	 1.327478e+01
 1.780692e+00	 4.807403e-01	 1.329179e+01
 1.775059e+00	 5.011400e-01	 1.330608e+01
 1.807963e+00	 4.007801e-01	 1.318821e+01
 1.803306e+00	 4.212390e-01	 1.320623e+01
 1.798401e+00	 4.417099e-01	 1.322537e+01
 1.793248e+00	 4.621887e-01	 1.324429e+01
 1.787843e+00	 4.826710e-01	 1.326168e+01
 1.782188e+00	 5.031526e-01	 1.327631e+01
 1.746544e+00	 4.930895e-01	 1.342814e+01
 1.740754e+00	 5.131565e-01	 1.344030e+01
 1.734715e+00	 5.332143e-01	 1.345310e+01
 1.728426e+00	 5.532583e-01	 1.346636e+01
 1.721888e+00	 5.732844e-01	 1.348022e+01
 1.715098e+00	 5.932879e-01	 1.349515e+01
 1.753673e+00	 4.951021e-01	 1.339712e+01
 1.747859e+00	 5.152511e-01	 1.340948e+01
 1.741795e+00	 5.353906e-01	 1.342246e+01
 1.735481e+00	 5.555165e-01	 1.343591e+01
 1.728916e+00	 5.756243e-01	 1.344998e+01
 1.722099e+00	 5.957095e-01	 1.346516e+01
 1.760801e+00	 4.971148e-01	 1.336645e+01
 1.754964e+00	 5.173456e-01	 1.337900e+01
 1.748876e+00	 5.375670e-01	 1.339214e+01
 1.742536e+00	 5.577747e-01	 1.340575e+01
 1.735944e+00	 5.779642e-01	 1.342000e+01
 1.729099e+00	 5.981311e-01	 1.343541e+01
 1.767930e+00	 4.991274e-01	 1.333612e+01
 1.762069e+00	 5.194401e-01	 1.334885e+01
 1.755956e+00	 5.397434e-01	 1.336215e+01
 1.749591e+00	 5.600329e-01	 1.337593e+01
 1.742972e+00	 5.803042e-01	 1.339037e+01
 1.736100e+00	 6.005526e-01	 1.340598e+01
 1.775059e+00	 5.011400e-01	 1.330608e+01
 1.769174e+00	 5.215346e-01	 1.331903e+01
 1.763037e+00	 5.419198e-01	 1.333253e+01
 1.756646e+00	 5.622911e-01	 1.334651e+01
 1.750000e+00	 5.826441e-01	 1.336115e+01
 1.743100e+00	 6.029742e-01	 1.337697e+01
 1.782188e+00	 5.031526e-01	 1.327631e+01
 1.776279e+00	 5.236291e-01	 1.328954e+01
 1.770117e+00	 5.440962e-01	 1.330331e+01
 1.763700e+00	 5.645493e-01	 1.331754e+01
 1.757028e+00	 5.849840e-01	 1.333241e+01
 1.750100e+00	 6.053958e-01	 1.334847e+01
 1.715098e+00	 5.932879e-01	 1.349515e+01
 1.708057e+00	 6.132644e-01	 1.350728e+01
 1.700764e+00	 6.332095e-01	 1.351338e+01
 1.693219e+00	 6.531184e-01	 1.351553e+01
 1.685420e+00	 6.729867e-01	 1.351641e+01
 1.677369e+00	 6.928098e-01	 1.351938e+01
 1.722099e+00	 5.957095e-01	 1.346516e+01
 1.715029e+00	 6.157676e-01	 1.347786e+01
 1.707706e+00	 6.357940e-01	 1.348488e+01
 1.700130e+00	 6.557842e-01	 1.348803e+01
 1.692300e+00	 6.757336e-01	 1.348974e+01
 1.684216e+00	 6.956376e-01	 1.349306e+01
 1.729099e+00	 5.981311e-01	 1.343541e+01
 1.722001e+00	 6.182707e-01	 1.344862e+01
 1.714648e+00	 6.383785e-01	 1.345652e+01
 1.707041e+00	 6.584500e-01	 1.346065e+01
 1.699179e+00	 6.784805e-01	 1.346315e+01
 1.691062e+00	 6.984654e-01	 1.346681e+01
 1.736100e+00	 6.005526e-01	 1.340598e+01
 1.728972e+00	 6.207738e-01	 1.341968e+01
 1.721590e+00	 6.409631e-01	 1.342844e+01
 1.713952e+00	 6.611158e-01	 1.343353e+01
 1.706058e+00	 6.812274e-01	 1.343680e+01
 1.697908e+00	 7.012932e-01	 1.344079e+01
 1.743100e+00	 6.029742e-01	 1.337697e+01
 1.735944e+00	 6.232769e-01	 1.339116e+01
 1.728532e+00	 6.435476e-01	 1.340076e+01
 1.720863e+00	 6.637816e-01	 1.340679e+01
 1.712937e+00	 6.839743e-01	 1.341083e+01
 1.704755e+00	 7.041210e-01	 1.341515e+01
 1.750100e+00	 6.053958e-01	 1.334847e+01
 1.742916e+00	 6.257800e-01	 1.336315e+01
 1.735474e+00	 6.461321e-01	 1.337360e+01
 1.727774e+00	 6.664474e-01	 1.338056e+01
 1.719817e+00	 6.867212e-01	 1.338538e+01
 1.711601e+00	 7.069488e-01	 1.339003e+01
 1.677369e+00	 6.928098e-01	 1.351938e+01
 1.669065e+00	 7.125829e-01	 1.352173e+01
 1.660508e+00	 7.323014e-01	 1.352122e+01
 1.651699e+00	 7.519607e-01	 1.352140e+01
 1.642636e+00	 7.715560e-01	 1.351754e+01
 1.633322e+00	 7.910826e-01	 1.350837e+01
 1.684216e+00	 6.956376e-01	 1.349306e+01
 1.675878e+00	 7.154914e-01	 1.349562e+01
 1.667286e+00	 7.352904e-01	 1.349570e+01
 1.658440e+00	 7.550299e-01	 1.349594e+01
 1.649341e+00	 7.747052e-01	 1.349214e+01
 1.639989e+00	 7.943115e-01	 1.348361e+01
 1.691062e+00	 6.984654e-01	 1.346681e+01
 1.682690e+00	 7.183999e-01	 1.346959e+01
 1.674063e+00	 7.382794e-01	 1.347024e+01
 1.665182e+00	 7.580991e-01	 1.347045e+01
 1.656046e+00	 7.778544e-01	 1.346684e+01
 1.646655e+00	 7.975404e-01	 1.345907e+01
 1.697908e+00	 7.012932e-01	 1.344079e+01
 1.689503e+00	 7.213084e-01	 1.344378e+01
 1.680841e+00	 7.412684e-01	 1.344498e+01
 1.671923e+00	 7.611684e-01	 1.344512e+01
 1.662750e+00	 7.810036e-01	 1.344180e+01
 1.653322e+00	 8.007693e-01	 1.343486e+01
 1.704755e+00	 7.041210e-01	 1.341515e+01
 1.696315e+00	 7.242169e-01	 1.341834e+01
 1.687619e+00	 7.442574e-01	 1.342000e+01
 1.678665e+00	 7.642376e-01	 1.342011e+01
 1.669455e+00	 7.841528e-01	 1.341715e+01
 1.659989e+00	 8.039982e-01	 1.341106e+01
 1.711601e+00	 7.069488e-01	 1.339003e+01
 1.703128e+00	 7.271254e-01	 1.339342e+01
 1.694396e+00	 7.472463e-01	 1.339542e+01
 1.685407e+00	 7.673068e-01	 1.339558e+01
 1.676160e+00	 7.873020e-01	 1.339301e+01
 1.666655e+00	 8.072271e-01	 1.338776e+01
 1.633322e+00	 7.910826e-01	 1.350837e+01
 1.623756e+00	 8.105358e-01	 1.349333e+01
 1.613940e+00	 8.299109e-01	 1.347429e+01
 1.603872e+00	 8.492031e-01	 1.345415e+01
 1.593556e+00	 8.684078e-01	 1.343552e+01
 1.582991e+00	 8.875201e-01	 1.342052e+01
 1.639989e+00	 7.943115e-01	 1.348361e+01
 1.630384e+00	 8.138441e-01	 1.346954e+01
 1.620527e+00	 8.332983e-01	 1.345137e+01
 1.610419e+00	 8.526692e-01	 1.343198e+01
 1.600060e+00	 8.719523e-01	 1.341391e+01
 1.589452e+00	 8.911426e-01	 1.339921e+01
 1.646655e+00	 7.975404e-01	 1.345907e+01
 1.637011e+00	 8.171524e-01	 1.344601e+01
 1.627115e+00	 8.366857e-01	 1.342869e+01
 1.616965e+00	 8.561354e-01	 1.340996e+01
 1.606565e+00	 8.754968e-01	 1.339230e+01
 1.595914e+00	 8.947651e-01	 1.337774e+01
 1.653322e+00	 8.007693e-01	 1.343486e+01
 1.643639e+00	 8.204607e-01	 1.342281e+01
 1.633702e+00	 8.400731e-01	 1.340630e+01
 1.623512e+00	 8.596015e-01	 1.338813e+01
 1.613069e+00	 8.790413e-01	 1.337076e+01
 1.602375e+00	 8.983877e-01	 1.335621e+01
 1.659989e+00	 8.039982e-01	 1.341106e+01
 1.650267e+00	 8.237690e-01	 1.340002e+01
 1.640290e+00	 8.434605e-01	 1.338425e+01
 1.630058e+00	 8.630677e-01	 1.336654e+01
 1.619573e+00	 8.825858e-01	 1.334935e+01
 1.608836e+00	 9.020102e-01	 1.333467e+01
 1.666655e+00	 8.072271e-01	 1.338776e+01
 1.656894e+00	 8.270773e-01	 1.337768e+01
 1.646877e+00	 8.468478e-01	 1.336256e+01
 1.636605e+00	 8.665338e-01	 1.334521e+01
 1.626078e+00	 8.861304e-01	 1.332809e+01
 1.615297e+00	 9.056327e-01	 1.331320e+01
 1.582991e+00	 8.875201e-01	 1.342052e+01
 1.572179e+00	 9.065354e-01	 1.340363e+01
 1.561120e+00	 9.254490e-01	 1.337861e+01
 1.549817e+00	 9.442561e-01	 1.334553e+01
 1.538270e+00	 9.629522e-01	 1.330341e+01
 1.526482e+00	 9.815325e-01	 1.325014e+01
 1.589452e+00	 8.911426e-01	 1.339921e+01
 1.578596e+00	 9.102355e-01	 1.338239e+01
 1.567492e+00	 9.292263e-01	 1.335741e+01
 1.556143e+00	 9.481102e-01	 1.332454e+01
 1.544549e+00	 9.668826e-01	 1.328302e+01
 1.532712e+00	 9.855387e-01	 1.323098e+01
 1.595914e+00	 8.947651e-01	 1.337774e+01
 1.585013e+00	 9.139357e-01	 1.336092e+01
 1.573864e+00	 9.330036e-01	 1.333608e+01
 1.562469e+00	 9.519643e-01	 1.330361e+01
 1.550828e+00	 9.708130e-01	 1.326295e+01
 1.538943e+00	 9.895450e-01	 1.321237e+01
 1.602375e+00	 8.983877e-01	 1.335621e+01
 1.591430e+00	 9.176358e-01	 1.333933e+01
 1.580236e+00	 9.367810e-01	 1.331471e+01
 1.568795e+00	 9.558184e-01	 1.328281e+01
 1.557106e+00	 9.747434e-01	 1.324318e+01
 1.545173e+00	 9.935513e-01	 1.319422e+01
 1.608836e+00	 9.020102e-01	 1.333467e+01
 1.597847e+00	 9.213360e-01	 1.331771e+01
 1.586608e+00	 9.405583e-01	 1.329337e+01
 1.575120e+00	 9.596725e-01	 1.326218e+01
 1.563385e+00	 9.786738e-01	 1.322371e+01
 1.551404e+00	 9.975575e-01	 1.317643e+01
 1.615297e+00	 9.056327e-01	 1.331320e+01
 1.604264e+00	 9.250361e-01	 1.329612e+01
 1.592980e+00	 9.443357e-01	 1.327213e+01
 1.581446e+00	 9.635266e-01	 1.324174e+01
 1.569664e+00	 9.826043e-01	 1.320450e+01
 1.557635e+00	 1.001564e+00	 1.315887e+01
 1.526482e+00	 9.815325e-01	 1.325014e+01
 1.514453e+00	 9.999925e-01	 1.320074e+01
 1.502186e+00	 1.018327e+00	 1.316629e+01
 1.489682e+00	 1.036533e+00	 1.313636e+01
 1.476944e+00	 1.054604e+00	 1.309903e+01
 1.463973e+00	 1.072537e+00	 1.304429e+01
 1.532712e+00	 9.855387e-01	 1.323098e+01
 1.520634e+00	 1.004074e+00	 1.318321e+01
 1.508317e+00	 1.022484e+00	 1.315045e+01
 1.495762e+00	 1.040764e+00	 1.312231e+01
 1.482972e+00	 1.058909e+00	 1.308633e+01
 1.469948e+00	 1.076915e+00	 1.303069e+01
 1.538943e+00	 9.895450e-01	 1.321237e+01
 1.526816e+00	 1.008156e+00	 1.316628e+01
 1.514448e+00	 1.026640e+00	 1.313500e+01
 1.501843e+00	 1.044994e+00	 1.310823e+01
 1.489000e+00	 1.063213e+00	 1.307359e+01
 1.475924e+00	 1.081293e+00	 1.301709e+01
 1.545173e+00	 9.935513e-01	 1.319422e+01
 1.532997e+00	 1.012237e+00	 1.314979e+01
 1.520580e+00	 1.030797e+00	 1.311970e+01
 1.507923e+00	 1.049225e+00	 1.309384e+01
 1.495029e+00	 1.067518e+00	 1.305995e+01
 1.481899e+00	 1.085671e+00	 1.300345e+01
 1.551404e+00	 9.975575e-01	 1.317643e+01
 1.539179e+00	 1.016319e+00	 1.313353e+01
 1.526711e+00	 1.034953e+00	 1.310432e+01
 1.514003e+00	 1.053456e+00	 1.307888e+01
 1.501057e+00	 1.071822e+00	 1.304515e+01
 1.487874e+00	 1.090048e+00	 1.298870e+01
 1.557635e+00	 1.001564e+00	 1.315887e+01
 1.545360e+00	 1.020400e+00	 1.311731e+01
 1.532843e+00	 1.039110e+00	 1.308859e+01
 1.520084e+00	 1.057687e+00	 1.306305e+01
 1.507085e+00	 1.076127e+00	 1.302888e+01
 1.493850e+00	 1.094426e+00	 1.297188e+01
 1.463973e+00	 1.072537e+00	 1.304429e+01
 1.450772e+00	 1.090327e+00	 1.297922e+01
 1.437343e+00	 1.107970e+00	 1.290219e+01
 1.423689e+00	 1.125461e+00	 1.281014e+01
 1.409812e+00	 1.142796e+00	 1.273956e+01
 1.395715e+00	 1.159971e+00	 1.268155e+01
 1.469948e+00	 1.076915e+00	 1.303069e+01
 1.456693e+00	 1.094778e+00	 1.296403e+01
 1.443210e+00	 1.112492e+00	 1.288136e+01
 1.429500e+00	 1.130055e+00	 1.279839e+01
 1.415566e+00	 1.147461e+00	 1.273383e+01
 1.401412e+00	 1.164706e+00	 1.267698e+01
 1.475924e+00	 1.081293e+00	 1.301709e+01
 1.462615e+00	 1.099228e+00	 1.294749e+01
 1.449076e+00	 1.117015e+00	 1.286196e+01
 1.435311e+00	 1.134649e+00	 1.278788e+01
 1.421321e+00	 1.152125e+00	 1.272828e+01
 1.407108e+00	 1.169440e+00	 1.267199e+01
 1.481899e+00	 1.085671e+00	 1.300345e+01
 1.468536e+00	 1.103678e+00	 1.292964e+01
 1.454943e+00	 1.121537e+00	 1.284485e+01
 1.441122e+00	 1.139242e+00	 1.277828e+01
 1.427075e+00	 1.156790e+00	 1.272268e+01
 1.412805e+00	 1.174175e+00	 1.266646e+01
 1.487874e+00	 1.090048e+00	 1.298870e+01
 1.474458e+00	 1.108129e+00	 1.291045e+01
 1.460810e+00	 1.126059e+00	 1.282953e+01
 1.446933e+00	 1.143836e+00	 1.276919e+01
 1.432829e+00	 1.161454e+00	 1.271675e+01
 1.418502e+00	 1.178909e+00	 1.266024e+01
 1.493850e+00	 1.094426e+00	 1.297188e+01
 1.480379e+00	 1.112579e+00	 1.289009e+01
 1.466677e+00	 1.130582e+00	 1.281551e+01
 1.452744e+00	 1.148430e+00	 1.276022e+01
 1.438584e+00	 1.166119e+00	 1.271020e+01
 1.424199e+00	 1.183644e+00	 1.265315e+01
 1.395715e+00	 1.159971e+00	 1.268155e+01
 1.381400e+00	 1.176982e+00	 1.261484e+01
 1.366872e+00	 1.193824e+00	 1.252825e+01
 1.352131e+00	 1.210493e+00	 1.242873e+01
 1.337182e+00	 1.226987e+00	 1.232451e+01
 1.322029e+00	 1.243299e+00	 1.222485e+01
 1.401412e+00	 1.164706e+00	 1.267698e+01
 1.387039e+00	 1.181786e+00	 1.260922e+01
 1.372451e+00	 1.198696e+00	 1.252222e+01
 1.357650e+00	 1.215434e+00	 1.242284e+01
 1.342640e+00	 1.231995e+00	 1.231930e+01
 1.327425e+00	 1.248374e+00	 1.222088e+01
 1.407108e+00	 1.169440e+00	 1.267199e+01
 1.392677e+00	 1.186590e+00	 1.260299e+01
 1.378030e+00	 1.203569e+00	 1.251566e+01
 1.363169e+00	 1.220375e+00	 1.241669e+01
 1.348098e+00	 1.237003e+00	 1.231413e+01
 1.332821e+00	 1.253449e+00	 1.221717e+01
 1.412805e+00	 1.174175e+00	 1.266646e+01
 1.398316e+00	 1.191394e+00	 1.259613e+01
 1.383609e+00	 1.208442e+00	 1.250864e+01
 1.368688e+00	 1.225316e+00	 1.241035e+01
 1.353556e+00	 1.242011e+00	 1.230907e+01
 1.338217e+00	 1.258523e+00	 1.221375e+01
 1.418502e+00	 1.178909e+00	 1.266024e+01
 1.403954e+00	 1.196198e+00	 1.258861e+01
 1.389188e+00	 1.213315e+00	 1.250118e+01
 1.374207e+00	 1.230256e+00	 1.240388e+01
 1.359014e+00	 1.247019e+00	 1.230416e+01
 1.343613e+00	 1.263598e+00	 1.221061e+01
 1.424199e+00	 1.183644e+00	 1.265315e+01
 1.409592e+00	 1.201002e+00	 1.258035e+01
 1.394767e+00	 1.218187e+00	 1.249325e+01
 1.379726e+00	 1.235197e+00	 1.239728e+01
 1.364472e+00	 1.252027e+00	 1.229939e+01
 1.349009e+00	 1.268673e+00	 1.220772e+01
 1.322029e+00	 1.243299e+00	 1.222485e+01
 1.306673e+00	 1.259428e+00	 1.212011e+01
 1.291118e+00	 1.275369e+00	 1.199973e+01
 1.275369e+00	 1.291118e+00	 1.187196e+01
 1.259428e+00	 1.306673e+00	 1.174461e+01
 1.243299e+00	 1.322029e+00	 1.162467e+01
 1.327425e+00	 1.248374e+00	 1.222088e+01
 1.312006e+00	 1.264569e+00	 1.211765e+01
 1.296388e+00	 1.280575e+00	 1.199867e+01
 1.280575e+00	 1.296388e+00	 1.187208e+01
 1.264569e+00	 1.312006e+00	 1.174559e+01
 1.248374e+00	 1.327425e+00	 1.162609e+01
 1.332821e+00	 1.253449e+00	 1.221717e+01
 1.317339e+00	 1.269709e+00	 1.211551e+01
 1.301658e+00	 1.285780e+00	 1.199784e+01
 1.285780e+00	 1.301658e+00	 1.187229e+01
 1.269709e+00	 1.317339e+00	 1.174650e+01
 1.253449e+00	 1.332821e+00	 1.162732e+01
 1.338217e+00	 1.258523e+00	 1.221375e+01
 1.322673e+00	 1.274850e+00	 1.211366e+01
 1.306928e+00	 1.290986e+00	 1.199721e+01
 1.290986e+00	 1.306928e+00	 1.187251e+01
 1.274850e+00	 1.322673e+00	 1.174725e+01
 1.258523e+00	 1.338217e+00	 1.162829e+01
 1.343613e+00	 1.263598e+00	 1.221061e+01
 1.328006e+00	 1.279990e+00	 1.211205e+01
 1.312198e+00	 1.296191e+00	 1.199666e+01
 1.296191e+00	 1.312198e+00	 1.187262e+01
 1.279990e+00	 1.328006e+00	 1.174772e+01
 1.263598e+00	 1.343613e+00	 1.162889e+01
 1.349009e+00	 1.268673e+00	 1.220772e+01
 1.333340e+00	 1.285131e+00	 1.211060e+01
 1.317468e+00	 1.301397e+00	 1.199608e+01
 1.301397e+00	 1.317468e+00	 1.187249e+01
 1.285131e+00	 1.333340e+00	 1.174776e+01
 1.268673e+00	 1.349009e+00	 1.162896e+01
 1.243299e+00	 1.322029e+00	 1.162467e+01
 1.226987e+00	 1.337182e+00	 1.150221e+01
 1.210493e+00	 1.352131e+00	 1.136828e+01
 1.193824e+00	 1.366872e+00	 1.122902e+01
 1.176982e+00	 1.381400e+00	 1.108835e+01
 1.159971e+00	 1.395715e+00	 1.094764e+01
 1.248374e+00	 1.327425e+00	 1.162609e+01
 1.231995e+00	 1.342640e+00	 1.150382e+01
 1.215434e+00	 1.357650e+00	 1.137009e+01
 1.198696e+00	 1.372451e+00	 1.123099e+01
 1.181786e+00	 1.387039e+00	 1.109036e+01
 1.164706e+00	 1.401412e+00	 1.094940e+01
 1.253449e+00	 1.332821e+00	 1.162732e+01
 1.237003e+00	 1.348098e+00	 1.150524e+01
 1.220375e+00	 1.363169e+00	 1.137177e+01
 1.203569e+00	 1.378030e+00	 1.123294e+01
 1.186590e+00	 1.392677e+00	 1.109245e+01
 1.169440e+00	 1.407108e+00	 1.095132e+01
 1.258523e+00	 1.338217e+00	 1.162829e+01
 1.242011e+00	 1.353556e+00	 1.150639e+01
 1.225316e+00	 1.368688e+00	 1.137327e+01
 1.208442e+00	 1.383609e+00	 1.123484e+01
 1.191394e+00	 1.398316e+00	 1.109463e+01
 1.174175e+00	 1.412805e+00	 1.095342e+01
 1.263598e+00	 1.343613e+00	 1.162889e+01
 1.247019e+00	 1.359014e+00	 1.150718e+01
 1.230256e+00	 1.374207e+00	 1.137450e+01
 1.213315e+00	 1.389188e+00	 1.123661e+01
 1.196198e+00	 1.403954e+00	 1.109683e+01
 1.178909e+00	 1.418502e+00	 1.095566e+01
 1.268673e+00	 1.349009e+00	 1.162896e+01
 1.252027e+00	 1.364472e+00	 1.150748e+01
 1.235197e+00	 1.379726e+00	 1.137535e+01
 1.218187e+00	 1.394767e+00	 1.123816e+01
 1.201002e+00	 1.409592e+00	 1.109897e+01
 1.183644e+00	 1.424199e+00	 1.095798e+01
 1.159971e+00	 1.395715e+00	 1.094764e+01
 1.142796e+00	 1.409812e+00	 1.079963e+01
 1.125461e+00	 1.423689e+00	 1.064392e+01
 1.107970e+00	 1.437343e+00	 1.048797e+01
 1.090327e+00	 1.450772e+00	 1.033783e+01
 1.072537e+00	 1.463973e+00	 1.018582e+01
 1.164706e+00	 1.401412e+00	 1.094940e+01
 1.147461e+00	 1.415566e+00	 1.080282e+01
 1.130055e+00	 1.429500e+00	 1.065091e+01
 1.112492e+00	 1.443210e+00	 1.049880e+01
 1.094778e+00	 1.456693e+00	 1.035009e+01
 1.076915e+00	 1.469948e+00	 1.019783e+01
 1.169440e+00	 1.407108e+00	 1.095132e+01
 1.152125e+00	 1.421321e+00	 1.080599e+01
 1.134649e+00	 1.435311e+00	 1.065731e+01
 1.117015e+00	 1.449076e+00	 1.050827e+01
 1.099228e+00	 1.462615e+00	 1.035958e+01
 1.081293e+00	 1.475924e+00	 1.020500e+01
 1.174175e+00	 1.412805e+00	 1.095342e+01
 1.156790e+00	 1.427075e+00	 1.080919e+01
 1.139242e+00	 1.441122e+00	 1.066322e+01
 1.121537e+00	 1.454943e+00	 1.051645e+01
 1.103678e+00	 1.468536e+00	 1.036677e+01
 1.085671e+00	 1.481899e+00	 1.020796e+01
 1.178909e+00	 1.418502e+00	 1.095566e+01
 1.161454e+00	 1.432829e+00	 1.081243e+01
 1.143836e+00	 1.446933e+00	 1.066871e+01
 1.126059e+00	 1.460810e+00	 1.052346e+01
 1.108129e+00	 1.474458e+00	 1.037205e+01
 1.090048e+00	 1.487874e+00	 1.021075e+01
 1.183644e+00	 1.424199e+00	 1.095798e+01
 1.166119e+00	 1.438584e+00	 1.081566e+01
 1.148430e+00	 1.452744e+00	 1.067379e+01
 1.130582e+00	 1.466677e+00	 1.052942e+01
 1.112579e+00	 1.480379e+00	 1.037576e+01
 1.094426e+00	 1.493850e+00	 1.021560e+01
 1.072537e+00	 1.463973e+00	 1.018582e+01
 1.054604e+00	 1.476944e+00	 1.003409e+01
 1.036533e+00	 1.489682e+00	 9.877283e+00
 1.018327e+00	 1.502186e+00	 9.726651e+00
 9.999925e-01	 1.514453e+00	 9.572631e+00
 9.815325e-01	 1.526482e+00	 9.404466e+00
 1.076915e+00	 1.469948e+00	 1.019783e+01
 1.058909e+00	 1.482972e+00	 1.003892e+01
 1.040764e+00	 1.495762e+00	 9.885405e+00
 1.022484e+00	 1.508317e+00	 9.737927e+00
 1.004074e+00	 1.520634e+00	 9.585083e+00
 9.855387e-01	 1.532712e+00	 9.417232e+00
 1.081293e+00	 1.475924e+00	 1.020500e+01
 1.063213e+00	 1.489000e+00	 1.004357e+01
 1.044994e+00	 1.501843e+00	 9.894946e+00
 1.026640e+00	 1.514448e+00	 9.749790e+00
 1.008156e+00	 1.526816e+00	 9.597711e+00
 9.895450e-01	 1.538943e+00	 9.430153e+00
 1.085671e+00	 1.481899e+00	 1.020796e+01
 1.067518e+00	 1.495029e+00	 1.005021e+01
 1.049225e+00	 1.507923e+00	 9.905257e+00
 1.030797e+00	 1.520580e+00	 9.761636e+00
 1.012237e+00	 1.532997e+00	 9.609938e+00
 9.935513e-01	 1.545173e+00	 9.442655e+00
 1.090048e+00	 1.487874e+00	 1.021075e+01
 1.071822e+00	 1.501057e+00	 1.005812e+01
 1.053456e+00	 1.514003e+00	 9.915688e+00
 1.034953e+00	 1.526711e+00	 9.772860e+00
 1.016319e+00	 1.539179e+00	 9.621181e+00
 9.975575e-01	 1.551404e+00	 9.454163e+00
 1.094426e+00	 1.493850e+00	 1.021560e+01
 1.076127e+00	 1.507085e+00	 1.006659e+01
 1.057687e+00	 1.520084e+00	 9.925591e+00
 1.039110e+00	 1.532843e+00	 9.782857e+00
 1.020400e+00	 1.545360e+00	 9.630859e+00
 1.001564e+00	 1.557635e+00	 9.464098e+00
 9.815325e-01	 1.526482e+00	 9.404466e+00
 9.629522e-01	 1.538270e+00	 9.230866e+00
 9.442561e-01	 1.549817e+00	 9.064584e+00
 9.254490e-01	 1.561120e+00	 8.903063e+00
 9.065354e-01	 1.572179e+00	 8.744894e+00
 8.875201e-01	 1.582991e+00	 8.589655e+00
 9.855387e-01	 1.532712e+00	 9.417232e+00
 9.668826e-01	 1.544549e+00	 9.244328e+00
 9.481102e-01	 1.556143e+00	 9.079350e+00
 9.292263e-01	 1.567492e+00	 8.919382e+00
 9.102355e-01	 1.578596e+00	 8.762659e+00
 8.911426e-01	 1.589452e+00	 8.608401e+00
 9.895450e-01	 1.538943e+00	 9.430153e+00
 9.708130e-01	 1.550828e+00	 9.258089e+00
 9.519643e-01	 1.562469e+00	 9.094512e+00
 9.330036e-01	 1.573864e+00	 8.936137e+00
 9.139357e-01	 1.585013e+00	 8.780830e+00
 8.947651e-01	 1.595914e+00	 8.627442e+00
 9.935513e-01	 1.545173e+00	 9.442655e+00
 9.747434e-01	 1.557106e+00	 9.271575e+00
 9.558184e-01	 1.568795e+00	 9.109509e+00
 9.367810e-01	 1.580236e+00	 8.952789e+00
 9.176358e-01	 1.591430e+00	 8.798899e+00
 8.983877e-01	 1.602375e+00	 8.646313e+00
 9.975575e-01	 1.551404e+00	 9.454163e+00
 9.786738e-01	 1.563385e+00	 9.284210e+00
 9.596725e-01	 1.575120e+00	 9.123776e+00
 9.405583e-01	 1.586608e+00	 8.968793e+00
 9.213360e-01	 1.597847e+00	 8.816354e+00
 9.020102e-01	 1.608836e+00	 8.664544e+00
 1.001564e+00	 1.557635e+00	 9.464098e+00
 9.826043e-01	 1.569664e+00	 9.295418e+00
 9.635266e-01	 1.581446e+00	 9.136745e+00
 9.443357e-01	 1.592980e+00	 8.983602e+00
 9.250361e-01	 1.604264e+00	 8.832679e+00
 9.056327e-01	 1.615297e+00	 8.681661e+00
 8.875201e-01	 1.582991e+00	 8.589655e+00
 8.684078e-01	 1.593556e+00	 8.430320e+00
 8.492031e-01	 1.603872e+00	 8.261278e+00
 8.299109e-01	 1.613940e+00	 8.085257e+00
 8.105358e-01	 1.623756e+00	 7.905384e+00
 7.910826e-01	 1.633322e+00	 7.725055e+00
 8.911426e-01	 1.589452e+00	 8.608401e+00
 8.719523e-01	 1.600060e+00	 8.449418e+00
 8.526692e-01	 1.610419e+00	 8.280450e+00
 8.332983e-01	 1.620527e+00	 8.104656e+00
 8.138441e-01	 1.630384e+00	 7.925606e+00
 7.943115e-01	 1.639989e+00	 7.747150e+00
 8.947651e-01	 1.595914e+00	 8.627442e+00
 8.754968e-01	 1.606565e+00	 8.468717e+00
 8.561354e-01	 1.616965e+00	 8.299828e+00
 8.366857e-01	 1.627115e+00	 8.124321e+00
 8.171524e-01	 1.637011e+00	 7.946165e+00
 7.975404e-01	 1.646655e+00	 7.769615e+00
 8.983877e-01	 1.602375e+00	 8.646313e+00
 8.790413e-01	 1.613069e+00	 8.487794e+00
 8.596015e-01	 1.623512e+00	 8.319014e+00
 8.400731e-01	 1.633702e+00	 8.143862e+00
 8.204607e-01	 1.643639e+00	 7.966664e+00
 8.007693e-01	 1.653322e+00	 7.792032e+00
 9.020102e-01	 1.608836e+00	 8.664544e+00
 8.825858e-01	 1.619573e+00	 8.506219e+00
 8.630677e-01	 1.630058e+00	 8.337600e+00
 8.434605e-01	 1.640290e+00	 8.162882e+00
 8.237690e-01	 1.650267e+00	 7.986698e+00
 8.039982e-01	 1.659989e+00	 7.813975e+00
 9.056327e-01	 1.615297e+00	 8.681661e+00
 8.861304e-01	 1.626078e+00	 8.523556e+00
 8.665338e-01	 1.636605e+00	 8.355175e+00
 8.468478e-01	 1.646877e+00	 8.180975e+00
 8.270773e-01	 1.656894e+00	 8.005857e+00
 8.072271e-01	 1.666655e+00	 7.835014e+00
 7.910826e-01	 1.633322e+00	 7.725055e+00
 7.715560e-01	 1.642636e+00	 7.561798e+00
 7.519607e-01	 1.651699e+00	 7.419341e+00
 7.323014e-01	 1.660508e+00	 7.280234e+00
 7.125829e-01	 1.669065e+00	 7.132191e+00
 6.928098e-01	 1.677369e+00	 6.972931e+00
 7.943115e-01	 1.639989e+00	 7.747150e+00
 7.747052e-01	 1.649341e+00	 7.585764e+00
 7.550299e-01	 1.658440e+00	 7.444389e+00
 7.352904e-01	 1.667286e+00	 7.306405e+00
 7.154914e-01	 1.675878e+00	 7.158687e+00
 6.956376e-01	 1.684216e+00	 6.999063e+00
 7.975404e-01	 1.646655e+00	 7.769615e+00
 7.778544e-01	 1.656046e+00	 7.610054e+00
 7.580991e-01	 1.665182e+00	 7.469635e+00
 7.382794e-01	 1.674063e+00	 7.332637e+00
 7.183999e-01	 1.682690e+00	 7.185389e+00
 6.984654e-01	 1.691062e+00	 7.025507e+00
 8.007693e-01	 1.653322e+00	 7.792032e+00
 7.810036e-01	 1.662750e+00	 7.634226e+00
 7.611684e-01	 1.671923e+00	 7.494633e+00
 7.412684e-01	 1.680841e+00	 7.358433e+00
 7.213084e-01	 1.689503e+00	 7.211823e+00
 7.012932e-01	 1.697908e+00	 7.051830e+00
 8.039982e-01	 1.659989e+00	 7.813975e+00
 7.841528e-01	 1.669455e+00	 7.657835e+00
 7.642376e-01	 1.678665e+00	 7.518928e+00
 7.442574e-01	 1.687619e+00	 7.383344e+00
 7.242169e-01	 1.696315e+00	 7.237507e+00
 7.041210e-01	 1.704755e+00	 7.077588e+00
 8.072271e-01	 1.666655e+00	 7.835014e+00
 7.873020e-01	 1.676160e+00	 7.680430e+00
 7.673068e-01	 1.685407e+00	 7.542062e+00
 7.472463e-01	 1.694396e+00	 7.406929e+00
 7.271254e-01	 1.703128e+00	 7.261954e+00
 7.069488e-01	 1.711601e+00	 7.102330e+00
 6.928098e-01	 1.677369e+00	 6.972931e+00
 6.729867e-01	 1.685420e+00	 6.804816e+00
 6.531184e-01	 1.693219e+00	 6.636263e+00
 6.332095e-01	 1.700764e+00	 6.473870e+00
 6.132644e-01	 1.708057e+00	 6.323194e+00
 5.932879e-01	 1.715098e+00	 6.188652e+00
 6.956376e-01	 1.684216e+00	 6.999063e+00
 6.757336e-01	 1.692300e+00	 6.831344e+00
 6.557842e-01	 1.700130e+00	 6.664454e+00
 6.357940e-01	 1.707706e+00	 6.504398e+00
 6.157676e-01	 1.715029e+00	 6.356067e+00
 5.957095e-01	 1.722099e+00	 6.223142e+00
 6.984654e-01	 1.691062e+00	 7.025507e+00
 6.784805e-01	 1.699179e+00	 6.858208e+00
 6.584500e-01	 1.707041e+00	 6.692884e+00
 6.383785e-01	 1.714648e+00	 6.534990e+00
 6.182707e-01	 1.722001e+00	 6.388782e+00
 5.981311e-01	 1.729099e+00	 6.257236e+00
 7.012932e-01	 1.697908e+00	 7.051830e+00
 6.812274e-01	 1.706058e+00	 6.885023e+00
 6.611158e-01	 1.713952e+00	 6.721230e+00
 6.409631e-01	 1.721590e+00	 6.565384e+00
 6.207738e-01	 1.728972e+00	 6.421146e+00
 6.005526e-01	 1.736100e+00	 6.290811e+00
 7.041210e-01	 1.704755e+00	 7.077588e+00
 6.839743e-01	 1.712937e+00	 6.911398e+00
 6.637816e-01	 1.720863e+00	 6.749152e+00
 6.435476e-01	 1.728532e+00	 6.595305e+00
 6.232769e-01	 1.735944e+00	 6.452947e+00
 6.029742e-01	 1.743100e+00	 6.323727e+00
 7.069488e-01	 1.711601e+00	 7.102330e+00
 6.867212e-01	 1.719817e+00	 6.936927e+00
 6.664474e-01	 1.727774e+00	 6.776301e+00
 6.461321e-01	 1.735474e+00	 6.624461e+00
 6.257800e-01	 1.742916e+00	 6.483961e+00
 6.053958e-01	 1.750100e+00	 6.355825e+00
 5.932879e-01	 1.715098e+00	 6.188652e+00
 5.732844e-01	 1.721888e+00	 6.057225e+00
 5.532583e-01	 1.728426e+00	 5.916924e+00
 5.332143e-01	 1.734715e+00	 5.771926e+00
 5.131565e-01	 1.740754e+00	 5.625252e+00
 4.930895e-01	 1.746544e+00	 5.478846e+00
 5.957095e-01	 1.722099e+00	 6.223142e+00
 5.756243e-01	 1.728916e+00	 6.092129e+00
 5.555165e-01	 1.735481e+00	 5.951458e+00
 5.353906e-01	 1.741795e+00	 5.805817e+00
 5.152511e-01	 1.747859e+00	 5.658692e+00
 4.951021e-01	 1.753673e+00	 5.512436e+00
 5.981311e-01	 1.729099e+00	 6.257236e+00
 5.779642e-01	 1.735944e+00	 6.126471e+00
 5.577747e-01	 1.742536e+00	 5.985378e+00
 5.375670e-01	 1.748876e+00	 5.839121e+00
 5.173456e-01	 1.754964e+00	 5.691604e+00
 4.971148e-01	 1.760801e+00	 5.545551e+00
 6.005526e-01	 1.736100e+00	 6.290811e+00
 5.803042e-01	 1.742972e+00	 6.160202e+00
 5.600329e-01	 1.749591e+00	 6.018722e+00
 5.397434e-01	 1.755956e+00	 5.871966e+00
 5.194401e-01	 1.762069e+00	 5.724214e+00
 4.991274e-01	 1.767930e+00	 5.578520e+00
 6.029742e-01	 1.743100e+00	 6.323727e+00
 5.826441e-01	 1.750000e+00	 6.193259e+00
 5.622911e-01	 1.756646e+00	 6.051507e+00
 5.419198e-01	 1.763037e+00	 5.904460e+00
 5.215346e-01	 1.769174e+00	 5.756730e+00
 5.011400e-01	 1.775059e+00	 5.611655e+00
 6.053958e-01	 1.750100e+00	 6.355825e+00
 5.849840e-01	 1.757028e+00	 6.225558e+00
 5.645493e-01	 1.763700e+00	 6.083735e+00
 5.440962e-01	 1.770117e+00	 5.936694e+00
 5.236291e-01	 1.776279e+00	 5.789339e+00
 5.031526e-01	 1.782188e+00	 5.645244e+00
 4.930895e-01	 1.746544e+00	 5.478846e+00
 4.730176e-01	 1.752087e+00	 5.337335e+00
 4.529449e-01	 1.757383e+00	 5.205037e+00
 4.328757e-01	 1.762433e+00	 5.082168e+00
 4.128142e-01	 1.767240e+00	 4.968393e+00
 3.927645e-01	 1.771804e+00	 4.862996e+00
 4.951021e-01	 1.753673e+00	 5.512436e+00
 4.749482e-01	 1.759238e+00	 5.372016e+00
 4.547936e-01	 1.764556e+00	 5.241346e+00
 4.346426e-01	 1.769627e+00	 5.119903e+00
 4.144992e-01	 1.774453e+00	 5.006599e+00
 3.943676e-01	 1.779036e+00	 4.899961e+00
 4.971148e-01	 1.760801e+00	 5.545551e+00
 4.768789e-01	 1.766389e+00	 5.406196e+00
 4.566424e-01	 1.771729e+00	 5.277050e+00
 4.364094e-01	 1.776821e+00	 5.156899e+00
 4.161841e-01	 1.781666e+00	 5.043951e+00
 3.959707e-01	 1.786268e+00	 4.936023e+00
 4.991274e-01	 1.767930e+00	 5.578520e+00
 4.788096e-01	 1.773541e+00	 5.440313e+00
 4.584911e-01	 1.778902e+00	 5.312690e+00
 4.381762e-01	 1.784014e+00	 5.193796e+00
 4.178691e-01	 1.788880e+00	 5.081181e+00
 3.975739e-01	 1.793499e+00	 4.971994e+00
 5.011400e-01	 1.775059e+00	 5.611655e+00
 4.807403e-01	 1.780692e+00	 5.474781e+00
 4.603399e-01	 1.786075e+00	 5.348783e+00
 4.399431e-01	 1.791208e+00	 5.231211e+00
 4.195541e-01	 1.796093e+00	 5.118998e+00
 3.991770e-01	 1.800731e+00	 5.008667e+00
 5.031526e-01	 1.782188e+00	 5.645244e+00
 4.826710e-01	 1.787843e+00	 5.509998e+00
 4.621887e-01	 1.793248e+00	 5.385829e+00
 4.417099e-01	 1.798401e+00	 5.269739e+00
 4.212390e-01	 1.803306e+00	 5.158089e+00
 4.007801e-01	 1.807963e+00	 5.046814e+00
 3.927645e-01	 1.771804e+00	 4.862996e+00
 3.727306e-01	 1.776126e+00	 4.752951e+00
 3.527165e-01	 1.780209e+00	 4.646990e+00
 3.327262e-01	 1.784053e+00	 4.544510e+00
 3.127634e-01	 1.787661e+00	 4.445999e+00
 2.928321e-01	 1.791034e+00	 4.354201e+00
 3.943676e-01	 1.779036e+00	 4.899961e+00
 3.742520e-01	 1.783376e+00	 4.787361e+00
 3.541562e-01	 1.787475e+00	 4.680294e+00
 3.340842e-01	 1.791335e+00	 4.578769e+00
 3.140400e-01	 1.794958e+00	 4.481891e+00
 2.940273e-01	 1.798344e+00	 4.391452e+00
 3.959707e-01	 1.786268e+00	 4.936023e+00
 3.757733e-01	 1.790625e+00	 4.820897e+00
 3.555958e-01	 1.794741e+00	 4.712358e+00
 3.354423e-01	 1.798617e+00	 4.611570e+00
 3.153166e-01	 1.802254e+00	 4.516362e+00
 2.952225e-01	 1.805655e+00	 4.427721e+00
 3.975739e-01	 1.793499e+00	 4.971994e+00
 3.772947e-01	 1.797875e+00	 4.854453e+00
 3.570355e-01	 1.802007e+00	 4.744208e+00
 3.368004e-01	 1.805899e+00	 4.644009e+00
 3.165932e-01	 1.809551e+00	 4.550564e+00
 2.964178e-01	 1.812965e+00	 4.464197e+00
 3.991770e-01	 1.800731e+00	 5.008667e+00
 3.788160e-01	 1.805124e+00	 4.888903e+00
 3.584752e-01	 1.809274e+00	 4.776848e+00
 3.381584e-01	 1.813181e+00	 4.677171e+00
 3.178698e-01	 1.816847e+00	 4.585639e+00
 2.976130e-01	 1.820275e+00	 4.502059e+00
 4.007801e-01	 1.807963e+00	 5.046814e+00
 3.803374e-01	 1.812374e+00	 4.925102e+00
 3.599148e-01	 1.816540e+00	 4.811267e+00
 3.395165e-01	 1.820463e+00	 4.712125e+00
 3.191463e-01	 1.824144e+00	 4.622715e+00
 2.988082e-01	 1.827586e+00	 4.542478e+00
 2.928321e-01	 1.791034e+00	 4.354201e+00
 2.729358e-01	 1.794174e+00	 4.275389e+00
 2.530784e-01	 1.797082e+00	 4.208578e+00
 2.332633e-01	 1.799761e+00	 4.148743e+00
 2.134942e-01	 1.802213e+00	 4.092696e+00
 1.937744e-01	 1.804440e+00	 4.038815e+00
 2.940273e-01	 1.798344e+00	 4.391452e+00
 2.740499e-01	 1.801497e+00	 4.313003e+00
 2.541114e-01	 1.804417e+00	 4.245537e+00
 2.342154e-01	 1.807107e+00	 4.184441e+00
 2.143656e-01	 1.809569e+00	 4.127087e+00
 1.945654e-01	 1.811805e+00	 4.072539e+00
 2.952225e-01	 1.805655e+00	 4.427721e+00
 2.751639e-01	 1.808820e+00	 4.350565e+00
 2.551443e-01	 1.811752e+00	 4.283694e+00
 2.351675e-01	 1.814453e+00	 4.222678e+00
 2.152370e-01	 1.816925e+00	 4.165230e+00
 1.953563e-01	 1.819170e+00	 4.110882e+00
 2.964178e-01	 1.812965e+00	 4.464197e+00
 2.762779e-01	 1.816143e+00	 4.389267e+00
 2.561773e-01	 1.819087e+00	 4.324207e+00
 2.361196e-01	 1.821799e+00	 4.264543e+00
 2.161084e-01	 1.824281e+00	 4.208117e+00
 1.961472e-01	 1.826535e+00	 4.154723e+00
 2.976130e-01	 1.820275e+00	 4.502059e+00
 2.773919e-01	 1.823466e+00	 4.430298e+00
 2.572103e-01	 1.826422e+00	 4.368227e+00
 2.370717e-01	 1.829145e+00	 4.311121e+00
 2.169798e-01	 1.831637e+00	 4.256737e+00
 1.969381e-01	 1.833900e+00	 4.204935e+00
 2.988082e-01	 1.827586e+00	 4.542478e+00
 2.785059e-01	 1.830789e+00	 4.474836e+00
 2.582433e-01	 1.833757e+00	 4.416905e+00
 2.380238e-01	 1.836491e+00	 4.363493e+00
 2.178512e-01	 1.838993e+00	 4.312080e+00
 1.977290e-01	 1.841265e+00	 4.262394e+00
 1.937744e-01	 1.804440e+00	 4.038815e+00
 1.741074e-01	 1.806444e+00	 3.990027e+00
 1.544965e-01	 1.808227e+00	 3.948619e+00
 1.349448e-01	 1.809791e+00	 3.913396e+00
 1.154557e-01	 1.811139e+00	 3.883387e+00
 9.603204e-02	 1.812272e+00	 3.857489e+00
 1.945654e-01	 1.811805e+00	 4.072539e+00
 1.748181e-01	 1.813817e+00	 4.024165e+00
 1.551271e-01	 1.815607e+00	 3.983915e+00
 1.354956e-01	 1.817178e+00	 3.950205e+00
 1.159269e-01	 1.818531e+00	 3.921700e+00
 9.642400e-02	 1.819669e+00	 3.896922e+00
 1.953563e-01	 1.819170e+00	 4.110882e+00
 1.755287e-01	 1.821190e+00	 4.063291e+00
 1.557577e-01	 1.822988e+00	 4.024114e+00
 1.360464e-01	 1.824565e+00	 3.991481e+00
 1.163982e-01	 1.825923e+00	 3.963789e+00
 9.681597e-02	 1.827066e+00	 3.939286e+00
 1.961472e-01	 1.826535e+00	 4.154723e+00
 1.762394e-01	 1.828564e+00	 4.108155e+00
 1.563883e-01	 1.830368e+00	 4.069835e+00
 1.365972e-01	 1.831951e+00	 4.037706e+00
 1.168694e-01	 1.833316e+00	 4.010004e+00
 9.720794e-02	 1.834463e+00	 3.984806e+00
 1.969381e-01	 1.833900e+00	 4.204935e+00
 1.769500e-01	 1.835937e+00	 4.159506e+00
 1.570189e-01	 1.837749e+00	 4.121693e+00
 1.371480e-01	 1.839338e+00	 4.089365e+00
 1.173407e-01	 1.840708e+00	 4.060699e+00
 9.759991e-02	 1.841860e+00	 4.033708e+00
 1.977290e-01	 1.841265e+00	 4.262394e+00
 1.776606e-01	 1.843310e+00	 4.218092e+00
 1.576495e-01	 1.845129e+00	 4.180308e+00
 1.376988e-01	 1.846725e+00	 4.146941e+00
 1.178119e-01	 1.848101e+00	 4.116225e+00
 9.799187e-02	 1.849257e+00	 4.086218e+00
 9.603204e-02	 1.812272e+00	 3.857489e+00
 7.667698e-02	 1.813194e+00	 3.835513e+00
 5.739342e-02	 1.813907e+00	 3.818936e+00
 3.818423e-02	 1.814413e+00	 3.807920e+00
 1.905219e-02	 1.814715e+00	 3.801181e+00
-2.312356e-07	 1.814825e+00	 3.793942e+00
 9.642400e-02	 1.819669e+00	 3.896922e+00
 7.698994e-02	 1.820595e+00	 3.875496e+00
 5.762768e-02	 1.821311e+00	 3.859198e+00
 3.834008e-02	 1.821819e+00	 3.848441e+00
 1.912995e-02	 1.822122e+00	 3.842067e+00
-2.198802e-07	 1.822232e+00	 3.835282e+00
 9.681597e-02	 1.827066e+00	 3.939286e+00
 7.730291e-02	 1.827996e+00	 3.917498e+00
 5.786194e-02	 1.828714e+00	 3.900595e+00
 3.849594e-02	 1.829225e+00	 3.889358e+00
 1.920772e-02	 1.829529e+00	 3.882866e+00
-2.087239e-07	 1.829639e+00	 3.876424e+00
 9.720794e-02	 1.834463e+00	 3.984806e+00
 7.761588e-02	 1.835397e+00	 3.961634e+00
 5.809620e-02	 1.836118e+00	 3.943162e+00
 3.865179e-02	 1.836630e+00	 3.930658e+00
 1.928548e-02	 1.836936e+00	 3.923555e+00
-1.977781e-07	 1.837046e+00	 3.917371e+00
 9.759991e-02	 1.841860e+00	 4.033708e+00
 7.792885e-02	 1.842797e+00	 4.008020e+00
 5.833046e-02	 1.843522e+00	 3.986936e+00
 3.880765e-02	 1.844036e+00	 3.972330e+00
 1.936324e-02	 1.844343e+00	 3.964107e+00
-1.870540e-07	 1.844453e+00	 3.958123e+00
 9.799187e-02	 1.849257e+00	 4.086218e+00
 7.824181e-02	 1.850198e+00	 4.056773e+00
 5.856472e-02	 1.850926e+00	 4.031953e+00
 3.896350e-02	 1.851442e+00	 4.014360e+00
 1.944101e-02	 1.851750e+00	 4.004498e+00
-1.765630e-07	 1.851860e+00	 3.998676e+00
 1.851852e+00	 0.000000e+00	 1.303974e+01
 1.851750e+00	 1.944101e-02	 1.304347e+01
 1.851442e+00	 3.896350e-02	 1.304550e+01
 1.850926e+00	 5.856472e-02	 1.304677e+01
 1.850198e+00	 7.824181e-02	 1.304854e+01
 1.849257e+00	 9.799187e-02	 1.305231e+01
 1.859259e+00	 0.000000e+00	 1.300788e+01
 1.859157e+00	 1.951877e-02	 1.301218e+01
 1.858848e+00	 3.911935e-02	 1.301479e+01
 1.858329e+00	 5.879898e-02	 1.301661e+01
 1.857599e+00	 7.855478e-02	 1.301885e+01
 1.856654e+00	 9.838384e-02	 1.302293e+01
 1.866667e+00	 0.000000e+00	 1.297662e+01
 1.866564e+00	 1.959654e-02	 1.298146e+01
 1.866253e+00	 3.927521e-02	 1.298457e+01
 1.865733e+00	 5.903323e-02	 1.298690e+01
 1.865000e+00	 7.886775e-02	 1.298965e+01
 1.864051e+00	 9.877581e-02	 1.299428e+01
 1.874074e+00	 0.000000e+00	 1.294587e+01
 1.873971e+00	 1.967430e-02	 1.295124e+01
 1.873659e+00	 3.943106e-02	 1.295479e+01
 1.873137e+00	 5.926749e-02	 1.295747e+01
 1.872401e+00	 7.918072e-02	 1.296053e+01
 1.871448e+00	 9.916778e-02	 1.296543e+01
 1.881481e+00	 0.000000e+00	 1.291556e+01
 1.881378e+00	 1.975206e-02	 1.292148e+01
 1.881065e+00	 3.958692e-02	 1.292540e+01
 1.880540e+00	 5.950175e-02	 1.292831e+01
 1.879801e+00	 7.949368e-02	 1.293147e+01
 1.878846e+00	 9.955974e-02	 1.293637e+01
 1.888889e+00	 0.000000e+00	 1.288562e+01
 1.888785e+00	 1.982983e-02	 1.289210e+01
 1.888471e+00	 3.974277e-02	 1.289636e+01
 1.887944e+00	 5.973601e-02	 1.289939e+01
 1.887202e+00	 7.980665e-02	 1.290248e+01
 1.886243e+00	 9.995171e-02	 1.290711e+01
 1.849257e+00	 9.799187e-02	 1.305231e+01
 1.848101e+00	 1.178119e-01	 1.305752e+01
 1.846725e+00	 1.376988e-01	 1.306260e+01
 1.845129e+00	 1.576495e-01	 1.306778e+01
 1.843310e+00	 1.776606e-01	 1.307318e+01
 1.841265e+00	 1.977290e-01	 1.307871e+01
 1.856654e+00	 9.838384e-02	 1.302293e+01
 1.855493e+00	 1.182831e-01	 1.302829e+01
 1.854112e+00	 1.382496e-01	 1.303331e+01
 1.852510e+00	 1.582801e-01	 1.303801e+01
 1.850683e+00	 1.783713e-01	 1.304255e+01
 1.848631e+00	 1.985199e-01	 1.304736e+01
 1.864051e+00	 9.877581e-02	 1.299428e+01
 1.862885e+00	 1.187544e-01	 1.300037e+01
 1.861499e+00	 1.388004e-01	 1.300635e+01
 1.859890e+00	 1.589107e-01	 1.301212e+01
 1.858057e+00	 1.790819e-01	 1.301757e+01
 1.855996e+00	 1.993109e-01	 1.302249e+01
 1.871448e+00	 9.916778e-02	 1.296543e+01
 1.870278e+00	 1.192256e-01	 1.297191e+01
 1.868886e+00	 1.393512e-01	 1.297847e+01
 1.867271e+00	 1.595413e-01	 1.298494e+01
 1.865430e+00	 1.797926e-01	 1.299110e+01
 1.863361e+00	 2.001018e-01	 1.299666e+01
 1.878846e+00	 9.955974e-02	 1.293637e+01
 1.877670e+00	 1.196969e-01	 1.294290e+01
 1.876273e+00	 1.399020e-01	 1.294970e+01
 1.874651e+00	 1.601719e-01	 1.295651e+01
 1.872803e+00	 1.805032e-01	 1.296304e+01
 1.870726e+00	 2.008927e-01	 1.296894e+01
 1.886243e+00	 9.995171e-02	 1.290711e+01
 1.885063e+00	 1.201681e-01	 1.291338e+01
 1.883660e+00	 1.404528e-01	 1.292006e+01
 1.882032e+00	 1.608025e-01	 1.292686e+01
 1.880176e+00	 1.812139e-01	 1.293344e+01
 1.878091e+00	 2.016836e-01	 1.293939e+01
 1.841265e+00	 1.977290e-01	 1.307871e+01
 1.838993e+00	 2.178512e-01	 1.308524e+01
 1.836491e+00	 2.380238e-01	 1.309402e+01
 1.833757e+00	 2.582433e-01	 1.310505e+01
 1.830789e+00	 2.785059e-01	 1.311777e+01
 1.827586e+00	 2.988082e-01	 1.313097e+01
 1.848631e+00	 1.985199e-01	 1.304736e+01
 1.846349e+00	 2.187226e-01	 1.305338e+01
 1.843837e+00	 2.389759e-01	 1.306189e+01
 1.841092e+00	 2.592762e-01	 1.307292e+01
 1.838113e+00	 2.796200e-01	 1.308589e+01
 1.834896e+00	 3.000035e-01	 1.309959e+01
 1.855996e+00	 1.993109e-01	 1.302249e+01
 1.853705e+00	 2.195940e-01	 1.302775e+01
 1.851183e+00	 2.399280e-01	 1.303483e+01
 1.848427e+00	 2.603092e-01	 1.304456e+01
 1.845436e+00	 2.807340e-01	 1.305673e+01
 1.842206e+00	 3.011987e-01	 1.307014e+01
 1.863361e+00	 2.001018e-01	 1.299666e+01
 1.861061e+00	 2.204654e-01	 1.300241e+01
 1.858529e+00	 2.408801e-01	 1.300980e+01
 1.855762e+00	 2.613422e-01	 1.301909e+01
 1.852759e+00	 2.818480e-01	 1.303012e+01
 1.849517e+00	 3.023939e-01	 1.304240e+01
 1.870726e+00	 2.008927e-01	 1.296894e+01
 1.868417e+00	 2.213369e-01	 1.297498e+01
 1.865875e+00	 2.418322e-01	 1.298260e+01
 1.863097e+00	 2.623751e-01	 1.299207e+01
 1.860082e+00	 2.829620e-01	 1.300324e+01
 1.856827e+00	 3.035892e-01	 1.301545e+01
 1.878091e+00	 2.016836e-01	 1.293939e+01
 1.875773e+00	 2.222083e-01	 1.294549e+01
 1.873221e+00	 2.427843e-01	 1.295321e+01
 1.870432e+00	 2.634081e-01	 1.296285e+01
 1.867405e+00	 2.840761e-01	 1.297428e+01
 1.864137e+00	 3.047844e-01	 1.298689e+01
 1.827586e+00	 2.988082e-01	 1.313097e+01
 1.824144e+00	 3.191463e-01	 1.314384e+01
 1.820463e+00	 3.395165e-01	 1.315637e+01
 1.816540e+00	 3.599148e-01	 1.316744e+01
 1.812374e+00	 3.803374e-01	 1.317588e+01
 1.807963e+00	 4.007801e-01	 1.318821e+01
 1.834896e+00	 3.000035e-01	 1.309959e+01
 1.831440e+00	 3.204229e-01	 1.311298e+01
 1.827744e+00	 3.408746e-01	 1.312586e+01
 1.823806e+00	 3.613545e-01	 1.313702e+01
 1.819623e+00	 3.818587e-01	 1.314547e+01
 1.815195e+00	 4.023832e-01	 1.315780e+01
 1.842206e+00	 3.011987e-01	 1.307014e+01
 1.838737e+00	 3.216995e-01	 1.308354e+01
 1.835026e+00	 3.422326e-01	 1.309646e+01
 1.831072e+00	 3.627941e-01	 1.310758e+01
 1.826873e+00	 3.833801e-01	 1.311601e+01
 1.822427e+00	 4.039864e-01	 1.312827e+01
 1.849517e+00	 3.023939e-01	 1.304240e+01
 1.846034e+00	 3.229761e-01	 1.305523e+01
 1.842308e+00	 3.435907e-01	 1.306786e+01
 1.838338e+00	 3.642338e-01	 1.307879e+01
 1.834122e+00	 3.849014e-01	 1.308722e+01
 1.829659e+00	 4.055895e-01	 1.309947e+01
 1.856827e+00	 3.035892e-01	 1.301545e+01
 1.853330e+00	 3.242527e-01	 1.302771e+01
 1.849590e+00	 3.449488e-01	 1.303972e+01
 1.845604e+00	 3.656735e-01	 1.305035e+01
 1.841372e+00	 3.864228e-01	 1.305887e+01
 1.836891e+00	 4.071926e-01	 1.307127e+01
 1.864137e+00	 3.047844e-01	 1.298689e+01
 1.860627e+00	 3.255293e-01	 1.299957e+01
 1.856872e+00	 3.463068e-01	 1.301164e+01
 1.852871e+00	 3.671131e-01	 1.302198e+01
 1.848621e+00	 3.879441e-01	 1.303073e+01
 1.844122e+00	 4.087957e-01	 1.304351e+01
 1.807963e+00	 4.007801e-01	 1.318821e+01
 1.803306e+00	 4.212390e-01	 1.320623e+01
 1.798401e+00	 4.417099e-01	 1.322537e+01
 1.793248e+00	 4.621887e-01	 1.324429e+01
 1.787843e+00	 4.826710e-01	 1.326168e+01
 1.782188e+00	 5.031526e-01	 1.327631e+01
 1.815195e+00	 4.023832e-01	 1.315780e+01
 1.810519e+00	 4.229240e-01	 1.317572e+01
 1.805595e+00	 4.434768e-01	 1.319496e+01
 1.800421e+00	 4.640374e-01	 1.321412e+01
 1.794995e+00	 4.846017e-01	 1.323181e+01
 1.789316e+00	 5.051652e-01	 1.324677e+01
 1.822427e+00	 4.039864e-01	 1.312827e+01
 1.817733e+00	 4.246089e-01	 1.314600e+01
 1.812789e+00	 4.452436e-01	 1.316520e+01
 1.807594e+00	 4.658862e-01	 1.318444e+01
 1.802146e+00	 4.865323e-01	 1.320231e+01
 1.796445e+00	 5.071778e-01	 1.321750e+01
 1.829659e+00	 4.055895e-01	 1.309947e+01
 1.824946e+00	 4.262939e-01	 1.311703e+01
 1.819982e+00	 4.470104e-01	 1.313612e+01
 1.814767e+00	 4.677349e-01	 1.315533e+01
 1.809298e+00	 4.884630e-01	 1.317326e+01
 1.803574e+00	 5.091904e-01	 1.318858e+01
 1.836891e+00	 4.071926e-01	 1.307127e+01
 1.832159e+00	 4.279788e-01	 1.308875e+01
 1.827176e+00	 4.487773e-01	 1.310776e+01
 1.821940e+00	 4.695837e-01	 1.312689e+01
 1.816449e+00	 4.903937e-01	 1.314478e+01
 1.810703e+00	 5.112030e-01	 1.316011e+01
 1.844122e+00	 4.087957e-01	 1.304351e+01
 1.839372e+00	 4.296638e-01	 1.306115e+01
 1.834369e+00	 4.505441e-01	 1.308016e+01
 1.829113e+00	 4.714324e-01	 1.309921e+01
 1.823600e+00	 4.923244e-01	 1.311696e+01
 1.817831e+00	 5.132156e-01	 1.313216e+01
 1.782188e+00	 5.031526e-01	 1.327631e+01
 1.776279e+00	 5.236291e-01	 1.328954e+01
 1.770117e+00	 5.440962e-01	 1.330331e+01
 1.763700e+00	 5.645493e-01	 1.331754e+01
 1.757028e+00	 5.849840e-01	 1.333241e+01
 1.750100e+00	 6.053958e-01	 1.334847e+01
 1.789316e+00	 5.051652e-01	 1.324677e+01
 1.783384e+00	 5.257236e-01	 1.326031e+01
 1.777198e+00	 5.462726e-01	 1.327437e+01
 1.770755e+00	 5.668075e-01	 1.328887e+01
 1.764057e+00	 5.873240e-01	 1.330400e+01
 1.757101e+00	 6.078174e-01	 1.332029e+01
 1.796445e+00	 5.071778e-01	 1.321750e+01
 1.790489e+00	 5.278182e-01	 1.323129e+01
 1.784278e+00	 5.484490e-01	 1.324561e+01
 1.777810e+00	 5.690657e-01	 1.326036e+01
 1.771085e+00	 5.896639e-01	 1.327573e+01
 1.764101e+00	 6.102390e-01	 1.329223e+01
 1.803574e+00	 5.091904e-01	 1.318858e+01
 1.797595e+00	 5.299127e-01	 1.320256e+01
 1.791359e+00	 5.506253e-01	 1.321709e+01
 1.784865e+00	 5.713239e-01	 1.323206e+01
 1.778113e+00	 5.920039e-01	 1.324763e+01
 1.771102e+00	 6.126606e-01	 1.326433e+01
 1.810703e+00	 5.112030e-01	 1.316011e+01
 1.804700e+00	 5.320072e-01	 1.317417e+01
 1.798439e+00	 5.528017e-01	 1.318883e+01
 1.791920e+00	 5.735821e-01	 1.320398e+01
 1.785141e+00	 5.943438e-01	 1.321976e+01
 1.778102e+00	 6.150821e-01	 1.323665e+01
 1.817831e+00	 5.132156e-01	 1.313216e+01
 1.811805e+00	 5.341017e-01	 1.314617e+01
 1.805519e+00	 5.549781e-01	 1.316090e+01
 1.798974e+00	 5.758403e-01	 1.317618e+01
 1.792169e+00	 5.966837e-01	 1.319214e+01
 1.785102e+00	 6.175037e-01	 1.320925e+01
 1.750100e+00	 6.053958e-01	 1.334847e+01
 1.742916e+00	 6.257800e-01	 1.336315e+01
 1.735474e+00	 6.461321e-01	 1.337360e+01
 1.727774e+00	 6.664474e-01	 1.338056e+01
 1.719817e+00	 6.867212e-01	 1.338538e+01
 1.711601e+00	 7.069488e-01	 1.339003e+01
 1.757101e+00	 6.078174e-01	 1.332029e+01
 1.749887e+00	 6.282832e-01	 1.333546e+01
 1.742415e+00	 6.487166e-01	 1.334673e+01
 1.734685e+00	 6.691132e-01	 1.335462e+01
 1.726696e+00	 6.894681e-01	 1.336020e+01
 1.718448e+00	 7.097765e-01	 1.336519e+01
 1.764101e+00	 6.102390e-01	 1.329223e+01
 1.756859e+00	 6.307863e-01	 1.330784e+01
 1.749357e+00	 6.513012e-01	 1.331992e+01
 1.741596e+00	 6.717790e-01	 1.332871e+01
 1.733575e+00	 6.922149e-01	 1.333505e+01
 1.725294e+00	 7.126043e-01	 1.334040e+01
 1.771102e+00	 6.126606e-01	 1.326433e+01
 1.763831e+00	 6.332894e-01	 1.328038e+01
 1.756299e+00	 6.538857e-01	 1.329326e+01
 1.748507e+00	 6.744448e-01	 1.330296e+01
 1.740454e+00	 6.949618e-01	 1.331008e+01
 1.732140e+00	 7.154321e-01	 1.331583e+01
 1.778102e+00	 6.150821e-01	 1.323665e+01
 1.770802e+00	 6.357925e-01	 1.325316e+01
 1.763241e+00	 6.564702e-01	 1.326685e+01
 1.755418e+00	 6.771105e-01	 1.327748e+01
 1.747334e+00	 6.977087e-01	 1.328540e+01
 1.738987e+00	 7.182599e-01	 1.329160e+01
 1.785102e+00	 6.175037e-01	 1.320925e+01
 1.777774e+00	 6.382956e-01	 1.322625e+01
 1.770183e+00	 6.590548e-01	 1.324077e+01
 1.762330e+00	 6.797763e-01	 1.325236e+01
 1.754213e+00	 7.004556e-01	 1.326115e+01
 1.745833e+00	 7.210877e-01	 1.326786e+01
 1.711601e+00	 7.069488e-01	 1.339003e+01
 1.703128e+00	 7.271254e-01	 1.339342e+01
 1.694396e+00	 7.472463e-01	 1.339542e+01
 1.685407e+00	 7.673068e-01	 1.339558e+01
 1.676160e+00	 7.873020e-01	 1.339301e+01
 1.666655e+00	 8.072271e-01	 1.338776e+01
 1.718448e+00	 7.097765e-01	 1.336519e+01
 1.709940e+00	 7.300339e-01	 1.336879e+01
 1.701174e+00	 7.502353e-01	 1.337107e+01
 1.692148e+00	 7.703760e-01	 1.337135e+01
 1.682864e+00	 7.904512e-01	 1.336921e+01
 1.673322e+00	 8.104560e-01	 1.336481e+01
 1.725294e+00	 7.126043e-01	 1.334040e+01
 1.716753e+00	 7.329424e-01	 1.334426e+01
 1.707951e+00	 7.532243e-01	 1.334679e+01
 1.698890e+00	 7.734453e-01	 1.334726e+01
 1.689569e+00	 7.936004e-01	 1.334561e+01
 1.679988e+00	 8.136849e-01	 1.334208e+01
 1.732140e+00	 7.154321e-01	 1.331583e+01
 1.723565e+00	 7.358509e-01	 1.331998e+01
 1.714729e+00	 7.562133e-01	 1.332275e+01
 1.705632e+00	 7.765145e-01	 1.332349e+01
 1.696273e+00	 7.967496e-01	 1.332234e+01
 1.686655e+00	 8.169139e-01	 1.331965e+01
 1.738987e+00	 7.182599e-01	 1.329160e+01
 1.730378e+00	 7.387594e-01	 1.329611e+01
 1.721506e+00	 7.592023e-01	 1.329912e+01
 1.712373e+00	 7.795837e-01	 1.330015e+01
 1.702978e+00	 7.998988e-01	 1.329950e+01
 1.693322e+00	 8.201428e-01	 1.329760e+01
 1.745833e+00	 7.210877e-01	 1.326786e+01
 1.737190e+00	 7.416679e-01	 1.327279e+01
 1.728284e+00	 7.621913e-01	 1.327605e+01
 1.719115e+00	 7.826530e-01	 1.327738e+01
 1.709683e+00	 8.030481e-01	 1.327719e+01
 1.699988e+00	 8.233717e-01	 1.327598e+01
 1.666655e+00	 8.072271e-01	 1.338776e+01
 1.656894e+00	 8.270773e-01	 1.337768e+01
 1.646877e+00	 8.468478e-01	 1.336256e+01
 1.636605e+00	 8.665338e-01	 1.334521e+01
 1.626078e+00	 8.861304e-01	 1.332809e+01
 1.615297e+00	 9.056327e-01	 1.331320e+01
 1.673322e+00	 8.104560e-01	 1.336481e+01
 1.663522e+00	 8.303857e-01	 1.335567e+01
 1.653465e+00	 8.502352e-01	 1.334116e+01
 1.643151e+00	 8.699999e-01	 1.332410e+01
 1.632582e+00	 8.896749e-01	 1.330698e+01
 1.621758e+00	 9.092553e-01	 1.329181e+01
 1.679988e+00	 8.136849e-01	 1.334208e+01
 1.670149e+00	 8.336940e-01	 1.333386e+01
 1.660052e+00	 8.536226e-01	 1.331995e+01
 1.649697e+00	 8.734661e-01	 1.330317e+01
 1.639086e+00	 8.932194e-01	 1.328602e+01
 1.628219e+00	 9.128778e-01	 1.327053e+01
 1.686655e+00	 8.169139e-01	 1.331965e+01
 1.676777e+00	 8.370023e-01	 1.331232e+01
 1.666640e+00	 8.570100e-01	 1.329898e+01
 1.656244e+00	 8.769322e-01	 1.328244e+01
 1.645591e+00	 8.967639e-01	 1.326522e+01
 1.634681e+00	 9.165003e-01	 1.324939e+01
 1.693322e+00	 8.201428e-01	 1.329760e+01
 1.683404e+00	 8.403106e-01	 1.329108e+01
 1.673227e+00	 8.603974e-01	 1.327824e+01
 1.662790e+00	 8.803983e-01	 1.326190e+01
 1.652095e+00	 9.003084e-01	 1.324460e+01
 1.641142e+00	 9.201229e-01	 1.322842e+01
 1.699988e+00	 8.233717e-01	 1.327598e+01
 1.690032e+00	 8.436189e-01	 1.327016e+01
 1.679815e+00	 8.637848e-01	 1.325774e+01
 1.669337e+00	 8.838645e-01	 1.324155e+01
 1.658599e+00	 9.038530e-01	 1.322413e+01
 1.647603e+00	 9.237454e-01	 1.320760e+01
 1.615297e+00	 9.056327e-01	 1.331320e+01
 1.604264e+00	 9.250361e-01	 1.329612e+01
 1.592980e+00	 9.443357e-01	 1.327213e+01
 1.581446e+00	 9.635266e-01	 1.324174e+01
 1.569664e+00	 9.826043e-01	 1.320450e+01
 1.557635e+00	 1.001564e+00	 1.315887e+01
 1.621758e+00	 9.092553e-01	 1.329181e+01
 1.610681e+00	 9.287362e-01	 1.327459e+01
 1.599352e+00	 9.481130e-01	 1.325098e+01
 1.587772e+00	 9.673807e-01	 1.322144e+01
 1.575942e+00	 9.865347e-01	 1.318548e+01
 1.563865e+00	 1.005570e+00	 1.314149e+01
 1.628219e+00	 9.128778e-01	 1.327053e+01
 1.617098e+00	 9.324364e-01	 1.325315e+01
 1.605724e+00	 9.518904e-01	 1.322992e+01
 1.594098e+00	 9.712349e-01	 1.320125e+01
 1.582221e+00	 9.904651e-01	 1.316659e+01
 1.570096e+00	 1.009576e+00	 1.312428e+01
 1.634681e+00	 9.165003e-01	 1.324939e+01
 1.623515e+00	 9.361365e-01	 1.323184e+01
 1.612096e+00	 9.556677e-01	 1.320899e+01
 1.600423e+00	 9.750890e-01	 1.318119e+01
 1.588500e+00	 9.943955e-01	 1.314782e+01
 1.576326e+00	 1.013583e+00	 1.310716e+01
 1.641142e+00	 9.201229e-01	 1.322842e+01
 1.629932e+00	 9.398367e-01	 1.321069e+01
 1.618468e+00	 9.594450e-01	 1.318822e+01
 1.606749e+00	 9.789431e-01	 1.316126e+01
 1.594778e+00	 9.983259e-01	 1.312914e+01
 1.582557e+00	 1.017589e+00	 1.309003e+01
 1.647603e+00	 9.237454e-01	 1.320760e+01
 1.636349e+00	 9.435368e-01	 1.318972e+01
 1.624840e+00	 9.632224e-01	 1.316760e+01
 1.613075e+00	 9.827972e-01	 1.314144e+01
 1.601057e+00	 1.002256e+00	 1.311048e+01
 1.588787e+00	 1.021595e+00	 1.307279e+01
 1.557635e+00	 1.001564e+00	 1.315887e+01
 1.545360e+00	 1.020400e+00	 1.311731e+01
 1.532843e+00	 1.039110e+00	 1.308859e+01
 1.520084e+00	 1.057687e+00	 1.306305e+01
 1.507085e+00	 1.076127e+00	 1.302888e+01
 1.493850e+00	 1.094426e+00	 1.297188e+01
 1.563865e+00	 1.005570e+00	 1.314149e+01
 1.551542e+00	 1.024482e+00	 1.310117e+01
 1.538974e+00	 1.043266e+00	 1.307272e+01
 1.526164e+00	 1.061917e+00	 1.304676e+01
 1.513114e+00	 1.080432e+00	 1.301176e+01
 1.499825e+00	 1.098804e+00	 1.295375e+01
 1.570096e+00	 1.009576e+00	 1.312428e+01
 1.557723e+00	 1.028564e+00	 1.308521e+01
 1.545105e+00	 1.047423e+00	 1.305698e+01
 1.532244e+00	 1.066148e+00	 1.303048e+01
 1.519142e+00	 1.084736e+00	 1.299442e+01
 1.505801e+00	 1.103181e+00	 1.293504e+01
 1.576326e+00	 1.013583e+00	 1.310716e+01
 1.563905e+00	 1.032645e+00	 1.306928e+01
 1.551237e+00	 1.051579e+00	 1.304117e+01
 1.538325e+00	 1.070379e+00	 1.301397e+01
 1.525170e+00	 1.089041e+00	 1.297658e+01
 1.511776e+00	 1.107559e+00	 1.291545e+01
 1.582557e+00	 1.017589e+00	 1.309003e+01
 1.570086e+00	 1.036727e+00	 1.305322e+01
 1.557368e+00	 1.055735e+00	 1.302509e+01
 1.544405e+00	 1.074610e+00	 1.299696e+01
 1.531199e+00	 1.093345e+00	 1.295795e+01
 1.517751e+00	 1.111937e+00	 1.289473e+01
 1.588787e+00	 1.021595e+00	 1.307279e+01
 1.576267e+00	 1.040808e+00	 1.303687e+01
 1.563499e+00	 1.059892e+00	 1.300850e+01
 1.550485e+00	 1.078840e+00	 1.297920e+01
 1.537227e+00	 1.097650e+00	 1.293824e+01
 1.523727e+00	 1.116314e+00	 1.287424e+01
 1.493850e+00	 1.094426e+00	 1.297188e+01
 1.480379e+00	 1.112579e+00	 1.289009e+01
 1.466677e+00	 1.130582e+00	 1.281551e+01
 1.452744e+00	 1.148430e+00	 1.276022e+01
 1.438584e+00	 1.166119e+00	 1.271020e+01
 1.424199e+00	 1.183644e+00	 1.265315e+01
 1.499825e+00	 1.098804e+00	 1.295375e+01
 1.486301e+00	 1.117029e+00	 1.287167e+01
 1.472543e+00	 1.135104e+00	 1.280323e+01
 1.458555e+00	 1.153023e+00	 1.275179e+01
 1.444338e+00	 1.170783e+00	 1.270340e+01
 1.429896e+00	 1.188379e+00	 1.264551e+01
 1.505801e+00	 1.103181e+00	 1.293504e+01
 1.492222e+00	 1.121480e+00	 1.285558e+01
 1.478410e+00	 1.139626e+00	 1.279304e+01
 1.464366e+00	 1.157617e+00	 1.274421e+01
 1.450092e+00	 1.175448e+00	 1.269662e+01
 1.435592e+00	 1.193113e+00	 1.263756e+01
 1.511776e+00	 1.107559e+00	 1.291545e+01
 1.498144e+00	 1.125930e+00	 1.284102e+01
 1.484277e+00	 1.144149e+00	 1.278418e+01
 1.470177e+00	 1.162211e+00	 1.273691e+01
 1.455847e+00	 1.180112e+00	 1.268939e+01
 1.441289e+00	 1.197848e+00	 1.262897e+01
 1.517751e+00	 1.111937e+00	 1.289473e+01
 1.504065e+00	 1.130380e+00	 1.282725e+01
 1.490143e+00	 1.148671e+00	 1.277524e+01
 1.475988e+00	 1.166805e+00	 1.272930e+01
 1.461601e+00	 1.184776e+00	 1.268123e+01
 1.446986e+00	 1.202582e+00	 1.261936e+01
 1.523727e+00	 1.116314e+00	 1.287424e+01
 1.509987e+00	 1.134831e+00	 1.281352e+01
 1.496010e+00	 1.153193e+00	 1.276538e+01
 1.481799e+00	 1.171398e+00	 1.272077e+01
 1.467355e+00	 1.189441e+00	 1.267162e+01
 1.452683e+00	 1.207317e+00	 1.260834e+01
 1.424199e+00	 1.183644e+00	 1.265315e+01
 1.409592e+00	 1.201002e+00	 1.258035e+01
 1.394767e+00	 1.218187e+00	 1.249325e+01
 1.379726e+00	 1.235197e+00	 1.239728e+01
 1.364472e+00	 1.252027e+00	 1.229939e+01
 1.349009e+00	 1.268673e+00	 1.220772e+01
 1.429896e+00	 1.188379e+00	 1.264551e+01
 1.415231e+00	 1.205806e+00	 1.257163e+01
 1.400346e+00	 1.223060e+00	 1.248512e+01
 1.385245e+00	 1.240138e+00	 1.239079e+01
 1.369930e+00	 1.257035e+00	 1.229498e+01
 1.354405e+00	 1.273748e+00	 1.220525e+01
 1.435592e+00	 1.193113e+00	 1.263756e+01
 1.420869e+00	 1.210610e+00	 1.256268e+01
 1.405925e+00	 1.227933e+00	 1.247700e+01
 1.390763e+00	 1.245079e+00	 1.238458e+01
 1.375388e+00	 1.262043e+00	 1.229108e+01
 1.359801e+00	 1.278822e+00	 1.220338e+01
 1.441289e+00	 1.197848e+00	 1.262897e+01
 1.426507e+00	 1.215414e+00	 1.255328e+01
 1.411504e+00	 1.232806e+00	 1.246872e+01
 1.396282e+00	 1.250020e+00	 1.237855e+01
 1.380846e+00	 1.267051e+00	 1.228761e+01
 1.365197e+00	 1.283897e+00	 1.220200e+01
 1.446986e+00	 1.202582e+00	 1.261936e+01
 1.432146e+00	 1.220218e+00	 1.254315e+01
 1.417083e+00	 1.237678e+00	 1.246012e+01
 1.401801e+00	 1.254960e+00	 1.237258e+01
 1.386303e+00	 1.272059e+00	 1.228445e+01
 1.370593e+00	 1.288972e+00	 1.220097e+01
 1.452683e+00	 1.207317e+00	 1.260834e+01
 1.437784e+00	 1.225022e+00	 1.253203e+01
 1.422662e+00	 1.242551e+00	 1.245099e+01
 1.407320e+00	 1.259901e+00	 1.236650e+01
 1.391761e+00	 1.277068e+00	 1.228147e+01
 1.375989e+00	 1.294046e+00	 1.220015e+01
 1.349009e+00	 1.268673e+00	 1.220772e+01
 1.333340e+00	 1.285131e+00	 1.211060e+01
 1.317468e+00	 1.301397e+00	 1.199608e+01
 1.301397e+00	 1.317468e+00	 1.187249e+01
 1.285131e+00	 1.333340e+00	 1.174776e+01
 1.268673e+00	 1.349009e+00	 1.162896e+01
 1.354405e+00	 1.273748e+00	 1.220525e+01
 1.338673e+00	 1.290271e+00	 1.210948e+01
 1.322738e+00	 1.306603e+00	 1.199570e+01
 1.306603e+00	 1.322738e+00	 1.187242e+01
 1.290271e+00	 1.338673e+00	 1.174773e+01
 1.273748e+00	 1.354405e+00	 1.162891e+01
 1.359801e+00	 1.278822e+00	 1.220338e+01
 1.344006e+00	 1.295412e+00	 1.210890e+01
 1.328007e+00	 1.311808e+00	 1.199578e+01
 1.311808e+00	 1.328007e+00	 1.187270e+01
 1.295412e+00	 1.344006e+00	 1.174798e+01
 1.278822e+00	 1.359801e+00	 1.162910e+01
 1.365197e+00	 1.283897e+00	 1.220200e+01
 1.349340e+00	 1.300552e+00	 1.210871e+01
 1.333277e+00	 1.317014e+00	 1.199613e+01
 1.317014e+00	 1.333277e+00	 1.187314e+01
 1.300552e+00	 1.349340e+00	 1.174830e+01
 1.283897e+00	 1.365197e+00	 1.162930e+01
 1.370593e+00	 1.288972e+00	 1.220097e+01
 1.354673e+00	 1.305693e+00	 1.210876e+01
 1.338547e+00	 1.322219e+00	 1.199658e+01
 1.322219e+00	 1.338547e+00	 1.187354e+01
 1.305693e+00	 1.354673e+00	 1.174844e+01
 1.288972e+00	 1.370593e+00	 1.162925e+01
 1.375989e+00	 1.294046e+00	 1.220015e+01
 1.360006e+00	 1.310833e+00	 1.210887e+01
 1.343817e+00	 1.327425e+00	 1.199691e+01
 1.327425e+00	 1.343817e+00	 1.187365e+01
 1.310833e+00	 1.360006e+00	 1.174814e+01
 1.294046e+00	 1.375989e+00	 1.162864e+01
 1.268673e+00	 1.349009e+00	 1.162896e+01
 1.252027e+00	 1.364472e+00	 1.150748e+01
 1.235197e+00	 1.379726e+00	 1.137535e+01
 1.218187e+00	 1.394767e+00	 1.123816e+01
 1.201002e+00	 1.409592e+00	 1.109897e+01
 1.183644e+00	 1.424199e+00	 1.095798e+01
 1.273748e+00	 1.354405e+00	 1.162891e+01
 1.257035e+00	 1.369930e+00	 1.150768e+01
 1.240138e+00	 1.385245e+00	 1.137617e+01
 1.223060e+00	 1.400346e+00	 1.123974e+01
 1.205806e+00	 1.415231e+00	 1.110121e+01
 1.188379e+00	 1.429896e+00	 1.096044e+01
 1.278822e+00	 1.359801e+00	 1.162910e+01
 1.262043e+00	 1.375388e+00	 1.150812e+01
 1.245079e+00	 1.390763e+00	 1.137724e+01
 1.227933e+00	 1.405925e+00	 1.124158e+01
 1.210610e+00	 1.420869e+00	 1.110368e+01
 1.193113e+00	 1.435592e+00	 1.096308e+01
 1.283897e+00	 1.365197e+00	 1.162930e+01
 1.267051e+00	 1.380846e+00	 1.150856e+01
 1.250020e+00	 1.396282e+00	 1.137829e+01
 1.232806e+00	 1.411504e+00	 1.124340e+01
 1.215414e+00	 1.426507e+00	 1.110614e+01
 1.197848e+00	 1.441289e+00	 1.096568e+01
 1.288972e+00	 1.370593e+00	 1.162925e+01
 1.272059e+00	 1.386303e+00	 1.150869e+01
 1.254960e+00	 1.401801e+00	 1.137903e+01
 1.237678e+00	 1.417083e+00	 1.124491e+01
 1.220218e+00	 1.432146e+00	 1.110830e+01
 1.202582e+00	 1.446986e+00	 1.096800e+01
 1.294046e+00	 1.375989e+00	 1.162864e+01
 1.277068e+00	 1.391761e+00	 1.150822e+01
 1.259901e+00	 1.407320e+00	 1.137914e+01
 1.242551e+00	 1.422662e+00	 1.124581e+01
 1.225022e+00	 1.437784e+00	 1.110988e+01
 1.207317e+00	 1.452683e+00	 1.096978e+01
 1.183644e+00	 1.424199e+00	 1.095798e+01
 1.166119e+00	 1.438584e+00	 1.081566e+01
 1.148430e+00	 1.452744e+00	 1.067379e+01
 1.130582e+00	 1.466677e+00	 1.052942e+01
 1.112579e+00	 1.480379e+00	 1.037576e+01
 1.094426e+00	 1.493850e+00	 1.021560e+01
 1.188379e+00	 1.429896e+00	 1.096044e+01
 1.170783e+00	 1.444338e+00	 1.081888e+01
 1.153023e+00	 1.458555e+00	 1.067844e+01
 1.135104e+00	 1.472543e+00	 1.053434e+01
 1.117029e+00	 1.486301e+00	 1.037905e+01
 1.098804e+00	 1.499825e+00	 1.022192e+01
 1.193113e+00	 1.435592e+00	 1.096308e+01
 1.175448e+00	 1.450092e+00	 1.082206e+01
 1.157617e+00	 1.464366e+00	 1.068259e+01
 1.139626e+00	 1.478410e+00	 1.053823e+01
 1.121480e+00	 1.492222e+00	 1.038374e+01
 1.103181e+00	 1.505801e+00	 1.022917e+01
 1.197848e+00	 1.441289e+00	 1.096568e+01
 1.180112e+00	 1.455847e+00	 1.082503e+01
 1.162211e+00	 1.470177e+00	 1.068617e+01
 1.144149e+00	 1.484277e+00	 1.054127e+01
 1.125930e+00	 1.498144e+00	 1.038898e+01
 1.107559e+00	 1.511776e+00	 1.023663e+01
 1.202582e+00	 1.446986e+00	 1.096800e+01
 1.184776e+00	 1.461601e+00	 1.082761e+01
 1.166805e+00	 1.475988e+00	 1.068905e+01
 1.148671e+00	 1.490143e+00	 1.054427e+01
 1.130380e+00	 1.504065e+00	 1.039389e+01
 1.111937e+00	 1.517751e+00	 1.024360e+01
 1.207317e+00	 1.452683e+00	 1.096978e+01
 1.189441e+00	 1.467355e+00	 1.082956e+01
 1.171398e+00	 1.481799e+00	 1.069108e+01
 1.153193e+00	 1.496010e+00	 1.054654e+01
 1.134831e+00	 1.509987e+00	 1.039758e+01
 1.116314e+00	 1.523727e+00	 1.024913e+01
 1.094426e+00	 1.493850e+00	 1.021560e+01
 1.076127e+00	 1.507085e+00	 1.006659e+01
 1.057687e+00	 1.520084e+00	 9.925591e+00
 1.039110e+00	 1.532843e+00	 9.782857e+00
 1.020400e+00	 1.545360e+00	 9.630859e+00
 1.001564e+00	 1.557635e+00	 9.464098e+00
 1.098804e+00	 1.499825e+00	 1.022192e+01
 1.080432e+00	 1.513114e+00	 1.007539e+01
 1.061917e+00	 1.526164e+00	 9.935148e+00
 1.043266e+00	 1.538974e+00	 9.792214e+00
 1.024482e+00	 1.551542e+00	 9.639894e+00
 1.005570e+00	 1.563865e+00	 9.473585e+00
 1.103181e+00	 1.505801e+00	 1.022917e+01
 1.084736e+00	 1.519142e+00	 1.008435e+01
 1.066148e+00	 1.532244e+00	 9.944603e+00
 1.047423e+00	 1.545105e+00	 9.801573e+00
 1.028564e+00	 1.557723e+00	 9.649247e+00
 1.009576e+00	 1.570096e+00	 9.483763e+00
 1.107559e+00	 1.511776e+00	 1.023663e+01
 1.089041e+00	 1.525170e+00	 1.009285e+01
 1.070379e+00	 1.538325e+00	 9.953403e+00
 1.051579e+00	 1.551237e+00	 9.810410e+00
 1.032645e+00	 1.563905e+00	 9.658392e+00
 1.013583e+00	 1.576326e+00	 9.494078e+00
 1.111937e+00	 1.517751e+00	 1.024360e+01
 1.093345e+00	 1.531199e+00	 1.010028e+01
 1.074610e+00	 1.544405e+00	 9.960996e+00
 1.055735e+00	 1.557368e+00	 9.818199e+00
 1.036727e+00	 1.570086e+00	 9.666802e+00
 1.017589e+00	 1.582557e+00	 9.503976e+00
 1.116314e+00	 1.523727e+00	 1.024913e+01
 1.097650e+00	 1.537227e+00	 1.010604e+01
 1.078840e+00	 1.550485e+00	 9.966830e+00
 1.059892e+00	 1.563499e+00	 9.824414e+00
 1.040808e+00	 1.576267e+00	 9.673950e+00
 1.021595e+00	 1.588787e+00	 9.512903e+00
 1.001564e+00	 1.557635e+00	 9.464098e+00
 9.826043e-01	 1.569664e+00	 9.295418e+00
 9.635266e-01	 1.581446e+00	 9.136745e+00
 9.443357e-01	 1.592980e+00	 8.983602e+00
 9.250361e-01	 1.604264e+00	 8.832679e+00
 9.056327e-01	 1.615297e+00	 8.681661e+00
 1.005570e+00	 1.563865e+00	 9.473585e+00
 9.865347e-01	 1.575942e+00	 9.306362e+00
 9.673807e-01	 1.587772e+00	 9.149507e+00
 9.481130e-01	 1.599352e+00	 8.998170e+00
 9.287362e-01	 1.610681e+00	 8.848680e+00
 9.092553e-01	 1.621758e+00	 8.698364e+00
 1.009576e+00	 1.570096e+00	 9.483763e+00
 9.904651e-01	 1.582221e+00	 9.318201e+00
 9.712349e-01	 1.594098e+00	 9.163132e+00
 9.518904e-01	 1.605724e+00	 9.013424e+00
 9.324364e-01	 1.617098e+00	 8.865135e+00
 9.128778e-01	 1.628219e+00	 8.715327e+00
 1.013583e+00	 1.576326e+00	 9.494078e+00
 9.943955e-01	 1.588500e+00	 9.330351e+00
 9.750890e-01	 1.600423e+00	 9.177026e+00
 9.556677e-01	 1.612096e+00	 9.028776e+00
 9.361365e-01	 1.623515e+00	 8.881479e+00
 9.165003e-01	 1.634681e+00	 8.732026e+00
 1.017589e+00	 1.582557e+00	 9.503976e+00
 9.983259e-01	 1.594778e+00	 9.342226e+00
 9.789431e-01	 1.606749e+00	 9.190589e+00
 9.594450e-01	 1.618468e+00	 9.043634e+00
 9.398367e-01	 1.629932e+00	 8.897145e+00
 9.201229e-01	 1.641142e+00	 8.747934e+00
 1.021595e+00	 1.588787e+00	 9.512903e+00
 1.002256e+00	 1.601057e+00	 9.353241e+00
 9.827972e-01	 1.613075e+00	 9.203226e+00
 9.632224e-01	 1.624840e+00	 9.057407e+00
 9.435368e-01	 1.636349e+00	 8.911566e+00
 9.237454e-01	 1.647603e+00	 8.762524e+00
 9.056327e-01	 1.615297e+00	 8.681661e+00
 8.861304e-01	 1.626078e+00	 8.523556e+00
 8.665338e-01	 1.636605e+00	 8.355175e+00
 8.468478e-01	 1.646877e+00	 8.180975e+00
 8.270773e-01	 1.656894e+00	 8.005857e+00
 8.072271e-01	 1.666655e+00	 7.835014e+00
 9.092553e-01	 1.621758e+00	 8.698364e+00
 8.896749e-01	 1.632582e+00	 8.540467e+00
 8.699999e-01	 1.643151e+00	 8.372405e+00
 8.502352e-01	 1.653465e+00	 8.198835e+00
 8.303857e-01	 1.663522e+00	 8.024859e+00
 8.104560e-01	 1.673322e+00	 7.855869e+00
 9.128778e-01	 1.628219e+00	 8.715327e+00
 8.932194e-01	 1.639086e+00	 8.557590e+00
 8.734661e-01	 1.649697e+00	 8.389934e+00
 8.536226e-01	 1.660052e+00	 8.217132e+00
 8.336940e-01	 1.670149e+00	 8.044403e+00
 8.136849e-01	 1.679988e+00	 7.877250e+00
 9.165003e-01	 1.634681e+00	 8.732026e+00
 8.967639e-01	 1.645591e+00	 8.574441e+00
 8.769322e-01	 1.656244e+00	 8.407305e+00
 8.570100e-01	 1.666640e+00	 8.235425e+00
 8.370023e-01	 1.676777e+00	 8.064048e+00
 8.169139e-01	 1.686655e+00	 7.898703e+00
 9.201229e-01	 1.641142e+00	 8.747934e+00
 9.003084e-01	 1.652095e+00	 8.590537e+00
 8.803983e-01	 1.662790e+00	 8.424061e+00
 8.603974e-01	 1.673227e+00	 8.253266e+00
 8.403106e-01	 1.683404e+00	 8.083347e+00
 8.201428e-01	 1.693322e+00	 7.919771e+00
 9.237454e-01	 1.647603e+00	 8.762524e+00
 9.038530e-01	 1.658599e+00	 8.605387e+00
 8.838645e-01	 1.669337e+00	 8.439737e+00
 8.637848e-01	 1.679815e+00	 8.270205e+00
 8.436189e-01	 1.690032e+00	 8.101849e+00
 8.233717e-01	 1.699988e+00	 7.939991e+00
 8.072271e-01	 1.666655e+00	 7.835014e+00
 7.873020e-01	 1.676160e+00	 7.680430e+00
 7.673068e-01	 1.685407e+00	 7.542062e+00
 7.472463e-01	 1.694396e+00	 7.406929e+00
 7.271254e-01	 1.703128e+00	 7.261954e+00
 7.069488e-01	 1.711601e+00	 7.102330e+00
 8.104560e-01	 1.673322e+00	 7.855869e+00
 7.904512e-01	 1.682864e+00	 7.702708e+00
 7.703760e-01	 1.692148e+00	 7.564701e+00
 7.502353e-01	 1.701174e+00	 7.429826e+00
 7.300339e-01	 1.709940e+00	 7.285723e+00
 7.097765e-01	 1.718448e+00	 7.126615e+00
 8.136849e-01	 1.679988e+00	 7.877250e+00
 7.936004e-01	 1.689569e+00	 7.725363e+00
 7.734453e-01	 1.698890e+00	 7.587508e+00
 7.532243e-01	 1.707951e+00	 7.452664e+00
 7.329424e-01	 1.716753e+00	 7.309366e+00
 7.126043e-01	 1.725294e+00	 7.150981e+00
 8.169139e-01	 1.686655e+00	 7.898703e+00
 7.967496e-01	 1.696273e+00	 7.747927e+00
 7.765145e-01	 1.705632e+00	 7.610014e+00
 7.562133e-01	 1.714729e+00	 7.474975e+00
 7.358509e-01	 1.723565e+00	 7.332368e+00
 7.154321e-01	 1.732140e+00	 7.174933e+00
 8.201428e-01	 1.693322e+00	 7.919771e+00
 7.998988e-01	 1.702978e+00	 7.769931e+00
 7.795837e-01	 1.712373e+00	 7.631742e+00
 7.592023e-01	 1.721506e+00	 7.496287e+00
 7.387594e-01	 1.730378e+00	 7.354214e+00
 7.182599e-01	 1.738987e+00	 7.197972e+00
 8.233717e-01	 1.699988e+00	 7.939991e+00
 8.030481e-01	 1.709683e+00	 7.790900e+00
 7.826530e-01	 1.719115e+00	 7.652212e+00
 7.621913e-01	 1.728284e+00	 7.516122e+00
 7.416679e-01	 1.737190e+00	 7.374387e+00
 7.210877e-01	 1.745833e+00	 7.219588e+00
 7.069488e-01	 1.711601e+00	 7.102330e+00
 6.867212e-01	 1.719817e+00	 6.936927e+00
 6.664474e-01	 1.727774e+00	 6.776301e+00
 6.461321e-01	 1.735474e+00	 6.624461e+00
 6.257800e-01	 1.742916e+00	 6.483961e+00
 6.053958e-01	 1.750100e+00	 6.355825e+00
 7.097765e-01	 1.718448e+00	 7.126615e+00
 6.894681e-01	 1.726696e+00	 6.962191e+00
 6.691132e-01	 1.734685e+00	 6.803289e+00
 6.487166e-01	 1.742415e+00	 6.653491e+00
 6.282832e-01	 1.749887e+00	 6.514836e+00
 6.078174e-01	 1.757101e+00	 6.387742e+00
 7.126043e-01	 1.725294e+00	 7.150981e+00
 6.922149e-01	 1.733575e+00	 6.987741e+00
 6.717790e-01	 1.741596e+00	 6.830691e+00
 6.513012e-01	 1.749357e+00	 6.683000e+00
 6.307863e-01	 1.756859e+00	 6.546198e+00
 6.102390e-01	 1.764101e+00	 6.420101e+00
 7.154321e-01	 1.732140e+00	 7.174933e+00
 6.949618e-01	 1.740454e+00	 7.013111e+00
 6.744448e-01	 1.748507e+00	 6.858089e+00
 6.538857e-01	 1.756299e+00	 6.712630e+00
 6.332894e-01	 1.763831e+00	 6.577763e+00
 6.126606e-01	 1.771102e+00	 6.452708e+00
 7.182599e-01	 1.738987e+00	 7.197972e+00
 6.977087e-01	 1.747334e+00	 7.037830e+00
 6.771105e-01	 1.755418e+00	 6.885053e+00
 6.564702e-01	 1.763241e+00	 6.742010e+00
 6.357925e-01	 1.770802e+00	 6.609235e+00
 6.150821e-01	 1.778102e+00	 6.485352e+00
 7.210877e-01	 1.745833e+00	 7.219588e+00
 7.004556e-01	 1.754213e+00	 7.061417e+00
 6.797763e-01	 1.762330e+00	 6.911146e+00
 6.590548e-01	 1.770183e+00	 6.770760e+00
 6.382956e-01	 1.777774e+00	 6.640303e+00
 6.175037e-01	 1.785102e+00	 6.517809e+00
 6.053958e-01	 1.750100e+00	 6.355825e+00
 5.849840e-01	 1.757028e+00	 6.225558e+00
 5.645493e-01	 1.763700e+00	 6.083735e+00
 5.440962e-01	 1.770117e+00	 5.936694e+00
 5.236291e-01	 1.776279e+00	 5.789339e+00
 5.031526e-01	 1.782188e+00	 5.645244e+00
 6.078174e-01	 1.757101e+00	 6.387742e+00
 5.873240e-01	 1.764057e+00	 6.257682e+00
 5.668075e-01	 1.770755e+00	 6.115877e+00
 5.462726e-01	 1.777198e+00	 5.968952e+00
 5.257236e-01	 1.783384e+00	 5.822043e+00
 5.051652e-01	 1.789316e+00	 5.678890e+00
 6.102390e-01	 1.764101e+00	 6.420101e+00
 5.896639e-01	 1.771085e+00	 6.290211e+00
 5.690657e-01	 1.777810e+00	 6.148399e+00
 5.484490e-01	 1.784278e+00	 6.001500e+00
 5.278182e-01	 1.790489e+00	 5.854792e+00
 5.071778e-01	 1.796445e+00	 5.712097e+00
 6.126606e-01	 1.771102e+00	 6.452708e+00
 5.920039e-01	 1.778113e+00	 6.323039e+00
 5.713239e-01	 1.784865e+00	 6.181271e+00
 5.506253e-01	 1.791359e+00	 6.034370e+00
 5.299127e-01	 1.797595e+00	 5.887670e+00
 5.091904e-01	 1.803574e+00	 5.744986e+00
 6.150821e-01	 1.778102e+00	 6.485352e+00
 5.943438e-01	 1.785141e+00	 6.356044e+00
 5.735821e-01	 1.791920e+00	 6.214445e+00
 5.528017e-01	 1.798439e+00	 6.067576e+00
 5.320072e-01	 1.804700e+00	 5.920740e+00
 5.112030e-01	 1.810703e+00	 5.777659e+00
 6.175037e-01	 1.785102e+00	 6.517809e+00
 5.966837e-01	 1.792169e+00	 6.389086e+00
 5.758403e-01	 1.798974e+00	 6.247859e+00
 5.549781e-01	 1.805519e+00	 6.101115e+00
 5.341017e-01	 1.811805e+00	 5.954051e+00
 5.132156e-01	 1.817831e+00	 5.810199e+00
 5.031526e-01	 1.782188e+00	 5.645244e+00
 4.826710e-01	 1.787843e+00	 5.509998e+00
 4.621887e-01	 1.793248e+00	 5.385829e+00
 4.417099e-01	 1.798401e+00	 5.269739e+00
 4.212390e-01	 1.803306e+00	 5.158089e+00
 4.007801e-01	 1.807963e+00	 5.046814e+00
 5.051652e-01	 1.789316e+00	 5.678890e+00
 4.846017e-01	 1.794995e+00	 5.545041e+00
 4.640374e-01	 1.800421e+00	 5.422340e+00
 4.434768e-01	 1.805595e+00	 5.307377e+00
 4.229240e-01	 1.810519e+00	 5.196078e+00
 4.023832e-01	 1.815195e+00	 5.083925e+00
 5.071778e-01	 1.796445e+00	 5.712097e+00
 4.865323e-01	 1.802146e+00	 5.578859e+00
 4.658862e-01	 1.807594e+00	 5.456688e+00
 4.452436e-01	 1.812789e+00	 5.341998e+00
 4.246089e-01	 1.817733e+00	 5.230506e+00
 4.039864e-01	 1.822427e+00	 5.117476e+00
 5.091904e-01	 1.803574e+00	 5.744986e+00
 4.884630e-01	 1.809298e+00	 5.611623e+00
 4.677349e-01	 1.814767e+00	 5.489135e+00
 4.470104e-01	 1.819982e+00	 5.373985e+00
 4.262939e-01	 1.824946e+00	 5.261913e+00
 4.055895e-01	 1.829659e+00	 5.148186e+00
 5.112030e-01	 1.810703e+00	 5.777659e+00
 4.903937e-01	 1.816449e+00	 5.643486e+00
 4.695837e-01	 1.821940e+00	 5.519924e+00
 4.487773e-01	 1.827176e+00	 5.403707e+00
 4.279788e-01	 1.832159e+00	 5.290820e+00
 4.071926e-01	 1.836891e+00	 5.176756e+00
 5.132156e-01	 1.817831e+00	 5.810199e+00
 4.923244e-01	 1.823600e+00	 5.674585e+00
 4.714324e-01	 1.829113e+00	 5.549281e+00
 4.505441e-01	 1.834369e+00	 5.431515e+00
 4.296638e-01	 1.839372e+00	 5.317731e+00
 4.087957e-01	 1.844122e+00	 5.203869e+00
 4.007801e-01	 1.807963e+00	 5.046814e+00
 3.803374e-01	 1.812374e+00	 4.925102e+00
 3.599148e-01	 1.816540e+00	 4.811267e+00
 3.395165e-01	 1.820463e+00	 4.712125e+00
 3.191463e-01	 1.824144e+00	 4.622715e+00
 2.988082e-01	 1.827586e+00	 4.542478e+00
 4.023832e-01	 1.815195e+00	 5.083925e+00
 3.818587e-01	 1.819623e+00	 4.960681e+00
 3.613545e-01	 1.823806e+00	 4.845318e+00
 3.408746e-01	 1.827744e+00	 4.746641e+00
 3.204229e-01	 1.831440e+00	 4.658898e+00
 3.000035e-01	 1.834896e+00	 4.581017e+00
 4.039864e-01	 1.822427e+00	 5.117476e+00
 3.833801e-01	 1.826873e+00	 4.993309e+00
 3.627941e-01	 1.831072e+00	 4.876906e+00
 3.422326e-01	 1.835026e+00	 4.778519e+00
 3.216995e-01	 1.838737e+00	 4.691268e+00
 3.011987e-01	 1.842206e+00	 4.613134e+00
 4.055895e-01	 1.829659e+00	 5.148186e+00
 3.849014e-01	 1.834122e+00	 5.023869e+00
 3.642338e-01	 1.838338e+00	 4.907063e+00
 3.435907e-01	 1.842308e+00	 4.808849e+00
 3.229761e-01	 1.846034e+00	 4.720903e+00
 3.023939e-01	 1.849517e+00	 4.639835e+00
 4.071926e-01	 1.836891e+00	 5.176756e+00
 3.864228e-01	 1.841372e+00	 5.053222e+00
 3.656735e-01	 1.845604e+00	 4.936799e+00
 3.449488e-01	 1.849590e+00	 4.838705e+00
 3.242527e-01	 1.853330e+00	 4.749026e+00
 3.035892e-01	 1.856827e+00	 4.665527e+00
 4.087957e-01	 1.844122e+00	 5.203869e+00
 3.879441e-01	 1.848621e+00	 5.082213e+00
 3.671131e-01	 1.852871e+00	 4.967047e+00
 3.463068e-01	 1.856872e+00	 4.869262e+00
 3.255293e-01	 1.860627e+00	 4.781394e+00
 3.047844e-01	 1.864137e+00	 4.701128e+00
 2.988082e-01	 1.827586e+00	 4.542478e+00
 2.785059e-01	 1.830789e+00	 4.474836e+00
 2.582433e-01	 1.833757e+00	 4.416905e+00
 2.380238e-01	 1.836491e+00	 4.363493e+00
 2.178512e-01	 1.838993e+00	 4.312080e+00
 1.977290e-01	 1.841265e+00	 4.262394e+00
 3.000035e-01	 1.834896e+00	 4.581017e+00
 2.796200e-01	 1.838113e+00	 4.515823e+00
 2.592762e-01	 1.841092e+00	 4.459666e+00
 2.389759e-01	 1.843837e+00	 4.406968e+00
 2.187226e-01	 1.846349e+00	 4.355015e+00
 1.985199e-01	 1.848631e+00	 4.303494e+00
 3.011987e-01	 1.842206e+00	 4.613134e+00
 2.807340e-01	 1.845436e+00	 4.546023e+00
 2.603092e-01	 1.848427e+00	 4.485715e+00
 2.399280e-01	 1.851183e+00	 4.426611e+00
 2.195940e-01	 1.853705e+00	 4.367621e+00
 1.993109e-01	 1.855996e+00	 4.312823e+00
 3.023939e-01	 1.849517e+00	 4.639835e+00
 2.818480e-01	 1.852759e+00	 4.566517e+00
 2.613422e-01	 1.855762e+00	 4.500157e+00
 2.408801e-01	 1.858529e+00	 4.438790e+00
 2.204654e-01	 1.861061e+00	 4.381818e+00
 2.001018e-01	 1.863361e+00	 4.330251e+00
 3.035892e-01	 1.856827e+00	 4.665527e+00
 2.829620e-01	 1.860082e+00	 4.591681e+00
 2.623751e-01	 1.863097e+00	 4.525951e+00
 2.418322e-01	 1.865875e+00	 4.465631e+00
 2.213369e-01	 1.868417e+00	 4.410156e+00
 2.008927e-01	 1.870726e+00	 4.360570e+00
 3.047844e-01	 1.864137e+00	 4.701128e+00
 2.840761e-01	 1.867405e+00	 4.629967e+00
 2.634081e-01	 1.870432e+00	 4.566034e+00
 2.427843e-01	 1.873221e+00	 4.506900e+00
 2.222083e-01	 1.875773e+00	 4.452269e+00
 2.016836e-01	 1.878091e+00	 4.403457e+00
 1.977290e-01	 1.841265e+00	 4.262394e+00
 1.776606e-01	 1.843310e+00	 4.218092e+00
 1.576495e-01	 1.845129e+00	 4.180308e+00
 1.376988e-01	 1.846725e+00	 4.146941e+00
 1.178119e-01	 1.848101e+00	 4.116225e+00
 9.799187e-02	 1.849257e+00	 4.086218e+00
 1.985199e-01	 1.848631e+00	 4.303494e+00
 1.783713e-01	 1.850683e+00	 4.256050e+00
 1.582801e-01	 1.852510e+00	 4.214145e+00
 1.382496e-01	 1.854112e+00	 4.178514e+00
 1.182831e-01	 1.855493e+00	 4.147663e+00
 9.838384e-02	 1.856654e+00	 4.118815e+00
 1.993109e-01	 1.855996e+00	 4.312823e+00
 1.790819e-01	 1.858057e+00	 4.266630e+00
 1.589107e-01	 1.859890e+00	 4.230031e+00
 1.388004e-01	 1.861499e+00	 4.200392e+00
 1.187544e-01	 1.862885e+00	 4.174949e+00
 9.877581e-02	 1.864051e+00	 4.150435e+00
 2.001018e-01	 1.863361e+00	 4.330251e+00
 1.797926e-01	 1.865430e+00	 4.288009e+00
 1.595413e-01	 1.867271e+00	 4.255604e+00
 1.393512e-01	 1.868886e+00	 4.229997e+00
 1.192256e-01	 1.870278e+00	 4.208036e+00
 9.916778e-02	 1.871448e+00	 4.186090e+00
 2.008927e-01	 1.870726e+00	 4.360570e+00
 1.805032e-01	 1.872803e+00	 4.320675e+00
 1.601719e-01	 1.874651e+00	 4.290648e+00
 1.399020e-01	 1.876273e+00	 4.267166e+00
 1.196969e-01	 1.877670e+00	 4.246814e+00
 9.955974e-02	 1.878846e+00	 4.225718e+00
 2.016836e-01	 1.878091e+00	 4.403457e+00
 1.812139e-01	 1.880176e+00	 4.364357e+00
 1.608025e-01	 1.882032e+00	 4.334942e+00
 1.404528e-01	 1.883660e+00	 4.311733e+00
 1.201681e-01	 1.885063e+00	 4.291170e+00
 9.995171e-02	 1.886243e+00	 4.269253e+00
 9.799187e-02	 1.849257e+00	 4.086218e+00
 7.824181e-02	 1.850198e+00	 4.056773e+00
 5.856472e-02	 1.850926e+00	 4.031953e+00
 3.896350e-02	 1.851442e+00	 4.014360e+00
 1.944101e-02	 1.851750e+00	 4.004498e+00
-1.765630e-07	 1.851860e+00	 3.998676e+00
 9.838384e-02	 1.856654e+00	 4.118815e+00
 7.855478e-02	 1.857599e+00	 4.090996e+00
 5.879898e-02	 1.858329e+00	 4.067925e+00
 3.911935e-02	 1.858848e+00	 4.051948e+00
 1.951877e-02	 1.859157e+00	 4.043436e+00
-1.663163e-07	 1.859267e+00	 4.038886e+00
 9.877581e-02	 1.864051e+00	 4.150435e+00
 7.886775e-02	 1.865000e+00	 4.125639e+00
 5.903323e-02	 1.865733e+00	 4.104545e+00
 3.927521e-02	 1.866253e+00	 4.089802e+00
 1.959654e-02	 1.866564e+00	 4.082112e+00
-1.563252e-07	 1.866674e+00	 4.078446e+00
 9.916778e-02	 1.871448e+00	 4.186090e+00
 7.918072e-02	 1.872401e+00	 4.162825e+00
 5.926749e-02	 1.873137e+00	 4.142511e+00
 3.943106e-02	 1.873659e+00	 4.128089e+00
 1.967430e-02	 1.873971e+00	 4.120574e+00
-1.466008e-07	 1.874081e+00	 4.117395e+00
 9.955974e-02	 1.878846e+00	 4.225718e+00
 7.949368e-02	 1.879801e+00	 4.202531e+00
 5.950175e-02	 1.880540e+00	 4.181832e+00
 3.958692e-02	 1.881065e+00	 4.166837e+00
 1.975206e-02	 1.881378e+00	 4.158862e+00
-1.371544e-07	 1.881488e+00	 4.155774e+00
 9.995171e-02	 1.886243e+00	 4.269253e+00
 7.980665e-02	 1.887202e+00	 4.244732e+00
 5.973601e-02	 1.887944e+00	 4.222516e+00
 3.974277e-02	 1.888471e+00	 4.206077e+00
 1.982983e-02	 1.888785e+00	 4.197016e+00
-1.279970e-07	 1.888895e+00	 4.193621e+00
 1.888889e+00	 0.000000e+00	 1.288562e+01
 1.888785e+00	 1.982983e-02	 1.289210e+01
 1.888471e+00	 3.974277e-02	 1.289636e+01
 1.887944e+00	 5.973601e-02	 1.289939e+01
 1.887202e+00	 7.980665e-02	 1.290248e+01
 1.886243e+00	 9.995171e-02	 1.290711e+01
 1.896296e+00	 0.000000e+00	 1.285606e+01
 1.896192e+00	 1.990759e-02	 1.286313e+01
 1.895877e+00	 3.989862e-02	 1.286773e+01
 1.895348e+00	 5.997027e-02	 1.287087e+01
 1.894603e+00	 8.011962e-02	 1.287385e+01
 1.893640e+00	 1.003437e-01	 1.287813e+01
 1.903704e+00	 0.000000e+00	 1.282692e+01
 1.903599e+00	 1.998536e-02	 1.283461e+01
 1.903282e+00	 4.005448e-02	 1.283962e+01
 1.902751e+00	 6.020453e-02	 1.284296e+01
 1.902004e+00	 8.043258e-02	 1.284591e+01
 1.901037e+00	 1.007356e-01	 1.284994e+01
 1.911111e+00	 0.000000e+00	 1.279816e+01
 1.911006e+00	 2.006312e-02	 1.280653e+01
 1.910688e+00	 4.021033e-02	 1.281202e+01
 1.910155e+00	 6.043879e-02	 1.281566e+01
 1.909405e+00	 8.074555e-02	 1.281868e+01
 1.908434e+00	 1.011276e-01	 1.282253e+01
 1.918519e+00	 0.000000e+00	 1.276977e+01
 1.918413e+00	 2.014088e-02	 1.277888e+01
 1.918094e+00	 4.036619e-02	 1.278496e+01
 1.917559e+00	 6.067305e-02	 1.278899e+01
 1.916805e+00	 8.105852e-02	 1.279218e+01
 1.915831e+00	 1.015196e-01	 1.279591e+01
 1.925926e+00	 0.000000e+00	 1.274173e+01
 1.925820e+00	 2.021865e-02	 1.275168e+01
 1.925500e+00	 4.052204e-02	 1.275845e+01
 1.924963e+00	 6.090730e-02	 1.276298e+01
 1.924206e+00	 8.137149e-02	 1.276641e+01
 1.923228e+00	 1.019115e-01	 1.277008e+01
 1.886243e+00	 9.995171e-02	 1.290711e+01
 1.885063e+00	 1.201681e-01	 1.291338e+01
 1.883660e+00	 1.404528e-01	 1.292006e+01
 1.882032e+00	 1.608025e-01	 1.292686e+01
 1.880176e+00	 1.812139e-01	 1.293344e+01
 1.878091e+00	 2.016836e-01	 1.293939e+01
 1.893640e+00	 1.003437e-01	 1.287813e+01
 1.892455e+00	 1.206394e-01	 1.288403e+01
 1.891047e+00	 1.410036e-01	 1.289048e+01
 1.889412e+00	 1.614331e-01	 1.289714e+01
 1.887550e+00	 1.819245e-01	 1.290365e+01
 1.885456e+00	 2.024745e-01	 1.290955e+01
 1.901037e+00	 1.007356e-01	 1.284994e+01
 1.899847e+00	 1.211106e-01	 1.285554e+01
 1.898434e+00	 1.415544e-01	 1.286186e+01
 1.896793e+00	 1.620637e-01	 1.286849e+01
 1.894923e+00	 1.826351e-01	 1.287502e+01
 1.892821e+00	 2.032654e-01	 1.288095e+01
 1.908434e+00	 1.011276e-01	 1.282253e+01
 1.907240e+00	 1.215819e-01	 1.282791e+01
 1.905821e+00	 1.421052e-01	 1.283419e+01
 1.904173e+00	 1.626943e-01	 1.284088e+01
 1.902296e+00	 1.833458e-01	 1.284754e+01
 1.900186e+00	 2.040564e-01	 1.285359e+01
 1.915831e+00	 1.015196e-01	 1.279591e+01
 1.914632e+00	 1.220531e-01	 1.280114e+01
 1.913207e+00	 1.426560e-01	 1.280745e+01
 1.911554e+00	 1.633249e-01	 1.281432e+01
 1.909669e+00	 1.840564e-01	 1.282120e+01
 1.907551e+00	 2.048473e-01	 1.282748e+01
 1.923228e+00	 1.019115e-01	 1.277008e+01
 1.922025e+00	 1.225244e-01	 1.277521e+01
 1.920594e+00	 1.432068e-01	 1.278164e+01
 1.918934e+00	 1.639555e-01	 1.278878e+01
 1.917042e+00	 1.847671e-01	 1.279600e+01
 1.914916e+00	 2.056382e-01	 1.280262e+01
 1.878091e+00	 2.016836e-01	 1.293939e+01
 1.875773e+00	 2.222083e-01	 1.294549e+01
 1.873221e+00	 2.427843e-01	 1.295321e+01
 1.870432e+00	 2.634081e-01	 1.296285e+01
 1.867405e+00	 2.840761e-01	 1.297428e+01
 1.864137e+00	 3.047844e-01	 1.298689e+01
 1.885456e+00	 2.024745e-01	 1.290955e+01
 1.883129e+00	 2.230797e-01	 1.291561e+01
 1.880567e+00	 2.437364e-01	 1.292334e+01
 1.877767e+00	 2.644411e-01	 1.293308e+01
 1.874728e+00	 2.851901e-01	 1.294475e+01
 1.871448e+00	 3.059796e-01	 1.295777e+01
 1.892821e+00	 2.032654e-01	 1.288095e+01
 1.890485e+00	 2.239511e-01	 1.288702e+01
 1.887913e+00	 2.446885e-01	 1.289474e+01
 1.885102e+00	 2.654741e-01	 1.290450e+01
 1.882051e+00	 2.863041e-01	 1.291626e+01
 1.878758e+00	 3.071749e-01	 1.292947e+01
 1.900186e+00	 2.040564e-01	 1.285359e+01
 1.897841e+00	 2.248225e-01	 1.285972e+01
 1.895259e+00	 2.456406e-01	 1.286746e+01
 1.892437e+00	 2.665070e-01	 1.287719e+01
 1.889375e+00	 2.874181e-01	 1.288893e+01
 1.886068e+00	 3.083701e-01	 1.290217e+01
 1.907551e+00	 2.048473e-01	 1.282748e+01
 1.905197e+00	 2.256939e-01	 1.283376e+01
 1.902605e+00	 2.465927e-01	 1.284154e+01
 1.899773e+00	 2.675400e-01	 1.285124e+01
 1.896698e+00	 2.885322e-01	 1.286290e+01
 1.893379e+00	 3.095653e-01	 1.287605e+01
 1.914916e+00	 2.056382e-01	 1.280262e+01
 1.912553e+00	 2.265653e-01	 1.280914e+01
 1.909951e+00	 2.475448e-01	 1.281703e+01
 1.907108e+00	 2.685730e-01	 1.282672e+01
 1.904021e+00	 2.896462e-01	 1.283827e+01
 1.900689e+00	 3.107606e-01	 1.285125e+01
 1.864137e+00	 3.047844e-01	 1.298689e+01
 1.860627e+00	 3.255293e-01	 1.299957e+01
 1.856872e+00	 3.463068e-01	 1.301164e+01
 1.852871e+00	 3.671131e-01	 1.302198e+01
 1.848621e+00	 3.879441e-01	 1.303073e+01
 1.844122e+00	 4.087957e-01	 1.304351e+01
 1.871448e+00	 3.059796e-01	 1.295777e+01
 1.867923e+00	 3.268059e-01	 1.297100e+01
 1.864154e+00	 3.476649e-01	 1.298350e+01
 1.860137e+00	 3.685528e-01	 1.299389e+01
 1.855871e+00	 3.894655e-01	 1.300254e+01
 1.851354e+00	 4.103988e-01	 1.301556e+01
 1.878758e+00	 3.071749e-01	 1.292947e+01
 1.875220e+00	 3.280824e-01	 1.294304e+01
 1.871435e+00	 3.490230e-01	 1.295589e+01
 1.867403e+00	 3.699924e-01	 1.296640e+01
 1.863120e+00	 3.909868e-01	 1.297513e+01
 1.858586e+00	 4.120020e-01	 1.298774e+01
 1.886068e+00	 3.083701e-01	 1.290217e+01
 1.882516e+00	 3.293590e-01	 1.291589e+01
 1.878717e+00	 3.503810e-01	 1.292895e+01
 1.874669e+00	 3.714321e-01	 1.293960e+01
 1.870370e+00	 3.925082e-01	 1.294860e+01
 1.865818e+00	 4.136051e-01	 1.296118e+01
 1.893379e+00	 3.095653e-01	 1.287605e+01
 1.889813e+00	 3.306356e-01	 1.288974e+01
 1.885999e+00	 3.517391e-01	 1.290285e+01
 1.881935e+00	 3.728718e-01	 1.291359e+01
 1.877619e+00	 3.940295e-01	 1.292289e+01
 1.873050e+00	 4.152082e-01	 1.293563e+01
 1.900689e+00	 3.107606e-01	 1.285125e+01
 1.897110e+00	 3.319122e-01	 1.286478e+01
 1.893281e+00	 3.530972e-01	 1.287777e+01
 1.889201e+00	 3.743114e-01	 1.288843e+01
 1.884869e+00	 3.955509e-01	 1.289795e+01
 1.880282e+00	 4.168113e-01	 1.291083e+01
 1.844122e+00	 4.087957e-01	 1.304351e+01
 1.839372e+00	 4.296638e-01	 1.306115e+01
 1.834369e+00	 4.505441e-01	 1.308016e+01
 1.829113e+00	 4.714324e-01	 1.309921e+01
 1.823600e+00	 4.923244e-01	 1.311696e+01
 1.817831e+00	 5.132156e-01	 1.313216e+01
 1.851354e+00	 4.103988e-01	 1.301556e+01
 1.846585e+00	 4.313487e-01	 1.303358e+01
 1.841563e+00	 4.523110e-01	 1.305279e+01
 1.836286e+00	 4.732812e-01	 1.307190e+01
 1.830752e+00	 4.942551e-01	 1.308960e+01
 1.824960e+00	 5.152282e-01	 1.310465e+01
 1.858586e+00	 4.120020e-01	 1.298774e+01
 1.853799e+00	 4.330337e-01	 1.300524e+01
 1.848757e+00	 4.540778e-01	 1.302476e+01
 1.843459e+00	 4.751299e-01	 1.304422e+01
 1.837903e+00	 4.961858e-01	 1.306215e+01
 1.832089e+00	 5.172409e-01	 1.307726e+01
 1.865818e+00	 4.136051e-01	 1.296118e+01
 1.861012e+00	 4.347187e-01	 1.297794e+01
 1.855950e+00	 4.558446e-01	 1.299620e+01
 1.850632e+00	 4.769787e-01	 1.301568e+01
 1.845054e+00	 4.981164e-01	 1.303420e+01
 1.839218e+00	 5.192535e-01	 1.304974e+01
 1.873050e+00	 4.152082e-01	 1.293563e+01
 1.868225e+00	 4.364036e-01	 1.295206e+01
 1.863144e+00	 4.576115e-01	 1.296937e+01
 1.857805e+00	 4.788274e-01	 1.298726e+01
 1.852206e+00	 5.000471e-01	 1.300537e+01
 1.846346e+00	 5.212661e-01	 1.302185e+01
 1.880282e+00	 4.168113e-01	 1.291083e+01
 1.875438e+00	 4.380886e-01	 1.292719e+01
 1.870337e+00	 4.593783e-01	 1.294407e+01
 1.864977e+00	 4.806762e-01	 1.296107e+01
 1.859357e+00	 5.019778e-01	 1.297770e+01
 1.853475e+00	 5.232787e-01	 1.299347e+01
 1.817831e+00	 5.132156e-01	 1.313216e+01
 1.811805e+00	 5.341017e-01	 1.314617e+01
 1.805519e+00	 5.549781e-01	 1.316090e+01
 1.798974e+00	 5.758403e-01	 1.317618e+01
 1.792169e+00	 5.966837e-01	 1.319214e+01
 1.785102e+00	 6.175037e-01	 1.320925e+01
 1.824960e+00	 5.152282e-01	 1.310465e+01
 1.818910e+00	 5.361962e-01	 1.311853e+01
 1.812600e+00	 5.571545e-01	 1.313323e+01
 1.806029e+00	 5.780985e-01	 1.314857e+01
 1.799197e+00	 5.990237e-01	 1.316466e+01
 1.792103e+00	 6.199253e-01	 1.318197e+01
 1.832089e+00	 5.172409e-01	 1.307726e+01
 1.826015e+00	 5.382907e-01	 1.309110e+01
 1.819680e+00	 5.593309e-01	 1.310578e+01
 1.813084e+00	 5.803567e-01	 1.312113e+01
 1.806225e+00	 6.013636e-01	 1.313728e+01
 1.799103e+00	 6.223469e-01	 1.315469e+01
 1.839218e+00	 5.192535e-01	 1.304974e+01
 1.833120e+00	 5.403852e-01	 1.306382e+01
 1.826761e+00	 5.615073e-01	 1.307861e+01
 1.820139e+00	 5.826149e-01	 1.309400e+01
 1.813253e+00	 6.037035e-01	 1.311016e+01
 1.806104e+00	 6.247685e-01	 1.312759e+01
 1.846346e+00	 5.212661e-01	 1.302185e+01
 1.840225e+00	 5.424798e-01	 1.303660e+01
 1.833841e+00	 5.636836e-01	 1.305177e+01
 1.827194e+00	 5.848731e-01	 1.306732e+01
 1.820281e+00	 6.060435e-01	 1.308348e+01
 1.813104e+00	 6.271901e-01	 1.310081e+01
 1.853475e+00	 5.232787e-01	 1.299347e+01
 1.847330e+00	 5.445743e-01	 1.300939e+01
 1.840922e+00	 5.658600e-01	 1.302532e+01
 1.834248e+00	 5.871313e-01	 1.304121e+01
 1.827310e+00	 6.083834e-01	 1.305739e+01
 1.820104e+00	 6.296116e-01	 1.307451e+01
 1.785102e+00	 6.175037e-01	 1.320925e+01
 1.777774e+00	 6.382956e-01	 1.322625e+01
 1.770183e+00	 6.590548e-01	 1.324077e+01
 1.762330e+00	 6.797763e-01	 1.325236e+01
 1.754213e+00	 7.004556e-01	 1.326115e+01
 1.745833e+00	 7.210877e-01	 1.326786e+01
 1.792103e+00	 6.199253e-01	 1.318197e+01
 1.784746e+00	 6.407988e-01	 1.319944e+01
 1.777125e+00	 6.616393e-01	 1.321480e+01
 1.769241e+00	 6.824421e-01	 1.322738e+01
 1.761092e+00	 7.032025e-01	 1.323707e+01
 1.752680e+00	 7.239155e-01	 1.324439e+01
 1.799103e+00	 6.223469e-01	 1.315469e+01
 1.791717e+00	 6.433019e-01	 1.317257e+01
 1.784067e+00	 6.642238e-01	 1.318874e+01
 1.776152e+00	 6.851079e-01	 1.320231e+01
 1.767972e+00	 7.059494e-01	 1.321295e+01
 1.759526e+00	 7.267433e-01	 1.322098e+01
 1.806104e+00	 6.247685e-01	 1.312759e+01
 1.798689e+00	 6.458050e-01	 1.314578e+01
 1.791009e+00	 6.668083e-01	 1.316270e+01
 1.783063e+00	 6.877737e-01	 1.317724e+01
 1.774851e+00	 7.086962e-01	 1.318889e+01
 1.766372e+00	 7.295711e-01	 1.319774e+01
 1.813104e+00	 6.271901e-01	 1.310081e+01
 1.805661e+00	 6.483081e-01	 1.311920e+01
 1.797951e+00	 6.693929e-01	 1.313679e+01
 1.789974e+00	 6.904395e-01	 1.315229e+01
 1.781730e+00	 7.114431e-01	 1.316499e+01
 1.773219e+00	 7.323989e-01	 1.317479e+01
 1.820104e+00	 6.296116e-01	 1.307451e+01
 1.812632e+00	 6.508112e-01	 1.309292e+01
 1.804893e+00	 6.719774e-01	 1.311110e+01
 1.796885e+00	 6.931053e-01	 1.312753e+01
 1.788609e+00	 7.141900e-01	 1.314134e+01
 1.780065e+00	 7.352267e-01	 1.315224e+01
 1.745833e+00	 7.210877e-01	 1.326786e+01
 1.737190e+00	 7.416679e-01	 1.327279e+01
 1.728284e+00	 7.621913e-01	 1.327605e+01
 1.719115e+00	 7.826530e-01	 1.327738e+01
 1.709683e+00	 8.030481e-01	 1.327719e+01
 1.699988e+00	 8.233717e-01	 1.327598e+01
 1.752680e+00	 7.239155e-01	 1.324439e+01
 1.744003e+00	 7.445764e-01	 1.324980e+01
 1.735062e+00	 7.651803e-01	 1.325337e+01
 1.725856e+00	 7.857222e-01	 1.325503e+01
 1.716387e+00	 8.061973e-01	 1.325528e+01
 1.706655e+00	 8.266006e-01	 1.325469e+01
 1.759526e+00	 7.267433e-01	 1.322098e+01
 1.750815e+00	 7.474849e-01	 1.322696e+01
 1.741839e+00	 7.681692e-01	 1.323092e+01
 1.732598e+00	 7.887914e-01	 1.323299e+01
 1.723092e+00	 8.093465e-01	 1.323368e+01
 1.713322e+00	 8.298295e-01	 1.323368e+01
 1.766372e+00	 7.295711e-01	 1.319774e+01
 1.757628e+00	 7.503934e-01	 1.320439e+01
 1.748617e+00	 7.711582e-01	 1.320885e+01
 1.739340e+00	 7.918606e-01	 1.321136e+01
 1.729797e+00	 8.124957e-01	 1.321252e+01
 1.719988e+00	 8.330584e-01	 1.321303e+01
 1.773219e+00	 7.323989e-01	 1.317479e+01
 1.764440e+00	 7.533019e-01	 1.318223e+01
 1.755394e+00	 7.741472e-01	 1.318728e+01
 1.746081e+00	 7.949299e-01	 1.319028e+01
 1.736501e+00	 8.156449e-01	 1.319187e+01
 1.726655e+00	 8.362873e-01	 1.319281e+01
 1.780065e+00	 7.352267e-01	 1.315224e+01
 1.771253e+00	 7.562104e-01	 1.316059e+01
 1.762172e+00	 7.771362e-01	 1.316631e+01
 1.752823e+00	 7.979991e-01	 1.316983e+01
 1.743206e+00	 8.187941e-01	 1.317182e+01
 1.733321e+00	 8.395162e-01	 1.317308e+01
 1.699988e+00	 8.233717e-01	 1.327598e+01
 1.690032e+00	 8.436189e-01	 1.327016e+01
 1.679815e+00	 8.637848e-01	 1.325774e+01
 1.669337e+00	 8.838645e-01	 1.324155e+01
 1.658599e+00	 9.038530e-01	 1.322413e+01
 1.647603e+00	 9.237454e-01	 1.320760e+01
 1.706655e+00	 8.266006e-01	 1.325469e+01
 1.696660e+00	 8.469272e-01	 1.324950e+01
 1.686402e+00	 8.671722e-01	 1.323746e+01
 1.675883e+00	 8.873306e-01	 1.322141e+01
 1.665103e+00	 9.073975e-01	 1.320389e+01
 1.654064e+00	 9.273679e-01	 1.318705e+01
 1.713322e+00	 8.298295e-01	 1.323368e+01
 1.703287e+00	 8.502355e-01	 1.322907e+01
 1.692990e+00	 8.705596e-01	 1.321741e+01
 1.682429e+00	 8.907967e-01	 1.320152e+01
 1.671608e+00	 9.109420e-01	 1.318394e+01
 1.660525e+00	 9.309905e-01	 1.316684e+01
 1.719988e+00	 8.330584e-01	 1.321303e+01
 1.709915e+00	 8.535438e-01	 1.320892e+01
 1.699577e+00	 8.739470e-01	 1.319762e+01
 1.688976e+00	 8.942629e-01	 1.318189e+01
 1.678112e+00	 9.144865e-01	 1.316427e+01
 1.666987e+00	 9.346130e-01	 1.314692e+01
 1.726655e+00	 8.362873e-01	 1.319281e+01
 1.716542e+00	 8.568521e-01	 1.318911e+01
 1.706165e+00	 8.773344e-01	 1.317810e+01
 1.695522e+00	 8.977290e-01	 1.316252e+01
 1.684616e+00	 9.180311e-01	 1.314485e+01
 1.673448e+00	 9.382355e-01	 1.312724e+01
 1.733321e+00	 8.395162e-01	 1.317308e+01
 1.723170e+00	 8.601604e-01	 1.316966e+01
 1.712752e+00	 8.807218e-01	 1.315887e+01
 1.702069e+00	 9.011951e-01	 1.314338e+01
 1.691121e+00	 9.215756e-01	 1.312563e+01
 1.679909e+00	 9.418580e-01	 1.310774e+01
 1.647603e+00	 9.237454e-01	 1.320760e+01
 1.636349e+00	 9.435368e-01	 1.318972e+01
 1.624840e+00	 9.632224e-01	 1.316760e+01
 1.613075e+00	 9.827972e-01	 1.314144e+01
 1.601057e+00	 1.002256e+00	 1.311048e+01
 1.588787e+00	 1.021595e+00	 1.307279e+01
 1.654064e+00	 9.273679e-01	 1.318705e+01
 1.642766e+00	 9.472370e-01	 1.316902e+01
 1.631212e+00	 9.669997e-01	 1.314722e+01
 1.619401e+00	 9.866513e-01	 1.312178e+01
 1.607336e+00	 1.006187e+00	 1.309184e+01
 1.595018e+00	 1.025601e+00	 1.305541e+01
 1.660525e+00	 9.309905e-01	 1.316684e+01
 1.649184e+00	 9.509371e-01	 1.314865e+01
 1.637583e+00	 9.707771e-01	 1.312710e+01
 1.625727e+00	 9.905054e-01	 1.310226e+01
 1.613614e+00	 1.010117e+00	 1.307322e+01
 1.601248e+00	 1.029608e+00	 1.303792e+01
 1.666987e+00	 9.346130e-01	 1.314692e+01
 1.655601e+00	 9.546373e-01	 1.312856e+01
 1.643955e+00	 9.745544e-01	 1.310718e+01
 1.632052e+00	 9.943595e-01	 1.308281e+01
 1.619893e+00	 1.014048e+00	 1.305452e+01
 1.607479e+00	 1.033614e+00	 1.302022e+01
 1.673448e+00	 9.382355e-01	 1.312724e+01
 1.662018e+00	 9.583374e-01	 1.310867e+01
 1.650327e+00	 9.783318e-01	 1.308736e+01
 1.638378e+00	 9.982136e-01	 1.306333e+01
 1.626172e+00	 1.017978e+00	 1.303566e+01
 1.613709e+00	 1.037620e+00	 1.300225e+01
 1.679909e+00	 9.418580e-01	 1.310774e+01
 1.668435e+00	 9.620375e-01	 1.308890e+01
 1.656699e+00	 9.821091e-01	 1.306755e+01
 1.644704e+00	 1.002068e+00	 1.304373e+01
 1.632450e+00	 1.021908e+00	 1.301654e+01
 1.619940e+00	 1.041626e+00	 1.298388e+01
 1.588787e+00	 1.021595e+00	 1.307279e+01
 1.576267e+00	 1.040808e+00	 1.303687e+01
 1.563499e+00	 1.059892e+00	 1.300850e+01
 1.550485e+00	 1.078840e+00	 1.297920e+01
 1.537227e+00	 1.097650e+00	 1.293824e+01
 1.523727e+00	 1.116314e+00	 1.287424e+01
 1.595018e+00	 1.025601e+00	 1.305541e+01
 1.582449e+00	 1.044890e+00	 1.302023e+01
 1.569631e+00	 1.064048e+00	 1.299152e+01
 1.556566e+00	 1.083071e+00	 1.296092e+01
 1.543255e+00	 1.101954e+00	 1.291784e+01
 1.529702e+00	 1.120692e+00	 1.285515e+01
 1.601248e+00	 1.029608e+00	 1.303792e+01
 1.588630e+00	 1.048972e+00	 1.300341e+01
 1.575762e+00	 1.068205e+00	 1.297434e+01
 1.562646e+00	 1.087302e+00	 1.294247e+01
 1.549284e+00	 1.106259e+00	 1.289728e+01
 1.535678e+00	 1.125070e+00	 1.283778e+01
 1.607479e+00	 1.033614e+00	 1.302022e+01
 1.594812e+00	 1.053053e+00	 1.298633e+01
 1.581894e+00	 1.072361e+00	 1.295689e+01
 1.568726e+00	 1.091533e+00	 1.292373e+01
 1.555312e+00	 1.110563e+00	 1.287639e+01
 1.541653e+00	 1.129448e+00	 1.282157e+01
 1.613709e+00	 1.037620e+00	 1.300225e+01
 1.600993e+00	 1.057135e+00	 1.296888e+01
 1.588025e+00	 1.076518e+00	 1.293903e+01
 1.574807e+00	 1.095763e+00	 1.290456e+01
 1.561340e+00	 1.114868e+00	 1.285567e+01
 1.547628e+00	 1.133825e+00	 1.280599e+01
 1.619940e+00	 1.041626e+00	 1.298388e+01
 1.607175e+00	 1.061216e+00	 1.295097e+01
 1.594156e+00	 1.080674e+00	 1.292067e+01
 1.580887e+00	 1.099994e+00	 1.288481e+01
 1.567369e+00	 1.119172e+00	 1.283587e+01
 1.553604e+00	 1.138203e+00	 1.279052e+01
 1.523727e+00	 1.116314e+00	 1.287424e+01
 1.509987e+00	 1.134831e+00	 1.281352e+01
 1.496010e+00	 1.153193e+00	 1.276538e+01
 1.481799e+00	 1.171398e+00	 1.272077e+01
 1.467355e+00	 1.189441e+00	 1.267162e+01
 1.452683e+00	 1.207317e+00	 1.260834e+01
 1.529702e+00	 1.120692e+00	 1.285515e+01
 1.515909e+00	 1.139281e+00	 1.280026e+01
 1.501877e+00	 1.157716e+00	 1.275525e+01
 1.487610e+00	 1.175992e+00	 1.271176e+01
 1.473110e+00	 1.194105e+00	 1.266155e+01
 1.458380e+00	 1.212051e+00	 1.259695e+01
 1.535678e+00	 1.125070e+00	 1.283778e+01
 1.521830e+00	 1.143731e+00	 1.278800e+01
 1.507744e+00	 1.162238e+00	 1.274555e+01
 1.493421e+00	 1.180586e+00	 1.270283e+01
 1.478864e+00	 1.198770e+00	 1.265195e+01
 1.464076e+00	 1.216786e+00	 1.258616e+01
 1.541653e+00	 1.129448e+00	 1.282157e+01
 1.527752e+00	 1.148182e+00	 1.277614e+01
 1.513610e+00	 1.166760e+00	 1.273567e+01
 1.499232e+00	 1.185180e+00	 1.269336e+01
 1.484618e+00	 1.203434e+00	 1.264214e+01
 1.469773e+00	 1.221521e+00	 1.257540e+01
 1.547628e+00	 1.133825e+00	 1.280599e+01
 1.533673e+00	 1.152632e+00	 1.276412e+01
 1.519477e+00	 1.171283e+00	 1.272501e+01
 1.505043e+00	 1.189773e+00	 1.268275e+01
 1.490373e+00	 1.208099e+00	 1.263116e+01
 1.475470e+00	 1.226255e+00	 1.256409e+01
 1.553604e+00	 1.138203e+00	 1.279052e+01
 1.539595e+00	 1.157082e+00	 1.275136e+01
 1.525344e+00	 1.175805e+00	 1.271300e+01
 1.510853e+00	 1.194367e+00	 1.267041e+01
 1.496127e+00	 1.212763e+00	 1.261841e+01
 1.481167e+00	 1.230990e+00	 1.255164e+01
 1.452683e+00	 1.207317e+00	 1.260834e+01
 1.437784e+00	 1.225022e+00	 1.253203e+01
 1.422662e+00	 1.242551e+00	 1.245099e+01
 1.407320e+00	 1.259901e+00	 1.236650e+01
 1.391761e+00	 1.277068e+00	 1.228147e+01
 1.375989e+00	 1.294046e+00	 1.220015e+01
 1.458380e+00	 1.212051e+00	 1.259695e+01
 1.443422e+00	 1.229826e+00	 1.252089e+01
 1.428241e+00	 1.247424e+00	 1.244212e+01
 1.412839e+00	 1.264842e+00	 1.236086e+01
 1.397219e+00	 1.282076e+00	 1.227899e+01
 1.381385e+00	 1.299121e+00	 1.219971e+01
 1.464076e+00	 1.216786e+00	 1.258616e+01
 1.449061e+00	 1.234630e+00	 1.251057e+01
 1.433820e+00	 1.252297e+00	 1.243416e+01
 1.418358e+00	 1.269783e+00	 1.235609e+01
 1.402677e+00	 1.287084e+00	 1.227724e+01
 1.386781e+00	 1.304196e+00	 1.219978e+01
 1.469773e+00	 1.221521e+00	 1.257540e+01
 1.454699e+00	 1.239434e+00	 1.250058e+01
 1.439399e+00	 1.257169e+00	 1.242667e+01
 1.423877e+00	 1.274724e+00	 1.235182e+01
 1.408135e+00	 1.292092e+00	 1.227589e+01
 1.392177e+00	 1.309270e+00	 1.220010e+01
 1.475470e+00	 1.226255e+00	 1.256409e+01
 1.460338e+00	 1.244238e+00	 1.249040e+01
 1.444978e+00	 1.262042e+00	 1.241920e+01
 1.429396e+00	 1.279664e+00	 1.234764e+01
 1.413593e+00	 1.297100e+00	 1.227462e+01
 1.397573e+00	 1.314345e+00	 1.220038e+01
 1.481167e+00	 1.230990e+00	 1.255164e+01
 1.465976e+00	 1.249042e+00	 1.247950e+01
 1.450558e+00	 1.266915e+00	 1.241129e+01
 1.434915e+00	 1.284605e+00	 1.234316e+01
 1.419051e+00	 1.302108e+00	 1.227306e+01
 1.402969e+00	 1.319420e+00	 1.220033e+01
 1.375989e+00	 1.294046e+00	 1.220015e+01
 1.360006e+00	 1.310833e+00	 1.210887e+01
 1.343817e+00	 1.327425e+00	 1.199691e+01
 1.327425e+00	 1.343817e+00	 1.187365e+01
 1.310833e+00	 1.360006e+00	 1.174814e+01
 1.294046e+00	 1.375989e+00	 1.162864e+01
 1.381385e+00	 1.299121e+00	 1.219971e+01
 1.365340e+00	 1.315974e+00	 1.210920e+01
 1.349087e+00	 1.332630e+00	 1.199740e+01
 1.332630e+00	 1.349087e+00	 1.187389e+01
 1.315974e+00	 1.365340e+00	 1.174797e+01
 1.299121e+00	 1.381385e+00	 1.162814e+01
 1.386781e+00	 1.304196e+00	 1.219978e+01
 1.370673e+00	 1.321114e+00	 1.210992e+01
 1.354357e+00	 1.337836e+00	 1.199833e+01
 1.337836e+00	 1.354357e+00	 1.187472e+01
 1.321114e+00	 1.370673e+00	 1.174853e+01
 1.304196e+00	 1.386781e+00	 1.162842e+01
 1.392177e+00	 1.309270e+00	 1.220010e+01
 1.376006e+00	 1.326255e+00	 1.211080e+01
 1.359627e+00	 1.343042e+00	 1.199949e+01
 1.343042e+00	 1.359627e+00	 1.187592e+01
 1.326255e+00	 1.376006e+00	 1.174957e+01
 1.309270e+00	 1.392177e+00	 1.162914e+01
 1.397573e+00	 1.314345e+00	 1.220038e+01
 1.381340e+00	 1.331395e+00	 1.211161e+01
 1.364897e+00	 1.348247e+00	 1.200066e+01
 1.348247e+00	 1.364897e+00	 1.187724e+01
 1.331395e+00	 1.381340e+00	 1.175079e+01
 1.314345e+00	 1.397573e+00	 1.162997e+01
 1.402969e+00	 1.319420e+00	 1.220033e+01
 1.386673e+00	 1.336536e+00	 1.211207e+01
 1.370166e+00	 1.353453e+00	 1.200158e+01
 1.353453e+00	 1.370166e+00	 1.187841e+01
 1.336536e+00	 1.386673e+00	 1.175189e+01
 1.319420e+00	 1.402969e+00	 1.163054e+01
 1.294046e+00	 1.375989e+00	 1.162864e+01
 1.277068e+00	 1.391761e+00	 1.150822e+01
 1.259901e+00	 1.407320e+00	 1.137914e+01
 1.242551e+00	 1.422662e+00	 1.124581e+01
 1.225022e+00	 1.437784e+00	 1.110988e+01
 1.207317e+00	 1.452683e+00	 1.096978e+01
 1.299121e+00	 1.381385e+00	 1.162814e+01
 1.282076e+00	 1.397219e+00	 1.150779e+01
 1.264842e+00	 1.412839e+00	 1.137921e+01
 1.247424e+00	 1.428241e+00	 1.124659e+01
 1.229826e+00	 1.443422e+00	 1.111133e+01
 1.212051e+00	 1.458380e+00	 1.097156e+01
 1.304196e+00	 1.386781e+00	 1.162842e+01
 1.287084e+00	 1.402677e+00	 1.150802e+01
 1.269783e+00	 1.418358e+00	 1.137977e+01
 1.252297e+00	 1.433820e+00	 1.124772e+01
 1.234630e+00	 1.449061e+00	 1.111314e+01
 1.216786e+00	 1.464076e+00	 1.097390e+01
 1.309270e+00	 1.392177e+00	 1.162914e+01
 1.292092e+00	 1.408135e+00	 1.150854e+01
 1.274724e+00	 1.423877e+00	 1.138042e+01
 1.257169e+00	 1.439399e+00	 1.124882e+01
 1.239434e+00	 1.454699e+00	 1.111492e+01
 1.221521e+00	 1.469773e+00	 1.097651e+01
 1.314345e+00	 1.397573e+00	 1.162997e+01
 1.297100e+00	 1.413593e+00	 1.150895e+01
 1.279664e+00	 1.429396e+00	 1.138073e+01
 1.262042e+00	 1.444978e+00	 1.124944e+01
 1.244238e+00	 1.460338e+00	 1.111629e+01
 1.226255e+00	 1.475470e+00	 1.097905e+01
 1.319420e+00	 1.402969e+00	 1.163054e+01
 1.302108e+00	 1.419051e+00	 1.150882e+01
 1.284605e+00	 1.434915e+00	 1.138026e+01
 1.266915e+00	 1.450558e+00	 1.124915e+01
 1.249042e+00	 1.465976e+00	 1.111684e+01
 1.230990e+00	 1.481167e+00	 1.098119e+01
 1.207317e+00	 1.452683e+00	 1.096978e+01
 1.189441e+00	 1.467355e+00	 1.082956e+01
 1.171398e+00	 1.481799e+00	 1.069108e+01
 1.153193e+00	 1.496010e+00	 1.054654e+01
 1.134831e+00	 1.509987e+00	 1.039758e+01
 1.116314e+00	 1.523727e+00	 1.024913e+01
 1.212051e+00	 1.458380e+00	 1.097156e+01
 1.194105e+00	 1.473110e+00	 1.083166e+01
 1.175992e+00	 1.487610e+00	 1.069316e+01
 1.157716e+00	 1.501877e+00	 1.054873e+01
 1.139281e+00	 1.515909e+00	 1.040100e+01
 1.120692e+00	 1.529702e+00	 1.025423e+01
 1.216786e+00	 1.464076e+00	 1.097390e+01
 1.198770e+00	 1.478864e+00	 1.083470e+01
 1.180586e+00	 1.493421e+00	 1.069579e+01
 1.162238e+00	 1.507744e+00	 1.055157e+01
 1.143731e+00	 1.521830e+00	 1.040512e+01
 1.125070e+00	 1.535678e+00	 1.026005e+01
 1.221521e+00	 1.469773e+00	 1.097651e+01
 1.203434e+00	 1.484618e+00	 1.083824e+01
 1.185180e+00	 1.499232e+00	 1.069818e+01
 1.166760e+00	 1.513610e+00	 1.055429e+01
 1.148182e+00	 1.527752e+00	 1.040919e+01
 1.129448e+00	 1.541653e+00	 1.026583e+01
 1.226255e+00	 1.475470e+00	 1.097905e+01
 1.208099e+00	 1.490373e+00	 1.084070e+01
 1.189773e+00	 1.505043e+00	 1.069957e+01
 1.171283e+00	 1.519477e+00	 1.055616e+01
 1.152632e+00	 1.533673e+00	 1.041248e+01
 1.133825e+00	 1.547628e+00	 1.027084e+01
 1.230990e+00	 1.481167e+00	 1.098119e+01
 1.212763e+00	 1.496127e+00	 1.084118e+01
 1.194367e+00	 1.510853e+00	 1.069921e+01
 1.175805e+00	 1.525344e+00	 1.055644e+01
 1.157082e+00	 1.539595e+00	 1.041426e+01
 1.138203e+00	 1.553604e+00	 1.027435e+01
 1.116314e+00	 1.523727e+00	 1.024913e+01
 1.097650e+00	 1.537227e+00	 1.010604e+01
 1.078840e+00	 1.550485e+00	 9.966830e+00
 1.059892e+00	 1.563499e+00	 9.824414e+00
 1.040808e+00	 1.576267e+00	 9.673950e+00
 1.021595e+00	 1.588787e+00	 9.512903e+00
 1.120692e+00	 1.529702e+00	 1.025423e+01
 1.101954e+00	 1.543255e+00	 1.011143e+01
 1.083071e+00	 1.556566e+00	 9.972159e+00
 1.064048e+00	 1.569631e+00	 9.830171e+00
 1.044890e+00	 1.582449e+00	 9.680775e+00
 1.025601e+00	 1.595018e+00	 9.521637e+00
 1.125070e+00	 1.535678e+00	 1.026005e+01
 1.106259e+00	 1.549284e+00	 1.011771e+01
 1.087302e+00	 1.562646e+00	 9.978176e+00
 1.068205e+00	 1.575762e+00	 9.836512e+00
 1.048972e+00	 1.588630e+00	 9.688150e+00
 1.029608e+00	 1.601248e+00	 9.530922e+00
 1.129448e+00	 1.541653e+00	 1.026583e+01
 1.110563e+00	 1.555312e+00	 1.012424e+01
 1.091533e+00	 1.568726e+00	 9.984235e+00
 1.072361e+00	 1.581894e+00	 9.842808e+00
 1.053053e+00	 1.594812e+00	 9.695461e+00
 1.033614e+00	 1.607479e+00	 9.540147e+00
 1.133825e+00	 1.547628e+00	 1.027084e+01
 1.114868e+00	 1.561340e+00	 1.013022e+01
 1.095763e+00	 1.574807e+00	 9.989695e+00
 1.076518e+00	 1.588025e+00	 9.848434e+00
 1.057135e+00	 1.600993e+00	 9.702091e+00
 1.037620e+00	 1.613709e+00	 9.548707e+00
 1.138203e+00	 1.553604e+00	 1.027435e+01
 1.119172e+00	 1.567369e+00	 1.013478e+01
 1.099994e+00	 1.580887e+00	 9.993921e+00
 1.080674e+00	 1.594156e+00	 9.852768e+00
 1.061216e+00	 1.607175e+00	 9.707430e+00
 1.041626e+00	 1.619940e+00	 9.555996e+00
 1.021595e+00	 1.588787e+00	 9.512903e+00
 1.002256e+00	 1.601057e+00	 9.353241e+00
 9.827972e-01	 1.613075e+00	 9.203226e+00
 9.632224e-01	 1.624840e+00	 9.057407e+00
 9.435368e-01	 1.636349e+00	 8.911566e+00
 9.237454e-01	 1.647603e+00	 8.762524e+00
 1.025601e+00	 1.595018e+00	 9.521637e+00
 1.006187e+00	 1.607336e+00	 9.364097e+00
 9.866513e-01	 1.619401e+00	 9.215640e+00
 9.669997e-01	 1.631212e+00	 9.070851e+00
 9.472370e-01	 1.642766e+00	 8.925567e+00
 9.273679e-01	 1.654064e+00	 8.776674e+00
 1.029608e+00	 1.601248e+00	 9.530922e+00
 1.010117e+00	 1.613614e+00	 9.375484e+00
 9.905054e-01	 1.625727e+00	 9.228542e+00
 9.707771e-01	 1.637583e+00	 9.084738e+00
 9.509371e-01	 1.649184e+00	 8.939988e+00
 9.309905e-01	 1.660525e+00	 8.791269e+00
 1.033614e+00	 1.607479e+00	 9.540147e+00
 1.014048e+00	 1.619893e+00	 9.386801e+00
 9.943595e-01	 1.632052e+00	 9.241343e+00
 9.745544e-01	 1.643955e+00	 9.098498e+00
 9.546373e-01	 1.655601e+00	 8.954281e+00
 9.346130e-01	 1.666987e+00	 8.805785e+00
 1.037620e+00	 1.613709e+00	 9.548707e+00
 1.017978e+00	 1.626172e+00	 9.397451e+00
 9.982136e-01	 1.638378e+00	 9.253457e+00
 9.783318e-01	 1.650327e+00	 9.111559e+00
 9.583374e-01	 1.662018e+00	 8.967895e+00
 9.382355e-01	 1.673448e+00	 8.819699e+00
 1.041626e+00	 1.619940e+00	 9.555996e+00
 1.021908e+00	 1.632450e+00	 9.406834e+00
 1.002068e+00	 1.644704e+00	 9.264299e+00
 9.821091e-01	 1.656699e+00	 9.123352e+00
 9.620375e-01	 1.668435e+00	 8.980283e+00
 9.418580e-01	 1.679909e+00	 8.832485e+00
 9.237454e-01	 1.647603e+00	 8.762524e+00
 9.038530e-01	 1.658599e+00	 8.605387e+00
 8.838645e-01	 1.669337e+00	 8.439737e+00
 8.637848e-01	 1.679815e+00	 8.270205e+00
 8.436189e-01	 1.690032e+00	 8.101849e+00
 8.233717e-01	 1.699988e+00	 7.939991e+00
 9.273679e-01	 1.654064e+00	 8.776674e+00
 9.073975e-01	 1.665103e+00	 8.619869e+00
 8.873306e-01	 1.675883e+00	 8.455158e+00
 8.671722e-01	 1.686402e+00	 8.286991e+00
 8.469272e-01	 1.696660e+00	 8.120234e+00
 8.266006e-01	 1.706655e+00	 7.960008e+00
 9.309905e-01	 1.660525e+00	 8.791269e+00
 9.109420e-01	 1.671608e+00	 8.634855e+00
 8.907967e-01	 1.682429e+00	 8.471137e+00
 8.705596e-01	 1.692990e+00	 8.304356e+00
 8.502355e-01	 1.703287e+00	 8.139163e+00
 8.298295e-01	 1.713322e+00	 7.980445e+00
 9.346130e-01	 1.666987e+00	 8.805785e+00
 9.144865e-01	 1.678112e+00	 8.649846e+00
 8.942629e-01	 1.688976e+00	 8.487187e+00
 8.739470e-01	 1.699577e+00	 8.321818e+00
 8.535438e-01	 1.709915e+00	 8.158146e+00
 8.330584e-01	 1.719988e+00	 8.000798e+00
 9.382355e-01	 1.673448e+00	 8.819699e+00
 9.180311e-01	 1.684616e+00	 8.664340e+00
 8.977290e-01	 1.695522e+00	 8.502819e+00
 8.773344e-01	 1.706165e+00	 8.338890e+00
 8.568521e-01	 1.716542e+00	 8.176690e+00
 8.362873e-01	 1.726655e+00	 8.020559e+00
 9.418580e-01	 1.679909e+00	 8.832485e+00
 9.215756e-01	 1.691121e+00	 8.677834e+00
 9.011951e-01	 1.702069e+00	 8.517540e+00
 8.807218e-01	 1.712752e+00	 8.355081e+00
 8.601604e-01	 1.723170e+00	 8.194300e+00
 8.395162e-01	 1.733321e+00	 8.039219e+00
 8.233717e-01	 1.699988e+00	 7.939991e+00
 8.030481e-01	 1.709683e+00	 7.790900e+00
 7.826530e-01	 1.719115e+00	 7.652212e+00
 7.621913e-01	 1.728284e+00	 7.516122e+00
 7.416679e-01	 1.737190e+00	 7.374387e+00
 7.210877e-01	 1.745833e+00	 7.219588e+00
 8.266006e-01	 1.706655e+00	 7.960008e+00
 8.061973e-01	 1.716387e+00	 7.811504e+00
 7.857222e-01	 1.725856e+00	 7.672170e+00
 7.651803e-01	 1.735062e+00	 7.535315e+00
 7.445764e-01	 1.744003e+00	 7.393804e+00
 7.239155e-01	 1.752680e+00	 7.240671e+00
 8.298295e-01	 1.713322e+00	 7.980445e+00
 8.093465e-01	 1.723092e+00	 7.832393e+00
 7.887914e-01	 1.732598e+00	 7.692341e+00
 7.681692e-01	 1.741839e+00	 7.554687e+00
 7.474849e-01	 1.750815e+00	 7.413378e+00
 7.267433e-01	 1.759526e+00	 7.262117e+00
 8.330584e-01	 1.719988e+00	 8.000798e+00
 8.124957e-01	 1.729797e+00	 7.853048e+00
 7.918606e-01	 1.739340e+00	 7.712205e+00
 7.711582e-01	 1.748617e+00	 7.573731e+00
 7.503934e-01	 1.757628e+00	 7.432628e+00
 7.295711e-01	 1.766372e+00	 7.283425e+00
 8.362873e-01	 1.726655e+00	 8.020559e+00
 8.156449e-01	 1.736501e+00	 7.872950e+00
 7.949299e-01	 1.746081e+00	 7.731243e+00
 7.741472e-01	 1.755394e+00	 7.591936e+00
 7.533019e-01	 1.764440e+00	 7.451067e+00
 7.323989e-01	 1.773219e+00	 7.304096e+00
 8.395162e-01	 1.733321e+00	 8.039219e+00
 8.187941e-01	 1.743206e+00	 7.891575e+00
 7.979991e-01	 1.752823e+00	 7.748929e+00
 7.771362e-01	 1.762172e+00	 7.608790e+00
 7.562104e-01	 1.771253e+00	 7.468203e+00
 7.352267e-01	 1.780065e+00	 7.323622e+00
 7.210877e-01	 1.745833e+00	 7.219588e+00
 7.004556e-01	 1.754213e+00	 7.061417e+00
 6.797763e-01	 1.762330e+00	 6.911146e+00
 6.590548e-01	 1.770183e+00	 6.770760e+00
 6.382956e-01	 1.777774e+00	 6.640303e+00
 6.175037e-01	 1.785102e+00	 6.517809e+00
 7.239155e-01	 1.752680e+00	 7.240671e+00
 7.032025e-01	 1.761092e+00	 7.084719e+00
 6.824421e-01	 1.769241e+00	 6.937099e+00
 6.616393e-01	 1.777125e+00	 6.799411e+00
 6.407988e-01	 1.784746e+00	 6.671207e+00
 6.199253e-01	 1.792103e+00	 6.549924e+00
 7.267433e-01	 1.759526e+00	 7.262117e+00
 7.059494e-01	 1.767972e+00	 7.108600e+00
 6.851079e-01	 1.776152e+00	 6.963650e+00
 6.642238e-01	 1.784067e+00	 6.828478e+00
 6.433019e-01	 1.791717e+00	 6.702130e+00
 6.223469e-01	 1.799103e+00	 6.581428e+00
 7.295711e-01	 1.766372e+00	 7.283425e+00
 7.086962e-01	 1.774851e+00	 7.132595e+00
 6.877737e-01	 1.783063e+00	 6.990362e+00
 6.668083e-01	 1.791009e+00	 6.857540e+00
 6.458050e-01	 1.798689e+00	 6.732660e+00
 6.247685e-01	 1.806104e+00	 6.611911e+00
 7.323989e-01	 1.773219e+00	 7.304096e+00
 7.114431e-01	 1.781730e+00	 7.156234e+00
 6.904395e-01	 1.789974e+00	 7.016786e+00
 6.693929e-01	 1.797951e+00	 6.886166e+00
 6.483081e-01	 1.805661e+00	 6.762376e+00
 6.271901e-01	 1.813104e+00	 6.640951e+00
 7.352267e-01	 1.780065e+00	 7.323622e+00
 7.141900e-01	 1.788609e+00	 7.179040e+00
 6.931053e-01	 1.796885e+00	 7.042471e+00
 6.719774e-01	 1.804893e+00	 6.913919e+00
 6.508112e-01	 1.812632e+00	 6.790847e+00
 6.296116e-01	 1.820104e+00	 6.668117e+00
 6.175037e-01	 1.785102e+00	 6.517809e+00
 5.966837e-01	 1.792169e+00	 6.389086e+00
 5.758403e-01	 1.798974e+00	 6.247859e+00
 5.549781e-01	 1.805519e+00	 6.101115e+00
 5.341017e-01	 1.811805e+00	 5.954051e+00
 5.132156e-01	 1.817831e+00	 5.810199e+00
 6.199253e-01	 1.792103e+00	 6.549924e+00
 5.990237e-01	 1.799197e+00	 6.421529e+00
 5.780985e-01	 1.806029e+00	 6.280460e+00
 5.571545e-01	 1.812600e+00	 6.133788e+00
 5.361962e-01	 1.818910e+00	 5.986709e+00
 5.152282e-01	 1.824960e+00	 5.842683e+00
 6.223469e-01	 1.799103e+00	 6.581428e+00
 6.013636e-01	 1.806225e+00	 6.452587e+00
 5.803567e-01	 1.813084e+00	 6.311061e+00
 5.593309e-01	 1.819680e+00	 6.164313e+00
 5.382907e-01	 1.826015e+00	 6.017846e+00
 5.172409e-01	 1.832089e+00	 5.875349e+00
 6.247685e-01	 1.806104e+00	 6.611911e+00
 6.037035e-01	 1.813253e+00	 6.481877e+00
 5.826149e-01	 1.820139e+00	 6.339370e+00
 5.615073e-01	 1.826761e+00	 6.192546e+00
 5.403852e-01	 1.833120e+00	 6.047516e+00
 5.192535e-01	 1.839218e+00	 5.908498e+00
 6.271901e-01	 1.813104e+00	 6.640951e+00
 6.060435e-01	 1.820281e+00	 6.509007e+00
 5.848731e-01	 1.827194e+00	 6.365084e+00
 5.636836e-01	 1.833841e+00	 6.218329e+00
 5.424798e-01	 1.840225e+00	 6.075757e+00
 5.212661e-01	 1.846346e+00	 5.942414e+00
 6.296116e-01	 1.820104e+00	 6.668117e+00
 6.083834e-01	 1.827310e+00	 6.533571e+00
 5.871313e-01	 1.834248e+00	 6.387886e+00
 5.658600e-01	 1.840922e+00	 6.241489e+00
 5.445743e-01	 1.847330e+00	 6.102591e+00
 5.232787e-01	 1.853475e+00	 5.976587e+00
 5.132156e-01	 1.817831e+00	 5.810199e+00
 4.923244e-01	 1.823600e+00	 5.674585e+00
 4.714324e-01	 1.829113e+00	 5.549281e+00
 4.505441e-01	 1.834369e+00	 5.431515e+00
 4.296638e-01	 1.839372e+00	 5.317731e+00
 4.087957e-01	 1.844122e+00	 5.203869e+00
 5.152282e-01	 1.824960e+00	 5.842683e+00
 4.942551e-01	 1.830752e+00	 5.706715e+00
 4.732812e-01	 1.836286e+00	 5.581105e+00
 4.523110e-01	 1.841563e+00	 5.463287e+00
 4.313487e-01	 1.846585e+00	 5.349889e+00
 4.103988e-01	 1.851354e+00	 5.237005e+00
 5.172409e-01	 1.832089e+00	 5.875349e+00
 4.961858e-01	 1.837903e+00	 5.741949e+00
 4.751299e-01	 1.843459e+00	 5.619596e+00
 4.540778e-01	 1.848757e+00	 5.505160e+00
 4.330337e-01	 1.853799e+00	 5.393940e+00
 4.120020e-01	 1.858586e+00	 5.276604e+00
 5.192535e-01	 1.839218e+00	 5.908498e+00
 4.981164e-01	 1.845054e+00	 5.780810e+00
 4.769787e-01	 1.850632e+00	 5.665409e+00
 4.558446e-01	 1.855950e+00	 5.554034e+00
 4.347187e-01	 1.861012e+00	 5.436407e+00
 4.136051e-01	 1.865818e+00	 5.313527e+00
 5.212661e-01	 1.846346e+00	 5.942414e+00
 5.000471e-01	 1.852206e+00	 5.823765e+00
 4.788274e-01	 1.857805e+00	 5.710156e+00
 4.576115e-01	 1.863144e+00	 5.592824e+00
 4.364036e-01	 1.868225e+00	 5.471819e+00
 4.152082e-01	 1.873050e+00	 5.347315e+00
 5.232787e-01	 1.853475e+00	 5.976587e+00
 5.019778e-01	 1.859357e+00	 5.855798e+00
 4.806762e-01	 1.864977e+00	 5.737298e+00
 4.593783e-01	 1.870337e+00	 5.619293e+00
 4.380886e-01	 1.875438e+00	 5.499951e+00
 4.168113e-01	 1.880282e+00	 5.377549e+00
 4.087957e-01	 1.844122e+00	 5.203869e+00
 3.879441e-01	 1.848621e+00	 5.082213e+00
 3.671131e-01	 1.852871e+00	 4.967047e+00
 3.463068e-01	 1.856872e+00	 4.869262e+00
 3.255293e-01	 1.860627e+00	 4.781394e+00
 3.047844e-01	 1.864137e+00	 4.701128e+00
 4.103988e-01	 1.851354e+00	 5.237005e+00
 3.894655e-01	 1.855871e+00	 5.115359e+00
 3.685528e-01	 1.860137e+00	 4.998002e+00
 3.476649e-01	 1.864154e+00	 4.901169e+00
 3.268059e-01	 1.867923e+00	 4.817032e+00
 3.059796e-01	 1.871448e+00	 4.741194e+00
 4.120020e-01	 1.858586e+00	 5.276604e+00
 3.909868e-01	 1.863120e+00	 5.149844e+00
 3.699924e-01	 1.867403e+00	 5.030125e+00
 3.490230e-01	 1.871435e+00	 4.933752e+00
 3.280824e-01	 1.875220e+00	 4.852124e+00
 3.071749e-01	 1.878758e+00	 4.779311e+00
 4.136051e-01	 1.865818e+00	 5.313527e+00
 3.925082e-01	 1.870370e+00	 5.183971e+00
 3.714321e-01	 1.874669e+00	 5.062711e+00
 3.503810e-01	 1.878717e+00	 4.966267e+00
 3.293590e-01	 1.882516e+00	 4.885958e+00
 3.083701e-01	 1.886068e+00	 4.814846e+00
 4.152082e-01	 1.873050e+00	 5.347315e+00
 3.940295e-01	 1.877619e+00	 5.217127e+00
 3.728718e-01	 1.881935e+00	 5.095066e+00
 3.517391e-01	 1.885999e+00	 4.997977e+00
 3.306356e-01	 1.889813e+00	 4.917827e+00
 3.095653e-01	 1.893379e+00	 4.847169e+00
 4.168113e-01	 1.880282e+00	 5.377549e+00
 3.955509e-01	 1.884869e+00	 5.248710e+00
 3.743114e-01	 1.889201e+00	 5.126471e+00
 3.530972e-01	 1.893281e+00	 5.028150e+00
 3.319122e-01	 1.897110e+00	 4.947026e+00
 3.107606e-01	 1.900689e+00	 4.875656e+00
 3.047844e-01	 1.864137e+00	 4.701128e+00
 2.840761e-01	 1.867405e+00	 4.629967e+00
 2.634081e-01	 1.870432e+00	 4.566034e+00
 2.427843e-01	 1.873221e+00	 4.506900e+00
 2.222083e-01	 1.875773e+00	 4.452269e+00
 2.016836e-01	 1.878091e+00	 4.403457e+00
 3.059796e-01	 1.871448e+00	 4.741194e+00
 2.851901e-01	 1.874728e+00	 4.673343e+00
 2.644411e-01	 1.877767e+00	 4.611412e+00
 2.437364e-01	 1.880567e+00	 4.553339e+00
 2.230797e-01	 1.883129e+00	 4.499193e+00
 2.024745e-01	 1.885456e+00	 4.450646e+00
 3.071749e-01	 1.878758e+00	 4.779311e+00
 2.863041e-01	 1.882051e+00	 4.713674e+00
 2.654741e-01	 1.885102e+00	 4.653057e+00
 2.446885e-01	 1.887913e+00	 4.595711e+00
 2.239511e-01	 1.890485e+00	 4.542013e+00
 2.032654e-01	 1.892821e+00	 4.493937e+00
 3.083701e-01	 1.886068e+00	 4.814846e+00
 2.874181e-01	 1.889375e+00	 4.750426e+00
 2.665070e-01	 1.892437e+00	 4.690525e+00
 2.456406e-01	 1.895259e+00	 4.633655e+00
 2.248225e-01	 1.897841e+00	 4.580441e+00
 2.040564e-01	 1.900186e+00	 4.533101e+00
 3.095653e-01	 1.893379e+00	 4.847169e+00
 2.885322e-01	 1.896698e+00	 4.783068e+00
 2.675400e-01	 1.899773e+00	 4.723373e+00
 2.465927e-01	 1.902605e+00	 4.666805e+00
 2.256939e-01	 1.905197e+00	 4.614183e+00
 2.048473e-01	 1.907551e+00	 4.567911e+00
 3.107606e-01	 1.900689e+00	 4.875656e+00
 2.896462e-01	 1.904021e+00	 4.811068e+00
 2.685730e-01	 1.907108e+00	 4.751159e+00
 2.475448e-01	 1.909951e+00	 4.694800e+00
 2.265653e-01	 1.912553e+00	 4.642948e+00
 2.056382e-01	 1.914916e+00	 4.598135e+00
 2.016836e-01	 1.878091e+00	 4.403457e+00
 1.812139e-01	 1.880176e+00	 4.364357e+00
 1.608025e-01	 1.882032e+00	 4.334942e+00
 1.404528e-01	 1.883660e+00	 4.311733e+00
 1.201681e-01	 1.885063e+00	 4.291170e+00
 9.995171e-02	 1.886243e+00	 4.269253e+00
 2.024745e-01	 1.885456e+00	 4.450646e+00
 1.819245e-01	 1.887550e+00	 4.411751e+00
 1.614331e-01	 1.889412e+00	 4.382317e+00
 1.410036e-01	 1.891047e+00	 4.358739e+00
 1.206394e-01	 1.892455e+00	 4.337350e+00
 1.003437e-01	 1.893640e+00	 4.314057e+00
 2.032654e-01	 1.892821e+00	 4.493937e+00
 1.826351e-01	 1.894923e+00	 4.455625e+00
 1.620637e-01	 1.896793e+00	 4.426660e+00
 1.415544e-01	 1.898434e+00	 4.403269e+00
 1.211106e-01	 1.899847e+00	 4.381626e+00
 1.007356e-01	 1.901037e+00	 4.357499e+00
 2.040564e-01	 1.900186e+00	 4.533101e+00
 1.833458e-01	 1.902296e+00	 4.495803e+00
 1.626943e-01	 1.904173e+00	 4.467843e+00
 1.421052e-01	 1.905821e+00	 4.445229e+00
 1.215819e-01	 1.907240e+00	 4.423928e+00
 1.011276e-01	 1.908434e+00	 4.399522e+00
 2.048473e-01	 1.907551e+00	 4.567911e+00
 1.840564e-01	 1.909669e+00	 4.532111e+00
 1.633249e-01	 1.911554e+00	 4.505735e+00
 1.426560e-01	 1.913207e+00	 4.484521e+00
 1.220531e-01	 1.914632e+00	 4.464185e+00
 1.015196e-01	 1.915831e+00	 4.440068e+00
 2.056382e-01	 1.914916e+00	 4.598135e+00
 1.847671e-01	 1.917042e+00	 4.564372e+00
 1.639555e-01	 1.918934e+00	 4.540202e+00
 1.432068e-01	 1.920594e+00	 4.521049e+00
 1.225244e-01	 1.922025e+00	 4.502323e+00
 1.019115e-01	 1.923228e+00	 4.479078e+00
 9.995171e-02	 1.886243e+00	 4.269253e+00
 7.980665e-02	 1.887202e+00	 4.244732e+00
 5.973601e-02	 1.887944e+00	 4.222516e+00
 3.974277e-02	 1.888471e+00	 4.206077e+00
 1.982983e-02	 1.888785e+00	 4.197016e+00
-1.279970e-07	 1.888895e+00	 4.193621e+00
 1.003437e-01	 1.893640e+00	 4.314057e+00
 8.011962e-02	 1.894603e+00	 4.287745e+00
 5.997027e-02	 1.895348e+00	 4.263632e+00
 3.989862e-02	 1.895877e+00	 4.245399e+00
 1.990759e-02	 1.896192e+00	 4.234892e+00
-1.191400e-07	 1.896302e+00	 4.230769e+00
 1.007356e-01	 1.901037e+00	 4.357499e+00
 8.043258e-02	 1.902004e+00	 4.329872e+00
 6.020453e-02	 1.902751e+00	 4.304217e+00
 4.005448e-02	 1.903282e+00	 4.284355e+00
 1.998536e-02	 1.903599e+00	 4.272300e+00
-1.105944e-07	 1.903709e+00	 4.267009e+00
 1.011276e-01	 1.908434e+00	 4.399522e+00
 8.074555e-02	 1.909405e+00	 4.371063e+00
 6.043879e-02	 1.910155e+00	 4.344232e+00
 4.021033e-02	 1.910688e+00	 4.322912e+00
 2.006312e-02	 1.911006e+00	 4.309215e+00
-1.023716e-07	 1.911116e+00	 4.302323e+00
 1.015196e-01	 1.915831e+00	 4.440068e+00
 8.105852e-02	 1.916805e+00	 4.411269e+00
 6.067305e-02	 1.917559e+00	 4.383636e+00
 4.036619e-02	 1.918094e+00	 4.361037e+00
 2.014088e-02	 1.918413e+00	 4.345611e+00
-9.448268e-08	 1.918523e+00	 4.336693e+00
 1.019115e-01	 1.923228e+00	 4.479078e+00
 8.137149e-02	 1.924206e+00	 4.450441e+00
 6.090730e-02	 1.924963e+00	 4.422388e+00
 4.052204e-02	 1.925500e+00	 4.398699e+00
 2.021865e-02	 1.925820e+00	 4.381467e+00
-8.693885e-08	 1.925930e+00	 4.370104e+00
 1.925926e+00	 0.000000e+00	 1.274173e+01
 1.925820e+00	 2.021865e-02	 1.275168e+01
 1.925500e+00	 4.052204e-02	 1.275845e+01
 1.924963e+00	 6.090730e-02	 1.276298e+01
 1.924206e+00	 8.137149e-02	 1.276641e+01
 1.923228e+00	 1.019115e-01	 1.277008e+01
 1.933333e+00	 0.000000e+00	 1.271432e+01
 1.933227e+00	 2.029641e-02	 1.272495e+01
 1.932905e+00	 4.067789e-02	 1.273238e+01
 1.932366e+00	 6.114156e-02	 1.273745e+01
 1.931607e+00	 8.168445e-02	 1.274119e+01
 1.930625e+00	 1.023035e-01	 1.274482e+01
 1.940741e+00	 0.000000e+00	 1.268793e+01
 1.940634e+00	 2.037418e-02	 1.269877e+01
 1.940311e+00	 4.083375e-02	 1.270665e+01
 1.939770e+00	 6.137582e-02	 1.271221e+01
 1.939008e+00	 8.199742e-02	 1.271628e+01
 1.938022e+00	 1.026955e-01	 1.271985e+01
 1.948148e+00	 0.000000e+00	 1.266266e+01
 1.948041e+00	 2.045194e-02	 1.267318e+01
 1.947717e+00	 4.098960e-02	 1.268124e+01
 1.947174e+00	 6.161008e-02	 1.268721e+01
 1.946409e+00	 8.231039e-02	 1.269161e+01
 1.945419e+00	 1.030875e-01	 1.269510e+01
 1.955556e+00	 0.000000e+00	 1.263862e+01
 1.955448e+00	 2.052970e-02	 1.264822e+01
 1.955123e+00	 4.114546e-02	 1.265616e+01
 1.954577e+00	 6.184434e-02	 1.266241e+01
 1.953809e+00	 8.262336e-02	 1.266711e+01
 1.952816e+00	 1.034794e-01	 1.267050e+01
 1.962963e+00	 0.000000e+00	 1.261590e+01
 1.962855e+00	 2.060747e-02	 1.262392e+01
 1.962528e+00	 4.130131e-02	 1.263139e+01
 1.961981e+00	 6.207860e-02	 1.263778e+01
 1.961210e+00	 8.293632e-02	 1.264273e+01
 1.960213e+00	 1.038714e-01	 1.264597e+01
 1.923228e+00	 1.019115e-01	 1.277008e+01
 1.922025e+00	 1.225244e-01	 1.277521e+01
 1.920594e+00	 1.432068e-01	 1.278164e+01
 1.918934e+00	 1.639555e-01	 1.278878e+01
 1.917042e+00	 1.847671e-01	 1.279600e+01
 1.914916e+00	 2.056382e-01	 1.280262e+01
 1.930625e+00	 1.023035e-01	 1.274482e+01
 1.929417e+00	 1.229956e-01	 1.274983e+01
 1.927981e+00	 1.437576e-01	 1.275637e+01
 1.926315e+00	 1.645861e-01	 1.276378e+01
 1.924416e+00	 1.854777e-01	 1.277135e+01
 1.922281e+00	 2.064291e-01	 1.277835e+01
 1.938022e+00	 1.026955e-01	 1.271985e+01
 1.936809e+00	 1.234669e-01	 1.272466e+01
 1.935368e+00	 1.443084e-01	 1.273123e+01
 1.933695e+00	 1.652166e-01	 1.273881e+01
 1.931789e+00	 1.861884e-01	 1.274669e+01
 1.929646e+00	 2.072200e-01	 1.275406e+01
 1.945419e+00	 1.030875e-01	 1.269510e+01
 1.944202e+00	 1.239381e-01	 1.269964e+01
 1.942755e+00	 1.448592e-01	 1.270616e+01
 1.941076e+00	 1.658472e-01	 1.271388e+01
 1.939162e+00	 1.868990e-01	 1.272204e+01
 1.937011e+00	 2.080109e-01	 1.272983e+01
 1.952816e+00	 1.034794e-01	 1.267050e+01
 1.951594e+00	 1.244094e-01	 1.267471e+01
 1.950142e+00	 1.454100e-01	 1.268112e+01
 1.948456e+00	 1.664778e-01	 1.268895e+01
 1.946535e+00	 1.876096e-01	 1.269743e+01
 1.944376e+00	 2.088018e-01	 1.270573e+01
 1.960213e+00	 1.038714e-01	 1.264597e+01
 1.958987e+00	 1.248806e-01	 1.264979e+01
 1.957529e+00	 1.459607e-01	 1.265607e+01
 1.955837e+00	 1.671084e-01	 1.266402e+01
 1.953909e+00	 1.883203e-01	 1.267287e+01
 1.951741e+00	 2.095928e-01	 1.268185e+01
 1.914916e+00	 2.056382e-01	 1.280262e+01
 1.912553e+00	 2.265653e-01	 1.280914e+01
 1.909951e+00	 2.475448e-01	 1.281703e+01
 1.907108e+00	 2.685730e-01	 1.282672e+01
 1.904021e+00	 2.896462e-01	 1.283827e+01
 1.900689e+00	 3.107606e-01	 1.285125e+01
 1.922281e+00	 2.064291e-01	 1.277835e+01
 1.919909e+00	 2.274367e-01	 1.278517e+01
 1.917297e+00	 2.484969e-01	 1.279323e+01
 1.914443e+00	 2.696060e-01	 1.280297e+01
 1.911344e+00	 2.907602e-01	 1.281447e+01
 1.907999e+00	 3.119558e-01	 1.282732e+01
 1.929646e+00	 2.072200e-01	 1.275406e+01
 1.927265e+00	 2.283081e-01	 1.276122e+01
 1.924643e+00	 2.494490e-01	 1.276950e+01
 1.921778e+00	 2.706389e-01	 1.277937e+01
 1.918667e+00	 2.918742e-01	 1.279092e+01
 1.915310e+00	 3.131510e-01	 1.280377e+01
 1.937011e+00	 2.080109e-01	 1.272983e+01
 1.934621e+00	 2.291795e-01	 1.273741e+01
 1.931989e+00	 2.504011e-01	 1.274600e+01
 1.929113e+00	 2.716719e-01	 1.275608e+01
 1.925990e+00	 2.929883e-01	 1.276777e+01
 1.922620e+00	 3.143463e-01	 1.278069e+01
 1.944376e+00	 2.088018e-01	 1.270573e+01
 1.941977e+00	 2.300509e-01	 1.271386e+01
 1.939335e+00	 2.513532e-01	 1.272287e+01
 1.936448e+00	 2.727049e-01	 1.273327e+01
 1.933314e+00	 2.941023e-01	 1.274515e+01
 1.929930e+00	 3.155415e-01	 1.275819e+01
 1.951741e+00	 2.095928e-01	 1.268185e+01
 1.949333e+00	 2.309223e-01	 1.269071e+01
 1.946681e+00	 2.523052e-01	 1.270028e+01
 1.943783e+00	 2.737379e-01	 1.271108e+01
 1.940637e+00	 2.952163e-01	 1.272322e+01
 1.937241e+00	 3.167367e-01	 1.273638e+01
 1.900689e+00	 3.107606e-01	 1.285125e+01
 1.897110e+00	 3.319122e-01	 1.286478e+01
 1.893281e+00	 3.530972e-01	 1.287777e+01
 1.889201e+00	 3.743114e-01	 1.288843e+01
 1.884869e+00	 3.955509e-01	 1.289795e+01
 1.880282e+00	 4.168113e-01	 1.291083e+01
 1.907999e+00	 3.119558e-01	 1.282732e+01
 1.904406e+00	 3.331888e-01	 1.284068e+01
 1.900563e+00	 3.544552e-01	 1.285346e+01
 1.896467e+00	 3.757511e-01	 1.286393e+01
 1.892118e+00	 3.970722e-01	 1.287346e+01
 1.887513e+00	 4.184144e-01	 1.288626e+01
 1.915310e+00	 3.131510e-01	 1.280377e+01
 1.911703e+00	 3.344654e-01	 1.281705e+01
 1.907845e+00	 3.558133e-01	 1.282964e+01
 1.903734e+00	 3.771907e-01	 1.283988e+01
 1.899368e+00	 3.985936e-01	 1.284926e+01
 1.894745e+00	 4.200176e-01	 1.286168e+01
 1.922620e+00	 3.143463e-01	 1.278069e+01
 1.918999e+00	 3.357420e-01	 1.279395e+01
 1.915127e+00	 3.571714e-01	 1.280639e+01
 1.911000e+00	 3.786304e-01	 1.281639e+01
 1.906617e+00	 4.001149e-01	 1.282551e+01
 1.901977e+00	 4.216207e-01	 1.283736e+01
 1.929930e+00	 3.155415e-01	 1.275819e+01
 1.926296e+00	 3.370185e-01	 1.277147e+01
 1.922408e+00	 3.585294e-01	 1.278378e+01
 1.918266e+00	 3.800701e-01	 1.279355e+01
 1.913867e+00	 4.016363e-01	 1.280237e+01
 1.909209e+00	 4.232238e-01	 1.281353e+01
 1.937241e+00	 3.167367e-01	 1.273638e+01
 1.933593e+00	 3.382951e-01	 1.274967e+01
 1.929690e+00	 3.598875e-01	 1.276187e+01
 1.925532e+00	 3.815097e-01	 1.277145e+01
 1.921116e+00	 4.031576e-01	 1.277997e+01
 1.916441e+00	 4.248269e-01	 1.279044e+01
 1.880282e+00	 4.168113e-01	 1.291083e+01
 1.875438e+00	 4.380886e-01	 1.292719e+01
 1.870337e+00	 4.593783e-01	 1.294407e+01
 1.864977e+00	 4.806762e-01	 1.296107e+01
 1.859357e+00	 5.019778e-01	 1.297770e+01
 1.853475e+00	 5.232787e-01	 1.299347e+01
 1.887513e+00	 4.184144e-01	 1.288626e+01
 1.882652e+00	 4.397735e-01	 1.290243e+01
 1.877531e+00	 4.611452e-01	 1.291910e+01
 1.872150e+00	 4.825250e-01	 1.293570e+01
 1.866509e+00	 5.039085e-01	 1.295163e+01
 1.860604e+00	 5.252913e-01	 1.296632e+01
 1.894745e+00	 4.200176e-01	 1.286168e+01
 1.889865e+00	 4.414585e-01	 1.287740e+01
 1.884725e+00	 4.629120e-01	 1.289378e+01
 1.879323e+00	 4.843737e-01	 1.291014e+01
 1.873660e+00	 5.058392e-01	 1.292584e+01
 1.867733e+00	 5.273039e-01	 1.294023e+01
 1.901977e+00	 4.216207e-01	 1.283736e+01
 1.897078e+00	 4.431434e-01	 1.285240e+01
 1.891918e+00	 4.646788e-01	 1.286837e+01
 1.886496e+00	 4.862225e-01	 1.288455e+01
 1.880811e+00	 5.077699e-01	 1.290025e+01
 1.874861e+00	 5.293165e-01	 1.291483e+01
 1.909209e+00	 4.232238e-01	 1.281353e+01
 1.904291e+00	 4.448284e-01	 1.282775e+01
 1.899112e+00	 4.664457e-01	 1.284315e+01
 1.893669e+00	 4.880712e-01	 1.285906e+01
 1.887963e+00	 5.097006e-01	 1.287479e+01
 1.881990e+00	 5.313291e-01	 1.288972e+01
 1.916441e+00	 4.248269e-01	 1.279044e+01
 1.911504e+00	 4.465133e-01	 1.280372e+01
 1.906305e+00	 4.682125e-01	 1.281839e+01
 1.900842e+00	 4.899200e-01	 1.283382e+01
 1.895114e+00	 5.116312e-01	 1.284940e+01
 1.889119e+00	 5.333417e-01	 1.286453e+01
 1.853475e+00	 5.232787e-01	 1.299347e+01
 1.847330e+00	 5.445743e-01	 1.300939e+01
 1.840922e+00	 5.658600e-01	 1.302532e+01
 1.834248e+00	 5.871313e-01	 1.304121e+01
 1.827310e+00	 6.083834e-01	 1.305739e+01
 1.820104e+00	 6.296116e-01	 1.307451e+01
 1.860604e+00	 5.252913e-01	 1.296632e+01
 1.854435e+00	 5.466688e-01	 1.298127e+01
 1.848002e+00	 5.680364e-01	 1.299830e+01
 1.841303e+00	 5.893895e-01	 1.301501e+01
 1.834338e+00	 6.107233e-01	 1.303149e+01
 1.827105e+00	 6.320332e-01	 1.304845e+01
 1.867733e+00	 5.273039e-01	 1.294023e+01
 1.861541e+00	 5.487633e-01	 1.295420e+01
 1.855083e+00	 5.702128e-01	 1.296978e+01
 1.848358e+00	 5.916477e-01	 1.298751e+01
 1.841366e+00	 6.130633e-01	 1.300485e+01
 1.834105e+00	 6.344548e-01	 1.302200e+01
 1.874861e+00	 5.293165e-01	 1.291483e+01
 1.868646e+00	 5.508578e-01	 1.292849e+01
 1.862163e+00	 5.723892e-01	 1.294266e+01
 1.855413e+00	 5.939059e-01	 1.295857e+01
 1.848394e+00	 6.154032e-01	 1.297681e+01
 1.841106e+00	 6.368764e-01	 1.299475e+01
 1.881990e+00	 5.313291e-01	 1.288972e+01
 1.875751e+00	 5.529523e-01	 1.290346e+01
 1.869244e+00	 5.745656e-01	 1.291684e+01
 1.862468e+00	 5.961641e-01	 1.293106e+01
 1.855422e+00	 6.177432e-01	 1.294735e+01
 1.848106e+00	 6.392980e-01	 1.296630e+01
 1.889119e+00	 5.333417e-01	 1.286453e+01
 1.882856e+00	 5.550469e-01	 1.287845e+01
 1.876324e+00	 5.767420e-01	 1.289148e+01
 1.869522e+00	 5.984223e-01	 1.290473e+01
 1.862450e+00	 6.200831e-01	 1.291938e+01
 1.855106e+00	 6.417196e-01	 1.293672e+01
 1.820104e+00	 6.296116e-01	 1.307451e+01
 1.812632e+00	 6.508112e-01	 1.309292e+01
 1.804893e+00	 6.719774e-01	 1.311110e+01
 1.796885e+00	 6.931053e-01	 1.312753e+01
 1.788609e+00	 7.141900e-01	 1.314134e+01
 1.780065e+00	 7.352267e-01	 1.315224e+01
 1.827105e+00	 6.320332e-01	 1.304845e+01
 1.819604e+00	 6.533144e-01	 1.306680e+01
 1.811834e+00	 6.745619e-01	 1.308545e+01
 1.803796e+00	 6.957711e-01	 1.310278e+01
 1.795489e+00	 7.169369e-01	 1.311771e+01
 1.786912e+00	 7.380545e-01	 1.312986e+01
 1.834105e+00	 6.344548e-01	 1.302200e+01
 1.826575e+00	 6.558175e-01	 1.304046e+01
 1.818776e+00	 6.771465e-01	 1.305966e+01
 1.810707e+00	 6.984369e-01	 1.307788e+01
 1.802368e+00	 7.196838e-01	 1.309398e+01
 1.793758e+00	 7.408823e-01	 1.310748e+01
 1.841106e+00	 6.368764e-01	 1.299475e+01
 1.833547e+00	 6.583206e-01	 1.301376e+01
 1.825718e+00	 6.797310e-01	 1.303375e+01
 1.817618e+00	 7.011026e-01	 1.305301e+01
 1.809247e+00	 7.224307e-01	 1.307037e+01
 1.800604e+00	 7.437101e-01	 1.308531e+01
 1.848106e+00	 6.392980e-01	 1.296630e+01
 1.840519e+00	 6.608237e-01	 1.298654e+01
 1.832660e+00	 6.823155e-01	 1.300777e+01
 1.824529e+00	 7.037684e-01	 1.302832e+01
 1.816126e+00	 7.251776e-01	 1.304709e+01
 1.807451e+00	 7.465379e-01	 1.306351e+01
 1.855106e+00	 6.417196e-01	 1.293672e+01
 1.847490e+00	 6.633268e-01	 1.295864e+01
 1.839602e+00	 6.849000e-01	 1.298173e+01
 1.831440e+00	 7.064342e-01	 1.300395e+01
 1.823006e+00	 7.279244e-01	 1.302433e+01
 1.814297e+00	 7.493657e-01	 1.304225e+01
 1.780065e+00	 7.352267e-01	 1.315224e+01
 1.771253e+00	 7.562104e-01	 1.316059e+01
 1.762172e+00	 7.771362e-01	 1.316631e+01
 1.752823e+00	 7.979991e-01	 1.316983e+01
 1.743206e+00	 8.187941e-01	 1.317182e+01
 1.733321e+00	 8.395162e-01	 1.317308e+01
 1.786912e+00	 7.380545e-01	 1.312986e+01
 1.778065e+00	 7.591189e-01	 1.313925e+01
 1.768950e+00	 7.801252e-01	 1.314576e+01
 1.759565e+00	 8.010683e-01	 1.314988e+01
 1.749911e+00	 8.219433e-01	 1.315230e+01
 1.739988e+00	 8.427451e-01	 1.315382e+01
 1.793758e+00	 7.408823e-01	 1.310748e+01
 1.784878e+00	 7.620274e-01	 1.311802e+01
 1.775727e+00	 7.831142e-01	 1.312548e+01
 1.766306e+00	 8.041375e-01	 1.313034e+01
 1.756615e+00	 8.250925e-01	 1.313327e+01
 1.746655e+00	 8.459740e-01	 1.313505e+01
 1.800604e+00	 7.437101e-01	 1.308531e+01
 1.791690e+00	 7.649359e-01	 1.309706e+01
 1.782505e+00	 7.861032e-01	 1.310557e+01
 1.773048e+00	 8.072068e-01	 1.311128e+01
 1.763320e+00	 8.282417e-01	 1.311478e+01
 1.753321e+00	 8.492029e-01	 1.311684e+01
 1.807451e+00	 7.465379e-01	 1.306351e+01
 1.798503e+00	 7.678444e-01	 1.307651e+01
 1.789282e+00	 7.890921e-01	 1.308615e+01
 1.779789e+00	 8.102760e-01	 1.309277e+01
 1.770024e+00	 8.313909e-01	 1.309691e+01
 1.759988e+00	 8.524319e-01	 1.309924e+01
 1.814297e+00	 7.493657e-01	 1.304225e+01
 1.805315e+00	 7.707529e-01	 1.305648e+01
 1.796060e+00	 7.920811e-01	 1.306728e+01
 1.786531e+00	 8.133452e-01	 1.307487e+01
 1.776729e+00	 8.345401e-01	 1.307969e+01
 1.766655e+00	 8.556608e-01	 1.308230e+01
 1.733321e+00	 8.395162e-01	 1.317308e+01
 1.723170e+00	 8.601604e-01	 1.316966e+01
 1.712752e+00	 8.807218e-01	 1.315887e+01
 1.702069e+00	 9.011951e-01	 1.314338e+01
 1.691121e+00	 9.215756e-01	 1.312563e+01
 1.679909e+00	 9.418580e-01	 1.310774e+01
 1.739988e+00	 8.427451e-01	 1.315382e+01
 1.729798e+00	 8.634688e-01	 1.315060e+01
 1.719340e+00	 8.841091e-01	 1.313998e+01
 1.708615e+00	 9.046613e-01	 1.312455e+01
 1.697625e+00	 9.251201e-01	 1.310671e+01
 1.686370e+00	 9.454806e-01	 1.308852e+01
 1.746655e+00	 8.459740e-01	 1.313505e+01
 1.736425e+00	 8.667771e-01	 1.313200e+01
 1.725927e+00	 8.874965e-01	 1.312154e+01
 1.715162e+00	 9.081274e-01	 1.310617e+01
 1.704129e+00	 9.286646e-01	 1.308822e+01
 1.692831e+00	 9.491031e-01	 1.306971e+01
 1.753321e+00	 8.492029e-01	 1.311684e+01
 1.743053e+00	 8.700854e-01	 1.311392e+01
 1.732515e+00	 8.908839e-01	 1.310359e+01
 1.721708e+00	 9.115935e-01	 1.308825e+01
 1.710634e+00	 9.322091e-01	 1.307014e+01
 1.699293e+00	 9.527256e-01	 1.305121e+01
 1.759988e+00	 8.524319e-01	 1.309924e+01
 1.749680e+00	 8.733937e-01	 1.309643e+01
 1.739102e+00	 8.942713e-01	 1.308618e+01
 1.728254e+00	 9.150597e-01	 1.307080e+01
 1.717138e+00	 9.357537e-01	 1.305243e+01
 1.705754e+00	 9.563482e-01	 1.303294e+01
 1.766655e+00	 8.556608e-01	 1.308230e+01
 1.756308e+00	 8.767020e-01	 1.307955e+01
 1.745690e+00	 8.976587e-01	 1.306933e+01
 1.734801e+00	 9.185258e-01	 1.305382e+01
 1.723642e+00	 9.392982e-01	 1.303505e+01
 1.712215e+00	 9.599707e-01	 1.301480e+01
 1.679909e+00	 9.418580e-01	 1.310774e+01
 1.668435e+00	 9.620375e-01	 1.308890e+01
 1.656699e+00	 9.821091e-01	 1.306755e+01
 1.644704e+00	 1.002068e+00	 1.304373e+01
 1.632450e+00	 1.021908e+00	 1.301654e+01
 1.619940e+00	 1.041626e+00	 1.298388e+01
 1.686370e+00	 9.454806e-01	 1.308852e+01
 1.674852e+00	 9.657377e-01	 1.306936e+01
 1.663071e+00	 9.858864e-01	 1.304787e+01
 1.651030e+00	 1.005922e+00	 1.302413e+01
 1.638729e+00	 1.025839e+00	 1.299727e+01
 1.626170e+00	 1.045633e+00	 1.296527e+01
 1.692831e+00	 9.491031e-01	 1.306971e+01
 1.681269e+00	 9.694378e-01	 1.305014e+01
 1.669443e+00	 9.896638e-01	 1.302839e+01
 1.657355e+00	 1.009776e+00	 1.300460e+01
 1.645008e+00	 1.029769e+00	 1.297797e+01
 1.632401e+00	 1.049639e+00	 1.294654e+01
 1.699293e+00	 9.527256e-01	 1.305121e+01
 1.687686e+00	 9.731380e-01	 1.303111e+01
 1.675815e+00	 9.934411e-01	 1.300896e+01
 1.663681e+00	 1.013630e+00	 1.298497e+01
 1.651286e+00	 1.033700e+00	 1.295846e+01
 1.638632e+00	 1.053645e+00	 1.292757e+01
 1.705754e+00	 9.563482e-01	 1.303294e+01
 1.694103e+00	 9.768381e-01	 1.301214e+01
 1.682187e+00	 9.972185e-01	 1.298941e+01
 1.670007e+00	 1.017484e+00	 1.296508e+01
 1.657565e+00	 1.037630e+00	 1.293859e+01
 1.644862e+00	 1.057651e+00	 1.290823e+01
 1.712215e+00	 9.599707e-01	 1.301480e+01
 1.700520e+00	 9.805383e-01	 1.299307e+01
 1.688559e+00	 1.000996e+00	 1.296955e+01
 1.676333e+00	 1.021338e+00	 1.294473e+01
 1.663844e+00	 1.041561e+00	 1.291818e+01
 1.651093e+00	 1.061658e+00	 1.288838e+01
 1.619940e+00	 1.041626e+00	 1.298388e+01
 1.607175e+00	 1.061216e+00	 1.295097e+01
 1.594156e+00	 1.080674e+00	 1.292067e+01
 1.580887e+00	 1.099994e+00	 1.288481e+01
 1.567369e+00	 1.119172e+00	 1.283587e+01
 1.553604e+00	 1.138203e+00	 1.279052e+01
 1.626170e+00	 1.045633e+00	 1.296527e+01
 1.613356e+00	 1.065298e+00	 1.293275e+01
 1.600288e+00	 1.084830e+00	 1.290197e+01
 1.586967e+00	 1.104225e+00	 1.286471e+01
 1.573397e+00	 1.123477e+00	 1.281699e+01
 1.559579e+00	 1.142581e+00	 1.277526e+01
 1.632401e+00	 1.049639e+00	 1.294654e+01
 1.619537e+00	 1.069380e+00	 1.291440e+01
 1.606419e+00	 1.088987e+00	 1.288314e+01
 1.593048e+00	 1.108456e+00	 1.284450e+01
 1.579425e+00	 1.127781e+00	 1.279912e+01
 1.565555e+00	 1.146958e+00	 1.276046e+01
 1.638632e+00	 1.053645e+00	 1.292757e+01
 1.625719e+00	 1.073461e+00	 1.289582e+01
 1.612550e+00	 1.093143e+00	 1.286412e+01
 1.599128e+00	 1.112686e+00	 1.282420e+01
 1.585454e+00	 1.132086e+00	 1.278195e+01
 1.571530e+00	 1.151336e+00	 1.274576e+01
 1.644862e+00	 1.057651e+00	 1.290823e+01
 1.631900e+00	 1.077543e+00	 1.287692e+01
 1.618682e+00	 1.097300e+00	 1.284482e+01
 1.605208e+00	 1.116917e+00	 1.280454e+01
 1.591482e+00	 1.136390e+00	 1.276515e+01
 1.577505e+00	 1.155714e+00	 1.273085e+01
 1.651093e+00	 1.061658e+00	 1.288838e+01
 1.638082e+00	 1.081624e+00	 1.285759e+01
 1.624813e+00	 1.101456e+00	 1.282516e+01
 1.611289e+00	 1.121148e+00	 1.278544e+01
 1.597510e+00	 1.140695e+00	 1.274842e+01
 1.583481e+00	 1.160092e+00	 1.271539e+01
 1.553604e+00	 1.138203e+00	 1.279052e+01
 1.539595e+00	 1.157082e+00	 1.275136e+01
 1.525344e+00	 1.175805e+00	 1.271300e+01
 1.510853e+00	 1.194367e+00	 1.267041e+01
 1.496127e+00	 1.212763e+00	 1.261841e+01
 1.481167e+00	 1.230990e+00	 1.255164e+01
 1.559579e+00	 1.142581e+00	 1.277526e+01
 1.545516e+00	 1.161533e+00	 1.273818e+01
 1.531210e+00	 1.180327e+00	 1.270017e+01
 1.516664e+00	 1.198961e+00	 1.265714e+01
 1.501881e+00	 1.217428e+00	 1.260483e+01
 1.486864e+00	 1.235724e+00	 1.253895e+01
 1.565555e+00	 1.146958e+00	 1.276046e+01
 1.551438e+00	 1.165983e+00	 1.272500e+01
 1.537077e+00	 1.184850e+00	 1.268718e+01
 1.522475e+00	 1.203554e+00	 1.264377e+01
 1.507636e+00	 1.222092e+00	 1.259146e+01
 1.492560e+00	 1.240459e+00	 1.252694e+01
 1.571530e+00	 1.151336e+00	 1.274576e+01
 1.557359e+00	 1.170433e+00	 1.271144e+01
 1.542944e+00	 1.189372e+00	 1.267361e+01
 1.528286e+00	 1.208148e+00	 1.262987e+01
 1.513390e+00	 1.226757e+00	 1.257781e+01
 1.498257e+00	 1.245193e+00	 1.251507e+01
 1.577505e+00	 1.155714e+00	 1.273085e+01
 1.563281e+00	 1.174883e+00	 1.269716e+01
 1.548810e+00	 1.193894e+00	 1.265908e+01
 1.534097e+00	 1.212742e+00	 1.261501e+01
 1.519144e+00	 1.231421e+00	 1.256342e+01
 1.503954e+00	 1.249928e+00	 1.250286e+01
 1.583481e+00	 1.160092e+00	 1.271539e+01
 1.569202e+00	 1.179334e+00	 1.268179e+01
 1.554677e+00	 1.198417e+00	 1.264320e+01
 1.539908e+00	 1.217336e+00	 1.259878e+01
 1.524899e+00	 1.236086e+00	 1.254782e+01
 1.509651e+00	 1.254663e+00	 1.248979e+01
 1.481167e+00	 1.230990e+00	 1.255164e+01
 1.465976e+00	 1.249042e+00	 1.247950e+01
 1.450558e+00	 1.266915e+00	 1.241129e+01
 1.434915e+00	 1.284605e+00	 1.234316e+01
 1.419051e+00	 1.302108e+00	 1.227306e+01
 1.402969e+00	 1.319420e+00	 1.220033e+01
 1.486864e+00	 1.235724e+00	 1.253895e+01
 1.471614e+00	 1.253846e+00	 1.246894e+01
 1.456137e+00	 1.271788e+00	 1.240391e+01
 1.440434e+00	 1.289546e+00	 1.233921e+01
 1.424509e+00	 1.307116e+00	 1.227193e+01
 1.408365e+00	 1.324494e+00	 1.220054e+01
 1.492560e+00	 1.240459e+00	 1.252694e+01
 1.477253e+00	 1.258650e+00	 1.245969e+01
 1.461716e+00	 1.276660e+00	 1.239794e+01
 1.445953e+00	 1.294487e+00	 1.233656e+01
 1.429967e+00	 1.312124e+00	 1.227183e+01
 1.413761e+00	 1.329569e+00	 1.220151e+01
 1.498257e+00	 1.245193e+00	 1.251507e+01
 1.482891e+00	 1.263454e+00	 1.245112e+01
 1.467295e+00	 1.281533e+00	 1.239278e+01
 1.451471e+00	 1.299428e+00	 1.233462e+01
 1.435424e+00	 1.317132e+00	 1.227226e+01
 1.419157e+00	 1.334644e+00	 1.220282e+01
 1.503954e+00	 1.249928e+00	 1.250286e+01
 1.488529e+00	 1.268258e+00	 1.244251e+01
 1.472874e+00	 1.286406e+00	 1.238782e+01
 1.456990e+00	 1.304368e+00	 1.233283e+01
 1.440882e+00	 1.322141e+00	 1.227270e+01
 1.424553e+00	 1.339719e+00	 1.220402e+01
 1.509651e+00	 1.254663e+00	 1.248979e+01
 1.494168e+00	 1.273062e+00	 1.243330e+01
 1.478453e+00	 1.291279e+00	 1.238242e+01
 1.462509e+00	 1.309309e+00	 1.233060e+01
 1.446340e+00	 1.327149e+00	 1.227261e+01
 1.429949e+00	 1.344793e+00	 1.220466e+01
 1.402969e+00	 1.319420e+00	 1.220033e+01
 1.386673e+00	 1.336536e+00	 1.211207e+01
 1.370166e+00	 1.353453e+00	 1.200158e+01
 1.353453e+00	 1.370166e+00	 1.187841e+01
 1.336536e+00	 1.386673e+00	 1.175189e+01
 1.319420e+00	 1.402969e+00	 1.163054e+01
 1.408365e+00	 1.324494e+00	 1.220054e+01
 1.392006e+00	 1.341676e+00	 1.211272e+01
 1.375436e+00	 1.358658e+00	 1.200275e+01
 1.358658e+00	 1.375436e+00	 1.187995e+01
 1.341676e+00	 1.392006e+00	 1.175342e+01
 1.324494e+00	 1.408365e+00	 1.163145e+01
 1.413761e+00	 1.329569e+00	 1.220151e+01
 1.397340e+00	 1.346817e+00	 1.211402e+01
 1.380706e+00	 1.363864e+00	 1.200464e+01
 1.363864e+00	 1.380706e+00	 1.188235e+01
 1.346817e+00	 1.397340e+00	 1.175594e+01
 1.329569e+00	 1.413761e+00	 1.163336e+01
 1.419157e+00	 1.334644e+00	 1.220282e+01
 1.402673e+00	 1.351958e+00	 1.211562e+01
 1.385976e+00	 1.369070e+00	 1.200693e+01
 1.369070e+00	 1.385976e+00	 1.188532e+01
 1.351958e+00	 1.402673e+00	 1.175914e+01
 1.334644e+00	 1.419157e+00	 1.163593e+01
 1.424553e+00	 1.339719e+00	 1.220402e+01
 1.408007e+00	 1.357098e+00	 1.211713e+01
 1.391246e+00	 1.374275e+00	 1.200928e+01
 1.374275e+00	 1.391246e+00	 1.188853e+01
 1.357098e+00	 1.408007e+00	 1.176270e+01
 1.339719e+00	 1.424553e+00	 1.163880e+01
 1.429949e+00	 1.344793e+00	 1.220466e+01
 1.413340e+00	 1.362239e+00	 1.211818e+01
 1.396516e+00	 1.379481e+00	 1.201136e+01
 1.379481e+00	 1.396516e+00	 1.189165e+01
 1.362239e+00	 1.413340e+00	 1.176628e+01
 1.344793e+00	 1.429949e+00	 1.164161e+01
 1.319420e+00	 1.402969e+00	 1.163054e+01
 1.302108e+00	 1.419051e+00	 1.150882e+01
 1.284605e+00	 1.434915e+00	 1.138026e+01
 1.266915e+00	 1.450558e+00	 1.124915e+01
 1.249042e+00	 1.465976e+00	 1.111684e+01
 1.230990e+00	 1.481167e+00	 1.098119e+01
 1.324494e+00	 1.408365e+00	 1.163145e+01
 1.307116e+00	 1.424509e+00	 1.150887e+01
 1.289546e+00	 1.440434e+00	 1.137987e+01
 1.271788e+00	 1.456137e+00	 1.124901e+01
 1.253846e+00	 1.471614e+00	 1.111784e+01
 1.235724e+00	 1.486864e+00	 1.098329e+01
 1.329569e+00	 1.413761e+00	 1.163336e+01
 1.312124e+00	 1.429967e+00	 1.150985e+01
 1.294487e+00	 1.445953e+00	 1.138049e+01
 1.276660e+00	 1.461716e+00	 1.125012e+01
 1.258650e+00	 1.477253e+00	 1.112057e+01
 1.240459e+00	 1.492560e+00	 1.098526e+01
 1.334644e+00	 1.419157e+00	 1.163593e+01
 1.317132e+00	 1.435424e+00	 1.151141e+01
 1.299428e+00	 1.451471e+00	 1.138173e+01
 1.281533e+00	 1.467295e+00	 1.125209e+01
 1.263454e+00	 1.482891e+00	 1.112457e+01
 1.245193e+00	 1.498257e+00	 1.098641e+01
 1.339719e+00	 1.424553e+00	 1.163880e+01
 1.322141e+00	 1.440882e+00	 1.151317e+01
 1.304368e+00	 1.456990e+00	 1.138319e+01
 1.286406e+00	 1.472874e+00	 1.125450e+01
 1.268258e+00	 1.488529e+00	 1.112734e+01
 1.249928e+00	 1.503954e+00	 1.098607e+01
 1.344793e+00	 1.429949e+00	 1.164161e+01
 1.327149e+00	 1.446340e+00	 1.151471e+01
 1.309309e+00	 1.462509e+00	 1.138444e+01
 1.291279e+00	 1.478453e+00	 1.125693e+01
 1.273062e+00	 1.494168e+00	 1.112745e+01
 1.254663e+00	 1.509651e+00	 1.098358e+01
 1.230990e+00	 1.481167e+00	 1.098119e+01
 1.212763e+00	 1.496127e+00	 1.084118e+01
 1.194367e+00	 1.510853e+00	 1.069921e+01
 1.175805e+00	 1.525344e+00	 1.055644e+01
 1.157082e+00	 1.539595e+00	 1.041426e+01
 1.138203e+00	 1.553604e+00	 1.027435e+01
 1.235724e+00	 1.486864e+00	 1.098329e+01
 1.217428e+00	 1.501881e+00	 1.084088e+01
 1.198961e+00	 1.516664e+00	 1.069840e+01
 1.180327e+00	 1.531210e+00	 1.055646e+01
 1.161533e+00	 1.545516e+00	 1.041584e+01
 1.142581e+00	 1.559579e+00	 1.027759e+01
 1.240459e+00	 1.492560e+00	 1.098526e+01
 1.222092e+00	 1.507636e+00	 1.084104e+01
 1.203554e+00	 1.522475e+00	 1.069844e+01
 1.184850e+00	 1.537077e+00	 1.055753e+01
 1.165983e+00	 1.551438e+00	 1.041850e+01
 1.146958e+00	 1.565555e+00	 1.028177e+01
 1.245193e+00	 1.498257e+00	 1.098641e+01
 1.226757e+00	 1.513390e+00	 1.084094e+01
 1.208148e+00	 1.528286e+00	 1.069862e+01
 1.189372e+00	 1.542944e+00	 1.055893e+01
 1.170433e+00	 1.557359e+00	 1.042150e+01
 1.151336e+00	 1.571530e+00	 1.028612e+01
 1.249928e+00	 1.503954e+00	 1.098607e+01
 1.231421e+00	 1.519144e+00	 1.083992e+01
 1.212742e+00	 1.534097e+00	 1.069823e+01
 1.193894e+00	 1.548810e+00	 1.055995e+01
 1.174883e+00	 1.563281e+00	 1.042411e+01
 1.155714e+00	 1.577505e+00	 1.028992e+01
 1.254663e+00	 1.509651e+00	 1.098358e+01
 1.236086e+00	 1.524899e+00	 1.083731e+01
 1.217336e+00	 1.539908e+00	 1.069661e+01
 1.198417e+00	 1.554677e+00	 1.055990e+01
 1.179334e+00	 1.569202e+00	 1.042565e+01
 1.160092e+00	 1.583481e+00	 1.029245e+01
 1.138203e+00	 1.553604e+00	 1.027435e+01
 1.119172e+00	 1.567369e+00	 1.013478e+01
 1.099994e+00	 1.580887e+00	 9.993921e+00
 1.080674e+00	 1.594156e+00	 9.852768e+00
 1.061216e+00	 1.607175e+00	 9.707430e+00
 1.041626e+00	 1.619940e+00	 9.555996e+00
 1.142581e+00	 1.559579e+00	 1.027759e+01
 1.123477e+00	 1.573397e+00	 1.013904e+01
 1.104225e+00	 1.586967e+00	 9.997980e+00
 1.084830e+00	 1.600288e+00	 9.856766e+00
 1.065298e+00	 1.613356e+00	 9.712338e+00
 1.045633e+00	 1.626170e+00	 9.562822e+00
 1.146958e+00	 1.565555e+00	 1.028177e+01
 1.127781e+00	 1.579425e+00	 1.014406e+01
 1.108456e+00	 1.593048e+00	 1.000289e+01
 1.088987e+00	 1.606419e+00	 9.861341e+00
 1.069380e+00	 1.619537e+00	 9.717654e+00
 1.049639e+00	 1.632401e+00	 9.569996e+00
 1.151336e+00	 1.571530e+00	 1.028612e+01
 1.132086e+00	 1.585454e+00	 1.014908e+01
 1.112686e+00	 1.599128e+00	 1.000792e+01
 1.093143e+00	 1.612550e+00	 9.865819e+00
 1.073461e+00	 1.625719e+00	 9.722740e+00
 1.053645e+00	 1.638632e+00	 9.576924e+00
 1.155714e+00	 1.577505e+00	 1.028992e+01
 1.136390e+00	 1.591482e+00	 1.015336e+01
 1.116917e+00	 1.605208e+00	 1.001221e+01
 1.097300e+00	 1.618682e+00	 9.869534e+00
 1.077543e+00	 1.631900e+00	 9.726965e+00
 1.057651e+00	 1.644862e+00	 9.583015e+00
 1.160092e+00	 1.583481e+00	 1.029245e+01
 1.140695e+00	 1.597510e+00	 1.015616e+01
 1.121148e+00	 1.611289e+00	 1.001498e+01
 1.101456e+00	 1.624813e+00	 9.871827e+00
 1.081624e+00	 1.638082e+00	 9.729703e+00
 1.061658e+00	 1.651093e+00	 9.587685e+00
 1.041626e+00	 1.619940e+00	 9.555996e+00
 1.021908e+00	 1.632450e+00	 9.406834e+00
 1.002068e+00	 1.644704e+00	 9.264299e+00
 9.821091e-01	 1.656699e+00	 9.123352e+00
 9.620375e-01	 1.668435e+00	 8.980283e+00
 9.418580e-01	 1.679909e+00	 8.832485e+00
 1.045633e+00	 1.626170e+00	 9.562822e+00
 1.025839e+00	 1.638729e+00	 9.415765e+00
 1.005922e+00	 1.651030e+00	 9.274730e+00
 9.858864e-01	 1.663071e+00	 9.134802e+00
 9.657377e-01	 1.674852e+00	 8.992417e+00
 9.454806e-01	 1.686370e+00	 8.845123e+00
 1.049639e+00	 1.632401e+00	 9.569996e+00
 1.029769e+00	 1.645008e+00	 9.425083e+00
 1.009776e+00	 1.657355e+00	 9.285644e+00
 9.896638e-01	 1.669443e+00	 9.146861e+00
 9.694378e-01	 1.681269e+00	 9.005279e+00
 9.491031e-01	 1.692831e+00	 8.858569e+00
 1.053645e+00	 1.638632e+00	 9.576924e+00
 1.033700e+00	 1.651286e+00	 9.434230e+00
 1.013630e+00	 1.663681e+00	 9.296507e+00
 9.934411e-01	 1.675815e+00	 9.159000e+00
 9.731380e-01	 1.687686e+00	 9.018333e+00
 9.527256e-01	 1.699293e+00	 8.872264e+00
 1.057651e+00	 1.644862e+00	 9.583015e+00
 1.037630e+00	 1.657565e+00	 9.442653e+00
 1.017484e+00	 1.670007e+00	 9.306784e+00
 9.972185e-01	 1.682187e+00	 9.170689e+00
 9.768381e-01	 1.694103e+00	 9.031041e+00
 9.563482e-01	 1.705754e+00	 8.885649e+00
 1.061658e+00	 1.651093e+00	 9.587685e+00
 1.041561e+00	 1.663844e+00	 9.449800e+00
 1.021338e+00	 1.676333e+00	 9.315943e+00
 1.000996e+00	 1.688559e+00	 9.181404e+00
 9.805383e-01	 1.700520e+00	 9.042869e+00
 9.599707e-01	 1.712215e+00	 8.898167e+00
 9.418580e-01	 1.679909e+00	 8.832485e+00
 9.215756e-01	 1.691121e+00	 8.677834e+00
 9.011951e-01	 1.702069e+00	 8.517540e+00
 8.807218e-01	 1.712752e+00	 8.355081e+00
 8.601604e-01	 1.723170e+00	 8.194300e+00
 8.395162e-01	 1.733321e+00	 8.039219e+00
 9.454806e-01	 1.686370e+00	 8.845123e+00
 9.251201e-01	 1.697625e+00	 8.691244e+00
 9.046613e-01	 1.708615e+00	 8.532163e+00
 8.841091e-01	 1.719340e+00	 8.371097e+00
 8.634688e-01	 1.729798e+00	 8.211609e+00
 8.427451e-01	 1.739988e+00	 8.057422e+00
 9.491031e-01	 1.692831e+00	 8.858569e+00
 9.286646e-01	 1.704129e+00	 8.705439e+00
 9.081274e-01	 1.715162e+00	 8.547442e+00
 8.874965e-01	 1.725927e+00	 8.387592e+00
 8.667771e-01	 1.736425e+00	 8.229229e+00
 8.459740e-01	 1.746655e+00	 8.075836e+00
 9.527256e-01	 1.699293e+00	 8.872264e+00
 9.322091e-01	 1.710634e+00	 8.719839e+00
 9.115935e-01	 1.721708e+00	 8.562797e+00
 8.908839e-01	 1.732515e+00	 8.404003e+00
 8.700854e-01	 1.743053e+00	 8.246632e+00
 8.492029e-01	 1.753321e+00	 8.093983e+00
 9.563482e-01	 1.705754e+00	 8.885649e+00
 9.357537e-01	 1.717138e+00	 8.733867e+00
 9.150597e-01	 1.728254e+00	 8.577649e+00
 8.942713e-01	 1.739102e+00	 8.419765e+00
 8.733937e-01	 1.749680e+00	 8.263285e+00
 8.524319e-01	 1.759988e+00	 8.111380e+00
 9.599707e-01	 1.712215e+00	 8.898167e+00
 9.392982e-01	 1.723642e+00	 8.746944e+00
 9.185258e-01	 1.734801e+00	 8.591416e+00
 8.976587e-01	 1.745690e+00	 8.434315e+00
 8.767020e-01	 1.756308e+00	 8.278656e+00
 8.556608e-01	 1.766655e+00	 8.127542e+00
 8.395162e-01	 1.733321e+00	 8.039219e+00
 8.187941e-01	 1.743206e+00	 7.891575e+00
 7.979991e-01	 1.752823e+00	 7.748929e+00
 7.771362e-01	 1.762172e+00	 7.608790e+00
 7.562104e-01	 1.771253e+00	 7.468203e+00
 7.352267e-01	 1.780065e+00	 7.323622e+00
 8.427451e-01	 1.739988e+00	 8.057422e+00
 8.219433e-01	 1.749911e+00	 7.909688e+00
 8.010683e-01	 1.759565e+00	 7.766196e+00
 7.801252e-01	 1.768950e+00	 7.625355e+00
 7.591189e-01	 1.778065e+00	 7.485102e+00
 7.380545e-01	 1.786912e+00	 7.342803e+00
 8.459740e-01	 1.746655e+00	 8.075836e+00
 8.250925e-01	 1.756615e+00	 7.928114e+00
 8.041375e-01	 1.766306e+00	 7.784041e+00
 7.831142e-01	 1.775727e+00	 7.642729e+00
 7.620274e-01	 1.784878e+00	 7.502804e+00
 7.408823e-01	 1.793758e+00	 7.362326e+00
 8.492029e-01	 1.753321e+00	 8.093983e+00
 8.282417e-01	 1.763320e+00	 7.946411e+00
 8.072068e-01	 1.773048e+00	 7.802026e+00
 7.861032e-01	 1.782505e+00	 7.660440e+00
 7.649359e-01	 1.791690e+00	 7.520774e+00
 7.437101e-01	 1.800604e+00	 7.381556e+00
 8.524319e-01	 1.759988e+00	 8.111380e+00
 8.313909e-01	 1.770024e+00	 7.964137e+00
 8.102760e-01	 1.779789e+00	 7.819707e+00
 7.890921e-01	 1.789282e+00	 7.678016e+00
 7.678444e-01	 1.798503e+00	 7.538473e+00
 7.465379e-01	 1.807451e+00	 7.399878e+00
 8.556608e-01	 1.766655e+00	 8.127542e+00
 8.345401e-01	 1.776729e+00	 7.980843e+00
 8.133452e-01	 1.786531e+00	 7.836640e+00
 7.920811e-01	 1.796060e+00	 7.694978e+00
 7.707529e-01	 1.805315e+00	 7.555362e+00
 7.493657e-01	 1.814297e+00	 7.416661e+00
 7.352267e-01	 1.780065e+00	 7.323622e+00
 7.141900e-01	 1.788609e+00	 7.179040e+00
 6.931053e-01	 1.796885e+00	 7.042471e+00
 6.719774e-01	 1.804893e+00	 6.913919e+00
 6.508112e-01	 1.812632e+00	 6.790847e+00
 6.296116e-01	 1.820104e+00	 6.668117e+00
 7.380545e-01	 1.786912e+00	 7.342803e+00
 7.169369e-01	 1.795489e+00	 7.201340e+00
 6.957711e-01	 1.803796e+00	 7.067279e+00
 6.745619e-01	 1.811834e+00	 6.940536e+00
 6.533144e-01	 1.819604e+00	 6.818346e+00
 6.320332e-01	 1.827105e+00	 6.695215e+00
 7.408823e-01	 1.793758e+00	 7.362326e+00
 7.196838e-01	 1.802368e+00	 7.223287e+00
 6.984369e-01	 1.810707e+00	 7.090926e+00
 6.771465e-01	 1.818776e+00	 6.965703e+00
 6.558175e-01	 1.826575e+00	 6.845268e+00
 6.344548e-01	 1.834105e+00	 6.724406e+00
 7.437101e-01	 1.800604e+00	 7.381556e+00
 7.224307e-01	 1.809247e+00	 7.244147e+00
 7.011026e-01	 1.817618e+00	 7.112727e+00
 6.797310e-01	 1.825718e+00	 6.988896e+00
 6.583206e-01	 1.833547e+00	 6.871344e+00
 6.368764e-01	 1.841106e+00	 6.755771e+00
 7.465379e-01	 1.807451e+00	 7.399878e+00
 7.251776e-01	 1.816126e+00	 7.263187e+00
 7.037684e-01	 1.824529e+00	 7.132000e+00
 6.823155e-01	 1.832660e+00	 7.009583e+00
 6.608237e-01	 1.840519e+00	 6.896295e+00
 6.392980e-01	 1.848106e+00	 6.789375e+00
 7.493657e-01	 1.814297e+00	 7.416661e+00
 7.279244e-01	 1.823006e+00	 7.279675e+00
 7.064342e-01	 1.831440e+00	 7.148057e+00
 6.849000e-01	 1.839602e+00	 7.027231e+00
 6.633268e-01	 1.847490e+00	 6.919835e+00
 6.417196e-01	 1.855106e+00	 6.821976e+00
 6.296116e-01	 1.820104e+00	 6.668117e+00
 6.083834e-01	 1.827310e+00	 6.533571e+00
 5.871313e-01	 1.834248e+00	 6.387886e+00
 5.658600e-01	 1.840922e+00	 6.241489e+00
 5.445743e-01	 1.847330e+00	 6.102591e+00
 5.232787e-01	 1.853475e+00	 5.976587e+00
 6.320332e-01	 1.827105e+00	 6.695215e+00
 6.107233e-01	 1.834338e+00	 6.560080e+00
 5.893895e-01	 1.841303e+00	 6.415657e+00
 5.680364e-01	 1.848002e+00	 6.273261e+00
 5.466688e-01	 1.854435e+00	 6.139866e+00
 5.252913e-01	 1.860604e+00	 6.005946e+00
 6.344548e-01	 1.834105e+00	 6.724406e+00
 6.130633e-01	 1.841366e+00	 6.593589e+00
 5.916477e-01	 1.848358e+00	 6.456875e+00
 5.702128e-01	 1.855083e+00	 6.322137e+00
 5.487633e-01	 1.861541e+00	 6.179190e+00
 5.273039e-01	 1.867733e+00	 6.036401e+00
 6.368764e-01	 1.841106e+00	 6.755771e+00
 6.154032e-01	 1.848394e+00	 6.634491e+00
 5.939059e-01	 1.855413e+00	 6.508092e+00
 5.723892e-01	 1.862163e+00	 6.365223e+00
 5.508578e-01	 1.868646e+00	 6.214561e+00
 5.293165e-01	 1.874861e+00	 6.067826e+00
 6.392980e-01	 1.848106e+00	 6.789375e+00
 6.177432e-01	 1.855422e+00	 6.679145e+00
 5.961641e-01	 1.862468e+00	 6.546284e+00
 5.745656e-01	 1.869244e+00	 6.398313e+00
 5.529523e-01	 1.875751e+00	 6.246184e+00
 5.313291e-01	 1.881990e+00	 6.100101e+00
 6.417196e-01	 1.855106e+00	 6.821976e+00
 6.200831e-01	 1.862450e+00	 6.704621e+00
 5.984223e-01	 1.869522e+00	 6.568093e+00
 5.767420e-01	 1.876324e+00	 6.421823e+00
 5.550469e-01	 1.882856e+00	 6.274269e+00
 5.333417e-01	 1.889119e+00	 6.133112e+00
 5.232787e-01	 1.853475e+00	 5.976587e+00
 5.019778e-01	 1.859357e+00	 5.855798e+00
 4.806762e-01	 1.864977e+00	 5.737298e+00
 4.593783e-01	 1.870337e+00	 5.619293e+00
 4.380886e-01	 1.875438e+00	 5.499951e+00
 4.168113e-01	 1.880282e+00	 5.377549e+00
 5.252913e-01	 1.860604e+00	 6.005946e+00
 5.039085e-01	 1.866509e+00	 5.878206e+00
 4.825250e-01	 1.872150e+00	 5.758112e+00
 4.611452e-01	 1.877531e+00	 5.642004e+00
 4.397735e-01	 1.882652e+00	 5.526166e+00
 4.184144e-01	 1.887513e+00	 5.406972e+00
 5.273039e-01	 1.867733e+00	 6.036401e+00
 5.058392e-01	 1.873660e+00	 5.904648e+00
 4.843737e-01	 1.879323e+00	 5.783815e+00
 4.629120e-01	 1.884725e+00	 5.669048e+00
 4.414585e-01	 1.889865e+00	 5.555426e+00
 4.200176e-01	 1.894745e+00	 5.438104e+00
 5.293165e-01	 1.874861e+00	 6.067826e+00
 5.077699e-01	 1.880811e+00	 5.934669e+00
 4.862225e-01	 1.886496e+00	 5.813733e+00
 4.646788e-01	 1.891918e+00	 5.699638e+00
 4.431434e-01	 1.897078e+00	 5.586926e+00
 4.216207e-01	 1.901977e+00	 5.470209e+00
 5.313291e-01	 1.881990e+00	 6.100101e+00
 5.097006e-01	 1.887963e+00	 5.967822e+00
 4.880712e-01	 1.893669e+00	 5.847205e+00
 4.664457e-01	 1.899112e+00	 5.732998e+00
 4.448284e-01	 1.904291e+00	 5.619872e+00
 4.232238e-01	 1.909209e+00	 5.502564e+00
 5.333417e-01	 1.889119e+00	 6.133112e+00
 5.116312e-01	 1.895114e+00	 6.003672e+00
 4.899200e-01	 1.900842e+00	 5.883581e+00
 4.682125e-01	 1.906305e+00	 5.768367e+00
 4.465133e-01	 1.911504e+00	 5.653485e+00
 4.248269e-01	 1.916441e+00	 5.534457e+00
 4.168113e-01	 1.880282e+00	 5.377549e+00
 3.955509e-01	 1.884869e+00	 5.248710e+00
 3.743114e-01	 1.889201e+00	 5.126471e+00
 3.530972e-01	 1.893281e+00	 5.028150e+00
 3.319122e-01	 1.897110e+00	 4.947026e+00
 3.107606e-01	 1.900689e+00	 4.875656e+00
 4.184144e-01	 1.887513e+00	 5.406972e+00
 3.970722e-01	 1.892118e+00	 5.279996e+00
 3.757511e-01	 1.896467e+00	 5.157774e+00
 3.544552e-01	 1.900563e+00	 5.057982e+00
 3.331888e-01	 1.904406e+00	 4.975475e+00
 3.119558e-01	 1.907999e+00	 4.903017e+00
 4.200176e-01	 1.894745e+00	 5.438104e+00
 3.985936e-01	 1.899368e+00	 5.312223e+00
 3.771907e-01	 1.903734e+00	 5.189907e+00
 3.558133e-01	 1.907845e+00	 5.088794e+00
 3.344654e-01	 1.911703e+00	 5.005214e+00
 3.131510e-01	 1.915310e+00	 4.932026e+00
 4.216207e-01	 1.901977e+00	 5.470209e+00
 4.001149e-01	 1.906617e+00	 5.344748e+00
 3.786304e-01	 1.911000e+00	 5.222282e+00
 3.571714e-01	 1.915127e+00	 5.120056e+00
 3.357420e-01	 1.918999e+00	 5.035728e+00
 3.143463e-01	 1.922620e+00	 4.962153e+00
 4.232238e-01	 1.909209e+00	 5.502564e+00
 4.016363e-01	 1.913867e+00	 5.376939e+00
 3.800701e-01	 1.918266e+00	 5.254317e+00
 3.585294e-01	 1.922408e+00	 5.151241e+00
 3.370185e-01	 1.926296e+00	 5.066504e+00
 3.155415e-01	 1.929930e+00	 4.992870e+00
 4.248269e-01	 1.916441e+00	 5.534457e+00
 4.031576e-01	 1.921116e+00	 5.408173e+00
 3.815097e-01	 1.925532e+00	 5.285441e+00
 3.598875e-01	 1.929690e+00	 5.181824e+00
 3.382951e-01	 1.933593e+00	 5.097033e+00
 3.167367e-01	 1.937241e+00	 5.023651e+00
 3.107606e-01	 1.900689e+00	 4.875656e+00
 2.896462e-01	 1.904021e+00	 4.811068e+00
 2.685730e-01	 1.907108e+00	 4.751159e+00
 2.475448e-01	 1.909951e+00	 4.694800e+00
 2.265653e-01	 1.912553e+00	 4.642948e+00
 2.056382e-01	 1.914916e+00	 4.598135e+00
 3.119558e-01	 1.907999e+00	 4.903017e+00
 2.907602e-01	 1.911344e+00	 4.837717e+00
 2.696060e-01	 1.914443e+00	 4.777485e+00
 2.484969e-01	 1.917297e+00	 4.721319e+00
 2.274367e-01	 1.919909e+00	 4.670289e+00
 2.064291e-01	 1.922281e+00	 4.627024e+00
 3.131510e-01	 1.915310e+00	 4.932026e+00
 2.918742e-01	 1.918667e+00	 4.866292e+00
 2.706389e-01	 1.921778e+00	 4.805893e+00
 2.494490e-01	 1.924643e+00	 4.749958e+00
 2.283081e-01	 1.927265e+00	 4.699669e+00
 2.072200e-01	 1.929646e+00	 4.657759e+00
 3.143463e-01	 1.922620e+00	 4.962153e+00
 2.929883e-01	 1.925990e+00	 4.896246e+00
 2.716719e-01	 1.929113e+00	 4.835852e+00
 2.504011e-01	 1.931989e+00	 4.780224e+00
 2.291795e-01	 1.934621e+00	 4.730662e+00
 2.080109e-01	 1.937011e+00	 4.690007e+00
 3.155415e-01	 1.929930e+00	 4.992870e+00
 2.941023e-01	 1.933314e+00	 4.927038e+00
 2.727049e-01	 1.936448e+00	 4.866828e+00
 2.513532e-01	 1.939335e+00	 4.811626e+00
 2.300509e-01	 1.941977e+00	 4.762845e+00
 2.088018e-01	 1.944376e+00	 4.723433e+00
 3.167367e-01	 1.937241e+00	 5.023651e+00
 2.952163e-01	 1.940637e+00	 4.958124e+00
 2.737379e-01	 1.943783e+00	 4.898295e+00
 2.523052e-01	 1.946681e+00	 4.843674e+00
 2.309223e-01	 1.949333e+00	 4.795791e+00
 2.095928e-01	 1.951741e+00	 4.757703e+00
 2.056382e-01	 1.914916e+00	 4.598135e+00
 1.847671e-01	 1.917042e+00	 4.564372e+00
 1.639555e-01	 1.918934e+00	 4.540202e+00
 1.432068e-01	 1.920594e+00	 4.521049e+00
 1.225244e-01	 1.922025e+00	 4.502323e+00
 1.019115e-01	 1.923228e+00	 4.479078e+00
 2.064291e-01	 1.922281e+00	 4.627024e+00
 1.854777e-01	 1.924416e+00	 4.595394e+00
 1.645861e-01	 1.926315e+00	 4.573544e+00
 1.437576e-01	 1.927981e+00	 4.556603e+00
 1.229956e-01	 1.929417e+00	 4.539700e+00
 1.023035e-01	 1.930625e+00	 4.517625e+00
 2.072200e-01	 1.929646e+00	 4.657759e+00
 1.861884e-01	 1.931789e+00	 4.627953e+00
 1.652166e-01	 1.933695e+00	 4.608052e+00
 1.443084e-01	 1.935368e+00	 4.592993e+00
 1.234669e-01	 1.936809e+00	 4.577717e+00
 1.026955e-01	 1.938022e+00	 4.556842e+00
 2.080109e-01	 1.937011e+00	 4.690007e+00
 1.868990e-01	 1.939162e+00	 4.661813e+00
 1.658472e-01	 1.941076e+00	 4.643580e+00
 1.448592e-01	 1.942755e+00	 4.630147e+00
 1.239381e-01	 1.944202e+00	 4.616362e+00
 1.030875e-01	 1.945419e+00	 4.596757e+00
 2.088018e-01	 1.944376e+00	 4.723433e+00
 1.876096e-01	 1.946535e+00	 4.696738e+00
 1.664778e-01	 1.948456e+00	 4.679979e+00
 1.454100e-01	 1.950142e+00	 4.667992e+00
 1.244094e-01	 1.951594e+00	 4.655621e+00
 1.034794e-01	 1.952816e+00	 4.637400e+00
 2.095928e-01	 1.951741e+00	 4.757703e+00
 1.883203e-01	 1.953909e+00	 4.732491e+00
 1.671084e-01	 1.955837e+00	 4.717100e+00
 1.459607e-01	 1.957529e+00	 4.706452e+00
 1.248806e-01	 1.958987e+00	 4.695478e+00
 1.038714e-01	 1.960213e+00	 4.678797e+00
 1.019115e-01	 1.923228e+00	 4.479078e+00
 8.137149e-02	 1.924206e+00	 4.450441e+00
 6.090730e-02	 1.924963e+00	 4.422388e+00
 4.052204e-02	 1.925500e+00	 4.398699e+00
 2.021865e-02	 1.925820e+00	 4.381467e+00
-8.693885e-08	 1.925930e+00	 4.370104e+00
 1.023035e-01	 1.930625e+00	 4.517625e+00
 8.168445e-02	 1.931607e+00	 4.489540e+00
 6.114156e-02	 1.932366e+00	 4.461365e+00
 4.067789e-02	 1.932905e+00	 4.436519e+00
 2.029641e-02	 1.933227e+00	 4.416784e+00
-7.973181e-08	 1.933337e+00	 4.401385e+00
 1.026955e-01	 1.938022e+00	 4.556842e+00
 8.199742e-02	 1.939008e+00	 4.529592e+00
 6.137582e-02	 1.939770e+00	 4.501487e+00
 4.083375e-02	 1.940311e+00	 4.475125e+00
 2.037418e-02	 1.940634e+00	 4.451518e+00
-7.277518e-08	 1.940744e+00	 4.429253e+00
 1.030875e-01	 1.945419e+00	 4.596757e+00
 8.231039e-02	 1.946409e+00	 4.570640e+00
 6.161008e-02	 1.947174e+00	 4.542780e+00
 4.098960e-02	 1.947717e+00	 4.514495e+00
 2.045194e-02	 1.948041e+00	 4.485577e+00
-6.596308e-08	 1.948152e+00	 4.453523e+00
 1.034794e-01	 1.952816e+00	 4.637400e+00
 8.262336e-02	 1.953809e+00	 4.612728e+00
 6.184434e-02	 1.954577e+00	 4.585271e+00
 4.114546e-02	 1.955123e+00	 4.554610e+00
 2.052970e-02	 1.955448e+00	 4.518870e+00
-5.918963e-08	 1.955559e+00	 4.474014e+00
 1.038714e-01	 1.960213e+00	 4.678797e+00
 8.293632e-02	 1.961210e+00	 4.655899e+00
 6.207860e-02	 1.961981e+00	 4.628984e+00
 4.130131e-02	 1.962528e+00	 4.595449e+00
 2.060747e-02	 1.962855e+00	 4.551306e+00
-5.234894e-08	 1.962966e+00	 4.490550e+00
 1.962963e+00	 0.000000e+00	 1.261590e+01
 1.962855e+00	 2.060747e-02	 1.262392e+01
 1.962528e+00	 4.130131e-02	 1.263139e+01
 1.961981e+00	 6.207860e-02	 1.263778e+01
 1.961210e+00	 8.293632e-02	 1.264273e+01
 1.960213e+00	 1.038714e-01	 1.264597e+01
 1.970370e+00	 0.000000e+00	 1.259486e+01
 1.970262e+00	 2.068523e-02	 1.260034e+01
 1.969934e+00	 4.145716e-02	 1.260686e+01
 1.969385e+00	 6.231286e-02	 1.261324e+01
 1.968611e+00	 8.324929e-02	 1.261846e+01
 1.967610e+00	 1.042634e-01	 1.262161e+01
 1.977778e+00	 0.000000e+00	 1.257733e+01
 1.977669e+00	 2.076300e-02	 1.257805e+01
 1.977340e+00	 4.161302e-02	 1.258237e+01
 1.976789e+00	 6.254712e-02	 1.258822e+01
 1.976012e+00	 8.356226e-02	 1.259370e+01
 1.975007e+00	 1.046553e-01	 1.259713e+01
 1.985185e+00	 0.000000e+00	 1.256564e+01
 1.985076e+00	 2.084076e-02	 1.255788e+01
 1.984746e+00	 4.176887e-02	 1.255772e+01
 1.984192e+00	 6.278138e-02	 1.256191e+01
 1.983413e+00	 8.387522e-02	 1.256752e+01
 1.982404e+00	 1.050473e-01	 1.257190e+01
 1.992593e+00	 0.000000e+00	 1.256209e+01
 1.992483e+00	 2.091852e-02	 1.254068e+01
 1.992151e+00	 4.192473e-02	 1.253272e+01
 1.991596e+00	 6.301563e-02	 1.253355e+01
 1.990813e+00	 8.418819e-02	 1.253900e+01
 1.989801e+00	 1.054393e-01	 1.254531e+01
 2.000000e+00	 0.000000e+00	 1.256894e+01
 1.999890e+00	 2.099629e-02	 1.252725e+01
 1.999557e+00	 4.208058e-02	 1.250716e+01
 1.999000e+00	 6.324989e-02	 1.250236e+01
 1.998214e+00	 8.450116e-02	 1.250722e+01
 1.997198e+00	 1.058312e-01	 1.251674e+01
 1.960213e+00	 1.038714e-01	 1.264597e+01
 1.958987e+00	 1.248806e-01	 1.264979e+01
 1.957529e+00	 1.459607e-01	 1.265607e+01
 1.955837e+00	 1.671084e-01	 1.266402e+01
 1.953909e+00	 1.883203e-01	 1.267287e+01
 1.951741e+00	 2.095928e-01	 1.268185e+01
 1.967610e+00	 1.042634e-01	 1.262161e+01
 1.966379e+00	 1.253519e-01	 1.262505e+01
 1.964916e+00	 1.465115e-01	 1.263119e+01
 1.963218e+00	 1.677390e-01	 1.263927e+01
 1.961282e+00	 1.890309e-01	 1.264857e+01
 1.959106e+00	 2.103837e-01	 1.265836e+01
 1.975007e+00	 1.046553e-01	 1.259713e+01
 1.973771e+00	 1.258231e-01	 1.260059e+01
 1.972303e+00	 1.470623e-01	 1.260681e+01
 1.970598e+00	 1.683696e-01	 1.261513e+01
 1.968655e+00	 1.897416e-01	 1.262494e+01
 1.966472e+00	 2.111746e-01	 1.263558e+01
 1.982404e+00	 1.050473e-01	 1.257190e+01
 1.981164e+00	 1.262944e-01	 1.257625e+01
 1.979690e+00	 1.476131e-01	 1.258308e+01
 1.977979e+00	 1.690002e-01	 1.259193e+01
 1.976028e+00	 1.904522e-01	 1.260233e+01
 1.973837e+00	 2.119655e-01	 1.261374e+01
 1.989801e+00	 1.054393e-01	 1.254531e+01
 1.988556e+00	 1.267656e-01	 1.255185e+01
 1.987076e+00	 1.481639e-01	 1.256016e+01
 1.985359e+00	 1.696308e-01	 1.257000e+01
 1.983402e+00	 1.911629e-01	 1.258111e+01
 1.981202e+00	 2.127564e-01	 1.259307e+01
 1.997198e+00	 1.058312e-01	 1.251674e+01
 1.995949e+00	 1.272369e-01	 1.252726e+01
 1.994463e+00	 1.487147e-01	 1.253821e+01
 1.992740e+00	 1.702614e-01	 1.254967e+01
 1.990775e+00	 1.918735e-01	 1.256161e+01
 1.988567e+00	 2.135473e-01	 1.257380e+01
 1.951741e+00	 2.095928e-01	 1.268185e+01
 1.949333e+00	 2.309223e-01	 1.269071e+01
 1.946681e+00	 2.523052e-01	 1.270028e+01
 1.943783e+00	 2.737379e-01	 1.271108e+01
 1.940637e+00	 2.952163e-01	 1.272322e+01
 1.937241e+00	 3.167367e-01	 1.273638e+01
 1.959106e+00	 2.103837e-01	 1.265836e+01
 1.956689e+00	 2.317937e-01	 1.266814e+01
 1.954027e+00	 2.532573e-01	 1.267840e+01
 1.951118e+00	 2.747708e-01	 1.268967e+01
 1.947960e+00	 2.963303e-01	 1.270208e+01
 1.944551e+00	 3.179320e-01	 1.271528e+01
 1.966472e+00	 2.111746e-01	 1.263558e+01
 1.964045e+00	 2.326651e-01	 1.264631e+01
 1.961373e+00	 2.542094e-01	 1.265731e+01
 1.958453e+00	 2.758038e-01	 1.266908e+01
 1.955283e+00	 2.974444e-01	 1.268173e+01
 1.951861e+00	 3.191272e-01	 1.269492e+01
 1.973837e+00	 2.119655e-01	 1.261374e+01
 1.971401e+00	 2.335365e-01	 1.262529e+01
 1.968719e+00	 2.551615e-01	 1.263697e+01
 1.965788e+00	 2.768368e-01	 1.264923e+01
 1.962606e+00	 2.985584e-01	 1.266215e+01
 1.959172e+00	 3.203224e-01	 1.267538e+01
 1.981202e+00	 2.127564e-01	 1.259307e+01
 1.978757e+00	 2.344079e-01	 1.260516e+01
 1.976065e+00	 2.561136e-01	 1.261737e+01
 1.973123e+00	 2.778697e-01	 1.263008e+01
 1.969929e+00	 2.996724e-01	 1.264332e+01
 1.966482e+00	 3.215177e-01	 1.265674e+01
 1.988567e+00	 2.135473e-01	 1.257380e+01
 1.986113e+00	 2.352793e-01	 1.258599e+01
 1.983411e+00	 2.570657e-01	 1.259848e+01
 1.980458e+00	 2.789027e-01	 1.261156e+01
 1.977253e+00	 3.007864e-01	 1.262523e+01
 1.973792e+00	 3.227129e-01	 1.263909e+01
 1.937241e+00	 3.167367e-01	 1.273638e+01
 1.933593e+00	 3.382951e-01	 1.274967e+01
 1.929690e+00	 3.598875e-01	 1.276187e+01
 1.925532e+00	 3.815097e-01	 1.277145e+01
 1.921116e+00	 4.031576e-01	 1.277997e+01
 1.916441e+00	 4.248269e-01	 1.279044e+01
 1.944551e+00	 3.179320e-01	 1.271528e+01
 1.940889e+00	 3.395717e-01	 1.272849e+01
 1.936972e+00	 3.612456e-01	 1.274056e+01
 1.932798e+00	 3.829494e-01	 1.274997e+01
 1.928366e+00	 4.046790e-01	 1.275824e+01
 1.923673e+00	 4.264300e-01	 1.276808e+01
 1.951861e+00	 3.191272e-01	 1.269492e+01
 1.948186e+00	 3.408483e-01	 1.270798e+01
 1.944254e+00	 3.626036e-01	 1.271985e+01
 1.940064e+00	 3.843890e-01	 1.272909e+01
 1.935615e+00	 4.062003e-01	 1.273713e+01
 1.930905e+00	 4.280332e-01	 1.274640e+01
 1.959172e+00	 3.203224e-01	 1.267538e+01
 1.955482e+00	 3.421249e-01	 1.268833e+01
 1.951536e+00	 3.639617e-01	 1.270001e+01
 1.947331e+00	 3.858287e-01	 1.270906e+01
 1.942865e+00	 4.077217e-01	 1.271683e+01
 1.938136e+00	 4.296363e-01	 1.272549e+01
 1.966482e+00	 3.215177e-01	 1.265674e+01
 1.962779e+00	 3.434015e-01	 1.266972e+01
 1.958818e+00	 3.653198e-01	 1.268128e+01
 1.954597e+00	 3.872684e-01	 1.269014e+01
 1.950114e+00	 4.092430e-01	 1.269756e+01
 1.945368e+00	 4.312394e-01	 1.270545e+01
 1.973792e+00	 3.227129e-01	 1.263909e+01
 1.970075e+00	 3.446781e-01	 1.265235e+01
 1.966100e+00	 3.666778e-01	 1.266391e+01
 1.961863e+00	 3.887080e-01	 1.267257e+01
 1.957364e+00	 4.107643e-01	 1.267950e+01
 1.952600e+00	 4.328425e-01	 1.268639e+01
 1.916441e+00	 4.248269e-01	 1.279044e+01
 1.911504e+00	 4.465133e-01	 1.280372e+01
 1.906305e+00	 4.682125e-01	 1.281839e+01
 1.900842e+00	 4.899200e-01	 1.283382e+01
 1.895114e+00	 5.116312e-01	 1.284940e+01
 1.889119e+00	 5.333417e-01	 1.286453e+01
 1.923673e+00	 4.264300e-01	 1.276808e+01
 1.918718e+00	 4.481983e-01	 1.278046e+01
 1.913499e+00	 4.699794e-01	 1.279428e+01
 1.908015e+00	 4.917687e-01	 1.280898e+01
 1.902265e+00	 5.135619e-01	 1.282404e+01
 1.896248e+00	 5.353543e-01	 1.283893e+01
 1.930905e+00	 4.280332e-01	 1.274640e+01
 1.925931e+00	 4.498833e-01	 1.275791e+01
 1.920693e+00	 4.717462e-01	 1.277080e+01
 1.915188e+00	 4.936175e-01	 1.278459e+01
 1.909417e+00	 5.154926e-01	 1.279881e+01
 1.903376e+00	 5.373670e-01	 1.281298e+01
 1.938136e+00	 4.296363e-01	 1.272549e+01
 1.933144e+00	 4.515682e-01	 1.273606e+01
 1.927886e+00	 4.735130e-01	 1.274791e+01
 1.922361e+00	 4.954662e-01	 1.276062e+01
 1.916568e+00	 5.174233e-01	 1.277374e+01
 1.910505e+00	 5.393796e-01	 1.278686e+01
 1.945368e+00	 4.312394e-01	 1.270545e+01
 1.940357e+00	 4.532532e-01	 1.271493e+01
 1.935080e+00	 4.752799e-01	 1.272559e+01
 1.929534e+00	 4.973150e-01	 1.273704e+01
 1.923719e+00	 5.193540e-01	 1.274889e+01
 1.917634e+00	 5.413922e-01	 1.276077e+01
 1.952600e+00	 4.328425e-01	 1.268639e+01
 1.947571e+00	 4.549381e-01	 1.269450e+01
 1.942274e+00	 4.770467e-01	 1.270379e+01
 1.936707e+00	 4.991637e-01	 1.271385e+01
 1.930871e+00	 5.212847e-01	 1.272432e+01
 1.924763e+00	 5.434048e-01	 1.273489e+01
 1.889119e+00	 5.333417e-01	 1.286453e+01
 1.882856e+00	 5.550469e-01	 1.287845e+01
 1.876324e+00	 5.767420e-01	 1.289148e+01
 1.869522e+00	 5.984223e-01	 1.290473e+01
 1.862450e+00	 6.200831e-01	 1.291938e+01
 1.855106e+00	 6.417196e-01	 1.293672e+01
 1.896248e+00	 5.353543e-01	 1.283893e+01
 1.889961e+00	 5.571414e-01	 1.285276e+01
 1.883405e+00	 5.789183e-01	 1.286557e+01
 1.876577e+00	 6.006805e-01	 1.287836e+01
 1.869478e+00	 6.224230e-01	 1.289223e+01
 1.862107e+00	 6.441411e-01	 1.290847e+01
 1.903376e+00	 5.373670e-01	 1.281298e+01
 1.897066e+00	 5.592359e-01	 1.282631e+01
 1.890485e+00	 5.810947e-01	 1.283883e+01
 1.883632e+00	 6.029387e-01	 1.285140e+01
 1.876506e+00	 6.247630e-01	 1.286507e+01
 1.869107e+00	 6.465627e-01	 1.288107e+01
 1.910505e+00	 5.393796e-01	 1.278686e+01
 1.904171e+00	 5.613304e-01	 1.279942e+01
 1.897566e+00	 5.832711e-01	 1.281152e+01
 1.890687e+00	 6.051969e-01	 1.282397e+01
 1.883534e+00	 6.271029e-01	 1.283772e+01
 1.876108e+00	 6.489843e-01	 1.285396e+01
 1.917634e+00	 5.413922e-01	 1.276077e+01
 1.911276e+00	 5.634249e-01	 1.277235e+01
 1.904646e+00	 5.854475e-01	 1.278392e+01
 1.897742e+00	 6.074551e-01	 1.279617e+01
 1.890563e+00	 6.294428e-01	 1.281001e+01
 1.883108e+00	 6.514059e-01	 1.282654e+01
 1.924763e+00	 5.434048e-01	 1.273489e+01
 1.918382e+00	 5.655194e-01	 1.274540e+01
 1.911726e+00	 5.876239e-01	 1.275626e+01
 1.904797e+00	 6.097133e-01	 1.276811e+01
 1.897591e+00	 6.317828e-01	 1.278176e+01
 1.890108e+00	 6.538275e-01	 1.279825e+01
 1.855106e+00	 6.417196e-01	 1.293672e+01
 1.847490e+00	 6.633268e-01	 1.295864e+01
 1.839602e+00	 6.849000e-01	 1.298173e+01
 1.831440e+00	 7.064342e-01	 1.300395e+01
 1.823006e+00	 7.279244e-01	 1.302433e+01
 1.814297e+00	 7.493657e-01	 1.304225e+01
 1.862107e+00	 6.441411e-01	 1.290847e+01
 1.854462e+00	 6.658300e-01	 1.292963e+01
 1.846544e+00	 6.874846e-01	 1.295512e+01
 1.838352e+00	 7.091000e-01	 1.297960e+01
 1.829885e+00	 7.306713e-01	 1.300191e+01
 1.821144e+00	 7.521935e-01	 1.302140e+01
 1.869107e+00	 6.465627e-01	 1.288107e+01
 1.861434e+00	 6.683331e-01	 1.290153e+01
 1.853486e+00	 6.900691e-01	 1.292685e+01
 1.845263e+00	 7.117658e-01	 1.295417e+01
 1.836764e+00	 7.334182e-01	 1.297899e+01
 1.827990e+00	 7.550213e-01	 1.300047e+01
 1.876108e+00	 6.489843e-01	 1.285396e+01
 1.868405e+00	 6.708362e-01	 1.287427e+01
 1.860428e+00	 6.926536e-01	 1.289875e+01
 1.852174e+00	 7.144316e-01	 1.292667e+01
 1.843643e+00	 7.361651e-01	 1.295480e+01
 1.834837e+00	 7.578491e-01	 1.297909e+01
 1.883108e+00	 6.514059e-01	 1.282654e+01
 1.875377e+00	 6.733393e-01	 1.284690e+01
 1.867370e+00	 6.952382e-01	 1.287094e+01
 1.859085e+00	 7.170974e-01	 1.289824e+01
 1.850523e+00	 7.389120e-01	 1.292852e+01
 1.841683e+00	 7.606769e-01	 1.295688e+01
 1.890108e+00	 6.538275e-01	 1.279825e+01
 1.882349e+00	 6.758424e-01	 1.281848e+01
 1.874311e+00	 6.978227e-01	 1.284233e+01
 1.865996e+00	 7.197632e-01	 1.286963e+01
 1.857402e+00	 7.416589e-01	 1.290058e+01
 1.848529e+00	 7.635047e-01	 1.293342e+01
 1.814297e+00	 7.493657e-01	 1.304225e+01
 1.805315e+00	 7.707529e-01	 1.305648e+01
 1.796060e+00	 7.920811e-01	 1.306728e+01
 1.786531e+00	 8.133452e-01	 1.307487e+01
 1.776729e+00	 8.345401e-01	 1.307969e+01
 1.766655e+00	 8.556608e-01	 1.308230e+01
 1.821144e+00	 7.521935e-01	 1.302140e+01
 1.812128e+00	 7.736614e-01	 1.303686e+01
 1.802837e+00	 7.950701e-01	 1.304886e+01
 1.793273e+00	 8.164145e-01	 1.305750e+01
 1.783434e+00	 8.376893e-01	 1.306307e+01
 1.773321e+00	 8.588897e-01	 1.306601e+01
 1.827990e+00	 7.550213e-01	 1.300047e+01
 1.818940e+00	 7.765699e-01	 1.301752e+01
 1.809615e+00	 7.980591e-01	 1.303098e+01
 1.800014e+00	 8.194837e-01	 1.304085e+01
 1.790138e+00	 8.408386e-01	 1.304729e+01
 1.779988e+00	 8.621186e-01	 1.305055e+01
 1.834837e+00	 7.578491e-01	 1.297909e+01
 1.825753e+00	 7.794784e-01	 1.299852e+01
 1.816393e+00	 8.010481e-01	 1.301400e+01
 1.806756e+00	 8.225529e-01	 1.302543e+01
 1.796843e+00	 8.439878e-01	 1.303282e+01
 1.786654e+00	 8.653475e-01	 1.303622e+01
 1.841683e+00	 7.606769e-01	 1.295688e+01
 1.832565e+00	 7.823869e-01	 1.297993e+01
 1.823170e+00	 8.040371e-01	 1.299827e+01
 1.813498e+00	 8.256221e-01	 1.301172e+01
 1.803548e+00	 8.471370e-01	 1.302013e+01
 1.793321e+00	 8.685764e-01	 1.302331e+01
 1.848529e+00	 7.635047e-01	 1.293342e+01
 1.839378e+00	 7.852954e-01	 1.296177e+01
 1.829948e+00	 8.070261e-01	 1.298410e+01
 1.820239e+00	 8.286914e-01	 1.300017e+01
 1.810252e+00	 8.502862e-01	 1.300964e+01
 1.799988e+00	 8.718053e-01	 1.301208e+01
 1.766655e+00	 8.556608e-01	 1.308230e+01
 1.756308e+00	 8.767020e-01	 1.307955e+01
 1.745690e+00	 8.976587e-01	 1.306933e+01
 1.734801e+00	 9.185258e-01	 1.305382e+01
 1.723642e+00	 9.392982e-01	 1.303505e+01
 1.712215e+00	 9.599707e-01	 1.301480e+01
 1.773321e+00	 8.588897e-01	 1.306601e+01
 1.762935e+00	 8.800103e-01	 1.306335e+01
 1.752277e+00	 9.010461e-01	 1.305318e+01
 1.741347e+00	 9.219919e-01	 1.303750e+01
 1.730147e+00	 9.428427e-01	 1.301822e+01
 1.718676e+00	 9.635932e-01	 1.299699e+01
 1.779988e+00	 8.621186e-01	 1.305055e+01
 1.769563e+00	 8.833186e-01	 1.304795e+01
 1.758865e+00	 9.044335e-01	 1.303780e+01
 1.747894e+00	 9.254581e-01	 1.302191e+01
 1.736651e+00	 9.463872e-01	 1.300201e+01
 1.725137e+00	 9.672158e-01	 1.297963e+01
 1.786654e+00	 8.653475e-01	 1.303622e+01
 1.776191e+00	 8.866269e-01	 1.303340e+01
 1.765452e+00	 9.078209e-01	 1.302308e+01
 1.754440e+00	 9.289242e-01	 1.300684e+01
 1.743155e+00	 9.499317e-01	 1.298618e+01
 1.731598e+00	 9.708383e-01	 1.296246e+01
 1.793321e+00	 8.685764e-01	 1.302331e+01
 1.782818e+00	 8.899352e-01	 1.301976e+01
 1.772040e+00	 9.112083e-01	 1.300893e+01
 1.760987e+00	 9.323904e-01	 1.299207e+01
 1.749659e+00	 9.534763e-01	 1.297046e+01
 1.738060e+00	 9.744608e-01	 1.294524e+01
 1.799988e+00	 8.718053e-01	 1.301208e+01
 1.789446e+00	 8.932435e-01	 1.300708e+01
 1.778627e+00	 9.145957e-01	 1.299521e+01
 1.767533e+00	 9.358565e-01	 1.297738e+01
 1.756164e+00	 9.570208e-01	 1.295458e+01
 1.744521e+00	 9.780834e-01	 1.292772e+01
 1.712215e+00	 9.599707e-01	 1.301480e+01
 1.700520e+00	 9.805383e-01	 1.299307e+01
 1.688559e+00	 1.000996e+00	 1.296955e+01
 1.676333e+00	 1.021338e+00	 1.294473e+01
 1.663844e+00	 1.041561e+00	 1.291818e+01
 1.651093e+00	 1.061658e+00	 1.288838e+01
 1.718676e+00	 9.635932e-01	 1.299699e+01
 1.706937e+00	 9.842384e-01	 1.297405e+01
 1.694931e+00	 1.004773e+00	 1.294951e+01
 1.682659e+00	 1.025192e+00	 1.292400e+01
 1.670122e+00	 1.045491e+00	 1.289731e+01
 1.657323e+00	 1.065664e+00	 1.286812e+01
 1.725137e+00	 9.672158e-01	 1.297963e+01
 1.713354e+00	 9.879386e-01	 1.295523e+01
 1.701303e+00	 1.008550e+00	 1.292941e+01
 1.688984e+00	 1.029046e+00	 1.290301e+01
 1.676401e+00	 1.049421e+00	 1.287609e+01
 1.663554e+00	 1.069670e+00	 1.284759e+01
 1.731598e+00	 9.708383e-01	 1.296246e+01
 1.719771e+00	 9.916387e-01	 1.293640e+01
 1.707675e+00	 1.012328e+00	 1.290908e+01
 1.695310e+00	 1.032901e+00	 1.288163e+01
 1.682679e+00	 1.053352e+00	 1.285441e+01
 1.669784e+00	 1.073676e+00	 1.282670e+01
 1.738060e+00	 9.744608e-01	 1.294524e+01
 1.726188e+00	 9.953388e-01	 1.291735e+01
 1.714047e+00	 1.016105e+00	 1.288835e+01
 1.701636e+00	 1.036755e+00	 1.285972e+01
 1.688958e+00	 1.057282e+00	 1.283217e+01
 1.676015e+00	 1.077683e+00	 1.280537e+01
 1.744521e+00	 9.780834e-01	 1.292772e+01
 1.732605e+00	 9.990390e-01	 1.289786e+01
 1.720418e+00	 1.019883e+00	 1.286704e+01
 1.707962e+00	 1.040609e+00	 1.283713e+01
 1.695237e+00	 1.061213e+00	 1.280925e+01
 1.682245e+00	 1.081689e+00	 1.278350e+01
 1.651093e+00	 1.061658e+00	 1.288838e+01
 1.638082e+00	 1.081624e+00	 1.285759e+01
 1.624813e+00	 1.101456e+00	 1.282516e+01
 1.611289e+00	 1.121148e+00	 1.278544e+01
 1.597510e+00	 1.140695e+00	 1.274842e+01
 1.583481e+00	 1.160092e+00	 1.271539e+01
 1.657323e+00	 1.065664e+00	 1.286812e+01
 1.644263e+00	 1.085706e+00	 1.283800e+01
 1.630945e+00	 1.105613e+00	 1.280535e+01
 1.617369e+00	 1.125379e+00	 1.276701e+01
 1.603539e+00	 1.144999e+00	 1.273195e+01
 1.589456e+00	 1.164469e+00	 1.269964e+01
 1.663554e+00	 1.069670e+00	 1.284759e+01
 1.650445e+00	 1.089788e+00	 1.281832e+01
 1.637076e+00	 1.109769e+00	 1.278565e+01
 1.623449e+00	 1.129609e+00	 1.274938e+01
 1.609567e+00	 1.149304e+00	 1.271595e+01
 1.595432e+00	 1.168847e+00	 1.268391e+01
 1.669784e+00	 1.073676e+00	 1.282670e+01
 1.656626e+00	 1.093869e+00	 1.279848e+01
 1.643207e+00	 1.113926e+00	 1.276613e+01
 1.629530e+00	 1.133840e+00	 1.273232e+01
 1.615595e+00	 1.153608e+00	 1.270018e+01
 1.601407e+00	 1.173225e+00	 1.266793e+01
 1.676015e+00	 1.077683e+00	 1.280537e+01
 1.662808e+00	 1.097951e+00	 1.277841e+01
 1.649339e+00	 1.118082e+00	 1.274714e+01
 1.635610e+00	 1.138071e+00	 1.271559e+01
 1.621624e+00	 1.157913e+00	 1.268441e+01
 1.607382e+00	 1.177602e+00	 1.265144e+01
 1.682245e+00	 1.081689e+00	 1.278350e+01
 1.668989e+00	 1.102033e+00	 1.275802e+01
 1.655470e+00	 1.122238e+00	 1.272848e+01
 1.641690e+00	 1.142302e+00	 1.269898e+01
 1.627652e+00	 1.162217e+00	 1.266840e+01
 1.613358e+00	 1.181980e+00	 1.263422e+01
 1.583481e+00	 1.160092e+00	 1.271539e+01
 1.569202e+00	 1.179334e+00	 1.268179e+01
 1.554677e+00	 1.198417e+00	 1.264320e+01
 1.539908e+00	 1.217336e+00	 1.259878e+01
 1.524899e+00	 1.236086e+00	 1.254782e+01
 1.509651e+00	 1.254663e+00	 1.248979e+01
 1.589456e+00	 1.164469e+00	 1.269964e+01
 1.575124e+00	 1.183784e+00	 1.266568e+01
 1.560544e+00	 1.202939e+00	 1.262636e+01
 1.545719e+00	 1.221929e+00	 1.258163e+01
 1.530653e+00	 1.240750e+00	 1.253155e+01
 1.515348e+00	 1.259397e+00	 1.247643e+01
 1.595432e+00	 1.168847e+00	 1.268391e+01
 1.581045e+00	 1.188234e+00	 1.264917e+01
 1.566411e+00	 1.207461e+00	 1.260902e+01
 1.551530e+00	 1.226523e+00	 1.256406e+01
 1.536407e+00	 1.245415e+00	 1.251516e+01
 1.521044e+00	 1.264132e+00	 1.246341e+01
 1.601407e+00	 1.173225e+00	 1.266793e+01
 1.586967e+00	 1.192685e+00	 1.263200e+01
 1.572277e+00	 1.211984e+00	 1.259085e+01
 1.557341e+00	 1.231117e+00	 1.254575e+01
 1.542162e+00	 1.250079e+00	 1.249827e+01
 1.526741e+00	 1.268866e+00	 1.245030e+01
 1.607382e+00	 1.177602e+00	 1.265144e+01
 1.592888e+00	 1.197135e+00	 1.261389e+01
 1.578144e+00	 1.216506e+00	 1.257155e+01
 1.563152e+00	 1.235710e+00	 1.252635e+01
 1.547916e+00	 1.254744e+00	 1.248052e+01
 1.532438e+00	 1.273601e+00	 1.243672e+01
 1.613358e+00	 1.181980e+00	 1.263422e+01
 1.598810e+00	 1.201585e+00	 1.259457e+01
 1.584011e+00	 1.221028e+00	 1.255085e+01
 1.568963e+00	 1.240304e+00	 1.250554e+01
 1.553670e+00	 1.259408e+00	 1.246157e+01
 1.538135e+00	 1.278335e+00	 1.242228e+01
 1.509651e+00	 1.254663e+00	 1.248979e+01
 1.494168e+00	 1.273062e+00	 1.243330e+01
 1.478453e+00	 1.291279e+00	 1.238242e+01
 1.462509e+00	 1.309309e+00	 1.233060e+01
 1.446340e+00	 1.327149e+00	 1.227261e+01
 1.429949e+00	 1.344793e+00	 1.220466e+01
 1.515348e+00	 1.259397e+00	 1.247643e+01
 1.499806e+00	 1.277866e+00	 1.242409e+01
 1.484032e+00	 1.296151e+00	 1.237717e+01
 1.468028e+00	 1.314250e+00	 1.232859e+01
 1.451798e+00	 1.332157e+00	 1.227274e+01
 1.435345e+00	 1.349868e+00	 1.220552e+01
 1.521044e+00	 1.264132e+00	 1.246341e+01
 1.505445e+00	 1.282670e+00	 1.241556e+01
 1.489611e+00	 1.301024e+00	 1.237268e+01
 1.473547e+00	 1.319191e+00	 1.232748e+01
 1.457256e+00	 1.337165e+00	 1.227382e+01
 1.440741e+00	 1.354943e+00	 1.220738e+01
 1.526741e+00	 1.268866e+00	 1.245030e+01
 1.511083e+00	 1.287474e+00	 1.240728e+01
 1.495190e+00	 1.305897e+00	 1.236847e+01
 1.479066e+00	 1.324131e+00	 1.232672e+01
 1.462714e+00	 1.342173e+00	 1.227533e+01
 1.446137e+00	 1.360017e+00	 1.220974e+01
 1.532438e+00	 1.273601e+00	 1.243672e+01
 1.516721e+00	 1.292278e+00	 1.239880e+01
 1.500769e+00	 1.310770e+00	 1.236413e+01
 1.484585e+00	 1.329072e+00	 1.232574e+01
 1.468172e+00	 1.347181e+00	 1.227673e+01
 1.451533e+00	 1.365092e+00	 1.221213e+01
 1.538135e+00	 1.278335e+00	 1.242228e+01
 1.522360e+00	 1.297082e+00	 1.238973e+01
 1.506348e+00	 1.315642e+00	 1.235920e+01
 1.490104e+00	 1.334013e+00	 1.232406e+01
 1.473630e+00	 1.352189e+00	 1.227751e+01
 1.456929e+00	 1.370167e+00	 1.221405e+01
 1.429949e+00	 1.344793e+00	 1.220466e+01
 1.413340e+00	 1.362239e+00	 1.211818e+01
 1.396516e+00	 1.379481e+00	 1.201136e+01
 1.379481e+00	 1.396516e+00	 1.189165e+01
 1.362239e+00	 1.413340e+00	 1.176628e+01
 1.344793e+00	 1.429949e+00	 1.164161e+01
 1.435345e+00	 1.349868e+00	 1.220552e+01
 1.418673e+00	 1.367379e+00	 1.211955e+01
 1.401786e+00	 1.384686e+00	 1.201392e+01
 1.384686e+00	 1.401786e+00	 1.189541e+01
 1.367379e+00	 1.418673e+00	 1.177059e+01
 1.349868e+00	 1.435345e+00	 1.164512e+01
 1.440741e+00	 1.354943e+00	 1.220738e+01
 1.424007e+00	 1.372520e+00	 1.212200e+01
 1.407056e+00	 1.389892e+00	 1.201769e+01
 1.389892e+00	 1.407056e+00	 1.190051e+01
 1.372520e+00	 1.424007e+00	 1.177632e+01
 1.354943e+00	 1.440741e+00	 1.165009e+01
 1.446137e+00	 1.360017e+00	 1.220974e+01
 1.429340e+00	 1.377660e+00	 1.212510e+01
 1.412325e+00	 1.395098e+00	 1.202226e+01
 1.395098e+00	 1.412325e+00	 1.190656e+01
 1.377660e+00	 1.429340e+00	 1.178313e+01
 1.360017e+00	 1.446137e+00	 1.165617e+01
 1.451533e+00	 1.365092e+00	 1.221213e+01
 1.434673e+00	 1.382801e+00	 1.212840e+01
 1.417595e+00	 1.400303e+00	 1.202722e+01
 1.400303e+00	 1.417595e+00	 1.191317e+01
 1.382801e+00	 1.434673e+00	 1.179062e+01
 1.365092e+00	 1.451533e+00	 1.166300e+01
 1.456929e+00	 1.370167e+00	 1.221405e+01
 1.440007e+00	 1.387941e+00	 1.213146e+01
 1.422865e+00	 1.405509e+00	 1.203216e+01
 1.405509e+00	 1.422865e+00	 1.191995e+01
 1.387941e+00	 1.440007e+00	 1.179842e+01
 1.370167e+00	 1.456929e+00	 1.167021e+01
 1.344793e+00	 1.429949e+00	 1.164161e+01
 1.327149e+00	 1.446340e+00	 1.151471e+01
 1.309309e+00	 1.462509e+00	 1.138444e+01
 1.291279e+00	 1.478453e+00	 1.125693e+01
 1.273062e+00	 1.494168e+00	 1.112745e+01
 1.254663e+00	 1.509651e+00	 1.098358e+01
 1.349868e+00	 1.435345e+00	 1.164512e+01
 1.332157e+00	 1.451798e+00	 1.151693e+01
 1.314250e+00	 1.468028e+00	 1.138657e+01
 1.296151e+00	 1.484032e+00	 1.126034e+01
 1.277866e+00	 1.499806e+00	 1.112618e+01
 1.259397e+00	 1.515348e+00	 1.098030e+01
 1.354943e+00	 1.440741e+00	 1.165009e+01
 1.337165e+00	 1.457256e+00	 1.152076e+01
 1.319191e+00	 1.473547e+00	 1.139071e+01
 1.301024e+00	 1.489611e+00	 1.126360e+01
 1.282670e+00	 1.505445e+00	 1.112487e+01
 1.264132e+00	 1.521044e+00	 1.097755e+01
 1.360017e+00	 1.446137e+00	 1.165617e+01
 1.342173e+00	 1.462714e+00	 1.152584e+01
 1.324131e+00	 1.479066e+00	 1.139649e+01
 1.305897e+00	 1.495190e+00	 1.126577e+01
 1.287474e+00	 1.511083e+00	 1.112296e+01
 1.268866e+00	 1.526741e+00	 1.097469e+01
 1.365092e+00	 1.451533e+00	 1.166300e+01
 1.347181e+00	 1.468172e+00	 1.153180e+01
 1.329072e+00	 1.484585e+00	 1.140301e+01
 1.310770e+00	 1.500769e+00	 1.126638e+01
 1.292278e+00	 1.516721e+00	 1.111992e+01
 1.273601e+00	 1.532438e+00	 1.097110e+01
 1.370167e+00	 1.456929e+00	 1.167021e+01
 1.352189e+00	 1.473630e+00	 1.153828e+01
 1.334013e+00	 1.490104e+00	 1.140748e+01
 1.315642e+00	 1.506348e+00	 1.126496e+01
 1.297082e+00	 1.522360e+00	 1.111520e+01
 1.278335e+00	 1.538135e+00	 1.096617e+01
 1.254663e+00	 1.509651e+00	 1.098358e+01
 1.236086e+00	 1.524899e+00	 1.083731e+01
 1.217336e+00	 1.539908e+00	 1.069661e+01
 1.198417e+00	 1.554677e+00	 1.055990e+01
 1.179334e+00	 1.569202e+00	 1.042565e+01
 1.160092e+00	 1.583481e+00	 1.029245e+01
 1.259397e+00	 1.515348e+00	 1.098030e+01
 1.240750e+00	 1.530653e+00	 1.083437e+01
 1.221929e+00	 1.545719e+00	 1.069484e+01
 1.202939e+00	 1.560544e+00	 1.055967e+01
 1.183784e+00	 1.575124e+00	 1.042683e+01
 1.164469e+00	 1.589456e+00	 1.029438e+01
 1.264132e+00	 1.521044e+00	 1.097755e+01
 1.245415e+00	 1.536407e+00	 1.083231e+01
 1.226523e+00	 1.551530e+00	 1.069394e+01
 1.207461e+00	 1.566411e+00	 1.056008e+01
 1.188234e+00	 1.581045e+00	 1.042835e+01
 1.168847e+00	 1.595432e+00	 1.029642e+01
 1.268866e+00	 1.526741e+00	 1.097469e+01
 1.250079e+00	 1.542162e+00	 1.083041e+01
 1.231117e+00	 1.557341e+00	 1.069316e+01
 1.211984e+00	 1.572277e+00	 1.056039e+01
 1.192685e+00	 1.586967e+00	 1.042950e+01
 1.173225e+00	 1.601407e+00	 1.029796e+01
 1.273601e+00	 1.532438e+00	 1.097110e+01
 1.254744e+00	 1.547916e+00	 1.082797e+01
 1.235710e+00	 1.563152e+00	 1.069176e+01
 1.216506e+00	 1.578144e+00	 1.055986e+01
 1.197135e+00	 1.592888e+00	 1.042960e+01
 1.177602e+00	 1.607382e+00	 1.029837e+01
 1.278335e+00	 1.538135e+00	 1.096617e+01
 1.259408e+00	 1.553670e+00	 1.082432e+01
 1.240304e+00	 1.568963e+00	 1.068904e+01
 1.221028e+00	 1.584011e+00	 1.055780e+01
 1.201585e+00	 1.598810e+00	 1.042799e+01
 1.181980e+00	 1.613358e+00	 1.029706e+01
 1.160092e+00	 1.583481e+00	 1.029245e+01
 1.140695e+00	 1.597510e+00	 1.015616e+01
 1.121148e+00	 1.611289e+00	 1.001498e+01
 1.101456e+00	 1.624813e+00	 9.871827e+00
 1.081624e+00	 1.638082e+00	 9.729703e+00
 1.061658e+00	 1.651093e+00	 9.587685e+00
 1.164469e+00	 1.589456e+00	 1.029438e+01
 1.144999e+00	 1.603539e+00	 1.015827e+01
 1.125379e+00	 1.617369e+00	 1.001721e+01
 1.105613e+00	 1.630945e+00	 9.873946e+00
 1.085706e+00	 1.644263e+00	 9.732342e+00
 1.065664e+00	 1.657323e+00	 9.592261e+00
 1.168847e+00	 1.595432e+00	 1.029642e+01
 1.149304e+00	 1.609567e+00	 1.016057e+01
 1.129609e+00	 1.623449e+00	 1.001998e+01
 1.109769e+00	 1.637076e+00	 9.877212e+00
 1.089788e+00	 1.650445e+00	 9.736275e+00
 1.069670e+00	 1.663554e+00	 9.597987e+00
 1.173225e+00	 1.601407e+00	 1.029796e+01
 1.153608e+00	 1.615595e+00	 1.016250e+01
 1.133840e+00	 1.629530e+00	 1.002276e+01
 1.113926e+00	 1.643207e+00	 9.881042e+00
 1.093869e+00	 1.656626e+00	 9.740900e+00
 1.073676e+00	 1.669784e+00	 9.604153e+00
 1.177602e+00	 1.607382e+00	 1.029837e+01
 1.157913e+00	 1.621624e+00	 1.016349e+01
 1.138071e+00	 1.635610e+00	 1.002501e+01
 1.118082e+00	 1.649339e+00	 9.884760e+00
 1.097951e+00	 1.662808e+00	 9.745622e+00
 1.077683e+00	 1.676015e+00	 9.610059e+00
 1.181980e+00	 1.613358e+00	 1.029706e+01
 1.162217e+00	 1.627652e+00	 1.016304e+01
 1.142302e+00	 1.641690e+00	 1.002621e+01
 1.122238e+00	 1.655470e+00	 9.887804e+00
 1.102033e+00	 1.668989e+00	 9.749855e+00
 1.081689e+00	 1.682245e+00	 9.615013e+00
 1.061658e+00	 1.651093e+00	 9.587685e+00
 1.041561e+00	 1.663844e+00	 9.449800e+00
 1.021338e+00	 1.676333e+00	 9.315943e+00
 1.000996e+00	 1.688559e+00	 9.181404e+00
 9.805383e-01	 1.700520e+00	 9.042869e+00
 9.599707e-01	 1.712215e+00	 8.898167e+00
 1.065664e+00	 1.657323e+00	 9.592261e+00
 1.045491e+00	 1.670122e+00	 9.456693e+00
 1.025192e+00	 1.682659e+00	 9.324556e+00
 1.004773e+00	 1.694931e+00	 9.191271e+00
 9.842384e-01	 1.706937e+00	 9.053670e+00
 9.635932e-01	 1.718676e+00	 8.909734e+00
 1.069670e+00	 1.663554e+00	 9.597987e+00
 1.049421e+00	 1.676401e+00	 9.464184e+00
 1.029046e+00	 1.688984e+00	 9.333003e+00
 1.008550e+00	 1.701303e+00	 9.200275e+00
 9.879386e-01	 1.713354e+00	 9.063262e+00
 9.672158e-01	 1.725137e+00	 8.920393e+00
 1.073676e+00	 1.669784e+00	 9.604153e+00
 1.053352e+00	 1.682679e+00	 9.471476e+00
 1.032901e+00	 1.695310e+00	 9.340481e+00
 1.012328e+00	 1.707675e+00	 9.207680e+00
 9.916387e-01	 1.719771e+00	 9.071053e+00
 9.708383e-01	 1.731598e+00	 8.929768e+00
 1.077683e+00	 1.676015e+00	 9.610059e+00
 1.057282e+00	 1.688958e+00	 9.477781e+00
 1.036755e+00	 1.701636e+00	 9.346194e+00
 1.016105e+00	 1.714047e+00	 9.212761e+00
 9.953388e-01	 1.726188e+00	 9.076458e+00
 9.744608e-01	 1.738060e+00	 8.937482e+00
 1.081689e+00	 1.682245e+00	 9.615013e+00
 1.061213e+00	 1.695237e+00	 9.482322e+00
 1.040609e+00	 1.707962e+00	 9.349354e+00
 1.019883e+00	 1.720418e+00	 9.214794e+00
 9.990390e-01	 1.732605e+00	 9.078891e+00
 9.780834e-01	 1.744521e+00	 8.943162e+00
 9.599707e-01	 1.712215e+00	 8.898167e+00
 9.392982e-01	 1.723642e+00	 8.746944e+00
 9.185258e-01	 1.734801e+00	 8.591416e+00
 8.976587e-01	 1.745690e+00	 8.434315e+00
 8.767020e-01	 1.756308e+00	 8.278656e+00
 8.556608e-01	 1.766655e+00	 8.127542e+00
 9.635932e-01	 1.718676e+00	 8.909734e+00
 9.428427e-01	 1.730147e+00	 8.759483e+00
 9.219919e-01	 1.741347e+00	 8.605247e+00
 9.010461e-01	 1.752277e+00	 8.449507e+00
 8.800103e-01	 1.762935e+00	 8.295007e+00
 8.588897e-01	 1.773321e+00	 8.144554e+00
 9.672158e-01	 1.725137e+00	 8.920393e+00
 9.463872e-01	 1.736651e+00	 8.772155e+00
 9.254581e-01	 1.747894e+00	 8.620580e+00
 9.044335e-01	 1.758865e+00	 8.467424e+00
 8.833186e-01	 1.769563e+00	 8.314669e+00
 8.621186e-01	 1.779988e+00	 8.164319e+00
 9.708383e-01	 1.731598e+00	 8.929768e+00
 9.499317e-01	 1.743155e+00	 8.784766e+00
 9.289242e-01	 1.754440e+00	 8.637266e+00
 9.078209e-01	 1.765452e+00	 8.487834e+00
 8.866269e-01	 1.776191e+00	 8.337204e+00
 8.653475e-01	 1.786654e+00	 8.186076e+00
 9.744608e-01	 1.738060e+00	 8.937482e+00
 9.534763e-01	 1.749659e+00	 8.797117e+00
 9.323904e-01	 1.760987e+00	 8.655152e+00
 9.112083e-01	 1.772040e+00	 8.510501e+00
 8.899352e-01	 1.782818e+00	 8.362173e+00
 8.685764e-01	 1.793321e+00	 8.209067e+00
 9.780834e-01	 1.744521e+00	 8.943162e+00
 9.570208e-01	 1.756164e+00	 8.809006e+00
 9.358565e-01	 1.767533e+00	 8.674078e+00
 9.145957e-01	 1.778627e+00	 8.535185e+00
 8.932435e-01	 1.789446e+00	 8.389135e+00
 8.718053e-01	 1.799988e+00	 8.232537e+00
 8.556608e-01	 1.766655e+00	 8.127542e+00
 8.345401e-01	 1.776729e+00	 7.980843e+00
 8.133452e-01	 1.786531e+00	 7.836640e+00
 7.920811e-01	 1.796060e+00	 7.694978e+00
 7.707529e-01	 1.805315e+00	 7.555362e+00
 7.493657e-01	 1.814297e+00	 7.416661e+00
 8.588897e-01	 1.773321e+00	 8.144554e+00
 8.376893e-01	 1.783434e+00	 7.997700e+00
 8.164145e-01	 1.793273e+00	 7.852737e+00
 7.950701e-01	 1.802837e+00	 7.710169e+00
 7.736614e-01	 1.812128e+00	 7.569946e+00
 7.521935e-01	 1.821144e+00	 7.431366e+00
 8.621186e-01	 1.779988e+00	 8.164319e+00
 8.408386e-01	 1.790138e+00	 8.015491e+00
 8.194837e-01	 1.800014e+00	 7.867479e+00
 7.980591e-01	 1.809615e+00	 7.722114e+00
 7.765699e-01	 1.818940e+00	 7.580682e+00
 7.550213e-01	 1.827990e+00	 7.443809e+00
 8.653475e-01	 1.786654e+00	 8.186076e+00
 8.439878e-01	 1.796843e+00	 8.033183e+00
 8.225529e-01	 1.806756e+00	 7.879775e+00
 8.010481e-01	 1.816393e+00	 7.729866e+00
 7.794784e-01	 1.825753e+00	 7.586949e+00
 7.578491e-01	 1.834837e+00	 7.453885e+00
 8.685764e-01	 1.793321e+00	 8.209067e+00
 8.471370e-01	 1.803548e+00	 8.049753e+00
 8.256221e-01	 1.813498e+00	 7.888541e+00
 8.040371e-01	 1.823170e+00	 7.732476e+00
 7.823869e-01	 1.832565e+00	 7.588130e+00
 7.606769e-01	 1.841683e+00	 7.461476e+00
 8.718053e-01	 1.799988e+00	 8.232537e+00
 8.502862e-01	 1.810252e+00	 8.064179e+00
 8.286914e-01	 1.820239e+00	 7.892698e+00
 8.070261e-01	 1.829948e+00	 7.729005e+00
 7.852954e-01	 1.839378e+00	 7.583604e+00
 7.635047e-01	 1.848529e+00	 7.466460e+00
 7.493657e-01	 1.814297e+00	 7.416661e+00
 7.279244e-01	 1.823006e+00	 7.279675e+00
 7.064342e-01	 1.831440e+00	 7.148057e+00
 6.849000e-01	 1.839602e+00	 7.027231e+00
 6.633268e-01	 1.847490e+00	 6.919835e+00
 6.417196e-01	 1.855106e+00	 6.821976e+00
 7.521935e-01	 1.821144e+00	 7.431366e+00
 7.306713e-01	 1.829885e+00	 7.295626e+00
 7.091000e-01	 1.838352e+00	 7.166553e+00
 6.874846e-01	 1.846544e+00	 7.051319e+00
 6.658300e-01	 1.854462e+00	 6.952507e+00
 6.441411e-01	 1.862107e+00	 6.844996e+00
 7.550213e-01	 1.827990e+00	 7.443809e+00
 7.334182e-01	 1.836764e+00	 7.313769e+00
 7.117658e-01	 1.845263e+00	 7.193982e+00
 6.900691e-01	 1.853486e+00	 7.091296e+00
 6.683331e-01	 1.861434e+00	 6.985801e+00
 6.465627e-01	 1.869107e+00	 6.868395e+00
 7.578491e-01	 1.834837e+00	 7.453885e+00
 7.361651e-01	 1.843643e+00	 7.334432e+00
 7.144316e-01	 1.852174e+00	 7.230872e+00
 6.926536e-01	 1.860428e+00	 7.128536e+00
 6.708362e-01	 1.868405e+00	 7.014580e+00
 6.489843e-01	 1.876108e+00	 6.892388e+00
 7.606769e-01	 1.841683e+00	 7.461476e+00
 7.389120e-01	 1.850523e+00	 7.357933e+00
 7.170974e-01	 1.859085e+00	 7.263116e+00
 6.952382e-01	 1.867370e+00	 7.155605e+00
 6.733393e-01	 1.875377e+00	 7.039490e+00
 6.514059e-01	 1.883108e+00	 6.917192e+00
 7.635047e-01	 1.848529e+00	 7.466460e+00
 7.416589e-01	 1.857402e+00	 7.376297e+00
 7.197632e-01	 1.865996e+00	 7.279280e+00
 6.978227e-01	 1.874311e+00	 7.173380e+00
 6.758424e-01	 1.882349e+00	 7.061177e+00
 6.538275e-01	 1.890108e+00	 6.943027e+00
 6.417196e-01	 1.855106e+00	 6.821976e+00
 6.200831e-01	 1.862450e+00	 6.704621e+00
 5.984223e-01	 1.869522e+00	 6.568093e+00
 5.767420e-01	 1.876324e+00	 6.421823e+00
 5.550469e-01	 1.882856e+00	 6.274269e+00
 5.333417e-01	 1.889119e+00	 6.133112e+00
 6.441411e-01	 1.862107e+00	 6.844996e+00
 6.224230e-01	 1.869478e+00	 6.720649e+00
 6.006805e-01	 1.876577e+00	 6.584363e+00
 5.789183e-01	 1.883405e+00	 6.442944e+00
 5.571414e-01	 1.889961e+00	 6.302196e+00
 5.353543e-01	 1.896248e+00	 6.167114e+00
 6.465627e-01	 1.869107e+00	 6.868395e+00
 6.247630e-01	 1.876506e+00	 6.740287e+00
 6.029387e-01	 1.883632e+00	 6.605259e+00
 5.810947e-01	 1.890485e+00	 6.468146e+00
 5.592359e-01	 1.897066e+00	 6.332758e+00
 5.373670e-01	 1.903376e+00	 6.202086e+00
 6.489843e-01	 1.876108e+00	 6.892388e+00
 6.271029e-01	 1.883534e+00	 6.763298e+00
 6.051969e-01	 1.890687e+00	 6.630256e+00
 5.832711e-01	 1.897566e+00	 6.496764e+00
 5.613304e-01	 1.904171e+00	 6.365298e+00
 5.393796e-01	 1.910505e+00	 6.237511e+00
 6.514059e-01	 1.883108e+00	 6.917192e+00
 6.294428e-01	 1.890563e+00	 6.789458e+00
 6.074551e-01	 1.897742e+00	 6.658842e+00
 5.854475e-01	 1.904646e+00	 6.528151e+00
 5.634249e-01	 1.911276e+00	 6.399172e+00
 5.413922e-01	 1.917634e+00	 6.272885e+00
 6.538275e-01	 1.890108e+00	 6.943027e+00
 6.317828e-01	 1.897591e+00	 6.818548e+00
 6.097133e-01	 1.904797e+00	 6.690518e+00
 5.876239e-01	 1.911726e+00	 6.561671e+00
 5.655194e-01	 1.918382e+00	 6.433749e+00
 5.434048e-01	 1.924763e+00	 6.307715e+00
 5.333417e-01	 1.889119e+00	 6.133112e+00
 5.116312e-01	 1.895114e+00	 6.003672e+00
 4.899200e-01	 1.900842e+00	 5.883581e+00
 4.682125e-01	 1.906305e+00	 5.768367e+00
 4.465133e-01	 1.911504e+00	 5.653485e+00
 4.248269e-01	 1.916441e+00	 5.534457e+00
 5.353543e-01	 1.896248e+00	 6.167114e+00
 5.135619e-01	 1.902265e+00	 6.040756e+00
 4.917687e-01	 1.908015e+00	 5.920962e+00
 4.699794e-01	 1.913499e+00	 5.804265e+00
 4.481983e-01	 1.918718e+00	 5.687129e+00
 4.264300e-01	 1.923673e+00	 5.566087e+00
 5.373670e-01	 1.903376e+00	 6.202086e+00
 5.154926e-01	 1.909417e+00	 6.077660e+00
 4.936175e-01	 1.915188e+00	 5.957684e+00
 4.717462e-01	 1.920693e+00	 5.839510e+00
 4.498833e-01	 1.925931e+00	 5.720414e+00
 4.280332e-01	 1.930905e+00	 5.597736e+00
 5.393796e-01	 1.910505e+00	 6.237511e+00
 5.174233e-01	 1.916568e+00	 6.114028e+00
 4.954662e-01	 1.922361e+00	 5.993464e+00
 4.735130e-01	 1.927886e+00	 5.873806e+00
 4.515682e-01	 1.933144e+00	 5.752949e+00
 4.296363e-01	 1.938136e+00	 5.628834e+00
 5.413922e-01	 1.917634e+00	 6.272885e+00
 5.193540e-01	 1.923719e+00	 6.149515e+00
 4.973150e-01	 1.929534e+00	 6.028030e+00
 4.752799e-01	 1.935080e+00	 5.906866e+00
 4.532532e-01	 1.940357e+00	 5.784349e+00
 4.312394e-01	 1.945368e+00	 5.658820e+00
 5.434048e-01	 1.924763e+00	 6.307715e+00
 5.212847e-01	 1.930871e+00	 6.183784e+00
 4.991637e-01	 1.936707e+00	 6.061112e+00
 4.770467e-01	 1.942274e+00	 5.938408e+00
 4.549381e-01	 1.947571e+00	 5.814235e+00
 4.328425e-01	 1.952600e+00	 5.687141e+00
 4.248269e-01	 1.916441e+00	 5.534457e+00
 4.031576e-01	 1.921116e+00	 5.408173e+00
 3.815097e-01	 1.925532e+00	 5.285441e+00
 3.598875e-01	 1.929690e+00	 5.181824e+00
 3.382951e-01	 1.933593e+00	 5.097033e+00
 3.167367e-01	 1.937241e+00	 5.023651e+00
 4.264300e-01	 1.923673e+00	 5.566087e+00
 4.046790e-01	 1.928366e+00	 5.439091e+00
 3.829494e-01	 1.932798e+00	 5.316336e+00
 3.612456e-01	 1.936972e+00	 5.212281e+00
 3.395717e-01	 1.940889e+00	 5.127439e+00
 3.179320e-01	 1.944551e+00	 5.054270e+00
 4.280332e-01	 1.930905e+00	 5.597736e+00
 4.062003e-01	 1.935615e+00	 5.470241e+00
 3.843890e-01	 1.940064e+00	 5.347493e+00
 3.626036e-01	 1.944254e+00	 5.242877e+00
 3.408483e-01	 1.948186e+00	 5.157699e+00
 3.191272e-01	 1.951861e+00	 5.084479e+00
 4.296363e-01	 1.938136e+00	 5.628834e+00
 4.077217e-01	 1.942865e+00	 5.500876e+00
 3.858287e-01	 1.947331e+00	 5.378074e+00
 3.639617e-01	 1.951536e+00	 5.272783e+00
 3.421249e-01	 1.955482e+00	 5.187081e+00
 3.203224e-01	 1.959172e+00	 5.113729e+00
 4.312394e-01	 1.945368e+00	 5.658820e+00
 4.092430e-01	 1.950114e+00	 5.530262e+00
 3.872684e-01	 1.954597e+00	 5.407250e+00
 3.653198e-01	 1.958818e+00	 5.301181e+00
 3.434015e-01	 1.962779e+00	 5.214862e+00
 3.215177e-01	 1.966482e+00	 5.141473e+00
 4.328425e-01	 1.952600e+00	 5.687141e+00
 4.107643e-01	 1.957364e+00	 5.557676e+00
 3.887080e-01	 1.961863e+00	 5.434209e+00
 3.666778e-01	 1.966100e+00	 5.327260e+00
 3.446781e-01	 1.970075e+00	 5.240325e+00
 3.227129e-01	 1.973792e+00	 5.167167e+00
 3.167367e-01	 1.937241e+00	 5.023651e+00
 2.952163e-01	 1.940637e+00	 4.958124e+00
 2.737379e-01	 1.943783e+00	 4.898295e+00
 2.523052e-01	 1.946681e+00	 4.843674e+00
 2.309223e-01	 1.949333e+00	 4.795791e+00
 2.095928e-01	 1.951741e+00	 4.757703e+00
 3.179320e-01	 1.944551e+00	 5.054270e+00
 2.963303e-01	 1.947960e+00	 4.989042e+00
 2.747708e-01	 1.951118e+00	 4.929666e+00
 2.532573e-01	 1.954027e+00	 4.875727e+00
 2.317937e-01	 1.956689e+00	 4.828812e+00
 2.103837e-01	 1.959106e+00	 4.792027e+00
 3.191272e-01	 1.951861e+00	 5.084479e+00
 2.974444e-01	 1.955283e+00	 5.019441e+00
 2.758038e-01	 1.958453e+00	 4.960527e+00
 2.542094e-01	 1.961373e+00	 4.907298e+00
 2.326651e-01	 1.964045e+00	 4.861288e+00
 2.111746e-01	 1.966472e+00	 4.825527e+00
 3.203224e-01	 1.959172e+00	 5.113729e+00
 2.985584e-01	 1.962606e+00	 5.048950e+00
 2.768368e-01	 1.965788e+00	 4.990605e+00
 2.551615e-01	 1.968719e+00	 4.938130e+00
 2.335365e-01	 1.971401e+00	 4.892896e+00
 2.119655e-01	 1.973837e+00	 4.857735e+00
 3.215177e-01	 1.966482e+00	 5.141473e+00
 2.996724e-01	 1.969929e+00	 5.077198e+00
 2.778697e-01	 1.973123e+00	 5.019624e+00
 2.561136e-01	 1.976065e+00	 4.967962e+00
 2.344079e-01	 1.978757e+00	 4.923312e+00
 2.127564e-01	 1.981202e+00	 4.888185e+00
 3.227129e-01	 1.973792e+00	 5.167167e+00
 3.007864e-01	 1.977253e+00	 5.103814e+00
 2.789027e-01	 1.980458e+00	 5.047305e+00
 2.570657e-01	 1.983411e+00	 4.996534e+00
 2.352793e-01	 1.986113e+00	 4.952213e+00
 2.135473e-01	 1.988567e+00	 4.916414e+00
 2.095928e-01	 1.951741e+00	 4.757703e+00
 1.883203e-01	 1.953909e+00	 4.732491e+00
 1.671084e-01	 1.955837e+00	 4.717100e+00
 1.459607e-01	 1.957529e+00	 4.706452e+00
 1.248806e-01	 1.958987e+00	 4.695478e+00
 1.038714e-01	 1.960213e+00	 4.678797e+00
 2.103837e-01	 1.959106e+00	 4.792027e+00
 1.890309e-01	 1.961282e+00	 4.768092e+00
 1.677390e-01	 1.963218e+00	 4.753731e+00
 1.465115e-01	 1.964916e+00	 4.744124e+00
 1.253519e-01	 1.966379e+00	 4.734456e+00
 1.042634e-01	 1.967610e+00	 4.719616e+00
 2.111746e-01	 1.966472e+00	 4.825527e+00
 1.897416e-01	 1.968655e+00	 4.802334e+00
 1.683696e-01	 1.970598e+00	 4.788418e+00
 1.470623e-01	 1.972303e+00	 4.779451e+00
 1.258231e-01	 1.973771e+00	 4.771132e+00
 1.046553e-01	 1.975007e+00	 4.758888e+00
 2.119655e-01	 1.973837e+00	 4.857735e+00
 1.904522e-01	 1.976028e+00	 4.834649e+00
 1.690002e-01	 1.977979e+00	 4.820645e+00
 1.476131e-01	 1.979690e+00	 4.812128e+00
 1.262944e-01	 1.981164e+00	 4.805563e+00
 1.050473e-01	 1.982404e+00	 4.797176e+00
 2.127564e-01	 1.981202e+00	 4.888185e+00
 1.911629e-01	 1.983402e+00	 4.864467e+00
 1.696308e-01	 1.985359e+00	 4.849901e+00
 1.481639e-01	 1.987076e+00	 4.841854e+00
 1.267656e-01	 1.988556e+00	 4.837801e+00
 1.054393e-01	 1.989801e+00	 4.835033e+00
 2.135473e-01	 1.988567e+00	 4.916414e+00
 1.918735e-01	 1.990775e+00	 4.891227e+00
 1.702614e-01	 1.992740e+00	 4.875678e+00
 1.487147e-01	 1.994463e+00	 4.868325e+00
 1.272369e-01	 1.995949e+00	 4.867895e+00
 1.058312e-01	 1.997198e+00	 4.873000e+00
 1.038714e-01	 1.960213e+00	 4.678797e+00
 8.293632e-02	 1.961210e+00	 4.655899e+00
 6.207860e-02	 1.961981e+00	 4.628984e+00
 4.130131e-02	 1.962528e+00	 4.595449e+00
 2.060747e-02	 1.962855e+00	 4.551306e+00
-5.234894e-08	 1.962966e+00	 4.490550e+00
 1.042634e-01	 1.967610e+00	 4.719616e+00
 8.324929e-02	 1.968611e+00	 4.699198e+00
 6.231286e-02	 1.969385e+00	 4.673510e+00
 4.145716e-02	 1.969934e+00	 4.637259e+00
 2.068523e-02	 1.970262e+00	 4.583817e+00
-4.522767e-08	 1.970373e+00	 4.504665e+00
 1.046553e-01	 1.975007e+00	 4.758888e+00
 8.356226e-02	 1.976012e+00	 4.742255e+00
 6.254712e-02	 1.976789e+00	 4.718947e+00
 4.161302e-02	 1.977340e+00	 4.680418e+00
 2.076300e-02	 1.977669e+00	 4.616799e+00
-3.718271e-08	 1.977780e+00	 4.516413e+00
 1.050473e-01	 1.982404e+00	 4.797176e+00
 8.387522e-02	 1.983413e+00	 4.785973e+00
 6.278138e-02	 1.984192e+00	 4.766064e+00
 4.176887e-02	 1.984746e+00	 4.725101e+00
 2.084076e-02	 1.985076e+00	 4.649375e+00
-2.746349e-08	 1.985187e+00	 4.523415e+00
 1.054393e-01	 1.989801e+00	 4.835033e+00
 8.418819e-02	 1.990813e+00	 4.831238e+00
 6.301563e-02	 1.991596e+00	 4.815620e+00
 4.192473e-02	 1.992151e+00	 4.771480e+00
 2.091852e-02	 1.992483e+00	 4.680683e+00
-1.531944e-08	 1.992594e+00	 4.523331e+00
 1.058312e-01	 1.997198e+00	 4.873000e+00
 8.450116e-02	 1.998214e+00	 4.878925e+00
 6.324989e-02	 1.999000e+00	 4.868363e+00
 4.208058e-02	 1.999557e+00	 4.819728e+00
 2.099629e-02	 1.999890e+00	 4.709872e+00
-1.032072e-315	 2.000001e+00	 4.513855e+00
