x	y	stress_yy
 1.000000e+00	 0.000000e+00	 2.340392e+01
 9.991702e-01	 4.073018e-02	 2.332524e+01
 9.966283e-01	 8.204920e-02	 2.305246e+01
 9.922996e-01	 1.238611e-01	 2.258563e+01
 9.861155e-01	 1.660610e-01	 2.193126e+01
 9.780149e-01	 2.085352e-01	 2.110288e+01
 1.028571e+00	 0.000000e+00	 2.199213e+01
 1.027718e+00	 4.189390e-02	 2.192533e+01
 1.025103e+00	 8.439347e-02	 2.168913e+01
 1.020651e+00	 1.274000e-01	 2.128471e+01
 1.014290e+00	 1.708056e-01	 2.071893e+01
 1.005958e+00	 2.144933e-01	 2.000474e+01
 1.057143e+00	 0.000000e+00	 2.077790e+01
 1.056266e+00	 4.305762e-02	 2.072209e+01
 1.053578e+00	 8.673773e-02	 2.051804e+01
 1.049002e+00	 1.309389e-01	 2.016810e+01
 1.042465e+00	 1.755502e-01	 1.967957e+01
 1.033901e+00	 2.204515e-01	 1.906500e+01
 1.085714e+00	 0.000000e+00	 1.972439e+01
 1.084813e+00	 4.422134e-02	 1.967864e+01
 1.082054e+00	 8.908199e-02	 1.950270e+01
 1.077354e+00	 1.344778e-01	 1.920009e+01
 1.070640e+00	 1.802948e-01	 1.877860e+01
 1.061845e+00	 2.264096e-01	 1.825056e+01
 1.114286e+00	 0.000000e+00	 1.879839e+01
 1.113361e+00	 4.538506e-02	 1.876182e+01
 1.110529e+00	 9.142625e-02	 1.861032e+01
 1.105705e+00	 1.380167e-01	 1.834856e+01
 1.098814e+00	 1.850394e-01	 1.798495e+01
 1.089788e+00	 2.323678e-01	 1.753171e+01
 1.142857e+00	 0.000000e+00	 1.796988e+01
 1.141909e+00	 4.654878e-02	 1.794165e+01
 1.139004e+00	 9.377052e-02	 1.781126e+01
 1.134057e+00	 1.415556e-01	 1.758457e+01
 1.126989e+00	 1.897840e-01	 1.727062e+01
 1.117731e+00	 2.383259e-01	 1.688169e+01
 9.780149e-01	 2.085352e-01	 2.110288e+01
 9.679451e-01	 2.511619e-01	 2.010319e+01
 9.558632e-01	 2.938119e-01	 1.893478e+01
 9.417372e-01	 3.363497e-01	 1.762092e+01
 9.255464e-01	 3.786342e-01	 1.619078e+01
 9.072832e-01	 4.205201e-01	 1.467931e+01
 1.005958e+00	 2.144933e-01	 2.000474e+01
 9.956007e-01	 2.583379e-01	 1.914111e+01
 9.831736e-01	 3.022066e-01	 1.812705e+01
 9.686439e-01	 3.459597e-01	 1.698400e+01
 9.519906e-01	 3.894523e-01	 1.573826e+01
 9.332056e-01	 4.325350e-01	 1.442082e+01
 1.033901e+00	 2.204515e-01	 1.906500e+01
 1.023256e+00	 2.655140e-01	 1.831988e+01
 1.010484e+00	 3.106012e-01	 1.743986e+01
 9.955507e-01	 3.555697e-01	 1.644480e+01
 9.784348e-01	 4.002704e-01	 1.535846e+01
 9.591280e-01	 4.445498e-01	 1.420837e+01
 1.061845e+00	 2.264096e-01	 1.825056e+01
 1.050912e+00	 2.726900e-01	 1.760829e+01
 1.037794e+00	 3.189958e-01	 1.684432e+01
 1.022457e+00	 3.651797e-01	 1.597712e+01
 1.004879e+00	 4.110886e-01	 1.502832e+01
 9.850504e-01	 4.565647e-01	 1.402239e+01
 1.089788e+00	 2.323678e-01	 1.753171e+01
 1.078567e+00	 2.798661e-01	 1.697832e+01
 1.065105e+00	 3.273904e-01	 1.631448e+01
 1.049364e+00	 3.747897e-01	 1.555751e+01
 1.031323e+00	 4.219067e-01	 1.472717e+01
 1.010973e+00	 4.685796e-01	 1.384537e+01
 1.117731e+00	 2.383259e-01	 1.688169e+01
 1.106223e+00	 2.870421e-01	 1.640479e+01
 1.092415e+00	 3.357851e-01	 1.582705e+01
 1.076271e+00	 3.843997e-01	 1.516489e+01
 1.057767e+00	 4.327248e-01	 1.443649e+01
 1.036895e+00	 4.805944e-01	 1.366163e+01
 9.072832e-01	 4.205201e-01	 1.467931e+01
 8.869531e-01	 4.618595e-01	 1.311791e+01
 8.645755e-01	 5.025030e-01	 1.153229e+01
 8.401838e-01	 5.423017e-01	 9.953408e+00
 8.138260e-01	 5.811086e-01	 8.412489e+00
 7.855640e-01	 6.187804e-01	 6.940572e+00
 9.332056e-01	 4.325350e-01	 1.442082e+01
 9.122946e-01	 4.750555e-01	 1.305336e+01
 8.892776e-01	 5.168602e-01	 1.165324e+01
 8.641891e-01	 5.577960e-01	 1.024853e+01
 8.370782e-01	 5.977117e-01	 8.867346e+00
 8.080087e-01	 6.364599e-01	 7.537469e+00
 9.591280e-01	 4.445498e-01	 1.420837e+01
 9.376362e-01	 4.882514e-01	 1.300803e+01
 9.139798e-01	 5.312174e-01	 1.176775e+01
 8.881944e-01	 5.732903e-01	 1.051300e+01
 8.603304e-01	 6.143148e-01	 9.269095e+00
 8.304534e-01	 6.541393e-01	 8.060858e+00
 9.850504e-01	 4.565647e-01	 1.402239e+01
 9.629777e-01	 5.014474e-01	 1.296603e+01
 9.386819e-01	 5.455747e-01	 1.186368e+01
 9.121996e-01	 5.887847e-01	 1.073845e+01
 8.835826e-01	 6.309179e-01	 9.613157e+00
 8.528980e-01	 6.718187e-01	 8.509981e+00
 1.010973e+00	 4.685796e-01	 1.384537e+01
 9.883192e-01	 5.146434e-01	 1.291318e+01
 9.633841e-01	 5.599319e-01	 1.193019e+01
 9.362049e-01	 6.042790e-01	 1.091745e+01
 9.068347e-01	 6.475210e-01	 9.895515e+00
 8.753427e-01	 6.894982e-01	 8.884250e+00
 1.036895e+00	 4.805944e-01	 1.366163e+01
 1.013661e+00	 5.278394e-01	 1.283679e+01
 9.880863e-01	 5.742891e-01	 1.195765e+01
 9.602101e-01	 6.197733e-01	 1.104339e+01
 9.300869e-01	 6.641241e-01	 1.011265e+01
 8.977874e-01	 7.071776e-01	 9.183239e+00
 7.855640e-01	 6.187804e-01	 6.940572e+00
 7.554734e-01	 6.551793e-01	 5.574545e+00
 7.236431e-01	 6.901743e-01	 4.340697e+00
 6.901743e-01	 7.236431e-01	 3.249437e+00
 6.551793e-01	 7.554734e-01	 2.305509e+00
 6.187804e-01	 7.855640e-01	 1.508249e+00
 8.080087e-01	 6.364599e-01	 7.537469e+00
 7.770584e-01	 6.738987e-01	 6.286893e+00
 7.443187e-01	 7.098936e-01	 5.135591e+00
 7.098936e-01	 7.443187e-01	 4.095231e+00
 6.738987e-01	 7.770584e-01	 3.172781e+00
 6.364599e-01	 8.080087e-01	 2.370679e+00
 8.304534e-01	 6.541393e-01	 8.060858e+00
 7.986433e-01	 6.926181e-01	 6.909157e+00
 7.649942e-01	 7.296129e-01	 5.828976e+00
 7.296129e-01	 7.649942e-01	 4.832823e+00
 6.926181e-01	 7.986433e-01	 3.929331e+00
 6.541393e-01	 8.304534e-01	 3.123371e+00
 8.528980e-01	 6.718187e-01	 8.509981e+00
 8.202283e-01	 7.113375e-01	 7.444128e+00
 7.856697e-01	 7.493321e-01	 6.426670e+00
 7.493321e-01	 7.856697e-01	 5.470573e+00
 7.113375e-01	 8.202283e-01	 4.585634e+00
 6.718187e-01	 8.528980e-01	 3.778540e+00
 8.753427e-01	 6.894982e-01	 8.884250e+00
 8.418132e-01	 7.300569e-01	 7.894407e+00
 8.063452e-01	 7.690514e-01	 6.933989e+00
 7.690514e-01	 8.063452e-01	 6.016080e+00
 7.300569e-01	 8.418132e-01	 5.151180e+00
 6.894982e-01	 8.753427e-01	 4.347231e+00
 8.977874e-01	 7.071776e-01	 9.183239e+00
 8.633982e-01	 7.487763e-01	 8.262440e+00
 8.270207e-01	 7.887707e-01	 7.355821e+00
 7.887707e-01	 8.270207e-01	 6.476284e+00
 7.487763e-01	 8.633982e-01	 5.634610e+00
 7.071776e-01	 8.977874e-01	 4.839482e+00
 6.187804e-01	 7.855640e-01	 1.508249e+00
 5.811086e-01	 8.138260e-01	 8.604847e-01
 5.423017e-01	 8.401838e-01	 3.631946e-01
 5.025030e-01	 8.645755e-01	 4.476789e-03
 4.618595e-01	 8.869531e-01	-2.331905e-01
 4.205201e-01	 9.072832e-01	-3.721615e-01
 6.364599e-01	 8.080087e-01	 2.370679e+00
 5.977117e-01	 8.370782e-01	 1.692455e+00
 5.577960e-01	 8.641891e-01	 1.139906e+00
 5.168602e-01	 8.892776e-01	 7.057535e-01
 4.750555e-01	 9.122946e-01	 3.779543e-01
 4.325350e-01	 9.332056e-01	 1.402981e-01
 6.541393e-01	 8.304534e-01	 3.123371e+00
 6.143148e-01	 8.603304e-01	 2.419201e+00
 5.732903e-01	 8.881944e-01	 1.819512e+00
 5.312174e-01	 9.139798e-01	 1.320895e+00
 4.882514e-01	 9.376362e-01	 9.159334e-01
 4.445498e-01	 9.591280e-01	 5.936406e-01
 6.718187e-01	 8.528980e-01	 3.778540e+00
 6.309179e-01	 8.835826e-01	 3.054249e+00
 5.887847e-01	 9.121996e-01	 2.416370e+00
 5.455747e-01	 9.386819e-01	 1.864665e+00
 5.014474e-01	 9.629777e-01	 1.395564e+00
 4.565647e-01	 9.850504e-01	 1.002458e+00
 6.894982e-01	 8.753427e-01	 4.347231e+00
 6.475210e-01	 9.068347e-01	 3.609819e+00
 6.042790e-01	 9.362049e-01	 2.943434e+00
 5.599319e-01	 9.633841e-01	 2.350370e+00
 5.146434e-01	 9.883192e-01	 1.830187e+00
 4.685796e-01	 1.010973e+00	 1.379875e+00
 7.071776e-01	 8.977874e-01	 4.839482e+00
 6.641241e-01	 9.300869e-01	 4.096993e+00
 6.197733e-01	 9.602101e-01	 3.412436e+00
 5.742891e-01	 9.880863e-01	 2.790050e+00
 5.278394e-01	 1.013661e+00	 2.231861e+00
 4.805944e-01	 1.036895e+00	 1.737736e+00
 4.205201e-01	 9.072832e-01	-3.721615e-01
 3.786342e-01	 9.255464e-01	-4.384673e-01
 3.363497e-01	 9.417372e-01	-4.474459e-01
 2.938119e-01	 9.558632e-01	-4.106887e-01
 2.511619e-01	 9.679451e-01	-3.423185e-01
 2.085352e-01	 9.780149e-01	-2.584956e-01
 4.325350e-01	 9.332056e-01	 1.402981e-01
 3.894523e-01	 9.519906e-01	-2.691049e-02
 3.459597e-01	 9.686439e-01	-1.352024e-01
 3.022066e-01	 9.831736e-01	-1.932640e-01
 2.583379e-01	 9.956007e-01	-2.121611e-01
 2.144933e-01	 1.005958e+00	-2.049469e-01
 4.445498e-01	 9.591280e-01	 5.936406e-01
 4.002704e-01	 9.784348e-01	 3.397564e-01
 3.555697e-01	 9.955507e-01	 1.460332e-01
 3.106012e-01	 1.010484e+00	 6.269352e-03
 2.655140e-01	 1.023256e+00	-8.798991e-02
 2.204515e-01	 1.033901e+00	-1.471528e-01
 4.565647e-01	 9.850504e-01	 1.002458e+00
 4.110886e-01	 1.004879e+00	 6.756856e-01
 3.651797e-01	 1.022457e+00	 4.097930e-01
 3.189958e-01	 1.037794e+00	 2.006806e-01
 2.726900e-01	 1.050912e+00	 4.209759e-02
 2.264096e-01	 1.061845e+00	-7.414073e-02
 4.685796e-01	 1.010973e+00	 1.379875e+00
 4.219067e-01	 1.031323e+00	 9.935903e-01
 3.747897e-01	 1.049364e+00	 6.682184e-01
 3.273904e-01	 1.065105e+00	 4.014114e-01
 2.798661e-01	 1.078567e+00	 1.887523e-01
 2.323678e-01	 1.089788e+00	 2.389498e-02
 4.805944e-01	 1.036895e+00	 1.737736e+00
 4.327248e-01	 1.057767e+00	 1.304932e+00
 3.843997e-01	 1.076271e+00	 9.322399e-01
 3.357851e-01	 1.092415e+00	 6.187476e-01
 2.870421e-01	 1.106223e+00	 3.615344e-01
 2.383259e-01	 1.117731e+00	 1.557426e-01
 2.085352e-01	 9.780149e-01	-2.584956e-01
 1.660610e-01	 9.861155e-01	-1.812141e-01
 1.238611e-01	 9.922996e-01	-1.198030e-01
 8.204920e-02	 9.966283e-01	-7.304572e-02
 4.073018e-02	 9.991702e-01	-4.021037e-02
 0.000000e+00	 1.000000e+00	-2.095036e-02
 2.144933e-01	 1.005958e+00	-2.049469e-01
 1.708056e-01	 1.014290e+00	-1.894355e-01
 1.274000e-01	 1.020651e+00	-1.740078e-01
 8.439347e-02	 1.025103e+00	-1.594003e-01
 4.189390e-02	 1.027718e+00	-1.470303e-01
 0.000000e+00	 1.028571e+00	-1.388226e-01
 2.204515e-01	 1.033901e+00	-1.471528e-01
 1.755502e-01	 1.042465e+00	-1.858002e-01
 1.309389e-01	 1.049002e+00	-2.113983e-01
 8.673773e-02	 1.053578e+00	-2.257366e-01
 4.305762e-02	 1.056266e+00	-2.315067e-01
 0.000000e+00	 1.057143e+00	-2.320769e-01
 2.264096e-01	 1.061845e+00	-7.414073e-02
 1.802948e-01	 1.070640e+00	-1.601252e-01
 1.344778e-01	 1.077354e+00	-2.223099e-01
 8.908199e-02	 1.082054e+00	-2.627091e-01
 4.422134e-02	 1.084813e+00	-2.844852e-01
 0.000000e+00	 1.085715e+00	-2.916921e-01
 2.323678e-01	 1.089788e+00	 2.389498e-02
 1.850394e-01	 1.098814e+00	-1.033199e-01
 1.380167e-01	 1.105705e+00	-1.981201e-01
 9.142625e-02	 1.110529e+00	-2.619799e-01
 4.538506e-02	 1.113361e+00	-2.977927e-01
 0.000000e+00	 1.114286e+00	-3.096017e-01
 2.383259e-01	 1.117731e+00	 1.557426e-01
 1.897840e-01	 1.126989e+00	-7.247729e-03
 1.415556e-01	 1.134057e+00	-1.311173e-01
 9.377052e-02	 1.139004e+00	-2.160924e-01
 4.654878e-02	 1.141909e+00	-2.641138e-01
 0.000000e+00	 1.142858e+00	-2.785750e-01
 1.142857e+00	 0.000000e+00	 1.796988e+01
 1.141909e+00	 4.654878e-02	 1.794165e+01
 1.139004e+00	 9.377052e-02	 1.781126e+01
 1.134057e+00	 1.415556e-01	 1.758457e+01
 1.126989e+00	 1.897840e-01	 1.727062e+01
 1.117731e+00	 2.383259e-01	 1.688169e+01
 1.171429e+00	 0.000000e+00	 1.723240e+01
 1.170456e+00	 4.771250e-02	 1.721184e+01
 1.167479e+00	 9.611478e-02	 1.709993e+01
 1.162408e+00	 1.450945e-01	 1.690367e+01
 1.155164e+00	 1.945286e-01	 1.663276e+01
 1.145675e+00	 2.442841e-01	 1.629963e+01
 1.200000e+00	 0.000000e+00	 1.658708e+01
 1.199004e+00	 4.887622e-02	 1.657359e+01
 1.195954e+00	 9.845904e-02	 1.647805e+01
 1.190759e+00	 1.486334e-01	 1.630854e+01
 1.183339e+00	 1.992732e-01	 1.607540e+01
 1.173618e+00	 2.502422e-01	 1.579123e+01
 1.228571e+00	 0.000000e+00	 1.601852e+01
 1.227552e+00	 5.003994e-02	 1.601140e+01
 1.224429e+00	 1.008033e-01	 1.593022e+01
 1.219111e+00	 1.521723e-01	 1.578408e+01
 1.211513e+00	 2.040178e-01	 1.558396e+01
 1.201561e+00	 2.562004e-01	 1.534261e+01
 1.257143e+00	 0.000000e+00	 1.551258e+01
 1.256100e+00	 5.120366e-02	 1.551107e+01
 1.252904e+00	 1.031476e-01	 1.544239e+01
 1.247462e+00	 1.557111e-01	 1.531657e+01
 1.239688e+00	 2.087624e-01	 1.514517e+01
 1.229504e+00	 2.621585e-01	 1.494117e+01
 1.285714e+00	 0.000000e+00	 1.505624e+01
 1.284647e+00	 5.236738e-02	 1.505959e+01
 1.281379e+00	 1.054918e-01	 1.500170e+01
 1.275814e+00	 1.592500e-01	 1.489344e+01
 1.267863e+00	 2.135070e-01	 1.474696e+01
 1.257448e+00	 2.681167e-01	 1.457544e+01
 1.117731e+00	 2.383259e-01	 1.688169e+01
 1.106223e+00	 2.870421e-01	 1.640479e+01
 1.092415e+00	 3.357851e-01	 1.582705e+01
 1.076271e+00	 3.843997e-01	 1.516489e+01
 1.057767e+00	 4.327248e-01	 1.443649e+01
 1.036895e+00	 4.805944e-01	 1.366163e+01
 1.145675e+00	 2.442841e-01	 1.629963e+01
 1.133879e+00	 2.942182e-01	 1.588911e+01
 1.119726e+00	 3.441797e-01	 1.538609e+01
 1.103178e+00	 3.940097e-01	 1.480618e+01
 1.084212e+00	 4.435429e-01	 1.416626e+01
 1.062817e+00	 4.926093e-01	 1.348423e+01
 1.173618e+00	 2.502422e-01	 1.579123e+01
 1.161534e+00	 3.013942e-01	 1.543894e+01
 1.147036e+00	 3.525743e-01	 1.500139e+01
 1.130085e+00	 4.036197e-01	 1.449349e+01
 1.110656e+00	 4.543610e-01	 1.393096e+01
 1.088740e+00	 5.046241e-01	 1.333003e+01
 1.201561e+00	 2.562004e-01	 1.534261e+01
 1.189190e+00	 3.085703e-01	 1.504125e+01
 1.174346e+00	 3.609690e-01	 1.466094e+01
 1.156991e+00	 4.132297e-01	 1.421598e+01
 1.137100e+00	 4.651792e-01	 1.372105e+01
 1.114662e+00	 5.166390e-01	 1.319090e+01
 1.229504e+00	 2.621585e-01	 1.494117e+01
 1.216845e+00	 3.157464e-01	 1.468426e+01
 1.201657e+00	 3.693636e-01	 1.435391e+01
 1.183898e+00	 4.228397e-01	 1.396387e+01
 1.163544e+00	 4.759973e-01	 1.352792e+01
 1.140585e+00	 5.286539e-01	 1.305953e+01
 1.257448e+00	 2.681167e-01	 1.457544e+01
 1.244501e+00	 3.229224e-01	 1.435727e+01
 1.228967e+00	 3.777582e-01	 1.407045e+01
 1.210805e+00	 4.324497e-01	 1.372831e+01
 1.189988e+00	 4.868154e-01	 1.334384e+01
 1.166507e+00	 5.406687e-01	 1.292938e+01
 1.036895e+00	 4.805944e-01	 1.366163e+01
 1.013661e+00	 5.278394e-01	 1.283679e+01
 9.880863e-01	 5.742891e-01	 1.195765e+01
 9.602101e-01	 6.197733e-01	 1.104339e+01
 9.300869e-01	 6.641241e-01	 1.011265e+01
 8.977874e-01	 7.071776e-01	 9.183239e+00
 1.062817e+00	 4.926093e-01	 1.348423e+01
 1.039002e+00	 5.410354e-01	 1.275288e+01
 1.012788e+00	 5.886463e-01	 1.196461e+01
 9.842154e-01	 6.352677e-01	 1.113700e+01
 9.533391e-01	 6.807272e-01	 1.028691e+01
 9.202321e-01	 7.248571e-01	 9.430323e+00
 1.088740e+00	 5.046241e-01	 1.333003e+01
 1.064344e+00	 5.542314e-01	 1.268041e+01
 1.037491e+00	 6.030036e-01	 1.197181e+01
 1.008221e+00	 6.507620e-01	 1.122029e+01
 9.765912e-01	 6.973303e-01	 1.044108e+01
 9.426768e-01	 7.425365e-01	 9.648421e+00
 1.114662e+00	 5.166390e-01	 1.319090e+01
 1.089685e+00	 5.674273e-01	 1.261272e+01
 1.062193e+00	 6.173608e-01	 1.197405e+01
 1.032226e+00	 6.662563e-01	 1.128953e+01
 9.998434e-01	 7.139334e-01	 1.057286e+01
 9.651215e-01	 7.602160e-01	 9.836686e+00
 1.140585e+00	 5.286539e-01	 1.305953e+01
 1.115027e+00	 5.806233e-01	 1.254388e+01
 1.086895e+00	 6.317180e-01	 1.196674e+01
 1.056231e+00	 6.817507e-01	 1.134145e+01
 1.023096e+00	 7.305365e-01	 1.068031e+01
 9.875662e-01	 7.778954e-01	 9.994462e+00
 1.166507e+00	 5.406687e-01	 1.292938e+01
 1.140368e+00	 5.938193e-01	 1.246855e+01
 1.111597e+00	 6.460753e-01	 1.194577e+01
 1.080236e+00	 6.972450e-01	 1.137317e+01
 1.046348e+00	 7.471396e-01	 1.076175e+01
 1.010011e+00	 7.955748e-01	 1.012126e+01
 8.977874e-01	 7.071776e-01	 9.183239e+00
 8.633982e-01	 7.487763e-01	 8.262440e+00
 8.270207e-01	 7.887707e-01	 7.355821e+00
 7.887707e-01	 8.270207e-01	 6.476284e+00
 7.487763e-01	 8.633982e-01	 5.634610e+00
 7.071776e-01	 8.977874e-01	 4.839482e+00
 9.202321e-01	 7.248571e-01	 9.430323e+00
 8.849831e-01	 7.674958e-01	 8.571771e+00
 8.476963e-01	 8.084899e-01	 7.714894e+00
 8.084899e-01	 8.476963e-01	 6.872223e+00
 7.674958e-01	 8.849831e-01	 6.054569e+00
 7.248571e-01	 9.202321e-01	 5.271033e+00
 9.426768e-01	 7.425365e-01	 9.648421e+00
 9.065681e-01	 7.862152e-01	 8.844682e+00
 8.683718e-01	 8.282092e-01	 8.032018e+00
 8.282092e-01	 8.683718e-01	 7.222515e+00
 7.862152e-01	 9.065681e-01	 6.426899e+00
 7.425365e-01	 9.426768e-01	 5.654547e+00
 9.651215e-01	 7.602160e-01	 9.836686e+00
 9.281531e-01	 8.049346e-01	 9.081671e+00
 8.890473e-01	 8.479285e-01	 8.308889e+00
 8.479285e-01	 8.890473e-01	 7.529912e+00
 8.049346e-01	 9.281531e-01	 6.755278e+00
 7.602160e-01	 9.651215e-01	 5.994508e+00
 9.875662e-01	 7.778954e-01	 9.994462e+00
 9.497380e-01	 8.236540e-01	 9.283308e+00
 9.097228e-01	 8.676477e-01	 8.547165e+00
 8.676477e-01	 9.097228e-01	 7.797032e+00
 8.236540e-01	 9.497380e-01	 7.043164e+00
 7.778954e-01	 9.875662e-01	 6.295103e+00
 1.010011e+00	 7.955748e-01	 1.012126e+01
 9.713230e-01	 8.423734e-01	 9.450226e+00
 9.303983e-01	 8.873670e-01	 8.748474e+00
 8.873670e-01	 9.303983e-01	 8.026377e+00
 8.423734e-01	 9.713230e-01	 7.293820e+00
 7.955748e-01	 1.010011e+00	 6.560258e+00
 7.071776e-01	 8.977874e-01	 4.839482e+00
 6.641241e-01	 9.300869e-01	 4.096993e+00
 6.197733e-01	 9.602101e-01	 3.412436e+00
 5.742891e-01	 9.880863e-01	 2.790050e+00
 5.278394e-01	 1.013661e+00	 2.231861e+00
 4.805944e-01	 1.036895e+00	 1.737736e+00
 7.248571e-01	 9.202321e-01	 5.271033e+00
 6.807272e-01	 9.533391e-01	 4.528212e+00
 6.352677e-01	 9.842154e-01	 3.832152e+00
 5.886463e-01	 1.012788e+00	 3.188565e+00
 5.410354e-01	 1.039002e+00	 2.601406e+00
 4.926093e-01	 1.062817e+00	 2.072843e+00
 7.425365e-01	 9.426768e-01	 5.654547e+00
 6.973303e-01	 9.765912e-01	 4.912640e+00
 6.507620e-01	 1.008221e+00	 4.207954e+00
 6.030036e-01	 1.037491e+00	 3.547305e+00
 5.542314e-01	 1.064344e+00	 2.936155e+00
 5.046241e-01	 1.088740e+00	 2.378515e+00
 7.602160e-01	 9.651215e-01	 5.994508e+00
 7.139334e-01	 9.998434e-01	 5.255382e+00
 6.662563e-01	 1.032226e+00	 4.545320e+00
 6.173608e-01	 1.062193e+00	 3.871897e+00
 5.674273e-01	 1.089685e+00	 3.241698e+00
 5.166390e-01	 1.114662e+00	 2.660160e+00
 7.778954e-01	 9.875662e-01	 6.295103e+00
 7.305365e-01	 1.023096e+00	 5.561181e+00
 6.817507e-01	 1.056231e+00	 4.849321e+00
 6.317180e-01	 1.086895e+00	 4.167541e+00
 5.806233e-01	 1.115027e+00	 3.523192e+00
 5.286539e-01	 1.140585e+00	 2.922750e+00
 7.955748e-01	 1.010011e+00	 6.560258e+00
 7.471396e-01	 1.046348e+00	 5.834465e+00
 6.972450e-01	 1.080236e+00	 5.124675e+00
 6.460753e-01	 1.111597e+00	 4.439060e+00
 5.938193e-01	 1.140368e+00	 3.785407e+00
 5.406687e-01	 1.166507e+00	 3.170878e+00
 4.805944e-01	 1.036895e+00	 1.737736e+00
 4.327248e-01	 1.057767e+00	 1.304932e+00
 3.843997e-01	 1.076271e+00	 9.322399e-01
 3.357851e-01	 1.092415e+00	 6.187476e-01
 2.870421e-01	 1.106223e+00	 3.615344e-01
 2.383259e-01	 1.117731e+00	 1.557426e-01
 4.926093e-01	 1.062817e+00	 2.072843e+00
 4.435429e-01	 1.084212e+00	 1.602641e+00
 3.940097e-01	 1.103178e+00	 1.191205e+00
 3.441797e-01	 1.119726e+00	 8.388770e-01
 2.942182e-01	 1.133879e+00	 5.440433e-01
 2.442841e-01	 1.145675e+00	 3.031403e-01
 5.046241e-01	 1.088740e+00	 2.378515e+00
 4.543610e-01	 1.110656e+00	 1.876241e+00
 4.036197e-01	 1.130085e+00	 1.431208e+00
 3.525743e-01	 1.147036e+00	 1.044956e+00
 3.013942e-01	 1.161534e+00	 7.171290e-01
 2.502422e-01	 1.173618e+00	 4.454034e-01
 5.166390e-01	 1.114662e+00	 2.660160e+00
 4.651792e-01	 1.137100e+00	 2.130884e+00
 4.132297e-01	 1.156991e+00	 1.657132e+00
 3.609690e-01	 1.174346e+00	 1.241604e+00
 3.085703e-01	 1.189190e+00	 8.851573e-01
 2.562004e-01	 1.201561e+00	 5.866717e-01
 5.286539e-01	 1.140585e+00	 2.922750e+00
 4.759973e-01	 1.163544e+00	 2.371294e+00
 4.228397e-01	 1.183898e+00	 1.873444e+00
 3.693636e-01	 1.201657e+00	 1.433026e+00
 3.157464e-01	 1.216845e+00	 1.052089e+00
 2.621585e-01	 1.229504e+00	 7.306872e-01
 5.406687e-01	 1.166507e+00	 3.170878e+00
 4.868154e-01	 1.189988e+00	 2.601822e+00
 4.324497e-01	 1.210805e+00	 2.084240e+00
 3.777582e-01	 1.228967e+00	 1.623067e+00
 3.229224e-01	 1.244501e+00	 1.221529e+00
 2.681167e-01	 1.257448e+00	 8.808417e-01
 2.383259e-01	 1.117731e+00	 1.557426e-01
 1.897840e-01	 1.126989e+00	-7.247729e-03
 1.415556e-01	 1.134057e+00	-1.311173e-01
 9.377052e-02	 1.139004e+00	-2.160924e-01
 4.654878e-02	 1.141909e+00	-2.641138e-01
 0.000000e+00	 1.142858e+00	-2.785750e-01
 2.442841e-01	 1.145675e+00	 3.031403e-01
 1.945286e-01	 1.155164e+00	 1.088591e-01
 1.450945e-01	 1.162408e+00	-4.088408e-02
 9.611478e-02	 1.167479e+00	-1.448456e-01
 4.771250e-02	 1.170456e+00	-2.037960e-01
 0.000000e+00	 1.171430e+00	-2.202749e-01
 2.502422e-01	 1.173618e+00	 4.454034e-01
 1.992732e-01	 1.183339e+00	 2.236363e-01
 1.486334e-01	 1.190759e+00	 5.108048e-02
 9.845904e-02	 1.195954e+00	-6.976649e-02
 4.887622e-02	 1.199004e+00	-1.387063e-01
 0.000000e+00	 1.200002e+00	-1.576109e-01
 2.562004e-01	 1.201561e+00	 5.866717e-01
 2.040178e-01	 1.211513e+00	 3.410552e-01
 1.521723e-01	 1.219111e+00	 1.486748e-01
 1.008033e-01	 1.224429e+00	 1.308648e-02
 5.003994e-02	 1.227552e+00	-6.472628e-02
 0.000000e+00	 1.228574e+00	-8.613980e-02
 2.621585e-01	 1.229504e+00	 7.306872e-01
 2.087624e-01	 1.239688e+00	 4.646947e-01
 1.557111e-01	 1.247462e+00	 2.554052e-01
 1.031476e-01	 1.252904e+00	 1.072572e-01
 5.120366e-02	 1.256100e+00	 2.185237e-02
 0.000000e+00	 1.257146e+00	-1.848551e-03
 2.681167e-01	 1.257448e+00	 8.808417e-01
 2.135070e-01	 1.267863e+00	 5.977867e-01
 1.592500e-01	 1.275814e+00	 3.744305e-01
 1.054918e-01	 1.281379e+00	 2.159367e-01
 5.236738e-02	 1.284647e+00	 1.243739e-01
 0.000000e+00	 1.285718e+00	 9.889400e-02
 1.285714e+00	 0.000000e+00	 1.505624e+01
 1.284647e+00	 5.236738e-02	 1.505959e+01
 1.281379e+00	 1.054918e-01	 1.500170e+01
 1.275814e+00	 1.592500e-01	 1.489344e+01
 1.267863e+00	 2.135070e-01	 1.474696e+01
 1.257448e+00	 2.681167e-01	 1.457544e+01
 1.314286e+00	 0.000000e+00	 1.464656e+01
 1.313195e+00	 5.353110e-02	 1.465422e+01
 1.309854e+00	 1.078361e-01	 1.460577e+01
 1.304165e+00	 1.627889e-01	 1.451291e+01
 1.296037e+00	 2.182516e-01	 1.438832e+01
 1.285391e+00	 2.740748e-01	 1.424540e+01
 1.342857e+00	 0.000000e+00	 1.428385e+01
 1.341743e+00	 5.469482e-02	 1.429548e+01
 1.338329e+00	 1.101804e-01	 1.425548e+01
 1.332517e+00	 1.663278e-01	 1.417633e+01
 1.324212e+00	 2.229962e-01	 1.407120e+01
 1.313334e+00	 2.800330e-01	 1.395370e+01
 1.371429e+00	 0.000000e+00	 1.396118e+01
 1.370291e+00	 5.585854e-02	 1.397650e+01
 1.366804e+00	 1.125246e-01	 1.394407e+01
 1.360868e+00	 1.698667e-01	 1.387708e+01
 1.352387e+00	 2.277408e-01	 1.378916e+01
 1.341278e+00	 2.859911e-01	 1.369411e+01
 1.400000e+00	 0.000000e+00	 1.367204e+01
 1.398838e+00	 5.702226e-02	 1.369089e+01
 1.395280e+00	 1.148689e-01	 1.366526e+01
 1.389219e+00	 1.734056e-01	 1.360905e+01
 1.380562e+00	 2.324854e-01	 1.353630e+01
 1.369221e+00	 2.919493e-01	 1.346095e+01
 1.428571e+00	 0.000000e+00	 1.341037e+01
 1.427386e+00	 5.818597e-02	 1.343267e+01
 1.423755e+00	 1.172131e-01	 1.341326e+01
 1.417571e+00	 1.769445e-01	 1.336663e+01
 1.408736e+00	 2.372300e-01	 1.330721e+01
 1.397164e+00	 2.979074e-01	 1.324904e+01
 1.257448e+00	 2.681167e-01	 1.457544e+01
 1.244501e+00	 3.229224e-01	 1.435727e+01
 1.228967e+00	 3.777582e-01	 1.407045e+01
 1.210805e+00	 4.324497e-01	 1.372831e+01
 1.189988e+00	 4.868154e-01	 1.334384e+01
 1.166507e+00	 5.406687e-01	 1.292938e+01
 1.285391e+00	 2.740748e-01	 1.424540e+01
 1.272156e+00	 3.300985e-01	 1.406135e+01
 1.256277e+00	 3.861528e-01	 1.381287e+01
 1.237712e+00	 4.420596e-01	 1.351286e+01
 1.216432e+00	 4.976335e-01	 1.317361e+01
 1.192429e+00	 5.526836e-01	 1.280646e+01
 1.313334e+00	 2.800330e-01	 1.395370e+01
 1.299812e+00	 3.372745e-01	 1.379997e+01
 1.283588e+00	 3.945475e-01	 1.358554e+01
 1.264618e+00	 4.516696e-01	 1.332287e+01
 1.242877e+00	 5.084516e-01	 1.302355e+01
 1.218352e+00	 5.646984e-01	 1.269803e+01
 1.341278e+00	 2.859911e-01	 1.369411e+01
 1.327468e+00	 3.444506e-01	 1.356719e+01
 1.310898e+00	 4.029421e-01	 1.338289e+01
 1.291525e+00	 4.612796e-01	 1.315320e+01
 1.269321e+00	 5.192698e-01	 1.288909e+01
 1.244274e+00	 5.767133e-01	 1.260015e+01
 1.369221e+00	 2.919493e-01	 1.346095e+01
 1.355123e+00	 3.516266e-01	 1.335760e+01
 1.338209e+00	 4.113367e-01	 1.319986e+01
 1.318432e+00	 4.708896e-01	 1.299925e+01
 1.295765e+00	 5.300879e-01	 1.276613e+01
 1.270197e+00	 5.887282e-01	 1.250933e+01
 1.397164e+00	 2.979074e-01	 1.324904e+01
 1.382779e+00	 3.588027e-01	 1.316627e+01
 1.365519e+00	 4.197313e-01	 1.303186e+01
 1.345339e+00	 4.804996e-01	 1.285685e+01
 1.322209e+00	 5.409060e-01	 1.265100e+01
 1.296119e+00	 6.007430e-01	 1.242246e+01
 1.166507e+00	 5.406687e-01	 1.292938e+01
 1.140368e+00	 5.938193e-01	 1.246855e+01
 1.111597e+00	 6.460753e-01	 1.194577e+01
 1.080236e+00	 6.972450e-01	 1.137317e+01
 1.046348e+00	 7.471396e-01	 1.076175e+01
 1.010011e+00	 7.955748e-01	 1.012126e+01
 1.192429e+00	 5.526836e-01	 1.280646e+01
 1.165710e+00	 6.070153e-01	 1.239386e+01
 1.136299e+00	 6.604325e-01	 1.191915e+01
 1.104242e+00	 7.127393e-01	 1.139338e+01
 1.069600e+00	 7.637427e-01	 1.082637e+01
 1.032456e+00	 8.132543e-01	 1.022659e+01
 1.218352e+00	 5.646984e-01	 1.269803e+01
 1.191051e+00	 6.202113e-01	 1.232783e+01
 1.161001e+00	 6.747897e-01	 1.189553e+01
 1.128247e+00	 7.282337e-01	 1.141118e+01
 1.092852e+00	 7.803458e-01	 1.088353e+01
 1.054900e+00	 8.309337e-01	 1.031989e+01
 1.244274e+00	 5.767133e-01	 1.260015e+01
 1.216393e+00	 6.334073e-01	 1.226725e+01
 1.185704e+00	 6.891469e-01	 1.187240e+01
 1.152252e+00	 7.437280e-01	 1.142479e+01
 1.116104e+00	 7.969489e-01	 1.093217e+01
 1.077345e+00	 8.486132e-01	 1.040085e+01
 1.270197e+00	 5.887282e-01	 1.250933e+01
 1.241734e+00	 6.466033e-01	 1.220926e+01
 1.210406e+00	 7.035042e-01	 1.184758e+01
 1.176257e+00	 7.592223e-01	 1.143268e+01
 1.139356e+00	 8.135520e-01	 1.097145e+01
 1.099790e+00	 8.662926e-01	 1.046930e+01
 1.296119e+00	 6.007430e-01	 1.242246e+01
 1.267076e+00	 6.597992e-01	 1.215136e+01
 1.235108e+00	 7.178614e-01	 1.181915e+01
 1.200263e+00	 7.747167e-01	 1.143355e+01
 1.162609e+00	 8.301551e-01	 1.100070e+01
 1.122234e+00	 8.839720e-01	 1.052520e+01
 1.010011e+00	 7.955748e-01	 1.012126e+01
 9.713230e-01	 8.423734e-01	 9.450226e+00
 9.303983e-01	 8.873670e-01	 8.748474e+00
 8.873670e-01	 9.303983e-01	 8.026377e+00
 8.423734e-01	 9.713230e-01	 7.293820e+00
 7.955748e-01	 1.010011e+00	 6.560258e+00
 1.032456e+00	 8.132543e-01	 1.022659e+01
 9.929079e-01	 8.610928e-01	 9.591994e+00
 9.510738e-01	 9.070863e-01	 8.922169e+00
 9.070863e-01	 9.510738e-01	 8.226799e+00
 8.610928e-01	 9.929079e-01	 7.515311e+00
 8.132543e-01	 1.032456e+00	 6.796953e+00
 1.054900e+00	 8.309337e-01	 1.031989e+01
 1.014493e+00	 8.798122e-01	 9.717927e+00
 9.717494e-01	 9.268055e-01	 9.077145e+00
 9.268055e-01	 9.717494e-01	 8.406484e+00
 8.798122e-01	 1.014493e+00	 7.714819e+00
 8.309337e-01	 1.054900e+00	 7.011075e+00
 1.077345e+00	 8.486132e-01	 1.040085e+01
 1.036078e+00	 8.985316e-01	 9.828399e+00
 9.924249e-01	 9.465248e-01	 9.214353e+00
 9.465248e-01	 9.924249e-01	 8.566853e+00
 8.985316e-01	 1.036078e+00	 7.894134e+00
 8.486132e-01	 1.077345e+00	 7.204683e+00
 1.099790e+00	 8.662926e-01	 1.046930e+01
 1.057663e+00	 9.172510e-01	 9.923868e+00
 1.013100e+00	 9.662441e-01	 9.334778e+00
 9.662441e-01	 1.013100e+00	 8.709322e+00
 9.172510e-01	 1.057663e+00	 8.055012e+00
 8.662926e-01	 1.099790e+00	 7.379786e+00
 1.122234e+00	 8.839720e-01	 1.052520e+01
 1.079248e+00	 9.359704e-01	 1.000487e+01
 1.033776e+00	 9.859633e-01	 9.439443e+00
 9.859633e-01	 1.033776e+00	 8.835313e+00
 9.359704e-01	 1.079248e+00	 8.199184e+00
 8.839720e-01	 1.122234e+00	 7.538342e+00
 7.955748e-01	 1.010011e+00	 6.560258e+00
 7.471396e-01	 1.046348e+00	 5.834465e+00
 6.972450e-01	 1.080236e+00	 5.124675e+00
 6.460753e-01	 1.111597e+00	 4.439060e+00
 5.938193e-01	 1.140368e+00	 3.785407e+00
 5.406687e-01	 1.166507e+00	 3.170878e+00
 8.132543e-01	 1.032456e+00	 6.796953e+00
 7.637427e-01	 1.069600e+00	 6.080810e+00
 7.127393e-01	 1.104242e+00	 5.375315e+00
 6.604325e-01	 1.136299e+00	 4.688687e+00
 6.070153e-01	 1.165710e+00	 4.029029e+00
 5.526836e-01	 1.192429e+00	 3.404057e+00
 8.309337e-01	 1.054900e+00	 7.011075e+00
 7.803458e-01	 1.092852e+00	 6.304538e+00
 7.282337e-01	 1.128247e+00	 5.603868e+00
 6.747897e-01	 1.161001e+00	 4.917387e+00
 6.202113e-01	 1.191051e+00	 4.253583e+00
 5.646984e-01	 1.218352e+00	 3.620809e+00
 8.486132e-01	 1.077345e+00	 7.204683e+00
 7.969489e-01	 1.116104e+00	 6.507921e+00
 7.437280e-01	 1.152252e+00	 5.812776e+00
 6.891469e-01	 1.185704e+00	 5.127733e+00
 6.334073e-01	 1.216393e+00	 4.461735e+00
 5.767133e-01	 1.244274e+00	 3.823850e+00
 8.662926e-01	 1.099790e+00	 7.379786e+00
 8.135520e-01	 1.139356e+00	 6.693155e+00
 7.592223e-01	 1.176257e+00	 6.004386e+00
 7.035042e-01	 1.210406e+00	 5.322185e+00
 6.466033e-01	 1.241734e+00	 4.656018e+00
 5.887282e-01	 1.270197e+00	 4.015747e+00
 8.839720e-01	 1.122234e+00	 7.538342e+00
 8.301551e-01	 1.162609e+00	 6.862371e+00
 7.747167e-01	 1.200263e+00	 6.180965e+00
 7.178614e-01	 1.235108e+00	 5.503104e+00
 6.597992e-01	 1.267076e+00	 4.838848e+00
 6.007430e-01	 1.296119e+00	 4.198940e+00
 5.406687e-01	 1.166507e+00	 3.170878e+00
 4.868154e-01	 1.189988e+00	 2.601822e+00
 4.324497e-01	 1.210805e+00	 2.084240e+00
 3.777582e-01	 1.228967e+00	 1.623067e+00
 3.229224e-01	 1.244501e+00	 1.221529e+00
 2.681167e-01	 1.257448e+00	 8.808417e-01
 5.526836e-01	 1.192429e+00	 3.404057e+00
 4.976335e-01	 1.216432e+00	 2.821352e+00
 4.420596e-01	 1.237712e+00	 2.288136e+00
 3.861528e-01	 1.256277e+00	 1.810144e+00
 3.300985e-01	 1.272156e+00	 1.391469e+00
 2.740748e-01	 1.285391e+00	 1.034181e+00
 5.646984e-01	 1.218352e+00	 3.620809e+00
 5.084516e-01	 1.242877e+00	 3.027907e+00
 4.516696e-01	 1.264618e+00	 2.482930e+00
 3.945475e-01	 1.283588e+00	 1.991839e+00
 3.372745e-01	 1.299812e+00	 1.559011e+00
 2.800330e-01	 1.313334e+00	 1.186805e+00
 5.767133e-01	 1.244274e+00	 3.823850e+00
 5.192698e-01	 1.269321e+00	 3.224156e+00
 4.612796e-01	 1.291525e+00	 2.671109e+00
 4.029421e-01	 1.310898e+00	 2.170368e+00
 3.444506e-01	 1.327468e+00	 1.726069e+00
 2.859911e-01	 1.341278e+00	 1.340337e+00
 5.887282e-01	 1.270197e+00	 4.015747e+00
 5.300879e-01	 1.295765e+00	 3.412607e+00
 4.708896e-01	 1.318432e+00	 2.854997e+00
 4.113367e-01	 1.338209e+00	 2.347794e+00
 3.516266e-01	 1.355123e+00	 1.894409e+00
 2.919493e-01	 1.369221e+00	 1.496259e+00
 6.007430e-01	 1.296119e+00	 4.198940e+00
 5.409060e-01	 1.322209e+00	 3.595631e+00
 4.804996e-01	 1.345339e+00	 3.036778e+00
 4.197313e-01	 1.365519e+00	 2.526040e+00
 3.588027e-01	 1.382779e+00	 2.065664e+00
 2.979074e-01	 1.397164e+00	 1.655933e+00
 2.681167e-01	 1.257448e+00	 8.808417e-01
 2.135070e-01	 1.267863e+00	 5.977867e-01
 1.592500e-01	 1.275814e+00	 3.744305e-01
 1.054918e-01	 1.281379e+00	 2.159367e-01
 5.236738e-02	 1.284647e+00	 1.243739e-01
 0.000000e+00	 1.285718e+00	 9.889400e-02
 2.740748e-01	 1.285391e+00	 1.034181e+00
 2.182516e-01	 1.296037e+00	 7.357856e-01
 1.627889e-01	 1.304165e+00	 4.993537e-01
 1.078361e-01	 1.309854e+00	 3.310964e-01
 5.353110e-02	 1.313195e+00	 2.338519e-01
 0.000000e+00	 1.314290e+00	 2.072366e-01
 2.800330e-01	 1.313334e+00	 1.186805e+00
 2.229962e-01	 1.324212e+00	 8.731857e-01
 1.663278e-01	 1.332517e+00	 6.228542e-01
 1.101804e-01	 1.338329e+00	 4.438320e-01
 5.469482e-02	 1.341743e+00	 3.404470e-01
 0.000000e+00	 1.342861e+00	 3.134358e-01
 2.859911e-01	 1.341278e+00	 1.340337e+00
 2.277408e-01	 1.352387e+00	 1.011430e+00
 1.698667e-01	 1.360868e+00	 7.463506e-01
 1.125246e-01	 1.366804e+00	 5.556535e-01
 5.585854e-02	 1.370291e+00	 4.458376e-01
 0.000000e+00	 1.371433e+00	 4.193780e-01
 2.919493e-01	 1.369221e+00	 1.496259e+00
 2.324854e-01	 1.380562e+00	 1.151827e+00
 1.734056e-01	 1.389219e+00	 8.711184e-01
 1.148689e-01	 1.395280e+00	 6.679157e-01
 5.702226e-02	 1.398838e+00	 5.515350e-01
 0.000000e+00	 1.400005e+00	 5.267729e-01
 2.979074e-01	 1.397164e+00	 1.655933e+00
 2.372300e-01	 1.408736e+00	 1.295560e+00
 1.769445e-01	 1.417571e+00	 9.983054e-01
 1.172131e-01	 1.423755e+00	 7.818348e-01
 5.818597e-02	 1.427386e+00	 6.588996e-01
 0.000000e+00	 1.428577e+00	 6.371700e-01
 1.428571e+00	 0.000000e+00	 1.341037e+01
 1.427386e+00	 5.818597e-02	 1.343267e+01
 1.423755e+00	 1.172131e-01	 1.341326e+01
 1.417571e+00	 1.769445e-01	 1.336663e+01
 1.408736e+00	 2.372300e-01	 1.330721e+01
 1.397164e+00	 2.979074e-01	 1.324904e+01
 1.457143e+00	 0.000000e+00	 1.317477e+01
 1.455934e+00	 5.934969e-02	 1.320042e+01
 1.452230e+00	 1.195574e-01	 1.318677e+01
 1.445922e+00	 1.804834e-01	 1.314883e+01
 1.436911e+00	 2.419746e-01	 1.310124e+01
 1.425107e+00	 3.038655e-01	 1.305796e+01
 1.485714e+00	 0.000000e+00	 1.296488e+01
 1.484481e+00	 6.051341e-02	 1.299376e+01
 1.480705e+00	 1.219017e-01	 1.298529e+01
 1.474274e+00	 1.840223e-01	 1.295504e+01
 1.465086e+00	 2.467192e-01	 1.291795e+01
 1.453051e+00	 3.098237e-01	 1.288798e+01
 1.514286e+00	 0.000000e+00	 1.277671e+01
 1.513029e+00	 6.167713e-02	 1.280915e+01
 1.509180e+00	 1.242459e-01	 1.280563e+01
 1.502625e+00	 1.875612e-01	 1.278230e+01
 1.493261e+00	 2.514638e-01	 1.275439e+01
 1.480994e+00	 3.157818e-01	 1.273578e+01
 1.542857e+00	 0.000000e+00	 1.260661e+01
 1.541577e+00	 6.284085e-02	 1.264336e+01
 1.537655e+00	 1.265902e-01	 1.264493e+01
 1.530976e+00	 1.911000e-01	 1.262807e+01
 1.521435e+00	 2.562084e-01	 1.260825e+01
 1.508937e+00	 3.217400e-01	 1.259928e+01
 1.571429e+00	 0.000000e+00	 1.245122e+01
 1.570125e+00	 6.400457e-02	 1.249340e+01
 1.566130e+00	 1.289345e-01	 1.250054e+01
 1.559328e+00	 1.946389e-01	 1.248997e+01
 1.549610e+00	 2.609530e-01	 1.247742e+01
 1.536881e+00	 3.276981e-01	 1.247656e+01
 1.397164e+00	 2.979074e-01	 1.324904e+01
 1.382779e+00	 3.588027e-01	 1.316627e+01
 1.365519e+00	 4.197313e-01	 1.303186e+01
 1.345339e+00	 4.804996e-01	 1.285685e+01
 1.322209e+00	 5.409060e-01	 1.265100e+01
 1.296119e+00	 6.007430e-01	 1.242246e+01
 1.425107e+00	 3.038655e-01	 1.305796e+01
 1.410434e+00	 3.659787e-01	 1.299304e+01
 1.392829e+00	 4.281260e-01	 1.287908e+01
 1.372246e+00	 4.901096e-01	 1.272664e+01
 1.348653e+00	 5.517241e-01	 1.254490e+01
 1.322041e+00	 6.127579e-01	 1.234139e+01
 1.453051e+00	 3.098237e-01	 1.288798e+01
 1.438090e+00	 3.731548e-01	 1.283889e+01
 1.420140e+00	 4.365206e-01	 1.274294e+01
 1.399152e+00	 4.997196e-01	 1.261046e+01
 1.375098e+00	 5.625422e-01	 1.245015e+01
 1.347964e+00	 6.247727e-01	 1.226894e+01
 1.480994e+00	 3.157818e-01	 1.273578e+01
 1.465745e+00	 3.803308e-01	 1.270055e+01
 1.447450e+00	 4.449152e-01	 1.262103e+01
 1.426059e+00	 5.093296e-01	 1.250647e+01
 1.401542e+00	 5.733604e-01	 1.236521e+01
 1.373886e+00	 6.367876e-01	 1.220385e+01
 1.508937e+00	 3.217400e-01	 1.259928e+01
 1.493401e+00	 3.875069e-01	 1.257583e+01
 1.474760e+00	 4.533098e-01	 1.251075e+01
 1.452966e+00	 5.189396e-01	 1.241267e+01
 1.427986e+00	 5.841785e-01	 1.228876e+01
 1.399808e+00	 6.488025e-01	 1.214506e+01
 1.536881e+00	 3.276981e-01	 1.247656e+01
 1.521057e+00	 3.946829e-01	 1.246302e+01
 1.502071e+00	 4.617045e-01	 1.241054e+01
 1.479873e+00	 5.285496e-01	 1.232711e+01
 1.454430e+00	 5.949966e-01	 1.221923e+01
 1.425731e+00	 6.608173e-01	 1.209169e+01
 1.296119e+00	 6.007430e-01	 1.242246e+01
 1.267076e+00	 6.597992e-01	 1.215136e+01
 1.235108e+00	 7.178614e-01	 1.181915e+01
 1.200263e+00	 7.747167e-01	 1.143355e+01
 1.162609e+00	 8.301551e-01	 1.100070e+01
 1.122234e+00	 8.839720e-01	 1.052520e+01
 1.322041e+00	 6.127579e-01	 1.234139e+01
 1.292417e+00	 6.729952e-01	 1.209605e+01
 1.259810e+00	 7.322186e-01	 1.179025e+01
 1.224268e+00	 7.902110e-01	 1.143106e+01
 1.185861e+00	 8.467582e-01	 1.102391e+01
 1.144679e+00	 9.016515e-01	 1.057264e+01
 1.347964e+00	 6.247727e-01	 1.226894e+01
 1.317759e+00	 6.861912e-01	 1.204665e+01
 1.284512e+00	 7.465758e-01	 1.176459e+01
 1.248273e+00	 8.057053e-01	 1.142918e+01
 1.209113e+00	 8.633613e-01	 1.104515e+01
 1.167124e+00	 9.193309e-01	 1.061556e+01
 1.373886e+00	 6.367876e-01	 1.220385e+01
 1.343100e+00	 6.993872e-01	 1.200215e+01
 1.309214e+00	 7.609331e-01	 1.174141e+01
 1.272278e+00	 8.211997e-01	 1.142739e+01
 1.232365e+00	 8.799644e-01	 1.106412e+01
 1.189568e+00	 9.370104e-01	 1.065385e+01
 1.399808e+00	 6.488025e-01	 1.214506e+01
 1.368442e+00	 7.125832e-01	 1.196175e+01
 1.333916e+00	 7.752903e-01	 1.172012e+01
 1.296284e+00	 8.366940e-01	 1.142531e+01
 1.255617e+00	 8.965675e-01	 1.108061e+01
 1.212013e+00	 9.546898e-01	 1.068749e+01
 1.425731e+00	 6.608173e-01	 1.209169e+01
 1.393783e+00	 7.257792e-01	 1.192478e+01
 1.358619e+00	 7.896475e-01	 1.170027e+01
 1.320289e+00	 8.521883e-01	 1.142267e+01
 1.278869e+00	 9.131706e-01	 1.109456e+01
 1.234458e+00	 9.723692e-01	 1.071658e+01
 1.122234e+00	 8.839720e-01	 1.052520e+01
 1.079248e+00	 9.359704e-01	 1.000487e+01
 1.033776e+00	 9.859633e-01	 9.439443e+00
 9.859633e-01	 1.033776e+00	 8.835313e+00
 9.359704e-01	 1.079248e+00	 8.199184e+00
 8.839720e-01	 1.122234e+00	 7.538342e+00
 1.144679e+00	 9.016515e-01	 1.057264e+01
 1.100833e+00	 9.546898e-01	 1.007530e+01
 1.054451e+00	 1.005683e+00	 9.531773e+00
 1.005683e+00	 1.054451e+00	 8.947638e+00
 9.546898e-01	 1.100833e+00	 8.328876e+00
 9.016515e-01	 1.144679e+00	 7.682207e+00
 1.167124e+00	 9.193309e-01	 1.061556e+01
 1.122418e+00	 9.734093e-01	 1.013869e+01
 1.075127e+00	 1.025402e+00	 9.614741e+00
 1.025402e+00	 1.075127e+00	 9.048668e+00
 9.734093e-01	 1.122418e+00	 8.445965e+00
 9.193309e-01	 1.167124e+00	 7.813048e+00
 1.189568e+00	 9.370104e-01	 1.065385e+01
 1.144003e+00	 9.921287e-01	 1.019516e+01
 1.095802e+00	 1.045121e+00	 9.688773e+00
 1.045121e+00	 1.095802e+00	 9.139196e+00
 9.921287e-01	 1.144003e+00	 8.551652e+00
 9.370104e-01	 1.189568e+00	 7.932503e+00
 1.212013e+00	 9.546898e-01	 1.068749e+01
 1.165588e+00	 1.010848e+00	 1.024493e+01
 1.116478e+00	 1.064840e+00	 9.754367e+00
 1.064840e+00	 1.116478e+00	 9.220057e+00
 1.010848e+00	 1.165588e+00	 8.647152e+00
 9.546898e-01	 1.212013e+00	 8.042189e+00
 1.234458e+00	 9.723692e-01	 1.071658e+01
 1.187173e+00	 1.029567e+00	 1.028828e+01
 1.137154e+00	 1.084560e+00	 9.812079e+00
 1.084560e+00	 1.137154e+00	 9.292126e+00
 1.029567e+00	 1.187173e+00	 8.733696e+00
 9.723692e-01	 1.234458e+00	 8.143715e+00
 8.839720e-01	 1.122234e+00	 7.538342e+00
 8.301551e-01	 1.162609e+00	 6.862371e+00
 7.747167e-01	 1.200263e+00	 6.180965e+00
 7.178614e-01	 1.235108e+00	 5.503104e+00
 6.597992e-01	 1.267076e+00	 4.838848e+00
 6.007430e-01	 1.296119e+00	 4.198940e+00
 9.016515e-01	 1.144679e+00	 7.682207e+00
 8.467582e-01	 1.185861e+00	 7.017391e+00
 7.902110e-01	 1.224268e+00	 6.344427e+00
 7.322186e-01	 1.259810e+00	 5.672298e+00
 6.729952e-01	 1.292417e+00	 5.011375e+00
 6.127579e-01	 1.322041e+00	 4.372997e+00
 9.193309e-01	 1.167124e+00	 7.813048e+00
 8.633613e-01	 1.209113e+00	 7.159972e+00
 8.057053e-01	 1.248273e+00	 6.496612e+00
 7.465758e-01	 1.284512e+00	 5.831383e+00
 6.861912e-01	 1.317759e+00	 5.174359e+00
 6.247727e-01	 1.347964e+00	 4.536854e+00
 9.370104e-01	 1.189568e+00	 7.932503e+00
 8.799644e-01	 1.232365e+00	 7.292071e+00
 8.211997e-01	 1.272278e+00	 6.639576e+00
 7.609331e-01	 1.309214e+00	 5.982328e+00
 6.993872e-01	 1.343100e+00	 5.329533e+00
 6.367876e-01	 1.373886e+00	 4.691895e+00
 9.546898e-01	 1.212013e+00	 8.042189e+00
 8.965675e-01	 1.255617e+00	 7.415606e+00
 8.366940e-01	 1.296284e+00	 6.775328e+00
 7.752903e-01	 1.333916e+00	 6.127057e+00
 7.125832e-01	 1.368442e+00	 5.478590e+00
 6.488025e-01	 1.399808e+00	 4.839481e+00
 9.723692e-01	 1.234458e+00	 8.143715e+00
 9.131706e-01	 1.278869e+00	 7.532458e+00
 8.521883e-01	 1.320289e+00	 6.905833e+00
 7.896475e-01	 1.358619e+00	 6.267449e+00
 7.257792e-01	 1.393783e+00	 5.623194e+00
 6.608173e-01	 1.425731e+00	 4.980959e+00
 6.007430e-01	 1.296119e+00	 4.198940e+00
 5.409060e-01	 1.322209e+00	 3.595631e+00
 4.804996e-01	 1.345339e+00	 3.036778e+00
 4.197313e-01	 1.365519e+00	 2.526040e+00
 3.588027e-01	 1.382779e+00	 2.065664e+00
 2.979074e-01	 1.397164e+00	 1.655933e+00
 6.127579e-01	 1.322041e+00	 4.372997e+00
 5.517241e-01	 1.348653e+00	 3.770056e+00
 4.901096e-01	 1.372246e+00	 3.209798e+00
 4.281260e-01	 1.392829e+00	 2.694852e+00
 3.659787e-01	 1.410434e+00	 2.226503e+00
 3.038655e-01	 1.425107e+00	 1.804090e+00
 6.247727e-01	 1.347964e+00	 4.536854e+00
 5.625422e-01	 1.375098e+00	 3.931907e+00
 4.997196e-01	 1.399152e+00	 3.366568e+00
 4.365206e-01	 1.420140e+00	 2.843214e+00
 3.731548e-01	 1.438090e+00	 2.364676e+00
 3.098237e-01	 1.453051e+00	 1.935734e+00
 6.367876e-01	 1.373886e+00	 4.691895e+00
 5.733604e-01	 1.401542e+00	 4.082237e+00
 5.093296e-01	 1.426059e+00	 3.507917e+00
 4.449152e-01	 1.447450e+00	 2.978893e+00
 3.803308e-01	 1.465745e+00	 2.502079e+00
 3.157818e-01	 1.480994e+00	 2.068885e+00
 6.488025e-01	 1.399808e+00	 4.839481e+00
 5.841785e-01	 1.427986e+00	 4.222095e+00
 5.189396e-01	 1.452966e+00	 3.646817e+00
 4.533098e-01	 1.474760e+00	 3.123961e+00
 3.875069e-01	 1.493401e+00	 2.646098e+00
 3.217400e-01	 1.508937e+00	 2.204919e+00
 6.608173e-01	 1.425731e+00	 4.980959e+00
 5.949966e-01	 1.454430e+00	 4.366286e+00
 5.285496e-01	 1.479873e+00	 3.801540e+00
 4.617045e-01	 1.502071e+00	 3.280925e+00
 3.946829e-01	 1.521057e+00	 2.797835e+00
 3.276981e-01	 1.536881e+00	 2.344936e+00
 2.979074e-01	 1.397164e+00	 1.655933e+00
 2.372300e-01	 1.408736e+00	 1.295560e+00
 1.769445e-01	 1.417571e+00	 9.983054e-01
 1.172131e-01	 1.423755e+00	 7.818348e-01
 5.818597e-02	 1.427386e+00	 6.588996e-01
 0.000000e+00	 1.428577e+00	 6.371700e-01
 3.038655e-01	 1.425107e+00	 1.804090e+00
 2.419746e-01	 1.436911e+00	 1.428153e+00
 1.804834e-01	 1.445922e+00	 1.117559e+00
 1.195574e-01	 1.452230e+00	 8.911191e-01
 5.934969e-02	 1.455934e+00	 7.635882e-01
-1.846073e-09	 1.457149e+00	 7.453879e-01
 3.098237e-01	 1.453051e+00	 1.935734e+00
 2.467192e-01	 1.465086e+00	 1.552279e+00
 1.840223e-01	 1.474274e+00	 1.231491e+00
 1.219017e-01	 1.480705e+00	 9.954970e-01
 6.051341e-02	 1.484481e+00	 8.624663e-01
-1.476858e-08	 1.485720e+00	 8.459968e-01
 3.157818e-01	 1.480994e+00	 2.068885e+00
 2.514638e-01	 1.493261e+00	 1.675535e+00
 1.875612e-01	 1.502625e+00	 1.342971e+00
 1.242459e-01	 1.509180e+00	 1.096284e+00
 6.167713e-02	 1.513029e+00	 9.565333e-01
-4.984394e-08	 1.514292e+00	 9.400166e-01
 3.217400e-01	 1.508937e+00	 2.204919e+00
 2.562084e-01	 1.521435e+00	 1.799036e+00
 1.911000e-01	 1.530976e+00	 1.453036e+00
 1.265902e-01	 1.537655e+00	 1.194445e+00
 6.284085e-02	 1.541577e+00	 1.046715e+00
-1.181486e-07	 1.542864e+00	 1.028400e+00
 3.276981e-01	 1.536881e+00	 2.344936e+00
 2.609530e-01	 1.549610e+00	 1.923838e+00
 1.946389e-01	 1.559328e+00	 1.562671e+00
 1.289345e-01	 1.566130e+00	 1.290892e+00
 6.400457e-02	 1.570125e+00	 1.133883e+00
-2.307589e-07	 1.571435e+00	 1.112039e+00
 1.571429e+00	 0.000000e+00	 1.245122e+01
 1.570125e+00	 6.400457e-02	 1.249340e+01
 1.566130e+00	 1.289345e-01	 1.250054e+01
 1.559328e+00	 1.946389e-01	 1.248997e+01
 1.549610e+00	 2.609530e-01	 1.247742e+01
 1.536881e+00	 3.276981e-01	 1.247656e+01
 1.600000e+00	 0.000000e+00	 1.230997e+01
 1.598672e+00	 6.516829e-02	 1.235861e+01
 1.594605e+00	 1.312787e-01	 1.237184e+01
 1.587679e+00	 1.981778e-01	 1.236750e+01
 1.577785e+00	 2.656976e-01	 1.236153e+01
 1.564824e+00	 3.336563e-01	 1.236742e+01
 1.628571e+00	 0.000000e+00	 1.218294e+01
 1.627220e+00	 6.633201e-02	 1.223881e+01
 1.623080e+00	 1.336230e-01	 1.225852e+01
 1.616031e+00	 2.017167e-01	 1.226037e+01
 1.605959e+00	 2.704422e-01	 1.226039e+01
 1.592767e+00	 3.396144e-01	 1.227178e+01
 1.657143e+00	 0.000000e+00	 1.206803e+01
 1.655768e+00	 6.749573e-02	 1.213201e+01
 1.651555e+00	 1.359673e-01	 1.215871e+01
 1.644382e+00	 2.052556e-01	 1.216682e+01
 1.634134e+00	 2.751868e-01	 1.217238e+01
 1.620710e+00	 3.455726e-01	 1.218817e+01
 1.685714e+00	 0.000000e+00	 1.196331e+01
 1.684315e+00	 6.865945e-02	 1.203637e+01
 1.680031e+00	 1.383115e-01	 1.207069e+01
 1.672734e+00	 2.087945e-01	 1.208526e+01
 1.662309e+00	 2.799314e-01	 1.209602e+01
 1.648654e+00	 3.515307e-01	 1.211527e+01
 1.714286e+00	 0.000000e+00	 1.186698e+01
 1.712863e+00	 6.982317e-02	 1.195022e+01
 1.708506e+00	 1.406558e-01	 1.199289e+01
 1.701085e+00	 2.123334e-01	 1.201420e+01
 1.690484e+00	 2.846760e-01	 1.202994e+01
 1.676597e+00	 3.574889e-01	 1.205184e+01
 1.536881e+00	 3.276981e-01	 1.247656e+01
 1.521057e+00	 3.946829e-01	 1.246302e+01
 1.502071e+00	 4.617045e-01	 1.241054e+01
 1.479873e+00	 5.285496e-01	 1.232711e+01
 1.454430e+00	 5.949966e-01	 1.221923e+01
 1.425731e+00	 6.608173e-01	 1.209169e+01
 1.564824e+00	 3.336563e-01	 1.236742e+01
 1.548712e+00	 4.018590e-01	 1.236206e+01
 1.529381e+00	 4.700991e-01	 1.232047e+01
 1.506779e+00	 5.381596e-01	 1.225001e+01
 1.480874e+00	 6.058147e-01	 1.215643e+01
 1.451653e+00	 6.728322e-01	 1.204373e+01
 1.592767e+00	 3.396144e-01	 1.227178e+01
 1.576368e+00	 4.090351e-01	 1.227303e+01
 1.556692e+00	 4.784937e-01	 1.224076e+01
 1.533686e+00	 5.477696e-01	 1.218165e+01
 1.507318e+00	 6.166328e-01	 1.210071e+01
 1.477576e+00	 6.848470e-01	 1.200103e+01
 1.620710e+00	 3.455726e-01	 1.218817e+01
 1.604023e+00	 4.162111e-01	 1.219461e+01
 1.584002e+00	 4.868884e-01	 1.217025e+01
 1.560593e+00	 5.573795e-01	 1.212107e+01
 1.533763e+00	 6.274509e-01	 1.205122e+01
 1.503498e+00	 6.968619e-01	 1.196292e+01
 1.648654e+00	 3.515307e-01	 1.211527e+01
 1.631679e+00	 4.233872e-01	 1.212563e+01
 1.611312e+00	 4.952830e-01	 1.210792e+01
 1.587500e+00	 5.669895e-01	 1.206734e+01
 1.560207e+00	 6.382691e-01	 1.200720e+01
 1.529420e+00	 7.088768e-01	 1.192879e+01
 1.676597e+00	 3.574889e-01	 1.205184e+01
 1.659334e+00	 4.305632e-01	 1.206498e+01
 1.638623e+00	 5.036776e-01	 1.205279e+01
 1.614407e+00	 5.765995e-01	 1.201965e+01
 1.586651e+00	 6.490872e-01	 1.196799e+01
 1.555343e+00	 7.208916e-01	 1.189808e+01
 1.425731e+00	 6.608173e-01	 1.209169e+01
 1.393783e+00	 7.257792e-01	 1.192478e+01
 1.358619e+00	 7.896475e-01	 1.170027e+01
 1.320289e+00	 8.521883e-01	 1.142267e+01
 1.278869e+00	 9.131706e-01	 1.109456e+01
 1.234458e+00	 9.723692e-01	 1.071658e+01
 1.451653e+00	 6.728322e-01	 1.204373e+01
 1.419125e+00	 7.389751e-01	 1.189144e+01
 1.383321e+00	 8.040048e-01	 1.168187e+01
 1.344294e+00	 8.676827e-01	 1.141934e+01
 1.302122e+00	 9.297737e-01	 1.110585e+01
 1.256902e+00	 9.900487e-01	 1.074134e+01
 1.477576e+00	 6.848470e-01	 1.200103e+01
 1.444467e+00	 7.521711e-01	 1.186191e+01
 1.408023e+00	 8.183620e-01	 1.166510e+01
 1.368299e+00	 8.831770e-01	 1.141546e+01
 1.325374e+00	 9.463768e-01	 1.111475e+01
 1.279347e+00	 1.007728e+00	 1.076247e+01
 1.503498e+00	 6.968619e-01	 1.196292e+01
 1.469808e+00	 7.653671e-01	 1.183527e+01
 1.432725e+00	 8.327192e-01	 1.164994e+01
 1.392305e+00	 8.986713e-01	 1.141128e+01
 1.348626e+00	 9.629799e-01	 1.112185e+01
 1.301792e+00	 1.025408e+00	 1.078091e+01
 1.529420e+00	 7.088768e-01	 1.192879e+01
 1.495150e+00	 7.785631e-01	 1.181106e+01
 1.457427e+00	 8.470764e-01	 1.163598e+01
 1.416310e+00	 9.141657e-01	 1.140714e+01
 1.371878e+00	 9.795830e-01	 1.112775e+01
 1.324236e+00	 1.043087e+00	 1.079760e+01
 1.555343e+00	 7.208916e-01	 1.189808e+01
 1.520491e+00	 7.917591e-01	 1.178889e+01
 1.482129e+00	 8.614337e-01	 1.162287e+01
 1.440315e+00	 9.296600e-01	 1.140332e+01
 1.395130e+00	 9.961861e-01	 1.113310e+01
 1.346681e+00	 1.060766e+00	 1.081348e+01
 1.234458e+00	 9.723692e-01	 1.071658e+01
 1.187173e+00	 1.029567e+00	 1.028828e+01
 1.137154e+00	 1.084560e+00	 9.812079e+00
 1.084560e+00	 1.137154e+00	 9.292126e+00
 1.029567e+00	 1.187173e+00	 8.733696e+00
 9.723692e-01	 1.234458e+00	 8.143715e+00
 1.256902e+00	 9.900487e-01	 1.074134e+01
 1.208757e+00	 1.048287e+00	 1.032612e+01
 1.157829e+00	 1.104279e+00	 9.863684e+00
 1.104279e+00	 1.157829e+00	 9.357897e+00
 1.048287e+00	 1.208757e+00	 8.813956e+00
 9.900487e-01	 1.256902e+00	 8.238956e+00
 1.279347e+00	 1.007728e+00	 1.076247e+01
 1.230342e+00	 1.067006e+00	 1.035993e+01
 1.178505e+00	 1.123998e+00	 9.911411e+00
 1.123998e+00	 1.178505e+00	 9.420064e+00
 1.067006e+00	 1.230342e+00	 8.890427e+00
 1.007728e+00	 1.279347e+00	 8.329139e+00
 1.301792e+00	 1.025408e+00	 1.078091e+01
 1.251927e+00	 1.085726e+00	 1.039088e+01
 1.199180e+00	 1.143717e+00	 9.956537e+00
 1.143717e+00	 1.199180e+00	 9.479825e+00
 1.085726e+00	 1.251927e+00	 8.964093e+00
 1.025408e+00	 1.301792e+00	 8.414916e+00
 1.324236e+00	 1.043087e+00	 1.079760e+01
 1.273512e+00	 1.104445e+00	 1.042016e+01
 1.219856e+00	 1.163437e+00	 1.000033e+01
 1.163437e+00	 1.219856e+00	 9.538380e+00
 1.104445e+00	 1.273512e+00	 9.035957e+00
 1.043087e+00	 1.324236e+00	 8.496983e+00
 1.346681e+00	 1.060766e+00	 1.081348e+01
 1.295097e+00	 1.123165e+00	 1.044896e+01
 1.240531e+00	 1.183156e+00	 1.004403e+01
 1.183156e+00	 1.240531e+00	 9.596923e+00
 1.123165e+00	 1.295097e+00	 9.107036e+00
 1.060766e+00	 1.346681e+00	 8.576078e+00
 9.723692e-01	 1.234458e+00	 8.143715e+00
 9.131706e-01	 1.278869e+00	 7.532458e+00
 8.521883e-01	 1.320289e+00	 6.905833e+00
 7.896475e-01	 1.358619e+00	 6.267449e+00
 7.257792e-01	 1.393783e+00	 5.623194e+00
 6.608173e-01	 1.425731e+00	 4.980959e+00
 9.900487e-01	 1.256902e+00	 8.238956e+00
 9.297737e-01	 1.302122e+00	 7.642378e+00
 8.676827e-01	 1.344294e+00	 7.027690e+00
 8.040048e-01	 1.383321e+00	 6.396547e+00
 7.389751e-01	 1.419125e+00	 5.753114e+00
 6.728322e-01	 1.451653e+00	 5.114742e+00
 1.007728e+00	 1.279347e+00	 8.329139e+00
 9.463768e-01	 1.325374e+00	 7.744102e+00
 8.831770e-01	 1.368299e+00	 7.136403e+00
 8.183620e-01	 1.408023e+00	 6.506452e+00
 7.521711e-01	 1.444467e+00	 5.862565e+00
 6.848470e-01	 1.477576e+00	 5.244556e+00
 1.025408e+00	 1.301792e+00	 8.414916e+00
 9.629799e-01	 1.348626e+00	 7.838022e+00
 8.986713e-01	 1.392305e+00	 7.232327e+00
 8.327192e-01	 1.432725e+00	 6.597992e+00
 7.653671e-01	 1.469808e+00	 5.970990e+00
 6.968619e-01	 1.503498e+00	 5.371530e+00
 1.043087e+00	 1.324236e+00	 8.496983e+00
 9.795830e-01	 1.371878e+00	 7.924599e+00
 9.141657e-01	 1.416310e+00	 7.315887e+00
 8.470764e-01	 1.457427e+00	 6.686621e+00
 7.785631e-01	 1.495150e+00	 6.080593e+00
 7.088768e-01	 1.529420e+00	 5.496565e+00
 1.060766e+00	 1.346681e+00	 8.576078e+00
 9.961861e-01	 1.395130e+00	 8.004350e+00
 9.296600e-01	 1.440315e+00	 7.390064e+00
 8.614337e-01	 1.482129e+00	 6.780557e+00
 7.917591e-01	 1.520491e+00	 6.191761e+00
 7.208916e-01	 1.555343e+00	 5.620508e+00
 6.608173e-01	 1.425731e+00	 4.980959e+00
 5.949966e-01	 1.454430e+00	 4.366286e+00
 5.285496e-01	 1.479873e+00	 3.801540e+00
 4.617045e-01	 1.502071e+00	 3.280925e+00
 3.946829e-01	 1.521057e+00	 2.797835e+00
 3.276981e-01	 1.536881e+00	 2.344936e+00
 6.728322e-01	 1.451653e+00	 5.114742e+00
 6.058147e-01	 1.480874e+00	 4.516816e+00
 5.381596e-01	 1.506779e+00	 3.960304e+00
 4.700991e-01	 1.529381e+00	 3.440002e+00
 4.018590e-01	 1.548712e+00	 2.950201e+00
 3.336563e-01	 1.564824e+00	 2.484567e+00
 6.848470e-01	 1.477576e+00	 5.244556e+00
 6.166328e-01	 1.507318e+00	 4.660933e+00
 5.477696e-01	 1.533686e+00	 4.111598e+00
 4.784937e-01	 1.556692e+00	 3.591791e+00
 4.090351e-01	 1.576368e+00	 3.096304e+00
 3.396144e-01	 1.592767e+00	 2.619338e+00
 6.968619e-01	 1.503498e+00	 5.371530e+00
 6.274509e-01	 1.533763e+00	 4.800040e+00
 5.573795e-01	 1.560593e+00	 4.257012e+00
 4.868884e-01	 1.584002e+00	 3.737842e+00
 4.162111e-01	 1.604023e+00	 3.237443e+00
 3.455726e-01	 1.620710e+00	 2.750111e+00
 7.088768e-01	 1.529420e+00	 5.496565e+00
 6.382691e-01	 1.560207e+00	 4.935448e+00
 5.669895e-01	 1.587500e+00	 4.398040e+00
 4.952830e-01	 1.611312e+00	 3.879614e+00
 4.233872e-01	 1.631679e+00	 3.374847e+00
 3.515307e-01	 1.648654e+00	 2.877710e+00
 7.208916e-01	 1.555343e+00	 5.620508e+00
 6.490872e-01	 1.586651e+00	 5.068392e+00
 5.765995e-01	 1.614407e+00	 4.536086e+00
 5.036776e-01	 1.638623e+00	 4.018481e+00
 4.305632e-01	 1.659334e+00	 3.509679e+00
 3.574889e-01	 1.676597e+00	 3.002918e+00
 3.276981e-01	 1.536881e+00	 2.344936e+00
 2.609530e-01	 1.549610e+00	 1.923838e+00
 1.946389e-01	 1.559328e+00	 1.562671e+00
 1.289345e-01	 1.566130e+00	 1.290892e+00
 6.400457e-02	 1.570125e+00	 1.133883e+00
-2.307589e-07	 1.571435e+00	 1.112039e+00
 3.336563e-01	 1.564824e+00	 2.484567e+00
 2.656976e-01	 1.577785e+00	 2.047811e+00
 1.981778e-01	 1.587679e+00	 1.671074e+00
 1.312787e-01	 1.594605e+00	 1.384878e+00
 6.516829e-02	 1.598672e+00	 1.215790e+00
-3.941832e-07	 1.600007e+00	 1.140510e+00
 3.396144e-01	 1.592767e+00	 2.619338e+00
 2.704422e-01	 1.605959e+00	 2.168433e+00
 2.017167e-01	 1.616031e+00	 1.776915e+00
 1.336230e-01	 1.623080e+00	 1.475171e+00
 6.633201e-02	 1.627220e+00	 1.289935e+00
-5.966579e-07	 1.628578e+00	 1.158599e+00
 3.455726e-01	 1.620710e+00	 2.750111e+00
 2.751868e-01	 1.634134e+00	 2.286116e+00
 2.052556e-01	 1.644382e+00	 1.880347e+00
 1.359673e-01	 1.651555e+00	 1.561912e+00
 6.749573e-02	 1.655768e+00	 1.356755e+00
-8.218515e-07	 1.657150e+00	 1.162717e+00
 3.515307e-01	 1.648654e+00	 2.877710e+00
 2.799314e-01	 1.662309e+00	 2.401266e+00
 2.087945e-01	 1.672734e+00	 1.981532e+00
 1.383115e-01	 1.680031e+00	 1.645250e+00
 6.865945e-02	 1.684315e+00	 1.416669e+00
-1.053432e-06	 1.685721e+00	 1.153965e+00
 3.574889e-01	 1.676597e+00	 3.002918e+00
 2.846760e-01	 1.690484e+00	 2.514277e+00
 2.123334e-01	 1.701085e+00	 2.080635e+00
 1.406558e-01	 1.708506e+00	 1.725339e+00
 6.982317e-02	 1.712863e+00	 1.470083e+00
-1.275069e-06	 1.714293e+00	 1.133382e+00
 1.714286e+00	 0.000000e+00	 1.186698e+01
 1.712863e+00	 6.982317e-02	 1.195022e+01
 1.708506e+00	 1.406558e-01	 1.199289e+01
 1.701085e+00	 2.123334e-01	 1.201420e+01
 1.690484e+00	 2.846760e-01	 1.202994e+01
 1.676597e+00	 3.574889e-01	 1.205184e+01
 1.742857e+00	 0.000000e+00	 1.178084e+01
 1.741411e+00	 7.098689e-02	 1.187341e+01
 1.736981e+00	 1.430000e-01	 1.192431e+01
 1.729436e+00	 2.158723e-01	 1.195260e+01
 1.718658e+00	 2.894206e-01	 1.197351e+01
 1.704540e+00	 3.634470e-01	 1.199777e+01
 1.771429e+00	 0.000000e+00	 1.170725e+01
 1.769959e+00	 7.215061e-02	 1.180635e+01
 1.765456e+00	 1.453443e-01	 1.186442e+01
 1.757788e+00	 2.194112e-01	 1.189974e+01
 1.746833e+00	 2.941652e-01	 1.192628e+01
 1.732483e+00	 3.694052e-01	 1.195302e+01
 1.800000e+00	 0.000000e+00	 1.164552e+01
 1.798506e+00	 7.331433e-02	 1.174834e+01
 1.793931e+00	 1.476886e-01	 1.181246e+01
 1.786139e+00	 2.229500e-01	 1.185477e+01
 1.775008e+00	 2.989098e-01	 1.188732e+01
 1.760427e+00	 3.753633e-01	 1.191662e+01
 1.828571e+00	 0.000000e+00	 1.159499e+01
 1.827054e+00	 7.447805e-02	 1.169875e+01
 1.822406e+00	 1.500328e-01	 1.176776e+01
 1.814491e+00	 2.264889e-01	 1.181694e+01
 1.803183e+00	 3.036544e-01	 1.185579e+01
 1.788370e+00	 3.813215e-01	 1.188766e+01
 1.857143e+00	 0.000000e+00	 1.155507e+01
 1.855602e+00	 7.564177e-02	 1.165700e+01
 1.850881e+00	 1.523771e-01	 1.172968e+01
 1.842842e+00	 2.300278e-01	 1.178553e+01
 1.831357e+00	 3.083990e-01	 1.183090e+01
 1.816313e+00	 3.872796e-01	 1.186534e+01
 1.676597e+00	 3.574889e-01	 1.205184e+01
 1.659334e+00	 4.305632e-01	 1.206498e+01
 1.638623e+00	 5.036776e-01	 1.205279e+01
 1.614407e+00	 5.765995e-01	 1.201965e+01
 1.586651e+00	 6.490872e-01	 1.196799e+01
 1.555343e+00	 7.208916e-01	 1.189808e+01
 1.704540e+00	 3.634470e-01	 1.199777e+01
 1.686990e+00	 4.377393e-01	 1.201292e+01
 1.665933e+00	 5.120722e-01	 1.200524e+01
 1.641313e+00	 5.862095e-01	 1.197835e+01
 1.613095e+00	 6.599053e-01	 1.193379e+01
 1.581265e+00	 7.329065e-01	 1.187091e+01
 1.732483e+00	 3.694052e-01	 1.195302e+01
 1.714646e+00	 4.449153e-01	 1.196965e+01
 1.693243e+00	 5.204669e-01	 1.196559e+01
 1.668220e+00	 5.958195e-01	 1.194371e+01
 1.639539e+00	 6.707234e-01	 1.190479e+01
 1.607187e+00	 7.449213e-01	 1.184735e+01
 1.760427e+00	 3.753633e-01	 1.191662e+01
 1.742301e+00	 4.520914e-01	 1.193422e+01
 1.720554e+00	 5.288615e-01	 1.193290e+01
 1.695127e+00	 6.054295e-01	 1.191490e+01
 1.665984e+00	 6.815415e-01	 1.188028e+01
 1.633110e+00	 7.569362e-01	 1.182688e+01
 1.788370e+00	 3.813215e-01	 1.188766e+01
 1.769957e+00	 4.592674e-01	 1.190573e+01
 1.747864e+00	 5.372561e-01	 1.190635e+01
 1.722034e+00	 6.150395e-01	 1.189116e+01
 1.692428e+00	 6.923597e-01	 1.185963e+01
 1.659032e+00	 7.689511e-01	 1.180901e+01
 1.816313e+00	 3.872796e-01	 1.186534e+01
 1.797612e+00	 4.664435e-01	 1.188336e+01
 1.775175e+00	 5.456507e-01	 1.188515e+01
 1.748940e+00	 6.246495e-01	 1.187179e+01
 1.718872e+00	 7.031778e-01	 1.184226e+01
 1.684955e+00	 7.809659e-01	 1.179331e+01
 1.555343e+00	 7.208916e-01	 1.189808e+01
 1.520491e+00	 7.917591e-01	 1.178889e+01
 1.482129e+00	 8.614337e-01	 1.162287e+01
 1.440315e+00	 9.296600e-01	 1.140332e+01
 1.395130e+00	 9.961861e-01	 1.113310e+01
 1.346681e+00	 1.060766e+00	 1.081348e+01
 1.581265e+00	 7.329065e-01	 1.187091e+01
 1.545833e+00	 8.049551e-01	 1.176883e+01
 1.506832e+00	 8.757909e-01	 1.161072e+01
 1.464320e+00	 9.451543e-01	 1.139973e+01
 1.418383e+00	 1.012789e+00	 1.113834e+01
 1.369126e+00	 1.078446e+00	 1.082881e+01
 1.607187e+00	 7.449213e-01	 1.184735e+01
 1.571174e+00	 8.181511e-01	 1.175095e+01
 1.531534e+00	 8.901481e-01	 1.159962e+01
 1.488326e+00	 9.606487e-01	 1.139640e+01
 1.441635e+00	 1.029392e+00	 1.114369e+01
 1.391570e+00	 1.096125e+00	 1.084363e+01
 1.633110e+00	 7.569362e-01	 1.182688e+01
 1.596516e+00	 8.313470e-01	 1.173490e+01
 1.556236e+00	 9.045054e-01	 1.158940e+01
 1.512331e+00	 9.761430e-01	 1.139334e+01
 1.464887e+00	 1.045995e+00	 1.114911e+01
 1.414015e+00	 1.113805e+00	 1.085861e+01
 1.659032e+00	 7.689511e-01	 1.180901e+01
 1.621857e+00	 8.445430e-01	 1.172037e+01
 1.580938e+00	 9.188626e-01	 1.157992e+01
 1.536336e+00	 9.916373e-01	 1.139058e+01
 1.488139e+00	 1.062599e+00	 1.115477e+01
 1.436460e+00	 1.131484e+00	 1.087439e+01
 1.684955e+00	 7.809659e-01	 1.179331e+01
 1.647199e+00	 8.577390e-01	 1.170707e+01
 1.605640e+00	 9.332198e-01	 1.157106e+01
 1.560341e+00	 1.007132e+00	 1.138816e+01
 1.511391e+00	 1.079202e+00	 1.116086e+01
 1.458905e+00	 1.149164e+00	 1.089116e+01
 1.346681e+00	 1.060766e+00	 1.081348e+01
 1.295097e+00	 1.123165e+00	 1.044896e+01
 1.240531e+00	 1.183156e+00	 1.004403e+01
 1.183156e+00	 1.240531e+00	 9.596923e+00
 1.123165e+00	 1.295097e+00	 9.107036e+00
 1.060766e+00	 1.346681e+00	 8.576078e+00
 1.369126e+00	 1.078446e+00	 1.082881e+01
 1.316682e+00	 1.141884e+00	 1.047706e+01
 1.261207e+00	 1.202875e+00	 1.008670e+01
 1.202875e+00	 1.261207e+00	 9.653569e+00
 1.141884e+00	 1.316682e+00	 9.174477e+00
 1.078446e+00	 1.369126e+00	 8.648493e+00
 1.391570e+00	 1.096125e+00	 1.084363e+01
 1.338267e+00	 1.160603e+00	 1.050400e+01
 1.281882e+00	 1.222595e+00	 1.012711e+01
 1.222595e+00	 1.281882e+00	 9.706228e+00
 1.160603e+00	 1.338267e+00	 9.235316e+00
 1.096125e+00	 1.391570e+00	 8.710530e+00
 1.414015e+00	 1.113805e+00	 1.085861e+01
 1.359852e+00	 1.179323e+00	 1.053057e+01
 1.302558e+00	 1.242314e+00	 1.016612e+01
 1.242314e+00	 1.302558e+00	 9.755782e+00
 1.179323e+00	 1.359852e+00	 9.290415e+00
 1.113805e+00	 1.414015e+00	 8.762984e+00
 1.436460e+00	 1.131484e+00	 1.087439e+01
 1.381437e+00	 1.198042e+00	 1.055754e+01
 1.323233e+00	 1.262033e+00	 1.020459e+01
 1.262033e+00	 1.323233e+00	 9.803109e+00
 1.198042e+00	 1.381437e+00	 9.340638e+00
 1.131484e+00	 1.436460e+00	 8.807594e+00
 1.458905e+00	 1.149164e+00	 1.089116e+01
 1.403022e+00	 1.216762e+00	 1.058568e+01
 1.343909e+00	 1.281752e+00	 1.024334e+01
 1.281752e+00	 1.343909e+00	 9.849077e+00
 1.216762e+00	 1.403022e+00	 9.386851e+00
 1.149164e+00	 1.458905e+00	 8.855827e+00
 1.060766e+00	 1.346681e+00	 8.576078e+00
 9.961861e-01	 1.395130e+00	 8.004350e+00
 9.296600e-01	 1.440315e+00	 7.390064e+00
 8.614337e-01	 1.482129e+00	 6.780557e+00
 7.917591e-01	 1.520491e+00	 6.191761e+00
 7.208916e-01	 1.555343e+00	 5.620508e+00
 1.078446e+00	 1.369126e+00	 8.648493e+00
 1.012789e+00	 1.418383e+00	 8.073074e+00
 9.451543e-01	 1.464320e+00	 7.465955e+00
 8.757909e-01	 1.506832e+00	 6.875248e+00
 8.049551e-01	 1.545833e+00	 6.300600e+00
 7.329065e-01	 1.581265e+00	 5.740251e+00
 1.096125e+00	 1.391570e+00	 8.710530e+00
 1.029392e+00	 1.441635e+00	 8.129514e+00
 9.606487e-01	 1.488326e+00	 7.541451e+00
 8.901481e-01	 1.531534e+00	 6.966198e+00
 8.181511e-01	 1.571174e+00	 6.403194e+00
 7.449213e-01	 1.607187e+00	 5.852537e+00
 1.113805e+00	 1.414015e+00	 8.762984e+00
 1.045995e+00	 1.464887e+00	 8.187453e+00
 9.761430e-01	 1.512331e+00	 7.616515e+00
 9.045054e-01	 1.556236e+00	 7.053521e+00
 8.313470e-01	 1.596516e+00	 6.499854e+00
 7.569362e-01	 1.633110e+00	 5.957913e+00
 1.131484e+00	 1.436460e+00	 8.807594e+00
 1.062599e+00	 1.488139e+00	 8.248528e+00
 9.916373e-01	 1.536336e+00	 7.691103e+00
 9.188626e-01	 1.580938e+00	 7.137310e+00
 8.445430e-01	 1.621857e+00	 6.590869e+00
 7.689511e-01	 1.659032e+00	 6.056891e+00
 1.149164e+00	 1.458905e+00	 8.855827e+00
 1.079202e+00	 1.511391e+00	 8.312611e+00
 1.007132e+00	 1.560341e+00	 7.765154e+00
 9.332198e-01	 1.605640e+00	 7.217641e+00
 8.577390e-01	 1.647199e+00	 6.676497e+00
 7.809659e-01	 1.684955e+00	 6.149943e+00
 7.208916e-01	 1.555343e+00	 5.620508e+00
 6.490872e-01	 1.586651e+00	 5.068392e+00
 5.765995e-01	 1.614407e+00	 4.536086e+00
 5.036776e-01	 1.638623e+00	 4.018481e+00
 4.305632e-01	 1.659334e+00	 3.509679e+00
 3.574889e-01	 1.676597e+00	 3.002918e+00
 7.329065e-01	 1.581265e+00	 5.740251e+00
 6.599053e-01	 1.613095e+00	 5.196463e+00
 5.862095e-01	 1.641313e+00	 4.669357e+00
 5.120722e-01	 1.665933e+00	 4.153390e+00
 4.377393e-01	 1.686990e+00	 3.641989e+00
 3.634470e-01	 1.704540e+00	 3.127529e+00
 7.449213e-01	 1.607187e+00	 5.852537e+00
 6.707234e-01	 1.639539e+00	 5.317021e+00
 5.958195e-01	 1.668220e+00	 4.795873e+00
 5.204669e-01	 1.693243e+00	 4.283262e+00
 4.449153e-01	 1.714646e+00	 3.772071e+00
 3.694052e-01	 1.732483e+00	 3.253915e+00
 7.569362e-01	 1.633110e+00	 5.957913e+00
 6.815415e-01	 1.665984e+00	 5.430856e+00
 6.054295e-01	 1.695127e+00	 4.916654e+00
 5.288615e-01	 1.720554e+00	 4.409325e+00
 4.520914e-01	 1.742301e+00	 3.901332e+00
 3.753633e-01	 1.760427e+00	 3.383633e+00
 7.689511e-01	 1.659032e+00	 6.056891e+00
 6.923597e-01	 1.692428e+00	 5.538708e+00
 6.150395e-01	 1.722034e+00	 5.032657e+00
 5.372561e-01	 1.747864e+00	 4.532739e+00
 4.592674e-01	 1.769957e+00	 4.031104e+00
 3.813215e-01	 1.788370e+00	 3.518157e+00
 7.809659e-01	 1.684955e+00	 6.149943e+00
 7.031778e-01	 1.718872e+00	 5.641271e+00
 6.246495e-01	 1.748940e+00	 5.144786e+00
 5.456507e-01	 1.775175e+00	 4.654594e+00
 4.664435e-01	 1.797612e+00	 4.162648e+00
 3.872796e-01	 1.816313e+00	 3.658880e+00
 3.574889e-01	 1.676597e+00	 3.002918e+00
 2.846760e-01	 1.690484e+00	 2.514277e+00
 2.123334e-01	 1.701085e+00	 2.080635e+00
 1.406558e-01	 1.708506e+00	 1.725339e+00
 6.982317e-02	 1.712863e+00	 1.470083e+00
-1.275069e-06	 1.714293e+00	 1.133382e+00
 3.634470e-01	 1.704540e+00	 3.127529e+00
 2.894206e-01	 1.718658e+00	 2.629269e+00
 2.158723e-01	 1.729436e+00	 2.183197e+00
 1.430000e-01	 1.736981e+00	 1.806302e+00
 7.098689e-02	 1.741411e+00	 1.514959e+00
-1.473137e-06	 1.742864e+00	 1.086283e+00
 3.694052e-01	 1.732483e+00	 3.253915e+00
 2.941652e-01	 1.746833e+00	 2.751065e+00
 2.194112e-01	 1.757788e+00	 2.295149e+00
 1.453443e-01	 1.765456e+00	 1.892044e+00
 7.215061e-02	 1.769959e+00	 1.548267e+00
-1.644842e-06	 1.771435e+00	 9.961606e-01
 3.753633e-01	 1.760427e+00	 3.383633e+00
 2.989098e-01	 1.775008e+00	 2.881039e+00
 2.229500e-01	 1.786139e+00	 2.417217e+00
 1.476886e-01	 1.793931e+00	 1.982410e+00
 7.331433e-02	 1.798506e+00	 1.568963e+00
-1.790097e-06	 1.800007e+00	 8.613663e-01
 3.813215e-01	 1.788370e+00	 3.518157e+00
 3.036544e-01	 1.803183e+00	 3.020495e+00
 2.264889e-01	 1.814491e+00	 2.550099e+00
 1.500328e-01	 1.822406e+00	 2.077269e+00
 7.447805e-02	 1.827054e+00	 1.576079e+00
-1.908816e-06	 1.828578e+00	 6.803651e-01
 3.872796e-01	 1.816313e+00	 3.658880e+00
 3.083990e-01	 1.831357e+00	 3.170668e+00
 2.300278e-01	 1.842842e+00	 2.694460e+00
 1.523771e-01	 1.850881e+00	 2.176511e+00
 7.564177e-02	 1.855602e+00	 1.568718e+00
-2.000910e-06	 1.857149e+00	 4.517265e-01
 1.857143e+00	 0.000000e+00	 1.155507e+01
 1.855602e+00	 7.564177e-02	 1.165700e+01
 1.850881e+00	 1.523771e-01	 1.172968e+01
 1.842842e+00	 2.300278e-01	 1.178553e+01
 1.831357e+00	 3.083990e-01	 1.183090e+01
 1.816313e+00	 3.872796e-01	 1.186534e+01
 1.885714e+00	 0.000000e+00	 1.152936e+01
 1.884149e+00	 7.680549e-02	 1.162323e+01
 1.879356e+00	 1.547214e-01	 1.169738e+01
 1.871193e+00	 2.335667e-01	 1.175986e+01
 1.859532e+00	 3.131436e-01	 1.181231e+01
 1.844257e+00	 3.932378e-01	 1.184946e+01
 1.914286e+00	 0.000000e+00	 1.152920e+01
 1.912697e+00	 7.796921e-02	 1.160064e+01
 1.907831e+00	 1.570656e-01	 1.166963e+01
 1.899545e+00	 2.371056e-01	 1.173678e+01
 1.887707e+00	 3.178882e-01	 1.179669e+01
 1.872200e+00	 3.991959e-01	 1.183775e+01
 1.942857e+00	 0.000000e+00	 1.156523e+01
 1.941245e+00	 7.913293e-02	 1.159305e+01
 1.936306e+00	 1.594099e-01	 1.164532e+01
 1.927896e+00	 2.406445e-01	 1.171219e+01
 1.915882e+00	 3.226328e-01	 1.177901e+01
 1.900143e+00	 4.051541e-01	 1.182647e+01
 1.971429e+00	 0.000000e+00	 1.164748e+01
 1.969793e+00	 8.029665e-02	 1.160409e+01
 1.964781e+00	 1.617541e-01	 1.162339e+01
 1.956248e+00	 2.441834e-01	 1.168224e+01
 1.944056e+00	 3.273774e-01	 1.175456e+01
 1.928086e+00	 4.111122e-01	 1.181209e+01
 2.000000e+00	 0.000000e+00	 1.178542e+01
 1.998340e+00	 8.146036e-02	 1.163720e+01
 1.993257e+00	 1.640984e-01	 1.160288e+01
 1.984599e+00	 2.477223e-01	 1.164330e+01
 1.972231e+00	 3.321220e-01	 1.171892e+01
 1.956030e+00	 4.170704e-01	 1.179131e+01
 1.816313e+00	 3.872796e-01	 1.186534e+01
 1.797612e+00	 4.664435e-01	 1.188336e+01
 1.775175e+00	 5.456507e-01	 1.188515e+01
 1.748940e+00	 6.246495e-01	 1.187179e+01
 1.718872e+00	 7.031778e-01	 1.184226e+01
 1.684955e+00	 7.809659e-01	 1.179331e+01
 1.844257e+00	 3.932378e-01	 1.184946e+01
 1.825268e+00	 4.736195e-01	 1.186676e+01
 1.802485e+00	 5.540454e-01	 1.186858e+01
 1.775847e+00	 6.342595e-01	 1.185589e+01
 1.745316e+00	 7.139959e-01	 1.182739e+01
 1.710877e+00	 7.929808e-01	 1.177946e+01
 1.872200e+00	 3.991959e-01	 1.183775e+01
 1.852923e+00	 4.807956e-01	 1.185494e+01
 1.829795e+00	 5.624400e-01	 1.185640e+01
 1.802754e+00	 6.438695e-01	 1.184365e+01
 1.771760e+00	 7.248140e-01	 1.181558e+01
 1.736799e+00	 8.049956e-01	 1.176834e+01
 1.900143e+00	 4.051541e-01	 1.182647e+01
 1.880579e+00	 4.879716e-01	 1.184627e+01
 1.857106e+00	 5.708346e-01	 1.184854e+01
 1.829661e+00	 6.534795e-01	 1.183603e+01
 1.798204e+00	 7.356321e-01	 1.180825e+01
 1.762722e+00	 8.170105e-01	 1.176120e+01
 1.928086e+00	 4.111122e-01	 1.181209e+01
 1.908235e+00	 4.951477e-01	 1.183921e+01
 1.884416e+00	 5.792292e-01	 1.184495e+01
 1.856568e+00	 6.630895e-01	 1.183395e+01
 1.824649e+00	 7.464503e-01	 1.180673e+01
 1.788644e+00	 8.290254e-01	 1.175926e+01
 1.956030e+00	 4.170704e-01	 1.179131e+01
 1.935890e+00	 5.023237e-01	 1.183234e+01
 1.911726e+00	 5.876239e-01	 1.184560e+01
 1.883474e+00	 6.726995e-01	 1.183828e+01
 1.851093e+00	 7.572684e-01	 1.181228e+01
 1.814566e+00	 8.410402e-01	 1.176366e+01
 1.684955e+00	 7.809659e-01	 1.179331e+01
 1.647199e+00	 8.577390e-01	 1.170707e+01
 1.605640e+00	 9.332198e-01	 1.157106e+01
 1.560341e+00	 1.007132e+00	 1.138816e+01
 1.511391e+00	 1.079202e+00	 1.116086e+01
 1.458905e+00	 1.149164e+00	 1.089116e+01
 1.710877e+00	 7.929808e-01	 1.177946e+01
 1.672540e+00	 8.709350e-01	 1.169540e+01
 1.630342e+00	 9.475770e-01	 1.156395e+01
 1.584347e+00	 1.022626e+00	 1.138775e+01
 1.534643e+00	 1.095805e+00	 1.116915e+01
 1.481349e+00	 1.166843e+00	 1.091002e+01
 1.736799e+00	 8.049956e-01	 1.176834e+01
 1.697882e+00	 8.841310e-01	 1.168649e+01
 1.655044e+00	 9.619343e-01	 1.156002e+01
 1.608352e+00	 1.038120e+00	 1.139089e+01
 1.557896e+00	 1.112408e+00	 1.118083e+01
 1.503794e+00	 1.184523e+00	 1.093111e+01
 1.762722e+00	 8.170105e-01	 1.176120e+01
 1.723223e+00	 8.973270e-01	 1.168118e+01
 1.679747e+00	 9.762915e-01	 1.155962e+01
 1.632357e+00	 1.053615e+00	 1.139742e+01
 1.581148e+00	 1.129011e+00	 1.119522e+01
 1.526239e+00	 1.202202e+00	 1.095326e+01
 1.788644e+00	 8.290254e-01	 1.175926e+01
 1.748565e+00	 9.105230e-01	 1.168025e+01
 1.704449e+00	 9.906487e-01	 1.156308e+01
 1.656362e+00	 1.069109e+00	 1.140718e+01
 1.604400e+00	 1.145614e+00	 1.121169e+01
 1.548683e+00	 1.219881e+00	 1.097536e+01
 1.814566e+00	 8.410402e-01	 1.176366e+01
 1.773906e+00	 9.237189e-01	 1.168443e+01
 1.729151e+00	 1.005006e+00	 1.157072e+01
 1.680368e+00	 1.084603e+00	 1.142005e+01
 1.627652e+00	 1.162217e+00	 1.122967e+01
 1.571128e+00	 1.237561e+00	 1.099639e+01
 1.458905e+00	 1.149164e+00	 1.089116e+01
 1.403022e+00	 1.216762e+00	 1.058568e+01
 1.343909e+00	 1.281752e+00	 1.024334e+01
 1.281752e+00	 1.343909e+00	 9.849077e+00
 1.216762e+00	 1.403022e+00	 9.386851e+00
 1.149164e+00	 1.458905e+00	 8.855827e+00
 1.481349e+00	 1.166843e+00	 1.091002e+01
 1.424607e+00	 1.235481e+00	 1.061500e+01
 1.364584e+00	 1.301472e+00	 1.028039e+01
 1.301472e+00	 1.364584e+00	 9.889677e+00
 1.235481e+00	 1.424607e+00	 9.423650e+00
 1.166843e+00	 1.481349e+00	 8.904581e+00
 1.503794e+00	 1.184523e+00	 1.093111e+01
 1.446192e+00	 1.254200e+00	 1.064405e+01
 1.385260e+00	 1.321191e+00	 1.031256e+01
 1.321191e+00	 1.385260e+00	 9.920160e+00
 1.254200e+00	 1.446192e+00	 9.449617e+00
 1.184523e+00	 1.503794e+00	 8.948575e+00
 1.526239e+00	 1.202202e+00	 1.095326e+01
 1.467777e+00	 1.272920e+00	 1.067121e+01
 1.405935e+00	 1.340910e+00	 1.033893e+01
 1.340910e+00	 1.405935e+00	 9.940300e+00
 1.272920e+00	 1.467777e+00	 9.472832e+00
 1.202202e+00	 1.526239e+00	 8.989165e+00
 1.548683e+00	 1.219881e+00	 1.097536e+01
 1.489362e+00	 1.291639e+00	 1.069515e+01
 1.426611e+00	 1.360629e+00	 1.035864e+01
 1.360629e+00	 1.426611e+00	 9.949897e+00
 1.291639e+00	 1.489362e+00	 9.493405e+00
 1.219881e+00	 1.548683e+00	 9.027601e+00
 1.571128e+00	 1.237561e+00	 1.099639e+01
 1.510947e+00	 1.310359e+00	 1.071465e+01
 1.447286e+00	 1.380349e+00	 1.037069e+01
 1.380349e+00	 1.447286e+00	 9.952468e+00
 1.310359e+00	 1.510947e+00	 9.511214e+00
 1.237561e+00	 1.571128e+00	 9.065036e+00
 1.149164e+00	 1.458905e+00	 8.855827e+00
 1.079202e+00	 1.511391e+00	 8.312611e+00
 1.007132e+00	 1.560341e+00	 7.765154e+00
 9.332198e-01	 1.605640e+00	 7.217641e+00
 8.577390e-01	 1.647199e+00	 6.676497e+00
 7.809659e-01	 1.684955e+00	 6.149943e+00
 1.166843e+00	 1.481349e+00	 8.904581e+00
 1.095805e+00	 1.534643e+00	 8.375395e+00
 1.022626e+00	 1.584347e+00	 7.837811e+00
 9.475770e-01	 1.630342e+00	 7.297490e+00
 8.709350e-01	 1.672540e+00	 6.762613e+00
 7.929808e-01	 1.710877e+00	 6.243368e+00
 1.184523e+00	 1.503794e+00	 8.948575e+00
 1.112408e+00	 1.557896e+00	 8.434374e+00
 1.038120e+00	 1.608352e+00	 7.910054e+00
 9.619343e-01	 1.655044e+00	 7.381042e+00
 8.841310e-01	 1.697882e+00	 6.855084e+00
 8.049956e-01	 1.736799e+00	 6.341737e+00
 1.202202e+00	 1.526239e+00	 8.989165e+00
 1.129011e+00	 1.581148e+00	 8.491986e+00
 1.053615e+00	 1.632357e+00	 7.984433e+00
 9.762915e-01	 1.679747e+00	 7.470076e+00
 8.973270e-01	 1.723223e+00	 6.954120e+00
 8.170105e-01	 1.762722e+00	 6.442998e+00
 1.219881e+00	 1.548683e+00	 9.027601e+00
 1.145614e+00	 1.604400e+00	 8.550501e+00
 1.069109e+00	 1.656362e+00	 8.063333e+00
 9.906487e-01	 1.704449e+00	 7.566252e+00
 9.105230e-01	 1.748565e+00	 7.059908e+00
 8.290254e-01	 1.788644e+00	 6.545209e+00
 1.237561e+00	 1.571128e+00	 9.065036e+00
 1.162217e+00	 1.627652e+00	 8.612037e+00
 1.084603e+00	 1.680368e+00	 8.148981e+00
 1.005006e+00	 1.729151e+00	 7.671118e+00
 9.237189e-01	 1.773906e+00	 7.172608e+00
 8.410402e-01	 1.814566e+00	 6.646531e+00
 7.809659e-01	 1.684955e+00	 6.149943e+00
 7.031778e-01	 1.718872e+00	 5.641271e+00
 6.246495e-01	 1.748940e+00	 5.144786e+00
 5.456507e-01	 1.775175e+00	 4.654594e+00
 4.664435e-01	 1.797612e+00	 4.162648e+00
 3.872796e-01	 1.816313e+00	 3.658880e+00
 7.929808e-01	 1.710877e+00	 6.243368e+00
 7.139959e-01	 1.745316e+00	 5.741819e+00
 6.342595e-01	 1.775847e+00	 5.250983e+00
 5.540454e-01	 1.802485e+00	 4.767047e+00
 4.736195e-01	 1.825268e+00	 4.284117e+00
 3.932378e-01	 1.844257e+00	 3.794302e+00
 8.049956e-01	 1.736799e+00	 6.341737e+00
 7.248140e-01	 1.771760e+00	 5.840646e+00
 6.438695e-01	 1.802754e+00	 5.346260e+00
 5.624400e-01	 1.829795e+00	 4.860546e+00
 4.807956e-01	 1.852923e+00	 4.384235e+00
 3.991959e-01	 1.872200e+00	 3.916665e+00
 8.170105e-01	 1.762722e+00	 6.442998e+00
 7.356321e-01	 1.798204e+00	 5.934110e+00
 6.534795e-01	 1.829661e+00	 5.427236e+00
 5.708346e-01	 1.857106e+00	 4.933649e+00
 4.879716e-01	 1.880579e+00	 4.464977e+00
 4.051541e-01	 1.900143e+00	 4.032622e+00
 8.290254e-01	 1.788644e+00	 6.545209e+00
 7.464503e-01	 1.824649e+00	 6.018773e+00
 6.630895e-01	 1.856568e+00	 5.490725e+00
 5.792292e-01	 1.884416e+00	 4.985000e+00
 4.951477e-01	 1.908235e+00	 4.528209e+00
 4.111122e-01	 1.928086e+00	 4.148450e+00
 8.410402e-01	 1.814566e+00	 6.646531e+00
 7.572684e-01	 1.851093e+00	 6.091387e+00
 6.726995e-01	 1.883474e+00	 5.533719e+00
 5.876239e-01	 1.911726e+00	 5.013320e+00
 5.023237e-01	 1.935890e+00	 4.575693e+00
 4.170704e-01	 1.956030e+00	 4.270071e+00
 3.872796e-01	 1.816313e+00	 3.658880e+00
 3.083990e-01	 1.831357e+00	 3.170668e+00
 2.300278e-01	 1.842842e+00	 2.694460e+00
 1.523771e-01	 1.850881e+00	 2.176511e+00
 7.564177e-02	 1.855602e+00	 1.568718e+00
-2.000910e-06	 1.857149e+00	 4.517265e-01
 3.932378e-01	 1.844257e+00	 3.794302e+00
 3.131436e-01	 1.859532e+00	 3.325788e+00
 2.335667e-01	 1.871193e+00	 2.852709e+00
 1.547214e-01	 1.879356e+00	 2.289268e+00
 7.680549e-02	 1.884149e+00	 1.556648e+00
-2.061848e-06	 1.885720e+00	 1.746847e-01
 3.991959e-01	 1.872200e+00	 3.916665e+00
 3.178882e-01	 1.887707e+00	 3.485835e+00
 2.371056e-01	 1.899545e+00	 3.032039e+00
 1.570656e-01	 1.907831e+00	 2.425772e+00
 7.796921e-02	 1.912697e+00	 1.544623e+00
-2.069313e-06	 1.914291e+00	-1.647690e-01
 4.051541e-01	 1.900143e+00	 4.032622e+00
 3.226328e-01	 1.915882e+00	 3.660197e+00
 2.406445e-01	 1.927896e+00	 3.239929e+00
 1.594099e-01	 1.936306e+00	 2.587510e+00
 7.913293e-02	 1.941245e+00	 1.524654e+00
-1.996543e-06	 1.942862e+00	-5.869117e-01
 4.111122e-01	 1.928086e+00	 4.148450e+00
 3.273774e-01	 1.944056e+00	 3.857728e+00
 2.441834e-01	 1.956248e+00	 3.483436e+00
 1.617541e-01	 1.964781e+00	 2.775896e+00
 8.029665e-02	 1.969793e+00	 1.489221e+00
-1.816776e-06	 1.971432e+00	-1.110836e+00
 4.170704e-01	 1.956030e+00	 4.270071e+00
 3.321220e-01	 1.972231e+00	 4.086788e+00
 2.477223e-01	 1.984599e+00	 3.769227e+00
 1.640984e-01	 1.993257e+00	 2.992275e+00
 8.146036e-02	 1.998340e+00	 1.431243e+00
-1.503251e-06	 2.000003e+00	-1.754533e+00
