patch_n	x	y	stress_yy
0	 0.000000e+00	 0.000000e+00	-1.358501e+01
0	 0.000000e+00	 1.250000e+00	 1.506693e+01
0	 0.000000e+00	 2.500000e+00	-1.404663e+02
0	 0.000000e+00	 3.750000e+00	 5.634014e+03
0	 0.000000e+00	 5.000000e+00	 1.780433e+02
0	 0.000000e+00	 6.250000e+00	 1.000000e+01
0	 1.250000e+00	 0.000000e+00	 2.167113e+02
0	 1.250000e+00	 1.250000e+00	-2.994369e+01
0	 1.250000e+00	 2.500000e+00	 5.002106e+01
0	 1.250000e+00	 3.750000e+00	 8.383003e+01
0	 1.250000e+00	 5.000000e+00	-2.197266e+01
0	 1.250000e+00	 6.250000e+00	 1.000000e+01
0	 2.500000e+00	 0.000000e+00	 2.237294e+01
0	 2.500000e+00	 1.250000e+00	-4.971044e+01
0	 2.500000e+00	 2.500000e+00	 4.507668e+01
0	 2.500000e+00	 3.750000e+00	 5.634014e+03
0	 2.500000e+00	 5.000000e+00	-2.197266e+01
0	 2.500000e+00	 6.250000e+00	 1.000000e+01
0	 3.750000e+00	 0.000000e+00	 6.226717e+02
0	 3.750000e+00	 1.250000e+00	 1.592616e+02
0	 3.750000e+00	 2.500000e+00	 1.128296e+02
0	 3.750000e+00	 3.750000e+00	 5.634014e+03
0	 3.750000e+00	 5.000000e+00	-2.197266e+01
0	 3.750000e+00	 6.250000e+00	 1.000000e+01
0	 5.000000e+00	 0.000000e+00	-4.069778e+01
0	 5.000000e+00	 1.250000e+00	 2.144797e+02
0	 5.000000e+00	 2.500000e+00	 4.425338e+01
0	 5.000000e+00	 3.750000e+00	 6.536298e+01
0	 5.000000e+00	 5.000000e+00	 5.634014e+03
0	 5.000000e+00	 6.250000e+00	 5.091934e+02
0	 6.250000e+00	 0.000000e+00	 3.819543e+02
0	 6.250000e+00	 1.250000e+00	 1.206598e+02
0	 6.250000e+00	 2.500000e+00	-9.539423e+01
0	 6.250000e+00	 3.750000e+00	 5.634014e+03
0	 6.250000e+00	 5.000000e+00	 1.000000e+01
0	 6.250000e+00	 6.250000e+00	 1.000000e+01
0	 0.000000e+00	 6.250000e+00	-1.789787e+01
0	 0.000000e+00	 7.500000e+00	 4.733728e+01
0	 0.000000e+00	 8.750000e+00	-1.508435e+02
0	 0.000000e+00	 1.000000e+01	 5.634014e+03
0	 0.000000e+00	 1.125000e+01	 8.383003e+01
0	 0.000000e+00	 1.250000e+01	 1.000000e+01
0	 1.250000e+00	 6.250000e+00	 7.242825e+01
0	 1.250000e+00	 7.500000e+00	-1.191251e+01
0	 1.250000e+00	 8.750000e+00	 2.801716e+02
0	 1.250000e+00	 1.000000e+01	 5.634014e+03
0	 1.250000e+00	 1.125000e+01	-2.197266e+01
0	 1.250000e+00	 1.250000e+01	 1.000000e+01
0	 2.500000e+00	 6.250000e+00	 5.782612e+01
0	 2.500000e+00	 7.500000e+00	 2.596866e+01
0	 2.500000e+00	 8.750000e+00	 7.427846e+01
0	 2.500000e+00	 1.000000e+01	 1.010451e+02
0	 2.500000e+00	 1.125000e+01	-2.197266e+01
0	 2.500000e+00	 1.250000e+01	 1.000000e+01
0	 3.750000e+00	 6.250000e+00	 1.626408e+02
0	 3.750000e+00	 7.500000e+00	-2.409231e+02
0	 3.750000e+00	 8.750000e+00	 7.780521e+01
0	 3.750000e+00	 1.000000e+01	 5.634014e+03
0	 3.750000e+00	 1.125000e+01	 6.536298e+01
0	 3.750000e+00	 1.250000e+01	 1.000000e+01
0	 5.000000e+00	 6.250000e+00	 1.057276e+01
0	 5.000000e+00	 7.500000e+00	-1.261723e+00
0	 5.000000e+00	 8.750000e+00	-1.426442e+01
0	 5.000000e+00	 1.000000e+01	 3.831971e+01
0	 5.000000e+00	 1.125000e+01	 5.634014e+03
0	 5.000000e+00	 1.250000e+01	 4.093452e+02
0	 6.250000e+00	 6.250000e+00	-2.942775e+01
0	 6.250000e+00	 7.500000e+00	 3.756477e+02
0	 6.250000e+00	 8.750000e+00	-2.153316e+01
0	 6.250000e+00	 1.000000e+01	 5.634014e+03
0	 6.250000e+00	 1.125000e+01	 1.000000e+01
0	 6.250000e+00	 1.250000e+01	 1.000000e+01
0	 0.000000e+00	 1.250000e+01	 1.151716e+02
0	 0.000000e+00	 1.375000e+01	-7.540202e+02
0	 0.000000e+00	 1.500000e+01	 9.259873e+01
0	 0.000000e+00	 1.625000e+01	 5.634014e+03
0	 0.000000e+00	 1.750000e+01	-2.197266e+01
0	 0.000000e+00	 1.875000e+01	 1.000000e+01
0	 1.250000e+00	 1.250000e+01	 1.646143e+02
0	 1.250000e+00	 1.375000e+01	-8.546352e+01
0	 1.250000e+00	 1.500000e+01	-3.712045e+02
0	 1.250000e+00	 1.625000e+01	 2.887517e+02
0	 1.250000e+00	 1.750000e+01	 1.010451e+02
0	 1.250000e+00	 1.875000e+01	 1.000000e+01
0	 2.500000e+00	 1.250000e+01	-6.166639e+01
0	 2.500000e+00	 1.375000e+01	-1.377198e+02
0	 2.500000e+00	 1.500000e+01	-2.424892e+02
0	 2.500000e+00	 1.625000e+01	 5.634014e+03
0	 2.500000e+00	 1.750000e+01	-2.197266e+01
0	 2.500000e+00	 1.875000e+01	 1.000000e+01
0	 3.750000e+00	 1.250000e+01	-6.092298e+01
0	 3.750000e+00	 1.375000e+01	 1.882527e+02
0	 3.750000e+00	 1.500000e+01	 1.691194e+02
0	 3.750000e+00	 1.625000e+01	 5.634014e+03
0	 3.750000e+00	 1.750000e+01	 3.831971e+01
0	 3.750000e+00	 1.875000e+01	 1.000000e+01
0	 5.000000e+00	 1.250000e+01	-6.444856e+01
0	 5.000000e+00	 1.375000e+01	-3.116619e+01
0	 5.000000e+00	 1.500000e+01	-2.197266e+01
0	 5.000000e+00	 1.625000e+01	 5.634014e+03
0	 5.000000e+00	 1.750000e+01	 5.634014e+03
0	 5.000000e+00	 1.875000e+01	 2.646992e+02
0	 6.250000e+00	 1.250000e+01	 1.304678e+02
0	 6.250000e+00	 1.375000e+01	 9.732786e+02
0	 6.250000e+00	 1.500000e+01	 3.287925e+01
0	 6.250000e+00	 1.625000e+01	 5.634014e+03
0	 6.250000e+00	 1.750000e+01	 1.000000e+01
0	 6.250000e+00	 1.875000e+01	 1.000000e+01
0	 0.000000e+00	 1.875000e+01	 2.233642e+02
0	 0.000000e+00	 2.000000e+01	 7.513092e+02
0	 0.000000e+00	 2.125000e+01	 1.430720e+02
0	 0.000000e+00	 2.250000e+01	 5.634014e+03
0	 0.000000e+00	 2.375000e+01	 2.887517e+02
0	 0.000000e+00	 2.500000e+01	 1.000000e+01
0	 1.250000e+00	 1.875000e+01	 4.130916e+02
0	 1.250000e+00	 2.000000e+01	-8.257736e+01
0	 1.250000e+00	 2.125000e+01	 1.319051e+02
0	 1.250000e+00	 2.250000e+01	-2.001243e+02
0	 1.250000e+00	 2.375000e+01	-2.197266e+01
0	 1.250000e+00	 2.500000e+01	 1.000000e+01
0	 2.500000e+00	 1.875000e+01	-3.942409e+02
0	 2.500000e+00	 2.000000e+01	 3.169794e+03
0	 2.500000e+00	 2.125000e+01	 3.269487e+02
0	 2.500000e+00	 2.250000e+01	-3.015992e+02
0	 2.500000e+00	 2.375000e+01	-2.197266e+01
0	 2.500000e+00	 2.500000e+01	 1.000000e+01
0	 3.750000e+00	 1.875000e+01	-1.553190e+02
0	 3.750000e+00	 2.000000e+01	 1.563039e+02
0	 3.750000e+00	 2.125000e+01	-5.960921e+02
0	 3.750000e+00	 2.250000e+01	 1.547560e+02
0	 3.750000e+00	 2.375000e+01	-2.197266e+01
0	 3.750000e+00	 2.500000e+01	 1.000000e+01
0	 5.000000e+00	 1.875000e+01	 1.083356e+02
0	 5.000000e+00	 2.000000e+01	-7.948479e+01
0	 5.000000e+00	 2.125000e+01	-8.375060e+01
0	 5.000000e+00	 2.250000e+01	-1.569928e+02
0	 5.000000e+00	 2.375000e+01	 5.634014e+03
0	 5.000000e+00	 2.500000e+01	 1.559600e+02
0	 6.250000e+00	 1.875000e+01	 4.396237e+02
0	 6.250000e+00	 2.000000e+01	 5.170254e+02
0	 6.250000e+00	 2.125000e+01	 6.863027e+01
0	 6.250000e+00	 2.250000e+01	 5.634014e+03
0	 6.250000e+00	 2.375000e+01	 1.000000e+01
0	 6.250000e+00	 2.500000e+01	 1.000000e+01
0	 0.000000e+00	 2.500000e+01	 5.443688e+01
0	 0.000000e+00	 2.625000e+01	-7.349911e+02
0	 0.000000e+00	 2.750000e+01	 6.562338e+01
0	 0.000000e+00	 2.875000e+01	 5.634014e+03
0	 0.000000e+00	 3.000000e+01	-2.001243e+02
0	 0.000000e+00	 3.125000e+01	 1.000000e+01
0	 1.250000e+00	 2.500000e+01	-6.163175e+02
0	 1.250000e+00	 2.625000e+01	-7.731874e+01
0	 1.250000e+00	 2.750000e+01	-2.571286e+02
0	 1.250000e+00	 2.875000e+01	-1.546922e+02
0	 1.250000e+00	 3.000000e+01	-3.015992e+02
0	 1.250000e+00	 3.125000e+01	 1.000000e+01
0	 2.500000e+00	 2.500000e+01	-8.156855e+01
0	 2.500000e+00	 2.625000e+01	-4.678777e+02
0	 2.500000e+00	 2.750000e+01	 1.050293e+02
0	 2.500000e+00	 2.875000e+01	 5.634014e+03
0	 2.500000e+00	 3.000000e+01	 1.547560e+02
0	 2.500000e+00	 3.125000e+01	 1.000000e+01
0	 3.750000e+00	 2.500000e+01	-7.489708e+02
0	 3.750000e+00	 2.625000e+01	 2.795330e+02
0	 3.750000e+00	 2.750000e+01	-6.427121e+02
0	 3.750000e+00	 2.875000e+01	 1.540048e+02
0	 3.750000e+00	 3.000000e+01	-1.569928e+02
0	 3.750000e+00	 3.125000e+01	 1.000000e+01
0	 5.000000e+00	 2.500000e+01	 9.250981e+16
0	 5.000000e+00	 2.625000e+01	-3.609376e+01
0	 5.000000e+00	 2.750000e+01	-2.197266e+01
0	 5.000000e+00	 2.875000e+01	 5.634014e+03
0	 5.000000e+00	 3.000000e+01	 5.634014e+03
0	 5.000000e+00	 3.125000e+01	-1.277747e+02
0	 6.250000e+00	 2.500000e+01	 3.698083e+01
0	 6.250000e+00	 2.625000e+01	 1.250611e+03
0	 6.250000e+00	 2.750000e+01	 3.545034e+01
0	 6.250000e+00	 2.875000e+01	 5.634014e+03
0	 6.250000e+00	 3.000000e+01	 1.000000e+01
0	 6.250000e+00	 3.125000e+01	 1.000000e+01
0	 0.000000e+00	 3.125000e+01	 3.422827e+01
0	 0.000000e+00	 3.250000e+01	-8.999227e+01
0	 0.000000e+00	 3.375000e+01	 1.684143e+01
0	 0.000000e+00	 3.500000e+01	 5.634014e+03
0	 0.000000e+00	 3.625000e+01	-1.546922e+02
0	 0.000000e+00	 3.750000e+01	 1.000000e+01
0	 1.250000e+00	 3.125000e+01	 1.664922e+03
0	 1.250000e+00	 3.250000e+01	 2.464801e+02
0	 1.250000e+00	 3.375000e+01	-6.440894e+01
0	 1.250000e+00	 3.500000e+01	-3.971139e+01
0	 1.250000e+00	 3.625000e+01	-2.197266e+01
0	 1.250000e+00	 3.750000e+01	 1.000000e+01
0	 2.500000e+00	 3.125000e+01	-6.218935e+01
0	 2.500000e+00	 3.250000e+01	 1.285195e+02
0	 2.500000e+00	 3.375000e+01	 1.135547e+02
0	 2.500000e+00	 3.500000e+01	-2.384225e+01
0	 2.500000e+00	 3.625000e+01	 1.540048e+02
0	 2.500000e+00	 3.750000e+01	 1.000000e+01
0	 3.750000e+00	 3.125000e+01	 2.306514e+02
0	 3.750000e+00	 3.250000e+01	 7.482646e+01
0	 3.750000e+00	 3.375000e+01	-2.996287e+01
0	 3.750000e+00	 3.500000e+01	 1.327965e+01
0	 3.750000e+00	 3.625000e+01	-2.197266e+01
0	 3.750000e+00	 3.750000e+01	 1.000000e+01
0	 5.000000e+00	 3.125000e+01	 2.343930e+02
0	 5.000000e+00	 3.250000e+01	-2.405335e+01
0	 5.000000e+00	 3.375000e+01	-2.197266e+01
0	 5.000000e+00	 3.500000e+01	-2.816166e+01
0	 5.000000e+00	 3.625000e+01	 5.634014e+03
0	 5.000000e+00	 3.750000e+01	 1.444820e+02
0	 6.250000e+00	 3.125000e+01	 2.389565e+01
0	 6.250000e+00	 3.250000e+01	-1.006938e+03
0	 6.250000e+00	 3.375000e+01	 2.378395e+01
0	 6.250000e+00	 3.500000e+01	 5.634014e+03
0	 6.250000e+00	 3.625000e+01	 1.000000e+01
0	 6.250000e+00	 3.750000e+01	 1.000000e+01
0	 0.000000e+00	 3.750000e+01	-nan
0	 0.000000e+00	 3.875000e+01	-nan
0	 0.000000e+00	 4.000000e+01	-nan
0	 0.000000e+00	 4.125000e+01	-nan
0	 0.000000e+00	 4.250000e+01	-3.971139e+01
0	 0.000000e+00	 4.375000e+01	 1.000000e+01
0	 1.250000e+00	 3.750000e+01	-nan
0	 1.250000e+00	 3.875000e+01	-nan
0	 1.250000e+00	 4.000000e+01	-nan
0	 1.250000e+00	 4.125000e+01	-nan
0	 1.250000e+00	 4.250000e+01	-2.384225e+01
0	 1.250000e+00	 4.375000e+01	 1.000000e+01
0	 2.500000e+00	 3.750000e+01	-nan
0	 2.500000e+00	 3.875000e+01	-nan
0	 2.500000e+00	 4.000000e+01	-nan
0	 2.500000e+00	 4.125000e+01	-nan
0	 2.500000e+00	 4.250000e+01	 1.327965e+01
0	 2.500000e+00	 4.375000e+01	 1.000000e+01
0	 3.750000e+00	 3.750000e+01	-nan
0	 3.750000e+00	 3.875000e+01	-nan
0	 3.750000e+00	 4.000000e+01	-nan
0	 3.750000e+00	 4.125000e+01	-nan
0	 3.750000e+00	 4.250000e+01	-2.816166e+01
0	 3.750000e+00	 4.375000e+01	 1.000000e+01
0	 5.000000e+00	 3.750000e+01	-nan
0	 5.000000e+00	 3.875000e+01	-nan
0	 5.000000e+00	 4.000000e+01	-nan
0	 5.000000e+00	 4.125000e+01	-nan
0	 5.000000e+00	 4.250000e+01	 5.634014e+03
0	 5.000000e+00	 4.375000e+01	-nan
0	 6.250000e+00	 3.750000e+01	-nan
0	 6.250000e+00	 3.875000e+01	-nan
0	 6.250000e+00	 4.000000e+01	-nan
0	 6.250000e+00	 4.125000e+01	-nan
0	 6.250000e+00	 4.250000e+01	 1.000000e+01
0	 6.250000e+00	 4.375000e+01	 1.000000e+01
0	 0.000000e+00	 4.375000e+01	 1.000000e+01
0	 0.000000e+00	 4.500000e+01	 1.000000e+01
0	 0.000000e+00	 4.625000e+01	 1.000000e+01
0	 0.000000e+00	 4.750000e+01	 1.000000e+01
0	 0.000000e+00	 4.875000e+01	-nan
0	 0.000000e+00	 5.000000e+01	 1.000000e+01
0	 1.250000e+00	 4.375000e+01	 1.000000e+01
0	 1.250000e+00	 4.500000e+01	 1.000000e+01
0	 1.250000e+00	 4.625000e+01	 1.000000e+01
0	 1.250000e+00	 4.750000e+01	 1.000000e+01
0	 1.250000e+00	 4.875000e+01	-nan
0	 1.250000e+00	 5.000000e+01	 1.000000e+01
0	 2.500000e+00	 4.375000e+01	 1.000000e+01
0	 2.500000e+00	 4.500000e+01	 1.000000e+01
0	 2.500000e+00	 4.625000e+01	 1.000000e+01
0	 2.500000e+00	 4.750000e+01	 1.000000e+01
0	 2.500000e+00	 4.875000e+01	-nan
0	 2.500000e+00	 5.000000e+01	 1.000000e+01
0	 3.750000e+00	 4.375000e+01	 1.000000e+01
0	 3.750000e+00	 4.500000e+01	 1.000000e+01
0	 3.750000e+00	 4.625000e+01	 1.000000e+01
0	 3.750000e+00	 4.750000e+01	 1.000000e+01
0	 3.750000e+00	 4.875000e+01	-nan
0	 3.750000e+00	 5.000000e+01	 1.000000e+01
0	 5.000000e+00	 4.375000e+01	 1.000000e+01
0	 5.000000e+00	 4.500000e+01	 1.000000e+01
0	 5.000000e+00	 4.625000e+01	 1.000000e+01
0	 5.000000e+00	 4.750000e+01	 1.000000e+01
0	 5.000000e+00	 4.875000e+01	 1.000000e+01
0	 5.000000e+00	 5.000000e+01	 1.000000e+01
0	 6.250000e+00	 4.375000e+01	 1.000000e+01
0	 6.250000e+00	 4.500000e+01	 1.000000e+01
0	 6.250000e+00	 4.625000e+01	 1.000000e+01
0	 6.250000e+00	 4.750000e+01	 1.000000e+01
0	 6.250000e+00	 4.875000e+01	 1.000000e+01
0	 6.250000e+00	 5.000000e+01	 1.000000e+01
0	 6.250000e+00	 0.000000e+00	-3.905889e+01
0	 6.250000e+00	 1.250000e+00	-2.197266e+01
0	 6.250000e+00	 2.500000e+00	-2.197266e+01
0	 6.250000e+00	 3.750000e+00	 1.000000e+01
0	 6.250000e+00	 5.000000e+00	 1.000000e+01
0	 6.250000e+00	 6.250000e+00	 1.000000e+01
0	 7.500000e+00	 0.000000e+00	 1.000000e+01
0	 7.500000e+00	 1.250000e+00	 1.000000e+01
0	 7.500000e+00	 2.500000e+00	 1.000000e+01
0	 7.500000e+00	 3.750000e+00	 1.000000e+01
0	 7.500000e+00	 5.000000e+00	 1.000000e+01
0	 7.500000e+00	 6.250000e+00	 1.000000e+01
0	 8.750000e+00	 0.000000e+00	 1.000000e+01
0	 8.750000e+00	 1.250000e+00	 1.000000e+01
0	 8.750000e+00	 2.500000e+00	 1.000000e+01
0	 8.750000e+00	 3.750000e+00	 1.000000e+01
0	 8.750000e+00	 5.000000e+00	 1.000000e+01
0	 8.750000e+00	 6.250000e+00	 1.000000e+01
0	 1.000000e+01	 0.000000e+00	 1.000000e+01
0	 1.000000e+01	 1.250000e+00	 1.000000e+01
0	 1.000000e+01	 2.500000e+00	 1.000000e+01
0	 1.000000e+01	 3.750000e+00	 1.000000e+01
0	 1.000000e+01	 5.000000e+00	 1.000000e+01
0	 1.000000e+01	 6.250000e+00	 1.000000e+01
0	 1.125000e+01	 0.000000e+00	 1.000000e+01
0	 1.125000e+01	 1.250000e+00	 1.000000e+01
0	 1.125000e+01	 2.500000e+00	 1.000000e+01
0	 1.125000e+01	 3.750000e+00	 1.000000e+01
0	 1.125000e+01	 5.000000e+00	 1.000000e+01
0	 1.125000e+01	 6.250000e+00	 1.000000e+01
0	 1.250000e+01	 0.000000e+00	 1.000000e+01
0	 1.250000e+01	 1.250000e+00	 1.000000e+01
0	 1.250000e+01	 2.500000e+00	 1.000000e+01
0	 1.250000e+01	 3.750000e+00	 1.000000e+01
0	 1.250000e+01	 5.000000e+00	 1.000000e+01
0	 1.250000e+01	 6.250000e+00	 1.000000e+01
0	 6.250000e+00	 6.250000e+00	-2.197266e+01
0	 6.250000e+00	 7.500000e+00	-1.276683e+01
0	 6.250000e+00	 8.750000e+00	-2.197266e+01
0	 6.250000e+00	 1.000000e+01	 1.000000e+01
0	 6.250000e+00	 1.125000e+01	 1.000000e+01
0	 6.250000e+00	 1.250000e+01	 1.000000e+01
0	 7.500000e+00	 6.250000e+00	 1.000000e+01
0	 7.500000e+00	 7.500000e+00	 1.000000e+01
0	 7.500000e+00	 8.750000e+00	 1.000000e+01
0	 7.500000e+00	 1.000000e+01	 1.000000e+01
0	 7.500000e+00	 1.125000e+01	 1.000000e+01
0	 7.500000e+00	 1.250000e+01	 1.000000e+01
0	 8.750000e+00	 6.250000e+00	 1.000000e+01
0	 8.750000e+00	 7.500000e+00	 1.000000e+01
0	 8.750000e+00	 8.750000e+00	 1.000000e+01
0	 8.750000e+00	 1.000000e+01	 1.000000e+01
0	 8.750000e+00	 1.125000e+01	 1.000000e+01
0	 8.750000e+00	 1.250000e+01	 1.000000e+01
0	 1.000000e+01	 6.250000e+00	 1.000000e+01
0	 1.000000e+01	 7.500000e+00	 1.000000e+01
0	 1.000000e+01	 8.750000e+00	 1.000000e+01
0	 1.000000e+01	 1.000000e+01	 1.000000e+01
0	 1.000000e+01	 1.125000e+01	 1.000000e+01
0	 1.000000e+01	 1.250000e+01	 1.000000e+01
0	 1.125000e+01	 6.250000e+00	 1.000000e+01
0	 1.125000e+01	 7.500000e+00	 1.000000e+01
0	 1.125000e+01	 8.750000e+00	 1.000000e+01
0	 1.125000e+01	 1.000000e+01	 1.000000e+01
0	 1.125000e+01	 1.125000e+01	 1.000000e+01
0	 1.125000e+01	 1.250000e+01	 1.000000e+01
0	 1.250000e+01	 6.250000e+00	 1.000000e+01
0	 1.250000e+01	 7.500000e+00	 1.000000e+01
0	 1.250000e+01	 8.750000e+00	 1.000000e+01
0	 1.250000e+01	 1.000000e+01	 1.000000e+01
0	 1.250000e+01	 1.125000e+01	 1.000000e+01
0	 1.250000e+01	 1.250000e+01	 1.000000e+01
0	 6.250000e+00	 1.250000e+01	-2.197266e+01
0	 6.250000e+00	 1.375000e+01	 6.610937e+01
0	 6.250000e+00	 1.500000e+01	-2.197266e+01
0	 6.250000e+00	 1.625000e+01	 1.000000e+01
0	 6.250000e+00	 1.750000e+01	 1.000000e+01
0	 6.250000e+00	 1.875000e+01	 1.000000e+01
0	 7.500000e+00	 1.250000e+01	 1.000000e+01
0	 7.500000e+00	 1.375000e+01	 1.000000e+01
0	 7.500000e+00	 1.500000e+01	 1.000000e+01
0	 7.500000e+00	 1.625000e+01	 1.000000e+01
0	 7.500000e+00	 1.750000e+01	 1.000000e+01
0	 7.500000e+00	 1.875000e+01	 1.000000e+01
0	 8.750000e+00	 1.250000e+01	 1.000000e+01
0	 8.750000e+00	 1.375000e+01	 1.000000e+01
0	 8.750000e+00	 1.500000e+01	 1.000000e+01
0	 8.750000e+00	 1.625000e+01	 1.000000e+01
0	 8.750000e+00	 1.750000e+01	 1.000000e+01
0	 8.750000e+00	 1.875000e+01	 1.000000e+01
0	 1.000000e+01	 1.250000e+01	 1.000000e+01
0	 1.000000e+01	 1.375000e+01	 1.000000e+01
0	 1.000000e+01	 1.500000e+01	 1.000000e+01
0	 1.000000e+01	 1.625000e+01	 1.000000e+01
0	 1.000000e+01	 1.750000e+01	 1.000000e+01
0	 1.000000e+01	 1.875000e+01	 1.000000e+01
0	 1.125000e+01	 1.250000e+01	 1.000000e+01
0	 1.125000e+01	 1.375000e+01	 1.000000e+01
0	 1.125000e+01	 1.500000e+01	 1.000000e+01
0	 1.125000e+01	 1.625000e+01	 1.000000e+01
0	 1.125000e+01	 1.750000e+01	 1.000000e+01
0	 1.125000e+01	 1.875000e+01	 1.000000e+01
0	 1.250000e+01	 1.250000e+01	 1.000000e+01
0	 1.250000e+01	 1.375000e+01	 1.000000e+01
0	 1.250000e+01	 1.500000e+01	 1.000000e+01
0	 1.250000e+01	 1.625000e+01	 1.000000e+01
0	 1.250000e+01	 1.750000e+01	 1.000000e+01
0	 1.250000e+01	 1.875000e+01	 1.000000e+01
0	 6.250000e+00	 1.875000e+01	-2.197266e+01
0	 6.250000e+00	 2.000000e+01	 1.186935e+02
0	 6.250000e+00	 2.125000e+01	-2.197266e+01
0	 6.250000e+00	 2.250000e+01	 1.000000e+01
0	 6.250000e+00	 2.375000e+01	 1.000000e+01
0	 6.250000e+00	 2.500000e+01	 1.000000e+01
0	 7.500000e+00	 1.875000e+01	 1.000000e+01
0	 7.500000e+00	 2.000000e+01	 1.000000e+01
0	 7.500000e+00	 2.125000e+01	 1.000000e+01
0	 7.500000e+00	 2.250000e+01	 1.000000e+01
0	 7.500000e+00	 2.375000e+01	 1.000000e+01
0	 7.500000e+00	 2.500000e+01	 1.000000e+01
0	 8.750000e+00	 1.875000e+01	 1.000000e+01
0	 8.750000e+00	 2.000000e+01	 1.000000e+01
0	 8.750000e+00	 2.125000e+01	 1.000000e+01
0	 8.750000e+00	 2.250000e+01	 1.000000e+01
0	 8.750000e+00	 2.375000e+01	 1.000000e+01
0	 8.750000e+00	 2.500000e+01	 1.000000e+01
0	 1.000000e+01	 1.875000e+01	 1.000000e+01
0	 1.000000e+01	 2.000000e+01	 1.000000e+01
0	 1.000000e+01	 2.125000e+01	 1.000000e+01
0	 1.000000e+01	 2.250000e+01	 1.000000e+01
0	 1.000000e+01	 2.375000e+01	 1.000000e+01
0	 1.000000e+01	 2.500000e+01	 1.000000e+01
0	 1.125000e+01	 1.875000e+01	 1.000000e+01
0	 1.125000e+01	 2.000000e+01	 1.000000e+01
0	 1.125000e+01	 2.125000e+01	 1.000000e+01
0	 1.125000e+01	 2.250000e+01	 1.000000e+01
0	 1.125000e+01	 2.375000e+01	 1.000000e+01
0	 1.125000e+01	 2.500000e+01	 1.000000e+01
0	 1.250000e+01	 1.875000e+01	 1.000000e+01
0	 1.250000e+01	 2.000000e+01	 1.000000e+01
0	 1.250000e+01	 2.125000e+01	 1.000000e+01
0	 1.250000e+01	 2.250000e+01	 1.000000e+01
0	 1.250000e+01	 2.375000e+01	 1.000000e+01
0	 1.250000e+01	 2.500000e+01	 1.000000e+01
0	 6.250000e+00	 2.500000e+01	-2.197266e+01
0	 6.250000e+00	 2.625000e+01	 9.240144e+01
0	 6.250000e+00	 2.750000e+01	-2.197266e+01
0	 6.250000e+00	 2.875000e+01	 1.000000e+01
0	 6.250000e+00	 3.000000e+01	 1.000000e+01
0	 6.250000e+00	 3.125000e+01	 1.000000e+01
0	 7.500000e+00	 2.500000e+01	 1.000000e+01
0	 7.500000e+00	 2.625000e+01	 1.000000e+01
0	 7.500000e+00	 2.750000e+01	 1.000000e+01
0	 7.500000e+00	 2.875000e+01	 1.000000e+01
0	 7.500000e+00	 3.000000e+01	 1.000000e+01
0	 7.500000e+00	 3.125000e+01	 1.000000e+01
0	 8.750000e+00	 2.500000e+01	 1.000000e+01
0	 8.750000e+00	 2.625000e+01	 1.000000e+01
0	 8.750000e+00	 2.750000e+01	 1.000000e+01
0	 8.750000e+00	 2.875000e+01	 1.000000e+01
0	 8.750000e+00	 3.000000e+01	 1.000000e+01
0	 8.750000e+00	 3.125000e+01	 1.000000e+01
0	 1.000000e+01	 2.500000e+01	 1.000000e+01
0	 1.000000e+01	 2.625000e+01	 1.000000e+01
0	 1.000000e+01	 2.750000e+01	 1.000000e+01
0	 1.000000e+01	 2.875000e+01	 1.000000e+01
0	 1.000000e+01	 3.000000e+01	 1.000000e+01
0	 1.000000e+01	 3.125000e+01	 1.000000e+01
0	 1.125000e+01	 2.500000e+01	 1.000000e+01
0	 1.125000e+01	 2.625000e+01	 1.000000e+01
0	 1.125000e+01	 2.750000e+01	 1.000000e+01
0	 1.125000e+01	 2.875000e+01	 1.000000e+01
0	 1.125000e+01	 3.000000e+01	 1.000000e+01
0	 1.125000e+01	 3.125000e+01	 1.000000e+01
0	 1.250000e+01	 2.500000e+01	 1.000000e+01
0	 1.250000e+01	 2.625000e+01	 1.000000e+01
0	 1.250000e+01	 2.750000e+01	 1.000000e+01
0	 1.250000e+01	 2.875000e+01	 1.000000e+01
0	 1.250000e+01	 3.000000e+01	 1.000000e+01
0	 1.250000e+01	 3.125000e+01	 1.000000e+01
0	 6.250000e+00	 3.125000e+01	-2.197266e+01
0	 6.250000e+00	 3.250000e+01	 7.136779e+01
0	 6.250000e+00	 3.375000e+01	-2.197266e+01
0	 6.250000e+00	 3.500000e+01	 1.000000e+01
0	 6.250000e+00	 3.625000e+01	 1.000000e+01
0	 6.250000e+00	 3.750000e+01	 1.000000e+01
0	 7.500000e+00	 3.125000e+01	 1.000000e+01
0	 7.500000e+00	 3.250000e+01	 1.000000e+01
0	 7.500000e+00	 3.375000e+01	 1.000000e+01
0	 7.500000e+00	 3.500000e+01	 1.000000e+01
0	 7.500000e+00	 3.625000e+01	 1.000000e+01
0	 7.500000e+00	 3.750000e+01	 1.000000e+01
0	 8.750000e+00	 3.125000e+01	 1.000000e+01
0	 8.750000e+00	 3.250000e+01	 1.000000e+01
0	 8.750000e+00	 3.375000e+01	 1.000000e+01
0	 8.750000e+00	 3.500000e+01	 1.000000e+01
0	 8.750000e+00	 3.625000e+01	 1.000000e+01
0	 8.750000e+00	 3.750000e+01	 1.000000e+01
0	 1.000000e+01	 3.125000e+01	 1.000000e+01
0	 1.000000e+01	 3.250000e+01	 1.000000e+01
0	 1.000000e+01	 3.375000e+01	 1.000000e+01
0	 1.000000e+01	 3.500000e+01	 1.000000e+01
0	 1.000000e+01	 3.625000e+01	 1.000000e+01
0	 1.000000e+01	 3.750000e+01	 1.000000e+01
0	 1.125000e+01	 3.125000e+01	 1.000000e+01
0	 1.125000e+01	 3.250000e+01	 1.000000e+01
0	 1.125000e+01	 3.375000e+01	 1.000000e+01
0	 1.125000e+01	 3.500000e+01	 1.000000e+01
0	 1.125000e+01	 3.625000e+01	 1.000000e+01
0	 1.125000e+01	 3.750000e+01	 1.000000e+01
0	 1.250000e+01	 3.125000e+01	 1.000000e+01
0	 1.250000e+01	 3.250000e+01	 1.000000e+01
0	 1.250000e+01	 3.375000e+01	 1.000000e+01
0	 1.250000e+01	 3.500000e+01	 1.000000e+01
0	 1.250000e+01	 3.625000e+01	 1.000000e+01
0	 1.250000e+01	 3.750000e+01	 1.000000e+01
0	 6.250000e+00	 3.750000e+01	-nan
0	 6.250000e+00	 3.875000e+01	-nan
0	 6.250000e+00	 4.000000e+01	-nan
0	 6.250000e+00	 4.125000e+01	 1.000000e+01
0	 6.250000e+00	 4.250000e+01	 1.000000e+01
0	 6.250000e+00	 4.375000e+01	 1.000000e+01
0	 7.500000e+00	 3.750000e+01	 1.000000e+01
0	 7.500000e+00	 3.875000e+01	 1.000000e+01
0	 7.500000e+00	 4.000000e+01	 1.000000e+01
0	 7.500000e+00	 4.125000e+01	 1.000000e+01
0	 7.500000e+00	 4.250000e+01	 1.000000e+01
0	 7.500000e+00	 4.375000e+01	 1.000000e+01
0	 8.750000e+00	 3.750000e+01	 1.000000e+01
0	 8.750000e+00	 3.875000e+01	 1.000000e+01
0	 8.750000e+00	 4.000000e+01	 1.000000e+01
0	 8.750000e+00	 4.125000e+01	 1.000000e+01
0	 8.750000e+00	 4.250000e+01	 1.000000e+01
0	 8.750000e+00	 4.375000e+01	 1.000000e+01
0	 1.000000e+01	 3.750000e+01	 1.000000e+01
0	 1.000000e+01	 3.875000e+01	 1.000000e+01
0	 1.000000e+01	 4.000000e+01	 1.000000e+01
0	 1.000000e+01	 4.125000e+01	 1.000000e+01
0	 1.000000e+01	 4.250000e+01	 1.000000e+01
0	 1.000000e+01	 4.375000e+01	 1.000000e+01
0	 1.125000e+01	 3.750000e+01	 1.000000e+01
0	 1.125000e+01	 3.875000e+01	 1.000000e+01
0	 1.125000e+01	 4.000000e+01	 1.000000e+01
0	 1.125000e+01	 4.125000e+01	 1.000000e+01
0	 1.125000e+01	 4.250000e+01	 1.000000e+01
0	 1.125000e+01	 4.375000e+01	 1.000000e+01
0	 1.250000e+01	 3.750000e+01	 1.000000e+01
0	 1.250000e+01	 3.875000e+01	 1.000000e+01
0	 1.250000e+01	 4.000000e+01	 1.000000e+01
0	 1.250000e+01	 4.125000e+01	 1.000000e+01
0	 1.250000e+01	 4.250000e+01	 1.000000e+01
0	 1.250000e+01	 4.375000e+01	 1.000000e+01
0	 6.250000e+00	 4.375000e+01	 1.000000e+01
0	 6.250000e+00	 4.500000e+01	 1.000000e+01
0	 6.250000e+00	 4.625000e+01	 1.000000e+01
0	 6.250000e+00	 4.750000e+01	 1.000000e+01
0	 6.250000e+00	 4.875000e+01	 1.000000e+01
0	 6.250000e+00	 5.000000e+01	 1.000000e+01
0	 7.500000e+00	 4.375000e+01	 1.000000e+01
0	-nan	 4.500000e+01	 nan
0	-nan	 4.625000e+01	 nan
0	-nan	 4.750000e+01	 nan
0	-nan	 4.875000e+01	 nan
0	-nan	 5.000000e+01	 nan
0	 8.750000e+00	 4.375000e+01	 1.000000e+01
0	-nan	 4.500000e+01	 nan
0	-nan	 4.625000e+01	 nan
0	-nan	 4.750000e+01	 nan
0	-nan	 4.875000e+01	 nan
0	-nan	 5.000000e+01	 nan
0	 1.000000e+01	 4.375000e+01	 1.000000e+01
0	-nan	 4.500000e+01	 nan
0	-nan	 4.625000e+01	 nan
0	-nan	 4.750000e+01	 nan
0	-nan	 4.875000e+01	 nan
0	-nan	 5.000000e+01	 nan
0	 1.125000e+01	 4.375000e+01	 1.000000e+01
0	-nan	 4.500000e+01	 nan
0	-nan	 4.625000e+01	 nan
0	-nan	 4.750000e+01	 nan
0	-nan	 4.875000e+01	 nan
0	-nan	 5.000000e+01	 nan
0	 1.250000e+01	 4.375000e+01	 1.000000e+01
0	-nan	 4.500000e+01	 nan
0	-nan	 4.625000e+01	 nan
0	-nan	 4.750000e+01	 nan
0	-nan	 4.875000e+01	 nan
0	-nan	 5.000000e+01	 nan
0	 1.250000e+01	 0.000000e+00	 1.000000e+01
0	 1.250000e+01	 1.250000e+00	 1.000000e+01
0	 1.250000e+01	 2.500000e+00	 1.000000e+01
0	 1.250000e+01	 3.750000e+00	 1.000000e+01
0	 1.250000e+01	 5.000000e+00	 1.000000e+01
0	 1.250000e+01	 6.250000e+00	 1.000000e+01
0	 1.375000e+01	 0.000000e+00	 1.000000e+01
0	 1.375000e+01	 1.250000e+00	 1.000000e+01
0	 1.375000e+01	 2.500000e+00	 1.000000e+01
0	 1.375000e+01	 3.750000e+00	 1.000000e+01
0	 1.375000e+01	 5.000000e+00	 1.000000e+01
0	 1.375000e+01	 6.250000e+00	 1.000000e+01
0	 1.500000e+01	 0.000000e+00	 1.000000e+01
0	 1.500000e+01	 1.250000e+00	 1.000000e+01
0	 1.500000e+01	 2.500000e+00	 1.000000e+01
0	 1.500000e+01	 3.750000e+00	 1.000000e+01
0	 1.500000e+01	 5.000000e+00	 1.000000e+01
0	 1.500000e+01	 6.250000e+00	 1.000000e+01
0	 1.625000e+01	 0.000000e+00	 1.000000e+01
0	 1.625000e+01	 1.250000e+00	 1.000000e+01
0	 1.625000e+01	 2.500000e+00	 1.000000e+01
0	 1.625000e+01	 3.750000e+00	 1.000000e+01
0	 1.625000e+01	 5.000000e+00	 1.000000e+01
0	 1.625000e+01	 6.250000e+00	 1.000000e+01
0	 1.750000e+01	 0.000000e+00	 1.000000e+01
0	 1.750000e+01	 1.250000e+00	 1.000000e+01
0	 1.750000e+01	 2.500000e+00	 1.000000e+01
0	 1.750000e+01	 3.750000e+00	 1.000000e+01
0	 1.750000e+01	 5.000000e+00	 1.000000e+01
0	 1.750000e+01	 6.250000e+00	 1.000000e+01
0	 1.875000e+01	 0.000000e+00	 1.000000e+01
0	 1.875000e+01	 1.250000e+00	 1.000000e+01
0	 1.875000e+01	 2.500000e+00	 1.000000e+01
0	 1.875000e+01	 3.750000e+00	 1.000000e+01
0	 1.875000e+01	 5.000000e+00	 1.000000e+01
0	 1.875000e+01	 6.250000e+00	 1.000000e+01
0	 1.250000e+01	 6.250000e+00	 1.000000e+01
0	 1.250000e+01	 7.500000e+00	 1.000000e+01
0	 1.250000e+01	 8.750000e+00	 1.000000e+01
0	 1.250000e+01	 1.000000e+01	 1.000000e+01
0	 1.250000e+01	 1.125000e+01	 1.000000e+01
0	 1.250000e+01	 1.250000e+01	 1.000000e+01
0	 1.375000e+01	 6.250000e+00	 1.000000e+01
0	 1.375000e+01	 7.500000e+00	 1.000000e+01
0	 1.375000e+01	 8.750000e+00	 1.000000e+01
0	 1.375000e+01	 1.000000e+01	 1.000000e+01
0	 1.375000e+01	 1.125000e+01	 1.000000e+01
0	 1.375000e+01	 1.250000e+01	 1.000000e+01
0	 1.500000e+01	 6.250000e+00	 1.000000e+01
0	 1.500000e+01	 7.500000e+00	 1.000000e+01
0	 1.500000e+01	 8.750000e+00	 1.000000e+01
0	 1.500000e+01	 1.000000e+01	 1.000000e+01
0	 1.500000e+01	 1.125000e+01	 1.000000e+01
0	 1.500000e+01	 1.250000e+01	 1.000000e+01
0	 1.625000e+01	 6.250000e+00	 1.000000e+01
0	 1.625000e+01	 7.500000e+00	 1.000000e+01
0	 1.625000e+01	 8.750000e+00	 1.000000e+01
0	 1.625000e+01	 1.000000e+01	 1.000000e+01
0	 1.625000e+01	 1.125000e+01	 1.000000e+01
0	 1.625000e+01	 1.250000e+01	 1.000000e+01
0	 1.750000e+01	 6.250000e+00	 1.000000e+01
0	 1.750000e+01	 7.500000e+00	 1.000000e+01
0	 1.750000e+01	 8.750000e+00	 1.000000e+01
0	 1.750000e+01	 1.000000e+01	 1.000000e+01
0	 1.750000e+01	 1.125000e+01	 1.000000e+01
0	 1.750000e+01	 1.250000e+01	 1.000000e+01
0	 1.875000e+01	 6.250000e+00	 1.000000e+01
0	 1.875000e+01	 7.500000e+00	 1.000000e+01
0	 1.875000e+01	 8.750000e+00	 1.000000e+01
0	 1.875000e+01	 1.000000e+01	 1.000000e+01
0	 1.875000e+01	 1.125000e+01	 1.000000e+01
0	 1.875000e+01	 1.250000e+01	 1.000000e+01
0	 1.250000e+01	 1.250000e+01	 1.000000e+01
0	 1.250000e+01	 1.375000e+01	 1.000000e+01
0	 1.250000e+01	 1.500000e+01	 1.000000e+01
0	 1.250000e+01	 1.625000e+01	 1.000000e+01
0	 1.250000e+01	 1.750000e+01	 1.000000e+01
0	 1.250000e+01	 1.875000e+01	 1.000000e+01
0	 1.375000e+01	 1.250000e+01	 1.000000e+01
0	 1.375000e+01	 1.375000e+01	 1.000000e+01
0	 1.375000e+01	 1.500000e+01	 1.000000e+01
0	 1.375000e+01	 1.625000e+01	 1.000000e+01
0	 1.375000e+01	 1.750000e+01	 1.000000e+01
0	 1.375000e+01	 1.875000e+01	 1.000000e+01
0	 1.500000e+01	 1.250000e+01	 1.000000e+01
0	 1.500000e+01	 1.375000e+01	 1.000000e+01
0	 1.500000e+01	 1.500000e+01	 1.000000e+01
0	 1.500000e+01	 1.625000e+01	 1.000000e+01
0	 1.500000e+01	 1.750000e+01	 1.000000e+01
0	 1.500000e+01	 1.875000e+01	 1.000000e+01
0	 1.625000e+01	 1.250000e+01	 1.000000e+01
0	 1.625000e+01	 1.375000e+01	 1.000000e+01
0	 1.625000e+01	 1.500000e+01	 1.000000e+01
0	 1.625000e+01	 1.625000e+01	 1.000000e+01
0	 1.625000e+01	 1.750000e+01	 1.000000e+01
0	 1.625000e+01	 1.875000e+01	 1.000000e+01
0	 1.750000e+01	 1.250000e+01	 1.000000e+01
0	 1.750000e+01	 1.375000e+01	 1.000000e+01
0	 1.750000e+01	 1.500000e+01	 1.000000e+01
0	 1.750000e+01	 1.625000e+01	 1.000000e+01
0	 1.750000e+01	 1.750000e+01	 1.000000e+01
0	 1.750000e+01	 1.875000e+01	 1.000000e+01
0	 1.875000e+01	 1.250000e+01	 1.000000e+01
0	 1.875000e+01	 1.375000e+01	 1.000000e+01
0	 1.875000e+01	 1.500000e+01	 1.000000e+01
0	 1.875000e+01	 1.625000e+01	 1.000000e+01
0	 1.875000e+01	 1.750000e+01	 1.000000e+01
0	 1.875000e+01	 1.875000e+01	 1.000000e+01
0	 1.250000e+01	 1.875000e+01	 1.000000e+01
0	 1.250000e+01	 2.000000e+01	 1.000000e+01
0	 1.250000e+01	 2.125000e+01	 1.000000e+01
0	 1.250000e+01	 2.250000e+01	 1.000000e+01
0	 1.250000e+01	 2.375000e+01	 1.000000e+01
0	 1.250000e+01	 2.500000e+01	 1.000000e+01
0	 1.375000e+01	 1.875000e+01	 1.000000e+01
0	 1.375000e+01	 2.000000e+01	 1.000000e+01
0	 1.375000e+01	 2.125000e+01	 1.000000e+01
0	 1.375000e+01	 2.250000e+01	 1.000000e+01
0	 1.375000e+01	 2.375000e+01	 1.000000e+01
0	 1.375000e+01	 2.500000e+01	 1.000000e+01
0	 1.500000e+01	 1.875000e+01	 1.000000e+01
0	 1.500000e+01	 2.000000e+01	 1.000000e+01
0	 1.500000e+01	 2.125000e+01	 1.000000e+01
0	 1.500000e+01	 2.250000e+01	 1.000000e+01
0	 1.500000e+01	 2.375000e+01	 1.000000e+01
0	 1.500000e+01	 2.500000e+01	 1.000000e+01
0	 1.625000e+01	 1.875000e+01	 1.000000e+01
0	 1.625000e+01	 2.000000e+01	 1.000000e+01
0	 1.625000e+01	 2.125000e+01	 1.000000e+01
0	 1.625000e+01	 2.250000e+01	 1.000000e+01
0	 1.625000e+01	 2.375000e+01	 1.000000e+01
0	 1.625000e+01	 2.500000e+01	 1.000000e+01
0	 1.750000e+01	 1.875000e+01	 1.000000e+01
0	 1.750000e+01	 2.000000e+01	 1.000000e+01
0	 1.750000e+01	 2.125000e+01	 1.000000e+01
0	 1.750000e+01	 2.250000e+01	 1.000000e+01
0	 1.750000e+01	 2.375000e+01	 1.000000e+01
0	 1.750000e+01	 2.500000e+01	 1.000000e+01
0	 1.875000e+01	 1.875000e+01	 1.000000e+01
0	 1.875000e+01	 2.000000e+01	 1.000000e+01
0	 1.875000e+01	 2.125000e+01	 1.000000e+01
0	 1.875000e+01	 2.250000e+01	 1.000000e+01
0	 1.875000e+01	 2.375000e+01	 1.000000e+01
0	 1.875000e+01	 2.500000e+01	 1.000000e+01
0	 1.250000e+01	 2.500000e+01	 1.000000e+01
0	 1.250000e+01	 2.625000e+01	 1.000000e+01
0	 1.250000e+01	 2.750000e+01	 1.000000e+01
0	 1.250000e+01	 2.875000e+01	 1.000000e+01
0	 1.250000e+01	 3.000000e+01	 1.000000e+01
0	 1.250000e+01	 3.125000e+01	 1.000000e+01
0	 1.375000e+01	 2.500000e+01	 1.000000e+01
0	 1.375000e+01	 2.625000e+01	 1.000000e+01
0	 1.375000e+01	 2.750000e+01	 1.000000e+01
0	 1.375000e+01	 2.875000e+01	 1.000000e+01
0	 1.375000e+01	 3.000000e+01	 1.000000e+01
0	 1.375000e+01	 3.125000e+01	 1.000000e+01
0	 1.500000e+01	 2.500000e+01	 1.000000e+01
0	 1.500000e+01	 2.625000e+01	 1.000000e+01
0	 1.500000e+01	 2.750000e+01	 1.000000e+01
0	 1.500000e+01	 2.875000e+01	 1.000000e+01
0	 1.500000e+01	 3.000000e+01	 1.000000e+01
0	 1.500000e+01	 3.125000e+01	 1.000000e+01
0	 1.625000e+01	 2.500000e+01	 1.000000e+01
0	 1.625000e+01	 2.625000e+01	 1.000000e+01
0	 1.625000e+01	 2.750000e+01	 1.000000e+01
0	 1.625000e+01	 2.875000e+01	 1.000000e+01
0	 1.625000e+01	 3.000000e+01	 1.000000e+01
0	 1.625000e+01	 3.125000e+01	 1.000000e+01
0	 1.750000e+01	 2.500000e+01	 1.000000e+01
0	 1.750000e+01	 2.625000e+01	 1.000000e+01
0	 1.750000e+01	 2.750000e+01	 1.000000e+01
0	 1.750000e+01	 2.875000e+01	 1.000000e+01
0	 1.750000e+01	 3.000000e+01	 1.000000e+01
0	 1.750000e+01	 3.125000e+01	 1.000000e+01
0	 1.875000e+01	 2.500000e+01	 1.000000e+01
0	 1.875000e+01	 2.625000e+01	 1.000000e+01
0	 1.875000e+01	 2.750000e+01	 1.000000e+01
0	 1.875000e+01	 2.875000e+01	 1.000000e+01
0	 1.875000e+01	 3.000000e+01	 1.000000e+01
0	 1.875000e+01	 3.125000e+01	 1.000000e+01
0	 1.250000e+01	 3.125000e+01	 1.000000e+01
0	 1.250000e+01	 3.250000e+01	 1.000000e+01
0	 1.250000e+01	 3.375000e+01	 1.000000e+01
0	 1.250000e+01	 3.500000e+01	 1.000000e+01
0	 1.250000e+01	 3.625000e+01	 1.000000e+01
0	 1.250000e+01	 3.750000e+01	 1.000000e+01
0	 1.375000e+01	 3.125000e+01	 1.000000e+01
0	 1.375000e+01	 3.250000e+01	 1.000000e+01
0	 1.375000e+01	 3.375000e+01	 1.000000e+01
0	 1.375000e+01	 3.500000e+01	 1.000000e+01
0	 1.375000e+01	 3.625000e+01	 1.000000e+01
0	 1.375000e+01	 3.750000e+01	 1.000000e+01
0	 1.500000e+01	 3.125000e+01	 1.000000e+01
0	 1.500000e+01	 3.250000e+01	 1.000000e+01
0	 1.500000e+01	 3.375000e+01	 1.000000e+01
0	 1.500000e+01	 3.500000e+01	 1.000000e+01
0	 1.500000e+01	 3.625000e+01	 1.000000e+01
0	 1.500000e+01	 3.750000e+01	 1.000000e+01
0	 1.625000e+01	 3.125000e+01	 1.000000e+01
0	 1.625000e+01	 3.250000e+01	 1.000000e+01
0	 1.625000e+01	 3.375000e+01	 1.000000e+01
0	 1.625000e+01	 3.500000e+01	 1.000000e+01
0	 1.625000e+01	 3.625000e+01	 1.000000e+01
0	 1.625000e+01	 3.750000e+01	 1.000000e+01
0	 1.750000e+01	 3.125000e+01	 1.000000e+01
0	 1.750000e+01	 3.250000e+01	 1.000000e+01
0	 1.750000e+01	 3.375000e+01	 1.000000e+01
0	 1.750000e+01	 3.500000e+01	 1.000000e+01
0	 1.750000e+01	 3.625000e+01	 1.000000e+01
0	 1.750000e+01	 3.750000e+01	 1.000000e+01
0	 1.875000e+01	 3.125000e+01	 1.000000e+01
0	 1.875000e+01	 3.250000e+01	 1.000000e+01
0	 1.875000e+01	 3.375000e+01	 1.000000e+01
0	 1.875000e+01	 3.500000e+01	 1.000000e+01
0	 1.875000e+01	 3.625000e+01	 1.000000e+01
0	 1.875000e+01	 3.750000e+01	 1.000000e+01
0	 1.250000e+01	 3.750000e+01	 1.000000e+01
0	 1.250000e+01	 3.875000e+01	 1.000000e+01
0	 1.250000e+01	 4.000000e+01	 1.000000e+01
0	 1.250000e+01	 4.125000e+01	 1.000000e+01
0	 1.250000e+01	 4.250000e+01	 1.000000e+01
0	 1.250000e+01	 4.375000e+01	 1.000000e+01
0	 1.375000e+01	 3.750000e+01	 1.000000e+01
0	 1.375000e+01	 3.875000e+01	 1.000000e+01
0	 1.375000e+01	 4.000000e+01	 1.000000e+01
0	 1.375000e+01	 4.125000e+01	 1.000000e+01
0	 1.375000e+01	 4.250000e+01	 1.000000e+01
0	 1.375000e+01	 4.375000e+01	 1.000000e+01
0	 1.500000e+01	 3.750000e+01	 1.000000e+01
0	 1.500000e+01	 3.875000e+01	 1.000000e+01
0	 1.500000e+01	 4.000000e+01	 1.000000e+01
0	 1.500000e+01	 4.125000e+01	 1.000000e+01
0	 1.500000e+01	 4.250000e+01	 1.000000e+01
0	 1.500000e+01	 4.375000e+01	 1.000000e+01
0	 1.625000e+01	 3.750000e+01	 1.000000e+01
0	 1.625000e+01	 3.875000e+01	 1.000000e+01
0	 1.625000e+01	 4.000000e+01	 1.000000e+01
0	 1.625000e+01	 4.125000e+01	 1.000000e+01
0	 1.625000e+01	 4.250000e+01	 1.000000e+01
0	 1.625000e+01	 4.375000e+01	 1.000000e+01
0	 1.750000e+01	 3.750000e+01	 1.000000e+01
0	 1.750000e+01	 3.875000e+01	 1.000000e+01
0	 1.750000e+01	 4.000000e+01	 1.000000e+01
0	 1.750000e+01	 4.125000e+01	 1.000000e+01
0	 1.750000e+01	 4.250000e+01	 1.000000e+01
0	 1.750000e+01	 4.375000e+01	 1.000000e+01
0	 1.875000e+01	 3.750000e+01	 1.000000e+01
0	 1.875000e+01	 3.875000e+01	 1.000000e+01
0	 1.875000e+01	 4.000000e+01	 1.000000e+01
0	 1.875000e+01	 4.125000e+01	 1.000000e+01
0	 1.875000e+01	 4.250000e+01	 1.000000e+01
0	 1.875000e+01	 4.375000e+01	 1.000000e+01
0	 1.250000e+01	 4.375000e+01	 1.000000e+01
0	-nan	 4.500000e+01	 nan
0	-nan	 4.625000e+01	 nan
0	-nan	 4.750000e+01	 nan
0	-nan	 4.875000e+01	 nan
0	-nan	 5.000000e+01	 nan
0	 1.375000e+01	 4.375000e+01	 1.000000e+01
0	-nan	 4.500000e+01	 nan
0	-nan	 4.625000e+01	 nan
0	-nan	 4.750000e+01	 nan
0	-nan	 4.875000e+01	 nan
0	-nan	 5.000000e+01	 nan
0	 1.500000e+01	 4.375000e+01	 1.000000e+01
0	-nan	 4.500000e+01	 nan
0	-nan	 4.625000e+01	 nan
0	-nan	 4.750000e+01	 nan
0	-nan	 4.875000e+01	 nan
0	-nan	 5.000000e+01	 nan
0	 1.625000e+01	 4.375000e+01	 1.000000e+01
0	-nan	 4.500000e+01	 nan
0	-nan	 4.625000e+01	 nan
0	-nan	 4.750000e+01	 nan
0	-nan	 4.875000e+01	 nan
0	-nan	 5.000000e+01	 nan
0	 1.750000e+01	 4.375000e+01	 1.000000e+01
0	-nan	 4.500000e+01	 nan
0	-nan	 4.625000e+01	 nan
0	-nan	 4.750000e+01	 nan
0	-nan	 4.875000e+01	 nan
0	-nan	 5.000000e+01	 nan
0	 1.875000e+01	 4.375000e+01	 1.000000e+01
0	-nan	 4.500000e+01	 nan
0	-nan	 4.625000e+01	 nan
0	-nan	 4.750000e+01	 nan
0	-nan	 4.875000e+01	 nan
0	-nan	 5.000000e+01	 nan
0	 1.875000e+01	 0.000000e+00	 1.000000e+01
0	 1.875000e+01	 1.250000e+00	 1.000000e+01
0	 1.875000e+01	 2.500000e+00	 1.000000e+01
0	 1.875000e+01	 3.750000e+00	 1.000000e+01
0	 1.875000e+01	 5.000000e+00	 1.000000e+01
0	 1.875000e+01	 6.250000e+00	 1.000000e+01
0	 2.000000e+01	 0.000000e+00	 1.000000e+01
0	 2.000000e+01	 1.250000e+00	 1.000000e+01
0	 2.000000e+01	 2.500000e+00	 1.000000e+01
0	 2.000000e+01	 3.750000e+00	 1.000000e+01
0	 2.000000e+01	 5.000000e+00	 1.000000e+01
0	 2.000000e+01	 6.250000e+00	 1.000000e+01
0	 2.125000e+01	 0.000000e+00	 1.000000e+01
0	 2.125000e+01	 1.250000e+00	 1.000000e+01
0	 2.125000e+01	 2.500000e+00	 1.000000e+01
0	 2.125000e+01	 3.750000e+00	 1.000000e+01
0	 2.125000e+01	 5.000000e+00	 1.000000e+01
0	 2.125000e+01	 6.250000e+00	 1.000000e+01
0	 2.250000e+01	 0.000000e+00	 1.000000e+01
0	 2.250000e+01	 1.250000e+00	 1.000000e+01
0	 2.250000e+01	 2.500000e+00	 1.000000e+01
0	 2.250000e+01	 3.750000e+00	 1.000000e+01
0	 2.250000e+01	 5.000000e+00	 1.000000e+01
0	 2.250000e+01	 6.250000e+00	 1.000000e+01
0	 2.375000e+01	 0.000000e+00	 1.000000e+01
0	 2.375000e+01	 1.250000e+00	 1.000000e+01
0	 2.375000e+01	 2.500000e+00	 1.000000e+01
0	 2.375000e+01	 3.750000e+00	 1.000000e+01
0	 2.375000e+01	 5.000000e+00	 1.000000e+01
0	 2.375000e+01	 6.250000e+00	 1.000000e+01
0	 2.500000e+01	 0.000000e+00	 1.000000e+01
0	 2.500000e+01	 1.250000e+00	 1.000000e+01
0	 2.500000e+01	 2.500000e+00	 1.000000e+01
0	 2.500000e+01	 3.750000e+00	 1.000000e+01
0	 2.500000e+01	 5.000000e+00	 1.000000e+01
0	 2.500000e+01	 6.250000e+00	 1.000000e+01
0	 1.875000e+01	 6.250000e+00	 1.000000e+01
0	 1.875000e+01	 7.500000e+00	 1.000000e+01
0	 1.875000e+01	 8.750000e+00	 1.000000e+01
0	 1.875000e+01	 1.000000e+01	 1.000000e+01
0	 1.875000e+01	 1.125000e+01	 1.000000e+01
0	 1.875000e+01	 1.250000e+01	 1.000000e+01
0	 2.000000e+01	 6.250000e+00	 1.000000e+01
0	 2.000000e+01	 7.500000e+00	 1.000000e+01
0	 2.000000e+01	 8.750000e+00	 1.000000e+01
0	 2.000000e+01	 1.000000e+01	 1.000000e+01
0	 2.000000e+01	 1.125000e+01	 1.000000e+01
0	 2.000000e+01	 1.250000e+01	 1.000000e+01
0	 2.125000e+01	 6.250000e+00	 1.000000e+01
0	 2.125000e+01	 7.500000e+00	 1.000000e+01
0	 2.125000e+01	 8.750000e+00	 1.000000e+01
0	 2.125000e+01	 1.000000e+01	 1.000000e+01
0	 2.125000e+01	 1.125000e+01	 1.000000e+01
0	 2.125000e+01	 1.250000e+01	 1.000000e+01
0	 2.250000e+01	 6.250000e+00	 1.000000e+01
0	 2.250000e+01	 7.500000e+00	 1.000000e+01
0	 2.250000e+01	 8.750000e+00	 1.000000e+01
0	 2.250000e+01	 1.000000e+01	 1.000000e+01
0	 2.250000e+01	 1.125000e+01	 1.000000e+01
0	 2.250000e+01	 1.250000e+01	 1.000000e+01
0	 2.375000e+01	 6.250000e+00	 1.000000e+01
0	 2.375000e+01	 7.500000e+00	 1.000000e+01
0	 2.375000e+01	 8.750000e+00	 1.000000e+01
0	 2.375000e+01	 1.000000e+01	 1.000000e+01
0	 2.375000e+01	 1.125000e+01	 1.000000e+01
0	 2.375000e+01	 1.250000e+01	 1.000000e+01
0	 2.500000e+01	 6.250000e+00	 1.000000e+01
0	 2.500000e+01	 7.500000e+00	 1.000000e+01
0	 2.500000e+01	 8.750000e+00	 1.000000e+01
0	 2.500000e+01	 1.000000e+01	 1.000000e+01
0	 2.500000e+01	 1.125000e+01	 1.000000e+01
0	 2.500000e+01	 1.250000e+01	 1.000000e+01
0	 1.875000e+01	 1.250000e+01	 1.000000e+01
0	 1.875000e+01	 1.375000e+01	 1.000000e+01
0	 1.875000e+01	 1.500000e+01	 1.000000e+01
0	 1.875000e+01	 1.625000e+01	 1.000000e+01
0	 1.875000e+01	 1.750000e+01	 1.000000e+01
0	 1.875000e+01	 1.875000e+01	 1.000000e+01
0	 2.000000e+01	 1.250000e+01	 1.000000e+01
0	 2.000000e+01	 1.375000e+01	 1.000000e+01
0	 2.000000e+01	 1.500000e+01	 1.000000e+01
0	 2.000000e+01	 1.625000e+01	 1.000000e+01
0	 2.000000e+01	 1.750000e+01	 1.000000e+01
0	 2.000000e+01	 1.875000e+01	 1.000000e+01
0	 2.125000e+01	 1.250000e+01	 1.000000e+01
0	 2.125000e+01	 1.375000e+01	 1.000000e+01
0	 2.125000e+01	 1.500000e+01	 1.000000e+01
0	 2.125000e+01	 1.625000e+01	 1.000000e+01
0	 2.125000e+01	 1.750000e+01	 1.000000e+01
0	 2.125000e+01	 1.875000e+01	 1.000000e+01
0	 2.250000e+01	 1.250000e+01	 1.000000e+01
0	 2.250000e+01	 1.375000e+01	 1.000000e+01
0	 2.250000e+01	 1.500000e+01	 1.000000e+01
0	 2.250000e+01	 1.625000e+01	 1.000000e+01
0	 2.250000e+01	 1.750000e+01	 1.000000e+01
0	 2.250000e+01	 1.875000e+01	 1.000000e+01
0	 2.375000e+01	 1.250000e+01	 1.000000e+01
0	 2.375000e+01	 1.375000e+01	 1.000000e+01
0	 2.375000e+01	 1.500000e+01	 1.000000e+01
0	 2.375000e+01	 1.625000e+01	 1.000000e+01
0	 2.375000e+01	 1.750000e+01	 1.000000e+01
0	 2.375000e+01	 1.875000e+01	 1.000000e+01
0	 2.500000e+01	 1.250000e+01	 1.000000e+01
0	 2.500000e+01	 1.375000e+01	 1.000000e+01
0	 2.500000e+01	 1.500000e+01	 1.000000e+01
0	 2.500000e+01	 1.625000e+01	 1.000000e+01
0	 2.500000e+01	 1.750000e+01	 1.000000e+01
0	 2.500000e+01	 1.875000e+01	 1.000000e+01
0	 1.875000e+01	 1.875000e+01	 1.000000e+01
0	 1.875000e+01	 2.000000e+01	 1.000000e+01
0	 1.875000e+01	 2.125000e+01	 1.000000e+01
0	 1.875000e+01	 2.250000e+01	 1.000000e+01
0	 1.875000e+01	 2.375000e+01	 1.000000e+01
0	 1.875000e+01	 2.500000e+01	 1.000000e+01
0	 2.000000e+01	 1.875000e+01	 1.000000e+01
0	 2.000000e+01	 2.000000e+01	 1.000000e+01
0	 2.000000e+01	 2.125000e+01	 1.000000e+01
0	 2.000000e+01	 2.250000e+01	 1.000000e+01
0	 2.000000e+01	 2.375000e+01	 1.000000e+01
0	 2.000000e+01	 2.500000e+01	 1.000000e+01
0	 2.125000e+01	 1.875000e+01	 1.000000e+01
0	 2.125000e+01	 2.000000e+01	 1.000000e+01
0	 2.125000e+01	 2.125000e+01	 1.000000e+01
0	 2.125000e+01	 2.250000e+01	 1.000000e+01
0	 2.125000e+01	 2.375000e+01	 1.000000e+01
0	 2.125000e+01	 2.500000e+01	 1.000000e+01
0	 2.250000e+01	 1.875000e+01	 1.000000e+01
0	 2.250000e+01	 2.000000e+01	 1.000000e+01
0	 2.250000e+01	 2.125000e+01	 1.000000e+01
0	 2.250000e+01	 2.250000e+01	 1.000000e+01
0	 2.250000e+01	 2.375000e+01	 1.000000e+01
0	 2.250000e+01	 2.500000e+01	 1.000000e+01
0	 2.375000e+01	 1.875000e+01	 1.000000e+01
0	 2.375000e+01	 2.000000e+01	 1.000000e+01
0	 2.375000e+01	 2.125000e+01	 1.000000e+01
0	 2.375000e+01	 2.250000e+01	 1.000000e+01
0	 2.375000e+01	 2.375000e+01	 1.000000e+01
0	 2.375000e+01	 2.500000e+01	 1.000000e+01
0	 2.500000e+01	 1.875000e+01	 1.000000e+01
0	 2.500000e+01	 2.000000e+01	 1.000000e+01
0	 2.500000e+01	 2.125000e+01	 1.000000e+01
0	 2.500000e+01	 2.250000e+01	 1.000000e+01
0	 2.500000e+01	 2.375000e+01	 1.000000e+01
0	 2.500000e+01	 2.500000e+01	 1.000000e+01
0	 1.875000e+01	 2.500000e+01	 1.000000e+01
0	 1.875000e+01	 2.625000e+01	 1.000000e+01
0	 1.875000e+01	 2.750000e+01	 1.000000e+01
0	 1.875000e+01	 2.875000e+01	 1.000000e+01
0	 1.875000e+01	 3.000000e+01	 1.000000e+01
0	 1.875000e+01	 3.125000e+01	 1.000000e+01
0	 2.000000e+01	 2.500000e+01	 1.000000e+01
0	 2.000000e+01	 2.625000e+01	 1.000000e+01
0	 2.000000e+01	 2.750000e+01	 1.000000e+01
0	 2.000000e+01	 2.875000e+01	 1.000000e+01
0	 2.000000e+01	 3.000000e+01	 1.000000e+01
0	 2.000000e+01	 3.125000e+01	 1.000000e+01
0	 2.125000e+01	 2.500000e+01	 1.000000e+01
0	 2.125000e+01	 2.625000e+01	 1.000000e+01
0	 2.125000e+01	 2.750000e+01	 1.000000e+01
0	 2.125000e+01	 2.875000e+01	 1.000000e+01
0	 2.125000e+01	 3.000000e+01	 1.000000e+01
0	 2.125000e+01	 3.125000e+01	 1.000000e+01
0	 2.250000e+01	 2.500000e+01	 1.000000e+01
0	 2.250000e+01	 2.625000e+01	 1.000000e+01
0	 2.250000e+01	 2.750000e+01	 1.000000e+01
0	 2.250000e+01	 2.875000e+01	 1.000000e+01
0	 2.250000e+01	 3.000000e+01	 1.000000e+01
0	 2.250000e+01	 3.125000e+01	 1.000000e+01
0	 2.375000e+01	 2.500000e+01	 1.000000e+01
0	 2.375000e+01	 2.625000e+01	 1.000000e+01
0	 2.375000e+01	 2.750000e+01	 1.000000e+01
0	 2.375000e+01	 2.875000e+01	 1.000000e+01
0	 2.375000e+01	 3.000000e+01	 1.000000e+01
0	 2.375000e+01	 3.125000e+01	 1.000000e+01
0	 2.500000e+01	 2.500000e+01	 1.000000e+01
0	 2.500000e+01	 2.625000e+01	 1.000000e+01
0	 2.500000e+01	 2.750000e+01	 1.000000e+01
0	 2.500000e+01	 2.875000e+01	 1.000000e+01
0	 2.500000e+01	 3.000000e+01	 1.000000e+01
0	 2.500000e+01	 3.125000e+01	 1.000000e+01
0	 1.875000e+01	 3.125000e+01	 1.000000e+01
0	 1.875000e+01	 3.250000e+01	 1.000000e+01
0	 1.875000e+01	 3.375000e+01	 1.000000e+01
0	 1.875000e+01	 3.500000e+01	 1.000000e+01
0	 1.875000e+01	 3.625000e+01	 1.000000e+01
0	 1.875000e+01	 3.750000e+01	 1.000000e+01
0	 2.000000e+01	 3.125000e+01	 1.000000e+01
0	 2.000000e+01	 3.250000e+01	 1.000000e+01
0	 2.000000e+01	 3.375000e+01	 1.000000e+01
0	 2.000000e+01	 3.500000e+01	 1.000000e+01
0	 2.000000e+01	 3.625000e+01	 1.000000e+01
0	 2.000000e+01	 3.750000e+01	 1.000000e+01
0	 2.125000e+01	 3.125000e+01	 1.000000e+01
0	 2.125000e+01	 3.250000e+01	 1.000000e+01
0	 2.125000e+01	 3.375000e+01	 1.000000e+01
0	 2.125000e+01	 3.500000e+01	 1.000000e+01
0	 2.125000e+01	 3.625000e+01	 1.000000e+01
0	 2.125000e+01	 3.750000e+01	 1.000000e+01
0	 2.250000e+01	 3.125000e+01	 1.000000e+01
0	 2.250000e+01	 3.250000e+01	 1.000000e+01
0	 2.250000e+01	 3.375000e+01	 1.000000e+01
0	 2.250000e+01	 3.500000e+01	 1.000000e+01
0	 2.250000e+01	 3.625000e+01	 1.000000e+01
0	 2.250000e+01	 3.750000e+01	 1.000000e+01
0	 2.375000e+01	 3.125000e+01	 1.000000e+01
0	 2.375000e+01	 3.250000e+01	 1.000000e+01
0	 2.375000e+01	 3.375000e+01	 1.000000e+01
0	 2.375000e+01	 3.500000e+01	 1.000000e+01
0	 2.375000e+01	 3.625000e+01	 1.000000e+01
0	 2.375000e+01	 3.750000e+01	 1.000000e+01
0	 2.500000e+01	 3.125000e+01	 1.000000e+01
0	 2.500000e+01	 3.250000e+01	 1.000000e+01
0	 2.500000e+01	 3.375000e+01	 1.000000e+01
0	 2.500000e+01	 3.500000e+01	 1.000000e+01
0	 2.500000e+01	 3.625000e+01	 1.000000e+01
0	 2.500000e+01	 3.750000e+01	 1.000000e+01
0	 1.875000e+01	 3.750000e+01	 1.000000e+01
0	 1.875000e+01	 3.875000e+01	 1.000000e+01
0	 1.875000e+01	 4.000000e+01	 1.000000e+01
0	 1.875000e+01	 4.125000e+01	 1.000000e+01
0	 1.875000e+01	 4.250000e+01	 1.000000e+01
0	 1.875000e+01	 4.375000e+01	 1.000000e+01
0	 2.000000e+01	 3.750000e+01	 1.000000e+01
0	 2.000000e+01	 3.875000e+01	 1.000000e+01
0	 2.000000e+01	 4.000000e+01	 1.000000e+01
0	 2.000000e+01	 4.125000e+01	 1.000000e+01
0	 2.000000e+01	 4.250000e+01	 1.000000e+01
0	 2.000000e+01	 4.375000e+01	 1.000000e+01
0	 2.125000e+01	 3.750000e+01	 1.000000e+01
0	 2.125000e+01	 3.875000e+01	 1.000000e+01
0	 2.125000e+01	 4.000000e+01	 1.000000e+01
0	 2.125000e+01	 4.125000e+01	 1.000000e+01
0	 2.125000e+01	 4.250000e+01	 1.000000e+01
0	 2.125000e+01	 4.375000e+01	 1.000000e+01
0	 2.250000e+01	 3.750000e+01	 1.000000e+01
0	 2.250000e+01	 3.875000e+01	 1.000000e+01
0	 2.250000e+01	 4.000000e+01	 1.000000e+01
0	 2.250000e+01	 4.125000e+01	 1.000000e+01
0	 2.250000e+01	 4.250000e+01	 1.000000e+01
0	 2.250000e+01	 4.375000e+01	 1.000000e+01
0	 2.375000e+01	 3.750000e+01	 1.000000e+01
0	 2.375000e+01	 3.875000e+01	 1.000000e+01
0	 2.375000e+01	 4.000000e+01	 1.000000e+01
0	 2.375000e+01	 4.125000e+01	 1.000000e+01
0	 2.375000e+01	 4.250000e+01	 1.000000e+01
0	 2.375000e+01	 4.375000e+01	 1.000000e+01
0	 2.500000e+01	 3.750000e+01	 1.000000e+01
0	 2.500000e+01	 3.875000e+01	 1.000000e+01
0	 2.500000e+01	 4.000000e+01	 1.000000e+01
0	 2.500000e+01	 4.125000e+01	 1.000000e+01
0	 2.500000e+01	 4.250000e+01	 1.000000e+01
0	 2.500000e+01	 4.375000e+01	 1.000000e+01
0	 1.875000e+01	 4.375000e+01	 1.000000e+01
0	-nan	 4.500000e+01	 nan
0	-nan	 4.625000e+01	 nan
0	-nan	 4.750000e+01	 nan
0	-nan	 4.875000e+01	 nan
0	-nan	 5.000000e+01	 nan
0	 2.000000e+01	 4.375000e+01	 1.000000e+01
0	-nan	 4.500000e+01	 nan
0	-nan	 4.625000e+01	 nan
0	-nan	 4.750000e+01	 nan
0	-nan	 4.875000e+01	 nan
0	-nan	 5.000000e+01	 nan
0	 2.125000e+01	 4.375000e+01	 1.000000e+01
0	-nan	 4.500000e+01	 nan
0	-nan	 4.625000e+01	 nan
0	-nan	 4.750000e+01	 nan
0	-nan	 4.875000e+01	 nan
0	-nan	 5.000000e+01	 nan
0	 2.250000e+01	 4.375000e+01	 1.000000e+01
0	-nan	 4.500000e+01	 nan
0	-nan	 4.625000e+01	 nan
0	-nan	 4.750000e+01	 nan
0	-nan	 4.875000e+01	 nan
0	-nan	 5.000000e+01	 nan
0	 2.375000e+01	 4.375000e+01	 1.000000e+01
0	-nan	 4.500000e+01	 nan
0	-nan	 4.625000e+01	 nan
0	-nan	 4.750000e+01	 nan
0	-nan	 4.875000e+01	 nan
0	-nan	 5.000000e+01	 nan
0	 2.500000e+01	 4.375000e+01	 1.000000e+01
0	-nan	 4.500000e+01	 nan
0	-nan	 4.625000e+01	 nan
0	-nan	 4.750000e+01	 nan
0	-nan	 4.875000e+01	 nan
0	-nan	 5.000000e+01	 nan
0	 2.500000e+01	 0.000000e+00	 1.000000e+01
0	 2.500000e+01	 1.250000e+00	 1.000000e+01
0	 2.500000e+01	 2.500000e+00	 1.000000e+01
0	 2.500000e+01	 3.750000e+00	 1.000000e+01
0	 2.500000e+01	 5.000000e+00	 1.000000e+01
0	 2.500000e+01	 6.250000e+00	 1.000000e+01
0	 2.625000e+01	 0.000000e+00	 1.000000e+01
0	 2.625000e+01	 1.250000e+00	 1.000000e+01
0	 2.625000e+01	 2.500000e+00	 1.000000e+01
0	 2.625000e+01	 3.750000e+00	 1.000000e+01
0	 2.625000e+01	 5.000000e+00	 1.000000e+01
0	 2.625000e+01	 6.250000e+00	 1.000000e+01
0	 2.750000e+01	 0.000000e+00	 1.000000e+01
0	 2.750000e+01	 1.250000e+00	 1.000000e+01
0	 2.750000e+01	 2.500000e+00	 1.000000e+01
0	 2.750000e+01	 3.750000e+00	 1.000000e+01
0	 2.750000e+01	 5.000000e+00	 1.000000e+01
0	 2.750000e+01	 6.250000e+00	 1.000000e+01
0	 2.875000e+01	 0.000000e+00	 1.000000e+01
0	 2.875000e+01	 1.250000e+00	 1.000000e+01
0	 2.875000e+01	 2.500000e+00	 1.000000e+01
0	 2.875000e+01	 3.750000e+00	 1.000000e+01
0	 2.875000e+01	 5.000000e+00	 1.000000e+01
0	 2.875000e+01	 6.250000e+00	 1.000000e+01
0	 3.000000e+01	 0.000000e+00	 1.000000e+01
0	 3.000000e+01	 1.250000e+00	 1.000000e+01
0	 3.000000e+01	 2.500000e+00	 1.000000e+01
0	 3.000000e+01	 3.750000e+00	 1.000000e+01
0	 3.000000e+01	 5.000000e+00	 1.000000e+01
0	 3.000000e+01	 6.250000e+00	 1.000000e+01
0	 3.125000e+01	 0.000000e+00	 1.000000e+01
0	 3.125000e+01	 1.250000e+00	 1.000000e+01
0	 3.125000e+01	 2.500000e+00	 1.000000e+01
0	 3.125000e+01	 3.750000e+00	 1.000000e+01
0	 3.125000e+01	 5.000000e+00	 1.000000e+01
0	 3.125000e+01	 6.250000e+00	 1.000000e+01
0	 2.500000e+01	 6.250000e+00	 1.000000e+01
0	 2.500000e+01	 7.500000e+00	 1.000000e+01
0	 2.500000e+01	 8.750000e+00	 1.000000e+01
0	 2.500000e+01	 1.000000e+01	 1.000000e+01
0	 2.500000e+01	 1.125000e+01	 1.000000e+01
0	 2.500000e+01	 1.250000e+01	 1.000000e+01
0	 2.625000e+01	 6.250000e+00	 1.000000e+01
0	 2.625000e+01	 7.500000e+00	 1.000000e+01
0	 2.625000e+01	 8.750000e+00	 1.000000e+01
0	 2.625000e+01	 1.000000e+01	 1.000000e+01
0	 2.625000e+01	 1.125000e+01	 1.000000e+01
0	 2.625000e+01	 1.250000e+01	 1.000000e+01
0	 2.750000e+01	 6.250000e+00	 1.000000e+01
0	 2.750000e+01	 7.500000e+00	 1.000000e+01
0	 2.750000e+01	 8.750000e+00	 1.000000e+01
0	 2.750000e+01	 1.000000e+01	 1.000000e+01
0	 2.750000e+01	 1.125000e+01	 1.000000e+01
0	 2.750000e+01	 1.250000e+01	 1.000000e+01
0	 2.875000e+01	 6.250000e+00	 1.000000e+01
0	 2.875000e+01	 7.500000e+00	 1.000000e+01
0	 2.875000e+01	 8.750000e+00	 1.000000e+01
0	 2.875000e+01	 1.000000e+01	 1.000000e+01
0	 2.875000e+01	 1.125000e+01	 1.000000e+01
0	 2.875000e+01	 1.250000e+01	 1.000000e+01
0	 3.000000e+01	 6.250000e+00	 1.000000e+01
0	 3.000000e+01	 7.500000e+00	 1.000000e+01
0	 3.000000e+01	 8.750000e+00	 1.000000e+01
0	 3.000000e+01	 1.000000e+01	 1.000000e+01
0	 3.000000e+01	 1.125000e+01	 1.000000e+01
0	 3.000000e+01	 1.250000e+01	 1.000000e+01
0	 3.125000e+01	 6.250000e+00	 1.000000e+01
0	 3.125000e+01	 7.500000e+00	 1.000000e+01
0	 3.125000e+01	 8.750000e+00	 1.000000e+01
0	 3.125000e+01	 1.000000e+01	 1.000000e+01
0	 3.125000e+01	 1.125000e+01	 1.000000e+01
0	 3.125000e+01	 1.250000e+01	 1.000000e+01
0	 2.500000e+01	 1.250000e+01	 1.000000e+01
0	 2.500000e+01	 1.375000e+01	 1.000000e+01
0	 2.500000e+01	 1.500000e+01	 1.000000e+01
0	 2.500000e+01	 1.625000e+01	 1.000000e+01
0	 2.500000e+01	 1.750000e+01	 1.000000e+01
0	 2.500000e+01	 1.875000e+01	 1.000000e+01
0	 2.625000e+01	 1.250000e+01	 1.000000e+01
0	 2.625000e+01	 1.375000e+01	 1.000000e+01
0	 2.625000e+01	 1.500000e+01	 1.000000e+01
0	 2.625000e+01	 1.625000e+01	 1.000000e+01
0	 2.625000e+01	 1.750000e+01	 1.000000e+01
0	 2.625000e+01	 1.875000e+01	 1.000000e+01
0	 2.750000e+01	 1.250000e+01	 1.000000e+01
0	 2.750000e+01	 1.375000e+01	 1.000000e+01
0	 2.750000e+01	 1.500000e+01	 1.000000e+01
0	 2.750000e+01	 1.625000e+01	 1.000000e+01
0	 2.750000e+01	 1.750000e+01	 1.000000e+01
0	 2.750000e+01	 1.875000e+01	 1.000000e+01
0	 2.875000e+01	 1.250000e+01	 1.000000e+01
0	 2.875000e+01	 1.375000e+01	 1.000000e+01
0	 2.875000e+01	 1.500000e+01	 1.000000e+01
0	 2.875000e+01	 1.625000e+01	 1.000000e+01
0	 2.875000e+01	 1.750000e+01	 1.000000e+01
0	 2.875000e+01	 1.875000e+01	 1.000000e+01
0	 3.000000e+01	 1.250000e+01	 1.000000e+01
0	 3.000000e+01	 1.375000e+01	 1.000000e+01
0	 3.000000e+01	 1.500000e+01	 1.000000e+01
0	 3.000000e+01	 1.625000e+01	 1.000000e+01
0	 3.000000e+01	 1.750000e+01	 1.000000e+01
0	 3.000000e+01	 1.875000e+01	 1.000000e+01
0	 3.125000e+01	 1.250000e+01	 1.000000e+01
0	 3.125000e+01	 1.375000e+01	 1.000000e+01
0	 3.125000e+01	 1.500000e+01	 1.000000e+01
0	 3.125000e+01	 1.625000e+01	 1.000000e+01
0	 3.125000e+01	 1.750000e+01	 1.000000e+01
0	 3.125000e+01	 1.875000e+01	 1.000000e+01
0	 2.500000e+01	 1.875000e+01	 1.000000e+01
0	 2.500000e+01	 2.000000e+01	 1.000000e+01
0	 2.500000e+01	 2.125000e+01	 1.000000e+01
0	 2.500000e+01	 2.250000e+01	 1.000000e+01
0	 2.500000e+01	 2.375000e+01	 1.000000e+01
0	 2.500000e+01	 2.500000e+01	 1.000000e+01
0	 2.625000e+01	 1.875000e+01	 1.000000e+01
0	 2.625000e+01	 2.000000e+01	 1.000000e+01
0	 2.625000e+01	 2.125000e+01	 1.000000e+01
0	 2.625000e+01	 2.250000e+01	 1.000000e+01
0	 2.625000e+01	 2.375000e+01	 1.000000e+01
0	 2.625000e+01	 2.500000e+01	 1.000000e+01
0	 2.750000e+01	 1.875000e+01	 1.000000e+01
0	 2.750000e+01	 2.000000e+01	 1.000000e+01
0	 2.750000e+01	 2.125000e+01	 1.000000e+01
0	 2.750000e+01	 2.250000e+01	 1.000000e+01
0	 2.750000e+01	 2.375000e+01	 1.000000e+01
0	 2.750000e+01	 2.500000e+01	 1.000000e+01
0	 2.875000e+01	 1.875000e+01	 1.000000e+01
0	 2.875000e+01	 2.000000e+01	 1.000000e+01
0	 2.875000e+01	 2.125000e+01	 1.000000e+01
0	 2.875000e+01	 2.250000e+01	 1.000000e+01
0	 2.875000e+01	 2.375000e+01	 1.000000e+01
0	 2.875000e+01	 2.500000e+01	 1.000000e+01
0	 3.000000e+01	 1.875000e+01	 1.000000e+01
0	 3.000000e+01	 2.000000e+01	 1.000000e+01
0	 3.000000e+01	 2.125000e+01	 1.000000e+01
0	 3.000000e+01	 2.250000e+01	 1.000000e+01
0	 3.000000e+01	 2.375000e+01	 1.000000e+01
0	 3.000000e+01	 2.500000e+01	 1.000000e+01
0	 3.125000e+01	 1.875000e+01	 1.000000e+01
0	 3.125000e+01	 2.000000e+01	 1.000000e+01
0	 3.125000e+01	 2.125000e+01	 1.000000e+01
0	 3.125000e+01	 2.250000e+01	 1.000000e+01
0	 3.125000e+01	 2.375000e+01	 1.000000e+01
0	 3.125000e+01	 2.500000e+01	 1.000000e+01
0	 2.500000e+01	 2.500000e+01	 1.000000e+01
0	 2.500000e+01	 2.625000e+01	 1.000000e+01
0	 2.500000e+01	 2.750000e+01	 1.000000e+01
0	 2.500000e+01	 2.875000e+01	 1.000000e+01
0	 2.500000e+01	 3.000000e+01	 1.000000e+01
0	 2.500000e+01	 3.125000e+01	 1.000000e+01
0	 2.625000e+01	 2.500000e+01	 1.000000e+01
0	 2.625000e+01	 2.625000e+01	 1.000000e+01
0	 2.625000e+01	 2.750000e+01	 1.000000e+01
0	 2.625000e+01	 2.875000e+01	 1.000000e+01
0	 2.625000e+01	 3.000000e+01	 1.000000e+01
0	 2.625000e+01	 3.125000e+01	 1.000000e+01
0	 2.750000e+01	 2.500000e+01	 1.000000e+01
0	 2.750000e+01	 2.625000e+01	 1.000000e+01
0	 2.750000e+01	 2.750000e+01	 1.000000e+01
0	 2.750000e+01	 2.875000e+01	 1.000000e+01
0	 2.750000e+01	 3.000000e+01	 1.000000e+01
0	 2.750000e+01	 3.125000e+01	 1.000000e+01
0	 2.875000e+01	 2.500000e+01	 1.000000e+01
0	 2.875000e+01	 2.625000e+01	 1.000000e+01
0	 2.875000e+01	 2.750000e+01	 1.000000e+01
0	 2.875000e+01	 2.875000e+01	 1.000000e+01
0	 2.875000e+01	 3.000000e+01	 1.000000e+01
0	 2.875000e+01	 3.125000e+01	 1.000000e+01
0	 3.000000e+01	 2.500000e+01	 1.000000e+01
0	 3.000000e+01	 2.625000e+01	 1.000000e+01
0	 3.000000e+01	 2.750000e+01	 1.000000e+01
0	 3.000000e+01	 2.875000e+01	 1.000000e+01
0	 3.000000e+01	 3.000000e+01	 1.000000e+01
0	 3.000000e+01	 3.125000e+01	 1.000000e+01
0	 3.125000e+01	 2.500000e+01	 1.000000e+01
0	 3.125000e+01	 2.625000e+01	 1.000000e+01
0	 3.125000e+01	 2.750000e+01	 1.000000e+01
0	 3.125000e+01	 2.875000e+01	 1.000000e+01
0	 3.125000e+01	 3.000000e+01	 1.000000e+01
0	 3.125000e+01	 3.125000e+01	 1.000000e+01
0	 2.500000e+01	 3.125000e+01	 1.000000e+01
0	 2.500000e+01	 3.250000e+01	 1.000000e+01
0	 2.500000e+01	 3.375000e+01	 1.000000e+01
0	 2.500000e+01	 3.500000e+01	 1.000000e+01
0	 2.500000e+01	 3.625000e+01	 1.000000e+01
0	 2.500000e+01	 3.750000e+01	 1.000000e+01
0	 2.625000e+01	 3.125000e+01	 1.000000e+01
0	 2.625000e+01	 3.250000e+01	 1.000000e+01
0	 2.625000e+01	 3.375000e+01	 1.000000e+01
0	 2.625000e+01	 3.500000e+01	 1.000000e+01
0	 2.625000e+01	 3.625000e+01	 1.000000e+01
0	 2.625000e+01	 3.750000e+01	 1.000000e+01
0	 2.750000e+01	 3.125000e+01	 1.000000e+01
0	 2.750000e+01	 3.250000e+01	 1.000000e+01
0	 2.750000e+01	 3.375000e+01	 1.000000e+01
0	 2.750000e+01	 3.500000e+01	 1.000000e+01
0	 2.750000e+01	 3.625000e+01	 1.000000e+01
0	 2.750000e+01	 3.750000e+01	 1.000000e+01
0	 2.875000e+01	 3.125000e+01	 1.000000e+01
0	 2.875000e+01	 3.250000e+01	 1.000000e+01
0	 2.875000e+01	 3.375000e+01	 1.000000e+01
0	 2.875000e+01	 3.500000e+01	 1.000000e+01
0	 2.875000e+01	 3.625000e+01	 1.000000e+01
0	 2.875000e+01	 3.750000e+01	 1.000000e+01
0	 3.000000e+01	 3.125000e+01	 1.000000e+01
0	 3.000000e+01	 3.250000e+01	 1.000000e+01
0	 3.000000e+01	 3.375000e+01	 1.000000e+01
0	 3.000000e+01	 3.500000e+01	 1.000000e+01
0	 3.000000e+01	 3.625000e+01	 1.000000e+01
0	 3.000000e+01	 3.750000e+01	 1.000000e+01
0	 3.125000e+01	 3.125000e+01	 1.000000e+01
0	 3.125000e+01	 3.250000e+01	 1.000000e+01
0	 3.125000e+01	 3.375000e+01	 1.000000e+01
0	 3.125000e+01	 3.500000e+01	 1.000000e+01
0	 3.125000e+01	 3.625000e+01	 1.000000e+01
0	 3.125000e+01	 3.750000e+01	 1.000000e+01
0	 2.500000e+01	 3.750000e+01	 1.000000e+01
0	 2.500000e+01	 3.875000e+01	 1.000000e+01
0	 2.500000e+01	 4.000000e+01	 1.000000e+01
0	 2.500000e+01	 4.125000e+01	 1.000000e+01
0	 2.500000e+01	 4.250000e+01	 1.000000e+01
0	 2.500000e+01	 4.375000e+01	 1.000000e+01
0	 2.625000e+01	 3.750000e+01	 1.000000e+01
0	 2.625000e+01	 3.875000e+01	 1.000000e+01
0	 2.625000e+01	 4.000000e+01	 1.000000e+01
0	 2.625000e+01	 4.125000e+01	 1.000000e+01
0	 2.625000e+01	 4.250000e+01	 1.000000e+01
0	 2.625000e+01	 4.375000e+01	 1.000000e+01
0	 2.750000e+01	 3.750000e+01	 1.000000e+01
0	 2.750000e+01	 3.875000e+01	 1.000000e+01
0	 2.750000e+01	 4.000000e+01	 1.000000e+01
0	 2.750000e+01	 4.125000e+01	 1.000000e+01
0	 2.750000e+01	 4.250000e+01	 1.000000e+01
0	 2.750000e+01	 4.375000e+01	 1.000000e+01
0	 2.875000e+01	 3.750000e+01	 1.000000e+01
0	 2.875000e+01	 3.875000e+01	 1.000000e+01
0	 2.875000e+01	 4.000000e+01	 1.000000e+01
0	 2.875000e+01	 4.125000e+01	 1.000000e+01
0	 2.875000e+01	 4.250000e+01	 1.000000e+01
0	 2.875000e+01	 4.375000e+01	 1.000000e+01
0	 3.000000e+01	 3.750000e+01	 1.000000e+01
0	 3.000000e+01	 3.875000e+01	 1.000000e+01
0	 3.000000e+01	 4.000000e+01	 1.000000e+01
0	 3.000000e+01	 4.125000e+01	 1.000000e+01
0	 3.000000e+01	 4.250000e+01	 1.000000e+01
0	 3.000000e+01	 4.375000e+01	 1.000000e+01
0	 3.125000e+01	 3.750000e+01	 1.000000e+01
0	 3.125000e+01	 3.875000e+01	 1.000000e+01
0	 3.125000e+01	 4.000000e+01	 1.000000e+01
0	 3.125000e+01	 4.125000e+01	 1.000000e+01
0	 3.125000e+01	 4.250000e+01	 1.000000e+01
0	 3.125000e+01	 4.375000e+01	 1.000000e+01
0	 2.500000e+01	 4.375000e+01	 1.000000e+01
0	-nan	 4.500000e+01	 nan
0	-nan	 4.625000e+01	 nan
0	-nan	 4.750000e+01	 nan
0	-nan	 4.875000e+01	 nan
0	-nan	 5.000000e+01	 nan
0	 2.625000e+01	 4.375000e+01	 1.000000e+01
0	-nan	 4.500000e+01	 nan
0	-nan	 4.625000e+01	 nan
0	-nan	 4.750000e+01	 nan
0	-nan	 4.875000e+01	 nan
0	-nan	 5.000000e+01	 nan
0	 2.750000e+01	 4.375000e+01	 1.000000e+01
0	-nan	 4.500000e+01	 nan
0	-nan	 4.625000e+01	 nan
0	-nan	 4.750000e+01	 nan
0	-nan	 4.875000e+01	 nan
0	-nan	 5.000000e+01	 nan
0	 2.875000e+01	 4.375000e+01	 1.000000e+01
0	-nan	 4.500000e+01	 nan
0	-nan	 4.625000e+01	 nan
0	-nan	 4.750000e+01	 nan
0	-nan	 4.875000e+01	 nan
0	-nan	 5.000000e+01	 nan
0	 3.000000e+01	 4.375000e+01	 1.000000e+01
0	-nan	 4.500000e+01	 nan
0	-nan	 4.625000e+01	 nan
0	-nan	 4.750000e+01	 nan
0	-nan	 4.875000e+01	 nan
0	-nan	 5.000000e+01	 nan
0	 3.125000e+01	 4.375000e+01	 1.000000e+01
0	-nan	 4.500000e+01	 nan
0	-nan	 4.625000e+01	 nan
0	-nan	 4.750000e+01	 nan
0	-nan	 4.875000e+01	 nan
0	-nan	 5.000000e+01	 nan
0	 3.125000e+01	 0.000000e+00	 1.000000e+01
0	 3.125000e+01	 1.250000e+00	 1.000000e+01
0	 3.125000e+01	 2.500000e+00	 1.000000e+01
0	 3.125000e+01	 3.750000e+00	 1.000000e+01
0	 3.125000e+01	 5.000000e+00	 1.000000e+01
0	 3.125000e+01	 6.250000e+00	 1.000000e+01
0	 3.250000e+01	 0.000000e+00	 1.000000e+01
0	 3.250000e+01	 1.250000e+00	 1.000000e+01
0	 3.250000e+01	 2.500000e+00	 1.000000e+01
0	 3.250000e+01	 3.750000e+00	 1.000000e+01
0	 3.250000e+01	 5.000000e+00	 1.000000e+01
0	 3.250000e+01	 6.250000e+00	 1.000000e+01
0	 3.375000e+01	 0.000000e+00	 1.000000e+01
0	 3.375000e+01	 1.250000e+00	 1.000000e+01
0	 3.375000e+01	 2.500000e+00	 1.000000e+01
0	 3.375000e+01	 3.750000e+00	 1.000000e+01
0	 3.375000e+01	 5.000000e+00	 1.000000e+01
0	 3.375000e+01	 6.250000e+00	 1.000000e+01
0	 3.500000e+01	 0.000000e+00	 1.000000e+01
0	 3.500000e+01	 1.250000e+00	 1.000000e+01
0	 3.500000e+01	 2.500000e+00	 1.000000e+01
0	 3.500000e+01	 3.750000e+00	 1.000000e+01
0	 3.500000e+01	 5.000000e+00	 1.000000e+01
0	 3.500000e+01	 6.250000e+00	 1.000000e+01
0	 3.625000e+01	 0.000000e+00	 1.000000e+01
0	 3.625000e+01	 1.250000e+00	 1.000000e+01
0	 3.625000e+01	 2.500000e+00	 1.000000e+01
0	 3.625000e+01	 3.750000e+00	 1.000000e+01
0	 3.625000e+01	 5.000000e+00	 1.000000e+01
0	 3.625000e+01	 6.250000e+00	 1.000000e+01
0	 3.750000e+01	 0.000000e+00	 1.000000e+01
0	 3.750000e+01	 1.250000e+00	 1.000000e+01
0	 3.750000e+01	 2.500000e+00	 1.000000e+01
0	 3.750000e+01	 3.750000e+00	 1.000000e+01
0	 3.750000e+01	 5.000000e+00	 1.000000e+01
0	 3.750000e+01	 6.250000e+00	 1.000000e+01
0	 3.125000e+01	 6.250000e+00	 1.000000e+01
0	 3.125000e+01	 7.500000e+00	 1.000000e+01
0	 3.125000e+01	 8.750000e+00	 1.000000e+01
0	 3.125000e+01	 1.000000e+01	 1.000000e+01
0	 3.125000e+01	 1.125000e+01	 1.000000e+01
0	 3.125000e+01	 1.250000e+01	 1.000000e+01
0	 3.250000e+01	 6.250000e+00	 1.000000e+01
0	 3.250000e+01	 7.500000e+00	 1.000000e+01
0	 3.250000e+01	 8.750000e+00	 1.000000e+01
0	 3.250000e+01	 1.000000e+01	 1.000000e+01
0	 3.250000e+01	 1.125000e+01	 1.000000e+01
0	 3.250000e+01	 1.250000e+01	 1.000000e+01
0	 3.375000e+01	 6.250000e+00	 1.000000e+01
0	 3.375000e+01	 7.500000e+00	 1.000000e+01
0	 3.375000e+01	 8.750000e+00	 1.000000e+01
0	 3.375000e+01	 1.000000e+01	 1.000000e+01
0	 3.375000e+01	 1.125000e+01	 1.000000e+01
0	 3.375000e+01	 1.250000e+01	 1.000000e+01
0	 3.500000e+01	 6.250000e+00	 1.000000e+01
0	 3.500000e+01	 7.500000e+00	 1.000000e+01
0	 3.500000e+01	 8.750000e+00	 1.000000e+01
0	 3.500000e+01	 1.000000e+01	 1.000000e+01
0	 3.500000e+01	 1.125000e+01	 1.000000e+01
0	 3.500000e+01	 1.250000e+01	 1.000000e+01
0	 3.625000e+01	 6.250000e+00	 1.000000e+01
0	 3.625000e+01	 7.500000e+00	 1.000000e+01
0	 3.625000e+01	 8.750000e+00	 1.000000e+01
0	 3.625000e+01	 1.000000e+01	 1.000000e+01
0	 3.625000e+01	 1.125000e+01	 1.000000e+01
0	 3.625000e+01	 1.250000e+01	 1.000000e+01
0	 3.750000e+01	 6.250000e+00	 1.000000e+01
0	 3.750000e+01	 7.500000e+00	 1.000000e+01
0	 3.750000e+01	 8.750000e+00	 1.000000e+01
0	 3.750000e+01	 1.000000e+01	 1.000000e+01
0	 3.750000e+01	 1.125000e+01	 1.000000e+01
0	 3.750000e+01	 1.250000e+01	 1.000000e+01
0	 3.125000e+01	 1.250000e+01	 1.000000e+01
0	 3.125000e+01	 1.375000e+01	 1.000000e+01
0	 3.125000e+01	 1.500000e+01	 1.000000e+01
0	 3.125000e+01	 1.625000e+01	 1.000000e+01
0	 3.125000e+01	 1.750000e+01	 1.000000e+01
0	 3.125000e+01	 1.875000e+01	 1.000000e+01
0	 3.250000e+01	 1.250000e+01	 1.000000e+01
0	 3.250000e+01	 1.375000e+01	 1.000000e+01
0	 3.250000e+01	 1.500000e+01	 1.000000e+01
0	 3.250000e+01	 1.625000e+01	 1.000000e+01
0	 3.250000e+01	 1.750000e+01	 1.000000e+01
0	 3.250000e+01	 1.875000e+01	 1.000000e+01
0	 3.375000e+01	 1.250000e+01	 1.000000e+01
0	 3.375000e+01	 1.375000e+01	 1.000000e+01
0	 3.375000e+01	 1.500000e+01	 1.000000e+01
0	 3.375000e+01	 1.625000e+01	 1.000000e+01
0	 3.375000e+01	 1.750000e+01	 1.000000e+01
0	 3.375000e+01	 1.875000e+01	 1.000000e+01
0	 3.500000e+01	 1.250000e+01	 1.000000e+01
0	 3.500000e+01	 1.375000e+01	 1.000000e+01
0	 3.500000e+01	 1.500000e+01	 1.000000e+01
0	 3.500000e+01	 1.625000e+01	 1.000000e+01
0	 3.500000e+01	 1.750000e+01	 1.000000e+01
0	 3.500000e+01	 1.875000e+01	 1.000000e+01
0	 3.625000e+01	 1.250000e+01	 1.000000e+01
0	 3.625000e+01	 1.375000e+01	 1.000000e+01
0	 3.625000e+01	 1.500000e+01	 1.000000e+01
0	 3.625000e+01	 1.625000e+01	 1.000000e+01
0	 3.625000e+01	 1.750000e+01	 1.000000e+01
0	 3.625000e+01	 1.875000e+01	 1.000000e+01
0	 3.750000e+01	 1.250000e+01	 1.000000e+01
0	 3.750000e+01	 1.375000e+01	 1.000000e+01
0	 3.750000e+01	 1.500000e+01	 1.000000e+01
0	 3.750000e+01	 1.625000e+01	 1.000000e+01
0	 3.750000e+01	 1.750000e+01	 1.000000e+01
0	 3.750000e+01	 1.875000e+01	 1.000000e+01
0	 3.125000e+01	 1.875000e+01	 1.000000e+01
0	 3.125000e+01	 2.000000e+01	 1.000000e+01
0	 3.125000e+01	 2.125000e+01	 1.000000e+01
0	 3.125000e+01	 2.250000e+01	 1.000000e+01
0	 3.125000e+01	 2.375000e+01	 1.000000e+01
0	 3.125000e+01	 2.500000e+01	 1.000000e+01
0	 3.250000e+01	 1.875000e+01	 1.000000e+01
0	 3.250000e+01	 2.000000e+01	 1.000000e+01
0	 3.250000e+01	 2.125000e+01	 1.000000e+01
0	 3.250000e+01	 2.250000e+01	 1.000000e+01
0	 3.250000e+01	 2.375000e+01	 1.000000e+01
0	 3.250000e+01	 2.500000e+01	 1.000000e+01
0	 3.375000e+01	 1.875000e+01	 1.000000e+01
0	 3.375000e+01	 2.000000e+01	 1.000000e+01
0	 3.375000e+01	 2.125000e+01	 1.000000e+01
0	 3.375000e+01	 2.250000e+01	 1.000000e+01
0	 3.375000e+01	 2.375000e+01	 1.000000e+01
0	 3.375000e+01	 2.500000e+01	 1.000000e+01
0	 3.500000e+01	 1.875000e+01	 1.000000e+01
0	 3.500000e+01	 2.000000e+01	 1.000000e+01
0	 3.500000e+01	 2.125000e+01	 1.000000e+01
0	 3.500000e+01	 2.250000e+01	 1.000000e+01
0	 3.500000e+01	 2.375000e+01	 1.000000e+01
0	 3.500000e+01	 2.500000e+01	 1.000000e+01
0	 3.625000e+01	 1.875000e+01	 1.000000e+01
0	 3.625000e+01	 2.000000e+01	 1.000000e+01
0	 3.625000e+01	 2.125000e+01	 1.000000e+01
0	 3.625000e+01	 2.250000e+01	 1.000000e+01
0	 3.625000e+01	 2.375000e+01	 1.000000e+01
0	 3.625000e+01	 2.500000e+01	 1.000000e+01
0	 3.750000e+01	 1.875000e+01	 1.000000e+01
0	 3.750000e+01	 2.000000e+01	 1.000000e+01
0	 3.750000e+01	 2.125000e+01	 1.000000e+01
0	 3.750000e+01	 2.250000e+01	 1.000000e+01
0	 3.750000e+01	 2.375000e+01	 1.000000e+01
0	 3.750000e+01	 2.500000e+01	 1.000000e+01
0	 3.125000e+01	 2.500000e+01	 1.000000e+01
0	 3.125000e+01	 2.625000e+01	 1.000000e+01
0	 3.125000e+01	 2.750000e+01	 1.000000e+01
0	 3.125000e+01	 2.875000e+01	 1.000000e+01
0	 3.125000e+01	 3.000000e+01	 1.000000e+01
0	 3.125000e+01	 3.125000e+01	 1.000000e+01
0	 3.250000e+01	 2.500000e+01	 1.000000e+01
0	 3.250000e+01	 2.625000e+01	 1.000000e+01
0	 3.250000e+01	 2.750000e+01	 1.000000e+01
0	 3.250000e+01	 2.875000e+01	 1.000000e+01
0	 3.250000e+01	 3.000000e+01	 1.000000e+01
0	 3.250000e+01	 3.125000e+01	 1.000000e+01
0	 3.375000e+01	 2.500000e+01	 1.000000e+01
0	 3.375000e+01	 2.625000e+01	 1.000000e+01
0	 3.375000e+01	 2.750000e+01	 1.000000e+01
0	 3.375000e+01	 2.875000e+01	 1.000000e+01
0	 3.375000e+01	 3.000000e+01	 1.000000e+01
0	 3.375000e+01	 3.125000e+01	 1.000000e+01
0	 3.500000e+01	 2.500000e+01	 1.000000e+01
0	 3.500000e+01	 2.625000e+01	 1.000000e+01
0	 3.500000e+01	 2.750000e+01	 1.000000e+01
0	 3.500000e+01	 2.875000e+01	 1.000000e+01
0	 3.500000e+01	 3.000000e+01	 1.000000e+01
0	 3.500000e+01	 3.125000e+01	 1.000000e+01
0	 3.625000e+01	 2.500000e+01	 1.000000e+01
0	 3.625000e+01	 2.625000e+01	 1.000000e+01
0	 3.625000e+01	 2.750000e+01	 1.000000e+01
0	 3.625000e+01	 2.875000e+01	 1.000000e+01
0	 3.625000e+01	 3.000000e+01	 1.000000e+01
0	 3.625000e+01	 3.125000e+01	 1.000000e+01
0	 3.750000e+01	 2.500000e+01	 1.000000e+01
0	 3.750000e+01	 2.625000e+01	 1.000000e+01
0	 3.750000e+01	 2.750000e+01	 1.000000e+01
0	 3.750000e+01	 2.875000e+01	 1.000000e+01
0	 3.750000e+01	 3.000000e+01	 1.000000e+01
0	 3.750000e+01	 3.125000e+01	 1.000000e+01
0	 3.125000e+01	 3.125000e+01	 1.000000e+01
0	 3.125000e+01	 3.250000e+01	 1.000000e+01
0	 3.125000e+01	 3.375000e+01	 1.000000e+01
0	 3.125000e+01	 3.500000e+01	 1.000000e+01
0	 3.125000e+01	 3.625000e+01	 1.000000e+01
0	 3.125000e+01	 3.750000e+01	 1.000000e+01
0	 3.250000e+01	 3.125000e+01	 1.000000e+01
0	 3.250000e+01	 3.250000e+01	 1.000000e+01
0	 3.250000e+01	 3.375000e+01	 1.000000e+01
0	 3.250000e+01	 3.500000e+01	 1.000000e+01
0	 3.250000e+01	 3.625000e+01	 1.000000e+01
0	 3.250000e+01	 3.750000e+01	 1.000000e+01
0	 3.375000e+01	 3.125000e+01	 1.000000e+01
0	 3.375000e+01	 3.250000e+01	 1.000000e+01
0	 3.375000e+01	 3.375000e+01	 1.000000e+01
0	 3.375000e+01	 3.500000e+01	 1.000000e+01
0	 3.375000e+01	 3.625000e+01	 1.000000e+01
0	 3.375000e+01	 3.750000e+01	 1.000000e+01
0	 3.500000e+01	 3.125000e+01	 1.000000e+01
0	 3.500000e+01	 3.250000e+01	 1.000000e+01
0	 3.500000e+01	 3.375000e+01	 1.000000e+01
0	 3.500000e+01	 3.500000e+01	 1.000000e+01
0	 3.500000e+01	 3.625000e+01	 1.000000e+01
0	 3.500000e+01	 3.750000e+01	 1.000000e+01
0	 3.625000e+01	 3.125000e+01	 1.000000e+01
0	 3.625000e+01	 3.250000e+01	 1.000000e+01
0	 3.625000e+01	 3.375000e+01	 1.000000e+01
0	 3.625000e+01	 3.500000e+01	 1.000000e+01
0	 3.625000e+01	 3.625000e+01	 1.000000e+01
0	 3.625000e+01	 3.750000e+01	 1.000000e+01
0	 3.750000e+01	 3.125000e+01	 1.000000e+01
0	 3.750000e+01	 3.250000e+01	 1.000000e+01
0	 3.750000e+01	 3.375000e+01	 1.000000e+01
0	 3.750000e+01	 3.500000e+01	 1.000000e+01
0	 3.750000e+01	 3.625000e+01	 1.000000e+01
0	 3.750000e+01	 3.750000e+01	 1.000000e+01
0	 3.125000e+01	 3.750000e+01	 1.000000e+01
0	 3.125000e+01	 3.875000e+01	 1.000000e+01
0	 3.125000e+01	 4.000000e+01	 1.000000e+01
0	 3.125000e+01	 4.125000e+01	 1.000000e+01
0	 3.125000e+01	 4.250000e+01	 1.000000e+01
0	 3.125000e+01	 4.375000e+01	 1.000000e+01
0	 3.250000e+01	 3.750000e+01	 1.000000e+01
0	 3.250000e+01	 3.875000e+01	 1.000000e+01
0	 3.250000e+01	 4.000000e+01	 1.000000e+01
0	 3.250000e+01	 4.125000e+01	 1.000000e+01
0	 3.250000e+01	 4.250000e+01	 1.000000e+01
0	 3.250000e+01	 4.375000e+01	 1.000000e+01
0	 3.375000e+01	 3.750000e+01	 1.000000e+01
0	 3.375000e+01	 3.875000e+01	 1.000000e+01
0	 3.375000e+01	 4.000000e+01	 1.000000e+01
0	 3.375000e+01	 4.125000e+01	 1.000000e+01
0	 3.375000e+01	 4.250000e+01	 1.000000e+01
0	 3.375000e+01	 4.375000e+01	 1.000000e+01
0	 3.500000e+01	 3.750000e+01	 1.000000e+01
0	 3.500000e+01	 3.875000e+01	 1.000000e+01
0	 3.500000e+01	 4.000000e+01	 1.000000e+01
0	 3.500000e+01	 4.125000e+01	 1.000000e+01
0	 3.500000e+01	 4.250000e+01	 1.000000e+01
0	 3.500000e+01	 4.375000e+01	 1.000000e+01
0	 3.625000e+01	 3.750000e+01	 1.000000e+01
0	 3.625000e+01	 3.875000e+01	 1.000000e+01
0	 3.625000e+01	 4.000000e+01	 1.000000e+01
0	 3.625000e+01	 4.125000e+01	 1.000000e+01
0	 3.625000e+01	 4.250000e+01	 1.000000e+01
0	 3.625000e+01	 4.375000e+01	 1.000000e+01
0	 3.750000e+01	 3.750000e+01	 1.000000e+01
0	 3.750000e+01	 3.875000e+01	 1.000000e+01
0	 3.750000e+01	 4.000000e+01	 1.000000e+01
0	 3.750000e+01	 4.125000e+01	 1.000000e+01
0	 3.750000e+01	 4.250000e+01	 1.000000e+01
0	 3.750000e+01	 4.375000e+01	 1.000000e+01
0	 3.125000e+01	 4.375000e+01	 1.000000e+01
0	-nan	 4.500000e+01	 nan
0	-nan	 4.625000e+01	 nan
0	-nan	 4.750000e+01	 nan
0	-nan	 4.875000e+01	 nan
0	-nan	 5.000000e+01	 nan
0	 3.250000e+01	 4.375000e+01	 1.000000e+01
0	-nan	 4.500000e+01	 nan
0	-nan	 4.625000e+01	 nan
0	-nan	 4.750000e+01	 nan
0	-nan	 4.875000e+01	 nan
0	-nan	 5.000000e+01	 nan
0	 3.375000e+01	 4.375000e+01	 1.000000e+01
0	-nan	 4.500000e+01	 nan
0	-nan	 4.625000e+01	 nan
0	-nan	 4.750000e+01	 nan
0	-nan	 4.875000e+01	 nan
0	-nan	 5.000000e+01	 nan
0	 3.500000e+01	 4.375000e+01	 1.000000e+01
0	-nan	 4.500000e+01	 nan
0	-nan	 4.625000e+01	 nan
0	-nan	 4.750000e+01	 nan
0	-nan	 4.875000e+01	 nan
0	-nan	 5.000000e+01	 nan
0	 3.625000e+01	 4.375000e+01	 1.000000e+01
0	-nan	 4.500000e+01	 nan
0	-nan	 4.625000e+01	 nan
0	-nan	 4.750000e+01	 nan
0	-nan	 4.875000e+01	 nan
0	-nan	 5.000000e+01	 nan
0	 3.750000e+01	 4.375000e+01	 1.000000e+01
0	-nan	 4.500000e+01	 nan
0	-nan	 4.625000e+01	 nan
0	-nan	 4.750000e+01	 nan
0	-nan	 4.875000e+01	 nan
0	-nan	 5.000000e+01	 nan
0	 3.750000e+01	 0.000000e+00	 1.000000e+01
0	 3.750000e+01	 1.250000e+00	 1.000000e+01
0	 3.750000e+01	 2.500000e+00	 1.000000e+01
0	 3.750000e+01	 3.750000e+00	 1.000000e+01
0	 3.750000e+01	 5.000000e+00	 1.000000e+01
0	 3.750000e+01	 6.250000e+00	 1.000000e+01
0	 3.875000e+01	 0.000000e+00	 1.000000e+01
0	 3.875000e+01	 1.250000e+00	 1.000000e+01
0	 3.875000e+01	 2.500000e+00	 1.000000e+01
0	 3.875000e+01	 3.750000e+00	 1.000000e+01
0	 3.875000e+01	 5.000000e+00	 1.000000e+01
0	 3.875000e+01	 6.250000e+00	 1.000000e+01
0	 4.000000e+01	 0.000000e+00	 1.000000e+01
0	 4.000000e+01	 1.250000e+00	 1.000000e+01
0	 4.000000e+01	 2.500000e+00	 1.000000e+01
0	 4.000000e+01	 3.750000e+00	 1.000000e+01
0	 4.000000e+01	 5.000000e+00	 1.000000e+01
0	 4.000000e+01	 6.250000e+00	 1.000000e+01
0	 4.125000e+01	 0.000000e+00	 1.000000e+01
0	 4.125000e+01	 1.250000e+00	 1.000000e+01
0	 4.125000e+01	 2.500000e+00	 1.000000e+01
0	 4.125000e+01	 3.750000e+00	 1.000000e+01
0	 4.125000e+01	 5.000000e+00	 1.000000e+01
0	 4.125000e+01	 6.250000e+00	 1.000000e+01
0	 4.250000e+01	 0.000000e+00	 1.000000e+01
0	 4.250000e+01	 1.250000e+00	 1.000000e+01
0	 4.250000e+01	 2.500000e+00	 1.000000e+01
0	 4.250000e+01	 3.750000e+00	 1.000000e+01
0	 4.250000e+01	 5.000000e+00	 1.000000e+01
0	 4.250000e+01	 6.250000e+00	 1.000000e+01
0	 4.375000e+01	 0.000000e+00	 1.000000e+01
0	 4.375000e+01	 1.250000e+00	 1.000000e+01
0	 4.375000e+01	 2.500000e+00	 1.000000e+01
0	 4.375000e+01	 3.750000e+00	 1.000000e+01
0	 4.375000e+01	 5.000000e+00	 1.000000e+01
0	 4.375000e+01	 6.250000e+00	 1.000000e+01
0	 3.750000e+01	 6.250000e+00	 1.000000e+01
0	 3.750000e+01	 7.500000e+00	 1.000000e+01
0	 3.750000e+01	 8.750000e+00	 1.000000e+01
0	 3.750000e+01	 1.000000e+01	 1.000000e+01
0	 3.750000e+01	 1.125000e+01	 1.000000e+01
0	 3.750000e+01	 1.250000e+01	 1.000000e+01
0	 3.875000e+01	 6.250000e+00	 1.000000e+01
0	 3.875000e+01	 7.500000e+00	 1.000000e+01
0	 3.875000e+01	 8.750000e+00	 1.000000e+01
0	 3.875000e+01	 1.000000e+01	 1.000000e+01
0	 3.875000e+01	 1.125000e+01	 1.000000e+01
0	 3.875000e+01	 1.250000e+01	 1.000000e+01
0	 4.000000e+01	 6.250000e+00	 1.000000e+01
0	 4.000000e+01	 7.500000e+00	 1.000000e+01
0	 4.000000e+01	 8.750000e+00	 1.000000e+01
0	 4.000000e+01	 1.000000e+01	 1.000000e+01
0	 4.000000e+01	 1.125000e+01	 1.000000e+01
0	 4.000000e+01	 1.250000e+01	 1.000000e+01
0	 4.125000e+01	 6.250000e+00	 1.000000e+01
0	 4.125000e+01	 7.500000e+00	 1.000000e+01
0	 4.125000e+01	 8.750000e+00	 1.000000e+01
0	 4.125000e+01	 1.000000e+01	 1.000000e+01
0	 4.125000e+01	 1.125000e+01	 1.000000e+01
0	 4.125000e+01	 1.250000e+01	 1.000000e+01
0	 4.250000e+01	 6.250000e+00	 1.000000e+01
0	 4.250000e+01	 7.500000e+00	 1.000000e+01
0	 4.250000e+01	 8.750000e+00	 1.000000e+01
0	 4.250000e+01	 1.000000e+01	 1.000000e+01
0	 4.250000e+01	 1.125000e+01	 1.000000e+01
0	 4.250000e+01	 1.250000e+01	 1.000000e+01
0	 4.375000e+01	 6.250000e+00	 1.000000e+01
0	 4.375000e+01	 7.500000e+00	 1.000000e+01
0	 4.375000e+01	 8.750000e+00	 1.000000e+01
0	 4.375000e+01	 1.000000e+01	 1.000000e+01
0	 4.375000e+01	 1.125000e+01	 1.000000e+01
0	 4.375000e+01	 1.250000e+01	 1.000000e+01
0	 3.750000e+01	 1.250000e+01	 1.000000e+01
0	 3.750000e+01	 1.375000e+01	 1.000000e+01
0	 3.750000e+01	 1.500000e+01	 1.000000e+01
0	 3.750000e+01	 1.625000e+01	 1.000000e+01
0	 3.750000e+01	 1.750000e+01	 1.000000e+01
0	 3.750000e+01	 1.875000e+01	 1.000000e+01
0	 3.875000e+01	 1.250000e+01	 1.000000e+01
0	 3.875000e+01	 1.375000e+01	 1.000000e+01
0	 3.875000e+01	 1.500000e+01	 1.000000e+01
0	 3.875000e+01	 1.625000e+01	 1.000000e+01
0	 3.875000e+01	 1.750000e+01	 1.000000e+01
0	 3.875000e+01	 1.875000e+01	 1.000000e+01
0	 4.000000e+01	 1.250000e+01	 1.000000e+01
0	 4.000000e+01	 1.375000e+01	 1.000000e+01
0	 4.000000e+01	 1.500000e+01	 1.000000e+01
0	 4.000000e+01	 1.625000e+01	 1.000000e+01
0	 4.000000e+01	 1.750000e+01	 1.000000e+01
0	 4.000000e+01	 1.875000e+01	 1.000000e+01
0	 4.125000e+01	 1.250000e+01	 1.000000e+01
0	 4.125000e+01	 1.375000e+01	 1.000000e+01
0	 4.125000e+01	 1.500000e+01	 1.000000e+01
0	 4.125000e+01	 1.625000e+01	 1.000000e+01
0	 4.125000e+01	 1.750000e+01	 1.000000e+01
0	 4.125000e+01	 1.875000e+01	 1.000000e+01
0	 4.250000e+01	 1.250000e+01	 1.000000e+01
0	 4.250000e+01	 1.375000e+01	 1.000000e+01
0	 4.250000e+01	 1.500000e+01	 1.000000e+01
0	 4.250000e+01	 1.625000e+01	 1.000000e+01
0	 4.250000e+01	 1.750000e+01	 1.000000e+01
0	 4.250000e+01	 1.875000e+01	 1.000000e+01
0	 4.375000e+01	 1.250000e+01	 1.000000e+01
0	 4.375000e+01	 1.375000e+01	 1.000000e+01
0	 4.375000e+01	 1.500000e+01	 1.000000e+01
0	 4.375000e+01	 1.625000e+01	 1.000000e+01
0	 4.375000e+01	 1.750000e+01	 1.000000e+01
0	 4.375000e+01	 1.875000e+01	 1.000000e+01
0	 3.750000e+01	 1.875000e+01	 1.000000e+01
0	 3.750000e+01	 2.000000e+01	 1.000000e+01
0	 3.750000e+01	 2.125000e+01	 1.000000e+01
0	 3.750000e+01	 2.250000e+01	 1.000000e+01
0	 3.750000e+01	 2.375000e+01	 1.000000e+01
0	 3.750000e+01	 2.500000e+01	 1.000000e+01
0	 3.875000e+01	 1.875000e+01	 1.000000e+01
0	 3.875000e+01	 2.000000e+01	 1.000000e+01
0	 3.875000e+01	 2.125000e+01	 1.000000e+01
0	 3.875000e+01	 2.250000e+01	 1.000000e+01
0	 3.875000e+01	 2.375000e+01	 1.000000e+01
0	 3.875000e+01	 2.500000e+01	 1.000000e+01
0	 4.000000e+01	 1.875000e+01	 1.000000e+01
0	 4.000000e+01	 2.000000e+01	 1.000000e+01
0	 4.000000e+01	 2.125000e+01	 1.000000e+01
0	 4.000000e+01	 2.250000e+01	 1.000000e+01
0	 4.000000e+01	 2.375000e+01	 1.000000e+01
0	 4.000000e+01	 2.500000e+01	 1.000000e+01
0	 4.125000e+01	 1.875000e+01	 1.000000e+01
0	 4.125000e+01	 2.000000e+01	 1.000000e+01
0	 4.125000e+01	 2.125000e+01	 1.000000e+01
0	 4.125000e+01	 2.250000e+01	 1.000000e+01
0	 4.125000e+01	 2.375000e+01	 1.000000e+01
0	 4.125000e+01	 2.500000e+01	 1.000000e+01
0	 4.250000e+01	 1.875000e+01	 1.000000e+01
0	 4.250000e+01	 2.000000e+01	 1.000000e+01
0	 4.250000e+01	 2.125000e+01	 1.000000e+01
0	 4.250000e+01	 2.250000e+01	 1.000000e+01
0	 4.250000e+01	 2.375000e+01	 1.000000e+01
0	 4.250000e+01	 2.500000e+01	 1.000000e+01
0	 4.375000e+01	 1.875000e+01	 1.000000e+01
0	 4.375000e+01	 2.000000e+01	 1.000000e+01
0	 4.375000e+01	 2.125000e+01	 1.000000e+01
0	 4.375000e+01	 2.250000e+01	 1.000000e+01
0	 4.375000e+01	 2.375000e+01	 1.000000e+01
0	 4.375000e+01	 2.500000e+01	 1.000000e+01
0	 3.750000e+01	 2.500000e+01	 1.000000e+01
0	 3.750000e+01	 2.625000e+01	 1.000000e+01
0	 3.750000e+01	 2.750000e+01	 1.000000e+01
0	 3.750000e+01	 2.875000e+01	 1.000000e+01
0	 3.750000e+01	 3.000000e+01	 1.000000e+01
0	 3.750000e+01	 3.125000e+01	 1.000000e+01
0	 3.875000e+01	 2.500000e+01	 1.000000e+01
0	 3.875000e+01	 2.625000e+01	 1.000000e+01
0	 3.875000e+01	 2.750000e+01	 1.000000e+01
0	 3.875000e+01	 2.875000e+01	 1.000000e+01
0	 3.875000e+01	 3.000000e+01	 1.000000e+01
0	 3.875000e+01	 3.125000e+01	 1.000000e+01
0	 4.000000e+01	 2.500000e+01	 1.000000e+01
0	 4.000000e+01	 2.625000e+01	 1.000000e+01
0	 4.000000e+01	 2.750000e+01	 1.000000e+01
0	 4.000000e+01	 2.875000e+01	 1.000000e+01
0	 4.000000e+01	 3.000000e+01	 1.000000e+01
0	 4.000000e+01	 3.125000e+01	 1.000000e+01
0	 4.125000e+01	 2.500000e+01	 1.000000e+01
0	 4.125000e+01	 2.625000e+01	 1.000000e+01
0	 4.125000e+01	 2.750000e+01	 1.000000e+01
0	 4.125000e+01	 2.875000e+01	 1.000000e+01
0	 4.125000e+01	 3.000000e+01	 1.000000e+01
0	 4.125000e+01	 3.125000e+01	 1.000000e+01
0	 4.250000e+01	 2.500000e+01	 1.000000e+01
0	 4.250000e+01	 2.625000e+01	 1.000000e+01
0	 4.250000e+01	 2.750000e+01	 1.000000e+01
0	 4.250000e+01	 2.875000e+01	 1.000000e+01
0	 4.250000e+01	 3.000000e+01	 1.000000e+01
0	 4.250000e+01	 3.125000e+01	 1.000000e+01
0	 4.375000e+01	 2.500000e+01	 1.000000e+01
0	 4.375000e+01	 2.625000e+01	 1.000000e+01
0	 4.375000e+01	 2.750000e+01	 1.000000e+01
0	 4.375000e+01	 2.875000e+01	 1.000000e+01
0	 4.375000e+01	 3.000000e+01	 1.000000e+01
0	 4.375000e+01	 3.125000e+01	 1.000000e+01
0	 3.750000e+01	 3.125000e+01	 1.000000e+01
0	 3.750000e+01	 3.250000e+01	 1.000000e+01
0	 3.750000e+01	 3.375000e+01	 1.000000e+01
0	 3.750000e+01	 3.500000e+01	 1.000000e+01
0	 3.750000e+01	 3.625000e+01	 1.000000e+01
0	 3.750000e+01	 3.750000e+01	 1.000000e+01
0	 3.875000e+01	 3.125000e+01	 1.000000e+01
0	 3.875000e+01	 3.250000e+01	 1.000000e+01
0	 3.875000e+01	 3.375000e+01	 1.000000e+01
0	 3.875000e+01	 3.500000e+01	 1.000000e+01
0	 3.875000e+01	 3.625000e+01	 1.000000e+01
0	 3.875000e+01	 3.750000e+01	 1.000000e+01
0	 4.000000e+01	 3.125000e+01	 1.000000e+01
0	 4.000000e+01	 3.250000e+01	 1.000000e+01
0	 4.000000e+01	 3.375000e+01	 1.000000e+01
0	 4.000000e+01	 3.500000e+01	 1.000000e+01
0	 4.000000e+01	 3.625000e+01	 1.000000e+01
0	 4.000000e+01	 3.750000e+01	 1.000000e+01
0	 4.125000e+01	 3.125000e+01	 1.000000e+01
0	 4.125000e+01	 3.250000e+01	 1.000000e+01
0	 4.125000e+01	 3.375000e+01	 1.000000e+01
0	 4.125000e+01	 3.500000e+01	 1.000000e+01
0	 4.125000e+01	 3.625000e+01	 1.000000e+01
0	 4.125000e+01	 3.750000e+01	 1.000000e+01
0	 4.250000e+01	 3.125000e+01	 1.000000e+01
0	 4.250000e+01	 3.250000e+01	 1.000000e+01
0	 4.250000e+01	 3.375000e+01	 1.000000e+01
0	 4.250000e+01	 3.500000e+01	 1.000000e+01
0	 4.250000e+01	 3.625000e+01	 1.000000e+01
0	 4.250000e+01	 3.750000e+01	 1.000000e+01
0	 4.375000e+01	 3.125000e+01	 1.000000e+01
0	 4.375000e+01	 3.250000e+01	 1.000000e+01
0	 4.375000e+01	 3.375000e+01	 1.000000e+01
0	 4.375000e+01	 3.500000e+01	 1.000000e+01
0	 4.375000e+01	 3.625000e+01	 1.000000e+01
0	 4.375000e+01	 3.750000e+01	 1.000000e+01
0	 3.750000e+01	 3.750000e+01	 1.000000e+01
0	 3.750000e+01	 3.875000e+01	 1.000000e+01
0	 3.750000e+01	 4.000000e+01	 1.000000e+01
0	 3.750000e+01	 4.125000e+01	 1.000000e+01
0	 3.750000e+01	 4.250000e+01	 1.000000e+01
0	 3.750000e+01	 4.375000e+01	 1.000000e+01
0	 3.875000e+01	 3.750000e+01	 1.000000e+01
0	 3.875000e+01	 3.875000e+01	 1.000000e+01
0	 3.875000e+01	 4.000000e+01	 1.000000e+01
0	 3.875000e+01	 4.125000e+01	 1.000000e+01
0	 3.875000e+01	 4.250000e+01	 1.000000e+01
0	 3.875000e+01	 4.375000e+01	 1.000000e+01
0	 4.000000e+01	 3.750000e+01	 1.000000e+01
0	 4.000000e+01	 3.875000e+01	 1.000000e+01
0	 4.000000e+01	 4.000000e+01	 1.000000e+01
0	 4.000000e+01	 4.125000e+01	 1.000000e+01
0	 4.000000e+01	 4.250000e+01	 1.000000e+01
0	 4.000000e+01	 4.375000e+01	 1.000000e+01
0	 4.125000e+01	 3.750000e+01	 1.000000e+01
0	 4.125000e+01	 3.875000e+01	 1.000000e+01
0	 4.125000e+01	 4.000000e+01	 1.000000e+01
0	 4.125000e+01	 4.125000e+01	 1.000000e+01
0	 4.125000e+01	 4.250000e+01	 1.000000e+01
0	 4.125000e+01	 4.375000e+01	 1.000000e+01
0	 4.250000e+01	 3.750000e+01	 1.000000e+01
0	 4.250000e+01	 3.875000e+01	 1.000000e+01
0	 4.250000e+01	 4.000000e+01	 1.000000e+01
0	 4.250000e+01	 4.125000e+01	 1.000000e+01
0	 4.250000e+01	 4.250000e+01	 1.000000e+01
0	 4.250000e+01	 4.375000e+01	 1.000000e+01
0	 4.375000e+01	 3.750000e+01	 1.000000e+01
0	 4.375000e+01	 3.875000e+01	 1.000000e+01
0	 4.375000e+01	 4.000000e+01	 1.000000e+01
0	 4.375000e+01	 4.125000e+01	 1.000000e+01
0	 4.375000e+01	 4.250000e+01	 1.000000e+01
0	 4.375000e+01	 4.375000e+01	 1.000000e+01
0	 3.750000e+01	 4.375000e+01	 1.000000e+01
0	-nan	 4.500000e+01	 nan
0	-nan	 4.625000e+01	 nan
0	-nan	 4.750000e+01	 nan
0	-nan	 4.875000e+01	 nan
0	-nan	 5.000000e+01	 nan
0	 3.875000e+01	 4.375000e+01	 1.000000e+01
0	-nan	 4.500000e+01	 nan
0	-nan	 4.625000e+01	 nan
0	-nan	 4.750000e+01	 nan
0	-nan	 4.875000e+01	 nan
0	-nan	 5.000000e+01	 nan
0	 4.000000e+01	 4.375000e+01	 1.000000e+01
0	-nan	 4.500000e+01	 nan
0	-nan	 4.625000e+01	 nan
0	-nan	 4.750000e+01	 nan
0	-nan	 4.875000e+01	 nan
0	-nan	 5.000000e+01	 nan
0	 4.125000e+01	 4.375000e+01	 1.000000e+01
0	-nan	 4.500000e+01	 nan
0	-nan	 4.625000e+01	 nan
0	-nan	 4.750000e+01	 nan
0	-nan	 4.875000e+01	 nan
0	-nan	 5.000000e+01	 nan
0	 4.250000e+01	 4.375000e+01	 1.000000e+01
0	-nan	 4.500000e+01	 nan
0	-nan	 4.625000e+01	 nan
0	-nan	 4.750000e+01	 nan
0	-nan	 4.875000e+01	 nan
0	-nan	 5.000000e+01	 nan
0	 4.375000e+01	 4.375000e+01	 1.000000e+01
0	-nan	 4.500000e+01	 nan
0	-nan	 4.625000e+01	 nan
0	-nan	 4.750000e+01	 nan
0	-nan	 4.875000e+01	 nan
0	-nan	 5.000000e+01	 nan
0	 4.375000e+01	 0.000000e+00	 1.000000e+01
0	 4.375000e+01	 1.250000e+00	 1.000000e+01
0	 4.375000e+01	 2.500000e+00	 1.000000e+01
0	 4.375000e+01	 3.750000e+00	 1.000000e+01
0	 4.375000e+01	 5.000000e+00	 1.000000e+01
0	 4.375000e+01	 6.250000e+00	 1.000000e+01
0	 4.500000e+01	 0.000000e+00	 1.000000e+01
0	 4.500000e+01	 1.250000e+00	 1.000000e+01
0	 4.500000e+01	 2.500000e+00	 1.000000e+01
0	 4.500000e+01	 3.750000e+00	 1.000000e+01
0	 4.500000e+01	 5.000000e+00	 1.000000e+01
0	 4.500000e+01	 6.250000e+00	 1.000000e+01
0	 4.625000e+01	 0.000000e+00	 1.000000e+01
0	 4.625000e+01	 1.250000e+00	 1.000000e+01
0	 4.625000e+01	 2.500000e+00	 1.000000e+01
0	 4.625000e+01	 3.750000e+00	 1.000000e+01
0	 4.625000e+01	 5.000000e+00	 1.000000e+01
0	 4.625000e+01	 6.250000e+00	 1.000000e+01
0	 4.750000e+01	 0.000000e+00	 1.000000e+01
0	 4.750000e+01	 1.250000e+00	 1.000000e+01
0	 4.750000e+01	 2.500000e+00	 1.000000e+01
0	 4.750000e+01	 3.750000e+00	 1.000000e+01
0	 4.750000e+01	 5.000000e+00	 1.000000e+01
0	 4.750000e+01	 6.250000e+00	 1.000000e+01
0	 4.875000e+01	 0.000000e+00	 1.000000e+01
0	 4.875000e+01	 1.250000e+00	 1.000000e+01
0	 4.875000e+01	 2.500000e+00	 1.000000e+01
0	 4.875000e+01	 3.750000e+00	 1.000000e+01
0	 4.875000e+01	 5.000000e+00	 1.000000e+01
0	 4.875000e+01	 6.250000e+00	 1.000000e+01
0	 5.000000e+01	 0.000000e+00	 1.000000e+01
0	 5.000000e+01	 1.250000e+00	 1.000000e+01
0	 5.000000e+01	 2.500000e+00	 1.000000e+01
0	 5.000000e+01	 3.750000e+00	 1.000000e+01
0	 5.000000e+01	 5.000000e+00	 1.000000e+01
0	 5.000000e+01	 6.250000e+00	 1.000000e+01
0	 4.375000e+01	 6.250000e+00	 1.000000e+01
0	 4.375000e+01	 7.500000e+00	 1.000000e+01
0	 4.375000e+01	 8.750000e+00	-3.143276e+03
0	 4.375000e+01	 1.000000e+01	-3.143276e+03
0	 4.375000e+01	 1.125000e+01	-3.143276e+03
0	 4.375000e+01	 1.250000e+01	 1.000000e+01
0	 4.500000e+01	 6.250000e+00	-3.143276e+03
0	 4.500000e+01	 7.500000e+00	-4.665527e-01
0	 4.500000e+01	 8.750000e+00	-3.143276e+03
0	 4.500000e+01	 1.000000e+01	-3.143276e+03
0	 4.500000e+01	 1.125000e+01	-3.143276e+03
0	 4.500000e+01	 1.250000e+01	 1.000000e+01
0	 4.625000e+01	 6.250000e+00	-3.143276e+03
0	 4.625000e+01	 7.500000e+00	 1.800761e+02
0	 4.625000e+01	 8.750000e+00	-3.143276e+03
0	 4.625000e+01	 1.000000e+01	-3.143276e+03
0	 4.625000e+01	 1.125000e+01	-3.143276e+03
0	 4.625000e+01	 1.250000e+01	 1.000000e+01
0	 4.750000e+01	 6.250000e+00	-3.143276e+03
0	 4.750000e+01	 7.500000e+00	-3.399892e+04
0	 4.750000e+01	 8.750000e+00	-3.143276e+03
0	 4.750000e+01	 1.000000e+01	-3.143276e+03
0	 4.750000e+01	 1.125000e+01	-3.143276e+03
0	 4.750000e+01	 1.250000e+01	 1.000000e+01
0	 4.875000e+01	 6.250000e+00	-3.143276e+03
0	 4.875000e+01	 7.500000e+00	-7.185959e+03
0	 4.875000e+01	 8.750000e+00	-3.143276e+03
0	 4.875000e+01	 1.000000e+01	-3.143276e+03
0	 4.875000e+01	 1.125000e+01	-3.143276e+03
0	 4.875000e+01	 1.250000e+01	 1.000000e+01
0	 5.000000e+01	 6.250000e+00	 1.000000e+01
0	 5.000000e+01	 7.500000e+00	 1.000000e+01
0	 5.000000e+01	 8.750000e+00	 1.000000e+01
0	 5.000000e+01	 1.000000e+01	 1.000000e+01
0	 5.000000e+01	 1.125000e+01	 1.000000e+01
0	 5.000000e+01	 1.250000e+01	 1.000000e+01
0	 4.375000e+01	 1.250000e+01	 3.596023e+03
0	 4.375000e+01	 1.375000e+01	-4.665527e-01
0	 4.375000e+01	 1.500000e+01	-3.143276e+03
0	 4.375000e+01	 1.625000e+01	-3.143276e+03
0	 4.375000e+01	 1.750000e+01	-3.143276e+03
0	 4.375000e+01	 1.875000e+01	 1.000000e+01
0	 4.500000e+01	 1.250000e+01	-3.143276e+03
0	 4.500000e+01	 1.375000e+01	-4.665527e-01
0	 4.500000e+01	 1.500000e+01	-3.143276e+03
0	 4.500000e+01	 1.625000e+01	-3.143276e+03
0	 4.500000e+01	 1.750000e+01	-3.143276e+03
0	 4.500000e+01	 1.875000e+01	 1.000000e+01
0	 4.625000e+01	 1.250000e+01	-3.143276e+03
0	 4.625000e+01	 1.375000e+01	-1.670174e+03
0	 4.625000e+01	 1.500000e+01	-3.143276e+03
0	 4.625000e+01	 1.625000e+01	-3.143276e+03
0	 4.625000e+01	 1.750000e+01	-3.143276e+03
0	 4.625000e+01	 1.875000e+01	 1.000000e+01
0	 4.750000e+01	 1.250000e+01	-3.143276e+03
0	 4.750000e+01	 1.375000e+01	-1.552840e+04
0	 4.750000e+01	 1.500000e+01	-3.143276e+03
0	 4.750000e+01	 1.625000e+01	-3.143276e+03
0	 4.750000e+01	 1.750000e+01	-3.143276e+03
0	 4.750000e+01	 1.875000e+01	 1.000000e+01
0	 4.875000e+01	 1.250000e+01	-3.143276e+03
0	 4.875000e+01	 1.375000e+01	 5.668300e+02
0	 4.875000e+01	 1.500000e+01	-3.143276e+03
0	 4.875000e+01	 1.625000e+01	-3.143276e+03
0	 4.875000e+01	 1.750000e+01	-3.143276e+03
0	 4.875000e+01	 1.875000e+01	 1.000000e+01
0	 5.000000e+01	 1.250000e+01	 1.000000e+01
0	 5.000000e+01	 1.375000e+01	 1.000000e+01
0	 5.000000e+01	 1.500000e+01	 1.000000e+01
0	 5.000000e+01	 1.625000e+01	 1.000000e+01
0	 5.000000e+01	 1.750000e+01	 1.000000e+01
0	 5.000000e+01	 1.875000e+01	 1.000000e+01
0	 4.375000e+01	 1.875000e+01	-7.199481e+03
0	 4.375000e+01	 2.000000e+01	-4.665527e-01
0	 4.375000e+01	 2.125000e+01	-3.143276e+03
0	 4.375000e+01	 2.250000e+01	-3.143276e+03
0	 4.375000e+01	 2.375000e+01	-3.143276e+03
0	 4.375000e+01	 2.500000e+01	 1.000000e+01
0	 4.500000e+01	 1.875000e+01	-3.143276e+03
0	 4.500000e+01	 2.000000e+01	-4.665527e-01
0	 4.500000e+01	 2.125000e+01	-3.143276e+03
0	 4.500000e+01	 2.250000e+01	-3.143276e+03
0	 4.500000e+01	 2.375000e+01	-3.143276e+03
0	 4.500000e+01	 2.500000e+01	 1.000000e+01
0	 4.625000e+01	 1.875000e+01	-3.143276e+03
0	 4.625000e+01	 2.000000e+01	-4.420447e+03
0	 4.625000e+01	 2.125000e+01	-3.143276e+03
0	 4.625000e+01	 2.250000e+01	-3.143276e+03
0	 4.625000e+01	 2.375000e+01	-3.143276e+03
0	 4.625000e+01	 2.500000e+01	 1.000000e+01
0	 4.750000e+01	 1.875000e+01	-3.143276e+03
0	 4.750000e+01	 2.000000e+01	-3.536466e+03
0	 4.750000e+01	 2.125000e+01	-3.143276e+03
0	 4.750000e+01	 2.250000e+01	-3.143276e+03
0	 4.750000e+01	 2.375000e+01	-3.143276e+03
0	 4.750000e+01	 2.500000e+01	 1.000000e+01
0	 4.875000e+01	 1.875000e+01	-3.143276e+03
0	 4.875000e+01	 2.000000e+01	-4.665527e-01
0	 4.875000e+01	 2.125000e+01	-3.143276e+03
0	 4.875000e+01	 2.250000e+01	-3.143276e+03
0	 4.875000e+01	 2.375000e+01	-3.143276e+03
0	 4.875000e+01	 2.500000e+01	 1.000000e+01
0	 5.000000e+01	 1.875000e+01	 1.000000e+01
0	 5.000000e+01	 2.000000e+01	 1.000000e+01
0	 5.000000e+01	 2.125000e+01	 1.000000e+01
0	 5.000000e+01	 2.250000e+01	 1.000000e+01
0	 5.000000e+01	 2.375000e+01	 1.000000e+01
0	 5.000000e+01	 2.500000e+01	 1.000000e+01
0	 4.375000e+01	 2.500000e+01	 2.099697e+03
0	 4.375000e+01	 2.625000e+01	-4.665527e-01
0	 4.375000e+01	 2.750000e+01	-3.143276e+03
0	 4.375000e+01	 2.875000e+01	-3.143276e+03
0	 4.375000e+01	 3.000000e+01	-3.143276e+03
0	 4.375000e+01	 3.125000e+01	 1.000000e+01
0	 4.500000e+01	 2.500000e+01	-3.143276e+03
0	 4.500000e+01	 2.625000e+01	-4.665527e-01
0	 4.500000e+01	 2.750000e+01	-3.143276e+03
0	 4.500000e+01	 2.875000e+01	-3.143276e+03
0	 4.500000e+01	 3.000000e+01	-3.143276e+03
0	 4.500000e+01	 3.125000e+01	 1.000000e+01
0	 4.625000e+01	 2.500000e+01	-3.143276e+03
0	 4.625000e+01	 2.625000e+01	-2.786932e+03
0	 4.625000e+01	 2.750000e+01	-3.143276e+03
0	 4.625000e+01	 2.875000e+01	-3.143276e+03
0	 4.625000e+01	 3.000000e+01	-3.143276e+03
0	 4.625000e+01	 3.125000e+01	 1.000000e+01
0	 4.750000e+01	 2.500000e+01	-3.143276e+03
0	 4.750000e+01	 2.625000e+01	-7.520951e+03
0	 4.750000e+01	 2.750000e+01	-3.143276e+03
0	 4.750000e+01	 2.875000e+01	-3.143276e+03
0	 4.750000e+01	 3.000000e+01	-3.143276e+03
0	 4.750000e+01	 3.125000e+01	 1.000000e+01
0	 4.875000e+01	 2.500000e+01	-3.143276e+03
0	 4.875000e+01	 2.625000e+01	-4.675905e+03
0	 4.875000e+01	 2.750000e+01	-3.143276e+03
0	 4.875000e+01	 2.875000e+01	-3.143276e+03
0	 4.875000e+01	 3.000000e+01	-3.143276e+03
0	 4.875000e+01	 3.125000e+01	 1.000000e+01
0	 5.000000e+01	 2.500000e+01	 1.000000e+01
0	 5.000000e+01	 2.625000e+01	 1.000000e+01
0	 5.000000e+01	 2.750000e+01	 1.000000e+01
0	 5.000000e+01	 2.875000e+01	 1.000000e+01
0	 5.000000e+01	 3.000000e+01	 1.000000e+01
0	 5.000000e+01	 3.125000e+01	 1.000000e+01
0	 4.375000e+01	 3.125000e+01	-4.260704e+03
0	 4.375000e+01	 3.250000e+01	-4.665527e-01
0	 4.375000e+01	 3.375000e+01	-3.143276e+03
0	 4.375000e+01	 3.500000e+01	-3.143276e+03
0	 4.375000e+01	 3.625000e+01	-3.143276e+03
0	 4.375000e+01	 3.750000e+01	 1.000000e+01
0	 4.500000e+01	 3.125000e+01	-3.143276e+03
0	 4.500000e+01	 3.250000e+01	-4.665527e-01
0	 4.500000e+01	 3.375000e+01	-3.143276e+03
0	 4.500000e+01	 3.500000e+01	-3.143276e+03
0	 4.500000e+01	 3.625000e+01	-3.143276e+03
0	 4.500000e+01	 3.750000e+01	 1.000000e+01
0	 4.625000e+01	 3.125000e+01	-3.143276e+03
0	 4.625000e+01	 3.250000e+01	-3.931858e+03
0	 4.625000e+01	 3.375000e+01	-3.143276e+03
0	 4.625000e+01	 3.500000e+01	-3.143276e+03
0	 4.625000e+01	 3.625000e+01	-3.143276e+03
0	 4.625000e+01	 3.750000e+01	 1.000000e+01
0	 4.750000e+01	 3.125000e+01	-3.143276e+03
0	 4.750000e+01	 3.250000e+01	 1.470741e+05
0	 4.750000e+01	 3.375000e+01	-3.143276e+03
0	 4.750000e+01	 3.500000e+01	-3.143276e+03
0	 4.750000e+01	 3.625000e+01	-3.143276e+03
0	 4.750000e+01	 3.750000e+01	 1.000000e+01
0	 4.875000e+01	 3.125000e+01	-3.143276e+03
0	 4.875000e+01	 3.250000e+01	-4.824161e+03
0	 4.875000e+01	 3.375000e+01	-3.143276e+03
0	 4.875000e+01	 3.500000e+01	-3.143276e+03
0	 4.875000e+01	 3.625000e+01	-3.143276e+03
0	 4.875000e+01	 3.750000e+01	 1.000000e+01
0	 5.000000e+01	 3.125000e+01	 1.000000e+01
0	 5.000000e+01	 3.250000e+01	 1.000000e+01
0	 5.000000e+01	 3.375000e+01	 1.000000e+01
0	 5.000000e+01	 3.500000e+01	 1.000000e+01
0	 5.000000e+01	 3.625000e+01	 1.000000e+01
0	 5.000000e+01	 3.750000e+01	 1.000000e+01
0	 4.375000e+01	 3.750000e+01	-3.317114e+03
0	 4.375000e+01	 3.875000e+01	-4.665527e-01
0	 4.375000e+01	 4.000000e+01	-3.143276e+03
0	 4.375000e+01	 4.125000e+01	-3.143276e+03
0	 4.375000e+01	 4.250000e+01	-3.143276e+03
0	 4.375000e+01	 4.375000e+01	 1.000000e+01
0	 4.500000e+01	 3.750000e+01	-3.143276e+03
0	 4.500000e+01	 3.875000e+01	-4.665527e-01
0	 4.500000e+01	 4.000000e+01	-3.143276e+03
0	 4.500000e+01	 4.125000e+01	-3.143276e+03
0	 4.500000e+01	 4.250000e+01	-3.143276e+03
0	 4.500000e+01	 4.375000e+01	 1.000000e+01
0	 4.625000e+01	 3.750000e+01	-3.143276e+03
0	 4.625000e+01	 3.875000e+01	 4.828889e+03
0	 4.625000e+01	 4.000000e+01	-3.143276e+03
0	 4.625000e+01	 4.125000e+01	-3.143276e+03
0	 4.625000e+01	 4.250000e+01	-3.143276e+03
0	 4.625000e+01	 4.375000e+01	 1.000000e+01
0	 4.750000e+01	 3.750000e+01	-3.143276e+03
0	 4.750000e+01	 3.875000e+01	 6.525911e+03
0	 4.750000e+01	 4.000000e+01	-3.143276e+03
0	 4.750000e+01	 4.125000e+01	-3.143276e+03
0	 4.750000e+01	 4.250000e+01	-3.143276e+03
0	 4.750000e+01	 4.375000e+01	 1.000000e+01
0	 4.875000e+01	 3.750000e+01	-3.143276e+03
0	 4.875000e+01	 3.875000e+01	 4.097132e+03
0	 4.875000e+01	 4.000000e+01	-3.143276e+03
0	 4.875000e+01	 4.125000e+01	-3.143276e+03
0	 4.875000e+01	 4.250000e+01	-3.143276e+03
0	 4.875000e+01	 4.375000e+01	 1.000000e+01
0	 5.000000e+01	 3.750000e+01	 1.000000e+01
0	 5.000000e+01	 3.875000e+01	 1.000000e+01
0	 5.000000e+01	 4.000000e+01	 1.000000e+01
0	 5.000000e+01	 4.125000e+01	 1.000000e+01
0	 5.000000e+01	 4.250000e+01	 1.000000e+01
0	 5.000000e+01	 4.375000e+01	 1.000000e+01
0	 4.375000e+01	 4.375000e+01	-6.155176e+03
0	-nan	 4.500000e+01	-4.665527e-01
0	-nan	 4.625000e+01	 nan
0	-nan	 4.750000e+01	 nan
0	-nan	 4.875000e+01	 nan
0	-nan	 5.000000e+01	 nan
0	 4.500000e+01	 4.375000e+01	-3.143276e+03
0	-nan	 4.500000e+01	-4.665527e-01
0	-nan	 4.625000e+01	 nan
0	-nan	 4.750000e+01	 nan
0	-nan	 4.875000e+01	 nan
0	-nan	 5.000000e+01	 nan
0	 4.625000e+01	 4.375000e+01	-3.143276e+03
0	-nan	 4.500000e+01	 4.353204e+03
0	-nan	 4.625000e+01	 nan
0	-nan	 4.750000e+01	 nan
0	-nan	 4.875000e+01	 nan
0	-nan	 5.000000e+01	 nan
0	 4.750000e+01	 4.375000e+01	-3.143276e+03
0	-nan	 4.500000e+01	-1.465532e+04
0	-nan	 4.625000e+01	 nan
0	-nan	 4.750000e+01	 nan
0	-nan	 4.875000e+01	 nan
0	-nan	 5.000000e+01	 nan
0	 4.875000e+01	 4.375000e+01	-3.143276e+03
0	-nan	 4.500000e+01	 5.148931e+03
0	-nan	 4.625000e+01	 nan
0	-nan	 4.750000e+01	 nan
0	-nan	 4.875000e+01	 nan
0	-nan	 5.000000e+01	 nan
0	 5.000000e+01	 4.375000e+01	 1.000000e+01
0	-nan	 4.500000e+01	 nan
0	-nan	 4.625000e+01	 nan
0	-nan	 4.750000e+01	 nan
0	-nan	 4.875000e+01	 nan
0	-nan	 5.000000e+01	 nan
