patch_n	x	y	stress_yy
0	 0.000000000000000e+00	 0.000000000000000e+00	 7.137700866388738e-01
0	 0.000000000000000e+00	 1.428571428571429e-01	 3.469013381601008e+00
0	 0.000000000000000e+00	 2.857142857142858e-01	 6.073157383192015e+00
0	 0.000000000000000e+00	 4.285714285714287e-01	 8.490500522840852e+00
0	 0.000000000000000e+00	 5.714285714285714e-01	 1.068534123197647e+01
0	 0.000000000000000e+00	 7.142857142857144e-01	 1.262197794202783e+01
0	 0.000000000000000e+00	 8.571428571428573e-01	 1.426470908442390e+01
0	 0.000000000000000e+00	 1.000000000000000e+00	 1.557783309059363e+01
0	 0.000000000000000e+00	 1.142857142857143e+00	 1.652564839196595e+01
0	 0.000000000000000e+00	 1.285714285714286e+00	 1.707245341996986e+01
0	 0.000000000000000e+00	 1.428571428571429e+00	 1.718254660603429e+01
0	 1.428571428571429e-01	 0.000000000000000e+00	-2.289503900806091e+00
0	 1.428571428571429e-01	 1.428571428571429e-01	 1.661935254064549e+00
0	 1.428571428571429e-01	 2.857142857142858e-01	 5.251968476760750e+00
0	 1.428571428571429e-01	 4.285714285714287e-01	 8.452287285675077e+00
0	 1.428571428571429e-01	 5.714285714285714e-01	 1.123458319920008e+01
0	 1.428571428571429e-01	 7.142857142857145e-01	 1.357054773572832e+01
0	 1.428571428571429e-01	 8.571428571428573e-01	 1.543187241365235e+01
0	 1.428571428571430e-01	 1.000000000000001e+00	 1.679024875136472e+01
0	 1.428571428571429e-01	 1.142857142857143e+00	 1.761736826725799e+01
0	 1.428571428571428e-01	 1.285714285714286e+00	 1.788492247972477e+01
0	 1.428571428571429e-01	 1.428571428571429e+00	 1.756460290715754e+01
0	 2.857142857142858e-01	 0.000000000000000e+00	-4.080740917495665e+00
0	 2.857142857142856e-01	 1.428571428571429e-01	 6.375415319656608e-01
0	 2.857142857142858e-01	 2.857142857142859e-01	 4.847445596796986e+00
0	 2.857142857142858e-01	 4.285714285714287e-01	 8.527354858818967e+00
0	 2.857142857142858e-01	 5.714285714285715e-01	 1.165565289985227e+01
0	 2.857142857142856e-01	 7.142857142857144e-01	 1.421072330171756e+01
0	 2.857142857142858e-01	 8.571428571428574e-01	 1.617094964623550e+01
0	 2.857142857142856e-01	 1.000000000000000e+00	 1.751471551522673e+01
0	 2.857142857142857e-01	 1.142857142857143e+00	 1.822040449051194e+01
0	 2.857142857142858e-01	 1.285714285714286e+00	 1.826640015391178e+01
0	 2.857142857142858e-01	 1.428571428571428e+00	 1.763108608724688e+01
0	 4.285714285714287e-01	 0.000000000000000e+00	-4.828002853903815e+00
0	 4.285714285714287e-01	 1.428571428571430e-01	 2.850393785469749e-01
0	 4.285714285714287e-01	 2.857142857142856e-01	 4.798169676103897e+00
0	 4.285714285714288e-01	 4.285714285714287e-01	 8.695762660480218e+00
0	 4.285714285714289e-01	 5.714285714285716e-01	 1.196219295338919e+01
0	 4.285714285714288e-01	 7.142857142857143e-01	 1.458183517654411e+01
0	 4.285714285714288e-01	 8.571428571428573e-01	 1.653906395165824e+01
0	 4.285714285714287e-01	 1.000000000000000e+00	 1.781825390044481e+01
0	 4.285714285714288e-01	 1.142857142857143e+00	 1.840377964461712e+01
0	 4.285714285714288e-01	 1.285714285714286e+00	 1.828001580588843e+01
0	 4.285714285714287e-01	 1.428571428571429e+00	 1.743133700597200e+01
0	 5.714285714285714e-01	 0.000000000000000e+00	-4.699351600504513e+00
0	 5.714285714285714e-01	 1.428571428571429e-01	 4.936359570511337e-01
0	 5.714285714285715e-01	 2.857142857142858e-01	 5.042721647484681e+00
0	 5.714285714285715e-01	 4.285714285714287e-01	 8.937570108866510e+00
0	 5.714285714285717e-01	 5.714285714285716e-01	 1.216784597926699e+01
0	 5.714285714285715e-01	 7.142857142857145e-01	 1.472321389675648e+01
0	 5.714285714285715e-01	 8.571428571428573e-01	 1.659333849940540e+01
0	 5.714285714285714e-01	 1.000000000000000e+00	 1.776788442528408e+01
0	 5.714285714285715e-01	 1.142857142857143e+00	 1.823651631246293e+01
0	 5.714285714285714e-01	 1.285714285714286e+00	 1.798889879901230e+01
0	 5.714285714285715e-01	 1.428571428571429e+00	 1.701469652300256e+01
0	 7.142857142857144e-01	 0.000000000000000e+00	-3.862849047771727e+00
0	 7.142857142857144e-01	 1.428571428571429e-01	 1.152538430720775e+00
0	 7.142857142857143e-01	 2.857142857142857e-01	 5.519682443742534e+00
0	 7.142857142857144e-01	 4.285714285714287e-01	 9.232836622185539e+00
0	 7.142857142857145e-01	 5.714285714285716e-01	 1.228625459694178e+01
0	 7.142857142857145e-01	 7.142857142857145e-01	 1.467418999890322e+01
0	 7.142857142857143e-01	 8.571428571428574e-01	 1.639089645896188e+01
0	 7.142857142857142e-01	 1.000000000000000e+00	 1.743062760800972e+01
0	 7.142857142857145e-01	 1.142857142857143e+00	 1.778763707693873e+01
0	 7.142857142857143e-01	 1.285714285714286e+00	 1.745617849664091e+01
0	 7.142857142857142e-01	 1.428571428571429e+00	 1.643050549800823e+01
0	 8.571428571428573e-01	 0.000000000000000e+00	-2.486557086179426e+00
0	 8.571428571428574e-01	 1.428571428571429e-01	 2.150953962798540e+00
0	 8.571428571428575e-01	 2.857142857142858e-01	 6.167632997680649e+00
0	 8.571428571428572e-01	 4.285714285714287e-01	 9.561621618645002e+00
0	 8.571428571428575e-01	 5.714285714285717e-01	 1.233106142586970e+01
0	 8.571428571428574e-01	 7.142857142857143e-01	 1.447409401953284e+01
0	 8.571428571428575e-01	 8.571428571428575e-01	 1.598886099981251e+01
0	 8.571428571428574e-01	 1.000000000000000e+00	 1.687350396688685e+01
0	 8.571428571428573e-01	 1.142857142857143e+00	 1.712616452093391e+01
0	 8.571428571428574e-01	 1.285714285714286e+00	 1.674498426213182e+01
0	 8.571428571428573e-01	 1.428571428571428e+00	 1.572810479065867e+01
0	 1.000000000000000e+00	 0.000000000000000e+00	-7.385376062015849e-01
0	 1.000000000000001e+00	 1.428571428571429e-01	 3.378089716527057e+00
0	 1.000000000000000e+00	 2.857142857142857e-01	 6.925154242102209e+00
0	 1.000000000000000e+00	 4.285714285714287e-01	 9.903984516452585e+00
0	 1.000000000000000e+00	 5.714285714285715e-01	 1.231590908550689e+01
0	 1.000000000000000e+00	 7.142857142857145e-01	 1.416225649519386e+01
0	 1.000000000000000e+00	 8.571428571428573e-01	 1.544435529144220e+01
0	 1.000000000000000e+00	 1.000000000000000e+00	 1.616353402018062e+01
0	 1.000000000000000e+00	 1.142857142857143e+00	 1.632112122733784e+01
0	 1.000000000000000e+00	 1.285714285714286e+00	 1.591844545884257e+01
0	 1.000000000000000e+00	 1.428571428571429e+00	 1.495683526062355e+01
0	 1.142857142857143e+00	 0.000000000000000e+00	 1.213147501687829e+00
0	 1.142857142857143e+00	 1.428571428571429e-01	 4.723152855148978e+00
0	 1.142857142857143e+00	 2.857142857142858e-01	 7.730827109810417e+00
0	 1.142857142857143e+00	 4.285714285714288e-01	 1.023998473381597e+01
0	 1.142857142857143e+00	 5.714285714285715e-01	 1.225444019530950e+01
0	 1.142857142857143e+00	 7.142857142857144e-01	 1.377800796243483e+01
0	 1.142857142857143e+00	 8.571428571428574e-01	 1.481450250333578e+01
0	 1.142857142857143e+00	 1.000000000000000e+00	 1.536773828615619e+01
0	 1.142857142857143e+00	 1.142857142857143e+00	 1.544152977903990e+01
0	 1.142857142857143e+00	 1.285714285714286e+00	 1.503969145013074e+01
0	 1.142857142857143e+00	 1.428571428571429e+00	 1.416603776757254e+01
0	 1.285714285714286e+00	 0.000000000000000e+00	 3.200436347014852e+00
0	 1.285714285714286e+00	 1.428571428571429e-01	 6.075350541906925e+00
0	 1.285714285714286e+00	 2.857142857142858e-01	 8.523232533608454e+00
0	 1.285714285714286e+00	 4.285714285714287e-01	 1.054968168894288e+01
0	 1.285714285714286e+00	 5.714285714285715e-01	 1.216029737473365e+01
0	 1.285714285714286e+00	 7.142857142857145e-01	 1.336067895780425e+01
0	 1.285714285714286e+00	 8.571428571428575e-01	 1.415642580497811e+01
0	 1.285714285714286e+00	 1.000000000000000e+00	 1.455313728307870e+01
0	 1.285714285714286e+00	 1.142857142857143e+00	 1.455641275892945e+01
0	 1.285714285714286e+00	 1.285714285714286e+00	 1.417185159935383e+01
0	 1.285714285714286e+00	 1.428571428571429e+00	 1.340505317117532e+01
0	 1.428571428571429e+00	 0.000000000000000e+00	 5.055267039305496e+00
0	 1.428571428571429e+00	 1.428571428571429e-01	 7.323889940043546e+00
0	 1.428571428571429e+00	 2.857142857142858e-01	 9.240951446299517e+00
0	 1.428571428571429e+00	 4.285714285714287e-01	 1.081313480004097e+01
0	 1.428571428571429e+00	 5.714285714285715e-01	 1.204712324323550e+01
0	 1.428571428571429e+00	 7.142857142857143e-01	 1.294960001785068e+01
0	 1.428571428571429e+00	 8.571428571428572e-01	 1.352724836585408e+01
0	 1.428571428571429e+00	 1.000000000000000e+00	 1.378675152921329e+01
0	 1.428571428571429e+00	 1.142857142857143e+00	 1.373479274989589e+01
0	 1.428571428571429e+00	 1.285714285714286e+00	 1.337805526986945e+01
0	 1.428571428571429e+00	 1.428571428571429e+00	 1.272322233110154e+01
0	 0.000000000000000e+00	 1.428571428571429e+00	 1.718254660603429e+01
0	 0.000000000000000e+00	 1.571428571428572e+00	 1.698654062047536e+01
0	 0.000000000000000e+00	 1.714285714285714e+00	 1.664825772727211e+01
0	 0.000000000000000e+00	 1.857142857142858e+00	 1.618181074834781e+01
0	 0.000000000000000e+00	 2.000000000000001e+00	 1.560131250562577e+01
0	 0.000000000000000e+00	 2.142857142857144e+00	 1.492087582102929e+01
0	 0.000000000000000e+00	 2.285714285714286e+00	 1.415461351648165e+01
0	 0.000000000000000e+00	 2.428571428571430e+00	 1.331663841390618e+01
0	 0.000000000000000e+00	 2.571428571428572e+00	 1.242106333522616e+01
0	 0.000000000000000e+00	 2.714285714285715e+00	 1.148200110236488e+01
0	 0.000000000000000e+00	 2.857142857142857e+00	 1.051356453724565e+01
0	 1.428571428571429e-01	 1.428571428571429e+00	 1.756460290715754e+01
0	 1.428571428571430e-01	 1.571428571428572e+00	 1.691144175137384e+01
0	 1.428571428571429e-01	 1.714285714285715e+00	 1.620668908216642e+01
0	 1.428571428571429e-01	 1.857142857142858e+00	 1.546136321989059e+01
0	 1.428571428571429e-01	 2.000000000000000e+00	 1.468648248490175e+01
0	 1.428571428571429e-01	 2.142857142857143e+00	 1.389306519755524e+01
0	 1.428571428571429e-01	 2.285714285714286e+00	 1.309212967820640e+01
0	 1.428571428571429e-01	 2.428571428571429e+00	 1.229469424721062e+01
0	 1.428571428571429e-01	 2.571428571428573e+00	 1.151177722492324e+01
0	 1.428571428571429e-01	 2.714285714285716e+00	 1.075439693169964e+01
0	 1.428571428571429e-01	 2.857142857142858e+00	 1.003357168789516e+01
0	 2.857142857142858e-01	 1.428571428571428e+00	 1.763108608724688e+01
0	 2.857142857142856e-01	 1.571428571428572e+00	 1.665438174615583e+01
0	 2.857142857142859e-01	 1.714285714285715e+00	 1.569610502145303e+01
0	 2.857142857142858e-01	 1.857142857142858e+00	 1.476448714772303e+01
0	 2.857142857142858e-01	 2.000000000000000e+00	 1.386775935955033e+01
0	 2.857142857142857e-01	 2.142857142857144e+00	 1.301415289151945e+01
0	 2.857142857142858e-01	 2.285714285714286e+00	 1.221189897821492e+01
0	 2.857142857142858e-01	 2.428571428571430e+00	 1.146922885422125e+01
0	 2.857142857142857e-01	 2.571428571428573e+00	 1.079437375412296e+01
0	 2.857142857142858e-01	 2.714285714285716e+00	 1.019556491250458e+01
0	 2.857142857142858e-01	 2.857142857142858e+00	 9.681033563950615e+00
0	 4.285714285714287e-01	 1.428571428571429e+00	 1.743133700597200e+01
0	 4.285714285714287e-01	 1.571428571428572e+00	 1.624808931083379e+01
0	 4.285714285714288e-01	 1.714285714285714e+00	 1.513487008170468e+01
0	 4.285714285714287e-01	 1.857142857142858e+00	 1.409743088319552e+01
0	 4.285714285714288e-01	 2.000000000000000e+00	 1.314152327991704e+01
0	 4.285714285714289e-01	 2.142857142857144e+00	 1.227289883648003e+01
0	 4.285714285714288e-01	 2.285714285714287e+00	 1.149730911749527e+01
0	 4.285714285714287e-01	 2.428571428571431e+00	 1.082050568757355e+01
0	 4.285714285714287e-01	 2.571428571428573e+00	 1.024824011132563e+01
0	 4.285714285714286e-01	 2.714285714285714e+00	 9.786263953362281e+00
0	 4.285714285714287e-01	 2.857142857142858e+00	 9.440328778294322e+00
0	 5.714285714285715e-01	 1.428571428571429e+00	 1.701469652300256e+01
0	 5.714285714285714e-01	 1.571428571428571e+00	 1.572529315142018e+01
0	 5.714285714285714e-01	 1.714285714285714e+00	 1.454134879949410e+01
0	 5.714285714285715e-01	 1.857142857142858e+00	 1.346644277765846e+01
0	 5.714285714285715e-01	 2.000000000000000e+00	 1.250415439634737e+01
0	 5.714285714285715e-01	 2.142857142857144e+00	 1.165806296599501e+01
0	 5.714285714285715e-01	 2.285714285714286e+00	 1.093174779703548e+01
0	 5.714285714285714e-01	 2.428571428571429e+00	 1.032878819990294e+01
0	 5.714285714285714e-01	 2.571428571428572e+00	 9.852763485031517e+00
0	 5.714285714285714e-01	 2.714285714285714e+00	 9.507252962855350e+00
0	 5.714285714285715e-01	 2.857142857142858e+00	 9.295835943808566e+00
0	 7.142857142857142e-01	 1.428571428571429e+00	 1.643050549800823e+01
0	 7.142857142857143e-01	 1.571428571428572e+00	 1.511872197392752e+01
0	 7.142857142857146e-01	 1.714285714285715e+00	 1.393390571139398e+01
0	 7.142857142857143e-01	 1.857142857142858e+00	 1.287777118246224e+01
0	 7.142857142857143e-01	 2.000000000000000e+00	 1.195203285918686e+01
0	 7.142857142857144e-01	 2.142857142857144e+00	 1.115840521362245e+01
0	 7.142857142857142e-01	 2.285714285714287e+00	 1.049860271782360e+01
0	 7.142857142857146e-01	 2.428571428571430e+00	 9.974339843844893e+00
0	 7.142857142857142e-01	 2.571428571428572e+00	 9.587331063740946e+00
0	 7.142857142857143e-01	 2.714285714285715e+00	 9.339290849566328e+00
0	 7.142857142857143e-01	 2.857142857142858e+00	 9.231933673375647e+00
0	 8.571428571428573e-01	 1.428571428571428e+00	 1.572810479065867e+01
0	 8.571428571428571e-01	 1.571428571428571e+00	 1.446110448436825e+01
0	 8.571428571428572e-01	 1.714285714285715e+00	 1.333090535397707e+01
0	 8.571428571428574e-01	 1.857142857142858e+00	 1.233766444895726e+01
0	 8.571428571428573e-01	 2.000000000000000e+00	 1.148153881878100e+01
0	 8.571428571428574e-01	 2.142857142857144e+00	 1.076268551292040e+01
0	 8.571428571428574e-01	 2.285714285714287e+00	 1.018126158084764e+01
0	 8.571428571428573e-01	 2.428571428571430e+00	 9.737424072034862e+00
0	 8.571428571428573e-01	 2.571428571428572e+00	 9.431330035954200e+00
0	 8.571428571428574e-01	 2.714285714285715e+00	 9.263136522077827e+00
0	 8.571428571428573e-01	 2.857142857142857e+00	 9.233000579877874e+00
0	 1.000000000000000e+00	 1.428571428571429e+00	 1.495683526062355e+01
0	 1.000000000000000e+00	 1.571428571428572e+00	 1.378516938875487e+01
0	 1.000000000000000e+00	 1.714285714285714e+00	 1.275071226381607e+01
0	 1.000000000000000e+00	 1.857142857142858e+00	 1.185237092849394e+01
0	 1.000000000000001e+00	 2.000000000000001e+00	 1.108905242547529e+01
0	 1.000000000000000e+00	 2.142857142857143e+00	 1.045966379744693e+01
0	 1.000000000000000e+00	 2.285714285714286e+00	 9.963112087095649e+00
0	 1.000000000000000e+00	 2.428571428571430e+00	 9.598304337108274e+00
0	 1.000000000000000e+00	 2.571428571428573e+00	 9.364147590171592e+00
0	 1.000000000000000e+00	 2.714285714285715e+00	 9.259548888972404e+00
0	 1.000000000000000e+00	 2.857142857142857e+00	 9.283415276197527e+00
0	 1.142857142857143e+00	 1.428571428571429e+00	 1.416603776757254e+01
0	 1.142857142857143e+00	 1.571428571428572e+00	 1.312364539309985e+01
0	 1.142857142857143e+00	 1.714285714285714e+00	 1.221169097748372e+01
0	 1.142857142857143e+00	 1.857142857142858e+00	 1.142813897242266e+01
0	 1.142857142857143e+00	 2.000000000000001e+00	 1.077095382961527e+01
0	 1.142857142857143e+00	 2.142857142857143e+00	 1.023810000076009e+01
0	 1.142857142857143e+00	 2.285714285714286e+00	 9.827541937555679e+00
0	 1.142857142857143e+00	 2.428571428571429e+00	 9.537244091700600e+00
0	 1.142857142857143e+00	 2.571428571428573e+00	 9.365170914893408e+00
0	 1.142857142857143e+00	 2.714285714285714e+00	 9.309286858832658e+00
0	 1.142857142857143e+00	 2.857142857142858e+00	 9.367556375216914e+00
0	 1.285714285714286e+00	 1.428571428571429e+00	 1.340505317117532e+01
0	 1.285714285714286e+00	 1.571428571428572e+00	 1.250926120341568e+01
0	 1.285714285714286e+00	 1.714285714285714e+00	 1.173220603155271e+01
0	 1.285714285714286e+00	 1.857142857142858e+00	 1.107121693209383e+01
0	 1.285714285714286e+00	 2.000000000000000e+00	 1.052362318154643e+01
0	 1.285714285714286e+00	 2.142857142857144e+00	 1.008675405641793e+01
0	 1.285714285714286e+00	 2.285714285714286e+00	 9.757938833215745e+00
0	 1.285714285714286e+00	 2.428571428571430e+00	 9.534506788447283e+00
0	 1.285714285714286e+00	 2.571428571428572e+00	 9.413787198619952e+00
0	 1.285714285714286e+00	 2.714285714285715e+00	 9.393109340241166e+00
0	 1.285714285714286e+00	 2.857142857142858e+00	 9.469802489818328e+00
0	 1.428571428571429e+00	 1.428571428571429e+00	 1.272322233110154e+01
0	 1.428571428571429e+00	 1.571428571428572e+00	 1.197474552571482e+01
0	 1.428571428571429e+00	 1.714285714285715e+00	 1.133062196259581e+01
0	 1.428571428571429e+00	 1.857142857142857e+00	 1.078785315885785e+01
0	 1.428571428571429e+00	 2.000000000000000e+00	 1.034344063161429e+01
0	 1.428571428571429e+00	 2.142857142857144e+00	 9.994385897978521e+00
0	 1.428571428571429e+00	 2.285714285714286e+00	 9.737690475063898e+00
0	 1.428571428571429e+00	 2.428571428571429e+00	 9.570355879983776e+00
0	 1.428571428571429e+00	 2.571428571428573e+00	 9.489383629851520e+00
0	 1.428571428571429e+00	 2.714285714285715e+00	 9.491775241780497e+00
0	 1.428571428571429e+00	 2.857142857142857e+00	 9.574532232884058e+00
0	 0.000000000000000e+00	 2.857142857142857e+00	 1.051356453724565e+01
0	 0.000000000000000e+00	 3.000000000000001e+00	 9.630492621455891e+00
0	 0.000000000000000e+00	 3.142857142857143e+00	 8.932026519381267e+00
0	 0.000000000000000e+00	 3.285714285714286e+00	 8.409032327142450e+00
0	 0.000000000000000e+00	 3.428571428571429e+00	 8.052376140860085e+00
0	 0.000000000000000e+00	 3.571428571428572e+00	 7.852924056654837e+00
0	 0.000000000000000e+00	 3.714285714285715e+00	 7.801542170647378e+00
0	 0.000000000000000e+00	 3.857142857142858e+00	 7.889096578958348e+00
0	 0.000000000000000e+00	 4.000000000000001e+00	 8.106453377708419e+00
0	 0.000000000000000e+00	 4.142857142857143e+00	 8.444478663018250e+00
0	 0.000000000000000e+00	 4.285714285714286e+00	 8.894038531008496e+00
0	 1.428571428571429e-01	 2.857142857142858e+00	 1.003357168789516e+01
0	 1.428571428571429e-01	 3.000000000000001e+00	 9.404765724278803e+00
0	 1.428571428571429e-01	 3.142857142857143e+00	 8.911541041357369e+00
0	 1.428571428571430e-01	 3.285714285714287e+00	 8.547062614092880e+00
0	 1.428571428571430e-01	 3.428571428571429e+00	 8.304495417447374e+00
0	 1.428571428571428e-01	 3.571428571428570e+00	 8.177004426382894e+00
0	 1.428571428571429e-01	 3.714285714285716e+00	 8.157754615861460e+00
0	 1.428571428571430e-01	 3.857142857142859e+00	 8.239910960845128e+00
0	 1.428571428571429e-01	 4.000000000000002e+00	 8.416638436295907e+00
0	 1.428571428571430e-01	 4.142857142857144e+00	 8.681102017175853e+00
0	 1.428571428571429e-01	 4.285714285714286e+00	 9.026466678446972e+00
0	 2.857142857142858e-01	 2.857142857142858e+00	 9.681033563950615e+00
0	 2.857142857142857e-01	 3.000000000000001e+00	 9.260213222620440e+00
0	 2.857142857142858e-01	 3.142857142857143e+00	 8.933855548922736e+00
0	 2.857142857142858e-01	 3.285714285714286e+00	 8.697168996815982e+00
0	 2.857142857142857e-01	 3.428571428571429e+00	 8.545362020258629e+00
0	 2.857142857142858e-01	 3.571428571428573e+00	 8.473643073209168e+00
0	 2.857142857142858e-01	 3.714285714285714e+00	 8.477220609626054e+00
0	 2.857142857142858e-01	 3.857142857142857e+00	 8.551303083467772e+00
0	 2.857142857142859e-01	 4.000000000000002e+00	 8.691098948692790e+00
0	 2.857142857142857e-01	 4.142857142857145e+00	 8.891816659259574e+00
0	 2.857142857142858e-01	 4.285714285714286e+00	 9.148664669126598e+00
0	 4.285714285714287e-01	 2.857142857142858e+00	 9.440328778294322e+00
0	 4.285714285714287e-01	 3.000000000000000e+00	 9.185644061567613e+00
0	 4.285714285714287e-01	 3.142857142857144e+00	 8.991582590960862e+00
0	 4.285714285714287e-01	 3.285714285714286e+00	 8.855140899584040e+00
0	 4.285714285714288e-01	 3.428571428571429e+00	 8.773315520547118e+00
0	 4.285714285714289e-01	 3.571428571428573e+00	 8.743102986960055e+00
0	 4.285714285714287e-01	 3.714285714285714e+00	 8.761499831932845e+00
0	 4.285714285714288e-01	 3.857142857142857e+00	 8.825502588575437e+00
0	 4.285714285714288e-01	 4.000000000000001e+00	 8.932107789997803e+00
0	 4.285714285714287e-01	 4.142857142857144e+00	 9.078311969309913e+00
0	 4.285714285714287e-01	 4.285714285714286e+00	 9.261111659621747e+00
0	 5.714285714285715e-01	 2.857142857142858e+00	 9.295835943808566e+00
0	 5.714285714285715e-01	 3.000000000000000e+00	 9.169867186207117e+00
0	 5.714285714285715e-01	 3.142857142857144e+00	 9.077334716355203e+00
0	 5.714285714285715e-01	 3.285714285714286e+00	 9.016767746669359e+00
0	 5.714285714285716e-01	 3.428571428571429e+00	 8.986695489566110e+00
0	 5.714285714285716e-01	 3.571428571428573e+00	 8.985647157461981e+00
0	 5.714285714285715e-01	 3.714285714285714e+00	 9.012151962773522e+00
0	 5.714285714285713e-01	 3.857142857142858e+00	 9.064739117917242e+00
0	 5.714285714285713e-01	 4.000000000000001e+00	 9.141937835309676e+00
0	 5.714285714285715e-01	 4.142857142857144e+00	 9.242277327367365e+00
0	 5.714285714285715e-01	 4.285714285714286e+00	 9.364286806506826e+00
0	 7.142857142857143e-01	 2.857142857142858e+00	 9.231933673375647e+00
0	 7.142857142857144e-01	 3.000000000000000e+00	 9.201691541625765e+00
0	 7.142857142857144e-01	 3.142857142857142e+00	 9.183724473989241e+00
0	 7.142857142857143e-01	 3.285714285714286e+00	 9.177838962344225e+00
0	 7.142857142857143e-01	 3.428571428571429e+00	 9.183841498568881e+00
0	 7.142857142857144e-01	 3.571428571428572e+00	 9.201538574541335e+00
0	 7.142857142857144e-01	 3.714285714285716e+00	 9.230736682139781e+00
0	 7.142857142857145e-01	 3.857142857142858e+00	 9.271242313242334e+00
0	 7.142857142857145e-01	 4.000000000000001e+00	 9.322861959727163e+00
0	 7.142857142857144e-01	 4.142857142857143e+00	 9.385402113472415e+00
0	 7.142857142857142e-01	 4.285714285714285e+00	 9.458669266356237e+00
0	 8.571428571428573e-01	 2.857142857142857e+00	 9.233000579877874e+00
0	 8.571428571428575e-01	 3.000000000000001e+00	 9.269926072910362e+00
0	 8.571428571428573e-01	 3.142857142857143e+00	 9.303364412746443e+00
0	 8.571428571428574e-01	 3.285714285714287e+00	 9.334143970880945e+00
0	 8.571428571428573e-01	 3.428571428571429e+00	 9.363093118808697e+00
0	 8.571428571428573e-01	 3.571428571428573e+00	 9.391040228024540e+00
0	 8.571428571428575e-01	 3.714285714285716e+00	 9.418813670023312e+00
0	 8.571428571428573e-01	 3.857142857142858e+00	 9.447241816299847e+00
0	 8.571428571428574e-01	 4.000000000000000e+00	 9.477153038348980e+00
0	 8.571428571428574e-01	 4.142857142857144e+00	 9.509375707665546e+00
0	 8.571428571428575e-01	 4.285714285714286e+00	 9.544738195744376e+00
0	 1.000000000000000e+00	 2.857142857142857e+00	 9.283415276197527e+00
0	 1.000000000000001e+00	 3.000000000000001e+00	 9.363379725147730e+00
0	 1.000000000000000e+00	 3.142857142857143e+00	 9.428867081510294e+00
0	 1.000000000000000e+00	 3.285714285714286e+00	 9.481472196551803e+00
0	 1.000000000000000e+00	 3.428571428571429e+00	 9.522789921538839e+00
0	 1.000000000000000e+00	 3.571428571428573e+00	 9.554415107737984e+00
0	 1.000000000000000e+00	 3.714285714285716e+00	 9.577942606415819e+00
0	 1.000000000000000e+00	 3.857142857142858e+00	 9.594967268838911e+00
0	 1.000000000000000e+00	 4.000000000000001e+00	 9.607083946273869e+00
0	 1.000000000000000e+00	 4.142857142857145e+00	 9.615887489987248e+00
0	 1.000000000000000e+00	 4.285714285714284e+00	 9.622972751245639e+00
0	 1.142857142857143e+00	 2.857142857142858e+00	 9.367556375216914e+00
0	 1.142857142857143e+00	 3.000000000000000e+00	 9.470861443424658e+00
0	 1.142857142857143e+00	 3.142857142857143e+00	 9.552845029164255e+00
0	 1.142857142857143e+00	 3.285714285714286e+00	 9.615613063629096e+00
0	 1.142857142857143e+00	 3.428571428571430e+00	 9.661271478012576e+00
0	 1.142857142857143e+00	 3.571428571428572e+00	 9.691926203508071e+00
0	 1.142857142857143e+00	 3.714285714285716e+00	 9.709683171308976e+00
0	 1.142857142857143e+00	 3.857142857142857e+00	 9.716648312608676e+00
0	 1.142857142857143e+00	 4.000000000000001e+00	 9.714927558600561e+00
0	 1.142857142857143e+00	 4.142857142857144e+00	 9.706626840478009e+00
0	 1.142857142857143e+00	 4.285714285714286e+00	 9.693852089434422e+00
0	 1.285714285714286e+00	 2.857142857142858e+00	 9.469802489818328e+00
0	 1.285714285714286e+00	 3.000000000000000e+00	 9.581180172827962e+00
0	 1.285714285714286e+00	 3.142857142857143e+00	 9.667910804591809e+00
0	 1.285714285714286e+00	 3.285714285714286e+00	 9.732355996385131e+00
0	 1.285714285714286e+00	 3.428571428571429e+00	 9.776877359483182e+00
0	 1.285714285714286e+00	 3.571428571428573e+00	 9.803836505161216e+00
0	 1.285714285714286e+00	 3.714285714285714e+00	 9.815595044694495e+00
0	 1.285714285714286e+00	 3.857142857142858e+00	 9.814514589358268e+00
0	 1.285714285714286e+00	 4.000000000000002e+00	 9.802956750427791e+00
0	 1.285714285714286e+00	 4.142857142857144e+00	 9.783283139178328e+00
0	 1.285714285714286e+00	 4.285714285714286e+00	 9.757855366885130e+00
0	 1.428571428571429e+00	 2.857142857142857e+00	 9.574532232884058e+00
0	 1.428571428571429e+00	 3.000000000000001e+00	 9.683144858444443e+00
0	 1.428571428571429e+00	 3.142857142857143e+00	 9.766676956676427e+00
0	 1.428571428571429e+00	 3.285714285714286e+00	 9.827490419092189e+00
0	 1.428571428571429e+00	 3.428571428571429e+00	 9.867947137203924e+00
0	 1.428571428571429e+00	 3.571428571428572e+00	 9.890409002523814e+00
0	 1.428571428571429e+00	 3.714285714285715e+00	 9.897237906564047e+00
0	 1.428571428571429e+00	 3.857142857142857e+00	 9.890795740836813e+00
0	 1.428571428571429e+00	 4.000000000000000e+00	 9.873444396854296e+00
0	 1.428571428571429e+00	 4.142857142857143e+00	 9.847545766128686e+00
0	 1.428571428571429e+00	 4.285714285714286e+00	 9.815461740172154e+00
0	 0.000000000000000e+00	 4.285714285714286e+00	 8.894038531008496e+00
0	 0.000000000000000e+00	 4.428571428571429e+00	 9.347814728975845e+00
0	 0.000000000000000e+00	 4.571428571428572e+00	 9.708695834445304e+00
0	 0.000000000000000e+00	 4.714285714285715e+00	 9.982858188880066e+00
0	 0.000000000000000e+00	 4.857142857142858e+00	 1.017647813374329e+01
0	 0.000000000000000e+00	 5.000000000000000e+00	 1.029573201049815e+01
0	 0.000000000000000e+00	 5.142857142857143e+00	 1.034679616060783e+01
0	 0.000000000000000e+00	 5.285714285714284e+00	 1.033584692553547e+01
0	 0.000000000000000e+00	 5.428571428571427e+00	 1.026906064674427e+01
0	 0.000000000000000e+00	 5.571428571428570e+00	 1.015261366569741e+01
0	 0.000000000000000e+00	 5.714285714285714e+00	 9.992682323858038e+00
0	 1.428571428571429e-01	 4.285714285714286e+00	 9.026466678446972e+00
0	 1.428571428571429e-01	 4.428571428571431e+00	 9.373959926316758e+00
0	 1.428571428571429e-01	 4.571428571428572e+00	 9.652419660273640e+00
0	 1.428571428571430e-01	 4.714285714285716e+00	 9.866426445201201e+00
0	 1.428571428571430e-01	 4.857142857142857e+00	 1.002056084598299e+01
0	 1.428571428571429e-01	 4.999999999999998e+00	 1.011940342750258e+01
0	 1.428571428571429e-01	 5.142857142857142e+00	 1.016753475464351e+01
0	 1.428571428571430e-01	 5.285714285714286e+00	 1.016953539228935e+01
0	 1.428571428571429e-01	 5.428571428571428e+00	 1.012998590532368e+01
0	 1.428571428571429e-01	 5.571428571428570e+00	 1.005346685863003e+01
0	 1.428571428571429e-01	 5.714285714285716e+00	 9.944558817091977e+00
0	 2.857142857142858e-01	 4.285714285714286e+00	 9.148664669126598e+00
0	 2.857142857142857e-01	 4.428571428571429e+00	 9.406495124483534e+00
0	 2.857142857142859e-01	 4.571428571428573e+00	 9.615466787011181e+00
0	 2.857142857142858e-01	 4.714285714285715e+00	 9.778748033904723e+00
0	 2.857142857142857e-01	 4.857142857142857e+00	 9.899507242359320e+00
0	 2.857142857142858e-01	 5.000000000000002e+00	 9.980912789570150e+00
0	 2.857142857142858e-01	 5.142857142857142e+00	 1.002613305273238e+01
0	 2.857142857142858e-01	 5.285714285714286e+00	 1.003833640904120e+01
0	 2.857142857142858e-01	 5.428571428571428e+00	 1.002069123569177e+01
0	 2.857142857142857e-01	 5.571428571428571e+00	 9.976365909879281e+00
0	 2.857142857142858e-01	 5.714285714285714e+00	 9.908528808798874e+00
0	 4.285714285714287e-01	 4.285714285714286e+00	 9.261111659621747e+00
0	 4.285714285714287e-01	 4.428571428571429e+00	 9.444507919298285e+00
0	 4.285714285714288e-01	 4.571428571428574e+00	 9.595797303563229e+00
0	 4.285714285714287e-01	 4.714285714285715e+00	 9.716919590814570e+00
0	 4.285714285714288e-01	 4.857142857142858e+00	 9.809814559450333e+00
0	 4.285714285714289e-01	 5.000000000000001e+00	 9.876421987868515e+00
0	 4.285714285714288e-01	 5.142857142857142e+00	 9.918681654467136e+00
0	 4.285714285714288e-01	 5.285714285714286e+00	 9.938533337644202e+00
0	 4.285714285714285e-01	 5.428571428571427e+00	 9.937916815797731e+00
0	 4.285714285714287e-01	 5.571428571428570e+00	 9.918771867325731e+00
0	 4.285714285714288e-01	 5.714285714285714e+00	 9.883038270626205e+00
0	 5.714285714285715e-01	 4.285714285714286e+00	 9.364286806506826e+00
0	 5.714285714285717e-01	 4.428571428571430e+00	 9.487085906583141e+00
0	 5.714285714285713e-01	 4.571428571428572e+00	 9.591371298835076e+00
0	 5.714285714285715e-01	 4.714285714285715e+00	 9.678037751754699e+00
0	 5.714285714285715e-01	 4.857142857142858e+00	 9.747980033834088e+00
0	 5.714285714285716e-01	 5.000000000000001e+00	 9.802092913565316e+00
0	 5.714285714285717e-01	 5.142857142857141e+00	 9.841271159440439e+00
0	 5.714285714285714e-01	 5.285714285714285e+00	 9.866409539951547e+00
0	 5.714285714285715e-01	 5.428571428571428e+00	 9.878402823590708e+00
0	 5.714285714285714e-01	 5.571428571428571e+00	 9.878145778849989e+00
0	 5.714285714285714e-01	 5.714285714285714e+00	 9.866533174221470e+00
0	 7.142857142857142e-01	 4.285714285714285e+00	 9.458669266356237e+00
0	 7.142857142857145e-01	 4.428571428571430e+00	 9.533316682160210e+00
0	 7.142857142857146e-01	 4.571428571428573e+00	 9.600148861732032e+00
0	 7.142857142857143e-01	 4.714285714285714e+00	 9.659199152549055e+00
0	 7.142857142857144e-01	 4.857142857142859e+00	 9.710500902088643e+00
0	 7.142857142857145e-01	 5.000000000000002e+00	 9.754087457828163e+00
0	 7.142857142857142e-01	 5.142857142857143e+00	 9.789992167244964e+00
0	 7.142857142857144e-01	 5.285714285714285e+00	 9.818248377816408e+00
0	 7.142857142857143e-01	 5.428571428571427e+00	 9.838889437019851e+00
0	 7.142857142857142e-01	 5.571428571428570e+00	 9.851948692332645e+00
0	 7.142857142857144e-01	 5.714285714285715e+00	 9.857459491232156e+00
0	 8.571428571428575e-01	 4.285714285714286e+00	 9.544738195744376e+00
0	 8.571428571428574e-01	 4.428571428571430e+00	 9.582287841851612e+00
0	 8.571428571428573e-01	 4.571428571428571e+00	 9.620090081159390e+00
0	 8.571428571428574e-01	 4.714285714285715e+00	 9.657500429021598e+00
0	 8.571428571428573e-01	 4.857142857142857e+00	 9.693874400792087e+00
0	 8.571428571428573e-01	 5.000000000000001e+00	 9.728567511824735e+00
0	 8.571428571428572e-01	 5.142857142857141e+00	 9.760935277473411e+00
0	 8.571428571428572e-01	 5.285714285714285e+00	 9.790333213091982e+00
0	 8.571428571428573e-01	 5.428571428571427e+00	 9.816116834034315e+00
0	 8.571428571428575e-01	 5.571428571428570e+00	 9.837641655654286e+00
0	 8.571428571428573e-01	 5.714285714285715e+00	 9.854263193305751e+00
0	 1.000000000000000e+00	 4.285714285714284e+00	 9.622972751245639e+00
0	 1.000000000000000e+00	 4.428571428571431e+00	 9.633086981479460e+00
0	 1.000000000000000e+00	 4.571428571428570e+00	 9.649155046022461e+00
0	 1.000000000000000e+00	 4.714285714285714e+00	 9.670038216996264e+00
0	 1.000000000000000e+00	 4.857142857142859e+00	 9.694597766522445e+00
0	 1.000000000000000e+00	 5.000000000000000e+00	 9.721694966722643e+00
0	 1.000000000000000e+00	 5.142857142857144e+00	 9.750191089718442e+00
0	 1.000000000000000e+00	 5.285714285714284e+00	 9.778947407631449e+00
0	 1.000000000000000e+00	 5.428571428571427e+00	 9.806825192583270e+00
0	 1.000000000000000e+00	 5.571428571428570e+00	 9.832685716695501e+00
0	 1.000000000000000e+00	 5.714285714285714e+00	 9.855390252089759e+00
0	 1.142857142857143e+00	 4.285714285714286e+00	 9.693852089434422e+00
0	 1.142857142857143e+00	 4.428571428571430e+00	 9.684801696865874e+00
0	 1.142857142857143e+00	 4.571428571428570e+00	 9.685303845226542e+00
0	 1.142857142857143e+00	 4.714285714285714e+00	 9.693909152297001e+00
0	 1.142857142857143e+00	 4.857142857142858e+00	 9.709168235857810e+00
0	 1.142857142857144e+00	 5.000000000000002e+00	 9.729631713689542e+00
0	 1.142857142857143e+00	 5.142857142857143e+00	 9.753850203572753e+00
0	 1.142857142857143e+00	 5.285714285714285e+00	 9.780374323287999e+00
0	 1.142857142857143e+00	 5.428571428571427e+00	 9.807754690615862e+00
0	 1.142857142857143e+00	 5.571428571428569e+00	 9.834541923336888e+00
0	 1.142857142857143e+00	 5.714285714285715e+00	 9.859286639231652e+00
0	 1.285714285714286e+00	 4.285714285714286e+00	 9.757855366885130e+00
0	 1.285714285714286e+00	 4.428571428571430e+00	 9.736519583832967e+00
0	 1.285714285714286e+00	 4.571428571428571e+00	 9.726496567676932e+00
0	 1.285714285714286e+00	 4.714285714285714e+00	 9.726209870747770e+00
0	 1.285714285714286e+00	 4.857142857142858e+00	 9.734083045376231e+00
0	 1.285714285714286e+00	 5.000000000000001e+00	 9.748539643893059e+00
0	 1.285714285714286e+00	 5.142857142857143e+00	 9.768003218629007e+00
0	 1.285714285714286e+00	 5.285714285714286e+00	 9.790897321914823e+00
0	 1.285714285714286e+00	 5.428571428571429e+00	 9.815645506081253e+00
0	 1.285714285714286e+00	 5.571428571428569e+00	 9.840671323459031e+00
0	 1.285714285714286e+00	 5.714285714285714e+00	 9.864398326378932e+00
0	 1.428571428571429e+00	 4.285714285714286e+00	 9.815461740172154e+00
0	 1.428571428571429e+00	 4.428571428571429e+00	 9.787328238202868e+00
0	 1.428571428571429e+00	 4.571428571428571e+00	 9.770693302278936e+00
0	 1.428571428571429e+00	 4.714285714285714e+00	 9.764037008172519e+00
0	 1.428571428571429e+00	 4.857142857142858e+00	 9.765839431655760e+00
0	 1.428571428571429e+00	 5.000000000000001e+00	 9.774580648500832e+00
0	 1.428571428571429e+00	 5.142857142857143e+00	 9.788740734479905e+00
0	 1.428571428571429e+00	 5.285714285714285e+00	 9.806799765365096e+00
0	 1.428571428571429e+00	 5.428571428571428e+00	 9.827237816928584e+00
0	 1.428571428571429e+00	 5.571428571428570e+00	 9.848534964942534e+00
0	 1.428571428571429e+00	 5.714285714285713e+00	 9.869171285179076e+00
0	 0.000000000000000e+00	 5.714285714285714e+00	 9.992682323858034e+00
0	 0.000000000000000e+00	 5.857142857142858e+00	 9.835964181868178e+00
0	 0.000000000000000e+00	 5.999999999999999e+00	 9.722266923257742e+00
0	 0.000000000000000e+00	 6.142857142857141e+00	 9.647432073821751e+00
0	 0.000000000000000e+00	 6.285714285714284e+00	 9.607301159355202e+00
0	 0.000000000000000e+00	 6.428571428571426e+00	 9.597715705653147e+00
0	 0.000000000000000e+00	 6.571428571428569e+00	 9.614517238510572e+00
0	 0.000000000000000e+00	 6.714285714285712e+00	 9.653547283722489e+00
0	 0.000000000000000e+00	 6.857142857142853e+00	 9.710647367083924e+00
0	 0.000000000000000e+00	 6.999999999999996e+00	 9.781659014389884e+00
0	 0.000000000000000e+00	 7.142857142857143e+00	 9.862423751435404e+00
0	 1.428571428571429e-01	 5.714285714285716e+00	 9.944558817091975e+00
0	 1.428571428571429e-01	 5.857142857142858e+00	 9.837200246832669e+00
0	 1.428571428571429e-01	 5.999999999999998e+00	 9.760247437064328e+00
0	 1.428571428571430e-01	 6.142857142857142e+00	 9.710657687304082e+00
0	 1.428571428571429e-01	 6.285714285714282e+00	 9.685388297069103e+00
0	 1.428571428571429e-01	 6.428571428571424e+00	 9.681396565876533e+00
0	 1.428571428571430e-01	 6.571428571428570e+00	 9.695639793243529e+00
0	 1.428571428571430e-01	 6.714285714285710e+00	 9.725075278687237e+00
0	 1.428571428571429e-01	 6.857142857142855e+00	 9.766660321724803e+00
0	 1.428571428571429e-01	 6.999999999999996e+00	 9.817352221873396e+00
0	 1.428571428571429e-01	 7.142857142857143e+00	 9.874108278650155e+00
0	 2.857142857142858e-01	 5.714285714285714e+00	 9.908528808798872e+00
0	 2.857142857142856e-01	 5.857142857142858e+00	 9.840673797455946e+00
0	 2.857142857142858e-01	 6.000000000000001e+00	 9.792809992687570e+00
0	 2.857142857142856e-01	 6.142857142857139e+00	 9.762878649436461e+00
0	 2.857142857142858e-01	 6.285714285714285e+00	 9.748821022645362e+00
0	 2.857142857142858e-01	 6.428571428571427e+00	 9.748578367256984e+00
0	 2.857142857142858e-01	 6.571428571428569e+00	 9.760091938214043e+00
0	 2.857142857142858e-01	 6.714285714285711e+00	 9.781302990459267e+00
0	 2.857142857142858e-01	 6.857142857142855e+00	 9.810152778935388e+00
0	 2.857142857142857e-01	 6.999999999999996e+00	 9.844582558585126e+00
0	 2.857142857142858e-01	 7.142857142857144e+00	 9.882533584351190e+00
0	 4.285714285714288e-01	 5.714285714285714e+00	 9.883038270626205e+00
0	 4.285714285714286e-01	 5.857142857142856e+00	 9.845858630827676e+00
0	 4.285714285714285e-01	 5.999999999999999e+00	 9.820277962174488e+00
0	 4.285714285714287e-01	 6.142857142857142e+00	 9.805089656738360e+00
0	 4.285714285714287e-01	 6.285714285714285e+00	 9.799087106591042e+00
0	 4.285714285714288e-01	 6.428571428571427e+00	 9.801063703804237e+00
0	 4.285714285714285e-01	 6.571428571428566e+00	 9.809812840449695e+00
0	 4.285714285714289e-01	 6.714285714285714e+00	 9.824127908599142e+00
0	 4.285714285714287e-01	 6.857142857142853e+00	 9.842802300324307e+00
0	 4.285714285714287e-01	 6.999999999999994e+00	 9.864629407696926e+00
0	 4.285714285714288e-01	 7.142857142857143e+00	 9.888402622788712e+00
0	 5.714285714285714e-01	 5.714285714285714e+00	 9.866533174221468e+00
0	 5.714285714285714e-01	 5.857142857142856e+00	 9.852228544037567e+00
0	 5.714285714285714e-01	 5.999999999999999e+00	 9.842974717572101e+00
0	 5.714285714285714e-01	 6.142857142857141e+00	 9.838285405729238e+00
0	 5.714285714285714e-01	 6.285714285714283e+00	 9.837674319413171e+00
0	 5.714285714285714e-01	 6.428571428571425e+00	 9.840655169528056e+00
0	 5.714285714285714e-01	 6.571428571428569e+00	 9.846741666978073e+00
0	 5.714285714285715e-01	 6.714285714285712e+00	 9.855447522667403e+00
0	 5.714285714285714e-01	 6.857142857142854e+00	 9.866286447500199e+00
0	 5.714285714285715e-01	 6.999999999999996e+00	 9.878772152380659e+00
0	 5.714285714285715e-01	 7.142857142857144e+00	 9.892418348212937e+00
0	 7.142857142857144e-01	 5.714285714285715e+00	 9.857459491232156e+00
0	 7.142857142857143e-01	 5.857142857142857e+00	 9.859257334175288e+00
0	 7.142857142857145e-01	 6.000000000000002e+00	 9.861223630927396e+00
0	 7.142857142857143e-01	 6.142857142857143e+00	 9.863460592928551e+00
0	 7.142857142857145e-01	 6.285714285714286e+00	 9.866070431618787e+00
0	 7.142857142857142e-01	 6.428571428571425e+00	 9.869155358438173e+00
0	 7.142857142857143e-01	 6.571428571428569e+00	 9.872817584826750e+00
0	 7.142857142857142e-01	 6.714285714285711e+00	 9.877159322224582e+00
0	 7.142857142857144e-01	 6.857142857142853e+00	 9.882282782071703e+00
0	 7.142857142857142e-01	 6.999999999999995e+00	 9.888290175808176e+00
0	 7.142857142857143e-01	 7.142857142857145e+00	 9.895283714874061e+00
0	 8.571428571428573e-01	 5.714285714285715e+00	 9.854263193305755e+00
0	 8.571428571428575e-01	 5.857142857142858e+00	 9.866418798330525e+00
0	 8.571428571428574e-01	 5.999999999999998e+00	 9.875348074287409e+00
0	 8.571428571428573e-01	 6.142857142857142e+00	 9.881609914855762e+00
0	 8.571428571428574e-01	 6.285714285714284e+00	 9.885763213714949e+00
0	 8.571428571428573e-01	 6.428571428571427e+00	 9.888366864544340e+00
0	 8.571428571428572e-01	 6.571428571428567e+00	 9.889979761023312e+00
0	 8.571428571428572e-01	 6.714285714285711e+00	 9.891160796831217e+00
0	 8.571428571428575e-01	 6.857142857142854e+00	 9.892468865647443e+00
0	 8.571428571428575e-01	 6.999999999999996e+00	 9.894462861151336e+00
0	 8.571428571428574e-01	 7.142857142857145e+00	 9.897701677022285e+00
0	 1.000000000000000e+00	 5.714285714285714e+00	 9.855390252089759e+00
0	 1.000000000000000e+00	 5.857142857142859e+00	 9.873186733592979e+00
0	 1.000000000000000e+00	 5.999999999999998e+00	 9.885671419699127e+00
0	 1.000000000000000e+00	 6.142857142857142e+00	 9.893728068030317e+00
0	 1.000000000000000e+00	 6.285714285714283e+00	 9.898240436208674e+00
0	 1.000000000000000e+00	 6.428571428571426e+00	 9.900092281856308e+00
0	 1.000000000000000e+00	 6.571428571428570e+00	 9.900167362595335e+00
0	 1.000000000000000e+00	 6.714285714285709e+00	 9.899349436047885e+00
0	 1.000000000000000e+00	 6.857142857142854e+00	 9.898522259836072e+00
0	 1.000000000000000e+00	 6.999999999999996e+00	 9.898569591582005e+00
0	 1.000000000000000e+00	 7.142857142857143e+00	 9.900375188907812e+00
0	 1.142857142857143e+00	 5.714285714285715e+00	 9.859286639231650e+00
0	 1.142857142857143e+00	 5.857142857142857e+00	 9.879034937052324e+00
0	 1.142857142857143e+00	 5.999999999999999e+00	 9.892517039209572e+00
0	 1.142857142857143e+00	 6.142857142857142e+00	 9.900809748971692e+00
0	 1.142857142857143e+00	 6.285714285714282e+00	 9.904989869607004e+00
0	 1.142857142857143e+00	 6.428571428571425e+00	 9.906134204383815e+00
0	 1.142857142857143e+00	 6.571428571428569e+00	 9.905319556570419e+00
0	 1.142857142857143e+00	 6.714285714285710e+00	 9.903622729435110e+00
0	 1.142857142857143e+00	 6.857142857142852e+00	 9.902120526246211e+00
0	 1.142857142857143e+00	 6.999999999999996e+00	 9.901889750272021e+00
0	 1.142857142857143e+00	 7.142857142857143e+00	 9.904007204780848e+00
0	 1.285714285714286e+00	 5.714285714285714e+00	 9.864398326378929e+00
0	 1.285714285714286e+00	 5.857142857142858e+00	 9.883437205798243e+00
0	 1.285714285714286e+00	 6.000000000000000e+00	 9.896208304865741e+00
0	 1.285714285714286e+00	 6.142857142857142e+00	 9.903849654199355e+00
0	 1.285714285714286e+00	 6.285714285714284e+00	 9.907499284417005e+00
0	 1.285714285714286e+00	 6.428571428571427e+00	 9.908295226136609e+00
0	 1.285714285714286e+00	 6.571428571428568e+00	 9.907375509976120e+00
0	 1.285714285714286e+00	 6.714285714285712e+00	 9.905878166553448e+00
0	 1.285714285714286e+00	 6.857142857142853e+00	 9.904941226486518e+00
0	 1.285714285714286e+00	 6.999999999999996e+00	 9.905702720393265e+00
0	 1.285714285714286e+00	 7.142857142857142e+00	 9.909300678891599e+00
0	 1.428571428571429e+00	 5.714285714285713e+00	 9.869171285179076e+00
0	 1.428571428571429e+00	 5.857142857142857e+00	 9.885867336920425e+00
0	 1.428571428571429e+00	 6.000000000000000e+00	 9.897068588714657e+00
0	 1.428571428571429e+00	 6.142857142857141e+00	 9.903842480232745e+00
0	 1.428571428571429e+00	 6.285714285714285e+00	 9.907256451145681e+00
0	 1.428571428571429e+00	 6.428571428571425e+00	 9.908377941124460e+00
0	 1.428571428571429e+00	 6.571428571428568e+00	 9.908274389840038e+00
0	 1.428571428571428e+00	 6.714285714285711e+00	 9.908013236963434e+00
0	 1.428571428571429e+00	 6.857142857142853e+00	 9.908661922165610e+00
0	 1.428571428571429e+00	 6.999999999999996e+00	 9.911287885117558e+00
0	 1.428571428571429e+00	 7.142857142857143e+00	 9.916958565490271e+00
0	 0.000000000000000e+00	 7.142857142857143e+00	 9.862423751435406e+00
0	 0.000000000000000e+00	 7.285714285714286e+00	 9.934881628626925e+00
0	 0.000000000000000e+00	 7.428571428571429e+00	 9.985659806797507e+00
0	 0.000000000000000e+00	 7.571428571428570e+00	 1.001763047738208e+01
0	 0.000000000000000e+00	 7.714285714285714e+00	 1.003366583181558e+01
0	 0.000000000000000e+00	 7.857142857142854e+00	 1.003663806153295e+01
0	 0.000000000000000e+00	 7.999999999999997e+00	 1.002941935796913e+01
0	 0.000000000000000e+00	 8.142857142857141e+00	 1.001488191255904e+01
0	 0.000000000000000e+00	 8.285714285714283e+00	 9.995897916737626e+00
0	 0.000000000000000e+00	 8.428571428571425e+00	 9.975339561939812e+00
0	 0.000000000000000e+00	 8.571428571428573e+00	 9.956079039600548e+00
0	 1.428571428571429e-01	 7.142857142857143e+00	 9.874108278650155e+00
0	 1.428571428571428e-01	 7.285714285714284e+00	 9.924778400990427e+00
0	 1.428571428571429e-01	 7.428571428571430e+00	 9.960616879437325e+00
0	 1.428571428571429e-01	 7.571428571428571e+00	 9.983687585919643e+00
0	 1.428571428571429e-01	 7.714285714285713e+00	 9.996054392366151e+00
0	 1.428571428571429e-01	 7.857142857142856e+00	 9.999781170705649e+00
0	 1.428571428571429e-01	 7.999999999999998e+00	 9.996931792866931e+00
0	 1.428571428571429e-01	 8.142857142857141e+00	 9.989570130778768e+00
0	 1.428571428571429e-01	 8.285714285714283e+00	 9.979760056369974e+00
0	 1.428571428571429e-01	 8.428571428571425e+00	 9.969565441569301e+00
0	 1.428571428571429e-01	 8.571428571428571e+00	 9.961050158305554e+00
0	 2.857142857142858e-01	 7.142857142857144e+00	 9.882533584351190e+00
0	 2.857142857142858e-01	 7.285714285714286e+00	 9.916463927718597e+00
0	 2.857142857142856e-01	 7.428571428571429e+00	 9.941107640064466e+00
0	 2.857142857142856e-01	 7.571428571428570e+00	 9.957819946169710e+00
0	 2.857142857142857e-01	 7.714285714285713e+00	 9.967956070815207e+00
0	 2.857142857142858e-01	 7.857142857142858e+00	 9.972871238781863e+00
0	 2.857142857142858e-01	 7.999999999999997e+00	 9.973920674850577e+00
0	 2.857142857142857e-01	 8.142857142857142e+00	 9.972459603802244e+00
0	 2.857142857142858e-01	 8.285714285714283e+00	 9.969843250417775e+00
0	 2.857142857142858e-01	 8.428571428571427e+00	 9.967426839478041e+00
0	 2.857142857142858e-01	 8.571428571428573e+00	 9.966565595763955e+00
0	 4.285714285714288e-01	 7.142857142857143e+00	 9.888402622788712e+00
0	 4.285714285714287e-01	 7.285714285714287e+00	 9.910032143789593e+00
0	 4.285714285714287e-01	 7.428571428571429e+00	 9.926730074169141e+00
0	 4.285714285714287e-01	 7.571428571428573e+00	 9.939242663918620e+00
0	 4.285714285714287e-01	 7.714285714285714e+00	 9.948316163029308e+00
0	 4.285714285714288e-01	 7.857142857142855e+00	 9.954696821492444e+00
0	 4.285714285714286e-01	 7.999999999999998e+00	 9.959130889299326e+00
0	 4.285714285714288e-01	 8.142857142857142e+00	 9.962364616441194e+00
0	 4.285714285714287e-01	 8.285714285714283e+00	 9.965144252909337e+00
0	 4.285714285714287e-01	 8.428571428571425e+00	 9.968216048695002e+00
0	 4.285714285714288e-01	 8.571428571428573e+00	 9.972326253789452e+00
0	 5.714285714285715e-01	 7.142857142857144e+00	 9.892418348212937e+00
0	 5.714285714285714e-01	 7.285714285714286e+00	 9.905576984181568e+00
0	 5.714285714285713e-01	 7.428571428571428e+00	 9.917082167241521e+00
0	 5.714285714285714e-01	 7.571428571428569e+00	 9.927170844952681e+00
0	 5.714285714285716e-01	 7.714285714285715e+00	 9.936079964874976e+00
0	 5.714285714285714e-01	 7.857142857142855e+00	 9.944046474568244e+00
0	 5.714285714285714e-01	 7.999999999999997e+00	 9.951307321592417e+00
0	 5.714285714285714e-01	 8.142857142857141e+00	 9.958099453507359e+00
0	 5.714285714285716e-01	 8.285714285714283e+00	 9.964659817872979e+00
0	 5.714285714285714e-01	 8.428571428571427e+00	 9.971225362249132e+00
0	 5.714285714285714e-01	 8.571428571428571e+00	 9.978033034195748e+00
0	 7.142857142857143e-01	 7.142857142857145e+00	 9.895283714874061e+00
0	 7.142857142857143e-01	 7.285714285714285e+00	 9.903192383872680e+00
0	 7.142857142857143e-01	 7.428571428571429e+00	 9.911761904771819e+00
0	 7.142857142857143e-01	 7.571428571428571e+00	 9.920819595058266e+00
0	 7.142857142857143e-01	 7.714285714285714e+00	 9.930192772218785e+00
0	 7.142857142857144e-01	 7.857142857142854e+00	 9.939708753740145e+00
0	 7.142857142857144e-01	 7.999999999999997e+00	 9.949194857109115e+00
0	 7.142857142857142e-01	 8.142857142857141e+00	 9.958478399812467e+00
0	 7.142857142857144e-01	 8.285714285714286e+00	 9.967386699336977e+00
0	 7.142857142857145e-01	 8.428571428571429e+00	 9.975747073169398e+00
0	 7.142857142857143e-01	 8.571428571428573e+00	 9.983386838796520e+00
0	 8.571428571428574e-01	 7.142857142857145e+00	 9.897701677022285e+00
0	 8.571428571428572e-01	 7.285714285714286e+00	 9.902972277841087e+00
0	 8.571428571428574e-01	 7.428571428571429e+00	 9.910367272250236e+00
0	 8.571428571428572e-01	 7.571428571428569e+00	 9.919404020021663e+00
0	 8.571428571428573e-01	 7.714285714285714e+00	 9.929599880927281e+00
0	 8.571428571428574e-01	 7.857142857142857e+00	 9.940472214738969e+00
0	 8.571428571428571e-01	 7.999999999999996e+00	 9.951538381228652e+00
0	 8.571428571428574e-01	 8.142857142857142e+00	 9.962315740168245e+00
0	 8.571428571428571e-01	 8.285714285714283e+00	 9.972321651329636e+00
0	 8.571428571428574e-01	 8.428571428571427e+00	 9.981073474484761e+00
0	 8.571428571428574e-01	 8.571428571428571e+00	 9.988088569405500e+00
0	 1.000000000000000e+00	 7.142857142857143e+00	 9.900375188907812e+00
0	 1.000000000000000e+00	 7.285714285714285e+00	 9.905010601064943e+00
0	 1.000000000000000e+00	 7.428571428571430e+00	 9.912496255166989e+00
0	 1.000000000000000e+00	 7.571428571428572e+00	 9.922139225629238e+00
0	 1.000000000000000e+00	 7.714285714285714e+00	 9.933246586866996e+00
0	 9.999999999999999e-01	 7.857142857142854e+00	 9.945125413295585e+00
0	 1.000000000000000e+00	 7.999999999999997e+00	 9.957082779330285e+00
0	 1.000000000000000e+00	 8.142857142857144e+00	 9.968425759386413e+00
0	 1.000000000000000e+00	 8.285714285714281e+00	 9.978461427879264e+00
0	 1.000000000000000e+00	 8.428571428571425e+00	 9.986496859224154e+00
0	 1.000000000000000e+00	 8.571428571428573e+00	 9.991839127836370e+00
0	 1.142857142857143e+00	 7.142857142857143e+00	 9.904007204780850e+00
0	 1.142857142857143e+00	 7.285714285714285e+00	 9.909401288522428e+00
0	 1.142857142857143e+00	 7.428571428571429e+00	 9.917746839012263e+00
0	 1.142857142857143e+00	 7.571428571428573e+00	 9.928240317667306e+00
0	 1.142857142857143e+00	 7.714285714285714e+00	 9.940078185904524e+00
0	 1.142857142857143e+00	 7.857142857142857e+00	 9.952456905140851e+00
0	 1.142857142857143e+00	 7.999999999999999e+00	 9.964572936793267e+00
0	 1.142857142857143e+00	 8.142857142857141e+00	 9.975622742278706e+00
0	 1.142857142857143e+00	 8.285714285714283e+00	 9.984802783014153e+00
0	 1.142857142857143e+00	 8.428571428571425e+00	 9.991309520416541e+00
0	 1.142857142857143e+00	 8.571428571428571e+00	 9.994339415902825e+00
0	 1.285714285714286e+00	 7.142857142857142e+00	 9.909300678891599e+00
0	 1.285714285714286e+00	 7.285714285714286e+00	 9.916238275191683e+00
0	 1.285714285714286e+00	 7.428571428571429e+00	 9.925717009276253e+00
0	 1.285714285714286e+00	 7.571428571428572e+00	 9.936922401922196e+00
0	 1.285714285714286e+00	 7.714285714285713e+00	 9.949039973906368e+00
0	 1.285714285714286e+00	 7.857142857142856e+00	 9.961255246005621e+00
0	 1.285714285714286e+00	 7.999999999999999e+00	 9.972753738996829e+00
0	 1.285714285714286e+00	 8.142857142857141e+00	 9.982720973656873e+00
0	 1.285714285714286e+00	 8.285714285714283e+00	 9.990342470762597e+00
0	 1.285714285714286e+00	 8.428571428571425e+00	 9.994803751090872e+00
0	 1.285714285714286e+00	 8.571428571428575e+00	 9.995290335418581e+00
0	 1.428571428571429e+00	 7.142857142857143e+00	 9.916958565490271e+00
0	 1.428571428571429e+00	 7.285714285714286e+00	 9.925615496050867e+00
0	 1.428571428571429e+00	 7.428571428571427e+00	 9.936004751449184e+00
0	 1.428571428571429e+00	 7.571428571428570e+00	 9.947400584180244e+00
0	 1.428571428571429e+00	 7.714285714285714e+00	 9.959077246739094e+00
0	 1.428571428571429e+00	 7.857142857142852e+00	 9.970308991620742e+00
0	 1.428571428571429e+00	 8.000000000000000e+00	 9.980370071320241e+00
0	 1.428571428571429e+00	 8.142857142857141e+00	 9.988534738332625e+00
0	 1.428571428571429e+00	 8.285714285714283e+00	 9.994077245152898e+00
0	 1.428571428571429e+00	 8.428571428571425e+00	 9.996271844276123e+00
0	 1.428571428571429e+00	 8.571428571428575e+00	 9.994392788197313e+00
0	 0.000000000000000e+00	 8.571428571428573e+00	 9.956079039600549e+00
0	 0.000000000000000e+00	 8.714285714285715e+00	 9.945066622287989e+00
0	 0.000000000000000e+00	 8.857142857142858e+00	 9.945161090267213e+00
0	 0.000000000000000e+00	 9.000000000000000e+00	 9.953097396518542e+00
0	 0.000000000000000e+00	 9.142857142857142e+00	 9.965610494022288e+00
0	 0.000000000000000e+00	 9.285714285714285e+00	 9.979435335758765e+00
0	 0.000000000000000e+00	 9.428571428571427e+00	 9.991306874708318e+00
0	 0.000000000000000e+00	 9.571428571428569e+00	 9.997960063851242e+00
0	 0.000000000000000e+00	 9.714285714285712e+00	 9.996129856167878e+00
0	 0.000000000000000e+00	 9.857142857142852e+00	 9.982551204638455e+00
0	 0.000000000000000e+00	 1.000000000000000e+01	 9.953959062243371e+00
0	 1.428571428571429e-01	 8.571428571428571e+00	 9.961050158305554e+00
0	 1.428571428571429e-01	 8.714285714285714e+00	 9.958156839683401e+00
0	 1.428571428571429e-01	 8.857142857142861e+00	 9.961935733077643e+00
0	 1.428571428571429e-01	 9.000000000000004e+00	 9.970112131822203e+00
0	 1.428571428571429e-01	 9.142857142857141e+00	 9.980411329251034e+00
0	 1.428571428571429e-01	 9.285714285714281e+00	 9.990558618698092e+00
0	 1.428571428571429e-01	 9.428571428571425e+00	 9.998279293497315e+00
0	 1.428571428571429e-01	 9.571428571428573e+00	 1.000129864698263e+01
0	 1.428571428571430e-01	 9.714285714285715e+00	 9.997341972488027e+00
0	 1.428571428571429e-01	 9.857142857142852e+00	 9.984134563347425e+00
0	 1.428571428571429e-01	 1.000000000000000e+01	 9.959401712894792e+00
0	 2.857142857142858e-01	 8.571428571428573e+00	 9.966565595763951e+00
0	 2.857142857142857e-01	 8.714285714285717e+00	 9.969026508765518e+00
0	 2.857142857142858e-01	 8.857142857142859e+00	 9.974731568147499e+00
0	 2.857142857142857e-01	 8.999999999999998e+00	 9.982268498952912e+00
0	 2.857142857142859e-01	 9.142857142857146e+00	 9.990225026224797e+00
0	 2.857142857142858e-01	 9.285714285714285e+00	 9.997188875006159e+00
0	 2.857142857142858e-01	 9.428571428571427e+00	 1.000174777034005e+01
0	 2.857142857142858e-01	 9.571428571428568e+00	 1.000248943726947e+01
0	 2.857142857142858e-01	 9.714285714285710e+00	 9.998001600837494e+00
0	 2.857142857142857e-01	 9.857142857142854e+00	 9.986871986087067e+00
0	 2.857142857142858e-01	 1.000000000000000e+01	 9.967688318061306e+00
0	 4.285714285714288e-01	 8.571428571428573e+00	 9.972326253789452e+00
0	 4.285714285714287e-01	 8.714285714285717e+00	 9.977790303019738e+00
0	 4.285714285714286e-01	 8.857142857142859e+00	 9.983974296623801e+00
0	 4.285714285714287e-01	 9.000000000000000e+00	 9.990200482709186e+00
0	 4.285714285714287e-01	 9.142857142857142e+00	 9.995791109383420e+00
0	 4.285714285714288e-01	 9.285714285714283e+00	 1.000006842475408e+01
0	 4.285714285714287e-01	 9.428571428571431e+00	 1.000235467692874e+01
0	 4.285714285714287e-01	 9.571428571428571e+00	 1.000197211401492e+01
0	 4.285714285714287e-01	 9.714285714285706e+00	 9.998242984120207e+00
0	 4.285714285714287e-01	 9.857142857142856e+00	 9.990489535352083e+00
0	 4.285714285714287e-01	 1.000000000000000e+01	 9.978034015818196e+00
0	 5.714285714285714e-01	 8.571428571428571e+00	 9.978033034195748e+00
0	 5.714285714285714e-01	 8.714285714285717e+00	 9.984562895931509e+00
0	 5.714285714285715e-01	 8.857142857142861e+00	 9.990089619653569e+00
0	 5.714285714285715e-01	 8.999999999999998e+00	 9.994542067889487e+00
0	 5.714285714285715e-01	 9.142857142857144e+00	 9.997849103166766e+00
0	 5.714285714285717e-01	 9.285714285714286e+00	 9.999939588012955e+00
0	 5.714285714285715e-01	 9.428571428571427e+00	 1.000074238495557e+01
0	 5.714285714285714e-01	 9.571428571428569e+00	 1.000018635652213e+01
0	 5.714285714285714e-01	 9.714285714285712e+00	 9.998200365240200e+00
0	 5.714285714285715e-01	 9.857142857142856e+00	 9.994713273637251e+00
0	 5.714285714285714e-01	 1.000000000000000e+01	 9.989653944240901e+00
0	 7.142857142857143e-01	 8.571428571428573e+00	 9.983386838796518e+00
0	 7.142857142857143e-01	 8.714285714285715e+00	 9.989458960986216e+00
0	 7.142857142857144e-01	 8.857142857142859e+00	 9.993503238383845e+00
0	 7.142857142857142e-01	 9.000000000000000e+00	 9.995927239292357e+00
0	 7.142857142857143e-01	 9.142857142857144e+00	 9.997138532014702e+00
0	 7.142857142857144e-01	 9.285714285714283e+00	 9.997544684853823e+00
0	 7.142857142857146e-01	 9.428571428571427e+00	 9.997553266112707e+00
0	 7.142857142857145e-01	 9.571428571428569e+00	 9.997571844094296e+00
0	 7.142857142857144e-01	 9.714285714285712e+00	 9.998007987101520e+00
0	 7.142857142857144e-01	 9.857142857142854e+00	 9.999269263437343e+00
0	 7.142857142857144e-01	 1.000000000000000e+01	 1.000176324140476e+01
0	 8.571428571428574e-01	 8.571428571428571e+00	 9.988088569405496e+00
0	 8.571428571428575e-01	 8.714285714285719e+00	 9.992593171669331e+00
0	 8.571428571428574e-01	 8.857142857142859e+00	 9.994640853961641e+00
0	 8.571428571428574e-01	 9.000000000000004e+00	 9.994989981716280e+00
0	 8.571428571428573e-01	 9.142857142857142e+00	 9.994398920367061e+00
0	 8.571428571428572e-01	 9.285714285714283e+00	 9.993626035347827e+00
0	 8.571428571428574e-01	 9.428571428571425e+00	 9.993429692092365e+00
0	 8.571428571428574e-01	 9.571428571428569e+00	 9.994568256034558e+00
0	 8.571428571428572e-01	 9.714285714285712e+00	 9.997800092608184e+00
0	 8.571428571428572e-01	 9.857142857142856e+00	 1.000388356724707e+01
0	 8.571428571428573e-01	 1.000000000000000e+01	 1.001357704538510e+01
0	 1.000000000000000e+00	 8.571428571428573e+00	 9.991839127836370e+00
0	 1.000000000000000e+00	 8.714285714285717e+00	 9.994080201466232e+00
0	 1.000000000000000e+00	 8.857142857142858e+00	 9.993928167533996e+00
0	 1.000000000000000e+00	 9.000000000000000e+00	 9.992364279959775e+00
0	 1.000000000000000e+00	 9.142857142857141e+00	 9.990369792663728e+00
0	 1.000000000000000e+00	 9.285714285714285e+00	 9.988925959565984e+00
0	 1.000000000000000e+00	 9.428571428571427e+00	 9.989014034586729e+00
0	 1.000000000000000e+00	 9.571428571428568e+00	 9.991615271646086e+00
0	 1.000000000000000e+00	 9.714285714285715e+00	 9.997710924664249e+00
0	 1.000000000000000e+00	 9.857142857142854e+00	 1.000828224756123e+01
0	 1.000000000000000e+00	 1.000000000000000e+01	 1.002431049425736e+01
0	 1.142857142857143e+00	 8.571428571428571e+00	 9.994339415902822e+00
0	 1.142857142857143e+00	 8.714285714285715e+00	 9.994034723862395e+00
0	 1.142857142857143e+00	 8.857142857142858e+00	 9.991790880247912e+00
0	 1.142857142857143e+00	 9.000000000000004e+00	 9.988684118821322e+00
0	 1.142857142857143e+00	 9.142857142857142e+00	 9.985790673344532e+00
0	 1.142857142857143e+00	 9.285714285714285e+00	 9.984186777579442e+00
0	 1.142857142857143e+00	 9.428571428571425e+00	 9.984948665287991e+00
0	 1.142857142857143e+00	 9.571428571428568e+00	 9.989152570232067e+00
0	 1.142857142857143e+00	 9.714285714285714e+00	 9.997874726173627e+00
0	 1.142857142857143e+00	 9.857142857142856e+00	 1.001219136687459e+01
0	 1.142857142857143e+00	 1.000000000000000e+01	 1.003317872609688e+01
0	 1.285714285714286e+00	 8.571428571428575e+00	 9.995290335418577e+00
0	 1.285714285714286e+00	 8.714285714285715e+00	 9.992571412343203e+00
0	 1.285714285714286e+00	 8.857142857142858e+00	 9.988654693250446e+00
0	 1.285714285714286e+00	 9.000000000000000e+00	 9.984583483099458e+00
0	 1.285714285714286e+00	 9.142857142857142e+00	 9.981401086849329e+00
0	 1.285714285714286e+00	 9.285714285714285e+00	 9.980150809459241e+00
0	 1.285714285714286e+00	 9.428571428571429e+00	 9.981875955888333e+00
0	 1.285714285714286e+00	 9.571428571428568e+00	 9.987619831095689e+00
0	 1.285714285714286e+00	 9.714285714285712e+00	 9.998425740040474e+00
0	 1.285714285714286e+00	 9.857142857142852e+00	 1.001533698768183e+01
0	 1.285714285714286e+00	 1.000000000000000e+01	 1.003939687897890e+01
0	 1.428571428571429e+00	 8.571428571428575e+00	 9.994392788197313e+00
0	 1.428571428571429e+00	 8.714285714285715e+00	 9.989804940394098e+00
0	 1.428571428571429e+00	 8.857142857142859e+00	 9.984945307688610e+00
0	 1.428571428571429e+00	 9.000000000000002e+00	 9.980696357592640e+00
0	 1.428571428571429e+00	 9.142857142857142e+00	 9.977940557618005e+00
0	 1.428571428571429e+00	 9.285714285714285e+00	 9.977560375276500e+00
0	 1.428571428571429e+00	 9.428571428571427e+00	 9.980438278079918e+00
0	 1.428571428571429e+00	 9.571428571428569e+00	 9.987456733540085e+00
0	 1.428571428571429e+00	 9.714285714285712e+00	 9.999498209168749e+00
0	 1.428571428571429e+00	 9.857142857142856e+00	 1.001744517247784e+01
0	 1.428571428571429e+00	 1.000000000000000e+01	 1.004218009097900e+01
0	 1.428571428571429e+00	 0.000000000000000e+00	 5.055267039305496e+00
0	 1.428571428571429e+00	 1.428571428571429e-01	 7.323889940043546e+00
0	 1.428571428571429e+00	 2.857142857142858e-01	 9.240951446299517e+00
0	 1.428571428571429e+00	 4.285714285714287e-01	 1.081313480004097e+01
0	 1.428571428571429e+00	 5.714285714285715e-01	 1.204712324323550e+01
0	 1.428571428571429e+00	 7.142857142857143e-01	 1.294960001785068e+01
0	 1.428571428571429e+00	 8.571428571428572e-01	 1.352724836585408e+01
0	 1.428571428571429e+00	 1.000000000000000e+00	 1.378675152921329e+01
0	 1.428571428571429e+00	 1.142857142857143e+00	 1.373479274989589e+01
0	 1.428571428571429e+00	 1.285714285714286e+00	 1.337805526986945e+01
0	 1.428571428571429e+00	 1.428571428571429e+00	 1.272322233110154e+01
0	 1.571428571428572e+00	 0.000000000000000e+00	 6.611698647778116e+00
0	 1.571428571428572e+00	 1.428571428571430e-01	 8.356201248139813e+00
0	 1.571428571428572e+00	 2.857142857142857e-01	 9.816625358866002e+00
0	 1.571428571428572e+00	 4.285714285714287e-01	 1.100029239946356e+01
0	 1.571428571428572e+00	 5.714285714285714e-01	 1.191452378943935e+01
0	 1.571428571428572e+00	 7.142857142857145e-01	 1.256664094830026e+01
0	 1.571428571428572e+00	 8.571428571428574e-01	 1.296396529555317e+01
0	 1.571428571428572e+00	 1.000000000000001e+00	 1.311381825070493e+01
0	 1.571428571428572e+00	 1.142857142857143e+00	 1.302352123326245e+01
0	 1.571428571428572e+00	 1.285714285714286e+00	 1.270039566273259e+01
0	 1.571428571428572e+00	 1.428571428571429e+00	 1.215176295862224e+01
0	 1.714285714285714e+00	 0.000000000000000e+00	 7.841441888975615e+00
0	 1.714285714285715e+00	 1.428571428571429e-01	 9.152942679698533e+00
0	 1.714285714285714e+00	 2.857142857142858e-01	 1.023763732199426e+01
0	 1.714285714285714e+00	 4.285714285714287e-01	 1.110329504123482e+01
0	 1.714285714285715e+00	 5.714285714285715e-01	 1.175768506279223e+01
0	 1.714285714285715e+00	 7.142857142857147e-01	 1.220857661203849e+01
0	 1.714285714285715e+00	 8.571428571428573e-01	 1.246373891434567e+01
0	 1.714285714285714e+00	 1.000000000000000e+00	 1.253094119508575e+01
0	 1.714285714285714e+00	 1.142857142857143e+00	 1.241795267963075e+01
0	 1.714285714285715e+00	 1.285714285714286e+00	 1.213254259335273e+01
0	 1.714285714285715e+00	 1.428571428571429e+00	 1.168248016162368e+01
0	 1.857142857142858e+00	 0.000000000000000e+00	 8.782912343410876e+00
0	 1.857142857142858e+00	 1.428571428571430e-01	 9.743163420345086e+00
0	 1.857142857142858e+00	 2.857142857142858e-01	 1.052468057804338e+01
0	 1.857142857142857e+00	 4.285714285714287e-01	 1.113549047606878e+01
0	 1.857142857142858e+00	 5.714285714285715e-01	 1.158361977398427e+01
0	 1.857142857142858e+00	 7.142857142857143e-01	 1.187709513135289e+01
0	 1.857142857142857e+00	 8.571428571428574e-01	 1.202394320773766e+01
0	 1.857142857142857e+00	 1.000000000000000e+00	 1.203219066270158e+01
0	 1.857142857142857e+00	 1.142857142857143e+00	 1.190986415580766e+01
0	 1.857142857142858e+00	 1.285714285714286e+00	 1.166499034661892e+01
0	 1.857142857142857e+00	 1.428571428571429e+00	 1.130559589469838e+01
0	 2.000000000000001e+00	 0.000000000000000e+00	 9.474525591596823e+00
0	 2.000000000000001e+00	 1.428571428571429e-01	 1.015591265570488e+01
0	 2.000000000000000e+00	 2.857142857142858e-01	 1.069844836937247e+01
0	 2.000000000000000e+00	 4.285714285714287e-01	 1.111022645467945e+01
0	 2.000000000000000e+00	 5.714285714285714e-01	 1.139934063370567e+01
0	 2.000000000000000e+00	 7.142857142857144e-01	 1.157388462853098e+01
0	 2.000000000000000e+00	 8.571428571428573e-01	 1.164195216123525e+01
0	 2.000000000000001e+00	 1.000000000000001e+00	 1.161163695389832e+01
0	 2.000000000000001e+00	 1.142857142857143e+00	 1.149103272860004e+01
0	 2.000000000000000e+00	 1.285714285714286e+00	 1.128823320742027e+01
0	 2.000000000000000e+00	 1.428571428571429e+00	 1.101133211243885e+01
0	 2.142857142857144e+00	 0.000000000000000e+00	 9.954697214046339e+00
0	 2.142857142857143e+00	 1.428571428571429e-01	 1.042023957140328e+01
0	 2.142857142857143e+00	 2.857142857142857e-01	 1.077963393834062e+01
0	 2.142857142857144e+00	 4.285714285714289e-01	 1.104085072778087e+01
0	 2.142857142857144e+00	 5.714285714285717e-01	 1.121186035264658e+01
0	 2.142857142857144e+00	 7.142857142857145e-01	 1.130063322586028e+01
0	 2.142857142857144e+00	 8.571428571428577e-01	 1.131513976034452e+01
0	 2.142857142857144e+00	 1.000000000000000e+00	 1.126335036902183e+01
0	 2.142857142857143e+00	 1.142857142857143e+00	 1.115323546481476e+01
0	 2.142857142857144e+00	 1.285714285714286e+00	 1.099276546064585e+01
0	 2.142857142857144e+00	 1.428571428571429e+00	 1.078991076943763e+01
0	 2.285714285714286e+00	 0.000000000000000e+00	 1.026184279127232e+01
0	 2.285714285714286e+00	 1.428571428571429e-01	 1.056519335306571e+01
0	 2.285714285714286e+00	 2.857142857142858e-01	 1.078893052730694e+01
0	 2.285714285714286e+00	 4.285714285714287e-01	 1.094071104608706e+01
0	 2.285714285714286e+00	 5.714285714285715e-01	 1.102819164149715e+01
0	 2.285714285714286e+00	 7.142857142857145e-01	 1.105902904562829e+01
0	 2.285714285714287e+00	 8.571428571428575e-01	 1.104087999057154e+01
0	 2.285714285714286e+00	 1.000000000000000e+00	 1.098140120841799e+01
0	 2.285714285714287e+00	 1.142857142857143e+00	 1.088824943125871e+01
0	 2.285714285714286e+00	 1.285714285714286e+00	 1.076908139118475e+01
0	 2.285714285714286e+00	 1.428571428571429e+00	 1.063155382028720e+01
0	 2.428571428571430e+00	 0.000000000000000e+00	 1.043437790378767e+01
0	 2.428571428571430e+00	 1.428571428571430e-01	 1.061982318631754e+01
0	 2.428571428571430e+00	 2.857142857142858e-01	 1.074703137863052e+01
0	 2.428571428571430e+00	 4.285714285714288e-01	 1.082315516031203e+01
0	 2.428571428571429e+00	 5.714285714285714e-01	 1.085534721094756e+01
0	 2.428571428571430e+00	 7.142857142857145e-01	 1.085076021012253e+01
0	 2.428571428571429e+00	 8.571428571428573e-01	 1.081654683742242e+01
0	 2.428571428571430e+00	 1.000000000000000e+00	 1.075985977243267e+01
0	 2.428571428571430e+00	 1.142857142857143e+00	 1.068785169473874e+01
0	 2.428571428571430e+00	 1.285714285714286e+00	 1.060767528392607e+01
0	 2.428571428571429e+00	 1.428571428571429e+00	 1.052648321958013e+01
0	 2.571428571428572e+00	 0.000000000000000e+00	 1.051071813210528e+01
0	 2.571428571428573e+00	 1.428571428571429e-01	 1.061317825678417e+01
0	 2.571428571428573e+00	 2.857142857142858e-01	 1.067462973467046e+01
0	 2.571428571428572e+00	 4.285714285714287e-01	 1.070153082116982e+01
0	 2.571428571428572e+00	 5.714285714285715e-01	 1.070033977168796e+01
0	 2.571428571428572e+00	 7.142857142857143e-01	 1.067751484163053e+01
0	 2.571428571428573e+00	 8.571428571428574e-01	 1.063951428640324e+01
0	 2.571428571428572e+00	 1.000000000000000e+00	 1.059279636141174e+01
0	 2.571428571428573e+00	 1.142857142857143e+00	 1.054381932206173e+01
0	 2.571428571428572e+00	 1.285714285714286e+00	 1.049904142375889e+01
0	 2.571428571428572e+00	 1.428571428571429e+00	 1.046492092190889e+01
0	 2.714285714285715e+00	 0.000000000000000e+00	 1.052927905673806e+01
0	 2.714285714285715e+00	 1.428571428571429e-01	 1.057430775009098e+01
0	 2.714285714285716e+00	 2.857142857142858e-01	 1.059241883778586e+01
0	 2.714285714285715e+00	 4.285714285714287e-01	 1.058918577937445e+01
0	 2.714285714285715e+00	 5.714285714285715e-01	 1.057018203440851e+01
0	 2.714285714285715e+00	 7.142857142857144e-01	 1.054098106243980e+01
0	 2.714285714285715e+00	 8.571428571428574e-01	 1.050715632302007e+01
0	 2.714285714285715e+00	 1.000000000000000e+00	 1.047428127570107e+01
0	 2.714285714285715e+00	 1.142857142857143e+00	 1.044792938003456e+01
0	 2.714285714285715e+00	 1.285714285714286e+00	 1.043367409557228e+01
0	 2.714285714285715e+00	 1.428571428571429e+00	 1.043708888186601e+01
0	 2.857142857142857e+00	 0.000000000000000e+00	 1.052847625819889e+01
0	 2.857142857142858e+00	 1.428571428571429e-01	 1.053226085186336e+01
0	 2.857142857142857e+00	 2.857142857142858e-01	 1.052109193033582e+01
0	 2.857142857142858e+00	 4.285714285714287e-01	 1.049946778563994e+01
0	 2.857142857142858e+00	 5.714285714285716e-01	 1.047188670979939e+01
0	 2.857142857142858e+00	 7.142857142857143e-01	 1.044284699483786e+01
0	 2.857142857142857e+00	 8.571428571428573e-01	 1.041684693277901e+01
0	 2.857142857142858e+00	 1.000000000000000e+00	 1.039838481564652e+01
0	 2.857142857142858e+00	 1.142857142857143e+00	 1.039195893546409e+01
0	 2.857142857142859e+00	 1.285714285714286e+00	 1.040206758425536e+01
0	 2.857142857142857e+00	 1.428571428571429e+00	 1.043320905404403e+01
0	 1.428571428571429e+00	 1.428571428571429e+00	 1.272322233110154e+01
0	 1.428571428571429e+00	 1.571428571428572e+00	 1.197474552571482e+01
0	 1.428571428571429e+00	 1.714285714285715e+00	 1.133062196259581e+01
0	 1.428571428571429e+00	 1.857142857142857e+00	 1.078785315885785e+01
0	 1.428571428571429e+00	 2.000000000000000e+00	 1.034344063161429e+01
0	 1.428571428571429e+00	 2.142857142857144e+00	 9.994385897978521e+00
0	 1.428571428571429e+00	 2.285714285714286e+00	 9.737690475063898e+00
0	 1.428571428571429e+00	 2.428571428571429e+00	 9.570355879983776e+00
0	 1.428571428571429e+00	 2.571428571428573e+00	 9.489383629851520e+00
0	 1.428571428571429e+00	 2.714285714285715e+00	 9.491775241780497e+00
0	 1.428571428571429e+00	 2.857142857142857e+00	 9.574532232884058e+00
0	 1.571428571428572e+00	 1.428571428571429e+00	 1.215176295862224e+01
0	 1.571428571428572e+00	 1.571428571428572e+00	 1.153866724458866e+01
0	 1.571428571428572e+00	 1.714285714285715e+00	 1.101517766065938e+01
0	 1.571428571428572e+00	 1.857142857142858e+00	 1.057815315089666e+01
0	 1.571428571428572e+00	 2.000000000000001e+00	 1.022445265936271e+01
0	 1.571428571428572e+00	 2.142857142857144e+00	 9.950935130119809e+00
0	 1.571428571428572e+00	 2.285714285714286e+00	 9.754459507230193e+00
0	 1.571428571428572e+00	 2.428571428571430e+00	 9.631884734756088e+00
0	 1.571428571428571e+00	 2.571428571428572e+00	 9.580069756759755e+00
0	 1.571428571428572e+00	 2.714285714285716e+00	 9.595873517303428e+00
0	 1.571428571428572e+00	 2.857142857142858e+00	 9.676154960449360e+00
0	 1.714285714285715e+00	 1.428571428571429e+00	 1.168248016162368e+01
0	 1.714285714285715e+00	 1.571428571428572e+00	 1.119144993429056e+01
0	 1.714285714285715e+00	 1.714285714285715e+00	 1.077580986288560e+01
0	 1.714285714285715e+00	 1.857142857142857e+00	 1.043233927530865e+01
0	 1.714285714285715e+00	 2.000000000000000e+00	 1.015781749945963e+01
0	 1.714285714285714e+00	 2.142857142857143e+00	 9.949023863238398e+00
0	 1.714285714285715e+00	 2.285714285714287e+00	 9.802737694544867e+00
0	 1.714285714285715e+00	 2.428571428571429e+00	 9.715738321278907e+00
0	 1.714285714285715e+00	 2.571428571428573e+00	 9.684805071340413e+00
0	 1.714285714285714e+00	 2.714285714285715e+00	 9.706717272629271e+00
0	 1.714285714285715e+00	 2.857142857142858e+00	 9.778254253045372e+00
0	 1.857142857142857e+00	 1.428571428571429e+00	 1.130559589469838e+01
0	 1.857142857142858e+00	 1.571428571428572e+00	 1.092360433532604e+01
0	 1.857142857142857e+00	 1.714285714285714e+00	 1.060342987649078e+01
0	 1.857142857142858e+00	 1.857142857142858e+00	 1.034183518681887e+01
0	 1.857142857142858e+00	 2.000000000000000e+00	 1.013558293493662e+01
0	 1.857142857142857e+00	 2.142857142857143e+00	 9.981435789470313e+00
0	 1.857142857142857e+00	 2.285714285714286e+00	 9.876156419046239e+00
0	 1.857142857142858e+00	 2.428571428571430e+00	 9.816507492290707e+00
0	 1.857142857142857e+00	 2.571428571428573e+00	 9.799251677829997e+00
0	 1.857142857142858e+00	 2.714285714285715e+00	 9.821151644290405e+00
0	 1.857142857142857e+00	 2.857142857142857e+00	 9.878970060298219e+00
0	 2.000000000000000e+00	 1.428571428571429e+00	 1.101133211243885e+01
0	 2.000000000000001e+00	 1.571428571428572e+00	 1.072564118820057e+01
0	 2.000000000000000e+00	 1.714285714285715e+00	 1.048894900869123e+01
0	 2.000000000000000e+00	 1.857142857142857e+00	 1.029806454015231e+01
0	 2.000000000000001e+00	 2.000000000000001e+00	 1.014979674882527e+01
0	 2.000000000000000e+00	 2.142857142857144e+00	 1.004095460095155e+01
0	 2.000000000000000e+00	 2.285714285714287e+00	 9.968347062772636e+00
0	 2.000000000000000e+00	 2.428571428571429e+00	 9.928783100529971e+00
0	 2.000000000000000e+00	 2.571428571428572e+00	 9.919071680465009e+00
0	 2.000000000000000e+00	 2.714285714285715e+00	 9.936021768819213e+00
0	 2.000000000000000e+00	 2.857142857142857e+00	 9.976442331834052e+00
0	 2.142857142857144e+00	 1.428571428571429e+00	 1.078991076943763e+01
0	 2.142857142857144e+00	 1.571428571428572e+00	 1.058807123341963e+01
0	 2.142857142857143e+00	 1.714285714285714e+00	 1.042327856670330e+01
0	 2.142857142857143e+00	 1.857142857142858e+00	 1.029245099003402e+01
0	 2.142857142857144e+00	 2.000000000000000e+00	 1.019250672415719e+01
0	 2.142857142857144e+00	 2.142857142857143e+00	 1.012036398981816e+01
0	 2.142857142857143e+00	 2.285714285714286e+00	 1.007294100776236e+01
0	 2.142857142857143e+00	 2.428571428571429e+00	 1.004715599873515e+01
0	 2.142857142857143e+00	 2.571428571428572e+00	 1.003992718348193e+01
0	 2.142857142857143e+00	 2.714285714285715e+00	 1.004817278274809e+01
0	 2.142857142857144e+00	 2.857142857142857e+00	 1.006881101727901e+01
0	 2.285714285714286e+00	 1.428571428571429e+00	 1.063155382028720e+01
0	 2.285714285714286e+00	 1.571428571428572e+00	 1.050140521148873e+01
0	 2.285714285714286e+00	 1.714285714285715e+00	 1.039732985774331e+01
0	 2.285714285714286e+00	 1.857142857142858e+00	 1.031641819118902e+01
0	 2.285714285714287e+00	 2.000000000000000e+00	 1.025576064396394e+01
0	 2.285714285714286e+00	 2.142857142857144e+00	 1.021244764820615e+01
0	 2.285714285714286e+00	 2.285714285714286e+00	 1.018356963605373e+01
0	 2.285714285714286e+00	 2.428571428571429e+00	 1.016621703964475e+01
0	 2.285714285714286e+00	 2.571428571428573e+00	 1.015748029111729e+01
0	 2.285714285714286e+00	 2.714285714285714e+00	 1.015444982260942e+01
0	 2.285714285714286e+00	 2.857142857142858e+00	 1.015421606625922e+01
0	 2.428571428571429e+00	 1.428571428571429e+00	 1.052648321958013e+01
0	 2.428571428571430e+00	 1.571428571428572e+00	 1.045615386291334e+01
0	 2.428571428571429e+00	 1.714285714285715e+00	 1.040201418902756e+01
0	 2.428571428571430e+00	 1.857142857142858e+00	 1.036138979834232e+01
0	 2.428571428571428e+00	 2.000000000000000e+00	 1.033160629127714e+01
0	 2.428571428571429e+00	 2.142857142857143e+00	 1.030998926825154e+01
0	 2.428571428571430e+00	 2.285714285714286e+00	 1.029386432968505e+01
0	 2.428571428571430e+00	 2.428571428571430e+00	 1.028055707599721e+01
0	 2.428571428571429e+00	 2.571428571428572e+00	 1.026739310760754e+01
0	 2.428571428571429e+00	 2.714285714285715e+00	 1.025169802493557e+01
0	 2.428571428571430e+00	 2.857142857142858e+00	 1.023079742840084e+01
0	 2.571428571428572e+00	 1.428571428571429e+00	 1.046492092190889e+01
0	 2.571428571428573e+00	 1.571428571428572e+00	 1.044282792819897e+01
0	 2.571428571428572e+00	 1.714285714285715e+00	 1.042824286777241e+01
0	 2.571428571428572e+00	 1.857142857142857e+00	 1.041878946621896e+01
0	 2.571428571428572e+00	 2.000000000000000e+00	 1.041209144912835e+01
0	 2.571428571428572e+00	 2.142857142857143e+00	 1.040577254209034e+01
0	 2.571428571428572e+00	 2.285714285714286e+00	 1.039745647069464e+01
0	 2.571428571428572e+00	 2.428571428571429e+00	 1.038476696053102e+01
0	 2.571428571428572e+00	 2.571428571428573e+00	 1.036532773718921e+01
0	 2.571428571428572e+00	 2.714285714285716e+00	 1.033676252625895e+01
0	 2.571428571428572e+00	 2.857142857142858e+00	 1.029669505333000e+01
0	 2.714285714285715e+00	 1.428571428571429e+00	 1.043708888186601e+01
0	 2.714285714285715e+00	 1.571428571428572e+00	 1.045193814785108e+01
0	 2.714285714285715e+00	 1.714285714285715e+00	 1.046692720119417e+01
0	 2.714285714285714e+00	 1.857142857142857e+00	 1.048004084954397e+01
0	 2.714285714285715e+00	 2.000000000000000e+00	 1.048926390054920e+01
0	 2.714285714285715e+00	 2.142857142857143e+00	 1.049258116185857e+01
0	 2.714285714285714e+00	 2.285714285714286e+00	 1.048797744112083e+01
0	 2.714285714285715e+00	 2.428571428571429e+00	 1.047343754598466e+01
0	 2.714285714285715e+00	 2.571428571428573e+00	 1.044694628409879e+01
0	 2.714285714285716e+00	 2.714285714285716e+00	 1.040648846311194e+01
0	 2.714285714285715e+00	 2.857142857142858e+00	 1.035004889067282e+01
0	 2.857142857142857e+00	 1.428571428571429e+00	 1.043320905404403e+01
0	 2.857142857142858e+00	 1.571428571428572e+00	 1.047399526237520e+01
0	 2.857142857142857e+00	 1.714285714285715e+00	 1.050897849650915e+01
0	 2.857142857142856e+00	 1.857142857142857e+00	 1.053656760304236e+01
0	 2.857142857142858e+00	 2.000000000000001e+00	 1.055517142857124e+01
0	 2.857142857142857e+00	 2.142857142857144e+00	 1.056319881969227e+01
0	 2.857142857142858e+00	 2.285714285714287e+00	 1.055905862300191e+01
0	 2.857142857142858e+00	 2.428571428571430e+00	 1.054115968509659e+01
0	 2.857142857142857e+00	 2.571428571428573e+00	 1.050791085257278e+01
0	 2.857142857142857e+00	 2.714285714285715e+00	 1.045772097202692e+01
0	 2.857142857142858e+00	 2.857142857142857e+00	 1.038899889005548e+01
0	 1.428571428571429e+00	 2.857142857142857e+00	 9.574532232884058e+00
0	 1.428571428571429e+00	 3.000000000000001e+00	 9.683144858444443e+00
0	 1.428571428571429e+00	 3.142857142857143e+00	 9.766676956676427e+00
0	 1.428571428571429e+00	 3.285714285714286e+00	 9.827490419092189e+00
0	 1.428571428571429e+00	 3.428571428571429e+00	 9.867947137203924e+00
0	 1.428571428571429e+00	 3.571428571428572e+00	 9.890409002523814e+00
0	 1.428571428571429e+00	 3.714285714285715e+00	 9.897237906564047e+00
0	 1.428571428571429e+00	 3.857142857142857e+00	 9.890795740836813e+00
0	 1.428571428571429e+00	 4.000000000000000e+00	 9.873444396854296e+00
0	 1.428571428571429e+00	 4.142857142857143e+00	 9.847545766128686e+00
0	 1.428571428571429e+00	 4.285714285714286e+00	 9.815461740172154e+00
0	 1.571428571428572e+00	 2.857142857142858e+00	 9.676154960449360e+00
0	 1.571428571428572e+00	 3.000000000000001e+00	 9.775020721471023e+00
0	 1.571428571428572e+00	 3.142857142857143e+00	 9.850156346328713e+00
0	 1.571428571428572e+00	 3.285714285714286e+00	 9.903789145114947e+00
0	 1.571428571428572e+00	 3.428571428571430e+00	 9.938146427922229e+00
0	 1.571428571428572e+00	 3.571428571428571e+00	 9.955455504843064e+00
0	 1.571428571428572e+00	 3.714285714285715e+00	 9.957943685969967e+00
0	 1.571428571428572e+00	 3.857142857142858e+00	 9.947838281395439e+00
0	 1.571428571428572e+00	 4.000000000000002e+00	 9.927366601211979e+00
0	 1.571428571428571e+00	 4.142857142857142e+00	 9.898755955512101e+00
0	 1.571428571428572e+00	 4.285714285714287e+00	 9.864233654388306e+00
0	 1.714285714285715e+00	 2.857142857142858e+00	 9.778254253045372e+00
0	 1.714285714285714e+00	 3.000000000000000e+00	 9.862127508400423e+00
0	 1.714285714285715e+00	 3.142857142857144e+00	 9.924581252709274e+00
0	 1.714285714285714e+00	 3.285714285714286e+00	 9.967693891176449e+00
0	 1.714285714285715e+00	 3.428571428571429e+00	 9.993543829006502e+00
0	 1.714285714285715e+00	 3.571428571428573e+00	 1.000420947140397e+01
0	 1.714285714285715e+00	 3.714285714285714e+00	 1.000176922357339e+01
0	 1.714285714285714e+00	 3.857142857142857e+00	 9.988301490719316e+00
0	 1.714285714285715e+00	 4.000000000000002e+00	 9.965884678046287e+00
0	 1.714285714285715e+00	 4.142857142857145e+00	 9.936597190758841e+00
0	 1.714285714285715e+00	 4.285714285714286e+00	 9.902517434061519e+00
0	 1.857142857142857e+00	 2.857142857142857e+00	 9.878970060298219e+00
0	 1.857142857142858e+00	 3.000000000000000e+00	 9.943855952263233e+00
0	 1.857142857142857e+00	 3.142857142857143e+00	 9.990393352076588e+00
0	 1.857142857142858e+00	 3.285714285714286e+00	 1.002049743658657e+01
0	 1.857142857142857e+00	 3.428571428571429e+00	 1.003608338264148e+01
0	 1.857142857142858e+00	 3.571428571428572e+00	 1.003906636708961e+01
0	 1.857142857142857e+00	 3.714285714285714e+00	 1.003136156677926e+01
0	 1.857142857142858e+00	 3.857142857142857e+00	 1.001488415855872e+01
0	 1.857142857142858e+00	 4.000000000000001e+00	 9.991549319276288e+00
0	 1.857142857142858e+00	 4.142857142857145e+00	 9.963272225780260e+00
0	 1.857142857142857e+00	 4.285714285714286e+00	 9.931968054918929e+00
0	 2.000000000000000e+00	 2.857142857142857e+00	 9.976442331834052e+00
0	 2.000000000000000e+00	 3.000000000000001e+00	 1.001959678609001e+01
0	 2.000000000000000e+00	 3.142857142857143e+00	 1.004803432068913e+01
0	 2.000000000000000e+00	 3.285714285714286e+00	 1.006349256065518e+01
0	 2.000000000000000e+00	 3.428571428571428e+00	 1.006770913101191e+01
0	 2.000000000000000e+00	 3.571428571428573e+00	 1.006242165678310e+01
0	 2.000000000000000e+00	 3.714285714285714e+00	 1.004936776299251e+01
0	 2.000000000000000e+00	 3.857142857142857e+00	 1.003028507466390e+01
0	 2.000000000000000e+00	 4.000000000000000e+00	 1.000691121682105e+01
0	 2.000000000000001e+00	 4.142857142857145e+00	 9.980983814487717e+00
0	 2.000000000000001e+00	 4.285714285714287e+00	 9.954240492687667e+00
0	 2.142857142857144e+00	 2.857142857142857e+00	 1.006881101727901e+01
0	 2.142857142857143e+00	 3.000000000000000e+00	 1.008874074291132e+01
0	 2.142857142857143e+00	 3.142857142857144e+00	 1.009794583480538e+01
0	 2.142857142857143e+00	 3.285714285714286e+00	 1.009797204269213e+01
0	 2.142857142857144e+00	 3.428571428571429e+00	 1.009036511630253e+01
0	 2.142857142857144e+00	 3.571428571428572e+00	 1.007667080536753e+01
0	 2.142857142857144e+00	 3.714285714285715e+00	 1.005843485961809e+01
0	 2.142857142857143e+00	 3.857142857142858e+00	 1.003720302878514e+01
0	 2.142857142857142e+00	 4.000000000000000e+00	 1.001452106259965e+01
0	 2.142857142857144e+00	 4.142857142857142e+00	 9.991934710792570e+00
0	 2.142857142857143e+00	 4.285714285714285e+00	 9.970989723094835e+00
0	 2.285714285714286e+00	 2.857142857142858e+00	 1.015421606625922e+01
0	 2.285714285714286e+00	 3.000000000000001e+00	 1.015067855575773e+01
0	 2.285714285714286e+00	 3.142857142857144e+00	 1.014056957068380e+01
0	 2.285714285714286e+00	 3.285714285714286e+00	 1.012522866200731e+01
0	 2.285714285714286e+00	 3.428571428571430e+00	 1.010599538069809e+01
0	 2.285714285714287e+00	 3.571428571428572e+00	 1.008420927772601e+01
0	 2.285714285714286e+00	 3.714285714285714e+00	 1.006120990406092e+01
0	 2.285714285714286e+00	 3.857142857142858e+00	 1.003833681067268e+01
0	 2.285714285714286e+00	 4.000000000000001e+00	 1.001692954853114e+01
0	 2.285714285714286e+00	 4.142857142857143e+00	 9.998327668606153e+00
0	 2.285714285714287e+00	 4.285714285714286e+00	 9.983870721867582e+00
0	 2.428571428571430e+00	 2.857142857142858e+00	 1.023079742840084e+01
0	 2.428571428571430e+00	 3.000000000000001e+00	 1.020480095765980e+01
0	 2.428571428571429e+00	 3.142857142857143e+00	 1.017634720458288e+01
0	 2.428571428571430e+00	 3.285714285714286e+00	 1.014655519791057e+01
0	 2.428571428571429e+00	 3.428571428571429e+00	 1.011654396638332e+01
0	 2.428571428571429e+00	 3.571428571428573e+00	 1.008743253874162e+01
0	 2.428571428571429e+00	 3.714285714285714e+00	 1.006033994372596e+01
0	 2.428571428571430e+00	 3.857142857142858e+00	 1.003638521007678e+01
0	 2.428571428571429e+00	 4.000000000000000e+00	 1.001668736653459e+01
0	 2.428571428571430e+00	 4.142857142857145e+00	 1.000236544183985e+01
0	 2.428571428571430e+00	 4.285714285714285e+00	 9.994538464733015e+00
0	 2.571428571428572e+00	 2.857142857142858e+00	 1.029669505333000e+01
0	 2.571428571428573e+00	 3.000000000000001e+00	 1.025049868164810e+01
0	 2.571428571428572e+00	 3.142857142857143e+00	 1.020572041276109e+01
0	 2.571428571428573e+00	 3.285714285714286e+00	 1.016324442971178e+01
0	 2.571428571428573e+00	 3.428571428571429e+00	 1.012395491554297e+01
0	 2.571428571428572e+00	 3.571428571428572e+00	 1.008873605329749e+01
0	 2.571428571428573e+00	 3.714285714285715e+00	 1.005847202601813e+01
0	 2.571428571428572e+00	 3.857142857142856e+00	 1.003404701674772e+01
0	 2.571428571428572e+00	 4.000000000000001e+00	 1.001634520852907e+01
0	 2.571428571428572e+00	 4.142857142857142e+00	 1.000625078440498e+01
0	 2.571428571428572e+00	 4.285714285714286e+00	 1.000464792741826e+01
0	 2.714285714285715e+00	 2.857142857142858e+00	 1.035004889067282e+01
0	 2.714285714285715e+00	 3.000000000000000e+00	 1.028716246075319e+01
0	 2.714285714285715e+00	 3.142857142857143e+00	 1.022913087147690e+01
0	 2.714285714285715e+00	 3.285714285714286e+00	 1.017658913672081e+01
0	 2.714285714285715e+00	 3.428571428571429e+00	 1.013017227036178e+01
0	 2.714285714285715e+00	 3.571428571428572e+00	 1.009051528627669e+01
0	 2.714285714285715e+00	 3.714285714285716e+00	 1.005825319834239e+01
0	 2.714285714285715e+00	 3.857142857142858e+00	 1.003402102043575e+01
0	 2.714285714285715e+00	 4.000000000000001e+00	 1.001845376643364e+01
0	 2.714285714285714e+00	 4.142857142857143e+00	 1.001218645021292e+01
0	 2.714285714285715e+00	 4.285714285714286e+00	 1.001585408565046e+01
0	 2.857142857142858e+00	 2.857142857142857e+00	 1.038899889005548e+01
0	 2.857142857142858e+00	 3.000000000000000e+00	 1.031418302800565e+01
0	 2.857142857142858e+00	 3.142857142857143e+00	 1.024702025698879e+01
0	 2.857142857142857e+00	 3.285714285714286e+00	 1.018788209824753e+01
0	 2.857142857142858e+00	 3.428571428571429e+00	 1.013714007302449e+01
0	 2.857142857142857e+00	 3.571428571428572e+00	 1.009516570256233e+01
0	 2.857142857142858e+00	 3.714285714285716e+00	 1.006233050810366e+01
0	 2.857142857142858e+00	 3.857142857142858e+00	 1.003900601089113e+01
0	 2.857142857142857e+00	 4.000000000000001e+00	 1.002556373216738e+01
0	 2.857142857142857e+00	 4.142857142857142e+00	 1.002237519317502e+01
0	 2.857142857142858e+00	 4.285714285714286e+00	 1.002981191515671e+01
0	 1.428571428571429e+00	 4.285714285714286e+00	 9.815461740172154e+00
0	 1.428571428571429e+00	 4.428571428571429e+00	 9.787328238202868e+00
0	 1.428571428571429e+00	 4.571428571428571e+00	 9.770693302278936e+00
0	 1.428571428571429e+00	 4.714285714285714e+00	 9.764037008172519e+00
0	 1.428571428571429e+00	 4.857142857142858e+00	 9.765839431655760e+00
0	 1.428571428571429e+00	 5.000000000000001e+00	 9.774580648500832e+00
0	 1.428571428571429e+00	 5.142857142857143e+00	 9.788740734479905e+00
0	 1.428571428571429e+00	 5.285714285714285e+00	 9.806799765365096e+00
0	 1.428571428571429e+00	 5.428571428571428e+00	 9.827237816928584e+00
0	 1.428571428571429e+00	 5.571428571428570e+00	 9.848534964942534e+00
0	 1.428571428571429e+00	 5.714285714285713e+00	 9.869171285179076e+00
0	 1.571428571428572e+00	 4.285714285714287e+00	 9.864233654388306e+00
0	 1.571428571428572e+00	 4.428571428571431e+00	 9.833346682394797e+00
0	 1.571428571428572e+00	 4.571428571428571e+00	 9.813242132159299e+00
0	 1.571428571428572e+00	 4.714285714285714e+00	 9.802547475884630e+00
0	 1.571428571428572e+00	 4.857142857142858e+00	 9.799890185773554e+00
0	 1.571428571428572e+00	 4.999999999999999e+00	 9.803897734028908e+00
0	 1.571428571428572e+00	 5.142857142857143e+00	 9.813197592853451e+00
0	 1.571428571428572e+00	 5.285714285714286e+00	 9.826417234450012e+00
0	 1.571428571428572e+00	 5.428571428571428e+00	 9.842184131021382e+00
0	 1.571428571428572e+00	 5.571428571428569e+00	 9.859125754770353e+00
0	 1.571428571428572e+00	 5.714285714285717e+00	 9.875869577899714e+00
0	 1.714285714285715e+00	 4.285714285714286e+00	 9.902517434061519e+00
0	 1.714285714285714e+00	 4.428571428571426e+00	 9.871999638190854e+00
0	 1.714285714285715e+00	 4.571428571428572e+00	 9.851194447060802e+00
0	 1.714285714285714e+00	 4.714285714285714e+00	 9.838874886392023e+00
0	 1.714285714285715e+00	 4.857142857142857e+00	 9.833813981905227e+00
0	 1.714285714285715e+00	 5.000000000000001e+00	 9.834784759321083e+00
0	 1.714285714285715e+00	 5.142857142857141e+00	 9.840560244360267e+00
0	 1.714285714285714e+00	 5.285714285714284e+00	 9.849913462743480e+00
0	 1.714285714285714e+00	 5.428571428571426e+00	 9.861617440191393e+00
0	 1.714285714285715e+00	 5.571428571428570e+00	 9.874445202424699e+00
0	 1.714285714285715e+00	 5.714285714285714e+00	 9.887169775164061e+00
0	 1.857142857142857e+00	 4.285714285714286e+00	 9.931968054918929e+00
0	 1.857142857142858e+00	 4.428571428571431e+00	 9.904333250457464e+00
0	 1.857142857142857e+00	 4.571428571428571e+00	 9.885065295812701e+00
0	 1.857142857142858e+00	 4.714285714285716e+00	 9.873080927310447e+00
0	 1.857142857142857e+00	 4.857142857142856e+00	 9.867296881276506e+00
0	 1.857142857142858e+00	 5.000000000000001e+00	 9.866629894036695e+00
0	 1.857142857142858e+00	 5.142857142857142e+00	 9.869996701916840e+00
0	 1.857142857142858e+00	 5.285714285714286e+00	 9.876314041242733e+00
0	 1.857142857142857e+00	 5.428571428571428e+00	 9.884498648340186e+00
0	 1.857142857142857e+00	 5.571428571428569e+00	 9.893467259535004e+00
0	 1.857142857142857e+00	 5.714285714285714e+00	 9.902136611153011e+00
0	 2.000000000000001e+00	 4.285714285714287e+00	 9.954240492687667e+00
0	 2.000000000000000e+00	 4.428571428571429e+00	 9.931393664061041e+00
0	 2.000000000000000e+00	 4.571428571428573e+00	 9.915369727244309e+00
0	 2.000000000000000e+00	 4.714285714285714e+00	 9.905227286255620e+00
0	 2.000000000000001e+00	 4.857142857142857e+00	 9.900024945113170e+00
0	 2.000000000000000e+00	 5.000000000000001e+00	 9.898821307835131e+00
0	 2.000000000000000e+00	 5.142857142857142e+00	 9.900674978439694e+00
0	 2.000000000000000e+00	 5.285714285714283e+00	 9.904644560945020e+00
0	 2.000000000000000e+00	 5.428571428571427e+00	 9.909788659369308e+00
0	 2.000000000000001e+00	 5.571428571428571e+00	 9.915165877730727e+00
0	 2.000000000000000e+00	 5.714285714285714e+00	 9.919834820047456e+00
0	 2.142857142857143e+00	 4.285714285714285e+00	 9.970989723094835e+00
0	 2.142857142857143e+00	 4.428571428571428e+00	 9.954227023868029e+00
0	 2.142857142857143e+00	 4.571428571428571e+00	 9.942622790184917e+00
0	 2.142857142857143e+00	 4.714285714285716e+00	 9.935375650843300e+00
0	 2.142857142857144e+00	 4.857142857142858e+00	 9.931684234640965e+00
0	 2.142857142857144e+00	 5.000000000000000e+00	 9.930747170375707e+00
0	 2.142857142857144e+00	 5.142857142857143e+00	 9.931763086845313e+00
0	 2.142857142857144e+00	 5.285714285714285e+00	 9.933930612847590e+00
0	 2.142857142857143e+00	 5.428571428571427e+00	 9.936448377180316e+00
0	 2.142857142857143e+00	 5.571428571428569e+00	 9.938515008641293e+00
0	 2.142857142857144e+00	 5.714285714285714e+00	 9.939329136028299e+00
0	 2.285714285714287e+00	 4.285714285714286e+00	 9.983870721867582e+00
0	 2.285714285714286e+00	 4.428571428571430e+00	 9.973879474744825e+00
0	 2.285714285714286e+00	 4.571428571428572e+00	 9.967339533463816e+00
0	 2.285714285714286e+00	 4.714285714285715e+00	 9.963587708689214e+00
0	 2.285714285714286e+00	 4.857142857142858e+00	 9.961960811085646e+00
0	 2.285714285714286e+00	 5.000000000000000e+00	 9.961795651317773e+00
0	 2.285714285714286e+00	 5.142857142857143e+00	 9.962429040050232e+00
0	 2.285714285714287e+00	 5.285714285714286e+00	 9.963197787947685e+00
0	 2.285714285714286e+00	 5.428571428571426e+00	 9.963438705674770e+00
0	 2.285714285714286e+00	 5.571428571428569e+00	 9.962488603896141e+00
0	 2.285714285714286e+00	 5.714285714285714e+00	 9.959684293276425e+00
0	 2.428571428571430e+00	 4.285714285714285e+00	 9.994538464733015e+00
0	 2.428571428571430e+00	 4.428571428571431e+00	 9.991397161557860e+00
0	 2.428571428571429e+00	 4.571428571428570e+00	 9.990035005910304e+00
0	 2.428571428571430e+00	 4.714285714285715e+00	 9.989925147409091e+00
0	 2.428571428571429e+00	 4.857142857142858e+00	 9.990540735672960e+00
0	 2.428571428571430e+00	 5.000000000000000e+00	 9.991354920320669e+00
0	 2.428571428571429e+00	 5.142857142857142e+00	 9.991840850970952e+00
0	 2.428571428571430e+00	 5.285714285714286e+00	 9.991471677242554e+00
0	 2.428571428571429e+00	 5.428571428571427e+00	 9.989720548754228e+00
0	 2.428571428571429e+00	 5.571428571428570e+00	 9.986060615124705e+00
0	 2.428571428571429e+00	 5.714285714285714e+00	 9.979965025972755e+00
0	 2.571428571428572e+00	 4.285714285714286e+00	 1.000464792741826e+01
0	 2.571428571428572e+00	 4.428571428571430e+00	 1.000782622917356e+01
0	 2.571428571428572e+00	 4.571428571428570e+00	 1.001122425635367e+01
0	 2.571428571428573e+00	 4.714285714285714e+00	 1.001444965461869e+01
0	 2.571428571428573e+00	 4.857142857142858e+00	 1.001711006962868e+01
0	 2.571428571428572e+00	 5.000000000000000e+00	 1.001881314704375e+01
0	 2.571428571428573e+00	 5.142857142857144e+00	 1.001916653252398e+01
0	 2.571428571428573e+00	 5.285714285714285e+00	 1.001777787172945e+01
0	 2.571428571428572e+00	 5.428571428571428e+00	 1.001425481032024e+01
0	 2.571428571428572e+00	 5.571428571428570e+00	 1.000820499395644e+01
0	 2.571428571428572e+00	 5.714285714285714e+00	 9.999236068298153e+00
0	 2.714285714285715e+00	 4.285714285714286e+00	 1.001585408565046e+01
0	 2.714285714285715e+00	 4.428571428571429e+00	 1.002421282245835e+01
0	 2.714285714285715e+00	 4.571428571428571e+00	 1.003142233362321e+01
0	 2.714285714285715e+00	 4.714285714285714e+00	 1.003722291793373e+01
0	 2.714285714285715e+00	 4.857142857142857e+00	 1.004135487417854e+01
0	 2.714285714285714e+00	 4.999999999999999e+00	 1.004355850114636e+01
0	 2.714285714285715e+00	 5.142857142857142e+00	 1.004357409762582e+01
0	 2.714285714285715e+00	 5.285714285714284e+00	 1.004114196240559e+01
0	 2.714285714285715e+00	 5.428571428571426e+00	 1.003600239427436e+01
0	 2.714285714285715e+00	 5.571428571428570e+00	 1.002789569202079e+01
0	 2.714285714285715e+00	 5.714285714285714e+00	 1.001656215443352e+01
0	 2.857142857142858e+00	 4.285714285714286e+00	 1.002981191515671e+01
0	 2.857142857142858e+00	 4.428571428571430e+00	 1.004160308627863e+01
0	 2.857142857142857e+00	 4.571428571428570e+00	 1.005114428654821e+01
0	 2.857142857142857e+00	 4.714285714285714e+00	 1.005830662496994e+01
0	 2.857142857142858e+00	 4.857142857142858e+00	 1.006296121054832e+01
0	 2.857142857142857e+00	 5.000000000000000e+00	 1.006497915228784e+01
0	 2.857142857142857e+00	 5.142857142857143e+00	 1.006423155919299e+01
0	 2.857142857142857e+00	 5.285714285714285e+00	 1.006058954026827e+01
0	 2.857142857142858e+00	 5.428571428571428e+00	 1.005392420451816e+01
0	 2.857142857142858e+00	 5.571428571428569e+00	 1.004410666094717e+01
0	 2.857142857142858e+00	 5.714285714285714e+00	 1.003100801855978e+01
0	 1.428571428571429e+00	 5.714285714285713e+00	 9.869171285179076e+00
0	 1.428571428571429e+00	 5.857142857142857e+00	 9.885867336920425e+00
0	 1.428571428571429e+00	 6.000000000000000e+00	 9.897068588714657e+00
0	 1.428571428571429e+00	 6.142857142857141e+00	 9.903842480232745e+00
0	 1.428571428571429e+00	 6.285714285714285e+00	 9.907256451145681e+00
0	 1.428571428571429e+00	 6.428571428571425e+00	 9.908377941124460e+00
0	 1.428571428571429e+00	 6.571428571428568e+00	 9.908274389840038e+00
0	 1.428571428571428e+00	 6.714285714285711e+00	 9.908013236963434e+00
0	 1.428571428571429e+00	 6.857142857142853e+00	 9.908661922165610e+00
0	 1.428571428571429e+00	 6.999999999999996e+00	 9.911287885117558e+00
0	 1.428571428571429e+00	 7.142857142857143e+00	 9.916958565490271e+00
0	 1.571428571428572e+00	 5.714285714285717e+00	 9.875869577899714e+00
0	 1.571428571428572e+00	 5.857142857142858e+00	 9.889534383930851e+00
0	 1.571428571428572e+00	 5.999999999999999e+00	 9.898776939613489e+00
0	 1.571428571428572e+00	 6.142857142857143e+00	 9.904531691993014e+00
0	 1.571428571428572e+00	 6.285714285714284e+00	 9.907733088114803e+00
0	 1.571428571428572e+00	 6.428571428571425e+00	 9.909315575024234e+00
0	 1.571428571428572e+00	 6.571428571428569e+00	 9.910213599766671e+00
0	 1.571428571428572e+00	 6.714285714285711e+00	 9.911361609387498e+00
0	 1.571428571428572e+00	 6.857142857142854e+00	 9.913694050932094e+00
0	 1.571428571428572e+00	 6.999999999999996e+00	 9.918145371445821e+00
0	 1.571428571428572e+00	 7.142857142857144e+00	 9.925650017974078e+00
0	 1.714285714285715e+00	 5.714285714285714e+00	 9.887169775164061e+00
0	 1.714285714285715e+00	 5.857142857142857e+00	 9.897459304959085e+00
0	 1.714285714285714e+00	 5.999999999999998e+00	 9.904338900784889e+00
0	 1.714285714285715e+00	 6.142857142857141e+00	 9.908617032000469e+00
0	 1.714285714285715e+00	 6.285714285714284e+00	 9.911102167964824e+00
0	 1.714285714285715e+00	 6.428571428571427e+00	 9.912602778036955e+00
0	 1.714285714285714e+00	 6.571428571428567e+00	 9.913927331575845e+00
0	 1.714285714285715e+00	 6.714285714285712e+00	 9.915884297940522e+00
0	 1.714285714285714e+00	 6.857142857142852e+00	 9.919282146489959e+00
0	 1.714285714285715e+00	 6.999999999999996e+00	 9.924929346583149e+00
0	 1.714285714285715e+00	 7.142857142857144e+00	 9.933634367579106e+00
0	 1.857142857142857e+00	 5.714285714285714e+00	 9.902136611153008e+00
0	 1.857142857142858e+00	 5.857142857142857e+00	 9.908833754021222e+00
0	 1.857142857142857e+00	 5.999999999999998e+00	 9.913067585824031e+00
0	 1.857142857142857e+00	 6.142857142857141e+00	 9.915527613173284e+00
0	 1.857142857142858e+00	 6.285714285714286e+00	 9.916903342680833e+00
0	 1.857142857142858e+00	 6.428571428571429e+00	 9.917884280958527e+00
0	 1.857142857142857e+00	 6.571428571428569e+00	 9.919159934618197e+00
0	 1.857142857142857e+00	 6.714285714285710e+00	 9.921419810271731e+00
0	 1.857142857142857e+00	 6.857142857142853e+00	 9.925353414530944e+00
0	 1.857142857142857e+00	 6.999999999999996e+00	 9.931650254007698e+00
0	 1.857142857142857e+00	 7.142857142857144e+00	 9.940999835313843e+00
0	 2.000000000000000e+00	 5.714285714285714e+00	 9.919834820047459e+00
0	 2.000000000000001e+00	 5.857142857142858e+00	 9.922849385133356e+00
0	 2.000000000000000e+00	 5.999999999999998e+00	 9.924276108326112e+00
0	 2.000000000000000e+00	 6.142857142857139e+00	 9.924692548429661e+00
0	 2.000000000000000e+00	 6.285714285714282e+00	 9.924676264247926e+00
0	 2.000000000000000e+00	 6.428571428571426e+00	 9.924804814584839e+00
0	 2.000000000000001e+00	 6.571428571428569e+00	 9.925655758244343e+00
0	 2.000000000000000e+00	 6.714285714285711e+00	 9.927806654030350e+00
0	 2.000000000000000e+00	 6.857142857142854e+00	 9.931835060746813e+00
0	 2.000000000000000e+00	 6.999999999999996e+00	 9.938318537197638e+00
0	 2.000000000000000e+00	 7.142857142857144e+00	 9.947834642186782e+00
0	 2.142857142857144e+00	 5.714285714285714e+00	 9.939329136028299e+00
0	 2.142857142857143e+00	 5.857142857142858e+00	 9.938697852311579e+00
0	 2.142857142857144e+00	 5.999999999999999e+00	 9.937277581886324e+00
0	 2.142857142857144e+00	 6.142857142857143e+00	 9.935540950687786e+00
0	 2.142857142857143e+00	 6.285714285714285e+00	 9.933960584651199e+00
0	 2.142857142857144e+00	 6.428571428571428e+00	 9.933009109711808e+00
0	 2.142857142857144e+00	 6.571428571428569e+00	 9.933159151804873e+00
0	 2.142857142857143e+00	 6.714285714285712e+00	 9.934883336865612e+00
0	 2.142857142857143e+00	 6.857142857142854e+00	 9.938654290829295e+00
0	 2.142857142857143e+00	 6.999999999999996e+00	 9.944944639631144e+00
0	 2.142857142857144e+00	 7.142857142857145e+00	 9.954227009206409e+00
0	 2.285714285714286e+00	 5.714285714285714e+00	 9.959684293276428e+00
0	 2.285714285714286e+00	 5.857142857142855e+00	 9.955570809571974e+00
0	 2.285714285714286e+00	 5.999999999999999e+00	 9.951385120099852e+00
0	 2.285714285714287e+00	 6.142857142857142e+00	 9.947501932865844e+00
0	 2.285714285714287e+00	 6.285714285714286e+00	 9.944295955875745e+00
0	 2.285714285714286e+00	 6.428571428571426e+00	 9.942141897135338e+00
0	 2.285714285714286e+00	 6.571428571428568e+00	 9.941414464650409e+00
0	 2.285714285714286e+00	 6.714285714285711e+00	 9.942488366426742e+00
0	 2.285714285714286e+00	 6.857142857142855e+00	 9.945738310470134e+00
0	 2.285714285714286e+00	 6.999999999999996e+00	 9.951539004786358e+00
0	 2.285714285714286e+00	 7.142857142857144e+00	 9.960265157381219e+00
0	 2.428571428571429e+00	 5.714285714285714e+00	 9.979965025972755e+00
0	 2.428571428571430e+00	 5.857142857142857e+00	 9.972659910930636e+00
0	 2.428571428571428e+00	 5.999999999999999e+00	 9.965911836561880e+00
0	 2.428571428571429e+00	 6.142857142857142e+00	 9.960004607882034e+00
0	 2.428571428571430e+00	 6.285714285714284e+00	 9.955222029906654e+00
0	 2.428571428571429e+00	 6.428571428571425e+00	 9.951847907651310e+00
0	 2.428571428571429e+00	 6.571428571428569e+00	 9.950166046131562e+00
0	 2.428571428571428e+00	 6.714285714285709e+00	 9.950460250362966e+00
0	 2.428571428571429e+00	 6.857142857142852e+00	 9.953014325361089e+00
0	 2.428571428571429e+00	 6.999999999999995e+00	 9.958112076141481e+00
0	 2.428571428571429e+00	 7.142857142857144e+00	 9.966037307719695e+00
0	 2.571428571428572e+00	 5.714285714285714e+00	 9.999236068298151e+00
0	 2.571428571428572e+00	 5.857142857142858e+00	 9.989156810403651e+00
0	 2.571428571428572e+00	 6.000000000000000e+00	 9.980170844867594e+00
0	 2.571428571428572e+00	 6.142857142857141e+00	 9.972478088654523e+00
0	 2.571428571428573e+00	 6.285714285714286e+00	 9.966278458729024e+00
0	 2.571428571428573e+00	 6.428571428571427e+00	 9.961771872055635e+00
0	 2.571428571428572e+00	 6.571428571428569e+00	 9.959158245598951e+00
0	 2.571428571428572e+00	 6.714285714285710e+00	 9.958637496323515e+00
0	 2.571428571428573e+00	 6.857142857142855e+00	 9.960409541193879e+00
0	 2.571428571428572e+00	 6.999999999999996e+00	 9.964674297174634e+00
0	 2.571428571428572e+00	 7.142857142857143e+00	 9.971631681230333e+00
0	 2.714285714285715e+00	 5.714285714285714e+00	 1.001656215443352e+01
0	 2.714285714285715e+00	 5.857142857142856e+00	 1.000425316200712e+01
0	 2.714285714285716e+00	 6.000000000000000e+00	 9.993475258612184e+00
0	 2.714285714285715e+00	 6.142857142857141e+00	 9.984351488101531e+00
0	 2.714285714285715e+00	 6.285714285714285e+00	 9.977004894327951e+00
0	 2.714285714285715e+00	 6.428571428571427e+00	 9.971558521144242e+00
0	 2.714285714285714e+00	 6.571428571428569e+00	 9.968135412403186e+00
0	 2.714285714285715e+00	 6.714285714285710e+00	 9.966858611957607e+00
0	 2.714285714285715e+00	 6.857142857142854e+00	 9.967851163660285e+00
0	 2.714285714285714e+00	 6.999999999999996e+00	 9.971236111364025e+00
0	 2.714285714285715e+00	 7.142857142857145e+00	 9.977136498921611e+00
0	 2.857142857142858e+00	 5.714285714285714e+00	 1.003100801855978e+01
0	 2.857142857142858e+00	 5.857142857142855e+00	 1.001714061975712e+01
0	 2.857142857142857e+00	 5.999999999999999e+00	 1.000513819139086e+01
0	 2.857142857142858e+00	 6.142857142857142e+00	 9.995053919141236e+00
0	 2.857142857142857e+00	 6.285714285714285e+00	 9.986940988688524e+00
0	 2.857142857142857e+00	 6.428571428571425e+00	 9.980852585712984e+00
0	 2.857142857142857e+00	 6.571428571428569e+00	 9.976841895894873e+00
0	 2.857142857142858e+00	 6.714285714285711e+00	 9.974962104914468e+00
0	 2.857142857142857e+00	 6.857142857142854e+00	 9.975266398452014e+00
0	 2.857142857142857e+00	 6.999999999999997e+00	 9.977807962187786e+00
0	 2.857142857142857e+00	 7.142857142857143e+00	 9.982639981802034e+00
0	 1.428571428571429e+00	 7.142857142857143e+00	 9.916958565490271e+00
0	 1.428571428571429e+00	 7.285714285714286e+00	 9.925615496050867e+00
0	 1.428571428571429e+00	 7.428571428571427e+00	 9.936004751449184e+00
0	 1.428571428571429e+00	 7.571428571428570e+00	 9.947400584180244e+00
0	 1.428571428571429e+00	 7.714285714285714e+00	 9.959077246739094e+00
0	 1.428571428571429e+00	 7.857142857142852e+00	 9.970308991620742e+00
0	 1.428571428571429e+00	 8.000000000000000e+00	 9.980370071320241e+00
0	 1.428571428571429e+00	 8.142857142857141e+00	 9.988534738332625e+00
0	 1.428571428571429e+00	 8.285714285714283e+00	 9.994077245152898e+00
0	 1.428571428571429e+00	 8.428571428571425e+00	 9.996271844276123e+00
0	 1.428571428571429e+00	 8.571428571428575e+00	 9.994392788197313e+00
0	 1.571428571428572e+00	 7.142857142857144e+00	 9.925650017974078e+00
0	 1.571428571428572e+00	 7.285714285714286e+00	 9.935620298583384e+00
0	 1.571428571428572e+00	 7.428571428571429e+00	 9.946450032930827e+00
0	 1.571428571428571e+00	 7.571428571428570e+00	 9.957545935447570e+00
0	 1.571428571428571e+00	 7.714285714285713e+00	 9.968314720564770e+00
0	 1.571428571428571e+00	 7.857142857142854e+00	 9.978163102713587e+00
0	 1.571428571428572e+00	 7.999999999999997e+00	 9.986497796325214e+00
0	 1.571428571428572e+00	 8.142857142857142e+00	 9.992725515830806e+00
0	 1.571428571428572e+00	 8.285714285714285e+00	 9.996252975661521e+00
0	 1.571428571428572e+00	 8.428571428571425e+00	 9.996486890248528e+00
0	 1.571428571428572e+00	 8.571428571428573e+00	 9.992833974023011e+00
0	 1.714285714285715e+00	 7.142857142857144e+00	 9.933634367579105e+00
0	 1.714285714285714e+00	 7.285714285714285e+00	 9.944380127311232e+00
0	 1.714285714285714e+00	 7.428571428571427e+00	 9.955295207003600e+00
0	 1.714285714285715e+00	 7.571428571428573e+00	 9.965906571101188e+00
0	 1.714285714285715e+00	 7.714285714285715e+00	 9.975741184048983e+00
0	 1.714285714285715e+00	 7.857142857142857e+00	 9.984326010291969e+00
0	 1.714285714285715e+00	 7.999999999999998e+00	 9.991188014275131e+00
0	 1.714285714285714e+00	 8.142857142857141e+00	 9.995854160443443e+00
0	 1.714285714285715e+00	 8.285714285714285e+00	 9.997851413241886e+00
0	 1.714285714285715e+00	 8.428571428571429e+00	 9.996706737115463e+00
0	 1.714285714285714e+00	 8.571428571428571e+00	 9.991947096509143e+00
0	 1.857142857142857e+00	 7.142857142857144e+00	 9.940999835313843e+00
0	 1.857142857142857e+00	 7.285714285714286e+00	 9.952049062770435e+00
0	 1.857142857142857e+00	 7.428571428571426e+00	 9.962741837981604e+00
0	 1.857142857142857e+00	 7.571428571428572e+00	 9.972713163483849e+00
0	 1.857142857142857e+00	 7.714285714285715e+00	 9.981598041813625e+00
0	 1.857142857142858e+00	 7.857142857142857e+00	 9.989031475507437e+00
0	 1.857142857142857e+00	 7.999999999999997e+00	 9.994648467101758e+00
0	 1.857142857142857e+00	 8.142857142857139e+00	 9.998084019133056e+00
0	 1.857142857142857e+00	 8.285714285714281e+00	 9.998973134137824e+00
0	 1.857142857142858e+00	 8.428571428571429e+00	 9.996950814652537e+00
0	 1.857142857142857e+00	 8.571428571428575e+00	 9.991652063213671e+00
0	 2.000000000000000e+00	 7.142857142857144e+00	 9.947834642186784e+00
0	 2.000000000000000e+00	 7.285714285714286e+00	 9.958781185497019e+00
0	 2.000000000000000e+00	 7.428571428571428e+00	 9.968991490178967e+00
0	 2.000000000000000e+00	 7.571428571428570e+00	 9.978196384938254e+00
0	 2.000000000000000e+00	 7.714285714285714e+00	 9.986126698480566e+00
0	 2.000000000000000e+00	 7.857142857142857e+00	 9.992513259511554e+00
0	 2.000000000000000e+00	 7.999999999999999e+00	 9.997086896736876e+00
0	 2.000000000000000e+00	 8.142857142857141e+00	 9.999578438862171e+00
0	 2.000000000000001e+00	 8.285714285714283e+00	 9.999718714593136e+00
0	 2.000000000000001e+00	 8.428571428571429e+00	 9.997238552635391e+00
0	 2.000000000000000e+00	 8.571428571428571e+00	 9.991868781694627e+00
0	 2.142857142857144e+00	 7.142857142857145e+00	 9.954227009206409e+00
0	 2.142857142857142e+00	 7.285714285714286e+00	 9.964730576027032e+00
0	 2.142857142857144e+00	 7.428571428571428e+00	 9.974245727909768e+00
0	 2.142857142857144e+00	 7.571428571428571e+00	 9.982586907807139e+00
0	 2.142857142857143e+00	 7.714285714285714e+00	 9.989568558671664e+00
0	 2.142857142857143e+00	 7.857142857142858e+00	 9.995005123455858e+00
0	 2.142857142857143e+00	 7.999999999999997e+00	 9.998711045112238e+00
0	 2.142857142857144e+00	 8.142857142857139e+00	 1.000050076659332e+01
0	 2.142857142857144e+00	 8.285714285714286e+00	 1.000018873085162e+01
0	 2.142857142857143e+00	 8.428571428571427e+00	 9.997589380839653e+00
0	 2.142857142857144e+00	 8.571428571428571e+00	 9.992517159509935e+00
0	 2.285714285714286e+00	 7.142857142857144e+00	 9.960265157381219e+00
0	 2.285714285714286e+00	 7.285714285714286e+00	 9.970051314896486e+00
0	 2.285714285714286e+00	 7.428571428571429e+00	 9.978706115488141e+00
0	 2.285714285714286e+00	 7.571428571428569e+00	 9.986115404433214e+00
0	 2.285714285714286e+00	 7.714285714285714e+00	 9.992165027008792e+00
0	 2.285714285714286e+00	 7.857142857142855e+00	 9.996740828491900e+00
0	 2.285714285714286e+00	 8.000000000000000e+00	 9.999728654159625e+00
0	 2.285714285714286e+00	 8.142857142857141e+00	 1.000101434928900e+01
0	 2.285714285714287e+00	 8.285714285714285e+00	 1.000048375915708e+01
0	 2.285714285714287e+00	 8.428571428571427e+00	 9.998022729040937e+00
0	 2.285714285714287e+00	 8.571428571428573e+00	 9.993517104217602e+00
0	 2.428571428571429e+00	 7.142857142857144e+00	 9.966037307719695e+00
0	 2.428571428571429e+00	 7.285714285714286e+00	 9.974897482641438e+00
0	 2.428571428571429e+00	 7.428571428571427e+00	 9.982574217228191e+00
0	 2.428571428571429e+00	 7.571428571428571e+00	 9.989012547159223e+00
0	 2.428571428571429e+00	 7.714285714285714e+00	 9.994157508113815e+00
0	 2.428571428571430e+00	 7.857142857142858e+00	 9.997954135771256e+00
0	 2.428571428571430e+00	 7.999999999999998e+00	 1.000034746581080e+01
0	 2.428571428571429e+00	 8.142857142857141e+00	 1.000128253391174e+01
0	 2.428571428571429e+00	 8.285714285714286e+00	 1.000070437575334e+01
0	 2.428571428571430e+00	 8.428571428571425e+00	 9.998558027014877e+00
0	 2.428571428571429e+00	 8.571428571428577e+00	 9.994788523375643e+00
0	 2.571428571428572e+00	 7.142857142857143e+00	 9.971631681230335e+00
0	 2.571428571428572e+00	 7.285714285714287e+00	 9.979423159797904e+00
0	 2.571428571428572e+00	 7.428571428571430e+00	 9.986051597444028e+00
0	 2.571428571428572e+00	 7.571428571428570e+00	 9.991509008327867e+00
0	 2.571428571428573e+00	 7.714285714285714e+00	 9.995787406608624e+00
0	 2.571428571428572e+00	 7.857142857142858e+00	 9.998878806445454e+00
0	 2.571428571428573e+00	 8.000000000000000e+00	 1.000077522199754e+01
0	 2.571428571428572e+00	 8.142857142857142e+00	 1.000146866742405e+01
0	 2.571428571428572e+00	 8.285714285714285e+00	 1.000095115688419e+01
0	 2.571428571428572e+00	 8.428571428571425e+00	 9.999214704537104e+00
0	 2.571428571428573e+00	 8.571428571428573e+00	 9.996251324541973e+00
0	 2.714285714285715e+00	 7.142857142857145e+00	 9.977136498921611e+00
0	 2.714285714285715e+00	 7.285714285714286e+00	 9.983782426901922e+00
0	 2.714285714285715e+00	 7.428571428571431e+00	 9.989339820449755e+00
0	 2.714285714285715e+00	 7.571428571428572e+00	 9.993835460281883e+00
0	 2.714285714285715e+00	 7.714285714285714e+00	 9.997296127115067e+00
0	 2.714285714285715e+00	 7.857142857142858e+00	 9.999748601666045e+00
0	 2.714285714285715e+00	 7.999999999999998e+00	 1.000121966465160e+01
0	 2.714285714285714e+00	 8.142857142857141e+00	 1.000173609678848e+01
0	 2.714285714285715e+00	 8.285714285714285e+00	 1.000132467879344e+01
0	 2.714285714285716e+00	 8.428571428571427e+00	 1.000001219138323e+01
0	 2.714285714285715e+00	 8.571428571428573e+00	 9.997825415274631e+00
0	 2.857142857142857e+00	 7.142857142857143e+00	 9.982639981802034e+00
0	 2.857142857142857e+00	 7.285714285714285e+00	 9.988129364489527e+00
0	 2.857142857142857e+00	 7.428571428571429e+00	 9.992640450559492e+00
0	 2.857142857142857e+00	 7.571428571428571e+00	 9.996222575363987e+00
0	 2.857142857142857e+00	 7.714285714285714e+00	 9.998925074255018e+00
0	 2.857142857142857e+00	 7.857142857142854e+00	 1.000079728258460e+01
0	 2.857142857142858e+00	 7.999999999999999e+00	 1.000188853570477e+01
0	 2.857142857142858e+00	 8.142857142857142e+00	 1.000224816896751e+01
0	 2.857142857142858e+00	 8.285714285714283e+00	 1.000192551772488e+01
0	 2.857142857142858e+00	 8.428571428571425e+00	 1.000096991732890e+01
0	 2.857142857142858e+00	 8.571428571428575e+00	 9.999430703131583e+00
0	 1.428571428571429e+00	 8.571428571428575e+00	 9.994392788197313e+00
0	 1.428571428571429e+00	 8.714285714285715e+00	 9.989804940394098e+00
0	 1.428571428571429e+00	 8.857142857142859e+00	 9.984945307688610e+00
0	 1.428571428571429e+00	 9.000000000000002e+00	 9.980696357592640e+00
0	 1.428571428571429e+00	 9.142857142857142e+00	 9.977940557618005e+00
0	 1.428571428571429e+00	 9.285714285714285e+00	 9.977560375276500e+00
0	 1.428571428571429e+00	 9.428571428571427e+00	 9.980438278079918e+00
0	 1.428571428571429e+00	 9.571428571428569e+00	 9.987456733540085e+00
0	 1.428571428571429e+00	 9.714285714285712e+00	 9.999498209168749e+00
0	 1.428571428571429e+00	 9.857142857142856e+00	 1.001744517247784e+01
0	 1.428571428571429e+00	 1.000000000000000e+01	 1.004218009097900e+01
0	 1.571428571428572e+00	 8.571428571428573e+00	 9.992833974023013e+00
0	 1.571428571428572e+00	 8.714285714285714e+00	 9.987103883051089e+00
0	 1.571428571428572e+00	 8.857142857142859e+00	 9.981948548603780e+00
0	 1.571428571428572e+00	 9.000000000000004e+00	 9.978038097919562e+00
0	 1.571428571428572e+00	 9.142857142857144e+00	 9.976042658236896e+00
0	 1.571428571428572e+00	 9.285714285714285e+00	 9.976632356794259e+00
0	 1.571428571428572e+00	 9.428571428571427e+00	 9.980477320830136e+00
0	 1.571428571428572e+00	 9.571428571428571e+00	 9.988247677583002e+00
0	 1.571428571428572e+00	 9.714285714285714e+00	 1.000061355429129e+01
0	 1.571428571428572e+00	 9.857142857142852e+00	 1.001824507819358e+01
0	 1.571428571428572e+00	 1.000000000000000e+01	 1.004181237652824e+01
0	 1.714285714285714e+00	 8.571428571428571e+00	 9.991947096509143e+00
0	 1.714285714285715e+00	 8.714285714285721e+00	 9.985645107145135e+00
0	 1.714285714285715e+00	 8.857142857142861e+00	 9.980510535087499e+00
0	 1.714285714285715e+00	 9.000000000000000e+00	 9.977026070293945e+00
0	 1.714285714285715e+00	 9.142857142857146e+00	 9.975674402722163e+00
0	 1.714285714285715e+00	 9.285714285714288e+00	 9.976938222329899e+00
0	 1.714285714285714e+00	 9.428571428571427e+00	 9.981300219074839e+00
0	 1.714285714285714e+00	 9.571428571428569e+00	 9.989243082914699e+00
0	 1.714285714285715e+00	 9.714285714285714e+00	 1.000124950380721e+01
0	 1.714285714285715e+00	 9.857142857142854e+00	 1.001780217171007e+01
0	 1.714285714285714e+00	 1.000000000000000e+01	 1.003938377658098e+01
0	 1.857142857142857e+00	 8.571428571428575e+00	 9.991652063213669e+00
0	 1.857142857142857e+00	 8.714285714285715e+00	 9.985255723854111e+00
0	 1.857142857142858e+00	 8.857142857142859e+00	 9.980397409362034e+00
0	 1.857142857142858e+00	 9.000000000000000e+00	 9.977397275406975e+00
0	 1.857142857142857e+00	 9.142857142857144e+00	 9.976575477658461e+00
0	 1.857142857142857e+00	 9.285714285714283e+00	 9.978252171785977e+00
0	 1.857142857142858e+00	 9.428571428571429e+00	 9.982747513459064e+00
0	 1.857142857142857e+00	 9.571428571428569e+00	 9.990381658347214e+00
0	 1.857142857142858e+00	 9.714285714285712e+00	 1.000147476211996e+01
0	 1.857142857142858e+00	 9.857142857142856e+00	 1.001634698044684e+01
0	 1.857142857142858e+00	 1.000000000000000e+01	 1.003531846899729e+01
0	 2.000000000000000e+00	 8.571428571428571e+00	 9.991868781694627e+00
0	 2.000000000000000e+00	 8.714285714285717e+00	 9.985762844355854e+00
0	 2.000000000000000e+00	 8.857142857142859e+00	 9.981375313649632e+00
0	 2.000000000000001e+00	 9.000000000000000e+00	 9.978888713949837e+00
0	 2.000000000000000e+00	 9.142857142857144e+00	 9.978485569630351e+00
0	 2.000000000000001e+00	 9.285714285714285e+00	 9.980348405065048e+00
0	 2.000000000000000e+00	 9.428571428571427e+00	 9.984659744627809e+00
0	 2.000000000000000e+00	 9.571428571428569e+00	 9.991602112692512e+00
0	 2.000000000000001e+00	 9.714285714285714e+00	 1.000135803363304e+01
0	 2.000000000000000e+00	 9.857142857142856e+00	 1.001411003182331e+01
0	 2.000000000000001e+00	 1.000000000000000e+01	 1.003004063163716e+01
0	 2.142857142857144e+00	 8.571428571428571e+00	 9.992517159509935e+00
0	 2.142857142857143e+00	 8.714285714285715e+00	 9.986993579828241e+00
0	 2.142857142857143e+00	 8.857142857142858e+00	 9.983210390172559e+00
0	 2.142857142857144e+00	 9.000000000000002e+00	 9.981237386613687e+00
0	 2.142857142857144e+00	 9.142857142857142e+00	 9.981144365222443e+00
0	 2.142857142857144e+00	 9.285714285714285e+00	 9.983001122069636e+00
0	 2.142857142857144e+00	 9.428571428571429e+00	 9.986877453226084e+00
0	 2.142857142857143e+00	 9.571428571428568e+00	 9.992843154762586e+00
0	 2.142857142857144e+00	 9.714285714285714e+00	 1.000096802274997e+01
0	 2.142857142857144e+00	 9.857142857142854e+00	 1.001132185325902e+01
0	 2.142857142857144e+00	 1.000000000000000e+01	 1.002397444236055e+01
0	 2.285714285714287e+00	 8.571428571428573e+00	 9.993517104217604e+00
0	 2.285714285714286e+00	 8.714285714285719e+00	 9.988775041449150e+00
0	 2.285714285714286e+00	 8.857142857142858e+00	 9.985668781153091e+00
0	 2.285714285714286e+00	 8.999999999999998e+00	 9.984180294089704e+00
0	 2.285714285714287e+00	 9.142857142857146e+00	 9.984291551019354e+00
0	 2.285714285714286e+00	 9.285714285714285e+00	 9.985984522702312e+00
0	 2.285714285714286e+00	 9.428571428571427e+00	 9.989241179898912e+00
0	 2.285714285714286e+00	 9.571428571428568e+00	 9.994043493369402e+00
0	 2.285714285714286e+00	 9.714285714285712e+00	 1.000037343387415e+01
0	 2.285714285714286e+00	 9.857142857142852e+00	 1.000821297217347e+01
0	 2.285714285714286e+00	 1.000000000000000e+01	 1.001754407902760e+01
0	 2.428571428571429e+00	 8.571428571428577e+00	 9.994788523375643e+00
0	 2.428571428571430e+00	 8.714285714285719e+00	 9.990934340396421e+00
0	 2.428571428571429e+00	 8.857142857142859e+00	 9.988516628813445e+00
0	 2.428571428571430e+00	 9.000000000000002e+00	 9.987454437069070e+00
0	 2.428571428571430e+00	 9.142857142857144e+00	 9.987666813605680e+00
0	 2.428571428571429e+00	 9.285714285714285e+00	 9.989072806865632e+00
0	 2.428571428571430e+00	 9.428571428571431e+00	 9.991591465291275e+00
0	 2.428571428571428e+00	 9.571428571428569e+00	 9.995141837325018e+00
0	 2.428571428571429e+00	 9.714285714285714e+00	 9.999642971409139e+00
0	 2.428571428571429e+00	 9.857142857142854e+00	 1.000501391598611e+01
0	 2.428571428571430e+00	 1.000000000000000e+01	 1.001117371949823e+01
0	 2.571428571428573e+00	 8.571428571428573e+00	 9.996251324541973e+00
0	 2.571428571428572e+00	 8.714285714285717e+00	 9.993298587847930e+00
0	 2.571428571428573e+00	 8.857142857142859e+00	 9.991520075375917e+00
0	 2.571428571428573e+00	 9.000000000000005e+00	 9.990796816242968e+00
0	 2.571428571428573e+00	 9.142857142857144e+00	 9.991009839566033e+00
0	 2.571428571428573e+00	 9.285714285714286e+00	 9.992040174462115e+00
0	 2.571428571428573e+00	 9.428571428571429e+00	 9.993768850048230e+00
0	 2.571428571428572e+00	 9.571428571428568e+00	 9.996076895441323e+00
0	 2.571428571428573e+00	 9.714285714285715e+00	 9.998845339758422e+00
0	 2.571428571428572e+00	 9.857142857142854e+00	 1.000195521211648e+01
0	 2.571428571428572e+00	 1.000000000000000e+01	 1.000528754163257e+01
0	 2.714285714285715e+00	 8.571428571428573e+00	 9.997825415274630e+00
0	 2.714285714285715e+00	 8.714285714285717e+00	 9.995694894981524e+00
0	 2.714285714285715e+00	 8.857142857142858e+00	 9.994445263062765e+00
0	 2.714285714285715e+00	 9.000000000000000e+00	 9.993944432302527e+00
0	 2.714285714285715e+00	 9.142857142857144e+00	 9.994060315484994e+00
0	 2.714285714285716e+00	 9.285714285714283e+00	 9.994660825394330e+00
0	 2.714285714285715e+00	 9.428571428571431e+00	 9.995613874814747e+00
0	 2.714285714285715e+00	 9.571428571428569e+00	 9.996787376530385e+00
0	 2.714285714285715e+00	 9.714285714285712e+00	 9.998049243325447e+00
0	 2.714285714285715e+00	 9.857142857142854e+00	 9.999267387984133e+00
0	 2.714285714285715e+00	 1.000000000000000e+01	 1.000030972329051e+01
0	 2.857142857142858e+00	 8.571428571428575e+00	 9.999430703131583e+00
0	 2.857142857142857e+00	 8.714285714285717e+00	 9.997950372975088e+00
0	 2.857142857142858e+00	 8.857142857142859e+00	 9.997058334096247e+00
0	 2.857142857142857e+00	 9.000000000000000e+00	 9.996634285938956e+00
0	 2.857142857142857e+00	 9.142857142857141e+00	 9.996557927947176e+00
0	 2.857142857142858e+00	 9.285714285714288e+00	 9.996708959564842e+00
0	 2.857142857142858e+00	 9.428571428571431e+00	 9.996967080235853e+00
0	 2.857142857142857e+00	 9.571428571428569e+00	 9.997211989404180e+00
0	 2.857142857142858e+00	 9.714285714285712e+00	 9.997323386513708e+00
0	 2.857142857142857e+00	 9.857142857142856e+00	 9.997180971008401e+00
0	 2.857142857142857e+00	 1.000000000000000e+01	 9.996664442332209e+00
0	 2.857142857142857e+00	 0.000000000000000e+00	 1.052847625819889e+01
0	 2.857142857142858e+00	 1.428571428571429e-01	 1.053226085186336e+01
0	 2.857142857142857e+00	 2.857142857142858e-01	 1.052109193033582e+01
0	 2.857142857142858e+00	 4.285714285714287e-01	 1.049946778563994e+01
0	 2.857142857142858e+00	 5.714285714285716e-01	 1.047188670979939e+01
0	 2.857142857142858e+00	 7.142857142857143e-01	 1.044284699483786e+01
0	 2.857142857142857e+00	 8.571428571428573e-01	 1.041684693277901e+01
0	 2.857142857142858e+00	 1.000000000000000e+00	 1.039838481564652e+01
0	 2.857142857142858e+00	 1.142857142857143e+00	 1.039195893546409e+01
0	 2.857142857142859e+00	 1.285714285714286e+00	 1.040206758425536e+01
0	 2.857142857142857e+00	 1.428571428571429e+00	 1.043320905404403e+01
0	 3.000000000000001e+00	 0.000000000000000e+00	 1.052743049075861e+01
0	 3.000000000000002e+00	 1.428571428571430e-01	 1.050158841475648e+01
0	 3.000000000000001e+00	 2.857142857142858e-01	 1.047042835939675e+01
0	 3.000000000000000e+00	 4.285714285714287e-01	 1.043734870976803e+01
0	 3.000000000000000e+00	 5.714285714285715e-01	 1.040574785095893e+01
0	 3.000000000000000e+00	 7.142857142857143e-01	 1.037902416805811e+01
0	 3.000000000000001e+00	 8.571428571428575e-01	 1.036057604615416e+01
0	 3.000000000000001e+00	 1.000000000000001e+00	 1.035380187033572e+01
0	 3.000000000000002e+00	 1.142857142857143e+00	 1.036210002569144e+01
0	 3.000000000000000e+00	 1.285714285714286e+00	 1.038886889730991e+01
0	 3.000000000000000e+00	 1.428571428571429e+00	 1.043750687027977e+01
0	 3.142857142857143e+00	 0.000000000000000e+00	 1.051957099243788e+01
0	 3.142857142857144e+00	 1.428571428571429e-01	 1.047625747659166e+01
0	 3.142857142857143e+00	 2.857142857142858e-01	 1.043430369904504e+01
0	 3.142857142857144e+00	 4.285714285714288e-01	 1.039614903081179e+01
0	 3.142857142857144e+00	 5.714285714285715e-01	 1.036423284290570e+01
0	 3.142857142857144e+00	 7.142857142857145e-01	 1.034099450634055e+01
0	 3.142857142857143e+00	 8.571428571428573e-01	 1.032887339213015e+01
0	 3.142857142857143e+00	 1.000000000000000e+00	 1.033030887128824e+01
0	 3.142857142857142e+00	 1.142857142857143e+00	 1.034774031482864e+01
0	 3.142857142857143e+00	 1.285714285714286e+00	 1.038360709376513e+01
0	 3.142857142857143e+00	 1.428571428571429e+00	 1.044034857911148e+01
0	 3.285714285714286e+00	 0.000000000000000e+00	 1.050477606937437e+01
0	 3.285714285714287e+00	 1.428571428571430e-01	 1.045444150074349e+01
0	 3.285714285714286e+00	 2.857142857142858e-01	 1.040955553213974e+01
0	 3.285714285714286e+00	 4.285714285714287e-01	 1.037173941336224e+01
0	 3.285714285714286e+00	 5.714285714285715e-01	 1.034261439421014e+01
0	 3.285714285714286e+00	 7.142857142857143e-01	 1.032380172448261e+01
0	 3.285714285714286e+00	 8.571428571428574e-01	 1.031692265397879e+01
0	 3.285714285714286e+00	 1.000000000000000e+00	 1.032359843249785e+01
0	 3.285714285714286e+00	 1.142857142857143e+00	 1.034545030983894e+01
0	 3.285714285714286e+00	 1.285714285714286e+00	 1.038409953580119e+01
0	 3.285714285714286e+00	 1.428571428571429e+00	 1.044116736018379e+01
0	 3.428571428571429e+00	 0.000000000000000e+00	 1.048292402770575e+01
0	 3.428571428571430e+00	 1.428571428571429e-01	 1.043431395058662e+01
0	 3.428571428571429e+00	 2.857142857142858e-01	 1.039302144153992e+01
0	 3.428571428571429e+00	 4.285714285714287e-01	 1.035999052201037e+01
0	 3.428571428571429e+00	 5.714285714285714e-01	 1.033616521344271e+01
0	 3.428571428571429e+00	 7.142857142857143e-01	 1.032248953728167e+01
0	 3.428571428571429e+00	 8.571428571428572e-01	 1.031990751497199e+01
0	 3.428571428571430e+00	 1.000000000000001e+00	 1.032936316795838e+01
0	 3.428571428571429e+00	 1.142857142857143e+00	 1.035180051768558e+01
0	 3.428571428571429e+00	 1.285714285714286e+00	 1.038816358559833e+01
0	 3.428571428571429e+00	 1.428571428571429e+00	 1.043939639314135e+01
0	 3.571428571428572e+00	 0.000000000000000e+00	 1.045389317356971e+01
0	 3.571428571428571e+00	 1.428571428571428e-01	 1.041404828949565e+01
0	 3.571428571428572e+00	 2.857142857142857e-01	 1.038153901010465e+01
0	 3.571428571428573e+00	 4.285714285714288e-01	 1.035677302134723e+01
0	 3.571428571428572e+00	 5.714285714285716e-01	 1.034015800917388e+01
0	 3.571428571428573e+00	 7.142857142857143e-01	 1.033210165953515e+01
0	 3.571428571428573e+00	 8.571428571428575e-01	 1.033301165838155e+01
0	 3.571428571428573e+00	 1.000000000000000e+00	 1.034329569166360e+01
0	 3.571428571428572e+00	 1.142857142857143e+00	 1.036336144533180e+01
0	 3.571428571428572e+00	 1.285714285714286e+00	 1.039361660533670e+01
0	 3.571428571428572e+00	 1.428571428571429e+00	 1.043446885762878e+01
0	 3.714285714285715e+00	 0.000000000000000e+00	 1.041756181310389e+01
0	 3.714285714285715e+00	 1.428571428571429e-01	 1.039181798084520e+01
0	 3.714285714285714e+00	 2.857142857142857e-01	 1.037194582069300e+01
0	 3.714285714285715e+00	 4.285714285714287e-01	 1.035795757596379e+01
0	 3.714285714285715e+00	 5.714285714285715e-01	 1.034986548997411e+01
0	 3.714285714285716e+00	 7.142857142857143e-01	 1.034768180604045e+01
0	 3.714285714285715e+00	 8.571428571428574e-01	 1.035141876747936e+01
0	 3.714285714285715e+00	 1.000000000000000e+00	 1.036108861760731e+01
0	 3.714285714285715e+00	 1.142857142857143e+00	 1.037670359974087e+01
0	 3.714285714285715e+00	 1.285714285714286e+00	 1.039827595719649e+01
0	 3.714285714285715e+00	 1.428571428571428e+00	 1.042581793329073e+01
0	 3.857142857142858e+00	 0.000000000000000e+00	 1.037380825244600e+01
0	 3.857142857142858e+00	 1.428571428571430e-01	 1.036579648800989e+01
0	 3.857142857142858e+00	 2.857142857142857e-01	 1.036107945616402e+01
0	 3.857142857142857e+00	 4.285714285714287e-01	 1.035941485045110e+01
0	 3.857142857142858e+00	 5.714285714285714e-01	 1.036056036441385e+01
0	 3.857142857142859e+00	 7.142857142857143e-01	 1.036427369159500e+01
0	 3.857142857142858e+00	 8.571428571428573e-01	 1.037031252553725e+01
0	 3.857142857142858e+00	 1.000000000000000e+00	 1.037843455978335e+01
0	 3.857142857142857e+00	 1.142857142857143e+00	 1.038839748787600e+01
0	 3.857142857142858e+00	 1.285714285714286e+00	 1.039995900335792e+01
0	 3.857142857142857e+00	 1.428571428571429e+00	 1.041287679977184e+01
0	 4.000000000000001e+00	 0.000000000000000e+00	 1.032251079773369e+01
0	 4.000000000000001e+00	 1.428571428571429e-01	 1.033415727436435e+01
0	 4.000000000000002e+00	 2.857142857142857e-01	 1.034577749937680e+01
0	 4.000000000000001e+00	 4.285714285714286e-01	 1.035701550940016e+01
0	 4.000000000000000e+00	 5.714285714285714e-01	 1.036751534106356e+01
0	 4.000000000000001e+00	 7.142857142857142e-01	 1.037692103099617e+01
0	 4.000000000000002e+00	 8.571428571428573e-01	 1.038487661582709e+01
0	 4.000000000000002e+00	 1.000000000000000e+00	 1.039102613218547e+01
0	 4.000000000000001e+00	 1.142857142857143e+00	 1.039501361670045e+01
0	 4.000000000000001e+00	 1.285714285714286e+00	 1.039648310600115e+01
0	 4.000000000000001e+00	 1.428571428571428e+00	 1.039507863671673e+01
0	 4.142857142857143e+00	 0.000000000000000e+00	 1.026354775510463e+01
0	 4.142857142857143e+00	 1.428571428571429e-01	 1.029507380328318e+01
0	 4.142857142857143e+00	 2.857142857142856e-01	 1.032287753319038e+01
0	 4.142857142857143e+00	 4.285714285714285e-01	 1.034663021740197e+01
0	 4.142857142857144e+00	 5.714285714285715e-01	 1.036600312849371e+01
0	 4.142857142857144e+00	 7.142857142857143e-01	 1.038066753904137e+01
0	 4.142857142857143e+00	 8.571428571428573e-01	 1.039029472162071e+01
0	 4.142857142857144e+00	 1.000000000000000e+00	 1.039455594880748e+01
0	 4.142857142857144e+00	 1.142857142857143e+00	 1.039312249317746e+01
0	 4.142857142857143e+00	 1.285714285714286e+00	 1.038566562730639e+01
0	 4.142857142857143e+00	 1.428571428571428e+00	 1.037185662377005e+01
0	 4.285714285714286e+00	 0.000000000000000e+00	 1.019679743069649e+01
0	 4.285714285714286e+00	 1.428571428571429e-01	 1.024671953814101e+01
0	 4.285714285714286e+00	 2.857142857142857e-01	 1.028921714046384e+01
0	 4.285714285714286e+00	 4.285714285714287e-01	 1.032412963904755e+01
0	 4.285714285714287e+00	 5.714285714285715e-01	 1.035129643527475e+01
0	 4.285714285714286e+00	 7.142857142857143e-01	 1.037055693052803e+01
0	 4.285714285714286e+00	 8.571428571428572e-01	 1.038175052618998e+01
0	 4.285714285714286e+00	 1.000000000000000e+00	 1.038471662364320e+01
0	 4.285714285714286e+00	 1.142857142857143e+00	 1.037929462427028e+01
0	 4.285714285714286e+00	 1.285714285714286e+00	 1.036532392945383e+01
0	 4.285714285714287e+00	 1.428571428571429e+00	 1.034264394057643e+01
0	 2.857142857142857e+00	 1.428571428571429e+00	 1.043320905404403e+01
0	 2.857142857142858e+00	 1.571428571428572e+00	 1.047399526237520e+01
0	 2.857142857142857e+00	 1.714285714285715e+00	 1.050897849650915e+01
0	 2.857142857142856e+00	 1.857142857142857e+00	 1.053656760304236e+01
0	 2.857142857142858e+00	 2.000000000000001e+00	 1.055517142857124e+01
0	 2.857142857142857e+00	 2.142857142857144e+00	 1.056319881969227e+01
0	 2.857142857142858e+00	 2.285714285714287e+00	 1.055905862300191e+01
0	 2.857142857142858e+00	 2.428571428571430e+00	 1.054115968509659e+01
0	 2.857142857142857e+00	 2.571428571428573e+00	 1.050791085257278e+01
0	 2.857142857142857e+00	 2.714285714285715e+00	 1.045772097202692e+01
0	 2.857142857142858e+00	 2.857142857142857e+00	 1.038899889005548e+01
0	 3.000000000000000e+00	 1.428571428571429e+00	 1.043750687027977e+01
0	 3.000000000000001e+00	 1.571428571428572e+00	 1.049362505182763e+01
0	 3.000000000000001e+00	 1.714285714285715e+00	 1.053979334879842e+01
0	 3.000000000000000e+00	 1.857142857142857e+00	 1.057484834570819e+01
0	 3.000000000000001e+00	 2.000000000000000e+00	 1.059762662707303e+01
0	 3.000000000000001e+00	 2.142857142857143e+00	 1.060696477740902e+01
0	 3.000000000000001e+00	 2.285714285714286e+00	 1.060169938123222e+01
0	 3.000000000000001e+00	 2.428571428571430e+00	 1.058066702305871e+01
0	 3.000000000000000e+00	 2.571428571428572e+00	 1.054270428740457e+01
0	 3.000000000000000e+00	 2.714285714285715e+00	 1.048664775878586e+01
0	 3.000000000000001e+00	 2.857142857142858e+00	 1.041133402171867e+01
0	 3.142857142857143e+00	 1.428571428571429e+00	 1.044034857911148e+01
0	 3.142857142857144e+00	 1.571428571428573e+00	 1.050250383676546e+01
0	 3.142857142857144e+00	 1.714285714285715e+00	 1.055245819427610e+01
0	 3.142857142857143e+00	 1.857142857142857e+00	 1.058942041513412e+01
0	 3.142857142857143e+00	 2.000000000000000e+00	 1.061259926283023e+01
0	 3.142857142857143e+00	 2.142857142857143e+00	 1.062120350085510e+01
0	 3.142857142857143e+00	 2.285714285714286e+00	 1.061444189269947e+01
0	 3.142857142857143e+00	 2.428571428571429e+00	 1.059152320185403e+01
0	 3.142857142857143e+00	 2.571428571428572e+00	 1.055165619180949e+01
0	 3.142857142857143e+00	 2.714285714285715e+00	 1.049404962605655e+01
0	 3.142857142857143e+00	 2.857142857142858e+00	 1.041791226808592e+01
0	 3.285714285714286e+00	 1.428571428571429e+00	 1.044116736018379e+01
0	 3.285714285714287e+00	 1.571428571428572e+00	 1.050171816844524e+01
0	 3.285714285714286e+00	 1.714285714285714e+00	 1.054941910185819e+01
0	 3.285714285714286e+00	 1.857142857142858e+00	 1.058379554394300e+01
0	 3.285714285714286e+00	 2.000000000000000e+00	 1.060437287822002e+01
0	 3.285714285714286e+00	 2.142857142857143e+00	 1.061067648820956e+01
0	 3.285714285714286e+00	 2.285714285714286e+00	 1.060223175743200e+01
0	 3.285714285714287e+00	 2.428571428571430e+00	 1.057856406940767e+01
0	 3.285714285714286e+00	 2.571428571428573e+00	 1.053919880765693e+01
0	 3.285714285714286e+00	 2.714285714285715e+00	 1.048366135570011e+01
0	 3.285714285714286e+00	 2.857142857142857e+00	 1.041147709705754e+01
0	 3.428571428571429e+00	 1.428571428571429e+00	 1.043939639314135e+01
0	 3.428571428571430e+00	 1.571428571428572e+00	 1.049235459812354e+01
0	 3.428571428571429e+00	 1.714285714285715e+00	 1.053312214046066e+01
0	 3.428571428571430e+00	 1.857142857142858e+00	 1.056148546475768e+01
0	 3.428571428571429e+00	 2.000000000000000e+00	 1.057723101561962e+01
0	 3.428571428571430e+00	 2.142857142857144e+00	 1.058014523765145e+01
0	 3.428571428571429e+00	 2.285714285714286e+00	 1.057001457545816e+01
0	 3.428571428571430e+00	 2.428571428571429e+00	 1.054662547364478e+01
0	 3.428571428571428e+00	 2.571428571428572e+00	 1.050976437681626e+01
0	 3.428571428571430e+00	 2.714285714285715e+00	 1.045921772957762e+01
0	 3.428571428571429e+00	 2.857142857142858e+00	 1.039477197653385e+01
0	 3.571428571428572e+00	 1.428571428571429e+00	 1.043446885762878e+01
0	 3.571428571428572e+00	 1.571428571428572e+00	 1.047549967705694e+01
0	 3.571428571428572e+00	 1.714285714285715e+00	 1.050601337899947e+01
0	 3.571428571428572e+00	 1.857142857142858e+00	 1.052600191020102e+01
0	 3.571428571428572e+00	 2.000000000000000e+00	 1.053545721740625e+01
0	 3.571428571428572e+00	 2.142857142857143e+00	 1.053437124735979e+01
0	 3.571428571428573e+00	 2.285714285714287e+00	 1.052273594680631e+01
0	 3.571428571428572e+00	 2.428571428571429e+00	 1.050054326249046e+01
0	 3.571428571428573e+00	 2.571428571428573e+00	 1.046778514115687e+01
0	 3.571428571428573e+00	 2.714285714285715e+00	 1.042445352955023e+01
0	 3.571428571428572e+00	 2.857142857142857e+00	 1.037054037441515e+01
0	 3.714285714285715e+00	 1.428571428571428e+00	 1.042581793329073e+01
0	 3.714285714285715e+00	 1.571428571428572e+00	 1.045223995650201e+01
0	 3.714285714285714e+00	 1.714285714285715e+00	 1.047053888639062e+01
0	 3.714285714285715e+00	 1.857142857142857e+00	 1.048085661289588e+01
0	 3.714285714285715e+00	 2.000000000000000e+00	 1.048333502595712e+01
0	 3.714285714285715e+00	 2.142857142857143e+00	 1.047811601551366e+01
0	 3.714285714285714e+00	 2.285714285714286e+00	 1.046534147150479e+01
0	 3.714285714285715e+00	 2.428571428571429e+00	 1.044515328386985e+01
0	 3.714285714285715e+00	 2.571428571428573e+00	 1.041769334254815e+01
0	 3.714285714285715e+00	 2.714285714285714e+00	 1.038310353747902e+01
0	 3.714285714285716e+00	 2.857142857142858e+00	 1.034152575860176e+01
0	 3.857142857142857e+00	 1.428571428571429e+00	 1.041287679977184e+01
0	 3.857142857142859e+00	 1.571428571428572e+00	 1.042366198771530e+01
0	 3.857142857142858e+00	 1.714285714285714e+00	 1.042914473155007e+01
0	 3.857142857142858e+00	 1.857142857142858e+00	 1.042956130546512e+01
0	 3.857142857142859e+00	 2.000000000000001e+00	 1.042514798364947e+01
0	 3.857142857142858e+00	 2.142857142857143e+00	 1.041614104029207e+01
0	 3.857142857142859e+00	 2.285714285714286e+00	 1.040277674958194e+01
0	 3.857142857142859e+00	 2.428571428571430e+00	 1.038529138570808e+01
0	 3.857142857142857e+00	 2.571428571428572e+00	 1.036392122285947e+01
0	 3.857142857142859e+00	 2.714285714285714e+00	 1.033890253522511e+01
0	 3.857142857142858e+00	 2.857142857142858e+00	 1.031047159699400e+01
0	 4.000000000000001e+00	 1.428571428571428e+00	 1.039507863671673e+01
0	 4.000000000000000e+00	 1.571428571428571e+00	 1.039085232195342e+01
0	 4.000000000000002e+00	 1.714285714285715e+00	 1.038427698339382e+01
0	 4.000000000000001e+00	 1.857142857142858e+00	 1.037562772053161e+01
0	 4.000000000000001e+00	 2.000000000000001e+00	 1.036517963286048e+01
0	 4.000000000000000e+00	 2.142857142857143e+00	 1.035320781987408e+01
0	 4.000000000000001e+00	 2.285714285714286e+00	 1.033998738106613e+01
0	 4.000000000000001e+00	 2.428571428571429e+00	 1.032579341593028e+01
0	 4.000000000000002e+00	 2.571428571428573e+00	 1.031090102396022e+01
0	 4.000000000000002e+00	 2.714285714285715e+00	 1.029558530464961e+01
0	 4.000000000000001e+00	 2.857142857142858e+00	 1.028012135749216e+01
0	 4.142857142857143e+00	 1.428571428571428e+00	 1.037185662377005e+01
0	 4.142857142857144e+00	 1.571428571428571e+00	 1.035489751047289e+01
0	 4.142857142857144e+00	 1.714285714285714e+00	 1.033838171083782e+01
0	 4.142857142857142e+00	 1.857142857142857e+00	 1.032256759071819e+01
0	 4.142857142857144e+00	 2.000000000000000e+00	 1.030771351596738e+01
0	 4.142857142857143e+00	 2.142857142857143e+00	 1.029407785243875e+01
0	 4.142857142857143e+00	 2.285714285714286e+00	 1.028191896598570e+01
0	 4.142857142857145e+00	 2.428571428571429e+00	 1.027149522246157e+01
0	 4.142857142857144e+00	 2.571428571428573e+00	 1.026306498771977e+01
0	 4.142857142857144e+00	 2.714285714285715e+00	 1.025688662761364e+01
0	 4.142857142857143e+00	 2.857142857142858e+00	 1.025321850799656e+01
0	 4.285714285714287e+00	 1.428571428571429e+00	 1.034264394057643e+01
0	 4.285714285714285e+00	 1.571428571428571e+00	 1.031688410453032e+01
0	 4.285714285714286e+00	 1.714285714285715e+00	 1.029390498279806e+01
0	 4.285714285714286e+00	 1.857142857142857e+00	 1.027389264864772e+01
0	 4.285714285714286e+00	 2.000000000000001e+00	 1.025703317534738e+01
0	 4.285714285714285e+00	 2.142857142857143e+00	 1.024351263616511e+01
0	 4.285714285714286e+00	 2.285714285714286e+00	 1.023351710436900e+01
0	 4.285714285714286e+00	 2.428571428571429e+00	 1.022723265322710e+01
0	 4.285714285714286e+00	 2.571428571428573e+00	 1.022484535600751e+01
0	 4.285714285714286e+00	 2.714285714285715e+00	 1.022654128597830e+01
0	 4.285714285714287e+00	 2.857142857142858e+00	 1.023250651640753e+01
0	 2.857142857142858e+00	 2.857142857142857e+00	 1.038899889005548e+01
0	 2.857142857142858e+00	 3.000000000000000e+00	 1.031418302800565e+01
0	 2.857142857142858e+00	 3.142857142857143e+00	 1.024702025698879e+01
0	 2.857142857142857e+00	 3.285714285714286e+00	 1.018788209824753e+01
0	 2.857142857142858e+00	 3.428571428571429e+00	 1.013714007302449e+01
0	 2.857142857142857e+00	 3.571428571428572e+00	 1.009516570256233e+01
0	 2.857142857142858e+00	 3.714285714285716e+00	 1.006233050810366e+01
0	 2.857142857142858e+00	 3.857142857142858e+00	 1.003900601089113e+01
0	 2.857142857142857e+00	 4.000000000000001e+00	 1.002556373216738e+01
0	 2.857142857142857e+00	 4.142857142857142e+00	 1.002237519317502e+01
0	 2.857142857142858e+00	 4.285714285714286e+00	 1.002981191515671e+01
0	 3.000000000000001e+00	 2.857142857142858e+00	 1.041133402171867e+01
0	 3.000000000000000e+00	 3.000000000000001e+00	 1.033071000378355e+01
0	 3.000000000000001e+00	 3.142857142857143e+00	 1.025957931504280e+01
0	 3.000000000000000e+00	 3.285714285714286e+00	 1.019806356373507e+01
0	 3.000000000000001e+00	 3.428571428571429e+00	 1.014628435809903e+01
0	 3.000000000000000e+00	 3.571428571428570e+00	 1.010436330637333e+01
0	 3.000000000000001e+00	 3.714285714285714e+00	 1.007242201679664e+01
0	 3.000000000000001e+00	 3.857142857142858e+00	 1.005058209760762e+01
0	 3.000000000000002e+00	 4.000000000000001e+00	 1.003896515704493e+01
0	 3.000000000000001e+00	 4.142857142857143e+00	 1.003769280334722e+01
0	 3.000000000000001e+00	 4.285714285714286e+00	 1.004688664475316e+01
0	 3.142857142857143e+00	 2.857142857142858e+00	 1.041791226808592e+01
0	 3.142857142857144e+00	 3.000000000000001e+00	 1.033742160788407e+01
0	 3.142857142857144e+00	 3.142857142857144e+00	 1.026722474508598e+01
0	 3.142857142857143e+00	 3.285714285714285e+00	 1.020723485765513e+01
0	 3.142857142857143e+00	 3.428571428571429e+00	 1.015736512355501e+01
0	 3.142857142857143e+00	 3.571428571428572e+00	 1.011752872074910e+01
0	 3.142857142857143e+00	 3.714285714285714e+00	 1.008763882720087e+01
0	 3.142857142857144e+00	 3.857142857142858e+00	 1.006760862087381e+01
0	 3.142857142857144e+00	 4.000000000000000e+00	 1.005735127973139e+01
0	 3.142857142857144e+00	 4.142857142857143e+00	 1.005677998173711e+01
0	 3.142857142857142e+00	 4.285714285714287e+00	 1.006580790485442e+01
0	 3.285714285714286e+00	 2.857142857142857e+00	 1.041147709705754e+01
0	 3.285714285714286e+00	 3.000000000000001e+00	 1.033600147246640e+01
0	 3.285714285714286e+00	 3.142857142857143e+00	 1.027073715392832e+01
0	 3.285714285714286e+00	 3.285714285714286e+00	 1.021543037186041e+01
0	 3.285714285714285e+00	 3.428571428571429e+00	 1.016982735667973e+01
0	 3.285714285714286e+00	 3.571428571428573e+00	 1.013367433880342e+01
0	 3.285714285714285e+00	 3.714285714285714e+00	 1.010671754864854e+01
0	 3.285714285714286e+00	 3.857142857142858e+00	 1.008870321663221e+01
0	 3.285714285714286e+00	 4.000000000000000e+00	 1.007937757317150e+01
0	 3.285714285714286e+00	 4.142857142857144e+00	 1.007848684868352e+01
0	 3.285714285714286e+00	 4.285714285714286e+00	 1.008577727358536e+01
0	 3.428571428571429e+00	 2.857142857142858e+00	 1.039477197653385e+01
0	 3.428571428571430e+00	 3.000000000000001e+00	 1.032813322968976e+01
0	 3.428571428571429e+00	 3.142857142857144e+00	 1.027089714837983e+01
0	 3.428571428571429e+00	 3.285714285714286e+00	 1.022268449820358e+01
0	 3.428571428571430e+00	 3.428571428571429e+00	 1.018311604476050e+01
0	 3.428571428571430e+00	 3.571428571428573e+00	 1.015181255365009e+01
0	 3.428571428571429e+00	 3.714285714285714e+00	 1.012839479047187e+01
0	 3.428571428571428e+00	 3.857142857142856e+00	 1.011248352082532e+01
0	 3.428571428571429e+00	 4.000000000000000e+00	 1.010369951030996e+01
0	 3.428571428571430e+00	 4.142857142857145e+00	 1.010166352452530e+01
0	 3.428571428571429e+00	 4.285714285714286e+00	 1.010599632907082e+01
0	 3.571428571428572e+00	 2.857142857142857e+00	 1.037054037441515e+01
0	 3.571428571428572e+00	 3.000000000000000e+00	 1.031550051171334e+01
0	 3.571428571428571e+00	 3.142857142857142e+00	 1.026848533525050e+01
0	 3.571428571428573e+00	 3.285714285714286e+00	 1.022903162853735e+01
0	 3.571428571428572e+00	 3.428571428571429e+00	 1.019667617508459e+01
0	 3.571428571428571e+00	 3.571428571428572e+00	 1.017095575840292e+01
0	 3.571428571428573e+00	 3.714285714285715e+00	 1.015140716200305e+01
0	 3.571428571428573e+00	 3.857142857142858e+00	 1.013756716939568e+01
0	 3.571428571428572e+00	 4.000000000000001e+00	 1.012897256409152e+01
0	 3.571428571428573e+00	 4.142857142857142e+00	 1.012516012960128e+01
0	 3.571428571428572e+00	 4.285714285714286e+00	 1.012566664943567e+01
0	 3.714285714285716e+00	 2.857142857142858e+00	 1.034152575860176e+01
0	 3.714285714285715e+00	 3.000000000000000e+00	 1.029978695069635e+01
0	 3.714285714285715e+00	 3.142857142857144e+00	 1.026428232135033e+01
0	 3.714285714285715e+00	 3.285714285714286e+00	 1.023450615471441e+01
0	 3.714285714285716e+00	 3.428571428571429e+00	 1.020995273493930e+01
0	 3.714285714285715e+00	 3.571428571428572e+00	 1.019011634617569e+01
0	 3.714285714285715e+00	 3.714285714285715e+00	 1.017449127257428e+01
0	 3.714285714285715e+00	 3.857142857142858e+00	 1.016257179828579e+01
0	 3.714285714285715e+00	 4.000000000000000e+00	 1.015385220746089e+01
0	 3.714285714285715e+00	 4.142857142857142e+00	 1.014782678425032e+01
0	 3.714285714285715e+00	 4.285714285714286e+00	 1.014398981280477e+01
0	 3.857142857142858e+00	 2.857142857142858e+00	 1.031047159699400e+01
0	 3.857142857142859e+00	 3.000000000000000e+00	 1.028267617879798e+01
0	 3.857142857142858e+00	 3.142857142857144e+00	 1.025906871348932e+01
0	 3.857142857142857e+00	 3.285714285714286e+00	 1.023914246858748e+01
0	 3.857142857142859e+00	 3.428571428571429e+00	 1.022239071161193e+01
0	 3.857142857142859e+00	 3.571428571428574e+00	 1.020830671008221e+01
0	 3.857142857142858e+00	 3.714285714285714e+00	 1.019638373151778e+01
0	 3.857142857142859e+00	 3.857142857142858e+00	 1.018611504343814e+01
0	 3.857142857142857e+00	 4.000000000000000e+00	 1.017699391336280e+01
0	 3.857142857142859e+00	 4.142857142857145e+00	 1.016851360881124e+01
0	 3.857142857142858e+00	 4.285714285714285e+00	 1.016016739730296e+01
0	 4.000000000000001e+00	 2.857142857142858e+00	 1.028012135749216e+01
0	 4.000000000000000e+00	 3.000000000000000e+00	 1.026585182817747e+01
0	 4.000000000000000e+00	 3.142857142857142e+00	 1.025362511847746e+01
0	 4.000000000000001e+00	 3.285714285714285e+00	 1.024297496200921e+01
0	 4.000000000000000e+00	 3.428571428571428e+00	 1.023343509238978e+01
0	 4.000000000000000e+00	 3.571428571428571e+00	 1.022453924323626e+01
0	 4.000000000000000e+00	 3.714285714285714e+00	 1.021582114816573e+01
0	 4.000000000000001e+00	 3.857142857142857e+00	 1.020681454079528e+01
0	 4.000000000000002e+00	 4.000000000000001e+00	 1.019705315474197e+01
0	 4.000000000000001e+00	 4.142857142857143e+00	 1.018607072362288e+01
0	 4.000000000000000e+00	 4.285714285714285e+00	 1.017340098105510e+01
0	 4.142857142857143e+00	 2.857142857142858e+00	 1.025321850799656e+01
0	 4.142857142857144e+00	 3.000000000000000e+00	 1.025099753099400e+01
0	 4.142857142857144e+00	 3.142857142857143e+00	 1.024873214312476e+01
0	 4.142857142857143e+00	 3.285714285714286e+00	 1.024603802683232e+01
0	 4.142857142857145e+00	 3.428571428571430e+00	 1.024253086456013e+01
0	 4.142857142857144e+00	 3.571428571428573e+00	 1.023782633875167e+01
0	 4.142857142857144e+00	 3.714285714285715e+00	 1.023154013185037e+01
0	 4.142857142857144e+00	 3.857142857142858e+00	 1.022328792629970e+01
0	 4.142857142857144e+00	 4.000000000000000e+00	 1.021268540454313e+01
0	 4.142857142857143e+00	 4.142857142857143e+00	 1.019934824902410e+01
0	 4.142857142857143e+00	 4.285714285714286e+00	 1.018289214218608e+01
0	 4.285714285714287e+00	 2.857142857142858e+00	 1.023250651640753e+01
0	 4.285714285714286e+00	 3.000000000000001e+00	 1.023979691940676e+01
0	 4.285714285714286e+00	 3.142857142857143e+00	 1.024517039424121e+01
0	 4.285714285714286e+00	 3.285714285714286e+00	 1.024836605490950e+01
0	 4.285714285714287e+00	 3.428571428571429e+00	 1.024912301541029e+01
0	 4.285714285714286e+00	 3.571428571428572e+00	 1.024718038974220e+01
0	 4.285714285714286e+00	 3.714285714285715e+00	 1.024227729190387e+01
0	 4.285714285714285e+00	 3.857142857142857e+00	 1.023415283589392e+01
0	 4.285714285714286e+00	 4.000000000000001e+00	 1.022254613571099e+01
0	 4.285714285714286e+00	 4.142857142857144e+00	 1.020719630535371e+01
0	 4.285714285714286e+00	 4.285714285714285e+00	 1.018784245882072e+01
0	 2.857142857142858e+00	 4.285714285714286e+00	 1.002981191515671e+01
0	 2.857142857142858e+00	 4.428571428571430e+00	 1.004160308627863e+01
0	 2.857142857142857e+00	 4.571428571428570e+00	 1.005114428654821e+01
0	 2.857142857142857e+00	 4.714285714285714e+00	 1.005830662496994e+01
0	 2.857142857142858e+00	 4.857142857142858e+00	 1.006296121054832e+01
0	 2.857142857142857e+00	 5.000000000000000e+00	 1.006497915228784e+01
0	 2.857142857142857e+00	 5.142857142857143e+00	 1.006423155919299e+01
0	 2.857142857142857e+00	 5.285714285714285e+00	 1.006058954026827e+01
0	 2.857142857142858e+00	 5.428571428571428e+00	 1.005392420451816e+01
0	 2.857142857142858e+00	 5.571428571428569e+00	 1.004410666094717e+01
0	 2.857142857142858e+00	 5.714285714285714e+00	 1.003100801855978e+01
0	 3.000000000000001e+00	 4.285714285714286e+00	 1.004688664475316e+01
0	 3.000000000000000e+00	 4.428571428571431e+00	 1.005987451572307e+01
0	 3.000000000000000e+00	 4.571428571428571e+00	 1.006989636187073e+01
0	 3.000000000000001e+00	 4.714285714285714e+00	 1.007694195816496e+01
0	 3.000000000000001e+00	 4.857142857142858e+00	 1.008100107957461e+01
0	 3.000000000000001e+00	 4.999999999999999e+00	 1.008206350106853e+01
0	 3.000000000000002e+00	 5.142857142857142e+00	 1.008011899761555e+01
0	 3.000000000000001e+00	 5.285714285714286e+00	 1.007515734418452e+01
0	 3.000000000000001e+00	 5.428571428571429e+00	 1.006716831574428e+01
0	 3.000000000000000e+00	 5.571428571428569e+00	 1.005614168726366e+01
0	 3.000000000000001e+00	 5.714285714285716e+00	 1.004206723371150e+01
0	 3.142857142857142e+00	 4.285714285714287e+00	 1.006580790485442e+01
0	 3.142857142857143e+00	 4.428571428571427e+00	 1.007794148237536e+01
0	 3.142857142857144e+00	 4.571428571428572e+00	 1.008680235917825e+01
0	 3.142857142857143e+00	 4.714285714285714e+00	 1.009247653060610e+01
0	 3.142857142857143e+00	 4.857142857142857e+00	 1.009504999200189e+01
0	 3.142857142857144e+00	 5.000000000000001e+00	 1.009460873870860e+01
0	 3.142857142857143e+00	 5.142857142857141e+00	 1.009123876606924e+01
0	 3.142857142857143e+00	 5.285714285714283e+00	 1.008502606942679e+01
0	 3.142857142857144e+00	 5.428571428571427e+00	 1.007605664412424e+01
0	 3.142857142857144e+00	 5.571428571428571e+00	 1.006441648550457e+01
0	 3.142857142857143e+00	 5.714285714285714e+00	 1.005019158891079e+01
0	 3.285714285714286e+00	 4.285714285714286e+00	 1.008577727358536e+01
0	 3.285714285714286e+00	 4.428571428571429e+00	 1.009540544584450e+01
0	 3.285714285714286e+00	 4.571428571428572e+00	 1.010180365656830e+01
0	 3.285714285714286e+00	 4.714285714285714e+00	 1.010513167588372e+01
0	 3.285714285714286e+00	 4.857142857142857e+00	 1.010554927391768e+01
0	 3.285714285714286e+00	 4.999999999999999e+00	 1.010321622079715e+01
0	 3.285714285714286e+00	 5.142857142857142e+00	 1.009829228664904e+01
0	 3.285714285714286e+00	 5.285714285714285e+00	 1.009093724160030e+01
0	 3.285714285714286e+00	 5.428571428571428e+00	 1.008131085577790e+01
0	 3.285714285714286e+00	 5.571428571428569e+00	 1.006957289930875e+01
0	 3.285714285714287e+00	 5.714285714285715e+00	 1.005588314231979e+01
0	 3.428571428571429e+00	 4.285714285714286e+00	 1.010599632907082e+01
0	 3.428571428571431e+00	 4.428571428571429e+00	 1.011186786573948e+01
0	 3.428571428571429e+00	 4.571428571428572e+00	 1.011484163213837e+01
0	 3.428571428571429e+00	 4.714285714285713e+00	 1.011512872758816e+01
0	 3.428571428571429e+00	 4.857142857142857e+00	 1.011294025140957e+01
0	 3.428571428571430e+00	 5.000000000000001e+00	 1.010848730292327e+01
0	 3.428571428571429e+00	 5.142857142857142e+00	 1.010198098144997e+01
0	 3.428571428571429e+00	 5.285714285714283e+00	 1.009363238631037e+01
0	 3.428571428571429e+00	 5.428571428571426e+00	 1.008365261682514e+01
0	 3.428571428571430e+00	 5.571428571428570e+00	 1.007225277231501e+01
0	 3.428571428571429e+00	 5.714285714285714e+00	 1.005964395210063e+01
0	 3.571428571428572e+00	 4.285714285714286e+00	 1.012566664943567e+01
0	 3.571428571428571e+00	 4.428571428571428e+00	 1.012693020166933e+01
0	 3.571428571428572e+00	 4.571428571428572e+00	 1.012585766398596e+01
0	 3.571428571428573e+00	 4.714285714285714e+00	 1.012268901930979e+01
0	 3.571428571428572e+00	 4.857142857142857e+00	 1.011766425056508e+01
0	 3.571428571428571e+00	 4.999999999999999e+00	 1.011102334067608e+01
0	 3.571428571428572e+00	 5.142857142857143e+00	 1.010300627256705e+01
0	 3.571428571428573e+00	 5.285714285714285e+00	 1.009385302916221e+01
0	 3.571428571428572e+00	 5.428571428571428e+00	 1.008380359338584e+01
0	 3.571428571428573e+00	 5.571428571428570e+00	 1.007309794816217e+01
0	 3.571428571428571e+00	 5.714285714285713e+00	 1.006197607641545e+01
0	 3.714285714285715e+00	 4.285714285714286e+00	 1.014398981280477e+01
0	 3.714285714285715e+00	 4.428571428571428e+00	 1.014019391324304e+01
0	 3.714285714285715e+00	 4.571428571428571e+00	 1.013479313020856e+01
0	 3.714285714285715e+00	 4.714285714285714e+00	 1.012803388463893e+01
0	 3.714285714285715e+00	 4.857142857142856e+00	 1.012016259747177e+01
0	 3.714285714285715e+00	 4.999999999999999e+00	 1.011142568964467e+01
0	 3.714285714285715e+00	 5.142857142857141e+00	 1.010206958209524e+01
0	 3.714285714285714e+00	 5.285714285714285e+00	 1.009234069576110e+01
0	 3.714285714285714e+00	 5.428571428571426e+00	 1.008248545157983e+01
0	 3.714285714285715e+00	 5.571428571428569e+00	 1.007275027048906e+01
0	 3.714285714285715e+00	 5.714285714285714e+00	 1.006338157342639e+01
0	 3.857142857142858e+00	 4.285714285714285e+00	 1.016016739730296e+01
0	 3.857142857142859e+00	 4.428571428571428e+00	 1.015126046006960e+01
0	 3.857142857142858e+00	 4.571428571428571e+00	 1.014158940890368e+01
0	 3.857142857142857e+00	 4.714285714285715e+00	 1.013138465716596e+01
0	 3.857142857142858e+00	 4.857142857142857e+00	 1.012087661821718e+01
0	 3.857142857142859e+00	 5.000000000000000e+00	 1.011029570541814e+01
0	 3.857142857142859e+00	 5.142857142857142e+00	 1.009987233212959e+01
0	 3.857142857142858e+00	 5.285714285714285e+00	 1.008983691171229e+01
0	 3.857142857142859e+00	 5.428571428571427e+00	 1.008041985752701e+01
0	 3.857142857142857e+00	 5.571428571428569e+00	 1.007185158293452e+01
0	 3.857142857142858e+00	 5.714285714285714e+00	 1.006436250129557e+01
0	 4.000000000000000e+00	 4.285714285714285e+00	 1.017340098105510e+01
0	 4.000000000000000e+00	 4.428571428571428e+00	 1.015973130175803e+01
0	 4.000000000000000e+00	 4.571428571428570e+00	 1.014618787816883e+01
0	 4.000000000000002e+00	 4.714285714285714e+00	 1.013296267048120e+01
0	 4.000000000000000e+00	 4.857142857142858e+00	 1.012024763888888e+01
0	 4.000000000000000e+00	 5.000000000000000e+00	 1.010823474358561e+01
0	 4.000000000000001e+00	 5.142857142857144e+00	 1.009711594476508e+01
0	 4.000000000000000e+00	 5.285714285714284e+00	 1.008708320262105e+01
0	 4.000000000000001e+00	 5.428571428571427e+00	 1.007832847734723e+01
0	 4.000000000000002e+00	 5.571428571428569e+00	 1.007104372913735e+01
0	 4.000000000000000e+00	 5.714285714285714e+00	 1.006542091818514e+01
0	 4.142857142857143e+00	 4.285714285714286e+00	 1.018289214218608e+01
0	 4.142857142857143e+00	 4.428571428571429e+00	 1.016520789791733e+01
0	 4.142857142857143e+00	 4.571428571428570e+00	 1.014852991610148e+01
0	 4.142857142857143e+00	 4.714285714285714e+00	 1.013298925817500e+01
0	 4.142857142857144e+00	 4.857142857142856e+00	 1.011871698557440e+01
0	 4.142857142857142e+00	 4.999999999999999e+00	 1.010584415973614e+01
0	 4.142857142857144e+00	 5.142857142857141e+00	 1.009450184209673e+01
0	 4.142857142857143e+00	 5.285714285714285e+00	 1.008482109409264e+01
0	 4.142857142857142e+00	 5.428571428571425e+00	 1.007693297716038e+01
0	 4.142857142857143e+00	 5.571428571428569e+00	 1.007096855273640e+01
0	 4.142857142857144e+00	 5.714285714285714e+00	 1.006705888225723e+01
0	 4.285714285714286e+00	 4.285714285714285e+00	 1.018784245882072e+01
0	 4.285714285714286e+00	 4.428571428571429e+00	 1.016729170815650e+01
0	 4.285714285714285e+00	 4.571428571428570e+00	 1.014855690079915e+01
0	 4.285714285714286e+00	 4.714285714285714e+00	 1.013168575383773e+01
0	 4.285714285714287e+00	 4.857142857142857e+00	 1.011672598436128e+01
0	 4.285714285714286e+00	 4.999999999999999e+00	 1.010372530945886e+01
0	 4.285714285714286e+00	 5.142857142857143e+00	 1.009273144621952e+01
0	 4.285714285714286e+00	 5.285714285714284e+00	 1.008379211173231e+01
0	 4.285714285714285e+00	 5.428571428571426e+00	 1.007695502308628e+01
0	 4.285714285714286e+00	 5.571428571428570e+00	 1.007226789737049e+01
0	 4.285714285714286e+00	 5.714285714285714e+00	 1.006977845167397e+01
0	 2.857142857142858e+00	 5.714285714285714e+00	 1.003100801855978e+01
0	 2.857142857142858e+00	 5.857142857142855e+00	 1.001714061975712e+01
0	 2.857142857142857e+00	 5.999999999999999e+00	 1.000513819139086e+01
0	 2.857142857142858e+00	 6.142857142857142e+00	 9.995053919141236e+00
0	 2.857142857142857e+00	 6.285714285714285e+00	 9.986940988688524e+00
0	 2.857142857142857e+00	 6.428571428571425e+00	 9.980852585712984e+00
0	 2.857142857142857e+00	 6.571428571428569e+00	 9.976841895894873e+00
0	 2.857142857142858e+00	 6.714285714285711e+00	 9.974962104914468e+00
0	 2.857142857142857e+00	 6.857142857142854e+00	 9.975266398452014e+00
0	 2.857142857142857e+00	 6.999999999999997e+00	 9.977807962187786e+00
0	 2.857142857142857e+00	 7.142857142857143e+00	 9.982639981802034e+00
0	 3.000000000000001e+00	 5.714285714285716e+00	 1.004206723371150e+01
0	 3.000000000000001e+00	 5.857142857142857e+00	 1.002750043816200e+01
0	 3.000000000000001e+00	 5.999999999999999e+00	 1.001499874688728e+01
0	 3.000000000000001e+00	 6.142857142857142e+00	 1.000455487965311e+01
0	 3.000000000000002e+00	 6.285714285714284e+00	 9.996161556225253e+00
0	 3.000000000000001e+00	 6.428571428571424e+00	 9.989811496369466e+00
0	 3.000000000000001e+00	 6.571428571428569e+00	 9.985497419851523e+00
0	 3.000000000000001e+00	 6.714285714285713e+00	 9.983212046437178e+00
0	 3.000000000000000e+00	 6.857142857142853e+00	 9.982948095892182e+00
0	 3.000000000000000e+00	 6.999999999999996e+00	 9.984698287982329e+00
0	 3.000000000000000e+00	 7.142857142857143e+00	 9.988455342473355e+00
0	 3.142857142857143e+00	 5.714285714285714e+00	 1.005019158891079e+01
0	 3.142857142857144e+00	 5.857142857142857e+00	 1.003578100141283e+01
0	 3.142857142857143e+00	 5.999999999999998e+00	 1.002348912213738e+01
0	 3.142857142857144e+00	 6.142857142857141e+00	 1.001325997451254e+01
0	 3.142857142857143e+00	 6.285714285714284e+00	 1.000503758196643e+01
0	 3.142857142857143e+00	 6.428571428571428e+00	 9.998765967927120e+00
0	 3.142857142857143e+00	 6.571428571428569e+00	 9.994389155822747e+00
0	 3.142857142857143e+00	 6.714285714285712e+00	 9.991851169081412e+00
0	 3.142857142857144e+00	 6.857142857142853e+00	 9.991096031131216e+00
0	 3.142857142857144e+00	 6.999999999999996e+00	 9.992067765400272e+00
0	 3.142857142857143e+00	 7.142857142857144e+00	 9.994710395316671e+00
0	 3.285714285714287e+00	 5.714285714285715e+00	 1.005588314231979e+01
0	 3.285714285714286e+00	 5.857142857142857e+00	 1.004232465804987e+01
0	 3.285714285714286e+00	 5.999999999999998e+00	 1.003081207076471e+01
0	 3.285714285714286e+00	 6.142857142857142e+00	 1.002125247713158e+01
0	 3.285714285714285e+00	 6.285714285714282e+00	 1.001355297381779e+01
0	 3.285714285714286e+00	 6.428571428571427e+00	 1.000762065749063e+01
0	 3.285714285714286e+00	 6.571428571428570e+00	 1.000336262481739e+01
0	 3.285714285714285e+00	 6.714285714285710e+00	 1.000068597246538e+01
0	 3.285714285714286e+00	 6.857142857142854e+00	 9.999497797101853e+00
0	 3.285714285714286e+00	 6.999999999999996e+00	 9.999705195394121e+00
0	 3.285714285714286e+00	 7.142857142857145e+00	 1.000121526400948e+01
0	 3.428571428571429e+00	 5.714285714285714e+00	 1.005964395210063e+01
0	 3.428571428571430e+00	 5.857142857142856e+00	 1.004747375661332e+01
0	 3.428571428571429e+00	 5.999999999999999e+00	 1.003717034639275e+01
0	 3.428571428571429e+00	 6.142857142857140e+00	 1.002861566092224e+01
0	 3.428571428571427e+00	 6.285714285714281e+00	 1.002169163968511e+01
0	 3.428571428571429e+00	 6.428571428571425e+00	 1.001628022216469e+01
0	 3.428571428571429e+00	 6.571428571428569e+00	 1.001226334784429e+01
0	 3.428571428571429e+00	 6.714285714285711e+00	 1.000952295620722e+01
0	 3.428571428571429e+00	 6.857142857142854e+00	 1.000794098673683e+01
0	 3.428571428571430e+00	 6.999999999999997e+00	 1.000739937891640e+01
0	 3.428571428571429e+00	 7.142857142857146e+00	 1.000778007222928e+01
0	 3.571428571428571e+00	 5.714285714285713e+00	 1.006197607641545e+01
0	 3.571428571428572e+00	 5.857142857142856e+00	 1.005157064564341e+01
0	 3.571428571428571e+00	 5.999999999999998e+00	 1.004276670264505e+01
0	 3.571428571428573e+00	 6.142857142857141e+00	 1.003543279929658e+01
0	 3.571428571428572e+00	 6.285714285714284e+00	 1.002943748747416e+01
0	 3.571428571428572e+00	 6.428571428571426e+00	 1.002464931905400e+01
0	 3.571428571428572e+00	 6.571428571428567e+00	 1.002093684591228e+01
0	 3.571428571428571e+00	 6.714285714285710e+00	 1.001816861992518e+01
0	 3.571428571428572e+00	 6.857142857142854e+00	 1.001621319296891e+01
0	 3.571428571428571e+00	 6.999999999999995e+00	 1.001493911691963e+01
0	 3.571428571428572e+00	 7.142857142857145e+00	 1.001421494365356e+01
0	 3.714285714285715e+00	 5.714285714285714e+00	 1.006338157342638e+01
0	 3.714285714285715e+00	 5.857142857142855e+00	 1.005495767368038e+01
0	 3.714285714285714e+00	 5.999999999999999e+00	 1.004780389314516e+01
0	 3.714285714285716e+00	 6.142857142857141e+00	 1.004178716566664e+01
0	 3.714285714285715e+00	 6.285714285714285e+00	 1.003677442509069e+01
0	 3.714285714285714e+00	 6.428571428571426e+00	 1.003263260526323e+01
0	 3.714285714285715e+00	 6.571428571428568e+00	 1.002922864003017e+01
0	 3.714285714285714e+00	 6.714285714285711e+00	 1.002642946323740e+01
0	 3.714285714285715e+00	 6.857142857142855e+00	 1.002410200873081e+01
0	 3.714285714285715e+00	 6.999999999999996e+00	 1.002211321035631e+01
0	 3.714285714285715e+00	 7.142857142857144e+00	 1.002033000195981e+01
0	 3.857142857142858e+00	 5.714285714285714e+00	 1.006436250129557e+01
0	 3.857142857142858e+00	 5.857142857142856e+00	 1.005797718926445e+01
0	 3.857142857142859e+00	 6.000000000000000e+00	 1.005248467151659e+01
0	 3.857142857142858e+00	 6.142857142857141e+00	 1.004776203344445e+01
0	 3.857142857142858e+00	 6.285714285714284e+00	 1.004368636044046e+01
0	 3.857142857142857e+00	 6.428571428571425e+00	 1.004013473789710e+01
0	 3.857142857142858e+00	 6.571428571428569e+00	 1.003698425120681e+01
0	 3.857142857142858e+00	 6.714285714285710e+00	 1.003411198576206e+01
0	 3.857142857142858e+00	 6.857142857142853e+00	 1.003139502695528e+01
0	 3.857142857142858e+00	 6.999999999999995e+00	 1.002871046017897e+01
0	 3.857142857142858e+00	 7.142857142857143e+00	 1.002593537082554e+01
0	 4.000000000000000e+00	 5.714285714285714e+00	 1.006542091818514e+01
0	 4.000000000000000e+00	 5.857142857142856e+00	 1.006097154093585e+01
0	 4.000000000000000e+00	 5.999999999999999e+00	 1.005701179138287e+01
0	 4.000000000000000e+00	 6.142857142857141e+00	 1.005344067604206e+01
0	 4.000000000000001e+00	 6.285714285714285e+00	 1.005015720142923e+01
0	 4.000000000000001e+00	 6.428571428571427e+00	 1.004706037406028e+01
0	 4.000000000000002e+00	 6.571428571428569e+00	 1.004404920045103e+01
0	 4.000000000000001e+00	 6.714285714285710e+00	 1.004102268711736e+01
0	 4.000000000000001e+00	 6.857142857142852e+00	 1.003787984057508e+01
0	 4.000000000000000e+00	 6.999999999999995e+00	 1.003451966734008e+01
0	 4.000000000000001e+00	 7.142857142857142e+00	 1.003084117392822e+01
0	 4.142857142857144e+00	 5.714285714285714e+00	 1.006705888225723e+01
0	 4.142857142857143e+00	 5.857142857142857e+00	 1.006428307723481e+01
0	 4.142857142857144e+00	 6.000000000000001e+00	 1.006158800636754e+01
0	 4.142857142857142e+00	 6.142857142857141e+00	 1.005890636687149e+01
0	 4.142857142857144e+00	 6.285714285714285e+00	 1.005617085596278e+01
0	 4.142857142857144e+00	 6.428571428571426e+00	 1.005331417085747e+01
0	 4.142857142857143e+00	 6.571428571428569e+00	 1.005026900877167e+01
0	 4.142857142857143e+00	 6.714285714285710e+00	 1.004696806692147e+01
0	 4.142857142857143e+00	 6.857142857142852e+00	 1.004334404252296e+01
0	 4.142857142857143e+00	 6.999999999999995e+00	 1.003932963279222e+01
0	 4.142857142857143e+00	 7.142857142857144e+00	 1.003485753494536e+01
0	 4.285714285714286e+00	 5.714285714285714e+00	 1.006977845167397e+01
0	 4.285714285714286e+00	 5.857142857142856e+00	 1.006825414670156e+01
0	 4.285714285714286e+00	 5.999999999999999e+00	 1.006641607009411e+01
0	 4.285714285714286e+00	 6.142857142857141e+00	 1.006424237934481e+01
0	 4.285714285714286e+00	 6.285714285714284e+00	 1.006171123194684e+01
0	 4.285714285714286e+00	 6.428571428571424e+00	 1.005880078539336e+01
0	 4.285714285714287e+00	 6.571428571428569e+00	 1.005548919717754e+01
0	 4.285714285714286e+00	 6.714285714285711e+00	 1.005175462479258e+01
0	 4.285714285714286e+00	 6.857142857142851e+00	 1.004757522573162e+01
0	 4.285714285714287e+00	 6.999999999999996e+00	 1.004292915748785e+01
0	 4.285714285714286e+00	 7.142857142857141e+00	 1.003779457755445e+01
0	 2.857142857142857e+00	 7.142857142857143e+00	 9.982639981802034e+00
0	 2.857142857142857e+00	 7.285714285714285e+00	 9.988129364489527e+00
0	 2.857142857142857e+00	 7.428571428571429e+00	 9.992640450559492e+00
0	 2.857142857142857e+00	 7.571428571428571e+00	 9.996222575363987e+00
0	 2.857142857142857e+00	 7.714285714285714e+00	 9.998925074255018e+00
0	 2.857142857142857e+00	 7.857142857142854e+00	 1.000079728258460e+01
0	 2.857142857142858e+00	 7.999999999999999e+00	 1.000188853570477e+01
0	 2.857142857142858e+00	 8.142857142857142e+00	 1.000224816896751e+01
0	 2.857142857142858e+00	 8.285714285714283e+00	 1.000192551772488e+01
0	 2.857142857142858e+00	 8.428571428571425e+00	 1.000096991732890e+01
0	 2.857142857142858e+00	 8.571428571428575e+00	 9.999430703131583e+00
0	 3.000000000000000e+00	 7.142857142857143e+00	 9.988455342473355e+00
0	 3.000000000000000e+00	 7.285714285714286e+00	 9.992766579869246e+00
0	 3.000000000000001e+00	 7.428571428571431e+00	 9.996226556463698e+00
0	 3.000000000000000e+00	 7.571428571428572e+00	 9.998898845707091e+00
0	 3.000000000000000e+00	 7.714285714285713e+00	 1.000084702104978e+01
0	 3.000000000000001e+00	 7.857142857142856e+00	 1.000213465594214e+01
0	 3.000000000000001e+00	 7.999999999999998e+00	 1.000282532383453e+01
0	 3.000000000000000e+00	 8.142857142857144e+00	 1.000298259817731e+01
0	 3.000000000000000e+00	 8.285714285714285e+00	 1.000267005242086e+01
0	 3.000000000000000e+00	 8.428571428571427e+00	 1.000195126001553e+01
0	 3.000000000000000e+00	 8.571428571428575e+00	 1.000088979441169e+01
0	 3.142857142857143e+00	 7.142857142857144e+00	 9.994710395316673e+00
0	 3.142857142857142e+00	 7.285714285714286e+00	 9.997787741990726e+00
0	 3.142857142857143e+00	 7.428571428571429e+00	 1.000014987117879e+01
0	 3.142857142857143e+00	 7.571428571428570e+00	 1.000187017327806e+01
0	 3.142857142857143e+00	 7.714285714285716e+00	 1.000302203868571e+01
0	 3.142857142857143e+00	 7.857142857142857e+00	 1.000367885779895e+01
0	 3.142857142857144e+00	 7.999999999999998e+00	 1.000391402101498e+01
0	 3.142857142857144e+00	 8.142857142857142e+00	 1.000380091873098e+01
0	 3.142857142857143e+00	 8.285714285714285e+00	 1.000341294134415e+01
0	 3.142857142857145e+00	 8.428571428571429e+00	 1.000282347925167e+01
0	 3.142857142857143e+00	 8.571428571428573e+00	 1.000210592285075e+01
0	 3.285714285714286e+00	 7.142857142857145e+00	 1.000121526400948e+01
0	 3.285714285714286e+00	 7.285714285714287e+00	 1.000303352385164e+01
0	 3.285714285714286e+00	 7.428571428571428e+00	 1.000427995550782e+01
0	 3.285714285714286e+00	 7.571428571428573e+00	 1.000503334517050e+01
0	 3.285714285714286e+00	 7.714285714285714e+00	 1.000537247903220e+01
0	 3.285714285714286e+00	 7.857142857142856e+00	 1.000537614328544e+01
0	 3.285714285714286e+00	 7.999999999999999e+00	 1.000512312412269e+01
0	 3.285714285714286e+00	 8.142857142857141e+00	 1.000469220773646e+01
0	 3.285714285714286e+00	 8.285714285714281e+00	 1.000416218031929e+01
0	 3.285714285714286e+00	 8.428571428571429e+00	 1.000361182806364e+01
0	 3.285714285714286e+00	 8.571428571428575e+00	 1.000311993716205e+01
0	 3.428571428571429e+00	 7.142857142857146e+00	 1.000778007222928e+01
0	 3.428571428571429e+00	 7.285714285714285e+00	 1.000834459844969e+01
0	 3.428571428571427e+00	 7.428571428571426e+00	 1.000848637025388e+01
0	 3.428571428571429e+00	 7.571428571428569e+00	 1.000828514847812e+01
0	 3.428571428571429e+00	 7.714285714285714e+00	 1.000782069395872e+01
0	 3.428571428571428e+00	 7.857142857142855e+00	 1.000717276753200e+01
0	 3.428571428571430e+00	 8.000000000000002e+00	 1.000642113003423e+01
0	 3.428571428571430e+00	 8.142857142857141e+00	 1.000564554230174e+01
0	 3.428571428571429e+00	 8.285714285714283e+00	 1.000492576517082e+01
0	 3.428571428571430e+00	 8.428571428571429e+00	 1.000434155947775e+01
0	 3.428571428571429e+00	 8.571428571428573e+00	 1.000397268605888e+01
0	 3.571428571428572e+00	 7.142857142857145e+00	 1.001421494365356e+01
0	 3.571428571428573e+00	 7.285714285714286e+00	 1.001356163878253e+01
0	 3.571428571428572e+00	 7.428571428571429e+00	 1.001263867621999e+01
0	 3.571428571428573e+00	 7.571428571428571e+00	 1.001152237029450e+01
0	 3.571428571428572e+00	 7.714285714285714e+00	 1.001028903533466e+01
0	 3.571428571428572e+00	 7.857142857142857e+00	 1.000901498566903e+01
0	 3.571428571428571e+00	 7.999999999999996e+00	 1.000777653562622e+01
0	 3.571428571428572e+00	 8.142857142857141e+00	 1.000664999953478e+01
0	 3.571428571428573e+00	 8.285714285714286e+00	 1.000571169172330e+01
0	 3.571428571428573e+00	 8.428571428571427e+00	 1.000503792652035e+01
0	 3.571428571428572e+00	 8.571428571428571e+00	 1.000470501825451e+01
0	 3.714285714285715e+00	 7.142857142857144e+00	 1.002033000195981e+01
0	 3.714285714285715e+00	 7.285714285714286e+00	 1.001852531784785e+01
0	 3.714285714285715e+00	 7.428571428571426e+00	 1.001660643420924e+01
0	 3.714285714285715e+00	 7.571428571428571e+00	 1.001464179771333e+01
0	 3.714285714285716e+00	 7.714285714285713e+00	 1.001269985502947e+01
0	 3.714285714285716e+00	 7.857142857142857e+00	 1.001084905282698e+01
0	 3.714285714285715e+00	 7.999999999999998e+00	 1.000915783777523e+01
0	 3.714285714285715e+00	 8.142857142857141e+00	 1.000769465654355e+01
0	 3.714285714285715e+00	 8.285714285714285e+00	 1.000652795580126e+01
0	 3.714285714285715e+00	 8.428571428571425e+00	 1.000572618221772e+01
0	 3.714285714285714e+00	 8.571428571428573e+00	 1.000535778246227e+01
0	 3.857142857142858e+00	 7.142857142857143e+00	 1.002593537082554e+01
0	 3.857142857142858e+00	 7.285714285714286e+00	 1.002307630864332e+01
0	 3.857142857142857e+00	 7.428571428571427e+00	 1.002025920502468e+01
0	 3.857142857142858e+00	 7.571428571428569e+00	 1.001754021782824e+01
0	 3.857142857142859e+00	 7.714285714285714e+00	 1.001497550491256e+01
0	 3.857142857142859e+00	 7.857142857142856e+00	 1.001262122413624e+01
0	 3.857142857142858e+00	 7.999999999999998e+00	 1.001053353335785e+01
0	 3.857142857142858e+00	 8.142857142857142e+00	 1.000876859043598e+01
0	 3.857142857142858e+00	 8.285714285714285e+00	 1.000738255322924e+01
0	 3.857142857142858e+00	 8.428571428571425e+00	 1.000643157959619e+01
0	 3.857142857142858e+00	 8.571428571428573e+00	 1.000597182739544e+01
0	 4.000000000000001e+00	 7.142857142857142e+00	 1.003084117392822e+01
0	 4.000000000000000e+00	 7.285714285714286e+00	 1.002705528416661e+01
0	 4.000000000000002e+00	 7.428571428571430e+00	 1.002346654946939e+01
0	 4.000000000000001e+00	 7.571428571428570e+00	 1.002011441773286e+01
0	 4.000000000000001e+00	 7.714285714285714e+00	 1.001703833685336e+01
0	 4.000000000000002e+00	 7.857142857142857e+00	 1.001427775472718e+01
0	 4.000000000000001e+00	 7.999999999999999e+00	 1.001187211925065e+01
0	 4.000000000000001e+00	 8.142857142857142e+00	 1.000986087832008e+01
0	 4.000000000000001e+00	 8.285714285714285e+00	 1.000828347983179e+01
0	 4.000000000000002e+00	 8.428571428571425e+00	 1.000717937168210e+01
0	 4.000000000000001e+00	 8.571428571428571e+00	 1.000658800176732e+01
0	 4.142857142857143e+00	 7.142857142857144e+00	 1.003485753494536e+01
0	 4.142857142857144e+00	 7.285714285714286e+00	 1.003030291741543e+01
0	 4.142857142857144e+00	 7.428571428571430e+00	 1.002609802834642e+01
0	 4.142857142857142e+00	 7.571428571428570e+00	 1.002226118452086e+01
0	 4.142857142857144e+00	 7.714285714285714e+00	 1.001881070272130e+01
0	 4.142857142857145e+00	 7.857142857142856e+00	 1.001576489973025e+01
0	 4.142857142857144e+00	 7.999999999999998e+00	 1.001314209233023e+01
0	 4.142857142857144e+00	 8.142857142857141e+00	 1.001096059730379e+01
0	 4.142857142857144e+00	 8.285714285714283e+00	 1.000923873143346e+01
0	 4.142857142857144e+00	 8.428571428571427e+00	 1.000799481150175e+01
0	 4.142857142857144e+00	 8.571428571428573e+00	 1.000724715429120e+01
0	 4.285714285714286e+00	 7.142857142857141e+00	 1.003779457755445e+01
0	 4.285714285714286e+00	 7.285714285714285e+00	 1.003265988138742e+01
0	 4.285714285714287e+00	 7.428571428571428e+00	 1.002802320245882e+01
0	 4.285714285714286e+00	 7.571428571428572e+00	 1.002387730528588e+01
0	 4.285714285714286e+00	 7.714285714285715e+00	 1.002021495438580e+01
0	 4.285714285714286e+00	 7.857142857142855e+00	 1.001702891427583e+01
0	 4.285714285714286e+00	 8.000000000000000e+00	 1.001431194947319e+01
0	 4.285714285714286e+00	 8.142857142857141e+00	 1.001205682449510e+01
0	 4.285714285714286e+00	 8.285714285714281e+00	 1.001025630385878e+01
0	 4.285714285714286e+00	 8.428571428571423e+00	 1.000890315208146e+01
0	 4.285714285714286e+00	 8.571428571428573e+00	 1.000799013368036e+01
0	 2.857142857142858e+00	 8.571428571428575e+00	 9.999430703131583e+00
0	 2.857142857142857e+00	 8.714285714285717e+00	 9.997950372975088e+00
0	 2.857142857142858e+00	 8.857142857142859e+00	 9.997058334096247e+00
0	 2.857142857142857e+00	 9.000000000000000e+00	 9.996634285938956e+00
0	 2.857142857142857e+00	 9.142857142857141e+00	 9.996557927947176e+00
0	 2.857142857142858e+00	 9.285714285714288e+00	 9.996708959564842e+00
0	 2.857142857142858e+00	 9.428571428571431e+00	 9.996967080235853e+00
0	 2.857142857142857e+00	 9.571428571428569e+00	 9.997211989404180e+00
0	 2.857142857142858e+00	 9.714285714285712e+00	 9.997323386513708e+00
0	 2.857142857142857e+00	 9.857142857142856e+00	 9.997180971008401e+00
0	 2.857142857142857e+00	 1.000000000000000e+01	 9.996664442332209e+00
0	 3.000000000000000e+00	 8.571428571428575e+00	 1.000088979441169e+01
0	 3.000000000000000e+00	 8.714285714285714e+00	 9.999880518488691e+00
0	 3.000000000000002e+00	 8.857142857142861e+00	 9.999211273985010e+00
0	 3.000000000000001e+00	 9.000000000000002e+00	 9.998785102639740e+00
0	 3.000000000000000e+00	 9.142857142857144e+00	 9.998505046191950e+00
0	 3.000000000000001e+00	 9.285714285714286e+00	 9.998274146380712e+00
0	 3.000000000000001e+00	 9.428571428571429e+00	 9.997995444945129e+00
0	 3.000000000000001e+00	 9.571428571428571e+00	 9.997571983624285e+00
0	 3.000000000000001e+00	 9.714285714285712e+00	 9.996906804157231e+00
0	 3.000000000000000e+00	 9.857142857142852e+00	 9.995902948283089e+00
0	 3.000000000000001e+00	 1.000000000000000e+01	 9.994463457740874e+00
0	 3.142857142857143e+00	 8.571428571428573e+00	 1.000210592285075e+01
0	 3.142857142857144e+00	 8.714285714285719e+00	 1.000145057876582e+01
0	 3.142857142857144e+00	 8.857142857142863e+00	 1.000094855489810e+01
0	 3.142857142857143e+00	 9.000000000000000e+00	 1.000052444356010e+01
0	 3.142857142857143e+00	 9.142857142857142e+00	 1.000010283706424e+01
0	 3.142857142857144e+00	 9.285714285714286e+00	 9.999608327722987e+00
0	 3.142857142857144e+00	 9.428571428571429e+00	 9.998965507848812e+00
0	 3.142857142857144e+00	 9.571428571428569e+00	 9.998098969754144e+00
0	 3.142857142857144e+00	 9.714285714285715e+00	 9.996933305751462e+00
0	 3.142857142857143e+00	 9.857142857142854e+00	 9.995393108153216e+00
0	 3.142857142857143e+00	 1.000000000000000e+01	 9.993402969271877e+00
0	 3.285714285714286e+00	 8.571428571428575e+00	 1.000311993716205e+01
0	 3.285714285714286e+00	 8.714285714285717e+00	 1.000271229085940e+01
0	 3.285714285714286e+00	 8.857142857142861e+00	 1.000232504904832e+01
0	 3.285714285714286e+00	 8.999999999999998e+00	 1.000190256289287e+01
0	 3.285714285714286e+00	 9.142857142857144e+00	 1.000138918355708e+01
0	 3.285714285714286e+00	 9.285714285714283e+00	 1.000072926220503e+01
0	 3.285714285714286e+00	 9.428571428571429e+00	 9.999867150000794e+00
0	 3.285714285714286e+00	 9.571428571428569e+00	 9.998747198108354e+00
0	 3.285714285714286e+00	 9.714285714285712e+00	 9.997313757691906e+00
0	 3.285714285714286e+00	 9.857142857142856e+00	 9.995511179915374e+00
0	 3.285714285714286e+00	 1.000000000000000e+01	 9.993283815942922e+00
0	 3.428571428571429e+00	 8.571428571428573e+00	 1.000397268605888e+01
0	 3.428571428571429e+00	 8.714285714285717e+00	 1.000371739182242e+01
0	 3.428571428571429e+00	 8.857142857142861e+00	 1.000339562864846e+01
0	 3.428571428571430e+00	 9.000000000000000e+00	 1.000296971483084e+01
0	 3.428571428571429e+00	 9.142857142857144e+00	 1.000240196866345e+01
0	 3.428571428571429e+00	 9.285714285714286e+00	 1.000165470844020e+01
0	 3.428571428571429e+00	 9.428571428571429e+00	 1.000069025245496e+01
0	 3.428571428571429e+00	 9.571428571428571e+00	 9.999470919001645e+00
0	 3.428571428571429e+00	 9.714285714285712e+00	 9.997959026374087e+00
0	 3.428571428571429e+00	 9.857142857142858e+00	 9.996116892866235e+00
0	 3.428571428571429e+00	 1.000000000000000e+01	 9.993906836771965e+00
0	 3.571428571428572e+00	 8.571428571428571e+00	 1.000470501825451e+01
0	 3.571428571428573e+00	 8.714285714285715e+00	 1.000451761870785e+01
0	 3.571428571428572e+00	 8.857142857142858e+00	 1.000421516591130e+01
0	 3.571428571428573e+00	 9.000000000000004e+00	 1.000377615356683e+01
0	 3.571428571428572e+00	 9.142857142857142e+00	 1.000317907537638e+01
0	 3.571428571428573e+00	 9.285714285714283e+00	 1.000240242504188e+01
0	 3.571428571428572e+00	 9.428571428571427e+00	 1.000142469626529e+01
0	 3.571428571428572e+00	 9.571428571428568e+00	 1.000022438274855e+01
0	 3.571428571428573e+00	 9.714285714285712e+00	 9.998779978193586e+00
0	 3.571428571428572e+00	 9.857142857142852e+00	 9.997069976302413e+00
0	 3.571428571428572e+00	 1.000000000000000e+01	 9.995072870776884e+00
0	 3.714285714285714e+00	 8.571428571428573e+00	 1.000535778246227e+01
0	 3.714285714285716e+00	 8.714285714285719e+00	 1.000516470856860e+01
0	 3.714285714285715e+00	 8.857142857142858e+00	 1.000483853304966e+01
0	 3.714285714285716e+00	 8.999999999999998e+00	 1.000437213329366e+01
0	 3.714285714285716e+00	 9.142857142857146e+00	 1.000375838668884e+01
0	 3.714285714285715e+00	 9.285714285714286e+00	 1.000299017062344e+01
0	 3.714285714285715e+00	 9.428571428571427e+00	 1.000206036248567e+01
0	 3.714285714285714e+00	 9.571428571428568e+00	 1.000096183966374e+01
0	 3.714285714285715e+00	 9.714285714285714e+00	 9.999687479545935e+00
0	 3.714285714285715e+00	 9.857142857142852e+00	 9.998230159520404e+00
0	 3.714285714285715e+00	 1.000000000000000e+01	 9.996582756975460e+00
0	 3.857142857142858e+00	 8.571428571428573e+00	 1.000597182739544e+01
0	 3.857142857142859e+00	 8.714285714285719e+00	 1.000571039845766e+01
0	 3.857142857142858e+00	 8.857142857142859e+00	 1.000532060227632e+01
0	 3.857142857142858e+00	 9.000000000000002e+00	 1.000480790820414e+01
0	 3.857142857142858e+00	 9.142857142857142e+00	 1.000417778559387e+01
0	 3.857142857142858e+00	 9.285714285714285e+00	 1.000343570379825e+01
0	 3.857142857142858e+00	 9.428571428571429e+00	 1.000258713217001e+01
0	 3.857142857142858e+00	 9.571428571428569e+00	 1.000163754006189e+01
0	 3.857142857142858e+00	 9.714285714285714e+00	 1.000059239682664e+01
0	 3.857142857142859e+00	 9.857142857142854e+00	 9.999457171816958e+00
0	 3.857142857142858e+00	 1.000000000000000e+01	 9.998237334385628e+00
0	 4.000000000000001e+00	 8.571428571428571e+00	 1.000658800176732e+01
0	 4.000000000000000e+00	 8.714285714285717e+00	 1.000620642542799e+01
0	 4.000000000000001e+00	 8.857142857142859e+00	 1.000571624580409e+01
0	 4.000000000000002e+00	 9.000000000000005e+00	 1.000513373249109e+01
0	 4.000000000000001e+00	 9.142857142857144e+00	 1.000447515508449e+01
0	 4.000000000000001e+00	 9.285714285714285e+00	 1.000375678317970e+01
0	 4.000000000000000e+00	 9.428571428571427e+00	 1.000299488637225e+01
0	 4.000000000000001e+00	 9.571428571428569e+00	 1.000220573425760e+01
0	 4.000000000000000e+00	 9.714285714285712e+00	 1.000140559643126e+01
0	 4.000000000000000e+00	 9.857142857142854e+00	 1.000061074248863e+01
0	 4.000000000000001e+00	 1.000000000000000e+01	 9.999837442025242e+00
0	 4.142857142857144e+00	 8.571428571428573e+00	 1.000724715429121e+01
0	 4.142857142857144e+00	 8.714285714285717e+00	 1.000670452653254e+01
0	 4.142857142857143e+00	 8.857142857142856e+00	 1.000608033584576e+01
0	 4.142857142857144e+00	 9.000000000000000e+00	 1.000539986034730e+01
0	 4.142857142857144e+00	 9.142857142857144e+00	 1.000468837815361e+01
0	 4.142857142857144e+00	 9.285714285714281e+00	 1.000397116738114e+01
0	 4.142857142857144e+00	 9.428571428571427e+00	 1.000327350614631e+01
0	 4.142857142857143e+00	 9.571428571428568e+00	 1.000262067256554e+01
0	 4.142857142857144e+00	 9.714285714285712e+00	 1.000203794475529e+01
0	 4.142857142857142e+00	 9.857142857142852e+00	 1.000155060083201e+01
0	 4.142857142857143e+00	 1.000000000000000e+01	 1.000118391891207e+01
0	 4.285714285714286e+00	 8.571428571428573e+00	 1.000799013368036e+01
0	 4.285714285714286e+00	 8.714285714285717e+00	 1.000725643882425e+01
0	 4.285714285714285e+00	 8.857142857142856e+00	 1.000646774461412e+01
0	 4.285714285714287e+00	 9.000000000000002e+00	 1.000565654596561e+01
0	 4.285714285714286e+00	 9.142857142857141e+00	 1.000485533779434e+01
0	 4.285714285714286e+00	 9.285714285714285e+00	 1.000409661501596e+01
0	 4.285714285714286e+00	 9.428571428571429e+00	 1.000341287254609e+01
0	 4.285714285714286e+00	 9.571428571428569e+00	 1.000283660530035e+01
0	 4.285714285714286e+00	 9.714285714285712e+00	 1.000240030819433e+01
0	 4.285714285714286e+00	 9.857142857142856e+00	 1.000213647614375e+01
0	 4.285714285714286e+00	 1.000000000000000e+01	 1.000207760406412e+01
0	 4.285714285714286e+00	 0.000000000000000e+00	 1.019679743069649e+01
0	 4.285714285714286e+00	 1.428571428571429e-01	 1.024671953814101e+01
0	 4.285714285714286e+00	 2.857142857142857e-01	 1.028921714046384e+01
0	 4.285714285714286e+00	 4.285714285714287e-01	 1.032412963904755e+01
0	 4.285714285714287e+00	 5.714285714285715e-01	 1.035129643527475e+01
0	 4.285714285714286e+00	 7.142857142857143e-01	 1.037055693052803e+01
0	 4.285714285714286e+00	 8.571428571428572e-01	 1.038175052618998e+01
0	 4.285714285714286e+00	 1.000000000000000e+00	 1.038471662364320e+01
0	 4.285714285714286e+00	 1.142857142857143e+00	 1.037929462427028e+01
0	 4.285714285714286e+00	 1.285714285714286e+00	 1.036532392945383e+01
0	 4.285714285714287e+00	 1.428571428571429e+00	 1.034264394057643e+01
0	 4.428571428571429e+00	 0.000000000000000e+00	 1.013608130125871e+01
0	 4.428571428571431e+00	 1.428571428571430e-01	 1.019885125747747e+01
0	 4.428571428571429e+00	 2.857142857142856e-01	 1.025139732269374e+01
0	 4.428571428571431e+00	 4.285714285714287e-01	 1.029377927255404e+01
0	 4.428571428571428e+00	 5.714285714285713e-01	 1.032605688270491e+01
0	 4.428571428571429e+00	 7.142857142857143e-01	 1.034828992879289e+01
0	 4.428571428571429e+00	 8.571428571428575e-01	 1.036053818646450e+01
0	 4.428571428571431e+00	 1.000000000000000e+00	 1.036286143136628e+01
0	 4.428571428571429e+00	 1.142857142857143e+00	 1.035531943914477e+01
0	 4.428571428571429e+00	 1.285714285714286e+00	 1.033797198544649e+01
0	 4.428571428571429e+00	 1.428571428571429e+00	 1.031087884591798e+01
0	 4.571428571428572e+00	 0.000000000000000e+00	 1.009385443231600e+01
0	 4.571428571428572e+00	 1.428571428571429e-01	 1.016180731348311e+01
0	 4.571428571428573e+00	 2.857142857142858e-01	 1.021815869836489e+01
0	 4.571428571428573e+00	 4.285714285714287e-01	 1.026315233492580e+01
0	 4.571428571428571e+00	 5.714285714285714e-01	 1.029703197113032e+01
0	 4.571428571428574e+00	 7.142857142857144e-01	 1.032004135494292e+01
0	 4.571428571428570e+00	 8.571428571428573e-01	 1.033242423432806e+01
0	 4.571428571428571e+00	 9.999999999999999e-01	 1.033442435725021e+01
0	 4.571428571428571e+00	 1.142857142857143e+00	 1.032628547167384e+01
0	 4.571428571428571e+00	 1.285714285714286e+00	 1.030825132556343e+01
0	 4.571428571428572e+00	 1.428571428571429e+00	 1.028056566688343e+01
0	 4.714285714285715e+00	 0.000000000000000e+00	 1.006794551316896e+01
0	 4.714285714285715e+00	 1.428571428571429e-01	 1.013463353000896e+01
0	 4.714285714285714e+00	 2.857142857142857e-01	 1.018954827581875e+01
0	 4.714285714285714e+00	 4.285714285714286e-01	 1.023308106893472e+01
0	 4.714285714285716e+00	 5.714285714285714e-01	 1.026562322769327e+01
0	 4.714285714285715e+00	 7.142857142857143e-01	 1.028756607043081e+01
0	 4.714285714285714e+00	 8.571428571428574e-01	 1.029930091548374e+01
0	 4.714285714285714e+00	 1.000000000000000e+00	 1.030121908118845e+01
0	 4.714285714285714e+00	 1.142857142857143e+00	 1.029371188588137e+01
0	 4.714285714285715e+00	 1.285714285714286e+00	 1.027717064789887e+01
0	 4.714285714285715e+00	 1.428571428571429e+00	 1.025198668557737e+01
0	 4.857142857142858e+00	 0.000000000000000e+00	 1.005618323311818e+01
0	 4.857142857142857e+00	 1.428571428571429e-01	 1.011637573090607e+01
0	 4.857142857142858e+00	 2.857142857142857e-01	 1.016561306339678e+01
0	 4.857142857142856e+00	 4.285714285714286e-01	 1.020439771735267e+01
0	 4.857142857142857e+00	 5.714285714285714e-01	 1.023323217953605e+01
0	 4.857142857142858e+00	 7.142857142857143e-01	 1.025261893670925e+01
0	 4.857142857142857e+00	 8.571428571428572e-01	 1.026306047563462e+01
0	 4.857142857142858e+00	 1.000000000000000e+00	 1.026505928307449e+01
0	 4.857142857142857e+00	 1.142857142857143e+00	 1.025911784579118e+01
0	 4.857142857142858e+00	 1.285714285714286e+00	 1.024573865054704e+01
0	 4.857142857142858e+00	 1.428571428571429e+00	 1.022542418410438e+01
0	 5.000000000000000e+00	 0.000000000000000e+00	 1.005639628146424e+01
0	 4.999999999999997e+00	 1.428571428571428e-01	 1.010607974002543e+01
0	 4.999999999999999e+00	 2.857142857142857e-01	 1.014640006944044e+01
0	 5.000000000000000e+00	 4.285714285714287e-01	 1.017793452295152e+01
0	 5.000000000000001e+00	 5.714285714285716e-01	 1.020126035380093e+01
0	 5.000000000000002e+00	 7.142857142857144e-01	 1.021695481523093e+01
0	 5.000000000000001e+00	 8.571428571428572e-01	 1.022559516048380e+01
0	 5.000000000000000e+00	 1.000000000000000e+00	 1.022775864280178e+01
0	 5.000000000000001e+00	 1.142857142857143e+00	 1.022402251542714e+01
0	 4.999999999999999e+00	 1.285714285714286e+00	 1.021496403160213e+01
0	 5.000000000000000e+00	 1.428571428571429e+00	 1.020116044456905e+01
0	 5.142857142857143e+00	 0.000000000000000e+00	 1.006641334750775e+01
0	 5.142857142857142e+00	 1.428571428571429e-01	 1.010279138121811e+01
0	 5.142857142857142e+00	 2.857142857142858e-01	 1.013195630229119e+01
0	 5.142857142857142e+00	 4.285714285714287e-01	 1.015452372850316e+01
0	 5.142857142857141e+00	 5.714285714285715e-01	 1.017110927763023e+01
0	 5.142857142857142e+00	 7.142857142857142e-01	 1.018232856744856e+01
0	 5.142857142857143e+00	 8.571428571428573e-01	 1.018879721573436e+01
0	 5.142857142857143e+00	 1.000000000000000e+00	 1.019113084026381e+01
0	 5.142857142857144e+00	 1.142857142857143e+00	 1.018994505881309e+01
0	 5.142857142857141e+00	 1.285714285714286e+00	 1.018585548915841e+01
0	 5.142857142857142e+00	 1.428571428571429e+00	 1.017947774907594e+01
0	 5.285714285714284e+00	 0.000000000000000e+00	 1.008406312054928e+01
0	 5.285714285714286e+00	 1.428571428571430e-01	 1.010555647833512e+01
0	 5.285714285714284e+00	 2.857142857142856e-01	 1.012232877029048e+01
0	 5.285714285714286e+00	 4.285714285714287e-01	 1.013499757677948e+01
0	 5.285714285714285e+00	 5.714285714285715e-01	 1.014418047816621e+01
0	 5.285714285714286e+00	 7.142857142857143e-01	 1.015049505481481e+01
0	 5.285714285714285e+00	 8.571428571428572e-01	 1.015455888708939e+01
0	 5.285714285714285e+00	 1.000000000000000e+00	 1.015698955535404e+01
0	 5.285714285714286e+00	 1.142857142857143e+00	 1.015840463997290e+01
0	 5.285714285714286e+00	 1.285714285714286e+00	 1.015942172131005e+01
0	 5.285714285714285e+00	 1.428571428571429e+00	 1.016065837972964e+01
0	 5.428571428571427e+00	 0.000000000000000e+00	 1.010717428988945e+01
0	 5.428571428571427e+00	 1.428571428571429e-01	 1.011342085522749e+01
0	 5.428571428571428e+00	 2.857142857142858e-01	 1.011756448177978e+01
0	 5.428571428571426e+00	 4.285714285714286e-01	 1.012018831055233e+01
0	 5.428571428571427e+00	 5.714285714285716e-01	 1.012187548255119e+01
0	 5.428571428571426e+00	 7.142857142857141e-01	 1.012320913878239e+01
0	 5.428571428571428e+00	 8.571428571428573e-01	 1.012477242025197e+01
0	 5.428571428571427e+00	 1.000000000000000e+00	 1.012714846796596e+01
0	 5.428571428571426e+00	 1.142857142857143e+00	 1.013092042293039e+01
0	 5.428571428571428e+00	 1.285714285714286e+00	 1.013667142615131e+01
0	 5.428571428571428e+00	 1.428571428571429e+00	 1.014498461863474e+01
0	 5.571428571428570e+00	 0.000000000000000e+00	 1.013357554482883e+01
0	 5.571428571428570e+00	 1.428571428571429e-01	 1.012543033574626e+01
0	 5.571428571428571e+00	 2.857142857142858e-01	 1.011771044510053e+01
0	 5.571428571428569e+00	 4.285714285714285e-01	 1.011092817259361e+01
0	 5.571428571428569e+00	 5.714285714285714e-01	 1.010559581792745e+01
0	 5.571428571428570e+00	 7.142857142857143e-01	 1.010222568080400e+01
0	 5.571428571428570e+00	 8.571428571428573e-01	 1.010133006092521e+01
0	 5.571428571428569e+00	 1.000000000000000e+00	 1.010342125799304e+01
0	 5.571428571428569e+00	 1.142857142857143e+00	 1.010901157170945e+01
0	 5.571428571428570e+00	 1.285714285714286e+00	 1.011861330177639e+01
0	 5.571428571428571e+00	 1.428571428571429e+00	 1.013273874789581e+01
0	 5.714285714285714e+00	 0.000000000000000e+00	 1.016109557466802e+01
0	 5.714285714285714e+00	 1.428571428571429e-01	 1.014063074374243e+01
0	 5.714285714285714e+00	 2.857142857142858e-01	 1.012281366859422e+01
0	 5.714285714285714e+00	 4.285714285714287e-01	 1.010804940567520e+01
0	 5.714285714285714e+00	 5.714285714285715e-01	 1.009674301143727e+01
0	 5.714285714285714e+00	 7.142857142857143e-01	 1.008929954233231e+01
0	 5.714285714285713e+00	 8.571428571428571e-01	 1.008612405481218e+01
0	 5.714285714285714e+00	 1.000000000000000e+00	 1.008762160532876e+01
0	 5.714285714285714e+00	 1.142857142857143e+00	 1.009419725033391e+01
0	 5.714285714285714e+00	 1.285714285714286e+00	 1.010625604627951e+01
0	 5.714285714285715e+00	 1.428571428571429e+00	 1.012420304961744e+01
0	 4.285714285714287e+00	 1.428571428571429e+00	 1.034264394057643e+01
0	 4.285714285714285e+00	 1.571428571428571e+00	 1.031688410453032e+01
0	 4.285714285714286e+00	 1.714285714285715e+00	 1.029390498279806e+01
0	 4.285714285714286e+00	 1.857142857142857e+00	 1.027389264864772e+01
0	 4.285714285714286e+00	 2.000000000000001e+00	 1.025703317534738e+01
0	 4.285714285714285e+00	 2.142857142857143e+00	 1.024351263616511e+01
0	 4.285714285714286e+00	 2.285714285714286e+00	 1.023351710436900e+01
0	 4.285714285714286e+00	 2.428571428571429e+00	 1.022723265322710e+01
0	 4.285714285714286e+00	 2.571428571428573e+00	 1.022484535600751e+01
0	 4.285714285714286e+00	 2.714285714285715e+00	 1.022654128597830e+01
0	 4.285714285714287e+00	 2.857142857142858e+00	 1.023250651640753e+01
0	 4.428571428571429e+00	 1.428571428571429e+00	 1.031087884591798e+01
0	 4.428571428571431e+00	 1.571428571428572e+00	 1.028106023928665e+01
0	 4.428571428571429e+00	 1.714285714285714e+00	 1.025555901859240e+01
0	 4.428571428571429e+00	 1.857142857142857e+00	 1.023446891095040e+01
0	 4.428571428571429e+00	 2.000000000000000e+00	 1.021788364347587e+01
0	 4.428571428571430e+00	 2.142857142857143e+00	 1.020589694328400e+01
0	 4.428571428571429e+00	 2.285714285714286e+00	 1.019860253749000e+01
0	 4.428571428571430e+00	 2.428571428571430e+00	 1.019609415320906e+01
0	 4.428571428571429e+00	 2.571428571428572e+00	 1.019846551755640e+01
0	 4.428571428571429e+00	 2.714285714285715e+00	 1.020581035764721e+01
0	 4.428571428571431e+00	 2.857142857142858e+00	 1.021822240059667e+01
0	 4.571428571428572e+00	 1.428571428571429e+00	 1.028056566688343e+01
0	 4.571428571428572e+00	 1.571428571428572e+00	 1.025062953582548e+01
0	 4.571428571428573e+00	 1.714285714285715e+00	 1.022569269578632e+01
0	 4.571428571428572e+00	 1.857142857142857e+00	 1.020577197953813e+01
0	 4.571428571428574e+00	 2.000000000000001e+00	 1.019088421985307e+01
0	 4.571428571428571e+00	 2.142857142857142e+00	 1.018104624950329e+01
0	 4.571428571428571e+00	 2.285714285714286e+00	 1.017627490126097e+01
0	 4.571428571428572e+00	 2.428571428571429e+00	 1.017658700789825e+01
0	 4.571428571428573e+00	 2.571428571428573e+00	 1.018199940218730e+01
0	 4.571428571428572e+00	 2.714285714285715e+00	 1.019252891690030e+01
0	 4.571428571428571e+00	 2.857142857142857e+00	 1.020819238480938e+01
0	 4.714285714285715e+00	 1.428571428571429e+00	 1.025198668557737e+01
0	 4.714285714285715e+00	 1.571428571428572e+00	 1.022511177428725e+01
0	 4.714285714285714e+00	 1.714285714285714e+00	 1.020320707066724e+01
0	 4.714285714285715e+00	 1.857142857142858e+00	 1.018622796495631e+01
0	 4.714285714285714e+00	 2.000000000000000e+00	 1.017412984739343e+01
0	 4.714285714285715e+00	 2.142857142857143e+00	 1.016686810821755e+01
0	 4.714285714285716e+00	 2.285714285714287e+00	 1.016439813766762e+01
0	 4.714285714285714e+00	 2.428571428571430e+00	 1.016667532598261e+01
0	 4.714285714285714e+00	 2.571428571428573e+00	 1.017365506340148e+01
0	 4.714285714285714e+00	 2.714285714285715e+00	 1.018529274016318e+01
0	 4.714285714285715e+00	 2.857142857142857e+00	 1.020154374650668e+01
0	 4.857142857142858e+00	 1.428571428571429e+00	 1.022542418410438e+01
0	 4.857142857142858e+00	 1.571428571428572e+00	 1.020402673481243e+01
0	 4.857142857142859e+00	 1.714285714285715e+00	 1.018700319952256e+01
0	 4.857142857142858e+00	 1.857142857142857e+00	 1.017426297775036e+01
0	 4.857142857142858e+00	 2.000000000000000e+00	 1.016571546901143e+01
0	 4.857142857142859e+00	 2.142857142857144e+00	 1.016127007282136e+01
0	 4.857142857142858e+00	 2.285714285714286e+00	 1.016083618869573e+01
0	 4.857142857142858e+00	 2.428571428571429e+00	 1.016432321615014e+01
0	 4.857142857142858e+00	 2.571428571428573e+00	 1.017164055470019e+01
0	 4.857142857142858e+00	 2.714285714285715e+00	 1.018269760386146e+01
0	 4.857142857142859e+00	 2.857142857142858e+00	 1.019740376314955e+01
0	 5.000000000000000e+00	 1.428571428571429e+00	 1.020116044456905e+01
0	 4.999999999999999e+00	 1.571428571428572e+00	 1.018689419754150e+01
0	 5.000000000000000e+00	 1.714285714285715e+00	 1.017598213863970e+01
0	 5.000000000000001e+00	 1.857142857142858e+00	 1.016830312846568e+01
0	 5.000000000000002e+00	 2.000000000000000e+00	 1.016373602762153e+01
0	 5.000000000000001e+00	 2.142857142857143e+00	 1.016215969670930e+01
0	 5.000000000000001e+00	 2.285714285714287e+00	 1.016345299633103e+01
0	 5.000000000000000e+00	 2.428571428571430e+00	 1.016749478708882e+01
0	 5.000000000000002e+00	 2.571428571428573e+00	 1.017416392958469e+01
0	 5.000000000000001e+00	 2.714285714285715e+00	 1.018333928442074e+01
0	 5.000000000000000e+00	 2.857142857142857e+00	 1.019489971219900e+01
0	 5.142857142857142e+00	 1.428571428571429e+00	 1.017947774907594e+01
0	 5.142857142857141e+00	 1.571428571428571e+00	 1.017323394261492e+01
0	 5.142857142857145e+00	 1.714285714285715e+00	 1.016904494430605e+01
0	 5.142857142857144e+00	 1.857142857142858e+00	 1.016677452764768e+01
0	 5.142857142857144e+00	 2.000000000000000e+00	 1.016628646613818e+01
0	 5.142857142857144e+00	 2.142857142857144e+00	 1.016744453327593e+01
0	 5.142857142857143e+00	 2.285714285714286e+00	 1.017011250255928e+01
0	 5.142857142857144e+00	 2.428571428571430e+00	 1.017415414748659e+01
0	 5.142857142857146e+00	 2.571428571428573e+00	 1.017943324155625e+01
0	 5.142857142857143e+00	 2.714285714285715e+00	 1.018581355826660e+01
0	 5.142857142857143e+00	 2.857142857142857e+00	 1.019315887111602e+01
0	 5.285714285714285e+00	 1.428571428571429e+00	 1.016065837972964e+01
0	 5.285714285714286e+00	 1.571428571428572e+00	 1.016256575017315e+01
0	 5.285714285714284e+00	 1.714285714285714e+00	 1.016509267280902e+01
0	 5.285714285714286e+00	 1.857142857142858e+00	 1.016810328584175e+01
0	 5.285714285714286e+00	 2.000000000000000e+00	 1.017146172747586e+01
0	 5.285714285714285e+00	 2.142857142857144e+00	 1.017503213591584e+01
0	 5.285714285714286e+00	 2.285714285714287e+00	 1.017867864936620e+01
0	 5.285714285714286e+00	 2.428571428571429e+00	 1.018226540603146e+01
0	 5.285714285714285e+00	 2.571428571428572e+00	 1.018565654411611e+01
0	 5.285714285714286e+00	 2.714285714285716e+00	 1.018871620182465e+01
0	 5.285714285714286e+00	 2.857142857142857e+00	 1.019130851736161e+01
0	 5.428571428571428e+00	 1.428571428571429e+00	 1.014498461863474e+01
0	 5.428571428571429e+00	 1.571428571428572e+00	 1.015440940035666e+01
0	 5.428571428571428e+00	 1.714285714285714e+00	 1.016302638043603e+01
0	 5.428571428571428e+00	 1.857142857142858e+00	 1.017071551359332e+01
0	 5.428571428571429e+00	 2.000000000000000e+00	 1.017735675454902e+01
0	 5.428571428571427e+00	 2.142857142857143e+00	 1.018283005802361e+01
0	 5.428571428571427e+00	 2.285714285714287e+00	 1.018701537873757e+01
0	 5.428571428571429e+00	 2.428571428571430e+00	 1.018979267141139e+01
0	 5.428571428571429e+00	 2.571428571428573e+00	 1.019104189076555e+01
0	 5.428571428571428e+00	 2.714285714285715e+00	 1.019064299152052e+01
0	 5.428571428571429e+00	 2.857142857142857e+00	 1.018847592839678e+01
0	 5.571428571428571e+00	 1.428571428571429e+00	 1.013273874789581e+01
0	 5.571428571428571e+00	 1.571428571428572e+00	 1.014828467330592e+01
0	 5.571428571428570e+00	 1.714285714285715e+00	 1.016174712347448e+01
0	 5.571428571428569e+00	 1.857142857142858e+00	 1.017303732144778e+01
0	 5.571428571428571e+00	 2.000000000000001e+00	 1.018206649027213e+01
0	 5.571428571428569e+00	 2.142857142857143e+00	 1.018874585299381e+01
0	 5.571428571428571e+00	 2.285714285714286e+00	 1.019298663265913e+01
0	 5.571428571428569e+00	 2.428571428571429e+00	 1.019470005231435e+01
0	 5.571428571428570e+00	 2.571428571428573e+00	 1.019379733500581e+01
0	 5.571428571428570e+00	 2.714285714285715e+00	 1.019018970377977e+01
0	 5.571428571428571e+00	 2.857142857142858e+00	 1.018378838168254e+01
0	 5.714285714285715e+00	 1.428571428571429e+00	 1.012420304961744e+01
0	 5.714285714285716e+00	 1.571428571428572e+00	 1.014371134916138e+01
0	 5.714285714285715e+00	 1.714285714285715e+00	 1.016015595821177e+01
0	 5.714285714285714e+00	 1.857142857142857e+00	 1.017349481995055e+01
0	 5.714285714285715e+00	 2.000000000000000e+00	 1.018368587755965e+01
0	 5.714285714285713e+00	 2.142857142857143e+00	 1.019068707422102e+01
0	 5.714285714285714e+00	 2.285714285714287e+00	 1.019445635311660e+01
0	 5.714285714285714e+00	 2.428571428571429e+00	 1.019495165742833e+01
0	 5.714285714285716e+00	 2.571428571428573e+00	 1.019213093033816e+01
0	 5.714285714285715e+00	 2.714285714285715e+00	 1.018595211502802e+01
0	 5.714285714285715e+00	 2.857142857142857e+00	 1.017637315467986e+01
0	 4.285714285714287e+00	 2.857142857142858e+00	 1.023250651640753e+01
0	 4.285714285714286e+00	 3.000000000000001e+00	 1.023979691940676e+01
0	 4.285714285714286e+00	 3.142857142857143e+00	 1.024517039424121e+01
0	 4.285714285714286e+00	 3.285714285714286e+00	 1.024836605490950e+01
0	 4.285714285714287e+00	 3.428571428571429e+00	 1.024912301541029e+01
0	 4.285714285714286e+00	 3.571428571428572e+00	 1.024718038974220e+01
0	 4.285714285714286e+00	 3.714285714285715e+00	 1.024227729190387e+01
0	 4.285714285714285e+00	 3.857142857142857e+00	 1.023415283589392e+01
0	 4.285714285714286e+00	 4.000000000000001e+00	 1.022254613571099e+01
0	 4.285714285714286e+00	 4.142857142857144e+00	 1.020719630535371e+01
0	 4.285714285714286e+00	 4.285714285714285e+00	 1.018784245882072e+01
0	 4.428571428571431e+00	 2.857142857142858e+00	 1.021822240059667e+01
0	 4.428571428571431e+00	 3.000000000000001e+00	 1.023159383419339e+01
0	 4.428571428571430e+00	 3.142857142857143e+00	 1.024166926048629e+01
0	 4.428571428571430e+00	 3.285714285714286e+00	 1.024832102798115e+01
0	 4.428571428571429e+00	 3.428571428571429e+00	 1.025142148518371e+01
0	 4.428571428571428e+00	 3.571428571428571e+00	 1.025084298059971e+01
0	 4.428571428571430e+00	 3.714285714285715e+00	 1.024645786273493e+01
0	 4.428571428571430e+00	 3.857142857142858e+00	 1.023813848009513e+01
0	 4.428571428571430e+00	 4.000000000000002e+00	 1.022575718118605e+01
0	 4.428571428571430e+00	 4.142857142857143e+00	 1.020918631451345e+01
0	 4.428571428571429e+00	 4.285714285714286e+00	 1.018829822858308e+01
0	 4.571428571428571e+00	 2.857142857142857e+00	 1.020819238480938e+01
0	 4.571428571428572e+00	 3.000000000000001e+00	 1.022440025567888e+01
0	 4.571428571428573e+00	 3.142857142857143e+00	 1.023654089488364e+01
0	 4.571428571428572e+00	 3.285714285714286e+00	 1.024459800861163e+01
0	 4.571428571428573e+00	 3.428571428571428e+00	 1.024855530305085e+01
0	 4.571428571428572e+00	 3.571428571428572e+00	 1.024839648438929e+01
0	 4.571428571428572e+00	 3.714285714285714e+00	 1.024410525881491e+01
0	 4.571428571428570e+00	 3.857142857142856e+00	 1.023566533251571e+01
0	 4.571428571428572e+00	 4.000000000000000e+00	 1.022306041167969e+01
0	 4.571428571428573e+00	 4.142857142857144e+00	 1.020627420249480e+01
0	 4.571428571428570e+00	 4.285714285714285e+00	 1.018529041114903e+01
0	 4.714285714285715e+00	 2.857142857142857e+00	 1.020154374650668e+01
0	 4.714285714285714e+00	 3.000000000000001e+00	 1.021790202534350e+01
0	 4.714285714285714e+00	 3.142857142857143e+00	 1.022994005078938e+01
0	 4.714285714285715e+00	 3.285714285714286e+00	 1.023773100988966e+01
0	 4.714285714285715e+00	 3.428571428571429e+00	 1.024134808968965e+01
0	 4.714285714285714e+00	 3.571428571428572e+00	 1.024086447723465e+01
0	 4.714285714285715e+00	 3.714285714285714e+00	 1.023635335956999e+01
0	 4.714285714285715e+00	 3.857142857142857e+00	 1.022788792374101e+01
0	 4.714285714285713e+00	 4.000000000000000e+00	 1.021554135679299e+01
0	 4.714285714285714e+00	 4.142857142857144e+00	 1.019938684577127e+01
0	 4.714285714285714e+00	 4.285714285714285e+00	 1.017949757772117e+01
0	 4.857142857142859e+00	 2.857142857142858e+00	 1.019740376314955e+01
0	 4.857142857142859e+00	 3.000000000000001e+00	 1.021178498466747e+01
0	 4.857142857142859e+00	 3.142857142857144e+00	 1.022202148155967e+01
0	 4.857142857142858e+00	 3.285714285714286e+00	 1.022825404490391e+01
0	 4.857142857142858e+00	 3.428571428571428e+00	 1.023062346577793e+01
0	 4.857142857142858e+00	 3.571428571428573e+00	 1.022927053525951e+01
0	 4.857142857142858e+00	 3.714285714285714e+00	 1.022433604442639e+01
0	 4.857142857142856e+00	 3.857142857142856e+00	 1.021596078435633e+01
0	 4.857142857142858e+00	 4.000000000000000e+00	 1.020428554612708e+01
0	 4.857142857142859e+00	 4.142857142857145e+00	 1.018945112081640e+01
0	 4.857142857142858e+00	 4.285714285714286e+00	 1.017159829950204e+01
0	 5.000000000000000e+00	 2.857142857142857e+00	 1.019489971219900e+01
0	 5.000000000000000e+00	 3.000000000000001e+00	 1.020573497513106e+01
0	 5.000000000000000e+00	 3.142857142857143e+00	 1.021293994055065e+01
0	 5.000000000000000e+00	 3.285714285714286e+00	 1.021670112674306e+01
0	 5.000000000000001e+00	 3.428571428571429e+00	 1.021720505199361e+01
0	 5.000000000000001e+00	 3.571428571428572e+00	 1.021463823458758e+01
0	 5.000000000000001e+00	 3.714285714285715e+00	 1.020918719281029e+01
0	 5.000000000000001e+00	 3.857142857142858e+00	 1.020103844494700e+01
0	 4.999999999999999e+00	 4.000000000000000e+00	 1.019037850928304e+01
0	 5.000000000000000e+00	 4.142857142857142e+00	 1.017739390410369e+01
0	 5.000000000000001e+00	 4.285714285714286e+00	 1.016227114769426e+01
0	 5.142857142857143e+00	 2.857142857142857e+00	 1.019315887111602e+01
0	 5.142857142857142e+00	 3.000000000000001e+00	 1.019943783821451e+01
0	 5.142857142857143e+00	 3.142857142857144e+00	 1.020285018111846e+01
0	 5.142857142857144e+00	 3.285714285714286e+00	 1.020360626849583e+01
0	 5.142857142857144e+00	 3.428571428571429e+00	 1.020191646901456e+01
0	 5.142857142857144e+00	 3.571428571428573e+00	 1.019799115134259e+01
0	 5.142857142857144e+00	 3.714285714285715e+00	 1.019204068414787e+01
0	 5.142857142857144e+00	 3.857142857142858e+00	 1.018427543609835e+01
0	 5.142857142857144e+00	 4.000000000000002e+00	 1.017490577586196e+01
0	 5.142857142857141e+00	 4.142857142857142e+00	 1.016414207210666e+01
0	 5.142857142857143e+00	 4.285714285714285e+00	 1.015219469350039e+01
0	 5.285714285714286e+00	 2.857142857142857e+00	 1.019130851736161e+01
0	 5.285714285714286e+00	 3.000000000000001e+00	 1.019257941539808e+01
0	 5.285714285714285e+00	 3.142857142857143e+00	 1.019190695661927e+01
0	 5.285714285714286e+00	 3.285714285714286e+00	 1.018950348325089e+01
0	 5.285714285714286e+00	 3.428571428571430e+00	 1.018558133751865e+01
0	 5.285714285714285e+00	 3.571428571428573e+00	 1.018035286164824e+01
0	 5.285714285714286e+00	 3.714285714285713e+00	 1.017403039786535e+01
0	 5.285714285714286e+00	 3.857142857142857e+00	 1.016682628839569e+01
0	 5.285714285714285e+00	 4.000000000000001e+00	 1.015895287546495e+01
0	 5.285714285714285e+00	 4.142857142857143e+00	 1.015062250129884e+01
0	 5.285714285714286e+00	 4.285714285714286e+00	 1.014204750812303e+01
0	 5.428571428571429e+00	 2.857142857142857e+00	 1.018847592839678e+01
0	 5.428571428571429e+00	 3.000000000000001e+00	 1.018484554816201e+01
0	 5.428571428571426e+00	 3.142857142857144e+00	 1.018026502040920e+01
0	 5.428571428571429e+00	 3.285714285714286e+00	 1.017492678409695e+01
0	 5.428571428571428e+00	 3.428571428571429e+00	 1.016902327818378e+01
0	 5.428571428571428e+00	 3.571428571428572e+00	 1.016274694162825e+01
0	 5.428571428571425e+00	 3.714285714285714e+00	 1.015629021338892e+01
0	 5.428571428571428e+00	 3.857142857142858e+00	 1.014984553242435e+01
0	 5.428571428571428e+00	 4.000000000000001e+00	 1.014360533769310e+01
0	 5.428571428571428e+00	 4.142857142857142e+00	 1.013776206815372e+01
0	 5.428571428571428e+00	 4.285714285714286e+00	 1.013250816276476e+01
0	 5.571428571428571e+00	 2.857142857142858e+00	 1.018378838168254e+01
0	 5.571428571428570e+00	 3.000000000000000e+00	 1.017592207798656e+01
0	 5.571428571428570e+00	 3.142857142857143e+00	 1.016807912584443e+01
0	 5.571428571428569e+00	 3.285714285714286e+00	 1.016041018412266e+01
0	 5.571428571428570e+00	 3.428571428571429e+00	 1.015306591168779e+01
0	 5.571428571428571e+00	 3.571428571428572e+00	 1.014619696740632e+01
0	 5.571428571428570e+00	 3.714285714285715e+00	 1.013995401014477e+01
0	 5.571428571428570e+00	 3.857142857142857e+00	 1.013448769876966e+01
0	 5.571428571428572e+00	 4.000000000000000e+00	 1.012994869214751e+01
0	 5.571428571428570e+00	 4.142857142857142e+00	 1.012648764914483e+01
0	 5.571428571428571e+00	 4.285714285714286e+00	 1.012425522862815e+01
0	 5.714285714285715e+00	 2.857142857142857e+00	 1.017637315467986e+01
0	 5.714285714285715e+00	 3.000000000000001e+00	 1.016549484635197e+01
0	 5.714285714285714e+00	 3.142857142857143e+00	 1.015550402628107e+01
0	 5.714285714285714e+00	 3.285714285714286e+00	 1.014648769641676e+01
0	 5.714285714285715e+00	 3.428571428571429e+00	 1.013853285870860e+01
0	 5.714285714285714e+00	 3.571428571428572e+00	 1.013172651510619e+01
0	 5.714285714285715e+00	 3.714285714285715e+00	 1.012615566755911e+01
0	 5.714285714285714e+00	 3.857142857142856e+00	 1.012190731801694e+01
0	 5.714285714285714e+00	 4.000000000000001e+00	 1.011906846842928e+01
0	 5.714285714285715e+00	 4.142857142857143e+00	 1.011772612074570e+01
0	 5.714285714285715e+00	 4.285714285714286e+00	 1.011796727691579e+01
0	 4.285714285714286e+00	 4.285714285714285e+00	 1.018784245882072e+01
0	 4.285714285714286e+00	 4.428571428571429e+00	 1.016729170815650e+01
0	 4.285714285714285e+00	 4.571428571428570e+00	 1.014855690079915e+01
0	 4.285714285714286e+00	 4.714285714285714e+00	 1.013168575383773e+01
0	 4.285714285714287e+00	 4.857142857142857e+00	 1.011672598436128e+01
0	 4.285714285714286e+00	 4.999999999999999e+00	 1.010372530945886e+01
0	 4.285714285714286e+00	 5.142857142857143e+00	 1.009273144621952e+01
0	 4.285714285714286e+00	 5.285714285714284e+00	 1.008379211173231e+01
0	 4.285714285714285e+00	 5.428571428571426e+00	 1.007695502308628e+01
0	 4.285714285714286e+00	 5.571428571428570e+00	 1.007226789737049e+01
0	 4.285714285714286e+00	 5.714285714285714e+00	 1.006977845167397e+01
0	 4.428571428571429e+00	 4.285714285714286e+00	 1.018829822858308e+01
0	 4.428571428571430e+00	 4.428571428571430e+00	 1.016642659665406e+01
0	 4.428571428571428e+00	 4.571428571428571e+00	 1.014696426614617e+01
0	 4.428571428571429e+00	 4.714285714285714e+00	 1.012987234680626e+01
0	 4.428571428571429e+00	 4.857142857142857e+00	 1.011511194838115e+01
0	 4.428571428571428e+00	 4.999999999999999e+00	 1.010264418061769e+01
0	 4.428571428571430e+00	 5.142857142857142e+00	 1.009243015326271e+01
0	 4.428571428571429e+00	 5.285714285714286e+00	 1.008443097606304e+01
0	 4.428571428571431e+00	 5.428571428571429e+00	 1.007860775876552e+01
0	 4.428571428571431e+00	 5.571428571428569e+00	 1.007492161111698e+01
0	 4.428571428571429e+00	 5.714285714285714e+00	 1.007333364286426e+01
0	 4.571428571428570e+00	 4.285714285714285e+00	 1.018529041114903e+01
0	 4.571428571428573e+00	 4.428571428571427e+00	 1.016359291316396e+01
0	 4.571428571428572e+00	 4.571428571428572e+00	 1.014460339460592e+01
0	 4.571428571428571e+00	 4.714285714285714e+00	 1.012821227748019e+01
0	 4.571428571428572e+00	 4.857142857142857e+00	 1.011430998379203e+01
0	 4.571428571428573e+00	 5.000000000000001e+00	 1.010278693554667e+01
0	 4.571428571428573e+00	 5.142857142857141e+00	 1.009353355474937e+01
0	 4.571428571428572e+00	 5.285714285714284e+00	 1.008644026340538e+01
0	 4.571428571428571e+00	 5.428571428571426e+00	 1.008139748351995e+01
0	 4.571428571428572e+00	 5.571428571428570e+00	 1.007829563709835e+01
0	 4.571428571428571e+00	 5.714285714285714e+00	 1.007702514614581e+01
0	 4.714285714285714e+00	 4.285714285714285e+00	 1.017949757772117e+01
0	 4.714285714285714e+00	 4.428571428571429e+00	 1.015919684565836e+01
0	 4.714285714285714e+00	 4.571428571428570e+00	 1.014164958714454e+01
0	 4.714285714285715e+00	 4.714285714285715e+00	 1.012669145604402e+01
0	 4.714285714285715e+00	 4.857142857142856e+00	 1.011415810622109e+01
0	 4.714285714285714e+00	 5.000000000000000e+00	 1.010388519154006e+01
0	 4.714285714285714e+00	 5.142857142857142e+00	 1.009570836586524e+01
0	 4.714285714285714e+00	 5.285714285714285e+00	 1.008946328306093e+01
0	 4.714285714285714e+00	 5.428571428571428e+00	 1.008498559699144e+01
0	 4.714285714285715e+00	 5.571428571428569e+00	 1.008211096152106e+01
0	 4.714285714285714e+00	 5.714285714285714e+00	 1.008067503051411e+01
0	 4.857142857142858e+00	 4.285714285714286e+00	 1.017159829950204e+01
0	 4.857142857142858e+00	 4.428571428571429e+00	 1.015364458210944e+01
0	 4.857142857142858e+00	 4.571428571428572e+00	 1.013827814472814e+01
0	 4.857142857142857e+00	 4.714285714285714e+00	 1.012529579268218e+01
0	 4.857142857142858e+00	 4.857142857142857e+00	 1.011449433129551e+01
0	 4.857142857142858e+00	 5.000000000000001e+00	 1.010567056589216e+01
0	 4.857142857142857e+00	 5.142857142857142e+00	 1.009862130179609e+01
0	 4.857142857142856e+00	 5.285714285714283e+00	 1.009314334433131e+01
0	 4.857142857142858e+00	 5.428571428571426e+00	 1.008903349882181e+01
0	 4.857142857142859e+00	 5.571428571428570e+00	 1.008608857059157e+01
0	 4.857142857142858e+00	 5.714285714285714e+00	 1.008410536496460e+01
0	 5.000000000000001e+00	 4.285714285714286e+00	 1.016227114769426e+01
0	 4.999999999999999e+00	 4.428571428571428e+00	 1.014734231048933e+01
0	 4.999999999999999e+00	 4.571428571428570e+00	 1.013466436832286e+01
0	 5.000000000000000e+00	 4.714285714285714e+00	 1.012401119757914e+01
0	 5.000000000000000e+00	 4.857142857142856e+00	 1.011515667464249e+01
0	 5.000000000000001e+00	 5.000000000000000e+00	 1.010787467589722e+01
0	 5.000000000000001e+00	 5.142857142857143e+00	 1.010193907772766e+01
0	 5.000000000000001e+00	 5.285714285714285e+00	 1.009712375651813e+01
0	 5.000000000000000e+00	 5.428571428571426e+00	 1.009320258865292e+01
0	 4.999999999999999e+00	 5.571428571428569e+00	 1.008994945051636e+01
0	 4.999999999999999e+00	 5.714285714285713e+00	 1.008713821849277e+01
0	 5.142857142857143e+00	 4.285714285714285e+00	 1.015219469350039e+01
0	 5.142857142857141e+00	 4.428571428571429e+00	 1.014069621877023e+01
0	 5.142857142857143e+00	 4.571428571428573e+00	 1.013098355889479e+01
0	 5.142857142857144e+00	 4.714285714285714e+00	 1.012282358091935e+01
0	 5.142857142857144e+00	 4.857142857142857e+00	 1.011598315188917e+01
0	 5.142857142857144e+00	 5.000000000000000e+00	 1.011022913884953e+01
0	 5.142857142857143e+00	 5.142857142857142e+00	 1.010532840884572e+01
0	 5.142857142857144e+00	 5.285714285714285e+00	 1.010104782892299e+01
0	 5.142857142857143e+00	 5.428571428571427e+00	 1.009715426612663e+01
0	 5.142857142857144e+00	 5.571428571428569e+00	 1.009341458750191e+01
0	 5.142857142857142e+00	 5.714285714285714e+00	 1.008959566009409e+01
0	 5.285714285714286e+00	 4.285714285714286e+00	 1.014204750812303e+01
0	 5.285714285714285e+00	 4.428571428571429e+00	 1.013411249492428e+01
0	 5.285714285714285e+00	 4.571428571428570e+00	 1.012741101741007e+01
0	 5.285714285714286e+00	 4.714285714285714e+00	 1.012171885288728e+01
0	 5.285714285714285e+00	 4.857142857142856e+00	 1.011681177866275e+01
0	 5.285714285714285e+00	 5.000000000000000e+00	 1.011246557204338e+01
0	 5.285714285714286e+00	 5.142857142857142e+00	 1.010845601033600e+01
0	 5.285714285714286e+00	 5.285714285714285e+00	 1.010455887084752e+01
0	 5.285714285714286e+00	 5.428571428571427e+00	 1.010054993088478e+01
0	 5.285714285714286e+00	 5.571428571428569e+00	 1.009620496775465e+01
0	 5.285714285714285e+00	 5.714285714285714e+00	 1.009129975876399e+01
0	 5.428571428571428e+00	 4.285714285714286e+00	 1.013250816276476e+01
0	 5.428571428571429e+00	 4.428571428571429e+00	 1.012799732692364e+01
0	 5.428571428571425e+00	 4.571428571428570e+00	 1.012412204483482e+01
0	 5.428571428571428e+00	 4.714285714285714e+00	 1.012068292366737e+01
0	 5.428571428571427e+00	 4.857142857142858e+00	 1.011748057059041e+01
0	 5.428571428571427e+00	 5.000000000000000e+00	 1.011431559277301e+01
0	 5.428571428571427e+00	 5.142857142857142e+00	 1.011098859738428e+01
0	 5.428571428571427e+00	 5.285714285714286e+00	 1.010730019159333e+01
0	 5.428571428571427e+00	 5.428571428571425e+00	 1.010305098256922e+01
0	 5.428571428571429e+00	 5.571428571428569e+00	 1.009804157748107e+01
0	 5.428571428571428e+00	 5.714285714285714e+00	 1.009207258349797e+01
0	 5.571428571428571e+00	 4.285714285714286e+00	 1.012425522862815e+01
0	 5.571428571428569e+00	 4.428571428571428e+00	 1.012275690274048e+01
0	 5.571428571428569e+00	 4.571428571428570e+00	 1.012129194213515e+01
0	 5.571428571428569e+00	 4.714285714285715e+00	 1.011970170344410e+01
0	 5.571428571428569e+00	 4.857142857142857e+00	 1.011782754329931e+01
0	 5.571428571428569e+00	 4.999999999999999e+00	 1.011551081833272e+01
0	 5.571428571428570e+00	 5.142857142857142e+00	 1.011259288517631e+01
0	 5.571428571428569e+00	 5.285714285714284e+00	 1.010891510046202e+01
0	 5.571428571428570e+00	 5.428571428571427e+00	 1.010431882082180e+01
0	 5.571428571428571e+00	 5.571428571428569e+00	 1.009864540288764e+01
0	 5.571428571428571e+00	 5.714285714285714e+00	 1.009173620329148e+01
0	 5.714285714285715e+00	 4.285714285714286e+00	 1.011796727691579e+01
0	 5.714285714285715e+00	 4.428571428571428e+00	 1.011879741034697e+01
0	 5.714285714285714e+00	 4.571428571428571e+00	 1.011909601027719e+01
0	 5.714285714285714e+00	 4.714285714285714e+00	 1.011876110240193e+01
0	 5.714285714285715e+00	 4.857142857142858e+00	 1.011769071241665e+01
0	 5.714285714285714e+00	 5.000000000000002e+00	 1.011578286601679e+01
0	 5.714285714285714e+00	 5.142857142857142e+00	 1.011293558889783e+01
0	 5.714285714285714e+00	 5.285714285714285e+00	 1.010904690675521e+01
0	 5.714285714285714e+00	 5.428571428571427e+00	 1.010401484528439e+01
0	 5.714285714285714e+00	 5.571428571428570e+00	 1.009773743018082e+01
0	 5.714285714285715e+00	 5.714285714285714e+00	 1.009011268713998e+01
0	 4.285714285714286e+00	 5.714285714285714e+00	 1.006977845167397e+01
0	 4.285714285714286e+00	 5.857142857142856e+00	 1.006825414670156e+01
0	 4.285714285714286e+00	 5.999999999999999e+00	 1.006641607009411e+01
0	 4.285714285714286e+00	 6.142857142857141e+00	 1.006424237934481e+01
0	 4.285714285714286e+00	 6.285714285714284e+00	 1.006171123194684e+01
0	 4.285714285714286e+00	 6.428571428571424e+00	 1.005880078539336e+01
0	 4.285714285714287e+00	 6.571428571428569e+00	 1.005548919717754e+01
0	 4.285714285714286e+00	 6.714285714285711e+00	 1.005175462479258e+01
0	 4.285714285714286e+00	 6.857142857142851e+00	 1.004757522573162e+01
0	 4.285714285714287e+00	 6.999999999999996e+00	 1.004292915748785e+01
0	 4.285714285714286e+00	 7.142857142857141e+00	 1.003779457755445e+01
0	 4.428571428571429e+00	 5.714285714285714e+00	 1.007333364286426e+01
0	 4.428571428571430e+00	 5.857142857142856e+00	 1.007246305201616e+01
0	 4.428571428571430e+00	 5.999999999999999e+00	 1.007097155715517e+01
0	 4.428571428571430e+00	 6.142857142857141e+00	 1.006888404888859e+01
0	 4.428571428571429e+00	 6.285714285714282e+00	 1.006622541782376e+01
0	 4.428571428571428e+00	 6.428571428571424e+00	 1.006302055456796e+01
0	 4.428571428571429e+00	 6.571428571428569e+00	 1.005929434972855e+01
0	 4.428571428571429e+00	 6.714285714285711e+00	 1.005507169391282e+01
0	 4.428571428571430e+00	 6.857142857142853e+00	 1.005037747772808e+01
0	 4.428571428571429e+00	 6.999999999999995e+00	 1.004523659178166e+01
0	 4.428571428571429e+00	 7.142857142857142e+00	 1.003967392668088e+01
0	 4.571428571428571e+00	 5.714285714285714e+00	 1.007702514614581e+01
0	 4.571428571428571e+00	 5.857142857142856e+00	 1.007621650445164e+01
0	 4.571428571428570e+00	 5.999999999999996e+00	 1.007461485768082e+01
0	 4.571428571428569e+00	 6.142857142857139e+00	 1.007228260565209e+01
0	 4.571428571428574e+00	 6.285714285714284e+00	 1.006928214818418e+01
0	 4.571428571428573e+00	 6.428571428571428e+00	 1.006567588509583e+01
0	 4.571428571428572e+00	 6.571428571428567e+00	 1.006152621620579e+01
0	 4.571428571428571e+00	 6.714285714285712e+00	 1.005689554133280e+01
0	 4.571428571428572e+00	 6.857142857142855e+00	 1.005184626029560e+01
0	 4.571428571428572e+00	 6.999999999999996e+00	 1.004644077291293e+01
0	 4.571428571428572e+00	 7.142857142857144e+00	 1.004074147900353e+01
0	 4.714285714285714e+00	 5.714285714285714e+00	 1.008067503051411e+01
0	 4.714285714285716e+00	 5.857142857142856e+00	 1.007944946543767e+01
0	 4.714285714285714e+00	 5.999999999999998e+00	 1.007737594860095e+01
0	 4.714285714285715e+00	 6.142857142857141e+00	 1.007454516513137e+01
0	 4.714285714285714e+00	 6.285714285714284e+00	 1.007104780015639e+01
0	 4.714285714285714e+00	 6.428571428571427e+00	 1.006697453880347e+01
0	 4.714285714285715e+00	 6.571428571428570e+00	 1.006241606620003e+01
0	 4.714285714285714e+00	 6.714285714285708e+00	 1.005746306747353e+01
0	 4.714285714285714e+00	 6.857142857142854e+00	 1.005220622775142e+01
0	 4.714285714285714e+00	 6.999999999999996e+00	 1.004673623216112e+01
0	 4.714285714285714e+00	 7.142857142857143e+00	 1.004114376583010e+01
0	 4.857142857142858e+00	 5.714285714285714e+00	 1.008410536496460e+01
0	 4.857142857142858e+00	 5.857142857142857e+00	 1.008209689640389e+01
0	 4.857142857142858e+00	 5.999999999999998e+00	 1.007928480684538e+01
0	 4.857142857142857e+00	 6.142857142857139e+00	 1.007577884282250e+01
0	 4.857142857142859e+00	 6.285714285714283e+00	 1.007168875086868e+01
0	 4.857142857142858e+00	 6.428571428571425e+00	 1.006712427751737e+01
0	 4.857142857142858e+00	 6.571428571428569e+00	 1.006219516930198e+01
0	 4.857142857142856e+00	 6.714285714285709e+00	 1.005701117275595e+01
0	 4.857142857142858e+00	 6.857142857142854e+00	 1.005168203441272e+01
0	 4.857142857142858e+00	 6.999999999999996e+00	 1.004631750080570e+01
0	 4.857142857142858e+00	 7.142857142857143e+00	 1.004102731846834e+01
0	 4.999999999999999e+00	 5.714285714285713e+00	 1.008713821849277e+01
0	 4.999999999999999e+00	 5.857142857142857e+00	 1.008409375877996e+01
0	 4.999999999999999e+00	 5.999999999999998e+00	 1.008037140934398e+01
0	 5.000000000000001e+00	 6.142857142857141e+00	 1.007609075422153e+01
0	 5.000000000000001e+00	 6.285714285714283e+00	 1.007137137744931e+01
0	 5.000000000000002e+00	 6.428571428571427e+00	 1.006633286306403e+01
0	 5.000000000000001e+00	 6.571428571428569e+00	 1.006109479510237e+01
0	 5.000000000000000e+00	 6.714285714285711e+00	 1.005577675760103e+01
0	 5.000000000000002e+00	 6.857142857142853e+00	 1.005049833459673e+01
0	 5.000000000000001e+00	 6.999999999999995e+00	 1.004537911012614e+01
0	 5.000000000000000e+00	 7.142857142857143e+00	 1.004053866822597e+01
0	 5.142857142857142e+00	 5.714285714285714e+00	 1.008959566009409e+01
0	 5.142857142857142e+00	 5.857142857142857e+00	 1.008537501399555e+01
0	 5.142857142857144e+00	 5.999999999999999e+00	 1.008066573302661e+01
0	 5.142857142857145e+00	 6.142857142857142e+00	 1.007558801482454e+01
0	 5.142857142857143e+00	 6.285714285714285e+00	 1.007026205702656e+01
0	 5.142857142857142e+00	 6.428571428571425e+00	 1.006480805726994e+01
0	 5.142857142857142e+00	 6.571428571428567e+00	 1.005934621319192e+01
0	 5.142857142857141e+00	 6.714285714285709e+00	 1.005399672242974e+01
0	 5.142857142857143e+00	 6.857142857142854e+00	 1.004887978262065e+01
0	 5.142857142857144e+00	 6.999999999999996e+00	 1.004411559140189e+01
0	 5.142857142857143e+00	 7.142857142857144e+00	 1.003982434641071e+01
0	 5.285714285714285e+00	 5.714285714285714e+00	 1.009129975876399e+01
0	 5.285714285714286e+00	 5.857142857142856e+00	 1.008587562348029e+01
0	 5.285714285714285e+00	 5.999999999999997e+00	 1.008019775482312e+01
0	 5.285714285714284e+00	 6.142857142857140e+00	 1.007437774012757e+01
0	 5.285714285714286e+00	 6.285714285714284e+00	 1.006852716672871e+01
0	 5.285714285714286e+00	 6.428571428571426e+00	 1.006275762196162e+01
0	 5.285714285714284e+00	 6.571428571428569e+00	 1.005718069316137e+01
0	 5.285714285714286e+00	 6.714285714285711e+00	 1.005190796766304e+01
0	 5.285714285714283e+00	 6.857142857142851e+00	 1.004705103280169e+01
0	 5.285714285714285e+00	 6.999999999999996e+00	 1.004272147591242e+01
0	 5.285714285714285e+00	 7.142857142857142e+00	 1.003903088433029e+01
0	 5.428571428571428e+00	 5.714285714285714e+00	 1.009207258349797e+01
0	 5.428571428571429e+00	 5.857142857142857e+00	 1.008553054866385e+01
0	 5.428571428571427e+00	 5.999999999999998e+00	 1.007899745166336e+01
0	 5.428571428571425e+00	 6.142857142857141e+00	 1.007256704562669e+01
0	 5.428571428571429e+00	 6.285714285714283e+00	 1.006633308368403e+01
0	 5.428571428571429e+00	 6.428571428571424e+00	 1.006038931896555e+01
0	 5.428571428571428e+00	 6.571428571428567e+00	 1.005482950460144e+01
0	 5.428571428571429e+00	 6.714285714285711e+00	 1.004974739372189e+01
0	 5.428571428571429e+00	 6.857142857142854e+00	 1.004523673945708e+01
0	 5.428571428571429e+00	 6.999999999999996e+00	 1.004139129493720e+01
0	 5.428571428571426e+00	 7.142857142857142e+00	 1.003830481329243e+01
0	 5.571428571428571e+00	 5.714285714285714e+00	 1.009173620329148e+01
0	 5.571428571428572e+00	 5.857142857142856e+00	 1.008427475097589e+01
0	 5.571428571428570e+00	 5.999999999999998e+00	 1.007709480047719e+01
0	 5.571428571428571e+00	 6.142857142857141e+00	 1.007026304681797e+01
0	 5.571428571428570e+00	 6.285714285714282e+00	 1.006384618502078e+01
0	 5.571428571428569e+00	 6.428571428571425e+00	 1.005791091010822e+01
0	 5.571428571428570e+00	 6.571428571428569e+00	 1.005252391710286e+01
0	 5.571428571428571e+00	 6.714285714285712e+00	 1.004775190102726e+01
0	 5.571428571428571e+00	 6.857142857142853e+00	 1.004366155690402e+01
0	 5.571428571428570e+00	 6.999999999999996e+00	 1.004031957975568e+01
0	 5.571428571428570e+00	 7.142857142857144e+00	 1.003779266460484e+01
0	 5.714285714285715e+00	 5.714285714285714e+00	 1.009011268713998e+01
0	 5.714285714285716e+00	 5.857142857142857e+00	 1.008204319184607e+01
0	 5.714285714285716e+00	 6.000000000000000e+00	 1.007451977819447e+01
0	 5.714285714285715e+00	 6.142857142857141e+00	 1.006757285919747e+01
0	 5.714285714285715e+00	 6.285714285714283e+00	 1.006123284786728e+01
0	 5.714285714285714e+00	 6.428571428571426e+00	 1.005553015721617e+01
0	 5.714285714285715e+00	 6.571428571428569e+00	 1.005049520025637e+01
0	 5.714285714285714e+00	 6.714285714285710e+00	 1.004615839000013e+01
0	 5.714285714285714e+00	 6.857142857142851e+00	 1.004255013945970e+01
0	 5.714285714285714e+00	 6.999999999999996e+00	 1.003970086164733e+01
0	 5.714285714285714e+00	 7.142857142857141e+00	 1.003764096957527e+01
0	 4.285714285714286e+00	 7.142857142857141e+00	 1.003779457755445e+01
0	 4.285714285714286e+00	 7.285714285714285e+00	 1.003265988138742e+01
0	 4.285714285714287e+00	 7.428571428571428e+00	 1.002802320245882e+01
0	 4.285714285714286e+00	 7.571428571428572e+00	 1.002387730528588e+01
0	 4.285714285714286e+00	 7.714285714285715e+00	 1.002021495438580e+01
0	 4.285714285714286e+00	 7.857142857142855e+00	 1.001702891427583e+01
0	 4.285714285714286e+00	 8.000000000000000e+00	 1.001431194947319e+01
0	 4.285714285714286e+00	 8.142857142857141e+00	 1.001205682449510e+01
0	 4.285714285714286e+00	 8.285714285714281e+00	 1.001025630385878e+01
0	 4.285714285714286e+00	 8.428571428571423e+00	 1.000890315208146e+01
0	 4.285714285714286e+00	 8.571428571428573e+00	 1.000799013368036e+01
0	 4.428571428571429e+00	 7.142857142857142e+00	 1.003967392668088e+01
0	 4.428571428571428e+00	 7.285714285714285e+00	 1.003422520336863e+01
0	 4.428571428571428e+00	 7.428571428571427e+00	 1.002938793859616e+01
0	 4.428571428571428e+00	 7.571428571428570e+00	 1.002512971668334e+01
0	 4.428571428571430e+00	 7.714285714285713e+00	 1.002141812195002e+01
0	 4.428571428571428e+00	 7.857142857142855e+00	 1.001822073871608e+01
0	 4.428571428571429e+00	 7.999999999999999e+00	 1.001550515130137e+01
0	 4.428571428571430e+00	 8.142857142857142e+00	 1.001323894402576e+01
0	 4.428571428571429e+00	 8.285714285714285e+00	 1.001138970120910e+01
0	 4.428571428571430e+00	 8.428571428571425e+00	 1.000992500717124e+01
0	 4.428571428571430e+00	 8.571428571428573e+00	 1.000881244623208e+01
0	 4.571428571428572e+00	 7.142857142857144e+00	 1.004074147900353e+01
0	 4.571428571428571e+00	 7.285714285714286e+00	 1.003526644978831e+01
0	 4.571428571428571e+00	 7.428571428571429e+00	 1.003045720288230e+01
0	 4.571428571428572e+00	 7.571428571428572e+00	 1.002626130769542e+01
0	 4.571428571428571e+00	 7.714285714285713e+00	 1.002262633363754e+01
0	 4.571428571428572e+00	 7.857142857142855e+00	 1.001949985011856e+01
0	 4.571428571428572e+00	 7.999999999999996e+00	 1.001682942654838e+01
0	 4.571428571428571e+00	 8.142857142857142e+00	 1.001456263233690e+01
0	 4.571428571428572e+00	 8.285714285714281e+00	 1.001264703689400e+01
0	 4.571428571428573e+00	 8.428571428571429e+00	 1.001103020962961e+01
0	 4.571428571428571e+00	 8.571428571428569e+00	 1.000965971995359e+01
0	 4.714285714285714e+00	 7.142857142857143e+00	 1.004114376583010e+01
0	 4.714285714285715e+00	 7.285714285714287e+00	 1.003587710235903e+01
0	 4.714285714285714e+00	 7.428571428571426e+00	 1.003127920512183e+01
0	 4.714285714285714e+00	 7.571428571428571e+00	 1.002728279390585e+01
0	 4.714285714285714e+00	 7.714285714285714e+00	 1.002382058849839e+01
0	 4.714285714285715e+00	 7.857142857142856e+00	 1.002082530868680e+01
0	 4.714285714285714e+00	 7.999999999999996e+00	 1.001822967425839e+01
0	 4.714285714285715e+00	 8.142857142857141e+00	 1.001596640500050e+01
0	 4.714285714285714e+00	 8.285714285714279e+00	 1.001396822070046e+01
0	 4.714285714285716e+00	 8.428571428571429e+00	 1.001216784114559e+01
0	 4.714285714285714e+00	 8.571428571428573e+00	 1.001049798612322e+01
0	 4.857142857142858e+00	 7.142857142857143e+00	 1.004102731846834e+01
0	 4.857142857142859e+00	 7.285714285714286e+00	 1.003615064279337e+01
0	 4.857142857142855e+00	 7.428571428571426e+00	 1.003190215511933e+01
0	 4.857142857142857e+00	 7.571428571428568e+00	 1.002820489089836e+01
0	 4.857142857142859e+00	 7.714285714285713e+00	 1.002498188558264e+01
0	 4.857142857142859e+00	 7.857142857142856e+00	 1.002215617462432e+01
0	 4.857142857142857e+00	 7.999999999999999e+00	 1.001965079347557e+01
0	 4.857142857142858e+00	 8.142857142857141e+00	 1.001738877758852e+01
0	 4.857142857142858e+00	 8.285714285714283e+00	 1.001529316241536e+01
0	 4.857142857142857e+00	 8.428571428571427e+00	 1.001328698340822e+01
0	 4.857142857142858e+00	 8.571428571428571e+00	 1.001129327601929e+01
0	 5.000000000000000e+00	 7.142857142857143e+00	 1.004053866822597e+01
0	 5.000000000000000e+00	 7.285714285714285e+00	 1.003618055280389e+01
0	 5.000000000000001e+00	 7.428571428571428e+00	 1.003237426267933e+01
0	 4.999999999999999e+00	 7.571428571428570e+00	 1.002903831425669e+01
0	 5.000000000000002e+00	 7.714285714285714e+00	 1.002609122394034e+01
0	 5.000000000000000e+00	 7.857142857142855e+00	 1.002345150813468e+01
0	 4.999999999999999e+00	 7.999999999999996e+00	 1.002103768324408e+01
0	 5.000000000000001e+00	 8.142857142857141e+00	 1.001876826567294e+01
0	 5.000000000000003e+00	 8.285714285714286e+00	 1.001656177182565e+01
0	 5.000000000000001e+00	 8.428571428571425e+00	 1.001433671810658e+01
0	 5.000000000000002e+00	 8.571428571428571e+00	 1.001201162092012e+01
0	 5.142857142857143e+00	 7.142857142857144e+00	 1.003982434641071e+01
0	 5.142857142857143e+00	 7.285714285714286e+00	 1.003606031410316e+01
0	 5.142857142857144e+00	 7.428571428571428e+00	 1.003274373760644e+01
0	 5.142857142857142e+00	 7.571428571428569e+00	 1.002979377956457e+01
0	 5.142857142857144e+00	 7.714285714285714e+00	 1.002712960262153e+01
0	 5.142857142857144e+00	 7.857142857142856e+00	 1.002467036942139e+01
0	 5.142857142857144e+00	 7.999999999999999e+00	 1.002233524260811e+01
0	 5.142857142857143e+00	 8.142857142857141e+00	 1.002004338482573e+01
0	 5.142857142857143e+00	 8.285714285714285e+00	 1.001771395871824e+01
0	 5.142857142857143e+00	 8.428571428571425e+00	 1.001526612692967e+01
0	 5.142857142857142e+00	 8.571428571428571e+00	 1.001261905210403e+01
0	 5.285714285714285e+00	 7.142857142857142e+00	 1.003903088433029e+01
0	 5.285714285714286e+00	 7.285714285714287e+00	 1.003588340840376e+01
0	 5.285714285714285e+00	 7.428571428571426e+00	 1.003305878970521e+01
0	 5.285714285714284e+00	 7.571428571428569e+00	 1.003048200240572e+01
0	 5.285714285714285e+00	 7.714285714285714e+00	 1.002807802067630e+01
0	 5.285714285714286e+00	 7.857142857142857e+00	 1.002577181868799e+01
0	 5.285714285714285e+00	 7.999999999999997e+00	 1.002348837061183e+01
0	 5.285714285714284e+00	 8.142857142857139e+00	 1.002115265061885e+01
0	 5.285714285714286e+00	 8.285714285714283e+00	 1.001868963288008e+01
0	 5.285714285714285e+00	 8.428571428571425e+00	 1.001602429156656e+01
0	 5.285714285714285e+00	 8.571428571428571e+00	 1.001308160084932e+01
0	 5.428571428571426e+00	 7.142857142857142e+00	 1.003830481329243e+01
0	 5.428571428571428e+00	 7.285714285714286e+00	 1.003574331741822e+01
0	 5.428571428571427e+00	 7.428571428571427e+00	 1.003336762878023e+01
0	 5.428571428571428e+00	 7.571428571428569e+00	 1.003111369836389e+01
0	 5.428571428571428e+00	 7.714285714285713e+00	 1.002891747715467e+01
0	 5.428571428571428e+00	 7.857142857142856e+00	 1.002671491613803e+01
0	 5.428571428571426e+00	 7.999999999999996e+00	 1.002444196629941e+01
0	 5.428571428571429e+00	 8.142857142857139e+00	 1.002203457862428e+01
0	 5.428571428571428e+00	 8.285714285714285e+00	 1.001942870409808e+01
0	 5.428571428571427e+00	 8.428571428571423e+00	 1.001656029370628e+01
0	 5.428571428571429e+00	 8.571428571428575e+00	 1.001336529843432e+01
0	 5.571428571428570e+00	 7.142857142857144e+00	 1.003779266460484e+01
0	 5.571428571428569e+00	 7.285714285714286e+00	 1.003573352285915e+01
0	 5.571428571428569e+00	 7.428571428571427e+00	 1.003371846463605e+01
0	 5.571428571428572e+00	 7.571428571428572e+00	 1.003169958302281e+01
0	 5.571428571428569e+00	 7.714285714285713e+00	 1.002962897110671e+01
0	 5.571428571428569e+00	 7.857142857142854e+00	 1.002745872197502e+01
0	 5.571428571428571e+00	 7.999999999999999e+00	 1.002514092871502e+01
0	 5.571428571428568e+00	 8.142857142857139e+00	 1.002262768441398e+01
0	 5.571428571428569e+00	 8.285714285714281e+00	 1.001987108215918e+01
0	 5.571428571428570e+00	 8.428571428571423e+00	 1.001682321503788e+01
0	 5.571428571428569e+00	 8.571428571428573e+00	 1.001343617613737e+01
0	 5.714285714285714e+00	 7.142857142857141e+00	 1.003764096957527e+01
0	 5.714285714285714e+00	 7.285714285714285e+00	 1.003594750643910e+01
0	 5.714285714285715e+00	 7.428571428571429e+00	 1.003415950707725e+01
0	 5.714285714285715e+00	 7.571428571428571e+00	 1.003225037196621e+01
0	 5.714285714285714e+00	 7.714285714285714e+00	 1.003019350158247e+01
0	 5.714285714285714e+00	 7.857142857142854e+00	 1.002796229640251e+01
0	 5.714285714285714e+00	 7.999999999999998e+00	 1.002553015690284e+01
0	 5.714285714285714e+00	 8.142857142857141e+00	 1.002287048355994e+01
0	 5.714285714285715e+00	 8.285714285714285e+00	 1.001995667685030e+01
0	 5.714285714285715e+00	 8.428571428571425e+00	 1.001676213725040e+01
0	 5.714285714285715e+00	 8.571428571428573e+00	 1.001326026523676e+01
0	 4.285714285714286e+00	 8.571428571428573e+00	 1.000799013368036e+01
0	 4.285714285714286e+00	 8.714285714285717e+00	 1.000725643882425e+01
0	 4.285714285714285e+00	 8.857142857142856e+00	 1.000646774461412e+01
0	 4.285714285714287e+00	 9.000000000000002e+00	 1.000565654596561e+01
0	 4.285714285714286e+00	 9.142857142857141e+00	 1.000485533779434e+01
0	 4.285714285714286e+00	 9.285714285714285e+00	 1.000409661501596e+01
0	 4.285714285714286e+00	 9.428571428571429e+00	 1.000341287254609e+01
0	 4.285714285714286e+00	 9.571428571428569e+00	 1.000283660530035e+01
0	 4.285714285714286e+00	 9.714285714285712e+00	 1.000240030819433e+01
0	 4.285714285714286e+00	 9.857142857142856e+00	 1.000213647614375e+01
0	 4.285714285714286e+00	 1.000000000000000e+01	 1.000207760406412e+01
0	 4.428571428571430e+00	 8.571428571428573e+00	 1.000881244623208e+01
0	 4.428571428571429e+00	 8.714285714285714e+00	 1.000784086479105e+01
0	 4.428571428571430e+00	 8.857142857142859e+00	 1.000684579505828e+01
0	 4.428571428571431e+00	 9.000000000000002e+00	 1.000586485006961e+01
0	 4.428571428571429e+00	 9.142857142857144e+00	 1.000493564286088e+01
0	 4.428571428571429e+00	 9.285714285714283e+00	 1.000409578646795e+01
0	 4.428571428571429e+00	 9.428571428571427e+00	 1.000338289392666e+01
0	 4.428571428571430e+00	 9.571428571428571e+00	 1.000283457827283e+01
0	 4.428571428571429e+00	 9.714285714285712e+00	 1.000248845254233e+01
0	 4.428571428571430e+00	 9.857142857142852e+00	 1.000238212977102e+01
0	 4.428571428571429e+00	 1.000000000000000e+01	 1.000255322299467e+01
0	 4.571428571428571e+00	 8.571428571428569e+00	 1.000965971995358e+01
0	 4.571428571428573e+00	 8.714285714285719e+00	 1.000839231758315e+01
0	 4.571428571428573e+00	 8.857142857142861e+00	 1.000714658964212e+01
0	 4.571428571428572e+00	 9.000000000000000e+00	 1.000596286165042e+01
0	 4.571428571428570e+00	 9.142857142857142e+00	 1.000488145912790e+01
0	 4.571428571428571e+00	 9.285714285714285e+00	 1.000394270759449e+01
0	 4.571428571428571e+00	 9.428571428571427e+00	 1.000318693257005e+01
0	 4.571428571428571e+00	 9.571428571428568e+00	 1.000265445957447e+01
0	 4.571428571428573e+00	 9.714285714285712e+00	 1.000238561412765e+01
0	 4.571428571428572e+00	 9.857142857142852e+00	 1.000242072174945e+01
0	 4.571428571428572e+00	 1.000000000000000e+01	 1.000280010795982e+01
0	 4.714285714285714e+00	 8.571428571428573e+00	 1.001049798612322e+01
0	 4.714285714285716e+00	 8.714285714285717e+00	 1.000889625024695e+01
0	 4.714285714285714e+00	 8.857142857142859e+00	 1.000737216985069e+01
0	 4.714285714285714e+00	 8.999999999999996e+00	 1.000596637730217e+01
0	 4.714285714285717e+00	 9.142857142857144e+00	 1.000471950496916e+01
0	 4.714285714285715e+00	 9.285714285714283e+00	 1.000367218521941e+01
0	 4.714285714285714e+00	 9.428571428571427e+00	 1.000286505042070e+01
0	 4.714285714285715e+00	 9.571428571428568e+00	 1.000233873294074e+01
0	 4.714285714285715e+00	 9.714285714285712e+00	 1.000213386514735e+01
0	 4.714285714285715e+00	 9.857142857142856e+00	 1.000229107940823e+01
0	 4.714285714285715e+00	 1.000000000000000e+01	 1.000285100809117e+01
0	 4.857142857142858e+00	 8.571428571428571e+00	 1.001129327601930e+01
0	 4.857142857142858e+00	 8.714285714285717e+00	 1.000933811582891e+01
0	 4.857142857142857e+00	 8.857142857142859e+00	 1.000752457716900e+01
0	 4.857142857142858e+00	 8.999999999999998e+00	 1.000589119361899e+01
0	 4.857142857142859e+00	 9.142857142857144e+00	 1.000447649875834e+01
0	 4.857142857142858e+00	 9.285714285714285e+00	 1.000331902616653e+01
0	 4.857142857142858e+00	 9.428571428571427e+00	 1.000245730942298e+01
0	 4.857142857142857e+00	 9.571428571428569e+00	 1.000192988210718e+01
0	 4.857142857142859e+00	 9.714285714285714e+00	 1.000177527779855e+01
0	 4.857142857142858e+00	 9.857142857142856e+00	 1.000203203007654e+01
0	 4.857142857142858e+00	 1.000000000000000e+01	 1.000273867252063e+01
0	 5.000000000000002e+00	 8.571428571428571e+00	 1.001201162092012e+01
0	 5.000000000000000e+00	 8.714285714285714e+00	 1.000970336737543e+01
0	 4.999999999999999e+00	 8.857142857142858e+00	 1.000760585308207e+01
0	 5.000000000000001e+00	 9.000000000000002e+00	 1.000575310719501e+01
0	 5.000000000000000e+00	 9.142857142857142e+00	 1.000417915886920e+01
0	 5.000000000000001e+00	 9.285714285714283e+00	 1.000291803725966e+01
0	 5.000000000000001e+00	 9.428571428571427e+00	 1.000200377152135e+01
0	 5.000000000000000e+00	 9.571428571428568e+00	 1.000147039080924e+01
0	 5.000000000000001e+00	 9.714285714285712e+00	 1.000135192427831e+01
0	 4.999999999999999e+00	 9.857142857142852e+00	 1.000168240108353e+01
0	 5.000000000000000e+00	 1.000000000000000e+01	 1.000249585037990e+01
0	 5.142857142857142e+00	 8.571428571428571e+00	 1.001261905210403e+01
0	 5.142857142857141e+00	 8.714285714285717e+00	 1.000997745793294e+01
0	 5.142857142857142e+00	 8.857142857142856e+00	 1.000761803907493e+01
0	 5.142857142857144e+00	 9.000000000000000e+00	 1.000556791462433e+01
0	 5.142857142857144e+00	 9.142857142857141e+00	 1.000385420367544e+01
0	 5.142857142857143e+00	 9.285714285714285e+00	 1.000250402532262e+01
0	 5.142857142857142e+00	 9.428571428571427e+00	 1.000154449866016e+01
0	 5.142857142857144e+00	 9.571428571428569e+00	 1.000100274278243e+01
0	 5.142857142857144e+00	 9.714285714285714e+00	 1.000090587678375e+01
0	 5.142857142857143e+00	 9.857142857142854e+00	 1.000128101975838e+01
0	 5.142857142857143e+00	 1.000000000000000e+01	 1.000215529080072e+01
0	 5.285714285714285e+00	 8.571428571428571e+00	 1.001308160084932e+01
0	 5.285714285714286e+00	 8.714285714285719e+00	 1.001014584054784e+01
0	 5.285714285714285e+00	 8.857142857142854e+00	 1.000756317663260e+01
0	 5.285714285714285e+00	 8.999999999999998e+00	 1.000535141250107e+01
0	 5.285714285714286e+00	 9.142857142857144e+00	 1.000352835155078e+01
0	 5.285714285714286e+00	 9.285714285714286e+00	 1.000211179717920e+01
0	 5.285714285714285e+00	 9.428571428571429e+00	 1.000111955278386e+01
0	 5.285714285714286e+00	 9.571428571428571e+00	 1.000056942176227e+01
0	 5.285714285714285e+00	 9.714285714285712e+00	 1.000047920751187e+01
0	 5.285714285714285e+00	 9.857142857142852e+00	 1.000086671343025e+01
0	 5.285714285714284e+00	 1.000000000000000e+01	 1.000174974291481e+01
0	 5.428571428571429e+00	 8.571428571428575e+00	 1.001336529843432e+01
0	 5.428571428571429e+00	 8.714285714285715e+00	 1.001019396826659e+01
0	 5.428571428571428e+00	 8.857142857142856e+00	 1.000744330724011e+01
0	 5.428571428571429e+00	 9.000000000000002e+00	 1.000511939741938e+01
0	 5.428571428571428e+00	 9.142857142857142e+00	 1.000322832086893e+01
0	 5.428571428571427e+00	 9.285714285714285e+00	 1.000177615965325e+01
0	 5.428571428571427e+00	 9.428571428571423e+00	 1.000076899583684e+01
0	 5.428571428571428e+00	 9.571428571428571e+00	 1.000021291148425e+01
0	 5.428571428571428e+00	 9.714285714285710e+00	 1.000011398865988e+01
0	 5.428571428571427e+00	 9.857142857142852e+00	 1.000047830942833e+01
0	 5.428571428571427e+00	 1.000000000000000e+01	 1.000131195585407e+01
0	 5.571428571428569e+00	 8.571428571428573e+00	 1.001343617613736e+01
0	 5.571428571428569e+00	 8.714285714285715e+00	 1.001010729413556e+01
0	 5.571428571428569e+00	 8.857142857142858e+00	 1.000726047238246e+01
0	 5.571428571428570e+00	 9.000000000000002e+00	 1.000488766597336e+01
0	 5.571428571428570e+00	 9.142857142857142e+00	 1.000298083000362e+01
0	 5.571428571428572e+00	 9.285714285714286e+00	 1.000153191956856e+01
0	 5.571428571428571e+00	 9.428571428571429e+00	 1.000053288976352e+01
0	 5.571428571428570e+00	 9.571428571428568e+00	 9.999975695683830e+00
0	 5.571428571428571e+00	 9.714285714285710e+00	 9.999852292424826e+00
0	 5.571428571428570e+00	 9.857142857142852e+00	 1.000015463508183e+01
0	 5.571428571428570e+00	 1.000000000000000e+01	 1.000087467875019e+01
0	 5.714285714285715e+00	 8.571428571428573e+00	 1.001326026523676e+01
0	 5.714285714285717e+00	 8.714285714285719e+00	 1.000987127120123e+01
0	 5.714285714285715e+00	 8.857142857142859e+00	 1.000701671354470e+01
0	 5.714285714285714e+00	 9.000000000000002e+00	 1.000467201475715e+01
0	 5.714285714285715e+00	 9.142857142857141e+00	 1.000281259732858e+01
0	 5.714285714285716e+00	 9.285714285714286e+00	 1.000141388374897e+01
0	 5.714285714285714e+00	 9.428571428571429e+00	 1.000045129650830e+01
0	 5.714285714285715e+00	 9.571428571428571e+00	 9.999900258096575e+00
0	 5.714285714285714e+00	 9.714285714285712e+00	 9.999736191003771e+00
0	 5.714285714285714e+00	 9.857142857142856e+00	 9.999934517719829e+00
0	 5.714285714285714e+00	 1.000000000000000e+01	 1.000047066073485e+01
0	 5.714285714285714e+00	 0.000000000000000e+00	 1.016109557466802e+01
0	 5.714285714285714e+00	 1.428571428571429e-01	 1.014063074374244e+01
0	 5.714285714285714e+00	 2.857142857142858e-01	 1.012281366859422e+01
0	 5.714285714285714e+00	 4.285714285714287e-01	 1.010804940567520e+01
0	 5.714285714285714e+00	 5.714285714285715e-01	 1.009674301143727e+01
0	 5.714285714285714e+00	 7.142857142857143e-01	 1.008929954233231e+01
0	 5.714285714285713e+00	 8.571428571428571e-01	 1.008612405481218e+01
0	 5.714285714285714e+00	 1.000000000000000e+00	 1.008762160532876e+01
0	 5.714285714285714e+00	 1.142857142857143e+00	 1.009419725033391e+01
0	 5.714285714285714e+00	 1.285714285714286e+00	 1.010625604627951e+01
0	 5.714285714285715e+00	 1.428571428571429e+00	 1.012420304961743e+01
0	 5.857142857142858e+00	 0.000000000000000e+00	 1.018163130900872e+01
0	 5.857142857142858e+00	 1.428571428571429e-01	 1.015294996739368e+01
0	 5.857142857142858e+00	 2.857142857142858e-01	 1.012847182363503e+01
0	 5.857142857142858e+00	 4.285714285714288e-01	 1.010848423901292e+01
0	 5.857142857142856e+00	 5.714285714285714e-01	 1.009327457480751e+01
0	 5.857142857142856e+00	 7.142857142857143e-01	 1.008313019229896e+01
0	 5.857142857142857e+00	 8.571428571428575e-01	 1.007833845276746e+01
0	 5.857142857142857e+00	 1.000000000000000e+00	 1.007918671749314e+01
0	 5.857142857142857e+00	 1.142857142857143e+00	 1.008596234775621e+01
0	 5.857142857142856e+00	 1.285714285714286e+00	 1.009895270483679e+01
0	 5.857142857142857e+00	 1.428571428571429e+00	 1.011844515001507e+01
0	 5.999999999999999e+00	 0.000000000000000e+00	 1.018973811071794e+01
0	 5.999999999999997e+00	 1.428571428571429e-01	 1.015762459527801e+01
0	 6.000000000000001e+00	 2.857142857142858e-01	 1.013047226768721e+01
0	 5.999999999999998e+00	 4.285714285714285e-01	 1.010846629215674e+01
0	 6.000000000000000e+00	 5.714285714285715e-01	 1.009179183289781e+01
0	 5.999999999999999e+00	 7.142857142857146e-01	 1.008063405412163e+01
0	 5.999999999999998e+00	 8.571428571428572e-01	 1.007517812003940e+01
0	 5.999999999999997e+00	 1.000000000000000e+00	 1.007560919486233e+01
0	 5.999999999999999e+00	 1.142857142857143e+00	 1.008211244280164e+01
0	 5.999999999999999e+00	 1.285714285714286e+00	 1.009487302806853e+01
0	 5.999999999999999e+00	 1.428571428571429e+00	 1.011407611487422e+01
0	 6.142857142857141e+00	 0.000000000000000e+00	 1.018723231899426e+01
0	 6.142857142857142e+00	 1.428571428571429e-01	 1.015566350184706e+01
0	 6.142857142857138e+00	 2.857142857142857e-01	 1.012914653822724e+01
0	 6.142857142857141e+00	 4.285714285714287e-01	 1.010777989337979e+01
0	 6.142857142857141e+00	 5.714285714285715e-01	 1.009166203254972e+01
0	 6.142857142857142e+00	 7.142857142857144e-01	 1.008089142098203e+01
0	 6.142857142857143e+00	 8.571428571428574e-01	 1.007556652392173e+01
0	 6.142857142857142e+00	 1.000000000000001e+00	 1.007578580661382e+01
0	 6.142857142857141e+00	 1.142857142857143e+00	 1.008164773430332e+01
0	 6.142857142857141e+00	 1.285714285714286e+00	 1.009325077223521e+01
0	 6.142857142857141e+00	 1.428571428571429e+00	 1.011069338565452e+01
0	 6.285714285714284e+00	 0.000000000000000e+00	 1.017593027303623e+01
0	 6.285714285714284e+00	 1.428571428571429e-01	 1.014807556155244e+01
0	 6.285714285714284e+00	 2.857142857142858e-01	 1.012482617273156e+01
0	 6.285714285714284e+00	 4.285714285714287e-01	 1.010620937095514e+01
0	 6.285714285714285e+00	 5.714285714285715e-01	 1.009225242060475e+01
0	 6.285714285714284e+00	 7.142857142857145e-01	 1.008298258606192e+01
0	 6.285714285714285e+00	 8.571428571428573e-01	 1.007842713170821e+01
0	 6.285714285714282e+00	 1.000000000000000e+00	 1.007861332192518e+01
0	 6.285714285714283e+00	 1.142857142857143e+00	 1.008356842109436e+01
0	 6.285714285714284e+00	 1.285714285714286e+00	 1.009331969359732e+01
0	 6.285714285714284e+00	 1.428571428571429e+00	 1.010789440381561e+01
0	 6.428571428571426e+00	 0.000000000000000e+00	 1.015764831204242e+01
0	 6.428571428571427e+00	 1.428571428571429e-01	 1.013586964884577e+01
0	 6.428571428571425e+00	 2.857142857142858e-01	 1.011784270867666e+01
0	 6.428571428571425e+00	 4.285714285714287e-01	 1.010353905315593e+01
0	 6.428571428571425e+00	 5.714285714285714e-01	 1.009293024390444e+01
0	 6.428571428571425e+00	 7.142857142857143e-01	 1.008598784254304e+01
0	 6.428571428571426e+00	 8.571428571428573e-01	 1.008268341069257e+01
0	 6.428571428571425e+00	 1.000000000000000e+00	 1.008298850997391e+01
0	 6.428571428571426e+00	 1.142857142857143e+00	 1.008687470200788e+01
0	 6.428571428571426e+00	 1.285714285714286e+00	 1.009431354841534e+01
0	 6.428571428571424e+00	 1.428571428571429e+00	 1.010527661081715e+01
0	 6.571428571428569e+00	 0.000000000000000e+00	 1.013420277521139e+01
0	 6.571428571428567e+00	 1.428571428571429e-01	 1.012005463817867e+01
0	 6.571428571428570e+00	 2.857142857142858e-01	 1.010852768353899e+01
0	 6.571428571428569e+00	 4.285714285714287e-01	 1.009955326825524e+01
0	 6.571428571428568e+00	 5.714285714285714e-01	 1.009306274929031e+01
0	 6.571428571428569e+00	 7.142857142857143e-01	 1.008898748360711e+01
0	 6.571428571428569e+00	 8.571428571428574e-01	 1.008725882816857e+01
0	 6.571428571428569e+00	 1.000000000000001e+00	 1.008780813993755e+01
0	 6.571428571428568e+00	 1.142857142857143e+00	 1.009056677587698e+01
0	 6.571428571428567e+00	 1.285714285714286e+00	 1.009546609294975e+01
0	 6.571428571428569e+00	 1.428571428571429e+00	 1.010243744811877e+01
0	 6.714285714285712e+00	 0.000000000000000e+00	 1.010741000174170e+01
0	 6.714285714285710e+00	 1.428571428571430e-01	 1.010163940400277e+01
0	 6.714285714285709e+00	 2.857142857142858e-01	 1.009721263479502e+01
0	 6.714285714285711e+00	 4.285714285714287e-01	 1.009403634452616e+01
0	 6.714285714285710e+00	 5.714285714285714e-01	 1.009201718360388e+01
0	 6.714285714285708e+00	 7.142857142857142e-01	 1.009106180243590e+01
0	 6.714285714285712e+00	 8.571428571428574e-01	 1.009107685142992e+01
0	 6.714285714285710e+00	 1.000000000000000e+00	 1.009196898099365e+01
0	 6.714285714285712e+00	 1.142857142857143e+00	 1.009364484153479e+01
0	 6.714285714285713e+00	 1.285714285714286e+00	 1.009601108346105e+01
0	 6.714285714285711e+00	 1.428571428571429e+00	 1.009897435718013e+01
0	 6.857142857142853e+00	 0.000000000000000e+00	 1.007908633083192e+01
0	 6.857142857142851e+00	 1.428571428571429e-01	 1.008163282076969e+01
0	 6.857142857142852e+00	 2.857142857142857e-01	 1.008422909992122e+01
0	 6.857142857142853e+00	 4.285714285714287e-01	 1.008677261024181e+01
0	 6.857142857142854e+00	 5.714285714285714e-01	 1.008916079368668e+01
0	 6.857142857142852e+00	 7.142857142857143e-01	 1.009129109221112e+01
0	 6.857142857142851e+00	 8.571428571428573e-01	 1.009306094777039e+01
0	 6.857142857142853e+00	 1.000000000000000e+00	 1.009436780231973e+01
0	 6.857142857142853e+00	 1.142857142857143e+00	 1.009510909781441e+01
0	 6.857142857142853e+00	 1.285714285714286e+00	 1.009518227620970e+01
0	 6.857142857142854e+00	 1.428571428571429e+00	 1.009448477946085e+01
0	 6.999999999999996e+00	 0.000000000000000e+00	 1.005104810168062e+01
0	 6.999999999999996e+00	 1.428571428571429e-01	 1.006104376293103e+01
0	 6.999999999999995e+00	 2.857142857142858e-01	 1.006990861639406e+01
0	 6.999999999999995e+00	 4.285714285714287e-01	 1.007754639367527e+01
0	 6.999999999999996e+00	 5.714285714285714e-01	 1.008386082638024e+01
0	 6.999999999999995e+00	 7.142857142857144e-01	 1.008875564611453e+01
0	 6.999999999999997e+00	 8.571428571428575e-01	 1.009213458448371e+01
0	 6.999999999999996e+00	 1.000000000000001e+00	 1.009390137309332e+01
0	 6.999999999999996e+00	 1.142857142857143e+00	 1.009395974354898e+01
0	 6.999999999999996e+00	 1.285714285714286e+00	 1.009221342745621e+01
0	 6.999999999999996e+00	 1.428571428571429e+00	 1.008856615642059e+01
0	 7.142857142857143e+00	 0.000000000000000e+00	 1.002511165348636e+01
0	 7.142857142857143e+00	 1.428571428571429e-01	 1.004088110493844e+01
0	 7.142857142857143e+00	 2.857142857142858e-01	 1.005458272169000e+01
0	 7.142857142857144e+00	 4.285714285714288e-01	 1.006614202309968e+01
0	 7.142857142857143e+00	 5.714285714285716e-01	 1.007548452852609e+01
0	 7.142857142857143e+00	 7.142857142857143e-01	 1.008253575732786e+01
0	 7.142857142857145e+00	 8.571428571428575e-01	 1.008722122886362e+01
0	 7.142857142857145e+00	 1.000000000000000e+00	 1.008946646249198e+01
0	 7.142857142857146e+00	 1.142857142857143e+00	 1.008919697757158e+01
0	 7.142857142857143e+00	 1.285714285714286e+00	 1.008633829346105e+01
0	 7.142857142857141e+00	 1.428571428571429e+00	 1.008081592951899e+01
0	 5.714285714285715e+00	 1.428571428571429e+00	 1.012420304961743e+01
0	 5.714285714285716e+00	 1.571428571428572e+00	 1.014371134916138e+01
0	 5.714285714285715e+00	 1.714285714285715e+00	 1.016015595821177e+01
0	 5.714285714285714e+00	 1.857142857142857e+00	 1.017349481995055e+01
0	 5.714285714285715e+00	 2.000000000000000e+00	 1.018368587755965e+01
0	 5.714285714285713e+00	 2.142857142857143e+00	 1.019068707422102e+01
0	 5.714285714285714e+00	 2.285714285714287e+00	 1.019445635311660e+01
0	 5.714285714285714e+00	 2.428571428571429e+00	 1.019495165742833e+01
0	 5.714285714285716e+00	 2.571428571428573e+00	 1.019213093033816e+01
0	 5.714285714285715e+00	 2.714285714285715e+00	 1.018595211502802e+01
0	 5.714285714285715e+00	 2.857142857142857e+00	 1.017637315467986e+01
0	 5.857142857142857e+00	 1.428571428571429e+00	 1.011844515001507e+01
0	 5.857142857142858e+00	 1.571428571428572e+00	 1.013947077287544e+01
0	 5.857142857142857e+00	 1.714285714285715e+00	 1.015687447642944e+01
0	 5.857142857142856e+00	 1.857142857142858e+00	 1.017066434209788e+01
0	 5.857142857142858e+00	 2.000000000000000e+00	 1.018084845130162e+01
0	 5.857142857142858e+00	 2.142857142857144e+00	 1.018743488546150e+01
0	 5.857142857142856e+00	 2.285714285714286e+00	 1.019043172599834e+01
0	 5.857142857142857e+00	 2.428571428571430e+00	 1.018984705433299e+01
0	 5.857142857142858e+00	 2.571428571428572e+00	 1.018568895188628e+01
0	 5.857142857142859e+00	 2.714285714285716e+00	 1.017796550007905e+01
0	 5.857142857142857e+00	 2.857142857142858e+00	 1.016668478033215e+01
0	 5.999999999999999e+00	 1.428571428571429e+00	 1.011407611487422e+01
0	 5.999999999999999e+00	 1.571428571428572e+00	 1.013465809922630e+01
0	 6.000000000000000e+00	 1.714285714285715e+00	 1.015146500369585e+01
0	 5.999999999999998e+00	 1.857142857142858e+00	 1.016454643233926e+01
0	 5.999999999999999e+00	 2.000000000000000e+00	 1.017395198921293e+01
0	 5.999999999999999e+00	 2.142857142857143e+00	 1.017973127837324e+01
0	 5.999999999999999e+00	 2.285714285714287e+00	 1.018193390387659e+01
0	 5.999999999999999e+00	 2.428571428571429e+00	 1.018060946977936e+01
0	 6.000000000000000e+00	 2.571428571428572e+00	 1.017580758013797e+01
0	 6.000000000000002e+00	 2.714285714285715e+00	 1.016757783900879e+01
0	 6.000000000000001e+00	 2.857142857142858e+00	 1.015596985044822e+01
0	 6.142857142857141e+00	 1.428571428571429e+00	 1.011069338565452e+01
0	 6.142857142857143e+00	 1.571428571428572e+00	 1.012926382309314e+01
0	 6.142857142857141e+00	 1.714285714285715e+00	 1.014423969697873e+01
0	 6.142857142857142e+00	 1.857142857142857e+00	 1.015570351839989e+01
0	 6.142857142857141e+00	 2.000000000000000e+00	 1.016373779844524e+01
0	 6.142857142857144e+00	 2.142857142857144e+00	 1.016842504820338e+01
0	 6.142857142857142e+00	 2.285714285714288e+00	 1.016984777876291e+01
0	 6.142857142857143e+00	 2.428571428571430e+00	 1.016808850121245e+01
0	 6.142857142857142e+00	 2.571428571428572e+00	 1.016322972664059e+01
0	 6.142857142857141e+00	 2.714285714285715e+00	 1.015535396613596e+01
0	 6.142857142857141e+00	 2.857142857142857e+00	 1.014454373078715e+01
0	 6.285714285714284e+00	 1.428571428571429e+00	 1.010789440381561e+01
0	 6.285714285714286e+00	 1.571428571428572e+00	 1.012327843935514e+01
0	 6.285714285714285e+00	 1.714285714285714e+00	 1.013551071324577e+01
0	 6.285714285714285e+00	 1.857142857142858e+00	 1.014469802800498e+01
0	 6.285714285714284e+00	 2.000000000000000e+00	 1.015094718615024e+01
0	 6.285714285714286e+00	 2.142857142857144e+00	 1.015436499019905e+01
0	 6.285714285714284e+00	 2.285714285714287e+00	 1.015505824266890e+01
0	 6.285714285714284e+00	 2.428571428571430e+00	 1.015313374607723e+01
0	 6.285714285714285e+00	 2.571428571428573e+00	 1.014869830294155e+01
0	 6.285714285714286e+00	 2.714285714285715e+00	 1.014185871577933e+01
0	 6.285714285714284e+00	 2.857142857142857e+00	 1.013272178710806e+01
0	 6.428571428571424e+00	 1.428571428571429e+00	 1.010527661081715e+01
0	 6.428571428571426e+00	 1.571428571428572e+00	 1.011669244289149e+01
0	 6.428571428571426e+00	 1.714285714285715e+00	 1.012559020946469e+01
0	 6.428571428571424e+00	 1.857142857142857e+00	 1.013209238887973e+01
0	 6.428571428571427e+00	 2.000000000000001e+00	 1.013632145947964e+01
0	 6.428571428571428e+00	 2.142857142857144e+00	 1.013839989960742e+01
0	 6.428571428571427e+00	 2.285714285714286e+00	 1.013845018760611e+01
0	 6.428571428571425e+00	 2.428571428571429e+00	 1.013659480181870e+01
0	 6.428571428571427e+00	 2.571428571428573e+00	 1.013295622058822e+01
0	 6.428571428571427e+00	 2.714285714285716e+00	 1.012765692225766e+01
0	 6.428571428571425e+00	 2.857142857142857e+00	 1.012081938517006e+01
0	 6.571428571428569e+00	 1.428571428571429e+00	 1.010243744811877e+01
0	 6.571428571428569e+00	 1.571428571428572e+00	 1.010949632858140e+01
0	 6.571428571428569e+00	 1.714285714285715e+00	 1.011479034260319e+01
0	 6.571428571428569e+00	 1.857142857142858e+00	 1.011844902874936e+01
0	 6.571428571428569e+00	 2.000000000000001e+00	 1.012060192558510e+01
0	 6.571428571428569e+00	 2.142857142857144e+00	 1.012137857167563e+01
0	 6.571428571428569e+00	 2.285714285714286e+00	 1.012090850558615e+01
0	 6.571428571428569e+00	 2.428571428571430e+00	 1.011932126588187e+01
0	 6.571428571428569e+00	 2.571428571428573e+00	 1.011674639112799e+01
0	 6.571428571428569e+00	 2.714285714285715e+00	 1.011331341988972e+01
0	 6.571428571428569e+00	 2.857142857142858e+00	 1.010915189073225e+01
0	 6.714285714285711e+00	 1.428571428571429e+00	 1.009897435718013e+01
0	 6.714285714285709e+00	 1.571428571428571e+00	 1.010168059130402e+01
0	 6.714285714285713e+00	 1.714285714285715e+00	 1.010342326962899e+01
0	 6.714285714285711e+00	 1.857142857142858e+00	 1.010433037533907e+01
0	 6.714285714285710e+00	 2.000000000000000e+00	 1.010452989161832e+01
0	 6.714285714285709e+00	 2.142857142857143e+00	 1.010414980165081e+01
0	 6.714285714285712e+00	 2.285714285714286e+00	 1.010331808862058e+01
0	 6.714285714285710e+00	 2.428571428571429e+00	 1.010216273571171e+01
0	 6.714285714285710e+00	 2.571428571428572e+00	 1.010081172610824e+01
0	 6.714285714285710e+00	 2.714285714285715e+00	 1.009939304299423e+01
0	 6.714285714285713e+00	 2.857142857142858e+00	 1.009803466955375e+01
0	 6.857142857142854e+00	 1.428571428571429e+00	 1.009448477946085e+01
0	 6.857142857142853e+00	 1.571428571428572e+00	 1.009323572593857e+01
0	 6.857142857142853e+00	 1.714285714285714e+00	 1.009180114750979e+01
0	 6.857142857142854e+00	 1.857142857142858e+00	 1.009029885637408e+01
0	 6.857142857142854e+00	 2.000000000000000e+00	 1.008884666473099e+01
0	 6.857142857142853e+00	 2.142857142857144e+00	 1.008756238478010e+01
0	 6.857142857142854e+00	 2.285714285714286e+00	 1.008656382872100e+01
0	 6.857142857142855e+00	 2.428571428571429e+00	 1.008596880875323e+01
0	 6.857142857142855e+00	 2.571428571428573e+00	 1.008589513707636e+01
0	 6.857142857142855e+00	 2.714285714285716e+00	 1.008646062588998e+01
0	 6.857142857142855e+00	 2.857142857142857e+00	 1.008778308739365e+01
0	 6.999999999999996e+00	 1.428571428571429e+00	 1.008856615642059e+01
0	 6.999999999999996e+00	 1.571428571428572e+00	 1.008415222736422e+01
0	 6.999999999999996e+00	 1.714285714285715e+00	 1.008023613321331e+01
0	 6.999999999999996e+00	 1.857142857142858e+00	 1.007691689957958e+01
0	 6.999999999999996e+00	 2.000000000000000e+00	 1.007429355207479e+01
0	 6.999999999999996e+00	 2.142857142857144e+00	 1.007246511631067e+01
0	 6.999999999999996e+00	 2.285714285714286e+00	 1.007153061789896e+01
0	 6.999999999999996e+00	 2.428571428571430e+00	 1.007158908245141e+01
0	 6.999999999999996e+00	 2.571428571428573e+00	 1.007273953557975e+01
0	 6.999999999999996e+00	 2.714285714285715e+00	 1.007508100289572e+01
0	 6.999999999999996e+00	 2.857142857142857e+00	 1.007871251001105e+01
0	 7.142857142857141e+00	 1.428571428571429e+00	 1.008081592951899e+01
0	 7.142857142857145e+00	 1.571428571428572e+00	 1.007442059046015e+01
0	 7.142857142857146e+00	 1.714285714285715e+00	 1.006904038370723e+01
0	 7.142857142857142e+00	 1.857142857142857e+00	 1.006474693268079e+01
0	 7.142857142857144e+00	 2.000000000000001e+00	 1.006161186080141e+01
0	 7.142857142857144e+00	 2.142857142857144e+00	 1.005970679148964e+01
0	 7.142857142857144e+00	 2.285714285714286e+00	 1.005910334816607e+01
0	 7.142857142857144e+00	 2.428571428571429e+00	 1.005987315425125e+01
0	 7.142857142857141e+00	 2.571428571428572e+00	 1.006208783316578e+01
0	 7.142857142857143e+00	 2.714285714285714e+00	 1.006581900833020e+01
0	 7.142857142857142e+00	 2.857142857142857e+00	 1.007113830316509e+01
0	 5.714285714285715e+00	 2.857142857142857e+00	 1.017637315467986e+01
0	 5.714285714285715e+00	 3.000000000000001e+00	 1.016549484635197e+01
0	 5.714285714285714e+00	 3.142857142857143e+00	 1.015550402628107e+01
0	 5.714285714285714e+00	 3.285714285714286e+00	 1.014648769641676e+01
0	 5.714285714285715e+00	 3.428571428571429e+00	 1.013853285870860e+01
0	 5.714285714285714e+00	 3.571428571428572e+00	 1.013172651510619e+01
0	 5.714285714285715e+00	 3.714285714285715e+00	 1.012615566755911e+01
0	 5.714285714285714e+00	 3.857142857142856e+00	 1.012190731801694e+01
0	 5.714285714285714e+00	 4.000000000000001e+00	 1.011906846842928e+01
0	 5.714285714285715e+00	 4.142857142857143e+00	 1.011772612074570e+01
0	 5.714285714285715e+00	 4.285714285714286e+00	 1.011796727691579e+01
0	 5.857142857142857e+00	 2.857142857142858e+00	 1.016668478033215e+01
0	 5.857142857142858e+00	 3.000000000000000e+00	 1.015437320526125e+01
0	 5.857142857142857e+00	 3.142857142857143e+00	 1.014356407606395e+01
0	 5.857142857142857e+00	 3.285714285714286e+00	 1.013427580703408e+01
0	 5.857142857142857e+00	 3.428571428571429e+00	 1.012652681246542e+01
0	 5.857142857142857e+00	 3.571428571428571e+00	 1.012033550665175e+01
0	 5.857142857142856e+00	 3.714285714285715e+00	 1.011572030388689e+01
0	 5.857142857142857e+00	 3.857142857142858e+00	 1.011269961846460e+01
0	 5.857142857142859e+00	 4.000000000000001e+00	 1.011129186467868e+01
0	 5.857142857142857e+00	 4.142857142857143e+00	 1.011151545682292e+01
0	 5.857142857142857e+00	 4.285714285714286e+00	 1.011338880919111e+01
0	 6.000000000000001e+00	 2.857142857142858e+00	 1.015596985044822e+01
0	 6.000000000000002e+00	 3.000000000000001e+00	 1.014361135832670e+01
0	 6.000000000000000e+00	 3.142857142857143e+00	 1.013307159846721e+01
0	 5.999999999999997e+00	 3.285714285714286e+00	 1.012431241285491e+01
0	 5.999999999999999e+00	 3.428571428571428e+00	 1.011729564347498e+01
0	 5.999999999999999e+00	 3.571428571428573e+00	 1.011198313231257e+01
0	 5.999999999999998e+00	 3.714285714285714e+00	 1.010833672135287e+01
0	 5.999999999999999e+00	 3.857142857142858e+00	 1.010631825258104e+01
0	 6.000000000000000e+00	 4.000000000000002e+00	 1.010588956798224e+01
0	 6.000000000000001e+00	 4.142857142857145e+00	 1.010701250954164e+01
0	 6.000000000000001e+00	 4.285714285714286e+00	 1.010964891924443e+01
0	 6.142857142857141e+00	 2.857142857142857e+00	 1.014454373078715e+01
0	 6.142857142857144e+00	 3.000000000000001e+00	 1.013326242444265e+01
0	 6.142857142857141e+00	 3.142857142857143e+00	 1.012386330024106e+01
0	 6.142857142857142e+00	 3.285714285714286e+00	 1.011626364320607e+01
0	 6.142857142857141e+00	 3.428571428571428e+00	 1.011038073836142e+01
0	 6.142857142857143e+00	 3.571428571428573e+00	 1.010613187073081e+01
0	 6.142857142857142e+00	 3.714285714285715e+00	 1.010343432533798e+01
0	 6.142857142857141e+00	 3.857142857142857e+00	 1.010220538720663e+01
0	 6.142857142857142e+00	 4.000000000000001e+00	 1.010236234136048e+01
0	 6.142857142857141e+00	 4.142857142857142e+00	 1.010382247282327e+01
0	 6.142857142857141e+00	 4.285714285714285e+00	 1.010650306661868e+01
0	 6.285714285714284e+00	 2.857142857142857e+00	 1.013272178710806e+01
0	 6.285714285714285e+00	 3.000000000000001e+00	 1.012337952250341e+01
0	 6.285714285714285e+00	 3.142857142857144e+00	 1.011577588813570e+01
0	 6.285714285714284e+00	 3.285714285714286e+00	 1.010979562741438e+01
0	 6.285714285714283e+00	 3.428571428571428e+00	 1.010532348374887e+01
0	 6.285714285714284e+00	 3.571428571428572e+00	 1.010224420054863e+01
0	 6.285714285714284e+00	 3.714285714285715e+00	 1.010044252122310e+01
0	 6.285714285714284e+00	 3.857142857142857e+00	 1.009980318918171e+01
0	 6.285714285714284e+00	 4.000000000000001e+00	 1.010021094783391e+01
0	 6.285714285714284e+00	 4.142857142857144e+00	 1.010155054058914e+01
0	 6.285714285714285e+00	 4.285714285714287e+00	 1.010370671085683e+01
0	 6.428571428571425e+00	 2.857142857142857e+00	 1.012081938517006e+01
0	 6.428571428571426e+00	 3.000000000000001e+00	 1.011401577140327e+01
0	 6.428571428571427e+00	 3.142857142857144e+00	 1.010864606890135e+01
0	 6.428571428571425e+00	 3.285714285714286e+00	 1.010457449480663e+01
0	 6.428571428571427e+00	 3.428571428571428e+00	 1.010166526626146e+01
0	 6.428571428571427e+00	 3.571428571428572e+00	 1.009978260040819e+01
0	 6.428571428571428e+00	 3.714285714285715e+00	 1.009879071438913e+01
0	 6.428571428571425e+00	 3.857142857142857e+00	 1.009855382534662e+01
0	 6.428571428571426e+00	 4.000000000000000e+00	 1.009893615042301e+01
0	 6.428571428571427e+00	 4.142857142857143e+00	 1.009980190676062e+01
0	 6.428571428571425e+00	 4.285714285714286e+00	 1.010101531150179e+01
0	 6.571428571428569e+00	 2.857142857142858e+00	 1.010915189073225e+01
0	 6.571428571428569e+00	 3.000000000000001e+00	 1.010522429003651e+01
0	 6.571428571428569e+00	 3.142857142857143e+00	 1.010231054928818e+01
0	 6.571428571428569e+00	 3.285714285714286e+00	 1.010026637470965e+01
0	 6.571428571428569e+00	 3.428571428571429e+00	 1.009894747252334e+01
0	 6.571428571428569e+00	 3.571428571428572e+00	 1.009820954895165e+01
0	 6.571428571428569e+00	 3.714285714285714e+00	 1.009790831021697e+01
0	 6.571428571428569e+00	 3.857142857142858e+00	 1.009789946254172e+01
0	 6.571428571428569e+00	 4.000000000000000e+00	 1.009803871214829e+01
0	 6.571428571428568e+00	 4.142857142857143e+00	 1.009818176525909e+01
0	 6.571428571428569e+00	 4.285714285714286e+00	 1.009818432809653e+01
0	 6.714285714285713e+00	 2.857142857142858e+00	 1.009803466955375e+01
0	 6.714285714285711e+00	 3.000000000000000e+00	 1.009705819729745e+01
0	 6.714285714285711e+00	 3.142857142857144e+00	 1.009660603604641e+01
0	 6.714285714285710e+00	 3.285714285714286e+00	 1.009653739645025e+01
0	 6.714285714285709e+00	 3.428571428571428e+00	 1.009671148915862e+01
0	 6.714285714285711e+00	 3.571428571428572e+00	 1.009698752482117e+01
0	 6.714285714285711e+00	 3.714285714285714e+00	 1.009722471408753e+01
0	 6.714285714285709e+00	 3.857142857142857e+00	 1.009728226760735e+01
0	 6.714285714285711e+00	 4.000000000000000e+00	 1.009701939603027e+01
0	 6.714285714285710e+00	 4.142857142857143e+00	 1.009629531000593e+01
0	 6.714285714285713e+00	 4.285714285714286e+00	 1.009496922018396e+01
0	 6.857142857142855e+00	 2.857142857142857e+00	 1.008778308739365e+01
0	 6.857142857142854e+00	 3.000000000000001e+00	 1.008957061208039e+01
0	 6.857142857142853e+00	 3.142857142857144e+00	 1.009136923592624e+01
0	 6.857142857142854e+00	 3.285714285714286e+00	 1.009305368935524e+01
0	 6.857142857142855e+00	 3.428571428571429e+00	 1.009449870279146e+01
0	 6.857142857142853e+00	 3.571428571428572e+00	 1.009557900665891e+01
0	 6.857142857142852e+00	 3.714285714285714e+00	 1.009616933138171e+01
0	 6.857142857142854e+00	 3.857142857142858e+00	 1.009614440738385e+01
0	 6.857142857142854e+00	 4.000000000000000e+00	 1.009537896508943e+01
0	 6.857142857142853e+00	 4.142857142857143e+00	 1.009374773492248e+01
0	 6.857142857142854e+00	 4.285714285714286e+00	 1.009112544730706e+01
0	 6.999999999999996e+00	 2.857142857142857e+00	 1.007871251001105e+01
0	 6.999999999999995e+00	 3.000000000000000e+00	 1.008281465327962e+01
0	 6.999999999999995e+00	 3.142857142857143e+00	 1.008643685567787e+01
0	 6.999999999999996e+00	 3.285714285714286e+00	 1.008948138275143e+01
0	 6.999999999999995e+00	 3.428571428571428e+00	 1.009185050004594e+01
0	 6.999999999999996e+00	 3.571428571428572e+00	 1.009344647310705e+01
0	 6.999999999999996e+00	 3.714285714285715e+00	 1.009417156748038e+01
0	 6.999999999999996e+00	 3.857142857142857e+00	 1.009392804871158e+01
0	 6.999999999999996e+00	 4.000000000000000e+00	 1.009261818234629e+01
0	 6.999999999999996e+00	 4.142857142857143e+00	 1.009014423393012e+01
0	 6.999999999999995e+00	 4.285714285714286e+00	 1.008640846900873e+01
0	 7.142857142857142e+00	 2.857142857142857e+00	 1.007113830316509e+01
0	 7.142857142857145e+00	 3.000000000000001e+00	 1.007684343978945e+01
0	 7.142857142857145e+00	 3.142857142857144e+00	 1.008164560205150e+01
0	 7.142857142857144e+00	 3.285714285714286e+00	 1.008548660596563e+01
0	 7.142857142857141e+00	 3.428571428571427e+00	 1.008830826754625e+01
0	 7.142857142857146e+00	 3.571428571428572e+00	 1.009005240280773e+01
0	 7.142857142857143e+00	 3.714285714285715e+00	 1.009066082776448e+01
0	 7.142857142857142e+00	 3.857142857142857e+00	 1.009007535843088e+01
0	 7.142857142857143e+00	 4.000000000000001e+00	 1.008823781082133e+01
0	 7.142857142857144e+00	 4.142857142857144e+00	 1.008509000095022e+01
0	 7.142857142857142e+00	 4.285714285714285e+00	 1.008057374483194e+01
0	 5.714285714285715e+00	 4.285714285714286e+00	 1.011796727691579e+01
0	 5.714285714285715e+00	 4.428571428571428e+00	 1.011879741034697e+01
0	 5.714285714285714e+00	 4.571428571428571e+00	 1.011909601027719e+01
0	 5.714285714285714e+00	 4.714285714285714e+00	 1.011876110240193e+01
0	 5.714285714285715e+00	 4.857142857142858e+00	 1.011769071241665e+01
0	 5.714285714285714e+00	 5.000000000000002e+00	 1.011578286601679e+01
0	 5.714285714285714e+00	 5.142857142857142e+00	 1.011293558889783e+01
0	 5.714285714285714e+00	 5.285714285714285e+00	 1.010904690675521e+01
0	 5.714285714285714e+00	 5.428571428571427e+00	 1.010401484528439e+01
0	 5.714285714285714e+00	 5.571428571428570e+00	 1.009773743018082e+01
0	 5.714285714285715e+00	 5.714285714285714e+00	 1.009011268713998e+01
0	 5.857142857142857e+00	 4.285714285714286e+00	 1.011338880919111e+01
0	 5.857142857142856e+00	 4.428571428571428e+00	 1.011562620638294e+01
0	 5.857142857142859e+00	 4.571428571428572e+00	 1.011690134850957e+01
0	 5.857142857142857e+00	 4.714285714285714e+00	 1.011717177313202e+01
0	 5.857142857142857e+00	 4.857142857142858e+00	 1.011639501781132e+01
0	 5.857142857142855e+00	 4.999999999999999e+00	 1.011452862010849e+01
0	 5.857142857142858e+00	 5.142857142857142e+00	 1.011153011758456e+01
0	 5.857142857142858e+00	 5.285714285714286e+00	 1.010735704780052e+01
0	 5.857142857142857e+00	 5.428571428571428e+00	 1.010196694831744e+01
0	 5.857142857142858e+00	 5.571428571428570e+00	 1.009531735669631e+01
0	 5.857142857142858e+00	 5.714285714285714e+00	 1.008736581049817e+01
0	 6.000000000000001e+00	 4.285714285714286e+00	 1.010964891924443e+01
0	 6.000000000000001e+00	 4.428571428571429e+00	 1.011242351403285e+01
0	 5.999999999999998e+00	 4.571428571428571e+00	 1.011399099314576e+01
0	 5.999999999999997e+00	 4.714285714285714e+00	 1.011435817201327e+01
0	 5.999999999999999e+00	 4.857142857142858e+00	 1.011353186606547e+01
0	 5.999999999999999e+00	 5.000000000000001e+00	 1.011151889073244e+01
0	 5.999999999999998e+00	 5.142857142857142e+00	 1.010832606144425e+01
0	 5.999999999999999e+00	 5.285714285714285e+00	 1.010396019363102e+01
0	 5.999999999999999e+00	 5.428571428571428e+00	 1.009842810272279e+01
0	 5.999999999999998e+00	 5.571428571428569e+00	 1.009173660414970e+01
0	 6.000000000000000e+00	 5.714285714285714e+00	 1.008389251334180e+01
0	 6.142857142857141e+00	 4.285714285714285e+00	 1.010650306661868e+01
0	 6.142857142857142e+00	 4.428571428571429e+00	 1.010910482108569e+01
0	 6.142857142857140e+00	 4.571428571428569e+00	 1.011041415074917e+01
0	 6.142857142857143e+00	 4.714285714285714e+00	 1.011047691491176e+01
0	 6.142857142857141e+00	 4.857142857142856e+00	 1.010933897287613e+01
0	 6.142857142857143e+00	 5.000000000000000e+00	 1.010704618394492e+01
0	 6.142857142857141e+00	 5.142857142857142e+00	 1.010364440742079e+01
0	 6.142857142857141e+00	 5.285714285714285e+00	 1.009917950260638e+01
0	 6.142857142857140e+00	 5.428571428571426e+00	 1.009369732880432e+01
0	 6.142857142857142e+00	 5.571428571428570e+00	 1.008724374531729e+01
0	 6.142857142857141e+00	 5.714285714285714e+00	 1.007986461144792e+01
0	 6.285714285714285e+00	 4.285714285714287e+00	 1.010370671085683e+01
0	 6.285714285714285e+00	 4.428571428571428e+00	 1.010558561533049e+01
0	 6.285714285714285e+00	 4.571428571428571e+00	 1.010622002788316e+01
0	 6.285714285714284e+00	 4.714285714285713e+00	 1.010568461769354e+01
0	 6.285714285714285e+00	 4.857142857142858e+00	 1.010405405394033e+01
0	 6.285714285714284e+00	 5.000000000000000e+00	 1.010140300580224e+01
0	 6.285714285714284e+00	 5.142857142857142e+00	 1.009780614245800e+01
0	 6.285714285714283e+00	 5.285714285714284e+00	 1.009333813308631e+01
0	 6.285714285714284e+00	 5.428571428571428e+00	 1.008807364686587e+01
0	 6.285714285714283e+00	 5.571428571428569e+00	 1.008208735297540e+01
0	 6.285714285714284e+00	 5.714285714285714e+00	 1.007545392059361e+01
0	 6.428571428571425e+00	 4.285714285714286e+00	 1.010101531150179e+01
0	 6.428571428571425e+00	 4.428571428571427e+00	 1.010178138455629e+01
0	 6.428571428571426e+00	 4.571428571428572e+00	 1.010145783111116e+01
0	 6.428571428571426e+00	 4.714285714285714e+00	 1.010013789622466e+01
0	 6.428571428571426e+00	 4.857142857142857e+00	 1.009791482495508e+01
0	 6.428571428571428e+00	 4.999999999999999e+00	 1.009488186236069e+01
0	 6.428571428571426e+00	 5.142857142857143e+00	 1.009113225349975e+01
0	 6.428571428571428e+00	 5.285714285714285e+00	 1.008675924343053e+01
0	 6.428571428571427e+00	 5.428571428571427e+00	 1.008185607721130e+01
0	 6.428571428571427e+00	 5.571428571428569e+00	 1.007651599990034e+01
0	 6.428571428571424e+00	 5.714285714285714e+00	 1.007083225655590e+01
0	 6.571428571428569e+00	 4.285714285714286e+00	 1.009818432809653e+01
0	 6.571428571428569e+00	 4.428571428571428e+00	 1.009760761655208e+01
0	 6.571428571428569e+00	 4.571428571428572e+00	 1.009617676699653e+01
0	 6.571428571428569e+00	 4.714285714285715e+00	 1.009399336637121e+01
0	 6.571428571428569e+00	 4.857142857142856e+00	 1.009115900161745e+01
0	 6.571428571428569e+00	 5.000000000000001e+00	 1.008777525967655e+01
0	 6.571428571428567e+00	 5.142857142857141e+00	 1.008394372748988e+01
0	 6.571428571428569e+00	 5.285714285714283e+00	 1.007976599199874e+01
0	 6.571428571428569e+00	 5.428571428571427e+00	 1.007534364014448e+01
0	 6.571428571428569e+00	 5.571428571428570e+00	 1.007077825886841e+01
0	 6.571428571428570e+00	 5.714285714285714e+00	 1.006617143511186e+01
0	 6.714285714285713e+00	 4.285714285714286e+00	 1.009496922018396e+01
0	 6.714285714285711e+00	 4.428571428571429e+00	 1.009297979910689e+01
0	 6.714285714285711e+00	 4.571428571428571e+00	 1.009042604210267e+01
0	 6.714285714285708e+00	 4.714285714285714e+00	 1.008740764399923e+01
0	 6.714285714285709e+00	 4.857142857142857e+00	 1.008402429962441e+01
0	 6.714285714285713e+00	 5.000000000000001e+00	 1.008037570380612e+01
0	 6.714285714285710e+00	 5.142857142857141e+00	 1.007656155137224e+01
0	 6.714285714285711e+00	 5.285714285714284e+00	 1.007268153715067e+01
0	 6.714285714285710e+00	 5.428571428571426e+00	 1.006883535596926e+01
0	 6.714285714285713e+00	 5.571428571428569e+00	 1.006512270265592e+01
0	 6.714285714285711e+00	 5.714285714285714e+00	 1.006164327203855e+01
0	 6.857142857142854e+00	 4.285714285714286e+00	 1.009112544730706e+01
0	 6.857142857142851e+00	 4.428571428571428e+00	 1.008781342000973e+01
0	 6.857142857142855e+00	 4.571428571428571e+00	 1.008425486299298e+01
0	 6.857142857142853e+00	 4.714285714285713e+00	 1.008053734497477e+01
0	 6.857142857142855e+00	 4.857142857142856e+00	 1.007674843467303e+01
0	 6.857142857142853e+00	 5.000000000000001e+00	 1.007297570080569e+01
0	 6.857142857142854e+00	 5.142857142857142e+00	 1.006930671209069e+01
0	 6.857142857142851e+00	 5.285714285714283e+00	 1.006582903724600e+01
0	 6.857142857142854e+00	 5.428571428571429e+00	 1.006263024498952e+01
0	 6.857142857142851e+00	 5.571428571428568e+00	 1.005979790403921e+01
0	 6.857142857142854e+00	 5.714285714285715e+00	 1.005741958311301e+01
0	 6.999999999999995e+00	 4.285714285714286e+00	 1.008640846900873e+01
0	 6.999999999999995e+00	 4.428571428571429e+00	 1.008202396704962e+01
0	 6.999999999999996e+00	 4.571428571428571e+00	 1.007771243623085e+01
0	 6.999999999999995e+00	 4.714285714285713e+00	 1.007353908516392e+01
0	 6.999999999999995e+00	 4.857142857142856e+00	 1.006956912246032e+01
0	 6.999999999999996e+00	 5.000000000000000e+00	 1.006586775673154e+01
0	 6.999999999999996e+00	 5.142857142857142e+00	 1.006250019658909e+01
0	 6.999999999999996e+00	 5.285714285714284e+00	 1.005953165064443e+01
0	 6.999999999999996e+00	 5.428571428571426e+00	 1.005702732750910e+01
0	 6.999999999999996e+00	 5.571428571428569e+00	 1.005505243579456e+01
0	 6.999999999999995e+00	 5.714285714285714e+00	 1.005367218411232e+01
0	 7.142857142857142e+00	 4.285714285714285e+00	 1.008057374483194e+01
0	 7.142857142857144e+00	 4.428571428571429e+00	 1.007552692801559e+01
0	 7.142857142857144e+00	 4.571428571428571e+00	 1.007084796837967e+01
0	 7.142857142857143e+00	 4.714285714285714e+00	 1.006656948043273e+01
0	 7.142857142857144e+00	 4.857142857142857e+00	 1.006272407868333e+01
0	 7.142857142857144e+00	 5.000000000000000e+00	 1.005934437763999e+01
0	 7.142857142857144e+00	 5.142857142857143e+00	 1.005646299181127e+01
0	 7.142857142857143e+00	 5.285714285714285e+00	 1.005411253570571e+01
0	 7.142857142857143e+00	 5.428571428571427e+00	 1.005232562383187e+01
0	 7.142857142857146e+00	 5.571428571428571e+00	 1.005113487069830e+01
0	 7.142857142857143e+00	 5.714285714285714e+00	 1.005057289081352e+01
0	 5.714285714285715e+00	 5.714285714285714e+00	 1.009011268713998e+01
0	 5.714285714285716e+00	 5.857142857142857e+00	 1.008204319184607e+01
0	 5.714285714285716e+00	 6.000000000000000e+00	 1.007451977819447e+01
0	 5.714285714285715e+00	 6.142857142857141e+00	 1.006757285919747e+01
0	 5.714285714285715e+00	 6.285714285714283e+00	 1.006123284786728e+01
0	 5.714285714285714e+00	 6.428571428571426e+00	 1.005553015721617e+01
0	 5.714285714285715e+00	 6.571428571428569e+00	 1.005049520025637e+01
0	 5.714285714285714e+00	 6.714285714285710e+00	 1.004615839000012e+01
0	 5.714285714285714e+00	 6.857142857142851e+00	 1.004255013945970e+01
0	 5.714285714285714e+00	 6.999999999999996e+00	 1.003970086164733e+01
0	 5.714285714285714e+00	 7.142857142857141e+00	 1.003764096957527e+01
0	 5.857142857142858e+00	 5.714285714285714e+00	 1.008736581049817e+01
0	 5.857142857142858e+00	 5.857142857142858e+00	 1.007912502597452e+01
0	 5.857142857142858e+00	 5.999999999999999e+00	 1.007163132864090e+01
0	 5.857142857142859e+00	 6.142857142857141e+00	 1.006487766995434e+01
0	 5.857142857142858e+00	 6.285714285714282e+00	 1.005885700137193e+01
0	 5.857142857142857e+00	 6.428571428571423e+00	 1.005356227435069e+01
0	 5.857142857142858e+00	 6.571428571428569e+00	 1.004898644034768e+01
0	 5.857142857142859e+00	 6.714285714285711e+00	 1.004512245081996e+01
0	 5.857142857142856e+00	 6.857142857142852e+00	 1.004196325722459e+01
0	 5.857142857142857e+00	 6.999999999999996e+00	 1.003950181101860e+01
0	 5.857142857142858e+00	 7.142857142857144e+00	 1.003773106365907e+01
0	 6.000000000000000e+00	 5.714285714285714e+00	 1.008389251334180e+01
0	 6.000000000000001e+00	 5.857142857142857e+00	 1.007591189359701e+01
0	 5.999999999999998e+00	 5.999999999999997e+00	 1.006878116773640e+01
0	 6.000000000000001e+00	 6.142857142857141e+00	 1.006246269047482e+01
0	 5.999999999999998e+00	 6.285714285714281e+00	 1.005691881652710e+01
0	 5.999999999999999e+00	 6.428571428571428e+00	 1.005211190060813e+01
0	 5.999999999999999e+00	 6.571428571428569e+00	 1.004800429743272e+01
0	 5.999999999999998e+00	 6.714285714285708e+00	 1.004455836171572e+01
0	 5.999999999999998e+00	 6.857142857142852e+00	 1.004173644817200e+01
0	 6.000000000000000e+00	 6.999999999999996e+00	 1.003950091151637e+01
0	 6.000000000000000e+00	 7.142857142857144e+00	 1.003781410646372e+01
0	 6.142857142857141e+00	 5.714285714285714e+00	 1.007986461144792e+01
0	 6.142857142857142e+00	 5.857142857142857e+00	 1.007249248444657e+01
0	 6.142857142857141e+00	 5.999999999999997e+00	 1.006598843055223e+01
0	 6.142857142857142e+00	 6.142857142857141e+00	 1.006029107255051e+01
0	 6.142857142857143e+00	 6.285714285714285e+00	 1.005533903322707e+01
0	 6.142857142857141e+00	 6.428571428571425e+00	 1.005107093536750e+01
0	 6.142857142857141e+00	 6.571428571428569e+00	 1.004742540175747e+01
0	 6.142857142857142e+00	 6.714285714285712e+00	 1.004434105518258e+01
0	 6.142857142857141e+00	 6.857142857142851e+00	 1.004175651842848e+01
0	 6.142857142857143e+00	 6.999999999999996e+00	 1.003961041428077e+01
0	 6.142857142857142e+00	 7.142857142857144e+00	 1.003784136552512e+01
0	 6.285714285714284e+00	 5.714285714285714e+00	 1.007545392059361e+01
0	 6.285714285714284e+00	 5.857142857142859e+00	 1.006895548825627e+01
0	 6.285714285714283e+00	 5.999999999999997e+00	 1.006327225215962e+01
0	 6.285714285714284e+00	 6.142857142857141e+00	 1.005832596797307e+01
0	 6.285714285714283e+00	 6.285714285714282e+00	 1.005403839136599e+01
0	 6.285714285714284e+00	 6.428571428571425e+00	 1.005033127800781e+01
0	 6.285714285714283e+00	 6.571428571428568e+00	 1.004712638356791e+01
0	 6.285714285714282e+00	 6.714285714285708e+00	 1.004434546371569e+01
0	 6.285714285714282e+00	 6.857142857142851e+00	 1.004191027412057e+01
0	 6.285714285714283e+00	 6.999999999999996e+00	 1.003974257045193e+01
0	 6.285714285714282e+00	 7.142857142857142e+00	 1.003776410837918e+01
0	 6.428571428571424e+00	 5.714285714285714e+00	 1.007083225655590e+01
0	 6.428571428571425e+00	 5.857142857142856e+00	 1.006538959475915e+01
0	 6.428571428571427e+00	 5.999999999999999e+00	 1.006065176762983e+01
0	 6.428571428571426e+00	 6.142857142857141e+00	 1.005653052853411e+01
0	 6.428571428571426e+00	 6.285714285714283e+00	 1.005293763083812e+01
0	 6.428571428571425e+00	 6.428571428571424e+00	 1.004978482790805e+01
0	 6.428571428571427e+00	 6.571428571428567e+00	 1.004698387311003e+01
0	 6.428571428571427e+00	 6.714285714285710e+00	 1.004444651981024e+01
0	 6.428571428571426e+00	 6.857142857142853e+00	 1.004208452137483e+01
0	 6.428571428571426e+00	 6.999999999999994e+00	 1.003980963116996e+01
0	 6.428571428571426e+00	 7.142857142857143e+00	 1.003753360256178e+01
0	 6.571428571428570e+00	 5.714285714285714e+00	 1.006617143511186e+01
0	 6.571428571428569e+00	 5.857142857142856e+00	 1.006188349368826e+01
0	 6.571428571428569e+00	 5.999999999999999e+00	 1.005814611203409e+01
0	 6.571428571428569e+00	 6.142857142857141e+00	 1.005486790602526e+01
0	 6.571428571428567e+00	 6.285714285714282e+00	 1.005195749153767e+01
0	 6.571428571428568e+00	 6.428571428571426e+00	 1.004932348444723e+01
0	 6.571428571428569e+00	 6.571428571428567e+00	 1.004687450062983e+01
0	 6.571428571428568e+00	 6.714285714285711e+00	 1.004451915596139e+01
0	 6.571428571428568e+00	 6.857142857142852e+00	 1.004216606631780e+01
0	 6.571428571428568e+00	 6.999999999999996e+00	 1.003972384757498e+01
0	 6.571428571428570e+00	 7.142857142857145e+00	 1.003710111560884e+01
0	 6.714285714285711e+00	 5.714285714285714e+00	 1.006164327203855e+01
0	 6.714285714285710e+00	 5.857142857142856e+00	 1.005852587477666e+01
0	 6.714285714285708e+00	 5.999999999999999e+00	 1.005577442044365e+01
0	 6.714285714285712e+00	 6.142857142857141e+00	 1.005330125223818e+01
0	 6.714285714285710e+00	 6.285714285714284e+00	 1.005101871335885e+01
0	 6.714285714285711e+00	 6.428571428571425e+00	 1.004883914700435e+01
0	 6.714285714285709e+00	 6.571428571428567e+00	 1.004667489637328e+01
0	 6.714285714285712e+00	 6.714285714285712e+00	 1.004443830466430e+01
0	 6.714285714285712e+00	 6.857142857142855e+00	 1.004204171507604e+01
0	 6.714285714285711e+00	 6.999999999999995e+00	 1.003939747080713e+01
0	 6.714285714285710e+00	 7.142857142857142e+00	 1.003641791505624e+01
0	 6.857142857142854e+00	 5.714285714285715e+00	 1.005741958311301e+01
0	 6.857142857142855e+00	 5.857142857142857e+00	 1.005540542775739e+01
0	 6.857142857142851e+00	 5.999999999999998e+00	 1.005355582792975e+01
0	 6.857142857142851e+00	 6.142857142857140e+00	 1.005179371896447e+01
0	 6.857142857142855e+00	 6.285714285714283e+00	 1.005004203619592e+01
0	 6.857142857142851e+00	 6.428571428571424e+00	 1.004822371495843e+01
0	 6.857142857142854e+00	 6.571428571428569e+00	 1.004626169058638e+01
0	 6.857142857142853e+00	 6.714285714285710e+00	 1.004407889841415e+01
0	 6.857142857142851e+00	 6.857142857142852e+00	 1.004159827377608e+01
0	 6.857142857142851e+00	 6.999999999999996e+00	 1.003874275200654e+01
0	 6.857142857142851e+00	 7.142857142857142e+00	 1.003543526843989e+01
0	 6.999999999999995e+00	 5.714285714285714e+00	 1.005367218411232e+01
0	 6.999999999999996e+00	 5.857142857142856e+00	 1.005261084236350e+01
0	 6.999999999999995e+00	 5.999999999999999e+00	 1.005150946956363e+01
0	 6.999999999999996e+00	 6.142857142857141e+00	 1.005030845799578e+01
0	 6.999999999999995e+00	 6.285714285714283e+00	 1.004894819994303e+01
0	 6.999999999999996e+00	 6.428571428571426e+00	 1.004736908768846e+01
0	 6.999999999999997e+00	 6.571428571428568e+00	 1.004551151351512e+01
0	 6.999999999999995e+00	 6.714285714285710e+00	 1.004331586970611e+01
0	 6.999999999999996e+00	 6.857142857142851e+00	 1.004072254854448e+01
0	 6.999999999999996e+00	 6.999999999999995e+00	 1.003767194231332e+01
0	 6.999999999999996e+00	 7.142857142857144e+00	 1.003410444329568e+01
0	 7.142857142857143e+00	 5.714285714285714e+00	 1.005057289081352e+01
0	 7.142857142857144e+00	 5.857142857142857e+00	 1.005023080832805e+01
0	 7.142857142857142e+00	 5.999999999999998e+00	 1.004965448041653e+01
0	 7.142857142857144e+00	 6.142857142857141e+00	 1.004880862112375e+01
0	 7.142857142857143e+00	 6.285714285714283e+00	 1.004765794449446e+01
0	 7.142857142857143e+00	 6.428571428571424e+00	 1.004616716457345e+01
0	 7.142857142857145e+00	 6.571428571428568e+00	 1.004430099540548e+01
0	 7.142857142857145e+00	 6.714285714285712e+00	 1.004202415103533e+01
0	 7.142857142857142e+00	 6.857142857142851e+00	 1.003930134550778e+01
0	 7.142857142857143e+00	 6.999999999999996e+00	 1.003609729286759e+01
0	 7.142857142857141e+00	 7.142857142857141e+00	 1.003237670715952e+01
0	 5.714285714285714e+00	 7.142857142857141e+00	 1.003764096957527e+01
0	 5.714285714285714e+00	 7.285714285714285e+00	 1.003594750643910e+01
0	 5.714285714285715e+00	 7.428571428571429e+00	 1.003415950707725e+01
0	 5.714285714285715e+00	 7.571428571428571e+00	 1.003225037196621e+01
0	 5.714285714285714e+00	 7.714285714285714e+00	 1.003019350158247e+01
0	 5.714285714285714e+00	 7.857142857142854e+00	 1.002796229640252e+01
0	 5.714285714285714e+00	 7.999999999999998e+00	 1.002553015690284e+01
0	 5.714285714285714e+00	 8.142857142857141e+00	 1.002287048355994e+01
0	 5.714285714285715e+00	 8.285714285714285e+00	 1.001995667685030e+01
0	 5.714285714285715e+00	 8.428571428571425e+00	 1.001676213725040e+01
0	 5.714285714285715e+00	 8.571428571428573e+00	 1.001326026523676e+01
0	 5.857142857142858e+00	 7.142857142857144e+00	 1.003773106365906e+01
0	 5.857142857142858e+00	 7.285714285714286e+00	 1.003620488377869e+01
0	 5.857142857142857e+00	 7.428571428571427e+00	 1.003447863425375e+01
0	 5.857142857142857e+00	 7.571428571428572e+00	 1.003254750790667e+01
0	 5.857142857142858e+00	 7.714285714285712e+00	 1.003040669755985e+01
0	 5.857142857142856e+00	 7.857142857142853e+00	 1.002805139603574e+01
0	 5.857142857142858e+00	 7.999999999999999e+00	 1.002547679615673e+01
0	 5.857142857142856e+00	 8.142857142857142e+00	 1.002267809074526e+01
0	 5.857142857142858e+00	 8.285714285714286e+00	 1.001965047262372e+01
0	 5.857142857142857e+00	 8.428571428571427e+00	 1.001638913461454e+01
0	 5.857142857142859e+00	 8.571428571428573e+00	 1.001288926954014e+01
0	 6.000000000000000e+00	 7.142857142857144e+00	 1.003781410646372e+01
0	 6.000000000000000e+00	 7.285714285714286e+00	 1.003625846905208e+01
0	 5.999999999999999e+00	 7.428571428571428e+00	 1.003445005870587e+01
0	 5.999999999999999e+00	 7.571428571428570e+00	 1.003240166521947e+01
0	 5.999999999999998e+00	 7.714285714285714e+00	 1.003012607838723e+01
0	 6.000000000000000e+00	 7.857142857142855e+00	 1.002763608800352e+01
0	 5.999999999999997e+00	 7.999999999999997e+00	 1.002494448386270e+01
0	 5.999999999999999e+00	 8.142857142857141e+00	 1.002206405575916e+01
0	 5.999999999999999e+00	 8.285714285714283e+00	 1.001900759348726e+01
0	 6.000000000000001e+00	 8.428571428571429e+00	 1.001578788684134e+01
0	 5.999999999999999e+00	 8.571428571428569e+00	 1.001241772561579e+01
0	 6.142857142857142e+00	 7.142857142857144e+00	 1.003784136552512e+01
0	 6.142857142857141e+00	 7.285714285714284e+00	 1.003610154180220e+01
0	 6.142857142857141e+00	 7.428571428571426e+00	 1.003410149182387e+01
0	 6.142857142857141e+00	 7.571428571428570e+00	 1.003186740698247e+01
0	 6.142857142857141e+00	 7.714285714285714e+00	 1.002942547867032e+01
0	 6.142857142857141e+00	 7.857142857142856e+00	 1.002680189827978e+01
0	 6.142857142857140e+00	 7.999999999999997e+00	 1.002402285720317e+01
0	 6.142857142857142e+00	 8.142857142857139e+00	 1.002111454683284e+01
0	 6.142857142857142e+00	 8.285714285714285e+00	 1.001810315856113e+01
0	 6.142857142857141e+00	 8.428571428571423e+00	 1.001501488378039e+01
0	 6.142857142857141e+00	 8.571428571428571e+00	 1.001187591388292e+01
0	 6.285714285714282e+00	 7.142857142857142e+00	 1.003776410837918e+01
0	 6.285714285714283e+00	 7.285714285714285e+00	 1.003572738157198e+01
0	 6.285714285714282e+00	 7.428571428571425e+00	 1.003346064499797e+01
0	 6.285714285714282e+00	 7.571428571428569e+00	 1.003099929627348e+01
0	 6.285714285714284e+00	 7.714285714285714e+00	 1.002837873301486e+01
0	 6.285714285714285e+00	 7.857142857142857e+00	 1.002563435283841e+01
0	 6.285714285714283e+00	 7.999999999999997e+00	 1.002280155336051e+01
0	 6.285714285714283e+00	 8.142857142857139e+00	 1.001991573219745e+01
0	 6.285714285714283e+00	 8.285714285714281e+00	 1.001701228696560e+01
0	 6.285714285714283e+00	 8.428571428571425e+00	 1.001412661528127e+01
0	 6.285714285714284e+00	 8.571428571428573e+00	 1.001129411476080e+01
0	 6.428571428571426e+00	 7.142857142857143e+00	 1.003753360256178e+01
0	 6.428571428571425e+00	 7.285714285714286e+00	 1.003512926790433e+01
0	 6.428571428571425e+00	 7.428571428571427e+00	 1.003255522961841e+01
0	 6.428571428571423e+00	 7.571428571428568e+00	 1.002985189617037e+01
0	 6.428571428571425e+00	 7.714285714285712e+00	 1.002705967602657e+01
0	 6.428571428571423e+00	 7.857142857142853e+00	 1.002421897765337e+01
0	 6.428571428571426e+00	 7.999999999999998e+00	 1.002137020951711e+01
0	 6.428571428571425e+00	 8.142857142857139e+00	 1.001855378008417e+01
0	 6.428571428571427e+00	 8.285714285714283e+00	 1.001581009782086e+01
0	 6.428571428571428e+00	 8.428571428571427e+00	 1.001317957119357e+01
0	 6.428571428571426e+00	 8.571428571428571e+00	 1.001070260866864e+01
0	 6.571428571428570e+00	 7.142857142857145e+00	 1.003710111560884e+01
0	 6.571428571428570e+00	 7.285714285714286e+00	 1.003430048034216e+01
0	 6.571428571428569e+00	 7.428571428571429e+00	 1.003141295707539e+01
0	 6.571428571428567e+00	 7.571428571428569e+00	 1.002847976975093e+01
0	 6.571428571428569e+00	 7.714285714285713e+00	 1.002554214231120e+01
0	 6.571428571428569e+00	 7.857142857142857e+00	 1.002264129869855e+01
0	 6.571428571428569e+00	 7.999999999999997e+00	 1.001981846285540e+01
0	 6.571428571428569e+00	 8.142857142857141e+00	 1.001711485872415e+01
0	 6.571428571428568e+00	 8.285714285714283e+00	 1.001457171024718e+01
0	 6.571428571428569e+00	 8.428571428571427e+00	 1.001223024136689e+01
0	 6.571428571428569e+00	 8.571428571428573e+00	 1.001013167602567e+01
0	 6.714285714285710e+00	 7.142857142857142e+00	 1.003641791505624e+01
0	 6.714285714285709e+00	 7.285714285714283e+00	 1.003323429842839e+01
0	 6.714285714285710e+00	 7.428571428571426e+00	 1.003006153875916e+01
0	 6.714285714285710e+00	 7.571428571428570e+00	 1.002693748009304e+01
0	 6.714285714285711e+00	 7.714285714285714e+00	 1.002389996647444e+01
0	 6.714285714285713e+00	 7.857142857142857e+00	 1.002098684194787e+01
0	 6.714285714285711e+00	 7.999999999999998e+00	 1.001823595055776e+01
0	 6.714285714285713e+00	 8.142857142857144e+00	 1.001568513634857e+01
0	 6.714285714285711e+00	 8.285714285714285e+00	 1.001337224336477e+01
0	 6.714285714285712e+00	 8.428571428571423e+00	 1.001133511565081e+01
0	 6.714285714285710e+00	 8.571428571428571e+00	 1.000961159725115e+01
0	 6.857142857142851e+00	 7.142857142857142e+00	 1.003543526843989e+01
0	 6.857142857142853e+00	 7.285714285714285e+00	 1.003192400170595e+01
0	 6.857142857142853e+00	 7.428571428571427e+00	 1.002852868605996e+01
0	 6.857142857142852e+00	 7.571428571428570e+00	 1.002527959027449e+01
0	 6.857142857142852e+00	 7.714285714285713e+00	 1.002220698312206e+01
0	 6.857142857142852e+00	 7.857142857142855e+00	 1.001934113337525e+01
0	 6.857142857142853e+00	 7.999999999999997e+00	 1.001671230980657e+01
0	 6.857142857142852e+00	 8.142857142857139e+00	 1.001435078118860e+01
0	 6.857142857142854e+00	 8.285714285714283e+00	 1.001228681629386e+01
0	 6.857142857142852e+00	 8.428571428571423e+00	 1.001055068389491e+01
0	 6.857142857142853e+00	 8.571428571428571e+00	 1.000917265276428e+01
0	 6.999999999999996e+00	 7.142857142857144e+00	 1.003410444329568e+01
0	 6.999999999999996e+00	 7.285714285714287e+00	 1.003036286971774e+01
0	 6.999999999999996e+00	 7.428571428571429e+00	 1.002684211036800e+01
0	 6.999999999999994e+00	 7.571428571428568e+00	 1.002356066337313e+01
0	 6.999999999999995e+00	 7.714285714285713e+00	 1.002053702685978e+01
0	 6.999999999999996e+00	 7.857142857142856e+00	 1.001778969895461e+01
0	 6.999999999999996e+00	 7.999999999999998e+00	 1.001533717778426e+01
0	 6.999999999999996e+00	 8.142857142857141e+00	 1.001319796147541e+01
0	 6.999999999999995e+00	 8.285714285714285e+00	 1.001139054815471e+01
0	 6.999999999999995e+00	 8.428571428571423e+00	 1.000993343594879e+01
0	 6.999999999999996e+00	 8.571428571428571e+00	 1.000884512298435e+01
0	 7.142857142857141e+00	 7.142857142857141e+00	 1.003237670715952e+01
0	 7.142857142857145e+00	 7.285714285714286e+00	 1.002854418200669e+01
0	 7.142857142857143e+00	 7.428571428571429e+00	 1.002502952307352e+01
0	 7.142857142857142e+00	 7.571428571428569e+00	 1.002183526246680e+01
0	 7.142857142857141e+00	 7.714285714285711e+00	 1.001896393229332e+01
0	 7.142857142857142e+00	 7.857142857142855e+00	 1.001641806465985e+01
0	 7.142857142857145e+00	 7.999999999999999e+00	 1.001420019167320e+01
0	 7.142857142857144e+00	 8.142857142857142e+00	 1.001231284544016e+01
0	 7.142857142857144e+00	 8.285714285714283e+00	 1.001075855806751e+01
0	 7.142857142857144e+00	 8.428571428571423e+00	 1.000953986166204e+01
0	 7.142857142857144e+00	 8.571428571428573e+00	 1.000865928833055e+01
0	 5.714285714285715e+00	 8.571428571428573e+00	 1.001326026523676e+01
0	 5.714285714285717e+00	 8.714285714285719e+00	 1.000987127120123e+01
0	 5.714285714285715e+00	 8.857142857142859e+00	 1.000701671354470e+01
0	 5.714285714285714e+00	 9.000000000000002e+00	 1.000467201475715e+01
0	 5.714285714285715e+00	 9.142857142857141e+00	 1.000281259732858e+01
0	 5.714285714285716e+00	 9.285714285714286e+00	 1.000141388374897e+01
0	 5.714285714285714e+00	 9.428571428571429e+00	 1.000045129650830e+01
0	 5.714285714285715e+00	 9.571428571428571e+00	 9.999900258096572e+00
0	 5.714285714285714e+00	 9.714285714285712e+00	 9.999736191003773e+00
0	 5.714285714285714e+00	 9.857142857142856e+00	 9.999934517719828e+00
0	 5.714285714285714e+00	 1.000000000000000e+01	 1.000047066073485e+01
0	 5.857142857142859e+00	 8.571428571428573e+00	 1.001288926954014e+01
0	 5.857142857142855e+00	 8.714285714285712e+00	 1.000956308402128e+01
0	 5.857142857142859e+00	 8.857142857142861e+00	 1.000679899455508e+01
0	 5.857142857142858e+00	 9.000000000000000e+00	 1.000455650877861e+01
0	 5.857142857142857e+00	 9.142857142857141e+00	 1.000279513432895e+01
0	 5.857142857142856e+00	 9.285714285714283e+00	 1.000147437884311e+01
0	 5.857142857142856e+00	 9.428571428571427e+00	 1.000055374995815e+01
0	 5.857142857142858e+00	 9.571428571428571e+00	 9.999992755311119e+00
0	 5.857142857142858e+00	 9.714285714285715e+00	 9.999750902539065e+00
0	 5.857142857142857e+00	 9.857142857142852e+00	 9.999787699279047e+00
0	 5.857142857142858e+00	 1.000000000000000e+01	 1.000006265316805e+01
0	 5.999999999999999e+00	 8.571428571428569e+00	 1.001241772561579e+01
0	 5.999999999999999e+00	 8.714285714285714e+00	 1.000927179219109e+01
0	 5.999999999999998e+00	 8.857142857142859e+00	 1.000668106503488e+01
0	 5.999999999999998e+00	 9.000000000000000e+00	 1.000459277807230e+01
0	 5.999999999999997e+00	 9.142857142857142e+00	 1.000295416522837e+01
0	 6.000000000000001e+00	 9.285714285714283e+00	 1.000171246042822e+01
0	 5.999999999999998e+00	 9.428571428571425e+00	 1.000081489759695e+01
0	 6.000000000000001e+00	 9.571428571428571e+00	 1.000020871065965e+01
0	 6.000000000000001e+00	 9.714285714285712e+00	 9.999841133541448e+00
0	 5.999999999999997e+00	 9.857142857142851e+00	 9.999659400167328e+00
0	 5.999999999999999e+00	 1.000000000000000e+01	 9.999610744462512e+00
0	 6.142857142857141e+00	 8.571428571428571e+00	 1.001187591388292e+01
0	 6.142857142857141e+00	 8.714285714285715e+00	 1.000900066131367e+01
0	 6.142857142857141e+00	 8.857142857142859e+00	 1.000664514515872e+01
0	 6.142857142857140e+00	 8.999999999999998e+00	 1.000474796677220e+01
0	 6.142857142857141e+00	 9.142857142857139e+00	 1.000324772750822e+01
0	 6.142857142857142e+00	 9.285714285714283e+00	 1.000208302872095e+01
0	 6.142857142857139e+00	 9.428571428571425e+00	 1.000119247176446e+01
0	 6.142857142857141e+00	 9.571428571428568e+00	 1.000051465799294e+01
0	 6.142857142857141e+00	 9.714285714285710e+00	 9.999988188760453e+00
0	 6.142857142857142e+00	 9.857142857142854e+00	 9.999551665421173e+00
0	 6.142857142857141e+00	 1.000000000000000e+01	 9.999143689329216e+00
0	 6.285714285714284e+00	 8.571428571428573e+00	 1.001129411476080e+01
0	 6.285714285714282e+00	 8.714285714285715e+00	 1.000875295699198e+01
0	 6.285714285714284e+00	 8.857142857142859e+00	 1.000667345510114e+01
0	 6.285714285714283e+00	 9.000000000000000e+00	 1.000498921901243e+01
0	 6.285714285714284e+00	 9.142857142857142e+00	 1.000363385864999e+01
0	 6.285714285714283e+00	 9.285714285714285e+00	 1.000254098393795e+01
0	 6.285714285714284e+00	 9.428571428571429e+00	 1.000164420480048e+01
0	 6.285714285714284e+00	 9.571428571428569e+00	 1.000087713116171e+01
0	 6.285714285714282e+00	 9.714285714285708e+00	 1.000017337294582e+01
0	 6.285714285714285e+00	 9.857142857142852e+00	 9.999466540076938e+00
0	 6.285714285714284e+00	 1.000000000000000e+01	 9.998690242479160e+00
0	 6.428571428571426e+00	 8.571428571428571e+00	 1.001070260866864e+01
0	 6.428571428571426e+00	 8.714285714285715e+00	 1.000853194482898e+01
0	 6.428571428571425e+00	 8.857142857142858e+00	 1.000674821503673e+01
0	 6.428571428571424e+00	 8.999999999999998e+00	 1.000528367892703e+01
0	 6.428571428571426e+00	 9.142857142857142e+00	 1.000407059613503e+01
0	 6.428571428571426e+00	 9.285714285714281e+00	 1.000304122629588e+01
0	 6.428571428571426e+00	 9.428571428571429e+00	 1.000212782904475e+01
0	 6.428571428571425e+00	 9.571428571428571e+00	 1.000126266401679e+01
0	 6.428571428571427e+00	 9.714285714285712e+00	 1.000037799084713e+01
0	 6.428571428571426e+00	 9.857142857142854e+00	 9.999406069170906e+00
0	 6.428571428571426e+00	 1.000000000000000e+01	 9.998279158623275e+00
0	 6.571428571428569e+00	 8.571428571428573e+00	 1.001013167602567e+01
0	 6.571428571428568e+00	 8.714285714285715e+00	 1.000834089042763e+01
0	 6.571428571428569e+00	 8.857142857142858e+00	 1.000685164514004e+01
0	 6.571428571428569e+00	 9.000000000000000e+00	 1.000559849065006e+01
0	 6.571428571428568e+00	 9.142857142857142e+00	 1.000451597744480e+01
0	 6.571428571428569e+00	 9.285714285714285e+00	 1.000353865601143e+01
0	 6.571428571428569e+00	 9.428571428571427e+00	 1.000260107683707e+01
0	 6.571428571428568e+00	 9.571428571428566e+00	 1.000163779040886e+01
0	 6.571428571428569e+00	 9.714285714285714e+00	 1.000058334721397e+01
0	 6.571428571428569e+00	 9.857142857142854e+00	 9.999372297739519e+00
0	 6.571428571428569e+00	 1.000000000000000e+01	 9.997939192472627e+00
0	 6.714285714285710e+00	 8.571428571428571e+00	 1.000961159725115e+01
0	 6.714285714285712e+00	 8.714285714285717e+00	 1.000818305939092e+01
0	 6.714285714285711e+00	 8.857142857142856e+00	 1.000696596558569e+01
0	 6.714285714285710e+00	 9.000000000000000e+00	 1.000590079831558e+01
0	 6.714285714285712e+00	 9.142857142857144e+00	 1.000492804006073e+01
0	 6.714285714285711e+00	 9.285714285714285e+00	 1.000398817330122e+01
0	 6.714285714285709e+00	 9.428571428571425e+00	 1.000302168051718e+01
0	 6.714285714285712e+00	 9.571428571428569e+00	 1.000196904418874e+01
0	 6.714285714285710e+00	 9.714285714285708e+00	 1.000077074679602e+01
0	 6.714285714285714e+00	 9.857142857142854e+00	 9.999367270819143e+00
0	 6.714285714285712e+00	 1.000000000000000e+01	 9.997699098738140e+00
0	 6.857142857142853e+00	 8.571428571428571e+00	 1.000917265276428e+01
0	 6.857142857142852e+00	 8.714285714285715e+00	 1.000806171732179e+01
0	 6.857142857142852e+00	 8.857142857142858e+00	 1.000707339654822e+01
0	 6.857142857142851e+00	 8.999999999999998e+00	 1.000615774605766e+01
0	 6.857142857142853e+00	 9.142857142857142e+00	 1.000526482146421e+01
0	 6.857142857142852e+00	 9.285714285714286e+00	 1.000434467838194e+01
0	 6.857142857142854e+00	 9.428571428571425e+00	 1.000334737242491e+01
0	 6.857142857142853e+00	 9.571428571428569e+00	 1.000222295920719e+01
0	 6.857142857142852e+00	 9.714285714285712e+00	 1.000092149434293e+01
0	 6.857142857142853e+00	 9.857142857142854e+00	 9.999393033446150e+00
0	 6.857142857142853e+00	 1.000000000000000e+01	 9.997587632130941e+00
0	 6.999999999999996e+00	 8.571428571428571e+00	 1.000884512298435e+01
0	 6.999999999999996e+00	 8.714285714285714e+00	 1.000798012982322e+01
0	 6.999999999999996e+00	 8.857142857142858e+00	 1.000715615820223e+01
0	 6.999999999999996e+00	 9.000000000000002e+00	 1.000633647801038e+01
0	 6.999999999999996e+00	 9.142857142857141e+00	 1.000548435913669e+01
0	 6.999999999999996e+00	 9.285714285714285e+00	 1.000456307147021e+01
0	 6.999999999999996e+00	 9.428571428571427e+00	 1.000353588489996e+01
0	 6.999999999999996e+00	 9.571428571428571e+00	 1.000236606931499e+01
0	 6.999999999999996e+00	 9.714285714285710e+00	 1.000101689460427e+01
0	 6.999999999999996e+00	 9.857142857142854e+00	 9.999451630656900e+00
0	 6.999999999999996e+00	 1.000000000000000e+01	 9.997633547361858e+00
0	 7.142857142857144e+00	 8.571428571428573e+00	 1.000865928833054e+01
0	 7.142857142857144e+00	 8.714285714285715e+00	 1.000794156249819e+01
0	 7.142857142857146e+00	 8.857142857142861e+00	 1.000719647072227e+01
0	 7.142857142857145e+00	 9.000000000000004e+00	 1.000640413830774e+01
0	 7.142857142857142e+00	 9.142857142857141e+00	 1.000554469055958e+01
0	 7.142857142857142e+00	 9.285714285714285e+00	 1.000459825278272e+01
0	 7.142857142857143e+00	 9.428571428571427e+00	 1.000354495028216e+01
0	 7.142857142857144e+00	 9.571428571428569e+00	 1.000236490836284e+01
0	 7.142857142857144e+00	 9.714285714285712e+00	 1.000103825232972e+01
0	 7.142857142857143e+00	 9.857142857142854e+00	 9.999545107487791e+00
0	 7.142857142857143e+00	 1.000000000000000e+01	 9.997865599141939e+00
0	 7.142857142857143e+00	 0.000000000000000e+00	 1.002511165348636e+01
0	 7.142857142857143e+00	 1.428571428571429e-01	 1.004088110493844e+01
0	 7.142857142857143e+00	 2.857142857142858e-01	 1.005458272169000e+01
0	 7.142857142857144e+00	 4.285714285714288e-01	 1.006614202309968e+01
0	 7.142857142857143e+00	 5.714285714285716e-01	 1.007548452852609e+01
0	 7.142857142857143e+00	 7.142857142857143e-01	 1.008253575732786e+01
0	 7.142857142857145e+00	 8.571428571428575e-01	 1.008722122886362e+01
0	 7.142857142857145e+00	 1.000000000000000e+00	 1.008946646249198e+01
0	 7.142857142857146e+00	 1.142857142857143e+00	 1.008919697757158e+01
0	 7.142857142857143e+00	 1.285714285714286e+00	 1.008633829346105e+01
0	 7.142857142857141e+00	 1.428571428571429e+00	 1.008081592951899e+01
0	 7.285714285714286e+00	 0.000000000000000e+00	 1.000531088045527e+01
0	 7.285714285714286e+00	 1.428571428571429e-01	 1.002419401440367e+01
0	 7.285714285714286e+00	 2.857142857142858e-01	 1.004047804775379e+01
0	 7.285714285714286e+00	 4.285714285714287e-01	 1.005411629034604e+01
0	 7.285714285714286e+00	 5.714285714285715e-01	 1.006506205202082e+01
0	 7.285714285714283e+00	 7.142857142857141e-01	 1.007326864261854e+01
0	 7.285714285714284e+00	 8.571428571428571e-01	 1.007868937197962e+01
0	 7.285714285714286e+00	 1.000000000000000e+00	 1.008127754994445e+01
0	 7.285714285714284e+00	 1.142857142857143e+00	 1.008098648635346e+01
0	 7.285714285714288e+00	 1.285714285714286e+00	 1.007776949104704e+01
0	 7.285714285714286e+00	 1.428571428571429e+00	 1.007157987386561e+01
0	 7.428571428571429e+00	 0.000000000000000e+00	 9.993502205683754e+00
0	 7.428571428571427e+00	 1.428571428571429e-01	 1.001275906149800e+01
0	 7.428571428571427e+00	 2.857142857142857e-01	 1.002931042873160e+01
0	 7.428571428571430e+00	 4.285714285714288e-01	 1.004313391506145e+01
0	 7.428571428571428e+00	 5.714285714285715e-01	 1.005420712816444e+01
0	 7.428571428571428e+00	 7.142857142857144e-01	 1.006250767571746e+01
0	 7.428571428571428e+00	 8.571428571428575e-01	 1.006801316539742e+01
0	 7.428571428571430e+00	 1.000000000000000e+00	 1.007070120488117e+01
0	 7.428571428571428e+00	 1.142857142857143e+00	 1.007054940184564e+01
0	 7.428571428571428e+00	 1.285714285714287e+00	 1.006753536396770e+01
0	 7.428571428571429e+00	 1.428571428571429e+00	 1.006163669892424e+01
0	 7.571428571428570e+00	 0.000000000000000e+00	 9.988235761705788e+00
0	 7.571428571428570e+00	 1.428571428571429e-01	 1.000567622451229e+01
0	 7.571428571428570e+00	 2.857142857142858e-01	 1.002064520540206e+01
0	 7.571428571428572e+00	 4.285714285714288e-01	 1.003314111724315e+01
0	 7.571428571428569e+00	 5.714285714285714e-01	 1.004316237290364e+01
0	 7.571428571428572e+00	 7.142857142857145e-01	 1.005070738525160e+01
0	 7.571428571428571e+00	 8.571428571428575e-01	 1.005577456715510e+01
0	 7.571428571428571e+00	 1.000000000000000e+00	 1.005836233148222e+01
0	 7.571428571428574e+00	 1.142857142857144e+00	 1.005846909110102e+01
0	 7.571428571428571e+00	 1.285714285714286e+00	 1.005609325887957e+01
0	 7.571428571428570e+00	 1.428571428571429e+00	 1.005123324768595e+01
0	 7.714285714285714e+00	 0.000000000000000e+00	 9.988061681055349e+00
0	 7.714285714285712e+00	 1.428571428571429e-01	 1.000204548173745e+01
0	 7.714285714285714e+00	 2.857142857142858e-01	 1.001404771854381e+01
0	 7.714285714285714e+00	 4.285714285714287e-01	 1.002408411688837e+01
0	 7.714285714285714e+00	 5.714285714285715e-01	 1.003217040218508e+01
0	 7.714285714285713e+00	 7.142857142857144e-01	 1.003832229984790e+01
0	 7.714285714285713e+00	 8.571428571428575e-01	 1.004255553529077e+01
0	 7.714285714285715e+00	 1.000000000000000e+00	 1.004488583392764e+01
0	 7.714285714285713e+00	 1.142857142857143e+00	 1.004532892117246e+01
0	 7.714285714285714e+00	 1.285714285714286e+00	 1.004390052243919e+01
0	 7.714285714285714e+00	 1.428571428571429e+00	 1.004061636314178e+01
0	 7.857142857142854e+00	 0.000000000000000e+00	 9.991530096266398e+00
0	 7.857142857142857e+00	 1.428571428571429e-01	 1.000096681146434e+01
0	 7.857142857142857e+00	 2.857142857142858e-01	 1.000908330893549e+01
0	 7.857142857142855e+00	 4.285714285714288e-01	 1.001590913399434e+01
0	 7.857142857142858e+00	 5.714285714285715e-01	 1.002147383195545e+01
0	 7.857142857142855e+00	 7.142857142857144e-01	 1.002580694813332e+01
0	 7.857142857142858e+00	 8.571428571428574e-01	 1.002893802784249e+01
0	 7.857142857142855e+00	 1.000000000000000e+00	 1.003089661639750e+01
0	 7.857142857142856e+00	 1.142857142857143e+00	 1.003171225911287e+01
0	 7.857142857142857e+00	 1.285714285714286e+00	 1.003141450130312e+01
0	 7.857142857142856e+00	 1.428571428571429e+00	 1.003003288828279e+01
0	 7.999999999999997e+00	 0.000000000000000e+00	 9.997191139872918e+00
0	 7.999999999999997e+00	 1.428571428571429e-01	 1.000154019198386e+01
0	 7.999999999999996e+00	 2.857142857142858e-01	 1.000531731735573e+01
0	 7.999999999999998e+00	 4.285714285714287e-01	 1.000856238855830e+01
0	 7.999999999999997e+00	 5.714285714285714e-01	 1.001131527816139e+01
0	 7.999999999999996e+00	 7.142857142857142e-01	 1.001361585873481e+01
0	 7.999999999999996e+00	 8.571428571428574e-01	 1.001550400284837e+01
0	 7.999999999999996e+00	 1.000000000000000e+00	 1.001701958307186e+01
0	 7.999999999999996e+00	 1.142857142857143e+00	 1.001820247197510e+01
0	 7.999999999999997e+00	 1.285714285714286e+00	 1.001909254212788e+01
0	 8.000000000000000e+00	 1.428571428571429e+00	 1.001972966610003e+01
0	 8.142857142857141e+00	 0.000000000000000e+00	 1.000359494440888e+01
0	 8.142857142857139e+00	 1.428571428571429e-01	 1.000286560158688e+01
0	 8.142857142857141e+00	 2.857142857142856e-01	 1.000231508458315e+01
0	 8.142857142857141e+00	 4.285714285714287e-01	 1.000199010057746e+01
0	 8.142857142857139e+00	 5.714285714285714e-01	 1.000193735674960e+01
0	 8.142857142857139e+00	 7.142857142857143e-01	 1.000220356027934e+01
0	 8.142857142857141e+00	 8.571428571428575e-01	 1.000283541834648e+01
0	 8.142857142857142e+00	 1.000000000000000e+00	 1.000387963813078e+01
0	 8.142857142857141e+00	 1.142857142857143e+00	 1.000538292681204e+01
0	 8.142857142857141e+00	 1.285714285714286e+00	 1.000739199157004e+01
0	 8.142857142857141e+00	 1.428571428571428e+00	 1.000995353958454e+01
0	 8.285714285714283e+00	 0.000000000000000e+00	 1.000929164240826e+01
0	 8.285714285714283e+00	 1.428571428571429e-01	 1.000404301856428e+01
0	 8.285714285714281e+00	 2.857142857142858e-01	 9.999641951396400e+00
0	 8.285714285714283e+00	 4.285714285714287e-01	 9.996138490049070e+00
0	 8.285714285714283e+00	 5.714285714285716e-01	 9.993582683666736e+00
0	 8.285714285714285e+00	 7.142857142857144e-01	 9.992024581393876e+00
0	 8.285714285714285e+00	 8.571428571428573e-01	 9.991514232374920e+00
0	 8.285714285714281e+00	 1.000000000000000e+00	 9.992101685754339e+00
0	 8.285714285714283e+00	 1.142857142857143e+00	 9.993836990676584e+00
0	 8.285714285714281e+00	 1.285714285714286e+00	 9.996770196286114e+00
0	 8.285714285714283e+00	 1.428571428571429e+00	 1.000095135172739e+01
0	 8.428571428571425e+00	 0.000000000000000e+00	 1.001283136640502e+01
0	 8.428571428571427e+00	 1.428571428571429e-01	 1.000417242120696e+01
0	 8.428571428571425e+00	 2.857142857142858e-01	 9.996863258574116e+00
0	 8.428571428571427e+00	 4.285714285714288e-01	 9.990953776970350e+00
0	 8.428571428571425e+00	 5.714285714285715e-01	 9.986493874859484e+00
0	 8.428571428571423e+00	 7.142857142857144e-01	 9.983533450705343e+00
0	 8.428571428571425e+00	 8.571428571428575e-01	 9.982122402971763e+00
0	 8.428571428571425e+00	 1.000000000000000e+00	 9.982310630122576e+00
0	 8.428571428571425e+00	 1.142857142857143e+00	 9.984148030621595e+00
0	 8.428571428571425e+00	 1.285714285714286e+00	 9.987684502932661e+00
0	 8.428571428571427e+00	 1.428571428571429e+00	 9.992969945519604e+00
0	 8.571428571428573e+00	 0.000000000000000e+00	 1.001276424893316e+01
0	 8.571428571428571e+00	 1.428571428571429e-01	 1.000235378780575e+01
0	 8.571428571428571e+00	 2.857142857142858e-01	 9.993544346894916e+00
0	 8.571428571428571e+00	 4.285714285714288e-01	 9.986382181338529e+00
0	 8.571428571428573e+00	 5.714285714285715e-01	 9.980913546274504e+00
0	 8.571428571428573e+00	 7.142857142857143e-01	 9.977184696840727e+00
0	 8.571428571428571e+00	 8.571428571428574e-01	 9.975241888175113e+00
0	 8.571428571428573e+00	 1.000000000000000e+00	 9.975131375415559e+00
0	 8.571428571428571e+00	 1.142857142857143e+00	 9.976899413699964e+00
0	 8.571428571428575e+00	 1.285714285714286e+00	 9.980592258166222e+00
0	 8.571428571428575e+00	 1.428571428571429e+00	 9.986256163952248e+00
0	 7.142857142857141e+00	 1.428571428571429e+00	 1.008081592951899e+01
0	 7.142857142857145e+00	 1.571428571428572e+00	 1.007442059046015e+01
0	 7.142857142857146e+00	 1.714285714285715e+00	 1.006904038370723e+01
0	 7.142857142857142e+00	 1.857142857142857e+00	 1.006474693268079e+01
0	 7.142857142857144e+00	 2.000000000000001e+00	 1.006161186080140e+01
0	 7.142857142857144e+00	 2.142857142857144e+00	 1.005970679148964e+01
0	 7.142857142857144e+00	 2.285714285714286e+00	 1.005910334816607e+01
0	 7.142857142857144e+00	 2.428571428571429e+00	 1.005987315425125e+01
0	 7.142857142857141e+00	 2.571428571428572e+00	 1.006208783316578e+01
0	 7.142857142857143e+00	 2.714285714285714e+00	 1.006581900833020e+01
0	 7.142857142857142e+00	 2.857142857142857e+00	 1.007113830316509e+01
0	 7.285714285714286e+00	 1.428571428571429e+00	 1.007157987386561e+01
0	 7.285714285714286e+00	 1.571428571428572e+00	 1.006452578444133e+01
0	 7.285714285714285e+00	 1.714285714285715e+00	 1.005877470830685e+01
0	 7.285714285714286e+00	 1.857142857142858e+00	 1.005436895915329e+01
0	 7.285714285714286e+00	 2.000000000000001e+00	 1.005135085067173e+01
0	 7.285714285714284e+00	 2.142857142857142e+00	 1.004976269655329e+01
0	 7.285714285714286e+00	 2.285714285714286e+00	 1.004964681048906e+01
0	 7.285714285714286e+00	 2.428571428571429e+00	 1.005104550617019e+01
0	 7.285714285714288e+00	 2.571428571428573e+00	 1.005400109728774e+01
0	 7.285714285714287e+00	 2.714285714285715e+00	 1.005855589753282e+01
0	 7.285714285714285e+00	 2.857142857142858e+00	 1.006475222059656e+01
0	 7.428571428571429e+00	 1.428571428571429e+00	 1.006163669892424e+01
0	 7.428571428571430e+00	 1.571428571428572e+00	 1.005496929521640e+01
0	 7.428571428571427e+00	 1.714285714285714e+00	 1.004967583921965e+01
0	 7.428571428571429e+00	 1.857142857142858e+00	 1.004577413542239e+01
0	 7.428571428571427e+00	 2.000000000000000e+00	 1.004328198831302e+01
0	 7.428571428571430e+00	 2.142857142857145e+00	 1.004221720237993e+01
0	 7.428571428571428e+00	 2.285714285714286e+00	 1.004259758211152e+01
0	 7.428571428571427e+00	 2.428571428571429e+00	 1.004444093199618e+01
0	 7.428571428571430e+00	 2.571428571428572e+00	 1.004776505652231e+01
0	 7.428571428571431e+00	 2.714285714285716e+00	 1.005258776017830e+01
0	 7.428571428571429e+00	 2.857142857142857e+00	 1.005892684745256e+01
0	 7.571428571428570e+00	 1.428571428571429e+00	 1.005123324768595e+01
0	 7.571428571428572e+00	 1.571428571428572e+00	 1.004576639270513e+01
0	 7.571428571428572e+00	 1.714285714285715e+00	 1.004156981775167e+01
0	 7.571428571428569e+00	 1.857142857142857e+00	 1.003864161863800e+01
0	 7.571428571428570e+00	 2.000000000000000e+00	 1.003697989117657e+01
0	 7.571428571428570e+00	 2.142857142857143e+00	 1.003658273117981e+01
0	 7.571428571428569e+00	 2.285714285714286e+00	 1.003744823446017e+01
0	 7.571428571428570e+00	 2.428571428571429e+00	 1.003957449683009e+01
0	 7.571428571428570e+00	 2.571428571428573e+00	 1.004295961410200e+01
0	 7.571428571428572e+00	 2.714285714285715e+00	 1.004760168208835e+01
0	 7.571428571428570e+00	 2.857142857142857e+00	 1.005349879660157e+01
0	 7.714285714285714e+00	 1.428571428571429e+00	 1.004061636314178e+01
0	 7.714285714285714e+00	 1.571428571428572e+00	 1.003693234682728e+01
0	 7.714285714285714e+00	 1.714285714285715e+00	 1.003428268520893e+01
0	 7.714285714285712e+00	 1.857142857142857e+00	 1.003265056594997e+01
0	 7.714285714285714e+00	 2.000000000000001e+00	 1.003201917671363e+01
0	 7.714285714285714e+00	 2.142857142857144e+00	 1.003237170516317e+01
0	 7.714285714285713e+00	 2.285714285714286e+00	 1.003369133896180e+01
0	 7.714285714285715e+00	 2.428571428571429e+00	 1.003596126577277e+01
0	 7.714285714285714e+00	 2.571428571428573e+00	 1.003916467325931e+01
0	 7.714285714285713e+00	 2.714285714285714e+00	 1.004328474908467e+01
0	 7.714285714285715e+00	 2.857142857142857e+00	 1.004830468091208e+01
0	 7.857142857142856e+00	 1.428571428571429e+00	 1.003003288828279e+01
0	 7.857142857142854e+00	 1.571428571428571e+00	 1.002848242750261e+01
0	 7.857142857142856e+00	 1.714285714285714e+00	 1.002764048289747e+01
0	 7.857142857142858e+00	 1.857142857142858e+00	 1.002748013450817e+01
0	 7.857142857142858e+00	 2.000000000000001e+00	 1.002797446237548e+01
0	 7.857142857142854e+00	 2.142857142857143e+00	 1.002909654654021e+01
0	 7.857142857142856e+00	 2.285714285714286e+00	 1.003081946704314e+01
0	 7.857142857142858e+00	 2.428571428571429e+00	 1.003311630392505e+01
0	 7.857142857142857e+00	 2.571428571428573e+00	 1.003596013722673e+01
0	 7.857142857142855e+00	 2.714285714285715e+00	 1.003932404698897e+01
0	 7.857142857142854e+00	 2.857142857142858e+00	 1.004318111325256e+01
0	 8.000000000000000e+00	 1.428571428571429e+00	 1.001972966610003e+01
0	 7.999999999999995e+00	 1.571428571428571e+00	 1.002043190465088e+01
0	 7.999999999999997e+00	 1.714285714285715e+00	 1.002146925212334e+01
0	 7.999999999999998e+00	 1.857142857142858e+00	 1.002280948146248e+01
0	 8.000000000000000e+00	 2.000000000000001e+00	 1.002442036561341e+01
0	 7.999999999999997e+00	 2.142857142857143e+00	 1.002626967752120e+01
0	 7.999999999999999e+00	 2.285714285714287e+00	 1.002832519013096e+01
0	 7.999999999999996e+00	 2.428571428571429e+00	 1.003055467638779e+01
0	 7.999999999999999e+00	 2.571428571428573e+00	 1.003292590923675e+01
0	 7.999999999999998e+00	 2.714285714285715e+00	 1.003540666162296e+01
0	 7.999999999999997e+00	 2.857142857142858e+00	 1.003796470649151e+01
0	 8.142857142857141e+00	 1.428571428571428e+00	 1.000995353958454e+01
0	 8.142857142857142e+00	 1.571428571428572e+00	 1.001279604819187e+01
0	 8.142857142857141e+00	 1.714285714285715e+00	 1.001559503419256e+01
0	 8.142857142857141e+00	 1.857142857142857e+00	 1.001831776396277e+01
0	 8.142857142857141e+00	 2.000000000000000e+00	 1.002093150387865e+01
0	 8.142857142857141e+00	 2.142857142857144e+00	 1.002340352031635e+01
0	 8.142857142857142e+00	 2.285714285714286e+00	 1.002570107965203e+01
0	 8.142857142857139e+00	 2.428571428571429e+00	 1.002779144826182e+01
0	 8.142857142857142e+00	 2.571428571428572e+00	 1.002964189252187e+01
0	 8.142857142857141e+00	 2.714285714285715e+00	 1.003121967880837e+01
0	 8.142857142857142e+00	 2.857142857142857e+00	 1.003249207349742e+01
0	 8.285714285714283e+00	 1.428571428571429e+00	 1.000095135172739e+01
0	 8.285714285714281e+00	 1.571428571428571e+00	 1.000559012804531e+01
0	 8.285714285714283e+00	 1.714285714285715e+00	 1.000984387041117e+01
0	 8.285714285714285e+00	 1.857142857142858e+00	 1.001368413915892e+01
0	 8.285714285714283e+00	 2.000000000000000e+00	 1.001708249462251e+01
0	 8.285714285714285e+00	 2.142857142857143e+00	 1.002001049713591e+01
0	 8.285714285714285e+00	 2.285714285714286e+00	 1.002243970703308e+01
0	 8.285714285714285e+00	 2.428571428571430e+00	 1.002434168464800e+01
0	 8.285714285714283e+00	 2.571428571428572e+00	 1.002568799031461e+01
0	 8.285714285714281e+00	 2.714285714285715e+00	 1.002645018436687e+01
0	 8.285714285714283e+00	 2.857142857142858e+00	 1.002659982713876e+01
0	 8.428571428571427e+00	 1.428571428571429e+00	 9.992969945519604e+00
0	 8.428571428571427e+00	 1.571428571428572e+00	 9.998829414130991e+00
0	 8.428571428571425e+00	 1.714285714285715e+00	 1.000404180208521e+01
0	 8.428571428571425e+00	 1.857142857142858e+00	 1.000858776420078e+01
0	 8.428571428571425e+00	 2.000000000000000e+00	 1.001244795529623e+01
0	 8.428571428571425e+00	 2.142857142857143e+00	 1.001560303019010e+01
0	 8.428571428571427e+00	 2.285714285714287e+00	 1.001803364370090e+01
0	 8.428571428571423e+00	 2.428571428571429e+00	 1.001972045064716e+01
0	 8.428571428571425e+00	 2.571428571428572e+00	 1.002064410584742e+01
0	 8.428571428571429e+00	 2.714285714285715e+00	 1.002078526412020e+01
0	 8.428571428571423e+00	 2.857142857142857e+00	 1.002012458028403e+01
0	 8.571428571428575e+00	 1.428571428571429e+00	 9.986256163952248e+00
0	 8.571428571428573e+00	 1.571428571428572e+00	 9.992529176368663e+00
0	 8.571428571428573e+00	 1.714285714285715e+00	 9.998014870520711e+00
0	 8.571428571428573e+00	 1.857142857142857e+00	 1.000270779623825e+01
0	 8.571428571428573e+00	 2.000000000000000e+00	 1.000660250335111e+01
0	 8.571428571428571e+00	 2.142857142857143e+00	 1.000969354168916e+01
0	 8.571428571428573e+00	 2.285714285714286e+00	 1.001197546108223e+01
0	 8.571428571428573e+00	 2.428571428571429e+00	 1.001344281136017e+01
0	 8.571428571428575e+00	 2.571428571428573e+00	 1.001409014235283e+01
0	 8.571428571428571e+00	 2.714285714285715e+00	 1.001391200389007e+01
0	 8.571428571428575e+00	 2.857142857142857e+00	 1.001290294580171e+01
0	 7.142857142857142e+00	 2.857142857142857e+00	 1.007113830316509e+01
0	 7.142857142857145e+00	 3.000000000000001e+00	 1.007684343978945e+01
0	 7.142857142857145e+00	 3.142857142857144e+00	 1.008164560205150e+01
0	 7.142857142857144e+00	 3.285714285714286e+00	 1.008548660596563e+01
0	 7.142857142857141e+00	 3.428571428571427e+00	 1.008830826754625e+01
0	 7.142857142857146e+00	 3.571428571428572e+00	 1.009005240280773e+01
0	 7.142857142857143e+00	 3.714285714285715e+00	 1.009066082776448e+01
0	 7.142857142857142e+00	 3.857142857142857e+00	 1.009007535843088e+01
0	 7.142857142857143e+00	 4.000000000000001e+00	 1.008823781082133e+01
0	 7.142857142857144e+00	 4.142857142857144e+00	 1.008509000095022e+01
0	 7.142857142857142e+00	 4.285714285714285e+00	 1.008057374483194e+01
0	 7.285714285714285e+00	 2.857142857142858e+00	 1.006475222059656e+01
0	 7.285714285714287e+00	 3.000000000000000e+00	 1.007119647676210e+01
0	 7.285714285714285e+00	 3.142857142857142e+00	 1.007645594433246e+01
0	 7.285714285714287e+00	 3.285714285714286e+00	 1.008051423902853e+01
0	 7.285714285714286e+00	 3.428571428571429e+00	 1.008335497657121e+01
0	 7.285714285714287e+00	 3.571428571428572e+00	 1.008496177268137e+01
0	 7.285714285714285e+00	 3.714285714285714e+00	 1.008531824307993e+01
0	 7.285714285714286e+00	 3.857142857142857e+00	 1.008440800348775e+01
0	 7.285714285714288e+00	 4.000000000000002e+00	 1.008221466962576e+01
0	 7.285714285714286e+00	 4.142857142857143e+00	 1.007872185721482e+01
0	 7.285714285714283e+00	 4.285714285714285e+00	 1.007391318197583e+01
0	 7.428571428571429e+00	 2.857142857142857e+00	 1.005892684745256e+01
0	 7.428571428571429e+00	 3.000000000000000e+00	 1.006537339008414e+01
0	 7.428571428571429e+00	 3.142857142857143e+00	 1.007051852252367e+01
0	 7.428571428571429e+00	 3.285714285714286e+00	 1.007438014332684e+01
0	 7.428571428571426e+00	 3.428571428571427e+00	 1.007697615104935e+01
0	 7.428571428571428e+00	 3.571428571428572e+00	 1.007832444424693e+01
0	 7.428571428571426e+00	 3.714285714285714e+00	 1.007844292147525e+01
0	 7.428571428571427e+00	 3.857142857142857e+00	 1.007734948129004e+01
0	 7.428571428571430e+00	 4.000000000000002e+00	 1.007506202224699e+01
0	 7.428571428571429e+00	 4.142857142857145e+00	 1.007159844290180e+01
0	 7.428571428571429e+00	 4.285714285714286e+00	 1.006697664181018e+01
0	 7.571428571428570e+00	 2.857142857142857e+00	 1.005349879660157e+01
0	 7.571428571428573e+00	 3.000000000000001e+00	 1.005936747975137e+01
0	 7.571428571428569e+00	 3.142857142857143e+00	 1.006395529945172e+01
0	 7.571428571428574e+00	 3.285714285714286e+00	 1.006730692022146e+01
0	 7.571428571428569e+00	 3.428571428571428e+00	 1.006946700657941e+01
0	 7.571428571428570e+00	 3.571428571428573e+00	 1.007048022304439e+01
0	 7.571428571428570e+00	 3.714285714285714e+00	 1.007039123413524e+01
0	 7.571428571428570e+00	 3.857142857142857e+00	 1.006924470437079e+01
0	 7.571428571428572e+00	 4.000000000000001e+00	 1.006708529826986e+01
0	 7.571428571428570e+00	 4.142857142857141e+00	 1.006395768035129e+01
0	 7.571428571428570e+00	 4.285714285714286e+00	 1.005990651513390e+01
0	 7.714285714285715e+00	 2.857142857142857e+00	 1.004830468091208e+01
0	 7.714285714285714e+00	 3.000000000000000e+00	 1.005317204575956e+01
0	 7.714285714285712e+00	 3.142857142857142e+00	 1.005688823794321e+01
0	 7.714285714285714e+00	 3.285714285714286e+00	 1.005951717107328e+01
0	 7.714285714285715e+00	 3.428571428571429e+00	 1.006112275876003e+01
0	 7.714285714285714e+00	 3.571428571428572e+00	 1.006176891461374e+01
0	 7.714285714285714e+00	 3.714285714285714e+00	 1.006151955224466e+01
0	 7.714285714285714e+00	 3.857142857142858e+00	 1.006043858526307e+01
0	 7.714285714285714e+00	 4.000000000000001e+00	 1.005858992727924e+01
0	 7.714285714285714e+00	 4.142857142857143e+00	 1.005603749190342e+01
0	 7.714285714285714e+00	 4.285714285714286e+00	 1.005284519274589e+01
0	 7.857142857142854e+00	 2.857142857142858e+00	 1.004318111325256e+01
0	 7.857142857142857e+00	 3.000000000000000e+00	 1.004678038810453e+01
0	 7.857142857142856e+00	 3.142857142857142e+00	 1.004943930082474e+01
0	 7.857142857142856e+00	 3.285714285714286e+00	 1.005123349724320e+01
0	 7.857142857142857e+00	 3.428571428571429e+00	 1.005223862318993e+01
0	 7.857142857142855e+00	 3.571428571428571e+00	 1.005253032449496e+01
0	 7.857142857142856e+00	 3.714285714285715e+00	 1.005218424698829e+01
0	 7.857142857142856e+00	 3.857142857142858e+00	 1.005127603649995e+01
0	 7.857142857142855e+00	 4.000000000000000e+00	 1.004988133885995e+01
0	 7.857142857142853e+00	 4.142857142857142e+00	 1.004807579989832e+01
0	 7.857142857142855e+00	 4.285714285714286e+00	 1.004593506544507e+01
0	 7.999999999999997e+00	 2.857142857142858e+00	 1.003796470649151e+01
0	 7.999999999999997e+00	 3.000000000000000e+00	 1.004018580678205e+01
0	 7.999999999999997e+00	 3.142857142857143e+00	 1.004173045092289e+01
0	 7.999999999999998e+00	 3.285714285714286e+00	 1.004267850009211e+01
0	 8.000000000000002e+00	 3.428571428571430e+00	 1.004310981546779e+01
0	 7.999999999999997e+00	 3.571428571428572e+00	 1.004310425822803e+01
0	 7.999999999999999e+00	 3.714285714285715e+00	 1.004274168955089e+01
0	 7.999999999999997e+00	 3.857142857142857e+00	 1.004210197061448e+01
0	 7.999999999999999e+00	 4.000000000000001e+00	 1.004126496259685e+01
0	 7.999999999999997e+00	 4.142857142857143e+00	 1.004031052667611e+01
0	 7.999999999999997e+00	 4.285714285714286e+00	 1.003931852403033e+01
0	 8.142857142857142e+00	 2.857142857142857e+00	 1.003249207349742e+01
0	 8.142857142857141e+00	 3.000000000000000e+00	 1.003338160178792e+01
0	 8.142857142857141e+00	 3.142857142857143e+00	 1.003388365106425e+01
0	 8.142857142857142e+00	 3.285714285714286e+00	 1.003407478098089e+01
0	 8.142857142857144e+00	 3.428571428571430e+00	 1.003403155119230e+01
0	 8.142857142857142e+00	 3.571428571428572e+00	 1.003383052135293e+01
0	 8.142857142857141e+00	 3.714285714285714e+00	 1.003354825111725e+01
0	 8.142857142857142e+00	 3.857142857142858e+00	 1.003326130013972e+01
0	 8.142857142857144e+00	 4.000000000000002e+00	 1.003304622807479e+01
0	 8.142857142857139e+00	 4.142857142857143e+00	 1.003297959457693e+01
0	 8.142857142857141e+00	 4.285714285714286e+00	 1.003313795930060e+01
0	 8.285714285714283e+00	 2.857142857142858e+00	 1.002659982713876e+01
0	 8.285714285714283e+00	 3.000000000000000e+00	 1.002636107311792e+01
0	 8.285714285714285e+00	 3.142857142857144e+00	 1.002602086407543e+01
0	 8.285714285714281e+00	 3.285714285714286e+00	 1.002564494127046e+01
0	 8.285714285714283e+00	 3.428571428571428e+00	 1.002529904596216e+01
0	 8.285714285714285e+00	 3.571428571428573e+00	 1.002504891940967e+01
0	 8.285714285714283e+00	 3.714285714285715e+00	 1.002496030287215e+01
0	 8.285714285714285e+00	 3.857142857142858e+00	 1.002509893760874e+01
0	 8.285714285714283e+00	 4.000000000000001e+00	 1.002553056487861e+01
0	 8.285714285714283e+00	 4.142857142857144e+00	 1.002632092594090e+01
0	 8.285714285714281e+00	 4.285714285714285e+00	 1.002753576205477e+01
0	 8.428571428571423e+00	 2.857142857142857e+00	 1.002012458028403e+01
0	 8.428571428571425e+00	 3.000000000000000e+00	 1.001911752076785e+01
0	 8.428571428571427e+00	 3.142857142857143e+00	 1.001826405278302e+01
0	 8.428571428571425e+00	 3.285714285714286e+00	 1.001761158232170e+01
0	 8.428571428571427e+00	 3.428571428571429e+00	 1.001720751537605e+01
0	 8.428571428571425e+00	 3.571428571428572e+00	 1.001709925793820e+01
0	 8.428571428571425e+00	 3.714285714285715e+00	 1.001733421600034e+01
0	 8.428571428571425e+00	 3.857142857142858e+00	 1.001795979555461e+01
0	 8.428571428571425e+00	 4.000000000000000e+00	 1.001902340259316e+01
0	 8.428571428571427e+00	 4.142857142857144e+00	 1.002057244310815e+01
0	 8.428571428571425e+00	 4.285714285714286e+00	 1.002265432309175e+01
0	 8.571428571428575e+00	 2.857142857142857e+00	 1.001290294580171e+01
0	 8.571428571428573e+00	 3.000000000000000e+00	 1.001164424473351e+01
0	 8.571428571428573e+00	 3.142857142857143e+00	 1.001073518001361e+01
0	 8.571428571428575e+00	 3.285714285714287e+00	 1.001019730549550e+01
0	 8.571428571428571e+00	 3.428571428571429e+00	 1.001005217503265e+01
0	 8.571428571428573e+00	 3.571428571428572e+00	 1.001032134247853e+01
0	 8.571428571428571e+00	 3.714285714285715e+00	 1.001102636168662e+01
0	 8.571428571428569e+00	 3.857142857142857e+00	 1.001218878651038e+01
0	 8.571428571428569e+00	 3.999999999999999e+00	 1.001383017080328e+01
0	 8.571428571428571e+00	 4.142857142857143e+00	 1.001597206841881e+01
0	 8.571428571428573e+00	 4.285714285714286e+00	 1.001863603321044e+01
0	 7.142857142857142e+00	 4.285714285714285e+00	 1.008057374483194e+01
0	 7.142857142857144e+00	 4.428571428571429e+00	 1.007552692801559e+01
0	 7.142857142857144e+00	 4.571428571428571e+00	 1.007084796837967e+01
0	 7.142857142857143e+00	 4.714285714285714e+00	 1.006656948043273e+01
0	 7.142857142857144e+00	 4.857142857142857e+00	 1.006272407868332e+01
0	 7.142857142857144e+00	 5.000000000000000e+00	 1.005934437763999e+01
0	 7.142857142857144e+00	 5.142857142857143e+00	 1.005646299181127e+01
0	 7.142857142857143e+00	 5.285714285714285e+00	 1.005411253570571e+01
0	 7.142857142857143e+00	 5.428571428571427e+00	 1.005232562383187e+01
0	 7.142857142857146e+00	 5.571428571428571e+00	 1.005113487069830e+01
0	 7.142857142857143e+00	 5.714285714285714e+00	 1.005057289081352e+01
0	 7.285714285714283e+00	 4.285714285714285e+00	 1.007391318197583e+01
0	 7.285714285714285e+00	 4.428571428571428e+00	 1.006873140368405e+01
0	 7.285714285714286e+00	 4.571428571428571e+00	 1.006412899212320e+01
0	 7.285714285714287e+00	 4.714285714285714e+00	 1.006010412802685e+01
0	 7.285714285714286e+00	 4.857142857142858e+00	 1.005665499212857e+01
0	 7.285714285714286e+00	 5.000000000000000e+00	 1.005377976516199e+01
0	 7.285714285714286e+00	 5.142857142857144e+00	 1.005147662786067e+01
0	 7.285714285714288e+00	 5.285714285714285e+00	 1.004974376095817e+01
0	 7.285714285714286e+00	 5.428571428571427e+00	 1.004857934518810e+01
0	 7.285714285714287e+00	 5.571428571428571e+00	 1.004798156128403e+01
0	 7.285714285714284e+00	 5.714285714285711e+00	 1.004794858997956e+01
0	 7.428571428571429e+00	 4.285714285714286e+00	 1.006697664181018e+01
0	 7.428571428571430e+00	 4.428571428571429e+00	 1.006213068580441e+01
0	 7.428571428571429e+00	 4.571428571428571e+00	 1.005796291042035e+01
0	 7.428571428571429e+00	 4.714285714285715e+00	 1.005444361726909e+01
0	 7.428571428571426e+00	 4.857142857142856e+00	 1.005154310796173e+01
0	 7.428571428571429e+00	 5.000000000000001e+00	 1.004923168410938e+01
0	 7.428571428571429e+00	 5.142857142857142e+00	 1.004747964732308e+01
0	 7.428571428571426e+00	 5.285714285714282e+00	 1.004625729921398e+01
0	 7.428571428571428e+00	 5.428571428571427e+00	 1.004553494139314e+01
0	 7.428571428571428e+00	 5.571428571428569e+00	 1.004528287547165e+01
0	 7.428571428571430e+00	 5.714285714285715e+00	 1.004547140306063e+01
0	 7.571428571428570e+00	 4.285714285714286e+00	 1.005990651513390e+01
0	 7.571428571428572e+00	 4.428571428571429e+00	 1.005576654862512e+01
0	 7.571428571428572e+00	 4.571428571428571e+00	 1.005230873524723e+01
0	 7.571428571428572e+00	 4.714285714285714e+00	 1.004948205214130e+01
0	 7.571428571428569e+00	 4.857142857142858e+00	 1.004723547644840e+01
0	 7.571428571428569e+00	 4.999999999999999e+00	 1.004551798530962e+01
0	 7.571428571428569e+00	 5.142857142857141e+00	 1.004427855586599e+01
0	 7.571428571428571e+00	 5.285714285714286e+00	 1.004346616525862e+01
0	 7.571428571428570e+00	 5.428571428571428e+00	 1.004302979062857e+01
0	 7.571428571428571e+00	 5.571428571428569e+00	 1.004291840911692e+01
0	 7.571428571428569e+00	 5.714285714285714e+00	 1.004308099786473e+01
0	 7.714285714285714e+00	 4.285714285714286e+00	 1.005284519274589e+01
0	 7.714285714285714e+00	 4.428571428571428e+00	 1.004968076639468e+01
0	 7.714285714285714e+00	 4.571428571428571e+00	 1.004712547857998e+01
0	 7.714285714285714e+00	 4.714285714285714e+00	 1.004511353662531e+01
0	 7.714285714285712e+00	 4.857142857142855e+00	 1.004357914785421e+01
0	 7.714285714285713e+00	 5.000000000000000e+00	 1.004245651959020e+01
0	 7.714285714285714e+00	 5.142857142857144e+00	 1.004167985915681e+01
0	 7.714285714285714e+00	 5.285714285714285e+00	 1.004118337387755e+01
0	 7.714285714285711e+00	 5.428571428571427e+00	 1.004090127107595e+01
0	 7.714285714285712e+00	 5.571428571428569e+00	 1.004076775807554e+01
0	 7.714285714285714e+00	 5.714285714285715e+00	 1.004071704219984e+01
0	 7.857142857142855e+00	 4.285714285714286e+00	 1.004593506544507e+01
0	 7.857142857142858e+00	 4.428571428571427e+00	 1.004391511336154e+01
0	 7.857142857142856e+00	 4.571428571428571e+00	 1.004237215239468e+01
0	 7.857142857142857e+00	 4.714285714285714e+00	 1.004123217470294e+01
0	 7.857142857142855e+00	 4.857142857142858e+00	 1.004042117244478e+01
0	 7.857142857142855e+00	 4.999999999999999e+00	 1.003986513777864e+01
0	 7.857142857142856e+00	 5.142857142857142e+00	 1.003949006286297e+01
0	 7.857142857142856e+00	 5.285714285714285e+00	 1.003922193985622e+01
0	 7.857142857142856e+00	 5.428571428571428e+00	 1.003898676091683e+01
0	 7.857142857142856e+00	 5.571428571428569e+00	 1.003871051820325e+01
0	 7.857142857142854e+00	 5.714285714285714e+00	 1.003831920387392e+01
0	 7.999999999999997e+00	 4.285714285714286e+00	 1.003931852403033e+01
0	 7.999999999999997e+00	 4.428571428571428e+00	 1.003851136377417e+01
0	 7.999999999999997e+00	 4.571428571428571e+00	 1.003800776866746e+01
0	 7.999999999999998e+00	 4.714285714285714e+00	 1.003773207035604e+01
0	 8.000000000000000e+00	 4.857142857142858e+00	 1.003760860048575e+01
0	 7.999999999999998e+00	 5.000000000000000e+00	 1.003756169070243e+01
0	 7.999999999999998e+00	 5.142857142857142e+00	 1.003751567265192e+01
0	 7.999999999999996e+00	 5.285714285714284e+00	 1.003739487798009e+01
0	 7.999999999999997e+00	 5.428571428571428e+00	 1.003712363833276e+01
0	 8.000000000000000e+00	 5.571428571428570e+00	 1.003662628535577e+01
0	 7.999999999999997e+00	 5.714285714285714e+00	 1.003582715069498e+01
0	 8.142857142857141e+00	 4.285714285714286e+00	 1.003313795930060e+01
0	 8.142857142857141e+00	 4.428571428571428e+00	 1.003351129188106e+01
0	 8.142857142857142e+00	 4.571428571428572e+00	 1.003399133937443e+01
0	 8.142857142857142e+00	 4.714285714285714e+00	 1.003450732756641e+01
0	 8.142857142857142e+00	 4.857142857142858e+00	 1.003498848224272e+01
0	 8.142857142857141e+00	 5.000000000000000e+00	 1.003536402918905e+01
0	 8.142857142857142e+00	 5.142857142857142e+00	 1.003556319419110e+01
0	 8.142857142857141e+00	 5.285714285714285e+00	 1.003551520303462e+01
0	 8.142857142857139e+00	 5.428571428571427e+00	 1.003514928150530e+01
0	 8.142857142857139e+00	 5.571428571428568e+00	 1.003439465538885e+01
0	 8.142857142857141e+00	 5.714285714285714e+00	 1.003318055047097e+01
0	 8.285714285714281e+00	 4.285714285714285e+00	 1.002753576205477e+01
0	 8.285714285714283e+00	 4.428571428571429e+00	 1.002895667193067e+01
0	 8.285714285714283e+00	 4.571428571428572e+00	 1.003028187649171e+01
0	 8.285714285714281e+00	 4.714285714285714e+00	 1.003145205031590e+01
0	 8.285714285714283e+00	 4.857142857142857e+00	 1.003240786798131e+01
0	 8.285714285714285e+00	 5.000000000000001e+00	 1.003309000406598e+01
0	 8.285714285714285e+00	 5.142857142857142e+00	 1.003343913314796e+01
0	 8.285714285714281e+00	 5.285714285714285e+00	 1.003339592980529e+01
0	 8.285714285714285e+00	 5.428571428571428e+00	 1.003290106861602e+01
0	 8.285714285714283e+00	 5.571428571428569e+00	 1.003189522415820e+01
0	 8.285714285714285e+00	 5.714285714285714e+00	 1.003031907100988e+01
0	 8.428571428571425e+00	 4.285714285714286e+00	 1.002265432309175e+01
0	 8.428571428571427e+00	 4.428571428571429e+00	 1.002488927817149e+01
0	 8.428571428571427e+00	 4.571428571428573e+00	 1.002683839199540e+01
0	 8.428571428571423e+00	 4.714285714285714e+00	 1.002846034258635e+01
0	 8.428571428571425e+00	 4.857142857142858e+00	 1.002971380796717e+01
0	 8.428571428571425e+00	 5.000000000000000e+00	 1.003055746616073e+01
0	 8.428571428571425e+00	 5.142857142857144e+00	 1.003094999518990e+01
0	 8.428571428571425e+00	 5.285714285714284e+00	 1.003085007307753e+01
0	 8.428571428571425e+00	 5.428571428571426e+00	 1.003021637784646e+01
0	 8.428571428571423e+00	 5.571428571428569e+00	 1.002900758751956e+01
0	 8.428571428571427e+00	 5.714285714285714e+00	 1.002718238011969e+01
0	 8.571428571428573e+00	 4.285714285714286e+00	 1.001863603321044e+01
0	 8.571428571428573e+00	 4.428571428571429e+00	 1.002135088485197e+01
0	 8.571428571428573e+00	 4.571428571428572e+00	 1.002361989786162e+01
0	 8.571428571428575e+00	 4.714285714285715e+00	 1.002542630835956e+01
0	 8.571428571428573e+00	 4.857142857142858e+00	 1.002675335246590e+01
0	 8.571428571428573e+00	 5.000000000000001e+00	 1.002758426630081e+01
0	 8.571428571428571e+00	 5.142857142857142e+00	 1.002790228598439e+01
0	 8.571428571428573e+00	 5.285714285714284e+00	 1.002769064763681e+01
0	 8.571428571428573e+00	 5.428571428571428e+00	 1.002693258737818e+01
0	 8.571428571428571e+00	 5.571428571428569e+00	 1.002561134132866e+01
0	 8.571428571428573e+00	 5.714285714285715e+00	 1.002371014560838e+01
0	 7.142857142857143e+00	 5.714285714285714e+00	 1.005057289081352e+01
0	 7.142857142857144e+00	 5.857142857142857e+00	 1.005023080832805e+01
0	 7.142857142857142e+00	 5.999999999999998e+00	 1.004965448041653e+01
0	 7.142857142857144e+00	 6.142857142857141e+00	 1.004880862112375e+01
0	 7.142857142857143e+00	 6.285714285714283e+00	 1.004765794449446e+01
0	 7.142857142857143e+00	 6.428571428571424e+00	 1.004616716457345e+01
0	 7.142857142857145e+00	 6.571428571428568e+00	 1.004430099540548e+01
0	 7.142857142857145e+00	 6.714285714285712e+00	 1.004202415103533e+01
0	 7.142857142857142e+00	 6.857142857142851e+00	 1.003930134550778e+01
0	 7.142857142857143e+00	 6.999999999999996e+00	 1.003609729286759e+01
0	 7.142857142857141e+00	 7.142857142857141e+00	 1.003237670715952e+01
0	 7.285714285714284e+00	 5.714285714285711e+00	 1.004794858997956e+01
0	 7.285714285714286e+00	 5.857142857142857e+00	 1.004801134568731e+01
0	 7.285714285714287e+00	 6.000000000000000e+00	 1.004769533836327e+01
0	 7.285714285714286e+00	 6.142857142857142e+00	 1.004699064205598e+01
0	 7.285714285714285e+00	 6.285714285714283e+00	 1.004588733081401e+01
0	 7.285714285714287e+00	 6.428571428571423e+00	 1.004437547868590e+01
0	 7.285714285714286e+00	 6.571428571428570e+00	 1.004244515972025e+01
0	 7.285714285714286e+00	 6.714285714285710e+00	 1.004008644796559e+01
0	 7.285714285714285e+00	 6.857142857142851e+00	 1.003728941747045e+01
0	 7.285714285714287e+00	 6.999999999999996e+00	 1.003404414228345e+01
0	 7.285714285714284e+00	 7.142857142857141e+00	 1.003034069645312e+01
0	 7.428571428571430e+00	 5.714285714285715e+00	 1.004547140306063e+01
0	 7.428571428571429e+00	 5.857142857142857e+00	 1.004564133702920e+01
0	 7.428571428571428e+00	 5.999999999999997e+00	 1.004536038632148e+01
0	 7.428571428571427e+00	 6.142857142857139e+00	 1.004463919666100e+01
0	 7.428571428571427e+00	 6.285714285714283e+00	 1.004348841377130e+01
0	 7.428571428571425e+00	 6.428571428571425e+00	 1.004191868337590e+01
0	 7.428571428571429e+00	 6.571428571428569e+00	 1.003994065119835e+01
0	 7.428571428571428e+00	 6.714285714285710e+00	 1.003756496296217e+01
0	 7.428571428571427e+00	 6.857142857142852e+00	 1.003480226439090e+01
0	 7.428571428571428e+00	 6.999999999999994e+00	 1.003166320120809e+01
0	 7.428571428571428e+00	 7.142857142857141e+00	 1.002815841913724e+01
0	 7.571428571428569e+00	 5.714285714285714e+00	 1.004308099786473e+01
0	 7.571428571428571e+00	 5.857142857142856e+00	 1.004312376591422e+01
0	 7.571428571428568e+00	 5.999999999999997e+00	 1.004270455692667e+01
0	 7.571428571428572e+00	 6.142857142857142e+00	 1.004184979997178e+01
0	 7.571428571428569e+00	 6.285714285714283e+00	 1.004058592411923e+01
0	 7.571428571428568e+00	 6.428571428571422e+00	 1.003893935843875e+01
0	 7.571428571428569e+00	 6.571428571428568e+00	 1.003693653200001e+01
0	 7.571428571428571e+00	 6.714285714285711e+00	 1.003460387387270e+01
0	 7.571428571428569e+00	 6.857142857142851e+00	 1.003196781312652e+01
0	 7.571428571428571e+00	 6.999999999999996e+00	 1.002905477883118e+01
0	 7.571428571428569e+00	 7.142857142857141e+00	 1.002589120005636e+01
0	 7.714285714285714e+00	 5.714285714285715e+00	 1.004071704219984e+01
0	 7.714285714285714e+00	 5.857142857142857e+00	 1.004046161590287e+01
0	 7.714285714285714e+00	 5.999999999999997e+00	 1.003978278281433e+01
0	 7.714285714285714e+00	 6.142857142857141e+00	 1.003871796702128e+01
0	 7.714285714285714e+00	 6.285714285714283e+00	 1.003730459261075e+01
0	 7.714285714285713e+00	 6.428571428571425e+00	 1.003558008366978e+01
0	 7.714285714285712e+00	 6.571428571428567e+00	 1.003358186428542e+01
0	 7.714285714285713e+00	 6.714285714285709e+00	 1.003134735854472e+01
0	 7.714285714285713e+00	 6.857142857142852e+00	 1.002891399053472e+01
0	 7.714285714285713e+00	 6.999999999999994e+00	 1.002631918434246e+01
0	 7.714285714285712e+00	 7.142857142857141e+00	 1.002360036405500e+01
0	 7.857142857142854e+00	 5.714285714285714e+00	 1.003831920387392e+01
0	 7.857142857142854e+00	 5.857142857142856e+00	 1.003765787055565e+01
0	 7.857142857142856e+00	 6.000000000000001e+00	 1.003664999661998e+01
0	 7.857142857142856e+00	 6.142857142857141e+00	 1.003533921284247e+01
0	 7.857142857142859e+00	 6.285714285714285e+00	 1.003376914999872e+01
0	 7.857142857142854e+00	 6.428571428571425e+00	 1.003198343886431e+01
0	 7.857142857142856e+00	 6.571428571428569e+00	 1.003002571021481e+01
0	 7.857142857142858e+00	 6.714285714285711e+00	 1.002793959482582e+01
0	 7.857142857142856e+00	 6.857142857142851e+00	 1.002576872347289e+01
0	 7.857142857142856e+00	 6.999999999999996e+00	 1.002355672693163e+01
0	 7.857142857142856e+00	 7.142857142857142e+00	 1.002134723597761e+01
0	 7.999999999999997e+00	 5.714285714285714e+00	 1.003582715069497e+01
0	 7.999999999999999e+00	 5.857142857142857e+00	 1.003471551343308e+01
0	 7.999999999999998e+00	 5.999999999999998e+00	 1.003336113097909e+01
0	 7.999999999999998e+00	 6.142857142857141e+00	 1.003180905246833e+01
0	 7.999999999999997e+00	 6.285714285714283e+00	 1.003010432703608e+01
0	 7.999999999999998e+00	 6.428571428571425e+00	 1.002829200381767e+01
0	 7.999999999999997e+00	 6.571428571428566e+00	 1.002641713194840e+01
0	 7.999999999999996e+00	 6.714285714285710e+00	 1.002452476056355e+01
0	 7.999999999999997e+00	 6.857142857142853e+00	 1.002265993879846e+01
0	 7.999999999999999e+00	 6.999999999999996e+00	 1.002086771578841e+01
0	 7.999999999999997e+00	 7.142857142857144e+00	 1.001919314066871e+01
0	 8.142857142857141e+00	 5.714285714285714e+00	 1.003318055047097e+01
0	 8.142857142857141e+00	 5.857142857142855e+00	 1.003163752809564e+01
0	 8.142857142857139e+00	 5.999999999999998e+00	 1.002997111852718e+01
0	 8.142857142857139e+00	 6.142857142857141e+00	 1.002822300093182e+01
0	 8.142857142857141e+00	 6.285714285714283e+00	 1.002643485447575e+01
0	 8.142857142857141e+00	 6.428571428571424e+00	 1.002464835832519e+01
0	 8.142857142857142e+00	 6.571428571428569e+00	 1.002290519164638e+01
0	 8.142857142857142e+00	 6.714285714285710e+00	 1.002124703360552e+01
0	 8.142857142857139e+00	 6.857142857142852e+00	 1.001971556336882e+01
0	 8.142857142857142e+00	 6.999999999999996e+00	 1.001835246010250e+01
0	 8.142857142857141e+00	 7.142857142857144e+00	 1.001719940297278e+01
0	 8.285714285714285e+00	 5.714285714285714e+00	 1.003031907100988e+01
0	 8.285714285714283e+00	 5.857142857142856e+00	 1.002842689810385e+01
0	 8.285714285714279e+00	 5.999999999999997e+00	 1.002653489189975e+01
0	 8.285714285714283e+00	 6.142857142857141e+00	 1.002467657326590e+01
0	 8.285714285714283e+00	 6.285714285714284e+00	 1.002288546307062e+01
0	 8.285714285714283e+00	 6.428571428571424e+00	 1.002119508218220e+01
0	 8.285714285714281e+00	 6.571428571428568e+00	 1.001963895146899e+01
0	 8.285714285714281e+00	 6.714285714285709e+00	 1.001825059179927e+01
0	 8.285714285714283e+00	 6.857142857142853e+00	 1.001706352404138e+01
0	 8.285714285714283e+00	 6.999999999999994e+00	 1.001611126906362e+01
0	 8.285714285714283e+00	 7.142857142857143e+00	 1.001542734773431e+01
0	 8.428571428571427e+00	 5.714285714285714e+00	 1.002718238011968e+01
0	 8.428571428571425e+00	 5.857142857142857e+00	 1.002508660701820e+01
0	 8.428571428571427e+00	 5.999999999999999e+00	 1.002310738373229e+01
0	 8.428571428571425e+00	 6.142857142857139e+00	 1.002126528450355e+01
0	 8.428571428571423e+00	 6.285714285714281e+00	 1.001958088357360e+01
0	 8.428571428571425e+00	 6.428571428571425e+00	 1.001807475518401e+01
0	 8.428571428571425e+00	 6.571428571428568e+00	 1.001676747357642e+01
0	 8.428571428571425e+00	 6.714285714285709e+00	 1.001567961299239e+01
0	 8.428571428571425e+00	 6.857142857142855e+00	 1.001483174767354e+01
0	 8.428571428571425e+00	 6.999999999999996e+00	 1.001424445186148e+01
0	 8.428571428571423e+00	 7.142857142857141e+00	 1.001393829979780e+01
0	 8.571428571428573e+00	 5.714285714285715e+00	 1.002371014560838e+01
0	 8.571428571428573e+00	 5.857142857142858e+00	 1.002161963839920e+01
0	 8.571428571428571e+00	 5.999999999999998e+00	 1.001974352666030e+01
0	 8.571428571428573e+00	 6.142857142857141e+00	 1.001808464967774e+01
0	 8.571428571428573e+00	 6.285714285714284e+00	 1.001664584673761e+01
0	 8.571428571428571e+00	 6.428571428571425e+00	 1.001542995712596e+01
0	 8.571428571428573e+00	 6.571428571428568e+00	 1.001443982012888e+01
0	 8.571428571428571e+00	 6.714285714285709e+00	 1.001367827503243e+01
0	 8.571428571428571e+00	 6.857142857142854e+00	 1.001314816112272e+01
0	 8.571428571428573e+00	 6.999999999999994e+00	 1.001285231768578e+01
0	 8.571428571428573e+00	 7.142857142857144e+00	 1.001279358400771e+01
0	 7.142857142857141e+00	 7.142857142857141e+00	 1.003237670715952e+01
0	 7.142857142857145e+00	 7.285714285714286e+00	 1.002854418200669e+01
0	 7.142857142857143e+00	 7.428571428571429e+00	 1.002502952307352e+01
0	 7.142857142857142e+00	 7.571428571428569e+00	 1.002183526246680e+01
0	 7.142857142857141e+00	 7.714285714285711e+00	 1.001896393229332e+01
0	 7.142857142857142e+00	 7.857142857142855e+00	 1.001641806465985e+01
0	 7.142857142857145e+00	 7.999999999999999e+00	 1.001420019167320e+01
0	 7.142857142857144e+00	 8.142857142857142e+00	 1.001231284544016e+01
0	 7.142857142857144e+00	 8.285714285714283e+00	 1.001075855806751e+01
0	 7.142857142857144e+00	 8.428571428571423e+00	 1.000953986166204e+01
0	 7.142857142857144e+00	 8.571428571428573e+00	 1.000865928833055e+01
0	 7.285714285714284e+00	 7.142857142857141e+00	 1.003034069645312e+01
0	 7.285714285714285e+00	 7.285714285714285e+00	 1.002660112895306e+01
0	 7.285714285714286e+00	 7.428571428571430e+00	 1.002324488889588e+01
0	 7.285714285714284e+00	 7.571428571428570e+00	 1.002025815053864e+01
0	 7.285714285714287e+00	 7.714285714285715e+00	 1.001762708813844e+01
0	 7.285714285714285e+00	 7.857142857142852e+00	 1.001533787595237e+01
0	 7.285714285714286e+00	 7.999999999999999e+00	 1.001337668823746e+01
0	 7.285714285714286e+00	 8.142857142857137e+00	 1.001172969925082e+01
0	 7.285714285714286e+00	 8.285714285714283e+00	 1.001038308324952e+01
0	 7.285714285714286e+00	 8.428571428571425e+00	 1.000932301449063e+01
0	 7.285714285714286e+00	 8.571428571428573e+00	 1.000853566723124e+01
0	 7.428571428571428e+00	 7.142857142857141e+00	 1.002815841913724e+01
0	 7.428571428571429e+00	 7.285714285714286e+00	 1.002468501251150e+01
0	 7.428571428571428e+00	 7.428571428571428e+00	 1.002161513059606e+01
0	 7.428571428571426e+00	 7.571428571428569e+00	 1.001892200151261e+01
0	 7.428571428571429e+00	 7.714285714285712e+00	 1.001657885338276e+01
0	 7.428571428571428e+00	 7.857142857142856e+00	 1.001455891432818e+01
0	 7.428571428571431e+00	 8.000000000000002e+00	 1.001283541247051e+01
0	 7.428571428571426e+00	 8.142857142857137e+00	 1.001138157593141e+01
0	 7.428571428571429e+00	 8.285714285714285e+00	 1.001017063283253e+01
0	 7.428571428571427e+00	 8.428571428571425e+00	 1.000917581129550e+01
0	 7.428571428571430e+00	 8.571428571428571e+00	 1.000837033944201e+01
0	 7.571428571428569e+00	 7.142857142857141e+00	 1.002589120005637e+01
0	 7.571428571428572e+00	 7.285714285714286e+00	 1.002281627958657e+01
0	 7.571428571428571e+00	 7.428571428571427e+00	 1.002012739662685e+01
0	 7.571428571428569e+00	 7.571428571428568e+00	 1.001778824487770e+01
0	 7.571428571428569e+00	 7.714285714285712e+00	 1.001576251803966e+01
0	 7.571428571428570e+00	 7.857142857142855e+00	 1.001401390981321e+01
0	 7.571428571428569e+00	 7.999999999999998e+00	 1.001250611389888e+01
0	 7.571428571428570e+00	 8.142857142857141e+00	 1.001120282399718e+01
0	 7.571428571428571e+00	 8.285714285714283e+00	 1.001006773380861e+01
0	 7.571428571428571e+00	 8.428571428571425e+00	 1.000906453703367e+01
0	 7.571428571428569e+00	 8.571428571428573e+00	 1.000815692737292e+01
0	 7.714285714285712e+00	 7.142857142857141e+00	 1.002360036405500e+01
0	 7.714285714285715e+00	 7.285714285714286e+00	 1.002101537708285e+01
0	 7.714285714285712e+00	 7.428571428571429e+00	 1.001876883544095e+01
0	 7.714285714285714e+00	 7.571428571428569e+00	 1.001681831012298e+01
0	 7.714285714285713e+00	 7.714285714285713e+00	 1.001512137212257e+01
0	 7.714285714285715e+00	 7.857142857142855e+00	 1.001363559243340e+01
0	 7.714285714285714e+00	 7.999999999999999e+00	 1.001231854204912e+01
0	 7.714285714285714e+00	 8.142857142857142e+00	 1.001112779196338e+01
0	 7.714285714285714e+00	 8.285714285714285e+00	 1.001002091316986e+01
0	 7.714285714285711e+00	 8.428571428571425e+00	 1.000895547666220e+01
0	 7.714285714285714e+00	 8.571428571428573e+00	 1.000788905343405e+01
0	 7.857142857142856e+00	 7.142857142857142e+00	 1.002134723597761e+01
0	 7.857142857142852e+00	 7.285714285714284e+00	 1.001930275190487e+01
0	 7.857142857142856e+00	 7.428571428571428e+00	 1.001752659549111e+01
0	 7.857142857142853e+00	 7.571428571428568e+00	 1.001597362673742e+01
0	 7.857142857142853e+00	 7.714285714285713e+00	 1.001459870564490e+01
0	 7.857142857142855e+00	 7.857142857142854e+00	 1.001335669221466e+01
0	 7.857142857142855e+00	 7.999999999999996e+00	 1.001220244644774e+01
0	 7.857142857142856e+00	 8.142857142857142e+00	 1.001109082834530e+01
0	 7.857142857142858e+00	 8.285714285714286e+00	 1.000997669790837e+01
0	 7.857142857142854e+00	 8.428571428571425e+00	 1.000881491513807e+01
0	 7.857142857142857e+00	 8.571428571428573e+00	 1.000756034003550e+01
0	 7.999999999999997e+00	 7.142857142857144e+00	 1.001919314066871e+01
0	 7.999999999999999e+00	 7.285714285714286e+00	 1.001769885095721e+01
0	 7.999999999999998e+00	 7.428571428571429e+00	 1.001638782523005e+01
0	 7.999999999999998e+00	 7.571428571428570e+00	 1.001521562421009e+01
0	 7.999999999999998e+00	 7.714285714285713e+00	 1.001413780862009e+01
0	 7.999999999999997e+00	 7.857142857142856e+00	 1.001310993918290e+01
0	 7.999999999999998e+00	 7.999999999999997e+00	 1.001208757662132e+01
0	 7.999999999999998e+00	 8.142857142857141e+00	 1.001102628165816e+01
0	 7.999999999999996e+00	 8.285714285714281e+00	 1.000988161501622e+01
0	 7.999999999999998e+00	 8.428571428571425e+00	 1.000860913741833e+01
0	 7.999999999999997e+00	 8.571428571428571e+00	 1.000716440958730e+01
0	 8.142857142857141e+00	 7.142857142857144e+00	 1.001719940297278e+01
0	 8.142857142857139e+00	 7.285714285714285e+00	 1.001622412114442e+01
0	 8.142857142857137e+00	 7.428571428571425e+00	 1.001533967311054e+01
0	 8.142857142857141e+00	 7.571428571428570e+00	 1.001450573202998e+01
0	 8.142857142857141e+00	 7.714285714285714e+00	 1.001368197106155e+01
0	 8.142857142857141e+00	 7.857142857142854e+00	 1.001282806336408e+01
0	 8.142857142857144e+00	 7.999999999999999e+00	 1.001190368209635e+01
0	 8.142857142857141e+00	 8.142857142857139e+00	 1.001086850041724e+01
0	 8.142857142857139e+00	 8.285714285714281e+00	 1.000968219148552e+01
0	 8.142857142857139e+00	 8.428571428571425e+00	 1.000830442846001e+01
0	 8.142857142857141e+00	 8.571428571428571e+00	 1.000669488449953e+01
0	 8.285714285714283e+00	 7.142857142857143e+00	 1.001542734773431e+01
0	 8.285714285714281e+00	 7.285714285714286e+00	 1.001489900937105e+01
0	 8.285714285714283e+00	 7.428571428571430e+00	 1.001436928758530e+01
0	 8.285714285714283e+00	 7.571428571428570e+00	 1.001380537968613e+01
0	 8.285714285714285e+00	 7.714285714285714e+00	 1.001317448298269e+01
0	 8.285714285714283e+00	 7.857142857142855e+00	 1.001244379478408e+01
0	 8.285714285714283e+00	 7.999999999999997e+00	 1.001158051239941e+01
0	 8.285714285714283e+00	 8.142857142857141e+00	 1.001055183313779e+01
0	 8.285714285714286e+00	 8.285714285714283e+00	 1.000932495430833e+01
0	 8.285714285714281e+00	 8.428571428571423e+00	 1.000786707322013e+01
0	 8.285714285714285e+00	 8.571428571428573e+00	 1.000614538718231e+01
0	 8.428571428571423e+00	 7.142857142857141e+00	 1.001393829979780e+01
0	 8.428571428571425e+00	 7.285714285714286e+00	 1.001374396254168e+01
0	 8.428571428571425e+00	 7.428571428571427e+00	 1.001346381710704e+01
0	 8.428571428571425e+00	 7.571428571428569e+00	 1.001307599666756e+01
0	 8.428571428571425e+00	 7.714285714285711e+00	 1.001255863439693e+01
0	 8.428571428571425e+00	 7.857142857142853e+00	 1.001188986346885e+01
0	 8.428571428571425e+00	 7.999999999999997e+00	 1.001104781705700e+01
0	 8.428571428571427e+00	 8.142857142857142e+00	 1.001001062833507e+01
0	 8.428571428571423e+00	 8.285714285714281e+00	 1.000875643047675e+01
0	 8.428571428571427e+00	 8.428571428571425e+00	 1.000726335665572e+01
0	 8.428571428571427e+00	 8.571428571428573e+00	 1.000550954004568e+01
0	 8.571428571428573e+00	 7.142857142857144e+00	 1.001279358400771e+01
0	 8.571428571428571e+00	 7.285714285714286e+00	 1.001277942756085e+01
0	 8.571428571428571e+00	 7.428571428571428e+00	 1.001261041012853e+01
0	 8.571428571428571e+00	 7.571428571428569e+00	 1.001227901246330e+01
0	 8.571428571428573e+00	 7.714285714285713e+00	 1.001177771531771e+01
0	 8.571428571428569e+00	 7.857142857142854e+00	 1.001109899944431e+01
0	 8.571428571428571e+00	 7.999999999999998e+00	 1.001023534559566e+01
0	 8.571428571428571e+00	 8.142857142857141e+00	 1.000917923452434e+01
0	 8.571428571428573e+00	 8.285714285714283e+00	 1.000792314698286e+01
0	 8.571428571428575e+00	 8.428571428571425e+00	 1.000645956372379e+01
0	 8.571428571428573e+00	 8.571428571428571e+00	 1.000478096549971e+01
0	 7.142857142857144e+00	 8.571428571428573e+00	 1.000865928833055e+01
0	 7.142857142857144e+00	 8.714285714285715e+00	 1.000794156249819e+01
0	 7.142857142857146e+00	 8.857142857142861e+00	 1.000719647072227e+01
0	 7.142857142857145e+00	 9.000000000000004e+00	 1.000640413830775e+01
0	 7.142857142857142e+00	 9.142857142857141e+00	 1.000554469055958e+01
0	 7.142857142857142e+00	 9.285714285714285e+00	 1.000459825278272e+01
0	 7.142857142857143e+00	 9.428571428571427e+00	 1.000354495028216e+01
0	 7.142857142857144e+00	 9.571428571428569e+00	 1.000236490836283e+01
0	 7.142857142857144e+00	 9.714285714285712e+00	 1.000103825232972e+01
0	 7.142857142857143e+00	 9.857142857142854e+00	 9.999545107487789e+00
0	 7.142857142857143e+00	 1.000000000000000e+01	 9.997865599141939e+00
0	 7.285714285714286e+00	 8.571428571428573e+00	 1.000853566723124e+01
0	 7.285714285714286e+00	 8.714285714285715e+00	 1.000784762965927e+01
0	 7.285714285714284e+00	 8.857142857142854e+00	 1.000709271043360e+01
0	 7.285714285714285e+00	 8.999999999999998e+00	 1.000626791451768e+01
0	 7.285714285714286e+00	 9.142857142857144e+00	 1.000537024687498e+01
0	 7.285714285714286e+00	 9.285714285714285e+00	 1.000439671246895e+01
0	 7.285714285714285e+00	 9.428571428571427e+00	 1.000334431626310e+01
0	 7.285714285714285e+00	 9.571428571428569e+00	 1.000221006322085e+01
0	 7.285714285714286e+00	 9.714285714285714e+00	 1.000099095830567e+01
0	 7.285714285714286e+00	 9.857142857142854e+00	 9.999684006481090e+00
0	 7.285714285714286e+00	 1.000000000000000e+01	 9.998286212710489e+00
0	 7.428571428571430e+00	 8.571428571428571e+00	 1.000837033944201e+01
0	 7.428571428571426e+00	 8.714285714285714e+00	 1.000761187370342e+01
0	 7.428571428571430e+00	 8.857142857142858e+00	 1.000678277974074e+01
0	 7.428571428571427e+00	 9.000000000000000e+00	 1.000589334952013e+01
0	 7.428571428571428e+00	 9.142857142857141e+00	 1.000495387500770e+01
0	 7.428571428571428e+00	 9.285714285714285e+00	 1.000397464816956e+01
0	 7.428571428571429e+00	 9.428571428571427e+00	 1.000296596097186e+01
0	 7.428571428571427e+00	 9.571428571428566e+00	 1.000193810538072e+01
0	 7.428571428571426e+00	 9.714285714285710e+00	 1.000090137336227e+01
0	 7.428571428571425e+00	 9.857142857142851e+00	 9.999866056882528e+00
0	 7.428571428571429e+00	 1.000000000000000e+01	 9.998842447907842e+00
0	 7.571428571428569e+00	 8.571428571428573e+00	 1.000815692737292e+01
0	 7.571428571428572e+00	 8.714285714285715e+00	 1.000725545236010e+01
0	 7.571428571428571e+00	 8.857142857142858e+00	 1.000630818793723e+01
0	 7.571428571428572e+00	 9.000000000000000e+00	 1.000533512041732e+01
0	 7.571428571428569e+00	 9.142857142857141e+00	 1.000435623611326e+01
0	 7.571428571428571e+00	 9.285714285714281e+00	 1.000339152133802e+01
0	 7.571428571428569e+00	 9.428571428571427e+00	 1.000246096240448e+01
0	 7.571428571428571e+00	 9.571428571428569e+00	 1.000158454562565e+01
0	 7.571428571428570e+00	 9.714285714285712e+00	 1.000078225731444e+01
0	 7.571428571428569e+00	 9.857142857142854e+00	 1.000007408378377e+01
0	 7.571428571428570e+00	 9.999999999999998e+00	 9.999480011346606e+00
0	 7.714285714285714e+00	 8.571428571428573e+00	 1.000788905343405e+01
0	 7.714285714285714e+00	 8.714285714285715e+00	 1.000679952335882e+01
0	 7.714285714285713e+00	 8.857142857142858e+00	 1.000571044431665e+01
0	 7.714285714285712e+00	 8.999999999999996e+00	 1.000464790431147e+01
0	 7.714285714285712e+00	 9.142857142857142e+00	 1.000363799134720e+01
0	 7.714285714285714e+00	 9.285714285714283e+00	 1.000270679342776e+01
0	 7.714285714285712e+00	 9.428571428571427e+00	 1.000188039855700e+01
0	 7.714285714285713e+00	 9.571428571428569e+00	 1.000118489473889e+01
0	 7.714285714285714e+00	 9.714285714285710e+00	 1.000064636997732e+01
0	 7.714285714285714e+00	 9.857142857142854e+00	 1.000029091227614e+01
0	 7.714285714285714e+00	 1.000000000000000e+01	 1.000014460963935e+01
0	 7.857142857142857e+00	 8.571428571428573e+00	 1.000756034003550e+01
0	 7.857142857142854e+00	 8.714285714285714e+00	 1.000626524442906e+01
0	 7.857142857142855e+00	 8.857142857142858e+00	 1.000503105817248e+01
0	 7.857142857142856e+00	 8.999999999999996e+00	 1.000388637830480e+01
0	 7.857142857142854e+00	 9.142857142857141e+00	 1.000285980186505e+01
0	 7.857142857142858e+00	 9.285714285714286e+00	 1.000197992589226e+01
0	 7.857142857142857e+00	 9.428571428571427e+00	 1.000127534742546e+01
0	 7.857142857142855e+00	 9.571428571428568e+00	 1.000077466350364e+01
0	 7.857142857142855e+00	 9.714285714285710e+00	 1.000050647116593e+01
0	 7.857142857142855e+00	 9.857142857142852e+00	 1.000049936745128e+01
0	 7.857142857142854e+00	 9.999999999999998e+00	 1.000078194939872e+01
0	 7.999999999999997e+00	 8.571428571428571e+00	 1.000716440958730e+01
0	 7.999999999999997e+00	 8.714285714285715e+00	 1.000567377330031e+01
0	 7.999999999999997e+00	 8.857142857142858e+00	 1.000431153879829e+01
0	 7.999999999999999e+00	 9.000000000000002e+00	 1.000310521949952e+01
0	 8.000000000000000e+00	 9.142857142857142e+00	 1.000208232882232e+01
0	 7.999999999999999e+00	 9.285714285714286e+00	 1.000127038018499e+01
0	 7.999999999999998e+00	 9.428571428571427e+00	 1.000069688700584e+01
0	 7.999999999999999e+00	 9.571428571428569e+00	 1.000038936270320e+01
0	 7.999999999999998e+00	 9.714285714285710e+00	 1.000037532069534e+01
0	 7.999999999999998e+00	 9.857142857142854e+00	 1.000068227440063e+01
0	 7.999999999999997e+00	 1.000000000000000e+01	 1.000133773723728e+01
0	 8.142857142857141e+00	 8.571428571428571e+00	 1.000669488449953e+01
0	 8.142857142857142e+00	 8.714285714285717e+00	 1.000504626770209e+01
0	 8.142857142857141e+00	 8.857142857142858e+00	 1.000359339548762e+01
0	 8.142857142857141e+00	 9.000000000000000e+00	 1.000235910499785e+01
0	 8.142857142857141e+00	 9.142857142857142e+00	 1.000136623337453e+01
0	 8.142857142857141e+00	 9.285714285714285e+00	 1.000063761775941e+01
0	 8.142857142857142e+00	 9.428571428571427e+00	 1.000019609529422e+01
0	 8.142857142857141e+00	 9.571428571428568e+00	 1.000006450312072e+01
0	 8.142857142857139e+00	 9.714285714285710e+00	 1.000026567838063e+01
0	 8.142857142857141e+00	 9.857142857142854e+00	 1.000082245821568e+01
0	 8.142857142857141e+00	 1.000000000000000e+01	 1.000175767976767e+01
0	 8.285714285714285e+00	 8.571428571428573e+00	 1.000614538718231e+01
0	 8.285714285714283e+00	 8.714285714285715e+00	 1.000440388536388e+01
0	 8.285714285714285e+00	 8.857142857142858e+00	 1.000291813753400e+01
0	 8.285714285714285e+00	 9.000000000000000e+00	 1.000170271190200e+01
0	 8.285714285714283e+00	 9.142857142857142e+00	 1.000077217667722e+01
0	 8.285714285714283e+00	 9.285714285714285e+00	 1.000014110006899e+01
0	 8.285714285714283e+00	 9.428571428571425e+00	 9.999824050286618e+00
0	 8.285714285714283e+00	 9.571428571428569e+00	 9.999835595539434e+00
0	 8.285714285714285e+00	 9.714285714285712e+00	 1.000019030403679e+01
0	 8.285714285714283e+00	 9.857142857142854e+00	 1.000090274398802e+01
0	 8.285714285714283e+00	 1.000000000000000e+01	 1.000198748360242e+01
0	 8.428571428571427e+00	 8.571428571428573e+00	 1.000550954004568e+01
0	 8.428571428571425e+00	 8.714285714285715e+00	 1.000376778401516e+01
0	 8.428571428571423e+00	 8.857142857142858e+00	 1.000232727423098e+01
0	 8.428571428571427e+00	 9.000000000000002e+00	 1.000119071731422e+01
0	 8.428571428571425e+00	 9.142857142857142e+00	 1.000036081988591e+01
0	 8.428571428571423e+00	 9.285714285714283e+00	 9.999840288567160e+00
0	 8.428571428571425e+00	 9.428571428571429e+00	 9.999631829979025e+00
0	 8.428571428571425e+00	 9.571428571428569e+00	 9.999738150742598e+00
0	 8.428571428571427e+00	 9.714285714285714e+00	 1.000016195747894e+01
0	 8.428571428571425e+00	 9.857142857142854e+00	 1.000090595680907e+01
0	 8.428571428571425e+00	 1.000000000000000e+01	 1.000197285535417e+01
0	 8.571428571428573e+00	 8.571428571428571e+00	 1.000478096549971e+01
0	 8.571428571428573e+00	 8.714285714285715e+00	 1.000315912138543e+01
0	 8.571428571428573e+00	 8.857142857142858e+00	 1.000186231487209e+01
0	 8.571428571428571e+00	 9.000000000000000e+00	 1.000087779833666e+01
0	 8.571428571428575e+00	 9.142857142857144e+00	 1.000019282415611e+01
0	 8.571428571428573e+00	 9.285714285714286e+00	 9.999794644707411e+00
0	 8.571428571428575e+00	 9.428571428571429e+00	 9.999670512367519e+00
0	 8.571428571428573e+00	 9.571428571428571e+00	 9.999807679513413e+00
0	 8.571428571428573e+00	 9.714285714285712e+00	 1.000019339852205e+01
0	 8.571428571428573e+00	 9.857142857142854e+00	 1.000081492177044e+01
0	 8.571428571428573e+00	 1.000000000000000e+01	 1.000165950163552e+01
0	 8.571428571428573e+00	 0.000000000000000e+00	 1.001276424893316e+01
0	 8.571428571428571e+00	 1.428571428571429e-01	 1.000235378780575e+01
0	 8.571428571428571e+00	 2.857142857142858e-01	 9.993544346894915e+00
0	 8.571428571428571e+00	 4.285714285714288e-01	 9.986382181338529e+00
0	 8.571428571428573e+00	 5.714285714285715e-01	 9.980913546274504e+00
0	 8.571428571428573e+00	 7.142857142857143e-01	 9.977184696840727e+00
0	 8.571428571428571e+00	 8.571428571428574e-01	 9.975241888175113e+00
0	 8.571428571428573e+00	 1.000000000000000e+00	 9.975131375415557e+00
0	 8.571428571428571e+00	 1.142857142857143e+00	 9.976899413699964e+00
0	 8.571428571428575e+00	 1.285714285714286e+00	 9.980592258166222e+00
0	 8.571428571428575e+00	 1.428571428571429e+00	 9.986256163952248e+00
0	 8.714285714285715e+00	 0.000000000000000e+00	 1.000694036874827e+01
0	 8.714285714285714e+00	 1.428571428571430e-01	 9.996871751982296e+00
0	 8.714285714285717e+00	 2.857142857142858e-01	 9.988349157352264e+00
0	 8.714285714285717e+00	 4.285714285714288e-01	 9.981412597006656e+00
0	 8.714285714285714e+00	 5.714285714285714e-01	 9.976102083093952e+00
0	 8.714285714285715e+00	 7.142857142857143e-01	 9.972457627762591e+00
0	 8.714285714285719e+00	 8.571428571428575e-01	 9.970519243161055e+00
0	 8.714285714285717e+00	 1.000000000000000e+00	 9.970326941437799e+00
0	 8.714285714285719e+00	 1.142857142857143e+00	 9.971920734741287e+00
0	 8.714285714285712e+00	 1.285714285714286e+00	 9.975340635219986e+00
0	 8.714285714285717e+00	 1.428571428571429e+00	 9.980626655022359e+00
0	 8.857142857142858e+00	 0.000000000000000e+00	 9.995332694185585e+00
0	 8.857142857142858e+00	 1.428571428571429e-01	 9.987333156611598e+00
0	 8.857142857142858e+00	 2.857142857142858e-01	 9.980584220826143e+00
0	 8.857142857142861e+00	 4.285714285714287e-01	 9.975117949306526e+00
0	 8.857142857142859e+00	 5.714285714285715e-01	 9.970966404530065e+00
0	 8.857142857142858e+00	 7.142857142857144e-01	 9.968161648974069e+00
0	 8.857142857142859e+00	 8.571428571428575e-01	 9.966735745115852e+00
0	 8.857142857142856e+00	 1.000000000000000e+00	 9.966720755432730e+00
0	 8.857142857142861e+00	 1.142857142857144e+00	 9.968148742402015e+00
0	 8.857142857142858e+00	 1.285714285714286e+00	 9.971051768501020e+00
0	 8.857142857142859e+00	 1.428571428571429e+00	 9.975461896207069e+00
0	 9.000000000000000e+00	 0.000000000000000e+00	 9.979675692148398e+00
0	 9.000000000000002e+00	 1.428571428571429e-01	 9.974821293864782e+00
0	 9.000000000000000e+00	 2.857142857142857e-01	 9.970778762924986e+00
0	 8.999999999999998e+00	 4.285714285714287e-01	 9.967570505453450e+00
0	 8.999999999999998e+00	 5.714285714285714e-01	 9.965218927574620e+00
0	 9.000000000000000e+00	 7.142857142857143e-01	 9.963746435412947e+00
0	 9.000000000000002e+00	 8.571428571428575e-01	 9.963175435092875e+00
0	 9.000000000000000e+00	 1.000000000000000e+00	 9.963528332738845e+00
0	 9.000000000000005e+00	 1.142857142857144e+00	 9.964827534475322e+00
0	 9.000000000000000e+00	 1.285714285714286e+00	 9.967095446426729e+00
0	 9.000000000000002e+00	 1.428571428571429e+00	 9.970354474717531e+00
0	 9.142857142857142e+00	 0.000000000000000e+00	 9.961703829540026e+00
0	 9.142857142857142e+00	 1.428571428571429e-01	 9.960419455912943e+00
0	 9.142857142857146e+00	 2.857142857142859e-01	 9.959462009257228e+00
0	 9.142857142857142e+00	 4.285714285714286e-01	 9.958842532662768e+00
0	 9.142857142857146e+00	 5.714285714285716e-01	 9.958572069219411e+00
0	 9.142857142857142e+00	 7.142857142857143e-01	 9.958661662017025e+00
0	 9.142857142857144e+00	 8.571428571428574e-01	 9.959122354145475e+00
0	 9.142857142857141e+00	 1.000000000000000e+00	 9.959965188694630e+00
0	 9.142857142857142e+00	 1.142857142857143e+00	 9.961201208754355e+00
0	 9.142857142857144e+00	 1.285714285714286e+00	 9.962841457414513e+00
0	 9.142857142857142e+00	 1.428571428571429e+00	 9.964896977764958e+00
0	 9.285714285714285e+00	 0.000000000000000e+00	 9.943151573263787e+00
0	 9.285714285714283e+00	 1.428571428571429e-01	 9.945210934927161e+00
0	 9.285714285714286e+00	 2.857142857142858e-01	 9.947163185431322e+00
0	 9.285714285714285e+00	 4.285714285714288e-01	 9.949006298149808e+00
0	 9.285714285714286e+00	 5.714285714285716e-01	 9.950738246456211e+00
0	 9.285714285714285e+00	 7.142857142857144e-01	 9.952357003724089e+00
0	 9.285714285714285e+00	 8.571428571428574e-01	 9.953860543327014e+00
0	 9.285714285714281e+00	 1.000000000000000e+00	 9.955246838638544e+00
0	 9.285714285714286e+00	 1.142857142857143e+00	 9.956513863032267e+00
0	 9.285714285714283e+00	 1.285714285714286e+00	 9.957659589881748e+00
0	 9.285714285714283e+00	 1.428571428571428e+00	 9.958681992560534e+00
0	 9.428571428571427e+00	 0.000000000000000e+00	 9.925753390222987e+00
0	 9.428571428571427e+00	 1.428571428571429e-01	 9.930279023078551e+00
0	 9.428571428571427e+00	 2.857142857142858e-01	 9.934411517055679e+00
0	 9.428571428571429e+00	 4.285714285714288e-01	 9.938134069129919e+00
0	 9.428571428571427e+00	 5.714285714285715e-01	 9.941429876276814e+00
0	 9.428571428571431e+00	 7.142857142857145e-01	 9.944282135471941e+00
0	 9.428571428571427e+00	 8.571428571428575e-01	 9.946674043690848e+00
0	 9.428571428571427e+00	 1.000000000000000e+00	 9.948588797909100e+00
0	 9.428571428571427e+00	 1.142857142857143e+00	 9.950009595102243e+00
0	 9.428571428571429e+00	 1.285714285714286e+00	 9.950919632245835e+00
0	 9.428571428571427e+00	 1.428571428571429e+00	 9.951302106315435e+00
0	 9.571428571428569e+00	 0.000000000000000e+00	 9.911243747320942e+00
0	 9.571428571428569e+00	 1.428571428571429e-01	 9.916707012538208e+00
0	 9.571428571428569e+00	 2.857142857142858e-01	 9.921736229738753e+00
0	 9.571428571428569e+00	 4.285714285714287e-01	 9.926298112818412e+00
0	 9.571428571428568e+00	 5.714285714285715e-01	 9.930359375673001e+00
0	 9.571428571428568e+00	 7.142857142857144e-01	 9.933886732198371e+00
0	 9.571428571428569e+00	 8.571428571428574e-01	 9.936846896290346e+00
0	 9.571428571428569e+00	 1.000000000000000e+00	 9.939206581844747e+00
0	 9.571428571428569e+00	 1.142857142857143e+00	 9.940932502757406e+00
0	 9.571428571428569e+00	 1.285714285714286e+00	 9.941991372924171e+00
0	 9.571428571428571e+00	 1.428571428571429e+00	 9.942349906240846e+00
0	 9.714285714285712e+00	 0.000000000000000e+00	 9.901357111460976e+00
0	 9.714285714285712e+00	 1.428571428571429e-01	 9.905578195477220e+00
0	 9.714285714285712e+00	 2.857142857142858e-01	 9.909666549088962e+00
0	 9.714285714285712e+00	 4.285714285714287e-01	 9.913570696430615e+00
0	 9.714285714285710e+00	 5.714285714285715e-01	 9.917239161636546e+00
0	 9.714285714285712e+00	 7.142857142857144e-01	 9.920620468841166e+00
0	 9.714285714285714e+00	 8.571428571428574e-01	 9.923663142178849e+00
0	 9.714285714285714e+00	 1.000000000000000e+00	 9.926315705783974e+00
0	 9.714285714285714e+00	 1.142857142857143e+00	 9.928526683790947e+00
0	 9.714285714285712e+00	 1.285714285714286e+00	 9.930244600334138e+00
0	 9.714285714285712e+00	 1.428571428571429e+00	 9.931417979547959e+00
0	 9.857142857142852e+00	 0.000000000000000e+00	 9.897827949546404e+00
0	 9.857142857142854e+00	 1.428571428571429e-01	 9.897975864066671e+00
0	 9.857142857142856e+00	 2.857142857142858e-01	 9.898731700714768e+00
0	 9.857142857142852e+00	 4.285714285714287e-01	 9.900024087181876e+00
0	 9.857142857142854e+00	 5.714285714285715e-01	 9.901781651159247e+00
0	 9.857142857142854e+00	 7.142857142857144e-01	 9.903933020338116e+00
0	 9.857142857142856e+00	 8.571428571428575e-01	 9.906406822409709e+00
0	 9.857142857142854e+00	 1.000000000000000e+00	 9.909131685065265e+00
0	 9.857142857142856e+00	 1.142857142857143e+00	 9.912036235995997e+00
0	 9.857142857142854e+00	 1.285714285714286e+00	 9.915049102893144e+00
0	 9.857142857142854e+00	 1.428571428571429e+00	 9.918098913447956e+00
0	 1.000000000000000e+01	 0.000000000000000e+00	 9.902390728480530e+00
0	 1.000000000000000e+01	 1.428571428571429e-01	 9.894983310477699e+00
0	 1.000000000000000e+01	 2.857142857142858e-01	 9.889460910224571e+00
0	 1.000000000000000e+01	 4.285714285714287e-01	 9.885730552287518e+00
0	 1.000000000000000e+01	 5.714285714285714e-01	 9.883699261232893e+00
0	 1.000000000000000e+01	 7.142857142857144e-01	 9.883274061627034e+00
0	 1.000000000000000e+01	 8.571428571428573e-01	 9.884361978036310e+00
0	 1.000000000000000e+01	 1.000000000000000e+00	 9.886870035027094e+00
0	 1.000000000000000e+01	 1.142857142857143e+00	 9.890705257165724e+00
0	 1.000000000000000e+01	 1.285714285714286e+00	 9.895774669018587e+00
0	 1.000000000000000e+01	 1.428571428571429e+00	 9.901985295152013e+00
0	 8.571428571428575e+00	 1.428571428571429e+00	 9.986256163952248e+00
0	 8.571428571428573e+00	 1.571428571428572e+00	 9.992529176368663e+00
0	 8.571428571428573e+00	 1.714285714285715e+00	 9.998014870520709e+00
0	 8.571428571428573e+00	 1.857142857142857e+00	 1.000270779623825e+01
0	 8.571428571428573e+00	 2.000000000000000e+00	 1.000660250335111e+01
0	 8.571428571428571e+00	 2.142857142857143e+00	 1.000969354168916e+01
0	 8.571428571428573e+00	 2.285714285714286e+00	 1.001197546108223e+01
0	 8.571428571428573e+00	 2.428571428571429e+00	 1.001344281136017e+01
0	 8.571428571428575e+00	 2.571428571428573e+00	 1.001409014235283e+01
0	 8.571428571428571e+00	 2.714285714285715e+00	 1.001391200389007e+01
0	 8.571428571428575e+00	 2.857142857142857e+00	 1.001290294580171e+01
0	 8.714285714285717e+00	 1.428571428571429e+00	 9.980626655022359e+00
0	 8.714285714285712e+00	 1.571428571428571e+00	 9.986468572954214e+00
0	 8.714285714285717e+00	 1.714285714285715e+00	 9.991535528470532e+00
0	 8.714285714285719e+00	 1.857142857142858e+00	 9.995836574693611e+00
0	 8.714285714285715e+00	 2.000000000000000e+00	 9.999380764745720e+00
0	 8.714285714285714e+00	 2.142857142857144e+00	 1.000217715174916e+01
0	 8.714285714285715e+00	 2.285714285714286e+00	 1.000423478882617e+01
0	 8.714285714285715e+00	 2.428571428571429e+00	 1.000556272909908e+01
0	 8.714285714285717e+00	 2.571428571428572e+00	 1.000617002569014e+01
0	 8.714285714285717e+00	 2.714285714285715e+00	 1.000606573172164e+01
0	 8.714285714285715e+00	 2.857142857142858e+00	 1.000525890031588e+01
0	 8.857142857142859e+00	 1.428571428571429e+00	 9.975461896207069e+00
0	 8.857142857142861e+00	 1.571428571428572e+00	 9.980311239898880e+00
0	 8.857142857142859e+00	 1.714285714285714e+00	 9.984523853937159e+00
0	 8.857142857142859e+00	 1.857142857142858e+00	 9.988119710772080e+00
0	 8.857142857142859e+00	 2.000000000000000e+00	 9.991118782853841e+00
0	 8.857142857142856e+00	 2.142857142857143e+00	 9.993541042632630e+00
0	 8.857142857142858e+00	 2.285714285714287e+00	 9.995406462558638e+00
0	 8.857142857142859e+00	 2.428571428571429e+00	 9.996735015082063e+00
0	 8.857142857142859e+00	 2.571428571428573e+00	 9.997546672653105e+00
0	 8.857142857142856e+00	 2.714285714285715e+00	 9.997861407721931e+00
0	 8.857142857142861e+00	 2.857142857142859e+00	 9.997699192738764e+00
0	 9.000000000000002e+00	 1.428571428571429e+00	 9.970354474717531e+00
0	 8.999999999999998e+00	 1.571428571428572e+00	 9.973899163845473e+00
0	 9.000000000000002e+00	 1.714285714285715e+00	 9.977027326101080e+00
0	 9.000000000000002e+00	 1.857142857142858e+00	 9.979766269297906e+00
0	 9.000000000000002e+00	 2.000000000000001e+00	 9.982143301249550e+00
0	 9.000000000000002e+00	 2.142857142857144e+00	 9.984185729769598e+00
0	 9.000000000000000e+00	 2.285714285714286e+00	 9.985920862671616e+00
0	 9.000000000000004e+00	 2.428571428571429e+00	 9.987376007769202e+00
0	 9.000000000000000e+00	 2.571428571428572e+00	 9.988578472875929e+00
0	 9.000000000000002e+00	 2.714285714285715e+00	 9.989555565805361e+00
0	 9.000000000000000e+00	 2.857142857142857e+00	 9.990334594371102e+00
0	 9.142857142857142e+00	 1.428571428571429e+00	 9.964896977764958e+00
0	 9.142857142857144e+00	 1.571428571428572e+00	 9.967074331436772e+00
0	 9.142857142857144e+00	 1.714285714285715e+00	 9.969093424142754e+00
0	 9.142857142857141e+00	 1.857142857142857e+00	 9.970985315095330e+00
0	 9.142857142857142e+00	 2.000000000000000e+00	 9.972781063506940e+00
0	 9.142857142857144e+00	 2.142857142857144e+00	 9.974511728590045e+00
0	 9.142857142857146e+00	 2.285714285714287e+00	 9.976208369557099e+00
0	 9.142857142857144e+00	 2.428571428571429e+00	 9.977902045620535e+00
0	 9.142857142857142e+00	 2.571428571428573e+00	 9.979623815992799e+00
0	 9.142857142857144e+00	 2.714285714285715e+00	 9.981404739886333e+00
0	 9.142857142857142e+00	 2.857142857142858e+00	 9.983275876513595e+00
0	 9.285714285714283e+00	 1.428571428571428e+00	 9.958681992560534e+00
0	 9.285714285714286e+00	 1.571428571428572e+00	 9.959678729315590e+00
0	 9.285714285714288e+00	 1.714285714285715e+00	 9.960769627242671e+00
0	 9.285714285714285e+00	 1.857142857142858e+00	 9.961985912988570e+00
0	 9.285714285714286e+00	 2.000000000000001e+00	 9.963358813200077e+00
0	 9.285714285714285e+00	 2.142857142857144e+00	 9.964919554523979e+00
0	 9.285714285714285e+00	 2.285714285714286e+00	 9.966699363607052e+00
0	 9.285714285714285e+00	 2.428571428571429e+00	 9.968729467096111e+00
0	 9.285714285714286e+00	 2.571428571428573e+00	 9.971041091637913e+00
0	 9.285714285714283e+00	 2.714285714285715e+00	 9.973665463879271e+00
0	 9.285714285714285e+00	 2.857142857142857e+00	 9.976633810466961e+00
0	 9.428571428571427e+00	 1.428571428571429e+00	 9.951302106315435e+00
0	 9.428571428571427e+00	 1.571428571428572e+00	 9.951554344124697e+00
0	 9.428571428571427e+00	 1.714285714285715e+00	 9.952103414581309e+00
0	 9.428571428571429e+00	 1.857142857142858e+00	 9.952977127801894e+00
0	 9.428571428571427e+00	 2.000000000000000e+00	 9.954203293903042e+00
0	 9.428571428571429e+00	 2.142857142857144e+00	 9.955809723001359e+00
0	 9.428571428571429e+00	 2.285714285714286e+00	 9.957824225213480e+00
0	 9.428571428571427e+00	 2.428571428571430e+00	 9.960274610655988e+00
0	 9.428571428571427e+00	 2.571428571428572e+00	 9.963188689445486e+00
0	 9.428571428571427e+00	 2.714285714285715e+00	 9.966594271698598e+00
0	 9.428571428571427e+00	 2.857142857142857e+00	 9.970519167531917e+00
0	 9.571428571428571e+00	 1.428571428571429e+00	 9.942349906240846e+00
0	 9.571428571428573e+00	 1.571428571428572e+00	 9.942543162506897e+00
0	 9.571428571428569e+00	 1.714285714285714e+00	 9.943142265339146e+00
0	 9.571428571428569e+00	 1.857142857142858e+00	 9.944168024359524e+00
0	 9.571428571428571e+00	 2.000000000000000e+00	 9.945641249189915e+00
0	 9.571428571428569e+00	 2.142857142857143e+00	 9.947582749452222e+00
0	 9.571428571428571e+00	 2.285714285714286e+00	 9.950013334768354e+00
0	 9.571428571428569e+00	 2.428571428571429e+00	 9.952953814760203e+00
0	 9.571428571428569e+00	 2.571428571428573e+00	 9.956424999049702e+00
0	 9.571428571428571e+00	 2.714285714285715e+00	 9.960447697258711e+00
0	 9.571428571428571e+00	 2.857142857142858e+00	 9.965042719009176e+00
0	 9.714285714285712e+00	 1.428571428571429e+00	 9.931417979547959e+00
0	 9.714285714285714e+00	 1.571428571428572e+00	 9.932487171104981e+00
0	 9.714285714285712e+00	 1.714285714285714e+00	 9.933933658696674e+00
0	 9.714285714285714e+00	 1.857142857142858e+00	 9.935767667485703e+00
0	 9.714285714285710e+00	 2.000000000000000e+00	 9.937999422634764e+00
0	 9.714285714285714e+00	 2.142857142857144e+00	 9.940639149306520e+00
0	 9.714285714285710e+00	 2.285714285714286e+00	 9.943697072663657e+00
0	 9.714285714285712e+00	 2.428571428571429e+00	 9.947183417868839e+00
0	 9.714285714285714e+00	 2.571428571428572e+00	 9.951108410084746e+00
0	 9.714285714285712e+00	 2.714285714285715e+00	 9.955482274474074e+00
0	 9.714285714285714e+00	 2.857142857142857e+00	 9.960315236199468e+00
0	 9.857142857142854e+00	 1.428571428571429e+00	 9.918098913447956e+00
0	 9.857142857142854e+00	 1.571428571428572e+00	 9.921228356561738e+00
0	 9.857142857142854e+00	 1.714285714285715e+00	 9.924525073834356e+00
0	 9.857142857142854e+00	 1.857142857142858e+00	 9.927985122004673e+00
0	 9.857142857142854e+00	 2.000000000000001e+00	 9.931604557811671e+00
0	 9.857142857142852e+00	 2.142857142857143e+00	 9.935379437994268e+00
0	 9.857142857142854e+00	 2.285714285714286e+00	 9.939305819291388e+00
0	 9.857142857142856e+00	 2.428571428571429e+00	 9.943379758441921e+00
0	 9.857142857142854e+00	 2.571428571428573e+00	 9.947597312184847e+00
0	 9.857142857142856e+00	 2.714285714285715e+00	 9.951954537259057e+00
0	 9.857142857142856e+00	 2.857142857142858e+00	 9.956447490403493e+00
0	 1.000000000000000e+01	 1.428571428571429e+00	 9.901985295152013e+00
0	 1.000000000000000e+01	 1.571428571428572e+00	 9.908608705519981e+00
0	 1.000000000000000e+01	 1.714285714285714e+00	 9.914963989932653e+00
0	 1.000000000000000e+01	 1.857142857142858e+00	 9.921029452740690e+00
0	 1.000000000000000e+01	 2.000000000000001e+00	 9.926783398294743e+00
0	 1.000000000000000e+01	 2.142857142857144e+00	 9.932204130945461e+00
0	 1.000000000000000e+01	 2.285714285714286e+00	 9.937269955043497e+00
0	 1.000000000000000e+01	 2.428571428571430e+00	 9.941959174939525e+00
0	 1.000000000000000e+01	 2.571428571428572e+00	 9.946250094984158e+00
0	 1.000000000000000e+01	 2.714285714285715e+00	 9.950121019528110e+00
0	 1.000000000000000e+01	 2.857142857142857e+00	 9.953550252921964e+00
0	 8.571428571428575e+00	 2.857142857142857e+00	 1.001290294580171e+01
0	 8.571428571428573e+00	 3.000000000000000e+00	 1.001164424473351e+01
0	 8.571428571428573e+00	 3.142857142857143e+00	 1.001073518001361e+01
0	 8.571428571428575e+00	 3.285714285714287e+00	 1.001019730549550e+01
0	 8.571428571428571e+00	 3.428571428571429e+00	 1.001005217503265e+01
0	 8.571428571428573e+00	 3.571428571428572e+00	 1.001032134247853e+01
0	 8.571428571428571e+00	 3.714285714285715e+00	 1.001102636168662e+01
0	 8.571428571428569e+00	 3.857142857142857e+00	 1.001218878651038e+01
0	 8.571428571428569e+00	 3.999999999999999e+00	 1.001383017080328e+01
0	 8.571428571428571e+00	 4.142857142857143e+00	 1.001597206841882e+01
0	 8.571428571428573e+00	 4.285714285714286e+00	 1.001863603321045e+01
0	 8.714285714285715e+00	 2.857142857142858e+00	 1.000525890031588e+01
0	 8.714285714285712e+00	 3.000000000000000e+00	 1.000432564531695e+01
0	 8.714285714285719e+00	 3.142857142857143e+00	 1.000383297463543e+01
0	 8.714285714285717e+00	 3.285714285714286e+00	 1.000377628249321e+01
0	 8.714285714285715e+00	 3.428571428571428e+00	 1.000415096311221e+01
0	 8.714285714285714e+00	 3.571428571428573e+00	 1.000495241071434e+01
0	 8.714285714285717e+00	 3.714285714285714e+00	 1.000617601952152e+01
0	 8.714285714285717e+00	 3.857142857142857e+00	 1.000781718375564e+01
0	 8.714285714285717e+00	 4.000000000000000e+00	 1.000987129763862e+01
0	 8.714285714285712e+00	 4.142857142857141e+00	 1.001233375539237e+01
0	 8.714285714285717e+00	 4.285714285714286e+00	 1.001519995123879e+01
0	 8.857142857142861e+00	 2.857142857142859e+00	 9.997699192738764e+00
0	 8.857142857142859e+00	 3.000000000000002e+00	 9.997522554665885e+00
0	 8.857142857142859e+00	 3.142857142857143e+00	 9.997764796482965e+00
0	 8.857142857142859e+00	 3.285714285714286e+00	 9.998402054666295e+00
0	 8.857142857142861e+00	 3.428571428571430e+00	 9.999410465692137e+00
0	 8.857142857142859e+00	 3.571428571428572e+00	 1.000076616603678e+01
0	 8.857142857142859e+00	 3.714285714285715e+00	 1.000244529217649e+01
0	 8.857142857142858e+00	 3.857142857142857e+00	 1.000442398058754e+01
0	 8.857142857142859e+00	 4.000000000000000e+00	 1.000667836774619e+01
0	 8.857142857142859e+00	 4.142857142857145e+00	 1.000918459012875e+01
0	 8.857142857142859e+00	 4.285714285714287e+00	 1.001191878421147e+01
0	 9.000000000000000e+00	 2.857142857142857e+00	 9.990334594371102e+00
0	 9.000000000000002e+00	 3.000000000000000e+00	 9.991192920544492e+00
0	 9.000000000000002e+00	 3.142857142857143e+00	 9.992365554832205e+00
0	 9.000000000000002e+00	 3.285714285714286e+00	 9.993816277850813e+00
0	 8.999999999999998e+00	 3.428571428571430e+00	 9.995508870216881e+00
0	 9.000000000000002e+00	 3.571428571428572e+00	 9.997407112546963e+00
0	 9.000000000000000e+00	 3.714285714285716e+00	 9.999474785457622e+00
0	 9.000000000000004e+00	 3.857142857142858e+00	 1.000167566956545e+01
0	 9.000000000000002e+00	 4.000000000000000e+00	 1.000397354548699e+01
0	 8.999999999999998e+00	 4.142857142857143e+00	 1.000633219383881e+01
0	 9.000000000000002e+00	 4.285714285714286e+00	 1.000871539523749e+01
0	 9.142857142857142e+00	 2.857142857142858e+00	 9.983275876513595e+00
0	 9.142857142857144e+00	 3.000000000000000e+00	 9.985294690716987e+00
0	 9.142857142857142e+00	 3.142857142857143e+00	 9.987470158959139e+00
0	 9.142857142857142e+00	 3.285714285714286e+00	 9.989760607882845e+00
0	 9.142857142857144e+00	 3.428571428571430e+00	 9.992124364130875e+00
0	 9.142857142857142e+00	 3.571428571428572e+00	 9.994519754346015e+00
0	 9.142857142857144e+00	 3.714285714285715e+00	 9.996905105171061e+00
0	 9.142857142857142e+00	 3.857142857142857e+00	 9.999238743248778e+00
0	 9.142857142857141e+00	 4.000000000000000e+00	 1.000147899522197e+01
0	 9.142857142857144e+00	 4.142857142857144e+00	 1.000358418773340e+01
0	 9.142857142857141e+00	 4.285714285714286e+00	 1.000551264742587e+01
0	 9.285714285714285e+00	 2.857142857142857e+00	 9.976633810466961e+00
0	 9.285714285714285e+00	 3.000000000000001e+00	 9.979785812947561e+00
0	 9.285714285714286e+00	 3.142857142857144e+00	 9.982913518139741e+00
0	 9.285714285714285e+00	 3.285714285714286e+00	 9.985976700598449e+00
0	 9.285714285714285e+00	 3.428571428571429e+00	 9.988935134878584e+00
0	 9.285714285714285e+00	 3.571428571428573e+00	 9.991748595535089e+00
0	 9.285714285714285e+00	 3.714285714285715e+00	 9.994376857122887e+00
0	 9.285714285714285e+00	 3.857142857142858e+00	 9.996779694196920e+00
0	 9.285714285714286e+00	 4.000000000000001e+00	 9.998916881312097e+00
0	 9.285714285714283e+00	 4.142857142857143e+00	 1.000074819302336e+01
0	 9.285714285714286e+00	 4.285714285714287e+00	 1.000223340388563e+01
0	 9.428571428571427e+00	 2.857142857142857e+00	 9.970519167531917e+00
0	 9.428571428571429e+00	 3.000000000000001e+00	 9.974624235000428e+00
0	 9.428571428571431e+00	 3.142857142857144e+00	 9.978530541650031e+00
0	 9.428571428571427e+00	 3.285714285714286e+00	 9.982206211833699e+00
0	 9.428571428571427e+00	 3.428571428571428e+00	 9.985619369904462e+00
0	 9.428571428571431e+00	 3.571428571428572e+00	 9.988738140215309e+00
0	 9.428571428571429e+00	 3.714285714285714e+00	 9.991530647119236e+00
0	 9.428571428571427e+00	 3.857142857142859e+00	 9.993965014969252e+00
0	 9.428571428571429e+00	 4.000000000000002e+00	 9.996009368118344e+00
0	 9.428571428571427e+00	 4.142857142857144e+00	 9.997631830919534e+00
0	 9.428571428571427e+00	 4.285714285714286e+00	 9.998800527725805e+00
0	 9.571428571428571e+00	 2.857142857142858e+00	 9.965042719009176e+00
0	 9.571428571428573e+00	 3.000000000000000e+00	 9.969767904639786e+00
0	 9.571428571428571e+00	 3.142857142857143e+00	 9.974156138765938e+00
0	 9.571428571428569e+00	 3.285714285714286e+00	 9.978190797424672e+00
0	 9.571428571428571e+00	 3.428571428571428e+00	 9.981855256652961e+00
0	 9.571428571428568e+00	 3.571428571428572e+00	 9.985132892487796e+00
0	 9.571428571428569e+00	 3.714285714285715e+00	 9.988007080966206e+00
0	 9.571428571428569e+00	 3.857142857142858e+00	 9.990461198125166e+00
0	 9.571428571428569e+00	 4.000000000000001e+00	 9.992478620001675e+00
0	 9.571428571428569e+00	 4.142857142857144e+00	 9.994042722632766e+00
0	 9.571428571428569e+00	 4.285714285714286e+00	 9.995136882055391e+00
0	 9.714285714285714e+00	 2.857142857142857e+00	 9.960315236199468e+00
0	 9.714285714285710e+00	 3.000000000000000e+00	 9.965174769629822e+00
0	 9.714285714285712e+00	 3.142857142857143e+00	 9.969625218763499e+00
0	 9.714285714285712e+00	 3.285714285714286e+00	 9.973672113207428e+00
0	 9.714285714285712e+00	 3.428571428571429e+00	 9.977320982568523e+00
0	 9.714285714285712e+00	 3.571428571428573e+00	 9.980577356453709e+00
0	 9.714285714285712e+00	 3.714285714285715e+00	 9.983446764469907e+00
0	 9.714285714285712e+00	 3.857142857142858e+00	 9.985934736224058e+00
0	 9.714285714285712e+00	 4.000000000000000e+00	 9.988046801323062e+00
0	 9.714285714285712e+00	 4.142857142857144e+00	 9.989788489373892e+00
0	 9.714285714285712e+00	 4.285714285714286e+00	 9.991165329983426e+00
0	 9.857142857142856e+00	 2.857142857142858e+00	 9.956447490403493e+00
0	 9.857142857142854e+00	 3.000000000000001e+00	 9.960802777734745e+00
0	 9.857142857142856e+00	 3.142857142857144e+00	 9.964772690918686e+00
0	 9.857142857142854e+00	 3.285714285714286e+00	 9.968391815018025e+00
0	 9.857142857142854e+00	 3.428571428571429e+00	 9.971694735095593e+00
0	 9.857142857142852e+00	 3.571428571428572e+00	 9.974716036214131e+00
0	 9.857142857142854e+00	 3.714285714285715e+00	 9.977490303436465e+00
0	 9.857142857142856e+00	 3.857142857142859e+00	 9.980052121825317e+00
0	 9.857142857142854e+00	 4.000000000000001e+00	 9.982436076443499e+00
0	 9.857142857142856e+00	 4.142857142857143e+00	 9.984676752353765e+00
0	 9.857142857142854e+00	 4.285714285714286e+00	 9.986808734618918e+00
0	 1.000000000000000e+01	 2.857142857142857e+00	 9.953550252921964e+00
0	 1.000000000000000e+01	 3.000000000000001e+00	 9.956609876718781e+00
0	 1.000000000000000e+01	 3.142857142857143e+00	 9.959433464507457e+00
0	 1.000000000000000e+01	 3.285714285714286e+00	 9.962091558692567e+00
0	 1.000000000000000e+01	 3.428571428571429e+00	 9.964654701678644e+00
0	 1.000000000000000e+01	 3.571428571428572e+00	 9.967193435870257e+00
0	 1.000000000000000e+01	 3.714285714285715e+00	 9.969778303671973e+00
0	 1.000000000000000e+01	 3.857142857142858e+00	 9.972479847488334e+00
0	 1.000000000000000e+01	 4.000000000000001e+00	 9.975368609723891e+00
0	 1.000000000000000e+01	 4.142857142857143e+00	 9.978515132783238e+00
0	 1.000000000000000e+01	 4.285714285714286e+00	 9.981989959070891e+00
0	 8.571428571428573e+00	 4.285714285714286e+00	 1.001863603321045e+01
0	 8.571428571428573e+00	 4.428571428571429e+00	 1.002135088485197e+01
0	 8.571428571428573e+00	 4.571428571428572e+00	 1.002361989786162e+01
0	 8.571428571428575e+00	 4.714285714285715e+00	 1.002542630835956e+01
0	 8.571428571428573e+00	 4.857142857142858e+00	 1.002675335246590e+01
0	 8.571428571428573e+00	 5.000000000000001e+00	 1.002758426630081e+01
0	 8.571428571428571e+00	 5.142857142857142e+00	 1.002790228598439e+01
0	 8.571428571428573e+00	 5.285714285714284e+00	 1.002769064763681e+01
0	 8.571428571428573e+00	 5.428571428571428e+00	 1.002693258737818e+01
0	 8.571428571428571e+00	 5.571428571428569e+00	 1.002561134132866e+01
0	 8.571428571428573e+00	 5.714285714285715e+00	 1.002371014560838e+01
0	 8.714285714285717e+00	 4.285714285714286e+00	 1.001519995123879e+01
0	 8.714285714285712e+00	 4.428571428571427e+00	 1.001799691530691e+01
0	 8.714285714285715e+00	 4.571428571428571e+00	 1.002025991939636e+01
0	 8.714285714285719e+00	 4.714285714285715e+00	 1.002199672023509e+01
0	 8.714285714285715e+00	 4.857142857142856e+00	 1.002321507455098e+01
0	 8.714285714285712e+00	 4.999999999999999e+00	 1.002392273907197e+01
0	 8.714285714285717e+00	 5.142857142857141e+00	 1.002412747052594e+01
0	 8.714285714285719e+00	 5.285714285714286e+00	 1.002383702564082e+01
0	 8.714285714285715e+00	 5.428571428571426e+00	 1.002305916114452e+01
0	 8.714285714285712e+00	 5.571428571428568e+00	 1.002180163376495e+01
0	 8.714285714285715e+00	 5.714285714285714e+00	 1.002007220023003e+01
0	 8.857142857142859e+00	 4.285714285714287e+00	 1.001191878421147e+01
0	 8.857142857142859e+00	 4.428571428571431e+00	 1.001448281973593e+01
0	 8.857142857142859e+00	 4.571428571428570e+00	 1.001651157392901e+01
0	 8.857142857142858e+00	 4.714285714285713e+00	 1.001803069449487e+01
0	 8.857142857142859e+00	 4.857142857142858e+00	 1.001906582913775e+01
0	 8.857142857142858e+00	 4.999999999999999e+00	 1.001964262556183e+01
0	 8.857142857142856e+00	 5.142857142857141e+00	 1.001978673147131e+01
0	 8.857142857142856e+00	 5.285714285714284e+00	 1.001952379457037e+01
0	 8.857142857142859e+00	 5.428571428571427e+00	 1.001887946256324e+01
0	 8.857142857142859e+00	 5.571428571428569e+00	 1.001787938315411e+01
0	 8.857142857142859e+00	 5.714285714285715e+00	 1.001654920404716e+01
0	 9.000000000000002e+00	 4.285714285714286e+00	 1.000871539523749e+01
0	 8.999999999999998e+00	 4.428571428571429e+00	 1.001085041268478e+01
0	 9.000000000000002e+00	 4.571428571428572e+00	 1.001251326147073e+01
0	 9.000000000000002e+00	 4.714285714285715e+00	 1.001374085064436e+01
0	 8.999999999999998e+00	 4.857142857142858e+00	 1.001457008925467e+01
0	 9.000000000000004e+00	 5.000000000000000e+00	 1.001503788635063e+01
0	 9.000000000000000e+00	 5.142857142857142e+00	 1.001518115098126e+01
0	 9.000000000000002e+00	 5.285714285714285e+00	 1.001503679219556e+01
0	 9.000000000000000e+00	 5.428571428571427e+00	 1.001464171904252e+01
0	 9.000000000000002e+00	 5.571428571428569e+00	 1.001403284057113e+01
0	 9.000000000000002e+00	 5.714285714285714e+00	 1.001324706583041e+01
0	 9.142857142857141e+00	 4.285714285714286e+00	 1.000551264742587e+01
0	 9.142857142857144e+00	 4.428571428571427e+00	 1.000714150869917e+01
0	 9.142857142857142e+00	 4.571428571428570e+00	 1.000840338203277e+01
0	 9.142857142857144e+00	 4.714285714285715e+00	 1.000933980818901e+01
0	 9.142857142857146e+00	 4.857142857142859e+00	 1.000999232793019e+01
0	 9.142857142857142e+00	 5.000000000000000e+00	 1.001040248201861e+01
0	 9.142857142857142e+00	 5.142857142857143e+00	 1.001061181121660e+01
0	 9.142857142857146e+00	 5.285714285714286e+00	 1.001066185628646e+01
0	 9.142857142857139e+00	 5.428571428571426e+00	 1.001059415799052e+01
0	 9.142857142857142e+00	 5.571428571428568e+00	 1.001045025709106e+01
0	 9.142857142857141e+00	 5.714285714285714e+00	 1.001027169435043e+01
0	 9.285714285714286e+00	 4.285714285714287e+00	 1.000223340388563e+01
0	 9.285714285714285e+00	 4.428571428571429e+00	 1.000339792232482e+01
0	 9.285714285714288e+00	 4.571428571428572e+00	 1.000432033562632e+01
0	 9.285714285714285e+00	 4.714285714285715e+00	 1.000504018663425e+01
0	 9.285714285714286e+00	 4.857142857142857e+00	 1.000559701819277e+01
0	 9.285714285714281e+00	 5.000000000000001e+00	 1.000603037314601e+01
0	 9.285714285714286e+00	 5.142857142857143e+00	 1.000637979433810e+01
0	 9.285714285714285e+00	 5.285714285714284e+00	 1.000668482461319e+01
0	 9.285714285714285e+00	 5.428571428571427e+00	 1.000698500681543e+01
0	 9.285714285714285e+00	 5.571428571428570e+00	 1.000731988378893e+01
0	 9.285714285714286e+00	 5.714285714285714e+00	 1.000772899837786e+01
0	 9.428571428571427e+00	 4.285714285714286e+00	 9.998800527725805e+00
0	 9.428571428571429e+00	 4.428571428571429e+00	 9.999661468107485e+00
0	 9.428571428571427e+00	 4.571428571428571e+00	 1.000040252226257e+01
0	 9.428571428571425e+00	 4.714285714285714e+00	 1.000105460548555e+01
0	 9.428571428571429e+00	 4.857142857142858e+00	 1.000164863307089e+01
0	 9.428571428571427e+00	 5.000000000000001e+00	 1.000221552031305e+01
0	 9.428571428571431e+00	 5.142857142857142e+00	 1.000278618250655e+01
0	 9.428571428571429e+00	 5.285714285714285e+00	 1.000339153494585e+01
0	 9.428571428571427e+00	 5.428571428571428e+00	 1.000406249292543e+01
0	 9.428571428571423e+00	 5.571428571428569e+00	 1.000482997173977e+01
0	 9.428571428571429e+00	 5.714285714285715e+00	 1.000572488668335e+01
0	 9.571428571428569e+00	 4.285714285714286e+00	 9.995136882055391e+00
0	 9.571428571428569e+00	 4.428571428571429e+00	 9.995973960592879e+00
0	 9.571428571428569e+00	 4.571428571428571e+00	 9.996788341952742e+00
0	 9.571428571428568e+00	 4.714285714285714e+00	 9.997595684248333e+00
0	 9.571428571428571e+00	 4.857142857142858e+00	 9.998411645592974e+00
0	 9.571428571428568e+00	 5.000000000000000e+00	 9.999251884099987e+00
0	 9.571428571428569e+00	 5.142857142857143e+00	 1.000013205788273e+01
0	 9.571428571428568e+00	 5.285714285714285e+00	 1.000106782505452e+01
0	 9.571428571428569e+00	 5.428571428571427e+00	 1.000207484372869e+01
0	 9.571428571428569e+00	 5.571428571428570e+00	 1.000316877201859e+01
0	 9.571428571428568e+00	 5.714285714285714e+00	 1.000436526803752e+01
0	 9.714285714285712e+00	 4.285714285714286e+00	 9.991165329983426e+00
0	 9.714285714285710e+00	 4.428571428571429e+00	 9.992377214326732e+00
0	 9.714285714285714e+00	 4.571428571428572e+00	 9.993616194708048e+00
0	 9.714285714285710e+00	 4.714285714285714e+00	 9.994876042428066e+00
0	 9.714285714285712e+00	 4.857142857142858e+00	 9.996150528787496e+00
0	 9.714285714285712e+00	 5.000000000000001e+00	 9.997433425087049e+00
0	 9.714285714285712e+00	 5.142857142857142e+00	 9.998718502627421e+00
0	 9.714285714285710e+00	 5.285714285714284e+00	 9.999999532709296e+00
0	 9.714285714285712e+00	 5.428571428571428e+00	 1.000127028663339e+01
0	 9.714285714285712e+00	 5.571428571428570e+00	 1.000252453570041e+01
0	 9.714285714285714e+00	 5.714285714285714e+00	 1.000375605121106e+01
0	 9.857142857142854e+00	 4.285714285714286e+00	 9.986808734618918e+00
0	 9.857142857142854e+00	 4.428571428571429e+00	 9.988913043854751e+00
0	 9.857142857142854e+00	 4.571428571428571e+00	 9.991024480539654e+00
0	 9.857142857142852e+00	 4.714285714285714e+00	 9.993108299530174e+00
0	 9.857142857142854e+00	 4.857142857142858e+00	 9.995129755682930e+00
0	 9.857142857142854e+00	 5.000000000000000e+00	 9.997054103854463e+00
0	 9.857142857142854e+00	 5.142857142857142e+00	 9.998846598901400e+00
0	 9.857142857142852e+00	 5.285714285714285e+00	 1.000047249568030e+01
0	 9.857142857142852e+00	 5.428571428571427e+00	 1.000189704904773e+01
0	 9.857142857142854e+00	 5.571428571428569e+00	 1.000308551386028e+01
0	 9.857142857142854e+00	 5.714285714285714e+00	 1.000400314497456e+01
0	 1.000000000000000e+01	 4.285714285714286e+00	 9.981989959070891e+00
0	 1.000000000000000e+01	 4.428571428571429e+00	 9.985623263722713e+00
0	 1.000000000000000e+01	 4.571428571428572e+00	 9.989151599458790e+00
0	 1.000000000000000e+01	 4.714285714285715e+00	 9.992505075060141e+00
0	 1.000000000000000e+01	 4.857142857142858e+00	 9.995613799307733e+00
0	 1.000000000000000e+01	 5.000000000000000e+00	 9.998407880982501e+00
0	 1.000000000000000e+01	 5.142857142857143e+00	 1.000081742886546e+01
0	 1.000000000000000e+01	 5.285714285714284e+00	 1.000277255173760e+01
0	 1.000000000000000e+01	 5.428571428571427e+00	 1.000420335837985e+01
0	 1.000000000000000e+01	 5.571428571428570e+00	 1.000503995757322e+01
0	 1.000000000000000e+01	 5.714285714285714e+00	 1.000521245809869e+01
0	 8.571428571428573e+00	 5.714285714285715e+00	 1.002371014560838e+01
0	 8.571428571428573e+00	 5.857142857142858e+00	 1.002161963839920e+01
0	 8.571428571428571e+00	 5.999999999999998e+00	 1.001974352666030e+01
0	 8.571428571428573e+00	 6.142857142857141e+00	 1.001808464967774e+01
0	 8.571428571428573e+00	 6.285714285714284e+00	 1.001664584673761e+01
0	 8.571428571428571e+00	 6.428571428571425e+00	 1.001542995712596e+01
0	 8.571428571428573e+00	 6.571428571428568e+00	 1.001443982012888e+01
0	 8.571428571428571e+00	 6.714285714285709e+00	 1.001367827503243e+01
0	 8.571428571428571e+00	 6.857142857142854e+00	 1.001314816112272e+01
0	 8.571428571428573e+00	 6.999999999999994e+00	 1.001285231768578e+01
0	 8.571428571428573e+00	 7.142857142857144e+00	 1.001279358400771e+01
0	 8.714285714285715e+00	 5.714285714285714e+00	 1.002007220023003e+01
0	 8.714285714285712e+00	 5.857142857142855e+00	 1.001824582925121e+01
0	 8.714285714285715e+00	 5.999999999999998e+00	 1.001668248950643e+01
0	 8.714285714285717e+00	 6.142857142857141e+00	 1.001536743767336e+01
0	 8.714285714285715e+00	 6.285714285714282e+00	 1.001428593042961e+01
0	 8.714285714285714e+00	 6.428571428571427e+00	 1.001342322445282e+01
0	 8.714285714285715e+00	 6.571428571428567e+00	 1.001276457642065e+01
0	 8.714285714285719e+00	 6.714285714285712e+00	 1.001229524301073e+01
0	 8.714285714285717e+00	 6.857142857142852e+00	 1.001200048090070e+01
0	 8.714285714285712e+00	 6.999999999999996e+00	 1.001186554676817e+01
0	 8.714285714285714e+00	 7.142857142857144e+00	 1.001187569729083e+01
0	 8.857142857142859e+00	 5.714285714285715e+00	 1.001654920404716e+01
0	 8.857142857142859e+00	 5.857142857142859e+00	 1.001519648687212e+01
0	 8.857142857142859e+00	 5.999999999999998e+00	 1.001409353951733e+01
0	 8.857142857142859e+00	 6.142857142857142e+00	 1.001321312907503e+01
0	 8.857142857142858e+00	 6.285714285714283e+00	 1.001252802263739e+01
0	 8.857142857142859e+00	 6.428571428571425e+00	 1.001201098729661e+01
0	 8.857142857142858e+00	 6.571428571428568e+00	 1.001163479014491e+01
0	 8.857142857142854e+00	 6.714285714285708e+00	 1.001137219827447e+01
0	 8.857142857142858e+00	 6.857142857142852e+00	 1.001119597877748e+01
0	 8.857142857142858e+00	 6.999999999999995e+00	 1.001107889874617e+01
0	 8.857142857142859e+00	 7.142857142857142e+00	 1.001099372527269e+01
0	 9.000000000000002e+00	 5.714285714285714e+00	 1.001324706583041e+01
0	 8.999999999999998e+00	 5.857142857142857e+00	 1.001249180026278e+01
0	 9.000000000000002e+00	 5.999999999999999e+00	 1.001192675696453e+01
0	 8.999999999999998e+00	 6.142857142857142e+00	 1.001151730646539e+01
0	 9.000000000000000e+00	 6.285714285714284e+00	 1.001122881929514e+01
0	 8.999999999999998e+00	 6.428571428571425e+00	 1.001102666598351e+01
0	 9.000000000000000e+00	 6.571428571428569e+00	 1.001087621706025e+01
0	 9.000000000000000e+00	 6.714285714285711e+00	 1.001074284305514e+01
0	 9.000000000000002e+00	 6.857142857142851e+00	 1.001059191449789e+01
0	 9.000000000000004e+00	 6.999999999999997e+00	 1.001038880191828e+01
0	 9.000000000000002e+00	 7.142857142857144e+00	 1.001009887584606e+01
0	 9.142857142857141e+00	 5.714285714285714e+00	 1.001027169435043e+01
0	 9.142857142857141e+00	 5.857142857142855e+00	 1.001015195842410e+01
0	 9.142857142857144e+00	 5.999999999999999e+00	 1.001013222211955e+01
0	 9.142857142857141e+00	 6.142857142857141e+00	 1.001017555242710e+01
0	 9.142857142857142e+00	 6.285714285714283e+00	 1.001024501633703e+01
0	 9.142857142857144e+00	 6.428571428571428e+00	 1.001030368083966e+01
0	 9.142857142857141e+00	 6.571428571428567e+00	 1.001031461292527e+01
0	 9.142857142857141e+00	 6.714285714285710e+00	 1.001024087958418e+01
0	 9.142857142857141e+00	 6.857142857142853e+00	 1.001004554780667e+01
0	 9.142857142857141e+00	 6.999999999999994e+00	 1.000969168458306e+01
0	 9.142857142857141e+00	 7.142857142857142e+00	 1.000914235690363e+01
0	 9.285714285714286e+00	 5.714285714285714e+00	 1.000772899837786e+01
0	 9.285714285714283e+00	 5.857142857142857e+00	 1.000819715035691e+01
0	 9.285714285714285e+00	 6.000000000000001e+00	 1.000866001525393e+01
0	 9.285714285714285e+00	 6.142857142857141e+00	 1.000908344954275e+01
0	 9.285714285714285e+00	 6.285714285714282e+00	 1.000943330969724e+01
0	 9.285714285714281e+00	 6.428571428571426e+00	 1.000967545219123e+01
0	 9.285714285714285e+00	 6.571428571428569e+00	 1.000977573349855e+01
0	 9.285714285714283e+00	 6.714285714285709e+00	 1.000970001009306e+01
0	 9.285714285714286e+00	 6.857142857142853e+00	 1.000941413844859e+01
0	 9.285714285714283e+00	 6.999999999999996e+00	 1.000888397503900e+01
0	 9.285714285714283e+00	 7.142857142857141e+00	 1.000807537633812e+01
0	 9.428571428571429e+00	 5.714285714285715e+00	 1.000572488668335e+01
0	 9.428571428571429e+00	 5.857142857142857e+00	 1.000664756506209e+01
0	 9.428571428571425e+00	 5.999999999999999e+00	 1.000746021663918e+01
0	 9.428571428571425e+00	 6.142857142857141e+00	 1.000813658039501e+01
0	 9.428571428571427e+00	 6.285714285714284e+00	 1.000865039530995e+01
0	 9.428571428571425e+00	 6.428571428571425e+00	 1.000897540036438e+01
0	 9.428571428571423e+00	 6.571428571428569e+00	 1.000908533453869e+01
0	 9.428571428571425e+00	 6.714285714285709e+00	 1.000895393681325e+01
0	 9.428571428571427e+00	 6.857142857142854e+00	 1.000855494616845e+01
0	 9.428571428571425e+00	 6.999999999999995e+00	 1.000786210158467e+01
0	 9.428571428571425e+00	 7.142857142857142e+00	 1.000684914204227e+01
0	 9.571428571428568e+00	 5.714285714285714e+00	 1.000436526803752e+01
0	 9.571428571428571e+00	 5.857142857142858e+00	 1.000552339154050e+01
0	 9.571428571428568e+00	 5.999999999999999e+00	 1.000648290654684e+01
0	 9.571428571428569e+00	 6.142857142857141e+00	 1.000723052756648e+01
0	 9.571428571428569e+00	 6.285714285714283e+00	 1.000775296910932e+01
0	 9.571428571428568e+00	 6.428571428571424e+00	 1.000803694568528e+01
0	 9.571428571428568e+00	 6.571428571428569e+00	 1.000806917180428e+01
0	 9.571428571428568e+00	 6.714285714285711e+00	 1.000783636197622e+01
0	 9.571428571428568e+00	 6.857142857142854e+00	 1.000732523071100e+01
0	 9.571428571428568e+00	 6.999999999999996e+00	 1.000652249251856e+01
0	 9.571428571428568e+00	 7.142857142857143e+00	 1.000541486190880e+01
0	 9.714285714285714e+00	 5.714285714285714e+00	 1.000375605121106e+01
0	 9.714285714285714e+00	 5.857142857142857e+00	 1.000484481879300e+01
0	 9.714285714285710e+00	 5.999999999999999e+00	 1.000567816524843e+01
0	 9.714285714285712e+00	 6.142857142857142e+00	 1.000626087363981e+01
0	 9.714285714285712e+00	 6.285714285714284e+00	 1.000659772702956e+01
0	 9.714285714285712e+00	 6.428571428571426e+00	 1.000669350848010e+01
0	 9.714285714285712e+00	 6.571428571428568e+00	 1.000655300105391e+01
0	 9.714285714285710e+00	 6.714285714285710e+00	 1.000618098781341e+01
0	 9.714285714285710e+00	 6.857142857142852e+00	 1.000558225182104e+01
0	 9.714285714285710e+00	 6.999999999999996e+00	 1.000476157613924e+01
0	 9.714285714285712e+00	 7.142857142857145e+00	 1.000372374383044e+01
0	 9.857142857142854e+00	 5.714285714285714e+00	 1.000400314497456e+01
0	 9.857142857142852e+00	 5.857142857142857e+00	 1.000463203582046e+01
0	 9.857142857142854e+00	 5.999999999999999e+00	 1.000499607301551e+01
0	 9.857142857142854e+00	 6.142857142857141e+00	 1.000512320119762e+01
0	 9.857142857142852e+00	 6.285714285714283e+00	 1.000504136500480e+01
0	 9.857142857142852e+00	 6.428571428571427e+00	 1.000477850907500e+01
0	 9.857142857142851e+00	 6.571428571428568e+00	 1.000436257804620e+01
0	 9.857142857142852e+00	 6.714285714285711e+00	 1.000382151655630e+01
0	 9.857142857142852e+00	 6.857142857142853e+00	 1.000318326924331e+01
0	 9.857142857142854e+00	 6.999999999999995e+00	 1.000247578074520e+01
0	 9.857142857142852e+00	 7.142857142857143e+00	 1.000172699569991e+01
0	 1.000000000000000e+01	 5.714285714285714e+00	 1.000521245809869e+01
0	 1.000000000000000e+01	 5.857142857142858e+00	 1.000490523162375e+01
0	 1.000000000000000e+01	 5.999999999999999e+00	 1.000438671011953e+01
0	 1.000000000000000e+01	 6.142857142857141e+00	 1.000371309282255e+01
0	 1.000000000000000e+01	 6.285714285714284e+00	 1.000294057896926e+01
0	 1.000000000000000e+01	 6.428571428571426e+00	 1.000212536779615e+01
0	 1.000000000000000e+01	 6.571428571428569e+00	 1.000132365853968e+01
0	 1.000000000000000e+01	 6.714285714285712e+00	 1.000059165043636e+01
0	 1.000000000000000e+01	 6.857142857142853e+00	 9.999985542722627e+00
0	 1.000000000000000e+01	 6.999999999999996e+00	 9.999561534634983e+00
0	 1.000000000000000e+01	 7.142857142857143e+00	 9.999375825409910e+00
0	 8.571428571428573e+00	 7.142857142857144e+00	 1.001279358400771e+01
0	 8.571428571428571e+00	 7.285714285714286e+00	 1.001277942756085e+01
0	 8.571428571428571e+00	 7.428571428571428e+00	 1.001261041012853e+01
0	 8.571428571428571e+00	 7.571428571428569e+00	 1.001227901246330e+01
0	 8.571428571428573e+00	 7.714285714285713e+00	 1.001177771531771e+01
0	 8.571428571428569e+00	 7.857142857142854e+00	 1.001109899944431e+01
0	 8.571428571428571e+00	 7.999999999999998e+00	 1.001023534559566e+01
0	 8.571428571428571e+00	 8.142857142857141e+00	 1.000917923452434e+01
0	 8.571428571428573e+00	 8.285714285714283e+00	 1.000792314698286e+01
0	 8.571428571428575e+00	 8.428571428571425e+00	 1.000645956372379e+01
0	 8.571428571428573e+00	 8.571428571428571e+00	 1.000478096549971e+01
0	 8.714285714285714e+00	 7.142857142857144e+00	 1.001187569729082e+01
0	 8.714285714285715e+00	 7.285714285714285e+00	 1.001185767027870e+01
0	 8.714285714285715e+00	 7.428571428571428e+00	 1.001165231597447e+01
0	 8.714285714285717e+00	 7.571428571428570e+00	 1.001126605970472e+01
0	 8.714285714285715e+00	 7.714285714285713e+00	 1.001070532679602e+01
0	 8.714285714285714e+00	 7.857142857142855e+00	 1.000997654257493e+01
0	 8.714285714285715e+00	 7.999999999999997e+00	 1.000908613236804e+01
0	 8.714285714285719e+00	 8.142857142857142e+00	 1.000804052150192e+01
0	 8.714285714285715e+00	 8.285714285714279e+00	 1.000684613530312e+01
0	 8.714285714285714e+00	 8.428571428571425e+00	 1.000550939909824e+01
0	 8.714285714285715e+00	 8.571428571428573e+00	 1.000403673821384e+01
0	 8.857142857142859e+00	 7.142857142857142e+00	 1.001099372527269e+01
0	 8.857142857142852e+00	 7.285714285714284e+00	 1.001082261858950e+01
0	 8.857142857142859e+00	 7.428571428571430e+00	 1.001047666231864e+01
0	 8.857142857142856e+00	 7.571428571428570e+00	 1.000997200863668e+01
0	 8.857142857142856e+00	 7.714285714285713e+00	 1.000932480972026e+01
0	 8.857142857142858e+00	 7.857142857142855e+00	 1.000855121774599e+01
0	 8.857142857142856e+00	 7.999999999999996e+00	 1.000766738489046e+01
0	 8.857142857142859e+00	 8.142857142857144e+00	 1.000668946333030e+01
0	 8.857142857142859e+00	 8.285714285714281e+00	 1.000563360524211e+01
0	 8.857142857142859e+00	 8.428571428571423e+00	 1.000451596280251e+01
0	 8.857142857142856e+00	 8.571428571428569e+00	 1.000335268818809e+01
0	 9.000000000000002e+00	 7.142857142857144e+00	 1.001009887584606e+01
0	 8.999999999999998e+00	 7.285714285714286e+00	 1.000968221246412e+01
0	 8.999999999999998e+00	 7.428571428571427e+00	 1.000913641513734e+01
0	 9.000000000000000e+00	 7.571428571428570e+00	 1.000848314516838e+01
0	 8.999999999999996e+00	 7.714285714285711e+00	 1.000774406385989e+01
0	 9.000000000000000e+00	 7.857142857142857e+00	 1.000694083251455e+01
0	 9.000000000000002e+00	 7.999999999999999e+00	 1.000609511243503e+01
0	 9.000000000000000e+00	 8.142857142857141e+00	 1.000522856492398e+01
0	 9.000000000000004e+00	 8.285714285714286e+00	 1.000436285128410e+01
0	 9.000000000000002e+00	 8.428571428571427e+00	 1.000351963281803e+01
0	 9.000000000000000e+00	 8.571428571428573e+00	 1.000272057082847e+01
0	 9.142857142857141e+00	 7.142857142857142e+00	 1.000914235690363e+01
0	 9.142857142857142e+00	 7.285714285714285e+00	 1.000844439187337e+01
0	 9.142857142857141e+00	 7.428571428571427e+00	 1.000768454040691e+01
0	 9.142857142857141e+00	 7.571428571428569e+00	 1.000688575520897e+01
0	 9.142857142857142e+00	 7.714285714285712e+00	 1.000607098898432e+01
0	 9.142857142857141e+00	 7.857142857142855e+00	 1.000526319443768e+01
0	 9.142857142857141e+00	 7.999999999999996e+00	 1.000448532427382e+01
0	 9.142857142857141e+00	 8.142857142857141e+00	 1.000376033119748e+01
0	 9.142857142857142e+00	 8.285714285714278e+00	 1.000311116791338e+01
0	 9.142857142857142e+00	 8.428571428571423e+00	 1.000256078712629e+01
0	 9.142857142857142e+00	 8.571428571428573e+00	 1.000213214154094e+01
0	 9.285714285714283e+00	 7.142857142857141e+00	 1.000807537633812e+01
0	 9.285714285714285e+00	 7.285714285714286e+00	 1.000711709678807e+01
0	 9.285714285714285e+00	 7.428571428571428e+00	 1.000617400410364e+01
0	 9.285714285714283e+00	 7.571428571428572e+00	 1.000526612466768e+01
0	 9.285714285714286e+00	 7.714285714285715e+00	 1.000441348486301e+01
0	 9.285714285714288e+00	 7.857142857142857e+00	 1.000363611107249e+01
0	 9.285714285714283e+00	 7.999999999999996e+00	 1.000295402967897e+01
0	 9.285714285714285e+00	 8.142857142857141e+00	 1.000238726706525e+01
0	 9.285714285714285e+00	 8.285714285714283e+00	 1.000195584961422e+01
0	 9.285714285714285e+00	 8.428571428571425e+00	 1.000167980370868e+01
0	 9.285714285714286e+00	 8.571428571428573e+00	 1.000157915573151e+01
0	 9.428571428571425e+00	 7.142857142857142e+00	 1.000684914204227e+01
0	 9.428571428571427e+00	 7.285714285714285e+00	 1.000570826717907e+01
0	 9.428571428571427e+00	 7.428571428571429e+00	 1.000465777220390e+01
0	 9.428571428571427e+00	 7.571428571428570e+00	 1.000371053945369e+01
0	 9.428571428571427e+00	 7.714285714285714e+00	 1.000287945126543e+01
0	 9.428571428571425e+00	 7.857142857142855e+00	 1.000217738997605e+01
0	 9.428571428571429e+00	 7.999999999999998e+00	 1.000161723792254e+01
0	 9.428571428571429e+00	 8.142857142857142e+00	 1.000121187744184e+01
0	 9.428571428571429e+00	 8.285714285714283e+00	 1.000097419087090e+01
0	 9.428571428571425e+00	 8.428571428571423e+00	 1.000091706054669e+01
0	 9.428571428571429e+00	 8.571428571428575e+00	 1.000105336880617e+01
0	 9.571428571428568e+00	 7.142857142857143e+00	 1.000541486190880e+01
0	 9.571428571428569e+00	 7.285714285714285e+00	 1.000422584301718e+01
0	 9.571428571428568e+00	 7.428571428571428e+00	 1.000318881068394e+01
0	 9.571428571428569e+00	 7.571428571428571e+00	 1.000230528547617e+01
0	 9.571428571428569e+00	 7.714285714285712e+00	 1.000157678796096e+01
0	 9.571428571428568e+00	 7.857142857142855e+00	 1.000100483870543e+01
0	 9.571428571428569e+00	 7.999999999999997e+00	 1.000059095827665e+01
0	 9.571428571428569e+00	 8.142857142857141e+00	 1.000033666724171e+01
0	 9.571428571428569e+00	 8.285714285714283e+00	 1.000024348616771e+01
0	 9.571428571428569e+00	 8.428571428571425e+00	 1.000031293562174e+01
0	 9.571428571428571e+00	 8.571428571428573e+00	 1.000054653617090e+01
0	 9.714285714285712e+00	 7.142857142857145e+00	 1.000372374383044e+01
0	 9.714285714285712e+00	 7.285714285714286e+00	 1.000267776427325e+01
0	 9.714285714285710e+00	 7.428571428571426e+00	 1.000182008552012e+01
0	 9.714285714285710e+00	 7.571428571428570e+00	 1.000113664864433e+01
0	 9.714285714285712e+00	 7.714285714285714e+00	 1.000061339471912e+01
0	 9.714285714285712e+00	 7.857142857142855e+00	 1.000023626481771e+01
0	 9.714285714285710e+00	 7.999999999999997e+00	 9.999991200013376e+00
0	 9.714285714285714e+00	 8.142857142857142e+00	 9.999864141379362e+00
0	 9.714285714285710e+00	 8.285714285714283e+00	 9.999841029988902e+00
0	 9.714285714285712e+00	 8.428571428571423e+00	 9.999907806915274e+00
0	 9.714285714285710e+00	 8.571428571428571e+00	 1.000005041323171e+01
0	 9.857142857142852e+00	 7.142857142857143e+00	 1.000172699569991e+01
0	 9.857142857142854e+00	 7.285714285714286e+00	 1.000107197091810e+01
0	 9.857142857142852e+00	 7.428571428571427e+00	 1.000060456268878e+01
0	 9.857142857142856e+00	 7.571428571428570e+00	 1.000029091486737e+01
0	 9.857142857142854e+00	 7.714285714285713e+00	 1.000009717130929e+01
0	 9.857142857142854e+00	 7.857142857142856e+00	 9.999989475869972e+00
0	 9.857142857142854e+00	 7.999999999999998e+00	 9.999933972404822e+00
0	 9.857142857142852e+00	 8.142857142857142e+00	 9.999896804769303e+00
0	 9.857142857142852e+00	 8.285714285714281e+00	 9.999844116818789e+00
0	 9.857142857142854e+00	 8.428571428571425e+00	 9.999742052408751e+00
0	 9.857142857142856e+00	 8.571428571428573e+00	 9.999556755394579e+00
0	 1.000000000000000e+01	 7.142857142857143e+00	 9.999375825409908e+00
0	 1.000000000000000e+01	 7.285714285714286e+00	 9.999416402922547e+00
0	 1.000000000000000e+01	 7.428571428571429e+00	 9.999595208166198e+00
0	 9.999999999999998e+00	 7.571428571428570e+00	 9.999854370054459e+00
0	 1.000000000000000e+01	 7.714285714285714e+00	 1.000013601750095e+01
0	 9.999999999999998e+00	 7.857142857142854e+00	 1.000038227941930e+01
0	 1.000000000000000e+01	 7.999999999999997e+00	 1.000053528472313e+01
0	 1.000000000000000e+01	 8.142857142857141e+00	 1.000053716232605e+01
0	 1.000000000000000e+01	 8.285714285714283e+00	 1.000033004114164e+01
0	 1.000000000000000e+01	 8.428571428571425e+00	 9.999856050083602e+00
0	 1.000000000000000e+01	 8.571428571428573e+00	 9.999057318065491e+00
0	 8.571428571428573e+00	 8.571428571428571e+00	 1.000478096549971e+01
0	 8.571428571428573e+00	 8.714285714285715e+00	 1.000315912138543e+01
0	 8.571428571428573e+00	 8.857142857142858e+00	 1.000186231487209e+01
0	 8.571428571428571e+00	 9.000000000000000e+00	 1.000087779833667e+01
0	 8.571428571428575e+00	 9.142857142857144e+00	 1.000019282415611e+01
0	 8.571428571428573e+00	 9.285714285714286e+00	 9.999794644707411e+00
0	 8.571428571428575e+00	 9.428571428571429e+00	 9.999670512367519e+00
0	 8.571428571428573e+00	 9.571428571428571e+00	 9.999807679513413e+00
0	 8.571428571428573e+00	 9.714285714285712e+00	 1.000019339852205e+01
0	 8.571428571428573e+00	 9.857142857142854e+00	 1.000081492177044e+01
0	 8.571428571428573e+00	 1.000000000000000e+01	 1.000165950163552e+01
0	 8.714285714285715e+00	 8.571428571428573e+00	 1.000403673821384e+01
0	 8.714285714285714e+00	 8.714285714285714e+00	 1.000266265812700e+01
0	 8.714285714285717e+00	 8.857142857142859e+00	 1.000159926239841e+01
0	 8.714285714285717e+00	 9.000000000000002e+00	 1.000081937348006e+01
0	 8.714285714285717e+00	 9.142857142857142e+00	 1.000029581382397e+01
0	 8.714285714285715e+00	 9.285714285714283e+00	 1.000000140588208e+01
0	 8.714285714285715e+00	 9.428571428571429e+00	 9.999908972106436e+00
0	 8.714285714285717e+00	 9.571428571428569e+00	 9.999991334949001e+00
0	 8.714285714285719e+00	 9.714285714285712e+00	 1.000022131686179e+01
0	 8.714285714285715e+00	 9.857142857142852e+00	 1.000057174029675e+01
0	 8.714285714285715e+00	 9.999999999999998e+00	 1.000101542770592e+01
0	 8.857142857142856e+00	 8.571428571428569e+00	 1.000335268818809e+01
0	 8.857142857142861e+00	 8.714285714285717e+00	 1.000231205415402e+01
0	 8.857142857142858e+00	 8.857142857142858e+00	 1.000152758788512e+01
0	 8.857142857142856e+00	 8.999999999999998e+00	 1.000096332320247e+01
0	 8.857142857142858e+00	 9.142857142857141e+00	 1.000058329392720e+01
0	 8.857142857142858e+00	 9.285714285714285e+00	 1.000035153388042e+01
0	 8.857142857142856e+00	 9.428571428571425e+00	 1.000023207688325e+01
0	 8.857142857142856e+00	 9.571428571428566e+00	 1.000018895675681e+01
0	 8.857142857142859e+00	 9.714285714285712e+00	 1.000018620732220e+01
0	 8.857142857142859e+00	 9.857142857142858e+00	 1.000018786240047e+01
0	 8.857142857142858e+00	 1.000000000000000e+01	 1.000015795581288e+01
0	 9.000000000000000e+00	 8.571428571428573e+00	 1.000272057082847e+01
0	 9.000000000000000e+00	 8.714285714285714e+00	 1.000205181608880e+01
0	 9.000000000000002e+00	 8.857142857142858e+00	 1.000155900282690e+01
0	 9.000000000000002e+00	 9.000000000000002e+00	 1.000120301752711e+01
0	 9.000000000000000e+00	 9.142857142857142e+00	 1.000094474667375e+01
0	 9.000000000000000e+00	 9.285714285714285e+00	 1.000074507675114e+01
0	 9.000000000000004e+00	 9.428571428571429e+00	 1.000056489424362e+01
0	 9.000000000000002e+00	 9.571428571428571e+00	 1.000036508563549e+01
0	 9.000000000000002e+00	 9.714285714285714e+00	 1.000010653741113e+01
0	 9.000000000000002e+00	 9.857142857142852e+00	 9.999750136054807e+00
0	 9.000000000000000e+00	 1.000000000000000e+01	 9.999256768050889e+00
0	 9.142857142857142e+00	 8.571428571428573e+00	 1.000213214154094e+01
0	 9.142857142857144e+00	 8.714285714285717e+00	 1.000182645055362e+01
0	 9.142857142857141e+00	 8.857142857142858e+00	 1.000160521871851e+01
0	 9.142857142857141e+00	 9.000000000000000e+00	 1.000143182647729e+01
0	 9.142857142857144e+00	 9.142857142857144e+00	 1.000126965427155e+01
0	 9.142857142857142e+00	 9.285714285714285e+00	 1.000108208254296e+01
0	 9.142857142857142e+00	 9.428571428571427e+00	 1.000083249173317e+01
0	 9.142857142857144e+00	 9.571428571428571e+00	 1.000048426228381e+01
0	 9.142857142857144e+00	 9.714285714285714e+00	 1.000000077463652e+01
0	 9.142857142857142e+00	 9.857142857142852e+00	 9.999345409232873e+00
0	 9.142857142857142e+00	 1.000000000000000e+01	 9.998481546514661e+00
0	 9.285714285714286e+00	 8.571428571428573e+00	 1.000157915573152e+01
0	 9.285714285714285e+00	 8.714285714285715e+00	 1.000158046417077e+01
0	 9.285714285714285e+00	 8.857142857142859e+00	 1.000157794705466e+01
0	 9.285714285714283e+00	 8.999999999999998e+00	 1.000154312007624e+01
0	 9.285714285714283e+00	 9.142857142857141e+00	 1.000144749892854e+01
0	 9.285714285714285e+00	 9.285714285714283e+00	 1.000126259930463e+01
0	 9.285714285714285e+00	 9.428571428571427e+00	 1.000095993689757e+01
0	 9.285714285714283e+00	 9.571428571428569e+00	 1.000051102740040e+01
0	 9.285714285714285e+00	 9.714285714285712e+00	 9.999887386506169e+00
0	 9.285714285714281e+00	 9.857142857142852e+00	 9.999060529907867e+00
0	 9.285714285714285e+00	 1.000000000000000e+01	 9.998001973298642e+00
0	 9.428571428571429e+00	 8.571428571428575e+00	 1.000105336880618e+01
0	 9.428571428571429e+00	 8.714285714285717e+00	 1.000125836356253e+01
0	 9.428571428571427e+00	 8.857142857142856e+00	 1.000138889933002e+01
0	 9.428571428571429e+00	 9.000000000000002e+00	 1.000143026834722e+01
0	 9.428571428571427e+00	 9.142857142857142e+00	 1.000136776285266e+01
0	 9.428571428571429e+00	 9.285714285714285e+00	 1.000118667508490e+01
0	 9.428571428571425e+00	 9.428571428571427e+00	 1.000087229728250e+01
0	 9.428571428571427e+00	 9.571428571428571e+00	 1.000040992168400e+01
0	 9.428571428571427e+00	 9.714285714285712e+00	 9.999784840527965e+00
0	 9.428571428571427e+00	 9.857142857142856e+00	 9.998982346052960e+00
0	 9.428571428571427e+00	 1.000000000000000e+01	 9.997987730497496e+00
0	 9.571428571428571e+00	 8.571428571428573e+00	 1.000054653617090e+01
0	 9.571428571428569e+00	 8.714285714285717e+00	 1.000080465535121e+01
0	 9.571428571428568e+00	 8.857142857142858e+00	 1.000094978703937e+01
0	 9.571428571428569e+00	 9.000000000000000e+00	 1.000098664131352e+01
0	 9.571428571428571e+00	 9.142857142857144e+00	 1.000091992825183e+01
0	 9.571428571428568e+00	 9.285714285714285e+00	 1.000075435793246e+01
0	 9.571428571428568e+00	 9.428571428571425e+00	 1.000049464043357e+01
0	 9.571428571428569e+00	 9.571428571428569e+00	 1.000014548583331e+01
0	 9.571428571428568e+00	 9.714285714285710e+00	 9.999711604209814e+00
0	 9.571428571428569e+00	 9.857142857142856e+00	 9.999197705641283e+00
0	 9.571428571428569e+00	 1.000000000000000e+01	 9.998608500205806e+00
0	 9.714285714285710e+00	 8.571428571428571e+00	 1.000005041323171e+01
0	 9.714285714285712e+00	 8.714285714285715e+00	 1.000016384615910e+01
0	 9.714285714285714e+00	 8.857142857142859e+00	 1.000017232167737e+01
0	 9.714285714285710e+00	 8.999999999999998e+00	 1.000010560899838e+01
0	 9.714285714285712e+00	 9.142857142857144e+00	 9.999993477334000e+00
0	 9.714285714285710e+00	 9.285714285714283e+00	 9.999865695896077e+00
0	 9.714285714285710e+00	 9.428571428571425e+00	 9.999752033896460e+00
0	 9.714285714285710e+00	 9.571428571428568e+00	 9.999682260546992e+00
0	 9.714285714285710e+00	 9.714285714285710e+00	 9.999686145059572e+00
0	 9.714285714285712e+00	 9.857142857142854e+00	 9.999793456645973e+00
0	 9.714285714285712e+00	 1.000000000000000e+01	 1.000003396451813e+01
0	 9.857142857142856e+00	 8.571428571428573e+00	 9.999556755394581e+00
0	 9.857142857142852e+00	 8.714285714285715e+00	 9.999280442608478e+00
0	 9.857142857142856e+00	 8.857142857142859e+00	 9.998968214738760e+00
0	 9.857142857142854e+00	 9.000000000000000e+00	 9.998680541425083e+00
0	 9.857142857142852e+00	 9.142857142857141e+00	 9.998477892307104e+00
0	 9.857142857142852e+00	 9.285714285714283e+00	 9.998420737024476e+00
0	 9.857142857142854e+00	 9.428571428571425e+00	 9.998569545216810e+00
0	 9.857142857142851e+00	 9.571428571428568e+00	 9.998984786523817e+00
0	 9.857142857142854e+00	 9.714285714285712e+00	 9.999726930585080e+00
0	 9.857142857142854e+00	 9.857142857142854e+00	 1.000085644704028e+01
0	 9.857142857142852e+00	 1.000000000000000e+01	 1.000243380552908e+01
0	 1.000000000000000e+01	 8.571428571428573e+00	 9.999057318065493e+00
0	 9.999999999999998e+00	 8.714285714285715e+00	 9.998098951321630e+00
0	 1.000000000000000e+01	 8.857142857142858e+00	 9.997249177718249e+00
0	 1.000000000000000e+01	 9.000000000000000e+00	 9.996604808616883e+00
0	 1.000000000000000e+01	 9.142857142857142e+00	 9.996262655379089e+00
0	 1.000000000000000e+01	 9.285714285714285e+00	 9.996319529366383e+00
0	 1.000000000000000e+01	 9.428571428571427e+00	 9.996872241940300e+00
0	 1.000000000000000e+01	 9.571428571428569e+00	 9.998017604462413e+00
0	 1.000000000000000e+01	 9.714285714285712e+00	 9.999852428294252e+00
0	 1.000000000000000e+01	 9.857142857142852e+00	 1.000247352479731e+01
0	 1.000000000000000e+01	 1.000000000000000e+01	 1.000597770533319e+01
1	 1.000000000000000e+00	 0.000000000000000e+00	 2.414245794047343e+01
1	 9.997942209309062e-01	 2.028585204427908e-02	 2.351040818112406e+01
1	 9.991701818187483e-01	 4.073018247306789e-02	 2.284187480135545e+01
1	 9.981180433968323e-01	 6.132186759777695e-02	 2.213625054482096e+01
1	 9.966282799005903e-01	 8.204920293574097e-02	 2.139327763480699e+01
1	 9.946917154369740e-01	 1.028999088485992e-01	 2.061306857105668e+01
1	 9.922995607885995e-01	 1.238611386139841e-01	 1.979612558086168e+01
1	 9.894434504817674e-01	 1.449194890231616e-01	 1.894335846559633e+01
1	 9.861154799348201e-01	 1.660610135851266e-01	 1.805610058130991e+01
1	 9.823082424914590e-01	 1.872712384039294e-01	 1.713612269256277e+01
1	 9.780148661327976e-01	 2.085351807807159e-01	 1.618564444265548e+01
1	 1.014285714285714e+00	 0.000000000000000e+00	 2.322063043698432e+01
1	 1.014076995515633e+00	 2.057564993062592e-02	 2.259004359310070e+01
1	 1.013444041559016e+00	 4.131204222268315e-02	 2.192638672061117e+01
1	 1.012376872588215e+00	 6.219789427774518e-02	 2.122913560732696e+01
1	 1.010865826756313e+00	 8.322133440625157e-02	 2.049809228557233e+01
1	 1.008901597086074e+00	 1.043699075464363e-01	 1.973340428822860e+01
1	 1.006475268799865e+00	 1.256305834513268e-01	 1.893558263412934e+01
1	 1.003578356917221e+00	 1.469897674377783e-01	 1.810551830120694e+01
1	 1.000202843933889e+00	 1.684333137791999e-01	 1.724449694355538e+01
1	 9.963412173841937e-01	 1.899465418096997e-01	 1.635421160926957e+01
1	 9.919865070775523e-01	 2.115142547918691e-01	 1.543677321979703e+01
1	 1.028571428571428e+00	 0.000000000000000e+00	 2.235124401126746e+01
1	 1.028359770100361e+00	 2.086544781697277e-02	 2.172249230146519e+01
1	 1.027717901299284e+00	 4.189390197229840e-02	 2.106384716184345e+01
1	 1.026635701779599e+00	 6.307392095771344e-02	 2.037486528461660e+01
1	 1.025103373612036e+00	 8.439346587676218e-02	 1.965540761338086e+01
1	 1.023111478735173e+00	 1.058399062442734e-01	 1.890565712267284e+01
1	 1.020650976811131e+00	 1.274000282886694e-01	 1.812613539729155e+01
1	 1.017713263352675e+00	 1.490600458523948e-01	 1.731771778622671e+01
1	 1.014290207932958e+00	 1.708056139732731e-01	 1.648164690411982e+01
1	 1.010374192276929e+00	 1.926218452154702e-01	 1.561954425401527e+01
1	 1.005958148022306e+00	 2.144933288030221e-01	 1.473341974896367e+01
1	 1.042857142857143e+00	 0.000000000000000e+00	 2.152948312105221e+01
1	 1.042642544685088e+00	 2.115524570331961e-02	 2.090292737276115e+01
1	 1.041991761039552e+00	 4.247576172191367e-02	 2.024943015799194e+01
1	 1.040894530970982e+00	 6.394994763768166e-02	 1.956862702942239e+01
1	 1.039340920467758e+00	 8.556559734727270e-02	 1.886043699893121e+01
1	 1.037321360384273e+00	 1.073099049421106e-01	 1.812507890280494e+01
1	 1.034826684822397e+00	 1.291694731260121e-01	 1.736308663257378e+01
1	 1.031848169788129e+00	 1.511303242670114e-01	 1.657532302199990e+01
1	 1.028377571932027e+00	 1.731779141673463e-01	 1.576299217914440e+01
1	 1.024407167169664e+00	 1.952971486212406e-01	 1.492765005341028e+01
1	 1.019929788967060e+00	 2.174724028141751e-01	 1.407121303121434e+01
1	 1.057142857142857e+00	 0.000000000000000e+00	 2.075079252365010e+01
1	 1.056925319269815e+00	 2.144504358966645e-02	 2.012678278885422e+01
1	 1.056265620779820e+00	 4.305762147152892e-02	 1.947857060508072e+01
1	 1.055153360162366e+00	 6.482597431764991e-02	 1.880586843216700e+01
1	 1.053578467323481e+00	 8.673772881778331e-02	 1.810865255910040e+01
1	 1.051531242033373e+00	 1.087799036399477e-01	 1.738717811496396e+01
1	 1.049002392833662e+00	 1.309389179633546e-01	 1.664199300694605e+01
1	 1.045983076223583e+00	 1.532006026816280e-01	 1.587395059087926e+01
1	 1.042464935931095e+00	 1.755502143614196e-01	 1.508422087849237e+01
1	 1.038440142062399e+00	 1.979724520270111e-01	 1.427430008668061e+01
1	 1.033901429911815e+00	 2.204514768253283e-01	 1.344601833782103e+01
1	 1.071428571428571e+00	 0.000000000000000e+00	 2.001085992264946e+01
1	 1.071208093854542e+00	 2.173484147601330e-02	 1.938973605257713e+01
1	 1.070539480520088e+00	 4.363948122114417e-02	 1.874694687134588e+01
1	 1.069412189353749e+00	 6.570200099761814e-02	 1.808227987845047e+01
1	 1.067816014179204e+00	 8.790986028829388e-02	 1.739576789786534e+01
1	 1.065741123682472e+00	 1.102499023377849e-01	 1.668770279288420e+01
1	 1.063178100844928e+00	 1.327083628006973e-01	 1.595864816514003e+01
1	 1.060117982659036e+00	 1.552708810962446e-01	 1.520945085749201e+01
1	 1.056552299930164e+00	 1.779225145554928e-01	 1.444125107950095e+01
1	 1.052473116955134e+00	 2.006477554327814e-01	 1.365549097549362e+01
1	 1.047873070856569e+00	 2.234305508364814e-01	 1.285392145892124e+01
1	 1.085714285714286e+00	 0.000000000000000e+00	 1.930559998460756e+01
1	 1.085490868439270e+00	 2.202463936236015e-02	 1.868769216661357e+01
1	 1.084813340260356e+00	 4.422134097075943e-02	 1.805046477932682e+01
1	 1.083671018545132e+00	 6.657802767758639e-02	 1.739377857568347e+01
1	 1.082053561034927e+00	 8.908199175880446e-02	 1.671772221899366e+01
1	 1.079951005331572e+00	 1.117199010356220e-01	 1.602262475799815e+01
1	 1.077353808856194e+00	 1.344778076380399e-01	 1.530906713900676e+01
1	 1.074252889094491e+00	 1.573411595108612e-01	 1.457789258832710e+01
1	 1.070639663929233e+00	 1.802948147495661e-01	 1.383021569754224e+01
1	 1.066506091847869e+00	 2.033230588385519e-01	 1.306743004563938e+01
1	 1.061844711801323e+00	 2.264096248476345e-01	 1.229121419569782e+01
1	 1.100000000000000e+00	 0.000000000000000e+00	 1.863113960119567e+01
1	 1.099773643023997e+00	 2.231443724870699e-02	 1.801676886078057e+01
1	 1.099087200000623e+00	 4.480320072037468e-02	 1.738524283610641e+01
1	 1.097929847736515e+00	 6.745405435755464e-02	 1.673649382439814e+01
1	 1.096291107890649e+00	 9.025412322931507e-02	 1.607066567670660e+01
1	 1.094160886980672e+00	 1.131898997334591e-01	 1.538812508776781e+01
1	 1.091529516867459e+00	 1.362472524753825e-01	 1.468947197172966e+01
1	 1.088387795529944e+00	 1.594114379254778e-01	 1.397554876979616e+01
1	 1.084727027928302e+00	 1.826671149436393e-01	 1.324744853550149e+01
1	 1.080539066740605e+00	 2.059983622443223e-01	 1.250652164494489e+01
1	 1.075816352746078e+00	 2.293886988587875e-01	 1.175438098303847e+01
1	 1.114285714285715e+00	 0.000000000000000e+00	 1.798380428502492e+01
1	 1.114056417608724e+00	 2.260423513505383e-02	 1.737328295567370e+01
1	 1.113361059740891e+00	 4.538506046998994e-02	 1.674759859968633e+01
1	 1.112188676927899e+00	 6.833008103752287e-02	 1.610675342253523e+01
1	 1.110528654746372e+00	 9.142625469982567e-02	 1.545094585321408e+01
1	 1.108370768629771e+00	 1.146598984312962e-01	 1.478058070183658e+01
1	 1.105705224878725e+00	 1.380166973127252e-01	 1.409627844786744e+01
1	 1.102522701965398e+00	 1.614817163400944e-01	 1.339888351721276e+01
1	 1.098814391927371e+00	 1.850394151377125e-01	 1.268947140637240e+01
1	 1.094572041633340e+00	 2.086736656500927e-01	 1.196935451365622e+01
1	 1.089787993690832e+00	 2.323677728699406e-01	 1.124008654122123e+01
1	 1.128571428571429e+00	 0.000000000000000e+00	 1.736010559870084e+01
1	 1.128339192193451e+00	 2.289403302140067e-02	 1.675373776198498e+01
1	 1.127634919481159e+00	 4.596692021960519e-02	 1.613403608082769e+01
1	 1.126447506119282e+00	 6.920610771749112e-02	 1.550107110231697e+01
1	 1.124766201602095e+00	 9.259838617033624e-02	 1.485509526327231e+01
1	 1.122580650278870e+00	 1.161298971291334e-01	 1.419655196695451e+01
1	 1.119880932889991e+00	 1.397861421500678e-01	 1.352608383124157e+01
1	 1.116657608400852e+00	 1.635519947547110e-01	 1.284453997802650e+01
1	 1.112901755926440e+00	 1.874117153317858e-01	 1.215298223388315e+01
1	 1.108605016526075e+00	 2.113489690558632e-01	 1.145269011403236e+01
1	 1.103759634635586e+00	 2.353468468810937e-01	 1.074516446544677e+01
1	 1.142857142857143e+00	 0.000000000000000e+00	 1.675672952669871e+01
1	 1.142621966778179e+00	 2.318383090774752e-02	 1.615481142487187e+01
1	 1.141908779221426e+00	 4.654877996922045e-02	 1.554123408975350e+01
1	 1.140706335310665e+00	 7.008213439745935e-02	 1.491613490935450e+01
1	 1.139003748457817e+00	 9.377051764084682e-02	 1.427981979589971e+01
1	 1.136790531927970e+00	 1.175998958269705e-01	 1.363277123153423e+01
1	 1.134056640901256e+00	 1.415555869874104e-01	 1.297565552248250e+01
1	 1.130792514836306e+00	 1.656222731693276e-01	 1.230932914231451e+01
1	 1.126989119925508e+00	 1.897840155258590e-01	 1.163484404557552e+01
1	 1.122637991418810e+00	 2.140242724616336e-01	 1.095345183521929e+01
1	 1.117731275580340e+00	 2.383259208922468e-01	 1.026660667115573e+01
1	 9.780148661327976e-01	 2.085351807807159e-01	 1.618564444265548e+01
1	 9.732290496522831e-01	 2.298373705751832e-01	 1.520304780717981e+01
1	 9.679450980693772e-01	 2.511618743429501e-01	 1.418628378942705e+01
1	 9.621579570512621e-01	 2.724923222458603e-01	 1.313754858704668e+01
1	 9.558632461069742e-01	 2.938119377115879e-01	 1.205941705113739e+01
1	 9.490572903155012e-01	 3.151035697972945e-01	 1.095484602333318e+01
1	 9.417371503486140e-01	 3.363497281896808e-01	 9.827175102991692e+00
1	 9.339006505507231e-01	 3.575326207508009e-01	 8.680124702529472e+00
1	 9.255464048419428e-01	 3.786341934957203e-01	 7.517791270510177e+00
1	 9.166738402169075e-01	 3.996361728647543e-01	 6.344639586537380e+00
1	 9.072832176207859e-01	 4.205201101299123e-01	 5.165492059126422e+00
1	 9.919865070775523e-01	 2.115142547918691e-01	 1.543677321979703e+01
1	 9.871323217901729e-01	 2.331207615834001e-01	 1.449013208401075e+01
1	 9.817728851846540e-01	 2.547499011192779e-01	 1.351185184705528e+01
1	 9.759030707234233e-01	 2.763850697065156e-01	 1.250403951909622e+01
1	 9.695184353370739e-01	 2.980092511074677e-01	 1.146914917003525e+01
1	 9.626152516057227e-01	 3.196050493658273e-01	 1.040998452941609e+01
1	 9.551905382107371e-01	 3.411547243066764e-01	 9.329699216476628e+00
1	 9.472420884157332e-01	 3.626402296186693e-01	 8.231794473506890e+00
1	 9.387684963396846e-01	 3.840432534028021e-01	 7.120114295709324e+00
1	 9.297691807914344e-01	 4.053452610485364e-01	 5.998837873412779e+00
1	 9.202444064439402e-01	 4.265275402746255e-01	 4.872469287560794e+00
1	 1.005958148022306e+00	 2.144933288030221e-01	 1.473341974896367e+01
1	 1.001035593928062e+00	 2.364041525916170e-01	 1.382080129348538e+01
1	 9.956006722999308e-01	 2.583379278956057e-01	 1.287887062015040e+01
1	 9.896481843955840e-01	 2.802778171671708e-01	 1.190965012736657e+01
1	 9.831736245671735e-01	 3.022065645033475e-01	 1.091547961167450e+01
1	 9.761732128959438e-01	 3.241065289343600e-01	 9.899018177734654e+00
1	 9.686439260728597e-01	 3.459597204236716e-01	 8.863243966739775e+00
1	 9.605835262807438e-01	 3.677478384865382e-01	 7.811451590619011e+00
1	 9.519905878374270e-01	 3.894523133098838e-01	 6.747247178006170e+00
1	 9.428645213659619e-01	 4.110543492323185e-01	 5.674540958906880e+00
1	 9.332055952670942e-01	 4.325349704193383e-01	 4.597537338136849e+00
1	 1.019929788967060e+00	 2.174724028141751e-01	 1.407121303121434e+01
1	 1.014938866065952e+00	 2.396875435998339e-01	 1.319079715067149e+01
1	 1.009428459415208e+00	 2.619259546719336e-01	 1.228320913748631e+01
1	 1.003393298067745e+00	 2.841705646278258e-01	 1.135039131470058e+01
1	 9.968288137972734e-01	 3.064038778992275e-01	 1.039457561238922e+01
1	 9.897311741861657e-01	 3.286080085028928e-01	 9.418284833289576e+00
1	 9.820973139349831e-01	 3.507647165406672e-01	 8.424331913679259e+00
1	 9.739249641457540e-01	 3.728554473544068e-01	 7.415817080197548e+00
1	 9.652126793351687e-01	 3.948613732169654e-01	 6.396122820561567e+00
1	 9.559598619404892e-01	 4.167634374161008e-01	 5.368906605503522e+00
1	 9.461667840902481e-01	 4.385424005640514e-01	 4.338091320575867e+00
1	 1.033901429911815e+00	 2.204514768253283e-01	 1.344601833782103e+01
1	 1.028842138203842e+00	 2.429709346080507e-01	 1.259609154820073e+01
1	 1.023256246530484e+00	 2.655139814482615e-01	 1.172095972357876e+01
1	 1.017138411739905e+00	 2.880633120884808e-01	 1.082248961081429e+01
1	 1.010484003027373e+00	 3.106011912951073e-01	 9.902811584927818e+00
1	 1.003289135476387e+00	 3.331094880714255e-01	 8.964320314324571e+00
1	 9.955507017971060e-01	 3.555697126576626e-01	 8.009673586928496e+00
1	 9.872664020107647e-01	 3.779630562222753e-01	 7.041789210394304e+00
1	 9.784347708329104e-01	 4.002704331240472e-01	 6.063839915554613e+00
1	 9.690552025150165e-01	 4.224725255998831e-01	 5.079246210146821e+00
1	 9.591279729134023e-01	 4.445498307087645e-01	 4.091667149478758e+00
1	 1.047873070856569e+00	 2.234305508364814e-01	 1.285392145892124e+01
1	 1.042745410341732e+00	 2.462543256162677e-01	 1.203287121109781e+01
1	 1.037084033645761e+00	 2.691020082245894e-01	 1.118842311230283e+01
1	 1.030883525412067e+00	 2.919560595491361e-01	 1.032237279717232e+01
1	 1.024139192257473e+00	 3.147985046909870e-01	 9.436755306692174e+00
1	 1.016847096766608e+00	 3.376109676399583e-01	 8.533845195443764e+00
1	 1.009004089659229e+00	 3.603747087746580e-01	 7.616154954540495e+00
1	 1.000607839875775e+00	 3.830706650901438e-01	 6.686431675059531e+00
1	 9.916568623306528e-01	 4.056794930311289e-01	 5.747651891581611e+00
1	 9.821505430895439e-01	 4.281816137836654e-01	 4.803014561943913e+00
1	 9.720891617365564e-01	 4.505572608534776e-01	 3.855932157334439e+00
1	 1.061844711801323e+00	 2.264096248476345e-01	 1.229121419569782e+01
1	 1.056648682479622e+00	 2.495377166244846e-01	 1.149752356307033e+01
1	 1.050911820761038e+00	 2.726900350009171e-01	 1.068209473575053e+01
1	 1.044628639084228e+00	 2.958488070097914e-01	 9.846656666741051e+00
1	 1.037794381487572e+00	 3.189958180868669e-01	 8.993155198378746e+00
1	 1.030405058056830e+00	 3.421124472084912e-01	 8.123752652587955e+00
1	 1.022457477521352e+00	 3.651797048916534e-01	 7.240825880986399e+00
1	 1.013949277740785e+00	 3.881782739580125e-01	 6.346962710472424e+00
1	 1.004878953828395e+00	 4.110885529382107e-01	 5.444956733628445e+00
1	 9.952458836640706e-01	 4.338907019674473e-01	 4.537800408469937e+00
1	 9.850503505597105e-01	 4.565646909981905e-01	 3.628676448606100e+00
1	 1.075816352746078e+00	 2.293886988587875e-01	 1.175438098303847e+01
1	 1.070551954617511e+00	 2.528211076327014e-01	 1.098662369412677e+01
1	 1.064739607876315e+00	 2.762780617772450e-01	 1.019865208148966e+01
1	 1.058373752756388e+00	 2.997415544704464e-01	 9.392132815449784e+00
1	 1.051449570717672e+00	 3.231931314827468e-01	 8.568928593894615e+00
1	 1.043963019347051e+00	 3.466139267770240e-01	 7.731097255155454e+00
1	 1.035910865383475e+00	 3.699847010086489e-01	 6.880889484531155e+00
1	 1.027290715605796e+00	 3.932858828258811e-01	 6.020745060118454e+00
1	 1.018101045326137e+00	 4.164976128452925e-01	 5.153287596292243e+00
1	 1.008341224238598e+00	 4.395997901512296e-01	 4.281317757166323e+00
1	 9.980115393828648e-01	 4.625721211429035e-01	 3.407804927525129e+00
1	 1.089787993690832e+00	 2.323677728699406e-01	 1.124008654122123e+01
1	 1.084455226755401e+00	 2.561044986409184e-01	 1.049692233068543e+01
1	 1.078567394991592e+00	 2.798660885535729e-01	 9.734943022341012e+00
1	 1.072118866428549e+00	 3.036343019311015e-01	 8.955757372769789e+00
1	 1.065104759947771e+00	 3.273904448786266e-01	 8.161150912587487e+00
1	 1.057520980637273e+00	 3.511154063455566e-01	 7.353084620267834e+00
1	 1.049364253245598e+00	 3.747896971256443e-01	 6.533692313272221e+00
1	 1.040632153470806e+00	 3.983934916937497e-01	 5.705276711406976e+00
1	 1.031323136823879e+00	 4.219066727523740e-01	 4.870304139062450e+00
1	 1.021436564813125e+00	 4.453088783350118e-01	 4.031397845862048e+00
1	 1.010972728206019e+00	 4.685795512876166e-01	 3.191329939131559e+00
1	 1.103759634635586e+00	 2.353468468810937e-01	 1.074516446544677e+01
1	 1.098358498893291e+00	 2.593878896491353e-01	 1.002533471934599e+01
1	 1.092395182106869e+00	 2.834541153299008e-01	 9.287975032501496e+00
1	 1.085863980100710e+00	 3.075270493917566e-01	 8.534640588199169e+00
1	 1.078759949177871e+00	 3.315877582745065e-01	 7.767045653838122e+00
1	 1.071078941927494e+00	 3.556168859140896e-01	 6.987061852787273e+00
1	 1.062817641107721e+00	 3.795946932426398e-01	 6.196715267302197e+00
1	 1.053973591335816e+00	 4.035011005616184e-01	 5.398182335929089e+00
1	 1.044545228321621e+00	 4.273157326594558e-01	 4.593784519682277e+00
1	 1.034531905387653e+00	 4.510179665187942e-01	 3.785981723128966e+00
1	 1.023933917029173e+00	 4.745869814323296e-01	 2.977364469222783e+00
1	 1.117731275580340e+00	 2.383259208922468e-01	 1.026660667115573e+01
1	 1.112261771031181e+00	 2.626712806573522e-01	 9.568930344378124e+00
1	 1.106222969222145e+00	 2.870421421062286e-01	 8.854905212458148e+00
1	 1.099609093772871e+00	 3.114197968524118e-01	 8.126037198761091e+00
1	 1.092415138407971e+00	 3.357850716703862e-01	 7.383975142058247e+00
1	 1.084636903217716e+00	 3.601183654826223e-01	 6.630508702332884e+00
1	 1.076271028969845e+00	 3.843996893596351e-01	 5.867565201708996e+00
1	 1.067315029200826e+00	 4.086087094294868e-01	 5.097205371696331e+00
1	 1.057767319819363e+00	 4.327247925665375e-01	 4.321617988007786e+00
1	 1.047627245962180e+00	 4.567270547025762e-01	 3.543113385110335e+00
1	 1.036895105852327e+00	 4.805944115770426e-01	 2.764115854306409e+00
1	 9.072832176207859e-01	 4.205201101299123e-01	 5.165492059126422e+00
1	 8.973756499953728e-01	 4.412674277525846e-01	 3.983589458729699e+00
1	 8.869531173021131e-01	 4.618594674877455e-01	 2.801290586135898e+00
1	 8.760184783453765e-01	 4.822775400093309e-01	 1.622414621244110e+00
1	 8.645754792381196e-01	 5.025029758122590e-01	 4.508495509404025e-01
1	 8.526287583731883e-01	 5.225171771291306e-01	-7.094615007064946e-01
1	 8.401838477866392e-01	 5.423016705842215e-01	-1.854534600787614e+00
1	 8.272471708245099e-01	 5.618381602942648e-01	-2.980359904085738e+00
1	 8.138260360510750e-01	 5.811085811149189e-01	-4.082917019225373e+00
1	 7.999286273645809e-01	 6.000951517239724e-01	-5.158190738605975e+00
1	 7.855639903154131e-01	 6.187804272274013e-01	-6.202187020124694e+00
1	 9.202444064439402e-01	 4.265275402746255e-01	 4.872469287560794e+00
1	 9.101953021381637e-01	 4.475712481490501e-01	 3.743244107915656e+00
1	 8.996238761207145e-01	 4.684574598804274e-01	 2.612627453175301e+00
1	 8.885330280360242e-01	 4.891672191523212e-01	 1.484258177996818e+00
1	 8.769265575129500e-01	 5.096815897524344e-01	 3.618375381041088e-01
1	 8.648091692070913e-01	 5.299817082309753e-01	-7.508839544009236e-01
1	 8.521864741835914e-01	 5.500488373068533e-01	-1.850120274520288e+00
1	 8.390649875505746e-01	 5.698644197270401e-01	-2.932064138653240e+00
1	 8.254521222803762e-01	 5.894101322737036e-01	-3.992901674198916e+00
1	 8.113561791840751e-01	 6.086679396057434e-01	-5.028827402394183e+00
1	 7.967863330342053e-01	 6.276201476163644e-01	-6.036059426826575e+00
1	 9.332055952670942e-01	 4.325349704193383e-01	 4.597537338136849e+00
1	 9.230149542809548e-01	 4.538750685455157e-01	 3.517552610762431e+00
1	 9.122946349393168e-01	 4.750554522731097e-01	 2.435236025632792e+00
1	 9.010475777266729e-01	 4.960568982953117e-01	 1.354054426458930e+00
1	 8.892776357877804e-01	 5.168602036926095e-01	 2.775310876863417e-01
1	 8.769895800409937e-01	 5.374462393328199e-01	-7.907669236947896e-01
1	 8.641891005805434e-01	 5.577960040294851e-01	-1.847241929085566e+00
1	 8.508828042766388e-01	 5.778906791598153e-01	-2.888279276313901e+00
1	 8.370782085096772e-01	 5.977116834324880e-01	-3.910261342260503e+00
1	 8.227837310035692e-01	 6.172407274875147e-01	-4.909581801650400e+00
1	 8.080086757529962e-01	 6.364598680053269e-01	-5.882660058718683e+00
1	 9.461667840902481e-01	 4.385424005640514e-01	 4.338091320575867e+00
1	 9.358346064237457e-01	 4.601788889419810e-01	 3.304154406108931e+00
1	 9.249653937579178e-01	 4.816534446657916e-01	 2.267001877762099e+00
1	 9.135621274173210e-01	 5.029465774383023e-01	 1.229936822494580e+00
1	 9.016287140626106e-01	 5.240388176327846e-01	 1.963132079687893e-01
1	 8.891699908748966e-01	 5.449107704346647e-01	-8.304762677173334e-01
1	 8.761917269774953e-01	 5.655431707521167e-01	-1.847012816601454e+00
1	 8.627006210027034e-01	 5.859169385925905e-01	-2.849864608381872e+00
1	 8.487042947389785e-01	 6.060132345912725e-01	-3.835600135310197e+00
1	 8.342112828230631e-01	 6.258135153692855e-01	-4.800801799556368e+00
1	 8.192310184717879e-01	 6.452995883942898e-01	-5.742079623868177e+00
1	 9.591279729134023e-01	 4.445498307087645e-01	 4.091667149478758e+00
1	 9.486542585665368e-01	 4.664827093384465e-01	 3.100816530694954e+00
1	 9.376361525765197e-01	 4.882514370584738e-01	 2.105924877100618e+00
1	 9.260766771079689e-01	 5.098362565812926e-01	 1.110139716245244e+00
1	 9.139797923374405e-01	 5.312174315729594e-01	 1.166543121909058e-01
1	 9.013504017087993e-01	 5.523753015365095e-01	-8.713040153745233e-01
1	 8.881943533744474e-01	 5.732903374747486e-01	-1.850486013395518e+00
1	 8.745184377287680e-01	 5.939431980253658e-01	-2.817632977992334e+00
1	 8.603303809682793e-01	 6.143147857500572e-01	-3.769489510551336e+00
1	 8.456388346425568e-01	 6.343863032510562e-01	-4.702816455878666e+00
1	 8.304533611905800e-01	 6.541393087832528e-01	-5.614403927202998e+00
1	 9.720891617365564e-01	 4.505572608534776e-01	 3.855932157334439e+00
1	 9.614739107093283e-01	 4.727865297349121e-01	 2.905425112633948e+00
1	 9.503069113951214e-01	 4.948494294511560e-01	 1.950111564917129e+00
1	 9.385912267986175e-01	 5.167259357242833e-01	 9.929916258451810e-01
1	 9.263308706122714e-01	 5.383960455131348e-01	 3.710639155279849e-02
1	 9.135308125427016e-01	 5.598398326383540e-01	-9.144732873639518e-01
1	 9.001969797713993e-01	 5.810375041973801e-01	-1.858658431724469e+00
1	 8.863362544548321e-01	 6.019694574581410e-01	-2.792353876646759e+00
1	 8.719564671975805e-01	 6.226163369088416e-01	-3.712470447469299e+00
1	 8.570663864620512e-01	 6.429590911328277e-01	-4.615937280529533e+00
1	 8.416757039093712e-01	 6.629790291722155e-01	-5.499714197388426e+00
1	 9.850503505597105e-01	 4.565646909981905e-01	 3.628676448606100e+00
1	 9.742935628521189e-01	 4.790903501313776e-01	 2.715977536454555e+00
1	 9.629776702137229e-01	 5.014474218438381e-01	 1.797768138202998e+00
1	 9.511057764892659e-01	 5.236156148672736e-01	 8.769090421581628e-01
1	 9.386819488871013e-01	 5.455746594533097e-01	-4.370235175600001e-02
1	 9.257112233766045e-01	 5.673043637401989e-01	-9.611428296096380e-01
1	 9.121996061683509e-01	 5.887846709200116e-01	-1.872474514779009e+00
1	 8.981540711808966e-01	 6.099957168909160e-01	-2.774756296293597e+00
1	 8.835825534268819e-01	 6.309178880676264e-01	-3.665055452945169e+00
1	 8.684939382815452e-01	 6.515318790145984e-01	-4.540459388162803e+00
1	 8.528980466281629e-01	 6.718187495611785e-01	-5.398087387896801e+00
1	 9.980115393828648e-01	 4.625721211429035e-01	 3.407804927525129e+00
1	 9.871132149949101e-01	 4.853941705278430e-01	 2.530575218657957e+00
1	 9.756484290323246e-01	 5.080454142365202e-01	 1.647193978521512e+00
1	 9.636203261799139e-01	 5.305052940102640e-01	 7.603907162630921e-01
1	 9.510330271619318e-01	 5.527532733934850e-01	-1.270724533220469e-01
1	 9.378916342105076e-01	 5.747688948420437e-01	-1.012411193442216e+00
1	 9.242022325653033e-01	 5.965318376426435e-01	-1.892829643765841e+00
1	 9.099718879069612e-01	 6.180219763236915e-01	-2.765531359169894e+00
1	 8.952086396561829e-01	 6.392194392264111e-01	-3.627730410125843e+00
1	 8.799214901010391e-01	 6.601046668963694e-01	-4.476662562800812e+00
1	 8.641203893469546e-01	 6.806584699501413e-01	-5.309596454617511e+00
1	 1.010972728206019e+00	 4.685795512876166e-01	 3.191329939131559e+00
1	 9.999328671377011e-01	 4.916979909243085e-01	 2.347416939001663e+00
1	 9.883191878509261e-01	 5.146434066292022e-01	 1.496775678637889e+00
1	 9.761348758705620e-01	 5.373949731532545e-01	 6.420123863628470e-01
1	 9.633841054367618e-01	 5.599318873336601e-01	-2.142377545993333e-01
1	 9.500720450444099e-01	 5.822334259438883e-01	-1.069320594226576e+00
1	 9.362048589622556e-01	 6.042790043652755e-01	-1.920573282906685e+00
1	 9.217897046330253e-01	 6.260482357564664e-01	-2.765334745346602e+00
1	 9.068347258854836e-01	 6.475209903851954e-01	-3.600956285073948e+00
1	 8.913490419205331e-01	 6.686774547781408e-01	-4.424812240567395e+00
1	 8.753427320657464e-01	 6.894981903391044e-01	-5.234310612112242e+00
1	 1.023933917029173e+00	 4.745869814323296e-01	 2.977364469222783e+00
1	 1.012752519280492e+00	 4.980018113207742e-01	 2.164792678268117e+00
1	 1.000989946669528e+00	 5.212413990218843e-01	 1.344981522822841e+00
1	 9.886494255612103e-01	 5.442846522962448e-01	 5.204219051816319e-01
1	 9.757351837115925e-01	 5.671105012738353e-01	-3.063696240566771e-01
1	 9.622524558783128e-01	 5.896979570457329e-01	-1.132860476929383e+00
1	 9.482074853592071e-01	 6.120261710879070e-01	-1.956511885576645e+00
1	 9.336075213590898e-01	 6.340744951892416e-01	-2.774788935903802e+00
1	 9.184608121147848e-01	 6.558225415439799e-01	-3.585170703798073e+00
1	 9.027765937400271e-01	 6.772502426599116e-01	-4.385160417782680e+00
1	 8.865650747845378e-01	 6.983379107280673e-01	-5.172295570407917e+00
1	 1.036895105852327e+00	 4.805944115770426e-01	 2.764115854306409e+00
1	 1.025572171423283e+00	 5.043056317172395e-01	 1.981077918200586e+00
1	 1.013660705488129e+00	 5.278393914145663e-01	 1.190356381133589e+00
1	 1.001163975251858e+00	 5.511743314392351e-01	 3.943347328076270e-01
1	 9.880862619864225e-01	 5.742891152140104e-01	-4.045808617395685e-01
1	 9.744328667122153e-01	 5.971624881475778e-01	-1.203970814269109e+00
1	 9.602101117561592e-01	 6.197733378105390e-01	-2.001411582482062e+00
1	 9.454253380851545e-01	 6.421007546220170e-01	-2.794485287867540e+00
1	 9.300868983440859e-01	 6.641240927027645e-01	-3.580789411006523e+00
1	 9.142041455595213e-01	 6.858230305416827e-01	-4.357946490950675e+00
1	 8.977874175033295e-01	 7.071776311170301e-01	-5.123613754030183e+00
1	 7.855639903154131e-01	 6.187804272274013e-01	-6.202187020124694e+00
1	 7.707420146512741e-01	 6.371473509725164e-01	-7.209063027208236e+00
1	 7.554734131438946e-01	 6.551793052536952e-01	-8.174081029763167e+00
1	 7.397696967816780e-01	 6.728601606006588e-01	-9.095191416006738e+00
1	 7.236431464421306e-01	 6.901743233468870e-01	-9.970695721787481e+00
1	 7.071067811865475e-01	 7.071067811865477e-01	-1.079924796984603e+01
1	 6.901743233468870e-01	 7.236431464421306e-01	-1.157985336139520e+01
1	 6.728601606006588e-01	 7.397696967816780e-01	-1.231186435068355e+01
1	 6.551793052536952e-01	 7.554734131438944e-01	-1.299497416276605e+01
1	 6.371473509725165e-01	 7.707420146512741e-01	-1.362920784331189e+01
1	 6.187804272274013e-01	 7.855639903154132e-01	-1.421491095646013e+01
1	 7.967863330342053e-01	 6.276201476163644e-01	-6.036059426826575e+00
1	 7.817526148605780e-01	 6.462494559864095e-01	-7.009745681398641e+00
1	 7.662658904745219e-01	 6.645390096144622e-01	-7.945985838504162e+00
1	 7.503378353071305e-01	 6.824724486092393e-01	-8.842688043734821e+00
1	 7.339809056770183e-01	 7.000339565375566e-01	-9.698077967913818e+00
1	 7.172083066320697e-01	 7.172083066320697e-01	-1.051070108431089e+01
1	 7.000339565375567e-01	 7.339809056770181e-01	-1.127942254532247e+01
1	 6.824724486092392e-01	 7.503378353071304e-01	-1.200342467777032e+01
1	 6.645390096144623e-01	 7.662658904745214e-01	-1.268220214285828e+01
1	 6.462494559864097e-01	 7.817526148605780e-01	-1.331555483295348e+01
1	 6.276201476163644e-01	 7.967863330342052e-01	-1.390357860230095e+01
1	 8.080086757529962e-01	 6.364598680053269e-01	-5.882660058718683e+00
1	 7.927632150698822e-01	 6.553515610003027e-01	-6.825522179412921e+00
1	 7.770583678051488e-01	 6.738987139752293e-01	-7.735005418587305e+00
1	 7.609059738325832e-01	 6.920847366178207e-01	-8.608985757301859e+00
1	 7.443186649119058e-01	 7.098935897282264e-01	-9.445625514549315e+00
1	 7.273098320775917e-01	 7.273098320775919e-01	-1.024337646704032e+01
1	 7.098935897282265e-01	 7.443186649119057e-01	-1.100098079804154e+01
1	 6.920847366178207e-01	 7.609059738325831e-01	-1.171746988394770e+01
1	 6.738987139752293e-01	 7.770583678051486e-01	-1.239216095166935e+01
1	 6.553515610003030e-01	 7.927632150698820e-01	-1.302465166373349e+01
1	 6.364598680053271e-01	 8.080086757529963e-01	-1.361481271085730e+01
1	 8.192310184717879e-01	 6.452995883942898e-01	-5.742079623868177e+00
1	 8.037738152791861e-01	 6.644536660141954e-01	-6.656234874667108e+00
1	 7.878508451357759e-01	 6.832584183359962e-01	-7.540751775655428e+00
1	 7.714741123580358e-01	 7.016970246264014e-01	-8.393483587758640e+00
1	 7.546564241467932e-01	 7.197532229188962e-01	-9.212541085355660e+00
1	 7.374113575231138e-01	 7.374113575231138e-01	-9.996296426251980e+00
1	 7.197532229188964e-01	 7.546564241467931e-01	-1.074338506318090e+01
1	 7.016970246264013e-01	 7.714741123580355e-01	-1.145270569605781e+01
1	 6.832584183359962e-01	 7.878508451357754e-01	-1.212341828630298e+01
1	 6.644536660141959e-01	 8.037738152791861e-01	-1.275494017622506e+01
1	 6.452995883942900e-01	 8.192310184717879e-01	-1.334694037738032e+01
1	 8.304533611905800e-01	 6.541393087832528e-01	-5.614403927202998e+00
1	 8.147844154884897e-01	 6.735557710280885e-01	-6.501734642013800e+00
1	 7.986433224664029e-01	 6.926181226967634e-01	-7.362857888018807e+00
1	 7.820422508834883e-01	 7.113093126349818e-01	-8.195613050963487e+00
1	 7.649941833816813e-01	 7.296128561095663e-01	-8.998070500013018e+00
1	 7.475128829686359e-01	 7.475128829686359e-01	-9.768536118368477e+00
1	 7.296128561095661e-01	 7.649941833816811e-01	-1.050555407120041e+01
1	 7.113093126349821e-01	 7.820422508834880e-01	-1.120790780165411e+01
1	 6.926181226967637e-01	 7.986433224664027e-01	-1.187461926564160e+01
1	 6.735557710280889e-01	 8.147844154884898e-01	-1.250494643583570e+01
1	 6.541393087832528e-01	 8.304533611905799e-01	-1.309837912440420e+01
1	 8.416757039093712e-01	 6.629790291722155e-01	-5.499714197388426e+00
1	 8.257950156977942e-01	 6.826578760419820e-01	-6.361880309647024e+00
1	 8.094357997970297e-01	 7.019778270575303e-01	-7.200976308478387e+00
1	 7.926103894089407e-01	 7.209216006435628e-01	-8.014835981929380e+00
1	 7.753319426165687e-01	 7.394724893002361e-01	-8.801499801151856e+00
1	 7.576144084141579e-01	 7.576144084141581e-01	-9.559220024802919e+00
1	 7.394724893002359e-01	 7.753319426165685e-01	-1.028646422026848e+01
1	 7.209216006435631e-01	 7.926103894089409e-01	-1.098191718495387e+01
1	 7.019778270575305e-01	 8.094357997970296e-01	-1.164448126889411e+01
1	 6.826578760419821e-01	 8.257950156977940e-01	-1.227327511781723e+01
1	 6.629790291722157e-01	 8.416757039093714e-01	-1.286763087326159e+01
1	 8.528980466281629e-01	 6.718187495611785e-01	-5.398087387896801e+00
1	 8.368056159070980e-01	 6.917599810558749e-01	-6.236538135855892e+00
1	 8.202282771276569e-01	 7.113375314182975e-01	-7.054777876529424e+00
1	 8.031785279343934e-01	 7.305338886521437e-01	-7.850642540142159e+00
1	 7.856697018514562e-01	 7.493321224909059e-01	-8.622152608106301e+00
1	 7.677159338596803e-01	 7.677159338596803e-01	-9.367518706894217e+00
1	 7.493321224909059e-01	 7.856697018514558e-01	-1.008514578233420e+01
1	 7.305338886521437e-01	 8.031785279343933e-01	-1.077363583100495e+01
1	 7.113375314182977e-01	 8.202282771276568e-01	-1.143178918162636e+01
1	 6.917599810558752e-01	 8.368056159070977e-01	-1.205860433556665e+01
1	 6.718187495611787e-01	 8.528980466281628e-01	-1.265327639153072e+01
1	 8.641203893469546e-01	 6.806584699501413e-01	-5.309596454617511e+00
1	 8.478162161164017e-01	 7.008620860697679e-01	-6.125581326550745e+00
1	 8.310207544582839e-01	 7.206972357790647e-01	-6.923950530914272e+00
1	 8.137466664598459e-01	 7.401461766607245e-01	-7.702549370309161e+00
1	 7.960074610863438e-01	 7.591917556815756e-01	-8.459387676868513e+00
1	 7.778174593052023e-01	 7.778174593052023e-01	-9.192645813703836e+00
1	 7.591917556815757e-01	 7.960074610863437e-01	-9.900679404830040e+00
1	 7.401461766607246e-01	 8.137466664598457e-01	-1.058202276459308e+01
1	 7.206972357790647e-01	 8.310207544582839e-01	-1.123539101223209e+01
1	 7.008620860697682e-01	 8.478162161164016e-01	-1.185968087191463e+01
1	 6.806584699501415e-01	 8.641203893469546e-01	-1.245397017314942e+01
1	 8.753427320657464e-01	 6.894981903391044e-01	-5.234310612112242e+00
1	 8.588268163257057e-01	 7.099641910836612e-01	-6.028889589902921e+00
1	 8.418132317889112e-01	 7.300569401398317e-01	-6.808198213516750e+00
1	 8.243148049852986e-01	 7.497584646693054e-01	-7.570097904588572e+00
1	 8.063452203212312e-01	 7.690513888722454e-01	-8.312596647738687e+00
1	 7.879189847507241e-01	 7.879189847507243e-01	-9.033855319982527e+00
1	 7.690513888722454e-01	 8.063452203212313e-01	-9.732192881473550e+00
1	 7.497584646693055e-01	 8.243148049852983e-01	-1.040609039384824e+01
1	 7.300569401398317e-01	 8.418132317889109e-01	-1.105419384559778e+01
1	 7.099641910836613e-01	 8.588268163257055e-01	-1.167531577723896e+01
1	 6.894981903391043e-01	 8.753427320657461e-01	-1.226843571236632e+01
1	 8.865650747845378e-01	 6.983379107280673e-01	-5.172295570407917e+00
1	 8.698374165350096e-01	 7.190662960975541e-01	-5.946348724809335e+00
1	 8.526057091195379e-01	 7.394166445005986e-01	-6.707239856504926e+00
1	 8.348829435107509e-01	 7.593707526778862e-01	-7.452852793763588e+00
1	 8.166829795561187e-01	 7.789110220629153e-01	-8.181201964039726e+00
1	 7.980205101962464e-01	 7.980205101962464e-01	-8.890438973911117e+00
1	 7.789110220629154e-01	 8.166829795561189e-01	-9.578858168326065e+00
1	 7.593707526778863e-01	 8.348829435107509e-01	-1.024490113155206e+01
1	 7.394166445005989e-01	 8.526057091195380e-01	-1.088716010408394e+01
1	 7.190662960975543e-01	 8.698374165350092e-01	-1.150438030189834e+01
1	 6.983379107280674e-01	 8.865650747845379e-01	-1.209546113663281e+01
1	 8.977874175033295e-01	 7.071776311170301e-01	-5.123613754030183e+00
1	 8.808480167443135e-01	 7.281684011114473e-01	-5.877850240222049e+00
1	 8.633981864501654e-01	 7.487763488613658e-01	-6.620808445438580e+00
1	 8.454510820362036e-01	 7.689830406864669e-01	-7.350400456078241e+00
1	 8.270207387910065e-01	 7.887706552535849e-01	-8.064654946928563e+00
1	 8.081220356417685e-01	 8.081220356417687e-01	-8.761723936261726e+00
1	 7.887706552535849e-01	 8.270207387910065e-01	-9.439888623645729e+00
1	 7.689830406864671e-01	 8.454510820362033e-01	-1.009756426984724e+01
1	 7.487763488613659e-01	 8.633981864501649e-01	-1.073330408893301e+01
1	 7.281684011114475e-01	 8.808480167443136e-01	-1.134580213373362e+01
1	 7.071776311170301e-01	 8.977874175033295e-01	-1.193389516702750e+01
1	 6.187804272274013e-01	 7.855639903154132e-01	-1.421491095646012e+01
1	 6.000951517239723e-01	 7.999286273645809e-01	-1.475071127453705e+01
1	 5.811085811149190e-01	 8.138260360510750e-01	-1.523512393747105e+01
1	 5.618381602942650e-01	 8.272471708245098e-01	-1.566887373712600e+01
1	 5.423016705842216e-01	 8.401838477866392e-01	-1.605309309266512e+01
1	 5.225171771291308e-01	 8.526287583731881e-01	-1.638930320506108e+01
1	 5.025029758122596e-01	 8.645754792381194e-01	-1.667939272853146e+01
1	 4.822775400093313e-01	 8.760184783453757e-01	-1.692559421313584e+01
1	 4.618594674877461e-01	 8.869531173021130e-01	-1.713045859094122e+01
1	 4.412674277525853e-01	 8.973756499953723e-01	-1.729682799213742e+01
1	 4.205201101299122e-01	 9.072832176207859e-01	-1.742780718721037e+01
1	 6.276201476163644e-01	 7.967863330342052e-01	-1.390357860230095e+01
1	 6.086679396057432e-01	 8.113561791840751e-01	-1.444504171556206e+01
1	 5.894101322737035e-01	 8.254521222803761e-01	-1.493862292053916e+01
1	 5.698644197270403e-01	 8.390649875505743e-01	-1.538478898666059e+01
1	 5.500488373068533e-01	 8.521864741835907e-01	-1.578438176257256e+01
1	 5.299817082309758e-01	 8.648091692070909e-01	-1.613860193577434e+01
1	 5.096815897524345e-01	 8.769265575129495e-01	-1.644899048884917e+01
1	 4.891672191523216e-01	 8.885330280360237e-01	-1.671740807715177e+01
1	 4.684574598804281e-01	 8.996238761207147e-01	-1.694601256999098e+01
1	 4.475712481490506e-01	 9.101953021381631e-01	-1.713723501079620e+01
1	 4.265275402746253e-01	 9.202444064439400e-01	-1.729375426135141e+01
1	 6.364598680053271e-01	 8.080086757529963e-01	-1.361481271085729e+01
1	 6.172407274875147e-01	 8.227837310035692e-01	-1.416152638879809e+01
1	 5.977116834324880e-01	 8.370782085096770e-01	-1.466360530734060e+01
1	 5.778906791598154e-01	 8.508828042766388e-01	-1.512128054752212e+01
1	 5.577960040294853e-01	 8.641891005805433e-01	-1.553512772293427e+01
1	 5.374462393328204e-01	 8.769895800409937e-01	-1.590605316044583e+01
1	 5.168602036926098e-01	 8.892776357877800e-01	-1.623527794693322e+01
1	 4.960568982953122e-01	 9.010475777266724e-01	-1.652432003944662e+01
1	 4.750554522731102e-01	 9.122946349393162e-01	-1.677497465249441e+01
1	 4.538750685455162e-01	 9.230149542809546e-01	-1.698929314904503e+01
1	 4.325349704193384e-01	 9.332055952670942e-01	-1.716956067132873e+01
1	 6.452995883942900e-01	 8.192310184717879e-01	-1.334694037738032e+01
1	 6.258135153692855e-01	 8.342112828230631e-01	-1.389839160793903e+01
1	 6.060132345912727e-01	 8.487042947389785e-01	-1.440821359610193e+01
1	 5.859169385925908e-01	 8.627006210027035e-01	-1.487642314705622e+01
1	 5.655431707521168e-01	 8.761917269774949e-01	-1.530335298914459e+01
1	 5.449107704346651e-01	 8.891699908748966e-01	-1.568964019694488e+01
1	 5.240388176327850e-01	 9.016287140626105e-01	-1.603621263979031e+01
1	 5.029465774383027e-01	 9.135621274173205e-01	-1.634427362762907e+01
1	 4.816534446657922e-01	 9.249653937579175e-01	-1.661528494149262e+01
1	 4.601788889419818e-01	 9.358346064237452e-01	-1.685094844825560e+01
1	 4.385424005640514e-01	 9.461667840902485e-01	-1.705318650872147e+01
1	 6.541393087832528e-01	 8.304533611905799e-01	-1.309837912440420e+01
1	 6.343863032510563e-01	 8.456388346425566e-01	-1.365395956161397e+01
1	 6.143147857500574e-01	 8.603303809682793e-01	-1.417069069055099e+01
1	 5.939431980253658e-01	 8.745184377287676e-01	-1.464839558140102e+01
1	 5.732903374747487e-01	 8.881943533744471e-01	-1.508718649468481e+01
1	 5.523753015365097e-01	 9.013504017087989e-01	-1.548745537298530e+01
1	 5.312174315729599e-01	 9.139797923374404e-01	-1.584986250783260e+01
1	 5.098362565812931e-01	 9.260766771079687e-01	-1.617532352997765e+01
1	 4.882514370584744e-01	 9.376361525765194e-01	-1.646499488580848e+01
1	 4.664827093384472e-01	 9.486542585665366e-01	-1.672025797459064e+01
1	 4.445498307087645e-01	 9.591279729134023e-01	-1.694270213042873e+01
1	 6.629790291722157e-01	 8.416757039093714e-01	-1.286763087326159e+01
1	 6.429590911328275e-01	 8.570663864620515e-01	-1.342664192172502e+01
1	 6.226163369088418e-01	 8.719564671975804e-01	-1.394937320621704e+01
1	 6.019694574581412e-01	 8.863362544548321e-01	-1.443547377756674e+01
1	 5.810375041973804e-01	 9.001969797713991e-01	-1.488485696325055e+01
1	 5.598398326383544e-01	 9.135308125427015e-01	-1.529769275880316e+01
1	 5.383960455131351e-01	 9.263308706122709e-01	-1.567439853465008e+01
1	 5.167259357242835e-01	 9.385912267986172e-01	-1.601562818472920e+01
1	 4.948494294511565e-01	 9.503069113951210e-01	-1.632225985699396e+01
1	 4.727865297349128e-01	 9.614739107093278e-01	-1.659538241735083e+01
1	 4.505572608534776e-01	 9.720891617365568e-01	-1.683628080764815e+01
1	 6.718187495611787e-01	 8.528980466281628e-01	-1.265327639153072e+01
1	 6.515318790145984e-01	 8.684939382815452e-01	-1.321493395639038e+01
1	 6.309178880676263e-01	 8.835825534268814e-01	-1.374268530518019e+01
1	 6.099957168909163e-01	 8.981540711808964e-01	-1.423602440324758e+01
1	 5.887846709200121e-01	 9.121996061683508e-01	-1.469468634360599e+01
1	 5.673043637401992e-01	 9.257112233766046e-01	-1.511864147356923e+01
1	 5.455746594533102e-01	 9.386819488871010e-01	-1.550808796785452e+01
1	 5.236156148672741e-01	 9.511057764892655e-01	-1.586344295442392e+01
1	 5.014474218438386e-01	 9.629776702137226e-01	-1.618533231230899e+01
1	 4.790903501313784e-01	 9.742935628521187e-01	-1.647457927166283e+01
1	 4.565646909981904e-01	 9.850503505597107e-01	-1.673219195519860e+01
1	 6.806584699501415e-01	 8.641203893469546e-01	-1.245397017314942e+01
1	 6.601046668963694e-01	 8.799214901010390e-01	-1.301740910161786e+01
1	 6.392194392264108e-01	 8.952086396561826e-01	-1.354913301123073e+01
1	 6.180219763236915e-01	 9.099718879069610e-01	-1.404849897456924e+01
1	 5.965318376426438e-01	 9.242022325653031e-01	-1.451508375600813e+01
1	 5.747688948420439e-01	 9.378916342105070e-01	-1.494867951338075e+01
1	 5.527532733934855e-01	 9.510330271619314e-01	-1.534928806816848e+01
1	 5.305052940102644e-01	 9.636203261799136e-01	-1.571711383211933e+01
1	 5.080454142365207e-01	 9.756484290323243e-01	-1.605255549045452e+01
1	 4.853941705278438e-01	 9.871132149949097e-01	-1.635619655238740e+01
1	 4.625721211429035e-01	 9.980115393828650e-01	-1.662879488842812e+01
1	 6.894981903391043e-01	 8.753427320657461e-01	-1.226843571236632e+01
1	 6.686774547781408e-01	 8.913490419205331e-01	-1.283271395054317e+01
1	 6.475209903851953e-01	 9.068347258854836e-01	-1.336729896232364e+01
1	 6.260482357564667e-01	 9.217897046330255e-01	-1.387142841708666e+01
1	 6.042790043652757e-01	 9.362048589622552e-01	-1.434453990429059e+01
1	 5.822334259438887e-01	 9.500720450444098e-01	-1.478626805402202e+01
1	 5.599318873336604e-01	 9.633841054367617e-01	-1.519644033935466e+01
1	 5.373949731532549e-01	 9.761348758705619e-01	-1.557507163174192e+01
1	 5.146434066292028e-01	 9.883191878509255e-01	-1.592235759224950e+01
1	 4.916979909243093e-01	 9.999328671377006e-01	-1.623866699157161e+01
1	 4.685795512876165e-01	 1.010972728206019e+00	-1.652453306035891e+01
1	 6.983379107280674e-01	 8.865650747845379e-01	-1.209546113663281e+01
1	 6.772502426599116e-01	 9.027765937400271e-01	-1.265956362323185e+01
1	 6.558225415439801e-01	 9.184608121147849e-01	-1.319583756158056e+01
1	 6.340744951892421e-01	 9.336075213590899e-01	-1.370341803987121e+01
1	 6.120261710879074e-01	 9.482074853592071e-01	-1.418162191234605e+01
1	 5.896979570457334e-01	 9.622524558783121e-01	-1.462994618642762e+01
1	 5.671105012738356e-01	 9.757351837115920e-01	-1.504806519637742e+01
1	 5.442846522962453e-01	 9.886494255612098e-01	-1.543582661967765e+01
1	 5.212413990218850e-01	 1.000989946669527e+00	-1.579324640328142e+01
1	 4.980018113207747e-01	 1.012752519280492e+00	-1.612050267660209e+01
1	 4.745869814323296e-01	 1.023933917029173e+00	-1.641792873651841e+01
1	 7.071776311170301e-01	 8.977874175033295e-01	-1.193389516702750e+01
1	 6.858230305416826e-01	 9.142041455595212e-01	-1.249673748374623e+01
1	 6.641240927027647e-01	 9.300868983440858e-01	-1.303347049196728e+01
1	 6.421007546220172e-01	 9.454253380851544e-01	-1.354314288654056e+01
1	 6.197733378105391e-01	 9.602101117561590e-01	-1.402496854787241e+01
1	 5.971624881475781e-01	 9.744328667122151e-01	-1.447832604698556e+01
1	 5.742891152140108e-01	 9.880862619864224e-01	-1.490275703345308e+01
1	 5.511743314392359e-01	 1.001163975251858e+00	-1.529796354899293e+01
1	 5.278393914145669e-01	 1.013660705488129e+00	-1.566380431985852e+01
1	 5.043056317172403e-01	 1.025572171423283e+00	-1.600029009049607e+01
1	 4.805944115770426e-01	 1.036895105852327e+00	-1.630757806915780e+01
1	 4.205201101299122e-01	 9.072832176207859e-01	-1.742780718721037e+01
1	 3.996361728647542e-01	 9.166738402169073e-01	-1.752709866902518e+01
1	 3.786341934957204e-01	 9.255464048419428e-01	-1.759686986400311e+01
1	 3.575326207508011e-01	 9.339006505507231e-01	-1.763825920633661e+01
1	 3.363497281896810e-01	 9.417371503486138e-01	-1.765260370333708e+01
1	 3.151035697972948e-01	 9.490572903155010e-01	-1.764142474988712e+01
1	 2.938119377115883e-01	 9.558632461069742e-01	-1.760641314891324e+01
1	 2.724923222458608e-01	 9.621579570512618e-01	-1.754941349862701e+01
1	 2.511618743429507e-01	 9.679450980693770e-01	-1.747240810651599e+01
1	 2.298373705751838e-01	 9.732290496522829e-01	-1.737750058732578e+01
1	 2.085351807807160e-01	 9.780148661327976e-01	-1.726689929770606e+01
1	 4.265275402746253e-01	 9.202444064439400e-01	-1.729375426135140e+01
1	 4.053452610485362e-01	 9.297691807914344e-01	-1.741882537937634e+01
1	 3.840432534028021e-01	 9.387684963396845e-01	-1.751434303334215e+01
1	 3.626402296186697e-01	 9.472420884157334e-01	-1.758126482186943e+01
1	 3.411547243066765e-01	 9.551905382107367e-01	-1.762073774726601e+01
1	 3.196050493658277e-01	 9.626152516057228e-01	-1.763408552561624e+01
1	 2.980092511074681e-01	 9.695184353370739e-01	-1.762279511310766e+01
1	 2.763850697065161e-01	 9.759030707234229e-01	-1.758850259556844e+01
1	 2.547499011192784e-01	 9.817728851846537e-01	-1.753297858808235e+01
1	 2.331207615834007e-01	 9.871323217901723e-01	-1.745811328958709e+01
1	 2.115142547918692e-01	 9.919865070775520e-01	-1.736590133369600e+01
1	 4.325349704193384e-01	 9.332055952670942e-01	-1.716956067132874e+01
1	 4.110543492323185e-01	 9.428645213659618e-01	-1.731861622252441e+01
1	 3.894523133098839e-01	 9.519905878374271e-01	-1.743810022762770e+01
1	 3.677478384865385e-01	 9.605835262807438e-01	-1.752880326137848e+01
1	 3.459597204236719e-01	 9.686439260728598e-01	-1.759169667181596e+01
1	 3.241065289343603e-01	 9.761732128959438e-01	-1.762792128534186e+01
1	 3.022065645033480e-01	 9.831736245671734e-01	-1.763877533803312e+01
1	 2.802778171671712e-01	 9.896481843955841e-01	-1.762570176729544e+01
1	 2.583379278956063e-01	 9.956006722999304e-01	-1.759027499845039e+01
1	 2.364041525916176e-01	 1.001035593928062e+00	-1.753418735961523e+01
1	 2.144933288030222e-01	 1.005958148022306e+00	-1.745923525540518e+01
1	 4.385424005640514e-01	 9.461667840902485e-01	-1.705318650872147e+01
1	 4.167634374161008e-01	 9.559598619404893e-01	-1.722445255904482e+01
1	 3.948613732169655e-01	 9.652126793351690e-01	-1.736615092855222e+01
1	 3.728554473544068e-01	 9.739249641457544e-01	-1.747891848045452e+01
1	 3.507647165406675e-01	 9.820973139349833e-01	-1.756356473575805e+01
1	 3.286080085028931e-01	 9.897311741861657e-01	-1.762106187559105e+01
1	 3.064038778992278e-01	 9.968288137972730e-01	-1.765253397961803e+01
1	 2.841705646278262e-01	 1.003393298067744e+00	-1.765924562261987e+01
1	 2.619259546719343e-01	 1.009428459415208e+00	-1.764258995237130e+01
1	 2.396875435998346e-01	 1.014938866065952e+00	-1.760407637139510e+01
1	 2.174724028141752e-01	 1.019929788967060e+00	-1.754531794312414e+01
1	 4.445498307087645e-01	 9.591279729134023e-01	-1.694270213042873e+01
1	 4.224725255998831e-01	 9.690552025150163e-01	-1.713442486515769e+01
1	 4.002704331240473e-01	 9.784347708329109e-01	-1.729661221339207e+01
1	 3.779630562222755e-01	 9.872664020107647e-01	-1.742976016681884e+01
1	 3.555697126576628e-01	 9.955507017971059e-01	-1.753452975144411e+01
1	 3.331094880714258e-01	 1.003289135476387e+00	-1.761173823226774e+01
1	 3.106011912951077e-01	 1.010484003027373e+00	-1.766234956374051e+01
1	 2.880633120884815e-01	 1.017138411739906e+00	-1.768746419690489e+01
1	 2.655139814482621e-01	 1.023256246530484e+00	-1.768830835569083e+01
1	 2.429709346080514e-01	 1.028842138203842e+00	-1.766622289491250e+01
1	 2.204514768253283e-01	 1.033901429911814e+00	-1.762265185118142e+01
1	 4.505572608534776e-01	 9.720891617365568e-01	-1.683628080764815e+01
1	 4.281816137836653e-01	 9.821505430895439e-01	-1.704672545835140e+01
1	 4.056794930311290e-01	 9.916568623306530e-01	-1.722770158196920e+01
1	 3.830706650901440e-01	 1.000607839875775e+00	-1.737957669151433e+01
1	 3.603747087746583e-01	 1.009004089659229e+00	-1.750287618123330e+01
1	 3.376109676399587e-01	 1.016847096766609e+00	-1.759827564136108e+01
1	 3.147985046909875e-01	 1.024139192257472e+00	-1.766659242823223e+01
1	 2.919560595491366e-01	 1.030883525412067e+00	-1.770877659029381e+01
1	 2.691020082245900e-01	 1.037084033645761e+00	-1.772590125260928e+01
1	 2.462543256162684e-01	 1.042745410341732e+00	-1.771915256308727e+01
1	 2.234305508364814e-01	 1.047873070856569e+00	-1.768981930300828e+01
1	 4.565646909981904e-01	 9.850503505597107e-01	-1.673219195519861e+01
1	 4.338907019674474e-01	 9.952458836640712e-01	-1.695964179729921e+01
1	 4.110885529382107e-01	 1.004878953828395e+00	-1.715773034990427e+01
1	 3.881782739580126e-01	 1.013949277740785e+00	-1.732670861658135e+01
1	 3.651797048916536e-01	 1.022457477521352e+00	-1.746697877893961e+01
1	 3.421124472084916e-01	 1.030405058056830e+00	-1.757908753170291e+01
1	 3.189958180868673e-01	 1.037794381487572e+00	-1.766371868261755e+01
1	 2.958488070097918e-01	 1.044628639084227e+00	-1.772168510818582e+01
1	 2.726900350009179e-01	 1.050911820761038e+00	-1.775392015868507e+01
1	 2.495377166244853e-01	 1.056648682479622e+00	-1.776146860710658e+01
1	 2.264096248476345e-01	 1.061844711801323e+00	-1.774547723659228e+01
1	 4.625721211429035e-01	 9.980115393828650e-01	-1.662879488842812e+01
1	 4.395997901512296e-01	 1.008341224238598e+00	-1.687155030386013e+01
1	 4.164976128452925e-01	 1.018101045326137e+00	-1.708509755668177e+01
1	 3.932858828258812e-01	 1.027290715605796e+00	-1.726958270862982e+01
1	 3.699847010086491e-01	 1.035910865383475e+00	-1.742529672675058e+01
1	 3.466139267770242e-01	 1.043963019347051e+00	-1.755266975140642e+01
1	 3.231931314827471e-01	 1.051449570717672e+00	-1.765226463852368e+01
1	 2.997415544704470e-01	 1.058373752756388e+00	-1.772476985829701e+01
1	 2.762780617772457e-01	 1.064739607876315e+00	-1.777099183542176e+01
1	 2.528211076327022e-01	 1.070551954617511e+00	-1.779184681757659e+01
1	 2.293886988587876e-01	 1.075816352746077e+00	-1.778835235937602e+01
1	 4.685795512876165e-01	 1.010972728206019e+00	-1.652453306035891e+01
1	 4.453088783350119e-01	 1.021436564813126e+00	-1.678091066031065e+01
1	 4.219066727523741e-01	 1.031323136823879e+00	-1.700828434232552e+01
1	 3.983934916937498e-01	 1.040632153470806e+00	-1.720670641290485e+01
1	 3.747896971256445e-01	 1.049364253245598e+00	-1.737636822315157e+01
1	 3.511154063455570e-01	 1.057520980637273e+00	-1.751759528457907e+01
1	 3.273904448786269e-01	 1.065104759947771e+00	-1.763084166851981e+01
1	 3.036343019311021e-01	 1.072118866428549e+00	-1.771668376333230e+01
1	 2.798660885535735e-01	 1.078567394991591e+00	-1.777581346680966e+01
1	 2.561044986409192e-01	 1.084455226755401e+00	-1.780903089327736e+01
1	 2.323677728699406e-01	 1.089787993690832e+00	-1.781723667585646e+01
1	 4.745869814323296e-01	 1.023933917029173e+00	-1.641792873651842e+01
1	 4.510179665187940e-01	 1.034531905387653e+00	-1.668626053969815e+01
1	 4.273157326594558e-01	 1.044545228321621e+00	-1.692584875116189e+01
1	 4.035011005616184e-01	 1.053973591335816e+00	-1.713666274704446e+01
1	 3.795946932426400e-01	 1.062817641107721e+00	-1.731880548189448e+01
1	 3.556168859140899e-01	 1.071078941927494e+00	-1.747250936929747e+01
1	 3.315877582745068e-01	 1.078759949177871e+00	-1.759813145542518e+01
1	 3.075270493917571e-01	 1.085863980100710e+00	-1.769614795244200e+01
1	 2.834541153299014e-01	 1.092395182106868e+00	-1.776714820220673e+01
1	 2.593878896491359e-01	 1.098358498893291e+00	-1.781182814317731e+01
1	 2.353468468810937e-01	 1.103759634635586e+00	-1.783098335485973e+01
1	 4.805944115770426e-01	 1.036895105852327e+00	-1.630757806915780e+01
1	 4.567270547025761e-01	 1.047627245962180e+00	-1.658621073141753e+01
1	 4.327247925665375e-01	 1.057767319819363e+00	-1.683642092530102e+01
1	 4.086087094294868e-01	 1.067315029200826e+00	-1.705810557780455e+01
1	 3.843996893596354e-01	 1.076271028969845e+00	-1.725129010604396e+01
1	 3.601183654826226e-01	 1.084636903217715e+00	-1.741612498173452e+01
1	 3.357850716703866e-01	 1.092415138407971e+00	-1.755288159791771e+01
1	 3.114197968524123e-01	 1.099609093772871e+00	-1.766194749831881e+01
1	 2.870421421062293e-01	 1.106222969222145e+00	-1.774382103350313e+01
1	 2.626712806573530e-01	 1.112261771031180e+00	-1.779910551079656e+01
1	 2.383259208922468e-01	 1.117731275580340e+00	-1.782850290677056e+01
1	 2.085351807807160e-01	 9.780148661327976e-01	-1.726689929770606e+01
1	 1.872712384039293e-01	 9.823082424914590e-01	-1.714440787276040e+01
1	 1.660610135851267e-01	 9.861154799348201e-01	-1.701219847162687e+01
1	 1.449194890231617e-01	 9.894434504817674e-01	-1.687013753655578e+01
1	 1.238611386139843e-01	 9.922995607885994e-01	-1.671814044679593e+01
1	 1.028999088485995e-01	 9.946917154369739e-01	-1.655617122422598e+01
1	 8.204920293574133e-02	 9.966282799005903e-01	-1.638424190007600e+01
1	 6.132186759777736e-02	 9.981180433968323e-01	-1.620241156580487e+01
1	 4.073018247306839e-02	 9.991701818187483e-01	-1.601078513298513e+01
1	 2.028585204427963e-02	 9.997942209309062e-01	-1.580951182841888e+01
1	 0.000000000000000e+00	 1.000000000000000e+00	-1.559878345165476e+01
1	 2.115142547918692e-01	 9.919865070775520e-01	-1.736590133369599e+01
1	 1.899465418096997e-01	 9.963412173841937e-01	-1.725972448736631e+01
1	 1.684333137792000e-01	 1.000202843933889e+00	-1.714154257879864e+01
1	 1.469897674377783e-01	 1.003578356917221e+00	-1.701132901558299e+01
1	 1.256305834513270e-01	 1.006475268799865e+00	-1.686911294739132e+01
1	 1.043699075464366e-01	 1.008901597086073e+00	-1.671497784977423e+01
1	 8.322133440625193e-02	 1.010865826756313e+00	-1.654905979797196e+01
1	 6.219789427774560e-02	 1.012376872588216e+00	-1.637154546090572e+01
1	 4.131204222268364e-02	 1.013444041559016e+00	-1.618266984644465e+01
1	 2.057564993062649e-02	 1.014076995515633e+00	-1.598271382955713e+01
1	 0.000000000000000e+00	 1.014285714285714e+00	-1.577200149505171e+01
1	 2.144933288030222e-01	 1.005958148022306e+00	-1.745923525540518e+01
1	 1.926218452154701e-01	 1.010374192276929e+00	-1.736843676671016e+01
1	 1.708056139732731e-01	 1.014290207932958e+00	-1.726356761156500e+01
1	 1.490600458523949e-01	 1.017713263352675e+00	-1.714467833843576e+01
1	 1.274000282886696e-01	 1.020650976811131e+00	-1.701188184245179e+01
1	 1.058399062442738e-01	 1.023111478735173e+00	-1.686535104092146e+01
1	 8.439346587676252e-02	 1.025103373612036e+00	-1.670531625555293e+01
1	 6.307392095771386e-02	 1.026635701779599e+00	-1.653206233770665e+01
1	 4.189390197229891e-02	 1.027717901299284e+00	-1.634592557329212e+01
1	 2.086544781697334e-02	 1.028359770100361e+00	-1.614729040376112e+01
1	 0.000000000000000e+00	 1.028571428571428e+00	-1.593658599906666e+01
1	 2.174724028141752e-01	 1.019929788967060e+00	-1.754531794312414e+01
1	 1.952971486212406e-01	 1.024407167169664e+00	-1.746902076626494e+01
1	 1.731779141673464e-01	 1.028377571932026e+00	-1.737679944352451e+01
1	 1.511303242670116e-01	 1.031848169788129e+00	-1.726875310856206e+01
1	 1.291694731260122e-01	 1.034826684822397e+00	-1.714504964128816e+01
1	 1.073099049421109e-01	 1.037321360384273e+00	-1.700592264364719e+01
1	 8.556559734727312e-02	 1.039340920467758e+00	-1.685166812684184e+01
1	 6.394994763768209e-02	 1.040894530970983e+00	-1.668264095158364e+01
1	 4.247576172191418e-02	 1.041991761039552e+00	-1.649925106277764e+01
1	 2.115524570332019e-02	 1.042642544685088e+00	-1.630195955939918e+01
1	 0.000000000000000e+00	 1.042857142857143e+00	-1.609127463925287e+01
1	 2.204514768253283e-01	 1.033901429911814e+00	-1.762265185118142e+01
1	 1.979724520270110e-01	 1.038440142062399e+00	-1.756003491688364e+01
1	 1.755502143614197e-01	 1.042464935931095e+00	-1.747984363078402e+01
1	 1.532006026816281e-01	 1.045983076223583e+00	-1.738219835624996e+01
1	 1.309389179633549e-01	 1.049002392833662e+00	-1.726729439324853e+01
1	 1.087799036399480e-01	 1.051531242033373e+00	-1.713539845820207e+01
1	 8.673772881778370e-02	 1.053578467323481e+00	-1.698684486834659e+01
1	 6.482597431765035e-02	 1.055153360162365e+00	-1.682203147654173e+01
1	 4.305762147152944e-02	 1.056265620779820e+00	-1.664141540202899e+01
1	 2.144504358966704e-02	 1.056925319269815e+00	-1.644550860168481e+01
1	 0.000000000000000e+00	 1.057142857142857e+00	-1.623487332491737e+01
1	 2.234305508364814e-01	 1.047873070856569e+00	-1.768981930300828e+01
1	 2.006477554327814e-01	 1.052473116955134e+00	-1.764011453310676e+01
1	 1.779225145554928e-01	 1.056552299930164e+00	-1.757138009979152e+01
1	 1.552708810962447e-01	 1.060117982659036e+00	-1.748373137683901e+01
1	 1.327083628006975e-01	 1.063178100844928e+00	-1.737736465171556e+01
1	 1.102499023377851e-01	 1.065741123682472e+00	-1.725255330882351e+01
1	 8.790986028829428e-02	 1.067816014179204e+00	-1.710964369889504e+01
1	 6.570200099761860e-02	 1.069412189353749e+00	-1.694905074397195e+01
1	 4.363948122114471e-02	 1.070539480520087e+00	-1.677125332686118e+01
1	 2.173484147601390e-02	 1.071208093854542e+00	-1.657678951288646e+01
1	 0.000000000000000e+00	 1.071428571428571e+00	-1.636625165020417e+01
1	 2.264096248476345e-01	 1.061844711801323e+00	-1.774547723659228e+01
1	 2.033230588385518e-01	 1.066506091847870e+00	-1.770796675502563e+01
1	 1.802948147495661e-01	 1.070639663929233e+00	-1.765015825455016e+01
1	 1.573411595108614e-01	 1.074252889094490e+00	-1.757213697644026e+01
1	 1.344778076380401e-01	 1.077353808856194e+00	-1.747407483568362e+01
1	 1.117199010356223e-01	 1.079951005331572e+00	-1.735622650268359e+01
1	 8.908199175880488e-02	 1.082053561034927e+00	-1.721892514158706e+01
1	 6.657802767758685e-02	 1.083671018545132e+00	-1.706257785729751e+01
1	 4.422134097075998e-02	 1.084813340260355e+00	-1.688766090278268e+01
1	 2.202463936236075e-02	 1.085490868439270e+00	-1.669471469725862e+01
1	 0.000000000000000e+00	 1.085714285714286e+00	-1.648433870430242e+01
1	 2.293886988587876e-01	 1.075816352746077e+00	-1.778835235937602e+01
1	 2.059983622443222e-01	 1.080539066740605e+00	-1.776236588428507e+01
1	 1.826671149436393e-01	 1.084727027928302e+00	-1.771499246508896e+01
1	 1.594114379254779e-01	 1.088387795529944e+00	-1.764626308812018e+01
1	 1.362472524753827e-01	 1.091529516867459e+00	-1.755630095277051e+01
1	 1.131898997334594e-01	 1.094160886980671e+00	-1.744531764268609e+01
1	 9.025412322931547e-02	 1.096291107890649e+00	-1.731360891312756e+01
1	 6.745405435755508e-02	 1.097929847736516e+00	-1.716155014833513e+01
1	 4.480320072037522e-02	 1.099087200000623e+00	-1.698959154254844e+01
1	 2.231443724870760e-02	 1.099773643023997e+00	-1.679825305753610e+01
1	 0.000000000000000e+00	 1.100000000000000e+00	-1.658811920813159e+01
1	 2.323677728699406e-01	 1.089787993690832e+00	-1.781723667585646e+01
1	 2.086736656500926e-01	 1.094572041633340e+00	-1.780214907885594e+01
1	 1.850394151377126e-01	 1.098814391927371e+00	-1.776475790297394e+01
1	 1.614817163400945e-01	 1.102522701965398e+00	-1.770501672530068e+01
1	 1.380166973127254e-01	 1.105705224878725e+00	-1.762297665122925e+01
1	 1.146598984312965e-01	 1.108370768629771e+00	-1.751878276235470e+01
1	 9.142625469982607e-02	 1.110528654746372e+00	-1.739267012936526e+01
1	 6.833008103752333e-02	 1.112188676927899e+00	-1.724495944470588e+01
1	 4.538506046999050e-02	 1.113361059740891e+00	-1.707605233005426e+01
1	 2.260423513505445e-02	 1.114056417608724e+00	-1.688642637323658e+01
1	 0.000000000000000e+00	 1.114285714285715e+00	-1.667662994820503e+01
1	 2.353468468810937e-01	 1.103759634635586e+00	-1.783098335485973e+01
1	 2.113489690558631e-01	 1.108605016526075e+00	-1.782621237478637e+01
1	 1.874117153317858e-01	 1.112901755926440e+00	-1.779838669310951e+01
1	 1.635519947547110e-01	 1.116657608400851e+00	-1.774736024249637e+01
1	 1.397861421500680e-01	 1.119880932889991e+00	-1.767308957180600e+01
1	 1.161298971291337e-01	 1.122580650278871e+00	-1.757563075427558e+01
1	 9.259838617033665e-02	 1.124766201602095e+00	-1.745513579901676e+01
1	 6.920610771749158e-02	 1.126447506119282e+00	-1.731184862073359e+01
1	 4.596692021960576e-02	 1.127634919481159e+00	-1.714610062342881e+01
1	 2.289403302140131e-02	 1.128339192193451e+00	-1.695830595402850e+01
1	 0.000000000000000e+00	 1.128571428571429e+00	-1.674895648133931e+01
1	 2.383259208922468e-01	 1.117731275580340e+00	-1.782850290677056e+01
1	 2.140242724616335e-01	 1.122637991418810e+00	-1.783350700632221e+01
1	 1.897840155258591e-01	 1.126989119925509e+00	-1.781486435415495e+01
1	 1.656222731693277e-01	 1.130792514836306e+00	-1.777230787649579e+01
1	 1.415555869874107e-01	 1.134056640901256e+00	-1.770567797321008e+01
1	 1.175998958269708e-01	 1.136790531927970e+00	-1.761492006640513e+01
1	 9.377051764084722e-02	 1.139003748457817e+00	-1.750008158036330e+01
1	 7.008213439745983e-02	 1.140706335310666e+00	-1.736130840702580e+01
1	 4.654877996922101e-02	 1.141908779221426e+00	-1.719884091289464e+01
1	 2.318383090774815e-02	 1.142621966778179e+00	-1.701300954409719e+01
1	 0.000000000000000e+00	 1.142857142857143e+00	-1.680423008651008e+01
1	 1.142857142857143e+00	 0.000000000000000e+00	 1.675672952669871e+01
1	 1.142621966778179e+00	 2.318383090774752e-02	 1.615481142487187e+01
1	 1.141908779221426e+00	 4.654877996922045e-02	 1.554123408975350e+01
1	 1.140706335310665e+00	 7.008213439745935e-02	 1.491613490935450e+01
1	 1.139003748457817e+00	 9.377051764084682e-02	 1.427981979589971e+01
1	 1.136790531927970e+00	 1.175998958269705e-01	 1.363277123153423e+01
1	 1.134056640901256e+00	 1.415555869874104e-01	 1.297565552248250e+01
1	 1.130792514836306e+00	 1.656222731693276e-01	 1.230932914231451e+01
1	 1.126989119925508e+00	 1.897840155258590e-01	 1.163484404557552e+01
1	 1.122637991418810e+00	 2.140242724616336e-01	 1.095345183521929e+01
1	 1.117731275580340e+00	 2.383259208922468e-01	 1.026660667115573e+01
1	 1.157142857142857e+00	 0.000000000000000e+00	 1.617555026284395e+01
1	 1.156904741362905e+00	 2.347362879409436e-02	 1.557837806948311e+01
1	 1.156182638961694e+00	 4.713063971883569e-02	 1.497109065531535e+01
1	 1.154965164502049e+00	 7.095816107742760e-02	 1.435388995422406e+01
1	 1.153241295313540e+00	 9.494264911135741e-02	 1.372713387535439e+01
1	 1.151000413577070e+00	 1.190698945248076e-01	 1.309134336617733e+01
1	 1.148232348912522e+00	 1.433250318247531e-01	 1.244720871808831e+01
1	 1.144927421271759e+00	 1.676925515839441e-01	 1.179559500552721e+01
1	 1.141076483924578e+00	 1.921563157199323e-01	 1.113754655051520e+01
1	 1.136670966311545e+00	 2.166995758674040e-01	 1.047429030688444e+01
1	 1.131702916525094e+00	 2.413049949033999e-01	 9.807238062422153e+00
1	 1.171428571428571e+00	 0.000000000000000e+00	 1.561926107818813e+01
1	 1.171187515947633e+00	 2.376342668044120e-02	 1.502712253964361e+01
1	 1.170456498701963e+00	 4.771249946845098e-02	 1.442630507280640e+01
1	 1.169223993693432e+00	 7.183418775739586e-02	 1.381707210029919e+01
1	 1.167478842169263e+00	 9.611478058186801e-02	 1.319983114064322e+01
1	 1.165210295226170e+00	 1.205398932226448e-01	 1.257513993558792e+01
1	 1.162408056923788e+00	 1.450944766620957e-01	 1.194371185207063e+01
1	 1.159062327707213e+00	 1.697628299985608e-01	 1.130642045962336e+01
1	 1.155163847923646e+00	 1.945286159140055e-01	 1.066430318524778e+01
1	 1.150703941204281e+00	 2.193748792731745e-01	 1.001856395035161e+01
1	 1.145674557469849e+00	 2.442840689145529e-01	 9.370574698358681e+00
1	 1.185714285714286e+00	 0.000000000000000e+00	 1.508597173263164e+01
1	 1.185470290532361e+00	 2.405322456678806e-02	 1.449913523798312e+01
1	 1.184730358442230e+00	 4.829435921806622e-02	 1.390495469596360e+01
1	 1.183482822884816e+00	 7.271021443736410e-02	 1.330375206863690e+01
1	 1.181716389024986e+00	 9.728691205237859e-02	 1.269598218482962e+01
1	 1.179420176875269e+00	 1.220098919204819e-01	 1.208223797735709e+01
1	 1.176583764935054e+00	 1.468639214994384e-01	 1.146325502503392e+01
1	 1.173197234142667e+00	 1.718331084131773e-01	 1.083991530962618e+01
1	 1.169251211922715e+00	 1.969009161080788e-01	 1.021325009939135e+01
1	 1.164736916097015e+00	 2.220501826789449e-01	 9.584441873608789e+00
1	 1.159646198414602e+00	 2.472631429257060e-01	 8.954825206598539e+00
1	 1.200000000000000e+00	 0.000000000000000e+00	 1.457388199750817e+01
1	 1.199753065117088e+00	 2.434302245313489e-02	 1.399259750033946e+01
1	 1.199004218182498e+00	 4.887621896768148e-02	 1.340520843310786e+01
1	 1.197741652076199e+00	 7.358624111733233e-02	 1.281209245072008e+01
1	 1.195953935880709e+00	 9.845904352288920e-02	 1.221374947749788e+01
1	 1.193630058524369e+00	 1.234798906183191e-01	 1.161080609871452e+01
1	 1.190759472946320e+00	 1.486333663367810e-01	 1.100401928517293e+01
1	 1.187332140578121e+00	 1.739033868277940e-01	 1.039427936984359e+01
1	 1.183338575921784e+00	 1.992732163021519e-01	 9.782612197344092e+00
1	 1.178769890989751e+00	 2.247254860847153e-01	 9.170180369977960e+00
1	 1.173617839359357e+00	 2.502422169368591e-01	 8.558283518221010e+00
1	 1.214285714285715e+00	 0.000000000000000e+00	 1.408127636079452e+01
1	 1.214035839701815e+00	 2.463282033948174e-02	 1.350577624674632e+01
1	 1.213278077922765e+00	 4.945807871729672e-02	 1.292532136158026e+01
1	 1.212000481267582e+00	 7.446226779730057e-02	 1.234034230431479e+01
1	 1.210191482736431e+00	 9.963117499339975e-02	 1.175138196025179e+01
1	 1.207839940173469e+00	 1.249498893161562e-01	 1.115909909007902e+01
1	 1.204935180957585e+00	 1.504028111741236e-01	 1.056427127841437e+01
1	 1.201467047013575e+00	 1.759736652424105e-01	 9.967797169204268e+00
1	 1.197425939920853e+00	 2.016455164962253e-01	 9.370697917414883e+00
1	 1.192802865882486e+00	 2.274007894904857e-01	 8.774117789565885e+00
1	 1.187589480304112e+00	 2.532212909480123e-01	 8.179323849901644e+00
1	 1.228571428571429e+00	 0.000000000000000e+00	 1.360651910172440e+01
1	 1.228318614286542e+00	 2.492261822582858e-02	 1.303701900560793e+01
1	 1.227551937663034e+00	 5.003993846691199e-02	 1.246362971791534e+01
1	 1.226259310458965e+00	 7.533829447726881e-02	 1.188683212636073e+01
1	 1.224429029592154e+00	 1.008033064639103e-01	 1.130721001927174e+01
1	 1.222049821822568e+00	 1.264198880139933e-01	 1.072545291440809e+01
1	 1.219110888968851e+00	 1.521722560114662e-01	 1.014235827180470e+01
1	 1.215601953449029e+00	 1.780439436570272e-01	 9.558833025989045e+00
1	 1.211513303919922e+00	 2.040178166902985e-01	 8.975894375200546e+00
1	 1.206835840775221e+00	 2.300760928962561e-01	 8.394669768520885e+00
1	 1.201561121248866e+00	 2.562003649591653e-01	 7.816396036145013e+00
1	 1.242857142857143e+00	 0.000000000000000e+00	 1.314804970508398e+01
1	 1.242601388871269e+00	 2.521241611217542e-02	 1.258474928103407e+01
1	 1.241825797403302e+00	 5.062179821652725e-02	 1.201854623351962e+01
1	 1.240518139650348e+00	 7.621432115723706e-02	 1.144996917255899e+01
1	 1.238666576447877e+00	 1.019754379344209e-01	 1.087964080459190e+01
1	 1.236259703471668e+00	 1.278898867118304e-01	 1.030828004210944e+01
1	 1.233286596980117e+00	 1.539417008488089e-01	 9.736703520112336e+00
1	 1.229736859884482e+00	 1.801142220716437e-01	 9.165826462235970e+00
1	 1.225600667918991e+00	 2.063901168843717e-01	 8.596662841902639e+00
1	 1.220868815667956e+00	 2.327513963020265e-01	 8.030324787306323e+00
1	 1.215532762193620e+00	 2.591794389703184e-01	 7.468021183432524e+00
1	 1.257142857142857e+00	 0.000000000000000e+00	 1.270437858816917e+01
1	 1.256884163455996e+00	 2.550221399852227e-02	 1.214746223603860e+01
1	 1.256099657143569e+00	 5.120365796614251e-02	 1.158855578837201e+01
1	 1.254776968841732e+00	 7.709034783720529e-02	 1.102823309607882e+01
1	 1.252904123303599e+00	 1.031475694049315e-01	 1.046715386851759e+01
1	 1.250469585120767e+00	 1.293598854096676e-01	 9.906065104026817e+00
1	 1.247462304991382e+00	 1.557111456861515e-01	 9.345801948343500e+00
1	 1.243871766319936e+00	 1.821845004862604e-01	 8.787287930799515e+00
1	 1.239688031918060e+00	 2.087624170784449e-01	 8.231534530940856e+00
1	 1.234901790560691e+00	 2.354266997077969e-01	 7.679640031819022e+00
1	 1.229504403138374e+00	 2.621585129814715e-01	 7.132787620678216e+00
1	 1.271428571428571e+00	 0.000000000000000e+00	 1.227408311581310e+01
1	 1.271166938040723e+00	 2.579201188486911e-02	 1.172372066675840e+01
1	 1.270373516883837e+00	 5.178551771575777e-02	 1.117221135773331e+01
1	 1.269035798033115e+00	 7.796637451717355e-02	 1.062017188028410e+01
1	 1.267141670159322e+00	 1.043197008754421e-01	 1.006829709808200e+01
1	 1.264679466769867e+00	 1.308298841075047e-01	 9.517360837482880e+00
1	 1.261638013002648e+00	 1.574805905234942e-01	 8.968216125324378e+00
1	 1.258006672755390e+00	 1.842547789008769e-01	 8.421794830473322e+00
1	 1.253775395917128e+00	 2.111347172725182e-01	 7.879106668614870e+00
1	 1.248934765453427e+00	 2.381020031135674e-01	 7.341237533533493e+00
1	 1.243476044083129e+00	 2.651375869926246e-01	 6.809347122687655e+00
1	 1.285714285714286e+00	 0.000000000000000e+00	 1.185580388107860e+01
1	 1.285449712625451e+00	 2.608180977121596e-02	 1.131215124505754e+01
1	 1.284647376624105e+00	 5.236737746537301e-02	 1.076813022907494e+01
1	 1.283294627224498e+00	 7.884240119714178e-02	 1.022439804261142e+01
1	 1.281379217015045e+00	 1.054918323459527e-01	 9.681682918672390e+00
1	 1.278889348418967e+00	 1.322998828053418e-01	 9.140784302585965e+00
1	 1.275813721013914e+00	 1.592500353608367e-01	 8.602572505711084e+00
1	 1.272141579190844e+00	 1.863250573154935e-01	 8.067987786771281e+00
1	 1.267862759916197e+00	 2.135070174665914e-01	 7.538038826722181e+00
1	 1.262967740346161e+00	 2.407773065193378e-01	 7.013800566969823e+00
1	 1.257447685027883e+00	 2.681166610037777e-01	 6.496411385386151e+00
1	 1.117731275580340e+00	 2.383259208922468e-01	 1.026660667115573e+01
1	 1.112261771031181e+00	 2.626712806573522e-01	 9.568930344378124e+00
1	 1.106222969222145e+00	 2.870421421062286e-01	 8.854905212458148e+00
1	 1.099609093772871e+00	 3.114197968524118e-01	 8.126037198761091e+00
1	 1.092415138407971e+00	 3.357850716703862e-01	 7.383975142058247e+00
1	 1.084636903217716e+00	 3.601183654826223e-01	 6.630508702332884e+00
1	 1.076271028969845e+00	 3.843996893596351e-01	 5.867565201708996e+00
1	 1.067315029200826e+00	 4.086087094294868e-01	 5.097205371696331e+00
1	 1.057767319819363e+00	 4.327247925665375e-01	 4.321617988007786e+00
1	 1.047627245962180e+00	 4.567270547025762e-01	 3.543113385110335e+00
1	 1.036895105852327e+00	 4.805944115770426e-01	 2.764115854306409e+00
1	 1.131702916525094e+00	 2.413049949033999e-01	 9.807238062422153e+00
1	 1.126165043169070e+00	 2.659546716655691e-01	 9.130720693846159e+00
1	 1.120050756337422e+00	 2.906301688825564e-01	 8.438943602673126e+00
1	 1.113354207445032e+00	 3.153125443130670e-01	 7.733366592271561e+00
1	 1.106070327638070e+00	 3.399823850662660e-01	 7.015577367735027e+00
1	 1.098194864507937e+00	 3.646198450511549e-01	 6.287289103340198e+00
1	 1.089724416831968e+00	 3.892046854766306e-01	 5.550337041940068e+00
1	 1.080656467065837e+00	 4.137163182973555e-01	 4.806674104698365e+00
1	 1.070989411317106e+00	 4.381338524736193e-01	 4.058365498887731e+00
1	 1.060722586536707e+00	 4.624361428863585e-01	 3.307582321506312e+00
1	 1.049856294675481e+00	 4.866018417217557e-01	 2.556594167101219e+00
1	 1.145674557469849e+00	 2.442840689145529e-01	 9.370574698358681e+00
1	 1.140068315306960e+00	 2.692380626737860e-01	 8.714390069500325e+00
1	 1.133878543452699e+00	 2.942181956588843e-01	 8.043951960171777e+00
1	 1.127099321117193e+00	 3.192052917737221e-01	 7.360676027693354e+00
1	 1.119725516868170e+00	 3.441796984621457e-01	 6.666091618017789e+00
1	 1.111752825798159e+00	 3.691213246196877e-01	 5.961839014653174e+00
1	 1.103177804694091e+00	 3.940096815936261e-01	 5.249665811467402e+00
1	 1.093997904930847e+00	 4.188239271652240e-01	 4.531422394613433e+00
1	 1.084211502814847e+00	 4.435429123807010e-01	 3.809056527423283e+00
1	 1.073817927111234e+00	 4.681452310701407e-01	 3.084607041317563e+00
1	 1.062817483498635e+00	 4.926092718664688e-01	 2.360196645460650e+00
1	 1.159646198414602e+00	 2.472631429257060e-01	 8.954825206598539e+00
1	 1.153971587444850e+00	 2.725214536820029e-01	 8.318192542799325e+00
1	 1.147706330567976e+00	 2.978062224352123e-01	 7.668235137063679e+00
1	 1.140844434789353e+00	 3.230980392343773e-01	 7.006326460308421e+00
1	 1.133380706098269e+00	 3.483770118580257e-01	 6.333940237233703e+00
1	 1.125310787088380e+00	 3.736228041882206e-01	 5.652647395906722e+00
1	 1.116631192556214e+00	 3.988146777106216e-01	 4.964112228419978e+00
1	 1.107339342795858e+00	 4.239315360330926e-01	 4.270087754327370e+00
1	 1.097433594312590e+00	 4.489519722877827e-01	 3.572410286496480e+00
1	 1.086913267685762e+00	 4.738543192539230e-01	 2.872993207424629e+00
1	 1.075778672321789e+00	 4.986167020111819e-01	 2.173819972845557e+00
1	 1.173617839359357e+00	 2.502422169368591e-01	 8.558283518221010e+00
1	 1.167874859582740e+00	 2.758048446902198e-01	 7.940465324656221e+00
1	 1.161534117683253e+00	 3.013942492115401e-01	 7.310178706786505e+00
1	 1.154589548461515e+00	 3.269907866950325e-01	 6.668756895147207e+00
1	 1.147035895328369e+00	 3.525743252539056e-01	 6.017620696170543e+00
1	 1.138868748378601e+00	 3.781242837567534e-01	 5.358275161038754e+00
1	 1.130084580418337e+00	 4.036196738276170e-01	 4.692305548158740e+00
1	 1.120680780660868e+00	 4.290391449009611e-01	 4.021372577064768e+00
1	 1.110655685810332e+00	 4.543610321948645e-01	 3.347206978852138e+00
1	 1.100008608260289e+00	 4.795634074377051e-01	 2.671603355904256e+00
1	 1.088739861144943e+00	 5.046241321558949e-01	 1.996413371599612e+00
1	 1.187589480304112e+00	 2.532212909480123e-01	 8.179323849901644e+00
1	 1.181778131720630e+00	 2.790882356984368e-01	 7.579623874882254e+00
1	 1.175361904798530e+00	 3.049822759878680e-01	 6.968244215792618e+00
1	 1.168334662133675e+00	 3.308835341556877e-01	 6.346479795826929e+00
1	 1.160691084558469e+00	 3.567716386497853e-01	 5.715701172873128e+00
1	 1.152426709668823e+00	 3.826257633252862e-01	 5.077350945684245e+00
1	 1.143537968280460e+00	 4.084246699446123e-01	 4.432939531674679e+00
1	 1.134022218525878e+00	 4.341467537688297e-01	 3.784040319898473e+00
1	 1.123877777308073e+00	 4.597700921019461e-01	 3.132284209458761e+00
1	 1.113103948834816e+00	 4.852724956214874e-01	 2.479353550547238e+00
1	 1.101701049968098e+00	 5.106315623006080e-01	 1.826975512426757e+00
1	 1.201561121248866e+00	 2.562003649591653e-01	 7.816396036145013e+00
1	 1.195681403858519e+00	 2.823716267066537e-01	 7.234157352832364e+00
1	 1.189189691913806e+00	 3.085703027641959e-01	 6.640964766513370e+00
1	 1.182079775805837e+00	 3.347762816163428e-01	 6.038076813703572e+00
1	 1.174346273788568e+00	 3.609689520456653e-01	 5.426816441756297e+00
1	 1.165984670959044e+00	 3.871272428938189e-01	 4.808567169867265e+00
1	 1.156991356142583e+00	 4.132296660616078e-01	 4.184768695261559e+00
1	 1.147363656390888e+00	 4.392543626366983e-01	 3.556911953525844e+00
1	 1.137099868805816e+00	 4.651791520090278e-01	 2.926533648170131e+00
1	 1.126199289409344e+00	 4.909815838052696e-01	 2.295210270781979e+00
1	 1.114662238791251e+00	 5.166389924453209e-01	 1.664551639486552e+00
1	 1.215532762193620e+00	 2.591794389703184e-01	 7.468021183432524e+00
1	 1.209584675996409e+00	 2.856550177148706e-01	 6.902624381799185e+00
1	 1.203017479029083e+00	 3.121583295405236e-01	 6.326940904946457e+00
1	 1.195824889477997e+00	 3.386690290769980e-01	 5.742194811564998e+00
1	 1.188001463018668e+00	 3.651662654415451e-01	 5.149664046227294e+00
1	 1.179542632249266e+00	 3.916287224623518e-01	 4.550676372231458e+00
1	 1.170444744004706e+00	 4.180346621786034e-01	 3.946604818831806e+00
1	 1.160705094255899e+00	 4.443619715045669e-01	 3.338862656888085e+00
1	 1.150321960303558e+00	 4.705882119161096e-01	 2.728897922547872e+00
1	 1.139294629983871e+00	 4.966906719890518e-01	 2.118187514224117e+00
1	 1.127623427614406e+00	 5.226464225900339e-01	 1.508230893758884e+00
1	 1.229504403138374e+00	 2.621585129814715e-01	 7.132787620678216e+00
1	 1.223487948134299e+00	 2.889384087230874e-01	 6.583649102198395e+00
1	 1.216845266144360e+00	 3.157463563168516e-01	 6.024836788635145e+00
1	 1.209570003150159e+00	 3.425617765376531e-01	 5.457542158436015e+00
1	 1.201656652248768e+00	 3.693635788374249e-01	 4.883000732265777e+00
1	 1.193100593539488e+00	 3.961302020308845e-01	 4.302487794209373e+00
1	 1.183898131866829e+00	 4.228396582955987e-01	 3.717313692301834e+00
1	 1.174046532120909e+00	 4.494695803724356e-01	 3.128818737156265e+00
1	 1.163544051801300e+00	 4.759972718231912e-01	 2.538367722537167e+00
1	 1.152389970558398e+00	 5.023997601728341e-01	 1.947344096779426e+00
1	 1.140584616437560e+00	 5.286538527347471e-01	 1.357143818906298e+00
1	 1.243476044083129e+00	 2.651375869926246e-01	 6.809347122687655e+00
1	 1.237391220272188e+00	 2.922217997313044e-01	 6.275917490831505e+00
1	 1.230673053259637e+00	 3.193343830931795e-01	 5.733376612985930e+00
1	 1.223315116822320e+00	 3.464545239983082e-01	 5.182885274171754e+00
1	 1.215311841478867e+00	 3.735608922333047e-01	 4.625639122436570e+00
1	 1.206658554829709e+00	 4.006316815994174e-01	 4.062864194472571e+00
1	 1.197351519728952e+00	 4.276446544125942e-01	 3.495812081322155e+00
1	 1.187387969985920e+00	 4.545771892403042e-01	 2.925754757359013e+00
1	 1.176766143299042e+00	 4.814063317302731e-01	 2.353979100332844e+00
1	 1.165485311132925e+00	 5.081088483566161e-01	 1.781781134762482e+00
1	 1.153545805260714e+00	 5.346612828794599e-01	 1.210460035280689e+00
1	 1.257447685027883e+00	 2.681166610037777e-01	 6.496411385386151e+00
1	 1.251294492410078e+00	 2.955051907395213e-01	 5.978173925531056e+00
1	 1.244500840374914e+00	 3.229224098695073e-01	 5.451341275831687e+00
1	 1.237060230494480e+00	 3.503472714589634e-01	 4.917045404411560e+00
1	 1.228967030708967e+00	 3.777582056291845e-01	 4.376444611634970e+00
1	 1.220216516119931e+00	 4.051331611679502e-01	 3.830718875751638e+00
1	 1.210804907591075e+00	 4.324496505295896e-01	 3.281064895292126e+00
1	 1.200729407850930e+00	 4.596847981081726e-01	 2.728690855501410e+00
1	 1.189988234796783e+00	 4.868153916373548e-01	 2.174810950254426e+00
1	 1.178580651707452e+00	 5.138179365403983e-01	 1.620639694873820e+00
1	 1.166506994083868e+00	 5.406687130241731e-01	 1.067386068996087e+00
1	 1.036895105852327e+00	 4.805944115770426e-01	 2.764115854306409e+00
1	 1.025572171423283e+00	 5.043056317172395e-01	 1.981077918200586e+00
1	 1.013660705488129e+00	 5.278393914145663e-01	 1.190356381133589e+00
1	 1.001163975251858e+00	 5.511743314392351e-01	 3.943347328076270e-01
1	 9.880862619864225e-01	 5.742891152140104e-01	-4.045808617395685e-01
1	 9.744328667122153e-01	 5.971624881475778e-01	-1.203970814269109e+00
1	 9.602101117561592e-01	 6.197733378105390e-01	-2.001411582482062e+00
1	 9.454253380851545e-01	 6.421007546220170e-01	-2.794485287867540e+00
1	 9.300868983440859e-01	 6.641240927027645e-01	-3.580789411006523e+00
1	 9.142041455595213e-01	 6.858230305416827e-01	-4.357946490950675e+00
1	 8.977874175033295e-01	 7.071776311170301e-01	-5.123613754030183e+00
1	 1.049856294675481e+00	 4.866018417217557e-01	 2.556594167101219e+00
1	 1.038391823566074e+00	 5.106094521137051e-01	 1.801488459309907e+00
1	 1.026331464306731e+00	 5.344373838072483e-01	 1.038301407393282e+00
1	 1.013678524942507e+00	 5.580640105822257e-01	 2.693148929492365e-01
1	 1.000437340261253e+00	 5.814677291541854e-01	-5.031692844892719e-01
1	 9.866132775461184e-01	 6.046270192494226e-01	-1.276838314767739e+00
1	 9.722127381531113e-01	 6.275205045331703e-01	-2.049377473894961e+00
1	 9.572431548112186e-01	 6.501270140547922e-01	-2.818479343986648e+00
1	 9.417129845733868e-01	 6.724256438615492e-01	-3.581853087446917e+00
1	 9.256316973790152e-01	 6.943958184234537e-01	-4.337233704653094e+00
1	 9.090097602221213e-01	 7.160173515059931e-01	-5.082391203446035e+00
1	 1.062817483498635e+00	 4.926092718664688e-01	 2.360196645460650e+00
1	 1.051211475708865e+00	 5.169132725101704e-01	 1.631583941971727e+00
1	 1.039002223125333e+00	 5.410353761999306e-01	 8.945176135787727e-01
1	 1.026193074633155e+00	 5.649536897252161e-01	 1.511816351553625e-01
1	 1.012788418536083e+00	 5.886463430943608e-01	-5.962227560404275e-01
1	 9.987936883800206e-01	 6.120915503512673e-01	-1.345485632432130e+00
1	 9.842153645500634e-01	 6.352676712558024e-01	-2.094397111059971e+00
1	 9.690609715372831e-01	 6.581532734875675e-01	-2.840756187023237e+00
1	 9.533390708026879e-01	 6.807271950203335e-01	-3.582379598786100e+00
1	 9.370592491985095e-01	 7.029686063052251e-01	-4.317110657200896e+00
1	 9.202321029409131e-01	 7.248570718949563e-01	-5.042827969425668e+00
1	 1.075778672321789e+00	 4.986167020111819e-01	 2.173819972845557e+00
1	 1.064031127851656e+00	 5.232170929066360e-01	 1.470354400861185e+00
1	 1.051672981943935e+00	 5.476333685926127e-01	 7.580885897244157e-01
1	 1.038707624323804e+00	 5.718433688682065e-01	 3.911227903606695e-02
1	 1.025139496810914e+00	 5.958249570345360e-01	-6.844700864019126e-01
1	 1.010974099213923e+00	 6.195560814531120e-01	-1.410547602894517e+00
1	 9.962179909470150e-01	 6.430148379784342e-01	-2.137011291339645e+00
1	 9.808787882633476e-01	 6.661795329203426e-01	-2.861762555442096e+00
1	 9.649651570319890e-01	 6.890287461791184e-01	-3.582721650239176e+00
1	 9.484868010180032e-01	 7.115413941869959e-01	-4.297836095320811e+00
1	 9.314544456597045e-01	 7.336967922839188e-01	-5.005088966726380e+00
1	 1.088739861144943e+00	 5.046241321558949e-01	 1.996413371599612e+00
1	 1.076850779994447e+00	 5.295209133031016e-01	 1.316837964240329e+00
1	 1.064343740762536e+00	 5.542313609852947e-01	 6.281415644343626e-01
1	 1.051222174014452e+00	 5.787330480111971e-01	-6.767668054193632e-02
1	 1.037490575085744e+00	 6.030035709747107e-01	-7.686053803440076e-01
1	 1.023154510047826e+00	 6.270206125549570e-01	-1.472628831518911e+00
1	 1.008220617343967e+00	 6.507620047010659e-01	-2.177735059841217e+00
1	 9.926966049894125e-01	 6.742057923531179e-01	-2.881923914447898e+00
1	 9.765912432612902e-01	 6.973302973379030e-01	-3.583215151534763e+00
1	 9.599143528374972e-01	 7.201141820687668e-01	-4.279656444466887e+00
1	 9.426767883784959e-01	 7.425365126728817e-01	-4.969331257021770e+00
1	 1.101701049968098e+00	 5.106315623006080e-01	 1.826975512426757e+00
1	 1.089670432137238e+00	 5.358247336995671e-01	 1.170118024923499e+00
1	 1.077014499581138e+00	 5.608293533779768e-01	 5.038448379078969e-01
1	 1.063736723705100e+00	 5.856227271541875e-01	-1.699318778820732e-01
1	 1.049841653360574e+00	 6.101821849148861e-01	-8.492900788831153e-01
1	 1.035334920881729e+00	 6.344851436568015e-01	-1.532305471652246e+00
1	 1.020223243740919e+00	 6.585091714236978e-01	-2.217059224255164e+00
1	 1.004514421715477e+00	 6.822320517858934e-01	-2.901645707353269e+00
1	 9.882173294905914e-01	 7.056318484966873e-01	-3.584180204884847e+00
1	 9.713419046569913e-01	 7.286869699505379e-01	-4.262806533601210e+00
1	 9.538991310972880e-01	 7.513762330618449e-01	-4.935704510847811e+00
1	 1.114662238791251e+00	 5.166389924453209e-01	 1.664551639486552e+00
1	 1.102490084280030e+00	 5.421285540960327e-01	 1.029320608617549e+00
1	 1.089685258399739e+00	 5.674273457706589e-01	 3.844053940558882e-01
1	 1.076251273395748e+00	 5.925124062971779e-01	-2.683652201109310e-01
1	 1.062192731635404e+00	 6.173607988550611e-01	-9.271548583371166e-01
1	 1.047515331715632e+00	 6.419496747586463e-01	-1.590126878811353e+00
1	 1.032225870137871e+00	 6.662563381463292e-01	-2.255451764007094e+00
1	 1.016332238441541e+00	 6.902583112186688e-01	-2.921314519642345e+00
1	 9.998434157198922e-01	 7.139333996554720e-01	-3.585922024026413e+00
1	 9.827694564764852e-01	 7.372597578323089e-01	-4.247510269408636e+00
1	 9.651214738160794e-01	 7.602159534508075e-01	-4.904351437320210e+00
1	 1.127623427614406e+00	 5.226464225900339e-01	 1.508230893758884e+00
1	 1.115309736422820e+00	 5.484323744924979e-01	 8.936119237552737e-01
1	 1.102356017218341e+00	 5.740253381633409e-01	 2.690666772991269e-01
1	 1.088765823086396e+00	 5.994020854401684e-01	-3.636558829929248e-01
1	 1.074543809910235e+00	 6.245394127952362e-01	-1.002801398411691e+00
1	 1.059695742549534e+00	 6.494142058604907e-01	-1.646617150788123e+00
1	 1.044228496534823e+00	 6.740035048689610e-01	-2.293359142227403e+00
1	 1.028150055167605e+00	 6.982845706514436e-01	-2.941299162754060e+00
1	 1.011469501949193e+00	 7.222349508142566e-01	-3.588731789881028e+00
1	 9.941970082959795e-01	 7.458325457140800e-01	-4.233981264013643e+00
1	 9.763438165348710e-01	 7.690556738397705e-01	-4.875408184216049e+00
1	 1.140584616437560e+00	 5.286538527347471e-01	 1.357143818906298e+00
1	 1.128129388565612e+00	 5.547361948889636e-01	 7.621960783862811e-01
1	 1.115026776036942e+00	 5.806233305560229e-01	 1.571065209483384e-01
1	 1.101280372777045e+00	 6.062917645831590e-01	-4.564521706668340e-01
1	 1.086894888185065e+00	 6.317180267354116e-01	-1.076804029734888e+00
1	 1.071876153383437e+00	 6.568787369623358e-01	-1.702276562747552e+00
1	 1.056231122931775e+00	 6.817506715915930e-01	-2.331207528267701e+00
1	 1.039967871893670e+00	 7.063108300842189e-01	-2.961951683970994e+00
1	 1.023095588178494e+00	 7.305365019730411e-01	-3.592887447873750e+00
1	 1.005624560115473e+00	 7.544053335958513e-01	-4.222423419898834e+00
1	 9.875661592536625e-01	 7.778953942287332e-01	-4.849004710777074e+00
1	 1.153545805260714e+00	 5.346612828794599e-01	 1.210460035280689e+00
1	 1.140949040708403e+00	 5.610400152854291e-01	 6.343129509848656e-01
1	 1.127697534855544e+00	 5.872213229487053e-01	 4.783521524407408e-02
1	 1.113794922467693e+00	 6.131814437261494e-01	-5.473732500067393e-01
1	 1.099245966459895e+00	 6.388966406755867e-01	-1.149711270322356e+00
1	 1.084056564217340e+00	 6.643432680641804e-01	-1.757582905577574e+00
1	 1.068233749328727e+00	 6.894978383142246e-01	-2.369403937800971e+00
1	 1.051785688619735e+00	 7.143370895169940e-01	-2.983608308225963e+00
1	 1.034721674407796e+00	 7.388380531318257e-01	-3.598654451500428e+00
1	 1.017052111934967e+00	 7.629781214776223e-01	-4.213031475390232e+00
1	 9.987885019724543e-01	 7.867351146176962e-01	-4.825265135380230e+00
1	 1.166506994083868e+00	 5.406687130241731e-01	 1.067386068996087e+00
1	 1.153768692851193e+00	 5.673438356818944e-01	 5.092362032042669e-01
1	 1.140368293674146e+00	 5.938193153413874e-01	-5.940629580597245e-02
1	 1.126309472158341e+00	 6.200711228691399e-01	-6.370107693590041e-01
1	 1.111597044734725e+00	 6.460752546157617e-01	-1.222047259611212e+00
1	 1.096236975051242e+00	 6.718077991660252e-01	-1.812992735015543e+00
1	 1.080236375725679e+00	 6.972450050368563e-01	-2.408337296914613e+00
1	 1.063603505345799e+00	 7.223633489497692e-01	-3.006590317121414e+00
1	 1.046347760637097e+00	 7.471396042906104e-01	-3.606286456323820e+00
1	 1.028479663754462e+00	 7.715509093593932e-01	-4.205991513777132e+00
1	 1.010010844691246e+00	 7.955748350066590e-01	-4.804308060030187e+00
1	 8.977874175033295e-01	 7.071776311170301e-01	-5.123613754030183e+00
1	 8.808480167443135e-01	 7.281684011114473e-01	-5.877850240222049e+00
1	 8.633981864501654e-01	 7.487763488613658e-01	-6.620808445438580e+00
1	 8.454510820362036e-01	 7.689830406864669e-01	-7.350400456078241e+00
1	 8.270207387910065e-01	 7.887706552535849e-01	-8.064654946928563e+00
1	 8.081220356417685e-01	 8.081220356417687e-01	-8.761723936261726e+00
1	 7.887706552535849e-01	 8.270207387910065e-01	-9.439888623645729e+00
1	 7.689830406864671e-01	 8.454510820362033e-01	-1.009756426984724e+01
1	 7.487763488613659e-01	 8.633981864501649e-01	-1.073330408893301e+01
1	 7.281684011114475e-01	 8.808480167443136e-01	-1.134580213373362e+01
1	 7.071776311170301e-01	 8.977874175033295e-01	-1.193389516702750e+01
1	 9.090097602221213e-01	 7.160173515059931e-01	-5.082391203446035e+00
1	 8.918586169536173e-01	 7.372705061253405e-01	-5.817631024750725e+00
1	 8.741906637807925e-01	 7.581360532221332e-01	-6.543304371580247e+00
1	 8.560192205616559e-01	 7.785953286950478e-01	-7.257354979311662e+00
1	 8.373584980258939e-01	 7.986302884442549e-01	-7.957830479443203e+00
1	 8.182235610872908e-01	 8.182235610872908e-01	-8.642889283334595e+00
1	 7.986302884442550e-01	 8.373584980258939e-01	-9.310806642385851e+00
1	 7.785953286950478e-01	 8.560192205616561e-01	-9.959979841549726e+00
1	 7.581360532221332e-01	 8.741906637807922e-01	-1.058893249277679e+01
1	 7.372705061253408e-01	 8.918586169536172e-01	-1.119631790506902e+01
1	 7.160173515059931e-01	 9.090097602221212e-01	-1.178092151810277e+01
1	 9.202321029409131e-01	 7.248570718949563e-01	-5.042827969425668e+00
1	 9.028692171629216e-01	 7.463726111392335e-01	-5.760048439497915e+00
1	 8.849831411114194e-01	 7.674957575828999e-01	-6.469290230288090e+00
1	 8.665873590871088e-01	 7.882076167036289e-01	-7.168529851126875e+00
1	 8.476962572607818e-01	 8.084899216349247e-01	-7.855835718673482e+00
1	 8.283250865328130e-01	 8.283250865328130e-01	-8.529375150725670e+00
1	 8.084899216349248e-01	 8.476962572607817e-01	-9.187420625271141e+00
1	 7.882076167036288e-01	 8.665873590871086e-01	-9.828355259419126e+00
1	 7.674957575829000e-01	 8.849831411114192e-01	-1.045067747157571e+01
1	 7.463726111392337e-01	 9.028692171629212e-01	-1.105300479937741e+01
1	 7.248570718949562e-01	 9.202321029409131e-01	-1.163407685531191e+01
1	 9.314544456597045e-01	 7.336967922839188e-01	-5.005088966726380e+00
1	 9.138798173722255e-01	 7.554747161531268e-01	-5.705176013240203e+00
1	 8.957756184420463e-01	 7.768554619436669e-01	-6.398752821315945e+00
1	 8.771554976125614e-01	 7.978199047122099e-01	-7.083829676232771e+00
1	 8.580340164956691e-01	 8.183495548255945e-01	-7.758497467213292e+00
1	 8.384266119783350e-01	 8.384266119783350e-01	-8.420934773313178e+00
1	 8.183495548255947e-01	 8.580340164956692e-01	-9.069414298547882e+00
1	 7.978199047122096e-01	 8.771554976125611e-01	-9.702308608855377e+00
1	 7.768554619436674e-01	 8.957756184420463e-01	-1.031809513129500e+01
1	 7.554747161531271e-01	 9.138798173722255e-01	-1.091536038414738e+01
1	 7.336967922839188e-01	 9.314544456597044e-01	-1.149280341517540e+01
1	 9.426767883784959e-01	 7.425365126728817e-01	-4.969331257021770e+00
1	 9.248904175815291e-01	 7.645768211670195e-01	-5.653083773383813e+00
1	 9.065680957726734e-01	 7.862151663044341e-01	-6.331679573000830e+00
1	 8.877236361380140e-01	 8.074321927207906e-01	-7.003163601971020e+00
1	 8.683717757305567e-01	 8.282091880162644e-01	-7.665650775151915e+00
1	 8.485281374238571e-01	 8.485281374238571e-01	-8.317333136695591e+00
1	 8.282091880162644e-01	 8.683717757305566e-01	-8.956486449117158e+00
1	 8.074321927207909e-01	 8.877236361380137e-01	-9.581476161667993e+00
1	 7.862151663044342e-01	 9.065680957726733e-01	-1.019076271571104e+01
1	 7.645768211670200e-01	 9.248904175815288e-01	-1.078290615222550e+01
1	 7.425365126728817e-01	 9.426767883784960e-01	-1.135656999437948e+01
1	 9.538991310972880e-01	 7.513762330618449e-01	-4.935704510847811e+00
1	 9.359010177908331e-01	 7.736789261809131e-01	-5.603838451927628e+00
1	 9.173605731033008e-01	 7.955748706652011e-01	-6.268058505287367e+00
1	 8.982917746634662e-01	 8.170444807293712e-01	-6.926445051102695e+00
1	 8.787095349654441e-01	 8.380688212069339e-01	-7.577138454927505e+00
1	 8.586296628693793e-01	 8.586296628693794e-01	-8.218346285972478e+00
1	 8.380688212069344e-01	 8.787095349654442e-01	-8.848350038614198e+00
1	 8.170444807293715e-01	 8.982917746634661e-01	-9.465511306287141e+00
1	 7.955748706652015e-01	 9.173605731033002e-01	-1.006827736301078e+01
1	 7.736789261809132e-01	 9.359010177908329e-01	-1.065518611444171e+01
1	 7.513762330618444e-01	 9.538991310972876e-01	-1.122487038741320e+01
1	 9.651214738160794e-01	 7.602159534508075e-01	-4.904351437320210e+00
1	 9.469116180001373e-01	 7.827810311948058e-01	-5.557503677056618e+00
1	 9.281530504339274e-01	 8.049345750259682e-01	-6.207878195332140e+00
1	 9.088599131889189e-01	 8.266567687379524e-01	-6.853591473237056e+00
1	 8.890472942003317e-01	 8.479284543976039e-01	-7.492810630027551e+00
1	 8.687311883149013e-01	 8.687311883149013e-01	-8.123760682750572e+00
1	 8.479284543976038e-01	 8.890472942003317e-01	-8.744731379295871e+00
1	 8.266567687379524e-01	 9.088599131889189e-01	-9.354083552611394e+00
1	 8.049345750259683e-01	 9.281530504339273e-01	-9.950254949139786e+00
1	 7.827810311948061e-01	 9.469116180001369e-01	-1.053176549042482e+01
1	 7.602159534508076e-01	 9.651214738160793e-01	-1.109722193320815e+01
1	 9.763438165348710e-01	 7.690556738397705e-01	-4.875408184216049e+00
1	 9.579222182094410e-01	 7.918831362086990e-01	-5.514140151521999e+00
1	 9.389455277645548e-01	 8.142942793867355e-01	-6.151127745479887e+00
1	 9.194280517143711e-01	 8.362690567465330e-01	-6.784524113403720e+00
1	 8.993850534352196e-01	 8.577880875882739e-01	-7.412524314813681e+00
1	 8.788327137604230e-01	 8.788327137604234e-01	-8.033372606493625e+00
1	 8.577880875882740e-01	 8.993850534352197e-01	-8.645369366763477e+00
1	 8.362690567465331e-01	 9.194280517143714e-01	-9.246877605486526e+00
1	 8.142942793867357e-01	 9.389455277645549e-01	-9.836329010919901e+00
1	 7.918831362086992e-01	 9.579222182094407e-01	-1.041222948970559e+01
1	 7.690556738397704e-01	 9.763438165348709e-01	-1.097316416200933e+01
1	 9.875661592536625e-01	 7.778953942287332e-01	-4.849004710777074e+00
1	 9.689328184187450e-01	 8.009852412225922e-01	-5.473805818858896e+00
1	 9.497380050951819e-01	 8.236539837475026e-01	-6.097796753423347e+00
1	 9.299961902398240e-01	 8.458813447551138e-01	-6.719167796403549e+00
1	 9.097228126701072e-01	 8.676477207789437e-01	-7.336143022994701e+00
1	 8.889342392059456e-01	 8.889342392059458e-01	-7.946987596689908e+00
1	 8.676477207789437e-01	 9.097228126701070e-01	-8.550014765000149e+00
1	 8.458813447551139e-01	 9.299961902398237e-01	-9.143592501356210e+00
1	 8.236539837475026e-01	 9.497380050951817e-01	-9.726149742590048e+00
1	 8.009852412225925e-01	 9.689328184187448e-01	-1.029618217592713e+01
1	 7.778953942287333e-01	 9.875661592536625e-01	-1.085225753450521e+01
1	 9.987885019724543e-01	 7.867351146176962e-01	-4.825265135380230e+00
1	 9.799434186280490e-01	 8.100873462364852e-01	-5.436556018398830e+00
1	 9.605304824258090e-01	 8.330136881082696e-01	-6.047875284374646e+00
1	 9.405643287652766e-01	 8.554936327636948e-01	-6.657450725698149e+00
1	 9.200605719049948e-01	 8.775073539696137e-01	-7.263536402494791e+00
1	 8.990357646514675e-01	 8.990357646514676e-01	-7.864419932625736e+00
1	 8.775073539696135e-01	 9.200605719049947e-01	-8.458429539607769e+00
1	 8.554936327636949e-01	 9.405643287652764e-01	-9.043940803116106e+00
1	 8.330136881082698e-01	 9.605304824258089e-01	-9.619383059996258e+00
1	 8.100873462364852e-01	 9.799434186280486e-01	-1.018324540762483e+01
1	 7.867351146176962e-01	 9.987885019724542e-01	-1.073408226595997e+01
1	 1.010010844691246e+00	 7.955748350066590e-01	-4.804308060030187e+00
1	 9.909540188373530e-01	 8.191894512503783e-01	-5.402443629947291e+00
1	 9.713229597564360e-01	 8.423733924690369e-01	-6.001353845092088e+00
1	 9.511324672907289e-01	 8.651059207722755e-01	-6.599304295706429e+00
1	 9.303983311398824e-01	 8.873669871602835e-01	-7.194579894663735e+00
1	 9.091372900969897e-01	 9.091372900969898e-01	-7.785492147841632e+00
1	 8.873669871602835e-01	 9.303983311398824e-01	-8.370386235494706e+00
1	 8.651059207722754e-01	 9.511324672907289e-01	-8.947647848644287e+00
1	 8.423733924690366e-01	 9.713229597564357e-01	-9.515709727169469e+00
1	 8.191894512503786e-01	 9.909540188373525e-01	-1.007305784962165e+01
1	 7.955748350066588e-01	 1.010010844691246e+00	-1.061823722873723e+01
1	 7.071776311170301e-01	 8.977874175033295e-01	-1.193389516702750e+01
1	 6.858230305416826e-01	 9.142041455595212e-01	-1.249673748374623e+01
1	 6.641240927027647e-01	 9.300868983440858e-01	-1.303347049196728e+01
1	 6.421007546220172e-01	 9.454253380851544e-01	-1.354314288654056e+01
1	 6.197733378105391e-01	 9.602101117561590e-01	-1.402496854787241e+01
1	 5.971624881475781e-01	 9.744328667122151e-01	-1.447832604698556e+01
1	 5.742891152140108e-01	 9.880862619864224e-01	-1.490275703345308e+01
1	 5.511743314392359e-01	 1.001163975251858e+00	-1.529796354899293e+01
1	 5.278393914145669e-01	 1.013660705488129e+00	-1.566380431985852e+01
1	 5.043056317172403e-01	 1.025572171423283e+00	-1.600029009049607e+01
1	 4.805944115770426e-01	 1.036895105852327e+00	-1.630757806915780e+01
1	 7.160173515059931e-01	 9.090097602221212e-01	-1.178092151810277e+01
1	 6.943958184234538e-01	 9.256316973790153e-01	-1.234188037824663e+01
1	 6.724256438615493e-01	 9.417129845733867e-01	-1.287831736768852e+01
1	 6.501270140547926e-01	 9.572431548112185e-01	-1.338920843233577e+01
1	 6.275205045331708e-01	 9.722127381531109e-01	-1.387367949865079e+01
1	 6.046270192494229e-01	 9.866132775461179e-01	-1.433100697001060e+01
1	 5.814677291541860e-01	 1.000437340261253e+00	-1.476061719493000e+01
1	 5.580640105822263e-01	 1.013678524942507e+00	-1.516208493791036e+01
1	 5.344373838072489e-01	 1.026331464306731e+00	-1.553513089345975e+01
1	 5.106094521137058e-01	 1.038391823566074e+00	-1.587961829278891e+01
1	 4.866018417217555e-01	 1.049856294675481e+00	-1.619554866070939e+01
1	 7.248570718949562e-01	 9.202321029409131e-01	-1.163407685531191e+01
1	 7.029686063052248e-01	 9.370592491985094e-01	-1.219300032762265e+01
1	 6.807271950203336e-01	 9.533390708026878e-01	-1.272886940199594e+01
1	 6.581532734875676e-01	 9.690609715372829e-01	-1.324059849418526e+01
1	 6.352676712558026e-01	 9.842153645500631e-01	-1.372723797992754e+01
1	 6.120915503512675e-01	 9.987936883800205e-01	-1.418797557733623e+01
1	 5.886463430943613e-01	 1.012788418536083e+00	-1.462213678377679e+01
1	 5.649536897252169e-01	 1.026193074633155e+00	-1.502918438712191e+01
1	 5.410353761999313e-01	 1.039002223125333e+00	-1.540871708052921e+01
1	 5.169132725101713e-01	 1.051211475708865e+00	-1.576046721848064e+01
1	 4.926092718664686e-01	 1.062817483498635e+00	-1.608429775965187e+01
1	 7.336967922839188e-01	 9.314544456597044e-01	-1.149280341517540e+01
1	 7.115413941869959e-01	 9.484868010180033e-01	-1.204949000657678e+01
1	 6.890287461791182e-01	 9.649651570319890e-01	-1.258447793794948e+01
1	 6.661795329203429e-01	 9.808787882633474e-01	-1.309663089571597e+01
1	 6.430148379784343e-01	 9.962179909470147e-01	-1.358493565927619e+01
1	 6.195560814531126e-01	 1.010974099213923e+00	-1.404850426660191e+01
1	 5.958249570345363e-01	 1.025139496810913e+00	-1.448657531070498e+01
1	 5.718433688682071e-01	 1.038707624323803e+00	-1.489851437713942e+01
1	 5.476333685926134e-01	 1.051672981943934e+00	-1.528381364144636e+01
1	 5.232170929066368e-01	 1.064031127851656e+00	-1.564209065369266e+01
1	 4.986167020111817e-01	 1.075778672321789e+00	-1.597308634488767e+01
1	 7.425365126728817e-01	 9.426767883784960e-01	-1.135656999437948e+01
1	 7.201141820687668e-01	 9.599143528374969e-01	-1.191077101006372e+01
1	 6.973302973379030e-01	 9.765912432612899e-01	-1.244452520703478e+01
1	 6.742057923531185e-01	 9.926966049894121e-01	-1.295665594514428e+01
1	 6.507620047010662e-01	 1.008220617343967e+00	-1.344609793438551e+01
1	 6.270206125549576e-01	 1.023154510047826e+00	-1.391190008317869e+01
1	 6.030035709747114e-01	 1.037490575085743e+00	-1.435322754782094e+01
1	 5.787330480111974e-01	 1.051222174014451e+00	-1.476936298464071e+01
1	 5.542313609852955e-01	 1.064343740762536e+00	-1.515970701466794e+01
1	 5.295209133031024e-01	 1.076850779994447e+00	-1.552377791854056e+01
1	 5.046241321558946e-01	 1.088739861144943e+00	-1.586121058680000e+01
1	 7.513762330618444e-01	 9.538991310972876e-01	-1.122487038741321e+01
1	 7.286869699505378e-01	 9.713419046569913e-01	-1.177629215209916e+01
1	 7.056318484966875e-01	 9.882173294905910e-01	-1.230842251219696e+01
1	 6.822320517858933e-01	 1.004514421715476e+00	-1.282005452441735e+01
1	 6.585091714236979e-01	 1.020223243740919e+00	-1.331008194893561e+01
1	 6.344851436568016e-01	 1.035334920881729e+00	-1.377750268206702e+01
1	 6.101821849148866e-01	 1.049841653360574e+00	-1.422142145442596e+01
1	 5.856227271541884e-01	 1.063736723705099e+00	-1.464105178857772e+01
1	 5.608293533779776e-01	 1.077014499581137e+00	-1.503571721801747e+01
1	 5.358247336995680e-01	 1.089670432137238e+00	-1.540485177689912e+01
1	 5.106315623006079e-01	 1.101701049968098e+00	-1.574799977716593e+01
1	 7.602159534508076e-01	 9.651214738160793e-01	-1.109722193320816e+01
1	 7.372597578323089e-01	 9.827694564764853e-01	-1.164552788325619e+01
1	 7.139333996554723e-01	 9.998434157198924e-01	-1.217560853763957e+01
1	 6.902583112186687e-01	 1.016332238441541e+00	-1.268623631167092e+01
1	 6.662563381463297e-01	 1.032225870137871e+00	-1.317627474690053e+01
1	 6.419496747586466e-01	 1.047515331715632e+00	-1.364468243198841e+01
1	 6.173607988550613e-01	 1.062192731635404e+00	-1.409051624752836e+01
1	 5.925124062971786e-01	 1.076251273395748e+00	-1.451293392236961e+01
1	 5.674273457706597e-01	 1.089685258399739e+00	-1.491119589639629e+01
1	 5.421285540960333e-01	 1.102490084280029e+00	-1.528466649199796e+01
1	 5.166389924453209e-01	 1.114662238791251e+00	-1.563281440349374e+01
1	 7.690556738397704e-01	 9.763438165348709e-01	-1.097316416200933e+01
1	 7.458325457140800e-01	 9.941970082959795e-01	-1.151797681729998e+01
1	 7.222349508142566e-01	 1.011469501949193e+00	-1.204554777518889e+01
1	 6.982845706514438e-01	 1.028150055167605e+00	-1.255463812627585e+01
1	 6.740035048689613e-01	 1.044228496534823e+00	-1.304409155414038e+01
1	 6.494142058604913e-01	 1.059695742549534e+00	-1.351283865022887e+01
1	 6.245394127952368e-01	 1.074543809910234e+00	-1.395990060542324e+01
1	 5.994020854401689e-01	 1.088765823086396e+00	-1.438439226042788e+01
1	 5.740253381633417e-01	 1.102356017218341e+00	-1.478552450413572e+01
1	 5.484323744924988e-01	 1.115309736422820e+00	-1.516260601611341e+01
1	 5.226464225900338e-01	 1.127623427614406e+00	-1.551504435616483e+01
1	 7.778953942287333e-01	 9.875661592536625e-01	-1.085225753450521e+01
1	 7.544053335958513e-01	 1.005624560115473e+00	-1.139316035827908e+01
1	 7.305365019730412e-01	 1.023095588178494e+00	-1.191772905795194e+01
1	 7.063108300842189e-01	 1.039967871893670e+00	-1.242472238672254e+01
1	 6.817506715915930e-01	 1.056231122931775e+00	-1.291297417715823e+01
1	 6.568787369623360e-01	 1.071876153383437e+00	-1.338139795783408e+01
1	 6.317180267354119e-01	 1.086894888185064e+00	-1.382899099375608e+01
1	 6.062917645831596e-01	 1.101280372777044e+00	-1.425483772832701e+01
1	 5.806233305560238e-01	 1.115026776036942e+00	-1.465811261127921e+01
1	 5.547361948889644e-01	 1.128129388565611e+00	-1.503808230369126e+01
1	 5.286538527347469e-01	 1.140584616437560e+00	-1.539410725781612e+01
1	 7.867351146176962e-01	 9.987885019724542e-01	-1.073408226595997e+01
1	 7.629781214776221e-01	 1.017052111934967e+00	-1.127062142017234e+01
1	 7.388380531318257e-01	 1.034721674407795e+00	-1.179166419282858e+01
1	 7.143370895169943e-01	 1.051785688619734e+00	-1.229597567246809e+01
1	 6.894978383142247e-01	 1.068233749328727e+00	-1.278238950980518e+01
1	 6.643432680641808e-01	 1.084056564217339e+00	-1.324981274569044e+01
1	 6.388966406755870e-01	 1.099245966459895e+00	-1.369723010443542e+01
1	 6.131814437261499e-01	 1.113794922467692e+00	-1.412370772689658e+01
1	 5.872213229487060e-01	 1.127697534855544e+00	-1.452839632404802e+01
1	 5.610400152854299e-01	 1.140949040708402e+00	-1.491053373819089e+01
1	 5.346612828794600e-01	 1.153545805260714e+00	-1.526944690534797e+01
1	 7.955748350066588e-01	 1.010010844691246e+00	-1.061823722873723e+01
1	 7.715509093593930e-01	 1.028479663754462e+00	-1.114992323189309e+01
1	 7.471396042906104e-01	 1.046347760637097e+00	-1.166688668418982e+01
1	 7.223633489497694e-01	 1.063603505345799e+00	-1.216790738166037e+01
1	 6.972450050368567e-01	 1.080236375725679e+00	-1.265182813953899e+01
1	 6.718077991660253e-01	 1.096236975051242e+00	-1.311755974286718e+01
1	 6.460752546157621e-01	 1.111597044734725e+00	-1.356408539861839e+01
1	 6.200711228691402e-01	 1.126309472158340e+00	-1.399046466137395e+01
1	 5.938193153413878e-01	 1.140368293674145e+00	-1.439583681060925e+01
1	 5.673438356818953e-01	 1.153768692851193e+00	-1.477942366380669e+01
1	 5.406687130241730e-01	 1.166506994083868e+00	-1.514053181579850e+01
1	 4.805944115770426e-01	 1.036895105852327e+00	-1.630757806915780e+01
1	 4.567270547025761e-01	 1.047627245962180e+00	-1.658621073141753e+01
1	 4.327247925665375e-01	 1.057767319819363e+00	-1.683642092530102e+01
1	 4.086087094294868e-01	 1.067315029200826e+00	-1.705810557780455e+01
1	 3.843996893596354e-01	 1.076271028969845e+00	-1.725129010604396e+01
1	 3.601183654826226e-01	 1.084636903217715e+00	-1.741612498173452e+01
1	 3.357850716703866e-01	 1.092415138407971e+00	-1.755288159791771e+01
1	 3.114197968524123e-01	 1.099609093772871e+00	-1.766194749831881e+01
1	 2.870421421062293e-01	 1.106222969222145e+00	-1.774382103350313e+01
1	 2.626712806573530e-01	 1.112261771031180e+00	-1.779910551079656e+01
1	 2.383259208922468e-01	 1.117731275580340e+00	-1.782850290677056e+01
1	 4.866018417217555e-01	 1.049856294675481e+00	-1.619554866070939e+01
1	 4.624361428863585e-01	 1.060722586536707e+00	-1.648329288601463e+01
1	 4.381338524736192e-01	 1.070989411317105e+00	-1.674297869273184e+01
1	 4.137163182973556e-01	 1.080656467065837e+00	-1.697443760732207e+01
1	 3.892046854766309e-01	 1.089724416831968e+00	-1.717762470051223e+01
1	 3.646198450511555e-01	 1.098194864507938e+00	-1.735261578857876e+01
1	 3.399823850662663e-01	 1.106070327638070e+00	-1.749960394669852e+01
1	 3.153125443130676e-01	 1.113354207445032e+00	-1.761889538859979e+01
1	 2.906301688825571e-01	 1.120050756337422e+00	-1.771090477077117e+01
1	 2.659546716655698e-01	 1.126165043169070e+00	-1.777614998259492e+01
1	 2.413049949034000e-01	 1.131702916525094e+00	-1.781524648596492e+01
1	 4.926092718664686e-01	 1.062817483498635e+00	-1.608429775965187e+01
1	 4.681452310701406e-01	 1.073817927111234e+00	-1.638042541264348e+01
1	 4.435429123807010e-01	 1.084211502814847e+00	-1.664888113364391e+01
1	 4.188239271652241e-01	 1.093997904930847e+00	-1.688943482124641e+01
1	 3.940096815936264e-01	 1.103177804694091e+00	-1.710197488840273e+01
1	 3.691213246196882e-01	 1.111752825798159e+00	-1.728650608638918e+01
1	 3.441796984621464e-01	 1.119725516868170e+00	-1.744314665165635e+01
1	 3.192052917737226e-01	 1.127099321117193e+00	-1.757212482370715e+01
1	 2.942181956588850e-01	 1.133878543452699e+00	-1.767377478640613e+01
1	 2.692380626737867e-01	 1.140068315306960e+00	-1.774853208852290e+01
1	 2.442840689145530e-01	 1.145674557469848e+00	-1.779692860185659e+01
1	 4.986167020111817e-01	 1.075778672321789e+00	-1.597308634488767e+01
1	 4.738543192539229e-01	 1.086913267685762e+00	-1.627687869463417e+01
1	 4.489519722877828e-01	 1.097433594312590e+00	-1.655340862401945e+01
1	 4.239315360330927e-01	 1.107339342795858e+00	-1.680238808417617e+01
1	 3.988146777106218e-01	 1.116631192556214e+00	-1.702364242415954e+01
1	 3.736228041882210e-01	 1.125310787088380e+00	-1.721710882395855e+01
1	 3.483770118580260e-01	 1.133380706098269e+00	-1.738283406219732e+01
1	 3.230980392343779e-01	 1.140844434789353e+00	-1.752097166064779e+01
1	 2.978062224352129e-01	 1.147706330567976e+00	-1.763177845214668e+01
1	 2.725214536820036e-01	 1.153971587444850e+00	-1.771561062219368e+01
1	 2.472631429257061e-01	 1.159646198414602e+00	-1.777291927738789e+01
1	 5.046241321558946e-01	 1.088739861144943e+00	-1.586121058680000e+01
1	 4.795634074377050e-01	 1.100008608260289e+00	-1.617195785896774e+01
1	 4.543610321948645e-01	 1.110655685810332e+00	-1.645587580765124e+01
1	 4.290391449009613e-01	 1.120680780660868e+00	-1.671262202906251e+01
1	 4.036196738276170e-01	 1.130084580418337e+00	-1.694196231201546e+01
1	 3.781242837567537e-01	 1.138868748378601e+00	-1.714376966680375e+01
1	 3.525743252539059e-01	 1.147035895328369e+00	-1.731802270156544e+01
1	 3.269907866950331e-01	 1.154589548461515e+00	-1.746480338228539e+01
1	 3.013942492115408e-01	 1.161534117683253e+00	-1.758429421726742e+01
1	 2.758048446902206e-01	 1.167874859582740e+00	-1.767677491085794e+01
1	 2.502422169368592e-01	 1.173617839359357e+00	-1.774261853440861e+01
1	 5.106315623006079e-01	 1.101701049968098e+00	-1.574799977716594e+01
1	 4.852724956214873e-01	 1.113103948834816e+00	-1.606500073253211e+01
1	 4.597700921019461e-01	 1.123877777308073e+00	-1.635562958038865e+01
1	 4.341467537688298e-01	 1.134022218525878e+00	-1.661949307083528e+01
1	 4.084246699446127e-01	 1.143537968280460e+00	-1.685630085012138e+01
1	 3.826257633252865e-01	 1.152426709668823e+00	-1.706586507265255e+01
1	 3.567716386497858e-01	 1.160691084558469e+00	-1.724809937426365e+01
1	 3.308835341556882e-01	 1.168334662133675e+00	-1.740301723699582e+01
1	 3.049822759878686e-01	 1.175361904798529e+00	-1.753072978048912e+01
1	 2.790882356984375e-01	 1.181778131720629e+00	-1.763144301930764e+01
1	 2.532212909480123e-01	 1.187589480304112e+00	-1.770545462903468e+01
1	 5.166389924453209e-01	 1.114662238791251e+00	-1.563281440349373e+01
1	 4.909815838052695e-01	 1.126199289409344e+00	-1.595537594096446e+01
1	 4.651791520090278e-01	 1.137099868805816e+00	-1.625204721501852e+01
1	 4.392543626366984e-01	 1.147363656390888e+00	-1.652238755861380e+01
1	 4.132296660616081e-01	 1.156991356142583e+00	-1.676605381113307e+01
1	 3.871272428938194e-01	 1.165984670959045e+00	-1.698280050119897e+01
1	 3.609689520456657e-01	 1.174346273788569e+00	-1.717247940551590e+01
1	 3.347762816163433e-01	 1.182079775805836e+00	-1.733503850811449e+01
1	 3.085703027641964e-01	 1.189189691913806e+00	-1.747052038942910e+01
1	 2.823716267066544e-01	 1.195681403858519e+00	-1.757906007908843e+01
1	 2.562003649591654e-01	 1.201561121248866e+00	-1.766088241012049e+01
1	 5.226464225900338e-01	 1.127623427614406e+00	-1.551504435616483e+01
1	 4.966906719890516e-01	 1.139294629983871e+00	-1.584248113860836e+01
1	 4.705882119161095e-01	 1.150321960303558e+00	-1.614453461546369e+01
1	 4.443619715045670e-01	 1.160705094255899e+00	-1.642072005535074e+01
1	 4.180346621786036e-01	 1.170444744004706e+00	-1.667064474827365e+01
1	 3.916287224623521e-01	 1.179542632249266e+00	-1.689400874732342e+01
1	 3.651662654415456e-01	 1.188001463018668e+00	-1.709060500214483e+01
1	 3.386690290769984e-01	 1.195824889477997e+00	-1.726031890273127e+01
1	 3.121583295405244e-01	 1.203017479029083e+00	-1.740312725733158e+01
1	 2.856550177148712e-01	 1.209584675996409e+00	-1.751909673293934e+01
1	 2.591794389703184e-01	 1.215532762193620e+00	-1.760838179094102e+01
1	 5.286538527347469e-01	 1.140584616437560e+00	-1.539410725781612e+01
1	 5.023997601728338e-01	 1.152389970558398e+00	-1.572574135915544e+01
1	 4.759972718231914e-01	 1.163544051801300e+00	-1.603252469001433e+01
1	 4.494695803724357e-01	 1.174046532120909e+00	-1.631393173477386e+01
1	 4.228396582955990e-01	 1.183898131866829e+00	-1.656952341689270e+01
1	 3.961302020308851e-01	 1.193100593539487e+00	-1.679894838795729e+01
1	 3.693635788374253e-01	 1.201656652248768e+00	-1.700194372520857e+01
1	 3.425617765376536e-01	 1.209570003150158e+00	-1.717833505034105e+01
1	 3.157463563168522e-01	 1.216845266144360e+00	-1.732803608774775e+01
1	 2.889384087230882e-01	 1.223487948134299e+00	-1.745104768529306e+01
1	 2.621585129814716e-01	 1.229504403138374e+00	-1.754745632507704e+01
1	 5.346612828794600e-01	 1.153545805260714e+00	-1.526944690534797e+01
1	 5.081088483566161e-01	 1.165485311132925e+00	-1.560460747747959e+01
1	 4.814063317302731e-01	 1.176766143299042e+00	-1.591547583422832e+01
1	 4.545771892403043e-01	 1.187387969985920e+00	-1.620148888639829e+01
1	 4.276446544125944e-01	 1.197351519728952e+00	-1.646216430243619e+01
1	 4.006316815994176e-01	 1.206658554829709e+00	-1.669710233365294e+01
1	 3.735608922333051e-01	 1.215311841478867e+00	-1.690598706560536e+01
1	 3.464545239983086e-01	 1.223315116822319e+00	-1.708858710270864e+01
1	 3.193343830931801e-01	 1.230673053259636e+00	-1.724475569867599e+01
1	 2.922217997313052e-01	 1.237391220272188e+00	-1.737443035049543e+01
1	 2.651375869926246e-01	 1.243476044083129e+00	-1.747763187830791e+01
1	 5.406687130241730e-01	 1.166506994083868e+00	-1.514053181579849e+01
1	 5.138179365403981e-01	 1.178580651707452e+00	-1.547855477401611e+01
1	 4.868153916373548e-01	 1.189988234796784e+00	-1.579287051497227e+01
1	 4.596847981081728e-01	 1.200729407850930e+00	-1.608288152020532e+01
1	 4.324496505295898e-01	 1.210804907591075e+00	-1.634806524655267e+01
1	 4.051331611679505e-01	 1.220216516119930e+00	-1.658797647671608e+01
1	 3.777582056291850e-01	 1.228967030708967e+00	-1.680224911463774e+01
1	 3.503472714589639e-01	 1.237060230494480e+00	-1.699059742707609e+01
1	 3.229224098695080e-01	 1.244500840374913e+00	-1.715281673842593e+01
1	 2.955051907395220e-01	 1.251294492410078e+00	-1.728878359114366e+01
1	 2.681166610037777e-01	 1.257447685027883e+00	-1.739845538904493e+01
1	 2.383259208922468e-01	 1.117731275580340e+00	-1.782850290677056e+01
1	 2.140242724616335e-01	 1.122637991418810e+00	-1.783350700632221e+01
1	 1.897840155258591e-01	 1.126989119925509e+00	-1.781486435415495e+01
1	 1.656222731693277e-01	 1.130792514836306e+00	-1.777230787649579e+01
1	 1.415555869874107e-01	 1.134056640901256e+00	-1.770567797321008e+01
1	 1.175998958269708e-01	 1.136790531927970e+00	-1.761492006640513e+01
1	 9.377051764084722e-02	 1.139003748457817e+00	-1.750008158036330e+01
1	 7.008213439745983e-02	 1.140706335310666e+00	-1.736130840702580e+01
1	 4.654877996922101e-02	 1.141908779221426e+00	-1.719884091289464e+01
1	 2.318383090774815e-02	 1.142621966778179e+00	-1.701300954409719e+01
1	 0.000000000000000e+00	 1.142857142857143e+00	-1.680423008651008e+01
1	 2.413049949034000e-01	 1.131702916525094e+00	-1.781524648596492e+01
1	 2.166995758674038e-01	 1.136670966311545e+00	-1.782959365086703e+01
1	 1.921563157199323e-01	 1.141076483924578e+00	-1.781981469688322e+01
1	 1.676925515839443e-01	 1.144927421271759e+00	-1.778551510594360e+01
1	 1.433250318247533e-01	 1.148232348912522e+00	-1.772641231240169e+01
1	 1.190698945248080e-01	 1.151000413577070e+00	-1.764233397146512e+01
1	 9.494264911135783e-02	 1.153241295313540e+00	-1.753321558411366e+01
1	 7.095816107742810e-02	 1.154965164502049e+00	-1.739909753157239e+01
1	 4.713063971883628e-02	 1.156182638961694e+00	-1.724012157490109e+01
1	 2.347362879409501e-02	 1.156904741362906e+00	-1.705652687692772e+01
1	 0.000000000000000e+00	 1.157142857142857e+00	-1.684864560463401e+01
1	 2.442840689145530e-01	 1.145674557469848e+00	-1.779692860185659e+01
1	 2.193748792731743e-01	 1.150703941204281e+00	-1.782027736517120e+01
1	 1.945286159140055e-01	 1.155163847923646e+00	-1.781908988777570e+01
1	 1.697628299985609e-01	 1.159062327707213e+00	-1.779285193515155e+01
1	 1.450944766620959e-01	 1.162408056923788e+00	-1.774116518698425e+01
1	 1.205398932226451e-01	 1.165210295226169e+00	-1.766374620678546e+01
1	 9.611478058186840e-02	 1.167478842169263e+00	-1.756042469755273e+01
1	 7.183418775739633e-02	 1.169223993693432e+00	-1.743114109524122e+01
1	 4.771249946845155e-02	 1.170456498701962e+00	-1.727594355513709e+01
1	 2.376342668044186e-02	 1.171187515947633e+00	-1.709498438864590e+01
1	 0.000000000000000e+00	 1.171428571428571e+00	-1.688851600959450e+01
1	 2.472631429257061e-01	 1.159646198414602e+00	-1.777291927738789e+01
1	 2.220501826789447e-01	 1.164736916097015e+00	-1.780493851740972e+01
1	 1.969009161080788e-01	 1.169251211922715e+00	-1.781207893432330e+01
1	 1.718331084131775e-01	 1.173197234142667e+00	-1.779371401849144e+01
1	 1.468639214994386e-01	 1.176583764935054e+00	-1.774933663066595e+01
1	 1.220098919204822e-01	 1.179420176875269e+00	-1.767855865484434e+01
1	 9.728691205237901e-02	 1.181716389024986e+00	-1.758110987100272e+01
1	 7.271021443736456e-02	 1.183482822884816e+00	-1.745683609805790e+01
1	 4.829435921806680e-02	 1.184730358442230e+00	-1.730569666150464e+01
1	 2.405322456678871e-02	 1.185470290532360e+00	-1.712776124333775e+01
1	 0.000000000000000e+00	 1.185714285714286e+00	-1.692320617412821e+01
1	 2.502422169368592e-01	 1.173617839359357e+00	-1.774261853440861e+01
1	 2.247254860847152e-01	 1.178769890989751e+00	-1.778298698203495e+01
1	 1.992732163021520e-01	 1.183338575921784e+00	-1.779819993889846e+01
1	 1.739033868277940e-01	 1.187332140578121e+00	-1.778752578869799e+01
1	 1.486333663367812e-01	 1.190759472946320e+00	-1.775035524697842e+01
1	 1.234798906183194e-01	 1.193630058524369e+00	-1.768620167990644e+01
1	 9.845904352288960e-02	 1.195953935880709e+00	-1.759470058096105e+01
1	 7.358624111733281e-02	 1.197741652076199e+00	-1.747560825433265e+01
1	 4.887621896768205e-02	 1.199004218182498e+00	-1.732879975867245e+01
1	 2.434302245313557e-02	 1.199753065117088e+00	-1.715426616870447e+01
1	 0.000000000000000e+00	 1.200000000000000e+00	-1.695211121512718e+01
1	 2.532212909480123e-01	 1.187589480304112e+00	-1.770545462903468e+01
1	 2.274007894904856e-01	 1.192802865882486e+00	-1.775386040411350e+01
1	 2.016455164962253e-01	 1.197425939920853e+00	-1.777689838729110e+01
1	 1.759736652424107e-01	 1.201467047013575e+00	-1.777373876402440e+01
1	 1.504028111741238e-01	 1.204935180957585e+00	-1.774367652869881e+01
1	 1.249498893161565e-01	 1.207839940173469e+00	-1.768613245262418e+01
1	 9.963117499340018e-02	 1.210191482736431e+00	-1.760065315208986e+01
1	 7.446226779730108e-02	 1.212000481267582e+00	-1.748691030358444e+01
1	 4.945807871729734e-02	 1.213278077922766e+00	-1.734469905885409e+01
1	 2.463282033948242e-02	 1.214035839701815e+00	-1.717393571702567e+01
1	 0.000000000000000e+00	 1.214285714285715e+00	-1.697465471457080e+01
1	 2.562003649591654e-01	 1.201561121248866e+00	-1.766088241012049e+01
1	 2.300760928962560e-01	 1.206835840775221e+00	-1.771702258475506e+01
1	 2.040178166902985e-01	 1.211513303919922e+00	-1.774764555665015e+01
1	 1.780439436570272e-01	 1.215601953449029e+00	-1.775182997350288e+01
1	 1.521722560114664e-01	 1.219110888968851e+00	-1.772878129452172e+01
1	 1.264198880139936e-01	 1.222049821822568e+00	-1.767783339152659e+01
1	 1.008033064639108e-01	 1.224429029592154e+00	-1.759844919627641e+01
1	 7.533829447726931e-02	 1.226259310458965e+00	-1.749022043930838e+01
1	 5.003993846691260e-02	 1.227551937663034e+00	-1.735286653183459e+01
1	 2.492261822582927e-02	 1.228318614286542e+00	-1.718623264745197e+01
1	 0.000000000000000e+00	 1.228571428571429e+00	-1.699028706457909e+01
1	 2.591794389703184e-01	 1.215532762193620e+00	-1.760838179094102e+01
1	 2.327513963020264e-01	 1.220868815667956e+00	-1.767196197789216e+01
1	 2.063901168843717e-01	 1.225600667918991e+00	-1.770993703322079e+01
1	 1.801142220716438e-01	 1.229736859884482e+00	-1.772130049080777e+01
1	 1.539417008488091e-01	 1.233286596980117e+00	-1.770517423354655e+01
1	 1.278898867118308e-01	 1.236259703471668e+00	-1.766081071199182e+01
1	 1.019754379344214e-01	 1.238666576447877e+00	-1.758759415934415e+01
1	 7.621432115723759e-02	 1.240518139650349e+00	-1.748504084610305e+01
1	 5.062179821652787e-02	 1.241825797403302e+00	-1.735279842465049e+01
1	 2.521241611217612e-02	 1.242601388871269e+00	-1.719064441986244e+01
1	 0.000000000000000e+00	 1.242857142857143e+00	-1.699848392659980e+01
1	 2.621585129814716e-01	 1.229504403138374e+00	-1.754745632507704e+01
1	 2.354266997077968e-01	 1.234901790560691e+00	-1.761819028955125e+01
1	 2.087624170784450e-01	 1.239688031918060e+00	-1.766329133114636e+01
1	 1.821845004862604e-01	 1.243871766319936e+00	-1.768167406808276e+01
1	 1.557111456861517e-01	 1.247462304991382e+00	-1.767238254900440e+01
1	 1.293598854096679e-01	 1.250469585120767e+00	-1.763459307415377e+01
1	 1.031475694049319e-01	 1.252904123303600e+00	-1.756761596685170e+01
1	 7.709034783720581e-02	 1.254776968841732e+00	-1.747089633653979e+01
1	 5.120365796614312e-02	 1.256099657143569e+00	-1.734401388219993e+01
1	 2.550221399852297e-02	 1.256884163455996e+00	-1.718668179141473e+01
1	 0.000000000000000e+00	 1.257142857142857e+00	-1.699874479565126e+01
1	 2.651375869926246e-01	 1.243476044083129e+00	-1.747763187830790e+01
1	 2.381020031135672e-01	 1.248934765453426e+00	-1.755524117155503e+01
1	 2.111347172725183e-01	 1.253775395917128e+00	-1.760724860438394e+01
1	 1.842547789008770e-01	 1.258006672755390e+00	-1.763249586186946e+01
1	 1.574805905234943e-01	 1.261638013002648e+00	-1.762995469341956e+01
1	 1.308298841075050e-01	 1.264679466769867e+00	-1.759873032196030e+01
1	 1.043197008754425e-01	 1.267141670159322e+00	-1.753806376118671e+01
1	 7.796637451717406e-02	 1.269035798033116e+00	-1.744733307992842e+01
1	 5.178551771575840e-02	 1.270373516883837e+00	-1.732605366084664e+01
1	 2.579201188486982e-02	 1.271166938040724e+00	-1.717387750770850e+01
1	 0.000000000000000e+00	 1.271428571428571e+00	-1.699059166135772e+01
1	 2.681166610037777e-01	 1.257447685027883e+00	-1.739845538904493e+01
1	 2.407773065193377e-01	 1.262967740346161e+00	-1.748266900231235e+01
1	 2.135070174665914e-01	 1.267862759916197e+00	-1.754136944449243e+01
1	 1.863250573154937e-01	 1.272141579190844e+00	-1.757333124397458e+01
1	 1.592500353608370e-01	 1.275813721013914e+00	-1.757745918809297e+01
1	 1.322998828053422e-01	 1.278889348418967e+00	-1.755279230629505e+01
1	 1.054918323459531e-01	 1.281379217015045e+00	-1.749850672285283e+01
1	 7.884240119714231e-02	 1.283294627224498e+00	-1.741391741583175e+01
1	 5.236737746537364e-02	 1.284647376624105e+00	-1.729847892778232e+01
1	 2.608180977121667e-02	 1.285449712625450e+00	-1.715178508120584e+01
1	 0.000000000000000e+00	 1.285714285714286e+00	-1.697356775824901e+01
1	 1.285714285714286e+00	 0.000000000000000e+00	 1.185580388107860e+01
1	 1.285449712625451e+00	 2.608180977121596e-02	 1.131215124505754e+01
1	 1.284647376624105e+00	 5.236737746537301e-02	 1.076813022907494e+01
1	 1.283294627224498e+00	 7.884240119714178e-02	 1.022439804261142e+01
1	 1.281379217015045e+00	 1.054918323459527e-01	 9.681682918672390e+00
1	 1.278889348418967e+00	 1.322998828053418e-01	 9.140784302585965e+00
1	 1.275813721013914e+00	 1.592500353608367e-01	 8.602572505711084e+00
1	 1.272141579190844e+00	 1.863250573154935e-01	 8.067987786771281e+00
1	 1.267862759916197e+00	 2.135070174665914e-01	 7.538038826722181e+00
1	 1.262967740346161e+00	 2.407773065193378e-01	 7.013800566969823e+00
1	 1.257447685027883e+00	 2.681166610037777e-01	 6.496411385386151e+00
1	 1.300000000000000e+00	 0.000000000000000e+00	 1.145042280002996e+01
1	 1.299732487210178e+00	 2.637160765756280e-02	 1.091364532956817e+01
1	 1.298921236364373e+00	 5.294923721498827e-02	 1.037721921602341e+01
1	 1.297553456415882e+00	 7.971842787711006e-02	 9.841840810564289e+00
1	 1.295616763870767e+00	 1.066639638164633e-01	 9.308270684031115e+00
1	 1.293099230068066e+00	 1.337698815031789e-01	 8.777333234989060e+00
1	 1.289989429025179e+00	 1.610194801981794e-01	 8.249915779123420e+00
1	 1.286276485626297e+00	 1.883953357301101e-01	 7.726967088651929e+00
1	 1.281950123915266e+00	 2.158793176606647e-01	 7.209495353834267e+00
1	 1.277000715238897e+00	 2.434526099251083e-01	 6.698565542718139e+00
1	 1.271419325972637e+00	 2.710957350149308e-01	 6.195296139972482e+00
1	 1.314285714285714e+00	 0.000000000000000e+00	 1.105918377960857e+01
1	 1.314015261794905e+00	 2.666140554390965e-02	 1.052945680674320e+01
1	 1.313195096104641e+00	 5.353109696460353e-02	 1.000074638886234e+01
1	 1.311812285607266e+00	 8.059445455707827e-02	 9.473787535719378e+00
1	 1.309854310726491e+00	 1.078360952869739e-01	 8.949372829897987e+00
1	 1.307309111717166e+00	 1.352398802010162e-01	 8.428351458390534e+00
1	 1.304165137036445e+00	 1.627889250355221e-01	 7.911627741137821e+00
1	 1.300411392061751e+00	 1.904656141447267e-01	 7.400159131096007e+00
1	 1.296037487914335e+00	 2.182516178547379e-01	 6.894953664018335e+00
1	 1.291033690131632e+00	 2.461279133308787e-01	 6.397066840355179e+00
1	 1.285390966917391e+00	 2.740748090260838e-01	 5.907597926475023e+00
1	 1.328571428571429e+00	 0.000000000000000e+00	 1.068134058717860e+01
1	 1.328298036379633e+00	 2.695120343025649e-02	 1.015882720032440e+01
1	 1.327468955844909e+00	 5.411295671421878e-02	 9.637942647147932e+00
1	 1.326071114798648e+00	 8.147048123704650e-02	 9.119460108042894e+00
1	 1.324091857582213e+00	 1.090082267574845e-01	 8.604203840986406e+00
1	 1.321518993366265e+00	 1.367098788988532e-01	 8.093047640699506e+00
1	 1.318340845047711e+00	 1.645583698728647e-01	 7.586912809595492e+00
1	 1.314546298497205e+00	 1.925358925593433e-01	 7.086765620906778e+00
1	 1.310124851913404e+00	 2.206239180488112e-01	 6.593614258223837e+00
1	 1.305066665024367e+00	 2.488032167366490e-01	 6.108505220057655e+00
1	 1.299362607862145e+00	 2.770538830372369e-01	 5.632519182931421e+00
1	 1.342857142857143e+00	 0.000000000000000e+00	 1.031617874468444e+01
1	 1.342580810964359e+00	 2.724100131660333e-02	 9.801030309638977e+00
1	 1.341742815585176e+00	 5.469481646383403e-02	 9.288071618114840e+00
1	 1.340329943990032e+00	 8.234650791701477e-02	 8.778113528566298e+00
1	 1.338329404437935e+00	 1.101803582279950e-01	 8.272011628192177e+00
1	 1.335728875015365e+00	 1.381798775966903e-01	 7.770664123531088e+00
1	 1.332516553058976e+00	 1.663278147102073e-01	 7.275009256897561e+00
1	 1.328681204932660e+00	 1.946061709739599e-01	 6.786022234810801e+00
1	 1.324212215912473e+00	 2.229962182428843e-01	 6.304711658636472e+00
1	 1.319099639917102e+00	 2.514785201424195e-01	 5.832115452207530e+00
1	 1.313334248806899e+00	 2.800329570483899e-01	 5.369296286186189e+00
1	 1.357142857142857e+00	 0.000000000000000e+00	 9.963013857357087e+00
1	 1.356863585549087e+00	 2.753079920295018e-02	 9.455370510884562e+00
1	 1.356016675325444e+00	 5.527667621344929e-02	 8.950427934166772e+00
1	 1.354588773181415e+00	 8.322253459698299e-02	 8.449034166698695e+00
1	 1.352566951293658e+00	 1.113524896985056e-01	 7.952075769320765e+00
1	 1.349938756664465e+00	 1.396498762945275e-01	 7.460475149906067e+00
1	 1.346692261070243e+00	 1.680972595475499e-01	 6.975187428186184e+00
1	 1.342816111368113e+00	 1.966764493885765e-01	 6.497196831567198e+00
1	 1.338299579911542e+00	 2.253685184369576e-01	 6.027512618086718e+00
1	 1.333132614809837e+00	 2.541538235481899e-01	 5.567164527381220e+00
1	 1.327305889751654e+00	 2.830120310595430e-01	 5.117197765637766e+00
1	 1.371428571428571e+00	 0.000000000000000e+00	 9.621190046876199e+00
1	 1.371146360133814e+00	 2.782059708929703e-02	 9.121181164583893e+00
1	 1.370290535065712e+00	 5.585853596306455e-02	 8.624335618023967e+00
1	 1.368847602372799e+00	 8.409856127695124e-02	 8.131538126457142e+00
1	 1.366804498149381e+00	 1.125246211690162e-01	 7.643705859769057e+00
1	 1.364148638313564e+00	 1.411198749923646e-01	 7.161785202719367e+00
1	 1.360867969081508e+00	 1.698667043848925e-01	 6.686748070889228e+00
1	 1.356951017803567e+00	 1.987467278031931e-01	 6.219587775820109e+00
1	 1.352386943910610e+00	 2.277408186310309e-01	 5.761314441370461e+00
1	 1.347165589702572e+00	 2.568291269539603e-01	 5.312949978214434e+00
1	 1.341277530696408e+00	 2.859911050706961e-01	 4.875522628626339e+00
1	 1.385714285714286e+00	 0.000000000000000e+00	 9.290078481450120e+00
1	 1.385429134718541e+00	 2.811039497564386e-02	 8.797823121547436e+00
1	 1.384564394805980e+00	 5.644039571267982e-02	 8.309146567758383e+00
1	 1.383106431564182e+00	 8.497458795691948e-02	 7.824969713754877e+00
1	 1.381042045005104e+00	 1.136967526395268e-01	 7.346239965226875e+00
1	 1.378358519962664e+00	 1.425898736902018e-01	 6.873927445983651e+00
1	 1.375043677092774e+00	 1.716361492222352e-01	 6.409020767592217e+00
1	 1.371085924239021e+00	 2.008170062178097e-01	 5.952522365630443e+00
1	 1.366474307909679e+00	 2.301131188251041e-01	 5.505443410405404e+00
1	 1.361198564595307e+00	 2.595044303597308e-01	 5.068798305069276e+00
1	 1.355249171641163e+00	 2.889701790818492e-01	 4.643598789405878e+00
1	 1.400000000000000e+00	 0.000000000000000e+00	 8.969075995890941e+00
1	 1.399711909303269e+00	 2.840019286199071e-02	 8.484683320307688e+00
1	 1.398838254546248e+00	 5.702225546229506e-02	 8.004239134581931e+00
1	 1.397365260755565e+00	 8.585061463688770e-02	 7.528699997529121e+00
1	 1.395279591860827e+00	 1.148688841100374e-01	 7.059043169110983e+00
1	 1.392568401611763e+00	 1.440598723880389e-01	 6.596262261506986e+00
1	 1.389219385104039e+00	 1.734055940595778e-01	 6.141362464856744e+00
1	 1.385220830674475e+00	 2.028872846324263e-01	 5.695355356281072e+00
1	 1.380561671908748e+00	 2.324854190191773e-01	 5.259253305806483e+00
1	 1.375231539488043e+00	 2.621797337655011e-01	 4.834063498088955e+00
1	 1.369220812585916e+00	 2.919492530930023e-01	 4.420781594301642e+00
1	 1.414285714285714e+00	 0.000000000000000e+00	 8.657603795321378e+00
1	 1.413994683887996e+00	 2.868999074833755e-02	 8.181173469557418e+00
1	 1.413112114286515e+00	 5.760411521191032e-02	 7.709016786829232e+00
1	 1.411624089946949e+00	 8.672664131685595e-02	 7.242125458073127e+00
1	 1.409517138716549e+00	 1.160410155805480e-01	 6.781506208033396e+00
1	 1.406778283260863e+00	 1.455298710858760e-01	 6.328175874256702e+00
1	 1.403395093115305e+00	 1.751750388969205e-01	 5.883156091201514e+00
1	 1.399355737109928e+00	 2.049575630470429e-01	 5.447467573548521e+00
1	 1.394649035907817e+00	 2.348577192132505e-01	 5.022124018062781e+00
1	 1.389264514380778e+00	 2.648550371712716e-01	 4.608125648825066e+00
1	 1.383192453530671e+00	 2.949283271041554e-01	 4.206452436251991e+00
1	 1.428571428571429e+00	 0.000000000000000e+00	 8.355106236659230e+00
1	 1.428277458472724e+00	 2.897978863468439e-02	 7.886728809641725e+00
1	 1.427385974026783e+00	 5.818597496152556e-02	 7.422906854101570e+00
1	 1.425882919138332e+00	 8.760266799682419e-02	 6.964666716468463e+00
1	 1.423754685572271e+00	 1.172131470510585e-01	 6.513044189141698e+00
1	 1.420988164909963e+00	 1.469998697837131e-01	 6.069079060201432e+00
1	 1.417570801126570e+00	 1.769444837342630e-01	 5.633809258004500e+00
1	 1.413490643545382e+00	 2.070278414616595e-01	 5.208264610178241e+00
1	 1.408736399906886e+00	 2.372300194073238e-01	 4.793460242043828e+00
1	 1.403297489273513e+00	 2.675303405770419e-01	 4.390389645167119e+00
1	 1.397164094475425e+00	 2.979074011153084e-01	 4.000017452477765e+00
1	 1.257447685027883e+00	 2.681166610037777e-01	 6.496411385386151e+00
1	 1.251294492410078e+00	 2.955051907395213e-01	 5.978173925531056e+00
1	 1.244500840374914e+00	 3.229224098695073e-01	 5.451341275831687e+00
1	 1.237060230494480e+00	 3.503472714589634e-01	 4.917045404411560e+00
1	 1.228967030708967e+00	 3.777582056291845e-01	 4.376444611634970e+00
1	 1.220216516119931e+00	 4.051331611679502e-01	 3.830718875751638e+00
1	 1.210804907591075e+00	 4.324496505295896e-01	 3.281064895292126e+00
1	 1.200729407850930e+00	 4.596847981081726e-01	 2.728690855501410e+00
1	 1.189988234796783e+00	 4.868153916373548e-01	 2.174810950254426e+00
1	 1.178580651707452e+00	 5.138179365403983e-01	 1.620639694873820e+00
1	 1.166506994083868e+00	 5.406687130241731e-01	 1.067386068996087e+00
1	 1.271419325972637e+00	 2.710957350149308e-01	 6.195296139972482e+00
1	 1.265197764547968e+00	 2.987885817477380e-01	 5.691819533595970e+00
1	 1.258328627490190e+00	 3.265104366458351e-01	 5.180221900292064e+00
1	 1.250805344166641e+00	 3.542400189196186e-01	 4.661606847737078e+00
1	 1.242622219939067e+00	 3.819555190250643e-01	 4.137096417875773e+00
1	 1.233774477410152e+00	 4.096346407364830e-01	 3.607826274912217e+00
1	 1.224258295453198e+00	 4.372546466465850e-01	 3.074940642888905e+00
1	 1.214070845715940e+00	 4.647924069760414e-01	 2.539587023878079e+00
1	 1.203210326294526e+00	 4.922244515444367e-01	 2.002910731547014e+00
1	 1.191675992281980e+00	 5.195270247241807e-01	 1.466049278347907e+00
1	 1.179468182907022e+00	 5.466761431688861e-01	 9.301266577549305e-01
1	 1.285390966917391e+00	 2.740748090260838e-01	 5.907597926475023e+00
1	 1.279101036685857e+00	 3.020719727559550e-01	 5.418518124758865e+00
1	 1.272156414605467e+00	 3.300984634221630e-01	 4.921754315939708e+00
1	 1.264550457838802e+00	 3.581327663802736e-01	 4.418380811072690e+00
1	 1.256277409169166e+00	 3.861528324209441e-01	 3.909483074978828e+00
1	 1.247332438700373e+00	 4.141361203050155e-01	 3.396152785494847e+00
1	 1.237711683315321e+00	 4.420596427635805e-01	 2.879482691591149e+00
1	 1.227412283580950e+00	 4.699000158439098e-01	 2.360561304708114e+00
1	 1.216432417792268e+00	 4.976335114515183e-01	 1.840467461001854e+00
1	 1.204771332856507e+00	 5.252361129079627e-01	 1.320264795220154e+00
1	 1.192429371730176e+00	 5.526835733135992e-01	 8.009961695822131e-01
1	 1.299362607862145e+00	 2.770538830372369e-01	 5.632519182931421e+00
1	 1.293004308823748e+00	 3.053553637641720e-01	 5.157476397944306e+00
1	 1.285984201720744e+00	 3.336864901984908e-01	 4.675153291404862e+00
1	 1.278295571510963e+00	 3.620255138409288e-01	 4.186593971804369e+00
1	 1.269932598399266e+00	 3.903501458168240e-01	 3.692847023692209e+00
1	 1.260890399990595e+00	 4.186375998735485e-01	 3.194960466517510e+00
1	 1.251165071177444e+00	 4.468646388805760e-01	 2.693976558129494e+00
1	 1.240753721445961e+00	 4.750076247117785e-01	 2.190926480209252e+00
1	 1.229654509290010e+00	 5.030425713586000e-01	 1.686824945871948e+00
1	 1.217866673431034e+00	 5.309452010917448e-01	 1.182664772276407e+00
1	 1.205390560553330e+00	 5.586910034583122e-01	 6.794114632464503e-01
1	 1.313334248806899e+00	 2.800329570483899e-01	 5.369296286186189e+00
1	 1.306907580961637e+00	 3.086387547723888e-01	 4.907934809569400e+00
1	 1.299811988836020e+00	 3.372745169748186e-01	 4.439667009418608e+00
1	 1.292040685183124e+00	 3.659182613015839e-01	 3.965505914663384e+00
1	 1.283587787629366e+00	 3.945474592127038e-01	 3.486462941327881e+00
1	 1.274448361280816e+00	 4.231390794420814e-01	 3.003542778742104e+00
1	 1.264618459039567e+00	 4.516696349975713e-01	 2.517738162777980e+00
1	 1.254095159310971e+00	 4.801152335796470e-01	 2.030024575909102e+00
1	 1.242876600787752e+00	 5.084516312656816e-01	 1.541354916505933e+00
1	 1.230962014005561e+00	 5.366542892755272e-01	 1.052654181971167e+00
1	 1.218351749376484e+00	 5.646984336030251e-01	 5.648142120365903e-01
1	 1.327305889751654e+00	 2.830120310595430e-01	 5.117197765637766e+00
1	 1.320810853099528e+00	 3.119221457806058e-01	 4.669165796833742e+00
1	 1.313639775951298e+00	 3.408625437511466e-01	 4.214575308175985e+00
1	 1.305785798855284e+00	 3.698110087622390e-01	 3.754407399760719e+00
1	 1.297242976859465e+00	 3.987447726085836e-01	 3.289636045100454e+00
1	 1.288006322571037e+00	 4.276405590106139e-01	 2.821222931951085e+00
1	 1.278071846901691e+00	 4.564746311145668e-01	 2.350112229167512e+00
1	 1.267436597175982e+00	 4.852228424475155e-01	 1.877225321523598e+00
1	 1.256098692285494e+00	 5.138606911727635e-01	 1.403455556711404e+00
1	 1.244057354580089e+00	 5.423633774593095e-01	 9.296630505503307e-01
1	 1.231312938199638e+00	 5.707058637477382e-01	 4.566695977347390e-01
1	 1.341277530696408e+00	 2.859911050706961e-01	 4.875522628626339e+00
1	 1.334714125237417e+00	 3.152055367888226e-01	 4.440472112053553e+00
1	 1.327467563066575e+00	 3.444505705274744e-01	 3.999188032613908e+00
1	 1.319530912527445e+00	 3.737037562228944e-01	 3.552618738869399e+00
1	 1.310898166089565e+00	 4.029420860044635e-01	 3.101700501507289e+00
1	 1.301564283861259e+00	 4.321420385791467e-01	 2.647352335519307e+00
1	 1.291525234763813e+00	 4.612796272315622e-01	 2.190470784111028e+00
1	 1.280778035040992e+00	 4.903304513153842e-01	 1.731924708030481e+00
1	 1.269320783783236e+00	 5.192697510798451e-01	 1.272550125970674e+00
1	 1.257152695154616e+00	 5.480724656430916e-01	 8.131451531662180e-01
1	 1.244274127022792e+00	 5.767132938924511e-01	 3.544650862153875e-01
1	 1.355249171641163e+00	 2.889701790818492e-01	 4.643598789405878e+00
1	 1.348617397375307e+00	 3.184889277970396e-01	 4.221185260026891e+00
1	 1.341295350181851e+00	 3.480385973038022e-01	 3.792843487671881e+00
1	 1.333276026199606e+00	 3.775965036835494e-01	 3.359488272142962e+00
1	 1.324553355319665e+00	 4.071393994003433e-01	 2.922017934097396e+00
1	 1.315122245151480e+00	 4.366435181476796e-01	 2.481309144826760e+00
1	 1.304978622625937e+00	 4.660846233485576e-01	 2.038211750223029e+00
1	 1.294119472906002e+00	 4.954380601832527e-01	 1.593543633996064e+00
1	 1.282542875280978e+00	 5.246788109869268e-01	 1.148085666880190e+00
1	 1.270248035729143e+00	 5.537815538268738e-01	 7.025767897071518e-01
1	 1.257235315845946e+00	 5.827207240371642e-01	 2.577092787808517e-01
1	 1.369220812585916e+00	 2.919492530930023e-01	 4.420781594301642e+00
1	 1.362520669513196e+00	 3.217723188052564e-01	 4.010664031070267e+00
1	 1.355123137297128e+00	 3.516266240801301e-01	 3.594906986251083e+00
1	 1.347021139871767e+00	 3.814892511442046e-01	 3.174390938096019e+00
1	 1.338208544549764e+00	 4.113367127962231e-01	 2.749976022601448e+00
1	 1.328680206441702e+00	 4.411449977162124e-01	 2.322496896666532e+00
1	 1.318432010488059e+00	 4.708896194655530e-01	 1.892757624705148e+00
1	 1.307460910771013e+00	 5.005456690511213e-01	 1.461526634779881e+00
1	 1.295764966778720e+00	 5.300878708940084e-01	 1.029531791726323e+00
1	 1.283343376303670e+00	 5.594906420106558e-01	 5.974556355761896e-01
1	 1.270196504669100e+00	 5.887281541818772e-01	 1.659308338232114e-01
1	 1.383192453530671e+00	 2.949283271041554e-01	 4.206452436251991e+00
1	 1.376423941651086e+00	 3.250557098134734e-01	 3.808293122962130e+00
1	 1.368950924412405e+00	 3.552146508564580e-01	 3.404769485175847e+00
1	 1.360766253543928e+00	 3.853819986048597e-01	 2.996726930252675e+00
1	 1.351863733779864e+00	 4.155340261921029e-01	 2.584987186963025e+00
1	 1.342238167731924e+00	 4.456464772847452e-01	 2.170343227355202e+00
1	 1.331885398350183e+00	 4.756946155825486e-01	 1.753554238205425e+00
1	 1.320802348636023e+00	 5.056532779189901e-01	 1.335340688757203e+00
1	 1.308987058276462e+00	 5.354969308010902e-01	 9.163795426020467e-01
1	 1.296438716878198e+00	 5.651997301944380e-01	 4.972996621197182e-01
1	 1.283157693492255e+00	 5.947355843265903e-01	 7.867745383985891e-02
1	 1.397164094475425e+00	 2.979074011153084e-01	 4.000017452477765e+00
1	 1.390327213788976e+00	 3.283391008216903e-01	 3.613481845569808e+00
1	 1.382778711527682e+00	 3.588026776327858e-01	 3.221846302997568e+00
1	 1.374511367216089e+00	 3.892747460655148e-01	 2.825920434396089e+00
1	 1.365518923009963e+00	 4.197313395879828e-01	 2.426487350327963e+00
1	 1.355796129022145e+00	 4.501479568532779e-01	 2.024298667756695e+00
1	 1.345338786212305e+00	 4.804996116995440e-01	 1.620069588146002e+00
1	 1.334143786501033e+00	 5.107608867868584e-01	 1.214474095168333e+00
1	 1.322209149774204e+00	 5.409059907081718e-01	 8.081403199166566e-01
1	 1.309534057452725e+00	 5.709088183782204e-01	 4.016461218302607e-01
1	 1.296118882315409e+00	 6.007430144713033e-01	-4.485066771671709e-03
1	 1.166506994083868e+00	 5.406687130241731e-01	 1.067386068996087e+00
1	 1.153768692851193e+00	 5.673438356818944e-01	 5.092362032042669e-01
1	 1.140368293674146e+00	 5.938193153413874e-01	-5.940629580597245e-02
1	 1.126309472158341e+00	 6.200711228691399e-01	-6.370107693590041e-01
1	 1.111597044734725e+00	 6.460752546157617e-01	-1.222047259611212e+00
1	 1.096236975051242e+00	 6.718077991660252e-01	-1.812992735015543e+00
1	 1.080236375725679e+00	 6.972450050368563e-01	-2.408337296914613e+00
1	 1.063603505345799e+00	 7.223633489497692e-01	-3.006590317121414e+00
1	 1.046347760637097e+00	 7.471396042906104e-01	-3.606286456323820e+00
1	 1.028479663754462e+00	 7.715509093593932e-01	-4.205991513777132e+00
1	 1.010010844691246e+00	 7.955748350066590e-01	-4.804308060030187e+00
1	 1.179468182907022e+00	 5.466761431688861e-01	 9.301266577549305e-01
1	 1.166588344993985e+00	 5.736476560783600e-01	 3.892364133434277e-01
1	 1.153039052492747e+00	 6.004173077340693e-01	-1.622928653093235e-01
1	 1.138824021848989e+00	 6.269608020121300e-01	-7.229965046520814e-01
1	 1.123948123009556e+00	 6.532538685559368e-01	-1.291412321208183e+00
1	 1.108417385885145e+00	 6.792723302678699e-01	-1.866086595273167e+00
1	 1.092239002122631e+00	 7.049921717594880e-01	-2.445580007344517e+00
1	 1.075421322071863e+00	 7.303896083825445e-01	-3.028473488749927e+00
1	 1.057973846866397e+00	 7.554411554493946e-01	-3.613373938150133e+00
1	 1.039907215573955e+00	 7.801236972411641e-01	-4.198919756436460e+00
1	 1.021233187410037e+00	 8.044145553956219e-01	-4.783786154021423e+00
1	 1.192429371730176e+00	 5.526835733135992e-01	 8.009961695822131e-01
1	 1.179407997136775e+00	 5.799514764748253e-01	 2.766785132071499e-01
1	 1.165709811311348e+00	 6.070153001267513e-01	-2.584196661816186e-01
1	 1.151338571539637e+00	 6.338504811551207e-01	-8.028966412794438e-01
1	 1.136299201284386e+00	 6.604324824961121e-01	-1.355354716252298e+00
1	 1.120597796719048e+00	 6.867368613697148e-01	-1.914405958804428e+00
1	 1.104241628519583e+00	 7.127393384821198e-01	-2.478677878747189e+00
1	 1.087239138797928e+00	 7.384158678153198e-01	-3.046819006104439e+00
1	 1.069599933095699e+00	 7.637427066081796e-01	-3.617504322206380e+00
1	 1.051334767393450e+00	 7.886964851229353e-01	-4.189440498259119e+00
1	 1.032455530128829e+00	 8.132542757845849e-01	-4.761370897526355e+00
1	 1.205390560553330e+00	 5.586910034583122e-01	 6.794114632464503e-01
1	 1.192227649279566e+00	 5.862552968712909e-01	 1.710199897536503e-01
1	 1.178380570129950e+00	 6.136132925194336e-01	-3.482875698791151e-01
1	 1.163853121230286e+00	 6.407401602981110e-01	-8.771694446594385e-01
1	 1.148650279559216e+00	 6.676110964362872e-01	-1.414289194183119e+00
1	 1.132778207552950e+00	 6.942013924715591e-01	-1.958321209070074e+00
1	 1.116244254916535e+00	 7.204865052047517e-01	-2.507956143798994e+00
1	 1.099056955523992e+00	 7.464421272480947e-01	-3.061906236507087e+00
1	 1.081226019325000e+00	 7.720442577669638e-01	-3.618910470920082e+00
1	 1.062762319212943e+00	 7.972692730047061e-01	-4.177739536778142e+00
1	 1.043677872847621e+00	 8.220939961735476e-01	-4.737200546920349e+00
1	 1.218351749376484e+00	 5.646984336030251e-01	 5.648142120365903e-01
1	 1.205047301422357e+00	 5.925591172677566e-01	 7.174141560251002e-02
1	 1.191051328948552e+00	 6.202112849121155e-01	-4.323761341790660e-01
1	 1.176367670920934e+00	 6.476298394411018e-01	-9.462536795543471e-01
1	 1.161001357834047e+00	 6.747897103764622e-01	-1.468612855527992e+00
1	 1.144958618386853e+00	 7.016659235734040e-01	-1.998186968532629e+00
1	 1.128246881313487e+00	 7.282336719273833e-01	-2.533726195487926e+00
1	 1.110874772250056e+00	 7.544683866808701e-01	-3.074002659308862e+00
1	 1.092852105554301e+00	 7.803458089257483e-01	-3.617815337679247e+00
1	 1.074189871032437e+00	 8.058420608864771e-01	-4.163994763248448e+00
1	 1.054900215566412e+00	 8.309337165625104e-01	-4.711407475328770e+00
1	 1.231312938199638e+00	 5.707058637477382e-01	 4.566695977347390e-01
1	 1.217866953565149e+00	 5.988629376642223e-01	-2.165476600014837e-02
1	 1.203722087767154e+00	 6.268092773047976e-01	-5.111447249522920e-01
1	 1.188882220611582e+00	 6.545195185840921e-01	-1.010569636420657e+00
1	 1.173352436108877e+00	 6.819683243166372e-01	-1.518706080791973e+00
1	 1.157139029220756e+00	 7.091304546752487e-01	-2.034342928182419e+00
1	 1.140249507710439e+00	 7.359808386500147e-01	-2.556286315518280e+00
1	 1.122692588976121e+00	 7.624946461136453e-01	-3.083364491572279e+00
1	 1.104478191783602e+00	 7.886473600845334e-01	-3.614432488360864e+00
1	 1.085617422851931e+00	 8.144148487682483e-01	-4.148376578766964e+00
1	 1.066122558285204e+00	 8.397734369514734e-01	-4.684118482271706e+00
1	 1.244274127022792e+00	 5.767132938924511e-01	 3.544650862153875e-01
1	 1.230686605707940e+00	 6.051667580606874e-01	-1.096453802767530e-01
1	 1.216392846585755e+00	 6.334072696974798e-01	-5.850335678250278e-01
1	 1.201396770302230e+00	 6.614091977270824e-01	-1.070520093612486e+00
1	 1.185703514383707e+00	 6.891469382568125e-01	-1.564933401292457e+00
1	 1.169319440054658e+00	 7.165949857770931e-01	-2.067114625218545e+00
1	 1.152252134107391e+00	 7.437280053726465e-01	-2.575922357190005e+00
1	 1.134510405702185e+00	 7.705209055464207e-01	-3.090237274648933e+00
1	 1.116104278012903e+00	 7.969489112433176e-01	-3.608966590263619e+00
1	 1.097044974671425e+00	 8.229876366500192e-01	-4.131048284384788e+00
1	 1.077344901003995e+00	 8.486131573404362e-01	-4.655455083955887e+00
1	 1.257235315845946e+00	 5.827207240371642e-01	 2.577092787808517e-01
1	 1.243506257850731e+00	 6.114705784571529e-01	-1.926875895540376e-01
1	 1.229063605404357e+00	 6.400052620901617e-01	-6.544647347894439e-01
1	 1.213911319992879e+00	 6.682988768700731e-01	-1.126491220067339e+00
1	 1.198054592658537e+00	 6.963255521969874e-01	-1.607644316127540e+00
1	 1.181499850888561e+00	 7.240595168789381e-01	-2.096814172625683e+00
1	 1.164254760504343e+00	 7.514751720952785e-01	-2.592908386038093e+00
1	 1.146328222428249e+00	 7.785471649791956e-01	-3.094856424473871e+00
1	 1.127730364242204e+00	 8.052504624021022e-01	-3.601613870797698e+00
1	 1.108472526490919e+00	 8.315604245317902e-01	-4.112166447089172e+00
1	 1.088567243722787e+00	 8.574528777293993e-01	-4.625533785610487e+00
1	 1.270196504669100e+00	 5.887281541818772e-01	 1.659308338232114e-01
1	 1.256325909993522e+00	 6.177743988536184e-01	-2.712198964718676e-01
1	 1.241734364222959e+00	 6.466032544828436e-01	-7.198430704094210e-01
1	 1.226425869683527e+00	 6.751885560130633e-01	-1.178853422725206e+00
1	 1.210405670933367e+00	 7.035041661371625e-01	-1.647174059126008e+00
1	 1.193680261722464e+00	 7.315240479807827e-01	-2.123740944083051e+00
1	 1.176257386901295e+00	 7.592223388179102e-01	-2.607507281249196e+00
1	 1.158146039154314e+00	 7.865734244119710e-01	-3.097447748168442e+00
1	 1.139356450471505e+00	 8.135520135608866e-01	-3.592562548091220e+00
1	 1.119900078310413e+00	 8.401332124135613e-01	-4.091881243378032e+00
1	 1.099789586441579e+00	 8.662925981183619e-01	-4.594466337149169e+00
1	 1.283157693492255e+00	 5.947355843265903e-01	 7.867745383985891e-02
1	 1.269145562136313e+00	 6.240782192500840e-01	-3.456630863917555e-01
1	 1.254405123041560e+00	 6.532012468755258e-01	-7.815570618927395e-01
1	 1.238940419374175e+00	 6.820782351560538e-01	-1.227962142589146e+00
1	 1.222756749208198e+00	 7.106827800773379e-01	-1.683844319315516e+00
1	 1.205860672556367e+00	 7.389885790826275e-01	-2.148182217363622e+00
1	 1.188260013298247e+00	 7.669695055405419e-01	-2.619971300628681e+00
1	 1.169963855880378e+00	 7.945996838447461e-01	-3.098227929333936e+00
1	 1.150982536700806e+00	 8.218535647196711e-01	-3.581993235499369e+00
1	 1.131327630129907e+00	 8.487060002953323e-01	-4.070336782012018e+00
1	 1.111011929160370e+00	 8.751323185073248e-01	-4.562359973337585e+00
1	 1.296118882315409e+00	 6.007430144713033e-01	-4.485066771671709e-03
1	 1.281965214279104e+00	 6.303820396465493e-01	-4.164211132607445e-01
1	 1.267075881860162e+00	 6.597992392682079e-01	-8.399796569588949e-01
1	 1.251454969064823e+00	 6.889679142990441e-01	-1.274158603022115e+00
1	 1.235107827483028e+00	 7.178613940175128e-01	-1.717963918162560e+00
1	 1.218041083390269e+00	 7.464531101844722e-01	-2.170413779129440e+00
1	 1.200262639695199e+00	 7.747166722631734e-01	-2.630542611669661e+00
1	 1.181781672606443e+00	 8.026259432775211e-01	-3.097404984227602e+00
1	 1.162608622930107e+00	 8.301551158784557e-01	-3.570079321843222e+00
1	 1.142755181949402e+00	 8.572787881771037e-01	-4.047671407401305e+00
1	 1.122234271879162e+00	 8.839720388962876e-01	-4.529317639550742e+00
1	 1.010010844691246e+00	 7.955748350066590e-01	-4.804308060030187e+00
1	 9.909540188373530e-01	 8.191894512503783e-01	-5.402443629947291e+00
1	 9.713229597564360e-01	 8.423733924690369e-01	-6.001353845092088e+00
1	 9.511324672907289e-01	 8.651059207722755e-01	-6.599304295706429e+00
1	 9.303983311398824e-01	 8.873669871602835e-01	-7.194579894663735e+00
1	 9.091372900969897e-01	 9.091372900969898e-01	-7.785492147841632e+00
1	 8.873669871602835e-01	 9.303983311398824e-01	-8.370386235494706e+00
1	 8.651059207722754e-01	 9.511324672907289e-01	-8.947647848644287e+00
1	 8.423733924690366e-01	 9.713229597564357e-01	-9.515709727169469e+00
1	 8.191894512503786e-01	 9.909540188373525e-01	-1.007305784962165e+01
1	 7.955748350066588e-01	 1.010010844691246e+00	-1.061823722873723e+01
1	 1.021233187410037e+00	 8.044145553956219e-01	-4.783786154021423e+00
1	 1.001964619046657e+00	 8.282915562642714e-01	-5.369169797853730e+00
1	 9.821154370870629e-01	 8.517330968298038e-01	-5.955995714655034e+00
1	 9.617006058161814e-01	 8.747182087808563e-01	-6.542567660252764e+00
1	 9.407360903747700e-01	 8.972266203509532e-01	-7.127202370234582e+00
1	 9.192388155425119e-01	 9.192388155425119e-01	-7.708236797274459e+00
1	 8.972266203509530e-01	 9.407360903747698e-01	-8.284035208100237e+00
1	 8.747182087808565e-01	 9.617006058161816e-01	-8.852996083646445e+00
1	 8.517330968298039e-01	 9.821154370870629e-01	-9.413558768056243e+00
1	 8.282915562642714e-01	 1.001964619046656e+00	-9.964209815002381e+00
1	 8.044145553956220e-01	 1.021233187410037e+00	-1.050348898324484e+01
1	 1.032455530128829e+00	 8.132542757845849e-01	-4.761370897526355e+00
1	 1.012975219255961e+00	 8.373936612781645e-01	-5.334465090104273e+00
1	 9.929079144176900e-01	 8.610928011905711e-01	-5.909604332578360e+00
1	 9.722687443416342e-01	 8.843304967894372e-01	-6.485131008434599e+00
1	 9.510738496096575e-01	 9.070862535416228e-01	-7.059394761173094e+00
1	 9.293403409880343e-01	 9.293403409880346e-01	-7.630759686277776e+00
1	 9.070862535416231e-01	 9.510738496096575e-01	-8.197611426751351e+00
1	 8.843304967894374e-01	 9.722687443416340e-01	-8.758364115445376e+00
1	 8.610928011905709e-01	 9.929079144176899e-01	-9.311467109040677e+00
1	 8.373936612781649e-01	 1.012975219255960e+00	-9.855411460857756e+00
1	 8.132542757845848e-01	 1.032455530128829e+00	-1.038873608266334e+01
1	 1.043677872847621e+00	 8.220939961735476e-01	-4.737200546920349e+00
1	 1.023985819465264e+00	 8.464957662920575e-01	-5.298421686634855e+00
1	 1.003700391748317e+00	 8.704525055513379e-01	-5.862229115493842e+00
1	 9.828368828670866e-01	 8.939427847980181e-01	-6.427004244298137e+00
1	 9.614116088445450e-01	 9.169458867322929e-01	-6.991130633756939e+00
1	 9.394418664335561e-01	 9.394418664335562e-01	-7.553001129090869e+00
1	 9.169458867322925e-01	 9.614116088445449e-01	-8.111024937489974e+00
1	 8.939427847980180e-01	 9.828368828670864e-01	-8.663634591500186e+00
1	 8.704525055513380e-01	 1.003700391748317e+00	-9.209292742592851e+00
1	 8.464957662920578e-01	 1.023985819465264e+00	-9.746498731062658e+00
1	 8.220939961735474e-01	 1.043677872847621e+00	-1.027379488097049e+01
1	 1.054900215566412e+00	 8.309337165625104e-01	-4.711407475328770e+00
1	 1.034996419674568e+00	 8.555978713059504e-01	-5.261127844830968e+00
1	 1.014492869078944e+00	 8.798122099121048e-01	-5.813917377197838e+00
1	 9.934050213925393e-01	 9.035550728065987e-01	-6.368196850440788e+00
1	 9.717493680794327e-01	 9.268055199229626e-01	-6.922384679103130e+00
1	 9.495433918790782e-01	 9.495433918790783e-01	-7.474903979772701e+00
1	 9.268055199229626e-01	 9.717493680794327e-01	-8.024189614185905e+00
1	 9.035550728065990e-01	 9.934050213925391e-01	-8.568695152995099e+00
1	 8.798122099121050e-01	 1.014492869078944e+00	-9.106899704056577e+00
1	 8.555978713059509e-01	 1.034996419674568e+00	-9.637314550603804e+00
1	 8.309337165625105e-01	 1.054900215566412e+00	-1.015848954686864e+01
1	 1.066122558285204e+00	 8.397734369514734e-01	-4.684118482271706e+00
1	 1.046007019883872e+00	 8.646999763198441e-01	-5.222668105977568e+00
1	 1.025285346409571e+00	 8.891719142728722e-01	-5.764714439326860e+00
1	 1.003973159917992e+00	 9.131673608151796e-01	-6.308717910192682e+00
1	 9.820871273143201e-01	 9.366651531136321e-01	-6.853132653965835e+00
1	 9.596449173246001e-01	 9.596449173246002e-01	-7.396413498527029e+00
1	 9.366651531136323e-01	 9.820871273143201e-01	-7.937022957072444e+00
1	 9.131673608151799e-01	 1.003973159917992e+00	-8.473438172011901e+00
1	 8.891719142728721e-01	 1.025285346409571e+00	-9.004157753603174e+00
1	 8.646999763198443e-01	 1.046007019883872e+00	-9.527708458152555e+00
1	 8.397734369514734e-01	 1.066122558285204e+00	-1.004265165248293e+01
1	 1.077344901003995e+00	 8.486131573404362e-01	-4.655455083955887e+00
1	 1.057017620093176e+00	 8.738020813337369e-01	-5.183123488806183e+00
1	 1.036077823740198e+00	 8.985316186336387e-01	-5.714663735115900e+00
1	 1.014541298443444e+00	 9.227796488237606e-01	-6.248576128411964e+00
1	 9.924248865492075e-01	 9.465247863043019e-01	-6.783351325234390e+00
1	 9.697464427701223e-01	 9.697464427701227e-01	-7.317477226382469e+00
1	 9.465247863043018e-01	 9.924248865492077e-01	-7.849445903873083e+00
1	 9.227796488237608e-01	 1.014541298443444e+00	-8.377760505128995e+00
1	 8.985316186336388e-01	 1.036077823740198e+00	-8.900942078063620e+00
1	 8.738020813337372e-01	 1.057017620093176e+00	-9.417536261602347e+00
1	 8.486131573404361e-01	 1.077344901003995e+00	-9.926119787766780e+00
1	 1.088567243722787e+00	 8.574528777293993e-01	-4.625533785610487e+00
1	 1.068028220302480e+00	 8.829041863476299e-01	-5.142571671069676e+00
1	 1.046870301070825e+00	 9.078913229944062e-01	-5.663806906738769e+00
1	 1.025109436968897e+00	 9.323919368323413e-01	-6.187779850993409e+00
1	 1.002762645784095e+00	 9.563844194949718e-01	-6.713018417864616e+00
1	 9.798479682156443e-01	 9.798479682156445e-01	-7.238044867624254e+00
1	 9.563844194949718e-01	 1.002762645784095e+00	-7.761382652611409e+00
1	 9.323919368323412e-01	 1.025109436968897e+00	-8.281563262261642e+00
1	 9.078913229944061e-01	 1.046870301070825e+00	-8.797133011203547e+00
1	 8.829041863476302e-01	 1.068028220302480e+00	-9.306659714912936e+00
1	 8.574528777293990e-01	 1.088567243722787e+00	-9.808739198757934e+00
1	 1.099789586441579e+00	 8.662925981183619e-01	-4.594466337149169e+00
1	 1.079038820511784e+00	 8.920062913615231e-01	-5.101087160000342e+00
1	 1.057662778401453e+00	 9.172510273551729e-01	-5.612183896688598e+00
1	 1.035677575494349e+00	 9.420042248409225e-01	-6.126337083183114e+00
1	 1.013100405018983e+00	 9.662440526856416e-01	-6.642112565997828e+00
1	 9.899494936611666e-01	 9.899494936611666e-01	-7.158068179423895e+00
1	 9.662440526856416e-01	 1.013100405018983e+00	-7.672760495269193e+00
1	 9.420042248409224e-01	 1.035677575494349e+00	-8.184751589655196e+00
1	 9.172510273551733e-01	 1.057662778401452e+00	-8.692615771124833e+00
1	 8.920062913615233e-01	 1.079038820511784e+00	-9.194946214739453e+00
1	 8.662925981183618e-01	 1.099789586441579e+00	-9.690361447982443e+00
1	 1.111011929160370e+00	 8.751323185073248e-01	-4.562359973337585e+00
1	 1.090049420721088e+00	 9.011083963754161e-01	-5.058741452437332e+00
1	 1.068455255732079e+00	 9.266107317159404e-01	-5.559833033620496e+00
1	 1.046245714019802e+00	 9.516165128495029e-01	-6.064255506782876e+00
1	 1.023438164253871e+00	 9.761036858763115e-01	-6.570613267042306e+00
1	 1.000051019106688e+00	 1.000051019106689e+00	-7.077500868158094e+00
1	 9.761036858763114e-01	 1.023438164253870e+00	-7.583509661525998e+00
1	 9.516165128495029e-01	 1.046245714019802e+00	-8.087234466029907e+00
1	 9.266107317159404e-01	 1.068455255732079e+00	-8.587280213581716e+00
1	 9.011083963754162e-01	 1.090049420721087e+00	-9.082268515448053e+00
1	 8.751323185073248e-01	 1.111011929160370e+00	-9.570844095440089e+00
1	 1.122234271879162e+00	 8.839720388962876e-01	-4.529317639550742e+00
1	 1.101060020930392e+00	 9.102105013893090e-01	-5.015603185346177e+00
1	 1.079247733062707e+00	 9.359704360767072e-01	-5.506791113043393e+00
1	 1.056813852545254e+00	 9.612288008580839e-01	-6.001542496322434e+00
1	 1.033775923488758e+00	 9.859633190669812e-01	-6.498500838510049e+00
1	 1.010152544552211e+00	 1.010152544552211e+00	-6.996298491948475e+00
1	 9.859633190669811e-01	 1.033775923488758e+00	-7.493563171874110e+00
1	 9.612288008580840e-01	 1.056813852545254e+00	-7.988924510957201e+00
1	 9.359704360767074e-01	 1.079247733062706e+00	-8.481020600098267e+00
1	 9.102105013893093e-01	 1.101060020930392e+00	-8.968504461230195e+00
1	 8.839720388962875e-01	 1.122234271879162e+00	-9.450050398730493e+00
1	 7.955748350066588e-01	 1.010010844691246e+00	-1.061823722873723e+01
1	 7.715509093593930e-01	 1.028479663754462e+00	-1.114992323189309e+01
1	 7.471396042906104e-01	 1.046347760637097e+00	-1.166688668418982e+01
1	 7.223633489497694e-01	 1.063603505345799e+00	-1.216790738166037e+01
1	 6.972450050368567e-01	 1.080236375725679e+00	-1.265182813953899e+01
1	 6.718077991660253e-01	 1.096236975051242e+00	-1.311755974286718e+01
1	 6.460752546157621e-01	 1.111597044734725e+00	-1.356408539861839e+01
1	 6.200711228691402e-01	 1.126309472158340e+00	-1.399046466137395e+01
1	 5.938193153413878e-01	 1.140368293674145e+00	-1.439583681060925e+01
1	 5.673438356818953e-01	 1.153768692851193e+00	-1.477942366380669e+01
1	 5.406687130241730e-01	 1.166506994083868e+00	-1.514053181579850e+01
1	 8.044145553956220e-01	 1.021233187410037e+00	-1.050348898324484e+01
1	 7.801236972411643e-01	 1.039907215573955e+00	-1.103002456256714e+01
1	 7.554411554493951e-01	 1.057973846866398e+00	-1.154256133801582e+01
1	 7.303896083825445e-01	 1.075421322071863e+00	-1.203989738541917e+01
1	 7.049921717594883e-01	 1.092239002122630e+00	-1.252088878785112e+01
1	 6.792723302678702e-01	 1.108417385885145e+00	-1.298445466911762e+01
1	 6.532538685559376e-01	 1.123948123009555e+00	-1.342958176186286e+01
1	 6.269608020121306e-01	 1.138824021848989e+00	-1.385532848042538e+01
1	 6.004173077340699e-01	 1.153039052492747e+00	-1.426082847431395e+01
1	 5.736476560783607e-01	 1.166588344993984e+00	-1.464529364407905e+01
1	 5.466761431688860e-01	 1.179468182907022e+00	-1.500801660733461e+01
1	 8.132542757845848e-01	 1.032455530128829e+00	-1.038873608266333e+01
1	 7.886964851229353e-01	 1.051334767393450e+00	-1.091002665985382e+01
1	 7.637427066081792e-01	 1.069599933095698e+00	-1.141800252708236e+01
1	 7.384158678153198e-01	 1.087239138797927e+00	-1.191147903167116e+01
1	 7.127393384821202e-01	 1.104241628519583e+00	-1.238932461664606e+01
1	 6.867368613697150e-01	 1.120597796719048e+00	-1.285046594503633e+01
1	 6.604324824961126e-01	 1.136299201284386e+00	-1.329389259115624e+01
1	 6.338504811551211e-01	 1.151338571539637e+00	-1.371866126703418e+01
1	 6.070153001267521e-01	 1.165709811311348e+00	-1.412389955761656e+01
1	 5.799514764748261e-01	 1.179407997136775e+00	-1.450880914404056e+01
1	 5.526835733135990e-01	 1.192429371730176e+00	-1.487266850004777e+01
1	 8.220939961735474e-01	 1.043677872847621e+00	-1.027379488097049e+01
1	 7.972692730047061e-01	 1.062762319212943e+00	-1.078972775512375e+01
1	 7.720442577669638e-01	 1.081226019325000e+00	-1.129299096534339e+01
1	 7.464421272480949e-01	 1.099056955523992e+00	-1.178241615920998e+01
1	 7.204865052047519e-01	 1.116244254916535e+00	-1.225688326640328e+01
1	 6.942013924715593e-01	 1.132778207552950e+00	-1.271532572161871e+01
1	 6.676110964362876e-01	 1.148650279559216e+00	-1.315673528610751e+01
1	 6.407401602981114e-01	 1.163853121230285e+00	-1.358016643397892e+01
1	 6.136132925194341e-01	 1.178380570129949e+00	-1.398474027459768e+01
1	 5.862552968712916e-01	 1.192227649279566e+00	-1.436964798784552e+01
1	 5.586910034583120e-01	 1.205390560553330e+00	-1.473415375460598e+01
1	 8.309337165625105e-01	 1.054900215566412e+00	-1.015848954686864e+01
1	 8.058420608864770e-01	 1.074189871032437e+00	-1.066893466564669e+01
1	 7.803458089257485e-01	 1.092852105554301e+00	-1.116731669807378e+01
1	 7.544683866808702e-01	 1.110874772250056e+00	-1.165248265624230e+01
1	 7.282336719273834e-01	 1.128246881313487e+00	-1.212332311630521e+01
1	 7.016659235734043e-01	 1.144958618386853e+00	-1.257877754769017e+01
1	 6.747897103764626e-01	 1.161001357834046e+00	-1.301783927187418e+01
1	 6.476298394411021e-01	 1.176367670920933e+00	-1.343956001477114e+01
1	 6.202112849121161e-01	 1.191051328948551e+00	-1.384305402171747e+01
1	 5.925591172677575e-01	 1.205047301422357e+00	-1.422750170925888e+01
1	 5.646984336030250e-01	 1.218351749376484e+00	-1.459215283335117e+01
1	 8.397734369514734e-01	 1.066122558285204e+00	-1.004265165248293e+01
1	 8.144148487682482e-01	 1.085617422851932e+00	-1.054746234270216e+01
1	 7.886473600845333e-01	 1.104478191783602e+00	-1.104077861074753e+01
1	 7.624946461136453e-01	 1.122692588976121e+00	-1.152146193147129e+01
1	 7.359808386500150e-01	 1.140249507710439e+00	-1.198841271904244e+01
1	 7.091304546752492e-01	 1.157139029220756e+00	-1.244057577002029e+01
1	 6.819683243166379e-01	 1.173352436108877e+00	-1.287694536623877e+01
1	 6.545195185840925e-01	 1.188882220611581e+00	-1.329656999940607e+01
1	 6.268092773047984e-01	 1.203722087767153e+00	-1.369855668400622e+01
1	 5.988629376642230e-01	 1.217866953565149e+00	-1.408207483009741e+01
1	 5.707058637477380e-01	 1.231312938199638e+00	-1.444635965284228e+01
1	 8.486131573404361e-01	 1.077344901003995e+00	-9.926119787766781e+00
1	 8.229876366500192e-01	 1.097044974671425e+00	-1.042513344793293e+01
1	 7.969489112433175e-01	 1.116104278012903e+00	-1.091318396861052e+01
1	 7.705209055464206e-01	 1.134510405702185e+00	-1.138914641823753e+01
1	 7.437280053726468e-01	 1.152252134107391e+00	-1.185193027094335e+01
1	 7.165949857770937e-01	 1.169319440054658e+00	-1.230048497092988e+01
1	 6.891469382568128e-01	 1.185703514383706e+00	-1.273380518624283e+01
1	 6.614091977270830e-01	 1.201396770302230e+00	-1.315093571162901e+01
1	 6.334072696974803e-01	 1.216392846585755e+00	-1.355097598461786e+01
1	 6.051667580606884e-01	 1.230686605707940e+00	-1.393308418376910e+01
1	 5.767132938924509e-01	 1.244274127022792e+00	-1.429648088311499e+01
1	 8.574528777293990e-01	 1.088567243722787e+00	-9.808739198757937e+00
1	 8.315604245317900e-01	 1.108472526490919e+00	-1.030177795590373e+01
1	 8.052504624021023e-01	 1.127730364242204e+00	-1.078434798473347e+01
1	 7.785471649791956e-01	 1.146328222428249e+00	-1.125533710933144e+01
1	 7.514751720952785e-01	 1.164254760504343e+00	-1.171366311487960e+01
1	 7.240595168789383e-01	 1.181499850888561e+00	-1.215827944068544e+01
1	 6.963255521969880e-01	 1.198054592658537e+00	-1.258818059152416e+01
1	 6.682988768700734e-01	 1.213911319992878e+00	-1.300240722472176e+01
1	 6.400052620901623e-01	 1.229063605404356e+00	-1.340005087461748e+01
1	 6.114705784571537e-01	 1.243506257850730e+00	-1.378025828065455e+01
1	 5.827207240371641e-01	 1.257235315845946e+00	-1.414223529028607e+01
1	 8.662925981183618e-01	 1.099789586441579e+00	-9.690361447982440e+00
1	 8.401332124135613e-01	 1.119900078310413e+00	-1.017723278099302e+01
1	 8.135520135608866e-01	 1.139356450471505e+00	-1.065409341451074e+01
1	 7.865734244119709e-01	 1.158146039154314e+00	-1.111984312028676e+01
1	 7.592223388179103e-01	 1.176257386901295e+00	-1.157340727360555e+01
1	 7.315240479807831e-01	 1.193680261722463e+00	-1.201374268219550e+01
1	 7.035041661371632e-01	 1.210405670933367e+00	-1.243984316173524e+01
1	 6.751885560130640e-01	 1.226425869683527e+00	-1.285074481305648e+01
1	 6.466032544828446e-01	 1.241734364222958e+00	-1.324553096012886e+01
1	 6.177743988536192e-01	 1.256325909993521e+00	-1.362333671234343e+01
1	 5.887281541818771e-01	 1.270196504669101e+00	-1.398335311940619e+01
1	 8.751323185073248e-01	 1.111011929160370e+00	-9.570844095440089e+00
1	 8.487060002953323e-01	 1.131327630129908e+00	-1.005134142689729e+01
1	 8.218535647196713e-01	 1.150982536700806e+00	-1.052225017473504e+01
1	 7.945996838447463e-01	 1.169963855880378e+00	-1.098248127914083e+01
1	 7.669695055405418e-01	 1.188260013298246e+00	-1.143096701138042e+01
1	 7.389885790826279e-01	 1.205860672556366e+00	-1.186666694572577e+01
1	 7.106827800773383e-01	 1.222756749208197e+00	-1.228857370563361e+01
1	 6.820782351560541e-01	 1.238940419374174e+00	-1.269571843688929e+01
1	 6.532012468755265e-01	 1.254405123041560e+00	-1.308717596420001e+01
1	 6.240782192500847e-01	 1.269145562136312e+00	-1.346206959197735e+01
1	 5.947355843265902e-01	 1.283157693492255e+00	-1.381957551471599e+01
1	 8.839720388962875e-01	 1.122234271879162e+00	-9.450050398730497e+00
1	 8.572787881771033e-01	 1.142755181949402e+00	-9.923953657165139e+00
1	 8.301551158784558e-01	 1.162608622930107e+00	-1.038865498552718e+01
1	 8.026259432775211e-01	 1.181781672606442e+00	-1.084307574080955e+01
1	 7.747166722631738e-01	 1.200262639695199e+00	-1.128615442189319e+01
1	 7.464531101844724e-01	 1.218041083390269e+00	-1.171685279153159e+01
1	 7.178613940175135e-01	 1.235107827483028e+00	-1.213416179962649e+01
1	 6.889679142990445e-01	 1.251454969064822e+00	-1.253710725806619e+01
1	 6.597992392682085e-01	 1.267075881860161e+00	-1.292475522095703e+01
1	 6.303820396465504e-01	 1.281965214279103e+00	-1.329621702817222e+01
1	 6.007430144713030e-01	 1.296118882315408e+00	-1.365065397468637e+01
1	 5.406687130241730e-01	 1.166506994083868e+00	-1.514053181579849e+01
1	 5.138179365403981e-01	 1.178580651707452e+00	-1.547855477401611e+01
1	 4.868153916373548e-01	 1.189988234796784e+00	-1.579287051497227e+01
1	 4.596847981081728e-01	 1.200729407850930e+00	-1.608288152020532e+01
1	 4.324496505295898e-01	 1.210804907591075e+00	-1.634806524655267e+01
1	 4.051331611679505e-01	 1.220216516119930e+00	-1.658797647671608e+01
1	 3.777582056291850e-01	 1.228967030708967e+00	-1.680224911463774e+01
1	 3.503472714589639e-01	 1.237060230494480e+00	-1.699059742707609e+01
1	 3.229224098695080e-01	 1.244500840374913e+00	-1.715281673842593e+01
1	 2.955051907395220e-01	 1.251294492410078e+00	-1.728878359114366e+01
1	 2.681166610037777e-01	 1.257447685027883e+00	-1.739845538904493e+01
1	 5.466761431688860e-01	 1.179468182907022e+00	-1.500801660733461e+01
1	 5.195270247241806e-01	 1.191675992281980e+00	-1.534831214742279e+01
1	 4.922244515444364e-01	 1.203210326294526e+00	-1.566547903555819e+01
1	 4.647924069760414e-01	 1.214070845715940e+00	-1.595889768133504e+01
1	 4.372546466465853e-01	 1.224258295453198e+00	-1.622801783086672e+01
1	 4.096346407364832e-01	 1.233774477410152e+00	-1.647236134789663e+01
1	 3.819555190250647e-01	 1.242622219939066e+00	-1.669152446134499e+01
1	 3.542400189196190e-01	 1.250805344166641e+00	-1.688517947570135e+01
1	 3.265104366458357e-01	 1.258328627490190e+00	-1.705307594638980e+01
1	 2.987885817477389e-01	 1.265197764547968e+00	-1.719504132767177e+01
1	 2.710957350149307e-01	 1.271419325972637e+00	-1.731098110573497e+01
1	 5.526835733135990e-01	 1.192429371730176e+00	-1.487266850004777e+01
1	 5.252361129079626e-01	 1.204771332856507e+00	-1.521471096587766e+01
1	 4.976335114515183e-01	 1.216432417792268e+00	-1.553416726536521e+01
1	 4.699000158439099e-01	 1.227412283580950e+00	-1.583041688414366e+01
1	 4.420596427635807e-01	 1.237711683315321e+00	-1.610290338920290e+01
1	 4.141361203050160e-01	 1.247332438700373e+00	-1.635113746377484e+01
1	 3.861528324209446e-01	 1.256277409169166e+00	-1.657469943520861e+01
1	 3.581327663802742e-01	 1.264550457838802e+00	-1.677324128862042e+01
1	 3.300984634221636e-01	 1.272156414605467e+00	-1.694648816475060e+01
1	 3.020719727559558e-01	 1.279101036685858e+00	-1.709423934588003e+01
1	 2.740748090260838e-01	 1.285390966917391e+00	-1.721636873877050e+01
1	 5.586910034583120e-01	 1.205390560553330e+00	-1.473415375460598e+01
1	 5.309452010917448e-01	 1.217866673431034e+00	-1.507740910876855e+01
1	 5.030425713586000e-01	 1.229654509290010e+00	-1.539858978543036e+01
1	 4.750076247117785e-01	 1.240753721445961e+00	-1.569709481908875e+01
1	 4.468646388805761e-01	 1.251165071177444e+00	-1.597238244597448e+01
1	 4.186375998735488e-01	 1.260890399990595e+00	-1.622397321916439e+01
1	 3.903501458168244e-01	 1.269932598399266e+00	-1.645145264808920e+01
1	 3.620255138409293e-01	 1.278295571510962e+00	-1.665447335293068e+01
1	 3.336864901984916e-01	 1.285984201720744e+00	-1.683275672984875e+01
1	 3.053553637641728e-01	 1.293004308823748e+00	-1.698609412824519e+01
1	 2.770538830372370e-01	 1.299362607862145e+00	-1.711434754626332e+01
1	 5.646984336030250e-01	 1.218351749376484e+00	-1.459215283335116e+01
1	 5.366542892755272e-01	 1.230962014005562e+00	-1.493607901380732e+01
1	 5.084516312656815e-01	 1.242876600787752e+00	-1.525841587546982e+01
1	 4.801152335796471e-01	 1.254095159310971e+00	-1.555860182809760e+01
1	 4.516696349975716e-01	 1.264618459039567e+00	-1.583612997136433e+01
1	 4.231390794420816e-01	 1.274448361280816e+00	-1.609055111973784e+01
1	 3.945474592127042e-01	 1.283587787629365e+00	-1.632147638793854e+01
1	 3.659182613015847e-01	 1.292040685183124e+00	-1.652857932649136e+01
1	 3.372745169748194e-01	 1.299811988836021e+00	-1.671159760201035e+01
1	 3.086387547723898e-01	 1.306907580961637e+00	-1.687033422181982e+01
1	 2.800329570483900e-01	 1.313334248806900e+00	-1.700465830725692e+01
1	 5.707058637477380e-01	 1.231312938199638e+00	-1.444635965284228e+01
1	 5.423633774593093e-01	 1.244057354580089e+00	-1.479040691080216e+01
1	 5.138606911727631e-01	 1.256098692285494e+00	-1.511332874026462e+01
1	 4.852228424475157e-01	 1.267436597175981e+00	-1.541462213343750e+01
1	 4.564746311145670e-01	 1.278071846901690e+00	-1.569383462102119e+01
1	 4.276405590106143e-01	 1.288006322571037e+00	-1.595056703935027e+01
1	 3.987447726085840e-01	 1.297242976859465e+00	-1.618447589900509e+01
1	 3.698110087622396e-01	 1.305785798855284e+00	-1.639527534472558e+01
1	 3.408625437511472e-01	 1.313639775951297e+00	-1.658273870112662e+01
1	 3.119221457806066e-01	 1.320810853099527e+00	-1.674669960325399e+01
1	 2.830120310595431e-01	 1.327305889751654e+00	-1.688705271536124e+01
1	 5.767132938924509e-01	 1.244274127022792e+00	-1.429648088311498e+01
1	 5.480724656430914e-01	 1.257152695154617e+00	-1.464009210331916e+01
1	 5.192697510798450e-01	 1.269320783783235e+00	-1.496302478439625e+01
1	 4.903304513153842e-01	 1.280778035040991e+00	-1.526485311478115e+01
1	 4.612796272315624e-01	 1.291525234763813e+00	-1.554519802327523e+01
1	 4.321420385791473e-01	 1.301564283861259e+00	-1.580372952377898e+01
1	 4.029420860044641e-01	 1.310898166089565e+00	-1.604016870702689e+01
1	 3.737037562228949e-01	 1.319530912527445e+00	-1.625428937074716e+01
1	 3.444505705274750e-01	 1.327467563066574e+00	-1.644591928376000e+01
1	 3.152055367888234e-01	 1.334714125237417e+00	-1.661494108350422e+01
1	 2.859911050706962e-01	 1.341277530696408e+00	-1.676129281028581e+01
1	 5.827207240371641e-01	 1.257235315845946e+00	-1.414223529028607e+01
1	 5.537815538268737e-01	 1.270248035729144e+00	-1.448484629477744e+01
1	 5.246788109869266e-01	 1.282542875280978e+00	-1.480721293184512e+01
1	 4.954380601832527e-01	 1.294119472906002e+00	-1.510900463099008e+01
1	 4.660846233485579e-01	 1.304978622625936e+00	-1.538993411044294e+01
1	 4.366435181476797e-01	 1.315122245151480e+00	-1.564975913753260e+01
1	 4.071393994003437e-01	 1.324553355319664e+00	-1.588828398616529e+01
1	 3.775965036835500e-01	 1.333276026199606e+00	-1.610536058568577e+01
1	 3.480385973038030e-01	 1.341295350181852e+00	-1.630088935877968e+01
1	 3.184889277970403e-01	 1.348617397375307e+00	-1.647481974936372e+01
1	 2.889701790818494e-01	 1.355249171641163e+00	-1.662715044453570e+01
1	 5.887281541818771e-01	 1.270196504669101e+00	-1.398335311940619e+01
1	 5.594906420106557e-01	 1.283343376303670e+00	-1.432439295580342e+01
1	 5.300878708940083e-01	 1.295764966778720e+00	-1.464561398724548e+01
1	 5.005456690511215e-01	 1.307460910771012e+00	-1.494679838342139e+01
1	 4.708896194655534e-01	 1.318432010488060e+00	-1.522776849107291e+01
1	 4.411449977162127e-01	 1.328680206441701e+00	-1.548838785064967e+01
1	 4.113367127962235e-01	 1.338208544549764e+00	-1.572856196469747e+01
1	 3.814892511442051e-01	 1.347021139871767e+00	-1.594823881633928e+01
1	 3.516266240801308e-01	 1.355123137297128e+00	-1.614740913877436e+01
1	 3.217723188052573e-01	 1.362520669513196e+00	-1.632610643918528e+01
1	 2.919492530930024e-01	 1.369220812585917e+00	-1.648440678275858e+01
1	 5.947355843265902e-01	 1.283157693492255e+00	-1.381957551471599e+01
1	 5.651997301944379e-01	 1.296438716878197e+00	-1.415846672992764e+01
1	 5.354969308010902e-01	 1.308987058276462e+00	-1.447796003585230e+01
1	 5.056532779189902e-01	 1.320802348636023e+00	-1.477796731782146e+01
1	 4.756946155825488e-01	 1.331885398350183e+00	-1.505843786023680e+01
1	 4.456464772847454e-01	 1.342238167731923e+00	-1.531935846266227e+01
1	 4.155340261921033e-01	 1.351863733779864e+00	-1.556075336672781e+01
1	 3.853819986048602e-01	 1.360766253543927e+00	-1.578268399751379e+01
1	 3.552146508564586e-01	 1.368950924412405e+00	-1.598524852471304e+01
1	 3.250557098134743e-01	 1.376423941651086e+00	-1.616858125037805e+01
1	 2.949283271041554e-01	 1.383192453530671e+00	-1.633285183143457e+01
1	 6.007430144713030e-01	 1.296118882315408e+00	-1.365065397468637e+01
1	 5.709088183782203e-01	 1.309534057452725e+00	-1.398681287493927e+01
1	 5.409059907081718e-01	 1.322209149774204e+00	-1.430399387951045e+01
1	 5.107608867868586e-01	 1.334143786501033e+00	-1.460225506210725e+01
1	 4.804996116995442e-01	 1.345338786212305e+00	-1.488168944520360e+01
1	 4.501479568532782e-01	 1.355796129022144e+00	-1.514242406112118e+01
1	 4.197313395879832e-01	 1.365518923009963e+00	-1.538461888739638e+01
1	 3.892747460655154e-01	 1.374511367216089e+00	-1.560846566662306e+01
1	 3.588026776327866e-01	 1.382778711527682e+00	-1.581418662152612e+01
1	 3.283391008216911e-01	 1.390327213788976e+00	-1.600203307645488e+01
1	 2.979074011153085e-01	 1.397164094475425e+00	-1.617228399678462e+01
1	 2.681166610037777e-01	 1.257447685027883e+00	-1.739845538904493e+01
1	 2.407773065193377e-01	 1.262967740346161e+00	-1.748266900231235e+01
1	 2.135070174665914e-01	 1.267862759916197e+00	-1.754136944449243e+01
1	 1.863250573154937e-01	 1.272141579190844e+00	-1.757333124397458e+01
1	 1.592500353608370e-01	 1.275813721013914e+00	-1.757745918809297e+01
1	 1.322998828053422e-01	 1.278889348418967e+00	-1.755279230629505e+01
1	 1.054918323459531e-01	 1.281379217015045e+00	-1.749850672285283e+01
1	 7.884240119714231e-02	 1.283294627224498e+00	-1.741391741583175e+01
1	 5.236737746537364e-02	 1.284647376624105e+00	-1.729847892778232e+01
1	 2.608180977121667e-02	 1.285449712625450e+00	-1.715178508120584e+01
1	 0.000000000000000e+00	 1.285714285714286e+00	-1.697356775824901e+01
1	 2.710957350149307e-01	 1.271419325972637e+00	-1.731098110573498e+01
1	 2.434526099251081e-01	 1.277000715238896e+00	-1.740169579131053e+01
1	 2.158793176606647e-01	 1.281950123915266e+00	-1.746707918827373e+01
1	 1.883953357301102e-01	 1.286276485626298e+00	-1.750582933658983e+01
1	 1.610194801981796e-01	 1.289989429025179e+00	-1.751677446672639e+01
1	 1.337698815031793e-01	 1.293099230068067e+00	-1.749887764200578e+01
1	 1.066639638164637e-01	 1.295616763870767e+00	-1.745124022823883e+01
1	 7.971842787711057e-02	 1.297553456415882e+00	-1.737310422456837e+01
1	 5.294923721498889e-02	 1.298921236364373e+00	-1.726385349885032e+01
1	 2.637160765756353e-02	 1.299732487210178e+00	-1.712301397912328e+01
1	 0.000000000000000e+00	 1.300000000000000e+00	-1.695025285971909e+01
1	 2.740748090260838e-01	 1.285390966917391e+00	-1.721636873877050e+01
1	 2.461279133308786e-01	 1.291033690131632e+00	-1.731365099231697e+01
1	 2.182516178547379e-01	 1.296037487914335e+00	-1.738591024501014e+01
1	 1.904656141447268e-01	 1.300411392061752e+00	-1.743174425806765e+01
1	 1.627889250355222e-01	 1.304165137036445e+00	-1.744988081908203e+01
1	 1.352398802010165e-01	 1.307309111717166e+00	-1.743918322570590e+01
1	 1.078360952869743e-01	 1.309854310726490e+00	-1.739865454333711e+01
1	 8.059445455707880e-02	 1.311812285607265e+00	-1.732744066716307e+01
1	 5.353109696460417e-02	 1.313195096104641e+00	-1.722483222915254e+01
1	 2.666140554391038e-02	 1.314015261794905e+00	-1.709026539960527e+01
1	 0.000000000000000e+00	 1.314285714285714e+00	-1.692332164063066e+01
1	 2.770538830372370e-01	 1.299362607862145e+00	-1.711434754626331e+01
1	 2.488032167366490e-01	 1.305066665024367e+00	-1.721827370102362e+01
1	 2.206239180488112e-01	 1.310124851913404e+00	-1.729760698298653e+01
1	 1.925358925593434e-01	 1.314546298497205e+00	-1.735082183452514e+01
1	 1.645583698728649e-01	 1.318340845047711e+00	-1.737652245936755e+01
1	 1.367098788988536e-01	 1.321518993366265e+00	-1.737344932691418e+01
1	 1.090082267574849e-01	 1.324091857582213e+00	-1.734048438643023e+01
1	 8.147048123704703e-02	 1.326071114798648e+00	-1.727665501713458e+01
1	 5.411295671421944e-02	 1.327468955844909e+00	-1.718113675143760e+01
1	 2.695120343025724e-02	 1.328298036379632e+00	-1.705325481855992e+01
1	 0.000000000000000e+00	 1.328571428571429e+00	-1.689248456445011e+01
1	 2.800329570483900e-01	 1.313334248806900e+00	-1.700465830725692e+01
1	 2.514785201424192e-01	 1.319099639917102e+00	-1.711531411543324e+01
1	 2.229962182428843e-01	 1.324212215912473e+00	-1.720192464843304e+01
1	 1.946061709739600e-01	 1.328681204932659e+00	-1.726281870798908e+01
1	 1.663278147102075e-01	 1.332516553058977e+00	-1.729645448629242e+01
1	 1.381798775966907e-01	 1.335728875015365e+00	-1.730142726751052e+01
1	 1.101803582279955e-01	 1.338329404437936e+00	-1.727647576438452e+01
1	 8.234650791701530e-02	 1.340329943990032e+00	-1.722048711083080e+01
1	 5.469481646383469e-02	 1.341742815585177e+00	-1.713250054386914e+01
1	 2.724100131660408e-02	 1.342580810964360e+00	-1.701170981930383e+01
1	 0.000000000000000e+00	 1.342857142857143e+00	-1.685746441534737e+01
1	 2.830120310595431e-01	 1.327305889751654e+00	-1.688705271536124e+01
1	 2.541538235481897e-01	 1.333132614809837e+00	-1.700453295152749e+01
1	 2.253685184369576e-01	 1.338299579911541e+00	-1.709862879300170e+01
1	 1.966764493885766e-01	 1.342816111368113e+00	-1.716750176713775e+01
1	 1.680972595475501e-01	 1.346692261070242e+00	-1.720944231019943e+01
1	 1.396498762945279e-01	 1.349938756664465e+00	-1.722287884003238e+01
1	 1.113524896985061e-01	 1.352566951293658e+00	-1.720638537851401e+01
1	 8.322253459698356e-02	 1.354588773181415e+00	-1.715868773885857e+01
1	 5.527667621344996e-02	 1.356016675325444e+00	-1.707866830658262e+01
1	 2.753079920295094e-02	 1.356863585549087e+00	-1.696536945532929e+01
1	 0.000000000000000e+00	 1.357142857142857e+00	-1.681799564973785e+01
1	 2.859911050706962e-01	 1.341277530696408e+00	-1.676129281028581e+01
1	 2.568291269539602e-01	 1.347165589702572e+00	-1.688570089545551e+01
1	 2.277408186310308e-01	 1.352386943910610e+00	-1.698749473702569e+01
1	 1.987467278031933e-01	 1.356951017803567e+00	-1.706464761362120e+01
1	 1.698667043848928e-01	 1.360867969081508e+00	-1.711526111600036e+01
1	 1.411198749923649e-01	 1.364148638313564e+00	-1.713757576232813e+01
1	 1.125246211690167e-01	 1.366804498149381e+00	-1.712998006757802e+01
1	 8.409856127695178e-02	 1.368847602372798e+00	-1.709101807554940e+01
1	 5.585853596306523e-02	 1.370290535065712e+00	-1.701939537720811e+01
1	 2.782059708929779e-02	 1.371146360133814e+00	-1.691398365290003e+01
1	 0.000000000000000e+00	 1.371428571428571e+00	-1.677382378835297e+01
1	 2.889701790818494e-01	 1.355249171641163e+00	-1.662715044453569e+01
1	 2.595044303597306e-01	 1.361198564595307e+00	-1.675859808960759e+01
1	 2.301131188251041e-01	 1.366474307909679e+00	-1.686830706597915e+01
1	 2.008170062178098e-01	 1.371085924239021e+00	-1.695404206139267e+01
1	 1.716361492222354e-01	 1.375043677092774e+00	-1.701369535933247e+01
1	 1.425898736902021e-01	 1.378358519962664e+00	-1.704529916594324e+01
1	 1.136967526395273e-01	 1.381042045005104e+00	-1.704703628523243e+01
1	 8.497458795692005e-02	 1.383106431564182e+00	-1.701724914371604e+01
1	 5.644039571268048e-02	 1.384564394805980e+00	-1.695444718254550e+01
1	 2.811039497564464e-02	 1.385429134718542e+00	-1.685731265059878e+01
1	 0.000000000000000e+00	 1.385714285714286e+00	-1.672470484591465e+01
1	 2.919492530930024e-01	 1.369220812585917e+00	-1.648440678275858e+01
1	 2.621797337655010e-01	 1.375231539488042e+00	-1.662301365015406e+01
1	 2.324854190191773e-01	 1.380561671908748e+00	-1.674085915776581e+01
1	 2.028872846324264e-01	 1.385220830674475e+00	-1.683547966669294e+01
1	 1.734055940595781e-01	 1.389219385104039e+00	-1.690453829356188e+01
1	 1.440598723880392e-01	 1.392568401611764e+00	-1.694583911582929e+01
1	 1.148688841100378e-01	 1.395279591860826e+00	-1.695733960947365e+01
1	 8.585061463688828e-02	 1.397365260755565e+00	-1.693716131217896e+01
1	 5.702225546229574e-02	 1.398838254546248e+00	-1.688359872381094e+01
1	 2.840019286199148e-02	 1.399711909303269e+00	-1.679512647318848e+01
1	 0.000000000000000e+00	 1.400000000000000e+00	-1.667040479572752e+01
1	 2.949283271041554e-01	 1.383192453530671e+00	-1.633285183143457e+01
1	 2.648550371712714e-01	 1.389264514380777e+00	-1.647874521382414e+01
1	 2.348577192132506e-01	 1.394649035907817e+00	-1.660495273865696e+01
1	 2.049575630470430e-01	 1.399355737109929e+00	-1.670876328652065e+01
1	 1.751750388969207e-01	 1.403395093115305e+00	-1.678759152545416e+01
1	 1.455298710858763e-01	 1.406778283260863e+00	-1.683899415916225e+01
1	 1.160410155805484e-01	 1.409517138716549e+00	-1.686068428181333e+01
1	 8.672664131685655e-02	 1.411624089946949e+00	-1.685054382374550e+01
1	 5.760411521191101e-02	 1.413112114286516e+00	-1.680663409308063e+01
1	 2.868999074833834e-02	 1.413994683887996e+00	-1.672720443736081e+01
1	 0.000000000000000e+00	 1.414285714285714e+00	-1.661069906672036e+01
1	 2.979074011153085e-01	 1.397164094475425e+00	-1.617228399678461e+01
1	 2.675303405770418e-01	 1.403297489273513e+00	-1.632559851187776e+01
1	 2.372300194073238e-01	 1.408736399906886e+00	-1.646039746587293e+01
1	 2.070278414616596e-01	 1.413490643545382e+00	-1.657370366359471e+01
1	 1.769444837342633e-01	 1.417570801126571e+00	-1.666266459750427e+01
1	 1.469998697837135e-01	 1.420988164909963e+00	-1.672457090123089e+01
1	 1.172131470510590e-01	 1.423754685572272e+00	-1.675687277410281e+01
1	 8.760266799682477e-02	 1.425882919138332e+00	-1.675719435151090e+01
1	 5.818597496152627e-02	 1.427385974026783e+00	-1.672334601874767e+01
1	 2.897978863468519e-02	 1.428277458472723e+00	-1.665333468714007e+01
1	 0.000000000000000e+00	 1.428571428571429e+00	-1.654537207066472e+01
1	 1.428571428571429e+00	 0.000000000000000e+00	 8.355106236659230e+00
1	 1.428277458472724e+00	 2.897978863468439e-02	 7.886728809641725e+00
1	 1.427385974026783e+00	 5.818597496152556e-02	 7.422906854101570e+00
1	 1.425882919138332e+00	 8.760266799682419e-02	 6.964666716468463e+00
1	 1.423754685572271e+00	 1.172131470510585e-01	 6.513044189141698e+00
1	 1.420988164909963e+00	 1.469998697837131e-01	 6.069079060201432e+00
1	 1.417570801126570e+00	 1.769444837342630e-01	 5.633809258004500e+00
1	 1.413490643545382e+00	 2.070278414616595e-01	 5.208264610178241e+00
1	 1.408736399906886e+00	 2.372300194073238e-01	 4.793460242043828e+00
1	 1.403297489273513e+00	 2.675303405770419e-01	 4.390389645167119e+00
1	 1.397164094475425e+00	 2.979074011153084e-01	 4.000017452477765e+00
1	 1.442857142857143e+00	 0.000000000000000e+00	 8.062392174714358e+00
1	 1.442560233057450e+00	 2.926958652103124e-02	 7.602099104934594e+00
1	 1.441659833767051e+00	 5.876783471114080e-02	 7.146605052767963e+00
1	 1.440141748329715e+00	 8.847869467679245e-02	 6.696971227870508e+00
1	 1.437992232427994e+00	 1.183852785215691e-01	 6.254262615976017e+00
1	 1.435198046559063e+00	 1.484698684815503e-01	 5.819541969398205e+00
1	 1.431746509137836e+00	 1.787139285716057e-01	 5.393863402575344e+00
1	 1.427625549980836e+00	 2.090981198762760e-01	 4.978265617722918e+00
1	 1.422823763905955e+00	 2.396023196013970e-01	 4.573764791434390e+00
1	 1.417330464166248e+00	 2.702056439828123e-01	 4.181347158939535e+00
1	 1.411135735420179e+00	 3.008864751264615e-01	 3.801961338613696e+00
1	 1.457142857142858e+00	 0.000000000000000e+00	 7.780240242857195e+00
1	 1.456843007642178e+00	 2.955938440737808e-02	 7.328027647964369e+00
1	 1.455933693507319e+00	 5.934969446075608e-02	 6.880822425406713e+00
1	 1.454400577521098e+00	 8.935472135676069e-02	 6.439721620298029e+00
1	 1.452229779283718e+00	 1.195574099920797e-01	 6.005820066733165e+00
1	 1.449407928208162e+00	 1.499398671793874e-01	 5.580203796710109e+00
1	 1.445922217149102e+00	 1.804833734089483e-01	 5.163943065681673e+00
1	 1.441760456416289e+00	 2.111683982908926e-01	 4.758085025650382e+00
1	 1.436911127905023e+00	 2.419746197954702e-01	 4.363646082753784e+00
1	 1.431363439058983e+00	 2.728809473885828e-01	 3.981603982359970e+00
1	 1.425107376364934e+00	 3.038655491376146e-01	 3.612889670713415e+00
1	 1.471428571428572e+00	 0.000000000000000e+00	 7.508083153758754e+00
1	 1.471125782226905e+00	 2.984918229372493e-02	 7.063973152678796e+00
1	 1.470207553247587e+00	 5.993155421037134e-02	 6.625041980782011e+00
1	 1.468659406712482e+00	 9.023074803672892e-02	 6.192423487677361e+00
1	 1.466467326139441e+00	 1.207295414625903e-01	 5.767243013178285e+00
1	 1.463617809857262e+00	 1.514098658772245e-01	 5.350610192524176e+00
1	 1.460097925160368e+00	 1.822528182462910e-01	 4.943611391229887e+00
1	 1.455895362851744e+00	 2.132386767055092e-01	 4.547301806616741e+00
1	 1.450998491904092e+00	 2.443469199895434e-01	 4.162697279376021e+00
1	 1.445396413951718e+00	 2.755562507943533e-01	 3.790765864790273e+00
1	 1.439079017309688e+00	 3.068446231487676e-01	 3.432419219391046e+00
1	 1.485714285714286e+00	 0.000000000000000e+00	 7.245375438833475e+00
1	 1.485408556811632e+00	 3.013898018007177e-02	 6.809415151719978e+00
1	 1.484481412987855e+00	 6.051341395998658e-02	 6.378766611936332e+00
1	 1.482918235903865e+00	 9.110677471669716e-02	 5.954601439553091e+00
1	 1.480704872995163e+00	 1.219016729331009e-01	 5.538076139700954e+00
1	 1.477827691506361e+00	 1.528798645750617e-01	 5.130324282212585e+00
1	 1.474273633171633e+00	 1.840222630836336e-01	 4.732448325283817e+00
1	 1.470030269287198e+00	 2.153089551201259e-01	 4.345511126637490e+00
1	 1.465085855903161e+00	 2.467192201836167e-01	 3.970527192237657e+00
1	 1.459429388844453e+00	 2.782315542001237e-01	 3.608453719078355e+00
1	 1.453050658254442e+00	 3.098236971599208e-01	 3.260181494852482e+00
1	 1.500000000000000e+00	 0.000000000000000e+00	 6.991592409251433e+00
1	 1.499691331396359e+00	 3.042877806641861e-02	 6.563853005057902e+00
1	 1.498755272728122e+00	 6.109527370960183e-02	 6.141518149320055e+00
1	 1.497177065095249e+00	 9.198280139666540e-02	 5.725798195582372e+00
1	 1.494942419850886e+00	 1.230738044036114e-01	 5.317881476047321e+00
1	 1.492037573155461e+00	 1.543498632728988e-01	 4.918925833990466e+00
1	 1.488449341182899e+00	 1.857917079209762e-01	 4.530049815962032e+00
1	 1.484165175722651e+00	 2.173792335347424e-01	 4.152323573975146e+00
1	 1.479173219902230e+00	 2.490915203776899e-01	 3.786759534715769e+00
1	 1.473462363737188e+00	 2.809068576058941e-01	 3.434302899487454e+00
1	 1.467022299199197e+00	 3.128027711710740e-01	 3.095822045010048e+00
1	 1.514285714285714e+00	 0.000000000000000e+00	 6.746229175761191e+00
1	 1.513974105981087e+00	 3.071857595276545e-02	 6.326804964739178e+00
1	 1.513029132468391e+00	 6.167713345921709e-02	 5.912836467517504e+00
1	 1.511435894286631e+00	 9.285882807663365e-02	 5.505573731284362e+00
1	 1.509179966706608e+00	 1.242459358741220e-01	 5.106237579142933e+00
1	 1.506247454804561e+00	 1.558198619707359e-01	 4.716010473876146e+00
1	 1.502625049194165e+00	 1.875611527583188e-01	 4.336027058623882e+00
1	 1.498300082158104e+00	 2.194495119493590e-01	 3.967364431674780e+00
1	 1.493260583901299e+00	 2.514638205717633e-01	 3.611032219682625e+00
1	 1.487495338629923e+00	 2.835821610116644e-01	 3.267962520497296e+00
1	 1.480993940143951e+00	 3.157818451822269e-01	 2.938999793326560e+00
1	 1.528571428571428e+00	 0.000000000000000e+00	 6.508799723475851e+00
1	 1.528256880565814e+00	 3.100837383911230e-02	 6.097807292079699e+00
1	 1.527302992208658e+00	 6.225899320883235e-02	 5.692278642063139e+00
1	 1.525694723478015e+00	 9.373485475660187e-02	 5.293504471691493e+00
1	 1.523417513562331e+00	 1.254180673446326e-01	 4.902738760794620e+00
1	 1.520457336453660e+00	 1.572898606685730e-01	 4.521188944672320e+00
1	 1.516800757205431e+00	 1.893305975956615e-01	 4.150005783381651e+00
1	 1.512434988593558e+00	 2.215197903639755e-01	 3.790272990891919e+00
1	 1.507347947900368e+00	 2.538361207658364e-01	 3.442996695977881e+00
1	 1.501528313522658e+00	 2.862574644174349e-01	 3.109094813803301e+00
1	 1.494965581088705e+00	 3.187609191933800e-01	 2.789386413789587e+00
1	 1.542857142857143e+00	 0.000000000000000e+00	 6.278836038059882e+00
1	 1.542539655150540e+00	 3.129817172545914e-02	 5.876413423902170e+00
1	 1.541576851948926e+00	 6.284085295844760e-02	 5.479418153101250e+00
1	 1.539953552669398e+00	 9.461088143657012e-02	 5.089182529798006e+00
1	 1.537655060418053e+00	 1.265901988151432e-01	 4.706994358297866e+00
1	 1.534667218102760e+00	 1.587598593664102e-01	 4.334086406114920e+00
1	 1.530976465216696e+00	 1.911000424330040e-01	 3.971625582195322e+00
1	 1.526569895029013e+00	 2.235900687785922e-01	 3.620701902368921e+00
1	 1.521435311899436e+00	 2.562084209599096e-01	 3.282317321743437e+00
1	 1.515561288415394e+00	 2.889327678232053e-01	 2.957374521038111e+00
1	 1.508937222033459e+00	 3.217399932045332e-01	 2.646665740609373e+00
1	 1.557142857142857e+00	 0.000000000000000e+00	 6.055887280015754e+00
1	 1.556822429735268e+00	 3.158796961180598e-02	 5.662193184668841e+00
1	 1.555850711689194e+00	 6.342271270806285e-02	 5.273844132880895e+00
1	 1.554212381860781e+00	 9.548690811653834e-02	 4.892214986928590e+00
1	 1.551892607273777e+00	 1.277623302856538e-01	 4.518628045194165e+00
1	 1.548877099751860e+00	 1.602298580642473e-01	 4.154341773545887e+00
1	 1.545152173227962e+00	 1.928694872703466e-01	 3.800539273007983e+00
1	 1.540704801464466e+00	 2.256603471932087e-01	 3.458316563609910e+00
1	 1.535522675898505e+00	 2.585807211539828e-01	 3.128670772253600e+00
1	 1.529594263308129e+00	 2.916080712289758e-01	 2.812488319921240e+00
1	 1.522908862978213e+00	 3.247190672156862e-01	 2.510533210410467e+00
1	 1.571428571428571e+00	 0.000000000000000e+00	 5.839519004009487e+00
1	 1.571105204319995e+00	 3.187776749815283e-02	 5.454732041588779e+00
1	 1.570124571429462e+00	 6.400457245767810e-02	 5.075160654296666e+00
1	 1.568471211052165e+00	 9.636293479650661e-02	 4.702223212359772e+00
1	 1.566130154129499e+00	 1.289344617561644e-01	 4.337277179623523e+00
1	 1.563086981400960e+00	 1.616998567620844e-01	 3.981607092658379e+00
1	 1.559327881239227e+00	 1.946389321076893e-01	 3.636412298564798e+00
1	 1.554839707899920e+00	 2.277306256078254e-01	 3.302794539482475e+00
1	 1.549610039897574e+00	 2.609530213480561e-01	 2.981745480045428e+00
1	 1.543627238200864e+00	 2.942833746347461e-01	 2.674134281709664e+00
1	 1.536880503922968e+00	 3.276981412268393e-01	 2.380695334849254e+00
1	 1.397164094475425e+00	 2.979074011153084e-01	 4.000017452477765e+00
1	 1.390327213788976e+00	 3.283391008216903e-01	 3.613481845569808e+00
1	 1.382778711527682e+00	 3.588026776327858e-01	 3.221846302997568e+00
1	 1.374511367216089e+00	 3.892747460655148e-01	 2.825920434396089e+00
1	 1.365518923009963e+00	 4.197313395879828e-01	 2.426487350327963e+00
1	 1.355796129022145e+00	 4.501479568532779e-01	 2.024298667756695e+00
1	 1.345338786212305e+00	 4.804996116995440e-01	 1.620069588146002e+00
1	 1.334143786501033e+00	 5.107608867868584e-01	 1.214474095168333e+00
1	 1.322209149774204e+00	 5.409059907081718e-01	 8.081403199166566e-01
1	 1.309534057452725e+00	 5.709088183782204e-01	 4.016461218302607e-01
1	 1.296118882315409e+00	 6.007430144713033e-01	-4.485066771671709e-03
1	 1.411135735420179e+00	 3.008864751264615e-01	 3.801961338613696e+00
1	 1.404230485926865e+00	 3.316224918299072e-01	 3.426712050026995e+00
1	 1.396606498642959e+00	 3.623907044091137e-01	 3.046621863162017e+00
1	 1.388256480888250e+00	 3.931674935261700e-01	 2.662464436985296e+00
1	 1.379174112240063e+00	 4.239286529838625e-01	 2.274984398952236e+00
1	 1.369354090312366e+00	 4.546494364218107e-01	 1.884892447111291e+00
1	 1.358792174074429e+00	 4.853046078165394e-01	 1.492860546135180e+00
1	 1.347485224366043e+00	 5.158684956547271e-01	 1.099517264343648e+00
1	 1.335431241271946e+00	 5.463150506152535e-01	 7.054432994693072e-01
1	 1.322629398027253e+00	 5.766179065620027e-01	 3.111672409992642e-01
1	 1.309080071138563e+00	 6.067504446160162e-01	-8.283838363505175e-02
1	 1.425107376364934e+00	 3.038655491376146e-01	 3.612889670713415e+00
1	 1.418133758064755e+00	 3.349058828381240e-01	 3.248591581668223e+00
1	 1.410434285758235e+00	 3.659787311854414e-01	 2.879710108299919e+00
1	 1.402001594560410e+00	 3.970602409868251e-01	 2.506983358984143e+00
1	 1.392829301470162e+00	 4.281259663797424e-01	 2.131117944317964e+00
1	 1.382912051602587e+00	 4.591509159903434e-01	 1.752784177278477e+00
1	 1.372245561936552e+00	 4.901096039335346e-01	 1.372611388186296e+00
1	 1.360826662231054e+00	 5.209761045225957e-01	 9.911834015861778e-01
1	 1.348653332769689e+00	 5.517241105223354e-01	 6.090342226228175e-01
1	 1.335724738601779e+00	 5.823269947457846e-01	 2.266439803399483e-01
1	 1.322041259961716e+00	 6.127578747607294e-01	-1.555648254693872e-01
1	 1.439079017309688e+00	 3.068446231487676e-01	 3.432419219391046e+00
1	 1.432037030202645e+00	 3.381892738463410e-01	 3.078747646194981e+00
1	 1.424262072873512e+00	 3.695667579617692e-01	 2.720749036248385e+00
1	 1.415746708232571e+00	 4.009529884474801e-01	 2.359126338224572e+00
1	 1.406484490700262e+00	 4.323232797756222e-01	 1.994548601270506e+00
1	 1.396470012892809e+00	 4.636523955588763e-01	 1.627646274633750e+00
1	 1.385698949798675e+00	 4.949146000505303e-01	 1.259006642558538e+00
1	 1.374168100096065e+00	 5.260837133904644e-01	 8.891694415774933e-01
1	 1.361875424267430e+00	 5.571331704294170e-01	 5.186227075737774e-01
1	 1.348820079176306e+00	 5.880360829295668e-01	 1.477988996099901e-01
1	 1.335002448784871e+00	 6.187653049054423e-01	-2.229286535150160e-01
1	 1.453050658254442e+00	 3.098236971599208e-01	 3.260181494852482e+00
1	 1.445940302340535e+00	 3.414726648545580e-01	 2.916821787551026e+00
1	 1.438089859988789e+00	 3.731547847380973e-01	 2.569390568004660e+00
1	 1.429491821904732e+00	 4.048457359081353e-01	 2.218556007237284e+00
1	 1.420139679930362e+00	 4.365205931715021e-01	 1.864950037930383e+00
1	 1.410027974183030e+00	 4.681538751274089e-01	 1.509163754922819e+00
1	 1.399152337660797e+00	 4.997195961675255e-01	 1.151742971039576e+00
1	 1.387509537961075e+00	 5.311913222583329e-01	 7.931839753575592e-01
1	 1.375097515765172e+00	 5.625422303364987e-01	 4.339295410496837e-01
1	 1.361915419750835e+00	 5.937451711133493e-01	 7.436522934565287e-02
1	 1.347963637608025e+00	 6.247727350501554e-01	-2.851839651184365e-01
1	 1.467022299199197e+00	 3.128027711710740e-01	 3.095822045010048e+00
1	 1.459843574478425e+00	 3.447560558627747e-01	 2.762469205148910e+00
1	 1.451917647104066e+00	 3.767428115144250e-01	 2.425299884718453e+00
1	 1.443236935576893e+00	 4.087384833687905e-01	 2.084947850647051e+00
1	 1.433794869160461e+00	 4.407179065673819e-01	 1.742008354108765e+00
1	 1.423585935473252e+00	 4.726553546959417e-01	 1.397033633291515e+00
1	 1.412605725522921e+00	 5.045245922845211e-01	 1.050528591158517e+00
1	 1.400850975826085e+00	 5.362989311262013e-01	 7.029466952600810e-01
1	 1.388319607262914e+00	 5.679512902435803e-01	 3.546861464740945e-01
1	 1.375010760325361e+00	 5.994542592971315e-01	 6.086362729401551e-03
1	 1.360924826431179e+00	 6.307801651948685e-01	-3.425751777272051e-01
1	 1.480993940143951e+00	 3.157818451822269e-01	 2.938999793326560e+00
1	 1.473746846616314e+00	 3.480394468709916e-01	 2.615358109744100e+00
1	 1.465745434219343e+00	 3.803308382907529e-01	 2.288154802213071e+00
1	 1.456982049249054e+00	 4.126312308294457e-01	 1.957989598941876e+00
1	 1.447450058390561e+00	 4.449152199632617e-01	 1.625421494906969e+00
1	 1.437143896763473e+00	 4.771568342644744e-01	 1.290964358276415e+00
1	 1.426059113385044e+00	 5.093295884015167e-01	 9.550827311037409e-01
1	 1.414192413691095e+00	 5.414065399940700e-01	 6.181878712665370e-01
1	 1.401541698760657e+00	 5.733603501506621e-01	 2.806340822357540e-01
1	 1.388106100899888e+00	 6.051633474809135e-01	-5.728462378015775e-02
1	 1.373886015254333e+00	 6.367875953395814e-01	-3.953374854890070e-01
1	 1.494965581088705e+00	 3.187609191933800e-01	 2.789386413789587e+00
1	 1.487650118754204e+00	 3.513228378792086e-01	 2.475169115428334e+00
1	 1.479573221334619e+00	 3.839188650670807e-01	 2.157645180580128e+00
1	 1.470727162921215e+00	 4.165239782901008e-01	 1.837380656236352e+00
1	 1.461105247620661e+00	 4.491125333591415e-01	 1.514898697198232e+00
1	 1.450701858053695e+00	 4.816583138330074e-01	 1.190675277534223e+00
1	 1.439512501247167e+00	 5.141345845185119e-01	 8.651351152061219e-01
1	 1.427533851556106e+00	 5.465141488619385e-01	 5.386478567235733e-01
1	 1.414763790258398e+00	 5.787694100577438e-01	 2.115245680920290e-01
1	 1.401201441474416e+00	 6.108724356646956e-01	-1.159854229377905e-01
1	 1.386847204077487e+00	 6.427950254842945e-01	-4.436972902469016e-01
1	 1.508937222033459e+00	 3.217399932045332e-01	 2.646665740609373e+00
1	 1.501553390892094e+00	 3.546062288874254e-01	 2.341594665401037e+00
1	 1.493401008449896e+00	 3.875068918434086e-01	 2.033472366574483e+00
1	 1.484472276593376e+00	 4.204167257507561e-01	 1.722831559826039e+00
1	 1.474760436850760e+00	 4.533098467550212e-01	 1.410159966860467e+00
1	 1.464259819343916e+00	 4.861597934015401e-01	 1.095896133252876e+00
1	 1.452965889109290e+00	 5.189395806355074e-01	 7.804254780064843e-01
1	 1.440875289421116e+00	 5.516217577298071e-01	 4.640766215205658e-01
1	 1.427985881756140e+00	 5.841784699648255e-01	 1.471180378833601e-01
1	 1.414296782048943e+00	 6.165815238484779e-01	-1.702449240629662e-01
1	 1.399808392900641e+00	 6.488024556290075e-01	-4.878726085905309e-01
1	 1.522908862978213e+00	 3.247190672156862e-01	 2.510533210410467e+00
1	 1.515456663029983e+00	 3.578896198956423e-01	 2.214338489349740e+00
1	 1.507228795565173e+00	 3.910949186197364e-01	 1.915348666703142e+00
1	 1.498217390265536e+00	 4.243094732114112e-01	 1.614063469491041e+00
1	 1.488415626080860e+00	 4.575071601509011e-01	 1.310935584785264e+00
1	 1.477817780634138e+00	 4.906612729700729e-01	 1.006366585338173e+00
1	 1.466419276971413e+00	 5.237445767525029e-01	 7.007031050716993e-01
1	 1.454216727286126e+00	 5.567293665976758e-01	 3.942333109637836e-01
1	 1.441207973253882e+00	 5.895875298719072e-01	 8.718371686887150e-02
1	 1.427392122623470e+00	 6.222906120322600e-01	-2.202836168670409e-01
1	 1.412769581723795e+00	 6.548098857737206e-01	-5.280734565007286e-01
1	 1.536880503922968e+00	 3.276981412268393e-01	 2.380695334849254e+00
1	 1.529359935167873e+00	 3.611730109038592e-01	 2.093115090427885e+00
1	 1.521056582680450e+00	 3.946829453960644e-01	 1.802996849054642e+00
1	 1.511962503937697e+00	 4.282022206720662e-01	 1.510807684655841e+00
1	 1.502070815310960e+00	 4.617044735467811e-01	 1.216965639831780e+00
1	 1.491375741924359e+00	 4.951627525386056e-01	 9.218357606084436e-01
1	 1.479872664833536e+00	 5.285495728694983e-01	 6.257263988571004e-01
1	 1.467558165151136e+00	 5.618369754655443e-01	 3.288858287119997e-01
1	 1.454430064751624e+00	 5.949965897789888e-01	 3.149922211646683e-02
1	 1.440487463197997e+00	 6.279997002160423e-01	-2.663139732537095e-01
1	 1.425730770546949e+00	 6.608173159184335e-01	-5.645022130135644e-01
1	 1.296118882315409e+00	 6.007430144713033e-01	-4.485066771671709e-03
1	 1.281965214279104e+00	 6.303820396465493e-01	-4.164211132607445e-01
1	 1.267075881860162e+00	 6.597992392682079e-01	-8.399796569588949e-01
1	 1.251454969064823e+00	 6.889679142990441e-01	-1.274158603022115e+00
1	 1.235107827483028e+00	 7.178613940175128e-01	-1.717963918162560e+00
1	 1.218041083390269e+00	 7.464531101844722e-01	-2.170413779129440e+00
1	 1.200262639695199e+00	 7.747166722631734e-01	-2.630542611669661e+00
1	 1.181781672606443e+00	 8.026259432775211e-01	-3.097404984227602e+00
1	 1.162608622930107e+00	 8.301551158784557e-01	-3.570079321843222e+00
1	 1.142755181949402e+00	 8.572787881771037e-01	-4.047671407401305e+00
1	 1.122234271879162e+00	 8.839720388962876e-01	-4.529317639550742e+00
1	 1.309080071138563e+00	 6.067504446160162e-01	-8.283838363505175e-02
1	 1.294784866421895e+00	 6.366858600430149e-01	-4.827286623788233e-01
1	 1.279746640678763e+00	 6.663972316608902e-01	-8.942999412168595e-01
1	 1.263969518755471e+00	 6.958575934420344e-01	-1.316589194006667e+00
1	 1.247458905757858e+00	 7.250400079576877e-01	-1.748641112012661e+00
1	 1.230221494224172e+00	 7.539176412863171e-01	-2.189512089791051e+00
1	 1.212265266092151e+00	 7.824638389858052e-01	-2.638274102209435e+00
1	 1.193599489332507e+00	 8.106522027102963e-01	-3.094018438139190e+00
1	 1.174234709159408e+00	 8.384566670372404e-01	-3.555859257567785e+00
1	 1.154182733768895e+00	 8.658515760588743e-01	-4.022936940562018e+00
1	 1.133456614597953e+00	 8.928117592852505e-01	-4.494421198654853e+00
1	 1.322041259961716e+00	 6.127578747607294e-01	-1.555648254693872e-01
1	 1.307604518564686e+00	 6.429896804394803e-01	-5.437316077719234e-01
1	 1.292417399497365e+00	 6.729952240535723e-01	-9.436293447225956e-01
1	 1.276484068446120e+00	 7.027472725850251e-01	-1.354334412901729e+00
1	 1.259809984032689e+00	 7.322186218978631e-01	-1.774930598574247e+00
1	 1.242401905058074e+00	 7.613821723881616e-01	-2.204512916846872e+00
1	 1.224267892489103e+00	 7.902110057084371e-01	-2.642191322271195e+00
1	 1.205417306058571e+00	 8.186784621430717e-01	-3.087094277749273e+00
1	 1.185860795388709e+00	 8.467582181960245e-01	-3.538372149817849e+00
1	 1.165610285588389e+00	 8.744243639406458e-01	-3.995200400068773e+00
1	 1.144678957316745e+00	 9.016514796742134e-01	-4.456782544582195e+00
1	 1.335002448784871e+00	 6.187653049054423e-01	-2.229286535150160e-01
1	 1.320424170707476e+00	 6.492935008359457e-01	-5.996810352823709e-01
1	 1.305088158315966e+00	 6.795932164462539e-01	-9.882059994745012e-01
1	 1.288998618136768e+00	 7.096369517280152e-01	-1.387619645849465e+00
1	 1.272161062307519e+00	 7.393972358380383e-01	-1.797045211698779e+00
1	 1.254582315891977e+00	 7.688467034900063e-01	-2.215616720193881e+00
1	 1.236270518886055e+00	 7.979581724310687e-01	-2.642482520153276e+00
1	 1.217235122784636e+00	 8.267047215758466e-01	-3.076808685442116e+00
1	 1.197486881618010e+00	 8.550597693548092e-01	-3.517782243453567e+00
1	 1.177037837407883e+00	 8.829971518224162e-01	-3.964614203800865e+00
1	 1.155901300035536e+00	 9.104912000631761e-01	-4.416542360452069e+00
1	 1.347963637608025e+00	 6.247727350501554e-01	-2.851839651184365e-01
1	 1.333243822850268e+00	 6.555973212324112e-01	-6.508183736046734e-01
1	 1.317758917134568e+00	 6.861912088389360e-01	-1.028258878547891e+00
1	 1.301513167827416e+00	 7.165266308710059e-01	-1.416661610294292e+00
1	 1.284512140582349e+00	 7.465758497782133e-01	-1.815189599320324e+00
1	 1.266762726725879e+00	 7.763112345918509e-01	-2.223016249733081e+00
1	 1.248273145283007e+00	 8.057053391537005e-01	-2.639328703834744e+00
1	 1.229052939510700e+00	 8.347309810086222e-01	-3.063331067356388e+00
1	 1.209112967847312e+00	 8.633613205135937e-01	-3.494247466225064e+00
1	 1.188465389227377e+00	 8.915699397041872e-01	-3.931324907411564e+00
1	 1.167123642754328e+00	 9.193309204521392e-01	-4.373835918494572e+00
1	 1.360924826431179e+00	 6.307801651948685e-01	-3.425751777272051e-01
1	 1.346063474993059e+00	 6.619011416288769e-01	-6.973758541497748e-01
1	 1.330429675953170e+00	 6.927892012316184e-01	-1.064008232234341e+00
1	 1.314027717518065e+00	 7.234163100139962e-01	-1.441668767777973e+00
1	 1.296863218857180e+00	 7.537544637183885e-01	-1.829560613261182e+00
1	 1.278943137559783e+00	 7.837757656936957e-01	-2.226896912512088e+00
1	 1.260275771679959e+00	 8.134525058763322e-01	-2.632903985752697e+00
1	 1.240870756236765e+00	 8.427572404413971e-01	-3.046824376063630e+00
1	 1.220739054076613e+00	 8.716628716723784e-01	-3.467919729587320e+00
1	 1.199892941046871e+00	 9.001427275859587e-01	-3.895473483481527e+00
1	 1.178345985473120e+00	 9.281706408411020e-01	-4.328793337711965e+00
1	 1.373886015254333e+00	 6.367875953395814e-01	-3.953374854890070e-01
1	 1.358883127135850e+00	 6.682049620253423e-01	-7.395769448791198e-01
1	 1.343100434771771e+00	 6.993871936243004e-01	-1.095665999493628e+00
1	 1.326542267208712e+00	 7.303059891569865e-01	-1.462841713368988e+00
1	 1.309214297132010e+00	 7.609330776585637e-01	-1.840347676973017e+00
1	 1.291123548393686e+00	 7.912402967955404e-01	-2.227437119086111e+00
1	 1.272278398076911e+00	 8.211996725989640e-01	-2.623375908063542e+00
1	 1.252688572962829e+00	 8.507834998741723e-01	-3.027445414981680e+00
1	 1.232365140305914e+00	 8.799644228311629e-01	-3.438945212487481e+00
1	 1.211320492866365e+00	 9.087155154677291e-01	-3.857195584871413e+00
1	 1.189568328191911e+00	 9.370103612300648e-01	-4.281539826955497e+00
1	 1.386847204077487e+00	 6.427950254842945e-01	-4.436972902469016e-01
1	 1.371702779278641e+00	 6.745087824218076e-01	-7.776367598116893e-01
1	 1.355771193590373e+00	 7.059851860169823e-01	-1.123436196333758e+00
1	 1.339056816899361e+00	 7.371956682999771e-01	-1.480373543254800e+00
1	 1.321565375406840e+00	 7.681116915987388e-01	-1.847733132656900e+00
1	 1.303303959227588e+00	 7.987048278973852e-01	-2.224808610456965e+00
1	 1.284281024473862e+00	 8.289468393215954e-01	-2.610905749665497e+00
1	 1.264506389688894e+00	 8.588097593069473e-01	-3.005345125718422e+00
1	 1.243991226535215e+00	 8.882659739899472e-01	-3.407464629239192e+00
1	 1.222748044685859e+00	 9.172883033495005e-01	-3.816621793306935e+00
1	 1.200790670910703e+00	 9.458500816190278e-01	-4.232195914371732e+00
1	 1.399808392900641e+00	 6.488024556290075e-01	-4.878726085905309e-01
1	 1.384522431421432e+00	 6.808126028182733e-01	-8.117624457805578e-01
1	 1.368441952408974e+00	 7.125831784096643e-01	-1.147515282614313e+00
1	 1.351571366590009e+00	 7.440853474429676e-01	-1.494450201912160e+00
1	 1.333916453681670e+00	 7.752903055389139e-01	-1.851892569099165e+00
1	 1.315484370061490e+00	 8.061693589992297e-01	-2.219176766848571e+00
1	 1.296283650870814e+00	 8.366940060442271e-01	-2.595648816164289e+00
1	 1.276324206414958e+00	 8.668360187397227e-01	-2.980668859451762e+00
1	 1.255617312764516e+00	 8.965675251487321e-01	-3.373613482514876e+00
1	 1.234175596505353e+00	 9.258610912312717e-01	-3.773877854153599e+00
1	 1.212013013629494e+00	 9.546898020079905e-01	-4.180877664101769e+00
1	 1.412769581723795e+00	 6.548098857737206e-01	-5.280734565007286e-01
1	 1.397342083564223e+00	 6.871164232147388e-01	-8.421535479001844e-01
1	 1.381112711227576e+00	 7.191811708023466e-01	-1.168092508658713e+00
1	 1.364085916280657e+00	 7.509750265859578e-01	-1.505250810167343e+00
1	 1.346267531956501e+00	 7.824689194790889e-01	-1.852995131460833e+00
1	 1.327664780895393e+00	 8.136338901010746e-01	-2.210700899485822e+00
1	 1.308286277267767e+00	 8.444411727668589e-01	-2.577754713877343e+00
1	 1.288142023141023e+00	 8.748622781724978e-01	-2.953556633371467e+00
1	 1.267243398993817e+00	 9.048690763075167e-01	-3.337522302411775e+00
1	 1.245603148324847e+00	 9.344338791130424e-01	-3.729084898268030e+00
1	 1.223235356348286e+00	 9.635295223969533e-01	-4.127696881052152e+00
1	 1.425730770546949e+00	 6.608173159184335e-01	-5.645022130135644e-01
1	 1.410161735707014e+00	 6.934202436112044e-01	-8.690023550990083e-01
1	 1.393783470046178e+00	 7.257791631950287e-01	-1.185350242960472e+00
1	 1.376600465971305e+00	 7.578647057289485e-01	-1.512947975362002e+00
1	 1.358618610231331e+00	 7.896475334192641e-01	-1.851203814169892e+00
1	 1.339845191729296e+00	 8.210984212029193e-01	-2.199534526458158e+00
1	 1.320288903664719e+00	 8.521883394894908e-01	-2.557367608892352e+00
1	 1.299959839867087e+00	 8.828885376052731e-01	-2.924143373133126e+00
1	 1.278869485223118e+00	 9.131706274663013e-01	-3.299316872478175e+00
1	 1.257030700144342e+00	 9.430066669948136e-01	-3.682359651748465e+00
1	 1.234457699067077e+00	 9.723692427859159e-01	-4.072761304496506e+00
1	 1.122234271879162e+00	 8.839720388962876e-01	-4.529317639550742e+00
1	 1.101060020930392e+00	 9.102105013893090e-01	-5.015603185346177e+00
1	 1.079247733062707e+00	 9.359704360767072e-01	-5.506791113043393e+00
1	 1.056813852545254e+00	 9.612288008580839e-01	-6.001542496322434e+00
1	 1.033775923488758e+00	 9.859633190669812e-01	-6.498500838510049e+00
1	 1.010152544552211e+00	 1.010152544552211e+00	-6.996298491948475e+00
1	 9.859633190669811e-01	 1.033775923488758e+00	-7.493563171874110e+00
1	 9.612288008580840e-01	 1.056813852545254e+00	-7.988924510957201e+00
1	 9.359704360767074e-01	 1.079247733062706e+00	-8.481020600098267e+00
1	 9.102105013893093e-01	 1.101060020930392e+00	-8.968504461230195e+00
1	 8.839720388962875e-01	 1.122234271879162e+00	-9.450050398730493e+00
1	 1.133456614597953e+00	 8.928117592852505e-01	-4.494421198654853e+00
1	 1.112070621139696e+00	 9.193126064032021e-01	-4.970803282248045e+00
1	 1.090040210393333e+00	 9.453301404374740e-01	-5.452256123871908e+00
1	 1.067381991070706e+00	 9.708410888666645e-01	-5.937477878728560e+00
1	 1.044113682723645e+00	 9.958229522576511e-01	-6.425147894678009e+00
1	 1.020254069997733e+00	 1.020254069997733e+00	-6.913933017810668e+00
1	 9.958229522576508e-01	 1.044113682723645e+00	-7.402494002100793e+00
1	 9.708410888666648e-01	 1.067381991070707e+00	-7.889491969973213e+00
1	 9.453301404374745e-01	 1.090040210393333e+00	-8.373594869948839e+00
1	 9.193126064032022e-01	 1.112070621139695e+00	-8.853483877567641e+00
1	 8.928117592852507e-01	 1.133456614597953e+00	-9.327859686522071e+00
1	 1.144678957316745e+00	 9.016514796742134e-01	-4.456782544582195e+00
1	 1.123081221348999e+00	 9.284147114170951e-01	-4.923515866280860e+00
1	 1.100832687723960e+00	 9.546898447982411e-01	-5.395478924503431e+00
1	 1.077950129596159e+00	 9.804533768752455e-01	-5.871400664535007e+00
1	 1.054451441958533e+00	 1.005682585448321e+00	-6.349989349822770e+00
1	 1.030355595443255e+00	 1.030355595443255e+00	-6.829938803821849e+00
1	 1.005682585448321e+00	 1.054451441958533e+00	-7.309934770808225e+00
1	 9.804533768752451e-01	 1.077950129596159e+00	-7.788661342661178e+00
1	 9.546898447982416e-01	 1.100832687723960e+00	-8.264807397780343e+00
1	 9.284147114170953e-01	 1.123081221348999e+00	-8.737072998166330e+00
1	 9.016514796742131e-01	 1.144678957316745e+00	-9.204175691262725e+00
1	 1.155901300035536e+00	 9.104912000631761e-01	-4.416542360452069e+00
1	 1.134091821558303e+00	 9.375168164309883e-01	-4.873868488203613e+00
1	 1.111625165054588e+00	 9.640495491590083e-01	-5.336571161411467e+00
1	 1.088518268121612e+00	 9.900656648838261e-01	-5.803403988406117e+00
1	 1.064789201193421e+00	 1.015542218638991e+00	-6.273097396163705e+00
1	 1.040457120888777e+00	 1.040457120888777e+00	-6.744364857720121e+00
1	 1.015542218638990e+00	 1.064789201193420e+00	-7.215909258676073e+00
1	 9.900656648838260e-01	 1.088518268121612e+00	-7.686429349462649e+00
1	 9.640495491590085e-01	 1.111625165054588e+00	-8.154626228968539e+00
1	 9.375168164309888e-01	 1.134091821558303e+00	-8.619209804775675e+00
1	 9.104912000631760e-01	 1.155901300035536e+00	-9.078905175613603e+00
1	 1.167123642754328e+00	 9.193309204521392e-01	-4.373835918494572e+00
1	 1.145102421767607e+00	 9.466189214448812e-01	-4.821983792976873e+00
1	 1.122417642385215e+00	 9.734092535197754e-01	-5.275640186974364e+00
1	 1.099086406647064e+00	 9.996779528924072e-01	-5.733577402903774e+00
1	 1.075126960428308e+00	 1.025401851829660e+00	-6.194541449296489e+00
1	 1.050558646334299e+00	 1.050558646334299e+00	-6.657258302330511e+00
1	 1.025401851829661e+00	 1.075126960428308e+00	-7.120440331742401e+00
1	 9.996779528924071e-01	 1.099086406647064e+00	-7.582792836956236e+00
1	 9.734092535197755e-01	 1.122417642385215e+00	-8.043020637913285e+00
1	 9.466189214448816e-01	 1.145102421767607e+00	-8.499834664462506e+00
1	 9.193309204521390e-01	 1.167123642754328e+00	-8.951958488287323e+00
1	 1.178345985473120e+00	 9.281706408411020e-01	-4.328793337711965e+00
1	 1.156113021976911e+00	 9.557210264587743e-01	-4.767979753372232e+00
1	 1.133210119715842e+00	 9.827689578805423e-01	-5.212789263956049e+00
1	 1.109654545172517e+00	 1.009290240900988e+00	-5.662007049063670e+00
1	 1.085464719663195e+00	 1.035261485020330e+00	-6.114388280413054e+00
1	 1.060660171779821e+00	 1.060660171779821e+00	-6.568664465322926e+00
1	 1.035261485020330e+00	 1.085464719663195e+00	-7.023549984958163e+00
1	 1.009290240900988e+00	 1.109654545172517e+00	-7.477748771850679e+00
1	 9.827689578805424e-01	 1.133210119715841e+00	-7.929961069513466e+00
1	 9.557210264587747e-01	 1.156113021976911e+00	-8.378890216024384e+00
1	 9.281706408411020e-01	 1.178345985473120e+00	-8.823249393283676e+00
1	 1.189568328191911e+00	 9.370103612300648e-01	-4.281539826955497e+00
1	 1.167123622186215e+00	 9.648231314726673e-01	-4.711969890358527e+00
1	 1.144002597046469e+00	 9.921286622413095e-01	-5.148117758412400e+00
1	 1.120222683697969e+00	 1.018902528909569e+00	-5.588775817316451e+00
1	 1.095802478898083e+00	 1.045121118211000e+00	-6.032702141037723e+00
1	 1.070761697225343e+00	 1.070761697225343e+00	-6.478626963889057e+00
1	 1.045121118211000e+00	 1.095802478898083e+00	-6.925259383276162e+00
1	 1.018902528909569e+00	 1.120222683697969e+00	-7.371294235318669e+00
1	 9.921286622413097e-01	 1.144002597046469e+00	-7.815419083954772e+00
1	 9.648231314726675e-01	 1.167123622186215e+00	-8.256321262832552e+00
1	 9.370103612300645e-01	 1.189568328191911e+00	-8.692694908791156e+00
1	 1.200790670910703e+00	 9.458500816190278e-01	-4.232195914371732e+00
1	 1.178134222395519e+00	 9.739252364865605e-01	-4.654063481130160e+00
1	 1.154795074377095e+00	 1.001488366602076e+00	-5.081721321780378e+00
1	 1.130790822223422e+00	 1.028514816918149e+00	-5.513963499384941e+00
1	 1.106140238132971e+00	 1.054980751401670e+00	-5.949544880768731e+00
1	 1.080863222670865e+00	 1.080863222670865e+00	-6.387187784671459e+00
1	 1.054980751401670e+00	 1.106140238132971e+00	-6.825588900436019e+00
1	 1.028514816918149e+00	 1.130790822223422e+00	-7.263426417647889e+00
1	 1.001488366602077e+00	 1.154795074377096e+00	-7.699367304593586e+00
1	 9.739252364865609e-01	 1.178134222395519e+00	-8.132074671683659e+00
1	 9.458500816190276e-01	 1.200790670910703e+00	-8.560215155122020e+00
1	 1.212013013629494e+00	 9.546898020079905e-01	-4.180877664101769e+00
1	 1.189144822604823e+00	 9.830273415004536e-01	-4.594365755577962e+00
1	 1.165587551707723e+00	 1.010848070962844e+00	-5.013692062851081e+00
1	 1.141358960748874e+00	 1.038127104926730e+00	-5.437646931743069e+00
1	 1.116477997367858e+00	 1.064840384592340e+00	-5.864976058478399e+00
1	 1.090964748116387e+00	 1.090964748116387e+00	-6.294387359251811e+00
1	 1.064840384592340e+00	 1.116477997367858e+00	-6.724558155594322e+00
1	 1.038127104926731e+00	 1.141358960748874e+00	-7.154142613189497e+00
1	 1.010848070962844e+00	 1.165587551707723e+00	-7.581779368735956e+00
1	 9.830273415004539e-01	 1.189144822604823e+00	-8.006099277270780e+00
1	 9.546898020079907e-01	 1.212013013629495e+00	-8.425733211095467e+00
1	 1.223235356348286e+00	 9.635295223969533e-01	-4.127696881052152e+00
1	 1.200155422814127e+00	 9.921294465143466e-01	-4.532978081945407e+00
1	 1.176380029038349e+00	 1.020207775323611e+00	-4.944118710276569e+00
1	 1.151927099274327e+00	 1.047739392935311e+00	-5.359900131177665e+00
1	 1.126815756602746e+00	 1.074700017783009e+00	-5.779053047392368e+00
1	 1.101066273561909e+00	 1.101066273561909e+00	-6.200264635483979e+00
1	 1.074700017783009e+00	 1.126815756602746e+00	-6.622186047938748e+00
1	 1.047739392935311e+00	 1.151927099274327e+00	-7.043440215584472e+00
1	 1.020207775323611e+00	 1.176380029038349e+00	-7.462629881126385e+00
1	 9.921294465143470e-01	 1.200155422814127e+00	-7.878345791912831e+00
1	 9.635295223969534e-01	 1.223235356348286e+00	-8.289174978326390e+00
1	 1.234457699067077e+00	 9.723692427859159e-01	-4.072761304496506e+00
1	 1.211166023023431e+00	 1.001231551528240e+00	-4.469998142358063e+00
1	 1.187172506368977e+00	 1.029567479684378e+00	-4.873086766212415e+00
1	 1.162495237799779e+00	 1.057351680943892e+00	-5.280794422955944e+00
1	 1.137153515837634e+00	 1.084559650973679e+00	-5.691831134437175e+00
1	 1.111167799007432e+00	 1.111167799007432e+00	-6.104857144936329e+00
1	 1.084559650973679e+00	 1.137153515837633e+00	-6.518490789413681e+00
1	 1.057351680943892e+00	 1.162495237799779e+00	-6.931316713250460e+00
1	 1.029567479684378e+00	 1.187172506368976e+00	-7.341894369973057e+00
1	 1.001231551528240e+00	 1.211166023023430e+00	-7.748766720208185e+00
1	 9.723692427859164e-01	 1.234457699067078e+00	-8.150469052916316e+00
1	 8.839720388962875e-01	 1.122234271879162e+00	-9.450050398730497e+00
1	 8.572787881771033e-01	 1.142755181949402e+00	-9.923953657165139e+00
1	 8.301551158784558e-01	 1.162608622930107e+00	-1.038865498552718e+01
1	 8.026259432775211e-01	 1.181781672606442e+00	-1.084307574080955e+01
1	 7.747166722631738e-01	 1.200262639695199e+00	-1.128615442189319e+01
1	 7.464531101844724e-01	 1.218041083390269e+00	-1.171685279153159e+01
1	 7.178613940175135e-01	 1.235107827483028e+00	-1.213416179962649e+01
1	 6.889679142990445e-01	 1.251454969064822e+00	-1.253710725806619e+01
1	 6.597992392682085e-01	 1.267075881860161e+00	-1.292475522095703e+01
1	 6.303820396465504e-01	 1.281965214279103e+00	-1.329621702817222e+01
1	 6.007430144713030e-01	 1.296118882315408e+00	-1.365065397468637e+01
1	 8.928117592852507e-01	 1.133456614597953e+00	-9.327859686522071e+00
1	 8.658515760588741e-01	 1.154182733768895e+00	-9.794971856611468e+00
1	 8.384566670372403e-01	 1.174234709159408e+00	-1.025321315342310e+01
1	 8.106522027102964e-01	 1.193599489332507e+00	-1.070152390453325e+01
1	 7.824638389858054e-01	 1.212265266092150e+00	-1.113885812437148e+01
1	 7.539176412863172e-01	 1.230221494224171e+00	-1.156418970005640e+01
1	 7.250400079576885e-01	 1.247458905757858e+00	-1.197651840200083e+01
1	 6.958575934420352e-01	 1.263969518755471e+00	-1.237487566803516e+01
1	 6.663972316608908e-01	 1.279746640678763e+00	-1.275833011316069e+01
1	 6.366858600430156e-01	 1.294784866421894e+00	-1.312599272096616e+01
1	 6.067504446160161e-01	 1.309080071138563e+00	-1.347702167714847e+01
1	 9.016514796742131e-01	 1.144678957316745e+00	-9.204175691262725e+00
1	 8.744243639406456e-01	 1.165610285588389e+00	-9.664312332949995e+00
1	 8.467582181960247e-01	 1.185860795388709e+00	-1.011583804308164e+01
1	 8.186784621430718e-01	 1.205417306058571e+00	-1.055772959128410e+01
1	 7.902110057084374e-01	 1.224267892489103e+00	-1.098897534823222e+01
1	 7.613821723881621e-01	 1.242401905058074e+00	-1.140858135793441e+01
1	 7.322186218978637e-01	 1.259809984032688e+00	-1.181557725180429e+01
1	 7.027472725850255e-01	 1.276484068446119e+00	-1.220902195363539e+01
1	 6.729952240535729e-01	 1.292417399497365e+00	-1.258800912776611e+01
1	 6.429896804394812e-01	 1.307604518564685e+00	-1.295167232645633e+01
1	 6.127578747607291e-01	 1.322041259961716e+00	-1.329918979672157e+01
1	 9.104912000631760e-01	 1.155901300035536e+00	-9.078905175613603e+00
1	 8.829971518224164e-01	 1.177037837407884e+00	-9.531853877433674e+00
1	 8.550597693548094e-01	 1.197486881618010e+00	-9.976387621203589e+00
1	 8.267047215758470e-01	 1.217235122784636e+00	-1.041153655141744e+01
1	 7.979581724310690e-01	 1.236270518886055e+00	-1.083634167227387e+01
1	 7.688467034900066e-01	 1.254582315891977e+00	-1.124986063189732e+01
1	 7.393972358380387e-01	 1.272161062307518e+00	-1.165117335899443e+01
1	 7.096369517280160e-01	 1.288998618136767e+00	-1.203938750329150e+01
1	 6.795932164462547e-01	 1.305088158315966e+00	-1.241364363408783e+01
1	 6.492935008359467e-01	 1.320424170707476e+00	-1.277312015478435e+01
1	 6.187653049054422e-01	 1.335002448784871e+00	-1.311703789524965e+01
1	 9.193309204521390e-01	 1.167123642754328e+00	-8.951958488287323e+00
1	 8.915699397041873e-01	 1.188465389227377e+00	-9.397479943190257e+00
1	 8.633613205135939e-01	 1.209112967847312e+00	-9.834725317309061e+00
1	 8.347309810086225e-01	 1.229052939510700e+00	-1.026279454489044e+01
1	 8.057053391537007e-01	 1.248273145283006e+00	-1.068079899918712e+01
1	 7.763112345918516e-01	 1.266762726725880e+00	-1.108786681687941e+01
1	 7.465758497782141e-01	 1.284512140582349e+00	-1.148314807929946e+01
1	 7.165266308710065e-01	 1.301513167827415e+00	-1.186581980587327e+01
1	 6.861912088389368e-01	 1.317758917134567e+00	-1.223509071800506e+01
1	 6.555973212324122e-01	 1.333243822850267e+00	-1.259020573493269e+01
1	 6.247727350501552e-01	 1.347963637608025e+00	-1.293045016681335e+01
1	 9.281706408411020e-01	 1.178345985473120e+00	-8.823249393283680e+00
1	 9.001427275859586e-01	 1.199892941046871e+00	-9.261078423228467e+00
1	 8.716628716723785e-01	 1.220739054076613e+00	-9.690719763602983e+00
1	 8.427572404413972e-01	 1.240870756236764e+00	-1.011135905509037e+01
1	 8.134525058763323e-01	 1.260275771679958e+00	-1.052219525441741e+01
1	 7.837757656936962e-01	 1.278943137559783e+00	-1.092244532991266e+01
1	 7.537544637183889e-01	 1.296863218857179e+00	-1.131134881203913e+01
1	 7.234163100139969e-01	 1.314027717518063e+00	-1.168817216019833e+01
1	 6.927892012316189e-01	 1.330429675953169e+00	-1.205221290974467e+01
1	 6.619011416288779e-01	 1.346063474993059e+00	-1.240280356620816e+01
1	 6.307801651948685e-01	 1.360924826431180e+00	-1.273931521714744e+01
1	 9.370103612300645e-01	 1.189568328191911e+00	-8.692694908791156e+00
1	 9.087155154677293e-01	 1.211320492866365e+00	-9.122541441009455e+00
1	 8.799644228311632e-01	 1.232365140305914e+00	-9.544244549565679e+00
1	 8.507834998741728e-01	 1.252688572962829e+00	-9.957091018861654e+00
1	 8.211996725989641e-01	 1.272278398076910e+00	-1.036038410207249e+01
1	 7.912402967955408e-01	 1.291123548393684e+00	-1.075344742134868e+01
1	 7.609330776585642e-01	 1.309214297132009e+00	-1.113562871504921e+01
1	 7.303059891569875e-01	 1.326542267208712e+00	-1.150630340097794e+01
1	 6.993871936243012e-01	 1.343100434771771e+00	-1.186487792707191e+01
1	 6.682049620253433e-01	 1.358883127135849e+00	-1.221079288379292e+01
1	 6.367875953395813e-01	 1.373886015254333e+00	-1.254352585554378e+01
1	 9.458500816190276e-01	 1.200790670910703e+00	-8.560215155122020e+00
1	 9.172883033495004e-01	 1.222748044685859e+00	-8.981765152762096e+00
1	 8.882659739899476e-01	 1.243991226535214e+00	-9.395177990304234e+00
1	 8.588097593069477e-01	 1.264506389688894e+00	-9.799856571671270e+00
1	 8.289468393215963e-01	 1.284281024473862e+00	-1.019522467676092e+01
1	 7.987048278973854e-01	 1.303303959227587e+00	-1.058072990227353e+01
1	 7.681116915987394e-01	 1.321565375406839e+00	-1.095584643559235e+01
1	 7.371956682999777e-01	 1.339056816899360e+00	-1.132007764013051e+01
1	 7.059851860169833e-01	 1.355771193590372e+00	-1.167295843288254e+01
1	 6.745087824218086e-01	 1.371702779278640e+00	-1.201405743744161e+01
1	 6.427950254842943e-01	 1.386847204077487e+00	-1.234297889842357e+01
1	 9.546898020079907e-01	 1.212013013629495e+00	-8.425733211095467e+00
1	 9.258610912312716e-01	 1.234175596505353e+00	-8.838649560781036e+00
1	 8.965675251487322e-01	 1.255617312764516e+00	-9.243402907773806e+00
1	 8.668360187397230e-01	 1.276324206414958e+00	-9.639526806931984e+00
1	 8.366940060442277e-01	 1.296283650870814e+00	-1.002658133032777e+01
1	 8.061693589992303e-01	 1.315484370061490e+00	-1.040415488706640e+01
1	 7.752903055389145e-01	 1.333916453681670e+00	-1.077186585621765e+01
1	 7.440853474429683e-01	 1.351571366590008e+00	-1.112936402246625e+01
1	 7.125831784096652e-01	 1.368441952408973e+00	-1.147633180626112e+01
1	 6.808126028182739e-01	 1.384522431421431e+00	-1.181248528247374e+01
1	 6.488024556290073e-01	 1.399808392900641e+00	-1.213757498382207e+01
1	 9.635295223969534e-01	 1.223235356348286e+00	-8.289174978326388e+00
1	 9.344338791130427e-01	 1.245603148324847e+00	-8.693098337001366e+00
1	 9.048690763075167e-01	 1.267243398993816e+00	-9.088806424041104e+00
1	 8.748622781724982e-01	 1.288142023141022e+00	-9.475977548573438e+00
1	 8.444411727668591e-01	 1.308286277267766e+00	-9.854323392532297e+00
1	 8.136338901010751e-01	 1.327664780895393e+00	-1.022358955012926e+01
1	 7.824689194790896e-01	 1.346267531956500e+00	-1.058355585461001e+01
1	 7.509750265859586e-01	 1.364085916280657e+00	-1.093403649482071e+01
1	 7.191811708023473e-01	 1.381112711227575e+00	-1.127487992614248e+01
1	 6.871164232147396e-01	 1.397342083564222e+00	-1.160596858227023e+01
1	 6.548098857737203e-01	 1.412769581723795e+00	-1.192721839608507e+01
1	 9.723692427859164e-01	 1.234457699067078e+00	-8.150469052916316e+00
1	 9.430066669948137e-01	 1.257030700144342e+00	-8.545018656196959e+00
1	 9.131706274663016e-01	 1.278869485223118e+00	-8.931279765825071e+00
1	 8.828885376052734e-01	 1.299959839867087e+00	-9.309089136018775e+00
1	 8.521883394894909e-01	 1.320288903664719e+00	-9.678324944778645e+00
1	 8.210984212029198e-01	 1.339845191729296e+00	-1.003890589588584e+01
1	 7.896475334192649e-01	 1.358618610231331e+00	-1.039079007653861e+01
1	 7.578647057289489e-01	 1.376600465971305e+00	-1.073397358778092e+01
1	 7.257791631950296e-01	 1.393783470046177e+00	-1.106848896677291e+01
1	 6.934202436112055e-01	 1.410161735707014e+00	-1.139440342154374e+01
1	 6.608173159184336e-01	 1.425730770546950e+00	-1.171181690012770e+01
1	 6.007430144713030e-01	 1.296118882315408e+00	-1.365065397468637e+01
1	 5.709088183782203e-01	 1.309534057452725e+00	-1.398681287493927e+01
1	 5.409059907081718e-01	 1.322209149774204e+00	-1.430399387951045e+01
1	 5.107608867868586e-01	 1.334143786501033e+00	-1.460225506210725e+01
1	 4.804996116995442e-01	 1.345338786212305e+00	-1.488168944520360e+01
1	 4.501479568532782e-01	 1.355796129022144e+00	-1.514242406112118e+01
1	 4.197313395879832e-01	 1.365518923009963e+00	-1.538461888739638e+01
1	 3.892747460655154e-01	 1.374511367216089e+00	-1.560846566662306e+01
1	 3.588026776327866e-01	 1.382778711527682e+00	-1.581418662152612e+01
1	 3.283391008216911e-01	 1.390327213788976e+00	-1.600203307645488e+01
1	 2.979074011153085e-01	 1.397164094475425e+00	-1.617228399678462e+01
1	 6.067504446160161e-01	 1.309080071138563e+00	-1.347702167714847e+01
1	 5.766179065620025e-01	 1.322629398027252e+00	-1.381015898247194e+01
1	 5.463150506152535e-01	 1.335431241271946e+00	-1.412480023826220e+01
1	 5.158684956547273e-01	 1.347485224366044e+00	-1.442114760232043e+01
1	 4.853046078165397e-01	 1.358792174074429e+00	-1.469943564523493e+01
1	 4.546494364218110e-01	 1.369354090312366e+00	-1.495992936306846e+01
1	 4.239286529838629e-01	 1.379174112240062e+00	-1.520292212800369e+01
1	 3.931674935261704e-01	 1.388256480888249e+00	-1.542873359361449e+01
1	 3.623907044091144e-01	 1.396606498642958e+00	-1.563770757093775e+01
1	 3.316224918299081e-01	 1.404230485926865e+00	-1.583020989087365e+01
1	 3.008864751264616e-01	 1.411135735420179e+00	-1.600662626767029e+01
1	 6.127578747607291e-01	 1.322041259961716e+00	-1.329918979672157e+01
1	 5.823269947457845e-01	 1.335724738601779e+00	-1.362932419459463e+01
1	 5.517241105223354e-01	 1.348653332769689e+00	-1.394156356736532e+01
1	 5.209761045225958e-01	 1.360826662231054e+00	-1.423623421888803e+01
1	 4.901096039335350e-01	 1.372245561936551e+00	-1.451369183763287e+01
1	 4.591509159903437e-01	 1.382912051602587e+00	-1.477431862517884e+01
1	 4.281259663797430e-01	 1.392829301470162e+00	-1.501852042242773e+01
1	 3.970602409868257e-01	 1.402001594560410e+00	-1.524672385541833e+01
1	 3.659787311854421e-01	 1.410434285758235e+00	-1.545937352118191e+01
1	 3.349058828381249e-01	 1.418133758064755e+00	-1.565692923248408e+01
1	 3.038655491376146e-01	 1.425107376364933e+00	-1.583986333857697e+01
1	 6.187653049054422e-01	 1.335002448784871e+00	-1.311703789524965e+01
1	 5.880360829295668e-01	 1.348820079176306e+00	-1.344420193432538e+01
1	 5.571331704294170e-01	 1.361875424267430e+00	-1.375418689654090e+01
1	 5.260837133904646e-01	 1.374168100096065e+00	-1.404742390273938e+01
1	 4.949146000505306e-01	 1.385698949798674e+00	-1.432436994231177e+01
1	 4.636523955588766e-01	 1.396470012892809e+00	-1.458550427888254e+01
1	 4.323232797756227e-01	 1.406484490700262e+00	-1.483132490965131e+01
1	 4.009529884474808e-01	 1.415746708232571e+00	-1.506234510423385e+01
1	 3.695667579617701e-01	 1.424262072873512e+00	-1.527909004657579e+01
1	 3.381892738463418e-01	 1.432037030202645e+00	-1.548209360108750e+01
1	 3.068446231487678e-01	 1.439079017309688e+00	-1.567189522161144e+01
1	 6.247727350501552e-01	 1.347963637608025e+00	-1.293045016681335e+01
1	 5.937451711133491e-01	 1.361915419750834e+00	-1.325468972379699e+01
1	 5.625422303364987e-01	 1.375097515765172e+00	-1.356257698513620e+01
1	 5.311913222583332e-01	 1.387509537961075e+00	-1.385462914515252e+01
1	 4.997195961675259e-01	 1.399152337660797e+00	-1.413138526688152e+01
1	 4.681538751274092e-01	 1.410027974183030e+00	-1.439340212363180e+01
1	 4.365205931715027e-01	 1.420139679930362e+00	-1.464125014638869e+01
1	 4.048457359081360e-01	 1.429491821904732e+00	-1.487550950563750e+01
1	 3.731547847380980e-01	 1.438089859988789e+00	-1.509676635319377e+01
1	 3.414726648545588e-01	 1.445940302340534e+00	-1.530560924649288e+01
1	 3.098236971599208e-01	 1.453050658254442e+00	-1.550262577456856e+01
1	 6.307801651948685e-01	 1.360924826431180e+00	-1.273931521714744e+01
1	 5.994542592971314e-01	 1.375010760325361e+00	-1.306068898906104e+01
1	 5.679512902435805e-01	 1.388319607262914e+00	-1.336664414452329e+01
1	 5.362989311262015e-01	 1.400850975826085e+00	-1.365776577107112e+01
1	 5.045245922845213e-01	 1.412605725522921e+00	-1.393465634532876e+01
1	 4.726553546959421e-01	 1.423585935473252e+00	-1.419793116651876e+01
1	 4.407179065673824e-01	 1.433794869160461e+00	-1.444821394433640e+01
1	 4.087384833687913e-01	 1.443236935576893e+00	-1.468613257127891e+01
1	 3.767428115144258e-01	 1.451917647104065e+00	-1.491231510592615e+01
1	 3.447560558627756e-01	 1.459843574478424e+00	-1.512738598994497e+01
1	 3.128027711710739e-01	 1.467022299199197e+00	-1.533196251780341e+01
1	 6.367875953395813e-01	 1.373886015254333e+00	-1.254352585554378e+01
1	 6.051633474809133e-01	 1.388106100899889e+00	-1.286210487594055e+01
1	 5.733603501506623e-01	 1.401541698760656e+00	-1.316630207055082e+01
1	 5.414065399940703e-01	 1.414192413691095e+00	-1.345675278185611e+01
1	 5.093295884015170e-01	 1.426059113385044e+00	-1.373410478582922e+01
1	 4.771568342644750e-01	 1.437143896763473e+00	-1.399901347097155e+01
1	 4.449152199632624e-01	 1.447450058390561e+00	-1.425213721663637e+01
1	 4.126312308294463e-01	 1.456982049249054e+00	-1.449413300104745e+01
1	 3.803308382907538e-01	 1.465745434219343e+00	-1.472565226532805e+01
1	 3.480394468709926e-01	 1.473746846616314e+00	-1.494733705566050e+01
1	 3.157818451822270e-01	 1.480993940143951e+00	-1.515981646146904e+01
1	 6.427950254842943e-01	 1.386847204077487e+00	-1.234297889842357e+01
1	 6.108724356646957e-01	 1.401201441474416e+00	-1.265884607620936e+01
1	 5.787694100577438e-01	 1.414763790258398e+00	-1.296146768539083e+01
1	 5.465141488619386e-01	 1.427533851556105e+00	-1.325151220685489e+01
1	 5.141345845185123e-01	 1.439512501247167e+00	-1.352965512709436e+01
1	 4.816583138330077e-01	 1.450701858053694e+00	-1.379657401393535e+01
1	 4.491125333591421e-01	 1.461105247620660e+00	-1.405294383294872e+01
1	 4.165239782901014e-01	 1.470727162921214e+00	-1.429943253408883e+01
1	 3.839188650670816e-01	 1.479573221334619e+00	-1.453669693361594e+01
1	 3.513228378792095e-01	 1.487650118754204e+00	-1.476537891181066e+01
1	 3.187609191933802e-01	 1.494965581088705e+00	-1.498610194244174e+01
1	 6.488024556290073e-01	 1.399808392900641e+00	-1.213757498382207e+01
1	 6.165815238484779e-01	 1.414296782048943e+00	-1.245082466342721e+01
1	 5.841784699648256e-01	 1.427985881756140e+00	-1.275206098817195e+01
1	 5.516217577298074e-01	 1.440875289421115e+00	-1.304196896321683e+01
1	 5.189395806355078e-01	 1.452965889109289e+00	-1.332123470269793e+01
1	 4.861597934015404e-01	 1.464259819343916e+00	-1.359054055098657e+01
1	 4.533098467550220e-01	 1.474760436850760e+00	-1.385056048257563e+01
1	 4.204167257507567e-01	 1.484472276593376e+00	-1.410195580809900e+01
1	 3.875068918434094e-01	 1.493401008449896e+00	-1.434537120922051e+01
1	 3.546062288874263e-01	 1.501553390892093e+00	-1.458143112033803e+01
1	 3.217399932045332e-01	 1.508937222033459e+00	-1.481073647030608e+01
1	 6.548098857737203e-01	 1.412769581723795e+00	-1.192721839608507e+01
1	 6.222906120322599e-01	 1.427392122623470e+00	-1.223795593781237e+01
1	 5.895875298719073e-01	 1.441207973253882e+00	-1.253800491383458e+01
1	 5.567293665976759e-01	 1.454216727286126e+00	-1.282805072342530e+01
1	 5.237445767525033e-01	 1.466419276971413e+00	-1.310877351287174e+01
1	 4.906612729700732e-01	 1.477817780634137e+00	-1.338084348887344e+01
1	 4.575071601509016e-01	 1.488415626080859e+00	-1.364491654512017e+01
1	 4.243094732114117e-01	 1.498217390265536e+00	-1.390163022636301e+01
1	 3.910949186197373e-01	 1.507228795565172e+00	-1.415160004934558e+01
1	 3.578896198956433e-01	 1.515456663029984e+00	-1.439541619504065e+01
1	 3.247190672156863e-01	 1.522908862978213e+00	-1.463364058181778e+01
1	 6.608173159184336e-01	 1.425730770546950e+00	-1.171181690012770e+01
1	 6.279997002160421e-01	 1.440487463197997e+00	-1.202015827957510e+01
1	 5.949965897789892e-01	 1.454430064751624e+00	-1.231922519968495e+01
1	 5.618369754655447e-01	 1.467558165151136e+00	-1.260968779005509e+01
1	 5.285495728694986e-01	 1.479872664833536e+00	-1.289220410329347e+01
1	 4.951627525386059e-01	 1.491375741924358e+00	-1.316741576500783e+01
1	 4.617044735467815e-01	 1.502070815310959e+00	-1.343594396819991e+01
1	 4.282022206720670e-01	 1.511962503937697e+00	-1.369838583204652e+01
1	 3.946829453960652e-01	 1.521056582680450e+00	-1.395531114002406e+01
1	 3.611730109038602e-01	 1.529359935167873e+00	-1.420725946739650e+01
1	 3.276981412268394e-01	 1.536880503922968e+00	-1.445473770330515e+01
1	 2.979074011153085e-01	 1.397164094475425e+00	-1.617228399678461e+01
1	 2.675303405770418e-01	 1.403297489273513e+00	-1.632559851187776e+01
1	 2.372300194073238e-01	 1.408736399906886e+00	-1.646039746587293e+01
1	 2.070278414616596e-01	 1.413490643545382e+00	-1.657370366359471e+01
1	 1.769444837342633e-01	 1.417570801126571e+00	-1.666266459750427e+01
1	 1.469998697837135e-01	 1.420988164909963e+00	-1.672457090123089e+01
1	 1.172131470510590e-01	 1.423754685572272e+00	-1.675687277410281e+01
1	 8.760266799682477e-02	 1.425882919138332e+00	-1.675719435151090e+01
1	 5.818597496152627e-02	 1.427385974026783e+00	-1.672334601874767e+01
1	 2.897978863468519e-02	 1.428277458472723e+00	-1.665333468714007e+01
1	 0.000000000000000e+00	 1.428571428571429e+00	-1.654537207066472e+01
1	 3.008864751264616e-01	 1.411135735420179e+00	-1.600662626767029e+01
1	 2.702056439828123e-01	 1.417330464166248e+00	-1.616757007392706e+01
1	 2.396023196013971e-01	 1.422823763905955e+00	-1.631117470489228e+01
1	 2.090981198762763e-01	 1.427625549980836e+00	-1.643419853040791e+01
1	 1.787139285716060e-01	 1.431746509137837e+00	-1.653352319307506e+01
1	 1.484698684815507e-01	 1.435198046559063e+00	-1.660617429596873e+01
1	 1.183852785215696e-01	 1.437992232427994e+00	-1.664933992578852e+01
1	 8.847869467679305e-02	 1.440141748329715e+00	-1.666038697652020e+01
1	 5.876783471114152e-02	 1.441659833767051e+00	-1.663687526364897e+01
1	 2.926958652103205e-02	 1.442560233057451e+00	-1.657656944222964e+01
1	 0.000000000000000e+00	 1.442857142857143e+00	-1.647744876348209e+01
1	 3.038655491376146e-01	 1.425107376364933e+00	-1.583986333857697e+01
1	 2.728809473885828e-01	 1.431363439058983e+00	-1.600871263491061e+01
1	 2.419746197954702e-01	 1.436911127905023e+00	-1.616131966406844e+01
1	 2.111683982908927e-01	 1.441760456416289e+00	-1.629419945551821e+01
1	 1.804833734089485e-01	 1.445922217149102e+00	-1.640398840880848e+01
1	 1.499398671793878e-01	 1.449407928208162e+00	-1.648746711354370e+01
1	 1.195574099920802e-01	 1.452229779283718e+00	-1.654158087884355e+01
1	 8.935472135676129e-02	 1.454400577521098e+00	-1.656345792777932e+01
1	 5.934969446075680e-02	 1.455933693507319e+00	-1.655042523929130e+01
1	 2.955938440737890e-02	 1.456843007642178e+00	-1.650002204534465e+01
1	 0.000000000000000e+00	 1.457142857142858e+00	-1.641001101434336e+01
1	 3.068446231487678e-01	 1.439079017309688e+00	-1.567189522161143e+01
1	 2.755562507943531e-01	 1.445396413951718e+00	-1.584892509513075e+01
1	 2.443469199895435e-01	 1.450998491904093e+00	-1.601073150050479e+01
1	 2.132386767055093e-01	 1.455895362851743e+00	-1.615360660837705e+01
1	 1.822528182462912e-01	 1.460097925160367e+00	-1.627396158076160e+01
1	 1.514098658772249e-01	 1.463617809857261e+00	-1.636835142335533e+01
1	 1.207295414625908e-01	 1.466467326139440e+00	-1.643349743082618e+01
1	 9.023074803672951e-02	 1.468659406712482e+00	-1.646630717115544e+01
1	 5.993155421037206e-02	 1.470207553247587e+00	-1.646389198406874e+01
1	 2.984918229372574e-02	 1.471125782226905e+00	-1.642358199572819e+01
1	 0.000000000000000e+00	 1.471428571428572e+00	-1.634293867693059e+01
1	 3.098236971599208e-01	 1.453050658254442e+00	-1.550262577456855e+01
1	 2.782315542001235e-01	 1.459429388844453e+00	-1.568811024333977e+01
1	 2.467192201836167e-01	 1.465085855903161e+00	-1.585931324987743e+01
1	 2.153089551201260e-01	 1.470030269287197e+00	-1.601232399807224e+01
1	 1.840222630836339e-01	 1.474273633171634e+00	-1.614334783975828e+01
1	 1.528798645750621e-01	 1.477827691506361e+00	-1.624873306136480e+01
1	 1.219016729331014e-01	 1.480704872995163e+00	-1.632499515631181e+01
1	 9.110677471669777e-02	 1.482918235903865e+00	-1.636883851998244e+01
1	 6.051341395998732e-02	 1.484481412987854e+00	-1.637717553489873e+01
1	 3.013898018007261e-02	 1.485408556811632e+00	-1.634714304265259e+01
1	 0.000000000000000e+00	 1.485714285714286e+00	-1.627611622593809e+01
1	 3.128027711710739e-01	 1.467022299199197e+00	-1.533196251780341e+01
1	 2.809068576058939e-01	 1.473462363737188e+00	-1.552617457157568e+01
1	 2.490915203776900e-01	 1.479173219902230e+00	-1.570697164174162e+01
1	 2.173792335347426e-01	 1.484165175722651e+00	-1.587025929048828e+01
1	 1.857917079209765e-01	 1.488449341182899e+00	-1.601205593068633e+01
1	 1.543498632728992e-01	 1.492037573155461e+00	-1.612852145073475e+01
1	 1.230738044036120e-01	 1.494942419850886e+00	-1.621598322703485e+01
1	 9.198280139666601e-02	 1.497177065095249e+00	-1.627095945184819e+01
1	 6.109527370960258e-02	 1.498755272728123e+00	-1.629017973681606e+01
1	 3.042877806641945e-02	 1.499691331396360e+00	-1.627060298303696e+01
1	 0.000000000000000e+00	 1.500000000000000e+00	-1.620943253702416e+01
1	 3.157818451822270e-01	 1.480993940143951e+00	-1.515981646146904e+01
1	 2.835821610116643e-01	 1.487495338629923e+00	-1.536302810047872e+01
1	 2.514638205717633e-01	 1.493260583901299e+00	-1.555361692529207e+01
1	 2.194495119493592e-01	 1.498300082158105e+00	-1.572732363581588e+01
1	 1.875611527583191e-01	 1.502625049194165e+00	-1.587999804202287e+01
1	 1.558198619707364e-01	 1.506247454804561e+00	-1.600762943262173e+01
1	 1.242459358741226e-01	 1.509179966706608e+00	-1.610637424221138e+01
1	 9.285882807663430e-02	 1.511435894286632e+00	-1.617258093575217e+01
1	 6.167713345921785e-02	 1.513029132468391e+00	-1.620281206334468e+01
1	 3.071857595276631e-02	 1.513974105981087e+00	-1.619386347052029e+01
1	 0.000000000000000e+00	 1.514285714285714e+00	-1.614278067921851e+01
1	 3.187609191933802e-01	 1.494965581088705e+00	-1.498610194244174e+01
1	 2.862574644174347e-01	 1.501528313522658e+00	-1.519858421440357e+01
1	 2.538361207658364e-01	 1.507347947900368e+00	-1.539916270489357e+01
1	 2.215197903639757e-01	 1.512434988593559e+00	-1.558343150573399e+01
1	 1.893305975956618e-01	 1.516800757205431e+00	-1.574708964491856e+01
1	 1.572898606685734e-01	 1.520457336453660e+00	-1.588597310645676e+01
1	 1.254180673446331e-01	 1.523417513562331e+00	-1.599608406837656e+01
1	 9.373485475660252e-02	 1.525694723478015e+00	-1.607361726895577e+01
1	 6.225899320883311e-02	 1.527302992208658e+00	-1.611498344694254e+01
1	 3.100837383911315e-02	 1.528256880565813e+00	-1.611682983524121e+01
1	 0.000000000000000e+00	 1.528571428571428e+00	-1.607605771897029e+01
1	 3.217399932045332e-01	 1.508937222033459e+00	-1.481073647030608e+01
1	 2.889327678232051e-01	 1.515561288415394e+00	-1.503275950569168e+01
1	 2.562084209599097e-01	 1.521435311899436e+00	-1.524352578474956e+01
1	 2.235900687785924e-01	 1.526569895029013e+00	-1.543850053963726e+01
1	 1.911000424330044e-01	 1.530976465216696e+00	-1.561324934122223e+01
1	 1.587598593664106e-01	 1.534667218102759e+00	-1.576347167909941e+01
1	 1.265901988151437e-01	 1.537655060418054e+00	-1.588503168811987e+01
1	 9.461088143657075e-02	 1.539953552669398e+00	-1.597398592289587e+01
1	 6.284085295844836e-02	 1.541576851948926e+00	-1.602660811886517e+01
1	 3.129817172546000e-02	 1.542539655150541e+00	-1.603941091362953e+01
1	 0.000000000000000e+00	 1.542857142857143e+00	-1.600916453508241e+01
1	 3.247190672156863e-01	 1.522908862978213e+00	-1.463364058181778e+01
1	 2.916080712289756e-01	 1.529594263308129e+00	-1.486547362751618e+01
1	 2.585807211539830e-01	 1.535522675898505e+00	-1.508662602211999e+01
1	 2.256603471932089e-01	 1.540704801464466e+00	-1.529245139932758e+01
1	 1.928694872703469e-01	 1.545152173227962e+00	-1.547839871987090e+01
1	 1.602298580642477e-01	 1.548877099751859e+00	-1.564004732229495e+01
1	 1.277623302856543e-01	 1.551892607273776e+00	-1.577313905714651e+01
1	 9.548690811653901e-02	 1.554212381860782e+00	-1.587360739758021e+01
1	 6.342271270806363e-02	 1.555850711689194e+00	-1.593760345784508e+01
1	 3.158796961180686e-02	 1.556822429735268e+00	-1.596151888756695e+01
1	 0.000000000000000e+00	 1.557142857142857e+00	-1.594200564383284e+01
1	 3.276981412268394e-01	 1.536880503922968e+00	-1.445473770330515e+01
1	 2.942833746347460e-01	 1.543627238200864e+00	-1.469664915475288e+01
1	 2.609530213480562e-01	 1.549610039897574e+00	-1.492838618854642e+01
1	 2.277306256078256e-01	 1.554839707899921e+00	-1.514520763163251e+01
1	 1.946389321076896e-01	 1.559327881239228e+00	-1.534246222111287e+01
1	 1.616998567620849e-01	 1.563086981400959e+00	-1.551562503790727e+01
1	 1.289344617561649e-01	 1.566130154129499e+00	-1.566033096913648e+01
1	 9.636293479650726e-02	 1.568471211052165e+00	-1.577240508392572e+01
1	 6.400457245767889e-02	 1.570124571429461e+00	-1.584788984702443e+01
1	 3.187776749815371e-02	 1.571105204319996e+00	-1.588306913232150e+01
1	 0.000000000000000e+00	 1.571428571428571e+00	-1.587448903363499e+01
1	 1.571428571428571e+00	 0.000000000000000e+00	 5.839519004009488e+00
1	 1.571105204319995e+00	 3.187776749815283e-02	 5.454732041588779e+00
1	 1.570124571429462e+00	 6.400457245767810e-02	 5.075160654296666e+00
1	 1.568471211052165e+00	 9.636293479650661e-02	 4.702223212359772e+00
1	 1.566130154129499e+00	 1.289344617561644e-01	 4.337277179623523e+00
1	 1.563086981400960e+00	 1.616998567620844e-01	 3.981607092658380e+00
1	 1.559327881239227e+00	 1.946389321076893e-01	 3.636412298564798e+00
1	 1.554839707899920e+00	 2.277306256078254e-01	 3.302794539482475e+00
1	 1.549610039897574e+00	 2.609530213480561e-01	 2.981745480045427e+00
1	 1.543627238200864e+00	 2.942833746347461e-01	 2.674134281709664e+00
1	 1.536880503922968e+00	 3.276981412268393e-01	 2.380695334849254e+00
1	 1.585714285714286e+00	 0.000000000000000e+00	 5.629938272747301e+00
1	 1.585387978904722e+00	 3.216756538449967e-02	 5.254194674110490e+00
1	 1.584398431169730e+00	 6.458643220729335e-02	 4.883500993337259e+00
1	 1.582730040243548e+00	 9.723896147647484e-02	 4.519318405376289e+00
1	 1.580367700985222e+00	 1.301065932266749e-01	 4.163038628625777e+00
1	 1.577296863050059e+00	 1.631698554599215e-01	 3.815971146509095e+00
1	 1.573503589250493e+00	 1.964083769450319e-01	 3.479330211726900e+00
1	 1.568974614335374e+00	 2.298009040224420e-01	 3.154221729460991e+00
1	 1.563697403896643e+00	 2.633253215421293e-01	 2.841630124320927e+00
1	 1.557660213093599e+00	 2.969586780405165e-01	 2.542405303701258e+00
1	 1.550852144867722e+00	 3.306772152379924e-01	 2.257249837278188e+00
1	 1.600000000000000e+00	 0.000000000000000e+00	 5.427416715155643e+00
1	 1.599670753489450e+00	 3.245736327084651e-02	 5.060800122919938e+00
1	 1.598672290909998e+00	 6.516829195690864e-02	 4.699043487281099e+00
1	 1.596988869434932e+00	 9.811498815644311e-02	 4.343648488104015e+00
1	 1.594605247840945e+00	 1.312787246971855e-01	 3.996038659678653e+00
1	 1.591506744699159e+00	 1.646398541577587e-01	 3.657545864547772e+00
1	 1.587679297261759e+00	 1.981778217823746e-01	 3.329396575822069e+00
1	 1.583109520770828e+00	 2.318711824370586e-01	 3.012698072562749e+00
1	 1.577784767895711e+00	 2.656976217362025e-01	 2.708424661589004e+00
1	 1.571693187986334e+00	 2.996339814462870e-01	 2.417404047116690e+00
1	 1.564823785812476e+00	 3.336562892491454e-01	 2.140303976766788e+00
1	 1.614285714285714e+00	 0.000000000000000e+00	 5.231637231903559e+00
1	 1.613953528074177e+00	 3.274716115719337e-02	 4.874235242845002e+00
1	 1.612946150650265e+00	 6.575015170652387e-02	 4.521479029159311e+00
1	 1.611247698626314e+00	 9.899101483641133e-02	 4.174908555953319e+00
1	 1.608842794696668e+00	 1.324508561676961e-01	 3.835976816085071e+00
1	 1.605716626348258e+00	 1.661098528555958e-01	 3.506035565748042e+00
1	 1.601855005273025e+00	 1.999472666197172e-01	 3.186320896166518e+00
1	 1.597244427206282e+00	 2.339414608516752e-01	 2.877938754322436e+00
1	 1.591872131894781e+00	 2.680699219302758e-01	 2.581850534655890e+00
1	 1.585726162879069e+00	 3.023092848520574e-01	 2.298858871883075e+00
1	 1.578795426757230e+00	 3.366353632602985e-01	 2.029593772257911e+00
1	 1.628571428571428e+00	 0.000000000000000e+00	 5.042293849952406e+00
1	 1.628236302658904e+00	 3.303695904354021e-02	 4.694197876263467e+00
1	 1.627220010390533e+00	 6.633201145613912e-02	 4.350509357861609e+00
1	 1.625506527817698e+00	 9.986704151637955e-02	 4.012804402741251e+00
1	 1.623080341552390e+00	 1.336229876382067e-01	 3.682563183488174e+00
1	 1.619926507997358e+00	 1.675798515534329e-01	 3.361154943856367e+00
1	 1.616030713284290e+00	 2.017167114570599e-01	 3.049822870872384e+00
1	 1.611379333641735e+00	 2.360117392662917e-01	 2.749668953764750e+00
1	 1.605959495893850e+00	 2.704422221243490e-01	 2.461638960264451e+00
1	 1.599759137771804e+00	 3.049845882578278e-01	 2.186507669158141e+00
1	 1.592767067701984e+00	 3.396144372714515e-01	 1.924864505187677e+00
1	 1.642857142857143e+00	 0.000000000000000e+00	 4.859091238804009e+00
1	 1.642519077243632e+00	 3.332675692988706e-02	 4.520396375383456e+00
1	 1.641493870130801e+00	 6.691387120575437e-02	 4.185846586577190e+00
1	 1.639765357009081e+00	 1.007430681963478e-01	 3.857052055543378e+00
1	 1.637317888408113e+00	 1.347951191087173e-01	 3.535517931508771e+00
1	 1.634136389646457e+00	 1.690498502512701e-01	 3.222628616315004e+00
1	 1.630206421295556e+00	 2.034861562944024e-01	 2.919631947682682e+00
1	 1.625514240077189e+00	 2.380820176809083e-01	 2.627623408904826e+00
1	 1.620046859892919e+00	 2.728145223184222e-01	 2.347530504140404e+00
1	 1.613792112664539e+00	 3.076598916635982e-01	 2.080097446928919e+00
1	 1.606738708646739e+00	 3.425935112826046e-01	 1.825870316768335e+00
1	 1.657142857142857e+00	 0.000000000000000e+00	 4.681744251770486e+00
1	 1.656801851828358e+00	 3.361655481623389e-02	 4.352549149233488e+00
1	 1.655767729871068e+00	 6.749573095536965e-02	 4.027212755626645e+00
1	 1.654024186200464e+00	 1.016190948763160e-01	 3.707377333605101e+00
1	 1.651555435263836e+00	 1.359672505792279e-01	 3.394570879091060e+00
1	 1.648346271295556e+00	 1.705198489491072e-01	 3.090190696516467e+00
1	 1.644382129306822e+00	 2.052556011317451e-01	 2.795486903728601e+00
1	 1.639649146512643e+00	 2.401522960955249e-01	 2.511546004722796e+00
1	 1.634134223891987e+00	 2.751868225124955e-01	 2.239274678018925e+00
1	 1.627825087557275e+00	 3.103351950693686e-01	 1.979383937044953e+00
1	 1.620710349591493e+00	 3.455725852937577e-01	 1.732373826101366e+00
1	 1.671428571428571e+00	 0.000000000000000e+00	 4.509977490768662e+00
1	 1.671084626413086e+00	 3.390635270258074e-02	 4.190384233883863e+00
1	 1.670041589611336e+00	 6.807759070498488e-02	 3.874339408225595e+00
1	 1.668283015391848e+00	 1.024951215562843e-01	 3.563515429872809e+00
1	 1.665792982119558e+00	 1.371393820497384e-01	 3.259461082138425e+00
1	 1.662556152944656e+00	 1.719898476469443e-01	 2.963584387993697e+00
1	 1.658557837318088e+00	 2.070250459690877e-01	 2.677135446837699e+00
1	 1.653784052948096e+00	 2.422225745101414e-01	 2.401189382267846e+00
1	 1.648221587891056e+00	 2.775591227065688e-01	 2.136629557336545e+00
1	 1.641858062450009e+00	 3.130104984751390e-01	 1.884131222403671e+00
1	 1.634681990536247e+00	 3.485516593049109e-01	 1.644145767874521e+00
1	 1.685714285714285e+00	 0.000000000000000e+00	 4.343524893243613e+00
1	 1.685367400997813e+00	 3.419615058892758e-02	 4.033638884521128e+00
1	 1.684315449351604e+00	 6.865945045460013e-02	 3.726967187819644e+00
1	 1.682541844583231e+00	 1.033711482362525e-01	 3.425210513803195e+00
1	 1.680030528975281e+00	 1.383115135202490e-01	 3.129936442116859e+00
1	 1.676766034593755e+00	 1.734598463447814e-01	 2.842561599244632e+00
1	 1.672733545329353e+00	 2.087944908064303e-01	 2.564333837114563e+00
1	 1.667918959383551e+00	 2.442928529247581e-01	 2.296314567638358e+00
1	 1.662308951890125e+00	 2.799314229006420e-01	 2.039361418362466e+00
1	 1.655891037342745e+00	 3.156858018809094e-01	 1.794111383092408e+00
1	 1.648653631481001e+00	 3.515307333160639e-01	 1.560964648481051e+00
1	 1.699999999999999e+00	 0.000000000000000e+00	 4.182129339919550e+00
1	 1.699650175582540e+00	 3.448594847527441e-02	 3.882059188090278e+00
1	 1.698589309091872e+00	 6.924131020421538e-02	 3.584845455721760e+00
1	 1.696800673774614e+00	 1.042471749162208e-01	 3.292215354198941e+00
1	 1.694268075831003e+00	 1.394836449907596e-01	 3.005753334392634e+00
1	 1.690975916242855e+00	 1.749298450426185e-01	 2.726882577977346e+00
1	 1.686909253340619e+00	 2.105639356437730e-01	 2.456846527601452e+00
1	 1.682053865819004e+00	 2.463631313393747e-01	 2.196690619668875e+00
1	 1.676396315889194e+00	 2.823037230947152e-01	 1.947244393625749e+00
1	 1.669924012235480e+00	 3.183611052866799e-01	 1.709104160372050e+00
1	 1.662625272425756e+00	 3.545098073272170e-01	 1.482616419477470e+00
1	 1.714285714285714e+00	 0.000000000000000e+00	 4.025542282163239e+00
1	 1.713932950167268e+00	 3.477574636162127e-02	 3.735399695304776e+00
1	 1.712863168832140e+00	 6.982316995383066e-02	 3.447731927867825e+00
1	 1.711059502965998e+00	 1.051232015961890e-01	 3.164290960902651e+00
1	 1.708505622686727e+00	 1.406557764612702e-01	 2.886676255153161e+00
1	 1.705185797891956e+00	 1.763998437404557e-01	 2.616315563642991e+00
1	 1.701084961351885e+00	 2.123333804811157e-01	 2.354445822905873e+00
1	 1.696188772254459e+00	 2.484334097539913e-01	 2.102094295232802e+00
1	 1.690483679888263e+00	 2.846760232887885e-01	 1.860060144571134e+00
1	 1.683956987128216e+00	 3.210364086924503e-01	 1.628896637461437e+00
1	 1.676596913370510e+00	 3.574888813383701e-01	 1.408894167368389e+00
1	 1.536880503922968e+00	 3.276981412268393e-01	 2.380695334849254e+00
1	 1.529359935167873e+00	 3.611730109038592e-01	 2.093115090427885e+00
1	 1.521056582680450e+00	 3.946829453960644e-01	 1.802996849054641e+00
1	 1.511962503937697e+00	 4.282022206720662e-01	 1.510807684655841e+00
1	 1.502070815310960e+00	 4.617044735467811e-01	 1.216965639831780e+00
1	 1.491375741924359e+00	 4.951627525386056e-01	 9.218357606084433e-01
1	 1.479872664833536e+00	 5.285495728694983e-01	 6.257263988571004e-01
1	 1.467558165151136e+00	 5.618369754655443e-01	 3.288858287119997e-01
1	 1.454430064751624e+00	 5.949965897789888e-01	 3.149922211646683e-02
1	 1.440487463197997e+00	 6.279997002160423e-01	-2.663139732537099e-01
1	 1.425730770546949e+00	 6.608173159184335e-01	-5.645022130135642e-01
1	 1.550852144867722e+00	 3.306772152379924e-01	 2.257249837278188e+00
1	 1.543263207305763e+00	 3.644564019120761e-01	 1.978027449901902e+00
1	 1.534884369795726e+00	 3.982709721723922e-01	 1.696525413678765e+00
1	 1.525707617609859e+00	 4.320949681327215e-01	 1.413177753933164e+00
1	 1.515726004541059e+00	 4.659017869426607e-01	 1.128367476461871e+00
1	 1.504933703214580e+00	 4.996642321071384e-01	 8.424227167002492e-01
1	 1.493326052695659e+00	 5.333545689864937e-01	 5.556131745816597e-01
1	 1.480899603016147e+00	 5.669445843334130e-01	 2.681468811695130e-01
1	 1.467652156249367e+00	 6.004056496860709e-01	-1.983265826224367e-02
1	 1.453582803772525e+00	 6.337087883998246e-01	-3.082489021153193e-01
1	 1.438691959370104e+00	 6.668247460631467e-01	-5.970942515201823e-01
1	 1.564823785812476e+00	 3.336562892491454e-01	 2.140303976766788e+00
1	 1.557166479443652e+00	 3.677397929202930e-01	 1.869188384144925e+00
1	 1.548712156911003e+00	 4.018589989487200e-01	 1.596052759235804e+00
1	 1.539452731282019e+00	 4.359877155933766e-01	 1.321296977634708e+00
1	 1.529381193771159e+00	 4.700991003385406e-01	 1.045267860340029e+00
1	 1.518491664504802e+00	 5.041657116756713e-01	 7.682554464912962e-01
1	 1.506779440557782e+00	 5.381595651034889e-01	 4.904895706060542e-01
1	 1.494241040881157e+00	 5.720521932012815e-01	 2.121367900877669e-01
1	 1.480874247747108e+00	 6.058147095931524e-01	-6.670229284208207e-02
1	 1.466678144347052e+00	 6.394178765836067e-01	-3.459952729458678e-01
1	 1.451653148193258e+00	 6.728321762078596e-01	-6.257797086725068e-01
1	 1.578795426757230e+00	 3.366353632602985e-01	 2.029593772257911e+00
1	 1.571069751581543e+00	 3.710231839285100e-01	 1.766341916431530e+00
1	 1.562539944026279e+00	 4.054470257250479e-01	 1.501330827816133e+00
1	 1.553197844954180e+00	 4.398804630540316e-01	 1.234925161678613e+00
1	 1.543036383001258e+00	 4.742964137344203e-01	 9.674344375402555e-01
1	 1.532049625795023e+00	 5.086671912442039e-01	 6.991094445333266e-01
1	 1.520232828419905e+00	 5.429645612204846e-01	 4.301389708338957e-01
1	 1.507582478746167e+00	 5.771598020691500e-01	 1.606469025797816e-01
1	 1.494096339244851e+00	 6.112237695002342e-01	-1.093102641628532e-01
1	 1.479773484921579e+00	 6.451269647673891e-01	-3.797454573645010e-01
1	 1.464614337016412e+00	 6.788396063525726e-01	-6.507425711510795e-01
1	 1.592767067701984e+00	 3.396144372714515e-01	 1.924864505187677e+00
1	 1.584973023719432e+00	 3.743065749367267e-01	 1.669241051675769e+00
1	 1.576367731141557e+00	 4.090350525013756e-01	 1.412120265296423e+00
1	 1.566942958626341e+00	 4.437732105146868e-01	 1.153830539845536e+00
1	 1.556691572231358e+00	 4.784937271303002e-01	 8.946430069058924e-01
1	 1.545607587085245e+00	 5.131686708127365e-01	 6.347680827622514e-01
1	 1.533686216282028e+00	 5.477695573374801e-01	 3.743523597335617e-01
1	 1.520923916611178e+00	 5.822674109370186e-01	 1.134758869125108e-01
1	 1.507318430742593e+00	 6.166328294073159e-01	-1.478501167805353e-01
1	 1.492868825496106e+00	 6.508360529511709e-01	-4.096850771090039e-01
1	 1.477575525839566e+00	 6.848470364972855e-01	-6.721603699633731e-01
1	 1.606738708646739e+00	 3.425935112826046e-01	 1.825870316768335e+00
1	 1.598876295857322e+00	 3.775899659449437e-01	 1.577647385925120e+00
1	 1.590195518256833e+00	 4.126230792777034e-01	 1.328190042914155e+00
1	 1.580688072298502e+00	 4.476659579753420e-01	 1.077789407349851e+00
1	 1.570346761461457e+00	 4.826910405261801e-01	 8.266771655813672e-01
1	 1.559165548375466e+00	 5.176701503812695e-01	 5.750222680031539e-01
1	 1.547139604144151e+00	 5.525745534544754e-01	 3.229279918788813e-01
1	 1.534265354476188e+00	 5.873750198048872e-01	 7.042941419577575e-02
1	 1.520540522240334e+00	 6.220418893143975e-01	-1.825086632665348e-01
1	 1.505964166070634e+00	 6.565451411349534e-01	-4.359932975088764e-01
1	 1.490536714662720e+00	 6.908544666419987e-01	-6.902044611253499e-01
1	 1.620710349591493e+00	 3.455725852937577e-01	 1.732373826101366e+00
1	 1.612779567995212e+00	 3.808733569531607e-01	 1.491330736053020e+00
1	 1.604023305372110e+00	 4.162111060540314e-01	 1.249317098415869e+00
1	 1.594433185970663e+00	 4.515587054359971e-01	 1.006585773364063e+00
1	 1.584001950691557e+00	 4.868883539220599e-01	 7.633279728785717e-01
1	 1.572723509665688e+00	 5.221716299498023e-01	 5.196701171905933e-01
1	 1.560592992006274e+00	 5.573795495714710e-01	 2.756710785825266e-01
1	 1.547606792341198e+00	 5.924826286727556e-01	 3.131985653563718e-02
1	 1.533762613738076e+00	 6.274509492214794e-01	-2.134662743794449e-01
1	 1.519059506645160e+00	 6.622542293187352e-01	-4.588431057788236e-01
1	 1.503497903485874e+00	 6.968618967867117e-01	-7.050402918248078e-01
1	 1.634681990536247e+00	 3.485516593049109e-01	 1.644145767874521e+00
1	 1.626682840133101e+00	 3.841567479613774e-01	 1.410068788441491e+00
1	 1.617851092487387e+00	 4.197991328303592e-01	 1.175285995608047e+00
1	 1.608178299642824e+00	 4.554514528966522e-01	 9.400110313624614e-01
1	 1.597657139921657e+00	 4.910856673179397e-01	 7.043936313807491e-01
1	 1.586281470955909e+00	 5.266731095183350e-01	 4.685166492442867e-01
1	 1.574046379868397e+00	 5.621845456884662e-01	 2.323934905994646e-01
1	 1.560948230206208e+00	 5.975902375406242e-01	-4.033999333002858e-03
1	 1.546984705235818e+00	 6.328600091285610e-01	-2.408971543562051e-01
1	 1.532154847219687e+00	 6.679633175025174e-01	-4.784015750407328e-01
1	 1.516459092309028e+00	 7.028693269314247e-01	-7.168276529354333e-01
1	 1.648653631481001e+00	 3.515307333160639e-01	 1.560964648481051e+00
1	 1.640586112270991e+00	 3.874401389695944e-01	 1.333646765527418e+00
1	 1.631678879602664e+00	 4.233871596066871e-01	 1.105888601218988e+00
1	 1.621923413314984e+00	 4.593442003573073e-01	 8.778636462269920e-01
1	 1.611312329151756e+00	 4.952829807138194e-01	 6.496791842615721e-01
1	 1.599839432246130e+00	 5.311745890868675e-01	 4.213734926120823e-01
1	 1.587499767730520e+00	 5.669895418054617e-01	 1.929134759472044e-01
1	 1.574289668071219e+00	 6.026978464084928e-01	-3.580722385270230e-02
1	 1.560206796733560e+00	 6.382690690356425e-01	-2.649696022053916e-01
1	 1.545250187794215e+00	 6.736724056862997e-01	-4.948301149208293e-01
1	 1.529420281132182e+00	 7.088767570761374e-01	-7.257209186911431e-01
1	 1.662625272425756e+00	 3.545098073272170e-01	 1.482616419477470e+00
1	 1.654489384408881e+00	 3.907235299778112e-01	 1.261857109161557e+00
1	 1.645506666717941e+00	 4.269751863830149e-01	 1.040923778053344e+00
1	 1.635668526987145e+00	 4.632369478179624e-01	 8.199488571292802e-01
1	 1.624967518381856e+00	 4.994802941096994e-01	 5.989962278653216e-01
1	 1.613397393536351e+00	 5.356760686554004e-01	 3.780586075587192e-01
1	 1.600953155592644e+00	 5.717945379224573e-01	 1.570553919535929e-01
1	 1.587631105936229e+00	 6.078054552763614e-01	-6.416900274525461e-02
1	 1.573428888231302e+00	 6.436781289427244e-01	-2.858462598260361e-01
1	 1.558345528368742e+00	 6.793814938700821e-01	-5.082847095117007e-01
1	 1.542381469955336e+00	 7.148841872208506e-01	-7.318692742759566e-01
1	 1.676596913370510e+00	 3.574888813383701e-01	 1.408894167368389e+00
1	 1.668392656546771e+00	 3.940069209860282e-01	 1.194499179799640e+00
1	 1.659334453833218e+00	 4.305632131593429e-01	 9.801970934889561e-01
1	 1.649413640659306e+00	 4.671296952786177e-01	 7.660783952685734e-01
1	 1.638622707611956e+00	 5.036776075055792e-01	 5.521626386581557e-01
1	 1.626955354826573e+00	 5.401775482239333e-01	 3.383960223401032e-01
1	 1.614406543454767e+00	 5.765995340394527e-01	 1.246494507022164e-01
1	 1.600972543801240e+00	 6.129130641442300e-01	-8.928288220839431e-02
1	 1.586650979729045e+00	 6.490871888498062e-01	-3.036843477205410e-01
1	 1.571440868943270e+00	 6.850905820538644e-01	-5.189161434361569e-01
1	 1.555342658778490e+00	 7.208916173655637e-01	-7.354169320344415e-01
1	 1.425730770546949e+00	 6.608173159184335e-01	-5.645022130135642e-01
1	 1.410161735707014e+00	 6.934202436112044e-01	-8.690023550990078e-01
1	 1.393783470046178e+00	 7.257791631950287e-01	-1.185350242960472e+00
1	 1.376600465971305e+00	 7.578647057289485e-01	-1.512947975362001e+00
1	 1.358618610231331e+00	 7.896475334192641e-01	-1.851203814169893e+00
1	 1.339845191729296e+00	 8.210984212029193e-01	-2.199534526458158e+00
1	 1.320288903664719e+00	 8.521883394894908e-01	-2.557367608892351e+00
1	 1.299959839867087e+00	 8.828885376052731e-01	-2.924143373133127e+00
1	 1.278869485223118e+00	 9.131706274663013e-01	-3.299316872478175e+00
1	 1.257030700144342e+00	 9.430066669948136e-01	-3.682359651748464e+00
1	 1.234457699067077e+00	 9.723692427859159e-01	-4.072761304496506e+00
1	 1.438691959370104e+00	 6.668247460631467e-01	-5.970942515201823e-01
1	 1.422981387849805e+00	 6.997240640076697e-01	-8.922739127553864e-01
1	 1.406454228864779e+00	 7.323771555877107e-01	-1.199288604240180e+00
1	 1.389115015661953e+00	 7.647543848719386e-01	-1.517579695754525e+00
1	 1.370969688506161e+00	 7.968261473594389e-01	-1.846594416083298e+00
1	 1.352025602563199e+00	 8.285629523047642e-01	-2.185788008366840e+00
1	 1.332291530061670e+00	 8.599355062121224e-01	-2.534625767875619e+00
1	 1.311777656593151e+00	 8.909147970380484e-01	-2.892584942504384e+00
1	 1.290495571452419e+00	 9.214721786250853e-01	-3.259156477777267e+00
1	 1.268458251963835e+00	 9.515794548765845e-01	-3.633846589940211e+00
1	 1.245680041785870e+00	 9.812089631748793e-01	-4.016178152766913e+00
1	 1.451653148193258e+00	 6.728321762078596e-01	-6.257797086725068e-01
1	 1.435801039992596e+00	 7.060278844041350e-01	-9.119280622761723e-01
1	 1.419124987683381e+00	 7.389751479803927e-01	-1.209901075585754e+00
1	 1.401629565352602e+00	 7.716440640149292e-01	-1.519174520692579e+00
1	 1.383320766780991e+00	 8.040047612996142e-01	-1.839229181958041e+00
1	 1.364206013397101e+00	 8.360274834066088e-01	-2.169552850938048e+00
1	 1.344294156458623e+00	 8.676826729347542e-01	-2.509642208880813e+00
1	 1.323595473319216e+00	 8.989410564708233e-01	-2.859004578494254e+00
1	 1.302121657681720e+00	 9.297737297838702e-01	-3.217159528131598e+00
1	 1.279885803783329e+00	 9.601522427583558e-01	-3.583640313267427e+00
1	 1.256902384504661e+00	 9.900486835638418e-01	-3.957995142105489e+00
1	 1.464614337016412e+00	 6.788396063525726e-01	-6.507425711510795e-01
1	 1.448620692135387e+00	 7.123317048006008e-01	-9.281392838388260e-01
1	 1.431795746501982e+00	 7.455731403730749e-01	-1.217350653009657e+00
1	 1.414144115043250e+00	 7.785337431579197e-01	-1.517882095444160e+00
1	 1.395671845055821e+00	 8.111833752397896e-01	-1.829242660265784e+00
1	 1.376386424231004e+00	 8.434920145084532e-01	-2.150946889403509e+00
1	 1.356296782855575e+00	 8.754298396573859e-01	-2.482516575715989e+00
1	 1.335413290045280e+00	 9.069673159035985e-01	-2.823482401722000e+00
1	 1.313747743911021e+00	 9.380752809426548e-01	-3.173385443231027e+00
1	 1.291313355602823e+00	 9.687250306401264e-01	-3.531778523770138e+00
1	 1.268124727223453e+00	 9.988884039528049e-01	-3.898227407533771e+00
1	 1.477575525839566e+00	 6.848470364972855e-01	-6.721603699633731e-01
1	 1.461440344278178e+00	 7.186355251970660e-01	-9.410759355092849e-01
1	 1.444466505320585e+00	 7.521711327657569e-01	-1.221794613366041e+00
1	 1.426658664733898e+00	 7.854234223009101e-01	-1.513846814566133e+00
1	 1.408022923330651e+00	 8.183619891799643e-01	-1.816764678479165e+00
1	 1.388566835064907e+00	 8.509565456102980e-01	-2.130083824425414e+00
1	 1.368299409252526e+00	 8.831770063800175e-01	-2.453345015915169e+00
1	 1.347231106771345e+00	 9.149935753363739e-01	-2.786095721556988e+00
1	 1.325373830140322e+00	 9.463768321014391e-01	-3.127891557864036e+00
1	 1.302740907422317e+00	 9.772978185218976e-01	-3.478297600609747e+00
1	 1.279347069942244e+00	 1.007728124341767e+00	-3.836889553019868e+00
1	 1.490536714662720e+00	 6.908544666419987e-01	-6.902044611253499e-01
1	 1.474259996420969e+00	 7.249393455935317e-01	-9.509005194207799e-01
1	 1.457137264139186e+00	 7.587691251584391e-01	-1.223384763009769e+00
1	 1.439173214424546e+00	 7.923131014439005e-01	-1.507208050195969e+00
1	 1.420374001605482e+00	 8.255406031201394e-01	-1.801920548332613e+00
1	 1.400747245898809e+00	 8.584210767121424e-01	-2.107073401860295e+00
1	 1.380302035649479e+00	 8.909241731026496e-01	-2.422220332750383e+00
1	 1.359048923497409e+00	 9.230198347691492e-01	-2.746919158347119e+00
1	 1.336999916369623e+00	 9.546783832602238e-01	-3.080733212565590e+00
1	 1.314168459241811e+00	 9.858706064036686e-01	-3.423232657585548e+00
1	 1.290569412661036e+00	 1.016567844730730e+00	-3.773995674567804e+00
1	 1.503497903485874e+00	 6.968618967867117e-01	-7.050402918248078e-01
1	 1.487079648563760e+00	 7.312431659899971e-01	-9.577699341846957e-01
1	 1.469808022957787e+00	 7.653671175511210e-01	-1.222267673593803e+00
1	 1.451687764115194e+00	 7.992027805868908e-01	-1.498100368535384e+00
1	 1.432725079880312e+00	 8.327192170603147e-01	-1.784831260466324e+00
1	 1.412927656732712e+00	 8.658856078139876e-01	-2.082021583224817e+00
1	 1.392304662046431e+00	 8.986713398252809e-01	-2.389232129380758e+00
1	 1.370866740223474e+00	 9.310460942019244e-01	-2.706024759324816e+00
1	 1.348626002598924e+00	 9.629799344190080e-01	-3.031963839576301e+00
1	 1.325596011061305e+00	 9.944433942854394e-01	-3.366617597676163e+00
1	 1.301791755379827e+00	 1.025407565119693e+00	-3.709559382112507e+00
1	 1.516459092309028e+00	 7.028693269314247e-01	-7.168276529354333e-01
1	 1.499899300706551e+00	 7.375469863864624e-01	-9.618357143573459e-01
1	 1.482478781776389e+00	 7.719651099438031e-01	-1.218584905774442e+00
1	 1.464202313805843e+00	 8.060924597298814e-01	-1.486653735232192e+00
1	 1.445076158155143e+00	 8.398978310004899e-01	-1.765613669088283e+00
1	 1.425108067566615e+00	 8.733501389158324e-01	-2.055030707419697e+00
1	 1.404307288443382e+00	 9.064185065479126e-01	-2.354466945609603e+00
1	 1.382684556949538e+00	 9.390723536346993e-01	-2.663482108569279e+00
1	 1.360252088828225e+00	 9.712814855777927e-01	-2.981635044393570e+00
1	 1.337023562880800e+00	 1.003016182167210e+00	-3.308485164784027e+00
1	 1.313014098098619e+00	 1.034247285508656e+00	-3.643593820291968e+00
1	 1.529420281132182e+00	 7.088767570761374e-01	-7.257209186911431e-01
1	 1.512718952849342e+00	 7.438508067829279e-01	-9.632442577303930e-01
1	 1.495149540594990e+00	 7.785631023364850e-01	-1.212473221541665e+00
1	 1.476716863496491e+00	 8.129821388728719e-01	-1.472993710318993e+00
1	 1.457427236429973e+00	 8.470764449406649e-01	-1.744380667246955e+00
1	 1.437288478400517e+00	 8.808146700176768e-01	-2.026199644230357e+00
1	 1.416309914840334e+00	 9.141656732705443e-01	-2.318008387687597e+00
1	 1.394502373675602e+00	 9.470986130674746e-01	-2.619358431377329e+00
1	 1.371878175057526e+00	 9.795830367365774e-01	-2.929796683175881e+00
1	 1.348451114700293e+00	 1.011588970048982e+00	-3.248866992848757e+00
1	 1.324236440817411e+00	 1.043087005897619e+00	-3.576111688163218e+00
1	 1.542381469955336e+00	 7.148841872208506e-01	-7.318692742759566e-01
1	 1.525538604992133e+00	 7.501546271793936e-01	-9.621370411613592e-01
1	 1.507820299413592e+00	 7.851610947291672e-01	-1.204064785843769e+00
1	 1.489231413187139e+00	 8.198718180158620e-01	-1.457241633323138e+00
1	 1.469778314704803e+00	 8.542550588808401e-01	-1.721241353266426e+00
1	 1.449468889234420e+00	 8.882792011195216e-01	-1.995623940088087e+00
1	 1.428312541237287e+00	 9.219128399931762e-01	-2.279937251571209e+00
1	 1.406320190401667e+00	 9.551248725002499e-01	-2.573718693371982e+00
1	 1.383504261286827e+00	 9.878845878953617e-01	-2.876496936244473e+00
1	 1.359878666519787e+00	 1.020161757930753e+00	-3.187793652484302e+00
1	 1.335458783536202e+00	 1.051926726286582e+00	-3.507125257924277e+00
1	 1.555342658778490e+00	 7.208916173655637e-01	-7.354169320344415e-01
1	 1.538358257134925e+00	 7.564584475758592e-01	-9.586508256124839e-01
1	 1.520491058232194e+00	 7.917590871218493e-01	-1.193487358130768e+00
1	 1.501745962877788e+00	 8.267614971588527e-01	-1.439514799121016e+00
1	 1.482129392979634e+00	 8.614336728210154e-01	-1.696301188860016e+00
1	 1.461649300068323e+00	 8.957437322213666e-01	-1.963395956543151e+00
1	 1.440315167634239e+00	 9.296600067158080e-01	-2.240331640018410e+00
1	 1.418138007127731e+00	 9.631511319330253e-01	-2.526625694655454e+00
1	 1.395130347516129e+00	 9.961861390541467e-01	-2.821782377909820e+00
1	 1.371306218339282e+00	 1.028734545812524e+00	-3.125294695284126e+00
1	 1.346681126254994e+00	 1.060766446675545e+00	-3.436646392699835e+00
1	 1.234457699067077e+00	 9.723692427859159e-01	-4.072761304496506e+00
1	 1.211166023023431e+00	 1.001231551528240e+00	-4.469998142358063e+00
1	 1.187172506368977e+00	 1.029567479684378e+00	-4.873086766212415e+00
1	 1.162495237799779e+00	 1.057351680943892e+00	-5.280794422955944e+00
1	 1.137153515837634e+00	 1.084559650973679e+00	-5.691831134437175e+00
1	 1.111167799007432e+00	 1.111167799007432e+00	-6.104857144936327e+00
1	 1.084559650973679e+00	 1.137153515837633e+00	-6.518490789413682e+00
1	 1.057351680943892e+00	 1.162495237799779e+00	-6.931316713250462e+00
1	 1.029567479684378e+00	 1.187172506368976e+00	-7.341894369973057e+00
1	 1.001231551528240e+00	 1.211166023023430e+00	-7.748766720208185e+00
1	 9.723692427859164e-01	 1.234457699067078e+00	-8.150469052916316e+00
1	 1.245680041785870e+00	 9.812089631748793e-01	-4.016178152766913e+00
1	 1.222176623232734e+00	 1.010333656542133e+00	-4.405470763105907e+00
1	 1.197964983699604e+00	 1.038927184045144e+00	-4.800558965639624e+00
1	 1.173063376325232e+00	 1.066963968952472e+00	-5.200199441914444e+00
1	 1.147491275072521e+00	 1.094419284164349e+00	-5.603085582303063e+00
1	 1.121269324452954e+00	 1.121269324452954e+00	-6.007855214923369e+00
1	 1.094419284164349e+00	 1.147491275072521e+00	-6.413098806490760e+00
1	 1.066963968952473e+00	 1.173063376325232e+00	-6.817368062441915e+00
1	 1.038927184045145e+00	 1.197964983699604e+00	-7.219184848858626e+00
1	 1.010333656542133e+00	 1.222176623232734e+00	-7.617050354958903e+00
1	 9.812089631748793e-01	 1.245680041785870e+00	-8.009454412267875e+00
1	 1.256902384504661e+00	 9.900486835638418e-01	-3.957995142105489e+00
1	 1.233187223442039e+00	 1.019435761556026e+00	-4.339374304786656e+00
1	 1.208757461030231e+00	 1.048286888405912e+00	-4.726430291649823e+00
1	 1.183631514850685e+00	 1.076576256961054e+00	-5.117921153891608e+00
1	 1.157829034307408e+00	 1.104278917355019e+00	-5.512537103641965e+00
1	 1.131370849898476e+00	 1.131370849898476e+00	-5.908908421479939e+00
1	 1.104278917355019e+00	 1.157829034307408e+00	-6.305613875006509e+00
1	 1.076576256961054e+00	 1.183631514850685e+00	-6.701189573497312e+00
1	 1.048286888405912e+00	 1.208757461030231e+00	-7.094138178404637e+00
1	 1.019435761556027e+00	 1.233187223442038e+00	-7.482938385310214e+00
1	 9.900486835638419e-01	 1.256902384504661e+00	-7.866054589920250e+00
1	 1.268124727223453e+00	 9.988884039528049e-01	-3.898227407533771e+00
1	 1.244197823651342e+00	 1.028537866569919e+00	-4.271704211189727e+00
1	 1.219549938360858e+00	 1.057646592766679e+00	-4.650682776711156e+00
1	 1.194199653376137e+00	 1.086188544969634e+00	-5.033934128966443e+00
1	 1.168166793542296e+00	 1.114138550545689e+00	-5.420158397080691e+00
1	 1.141472375343998e+00	 1.141472375343998e+00	-5.807992799266931e+00
1	 1.114138550545689e+00	 1.168166793542297e+00	-6.196020165963231e+00
1	 1.086188544969634e+00	 1.194199653376137e+00	-6.582777925041047e+00
1	 1.057646592766679e+00	 1.219549938360858e+00	-6.966767467280932e+00
1	 1.028537866569919e+00	 1.244197823651342e+00	-7.346463805851970e+00
1	 9.988884039528049e-01	 1.268124727223452e+00	-7.720325440257746e+00
1	 1.279347069942244e+00	 1.007728124341767e+00	-3.836889553019868e+00
1	 1.255208423860646e+00	 1.037639971583812e+00	-4.202456085971575e+00
1	 1.230342415691486e+00	 1.067006297127446e+00	-4.573299083731470e+00
1	 1.204767791901590e+00	 1.095800832978215e+00	-4.948213829495869e+00
1	 1.178504552777184e+00	 1.123998183736358e+00	-5.325923119188963e+00
1	 1.151573900789520e+00	 1.151573900789520e+00	-5.705085223834293e+00
1	 1.123998183736358e+00	 1.178504552777183e+00	-6.084302405766664e+00
1	 1.095800832978215e+00	 1.204767791901590e+00	-6.462129912236942e+00
1	 1.067006297127446e+00	 1.230342415691485e+00	-6.837085364204058e+00
1	 1.037639971583813e+00	 1.255208423860646e+00	-7.207658453469019e+00
1	 1.007728124341768e+00	 1.279347069942244e+00	-7.572320857861659e+00
1	 1.290569412661036e+00	 1.016567844730730e+00	-3.773995674567804e+00
1	 1.266219024069950e+00	 1.046742076597705e+00	-4.131625685704914e+00
1	 1.241134893022112e+00	 1.076366001488213e+00	-4.494262478647926e+00
1	 1.215335930427042e+00	 1.105413120986796e+00	-4.860736571320041e+00
1	 1.188842312012071e+00	 1.133857816927028e+00	-5.229805842829725e+00
1	 1.161675426235042e+00	 1.161675426235042e+00	-5.600163375060599e+00
1	 1.133857816927028e+00	 1.188842312012071e+00	-5.970445852077964e+00
1	 1.105413120986796e+00	 1.215335930427042e+00	-6.339242441721487e+00
1	 1.076366001488213e+00	 1.241134893022111e+00	-6.705104077935336e+00
1	 1.046742076597705e+00	 1.266219024069950e+00	-7.066553057676403e+00
1	 1.016567844730730e+00	 1.290569412661036e+00	-7.422092862719170e+00
1	 1.301791755379827e+00	 1.025407565119693e+00	-3.709559382112507e+00
1	 1.277229624279254e+00	 1.055844181611598e+00	-4.059208913287601e+00
1	 1.251927370352739e+00	 1.085725705848980e+00	-4.413556804434315e+00
1	 1.225904068952494e+00	 1.115025408995377e+00	-4.771479486974331e+00
1	 1.199180071246959e+00	 1.143717450117698e+00	-5.131782017663727e+00
1	 1.171776951680564e+00	 1.171776951680564e+00	-5.493205702483905e+00
1	 1.143717450117698e+00	 1.199180071246959e+00	-5.854436270914869e+00
1	 1.115025408995377e+00	 1.225904068952494e+00	-6.214112526798804e+00
1	 1.085725705848981e+00	 1.251927370352739e+00	-6.570835396244118e+00
1	 1.055844181611599e+00	 1.277229624279254e+00	-6.923177288350552e+00
1	 1.025407565119693e+00	 1.301791755379828e+00	-7.269691681024790e+00
1	 1.313014098098619e+00	 1.034247285508656e+00	-3.643593820291968e+00
1	 1.288240224488558e+00	 1.064946286625491e+00	-3.985201811689294e+00
1	 1.262719847683366e+00	 1.095085410209747e+00	-4.331166456441379e+00
1	 1.236472207477947e+00	 1.124637697003957e+00	-4.680420490787641e+00
1	 1.209517830481846e+00	 1.153577083308367e+00	-5.031827932679569e+00
1	 1.181878477126086e+00	 1.181878477126086e+00	-5.384191392410074e+00
1	 1.153577083308368e+00	 1.209517830481846e+00	-5.736259914926969e+00
1	 1.124637697003958e+00	 1.236472207477947e+00	-6.086737282882270e+00
1	 1.095085410209748e+00	 1.262719847683366e+00	-6.434290703899225e+00
1	 1.064946286625492e+00	 1.288240224488557e+00	-6.777559801013340e+00
1	 1.034247285508656e+00	 1.313014098098619e+00	-7.115165821838175e+00
1	 1.324236440817411e+00	 1.043087005897619e+00	-3.576111688163218e+00
1	 1.299250824697862e+00	 1.074048391639384e+00	-3.909600558016315e+00
1	 1.273512325013993e+00	 1.104445114570514e+00	-4.247076358991060e+00
1	 1.247040346003400e+00	 1.134249985012538e+00	-4.587538245755842e+00
1	 1.219855589716734e+00	 1.163436716499038e+00	-4.929920680628981e+00
1	 1.191980002571608e+00	 1.191980002571608e+00	-5.273100336694010e+00
1	 1.163436716499038e+00	 1.219855589716734e+00	-5.615903502775672e+00
1	 1.134249985012539e+00	 1.247040346003399e+00	-5.957113923167937e+00
1	 1.104445114570514e+00	 1.273512325013993e+00	-6.295480999745057e+00
1	 1.074048391639385e+00	 1.299250824697862e+00	-6.629728279812880e+00
1	 1.043087005897619e+00	 1.324236440817410e+00	-6.958562149844058e+00
1	 1.335458783536202e+00	 1.051926726286582e+00	-3.507125257924277e+00
1	 1.310261424907166e+00	 1.083150496653277e+00	-3.832401457875620e+00
1	 1.284304802344620e+00	 1.113804818931281e+00	-4.161271943150760e+00
1	 1.257608484528852e+00	 1.143862273021119e+00	-4.492812132084954e+00
1	 1.230193348951621e+00	 1.173296349689707e+00	-4.826038124255167e+00
1	 1.202081528017131e+00	 1.202081528017130e+00	-5.159913103094624e+00
1	 1.173296349689708e+00	 1.230193348951621e+00	-5.493354199553998e+00
1	 1.143862273021120e+00	 1.257608484528852e+00	-5.825239754525836e+00
1	 1.113804818931282e+00	 1.284304802344620e+00	-6.154416912916981e+00
1	 1.083150496653278e+00	 1.310261424907165e+00	-6.479709478337725e+00
1	 1.051926726286582e+00	 1.335458783536202e+00	-6.799925954443724e+00
1	 1.346681126254994e+00	 1.060766446675545e+00	-3.436646392699835e+00
1	 1.321272025116470e+00	 1.092252601667171e+00	-3.753600940020570e+00
1	 1.295097279675248e+00	 1.123164523292048e+00	-4.073739125618943e+00
1	 1.268176623054305e+00	 1.153474561029700e+00	-4.396222217307471e+00
1	 1.240531108186509e+00	 1.183155982880377e+00	-4.720158864209967e+00
1	 1.212183053462653e+00	 1.212183053462653e+00	-5.044610907112204e+00
1	 1.183155982880377e+00	 1.240531108186509e+00	-5.368599598185169e+00
1	 1.153474561029701e+00	 1.268176623054305e+00	-5.691112173597083e+00
1	 1.123164523292049e+00	 1.295097279675247e+00	-6.011108718245874e+00
1	 1.092252601667171e+00	 1.321272025116470e+00	-6.327529258390167e+00
1	 1.060766446675545e+00	 1.346681126254994e+00	-6.639301015391657e+00
1	 9.723692427859164e-01	 1.234457699067078e+00	-8.150469052916314e+00
1	 9.430066669948137e-01	 1.257030700144342e+00	-8.545018656196959e+00
1	 9.131706274663016e-01	 1.278869485223118e+00	-8.931279765825069e+00
1	 8.828885376052734e-01	 1.299959839867087e+00	-9.309089136018777e+00
1	 8.521883394894909e-01	 1.320288903664719e+00	-9.678324944778645e+00
1	 8.210984212029198e-01	 1.339845191729296e+00	-1.003890589588584e+01
1	 7.896475334192649e-01	 1.358618610231331e+00	-1.039079007653862e+01
1	 7.578647057289489e-01	 1.376600465971305e+00	-1.073397358778092e+01
1	 7.257791631950296e-01	 1.393783470046177e+00	-1.106848896677291e+01
1	 6.934202436112055e-01	 1.410161735707014e+00	-1.139440342154374e+01
1	 6.608173159184336e-01	 1.425730770546950e+00	-1.171181690012770e+01
1	 9.812089631748793e-01	 1.245680041785870e+00	-8.009454412267873e+00
1	 9.515794548765846e-01	 1.268458251963835e+00	-8.394485862460186e+00
1	 9.214721786250856e-01	 1.290495571452418e+00	-8.771211516250455e+00
1	 8.909147970380484e-01	 1.311777656593151e+00	-9.139623370240439e+00
1	 8.599355062121232e-01	 1.332291530061670e+00	-9.499762562169394e+00
1	 8.285629523047646e-01	 1.352025602563199e+00	-9.851717053614674e+00
1	 7.968261473594400e-01	 1.370969688506161e+00	-1.019561903867028e+01
1	 7.647543848719395e-01	 1.389115015661953e+00	-1.053164211018393e+01
1	 7.323771555877113e-01	 1.406454228864779e+00	-1.085999821688486e+01
1	 6.997240640076707e-01	 1.422981387849804e+00	-1.118093444597967e+01
1	 6.668247460631466e-01	 1.438691959370104e+00	-1.149472966653562e+01
1	 9.900486835638419e-01	 1.256902384504661e+00	-7.866054589920250e+00
1	 9.601522427583559e-01	 1.279885803783329e+00	-8.241687240524071e+00
1	 9.297737297838703e-01	 1.302121657681720e+00	-8.609120138873914e+00
1	 8.989410564708238e-01	 1.323595473319216e+00	-8.968481074194756e+00
1	 8.676826729347549e-01	 1.344294156458623e+00	-9.319952864855214e+00
1	 8.360274834066094e-01	 1.364206013397101e+00	-9.663769811725588e+00
1	 8.040047612996150e-01	 1.383320766780991e+00	-1.000021385750644e+01
1	 7.716440640149302e-01	 1.401629565352601e+00	-1.032961049596805e+01
1	 7.389751479803938e-01	 1.419124987683381e+00	-1.065232447660369e+01
1	 7.060278844041363e-01	 1.435801039992596e+00	-1.096875535109729e+01
1	 6.728321762078597e-01	 1.451653148193258e+00	-1.127933290824603e+01
1	 9.988884039528049e-01	 1.268124727223452e+00	-7.720325440257746e+00
1	 9.687250306401261e-01	 1.291313355602823e+00	-8.086698347083246e+00
1	 9.380752809426548e-01	 1.313747743911021e+00	-8.445092284405233e+00
1	 9.069673159035991e-01	 1.335413290045280e+00	-8.795751937665756e+00
1	 8.754298396573863e-01	 1.356296782855575e+00	-9.138981110740909e+00
1	 8.434920145084538e-01	 1.376386424231004e+00	-9.475138136855763e+00
1	 8.111833752397901e-01	 1.395671845055821e+00	-9.804630984994018e+00
1	 7.785337431579205e-01	 1.414144115043249e+00	-1.012791211605803e+01
1	 7.455731403730758e-01	 1.431795746501982e+00	-1.044547314437326e+01
1	 7.123317048006017e-01	 1.448620692135387e+00	-1.075783936067371e+01
1	 6.788396063525725e-01	 1.464614337016411e+00	-1.106556417246199e+01
1	 1.007728124341768e+00	 1.279347069942244e+00	-7.572320857861660e+00
1	 9.772978185218977e-01	 1.302740907422317e+00	-7.929592087720241e+00
1	 9.463768321014395e-01	 1.325373830140322e+00	-8.279211563178206e+00
1	 9.149935753363746e-01	 1.347231106771345e+00	-8.621522503427528e+00
1	 8.831770063800182e-01	 1.368299409252526e+00	-8.956929566225726e+00
1	 8.509565456102984e-01	 1.388566835064906e+00	-9.285893400321745e+00
1	 8.183619891799651e-01	 1.408022923330651e+00	-9.608924892310004e+00
1	 7.854234223009112e-01	 1.426658664733898e+00	-9.926579170469083e+00
1	 7.521711327657579e-01	 1.444466505320584e+00	-1.023944942921845e+01
1	 7.186355251970672e-01	 1.461440344278178e+00	-1.054816063800287e+01
1	 6.848470364972853e-01	 1.477575525839566e+00	-1.085336319771269e+01
1	 1.016567844730730e+00	 1.290569412661036e+00	-7.422092862719171e+00
1	 9.858706064036687e-01	 1.314168459241811e+00	-7.770438832171225e+00
1	 9.546783832602239e-01	 1.336999916369622e+00	-8.111558677341328e+00
1	 9.230198347691496e-01	 1.359048923497409e+00	-8.445876304070650e+00
1	 8.909241731026497e-01	 1.380302035649478e+00	-8.773877636268978e+00
1	 8.584210767121432e-01	 1.400747245898808e+00	-9.096104490959602e+00
1	 8.255406031201403e-01	 1.420374001605481e+00	-9.413148155981634e+00
1	 7.923131014439014e-01	 1.439173214424546e+00	-9.725642739215873e+00
1	 7.587691251584401e-01	 1.457137264139186e+00	-1.003425835898062e+01
1	 7.249393455935327e-01	 1.474259996420969e+00	-1.033969424504647e+01
1	 6.908544666419983e-01	 1.490536714662719e+00	-1.064267181857854e+01
1	 1.025407565119693e+00	 1.301791755379828e+00	-7.269691681024790e+00
1	 9.944433942854396e-01	 1.325596011061305e+00	-7.609306523629777e+00
1	 9.629799344190084e-01	 1.348626002598924e+00	-7.942211546210338e+00
1	 9.310460942019247e-01	 1.370866740223473e+00	-8.268893991751643e+00
1	 8.986713398252816e-01	 1.392304662046430e+00	-8.589901987727860e+00
1	 8.658856078139883e-01	 1.412927656732712e+00	-8.905837922128192e+00
1	 8.327192170603155e-01	 1.432725079880312e+00	-9.217351539552476e+00
1	 7.992027805868919e-01	 1.451687764115194e+00	-9.525132830588408e+00
1	 7.653671175511222e-01	 1.469808022957787e+00	-9.829904788127294e+00
1	 7.312431659899982e-01	 1.487079648563759e+00	-1.013241610369882e+01
1	 6.968618967867116e-01	 1.503497903485874e+00	-1.043343387534403e+01
1	 1.034247285508656e+00	 1.313014098098619e+00	-7.115165821838175e+00
1	 1.003016182167211e+00	 1.337023562880799e+00	-7.446260782445248e+00
1	 9.712814855777929e-01	 1.360252088828225e+00	-7.771245425192590e+00
1	 9.390723536346998e-01	 1.382684556949537e+00	-8.090653461288250e+00
1	 9.064185065479133e-01	 1.404307288443382e+00	-8.405076666370595e+00
1	 8.733501389158328e-01	 1.425108067566614e+00	-8.715157933225417e+00
1	 8.398978310004906e-01	 1.445076158155142e+00	-9.021584071060362e+00
1	 8.060924597298820e-01	 1.464202313805842e+00	-9.325078426952226e+00
1	 7.719651099438040e-01	 1.482478781776388e+00	-9.626393405161224e+00
1	 7.375469863864635e-01	 1.499899300706550e+00	-9.926302959037185e+00
1	 7.028693269314246e-01	 1.516459092309028e+00	-1.022559512828398e+01
1	 1.043087005897619e+00	 1.324236440817410e+00	-6.958562149844058e+00
1	 1.011588970048982e+00	 1.348451114700293e+00	-7.281365004548333e+00
1	 9.795830367365774e-01	 1.371878175057526e+00	-7.598733018664832e+00
1	 9.470986130674751e-01	 1.394502373675602e+00	-7.911229966996012e+00
1	 9.141656732705449e-01	 1.416309914840334e+00	-8.219473207939229e+00
1	 8.808146700176775e-01	 1.437288478400517e+00	-8.524126586042584e+00
1	 8.470764449406656e-01	 1.457427236429972e+00	-8.825893116575719e+00
1	 8.129821388728727e-01	 1.476716863496490e+00	-9.125507528219904e+00
1	 7.785631023364860e-01	 1.495149540594990e+00	-9.423728739653018e+00
1	 7.438508067829290e-01	 1.512718952849342e+00	-9.721332344441288e+00
1	 7.088767570761375e-01	 1.529420281132182e+00	-1.001910317630794e+01
1	 1.051926726286582e+00	 1.335458783536202e+00	-6.799925954443724e+00
1	 1.020161757930753e+00	 1.359878666519787e+00	-7.114680454914064e+00
1	 9.878845878953622e-01	 1.383504261286827e+00	-7.424744587159180e+00
1	 9.551248725002501e-01	 1.406320190401667e+00	-7.730696233633538e+00
1	 9.219128399931764e-01	 1.428312541237286e+00	-8.033160743613072e+00
1	 8.882792011195221e-01	 1.449468889234420e+00	-8.332803856260144e+00
1	 8.542550588808409e-01	 1.469778314704802e+00	-8.630324450032088e+00
1	 8.198718180158628e-01	 1.489231413187139e+00	-8.926447193130313e+00
1	 7.851610947291682e-01	 1.507820299413591e+00	-9.221915168918647e+00
1	 7.501546271793946e-01	 1.525538604992132e+00	-9.517482548471502e+00
1	 7.148841872208505e-01	 1.542381469955336e+00	-9.813907379706572e+00
1	 1.060766446675545e+00	 1.346681126254994e+00	-6.639301015391657e+00
1	 1.028734545812524e+00	 1.371306218339282e+00	-6.946266356351713e+00
1	 9.961861390541472e-01	 1.395130347516129e+00	-7.249348049190007e+00
1	 9.631511319330257e-01	 1.418138007127731e+00	-7.549122561800915e+00
1	 9.296600067158087e-01	 1.440315167634238e+00	-7.846206100198792e+00
1	 8.957437322213671e-01	 1.461649300068322e+00	-8.141247720369382e+00
1	 8.614336728210163e-01	 1.482129392979633e+00	-8.434922319565374e+00
1	 8.267614971588537e-01	 1.501745962877787e+00	-8.727923578464511e+00
1	 7.917590871218502e-01	 1.520491058232193e+00	-9.020956924363674e+00
1	 7.564584475758603e-01	 1.538358257134924e+00	-9.314732583402716e+00
1	 7.208916173655637e-01	 1.555342658778490e+00	-9.609958786760968e+00
1	 6.608173159184336e-01	 1.425730770546950e+00	-1.171181690012770e+01
1	 6.279997002160421e-01	 1.440487463197997e+00	-1.202015827957510e+01
1	 5.949965897789892e-01	 1.454430064751624e+00	-1.231922519968495e+01
1	 5.618369754655447e-01	 1.467558165151136e+00	-1.260968779005509e+01
1	 5.285495728694986e-01	 1.479872664833536e+00	-1.289220410329347e+01
1	 4.951627525386059e-01	 1.491375741924358e+00	-1.316741576500783e+01
1	 4.617044735467815e-01	 1.502070815310959e+00	-1.343594396819991e+01
1	 4.282022206720670e-01	 1.511962503937697e+00	-1.369838583204652e+01
1	 3.946829453960652e-01	 1.521056582680450e+00	-1.395531114002406e+01
1	 3.611730109038602e-01	 1.529359935167873e+00	-1.420725946739650e+01
1	 3.276981412268394e-01	 1.536880503922968e+00	-1.445473770330516e+01
1	 6.668247460631466e-01	 1.438691959370104e+00	-1.149472966653562e+01
1	 6.337087883998245e-01	 1.453582803772524e+00	-1.180089534759778e+01
1	 6.004056496860710e-01	 1.467652156249367e+00	-1.209918409733150e+01
1	 5.669445843334131e-01	 1.480899603016147e+00	-1.239024714380172e+01
1	 5.333545689864940e-01	 1.493326052695659e+00	-1.267471744868072e+01
1	 4.996642321071389e-01	 1.504933703214580e+00	-1.295320569808912e+01
1	 4.659017869426613e-01	 1.515726004541059e+00	-1.322629666397519e+01
1	 4.320949681327221e-01	 1.525707617609859e+00	-1.349454595189285e+01
1	 3.982709721723930e-01	 1.534884369795726e+00	-1.375847714598407e+01
1	 3.644564019120771e-01	 1.543263207305763e+00	-1.401857935705234e+01
1	 3.306772152379925e-01	 1.550852144867721e+00	-1.427530517490610e+01
1	 6.728321762078597e-01	 1.451653148193258e+00	-1.127933290824603e+01
1	 6.394178765836066e-01	 1.466678144347052e+00	-1.158361836895826e+01
1	 6.058147095931525e-01	 1.480874247747109e+00	-1.188130971318277e+01
1	 5.720521932012816e-01	 1.494241040881157e+00	-1.217304718039997e+01
1	 5.381595651034895e-01	 1.506779440557782e+00	-1.245944826490029e+01
1	 5.041657116756717e-01	 1.518491664504802e+00	-1.274110391433973e+01
1	 4.700991003385412e-01	 1.529381193771159e+00	-1.301857511811854e+01
1	 4.359877155933772e-01	 1.539452731282019e+00	-1.329238989887218e+01
1	 4.018589989487209e-01	 1.548712156911003e+00	-1.356304071525532e+01
1	 3.677397929202940e-01	 1.557166479443652e+00	-1.383098227927219e+01
1	 3.336562892491454e-01	 1.564823785812476e+00	-1.409662978671088e+01
1	 6.788396063525725e-01	 1.464614337016411e+00	-1.106556417246199e+01
1	 6.451269647673888e-01	 1.479773484921579e+00	-1.136823190502560e+01
1	 6.112237695002343e-01	 1.494096339244850e+00	-1.166548186966199e+01
1	 5.771598020691503e-01	 1.507582478746167e+00	-1.195795096053117e+01
1	 5.429645612204850e-01	 1.520232828419904e+00	-1.224625053139635e+01
1	 5.086671912442046e-01	 1.532049625795023e+00	-1.253096267078929e+01
1	 4.742964137344209e-01	 1.543036383001258e+00	-1.281263687952017e+01
1	 4.398804630540324e-01	 1.553197844954180e+00	-1.309178716277292e+01
1	 4.054470257250487e-01	 1.562539944026279e+00	-1.336888954385759e+01
1	 3.710231839285109e-01	 1.571069751581542e+00	-1.364438000171072e+01
1	 3.366353632602986e-01	 1.578795426757230e+00	-1.391865282950955e+01
1	 6.848470364972853e-01	 1.477575525839566e+00	-1.085336319771269e+01
1	 6.508360529511710e-01	 1.492868825496106e+00	-1.115464386589298e+01
1	 6.166328294073158e-01	 1.507318430742592e+00	-1.145158460594920e+01
1	 5.822674109370189e-01	 1.520923916611177e+00	-1.174482634976502e+01
1	 5.477695573374803e-01	 1.533686216282028e+00	-1.203498335114125e+01
1	 5.131686708127371e-01	 1.545607587085244e+00	-1.232263940843141e+01
1	 4.784937271303007e-01	 1.556691572231357e+00	-1.260834449535460e+01
1	 4.437732105146876e-01	 1.566942958626341e+00	-1.289261181268938e+01
1	 4.090350525013766e-01	 1.576367731141557e+00	-1.317591526830143e+01
1	 3.743065749367279e-01	 1.584973023719432e+00	-1.345868738789451e+01
1	 3.396144372714516e-01	 1.592767067701985e+00	-1.374131765406433e+01
1	 6.908544666419983e-01	 1.490536714662719e+00	-1.064267181857854e+01
1	 6.565451411349532e-01	 1.505964166070633e+00	-1.094276536478063e+01
1	 6.220418893143977e-01	 1.520540522240335e+00	-1.123950599464456e+01
1	 5.873750198048873e-01	 1.534265354476187e+00	-1.153354580965140e+01
1	 5.525745534544757e-01	 1.547139604144151e+00	-1.182551072787346e+01
1	 5.176701503812700e-01	 1.559165548375466e+00	-1.211599652683368e+01
1	 4.826910405261807e-01	 1.570346761461457e+00	-1.240556529376428e+01
1	 4.476659579753428e-01	 1.580688072298502e+00	-1.269474229792122e+01
1	 4.126230792777045e-01	 1.590195518256833e+00	-1.298401329426209e+01
1	 3.775899659449447e-01	 1.598876295857322e+00	-1.327382226261854e+01
1	 3.425935112826048e-01	 1.606738708646739e+00	-1.356456958154576e+01
1	 6.968618967867116e-01	 1.503497903485874e+00	-1.043343387534403e+01
1	 6.622542293187351e-01	 1.519059506645161e+00	-1.073251057997026e+01
1	 6.274509492214794e-01	 1.533762613738076e+00	-1.102913796791351e+01
1	 5.924826286727558e-01	 1.547606792341198e+00	-1.132398619961777e+01
1	 5.573795495714714e-01	 1.560592992006274e+00	-1.161770135485782e+01
1	 5.221716299498026e-01	 1.572723509665687e+00	-1.191090117040628e+01
1	 4.868883539220605e-01	 1.584001950691557e+00	-1.220417117778344e+01
1	 4.515587054359978e-01	 1.594433185970662e+00	-1.249806125917152e+01
1	 4.162111060540324e-01	 1.604023305372110e+00	-1.279308263411571e+01
1	 3.808733569531617e-01	 1.612779567995211e+00	-1.308970528430581e+01
1	 3.455725852937579e-01	 1.620710349591493e+00	-1.338835581860136e+01
1	 7.028693269314246e-01	 1.516459092309028e+00	-1.022559512828398e+01
1	 6.679633175025173e-01	 1.532154847219687e+00	-1.052379662381932e+01
1	 6.328600091285610e-01	 1.546984705235819e+00	-1.082037615254842e+01
1	 5.975902375406245e-01	 1.560948230206208e+00	-1.111602858902567e+01
1	 5.621845456884668e-01	 1.574046379868397e+00	-1.141142841447826e+01
1	 5.266731095183355e-01	 1.586281470955908e+00	-1.170722502563086e+01
1	 4.910856673179403e-01	 1.597657139921656e+00	-1.200403842982957e+01
1	 4.554514528966531e-01	 1.608178299642824e+00	-1.230245534942711e+01
1	 4.197991328303602e-01	 1.617851092487387e+00	-1.260302575280681e+01
1	 3.841567479613786e-01	 1.626682840133101e+00	-1.290625982391171e+01
1	 3.485516593049110e-01	 1.634681990536247e+00	-1.321262537677940e+01
1	 7.088767570761375e-01	 1.529420281132182e+00	-1.001910317630794e+01
1	 6.736724056862996e-01	 1.545250187794215e+00	-1.031654341843595e+01
1	 6.382690690356427e-01	 1.560206796733560e+00	-1.061311971341654e+01
1	 6.026978464084930e-01	 1.574289668071218e+00	-1.090955807878386e+01
1	 5.669895418054623e-01	 1.587499767730520e+00	-1.120656938802098e+01
1	 5.311745890868682e-01	 1.599839432246130e+00	-1.150484412859975e+01
1	 4.952829807138202e-01	 1.611312329151756e+00	-1.180504752613660e+01
1	 4.593442003573082e-01	 1.621923413314984e+00	-1.210781506394631e+01
1	 4.233871596066879e-01	 1.631678879602664e+00	-1.241374842155289e+01
1	 3.874401389695955e-01	 1.640586112270991e+00	-1.272341184998638e+01
1	 3.515307333160640e-01	 1.648653631481002e+00	-1.303732899605043e+01
1	 7.148841872208505e-01	 1.542381469955336e+00	-9.813907379706574e+00
1	 6.793814938700818e-01	 1.558345528368742e+00	-1.011067357762210e+01
1	 6.436781289427244e-01	 1.573428888231302e+00	-1.040727120480117e+01
1	 6.078054552763618e-01	 1.587631105936229e+00	-1.070446363195518e+01
1	 5.717945379224576e-01	 1.600953155592643e+00	-1.100300587504825e+01
1	 5.356760686554010e-01	 1.613397393536351e+00	-1.130363868225955e+01
1	 4.994802941096999e-01	 1.624967518381855e+00	-1.160708296054406e+01
1	 4.632369478179631e-01	 1.635668526987144e+00	-1.191403457881926e+01
1	 4.269751863830159e-01	 1.645506666717941e+00	-1.222515957892553e+01
1	 3.907235299778124e-01	 1.654489384408881e+00	-1.254108981953212e+01
1	 3.545098073272172e-01	 1.662625272425756e+00	-1.286241907218418e+01
1	 7.208916173655637e-01	 1.555342658778490e+00	-9.609958786760968e+00
1	 6.850905820538642e-01	 1.571440868943270e+00	-9.906112294719604e+00
1	 6.490871888498062e-01	 1.586650979729045e+00	-1.020273642917634e+01
1	 6.129130641442304e-01	 1.600972543801240e+00	-1.050063791283389e+01
1	 5.765995340394531e-01	 1.614406543454766e+00	-1.080062342180360e+01
1	 5.401775482239338e-01	 1.626955354826574e+00	-1.110349288279166e+01
1	 5.036776075055799e-01	 1.638622707611955e+00	-1.141003307709676e+01
1	 4.671296952786185e-01	 1.649413640659306e+00	-1.172101159759961e+01
1	 4.305632131593439e-01	 1.659334453833218e+00	-1.203717119887728e+01
1	 3.940069209860292e-01	 1.668392656546771e+00	-1.235922457431773e+01
1	 3.574888813383703e-01	 1.676596913370510e+00	-1.268784958775809e+01
1	 3.276981412268394e-01	 1.536880503922968e+00	-1.445473770330515e+01
1	 2.942833746347460e-01	 1.543627238200864e+00	-1.469664915475288e+01
1	 2.609530213480562e-01	 1.549610039897574e+00	-1.492838618854642e+01
1	 2.277306256078256e-01	 1.554839707899921e+00	-1.514520763163251e+01
1	 1.946389321076896e-01	 1.559327881239228e+00	-1.534246222111287e+01
1	 1.616998567620849e-01	 1.563086981400959e+00	-1.551562503790727e+01
1	 1.289344617561649e-01	 1.566130154129499e+00	-1.566033096913648e+01
1	 9.636293479650726e-02	 1.568471211052165e+00	-1.577240508392572e+01
1	 6.400457245767889e-02	 1.570124571429461e+00	-1.584788984702443e+01
1	 3.187776749815371e-02	 1.571105204319996e+00	-1.588306913232151e+01
1	 0.000000000000000e+00	 1.571428571428571e+00	-1.587448903363499e+01
1	 3.306772152379925e-01	 1.550852144867721e+00	-1.427530517490610e+01
1	 2.969586780405165e-01	 1.557660213093599e+00	-1.452725151432978e+01
1	 2.633253215421294e-01	 1.563697403896643e+00	-1.476950338902666e+01
1	 2.298009040224422e-01	 1.568974614335374e+00	-1.499725526188664e+01
1	 1.964083769450323e-01	 1.573503589250493e+00	-1.520578452030035e+01
1	 1.631698554599220e-01	 1.577296863050058e+00	-1.539048916892844e+01
1	 1.301065932266755e-01	 1.580367700985222e+00	-1.554692251542118e+01
1	 9.723896147647550e-02	 1.582730040243548e+00	-1.567082472523008e+01
1	 6.458643220729415e-02	 1.584398431169730e+00	-1.575815116241321e+01
1	 3.216756538450056e-02	 1.585387978904722e+00	-1.580509747210209e+01
1	 0.000000000000000e+00	 1.585714285714286e+00	-1.580812139666472e+01
1	 3.336562892491454e-01	 1.564823785812476e+00	-1.409662978671087e+01
1	 2.996339814462869e-01	 1.571693187986334e+00	-1.435827649306351e+01
1	 2.656976217362026e-01	 1.577784767895711e+00	-1.461072154770899e+01
1	 2.318711824370587e-01	 1.583109520770827e+00	-1.484913870834817e+01
1	 1.981778217823749e-01	 1.587679297261759e+00	-1.506877496607998e+01
1	 1.646398541577591e-01	 1.591506744699158e+00	-1.526498933820580e+01
1	 1.312787246971861e-01	 1.594605247840945e+00	-1.543328864746381e+01
1	 9.811498815644375e-02	 1.596988869434931e+00	-1.556936015462504e+01
1	 6.516829195690942e-02	 1.598672290909997e+00	-1.566910095296809e+01
1	 3.245736327084742e-02	 1.599670753489450e+00	-1.572864407277330e+01
1	 0.000000000000000e+00	 1.600000000000000e+00	-1.574438128123288e+01
1	 3.366353632602986e-01	 1.578795426757230e+00	-1.391865282950955e+01
1	 3.023092848520573e-01	 1.585726162879069e+00	-1.418969510770910e+01
1	 2.680699219302758e-01	 1.591872131894781e+00	-1.445203590100698e+01
1	 2.339414608516754e-01	 1.597244427206281e+00	-1.470087084130867e+01
1	 1.999472666197175e-01	 1.601855005273025e+00	-1.493145644517892e+01
1	 1.661098528555962e-01	 1.605716626348258e+00	-1.513914984994780e+01
1	 1.324508561676967e-01	 1.608842794696667e+00	-1.531944555858652e+01
1	 9.899101483641200e-02	 1.611247698626315e+00	-1.546800905043528e+01
1	 6.575015170652469e-02	 1.612946150650265e+00	-1.558070715702861e+01
1	 3.274716115719427e-02	 1.613953528074177e+00	-1.565363514253761e+01
1	 0.000000000000000e+00	 1.614285714285714e+00	-1.568314046629955e+01
1	 3.396144372714516e-01	 1.592767067701985e+00	-1.374131765406433e+01
1	 3.049845882578276e-01	 1.599759137771804e+00	-1.402147939197754e+01
1	 2.704422221243490e-01	 1.605959495893849e+00	-1.429344185247766e+01
1	 2.360117392662919e-01	 1.611379333641735e+00	-1.455246407947063e+01
1	 2.017167114570602e-01	 1.616030713284290e+00	-1.479385104128121e+01
1	 1.675798515534334e-01	 1.619926507997358e+00	-1.501299415558329e+01
1	 1.336229876382073e-01	 1.623080341552390e+00	-1.520540887392476e+01
1	 9.986704151638025e-02	 1.625506527817698e+00	-1.536676917244778e+01
1	 6.633201145613994e-02	 1.627220010390533e+00	-1.549293883790531e+01
1	 3.303695904354111e-02	 1.628236302658904e+00	-1.557999947878331e+01
1	 0.000000000000000e+00	 1.628571428571428e+00	-1.562427522980874e+01
1	 3.425935112826048e-01	 1.606738708646739e+00	-1.356456958154576e+01
1	 3.076598916635981e-01	 1.613792112664539e+00	-1.385360235232032e+01
1	 2.728145223184223e-01	 1.620046859892918e+00	-1.413493496555451e+01
1	 2.380820176809085e-01	 1.625514240077189e+00	-1.440393040958154e+01
1	 2.034861562944028e-01	 1.630206421295556e+00	-1.465598006994286e+01
1	 1.690498502512705e-01	 1.634136389646457e+00	-1.488654489083953e+01
1	 1.347951191087179e-01	 1.637317888408113e+00	-1.509119367513098e+01
1	 1.007430681963485e-01	 1.639765357009081e+00	-1.526563835836996e+01
1	 6.691387120575519e-02	 1.641493870130801e+00	-1.540576613496711e+01
1	 3.332675692988796e-02	 1.642519077243632e+00	-1.550766835551142e+01
1	 0.000000000000000e+00	 1.642857142857143e+00	-1.556766615308018e+01
1	 3.455725852937579e-01	 1.620710349591493e+00	-1.338835581860136e+01
1	 3.103351950693684e-01	 1.627825087557274e+00	-1.368603792600111e+01
1	 2.751868225124956e-01	 1.634134223891988e+00	-1.397651095665575e+01
1	 2.401522960955250e-01	 1.639649146512643e+00	-1.425528140505275e+01
1	 2.052556011317454e-01	 1.644382129306822e+00	-1.451786411170061e+01
1	 1.705198489491076e-01	 1.648346271295556e+00	-1.475982391090142e+01
1	 1.359672505792285e-01	 1.651555435263836e+00	-1.497681452380071e+01
1	 1.016190948763167e-01	 1.654024186200465e+00	-1.516461452047105e+01
1	 6.749573095537045e-02	 1.655767729871069e+00	-1.531916021726008e+01
1	 3.361655481623482e-02	 1.656801851828358e+00	-1.543657541658470e+01
1	 0.000000000000000e+00	 1.657142857142857e+00	-1.551319793531929e+01
1	 3.485516593049110e-01	 1.634681990536247e+00	-1.321262537677940e+01
1	 3.130104984751388e-01	 1.641858062450009e+00	-1.351876094131697e+01
1	 2.775591227065688e-01	 1.648221587891056e+00	-1.381816568864695e+01
1	 2.422225745101416e-01	 1.653784052948096e+00	-1.410652824362356e+01
1	 2.070250459690880e-01	 1.658557837318087e+00	-1.437952304348308e+01
1	 1.719898476469448e-01	 1.662556152944656e+00	-1.463285232376792e+01
1	 1.371393820497390e-01	 1.665792982119558e+00	-1.486228548369714e+01
1	 1.024951215562850e-01	 1.668283015391848e+00	-1.506369564239573e+01
1	 6.807759070498574e-02	 1.670041589611337e+00	-1.523309323950384e+01
1	 3.390635270258167e-02	 1.671084626413085e+00	-1.536665657445209e+01
1	 0.000000000000000e+00	 1.671428571428571e+00	-1.546075921763888e+01
1	 3.515307333160640e-01	 1.648653631481002e+00	-1.303732899605043e+01
1	 3.156858018809093e-01	 1.655891037342745e+00	-1.335174707984335e+01
1	 2.799314229006420e-01	 1.662308951890124e+00	-1.365989516463567e+01
1	 2.442928529247582e-01	 1.667918959383550e+00	-1.395768172412684e+01
1	 2.087944908064307e-01	 1.672733545329353e+00	-1.424097606842481e+01
1	 1.734598463447819e-01	 1.676766034593756e+00	-1.450565052191263e+01
1	 1.383115135202496e-01	 1.680030528975281e+00	-1.474762014184561e+01
1	 1.033711482362532e-01	 1.682541844583231e+00	-1.496287977613970e+01
1	 6.865945045460098e-02	 1.684315449351604e+00	-1.514753830032578e+01
1	 3.419615058892853e-02	 1.685367400997813e+00	-1.529784991402179e+01
1	 0.000000000000000e+00	 1.685714285714285e+00	-1.541024241602936e+01
1	 3.545098073272172e-01	 1.662625272425756e+00	-1.286241907218418e+01
1	 3.183611052866797e-01	 1.669924012235480e+00	-1.318497284058143e+01
1	 2.823037230947152e-01	 1.676396315889193e+00	-1.350169552207861e+01
1	 2.463631313393748e-01	 1.682053865819005e+00	-1.380875228240938e+01
1	 2.105639356437733e-01	 1.686909253340619e+00	-1.410224174417678e+01
1	 1.749298450426190e-01	 1.690975916242855e+00	-1.437823821234800e+01
1	 1.394836449907602e-01	 1.694268075831003e+00	-1.463283162856486e+01
1	 1.042471749162215e-01	 1.696800673774614e+00	-1.486216503917769e+01
1	 6.924131020421623e-02	 1.698589309091872e+00	-1.506246940260123e+01
1	 3.448594847527537e-02	 1.699650175582540e+00	-1.523009560138147e+01
1	 0.000000000000000e+00	 1.699999999999999e+00	-1.536154356275024e+01
1	 3.574888813383703e-01	 1.676596913370510e+00	-1.268784958775809e+01
1	 3.210364086924502e-01	 1.683956987128215e+00	-1.301841550589936e+01
1	 2.846760232887887e-01	 1.690483679888263e+00	-1.334356302718401e+01
1	 2.484334097539916e-01	 1.696188772254459e+00	-1.365975000645640e+01
1	 2.123333804811160e-01	 1.701084961351885e+00	-1.396333800980156e+01
1	 1.763998437404562e-01	 1.705185797891955e+00	-1.425063444518592e+01
1	 1.406557764612708e-01	 1.708505622686726e+00	-1.451793263649635e+01
1	 1.051232015961897e-01	 1.711059502965998e+00	-1.476154961173543e+01
1	 6.982316995383152e-02	 1.712863168832140e+00	-1.497786141577630e+01
1	 3.477574636162224e-02	 1.713932950167268e+00	-1.516333579708271e+01
1	 0.000000000000000e+00	 1.714285714285714e+00	-1.531456215565260e+01
1	 1.714285714285714e+00	 0.000000000000000e+00	 4.025542282163239e+00
1	 1.713932950167268e+00	 3.477574636162127e-02	 3.735399695304776e+00
1	 1.712863168832140e+00	 6.982316995383066e-02	 3.447731927867826e+00
1	 1.711059502965998e+00	 1.051232015961890e-01	 3.164290960902651e+00
1	 1.708505622686727e+00	 1.406557764612702e-01	 2.886676255153161e+00
1	 1.705185797891956e+00	 1.763998437404557e-01	 2.616315563642991e+00
1	 1.701084961351885e+00	 2.123333804811157e-01	 2.354445822905874e+00
1	 1.696188772254459e+00	 2.484334097539913e-01	 2.102094295232802e+00
1	 1.690483679888263e+00	 2.846760232887885e-01	 1.860060144571134e+00
1	 1.683956987128216e+00	 3.210364086924503e-01	 1.628896637461437e+00
1	 1.676596913370510e+00	 3.574888813383701e-01	 1.408894167368389e+00
1	 1.728571428571429e+00	 0.000000000000000e+00	 3.874364690798134e+00
1	 1.728215724751995e+00	 3.506554424796810e-02	 3.593975470333374e+00
1	 1.727137028572408e+00	 7.040502970344592e-02	 3.315731870989611e+00
1	 1.725318332157382e+00	 1.059992282761573e-01	 3.041400504536740e+00
1	 1.722743169542449e+00	 1.418279079317808e-01	 2.772585022880543e+00
1	 1.719395679541055e+00	 1.778698424382929e-01	 2.510706298280478e+00
1	 1.715260669363150e+00	 2.141028253184583e-01	 2.256982729850555e+00
1	 1.710323678689913e+00	 2.505036881686079e-01	 2.012410857390098e+00
1	 1.704571043887331e+00	 2.870483234828617e-01	 1.777746473901463e+00
1	 1.697989962020950e+00	 3.237117120982207e-01	 1.553486436839729e+00
1	 1.690568554315264e+00	 3.604679553495232e-01	 1.339851384927721e+00
1	 1.742857142857143e+00	 0.000000000000000e+00	 3.729267476284669e+00
1	 1.742498499336722e+00	 3.535534213431496e-02	 3.458169101906726e+00
1	 1.741410888312676e+00	 7.098688945306120e-02	 3.189013915424550e+00
1	 1.739577161348765e+00	 1.068752549561255e-01	 2.923564904486041e+00
1	 1.736980716398172e+00	 1.430000394022914e-01	 2.663410439882169e+00
1	 1.733605561190154e+00	 1.793398411361300e-01	 2.409943907620182e+00
1	 1.729436377374416e+00	 2.158722701558009e-01	 2.164343528824313e+00
1	 1.724458585125366e+00	 2.525739665832245e-01	 1.927552557265439e+00
1	 1.718658407886400e+00	 2.894206236769349e-01	 1.700260054534570e+00
1	 1.712022936913685e+00	 3.263870155039911e-01	 1.482882451344295e+00
1	 1.704540195260018e+00	 3.634470293606763e-01	 1.275546109883629e+00
1	 1.757142857142857e+00	 0.000000000000000e+00	 3.590116565001422e+00
1	 1.756781273921449e+00	 3.564514002066180e-02	 3.327845930306343e+00
1	 1.755684748052944e+00	 7.156874920267643e-02	 3.067440323071168e+00
1	 1.753835990540148e+00	 1.077512816360937e-01	 2.810641339033603e+00
1	 1.751218263253894e+00	 1.441721708728019e-01	 2.559003100812319e+00
1	 1.747815442839254e+00	 1.808098398339671e-01	 2.313871424834866e+00
1	 1.743612085385682e+00	 2.176417149931436e-01	 2.076363251379772e+00
1	 1.738593491560819e+00	 2.546442449978411e-01	 1.847346536369735e+00
1	 1.732745771885470e+00	 2.917929238710082e-01	 1.627420813525230e+00
1	 1.726055911806421e+00	 3.290623189097615e-01	 1.416898643585572e+00
1	 1.718511836204773e+00	 3.664261033718293e-01	 1.215788173234571e+00
1	 1.771428571428571e+00	 0.000000000000000e+00	 3.456782208282508e+00
1	 1.771064048506176e+00	 3.593493790700865e-02	 3.202875639675633e+00
1	 1.769958607793211e+00	 7.215060895229167e-02	 2.950877798992535e+00
1	 1.768094819731531e+00	 1.086273083160620e-01	 2.702491593614615e+00
1	 1.765455810109618e+00	 1.453443023433125e-01	 2.459218419852570e+00
1	 1.762025324488354e+00	 1.822798385318042e-01	 2.222336946543295e+00
1	 1.757787793396948e+00	 2.194111598304861e-01	 1.992882250632370e+00
1	 1.752728397996273e+00	 2.567145234124576e-01	 1.771625512294181e+00
1	 1.746833135884538e+00	 2.941652240650814e-01	 1.559054486732889e+00
1	 1.740088886699156e+00	 3.317376223155319e-01	 1.355354977380117e+00
1	 1.732483477149527e+00	 3.694051773829823e-01	 1.160393540462933e+00
1	 1.785714285714285e+00	 0.000000000000000e+00	 3.329138809419349e+00
1	 1.785346823090904e+00	 3.622473579335549e-02	 3.083132084265393e+00
1	 1.784232467533479e+00	 7.273246870190694e-02	 2.839197313689721e+00
1	 1.782353648922915e+00	 1.095033349960302e-01	 2.598981876530375e+00
1	 1.779693356965340e+00	 1.465164338138231e-01	 2.363916437930674e+00
1	 1.776235206137453e+00	 1.837498372296414e-01	 2.135193430272465e+00
1	 1.771963501408213e+00	 2.211806046678288e-01	 1.913745988397870e+00
1	 1.766863304431727e+00	 2.587848018270742e-01	 1.700227555667074e+00
1	 1.760920499883607e+00	 2.965375242591547e-01	 1.494992386469508e+00
1	 1.754121861591891e+00	 3.344129257213024e-01	 1.298077177702350e+00
1	 1.746455118094281e+00	 3.723842513941356e-01	 1.109184066155646e+00
1	 1.800000000000000e+00	 0.000000000000000e+00	 3.207064758900465e+00
1	 1.799629597675631e+00	 3.651453367970232e-02	 2.968493122953406e+00
1	 1.798506327273747e+00	 7.331432845152218e-02	 2.732273933838360e+00
1	 1.796612478114298e+00	 1.103793616759985e-01	 2.499982643437668e+00
1	 1.793930903821063e+00	 1.476885652843337e-01	 2.272961639119529e+00
1	 1.790445087786553e+00	 1.852198359274785e-01	 2.052298501564384e+00
1	 1.786139209419479e+00	 2.229500495051713e-01	 1.838804832466111e+00
1	 1.780998210867181e+00	 2.608550802416908e-01	 1.632995877731658e+00
1	 1.775007863882676e+00	 2.989098244532278e-01	 1.435071180211735e+00
1	 1.768154836484626e+00	 3.370882291270728e-01	 1.244896502067188e+00
1	 1.760426759039036e+00	 3.753633254052886e-01	 1.061987260309596e+00
1	 1.814285714285714e+00	 0.000000000000000e+00	 3.090442277435208e+00
1	 1.813912372260358e+00	 3.680433156604918e-02	 2.858840461581905e+00
1	 1.812780187014015e+00	 7.389618820113744e-02	 2.629986661021923e+00
1	 1.810871307305681e+00	 1.112553883559667e-01	 2.405368430130081e+00
1	 1.808168450676785e+00	 1.488606967548443e-01	 2.186222775710243e+00
1	 1.804654969435653e+00	 1.866898346253157e-01	 1.973514270195950e+00
1	 1.800314917430745e+00	 2.247194943425140e-01	 1.767913863452468e+00
1	 1.795133117302635e+00	 2.629253586563075e-01	 1.569778627959758e+00
1	 1.789095227881745e+00	 3.012821246473012e-01	 1.379132679767678e+00
1	 1.782187811377361e+00	 3.397635325328432e-01	 1.195649522713490e+00
1	 1.774398399983790e+00	 3.783423994164416e-01	 1.018636065677661e+00
1	 1.828571428571428e+00	 0.000000000000000e+00	 2.979157266335774e+00
1	 1.828195146845086e+00	 3.709412945239601e-02	 2.754059502685571e+00
1	 1.827054046754282e+00	 7.447804795075269e-02	 2.532218278024425e+00
1	 1.825130136497064e+00	 1.121314150359349e-01	 2.315017693157667e+00
1	 1.822405997532508e+00	 1.500328282253548e-01	 2.103572701484783e+00
1	 1.818864851084752e+00	 1.881598333231528e-01	 1.898707155013533e+00
1	 1.814490625442010e+00	 2.264889391798566e-01	 1.700932690703082e+00
1	 1.809268023738089e+00	 2.649956370709240e-01	 1.510428701152196e+00
1	 1.803182591880814e+00	 3.036544248413743e-01	 1.327023640326414e+00
1	 1.796220786270096e+00	 3.424388359386136e-01	 1.150177918997654e+00
1	 1.788370040928544e+00	 3.813214734275946e-01	 9.789686455517075e-01
1	 1.842857142857143e+00	 0.000000000000000e+00	 2.873099164858146e+00
1	 1.842477921429813e+00	 3.738392733874286e-02	 2.654039202208874e+00
1	 1.841327906494550e+00	 7.505990770036795e-02	 2.438855202272212e+00
1	 1.839388965688448e+00	 1.130074417159032e-01	 2.228812657859597e+00
1	 1.836643544388231e+00	 1.512049596958655e-01	 2.024888212743535e+00
1	 1.833074732733852e+00	 1.896298320209898e-01	 1.827747716914780e+00
1	 1.828666333453276e+00	 2.282583840171993e-01	 1.637725276762658e+00
1	 1.823402930173542e+00	 2.670659154855406e-01	 1.454803553511318e+00
1	 1.817269955879882e+00	 3.060267250354475e-01	 1.278595568854129e+00
1	 1.810253761162831e+00	 3.451141393443841e-01	 1.108328279443309e+00
1	 1.802341681873298e+00	 3.843005474387477e-01	 9.428281814160842e-01
1	 1.857142857142857e+00	 0.000000000000000e+00	 2.772160814127362e+00
1	 1.856760696014540e+00	 3.767372522508970e-02	 2.558671932836427e+00
1	 1.855601766234818e+00	 7.564176744998323e-02	 2.349787346040073e+00
1	 1.853647794879831e+00	 1.138834683958714e-01	 2.146639173410778e+00
1	 1.850881091243954e+00	 1.523770911663761e-01	 1.950049896669927e+00
1	 1.847284614382952e+00	 1.910998307188271e-01	 1.760510499538951e+00
1	 1.842842041464542e+00	 2.300278288545419e-01	 1.578159769943759e+00
1	 1.837537836608996e+00	 2.691361939001572e-01	 1.402765027202480e+00
1	 1.831357319878951e+00	 3.083990252295208e-01	 1.233704541333422e+00
1	 1.824286736055566e+00	 3.477894427501544e-01	 1.069951912927216e+00
1	 1.816313322818053e+00	 3.872796214499010e-01	 9.100626799402464e-01
1	 1.676596913370510e+00	 3.574888813383701e-01	 1.408894167368389e+00
1	 1.668392656546771e+00	 3.940069209860282e-01	 1.194499179799640e+00
1	 1.659334453833218e+00	 4.305632131593429e-01	 9.801970934889561e-01
1	 1.649413640659306e+00	 4.671296952786177e-01	 7.660783952685734e-01
1	 1.638622707611956e+00	 5.036776075055792e-01	 5.521626386581555e-01
1	 1.626955354826573e+00	 5.401775482239333e-01	 3.383960223401034e-01
1	 1.614406543454767e+00	 5.765995340394527e-01	 1.246494507022166e-01
1	 1.600972543801240e+00	 6.129130641442300e-01	-8.928288220839431e-02
1	 1.586650979729045e+00	 6.490871888498062e-01	-3.036843477205414e-01
1	 1.571440868943270e+00	 6.850905820538644e-01	-5.189161434361567e-01
1	 1.555342658778490e+00	 7.208916173655637e-01	-7.354169320344415e-01
1	 1.690568554315264e+00	 3.604679553495232e-01	 1.339851384927721e+00
1	 1.682295928684661e+00	 3.972903119942450e-01	 1.131668729994017e+00
1	 1.673162240948495e+00	 4.341512399356706e-01	 9.238316372318806e-01
1	 1.663158754331468e+00	 4.710224427392730e-01	 7.163891128650773e-01
1	 1.652277896842055e+00	 5.078749209014590e-01	 5.093170426639513e-01
1	 1.640513316116795e+00	 5.446790277924662e-01	 3.025159680059464e-01
1	 1.627859931316890e+00	 5.814045301564480e-01	 9.580936745453145e-02
1	 1.614313981666250e+00	 6.180206730120988e-01	-1.110575156355625e-01
1	 1.599873071226787e+00	 6.544962487568878e-01	-3.184182630168675e-01
1	 1.584536209517797e+00	 6.907996702376465e-01	-5.266852572494034e-01
1	 1.568303847601644e+00	 7.268990475102770e-01	-7.363490169653588e-01
1	 1.704540195260018e+00	 3.634470293606763e-01	 1.275546109883629e+00
1	 1.696199200822550e+00	 4.005737030024619e-01	 1.073460481917881e+00
1	 1.686990028063771e+00	 4.377392667119985e-01	 8.719450465882141e-01
1	 1.676903868003628e+00	 4.749151901999280e-01	 6.710090889028468e-01
1	 1.665933086072156e+00	 5.120722342973388e-01	 4.705870157971052e-01
1	 1.654071277407016e+00	 5.491805073609990e-01	 2.705363303453524e-01
1	 1.641313319179012e+00	 5.862095262734434e-01	 7.063613163098736e-02
1	 1.627655419531260e+00	 6.231282818799673e-01	-1.294138201913483e-01
1	 1.613095162724529e+00	 6.599053086639695e-01	-3.299934384073850e-01
1	 1.597631550092324e+00	 6.965087584214290e-01	-5.315620136234971e-01
1	 1.581265036424798e+00	 7.329064776549900e-01	-7.346572625306163e-01
1	 1.718511836204773e+00	 3.664261033718293e-01	 1.215788173234571e+00
1	 1.710102472960440e+00	 4.038570940106789e-01	 1.019682075449923e+00
1	 1.700817815179048e+00	 4.413272934883264e-01	 8.243443943320695e-01
1	 1.690648981675789e+00	 4.788079376605831e-01	 6.297463995428950e-01
1	 1.679588275302255e+00	 5.162695476932188e-01	 4.357831477066527e-01
1	 1.667629238697238e+00	 5.536819869295316e-01	 2.422716553667047e-01
1	 1.654766707041136e+00	 5.910145223904388e-01	 4.894961447059121e-02
1	 1.640996857396271e+00	 6.282358907478361e-01	-1.445253111923488e-01
1	 1.626317254222270e+00	 6.653143685710513e-01	-3.385755747081338e-01
1	 1.610726890666851e+00	 7.022178466052109e-01	-5.337031912731057e-01
1	 1.594226225247952e+00	 7.389139077997031e-01	-7.304885172479016e-01
1	 1.732483477149527e+00	 3.694051773829823e-01	 1.160393540462933e+00
1	 1.724005745098330e+00	 4.071404850188958e-01	 9.701473556340230e-01
1	 1.714645602294325e+00	 4.449153202646543e-01	 7.808429766964537e-01
1	 1.704394095347949e+00	 4.827006851212383e-01	 5.924153120378040e-01
1	 1.693243464532354e+00	 5.204668610890986e-01	 4.047221380529499e-01
1	 1.681187199987459e+00	 5.581834664980645e-01	 2.175424714652159e-01
1	 1.668220094903258e+00	 5.958195185074344e-01	 3.057549781753621e-02
1	 1.654338295261281e+00	 6.333434996157044e-01	-1.565599066868827e-01
1	 1.639539345720013e+00	 6.707234284781328e-01	-3.443250275475565e-01
1	 1.623822231241378e+00	 7.079269347889933e-01	-5.332605115350244e-01
1	 1.607187414071107e+00	 7.449213379444160e-01	-7.239848925859536e-01
1	 1.746455118094281e+00	 3.723842513941356e-01	 1.109184066155646e+00
1	 1.737909017236220e+00	 4.104238760271128e-01	 9.246761244726711e-01
1	 1.728473389409602e+00	 4.485033470409822e-01	 7.412600644349248e-01
1	 1.718139209020110e+00	 4.865934325818933e-01	 5.588360370880782e-01
1	 1.706898653762454e+00	 5.246641744849783e-01	 3.772265521072281e-01
1	 1.694745161277681e+00	 5.626849460665971e-01	 1.961750501274468e-01
1	 1.681673482765381e+00	 6.006245146244299e-01	 1.534504169700490e-02
1	 1.667679733126291e+00	 6.384511084835731e-01	-1.656801513457190e-01
1	 1.652761437217755e+00	 6.761324883852148e-01	-3.473970211739810e-01
1	 1.636917571815907e+00	 7.136360229727752e-01	-5.303808406632604e-01
1	 1.620148602894261e+00	 7.509287680891290e-01	-7.152839524465121e-01
1	 1.760426759039036e+00	 3.753633254052886e-01	 1.061987260309596e+00
1	 1.751812289374109e+00	 4.137072670353297e-01	 8.830939045396953e-01
1	 1.742301176524879e+00	 4.520913738173099e-01	 7.054206657374280e-01
1	 1.731884322692272e+00	 4.904861800425485e-01	 5.288344929910395e-01
1	 1.720553842992553e+00	 5.288614878808581e-01	 3.531245879892499e-01
1	 1.708303122567902e+00	 5.671864256351300e-01	 1.780011780308646e-01
1	 1.695126870627504e+00	 6.054295107414253e-01	 3.094862958785471e-03
1	 1.681021170991301e+00	 6.435587173514415e-01	-1.720434296913604e-01
1	 1.665983528715497e+00	 6.815415482922965e-01	-3.479418520818117e-01
1	 1.650012912390433e+00	 7.193451111565574e-01	-5.252063824910501e-01
1	 1.633109791717414e+00	 7.569361982338418e-01	-7.045188936233100e-01
1	 1.774398399983790e+00	 3.783423994164416e-01	 1.018636065677661e+00
1	 1.765715561511999e+00	 4.169906580435464e-01	 8.452317137609332e-01
1	 1.756128963640156e+00	 4.556794005936378e-01	 6.731553003469900e-01
1	 1.745629436364432e+00	 4.943789275032036e-01	 5.022420809322655e-01
1	 1.734209032222652e+00	 5.330588012767379e-01	 3.322498549016139e-01
1	 1.721861083858123e+00	 5.716879052036626e-01	 1.628579399103421e-01
1	 1.708580258489627e+00	 6.102345068584206e-01	-6.333275621357104e-03
1	 1.694362608856312e+00	 6.486663262193102e-01	-1.758021692534597e-01
1	 1.679205620213238e+00	 6.869506081993780e-01	-3.461050830176075e-01
1	 1.663108252964960e+00	 7.250541993403397e-01	-5.178748619907578e-01
1	 1.646070980540568e+00	 7.629436283785549e-01	-6.918187177354946e-01
1	 1.788370040928544e+00	 3.813214734275946e-01	 9.789686455517075e-01
1	 1.779618833649888e+00	 4.202740490517633e-01	 8.109258507520398e-01
1	 1.769956750755433e+00	 4.592674273699658e-01	 6.442997842646579e-01
1	 1.759374550036592e+00	 4.982716749638587e-01	 4.788954708103011e-01
1	 1.747864221452752e+00	 5.372561146726177e-01	 3.144411617593432e-01
1	 1.735419045148345e+00	 5.761893847721955e-01	 1.505875116027817e-01
1	 1.722033646351751e+00	 6.150395029754161e-01	-1.309266635439366e-02
1	 1.707704046721322e+00	 6.537739350871786e-01	-1.771040342013711e-01
1	 1.692427711710980e+00	 6.923596681064600e-01	-3.420277278920930e-01
1	 1.676203593539487e+00	 7.307632875241218e-01	-5.085197002293464e-01
1	 1.659032169363722e+00	 7.689510585232679e-01	-6.773083951016057e-01
1	 1.802341681873298e+00	 3.843005474387477e-01	 9.428281814160842e-01
1	 1.793522105787778e+00	 4.235574400599802e-01	 7.800176901405914e-01
1	 1.783784537870709e+00	 4.628554541462934e-01	 6.186950244681939e-01
1	 1.773119663708754e+00	 5.021644224245138e-01	 4.586363970229527e-01
1	 1.761519410682852e+00	 5.414534280684974e-01	 2.995423156506348e-01
1	 1.748977006438566e+00	 5.806908643407283e-01	 1.410369627175885e-01
1	 1.735487034213874e+00	 6.198444990924115e-01	-1.733184830134082e-02
1	 1.721045484586332e+00	 6.588815439550472e-01	-1.760921099705304e-01
1	 1.705649803208722e+00	 6.977687280135416e-01	-3.358464280916320e-01
1	 1.689298934114015e+00	 7.364723757079041e-01	-4.972701811864443e-01
1	 1.671993358186877e+00	 7.749584886679810e-01	-6.611090209915410e-01
1	 1.816313322818053e+00	 3.872796214499010e-01	 9.100626799402464e-01
1	 1.807425377925668e+00	 4.268408310681971e-01	 7.523534873348453e-01
1	 1.797612324985986e+00	 4.664434809226215e-01	 5.961868231052805e-01
1	 1.786864777380915e+00	 5.060571698851692e-01	 4.413114636788653e-01
1	 1.775174599912952e+00	 5.456507414643776e-01	 2.874019295994372e-01
1	 1.762534967728788e+00	 5.851923439092610e-01	 1.340580684146438e-01
1	 1.748940422075997e+00	 6.246494952094070e-01	-1.919479009056996e-02
1	 1.734386922451343e+00	 6.639891528229159e-01	-1.729050793675683e-01
1	 1.718871894706465e+00	 7.031777879206232e-01	-3.276936206522328e-01
1	 1.702394274688542e+00	 7.421814638916866e-01	-4.842516108730632e-01
1	 1.684954547010031e+00	 7.809659188126941e-01	-6.433379646669048e-01
1	 1.555342658778490e+00	 7.208916173655637e-01	-7.354169320344415e-01
1	 1.538358257134925e+00	 7.564584475758592e-01	-9.586508256124839e-01
1	 1.520491058232194e+00	 7.917590871218493e-01	-1.193487358130768e+00
1	 1.501745962877788e+00	 8.267614971588527e-01	-1.439514799121016e+00
1	 1.482129392979634e+00	 8.614336728210154e-01	-1.696301188860015e+00
1	 1.461649300068323e+00	 8.957437322213666e-01	-1.963395956543151e+00
1	 1.440315167634239e+00	 9.296600067158080e-01	-2.240331640018410e+00
1	 1.418138007127731e+00	 9.631511319330253e-01	-2.526625694655454e+00
1	 1.395130347516129e+00	 9.961861390541467e-01	-2.821782377909820e+00
1	 1.371306218339282e+00	 1.028734545812524e+00	-3.125294695284126e+00
1	 1.346681126254994e+00	 1.060766446675545e+00	-3.436646392699834e+00
1	 1.568303847601644e+00	 7.268990475102770e-01	-7.363490169653588e-01
1	 1.551177909277715e+00	 7.627622679723246e-01	-9.527900493156707e-01
1	 1.533161817050795e+00	 7.983570795145313e-01	-1.180759783448804e+00
1	 1.514260512568436e+00	 8.336511763018434e-01	-1.419843046309377e+00
1	 1.494480471254464e+00	 8.686122867611905e-01	-1.669599299243732e+00
1	 1.473829710902226e+00	 9.032082633232112e-01	-1.929564309241284e+00
1	 1.452317794031190e+00	 9.374071734384397e-01	-2.199251967376466e+00
1	 1.429955823853795e+00	 9.711773913658003e-01	-2.478156242166768e+00
1	 1.406756433745430e+00	 1.004487690212931e+00	-2.765753254006925e+00
1	 1.382733770158776e+00	 1.037307333694295e+00	-3.061503455428000e+00
1	 1.357903468973786e+00	 1.069606167064508e+00	-3.364853900689376e+00
1	 1.581265036424798e+00	 7.329064776549900e-01	-7.346572625306163e-01
1	 1.563997561420507e+00	 7.690660883687901e-01	-9.445635078588249e-01
1	 1.545832575869397e+00	 8.049550719072134e-01	-1.165904048741377e+00
1	 1.526775062259084e+00	 8.405408554448337e-01	-1.398259125407709e+00
1	 1.506831549529293e+00	 8.757909007013653e-01	-1.641178422119961e+00
1	 1.486010121736128e+00	 9.106727944250558e-01	-1.894182797845952e+00
1	 1.464320420428143e+00	 9.451543401610712e-01	-2.156766210502939e+00
1	 1.441773640579860e+00	 9.792036507985753e-01	-2.428397822587634e+00
1	 1.418382519974731e+00	 1.012789241371716e+00	-2.708524273900205e+00
1	 1.394161321978270e+00	 1.045880121576066e+00	-2.996572105097614e+00
1	 1.369125811692577e+00	 1.078445887453471e+00	-3.291950314008375e+00
1	 1.594226225247952e+00	 7.389139077997031e-01	-7.304885172479016e-01
1	 1.576817213563297e+00	 7.753699087652558e-01	-9.341076675562711e-01
1	 1.558503334687998e+00	 8.115530642998954e-01	-1.149046279188784e+00
1	 1.539289611949733e+00	 8.474305345878239e-01	-1.374878870941473e+00
1	 1.519182627804124e+00	 8.829695146415405e-01	-1.611144161293618e+00
1	 1.498190532570031e+00	 9.181373255269004e-01	-1.857346864833260e+00
1	 1.476323046825095e+00	 9.529015068837030e-01	-2.112959729353407e+00
1	 1.453591457305925e+00	 9.872299102313508e-01	-2.377425801492405e+00
1	 1.430008606204032e+00	 1.021090792530500e+00	-2.650160906123235e+00
1	 1.405588873797764e+00	 1.054452909457837e+00	-2.930556322152946e+00
1	 1.380348154411368e+00	 1.087285607842434e+00	-3.217981635018433e+00
1	 1.607187414071107e+00	 7.449213379444160e-01	-7.239848925859536e-01
1	 1.589636865706088e+00	 7.816737291617211e-01	-9.215545925831673e-01
1	 1.571174093506600e+00	 8.181510566925775e-01	-1.130308531417114e+00
1	 1.551804161640380e+00	 8.543202137308142e-01	-1.349814380838570e+00
1	 1.531533706078954e+00	 8.901481285817157e-01	-1.579598713995263e+00
1	 1.510370943403934e+00	 9.256018566287455e-01	-1.819148873889818e+00
1	 1.488325673222046e+00	 9.606486736063348e-01	-2.067915130336523e+00
1	 1.465409274031989e+00	 9.952561696641259e-01	-2.325313113307862e+00
1	 1.441634692433333e+00	 1.029392343689285e+00	-2.590726507321452e+00
1	 1.417016425617257e+00	 1.063025697339608e+00	-2.863509988393988e+00
1	 1.391570497130161e+00	 1.096125328231396e+00	-3.142992382133959e+00
1	 1.620148602894261e+00	 7.509287680891290e-01	-7.152839524465121e-01
1	 1.602456517848880e+00	 7.879775495581867e-01	-9.070321210610583e-01
1	 1.583844852325202e+00	 8.247490490852598e-01	-1.109808956240427e+00
1	 1.564318711331028e+00	 8.612098928738048e-01	-1.323174165893189e+00
1	 1.543884784353785e+00	 8.973267425218909e-01	-1.546641007144094e+00
1	 1.522551354237836e+00	 9.330663877305899e-01	-1.779678233064223e+00
1	 1.500328299618998e+00	 9.683958403289665e-01	-2.021712376455812e+00
1	 1.477227090758053e+00	 1.003282429096901e+00	-2.272130358559147e+00
1	 1.453260778662633e+00	 1.037693894848069e+00	-2.530282406727600e+00
1	 1.428443977436752e+00	 1.071598485221379e+00	-2.795485261403098e+00
1	 1.402792839848952e+00	 1.104965048620359e+00	-3.067025649180158e+00
1	 1.633109791717414e+00	 7.569361982338418e-01	-7.045188936233100e-01
1	 1.615276169991670e+00	 7.942813699546521e-01	-8.906640327584308e-01
1	 1.596515611143803e+00	 8.313470414779417e-01	-1.087661953653277e+00
1	 1.576833261021677e+00	 8.680995720167953e-01	-1.295063292112411e+00
1	 1.556235862628615e+00	 9.045053564620659e-01	-1.512366827122187e+00
1	 1.534731765071739e+00	 9.405309188324346e-01	-1.739021512054339e+00
1	 1.512330926015951e+00	 9.761430070515982e-01	-1.974428892206775e+00
1	 1.489044907484118e+00	 1.011308688529676e+00	-2.217945896484866e+00
1	 1.464886864891935e+00	 1.045995446006854e+00	-2.468887986614681e+00
1	 1.439871529256245e+00	 1.080171273103150e+00	-2.726532642966428e+00
1	 1.414015182567744e+00	 1.113804769009322e+00	-2.990123161924261e+00
1	 1.646070980540568e+00	 7.629436283785549e-01	-6.918187177354946e-01
1	 1.628095822134461e+00	 8.005851903511175e-01	-8.725702088683946e-01
1	 1.609186369962404e+00	 8.379450338706237e-01	-1.063978320500796e+00
1	 1.589347810712325e+00	 8.749892511597857e-01	-1.265583516337746e+00
1	 1.568586940903445e+00	 9.116839704022413e-01	-1.476868943417680e+00
1	 1.546912175905641e+00	 9.479954499342793e-01	-1.697262553953378e+00
1	 1.524333552412902e+00	 9.838901737742300e-01	-1.926139663518156e+00
1	 1.500862724210182e+00	 1.019334947962451e+00	-2.162825933276768e+00
1	 1.476512951121236e+00	 1.054296997165638e+00	-2.406600758947849e+00
1	 1.451299081075740e+00	 1.088744060984921e+00	-2.656701044262646e+00
1	 1.425237525286535e+00	 1.122644489398285e+00	-2.912325331936101e+00
1	 1.659032169363722e+00	 7.689510585232679e-01	-6.773083951016057e-01
1	 1.640915474277252e+00	 8.068890107475829e-01	-8.528667842967551e-01
1	 1.621857128781007e+00	 8.445430262633060e-01	-1.038865391226706e+00
1	 1.601862360402973e+00	 8.818789303027761e-01	-1.234833415509385e+00
1	 1.580938019178275e+00	 9.188625843424161e-01	-1.440237226472216e+00
1	 1.559092586739545e+00	 9.554599810361241e-01	-1.654482581757876e+00
1	 1.536336178809854e+00	 9.916373404968616e-01	-1.876917333008362e+00
1	 1.512680540936246e+00	 1.027361207395227e+00	-2.106834606183078e+00
1	 1.488139037350537e+00	 1.062598548324423e+00	-2.343476438443411e+00
1	 1.462726632895233e+00	 1.097316848866692e+00	-2.586037847996108e+00
1	 1.436459868005327e+00	 1.131484209787248e+00	-2.833671307923963e+00
1	 1.671993358186877e+00	 7.749584886679810e-01	-6.611090209915410e-01
1	 1.653735126420044e+00	 8.131928311440486e-01	-8.316662928669856e-01
1	 1.634527887599609e+00	 8.511410186559879e-01	-1.012427172074909e+00
1	 1.614376910093621e+00	 8.887686094457664e-01	-1.202908509918224e+00
1	 1.593289097453105e+00	 9.260411982825911e-01	-1.402558760047086e+00
1	 1.571272997573447e+00	 9.629245121379688e-01	-1.610760299921847e+00
1	 1.548338805206807e+00	 9.993845072194939e-01	-1.826832290811556e+00
1	 1.524498357662311e+00	 1.035387466828002e+00	-2.050034063700187e+00
1	 1.499765123579838e+00	 1.070900099483207e+00	-2.279569012229475e+00
1	 1.474154184714727e+00	 1.105889636748463e+00	-2.514588967640010e+00
1	 1.447682210724119e+00	 1.140323930176210e+00	-2.754199024682697e+00
1	 1.684954547010031e+00	 7.809659188126941e-01	-6.433379646669048e-01
1	 1.666554778562835e+00	 8.194966515405140e-01	-8.090778058233588e-01
1	 1.647198646418210e+00	 8.577390110486701e-01	-9.847644690971955e-01
1	 1.626891459784270e+00	 8.956582885887572e-01	-1.169901380769289e+00
1	 1.605640175727937e+00	 9.332198122227667e-01	-1.363917948403213e+00
1	 1.583453408407349e+00	 9.703890432398138e-01	-1.566171991223796e+00
1	 1.560341431603759e+00	 1.007131673942125e+00	-1.775952761211615e+00
1	 1.536316174388376e+00	 1.043413726260777e+00	-1.992484542062990e+00
1	 1.511391209809139e+00	 1.079201650641992e+00	-2.214930806291839e+00
1	 1.485581736534221e+00	 1.114462424630234e+00	-2.442398903945298e+00
1	 1.458904553442911e+00	 1.149163650565174e+00	-2.673945249782699e+00
1	 1.346681126254994e+00	 1.060766446675545e+00	-3.436646392699834e+00
1	 1.321272025116470e+00	 1.092252601667171e+00	-3.753600940020571e+00
1	 1.295097279675248e+00	 1.123164523292048e+00	-4.073739125618943e+00
1	 1.268176623054305e+00	 1.153474561029700e+00	-4.396222217307472e+00
1	 1.240531108186509e+00	 1.183155982880377e+00	-4.720158864209966e+00
1	 1.212183053462653e+00	 1.212183053462653e+00	-5.044610907112205e+00
1	 1.183155982880377e+00	 1.240531108186509e+00	-5.368599598185169e+00
1	 1.153474561029701e+00	 1.268176623054305e+00	-5.691112173597083e+00
1	 1.123164523292049e+00	 1.295097279675247e+00	-6.011108718245874e+00
1	 1.092252601667171e+00	 1.321272025116470e+00	-6.327529258390166e+00
1	 1.060766446675545e+00	 1.346681126254994e+00	-6.639301015391657e+00
1	 1.357903468973786e+00	 1.069606167064508e+00	-3.364853900689376e+00
1	 1.332282625325774e+00	 1.101354706681063e+00	-3.673440093834309e+00
1	 1.305889757005875e+00	 1.132524227652816e+00	-3.984798789234725e+00
1	 1.278744761579758e+00	 1.163086849038281e+00	-4.298183667059252e+00
1	 1.250868867421397e+00	 1.193015616071047e+00	-4.612803469689593e+00
1	 1.222284578908175e+00	 1.222284578908175e+00	-4.927827153540649e+00
1	 1.193015616071047e+00	 1.250868867421397e+00	-5.242389390434610e+00
1	 1.163086849038282e+00	 1.278744761579758e+00	-5.555596368555051e+00
1	 1.132524227652816e+00	 1.305889757005875e+00	-5.866531839361289e+00
1	 1.101354706681064e+00	 1.332282625325773e+00	-6.174263353929989e+00
1	 1.069606167064508e+00	 1.357903468973785e+00	-6.477848630059433e+00
1	 1.369125811692577e+00	 1.078445887453471e+00	-3.291950314008375e+00
1	 1.343293225535078e+00	 1.110456811694957e+00	-3.592187939249708e+00
1	 1.316682234336502e+00	 1.141883932013583e+00	-3.894802201988614e+00
1	 1.289312900105210e+00	 1.172699137046862e+00	-4.199142835914641e+00
1	 1.261206626656284e+00	 1.202875249261717e+00	-4.504522960456153e+00
1	 1.232386104353697e+00	 1.232386104353697e+00	-4.810223532823348e+00
1	 1.202875249261717e+00	 1.261206626656284e+00	-5.115498084310790e+00
1	 1.172699137046862e+00	 1.289312900105210e+00	-5.419577697847685e+00
1	 1.141883932013583e+00	 1.316682234336501e+00	-5.721676180837671e+00
1	 1.110456811694957e+00	 1.343293225535077e+00	-6.020995385011156e+00
1	 1.078445887453471e+00	 1.369125811692577e+00	-6.316730623362025e+00
1	 1.380348154411368e+00	 1.087285607842434e+00	-3.217981635018433e+00
1	 1.354303825744382e+00	 1.119558916708850e+00	-3.509881953202607e+00
1	 1.327474711667129e+00	 1.151243636374349e+00	-3.803780433644691e+00
1	 1.299881038630663e+00	 1.182311425055443e+00	-4.099126406070548e+00
1	 1.271544385891172e+00	 1.212734882452386e+00	-4.395341542835792e+00
1	 1.242487629799219e+00	 1.242487629799219e+00	-4.691823570410961e+00
1	 1.212734882452387e+00	 1.271544385891172e+00	-4.987950194413425e+00
1	 1.182311425055443e+00	 1.299881038630663e+00	-5.283083202584174e+00
1	 1.151243636374350e+00	 1.327474711667128e+00	-5.576572707921052e+00
1	 1.119558916708850e+00	 1.354303825744381e+00	-5.867761492510231e+00
1	 1.087285607842434e+00	 1.380348154411368e+00	-6.155989411470975e+00
1	 1.391570497130161e+00	 1.096125328231396e+00	-3.142992382133959e+00
1	 1.365314425953686e+00	 1.128661021722743e+00	-3.426558403695360e+00
1	 1.338267188997756e+00	 1.160603340735117e+00	-3.711763551716541e+00
1	 1.310449177156115e+00	 1.191923713064023e+00	-3.998160199007871e+00
1	 1.281882145126060e+00	 1.222594515643057e+00	-4.285282642305415e+00
1	 1.252589155244741e+00	 1.252589155244741e+00	-4.572650032868630e+00
1	 1.222594515643057e+00	 1.281882145126059e+00	-4.859769444548734e+00
1	 1.191923713064023e+00	 1.310449177156114e+00	-5.146139051579858e+00
1	 1.160603340735117e+00	 1.338267188997755e+00	-5.431251386978617e+00
1	 1.128661021722744e+00	 1.365314425953685e+00	-5.714596651469108e+00
1	 1.096125328231397e+00	 1.391570497130161e+00	-5.995666042294266e+00
1	 1.402792839848952e+00	 1.104965048620359e+00	-3.067025649180158e+00
1	 1.376325026162989e+00	 1.137763126736636e+00	-3.342252398154269e+00
1	 1.349059666328383e+00	 1.169963045095884e+00	-3.618780661557351e+00
1	 1.321017315681568e+00	 1.201536001072604e+00	-3.896269209920105e+00
1	 1.292219904360947e+00	 1.232454148833726e+00	-4.174368934726715e+00
1	 1.262690680690263e+00	 1.262690680690263e+00	-4.452724958231467e+00
1	 1.232454148833726e+00	 1.292219904360947e+00	-4.730978799361115e+00
1	 1.201536001072604e+00	 1.321017315681567e+00	-5.008770576247985e+00
1	 1.169963045095884e+00	 1.349059666328382e+00	-5.285741225453780e+00
1	 1.137763126736637e+00	 1.376325026162989e+00	-5.561534717728302e+00
1	 1.104965048620359e+00	 1.402792839848952e+00	-5.835800250206769e+00
1	 1.414015182567744e+00	 1.113804769009322e+00	-2.990123161924261e+00
1	 1.387335626372293e+00	 1.146865231750529e+00	-3.256997929484196e+00
1	 1.359852143659010e+00	 1.179322749456650e+00	-3.524859944540826e+00
1	 1.331585454207021e+00	 1.211148289081185e+00	-3.793477640502555e+00
1	 1.302557663595835e+00	 1.242313782024396e+00	-4.062622376092678e+00
1	 1.272792206135785e+00	 1.272792206135785e+00	-4.332069684914385e+00
1	 1.242313782024396e+00	 1.302557663595835e+00	-4.601600494458641e+00
1	 1.211148289081185e+00	 1.331585454207020e+00	-4.871002303829962e+00
1	 1.179322749456651e+00	 1.359852143659010e+00	-5.140070309918720e+00
1	 1.146865231750529e+00	 1.387335626372293e+00	-5.408608472339742e+00
1	 1.113804769009322e+00	 1.414015182567743e+00	-5.676430508174671e+00
1	 1.425237525286535e+00	 1.122644489398285e+00	-2.912325331936101e+00
1	 1.398346226581598e+00	 1.155967336764422e+00	-3.170827919947295e+00
1	 1.370644620989637e+00	 1.188682453817418e+00	-3.430028694438337e+00
1	 1.342153592732473e+00	 1.220760577089766e+00	-3.689808930192403e+00
1	 1.312895422830722e+00	 1.252173415215065e+00	-3.950064230869021e+00
1	 1.282893731581308e+00	 1.282893731581307e+00	-4.210704879256225e+00
1	 1.252173415215066e+00	 1.312895422830722e+00	-4.471656065115264e+00
1	 1.220760577089767e+00	 1.342153592732473e+00	-4.732857989055622e+00
1	 1.188682453817418e+00	 1.370644620989637e+00	-4.994265842329221e+00
1	 1.155967336764423e+00	 1.398346226581597e+00	-5.255849663881246e+00
1	 1.122644489398285e+00	 1.425237525286535e+00	-5.517594077417175e+00
1	 1.436459868005327e+00	 1.131484209787248e+00	-2.833671307923963e+00
1	 1.409356826790901e+00	 1.165069441778315e+00	-3.083774262985044e+00
1	 1.381437098320264e+00	 1.198042158178185e+00	-3.334313352090926e+00
1	 1.352721731257925e+00	 1.230372865098347e+00	-3.585285785944420e+00
1	 1.323233182065610e+00	 1.262033048405736e+00	-3.836715099006903e+00
1	 1.292995257026830e+00	 1.292995257026829e+00	-4.088650561772783e+00
1	 1.262033048405736e+00	 1.323233182065610e+00	-4.341166373627641e+00
1	 1.230372865098347e+00	 1.352721731257925e+00	-4.594360644319567e+00
1	 1.198042158178185e+00	 1.381437098320263e+00	-4.848354174579909e+00
1	 1.165069441778316e+00	 1.409356826790900e+00	-5.103289048787672e+00
1	 1.131484209787248e+00	 1.436459868005326e+00	-5.359327054740358e+00
1	 1.447682210724119e+00	 1.140323930176210e+00	-2.754199024682697e+00
1	 1.420367427000205e+00	 1.174171546792208e+00	-2.995867863094982e+00
1	 1.392229575650891e+00	 1.207401862538952e+00	-3.237739538468576e+00
1	 1.363289869783378e+00	 1.239985153106927e+00	-3.479930210621747e+00
1	 1.333570941300497e+00	 1.271892681596405e+00	-3.722594941699267e+00
1	 1.303096782472351e+00	 1.303096782472351e+00	-3.965926132188599e+00
1	 1.271892681596406e+00	 1.333570941300497e+00	-4.210151635399500e+00
1	 1.239985153106928e+00	 1.363289869783378e+00	-4.455532568453697e+00
1	 1.207401862538952e+00	 1.392229575650890e+00	-4.702360841452370e+00
1	 1.174171546792209e+00	 1.420367427000204e+00	-4.950956429805879e+00
1	 1.140323930176211e+00	 1.447682210724118e+00	-5.201664417669539e+00
1	 1.458904553442911e+00	 1.149163650565174e+00	-2.673945249782699e+00
1	 1.431378027209509e+00	 1.183273651806101e+00	-2.907138673867051e+00
1	 1.403022052981518e+00	 1.216761566899719e+00	-3.140332086203742e+00
1	 1.373858008308830e+00	 1.249597441115509e+00	-3.373763530076346e+00
1	 1.343908700535385e+00	 1.281752314787076e+00	-3.607723105948521e+00
1	 1.313198307917874e+00	 1.313198307917874e+00	-3.842550393313688e+00
1	 1.281752314787075e+00	 1.343908700535385e+00	-4.078631443822116e+00
1	 1.249597441115509e+00	 1.373858008308831e+00	-4.316395374172051e+00
1	 1.216761566899719e+00	 1.403022052981518e+00	-4.556310592042679e+00
1	 1.183273651806102e+00	 1.431378027209509e+00	-4.798880692675175e+00
1	 1.149163650565174e+00	 1.458904553442910e+00	-5.044640067498461e+00
1	 1.060766446675545e+00	 1.346681126254994e+00	-6.639301015391657e+00
1	 1.028734545812524e+00	 1.371306218339282e+00	-6.946266356351713e+00
1	 9.961861390541472e-01	 1.395130347516129e+00	-7.249348049190006e+00
1	 9.631511319330257e-01	 1.418138007127731e+00	-7.549122561800917e+00
1	 9.296600067158087e-01	 1.440315167634238e+00	-7.846206100198792e+00
1	 8.957437322213671e-01	 1.461649300068322e+00	-8.141247720369380e+00
1	 8.614336728210163e-01	 1.482129392979633e+00	-8.434922319565374e+00
1	 8.267614971588537e-01	 1.501745962877787e+00	-8.727923578464511e+00
1	 7.917590871218502e-01	 1.520491058232193e+00	-9.020956924363674e+00
1	 7.564584475758603e-01	 1.538358257134924e+00	-9.314732583402717e+00
1	 7.208916173655637e-01	 1.555342658778490e+00	-9.609958786760965e+00
1	 1.069606167064508e+00	 1.357903468973785e+00	-6.477848630059433e+00
1	 1.037307333694295e+00	 1.382733770158775e+00	-6.777346876774068e+00
1	 1.004487690212931e+00	 1.406756433745429e+00	-7.073804225778889e+00
1	 9.711773913658011e-01	 1.429955823853795e+00	-7.367782218612404e+00
1	 9.374071734384403e-01	 1.452317794031190e+00	-7.659873171048003e+00
1	 9.032082633232120e-01	 1.473829710902225e+00	-7.950693617411298e+00
1	 8.686122867611914e-01	 1.494480471254463e+00	-8.240877693895467e+00
1	 8.336511763018440e-01	 1.514260512568435e+00	-8.531070527441491e+00
1	 7.983570795145323e-01	 1.533161817050795e+00	-8.821921695010502e+00
1	 7.627622679723256e-01	 1.551177909277714e+00	-9.114078815485797e+00
1	 7.268990475102767e-01	 1.568303847601644e+00	-9.408181333072083e+00
1	 1.078445887453471e+00	 1.369125811692577e+00	-6.316730623362024e+00
1	 1.045880121576066e+00	 1.394161321978270e+00	-6.609140058701149e+00
1	 1.012789241371716e+00	 1.418382519974730e+00	-6.899363189675449e+00
1	 9.792036507985761e-01	 1.441773640579860e+00	-7.187935051161611e+00
1	 9.451543401610719e-01	 1.464320420428142e+00	-7.475411622289037e+00
1	 9.106727944250566e-01	 1.486010121736128e+00	-7.762363722795353e+00
1	 8.757909007013664e-01	 1.506831549529293e+00	-8.049370912104656e+00
1	 8.405408554448347e-01	 1.526775062259083e+00	-8.337015451566199e+00
1	 8.049550719072148e-01	 1.545832575869397e+00	-8.625876388053159e+00
1	 7.690660883687913e-01	 1.563997561420506e+00	-8.916523814136541e+00
1	 7.329064776549898e-01	 1.581265036424798e+00	-9.209513356389230e+00
1	 1.087285607842434e+00	 1.380348154411368e+00	-6.155989411470975e+00
1	 1.054452909457837e+00	 1.405588873797764e+00	-6.441693272035205e+00
1	 1.021090792530500e+00	 1.430008606204031e+00	-6.726073817117284e+00
1	 9.872299102313512e-01	 1.453591457305924e+00	-7.009628291696463e+00
1	 9.529015068837035e-01	 1.476323046825094e+00	-7.292864200557749e+00
1	 9.181373255269011e-01	 1.498190532570030e+00	-7.576293774698756e+00
1	 8.829695146415416e-01	 1.519182627804124e+00	-7.860428508315937e+00
1	 8.474305345878251e-01	 1.539289611949732e+00	-8.145773819414568e+00
1	 8.115530642998967e-01	 1.558503334687998e+00	-8.432823884347989e+00
1	 7.753699087652568e-01	 1.576817213563297e+00	-8.722056693223655e+00
1	 7.389139077997030e-01	 1.594226225247952e+00	-9.013929369196880e+00
1	 1.096125328231397e+00	 1.391570497130161e+00	-5.995666042294265e+00
1	 1.063025697339608e+00	 1.417016425617257e+00	-6.275052358617132e+00
1	 1.029392343689285e+00	 1.441634692433333e+00	-6.553983407689202e+00
1	 9.952561696641264e-01	 1.465409274031988e+00	-6.832907648843967e+00
1	 9.606486736063353e-01	 1.488325673222046e+00	-7.112272273566187e+00
1	 9.256018566287459e-01	 1.510370943403933e+00	-7.392518358454325e+00
1	 8.901481285817167e-01	 1.531533706078954e+00	-7.674076160712803e+00
1	 8.543202137308155e-01	 1.551804161640380e+00	-7.957360600576191e+00
1	 8.181510566925788e-01	 1.571174093506600e+00	-8.242766971820330e+00
1	 7.816737291617224e-01	 1.589636865706088e+00	-8.530666917781444e+00
1	 7.449213379444161e-01	 1.607187414071107e+00	-8.821404706157450e+00
1	 1.104965048620359e+00	 1.402792839848952e+00	-5.835800250206772e+00
1	 1.071598485221379e+00	 1.428443977436751e+00	-6.109261693348874e+00
1	 1.037693894848070e+00	 1.453260778662634e+00	-6.383137747389266e+00
1	 1.003282429096902e+00	 1.477227090758053e+00	-6.657817368555038e+00
1	 9.683958403289671e-01	 1.500328299618997e+00	-6.933675885259698e+00
1	 9.330663877305905e-01	 1.522551354237836e+00	-7.211070952664151e+00
1	 8.973267425218917e-01	 1.543884784353784e+00	-7.490338725776984e+00
1	 8.612098928738057e-01	 1.564318711331028e+00	-7.771790285613930e+00
1	 8.247490490852607e-01	 1.583844852325201e+00	-8.055708349182087e+00
1	 7.879775495581880e-01	 1.602456517848879e+00	-8.342344289962947e+00
1	 7.509287680891289e-01	 1.620148602894261e+00	-8.631915491224129e+00
1	 1.113804769009322e+00	 1.414015182567743e+00	-5.676430508174671e+00
1	 1.080171273103150e+00	 1.439871529256245e+00	-5.944364242405413e+00
1	 1.045995446006854e+00	 1.464886864891934e+00	-6.213581168691874e+00
1	 1.011308688529677e+00	 1.489044907484117e+00	-6.484400292147304e+00
1	 9.761430070515988e-01	 1.512330926015950e+00	-6.757113808347154e+00
1	 9.405309188324353e-01	 1.534731765071738e+00	-7.031983973117644e+00
1	 9.045053564620669e-01	 1.556235862628615e+00	-7.309240270895380e+00
1	 8.680995720167961e-01	 1.576833261021676e+00	-7.589076905072575e+00
1	 8.313470414779427e-01	 1.596515611143802e+00	-7.871650629471702e+00
1	 7.942813699546533e-01	 1.615276169991670e+00	-8.157078935662570e+00
1	 7.569361982338417e-01	 1.633109791717414e+00	-8.445438606319843e+00
1	 1.122644489398285e+00	 1.425237525286535e+00	-5.517594077417176e+00
1	 1.088744060984921e+00	 1.451299081075740e+00	-5.780401618696292e+00
1	 1.054296997165639e+00	 1.476512951121236e+00	-6.045356607772883e+00
1	 1.019334947962452e+00	 1.500862724210182e+00	-6.312697911605436e+00
1	 9.838901737742304e-01	 1.524333552412902e+00	-6.582623594349862e+00
1	 9.479954499342802e-01	 1.546912175905641e+00	-6.855288814634413e+00
1	 9.116839704022418e-01	 1.568586940903445e+00	-7.130804105427096e+00
1	 8.749892511597867e-01	 1.589347810712324e+00	-7.409234047590113e+00
1	 8.379450338706251e-01	 1.609186369962404e+00	-7.690596343427115e+00
1	 8.005851903511185e-01	 1.628095822134461e+00	-7.974861291770033e+00
1	 7.629436283785549e-01	 1.646070980540568e+00	-8.261951661495946e+00
1	 1.131484209787248e+00	 1.436459868005326e+00	-5.359327054740358e+00
1	 1.097316848866692e+00	 1.462726632895233e+00	-5.617414134727698e+00
1	 1.062598548324423e+00	 1.488139037350537e+00	-5.878505659052748e+00
1	 1.027361207395227e+00	 1.512680540936246e+00	-6.142750422289698e+00
1	 9.916373404968621e-01	 1.536336178809854e+00	-6.410241621304022e+00
1	 9.554599810361248e-01	 1.559092586739544e+00	-6.681015890945983e+00
1	 9.188625843424173e-01	 1.580938019178275e+00	-6.955052810313765e+00
1	 8.818789303027772e-01	 1.601862360402972e+00	-7.232274877159603e+00
1	 8.445430262633069e-01	 1.621857128781006e+00	-7.512547942700855e+00
1	 8.068890107475842e-01	 1.640915474277252e+00	-7.795682094022303e+00
1	 7.689510585232677e-01	 1.659032169363722e+00	-8.081432966489707e+00
1	 1.140323930176211e+00	 1.447682210724118e+00	-5.201664417669538e+00
1	 1.105889636748463e+00	 1.474154184714728e+00	-5.455440853005525e+00
1	 1.070900099483208e+00	 1.499765123579838e+00	-5.713068627202451e+00
1	 1.035387466828002e+00	 1.524498357662311e+00	-5.974596773192534e+00
1	 9.993845072194940e-01	 1.548338805206806e+00	-6.240003139244739e+00
1	 9.629245121379696e-01	 1.571272997573446e+00	-6.509194672722417e+00
1	 9.260411982825920e-01	 1.593289097453106e+00	-6.782008266312674e+00
1	 8.887686094457674e-01	 1.614376910093621e+00	-7.058212149588241e+00
1	 8.511410186559888e-01	 1.634527887599607e+00	-7.337507802925122e+00
1	 8.131928311440497e-01	 1.653735126420043e+00	-7.619532365420331e+00
1	 7.749584886679808e-01	 1.671993358186876e+00	-7.903861503604627e+00
1	 1.149163650565174e+00	 1.458904553442910e+00	-5.044640067498461e+00
1	 1.114462424630234e+00	 1.485581736534222e+00	-5.294519634112549e+00
1	 1.079201650641992e+00	 1.511391209809139e+00	-5.549084576749213e+00
1	 1.043413726260778e+00	 1.536316174388376e+00	-5.808274714875836e+00
1	 1.007131673942126e+00	 1.560341431603758e+00	-6.071942313590609e+00
1	 9.703890432398143e-01	 1.583453408407350e+00	-6.339853723843914e+00
1	 9.332198122227675e-01	 1.605640175727936e+00	-6.611691680927133e+00
1	 8.956582885887581e-01	 1.626891459784269e+00	-6.887058228196840e+00
1	 8.577390110486710e-01	 1.647198646418209e+00	-7.165478226635760e+00
1	 8.194966515405154e-01	 1.666554778562834e+00	-7.446403405180352e+00
1	 7.809659188126938e-01	 1.684954547010031e+00	-7.729216901842587e+00
1	 7.208916173655637e-01	 1.555342658778490e+00	-9.609958786760966e+00
1	 6.850905820538642e-01	 1.571440868943270e+00	-9.906112294719604e+00
1	 6.490871888498062e-01	 1.586650979729045e+00	-1.020273642917634e+01
1	 6.129130641442304e-01	 1.600972543801240e+00	-1.050063791283388e+01
1	 5.765995340394531e-01	 1.614406543454766e+00	-1.080062342180360e+01
1	 5.401775482239338e-01	 1.626955354826574e+00	-1.110349288279165e+01
1	 5.036776075055799e-01	 1.638622707611955e+00	-1.141003307709676e+01
1	 4.671296952786185e-01	 1.649413640659306e+00	-1.172101159759962e+01
1	 4.305632131593439e-01	 1.659334453833218e+00	-1.203717119887728e+01
1	 3.940069209860292e-01	 1.668392656546771e+00	-1.235922457431773e+01
1	 3.574888813383703e-01	 1.676596913370510e+00	-1.268784958775809e+01
1	 7.268990475102767e-01	 1.568303847601644e+00	-9.408181333072083e+00
1	 6.907996702376463e-01	 1.584536209517797e+00	-9.703716311836011e+00
1	 6.544962487568879e-01	 1.599873071226787e+00	-1.000031034075140e+01
1	 6.180206730120991e-01	 1.614313981666250e+00	-1.029881391517172e+01
1	 5.814045301564486e-01	 1.627859931316890e+00	-1.060008669276942e+01
1	 5.446790277924667e-01	 1.640513316116795e+00	-1.090498995189388e+01
1	 5.078749209014598e-01	 1.652277896842055e+00	-1.121437931942388e+01
1	 4.710224427392737e-01	 1.663158754331467e+00	-1.152909782413255e+01
1	 4.341512399356717e-01	 1.673162240948494e+00	-1.184996932537380e+01
1	 3.972903119942462e-01	 1.682295928684661e+00	-1.217779236036164e+01
1	 3.604679553495234e-01	 1.690568554315264e+00	-1.251333444657445e+01
1	 7.329064776549898e-01	 1.581265036424798e+00	-9.209513356389230e+00
1	 6.965087584214289e-01	 1.597631550092325e+00	-9.504363415918380e+00
1	 6.599053086639698e-01	 1.613095162724529e+00	-9.800811467732025e+00
1	 6.231282818799674e-01	 1.627655419531260e+00	-1.009974682857818e+01
1	 5.862095262734439e-01	 1.641313319179012e+00	-1.040207748221057e+01
1	 5.491805073609994e-01	 1.654071277407016e+00	-1.070872171819349e+01
1	 5.120722342973396e-01	 1.665933086072155e+00	-1.102060000006789e+01
1	 4.749151901999289e-01	 1.676903868003628e+00	-1.133862712870481e+01
1	 4.377392667119995e-01	 1.686990028063771e+00	-1.166370476033149e+01
1	 4.005737030024631e-01	 1.696199200822550e+00	-1.199671433192883e+01
1	 3.634470293606764e-01	 1.704540195260018e+00	-1.233851043959688e+01
1	 7.389139077997030e-01	 1.594226225247952e+00	-9.013929369196882e+00
1	 7.022178466052109e-01	 1.610726890666851e+00	-9.308013246739911e+00
1	 6.653143685710514e-01	 1.626317254222271e+00	-9.604184706124741e+00
1	 6.282358907478365e-01	 1.640996857396271e+00	-9.903367034978771e+00
1	 5.910145223904391e-01	 1.654766707041136e+00	-1.020651198745515e+01
1	 5.536819869295322e-01	 1.667629238697238e+00	-1.051459062234566e+01
1	 5.162695476932192e-01	 1.679588275302254e+00	-1.082858432762755e+01
1	 4.788079376605839e-01	 1.690648981675789e+00	-1.114947610705015e+01
1	 4.413272934883275e-01	 1.700817815179048e+00	-1.147824219792578e+01
1	 4.038570940106800e-01	 1.710102472960439e+00	-1.181584408228232e+01
1	 3.664261033718295e-01	 1.718511836204773e+00	-1.216322094609845e+01
1	 7.449213379444161e-01	 1.607187414071107e+00	-8.821404706157450e+00
1	 7.079269347889930e-01	 1.623822231241378e+00	-9.114626746016649e+00
1	 6.707234284781328e-01	 1.639539345720012e+00	-9.410376729484149e+00
1	 6.333434996157046e-01	 1.654338295261281e+00	-9.709607162043243e+00
1	 5.958195185074345e-01	 1.668220094903258e+00	-1.001330910914314e+01
1	 5.581834664980648e-01	 1.681187199987459e+00	-1.032250225208101e+01
1	 5.204668610890992e-01	 1.693243464532354e+00	-1.063822508461777e+01
1	 4.827006851212390e-01	 1.704394095347949e+00	-1.096152533568530e+01
1	 4.449153202646553e-01	 1.714645602294325e+00	-1.129345069703617e+01
1	 4.071404850188969e-01	 1.724005745098329e+00	-1.163503992748292e+01
1	 3.694051773829825e-01	 1.732483477149527e+00	-1.198731439763383e+01
1	 7.509287680891289e-01	 1.620148602894261e+00	-8.631915491224129e+00
1	 7.136360229727752e-01	 1.636917571815906e+00	-8.924166105329729e+00
1	 6.761324883852148e-01	 1.652761437217755e+00	-9.219335917811208e+00
1	 6.384511084835732e-01	 1.667679733126291e+00	-9.518401993356022e+00
1	 6.006245146244302e-01	 1.681673482765381e+00	-9.822390343094009e+00
1	 5.626849460665977e-01	 1.694745161277680e+00	-1.013236521632301e+01
1	 5.246641744849790e-01	 1.706898653762454e+00	-1.044941848451302e+01
1	 4.865934325818942e-01	 1.718139209020110e+00	-1.077465921267832e+01
1	 4.485033470409830e-01	 1.728473389409602e+00	-1.110920350665785e+01
1	 4.104238760271138e-01	 1.737909017236219e+00	-1.145416471747760e+01
1	 3.723842513941356e-01	 1.746455118094281e+00	-1.181064407594798e+01
1	 7.569361982338417e-01	 1.633109791717414e+00	-8.445438606319843e+00
1	 7.193451111565575e-01	 1.650012912390433e+00	-8.736594716527463e+00
1	 6.815415482922965e-01	 1.665983528715497e+00	-9.031012289836935e+00
1	 6.435587173514418e-01	 1.681021170991301e+00	-9.329688382863779e+00
1	 6.054295107414257e-01	 1.695126870627504e+00	-9.633679677323588e+00
1	 5.671864256351304e-01	 1.708303122567901e+00	-9.944091025298993e+00
1	 5.288614878808590e-01	 1.720553842992553e+00	-1.026206403559808e+01
1	 4.904861800425494e-01	 1.731884322692271e+00	-1.058876580599999e+01
1	 4.520913738173108e-01	 1.742301176524878e+00	-1.092537789962763e+01
1	 4.137072670353307e-01	 1.751812289374108e+00	-1.127308565618329e+01
1	 3.753633254052887e-01	 1.760426759039036e+00	-1.163306792050811e+01
1	 7.629436283785549e-01	 1.646070980540568e+00	-8.261951661495946e+00
1	 7.250541993403395e-01	 1.663108252964961e+00	-8.551877124470957e+00
1	 6.869506081993783e-01	 1.679205620213238e+00	-8.845357438505541e+00
1	 6.486663262193104e-01	 1.694362608856311e+00	-9.143405173365446e+00
1	 6.102345068584211e-01	 1.708580258489627e+00	-9.447103493925775e+00
1	 5.716879052036633e-01	 1.721861083858123e+00	-9.757593976315810e+00
1	 5.330588012767387e-01	 1.734209032222653e+00	-1.007606441125115e+01
1	 4.943789275032046e-01	 1.745629436364432e+00	-1.040373670903925e+01
1	 4.556794005936389e-01	 1.756128963640155e+00	-1.074185501420468e+01
1	 4.169906580435476e-01	 1.765715561511998e+00	-1.109167413007068e+01
1	 3.783423994164417e-01	 1.774398399983790e+00	-1.145444834512907e+01
1	 7.689510585232677e-01	 1.659032169363722e+00	-8.081432966489707e+00
1	 7.307632875241217e-01	 1.676203593539487e+00	-8.369978981994276e+00
1	 6.923596681064599e-01	 1.692427711710981e+00	-8.662324469481831e+00
1	 6.537739350871791e-01	 1.707704046721322e+00	-8.959493118822325e+00
1	 6.150395029754165e-01	 1.722033646351750e+00	-9.262590475554182e+00
1	 5.761893847721959e-01	 1.735419045148344e+00	-9.572791044889408e+00
1	 5.372561146726186e-01	 1.747864221452752e+00	-9.891325326307328e+00
1	 4.982716749638598e-01	 1.759374550036593e+00	-1.021946690289164e+01
1	 4.592674273699666e-01	 1.769956750755432e+00	-1.055851970307755e+01
1	 4.202740490517646e-01	 1.779618833649889e+00	-1.090980554478322e+01
1	 3.813214734275949e-01	 1.788370040928544e+00	-1.127465206319391e+01
1	 7.749584886679808e-01	 1.671993358186876e+00	-7.903861503604627e+00
1	 7.364723757079040e-01	 1.689298934114015e+00	-8.190867006959996e+00
1	 6.977687280135416e-01	 1.705649803208722e+00	-8.481867942518365e+00
1	 6.588815439550476e-01	 1.721045484586332e+00	-8.777894810282302e+00
1	 6.198444990924119e-01	 1.735487034213874e+00	-9.080071516252898e+00
1	 5.806908643407288e-01	 1.748977006438566e+00	-9.389601780938419e+00
1	 5.414534280684983e-01	 1.761519410682852e+00	-9.707755419172736e+00
1	 5.021644224245149e-01	 1.773119663708754e+00	-1.003585462505291e+01
1	 4.628554541462946e-01	 1.783784537870709e+00	-1.037526038939414e+01
1	 4.235574400599815e-01	 1.793522105787778e+00	-1.072735916935535e+01
1	 3.843005474387480e-01	 1.802341681873299e+00	-1.109354992100404e+01
1	 7.809659188126938e-01	 1.684954547010031e+00	-7.729216901842587e+00
1	 7.421814638916863e-01	 1.702394274688543e+00	-8.014508941296343e+00
1	 7.031777879206234e-01	 1.718871894706465e+00	-8.303943815529246e+00
1	 6.639891528229160e-01	 1.734386922451343e+00	-8.598554605222489e+00
1	 6.246494952094075e-01	 1.748940422075997e+00	-8.899479636403157e+00
1	 5.851923439092619e-01	 1.762534967728788e+00	-9.207948209768563e+00
1	 5.456507414643782e-01	 1.775174599912952e+00	-9.525266139379443e+00
1	 5.060571698851701e-01	 1.786864777380915e+00	-9.852801244172657e+00
1	 4.664434809226226e-01	 1.797612324985986e+00	-1.019196892943620e+01
1	 4.268408310681985e-01	 1.807425377925668e+00	-1.054421798762031e+01
1	 3.872796214499012e-01	 1.816313322818053e+00	-1.091101673882080e+01
1	 3.574888813383703e-01	 1.676596913370510e+00	-1.268784958775809e+01
1	 3.210364086924502e-01	 1.683956987128215e+00	-1.301841550589936e+01
1	 2.846760232887887e-01	 1.690483679888263e+00	-1.334356302718401e+01
1	 2.484334097539916e-01	 1.696188772254459e+00	-1.365975000645640e+01
1	 2.123333804811160e-01	 1.701084961351885e+00	-1.396333800980156e+01
1	 1.763998437404562e-01	 1.705185797891955e+00	-1.425063444518592e+01
1	 1.406557764612708e-01	 1.708505622686726e+00	-1.451793263649635e+01
1	 1.051232015961897e-01	 1.711059502965998e+00	-1.476154961173544e+01
1	 6.982316995383152e-02	 1.712863168832140e+00	-1.497786141577630e+01
1	 3.477574636162224e-02	 1.713932950167268e+00	-1.516333579708271e+01
1	 0.000000000000000e+00	 1.714285714285714e+00	-1.531456215565260e+01
1	 3.604679553495234e-01	 1.690568554315264e+00	-1.251333444657445e+01
1	 3.237117120982206e-01	 1.697989962020950e+00	-1.285147584009122e+01
1	 2.870483234828618e-01	 1.704571043887332e+00	-1.318458213845637e+01
1	 2.505036881686081e-01	 1.710323678689912e+00	-1.350950092083776e+01
1	 2.141028253184586e-01	 1.715260669363150e+00	-1.382295191573013e+01
1	 1.778698424382933e-01	 1.719395679541055e+00	-1.412156840542651e+01
1	 1.418279079317814e-01	 1.722743169542450e+00	-1.440193684085097e+01
1	 1.059992282761580e-01	 1.725318332157382e+00	-1.466063442517534e+01
1	 7.040502970344679e-02	 1.727137028572408e+00	-1.489426446256584e+01
1	 3.506554424796907e-02	 1.728215724751995e+00	-1.509948930598731e+01
1	 0.000000000000000e+00	 1.728571428571429e+00	-1.527306077470923e+01
1	 3.634470293606764e-01	 1.704540195260018e+00	-1.233851043959688e+01
1	 3.263870155039911e-01	 1.712022936913685e+00	-1.268346298383202e+01
1	 2.894206236769351e-01	 1.718658407886401e+00	-1.302374679691019e+01
1	 2.525739665832247e-01	 1.724458585125366e+00	-1.335675515753251e+01
1	 2.158722701558012e-01	 1.729436377374416e+00	-1.367972066152459e+01
1	 1.793398411361305e-01	 1.733605561190154e+00	-1.398975478876950e+01
1	 1.430000394022920e-01	 1.736980716398172e+00	-1.428388602528570e+01
1	 1.068752549561262e-01	 1.739577161348765e+00	-1.455909629072276e+01
1	 7.098688945306204e-02	 1.741410888312676e+00	-1.481235545663789e+01
1	 3.535534213431592e-02	 1.742498499336722e+00	-1.504065377600255e+01
1	 0.000000000000000e+00	 1.742857142857143e+00	-1.524103207895909e+01
1	 3.664261033718295e-01	 1.718511836204773e+00	-1.216322094609845e+01
1	 3.290623189097613e-01	 1.726055911806420e+00	-1.251422124432150e+01
1	 2.917929238710082e-01	 1.732745771885470e+00	-1.286092098627054e+01
1	 2.546442449978413e-01	 1.738593491560819e+00	-1.320141125010144e+01
1	 2.176417149931439e-01	 1.743612085385682e+00	-1.353358835868038e+01
1	 1.808098398339676e-01	 1.747815442839254e+00	-1.385519051219918e+01
1	 1.441721708728026e-01	 1.751218263253894e+00	-1.416383339760003e+01
1	 1.077512816360945e-01	 1.753835990540148e+00	-1.445704452107465e+01
1	 7.156874920267729e-02	 1.755684748052943e+00	-1.473229604105516e+01
1	 3.564514002066279e-02	 1.756781273921450e+00	-1.498703591064575e+01
1	 0.000000000000000e+00	 1.757142857142857e+00	-1.521871716986928e+01
1	 3.694051773829825e-01	 1.732483477149527e+00	-1.198731439763383e+01
1	 3.317376223155319e-01	 1.740088886699155e+00	-1.234359995110809e+01
1	 2.941652240650815e-01	 1.746833135884538e+00	-1.269597307788414e+01
1	 2.567145234124579e-01	 1.752728397996273e+00	-1.304337100521607e+01
1	 2.194111598304865e-01	 1.757787793396947e+00	-1.338450092154797e+01
1	 1.822798385318048e-01	 1.762025324488354e+00	-1.371787259215186e+01
1	 1.453443023433132e-01	 1.765455810109617e+00	-1.404183044921267e+01
1	 1.086273083160627e-01	 1.768094819731531e+00	-1.435458490271207e+01
1	 7.215060895229257e-02	 1.769958607793211e+00	-1.465424264458818e+01
1	 3.593493790700963e-02	 1.771064048506176e+00	-1.493883574557917e+01
1	 0.000000000000000e+00	 1.771428571428571e+00	-1.520634937144021e+01
1	 3.723842513941356e-01	 1.746455118094281e+00	-1.181064407594798e+01
1	 3.344129257213023e-01	 1.754121861591890e+00	-1.217145325519433e+01
1	 2.965375242591547e-01	 1.760920499883607e+00	-1.252877565521474e+01
1	 2.587848018270745e-01	 1.766863304431727e+00	-1.288253937173469e+01
1	 2.211806046678291e-01	 1.771963501408213e+00	-1.323240599521838e+01
1	 1.837498372296419e-01	 1.776235206137454e+00	-1.357779814053783e+01
1	 1.465164338138238e-01	 1.779693356965340e+00	-1.391792702381722e+01
1	 1.095033349960310e-01	 1.782353648922915e+00	-1.425181983694860e+01
1	 7.273246870190783e-02	 1.784232467533479e+00	-1.457834669028673e+01
1	 3.622473579335649e-02	 1.785346823090904e+00	-1.489624691532386e+01
1	 0.000000000000000e+00	 1.785714285714285e+00	-1.520415454130426e+01
1	 3.753633254052887e-01	 1.760426759039036e+00	-1.163306792050811e+01
1	 3.370882291270726e-01	 1.768154836484625e+00	-1.199763993770986e+01
1	 2.989098244532279e-01	 1.775007863882676e+00	-1.235920534669544e+01
1	 2.608550802416911e-01	 1.780998210867182e+00	-1.271882431601193e+01
1	 2.229500495051717e-01	 1.786139209419479e+00	-1.307725288684355e+01
1	 1.852198359274790e-01	 1.790445087786553e+00	-1.343496436095285e+01
1	 1.476885652843344e-01	 1.793930903821063e+00	-1.379217138276746e+01
1	 1.103793616759992e-01	 1.796612478114298e+00	-1.414884847426246e+01
1	 7.331432845152309e-02	 1.798506327273746e+00	-1.450475479411965e+01
1	 3.651453367970334e-02	 1.799629597675631e+00	-1.485945690727280e+01
1	 0.000000000000000e+00	 1.800000000000000e+00	-1.521235136701032e+01
1	 3.783423994164417e-01	 1.774398399983790e+00	-1.145444834512907e+01
1	 3.397635325328431e-01	 1.782187811377361e+00	-1.182202322762280e+01
1	 3.012821246473013e-01	 1.789095227881745e+00	-1.218714266647800e+01
1	 2.629253586563077e-01	 1.795133117302635e+00	-1.255213670310001e+01
1	 2.247194943425144e-01	 1.800314917430744e+00	-1.291899250020037e+01
1	 1.866898346253162e-01	 1.804654969435653e+00	-1.328936854506841e+01
1	 1.488606967548450e-01	 1.808168450676785e+00	-1.366461026737483e+01
1	 1.112553883559674e-01	 1.810871307305681e+00	-1.404576684228219e+01
1	 7.389618820113837e-02	 1.812780187014014e+00	-1.443360895423006e+01
1	 3.680433156605019e-02	 1.813912372260358e+00	-1.482864730370477e+01
1	 0.000000000000000e+00	 1.814285714285714e+00	-1.523115164831035e+01
1	 3.813214734275949e-01	 1.788370040928544e+00	-1.127465206319392e+01
1	 3.424388359386135e-01	 1.796220786270096e+00	-1.164447062799586e+01
1	 3.036544248413745e-01	 1.803182591880814e+00	-1.201247186264687e+01
1	 2.649956370709242e-01	 1.809268023738089e+00	-1.238239018351828e+01
1	 2.264889391798570e-01	 1.814490625442010e+00	-1.275757727332265e+01
1	 1.881598333231533e-01	 1.818864851084752e+00	-1.314100806919122e+01
1	 1.500328282253555e-01	 1.822405997532508e+00	-1.353528895828455e+01
1	 1.121314150359357e-01	 1.825130136497064e+00	-1.394266796777297e+01
1	 7.447804795075362e-02	 1.827054046754282e+00	-1.436504673131901e+01
1	 3.709412945239704e-02	 1.828195146845085e+00	-1.480399401245207e+01
1	 0.000000000000000e+00	 1.828571428571428e+00	-1.526076056621423e+01
1	 3.843005474387480e-01	 1.802341681873299e+00	-1.109354992100404e+01
1	 3.451141393443839e-01	 1.810253761162831e+00	-1.146485375032408e+01
1	 3.060267250354476e-01	 1.817269955879882e+00	-1.183508077249336e+01
1	 2.670659154855408e-01	 1.823402930173542e+00	-1.220950108528935e+01
1	 2.282583840171996e-01	 1.828666333453276e+00	-1.259296111903408e+01
1	 1.896298320209904e-01	 1.833074732733851e+00	-1.298988039098280e+01
1	 1.512049596958661e-01	 1.836643544388231e+00	-1.340425133209095e+01
1	 1.130074417159039e-01	 1.839388965688447e+00	-1.383964199294898e+01
1	 7.505990770036886e-02	 1.841327906494550e+00	-1.429920142063957e+01
1	 3.738392733874390e-02	 1.842477921429813e+00	-1.478566748684047e+01
1	 0.000000000000000e+00	 1.842857142857143e+00	-1.530137693952977e+01
1	 3.872796214499012e-01	 1.816313322818053e+00	-1.091101673882080e+01
1	 3.477894427501543e-01	 1.824286736055566e+00	-1.128304815651784e+01
1	 3.083990252295210e-01	 1.831357319878951e+00	-1.165486068446874e+01
1	 2.691361939001575e-01	 1.837537836608996e+00	-1.203338831095816e+01
1	 2.300278288545423e-01	 1.842842041464542e+00	-1.242509936822513e+01
1	 1.910998307188276e-01	 1.847284614382951e+00	-1.283598304633054e+01
1	 1.523770911663767e-01	 1.850881091243954e+00	-1.327153991533931e+01
1	 1.138834683958722e-01	 1.853647794879832e+00	-1.373677628641806e+01
1	 7.564176744998415e-02	 1.855601766234818e+00	-1.423620221605231e+01
1	 3.767372522509075e-02	 1.856760696014540e+00	-1.477383293547829e+01
1	 0.000000000000000e+00	 1.857142857142857e+00	-1.535319346956314e+01
1	 1.857142857142857e+00	 0.000000000000000e+00	 2.772160814127363e+00
1	 1.856760696014540e+00	 3.767372522508970e-02	 2.558671932836427e+00
1	 1.855601766234818e+00	 7.564176744998323e-02	 2.349787346040073e+00
1	 1.853647794879831e+00	 1.138834683958714e-01	 2.146639173410778e+00
1	 1.850881091243954e+00	 1.523770911663761e-01	 1.950049896669927e+00
1	 1.847284614382952e+00	 1.910998307188271e-01	 1.760510499538951e+00
1	 1.842842041464542e+00	 2.300278288545419e-01	 1.578159769943759e+00
1	 1.837537836608996e+00	 2.691361939001572e-01	 1.402765027202480e+00
1	 1.831357319878951e+00	 3.083990252295208e-01	 1.233704541333422e+00
1	 1.824286736055566e+00	 3.477894427501544e-01	 1.069951912927216e+00
1	 1.816313322818053e+00	 3.872796214499010e-01	 9.100626799402466e-01
1	 1.871428571428572e+00	 0.000000000000000e+00	 2.677024095563686e+00
1	 1.871043470599267e+00	 3.796352311143655e-02	 2.468187023484898e+00
1	 1.869875625975086e+00	 7.622362719959845e-02	 2.264984390493880e+00
1	 1.867906624071215e+00	 1.147594950758397e-01	 2.068350015241418e+00
1	 1.865118638099676e+00	 1.535492226368867e-01	 1.878891441598273e+00
1	 1.861494496032051e+00	 1.925698294166642e-01	 1.696868843560175e+00
1	 1.857017749475808e+00	 2.317972736918846e-01	 1.522175265109105e+00
1	 1.851672743044450e+00	 2.712064723147739e-01	 1.354318461413573e+00
1	 1.845444683878020e+00	 3.107713254235941e-01	 1.192404610526978e+00
1	 1.838319710948301e+00	 3.504647461559249e-01	 1.035124164258012e+00
1	 1.830284963762807e+00	 3.902586954610540e-01	 8.807401028609132e-01
1	 1.885714285714286e+00	 0.000000000000000e+00	 2.589360810950870e+00
1	 1.885326245183995e+00	 3.825332099778341e-02	 2.383480225094873e+00
1	 1.884149485715354e+00	 7.680548694921373e-02	 2.184799644759133e+00
1	 1.882165453262598e+00	 1.156355217558080e-01	 1.993940885273566e+00
1	 1.879356184955399e+00	 1.547213541073972e-01	 1.811192133515166e+00
1	 1.875704377681151e+00	 1.940398281145013e-01	 1.636488892458629e+00
1	 1.871193457487073e+00	 2.335667185292272e-01	 1.469396431488674e+00
1	 1.865807649479904e+00	 2.732767507293904e-01	 1.309094001022962e+00
1	 1.859532047877089e+00	 3.131436256176673e-01	 1.154361070420887e+00
1	 1.852352685841037e+00	 3.531400495616954e-01	 1.003565845255988e+00
1	 1.844256604707561e+00	 3.932377694722071e-01	 8.546563135619638e-01
1	 1.900000000000000e+00	 0.000000000000000e+00	 2.510520022648040e+00
1	 1.899609019768722e+00	 3.854311888413024e-02	 2.305425850640892e+00
1	 1.898423345455622e+00	 7.738734669882900e-02	 2.109690449520174e+00
1	 1.896424282453981e+00	 1.165115484357762e-01	 1.923512336222383e+00
1	 1.893593731811122e+00	 1.558934855779079e-01	 1.746758183807767e+00
1	 1.889914259330250e+00	 1.955098268123384e-01	 1.578947064199468e+00
1	 1.885369165498339e+00	 2.353361633665698e-01	 1.419236365603626e+00
1	 1.879942555915358e+00	 2.753470291440070e-01	 1.266409623960280e+00
1	 1.873619411876158e+00	 3.155159258117405e-01	 1.118866505138127e+00
1	 1.866385660733772e+00	 3.558153529674657e-01	 9.746151686626785e-01
1	 1.858228245652316e+00	 3.962168434833602e-01	 8.312672343608325e-01
1	 1.914285714285714e+00	 0.000000000000000e+00	 2.441810522496178e+00
1	 1.913891794353449e+00	 3.883291677047709e-02	 2.234872114202712e+00
1	 1.912697205195890e+00	 7.796920644844424e-02	 2.040100493500673e+00
1	 1.910683111645364e+00	 1.173875751157444e-01	 1.857161919229470e+00
1	 1.907831278666844e+00	 1.570656170484184e-01	 1.685401588597966e+00
1	 1.904124140979350e+00	 1.969798255101755e-01	 1.523832420987698e+00
1	 1.899544873509605e+00	 2.371056082039125e-01	 1.371125683481945e+00
1	 1.894077462350812e+00	 2.774173075586236e-01	 1.225603667022918e+00
1	 1.887706775875227e+00	 3.178882260058138e-01	 1.085234615693514e+00
1	 1.880418635626507e+00	 3.584906563732363e-01	 9.476301020631277e-01
1	 1.872199886597070e+00	 3.991959174945133e-01	 8.100450286998011e-01
1	 1.928571428571428e+00	 0.000000000000000e+00	 2.384502323318702e+00
1	 1.928174568938176e+00	 3.912271465682392e-02	 2.172642097591083e+00
1	 1.926971064936157e+00	 7.855106619805947e-02	 1.976460319091710e+00
1	 1.924941940836748e+00	 1.182636017957127e-01	 1.794984295032211e+00
1	 1.922068825522567e+00	 1.582377485189289e-01	 1.626939914492935e+00
1	 1.918334022628450e+00	 1.984498242080127e-01	 1.470746200962979e+00
1	 1.913720581520870e+00	 2.388750530412551e-01	 1.324511871787824e+00
1	 1.908212368786266e+00	 2.794875859732402e-01	 1.186034071843915e+00
1	 1.901794139874295e+00	 3.202605261998870e-01	 1.052799437886611e+00
1	 1.894451610519242e+00	 3.611659597790065e-01	 9.219876362250627e-01
1	 1.886171527541824e+00	 4.021749915056664e-01	 7.904774996228714e-01
1	 1.942857142857142e+00	 0.000000000000000e+00	 2.339828084620742e+00
1	 1.942457343522903e+00	 3.941251254317078e-02	 2.119534674328178e+00
1	 1.941244924676425e+00	 7.913292594767478e-02	 1.919187805672882e+00
1	 1.939200770028131e+00	 1.191396284756809e-01	 1.737071340228655e+00
1	 1.936306372378290e+00	 1.594098799894396e-01	 1.571196093787836e+00
1	 1.932543904277549e+00	 1.999198229058498e-01	 1.419301370554997e+00
1	 1.927896289532136e+00	 2.406444978785977e-01	 1.278858667577678e+00
1	 1.922347275221719e+00	 2.815578643878568e-01	 1.147077664125925e+00
1	 1.915881503873364e+00	 3.226328263939603e-01	 1.020914594699364e+00
1	 1.908484585411977e+00	 3.638412631847770e-01	 8.970830857171400e-01
1	 1.900143168486578e+00	 4.051540655168194e-01	 7.720675147903859e-01
1	 1.957142857142857e+00	 0.000000000000000e+00	 2.308984475848857e+00
1	 1.956740118107630e+00	 3.970231042951762e-02	 2.076325393161806e+00
1	 1.955518784416693e+00	 7.971478569729003e-02	 1.868688631765965e+00
1	 1.953459599219514e+00	 1.200156551556491e-01	 1.683512248888438e+00
1	 1.950543919234012e+00	 1.605820114599502e-01	 1.517998228637874e+00
1	 1.946753785926649e+00	 2.013898216036869e-01	 1.369122196443650e+00
1	 1.942071997543402e+00	 2.424139427159403e-01	 1.233645465220161e+00
1	 1.936482181657173e+00	 2.836281428024734e-01	 1.108129464441582e+00
1	 1.929968867872432e+00	 3.250051265880335e-01	 9.889525814353961e-01
1	 1.922517560304712e+00	 3.665165665905474e-01	 8.723294201571251e-01
1	 1.914114809431332e+00	 4.081331395279725e-01	 7.543324566755276e-01
1	 1.971428571428571e+00	 0.000000000000000e+00	 2.293133480378700e+00
1	 1.971022892692358e+00	 3.999210831586446e-02	 2.043767323165952e+00
1	 1.969792644156961e+00	 8.029664544690526e-02	 1.825356717095054e+00
1	 1.967718428410897e+00	 1.208916818356174e-01	 1.634393629745891e+00
1	 1.964781466089736e+00	 1.617541429304608e-01	 1.467179403744442e+00
1	 1.960963667575749e+00	 2.028598203015241e-01	 1.319843836129724e+00
1	 1.956247705554667e+00	 2.441833875532830e-01	 1.188366749102214e+00
1	 1.950617088092627e+00	 2.856984212170900e-01	 1.068602028999122e+00
1	 1.944056231871502e+00	 3.273774267821068e-01	 9.563040819402608e-01
1	 1.936550535197447e+00	 3.691918699963179e-01	 8.471566245361761e-01
1	 1.928086450376086e+00	 4.111122135391256e-01	 7.368036966653078e-01
1	 1.985714285714285e+00	 0.000000000000000e+00	 2.293403643215395e+00
1	 1.985305667277085e+00	 4.028190620221130e-02	 2.022591862362074e+00
1	 1.984066503897229e+00	 8.087850519652053e-02	 1.789574645564733e+00
1	 1.981977257602281e+00	 1.217677085155856e-01	 1.589799599197578e+00
1	 1.979019012945458e+00	 1.629262744009713e-01	 1.418577507126890e+00
1	 1.975173549224848e+00	 2.043298189993612e-01	 1.271111946178700e+00
1	 1.970423413565933e+00	 2.459528323906256e-01	 1.142531550822658e+00
1	 1.964751994528080e+00	 2.877686996317065e-01	 1.027924818864068e+00
1	 1.958143595870570e+00	 3.297497269761800e-01	 9.223773143373467e-01
1	 1.950583510090182e+00	 3.718671734020883e-01	 8.210110871550649e-01
1	 1.942058091320841e+00	 4.140912875502787e-01	 7.190260918622082e-01
1	 2.000000000000000e+00	 0.000000000000000e+00	 2.310891265221072e+00
1	 1.999588441861812e+00	 4.057170408855815e-02	 2.013509511685353e+00
1	 1.998340363637497e+00	 8.146036494613579e-02	 1.761714070111029e+00
1	 1.996236086793665e+00	 1.226437351955539e-01	 1.549811870314551e+00
1	 1.993256559801181e+00	 1.640984058714819e-01	 1.372035058575453e+00
1	 1.989383430873948e+00	 2.057998176971984e-01	 1.222582307254231e+00
1	 1.984599121577199e+00	 2.477222772279683e-01	 1.095662929648955e+00
1	 1.978886900963535e+00	 2.898389780463232e-01	 9.855435962143797e-01
1	 1.972230959869640e+00	 3.321220271702533e-01	 8.865974048036305e-01
1	 1.964616484982918e+00	 3.745424768078588e-01	 7.933550137916631e-01
1	 1.956029732265595e+00	 4.170703615614318e-01	 7.005575034515000e-01
1	 1.816313322818053e+00	 3.872796214499010e-01	 9.100626799402466e-01
1	 1.807425377925668e+00	 4.268408310681971e-01	 7.523534873348454e-01
1	 1.797612324985986e+00	 4.664434809226215e-01	 5.961868231052806e-01
1	 1.786864777380915e+00	 5.060571698851692e-01	 4.413114636788654e-01
1	 1.775174599912952e+00	 5.456507414643776e-01	 2.874019295994373e-01
1	 1.762534967728788e+00	 5.851923439092610e-01	 1.340580684146437e-01
1	 1.748940422075997e+00	 6.246494952094070e-01	-1.919479009056996e-02
1	 1.734386922451343e+00	 6.639891528229159e-01	-1.729050793675684e-01
1	 1.718871894706465e+00	 7.031777879206232e-01	-3.276936206522329e-01
1	 1.702394274688542e+00	 7.421814638916866e-01	-4.842516108730633e-01
1	 1.684954547010031e+00	 7.809659188126941e-01	-6.433379646669050e-01
1	 1.830284963762807e+00	 3.902586954610540e-01	 8.807401028609132e-01
1	 1.821328650063559e+00	 4.301242220764143e-01	 7.279652086909050e-01
1	 1.811440112101263e+00	 4.700315076989492e-01	 5.767490177862169e-01
1	 1.800609891053076e+00	 5.099499173458243e-01	 4.268279127570043e-01
1	 1.788829789143052e+00	 5.498480548602573e-01	 2.778637589185495e-01
1	 1.776092929019010e+00	 5.896938234777940e-01	 1.294435316707012e-01
1	 1.762393809938120e+00	 6.294544913264023e-01	-1.892048059654572e-02
1	 1.747728360316353e+00	 6.690967616907845e-01	-1.677898713450208e-01
1	 1.732093986204207e+00	 7.085868478277051e-01	-3.177986871068197e-01
1	 1.715489615263070e+00	 7.478905520754687e-01	-4.696513596660620e-01
1	 1.697915735833185e+00	 7.869733489574072e-01	-6.241199902915611e-01
1	 1.844256604707561e+00	 3.932377694722071e-01	 8.546563135619638e-01
1	 1.835231922201447e+00	 4.334076130846310e-01	 7.067132533627274e-01
1	 1.825267899216540e+00	 4.736195344752773e-01	 5.602719810542180e-01
1	 1.814355004725237e+00	 5.138426648064794e-01	 4.150848932944891e-01
1	 1.802484978373151e+00	 5.540453682561373e-01	 2.708258506127614e-01
1	 1.789650890309231e+00	 5.941953030463267e-01	 1.270895329791649e-01
1	 1.775847197800243e+00	 6.342594874433982e-01	-1.660860683372511e-02
1	 1.761069798181364e+00	 6.742043705586529e-01	-1.608317618749230e-01
1	 1.745316077701950e+00	 7.139959077347867e-01	-3.062205368598309e-01
1	 1.728584955837597e+00	 7.535996402592509e-01	-4.534910425839214e-01
1	 1.710876924656339e+00	 7.929807791021203e-01	-6.034323069626436e-01
1	 1.858228245652316e+00	 3.962168434833602e-01	 8.312672343608325e-01
1	 1.849135194339338e+00	 4.366910040928479e-01	 6.881992667069580e-01
1	 1.839095686331816e+00	 4.772075612516050e-01	 5.464860977564564e-01
1	 1.828100118397398e+00	 5.177354122671347e-01	 4.059240639239407e-01
1	 1.816140167603251e+00	 5.582426816520172e-01	 2.662232477947037e-01
1	 1.803208851599452e+00	 5.986967826148596e-01	 1.270062494908104e-01
1	 1.789300585662366e+00	 6.390644835603934e-01	-1.219240303595182e-02
1	 1.774411236046374e+00	 6.793119794265218e-01	-1.519261673877112e-01
1	 1.758538169199691e+00	 7.194049676418685e-01	-2.928356920053835e-01
1	 1.741680296412124e+00	 7.593087284430331e-01	-4.356472879613402e-01
1	 1.723838113479493e+00	 7.989882092468331e-01	-5.811706489524074e-01
1	 1.872199886597070e+00	 3.991959174945133e-01	 8.100450286998011e-01
1	 1.863038466477227e+00	 4.399743951010648e-01	 6.720367852636067e-01
1	 1.852923473447093e+00	 4.807955880279328e-01	 5.351298009536162e-01
1	 1.841845232069558e+00	 5.216281597277898e-01	 3.991918098859686e-01
1	 1.829795356833351e+00	 5.624399950478969e-01	 2.639929325885702e-01
1	 1.816766812889674e+00	 6.031982621833923e-01	 1.292035545608666e-01
1	 1.802753973524489e+00	 6.438694796773888e-01	-5.607096445016502e-03
1	 1.787752673911384e+00	 6.844195882943902e-01	-1.409716262114174e-01
1	 1.771760260697433e+00	 7.248140275489501e-01	-2.775243605452363e-01
1	 1.754775636986651e+00	 7.650178166268151e-01	-4.160004068693096e-01
1	 1.736799302302648e+00	 8.049956393915464e-01	-5.572338629428786e-01
1	 1.886171527541824e+00	 4.021749915056664e-01	 7.904774996228714e-01
1	 1.876941738615117e+00	 4.432577861092817e-01	 6.578507963418900e-01
1	 1.866751260562370e+00	 4.843836148042608e-01	 5.259492738379208e-01
1	 1.855590345741720e+00	 5.255209071884449e-01	 3.947390679696013e-01
1	 1.843450546063450e+00	 5.666373084437768e-01	 2.640737543148760e-01
1	 1.830324774179895e+00	 6.076997417519249e-01	 1.336910290007060e-01
1	 1.816207361386612e+00	 6.486744757943843e-01	 3.210166504456269e-03
1	 1.801094111776395e+00	 6.895271971622586e-01	-1.278696829458404e-01
1	 1.784982352195175e+00	 7.302230874560320e-01	-2.601702998736872e-01
1	 1.767870977561179e+00	 7.707269048105972e-01	-3.944342567174452e-01
1	 1.749760491125801e+00	 8.110030695362590e-01	-5.315237927514426e-01
1	 1.900143168486578e+00	 4.051540655168194e-01	 7.720675147903859e-01
1	 1.890845010753007e+00	 4.465411771174986e-01	 6.452773170360344e-01
1	 1.880579047677646e+00	 4.879716415805885e-01	 5.186981648018228e-01
1	 1.869335459413880e+00	 5.294136546491001e-01	 3.924211591759592e-01
1	 1.857105735293550e+00	 5.708346218396565e-01	 2.664063608435321e-01
1	 1.843882735470116e+00	 6.122012213204578e-01	 1.404779718331279e-01
1	 1.829660749248735e+00	 6.534794719113795e-01	 1.432039074356356e-02
1	 1.814435549641405e+00	 6.946348060301275e-01	-1.125247779378353e-01
1	 1.798204443692917e+00	 7.356321473631136e-01	-2.406606862852025e-01
1	 1.780966318135706e+00	 7.764359929943796e-01	-3.708361108739150e-01
1	 1.762721679948956e+00	 8.170104996809723e-01	-5.039451691420300e-01
1	 1.914114809431332e+00	 4.081331395279725e-01	 7.543324566755276e-01
1	 1.904748282890896e+00	 4.498245681257155e-01	 6.339629916783974e-01
1	 1.894406834792923e+00	 4.915596683569164e-01	 5.131373149854336e-01
1	 1.883080573086041e+00	 5.333064021097551e-01	 3.920976287105054e-01
1	 1.870760924523649e+00	 5.750319352355362e-01	 2.709331329533554e-01
1	 1.857440696760338e+00	 6.167027008889905e-01	 1.495734105766204e-01
1	 1.843114137110859e+00	 6.582844680283750e-01	 2.778280003753097e-02
1	 1.827776987506415e+00	 6.997424148979960e-01	-9.484414159713295e-02
1	 1.811426535190659e+00	 7.410412072701953e-01	-2.188859901970351e-01
1	 1.794061658710233e+00	 7.821450811781617e-01	-3.450965339953995e-01
1	 1.775682868772110e+00	 8.230179298256854e-01	-4.744055044621092e-01
1	 1.928086450376086e+00	 4.111122135391256e-01	 7.368036966653078e-01
1	 1.918651555028787e+00	 4.531079591339324e-01	 6.235647067945917e-01
1	 1.908234621908200e+00	 4.951476951332443e-01	 5.090344976697401e-01
1	 1.896825686758202e+00	 5.371991495704104e-01	 3.936320929321748e-01
1	 1.884416113753749e+00	 5.792292486314160e-01	 2.775981215455191e-01
1	 1.870998658050559e+00	 6.212041804575233e-01	 1.609861110824661e-01
1	 1.856567524972981e+00	 6.630894641453706e-01	 4.365490152071205e-02
1	 1.841118425371425e+00	 7.048500237658645e-01	-7.473769330708563e-02
1	 1.824648626688401e+00	 7.464502671772769e-01	-1.947398567969596e-01
1	 1.807156999284760e+00	 7.878541693619439e-01	-3.171092627775146e-01
1	 1.788644057595264e+00	 8.290253599703984e-01	-4.428149918606541e-01
1	 1.942058091320841e+00	 4.140912875502787e-01	 7.190260918622082e-01
1	 1.932554827166676e+00	 4.563913501421493e-01	 6.137492226792937e-01
1	 1.922062409023478e+00	 4.987357219095723e-01	 5.061641689190036e-01
1	 1.910570800430363e+00	 5.410918970310654e-01	 3.968920929089907e-01
1	 1.898071302983849e+00	 5.834265620272959e-01	 2.863469875672057e-01
1	 1.884556619340781e+00	 6.257056600260561e-01	 1.747245869472354e-01
1	 1.870020912835105e+00	 6.678944602623660e-01	 6.199254744588945e-02
1	 1.854459863236436e+00	 7.099576326337331e-01	-5.211794469901343e-02
1	 1.837870718186143e+00	 7.518593270843589e-01	-1.681189918428785e-01
1	 1.820252339859287e+00	 7.935632575457262e-01	-2.867710918526993e-01
1	 1.801605246418418e+00	 8.350327901151113e-01	-4.090864088564754e-01
1	 1.956029732265595e+00	 4.170703615614318e-01	 7.005575034515000e-01
1	 1.946458099304566e+00	 4.596747411503663e-01	 6.041928207616047e-01
1	 1.935890196138754e+00	 5.023237486859001e-01	 5.043072289099427e-01
1	 1.924315914102524e+00	 5.449846444917207e-01	 4.017489542498842e-01
1	 1.911726492213948e+00	 5.876238754231758e-01	 2.971269445099597e-01
1	 1.898114580631002e+00	 6.302071395945890e-01	 1.907971085218851e-01
1	 1.883474300697228e+00	 6.726994563793616e-01	 8.284999428720358e-02
1	 1.867801301101446e+00	 7.150652415016019e-01	-2.689990707191015e-02
1	 1.851092809683886e+00	 7.572683869914406e-01	-1.389230523567584e-01
1	 1.833347680433815e+00	 7.992723457295086e-01	-2.539817645781741e-01
1	 1.814566435241572e+00	 8.410402202598246e-01	-3.731350250392625e-01
1	 1.684954547010031e+00	 7.809659188126941e-01	-6.433379646669050e-01
1	 1.666554778562835e+00	 8.194966515405140e-01	-8.090778058233589e-01
1	 1.647198646418210e+00	 8.577390110486701e-01	-9.847644690971954e-01
1	 1.626891459784270e+00	 8.956582885887572e-01	-1.169901380769289e+00
1	 1.605640175727937e+00	 9.332198122227667e-01	-1.363917948403213e+00
1	 1.583453408407349e+00	 9.703890432398138e-01	-1.566171991223796e+00
1	 1.560341431603759e+00	 1.007131673942125e+00	-1.775952761211615e+00
1	 1.536316174388376e+00	 1.043413726260777e+00	-1.992484542062990e+00
1	 1.511391209809139e+00	 1.079201650641992e+00	-2.214930806291839e+00
1	 1.485581736534221e+00	 1.114462424630234e+00	-2.442398903945298e+00
1	 1.458904553442911e+00	 1.149163650565174e+00	-2.673945249782700e+00
1	 1.697915735833185e+00	 7.869733489574072e-01	-6.241199902915611e-01
1	 1.679374430705627e+00	 8.258004719369799e-01	-7.851480692095918e-01
1	 1.659869405236812e+00	 8.643370034413524e-01	-9.558362468995253e-01
1	 1.639406009474919e+00	 9.025479677317478e-01	-1.135680432669011e+00
1	 1.617991254002767e+00	 9.403984261629419e-01	-1.324097135624704e+00
1	 1.595633819241253e+00	 9.778535743416581e-01	-1.520425969041239e+00
1	 1.572344058000711e+00	 1.014878840664757e+00	-1.723932795285651e+00
1	 1.548133991114441e+00	 1.051439985693553e+00	-1.933813498505027e+00
1	 1.523017296038441e+00	 1.087503201800777e+00	-2.149198364813504e+00
1	 1.497009288353716e+00	 1.123035212512005e+00	-2.369157042301183e+00
1	 1.470126896161702e+00	 1.158003370954136e+00	-2.592704045955263e+00
1	 1.710876924656339e+00	 7.929807791021203e-01	-6.034323069626436e-01
1	 1.692194082848417e+00	 8.321042923334450e-01	-7.598017146620769e-01
1	 1.672540164055414e+00	 8.709349958340343e-01	-9.255057635146819e-01
1	 1.651920559165566e+00	 9.094376468747377e-01	-1.100045593697877e+00
1	 1.630342332277597e+00	 9.475770401031167e-01	-1.282838091037340e+00
1	 1.607814230075155e+00	 9.853181054435031e-01	-1.473218390039241e+00
1	 1.584346684397663e+00	 1.022626007387389e+00	-1.670443061955898e+00
1	 1.559951807840505e+00	 1.059466245126328e+00	-1.873693975748949e+00
1	 1.534643382267742e+00	 1.095804752959561e+00	-2.082082811814820e+00
1	 1.508436840173210e+00	 1.131608000393776e+00	-2.294656200378911e+00
1	 1.481349238880494e+00	 1.166843091343100e+00	-2.510401448679264e+00
1	 1.723838113479493e+00	 7.989882092468331e-01	-5.811706489524074e-01
1	 1.705013734991208e+00	 8.384081127299104e-01	-7.329638529973380e-01
1	 1.685210922874015e+00	 8.775329882267161e-01	-8.937289556856483e-01
1	 1.664435108856215e+00	 9.163273260177285e-01	-1.062984870551214e+00
1	 1.642693410552427e+00	 9.547556540432919e-01	-1.240161921883786e+00
1	 1.619994640909058e+00	 9.927826365453479e-01	-1.424604271916642e+00
1	 1.596349310794615e+00	 1.030373174110020e+00	-1.615573072228698e+00
1	 1.571769624566569e+00	 1.067492504559103e+00	-1.812250328473143e+00
1	 1.546269468497042e+00	 1.104106304118346e+00	-2.013743459088876e+00
1	 1.519864391992704e+00	 1.140180788275547e+00	-2.219090520211312e+00
1	 1.492571581599285e+00	 1.175682811732062e+00	-2.427266060715708e+00
1	 1.736799302302648e+00	 8.049956393915464e-01	-5.572338629428786e-01
1	 1.717833387133999e+00	 8.447119331263760e-01	-7.045618305299197e-01
1	 1.697881681692616e+00	 8.841309806193980e-01	-8.604630754764901e-01
1	 1.676949658546863e+00	 9.232170051607189e-01	-1.024486627933465e+00
1	 1.655044488827258e+00	 9.619342679834672e-01	-1.196089105339764e+00
1	 1.632175051742961e+00	 1.000247167647193e+00	-1.374636990052919e+00
1	 1.608351937191566e+00	 1.038120340832652e+00	-1.559409665140067e+00
1	 1.583587441292633e+00	 1.075518763991878e+00	-1.749603199276047e+00
1	 1.557895554726344e+00	 1.112407855277130e+00	-1.944334862852842e+00
1	 1.531291943812198e+00	 1.148753576157318e+00	-2.142648348546709e+00
1	 1.503793924318077e+00	 1.184522532121025e+00	-2.343519660862555e+00
1	 1.749760491125801e+00	 8.110030695362590e-01	-5.315237927514426e-01
1	 1.730653039276790e+00	 8.510157535228415e-01	-6.745251462761568e-01
1	 1.710552440511218e+00	 8.907289730120804e-01	-8.256666415567829e-01
1	 1.689464208237511e+00	 9.301066843037094e-01	-9.845395752985551e-01
1	 1.667395567102088e+00	 9.691128819236425e-01	-1.150639511849838e+00
1	 1.644355462576863e+00	 1.007711698749037e+00	-1.323368338334809e+00
1	 1.620354563588519e+00	 1.045867507555284e+00	-1.502037106717540e+00
1	 1.595405258018698e+00	 1.083545023424654e+00	-1.685869656160580e+00
1	 1.569521640955645e+00	 1.120709406435915e+00	-1.874006999880424e+00
1	 1.542719495631692e+00	 1.157326364039089e+00	-2.065512451488966e+00
1	 1.515016267036868e+00	 1.193362252509988e+00	-2.259377456694145e+00
1	 1.762721679948956e+00	 8.170104996809723e-01	-5.039451691420300e-01
1	 1.743472691419581e+00	 8.573195739193069e-01	-6.427853728107249e-01
1	 1.723223199329819e+00	 8.973269654047624e-01	-7.892993926352448e-01
1	 1.701978757928159e+00	 9.369963634466999e-01	-9.431327541752960e-01
1	 1.679746645376918e+00	 9.762914958638175e-01	-1.103832427433767e+00
1	 1.656535873410766e+00	 1.015176229850882e+00	-1.270848587299452e+00
1	 1.632357189985470e+00	 1.053614674277916e+00	-1.443537184576092e+00
1	 1.607223074744762e+00	 1.091571282857428e+00	-1.621163323953119e+00
1	 1.581147727184946e+00	 1.129010957594699e+00	-1.802905435863745e+00
1	 1.554147047451186e+00	 1.165899151920861e+00	-1.987860219668360e+00
1	 1.526238609755660e+00	 1.202201972898951e+00	-2.175048326150296e+00
1	 1.775682868772110e+00	 8.230179298256854e-01	-4.744055044621092e-01
1	 1.756292343562372e+00	 8.636233943157723e-01	-6.092760805893248e-01
1	 1.735893958148422e+00	 9.039249577974445e-01	-7.513222429327358e-01
1	 1.714493307618807e+00	 9.438860425896902e-01	-9.002555260478616e-01
1	 1.692097723651748e+00	 9.834701098039924e-01	-1.055686575015811e+00
1	 1.668716284244668e+00	 1.022640760952727e+00	-1.217126539731081e+00
1	 1.644359816382422e+00	 1.061361841000548e+00	-1.383989298371120e+00
1	 1.619040891470826e+00	 1.099597542290204e+00	-1.555594509966860e+00
1	 1.592773813414247e+00	 1.137312508753484e+00	-1.731171486401712e+00
1	 1.565574599270680e+00	 1.174471939802631e+00	-1.909863864426660e+00
1	 1.537460952474451e+00	 1.211041693287914e+00	-2.090735048544814e+00
1	 1.788644057595264e+00	 8.290253599703984e-01	-4.428149918606541e-01
1	 1.769111995705163e+00	 8.699272147122379e-01	-5.739327655617097e-01
1	 1.748564716967023e+00	 9.105229501901266e-01	-7.116972395912566e-01
1	 1.727007857309455e+00	 9.507757217326804e-01	-8.558975607632124e-01
1	 1.704448801926579e+00	 9.906487237441676e-01	-1.006220134826798e+00
1	 1.680896695078571e+00	 1.030105292054571e+00	-1.162249583840445e+00
1	 1.656362442779374e+00	 1.069109007723179e+00	-1.323470546318741e+00
1	 1.630858708196891e+00	 1.107623801722979e+00	-1.489270324201523e+00
1	 1.604399899643548e+00	 1.145614059912269e+00	-1.658942370988956e+00
1	 1.577002151090173e+00	 1.183044727684402e+00	-1.831690605472549e+00
1	 1.548683295193243e+00	 1.219881413676877e+00	-2.006634525530221e+00
1	 1.801605246418418e+00	 8.350327901151113e-01	-4.090864088564754e-01
1	 1.781931647847955e+00	 8.762310351087036e-01	-5.366927799092833e-01
1	 1.761235475785625e+00	 9.171209425828086e-01	-6.703875219213844e-01
1	 1.739522407000104e+00	 9.576654008756710e-01	-8.100488254388961e-01
1	 1.716799880201409e+00	 9.978273376843427e-01	-9.554507639254272e-01
1	 1.693077105912474e+00	 1.037569823156416e+00	-1.106263744148825e+00
1	 1.668365069176326e+00	 1.076856174445811e+00	-1.262055807981358e+00
1	 1.642676524922955e+00	 1.115650061155754e+00	-1.422294794354786e+00
1	 1.616025985872849e+00	 1.153915611071053e+00	-1.586351360357618e+00
1	 1.588429702909667e+00	 1.191617515566173e+00	-1.753502850436758e+00
1	 1.559905637912035e+00	 1.228721134065840e+00	-1.922937992524503e+00
1	 1.814566435241572e+00	 8.410402202598246e-01	-3.731350250392625e-01
1	 1.794751299990746e+00	 8.825348555051692e-01	-4.974952657511276e-01
1	 1.773906234604226e+00	 9.237189349754910e-01	-6.273572823962430e-01
1	 1.752036956690753e+00	 9.645550800186617e-01	-7.626995738462187e-01
1	 1.729150958476239e+00	 1.005005951624518e+00	-9.033956148830131e-01
1	 1.705257516746377e+00	 1.045034354258261e+00	-1.049213730191135e+00
1	 1.680367695573278e+00	 1.084603341168443e+00	-1.199817823505351e+00
1	 1.654494341649020e+00	 1.123676320588530e+00	-1.354768975904279e+00
1	 1.627652072102150e+00	 1.162217162229838e+00	-1.513527917504682e+00
1	 1.599857254729162e+00	 1.200190303447945e+00	-1.675458366732014e+00
1	 1.571127980630826e+00	 1.237560854454803e+00	-1.839831221076497e+00
1	 1.458904553442911e+00	 1.149163650565174e+00	-2.673945249782700e+00
1	 1.431378027209509e+00	 1.183273651806101e+00	-2.907138673867051e+00
1	 1.403022052981518e+00	 1.216761566899719e+00	-3.140332086203742e+00
1	 1.373858008308830e+00	 1.249597441115509e+00	-3.373763530076346e+00
1	 1.343908700535385e+00	 1.281752314787076e+00	-3.607723105948520e+00
1	 1.313198307917874e+00	 1.313198307917874e+00	-3.842550393313688e+00
1	 1.281752314787075e+00	 1.343908700535385e+00	-4.078631443822116e+00
1	 1.249597441115509e+00	 1.373858008308831e+00	-4.316395374172051e+00
1	 1.216761566899719e+00	 1.403022052981518e+00	-4.556310592042679e+00
1	 1.183273651806102e+00	 1.431378027209509e+00	-4.798880692675176e+00
1	 1.149163650565174e+00	 1.458904553442910e+00	-5.044640067498460e+00
1	 1.470126896161702e+00	 1.158003370954136e+00	-2.592704045955263e+00
1	 1.442388627418814e+00	 1.192375756819995e+00	-2.817541826360879e+00
1	 1.413814530312146e+00	 1.226121271260486e+00	-3.042256051491460e+00
1	 1.384426146834283e+00	 1.259209729124089e+00	-3.267197442638857e+00
1	 1.354246459770273e+00	 1.291611947977745e+00	-3.492779831718074e+00
1	 1.323299833363396e+00	 1.323299833363396e+00	-3.719476639945945e+00
1	 1.291611947977745e+00	 1.354246459770273e+00	-3.947816837461118e+00
1	 1.259209729124090e+00	 1.384426146834283e+00	-4.178380422046331e+00
1	 1.226121271260486e+00	 1.413814530312145e+00	-4.411793460887598e+00
1	 1.192375756819996e+00	 1.442388627418813e+00	-4.648722744466379e+00
1	 1.158003370954136e+00	 1.470126896161702e+00	-4.889870106144608e+00
1	 1.481349238880494e+00	 1.166843091343100e+00	-2.510401448679264e+00
1	 1.453399227628117e+00	 1.201477861833888e+00	-2.727186574893586e+00
1	 1.424607007642773e+00	 1.235480975621253e+00	-2.943840635341180e+00
1	 1.394994285359735e+00	 1.268822017132670e+00	-3.160806062458164e+00
1	 1.364584219005160e+00	 1.301471581168415e+00	-3.378594726621093e+00
1	 1.333401358808918e+00	 1.333401358808918e+00	-3.597783649756601e+00
1	 1.301471581168416e+00	 1.364584219005160e+00	-3.819010147991661e+00
1	 1.268822017132670e+00	 1.394994285359735e+00	-4.042966449244075e+00
1	 1.235480975621254e+00	 1.424607007642772e+00	-4.270393837976068e+00
1	 1.201477861833888e+00	 1.453399227628116e+00	-4.502076384928601e+00
1	 1.166843091343100e+00	 1.481349238880494e+00	-4.738834324429126e+00
1	 1.492571581599285e+00	 1.175682811732062e+00	-2.427266060715708e+00
1	 1.464409827837421e+00	 1.210579966847780e+00	-2.636327491954968e+00
1	 1.435399484973399e+00	 1.244840679982020e+00	-2.845350213565986e+00
1	 1.405562423885188e+00	 1.278434305141251e+00	-3.054847881773051e+00
1	 1.374921978240047e+00	 1.311331214359085e+00	-3.265405262544887e+00
1	 1.343502884254441e+00	 1.343502884254441e+00	-3.477673355957434e+00
1	 1.311331214359085e+00	 1.374921978240047e+00	-3.692363935692429e+00
1	 1.278434305141251e+00	 1.405562423885188e+00	-3.910243555395780e+00
1	 1.244840679982020e+00	 1.435399484973399e+00	-4.132127080062773e+00
1	 1.210579966847781e+00	 1.464409827837421e+00	-4.358870806251010e+00
1	 1.175682811732063e+00	 1.492571581599285e+00	-4.591365239649275e+00
1	 1.503793924318077e+00	 1.184522532121025e+00	-2.343519660862555e+00
1	 1.475420428046725e+00	 1.219682071861674e+00	-2.545211550855992e+00
1	 1.446191962304027e+00	 1.254200384342787e+00	-2.747041270163600e+00
1	 1.416130562410641e+00	 1.288046593149832e+00	-2.949573676636028e+00
1	 1.385259737474935e+00	 1.321190847549754e+00	-3.153441822663725e+00
1	 1.353604409699962e+00	 1.353604409699962e+00	-3.359341663903088e+00
1	 1.321190847549754e+00	 1.385259737474935e+00	-3.568026206803921e+00
1	 1.288046593149832e+00	 1.416130562410641e+00	-3.780299150590746e+00
1	 1.254200384342788e+00	 1.446191962304026e+00	-3.997008085491872e+00
1	 1.219682071861674e+00	 1.475420428046724e+00	-4.219037314288733e+00
1	 1.184522532121025e+00	 1.503793924318077e+00	-4.447300368585885e+00
1	 1.515016267036868e+00	 1.193362252509988e+00	-2.259377456694145e+00
1	 1.486431028256029e+00	 1.228784176875567e+00	-2.454078407179888e+00
1	 1.456984439634653e+00	 1.263560088703555e+00	-2.649162689605912e+00
1	 1.426698700936093e+00	 1.297658881158413e+00	-2.845226792698124e+00
1	 1.395597496709823e+00	 1.331050480740424e+00	-3.042927963983751e+00
1	 1.363705935145484e+00	 1.363705935145484e+00	-3.242978674345195e+00
1	 1.331050480740424e+00	 1.395597496709823e+00	-3.446140582196597e+00
1	 1.297658881158414e+00	 1.426698700936093e+00	-3.653218054989733e+00
1	 1.263560088703555e+00	 1.456984439634653e+00	-3.865051311175056e+00
1	 1.228784176875568e+00	 1.486431028256028e+00	-4.082509250279019e+00
1	 1.193362252509988e+00	 1.515016267036868e+00	-4.306482042337464e+00
1	 1.526238609755660e+00	 1.202201972898951e+00	-2.175048326150296e+00
1	 1.497441628465332e+00	 1.237886281889460e+00	-2.363160667816233e+00
1	 1.467776916965281e+00	 1.272919793064321e+00	-2.551956036233276e+00
1	 1.437266839461546e+00	 1.307271169166994e+00	-2.742043418385268e+00
1	 1.405935255944711e+00	 1.340910113931094e+00	-2.934080668305033e+00
1	 1.373807460591006e+00	 1.373807460591007e+00	-3.128768896836768e+00
1	 1.340910113931094e+00	 1.405935255944710e+00	-3.326846458597596e+00
1	 1.307271169166994e+00	 1.437266839461545e+00	-3.529082594042865e+00
1	 1.272919793064322e+00	 1.467776916965280e+00	-3.736270788820683e+00
1	 1.237886281889461e+00	 1.497441628465332e+00	-3.949221916010883e+00
1	 1.202201972898951e+00	 1.526238609755659e+00	-4.168757229323097e+00
1	 1.537460952474451e+00	 1.211041693287914e+00	-2.090735048544814e+00
1	 1.508452228674637e+00	 1.246988386903353e+00	-2.272684148212663e+00
1	 1.478569394295908e+00	 1.282279497425088e+00	-2.455655821412599e+00
1	 1.447834977986998e+00	 1.316883457175574e+00	-2.640252846110996e+00
1	 1.416273015179598e+00	 1.350769747121764e+00	-2.827110582192626e+00
1	 1.383908986036529e+00	 1.383908986036529e+00	-3.016891453790582e+00
1	 1.350769747121764e+00	 1.416273015179598e+00	-3.210279162756688e+00
1	 1.316883457175575e+00	 1.447834977986998e+00	-3.407972689537436e+00
1	 1.282279497425089e+00	 1.478569394295907e+00	-3.610680140452293e+00
1	 1.246988386903354e+00	 1.508452228674636e+00	-3.819112502272334e+00
1	 1.211041693287913e+00	 1.537460952474451e+00	-4.033977366037277e+00
1	 1.548683295193243e+00	 1.219881413676877e+00	-2.006634525530221e+00
1	 1.519462828883940e+00	 1.256090491917246e+00	-2.182868118441411e+00
1	 1.489361871626535e+00	 1.291639201785856e+00	-2.360489759079904e+00
1	 1.458403116512451e+00	 1.326495745184155e+00	-2.540077722131936e+00
1	 1.426610774414486e+00	 1.360629380312434e+00	-2.722222246514012e+00
1	 1.394010511482051e+00	 1.394010511482051e+00	-2.907520275665390e+00
1	 1.360629380312434e+00	 1.426610774414485e+00	-3.096570098909114e+00
1	 1.326495745184155e+00	 1.458403116512450e+00	-3.289965946687333e+00
1	 1.291639201785856e+00	 1.489361871626534e+00	-3.488292593252048e+00
1	 1.256090491917246e+00	 1.519462828883940e+00	-3.692120020408128e+00
1	 1.219881413676876e+00	 1.548683295193243e+00	-3.901998195163074e+00
1	 1.559905637912035e+00	 1.228721134065840e+00	-1.922937992524503e+00
1	 1.530473429093244e+00	 1.265192596931139e+00	-2.093925538644677e+00
1	 1.500154348957162e+00	 1.300998906146623e+00	-2.266679010252105e+00
1	 1.468971255037903e+00	 1.336108033192736e+00	-2.441734285618125e+00
1	 1.436948533649373e+00	 1.370489013503104e+00	-2.619614316068557e+00
1	 1.404112036927572e+00	 1.404112036927573e+00	-2.800824287726992e+00
1	 1.370489013503104e+00	 1.436948533649373e+00	-2.985846889873327e+00
1	 1.336108033192736e+00	 1.468971255037903e+00	-3.175137737462730e+00
1	 1.300998906146623e+00	 1.500154348957161e+00	-3.369120993763949e+00
1	 1.265192596931140e+00	 1.530473429093244e+00	-3.568185236832251e+00
1	 1.228721134065839e+00	 1.559905637912034e+00	-3.772679610673110e+00
1	 1.571127980630826e+00	 1.237560854454803e+00	-1.839831221076497e+00
1	 1.541484029302548e+00	 1.274294701945033e+00	-2.006063284389079e+00
1	 1.510946826287789e+00	 1.310358610507390e+00	-2.174438417060006e+00
1	 1.479539393563356e+00	 1.345720321201318e+00	-2.345432597477739e+00
1	 1.447286292884261e+00	 1.380348646693774e+00	-2.519479769804236e+00
1	 1.414213562373095e+00	 1.414213562373095e+00	-2.696967588804890e+00
1	 1.380348646693774e+00	 1.447286292884261e+00	-2.878233512101442e+00
1	 1.345720321201318e+00	 1.479539393563356e+00	-3.063561280349051e+00
1	 1.310358610507390e+00	 1.510946826287789e+00	-3.253177821487694e+00
1	 1.274294701945033e+00	 1.541484029302548e+00	-3.447250610346909e+00
1	 1.237560854454803e+00	 1.571127980630826e+00	-3.645885509569559e+00
1	 1.149163650565174e+00	 1.458904553442910e+00	-5.044640067498461e+00
1	 1.114462424630234e+00	 1.485581736534222e+00	-5.294519634112549e+00
1	 1.079201650641992e+00	 1.511391209809139e+00	-5.549084576749213e+00
1	 1.043413726260778e+00	 1.536316174388376e+00	-5.808274714875836e+00
1	 1.007131673942126e+00	 1.560341431603758e+00	-6.071942313590607e+00
1	 9.703890432398143e-01	 1.583453408407350e+00	-6.339853723843914e+00
1	 9.332198122227675e-01	 1.605640175727936e+00	-6.611691680927133e+00
1	 8.956582885887581e-01	 1.626891459784269e+00	-6.887058228196841e+00
1	 8.577390110486710e-01	 1.647198646418209e+00	-7.165478226635759e+00
1	 8.194966515405154e-01	 1.666554778562834e+00	-7.446403405180352e+00
1	 7.809659188126938e-01	 1.684954547010031e+00	-7.729216901842586e+00
1	 1.158003370954136e+00	 1.470126896161702e+00	-4.889870106144608e+00
1	 1.123035212512005e+00	 1.497009288353715e+00	-5.136087184765059e+00
1	 1.087503201800777e+00	 1.523017296038440e+00	-5.387691181780561e+00
1	 1.051439985693553e+00	 1.548133991114440e+00	-5.644528892185105e+00
1	 1.014878840664758e+00	 1.572344058000710e+00	-5.906347338843897e+00
1	 9.778535743416589e-01	 1.595633819241252e+00	-6.172796546448112e+00
1	 9.403984261629427e-01	 1.617991254002766e+00	-6.443433041707322e+00
1	 9.025479677317487e-01	 1.639406009474918e+00	-6.717724033783775e+00
1	 8.643370034413534e-01	 1.659869405236811e+00	-6.995052222289724e+00
1	 8.258004719369808e-01	 1.679374430705626e+00	-7.274721174374634e+00
1	 7.869733489574070e-01	 1.697915735833185e+00	-7.555961207588965e+00
1	 1.166843091343100e+00	 1.481349238880494e+00	-4.738834324429126e+00
1	 1.131608000393776e+00	 1.508436840173209e+00	-4.981383386122481e+00
1	 1.095804752959562e+00	 1.534643382267741e+00	-5.229792865351855e+00
1	 1.059466245126328e+00	 1.559951807840504e+00	-5.483857469084056e+00
1	 1.022626007387389e+00	 1.584346684397662e+00	-5.743268906332247e+00
1	 9.853181054435035e-01	 1.607814230075155e+00	-6.007619247667820e+00
1	 9.475770401031175e-01	 1.630342332277596e+00	-6.276405019862729e+00
1	 9.094376468747392e-01	 1.651920559165566e+00	-6.549031983677337e+00
1	 8.709349958340354e-01	 1.672540164055413e+00	-6.824820536245404e+00
1	 8.321042923334465e-01	 1.692194082848416e+00	-7.103011673909531e+00
1	 7.929807791021201e-01	 1.710876924656339e+00	-7.382773446785879e+00
1	 1.175682811732063e+00	 1.492571581599285e+00	-4.591365239649275e+00
1	 1.140180788275547e+00	 1.519864391992704e+00	-4.830155811947196e+00
1	 1.104106304118346e+00	 1.546269468497042e+00	-5.075084945084771e+00
1	 1.067492504559103e+00	 1.571769624566569e+00	-5.325935111358035e+00
1	 1.030373174110021e+00	 1.596349310794614e+00	-5.582391421236952e+00
1	 9.927826365453484e-01	 1.619994640909057e+00	-5.844045027404290e+00
1	 9.547556540432930e-01	 1.642693410552427e+00	-6.110397214389526e+00
1	 9.163273260177298e-01	 1.664435108856214e+00	-6.380864122727611e+00
1	 8.775329882267175e-01	 1.685210922874014e+00	-6.654782050554112e+00
1	 8.384081127299120e-01	 1.705013734991207e+00	-6.931413270462903e+00
1	 7.989882092468330e-01	 1.723838113479493e+00	-7.209952295349071e+00
1	 1.184522532121025e+00	 1.503793924318077e+00	-4.447300368585884e+00
1	 1.148753576157318e+00	 1.531291943812197e+00	-4.682159571113212e+00
1	 1.112407855277130e+00	 1.557895554726343e+00	-4.923271833597415e+00
1	 1.075518763991879e+00	 1.583587441292633e+00	-5.170446196261390e+00
1	 1.038120340832653e+00	 1.608351937191566e+00	-5.423408709480245e+00
1	 1.000247167647193e+00	 1.632175051742960e+00	-5.681805348248258e+00
1	 9.619342679834680e-01	 1.655044488827257e+00	-5.945205504910827e+00
1	 9.232170051607199e-01	 1.676949658546862e+00	-6.213106016833974e+00
1	 8.841309806193993e-01	 1.697881681692616e+00	-6.484935680638645e+00
1	 8.447119331263774e-01	 1.717833387133998e+00	-6.760060200364082e+00
1	 8.049956393915462e-01	 1.736799302302648e+00	-7.037787513495299e+00
1	 1.193362252509988e+00	 1.515016267036868e+00	-4.306482042337464e+00
1	 1.157326364039089e+00	 1.542719495631692e+00	-4.537157028527834e+00
1	 1.120709406435915e+00	 1.569521640955645e+00	-4.774066701652519e+00
1	 1.083545023424654e+00	 1.595405258018697e+00	-5.017084452833539e+00
1	 1.045867507555284e+00	 1.620354563588517e+00	-5.266023668808854e+00
1	 1.007711698749038e+00	 1.644355462576863e+00	-5.520639629454580e+00
1	 9.691128819236432e-01	 1.667395567102087e+00	-5.780631819060884e+00
1	 9.301066843037101e-01	 1.689464208237511e+00	-6.045646622535798e+00
1	 8.907289730120815e-01	 1.710552440511217e+00	-6.315280374057584e+00
1	 8.510157535228425e-01	 1.730653039276789e+00	-6.589082722569557e+00
1	 8.110030695362590e-01	 1.749760491125801e+00	-6.866560275953436e+00
1	 1.202201972898951e+00	 1.526238609755659e+00	-4.168757229323096e+00
1	 1.165899151920860e+00	 1.554147047451186e+00	-4.394917538365862e+00
1	 1.129010957594699e+00	 1.581147727184945e+00	-4.627191156166877e+00
1	 1.091571282857428e+00	 1.607223074744761e+00	-4.865552618083365e+00
1	 1.053614674277916e+00	 1.632357189985470e+00	-5.109947935270966e+00
1	 1.015176229850882e+00	 1.656535873410765e+00	-5.360294954417468e+00
1	 9.762914958638181e-01	 1.679746645376917e+00	-5.616483910131830e+00
1	 9.369963634467007e-01	 1.701978757928158e+00	-5.878378162356613e+00
1	 8.973269654047638e-01	 1.723223199329819e+00	-6.145815109323472e+00
1	 8.573195739193085e-01	 1.743472691419580e+00	-6.418607264890180e+00
1	 8.170104996809723e-01	 1.762721679948956e+00	-6.696543487607393e+00
1	 1.211041693287913e+00	 1.537460952474451e+00	-4.033977366037276e+00
1	 1.174471939802632e+00	 1.565574599270680e+00	-4.255217188986760e+00
1	 1.137312508753484e+00	 1.592773813414247e+00	-4.482374932322449e+00
1	 1.099597542290204e+00	 1.619040891470826e+00	-4.715562108231174e+00
1	 1.061361841000548e+00	 1.644359816382422e+00	-4.954901564300454e+00
1	 1.022640760952727e+00	 1.668716284244668e+00	-5.200525790957736e+00
1	 9.834701098039931e-01	 1.692097723651747e+00	-5.452575144458336e+00
1	 9.438860425896912e-01	 1.714493307618807e+00	-5.711196005607581e+00
1	 9.039249577974455e-01	 1.735893958148421e+00	-5.976538894773464e+00
1	 8.636233943157737e-01	 1.756292343562371e+00	-6.248756563813748e+00
1	 8.230179298256852e-01	 1.775682868772110e+00	-6.528002085315298e+00
1	 1.219881413676876e+00	 1.548683295193243e+00	-3.901998195163075e+00
1	 1.183044727684402e+00	 1.577002151090174e+00	-4.117838558942434e+00
1	 1.145614059912269e+00	 1.604399899643547e+00	-4.339355599064041e+00
1	 1.107623801722979e+00	 1.630858708196891e+00	-4.566832704244383e+00
1	 1.069109007723180e+00	 1.656362442779374e+00	-4.800612725666210e+00
1	 1.030105292054572e+00	 1.680896695078571e+00	-5.041093723770920e+00
1	 9.906487237441680e-01	 1.704448801926578e+00	-5.288724298046549e+00
1	 9.507757217326818e-01	 1.727007857309455e+00	-5.543998554373513e+00
1	 9.105229501901277e-01	 1.748564716967022e+00	-5.807450767488531e+00
1	 8.699272147122393e-01	 1.769111995705162e+00	-6.079649798248671e+00
1	 8.290253599703982e-01	 1.788644057595263e+00	-6.361193326606045e+00
1	 1.228721134065839e+00	 1.559905637912034e+00	-3.772679610673110e+00
1	 1.191617515566173e+00	 1.588429702909667e+00	-3.982570483517123e+00
1	 1.153915611071053e+00	 1.616025985872848e+00	-4.197878277309324e+00
1	 1.115650061155755e+00	 1.642676524922955e+00	-4.419092250947617e+00
1	 1.076856174445811e+00	 1.668365069176326e+00	-4.646817411590001e+00
1	 1.037569823156417e+00	 1.693077105912473e+00	-4.881767198424563e+00
1	 9.978273376843434e-01	 1.716799880201408e+00	-5.124755361981551e+00
1	 9.576654008756720e-01	 1.739522407000103e+00	-5.376687134420022e+00
1	 9.171209425828099e-01	 1.761235475785623e+00	-5.638549792259493e+00
1	 8.762310351087046e-01	 1.781931647847953e+00	-5.911402717494686e+00
1	 8.350327901151112e-01	 1.801605246418418e+00	-6.196367065914064e+00
1	 1.237560854454803e+00	 1.571127980630826e+00	-3.645885509569559e+00
1	 1.200190303447945e+00	 1.599857254729162e+00	-3.849207831272735e+00
1	 1.162217162229838e+00	 1.627652072102150e+00	-4.057695370235384e+00
1	 1.123676320588530e+00	 1.654494341649020e+00	-4.272076369027636e+00
1	 1.084603341168443e+00	 1.680367695573278e+00	-4.493259157372795e+00
1	 1.045034354258262e+00	 1.705257516746376e+00	-4.722321276327206e+00
1	 1.005005951624519e+00	 1.729150958476239e+00	-4.960497356174533e+00
1	 9.645550800186625e-01	 1.752036956690751e+00	-5.209165890776710e+00
1	 9.237189349754922e-01	 1.773906234604226e+00	-5.469835060597449e+00
1	 8.825348555051705e-01	 1.794751299990745e+00	-5.744127763728388e+00
1	 8.410402202598244e-01	 1.814566435241572e+00	-6.033766018975821e+00
1	 7.809659188126938e-01	 1.684954547010031e+00	-7.729216901842586e+00
1	 7.421814638916863e-01	 1.702394274688543e+00	-8.014508941296342e+00
1	 7.031777879206234e-01	 1.718871894706465e+00	-8.303943815529246e+00
1	 6.639891528229160e-01	 1.734386922451343e+00	-8.598554605222487e+00
1	 6.246494952094075e-01	 1.748940422075997e+00	-8.899479636403157e+00
1	 5.851923439092619e-01	 1.762534967728788e+00	-9.207948209768563e+00
1	 5.456507414643782e-01	 1.775174599912952e+00	-9.525266139379445e+00
1	 5.060571698851701e-01	 1.786864777380915e+00	-9.852801244172657e+00
1	 4.664434809226226e-01	 1.797612324985986e+00	-1.019196892943620e+01
1	 4.268408310681985e-01	 1.807425377925668e+00	-1.054421798762031e+01
1	 3.872796214499012e-01	 1.816313322818053e+00	-1.091101673882080e+01
1	 7.869733489574070e-01	 1.697915735833185e+00	-7.555961207588965e+00
1	 7.478905520754687e-01	 1.715489615263070e+00	-7.839637843222518e+00
1	 7.085868478277054e-01	 1.732093986204207e+00	-8.127759534977812e+00
1	 6.690967616907848e-01	 1.747728360316354e+00	-8.421310410136993e+00
1	 6.294544913264030e-01	 1.762393809938120e+00	-8.721384238626403e+00
1	 5.896938234777944e-01	 1.776092929019010e+00	-9.029170200203945e+00
1	 5.498480548602581e-01	 1.788829789143052e+00	-9.345938424835584e+00
1	 5.099499173458253e-01	 1.800609891053076e+00	-9.673025451500861e+00
1	 4.700315076989505e-01	 1.811440112101263e+00	-1.001181974464191e+01
1	 4.301242220764153e-01	 1.821328650063558e+00	-1.036374739993693e+01
1	 3.902586954610542e-01	 1.830284963762807e+00	-1.073025816223678e+01
1	 7.929807791021201e-01	 1.710876924656339e+00	-7.382773446785879e+00
1	 7.535996402592507e-01	 1.728584955837597e+00	-7.665305344940760e+00
1	 7.139959077347867e-01	 1.745316077701949e+00	-7.952899420164253e+00
1	 6.742043705586536e-01	 1.761069798181364e+00	-8.246393711958165e+00
1	 6.342594874433986e-01	 1.775847197800243e+00	-8.546725270011752e+00
1	 5.941953030463272e-01	 1.789650890309230e+00	-8.854917365038821e+00
1	 5.540453682561378e-01	 1.802484978373151e+00	-9.172066490420375e+00
1	 5.138426648064803e-01	 1.814355004725237e+00	-9.499329286108466e+00
1	 4.736195344752783e-01	 1.825267899216539e+00	-9.837909510819305e+00
1	 4.334076130846323e-01	 1.835231922201447e+00	-1.018904518174532e+01
1	 3.932377694722073e-01	 1.844256604707561e+00	-1.055399599302672e+01
1	 7.989882092468330e-01	 1.723838113479493e+00	-7.209952295349071e+00
1	 7.593087284430330e-01	 1.741680296412124e+00	-7.491947725786293e+00
1	 7.194049676418686e-01	 1.758538169199691e+00	-7.779873973782610e+00
1	 6.793119794265220e-01	 1.774411236046374e+00	-8.074328432378119e+00
1	 6.390644835603936e-01	 1.789300585662365e+00	-8.375982052060106e+00
1	 5.986967826148601e-01	 1.803208851599452e+00	-8.685569383130217e+00
1	 5.582426816520176e-01	 1.816140167603251e+00	-9.003878479742324e+00
1	 5.177354122671355e-01	 1.828100118397398e+00	-9.331740767872020e+00
1	 4.772075612516061e-01	 1.839095686331816e+00	-9.670020974960336e+00
1	 4.366910040928493e-01	 1.849135194339337e+00	-1.001960721340418e+01
1	 3.962168434833604e-01	 1.858228245652315e+00	-1.038140130358701e+01
1	 8.049956393915462e-01	 1.736799302302648e+00	-7.037787513495301e+00
1	 7.650178166268149e-01	 1.754775636986651e+00	-7.319988241830468e+00
1	 7.248140275489502e-01	 1.771760260697433e+00	-7.609178459640361e+00
1	 6.844195882943905e-01	 1.787752673911384e+00	-7.905622853635456e+00
1	 6.438694796773894e-01	 1.802753973524490e+00	-8.209619598167913e+00
1	 6.031982621833930e-01	 1.816766812889674e+00	-8.521494599637871e+00
1	 5.624399950478975e-01	 1.829795356833350e+00	-8.841595726152999e+00
1	 5.216281597277908e-01	 1.841845232069558e+00	-9.170287080254068e+00
1	 4.807955880279339e-01	 1.852923473447093e+00	-9.507943369221474e+00
1	 4.399743951010661e-01	 1.863038466477227e+00	-9.854944423619841e+00
1	 3.991959174945134e-01	 1.872199886597070e+00	-1.021166991042189e+01
1	 8.110030695362590e-01	 1.749760491125801e+00	-6.866560275953435e+00
1	 7.707269048105972e-01	 1.767870977561179e+00	-7.149837608224162e+00
1	 7.302230874560319e-01	 1.784982352195175e+00	-7.441293467061993e+00
1	 6.895271971622591e-01	 1.801094111776394e+00	-7.740770197754316e+00
1	 6.486744757943846e-01	 1.816207361386613e+00	-8.048089143556922e+00
1	 6.076997417519256e-01	 1.830324774179894e+00	-8.363050445791020e+00
1	 5.666373084437774e-01	 1.843450546063450e+00	-8.685433004978622e+00
1	 5.255209071884458e-01	 1.855590345741720e+00	-9.014994601281037e+00
1	 4.843836148042617e-01	 1.866751260562369e+00	-9.351472170732086e+00
1	 4.432577861092830e-01	 1.876941738615117e+00	-9.694582232099808e+00
1	 4.021749915056664e-01	 1.886171527541824e+00	-1.004402145769444e+01
1	 8.170104996809723e-01	 1.762721679948956e+00	-6.696543487607392e+00
1	 7.764359929943795e-01	 1.780966318135706e+00	-6.981894460260806e+00
1	 7.356321473631138e-01	 1.798204443692917e+00	-7.276685450391698e+00
1	 6.946348060301275e-01	 1.814435549641404e+00	-7.580249180228789e+00
1	 6.534794719113801e-01	 1.829660749248735e+00	-7.891828651824722e+00
1	 6.122012213204584e-01	 1.843882735470117e+00	-8.210583840135522e+00
1	 5.708346218396572e-01	 1.857105735293550e+00	-8.535598774624264e+00
1	 5.294136546491010e-01	 1.869335459413880e+00	-8.865888933155290e+00
1	 4.879716415805896e-01	 1.880579047677646e+00	-9.200408872000292e+00
1	 4.465411771174999e-01	 1.890845010753007e+00	-9.538060016795562e+00
1	 4.051540655168196e-01	 1.900143168486578e+00	-9.877698541210160e+00
1	 8.230179298256852e-01	 1.775682868772110e+00	-6.528002085315298e+00
1	 7.821450811781615e-01	 1.794061658710233e+00	-6.816545794247172e+00
1	 7.410412072701955e-01	 1.811426535190659e+00	-7.115807244868755e+00
1	 6.997424148979963e-01	 1.827776987506415e+00	-7.424524539458123e+00
1	 6.582844680283753e-01	 1.843114137110858e+00	-7.741263299310531e+00
1	 6.167027008889912e-01	 1.857440696760338e+00	-8.064431572208699e+00
1	 5.750319352355371e-01	 1.870760924523649e+00	-8.392295407117958e+00
1	 5.333064021097560e-01	 1.883080573086040e+00	-8.722994930569303e+00
1	 4.915596683569175e-01	 1.894406834792923e+00	-9.054560761373374e+00
1	 4.498245681257169e-01	 1.904748282890896e+00	-9.384930604477530e+00
1	 4.081331395279726e-01	 1.914114809431332e+00	-9.711965870765543e+00
1	 8.290253599703982e-01	 1.788644057595263e+00	-6.361193326606045e+00
1	 7.878541693619437e-01	 1.807156999284760e+00	-6.654167389205845e+00
1	 7.464502671772770e-01	 1.824648626688401e+00	-6.959098560073508e+00
1	 7.048500237658647e-01	 1.841118425371425e+00	-7.274047543163371e+00
1	 6.630894641453710e-01	 1.856567524972981e+00	-7.596805938401748e+00
1	 6.212041804575239e-01	 1.870998658050559e+00	-7.924920669532280e+00
1	 5.792292486314167e-01	 1.884416113753749e+00	-8.255719408632046e+00
1	 5.371991495704113e-01	 1.896825686758201e+00	-8.586336727790012e+00
1	 4.951476951332454e-01	 1.908234621908200e+00	-8.913740713043511e+00
1	 4.531079591339337e-01	 1.918651555028786e+00	-9.234759783458907e+00
1	 4.111122135391259e-01	 1.928086450376087e+00	-9.546109468916725e+00
1	 8.350327901151112e-01	 1.801605246418418e+00	-6.196367065914064e+00
1	 7.935632575457260e-01	 1.820252339859287e+00	-6.495124210374270e+00
1	 7.518593270843588e-01	 1.837870718186143e+00	-6.806986452072977e+00
1	 7.099576326337335e-01	 1.854459863236435e+00	-7.129256472944144e+00
1	 6.678944602623664e-01	 1.870020912835104e+00	-7.458857540841462e+00
1	 6.257056600260567e-01	 1.884556619340780e+00	-7.792368748763959e+00
1	 5.834265620272967e-01	 1.898071302983848e+00	-8.126061630484847e+00
1	 5.410918970310664e-01	 1.910570800430362e+00	-8.455937764572736e+00
1	 4.987357219095733e-01	 1.922062409023477e+00	-8.777766986118328e+00
1	 4.563913501421506e-01	 1.932554827166675e+00	-9.087125837353359e+00
1	 4.140912875502789e-01	 1.942058091320841e+00	-9.379435904333180e+00
1	 8.410402202598244e-01	 1.814566435241572e+00	-6.033766018975822e+00
1	 7.992723457295084e-01	 1.833347680433815e+00	-6.339770795412129e+00
1	 7.572683869914407e-01	 1.851092809683886e+00	-6.659885775332252e+00
1	 7.150652415016021e-01	 1.867801301101446e+00	-6.990577088068576e+00
1	 6.726994563793620e-01	 1.883474300697228e+00	-7.327807622037378e+00
1	 6.302071395945896e-01	 1.898114580631002e+00	-7.667084351800040e+00
1	 5.876238754231766e-01	 1.911726492213948e+00	-8.003507471100090e+00
1	 5.449846444917216e-01	 1.924315914102524e+00	-8.331820810965940e+00
1	 5.023237486859014e-01	 1.935890196138754e+00	-8.646463032302135e+00
1	 4.596747411503677e-01	 1.946458099304566e+00	-8.941619098814071e+00
1	 4.170703615614320e-01	 1.956029732265595e+00	-9.211271558008232e+00
1	 3.872796214499012e-01	 1.816313322818053e+00	-1.091101673882080e+01
1	 3.477894427501543e-01	 1.824286736055566e+00	-1.128304815651784e+01
1	 3.083990252295210e-01	 1.831357319878951e+00	-1.165486068446874e+01
1	 2.691361939001575e-01	 1.837537836608996e+00	-1.203338831095816e+01
1	 2.300278288545423e-01	 1.842842041464542e+00	-1.242509936822513e+01
1	 1.910998307188276e-01	 1.847284614382951e+00	-1.283598304633054e+01
1	 1.523770911663767e-01	 1.850881091243954e+00	-1.327153991533931e+01
1	 1.138834683958722e-01	 1.853647794879832e+00	-1.373677628641806e+01
1	 7.564176744998415e-02	 1.855601766234818e+00	-1.423620221605231e+01
1	 3.767372522509075e-02	 1.856760696014540e+00	-1.477383293547829e+01
1	 0.000000000000000e+00	 1.857142857142857e+00	-1.535319346956314e+01
1	 3.902586954610542e-01	 1.830284963762807e+00	-1.073025816223678e+01
1	 3.504647461559247e-01	 1.838319710948301e+00	-1.110171430162648e+01
1	 3.107713254235941e-01	 1.845444683878020e+00	-1.147362782728296e+01
1	 2.712064723147741e-01	 1.851672743044451e+00	-1.185483040623990e+01
1	 2.317972736918850e-01	 1.857017749475808e+00	-1.225365957939178e+01
1	 1.925698294166647e-01	 1.861494496032051e+00	-1.267793240667540e+01
1	 1.535492226368874e-01	 1.865118638099676e+00	-1.313492412117240e+01
1	 1.147594950758405e-01	 1.867906624071215e+00	-1.363135166464357e+01
1	 7.622362719959944e-02	 1.869875625975086e+00	-1.417336193718280e+01
1	 3.796352311143760e-02	 1.871043470599267e+00	-1.476652455878929e+01
1	 0.000000000000000e+00	 1.871428571428572e+00	-1.541582891078749e+01
1	 3.932377694722073e-01	 1.844256604707561e+00	-1.055399599302672e+01
1	 3.531400495616952e-01	 1.852352685841036e+00	-1.092285120404855e+01
1	 3.131436256176673e-01	 1.859532047877089e+00	-1.129245886877002e+01
1	 2.732767507293907e-01	 1.865807649479905e+00	-1.167388379165722e+01
1	 2.335667185292276e-01	 1.871193457487073e+00	-1.207769601012522e+01
1	 1.940398281145019e-01	 1.875704377681151e+00	-1.251392734908222e+01
1	 1.547213541073980e-01	 1.879356184955399e+00	-1.299203404323762e+01
1	 1.156355217558087e-01	 1.882165453262598e+00	-1.352086537373672e+01
1	 7.680548694921467e-02	 1.884149485715354e+00	-1.410863820935523e+01
1	 3.825332099778447e-02	 1.885326245183995e+00	-1.476291729161404e+01
1	 0.000000000000000e+00	 1.885714285714286e+00	-1.549060105802297e+01
1	 3.962168434833604e-01	 1.858228245652315e+00	-1.038140130358701e+01
1	 3.558153529674657e-01	 1.866385660733772e+00	-1.074537026390260e+01
1	 3.155159258117406e-01	 1.873619411876158e+00	-1.111016568308488e+01
1	 2.753470291440072e-01	 1.879942555915358e+00	-1.148941227330551e+01
1	 2.353361633665702e-01	 1.885369165498339e+00	-1.189626680588884e+01
1	 1.955098268123390e-01	 1.889914259330250e+00	-1.234335340478678e+01
1	 1.558934855779085e-01	 1.893593731811122e+00	-1.284270602416427e+01
1	 1.165115484357770e-01	 1.896424282453981e+00	-1.340571816252823e+01
1	 7.738734669882996e-02	 1.898423345455622e+00	-1.404309978994916e+01
1	 3.854311888413130e-02	 1.899609019768721e+00	-1.476484139488844e+01
1	 0.000000000000000e+00	 1.900000000000000e+00	-1.558018499347679e+01
1	 3.991959174945134e-01	 1.872199886597070e+00	-1.021166991042189e+01
1	 3.584906563732360e-01	 1.880418635626507e+00	-1.056821537682604e+01
1	 3.178882260058138e-01	 1.887706775875227e+00	-1.092559561082562e+01
1	 2.774173075586239e-01	 1.894077462350812e+00	-1.130031357351616e+01
1	 2.371056082039129e-01	 1.899544873509605e+00	-1.170845822720684e+01
1	 1.969798255101761e-01	 1.904124140979350e+00	-1.216561444737602e+01
1	 1.570656170484191e-01	 1.907831278666844e+00	-1.268678129187592e+01
1	 1.173875751157452e-01	 1.910683111645365e+00	-1.328629881719705e+01
1	 7.796920644844518e-02	 1.912697205195890e+00	-1.397778353313891e+01
1	 3.883291677047816e-02	 1.913891794353449e+00	-1.477407249489391e+01
1	 0.000000000000000e+00	 1.914285714285714e+00	-1.568717594615621e+01
1	 4.021749915056664e-01	 1.886171527541824e+00	-1.004402145769444e+01
1	 3.611659597790064e-01	 1.894451610519242e+00	-1.039036173043733e+01
1	 3.202605261998870e-01	 1.901794139874295e+00	-1.073763014546134e+01
1	 2.794875859732404e-01	 1.908212368786265e+00	-1.110551807469947e+01
1	 2.388750530412555e-01	 1.913720581520870e+00	-1.151338360836575e+01
1	 1.984498242080132e-01	 1.918334022628450e+00	-1.198013201344175e+01
1	 1.582377485189297e-01	 1.922068825522567e+00	-1.252410577865408e+01
1	 1.182636017957135e-01	 1.924941940836748e+00	-1.316298460433183e+01
1	 7.855106619806047e-02	 1.926971064936157e+00	-1.391369557149370e+01
1	 3.912271465682501e-02	 1.928174568938176e+00	-1.479233360676256e+01
1	 0.000000000000000e+00	 1.928571428571428e+00	-1.581409224939380e+01
1	 4.051540655168196e-01	 1.900143168486578e+00	-9.877698541210160e+00
1	 3.638412631847768e-01	 1.908484585411977e+00	-1.021081465389557e+01
1	 3.226328263939603e-01	 1.915881503873364e+00	-1.054518367771219e+01
1	 2.815578643878570e-01	 1.922347275221719e+00	-1.090398761860678e+01
1	 2.406444978785980e-01	 1.927896289532136e+00	-1.131018236205535e+01
1	 1.999198229058504e-01	 1.932543904277549e+00	-1.178634465320528e+01
1	 1.594098799894403e-01	 1.936306372378290e+00	-1.235452994818391e+01
1	 1.191396284756817e-01	 1.939200770028131e+00	-1.303614169444478e+01
1	 7.913292594767572e-02	 1.941244924676425e+00	-1.385181244544795e+01
1	 3.941251254317185e-02	 1.942457343522903e+00	-1.482129706871090e+01
1	 0.000000000000000e+00	 1.942857142857142e+00	-1.596337816789507e+01
1	 4.081331395279726e-01	 1.914114809431332e+00	-9.711965870765543e+00
1	 3.665165665905473e-01	 1.922517560304712e+00	-1.002860851784435e+01
1	 3.250051265880335e-01	 1.929968867872433e+00	-1.034720229491953e+01
1	 2.836281428024737e-01	 1.936482181657173e+00	-1.069471435817906e+01
1	 2.424139427159407e-01	 1.942071997543402e+00	-1.109801902760218e+01
1	 2.013898216036875e-01	 1.946753785926649e+00	-1.158370730958240e+01
1	 1.605820114599509e-01	 1.950543919234012e+00	-1.217790863017413e+01
1	 1.200156551556500e-01	 1.953459599219514e+00	-1.290612556693841e+01
1	 7.971478569729099e-02	 1.955518784416693e+00	-1.379308218330725e+01
1	 3.970231042951870e-02	 1.956740118107630e+00	-1.486258639156221e+01
1	 0.000000000000000e+00	 1.957142857142857e+00	-1.613740660097244e+01
1	 4.111122135391259e-01	 1.928086450376087e+00	-9.546109468916725e+00
1	 3.691918699963176e-01	 1.936550535197447e+00	-9.842805682183869e+00
1	 3.273774267821067e-01	 1.944056231871502e+00	-1.014266263261790e+01
1	 2.856984212170902e-01	 1.950617088092627e+00	-1.047671965931559e+01
1	 2.441833875532833e-01	 1.956247705554667e+00	-1.087608236058434e+01
1	 2.028598203015246e-01	 1.960963667575748e+00	-1.137169072424492e+01
1	 1.617541429304614e-01	 1.964781466089735e+00	-1.199410086216815e+01
1	 1.208916818356182e-01	 1.967718428410897e+00	-1.277328139746468e+01
1	 8.029664544690623e-02	 1.969792644156961e+00	-1.373842533429530e+01
1	 3.999210831586556e-02	 1.971022892692357e+00	-1.491777802785523e+01
1	 0.000000000000000e+00	 1.971428571428571e+00	-1.633848166824821e+01
1	 4.140912875502789e-01	 1.942058091320841e+00	-9.379435904333180e+00
1	 3.718671734020881e-01	 1.950583510090182e+00	-9.652495489263211e+00
1	 3.297497269761800e-01	 1.958143595870570e+00	-9.930570775678788e+00
1	 2.877686996317068e-01	 1.964751994528080e+00	-1.024905305004787e+01
1	 2.459528323906260e-01	 1.970423413565933e+00	-1.064358446174306e+01
1	 2.043298189993618e-01	 1.975173549224848e+00	-1.114978086932005e+01
1	 1.629262744009720e-01	 1.979019012945457e+00	-1.180296973818291e+01
1	 1.217677085155864e-01	 1.981977257602280e+00	-1.263794442856283e+01
1	 8.087850519652148e-02	 1.984066503897228e+00	-1.368873595701107e+01
1	 4.028190620221241e-02	 1.985305667277085e+00	-1.498840306458782e+01
1	 0.000000000000000e+00	 1.985714285714285e+00	-1.656884118374400e+01
1	 4.170703615614320e-01	 1.956029732265595e+00	-9.211271558008232e+00
1	 3.745424768078587e-01	 1.964616484982918e+00	-9.456793300221806e+00
1	 3.321220271702534e-01	 1.972230959869640e+00	-9.709961206548900e+00
1	 2.898389780463234e-01	 1.978886900963535e+00	-1.001079121474981e+01
1	 2.477222772279686e-01	 1.984599121577199e+00	-1.039975994322674e+01
1	 2.057998176971989e-01	 1.989383430873948e+00	-1.091747840344557e+01
1	 1.640984058714827e-01	 1.993256559801181e+00	-1.160438226383473e+01
1	 1.226437351955547e-01	 1.996236086793665e+00	-1.250044032441398e+01
1	 8.146036494613679e-02	 1.998340363637497e+00	-1.364488256552182e+01
1	 4.057170408855926e-02	 1.999588441861812e+00	-1.507594884341511e+01
1	 0.000000000000000e+00	 2.000000000000000e+00	-1.683065902393798e+01
