patch_n	x	y	stress_yy
0	 0.000000e+00	 0.000000e+00	 7.137701e-01
0	 0.000000e+00	 2.857143e-01	 6.073157e+00
0	 0.000000e+00	 5.714286e-01	 1.068534e+01
0	 0.000000e+00	 8.571429e-01	 1.426471e+01
0	 0.000000e+00	 1.142857e+00	 1.652565e+01
0	 0.000000e+00	 1.428571e+00	 1.718255e+01
0	 2.857143e-01	 0.000000e+00	-4.080741e+00
0	 2.857143e-01	 2.857143e-01	 4.847446e+00
0	 2.857143e-01	 5.714286e-01	 1.165565e+01
0	 2.857143e-01	 8.571429e-01	 1.617095e+01
0	 2.857143e-01	 1.142857e+00	 1.822040e+01
0	 2.857143e-01	 1.428571e+00	 1.763109e+01
0	 5.714286e-01	 0.000000e+00	-4.699352e+00
0	 5.714286e-01	 2.857143e-01	 5.042722e+00
0	 5.714286e-01	 5.714286e-01	 1.216785e+01
0	 5.714286e-01	 8.571429e-01	 1.659334e+01
0	 5.714286e-01	 1.142857e+00	 1.823652e+01
0	 5.714286e-01	 1.428571e+00	 1.701470e+01
0	 8.571429e-01	 0.000000e+00	-2.486557e+00
0	 8.571429e-01	 2.857143e-01	 6.167633e+00
0	 8.571429e-01	 5.714286e-01	 1.233106e+01
0	 8.571429e-01	 8.571429e-01	 1.598886e+01
0	 8.571429e-01	 1.142857e+00	 1.712616e+01
0	 8.571429e-01	 1.428571e+00	 1.572810e+01
0	 1.142857e+00	 0.000000e+00	 1.213148e+00
0	 1.142857e+00	 2.857143e-01	 7.730827e+00
0	 1.142857e+00	 5.714286e-01	 1.225444e+01
0	 1.142857e+00	 8.571429e-01	 1.481450e+01
0	 1.142857e+00	 1.142857e+00	 1.544153e+01
0	 1.142857e+00	 1.428571e+00	 1.416604e+01
0	 1.428571e+00	 0.000000e+00	 5.055267e+00
0	 1.428571e+00	 2.857143e-01	 9.240951e+00
0	 1.428571e+00	 5.714286e-01	 1.204712e+01
0	 1.428571e+00	 8.571429e-01	 1.352725e+01
0	 1.428571e+00	 1.142857e+00	 1.373479e+01
0	 1.428571e+00	 1.428571e+00	 1.272322e+01
0	 0.000000e+00	 1.428571e+00	 1.718255e+01
0	 0.000000e+00	 1.714286e+00	 1.664826e+01
0	 0.000000e+00	 2.000000e+00	 1.560131e+01
0	 0.000000e+00	 2.285714e+00	 1.415461e+01
0	 0.000000e+00	 2.571429e+00	 1.242106e+01
0	 0.000000e+00	 2.857143e+00	 1.051356e+01
0	 2.857143e-01	 1.428571e+00	 1.763109e+01
0	 2.857143e-01	 1.714286e+00	 1.569611e+01
0	 2.857143e-01	 2.000000e+00	 1.386776e+01
0	 2.857143e-01	 2.285714e+00	 1.221190e+01
0	 2.857143e-01	 2.571429e+00	 1.079437e+01
0	 2.857143e-01	 2.857143e+00	 9.681034e+00
0	 5.714286e-01	 1.428571e+00	 1.701470e+01
0	 5.714286e-01	 1.714286e+00	 1.454135e+01
0	 5.714286e-01	 2.000000e+00	 1.250415e+01
0	 5.714286e-01	 2.285714e+00	 1.093175e+01
0	 5.714286e-01	 2.571429e+00	 9.852763e+00
0	 5.714286e-01	 2.857143e+00	 9.295836e+00
0	 8.571429e-01	 1.428571e+00	 1.572810e+01
0	 8.571429e-01	 1.714286e+00	 1.333091e+01
0	 8.571429e-01	 2.000000e+00	 1.148154e+01
0	 8.571429e-01	 2.285714e+00	 1.018126e+01
0	 8.571429e-01	 2.571429e+00	 9.431330e+00
0	 8.571429e-01	 2.857143e+00	 9.233001e+00
0	 1.142857e+00	 1.428571e+00	 1.416604e+01
0	 1.142857e+00	 1.714286e+00	 1.221169e+01
0	 1.142857e+00	 2.000000e+00	 1.077095e+01
0	 1.142857e+00	 2.285714e+00	 9.827542e+00
0	 1.142857e+00	 2.571429e+00	 9.365171e+00
0	 1.142857e+00	 2.857143e+00	 9.367556e+00
0	 1.428571e+00	 1.428571e+00	 1.272322e+01
0	 1.428571e+00	 1.714286e+00	 1.133062e+01
0	 1.428571e+00	 2.000000e+00	 1.034344e+01
0	 1.428571e+00	 2.285714e+00	 9.737690e+00
0	 1.428571e+00	 2.571429e+00	 9.489384e+00
0	 1.428571e+00	 2.857143e+00	 9.574532e+00
0	 0.000000e+00	 2.857143e+00	 1.051356e+01
0	 0.000000e+00	 3.142857e+00	 8.932027e+00
0	 0.000000e+00	 3.428571e+00	 8.052376e+00
0	 0.000000e+00	 3.714286e+00	 7.801542e+00
0	 0.000000e+00	 4.000000e+00	 8.106453e+00
0	 0.000000e+00	 4.285714e+00	 8.894039e+00
0	 2.857143e-01	 2.857143e+00	 9.681034e+00
0	 2.857143e-01	 3.142857e+00	 8.933856e+00
0	 2.857143e-01	 3.428571e+00	 8.545362e+00
0	 2.857143e-01	 3.714286e+00	 8.477221e+00
0	 2.857143e-01	 4.000000e+00	 8.691099e+00
0	 2.857143e-01	 4.285714e+00	 9.148665e+00
0	 5.714286e-01	 2.857143e+00	 9.295836e+00
0	 5.714286e-01	 3.142857e+00	 9.077335e+00
0	 5.714286e-01	 3.428571e+00	 8.986695e+00
0	 5.714286e-01	 3.714286e+00	 9.012152e+00
0	 5.714286e-01	 4.000000e+00	 9.141938e+00
0	 5.714286e-01	 4.285714e+00	 9.364287e+00
0	 8.571429e-01	 2.857143e+00	 9.233001e+00
0	 8.571429e-01	 3.142857e+00	 9.303364e+00
0	 8.571429e-01	 3.428571e+00	 9.363093e+00
0	 8.571429e-01	 3.714286e+00	 9.418814e+00
0	 8.571429e-01	 4.000000e+00	 9.477153e+00
0	 8.571429e-01	 4.285714e+00	 9.544738e+00
0	 1.142857e+00	 2.857143e+00	 9.367556e+00
0	 1.142857e+00	 3.142857e+00	 9.552845e+00
0	 1.142857e+00	 3.428571e+00	 9.661271e+00
0	 1.142857e+00	 3.714286e+00	 9.709683e+00
0	 1.142857e+00	 4.000000e+00	 9.714928e+00
0	 1.142857e+00	 4.285714e+00	 9.693852e+00
0	 1.428571e+00	 2.857143e+00	 9.574532e+00
0	 1.428571e+00	 3.142857e+00	 9.766677e+00
0	 1.428571e+00	 3.428571e+00	 9.867947e+00
0	 1.428571e+00	 3.714286e+00	 9.897238e+00
0	 1.428571e+00	 4.000000e+00	 9.873444e+00
0	 1.428571e+00	 4.285714e+00	 9.815462e+00
0	 0.000000e+00	 4.285714e+00	 8.894039e+00
0	 0.000000e+00	 4.571429e+00	 9.708696e+00
0	 0.000000e+00	 4.857143e+00	 1.017648e+01
0	 0.000000e+00	 5.142857e+00	 1.034680e+01
0	 0.000000e+00	 5.428571e+00	 1.026906e+01
0	 0.000000e+00	 5.714286e+00	 9.992682e+00
0	 2.857143e-01	 4.285714e+00	 9.148665e+00
0	 2.857143e-01	 4.571429e+00	 9.615467e+00
0	 2.857143e-01	 4.857143e+00	 9.899507e+00
0	 2.857143e-01	 5.142857e+00	 1.002613e+01
0	 2.857143e-01	 5.428571e+00	 1.002069e+01
0	 2.857143e-01	 5.714286e+00	 9.908529e+00
0	 5.714286e-01	 4.285714e+00	 9.364287e+00
0	 5.714286e-01	 4.571429e+00	 9.591371e+00
0	 5.714286e-01	 4.857143e+00	 9.747980e+00
0	 5.714286e-01	 5.142857e+00	 9.841271e+00
0	 5.714286e-01	 5.428571e+00	 9.878403e+00
0	 5.714286e-01	 5.714286e+00	 9.866533e+00
0	 8.571429e-01	 4.285714e+00	 9.544738e+00
0	 8.571429e-01	 4.571429e+00	 9.620090e+00
0	 8.571429e-01	 4.857143e+00	 9.693874e+00
0	 8.571429e-01	 5.142857e+00	 9.760935e+00
0	 8.571429e-01	 5.428571e+00	 9.816117e+00
0	 8.571429e-01	 5.714286e+00	 9.854263e+00
0	 1.142857e+00	 4.285714e+00	 9.693852e+00
0	 1.142857e+00	 4.571429e+00	 9.685304e+00
0	 1.142857e+00	 4.857143e+00	 9.709168e+00
0	 1.142857e+00	 5.142857e+00	 9.753850e+00
0	 1.142857e+00	 5.428571e+00	 9.807755e+00
0	 1.142857e+00	 5.714286e+00	 9.859287e+00
0	 1.428571e+00	 4.285714e+00	 9.815462e+00
0	 1.428571e+00	 4.571429e+00	 9.770693e+00
0	 1.428571e+00	 4.857143e+00	 9.765839e+00
0	 1.428571e+00	 5.142857e+00	 9.788741e+00
0	 1.428571e+00	 5.428571e+00	 9.827238e+00
0	 1.428571e+00	 5.714286e+00	 9.869171e+00
0	 0.000000e+00	 5.714286e+00	 9.992682e+00
0	 0.000000e+00	 6.000000e+00	 9.722267e+00
0	 0.000000e+00	 6.285714e+00	 9.607301e+00
0	 0.000000e+00	 6.571429e+00	 9.614517e+00
0	 0.000000e+00	 6.857143e+00	 9.710647e+00
0	 0.000000e+00	 7.142857e+00	 9.862424e+00
0	 2.857143e-01	 5.714286e+00	 9.908529e+00
0	 2.857143e-01	 6.000000e+00	 9.792810e+00
0	 2.857143e-01	 6.285714e+00	 9.748821e+00
0	 2.857143e-01	 6.571429e+00	 9.760092e+00
0	 2.857143e-01	 6.857143e+00	 9.810153e+00
0	 2.857143e-01	 7.142857e+00	 9.882534e+00
0	 5.714286e-01	 5.714286e+00	 9.866533e+00
0	 5.714286e-01	 6.000000e+00	 9.842975e+00
0	 5.714286e-01	 6.285714e+00	 9.837674e+00
0	 5.714286e-01	 6.571429e+00	 9.846742e+00
0	 5.714286e-01	 6.857143e+00	 9.866286e+00
0	 5.714286e-01	 7.142857e+00	 9.892418e+00
0	 8.571429e-01	 5.714286e+00	 9.854263e+00
0	 8.571429e-01	 6.000000e+00	 9.875348e+00
0	 8.571429e-01	 6.285714e+00	 9.885763e+00
0	 8.571429e-01	 6.571429e+00	 9.889980e+00
0	 8.571429e-01	 6.857143e+00	 9.892469e+00
0	 8.571429e-01	 7.142857e+00	 9.897702e+00
0	 1.142857e+00	 5.714286e+00	 9.859287e+00
0	 1.142857e+00	 6.000000e+00	 9.892517e+00
0	 1.142857e+00	 6.285714e+00	 9.904990e+00
0	 1.142857e+00	 6.571429e+00	 9.905320e+00
0	 1.142857e+00	 6.857143e+00	 9.902121e+00
0	 1.142857e+00	 7.142857e+00	 9.904007e+00
0	 1.428571e+00	 5.714286e+00	 9.869171e+00
0	 1.428571e+00	 6.000000e+00	 9.897069e+00
0	 1.428571e+00	 6.285714e+00	 9.907256e+00
0	 1.428571e+00	 6.571429e+00	 9.908274e+00
0	 1.428571e+00	 6.857143e+00	 9.908662e+00
0	 1.428571e+00	 7.142857e+00	 9.916959e+00
0	 0.000000e+00	 7.142857e+00	 9.862424e+00
0	 0.000000e+00	 7.428571e+00	 9.985660e+00
0	 0.000000e+00	 7.714286e+00	 1.003367e+01
0	 0.000000e+00	 8.000000e+00	 1.002942e+01
0	 0.000000e+00	 8.285714e+00	 9.995898e+00
0	 0.000000e+00	 8.571429e+00	 9.956079e+00
0	 2.857143e-01	 7.142857e+00	 9.882534e+00
0	 2.857143e-01	 7.428571e+00	 9.941108e+00
0	 2.857143e-01	 7.714286e+00	 9.967956e+00
0	 2.857143e-01	 8.000000e+00	 9.973921e+00
0	 2.857143e-01	 8.285714e+00	 9.969843e+00
0	 2.857143e-01	 8.571429e+00	 9.966566e+00
0	 5.714286e-01	 7.142857e+00	 9.892418e+00
0	 5.714286e-01	 7.428571e+00	 9.917082e+00
0	 5.714286e-01	 7.714286e+00	 9.936080e+00
0	 5.714286e-01	 8.000000e+00	 9.951307e+00
0	 5.714286e-01	 8.285714e+00	 9.964660e+00
0	 5.714286e-01	 8.571429e+00	 9.978033e+00
0	 8.571429e-01	 7.142857e+00	 9.897702e+00
0	 8.571429e-01	 7.428571e+00	 9.910367e+00
0	 8.571429e-01	 7.714286e+00	 9.929600e+00
0	 8.571429e-01	 8.000000e+00	 9.951538e+00
0	 8.571429e-01	 8.285714e+00	 9.972322e+00
0	 8.571429e-01	 8.571429e+00	 9.988089e+00
0	 1.142857e+00	 7.142857e+00	 9.904007e+00
0	 1.142857e+00	 7.428571e+00	 9.917747e+00
0	 1.142857e+00	 7.714286e+00	 9.940078e+00
0	 1.142857e+00	 8.000000e+00	 9.964573e+00
0	 1.142857e+00	 8.285714e+00	 9.984803e+00
0	 1.142857e+00	 8.571429e+00	 9.994339e+00
0	 1.428571e+00	 7.142857e+00	 9.916959e+00
0	 1.428571e+00	 7.428571e+00	 9.936005e+00
0	 1.428571e+00	 7.714286e+00	 9.959077e+00
0	 1.428571e+00	 8.000000e+00	 9.980370e+00
0	 1.428571e+00	 8.285714e+00	 9.994077e+00
0	 1.428571e+00	 8.571429e+00	 9.994393e+00
0	 0.000000e+00	 8.571429e+00	 9.956079e+00
0	 0.000000e+00	 8.857143e+00	 9.945161e+00
0	 0.000000e+00	 9.142857e+00	 9.965610e+00
0	 0.000000e+00	 9.428571e+00	 9.991307e+00
0	 0.000000e+00	 9.714286e+00	 9.996130e+00
0	 0.000000e+00	 1.000000e+01	 9.953959e+00
0	 2.857143e-01	 8.571429e+00	 9.966566e+00
0	 2.857143e-01	 8.857143e+00	 9.974732e+00
0	 2.857143e-01	 9.142857e+00	 9.990225e+00
0	 2.857143e-01	 9.428571e+00	 1.000175e+01
0	 2.857143e-01	 9.714286e+00	 9.998002e+00
0	 2.857143e-01	 1.000000e+01	 9.967688e+00
0	 5.714286e-01	 8.571429e+00	 9.978033e+00
0	 5.714286e-01	 8.857143e+00	 9.990090e+00
0	 5.714286e-01	 9.142857e+00	 9.997849e+00
0	 5.714286e-01	 9.428571e+00	 1.000074e+01
0	 5.714286e-01	 9.714286e+00	 9.998200e+00
0	 5.714286e-01	 1.000000e+01	 9.989654e+00
0	 8.571429e-01	 8.571429e+00	 9.988089e+00
0	 8.571429e-01	 8.857143e+00	 9.994641e+00
0	 8.571429e-01	 9.142857e+00	 9.994399e+00
0	 8.571429e-01	 9.428571e+00	 9.993430e+00
0	 8.571429e-01	 9.714286e+00	 9.997800e+00
0	 8.571429e-01	 1.000000e+01	 1.001358e+01
0	 1.142857e+00	 8.571429e+00	 9.994339e+00
0	 1.142857e+00	 8.857143e+00	 9.991791e+00
0	 1.142857e+00	 9.142857e+00	 9.985791e+00
0	 1.142857e+00	 9.428571e+00	 9.984949e+00
0	 1.142857e+00	 9.714286e+00	 9.997875e+00
0	 1.142857e+00	 1.000000e+01	 1.003318e+01
0	 1.428571e+00	 8.571429e+00	 9.994393e+00
0	 1.428571e+00	 8.857143e+00	 9.984945e+00
0	 1.428571e+00	 9.142857e+00	 9.977941e+00
0	 1.428571e+00	 9.428571e+00	 9.980438e+00
0	 1.428571e+00	 9.714286e+00	 9.999498e+00
0	 1.428571e+00	 1.000000e+01	 1.004218e+01
0	 1.428571e+00	 0.000000e+00	 5.055267e+00
0	 1.428571e+00	 2.857143e-01	 9.240951e+00
0	 1.428571e+00	 5.714286e-01	 1.204712e+01
0	 1.428571e+00	 8.571429e-01	 1.352725e+01
0	 1.428571e+00	 1.142857e+00	 1.373479e+01
0	 1.428571e+00	 1.428571e+00	 1.272322e+01
0	 1.714286e+00	 0.000000e+00	 7.841442e+00
0	 1.714286e+00	 2.857143e-01	 1.023764e+01
0	 1.714286e+00	 5.714286e-01	 1.175769e+01
0	 1.714286e+00	 8.571429e-01	 1.246374e+01
0	 1.714286e+00	 1.142857e+00	 1.241795e+01
0	 1.714286e+00	 1.428571e+00	 1.168248e+01
0	 2.000000e+00	 0.000000e+00	 9.474526e+00
0	 2.000000e+00	 2.857143e-01	 1.069845e+01
0	 2.000000e+00	 5.714286e-01	 1.139934e+01
0	 2.000000e+00	 8.571429e-01	 1.164195e+01
0	 2.000000e+00	 1.142857e+00	 1.149103e+01
0	 2.000000e+00	 1.428571e+00	 1.101133e+01
0	 2.285714e+00	 0.000000e+00	 1.026184e+01
0	 2.285714e+00	 2.857143e-01	 1.078893e+01
0	 2.285714e+00	 5.714286e-01	 1.102819e+01
0	 2.285714e+00	 8.571429e-01	 1.104088e+01
0	 2.285714e+00	 1.142857e+00	 1.088825e+01
0	 2.285714e+00	 1.428571e+00	 1.063155e+01
0	 2.571429e+00	 0.000000e+00	 1.051072e+01
0	 2.571429e+00	 2.857143e-01	 1.067463e+01
0	 2.571429e+00	 5.714286e-01	 1.070034e+01
0	 2.571429e+00	 8.571429e-01	 1.063951e+01
0	 2.571429e+00	 1.142857e+00	 1.054382e+01
0	 2.571429e+00	 1.428571e+00	 1.046492e+01
0	 2.857143e+00	 0.000000e+00	 1.052848e+01
0	 2.857143e+00	 2.857143e-01	 1.052109e+01
0	 2.857143e+00	 5.714286e-01	 1.047189e+01
0	 2.857143e+00	 8.571429e-01	 1.041685e+01
0	 2.857143e+00	 1.142857e+00	 1.039196e+01
0	 2.857143e+00	 1.428571e+00	 1.043321e+01
0	 1.428571e+00	 1.428571e+00	 1.272322e+01
0	 1.428571e+00	 1.714286e+00	 1.133062e+01
0	 1.428571e+00	 2.000000e+00	 1.034344e+01
0	 1.428571e+00	 2.285714e+00	 9.737690e+00
0	 1.428571e+00	 2.571429e+00	 9.489384e+00
0	 1.428571e+00	 2.857143e+00	 9.574532e+00
0	 1.714286e+00	 1.428571e+00	 1.168248e+01
0	 1.714286e+00	 1.714286e+00	 1.077581e+01
0	 1.714286e+00	 2.000000e+00	 1.015782e+01
0	 1.714286e+00	 2.285714e+00	 9.802738e+00
0	 1.714286e+00	 2.571429e+00	 9.684805e+00
0	 1.714286e+00	 2.857143e+00	 9.778254e+00
0	 2.000000e+00	 1.428571e+00	 1.101133e+01
0	 2.000000e+00	 1.714286e+00	 1.048895e+01
0	 2.000000e+00	 2.000000e+00	 1.014980e+01
0	 2.000000e+00	 2.285714e+00	 9.968347e+00
0	 2.000000e+00	 2.571429e+00	 9.919072e+00
0	 2.000000e+00	 2.857143e+00	 9.976442e+00
0	 2.285714e+00	 1.428571e+00	 1.063155e+01
0	 2.285714e+00	 1.714286e+00	 1.039733e+01
0	 2.285714e+00	 2.000000e+00	 1.025576e+01
0	 2.285714e+00	 2.285714e+00	 1.018357e+01
0	 2.285714e+00	 2.571429e+00	 1.015748e+01
0	 2.285714e+00	 2.857143e+00	 1.015422e+01
0	 2.571429e+00	 1.428571e+00	 1.046492e+01
0	 2.571429e+00	 1.714286e+00	 1.042824e+01
0	 2.571429e+00	 2.000000e+00	 1.041209e+01
0	 2.571429e+00	 2.285714e+00	 1.039746e+01
0	 2.571429e+00	 2.571429e+00	 1.036533e+01
0	 2.571429e+00	 2.857143e+00	 1.029670e+01
0	 2.857143e+00	 1.428571e+00	 1.043321e+01
0	 2.857143e+00	 1.714286e+00	 1.050898e+01
0	 2.857143e+00	 2.000000e+00	 1.055517e+01
0	 2.857143e+00	 2.285714e+00	 1.055906e+01
0	 2.857143e+00	 2.571429e+00	 1.050791e+01
0	 2.857143e+00	 2.857143e+00	 1.038900e+01
0	 1.428571e+00	 2.857143e+00	 9.574532e+00
0	 1.428571e+00	 3.142857e+00	 9.766677e+00
0	 1.428571e+00	 3.428571e+00	 9.867947e+00
0	 1.428571e+00	 3.714286e+00	 9.897238e+00
0	 1.428571e+00	 4.000000e+00	 9.873444e+00
0	 1.428571e+00	 4.285714e+00	 9.815462e+00
0	 1.714286e+00	 2.857143e+00	 9.778254e+00
0	 1.714286e+00	 3.142857e+00	 9.924581e+00
0	 1.714286e+00	 3.428571e+00	 9.993544e+00
0	 1.714286e+00	 3.714286e+00	 1.000177e+01
0	 1.714286e+00	 4.000000e+00	 9.965885e+00
0	 1.714286e+00	 4.285714e+00	 9.902517e+00
0	 2.000000e+00	 2.857143e+00	 9.976442e+00
0	 2.000000e+00	 3.142857e+00	 1.004803e+01
0	 2.000000e+00	 3.428571e+00	 1.006771e+01
0	 2.000000e+00	 3.714286e+00	 1.004937e+01
0	 2.000000e+00	 4.000000e+00	 1.000691e+01
0	 2.000000e+00	 4.285714e+00	 9.954240e+00
0	 2.285714e+00	 2.857143e+00	 1.015422e+01
0	 2.285714e+00	 3.142857e+00	 1.014057e+01
0	 2.285714e+00	 3.428571e+00	 1.010600e+01
0	 2.285714e+00	 3.714286e+00	 1.006121e+01
0	 2.285714e+00	 4.000000e+00	 1.001693e+01
0	 2.285714e+00	 4.285714e+00	 9.983871e+00
0	 2.571429e+00	 2.857143e+00	 1.029670e+01
0	 2.571429e+00	 3.142857e+00	 1.020572e+01
0	 2.571429e+00	 3.428571e+00	 1.012395e+01
0	 2.571429e+00	 3.714286e+00	 1.005847e+01
0	 2.571429e+00	 4.000000e+00	 1.001635e+01
0	 2.571429e+00	 4.285714e+00	 1.000465e+01
0	 2.857143e+00	 2.857143e+00	 1.038900e+01
0	 2.857143e+00	 3.142857e+00	 1.024702e+01
0	 2.857143e+00	 3.428571e+00	 1.013714e+01
0	 2.857143e+00	 3.714286e+00	 1.006233e+01
0	 2.857143e+00	 4.000000e+00	 1.002556e+01
0	 2.857143e+00	 4.285714e+00	 1.002981e+01
0	 1.428571e+00	 4.285714e+00	 9.815462e+00
0	 1.428571e+00	 4.571429e+00	 9.770693e+00
0	 1.428571e+00	 4.857143e+00	 9.765839e+00
0	 1.428571e+00	 5.142857e+00	 9.788741e+00
0	 1.428571e+00	 5.428571e+00	 9.827238e+00
0	 1.428571e+00	 5.714286e+00	 9.869171e+00
0	 1.714286e+00	 4.285714e+00	 9.902517e+00
0	 1.714286e+00	 4.571429e+00	 9.851194e+00
0	 1.714286e+00	 4.857143e+00	 9.833814e+00
0	 1.714286e+00	 5.142857e+00	 9.840560e+00
0	 1.714286e+00	 5.428571e+00	 9.861617e+00
0	 1.714286e+00	 5.714286e+00	 9.887170e+00
0	 2.000000e+00	 4.285714e+00	 9.954240e+00
0	 2.000000e+00	 4.571429e+00	 9.915370e+00
0	 2.000000e+00	 4.857143e+00	 9.900025e+00
0	 2.000000e+00	 5.142857e+00	 9.900675e+00
0	 2.000000e+00	 5.428571e+00	 9.909789e+00
0	 2.000000e+00	 5.714286e+00	 9.919835e+00
0	 2.285714e+00	 4.285714e+00	 9.983871e+00
0	 2.285714e+00	 4.571429e+00	 9.967340e+00
0	 2.285714e+00	 4.857143e+00	 9.961961e+00
0	 2.285714e+00	 5.142857e+00	 9.962429e+00
0	 2.285714e+00	 5.428571e+00	 9.963439e+00
0	 2.285714e+00	 5.714286e+00	 9.959684e+00
0	 2.571429e+00	 4.285714e+00	 1.000465e+01
0	 2.571429e+00	 4.571429e+00	 1.001122e+01
0	 2.571429e+00	 4.857143e+00	 1.001711e+01
0	 2.571429e+00	 5.142857e+00	 1.001917e+01
0	 2.571429e+00	 5.428571e+00	 1.001425e+01
0	 2.571429e+00	 5.714286e+00	 9.999236e+00
0	 2.857143e+00	 4.285714e+00	 1.002981e+01
0	 2.857143e+00	 4.571429e+00	 1.005114e+01
0	 2.857143e+00	 4.857143e+00	 1.006296e+01
0	 2.857143e+00	 5.142857e+00	 1.006423e+01
0	 2.857143e+00	 5.428571e+00	 1.005392e+01
0	 2.857143e+00	 5.714286e+00	 1.003101e+01
0	 1.428571e+00	 5.714286e+00	 9.869171e+00
0	 1.428571e+00	 6.000000e+00	 9.897069e+00
0	 1.428571e+00	 6.285714e+00	 9.907256e+00
0	 1.428571e+00	 6.571429e+00	 9.908274e+00
0	 1.428571e+00	 6.857143e+00	 9.908662e+00
0	 1.428571e+00	 7.142857e+00	 9.916959e+00
0	 1.714286e+00	 5.714286e+00	 9.887170e+00
0	 1.714286e+00	 6.000000e+00	 9.904339e+00
0	 1.714286e+00	 6.285714e+00	 9.911102e+00
0	 1.714286e+00	 6.571429e+00	 9.913927e+00
0	 1.714286e+00	 6.857143e+00	 9.919282e+00
0	 1.714286e+00	 7.142857e+00	 9.933634e+00
0	 2.000000e+00	 5.714286e+00	 9.919835e+00
0	 2.000000e+00	 6.000000e+00	 9.924276e+00
0	 2.000000e+00	 6.285714e+00	 9.924676e+00
0	 2.000000e+00	 6.571429e+00	 9.925656e+00
0	 2.000000e+00	 6.857143e+00	 9.931835e+00
0	 2.000000e+00	 7.142857e+00	 9.947835e+00
0	 2.285714e+00	 5.714286e+00	 9.959684e+00
0	 2.285714e+00	 6.000000e+00	 9.951385e+00
0	 2.285714e+00	 6.285714e+00	 9.944296e+00
0	 2.285714e+00	 6.571429e+00	 9.941414e+00
0	 2.285714e+00	 6.857143e+00	 9.945738e+00
0	 2.285714e+00	 7.142857e+00	 9.960265e+00
0	 2.571429e+00	 5.714286e+00	 9.999236e+00
0	 2.571429e+00	 6.000000e+00	 9.980171e+00
0	 2.571429e+00	 6.285714e+00	 9.966278e+00
0	 2.571429e+00	 6.571429e+00	 9.959158e+00
0	 2.571429e+00	 6.857143e+00	 9.960410e+00
0	 2.571429e+00	 7.142857e+00	 9.971632e+00
0	 2.857143e+00	 5.714286e+00	 1.003101e+01
0	 2.857143e+00	 6.000000e+00	 1.000514e+01
0	 2.857143e+00	 6.285714e+00	 9.986941e+00
0	 2.857143e+00	 6.571429e+00	 9.976842e+00
0	 2.857143e+00	 6.857143e+00	 9.975266e+00
0	 2.857143e+00	 7.142857e+00	 9.982640e+00
0	 1.428571e+00	 7.142857e+00	 9.916959e+00
0	 1.428571e+00	 7.428571e+00	 9.936005e+00
0	 1.428571e+00	 7.714286e+00	 9.959077e+00
0	 1.428571e+00	 8.000000e+00	 9.980370e+00
0	 1.428571e+00	 8.285714e+00	 9.994077e+00
0	 1.428571e+00	 8.571429e+00	 9.994393e+00
0	 1.714286e+00	 7.142857e+00	 9.933634e+00
0	 1.714286e+00	 7.428571e+00	 9.955295e+00
0	 1.714286e+00	 7.714286e+00	 9.975741e+00
0	 1.714286e+00	 8.000000e+00	 9.991188e+00
0	 1.714286e+00	 8.285714e+00	 9.997851e+00
0	 1.714286e+00	 8.571429e+00	 9.991947e+00
0	 2.000000e+00	 7.142857e+00	 9.947835e+00
0	 2.000000e+00	 7.428571e+00	 9.968991e+00
0	 2.000000e+00	 7.714286e+00	 9.986127e+00
0	 2.000000e+00	 8.000000e+00	 9.997087e+00
0	 2.000000e+00	 8.285714e+00	 9.999719e+00
0	 2.000000e+00	 8.571429e+00	 9.991869e+00
0	 2.285714e+00	 7.142857e+00	 9.960265e+00
0	 2.285714e+00	 7.428571e+00	 9.978706e+00
0	 2.285714e+00	 7.714286e+00	 9.992165e+00
0	 2.285714e+00	 8.000000e+00	 9.999729e+00
0	 2.285714e+00	 8.285714e+00	 1.000048e+01
0	 2.285714e+00	 8.571429e+00	 9.993517e+00
0	 2.571429e+00	 7.142857e+00	 9.971632e+00
0	 2.571429e+00	 7.428571e+00	 9.986052e+00
0	 2.571429e+00	 7.714286e+00	 9.995787e+00
0	 2.571429e+00	 8.000000e+00	 1.000078e+01
0	 2.571429e+00	 8.285714e+00	 1.000095e+01
0	 2.571429e+00	 8.571429e+00	 9.996251e+00
0	 2.857143e+00	 7.142857e+00	 9.982640e+00
0	 2.857143e+00	 7.428571e+00	 9.992640e+00
0	 2.857143e+00	 7.714286e+00	 9.998925e+00
0	 2.857143e+00	 8.000000e+00	 1.000189e+01
0	 2.857143e+00	 8.285714e+00	 1.000193e+01
0	 2.857143e+00	 8.571429e+00	 9.999431e+00
0	 1.428571e+00	 8.571429e+00	 9.994393e+00
0	 1.428571e+00	 8.857143e+00	 9.984945e+00
0	 1.428571e+00	 9.142857e+00	 9.977941e+00
0	 1.428571e+00	 9.428571e+00	 9.980438e+00
0	 1.428571e+00	 9.714286e+00	 9.999498e+00
0	 1.428571e+00	 1.000000e+01	 1.004218e+01
0	 1.714286e+00	 8.571429e+00	 9.991947e+00
0	 1.714286e+00	 8.857143e+00	 9.980511e+00
0	 1.714286e+00	 9.142857e+00	 9.975674e+00
0	 1.714286e+00	 9.428571e+00	 9.981300e+00
0	 1.714286e+00	 9.714286e+00	 1.000125e+01
0	 1.714286e+00	 1.000000e+01	 1.003938e+01
0	 2.000000e+00	 8.571429e+00	 9.991869e+00
0	 2.000000e+00	 8.857143e+00	 9.981375e+00
0	 2.000000e+00	 9.142857e+00	 9.978486e+00
0	 2.000000e+00	 9.428571e+00	 9.984660e+00
0	 2.000000e+00	 9.714286e+00	 1.000136e+01
0	 2.000000e+00	 1.000000e+01	 1.003004e+01
0	 2.285714e+00	 8.571429e+00	 9.993517e+00
0	 2.285714e+00	 8.857143e+00	 9.985669e+00
0	 2.285714e+00	 9.142857e+00	 9.984292e+00
0	 2.285714e+00	 9.428571e+00	 9.989241e+00
0	 2.285714e+00	 9.714286e+00	 1.000037e+01
0	 2.285714e+00	 1.000000e+01	 1.001754e+01
0	 2.571429e+00	 8.571429e+00	 9.996251e+00
0	 2.571429e+00	 8.857143e+00	 9.991520e+00
0	 2.571429e+00	 9.142857e+00	 9.991010e+00
0	 2.571429e+00	 9.428571e+00	 9.993769e+00
0	 2.571429e+00	 9.714286e+00	 9.998845e+00
0	 2.571429e+00	 1.000000e+01	 1.000529e+01
0	 2.857143e+00	 8.571429e+00	 9.999431e+00
0	 2.857143e+00	 8.857143e+00	 9.997058e+00
0	 2.857143e+00	 9.142857e+00	 9.996558e+00
0	 2.857143e+00	 9.428571e+00	 9.996967e+00
0	 2.857143e+00	 9.714286e+00	 9.997323e+00
0	 2.857143e+00	 1.000000e+01	 9.996664e+00
0	 2.857143e+00	 0.000000e+00	 1.052848e+01
0	 2.857143e+00	 2.857143e-01	 1.052109e+01
0	 2.857143e+00	 5.714286e-01	 1.047189e+01
0	 2.857143e+00	 8.571429e-01	 1.041685e+01
0	 2.857143e+00	 1.142857e+00	 1.039196e+01
0	 2.857143e+00	 1.428571e+00	 1.043321e+01
0	 3.142857e+00	 0.000000e+00	 1.051957e+01
0	 3.142857e+00	 2.857143e-01	 1.043430e+01
0	 3.142857e+00	 5.714286e-01	 1.036423e+01
0	 3.142857e+00	 8.571429e-01	 1.032887e+01
0	 3.142857e+00	 1.142857e+00	 1.034774e+01
0	 3.142857e+00	 1.428571e+00	 1.044035e+01
0	 3.428571e+00	 0.000000e+00	 1.048292e+01
0	 3.428571e+00	 2.857143e-01	 1.039302e+01
0	 3.428571e+00	 5.714286e-01	 1.033617e+01
0	 3.428571e+00	 8.571429e-01	 1.031991e+01
0	 3.428571e+00	 1.142857e+00	 1.035180e+01
0	 3.428571e+00	 1.428571e+00	 1.043940e+01
0	 3.714286e+00	 0.000000e+00	 1.041756e+01
0	 3.714286e+00	 2.857143e-01	 1.037195e+01
0	 3.714286e+00	 5.714286e-01	 1.034987e+01
0	 3.714286e+00	 8.571429e-01	 1.035142e+01
0	 3.714286e+00	 1.142857e+00	 1.037670e+01
0	 3.714286e+00	 1.428571e+00	 1.042582e+01
0	 4.000000e+00	 0.000000e+00	 1.032251e+01
0	 4.000000e+00	 2.857143e-01	 1.034578e+01
0	 4.000000e+00	 5.714286e-01	 1.036752e+01
0	 4.000000e+00	 8.571429e-01	 1.038488e+01
0	 4.000000e+00	 1.142857e+00	 1.039501e+01
0	 4.000000e+00	 1.428571e+00	 1.039508e+01
0	 4.285714e+00	 0.000000e+00	 1.019680e+01
0	 4.285714e+00	 2.857143e-01	 1.028922e+01
0	 4.285714e+00	 5.714286e-01	 1.035130e+01
0	 4.285714e+00	 8.571429e-01	 1.038175e+01
0	 4.285714e+00	 1.142857e+00	 1.037929e+01
0	 4.285714e+00	 1.428571e+00	 1.034264e+01
0	 2.857143e+00	 1.428571e+00	 1.043321e+01
0	 2.857143e+00	 1.714286e+00	 1.050898e+01
0	 2.857143e+00	 2.000000e+00	 1.055517e+01
0	 2.857143e+00	 2.285714e+00	 1.055906e+01
0	 2.857143e+00	 2.571429e+00	 1.050791e+01
0	 2.857143e+00	 2.857143e+00	 1.038900e+01
0	 3.142857e+00	 1.428571e+00	 1.044035e+01
0	 3.142857e+00	 1.714286e+00	 1.055246e+01
0	 3.142857e+00	 2.000000e+00	 1.061260e+01
0	 3.142857e+00	 2.285714e+00	 1.061444e+01
0	 3.142857e+00	 2.571429e+00	 1.055166e+01
0	 3.142857e+00	 2.857143e+00	 1.041791e+01
0	 3.428571e+00	 1.428571e+00	 1.043940e+01
0	 3.428571e+00	 1.714286e+00	 1.053312e+01
0	 3.428571e+00	 2.000000e+00	 1.057723e+01
0	 3.428571e+00	 2.285714e+00	 1.057001e+01
0	 3.428571e+00	 2.571429e+00	 1.050976e+01
0	 3.428571e+00	 2.857143e+00	 1.039477e+01
0	 3.714286e+00	 1.428571e+00	 1.042582e+01
0	 3.714286e+00	 1.714286e+00	 1.047054e+01
0	 3.714286e+00	 2.000000e+00	 1.048334e+01
0	 3.714286e+00	 2.285714e+00	 1.046534e+01
0	 3.714286e+00	 2.571429e+00	 1.041769e+01
0	 3.714286e+00	 2.857143e+00	 1.034153e+01
0	 4.000000e+00	 1.428571e+00	 1.039508e+01
0	 4.000000e+00	 1.714286e+00	 1.038428e+01
0	 4.000000e+00	 2.000000e+00	 1.036518e+01
0	 4.000000e+00	 2.285714e+00	 1.033999e+01
0	 4.000000e+00	 2.571429e+00	 1.031090e+01
0	 4.000000e+00	 2.857143e+00	 1.028012e+01
0	 4.285714e+00	 1.428571e+00	 1.034264e+01
0	 4.285714e+00	 1.714286e+00	 1.029390e+01
0	 4.285714e+00	 2.000000e+00	 1.025703e+01
0	 4.285714e+00	 2.285714e+00	 1.023352e+01
0	 4.285714e+00	 2.571429e+00	 1.022485e+01
0	 4.285714e+00	 2.857143e+00	 1.023251e+01
0	 2.857143e+00	 2.857143e+00	 1.038900e+01
0	 2.857143e+00	 3.142857e+00	 1.024702e+01
0	 2.857143e+00	 3.428571e+00	 1.013714e+01
0	 2.857143e+00	 3.714286e+00	 1.006233e+01
0	 2.857143e+00	 4.000000e+00	 1.002556e+01
0	 2.857143e+00	 4.285714e+00	 1.002981e+01
0	 3.142857e+00	 2.857143e+00	 1.041791e+01
0	 3.142857e+00	 3.142857e+00	 1.026722e+01
0	 3.142857e+00	 3.428571e+00	 1.015737e+01
0	 3.142857e+00	 3.714286e+00	 1.008764e+01
0	 3.142857e+00	 4.000000e+00	 1.005735e+01
0	 3.142857e+00	 4.285714e+00	 1.006581e+01
0	 3.428571e+00	 2.857143e+00	 1.039477e+01
0	 3.428571e+00	 3.142857e+00	 1.027090e+01
0	 3.428571e+00	 3.428571e+00	 1.018312e+01
0	 3.428571e+00	 3.714286e+00	 1.012839e+01
0	 3.428571e+00	 4.000000e+00	 1.010370e+01
0	 3.428571e+00	 4.285714e+00	 1.010600e+01
0	 3.714286e+00	 2.857143e+00	 1.034153e+01
0	 3.714286e+00	 3.142857e+00	 1.026428e+01
0	 3.714286e+00	 3.428571e+00	 1.020995e+01
0	 3.714286e+00	 3.714286e+00	 1.017449e+01
0	 3.714286e+00	 4.000000e+00	 1.015385e+01
0	 3.714286e+00	 4.285714e+00	 1.014399e+01
0	 4.000000e+00	 2.857143e+00	 1.028012e+01
0	 4.000000e+00	 3.142857e+00	 1.025363e+01
0	 4.000000e+00	 3.428571e+00	 1.023344e+01
0	 4.000000e+00	 3.714286e+00	 1.021582e+01
0	 4.000000e+00	 4.000000e+00	 1.019705e+01
0	 4.000000e+00	 4.285714e+00	 1.017340e+01
0	 4.285714e+00	 2.857143e+00	 1.023251e+01
0	 4.285714e+00	 3.142857e+00	 1.024517e+01
0	 4.285714e+00	 3.428571e+00	 1.024912e+01
0	 4.285714e+00	 3.714286e+00	 1.024228e+01
0	 4.285714e+00	 4.000000e+00	 1.022255e+01
0	 4.285714e+00	 4.285714e+00	 1.018784e+01
0	 2.857143e+00	 4.285714e+00	 1.002981e+01
0	 2.857143e+00	 4.571429e+00	 1.005114e+01
0	 2.857143e+00	 4.857143e+00	 1.006296e+01
0	 2.857143e+00	 5.142857e+00	 1.006423e+01
0	 2.857143e+00	 5.428571e+00	 1.005392e+01
0	 2.857143e+00	 5.714286e+00	 1.003101e+01
0	 3.142857e+00	 4.285714e+00	 1.006581e+01
0	 3.142857e+00	 4.571429e+00	 1.008680e+01
0	 3.142857e+00	 4.857143e+00	 1.009505e+01
0	 3.142857e+00	 5.142857e+00	 1.009124e+01
0	 3.142857e+00	 5.428571e+00	 1.007606e+01
0	 3.142857e+00	 5.714286e+00	 1.005019e+01
0	 3.428571e+00	 4.285714e+00	 1.010600e+01
0	 3.428571e+00	 4.571429e+00	 1.011484e+01
0	 3.428571e+00	 4.857143e+00	 1.011294e+01
0	 3.428571e+00	 5.142857e+00	 1.010198e+01
0	 3.428571e+00	 5.428571e+00	 1.008365e+01
0	 3.428571e+00	 5.714286e+00	 1.005964e+01
0	 3.714286e+00	 4.285714e+00	 1.014399e+01
0	 3.714286e+00	 4.571429e+00	 1.013479e+01
0	 3.714286e+00	 4.857143e+00	 1.012016e+01
0	 3.714286e+00	 5.142857e+00	 1.010207e+01
0	 3.714286e+00	 5.428571e+00	 1.008249e+01
0	 3.714286e+00	 5.714286e+00	 1.006338e+01
0	 4.000000e+00	 4.285714e+00	 1.017340e+01
0	 4.000000e+00	 4.571429e+00	 1.014619e+01
0	 4.000000e+00	 4.857143e+00	 1.012025e+01
0	 4.000000e+00	 5.142857e+00	 1.009712e+01
0	 4.000000e+00	 5.428571e+00	 1.007833e+01
0	 4.000000e+00	 5.714286e+00	 1.006542e+01
0	 4.285714e+00	 4.285714e+00	 1.018784e+01
0	 4.285714e+00	 4.571429e+00	 1.014856e+01
0	 4.285714e+00	 4.857143e+00	 1.011673e+01
0	 4.285714e+00	 5.142857e+00	 1.009273e+01
0	 4.285714e+00	 5.428571e+00	 1.007696e+01
0	 4.285714e+00	 5.714286e+00	 1.006978e+01
0	 2.857143e+00	 5.714286e+00	 1.003101e+01
0	 2.857143e+00	 6.000000e+00	 1.000514e+01
0	 2.857143e+00	 6.285714e+00	 9.986941e+00
0	 2.857143e+00	 6.571429e+00	 9.976842e+00
0	 2.857143e+00	 6.857143e+00	 9.975266e+00
0	 2.857143e+00	 7.142857e+00	 9.982640e+00
0	 3.142857e+00	 5.714286e+00	 1.005019e+01
0	 3.142857e+00	 6.000000e+00	 1.002349e+01
0	 3.142857e+00	 6.285714e+00	 1.000504e+01
0	 3.142857e+00	 6.571429e+00	 9.994389e+00
0	 3.142857e+00	 6.857143e+00	 9.991096e+00
0	 3.142857e+00	 7.142857e+00	 9.994710e+00
0	 3.428571e+00	 5.714286e+00	 1.005964e+01
0	 3.428571e+00	 6.000000e+00	 1.003717e+01
0	 3.428571e+00	 6.285714e+00	 1.002169e+01
0	 3.428571e+00	 6.571429e+00	 1.001226e+01
0	 3.428571e+00	 6.857143e+00	 1.000794e+01
0	 3.428571e+00	 7.142857e+00	 1.000778e+01
0	 3.714286e+00	 5.714286e+00	 1.006338e+01
0	 3.714286e+00	 6.000000e+00	 1.004780e+01
0	 3.714286e+00	 6.285714e+00	 1.003677e+01
0	 3.714286e+00	 6.571429e+00	 1.002923e+01
0	 3.714286e+00	 6.857143e+00	 1.002410e+01
0	 3.714286e+00	 7.142857e+00	 1.002033e+01
0	 4.000000e+00	 5.714286e+00	 1.006542e+01
0	 4.000000e+00	 6.000000e+00	 1.005701e+01
0	 4.000000e+00	 6.285714e+00	 1.005016e+01
0	 4.000000e+00	 6.571429e+00	 1.004405e+01
0	 4.000000e+00	 6.857143e+00	 1.003788e+01
0	 4.000000e+00	 7.142857e+00	 1.003084e+01
0	 4.285714e+00	 5.714286e+00	 1.006978e+01
0	 4.285714e+00	 6.000000e+00	 1.006642e+01
0	 4.285714e+00	 6.285714e+00	 1.006171e+01
0	 4.285714e+00	 6.571429e+00	 1.005549e+01
0	 4.285714e+00	 6.857143e+00	 1.004758e+01
0	 4.285714e+00	 7.142857e+00	 1.003779e+01
0	 2.857143e+00	 7.142857e+00	 9.982640e+00
0	 2.857143e+00	 7.428571e+00	 9.992640e+00
0	 2.857143e+00	 7.714286e+00	 9.998925e+00
0	 2.857143e+00	 8.000000e+00	 1.000189e+01
0	 2.857143e+00	 8.285714e+00	 1.000193e+01
0	 2.857143e+00	 8.571429e+00	 9.999431e+00
0	 3.142857e+00	 7.142857e+00	 9.994710e+00
0	 3.142857e+00	 7.428571e+00	 1.000015e+01
0	 3.142857e+00	 7.714286e+00	 1.000302e+01
0	 3.142857e+00	 8.000000e+00	 1.000391e+01
0	 3.142857e+00	 8.285714e+00	 1.000341e+01
0	 3.142857e+00	 8.571429e+00	 1.000211e+01
0	 3.428571e+00	 7.142857e+00	 1.000778e+01
0	 3.428571e+00	 7.428571e+00	 1.000849e+01
0	 3.428571e+00	 7.714286e+00	 1.000782e+01
0	 3.428571e+00	 8.000000e+00	 1.000642e+01
0	 3.428571e+00	 8.285714e+00	 1.000493e+01
0	 3.428571e+00	 8.571429e+00	 1.000397e+01
0	 3.714286e+00	 7.142857e+00	 1.002033e+01
0	 3.714286e+00	 7.428571e+00	 1.001661e+01
0	 3.714286e+00	 7.714286e+00	 1.001270e+01
0	 3.714286e+00	 8.000000e+00	 1.000916e+01
0	 3.714286e+00	 8.285714e+00	 1.000653e+01
0	 3.714286e+00	 8.571429e+00	 1.000536e+01
0	 4.000000e+00	 7.142857e+00	 1.003084e+01
0	 4.000000e+00	 7.428571e+00	 1.002347e+01
0	 4.000000e+00	 7.714286e+00	 1.001704e+01
0	 4.000000e+00	 8.000000e+00	 1.001187e+01
0	 4.000000e+00	 8.285714e+00	 1.000828e+01
0	 4.000000e+00	 8.571429e+00	 1.000659e+01
0	 4.285714e+00	 7.142857e+00	 1.003779e+01
0	 4.285714e+00	 7.428571e+00	 1.002802e+01
0	 4.285714e+00	 7.714286e+00	 1.002021e+01
0	 4.285714e+00	 8.000000e+00	 1.001431e+01
0	 4.285714e+00	 8.285714e+00	 1.001026e+01
0	 4.285714e+00	 8.571429e+00	 1.000799e+01
0	 2.857143e+00	 8.571429e+00	 9.999431e+00
0	 2.857143e+00	 8.857143e+00	 9.997058e+00
0	 2.857143e+00	 9.142857e+00	 9.996558e+00
0	 2.857143e+00	 9.428571e+00	 9.996967e+00
0	 2.857143e+00	 9.714286e+00	 9.997323e+00
0	 2.857143e+00	 1.000000e+01	 9.996664e+00
0	 3.142857e+00	 8.571429e+00	 1.000211e+01
0	 3.142857e+00	 8.857143e+00	 1.000095e+01
0	 3.142857e+00	 9.142857e+00	 1.000010e+01
0	 3.142857e+00	 9.428571e+00	 9.998966e+00
0	 3.142857e+00	 9.714286e+00	 9.996933e+00
0	 3.142857e+00	 1.000000e+01	 9.993403e+00
0	 3.428571e+00	 8.571429e+00	 1.000397e+01
0	 3.428571e+00	 8.857143e+00	 1.000340e+01
0	 3.428571e+00	 9.142857e+00	 1.000240e+01
0	 3.428571e+00	 9.428571e+00	 1.000069e+01
0	 3.428571e+00	 9.714286e+00	 9.997959e+00
0	 3.428571e+00	 1.000000e+01	 9.993907e+00
0	 3.714286e+00	 8.571429e+00	 1.000536e+01
0	 3.714286e+00	 8.857143e+00	 1.000484e+01
0	 3.714286e+00	 9.142857e+00	 1.000376e+01
0	 3.714286e+00	 9.428571e+00	 1.000206e+01
0	 3.714286e+00	 9.714286e+00	 9.999687e+00
0	 3.714286e+00	 1.000000e+01	 9.996583e+00
0	 4.000000e+00	 8.571429e+00	 1.000659e+01
0	 4.000000e+00	 8.857143e+00	 1.000572e+01
0	 4.000000e+00	 9.142857e+00	 1.000448e+01
0	 4.000000e+00	 9.428571e+00	 1.000299e+01
0	 4.000000e+00	 9.714286e+00	 1.000141e+01
0	 4.000000e+00	 1.000000e+01	 9.999837e+00
0	 4.285714e+00	 8.571429e+00	 1.000799e+01
0	 4.285714e+00	 8.857143e+00	 1.000647e+01
0	 4.285714e+00	 9.142857e+00	 1.000486e+01
0	 4.285714e+00	 9.428571e+00	 1.000341e+01
0	 4.285714e+00	 9.714286e+00	 1.000240e+01
0	 4.285714e+00	 1.000000e+01	 1.000208e+01
0	 4.285714e+00	 0.000000e+00	 1.019680e+01
0	 4.285714e+00	 2.857143e-01	 1.028922e+01
0	 4.285714e+00	 5.714286e-01	 1.035130e+01
0	 4.285714e+00	 8.571429e-01	 1.038175e+01
0	 4.285714e+00	 1.142857e+00	 1.037929e+01
0	 4.285714e+00	 1.428571e+00	 1.034264e+01
0	 4.571429e+00	 0.000000e+00	 1.009385e+01
0	 4.571429e+00	 2.857143e-01	 1.021816e+01
0	 4.571429e+00	 5.714286e-01	 1.029703e+01
0	 4.571429e+00	 8.571429e-01	 1.033242e+01
0	 4.571429e+00	 1.142857e+00	 1.032629e+01
0	 4.571429e+00	 1.428571e+00	 1.028057e+01
0	 4.857143e+00	 0.000000e+00	 1.005618e+01
0	 4.857143e+00	 2.857143e-01	 1.016561e+01
0	 4.857143e+00	 5.714286e-01	 1.023323e+01
0	 4.857143e+00	 8.571429e-01	 1.026306e+01
0	 4.857143e+00	 1.142857e+00	 1.025912e+01
0	 4.857143e+00	 1.428571e+00	 1.022542e+01
0	 5.142857e+00	 0.000000e+00	 1.006641e+01
0	 5.142857e+00	 2.857143e-01	 1.013196e+01
0	 5.142857e+00	 5.714286e-01	 1.017111e+01
0	 5.142857e+00	 8.571429e-01	 1.018880e+01
0	 5.142857e+00	 1.142857e+00	 1.018995e+01
0	 5.142857e+00	 1.428571e+00	 1.017948e+01
0	 5.428571e+00	 0.000000e+00	 1.010717e+01
0	 5.428571e+00	 2.857143e-01	 1.011756e+01
0	 5.428571e+00	 5.714286e-01	 1.012188e+01
0	 5.428571e+00	 8.571429e-01	 1.012477e+01
0	 5.428571e+00	 1.142857e+00	 1.013092e+01
0	 5.428571e+00	 1.428571e+00	 1.014498e+01
0	 5.714286e+00	 0.000000e+00	 1.016110e+01
0	 5.714286e+00	 2.857143e-01	 1.012281e+01
0	 5.714286e+00	 5.714286e-01	 1.009674e+01
0	 5.714286e+00	 8.571429e-01	 1.008612e+01
0	 5.714286e+00	 1.142857e+00	 1.009420e+01
0	 5.714286e+00	 1.428571e+00	 1.012420e+01
0	 4.285714e+00	 1.428571e+00	 1.034264e+01
0	 4.285714e+00	 1.714286e+00	 1.029390e+01
0	 4.285714e+00	 2.000000e+00	 1.025703e+01
0	 4.285714e+00	 2.285714e+00	 1.023352e+01
0	 4.285714e+00	 2.571429e+00	 1.022485e+01
0	 4.285714e+00	 2.857143e+00	 1.023251e+01
0	 4.571429e+00	 1.428571e+00	 1.028057e+01
0	 4.571429e+00	 1.714286e+00	 1.022569e+01
0	 4.571429e+00	 2.000000e+00	 1.019088e+01
0	 4.571429e+00	 2.285714e+00	 1.017627e+01
0	 4.571429e+00	 2.571429e+00	 1.018200e+01
0	 4.571429e+00	 2.857143e+00	 1.020819e+01
0	 4.857143e+00	 1.428571e+00	 1.022542e+01
0	 4.857143e+00	 1.714286e+00	 1.018700e+01
0	 4.857143e+00	 2.000000e+00	 1.016572e+01
0	 4.857143e+00	 2.285714e+00	 1.016084e+01
0	 4.857143e+00	 2.571429e+00	 1.017164e+01
0	 4.857143e+00	 2.857143e+00	 1.019740e+01
0	 5.142857e+00	 1.428571e+00	 1.017948e+01
0	 5.142857e+00	 1.714286e+00	 1.016904e+01
0	 5.142857e+00	 2.000000e+00	 1.016629e+01
0	 5.142857e+00	 2.285714e+00	 1.017011e+01
0	 5.142857e+00	 2.571429e+00	 1.017943e+01
0	 5.142857e+00	 2.857143e+00	 1.019316e+01
0	 5.428571e+00	 1.428571e+00	 1.014498e+01
0	 5.428571e+00	 1.714286e+00	 1.016303e+01
0	 5.428571e+00	 2.000000e+00	 1.017736e+01
0	 5.428571e+00	 2.285714e+00	 1.018702e+01
0	 5.428571e+00	 2.571429e+00	 1.019104e+01
0	 5.428571e+00	 2.857143e+00	 1.018848e+01
0	 5.714286e+00	 1.428571e+00	 1.012420e+01
0	 5.714286e+00	 1.714286e+00	 1.016016e+01
0	 5.714286e+00	 2.000000e+00	 1.018369e+01
0	 5.714286e+00	 2.285714e+00	 1.019446e+01
0	 5.714286e+00	 2.571429e+00	 1.019213e+01
0	 5.714286e+00	 2.857143e+00	 1.017637e+01
0	 4.285714e+00	 2.857143e+00	 1.023251e+01
0	 4.285714e+00	 3.142857e+00	 1.024517e+01
0	 4.285714e+00	 3.428571e+00	 1.024912e+01
0	 4.285714e+00	 3.714286e+00	 1.024228e+01
0	 4.285714e+00	 4.000000e+00	 1.022255e+01
0	 4.285714e+00	 4.285714e+00	 1.018784e+01
0	 4.571429e+00	 2.857143e+00	 1.020819e+01
0	 4.571429e+00	 3.142857e+00	 1.023654e+01
0	 4.571429e+00	 3.428571e+00	 1.024856e+01
0	 4.571429e+00	 3.714286e+00	 1.024411e+01
0	 4.571429e+00	 4.000000e+00	 1.022306e+01
0	 4.571429e+00	 4.285714e+00	 1.018529e+01
0	 4.857143e+00	 2.857143e+00	 1.019740e+01
0	 4.857143e+00	 3.142857e+00	 1.022202e+01
0	 4.857143e+00	 3.428571e+00	 1.023062e+01
0	 4.857143e+00	 3.714286e+00	 1.022434e+01
0	 4.857143e+00	 4.000000e+00	 1.020429e+01
0	 4.857143e+00	 4.285714e+00	 1.017160e+01
0	 5.142857e+00	 2.857143e+00	 1.019316e+01
0	 5.142857e+00	 3.142857e+00	 1.020285e+01
0	 5.142857e+00	 3.428571e+00	 1.020192e+01
0	 5.142857e+00	 3.714286e+00	 1.019204e+01
0	 5.142857e+00	 4.000000e+00	 1.017491e+01
0	 5.142857e+00	 4.285714e+00	 1.015219e+01
0	 5.428571e+00	 2.857143e+00	 1.018848e+01
0	 5.428571e+00	 3.142857e+00	 1.018027e+01
0	 5.428571e+00	 3.428571e+00	 1.016902e+01
0	 5.428571e+00	 3.714286e+00	 1.015629e+01
0	 5.428571e+00	 4.000000e+00	 1.014361e+01
0	 5.428571e+00	 4.285714e+00	 1.013251e+01
0	 5.714286e+00	 2.857143e+00	 1.017637e+01
0	 5.714286e+00	 3.142857e+00	 1.015550e+01
0	 5.714286e+00	 3.428571e+00	 1.013853e+01
0	 5.714286e+00	 3.714286e+00	 1.012616e+01
0	 5.714286e+00	 4.000000e+00	 1.011907e+01
0	 5.714286e+00	 4.285714e+00	 1.011797e+01
0	 4.285714e+00	 4.285714e+00	 1.018784e+01
0	 4.285714e+00	 4.571429e+00	 1.014856e+01
0	 4.285714e+00	 4.857143e+00	 1.011673e+01
0	 4.285714e+00	 5.142857e+00	 1.009273e+01
0	 4.285714e+00	 5.428571e+00	 1.007696e+01
0	 4.285714e+00	 5.714286e+00	 1.006978e+01
0	 4.571429e+00	 4.285714e+00	 1.018529e+01
0	 4.571429e+00	 4.571429e+00	 1.014460e+01
0	 4.571429e+00	 4.857143e+00	 1.011431e+01
0	 4.571429e+00	 5.142857e+00	 1.009353e+01
0	 4.571429e+00	 5.428571e+00	 1.008140e+01
0	 4.571429e+00	 5.714286e+00	 1.007703e+01
0	 4.857143e+00	 4.285714e+00	 1.017160e+01
0	 4.857143e+00	 4.571429e+00	 1.013828e+01
0	 4.857143e+00	 4.857143e+00	 1.011449e+01
0	 4.857143e+00	 5.142857e+00	 1.009862e+01
0	 4.857143e+00	 5.428571e+00	 1.008903e+01
0	 4.857143e+00	 5.714286e+00	 1.008411e+01
0	 5.142857e+00	 4.285714e+00	 1.015219e+01
0	 5.142857e+00	 4.571429e+00	 1.013098e+01
0	 5.142857e+00	 4.857143e+00	 1.011598e+01
0	 5.142857e+00	 5.142857e+00	 1.010533e+01
0	 5.142857e+00	 5.428571e+00	 1.009715e+01
0	 5.142857e+00	 5.714286e+00	 1.008960e+01
0	 5.428571e+00	 4.285714e+00	 1.013251e+01
0	 5.428571e+00	 4.571429e+00	 1.012412e+01
0	 5.428571e+00	 4.857143e+00	 1.011748e+01
0	 5.428571e+00	 5.142857e+00	 1.011099e+01
0	 5.428571e+00	 5.428571e+00	 1.010305e+01
0	 5.428571e+00	 5.714286e+00	 1.009207e+01
0	 5.714286e+00	 4.285714e+00	 1.011797e+01
0	 5.714286e+00	 4.571429e+00	 1.011910e+01
0	 5.714286e+00	 4.857143e+00	 1.011769e+01
0	 5.714286e+00	 5.142857e+00	 1.011294e+01
0	 5.714286e+00	 5.428571e+00	 1.010401e+01
0	 5.714286e+00	 5.714286e+00	 1.009011e+01
0	 4.285714e+00	 5.714286e+00	 1.006978e+01
0	 4.285714e+00	 6.000000e+00	 1.006642e+01
0	 4.285714e+00	 6.285714e+00	 1.006171e+01
0	 4.285714e+00	 6.571429e+00	 1.005549e+01
0	 4.285714e+00	 6.857143e+00	 1.004758e+01
0	 4.285714e+00	 7.142857e+00	 1.003779e+01
0	 4.571429e+00	 5.714286e+00	 1.007703e+01
0	 4.571429e+00	 6.000000e+00	 1.007461e+01
0	 4.571429e+00	 6.285714e+00	 1.006928e+01
0	 4.571429e+00	 6.571429e+00	 1.006153e+01
0	 4.571429e+00	 6.857143e+00	 1.005185e+01
0	 4.571429e+00	 7.142857e+00	 1.004074e+01
0	 4.857143e+00	 5.714286e+00	 1.008411e+01
0	 4.857143e+00	 6.000000e+00	 1.007928e+01
0	 4.857143e+00	 6.285714e+00	 1.007169e+01
0	 4.857143e+00	 6.571429e+00	 1.006220e+01
0	 4.857143e+00	 6.857143e+00	 1.005168e+01
0	 4.857143e+00	 7.142857e+00	 1.004103e+01
0	 5.142857e+00	 5.714286e+00	 1.008960e+01
0	 5.142857e+00	 6.000000e+00	 1.008067e+01
0	 5.142857e+00	 6.285714e+00	 1.007026e+01
0	 5.142857e+00	 6.571429e+00	 1.005935e+01
0	 5.142857e+00	 6.857143e+00	 1.004888e+01
0	 5.142857e+00	 7.142857e+00	 1.003982e+01
0	 5.428571e+00	 5.714286e+00	 1.009207e+01
0	 5.428571e+00	 6.000000e+00	 1.007900e+01
0	 5.428571e+00	 6.285714e+00	 1.006633e+01
0	 5.428571e+00	 6.571429e+00	 1.005483e+01
0	 5.428571e+00	 6.857143e+00	 1.004524e+01
0	 5.428571e+00	 7.142857e+00	 1.003830e+01
0	 5.714286e+00	 5.714286e+00	 1.009011e+01
0	 5.714286e+00	 6.000000e+00	 1.007452e+01
0	 5.714286e+00	 6.285714e+00	 1.006123e+01
0	 5.714286e+00	 6.571429e+00	 1.005050e+01
0	 5.714286e+00	 6.857143e+00	 1.004255e+01
0	 5.714286e+00	 7.142857e+00	 1.003764e+01
0	 4.285714e+00	 7.142857e+00	 1.003779e+01
0	 4.285714e+00	 7.428571e+00	 1.002802e+01
0	 4.285714e+00	 7.714286e+00	 1.002021e+01
0	 4.285714e+00	 8.000000e+00	 1.001431e+01
0	 4.285714e+00	 8.285714e+00	 1.001026e+01
0	 4.285714e+00	 8.571429e+00	 1.000799e+01
0	 4.571429e+00	 7.142857e+00	 1.004074e+01
0	 4.571429e+00	 7.428571e+00	 1.003046e+01
0	 4.571429e+00	 7.714286e+00	 1.002263e+01
0	 4.571429e+00	 8.000000e+00	 1.001683e+01
0	 4.571429e+00	 8.285714e+00	 1.001265e+01
0	 4.571429e+00	 8.571429e+00	 1.000966e+01
0	 4.857143e+00	 7.142857e+00	 1.004103e+01
0	 4.857143e+00	 7.428571e+00	 1.003190e+01
0	 4.857143e+00	 7.714286e+00	 1.002498e+01
0	 4.857143e+00	 8.000000e+00	 1.001965e+01
0	 4.857143e+00	 8.285714e+00	 1.001529e+01
0	 4.857143e+00	 8.571429e+00	 1.001129e+01
0	 5.142857e+00	 7.142857e+00	 1.003982e+01
0	 5.142857e+00	 7.428571e+00	 1.003274e+01
0	 5.142857e+00	 7.714286e+00	 1.002713e+01
0	 5.142857e+00	 8.000000e+00	 1.002234e+01
0	 5.142857e+00	 8.285714e+00	 1.001771e+01
0	 5.142857e+00	 8.571429e+00	 1.001262e+01
0	 5.428571e+00	 7.142857e+00	 1.003830e+01
0	 5.428571e+00	 7.428571e+00	 1.003337e+01
0	 5.428571e+00	 7.714286e+00	 1.002892e+01
0	 5.428571e+00	 8.000000e+00	 1.002444e+01
0	 5.428571e+00	 8.285714e+00	 1.001943e+01
0	 5.428571e+00	 8.571429e+00	 1.001337e+01
0	 5.714286e+00	 7.142857e+00	 1.003764e+01
0	 5.714286e+00	 7.428571e+00	 1.003416e+01
0	 5.714286e+00	 7.714286e+00	 1.003019e+01
0	 5.714286e+00	 8.000000e+00	 1.002553e+01
0	 5.714286e+00	 8.285714e+00	 1.001996e+01
0	 5.714286e+00	 8.571429e+00	 1.001326e+01
0	 4.285714e+00	 8.571429e+00	 1.000799e+01
0	 4.285714e+00	 8.857143e+00	 1.000647e+01
0	 4.285714e+00	 9.142857e+00	 1.000486e+01
0	 4.285714e+00	 9.428571e+00	 1.000341e+01
0	 4.285714e+00	 9.714286e+00	 1.000240e+01
0	 4.285714e+00	 1.000000e+01	 1.000208e+01
0	 4.571429e+00	 8.571429e+00	 1.000966e+01
0	 4.571429e+00	 8.857143e+00	 1.000715e+01
0	 4.571429e+00	 9.142857e+00	 1.000488e+01
0	 4.571429e+00	 9.428571e+00	 1.000319e+01
0	 4.571429e+00	 9.714286e+00	 1.000239e+01
0	 4.571429e+00	 1.000000e+01	 1.000280e+01
0	 4.857143e+00	 8.571429e+00	 1.001129e+01
0	 4.857143e+00	 8.857143e+00	 1.000752e+01
0	 4.857143e+00	 9.142857e+00	 1.000448e+01
0	 4.857143e+00	 9.428571e+00	 1.000246e+01
0	 4.857143e+00	 9.714286e+00	 1.000178e+01
0	 4.857143e+00	 1.000000e+01	 1.000274e+01
0	 5.142857e+00	 8.571429e+00	 1.001262e+01
0	 5.142857e+00	 8.857143e+00	 1.000762e+01
0	 5.142857e+00	 9.142857e+00	 1.000385e+01
0	 5.142857e+00	 9.428571e+00	 1.000154e+01
0	 5.142857e+00	 9.714286e+00	 1.000091e+01
0	 5.142857e+00	 1.000000e+01	 1.000216e+01
0	 5.428571e+00	 8.571429e+00	 1.001337e+01
0	 5.428571e+00	 8.857143e+00	 1.000744e+01
0	 5.428571e+00	 9.142857e+00	 1.000323e+01
0	 5.428571e+00	 9.428571e+00	 1.000077e+01
0	 5.428571e+00	 9.714286e+00	 1.000011e+01
0	 5.428571e+00	 1.000000e+01	 1.000131e+01
0	 5.714286e+00	 8.571429e+00	 1.001326e+01
0	 5.714286e+00	 8.857143e+00	 1.000702e+01
0	 5.714286e+00	 9.142857e+00	 1.000281e+01
0	 5.714286e+00	 9.428571e+00	 1.000045e+01
0	 5.714286e+00	 9.714286e+00	 9.999736e+00
0	 5.714286e+00	 1.000000e+01	 1.000047e+01
0	 5.714286e+00	 0.000000e+00	 1.016110e+01
0	 5.714286e+00	 2.857143e-01	 1.012281e+01
0	 5.714286e+00	 5.714286e-01	 1.009674e+01
0	 5.714286e+00	 8.571429e-01	 1.008612e+01
0	 5.714286e+00	 1.142857e+00	 1.009420e+01
0	 5.714286e+00	 1.428571e+00	 1.012420e+01
0	 6.000000e+00	 0.000000e+00	 1.018974e+01
0	 6.000000e+00	 2.857143e-01	 1.013047e+01
0	 6.000000e+00	 5.714286e-01	 1.009179e+01
0	 6.000000e+00	 8.571429e-01	 1.007518e+01
0	 6.000000e+00	 1.142857e+00	 1.008211e+01
0	 6.000000e+00	 1.428571e+00	 1.011408e+01
0	 6.285714e+00	 0.000000e+00	 1.017593e+01
0	 6.285714e+00	 2.857143e-01	 1.012483e+01
0	 6.285714e+00	 5.714286e-01	 1.009225e+01
0	 6.285714e+00	 8.571429e-01	 1.007843e+01
0	 6.285714e+00	 1.142857e+00	 1.008357e+01
0	 6.285714e+00	 1.428571e+00	 1.010789e+01
0	 6.571429e+00	 0.000000e+00	 1.013420e+01
0	 6.571429e+00	 2.857143e-01	 1.010853e+01
0	 6.571429e+00	 5.714286e-01	 1.009306e+01
0	 6.571429e+00	 8.571429e-01	 1.008726e+01
0	 6.571429e+00	 1.142857e+00	 1.009057e+01
0	 6.571429e+00	 1.428571e+00	 1.010244e+01
0	 6.857143e+00	 0.000000e+00	 1.007909e+01
0	 6.857143e+00	 2.857143e-01	 1.008423e+01
0	 6.857143e+00	 5.714286e-01	 1.008916e+01
0	 6.857143e+00	 8.571429e-01	 1.009306e+01
0	 6.857143e+00	 1.142857e+00	 1.009511e+01
0	 6.857143e+00	 1.428571e+00	 1.009448e+01
0	 7.142857e+00	 0.000000e+00	 1.002511e+01
0	 7.142857e+00	 2.857143e-01	 1.005458e+01
0	 7.142857e+00	 5.714286e-01	 1.007548e+01
0	 7.142857e+00	 8.571429e-01	 1.008722e+01
0	 7.142857e+00	 1.142857e+00	 1.008920e+01
0	 7.142857e+00	 1.428571e+00	 1.008082e+01
0	 5.714286e+00	 1.428571e+00	 1.012420e+01
0	 5.714286e+00	 1.714286e+00	 1.016016e+01
0	 5.714286e+00	 2.000000e+00	 1.018369e+01
0	 5.714286e+00	 2.285714e+00	 1.019446e+01
0	 5.714286e+00	 2.571429e+00	 1.019213e+01
0	 5.714286e+00	 2.857143e+00	 1.017637e+01
0	 6.000000e+00	 1.428571e+00	 1.011408e+01
0	 6.000000e+00	 1.714286e+00	 1.015147e+01
0	 6.000000e+00	 2.000000e+00	 1.017395e+01
0	 6.000000e+00	 2.285714e+00	 1.018193e+01
0	 6.000000e+00	 2.571429e+00	 1.017581e+01
0	 6.000000e+00	 2.857143e+00	 1.015597e+01
0	 6.285714e+00	 1.428571e+00	 1.010789e+01
0	 6.285714e+00	 1.714286e+00	 1.013551e+01
0	 6.285714e+00	 2.000000e+00	 1.015095e+01
0	 6.285714e+00	 2.285714e+00	 1.015506e+01
0	 6.285714e+00	 2.571429e+00	 1.014870e+01
0	 6.285714e+00	 2.857143e+00	 1.013272e+01
0	 6.571429e+00	 1.428571e+00	 1.010244e+01
0	 6.571429e+00	 1.714286e+00	 1.011479e+01
0	 6.571429e+00	 2.000000e+00	 1.012060e+01
0	 6.571429e+00	 2.285714e+00	 1.012091e+01
0	 6.571429e+00	 2.571429e+00	 1.011675e+01
0	 6.571429e+00	 2.857143e+00	 1.010915e+01
0	 6.857143e+00	 1.428571e+00	 1.009448e+01
0	 6.857143e+00	 1.714286e+00	 1.009180e+01
0	 6.857143e+00	 2.000000e+00	 1.008885e+01
0	 6.857143e+00	 2.285714e+00	 1.008656e+01
0	 6.857143e+00	 2.571429e+00	 1.008590e+01
0	 6.857143e+00	 2.857143e+00	 1.008778e+01
0	 7.142857e+00	 1.428571e+00	 1.008082e+01
0	 7.142857e+00	 1.714286e+00	 1.006904e+01
0	 7.142857e+00	 2.000000e+00	 1.006161e+01
0	 7.142857e+00	 2.285714e+00	 1.005910e+01
0	 7.142857e+00	 2.571429e+00	 1.006209e+01
0	 7.142857e+00	 2.857143e+00	 1.007114e+01
0	 5.714286e+00	 2.857143e+00	 1.017637e+01
0	 5.714286e+00	 3.142857e+00	 1.015550e+01
0	 5.714286e+00	 3.428571e+00	 1.013853e+01
0	 5.714286e+00	 3.714286e+00	 1.012616e+01
0	 5.714286e+00	 4.000000e+00	 1.011907e+01
0	 5.714286e+00	 4.285714e+00	 1.011797e+01
0	 6.000000e+00	 2.857143e+00	 1.015597e+01
0	 6.000000e+00	 3.142857e+00	 1.013307e+01
0	 6.000000e+00	 3.428571e+00	 1.011730e+01
0	 6.000000e+00	 3.714286e+00	 1.010834e+01
0	 6.000000e+00	 4.000000e+00	 1.010589e+01
0	 6.000000e+00	 4.285714e+00	 1.010965e+01
0	 6.285714e+00	 2.857143e+00	 1.013272e+01
0	 6.285714e+00	 3.142857e+00	 1.011578e+01
0	 6.285714e+00	 3.428571e+00	 1.010532e+01
0	 6.285714e+00	 3.714286e+00	 1.010044e+01
0	 6.285714e+00	 4.000000e+00	 1.010021e+01
0	 6.285714e+00	 4.285714e+00	 1.010371e+01
0	 6.571429e+00	 2.857143e+00	 1.010915e+01
0	 6.571429e+00	 3.142857e+00	 1.010231e+01
0	 6.571429e+00	 3.428571e+00	 1.009895e+01
0	 6.571429e+00	 3.714286e+00	 1.009791e+01
0	 6.571429e+00	 4.000000e+00	 1.009804e+01
0	 6.571429e+00	 4.285714e+00	 1.009818e+01
0	 6.857143e+00	 2.857143e+00	 1.008778e+01
0	 6.857143e+00	 3.142857e+00	 1.009137e+01
0	 6.857143e+00	 3.428571e+00	 1.009450e+01
0	 6.857143e+00	 3.714286e+00	 1.009617e+01
0	 6.857143e+00	 4.000000e+00	 1.009538e+01
0	 6.857143e+00	 4.285714e+00	 1.009113e+01
0	 7.142857e+00	 2.857143e+00	 1.007114e+01
0	 7.142857e+00	 3.142857e+00	 1.008165e+01
0	 7.142857e+00	 3.428571e+00	 1.008831e+01
0	 7.142857e+00	 3.714286e+00	 1.009066e+01
0	 7.142857e+00	 4.000000e+00	 1.008824e+01
0	 7.142857e+00	 4.285714e+00	 1.008057e+01
0	 5.714286e+00	 4.285714e+00	 1.011797e+01
0	 5.714286e+00	 4.571429e+00	 1.011910e+01
0	 5.714286e+00	 4.857143e+00	 1.011769e+01
0	 5.714286e+00	 5.142857e+00	 1.011294e+01
0	 5.714286e+00	 5.428571e+00	 1.010401e+01
0	 5.714286e+00	 5.714286e+00	 1.009011e+01
0	 6.000000e+00	 4.285714e+00	 1.010965e+01
0	 6.000000e+00	 4.571429e+00	 1.011399e+01
0	 6.000000e+00	 4.857143e+00	 1.011353e+01
0	 6.000000e+00	 5.142857e+00	 1.010833e+01
0	 6.000000e+00	 5.428571e+00	 1.009843e+01
0	 6.000000e+00	 5.714286e+00	 1.008389e+01
0	 6.285714e+00	 4.285714e+00	 1.010371e+01
0	 6.285714e+00	 4.571429e+00	 1.010622e+01
0	 6.285714e+00	 4.857143e+00	 1.010405e+01
0	 6.285714e+00	 5.142857e+00	 1.009781e+01
0	 6.285714e+00	 5.428571e+00	 1.008807e+01
0	 6.285714e+00	 5.714286e+00	 1.007545e+01
0	 6.571429e+00	 4.285714e+00	 1.009818e+01
0	 6.571429e+00	 4.571429e+00	 1.009618e+01
0	 6.571429e+00	 4.857143e+00	 1.009116e+01
0	 6.571429e+00	 5.142857e+00	 1.008394e+01
0	 6.571429e+00	 5.428571e+00	 1.007534e+01
0	 6.571429e+00	 5.714286e+00	 1.006617e+01
0	 6.857143e+00	 4.285714e+00	 1.009113e+01
0	 6.857143e+00	 4.571429e+00	 1.008425e+01
0	 6.857143e+00	 4.857143e+00	 1.007675e+01
0	 6.857143e+00	 5.142857e+00	 1.006931e+01
0	 6.857143e+00	 5.428571e+00	 1.006263e+01
0	 6.857143e+00	 5.714286e+00	 1.005742e+01
0	 7.142857e+00	 4.285714e+00	 1.008057e+01
0	 7.142857e+00	 4.571429e+00	 1.007085e+01
0	 7.142857e+00	 4.857143e+00	 1.006272e+01
0	 7.142857e+00	 5.142857e+00	 1.005646e+01
0	 7.142857e+00	 5.428571e+00	 1.005233e+01
0	 7.142857e+00	 5.714286e+00	 1.005057e+01
0	 5.714286e+00	 5.714286e+00	 1.009011e+01
0	 5.714286e+00	 6.000000e+00	 1.007452e+01
0	 5.714286e+00	 6.285714e+00	 1.006123e+01
0	 5.714286e+00	 6.571429e+00	 1.005050e+01
0	 5.714286e+00	 6.857143e+00	 1.004255e+01
0	 5.714286e+00	 7.142857e+00	 1.003764e+01
0	 6.000000e+00	 5.714286e+00	 1.008389e+01
0	 6.000000e+00	 6.000000e+00	 1.006878e+01
0	 6.000000e+00	 6.285714e+00	 1.005692e+01
0	 6.000000e+00	 6.571429e+00	 1.004800e+01
0	 6.000000e+00	 6.857143e+00	 1.004174e+01
0	 6.000000e+00	 7.142857e+00	 1.003781e+01
0	 6.285714e+00	 5.714286e+00	 1.007545e+01
0	 6.285714e+00	 6.000000e+00	 1.006327e+01
0	 6.285714e+00	 6.285714e+00	 1.005404e+01
0	 6.285714e+00	 6.571429e+00	 1.004713e+01
0	 6.285714e+00	 6.857143e+00	 1.004191e+01
0	 6.285714e+00	 7.142857e+00	 1.003776e+01
0	 6.571429e+00	 5.714286e+00	 1.006617e+01
0	 6.571429e+00	 6.000000e+00	 1.005815e+01
0	 6.571429e+00	 6.285714e+00	 1.005196e+01
0	 6.571429e+00	 6.571429e+00	 1.004687e+01
0	 6.571429e+00	 6.857143e+00	 1.004217e+01
0	 6.571429e+00	 7.142857e+00	 1.003710e+01
0	 6.857143e+00	 5.714286e+00	 1.005742e+01
0	 6.857143e+00	 6.000000e+00	 1.005356e+01
0	 6.857143e+00	 6.285714e+00	 1.005004e+01
0	 6.857143e+00	 6.571429e+00	 1.004626e+01
0	 6.857143e+00	 6.857143e+00	 1.004160e+01
0	 6.857143e+00	 7.142857e+00	 1.003544e+01
0	 7.142857e+00	 5.714286e+00	 1.005057e+01
0	 7.142857e+00	 6.000000e+00	 1.004965e+01
0	 7.142857e+00	 6.285714e+00	 1.004766e+01
0	 7.142857e+00	 6.571429e+00	 1.004430e+01
0	 7.142857e+00	 6.857143e+00	 1.003930e+01
0	 7.142857e+00	 7.142857e+00	 1.003238e+01
0	 5.714286e+00	 7.142857e+00	 1.003764e+01
0	 5.714286e+00	 7.428571e+00	 1.003416e+01
0	 5.714286e+00	 7.714286e+00	 1.003019e+01
0	 5.714286e+00	 8.000000e+00	 1.002553e+01
0	 5.714286e+00	 8.285714e+00	 1.001996e+01
0	 5.714286e+00	 8.571429e+00	 1.001326e+01
0	 6.000000e+00	 7.142857e+00	 1.003781e+01
0	 6.000000e+00	 7.428571e+00	 1.003445e+01
0	 6.000000e+00	 7.714286e+00	 1.003013e+01
0	 6.000000e+00	 8.000000e+00	 1.002494e+01
0	 6.000000e+00	 8.285714e+00	 1.001901e+01
0	 6.000000e+00	 8.571429e+00	 1.001242e+01
0	 6.285714e+00	 7.142857e+00	 1.003776e+01
0	 6.285714e+00	 7.428571e+00	 1.003346e+01
0	 6.285714e+00	 7.714286e+00	 1.002838e+01
0	 6.285714e+00	 8.000000e+00	 1.002280e+01
0	 6.285714e+00	 8.285714e+00	 1.001701e+01
0	 6.285714e+00	 8.571429e+00	 1.001129e+01
0	 6.571429e+00	 7.142857e+00	 1.003710e+01
0	 6.571429e+00	 7.428571e+00	 1.003141e+01
0	 6.571429e+00	 7.714286e+00	 1.002554e+01
0	 6.571429e+00	 8.000000e+00	 1.001982e+01
0	 6.571429e+00	 8.285714e+00	 1.001457e+01
0	 6.571429e+00	 8.571429e+00	 1.001013e+01
0	 6.857143e+00	 7.142857e+00	 1.003544e+01
0	 6.857143e+00	 7.428571e+00	 1.002853e+01
0	 6.857143e+00	 7.714286e+00	 1.002221e+01
0	 6.857143e+00	 8.000000e+00	 1.001671e+01
0	 6.857143e+00	 8.285714e+00	 1.001229e+01
0	 6.857143e+00	 8.571429e+00	 1.000917e+01
0	 7.142857e+00	 7.142857e+00	 1.003238e+01
0	 7.142857e+00	 7.428571e+00	 1.002503e+01
0	 7.142857e+00	 7.714286e+00	 1.001896e+01
0	 7.142857e+00	 8.000000e+00	 1.001420e+01
0	 7.142857e+00	 8.285714e+00	 1.001076e+01
0	 7.142857e+00	 8.571429e+00	 1.000866e+01
0	 5.714286e+00	 8.571429e+00	 1.001326e+01
0	 5.714286e+00	 8.857143e+00	 1.000702e+01
0	 5.714286e+00	 9.142857e+00	 1.000281e+01
0	 5.714286e+00	 9.428571e+00	 1.000045e+01
0	 5.714286e+00	 9.714286e+00	 9.999736e+00
0	 5.714286e+00	 1.000000e+01	 1.000047e+01
0	 6.000000e+00	 8.571429e+00	 1.001242e+01
0	 6.000000e+00	 8.857143e+00	 1.000668e+01
0	 6.000000e+00	 9.142857e+00	 1.000295e+01
0	 6.000000e+00	 9.428571e+00	 1.000081e+01
0	 6.000000e+00	 9.714286e+00	 9.999841e+00
0	 6.000000e+00	 1.000000e+01	 9.999611e+00
0	 6.285714e+00	 8.571429e+00	 1.001129e+01
0	 6.285714e+00	 8.857143e+00	 1.000667e+01
0	 6.285714e+00	 9.142857e+00	 1.000363e+01
0	 6.285714e+00	 9.428571e+00	 1.000164e+01
0	 6.285714e+00	 9.714286e+00	 1.000017e+01
0	 6.285714e+00	 1.000000e+01	 9.998690e+00
0	 6.571429e+00	 8.571429e+00	 1.001013e+01
0	 6.571429e+00	 8.857143e+00	 1.000685e+01
0	 6.571429e+00	 9.142857e+00	 1.000452e+01
0	 6.571429e+00	 9.428571e+00	 1.000260e+01
0	 6.571429e+00	 9.714286e+00	 1.000058e+01
0	 6.571429e+00	 1.000000e+01	 9.997939e+00
0	 6.857143e+00	 8.571429e+00	 1.000917e+01
0	 6.857143e+00	 8.857143e+00	 1.000707e+01
0	 6.857143e+00	 9.142857e+00	 1.000526e+01
0	 6.857143e+00	 9.428571e+00	 1.000335e+01
0	 6.857143e+00	 9.714286e+00	 1.000092e+01
0	 6.857143e+00	 1.000000e+01	 9.997588e+00
0	 7.142857e+00	 8.571429e+00	 1.000866e+01
0	 7.142857e+00	 8.857143e+00	 1.000720e+01
0	 7.142857e+00	 9.142857e+00	 1.000554e+01
0	 7.142857e+00	 9.428571e+00	 1.000354e+01
0	 7.142857e+00	 9.714286e+00	 1.000104e+01
0	 7.142857e+00	 1.000000e+01	 9.997866e+00
0	 7.142857e+00	 0.000000e+00	 1.002511e+01
0	 7.142857e+00	 2.857143e-01	 1.005458e+01
0	 7.142857e+00	 5.714286e-01	 1.007548e+01
0	 7.142857e+00	 8.571429e-01	 1.008722e+01
0	 7.142857e+00	 1.142857e+00	 1.008920e+01
0	 7.142857e+00	 1.428571e+00	 1.008082e+01
0	 7.428571e+00	 0.000000e+00	 9.993502e+00
0	 7.428571e+00	 2.857143e-01	 1.002931e+01
0	 7.428571e+00	 5.714286e-01	 1.005421e+01
0	 7.428571e+00	 8.571429e-01	 1.006801e+01
0	 7.428571e+00	 1.142857e+00	 1.007055e+01
0	 7.428571e+00	 1.428571e+00	 1.006164e+01
0	 7.714286e+00	 0.000000e+00	 9.988062e+00
0	 7.714286e+00	 2.857143e-01	 1.001405e+01
0	 7.714286e+00	 5.714286e-01	 1.003217e+01
0	 7.714286e+00	 8.571429e-01	 1.004256e+01
0	 7.714286e+00	 1.142857e+00	 1.004533e+01
0	 7.714286e+00	 1.428571e+00	 1.004062e+01
0	 8.000000e+00	 0.000000e+00	 9.997191e+00
0	 8.000000e+00	 2.857143e-01	 1.000532e+01
0	 8.000000e+00	 5.714286e-01	 1.001132e+01
0	 8.000000e+00	 8.571429e-01	 1.001550e+01
0	 8.000000e+00	 1.142857e+00	 1.001820e+01
0	 8.000000e+00	 1.428571e+00	 1.001973e+01
0	 8.285714e+00	 0.000000e+00	 1.000929e+01
0	 8.285714e+00	 2.857143e-01	 9.999642e+00
0	 8.285714e+00	 5.714286e-01	 9.993583e+00
0	 8.285714e+00	 8.571429e-01	 9.991514e+00
0	 8.285714e+00	 1.142857e+00	 9.993837e+00
0	 8.285714e+00	 1.428571e+00	 1.000095e+01
0	 8.571429e+00	 0.000000e+00	 1.001276e+01
0	 8.571429e+00	 2.857143e-01	 9.993544e+00
0	 8.571429e+00	 5.714286e-01	 9.980914e+00
0	 8.571429e+00	 8.571429e-01	 9.975242e+00
0	 8.571429e+00	 1.142857e+00	 9.976899e+00
0	 8.571429e+00	 1.428571e+00	 9.986256e+00
0	 7.142857e+00	 1.428571e+00	 1.008082e+01
0	 7.142857e+00	 1.714286e+00	 1.006904e+01
0	 7.142857e+00	 2.000000e+00	 1.006161e+01
0	 7.142857e+00	 2.285714e+00	 1.005910e+01
0	 7.142857e+00	 2.571429e+00	 1.006209e+01
0	 7.142857e+00	 2.857143e+00	 1.007114e+01
0	 7.428571e+00	 1.428571e+00	 1.006164e+01
0	 7.428571e+00	 1.714286e+00	 1.004968e+01
0	 7.428571e+00	 2.000000e+00	 1.004328e+01
0	 7.428571e+00	 2.285714e+00	 1.004260e+01
0	 7.428571e+00	 2.571429e+00	 1.004777e+01
0	 7.428571e+00	 2.857143e+00	 1.005893e+01
0	 7.714286e+00	 1.428571e+00	 1.004062e+01
0	 7.714286e+00	 1.714286e+00	 1.003428e+01
0	 7.714286e+00	 2.000000e+00	 1.003202e+01
0	 7.714286e+00	 2.285714e+00	 1.003369e+01
0	 7.714286e+00	 2.571429e+00	 1.003916e+01
0	 7.714286e+00	 2.857143e+00	 1.004830e+01
0	 8.000000e+00	 1.428571e+00	 1.001973e+01
0	 8.000000e+00	 1.714286e+00	 1.002147e+01
0	 8.000000e+00	 2.000000e+00	 1.002442e+01
0	 8.000000e+00	 2.285714e+00	 1.002833e+01
0	 8.000000e+00	 2.571429e+00	 1.003293e+01
0	 8.000000e+00	 2.857143e+00	 1.003796e+01
0	 8.285714e+00	 1.428571e+00	 1.000095e+01
0	 8.285714e+00	 1.714286e+00	 1.000984e+01
0	 8.285714e+00	 2.000000e+00	 1.001708e+01
0	 8.285714e+00	 2.285714e+00	 1.002244e+01
0	 8.285714e+00	 2.571429e+00	 1.002569e+01
0	 8.285714e+00	 2.857143e+00	 1.002660e+01
0	 8.571429e+00	 1.428571e+00	 9.986256e+00
0	 8.571429e+00	 1.714286e+00	 9.998015e+00
0	 8.571429e+00	 2.000000e+00	 1.000660e+01
0	 8.571429e+00	 2.285714e+00	 1.001198e+01
0	 8.571429e+00	 2.571429e+00	 1.001409e+01
0	 8.571429e+00	 2.857143e+00	 1.001290e+01
0	 7.142857e+00	 2.857143e+00	 1.007114e+01
0	 7.142857e+00	 3.142857e+00	 1.008165e+01
0	 7.142857e+00	 3.428571e+00	 1.008831e+01
0	 7.142857e+00	 3.714286e+00	 1.009066e+01
0	 7.142857e+00	 4.000000e+00	 1.008824e+01
0	 7.142857e+00	 4.285714e+00	 1.008057e+01
0	 7.428571e+00	 2.857143e+00	 1.005893e+01
0	 7.428571e+00	 3.142857e+00	 1.007052e+01
0	 7.428571e+00	 3.428571e+00	 1.007698e+01
0	 7.428571e+00	 3.714286e+00	 1.007844e+01
0	 7.428571e+00	 4.000000e+00	 1.007506e+01
0	 7.428571e+00	 4.285714e+00	 1.006698e+01
0	 7.714286e+00	 2.857143e+00	 1.004830e+01
0	 7.714286e+00	 3.142857e+00	 1.005689e+01
0	 7.714286e+00	 3.428571e+00	 1.006112e+01
0	 7.714286e+00	 3.714286e+00	 1.006152e+01
0	 7.714286e+00	 4.000000e+00	 1.005859e+01
0	 7.714286e+00	 4.285714e+00	 1.005285e+01
0	 8.000000e+00	 2.857143e+00	 1.003796e+01
0	 8.000000e+00	 3.142857e+00	 1.004173e+01
0	 8.000000e+00	 3.428571e+00	 1.004311e+01
0	 8.000000e+00	 3.714286e+00	 1.004274e+01
0	 8.000000e+00	 4.000000e+00	 1.004126e+01
0	 8.000000e+00	 4.285714e+00	 1.003932e+01
0	 8.285714e+00	 2.857143e+00	 1.002660e+01
0	 8.285714e+00	 3.142857e+00	 1.002602e+01
0	 8.285714e+00	 3.428571e+00	 1.002530e+01
0	 8.285714e+00	 3.714286e+00	 1.002496e+01
0	 8.285714e+00	 4.000000e+00	 1.002553e+01
0	 8.285714e+00	 4.285714e+00	 1.002754e+01
0	 8.571429e+00	 2.857143e+00	 1.001290e+01
0	 8.571429e+00	 3.142857e+00	 1.001074e+01
0	 8.571429e+00	 3.428571e+00	 1.001005e+01
0	 8.571429e+00	 3.714286e+00	 1.001103e+01
0	 8.571429e+00	 4.000000e+00	 1.001383e+01
0	 8.571429e+00	 4.285714e+00	 1.001864e+01
0	 7.142857e+00	 4.285714e+00	 1.008057e+01
0	 7.142857e+00	 4.571429e+00	 1.007085e+01
0	 7.142857e+00	 4.857143e+00	 1.006272e+01
0	 7.142857e+00	 5.142857e+00	 1.005646e+01
0	 7.142857e+00	 5.428571e+00	 1.005233e+01
0	 7.142857e+00	 5.714286e+00	 1.005057e+01
0	 7.428571e+00	 4.285714e+00	 1.006698e+01
0	 7.428571e+00	 4.571429e+00	 1.005796e+01
0	 7.428571e+00	 4.857143e+00	 1.005154e+01
0	 7.428571e+00	 5.142857e+00	 1.004748e+01
0	 7.428571e+00	 5.428571e+00	 1.004553e+01
0	 7.428571e+00	 5.714286e+00	 1.004547e+01
0	 7.714286e+00	 4.285714e+00	 1.005285e+01
0	 7.714286e+00	 4.571429e+00	 1.004713e+01
0	 7.714286e+00	 4.857143e+00	 1.004358e+01
0	 7.714286e+00	 5.142857e+00	 1.004168e+01
0	 7.714286e+00	 5.428571e+00	 1.004090e+01
0	 7.714286e+00	 5.714286e+00	 1.004072e+01
0	 8.000000e+00	 4.285714e+00	 1.003932e+01
0	 8.000000e+00	 4.571429e+00	 1.003801e+01
0	 8.000000e+00	 4.857143e+00	 1.003761e+01
0	 8.000000e+00	 5.142857e+00	 1.003752e+01
0	 8.000000e+00	 5.428571e+00	 1.003712e+01
0	 8.000000e+00	 5.714286e+00	 1.003583e+01
0	 8.285714e+00	 4.285714e+00	 1.002754e+01
0	 8.285714e+00	 4.571429e+00	 1.003028e+01
0	 8.285714e+00	 4.857143e+00	 1.003241e+01
0	 8.285714e+00	 5.142857e+00	 1.003344e+01
0	 8.285714e+00	 5.428571e+00	 1.003290e+01
0	 8.285714e+00	 5.714286e+00	 1.003032e+01
0	 8.571429e+00	 4.285714e+00	 1.001864e+01
0	 8.571429e+00	 4.571429e+00	 1.002362e+01
0	 8.571429e+00	 4.857143e+00	 1.002675e+01
0	 8.571429e+00	 5.142857e+00	 1.002790e+01
0	 8.571429e+00	 5.428571e+00	 1.002693e+01
0	 8.571429e+00	 5.714286e+00	 1.002371e+01
0	 7.142857e+00	 5.714286e+00	 1.005057e+01
0	 7.142857e+00	 6.000000e+00	 1.004965e+01
0	 7.142857e+00	 6.285714e+00	 1.004766e+01
0	 7.142857e+00	 6.571429e+00	 1.004430e+01
0	 7.142857e+00	 6.857143e+00	 1.003930e+01
0	 7.142857e+00	 7.142857e+00	 1.003238e+01
0	 7.428571e+00	 5.714286e+00	 1.004547e+01
0	 7.428571e+00	 6.000000e+00	 1.004536e+01
0	 7.428571e+00	 6.285714e+00	 1.004349e+01
0	 7.428571e+00	 6.571429e+00	 1.003994e+01
0	 7.428571e+00	 6.857143e+00	 1.003480e+01
0	 7.428571e+00	 7.142857e+00	 1.002816e+01
0	 7.714286e+00	 5.714286e+00	 1.004072e+01
0	 7.714286e+00	 6.000000e+00	 1.003978e+01
0	 7.714286e+00	 6.285714e+00	 1.003730e+01
0	 7.714286e+00	 6.571429e+00	 1.003358e+01
0	 7.714286e+00	 6.857143e+00	 1.002891e+01
0	 7.714286e+00	 7.142857e+00	 1.002360e+01
0	 8.000000e+00	 5.714286e+00	 1.003583e+01
0	 8.000000e+00	 6.000000e+00	 1.003336e+01
0	 8.000000e+00	 6.285714e+00	 1.003010e+01
0	 8.000000e+00	 6.571429e+00	 1.002642e+01
0	 8.000000e+00	 6.857143e+00	 1.002266e+01
0	 8.000000e+00	 7.142857e+00	 1.001919e+01
0	 8.285714e+00	 5.714286e+00	 1.003032e+01
0	 8.285714e+00	 6.000000e+00	 1.002653e+01
0	 8.285714e+00	 6.285714e+00	 1.002289e+01
0	 8.285714e+00	 6.571429e+00	 1.001964e+01
0	 8.285714e+00	 6.857143e+00	 1.001706e+01
0	 8.285714e+00	 7.142857e+00	 1.001543e+01
0	 8.571429e+00	 5.714286e+00	 1.002371e+01
0	 8.571429e+00	 6.000000e+00	 1.001974e+01
0	 8.571429e+00	 6.285714e+00	 1.001665e+01
0	 8.571429e+00	 6.571429e+00	 1.001444e+01
0	 8.571429e+00	 6.857143e+00	 1.001315e+01
0	 8.571429e+00	 7.142857e+00	 1.001279e+01
0	 7.142857e+00	 7.142857e+00	 1.003238e+01
0	 7.142857e+00	 7.428571e+00	 1.002503e+01
0	 7.142857e+00	 7.714286e+00	 1.001896e+01
0	 7.142857e+00	 8.000000e+00	 1.001420e+01
0	 7.142857e+00	 8.285714e+00	 1.001076e+01
0	 7.142857e+00	 8.571429e+00	 1.000866e+01
0	 7.428571e+00	 7.142857e+00	 1.002816e+01
0	 7.428571e+00	 7.428571e+00	 1.002162e+01
0	 7.428571e+00	 7.714286e+00	 1.001658e+01
0	 7.428571e+00	 8.000000e+00	 1.001284e+01
0	 7.428571e+00	 8.285714e+00	 1.001017e+01
0	 7.428571e+00	 8.571429e+00	 1.000837e+01
0	 7.714286e+00	 7.142857e+00	 1.002360e+01
0	 7.714286e+00	 7.428571e+00	 1.001877e+01
0	 7.714286e+00	 7.714286e+00	 1.001512e+01
0	 7.714286e+00	 8.000000e+00	 1.001232e+01
0	 7.714286e+00	 8.285714e+00	 1.001002e+01
0	 7.714286e+00	 8.571429e+00	 1.000789e+01
0	 8.000000e+00	 7.142857e+00	 1.001919e+01
0	 8.000000e+00	 7.428571e+00	 1.001639e+01
0	 8.000000e+00	 7.714286e+00	 1.001414e+01
0	 8.000000e+00	 8.000000e+00	 1.001209e+01
0	 8.000000e+00	 8.285714e+00	 1.000988e+01
0	 8.000000e+00	 8.571429e+00	 1.000716e+01
0	 8.285714e+00	 7.142857e+00	 1.001543e+01
0	 8.285714e+00	 7.428571e+00	 1.001437e+01
0	 8.285714e+00	 7.714286e+00	 1.001317e+01
0	 8.285714e+00	 8.000000e+00	 1.001158e+01
0	 8.285714e+00	 8.285714e+00	 1.000932e+01
0	 8.285714e+00	 8.571429e+00	 1.000615e+01
0	 8.571429e+00	 7.142857e+00	 1.001279e+01
0	 8.571429e+00	 7.428571e+00	 1.001261e+01
0	 8.571429e+00	 7.714286e+00	 1.001178e+01
0	 8.571429e+00	 8.000000e+00	 1.001024e+01
0	 8.571429e+00	 8.285714e+00	 1.000792e+01
0	 8.571429e+00	 8.571429e+00	 1.000478e+01
0	 7.142857e+00	 8.571429e+00	 1.000866e+01
0	 7.142857e+00	 8.857143e+00	 1.000720e+01
0	 7.142857e+00	 9.142857e+00	 1.000554e+01
0	 7.142857e+00	 9.428571e+00	 1.000354e+01
0	 7.142857e+00	 9.714286e+00	 1.000104e+01
0	 7.142857e+00	 1.000000e+01	 9.997866e+00
0	 7.428571e+00	 8.571429e+00	 1.000837e+01
0	 7.428571e+00	 8.857143e+00	 1.000678e+01
0	 7.428571e+00	 9.142857e+00	 1.000495e+01
0	 7.428571e+00	 9.428571e+00	 1.000297e+01
0	 7.428571e+00	 9.714286e+00	 1.000090e+01
0	 7.428571e+00	 1.000000e+01	 9.998842e+00
0	 7.714286e+00	 8.571429e+00	 1.000789e+01
0	 7.714286e+00	 8.857143e+00	 1.000571e+01
0	 7.714286e+00	 9.142857e+00	 1.000364e+01
0	 7.714286e+00	 9.428571e+00	 1.000188e+01
0	 7.714286e+00	 9.714286e+00	 1.000065e+01
0	 7.714286e+00	 1.000000e+01	 1.000014e+01
0	 8.000000e+00	 8.571429e+00	 1.000716e+01
0	 8.000000e+00	 8.857143e+00	 1.000431e+01
0	 8.000000e+00	 9.142857e+00	 1.000208e+01
0	 8.000000e+00	 9.428571e+00	 1.000070e+01
0	 8.000000e+00	 9.714286e+00	 1.000038e+01
0	 8.000000e+00	 1.000000e+01	 1.000134e+01
0	 8.285714e+00	 8.571429e+00	 1.000615e+01
0	 8.285714e+00	 8.857143e+00	 1.000292e+01
0	 8.285714e+00	 9.142857e+00	 1.000077e+01
0	 8.285714e+00	 9.428571e+00	 9.999824e+00
0	 8.285714e+00	 9.714286e+00	 1.000019e+01
0	 8.285714e+00	 1.000000e+01	 1.000199e+01
0	 8.571429e+00	 8.571429e+00	 1.000478e+01
0	 8.571429e+00	 8.857143e+00	 1.000186e+01
0	 8.571429e+00	 9.142857e+00	 1.000019e+01
0	 8.571429e+00	 9.428571e+00	 9.999671e+00
0	 8.571429e+00	 9.714286e+00	 1.000019e+01
0	 8.571429e+00	 1.000000e+01	 1.000166e+01
0	 8.571429e+00	 0.000000e+00	 1.001276e+01
0	 8.571429e+00	 2.857143e-01	 9.993544e+00
0	 8.571429e+00	 5.714286e-01	 9.980914e+00
0	 8.571429e+00	 8.571429e-01	 9.975242e+00
0	 8.571429e+00	 1.142857e+00	 9.976899e+00
0	 8.571429e+00	 1.428571e+00	 9.986256e+00
0	 8.857143e+00	 0.000000e+00	 9.995333e+00
0	 8.857143e+00	 2.857143e-01	 9.980584e+00
0	 8.857143e+00	 5.714286e-01	 9.970966e+00
0	 8.857143e+00	 8.571429e-01	 9.966736e+00
0	 8.857143e+00	 1.142857e+00	 9.968149e+00
0	 8.857143e+00	 1.428571e+00	 9.975462e+00
0	 9.142857e+00	 0.000000e+00	 9.961704e+00
0	 9.142857e+00	 2.857143e-01	 9.959462e+00
0	 9.142857e+00	 5.714286e-01	 9.958572e+00
0	 9.142857e+00	 8.571429e-01	 9.959122e+00
0	 9.142857e+00	 1.142857e+00	 9.961201e+00
0	 9.142857e+00	 1.428571e+00	 9.964897e+00
0	 9.428571e+00	 0.000000e+00	 9.925753e+00
0	 9.428571e+00	 2.857143e-01	 9.934412e+00
0	 9.428571e+00	 5.714286e-01	 9.941430e+00
0	 9.428571e+00	 8.571429e-01	 9.946674e+00
0	 9.428571e+00	 1.142857e+00	 9.950010e+00
0	 9.428571e+00	 1.428571e+00	 9.951302e+00
0	 9.714286e+00	 0.000000e+00	 9.901357e+00
0	 9.714286e+00	 2.857143e-01	 9.909667e+00
0	 9.714286e+00	 5.714286e-01	 9.917239e+00
0	 9.714286e+00	 8.571429e-01	 9.923663e+00
0	 9.714286e+00	 1.142857e+00	 9.928527e+00
0	 9.714286e+00	 1.428571e+00	 9.931418e+00
0	 1.000000e+01	 0.000000e+00	 9.902391e+00
0	 1.000000e+01	 2.857143e-01	 9.889461e+00
0	 1.000000e+01	 5.714286e-01	 9.883699e+00
0	 1.000000e+01	 8.571429e-01	 9.884362e+00
0	 1.000000e+01	 1.142857e+00	 9.890705e+00
0	 1.000000e+01	 1.428571e+00	 9.901985e+00
0	 8.571429e+00	 1.428571e+00	 9.986256e+00
0	 8.571429e+00	 1.714286e+00	 9.998015e+00
0	 8.571429e+00	 2.000000e+00	 1.000660e+01
0	 8.571429e+00	 2.285714e+00	 1.001198e+01
0	 8.571429e+00	 2.571429e+00	 1.001409e+01
0	 8.571429e+00	 2.857143e+00	 1.001290e+01
0	 8.857143e+00	 1.428571e+00	 9.975462e+00
0	 8.857143e+00	 1.714286e+00	 9.984524e+00
0	 8.857143e+00	 2.000000e+00	 9.991119e+00
0	 8.857143e+00	 2.285714e+00	 9.995406e+00
0	 8.857143e+00	 2.571429e+00	 9.997547e+00
0	 8.857143e+00	 2.857143e+00	 9.997699e+00
0	 9.142857e+00	 1.428571e+00	 9.964897e+00
0	 9.142857e+00	 1.714286e+00	 9.969093e+00
0	 9.142857e+00	 2.000000e+00	 9.972781e+00
0	 9.142857e+00	 2.285714e+00	 9.976208e+00
0	 9.142857e+00	 2.571429e+00	 9.979624e+00
0	 9.142857e+00	 2.857143e+00	 9.983276e+00
0	 9.428571e+00	 1.428571e+00	 9.951302e+00
0	 9.428571e+00	 1.714286e+00	 9.952103e+00
0	 9.428571e+00	 2.000000e+00	 9.954203e+00
0	 9.428571e+00	 2.285714e+00	 9.957824e+00
0	 9.428571e+00	 2.571429e+00	 9.963189e+00
0	 9.428571e+00	 2.857143e+00	 9.970519e+00
0	 9.714286e+00	 1.428571e+00	 9.931418e+00
0	 9.714286e+00	 1.714286e+00	 9.933934e+00
0	 9.714286e+00	 2.000000e+00	 9.937999e+00
0	 9.714286e+00	 2.285714e+00	 9.943697e+00
0	 9.714286e+00	 2.571429e+00	 9.951108e+00
0	 9.714286e+00	 2.857143e+00	 9.960315e+00
0	 1.000000e+01	 1.428571e+00	 9.901985e+00
0	 1.000000e+01	 1.714286e+00	 9.914964e+00
0	 1.000000e+01	 2.000000e+00	 9.926783e+00
0	 1.000000e+01	 2.285714e+00	 9.937270e+00
0	 1.000000e+01	 2.571429e+00	 9.946250e+00
0	 1.000000e+01	 2.857143e+00	 9.953550e+00
0	 8.571429e+00	 2.857143e+00	 1.001290e+01
0	 8.571429e+00	 3.142857e+00	 1.001074e+01
0	 8.571429e+00	 3.428571e+00	 1.001005e+01
0	 8.571429e+00	 3.714286e+00	 1.001103e+01
0	 8.571429e+00	 4.000000e+00	 1.001383e+01
0	 8.571429e+00	 4.285714e+00	 1.001864e+01
0	 8.857143e+00	 2.857143e+00	 9.997699e+00
0	 8.857143e+00	 3.142857e+00	 9.997765e+00
0	 8.857143e+00	 3.428571e+00	 9.999410e+00
0	 8.857143e+00	 3.714286e+00	 1.000245e+01
0	 8.857143e+00	 4.000000e+00	 1.000668e+01
0	 8.857143e+00	 4.285714e+00	 1.001192e+01
0	 9.142857e+00	 2.857143e+00	 9.983276e+00
0	 9.142857e+00	 3.142857e+00	 9.987470e+00
0	 9.142857e+00	 3.428571e+00	 9.992124e+00
0	 9.142857e+00	 3.714286e+00	 9.996905e+00
0	 9.142857e+00	 4.000000e+00	 1.000148e+01
0	 9.142857e+00	 4.285714e+00	 1.000551e+01
0	 9.428571e+00	 2.857143e+00	 9.970519e+00
0	 9.428571e+00	 3.142857e+00	 9.978531e+00
0	 9.428571e+00	 3.428571e+00	 9.985619e+00
0	 9.428571e+00	 3.714286e+00	 9.991531e+00
0	 9.428571e+00	 4.000000e+00	 9.996009e+00
0	 9.428571e+00	 4.285714e+00	 9.998801e+00
0	 9.714286e+00	 2.857143e+00	 9.960315e+00
0	 9.714286e+00	 3.142857e+00	 9.969625e+00
0	 9.714286e+00	 3.428571e+00	 9.977321e+00
0	 9.714286e+00	 3.714286e+00	 9.983447e+00
0	 9.714286e+00	 4.000000e+00	 9.988047e+00
0	 9.714286e+00	 4.285714e+00	 9.991165e+00
0	 1.000000e+01	 2.857143e+00	 9.953550e+00
0	 1.000000e+01	 3.142857e+00	 9.959433e+00
0	 1.000000e+01	 3.428571e+00	 9.964655e+00
0	 1.000000e+01	 3.714286e+00	 9.969778e+00
0	 1.000000e+01	 4.000000e+00	 9.975369e+00
0	 1.000000e+01	 4.285714e+00	 9.981990e+00
0	 8.571429e+00	 4.285714e+00	 1.001864e+01
0	 8.571429e+00	 4.571429e+00	 1.002362e+01
0	 8.571429e+00	 4.857143e+00	 1.002675e+01
0	 8.571429e+00	 5.142857e+00	 1.002790e+01
0	 8.571429e+00	 5.428571e+00	 1.002693e+01
0	 8.571429e+00	 5.714286e+00	 1.002371e+01
0	 8.857143e+00	 4.285714e+00	 1.001192e+01
0	 8.857143e+00	 4.571429e+00	 1.001651e+01
0	 8.857143e+00	 4.857143e+00	 1.001907e+01
0	 8.857143e+00	 5.142857e+00	 1.001979e+01
0	 8.857143e+00	 5.428571e+00	 1.001888e+01
0	 8.857143e+00	 5.714286e+00	 1.001655e+01
0	 9.142857e+00	 4.285714e+00	 1.000551e+01
0	 9.142857e+00	 4.571429e+00	 1.000840e+01
0	 9.142857e+00	 4.857143e+00	 1.000999e+01
0	 9.142857e+00	 5.142857e+00	 1.001061e+01
0	 9.142857e+00	 5.428571e+00	 1.001059e+01
0	 9.142857e+00	 5.714286e+00	 1.001027e+01
0	 9.428571e+00	 4.285714e+00	 9.998801e+00
0	 9.428571e+00	 4.571429e+00	 1.000040e+01
0	 9.428571e+00	 4.857143e+00	 1.000165e+01
0	 9.428571e+00	 5.142857e+00	 1.000279e+01
0	 9.428571e+00	 5.428571e+00	 1.000406e+01
0	 9.428571e+00	 5.714286e+00	 1.000572e+01
0	 9.714286e+00	 4.285714e+00	 9.991165e+00
0	 9.714286e+00	 4.571429e+00	 9.993616e+00
0	 9.714286e+00	 4.857143e+00	 9.996151e+00
0	 9.714286e+00	 5.142857e+00	 9.998719e+00
0	 9.714286e+00	 5.428571e+00	 1.000127e+01
0	 9.714286e+00	 5.714286e+00	 1.000376e+01
0	 1.000000e+01	 4.285714e+00	 9.981990e+00
0	 1.000000e+01	 4.571429e+00	 9.989152e+00
0	 1.000000e+01	 4.857143e+00	 9.995614e+00
0	 1.000000e+01	 5.142857e+00	 1.000082e+01
0	 1.000000e+01	 5.428571e+00	 1.000420e+01
0	 1.000000e+01	 5.714286e+00	 1.000521e+01
0	 8.571429e+00	 5.714286e+00	 1.002371e+01
0	 8.571429e+00	 6.000000e+00	 1.001974e+01
0	 8.571429e+00	 6.285714e+00	 1.001665e+01
0	 8.571429e+00	 6.571429e+00	 1.001444e+01
0	 8.571429e+00	 6.857143e+00	 1.001315e+01
0	 8.571429e+00	 7.142857e+00	 1.001279e+01
0	 8.857143e+00	 5.714286e+00	 1.001655e+01
0	 8.857143e+00	 6.000000e+00	 1.001409e+01
0	 8.857143e+00	 6.285714e+00	 1.001253e+01
0	 8.857143e+00	 6.571429e+00	 1.001163e+01
0	 8.857143e+00	 6.857143e+00	 1.001120e+01
0	 8.857143e+00	 7.142857e+00	 1.001099e+01
0	 9.142857e+00	 5.714286e+00	 1.001027e+01
0	 9.142857e+00	 6.000000e+00	 1.001013e+01
0	 9.142857e+00	 6.285714e+00	 1.001025e+01
0	 9.142857e+00	 6.571429e+00	 1.001031e+01
0	 9.142857e+00	 6.857143e+00	 1.001005e+01
0	 9.142857e+00	 7.142857e+00	 1.000914e+01
0	 9.428571e+00	 5.714286e+00	 1.000572e+01
0	 9.428571e+00	 6.000000e+00	 1.000746e+01
0	 9.428571e+00	 6.285714e+00	 1.000865e+01
0	 9.428571e+00	 6.571429e+00	 1.000909e+01
0	 9.428571e+00	 6.857143e+00	 1.000855e+01
0	 9.428571e+00	 7.142857e+00	 1.000685e+01
0	 9.714286e+00	 5.714286e+00	 1.000376e+01
0	 9.714286e+00	 6.000000e+00	 1.000568e+01
0	 9.714286e+00	 6.285714e+00	 1.000660e+01
0	 9.714286e+00	 6.571429e+00	 1.000655e+01
0	 9.714286e+00	 6.857143e+00	 1.000558e+01
0	 9.714286e+00	 7.142857e+00	 1.000372e+01
0	 1.000000e+01	 5.714286e+00	 1.000521e+01
0	 1.000000e+01	 6.000000e+00	 1.000439e+01
0	 1.000000e+01	 6.285714e+00	 1.000294e+01
0	 1.000000e+01	 6.571429e+00	 1.000132e+01
0	 1.000000e+01	 6.857143e+00	 9.999986e+00
0	 1.000000e+01	 7.142857e+00	 9.999376e+00
0	 8.571429e+00	 7.142857e+00	 1.001279e+01
0	 8.571429e+00	 7.428571e+00	 1.001261e+01
0	 8.571429e+00	 7.714286e+00	 1.001178e+01
0	 8.571429e+00	 8.000000e+00	 1.001024e+01
0	 8.571429e+00	 8.285714e+00	 1.000792e+01
0	 8.571429e+00	 8.571429e+00	 1.000478e+01
0	 8.857143e+00	 7.142857e+00	 1.001099e+01
0	 8.857143e+00	 7.428571e+00	 1.001048e+01
0	 8.857143e+00	 7.714286e+00	 1.000932e+01
0	 8.857143e+00	 8.000000e+00	 1.000767e+01
0	 8.857143e+00	 8.285714e+00	 1.000563e+01
0	 8.857143e+00	 8.571429e+00	 1.000335e+01
0	 9.142857e+00	 7.142857e+00	 1.000914e+01
0	 9.142857e+00	 7.428571e+00	 1.000768e+01
0	 9.142857e+00	 7.714286e+00	 1.000607e+01
0	 9.142857e+00	 8.000000e+00	 1.000449e+01
0	 9.142857e+00	 8.285714e+00	 1.000311e+01
0	 9.142857e+00	 8.571429e+00	 1.000213e+01
0	 9.428571e+00	 7.142857e+00	 1.000685e+01
0	 9.428571e+00	 7.428571e+00	 1.000466e+01
0	 9.428571e+00	 7.714286e+00	 1.000288e+01
0	 9.428571e+00	 8.000000e+00	 1.000162e+01
0	 9.428571e+00	 8.285714e+00	 1.000097e+01
0	 9.428571e+00	 8.571429e+00	 1.000105e+01
0	 9.714286e+00	 7.142857e+00	 1.000372e+01
0	 9.714286e+00	 7.428571e+00	 1.000182e+01
0	 9.714286e+00	 7.714286e+00	 1.000061e+01
0	 9.714286e+00	 8.000000e+00	 9.999991e+00
0	 9.714286e+00	 8.285714e+00	 9.999841e+00
0	 9.714286e+00	 8.571429e+00	 1.000005e+01
0	 1.000000e+01	 7.142857e+00	 9.999376e+00
0	 1.000000e+01	 7.428571e+00	 9.999595e+00
0	 1.000000e+01	 7.714286e+00	 1.000014e+01
0	 1.000000e+01	 8.000000e+00	 1.000054e+01
0	 1.000000e+01	 8.285714e+00	 1.000033e+01
0	 1.000000e+01	 8.571429e+00	 9.999057e+00
0	 8.571429e+00	 8.571429e+00	 1.000478e+01
0	 8.571429e+00	 8.857143e+00	 1.000186e+01
0	 8.571429e+00	 9.142857e+00	 1.000019e+01
0	 8.571429e+00	 9.428571e+00	 9.999671e+00
0	 8.571429e+00	 9.714286e+00	 1.000019e+01
0	 8.571429e+00	 1.000000e+01	 1.000166e+01
0	 8.857143e+00	 8.571429e+00	 1.000335e+01
0	 8.857143e+00	 8.857143e+00	 1.000153e+01
0	 8.857143e+00	 9.142857e+00	 1.000058e+01
0	 8.857143e+00	 9.428571e+00	 1.000023e+01
0	 8.857143e+00	 9.714286e+00	 1.000019e+01
0	 8.857143e+00	 1.000000e+01	 1.000016e+01
0	 9.142857e+00	 8.571429e+00	 1.000213e+01
0	 9.142857e+00	 8.857143e+00	 1.000161e+01
0	 9.142857e+00	 9.142857e+00	 1.000127e+01
0	 9.142857e+00	 9.428571e+00	 1.000083e+01
0	 9.142857e+00	 9.714286e+00	 1.000000e+01
0	 9.142857e+00	 1.000000e+01	 9.998482e+00
0	 9.428571e+00	 8.571429e+00	 1.000105e+01
0	 9.428571e+00	 8.857143e+00	 1.000139e+01
0	 9.428571e+00	 9.142857e+00	 1.000137e+01
0	 9.428571e+00	 9.428571e+00	 1.000087e+01
0	 9.428571e+00	 9.714286e+00	 9.999785e+00
0	 9.428571e+00	 1.000000e+01	 9.997988e+00
0	 9.714286e+00	 8.571429e+00	 1.000005e+01
0	 9.714286e+00	 8.857143e+00	 1.000017e+01
0	 9.714286e+00	 9.142857e+00	 9.999993e+00
0	 9.714286e+00	 9.428571e+00	 9.999752e+00
0	 9.714286e+00	 9.714286e+00	 9.999686e+00
0	 9.714286e+00	 1.000000e+01	 1.000003e+01
0	 1.000000e+01	 8.571429e+00	 9.999057e+00
0	 1.000000e+01	 8.857143e+00	 9.997249e+00
0	 1.000000e+01	 9.142857e+00	 9.996263e+00
0	 1.000000e+01	 9.428571e+00	 9.996872e+00
0	 1.000000e+01	 9.714286e+00	 9.999852e+00
0	 1.000000e+01	 1.000000e+01	 1.000598e+01
1	 1.000000e+00	 0.000000e+00	 2.414246e+01
1	 9.991702e-01	 4.073018e-02	 2.284187e+01
1	 9.966283e-01	 8.204920e-02	 2.139328e+01
1	 9.922996e-01	 1.238611e-01	 1.979613e+01
1	 9.861155e-01	 1.660610e-01	 1.805610e+01
1	 9.780149e-01	 2.085352e-01	 1.618564e+01
1	 1.028571e+00	 0.000000e+00	 2.235124e+01
1	 1.027718e+00	 4.189390e-02	 2.106385e+01
1	 1.025103e+00	 8.439347e-02	 1.965541e+01
1	 1.020651e+00	 1.274000e-01	 1.812614e+01
1	 1.014290e+00	 1.708056e-01	 1.648165e+01
1	 1.005958e+00	 2.144933e-01	 1.473342e+01
1	 1.057143e+00	 0.000000e+00	 2.075079e+01
1	 1.056266e+00	 4.305762e-02	 1.947857e+01
1	 1.053578e+00	 8.673773e-02	 1.810865e+01
1	 1.049002e+00	 1.309389e-01	 1.664199e+01
1	 1.042465e+00	 1.755502e-01	 1.508422e+01
1	 1.033901e+00	 2.204515e-01	 1.344602e+01
1	 1.085714e+00	 0.000000e+00	 1.930560e+01
1	 1.084813e+00	 4.422134e-02	 1.805046e+01
1	 1.082054e+00	 8.908199e-02	 1.671772e+01
1	 1.077354e+00	 1.344778e-01	 1.530907e+01
1	 1.070640e+00	 1.802948e-01	 1.383022e+01
1	 1.061845e+00	 2.264096e-01	 1.229121e+01
1	 1.114286e+00	 0.000000e+00	 1.798380e+01
1	 1.113361e+00	 4.538506e-02	 1.674760e+01
1	 1.110529e+00	 9.142625e-02	 1.545095e+01
1	 1.105705e+00	 1.380167e-01	 1.409628e+01
1	 1.098814e+00	 1.850394e-01	 1.268947e+01
1	 1.089788e+00	 2.323678e-01	 1.124009e+01
1	 1.142857e+00	 0.000000e+00	 1.675673e+01
1	 1.141909e+00	 4.654878e-02	 1.554123e+01
1	 1.139004e+00	 9.377052e-02	 1.427982e+01
1	 1.134057e+00	 1.415556e-01	 1.297566e+01
1	 1.126989e+00	 1.897840e-01	 1.163484e+01
1	 1.117731e+00	 2.383259e-01	 1.026661e+01
1	 9.780149e-01	 2.085352e-01	 1.618564e+01
1	 9.679451e-01	 2.511619e-01	 1.418628e+01
1	 9.558632e-01	 2.938119e-01	 1.205942e+01
1	 9.417372e-01	 3.363497e-01	 9.827175e+00
1	 9.255464e-01	 3.786342e-01	 7.517791e+00
1	 9.072832e-01	 4.205201e-01	 5.165492e+00
1	 1.005958e+00	 2.144933e-01	 1.473342e+01
1	 9.956007e-01	 2.583379e-01	 1.287887e+01
1	 9.831736e-01	 3.022066e-01	 1.091548e+01
1	 9.686439e-01	 3.459597e-01	 8.863244e+00
1	 9.519906e-01	 3.894523e-01	 6.747247e+00
1	 9.332056e-01	 4.325350e-01	 4.597537e+00
1	 1.033901e+00	 2.204515e-01	 1.344602e+01
1	 1.023256e+00	 2.655140e-01	 1.172096e+01
1	 1.010484e+00	 3.106012e-01	 9.902812e+00
1	 9.955507e-01	 3.555697e-01	 8.009674e+00
1	 9.784348e-01	 4.002704e-01	 6.063840e+00
1	 9.591280e-01	 4.445498e-01	 4.091667e+00
1	 1.061845e+00	 2.264096e-01	 1.229121e+01
1	 1.050912e+00	 2.726900e-01	 1.068209e+01
1	 1.037794e+00	 3.189958e-01	 8.993155e+00
1	 1.022457e+00	 3.651797e-01	 7.240826e+00
1	 1.004879e+00	 4.110886e-01	 5.444957e+00
1	 9.850504e-01	 4.565647e-01	 3.628676e+00
1	 1.089788e+00	 2.323678e-01	 1.124009e+01
1	 1.078567e+00	 2.798661e-01	 9.734943e+00
1	 1.065105e+00	 3.273904e-01	 8.161151e+00
1	 1.049364e+00	 3.747897e-01	 6.533692e+00
1	 1.031323e+00	 4.219067e-01	 4.870304e+00
1	 1.010973e+00	 4.685796e-01	 3.191330e+00
1	 1.117731e+00	 2.383259e-01	 1.026661e+01
1	 1.106223e+00	 2.870421e-01	 8.854905e+00
1	 1.092415e+00	 3.357851e-01	 7.383975e+00
1	 1.076271e+00	 3.843997e-01	 5.867565e+00
1	 1.057767e+00	 4.327248e-01	 4.321618e+00
1	 1.036895e+00	 4.805944e-01	 2.764116e+00
1	 9.072832e-01	 4.205201e-01	 5.165492e+00
1	 8.869531e-01	 4.618595e-01	 2.801291e+00
1	 8.645755e-01	 5.025030e-01	 4.508496e-01
1	 8.401838e-01	 5.423017e-01	-1.854535e+00
1	 8.138260e-01	 5.811086e-01	-4.082917e+00
1	 7.855640e-01	 6.187804e-01	-6.202187e+00
1	 9.332056e-01	 4.325350e-01	 4.597537e+00
1	 9.122946e-01	 4.750555e-01	 2.435236e+00
1	 8.892776e-01	 5.168602e-01	 2.775311e-01
1	 8.641891e-01	 5.577960e-01	-1.847242e+00
1	 8.370782e-01	 5.977117e-01	-3.910261e+00
1	 8.080087e-01	 6.364599e-01	-5.882660e+00
1	 9.591280e-01	 4.445498e-01	 4.091667e+00
1	 9.376362e-01	 4.882514e-01	 2.105925e+00
1	 9.139798e-01	 5.312174e-01	 1.166543e-01
1	 8.881944e-01	 5.732903e-01	-1.850486e+00
1	 8.603304e-01	 6.143148e-01	-3.769490e+00
1	 8.304534e-01	 6.541393e-01	-5.614404e+00
1	 9.850504e-01	 4.565647e-01	 3.628676e+00
1	 9.629777e-01	 5.014474e-01	 1.797768e+00
1	 9.386819e-01	 5.455747e-01	-4.370235e-02
1	 9.121996e-01	 5.887847e-01	-1.872475e+00
1	 8.835826e-01	 6.309179e-01	-3.665055e+00
1	 8.528980e-01	 6.718187e-01	-5.398087e+00
1	 1.010973e+00	 4.685796e-01	 3.191330e+00
1	 9.883192e-01	 5.146434e-01	 1.496776e+00
1	 9.633841e-01	 5.599319e-01	-2.142378e-01
1	 9.362049e-01	 6.042790e-01	-1.920573e+00
1	 9.068347e-01	 6.475210e-01	-3.600956e+00
1	 8.753427e-01	 6.894982e-01	-5.234311e+00
1	 1.036895e+00	 4.805944e-01	 2.764116e+00
1	 1.013661e+00	 5.278394e-01	 1.190356e+00
1	 9.880863e-01	 5.742891e-01	-4.045809e-01
1	 9.602101e-01	 6.197733e-01	-2.001412e+00
1	 9.300869e-01	 6.641241e-01	-3.580789e+00
1	 8.977874e-01	 7.071776e-01	-5.123614e+00
1	 7.855640e-01	 6.187804e-01	-6.202187e+00
1	 7.554734e-01	 6.551793e-01	-8.174081e+00
1	 7.236431e-01	 6.901743e-01	-9.970696e+00
1	 6.901743e-01	 7.236431e-01	-1.157985e+01
1	 6.551793e-01	 7.554734e-01	-1.299497e+01
1	 6.187804e-01	 7.855640e-01	-1.421491e+01
1	 8.080087e-01	 6.364599e-01	-5.882660e+00
1	 7.770584e-01	 6.738987e-01	-7.735005e+00
1	 7.443187e-01	 7.098936e-01	-9.445626e+00
1	 7.098936e-01	 7.443187e-01	-1.100098e+01
1	 6.738987e-01	 7.770584e-01	-1.239216e+01
1	 6.364599e-01	 8.080087e-01	-1.361481e+01
1	 8.304534e-01	 6.541393e-01	-5.614404e+00
1	 7.986433e-01	 6.926181e-01	-7.362858e+00
1	 7.649942e-01	 7.296129e-01	-8.998071e+00
1	 7.296129e-01	 7.649942e-01	-1.050555e+01
1	 6.926181e-01	 7.986433e-01	-1.187462e+01
1	 6.541393e-01	 8.304534e-01	-1.309838e+01
1	 8.528980e-01	 6.718187e-01	-5.398087e+00
1	 8.202283e-01	 7.113375e-01	-7.054778e+00
1	 7.856697e-01	 7.493321e-01	-8.622153e+00
1	 7.493321e-01	 7.856697e-01	-1.008515e+01
1	 7.113375e-01	 8.202283e-01	-1.143179e+01
1	 6.718187e-01	 8.528980e-01	-1.265328e+01
1	 8.753427e-01	 6.894982e-01	-5.234311e+00
1	 8.418132e-01	 7.300569e-01	-6.808198e+00
1	 8.063452e-01	 7.690514e-01	-8.312597e+00
1	 7.690514e-01	 8.063452e-01	-9.732193e+00
1	 7.300569e-01	 8.418132e-01	-1.105419e+01
1	 6.894982e-01	 8.753427e-01	-1.226844e+01
1	 8.977874e-01	 7.071776e-01	-5.123614e+00
1	 8.633982e-01	 7.487763e-01	-6.620808e+00
1	 8.270207e-01	 7.887707e-01	-8.064655e+00
1	 7.887707e-01	 8.270207e-01	-9.439889e+00
1	 7.487763e-01	 8.633982e-01	-1.073330e+01
1	 7.071776e-01	 8.977874e-01	-1.193390e+01
1	 6.187804e-01	 7.855640e-01	-1.421491e+01
1	 5.811086e-01	 8.138260e-01	-1.523512e+01
1	 5.423017e-01	 8.401838e-01	-1.605309e+01
1	 5.025030e-01	 8.645755e-01	-1.667939e+01
1	 4.618595e-01	 8.869531e-01	-1.713046e+01
1	 4.205201e-01	 9.072832e-01	-1.742781e+01
1	 6.364599e-01	 8.080087e-01	-1.361481e+01
1	 5.977117e-01	 8.370782e-01	-1.466361e+01
1	 5.577960e-01	 8.641891e-01	-1.553513e+01
1	 5.168602e-01	 8.892776e-01	-1.623528e+01
1	 4.750555e-01	 9.122946e-01	-1.677497e+01
1	 4.325350e-01	 9.332056e-01	-1.716956e+01
1	 6.541393e-01	 8.304534e-01	-1.309838e+01
1	 6.143148e-01	 8.603304e-01	-1.417069e+01
1	 5.732903e-01	 8.881944e-01	-1.508719e+01
1	 5.312174e-01	 9.139798e-01	-1.584986e+01
1	 4.882514e-01	 9.376362e-01	-1.646499e+01
1	 4.445498e-01	 9.591280e-01	-1.694270e+01
1	 6.718187e-01	 8.528980e-01	-1.265328e+01
1	 6.309179e-01	 8.835826e-01	-1.374269e+01
1	 5.887847e-01	 9.121996e-01	-1.469469e+01
1	 5.455747e-01	 9.386819e-01	-1.550809e+01
1	 5.014474e-01	 9.629777e-01	-1.618533e+01
1	 4.565647e-01	 9.850504e-01	-1.673219e+01
1	 6.894982e-01	 8.753427e-01	-1.226844e+01
1	 6.475210e-01	 9.068347e-01	-1.336730e+01
1	 6.042790e-01	 9.362049e-01	-1.434454e+01
1	 5.599319e-01	 9.633841e-01	-1.519644e+01
1	 5.146434e-01	 9.883192e-01	-1.592236e+01
1	 4.685796e-01	 1.010973e+00	-1.652453e+01
1	 7.071776e-01	 8.977874e-01	-1.193390e+01
1	 6.641241e-01	 9.300869e-01	-1.303347e+01
1	 6.197733e-01	 9.602101e-01	-1.402497e+01
1	 5.742891e-01	 9.880863e-01	-1.490276e+01
1	 5.278394e-01	 1.013661e+00	-1.566380e+01
1	 4.805944e-01	 1.036895e+00	-1.630758e+01
1	 4.205201e-01	 9.072832e-01	-1.742781e+01
1	 3.786342e-01	 9.255464e-01	-1.759687e+01
1	 3.363497e-01	 9.417372e-01	-1.765260e+01
1	 2.938119e-01	 9.558632e-01	-1.760641e+01
1	 2.511619e-01	 9.679451e-01	-1.747241e+01
1	 2.085352e-01	 9.780149e-01	-1.726690e+01
1	 4.325350e-01	 9.332056e-01	-1.716956e+01
1	 3.894523e-01	 9.519906e-01	-1.743810e+01
1	 3.459597e-01	 9.686439e-01	-1.759170e+01
1	 3.022066e-01	 9.831736e-01	-1.763878e+01
1	 2.583379e-01	 9.956007e-01	-1.759027e+01
1	 2.144933e-01	 1.005958e+00	-1.745924e+01
1	 4.445498e-01	 9.591280e-01	-1.694270e+01
1	 4.002704e-01	 9.784348e-01	-1.729661e+01
1	 3.555697e-01	 9.955507e-01	-1.753453e+01
1	 3.106012e-01	 1.010484e+00	-1.766235e+01
1	 2.655140e-01	 1.023256e+00	-1.768831e+01
1	 2.204515e-01	 1.033901e+00	-1.762265e+01
1	 4.565647e-01	 9.850504e-01	-1.673219e+01
1	 4.110886e-01	 1.004879e+00	-1.715773e+01
1	 3.651797e-01	 1.022457e+00	-1.746698e+01
1	 3.189958e-01	 1.037794e+00	-1.766372e+01
1	 2.726900e-01	 1.050912e+00	-1.775392e+01
1	 2.264096e-01	 1.061845e+00	-1.774548e+01
1	 4.685796e-01	 1.010973e+00	-1.652453e+01
1	 4.219067e-01	 1.031323e+00	-1.700828e+01
1	 3.747897e-01	 1.049364e+00	-1.737637e+01
1	 3.273904e-01	 1.065105e+00	-1.763084e+01
1	 2.798661e-01	 1.078567e+00	-1.777581e+01
1	 2.323678e-01	 1.089788e+00	-1.781724e+01
1	 4.805944e-01	 1.036895e+00	-1.630758e+01
1	 4.327248e-01	 1.057767e+00	-1.683642e+01
1	 3.843997e-01	 1.076271e+00	-1.725129e+01
1	 3.357851e-01	 1.092415e+00	-1.755288e+01
1	 2.870421e-01	 1.106223e+00	-1.774382e+01
1	 2.383259e-01	 1.117731e+00	-1.782850e+01
1	 2.085352e-01	 9.780149e-01	-1.726690e+01
1	 1.660610e-01	 9.861155e-01	-1.701220e+01
1	 1.238611e-01	 9.922996e-01	-1.671814e+01
1	 8.204920e-02	 9.966283e-01	-1.638424e+01
1	 4.073018e-02	 9.991702e-01	-1.601079e+01
1	 0.000000e+00	 1.000000e+00	-1.559878e+01
1	 2.144933e-01	 1.005958e+00	-1.745924e+01
1	 1.708056e-01	 1.014290e+00	-1.726357e+01
1	 1.274000e-01	 1.020651e+00	-1.701188e+01
1	 8.439347e-02	 1.025103e+00	-1.670532e+01
1	 4.189390e-02	 1.027718e+00	-1.634593e+01
1	 0.000000e+00	 1.028571e+00	-1.593659e+01
1	 2.204515e-01	 1.033901e+00	-1.762265e+01
1	 1.755502e-01	 1.042465e+00	-1.747984e+01
1	 1.309389e-01	 1.049002e+00	-1.726729e+01
1	 8.673773e-02	 1.053578e+00	-1.698684e+01
1	 4.305762e-02	 1.056266e+00	-1.664142e+01
1	 0.000000e+00	 1.057143e+00	-1.623487e+01
1	 2.264096e-01	 1.061845e+00	-1.774548e+01
1	 1.802948e-01	 1.070640e+00	-1.765016e+01
1	 1.344778e-01	 1.077354e+00	-1.747407e+01
1	 8.908199e-02	 1.082054e+00	-1.721893e+01
1	 4.422134e-02	 1.084813e+00	-1.688766e+01
1	 0.000000e+00	 1.085714e+00	-1.648434e+01
1	 2.323678e-01	 1.089788e+00	-1.781724e+01
1	 1.850394e-01	 1.098814e+00	-1.776476e+01
1	 1.380167e-01	 1.105705e+00	-1.762298e+01
1	 9.142625e-02	 1.110529e+00	-1.739267e+01
1	 4.538506e-02	 1.113361e+00	-1.707605e+01
1	 0.000000e+00	 1.114286e+00	-1.667663e+01
1	 2.383259e-01	 1.117731e+00	-1.782850e+01
1	 1.897840e-01	 1.126989e+00	-1.781486e+01
1	 1.415556e-01	 1.134057e+00	-1.770568e+01
1	 9.377052e-02	 1.139004e+00	-1.750008e+01
1	 4.654878e-02	 1.141909e+00	-1.719884e+01
1	 0.000000e+00	 1.142857e+00	-1.680423e+01
1	 1.142857e+00	 0.000000e+00	 1.675673e+01
1	 1.141909e+00	 4.654878e-02	 1.554123e+01
1	 1.139004e+00	 9.377052e-02	 1.427982e+01
1	 1.134057e+00	 1.415556e-01	 1.297566e+01
1	 1.126989e+00	 1.897840e-01	 1.163484e+01
1	 1.117731e+00	 2.383259e-01	 1.026661e+01
1	 1.171429e+00	 0.000000e+00	 1.561926e+01
1	 1.170456e+00	 4.771250e-02	 1.442631e+01
1	 1.167479e+00	 9.611478e-02	 1.319983e+01
1	 1.162408e+00	 1.450945e-01	 1.194371e+01
1	 1.155164e+00	 1.945286e-01	 1.066430e+01
1	 1.145675e+00	 2.442841e-01	 9.370575e+00
1	 1.200000e+00	 0.000000e+00	 1.457388e+01
1	 1.199004e+00	 4.887622e-02	 1.340521e+01
1	 1.195954e+00	 9.845904e-02	 1.221375e+01
1	 1.190759e+00	 1.486334e-01	 1.100402e+01
1	 1.183339e+00	 1.992732e-01	 9.782612e+00
1	 1.173618e+00	 2.502422e-01	 8.558284e+00
1	 1.228571e+00	 0.000000e+00	 1.360652e+01
1	 1.227552e+00	 5.003994e-02	 1.246363e+01
1	 1.224429e+00	 1.008033e-01	 1.130721e+01
1	 1.219111e+00	 1.521723e-01	 1.014236e+01
1	 1.211513e+00	 2.040178e-01	 8.975894e+00
1	 1.201561e+00	 2.562004e-01	 7.816396e+00
1	 1.257143e+00	 0.000000e+00	 1.270438e+01
1	 1.256100e+00	 5.120366e-02	 1.158856e+01
1	 1.252904e+00	 1.031476e-01	 1.046715e+01
1	 1.247462e+00	 1.557111e-01	 9.345802e+00
1	 1.239688e+00	 2.087624e-01	 8.231535e+00
1	 1.229504e+00	 2.621585e-01	 7.132788e+00
1	 1.285714e+00	 0.000000e+00	 1.185580e+01
1	 1.284647e+00	 5.236738e-02	 1.076813e+01
1	 1.281379e+00	 1.054918e-01	 9.681683e+00
1	 1.275814e+00	 1.592500e-01	 8.602573e+00
1	 1.267863e+00	 2.135070e-01	 7.538039e+00
1	 1.257448e+00	 2.681167e-01	 6.496411e+00
1	 1.117731e+00	 2.383259e-01	 1.026661e+01
1	 1.106223e+00	 2.870421e-01	 8.854905e+00
1	 1.092415e+00	 3.357851e-01	 7.383975e+00
1	 1.076271e+00	 3.843997e-01	 5.867565e+00
1	 1.057767e+00	 4.327248e-01	 4.321618e+00
1	 1.036895e+00	 4.805944e-01	 2.764116e+00
1	 1.145675e+00	 2.442841e-01	 9.370575e+00
1	 1.133879e+00	 2.942182e-01	 8.043952e+00
1	 1.119726e+00	 3.441797e-01	 6.666092e+00
1	 1.103178e+00	 3.940097e-01	 5.249666e+00
1	 1.084212e+00	 4.435429e-01	 3.809057e+00
1	 1.062817e+00	 4.926093e-01	 2.360197e+00
1	 1.173618e+00	 2.502422e-01	 8.558284e+00
1	 1.161534e+00	 3.013942e-01	 7.310179e+00
1	 1.147036e+00	 3.525743e-01	 6.017621e+00
1	 1.130085e+00	 4.036197e-01	 4.692306e+00
1	 1.110656e+00	 4.543610e-01	 3.347207e+00
1	 1.088740e+00	 5.046241e-01	 1.996413e+00
1	 1.201561e+00	 2.562004e-01	 7.816396e+00
1	 1.189190e+00	 3.085703e-01	 6.640965e+00
1	 1.174346e+00	 3.609690e-01	 5.426816e+00
1	 1.156991e+00	 4.132297e-01	 4.184769e+00
1	 1.137100e+00	 4.651792e-01	 2.926534e+00
1	 1.114662e+00	 5.166390e-01	 1.664552e+00
1	 1.229504e+00	 2.621585e-01	 7.132788e+00
1	 1.216845e+00	 3.157464e-01	 6.024837e+00
1	 1.201657e+00	 3.693636e-01	 4.883001e+00
1	 1.183898e+00	 4.228397e-01	 3.717314e+00
1	 1.163544e+00	 4.759973e-01	 2.538368e+00
1	 1.140585e+00	 5.286539e-01	 1.357144e+00
1	 1.257448e+00	 2.681167e-01	 6.496411e+00
1	 1.244501e+00	 3.229224e-01	 5.451341e+00
1	 1.228967e+00	 3.777582e-01	 4.376445e+00
1	 1.210805e+00	 4.324497e-01	 3.281065e+00
1	 1.189988e+00	 4.868154e-01	 2.174811e+00
1	 1.166507e+00	 5.406687e-01	 1.067386e+00
1	 1.036895e+00	 4.805944e-01	 2.764116e+00
1	 1.013661e+00	 5.278394e-01	 1.190356e+00
1	 9.880863e-01	 5.742891e-01	-4.045809e-01
1	 9.602101e-01	 6.197733e-01	-2.001412e+00
1	 9.300869e-01	 6.641241e-01	-3.580789e+00
1	 8.977874e-01	 7.071776e-01	-5.123614e+00
1	 1.062817e+00	 4.926093e-01	 2.360197e+00
1	 1.039002e+00	 5.410354e-01	 8.945176e-01
1	 1.012788e+00	 5.886463e-01	-5.962228e-01
1	 9.842154e-01	 6.352677e-01	-2.094397e+00
1	 9.533391e-01	 6.807272e-01	-3.582380e+00
1	 9.202321e-01	 7.248571e-01	-5.042828e+00
1	 1.088740e+00	 5.046241e-01	 1.996413e+00
1	 1.064344e+00	 5.542314e-01	 6.281416e-01
1	 1.037491e+00	 6.030036e-01	-7.686054e-01
1	 1.008221e+00	 6.507620e-01	-2.177735e+00
1	 9.765912e-01	 6.973303e-01	-3.583215e+00
1	 9.426768e-01	 7.425365e-01	-4.969331e+00
1	 1.114662e+00	 5.166390e-01	 1.664552e+00
1	 1.089685e+00	 5.674273e-01	 3.844054e-01
1	 1.062193e+00	 6.173608e-01	-9.271549e-01
1	 1.032226e+00	 6.662563e-01	-2.255452e+00
1	 9.998434e-01	 7.139334e-01	-3.585922e+00
1	 9.651215e-01	 7.602160e-01	-4.904351e+00
1	 1.140585e+00	 5.286539e-01	 1.357144e+00
1	 1.115027e+00	 5.806233e-01	 1.571065e-01
1	 1.086895e+00	 6.317180e-01	-1.076804e+00
1	 1.056231e+00	 6.817507e-01	-2.331208e+00
1	 1.023096e+00	 7.305365e-01	-3.592887e+00
1	 9.875662e-01	 7.778954e-01	-4.849005e+00
1	 1.166507e+00	 5.406687e-01	 1.067386e+00
1	 1.140368e+00	 5.938193e-01	-5.940630e-02
1	 1.111597e+00	 6.460753e-01	-1.222047e+00
1	 1.080236e+00	 6.972450e-01	-2.408337e+00
1	 1.046348e+00	 7.471396e-01	-3.606286e+00
1	 1.010011e+00	 7.955748e-01	-4.804308e+00
1	 8.977874e-01	 7.071776e-01	-5.123614e+00
1	 8.633982e-01	 7.487763e-01	-6.620808e+00
1	 8.270207e-01	 7.887707e-01	-8.064655e+00
1	 7.887707e-01	 8.270207e-01	-9.439889e+00
1	 7.487763e-01	 8.633982e-01	-1.073330e+01
1	 7.071776e-01	 8.977874e-01	-1.193390e+01
1	 9.202321e-01	 7.248571e-01	-5.042828e+00
1	 8.849831e-01	 7.674958e-01	-6.469290e+00
1	 8.476963e-01	 8.084899e-01	-7.855836e+00
1	 8.084899e-01	 8.476963e-01	-9.187421e+00
1	 7.674958e-01	 8.849831e-01	-1.045068e+01
1	 7.248571e-01	 9.202321e-01	-1.163408e+01
1	 9.426768e-01	 7.425365e-01	-4.969331e+00
1	 9.065681e-01	 7.862152e-01	-6.331680e+00
1	 8.683718e-01	 8.282092e-01	-7.665651e+00
1	 8.282092e-01	 8.683718e-01	-8.956486e+00
1	 7.862152e-01	 9.065681e-01	-1.019076e+01
1	 7.425365e-01	 9.426768e-01	-1.135657e+01
1	 9.651215e-01	 7.602160e-01	-4.904351e+00
1	 9.281531e-01	 8.049346e-01	-6.207878e+00
1	 8.890473e-01	 8.479285e-01	-7.492811e+00
1	 8.479285e-01	 8.890473e-01	-8.744731e+00
1	 8.049346e-01	 9.281531e-01	-9.950255e+00
1	 7.602160e-01	 9.651215e-01	-1.109722e+01
1	 9.875662e-01	 7.778954e-01	-4.849005e+00
1	 9.497380e-01	 8.236540e-01	-6.097797e+00
1	 9.097228e-01	 8.676477e-01	-7.336143e+00
1	 8.676477e-01	 9.097228e-01	-8.550015e+00
1	 8.236540e-01	 9.497380e-01	-9.726150e+00
1	 7.778954e-01	 9.875662e-01	-1.085226e+01
1	 1.010011e+00	 7.955748e-01	-4.804308e+00
1	 9.713230e-01	 8.423734e-01	-6.001354e+00
1	 9.303983e-01	 8.873670e-01	-7.194580e+00
1	 8.873670e-01	 9.303983e-01	-8.370386e+00
1	 8.423734e-01	 9.713230e-01	-9.515710e+00
1	 7.955748e-01	 1.010011e+00	-1.061824e+01
1	 7.071776e-01	 8.977874e-01	-1.193390e+01
1	 6.641241e-01	 9.300869e-01	-1.303347e+01
1	 6.197733e-01	 9.602101e-01	-1.402497e+01
1	 5.742891e-01	 9.880863e-01	-1.490276e+01
1	 5.278394e-01	 1.013661e+00	-1.566380e+01
1	 4.805944e-01	 1.036895e+00	-1.630758e+01
1	 7.248571e-01	 9.202321e-01	-1.163408e+01
1	 6.807272e-01	 9.533391e-01	-1.272887e+01
1	 6.352677e-01	 9.842154e-01	-1.372724e+01
1	 5.886463e-01	 1.012788e+00	-1.462214e+01
1	 5.410354e-01	 1.039002e+00	-1.540872e+01
1	 4.926093e-01	 1.062817e+00	-1.608430e+01
1	 7.425365e-01	 9.426768e-01	-1.135657e+01
1	 6.973303e-01	 9.765912e-01	-1.244453e+01
1	 6.507620e-01	 1.008221e+00	-1.344610e+01
1	 6.030036e-01	 1.037491e+00	-1.435323e+01
1	 5.542314e-01	 1.064344e+00	-1.515971e+01
1	 5.046241e-01	 1.088740e+00	-1.586121e+01
1	 7.602160e-01	 9.651215e-01	-1.109722e+01
1	 7.139334e-01	 9.998434e-01	-1.217561e+01
1	 6.662563e-01	 1.032226e+00	-1.317627e+01
1	 6.173608e-01	 1.062193e+00	-1.409052e+01
1	 5.674273e-01	 1.089685e+00	-1.491120e+01
1	 5.166390e-01	 1.114662e+00	-1.563281e+01
1	 7.778954e-01	 9.875662e-01	-1.085226e+01
1	 7.305365e-01	 1.023096e+00	-1.191773e+01
1	 6.817507e-01	 1.056231e+00	-1.291297e+01
1	 6.317180e-01	 1.086895e+00	-1.382899e+01
1	 5.806233e-01	 1.115027e+00	-1.465811e+01
1	 5.286539e-01	 1.140585e+00	-1.539411e+01
1	 7.955748e-01	 1.010011e+00	-1.061824e+01
1	 7.471396e-01	 1.046348e+00	-1.166689e+01
1	 6.972450e-01	 1.080236e+00	-1.265183e+01
1	 6.460753e-01	 1.111597e+00	-1.356409e+01
1	 5.938193e-01	 1.140368e+00	-1.439584e+01
1	 5.406687e-01	 1.166507e+00	-1.514053e+01
1	 4.805944e-01	 1.036895e+00	-1.630758e+01
1	 4.327248e-01	 1.057767e+00	-1.683642e+01
1	 3.843997e-01	 1.076271e+00	-1.725129e+01
1	 3.357851e-01	 1.092415e+00	-1.755288e+01
1	 2.870421e-01	 1.106223e+00	-1.774382e+01
1	 2.383259e-01	 1.117731e+00	-1.782850e+01
1	 4.926093e-01	 1.062817e+00	-1.608430e+01
1	 4.435429e-01	 1.084212e+00	-1.664888e+01
1	 3.940097e-01	 1.103178e+00	-1.710197e+01
1	 3.441797e-01	 1.119726e+00	-1.744315e+01
1	 2.942182e-01	 1.133879e+00	-1.767377e+01
1	 2.442841e-01	 1.145675e+00	-1.779693e+01
1	 5.046241e-01	 1.088740e+00	-1.586121e+01
1	 4.543610e-01	 1.110656e+00	-1.645588e+01
1	 4.036197e-01	 1.130085e+00	-1.694196e+01
1	 3.525743e-01	 1.147036e+00	-1.731802e+01
1	 3.013942e-01	 1.161534e+00	-1.758429e+01
1	 2.502422e-01	 1.173618e+00	-1.774262e+01
1	 5.166390e-01	 1.114662e+00	-1.563281e+01
1	 4.651792e-01	 1.137100e+00	-1.625205e+01
1	 4.132297e-01	 1.156991e+00	-1.676605e+01
1	 3.609690e-01	 1.174346e+00	-1.717248e+01
1	 3.085703e-01	 1.189190e+00	-1.747052e+01
1	 2.562004e-01	 1.201561e+00	-1.766088e+01
1	 5.286539e-01	 1.140585e+00	-1.539411e+01
1	 4.759973e-01	 1.163544e+00	-1.603252e+01
1	 4.228397e-01	 1.183898e+00	-1.656952e+01
1	 3.693636e-01	 1.201657e+00	-1.700194e+01
1	 3.157464e-01	 1.216845e+00	-1.732804e+01
1	 2.621585e-01	 1.229504e+00	-1.754746e+01
1	 5.406687e-01	 1.166507e+00	-1.514053e+01
1	 4.868154e-01	 1.189988e+00	-1.579287e+01
1	 4.324497e-01	 1.210805e+00	-1.634807e+01
1	 3.777582e-01	 1.228967e+00	-1.680225e+01
1	 3.229224e-01	 1.244501e+00	-1.715282e+01
1	 2.681167e-01	 1.257448e+00	-1.739846e+01
1	 2.383259e-01	 1.117731e+00	-1.782850e+01
1	 1.897840e-01	 1.126989e+00	-1.781486e+01
1	 1.415556e-01	 1.134057e+00	-1.770568e+01
1	 9.377052e-02	 1.139004e+00	-1.750008e+01
1	 4.654878e-02	 1.141909e+00	-1.719884e+01
1	 0.000000e+00	 1.142857e+00	-1.680423e+01
1	 2.442841e-01	 1.145675e+00	-1.779693e+01
1	 1.945286e-01	 1.155164e+00	-1.781909e+01
1	 1.450945e-01	 1.162408e+00	-1.774117e+01
1	 9.611478e-02	 1.167479e+00	-1.756042e+01
1	 4.771250e-02	 1.170456e+00	-1.727594e+01
1	 0.000000e+00	 1.171429e+00	-1.688852e+01
1	 2.502422e-01	 1.173618e+00	-1.774262e+01
1	 1.992732e-01	 1.183339e+00	-1.779820e+01
1	 1.486334e-01	 1.190759e+00	-1.775036e+01
1	 9.845904e-02	 1.195954e+00	-1.759470e+01
1	 4.887622e-02	 1.199004e+00	-1.732880e+01
1	 0.000000e+00	 1.200000e+00	-1.695211e+01
1	 2.562004e-01	 1.201561e+00	-1.766088e+01
1	 2.040178e-01	 1.211513e+00	-1.774765e+01
1	 1.521723e-01	 1.219111e+00	-1.772878e+01
1	 1.008033e-01	 1.224429e+00	-1.759845e+01
1	 5.003994e-02	 1.227552e+00	-1.735287e+01
1	 0.000000e+00	 1.228571e+00	-1.699029e+01
1	 2.621585e-01	 1.229504e+00	-1.754746e+01
1	 2.087624e-01	 1.239688e+00	-1.766329e+01
1	 1.557111e-01	 1.247462e+00	-1.767238e+01
1	 1.031476e-01	 1.252904e+00	-1.756762e+01
1	 5.120366e-02	 1.256100e+00	-1.734401e+01
1	 0.000000e+00	 1.257143e+00	-1.699874e+01
1	 2.681167e-01	 1.257448e+00	-1.739846e+01
1	 2.135070e-01	 1.267863e+00	-1.754137e+01
1	 1.592500e-01	 1.275814e+00	-1.757746e+01
1	 1.054918e-01	 1.281379e+00	-1.749851e+01
1	 5.236738e-02	 1.284647e+00	-1.729848e+01
1	 0.000000e+00	 1.285714e+00	-1.697357e+01
1	 1.285714e+00	 0.000000e+00	 1.185580e+01
1	 1.284647e+00	 5.236738e-02	 1.076813e+01
1	 1.281379e+00	 1.054918e-01	 9.681683e+00
1	 1.275814e+00	 1.592500e-01	 8.602573e+00
1	 1.267863e+00	 2.135070e-01	 7.538039e+00
1	 1.257448e+00	 2.681167e-01	 6.496411e+00
1	 1.314286e+00	 0.000000e+00	 1.105918e+01
1	 1.313195e+00	 5.353110e-02	 1.000075e+01
1	 1.309854e+00	 1.078361e-01	 8.949373e+00
1	 1.304165e+00	 1.627889e-01	 7.911628e+00
1	 1.296037e+00	 2.182516e-01	 6.894954e+00
1	 1.285391e+00	 2.740748e-01	 5.907598e+00
1	 1.342857e+00	 0.000000e+00	 1.031618e+01
1	 1.341743e+00	 5.469482e-02	 9.288072e+00
1	 1.338329e+00	 1.101804e-01	 8.272012e+00
1	 1.332517e+00	 1.663278e-01	 7.275009e+00
1	 1.324212e+00	 2.229962e-01	 6.304712e+00
1	 1.313334e+00	 2.800330e-01	 5.369296e+00
1	 1.371429e+00	 0.000000e+00	 9.621190e+00
1	 1.370291e+00	 5.585854e-02	 8.624336e+00
1	 1.366804e+00	 1.125246e-01	 7.643706e+00
1	 1.360868e+00	 1.698667e-01	 6.686748e+00
1	 1.352387e+00	 2.277408e-01	 5.761314e+00
1	 1.341278e+00	 2.859911e-01	 4.875523e+00
1	 1.400000e+00	 0.000000e+00	 8.969076e+00
1	 1.398838e+00	 5.702226e-02	 8.004239e+00
1	 1.395280e+00	 1.148689e-01	 7.059043e+00
1	 1.389219e+00	 1.734056e-01	 6.141362e+00
1	 1.380562e+00	 2.324854e-01	 5.259253e+00
1	 1.369221e+00	 2.919493e-01	 4.420782e+00
1	 1.428571e+00	 0.000000e+00	 8.355106e+00
1	 1.427386e+00	 5.818597e-02	 7.422907e+00
1	 1.423755e+00	 1.172131e-01	 6.513044e+00
1	 1.417571e+00	 1.769445e-01	 5.633809e+00
1	 1.408736e+00	 2.372300e-01	 4.793460e+00
1	 1.397164e+00	 2.979074e-01	 4.000017e+00
1	 1.257448e+00	 2.681167e-01	 6.496411e+00
1	 1.244501e+00	 3.229224e-01	 5.451341e+00
1	 1.228967e+00	 3.777582e-01	 4.376445e+00
1	 1.210805e+00	 4.324497e-01	 3.281065e+00
1	 1.189988e+00	 4.868154e-01	 2.174811e+00
1	 1.166507e+00	 5.406687e-01	 1.067386e+00
1	 1.285391e+00	 2.740748e-01	 5.907598e+00
1	 1.272156e+00	 3.300985e-01	 4.921754e+00
1	 1.256277e+00	 3.861528e-01	 3.909483e+00
1	 1.237712e+00	 4.420596e-01	 2.879483e+00
1	 1.216432e+00	 4.976335e-01	 1.840467e+00
1	 1.192429e+00	 5.526836e-01	 8.009962e-01
1	 1.313334e+00	 2.800330e-01	 5.369296e+00
1	 1.299812e+00	 3.372745e-01	 4.439667e+00
1	 1.283588e+00	 3.945475e-01	 3.486463e+00
1	 1.264618e+00	 4.516696e-01	 2.517738e+00
1	 1.242877e+00	 5.084516e-01	 1.541355e+00
1	 1.218352e+00	 5.646984e-01	 5.648142e-01
1	 1.341278e+00	 2.859911e-01	 4.875523e+00
1	 1.327468e+00	 3.444506e-01	 3.999188e+00
1	 1.310898e+00	 4.029421e-01	 3.101701e+00
1	 1.291525e+00	 4.612796e-01	 2.190471e+00
1	 1.269321e+00	 5.192698e-01	 1.272550e+00
1	 1.244274e+00	 5.767133e-01	 3.544651e-01
1	 1.369221e+00	 2.919493e-01	 4.420782e+00
1	 1.355123e+00	 3.516266e-01	 3.594907e+00
1	 1.338209e+00	 4.113367e-01	 2.749976e+00
1	 1.318432e+00	 4.708896e-01	 1.892758e+00
1	 1.295765e+00	 5.300879e-01	 1.029532e+00
1	 1.270197e+00	 5.887282e-01	 1.659308e-01
1	 1.397164e+00	 2.979074e-01	 4.000017e+00
1	 1.382779e+00	 3.588027e-01	 3.221846e+00
1	 1.365519e+00	 4.197313e-01	 2.426487e+00
1	 1.345339e+00	 4.804996e-01	 1.620070e+00
1	 1.322209e+00	 5.409060e-01	 8.081403e-01
1	 1.296119e+00	 6.007430e-01	-4.485067e-03
1	 1.166507e+00	 5.406687e-01	 1.067386e+00
1	 1.140368e+00	 5.938193e-01	-5.940630e-02
1	 1.111597e+00	 6.460753e-01	-1.222047e+00
1	 1.080236e+00	 6.972450e-01	-2.408337e+00
1	 1.046348e+00	 7.471396e-01	-3.606286e+00
1	 1.010011e+00	 7.955748e-01	-4.804308e+00
1	 1.192429e+00	 5.526836e-01	 8.009962e-01
1	 1.165710e+00	 6.070153e-01	-2.584197e-01
1	 1.136299e+00	 6.604325e-01	-1.355355e+00
1	 1.104242e+00	 7.127393e-01	-2.478678e+00
1	 1.069600e+00	 7.637427e-01	-3.617504e+00
1	 1.032456e+00	 8.132543e-01	-4.761371e+00
1	 1.218352e+00	 5.646984e-01	 5.648142e-01
1	 1.191051e+00	 6.202113e-01	-4.323761e-01
1	 1.161001e+00	 6.747897e-01	-1.468613e+00
1	 1.128247e+00	 7.282337e-01	-2.533726e+00
1	 1.092852e+00	 7.803458e-01	-3.617815e+00
1	 1.054900e+00	 8.309337e-01	-4.711407e+00
1	 1.244274e+00	 5.767133e-01	 3.544651e-01
1	 1.216393e+00	 6.334073e-01	-5.850336e-01
1	 1.185704e+00	 6.891469e-01	-1.564933e+00
1	 1.152252e+00	 7.437280e-01	-2.575922e+00
1	 1.116104e+00	 7.969489e-01	-3.608967e+00
1	 1.077345e+00	 8.486132e-01	-4.655455e+00
1	 1.270197e+00	 5.887282e-01	 1.659308e-01
1	 1.241734e+00	 6.466033e-01	-7.198431e-01
1	 1.210406e+00	 7.035042e-01	-1.647174e+00
1	 1.176257e+00	 7.592223e-01	-2.607507e+00
1	 1.139356e+00	 8.135520e-01	-3.592563e+00
1	 1.099790e+00	 8.662926e-01	-4.594466e+00
1	 1.296119e+00	 6.007430e-01	-4.485067e-03
1	 1.267076e+00	 6.597992e-01	-8.399797e-01
1	 1.235108e+00	 7.178614e-01	-1.717964e+00
1	 1.200263e+00	 7.747167e-01	-2.630543e+00
1	 1.162609e+00	 8.301551e-01	-3.570079e+00
1	 1.122234e+00	 8.839720e-01	-4.529318e+00
1	 1.010011e+00	 7.955748e-01	-4.804308e+00
1	 9.713230e-01	 8.423734e-01	-6.001354e+00
1	 9.303983e-01	 8.873670e-01	-7.194580e+00
1	 8.873670e-01	 9.303983e-01	-8.370386e+00
1	 8.423734e-01	 9.713230e-01	-9.515710e+00
1	 7.955748e-01	 1.010011e+00	-1.061824e+01
1	 1.032456e+00	 8.132543e-01	-4.761371e+00
1	 9.929079e-01	 8.610928e-01	-5.909604e+00
1	 9.510738e-01	 9.070863e-01	-7.059395e+00
1	 9.070863e-01	 9.510738e-01	-8.197611e+00
1	 8.610928e-01	 9.929079e-01	-9.311467e+00
1	 8.132543e-01	 1.032456e+00	-1.038874e+01
1	 1.054900e+00	 8.309337e-01	-4.711407e+00
1	 1.014493e+00	 8.798122e-01	-5.813917e+00
1	 9.717494e-01	 9.268055e-01	-6.922385e+00
1	 9.268055e-01	 9.717494e-01	-8.024190e+00
1	 8.798122e-01	 1.014493e+00	-9.106900e+00
1	 8.309337e-01	 1.054900e+00	-1.015849e+01
1	 1.077345e+00	 8.486132e-01	-4.655455e+00
1	 1.036078e+00	 8.985316e-01	-5.714664e+00
1	 9.924249e-01	 9.465248e-01	-6.783351e+00
1	 9.465248e-01	 9.924249e-01	-7.849446e+00
1	 8.985316e-01	 1.036078e+00	-8.900942e+00
1	 8.486132e-01	 1.077345e+00	-9.926120e+00
1	 1.099790e+00	 8.662926e-01	-4.594466e+00
1	 1.057663e+00	 9.172510e-01	-5.612184e+00
1	 1.013100e+00	 9.662441e-01	-6.642113e+00
1	 9.662441e-01	 1.013100e+00	-7.672760e+00
1	 9.172510e-01	 1.057663e+00	-8.692616e+00
1	 8.662926e-01	 1.099790e+00	-9.690361e+00
1	 1.122234e+00	 8.839720e-01	-4.529318e+00
1	 1.079248e+00	 9.359704e-01	-5.506791e+00
1	 1.033776e+00	 9.859633e-01	-6.498501e+00
1	 9.859633e-01	 1.033776e+00	-7.493563e+00
1	 9.359704e-01	 1.079248e+00	-8.481021e+00
1	 8.839720e-01	 1.122234e+00	-9.450050e+00
1	 7.955748e-01	 1.010011e+00	-1.061824e+01
1	 7.471396e-01	 1.046348e+00	-1.166689e+01
1	 6.972450e-01	 1.080236e+00	-1.265183e+01
1	 6.460753e-01	 1.111597e+00	-1.356409e+01
1	 5.938193e-01	 1.140368e+00	-1.439584e+01
1	 5.406687e-01	 1.166507e+00	-1.514053e+01
1	 8.132543e-01	 1.032456e+00	-1.038874e+01
1	 7.637427e-01	 1.069600e+00	-1.141800e+01
1	 7.127393e-01	 1.104242e+00	-1.238932e+01
1	 6.604325e-01	 1.136299e+00	-1.329389e+01
1	 6.070153e-01	 1.165710e+00	-1.412390e+01
1	 5.526836e-01	 1.192429e+00	-1.487267e+01
1	 8.309337e-01	 1.054900e+00	-1.015849e+01
1	 7.803458e-01	 1.092852e+00	-1.116732e+01
1	 7.282337e-01	 1.128247e+00	-1.212332e+01
1	 6.747897e-01	 1.161001e+00	-1.301784e+01
1	 6.202113e-01	 1.191051e+00	-1.384305e+01
1	 5.646984e-01	 1.218352e+00	-1.459215e+01
1	 8.486132e-01	 1.077345e+00	-9.926120e+00
1	 7.969489e-01	 1.116104e+00	-1.091318e+01
1	 7.437280e-01	 1.152252e+00	-1.185193e+01
1	 6.891469e-01	 1.185704e+00	-1.273381e+01
1	 6.334073e-01	 1.216393e+00	-1.355098e+01
1	 5.767133e-01	 1.244274e+00	-1.429648e+01
1	 8.662926e-01	 1.099790e+00	-9.690361e+00
1	 8.135520e-01	 1.139356e+00	-1.065409e+01
1	 7.592223e-01	 1.176257e+00	-1.157341e+01
1	 7.035042e-01	 1.210406e+00	-1.243984e+01
1	 6.466033e-01	 1.241734e+00	-1.324553e+01
1	 5.887282e-01	 1.270197e+00	-1.398335e+01
1	 8.839720e-01	 1.122234e+00	-9.450050e+00
1	 8.301551e-01	 1.162609e+00	-1.038865e+01
1	 7.747167e-01	 1.200263e+00	-1.128615e+01
1	 7.178614e-01	 1.235108e+00	-1.213416e+01
1	 6.597992e-01	 1.267076e+00	-1.292476e+01
1	 6.007430e-01	 1.296119e+00	-1.365065e+01
1	 5.406687e-01	 1.166507e+00	-1.514053e+01
1	 4.868154e-01	 1.189988e+00	-1.579287e+01
1	 4.324497e-01	 1.210805e+00	-1.634807e+01
1	 3.777582e-01	 1.228967e+00	-1.680225e+01
1	 3.229224e-01	 1.244501e+00	-1.715282e+01
1	 2.681167e-01	 1.257448e+00	-1.739846e+01
1	 5.526836e-01	 1.192429e+00	-1.487267e+01
1	 4.976335e-01	 1.216432e+00	-1.553417e+01
1	 4.420596e-01	 1.237712e+00	-1.610290e+01
1	 3.861528e-01	 1.256277e+00	-1.657470e+01
1	 3.300985e-01	 1.272156e+00	-1.694649e+01
1	 2.740748e-01	 1.285391e+00	-1.721637e+01
1	 5.646984e-01	 1.218352e+00	-1.459215e+01
1	 5.084516e-01	 1.242877e+00	-1.525842e+01
1	 4.516696e-01	 1.264618e+00	-1.583613e+01
1	 3.945475e-01	 1.283588e+00	-1.632148e+01
1	 3.372745e-01	 1.299812e+00	-1.671160e+01
1	 2.800330e-01	 1.313334e+00	-1.700466e+01
1	 5.767133e-01	 1.244274e+00	-1.429648e+01
1	 5.192698e-01	 1.269321e+00	-1.496302e+01
1	 4.612796e-01	 1.291525e+00	-1.554520e+01
1	 4.029421e-01	 1.310898e+00	-1.604017e+01
1	 3.444506e-01	 1.327468e+00	-1.644592e+01
1	 2.859911e-01	 1.341278e+00	-1.676129e+01
1	 5.887282e-01	 1.270197e+00	-1.398335e+01
1	 5.300879e-01	 1.295765e+00	-1.464561e+01
1	 4.708896e-01	 1.318432e+00	-1.522777e+01
1	 4.113367e-01	 1.338209e+00	-1.572856e+01
1	 3.516266e-01	 1.355123e+00	-1.614741e+01
1	 2.919493e-01	 1.369221e+00	-1.648441e+01
1	 6.007430e-01	 1.296119e+00	-1.365065e+01
1	 5.409060e-01	 1.322209e+00	-1.430399e+01
1	 4.804996e-01	 1.345339e+00	-1.488169e+01
1	 4.197313e-01	 1.365519e+00	-1.538462e+01
1	 3.588027e-01	 1.382779e+00	-1.581419e+01
1	 2.979074e-01	 1.397164e+00	-1.617228e+01
1	 2.681167e-01	 1.257448e+00	-1.739846e+01
1	 2.135070e-01	 1.267863e+00	-1.754137e+01
1	 1.592500e-01	 1.275814e+00	-1.757746e+01
1	 1.054918e-01	 1.281379e+00	-1.749851e+01
1	 5.236738e-02	 1.284647e+00	-1.729848e+01
1	 0.000000e+00	 1.285714e+00	-1.697357e+01
1	 2.740748e-01	 1.285391e+00	-1.721637e+01
1	 2.182516e-01	 1.296037e+00	-1.738591e+01
1	 1.627889e-01	 1.304165e+00	-1.744988e+01
1	 1.078361e-01	 1.309854e+00	-1.739865e+01
1	 5.353110e-02	 1.313195e+00	-1.722483e+01
1	 0.000000e+00	 1.314286e+00	-1.692332e+01
1	 2.800330e-01	 1.313334e+00	-1.700466e+01
1	 2.229962e-01	 1.324212e+00	-1.720192e+01
1	 1.663278e-01	 1.332517e+00	-1.729645e+01
1	 1.101804e-01	 1.338329e+00	-1.727648e+01
1	 5.469482e-02	 1.341743e+00	-1.713250e+01
1	 0.000000e+00	 1.342857e+00	-1.685746e+01
1	 2.859911e-01	 1.341278e+00	-1.676129e+01
1	 2.277408e-01	 1.352387e+00	-1.698749e+01
1	 1.698667e-01	 1.360868e+00	-1.711526e+01
1	 1.125246e-01	 1.366804e+00	-1.712998e+01
1	 5.585854e-02	 1.370291e+00	-1.701940e+01
1	 0.000000e+00	 1.371429e+00	-1.677382e+01
1	 2.919493e-01	 1.369221e+00	-1.648441e+01
1	 2.324854e-01	 1.380562e+00	-1.674086e+01
1	 1.734056e-01	 1.389219e+00	-1.690454e+01
1	 1.148689e-01	 1.395280e+00	-1.695734e+01
1	 5.702226e-02	 1.398838e+00	-1.688360e+01
1	 0.000000e+00	 1.400000e+00	-1.667040e+01
1	 2.979074e-01	 1.397164e+00	-1.617228e+01
1	 2.372300e-01	 1.408736e+00	-1.646040e+01
1	 1.769445e-01	 1.417571e+00	-1.666266e+01
1	 1.172131e-01	 1.423755e+00	-1.675687e+01
1	 5.818597e-02	 1.427386e+00	-1.672335e+01
1	 0.000000e+00	 1.428571e+00	-1.654537e+01
1	 1.428571e+00	 0.000000e+00	 8.355106e+00
1	 1.427386e+00	 5.818597e-02	 7.422907e+00
1	 1.423755e+00	 1.172131e-01	 6.513044e+00
1	 1.417571e+00	 1.769445e-01	 5.633809e+00
1	 1.408736e+00	 2.372300e-01	 4.793460e+00
1	 1.397164e+00	 2.979074e-01	 4.000017e+00
1	 1.457143e+00	 0.000000e+00	 7.780240e+00
1	 1.455934e+00	 5.934969e-02	 6.880822e+00
1	 1.452230e+00	 1.195574e-01	 6.005820e+00
1	 1.445922e+00	 1.804834e-01	 5.163943e+00
1	 1.436911e+00	 2.419746e-01	 4.363646e+00
1	 1.425107e+00	 3.038655e-01	 3.612890e+00
1	 1.485714e+00	 0.000000e+00	 7.245375e+00
1	 1.484481e+00	 6.051341e-02	 6.378767e+00
1	 1.480705e+00	 1.219017e-01	 5.538076e+00
1	 1.474274e+00	 1.840223e-01	 4.732448e+00
1	 1.465086e+00	 2.467192e-01	 3.970527e+00
1	 1.453051e+00	 3.098237e-01	 3.260181e+00
1	 1.514286e+00	 0.000000e+00	 6.746229e+00
1	 1.513029e+00	 6.167713e-02	 5.912836e+00
1	 1.509180e+00	 1.242459e-01	 5.106238e+00
1	 1.502625e+00	 1.875612e-01	 4.336027e+00
1	 1.493261e+00	 2.514638e-01	 3.611032e+00
1	 1.480994e+00	 3.157818e-01	 2.939000e+00
1	 1.542857e+00	 0.000000e+00	 6.278836e+00
1	 1.541577e+00	 6.284085e-02	 5.479418e+00
1	 1.537655e+00	 1.265902e-01	 4.706994e+00
1	 1.530976e+00	 1.911000e-01	 3.971626e+00
1	 1.521435e+00	 2.562084e-01	 3.282317e+00
1	 1.508937e+00	 3.217400e-01	 2.646666e+00
1	 1.571429e+00	 0.000000e+00	 5.839519e+00
1	 1.570125e+00	 6.400457e-02	 5.075161e+00
1	 1.566130e+00	 1.289345e-01	 4.337277e+00
1	 1.559328e+00	 1.946389e-01	 3.636412e+00
1	 1.549610e+00	 2.609530e-01	 2.981745e+00
1	 1.536881e+00	 3.276981e-01	 2.380695e+00
1	 1.397164e+00	 2.979074e-01	 4.000017e+00
1	 1.382779e+00	 3.588027e-01	 3.221846e+00
1	 1.365519e+00	 4.197313e-01	 2.426487e+00
1	 1.345339e+00	 4.804996e-01	 1.620070e+00
1	 1.322209e+00	 5.409060e-01	 8.081403e-01
1	 1.296119e+00	 6.007430e-01	-4.485067e-03
1	 1.425107e+00	 3.038655e-01	 3.612890e+00
1	 1.410434e+00	 3.659787e-01	 2.879710e+00
1	 1.392829e+00	 4.281260e-01	 2.131118e+00
1	 1.372246e+00	 4.901096e-01	 1.372611e+00
1	 1.348653e+00	 5.517241e-01	 6.090342e-01
1	 1.322041e+00	 6.127579e-01	-1.555648e-01
1	 1.453051e+00	 3.098237e-01	 3.260181e+00
1	 1.438090e+00	 3.731548e-01	 2.569391e+00
1	 1.420140e+00	 4.365206e-01	 1.864950e+00
1	 1.399152e+00	 4.997196e-01	 1.151743e+00
1	 1.375098e+00	 5.625422e-01	 4.339295e-01
1	 1.347964e+00	 6.247727e-01	-2.851840e-01
1	 1.480994e+00	 3.157818e-01	 2.939000e+00
1	 1.465745e+00	 3.803308e-01	 2.288155e+00
1	 1.447450e+00	 4.449152e-01	 1.625421e+00
1	 1.426059e+00	 5.093296e-01	 9.550827e-01
1	 1.401542e+00	 5.733604e-01	 2.806341e-01
1	 1.373886e+00	 6.367876e-01	-3.953375e-01
1	 1.508937e+00	 3.217400e-01	 2.646666e+00
1	 1.493401e+00	 3.875069e-01	 2.033472e+00
1	 1.474760e+00	 4.533098e-01	 1.410160e+00
1	 1.452966e+00	 5.189396e-01	 7.804255e-01
1	 1.427986e+00	 5.841785e-01	 1.471180e-01
1	 1.399808e+00	 6.488025e-01	-4.878726e-01
1	 1.536881e+00	 3.276981e-01	 2.380695e+00
1	 1.521057e+00	 3.946829e-01	 1.802997e+00
1	 1.502071e+00	 4.617045e-01	 1.216966e+00
1	 1.479873e+00	 5.285496e-01	 6.257264e-01
1	 1.454430e+00	 5.949966e-01	 3.149922e-02
1	 1.425731e+00	 6.608173e-01	-5.645022e-01
1	 1.296119e+00	 6.007430e-01	-4.485067e-03
1	 1.267076e+00	 6.597992e-01	-8.399797e-01
1	 1.235108e+00	 7.178614e-01	-1.717964e+00
1	 1.200263e+00	 7.747167e-01	-2.630543e+00
1	 1.162609e+00	 8.301551e-01	-3.570079e+00
1	 1.122234e+00	 8.839720e-01	-4.529318e+00
1	 1.322041e+00	 6.127579e-01	-1.555648e-01
1	 1.292417e+00	 6.729952e-01	-9.436293e-01
1	 1.259810e+00	 7.322186e-01	-1.774931e+00
1	 1.224268e+00	 7.902110e-01	-2.642191e+00
1	 1.185861e+00	 8.467582e-01	-3.538372e+00
1	 1.144679e+00	 9.016515e-01	-4.456783e+00
1	 1.347964e+00	 6.247727e-01	-2.851840e-01
1	 1.317759e+00	 6.861912e-01	-1.028259e+00
1	 1.284512e+00	 7.465758e-01	-1.815190e+00
1	 1.248273e+00	 8.057053e-01	-2.639329e+00
1	 1.209113e+00	 8.633613e-01	-3.494247e+00
1	 1.167124e+00	 9.193309e-01	-4.373836e+00
1	 1.373886e+00	 6.367876e-01	-3.953375e-01
1	 1.343100e+00	 6.993872e-01	-1.095666e+00
1	 1.309214e+00	 7.609331e-01	-1.840348e+00
1	 1.272278e+00	 8.211997e-01	-2.623376e+00
1	 1.232365e+00	 8.799644e-01	-3.438945e+00
1	 1.189568e+00	 9.370104e-01	-4.281540e+00
1	 1.399808e+00	 6.488025e-01	-4.878726e-01
1	 1.368442e+00	 7.125832e-01	-1.147515e+00
1	 1.333916e+00	 7.752903e-01	-1.851893e+00
1	 1.296284e+00	 8.366940e-01	-2.595649e+00
1	 1.255617e+00	 8.965675e-01	-3.373613e+00
1	 1.212013e+00	 9.546898e-01	-4.180878e+00
1	 1.425731e+00	 6.608173e-01	-5.645022e-01
1	 1.393783e+00	 7.257792e-01	-1.185350e+00
1	 1.358619e+00	 7.896475e-01	-1.851204e+00
1	 1.320289e+00	 8.521883e-01	-2.557368e+00
1	 1.278869e+00	 9.131706e-01	-3.299317e+00
1	 1.234458e+00	 9.723692e-01	-4.072761e+00
1	 1.122234e+00	 8.839720e-01	-4.529318e+00
1	 1.079248e+00	 9.359704e-01	-5.506791e+00
1	 1.033776e+00	 9.859633e-01	-6.498501e+00
1	 9.859633e-01	 1.033776e+00	-7.493563e+00
1	 9.359704e-01	 1.079248e+00	-8.481021e+00
1	 8.839720e-01	 1.122234e+00	-9.450050e+00
1	 1.144679e+00	 9.016515e-01	-4.456783e+00
1	 1.100833e+00	 9.546898e-01	-5.395479e+00
1	 1.054451e+00	 1.005683e+00	-6.349989e+00
1	 1.005683e+00	 1.054451e+00	-7.309935e+00
1	 9.546898e-01	 1.100833e+00	-8.264807e+00
1	 9.016515e-01	 1.144679e+00	-9.204176e+00
1	 1.167124e+00	 9.193309e-01	-4.373836e+00
1	 1.122418e+00	 9.734093e-01	-5.275640e+00
1	 1.075127e+00	 1.025402e+00	-6.194541e+00
1	 1.025402e+00	 1.075127e+00	-7.120440e+00
1	 9.734093e-01	 1.122418e+00	-8.043021e+00
1	 9.193309e-01	 1.167124e+00	-8.951958e+00
1	 1.189568e+00	 9.370104e-01	-4.281540e+00
1	 1.144003e+00	 9.921287e-01	-5.148118e+00
1	 1.095802e+00	 1.045121e+00	-6.032702e+00
1	 1.045121e+00	 1.095802e+00	-6.925259e+00
1	 9.921287e-01	 1.144003e+00	-7.815419e+00
1	 9.370104e-01	 1.189568e+00	-8.692695e+00
1	 1.212013e+00	 9.546898e-01	-4.180878e+00
1	 1.165588e+00	 1.010848e+00	-5.013692e+00
1	 1.116478e+00	 1.064840e+00	-5.864976e+00
1	 1.064840e+00	 1.116478e+00	-6.724558e+00
1	 1.010848e+00	 1.165588e+00	-7.581779e+00
1	 9.546898e-01	 1.212013e+00	-8.425733e+00
1	 1.234458e+00	 9.723692e-01	-4.072761e+00
1	 1.187173e+00	 1.029567e+00	-4.873087e+00
1	 1.137154e+00	 1.084560e+00	-5.691831e+00
1	 1.084560e+00	 1.137154e+00	-6.518491e+00
1	 1.029567e+00	 1.187173e+00	-7.341894e+00
1	 9.723692e-01	 1.234458e+00	-8.150469e+00
1	 8.839720e-01	 1.122234e+00	-9.450050e+00
1	 8.301551e-01	 1.162609e+00	-1.038865e+01
1	 7.747167e-01	 1.200263e+00	-1.128615e+01
1	 7.178614e-01	 1.235108e+00	-1.213416e+01
1	 6.597992e-01	 1.267076e+00	-1.292476e+01
1	 6.007430e-01	 1.296119e+00	-1.365065e+01
1	 9.016515e-01	 1.144679e+00	-9.204176e+00
1	 8.467582e-01	 1.185861e+00	-1.011584e+01
1	 7.902110e-01	 1.224268e+00	-1.098898e+01
1	 7.322186e-01	 1.259810e+00	-1.181558e+01
1	 6.729952e-01	 1.292417e+00	-1.258801e+01
1	 6.127579e-01	 1.322041e+00	-1.329919e+01
1	 9.193309e-01	 1.167124e+00	-8.951958e+00
1	 8.633613e-01	 1.209113e+00	-9.834725e+00
1	 8.057053e-01	 1.248273e+00	-1.068080e+01
1	 7.465758e-01	 1.284512e+00	-1.148315e+01
1	 6.861912e-01	 1.317759e+00	-1.223509e+01
1	 6.247727e-01	 1.347964e+00	-1.293045e+01
1	 9.370104e-01	 1.189568e+00	-8.692695e+00
1	 8.799644e-01	 1.232365e+00	-9.544245e+00
1	 8.211997e-01	 1.272278e+00	-1.036038e+01
1	 7.609331e-01	 1.309214e+00	-1.113563e+01
1	 6.993872e-01	 1.343100e+00	-1.186488e+01
1	 6.367876e-01	 1.373886e+00	-1.254353e+01
1	 9.546898e-01	 1.212013e+00	-8.425733e+00
1	 8.965675e-01	 1.255617e+00	-9.243403e+00
1	 8.366940e-01	 1.296284e+00	-1.002658e+01
1	 7.752903e-01	 1.333916e+00	-1.077187e+01
1	 7.125832e-01	 1.368442e+00	-1.147633e+01
1	 6.488025e-01	 1.399808e+00	-1.213757e+01
1	 9.723692e-01	 1.234458e+00	-8.150469e+00
1	 9.131706e-01	 1.278869e+00	-8.931280e+00
1	 8.521883e-01	 1.320289e+00	-9.678325e+00
1	 7.896475e-01	 1.358619e+00	-1.039079e+01
1	 7.257792e-01	 1.393783e+00	-1.106849e+01
1	 6.608173e-01	 1.425731e+00	-1.171182e+01
1	 6.007430e-01	 1.296119e+00	-1.365065e+01
1	 5.409060e-01	 1.322209e+00	-1.430399e+01
1	 4.804996e-01	 1.345339e+00	-1.488169e+01
1	 4.197313e-01	 1.365519e+00	-1.538462e+01
1	 3.588027e-01	 1.382779e+00	-1.581419e+01
1	 2.979074e-01	 1.397164e+00	-1.617228e+01
1	 6.127579e-01	 1.322041e+00	-1.329919e+01
1	 5.517241e-01	 1.348653e+00	-1.394156e+01
1	 4.901096e-01	 1.372246e+00	-1.451369e+01
1	 4.281260e-01	 1.392829e+00	-1.501852e+01
1	 3.659787e-01	 1.410434e+00	-1.545937e+01
1	 3.038655e-01	 1.425107e+00	-1.583986e+01
1	 6.247727e-01	 1.347964e+00	-1.293045e+01
1	 5.625422e-01	 1.375098e+00	-1.356258e+01
1	 4.997196e-01	 1.399152e+00	-1.413139e+01
1	 4.365206e-01	 1.420140e+00	-1.464125e+01
1	 3.731548e-01	 1.438090e+00	-1.509677e+01
1	 3.098237e-01	 1.453051e+00	-1.550263e+01
1	 6.367876e-01	 1.373886e+00	-1.254353e+01
1	 5.733604e-01	 1.401542e+00	-1.316630e+01
1	 5.093296e-01	 1.426059e+00	-1.373410e+01
1	 4.449152e-01	 1.447450e+00	-1.425214e+01
1	 3.803308e-01	 1.465745e+00	-1.472565e+01
1	 3.157818e-01	 1.480994e+00	-1.515982e+01
1	 6.488025e-01	 1.399808e+00	-1.213757e+01
1	 5.841785e-01	 1.427986e+00	-1.275206e+01
1	 5.189396e-01	 1.452966e+00	-1.332123e+01
1	 4.533098e-01	 1.474760e+00	-1.385056e+01
1	 3.875069e-01	 1.493401e+00	-1.434537e+01
1	 3.217400e-01	 1.508937e+00	-1.481074e+01
1	 6.608173e-01	 1.425731e+00	-1.171182e+01
1	 5.949966e-01	 1.454430e+00	-1.231923e+01
1	 5.285496e-01	 1.479873e+00	-1.289220e+01
1	 4.617045e-01	 1.502071e+00	-1.343594e+01
1	 3.946829e-01	 1.521057e+00	-1.395531e+01
1	 3.276981e-01	 1.536881e+00	-1.445474e+01
1	 2.979074e-01	 1.397164e+00	-1.617228e+01
1	 2.372300e-01	 1.408736e+00	-1.646040e+01
1	 1.769445e-01	 1.417571e+00	-1.666266e+01
1	 1.172131e-01	 1.423755e+00	-1.675687e+01
1	 5.818597e-02	 1.427386e+00	-1.672335e+01
1	 0.000000e+00	 1.428571e+00	-1.654537e+01
1	 3.038655e-01	 1.425107e+00	-1.583986e+01
1	 2.419746e-01	 1.436911e+00	-1.616132e+01
1	 1.804834e-01	 1.445922e+00	-1.640399e+01
1	 1.195574e-01	 1.452230e+00	-1.654158e+01
1	 5.934969e-02	 1.455934e+00	-1.655043e+01
1	 0.000000e+00	 1.457143e+00	-1.641001e+01
1	 3.098237e-01	 1.453051e+00	-1.550263e+01
1	 2.467192e-01	 1.465086e+00	-1.585931e+01
1	 1.840223e-01	 1.474274e+00	-1.614335e+01
1	 1.219017e-01	 1.480705e+00	-1.632500e+01
1	 6.051341e-02	 1.484481e+00	-1.637718e+01
1	 0.000000e+00	 1.485714e+00	-1.627612e+01
1	 3.157818e-01	 1.480994e+00	-1.515982e+01
1	 2.514638e-01	 1.493261e+00	-1.555362e+01
1	 1.875612e-01	 1.502625e+00	-1.588000e+01
1	 1.242459e-01	 1.509180e+00	-1.610637e+01
1	 6.167713e-02	 1.513029e+00	-1.620281e+01
1	 0.000000e+00	 1.514286e+00	-1.614278e+01
1	 3.217400e-01	 1.508937e+00	-1.481074e+01
1	 2.562084e-01	 1.521435e+00	-1.524353e+01
1	 1.911000e-01	 1.530976e+00	-1.561325e+01
1	 1.265902e-01	 1.537655e+00	-1.588503e+01
1	 6.284085e-02	 1.541577e+00	-1.602661e+01
1	 0.000000e+00	 1.542857e+00	-1.600916e+01
1	 3.276981e-01	 1.536881e+00	-1.445474e+01
1	 2.609530e-01	 1.549610e+00	-1.492839e+01
1	 1.946389e-01	 1.559328e+00	-1.534246e+01
1	 1.289345e-01	 1.566130e+00	-1.566033e+01
1	 6.400457e-02	 1.570125e+00	-1.584789e+01
1	 0.000000e+00	 1.571429e+00	-1.587449e+01
1	 1.571429e+00	 0.000000e+00	 5.839519e+00
1	 1.570125e+00	 6.400457e-02	 5.075161e+00
1	 1.566130e+00	 1.289345e-01	 4.337277e+00
1	 1.559328e+00	 1.946389e-01	 3.636412e+00
1	 1.549610e+00	 2.609530e-01	 2.981745e+00
1	 1.536881e+00	 3.276981e-01	 2.380695e+00
1	 1.600000e+00	 0.000000e+00	 5.427417e+00
1	 1.598672e+00	 6.516829e-02	 4.699043e+00
1	 1.594605e+00	 1.312787e-01	 3.996039e+00
1	 1.587679e+00	 1.981778e-01	 3.329397e+00
1	 1.577785e+00	 2.656976e-01	 2.708425e+00
1	 1.564824e+00	 3.336563e-01	 2.140304e+00
1	 1.628571e+00	 0.000000e+00	 5.042294e+00
1	 1.627220e+00	 6.633201e-02	 4.350509e+00
1	 1.623080e+00	 1.336230e-01	 3.682563e+00
1	 1.616031e+00	 2.017167e-01	 3.049823e+00
1	 1.605959e+00	 2.704422e-01	 2.461639e+00
1	 1.592767e+00	 3.396144e-01	 1.924865e+00
1	 1.657143e+00	 0.000000e+00	 4.681744e+00
1	 1.655768e+00	 6.749573e-02	 4.027213e+00
1	 1.651555e+00	 1.359673e-01	 3.394571e+00
1	 1.644382e+00	 2.052556e-01	 2.795487e+00
1	 1.634134e+00	 2.751868e-01	 2.239275e+00
1	 1.620710e+00	 3.455726e-01	 1.732374e+00
1	 1.685714e+00	 0.000000e+00	 4.343525e+00
1	 1.684315e+00	 6.865945e-02	 3.726967e+00
1	 1.680031e+00	 1.383115e-01	 3.129936e+00
1	 1.672734e+00	 2.087945e-01	 2.564334e+00
1	 1.662309e+00	 2.799314e-01	 2.039361e+00
1	 1.648654e+00	 3.515307e-01	 1.560965e+00
1	 1.714286e+00	 0.000000e+00	 4.025542e+00
1	 1.712863e+00	 6.982317e-02	 3.447732e+00
1	 1.708506e+00	 1.406558e-01	 2.886676e+00
1	 1.701085e+00	 2.123334e-01	 2.354446e+00
1	 1.690484e+00	 2.846760e-01	 1.860060e+00
1	 1.676597e+00	 3.574889e-01	 1.408894e+00
1	 1.536881e+00	 3.276981e-01	 2.380695e+00
1	 1.521057e+00	 3.946829e-01	 1.802997e+00
1	 1.502071e+00	 4.617045e-01	 1.216966e+00
1	 1.479873e+00	 5.285496e-01	 6.257264e-01
1	 1.454430e+00	 5.949966e-01	 3.149922e-02
1	 1.425731e+00	 6.608173e-01	-5.645022e-01
1	 1.564824e+00	 3.336563e-01	 2.140304e+00
1	 1.548712e+00	 4.018590e-01	 1.596053e+00
1	 1.529381e+00	 4.700991e-01	 1.045268e+00
1	 1.506779e+00	 5.381596e-01	 4.904896e-01
1	 1.480874e+00	 6.058147e-01	-6.670229e-02
1	 1.451653e+00	 6.728322e-01	-6.257797e-01
1	 1.592767e+00	 3.396144e-01	 1.924865e+00
1	 1.576368e+00	 4.090351e-01	 1.412120e+00
1	 1.556692e+00	 4.784937e-01	 8.946430e-01
1	 1.533686e+00	 5.477696e-01	 3.743524e-01
1	 1.507318e+00	 6.166328e-01	-1.478501e-01
1	 1.477576e+00	 6.848470e-01	-6.721604e-01
1	 1.620710e+00	 3.455726e-01	 1.732374e+00
1	 1.604023e+00	 4.162111e-01	 1.249317e+00
1	 1.584002e+00	 4.868884e-01	 7.633280e-01
1	 1.560593e+00	 5.573795e-01	 2.756711e-01
1	 1.533763e+00	 6.274509e-01	-2.134663e-01
1	 1.503498e+00	 6.968619e-01	-7.050403e-01
1	 1.648654e+00	 3.515307e-01	 1.560965e+00
1	 1.631679e+00	 4.233872e-01	 1.105889e+00
1	 1.611312e+00	 4.952830e-01	 6.496792e-01
1	 1.587500e+00	 5.669895e-01	 1.929135e-01
1	 1.560207e+00	 6.382691e-01	-2.649696e-01
1	 1.529420e+00	 7.088768e-01	-7.257209e-01
1	 1.676597e+00	 3.574889e-01	 1.408894e+00
1	 1.659334e+00	 4.305632e-01	 9.801971e-01
1	 1.638623e+00	 5.036776e-01	 5.521626e-01
1	 1.614407e+00	 5.765995e-01	 1.246495e-01
1	 1.586651e+00	 6.490872e-01	-3.036843e-01
1	 1.555343e+00	 7.208916e-01	-7.354169e-01
1	 1.425731e+00	 6.608173e-01	-5.645022e-01
1	 1.393783e+00	 7.257792e-01	-1.185350e+00
1	 1.358619e+00	 7.896475e-01	-1.851204e+00
1	 1.320289e+00	 8.521883e-01	-2.557368e+00
1	 1.278869e+00	 9.131706e-01	-3.299317e+00
1	 1.234458e+00	 9.723692e-01	-4.072761e+00
1	 1.451653e+00	 6.728322e-01	-6.257797e-01
1	 1.419125e+00	 7.389751e-01	-1.209901e+00
1	 1.383321e+00	 8.040048e-01	-1.839229e+00
1	 1.344294e+00	 8.676827e-01	-2.509642e+00
1	 1.302122e+00	 9.297737e-01	-3.217160e+00
1	 1.256902e+00	 9.900487e-01	-3.957995e+00
1	 1.477576e+00	 6.848470e-01	-6.721604e-01
1	 1.444467e+00	 7.521711e-01	-1.221795e+00
1	 1.408023e+00	 8.183620e-01	-1.816765e+00
1	 1.368299e+00	 8.831770e-01	-2.453345e+00
1	 1.325374e+00	 9.463768e-01	-3.127892e+00
1	 1.279347e+00	 1.007728e+00	-3.836890e+00
1	 1.503498e+00	 6.968619e-01	-7.050403e-01
1	 1.469808e+00	 7.653671e-01	-1.222268e+00
1	 1.432725e+00	 8.327192e-01	-1.784831e+00
1	 1.392305e+00	 8.986713e-01	-2.389232e+00
1	 1.348626e+00	 9.629799e-01	-3.031964e+00
1	 1.301792e+00	 1.025408e+00	-3.709559e+00
1	 1.529420e+00	 7.088768e-01	-7.257209e-01
1	 1.495150e+00	 7.785631e-01	-1.212473e+00
1	 1.457427e+00	 8.470764e-01	-1.744381e+00
1	 1.416310e+00	 9.141657e-01	-2.318008e+00
1	 1.371878e+00	 9.795830e-01	-2.929797e+00
1	 1.324236e+00	 1.043087e+00	-3.576112e+00
1	 1.555343e+00	 7.208916e-01	-7.354169e-01
1	 1.520491e+00	 7.917591e-01	-1.193487e+00
1	 1.482129e+00	 8.614337e-01	-1.696301e+00
1	 1.440315e+00	 9.296600e-01	-2.240332e+00
1	 1.395130e+00	 9.961861e-01	-2.821782e+00
1	 1.346681e+00	 1.060766e+00	-3.436646e+00
1	 1.234458e+00	 9.723692e-01	-4.072761e+00
1	 1.187173e+00	 1.029567e+00	-4.873087e+00
1	 1.137154e+00	 1.084560e+00	-5.691831e+00
1	 1.084560e+00	 1.137154e+00	-6.518491e+00
1	 1.029567e+00	 1.187173e+00	-7.341894e+00
1	 9.723692e-01	 1.234458e+00	-8.150469e+00
1	 1.256902e+00	 9.900487e-01	-3.957995e+00
1	 1.208757e+00	 1.048287e+00	-4.726430e+00
1	 1.157829e+00	 1.104279e+00	-5.512537e+00
1	 1.104279e+00	 1.157829e+00	-6.305614e+00
1	 1.048287e+00	 1.208757e+00	-7.094138e+00
1	 9.900487e-01	 1.256902e+00	-7.866055e+00
1	 1.279347e+00	 1.007728e+00	-3.836890e+00
1	 1.230342e+00	 1.067006e+00	-4.573299e+00
1	 1.178505e+00	 1.123998e+00	-5.325923e+00
1	 1.123998e+00	 1.178505e+00	-6.084302e+00
1	 1.067006e+00	 1.230342e+00	-6.837085e+00
1	 1.007728e+00	 1.279347e+00	-7.572321e+00
1	 1.301792e+00	 1.025408e+00	-3.709559e+00
1	 1.251927e+00	 1.085726e+00	-4.413557e+00
1	 1.199180e+00	 1.143717e+00	-5.131782e+00
1	 1.143717e+00	 1.199180e+00	-5.854436e+00
1	 1.085726e+00	 1.251927e+00	-6.570835e+00
1	 1.025408e+00	 1.301792e+00	-7.269692e+00
1	 1.324236e+00	 1.043087e+00	-3.576112e+00
1	 1.273512e+00	 1.104445e+00	-4.247076e+00
1	 1.219856e+00	 1.163437e+00	-4.929921e+00
1	 1.163437e+00	 1.219856e+00	-5.615904e+00
1	 1.104445e+00	 1.273512e+00	-6.295481e+00
1	 1.043087e+00	 1.324236e+00	-6.958562e+00
1	 1.346681e+00	 1.060766e+00	-3.436646e+00
1	 1.295097e+00	 1.123165e+00	-4.073739e+00
1	 1.240531e+00	 1.183156e+00	-4.720159e+00
1	 1.183156e+00	 1.240531e+00	-5.368600e+00
1	 1.123165e+00	 1.295097e+00	-6.011109e+00
1	 1.060766e+00	 1.346681e+00	-6.639301e+00
1	 9.723692e-01	 1.234458e+00	-8.150469e+00
1	 9.131706e-01	 1.278869e+00	-8.931280e+00
1	 8.521883e-01	 1.320289e+00	-9.678325e+00
1	 7.896475e-01	 1.358619e+00	-1.039079e+01
1	 7.257792e-01	 1.393783e+00	-1.106849e+01
1	 6.608173e-01	 1.425731e+00	-1.171182e+01
1	 9.900487e-01	 1.256902e+00	-7.866055e+00
1	 9.297737e-01	 1.302122e+00	-8.609120e+00
1	 8.676827e-01	 1.344294e+00	-9.319953e+00
1	 8.040048e-01	 1.383321e+00	-1.000021e+01
1	 7.389751e-01	 1.419125e+00	-1.065232e+01
1	 6.728322e-01	 1.451653e+00	-1.127933e+01
1	 1.007728e+00	 1.279347e+00	-7.572321e+00
1	 9.463768e-01	 1.325374e+00	-8.279212e+00
1	 8.831770e-01	 1.368299e+00	-8.956930e+00
1	 8.183620e-01	 1.408023e+00	-9.608925e+00
1	 7.521711e-01	 1.444467e+00	-1.023945e+01
1	 6.848470e-01	 1.477576e+00	-1.085336e+01
1	 1.025408e+00	 1.301792e+00	-7.269692e+00
1	 9.629799e-01	 1.348626e+00	-7.942212e+00
1	 8.986713e-01	 1.392305e+00	-8.589902e+00
1	 8.327192e-01	 1.432725e+00	-9.217352e+00
1	 7.653671e-01	 1.469808e+00	-9.829905e+00
1	 6.968619e-01	 1.503498e+00	-1.043343e+01
1	 1.043087e+00	 1.324236e+00	-6.958562e+00
1	 9.795830e-01	 1.371878e+00	-7.598733e+00
1	 9.141657e-01	 1.416310e+00	-8.219473e+00
1	 8.470764e-01	 1.457427e+00	-8.825893e+00
1	 7.785631e-01	 1.495150e+00	-9.423729e+00
1	 7.088768e-01	 1.529420e+00	-1.001910e+01
1	 1.060766e+00	 1.346681e+00	-6.639301e+00
1	 9.961861e-01	 1.395130e+00	-7.249348e+00
1	 9.296600e-01	 1.440315e+00	-7.846206e+00
1	 8.614337e-01	 1.482129e+00	-8.434922e+00
1	 7.917591e-01	 1.520491e+00	-9.020957e+00
1	 7.208916e-01	 1.555343e+00	-9.609959e+00
1	 6.608173e-01	 1.425731e+00	-1.171182e+01
1	 5.949966e-01	 1.454430e+00	-1.231923e+01
1	 5.285496e-01	 1.479873e+00	-1.289220e+01
1	 4.617045e-01	 1.502071e+00	-1.343594e+01
1	 3.946829e-01	 1.521057e+00	-1.395531e+01
1	 3.276981e-01	 1.536881e+00	-1.445474e+01
1	 6.728322e-01	 1.451653e+00	-1.127933e+01
1	 6.058147e-01	 1.480874e+00	-1.188131e+01
1	 5.381596e-01	 1.506779e+00	-1.245945e+01
1	 4.700991e-01	 1.529381e+00	-1.301858e+01
1	 4.018590e-01	 1.548712e+00	-1.356304e+01
1	 3.336563e-01	 1.564824e+00	-1.409663e+01
1	 6.848470e-01	 1.477576e+00	-1.085336e+01
1	 6.166328e-01	 1.507318e+00	-1.145158e+01
1	 5.477696e-01	 1.533686e+00	-1.203498e+01
1	 4.784937e-01	 1.556692e+00	-1.260834e+01
1	 4.090351e-01	 1.576368e+00	-1.317592e+01
1	 3.396144e-01	 1.592767e+00	-1.374132e+01
1	 6.968619e-01	 1.503498e+00	-1.043343e+01
1	 6.274509e-01	 1.533763e+00	-1.102914e+01
1	 5.573795e-01	 1.560593e+00	-1.161770e+01
1	 4.868884e-01	 1.584002e+00	-1.220417e+01
1	 4.162111e-01	 1.604023e+00	-1.279308e+01
1	 3.455726e-01	 1.620710e+00	-1.338836e+01
1	 7.088768e-01	 1.529420e+00	-1.001910e+01
1	 6.382691e-01	 1.560207e+00	-1.061312e+01
1	 5.669895e-01	 1.587500e+00	-1.120657e+01
1	 4.952830e-01	 1.611312e+00	-1.180505e+01
1	 4.233872e-01	 1.631679e+00	-1.241375e+01
1	 3.515307e-01	 1.648654e+00	-1.303733e+01
1	 7.208916e-01	 1.555343e+00	-9.609959e+00
1	 6.490872e-01	 1.586651e+00	-1.020274e+01
1	 5.765995e-01	 1.614407e+00	-1.080062e+01
1	 5.036776e-01	 1.638623e+00	-1.141003e+01
1	 4.305632e-01	 1.659334e+00	-1.203717e+01
1	 3.574889e-01	 1.676597e+00	-1.268785e+01
1	 3.276981e-01	 1.536881e+00	-1.445474e+01
1	 2.609530e-01	 1.549610e+00	-1.492839e+01
1	 1.946389e-01	 1.559328e+00	-1.534246e+01
1	 1.289345e-01	 1.566130e+00	-1.566033e+01
1	 6.400457e-02	 1.570125e+00	-1.584789e+01
1	 0.000000e+00	 1.571429e+00	-1.587449e+01
1	 3.336563e-01	 1.564824e+00	-1.409663e+01
1	 2.656976e-01	 1.577785e+00	-1.461072e+01
1	 1.981778e-01	 1.587679e+00	-1.506877e+01
1	 1.312787e-01	 1.594605e+00	-1.543329e+01
1	 6.516829e-02	 1.598672e+00	-1.566910e+01
1	 0.000000e+00	 1.600000e+00	-1.574438e+01
1	 3.396144e-01	 1.592767e+00	-1.374132e+01
1	 2.704422e-01	 1.605959e+00	-1.429344e+01
1	 2.017167e-01	 1.616031e+00	-1.479385e+01
1	 1.336230e-01	 1.623080e+00	-1.520541e+01
1	 6.633201e-02	 1.627220e+00	-1.549294e+01
1	 0.000000e+00	 1.628571e+00	-1.562428e+01
1	 3.455726e-01	 1.620710e+00	-1.338836e+01
1	 2.751868e-01	 1.634134e+00	-1.397651e+01
1	 2.052556e-01	 1.644382e+00	-1.451786e+01
1	 1.359673e-01	 1.651555e+00	-1.497681e+01
1	 6.749573e-02	 1.655768e+00	-1.531916e+01
1	 0.000000e+00	 1.657143e+00	-1.551320e+01
1	 3.515307e-01	 1.648654e+00	-1.303733e+01
1	 2.799314e-01	 1.662309e+00	-1.365990e+01
1	 2.087945e-01	 1.672734e+00	-1.424098e+01
1	 1.383115e-01	 1.680031e+00	-1.474762e+01
1	 6.865945e-02	 1.684315e+00	-1.514754e+01
1	 0.000000e+00	 1.685714e+00	-1.541024e+01
1	 3.574889e-01	 1.676597e+00	-1.268785e+01
1	 2.846760e-01	 1.690484e+00	-1.334356e+01
1	 2.123334e-01	 1.701085e+00	-1.396334e+01
1	 1.406558e-01	 1.708506e+00	-1.451793e+01
1	 6.982317e-02	 1.712863e+00	-1.497786e+01
1	 0.000000e+00	 1.714286e+00	-1.531456e+01
1	 1.714286e+00	 0.000000e+00	 4.025542e+00
1	 1.712863e+00	 6.982317e-02	 3.447732e+00
1	 1.708506e+00	 1.406558e-01	 2.886676e+00
1	 1.701085e+00	 2.123334e-01	 2.354446e+00
1	 1.690484e+00	 2.846760e-01	 1.860060e+00
1	 1.676597e+00	 3.574889e-01	 1.408894e+00
1	 1.742857e+00	 0.000000e+00	 3.729267e+00
1	 1.741411e+00	 7.098689e-02	 3.189014e+00
1	 1.736981e+00	 1.430000e-01	 2.663410e+00
1	 1.729436e+00	 2.158723e-01	 2.164344e+00
1	 1.718658e+00	 2.894206e-01	 1.700260e+00
1	 1.704540e+00	 3.634470e-01	 1.275546e+00
1	 1.771429e+00	 0.000000e+00	 3.456782e+00
1	 1.769959e+00	 7.215061e-02	 2.950878e+00
1	 1.765456e+00	 1.453443e-01	 2.459218e+00
1	 1.757788e+00	 2.194112e-01	 1.992882e+00
1	 1.746833e+00	 2.941652e-01	 1.559054e+00
1	 1.732483e+00	 3.694052e-01	 1.160394e+00
1	 1.800000e+00	 0.000000e+00	 3.207065e+00
1	 1.798506e+00	 7.331433e-02	 2.732274e+00
1	 1.793931e+00	 1.476886e-01	 2.272962e+00
1	 1.786139e+00	 2.229500e-01	 1.838805e+00
1	 1.775008e+00	 2.989098e-01	 1.435071e+00
1	 1.760427e+00	 3.753633e-01	 1.061987e+00
1	 1.828571e+00	 0.000000e+00	 2.979157e+00
1	 1.827054e+00	 7.447805e-02	 2.532218e+00
1	 1.822406e+00	 1.500328e-01	 2.103573e+00
1	 1.814491e+00	 2.264889e-01	 1.700933e+00
1	 1.803183e+00	 3.036544e-01	 1.327024e+00
1	 1.788370e+00	 3.813215e-01	 9.789686e-01
1	 1.857143e+00	 0.000000e+00	 2.772161e+00
1	 1.855602e+00	 7.564177e-02	 2.349787e+00
1	 1.850881e+00	 1.523771e-01	 1.950050e+00
1	 1.842842e+00	 2.300278e-01	 1.578160e+00
1	 1.831357e+00	 3.083990e-01	 1.233705e+00
1	 1.816313e+00	 3.872796e-01	 9.100627e-01
1	 1.676597e+00	 3.574889e-01	 1.408894e+00
1	 1.659334e+00	 4.305632e-01	 9.801971e-01
1	 1.638623e+00	 5.036776e-01	 5.521626e-01
1	 1.614407e+00	 5.765995e-01	 1.246495e-01
1	 1.586651e+00	 6.490872e-01	-3.036843e-01
1	 1.555343e+00	 7.208916e-01	-7.354169e-01
1	 1.704540e+00	 3.634470e-01	 1.275546e+00
1	 1.686990e+00	 4.377393e-01	 8.719450e-01
1	 1.665933e+00	 5.120722e-01	 4.705870e-01
1	 1.641313e+00	 5.862095e-01	 7.063613e-02
1	 1.613095e+00	 6.599053e-01	-3.299934e-01
1	 1.581265e+00	 7.329065e-01	-7.346573e-01
1	 1.732483e+00	 3.694052e-01	 1.160394e+00
1	 1.714646e+00	 4.449153e-01	 7.808430e-01
1	 1.693243e+00	 5.204669e-01	 4.047221e-01
1	 1.668220e+00	 5.958195e-01	 3.057550e-02
1	 1.639539e+00	 6.707234e-01	-3.443250e-01
1	 1.607187e+00	 7.449213e-01	-7.239849e-01
1	 1.760427e+00	 3.753633e-01	 1.061987e+00
1	 1.742301e+00	 4.520914e-01	 7.054207e-01
1	 1.720554e+00	 5.288615e-01	 3.531246e-01
1	 1.695127e+00	 6.054295e-01	 3.094863e-03
1	 1.665984e+00	 6.815415e-01	-3.479419e-01
1	 1.633110e+00	 7.569362e-01	-7.045189e-01
1	 1.788370e+00	 3.813215e-01	 9.789686e-01
1	 1.769957e+00	 4.592674e-01	 6.442998e-01
1	 1.747864e+00	 5.372561e-01	 3.144412e-01
1	 1.722034e+00	 6.150395e-01	-1.309267e-02
1	 1.692428e+00	 6.923597e-01	-3.420277e-01
1	 1.659032e+00	 7.689511e-01	-6.773084e-01
1	 1.816313e+00	 3.872796e-01	 9.100627e-01
1	 1.797612e+00	 4.664435e-01	 5.961868e-01
1	 1.775175e+00	 5.456507e-01	 2.874019e-01
1	 1.748940e+00	 6.246495e-01	-1.919479e-02
1	 1.718872e+00	 7.031778e-01	-3.276936e-01
1	 1.684955e+00	 7.809659e-01	-6.433380e-01
1	 1.555343e+00	 7.208916e-01	-7.354169e-01
1	 1.520491e+00	 7.917591e-01	-1.193487e+00
1	 1.482129e+00	 8.614337e-01	-1.696301e+00
1	 1.440315e+00	 9.296600e-01	-2.240332e+00
1	 1.395130e+00	 9.961861e-01	-2.821782e+00
1	 1.346681e+00	 1.060766e+00	-3.436646e+00
1	 1.581265e+00	 7.329065e-01	-7.346573e-01
1	 1.545833e+00	 8.049551e-01	-1.165904e+00
1	 1.506832e+00	 8.757909e-01	-1.641178e+00
1	 1.464320e+00	 9.451543e-01	-2.156766e+00
1	 1.418383e+00	 1.012789e+00	-2.708524e+00
1	 1.369126e+00	 1.078446e+00	-3.291950e+00
1	 1.607187e+00	 7.449213e-01	-7.239849e-01
1	 1.571174e+00	 8.181511e-01	-1.130309e+00
1	 1.531534e+00	 8.901481e-01	-1.579599e+00
1	 1.488326e+00	 9.606487e-01	-2.067915e+00
1	 1.441635e+00	 1.029392e+00	-2.590727e+00
1	 1.391570e+00	 1.096125e+00	-3.142992e+00
1	 1.633110e+00	 7.569362e-01	-7.045189e-01
1	 1.596516e+00	 8.313470e-01	-1.087662e+00
1	 1.556236e+00	 9.045054e-01	-1.512367e+00
1	 1.512331e+00	 9.761430e-01	-1.974429e+00
1	 1.464887e+00	 1.045995e+00	-2.468888e+00
1	 1.414015e+00	 1.113805e+00	-2.990123e+00
1	 1.659032e+00	 7.689511e-01	-6.773084e-01
1	 1.621857e+00	 8.445430e-01	-1.038865e+00
1	 1.580938e+00	 9.188626e-01	-1.440237e+00
1	 1.536336e+00	 9.916373e-01	-1.876917e+00
1	 1.488139e+00	 1.062599e+00	-2.343476e+00
1	 1.436460e+00	 1.131484e+00	-2.833671e+00
1	 1.684955e+00	 7.809659e-01	-6.433380e-01
1	 1.647199e+00	 8.577390e-01	-9.847645e-01
1	 1.605640e+00	 9.332198e-01	-1.363918e+00
1	 1.560341e+00	 1.007132e+00	-1.775953e+00
1	 1.511391e+00	 1.079202e+00	-2.214931e+00
1	 1.458905e+00	 1.149164e+00	-2.673945e+00
1	 1.346681e+00	 1.060766e+00	-3.436646e+00
1	 1.295097e+00	 1.123165e+00	-4.073739e+00
1	 1.240531e+00	 1.183156e+00	-4.720159e+00
1	 1.183156e+00	 1.240531e+00	-5.368600e+00
1	 1.123165e+00	 1.295097e+00	-6.011109e+00
1	 1.060766e+00	 1.346681e+00	-6.639301e+00
1	 1.369126e+00	 1.078446e+00	-3.291950e+00
1	 1.316682e+00	 1.141884e+00	-3.894802e+00
1	 1.261207e+00	 1.202875e+00	-4.504523e+00
1	 1.202875e+00	 1.261207e+00	-5.115498e+00
1	 1.141884e+00	 1.316682e+00	-5.721676e+00
1	 1.078446e+00	 1.369126e+00	-6.316731e+00
1	 1.391570e+00	 1.096125e+00	-3.142992e+00
1	 1.338267e+00	 1.160603e+00	-3.711764e+00
1	 1.281882e+00	 1.222595e+00	-4.285283e+00
1	 1.222595e+00	 1.281882e+00	-4.859769e+00
1	 1.160603e+00	 1.338267e+00	-5.431251e+00
1	 1.096125e+00	 1.391570e+00	-5.995666e+00
1	 1.414015e+00	 1.113805e+00	-2.990123e+00
1	 1.359852e+00	 1.179323e+00	-3.524860e+00
1	 1.302558e+00	 1.242314e+00	-4.062622e+00
1	 1.242314e+00	 1.302558e+00	-4.601600e+00
1	 1.179323e+00	 1.359852e+00	-5.140070e+00
1	 1.113805e+00	 1.414015e+00	-5.676431e+00
1	 1.436460e+00	 1.131484e+00	-2.833671e+00
1	 1.381437e+00	 1.198042e+00	-3.334313e+00
1	 1.323233e+00	 1.262033e+00	-3.836715e+00
1	 1.262033e+00	 1.323233e+00	-4.341166e+00
1	 1.198042e+00	 1.381437e+00	-4.848354e+00
1	 1.131484e+00	 1.436460e+00	-5.359327e+00
1	 1.458905e+00	 1.149164e+00	-2.673945e+00
1	 1.403022e+00	 1.216762e+00	-3.140332e+00
1	 1.343909e+00	 1.281752e+00	-3.607723e+00
1	 1.281752e+00	 1.343909e+00	-4.078631e+00
1	 1.216762e+00	 1.403022e+00	-4.556311e+00
1	 1.149164e+00	 1.458905e+00	-5.044640e+00
1	 1.060766e+00	 1.346681e+00	-6.639301e+00
1	 9.961861e-01	 1.395130e+00	-7.249348e+00
1	 9.296600e-01	 1.440315e+00	-7.846206e+00
1	 8.614337e-01	 1.482129e+00	-8.434922e+00
1	 7.917591e-01	 1.520491e+00	-9.020957e+00
1	 7.208916e-01	 1.555343e+00	-9.609959e+00
1	 1.078446e+00	 1.369126e+00	-6.316731e+00
1	 1.012789e+00	 1.418383e+00	-6.899363e+00
1	 9.451543e-01	 1.464320e+00	-7.475412e+00
1	 8.757909e-01	 1.506832e+00	-8.049371e+00
1	 8.049551e-01	 1.545833e+00	-8.625876e+00
1	 7.329065e-01	 1.581265e+00	-9.209513e+00
1	 1.096125e+00	 1.391570e+00	-5.995666e+00
1	 1.029392e+00	 1.441635e+00	-6.553983e+00
1	 9.606487e-01	 1.488326e+00	-7.112272e+00
1	 8.901481e-01	 1.531534e+00	-7.674076e+00
1	 8.181511e-01	 1.571174e+00	-8.242767e+00
1	 7.449213e-01	 1.607187e+00	-8.821405e+00
1	 1.113805e+00	 1.414015e+00	-5.676431e+00
1	 1.045995e+00	 1.464887e+00	-6.213581e+00
1	 9.761430e-01	 1.512331e+00	-6.757114e+00
1	 9.045054e-01	 1.556236e+00	-7.309240e+00
1	 8.313470e-01	 1.596516e+00	-7.871651e+00
1	 7.569362e-01	 1.633110e+00	-8.445439e+00
1	 1.131484e+00	 1.436460e+00	-5.359327e+00
1	 1.062599e+00	 1.488139e+00	-5.878506e+00
1	 9.916373e-01	 1.536336e+00	-6.410242e+00
1	 9.188626e-01	 1.580938e+00	-6.955053e+00
1	 8.445430e-01	 1.621857e+00	-7.512548e+00
1	 7.689511e-01	 1.659032e+00	-8.081433e+00
1	 1.149164e+00	 1.458905e+00	-5.044640e+00
1	 1.079202e+00	 1.511391e+00	-5.549085e+00
1	 1.007132e+00	 1.560341e+00	-6.071942e+00
1	 9.332198e-01	 1.605640e+00	-6.611692e+00
1	 8.577390e-01	 1.647199e+00	-7.165478e+00
1	 7.809659e-01	 1.684955e+00	-7.729217e+00
1	 7.208916e-01	 1.555343e+00	-9.609959e+00
1	 6.490872e-01	 1.586651e+00	-1.020274e+01
1	 5.765995e-01	 1.614407e+00	-1.080062e+01
1	 5.036776e-01	 1.638623e+00	-1.141003e+01
1	 4.305632e-01	 1.659334e+00	-1.203717e+01
1	 3.574889e-01	 1.676597e+00	-1.268785e+01
1	 7.329065e-01	 1.581265e+00	-9.209513e+00
1	 6.599053e-01	 1.613095e+00	-9.800811e+00
1	 5.862095e-01	 1.641313e+00	-1.040208e+01
1	 5.120722e-01	 1.665933e+00	-1.102060e+01
1	 4.377393e-01	 1.686990e+00	-1.166370e+01
1	 3.634470e-01	 1.704540e+00	-1.233851e+01
1	 7.449213e-01	 1.607187e+00	-8.821405e+00
1	 6.707234e-01	 1.639539e+00	-9.410377e+00
1	 5.958195e-01	 1.668220e+00	-1.001331e+01
1	 5.204669e-01	 1.693243e+00	-1.063823e+01
1	 4.449153e-01	 1.714646e+00	-1.129345e+01
1	 3.694052e-01	 1.732483e+00	-1.198731e+01
1	 7.569362e-01	 1.633110e+00	-8.445439e+00
1	 6.815415e-01	 1.665984e+00	-9.031012e+00
1	 6.054295e-01	 1.695127e+00	-9.633680e+00
1	 5.288615e-01	 1.720554e+00	-1.026206e+01
1	 4.520914e-01	 1.742301e+00	-1.092538e+01
1	 3.753633e-01	 1.760427e+00	-1.163307e+01
1	 7.689511e-01	 1.659032e+00	-8.081433e+00
1	 6.923597e-01	 1.692428e+00	-8.662324e+00
1	 6.150395e-01	 1.722034e+00	-9.262590e+00
1	 5.372561e-01	 1.747864e+00	-9.891325e+00
1	 4.592674e-01	 1.769957e+00	-1.055852e+01
1	 3.813215e-01	 1.788370e+00	-1.127465e+01
1	 7.809659e-01	 1.684955e+00	-7.729217e+00
1	 7.031778e-01	 1.718872e+00	-8.303944e+00
1	 6.246495e-01	 1.748940e+00	-8.899480e+00
1	 5.456507e-01	 1.775175e+00	-9.525266e+00
1	 4.664435e-01	 1.797612e+00	-1.019197e+01
1	 3.872796e-01	 1.816313e+00	-1.091102e+01
1	 3.574889e-01	 1.676597e+00	-1.268785e+01
1	 2.846760e-01	 1.690484e+00	-1.334356e+01
1	 2.123334e-01	 1.701085e+00	-1.396334e+01
1	 1.406558e-01	 1.708506e+00	-1.451793e+01
1	 6.982317e-02	 1.712863e+00	-1.497786e+01
1	 0.000000e+00	 1.714286e+00	-1.531456e+01
1	 3.634470e-01	 1.704540e+00	-1.233851e+01
1	 2.894206e-01	 1.718658e+00	-1.302375e+01
1	 2.158723e-01	 1.729436e+00	-1.367972e+01
1	 1.430000e-01	 1.736981e+00	-1.428389e+01
1	 7.098689e-02	 1.741411e+00	-1.481236e+01
1	 0.000000e+00	 1.742857e+00	-1.524103e+01
1	 3.694052e-01	 1.732483e+00	-1.198731e+01
1	 2.941652e-01	 1.746833e+00	-1.269597e+01
1	 2.194112e-01	 1.757788e+00	-1.338450e+01
1	 1.453443e-01	 1.765456e+00	-1.404183e+01
1	 7.215061e-02	 1.769959e+00	-1.465424e+01
1	 0.000000e+00	 1.771429e+00	-1.520635e+01
1	 3.753633e-01	 1.760427e+00	-1.163307e+01
1	 2.989098e-01	 1.775008e+00	-1.235921e+01
1	 2.229500e-01	 1.786139e+00	-1.307725e+01
1	 1.476886e-01	 1.793931e+00	-1.379217e+01
1	 7.331433e-02	 1.798506e+00	-1.450475e+01
1	 0.000000e+00	 1.800000e+00	-1.521235e+01
1	 3.813215e-01	 1.788370e+00	-1.127465e+01
1	 3.036544e-01	 1.803183e+00	-1.201247e+01
1	 2.264889e-01	 1.814491e+00	-1.275758e+01
1	 1.500328e-01	 1.822406e+00	-1.353529e+01
1	 7.447805e-02	 1.827054e+00	-1.436505e+01
1	 0.000000e+00	 1.828571e+00	-1.526076e+01
1	 3.872796e-01	 1.816313e+00	-1.091102e+01
1	 3.083990e-01	 1.831357e+00	-1.165486e+01
1	 2.300278e-01	 1.842842e+00	-1.242510e+01
1	 1.523771e-01	 1.850881e+00	-1.327154e+01
1	 7.564177e-02	 1.855602e+00	-1.423620e+01
1	 0.000000e+00	 1.857143e+00	-1.535319e+01
1	 1.857143e+00	 0.000000e+00	 2.772161e+00
1	 1.855602e+00	 7.564177e-02	 2.349787e+00
1	 1.850881e+00	 1.523771e-01	 1.950050e+00
1	 1.842842e+00	 2.300278e-01	 1.578160e+00
1	 1.831357e+00	 3.083990e-01	 1.233705e+00
1	 1.816313e+00	 3.872796e-01	 9.100627e-01
1	 1.885714e+00	 0.000000e+00	 2.589361e+00
1	 1.884149e+00	 7.680549e-02	 2.184800e+00
1	 1.879356e+00	 1.547214e-01	 1.811192e+00
1	 1.871193e+00	 2.335667e-01	 1.469396e+00
1	 1.859532e+00	 3.131436e-01	 1.154361e+00
1	 1.844257e+00	 3.932378e-01	 8.546563e-01
1	 1.914286e+00	 0.000000e+00	 2.441811e+00
1	 1.912697e+00	 7.796921e-02	 2.040100e+00
1	 1.907831e+00	 1.570656e-01	 1.685402e+00
1	 1.899545e+00	 2.371056e-01	 1.371126e+00
1	 1.887707e+00	 3.178882e-01	 1.085235e+00
1	 1.872200e+00	 3.991959e-01	 8.100450e-01
1	 1.942857e+00	 0.000000e+00	 2.339828e+00
1	 1.941245e+00	 7.913293e-02	 1.919188e+00
1	 1.936306e+00	 1.594099e-01	 1.571196e+00
1	 1.927896e+00	 2.406445e-01	 1.278859e+00
1	 1.915882e+00	 3.226328e-01	 1.020915e+00
1	 1.900143e+00	 4.051541e-01	 7.720675e-01
1	 1.971429e+00	 0.000000e+00	 2.293133e+00
1	 1.969793e+00	 8.029665e-02	 1.825357e+00
1	 1.964781e+00	 1.617541e-01	 1.467179e+00
1	 1.956248e+00	 2.441834e-01	 1.188367e+00
1	 1.944056e+00	 3.273774e-01	 9.563041e-01
1	 1.928086e+00	 4.111122e-01	 7.368037e-01
1	 2.000000e+00	 0.000000e+00	 2.310891e+00
1	 1.998340e+00	 8.146036e-02	 1.761714e+00
1	 1.993257e+00	 1.640984e-01	 1.372035e+00
1	 1.984599e+00	 2.477223e-01	 1.095663e+00
1	 1.972231e+00	 3.321220e-01	 8.865974e-01
1	 1.956030e+00	 4.170704e-01	 7.005575e-01
1	 1.816313e+00	 3.872796e-01	 9.100627e-01
1	 1.797612e+00	 4.664435e-01	 5.961868e-01
1	 1.775175e+00	 5.456507e-01	 2.874019e-01
1	 1.748940e+00	 6.246495e-01	-1.919479e-02
1	 1.718872e+00	 7.031778e-01	-3.276936e-01
1	 1.684955e+00	 7.809659e-01	-6.433380e-01
1	 1.844257e+00	 3.932378e-01	 8.546563e-01
1	 1.825268e+00	 4.736195e-01	 5.602720e-01
1	 1.802485e+00	 5.540454e-01	 2.708259e-01
1	 1.775847e+00	 6.342595e-01	-1.660861e-02
1	 1.745316e+00	 7.139959e-01	-3.062205e-01
1	 1.710877e+00	 7.929808e-01	-6.034323e-01
1	 1.872200e+00	 3.991959e-01	 8.100450e-01
1	 1.852923e+00	 4.807956e-01	 5.351298e-01
1	 1.829795e+00	 5.624400e-01	 2.639929e-01
1	 1.802754e+00	 6.438695e-01	-5.607096e-03
1	 1.771760e+00	 7.248140e-01	-2.775244e-01
1	 1.736799e+00	 8.049956e-01	-5.572339e-01
1	 1.900143e+00	 4.051541e-01	 7.720675e-01
1	 1.880579e+00	 4.879716e-01	 5.186982e-01
1	 1.857106e+00	 5.708346e-01	 2.664064e-01
1	 1.829661e+00	 6.534795e-01	 1.432039e-02
1	 1.798204e+00	 7.356321e-01	-2.406607e-01
1	 1.762722e+00	 8.170105e-01	-5.039452e-01
1	 1.928086e+00	 4.111122e-01	 7.368037e-01
1	 1.908235e+00	 4.951477e-01	 5.090345e-01
1	 1.884416e+00	 5.792292e-01	 2.775981e-01
1	 1.856568e+00	 6.630895e-01	 4.365490e-02
1	 1.824649e+00	 7.464503e-01	-1.947399e-01
1	 1.788644e+00	 8.290254e-01	-4.428150e-01
1	 1.956030e+00	 4.170704e-01	 7.005575e-01
1	 1.935890e+00	 5.023237e-01	 5.043072e-01
1	 1.911726e+00	 5.876239e-01	 2.971269e-01
1	 1.883474e+00	 6.726995e-01	 8.284999e-02
1	 1.851093e+00	 7.572684e-01	-1.389231e-01
1	 1.814566e+00	 8.410402e-01	-3.731350e-01
1	 1.684955e+00	 7.809659e-01	-6.433380e-01
1	 1.647199e+00	 8.577390e-01	-9.847645e-01
1	 1.605640e+00	 9.332198e-01	-1.363918e+00
1	 1.560341e+00	 1.007132e+00	-1.775953e+00
1	 1.511391e+00	 1.079202e+00	-2.214931e+00
1	 1.458905e+00	 1.149164e+00	-2.673945e+00
1	 1.710877e+00	 7.929808e-01	-6.034323e-01
1	 1.672540e+00	 8.709350e-01	-9.255058e-01
1	 1.630342e+00	 9.475770e-01	-1.282838e+00
1	 1.584347e+00	 1.022626e+00	-1.670443e+00
1	 1.534643e+00	 1.095805e+00	-2.082083e+00
1	 1.481349e+00	 1.166843e+00	-2.510401e+00
1	 1.736799e+00	 8.049956e-01	-5.572339e-01
1	 1.697882e+00	 8.841310e-01	-8.604631e-01
1	 1.655044e+00	 9.619343e-01	-1.196089e+00
1	 1.608352e+00	 1.038120e+00	-1.559410e+00
1	 1.557896e+00	 1.112408e+00	-1.944335e+00
1	 1.503794e+00	 1.184523e+00	-2.343520e+00
1	 1.762722e+00	 8.170105e-01	-5.039452e-01
1	 1.723223e+00	 8.973270e-01	-7.892994e-01
1	 1.679747e+00	 9.762915e-01	-1.103832e+00
1	 1.632357e+00	 1.053615e+00	-1.443537e+00
1	 1.581148e+00	 1.129011e+00	-1.802905e+00
1	 1.526239e+00	 1.202202e+00	-2.175048e+00
1	 1.788644e+00	 8.290254e-01	-4.428150e-01
1	 1.748565e+00	 9.105230e-01	-7.116972e-01
1	 1.704449e+00	 9.906487e-01	-1.006220e+00
1	 1.656362e+00	 1.069109e+00	-1.323471e+00
1	 1.604400e+00	 1.145614e+00	-1.658942e+00
1	 1.548683e+00	 1.219881e+00	-2.006635e+00
1	 1.814566e+00	 8.410402e-01	-3.731350e-01
1	 1.773906e+00	 9.237189e-01	-6.273573e-01
1	 1.729151e+00	 1.005006e+00	-9.033956e-01
1	 1.680368e+00	 1.084603e+00	-1.199818e+00
1	 1.627652e+00	 1.162217e+00	-1.513528e+00
1	 1.571128e+00	 1.237561e+00	-1.839831e+00
1	 1.458905e+00	 1.149164e+00	-2.673945e+00
1	 1.403022e+00	 1.216762e+00	-3.140332e+00
1	 1.343909e+00	 1.281752e+00	-3.607723e+00
1	 1.281752e+00	 1.343909e+00	-4.078631e+00
1	 1.216762e+00	 1.403022e+00	-4.556311e+00
1	 1.149164e+00	 1.458905e+00	-5.044640e+00
1	 1.481349e+00	 1.166843e+00	-2.510401e+00
1	 1.424607e+00	 1.235481e+00	-2.943841e+00
1	 1.364584e+00	 1.301472e+00	-3.378595e+00
1	 1.301472e+00	 1.364584e+00	-3.819010e+00
1	 1.235481e+00	 1.424607e+00	-4.270394e+00
1	 1.166843e+00	 1.481349e+00	-4.738834e+00
1	 1.503794e+00	 1.184523e+00	-2.343520e+00
1	 1.446192e+00	 1.254200e+00	-2.747041e+00
1	 1.385260e+00	 1.321191e+00	-3.153442e+00
1	 1.321191e+00	 1.385260e+00	-3.568026e+00
1	 1.254200e+00	 1.446192e+00	-3.997008e+00
1	 1.184523e+00	 1.503794e+00	-4.447300e+00
1	 1.526239e+00	 1.202202e+00	-2.175048e+00
1	 1.467777e+00	 1.272920e+00	-2.551956e+00
1	 1.405935e+00	 1.340910e+00	-2.934081e+00
1	 1.340910e+00	 1.405935e+00	-3.326846e+00
1	 1.272920e+00	 1.467777e+00	-3.736271e+00
1	 1.202202e+00	 1.526239e+00	-4.168757e+00
1	 1.548683e+00	 1.219881e+00	-2.006635e+00
1	 1.489362e+00	 1.291639e+00	-2.360490e+00
1	 1.426611e+00	 1.360629e+00	-2.722222e+00
1	 1.360629e+00	 1.426611e+00	-3.096570e+00
1	 1.291639e+00	 1.489362e+00	-3.488293e+00
1	 1.219881e+00	 1.548683e+00	-3.901998e+00
1	 1.571128e+00	 1.237561e+00	-1.839831e+00
1	 1.510947e+00	 1.310359e+00	-2.174438e+00
1	 1.447286e+00	 1.380349e+00	-2.519480e+00
1	 1.380349e+00	 1.447286e+00	-2.878234e+00
1	 1.310359e+00	 1.510947e+00	-3.253178e+00
1	 1.237561e+00	 1.571128e+00	-3.645886e+00
1	 1.149164e+00	 1.458905e+00	-5.044640e+00
1	 1.079202e+00	 1.511391e+00	-5.549085e+00
1	 1.007132e+00	 1.560341e+00	-6.071942e+00
1	 9.332198e-01	 1.605640e+00	-6.611692e+00
1	 8.577390e-01	 1.647199e+00	-7.165478e+00
1	 7.809659e-01	 1.684955e+00	-7.729217e+00
1	 1.166843e+00	 1.481349e+00	-4.738834e+00
1	 1.095805e+00	 1.534643e+00	-5.229793e+00
1	 1.022626e+00	 1.584347e+00	-5.743269e+00
1	 9.475770e-01	 1.630342e+00	-6.276405e+00
1	 8.709350e-01	 1.672540e+00	-6.824821e+00
1	 7.929808e-01	 1.710877e+00	-7.382773e+00
1	 1.184523e+00	 1.503794e+00	-4.447300e+00
1	 1.112408e+00	 1.557896e+00	-4.923272e+00
1	 1.038120e+00	 1.608352e+00	-5.423409e+00
1	 9.619343e-01	 1.655044e+00	-5.945206e+00
1	 8.841310e-01	 1.697882e+00	-6.484936e+00
1	 8.049956e-01	 1.736799e+00	-7.037788e+00
1	 1.202202e+00	 1.526239e+00	-4.168757e+00
1	 1.129011e+00	 1.581148e+00	-4.627191e+00
1	 1.053615e+00	 1.632357e+00	-5.109948e+00
1	 9.762915e-01	 1.679747e+00	-5.616484e+00
1	 8.973270e-01	 1.723223e+00	-6.145815e+00
1	 8.170105e-01	 1.762722e+00	-6.696543e+00
1	 1.219881e+00	 1.548683e+00	-3.901998e+00
1	 1.145614e+00	 1.604400e+00	-4.339356e+00
1	 1.069109e+00	 1.656362e+00	-4.800613e+00
1	 9.906487e-01	 1.704449e+00	-5.288724e+00
1	 9.105230e-01	 1.748565e+00	-5.807451e+00
1	 8.290254e-01	 1.788644e+00	-6.361193e+00
1	 1.237561e+00	 1.571128e+00	-3.645886e+00
1	 1.162217e+00	 1.627652e+00	-4.057695e+00
1	 1.084603e+00	 1.680368e+00	-4.493259e+00
1	 1.005006e+00	 1.729151e+00	-4.960497e+00
1	 9.237189e-01	 1.773906e+00	-5.469835e+00
1	 8.410402e-01	 1.814566e+00	-6.033766e+00
1	 7.809659e-01	 1.684955e+00	-7.729217e+00
1	 7.031778e-01	 1.718872e+00	-8.303944e+00
1	 6.246495e-01	 1.748940e+00	-8.899480e+00
1	 5.456507e-01	 1.775175e+00	-9.525266e+00
1	 4.664435e-01	 1.797612e+00	-1.019197e+01
1	 3.872796e-01	 1.816313e+00	-1.091102e+01
1	 7.929808e-01	 1.710877e+00	-7.382773e+00
1	 7.139959e-01	 1.745316e+00	-7.952899e+00
1	 6.342595e-01	 1.775847e+00	-8.546725e+00
1	 5.540454e-01	 1.802485e+00	-9.172066e+00
1	 4.736195e-01	 1.825268e+00	-9.837910e+00
1	 3.932378e-01	 1.844257e+00	-1.055400e+01
1	 8.049956e-01	 1.736799e+00	-7.037788e+00
1	 7.248140e-01	 1.771760e+00	-7.609178e+00
1	 6.438695e-01	 1.802754e+00	-8.209620e+00
1	 5.624400e-01	 1.829795e+00	-8.841596e+00
1	 4.807956e-01	 1.852923e+00	-9.507943e+00
1	 3.991959e-01	 1.872200e+00	-1.021167e+01
1	 8.170105e-01	 1.762722e+00	-6.696543e+00
1	 7.356321e-01	 1.798204e+00	-7.276685e+00
1	 6.534795e-01	 1.829661e+00	-7.891829e+00
1	 5.708346e-01	 1.857106e+00	-8.535599e+00
1	 4.879716e-01	 1.880579e+00	-9.200409e+00
1	 4.051541e-01	 1.900143e+00	-9.877699e+00
1	 8.290254e-01	 1.788644e+00	-6.361193e+00
1	 7.464503e-01	 1.824649e+00	-6.959099e+00
1	 6.630895e-01	 1.856568e+00	-7.596806e+00
1	 5.792292e-01	 1.884416e+00	-8.255719e+00
1	 4.951477e-01	 1.908235e+00	-8.913741e+00
1	 4.111122e-01	 1.928086e+00	-9.546109e+00
1	 8.410402e-01	 1.814566e+00	-6.033766e+00
1	 7.572684e-01	 1.851093e+00	-6.659886e+00
1	 6.726995e-01	 1.883474e+00	-7.327808e+00
1	 5.876239e-01	 1.911726e+00	-8.003507e+00
1	 5.023237e-01	 1.935890e+00	-8.646463e+00
1	 4.170704e-01	 1.956030e+00	-9.211272e+00
1	 3.872796e-01	 1.816313e+00	-1.091102e+01
1	 3.083990e-01	 1.831357e+00	-1.165486e+01
1	 2.300278e-01	 1.842842e+00	-1.242510e+01
1	 1.523771e-01	 1.850881e+00	-1.327154e+01
1	 7.564177e-02	 1.855602e+00	-1.423620e+01
1	 0.000000e+00	 1.857143e+00	-1.535319e+01
1	 3.932378e-01	 1.844257e+00	-1.055400e+01
1	 3.131436e-01	 1.859532e+00	-1.129246e+01
1	 2.335667e-01	 1.871193e+00	-1.207770e+01
1	 1.547214e-01	 1.879356e+00	-1.299203e+01
1	 7.680549e-02	 1.884149e+00	-1.410864e+01
1	 0.000000e+00	 1.885714e+00	-1.549060e+01
1	 3.991959e-01	 1.872200e+00	-1.021167e+01
1	 3.178882e-01	 1.887707e+00	-1.092560e+01
1	 2.371056e-01	 1.899545e+00	-1.170846e+01
1	 1.570656e-01	 1.907831e+00	-1.268678e+01
1	 7.796921e-02	 1.912697e+00	-1.397778e+01
1	 0.000000e+00	 1.914286e+00	-1.568718e+01
1	 4.051541e-01	 1.900143e+00	-9.877699e+00
1	 3.226328e-01	 1.915882e+00	-1.054518e+01
1	 2.406445e-01	 1.927896e+00	-1.131018e+01
1	 1.594099e-01	 1.936306e+00	-1.235453e+01
1	 7.913293e-02	 1.941245e+00	-1.385181e+01
1	 0.000000e+00	 1.942857e+00	-1.596338e+01
1	 4.111122e-01	 1.928086e+00	-9.546109e+00
1	 3.273774e-01	 1.944056e+00	-1.014266e+01
1	 2.441834e-01	 1.956248e+00	-1.087608e+01
1	 1.617541e-01	 1.964781e+00	-1.199410e+01
1	 8.029665e-02	 1.969793e+00	-1.373843e+01
1	 0.000000e+00	 1.971429e+00	-1.633848e+01
1	 4.170704e-01	 1.956030e+00	-9.211272e+00
1	 3.321220e-01	 1.972231e+00	-9.709961e+00
1	 2.477223e-01	 1.984599e+00	-1.039976e+01
1	 1.640984e-01	 1.993257e+00	-1.160438e+01
1	 8.146036e-02	 1.998340e+00	-1.364488e+01
1	 0.000000e+00	 2.000000e+00	-1.683066e+01
