patch_n	x	y	stress_yy
0	 0.000000e+00	 0.000000e+00	-5.345671e+14
0	 0.000000e+00	 7.407407e-02	 2.843956e+14
0	 0.000000e+00	 1.481481e-01	-2.848022e+14
0	 0.000000e+00	 2.222222e-01	-3.382853e-01
0	 0.000000e+00	 2.962963e-01	-4.245920e-02
0	 0.000000e+00	 3.703704e-01	 3.947421e-01
0	 7.407407e-02	 0.000000e+00	 6.181257e-01
0	 7.407407e-02	 7.407407e-02	 1.144536e-02
0	 7.407407e-02	 1.481481e-01	-3.118861e-01
0	 7.407407e-02	 2.222222e-01	-3.591336e-01
0	 7.407407e-02	 2.962963e-01	-1.375623e-01
0	 7.407407e-02	 3.703704e-01	 3.455629e-01
0	 1.481481e-01	 0.000000e+00	 7.540070e-01
0	 1.481481e-01	 7.407407e-02	 1.236226e-01
0	 1.481481e-01	 1.481481e-01	-2.650829e-01
0	 1.481481e-01	 2.222222e-01	-3.735530e-01
0	 1.481481e-01	 2.962963e-01	-1.632307e-01
0	 1.481481e-01	 3.703704e-01	 4.044405e-01
0	 2.222222e-01	 0.000000e+00	 7.892095e-01
0	 2.222222e-01	 7.407407e-02	 1.483503e-01
0	 2.222222e-01	 1.481481e-01	-2.632126e-01
0	 2.222222e-01	 2.222222e-01	-3.839005e-01
0	 2.222222e-01	 2.962963e-01	-1.521345e-01
0	 2.222222e-01	 3.703704e-01	 4.936639e-01
0	 2.962963e-01	 0.000000e+00	 7.239460e-01
0	 2.962963e-01	 7.407407e-02	 9.971254e-02
0	 2.962963e-01	 1.481481e-01	-2.930475e-01
0	 2.962963e-01	 2.222222e-01	-3.925333e-01
0	 2.962963e-01	 2.962963e-01	-1.369437e-01
0	 2.962963e-01	 3.703704e-01	 5.355222e-01
0	 3.703704e-01	 0.000000e+00	 5.584295e-01
0	 3.703704e-01	 7.407407e-02	-8.206196e-03
0	 3.703704e-01	 1.481481e-01	-3.413600e-01
0	 3.703704e-01	 2.222222e-01	-4.018085e-01
0	 3.703704e-01	 2.962963e-01	-1.503282e-01
0	 3.703704e-01	 3.703704e-01	 4.523043e-01
0	 0.000000e+00	 3.703704e-01	-2.952200e+14
0	 0.000000e+00	 4.444444e-01	-1.145468e+15
0	 0.000000e+00	 5.185185e-01	-5.734517e+14
0	 0.000000e+00	 5.925926e-01	 3.673082e-01
0	 0.000000e+00	 6.666667e-01	-2.266369e-01
0	 0.000000e+00	 7.407407e-01	-1.068701e+00
0	 7.407407e-02	 3.703704e-01	 3.455629e-01
0	 7.407407e-02	 4.444444e-01	 7.643711e-01
0	 7.407407e-02	 5.185185e-01	 7.974413e-01
0	 7.407407e-02	 5.925926e-01	 4.441836e-01
0	 7.407407e-02	 6.666667e-01	-2.959923e-01
0	 7.407407e-02	 7.407407e-01	-1.423676e+00
0	 1.481481e-01	 3.703704e-01	 4.044405e-01
0	 1.481481e-01	 4.444444e-01	 9.347388e-01
0	 1.481481e-01	 5.185185e-01	 9.934333e-01
0	 1.481481e-01	 5.925926e-01	 5.598175e-01
0	 1.481481e-01	 6.666667e-01	-3.868149e-01
0	 1.481481e-01	 7.407407e-01	-1.867171e+00
0	 2.222222e-01	 3.703704e-01	 4.936639e-01
0	 2.222222e-01	 4.444444e-01	 1.105360e+00
0	 2.222222e-01	 5.185185e-01	 1.171247e+00
0	 2.222222e-01	 5.925926e-01	 6.575431e-01
0	 2.222222e-01	 6.666667e-01	-4.695309e-01
0	 2.222222e-01	 7.407407e-01	-2.243756e+00
0	 2.962963e-01	 3.703704e-01	 5.355222e-01
0	 2.962963e-01	 4.444444e-01	 1.165926e+00
0	 2.962963e-01	 5.185185e-01	 1.227587e+00
0	 2.962963e-01	 5.925926e-01	 6.806932e-01
0	 2.962963e-01	 6.666667e-01	-5.145662e-01
0	 2.962963e-01	 7.407407e-01	-2.398003e+00
0	 3.703704e-01	 3.703704e-01	 4.523043e-01
0	 3.703704e-01	 4.444444e-01	 1.006126e+00
0	 3.703704e-01	 5.185185e-01	 1.059159e+00
0	 3.703704e-01	 5.925926e-01	 5.726010e-01
0	 3.703704e-01	 6.666667e-01	-4.923470e-01
0	 3.703704e-01	 7.407407e-01	-2.174486e+00
0	 0.000000e+00	 7.407407e-01	-5.415355e+14
0	 0.000000e+00	 8.148148e-01	 2.879571e+14
0	 0.000000e+00	 8.888889e-01	-2.881946e+14
0	 0.000000e+00	 9.629630e-01	 1.226893e+00
0	 0.000000e+00	 1.037037e+00	 4.256422e+00
0	 0.000000e+00	 1.111111e+00	 8.397937e+00
0	 7.407407e-02	 7.407407e-01	-1.423676e+00
0	 7.407407e-02	 8.148148e-01	-1.717998e+00
0	 7.407407e-02	 8.888889e-01	 4.368063e-02
0	 7.407407e-02	 9.629630e-01	 3.863419e+00
0	 7.407407e-02	 1.037037e+00	 9.743278e+00
0	 7.407407e-02	 1.111111e+00	 1.768532e+01
0	 1.481481e-01	 7.407407e-01	-1.867171e+00
0	 1.481481e-01	 8.148148e-01	-2.210922e+00
0	 1.481481e-01	 8.888889e-01	 2.754063e-01
0	 1.481481e-01	 9.629630e-01	 5.605831e+00
0	 1.481481e-01	 1.037037e+00	 1.379437e+01
0	 1.481481e-01	 1.111111e+00	 2.485504e+01
0	 2.222222e-01	 7.407407e-01	-2.243756e+00
0	 2.222222e-01	 8.148148e-01	-2.645648e+00
0	 2.222222e-01	 8.888889e-01	 3.826350e-01
0	 2.222222e-01	 9.629630e-01	 6.864855e+00
0	 2.222222e-01	 1.037037e+00	 1.682477e+01
0	 2.222222e-01	 1.111111e+00	 3.028615e+01
0	 2.962963e-01	 7.407407e-01	-2.398003e+00
0	 2.962963e-01	 8.148148e-01	-2.741275e+00
0	 2.962963e-01	 8.888889e-01	 7.313676e-01
0	 2.962963e-01	 9.629630e-01	 8.051217e+00
0	 2.962963e-01	 1.037037e+00	 1.924957e+01
0	 2.962963e-01	 1.111111e+00	 3.435771e+01
0	 3.703704e-01	 7.407407e-01	-2.174486e+00
0	 3.703704e-01	 8.148148e-01	-2.216900e+00
0	 3.703704e-01	 8.888889e-01	 1.687605e+00
0	 3.703704e-01	 9.629630e-01	 9.575643e+00
0	 3.703704e-01	 1.037037e+00	 2.148383e+01
0	 3.703704e-01	 1.111111e+00	 3.744878e+01
0	 0.000000e+00	 1.111111e+00	-4.016770e+14
0	 0.000000e+00	 1.185185e+00	-3.554360e+14
0	 0.000000e+00	 1.259259e+00	-2.888351e+14
0	 0.000000e+00	 1.333333e+00	 3.209645e+01
0	 0.000000e+00	 1.407407e+00	 4.424377e+01
0	 0.000000e+00	 1.481481e+00	 5.849819e+01
0	 7.407407e-02	 1.111111e+00	 1.768532e+01
0	 7.407407e-02	 1.185185e+00	 2.648768e+01
0	 7.407407e-02	 1.259259e+00	 3.494187e+01
0	 7.407407e-02	 1.333333e+00	 4.303995e+01
0	 7.407407e-02	 1.407407e+00	 5.077399e+01
0	 7.407407e-02	 1.481481e+00	 5.813606e+01
0	 1.481481e-01	 1.111111e+00	 2.485504e+01
0	 1.481481e-01	 1.185185e+00	 3.617906e+01
0	 1.481481e-01	 1.259259e+00	 4.514365e+01
0	 1.481481e-01	 1.333333e+00	 5.174183e+01
0	 1.481481e-01	 1.407407e+00	 5.596662e+01
0	 1.481481e-01	 1.481481e+00	 5.781103e+01
0	 2.222222e-01	 1.111111e+00	 3.028615e+01
0	 2.222222e-01	 1.185185e+00	 4.354917e+01
0	 2.222222e-01	 1.259259e+00	 5.289336e+01
0	 2.222222e-01	 1.333333e+00	 5.831144e+01
0	 2.222222e-01	 1.407407e+00	 5.979616e+01
0	 2.222222e-01	 1.481481e+00	 5.734026e+01
0	 2.962963e-01	 1.111111e+00	 3.435771e+01
0	 2.962963e-01	 1.185185e+00	 4.890965e+01
0	 2.962963e-01	 1.259259e+00	 5.841269e+01
0	 2.962963e-01	 1.333333e+00	 6.285809e+01
0	 2.962963e-01	 1.407407e+00	 6.223710e+01
0	 2.962963e-01	 1.481481e+00	 5.654096e+01
0	 3.703704e-01	 1.111111e+00	 3.744878e+01
0	 3.703704e-01	 1.185185e+00	 5.257210e+01
0	 3.703704e-01	 1.259259e+00	 6.192337e+01
0	 3.703704e-01	 1.333333e+00	 6.549112e+01
0	 3.703704e-01	 1.407407e+00	 6.326392e+01
0	 3.703704e-01	 1.481481e+00	 5.523031e+01
0	 0.000000e+00	 1.481481e+00	 1.283388e+14
0	 0.000000e+00	 1.555556e+00	-6.348644e+27
0	 0.000000e+00	 1.629630e+00	-1.154513e+14
0	 0.000000e+00	 1.703704e+00	 7.229219e+01
0	 0.000000e+00	 1.777778e+00	 6.270956e+01
0	 0.000000e+00	 1.851852e+00	 4.609588e+01
0	 7.407407e-02	 1.481481e+00	 5.813606e+01
0	 7.407407e-02	 1.555556e+00	 6.300781e+01
0	 7.407407e-02	 1.629630e+00	 6.328854e+01
0	 7.407407e-02	 1.703704e+00	 5.899690e+01
0	 7.407407e-02	 1.777778e+00	 5.015151e+01
0	 7.407407e-02	 1.851852e+00	 3.677099e+01
0	 1.481481e-01	 1.481481e+00	 5.781103e+01
0	 1.481481e-01	 1.555556e+00	 5.718887e+01
0	 1.481481e-01	 1.629630e+00	 5.402274e+01
0	 1.481481e-01	 1.703704e+00	 4.831877e+01
0	 1.481481e-01	 1.777778e+00	 4.008313e+01
0	 1.481481e-01	 1.851852e+00	 2.932194e+01
0	 2.222222e-01	 1.481481e+00	 5.734026e+01
0	 2.222222e-01	 1.555556e+00	 5.244351e+01
0	 2.222222e-01	 1.629630e+00	 4.660926e+01
0	 2.222222e-01	 1.703704e+00	 3.983564e+01
0	 2.222222e-01	 1.777778e+00	 3.212081e+01
0	 2.222222e-01	 1.851852e+00	 2.346288e+01
0	 2.962963e-01	 1.481481e+00	 5.654096e+01
0	 2.962963e-01	 1.555556e+00	 4.844995e+01
0	 2.962963e-01	 1.629630e+00	 4.064655e+01
0	 2.962963e-01	 1.703704e+00	 3.312535e+01
0	 2.962963e-01	 1.777778e+00	 2.588094e+01
0	 2.962963e-01	 1.851852e+00	 1.890791e+01
0	 3.703704e-01	 1.481481e+00	 5.523031e+01
0	 3.703704e-01	 1.555556e+00	 4.488643e+01
0	 3.703704e-01	 1.629630e+00	 3.573307e+01
0	 3.703704e-01	 1.703704e+00	 2.776573e+01
0	 3.703704e-01	 1.777778e+00	 2.097993e+01
0	 3.703704e-01	 1.851852e+00	 1.537116e+01
0	 0.000000e+00	 1.851852e+00	 4.609588e+01
0	 0.000000e+00	 1.925926e+00	 2.829665e+01
0	 0.000000e+00	 2.000000e+00	 1.510749e+01
0	 0.000000e+00	 2.074074e+00	 6.489165e+00
0	 0.000000e+00	 2.148148e+00	 2.402433e+00
0	 0.000000e+00	 2.222222e+00	 2.808055e+00
0	 7.407407e-02	 1.851852e+00	 3.677099e+01
0	 7.407407e-02	 1.925926e+00	 2.293431e+01
0	 7.407407e-02	 2.000000e+00	 1.269441e+01
0	 7.407407e-02	 2.074074e+00	 6.030820e+00
0	 7.407407e-02	 2.148148e+00	 2.923078e+00
0	 7.407407e-02	 2.222222e+00	 3.350722e+00
0	 1.481481e-01	 1.851852e+00	 2.932194e+01
0	 1.481481e-01	 1.925926e+00	 1.869044e+01
0	 1.481481e-01	 2.000000e+00	 1.083520e+01
0	 1.481481e-01	 2.074074e+00	 5.749396e+00
0	 1.481481e-01	 2.148148e+00	 3.426229e+00
0	 1.481481e-01	 2.222222e+00	 3.858887e+00
0	 2.222222e-01	 1.851852e+00	 2.346288e+01
0	 2.222222e-01	 1.925926e+00	 1.539285e+01
0	 2.222222e-01	 2.000000e+00	 9.444079e+00
0	 2.222222e-01	 2.074074e+00	 5.618287e+00
0	 2.222222e-01	 2.148148e+00	 3.917190e+00
0	 2.222222e-01	 2.222222e+00	 4.342502e+00
0	 2.962963e-01	 1.851852e+00	 1.890791e+01
0	 2.962963e-01	 1.925926e+00	 1.286933e+01
0	 2.962963e-01	 2.000000e+00	 8.435283e+00
0	 2.962963e-01	 2.074074e+00	 5.610889e+00
0	 2.962963e-01	 2.148148e+00	 4.401264e+00
0	 2.962963e-01	 2.222222e+00	 4.811523e+00
0	 3.703704e-01	 1.851852e+00	 1.537116e+01
0	 3.703704e-01	 1.925926e+00	 1.094769e+01
0	 3.703704e-01	 2.000000e+00	 7.723040e+00
0	 3.703704e-01	 2.074074e+00	 5.700599e+00
0	 3.703704e-01	 2.148148e+00	 4.883756e+00
0	 3.703704e-01	 2.222222e+00	 5.275901e+00
0	 0.000000e+00	 2.222222e+00	 2.808055e+00
0	 0.000000e+00	 2.296296e+00	 5.088120e+00
0	 0.000000e+00	 2.370370e+00	 6.670276e+00
0	 0.000000e+00	 2.444444e+00	 7.583627e+00
0	 0.000000e+00	 2.518519e+00	 7.857278e+00
0	 0.000000e+00	 2.592593e+00	 7.520332e+00
0	 7.407407e-02	 2.222222e+00	 3.350722e+00
0	 7.407407e-02	 2.296296e+00	 5.254139e+00
0	 7.407407e-02	 2.370370e+00	 6.598039e+00
0	 7.407407e-02	 2.444444e+00	 7.398447e+00
0	 7.407407e-02	 2.518519e+00	 7.671386e+00
0	 7.407407e-02	 2.592593e+00	 7.432880e+00
0	 1.481481e-01	 2.222222e+00	 3.858887e+00
0	 1.481481e-01	 2.296296e+00	 5.442222e+00
0	 1.481481e-01	 2.370370e+00	 6.579921e+00
0	 1.481481e-01	 2.444444e+00	 7.278424e+00
0	 1.481481e-01	 2.518519e+00	 7.544171e+00
0	 1.481481e-01	 2.592593e+00	 7.383604e+00
0	 2.222222e-01	 2.222222e+00	 4.342502e+00
0	 2.222222e-01	 2.296296e+00	 5.654554e+00
0	 2.222222e-01	 2.370370e+00	 6.612765e+00
0	 2.222222e-01	 2.444444e+00	 7.217487e+00
0	 2.222222e-01	 2.518519e+00	 7.469072e+00
0	 2.222222e-01	 2.592593e+00	 7.367873e+00
0	 2.962963e-01	 2.222222e+00	 4.811523e+00
0	 2.962963e-01	 2.296296e+00	 5.893323e+00
0	 2.962963e-01	 2.370370e+00	 6.693417e+00
0	 2.962963e-01	 2.444444e+00	 7.209565e+00
0	 2.962963e-01	 2.518519e+00	 7.439527e+00
0	 2.962963e-01	 2.592593e+00	 7.381061e+00
0	 3.703704e-01	 2.222222e+00	 5.275901e+00
0	 3.703704e-01	 2.296296e+00	 6.160714e+00
0	 3.703704e-01	 2.370370e+00	 6.818722e+00
0	 3.703704e-01	 2.444444e+00	 7.248587e+00
0	 3.703704e-01	 2.518519e+00	 7.448971e+00
0	 3.703704e-01	 2.592593e+00	 7.418539e+00
0	 0.000000e+00	 2.592593e+00	 7.520332e+00
0	 0.000000e+00	 2.666667e+00	 7.016835e+00
0	 0.000000e+00	 2.740741e+00	 6.758578e+00
0	 0.000000e+00	 2.814815e+00	 6.726283e+00
0	 0.000000e+00	 2.888889e+00	 6.900672e+00
0	 0.000000e+00	 2.962963e+00	 7.262467e+00
0	 7.407407e-02	 2.592593e+00	 7.432880e+00
0	 7.407407e-02	 2.666667e+00	 7.043770e+00
0	 7.407407e-02	 2.740741e+00	 6.846832e+00
0	 7.407407e-02	 2.814815e+00	 6.830995e+00
0	 7.407407e-02	 2.888889e+00	 6.985191e+00
0	 7.407407e-02	 2.962963e+00	 7.298348e+00
0	 1.481481e-01	 2.592593e+00	 7.383604e+00
0	 1.481481e-01	 2.666667e+00	 7.088343e+00
0	 1.481481e-01	 2.740741e+00	 6.942432e+00
0	 1.481481e-01	 2.814815e+00	 6.940941e+00
0	 1.481481e-01	 2.888889e+00	 7.078941e+00
0	 1.481481e-01	 2.962963e+00	 7.351502e+00
0	 2.222222e-01	 2.592593e+00	 7.367873e+00
0	 2.222222e-01	 2.666667e+00	 7.148607e+00
0	 2.222222e-01	 2.740741e+00	 7.045185e+00
0	 2.222222e-01	 2.814815e+00	 7.056750e+00
0	 2.222222e-01	 2.888889e+00	 7.182445e+00
0	 2.222222e-01	 2.962963e+00	 7.421414e+00
0	 2.962963e-01	 2.592593e+00	 7.381061e+00
0	 2.962963e-01	 2.666667e+00	 7.222615e+00
0	 2.962963e-01	 2.740741e+00	 7.154896e+00
0	 2.962963e-01	 2.814815e+00	 7.179050e+00
0	 2.962963e-01	 2.888889e+00	 7.296226e+00
0	 2.962963e-01	 2.962963e+00	 7.507571e+00
0	 3.703704e-01	 2.592593e+00	 7.418539e+00
0	 3.703704e-01	 2.666667e+00	 7.308423e+00
0	 3.703704e-01	 2.740741e+00	 7.271372e+00
0	 3.703704e-01	 2.814815e+00	 7.308472e+00
0	 3.703704e-01	 2.888889e+00	 7.420806e+00
0	 3.703704e-01	 2.962963e+00	 7.609459e+00
0	 0.000000e+00	 2.962963e+00	 7.262467e+00
0	 0.000000e+00	 3.037037e+00	 7.649707e+00
0	 0.000000e+00	 3.111111e+00	 7.921392e+00
0	 0.000000e+00	 3.185185e+00	 8.089684e+00
0	 0.000000e+00	 3.259259e+00	 8.166744e+00
0	 0.000000e+00	 3.333333e+00	 8.164734e+00
0	 7.407407e-02	 2.962963e+00	 7.298348e+00
0	 7.407407e-02	 3.037037e+00	 7.639400e+00
0	 7.407407e-02	 3.111111e+00	 7.889358e+00
0	 7.407407e-02	 3.185185e+00	 8.055277e+00
0	 7.407407e-02	 3.259259e+00	 8.144210e+00
0	 7.407407e-02	 3.333333e+00	 8.163208e+00
0	 1.481481e-01	 2.962963e+00	 7.351502e+00
0	 1.481481e-01	 3.037037e+00	 7.652772e+00
0	 1.481481e-01	 3.111111e+00	 7.882324e+00
0	 1.481481e-01	 3.185185e+00	 8.043365e+00
0	 1.481481e-01	 3.259259e+00	 8.139103e+00
0	 1.481481e-01	 3.333333e+00	 8.172745e+00
0	 2.222222e-01	 2.962963e+00	 7.421414e+00
0	 2.222222e-01	 3.037037e+00	 7.688081e+00
0	 2.222222e-01	 3.111111e+00	 7.897857e+00
0	 2.222222e-01	 3.185185e+00	 8.051368e+00
0	 2.222222e-01	 3.259259e+00	 8.149241e+00
0	 2.222222e-01	 3.333333e+00	 8.192103e+00
0	 2.962963e-01	 2.962963e+00	 7.507571e+00
0	 2.962963e-01	 3.037037e+00	 7.743581e+00
0	 2.962963e-01	 3.111111e+00	 7.933524e+00
0	 2.962963e-01	 3.185185e+00	 8.076709e+00
0	 2.962963e-01	 3.259259e+00	 8.172445e+00
0	 2.962963e-01	 3.333333e+00	 8.220038e+00
0	 3.703704e-01	 2.962963e+00	 7.609459e+00
0	 3.703704e-01	 3.037037e+00	 7.817529e+00
0	 3.703704e-01	 3.111111e+00	 7.986895e+00
0	 3.703704e-01	 3.185185e+00	 8.116811e+00
0	 3.703704e-01	 3.259259e+00	 8.206530e+00
0	 3.703704e-01	 3.333333e+00	 8.255307e+00
0	 0.000000e+00	 3.333333e+00	 8.164734e+00
0	 0.000000e+00	 3.407407e+00	 8.150273e+00
0	 0.000000e+00	 3.481481e+00	 8.177054e+00
0	 0.000000e+00	 3.555556e+00	 8.237848e+00
0	 0.000000e+00	 3.629630e+00	 8.325426e+00
0	 0.000000e+00	 3.703704e+00	 8.432562e+00
0	 7.407407e-02	 3.333333e+00	 8.163208e+00
0	 7.407407e-02	 3.407407e+00	 8.166060e+00
0	 7.407407e-02	 3.481481e+00	 8.199034e+00
0	 7.407407e-02	 3.555556e+00	 8.257899e+00
0	 7.407407e-02	 3.629630e+00	 8.338425e+00
0	 7.407407e-02	 3.703704e+00	 8.436382e+00
0	 1.481481e-01	 3.333333e+00	 8.172745e+00
0	 1.481481e-01	 3.407407e+00	 8.187984e+00
0	 1.481481e-01	 3.481481e+00	 8.225067e+00
0	 1.481481e-01	 3.555556e+00	 8.282034e+00
0	 1.481481e-01	 3.629630e+00	 8.356926e+00
0	 1.481481e-01	 3.703704e+00	 8.447783e+00
0	 2.222222e-01	 3.333333e+00	 8.192103e+00
0	 2.222222e-01	 3.407407e+00	 8.215826e+00
0	 2.222222e-01	 3.481481e+00	 8.255587e+00
0	 2.222222e-01	 3.555556e+00	 8.310968e+00
0	 2.222222e-01	 3.629630e+00	 8.381554e+00
0	 2.222222e-01	 3.703704e+00	 8.466925e+00
0	 2.962963e-01	 3.333333e+00	 8.220038e+00
0	 2.962963e-01	 3.407407e+00	 8.249365e+00
0	 2.962963e-01	 3.481481e+00	 8.291024e+00
0	 2.962963e-01	 3.555556e+00	 8.345414e+00
0	 2.962963e-01	 3.629630e+00	 8.412930e+00
0	 2.962963e-01	 3.703704e+00	 8.493971e+00
0	 3.703704e-01	 3.333333e+00	 8.255307e+00
0	 3.703704e-01	 3.407407e+00	 8.288381e+00
0	 3.703704e-01	 3.481481e+00	 8.331812e+00
0	 3.703704e-01	 3.555556e+00	 8.386084e+00
0	 3.703704e-01	 3.629630e+00	 8.451679e+00
0	 3.703704e-01	 3.703704e+00	 8.529080e+00
0	 0.000000e+00	 3.703704e+00	 8.432562e+00
0	 0.000000e+00	 3.777778e+00	 8.535153e+00
0	 0.000000e+00	 3.851852e+00	 8.616463e+00
0	 0.000000e+00	 3.925926e+00	 8.680310e+00
0	 0.000000e+00	 4.000000e+00	 8.730512e+00
0	 0.000000e+00	 4.074074e+00	 8.770887e+00
0	 7.407407e-02	 3.703704e+00	 8.436382e+00
0	 7.407407e-02	 3.777778e+00	 8.532677e+00
0	 7.407407e-02	 3.851852e+00	 8.612490e+00
0	 7.407407e-02	 3.925926e+00	 8.678001e+00
0	 7.407407e-02	 4.000000e+00	 8.731392e+00
0	 7.407407e-02	 4.074074e+00	 8.774844e+00
0	 1.481481e-01	 3.703704e+00	 8.447783e+00
0	 1.481481e-01	 3.777778e+00	 8.539141e+00
0	 1.481481e-01	 3.851852e+00	 8.617475e+00
0	 1.481481e-01	 3.925926e+00	 8.683732e+00
0	 1.481481e-01	 4.000000e+00	 8.738859e+00
0	 1.481481e-01	 4.074074e+00	 8.783804e+00
0	 2.222222e-01	 3.703704e+00	 8.466925e+00
0	 2.222222e-01	 3.777778e+00	 8.554161e+00
0	 2.222222e-01	 3.851852e+00	 8.630695e+00
0	 2.222222e-01	 3.925926e+00	 8.696644e+00
0	 2.222222e-01	 4.000000e+00	 8.752124e+00
0	 2.222222e-01	 4.074074e+00	 8.797254e+00
0	 2.962963e-01	 3.703704e+00	 8.493971e+00
0	 2.962963e-01	 3.777778e+00	 8.577354e+00
0	 2.962963e-01	 3.851852e+00	 8.651426e+00
0	 2.962963e-01	 3.925926e+00	 8.715877e+00
0	 2.962963e-01	 4.000000e+00	 8.770397e+00
0	 2.962963e-01	 4.074074e+00	 8.814678e+00
0	 3.703704e-01	 3.703704e+00	 8.529080e+00
0	 3.703704e-01	 3.777778e+00	 8.608335e+00
0	 3.703704e-01	 3.851852e+00	 8.678943e+00
0	 3.703704e-01	 3.925926e+00	 8.740572e+00
0	 3.703704e-01	 4.000000e+00	 8.792889e+00
0	 3.703704e-01	 4.074074e+00	 8.835559e+00
0	 0.000000e+00	 4.074074e+00	 8.770887e+00
0	 0.000000e+00	 4.148148e+00	 8.810545e+00
0	 0.000000e+00	 4.222222e+00	 8.854726e+00
0	 0.000000e+00	 4.296296e+00	 8.901439e+00
0	 0.000000e+00	 4.370370e+00	 8.948696e+00
0	 0.000000e+00	 4.444444e+00	 8.994506e+00
0	 7.407407e-02	 4.074074e+00	 8.774844e+00
0	 7.407407e-02	 4.148148e+00	 8.815775e+00
0	 7.407407e-02	 4.222222e+00	 8.859386e+00
0	 7.407407e-02	 4.296296e+00	 8.904526e+00
0	 7.407407e-02	 4.370370e+00	 8.950048e+00
0	 7.407407e-02	 4.444444e+00	 8.994801e+00
0	 1.481481e-01	 4.074074e+00	 8.783804e+00
0	 1.481481e-01	 4.148148e+00	 8.824886e+00
0	 1.481481e-01	 4.222222e+00	 8.867449e+00
0	 1.481481e-01	 4.296296e+00	 8.910976e+00
0	 1.481481e-01	 4.370370e+00	 8.954952e+00
0	 1.481481e-01	 4.444444e+00	 8.998860e+00
0	 2.222222e-01	 4.074074e+00	 8.797254e+00
0	 2.222222e-01	 4.148148e+00	 8.837688e+00
0	 2.222222e-01	 4.222222e+00	 8.878943e+00
0	 2.222222e-01	 4.296296e+00	 8.920929e+00
0	 2.222222e-01	 4.370370e+00	 8.963557e+00
0	 2.222222e-01	 4.444444e+00	 9.006737e+00
0	 2.962963e-01	 4.074074e+00	 8.814678e+00
0	 2.962963e-01	 4.148148e+00	 8.853989e+00
0	 2.962963e-01	 4.222222e+00	 8.893896e+00
0	 2.962963e-01	 4.296296e+00	 8.934528e+00
0	 2.962963e-01	 4.370370e+00	 8.976014e+00
0	 2.962963e-01	 4.444444e+00	 9.018483e+00
0	 3.703704e-01	 4.074074e+00	 8.835559e+00
0	 3.703704e-01	 4.148148e+00	 8.873598e+00
0	 3.703704e-01	 4.222222e+00	 8.912336e+00
0	 3.703704e-01	 4.296296e+00	 8.951914e+00
0	 3.703704e-01	 4.370370e+00	 8.992473e+00
0	 3.703704e-01	 4.444444e+00	 9.034154e+00
0	 0.000000e+00	 4.444444e+00	 8.994506e+00
0	 0.000000e+00	 4.518519e+00	 9.036743e+00
0	 0.000000e+00	 4.592593e+00	 9.075208e+00
0	 0.000000e+00	 4.666667e+00	 9.110805e+00
0	 0.000000e+00	 4.740741e+00	 9.144437e+00
0	 0.000000e+00	 4.814815e+00	 9.177008e+00
0	 7.407407e-02	 4.444444e+00	 8.994801e+00
0	 7.407407e-02	 4.518519e+00	 9.037040e+00
0	 7.407407e-02	 4.592593e+00	 9.076117e+00
0	 7.407407e-02	 4.666667e+00	 9.112530e+00
0	 7.407407e-02	 4.740741e+00	 9.146777e+00
0	 7.407407e-02	 4.814815e+00	 9.179357e+00
0	 1.481481e-01	 4.444444e+00	 8.998860e+00
0	 1.481481e-01	 4.518519e+00	 9.041106e+00
0	 1.481481e-01	 4.592593e+00	 9.080569e+00
0	 1.481481e-01	 4.666667e+00	 9.117443e+00
0	 1.481481e-01	 4.740741e+00	 9.151926e+00
0	 1.481481e-01	 4.814815e+00	 9.184213e+00
0	 2.222222e-01	 4.444444e+00	 9.006737e+00
0	 2.222222e-01	 4.518519e+00	 9.048867e+00
0	 2.222222e-01	 4.592593e+00	 9.088404e+00
0	 2.222222e-01	 4.666667e+00	 9.125343e+00
0	 2.222222e-01	 4.740741e+00	 9.159682e+00
0	 2.222222e-01	 4.814815e+00	 9.191417e+00
0	 2.962963e-01	 4.444444e+00	 9.018483e+00
0	 2.962963e-01	 4.518519e+00	 9.060247e+00
0	 2.962963e-01	 4.592593e+00	 9.099462e+00
0	 2.962963e-01	 4.666667e+00	 9.136029e+00
0	 2.962963e-01	 4.740741e+00	 9.169846e+00
0	 2.962963e-01	 4.814815e+00	 9.200813e+00
0	 3.703704e-01	 4.444444e+00	 9.034154e+00
0	 3.703704e-01	 4.518519e+00	 9.075172e+00
0	 3.703704e-01	 4.592593e+00	 9.113585e+00
0	 3.703704e-01	 4.666667e+00	 9.149298e+00
0	 3.703704e-01	 4.740741e+00	 9.182216e+00
0	 3.703704e-01	 4.814815e+00	 9.212243e+00
0	 0.000000e+00	 4.814815e+00	 9.177008e+00
0	 0.000000e+00	 4.888889e+00	 9.209162e+00
0	 0.000000e+00	 4.962963e+00	 9.240651e+00
0	 0.000000e+00	 5.037037e+00	 9.271041e+00
0	 0.000000e+00	 5.111111e+00	 9.299900e+00
0	 0.000000e+00	 5.185185e+00	 9.326793e+00
0	 7.407407e-02	 4.814815e+00	 9.179357e+00
0	 7.407407e-02	 4.888889e+00	 9.210963e+00
0	 7.407407e-02	 4.962963e+00	 9.241786e+00
0	 7.407407e-02	 5.037037e+00	 9.271579e+00
0	 7.407407e-02	 5.111111e+00	 9.300092e+00
0	 7.407407e-02	 5.185185e+00	 9.327074e+00
0	 1.481481e-01	 4.814815e+00	 9.184213e+00
0	 1.481481e-01	 4.888889e+00	 9.215098e+00
0	 1.481481e-01	 4.962963e+00	 9.245169e+00
0	 1.481481e-01	 5.037037e+00	 9.274315e+00
0	 1.481481e-01	 5.111111e+00	 9.302424e+00
0	 1.481481e-01	 5.185185e+00	 9.329381e+00
0	 2.222222e-01	 4.814815e+00	 9.191417e+00
0	 2.222222e-01	 4.888889e+00	 9.221467e+00
0	 2.222222e-01	 4.962963e+00	 9.250743e+00
0	 2.222222e-01	 5.037037e+00	 9.279221e+00
0	 2.222222e-01	 5.111111e+00	 9.306880e+00
0	 2.222222e-01	 5.185185e+00	 9.333699e+00
0	 2.962963e-01	 4.814815e+00	 9.200813e+00
0	 2.962963e-01	 4.888889e+00	 9.229972e+00
0	 2.962963e-01	 4.962963e+00	 9.258451e+00
0	 2.962963e-01	 5.037037e+00	 9.286268e+00
0	 2.962963e-01	 5.111111e+00	 9.313448e+00
0	 2.962963e-01	 5.185185e+00	 9.340011e+00
0	 3.703704e-01	 4.814815e+00	 9.212243e+00
0	 3.703704e-01	 4.888889e+00	 9.240513e+00
0	 3.703704e-01	 4.962963e+00	 9.268236e+00
0	 3.703704e-01	 5.037037e+00	 9.295429e+00
0	 3.703704e-01	 5.111111e+00	 9.322112e+00
0	 3.703704e-01	 5.185185e+00	 9.348302e+00
0	 0.000000e+00	 5.185185e+00	 9.326793e+00
0	 0.000000e+00	 5.259259e+00	 9.352049e+00
0	 0.000000e+00	 5.333333e+00	 9.376393e+00
0	 0.000000e+00	 5.407407e+00	 9.399984e+00
0	 0.000000e+00	 5.481481e+00	 9.422981e+00
0	 0.000000e+00	 5.555556e+00	 9.445546e+00
0	 7.407407e-02	 5.185185e+00	 9.327074e+00
0	 7.407407e-02	 5.259259e+00	 9.352709e+00
0	 7.407407e-02	 5.333333e+00	 9.377400e+00
0	 7.407407e-02	 5.407407e+00	 9.401231e+00
0	 7.407407e-02	 5.481481e+00	 9.424283e+00
0	 7.407407e-02	 5.555556e+00	 9.446640e+00
0	 1.481481e-01	 5.185185e+00	 9.329381e+00
0	 1.481481e-01	 5.259259e+00	 9.355229e+00
0	 1.481481e-01	 5.333333e+00	 9.380100e+00
0	 1.481481e-01	 5.407407e+00	 9.404020e+00
0	 1.481481e-01	 5.481481e+00	 9.427016e+00
0	 1.481481e-01	 5.555556e+00	 9.449113e+00
0	 2.222222e-01	 5.185185e+00	 9.333699e+00
0	 2.222222e-01	 5.259259e+00	 9.359586e+00
0	 2.222222e-01	 5.333333e+00	 9.384462e+00
0	 2.222222e-01	 5.407407e+00	 9.408317e+00
0	 2.222222e-01	 5.481481e+00	 9.431140e+00
0	 2.222222e-01	 5.555556e+00	 9.452922e+00
0	 2.962963e-01	 5.185185e+00	 9.340011e+00
0	 2.962963e-01	 5.259259e+00	 9.365757e+00
0	 2.962963e-01	 5.333333e+00	 9.390458e+00
0	 2.962963e-01	 5.407407e+00	 9.414086e+00
0	 2.962963e-01	 5.481481e+00	 9.436618e+00
0	 2.962963e-01	 5.555556e+00	 9.458027e+00
0	 3.703704e-01	 5.185185e+00	 9.348302e+00
0	 3.703704e-01	 5.259259e+00	 9.373719e+00
0	 3.703704e-01	 5.333333e+00	 9.398056e+00
0	 3.703704e-01	 5.407407e+00	 9.421293e+00
0	 3.703704e-01	 5.481481e+00	 9.443409e+00
0	 3.703704e-01	 5.555556e+00	 9.464384e+00
0	 0.000000e+00	 5.555556e+00	 9.445546e+00
0	 0.000000e+00	 5.629630e+00	 9.467569e+00
0	 0.000000e+00	 5.703704e+00	 9.488786e+00
0	 0.000000e+00	 5.777778e+00	 9.509121e+00
0	 0.000000e+00	 5.851852e+00	 9.528500e+00
0	 0.000000e+00	 5.925926e+00	 9.546848e+00
0	 7.407407e-02	 5.555556e+00	 9.446640e+00
0	 7.407407e-02	 5.629630e+00	 9.468321e+00
0	 7.407407e-02	 5.703704e+00	 9.489261e+00
0	 7.407407e-02	 5.777778e+00	 9.509413e+00
0	 7.407407e-02	 5.851852e+00	 9.528734e+00
0	 7.407407e-02	 5.925926e+00	 9.547177e+00
0	 1.481481e-01	 5.555556e+00	 9.449113e+00
0	 1.481481e-01	 5.629630e+00	 9.470435e+00
0	 1.481481e-01	 5.703704e+00	 9.491072e+00
0	 1.481481e-01	 5.777778e+00	 9.511001e+00
0	 1.481481e-01	 5.851852e+00	 9.530198e+00
0	 1.481481e-01	 5.925926e+00	 9.548639e+00
0	 2.222222e-01	 5.555556e+00	 9.452922e+00
0	 2.222222e-01	 5.629630e+00	 9.473867e+00
0	 2.222222e-01	 5.703704e+00	 9.494178e+00
0	 2.222222e-01	 5.777778e+00	 9.513845e+00
0	 2.222222e-01	 5.851852e+00	 9.532860e+00
0	 2.222222e-01	 5.925926e+00	 9.551212e+00
0	 2.962963e-01	 5.555556e+00	 9.458027e+00
0	 2.962963e-01	 5.629630e+00	 9.478574e+00
0	 2.962963e-01	 5.703704e+00	 9.498536e+00
0	 2.962963e-01	 5.777778e+00	 9.517910e+00
0	 2.962963e-01	 5.851852e+00	 9.536690e+00
0	 2.962963e-01	 5.925926e+00	 9.554875e+00
0	 3.703704e-01	 5.555556e+00	 9.464384e+00
0	 3.703704e-01	 5.629630e+00	 9.484514e+00
0	 3.703704e-01	 5.703704e+00	 9.504107e+00
0	 3.703704e-01	 5.777778e+00	 9.523156e+00
0	 3.703704e-01	 5.851852e+00	 9.541657e+00
0	 3.703704e-01	 5.925926e+00	 9.559604e+00
0	 0.000000e+00	 5.925926e+00	 9.546848e+00
0	 0.000000e+00	 6.000000e+00	 9.564425e+00
0	 0.000000e+00	 6.074074e+00	 9.581547e+00
0	 0.000000e+00	 6.148148e+00	 9.598232e+00
0	 0.000000e+00	 6.222222e+00	 9.614492e+00
0	 0.000000e+00	 6.296296e+00	 9.630344e+00
0	 7.407407e-02	 5.925926e+00	 9.547177e+00
0	 7.407407e-02	 6.000000e+00	 9.564913e+00
0	 7.407407e-02	 6.074074e+00	 9.582143e+00
0	 7.407407e-02	 6.148148e+00	 9.598873e+00
0	 7.407407e-02	 6.222222e+00	 9.615110e+00
0	 7.407407e-02	 6.296296e+00	 9.630858e+00
0	 1.481481e-01	 5.925926e+00	 9.548639e+00
0	 1.481481e-01	 6.000000e+00	 9.566426e+00
0	 1.481481e-01	 6.074074e+00	 9.583674e+00
0	 1.481481e-01	 6.148148e+00	 9.600381e+00
0	 1.481481e-01	 6.222222e+00	 9.616548e+00
0	 1.481481e-01	 6.296296e+00	 9.632173e+00
0	 2.222222e-01	 5.925926e+00	 9.551212e+00
0	 2.222222e-01	 6.000000e+00	 9.568952e+00
0	 2.222222e-01	 6.074074e+00	 9.586133e+00
0	 2.222222e-01	 6.148148e+00	 9.602750e+00
0	 2.222222e-01	 6.222222e+00	 9.618799e+00
0	 2.222222e-01	 6.296296e+00	 9.634275e+00
0	 2.962963e-01	 5.925926e+00	 9.554875e+00
0	 2.962963e-01	 6.000000e+00	 9.572477e+00
0	 2.962963e-01	 6.074074e+00	 9.589512e+00
0	 2.962963e-01	 6.148148e+00	 9.605973e+00
0	 2.962963e-01	 6.222222e+00	 9.621855e+00
0	 2.962963e-01	 6.296296e+00	 9.637152e+00
0	 3.703704e-01	 5.925926e+00	 9.559604e+00
0	 3.703704e-01	 6.000000e+00	 9.576989e+00
0	 3.703704e-01	 6.074074e+00	 9.593804e+00
0	 3.703704e-01	 6.148148e+00	 9.610045e+00
0	 3.703704e-01	 6.222222e+00	 9.625709e+00
0	 3.703704e-01	 6.296296e+00	 9.640792e+00
0	 0.000000e+00	 6.296296e+00	 9.630344e+00
0	 0.000000e+00	 6.370370e+00	 9.645745e+00
0	 0.000000e+00	 6.444444e+00	 9.660635e+00
0	 0.000000e+00	 6.518519e+00	 9.675007e+00
0	 0.000000e+00	 6.592593e+00	 9.688853e+00
0	 0.000000e+00	 6.666667e+00	 9.702163e+00
0	 7.407407e-02	 6.296296e+00	 9.630858e+00
0	 7.407407e-02	 6.370370e+00	 9.646130e+00
0	 7.407407e-02	 6.444444e+00	 9.660929e+00
0	 7.407407e-02	 6.518519e+00	 9.675248e+00
0	 7.407407e-02	 6.592593e+00	 9.689081e+00
0	 7.407407e-02	 6.666667e+00	 9.702421e+00
0	 1.481481e-01	 6.296296e+00	 9.632173e+00
0	 1.481481e-01	 6.370370e+00	 9.647306e+00
0	 1.481481e-01	 6.444444e+00	 9.661992e+00
0	 1.481481e-01	 6.518519e+00	 9.676227e+00
0	 1.481481e-01	 6.592593e+00	 9.690006e+00
0	 1.481481e-01	 6.666667e+00	 9.703323e+00
0	 2.222222e-01	 6.296296e+00	 9.634275e+00
0	 2.222222e-01	 6.370370e+00	 9.649252e+00
0	 2.222222e-01	 6.444444e+00	 9.663803e+00
0	 2.222222e-01	 6.518519e+00	 9.677923e+00
0	 2.222222e-01	 6.592593e+00	 9.691609e+00
0	 2.222222e-01	 6.666667e+00	 9.704855e+00
0	 2.962963e-01	 6.296296e+00	 9.637152e+00
0	 2.962963e-01	 6.370370e+00	 9.651952e+00
0	 2.962963e-01	 6.444444e+00	 9.666341e+00
0	 2.962963e-01	 6.518519e+00	 9.680315e+00
0	 2.962963e-01	 6.592593e+00	 9.693871e+00
0	 2.962963e-01	 6.666667e+00	 9.707003e+00
0	 3.703704e-01	 6.296296e+00	 9.640792e+00
0	 3.703704e-01	 6.370370e+00	 9.655387e+00
0	 3.703704e-01	 6.444444e+00	 9.669586e+00
0	 3.703704e-01	 6.518519e+00	 9.683383e+00
0	 3.703704e-01	 6.592593e+00	 9.696774e+00
0	 3.703704e-01	 6.666667e+00	 9.709755e+00
0	 0.000000e+00	 6.666667e+00	 9.702163e+00
0	 0.000000e+00	 6.740741e+00	 9.715040e+00
0	 0.000000e+00	 6.814815e+00	 9.727591e+00
0	 0.000000e+00	 6.888889e+00	 9.739813e+00
0	 0.000000e+00	 6.962963e+00	 9.751704e+00
0	 0.000000e+00	 7.037037e+00	 9.763261e+00
0	 7.407407e-02	 6.666667e+00	 9.702421e+00
0	 7.407407e-02	 6.740741e+00	 9.715339e+00
0	 7.407407e-02	 6.814815e+00	 9.727910e+00
0	 7.407407e-02	 6.888889e+00	 9.740131e+00
0	 7.407407e-02	 6.962963e+00	 9.752002e+00
0	 7.407407e-02	 7.037037e+00	 9.763520e+00
0	 1.481481e-01	 6.666667e+00	 9.703323e+00
0	 1.481481e-01	 6.740741e+00	 9.716227e+00
0	 1.481481e-01	 6.814815e+00	 9.728773e+00
0	 1.481481e-01	 6.888889e+00	 9.740959e+00
0	 1.481481e-01	 6.962963e+00	 9.752784e+00
0	 1.481481e-01	 7.037037e+00	 9.764245e+00
0	 2.222222e-01	 6.666667e+00	 9.704855e+00
0	 2.222222e-01	 6.740741e+00	 9.717698e+00
0	 2.222222e-01	 6.814815e+00	 9.730178e+00
0	 2.222222e-01	 6.888889e+00	 9.742294e+00
0	 2.222222e-01	 6.962963e+00	 9.754045e+00
0	 2.222222e-01	 7.037037e+00	 9.765431e+00
0	 2.962963e-01	 6.666667e+00	 9.707003e+00
0	 2.962963e-01	 6.740741e+00	 9.719742e+00
0	 2.962963e-01	 6.814815e+00	 9.732118e+00
0	 2.962963e-01	 6.888889e+00	 9.744132e+00
0	 2.962963e-01	 6.962963e+00	 9.755783e+00
0	 2.962963e-01	 7.037037e+00	 9.767071e+00
0	 3.703704e-01	 6.666667e+00	 9.709755e+00
0	 3.703704e-01	 6.740741e+00	 9.722351e+00
0	 3.703704e-01	 6.814815e+00	 9.734590e+00
0	 3.703704e-01	 6.888889e+00	 9.746471e+00
0	 3.703704e-01	 6.962963e+00	 9.757995e+00
0	 3.703704e-01	 7.037037e+00	 9.769162e+00
0	 0.000000e+00	 7.037037e+00	 9.763261e+00
0	 0.000000e+00	 7.111111e+00	 9.774486e+00
0	 0.000000e+00	 7.185185e+00	 9.785380e+00
0	 0.000000e+00	 7.259259e+00	 9.795947e+00
0	 0.000000e+00	 7.333333e+00	 9.806186e+00
0	 0.000000e+00	 7.407407e+00	 9.816101e+00
0	 7.407407e-02	 7.037037e+00	 9.763520e+00
0	 7.407407e-02	 7.111111e+00	 9.774703e+00
0	 7.407407e-02	 7.185185e+00	 9.785568e+00
0	 7.407407e-02	 7.259259e+00	 9.796116e+00
0	 7.407407e-02	 7.333333e+00	 9.806348e+00
0	 7.407407e-02	 7.407407e+00	 9.816265e+00
0	 1.481481e-01	 7.037037e+00	 9.764245e+00
0	 1.481481e-01	 7.111111e+00	 9.775371e+00
0	 1.481481e-01	 7.185185e+00	 9.786188e+00
0	 1.481481e-01	 7.259259e+00	 9.796697e+00
0	 1.481481e-01	 7.333333e+00	 9.806897e+00
0	 1.481481e-01	 7.407407e+00	 9.816789e+00
0	 2.222222e-01	 7.037037e+00	 9.765431e+00
0	 2.222222e-01	 7.111111e+00	 9.776482e+00
0	 2.222222e-01	 7.185185e+00	 9.787232e+00
0	 2.222222e-01	 7.259259e+00	 9.797679e+00
0	 2.222222e-01	 7.333333e+00	 9.807824e+00
0	 2.222222e-01	 7.407407e+00	 9.817665e+00
0	 2.962963e-01	 7.037037e+00	 9.767071e+00
0	 2.962963e-01	 7.111111e+00	 9.778030e+00
0	 2.962963e-01	 7.185185e+00	 9.788691e+00
0	 2.962963e-01	 7.259259e+00	 9.799055e+00
0	 2.962963e-01	 7.333333e+00	 9.809120e+00
0	 2.962963e-01	 7.407407e+00	 9.818887e+00
0	 3.703704e-01	 7.037037e+00	 9.769162e+00
0	 3.703704e-01	 7.111111e+00	 9.780005e+00
0	 3.703704e-01	 7.185185e+00	 9.790555e+00
0	 3.703704e-01	 7.259259e+00	 9.800813e+00
0	 3.703704e-01	 7.333333e+00	 9.810777e+00
0	 3.703704e-01	 7.407407e+00	 9.820448e+00
0	 0.000000e+00	 7.407407e+00	 9.816101e+00
0	 0.000000e+00	 7.481481e+00	 9.825723e+00
0	 0.000000e+00	 7.555556e+00	 9.835083e+00
0	 0.000000e+00	 7.629630e+00	 9.844183e+00
0	 0.000000e+00	 7.703704e+00	 9.853022e+00
0	 0.000000e+00	 7.777778e+00	 9.861601e+00
0	 7.407407e-02	 7.407407e+00	 9.816265e+00
0	 7.407407e-02	 7.481481e+00	 9.825891e+00
0	 7.407407e-02	 7.555556e+00	 9.835249e+00
0	 7.407407e-02	 7.629630e+00	 9.844342e+00
0	 7.407407e-02	 7.703704e+00	 9.853169e+00
0	 7.407407e-02	 7.777778e+00	 9.861733e+00
0	 1.481481e-01	 7.407407e+00	 9.816789e+00
0	 1.481481e-01	 7.481481e+00	 9.826392e+00
0	 1.481481e-01	 7.555556e+00	 9.835724e+00
0	 1.481481e-01	 7.629630e+00	 9.844789e+00
0	 1.481481e-01	 7.703704e+00	 9.853588e+00
0	 1.481481e-01	 7.777778e+00	 9.862122e+00
0	 2.222222e-01	 7.407407e+00	 9.817665e+00
0	 2.222222e-01	 7.481481e+00	 9.827220e+00
0	 2.222222e-01	 7.555556e+00	 9.836504e+00
0	 2.222222e-01	 7.629630e+00	 9.845522e+00
0	 2.222222e-01	 7.703704e+00	 9.854274e+00
0	 2.222222e-01	 7.777778e+00	 9.862764e+00
0	 2.962963e-01	 7.407407e+00	 9.818887e+00
0	 2.962963e-01	 7.481481e+00	 9.828370e+00
0	 2.962963e-01	 7.555556e+00	 9.837586e+00
0	 2.962963e-01	 7.629630e+00	 9.846538e+00
0	 2.962963e-01	 7.703704e+00	 9.855227e+00
0	 2.962963e-01	 7.777778e+00	 9.863657e+00
0	 3.703704e-01	 7.407407e+00	 9.820448e+00
0	 3.703704e-01	 7.481481e+00	 9.829839e+00
0	 3.703704e-01	 7.555556e+00	 9.838967e+00
0	 3.703704e-01	 7.629630e+00	 9.847834e+00
0	 3.703704e-01	 7.703704e+00	 9.856443e+00
0	 3.703704e-01	 7.777778e+00	 9.864797e+00
0	 0.000000e+00	 7.777778e+00	 9.861601e+00
0	 0.000000e+00	 7.851852e+00	 9.869921e+00
0	 0.000000e+00	 7.925926e+00	 9.877986e+00
0	 0.000000e+00	 8.000000e+00	 9.885800e+00
0	 0.000000e+00	 8.074074e+00	 9.893368e+00
0	 0.000000e+00	 8.148148e+00	 9.900695e+00
0	 7.407407e-02	 7.777778e+00	 9.861733e+00
0	 7.407407e-02	 7.851852e+00	 9.870039e+00
0	 7.407407e-02	 7.925926e+00	 9.878092e+00
0	 7.407407e-02	 8.000000e+00	 9.885898e+00
0	 7.407407e-02	 8.074074e+00	 9.893460e+00
0	 7.407407e-02	 8.148148e+00	 9.900783e+00
0	 1.481481e-01	 7.777778e+00	 9.862122e+00
0	 1.481481e-01	 7.851852e+00	 9.870399e+00
0	 1.481481e-01	 7.925926e+00	 9.878427e+00
0	 1.481481e-01	 8.000000e+00	 9.886210e+00
0	 1.481481e-01	 8.074074e+00	 9.893751e+00
0	 1.481481e-01	 8.148148e+00	 9.901054e+00
0	 2.222222e-01	 7.777778e+00	 9.862764e+00
0	 2.222222e-01	 7.851852e+00	 9.870999e+00
0	 2.222222e-01	 7.925926e+00	 9.878987e+00
0	 2.222222e-01	 8.000000e+00	 9.886731e+00
0	 2.222222e-01	 8.074074e+00	 9.894236e+00
0	 2.222222e-01	 8.148148e+00	 9.901505e+00
0	 2.962963e-01	 7.777778e+00	 9.863657e+00
0	 2.962963e-01	 7.851852e+00	 9.871834e+00
0	 2.962963e-01	 7.925926e+00	 9.879767e+00
0	 2.962963e-01	 8.000000e+00	 9.887459e+00
0	 2.962963e-01	 8.074074e+00	 9.894913e+00
0	 2.962963e-01	 8.148148e+00	 9.902132e+00
0	 3.703704e-01	 7.777778e+00	 9.864797e+00
0	 3.703704e-01	 7.851852e+00	 9.872902e+00
0	 3.703704e-01	 7.925926e+00	 9.880764e+00
0	 3.703704e-01	 8.000000e+00	 9.888388e+00
0	 3.703704e-01	 8.074074e+00	 9.895776e+00
0	 3.703704e-01	 8.148148e+00	 9.902933e+00
0	 0.000000e+00	 8.148148e+00	 9.900695e+00
0	 0.000000e+00	 8.222222e+00	 9.907779e+00
0	 0.000000e+00	 8.296296e+00	 9.914621e+00
0	 0.000000e+00	 8.370370e+00	 9.921227e+00
0	 0.000000e+00	 8.444444e+00	 9.927601e+00
0	 0.000000e+00	 8.518519e+00	 9.933750e+00
0	 7.407407e-02	 8.148148e+00	 9.900783e+00
0	 7.407407e-02	 8.222222e+00	 9.907863e+00
0	 7.407407e-02	 8.296296e+00	 9.914701e+00
0	 7.407407e-02	 8.370370e+00	 9.921300e+00
0	 7.407407e-02	 8.444444e+00	 9.927668e+00
0	 7.407407e-02	 8.518519e+00	 9.933809e+00
0	 1.481481e-01	 8.148148e+00	 9.901054e+00
0	 1.481481e-01	 8.222222e+00	 9.908116e+00
0	 1.481481e-01	 8.296296e+00	 9.914934e+00
0	 1.481481e-01	 8.370370e+00	 9.921515e+00
0	 1.481481e-01	 8.444444e+00	 9.927864e+00
0	 1.481481e-01	 8.518519e+00	 9.933988e+00
0	 2.222222e-01	 8.148148e+00	 9.901505e+00
0	 2.222222e-01	 8.222222e+00	 9.908533e+00
0	 2.222222e-01	 8.296296e+00	 9.915319e+00
0	 2.222222e-01	 8.370370e+00	 9.921869e+00
0	 2.222222e-01	 8.444444e+00	 9.928189e+00
0	 2.222222e-01	 8.518519e+00	 9.934285e+00
0	 2.962963e-01	 8.148148e+00	 9.902132e+00
0	 2.962963e-01	 8.222222e+00	 9.909114e+00
0	 2.962963e-01	 8.296296e+00	 9.915855e+00
0	 2.962963e-01	 8.370370e+00	 9.922362e+00
0	 2.962963e-01	 8.444444e+00	 9.928641e+00
0	 2.962963e-01	 8.518519e+00	 9.934698e+00
0	 3.703704e-01	 8.148148e+00	 9.902933e+00
0	 3.703704e-01	 8.222222e+00	 9.909855e+00
0	 3.703704e-01	 8.296296e+00	 9.916539e+00
0	 3.703704e-01	 8.370370e+00	 9.922991e+00
0	 3.703704e-01	 8.444444e+00	 9.929217e+00
0	 3.703704e-01	 8.518519e+00	 9.935225e+00
0	 0.000000e+00	 8.518519e+00	 9.933750e+00
0	 0.000000e+00	 8.592593e+00	 9.939656e+00
0	 0.000000e+00	 8.666667e+00	 9.945308e+00
0	 0.000000e+00	 8.740741e+00	 9.950712e+00
0	 0.000000e+00	 8.814815e+00	 9.955879e+00
0	 0.000000e+00	 8.888889e+00	 9.960818e+00
0	 7.407407e-02	 8.518519e+00	 9.933809e+00
0	 7.407407e-02	 8.592593e+00	 9.939710e+00
0	 7.407407e-02	 8.666667e+00	 9.945355e+00
0	 7.407407e-02	 8.740741e+00	 9.950755e+00
0	 7.407407e-02	 8.814815e+00	 9.955918e+00
0	 7.407407e-02	 8.888889e+00	 9.960852e+00
0	 1.481481e-01	 8.518519e+00	 9.933988e+00
0	 1.481481e-01	 8.592593e+00	 9.939872e+00
0	 1.481481e-01	 8.666667e+00	 9.945502e+00
0	 1.481481e-01	 8.740741e+00	 9.950887e+00
0	 1.481481e-01	 8.814815e+00	 9.956036e+00
0	 1.481481e-01	 8.888889e+00	 9.960958e+00
0	 2.222222e-01	 8.518519e+00	 9.934285e+00
0	 2.222222e-01	 8.592593e+00	 9.940142e+00
0	 2.222222e-01	 8.666667e+00	 9.945747e+00
0	 2.222222e-01	 8.740741e+00	 9.951108e+00
0	 2.222222e-01	 8.814815e+00	 9.956233e+00
0	 2.222222e-01	 8.888889e+00	 9.961133e+00
0	 2.962963e-01	 8.518519e+00	 9.934698e+00
0	 2.962963e-01	 8.592593e+00	 9.940518e+00
0	 2.962963e-01	 8.666667e+00	 9.946087e+00
0	 2.962963e-01	 8.740741e+00	 9.951414e+00
0	 2.962963e-01	 8.814815e+00	 9.956508e+00
0	 2.962963e-01	 8.888889e+00	 9.961376e+00
0	 3.703704e-01	 8.518519e+00	 9.935225e+00
0	 3.703704e-01	 8.592593e+00	 9.940997e+00
0	 3.703704e-01	 8.666667e+00	 9.946521e+00
0	 3.703704e-01	 8.740741e+00	 9.951805e+00
0	 3.703704e-01	 8.814815e+00	 9.956857e+00
0	 3.703704e-01	 8.888889e+00	 9.961686e+00
0	 0.000000e+00	 8.888889e+00	 9.960818e+00
0	 0.000000e+00	 8.962963e+00	 9.965500e+00
0	 0.000000e+00	 9.037037e+00	 9.969901e+00
0	 0.000000e+00	 9.111111e+00	 9.974033e+00
0	 0.000000e+00	 9.185185e+00	 9.977908e+00
0	 0.000000e+00	 9.259259e+00	 9.981537e+00
0	 7.407407e-02	 8.888889e+00	 9.960852e+00
0	 7.407407e-02	 8.962963e+00	 9.965531e+00
0	 7.407407e-02	 9.037037e+00	 9.969928e+00
0	 7.407407e-02	 9.111111e+00	 9.974056e+00
0	 7.407407e-02	 9.185185e+00	 9.977927e+00
0	 7.407407e-02	 9.259259e+00	 9.981553e+00
0	 1.481481e-01	 8.888889e+00	 9.960958e+00
0	 1.481481e-01	 8.962963e+00	 9.965624e+00
0	 1.481481e-01	 9.037037e+00	 9.970010e+00
0	 1.481481e-01	 9.111111e+00	 9.974127e+00
0	 1.481481e-01	 9.185185e+00	 9.977987e+00
0	 1.481481e-01	 9.259259e+00	 9.981603e+00
0	 2.222222e-01	 8.888889e+00	 9.961133e+00
0	 2.222222e-01	 8.962963e+00	 9.965779e+00
0	 2.222222e-01	 9.037037e+00	 9.970144e+00
0	 2.222222e-01	 9.111111e+00	 9.974243e+00
0	 2.222222e-01	 9.185185e+00	 9.978086e+00
0	 2.222222e-01	 9.259259e+00	 9.981686e+00
0	 2.962963e-01	 8.888889e+00	 9.961376e+00
0	 2.962963e-01	 8.962963e+00	 9.965993e+00
0	 2.962963e-01	 9.037037e+00	 9.970331e+00
0	 2.962963e-01	 9.111111e+00	 9.974404e+00
0	 2.962963e-01	 9.185185e+00	 9.978223e+00
0	 2.962963e-01	 9.259259e+00	 9.981800e+00
0	 3.703704e-01	 8.888889e+00	 9.961686e+00
0	 3.703704e-01	 8.962963e+00	 9.966265e+00
0	 3.703704e-01	 9.037037e+00	 9.970569e+00
0	 3.703704e-01	 9.111111e+00	 9.974608e+00
0	 3.703704e-01	 9.185185e+00	 9.978397e+00
0	 3.703704e-01	 9.259259e+00	 9.981946e+00
0	 0.000000e+00	 9.259259e+00	 9.981537e+00
0	 0.000000e+00	 9.333333e+00	 9.984875e+00
0	 0.000000e+00	 9.407407e+00	 9.987879e+00
0	 0.000000e+00	 9.481481e+00	 9.990568e+00
0	 0.000000e+00	 9.555556e+00	 9.992956e+00
0	 0.000000e+00	 9.629630e+00	 9.995061e+00
0	 7.407407e-02	 9.259259e+00	 9.981553e+00
0	 7.407407e-02	 9.333333e+00	 9.984888e+00
0	 7.407407e-02	 9.407407e+00	 9.987890e+00
0	 7.407407e-02	 9.481481e+00	 9.990576e+00
0	 7.407407e-02	 9.555556e+00	 9.992962e+00
0	 7.407407e-02	 9.629630e+00	 9.995065e+00
0	 1.481481e-01	 9.259259e+00	 9.981603e+00
0	 1.481481e-01	 9.333333e+00	 9.984929e+00
0	 1.481481e-01	 9.407407e+00	 9.987923e+00
0	 1.481481e-01	 9.481481e+00	 9.990602e+00
0	 1.481481e-01	 9.555556e+00	 9.992982e+00
0	 1.481481e-01	 9.629630e+00	 9.995080e+00
0	 2.222222e-01	 9.259259e+00	 9.981686e+00
0	 2.222222e-01	 9.333333e+00	 9.984997e+00
0	 2.222222e-01	 9.407407e+00	 9.987978e+00
0	 2.222222e-01	 9.481481e+00	 9.990645e+00
0	 2.222222e-01	 9.555556e+00	 9.993014e+00
0	 2.222222e-01	 9.629630e+00	 9.995103e+00
0	 2.962963e-01	 9.259259e+00	 9.981800e+00
0	 2.962963e-01	 9.333333e+00	 9.985091e+00
0	 2.962963e-01	 9.407407e+00	 9.988054e+00
0	 2.962963e-01	 9.481481e+00	 9.990704e+00
0	 2.962963e-01	 9.555556e+00	 9.993058e+00
0	 2.962963e-01	 9.629630e+00	 9.995133e+00
0	 3.703704e-01	 9.259259e+00	 9.981946e+00
0	 3.703704e-01	 9.333333e+00	 9.985210e+00
0	 3.703704e-01	 9.407407e+00	 9.988149e+00
0	 3.703704e-01	 9.481481e+00	 9.990778e+00
0	 3.703704e-01	 9.555556e+00	 9.993113e+00
0	 3.703704e-01	 9.629630e+00	 9.995171e+00
0	 0.000000e+00	 9.629630e+00	 9.995061e+00
0	 0.000000e+00	 9.703704e+00	 9.996821e+00
0	 0.000000e+00	 9.777778e+00	 9.998179e+00
0	 0.000000e+00	 9.851852e+00	 9.999155e+00
0	 0.000000e+00	 9.925926e+00	 9.999773e+00
0	 0.000000e+00	 1.000000e+01	 1.000005e+01
0	 7.407407e-02	 9.629630e+00	 9.995065e+00
0	 7.407407e-02	 9.703704e+00	 9.996824e+00
0	 7.407407e-02	 9.777778e+00	 9.998180e+00
0	 7.407407e-02	 9.851852e+00	 9.999155e+00
0	 7.407407e-02	 9.925926e+00	 9.999772e+00
0	 7.407407e-02	 1.000000e+01	 1.000005e+01
0	 1.481481e-01	 9.629630e+00	 9.995080e+00
0	 1.481481e-01	 9.703704e+00	 9.996833e+00
0	 1.481481e-01	 9.777778e+00	 9.998186e+00
0	 1.481481e-01	 9.851852e+00	 9.999158e+00
0	 1.481481e-01	 9.925926e+00	 9.999773e+00
0	 1.481481e-01	 1.000000e+01	 1.000005e+01
0	 2.222222e-01	 9.629630e+00	 9.995103e+00
0	 2.222222e-01	 9.703704e+00	 9.996848e+00
0	 2.222222e-01	 9.777778e+00	 9.998194e+00
0	 2.222222e-01	 9.851852e+00	 9.999163e+00
0	 2.222222e-01	 9.925926e+00	 9.999775e+00
0	 2.222222e-01	 1.000000e+01	 1.000005e+01
0	 2.962963e-01	 9.629630e+00	 9.995133e+00
0	 2.962963e-01	 9.703704e+00	 9.996868e+00
0	 2.962963e-01	 9.777778e+00	 9.998206e+00
0	 2.962963e-01	 9.851852e+00	 9.999168e+00
0	 2.962963e-01	 9.925926e+00	 9.999777e+00
0	 2.962963e-01	 1.000000e+01	 1.000005e+01
0	 3.703704e-01	 9.629630e+00	 9.995171e+00
0	 3.703704e-01	 9.703704e+00	 9.996892e+00
0	 3.703704e-01	 9.777778e+00	 9.998218e+00
0	 3.703704e-01	 9.851852e+00	 9.999173e+00
0	 3.703704e-01	 9.925926e+00	 9.999776e+00
0	 3.703704e-01	 1.000000e+01	 1.000005e+01
0	 3.703704e-01	 0.000000e+00	 5.584295e-01
0	 3.703704e-01	 7.407407e-02	-8.206196e-03
0	 3.703704e-01	 1.481481e-01	-3.413600e-01
0	 3.703704e-01	 2.222222e-01	-4.018085e-01
0	 3.703704e-01	 2.962963e-01	-1.503282e-01
0	 3.703704e-01	 3.703704e-01	 4.523043e-01
0	 4.444444e-01	 0.000000e+00	 3.219191e-01
0	 4.444444e-01	 7.407407e-02	-8.237803e-02
0	 4.444444e-01	 1.481481e-01	-3.020391e-01
0	 4.444444e-01	 2.222222e-01	-3.294270e-01
0	 4.444444e-01	 2.962963e-01	-1.569048e-01
0	 4.444444e-01	 3.703704e-01	 2.231645e-01
0	 5.185185e-01	 0.000000e+00	 8.278286e-02
0	 5.185185e-01	 7.407407e-02	-5.472434e-02
0	 5.185185e-01	 1.481481e-01	-1.173817e-01
0	 5.185185e-01	 2.222222e-01	-1.243566e-01
0	 5.185185e-01	 2.962963e-01	-9.481640e-02
0	 5.185185e-01	 3.703704e-01	-4.792848e-02
0	 5.925926e-01	 0.000000e+00	-1.001024e-01
0	 5.925926e-01	 7.407407e-02	 5.141521e-02
0	 5.925926e-01	 1.481481e-01	 1.532277e-01
0	 5.925926e-01	 2.222222e-01	 1.641451e-01
0	 5.925926e-01	 2.962963e-01	 4.297778e-02
0	 5.925926e-01	 3.703704e-01	-2.514641e-01
0	 6.666667e-01	 0.000000e+00	-1.678601e-01
0	 6.666667e-01	 7.407407e-02	 2.127010e-01
0	 6.666667e-01	 1.481481e-01	 4.504046e-01
0	 6.666667e-01	 2.222222e-01	 4.868205e-01
0	 6.666667e-01	 2.962963e-01	 2.635184e-01
0	 6.666667e-01	 3.703704e-01	-2.779317e-01
0	 7.407407e-01	 0.000000e+00	-6.161348e-02
0	 7.407407e-01	 7.407407e-02	 4.057934e-01
0	 7.407407e-01	 1.481481e-01	 7.147647e-01
0	 7.407407e-01	 2.222222e-01	 7.944119e-01
0	 7.407407e-01	 2.962963e-01	 5.738463e-01
0	 7.407407e-01	 3.703704e-01	-1.782075e-02
0	 3.703704e-01	 3.703704e-01	 4.523043e-01
0	 3.703704e-01	 4.444444e-01	 1.006126e+00
0	 3.703704e-01	 5.185185e-01	 1.059159e+00
0	 3.703704e-01	 5.925926e-01	 5.726010e-01
0	 3.703704e-01	 6.666667e-01	-4.923470e-01
0	 3.703704e-01	 7.407407e-01	-2.174486e+00
0	 4.444444e-01	 3.703704e-01	 2.231645e-01
0	 4.444444e-01	 4.444444e-01	 5.646182e-01
0	 4.444444e-01	 5.185185e-01	 5.950627e-01
0	 4.444444e-01	 5.925926e-01	 2.827891e-01
0	 4.444444e-01	 6.666667e-01	-4.039113e-01
0	 4.444444e-01	 7.407407e-01	-1.496748e+00
0	 5.185185e-01	 3.703704e-01	-4.792848e-02
0	 5.185185e-01	 4.444444e-01	-1.001845e-02
0	 5.185185e-01	 5.185185e-01	-7.632967e-03
0	 5.185185e-01	 5.925926e-01	-6.027091e-02
0	 5.185185e-01	 6.666667e-01	-1.874312e-01
0	 5.185185e-01	 7.407407e-01	-4.086126e-01
0	 5.925926e-01	 3.703704e-01	-2.514641e-01
0	 5.925926e-01	 4.444444e-01	-5.132087e-01
0	 5.925926e-01	 5.185185e-01	-5.102714e-01
0	 5.925926e-01	 5.925926e-01	-2.448227e-01
0	 5.925926e-01	 6.666667e-01	 2.809669e-01
0	 5.925926e-01	 7.407407e-01	 1.064927e+00
0	 6.666667e-01	 3.703704e-01	-2.779317e-01
0	 6.666667e-01	 4.444444e-01	-7.403776e-01
0	 6.666667e-01	 5.185185e-01	-6.741957e-01
0	 6.666667e-01	 5.925926e-01	-5.910986e-02
0	 6.666667e-01	 6.666667e-01	 1.125156e+00
0	 6.666667e-01	 7.407407e-01	 2.898879e+00
0	 7.407407e-01	 3.703704e-01	-1.782075e-02
0	 7.407407e-01	 4.444444e-01	-4.869500e-01
0	 7.407407e-01	 5.185185e-01	-2.607489e-01
0	 7.407407e-01	 5.925926e-01	 7.086240e-01
0	 7.407407e-01	 6.666667e-01	 2.469010e+00
0	 7.407407e-01	 7.407407e-01	 5.068251e+00
0	 3.703704e-01	 7.407407e-01	-2.174486e+00
0	 3.703704e-01	 8.148148e-01	-2.216900e+00
0	 3.703704e-01	 8.888889e-01	 1.687605e+00
0	 3.703704e-01	 9.629630e-01	 9.575643e+00
0	 3.703704e-01	 1.037037e+00	 2.148383e+01
0	 3.703704e-01	 1.111111e+00	 3.744878e+01
0	 4.444444e-01	 7.407407e-01	-1.496748e+00
0	 4.444444e-01	 8.148148e-01	-9.139256e-01
0	 4.444444e-01	 8.888889e-01	 3.473033e+00
0	 4.444444e-01	 9.629630e-01	 1.170245e+01
0	 4.444444e-01	 1.037037e+00	 2.381263e+01
0	 4.444444e-01	 1.111111e+00	 3.984190e+01
0	 5.185185e-01	 7.407407e-01	-4.086126e-01
0	 5.185185e-01	 8.148148e-01	 1.026248e+00
0	 5.185185e-01	 8.888889e-01	 5.903544e+00
0	 5.185185e-01	 9.629630e-01	 1.425827e+01
0	 5.185185e-01	 1.037037e+00	 2.612542e+01
0	 5.185185e-01	 1.111111e+00	 4.153999e+01
0	 5.925926e-01	 7.407407e-01	 1.064927e+00
0	 5.925926e-01	 8.148148e-01	 3.434527e+00
0	 5.925926e-01	 8.888889e-01	 8.736448e+00
0	 5.925926e-01	 9.629630e-01	 1.699734e+01
0	 5.925926e-01	 1.037037e+00	 2.824385e+01
0	 5.925926e-01	 1.111111e+00	 4.250262e+01
0	 6.666667e-01	 7.407407e-01	 2.898879e+00
0	 6.666667e-01	 8.148148e-01	 6.141816e+00
0	 6.666667e-01	 8.888889e-01	 1.172906e+01
0	 6.666667e-01	 9.629630e-01	 1.967388e+01
0	 6.666667e-01	 1.037037e+00	 2.998957e+01
0	 6.666667e-01	 1.111111e+00	 4.268938e+01
0	 7.407407e-01	 7.407407e-01	 5.068251e+00
0	 7.407407e-01	 8.148148e-01	 8.979021e+00
0	 7.407407e-01	 8.888889e-01	 1.463869e+01
0	 7.407407e-01	 9.629630e-01	 2.204213e+01
0	 7.407407e-01	 1.037037e+00	 3.118422e+01
0	 7.407407e-01	 1.111111e+00	 4.205985e+01
0	 3.703704e-01	 1.111111e+00	 3.744878e+01
0	 3.703704e-01	 1.185185e+00	 5.257210e+01
0	 3.703704e-01	 1.259259e+00	 6.192337e+01
0	 3.703704e-01	 1.333333e+00	 6.549112e+01
0	 3.703704e-01	 1.407407e+00	 6.326392e+01
0	 3.703704e-01	 1.481481e+00	 5.523031e+01
0	 4.444444e-01	 1.111111e+00	 3.984190e+01
0	 4.444444e-01	 1.185185e+00	 5.478908e+01
0	 4.444444e-01	 1.259259e+00	 6.361831e+01
0	 4.444444e-01	 1.333333e+00	 6.631589e+01
0	 4.444444e-01	 1.407407e+00	 6.286814e+01
0	 4.444444e-01	 1.481481e+00	 5.326134e+01
0	 5.185185e-01	 1.111111e+00	 4.153999e+01
0	 5.185185e-01	 1.185185e+00	 5.567433e+01
0	 5.185185e-01	 1.259259e+00	 6.366827e+01
0	 5.185185e-01	 1.333333e+00	 6.550799e+01
0	 5.185185e-01	 1.407407e+00	 6.117968e+01
0	 5.185185e-01	 1.481481e+00	 5.066954e+01
0	 5.925926e-01	 1.111111e+00	 4.250262e+01
0	 5.925926e-01	 1.185185e+00	 5.533124e+01
0	 5.925926e-01	 1.259259e+00	 6.226165e+01
0	 5.925926e-01	 1.333333e+00	 6.328208e+01
0	 5.925926e-01	 1.407407e+00	 5.838072e+01
0	 5.925926e-01	 1.481481e+00	 4.754580e+01
0	 6.666667e-01	 1.111111e+00	 4.268938e+01
0	 6.666667e-01	 1.185185e+00	 5.386318e+01
0	 6.666667e-01	 1.259259e+00	 5.958688e+01
0	 6.666667e-01	 1.333333e+00	 5.985283e+01
0	 6.666667e-01	 1.407407e+00	 5.465341e+01
0	 6.666667e-01	 1.481481e+00	 4.398098e+01
0	 7.407407e-01	 1.111111e+00	 4.205985e+01
0	 7.407407e-01	 1.185185e+00	 5.137355e+01
0	 7.407407e-01	 1.259259e+00	 5.583235e+01
0	 7.407407e-01	 1.333333e+00	 5.543492e+01
0	 7.407407e-01	 1.407407e+00	 5.017991e+01
0	 7.407407e-01	 1.481481e+00	 4.006596e+01
0	 3.703704e-01	 1.481481e+00	 5.523031e+01
0	 3.703704e-01	 1.555556e+00	 4.488643e+01
0	 3.703704e-01	 1.629630e+00	 3.573307e+01
0	 3.703704e-01	 1.703704e+00	 2.776573e+01
0	 3.703704e-01	 1.777778e+00	 2.097993e+01
0	 3.703704e-01	 1.851852e+00	 1.537116e+01
0	 4.444444e-01	 1.481481e+00	 5.326134e+01
0	 4.444444e-01	 1.555556e+00	 4.148542e+01
0	 4.444444e-01	 1.629630e+00	 3.153800e+01
0	 4.444444e-01	 1.703704e+00	 2.341688e+01
0	 4.444444e-01	 1.777778e+00	 1.711988e+01
0	 4.444444e-01	 1.851852e+00	 1.264479e+01
0	 5.185185e-01	 1.481481e+00	 5.066954e+01
0	 5.185185e-01	 1.555556e+00	 3.818496e+01
0	 5.185185e-01	 1.629630e+00	 2.794149e+01
0	 5.185185e-01	 1.703704e+00	 1.993757e+01
0	 5.185185e-01	 1.777778e+00	 1.417163e+01
0	 5.185185e-01	 1.851852e+00	 1.064211e+01
0	 5.925926e-01	 1.481481e+00	 4.754580e+01
0	 5.925926e-01	 1.555556e+00	 3.497157e+01
0	 5.925926e-01	 1.629630e+00	 2.485840e+01
0	 5.925926e-01	 1.703704e+00	 1.720365e+01
0	 5.925926e-01	 1.777778e+00	 1.200471e+01
0	 5.925926e-01	 1.851852e+00	 9.258932e+00
0	 6.666667e-01	 1.481481e+00	 4.398098e+01
0	 6.666667e-01	 1.555556e+00	 3.183179e+01
0	 6.666667e-01	 1.629630e+00	 2.220358e+01
0	 6.666667e-01	 1.703704e+00	 1.509097e+01
0	 6.666667e-01	 1.777778e+00	 1.048860e+01
0	 6.666667e-01	 1.851852e+00	 8.391081e+00
0	 7.407407e-01	 1.481481e+00	 4.006596e+01
0	 7.407407e-01	 1.555556e+00	 2.875215e+01
0	 7.407407e-01	 1.629630e+00	 1.989189e+01
0	 7.407407e-01	 1.703704e+00	 1.347538e+01
0	 7.407407e-01	 1.777778e+00	 9.492813e+00
0	 7.407407e-01	 1.851852e+00	 7.934378e+00
0	 3.703704e-01	 1.851852e+00	 1.537116e+01
0	 3.703704e-01	 1.925926e+00	 1.094769e+01
0	 3.703704e-01	 2.000000e+00	 7.723040e+00
0	 3.703704e-01	 2.074074e+00	 5.700599e+00
0	 3.703704e-01	 2.148148e+00	 4.883756e+00
0	 3.703704e-01	 2.222222e+00	 5.275901e+00
0	 4.444444e-01	 1.851852e+00	 1.264479e+01
0	 4.444444e-01	 1.925926e+00	 9.516718e+00
0	 4.444444e-01	 2.000000e+00	 7.262176e+00
0	 4.444444e-01	 2.074074e+00	 5.881133e+00
0	 4.444444e-01	 2.148148e+00	 5.373556e+00
0	 4.444444e-01	 2.222222e+00	 5.739414e+00
0	 5.185185e-01	 1.851852e+00	 1.064211e+01
0	 5.185185e-01	 1.925926e+00	 8.535959e+00
0	 5.185185e-01	 2.000000e+00	 7.040041e+00
0	 5.185185e-01	 2.074074e+00	 6.152635e+00
0	 5.185185e-01	 2.148148e+00	 5.872020e+00
0	 5.185185e-01	 2.222222e+00	 6.196476e+00
0	 5.925926e-01	 1.851852e+00	 9.258932e+00
0	 5.925926e-01	 1.925926e+00	 7.939358e+00
0	 5.925926e-01	 2.000000e+00	 7.019651e+00
0	 5.925926e-01	 2.074074e+00	 6.498138e+00
0	 5.925926e-01	 2.148148e+00	 6.373145e+00
0	 5.925926e-01	 2.222222e+00	 6.642999e+00
0	 6.666667e-01	 1.851852e+00	 8.391081e+00
0	 6.666667e-01	 1.925926e+00	 7.660857e+00
0	 6.666667e-01	 2.000000e+00	 7.164019e+00
0	 6.666667e-01	 2.074074e+00	 6.900675e+00
0	 6.666667e-01	 2.148148e+00	 6.870931e+00
0	 6.666667e-01	 2.222222e+00	 7.074894e+00
0	 7.407407e-01	 1.851852e+00	 7.934378e+00
0	 7.407407e-01	 1.925926e+00	 7.634402e+00
0	 7.407407e-01	 2.000000e+00	 7.436161e+00
0	 7.407407e-01	 2.074074e+00	 7.343278e+00
0	 7.407407e-01	 2.148148e+00	 7.359374e+00
0	 7.407407e-01	 2.222222e+00	 7.488071e+00
0	 3.703704e-01	 2.222222e+00	 5.275901e+00
0	 3.703704e-01	 2.296296e+00	 6.160714e+00
0	 3.703704e-01	 2.370370e+00	 6.818722e+00
0	 3.703704e-01	 2.444444e+00	 7.248587e+00
0	 3.703704e-01	 2.518519e+00	 7.448971e+00
0	 3.703704e-01	 2.592593e+00	 7.418539e+00
0	 4.444444e-01	 2.222222e+00	 5.739414e+00
0	 4.444444e-01	 2.296296e+00	 6.450773e+00
0	 4.444444e-01	 2.370370e+00	 6.980244e+00
0	 4.444444e-01	 2.444444e+00	 7.328615e+00
0	 4.444444e-01	 2.518519e+00	 7.496673e+00
0	 4.444444e-01	 2.592593e+00	 7.485206e+00
0	 5.185185e-01	 2.222222e+00	 6.196476e+00
0	 5.185185e-01	 2.296296e+00	 6.751896e+00
0	 5.185185e-01	 2.370370e+00	 7.166555e+00
0	 5.185185e-01	 2.444444e+00	 7.442314e+00
0	 5.185185e-01	 2.518519e+00	 7.581033e+00
0	 5.185185e-01	 2.592593e+00	 7.584569e+00
0	 5.925926e-01	 2.222222e+00	 6.642999e+00
0	 5.925926e-01	 2.296296e+00	 7.057798e+00
0	 5.925926e-01	 2.370370e+00	 7.370010e+00
0	 5.925926e-01	 2.444444e+00	 7.581513e+00
0	 5.925926e-01	 2.518519e+00	 7.694186e+00
0	 5.925926e-01	 2.592593e+00	 7.709910e+00
0	 6.666667e-01	 2.222222e+00	 7.074894e+00
0	 6.666667e-01	 2.296296e+00	 7.362196e+00
0	 6.666667e-01	 2.370370e+00	 7.582962e+00
0	 6.666667e-01	 2.444444e+00	 7.738039e+00
0	 6.666667e-01	 2.518519e+00	 7.828272e+00
0	 6.666667e-01	 2.592593e+00	 7.854510e+00
0	 7.407407e-01	 2.222222e+00	 7.488071e+00
0	 7.407407e-01	 2.296296e+00	 7.658804e+00
0	 7.407407e-01	 2.370370e+00	 7.797767e+00
0	 7.407407e-01	 2.444444e+00	 7.903721e+00
0	 7.407407e-01	 2.518519e+00	 7.975428e+00
0	 7.407407e-01	 2.592593e+00	 8.011650e+00
0	 3.703704e-01	 2.592593e+00	 7.418539e+00
0	 3.703704e-01	 2.666667e+00	 7.308423e+00
0	 3.703704e-01	 2.740741e+00	 7.271372e+00
0	 3.703704e-01	 2.814815e+00	 7.308472e+00
0	 3.703704e-01	 2.888889e+00	 7.420806e+00
0	 3.703704e-01	 2.962963e+00	 7.609459e+00
0	 4.444444e-01	 2.592593e+00	 7.485206e+00
0	 4.444444e-01	 2.666667e+00	 7.413824e+00
0	 4.444444e-01	 2.740741e+00	 7.401771e+00
0	 4.444444e-01	 2.814815e+00	 7.449284e+00
0	 4.444444e-01	 2.888889e+00	 7.556600e+00
0	 4.444444e-01	 2.962963e+00	 7.723956e+00
0	 5.185185e-01	 2.592593e+00	 7.584569e+00
0	 5.185185e-01	 2.666667e+00	 7.544396e+00
0	 5.185185e-01	 2.740741e+00	 7.550670e+00
0	 5.185185e-01	 2.814815e+00	 7.603282e+00
0	 5.185185e-01	 2.888889e+00	 7.702120e+00
0	 5.185185e-01	 2.962963e+00	 7.847073e+00
0	 5.925926e-01	 2.592593e+00	 7.709910e+00
0	 5.925926e-01	 2.666667e+00	 7.694865e+00
0	 5.925926e-01	 2.740741e+00	 7.714011e+00
0	 5.925926e-01	 2.814815e+00	 7.767386e+00
0	 5.925926e-01	 2.888889e+00	 7.855033e+00
0	 5.925926e-01	 2.962963e+00	 7.976991e+00
0	 6.666667e-01	 2.592593e+00	 7.854510e+00
0	 6.666667e-01	 2.666667e+00	 7.859960e+00
0	 6.666667e-01	 2.740741e+00	 7.887732e+00
0	 6.666667e-01	 2.814815e+00	 7.938517e+00
0	 6.666667e-01	 2.888889e+00	 8.013006e+00
0	 6.666667e-01	 2.962963e+00	 8.111893e+00
0	 7.407407e-01	 2.592593e+00	 8.011650e+00
0	 7.407407e-01	 2.666667e+00	 8.034407e+00
0	 7.407407e-01	 2.740741e+00	 8.067774e+00
0	 7.407407e-01	 2.814815e+00	 8.113593e+00
0	 7.407407e-01	 2.888889e+00	 8.173709e+00
0	 7.407407e-01	 2.962963e+00	 8.249963e+00
0	 3.703704e-01	 2.962963e+00	 7.609459e+00
0	 3.703704e-01	 3.037037e+00	 7.817529e+00
0	 3.703704e-01	 3.111111e+00	 7.986895e+00
0	 3.703704e-01	 3.185185e+00	 8.116811e+00
0	 3.703704e-01	 3.259259e+00	 8.206530e+00
0	 3.703704e-01	 3.333333e+00	 8.255307e+00
0	 4.444444e-01	 2.962963e+00	 7.723956e+00
0	 4.444444e-01	 3.037037e+00	 7.905151e+00
0	 4.444444e-01	 3.111111e+00	 8.053630e+00
0	 4.444444e-01	 3.185185e+00	 8.169098e+00
0	 4.444444e-01	 3.259259e+00	 8.251263e+00
0	 4.444444e-01	 3.333333e+00	 8.299830e+00
0	 5.185185e-01	 2.962963e+00	 7.847073e+00
0	 5.185185e-01	 3.037037e+00	 8.001844e+00
0	 5.185185e-01	 3.111111e+00	 8.130151e+00
0	 5.185185e-01	 3.185185e+00	 8.231900e+00
0	 5.185185e-01	 3.259259e+00	 8.307002e+00
0	 5.185185e-01	 3.333333e+00	 8.355364e+00
0	 5.925926e-01	 2.962963e+00	 7.976991e+00
0	 5.925926e-01	 3.037037e+00	 8.106123e+00
0	 5.925926e-01	 3.111111e+00	 8.215171e+00
0	 5.925926e-01	 3.185185e+00	 8.303995e+00
0	 5.925926e-01	 3.259259e+00	 8.372457e+00
0	 5.925926e-01	 3.333333e+00	 8.420417e+00
0	 6.666667e-01	 2.962963e+00	 8.111893e+00
0	 6.666667e-01	 3.037037e+00	 8.216502e+00
0	 6.666667e-01	 3.111111e+00	 8.307404e+00
0	 6.666667e-01	 3.185185e+00	 8.384162e+00
0	 6.666667e-01	 3.259259e+00	 8.446338e+00
0	 6.666667e-01	 3.333333e+00	 8.493496e+00
0	 7.407407e-01	 2.962963e+00	 8.249963e+00
0	 7.407407e-01	 3.037037e+00	 8.331496e+00
0	 7.407407e-01	 3.111111e+00	 8.405562e+00
0	 7.407407e-01	 3.185185e+00	 8.471177e+00
0	 7.407407e-01	 3.259259e+00	 8.527355e+00
0	 7.407407e-01	 3.333333e+00	 8.573111e+00
0	 3.703704e-01	 3.333333e+00	 8.255307e+00
0	 3.703704e-01	 3.407407e+00	 8.288381e+00
0	 3.703704e-01	 3.481481e+00	 8.331812e+00
0	 3.703704e-01	 3.555556e+00	 8.386084e+00
0	 3.703704e-01	 3.629630e+00	 8.451679e+00
0	 3.703704e-01	 3.703704e+00	 8.529080e+00
0	 4.444444e-01	 3.333333e+00	 8.299830e+00
0	 4.444444e-01	 3.407407e+00	 8.335854e+00
0	 4.444444e-01	 3.481481e+00	 8.380764e+00
0	 4.444444e-01	 3.555556e+00	 8.434832e+00
0	 4.444444e-01	 3.629630e+00	 8.498327e+00
0	 4.444444e-01	 3.703704e+00	 8.571521e+00
0	 5.185185e-01	 3.333333e+00	 8.355364e+00
0	 5.185185e-01	 3.407407e+00	 8.393787e+00
0	 5.185185e-01	 3.481481e+00	 8.439257e+00
0	 5.185185e-01	 3.555556e+00	 8.491963e+00
0	 5.185185e-01	 3.629630e+00	 8.552093e+00
0	 5.185185e-01	 3.703704e+00	 8.619833e+00
0	 5.925926e-01	 3.333333e+00	 8.420417e+00
0	 5.925926e-01	 3.407407e+00	 8.460496e+00
0	 5.925926e-01	 3.481481e+00	 8.505568e+00
0	 5.925926e-01	 3.555556e+00	 8.555867e+00
0	 5.925926e-01	 3.629630e+00	 8.611630e+00
0	 5.925926e-01	 3.703704e+00	 8.673092e+00
0	 6.666667e-01	 3.333333e+00	 8.493496e+00
0	 6.666667e-01	 3.407407e+00	 8.534298e+00
0	 6.666667e-01	 3.481481e+00	 8.577972e+00
0	 6.666667e-01	 3.555556e+00	 8.624934e+00
0	 6.666667e-01	 3.629630e+00	 8.675596e+00
0	 6.666667e-01	 3.703704e+00	 8.730373e+00
0	 7.407407e-01	 3.333333e+00	 8.573111e+00
0	 7.407407e-01	 3.407407e+00	 8.613508e+00
0	 7.407407e-01	 3.481481e+00	 8.654747e+00
0	 7.407407e-01	 3.555556e+00	 8.697553e+00
0	 7.407407e-01	 3.629630e+00	 8.742646e+00
0	 7.407407e-01	 3.703704e+00	 8.790750e+00
0	 3.703704e-01	 3.703704e+00	 8.529080e+00
0	 3.703704e-01	 3.777778e+00	 8.608335e+00
0	 3.703704e-01	 3.851852e+00	 8.678943e+00
0	 3.703704e-01	 3.925926e+00	 8.740572e+00
0	 3.703704e-01	 4.000000e+00	 8.792889e+00
0	 3.703704e-01	 4.074074e+00	 8.835559e+00
0	 4.444444e-01	 3.703704e+00	 8.571521e+00
0	 4.444444e-01	 3.777778e+00	 8.645706e+00
0	 4.444444e-01	 3.851852e+00	 8.711871e+00
0	 4.444444e-01	 3.925926e+00	 8.769825e+00
0	 4.444444e-01	 4.000000e+00	 8.819377e+00
0	 4.444444e-01	 4.074074e+00	 8.860337e+00
0	 5.185185e-01	 3.703704e+00	 8.619833e+00
0	 5.185185e-01	 3.777778e+00	 8.687988e+00
0	 5.185185e-01	 3.851852e+00	 8.749158e+00
0	 5.185185e-01	 3.925926e+00	 8.803225e+00
0	 5.185185e-01	 4.000000e+00	 8.850071e+00
0	 5.185185e-01	 4.074074e+00	 8.889578e+00
0	 5.925926e-01	 3.703704e+00	 8.673092e+00
0	 5.925926e-01	 3.777778e+00	 8.734676e+00
0	 5.925926e-01	 3.851852e+00	 8.790570e+00
0	 5.925926e-01	 3.925926e+00	 8.840659e+00
0	 5.925926e-01	 4.000000e+00	 8.884828e+00
0	 5.925926e-01	 4.074074e+00	 8.922963e+00
0	 6.666667e-01	 3.703704e+00	 8.730373e+00
0	 6.666667e-01	 3.777778e+00	 8.785265e+00
0	 6.666667e-01	 3.851852e+00	 8.835873e+00
0	 6.666667e-01	 3.925926e+00	 8.882014e+00
0	 6.666667e-01	 4.000000e+00	 8.923508e+00
0	 6.666667e-01	 4.074074e+00	 8.960170e+00
0	 7.407407e-01	 3.703704e+00	 8.790750e+00
0	 7.407407e-01	 3.777778e+00	 8.839248e+00
0	 7.407407e-01	 3.851852e+00	 8.884830e+00
0	 7.407407e-01	 3.925926e+00	 8.927176e+00
0	 7.407407e-01	 4.000000e+00	 8.965966e+00
0	 7.407407e-01	 4.074074e+00	 9.000881e+00
0	 3.703704e-01	 4.074074e+00	 8.835559e+00
0	 3.703704e-01	 4.148148e+00	 8.873598e+00
0	 3.703704e-01	 4.222222e+00	 8.912336e+00
0	 3.703704e-01	 4.296296e+00	 8.951914e+00
0	 3.703704e-01	 4.370370e+00	 8.992473e+00
0	 3.703704e-01	 4.444444e+00	 9.034154e+00
0	 4.444444e-01	 4.074074e+00	 8.860337e+00
0	 4.444444e-01	 4.148148e+00	 8.897303e+00
0	 4.444444e-01	 4.222222e+00	 8.935045e+00
0	 4.444444e-01	 4.296296e+00	 8.973632e+00
0	 4.444444e-01	 4.370370e+00	 9.013133e+00
0	 4.444444e-01	 4.444444e+00	 9.053616e+00
0	 5.185185e-01	 4.074074e+00	 8.889578e+00
0	 5.185185e-01	 4.148148e+00	 8.925667e+00
0	 5.185185e-01	 4.222222e+00	 8.962361e+00
0	 5.185185e-01	 4.296296e+00	 8.999694e+00
0	 5.185185e-01	 4.370370e+00	 9.037703e+00
0	 5.185185e-01	 4.444444e+00	 9.076421e+00
0	 5.925926e-01	 4.074074e+00	 8.922963e+00
0	 5.925926e-01	 4.148148e+00	 8.958165e+00
0	 5.925926e-01	 4.222222e+00	 8.993644e+00
0	 5.925926e-01	 4.296296e+00	 9.029441e+00
0	 5.925926e-01	 4.370370e+00	 9.065596e+00
0	 5.925926e-01	 4.444444e+00	 9.102152e+00
0	 6.666667e-01	 4.074074e+00	 8.960170e+00
0	 6.666667e-01	 4.148148e+00	 8.994270e+00
0	 6.666667e-01	 4.222222e+00	 9.028256e+00
0	 6.666667e-01	 4.296296e+00	 9.062213e+00
0	 6.666667e-01	 4.370370e+00	 9.096229e+00
0	 6.666667e-01	 4.444444e+00	 9.130390e+00
0	 7.407407e-01	 4.074074e+00	 9.000881e+00
0	 7.407407e-01	 4.148148e+00	 9.033456e+00
0	 7.407407e-01	 4.222222e+00	 9.065556e+00
0	 7.407407e-01	 4.296296e+00	 9.097352e+00
0	 7.407407e-01	 4.370370e+00	 9.129015e+00
0	 7.407407e-01	 4.444444e+00	 9.160717e+00
0	 3.703704e-01	 4.444444e+00	 9.034154e+00
0	 3.703704e-01	 4.518519e+00	 9.075172e+00
0	 3.703704e-01	 4.592593e+00	 9.113585e+00
0	 3.703704e-01	 4.666667e+00	 9.149298e+00
0	 3.703704e-01	 4.740741e+00	 9.182216e+00
0	 3.703704e-01	 4.814815e+00	 9.212243e+00
0	 4.444444e-01	 4.444444e+00	 9.053616e+00
0	 4.444444e-01	 4.518519e+00	 9.093334e+00
0	 4.444444e-01	 4.592593e+00	 9.130460e+00
0	 4.444444e-01	 4.666667e+00	 9.164947e+00
0	 4.444444e-01	 4.740741e+00	 9.196746e+00
0	 4.444444e-01	 4.814815e+00	 9.225809e+00
0	 5.185185e-01	 4.444444e+00	 9.076421e+00
0	 5.185185e-01	 4.518519e+00	 9.114314e+00
0	 5.185185e-01	 4.592593e+00	 9.149806e+00
0	 5.185185e-01	 4.666667e+00	 9.182874e+00
0	 5.185185e-01	 4.740741e+00	 9.213494e+00
0	 5.185185e-01	 4.814815e+00	 9.241645e+00
0	 5.925926e-01	 4.444444e+00	 9.102152e+00
0	 5.925926e-01	 4.518519e+00	 9.137880e+00
0	 5.925926e-01	 4.592593e+00	 9.171511e+00
0	 5.925926e-01	 4.666667e+00	 9.203027e+00
0	 5.925926e-01	 4.740741e+00	 9.232410e+00
0	 5.925926e-01	 4.814815e+00	 9.259643e+00
0	 6.666667e-01	 4.444444e+00	 9.130390e+00
0	 6.666667e-01	 4.518519e+00	 9.163795e+00
0	 6.666667e-01	 4.592593e+00	 9.195462e+00
0	 6.666667e-01	 4.666667e+00	 9.225357e+00
0	 6.666667e-01	 4.740741e+00	 9.253445e+00
0	 6.666667e-01	 4.814815e+00	 9.279694e+00
0	 7.407407e-01	 4.444444e+00	 9.160717e+00
0	 7.407407e-01	 4.518519e+00	 9.191826e+00
0	 7.407407e-01	 4.592593e+00	 9.221548e+00
0	 7.407407e-01	 4.666667e+00	 9.249813e+00
0	 7.407407e-01	 4.740741e+00	 9.276550e+00
0	 7.407407e-01	 4.814815e+00	 9.301688e+00
0	 3.703704e-01	 4.814815e+00	 9.212243e+00
0	 3.703704e-01	 4.888889e+00	 9.240513e+00
0	 3.703704e-01	 4.962963e+00	 9.268236e+00
0	 3.703704e-01	 5.037037e+00	 9.295429e+00
0	 3.703704e-01	 5.111111e+00	 9.322112e+00
0	 3.703704e-01	 5.185185e+00	 9.348302e+00
0	 4.444444e-01	 4.814815e+00	 9.225809e+00
0	 4.444444e-01	 4.888889e+00	 9.253263e+00
0	 4.444444e-01	 4.962963e+00	 9.280267e+00
0	 4.444444e-01	 5.037037e+00	 9.306818e+00
0	 4.444444e-01	 5.111111e+00	 9.332914e+00
0	 4.444444e-01	 5.185185e+00	 9.358554e+00
0	 5.185185e-01	 4.814815e+00	 9.241645e+00
0	 5.185185e-01	 4.888889e+00	 9.268340e+00
0	 5.185185e-01	 4.962963e+00	 9.294599e+00
0	 5.185185e-01	 5.037037e+00	 9.320410e+00
0	 5.185185e-01	 5.111111e+00	 9.345762e+00
0	 5.185185e-01	 5.185185e+00	 9.370643e+00
0	 5.925926e-01	 4.814815e+00	 9.259643e+00
0	 5.925926e-01	 4.888889e+00	 9.285561e+00
0	 5.925926e-01	 4.962963e+00	 9.311006e+00
0	 5.925926e-01	 5.037037e+00	 9.335967e+00
0	 5.925926e-01	 5.111111e+00	 9.360435e+00
0	 5.925926e-01	 5.185185e+00	 9.384400e+00
0	 6.666667e-01	 4.814815e+00	 9.279694e+00
0	 6.666667e-01	 4.888889e+00	 9.304744e+00
0	 6.666667e-01	 4.962963e+00	 9.329261e+00
0	 6.666667e-01	 5.037037e+00	 9.353250e+00
0	 6.666667e-01	 5.111111e+00	 9.376713e+00
0	 6.666667e-01	 5.185185e+00	 9.399655e+00
0	 7.407407e-01	 4.814815e+00	 9.301688e+00
0	 7.407407e-01	 4.888889e+00	 9.325704e+00
0	 7.407407e-01	 4.962963e+00	 9.349138e+00
0	 7.407407e-01	 5.037037e+00	 9.372019e+00
0	 7.407407e-01	 5.111111e+00	 9.394376e+00
0	 7.407407e-01	 5.185185e+00	 9.416236e+00
0	 3.703704e-01	 5.185185e+00	 9.348302e+00
0	 3.703704e-01	 5.259259e+00	 9.373719e+00
0	 3.703704e-01	 5.333333e+00	 9.398056e+00
0	 3.703704e-01	 5.407407e+00	 9.421293e+00
0	 3.703704e-01	 5.481481e+00	 9.443409e+00
0	 3.703704e-01	 5.555556e+00	 9.464384e+00
0	 4.444444e-01	 5.185185e+00	 9.358554e+00
0	 4.444444e-01	 5.259259e+00	 9.383425e+00
0	 4.444444e-01	 5.333333e+00	 9.407216e+00
0	 4.444444e-01	 5.407407e+00	 9.429917e+00
0	 4.444444e-01	 5.481481e+00	 9.451522e+00
0	 4.444444e-01	 5.555556e+00	 9.472021e+00
0	 5.185185e-01	 5.185185e+00	 9.370643e+00
0	 5.185185e-01	 5.259259e+00	 9.394769e+00
0	 5.185185e-01	 5.333333e+00	 9.417865e+00
0	 5.185185e-01	 5.407407e+00	 9.439928e+00
0	 5.185185e-01	 5.481481e+00	 9.460959e+00
0	 5.185185e-01	 5.555556e+00	 9.480957e+00
0	 5.925926e-01	 5.185185e+00	 9.384400e+00
0	 5.925926e-01	 5.259259e+00	 9.407637e+00
0	 5.925926e-01	 5.333333e+00	 9.429929e+00
0	 5.925926e-01	 5.407407e+00	 9.451275e+00
0	 5.925926e-01	 5.481481e+00	 9.471675e+00
0	 5.925926e-01	 5.555556e+00	 9.491131e+00
0	 6.666667e-01	 5.185185e+00	 9.399655e+00
0	 6.666667e-01	 5.259259e+00	 9.421916e+00
0	 6.666667e-01	 5.333333e+00	 9.443334e+00
0	 6.666667e-01	 5.407407e+00	 9.463904e+00
0	 6.666667e-01	 5.481481e+00	 9.483623e+00
0	 6.666667e-01	 5.555556e+00	 9.502486e+00
0	 7.407407e-01	 5.185185e+00	 9.416236e+00
0	 7.407407e-01	 5.259259e+00	 9.437491e+00
0	 7.407407e-01	 5.333333e+00	 9.458005e+00
0	 7.407407e-01	 5.407407e+00	 9.477765e+00
0	 7.407407e-01	 5.481481e+00	 9.496755e+00
0	 7.407407e-01	 5.555556e+00	 9.514963e+00
0	 3.703704e-01	 5.555556e+00	 9.464384e+00
0	 3.703704e-01	 5.629630e+00	 9.484514e+00
0	 3.703704e-01	 5.703704e+00	 9.504107e+00
0	 3.703704e-01	 5.777778e+00	 9.523156e+00
0	 3.703704e-01	 5.851852e+00	 9.541657e+00
0	 3.703704e-01	 5.925926e+00	 9.559604e+00
0	 4.444444e-01	 5.555556e+00	 9.472021e+00
0	 4.444444e-01	 5.629630e+00	 9.491719e+00
0	 4.444444e-01	 5.703704e+00	 9.510915e+00
0	 4.444444e-01	 5.777778e+00	 9.529601e+00
0	 4.444444e-01	 5.851852e+00	 9.547766e+00
0	 4.444444e-01	 5.925926e+00	 9.565401e+00
0	 5.185185e-01	 5.555556e+00	 9.480957e+00
0	 5.185185e-01	 5.629630e+00	 9.500199e+00
0	 5.185185e-01	 5.703704e+00	 9.518959e+00
0	 5.185185e-01	 5.777778e+00	 9.537225e+00
0	 5.185185e-01	 5.851852e+00	 9.554987e+00
0	 5.185185e-01	 5.925926e+00	 9.572233e+00
0	 5.925926e-01	 5.555556e+00	 9.491131e+00
0	 5.925926e-01	 5.629630e+00	 9.509880e+00
0	 5.925926e-01	 5.703704e+00	 9.528154e+00
0	 5.925926e-01	 5.777778e+00	 9.545944e+00
0	 5.925926e-01	 5.851852e+00	 9.563239e+00
0	 5.925926e-01	 5.925926e+00	 9.580031e+00
0	 6.666667e-01	 5.555556e+00	 9.502486e+00
0	 6.666667e-01	 5.629630e+00	 9.520686e+00
0	 6.666667e-01	 5.703704e+00	 9.538415e+00
0	 6.666667e-01	 5.777778e+00	 9.555668e+00
0	 6.666667e-01	 5.851852e+00	 9.572440e+00
0	 6.666667e-01	 5.925926e+00	 9.588725e+00
0	 7.407407e-01	 5.555556e+00	 9.514963e+00
0	 7.407407e-01	 5.629630e+00	 9.532542e+00
0	 7.407407e-01	 5.703704e+00	 9.549658e+00
0	 7.407407e-01	 5.777778e+00	 9.566313e+00
0	 7.407407e-01	 5.851852e+00	 9.582508e+00
0	 7.407407e-01	 5.925926e+00	 9.598246e+00
0	 3.703704e-01	 5.925926e+00	 9.559604e+00
0	 3.703704e-01	 6.000000e+00	 9.576989e+00
0	 3.703704e-01	 6.074074e+00	 9.593804e+00
0	 3.703704e-01	 6.148148e+00	 9.610045e+00
0	 3.703704e-01	 6.222222e+00	 9.625709e+00
0	 3.703704e-01	 6.296296e+00	 9.640792e+00
0	 4.444444e-01	 5.925926e+00	 9.565401e+00
0	 4.444444e-01	 6.000000e+00	 9.582487e+00
0	 4.444444e-01	 6.074074e+00	 9.599012e+00
0	 4.444444e-01	 6.148148e+00	 9.614974e+00
0	 4.444444e-01	 6.222222e+00	 9.630372e+00
0	 4.444444e-01	 6.296296e+00	 9.645204e+00
0	 5.185185e-01	 5.925926e+00	 9.572233e+00
0	 5.185185e-01	 6.000000e+00	 9.588947e+00
0	 5.185185e-01	 6.074074e+00	 9.605118e+00
0	 5.185185e-01	 6.148148e+00	 9.620748e+00
0	 5.185185e-01	 6.222222e+00	 9.635837e+00
0	 5.185185e-01	 6.296296e+00	 9.650384e+00
0	 5.925926e-01	 5.925926e+00	 9.580031e+00
0	 5.925926e-01	 6.000000e+00	 9.596311e+00
0	 5.925926e-01	 6.074074e+00	 9.612077e+00
0	 5.925926e-01	 6.148148e+00	 9.627330e+00
0	 5.925926e-01	 6.222222e+00	 9.642069e+00
0	 5.925926e-01	 6.296296e+00	 9.656296e+00
0	 6.666667e-01	 5.925926e+00	 9.588725e+00
0	 6.666667e-01	 6.000000e+00	 9.604525e+00
0	 6.666667e-01	 6.074074e+00	 9.619844e+00
0	 6.666667e-01	 6.148148e+00	 9.634681e+00
0	 6.666667e-01	 6.222222e+00	 9.649036e+00
0	 6.666667e-01	 6.296296e+00	 9.662907e+00
0	 7.407407e-01	 5.925926e+00	 9.598246e+00
0	 7.407407e-01	 6.000000e+00	 9.613534e+00
0	 7.407407e-01	 6.074074e+00	 9.628374e+00
0	 7.407407e-01	 6.148148e+00	 9.642765e+00
0	 7.407407e-01	 6.222222e+00	 9.656702e+00
0	 7.407407e-01	 6.296296e+00	 9.670183e+00
0	 3.703704e-01	 6.296296e+00	 9.640792e+00
0	 3.703704e-01	 6.370370e+00	 9.655387e+00
0	 3.703704e-01	 6.444444e+00	 9.669586e+00
0	 3.703704e-01	 6.518519e+00	 9.683383e+00
0	 3.703704e-01	 6.592593e+00	 9.696774e+00
0	 3.703704e-01	 6.666667e+00	 9.709755e+00
0	 4.444444e-01	 6.296296e+00	 9.645204e+00
0	 4.444444e-01	 6.370370e+00	 9.659564e+00
0	 4.444444e-01	 6.444444e+00	 9.673539e+00
0	 4.444444e-01	 6.518519e+00	 9.687126e+00
0	 4.444444e-01	 6.592593e+00	 9.700319e+00
0	 4.444444e-01	 6.666667e+00	 9.713113e+00
0	 5.185185e-01	 6.296296e+00	 9.650384e+00
0	 5.185185e-01	 6.370370e+00	 9.664475e+00
0	 5.185185e-01	 6.444444e+00	 9.678194e+00
0	 5.185185e-01	 6.518519e+00	 9.691535e+00
0	 5.185185e-01	 6.592593e+00	 9.704494e+00
0	 5.185185e-01	 6.666667e+00	 9.717066e+00
0	 5.925926e-01	 6.296296e+00	 9.656296e+00
0	 5.925926e-01	 6.370370e+00	 9.670087e+00
0	 5.925926e-01	 6.444444e+00	 9.683515e+00
0	 5.925926e-01	 6.518519e+00	 9.696576e+00
0	 5.925926e-01	 6.592593e+00	 9.709268e+00
0	 5.925926e-01	 6.666667e+00	 9.721585e+00
0	 6.666667e-01	 6.296296e+00	 9.662907e+00
0	 6.666667e-01	 6.370370e+00	 9.676362e+00
0	 6.666667e-01	 6.444444e+00	 9.689464e+00
0	 6.666667e-01	 6.518519e+00	 9.702213e+00
0	 6.666667e-01	 6.592593e+00	 9.714605e+00
0	 6.666667e-01	 6.666667e+00	 9.726639e+00
0	 7.407407e-01	 6.296296e+00	 9.670183e+00
0	 7.407407e-01	 6.370370e+00	 9.683265e+00
0	 7.407407e-01	 6.444444e+00	 9.696008e+00
0	 7.407407e-01	 6.518519e+00	 9.708411e+00
0	 7.407407e-01	 6.592593e+00	 9.720474e+00
0	 7.407407e-01	 6.666667e+00	 9.732198e+00
0	 3.703704e-01	 6.666667e+00	 9.709755e+00
0	 3.703704e-01	 6.740741e+00	 9.722351e+00
0	 3.703704e-01	 6.814815e+00	 9.734590e+00
0	 3.703704e-01	 6.888889e+00	 9.746471e+00
0	 3.703704e-01	 6.962963e+00	 9.757995e+00
0	 3.703704e-01	 7.037037e+00	 9.769162e+00
0	 4.444444e-01	 6.666667e+00	 9.713113e+00
0	 4.444444e-01	 6.740741e+00	 9.725531e+00
0	 4.444444e-01	 6.814815e+00	 9.737599e+00
0	 4.444444e-01	 6.888889e+00	 9.749317e+00
0	 4.444444e-01	 6.962963e+00	 9.760686e+00
0	 4.444444e-01	 7.037037e+00	 9.771706e+00
0	 5.185185e-01	 6.666667e+00	 9.717066e+00
0	 5.185185e-01	 6.740741e+00	 9.729273e+00
0	 5.185185e-01	 6.814815e+00	 9.741139e+00
0	 5.185185e-01	 6.888889e+00	 9.752665e+00
0	 5.185185e-01	 6.962963e+00	 9.763852e+00
0	 5.185185e-01	 7.037037e+00	 9.774700e+00
0	 5.925926e-01	 6.666667e+00	 9.721585e+00
0	 5.925926e-01	 6.740741e+00	 9.733550e+00
0	 5.925926e-01	 6.814815e+00	 9.745185e+00
0	 5.925926e-01	 6.888889e+00	 9.756492e+00
0	 5.925926e-01	 6.962963e+00	 9.767471e+00
0	 5.925926e-01	 7.037037e+00	 9.778122e+00
0	 6.666667e-01	 6.666667e+00	 9.726639e+00
0	 6.666667e-01	 6.740741e+00	 9.738335e+00
0	 6.666667e-01	 6.814815e+00	 9.749713e+00
0	 6.666667e-01	 6.888889e+00	 9.760776e+00
0	 6.666667e-01	 6.962963e+00	 9.771523e+00
0	 6.666667e-01	 7.037037e+00	 9.781955e+00
0	 7.407407e-01	 6.666667e+00	 9.732198e+00
0	 7.407407e-01	 6.740741e+00	 9.743600e+00
0	 7.407407e-01	 6.814815e+00	 9.754699e+00
0	 7.407407e-01	 6.888889e+00	 9.765495e+00
0	 7.407407e-01	 6.962963e+00	 9.775988e+00
0	 7.407407e-01	 7.037037e+00	 9.786179e+00
0	 3.703704e-01	 7.037037e+00	 9.769162e+00
0	 3.703704e-01	 7.111111e+00	 9.780005e+00
0	 3.703704e-01	 7.185185e+00	 9.790555e+00
0	 3.703704e-01	 7.259259e+00	 9.800813e+00
0	 3.703704e-01	 7.333333e+00	 9.810777e+00
0	 3.703704e-01	 7.407407e+00	 9.820448e+00
0	 4.444444e-01	 7.037037e+00	 9.771706e+00
0	 4.444444e-01	 7.111111e+00	 9.782409e+00
0	 4.444444e-01	 7.185185e+00	 9.792825e+00
0	 4.444444e-01	 7.259259e+00	 9.802954e+00
0	 4.444444e-01	 7.333333e+00	 9.812795e+00
0	 4.444444e-01	 7.407407e+00	 9.822349e+00
0	 5.185185e-01	 7.037037e+00	 9.774700e+00
0	 5.185185e-01	 7.111111e+00	 9.785238e+00
0	 5.185185e-01	 7.185185e+00	 9.795496e+00
0	 5.185185e-01	 7.259259e+00	 9.805474e+00
0	 5.185185e-01	 7.333333e+00	 9.815171e+00
0	 5.185185e-01	 7.407407e+00	 9.824587e+00
0	 5.925926e-01	 7.037037e+00	 9.778122e+00
0	 5.925926e-01	 7.111111e+00	 9.788473e+00
0	 5.925926e-01	 7.185185e+00	 9.798551e+00
0	 5.925926e-01	 7.259259e+00	 9.808356e+00
0	 5.925926e-01	 7.333333e+00	 9.817888e+00
0	 5.925926e-01	 7.407407e+00	 9.827149e+00
0	 6.666667e-01	 7.037037e+00	 9.781955e+00
0	 6.666667e-01	 7.111111e+00	 9.792096e+00
0	 6.666667e-01	 7.185185e+00	 9.801972e+00
0	 6.666667e-01	 7.259259e+00	 9.811584e+00
0	 6.666667e-01	 7.333333e+00	 9.820932e+00
0	 6.666667e-01	 7.407407e+00	 9.830018e+00
0	 7.407407e-01	 7.037037e+00	 9.786179e+00
0	 7.407407e-01	 7.111111e+00	 9.796089e+00
0	 7.407407e-01	 7.185185e+00	 9.805743e+00
0	 7.407407e-01	 7.259259e+00	 9.815142e+00
0	 7.407407e-01	 7.333333e+00	 9.824288e+00
0	 7.407407e-01	 7.407407e+00	 9.833181e+00
0	 3.703704e-01	 7.407407e+00	 9.820448e+00
0	 3.703704e-01	 7.481481e+00	 9.829839e+00
0	 3.703704e-01	 7.555556e+00	 9.838967e+00
0	 3.703704e-01	 7.629630e+00	 9.847834e+00
0	 3.703704e-01	 7.703704e+00	 9.856443e+00
0	 3.703704e-01	 7.777778e+00	 9.864797e+00
0	 4.444444e-01	 7.407407e+00	 9.822349e+00
0	 4.444444e-01	 7.481481e+00	 9.831628e+00
0	 4.444444e-01	 7.555556e+00	 9.840649e+00
0	 4.444444e-01	 7.629630e+00	 9.849414e+00
0	 4.444444e-01	 7.703704e+00	 9.857926e+00
0	 4.444444e-01	 7.777778e+00	 9.866187e+00
0	 5.185185e-01	 7.407407e+00	 9.824587e+00
0	 5.185185e-01	 7.481481e+00	 9.833736e+00
0	 5.185185e-01	 7.555556e+00	 9.842632e+00
0	 5.185185e-01	 7.629630e+00	 9.851276e+00
0	 5.185185e-01	 7.703704e+00	 9.859673e+00
0	 5.185185e-01	 7.777778e+00	 9.867823e+00
0	 5.925926e-01	 7.407407e+00	 9.827149e+00
0	 5.925926e-01	 7.481481e+00	 9.836148e+00
0	 5.925926e-01	 7.555556e+00	 9.844901e+00
0	 5.925926e-01	 7.629630e+00	 9.853408e+00
0	 5.925926e-01	 7.703704e+00	 9.861672e+00
0	 5.925926e-01	 7.777778e+00	 9.869697e+00
0	 6.666667e-01	 7.407407e+00	 9.830018e+00
0	 6.666667e-01	 7.481481e+00	 9.838851e+00
0	 6.666667e-01	 7.555556e+00	 9.847443e+00
0	 6.666667e-01	 7.629630e+00	 9.855796e+00
0	 6.666667e-01	 7.703704e+00	 9.863913e+00
0	 6.666667e-01	 7.777778e+00	 9.871796e+00
0	 7.407407e-01	 7.407407e+00	 9.833181e+00
0	 7.407407e-01	 7.481481e+00	 9.841831e+00
0	 7.407407e-01	 7.555556e+00	 9.850247e+00
0	 7.407407e-01	 7.629630e+00	 9.858430e+00
0	 7.407407e-01	 7.703704e+00	 9.866385e+00
0	 7.407407e-01	 7.777778e+00	 9.874112e+00
0	 3.703704e-01	 7.777778e+00	 9.864797e+00
0	 3.703704e-01	 7.851852e+00	 9.872902e+00
0	 3.703704e-01	 7.925926e+00	 9.880764e+00
0	 3.703704e-01	 8.000000e+00	 9.888388e+00
0	 3.703704e-01	 8.074074e+00	 9.895776e+00
0	 3.703704e-01	 8.148148e+00	 9.902933e+00
0	 4.444444e-01	 7.777778e+00	 9.866187e+00
0	 4.444444e-01	 7.851852e+00	 9.874202e+00
0	 4.444444e-01	 7.925926e+00	 9.881978e+00
0	 4.444444e-01	 8.000000e+00	 9.889519e+00
0	 4.444444e-01	 8.074074e+00	 9.896828e+00
0	 4.444444e-01	 8.148148e+00	 9.903909e+00
0	 5.185185e-01	 7.777778e+00	 9.867823e+00
0	 5.185185e-01	 7.851852e+00	 9.875733e+00
0	 5.185185e-01	 7.925926e+00	 9.883408e+00
0	 5.185185e-01	 8.000000e+00	 9.890851e+00
0	 5.185185e-01	 8.074074e+00	 9.898067e+00
0	 5.185185e-01	 8.148148e+00	 9.905059e+00
0	 5.925926e-01	 7.777778e+00	 9.869697e+00
0	 5.925926e-01	 7.851852e+00	 9.877485e+00
0	 5.925926e-01	 7.925926e+00	 9.885044e+00
0	 5.925926e-01	 8.000000e+00	 9.892376e+00
0	 5.925926e-01	 8.074074e+00	 9.899485e+00
0	 5.925926e-01	 8.148148e+00	 9.906376e+00
0	 6.666667e-01	 7.777778e+00	 9.871796e+00
0	 6.666667e-01	 7.851852e+00	 9.879450e+00
0	 6.666667e-01	 7.925926e+00	 9.886878e+00
0	 6.666667e-01	 8.000000e+00	 9.894085e+00
0	 6.666667e-01	 8.074074e+00	 9.901075e+00
0	 6.666667e-01	 8.148148e+00	 9.907852e+00
0	 7.407407e-01	 7.777778e+00	 9.874112e+00
0	 7.407407e-01	 7.851852e+00	 9.881616e+00
0	 7.407407e-01	 7.925926e+00	 9.888901e+00
0	 7.407407e-01	 8.000000e+00	 9.895970e+00
0	 7.407407e-01	 8.074074e+00	 9.902828e+00
0	 7.407407e-01	 8.148148e+00	 9.909480e+00
0	 3.703704e-01	 8.148148e+00	 9.902933e+00
0	 3.703704e-01	 8.222222e+00	 9.909855e+00
0	 3.703704e-01	 8.296296e+00	 9.916539e+00
0	 3.703704e-01	 8.370370e+00	 9.922991e+00
0	 3.703704e-01	 8.444444e+00	 9.929217e+00
0	 3.703704e-01	 8.518519e+00	 9.935225e+00
0	 4.444444e-01	 8.148148e+00	 9.903909e+00
0	 4.444444e-01	 8.222222e+00	 9.910758e+00
0	 4.444444e-01	 8.296296e+00	 9.917373e+00
0	 4.444444e-01	 8.370370e+00	 9.923758e+00
0	 4.444444e-01	 8.444444e+00	 9.929921e+00
0	 4.444444e-01	 8.518519e+00	 9.935868e+00
0	 5.185185e-01	 8.148148e+00	 9.905059e+00
0	 5.185185e-01	 8.222222e+00	 9.911823e+00
0	 5.185185e-01	 8.296296e+00	 9.918356e+00
0	 5.185185e-01	 8.370370e+00	 9.924663e+00
0	 5.185185e-01	 8.444444e+00	 9.930751e+00
0	 5.185185e-01	 8.518519e+00	 9.936626e+00
0	 5.925926e-01	 8.148148e+00	 9.906376e+00
0	 5.925926e-01	 8.222222e+00	 9.913043e+00
0	 5.925926e-01	 8.296296e+00	 9.919482e+00
0	 5.925926e-01	 8.370370e+00	 9.925700e+00
0	 5.925926e-01	 8.444444e+00	 9.931702e+00
0	 5.925926e-01	 8.518519e+00	 9.937495e+00
0	 6.666667e-01	 8.148148e+00	 9.907852e+00
0	 6.666667e-01	 8.222222e+00	 9.914410e+00
0	 6.666667e-01	 8.296296e+00	 9.920745e+00
0	 6.666667e-01	 8.370370e+00	 9.926862e+00
0	 6.666667e-01	 8.444444e+00	 9.932768e+00
0	 6.666667e-01	 8.518519e+00	 9.938468e+00
0	 7.407407e-01	 8.148148e+00	 9.909480e+00
0	 7.407407e-01	 8.222222e+00	 9.915918e+00
0	 7.407407e-01	 8.296296e+00	 9.922137e+00
0	 7.407407e-01	 8.370370e+00	 9.928144e+00
0	 7.407407e-01	 8.444444e+00	 9.933943e+00
0	 7.407407e-01	 8.518519e+00	 9.939541e+00
0	 3.703704e-01	 8.518519e+00	 9.935225e+00
0	 3.703704e-01	 8.592593e+00	 9.940997e+00
0	 3.703704e-01	 8.666667e+00	 9.946521e+00
0	 3.703704e-01	 8.740741e+00	 9.951805e+00
0	 3.703704e-01	 8.814815e+00	 9.956857e+00
0	 3.703704e-01	 8.888889e+00	 9.961686e+00
0	 4.444444e-01	 8.518519e+00	 9.935868e+00
0	 4.444444e-01	 8.592593e+00	 9.941582e+00
0	 4.444444e-01	 8.666667e+00	 9.947050e+00
0	 4.444444e-01	 8.740741e+00	 9.952281e+00
0	 4.444444e-01	 8.814815e+00	 9.957283e+00
0	 4.444444e-01	 8.888889e+00	 9.962064e+00
0	 5.185185e-01	 8.518519e+00	 9.936626e+00
0	 5.185185e-01	 8.592593e+00	 9.942272e+00
0	 5.185185e-01	 8.666667e+00	 9.947675e+00
0	 5.185185e-01	 8.740741e+00	 9.952843e+00
0	 5.185185e-01	 8.814815e+00	 9.957786e+00
0	 5.185185e-01	 8.888889e+00	 9.962511e+00
0	 5.925926e-01	 8.518519e+00	 9.937495e+00
0	 5.925926e-01	 8.592593e+00	 9.943062e+00
0	 5.925926e-01	 8.666667e+00	 9.948390e+00
0	 5.925926e-01	 8.740741e+00	 9.953487e+00
0	 5.925926e-01	 8.814815e+00	 9.958362e+00
0	 5.925926e-01	 8.888889e+00	 9.963023e+00
0	 6.666667e-01	 8.518519e+00	 9.938468e+00
0	 6.666667e-01	 8.592593e+00	 9.943947e+00
0	 6.666667e-01	 8.666667e+00	 9.949191e+00
0	 6.666667e-01	 8.740741e+00	 9.954209e+00
0	 6.666667e-01	 8.814815e+00	 9.959007e+00
0	 6.666667e-01	 8.888889e+00	 9.963596e+00
0	 7.407407e-01	 8.518519e+00	 9.939541e+00
0	 7.407407e-01	 8.592593e+00	 9.944923e+00
0	 7.407407e-01	 8.666667e+00	 9.950074e+00
0	 7.407407e-01	 8.740741e+00	 9.955003e+00
0	 7.407407e-01	 8.814815e+00	 9.959718e+00
0	 7.407407e-01	 8.888889e+00	 9.964227e+00
0	 3.703704e-01	 8.888889e+00	 9.961686e+00
0	 3.703704e-01	 8.962963e+00	 9.966265e+00
0	 3.703704e-01	 9.037037e+00	 9.970569e+00
0	 3.703704e-01	 9.111111e+00	 9.974608e+00
0	 3.703704e-01	 9.185185e+00	 9.978397e+00
0	 3.703704e-01	 9.259259e+00	 9.981946e+00
0	 4.444444e-01	 8.888889e+00	 9.962064e+00
0	 4.444444e-01	 8.962963e+00	 9.966598e+00
0	 4.444444e-01	 9.037037e+00	 9.970859e+00
0	 4.444444e-01	 9.111111e+00	 9.974859e+00
0	 4.444444e-01	 9.185185e+00	 9.978610e+00
0	 4.444444e-01	 9.259259e+00	 9.982124e+00
0	 5.185185e-01	 8.888889e+00	 9.962511e+00
0	 5.185185e-01	 8.962963e+00	 9.966992e+00
0	 5.185185e-01	 9.037037e+00	 9.971203e+00
0	 5.185185e-01	 9.111111e+00	 9.975156e+00
0	 5.185185e-01	 9.185185e+00	 9.978864e+00
0	 5.185185e-01	 9.259259e+00	 9.982336e+00
0	 5.925926e-01	 8.888889e+00	 9.963023e+00
0	 5.925926e-01	 8.962963e+00	 9.967443e+00
0	 5.925926e-01	 9.037037e+00	 9.971597e+00
0	 5.925926e-01	 9.111111e+00	 9.975497e+00
0	 5.925926e-01	 9.185185e+00	 9.979154e+00
0	 5.925926e-01	 9.259259e+00	 9.982580e+00
0	 6.666667e-01	 8.888889e+00	 9.963596e+00
0	 6.666667e-01	 8.962963e+00	 9.967948e+00
0	 6.666667e-01	 9.037037e+00	 9.972038e+00
0	 6.666667e-01	 9.111111e+00	 9.975878e+00
0	 6.666667e-01	 9.185185e+00	 9.979478e+00
0	 6.666667e-01	 9.259259e+00	 9.982851e+00
0	 7.407407e-01	 8.888889e+00	 9.964227e+00
0	 7.407407e-01	 8.962963e+00	 9.968503e+00
0	 7.407407e-01	 9.037037e+00	 9.972522e+00
0	 7.407407e-01	 9.111111e+00	 9.976295e+00
0	 7.407407e-01	 9.185185e+00	 9.979833e+00
0	 7.407407e-01	 9.259259e+00	 9.983148e+00
0	 3.703704e-01	 9.259259e+00	 9.981946e+00
0	 3.703704e-01	 9.333333e+00	 9.985210e+00
0	 3.703704e-01	 9.407407e+00	 9.988149e+00
0	 3.703704e-01	 9.481481e+00	 9.990778e+00
0	 3.703704e-01	 9.555556e+00	 9.993113e+00
0	 3.703704e-01	 9.629630e+00	 9.995171e+00
0	 4.444444e-01	 9.259259e+00	 9.982124e+00
0	 4.444444e-01	 9.333333e+00	 9.985357e+00
0	 4.444444e-01	 9.407407e+00	 9.988266e+00
0	 4.444444e-01	 9.481481e+00	 9.990869e+00
0	 4.444444e-01	 9.555556e+00	 9.993181e+00
0	 4.444444e-01	 9.629630e+00	 9.995219e+00
0	 5.185185e-01	 9.259259e+00	 9.982336e+00
0	 5.185185e-01	 9.333333e+00	 9.985531e+00
0	 5.185185e-01	 9.407407e+00	 9.988407e+00
0	 5.185185e-01	 9.481481e+00	 9.990979e+00
0	 5.185185e-01	 9.555556e+00	 9.993264e+00
0	 5.185185e-01	 9.629630e+00	 9.995277e+00
0	 5.925926e-01	 9.259259e+00	 9.982580e+00
0	 5.925926e-01	 9.333333e+00	 9.985731e+00
0	 5.925926e-01	 9.407407e+00	 9.988568e+00
0	 5.925926e-01	 9.481481e+00	 9.991105e+00
0	 5.925926e-01	 9.555556e+00	 9.993359e+00
0	 5.925926e-01	 9.629630e+00	 9.995345e+00
0	 6.666667e-01	 9.259259e+00	 9.982851e+00
0	 6.666667e-01	 9.333333e+00	 9.985954e+00
0	 6.666667e-01	 9.407407e+00	 9.988747e+00
0	 6.666667e-01	 9.481481e+00	 9.991245e+00
0	 6.666667e-01	 9.555556e+00	 9.993463e+00
0	 6.666667e-01	 9.629630e+00	 9.995419e+00
0	 7.407407e-01	 9.259259e+00	 9.983148e+00
0	 7.407407e-01	 9.333333e+00	 9.986197e+00
0	 7.407407e-01	 9.407407e+00	 9.988941e+00
0	 7.407407e-01	 9.481481e+00	 9.991395e+00
0	 7.407407e-01	 9.555556e+00	 9.993575e+00
0	 7.407407e-01	 9.629630e+00	 9.995496e+00
0	 3.703704e-01	 9.629630e+00	 9.995171e+00
0	 3.703704e-01	 9.703704e+00	 9.996892e+00
0	 3.703704e-01	 9.777778e+00	 9.998218e+00
0	 3.703704e-01	 9.851852e+00	 9.999173e+00
0	 3.703704e-01	 9.925926e+00	 9.999776e+00
0	 3.703704e-01	 1.000000e+01	 1.000005e+01
0	 4.444444e-01	 9.629630e+00	 9.995219e+00
0	 4.444444e-01	 9.703704e+00	 9.996922e+00
0	 4.444444e-01	 9.777778e+00	 9.998235e+00
0	 4.444444e-01	 9.851852e+00	 9.999180e+00
0	 4.444444e-01	 9.925926e+00	 9.999778e+00
0	 4.444444e-01	 1.000000e+01	 1.000005e+01
0	 5.185185e-01	 9.629630e+00	 9.995277e+00
0	 5.185185e-01	 9.703704e+00	 9.996961e+00
0	 5.185185e-01	 9.777778e+00	 9.998259e+00
0	 5.185185e-01	 9.851852e+00	 9.999192e+00
0	 5.185185e-01	 9.925926e+00	 9.999782e+00
0	 5.185185e-01	 1.000000e+01	 1.000005e+01
0	 5.925926e-01	 9.629630e+00	 9.995345e+00
0	 5.925926e-01	 9.703704e+00	 9.997005e+00
0	 5.925926e-01	 9.777778e+00	 9.998285e+00
0	 5.925926e-01	 9.851852e+00	 9.999206e+00
0	 5.925926e-01	 9.925926e+00	 9.999788e+00
0	 5.925926e-01	 1.000000e+01	 1.000005e+01
0	 6.666667e-01	 9.629630e+00	 9.995419e+00
0	 6.666667e-01	 9.703704e+00	 9.997053e+00
0	 6.666667e-01	 9.777778e+00	 9.998313e+00
0	 6.666667e-01	 9.851852e+00	 9.999220e+00
0	 6.666667e-01	 9.925926e+00	 9.999792e+00
0	 6.666667e-01	 1.000000e+01	 1.000005e+01
0	 7.407407e-01	 9.629630e+00	 9.995496e+00
0	 7.407407e-01	 9.703704e+00	 9.997101e+00
0	 7.407407e-01	 9.777778e+00	 9.998339e+00
0	 7.407407e-01	 9.851852e+00	 9.999229e+00
0	 7.407407e-01	 9.925926e+00	 9.999792e+00
0	 7.407407e-01	 1.000000e+01	 1.000005e+01
0	 7.407407e-01	 0.000000e+00	-6.161348e-02
0	 7.407407e-01	 7.407407e-02	 4.057934e-01
0	 7.407407e-01	 1.481481e-01	 7.147647e-01
0	 7.407407e-01	 2.222222e-01	 7.944119e-01
0	 7.407407e-01	 2.962963e-01	 5.738463e-01
0	 7.407407e-01	 3.703704e-01	-1.782075e-02
0	 8.148148e-01	 0.000000e+00	 1.291263e-01
0	 8.148148e-01	 7.407407e-02	 3.940105e-01
0	 8.148148e-01	 1.481481e-01	 6.131122e-01
0	 8.148148e-01	 2.222222e-01	 7.108019e-01
0	 8.148148e-01	 2.962963e-01	 6.114503e-01
0	 8.148148e-01	 3.703704e-01	 2.394281e-01
0	 8.888889e-01	 0.000000e+00	 2.616653e-01
0	 8.888889e-01	 7.407407e-02	 1.822266e-02
0	 8.888889e-01	 1.481481e-01	-4.689746e-02
0	 8.888889e-01	 2.222222e-01	-3.411753e-03
0	 8.888889e-01	 2.962963e-01	 7.896308e-02
0	 8.888889e-01	 3.703704e-01	 1.305103e-01
0	 9.629630e-01	 0.000000e+00	 3.151060e-01
0	 9.629630e-01	 7.407407e-02	-6.285819e-01
0	 9.629630e-01	 1.481481e-01	-1.113372e+00
0	 9.629630e-01	 2.222222e-01	-1.192414e+00
0	 9.629630e-01	 2.962963e-01	-9.188596e-01
0	 9.629630e-01	 3.703704e-01	-3.458590e-01
0	 1.037037e+00	 0.000000e+00	 2.685508e-01
0	 1.037037e+00	 7.407407e-02	-1.453415e+00
0	 1.037037e+00	 1.481481e-01	-2.434418e+00
0	 1.037037e+00	 2.222222e-01	-2.700390e+00
0	 1.037037e+00	 2.962963e-01	-2.277262e+00
0	 1.037037e+00	 3.703704e-01	-1.190965e+00
0	 1.111111e+00	 0.000000e+00	 1.011023e-01
0	 1.111111e+00	 7.407407e-02	-2.363287e+00
0	 1.111111e+00	 1.481481e-01	-3.858143e+00
0	 1.111111e+00	 2.222222e-01	-4.371524e+00
0	 1.111111e+00	 2.962963e-01	-3.891487e+00
0	 1.111111e+00	 3.703704e-01	-2.406093e+00
0	 7.407407e-01	 3.703704e-01	-1.782075e-02
0	 7.407407e-01	 4.444444e-01	-4.869500e-01
0	 7.407407e-01	 5.185185e-01	-2.607489e-01
0	 7.407407e-01	 5.925926e-01	 7.086240e-01
0	 7.407407e-01	 6.666667e-01	 2.469010e+00
0	 7.407407e-01	 7.407407e-01	 5.068251e+00
0	 8.148148e-01	 3.703704e-01	 2.394281e-01
0	 8.148148e-01	 4.444444e-01	 5.349084e-02
0	 8.148148e-01	 5.185185e-01	 6.091984e-01
0	 8.148148e-01	 5.925926e-01	 1.976128e+00
0	 8.148148e-01	 6.666667e-01	 4.223855e+00
0	 8.148148e-01	 7.407407e-01	 7.421958e+00
0	 8.888889e-01	 3.703704e-01	 1.305103e-01
0	 8.888889e-01	 4.444444e-01	 4.721705e-01
0	 8.888889e-01	 5.185185e-01	 1.521051e+00
0	 8.888889e-01	 5.925926e-01	 3.351687e+00
0	 8.888889e-01	 6.666667e-01	 6.038613e+00
0	 8.888889e-01	 7.407407e-01	 9.656362e+00
0	 9.629630e-01	 3.703704e-01	-3.458590e-01
0	 9.629630e-01	 4.444444e-01	 6.508770e-01
0	 9.629630e-01	 5.185185e-01	 2.272881e+00
0	 9.629630e-01	 5.925926e-01	 4.582867e+00
0	 9.629630e-01	 6.666667e-01	 7.643549e+00
0	 9.629630e-01	 7.407407e-01	 1.151764e+01
0	 1.037037e+00	 3.703704e-01	-1.190965e+00
0	 1.037037e+00	 4.444444e-01	 4.713984e-01
0	 1.037037e+00	 5.185185e-01	 2.662758e+00
0	 1.037037e+00	 5.925926e-01	 5.417230e+00
0	 1.037037e+00	 6.666667e-01	 8.768929e+00
0	 1.037037e+00	 7.407407e-01	 1.275197e+01
0	 1.111111e+00	 3.703704e-01	-2.406093e+00
0	 1.111111e+00	 4.444444e-01	-1.844773e-01
0	 1.111111e+00	 5.185185e-01	 2.488753e+00
0	 1.111111e+00	 5.925926e-01	 5.602339e+00
0	 1.111111e+00	 6.666667e-01	 9.145019e+00
0	 1.111111e+00	 7.407407e-01	 1.310553e+01
0	 7.407407e-01	 7.407407e-01	 5.068251e+00
0	 7.407407e-01	 8.148148e-01	 8.979021e+00
0	 7.407407e-01	 8.888889e-01	 1.463869e+01
0	 7.407407e-01	 9.629630e-01	 2.204213e+01
0	 7.407407e-01	 1.037037e+00	 3.118422e+01
0	 7.407407e-01	 1.111111e+00	 4.205985e+01
0	 8.148148e-01	 7.407407e-01	 7.421958e+00
0	 8.148148e-01	 8.148148e-01	 1.172187e+01
0	 8.148148e-01	 8.888889e-01	 1.721295e+01
0	 8.148148e-01	 9.629630e-01	 2.387171e+01
0	 8.148148e-01	 1.037037e+00	 3.167463e+01
0	 8.148148e-01	 1.111111e+00	 4.059820e+01
0	 8.888889e-01	 7.407407e-01	 9.656362e+00
0	 8.888889e-01	 8.148148e-01	 1.411717e+01
0	 8.888889e-01	 8.888889e-01	 1.925903e+01
0	 8.888889e-01	 9.629630e-01	 2.504506e+01
0	 8.888889e-01	 1.037037e+00	 3.143842e+01
0	 8.888889e-01	 1.111111e+00	 3.840226e+01
0	 9.629630e-01	 7.407407e-01	 1.151764e+01
0	 9.629630e-01	 8.148148e-01	 1.595249e+01
0	 9.629630e-01	 8.888889e-01	 2.062352e+01
0	 9.629630e-01	 9.629630e-01	 2.548558e+01
0	 9.629630e-01	 1.037037e+00	 3.049349e+01
0	 9.629630e-01	 1.111111e+00	 3.560210e+01
0	 1.037037e+00	 7.407407e-01	 1.275197e+01
0	 1.037037e+00	 8.148148e-01	 1.701536e+01
0	 1.037037e+00	 8.888889e-01	 2.115307e+01
0	 1.037037e+00	 9.629630e-01	 2.511667e+01
0	 1.037037e+00	 1.037037e+00	 2.885773e+01
0	 1.037037e+00	 1.111111e+00	 3.232782e+01
0	 1.111111e+00	 7.407407e-01	 1.310553e+01
0	 1.111111e+00	 8.148148e-01	 1.709334e+01
0	 1.111111e+00	 8.888889e-01	 2.069429e+01
0	 1.111111e+00	 9.629630e-01	 2.386174e+01
0	 1.111111e+00	 1.037037e+00	 2.654902e+01
0	 1.111111e+00	 1.111111e+00	 2.870949e+01
0	 7.407407e-01	 1.111111e+00	 4.205985e+01
0	 7.407407e-01	 1.185185e+00	 5.137355e+01
0	 7.407407e-01	 1.259259e+00	 5.583235e+01
0	 7.407407e-01	 1.333333e+00	 5.543492e+01
0	 7.407407e-01	 1.407407e+00	 5.017991e+01
0	 7.407407e-01	 1.481481e+00	 4.006596e+01
0	 8.148148e-01	 1.111111e+00	 4.059820e+01
0	 8.148148e-01	 1.185185e+00	 4.798876e+01
0	 8.148148e-01	 1.259259e+00	 5.121183e+01
0	 8.148148e-01	 1.333333e+00	 5.027269e+01
0	 8.148148e-01	 1.407407e+00	 4.517662e+01
0	 8.148148e-01	 1.481481e+00	 3.592889e+01
0	 8.888889e-01	 1.111111e+00	 3.840226e+01
0	 8.888889e-01	 1.185185e+00	 4.391840e+01
0	 8.888889e-01	 1.259259e+00	 4.600022e+01
0	 8.888889e-01	 1.333333e+00	 4.465815e+01
0	 8.888889e-01	 1.407407e+00	 3.990263e+01
0	 8.888889e-01	 1.481481e+00	 3.174409e+01
0	 9.629630e-01	 1.111111e+00	 3.560210e+01
0	 9.629630e-01	 1.185185e+00	 3.939059e+01
0	 9.629630e-01	 1.259259e+00	 4.047766e+01
0	 9.629630e-01	 1.333333e+00	 3.887745e+01
0	 9.629630e-01	 1.407407e+00	 3.460408e+01
0	 9.629630e-01	 1.481481e+00	 2.767168e+01
0	 1.037037e+00	 1.111111e+00	 3.232782e+01
0	 1.037037e+00	 1.185185e+00	 3.463345e+01
0	 1.037037e+00	 1.259259e+00	 3.492430e+01
0	 1.037037e+00	 1.333333e+00	 3.321673e+01
0	 1.037037e+00	 1.407407e+00	 2.952712e+01
0	 1.037037e+00	 1.481481e+00	 2.387180e+01
0	 1.111111e+00	 1.111111e+00	 2.870949e+01
0	 1.111111e+00	 1.185185e+00	 2.987509e+01
0	 1.111111e+00	 1.259259e+00	 2.962027e+01
0	 1.111111e+00	 1.333333e+00	 2.796216e+01
0	 1.111111e+00	 1.407407e+00	 2.491789e+01
0	 1.111111e+00	 1.481481e+00	 2.050458e+01
0	 7.407407e-01	 1.481481e+00	 4.006596e+01
0	 7.407407e-01	 1.555556e+00	 2.875215e+01
0	 7.407407e-01	 1.629630e+00	 1.989189e+01
0	 7.407407e-01	 1.703704e+00	 1.347538e+01
0	 7.407407e-01	 1.777778e+00	 9.492813e+00
0	 7.407407e-01	 1.851852e+00	 7.934378e+00
0	 8.148148e-01	 1.481481e+00	 3.592889e+01
0	 8.148148e-01	 1.555556e+00	 2.575512e+01
0	 8.148148e-01	 1.629630e+00	 1.786812e+01
0	 8.148148e-01	 1.703704e+00	 1.225397e+01
0	 8.148148e-01	 1.777778e+00	 8.898762e+00
0	 8.148148e-01	 1.851852e+00	 7.788572e+00
0	 8.888889e-01	 1.481481e+00	 3.174409e+01
0	 8.888889e-01	 1.555556e+00	 2.291472e+01
0	 8.888889e-01	 1.629630e+00	 1.612927e+01
0	 8.888889e-01	 1.703704e+00	 1.137204e+01
0	 8.888889e-01	 1.777778e+00	 8.627321e+00
0	 8.888889e-01	 1.851852e+00	 7.879395e+00
0	 9.629630e-01	 1.481481e+00	 2.767168e+01
0	 9.629630e-01	 1.555556e+00	 2.029484e+01
0	 9.629630e-01	 1.629630e+00	 1.466860e+01
0	 9.629630e-01	 1.703704e+00	 1.077778e+01
0	 9.629630e-01	 1.777778e+00	 8.607186e+00
0	 9.629630e-01	 1.851852e+00	 8.141646e+00
0	 1.037037e+00	 1.481481e+00	 2.387180e+01
0	 1.037037e+00	 1.555556e+00	 1.795939e+01
0	 1.037037e+00	 1.629630e+00	 1.347936e+01
0	 1.037037e+00	 1.703704e+00	 1.041935e+01
0	 1.037037e+00	 1.777778e+00	 8.767056e+00
0	 1.037037e+00	 1.851852e+00	 8.510123e+00
0	 1.111111e+00	 1.481481e+00	 2.050458e+01
0	 1.111111e+00	 1.555556e+00	 1.597226e+01
0	 1.111111e+00	 1.629630e+00	 1.255478e+01
0	 1.111111e+00	 1.703704e+00	 1.024496e+01
0	 1.111111e+00	 1.777778e+00	 9.035627e+00
0	 1.111111e+00	 1.851852e+00	 8.919626e+00
0	 7.407407e-01	 1.851852e+00	 7.934378e+00
0	 7.407407e-01	 1.925926e+00	 7.634402e+00
0	 7.407407e-01	 2.000000e+00	 7.436161e+00
0	 7.407407e-01	 2.074074e+00	 7.343278e+00
0	 7.407407e-01	 2.148148e+00	 7.359374e+00
0	 7.407407e-01	 2.222222e+00	 7.488071e+00
0	 8.148148e-01	 1.851852e+00	 7.788572e+00
0	 8.148148e-01	 1.925926e+00	 7.793743e+00
0	 8.148148e-01	 2.000000e+00	 7.798843e+00
0	 8.148148e-01	 2.074074e+00	 7.811285e+00
0	 8.148148e-01	 2.148148e+00	 7.838484e+00
0	 8.148148e-01	 2.222222e+00	 7.887853e+00
0	 8.888889e-01	 1.851852e+00	 7.879395e+00
0	 8.888889e-01	 1.925926e+00	 8.084767e+00
0	 8.888889e-01	 2.000000e+00	 8.217100e+00
0	 8.888889e-01	 2.074074e+00	 8.286419e+00
0	 8.888889e-01	 2.148148e+00	 8.302748e+00
0	 8.888889e-01	 2.222222e+00	 8.276114e+00
0	 9.629630e-01	 1.851852e+00	 8.141646e+00
0	 9.629630e-01	 1.925926e+00	 8.459625e+00
0	 9.629630e-01	 2.000000e+00	 8.657354e+00
0	 9.629630e-01	 2.074074e+00	 8.746289e+00
0	 9.629630e-01	 2.148148e+00	 8.737885e+00
0	 9.629630e-01	 2.222222e+00	 8.643598e+00
0	 1.037037e+00	 1.851852e+00	 8.510123e+00
0	 1.037037e+00	 1.925926e+00	 8.870467e+00
0	 1.037037e+00	 2.000000e+00	 9.086026e+00
0	 1.037037e+00	 2.074074e+00	 9.168504e+00
0	 1.037037e+00	 2.148148e+00	 9.129610e+00
0	 1.037037e+00	 2.222222e+00	 8.981049e+00
0	 1.111111e+00	 1.851852e+00	 8.919626e+00
0	 1.111111e+00	 1.925926e+00	 9.269444e+00
0	 1.111111e+00	 2.000000e+00	 9.469536e+00
0	 1.111111e+00	 2.074074e+00	 9.530676e+00
0	 1.111111e+00	 2.148148e+00	 9.463642e+00
0	 1.111111e+00	 2.222222e+00	 9.279208e+00
0	 7.407407e-01	 2.222222e+00	 7.488071e+00
0	 7.407407e-01	 2.296296e+00	 7.658804e+00
0	 7.407407e-01	 2.370370e+00	 7.797767e+00
0	 7.407407e-01	 2.444444e+00	 7.903721e+00
0	 7.407407e-01	 2.518519e+00	 7.975428e+00
0	 7.407407e-01	 2.592593e+00	 8.011650e+00
0	 8.148148e-01	 2.222222e+00	 7.887853e+00
0	 8.148148e-01	 2.296296e+00	 7.952132e+00
0	 8.148148e-01	 2.370370e+00	 8.016763e+00
0	 8.148148e-01	 2.444444e+00	 8.078208e+00
0	 8.148148e-01	 2.518519e+00	 8.132929e+00
0	 8.148148e-01	 2.592593e+00	 8.177391e+00
0	 8.888889e-01	 2.222222e+00	 8.276114e+00
0	 8.888889e-01	 2.296296e+00	 8.246763e+00
0	 8.888889e-01	 2.370370e+00	 8.244785e+00
0	 8.888889e-01	 2.444444e+00	 8.264969e+00
0	 8.888889e-01	 2.518519e+00	 8.302102e+00
0	 8.888889e-01	 2.592593e+00	 8.350973e+00
0	 9.629630e-01	 2.222222e+00	 8.643598e+00
0	 9.629630e-01	 2.296296e+00	 8.536520e+00
0	 9.629630e-01	 2.370370e+00	 8.477928e+00
0	 9.629630e-01	 2.444444e+00	 8.461561e+00
0	 9.629630e-01	 2.518519e+00	 8.481157e+00
0	 9.629630e-01	 2.592593e+00	 8.530453e+00
0	 1.037037e+00	 2.222222e+00	 8.981049e+00
0	 1.037037e+00	 2.296296e+00	 8.815227e+00
0	 1.037037e+00	 2.370370e+00	 8.712288e+00
0	 1.037037e+00	 2.444444e+00	 8.665544e+00
0	 1.037037e+00	 2.518519e+00	 8.668307e+00
0	 1.037037e+00	 2.592593e+00	 8.713889e+00
0	 1.111111e+00	 2.222222e+00	 9.279208e+00
0	 1.111111e+00	 2.296296e+00	 9.076707e+00
0	 1.111111e+00	 2.370370e+00	 8.943958e+00
0	 1.111111e+00	 2.444444e+00	 8.874474e+00
0	 1.111111e+00	 2.518519e+00	 8.861763e+00
0	 1.111111e+00	 2.592593e+00	 8.899338e+00
0	 7.407407e-01	 2.592593e+00	 8.011650e+00
0	 7.407407e-01	 2.666667e+00	 8.034407e+00
0	 7.407407e-01	 2.740741e+00	 8.067774e+00
0	 7.407407e-01	 2.814815e+00	 8.113593e+00
0	 7.407407e-01	 2.888889e+00	 8.173709e+00
0	 7.407407e-01	 2.962963e+00	 8.249963e+00
0	 8.148148e-01	 2.592593e+00	 8.177391e+00
0	 8.148148e-01	 2.666667e+00	 8.214467e+00
0	 8.148148e-01	 2.740741e+00	 8.251439e+00
0	 8.148148e-01	 2.814815e+00	 8.291379e+00
0	 8.148148e-01	 2.888889e+00	 8.337358e+00
0	 8.148148e-01	 2.962963e+00	 8.392447e+00
0	 8.888889e-01	 2.592593e+00	 8.350973e+00
0	 8.888889e-01	 2.666667e+00	 8.398292e+00
0	 8.888889e-01	 2.740741e+00	 8.436883e+00
0	 8.888889e-01	 2.814815e+00	 8.470698e+00
0	 8.888889e-01	 2.888889e+00	 8.503693e+00
0	 8.888889e-01	 2.962963e+00	 8.539822e+00
0	 9.629630e-01	 2.592593e+00	 8.530453e+00
0	 9.629630e-01	 2.666667e+00	 8.583452e+00
0	 9.629630e-01	 2.740741e+00	 8.621325e+00
0	 9.629630e-01	 2.814815e+00	 8.648565e+00
0	 9.629630e-01	 2.888889e+00	 8.669664e+00
0	 9.629630e-01	 2.962963e+00	 8.689113e+00
0	 1.037037e+00	 2.592593e+00	 8.713889e+00
0	 1.037037e+00	 2.666667e+00	 8.767515e+00
0	 1.037037e+00	 2.740741e+00	 8.801988e+00
0	 1.037037e+00	 2.814815e+00	 8.821994e+00
0	 1.037037e+00	 2.888889e+00	 8.832218e+00
0	 1.037037e+00	 2.962963e+00	 8.837345e+00
0	 1.111111e+00	 2.592593e+00	 8.899338e+00
0	 1.111111e+00	 2.666667e+00	 8.948048e+00
0	 1.111111e+00	 2.740741e+00	 8.976090e+00
0	 1.111111e+00	 2.814815e+00	 8.987999e+00
0	 1.111111e+00	 2.888889e+00	 8.988305e+00
0	 1.111111e+00	 2.962963e+00	 8.981542e+00
0	 7.407407e-01	 2.962963e+00	 8.249963e+00
0	 7.407407e-01	 3.037037e+00	 8.331496e+00
0	 7.407407e-01	 3.111111e+00	 8.405562e+00
0	 7.407407e-01	 3.185185e+00	 8.471177e+00
0	 7.407407e-01	 3.259259e+00	 8.527355e+00
0	 7.407407e-01	 3.333333e+00	 8.573111e+00
0	 8.148148e-01	 2.962963e+00	 8.392447e+00
0	 8.148148e-01	 3.037037e+00	 8.452674e+00
0	 8.148148e-01	 3.111111e+00	 8.510970e+00
0	 8.148148e-01	 3.185185e+00	 8.565766e+00
0	 8.148148e-01	 3.259259e+00	 8.615491e+00
0	 8.148148e-01	 3.333333e+00	 8.658573e+00
0	 8.888889e-01	 2.962963e+00	 8.539822e+00
0	 8.888889e-01	 3.037037e+00	 8.580731e+00
0	 8.888889e-01	 3.111111e+00	 8.624107e+00
0	 8.888889e-01	 3.185185e+00	 8.667970e+00
0	 8.888889e-01	 3.259259e+00	 8.710339e+00
0	 8.888889e-01	 3.333333e+00	 8.749231e+00
0	 9.629630e-01	 2.962963e+00	 8.689113e+00
0	 9.629630e-01	 3.037037e+00	 8.712871e+00
0	 9.629630e-01	 3.111111e+00	 8.742420e+00
0	 9.629630e-01	 3.185185e+00	 8.775544e+00
0	 9.629630e-01	 3.259259e+00	 8.810026e+00
0	 9.629630e-01	 3.333333e+00	 8.843649e+00
0	 1.037037e+00	 2.962963e+00	 8.837345e+00
0	 1.037037e+00	 3.037037e+00	 8.846297e+00
0	 1.037037e+00	 3.111111e+00	 8.863355e+00
0	 1.037037e+00	 3.185185e+00	 8.886242e+00
0	 1.037037e+00	 3.259259e+00	 8.912678e+00
0	 1.037037e+00	 3.333333e+00	 8.940388e+00
0	 1.111111e+00	 2.962963e+00	 8.981542e+00
0	 1.111111e+00	 3.037037e+00	 8.978213e+00
0	 1.111111e+00	 3.111111e+00	 8.984359e+00
0	 1.111111e+00	 3.185185e+00	 8.997817e+00
0	 1.111111e+00	 3.259259e+00	 9.016422e+00
0	 1.111111e+00	 3.333333e+00	 9.038011e+00
0	 7.407407e-01	 3.333333e+00	 8.573111e+00
0	 7.407407e-01	 3.407407e+00	 8.613508e+00
0	 7.407407e-01	 3.481481e+00	 8.654747e+00
0	 7.407407e-01	 3.555556e+00	 8.697553e+00
0	 7.407407e-01	 3.629630e+00	 8.742646e+00
0	 7.407407e-01	 3.703704e+00	 8.790750e+00
0	 8.148148e-01	 3.333333e+00	 8.658573e+00
0	 8.148148e-01	 3.407407e+00	 8.697099e+00
0	 8.148148e-01	 3.481481e+00	 8.734900e+00
0	 8.148148e-01	 3.555556e+00	 8.773024e+00
0	 8.148148e-01	 3.629630e+00	 8.812516e+00
0	 8.148148e-01	 3.703704e+00	 8.854423e+00
0	 8.888889e-01	 3.333333e+00	 8.749231e+00
0	 8.888889e-01	 3.407407e+00	 8.784476e+00
0	 8.888889e-01	 3.481481e+00	 8.818070e+00
0	 8.888889e-01	 3.555556e+00	 8.851285e+00
0	 8.888889e-01	 3.629630e+00	 8.885392e+00
0	 8.888889e-01	 3.703704e+00	 8.921664e+00
0	 9.629630e-01	 3.333333e+00	 8.843649e+00
0	 9.629630e-01	 3.407407e+00	 8.874601e+00
0	 9.629630e-01	 3.481481e+00	 8.903480e+00
0	 9.629630e-01	 3.555556e+00	 8.931683e+00
0	 9.629630e-01	 3.629630e+00	 8.960608e+00
0	 9.629630e-01	 3.703704e+00	 8.991652e+00
0	 1.037037e+00	 3.333333e+00	 8.940388e+00
0	 1.037037e+00	 3.407407e+00	 8.966436e+00
0	 1.037037e+00	 3.481481e+00	 8.990354e+00
0	 1.037037e+00	 3.555556e+00	 9.013566e+00
0	 1.037037e+00	 3.629630e+00	 9.037495e+00
0	 1.037037e+00	 3.703704e+00	 9.063566e+00
0	 1.111111e+00	 3.333333e+00	 9.038011e+00
0	 1.111111e+00	 3.407407e+00	 9.058942e+00
0	 1.111111e+00	 3.481481e+00	 9.077914e+00
0	 1.111111e+00	 3.555556e+00	 9.096279e+00
0	 1.111111e+00	 3.629630e+00	 9.115386e+00
0	 1.111111e+00	 3.703704e+00	 9.136586e+00
0	 7.407407e-01	 3.703704e+00	 8.790750e+00
0	 7.407407e-01	 3.777778e+00	 8.839248e+00
0	 7.407407e-01	 3.851852e+00	 8.884830e+00
0	 7.407407e-01	 3.925926e+00	 8.927176e+00
0	 7.407407e-01	 4.000000e+00	 8.965966e+00
0	 7.407407e-01	 4.074074e+00	 9.000881e+00
0	 8.148148e-01	 3.703704e+00	 8.854423e+00
0	 8.148148e-01	 3.777778e+00	 8.897130e+00
0	 8.148148e-01	 3.851852e+00	 8.938011e+00
0	 8.148148e-01	 3.925926e+00	 8.976600e+00
0	 8.148148e-01	 4.000000e+00	 9.012430e+00
0	 8.148148e-01	 4.074074e+00	 9.045036e+00
0	 8.888889e-01	 3.703704e+00	 8.921664e+00
0	 8.888889e-01	 3.777778e+00	 8.959087e+00
0	 8.888889e-01	 3.851852e+00	 8.995425e+00
0	 8.888889e-01	 3.925926e+00	 9.030118e+00
0	 8.888889e-01	 4.000000e+00	 9.062603e+00
0	 8.888889e-01	 4.074074e+00	 9.092320e+00
0	 9.629630e-01	 3.703704e+00	 8.991652e+00
0	 9.629630e-01	 3.777778e+00	 9.024125e+00
0	 9.629630e-01	 3.851852e+00	 9.056005e+00
0	 9.629630e-01	 3.925926e+00	 9.086685e+00
0	 9.629630e-01	 4.000000e+00	 9.115562e+00
0	 9.629630e-01	 4.074074e+00	 9.142030e+00
0	 1.037037e+00	 3.703704e+00	 9.063566e+00
0	 1.037037e+00	 3.777778e+00	 9.091252e+00
0	 1.037037e+00	 3.851852e+00	 9.118681e+00
0	 1.037037e+00	 3.925926e+00	 9.145256e+00
0	 1.037037e+00	 4.000000e+00	 9.170382e+00
0	 1.037037e+00	 4.074074e+00	 9.193460e+00
0	 1.111111e+00	 3.703704e+00	 9.136586e+00
0	 1.111111e+00	 3.777778e+00	 9.159474e+00
0	 1.111111e+00	 3.851852e+00	 9.182387e+00
0	 1.111111e+00	 3.925926e+00	 9.204787e+00
0	 1.111111e+00	 4.000000e+00	 9.226139e+00
0	 1.111111e+00	 4.074074e+00	 9.245906e+00
0	 7.407407e-01	 4.074074e+00	 9.000881e+00
0	 7.407407e-01	 4.148148e+00	 9.033456e+00
0	 7.407407e-01	 4.222222e+00	 9.065556e+00
0	 7.407407e-01	 4.296296e+00	 9.097352e+00
0	 7.407407e-01	 4.370370e+00	 9.129015e+00
0	 7.407407e-01	 4.444444e+00	 9.160717e+00
0	 8.148148e-01	 4.074074e+00	 9.045036e+00
0	 8.148148e-01	 4.148148e+00	 9.075456e+00
0	 8.148148e-01	 4.222222e+00	 9.105217e+00
0	 8.148148e-01	 4.296296e+00	 9.134578e+00
0	 8.148148e-01	 4.370370e+00	 9.163801e+00
0	 8.148148e-01	 4.444444e+00	 9.193147e+00
0	 8.888889e-01	 4.074074e+00	 9.092320e+00
0	 8.888889e-01	 4.148148e+00	 9.120041e+00
0	 8.888889e-01	 4.222222e+00	 9.147127e+00
0	 8.888889e-01	 4.296296e+00	 9.173897e+00
0	 8.888889e-01	 4.370370e+00	 9.200673e+00
0	 8.888889e-01	 4.444444e+00	 9.227775e+00
0	 9.629630e-01	 4.074074e+00	 9.142030e+00
0	 9.629630e-01	 4.148148e+00	 9.166737e+00
0	 9.629630e-01	 4.222222e+00	 9.190967e+00
0	 9.629630e-01	 4.296296e+00	 9.215071e+00
0	 9.629630e-01	 4.370370e+00	 9.239400e+00
0	 9.629630e-01	 4.444444e+00	 9.264307e+00
0	 1.037037e+00	 4.074074e+00	 9.193460e+00
0	 1.037037e+00	 4.148148e+00	 9.215070e+00
0	 1.037037e+00	 4.222222e+00	 9.236421e+00
0	 1.037037e+00	 4.296296e+00	 9.257866e+00
0	 1.037037e+00	 4.370370e+00	 9.279757e+00
0	 1.037037e+00	 4.444444e+00	 9.302448e+00
0	 1.111111e+00	 4.074074e+00	 9.245906e+00
0	 1.111111e+00	 4.148148e+00	 9.264567e+00
0	 1.111111e+00	 4.222222e+00	 9.283171e+00
0	 1.111111e+00	 4.296296e+00	 9.302046e+00
0	 1.111111e+00	 4.370370e+00	 9.321514e+00
0	 1.111111e+00	 4.444444e+00	 9.341902e+00
0	 7.407407e-01	 4.444444e+00	 9.160717e+00
0	 7.407407e-01	 4.518519e+00	 9.191826e+00
0	 7.407407e-01	 4.592593e+00	 9.221548e+00
0	 7.407407e-01	 4.666667e+00	 9.249813e+00
0	 7.407407e-01	 4.740741e+00	 9.276550e+00
0	 7.407407e-01	 4.814815e+00	 9.301688e+00
0	 8.148148e-01	 4.444444e+00	 9.193147e+00
0	 8.148148e-01	 4.518519e+00	 9.222115e+00
0	 8.148148e-01	 4.592593e+00	 9.249958e+00
0	 8.148148e-01	 4.666667e+00	 9.276567e+00
0	 8.148148e-01	 4.740741e+00	 9.301831e+00
0	 8.148148e-01	 4.814815e+00	 9.325641e+00
0	 8.888889e-01	 4.444444e+00	 9.227775e+00
0	 8.888889e-01	 4.518519e+00	 9.254709e+00
0	 8.888889e-01	 4.592593e+00	 9.280675e+00
0	 8.888889e-01	 4.666667e+00	 9.305539e+00
0	 8.888889e-01	 4.740741e+00	 9.329169e+00
0	 8.888889e-01	 4.814815e+00	 9.351431e+00
0	 9.629630e-01	 4.444444e+00	 9.264307e+00
0	 9.629630e-01	 4.518519e+00	 9.289229e+00
0	 9.629630e-01	 4.592593e+00	 9.313275e+00
0	 9.629630e-01	 4.666667e+00	 9.336304e+00
0	 9.629630e-01	 4.740741e+00	 9.358176e+00
0	 9.629630e-01	 4.814815e+00	 9.378748e+00
0	 1.037037e+00	 4.444444e+00	 9.302448e+00
0	 1.037037e+00	 4.518519e+00	 9.325296e+00
0	 1.037037e+00	 4.592593e+00	 9.347337e+00
0	 1.037037e+00	 4.666667e+00	 9.368436e+00
0	 1.037037e+00	 4.740741e+00	 9.388462e+00
0	 1.037037e+00	 4.814815e+00	 9.407282e+00
0	 1.111111e+00	 4.444444e+00	 9.341902e+00
0	 1.111111e+00	 4.518519e+00	 9.362531e+00
0	 1.111111e+00	 4.592593e+00	 9.382436e+00
0	 1.111111e+00	 4.666667e+00	 9.401509e+00
0	 1.111111e+00	 4.740741e+00	 9.419641e+00
0	 1.111111e+00	 4.814815e+00	 9.436723e+00
0	 7.407407e-01	 4.814815e+00	 9.301688e+00
0	 7.407407e-01	 4.888889e+00	 9.325704e+00
0	 7.407407e-01	 4.962963e+00	 9.349138e+00
0	 7.407407e-01	 5.037037e+00	 9.372019e+00
0	 7.407407e-01	 5.111111e+00	 9.394376e+00
0	 7.407407e-01	 5.185185e+00	 9.416236e+00
0	 8.148148e-01	 4.814815e+00	 9.325641e+00
0	 8.148148e-01	 4.888889e+00	 9.348381e+00
0	 8.148148e-01	 4.962963e+00	 9.370547e+00
0	 8.148148e-01	 5.037037e+00	 9.392193e+00
0	 8.148148e-01	 5.111111e+00	 9.413374e+00
0	 8.148148e-01	 5.185185e+00	 9.434142e+00
0	 8.888889e-01	 4.814815e+00	 9.351431e+00
0	 8.888889e-01	 4.888889e+00	 9.372688e+00
0	 8.888889e-01	 4.962963e+00	 9.393442e+00
0	 8.888889e-01	 5.037037e+00	 9.413764e+00
0	 8.888889e-01	 5.111111e+00	 9.433724e+00
0	 8.888889e-01	 5.185185e+00	 9.453396e+00
0	 9.629630e-01	 4.814815e+00	 9.378748e+00
0	 9.629630e-01	 4.888889e+00	 9.398400e+00
0	 9.629630e-01	 4.962963e+00	 9.417657e+00
0	 9.629630e-01	 5.037037e+00	 9.436600e+00
0	 9.629630e-01	 5.111111e+00	 9.455307e+00
0	 9.629630e-01	 5.185185e+00	 9.473858e+00
0	 1.037037e+00	 4.814815e+00	 9.407282e+00
0	 1.037037e+00	 4.888889e+00	 9.425292e+00
0	 1.037037e+00	 4.962963e+00	 9.443028e+00
0	 1.037037e+00	 5.037037e+00	 9.460571e+00
0	 1.037037e+00	 5.111111e+00	 9.477998e+00
0	 1.037037e+00	 5.185185e+00	 9.495390e+00
0	 1.111111e+00	 4.814815e+00	 9.436723e+00
0	 1.111111e+00	 4.888889e+00	 9.453139e+00
0	 1.111111e+00	 4.962963e+00	 9.469390e+00
0	 1.111111e+00	 5.037037e+00	 9.485547e+00
0	 1.111111e+00	 5.111111e+00	 9.501678e+00
0	 1.111111e+00	 5.185185e+00	 9.517855e+00
0	 7.407407e-01	 5.185185e+00	 9.416236e+00
0	 7.407407e-01	 5.259259e+00	 9.437491e+00
0	 7.407407e-01	 5.333333e+00	 9.458005e+00
0	 7.407407e-01	 5.407407e+00	 9.477765e+00
0	 7.407407e-01	 5.481481e+00	 9.496755e+00
0	 7.407407e-01	 5.555556e+00	 9.514963e+00
0	 8.148148e-01	 5.185185e+00	 9.434142e+00
0	 8.148148e-01	 5.259259e+00	 9.454401e+00
0	 8.148148e-01	 5.333333e+00	 9.473997e+00
0	 8.148148e-01	 5.407407e+00	 9.492907e+00
0	 8.148148e-01	 5.481481e+00	 9.511107e+00
0	 8.148148e-01	 5.555556e+00	 9.528572e+00
0	 8.888889e-01	 5.185185e+00	 9.453396e+00
0	 8.888889e-01	 5.259259e+00	 9.472651e+00
0	 8.888889e-01	 5.333333e+00	 9.491296e+00
0	 8.888889e-01	 5.407407e+00	 9.509301e+00
0	 8.888889e-01	 5.481481e+00	 9.526637e+00
0	 8.888889e-01	 5.555556e+00	 9.543273e+00
0	 9.629630e-01	 5.185185e+00	 9.473858e+00
0	 9.629630e-01	 5.259259e+00	 9.492081e+00
0	 9.629630e-01	 5.333333e+00	 9.509730e+00
0	 9.629630e-01	 5.407407e+00	 9.526774e+00
0	 9.629630e-01	 5.481481e+00	 9.543183e+00
0	 9.629630e-01	 5.555556e+00	 9.558926e+00
0	 1.037037e+00	 5.185185e+00	 9.495390e+00
0	 1.037037e+00	 5.259259e+00	 9.512529e+00
0	 1.037037e+00	 5.333333e+00	 9.529125e+00
0	 1.037037e+00	 5.407407e+00	 9.545153e+00
0	 1.037037e+00	 5.481481e+00	 9.560586e+00
0	 1.037037e+00	 5.555556e+00	 9.575398e+00
0	 1.111111e+00	 5.185185e+00	 9.517855e+00
0	 1.111111e+00	 5.259259e+00	 9.533832e+00
0	 1.111111e+00	 5.333333e+00	 9.549307e+00
0	 1.111111e+00	 5.407407e+00	 9.564264e+00
0	 1.111111e+00	 5.481481e+00	 9.578684e+00
0	 1.111111e+00	 5.555556e+00	 9.592549e+00
0	 7.407407e-01	 5.555556e+00	 9.514963e+00
0	 7.407407e-01	 5.629630e+00	 9.532542e+00
0	 7.407407e-01	 5.703704e+00	 9.549658e+00
0	 7.407407e-01	 5.777778e+00	 9.566313e+00
0	 7.407407e-01	 5.851852e+00	 9.582508e+00
0	 7.407407e-01	 5.925926e+00	 9.598246e+00
0	 8.148148e-01	 5.555556e+00	 9.528572e+00
0	 8.148148e-01	 5.629630e+00	 9.545439e+00
0	 8.148148e-01	 5.703704e+00	 9.561865e+00
0	 8.148148e-01	 5.777778e+00	 9.577860e+00
0	 8.148148e-01	 5.851852e+00	 9.593434e+00
0	 8.148148e-01	 5.925926e+00	 9.608596e+00
0	 8.888889e-01	 5.555556e+00	 9.543273e+00
0	 8.888889e-01	 5.629630e+00	 9.559344e+00
0	 8.888889e-01	 5.703704e+00	 9.575015e+00
0	 8.888889e-01	 5.777778e+00	 9.590301e+00
0	 8.888889e-01	 5.851852e+00	 9.605215e+00
0	 8.888889e-01	 5.925926e+00	 9.619773e+00
0	 9.629630e-01	 5.555556e+00	 9.558926e+00
0	 9.629630e-01	 5.629630e+00	 9.574147e+00
0	 9.629630e-01	 5.703704e+00	 9.589018e+00
0	 9.629630e-01	 5.777778e+00	 9.603556e+00
0	 9.629630e-01	 5.851852e+00	 9.617779e+00
0	 9.629630e-01	 5.925926e+00	 9.631704e+00
0	 1.037037e+00	 5.555556e+00	 9.575398e+00
0	 1.037037e+00	 5.629630e+00	 9.589737e+00
0	 1.037037e+00	 5.703704e+00	 9.603782e+00
0	 1.037037e+00	 5.777778e+00	 9.617549e+00
0	 1.037037e+00	 5.851852e+00	 9.631055e+00
0	 1.037037e+00	 5.925926e+00	 9.644317e+00
0	 1.111111e+00	 5.555556e+00	 9.592549e+00
0	 1.111111e+00	 5.629630e+00	 9.606006e+00
0	 1.111111e+00	 5.703704e+00	 9.619218e+00
0	 1.111111e+00	 5.777778e+00	 9.632202e+00
0	 1.111111e+00	 5.851852e+00	 9.644970e+00
0	 1.111111e+00	 5.925926e+00	 9.657538e+00
0	 7.407407e-01	 5.925926e+00	 9.598246e+00
0	 7.407407e-01	 6.000000e+00	 9.613534e+00
0	 7.407407e-01	 6.074074e+00	 9.628374e+00
0	 7.407407e-01	 6.148148e+00	 9.642765e+00
0	 7.407407e-01	 6.222222e+00	 9.656702e+00
0	 7.407407e-01	 6.296296e+00	 9.670183e+00
0	 8.148148e-01	 5.925926e+00	 9.608596e+00
0	 8.148148e-01	 6.000000e+00	 9.623348e+00
0	 8.148148e-01	 6.074074e+00	 9.637682e+00
0	 8.148148e-01	 6.148148e+00	 9.651593e+00
0	 8.148148e-01	 6.222222e+00	 9.665077e+00
0	 8.148148e-01	 6.296296e+00	 9.678127e+00
0	 8.888889e-01	 5.925926e+00	 9.619773e+00
0	 8.888889e-01	 6.000000e+00	 9.633962e+00
0	 8.888889e-01	 6.074074e+00	 9.647759e+00
0	 8.888889e-01	 6.148148e+00	 9.661156e+00
0	 8.888889e-01	 6.222222e+00	 9.674147e+00
0	 8.888889e-01	 6.296296e+00	 9.686726e+00
0	 9.629630e-01	 5.925926e+00	 9.631704e+00
0	 9.629630e-01	 6.000000e+00	 9.645301e+00
0	 9.629630e-01	 6.074074e+00	 9.658527e+00
0	 9.629630e-01	 6.148148e+00	 9.671375e+00
0	 9.629630e-01	 6.222222e+00	 9.683841e+00
0	 9.629630e-01	 6.296296e+00	 9.695917e+00
0	 1.037037e+00	 5.925926e+00	 9.644317e+00
0	 1.037037e+00	 6.000000e+00	 9.657289e+00
0	 1.037037e+00	 6.074074e+00	 9.669910e+00
0	 1.037037e+00	 6.148148e+00	 9.682178e+00
0	 1.037037e+00	 6.222222e+00	 9.694088e+00
0	 1.037037e+00	 6.296296e+00	 9.705635e+00
0	 1.111111e+00	 5.925926e+00	 9.657538e+00
0	 1.111111e+00	 6.000000e+00	 9.669847e+00
0	 1.111111e+00	 6.074074e+00	 9.681831e+00
0	 1.111111e+00	 6.148148e+00	 9.693488e+00
0	 1.111111e+00	 6.222222e+00	 9.704818e+00
0	 1.111111e+00	 6.296296e+00	 9.715818e+00
0	 7.407407e-01	 6.296296e+00	 9.670183e+00
0	 7.407407e-01	 6.370370e+00	 9.683265e+00
0	 7.407407e-01	 6.444444e+00	 9.696008e+00
0	 7.407407e-01	 6.518519e+00	 9.708411e+00
0	 7.407407e-01	 6.592593e+00	 9.720474e+00
0	 7.407407e-01	 6.666667e+00	 9.732198e+00
0	 8.148148e-01	 6.296296e+00	 9.678127e+00
0	 8.148148e-01	 6.370370e+00	 9.690797e+00
0	 8.148148e-01	 6.444444e+00	 9.703144e+00
0	 8.148148e-01	 6.518519e+00	 9.715169e+00
0	 8.148148e-01	 6.592593e+00	 9.726875e+00
0	 8.148148e-01	 6.666667e+00	 9.738264e+00
0	 8.888889e-01	 6.296296e+00	 9.686726e+00
0	 8.888889e-01	 6.370370e+00	 9.698946e+00
0	 8.888889e-01	 6.444444e+00	 9.710863e+00
0	 8.888889e-01	 6.518519e+00	 9.722481e+00
0	 8.888889e-01	 6.592593e+00	 9.733803e+00
0	 8.888889e-01	 6.666667e+00	 9.744832e+00
0	 9.629630e-01	 6.296296e+00	 9.695917e+00
0	 9.629630e-01	 6.370370e+00	 9.707656e+00
0	 9.629630e-01	 6.444444e+00	 9.719116e+00
0	 9.629630e-01	 6.518519e+00	 9.730301e+00
0	 9.629630e-01	 6.592593e+00	 9.741216e+00
0	 9.629630e-01	 6.666667e+00	 9.751864e+00
0	 1.037037e+00	 6.296296e+00	 9.705635e+00
0	 1.037037e+00	 6.370370e+00	 9.716871e+00
0	 1.037037e+00	 6.444444e+00	 9.727854e+00
0	 1.037037e+00	 6.518519e+00	 9.738587e+00
0	 1.037037e+00	 6.592593e+00	 9.749073e+00
0	 1.037037e+00	 6.666667e+00	 9.759319e+00
0	 1.111111e+00	 6.296296e+00	 9.715818e+00
0	 1.111111e+00	 6.370370e+00	 9.726537e+00
0	 1.111111e+00	 6.444444e+00	 9.737027e+00
0	 1.111111e+00	 6.518519e+00	 9.747292e+00
0	 1.111111e+00	 6.592593e+00	 9.757334e+00
0	 1.111111e+00	 6.666667e+00	 9.767157e+00
0	 7.407407e-01	 6.666667e+00	 9.732198e+00
0	 7.407407e-01	 6.740741e+00	 9.743600e+00
0	 7.407407e-01	 6.814815e+00	 9.754699e+00
0	 7.407407e-01	 6.888889e+00	 9.765495e+00
0	 7.407407e-01	 6.962963e+00	 9.775988e+00
0	 7.407407e-01	 7.037037e+00	 9.786179e+00
0	 8.148148e-01	 6.666667e+00	 9.738264e+00
0	 8.148148e-01	 6.740741e+00	 9.749349e+00
0	 8.148148e-01	 6.814815e+00	 9.760145e+00
0	 8.148148e-01	 6.888889e+00	 9.770652e+00
0	 8.148148e-01	 6.962963e+00	 9.780869e+00
0	 8.148148e-01	 7.037037e+00	 9.790796e+00
0	 8.888889e-01	 6.666667e+00	 9.744832e+00
0	 8.888889e-01	 6.740741e+00	 9.755578e+00
0	 8.888889e-01	 6.814815e+00	 9.766048e+00
0	 8.888889e-01	 6.888889e+00	 9.776242e+00
0	 8.888889e-01	 6.962963e+00	 9.786160e+00
0	 8.888889e-01	 7.037037e+00	 9.795801e+00
0	 9.629630e-01	 6.666667e+00	 9.751864e+00
0	 9.629630e-01	 6.740741e+00	 9.762248e+00
0	 9.629630e-01	 6.814815e+00	 9.772370e+00
0	 9.629630e-01	 6.888889e+00	 9.782230e+00
0	 9.629630e-01	 6.962963e+00	 9.791827e+00
0	 9.629630e-01	 7.037037e+00	 9.801163e+00
0	 1.037037e+00	 6.666667e+00	 9.759319e+00
0	 1.037037e+00	 6.740741e+00	 9.769320e+00
0	 1.037037e+00	 6.814815e+00	 9.779074e+00
0	 1.037037e+00	 6.888889e+00	 9.788579e+00
0	 1.037037e+00	 6.962963e+00	 9.797838e+00
0	 1.037037e+00	 7.037037e+00	 9.806851e+00
0	 1.111111e+00	 6.666667e+00	 9.767157e+00
0	 1.111111e+00	 6.740741e+00	 9.776756e+00
0	 1.111111e+00	 6.814815e+00	 9.786121e+00
0	 1.111111e+00	 6.888889e+00	 9.795254e+00
0	 1.111111e+00	 6.962963e+00	 9.804158e+00
0	 1.111111e+00	 7.037037e+00	 9.812834e+00
0	 7.407407e-01	 7.037037e+00	 9.786179e+00
0	 7.407407e-01	 7.111111e+00	 9.796089e+00
0	 7.407407e-01	 7.185185e+00	 9.805743e+00
0	 7.407407e-01	 7.259259e+00	 9.815142e+00
0	 7.407407e-01	 7.333333e+00	 9.824288e+00
0	 7.407407e-01	 7.407407e+00	 9.833181e+00
0	 8.148148e-01	 7.037037e+00	 9.790796e+00
0	 8.148148e-01	 7.111111e+00	 9.800454e+00
0	 8.148148e-01	 7.185185e+00	 9.809865e+00
0	 8.148148e-01	 7.259259e+00	 9.819032e+00
0	 8.148148e-01	 7.333333e+00	 9.827957e+00
0	 8.148148e-01	 7.407407e+00	 9.836640e+00
0	 8.888889e-01	 7.037037e+00	 9.795801e+00
0	 8.888889e-01	 7.111111e+00	 9.805185e+00
0	 8.888889e-01	 7.185185e+00	 9.814334e+00
0	 8.888889e-01	 7.259259e+00	 9.823250e+00
0	 8.888889e-01	 7.333333e+00	 9.831936e+00
0	 8.888889e-01	 7.407407e+00	 9.840393e+00
0	 9.629630e-01	 7.037037e+00	 9.801163e+00
0	 9.629630e-01	 7.111111e+00	 9.810255e+00
0	 9.629630e-01	 7.185185e+00	 9.819124e+00
0	 9.629630e-01	 7.259259e+00	 9.827772e+00
0	 9.629630e-01	 7.333333e+00	 9.836202e+00
0	 9.629630e-01	 7.407407e+00	 9.844417e+00
0	 1.037037e+00	 7.037037e+00	 9.806851e+00
0	 1.037037e+00	 7.111111e+00	 9.815635e+00
0	 1.037037e+00	 7.185185e+00	 9.824209e+00
0	 1.037037e+00	 7.259259e+00	 9.832574e+00
0	 1.037037e+00	 7.333333e+00	 9.840734e+00
0	 1.037037e+00	 7.407407e+00	 9.848691e+00
0	 1.111111e+00	 7.037037e+00	 9.812834e+00
0	 1.111111e+00	 7.111111e+00	 9.821296e+00
0	 1.111111e+00	 7.185185e+00	 9.829561e+00
0	 1.111111e+00	 7.259259e+00	 9.837630e+00
0	 1.111111e+00	 7.333333e+00	 9.845507e+00
0	 1.111111e+00	 7.407407e+00	 9.853194e+00
0	 7.407407e-01	 7.407407e+00	 9.833181e+00
0	 7.407407e-01	 7.481481e+00	 9.841831e+00
0	 7.407407e-01	 7.555556e+00	 9.850247e+00
0	 7.407407e-01	 7.629630e+00	 9.858430e+00
0	 7.407407e-01	 7.703704e+00	 9.866385e+00
0	 7.407407e-01	 7.777778e+00	 9.874112e+00
0	 8.148148e-01	 7.407407e+00	 9.836640e+00
0	 8.148148e-01	 7.481481e+00	 9.845090e+00
0	 8.148148e-01	 7.555556e+00	 9.853313e+00
0	 8.148148e-01	 7.629630e+00	 9.861311e+00
0	 8.148148e-01	 7.703704e+00	 9.869088e+00
0	 8.148148e-01	 7.777778e+00	 9.876646e+00
0	 8.888889e-01	 7.407407e+00	 9.840393e+00
0	 8.888889e-01	 7.481481e+00	 9.848626e+00
0	 8.888889e-01	 7.555556e+00	 9.856640e+00
0	 8.888889e-01	 7.629630e+00	 9.864438e+00
0	 8.888889e-01	 7.703704e+00	 9.872023e+00
0	 8.888889e-01	 7.777778e+00	 9.879396e+00
0	 9.629630e-01	 7.407407e+00	 9.844417e+00
0	 9.629630e-01	 7.481481e+00	 9.852418e+00
0	 9.629630e-01	 7.555556e+00	 9.860209e+00
0	 9.629630e-01	 7.629630e+00	 9.867792e+00
0	 9.629630e-01	 7.703704e+00	 9.875171e+00
0	 9.629630e-01	 7.777778e+00	 9.882348e+00
0	 1.037037e+00	 7.407407e+00	 9.848691e+00
0	 1.037037e+00	 7.481481e+00	 9.856446e+00
0	 1.037037e+00	 7.555556e+00	 9.864000e+00
0	 1.037037e+00	 7.629630e+00	 9.871355e+00
0	 1.037037e+00	 7.703704e+00	 9.878515e+00
0	 1.037037e+00	 7.777778e+00	 9.885483e+00
0	 1.111111e+00	 7.407407e+00	 9.853194e+00
0	 1.111111e+00	 7.481481e+00	 9.860690e+00
0	 1.111111e+00	 7.555556e+00	 9.867994e+00
0	 1.111111e+00	 7.629630e+00	 9.875110e+00
0	 1.111111e+00	 7.703704e+00	 9.882040e+00
0	 1.111111e+00	 7.777778e+00	 9.888788e+00
0	 7.407407e-01	 7.777778e+00	 9.874112e+00
0	 7.407407e-01	 7.851852e+00	 9.881616e+00
0	 7.407407e-01	 7.925926e+00	 9.888901e+00
0	 7.407407e-01	 8.000000e+00	 9.895970e+00
0	 7.407407e-01	 8.074074e+00	 9.902828e+00
0	 7.407407e-01	 8.148148e+00	 9.909480e+00
0	 8.148148e-01	 7.777778e+00	 9.876646e+00
0	 8.148148e-01	 7.851852e+00	 9.883987e+00
0	 8.148148e-01	 7.925926e+00	 9.891115e+00
0	 8.148148e-01	 8.000000e+00	 9.898034e+00
0	 8.148148e-01	 8.074074e+00	 9.904748e+00
0	 8.148148e-01	 8.148148e+00	 9.911262e+00
0	 8.888889e-01	 7.777778e+00	 9.879396e+00
0	 8.888889e-01	 7.851852e+00	 9.886561e+00
0	 8.888889e-01	 7.925926e+00	 9.893519e+00
0	 8.888889e-01	 8.000000e+00	 9.900276e+00
0	 8.888889e-01	 8.074074e+00	 9.906834e+00
0	 8.888889e-01	 8.148148e+00	 9.913199e+00
0	 9.629630e-01	 7.777778e+00	 9.882348e+00
0	 9.629630e-01	 7.851852e+00	 9.889323e+00
0	 9.629630e-01	 7.925926e+00	 9.896100e+00
0	 9.629630e-01	 8.000000e+00	 9.902682e+00
0	 9.629630e-01	 8.074074e+00	 9.909073e+00
0	 9.629630e-01	 8.148148e+00	 9.915278e+00
0	 1.037037e+00	 7.777778e+00	 9.885483e+00
0	 1.037037e+00	 7.851852e+00	 9.892259e+00
0	 1.037037e+00	 7.925926e+00	 9.898843e+00
0	 1.037037e+00	 8.000000e+00	 9.905240e+00
0	 1.037037e+00	 8.074074e+00	 9.911453e+00
0	 1.037037e+00	 8.148148e+00	 9.917488e+00
0	 1.111111e+00	 7.777778e+00	 9.888788e+00
0	 1.111111e+00	 7.851852e+00	 9.895354e+00
0	 1.111111e+00	 7.925926e+00	 9.901735e+00
0	 1.111111e+00	 8.000000e+00	 9.907937e+00
0	 1.111111e+00	 8.074074e+00	 9.913963e+00
0	 1.111111e+00	 8.148148e+00	 9.919819e+00
0	 7.407407e-01	 8.148148e+00	 9.909480e+00
0	 7.407407e-01	 8.222222e+00	 9.915918e+00
0	 7.407407e-01	 8.296296e+00	 9.922137e+00
0	 7.407407e-01	 8.370370e+00	 9.928144e+00
0	 7.407407e-01	 8.444444e+00	 9.933943e+00
0	 7.407407e-01	 8.518519e+00	 9.939541e+00
0	 8.148148e-01	 8.148148e+00	 9.911262e+00
0	 8.148148e-01	 8.222222e+00	 9.917569e+00
0	 8.148148e-01	 8.296296e+00	 9.923662e+00
0	 8.148148e-01	 8.370370e+00	 9.929546e+00
0	 8.148148e-01	 8.444444e+00	 9.935230e+00
0	 8.148148e-01	 8.518519e+00	 9.940717e+00
0	 8.888889e-01	 8.148148e+00	 9.913199e+00
0	 8.888889e-01	 8.222222e+00	 9.919363e+00
0	 8.888889e-01	 8.296296e+00	 9.925318e+00
0	 8.888889e-01	 8.370370e+00	 9.931071e+00
0	 8.888889e-01	 8.444444e+00	 9.936628e+00
0	 8.888889e-01	 8.518519e+00	 9.941995e+00
0	 9.629630e-01	 8.148148e+00	 9.915278e+00
0	 9.629630e-01	 8.222222e+00	 9.921288e+00
0	 9.629630e-01	 8.296296e+00	 9.927096e+00
0	 9.629630e-01	 8.370370e+00	 9.932708e+00
0	 9.629630e-01	 8.444444e+00	 9.938130e+00
0	 9.629630e-01	 8.518519e+00	 9.943367e+00
0	 1.037037e+00	 8.148148e+00	 9.917488e+00
0	 1.037037e+00	 8.222222e+00	 9.923336e+00
0	 1.037037e+00	 8.296296e+00	 9.928987e+00
0	 1.037037e+00	 8.370370e+00	 9.934449e+00
0	 1.037037e+00	 8.444444e+00	 9.939727e+00
0	 1.037037e+00	 8.518519e+00	 9.944827e+00
0	 1.111111e+00	 8.148148e+00	 9.919819e+00
0	 1.111111e+00	 8.222222e+00	 9.925494e+00
0	 1.111111e+00	 8.296296e+00	 9.930981e+00
0	 1.111111e+00	 8.370370e+00	 9.936284e+00
0	 1.111111e+00	 8.444444e+00	 9.941410e+00
0	 1.111111e+00	 8.518519e+00	 9.946364e+00
0	 7.407407e-01	 8.518519e+00	 9.939541e+00
0	 7.407407e-01	 8.592593e+00	 9.944923e+00
0	 7.407407e-01	 8.666667e+00	 9.950074e+00
0	 7.407407e-01	 8.740741e+00	 9.955003e+00
0	 7.407407e-01	 8.814815e+00	 9.959718e+00
0	 7.407407e-01	 8.888889e+00	 9.964227e+00
0	 8.148148e-01	 8.518519e+00	 9.940717e+00
0	 8.148148e-01	 8.592593e+00	 9.945992e+00
0	 8.148148e-01	 8.666667e+00	 9.951042e+00
0	 8.148148e-01	 8.740741e+00	 9.955874e+00
0	 8.148148e-01	 8.814815e+00	 9.960497e+00
0	 8.148148e-01	 8.888889e+00	 9.964918e+00
0	 8.888889e-01	 8.518519e+00	 9.941995e+00
0	 8.888889e-01	 8.592593e+00	 9.947155e+00
0	 8.888889e-01	 8.666667e+00	 9.952095e+00
0	 8.888889e-01	 8.740741e+00	 9.956822e+00
0	 8.888889e-01	 8.814815e+00	 9.961345e+00
0	 8.888889e-01	 8.888889e+00	 9.965672e+00
0	 9.629630e-01	 8.518519e+00	 9.943367e+00
0	 9.629630e-01	 8.592593e+00	 9.948404e+00
0	 9.629630e-01	 8.666667e+00	 9.953226e+00
0	 9.629630e-01	 8.740741e+00	 9.957841e+00
0	 9.629630e-01	 8.814815e+00	 9.962257e+00
0	 9.629630e-01	 8.888889e+00	 9.966482e+00
0	 1.037037e+00	 8.518519e+00	 9.944827e+00
0	 1.037037e+00	 8.592593e+00	 9.949732e+00
0	 1.037037e+00	 8.666667e+00	 9.954429e+00
0	 1.037037e+00	 8.740741e+00	 9.958924e+00
0	 1.037037e+00	 8.814815e+00	 9.963226e+00
0	 1.037037e+00	 8.888889e+00	 9.967342e+00
0	 1.111111e+00	 8.518519e+00	 9.946364e+00
0	 1.111111e+00	 8.592593e+00	 9.951131e+00
0	 1.111111e+00	 8.666667e+00	 9.955695e+00
0	 1.111111e+00	 8.740741e+00	 9.960064e+00
0	 1.111111e+00	 8.814815e+00	 9.964246e+00
0	 1.111111e+00	 8.888889e+00	 9.968248e+00
0	 7.407407e-01	 8.888889e+00	 9.964227e+00
0	 7.407407e-01	 8.962963e+00	 9.968503e+00
0	 7.407407e-01	 9.037037e+00	 9.972522e+00
0	 7.407407e-01	 9.111111e+00	 9.976295e+00
0	 7.407407e-01	 9.185185e+00	 9.979833e+00
0	 7.407407e-01	 9.259259e+00	 9.983148e+00
0	 8.148148e-01	 8.888889e+00	 9.964918e+00
0	 8.148148e-01	 8.962963e+00	 9.969112e+00
0	 8.148148e-01	 9.037037e+00	 9.973053e+00
0	 8.148148e-01	 9.111111e+00	 9.976753e+00
0	 8.148148e-01	 9.185185e+00	 9.980223e+00
0	 8.148148e-01	 9.259259e+00	 9.983473e+00
0	 8.888889e-01	 8.888889e+00	 9.965672e+00
0	 8.888889e-01	 8.962963e+00	 9.969776e+00
0	 8.888889e-01	 9.037037e+00	 9.973633e+00
0	 8.888889e-01	 9.111111e+00	 9.977254e+00
0	 8.888889e-01	 9.185185e+00	 9.980650e+00
0	 8.888889e-01	 9.259259e+00	 9.983831e+00
0	 9.629630e-01	 8.888889e+00	 9.966482e+00
0	 9.629630e-01	 8.962963e+00	 9.970490e+00
0	 9.629630e-01	 9.037037e+00	 9.974256e+00
0	 9.629630e-01	 9.111111e+00	 9.977793e+00
0	 9.629630e-01	 9.185185e+00	 9.981109e+00
0	 9.629630e-01	 9.259259e+00	 9.984215e+00
0	 1.037037e+00	 8.888889e+00	 9.967342e+00
0	 1.037037e+00	 8.962963e+00	 9.971248e+00
0	 1.037037e+00	 9.037037e+00	 9.974918e+00
0	 1.037037e+00	 9.111111e+00	 9.978364e+00
0	 1.037037e+00	 9.185185e+00	 9.981595e+00
0	 1.037037e+00	 9.259259e+00	 9.984623e+00
0	 1.111111e+00	 8.888889e+00	 9.968248e+00
0	 1.111111e+00	 8.962963e+00	 9.972045e+00
0	 1.111111e+00	 9.037037e+00	 9.975613e+00
0	 1.111111e+00	 9.111111e+00	 9.978963e+00
0	 1.111111e+00	 9.185185e+00	 9.982105e+00
0	 1.111111e+00	 9.259259e+00	 9.985048e+00
0	 7.407407e-01	 9.259259e+00	 9.983148e+00
0	 7.407407e-01	 9.333333e+00	 9.986197e+00
0	 7.407407e-01	 9.407407e+00	 9.988941e+00
0	 7.407407e-01	 9.481481e+00	 9.991395e+00
0	 7.407407e-01	 9.555556e+00	 9.993575e+00
0	 7.407407e-01	 9.629630e+00	 9.995496e+00
0	 8.148148e-01	 9.259259e+00	 9.983473e+00
0	 8.148148e-01	 9.333333e+00	 9.986463e+00
0	 8.148148e-01	 9.407407e+00	 9.989154e+00
0	 8.148148e-01	 9.481481e+00	 9.991561e+00
0	 8.148148e-01	 9.555556e+00	 9.993699e+00
0	 8.148148e-01	 9.629630e+00	 9.995582e+00
0	 8.888889e-01	 9.259259e+00	 9.983831e+00
0	 8.888889e-01	 9.333333e+00	 9.986757e+00
0	 8.888889e-01	 9.407407e+00	 9.989391e+00
0	 8.888889e-01	 9.481481e+00	 9.991746e+00
0	 8.888889e-01	 9.555556e+00	 9.993838e+00
0	 8.888889e-01	 9.629630e+00	 9.995680e+00
0	 9.629630e-01	 9.259259e+00	 9.984215e+00
0	 9.629630e-01	 9.333333e+00	 9.987073e+00
0	 9.629630e-01	 9.407407e+00	 9.989645e+00
0	 9.629630e-01	 9.481481e+00	 9.991946e+00
0	 9.629630e-01	 9.555556e+00	 9.993988e+00
0	 9.629630e-01	 9.629630e+00	 9.995787e+00
0	 1.037037e+00	 9.259259e+00	 9.984623e+00
0	 1.037037e+00	 9.333333e+00	 9.987408e+00
0	 1.037037e+00	 9.407407e+00	 9.989914e+00
0	 1.037037e+00	 9.481481e+00	 9.992156e+00
0	 1.037037e+00	 9.555556e+00	 9.994146e+00
0	 1.037037e+00	 9.629630e+00	 9.995898e+00
0	 1.111111e+00	 9.259259e+00	 9.985048e+00
0	 1.111111e+00	 9.333333e+00	 9.987756e+00
0	 1.111111e+00	 9.407407e+00	 9.990193e+00
0	 1.111111e+00	 9.481481e+00	 9.992372e+00
0	 1.111111e+00	 9.555556e+00	 9.994306e+00
0	 1.111111e+00	 9.629630e+00	 9.996009e+00
0	 7.407407e-01	 9.629630e+00	 9.995496e+00
0	 7.407407e-01	 9.703704e+00	 9.997101e+00
0	 7.407407e-01	 9.777778e+00	 9.998339e+00
0	 7.407407e-01	 9.851852e+00	 9.999229e+00
0	 7.407407e-01	 9.925926e+00	 9.999792e+00
0	 7.407407e-01	 1.000000e+01	 1.000005e+01
0	 8.148148e-01	 9.629630e+00	 9.995582e+00
0	 8.148148e-01	 9.703704e+00	 9.997156e+00
0	 8.148148e-01	 9.777778e+00	 9.998369e+00
0	 8.148148e-01	 9.851852e+00	 9.999242e+00
0	 8.148148e-01	 9.925926e+00	 9.999793e+00
0	 8.148148e-01	 1.000000e+01	 1.000004e+01
0	 8.888889e-01	 9.629630e+00	 9.995680e+00
0	 8.888889e-01	 9.703704e+00	 9.997220e+00
0	 8.888889e-01	 9.777778e+00	 9.998408e+00
0	 8.888889e-01	 9.851852e+00	 9.999261e+00
0	 8.888889e-01	 9.925926e+00	 9.999800e+00
0	 8.888889e-01	 1.000000e+01	 1.000004e+01
0	 9.629630e-01	 9.629630e+00	 9.995787e+00
0	 9.629630e-01	 9.703704e+00	 9.997290e+00
0	 9.629630e-01	 9.777778e+00	 9.998450e+00
0	 9.629630e-01	 9.851852e+00	 9.999283e+00
0	 9.629630e-01	 9.925926e+00	 9.999810e+00
0	 9.629630e-01	 1.000000e+01	 1.000005e+01
0	 1.037037e+00	 9.629630e+00	 9.995898e+00
0	 1.037037e+00	 9.703704e+00	 9.997363e+00
0	 1.037037e+00	 9.777778e+00	 9.998492e+00
0	 1.037037e+00	 9.851852e+00	 9.999304e+00
0	 1.037037e+00	 9.925926e+00	 9.999817e+00
0	 1.037037e+00	 1.000000e+01	 1.000005e+01
0	 1.111111e+00	 9.629630e+00	 9.996009e+00
0	 1.111111e+00	 9.703704e+00	 9.997433e+00
0	 1.111111e+00	 9.777778e+00	 9.998530e+00
0	 1.111111e+00	 9.851852e+00	 9.999319e+00
0	 1.111111e+00	 9.925926e+00	 9.999817e+00
0	 1.111111e+00	 1.000000e+01	 1.000004e+01
0	 1.111111e+00	 0.000000e+00	 1.011023e-01
0	 1.111111e+00	 7.407407e-02	-2.363287e+00
0	 1.111111e+00	 1.481481e-01	-3.858143e+00
0	 1.111111e+00	 2.222222e-01	-4.371524e+00
0	 1.111111e+00	 2.962963e-01	-3.891487e+00
0	 1.111111e+00	 3.703704e-01	-2.406093e+00
0	 1.185185e+00	 0.000000e+00	-2.607680e-01
0	 1.185185e+00	 7.407407e-02	-3.097397e+00
0	 1.185185e+00	 1.481481e-01	-4.853706e+00
0	 1.185185e+00	 2.222222e-01	-5.482285e+00
0	 1.185185e+00	 2.962963e-01	-4.935719e+00
0	 1.185185e+00	 3.703704e-01	-3.166597e+00
0	 1.259259e+00	 0.000000e+00	-8.638342e-01
0	 1.259259e+00	 7.407407e-02	-3.510427e+00
0	 1.259259e+00	 1.481481e-01	-5.091943e+00
0	 1.259259e+00	 2.222222e-01	-5.540958e+00
0	 1.259259e+00	 2.962963e-01	-4.790046e+00
0	 1.259259e+00	 3.703704e-01	-2.771781e+00
0	 1.333333e+00	 0.000000e+00	-1.688863e+00
0	 1.333333e+00	 7.407407e-02	-3.682617e+00
0	 1.333333e+00	 1.481481e-01	-4.723474e+00
0	 1.333333e+00	 2.222222e-01	-4.739453e+00
0	 1.333333e+00	 2.962963e-01	-3.658572e+00
0	 1.333333e+00	 3.703704e-01	-1.408850e+00
0	 1.407407e+00	 0.000000e+00	-2.716620e+00
0	 1.407407e+00	 7.407407e-02	-3.694209e+00
0	 1.407407e+00	 1.481481e-01	-3.898921e+00
0	 1.407407e+00	 2.222222e-01	-3.269679e+00
0	 1.407407e+00	 2.962963e-01	-1.745402e+00
0	 1.407407e+00	 3.703704e-01	 7.349877e-01
0	 1.481481e+00	 0.000000e+00	-3.927872e+00
0	 1.481481e+00	 7.407407e-02	-3.625441e+00
0	 1.481481e+00	 1.481481e-01	-2.768906e+00
0	 1.481481e+00	 2.222222e-01	-1.323545e+00
0	 1.481481e+00	 2.962963e-01	 7.453589e-01
0	 1.481481e+00	 3.703704e-01	 3.472527e+00
0	 1.111111e+00	 3.703704e-01	-2.406093e+00
0	 1.111111e+00	 4.444444e-01	-1.844773e-01
0	 1.111111e+00	 5.185185e-01	 2.488753e+00
0	 1.111111e+00	 5.925926e-01	 5.602339e+00
0	 1.111111e+00	 6.666667e-01	 9.145019e+00
0	 1.111111e+00	 7.407407e-01	 1.310553e+01
0	 1.185185e+00	 3.703704e-01	-3.166597e+00
0	 1.185185e+00	 4.444444e-01	-5.693022e-01
0	 1.185185e+00	 5.185185e-01	 2.393306e+00
0	 1.185185e+00	 5.925926e-01	 5.665924e+00
0	 1.185185e+00	 6.666667e-01	 9.193249e+00
0	 1.185185e+00	 7.407407e-01	 1.291998e+01
0	 1.259259e+00	 3.703704e-01	-2.771781e+00
0	 1.259259e+00	 4.444444e-01	 4.323326e-02
0	 1.259259e+00	 5.185185e-01	 3.086175e+00
0	 1.259259e+00	 5.925926e-01	 6.277143e+00
0	 1.259259e+00	 6.666667e-01	 9.536237e+00
0	 1.259259e+00	 7.407407e-01	 1.278356e+01
0	 1.333333e+00	 3.703704e-01	-1.408850e+00
0	 1.333333e+00	 4.444444e-01	 1.503209e+00
0	 1.333333e+00	 5.185185e-01	 4.466413e+00
0	 1.333333e+00	 5.925926e-01	 7.395706e+00
0	 1.333333e+00	 6.666667e-01	 1.020603e+01
0	 1.333333e+00	 7.407407e-01	 1.281234e+01
0	 1.407407e+00	 3.703704e-01	 7.349877e-01
0	 1.407407e+00	 4.444444e-01	 3.660706e+00
0	 1.407407e+00	 5.185185e-01	 6.433072e+00
0	 1.407407e+00	 5.925926e-01	 8.981322e+00
0	 1.407407e+00	 6.666667e-01	 1.123469e+01
0	 1.407407e+00	 7.407407e-01	 1.312242e+01
0	 1.481481e+00	 3.703704e-01	 3.472527e+00
0	 1.481481e+00	 4.444444e-01	 6.365804e+00
0	 1.481481e+00	 5.185185e-01	 8.885204e+00
0	 1.481481e+00	 5.925926e-01	 1.099370e+01
0	 1.481481e+00	 6.666667e-01	 1.265426e+01
0	 1.481481e+00	 7.407407e-01	 1.382985e+01
0	 1.111111e+00	 7.407407e-01	 1.310553e+01
0	 1.111111e+00	 8.148148e-01	 1.709334e+01
0	 1.111111e+00	 8.888889e-01	 2.069429e+01
0	 1.111111e+00	 9.629630e-01	 2.386174e+01
0	 1.111111e+00	 1.037037e+00	 2.654902e+01
0	 1.111111e+00	 1.111111e+00	 2.870949e+01
0	 1.185185e+00	 7.407407e-01	 1.291998e+01
0	 1.185185e+00	 8.148148e-01	 1.647944e+01
0	 1.185185e+00	 8.888889e-01	 1.951416e+01
0	 1.185185e+00	 9.629630e-01	 2.198262e+01
0	 1.185185e+00	 1.037037e+00	 2.384331e+01
0	 1.185185e+00	 1.111111e+00	 2.505471e+01
0	 1.259259e+00	 7.407407e-01	 1.278356e+01
0	 1.259259e+00	 8.148148e-01	 1.573462e+01
0	 1.259259e+00	 8.888889e-01	 1.813510e+01
0	 1.259259e+00	 9.629630e-01	 1.995030e+01
0	 1.259259e+00	 1.037037e+00	 2.114553e+01
0	 1.259259e+00	 1.111111e+00	 2.168611e+01
0	 1.333333e+00	 7.407407e-01	 1.281234e+01
0	 1.333333e+00	 8.148148e-01	 1.504831e+01
0	 1.333333e+00	 8.888889e-01	 1.678687e+01
0	 1.333333e+00	 9.629630e-01	 1.800185e+01
0	 1.333333e+00	 1.037037e+00	 1.866707e+01
0	 1.333333e+00	 1.111111e+00	 1.875637e+01
0	 1.407407e+00	 7.407407e-01	 1.312242e+01
0	 1.407407e+00	 8.148148e-01	 1.460994e+01
0	 1.407407e+00	 8.888889e-01	 1.569925e+01
0	 1.407407e+00	 9.629630e-01	 1.637437e+01
0	 1.407407e+00	 1.037037e+00	 1.661932e+01
0	 1.407407e+00	 1.111111e+00	 1.641814e+01
0	 1.481481e+00	 7.407407e-01	 1.382985e+01
0	 1.481481e+00	 8.148148e-01	 1.460896e+01
0	 1.481481e+00	 8.888889e-01	 1.510201e+01
0	 1.481481e+00	 9.629630e-01	 1.530494e+01
0	 1.481481e+00	 1.037037e+00	 1.521365e+01
0	 1.481481e+00	 1.111111e+00	 1.482408e+01
0	 1.111111e+00	 1.111111e+00	 2.870949e+01
0	 1.111111e+00	 1.185185e+00	 2.987509e+01
0	 1.111111e+00	 1.259259e+00	 2.962027e+01
0	 1.111111e+00	 1.333333e+00	 2.796216e+01
0	 1.111111e+00	 1.407407e+00	 2.491789e+01
0	 1.111111e+00	 1.481481e+00	 2.050458e+01
0	 1.185185e+00	 1.111111e+00	 2.505471e+01
0	 1.185185e+00	 1.185185e+00	 2.544839e+01
0	 1.185185e+00	 1.259259e+00	 2.489464e+01
0	 1.185185e+00	 1.333333e+00	 2.341003e+01
0	 1.185185e+00	 1.407407e+00	 2.101114e+01
0	 1.185185e+00	 1.481481e+00	 1.771453e+01
0	 1.259259e+00	 1.111111e+00	 2.168611e+01
0	 1.259259e+00	 1.185185e+00	 2.159073e+01
0	 1.259259e+00	 1.259259e+00	 2.091109e+01
0	 1.259259e+00	 1.333333e+00	 1.966201e+01
0	 1.259259e+00	 1.407407e+00	 1.785833e+01
0	 1.259259e+00	 1.481481e+00	 1.551488e+01
0	 1.333333e+00	 1.111111e+00	 1.875637e+01
0	 1.333333e+00	 1.185185e+00	 1.838702e+01
0	 1.333333e+00	 1.259259e+00	 1.770168e+01
0	 1.333333e+00	 1.333333e+00	 1.671226e+01
0	 1.333333e+00	 1.407407e+00	 1.543067e+01
0	 1.333333e+00	 1.481481e+00	 1.386882e+01
0	 1.407407e+00	 1.111111e+00	 1.641814e+01
0	 1.407407e+00	 1.185185e+00	 1.592214e+01
0	 1.407407e+00	 1.259259e+00	 1.529847e+01
0	 1.407407e+00	 1.333333e+00	 1.455495e+01
0	 1.407407e+00	 1.407407e+00	 1.369937e+01
0	 1.407407e+00	 1.481481e+00	 1.273953e+01
0	 1.481481e+00	 1.111111e+00	 1.482408e+01
0	 1.481481e+00	 1.185185e+00	 1.428098e+01
0	 1.481481e+00	 1.259259e+00	 1.373353e+01
0	 1.481481e+00	 1.333333e+00	 1.318424e+01
0	 1.481481e+00	 1.407407e+00	 1.263563e+01
0	 1.481481e+00	 1.481481e+00	 1.209020e+01
0	 1.111111e+00	 1.481481e+00	 2.050458e+01
0	 1.111111e+00	 1.555556e+00	 1.597226e+01
0	 1.111111e+00	 1.629630e+00	 1.255478e+01
0	 1.111111e+00	 1.703704e+00	 1.024496e+01
0	 1.111111e+00	 1.777778e+00	 9.035627e+00
0	 1.111111e+00	 1.851852e+00	 8.919626e+00
0	 1.185185e+00	 1.481481e+00	 1.771453e+01
0	 1.185185e+00	 1.555556e+00	 1.438772e+01
0	 1.185185e+00	 1.629630e+00	 1.188623e+01
0	 1.185185e+00	 1.703704e+00	 1.020864e+01
0	 1.185185e+00	 1.777778e+00	 9.353535e+00
0	 1.185185e+00	 1.851852e+00	 9.319495e+00
0	 1.259259e+00	 1.481481e+00	 1.551488e+01
0	 1.259259e+00	 1.555556e+00	 1.319339e+01
0	 1.259259e+00	 1.629630e+00	 1.144782e+01
0	 1.259259e+00	 1.703704e+00	 1.028134e+01
0	 1.259259e+00	 1.777778e+00	 9.697114e+00
0	 1.259259e+00	 1.851852e+00	 9.698313e+00
0	 1.333333e+00	 1.481481e+00	 1.386882e+01
0	 1.333333e+00	 1.555556e+00	 1.235325e+01
0	 1.333333e+00	 1.629630e+00	 1.120696e+01
0	 1.333333e+00	 1.703704e+00	 1.043655e+01
0	 1.333333e+00	 1.777778e+00	 1.004861e+01
0	 1.333333e+00	 1.851852e+00	 1.004974e+01
0	 1.407407e+00	 1.481481e+00	 1.273953e+01
0	 1.407407e+00	 1.555556e+00	 1.183125e+01
0	 1.407407e+00	 1.629630e+00	 1.113104e+01
0	 1.407407e+00	 1.703704e+00	 1.064776e+01
0	 1.407407e+00	 1.777778e+00	 1.039027e+01
0	 1.407407e+00	 1.851852e+00	 1.036744e+01
0	 1.481481e+00	 1.481481e+00	 1.209020e+01
0	 1.481481e+00	 1.555556e+00	 1.159136e+01
0	 1.481481e+00	 1.629630e+00	 1.118746e+01
0	 1.481481e+00	 1.703704e+00	 1.088846e+01
0	 1.481481e+00	 1.777778e+00	 1.070435e+01
0	 1.481481e+00	 1.851852e+00	 1.064508e+01
0	 1.111111e+00	 1.851852e+00	 8.919626e+00
0	 1.111111e+00	 1.925926e+00	 9.269444e+00
0	 1.111111e+00	 2.000000e+00	 9.469536e+00
0	 1.111111e+00	 2.074074e+00	 9.530676e+00
0	 1.111111e+00	 2.148148e+00	 9.463642e+00
0	 1.111111e+00	 2.222222e+00	 9.279208e+00
0	 1.185185e+00	 1.851852e+00	 9.319495e+00
0	 1.185185e+00	 1.925926e+00	 9.622853e+00
0	 1.185185e+00	 2.000000e+00	 9.786921e+00
0	 1.185185e+00	 2.074074e+00	 9.820748e+00
0	 1.185185e+00	 2.148148e+00	 9.733384e+00
0	 1.185185e+00	 2.222222e+00	 9.533878e+00
0	 1.259259e+00	 1.851852e+00	 9.698313e+00
0	 1.259259e+00	 1.925926e+00	 9.931839e+00
0	 1.259259e+00	 2.000000e+00	 1.004709e+01
0	 1.259259e+00	 2.074074e+00	 1.005097e+01
0	 1.259259e+00	 2.148148e+00	 9.950399e+00
0	 1.259259e+00	 2.222222e+00	 9.752283e+00
0	 1.333333e+00	 1.851852e+00	 1.004974e+01
0	 1.333333e+00	 1.925926e+00	 1.020083e+01
0	 1.333333e+00	 2.000000e+00	 1.026127e+01
0	 1.333333e+00	 2.074074e+00	 1.023542e+01
0	 1.333333e+00	 2.148148e+00	 1.012764e+01
0	 1.333333e+00	 2.222222e+00	 9.942297e+00
0	 1.407407e+00	 1.851852e+00	 1.036744e+01
0	 1.407407e+00	 1.925926e+00	 1.043425e+01
0	 1.407407e+00	 2.000000e+00	 1.044069e+01
0	 1.407407e+00	 2.074074e+00	 1.038816e+01
0	 1.407407e+00	 2.148148e+00	 1.027806e+01
0	 1.407407e+00	 2.222222e+00	 1.011180e+01
0	 1.481481e+00	 1.851852e+00	 1.064508e+01
0	 1.481481e+00	 1.925926e+00	 1.063652e+01
0	 1.481481e+00	 2.000000e+00	 1.059658e+01
0	 1.481481e+00	 2.074074e+00	 1.052327e+01
0	 1.481481e+00	 2.148148e+00	 1.041462e+01
0	 1.481481e+00	 2.222222e+00	 1.026866e+01
0	 1.111111e+00	 2.222222e+00	 9.279208e+00
0	 1.111111e+00	 2.296296e+00	 9.076707e+00
0	 1.111111e+00	 2.370370e+00	 8.943958e+00
0	 1.111111e+00	 2.444444e+00	 8.874474e+00
0	 1.111111e+00	 2.518519e+00	 8.861763e+00
0	 1.111111e+00	 2.592593e+00	 8.899338e+00
0	 1.185185e+00	 2.222222e+00	 9.533878e+00
0	 1.185185e+00	 2.296296e+00	 9.317821e+00
0	 1.185185e+00	 2.370370e+00	 9.170888e+00
0	 1.185185e+00	 2.444444e+00	 9.087260e+00
0	 1.185185e+00	 2.518519e+00	 9.061116e+00
0	 1.185185e+00	 2.592593e+00	 9.086636e+00
0	 1.259259e+00	 2.222222e+00	 9.752283e+00
0	 1.259259e+00	 2.296296e+00	 9.540706e+00
0	 1.259259e+00	 2.370370e+00	 9.391920e+00
0	 1.259259e+00	 2.444444e+00	 9.301092e+00
0	 1.259259e+00	 2.518519e+00	 9.263385e+00
0	 1.259259e+00	 2.592593e+00	 9.273966e+00
0	 1.333333e+00	 2.222222e+00	 9.942297e+00
0	 1.333333e+00	 2.296296e+00	 9.747098e+00
0	 1.333333e+00	 2.370370e+00	 9.604492e+00
0	 1.333333e+00	 2.444444e+00	 9.510947e+00
0	 1.333333e+00	 2.518519e+00	 9.462930e+00
0	 1.333333e+00	 2.592593e+00	 9.456908e+00
0	 1.407407e+00	 2.222222e+00	 1.011180e+01
0	 1.407407e+00	 2.296296e+00	 9.938735e+00
0	 1.407407e+00	 2.370370e+00	 9.806042e+00
0	 1.407407e+00	 2.444444e+00	 9.711804e+00
0	 1.407407e+00	 2.518519e+00	 9.654108e+00
0	 1.407407e+00	 2.592593e+00	 9.631039e+00
0	 1.481481e+00	 2.222222e+00	 1.026866e+01
0	 1.481481e+00	 2.296296e+00	 1.011735e+01
0	 1.481481e+00	 2.370370e+00	 9.994007e+00
0	 1.481481e+00	 2.444444e+00	 9.898642e+00
0	 1.481481e+00	 2.518519e+00	 9.831279e+00
0	 1.481481e+00	 2.592593e+00	 9.791938e+00
0	 1.111111e+00	 2.592593e+00	 8.899338e+00
0	 1.111111e+00	 2.666667e+00	 8.948048e+00
0	 1.111111e+00	 2.740741e+00	 8.976090e+00
0	 1.111111e+00	 2.814815e+00	 8.987999e+00
0	 1.111111e+00	 2.888889e+00	 8.988305e+00
0	 1.111111e+00	 2.962963e+00	 8.981542e+00
0	 1.185185e+00	 2.592593e+00	 9.086636e+00
0	 1.185185e+00	 2.666667e+00	 9.124784e+00
0	 1.185185e+00	 2.740741e+00	 9.143142e+00
0	 1.185185e+00	 2.814815e+00	 9.145812e+00
0	 1.185185e+00	 2.888889e+00	 9.136899e+00
0	 1.185185e+00	 2.962963e+00	 9.120506e+00
0	 1.259259e+00	 2.592593e+00	 9.273966e+00
0	 1.259259e+00	 2.666667e+00	 9.297384e+00
0	 1.259259e+00	 2.740741e+00	 9.303722e+00
0	 1.259259e+00	 2.814815e+00	 9.296447e+00
0	 1.259259e+00	 2.888889e+00	 9.279025e+00
0	 1.259259e+00	 2.962963e+00	 9.254920e+00
0	 1.333333e+00	 2.592593e+00	 9.456908e+00
0	 1.333333e+00	 2.666667e+00	 9.463308e+00
0	 1.333333e+00	 2.740741e+00	 9.456661e+00
0	 1.333333e+00	 2.814815e+00	 9.439585e+00
0	 1.333333e+00	 2.888889e+00	 9.414700e+00
0	 1.333333e+00	 2.962963e+00	 9.384628e+00
0	 1.407407e+00	 2.592593e+00	 9.631039e+00
0	 1.407407e+00	 2.666667e+00	 9.620018e+00
0	 1.407407e+00	 2.740741e+00	 9.600785e+00
0	 1.407407e+00	 2.814815e+00	 9.574906e+00
0	 1.407407e+00	 2.888889e+00	 9.543946e+00
0	 1.407407e+00	 2.962963e+00	 9.509473e+00
0	 1.481481e+00	 2.592593e+00	 9.791938e+00
0	 1.481481e+00	 2.666667e+00	 9.764973e+00
0	 1.481481e+00	 2.740741e+00	 9.734923e+00
0	 1.481481e+00	 2.814815e+00	 9.702092e+00
0	 1.481481e+00	 2.888889e+00	 9.666783e+00
0	 1.481481e+00	 2.962963e+00	 9.629300e+00
0	 1.111111e+00	 2.962963e+00	 8.981542e+00
0	 1.111111e+00	 3.037037e+00	 8.978213e+00
0	 1.111111e+00	 3.111111e+00	 8.984359e+00
0	 1.111111e+00	 3.185185e+00	 8.997817e+00
0	 1.111111e+00	 3.259259e+00	 9.016422e+00
0	 1.111111e+00	 3.333333e+00	 9.038011e+00
0	 1.185185e+00	 2.962963e+00	 9.120506e+00
0	 1.185185e+00	 3.037037e+00	 9.107403e+00
0	 1.185185e+00	 3.111111e+00	 9.104347e+00
0	 1.185185e+00	 3.185185e+00	 9.109425e+00
0	 1.185185e+00	 3.259259e+00	 9.120724e+00
0	 1.185185e+00	 3.333333e+00	 9.136329e+00
0	 1.259259e+00	 2.962963e+00	 9.254920e+00
0	 1.259259e+00	 3.037037e+00	 9.234148e+00
0	 1.259259e+00	 3.111111e+00	 9.223367e+00
0	 1.259259e+00	 3.185185e+00	 9.221007e+00
0	 1.259259e+00	 3.259259e+00	 9.225499e+00
0	 1.259259e+00	 3.333333e+00	 9.235275e+00
0	 1.333333e+00	 2.962963e+00	 9.384628e+00
0	 1.333333e+00	 3.037037e+00	 9.357904e+00
0	 1.333333e+00	 3.111111e+00	 9.340568e+00
0	 1.333333e+00	 3.185185e+00	 9.331490e+00
0	 1.333333e+00	 3.259259e+00	 9.329542e+00
0	 1.333333e+00	 3.333333e+00	 9.333596e+00
0	 1.407407e+00	 2.962963e+00	 9.509473e+00
0	 1.407407e+00	 3.037037e+00	 9.478123e+00
0	 1.407407e+00	 3.111111e+00	 9.455098e+00
0	 1.407407e+00	 3.185185e+00	 9.439804e+00
0	 1.407407e+00	 3.259259e+00	 9.431648e+00
0	 1.407407e+00	 3.333333e+00	 9.430038e+00
0	 1.481481e+00	 2.962963e+00	 9.629300e+00
0	 1.481481e+00	 3.037037e+00	 9.594260e+00
0	 1.481481e+00	 3.111111e+00	 9.566107e+00
0	 1.481481e+00	 3.185185e+00	 9.544878e+00
0	 1.481481e+00	 3.259259e+00	 9.530612e+00
0	 1.481481e+00	 3.333333e+00	 9.523348e+00
0	 1.111111e+00	 3.333333e+00	 9.038011e+00
0	 1.111111e+00	 3.407407e+00	 9.058942e+00
0	 1.111111e+00	 3.481481e+00	 9.077914e+00
0	 1.111111e+00	 3.555556e+00	 9.096279e+00
0	 1.111111e+00	 3.629630e+00	 9.115386e+00
0	 1.111111e+00	 3.703704e+00	 9.136586e+00
0	 1.185185e+00	 3.333333e+00	 9.136329e+00
0	 1.185185e+00	 3.407407e+00	 9.152188e+00
0	 1.185185e+00	 3.481481e+00	 9.166331e+00
0	 1.185185e+00	 3.555556e+00	 9.179964e+00
0	 1.185185e+00	 3.629630e+00	 9.194292e+00
0	 1.185185e+00	 3.703704e+00	 9.210523e+00
0	 1.259259e+00	 3.333333e+00	 9.235275e+00
0	 1.259259e+00	 3.407407e+00	 9.246111e+00
0	 1.259259e+00	 3.481481e+00	 9.255509e+00
0	 1.259259e+00	 3.555556e+00	 9.264488e+00
0	 1.259259e+00	 3.629630e+00	 9.274065e+00
0	 1.259259e+00	 3.703704e+00	 9.285258e+00
0	 1.333333e+00	 3.333333e+00	 9.333596e+00
0	 1.333333e+00	 3.407407e+00	 9.339473e+00
0	 1.333333e+00	 3.481481e+00	 9.344274e+00
0	 1.333333e+00	 3.555556e+00	 9.348783e+00
0	 1.333333e+00	 3.629630e+00	 9.353788e+00
0	 1.333333e+00	 3.703704e+00	 9.360074e+00
0	 1.407407e+00	 3.333333e+00	 9.430038e+00
0	 1.407407e+00	 3.407407e+00	 9.431038e+00
0	 1.407407e+00	 3.481481e+00	 9.431450e+00
0	 1.407407e+00	 3.555556e+00	 9.431782e+00
0	 1.407407e+00	 3.629630e+00	 9.432547e+00
0	 1.407407e+00	 3.703704e+00	 9.434253e+00
0	 1.481481e+00	 3.333333e+00	 9.523348e+00
0	 1.481481e+00	 3.407407e+00	 9.519570e+00
0	 1.481481e+00	 3.481481e+00	 9.515863e+00
0	 1.481481e+00	 3.555556e+00	 9.512418e+00
0	 1.481481e+00	 3.629630e+00	 9.509427e+00
0	 1.481481e+00	 3.703704e+00	 9.507079e+00
0	 1.111111e+00	 3.703704e+00	 9.136586e+00
0	 1.111111e+00	 3.777778e+00	 9.159474e+00
0	 1.111111e+00	 3.851852e+00	 9.182387e+00
0	 1.111111e+00	 3.925926e+00	 9.204787e+00
0	 1.111111e+00	 4.000000e+00	 9.226139e+00
0	 1.111111e+00	 4.074074e+00	 9.245906e+00
0	 1.185185e+00	 3.703704e+00	 9.210523e+00
0	 1.185185e+00	 3.777778e+00	 9.228436e+00
0	 1.185185e+00	 3.851852e+00	 9.246713e+00
0	 1.185185e+00	 3.925926e+00	 9.264909e+00
0	 1.185185e+00	 4.000000e+00	 9.282579e+00
0	 1.185185e+00	 4.074074e+00	 9.299277e+00
0	 1.259259e+00	 3.703704e+00	 9.285258e+00
0	 1.259259e+00	 3.777778e+00	 9.298093e+00
0	 1.259259e+00	 3.851852e+00	 9.311692e+00
0	 1.259259e+00	 3.925926e+00	 9.325713e+00
0	 1.259259e+00	 4.000000e+00	 9.339813e+00
0	 1.259259e+00	 4.074074e+00	 9.353653e+00
0	 1.333333e+00	 3.703704e+00	 9.360074e+00
0	 1.333333e+00	 3.777778e+00	 9.367915e+00
0	 1.333333e+00	 3.851852e+00	 9.376913e+00
0	 1.333333e+00	 3.925926e+00	 9.386842e+00
0	 1.333333e+00	 4.000000e+00	 9.397474e+00
0	 1.333333e+00	 4.074074e+00	 9.408583e+00
0	 1.407407e+00	 3.703704e+00	 9.434253e+00
0	 1.407407e+00	 3.777778e+00	 9.437372e+00
0	 1.407407e+00	 3.851852e+00	 9.441967e+00
0	 1.407407e+00	 3.925926e+00	 9.447940e+00
0	 1.407407e+00	 4.000000e+00	 9.455190e+00
0	 1.407407e+00	 4.074074e+00	 9.463619e+00
0	 1.481481e+00	 3.703704e+00	 9.507079e+00
0	 1.481481e+00	 3.777778e+00	 9.505933e+00
0	 1.481481e+00	 3.851852e+00	 9.506443e+00
0	 1.481481e+00	 3.925926e+00	 9.508650e+00
0	 1.481481e+00	 4.000000e+00	 9.512593e+00
0	 1.481481e+00	 4.074074e+00	 9.518310e+00
0	 1.111111e+00	 4.074074e+00	 9.245906e+00
0	 1.111111e+00	 4.148148e+00	 9.264567e+00
0	 1.111111e+00	 4.222222e+00	 9.283171e+00
0	 1.111111e+00	 4.296296e+00	 9.302046e+00
0	 1.111111e+00	 4.370370e+00	 9.321514e+00
0	 1.111111e+00	 4.444444e+00	 9.341902e+00
0	 1.185185e+00	 4.074074e+00	 9.299277e+00
0	 1.185185e+00	 4.148148e+00	 9.315277e+00
0	 1.185185e+00	 4.222222e+00	 9.331332e+00
0	 1.185185e+00	 4.296296e+00	 9.347723e+00
0	 1.185185e+00	 4.370370e+00	 9.364732e+00
0	 1.185185e+00	 4.444444e+00	 9.382637e+00
0	 1.259259e+00	 4.074074e+00	 9.353653e+00
0	 1.259259e+00	 4.148148e+00	 9.367208e+00
0	 1.259259e+00	 4.222222e+00	 9.380841e+00
0	 1.259259e+00	 4.296296e+00	 9.394785e+00
0	 1.259259e+00	 4.370370e+00	 9.409273e+00
0	 1.259259e+00	 4.444444e+00	 9.424540e+00
0	 1.333333e+00	 4.074074e+00	 9.408583e+00
0	 1.333333e+00	 4.148148e+00	 9.419823e+00
0	 1.333333e+00	 4.222222e+00	 9.431119e+00
0	 1.333333e+00	 4.296296e+00	 9.442656e+00
0	 1.333333e+00	 4.370370e+00	 9.454620e+00
0	 1.333333e+00	 4.444444e+00	 9.467195e+00
0	 1.407407e+00	 4.074074e+00	 9.463619e+00
0	 1.407407e+00	 4.148148e+00	 9.472581e+00
0	 1.407407e+00	 4.222222e+00	 9.481585e+00
0	 1.407407e+00	 4.296296e+00	 9.490765e+00
0	 1.407407e+00	 4.370370e+00	 9.500254e+00
0	 1.407407e+00	 4.444444e+00	 9.510184e+00
0	 1.481481e+00	 4.074074e+00	 9.518310e+00
0	 1.481481e+00	 4.148148e+00	 9.524943e+00
0	 1.481481e+00	 4.222222e+00	 9.531659e+00
0	 1.481481e+00	 4.296296e+00	 9.538537e+00
0	 1.481481e+00	 4.370370e+00	 9.545654e+00
0	 1.481481e+00	 4.444444e+00	 9.553090e+00
0	 1.111111e+00	 4.444444e+00	 9.341902e+00
0	 1.111111e+00	 4.518519e+00	 9.362531e+00
0	 1.111111e+00	 4.592593e+00	 9.382436e+00
0	 1.111111e+00	 4.666667e+00	 9.401509e+00
0	 1.111111e+00	 4.740741e+00	 9.419641e+00
0	 1.111111e+00	 4.814815e+00	 9.436723e+00
0	 1.185185e+00	 4.444444e+00	 9.382637e+00
0	 1.185185e+00	 4.518519e+00	 9.400823e+00
0	 1.185185e+00	 4.592593e+00	 9.418434e+00
0	 1.185185e+00	 4.666667e+00	 9.435392e+00
0	 1.185185e+00	 4.740741e+00	 9.451620e+00
0	 1.185185e+00	 4.814815e+00	 9.467040e+00
0	 1.259259e+00	 4.444444e+00	 9.424540e+00
0	 1.259259e+00	 4.518519e+00	 9.440110e+00
0	 1.259259e+00	 4.592593e+00	 9.455317e+00
0	 1.259259e+00	 4.666667e+00	 9.470111e+00
0	 1.259259e+00	 4.740741e+00	 9.484444e+00
0	 1.259259e+00	 4.814815e+00	 9.498267e+00
0	 1.333333e+00	 4.444444e+00	 9.467195e+00
0	 1.333333e+00	 4.518519e+00	 9.480084e+00
0	 1.333333e+00	 4.592593e+00	 9.492851e+00
0	 1.333333e+00	 4.666667e+00	 9.505474e+00
0	 1.333333e+00	 4.740741e+00	 9.517929e+00
0	 1.333333e+00	 4.814815e+00	 9.530193e+00
0	 1.407407e+00	 4.444444e+00	 9.510184e+00
0	 1.407407e+00	 4.518519e+00	 9.520437e+00
0	 1.407407e+00	 4.592593e+00	 9.530806e+00
0	 1.407407e+00	 4.666667e+00	 9.541291e+00
0	 1.407407e+00	 4.740741e+00	 9.551891e+00
0	 1.407407e+00	 4.814815e+00	 9.562607e+00
0	 1.481481e+00	 4.444444e+00	 9.553090e+00
0	 1.481481e+00	 4.518519e+00	 9.560863e+00
0	 1.481481e+00	 4.592593e+00	 9.568949e+00
0	 1.481481e+00	 4.666667e+00	 9.577369e+00
0	 1.481481e+00	 4.740741e+00	 9.586145e+00
0	 1.481481e+00	 4.814815e+00	 9.595297e+00
0	 1.111111e+00	 4.814815e+00	 9.436723e+00
0	 1.111111e+00	 4.888889e+00	 9.453139e+00
0	 1.111111e+00	 4.962963e+00	 9.469390e+00
0	 1.111111e+00	 5.037037e+00	 9.485547e+00
0	 1.111111e+00	 5.111111e+00	 9.501678e+00
0	 1.111111e+00	 5.185185e+00	 9.517855e+00
0	 1.185185e+00	 4.814815e+00	 9.467040e+00
0	 1.185185e+00	 4.888889e+00	 9.481962e+00
0	 1.185185e+00	 4.962963e+00	 9.496786e+00
0	 1.185185e+00	 5.037037e+00	 9.511569e+00
0	 1.185185e+00	 5.111111e+00	 9.526369e+00
0	 1.185185e+00	 5.185185e+00	 9.541243e+00
0	 1.259259e+00	 4.814815e+00	 9.498267e+00
0	 1.259259e+00	 4.888889e+00	 9.511765e+00
0	 1.259259e+00	 4.962963e+00	 9.525191e+00
0	 1.259259e+00	 5.037037e+00	 9.538592e+00
0	 1.259259e+00	 5.111111e+00	 9.552013e+00
0	 1.259259e+00	 5.185185e+00	 9.565503e+00
0	 1.333333e+00	 4.814815e+00	 9.530193e+00
0	 1.333333e+00	 4.888889e+00	 9.542304e+00
0	 1.333333e+00	 4.962963e+00	 9.554344e+00
0	 1.333333e+00	 5.037037e+00	 9.566352e+00
0	 1.333333e+00	 5.111111e+00	 9.578368e+00
0	 1.333333e+00	 5.185185e+00	 9.590430e+00
0	 1.407407e+00	 4.814815e+00	 9.562607e+00
0	 1.407407e+00	 4.888889e+00	 9.573331e+00
0	 1.407407e+00	 4.962963e+00	 9.583981e+00
0	 1.407407e+00	 5.037037e+00	 9.594590e+00
0	 1.407407e+00	 5.111111e+00	 9.605191e+00
0	 1.407407e+00	 5.185185e+00	 9.615819e+00
0	 1.481481e+00	 4.814815e+00	 9.595297e+00
0	 1.481481e+00	 4.888889e+00	 9.604600e+00
0	 1.481481e+00	 4.962963e+00	 9.613838e+00
0	 1.481481e+00	 5.037037e+00	 9.623041e+00
0	 1.481481e+00	 5.111111e+00	 9.632240e+00
0	 1.481481e+00	 5.185185e+00	 9.641466e+00
0	 1.111111e+00	 5.185185e+00	 9.517855e+00
0	 1.111111e+00	 5.259259e+00	 9.533832e+00
0	 1.111111e+00	 5.333333e+00	 9.549307e+00
0	 1.111111e+00	 5.407407e+00	 9.564264e+00
0	 1.111111e+00	 5.481481e+00	 9.578684e+00
0	 1.111111e+00	 5.555556e+00	 9.592549e+00
0	 1.185185e+00	 5.185185e+00	 9.541243e+00
0	 1.185185e+00	 5.259259e+00	 9.555957e+00
0	 1.185185e+00	 5.333333e+00	 9.570235e+00
0	 1.185185e+00	 5.407407e+00	 9.584068e+00
0	 1.185185e+00	 5.481481e+00	 9.597450e+00
0	 1.185185e+00	 5.555556e+00	 9.610373e+00
0	 1.259259e+00	 5.185185e+00	 9.565503e+00
0	 1.259259e+00	 5.259259e+00	 9.578869e+00
0	 1.259259e+00	 5.333333e+00	 9.591889e+00
0	 1.259259e+00	 5.407407e+00	 9.604563e+00
0	 1.259259e+00	 5.481481e+00	 9.616891e+00
0	 1.259259e+00	 5.555556e+00	 9.628874e+00
0	 1.333333e+00	 5.185185e+00	 9.590430e+00
0	 1.333333e+00	 5.259259e+00	 9.602405e+00
0	 1.333333e+00	 5.333333e+00	 9.614138e+00
0	 1.333333e+00	 5.407407e+00	 9.625634e+00
0	 1.333333e+00	 5.481481e+00	 9.636900e+00
0	 1.333333e+00	 5.555556e+00	 9.647941e+00
0	 1.407407e+00	 5.185185e+00	 9.615819e+00
0	 1.407407e+00	 5.259259e+00	 9.626400e+00
0	 1.407407e+00	 5.333333e+00	 9.636846e+00
0	 1.407407e+00	 5.407407e+00	 9.647165e+00
0	 1.407407e+00	 5.481481e+00	 9.657366e+00
0	 1.407407e+00	 5.555556e+00	 9.667459e+00
0	 1.481481e+00	 5.185185e+00	 9.641466e+00
0	 1.481481e+00	 5.259259e+00	 9.650692e+00
0	 1.481481e+00	 5.333333e+00	 9.659880e+00
0	 1.481481e+00	 5.407407e+00	 9.669040e+00
0	 1.481481e+00	 5.481481e+00	 9.678182e+00
0	 1.481481e+00	 5.555556e+00	 9.687316e+00
0	 1.111111e+00	 5.555556e+00	 9.592549e+00
0	 1.111111e+00	 5.629630e+00	 9.606006e+00
0	 1.111111e+00	 5.703704e+00	 9.619218e+00
0	 1.111111e+00	 5.777778e+00	 9.632202e+00
0	 1.111111e+00	 5.851852e+00	 9.644970e+00
0	 1.111111e+00	 5.925926e+00	 9.657538e+00
0	 1.185185e+00	 5.555556e+00	 9.610373e+00
0	 1.185185e+00	 5.629630e+00	 9.622958e+00
0	 1.185185e+00	 5.703704e+00	 9.635338e+00
0	 1.185185e+00	 5.777778e+00	 9.647526e+00
0	 1.185185e+00	 5.851852e+00	 9.659530e+00
0	 1.185185e+00	 5.925926e+00	 9.671364e+00
0	 1.259259e+00	 5.555556e+00	 9.628874e+00
0	 1.259259e+00	 5.629630e+00	 9.640592e+00
0	 1.259259e+00	 5.703704e+00	 9.652132e+00
0	 1.259259e+00	 5.777778e+00	 9.663503e+00
0	 1.259259e+00	 5.851852e+00	 9.674714e+00
0	 1.259259e+00	 5.925926e+00	 9.685775e+00
0	 1.333333e+00	 5.555556e+00	 9.647941e+00
0	 1.333333e+00	 5.629630e+00	 9.658789e+00
0	 1.333333e+00	 5.703704e+00	 9.669477e+00
0	 1.333333e+00	 5.777778e+00	 9.680014e+00
0	 1.333333e+00	 5.851852e+00	 9.690409e+00
0	 1.333333e+00	 5.925926e+00	 9.700671e+00
0	 1.407407e+00	 5.555556e+00	 9.667459e+00
0	 1.407407e+00	 5.629630e+00	 9.677426e+00
0	 1.407407e+00	 5.703704e+00	 9.687248e+00
0	 1.407407e+00	 5.777778e+00	 9.696937e+00
0	 1.407407e+00	 5.851852e+00	 9.706501e+00
0	 1.407407e+00	 5.925926e+00	 9.715951e+00
0	 1.481481e+00	 5.555556e+00	 9.687316e+00
0	 1.481481e+00	 5.629630e+00	 9.696383e+00
0	 1.481481e+00	 5.703704e+00	 9.705323e+00
0	 1.481481e+00	 5.777778e+00	 9.714151e+00
0	 1.481481e+00	 5.851852e+00	 9.722877e+00
0	 1.481481e+00	 5.925926e+00	 9.731514e+00
0	 1.111111e+00	 5.925926e+00	 9.657538e+00
0	 1.111111e+00	 6.000000e+00	 9.669847e+00
0	 1.111111e+00	 6.074074e+00	 9.681831e+00
0	 1.111111e+00	 6.148148e+00	 9.693488e+00
0	 1.111111e+00	 6.222222e+00	 9.704818e+00
0	 1.111111e+00	 6.296296e+00	 9.715818e+00
0	 1.185185e+00	 5.925926e+00	 9.671364e+00
0	 1.185185e+00	 6.000000e+00	 9.682968e+00
0	 1.185185e+00	 6.074074e+00	 9.694278e+00
0	 1.185185e+00	 6.148148e+00	 9.705296e+00
0	 1.185185e+00	 6.222222e+00	 9.716023e+00
0	 1.185185e+00	 6.296296e+00	 9.726463e+00
0	 1.259259e+00	 5.925926e+00	 9.685775e+00
0	 1.259259e+00	 6.000000e+00	 9.696635e+00
0	 1.259259e+00	 6.074074e+00	 9.707240e+00
0	 1.259259e+00	 6.148148e+00	 9.717595e+00
0	 1.259259e+00	 6.222222e+00	 9.727703e+00
0	 1.259259e+00	 6.296296e+00	 9.737569e+00
0	 1.333333e+00	 5.925926e+00	 9.700671e+00
0	 1.333333e+00	 6.000000e+00	 9.710762e+00
0	 1.333333e+00	 6.074074e+00	 9.720642e+00
0	 1.333333e+00	 6.148148e+00	 9.730317e+00
0	 1.333333e+00	 6.222222e+00	 9.739792e+00
0	 1.333333e+00	 6.296296e+00	 9.749073e+00
0	 1.407407e+00	 5.925926e+00	 9.715951e+00
0	 1.407407e+00	 6.000000e+00	 9.725262e+00
0	 1.407407e+00	 6.074074e+00	 9.734408e+00
0	 1.407407e+00	 6.148148e+00	 9.743394e+00
0	 1.407407e+00	 6.222222e+00	 9.752227e+00
0	 1.407407e+00	 6.296296e+00	 9.760912e+00
0	 1.481481e+00	 5.925926e+00	 9.731514e+00
0	 1.481481e+00	 6.000000e+00	 9.740049e+00
0	 1.481481e+00	 6.074074e+00	 9.748461e+00
0	 1.481481e+00	 6.148148e+00	 9.756757e+00
0	 1.481481e+00	 6.222222e+00	 9.764943e+00
0	 1.481481e+00	 6.296296e+00	 9.773023e+00
0	 1.111111e+00	 6.296296e+00	 9.715818e+00
0	 1.111111e+00	 6.370370e+00	 9.726537e+00
0	 1.111111e+00	 6.444444e+00	 9.737027e+00
0	 1.111111e+00	 6.518519e+00	 9.747292e+00
0	 1.111111e+00	 6.592593e+00	 9.757334e+00
0	 1.111111e+00	 6.666667e+00	 9.767157e+00
0	 1.185185e+00	 6.296296e+00	 9.726463e+00
0	 1.185185e+00	 6.370370e+00	 9.736655e+00
0	 1.185185e+00	 6.444444e+00	 9.746639e+00
0	 1.185185e+00	 6.518519e+00	 9.756419e+00
0	 1.185185e+00	 6.592593e+00	 9.765998e+00
0	 1.185185e+00	 6.666667e+00	 9.775379e+00
0	 1.259259e+00	 6.296296e+00	 9.737569e+00
0	 1.259259e+00	 6.370370e+00	 9.747221e+00
0	 1.259259e+00	 6.444444e+00	 9.756684e+00
0	 1.259259e+00	 6.518519e+00	 9.765963e+00
0	 1.259259e+00	 6.592593e+00	 9.775059e+00
0	 1.259259e+00	 6.666667e+00	 9.783976e+00
0	 1.333333e+00	 6.296296e+00	 9.749073e+00
0	 1.333333e+00	 6.370370e+00	 9.758173e+00
0	 1.333333e+00	 6.444444e+00	 9.767101e+00
0	 1.333333e+00	 6.518519e+00	 9.775863e+00
0	 1.333333e+00	 6.592593e+00	 9.784460e+00
0	 1.333333e+00	 6.666667e+00	 9.792896e+00
0	 1.407407e+00	 6.296296e+00	 9.760912e+00
0	 1.407407e+00	 6.370370e+00	 9.769448e+00
0	 1.407407e+00	 6.444444e+00	 9.777829e+00
0	 1.407407e+00	 6.518519e+00	 9.786060e+00
0	 1.407407e+00	 6.592593e+00	 9.794145e+00
0	 1.407407e+00	 6.666667e+00	 9.802090e+00
0	 1.481481e+00	 6.296296e+00	 9.773023e+00
0	 1.481481e+00	 6.370370e+00	 9.780983e+00
0	 1.481481e+00	 6.444444e+00	 9.788804e+00
0	 1.481481e+00	 6.518519e+00	 9.796495e+00
0	 1.481481e+00	 6.592593e+00	 9.804060e+00
0	 1.481481e+00	 6.666667e+00	 9.811506e+00
0	 1.111111e+00	 6.666667e+00	 9.767157e+00
0	 1.111111e+00	 6.740741e+00	 9.776756e+00
0	 1.111111e+00	 6.814815e+00	 9.786121e+00
0	 1.111111e+00	 6.888889e+00	 9.795254e+00
0	 1.111111e+00	 6.962963e+00	 9.804158e+00
0	 1.111111e+00	 7.037037e+00	 9.812834e+00
0	 1.185185e+00	 6.666667e+00	 9.775379e+00
0	 1.185185e+00	 6.740741e+00	 9.784553e+00
0	 1.185185e+00	 6.814815e+00	 9.793510e+00
0	 1.185185e+00	 6.888889e+00	 9.802254e+00
0	 1.185185e+00	 6.962963e+00	 9.810786e+00
0	 1.185185e+00	 7.037037e+00	 9.819111e+00
0	 1.259259e+00	 6.666667e+00	 9.783976e+00
0	 1.259259e+00	 6.740741e+00	 9.792704e+00
0	 1.259259e+00	 6.814815e+00	 9.801236e+00
0	 1.259259e+00	 6.888889e+00	 9.809573e+00
0	 1.259259e+00	 6.962963e+00	 9.817721e+00
0	 1.259259e+00	 7.037037e+00	 9.825681e+00
0	 1.333333e+00	 6.666667e+00	 9.792896e+00
0	 1.333333e+00	 6.740741e+00	 9.801164e+00
0	 1.333333e+00	 6.814815e+00	 9.809256e+00
0	 1.333333e+00	 6.888889e+00	 9.817174e+00
0	 1.333333e+00	 6.962963e+00	 9.824924e+00
0	 1.333333e+00	 7.037037e+00	 9.832509e+00
0	 1.407407e+00	 6.666667e+00	 9.802090e+00
0	 1.407407e+00	 6.740741e+00	 9.809887e+00
0	 1.407407e+00	 6.814815e+00	 9.817528e+00
0	 1.407407e+00	 6.888889e+00	 9.825018e+00
0	 1.407407e+00	 6.962963e+00	 9.832360e+00
0	 1.407407e+00	 7.037037e+00	 9.839559e+00
0	 1.481481e+00	 6.666667e+00	 9.811506e+00
0	 1.481481e+00	 6.740741e+00	 9.818826e+00
0	 1.481481e+00	 6.814815e+00	 9.826011e+00
0	 1.481481e+00	 6.888889e+00	 9.833065e+00
0	 1.481481e+00	 6.962963e+00	 9.839993e+00
0	 1.481481e+00	 7.037037e+00	 9.846798e+00
0	 1.111111e+00	 7.037037e+00	 9.812834e+00
0	 1.111111e+00	 7.111111e+00	 9.821296e+00
0	 1.111111e+00	 7.185185e+00	 9.829561e+00
0	 1.111111e+00	 7.259259e+00	 9.837630e+00
0	 1.111111e+00	 7.333333e+00	 9.845507e+00
0	 1.111111e+00	 7.407407e+00	 9.853194e+00
0	 1.185185e+00	 7.037037e+00	 9.819111e+00
0	 1.185185e+00	 7.111111e+00	 9.827239e+00
0	 1.185185e+00	 7.185185e+00	 9.835182e+00
0	 1.185185e+00	 7.259259e+00	 9.842943e+00
0	 1.185185e+00	 7.333333e+00	 9.850523e+00
0	 1.185185e+00	 7.407407e+00	 9.857927e+00
0	 1.259259e+00	 7.037037e+00	 9.825681e+00
0	 1.259259e+00	 7.111111e+00	 9.833462e+00
0	 1.259259e+00	 7.185185e+00	 9.841070e+00
0	 1.259259e+00	 7.259259e+00	 9.848508e+00
0	 1.259259e+00	 7.333333e+00	 9.855779e+00
0	 1.259259e+00	 7.407407e+00	 9.862886e+00
0	 1.333333e+00	 7.037037e+00	 9.832509e+00
0	 1.333333e+00	 7.111111e+00	 9.839931e+00
0	 1.333333e+00	 7.185185e+00	 9.847193e+00
0	 1.333333e+00	 7.259259e+00	 9.854297e+00
0	 1.333333e+00	 7.333333e+00	 9.861247e+00
0	 1.333333e+00	 7.407407e+00	 9.868046e+00
0	 1.407407e+00	 7.037037e+00	 9.839559e+00
0	 1.407407e+00	 7.111111e+00	 9.846613e+00
0	 1.407407e+00	 7.185185e+00	 9.853518e+00
0	 1.407407e+00	 7.259259e+00	 9.860278e+00
0	 1.407407e+00	 7.333333e+00	 9.866897e+00
0	 1.407407e+00	 7.407407e+00	 9.873380e+00
0	 1.481481e+00	 7.037037e+00	 9.846798e+00
0	 1.481481e+00	 7.111111e+00	 9.853473e+00
0	 1.481481e+00	 7.185185e+00	 9.860013e+00
0	 1.481481e+00	 7.259259e+00	 9.866421e+00
0	 1.481481e+00	 7.333333e+00	 9.872702e+00
0	 1.481481e+00	 7.407407e+00	 9.878860e+00
0	 1.111111e+00	 7.407407e+00	 9.853194e+00
0	 1.111111e+00	 7.481481e+00	 9.860690e+00
0	 1.111111e+00	 7.555556e+00	 9.867994e+00
0	 1.111111e+00	 7.629630e+00	 9.875110e+00
0	 1.111111e+00	 7.703704e+00	 9.882040e+00
0	 1.111111e+00	 7.777778e+00	 9.888788e+00
0	 1.185185e+00	 7.407407e+00	 9.857927e+00
0	 1.185185e+00	 7.481481e+00	 9.865151e+00
0	 1.185185e+00	 7.555556e+00	 9.872193e+00
0	 1.185185e+00	 7.629630e+00	 9.879056e+00
0	 1.185185e+00	 7.703704e+00	 9.885745e+00
0	 1.185185e+00	 7.777778e+00	 9.892264e+00
0	 1.259259e+00	 7.407407e+00	 9.862886e+00
0	 1.259259e+00	 7.481481e+00	 9.869825e+00
0	 1.259259e+00	 7.555556e+00	 9.876593e+00
0	 1.259259e+00	 7.629630e+00	 9.883194e+00
0	 1.259259e+00	 7.703704e+00	 9.889631e+00
0	 1.259259e+00	 7.777778e+00	 9.895909e+00
0	 1.333333e+00	 7.407407e+00	 9.868046e+00
0	 1.333333e+00	 7.481481e+00	 9.874690e+00
0	 1.333333e+00	 7.555556e+00	 9.881173e+00
0	 1.333333e+00	 7.629630e+00	 9.887501e+00
0	 1.333333e+00	 7.703704e+00	 9.893676e+00
0	 1.333333e+00	 7.777778e+00	 9.899704e+00
0	 1.407407e+00	 7.407407e+00	 9.873380e+00
0	 1.407407e+00	 7.481481e+00	 9.879719e+00
0	 1.407407e+00	 7.555556e+00	 9.885909e+00
0	 1.407407e+00	 7.629630e+00	 9.891956e+00
0	 1.407407e+00	 7.703704e+00	 9.897862e+00
0	 1.407407e+00	 7.777778e+00	 9.903632e+00
0	 1.481481e+00	 7.407407e+00	 9.878860e+00
0	 1.481481e+00	 7.481481e+00	 9.884887e+00
0	 1.481481e+00	 7.555556e+00	 9.890778e+00
0	 1.481481e+00	 7.629630e+00	 9.896537e+00
0	 1.481481e+00	 7.703704e+00	 9.902167e+00
0	 1.481481e+00	 7.777778e+00	 9.907672e+00
0	 1.111111e+00	 7.777778e+00	 9.888788e+00
0	 1.111111e+00	 7.851852e+00	 9.895354e+00
0	 1.111111e+00	 7.925926e+00	 9.901735e+00
0	 1.111111e+00	 8.000000e+00	 9.907937e+00
0	 1.111111e+00	 8.074074e+00	 9.913963e+00
0	 1.111111e+00	 8.148148e+00	 9.919819e+00
0	 1.185185e+00	 7.777778e+00	 9.892264e+00
0	 1.185185e+00	 7.851852e+00	 9.898608e+00
0	 1.185185e+00	 7.925926e+00	 9.904777e+00
0	 1.185185e+00	 8.000000e+00	 9.910774e+00
0	 1.185185e+00	 8.074074e+00	 9.916604e+00
0	 1.185185e+00	 8.148148e+00	 9.922271e+00
0	 1.259259e+00	 7.777778e+00	 9.895909e+00
0	 1.259259e+00	 7.851852e+00	 9.902022e+00
0	 1.259259e+00	 7.925926e+00	 9.907968e+00
0	 1.259259e+00	 8.000000e+00	 9.913751e+00
0	 1.259259e+00	 8.074074e+00	 9.919376e+00
0	 1.259259e+00	 8.148148e+00	 9.924846e+00
0	 1.333333e+00	 7.777778e+00	 9.899704e+00
0	 1.333333e+00	 7.851852e+00	 9.905578e+00
0	 1.333333e+00	 7.925926e+00	 9.911293e+00
0	 1.333333e+00	 8.000000e+00	 9.916854e+00
0	 1.333333e+00	 8.074074e+00	 9.922264e+00
0	 1.333333e+00	 8.148148e+00	 9.927529e+00
0	 1.407407e+00	 7.777778e+00	 9.903632e+00
0	 1.407407e+00	 7.851852e+00	 9.909258e+00
0	 1.407407e+00	 7.925926e+00	 9.914734e+00
0	 1.407407e+00	 8.000000e+00	 9.920064e+00
0	 1.407407e+00	 8.074074e+00	 9.925254e+00
0	 1.407407e+00	 8.148148e+00	 9.930307e+00
0	 1.481481e+00	 7.777778e+00	 9.907672e+00
0	 1.481481e+00	 7.851852e+00	 9.913044e+00
0	 1.481481e+00	 7.925926e+00	 9.918274e+00
0	 1.481481e+00	 8.000000e+00	 9.923368e+00
0	 1.481481e+00	 8.074074e+00	 9.928330e+00
0	 1.481481e+00	 8.148148e+00	 9.933165e+00
0	 1.111111e+00	 8.148148e+00	 9.919819e+00
0	 1.111111e+00	 8.222222e+00	 9.925494e+00
0	 1.111111e+00	 8.296296e+00	 9.930981e+00
0	 1.111111e+00	 8.370370e+00	 9.936284e+00
0	 1.111111e+00	 8.444444e+00	 9.941410e+00
0	 1.111111e+00	 8.518519e+00	 9.946364e+00
0	 1.185185e+00	 8.148148e+00	 9.922271e+00
0	 1.185185e+00	 8.222222e+00	 9.927766e+00
0	 1.185185e+00	 8.296296e+00	 9.933079e+00
0	 1.185185e+00	 8.370370e+00	 9.938215e+00
0	 1.185185e+00	 8.444444e+00	 9.943182e+00
0	 1.185185e+00	 8.518519e+00	 9.947983e+00
0	 1.259259e+00	 8.148148e+00	 9.924846e+00
0	 1.259259e+00	 8.222222e+00	 9.930152e+00
0	 1.259259e+00	 8.296296e+00	 9.935282e+00
0	 1.259259e+00	 8.370370e+00	 9.940244e+00
0	 1.259259e+00	 8.444444e+00	 9.945043e+00
0	 1.259259e+00	 8.518519e+00	 9.949685e+00
0	 1.333333e+00	 8.148148e+00	 9.927529e+00
0	 1.333333e+00	 8.222222e+00	 9.932638e+00
0	 1.333333e+00	 8.296296e+00	 9.937579e+00
0	 1.333333e+00	 8.370370e+00	 9.942360e+00
0	 1.333333e+00	 8.444444e+00	 9.946985e+00
0	 1.333333e+00	 8.518519e+00	 9.951460e+00
0	 1.407407e+00	 8.148148e+00	 9.930307e+00
0	 1.407407e+00	 8.222222e+00	 9.935212e+00
0	 1.407407e+00	 8.296296e+00	 9.939957e+00
0	 1.407407e+00	 8.370370e+00	 9.944550e+00
0	 1.407407e+00	 8.444444e+00	 9.948994e+00
0	 1.407407e+00	 8.518519e+00	 9.953297e+00
0	 1.481481e+00	 8.148148e+00	 9.933165e+00
0	 1.481481e+00	 8.222222e+00	 9.937860e+00
0	 1.481481e+00	 8.296296e+00	 9.942404e+00
0	 1.481481e+00	 8.370370e+00	 9.946803e+00
0	 1.481481e+00	 8.444444e+00	 9.951062e+00
0	 1.481481e+00	 8.518519e+00	 9.955187e+00
0	 1.111111e+00	 8.518519e+00	 9.946364e+00
0	 1.111111e+00	 8.592593e+00	 9.951131e+00
0	 1.111111e+00	 8.666667e+00	 9.955695e+00
0	 1.111111e+00	 8.740741e+00	 9.960064e+00
0	 1.111111e+00	 8.814815e+00	 9.964246e+00
0	 1.111111e+00	 8.888889e+00	 9.968248e+00
0	 1.185185e+00	 8.518519e+00	 9.947983e+00
0	 1.185185e+00	 8.592593e+00	 9.952604e+00
0	 1.185185e+00	 8.666667e+00	 9.957029e+00
0	 1.185185e+00	 8.740741e+00	 9.961265e+00
0	 1.185185e+00	 8.814815e+00	 9.965320e+00
0	 1.185185e+00	 8.888889e+00	 9.969201e+00
0	 1.259259e+00	 8.518519e+00	 9.949685e+00
0	 1.259259e+00	 8.592593e+00	 9.954153e+00
0	 1.259259e+00	 8.666667e+00	 9.958432e+00
0	 1.259259e+00	 8.740741e+00	 9.962529e+00
0	 1.259259e+00	 8.814815e+00	 9.966451e+00
0	 1.259259e+00	 8.888889e+00	 9.970206e+00
0	 1.333333e+00	 8.518519e+00	 9.951460e+00
0	 1.333333e+00	 8.592593e+00	 9.955768e+00
0	 1.333333e+00	 8.666667e+00	 9.959895e+00
0	 1.333333e+00	 8.740741e+00	 9.963847e+00
0	 1.333333e+00	 8.814815e+00	 9.967630e+00
0	 1.333333e+00	 8.888889e+00	 9.971254e+00
0	 1.407407e+00	 8.518519e+00	 9.953297e+00
0	 1.407407e+00	 8.592593e+00	 9.957441e+00
0	 1.407407e+00	 8.666667e+00	 9.961410e+00
0	 1.407407e+00	 8.740741e+00	 9.965211e+00
0	 1.407407e+00	 8.814815e+00	 9.968851e+00
0	 1.407407e+00	 8.888889e+00	 9.972338e+00
0	 1.481481e+00	 8.518519e+00	 9.955187e+00
0	 1.481481e+00	 8.592593e+00	 9.959161e+00
0	 1.481481e+00	 8.666667e+00	 9.962967e+00
0	 1.481481e+00	 8.740741e+00	 9.966613e+00
0	 1.481481e+00	 8.814815e+00	 9.970106e+00
0	 1.481481e+00	 8.888889e+00	 9.973452e+00
0	 1.111111e+00	 8.888889e+00	 9.968248e+00
0	 1.111111e+00	 8.962963e+00	 9.972045e+00
0	 1.111111e+00	 9.037037e+00	 9.975613e+00
0	 1.111111e+00	 9.111111e+00	 9.978963e+00
0	 1.111111e+00	 9.185185e+00	 9.982105e+00
0	 1.111111e+00	 9.259259e+00	 9.985048e+00
0	 1.185185e+00	 8.888889e+00	 9.969201e+00
0	 1.185185e+00	 8.962963e+00	 9.972884e+00
0	 1.185185e+00	 9.037037e+00	 9.976345e+00
0	 1.185185e+00	 9.111111e+00	 9.979595e+00
0	 1.185185e+00	 9.185185e+00	 9.982642e+00
0	 1.185185e+00	 9.259259e+00	 9.985497e+00
0	 1.259259e+00	 8.888889e+00	 9.970206e+00
0	 1.259259e+00	 8.962963e+00	 9.973769e+00
0	 1.259259e+00	 9.037037e+00	 9.977118e+00
0	 1.259259e+00	 9.111111e+00	 9.980262e+00
0	 1.259259e+00	 9.185185e+00	 9.983211e+00
0	 1.259259e+00	 9.259259e+00	 9.985974e+00
0	 1.333333e+00	 8.888889e+00	 9.971254e+00
0	 1.333333e+00	 8.962963e+00	 9.974693e+00
0	 1.333333e+00	 9.037037e+00	 9.977925e+00
0	 1.333333e+00	 9.111111e+00	 9.980959e+00
0	 1.333333e+00	 9.185185e+00	 9.983805e+00
0	 1.333333e+00	 9.259259e+00	 9.986472e+00
0	 1.407407e+00	 8.888889e+00	 9.972338e+00
0	 1.407407e+00	 8.962963e+00	 9.975648e+00
0	 1.407407e+00	 9.037037e+00	 9.978759e+00
0	 1.407407e+00	 9.111111e+00	 9.981680e+00
0	 1.407407e+00	 9.185185e+00	 9.984419e+00
0	 1.407407e+00	 9.259259e+00	 9.986985e+00
0	 1.481481e+00	 8.888889e+00	 9.973452e+00
0	 1.481481e+00	 8.962963e+00	 9.976629e+00
0	 1.481481e+00	 9.037037e+00	 9.979614e+00
0	 1.481481e+00	 9.111111e+00	 9.982417e+00
0	 1.481481e+00	 9.185185e+00	 9.985046e+00
0	 1.481481e+00	 9.259259e+00	 9.987510e+00
0	 1.111111e+00	 9.259259e+00	 9.985048e+00
0	 1.111111e+00	 9.333333e+00	 9.987756e+00
0	 1.111111e+00	 9.407407e+00	 9.990193e+00
0	 1.111111e+00	 9.481481e+00	 9.992372e+00
0	 1.111111e+00	 9.555556e+00	 9.994306e+00
0	 1.111111e+00	 9.629630e+00	 9.996009e+00
0	 1.185185e+00	 9.259259e+00	 9.985497e+00
0	 1.185185e+00	 9.333333e+00	 9.988124e+00
0	 1.185185e+00	 9.407407e+00	 9.990488e+00
0	 1.185185e+00	 9.481481e+00	 9.992601e+00
0	 1.185185e+00	 9.555556e+00	 9.994477e+00
0	 1.185185e+00	 9.629630e+00	 9.996128e+00
0	 1.259259e+00	 9.259259e+00	 9.985974e+00
0	 1.259259e+00	 9.333333e+00	 9.988515e+00
0	 1.259259e+00	 9.407407e+00	 9.990802e+00
0	 1.259259e+00	 9.481481e+00	 9.992847e+00
0	 1.259259e+00	 9.555556e+00	 9.994662e+00
0	 1.259259e+00	 9.629630e+00	 9.996258e+00
0	 1.333333e+00	 9.259259e+00	 9.986472e+00
0	 1.333333e+00	 9.333333e+00	 9.988925e+00
0	 1.333333e+00	 9.407407e+00	 9.991132e+00
0	 1.333333e+00	 9.481481e+00	 9.993105e+00
0	 1.333333e+00	 9.555556e+00	 9.994856e+00
0	 1.333333e+00	 9.629630e+00	 9.996396e+00
0	 1.407407e+00	 9.259259e+00	 9.986985e+00
0	 1.407407e+00	 9.333333e+00	 9.989347e+00
0	 1.407407e+00	 9.407407e+00	 9.991471e+00
0	 1.407407e+00	 9.481481e+00	 9.993370e+00
0	 1.407407e+00	 9.555556e+00	 9.995055e+00
0	 1.407407e+00	 9.629630e+00	 9.996537e+00
0	 1.481481e+00	 9.259259e+00	 9.987510e+00
0	 1.481481e+00	 9.333333e+00	 9.989776e+00
0	 1.481481e+00	 9.407407e+00	 9.991814e+00
0	 1.481481e+00	 9.481481e+00	 9.993636e+00
0	 1.481481e+00	 9.555556e+00	 9.995253e+00
0	 1.481481e+00	 9.629630e+00	 9.996674e+00
0	 1.111111e+00	 9.629630e+00	 9.996009e+00
0	 1.111111e+00	 9.703704e+00	 9.997433e+00
0	 1.111111e+00	 9.777778e+00	 9.998530e+00
0	 1.111111e+00	 9.851852e+00	 9.999319e+00
0	 1.111111e+00	 9.925926e+00	 9.999817e+00
0	 1.111111e+00	 1.000000e+01	 1.000004e+01
0	 1.185185e+00	 9.629630e+00	 9.996128e+00
0	 1.185185e+00	 9.703704e+00	 9.997507e+00
0	 1.185185e+00	 9.777778e+00	 9.998571e+00
0	 1.185185e+00	 9.851852e+00	 9.999336e+00
0	 1.185185e+00	 9.925926e+00	 9.999818e+00
0	 1.185185e+00	 1.000000e+01	 1.000003e+01
0	 1.259259e+00	 9.629630e+00	 9.996258e+00
0	 1.259259e+00	 9.703704e+00	 9.997593e+00
0	 1.259259e+00	 9.777778e+00	 9.998622e+00
0	 1.259259e+00	 9.851852e+00	 9.999361e+00
0	 1.259259e+00	 9.925926e+00	 9.999827e+00
0	 1.259259e+00	 1.000000e+01	 1.000003e+01
0	 1.333333e+00	 9.629630e+00	 9.996396e+00
0	 1.333333e+00	 9.703704e+00	 9.997684e+00
0	 1.333333e+00	 9.777778e+00	 9.998676e+00
0	 1.333333e+00	 9.851852e+00	 9.999390e+00
0	 1.333333e+00	 9.925926e+00	 9.999839e+00
0	 1.333333e+00	 1.000000e+01	 1.000004e+01
0	 1.407407e+00	 9.629630e+00	 9.996537e+00
0	 1.407407e+00	 9.703704e+00	 9.997775e+00
0	 1.407407e+00	 9.777778e+00	 9.998730e+00
0	 1.407407e+00	 9.851852e+00	 9.999416e+00
0	 1.407407e+00	 9.925926e+00	 9.999848e+00
0	 1.407407e+00	 1.000000e+01	 1.000004e+01
0	 1.481481e+00	 9.629630e+00	 9.996674e+00
0	 1.481481e+00	 9.703704e+00	 9.997861e+00
0	 1.481481e+00	 9.777778e+00	 9.998777e+00
0	 1.481481e+00	 9.851852e+00	 9.999435e+00
0	 1.481481e+00	 9.925926e+00	 9.999848e+00
0	 1.481481e+00	 1.000000e+01	 1.000003e+01
0	 1.481481e+00	 0.000000e+00	-3.927872e+00
0	 1.481481e+00	 7.407407e-02	-3.625441e+00
0	 1.481481e+00	 1.481481e-01	-2.768906e+00
0	 1.481481e+00	 2.222222e-01	-1.323545e+00
0	 1.481481e+00	 2.962963e-01	 7.453589e-01
0	 1.481481e+00	 3.703704e-01	 3.472527e+00
0	 1.555556e+00	 0.000000e+00	-4.524019e+00
0	 1.555556e+00	 7.407407e-02	-3.116271e+00
0	 1.555556e+00	 1.481481e-01	-1.357789e+00
0	 1.555556e+00	 2.222222e-01	 7.568144e-01
0	 1.555556e+00	 2.962963e-01	 3.232924e+00
0	 1.555556e+00	 3.703704e-01	 6.075927e+00
0	 1.629630e+00	 0.000000e+00	-3.811413e+00
0	 1.629630e+00	 7.407407e-02	-1.806672e+00
0	 1.629630e+00	 1.481481e-01	 3.939067e-01
0	 1.629630e+00	 2.222222e-01	 2.775883e+00
0	 1.629630e+00	 2.962963e-01	 5.324819e+00
0	 1.629630e+00	 3.703704e-01	 8.026275e+00
0	 1.703704e+00	 0.000000e+00	-1.928253e+00
0	 1.703704e+00	 7.407407e-02	 2.230916e-01
0	 1.703704e+00	 1.481481e-01	 2.461319e+00
0	 1.703704e+00	 2.222222e-01	 4.761675e+00
0	 1.703704e+00	 2.962963e-01	 7.099404e+00
0	 1.703704e+00	 3.703704e-01	 9.449752e+00
0	 1.777778e+00	 0.000000e+00	 9.872611e-01
0	 1.777778e+00	 7.407407e-02	 2.892752e+00
0	 1.777778e+00	 1.481481e-01	 4.819586e+00
0	 1.777778e+00	 2.222222e-01	 6.742204e+00
0	 1.777778e+00	 2.962963e-01	 8.635042e+00
0	 1.777778e+00	 3.703704e-01	 1.047254e+01
0	 1.851852e+00	 0.000000e+00	 4.796931e+00
0	 1.851852e+00	 7.407407e-02	 6.122042e+00
0	 1.851852e+00	 1.481481e-01	 7.443846e+00
0	 1.851852e+00	 2.222222e-01	 8.745483e+00
0	 1.851852e+00	 2.962963e-01	 1.001010e+01
0	 1.851852e+00	 3.703704e-01	 1.122082e+01
0	 1.481481e+00	 3.703704e-01	 3.472527e+00
0	 1.481481e+00	 4.444444e-01	 6.365804e+00
0	 1.481481e+00	 5.185185e-01	 8.885204e+00
0	 1.481481e+00	 5.925926e-01	 1.099370e+01
0	 1.481481e+00	 6.666667e-01	 1.265426e+01
0	 1.481481e+00	 7.407407e-01	 1.382985e+01
0	 1.555556e+00	 3.703704e-01	 6.075927e+00
0	 1.555556e+00	 4.444444e-01	 8.834387e+00
0	 1.555556e+00	 5.185185e-01	 1.105366e+01
0	 1.555556e+00	 5.925926e-01	 1.273433e+01
0	 1.555556e+00	 6.666667e-01	 1.387697e+01
0	 1.555556e+00	 7.407407e-01	 1.448216e+01
0	 1.629630e+00	 3.703704e-01	 8.026275e+00
0	 1.629630e+00	 4.444444e-01	 1.049109e+01
0	 1.629630e+00	 5.185185e-01	 1.235739e+01
0	 1.629630e+00	 5.925926e-01	 1.365164e+01
0	 1.629630e+00	 6.666667e-01	 1.440033e+01
0	 1.629630e+00	 7.407407e-01	 1.462993e+01
0	 1.703704e+00	 3.703704e-01	 9.449752e+00
0	 1.703704e+00	 4.444444e-01	 1.149913e+01
0	 1.703704e+00	 5.185185e-01	 1.297755e+01
0	 1.703704e+00	 5.925926e-01	 1.392569e+01
0	 1.703704e+00	 6.666667e-01	 1.438423e+01
0	 1.703704e+00	 7.407407e-01	 1.439384e+01
0	 1.777778e+00	 3.703704e-01	 1.047254e+01
0	 1.777778e+00	 4.444444e-01	 1.202169e+01
0	 1.777778e+00	 5.185185e-01	 1.309531e+01
0	 1.777778e+00	 5.925926e-01	 1.373655e+01
0	 1.777778e+00	 6.666667e-01	 1.398859e+01
0	 1.777778e+00	 7.407407e-01	 1.389458e+01
0	 1.851852e+00	 3.703704e-01	 1.122082e+01
0	 1.851852e+00	 4.444444e-01	 1.222200e+01
0	 1.851852e+00	 5.185185e-01	 1.289185e+01
0	 1.851852e+00	 5.925926e-01	 1.326430e+01
0	 1.851852e+00	 6.666667e-01	 1.337332e+01
0	 1.851852e+00	 7.407407e-01	 1.325285e+01
0	 1.481481e+00	 7.407407e-01	 1.382985e+01
0	 1.481481e+00	 8.148148e-01	 1.460896e+01
0	 1.481481e+00	 8.888889e-01	 1.510201e+01
0	 1.481481e+00	 9.629630e-01	 1.530494e+01
0	 1.481481e+00	 1.037037e+00	 1.521365e+01
0	 1.481481e+00	 1.111111e+00	 1.482408e+01
0	 1.555556e+00	 7.407407e-01	 1.448216e+01
0	 1.555556e+00	 8.148148e-01	 1.472230e+01
0	 1.555556e+00	 8.888889e-01	 1.477396e+01
0	 1.555556e+00	 9.629630e-01	 1.464398e+01
0	 1.555556e+00	 1.037037e+00	 1.433919e+01
0	 1.555556e+00	 1.111111e+00	 1.386642e+01
0	 1.629630e+00	 7.407407e-01	 1.462993e+01
0	 1.629630e+00	 8.148148e-01	 1.454901e+01
0	 1.629630e+00	 8.888889e-01	 1.435791e+01
0	 1.629630e+00	 9.629630e-01	 1.407071e+01
0	 1.629630e+00	 1.037037e+00	 1.370152e+01
0	 1.629630e+00	 1.111111e+00	 1.326442e+01
0	 1.703704e+00	 7.407407e-01	 1.439384e+01
0	 1.703704e+00	 8.148148e-01	 1.416168e+01
0	 1.703704e+00	 8.888889e-01	 1.387964e+01
0	 1.703704e+00	 9.629630e-01	 1.356542e+01
0	 1.703704e+00	 1.037037e+00	 1.323673e+01
0	 1.703704e+00	 1.111111e+00	 1.291128e+01
0	 1.777778e+00	 7.407407e-01	 1.389458e+01
0	 1.777778e+00	 8.148148e-01	 1.363291e+01
0	 1.777778e+00	 8.888889e-01	 1.336494e+01
0	 1.777778e+00	 9.629630e-01	 1.310838e+01
0	 1.777778e+00	 1.037037e+00	 1.288090e+01
0	 1.777778e+00	 1.111111e+00	 1.270019e+01
0	 1.851852e+00	 7.407407e-01	 1.325285e+01
0	 1.851852e+00	 8.148148e-01	 1.303526e+01
0	 1.851852e+00	 8.888889e-01	 1.283960e+01
0	 1.851852e+00	 9.629630e-01	 1.267989e+01
0	 1.851852e+00	 1.037037e+00	 1.257013e+01
0	 1.851852e+00	 1.111111e+00	 1.252434e+01
0	 1.481481e+00	 1.111111e+00	 1.482408e+01
0	 1.481481e+00	 1.185185e+00	 1.428098e+01
0	 1.481481e+00	 1.259259e+00	 1.373353e+01
0	 1.481481e+00	 1.333333e+00	 1.318424e+01
0	 1.481481e+00	 1.407407e+00	 1.263563e+01
0	 1.481481e+00	 1.481481e+00	 1.209020e+01
0	 1.555556e+00	 1.111111e+00	 1.386642e+01
0	 1.555556e+00	 1.185185e+00	 1.334268e+01
0	 1.555556e+00	 1.259259e+00	 1.287879e+01
0	 1.555556e+00	 1.333333e+00	 1.247229e+01
0	 1.555556e+00	 1.407407e+00	 1.212069e+01
0	 1.555556e+00	 1.481481e+00	 1.182155e+01
0	 1.629630e+00	 1.111111e+00	 1.326442e+01
0	 1.629630e+00	 1.185185e+00	 1.283625e+01
0	 1.629630e+00	 1.259259e+00	 1.248066e+01
0	 1.629630e+00	 1.333333e+00	 1.219199e+01
0	 1.629630e+00	 1.407407e+00	 1.196459e+01
0	 1.629630e+00	 1.481481e+00	 1.179280e+01
0	 1.703704e+00	 1.111111e+00	 1.291128e+01
0	 1.703704e+00	 1.185185e+00	 1.262139e+01
0	 1.703704e+00	 1.259259e+00	 1.238287e+01
0	 1.703704e+00	 1.333333e+00	 1.218865e+01
0	 1.703704e+00	 1.407407e+00	 1.203169e+01
0	 1.703704e+00	 1.481481e+00	 1.190495e+01
0	 1.777778e+00	 1.111111e+00	 1.270019e+01
0	 1.777778e+00	 1.185185e+00	 1.255782e+01
0	 1.777778e+00	 1.259259e+00	 1.242917e+01
0	 1.777778e+00	 1.333333e+00	 1.230757e+01
0	 1.777778e+00	 1.407407e+00	 1.218638e+01
0	 1.777778e+00	 1.481481e+00	 1.205896e+01
0	 1.851852e+00	 1.111111e+00	 1.252434e+01
0	 1.851852e+00	 1.185185e+00	 1.250525e+01
0	 1.851852e+00	 1.259259e+00	 1.246330e+01
0	 1.851852e+00	 1.333333e+00	 1.239405e+01
0	 1.851852e+00	 1.407407e+00	 1.229304e+01
0	 1.851852e+00	 1.481481e+00	 1.215583e+01
0	 1.481481e+00	 1.481481e+00	 1.209020e+01
0	 1.481481e+00	 1.555556e+00	 1.159136e+01
0	 1.481481e+00	 1.629630e+00	 1.118746e+01
0	 1.481481e+00	 1.703704e+00	 1.088846e+01
0	 1.481481e+00	 1.777778e+00	 1.070435e+01
0	 1.481481e+00	 1.851852e+00	 1.064508e+01
0	 1.555556e+00	 1.481481e+00	 1.182155e+01
0	 1.555556e+00	 1.555556e+00	 1.155802e+01
0	 1.555556e+00	 1.629630e+00	 1.132163e+01
0	 1.555556e+00	 1.703704e+00	 1.112246e+01
0	 1.555556e+00	 1.777778e+00	 1.097061e+01
0	 1.555556e+00	 1.851852e+00	 1.087614e+01
0	 1.629630e+00	 1.481481e+00	 1.179280e+01
0	 1.629630e+00	 1.555556e+00	 1.164063e+01
0	 1.629630e+00	 1.629630e+00	 1.148209e+01
0	 1.629630e+00	 1.703704e+00	 1.132655e+01
0	 1.629630e+00	 1.777778e+00	 1.118338e+01
0	 1.629630e+00	 1.851852e+00	 1.106194e+01
0	 1.703704e+00	 1.481481e+00	 1.190495e+01
0	 1.703704e+00	 1.555556e+00	 1.178066e+01
0	 1.703704e+00	 1.629630e+00	 1.164098e+01
0	 1.703704e+00	 1.703704e+00	 1.149372e+01
0	 1.703704e+00	 1.777778e+00	 1.134673e+01
0	 1.703704e+00	 1.851852e+00	 1.120783e+01
0	 1.777778e+00	 1.481481e+00	 1.205896e+01
0	 1.777778e+00	 1.555556e+00	 1.191953e+01
0	 1.777778e+00	 1.629630e+00	 1.177038e+01
0	 1.777778e+00	 1.703704e+00	 1.161696e+01
0	 1.777778e+00	 1.777778e+00	 1.146473e+01
0	 1.777778e+00	 1.851852e+00	 1.131917e+01
0	 1.851852e+00	 1.481481e+00	 1.215583e+01
0	 1.851852e+00	 1.555556e+00	 1.199870e+01
0	 1.851852e+00	 1.629630e+00	 1.184242e+01
0	 1.851852e+00	 1.703704e+00	 1.168925e+01
0	 1.851852e+00	 1.777778e+00	 1.154146e+01
0	 1.851852e+00	 1.851852e+00	 1.140131e+01
0	 1.481481e+00	 1.851852e+00	 1.064508e+01
0	 1.481481e+00	 1.925926e+00	 1.063652e+01
0	 1.481481e+00	 2.000000e+00	 1.059658e+01
0	 1.481481e+00	 2.074074e+00	 1.052327e+01
0	 1.481481e+00	 2.148148e+00	 1.041462e+01
0	 1.481481e+00	 2.222222e+00	 1.026866e+01
0	 1.555556e+00	 1.851852e+00	 1.087614e+01
0	 1.555556e+00	 1.925926e+00	 1.081104e+01
0	 1.555556e+00	 2.000000e+00	 1.073725e+01
0	 1.555556e+00	 2.074074e+00	 1.064984e+01
0	 1.555556e+00	 2.148148e+00	 1.054390e+01
0	 1.555556e+00	 2.222222e+00	 1.041448e+01
0	 1.629630e+00	 1.851852e+00	 1.106194e+01
0	 1.629630e+00	 1.925926e+00	 1.095974e+01
0	 1.629630e+00	 2.000000e+00	 1.086360e+01
0	 1.629630e+00	 2.074074e+00	 1.076691e+01
0	 1.629630e+00	 2.148148e+00	 1.066305e+01
0	 1.629630e+00	 2.222222e+00	 1.054538e+01
0	 1.703704e+00	 1.851852e+00	 1.120783e+01
0	 1.703704e+00	 1.925926e+00	 1.108486e+01
0	 1.703704e+00	 2.000000e+00	 1.097576e+01
0	 1.703704e+00	 2.074074e+00	 1.087346e+01
0	 1.703704e+00	 2.148148e+00	 1.077088e+01
0	 1.703704e+00	 2.222222e+00	 1.066097e+01
0	 1.777778e+00	 1.851852e+00	 1.131917e+01
0	 1.777778e+00	 1.925926e+00	 1.118867e+01
0	 1.777778e+00	 2.000000e+00	 1.107384e+01
0	 1.777778e+00	 2.074074e+00	 1.096844e+01
0	 1.777778e+00	 2.148148e+00	 1.086620e+01
0	 1.777778e+00	 2.222222e+00	 1.076089e+01
0	 1.851852e+00	 1.851852e+00	 1.140131e+01
0	 1.851852e+00	 1.925926e+00	 1.127339e+01
0	 1.851852e+00	 2.000000e+00	 1.115795e+01
0	 1.851852e+00	 2.074074e+00	 1.105082e+01
0	 1.851852e+00	 2.148148e+00	 1.094782e+01
0	 1.851852e+00	 2.222222e+00	 1.084476e+01
0	 1.481481e+00	 2.222222e+00	 1.026866e+01
0	 1.481481e+00	 2.296296e+00	 1.011735e+01
0	 1.481481e+00	 2.370370e+00	 9.994007e+00
0	 1.481481e+00	 2.444444e+00	 9.898642e+00
0	 1.481481e+00	 2.518519e+00	 9.831279e+00
0	 1.481481e+00	 2.592593e+00	 9.791938e+00
0	 1.555556e+00	 2.222222e+00	 1.041448e+01
0	 1.555556e+00	 2.296296e+00	 1.028002e+01
0	 1.555556e+00	 2.370370e+00	 1.016337e+01
0	 1.555556e+00	 2.444444e+00	 1.006630e+01
0	 1.555556e+00	 2.518519e+00	 9.990583e+00
0	 1.555556e+00	 2.592593e+00	 9.937973e+00
0	 1.629630e+00	 2.222222e+00	 1.054538e+01
0	 1.629630e+00	 2.296296e+00	 1.042312e+01
0	 1.629630e+00	 2.370370e+00	 1.031177e+01
0	 1.629630e+00	 2.444444e+00	 1.021412e+01
0	 1.629630e+00	 2.518519e+00	 1.013299e+01
0	 1.629630e+00	 2.592593e+00	 1.007118e+01
0	 1.703704e+00	 2.222222e+00	 1.066097e+01
0	 1.703704e+00	 2.296296e+00	 1.054740e+01
0	 1.703704e+00	 2.370370e+00	 1.044064e+01
0	 1.703704e+00	 2.444444e+00	 1.034384e+01
0	 1.703704e+00	 2.518519e+00	 1.026012e+01
0	 1.703704e+00	 2.592593e+00	 1.019263e+01
0	 1.777778e+00	 2.222222e+00	 1.076089e+01
0	 1.777778e+00	 2.296296e+00	 1.065359e+01
0	 1.777778e+00	 2.370370e+00	 1.055143e+01
0	 1.777778e+00	 2.444444e+00	 1.045717e+01
0	 1.777778e+00	 2.518519e+00	 1.037358e+01
0	 1.777778e+00	 2.592593e+00	 1.030342e+01
0	 1.851852e+00	 2.222222e+00	 1.084476e+01
0	 1.851852e+00	 2.296296e+00	 1.074244e+01
0	 1.851852e+00	 2.370370e+00	 1.064557e+01
0	 1.851852e+00	 2.444444e+00	 1.055585e+01
0	 1.851852e+00	 2.518519e+00	 1.047497e+01
0	 1.851852e+00	 2.592593e+00	 1.040462e+01
0	 1.481481e+00	 2.592593e+00	 9.791938e+00
0	 1.481481e+00	 2.666667e+00	 9.764973e+00
0	 1.481481e+00	 2.740741e+00	 9.734923e+00
0	 1.481481e+00	 2.814815e+00	 9.702092e+00
0	 1.481481e+00	 2.888889e+00	 9.666783e+00
0	 1.481481e+00	 2.962963e+00	 9.629300e+00
0	 1.555556e+00	 2.592593e+00	 9.937973e+00
0	 1.555556e+00	 2.666667e+00	 9.898389e+00
0	 1.555556e+00	 2.740741e+00	 9.860006e+00
0	 1.555556e+00	 2.814815e+00	 9.821973e+00
0	 1.555556e+00	 2.888889e+00	 9.783438e+00
0	 1.555556e+00	 2.962963e+00	 9.743549e+00
0	 1.629630e+00	 2.592593e+00	 1.007118e+01
0	 1.629630e+00	 2.666667e+00	 1.002246e+01
0	 1.629630e+00	 2.740741e+00	 9.977711e+00
0	 1.629630e+00	 2.814815e+00	 9.935344e+00
0	 1.629630e+00	 2.888889e+00	 9.893776e+00
0	 1.629630e+00	 2.962963e+00	 9.851424e+00
0	 1.703704e+00	 2.592593e+00	 1.019263e+01
0	 1.703704e+00	 2.666667e+00	 1.013762e+01
0	 1.703704e+00	 2.740741e+00	 1.008798e+01
0	 1.703704e+00	 2.814815e+00	 1.004183e+01
0	 1.703704e+00	 2.888889e+00	 9.997273e+00
0	 1.703704e+00	 2.962963e+00	 9.952416e+00
0	 1.777778e+00	 2.592593e+00	 1.030342e+01
0	 1.777778e+00	 2.666667e+00	 1.024430e+01
0	 1.777778e+00	 2.740741e+00	 1.019077e+01
0	 1.777778e+00	 2.814815e+00	 1.014107e+01
0	 1.777778e+00	 2.888889e+00	 1.009340e+01
0	 1.777778e+00	 2.962963e+00	 1.004601e+01
0	 1.851852e+00	 2.592593e+00	 1.040462e+01
0	 1.851852e+00	 2.666667e+00	 1.034293e+01
0	 1.851852e+00	 2.740741e+00	 1.028602e+01
0	 1.851852e+00	 2.814815e+00	 1.023267e+01
0	 1.851852e+00	 2.888889e+00	 1.018165e+01
0	 1.851852e+00	 2.962963e+00	 1.013171e+01
0	 1.481481e+00	 2.962963e+00	 9.629300e+00
0	 1.481481e+00	 3.037037e+00	 9.594260e+00
0	 1.481481e+00	 3.111111e+00	 9.566107e+00
0	 1.481481e+00	 3.185185e+00	 9.544878e+00
0	 1.481481e+00	 3.259259e+00	 9.530612e+00
0	 1.481481e+00	 3.333333e+00	 9.523348e+00
0	 1.555556e+00	 2.962963e+00	 9.743549e+00
0	 1.555556e+00	 3.037037e+00	 9.705254e+00
0	 1.555556e+00	 3.111111e+00	 9.672474e+00
0	 1.555556e+00	 3.185185e+00	 9.645816e+00
0	 1.555556e+00	 3.259259e+00	 9.625885e+00
0	 1.555556e+00	 3.333333e+00	 9.613287e+00
0	 1.629630e+00	 2.962963e+00	 9.851424e+00
0	 1.629630e+00	 3.037037e+00	 9.810127e+00
0	 1.629630e+00	 3.111111e+00	 9.773410e+00
0	 1.629630e+00	 3.185185e+00	 9.742227e+00
0	 1.629630e+00	 3.259259e+00	 9.717528e+00
0	 1.629630e+00	 3.333333e+00	 9.700265e+00
0	 1.703704e+00	 2.962963e+00	 9.952416e+00
0	 1.703704e+00	 3.037037e+00	 9.908455e+00
0	 1.703704e+00	 3.111111e+00	 9.868558e+00
0	 1.703704e+00	 3.185185e+00	 9.833801e+00
0	 1.703704e+00	 3.259259e+00	 9.805258e+00
0	 1.703704e+00	 3.333333e+00	 9.784004e+00
0	 1.777778e+00	 2.962963e+00	 1.004601e+01
0	 1.777778e+00	 3.037037e+00	 9.999813e+00
0	 1.777778e+00	 3.111111e+00	 9.957559e+00
0	 1.777778e+00	 3.185185e+00	 9.920226e+00
0	 1.777778e+00	 3.259259e+00	 9.888790e+00
0	 1.777778e+00	 3.333333e+00	 9.864225e+00
0	 1.851852e+00	 2.962963e+00	 1.013171e+01
0	 1.851852e+00	 3.037037e+00	 1.008378e+01
0	 1.851852e+00	 3.111111e+00	 1.004006e+01
0	 1.851852e+00	 3.185185e+00	 1.000119e+01
0	 1.851852e+00	 3.259259e+00	 9.967839e+00
0	 1.851852e+00	 3.333333e+00	 9.940650e+00
0	 1.481481e+00	 3.333333e+00	 9.523348e+00
0	 1.481481e+00	 3.407407e+00	 9.519570e+00
0	 1.481481e+00	 3.481481e+00	 9.515863e+00
0	 1.481481e+00	 3.555556e+00	 9.512418e+00
0	 1.481481e+00	 3.629630e+00	 9.509427e+00
0	 1.481481e+00	 3.703704e+00	 9.507079e+00
0	 1.555556e+00	 3.333333e+00	 9.613287e+00
0	 1.555556e+00	 3.407407e+00	 9.604968e+00
0	 1.555556e+00	 3.481481e+00	 9.597401e+00
0	 1.555556e+00	 3.555556e+00	 9.590487e+00
0	 1.555556e+00	 3.629630e+00	 9.584130e+00
0	 1.555556e+00	 3.703704e+00	 9.578230e+00
0	 1.629630e+00	 3.333333e+00	 9.700265e+00
0	 1.629630e+00	 3.407407e+00	 9.687765e+00
0	 1.629630e+00	 3.481481e+00	 9.676532e+00
0	 1.629630e+00	 3.555556e+00	 9.666281e+00
0	 1.629630e+00	 3.629630e+00	 9.656731e+00
0	 1.629630e+00	 3.703704e+00	 9.647599e+00
0	 1.703704e+00	 3.333333e+00	 9.784004e+00
0	 1.703704e+00	 3.407407e+00	 9.767677e+00
0	 1.703704e+00	 3.481481e+00	 9.752955e+00
0	 1.703704e+00	 3.555556e+00	 9.739475e+00
0	 1.703704e+00	 3.629630e+00	 9.726875e+00
0	 1.703704e+00	 3.703704e+00	 9.714791e+00
0	 1.777778e+00	 3.333333e+00	 9.864225e+00
0	 1.777778e+00	 3.407407e+00	 9.844415e+00
0	 1.777778e+00	 3.481481e+00	 9.826368e+00
0	 1.777778e+00	 3.555556e+00	 9.809744e+00
0	 1.777778e+00	 3.629630e+00	 9.794206e+00
0	 1.777778e+00	 3.703704e+00	 9.779413e+00
0	 1.851852e+00	 3.333333e+00	 9.940650e+00
0	 1.851852e+00	 3.407407e+00	 9.917696e+00
0	 1.851852e+00	 3.481481e+00	 9.896471e+00
0	 1.851852e+00	 3.555556e+00	 9.876764e+00
0	 1.851852e+00	 3.629630e+00	 9.858367e+00
0	 1.851852e+00	 3.703704e+00	 9.841070e+00
0	 1.481481e+00	 3.703704e+00	 9.507079e+00
0	 1.481481e+00	 3.777778e+00	 9.505933e+00
0	 1.481481e+00	 3.851852e+00	 9.506443e+00
0	 1.481481e+00	 3.925926e+00	 9.508650e+00
0	 1.481481e+00	 4.000000e+00	 9.512593e+00
0	 1.481481e+00	 4.074074e+00	 9.518310e+00
0	 1.555556e+00	 3.703704e+00	 9.578230e+00
0	 1.555556e+00	 3.777778e+00	 9.573335e+00
0	 1.555556e+00	 3.851852e+00	 9.570164e+00
0	 1.555556e+00	 3.925926e+00	 9.568879e+00
0	 1.555556e+00	 4.000000e+00	 9.569640e+00
0	 1.555556e+00	 4.074074e+00	 9.572607e+00
0	 1.629630e+00	 3.703704e+00	 9.647599e+00
0	 1.629630e+00	 3.777778e+00	 9.639385e+00
0	 1.629630e+00	 3.851852e+00	 9.632937e+00
0	 1.629630e+00	 3.925926e+00	 9.628488e+00
0	 1.629630e+00	 4.000000e+00	 9.626275e+00
0	 1.629630e+00	 4.074074e+00	 9.626532e+00
0	 1.703704e+00	 3.703704e+00	 9.714791e+00
0	 1.703704e+00	 3.777778e+00	 9.703657e+00
0	 1.703704e+00	 3.851852e+00	 9.694323e+00
0	 1.703704e+00	 3.925926e+00	 9.687050e+00
0	 1.703704e+00	 4.000000e+00	 9.682103e+00
0	 1.703704e+00	 4.074074e+00	 9.679744e+00
0	 1.777778e+00	 3.703704e+00	 9.779413e+00
0	 1.777778e+00	 3.777778e+00	 9.765724e+00
0	 1.777778e+00	 3.851852e+00	 9.753885e+00
0	 1.777778e+00	 3.925926e+00	 9.744139e+00
0	 1.777778e+00	 4.000000e+00	 9.736731e+00
0	 1.777778e+00	 4.074074e+00	 9.731903e+00
0	 1.851852e+00	 3.703704e+00	 9.841070e+00
0	 1.851852e+00	 3.777778e+00	 9.825160e+00
0	 1.851852e+00	 3.851852e+00	 9.811187e+00
0	 1.851852e+00	 3.925926e+00	 9.799328e+00
0	 1.851852e+00	 4.000000e+00	 9.789762e+00
0	 1.851852e+00	 4.074074e+00	 9.782667e+00
0	 1.481481e+00	 4.074074e+00	 9.518310e+00
0	 1.481481e+00	 4.148148e+00	 9.524943e+00
0	 1.481481e+00	 4.222222e+00	 9.531659e+00
0	 1.481481e+00	 4.296296e+00	 9.538537e+00
0	 1.481481e+00	 4.370370e+00	 9.545654e+00
0	 1.481481e+00	 4.444444e+00	 9.553090e+00
0	 1.555556e+00	 4.074074e+00	 9.572607e+00
0	 1.555556e+00	 4.148148e+00	 9.576813e+00
0	 1.555556e+00	 4.222222e+00	 9.581204e+00
0	 1.555556e+00	 4.296296e+00	 9.585812e+00
0	 1.555556e+00	 4.370370e+00	 9.590668e+00
0	 1.555556e+00	 4.444444e+00	 9.595805e+00
0	 1.629630e+00	 4.074074e+00	 9.626532e+00
0	 1.629630e+00	 4.148148e+00	 9.628260e+00
0	 1.629630e+00	 4.222222e+00	 9.630302e+00
0	 1.629630e+00	 4.296296e+00	 9.632661e+00
0	 1.629630e+00	 4.370370e+00	 9.635336e+00
0	 1.629630e+00	 4.444444e+00	 9.638330e+00
0	 1.703704e+00	 4.074074e+00	 9.679744e+00
0	 1.703704e+00	 4.148148e+00	 9.678998e+00
0	 1.703704e+00	 4.222222e+00	 9.678705e+00
0	 1.703704e+00	 4.296296e+00	 9.678854e+00
0	 1.703704e+00	 4.370370e+00	 9.679430e+00
0	 1.703704e+00	 4.444444e+00	 9.680422e+00
0	 1.777778e+00	 4.074074e+00	 9.731903e+00
0	 1.777778e+00	 4.148148e+00	 9.728742e+00
0	 1.777778e+00	 4.222222e+00	 9.726165e+00
0	 1.777778e+00	 4.296296e+00	 9.724162e+00
0	 1.777778e+00	 4.370370e+00	 9.722722e+00
0	 1.777778e+00	 4.444444e+00	 9.721836e+00
0	 1.851852e+00	 4.074074e+00	 9.782667e+00
0	 1.851852e+00	 4.148148e+00	 9.777206e+00
0	 1.851852e+00	 4.222222e+00	 9.772432e+00
0	 1.851852e+00	 4.296296e+00	 9.768355e+00
0	 1.851852e+00	 4.370370e+00	 9.764983e+00
0	 1.851852e+00	 4.444444e+00	 9.762326e+00
0	 1.481481e+00	 4.444444e+00	 9.553090e+00
0	 1.481481e+00	 4.518519e+00	 9.560863e+00
0	 1.481481e+00	 4.592593e+00	 9.568949e+00
0	 1.481481e+00	 4.666667e+00	 9.577369e+00
0	 1.481481e+00	 4.740741e+00	 9.586145e+00
0	 1.481481e+00	 4.814815e+00	 9.595297e+00
0	 1.555556e+00	 4.444444e+00	 9.595805e+00
0	 1.555556e+00	 4.518519e+00	 9.601306e+00
0	 1.555556e+00	 4.592593e+00	 9.607264e+00
0	 1.555556e+00	 4.666667e+00	 9.613714e+00
0	 1.555556e+00	 4.740741e+00	 9.620693e+00
0	 1.555556e+00	 4.814815e+00	 9.628240e+00
0	 1.629630e+00	 4.444444e+00	 9.638330e+00
0	 1.629630e+00	 4.518519e+00	 9.641744e+00
0	 1.629630e+00	 4.592593e+00	 9.645710e+00
0	 1.629630e+00	 4.666667e+00	 9.650278e+00
0	 1.629630e+00	 4.740741e+00	 9.655495e+00
0	 1.629630e+00	 4.814815e+00	 9.661410e+00
0	 1.703704e+00	 4.444444e+00	 9.680422e+00
0	 1.703704e+00	 4.518519e+00	 9.681910e+00
0	 1.703704e+00	 4.592593e+00	 9.684016e+00
0	 1.703704e+00	 4.666667e+00	 9.686796e+00
0	 1.703704e+00	 4.740741e+00	 9.690303e+00
0	 1.703704e+00	 4.814815e+00	 9.694589e+00
0	 1.777778e+00	 4.444444e+00	 9.721836e+00
0	 1.777778e+00	 4.518519e+00	 9.721540e+00
0	 1.777778e+00	 4.592593e+00	 9.721911e+00
0	 1.777778e+00	 4.666667e+00	 9.723003e+00
0	 1.777778e+00	 4.740741e+00	 9.724868e+00
0	 1.777778e+00	 4.814815e+00	 9.727560e+00
0	 1.851852e+00	 4.444444e+00	 9.762326e+00
0	 1.851852e+00	 4.518519e+00	 9.760369e+00
0	 1.851852e+00	 4.592593e+00	 9.759122e+00
0	 1.851852e+00	 4.666667e+00	 9.758631e+00
0	 1.851852e+00	 4.740741e+00	 9.758944e+00
0	 1.851852e+00	 4.814815e+00	 9.760107e+00
0	 1.481481e+00	 4.814815e+00	 9.595297e+00
0	 1.481481e+00	 4.888889e+00	 9.604600e+00
0	 1.481481e+00	 4.962963e+00	 9.613838e+00
0	 1.481481e+00	 5.037037e+00	 9.623041e+00
0	 1.481481e+00	 5.111111e+00	 9.632240e+00
0	 1.481481e+00	 5.185185e+00	 9.641466e+00
0	 1.555556e+00	 4.814815e+00	 9.628240e+00
0	 1.555556e+00	 4.888889e+00	 9.636059e+00
0	 1.555556e+00	 4.962963e+00	 9.643849e+00
0	 1.555556e+00	 5.037037e+00	 9.651639e+00
0	 1.555556e+00	 5.111111e+00	 9.659458e+00
0	 1.555556e+00	 5.185185e+00	 9.667335e+00
0	 1.629630e+00	 4.814815e+00	 9.661410e+00
0	 1.629630e+00	 4.888889e+00	 9.667696e+00
0	 1.629630e+00	 4.962963e+00	 9.674014e+00
0	 1.629630e+00	 5.037037e+00	 9.680391e+00
0	 1.629630e+00	 5.111111e+00	 9.686855e+00
0	 1.629630e+00	 5.185185e+00	 9.693435e+00
0	 1.703704e+00	 4.814815e+00	 9.694589e+00
0	 1.703704e+00	 4.888889e+00	 9.699328e+00
0	 1.703704e+00	 4.962963e+00	 9.704173e+00
0	 1.703704e+00	 5.037037e+00	 9.709152e+00
0	 1.703704e+00	 5.111111e+00	 9.714292e+00
0	 1.703704e+00	 5.185185e+00	 9.719620e+00
0	 1.777778e+00	 4.814815e+00	 9.727560e+00
0	 1.777778e+00	 4.888889e+00	 9.730769e+00
0	 1.777778e+00	 4.962963e+00	 9.734165e+00
0	 1.777778e+00	 5.037037e+00	 9.737776e+00
0	 1.777778e+00	 5.111111e+00	 9.741628e+00
0	 1.777778e+00	 5.185185e+00	 9.745748e+00
0	 1.851852e+00	 4.814815e+00	 9.760107e+00
0	 1.851852e+00	 4.888889e+00	 9.761835e+00
0	 1.851852e+00	 4.962963e+00	 9.763830e+00
0	 1.851852e+00	 5.037037e+00	 9.766116e+00
0	 1.851852e+00	 5.111111e+00	 9.768722e+00
0	 1.851852e+00	 5.185185e+00	 9.771673e+00
0	 1.481481e+00	 5.185185e+00	 9.641466e+00
0	 1.481481e+00	 5.259259e+00	 9.650692e+00
0	 1.481481e+00	 5.333333e+00	 9.659880e+00
0	 1.481481e+00	 5.407407e+00	 9.669040e+00
0	 1.481481e+00	 5.481481e+00	 9.678182e+00
0	 1.481481e+00	 5.555556e+00	 9.687316e+00
0	 1.555556e+00	 5.185185e+00	 9.667335e+00
0	 1.555556e+00	 5.259259e+00	 9.675268e+00
0	 1.555556e+00	 5.333333e+00	 9.683240e+00
0	 1.555556e+00	 5.407407e+00	 9.691263e+00
0	 1.555556e+00	 5.481481e+00	 9.699346e+00
0	 1.555556e+00	 5.555556e+00	 9.707499e+00
0	 1.629630e+00	 5.185185e+00	 9.693435e+00
0	 1.629630e+00	 5.259259e+00	 9.700127e+00
0	 1.629630e+00	 5.333333e+00	 9.706917e+00
0	 1.629630e+00	 5.407407e+00	 9.713817e+00
0	 1.629630e+00	 5.481481e+00	 9.720838e+00
0	 1.629630e+00	 5.555556e+00	 9.727990e+00
0	 1.703704e+00	 5.185185e+00	 9.719620e+00
0	 1.703704e+00	 5.259259e+00	 9.725119e+00
0	 1.703704e+00	 5.333333e+00	 9.730760e+00
0	 1.703704e+00	 5.407407e+00	 9.736557e+00
0	 1.703704e+00	 5.481481e+00	 9.742522e+00
0	 1.703704e+00	 5.555556e+00	 9.748667e+00
0	 1.777778e+00	 5.185185e+00	 9.745748e+00
0	 1.777778e+00	 5.259259e+00	 9.750095e+00
0	 1.777778e+00	 5.333333e+00	 9.754620e+00
0	 1.777778e+00	 5.407407e+00	 9.759338e+00
0	 1.777778e+00	 5.481481e+00	 9.764262e+00
0	 1.777778e+00	 5.555556e+00	 9.769406e+00
0	 1.851852e+00	 5.185185e+00	 9.771673e+00
0	 1.851852e+00	 5.259259e+00	 9.774905e+00
0	 1.851852e+00	 5.333333e+00	 9.778346e+00
0	 1.851852e+00	 5.407407e+00	 9.782013e+00
0	 1.851852e+00	 5.481481e+00	 9.785920e+00
0	 1.851852e+00	 5.555556e+00	 9.790085e+00
0	 1.481481e+00	 5.555556e+00	 9.687316e+00
0	 1.481481e+00	 5.629630e+00	 9.696383e+00
0	 1.481481e+00	 5.703704e+00	 9.705323e+00
0	 1.481481e+00	 5.777778e+00	 9.714151e+00
0	 1.481481e+00	 5.851852e+00	 9.722877e+00
0	 1.481481e+00	 5.925926e+00	 9.731514e+00
0	 1.555556e+00	 5.555556e+00	 9.707499e+00
0	 1.555556e+00	 5.629630e+00	 9.715637e+00
0	 1.555556e+00	 5.703704e+00	 9.723676e+00
0	 1.555556e+00	 5.777778e+00	 9.731631e+00
0	 1.555556e+00	 5.851852e+00	 9.739518e+00
0	 1.555556e+00	 5.925926e+00	 9.747351e+00
0	 1.629630e+00	 5.555556e+00	 9.727990e+00
0	 1.629630e+00	 5.629630e+00	 9.735175e+00
0	 1.629630e+00	 5.703704e+00	 9.742298e+00
0	 1.629630e+00	 5.777778e+00	 9.749375e+00
0	 1.629630e+00	 5.851852e+00	 9.756424e+00
0	 1.629630e+00	 5.925926e+00	 9.763460e+00
0	 1.703704e+00	 5.555556e+00	 9.748667e+00
0	 1.703704e+00	 5.629630e+00	 9.754889e+00
0	 1.703704e+00	 5.703704e+00	 9.761093e+00
0	 1.703704e+00	 5.777778e+00	 9.767294e+00
0	 1.703704e+00	 5.851852e+00	 9.773511e+00
0	 1.703704e+00	 5.925926e+00	 9.779760e+00
0	 1.777778e+00	 5.555556e+00	 9.769406e+00
0	 1.777778e+00	 5.629630e+00	 9.774672e+00
0	 1.777778e+00	 5.703704e+00	 9.779964e+00
0	 1.777778e+00	 5.777778e+00	 9.785299e+00
0	 1.777778e+00	 5.851852e+00	 9.790694e+00
0	 1.777778e+00	 5.925926e+00	 9.796167e+00
0	 1.851852e+00	 5.555556e+00	 9.790085e+00
0	 1.851852e+00	 5.629630e+00	 9.794414e+00
0	 1.851852e+00	 5.703704e+00	 9.798814e+00
0	 1.851852e+00	 5.777778e+00	 9.803300e+00
0	 1.851852e+00	 5.851852e+00	 9.807889e+00
0	 1.851852e+00	 5.925926e+00	 9.812597e+00
0	 1.481481e+00	 5.925926e+00	 9.731514e+00
0	 1.481481e+00	 6.000000e+00	 9.740049e+00
0	 1.481481e+00	 6.074074e+00	 9.748461e+00
0	 1.481481e+00	 6.148148e+00	 9.756757e+00
0	 1.481481e+00	 6.222222e+00	 9.764943e+00
0	 1.481481e+00	 6.296296e+00	 9.773023e+00
0	 1.555556e+00	 5.925926e+00	 9.747351e+00
0	 1.555556e+00	 6.000000e+00	 9.755118e+00
0	 1.555556e+00	 6.074074e+00	 9.762802e+00
0	 1.555556e+00	 6.148148e+00	 9.770407e+00
0	 1.555556e+00	 6.222222e+00	 9.777939e+00
0	 1.555556e+00	 6.296296e+00	 9.785401e+00
0	 1.629630e+00	 5.925926e+00	 9.763460e+00
0	 1.629630e+00	 6.000000e+00	 9.770469e+00
0	 1.629630e+00	 6.074074e+00	 9.777426e+00
0	 1.629630e+00	 6.148148e+00	 9.784337e+00
0	 1.629630e+00	 6.222222e+00	 9.791206e+00
0	 1.629630e+00	 6.296296e+00	 9.798037e+00
0	 1.703704e+00	 5.925926e+00	 9.779760e+00
0	 1.703704e+00	 6.000000e+00	 9.786018e+00
0	 1.703704e+00	 6.074074e+00	 9.792252e+00
0	 1.703704e+00	 6.148148e+00	 9.798467e+00
0	 1.703704e+00	 6.222222e+00	 9.804669e+00
0	 1.703704e+00	 6.296296e+00	 9.810863e+00
0	 1.777778e+00	 5.925926e+00	 9.796167e+00
0	 1.777778e+00	 6.000000e+00	 9.801682e+00
0	 1.777778e+00	 6.074074e+00	 9.807197e+00
0	 1.777778e+00	 6.148148e+00	 9.812720e+00
0	 1.777778e+00	 6.222222e+00	 9.818256e+00
0	 1.777778e+00	 6.296296e+00	 9.823811e+00
0	 1.851852e+00	 5.925926e+00	 9.812597e+00
0	 1.851852e+00	 6.000000e+00	 9.817377e+00
0	 1.851852e+00	 6.074074e+00	 9.822181e+00
0	 1.851852e+00	 6.148148e+00	 9.827017e+00
0	 1.851852e+00	 6.222222e+00	 9.831891e+00
0	 1.851852e+00	 6.296296e+00	 9.836813e+00
0	 1.481481e+00	 6.296296e+00	 9.773023e+00
0	 1.481481e+00	 6.370370e+00	 9.780983e+00
0	 1.481481e+00	 6.444444e+00	 9.788804e+00
0	 1.481481e+00	 6.518519e+00	 9.796495e+00
0	 1.481481e+00	 6.592593e+00	 9.804060e+00
0	 1.481481e+00	 6.666667e+00	 9.811506e+00
0	 1.555556e+00	 6.296296e+00	 9.785401e+00
0	 1.555556e+00	 6.370370e+00	 9.792770e+00
0	 1.555556e+00	 6.444444e+00	 9.800020e+00
0	 1.555556e+00	 6.518519e+00	 9.807161e+00
0	 1.555556e+00	 6.592593e+00	 9.814198e+00
0	 1.555556e+00	 6.666667e+00	 9.821140e+00
0	 1.629630e+00	 6.296296e+00	 9.798037e+00
0	 1.629630e+00	 6.370370e+00	 9.804801e+00
0	 1.629630e+00	 6.444444e+00	 9.811471e+00
0	 1.629630e+00	 6.518519e+00	 9.818053e+00
0	 1.629630e+00	 6.592593e+00	 9.824558e+00
0	 1.629630e+00	 6.666667e+00	 9.830992e+00
0	 1.703704e+00	 6.296296e+00	 9.810863e+00
0	 1.703704e+00	 6.370370e+00	 9.817017e+00
0	 1.703704e+00	 6.444444e+00	 9.823099e+00
0	 1.703704e+00	 6.518519e+00	 9.829120e+00
0	 1.703704e+00	 6.592593e+00	 9.835089e+00
0	 1.703704e+00	 6.666667e+00	 9.841013e+00
0	 1.777778e+00	 6.296296e+00	 9.823811e+00
0	 1.777778e+00	 6.370370e+00	 9.829353e+00
0	 1.777778e+00	 6.444444e+00	 9.834849e+00
0	 1.777778e+00	 6.518519e+00	 9.840309e+00
0	 1.777778e+00	 6.592593e+00	 9.845741e+00
0	 1.777778e+00	 6.666667e+00	 9.851155e+00
0	 1.851852e+00	 6.296296e+00	 9.836813e+00
0	 1.851852e+00	 6.370370e+00	 9.841749e+00
0	 1.851852e+00	 6.444444e+00	 9.846664e+00
0	 1.851852e+00	 6.518519e+00	 9.851567e+00
0	 1.851852e+00	 6.592593e+00	 9.856466e+00
0	 1.851852e+00	 6.666667e+00	 9.861370e+00
0	 1.481481e+00	 6.666667e+00	 9.811506e+00
0	 1.481481e+00	 6.740741e+00	 9.818826e+00
0	 1.481481e+00	 6.814815e+00	 9.826011e+00
0	 1.481481e+00	 6.888889e+00	 9.833065e+00
0	 1.481481e+00	 6.962963e+00	 9.839993e+00
0	 1.481481e+00	 7.037037e+00	 9.846798e+00
0	 1.555556e+00	 6.666667e+00	 9.821140e+00
0	 1.555556e+00	 6.740741e+00	 9.827979e+00
0	 1.555556e+00	 6.814815e+00	 9.834702e+00
0	 1.555556e+00	 6.888889e+00	 9.841315e+00
0	 1.555556e+00	 6.962963e+00	 9.847820e+00
0	 1.555556e+00	 7.037037e+00	 9.854222e+00
0	 1.629630e+00	 6.666667e+00	 9.830992e+00
0	 1.629630e+00	 6.740741e+00	 9.837345e+00
0	 1.629630e+00	 6.814815e+00	 9.843601e+00
0	 1.629630e+00	 6.888889e+00	 9.849765e+00
0	 1.629630e+00	 6.962963e+00	 9.855840e+00
0	 1.629630e+00	 7.037037e+00	 9.861830e+00
0	 1.703704e+00	 6.666667e+00	 9.841013e+00
0	 1.703704e+00	 6.740741e+00	 9.846877e+00
0	 1.703704e+00	 6.814815e+00	 9.852662e+00
0	 1.703704e+00	 6.888889e+00	 9.858372e+00
0	 1.703704e+00	 6.962963e+00	 9.864011e+00
0	 1.703704e+00	 7.037037e+00	 9.869583e+00
0	 1.777778e+00	 6.666667e+00	 9.851155e+00
0	 1.777778e+00	 6.740741e+00	 9.856529e+00
0	 1.777778e+00	 6.814815e+00	 9.861841e+00
0	 1.777778e+00	 6.888889e+00	 9.867094e+00
0	 1.777778e+00	 6.962963e+00	 9.872293e+00
0	 1.777778e+00	 7.037037e+00	 9.877443e+00
0	 1.851852e+00	 6.666667e+00	 9.861370e+00
0	 1.851852e+00	 6.740741e+00	 9.866255e+00
0	 1.851852e+00	 6.814815e+00	 9.871092e+00
0	 1.851852e+00	 6.888889e+00	 9.875887e+00
0	 1.851852e+00	 6.962963e+00	 9.880646e+00
0	 1.851852e+00	 7.037037e+00	 9.885373e+00
0	 1.481481e+00	 7.037037e+00	 9.846798e+00
0	 1.481481e+00	 7.111111e+00	 9.853473e+00
0	 1.481481e+00	 7.185185e+00	 9.860013e+00
0	 1.481481e+00	 7.259259e+00	 9.866421e+00
0	 1.481481e+00	 7.333333e+00	 9.872702e+00
0	 1.481481e+00	 7.407407e+00	 9.878860e+00
0	 1.555556e+00	 7.037037e+00	 9.854222e+00
0	 1.555556e+00	 7.111111e+00	 9.860511e+00
0	 1.555556e+00	 7.185185e+00	 9.866677e+00
0	 1.555556e+00	 7.259259e+00	 9.872725e+00
0	 1.555556e+00	 7.333333e+00	 9.878660e+00
0	 1.555556e+00	 7.407407e+00	 9.884486e+00
0	 1.629630e+00	 7.037037e+00	 9.861830e+00
0	 1.629630e+00	 7.111111e+00	 9.867722e+00
0	 1.629630e+00	 7.185185e+00	 9.873507e+00
0	 1.629630e+00	 7.259259e+00	 9.879187e+00
0	 1.629630e+00	 7.333333e+00	 9.884770e+00
0	 1.629630e+00	 7.407407e+00	 9.890259e+00
0	 1.703704e+00	 7.037037e+00	 9.869583e+00
0	 1.703704e+00	 7.111111e+00	 9.875073e+00
0	 1.703704e+00	 7.185185e+00	 9.880470e+00
0	 1.703704e+00	 7.259259e+00	 9.885778e+00
0	 1.703704e+00	 7.333333e+00	 9.891003e+00
0	 1.703704e+00	 7.407407e+00	 9.896150e+00
0	 1.777778e+00	 7.037037e+00	 9.877443e+00
0	 1.777778e+00	 7.111111e+00	 9.882529e+00
0	 1.777778e+00	 7.185185e+00	 9.887535e+00
0	 1.777778e+00	 7.259259e+00	 9.892468e+00
0	 1.777778e+00	 7.333333e+00	 9.897332e+00
0	 1.777778e+00	 7.407407e+00	 9.902133e+00
0	 1.851852e+00	 7.037037e+00	 9.885373e+00
0	 1.851852e+00	 7.111111e+00	 9.890053e+00
0	 1.851852e+00	 7.185185e+00	 9.894669e+00
0	 1.851852e+00	 7.259259e+00	 9.899225e+00
0	 1.851852e+00	 7.333333e+00	 9.903727e+00
0	 1.851852e+00	 7.407407e+00	 9.908180e+00
0	 1.481481e+00	 7.407407e+00	 9.878860e+00
0	 1.481481e+00	 7.481481e+00	 9.884887e+00
0	 1.481481e+00	 7.555556e+00	 9.890778e+00
0	 1.481481e+00	 7.629630e+00	 9.896537e+00
0	 1.481481e+00	 7.703704e+00	 9.902167e+00
0	 1.481481e+00	 7.777778e+00	 9.907672e+00
0	 1.555556e+00	 7.407407e+00	 9.884486e+00
0	 1.555556e+00	 7.481481e+00	 9.890196e+00
0	 1.555556e+00	 7.555556e+00	 9.895781e+00
0	 1.555556e+00	 7.629630e+00	 9.901245e+00
0	 1.555556e+00	 7.703704e+00	 9.906592e+00
0	 1.555556e+00	 7.777778e+00	 9.911825e+00
0	 1.629630e+00	 7.407407e+00	 9.890259e+00
0	 1.629630e+00	 7.481481e+00	 9.895645e+00
0	 1.629630e+00	 7.555556e+00	 9.900917e+00
0	 1.629630e+00	 7.629630e+00	 9.906080e+00
0	 1.629630e+00	 7.703704e+00	 9.911137e+00
0	 1.629630e+00	 7.777778e+00	 9.916092e+00
0	 1.703704e+00	 7.407407e+00	 9.896150e+00
0	 1.703704e+00	 7.481481e+00	 9.901207e+00
0	 1.703704e+00	 7.555556e+00	 9.906162e+00
0	 1.703704e+00	 7.629630e+00	 9.911018e+00
0	 1.703704e+00	 7.703704e+00	 9.915780e+00
0	 1.703704e+00	 7.777778e+00	 9.920452e+00
0	 1.777778e+00	 7.407407e+00	 9.902133e+00
0	 1.777778e+00	 7.481481e+00	 9.906858e+00
0	 1.777778e+00	 7.555556e+00	 9.911491e+00
0	 1.777778e+00	 7.629630e+00	 9.916036e+00
0	 1.777778e+00	 7.703704e+00	 9.920499e+00
0	 1.777778e+00	 7.777778e+00	 9.924884e+00
0	 1.851852e+00	 7.407407e+00	 9.908180e+00
0	 1.851852e+00	 7.481481e+00	 9.912570e+00
0	 1.851852e+00	 7.555556e+00	 9.916878e+00
0	 1.851852e+00	 7.629630e+00	 9.921111e+00
0	 1.851852e+00	 7.703704e+00	 9.925272e+00
0	 1.851852e+00	 7.777778e+00	 9.929367e+00
0	 1.481481e+00	 7.777778e+00	 9.907672e+00
0	 1.481481e+00	 7.851852e+00	 9.913044e+00
0	 1.481481e+00	 7.925926e+00	 9.918274e+00
0	 1.481481e+00	 8.000000e+00	 9.923368e+00
0	 1.481481e+00	 8.074074e+00	 9.928330e+00
0	 1.481481e+00	 8.148148e+00	 9.933165e+00
0	 1.555556e+00	 7.777778e+00	 9.911825e+00
0	 1.555556e+00	 7.851852e+00	 9.916936e+00
0	 1.555556e+00	 7.925926e+00	 9.921915e+00
0	 1.555556e+00	 8.000000e+00	 9.926765e+00
0	 1.555556e+00	 8.074074e+00	 9.931494e+00
0	 1.555556e+00	 8.148148e+00	 9.936105e+00
0	 1.629630e+00	 7.777778e+00	 9.916092e+00
0	 1.629630e+00	 7.851852e+00	 9.920935e+00
0	 1.629630e+00	 7.925926e+00	 9.925656e+00
0	 1.629630e+00	 8.000000e+00	 9.930258e+00
0	 1.629630e+00	 8.074074e+00	 9.934747e+00
0	 1.629630e+00	 8.148148e+00	 9.939128e+00
0	 1.703704e+00	 7.777778e+00	 9.920452e+00
0	 1.703704e+00	 7.851852e+00	 9.925022e+00
0	 1.703704e+00	 7.925926e+00	 9.929479e+00
0	 1.703704e+00	 8.000000e+00	 9.933828e+00
0	 1.703704e+00	 8.074074e+00	 9.938073e+00
0	 1.703704e+00	 8.148148e+00	 9.942220e+00
0	 1.777778e+00	 7.777778e+00	 9.924884e+00
0	 1.777778e+00	 7.851852e+00	 9.929177e+00
0	 1.777778e+00	 7.925926e+00	 9.933367e+00
0	 1.777778e+00	 8.000000e+00	 9.937458e+00
0	 1.777778e+00	 8.074074e+00	 9.941456e+00
0	 1.777778e+00	 8.148148e+00	 9.945366e+00
0	 1.851852e+00	 7.777778e+00	 9.929367e+00
0	 1.851852e+00	 7.851852e+00	 9.933381e+00
0	 1.851852e+00	 7.925926e+00	 9.937302e+00
0	 1.851852e+00	 8.000000e+00	 9.941133e+00
0	 1.851852e+00	 8.074074e+00	 9.944881e+00
0	 1.851852e+00	 8.148148e+00	 9.948550e+00
0	 1.481481e+00	 8.148148e+00	 9.933165e+00
0	 1.481481e+00	 8.222222e+00	 9.937860e+00
0	 1.481481e+00	 8.296296e+00	 9.942404e+00
0	 1.481481e+00	 8.370370e+00	 9.946803e+00
0	 1.481481e+00	 8.444444e+00	 9.951062e+00
0	 1.481481e+00	 8.518519e+00	 9.955187e+00
0	 1.555556e+00	 8.148148e+00	 9.936105e+00
0	 1.555556e+00	 8.222222e+00	 9.940585e+00
0	 1.555556e+00	 8.296296e+00	 9.944922e+00
0	 1.555556e+00	 8.370370e+00	 9.949122e+00
0	 1.555556e+00	 8.444444e+00	 9.953191e+00
0	 1.555556e+00	 8.518519e+00	 9.957133e+00
0	 1.629630e+00	 8.148148e+00	 9.939128e+00
0	 1.629630e+00	 8.222222e+00	 9.943388e+00
0	 1.629630e+00	 8.296296e+00	 9.947513e+00
0	 1.629630e+00	 8.370370e+00	 9.951509e+00
0	 1.629630e+00	 8.444444e+00	 9.955382e+00
0	 1.629630e+00	 8.518519e+00	 9.959136e+00
0	 1.703704e+00	 8.148148e+00	 9.942220e+00
0	 1.703704e+00	 8.222222e+00	 9.946255e+00
0	 1.703704e+00	 8.296296e+00	 9.950164e+00
0	 1.703704e+00	 8.370370e+00	 9.953952e+00
0	 1.703704e+00	 8.444444e+00	 9.957624e+00
0	 1.703704e+00	 8.518519e+00	 9.961187e+00
0	 1.777778e+00	 8.148148e+00	 9.945366e+00
0	 1.777778e+00	 8.222222e+00	 9.949172e+00
0	 1.777778e+00	 8.296296e+00	 9.952860e+00
0	 1.777778e+00	 8.370370e+00	 9.956437e+00
0	 1.777778e+00	 8.444444e+00	 9.959906e+00
0	 1.777778e+00	 8.518519e+00	 9.963273e+00
0	 1.851852e+00	 8.148148e+00	 9.948550e+00
0	 1.851852e+00	 8.222222e+00	 9.952124e+00
0	 1.851852e+00	 8.296296e+00	 9.955590e+00
0	 1.851852e+00	 8.370370e+00	 9.958952e+00
0	 1.851852e+00	 8.444444e+00	 9.962215e+00
0	 1.851852e+00	 8.518519e+00	 9.965385e+00
0	 1.481481e+00	 8.518519e+00	 9.955187e+00
0	 1.481481e+00	 8.592593e+00	 9.959161e+00
0	 1.481481e+00	 8.666667e+00	 9.962967e+00
0	 1.481481e+00	 8.740741e+00	 9.966613e+00
0	 1.481481e+00	 8.814815e+00	 9.970106e+00
0	 1.481481e+00	 8.888889e+00	 9.973452e+00
0	 1.555556e+00	 8.518519e+00	 9.957133e+00
0	 1.555556e+00	 8.592593e+00	 9.960931e+00
0	 1.555556e+00	 8.666667e+00	 9.964571e+00
0	 1.555556e+00	 8.740741e+00	 9.968057e+00
0	 1.555556e+00	 8.814815e+00	 9.971398e+00
0	 1.555556e+00	 8.888889e+00	 9.974599e+00
0	 1.629630e+00	 8.518519e+00	 9.959136e+00
0	 1.629630e+00	 8.592593e+00	 9.962755e+00
0	 1.629630e+00	 8.666667e+00	 9.966223e+00
0	 1.629630e+00	 8.740741e+00	 9.969546e+00
0	 1.629630e+00	 8.814815e+00	 9.972730e+00
0	 1.629630e+00	 8.888889e+00	 9.975783e+00
0	 1.703704e+00	 8.518519e+00	 9.961187e+00
0	 1.703704e+00	 8.592593e+00	 9.964622e+00
0	 1.703704e+00	 8.666667e+00	 9.967915e+00
0	 1.703704e+00	 8.740741e+00	 9.971070e+00
0	 1.703704e+00	 8.814815e+00	 9.974095e+00
0	 1.703704e+00	 8.888889e+00	 9.976996e+00
0	 1.777778e+00	 8.518519e+00	 9.963273e+00
0	 1.777778e+00	 8.592593e+00	 9.966522e+00
0	 1.777778e+00	 8.666667e+00	 9.969636e+00
0	 1.777778e+00	 8.740741e+00	 9.972621e+00
0	 1.777778e+00	 8.814815e+00	 9.975483e+00
0	 1.777778e+00	 8.888889e+00	 9.978229e+00
0	 1.851852e+00	 8.518519e+00	 9.965385e+00
0	 1.851852e+00	 8.592593e+00	 9.968444e+00
0	 1.851852e+00	 8.666667e+00	 9.971377e+00
0	 1.851852e+00	 8.740741e+00	 9.974189e+00
0	 1.851852e+00	 8.814815e+00	 9.976886e+00
0	 1.851852e+00	 8.888889e+00	 9.979475e+00
0	 1.481481e+00	 8.888889e+00	 9.973452e+00
0	 1.481481e+00	 8.962963e+00	 9.976629e+00
0	 1.481481e+00	 9.037037e+00	 9.979614e+00
0	 1.481481e+00	 9.111111e+00	 9.982417e+00
0	 1.481481e+00	 9.185185e+00	 9.985046e+00
0	 1.481481e+00	 9.259259e+00	 9.987510e+00
0	 1.555556e+00	 8.888889e+00	 9.974599e+00
0	 1.555556e+00	 8.962963e+00	 9.977639e+00
0	 1.555556e+00	 9.037037e+00	 9.980495e+00
0	 1.555556e+00	 9.111111e+00	 9.983177e+00
0	 1.555556e+00	 9.185185e+00	 9.985693e+00
0	 1.555556e+00	 9.259259e+00	 9.988050e+00
0	 1.629630e+00	 8.888889e+00	 9.975783e+00
0	 1.629630e+00	 8.962963e+00	 9.978682e+00
0	 1.629630e+00	 9.037037e+00	 9.981406e+00
0	 1.629630e+00	 9.111111e+00	 9.983964e+00
0	 1.629630e+00	 9.185185e+00	 9.986363e+00
0	 1.629630e+00	 9.259259e+00	 9.988611e+00
0	 1.703704e+00	 8.888889e+00	 9.976996e+00
0	 1.703704e+00	 8.962963e+00	 9.979751e+00
0	 1.703704e+00	 9.037037e+00	 9.982340e+00
0	 1.703704e+00	 9.111111e+00	 9.984771e+00
0	 1.703704e+00	 9.185185e+00	 9.987051e+00
0	 1.703704e+00	 9.259259e+00	 9.989187e+00
0	 1.777778e+00	 8.888889e+00	 9.978229e+00
0	 1.777778e+00	 8.962963e+00	 9.980838e+00
0	 1.777778e+00	 9.037037e+00	 9.983289e+00
0	 1.777778e+00	 9.111111e+00	 9.985590e+00
0	 1.777778e+00	 9.185185e+00	 9.987749e+00
0	 1.777778e+00	 9.259259e+00	 9.989772e+00
0	 1.851852e+00	 8.888889e+00	 9.979475e+00
0	 1.851852e+00	 8.962963e+00	 9.981935e+00
0	 1.851852e+00	 9.037037e+00	 9.984246e+00
0	 1.851852e+00	 9.111111e+00	 9.986416e+00
0	 1.851852e+00	 9.185185e+00	 9.988451e+00
0	 1.851852e+00	 9.259259e+00	 9.990358e+00
0	 1.481481e+00	 9.259259e+00	 9.987510e+00
0	 1.481481e+00	 9.333333e+00	 9.989776e+00
0	 1.481481e+00	 9.407407e+00	 9.991814e+00
0	 1.481481e+00	 9.481481e+00	 9.993636e+00
0	 1.481481e+00	 9.555556e+00	 9.995253e+00
0	 1.481481e+00	 9.629630e+00	 9.996674e+00
0	 1.555556e+00	 9.259259e+00	 9.988050e+00
0	 1.555556e+00	 9.333333e+00	 9.990218e+00
0	 1.555556e+00	 9.407407e+00	 9.992168e+00
0	 1.555556e+00	 9.481481e+00	 9.993911e+00
0	 1.555556e+00	 9.555556e+00	 9.995457e+00
0	 1.555556e+00	 9.629630e+00	 9.996816e+00
0	 1.629630e+00	 9.259259e+00	 9.988611e+00
0	 1.629630e+00	 9.333333e+00	 9.990679e+00
0	 1.629630e+00	 9.407407e+00	 9.992539e+00
0	 1.629630e+00	 9.481481e+00	 9.994201e+00
0	 1.629630e+00	 9.555556e+00	 9.995675e+00
0	 1.629630e+00	 9.629630e+00	 9.996969e+00
0	 1.703704e+00	 9.259259e+00	 9.989187e+00
0	 1.703704e+00	 9.333333e+00	 9.991153e+00
0	 1.703704e+00	 9.407407e+00	 9.992920e+00
0	 1.703704e+00	 9.481481e+00	 9.994500e+00
0	 1.703704e+00	 9.555556e+00	 9.995899e+00
0	 1.703704e+00	 9.629630e+00	 9.997129e+00
0	 1.777778e+00	 9.259259e+00	 9.989772e+00
0	 1.777778e+00	 9.333333e+00	 9.991633e+00
0	 1.777778e+00	 9.407407e+00	 9.993306e+00
0	 1.777778e+00	 9.481481e+00	 9.994801e+00
0	 1.777778e+00	 9.555556e+00	 9.996126e+00
0	 1.777778e+00	 9.629630e+00	 9.997289e+00
0	 1.851852e+00	 9.259259e+00	 9.990358e+00
0	 1.851852e+00	 9.333333e+00	 9.992113e+00
0	 1.851852e+00	 9.407407e+00	 9.993690e+00
0	 1.851852e+00	 9.481481e+00	 9.995099e+00
0	 1.851852e+00	 9.555556e+00	 9.996347e+00
0	 1.851852e+00	 9.629630e+00	 9.997442e+00
0	 1.481481e+00	 9.629630e+00	 9.996674e+00
0	 1.481481e+00	 9.703704e+00	 9.997861e+00
0	 1.481481e+00	 9.777778e+00	 9.998777e+00
0	 1.481481e+00	 9.851852e+00	 9.999435e+00
0	 1.481481e+00	 9.925926e+00	 9.999848e+00
0	 1.481481e+00	 1.000000e+01	 1.000003e+01
0	 1.555556e+00	 9.629630e+00	 9.996816e+00
0	 1.555556e+00	 9.703704e+00	 9.997951e+00
0	 1.555556e+00	 9.777778e+00	 9.998826e+00
0	 1.555556e+00	 9.851852e+00	 9.999454e+00
0	 1.555556e+00	 9.925926e+00	 9.999849e+00
0	 1.555556e+00	 1.000000e+01	 1.000002e+01
0	 1.629630e+00	 9.629630e+00	 9.996969e+00
0	 1.629630e+00	 9.703704e+00	 9.998051e+00
0	 1.629630e+00	 9.777778e+00	 9.998885e+00
0	 1.629630e+00	 9.851852e+00	 9.999484e+00
0	 1.629630e+00	 9.925926e+00	 9.999860e+00
0	 1.629630e+00	 1.000000e+01	 1.000002e+01
0	 1.703704e+00	 9.629630e+00	 9.997129e+00
0	 1.703704e+00	 9.703704e+00	 9.998156e+00
0	 1.703704e+00	 9.777778e+00	 9.998948e+00
0	 1.703704e+00	 9.851852e+00	 9.999517e+00
0	 1.703704e+00	 9.925926e+00	 9.999874e+00
0	 1.703704e+00	 1.000000e+01	 1.000003e+01
0	 1.777778e+00	 9.629630e+00	 9.997289e+00
0	 1.777778e+00	 9.703704e+00	 9.998260e+00
0	 1.777778e+00	 9.777778e+00	 9.999009e+00
0	 1.777778e+00	 9.851852e+00	 9.999547e+00
0	 1.777778e+00	 9.925926e+00	 9.999884e+00
0	 1.777778e+00	 1.000000e+01	 1.000003e+01
0	 1.851852e+00	 9.629630e+00	 9.997442e+00
0	 1.851852e+00	 9.703704e+00	 9.998357e+00
0	 1.851852e+00	 9.777778e+00	 9.999062e+00
0	 1.851852e+00	 9.851852e+00	 9.999568e+00
0	 1.851852e+00	 9.925926e+00	 9.999885e+00
0	 1.851852e+00	 1.000000e+01	 1.000002e+01
0	 1.851852e+00	 0.000000e+00	 4.796931e+00
0	 1.851852e+00	 7.407407e-02	 6.122042e+00
0	 1.851852e+00	 1.481481e-01	 7.443846e+00
0	 1.851852e+00	 2.222222e-01	 8.745483e+00
0	 1.851852e+00	 2.962963e-01	 1.001010e+01
0	 1.851852e+00	 3.703704e-01	 1.122082e+01
0	 1.925926e+00	 0.000000e+00	 8.372783e+00
0	 1.925926e+00	 7.407407e-02	 9.079426e+00
0	 1.925926e+00	 1.481481e-01	 9.778381e+00
0	 1.925926e+00	 2.222222e-01	 1.046445e+01
0	 1.925926e+00	 2.962963e-01	 1.113245e+01
0	 1.925926e+00	 3.703704e-01	 1.177718e+01
0	 2.000000e+00	 0.000000e+00	 1.076900e+01
0	 2.000000e+00	 7.407407e-02	 1.105919e+01
0	 2.000000e+00	 1.481481e-01	 1.133860e+01
0	 2.000000e+00	 2.222222e-01	 1.161010e+01
0	 2.000000e+00	 2.962963e-01	 1.187660e+01
0	 2.000000e+00	 3.703704e-01	 1.214096e+01
0	 2.074074e+00	 0.000000e+00	 1.212063e+01
0	 2.074074e+00	 7.407407e-02	 1.216981e+01
0	 2.074074e+00	 1.481481e-01	 1.220632e+01
0	 2.074074e+00	 2.222222e-01	 1.223752e+01
0	 2.074074e+00	 2.962963e-01	 1.227080e+01
0	 2.074074e+00	 3.703704e-01	 1.231352e+01
0	 2.148148e+00	 0.000000e+00	 1.256270e+01
0	 2.148148e+00	 7.407407e-02	 1.251976e+01
0	 2.148148e+00	 1.481481e-01	 1.246336e+01
0	 2.148148e+00	 2.222222e-01	 1.240178e+01
0	 2.148148e+00	 2.962963e-01	 1.234331e+01
0	 2.148148e+00	 3.703704e-01	 1.229623e+01
0	 2.222222e+00	 0.000000e+00	 1.223026e+01
0	 2.222222e+00	 7.407407e-02	 1.221752e+01
0	 2.222222e+00	 1.481481e-01	 1.219156e+01
0	 2.222222e+00	 2.222222e-01	 1.215799e+01
0	 2.222222e+00	 2.962963e-01	 1.212241e+01
0	 2.222222e+00	 3.703704e-01	 1.209043e+01
0	 1.851852e+00	 3.703704e-01	 1.122082e+01
0	 1.851852e+00	 4.444444e-01	 1.222200e+01
0	 1.851852e+00	 5.185185e-01	 1.289185e+01
0	 1.851852e+00	 5.925926e-01	 1.326430e+01
0	 1.851852e+00	 6.666667e-01	 1.337332e+01
0	 1.851852e+00	 7.407407e-01	 1.325285e+01
0	 1.925926e+00	 3.703704e-01	 1.177718e+01
0	 1.925926e+00	 4.444444e-01	 1.230635e+01
0	 1.925926e+00	 5.185185e-01	 1.264488e+01
0	 1.925926e+00	 5.925926e-01	 1.281333e+01
0	 1.925926e+00	 6.666667e-01	 1.283227e+01
0	 1.925926e+00	 7.407407e-01	 1.272229e+01
0	 2.000000e+00	 3.703704e-01	 1.214096e+01
0	 2.000000e+00	 4.444444e-01	 1.235663e+01
0	 2.000000e+00	 5.185185e-01	 1.248219e+01
0	 2.000000e+00	 5.925926e-01	 1.252820e+01
0	 2.000000e+00	 6.666667e-01	 1.250523e+01
0	 2.000000e+00	 7.407407e-01	 1.242384e+01
0	 2.074074e+00	 3.703704e-01	 1.231352e+01
0	 2.074074e+00	 4.444444e-01	 1.234946e+01
0	 2.074074e+00	 5.185185e-01	 1.236005e+01
0	 2.074074e+00	 5.925926e-01	 1.234924e+01
0	 2.074074e+00	 6.666667e-01	 1.232098e+01
0	 2.074074e+00	 7.407407e-01	 1.227921e+01
0	 2.148148e+00	 3.703704e-01	 1.229623e+01
0	 2.148148e+00	 4.444444e-01	 1.226142e+01
0	 2.148148e+00	 5.185185e-01	 1.223471e+01
0	 2.148148e+00	 5.925926e-01	 1.221679e+01
0	 2.148148e+00	 6.666667e-01	 1.220835e+01
0	 2.148148e+00	 7.407407e-01	 1.221008e+01
0	 2.222222e+00	 3.703704e-01	 1.209043e+01
0	 2.222222e+00	 4.444444e-01	 1.206915e+01
0	 2.222222e+00	 5.185185e-01	 1.206246e+01
0	 2.222222e+00	 5.925926e-01	 1.207118e+01
0	 2.222222e+00	 6.666667e-01	 1.209613e+01
0	 2.222222e+00	 7.407407e-01	 1.213812e+01
0	 1.851852e+00	 7.407407e-01	 1.325285e+01
0	 1.851852e+00	 8.148148e-01	 1.303526e+01
0	 1.851852e+00	 8.888889e-01	 1.283960e+01
0	 1.851852e+00	 9.629630e-01	 1.267989e+01
0	 1.851852e+00	 1.037037e+00	 1.257013e+01
0	 1.851852e+00	 1.111111e+00	 1.252434e+01
0	 1.925926e+00	 7.407407e-01	 1.272229e+01
0	 1.925926e+00	 8.148148e-01	 1.256785e+01
0	 1.925926e+00	 8.888889e-01	 1.244580e+01
0	 1.925926e+00	 9.629630e-01	 1.236524e+01
0	 1.925926e+00	 1.037037e+00	 1.233527e+01
0	 1.925926e+00	 1.111111e+00	 1.236498e+01
0	 2.000000e+00	 7.407407e-01	 1.242384e+01
0	 2.000000e+00	 8.148148e-01	 1.232811e+01
0	 2.000000e+00	 8.888889e-01	 1.225861e+01
0	 2.000000e+00	 9.629630e-01	 1.222070e+01
0	 2.000000e+00	 1.037037e+00	 1.221977e+01
0	 2.000000e+00	 1.111111e+00	 1.226117e+01
0	 2.074074e+00	 7.407407e-01	 1.227921e+01
0	 2.074074e+00	 8.148148e-01	 1.223611e+01
0	 2.074074e+00	 8.888889e-01	 1.220311e+01
0	 2.074074e+00	 9.629630e-01	 1.218301e+01
0	 2.074074e+00	 1.037037e+00	 1.217862e+01
0	 2.074074e+00	 1.111111e+00	 1.219276e+01
0	 2.148148e+00	 7.407407e-01	 1.221008e+01
0	 2.148148e+00	 8.148148e-01	 1.221194e+01
0	 2.148148e+00	 8.888889e-01	 1.220440e+01
0	 2.148148e+00	 9.629630e-01	 1.218888e+01
0	 2.148148e+00	 1.037037e+00	 1.216681e+01
0	 2.148148e+00	 1.111111e+00	 1.213962e+01
0	 2.222222e+00	 7.407407e-01	 1.213812e+01
0	 2.222222e+00	 8.148148e-01	 1.217567e+01
0	 2.222222e+00	 8.888889e-01	 1.218757e+01
0	 2.222222e+00	 9.629630e-01	 1.217505e+01
0	 2.222222e+00	 1.037037e+00	 1.213932e+01
0	 2.222222e+00	 1.111111e+00	 1.208163e+01
0	 1.851852e+00	 1.111111e+00	 1.252434e+01
0	 1.851852e+00	 1.185185e+00	 1.250525e+01
0	 1.851852e+00	 1.259259e+00	 1.246330e+01
0	 1.851852e+00	 1.333333e+00	 1.239405e+01
0	 1.851852e+00	 1.407407e+00	 1.229304e+01
0	 1.851852e+00	 1.481481e+00	 1.215583e+01
0	 1.925926e+00	 1.111111e+00	 1.236498e+01
0	 1.925926e+00	 1.185185e+00	 1.240758e+01
0	 1.925926e+00	 1.259259e+00	 1.240898e+01
0	 1.925926e+00	 1.333333e+00	 1.236740e+01
0	 1.925926e+00	 1.407407e+00	 1.228107e+01
0	 1.925926e+00	 1.481481e+00	 1.214818e+01
0	 2.000000e+00	 1.111111e+00	 1.226117e+01
0	 2.000000e+00	 1.185185e+00	 1.230521e+01
0	 2.000000e+00	 1.259259e+00	 1.230865e+01
0	 2.000000e+00	 1.333333e+00	 1.227147e+01
0	 2.000000e+00	 1.407407e+00	 1.219370e+01
0	 2.000000e+00	 1.481481e+00	 1.207532e+01
0	 2.074074e+00	 1.111111e+00	 1.219276e+01
0	 2.074074e+00	 1.185185e+00	 1.220263e+01
0	 2.074074e+00	 1.259259e+00	 1.218419e+01
0	 2.074074e+00	 1.333333e+00	 1.213836e+01
0	 2.074074e+00	 1.407407e+00	 1.206607e+01
0	 2.074074e+00	 1.481481e+00	 1.196824e+01
0	 2.148148e+00	 1.111111e+00	 1.213962e+01
0	 2.148148e+00	 1.185185e+00	 1.210429e+01
0	 2.148148e+00	 1.259259e+00	 1.205747e+01
0	 2.148148e+00	 1.333333e+00	 1.200016e+01
0	 2.148148e+00	 1.407407e+00	 1.193331e+01
0	 2.148148e+00	 1.481481e+00	 1.185793e+01
0	 2.222222e+00	 1.111111e+00	 1.208163e+01
0	 2.222222e+00	 1.185185e+00	 1.201466e+01
0	 2.222222e+00	 1.259259e+00	 1.195038e+01
0	 2.222222e+00	 1.333333e+00	 1.188897e+01
0	 2.222222e+00	 1.407407e+00	 1.183057e+01
0	 2.222222e+00	 1.481481e+00	 1.177536e+01
0	 1.851852e+00	 1.481481e+00	 1.215583e+01
0	 1.851852e+00	 1.555556e+00	 1.199870e+01
0	 1.851852e+00	 1.629630e+00	 1.184242e+01
0	 1.851852e+00	 1.703704e+00	 1.168925e+01
0	 1.851852e+00	 1.777778e+00	 1.154146e+01
0	 1.851852e+00	 1.851852e+00	 1.140131e+01
0	 1.925926e+00	 1.481481e+00	 1.214818e+01
0	 1.925926e+00	 1.555556e+00	 1.199555e+01
0	 1.925926e+00	 1.629630e+00	 1.185068e+01
0	 1.925926e+00	 1.703704e+00	 1.171278e+01
0	 1.925926e+00	 1.777778e+00	 1.158108e+01
0	 1.925926e+00	 1.851852e+00	 1.145482e+01
0	 2.000000e+00	 1.481481e+00	 1.207532e+01
0	 2.000000e+00	 1.555556e+00	 1.194241e+01
0	 2.000000e+00	 1.629630e+00	 1.181924e+01
0	 2.000000e+00	 1.703704e+00	 1.170312e+01
0	 2.000000e+00	 1.777778e+00	 1.159139e+01
0	 2.000000e+00	 1.851852e+00	 1.148137e+01
0	 2.074074e+00	 1.481481e+00	 1.196824e+01
0	 2.074074e+00	 1.555556e+00	 1.186311e+01
0	 2.074074e+00	 1.629630e+00	 1.176597e+01
0	 2.074074e+00	 1.703704e+00	 1.167337e+01
0	 2.074074e+00	 1.777778e+00	 1.158188e+01
0	 2.074074e+00	 1.851852e+00	 1.148804e+01
0	 2.148148e+00	 1.481481e+00	 1.185793e+01
0	 2.148148e+00	 1.555556e+00	 1.178148e+01
0	 2.148148e+00	 1.629630e+00	 1.170873e+01
0	 2.148148e+00	 1.703704e+00	 1.163661e+01
0	 2.148148e+00	 1.777778e+00	 1.156204e+01
0	 2.148148e+00	 1.851852e+00	 1.148193e+01
0	 2.222222e+00	 1.481481e+00	 1.177536e+01
0	 2.222222e+00	 1.555556e+00	 1.172135e+01
0	 2.222222e+00	 1.629630e+00	 1.166540e+01
0	 2.222222e+00	 1.703704e+00	 1.160593e+01
0	 2.222222e+00	 1.777778e+00	 1.154135e+01
0	 2.222222e+00	 1.851852e+00	 1.147010e+01
0	 1.851852e+00	 1.851852e+00	 1.140131e+01
0	 1.851852e+00	 1.925926e+00	 1.127339e+01
0	 1.851852e+00	 2.000000e+00	 1.115795e+01
0	 1.851852e+00	 2.074074e+00	 1.105082e+01
0	 1.851852e+00	 2.148148e+00	 1.094782e+01
0	 1.851852e+00	 2.222222e+00	 1.084476e+01
0	 1.925926e+00	 1.851852e+00	 1.145482e+01
0	 1.925926e+00	 1.925926e+00	 1.133538e+01
0	 1.925926e+00	 2.000000e+00	 1.122344e+01
0	 1.925926e+00	 2.074074e+00	 1.111713e+01
0	 1.925926e+00	 2.148148e+00	 1.101459e+01
0	 1.925926e+00	 2.222222e+00	 1.091395e+01
0	 2.000000e+00	 1.851852e+00	 1.148137e+01
0	 2.000000e+00	 1.925926e+00	 1.137311e+01
0	 2.000000e+00	 2.000000e+00	 1.126827e+01
0	 2.000000e+00	 2.074074e+00	 1.116656e+01
0	 2.000000e+00	 2.148148e+00	 1.106766e+01
0	 2.000000e+00	 2.222222e+00	 1.097129e+01
0	 2.074074e+00	 1.851852e+00	 1.148804e+01
0	 2.074074e+00	 1.925926e+00	 1.139200e+01
0	 2.074074e+00	 2.000000e+00	 1.129652e+01
0	 2.074074e+00	 2.074074e+00	 1.120213e+01
0	 2.074074e+00	 2.148148e+00	 1.110932e+01
0	 2.074074e+00	 2.222222e+00	 1.101860e+01
0	 2.148148e+00	 1.851852e+00	 1.148193e+01
0	 2.148148e+00	 1.925926e+00	 1.139746e+01
0	 2.148148e+00	 2.000000e+00	 1.131225e+01
0	 2.148148e+00	 2.074074e+00	 1.122685e+01
0	 2.148148e+00	 2.148148e+00	 1.114182e+01
0	 2.148148e+00	 2.222222e+00	 1.105773e+01
0	 2.222222e+00	 1.851852e+00	 1.147010e+01
0	 2.222222e+00	 1.925926e+00	 1.139491e+01
0	 2.222222e+00	 2.000000e+00	 1.131951e+01
0	 2.222222e+00	 2.074074e+00	 1.124374e+01
0	 2.222222e+00	 2.148148e+00	 1.116745e+01
0	 2.222222e+00	 2.222222e+00	 1.109051e+01
0	 1.851852e+00	 2.222222e+00	 1.084476e+01
0	 1.851852e+00	 2.296296e+00	 1.074244e+01
0	 1.851852e+00	 2.370370e+00	 1.064557e+01
0	 1.851852e+00	 2.444444e+00	 1.055585e+01
0	 1.851852e+00	 2.518519e+00	 1.047497e+01
0	 1.851852e+00	 2.592593e+00	 1.040462e+01
0	 1.925926e+00	 2.222222e+00	 1.091395e+01
0	 1.925926e+00	 2.296296e+00	 1.081663e+01
0	 1.925926e+00	 2.370370e+00	 1.072558e+01
0	 1.925926e+00	 2.444444e+00	 1.064125e+01
0	 1.925926e+00	 2.518519e+00	 1.056413e+01
0	 1.925926e+00	 2.592593e+00	 1.049468e+01
0	 2.000000e+00	 2.222222e+00	 1.097129e+01
0	 2.000000e+00	 2.296296e+00	 1.087940e+01
0	 2.000000e+00	 2.370370e+00	 1.079393e+01
0	 2.000000e+00	 2.444444e+00	 1.071448e+01
0	 2.000000e+00	 2.518519e+00	 1.064067e+01
0	 2.000000e+00	 2.592593e+00	 1.057214e+01
0	 2.074074e+00	 2.222222e+00	 1.101860e+01
0	 2.074074e+00	 2.296296e+00	 1.093235e+01
0	 2.074074e+00	 2.370370e+00	 1.085203e+01
0	 2.074074e+00	 2.444444e+00	 1.077680e+01
0	 2.074074e+00	 2.518519e+00	 1.070582e+01
0	 2.074074e+00	 2.592593e+00	 1.063825e+01
0	 2.148148e+00	 2.222222e+00	 1.105773e+01
0	 2.148148e+00	 2.296296e+00	 1.097705e+01
0	 2.148148e+00	 2.370370e+00	 1.090128e+01
0	 2.148148e+00	 2.444444e+00	 1.082951e+01
0	 2.148148e+00	 2.518519e+00	 1.076082e+01
0	 2.148148e+00	 2.592593e+00	 1.069428e+01
0	 2.222222e+00	 2.222222e+00	 1.109051e+01
0	 2.222222e+00	 2.296296e+00	 1.101510e+01
0	 2.222222e+00	 2.370370e+00	 1.094310e+01
0	 2.222222e+00	 2.444444e+00	 1.087390e+01
0	 2.222222e+00	 2.518519e+00	 1.080690e+01
0	 2.222222e+00	 2.592593e+00	 1.074147e+01
0	 1.851852e+00	 2.592593e+00	 1.040462e+01
0	 1.851852e+00	 2.666667e+00	 1.034293e+01
0	 1.851852e+00	 2.740741e+00	 1.028602e+01
0	 1.851852e+00	 2.814815e+00	 1.023267e+01
0	 1.851852e+00	 2.888889e+00	 1.018165e+01
0	 1.851852e+00	 2.962963e+00	 1.013171e+01
0	 1.925926e+00	 2.592593e+00	 1.049468e+01
0	 1.925926e+00	 2.666667e+00	 1.043130e+01
0	 1.925926e+00	 2.740741e+00	 1.037170e+01
0	 1.925926e+00	 2.814815e+00	 1.031530e+01
0	 1.925926e+00	 2.888889e+00	 1.026151e+01
0	 1.925926e+00	 2.962963e+00	 1.020974e+01
0	 2.000000e+00	 2.592593e+00	 1.057214e+01
0	 2.000000e+00	 2.666667e+00	 1.050777e+01
0	 2.000000e+00	 2.740741e+00	 1.044662e+01
0	 2.000000e+00	 2.814815e+00	 1.038855e+01
0	 2.000000e+00	 2.888889e+00	 1.033340e+01
0	 2.000000e+00	 2.962963e+00	 1.028104e+01
0	 2.074074e+00	 2.592593e+00	 1.063825e+01
0	 2.074074e+00	 2.666667e+00	 1.057359e+01
0	 2.074074e+00	 2.740741e+00	 1.051197e+01
0	 2.074074e+00	 2.814815e+00	 1.045346e+01
0	 2.074074e+00	 2.888889e+00	 1.039816e+01
0	 2.074074e+00	 2.962963e+00	 1.034615e+01
0	 2.148148e+00	 2.592593e+00	 1.069428e+01
0	 2.148148e+00	 2.666667e+00	 1.063004e+01
0	 2.148148e+00	 2.740741e+00	 1.056895e+01
0	 2.148148e+00	 2.814815e+00	 1.051110e+01
0	 2.148148e+00	 2.888889e+00	 1.045661e+01
0	 2.148148e+00	 2.962963e+00	 1.040559e+01
0	 2.222222e+00	 2.592593e+00	 1.074147e+01
0	 2.222222e+00	 2.666667e+00	 1.067838e+01
0	 2.222222e+00	 2.740741e+00	 1.061875e+01
0	 2.222222e+00	 2.814815e+00	 1.056250e+01
0	 2.222222e+00	 2.888889e+00	 1.050957e+01
0	 2.222222e+00	 2.962963e+00	 1.045989e+01
0	 1.851852e+00	 2.962963e+00	 1.013171e+01
0	 1.851852e+00	 3.037037e+00	 1.008378e+01
0	 1.851852e+00	 3.111111e+00	 1.004006e+01
0	 1.851852e+00	 3.185185e+00	 1.000119e+01
0	 1.851852e+00	 3.259259e+00	 9.967839e+00
0	 1.851852e+00	 3.333333e+00	 9.940650e+00
0	 1.925926e+00	 2.962963e+00	 1.020974e+01
0	 1.925926e+00	 3.037037e+00	 1.016090e+01
0	 1.925926e+00	 3.111111e+00	 1.011650e+01
0	 1.925926e+00	 3.185185e+00	 1.007682e+01
0	 1.925926e+00	 3.259259e+00	 1.004212e+01
0	 1.925926e+00	 3.333333e+00	 1.001270e+01
0	 2.000000e+00	 2.962963e+00	 1.028104e+01
0	 2.000000e+00	 3.037037e+00	 1.023217e+01
0	 2.000000e+00	 3.111111e+00	 1.018761e+01
0	 2.000000e+00	 3.185185e+00	 1.014738e+01
0	 2.000000e+00	 3.259259e+00	 1.011149e+01
0	 2.000000e+00	 3.333333e+00	 1.007995e+01
0	 2.074074e+00	 2.962963e+00	 1.034615e+01
0	 2.074074e+00	 3.037037e+00	 1.029782e+01
0	 2.074074e+00	 3.111111e+00	 1.025342e+01
0	 2.074074e+00	 3.185185e+00	 1.021280e+01
0	 2.074074e+00	 3.259259e+00	 1.017584e+01
0	 2.074074e+00	 3.333333e+00	 1.014239e+01
0	 2.148148e+00	 2.962963e+00	 1.040559e+01
0	 2.148148e+00	 3.037037e+00	 1.035809e+01
0	 2.148148e+00	 3.111111e+00	 1.031395e+01
0	 2.148148e+00	 3.185185e+00	 1.027301e+01
0	 2.148148e+00	 3.259259e+00	 1.023508e+01
0	 2.148148e+00	 3.333333e+00	 1.020000e+01
0	 2.222222e+00	 2.962963e+00	 1.045989e+01
0	 2.222222e+00	 3.037037e+00	 1.041320e+01
0	 2.222222e+00	 3.111111e+00	 1.036924e+01
0	 2.222222e+00	 3.185185e+00	 1.032791e+01
0	 2.222222e+00	 3.259259e+00	 1.028911e+01
0	 2.222222e+00	 3.333333e+00	 1.025274e+01
0	 1.851852e+00	 3.333333e+00	 9.940650e+00
0	 1.851852e+00	 3.407407e+00	 9.917696e+00
0	 1.851852e+00	 3.481481e+00	 9.896471e+00
0	 1.851852e+00	 3.555556e+00	 9.876764e+00
0	 1.851852e+00	 3.629630e+00	 9.858367e+00
0	 1.851852e+00	 3.703704e+00	 9.841070e+00
0	 1.925926e+00	 3.333333e+00	 1.001270e+01
0	 1.925926e+00	 3.407407e+00	 9.986853e+00
0	 1.925926e+00	 3.481481e+00	 9.962690e+00
0	 1.925926e+00	 3.555556e+00	 9.940151e+00
0	 1.925926e+00	 3.629630e+00	 9.919181e+00
0	 1.925926e+00	 3.703704e+00	 9.899724e+00
0	 2.000000e+00	 3.333333e+00	 1.007995e+01
0	 2.000000e+00	 3.407407e+00	 1.005146e+01
0	 2.000000e+00	 3.481481e+00	 1.002474e+01
0	 2.000000e+00	 3.555556e+00	 9.999823e+00
0	 2.000000e+00	 3.629630e+00	 9.976764e+00
0	 2.000000e+00	 3.703704e+00	 9.955604e+00
0	 2.074074e+00	 3.333333e+00	 1.014239e+01
0	 2.074074e+00	 3.407407e+00	 1.011159e+01
0	 2.074074e+00	 3.481481e+00	 1.008274e+01
0	 2.074074e+00	 3.555556e+00	 1.005591e+01
0	 2.074074e+00	 3.629630e+00	 1.003120e+01
0	 2.074074e+00	 3.703704e+00	 1.000871e+01
0	 2.148148e+00	 3.333333e+00	 1.020000e+01
0	 2.148148e+00	 3.407407e+00	 1.016733e+01
0	 2.148148e+00	 3.481481e+00	 1.013681e+01
0	 2.148148e+00	 3.555556e+00	 1.010854e+01
0	 2.148148e+00	 3.629630e+00	 1.008259e+01
0	 2.148148e+00	 3.703704e+00	 1.005904e+01
0	 2.222222e+00	 3.333333e+00	 1.025274e+01
0	 2.222222e+00	 3.407407e+00	 1.021873e+01
0	 2.222222e+00	 3.481481e+00	 1.018709e+01
0	 2.222222e+00	 3.555556e+00	 1.015784e+01
0	 2.222222e+00	 3.629630e+00	 1.013100e+01
0	 2.222222e+00	 3.703704e+00	 1.010660e+01
0	 1.851852e+00	 3.703704e+00	 9.841070e+00
0	 1.851852e+00	 3.777778e+00	 9.825160e+00
0	 1.851852e+00	 3.851852e+00	 9.811187e+00
0	 1.851852e+00	 3.925926e+00	 9.799328e+00
0	 1.851852e+00	 4.000000e+00	 9.789762e+00
0	 1.851852e+00	 4.074074e+00	 9.782667e+00
0	 1.925926e+00	 3.703704e+00	 9.899724e+00
0	 1.925926e+00	 3.777778e+00	 9.881967e+00
0	 1.925926e+00	 3.851852e+00	 9.866199e+00
0	 1.925926e+00	 3.925926e+00	 9.852524e+00
0	 1.925926e+00	 4.000000e+00	 9.841040e+00
0	 1.925926e+00	 4.074074e+00	 9.831850e+00
0	 2.000000e+00	 3.703704e+00	 9.955604e+00
0	 2.000000e+00	 3.777778e+00	 9.936367e+00
0	 2.000000e+00	 3.851852e+00	 9.919077e+00
0	 2.000000e+00	 3.925926e+00	 9.903784e+00
0	 2.000000e+00	 4.000000e+00	 9.890533e+00
0	 2.000000e+00	 4.074074e+00	 9.879374e+00
0	 2.074074e+00	 3.703704e+00	 1.000871e+01
0	 2.074074e+00	 3.777778e+00	 9.988265e+00
0	 2.074074e+00	 3.851852e+00	 9.969660e+00
0	 2.074074e+00	 3.925926e+00	 9.952912e+00
0	 2.074074e+00	 4.000000e+00	 9.938040e+00
0	 2.074074e+00	 4.074074e+00	 9.925060e+00
0	 2.148148e+00	 3.703704e+00	 1.005904e+01
0	 2.148148e+00	 3.777778e+00	 1.003757e+01
0	 2.148148e+00	 3.851852e+00	 1.001779e+01
0	 2.148148e+00	 3.925926e+00	 9.999713e+00
0	 2.148148e+00	 4.000000e+00	 9.983357e+00
0	 2.148148e+00	 4.074074e+00	 9.968732e+00
0	 2.222222e+00	 3.703704e+00	 1.010660e+01
0	 2.222222e+00	 3.777778e+00	 1.008418e+01
0	 2.222222e+00	 3.851852e+00	 1.006330e+01
0	 2.222222e+00	 3.925926e+00	 1.004399e+01
0	 2.222222e+00	 4.000000e+00	 1.002628e+01
0	 2.222222e+00	 4.074074e+00	 1.001021e+01
0	 1.851852e+00	 4.074074e+00	 9.782667e+00
0	 1.851852e+00	 4.148148e+00	 9.777206e+00
0	 1.851852e+00	 4.222222e+00	 9.772432e+00
0	 1.851852e+00	 4.296296e+00	 9.768355e+00
0	 1.851852e+00	 4.370370e+00	 9.764983e+00
0	 1.851852e+00	 4.444444e+00	 9.762326e+00
0	 1.925926e+00	 4.074074e+00	 9.831850e+00
0	 1.925926e+00	 4.148148e+00	 9.824220e+00
0	 1.925926e+00	 4.222222e+00	 9.817372e+00
0	 1.925926e+00	 4.296296e+00	 9.811338e+00
0	 1.925926e+00	 4.370370e+00	 9.806150e+00
0	 1.925926e+00	 4.444444e+00	 9.801840e+00
0	 2.000000e+00	 4.074074e+00	 9.879374e+00
0	 2.000000e+00	 4.148148e+00	 9.869706e+00
0	 2.000000e+00	 4.222222e+00	 9.860931e+00
0	 2.000000e+00	 4.296296e+00	 9.853093e+00
0	 2.000000e+00	 4.370370e+00	 9.846237e+00
0	 2.000000e+00	 4.444444e+00	 9.840410e+00
0	 2.074074e+00	 4.074074e+00	 9.925060e+00
0	 2.074074e+00	 4.148148e+00	 9.913521e+00
0	 2.074074e+00	 4.222222e+00	 9.902988e+00
0	 2.074074e+00	 4.296296e+00	 9.893511e+00
0	 2.074074e+00	 4.370370e+00	 9.885137e+00
0	 2.074074e+00	 4.444444e+00	 9.877915e+00
0	 2.148148e+00	 4.074074e+00	 9.968732e+00
0	 2.148148e+00	 4.148148e+00	 9.955519e+00
0	 2.148148e+00	 4.222222e+00	 9.943422e+00
0	 2.148148e+00	 4.296296e+00	 9.932481e+00
0	 2.148148e+00	 4.370370e+00	 9.922739e+00
0	 2.148148e+00	 4.444444e+00	 9.914237e+00
0	 2.222222e+00	 4.074074e+00	 1.001021e+01
0	 2.222222e+00	 4.148148e+00	 9.995557e+00
0	 2.222222e+00	 4.222222e+00	 9.982110e+00
0	 2.222222e+00	 4.296296e+00	 9.969894e+00
0	 2.222222e+00	 4.370370e+00	 9.958935e+00
0	 2.222222e+00	 4.444444e+00	 9.949257e+00
0	 1.851852e+00	 4.444444e+00	 9.762326e+00
0	 1.851852e+00	 4.518519e+00	 9.760369e+00
0	 1.851852e+00	 4.592593e+00	 9.759122e+00
0	 1.851852e+00	 4.666667e+00	 9.758631e+00
0	 1.851852e+00	 4.740741e+00	 9.758944e+00
0	 1.851852e+00	 4.814815e+00	 9.760107e+00
0	 1.925926e+00	 4.444444e+00	 9.801840e+00
0	 1.925926e+00	 4.518519e+00	 9.798340e+00
0	 1.925926e+00	 4.592593e+00	 9.795583e+00
0	 1.925926e+00	 4.666667e+00	 9.793610e+00
0	 1.925926e+00	 4.740741e+00	 9.792459e+00
0	 1.925926e+00	 4.814815e+00	 9.792170e+00
0	 2.000000e+00	 4.444444e+00	 9.840410e+00
0	 2.000000e+00	 4.518519e+00	 9.835481e+00
0	 2.000000e+00	 4.592593e+00	 9.831316e+00
0	 2.000000e+00	 4.666667e+00	 9.827948e+00
0	 2.000000e+00	 4.740741e+00	 9.825411e+00
0	 2.000000e+00	 4.814815e+00	 9.823740e+00
0	 2.074074e+00	 4.444444e+00	 9.877915e+00
0	 2.074074e+00	 4.518519e+00	 9.871661e+00
0	 2.074074e+00	 4.592593e+00	 9.866178e+00
0	 2.074074e+00	 4.666667e+00	 9.861499e+00
0	 2.074074e+00	 4.740741e+00	 9.857655e+00
0	 2.074074e+00	 4.814815e+00	 9.854679e+00
0	 2.148148e+00	 4.444444e+00	 9.914237e+00
0	 2.148148e+00	 4.518519e+00	 9.906746e+00
0	 2.148148e+00	 4.592593e+00	 9.900029e+00
0	 2.148148e+00	 4.666667e+00	 9.894119e+00
0	 2.148148e+00	 4.740741e+00	 9.889048e+00
0	 2.148148e+00	 4.814815e+00	 9.884848e+00
0	 2.222222e+00	 4.444444e+00	 9.949257e+00
0	 2.222222e+00	 4.518519e+00	 9.940606e+00
0	 2.222222e+00	 4.592593e+00	 9.932730e+00
0	 2.222222e+00	 4.666667e+00	 9.925665e+00
0	 2.222222e+00	 4.740741e+00	 9.919447e+00
0	 2.222222e+00	 4.814815e+00	 9.914110e+00
0	 1.851852e+00	 4.814815e+00	 9.760107e+00
0	 1.851852e+00	 4.888889e+00	 9.761835e+00
0	 1.851852e+00	 4.962963e+00	 9.763830e+00
0	 1.851852e+00	 5.037037e+00	 9.766116e+00
0	 1.851852e+00	 5.111111e+00	 9.768722e+00
0	 1.851852e+00	 5.185185e+00	 9.771673e+00
0	 1.925926e+00	 4.814815e+00	 9.792170e+00
0	 1.925926e+00	 4.888889e+00	 9.792484e+00
0	 1.925926e+00	 4.962963e+00	 9.793134e+00
0	 1.925926e+00	 5.037037e+00	 9.794148e+00
0	 1.925926e+00	 5.111111e+00	 9.795550e+00
0	 1.925926e+00	 5.185185e+00	 9.797367e+00
0	 2.000000e+00	 4.814815e+00	 9.823740e+00
0	 2.000000e+00	 4.888889e+00	 9.822705e+00
0	 2.000000e+00	 4.962963e+00	 9.822070e+00
0	 2.000000e+00	 5.037037e+00	 9.821862e+00
0	 2.000000e+00	 5.111111e+00	 9.822105e+00
0	 2.000000e+00	 5.185185e+00	 9.822824e+00
0	 2.074074e+00	 4.814815e+00	 9.854679e+00
0	 2.074074e+00	 4.888889e+00	 9.852367e+00
0	 2.074074e+00	 4.962963e+00	 9.850514e+00
0	 2.074074e+00	 5.037037e+00	 9.849142e+00
0	 2.074074e+00	 5.111111e+00	 9.848275e+00
0	 2.074074e+00	 5.185185e+00	 9.847937e+00
0	 2.148148e+00	 4.814815e+00	 9.884848e+00
0	 2.148148e+00	 4.888889e+00	 9.881341e+00
0	 2.148148e+00	 4.962963e+00	 9.878341e+00
0	 2.148148e+00	 5.037037e+00	 9.875871e+00
0	 2.148148e+00	 5.111111e+00	 9.873949e+00
0	 2.148148e+00	 5.185185e+00	 9.872600e+00
0	 2.222222e+00	 4.814815e+00	 9.914110e+00
0	 2.222222e+00	 4.888889e+00	 9.909495e+00
0	 2.222222e+00	 4.962963e+00	 9.905429e+00
0	 2.222222e+00	 5.037037e+00	 9.901930e+00
0	 2.222222e+00	 5.111111e+00	 9.899016e+00
0	 2.222222e+00	 5.185185e+00	 9.896706e+00
0	 1.851852e+00	 5.185185e+00	 9.771673e+00
0	 1.851852e+00	 5.259259e+00	 9.774905e+00
0	 1.851852e+00	 5.333333e+00	 9.778346e+00
0	 1.851852e+00	 5.407407e+00	 9.782013e+00
0	 1.851852e+00	 5.481481e+00	 9.785920e+00
0	 1.851852e+00	 5.555556e+00	 9.790085e+00
0	 1.925926e+00	 5.185185e+00	 9.797367e+00
0	 1.925926e+00	 5.259259e+00	 9.799515e+00
0	 1.925926e+00	 5.333333e+00	 9.801902e+00
0	 1.925926e+00	 5.407407e+00	 9.804546e+00
0	 1.925926e+00	 5.481481e+00	 9.807467e+00
0	 1.925926e+00	 5.555556e+00	 9.810682e+00
0	 2.000000e+00	 5.185185e+00	 9.822824e+00
0	 2.000000e+00	 5.259259e+00	 9.823918e+00
0	 2.000000e+00	 5.333333e+00	 9.825282e+00
0	 2.000000e+00	 5.407407e+00	 9.826937e+00
0	 2.000000e+00	 5.481481e+00	 9.828903e+00
0	 2.000000e+00	 5.555556e+00	 9.831198e+00
0	 2.074074e+00	 5.185185e+00	 9.847937e+00
0	 2.074074e+00	 5.259259e+00	 9.848014e+00
0	 2.074074e+00	 5.333333e+00	 9.848392e+00
0	 2.074074e+00	 5.407407e+00	 9.849092e+00
0	 2.074074e+00	 5.481481e+00	 9.850135e+00
0	 2.074074e+00	 5.555556e+00	 9.851542e+00
0	 2.148148e+00	 5.185185e+00	 9.872600e+00
0	 2.148148e+00	 5.259259e+00	 9.871700e+00
0	 2.148148e+00	 5.333333e+00	 9.871132e+00
0	 2.148148e+00	 5.407407e+00	 9.870915e+00
0	 2.148148e+00	 5.481481e+00	 9.871073e+00
0	 2.148148e+00	 5.555556e+00	 9.871626e+00
0	 2.222222e+00	 5.185185e+00	 9.896706e+00
0	 2.222222e+00	 5.259259e+00	 9.894876e+00
0	 2.222222e+00	 5.333333e+00	 9.893405e+00
0	 2.222222e+00	 5.407407e+00	 9.892314e+00
0	 2.222222e+00	 5.481481e+00	 9.891625e+00
0	 2.222222e+00	 5.555556e+00	 9.891360e+00
0	 1.851852e+00	 5.555556e+00	 9.790085e+00
0	 1.851852e+00	 5.629630e+00	 9.794414e+00
0	 1.851852e+00	 5.703704e+00	 9.798814e+00
0	 1.851852e+00	 5.777778e+00	 9.803300e+00
0	 1.851852e+00	 5.851852e+00	 9.807889e+00
0	 1.851852e+00	 5.925926e+00	 9.812597e+00
0	 1.925926e+00	 5.555556e+00	 9.810682e+00
0	 1.925926e+00	 5.629630e+00	 9.814101e+00
0	 1.925926e+00	 5.703704e+00	 9.817632e+00
0	 1.925926e+00	 5.777778e+00	 9.821288e+00
0	 1.925926e+00	 5.851852e+00	 9.825085e+00
0	 1.925926e+00	 5.925926e+00	 9.829035e+00
0	 2.000000e+00	 5.555556e+00	 9.831198e+00
0	 2.000000e+00	 5.629630e+00	 9.833734e+00
0	 2.000000e+00	 5.703704e+00	 9.836417e+00
0	 2.000000e+00	 5.777778e+00	 9.839259e+00
0	 2.000000e+00	 5.851852e+00	 9.842275e+00
0	 2.000000e+00	 5.925926e+00	 9.845477e+00
0	 2.074074e+00	 5.555556e+00	 9.851542e+00
0	 2.074074e+00	 5.629630e+00	 9.853224e+00
0	 2.074074e+00	 5.703704e+00	 9.855082e+00
0	 2.074074e+00	 5.777778e+00	 9.857131e+00
0	 2.074074e+00	 5.851852e+00	 9.859382e+00
0	 2.074074e+00	 5.925926e+00	 9.861848e+00
0	 2.148148e+00	 5.555556e+00	 9.871626e+00
0	 2.148148e+00	 5.629630e+00	 9.872483e+00
0	 2.148148e+00	 5.703704e+00	 9.873544e+00
0	 2.148148e+00	 5.777778e+00	 9.874823e+00
0	 2.148148e+00	 5.851852e+00	 9.876330e+00
0	 2.148148e+00	 5.925926e+00	 9.878078e+00
0	 2.222222e+00	 5.555556e+00	 9.891360e+00
0	 2.222222e+00	 5.629630e+00	 9.891424e+00
0	 2.222222e+00	 5.703704e+00	 9.891718e+00
0	 2.222222e+00	 5.777778e+00	 9.892253e+00
0	 2.222222e+00	 5.851852e+00	 9.893041e+00
0	 2.222222e+00	 5.925926e+00	 9.894095e+00
0	 1.851852e+00	 5.925926e+00	 9.812597e+00
0	 1.851852e+00	 6.000000e+00	 9.817377e+00
0	 1.851852e+00	 6.074074e+00	 9.822181e+00
0	 1.851852e+00	 6.148148e+00	 9.827017e+00
0	 1.851852e+00	 6.222222e+00	 9.831891e+00
0	 1.851852e+00	 6.296296e+00	 9.836813e+00
0	 1.925926e+00	 5.925926e+00	 9.829035e+00
0	 1.925926e+00	 6.000000e+00	 9.833088e+00
0	 1.925926e+00	 6.074074e+00	 9.837187e+00
0	 1.925926e+00	 6.148148e+00	 9.841342e+00
0	 1.925926e+00	 6.222222e+00	 9.845564e+00
0	 1.925926e+00	 6.296296e+00	 9.849861e+00
0	 2.000000e+00	 5.925926e+00	 9.845477e+00
0	 2.000000e+00	 6.000000e+00	 9.848808e+00
0	 2.000000e+00	 6.074074e+00	 9.852210e+00
0	 2.000000e+00	 6.148148e+00	 9.855694e+00
0	 2.000000e+00	 6.222222e+00	 9.859272e+00
0	 2.000000e+00	 6.296296e+00	 9.862954e+00
0	 2.074074e+00	 5.925926e+00	 9.861848e+00
0	 2.074074e+00	 6.000000e+00	 9.864470e+00
0	 2.074074e+00	 6.074074e+00	 9.867188e+00
0	 2.074074e+00	 6.148148e+00	 9.870013e+00
0	 2.074074e+00	 6.222222e+00	 9.872959e+00
0	 2.074074e+00	 6.296296e+00	 9.876036e+00
0	 2.148148e+00	 5.925926e+00	 9.878078e+00
0	 2.148148e+00	 6.000000e+00	 9.880007e+00
0	 2.148148e+00	 6.074074e+00	 9.882057e+00
0	 2.148148e+00	 6.148148e+00	 9.884240e+00
0	 2.148148e+00	 6.222222e+00	 9.886568e+00
0	 2.148148e+00	 6.296296e+00	 9.889053e+00
0	 2.222222e+00	 5.925926e+00	 9.894095e+00
0	 2.222222e+00	 6.000000e+00	 9.895353e+00
0	 2.222222e+00	 6.074074e+00	 9.896756e+00
0	 2.222222e+00	 6.148148e+00	 9.898315e+00
0	 2.222222e+00	 6.222222e+00	 9.900042e+00
0	 2.222222e+00	 6.296296e+00	 9.901949e+00
0	 1.851852e+00	 6.296296e+00	 9.836813e+00
0	 1.851852e+00	 6.370370e+00	 9.841749e+00
0	 1.851852e+00	 6.444444e+00	 9.846664e+00
0	 1.851852e+00	 6.518519e+00	 9.851567e+00
0	 1.851852e+00	 6.592593e+00	 9.856466e+00
0	 1.851852e+00	 6.666667e+00	 9.861370e+00
0	 1.925926e+00	 6.296296e+00	 9.849861e+00
0	 1.925926e+00	 6.370370e+00	 9.854198e+00
0	 1.925926e+00	 6.444444e+00	 9.858539e+00
0	 1.925926e+00	 6.518519e+00	 9.862889e+00
0	 1.925926e+00	 6.592593e+00	 9.867258e+00
0	 1.925926e+00	 6.666667e+00	 9.871653e+00
0	 2.000000e+00	 6.296296e+00	 9.862954e+00
0	 2.000000e+00	 6.370370e+00	 9.866701e+00
0	 2.000000e+00	 6.444444e+00	 9.870472e+00
0	 2.000000e+00	 6.518519e+00	 9.874273e+00
0	 2.000000e+00	 6.592593e+00	 9.878114e+00
0	 2.000000e+00	 6.666667e+00	 9.882000e+00
0	 2.074074e+00	 6.296296e+00	 9.876036e+00
0	 2.074074e+00	 6.370370e+00	 9.879203e+00
0	 2.074074e+00	 6.444444e+00	 9.882411e+00
0	 2.074074e+00	 6.518519e+00	 9.885670e+00
0	 2.074074e+00	 6.592593e+00	 9.888986e+00
0	 2.074074e+00	 6.666667e+00	 9.892366e+00
0	 2.148148e+00	 6.296296e+00	 9.889053e+00
0	 2.148148e+00	 6.370370e+00	 9.891649e+00
0	 2.148148e+00	 6.444444e+00	 9.894305e+00
0	 2.148148e+00	 6.518519e+00	 9.897028e+00
0	 2.148148e+00	 6.592593e+00	 9.899826e+00
0	 2.148148e+00	 6.666667e+00	 9.902708e+00
0	 2.222222e+00	 6.296296e+00	 9.901949e+00
0	 2.222222e+00	 6.370370e+00	 9.903986e+00
0	 2.222222e+00	 6.444444e+00	 9.906099e+00
0	 2.222222e+00	 6.518519e+00	 9.908298e+00
0	 2.222222e+00	 6.592593e+00	 9.910589e+00
0	 2.222222e+00	 6.666667e+00	 9.912979e+00
0	 1.851852e+00	 6.666667e+00	 9.861370e+00
0	 1.851852e+00	 6.740741e+00	 9.866255e+00
0	 1.851852e+00	 6.814815e+00	 9.871092e+00
0	 1.851852e+00	 6.888889e+00	 9.875887e+00
0	 1.851852e+00	 6.962963e+00	 9.880646e+00
0	 1.851852e+00	 7.037037e+00	 9.885373e+00
0	 1.925926e+00	 6.666667e+00	 9.871653e+00
0	 1.925926e+00	 6.740741e+00	 9.876047e+00
0	 1.925926e+00	 6.814815e+00	 9.880409e+00
0	 1.925926e+00	 6.888889e+00	 9.884746e+00
0	 1.925926e+00	 6.962963e+00	 9.889065e+00
0	 1.925926e+00	 7.037037e+00	 9.893371e+00
0	 2.000000e+00	 6.666667e+00	 9.882000e+00
0	 2.000000e+00	 6.740741e+00	 9.885902e+00
0	 2.000000e+00	 6.814815e+00	 9.889790e+00
0	 2.000000e+00	 6.888889e+00	 9.893671e+00
0	 2.000000e+00	 6.962963e+00	 9.897550e+00
0	 2.000000e+00	 7.037037e+00	 9.901435e+00
0	 2.074074e+00	 6.666667e+00	 9.892366e+00
0	 2.074074e+00	 6.740741e+00	 9.895781e+00
0	 2.074074e+00	 6.814815e+00	 9.899197e+00
0	 2.074074e+00	 6.888889e+00	 9.902624e+00
0	 2.074074e+00	 6.962963e+00	 9.906066e+00
0	 2.074074e+00	 7.037037e+00	 9.909533e+00
0	 2.148148e+00	 6.666667e+00	 9.902708e+00
0	 2.148148e+00	 6.740741e+00	 9.905640e+00
0	 2.148148e+00	 6.814815e+00	 9.908591e+00
0	 2.148148e+00	 6.888889e+00	 9.911568e+00
0	 2.148148e+00	 6.962963e+00	 9.914579e+00
0	 2.148148e+00	 7.037037e+00	 9.917630e+00
0	 2.222222e+00	 6.666667e+00	 9.912979e+00
0	 2.222222e+00	 6.740741e+00	 9.915438e+00
0	 2.222222e+00	 6.814815e+00	 9.917932e+00
0	 2.222222e+00	 6.888889e+00	 9.920468e+00
0	 2.222222e+00	 6.962963e+00	 9.923053e+00
0	 2.222222e+00	 7.037037e+00	 9.925694e+00
0	 1.851852e+00	 7.037037e+00	 9.885373e+00
0	 1.851852e+00	 7.111111e+00	 9.890053e+00
0	 1.851852e+00	 7.185185e+00	 9.894669e+00
0	 1.851852e+00	 7.259259e+00	 9.899225e+00
0	 1.851852e+00	 7.333333e+00	 9.903727e+00
0	 1.851852e+00	 7.407407e+00	 9.908180e+00
0	 1.925926e+00	 7.037037e+00	 9.893371e+00
0	 1.925926e+00	 7.111111e+00	 9.897646e+00
0	 1.925926e+00	 7.185185e+00	 9.901870e+00
0	 1.925926e+00	 7.259259e+00	 9.906048e+00
0	 1.925926e+00	 7.333333e+00	 9.910187e+00
0	 1.925926e+00	 7.407407e+00	 9.914290e+00
0	 2.000000e+00	 7.037037e+00	 9.901435e+00
0	 2.000000e+00	 7.111111e+00	 9.905305e+00
0	 2.000000e+00	 7.185185e+00	 9.909137e+00
0	 2.000000e+00	 7.259259e+00	 9.912938e+00
0	 2.000000e+00	 7.333333e+00	 9.916711e+00
0	 2.000000e+00	 7.407407e+00	 9.920463e+00
0	 2.074074e+00	 7.037037e+00	 9.909533e+00
0	 2.074074e+00	 7.111111e+00	 9.912999e+00
0	 2.074074e+00	 7.185185e+00	 9.916441e+00
0	 2.074074e+00	 7.259259e+00	 9.919863e+00
0	 2.074074e+00	 7.333333e+00	 9.923272e+00
0	 2.074074e+00	 7.407407e+00	 9.926671e+00
0	 2.148148e+00	 7.037037e+00	 9.917630e+00
0	 2.148148e+00	 7.111111e+00	 9.920696e+00
0	 2.148148e+00	 7.185185e+00	 9.923750e+00
0	 2.148148e+00	 7.259259e+00	 9.926796e+00
0	 2.148148e+00	 7.333333e+00	 9.929841e+00
0	 2.148148e+00	 7.407407e+00	 9.932889e+00
0	 2.222222e+00	 7.037037e+00	 9.925694e+00
0	 2.222222e+00	 7.111111e+00	 9.928364e+00
0	 2.222222e+00	 7.185185e+00	 9.931033e+00
0	 2.222222e+00	 7.259259e+00	 9.933706e+00
0	 2.222222e+00	 7.333333e+00	 9.936391e+00
0	 2.222222e+00	 7.407407e+00	 9.939091e+00
0	 1.851852e+00	 7.407407e+00	 9.908180e+00
0	 1.851852e+00	 7.481481e+00	 9.912570e+00
0	 1.851852e+00	 7.555556e+00	 9.916878e+00
0	 1.851852e+00	 7.629630e+00	 9.921111e+00
0	 1.851852e+00	 7.703704e+00	 9.925272e+00
0	 1.851852e+00	 7.777778e+00	 9.929367e+00
0	 1.925926e+00	 7.407407e+00	 9.914290e+00
0	 1.925926e+00	 7.481481e+00	 9.918342e+00
0	 1.925926e+00	 7.555556e+00	 9.922324e+00
0	 1.925926e+00	 7.629630e+00	 9.926241e+00
0	 1.925926e+00	 7.703704e+00	 9.930099e+00
0	 1.925926e+00	 7.777778e+00	 9.933902e+00
0	 2.000000e+00	 7.407407e+00	 9.920463e+00
0	 2.000000e+00	 7.481481e+00	 9.924174e+00
0	 2.000000e+00	 7.555556e+00	 9.927828e+00
0	 2.000000e+00	 7.629630e+00	 9.931428e+00
0	 2.000000e+00	 7.703704e+00	 9.934980e+00
0	 2.000000e+00	 7.777778e+00	 9.938489e+00
0	 2.074074e+00	 7.407407e+00	 9.926671e+00
0	 2.074074e+00	 7.481481e+00	 9.930042e+00
0	 2.074074e+00	 7.555556e+00	 9.933367e+00
0	 2.074074e+00	 7.629630e+00	 9.936650e+00
0	 2.074074e+00	 7.703704e+00	 9.939895e+00
0	 2.074074e+00	 7.777778e+00	 9.943110e+00
0	 2.148148e+00	 7.407407e+00	 9.932889e+00
0	 2.148148e+00	 7.481481e+00	 9.935921e+00
0	 2.148148e+00	 7.555556e+00	 9.938918e+00
0	 2.148148e+00	 7.629630e+00	 9.941884e+00
0	 2.148148e+00	 7.703704e+00	 9.944824e+00
0	 2.148148e+00	 7.777778e+00	 9.947744e+00
0	 2.222222e+00	 7.407407e+00	 9.939091e+00
0	 2.222222e+00	 7.481481e+00	 9.941787e+00
0	 2.222222e+00	 7.555556e+00	 9.944458e+00
0	 2.222222e+00	 7.629630e+00	 9.947109e+00
0	 2.222222e+00	 7.703704e+00	 9.949746e+00
0	 2.222222e+00	 7.777778e+00	 9.952373e+00
0	 1.851852e+00	 7.777778e+00	 9.929367e+00
0	 1.851852e+00	 7.851852e+00	 9.933381e+00
0	 1.851852e+00	 7.925926e+00	 9.937302e+00
0	 1.851852e+00	 8.000000e+00	 9.941133e+00
0	 1.851852e+00	 8.074074e+00	 9.944881e+00
0	 1.851852e+00	 8.148148e+00	 9.948550e+00
0	 1.925926e+00	 7.777778e+00	 9.933902e+00
0	 1.925926e+00	 7.851852e+00	 9.937635e+00
0	 1.925926e+00	 7.925926e+00	 9.941284e+00
0	 1.925926e+00	 8.000000e+00	 9.944853e+00
0	 1.925926e+00	 8.074074e+00	 9.948349e+00
0	 1.925926e+00	 8.148148e+00	 9.951774e+00
0	 2.000000e+00	 7.777778e+00	 9.938489e+00
0	 2.000000e+00	 7.851852e+00	 9.941939e+00
0	 2.000000e+00	 7.925926e+00	 9.945314e+00
0	 2.000000e+00	 8.000000e+00	 9.948620e+00
0	 2.000000e+00	 8.074074e+00	 9.951860e+00
0	 2.000000e+00	 8.148148e+00	 9.955040e+00
0	 2.074074e+00	 7.777778e+00	 9.943110e+00
0	 2.074074e+00	 7.851852e+00	 9.946276e+00
0	 2.074074e+00	 7.925926e+00	 9.949376e+00
0	 2.074074e+00	 8.000000e+00	 9.952416e+00
0	 2.074074e+00	 8.074074e+00	 9.955400e+00
0	 2.074074e+00	 8.148148e+00	 9.958333e+00
0	 2.148148e+00	 7.777778e+00	 9.947744e+00
0	 2.148148e+00	 7.851852e+00	 9.950626e+00
0	 2.148148e+00	 7.925926e+00	 9.953452e+00
0	 2.148148e+00	 8.000000e+00	 9.956226e+00
0	 2.148148e+00	 8.074074e+00	 9.958954e+00
0	 2.148148e+00	 8.148148e+00	 9.961639e+00
0	 2.222222e+00	 7.777778e+00	 9.952373e+00
0	 2.222222e+00	 7.851852e+00	 9.954971e+00
0	 2.222222e+00	 7.925926e+00	 9.957523e+00
0	 2.222222e+00	 8.000000e+00	 9.960032e+00
0	 2.222222e+00	 8.074074e+00	 9.962504e+00
0	 2.222222e+00	 8.148148e+00	 9.964942e+00
0	 1.851852e+00	 8.148148e+00	 9.948550e+00
0	 1.851852e+00	 8.222222e+00	 9.952124e+00
0	 1.851852e+00	 8.296296e+00	 9.955590e+00
0	 1.851852e+00	 8.370370e+00	 9.958952e+00
0	 1.851852e+00	 8.444444e+00	 9.962215e+00
0	 1.851852e+00	 8.518519e+00	 9.965385e+00
0	 1.925926e+00	 8.148148e+00	 9.951774e+00
0	 1.925926e+00	 8.222222e+00	 9.955115e+00
0	 1.925926e+00	 8.296296e+00	 9.958355e+00
0	 1.925926e+00	 8.370370e+00	 9.961499e+00
0	 1.925926e+00	 8.444444e+00	 9.964554e+00
0	 1.925926e+00	 8.518519e+00	 9.967524e+00
0	 2.000000e+00	 8.148148e+00	 9.955040e+00
0	 2.000000e+00	 8.222222e+00	 9.958144e+00
0	 2.000000e+00	 8.296296e+00	 9.961156e+00
0	 2.000000e+00	 8.370370e+00	 9.964082e+00
0	 2.000000e+00	 8.444444e+00	 9.966926e+00
0	 2.000000e+00	 8.518519e+00	 9.969694e+00
0	 2.074074e+00	 8.148148e+00	 9.958333e+00
0	 2.074074e+00	 8.222222e+00	 9.961199e+00
0	 2.074074e+00	 8.296296e+00	 9.963982e+00
0	 2.074074e+00	 8.370370e+00	 9.966688e+00
0	 2.074074e+00	 8.444444e+00	 9.969320e+00
0	 2.074074e+00	 8.518519e+00	 9.971883e+00
0	 2.148148e+00	 8.148148e+00	 9.961639e+00
0	 2.148148e+00	 8.222222e+00	 9.964266e+00
0	 2.148148e+00	 8.296296e+00	 9.966820e+00
0	 2.148148e+00	 8.370370e+00	 9.969304e+00
0	 2.148148e+00	 8.444444e+00	 9.971723e+00
0	 2.148148e+00	 8.518519e+00	 9.974082e+00
0	 2.222222e+00	 8.148148e+00	 9.964942e+00
0	 2.222222e+00	 8.222222e+00	 9.967331e+00
0	 2.222222e+00	 8.296296e+00	 9.969655e+00
0	 2.222222e+00	 8.370370e+00	 9.971918e+00
0	 2.222222e+00	 8.444444e+00	 9.974124e+00
0	 2.222222e+00	 8.518519e+00	 9.976279e+00
0	 1.851852e+00	 8.518519e+00	 9.965385e+00
0	 1.851852e+00	 8.592593e+00	 9.968444e+00
0	 1.851852e+00	 8.666667e+00	 9.971377e+00
0	 1.851852e+00	 8.740741e+00	 9.974189e+00
0	 1.851852e+00	 8.814815e+00	 9.976886e+00
0	 1.851852e+00	 8.888889e+00	 9.979475e+00
0	 1.925926e+00	 8.518519e+00	 9.967524e+00
0	 1.925926e+00	 8.592593e+00	 9.970391e+00
0	 1.925926e+00	 8.666667e+00	 9.973141e+00
0	 1.925926e+00	 8.740741e+00	 9.975778e+00
0	 1.925926e+00	 8.814815e+00	 9.978309e+00
0	 1.925926e+00	 8.888889e+00	 9.980738e+00
0	 2.000000e+00	 8.518519e+00	 9.969694e+00
0	 2.000000e+00	 8.592593e+00	 9.972368e+00
0	 2.000000e+00	 8.666667e+00	 9.974932e+00
0	 2.000000e+00	 8.740741e+00	 9.977393e+00
0	 2.000000e+00	 8.814815e+00	 9.979754e+00
0	 2.000000e+00	 8.888889e+00	 9.982022e+00
0	 2.074074e+00	 8.518519e+00	 9.971883e+00
0	 2.074074e+00	 8.592593e+00	 9.974362e+00
0	 2.074074e+00	 8.666667e+00	 9.976740e+00
0	 2.074074e+00	 8.740741e+00	 9.979023e+00
0	 2.074074e+00	 8.814815e+00	 9.981214e+00
0	 2.074074e+00	 8.888889e+00	 9.983320e+00
0	 2.148148e+00	 8.518519e+00	 9.974082e+00
0	 2.148148e+00	 8.592593e+00	 9.976365e+00
0	 2.148148e+00	 8.666667e+00	 9.978556e+00
0	 2.148148e+00	 8.740741e+00	 9.980659e+00
0	 2.148148e+00	 8.814815e+00	 9.982679e+00
0	 2.148148e+00	 8.888889e+00	 9.984622e+00
0	 2.222222e+00	 8.518519e+00	 9.976279e+00
0	 2.222222e+00	 8.592593e+00	 9.978366e+00
0	 2.222222e+00	 8.666667e+00	 9.980369e+00
0	 2.222222e+00	 8.740741e+00	 9.982293e+00
0	 2.222222e+00	 8.814815e+00	 9.984141e+00
0	 2.222222e+00	 8.888889e+00	 9.985920e+00
0	 1.851852e+00	 8.888889e+00	 9.979475e+00
0	 1.851852e+00	 8.962963e+00	 9.981935e+00
0	 1.851852e+00	 9.037037e+00	 9.984246e+00
0	 1.851852e+00	 9.111111e+00	 9.986416e+00
0	 1.851852e+00	 9.185185e+00	 9.988451e+00
0	 1.851852e+00	 9.259259e+00	 9.990358e+00
0	 1.925926e+00	 8.888889e+00	 9.980738e+00
0	 1.925926e+00	 8.962963e+00	 9.983047e+00
0	 1.925926e+00	 9.037037e+00	 9.985216e+00
0	 1.925926e+00	 9.111111e+00	 9.987252e+00
0	 1.925926e+00	 9.185185e+00	 9.989163e+00
0	 1.925926e+00	 9.259259e+00	 9.990953e+00
0	 2.000000e+00	 8.888889e+00	 9.982022e+00
0	 2.000000e+00	 8.962963e+00	 9.984178e+00
0	 2.000000e+00	 9.037037e+00	 9.986204e+00
0	 2.000000e+00	 9.111111e+00	 9.988106e+00
0	 2.000000e+00	 9.185185e+00	 9.989890e+00
0	 2.000000e+00	 9.259259e+00	 9.991562e+00
0	 2.074074e+00	 8.888889e+00	 9.983320e+00
0	 2.074074e+00	 8.962963e+00	 9.985322e+00
0	 2.074074e+00	 9.037037e+00	 9.987203e+00
0	 2.074074e+00	 9.111111e+00	 9.988969e+00
0	 2.074074e+00	 9.185185e+00	 9.990626e+00
0	 2.074074e+00	 9.259259e+00	 9.992178e+00
0	 2.148148e+00	 8.888889e+00	 9.984622e+00
0	 2.148148e+00	 8.962963e+00	 9.986469e+00
0	 2.148148e+00	 9.037037e+00	 9.988205e+00
0	 2.148148e+00	 9.111111e+00	 9.989834e+00
0	 2.148148e+00	 9.185185e+00	 9.991363e+00
0	 2.148148e+00	 9.259259e+00	 9.992795e+00
0	 2.222222e+00	 8.888889e+00	 9.985920e+00
0	 2.222222e+00	 8.962963e+00	 9.987612e+00
0	 2.222222e+00	 9.037037e+00	 9.989202e+00
0	 2.222222e+00	 9.111111e+00	 9.990695e+00
0	 2.222222e+00	 9.185185e+00	 9.992095e+00
0	 2.222222e+00	 9.259259e+00	 9.993407e+00
0	 1.851852e+00	 9.259259e+00	 9.990358e+00
0	 1.851852e+00	 9.333333e+00	 9.992113e+00
0	 1.851852e+00	 9.407407e+00	 9.993690e+00
0	 1.851852e+00	 9.481481e+00	 9.995099e+00
0	 1.851852e+00	 9.555556e+00	 9.996347e+00
0	 1.851852e+00	 9.629630e+00	 9.997442e+00
0	 1.925926e+00	 9.259259e+00	 9.990953e+00
0	 1.925926e+00	 9.333333e+00	 9.992600e+00
0	 1.925926e+00	 9.407407e+00	 9.994080e+00
0	 1.925926e+00	 9.481481e+00	 9.995402e+00
0	 1.925926e+00	 9.555556e+00	 9.996572e+00
0	 1.925926e+00	 9.629630e+00	 9.997598e+00
0	 2.000000e+00	 9.259259e+00	 9.991562e+00
0	 2.000000e+00	 9.333333e+00	 9.993100e+00
0	 2.000000e+00	 9.407407e+00	 9.994482e+00
0	 2.000000e+00	 9.481481e+00	 9.995716e+00
0	 2.000000e+00	 9.555556e+00	 9.996808e+00
0	 2.000000e+00	 9.629630e+00	 9.997765e+00
0	 2.074074e+00	 9.259259e+00	 9.992178e+00
0	 2.074074e+00	 9.333333e+00	 9.993606e+00
0	 2.074074e+00	 9.407407e+00	 9.994890e+00
0	 2.074074e+00	 9.481481e+00	 9.996035e+00
0	 2.074074e+00	 9.555556e+00	 9.997048e+00
0	 2.074074e+00	 9.629630e+00	 9.997935e+00
0	 2.148148e+00	 9.259259e+00	 9.992795e+00
0	 2.148148e+00	 9.333333e+00	 9.994113e+00
0	 2.148148e+00	 9.407407e+00	 9.995297e+00
0	 2.148148e+00	 9.481481e+00	 9.996353e+00
0	 2.148148e+00	 9.555556e+00	 9.997287e+00
0	 2.148148e+00	 9.629630e+00	 9.998104e+00
0	 2.222222e+00	 9.259259e+00	 9.993407e+00
0	 2.222222e+00	 9.333333e+00	 9.994613e+00
0	 2.222222e+00	 9.407407e+00	 9.995697e+00
0	 2.222222e+00	 9.481481e+00	 9.996664e+00
0	 2.222222e+00	 9.555556e+00	 9.997517e+00
0	 2.222222e+00	 9.629630e+00	 9.998264e+00
0	 1.851852e+00	 9.629630e+00	 9.997442e+00
0	 1.851852e+00	 9.703704e+00	 9.998357e+00
0	 1.851852e+00	 9.777778e+00	 9.999062e+00
0	 1.851852e+00	 9.851852e+00	 9.999568e+00
0	 1.851852e+00	 9.925926e+00	 9.999885e+00
0	 1.851852e+00	 1.000000e+01	 1.000002e+01
0	 1.925926e+00	 9.629630e+00	 9.997598e+00
0	 1.925926e+00	 9.703704e+00	 9.998455e+00
0	 1.925926e+00	 9.777778e+00	 9.999116e+00
0	 1.925926e+00	 9.851852e+00	 9.999590e+00
0	 1.925926e+00	 9.925926e+00	 9.999885e+00
0	 1.925926e+00	 1.000000e+01	 1.000001e+01
0	 2.000000e+00	 9.629630e+00	 9.997765e+00
0	 2.000000e+00	 9.703704e+00	 9.998563e+00
0	 2.000000e+00	 9.777778e+00	 9.999179e+00
0	 2.000000e+00	 9.851852e+00	 9.999621e+00
0	 2.000000e+00	 9.925926e+00	 9.999897e+00
0	 2.000000e+00	 1.000000e+01	 1.000001e+01
0	 2.074074e+00	 9.629630e+00	 9.997935e+00
0	 2.074074e+00	 9.703704e+00	 9.998676e+00
0	 2.074074e+00	 9.777778e+00	 9.999247e+00
0	 2.074074e+00	 9.851852e+00	 9.999657e+00
0	 2.074074e+00	 9.925926e+00	 9.999912e+00
0	 2.074074e+00	 1.000000e+01	 1.000002e+01
0	 2.148148e+00	 9.629630e+00	 9.998104e+00
0	 2.148148e+00	 9.703704e+00	 9.998785e+00
0	 2.148148e+00	 9.777778e+00	 9.999311e+00
0	 2.148148e+00	 9.851852e+00	 9.999689e+00
0	 2.148148e+00	 9.925926e+00	 9.999923e+00
0	 2.148148e+00	 1.000000e+01	 1.000002e+01
0	 2.222222e+00	 9.629630e+00	 9.998264e+00
0	 2.222222e+00	 9.703704e+00	 9.998886e+00
0	 2.222222e+00	 9.777778e+00	 9.999366e+00
0	 2.222222e+00	 9.851852e+00	 9.999710e+00
0	 2.222222e+00	 9.925926e+00	 9.999924e+00
0	 2.222222e+00	 1.000000e+01	 1.000001e+01
0	 2.222222e+00	 0.000000e+00	 1.223026e+01
0	 2.222222e+00	 7.407407e-02	 1.221752e+01
0	 2.222222e+00	 1.481481e-01	 1.219156e+01
0	 2.222222e+00	 2.222222e-01	 1.215799e+01
0	 2.222222e+00	 2.962963e-01	 1.212241e+01
0	 2.222222e+00	 3.703704e-01	 1.209043e+01
0	 2.296296e+00	 0.000000e+00	 1.168408e+01
0	 2.296296e+00	 7.407407e-02	 1.172786e+01
0	 2.296296e+00	 1.481481e-01	 1.176188e+01
0	 2.296296e+00	 2.222222e-01	 1.178792e+01
0	 2.296296e+00	 2.962963e-01	 1.180776e+01
0	 2.296296e+00	 3.703704e-01	 1.182318e+01
0	 2.370370e+00	 0.000000e+00	 1.136308e+01
0	 2.370370e+00	 7.407407e-02	 1.142055e+01
0	 2.370370e+00	 1.481481e-01	 1.147544e+01
0	 2.370370e+00	 2.222222e-01	 1.152698e+01
0	 2.370370e+00	 2.962963e-01	 1.157440e+01
0	 2.370370e+00	 3.703704e-01	 1.161693e+01
0	 2.444444e+00	 0.000000e+00	 1.121949e+01
0	 2.444444e+00	 7.407407e-02	 1.126155e+01
0	 2.444444e+00	 1.481481e-01	 1.130927e+01
0	 2.444444e+00	 2.222222e-01	 1.136063e+01
0	 2.444444e+00	 2.962963e-01	 1.141359e+01
0	 2.444444e+00	 3.703704e-01	 1.146612e+01
0	 2.518519e+00	 0.000000e+00	 1.120557e+01
0	 2.518519e+00	 7.407407e-02	 1.121681e+01
0	 2.518519e+00	 1.481481e-01	 1.124041e+01
0	 2.518519e+00	 2.222222e-01	 1.127435e+01
0	 2.518519e+00	 2.962963e-01	 1.131661e+01
0	 2.518519e+00	 3.703704e-01	 1.136518e+01
0	 2.592593e+00	 0.000000e+00	 1.127357e+01
0	 2.592593e+00	 7.407407e-02	 1.125229e+01
0	 2.592593e+00	 1.481481e-01	 1.124588e+01
0	 2.592593e+00	 2.222222e-01	 1.125360e+01
0	 2.592593e+00	 2.962963e-01	 1.127474e+01
0	 2.592593e+00	 3.703704e-01	 1.130855e+01
0	 2.222222e+00	 3.703704e-01	 1.209043e+01
0	 2.222222e+00	 4.444444e-01	 1.206915e+01
0	 2.222222e+00	 5.185185e-01	 1.206246e+01
0	 2.222222e+00	 5.925926e-01	 1.207118e+01
0	 2.222222e+00	 6.666667e-01	 1.209613e+01
0	 2.222222e+00	 7.407407e-01	 1.213812e+01
0	 2.296296e+00	 3.703704e-01	 1.182318e+01
0	 2.296296e+00	 4.444444e-01	 1.184044e+01
0	 2.296296e+00	 5.185185e-01	 1.186619e+01
0	 2.296296e+00	 5.925926e-01	 1.190274e+01
0	 2.296296e+00	 6.666667e-01	 1.195243e+01
0	 2.296296e+00	 7.407407e-01	 1.201756e+01
0	 2.370370e+00	 3.703704e-01	 1.161693e+01
0	 2.370370e+00	 4.444444e-01	 1.165668e+01
0	 2.370370e+00	 5.185185e-01	 1.169842e+01
0	 2.370370e+00	 5.925926e-01	 1.174538e+01
0	 2.370370e+00	 6.666667e-01	 1.180076e+01
0	 2.370370e+00	 7.407407e-01	 1.186778e+01
0	 2.444444e+00	 3.703704e-01	 1.146612e+01
0	 2.444444e+00	 4.444444e-01	 1.151477e+01
0	 2.444444e+00	 5.185185e-01	 1.155981e+01
0	 2.444444e+00	 5.925926e-01	 1.160474e+01
0	 2.444444e+00	 6.666667e-01	 1.165305e+01
0	 2.444444e+00	 7.407407e-01	 1.170824e+01
0	 2.518519e+00	 3.703704e-01	 1.136518e+01
0	 2.518519e+00	 4.444444e-01	 1.141163e+01
0	 2.518519e+00	 5.185185e-01	 1.145101e+01
0	 2.518519e+00	 5.925926e-01	 1.148649e+01
0	 2.518519e+00	 6.666667e-01	 1.152123e+01
0	 2.518519e+00	 7.407407e-01	 1.155839e+01
0	 2.592593e+00	 3.703704e-01	 1.130855e+01
0	 2.592593e+00	 4.444444e-01	 1.134417e+01
0	 2.592593e+00	 5.185185e-01	 1.137267e+01
0	 2.592593e+00	 5.925926e-01	 1.139628e+01
0	 2.592593e+00	 6.666667e-01	 1.141722e+01
0	 2.592593e+00	 7.407407e-01	 1.143771e+01
0	 2.222222e+00	 7.407407e-01	 1.213812e+01
0	 2.222222e+00	 8.148148e-01	 1.217567e+01
0	 2.222222e+00	 8.888889e-01	 1.218757e+01
0	 2.222222e+00	 9.629630e-01	 1.217505e+01
0	 2.222222e+00	 1.037037e+00	 1.213932e+01
0	 2.222222e+00	 1.111111e+00	 1.208163e+01
0	 2.296296e+00	 7.407407e-01	 1.201756e+01
0	 2.296296e+00	 8.148148e-01	 1.207469e+01
0	 2.296296e+00	 8.888889e-01	 1.209987e+01
0	 2.296296e+00	 9.629630e-01	 1.209464e+01
0	 2.296296e+00	 1.037037e+00	 1.206055e+01
0	 2.296296e+00	 1.111111e+00	 1.199915e+01
0	 2.370370e+00	 7.407407e-01	 1.186778e+01
0	 2.370370e+00	 8.148148e-01	 1.192678e+01
0	 2.370370e+00	 8.888889e-01	 1.195712e+01
0	 2.370370e+00	 9.629630e-01	 1.196054e+01
0	 2.370370e+00	 1.037037e+00	 1.193878e+01
0	 2.370370e+00	 1.111111e+00	 1.189357e+01
0	 2.444444e+00	 7.407407e-01	 1.170824e+01
0	 2.444444e+00	 8.148148e-01	 1.175759e+01
0	 2.444444e+00	 8.888889e-01	 1.178728e+01
0	 2.444444e+00	 9.629630e-01	 1.179910e+01
0	 2.444444e+00	 1.037037e+00	 1.179485e+01
0	 2.444444e+00	 1.111111e+00	 1.177632e+01
0	 2.518519e+00	 7.407407e-01	 1.155839e+01
0	 2.518519e+00	 8.148148e-01	 1.159281e+01
0	 2.518519e+00	 8.888889e-01	 1.161832e+01
0	 2.518519e+00	 9.629630e-01	 1.163667e+01
0	 2.518519e+00	 1.037037e+00	 1.164959e+01
0	 2.518519e+00	 1.111111e+00	 1.165881e+01
0	 2.592593e+00	 7.407407e-01	 1.143771e+01
0	 2.592593e+00	 8.148148e-01	 1.145807e+01
0	 2.592593e+00	 8.888889e-01	 1.147820e+01
0	 2.592593e+00	 9.629630e-01	 1.149962e+01
0	 2.592593e+00	 1.037037e+00	 1.152386e+01
0	 2.592593e+00	 1.111111e+00	 1.155245e+01
0	 2.222222e+00	 1.111111e+00	 1.208163e+01
0	 2.222222e+00	 1.185185e+00	 1.201466e+01
0	 2.222222e+00	 1.259259e+00	 1.195038e+01
0	 2.222222e+00	 1.333333e+00	 1.188897e+01
0	 2.222222e+00	 1.407407e+00	 1.183057e+01
0	 2.222222e+00	 1.481481e+00	 1.177536e+01
0	 2.296296e+00	 1.111111e+00	 1.199915e+01
0	 2.296296e+00	 1.185185e+00	 1.192918e+01
0	 2.296296e+00	 1.259259e+00	 1.186779e+01
0	 2.296296e+00	 1.333333e+00	 1.181412e+01
0	 2.296296e+00	 1.407407e+00	 1.176730e+01
0	 2.296296e+00	 1.481481e+00	 1.172647e+01
0	 2.370370e+00	 1.111111e+00	 1.189357e+01
0	 2.370370e+00	 1.185185e+00	 1.184132e+01
0	 2.370370e+00	 1.259259e+00	 1.179629e+01
0	 2.370370e+00	 1.333333e+00	 1.175706e+01
0	 2.370370e+00	 1.407407e+00	 1.172220e+01
0	 2.370370e+00	 1.481481e+00	 1.169026e+01
0	 2.444444e+00	 1.111111e+00	 1.177632e+01
0	 2.444444e+00	 1.185185e+00	 1.175254e+01
0	 2.444444e+00	 1.259259e+00	 1.173030e+01
0	 2.444444e+00	 1.333333e+00	 1.170805e+01
0	 2.444444e+00	 1.407407e+00	 1.168424e+01
0	 2.444444e+00	 1.481481e+00	 1.165732e+01
0	 2.518519e+00	 1.111111e+00	 1.165881e+01
0	 2.518519e+00	 1.185185e+00	 1.166434e+01
0	 2.518519e+00	 1.259259e+00	 1.166426e+01
0	 2.518519e+00	 1.333333e+00	 1.165736e+01
0	 2.518519e+00	 1.407407e+00	 1.164242e+01
0	 2.518519e+00	 1.481481e+00	 1.161822e+01
0	 2.592593e+00	 1.111111e+00	 1.155245e+01
0	 2.592593e+00	 1.185185e+00	 1.157820e+01
0	 2.592593e+00	 1.259259e+00	 1.159260e+01
0	 2.592593e+00	 1.333333e+00	 1.159525e+01
0	 2.592593e+00	 1.407407e+00	 1.158571e+01
0	 2.592593e+00	 1.481481e+00	 1.156357e+01
0	 2.222222e+00	 1.481481e+00	 1.177536e+01
0	 2.222222e+00	 1.555556e+00	 1.172135e+01
0	 2.222222e+00	 1.629630e+00	 1.166540e+01
0	 2.222222e+00	 1.703704e+00	 1.160593e+01
0	 2.222222e+00	 1.777778e+00	 1.154135e+01
0	 2.222222e+00	 1.851852e+00	 1.147010e+01
0	 2.296296e+00	 1.481481e+00	 1.172647e+01
0	 2.296296e+00	 1.555556e+00	 1.168508e+01
0	 2.296296e+00	 1.629630e+00	 1.163726e+01
0	 2.296296e+00	 1.703704e+00	 1.158318e+01
0	 2.296296e+00	 1.777778e+00	 1.152300e+01
0	 2.296296e+00	 1.851852e+00	 1.145689e+01
0	 2.370370e+00	 1.481481e+00	 1.169026e+01
0	 2.370370e+00	 1.555556e+00	 1.165471e+01
0	 2.370370e+00	 1.629630e+00	 1.161078e+01
0	 2.370370e+00	 1.703704e+00	 1.155975e+01
0	 2.370370e+00	 1.777778e+00	 1.150287e+01
0	 2.370370e+00	 1.851852e+00	 1.144141e+01
0	 2.444444e+00	 1.481481e+00	 1.165732e+01
0	 2.444444e+00	 1.555556e+00	 1.162360e+01
0	 2.444444e+00	 1.629630e+00	 1.158160e+01
0	 2.444444e+00	 1.703704e+00	 1.153301e+01
0	 2.444444e+00	 1.777778e+00	 1.147955e+01
0	 2.444444e+00	 1.851852e+00	 1.142293e+01
0	 2.518519e+00	 1.481481e+00	 1.161822e+01
0	 2.518519e+00	 1.555556e+00	 1.158514e+01
0	 2.518519e+00	 1.629630e+00	 1.154533e+01
0	 2.518519e+00	 1.703704e+00	 1.150032e+01
0	 2.518519e+00	 1.777778e+00	 1.145161e+01
0	 2.518519e+00	 1.851852e+00	 1.140073e+01
0	 2.592593e+00	 1.481481e+00	 1.156357e+01
0	 2.592593e+00	 1.555556e+00	 1.153268e+01
0	 2.592593e+00	 1.629630e+00	 1.149762e+01
0	 2.592593e+00	 1.703704e+00	 1.145905e+01
0	 2.592593e+00	 1.777778e+00	 1.141764e+01
0	 2.592593e+00	 1.851852e+00	 1.137407e+01
0	 2.222222e+00	 1.851852e+00	 1.147010e+01
0	 2.222222e+00	 1.925926e+00	 1.139491e+01
0	 2.222222e+00	 2.000000e+00	 1.131951e+01
0	 2.222222e+00	 2.074074e+00	 1.124374e+01
0	 2.222222e+00	 2.148148e+00	 1.116745e+01
0	 2.222222e+00	 2.222222e+00	 1.109051e+01
0	 2.296296e+00	 1.851852e+00	 1.145689e+01
0	 2.296296e+00	 1.925926e+00	 1.138872e+01
0	 2.296296e+00	 2.000000e+00	 1.132156e+01
0	 2.296296e+00	 2.074074e+00	 1.125437e+01
0	 2.296296e+00	 2.148148e+00	 1.118610e+01
0	 2.296296e+00	 2.222222e+00	 1.111571e+01
0	 2.370370e+00	 1.851852e+00	 1.144141e+01
0	 2.370370e+00	 1.925926e+00	 1.137940e+01
0	 2.370370e+00	 2.000000e+00	 1.131900e+01
0	 2.370370e+00	 2.074074e+00	 1.125862e+01
0	 2.370370e+00	 2.148148e+00	 1.119670e+01
0	 2.370370e+00	 2.222222e+00	 1.113165e+01
0	 2.444444e+00	 1.851852e+00	 1.142293e+01
0	 2.444444e+00	 1.925926e+00	 1.136665e+01
0	 2.444444e+00	 2.000000e+00	 1.131191e+01
0	 2.444444e+00	 2.074074e+00	 1.125697e+01
0	 2.444444e+00	 2.148148e+00	 1.120008e+01
0	 2.444444e+00	 2.222222e+00	 1.113949e+01
0	 2.518519e+00	 1.851852e+00	 1.140073e+01
0	 2.518519e+00	 1.925926e+00	 1.135016e+01
0	 2.518519e+00	 2.000000e+00	 1.130039e+01
0	 2.518519e+00	 2.074074e+00	 1.124986e+01
0	 2.518519e+00	 2.148148e+00	 1.119704e+01
0	 2.518519e+00	 2.222222e+00	 1.114040e+01
0	 2.592593e+00	 1.851852e+00	 1.137407e+01
0	 2.592593e+00	 1.925926e+00	 1.132962e+01
0	 2.592593e+00	 2.000000e+00	 1.128451e+01
0	 2.592593e+00	 2.074074e+00	 1.123777e+01
0	 2.592593e+00	 2.148148e+00	 1.118843e+01
0	 2.592593e+00	 2.222222e+00	 1.113551e+01
0	 2.222222e+00	 2.222222e+00	 1.109051e+01
0	 2.222222e+00	 2.296296e+00	 1.101510e+01
0	 2.222222e+00	 2.370370e+00	 1.094310e+01
0	 2.222222e+00	 2.444444e+00	 1.087390e+01
0	 2.222222e+00	 2.518519e+00	 1.080690e+01
0	 2.222222e+00	 2.592593e+00	 1.074147e+01
0	 2.296296e+00	 2.222222e+00	 1.111571e+01
0	 2.296296e+00	 2.296296e+00	 1.104500e+01
0	 2.296296e+00	 2.370370e+00	 1.097635e+01
0	 2.296296e+00	 2.444444e+00	 1.090956e+01
0	 2.296296e+00	 2.518519e+00	 1.084445e+01
0	 2.296296e+00	 2.592593e+00	 1.078082e+01
0	 2.370370e+00	 2.222222e+00	 1.113165e+01
0	 2.370370e+00	 2.296296e+00	 1.106515e+01
0	 2.370370e+00	 2.370370e+00	 1.099997e+01
0	 2.370370e+00	 2.444444e+00	 1.093620e+01
0	 2.370370e+00	 2.518519e+00	 1.087389e+01
0	 2.370370e+00	 2.592593e+00	 1.081312e+01
0	 2.444444e+00	 2.222222e+00	 1.113949e+01
0	 2.444444e+00	 2.296296e+00	 1.107696e+01
0	 2.444444e+00	 2.370370e+00	 1.101550e+01
0	 2.444444e+00	 2.444444e+00	 1.095528e+01
0	 2.444444e+00	 2.518519e+00	 1.089648e+01
0	 2.444444e+00	 2.592593e+00	 1.083928e+01
0	 2.518519e+00	 2.222222e+00	 1.114040e+01
0	 2.518519e+00	 2.296296e+00	 1.108184e+01
0	 2.518519e+00	 2.370370e+00	 1.102443e+01
0	 2.518519e+00	 2.444444e+00	 1.096827e+01
0	 2.518519e+00	 2.518519e+00	 1.091350e+01
0	 2.518519e+00	 2.592593e+00	 1.086023e+01
0	 2.592593e+00	 2.222222e+00	 1.113551e+01
0	 2.592593e+00	 2.296296e+00	 1.108120e+01
0	 2.592593e+00	 2.370370e+00	 1.102827e+01
0	 2.592593e+00	 2.444444e+00	 1.097664e+01
0	 2.592593e+00	 2.518519e+00	 1.092621e+01
0	 2.592593e+00	 2.592593e+00	 1.087691e+01
0	 2.222222e+00	 2.592593e+00	 1.074147e+01
0	 2.222222e+00	 2.666667e+00	 1.067838e+01
0	 2.222222e+00	 2.740741e+00	 1.061875e+01
0	 2.222222e+00	 2.814815e+00	 1.056250e+01
0	 2.222222e+00	 2.888889e+00	 1.050957e+01
0	 2.222222e+00	 2.962963e+00	 1.045989e+01
0	 2.296296e+00	 2.592593e+00	 1.078082e+01
0	 2.296296e+00	 2.666667e+00	 1.071978e+01
0	 2.296296e+00	 2.740741e+00	 1.066235e+01
0	 2.296296e+00	 2.814815e+00	 1.060821e+01
0	 2.296296e+00	 2.888889e+00	 1.055706e+01
0	 2.296296e+00	 2.962963e+00	 1.050859e+01
0	 2.370370e+00	 2.592593e+00	 1.081312e+01
0	 2.370370e+00	 2.666667e+00	 1.075497e+01
0	 2.370370e+00	 2.740741e+00	 1.070015e+01
0	 2.370370e+00	 2.814815e+00	 1.064822e+01
0	 2.370370e+00	 2.888889e+00	 1.059872e+01
0	 2.370370e+00	 2.962963e+00	 1.055118e+01
0	 2.444444e+00	 2.592593e+00	 1.083928e+01
0	 2.444444e+00	 2.666667e+00	 1.078450e+01
0	 2.444444e+00	 2.740741e+00	 1.073250e+01
0	 2.444444e+00	 2.814815e+00	 1.068278e+01
0	 2.444444e+00	 2.888889e+00	 1.063481e+01
0	 2.444444e+00	 2.962963e+00	 1.058810e+01
0	 2.518519e+00	 2.592593e+00	 1.086023e+01
0	 2.518519e+00	 2.666667e+00	 1.080896e+01
0	 2.518519e+00	 2.740741e+00	 1.075974e+01
0	 2.518519e+00	 2.814815e+00	 1.071212e+01
0	 2.518519e+00	 2.888889e+00	 1.066562e+01
0	 2.518519e+00	 2.962963e+00	 1.061977e+01
0	 2.592593e+00	 2.592593e+00	 1.087691e+01
0	 2.592593e+00	 2.666667e+00	 1.082891e+01
0	 2.592593e+00	 2.740741e+00	 1.078223e+01
0	 2.592593e+00	 2.814815e+00	 1.073652e+01
0	 2.592593e+00	 2.888889e+00	 1.069144e+01
0	 2.592593e+00	 2.962963e+00	 1.064665e+01
0	 2.222222e+00	 2.962963e+00	 1.045989e+01
0	 2.222222e+00	 3.037037e+00	 1.041320e+01
0	 2.222222e+00	 3.111111e+00	 1.036924e+01
0	 2.222222e+00	 3.185185e+00	 1.032791e+01
0	 2.222222e+00	 3.259259e+00	 1.028911e+01
0	 2.222222e+00	 3.333333e+00	 1.025274e+01
0	 2.296296e+00	 2.962963e+00	 1.050859e+01
0	 2.296296e+00	 3.037037e+00	 1.046247e+01
0	 2.296296e+00	 3.111111e+00	 1.041861e+01
0	 2.296296e+00	 3.185185e+00	 1.037701e+01
0	 2.296296e+00	 3.259259e+00	 1.033768e+01
0	 2.296296e+00	 3.333333e+00	 1.030062e+01
0	 2.370370e+00	 2.962963e+00	 1.055118e+01
0	 2.370370e+00	 3.037037e+00	 1.050548e+01
0	 2.370370e+00	 3.111111e+00	 1.046183e+01
0	 2.370370e+00	 3.185185e+00	 1.042031e+01
0	 2.370370e+00	 3.259259e+00	 1.038099e+01
0	 2.370370e+00	 3.333333e+00	 1.034392e+01
0	 2.444444e+00	 2.962963e+00	 1.058810e+01
0	 2.444444e+00	 3.037037e+00	 1.054283e+01
0	 2.444444e+00	 3.111111e+00	 1.049961e+01
0	 2.444444e+00	 3.185185e+00	 1.045852e+01
0	 2.444444e+00	 3.259259e+00	 1.041964e+01
0	 2.444444e+00	 3.333333e+00	 1.038306e+01
0	 2.518519e+00	 2.962963e+00	 1.061977e+01
0	 2.518519e+00	 3.037037e+00	 1.057514e+01
0	 2.518519e+00	 3.111111e+00	 1.053264e+01
0	 2.518519e+00	 3.185185e+00	 1.049232e+01
0	 2.518519e+00	 3.259259e+00	 1.045424e+01
0	 2.518519e+00	 3.333333e+00	 1.041843e+01
0	 2.592593e+00	 2.962963e+00	 1.064665e+01
0	 2.592593e+00	 3.037037e+00	 1.060302e+01
0	 2.592593e+00	 3.111111e+00	 1.056162e+01
0	 2.592593e+00	 3.185185e+00	 1.052241e+01
0	 2.592593e+00	 3.259259e+00	 1.048537e+01
0	 2.592593e+00	 3.333333e+00	 1.045046e+01
0	 2.222222e+00	 3.333333e+00	 1.025274e+01
0	 2.222222e+00	 3.407407e+00	 1.021873e+01
0	 2.222222e+00	 3.481481e+00	 1.018709e+01
0	 2.222222e+00	 3.555556e+00	 1.015784e+01
0	 2.222222e+00	 3.629630e+00	 1.013100e+01
0	 2.222222e+00	 3.703704e+00	 1.010660e+01
0	 2.296296e+00	 3.333333e+00	 1.030062e+01
0	 2.296296e+00	 3.407407e+00	 1.026595e+01
0	 2.296296e+00	 3.481481e+00	 1.023373e+01
0	 2.296296e+00	 3.555556e+00	 1.020390e+01
0	 2.296296e+00	 3.629630e+00	 1.017642e+01
0	 2.296296e+00	 3.703704e+00	 1.015122e+01
0	 2.370370e+00	 3.333333e+00	 1.034392e+01
0	 2.370370e+00	 3.407407e+00	 1.030922e+01
0	 2.370370e+00	 3.481481e+00	 1.027685e+01
0	 2.370370e+00	 3.555556e+00	 1.024672e+01
0	 2.370370e+00	 3.629630e+00	 1.021874e+01
0	 2.370370e+00	 3.703704e+00	 1.019279e+01
0	 2.444444e+00	 3.333333e+00	 1.038306e+01
0	 2.444444e+00	 3.407407e+00	 1.034874e+01
0	 2.444444e+00	 3.481481e+00	 1.031653e+01
0	 2.444444e+00	 3.555556e+00	 1.028630e+01
0	 2.444444e+00	 3.629630e+00	 1.025794e+01
0	 2.444444e+00	 3.703704e+00	 1.023133e+01
0	 2.518519e+00	 3.333333e+00	 1.041843e+01
0	 2.518519e+00	 3.407407e+00	 1.038472e+01
0	 2.518519e+00	 3.481481e+00	 1.035283e+01
0	 2.518519e+00	 3.555556e+00	 1.032262e+01
0	 2.518519e+00	 3.629630e+00	 1.029401e+01
0	 2.518519e+00	 3.703704e+00	 1.026687e+01
0	 2.592593e+00	 3.333333e+00	 1.045046e+01
0	 2.592593e+00	 3.407407e+00	 1.041738e+01
0	 2.592593e+00	 3.481481e+00	 1.038582e+01
0	 2.592593e+00	 3.555556e+00	 1.035569e+01
0	 2.592593e+00	 3.629630e+00	 1.032692e+01
0	 2.592593e+00	 3.703704e+00	 1.029945e+01
0	 2.222222e+00	 3.703704e+00	 1.010660e+01
0	 2.222222e+00	 3.777778e+00	 1.008418e+01
0	 2.222222e+00	 3.851852e+00	 1.006330e+01
0	 2.222222e+00	 3.925926e+00	 1.004399e+01
0	 2.222222e+00	 4.000000e+00	 1.002628e+01
0	 2.222222e+00	 4.074074e+00	 1.001021e+01
0	 2.296296e+00	 3.703704e+00	 1.015122e+01
0	 2.296296e+00	 3.777778e+00	 1.012786e+01
0	 2.296296e+00	 3.851852e+00	 1.010595e+01
0	 2.296296e+00	 3.925926e+00	 1.008553e+01
0	 2.296296e+00	 4.000000e+00	 1.006667e+01
0	 2.296296e+00	 4.074074e+00	 1.004941e+01
0	 2.370370e+00	 3.703704e+00	 1.019279e+01
0	 2.370370e+00	 3.777778e+00	 1.016853e+01
0	 2.370370e+00	 3.851852e+00	 1.014569e+01
0	 2.370370e+00	 3.925926e+00	 1.012435e+01
0	 2.370370e+00	 4.000000e+00	 1.010456e+01
0	 2.370370e+00	 4.074074e+00	 1.008640e+01
0	 2.444444e+00	 3.703704e+00	 1.023133e+01
0	 2.444444e+00	 3.777778e+00	 1.020627e+01
0	 2.444444e+00	 3.851852e+00	 1.018267e+01
0	 2.444444e+00	 3.925926e+00	 1.016059e+01
0	 2.444444e+00	 4.000000e+00	 1.014009e+01
0	 2.444444e+00	 4.074074e+00	 1.012124e+01
0	 2.518519e+00	 3.703704e+00	 1.026687e+01
0	 2.518519e+00	 3.777778e+00	 1.024118e+01
0	 2.518519e+00	 3.851852e+00	 1.021700e+01
0	 2.518519e+00	 3.925926e+00	 1.019439e+01
0	 2.518519e+00	 4.000000e+00	 1.017337e+01
0	 2.518519e+00	 4.074074e+00	 1.015400e+01
0	 2.592593e+00	 3.703704e+00	 1.029945e+01
0	 2.592593e+00	 3.777778e+00	 1.027336e+01
0	 2.592593e+00	 3.851852e+00	 1.024884e+01
0	 2.592593e+00	 3.925926e+00	 1.022588e+01
0	 2.592593e+00	 4.000000e+00	 1.020452e+01
0	 2.592593e+00	 4.074074e+00	 1.018474e+01
0	 2.222222e+00	 4.074074e+00	 1.001021e+01
0	 2.222222e+00	 4.148148e+00	 9.995557e+00
0	 2.222222e+00	 4.222222e+00	 9.982110e+00
0	 2.222222e+00	 4.296296e+00	 9.969894e+00
0	 2.222222e+00	 4.370370e+00	 9.958935e+00
0	 2.222222e+00	 4.444444e+00	 9.949257e+00
0	 2.296296e+00	 4.074074e+00	 1.004941e+01
0	 2.296296e+00	 4.148148e+00	 1.003359e+01
0	 2.296296e+00	 4.222222e+00	 1.001903e+01
0	 2.296296e+00	 4.296296e+00	 1.000572e+01
0	 2.296296e+00	 4.370370e+00	 9.993681e+00
0	 2.296296e+00	 4.444444e+00	 9.982912e+00
0	 2.370370e+00	 4.074074e+00	 1.008640e+01
0	 2.370370e+00	 4.148148e+00	 1.006968e+01
0	 2.370370e+00	 4.222222e+00	 1.005421e+01
0	 2.370370e+00	 4.296296e+00	 1.003997e+01
0	 2.370370e+00	 4.370370e+00	 1.002696e+01
0	 2.370370e+00	 4.444444e+00	 1.001518e+01
0	 2.444444e+00	 4.074074e+00	 1.012124e+01
0	 2.444444e+00	 4.148148e+00	 1.010383e+01
0	 2.444444e+00	 4.222222e+00	 1.008760e+01
0	 2.444444e+00	 4.296296e+00	 1.007256e+01
0	 2.444444e+00	 4.370370e+00	 1.005869e+01
0	 2.444444e+00	 4.444444e+00	 1.004599e+01
0	 2.518519e+00	 4.074074e+00	 1.015400e+01
0	 2.518519e+00	 4.148148e+00	 1.013603e+01
0	 2.518519e+00	 4.222222e+00	 1.011918e+01
0	 2.518519e+00	 4.296296e+00	 1.010344e+01
0	 2.518519e+00	 4.370370e+00	 1.008881e+01
0	 2.518519e+00	 4.444444e+00	 1.007528e+01
0	 2.592593e+00	 4.074074e+00	 1.018474e+01
0	 2.592593e+00	 4.148148e+00	 1.016629e+01
0	 2.592593e+00	 4.222222e+00	 1.014889e+01
0	 2.592593e+00	 4.296296e+00	 1.013254e+01
0	 2.592593e+00	 4.370370e+00	 1.011724e+01
0	 2.592593e+00	 4.444444e+00	 1.010300e+01
0	 2.222222e+00	 4.444444e+00	 9.949257e+00
0	 2.222222e+00	 4.518519e+00	 9.940606e+00
0	 2.222222e+00	 4.592593e+00	 9.932730e+00
0	 2.222222e+00	 4.666667e+00	 9.925665e+00
0	 2.222222e+00	 4.740741e+00	 9.919447e+00
0	 2.222222e+00	 4.814815e+00	 9.914110e+00
0	 2.296296e+00	 4.444444e+00	 9.982912e+00
0	 2.296296e+00	 4.518519e+00	 9.973163e+00
0	 2.296296e+00	 4.592593e+00	 9.964201e+00
0	 2.296296e+00	 4.666667e+00	 9.956063e+00
0	 2.296296e+00	 4.740741e+00	 9.948787e+00
0	 2.296296e+00	 4.814815e+00	 9.942412e+00
0	 2.370370e+00	 4.444444e+00	 1.001518e+01
0	 2.370370e+00	 4.518519e+00	 1.000440e+01
0	 2.370370e+00	 4.592593e+00	 9.994434e+00
0	 2.370370e+00	 4.666667e+00	 9.985314e+00
0	 2.370370e+00	 4.740741e+00	 9.977078e+00
0	 2.370370e+00	 4.814815e+00	 9.969766e+00
0	 2.444444e+00	 4.444444e+00	 1.004599e+01
0	 2.444444e+00	 4.518519e+00	 1.003427e+01
0	 2.444444e+00	 4.592593e+00	 1.002339e+01
0	 2.444444e+00	 4.666667e+00	 1.001339e+01
0	 2.444444e+00	 4.740741e+00	 1.000429e+01
0	 2.444444e+00	 4.814815e+00	 9.996127e+00
0	 2.518519e+00	 4.444444e+00	 1.007528e+01
0	 2.518519e+00	 4.518519e+00	 1.006273e+01
0	 2.518519e+00	 4.592593e+00	 1.005104e+01
0	 2.518519e+00	 4.666667e+00	 1.004025e+01
0	 2.518519e+00	 4.740741e+00	 1.003037e+01
0	 2.518519e+00	 4.814815e+00	 1.002145e+01
0	 2.592593e+00	 4.444444e+00	 1.010300e+01
0	 2.592593e+00	 4.518519e+00	 1.008973e+01
0	 2.592593e+00	 4.592593e+00	 1.007734e+01
0	 2.592593e+00	 4.666667e+00	 1.006586e+01
0	 2.592593e+00	 4.740741e+00	 1.005531e+01
0	 2.592593e+00	 4.814815e+00	 1.004570e+01
0	 2.222222e+00	 4.814815e+00	 9.914110e+00
0	 2.222222e+00	 4.888889e+00	 9.909495e+00
0	 2.222222e+00	 4.962963e+00	 9.905429e+00
0	 2.222222e+00	 5.037037e+00	 9.901930e+00
0	 2.222222e+00	 5.111111e+00	 9.899016e+00
0	 2.222222e+00	 5.185185e+00	 9.896706e+00
0	 2.296296e+00	 4.814815e+00	 9.942412e+00
0	 2.296296e+00	 4.888889e+00	 9.936785e+00
0	 2.296296e+00	 4.962963e+00	 9.931738e+00
0	 2.296296e+00	 5.037037e+00	 9.927286e+00
0	 2.296296e+00	 5.111111e+00	 9.923443e+00
0	 2.296296e+00	 5.185185e+00	 9.920227e+00
0	 2.370370e+00	 4.814815e+00	 9.969766e+00
0	 2.370370e+00	 4.888889e+00	 9.963221e+00
0	 2.370370e+00	 4.962963e+00	 9.957275e+00
0	 2.370370e+00	 5.037037e+00	 9.951940e+00
0	 2.370370e+00	 5.111111e+00	 9.947230e+00
0	 2.370370e+00	 5.185185e+00	 9.943159e+00
0	 2.444444e+00	 4.814815e+00	 9.996127e+00
0	 2.444444e+00	 4.888889e+00	 9.988749e+00
0	 2.444444e+00	 4.962963e+00	 9.981977e+00
0	 2.444444e+00	 5.037037e+00	 9.975826e+00
0	 2.444444e+00	 5.111111e+00	 9.970308e+00
0	 2.444444e+00	 5.185185e+00	 9.965436e+00
0	 2.518519e+00	 4.814815e+00	 1.002145e+01
0	 2.518519e+00	 4.888889e+00	 1.001331e+01
0	 2.518519e+00	 4.962963e+00	 1.000578e+01
0	 2.518519e+00	 5.037037e+00	 9.998879e+00
0	 2.518519e+00	 5.111111e+00	 9.992611e+00
0	 2.518519e+00	 5.185185e+00	 9.986994e+00
0	 2.592593e+00	 4.814815e+00	 1.004570e+01
0	 2.592593e+00	 4.888889e+00	 1.003686e+01
0	 2.592593e+00	 4.962963e+00	 1.002863e+01
0	 2.592593e+00	 5.037037e+00	 1.002103e+01
0	 2.592593e+00	 5.111111e+00	 1.001407e+01
0	 2.592593e+00	 5.185185e+00	 1.000777e+01
0	 2.222222e+00	 5.185185e+00	 9.896706e+00
0	 2.222222e+00	 5.259259e+00	 9.894876e+00
0	 2.222222e+00	 5.333333e+00	 9.893405e+00
0	 2.222222e+00	 5.407407e+00	 9.892314e+00
0	 2.222222e+00	 5.481481e+00	 9.891625e+00
0	 2.222222e+00	 5.555556e+00	 9.891360e+00
0	 2.296296e+00	 5.185185e+00	 9.920227e+00
0	 2.296296e+00	 5.259259e+00	 9.917513e+00
0	 2.296296e+00	 5.333333e+00	 9.915185e+00
0	 2.296296e+00	 5.407407e+00	 9.913262e+00
0	 2.296296e+00	 5.481481e+00	 9.911766e+00
0	 2.296296e+00	 5.555556e+00	 9.910718e+00
0	 2.370370e+00	 5.185185e+00	 9.943159e+00
0	 2.370370e+00	 5.259259e+00	 9.939609e+00
0	 2.370370e+00	 5.333333e+00	 9.936468e+00
0	 2.370370e+00	 5.407407e+00	 9.933756e+00
0	 2.370370e+00	 5.481481e+00	 9.931493e+00
0	 2.370370e+00	 5.555556e+00	 9.929699e+00
0	 2.444444e+00	 5.185185e+00	 9.965436e+00
0	 2.444444e+00	 5.259259e+00	 9.961101e+00
0	 2.444444e+00	 5.333333e+00	 9.957196e+00
0	 2.444444e+00	 5.407407e+00	 9.953739e+00
0	 2.444444e+00	 5.481481e+00	 9.950751e+00
0	 2.444444e+00	 5.555556e+00	 9.948248e+00
0	 2.518519e+00	 5.185185e+00	 9.986994e+00
0	 2.518519e+00	 5.259259e+00	 9.981926e+00
0	 2.518519e+00	 5.333333e+00	 9.977307e+00
0	 2.518519e+00	 5.407407e+00	 9.973153e+00
0	 2.518519e+00	 5.481481e+00	 9.969482e+00
0	 2.518519e+00	 5.555556e+00	 9.966311e+00
0	 2.592593e+00	 5.185185e+00	 1.000777e+01
0	 2.592593e+00	 5.259259e+00	 1.000202e+01
0	 2.592593e+00	 5.333333e+00	 9.996741e+00
0	 2.592593e+00	 5.407407e+00	 9.991939e+00
0	 2.592593e+00	 5.481481e+00	 9.987631e+00
0	 2.592593e+00	 5.555556e+00	 9.983831e+00
0	 2.222222e+00	 5.555556e+00	 9.891360e+00
0	 2.222222e+00	 5.629630e+00	 9.891424e+00
0	 2.222222e+00	 5.703704e+00	 9.891718e+00
0	 2.222222e+00	 5.777778e+00	 9.892253e+00
0	 2.222222e+00	 5.851852e+00	 9.893041e+00
0	 2.222222e+00	 5.925926e+00	 9.894095e+00
0	 2.296296e+00	 5.555556e+00	 9.910718e+00
0	 2.296296e+00	 5.629630e+00	 9.910023e+00
0	 2.296296e+00	 5.703704e+00	 9.909580e+00
0	 2.296296e+00	 5.777778e+00	 9.909401e+00
0	 2.296296e+00	 5.851852e+00	 9.909498e+00
0	 2.296296e+00	 5.925926e+00	 9.909883e+00
0	 2.370370e+00	 5.555556e+00	 9.929699e+00
0	 2.370370e+00	 5.629630e+00	 9.928279e+00
0	 2.370370e+00	 5.703704e+00	 9.927130e+00
0	 2.370370e+00	 5.777778e+00	 9.926267e+00
0	 2.370370e+00	 5.851852e+00	 9.925700e+00
0	 2.370370e+00	 5.925926e+00	 9.925443e+00
0	 2.444444e+00	 5.555556e+00	 9.948248e+00
0	 2.444444e+00	 5.629630e+00	 9.946137e+00
0	 2.444444e+00	 5.703704e+00	 9.944316e+00
0	 2.444444e+00	 5.777778e+00	 9.942799e+00
0	 2.444444e+00	 5.851852e+00	 9.941598e+00
0	 2.444444e+00	 5.925926e+00	 9.940724e+00
0	 2.518519e+00	 5.555556e+00	 9.966311e+00
0	 2.518519e+00	 5.629630e+00	 9.963544e+00
0	 2.518519e+00	 5.703704e+00	 9.961085e+00
0	 2.518519e+00	 5.777778e+00	 9.958946e+00
0	 2.518519e+00	 5.851852e+00	 9.957139e+00
0	 2.518519e+00	 5.925926e+00	 9.955678e+00
0	 2.592593e+00	 5.555556e+00	 9.983831e+00
0	 2.592593e+00	 5.629630e+00	 9.980446e+00
0	 2.592593e+00	 5.703704e+00	 9.977383e+00
0	 2.592593e+00	 5.777778e+00	 9.974655e+00
0	 2.592593e+00	 5.851852e+00	 9.972274e+00
0	 2.592593e+00	 5.925926e+00	 9.970252e+00
0	 2.222222e+00	 5.925926e+00	 9.894095e+00
0	 2.222222e+00	 6.000000e+00	 9.895353e+00
0	 2.222222e+00	 6.074074e+00	 9.896756e+00
0	 2.222222e+00	 6.148148e+00	 9.898315e+00
0	 2.222222e+00	 6.222222e+00	 9.900042e+00
0	 2.222222e+00	 6.296296e+00	 9.901949e+00
0	 2.296296e+00	 5.925926e+00	 9.909883e+00
0	 2.296296e+00	 6.000000e+00	 9.910495e+00
0	 2.296296e+00	 6.074074e+00	 9.911272e+00
0	 2.296296e+00	 6.148148e+00	 9.912227e+00
0	 2.296296e+00	 6.222222e+00	 9.913369e+00
0	 2.296296e+00	 6.296296e+00	 9.914712e+00
0	 2.370370e+00	 5.925926e+00	 9.925443e+00
0	 2.370370e+00	 6.000000e+00	 9.925432e+00
0	 2.370370e+00	 6.074074e+00	 9.925606e+00
0	 2.370370e+00	 6.148148e+00	 9.925974e+00
0	 2.370370e+00	 6.222222e+00	 9.926549e+00
0	 2.370370e+00	 6.296296e+00	 9.927340e+00
0	 2.444444e+00	 5.925926e+00	 9.940724e+00
0	 2.444444e+00	 6.000000e+00	 9.940116e+00
0	 2.444444e+00	 6.074074e+00	 9.939708e+00
0	 2.444444e+00	 6.148148e+00	 9.939511e+00
0	 2.444444e+00	 6.222222e+00	 9.939535e+00
0	 2.444444e+00	 6.296296e+00	 9.939792e+00
0	 2.518519e+00	 5.925926e+00	 9.955678e+00
0	 2.518519e+00	 6.000000e+00	 9.954497e+00
0	 2.518519e+00	 6.074074e+00	 9.953531e+00
0	 2.518519e+00	 6.148148e+00	 9.952790e+00
0	 2.518519e+00	 6.222222e+00	 9.952284e+00
0	 2.518519e+00	 6.296296e+00	 9.952024e+00
0	 2.592593e+00	 5.925926e+00	 9.970252e+00
0	 2.592593e+00	 6.000000e+00	 9.968525e+00
0	 2.592593e+00	 6.074074e+00	 9.967026e+00
0	 2.592593e+00	 6.148148e+00	 9.965765e+00
0	 2.592593e+00	 6.222222e+00	 9.964751e+00
0	 2.592593e+00	 6.296296e+00	 9.963995e+00
0	 2.222222e+00	 6.296296e+00	 9.901949e+00
0	 2.222222e+00	 6.370370e+00	 9.903986e+00
0	 2.222222e+00	 6.444444e+00	 9.906099e+00
0	 2.222222e+00	 6.518519e+00	 9.908298e+00
0	 2.222222e+00	 6.592593e+00	 9.910589e+00
0	 2.222222e+00	 6.666667e+00	 9.912979e+00
0	 2.296296e+00	 6.296296e+00	 9.914712e+00
0	 2.296296e+00	 6.370370e+00	 9.916202e+00
0	 2.296296e+00	 6.444444e+00	 9.917785e+00
0	 2.296296e+00	 6.518519e+00	 9.919470e+00
0	 2.296296e+00	 6.592593e+00	 9.921264e+00
0	 2.296296e+00	 6.666667e+00	 9.923175e+00
0	 2.370370e+00	 6.296296e+00	 9.927340e+00
0	 2.370370e+00	 6.370370e+00	 9.928296e+00
0	 2.370370e+00	 6.444444e+00	 9.929361e+00
0	 2.370370e+00	 6.518519e+00	 9.930544e+00
0	 2.370370e+00	 6.592593e+00	 9.931852e+00
0	 2.370370e+00	 6.666667e+00	 9.933296e+00
0	 2.444444e+00	 6.296296e+00	 9.939792e+00
0	 2.444444e+00	 6.370370e+00	 9.940228e+00
0	 2.444444e+00	 6.444444e+00	 9.940789e+00
0	 2.444444e+00	 6.518519e+00	 9.941483e+00
0	 2.444444e+00	 6.592593e+00	 9.942319e+00
0	 2.444444e+00	 6.666667e+00	 9.943306e+00
0	 2.518519e+00	 6.296296e+00	 9.952024e+00
0	 2.518519e+00	 6.370370e+00	 9.951957e+00
0	 2.518519e+00	 6.444444e+00	 9.952030e+00
0	 2.518519e+00	 6.518519e+00	 9.952251e+00
0	 2.518519e+00	 6.592593e+00	 9.952628e+00
0	 2.518519e+00	 6.666667e+00	 9.953171e+00
0	 2.592593e+00	 6.296296e+00	 9.963995e+00
0	 2.592593e+00	 6.370370e+00	 9.963444e+00
0	 2.592593e+00	 6.444444e+00	 9.963047e+00
0	 2.592593e+00	 6.518519e+00	 9.962811e+00
0	 2.592593e+00	 6.592593e+00	 9.962746e+00
0	 2.592593e+00	 6.666667e+00	 9.962858e+00
0	 2.222222e+00	 6.666667e+00	 9.912979e+00
0	 2.222222e+00	 6.740741e+00	 9.915438e+00
0	 2.222222e+00	 6.814815e+00	 9.917932e+00
0	 2.222222e+00	 6.888889e+00	 9.920468e+00
0	 2.222222e+00	 6.962963e+00	 9.923053e+00
0	 2.222222e+00	 7.037037e+00	 9.925694e+00
0	 2.296296e+00	 6.666667e+00	 9.923175e+00
0	 2.296296e+00	 6.740741e+00	 9.925171e+00
0	 2.296296e+00	 6.814815e+00	 9.927216e+00
0	 2.296296e+00	 6.888889e+00	 9.929318e+00
0	 2.296296e+00	 6.962963e+00	 9.931484e+00
0	 2.296296e+00	 7.037037e+00	 9.933720e+00
0	 2.370370e+00	 6.666667e+00	 9.933296e+00
0	 2.370370e+00	 6.740741e+00	 9.934838e+00
0	 2.370370e+00	 6.814815e+00	 9.936444e+00
0	 2.370370e+00	 6.888889e+00	 9.938119e+00
0	 2.370370e+00	 6.962963e+00	 9.939872e+00
0	 2.370370e+00	 7.037037e+00	 9.941708e+00
0	 2.444444e+00	 6.666667e+00	 9.943306e+00
0	 2.444444e+00	 6.740741e+00	 9.944406e+00
0	 2.444444e+00	 6.814815e+00	 9.945581e+00
0	 2.444444e+00	 6.888889e+00	 9.946839e+00
0	 2.444444e+00	 6.962963e+00	 9.948186e+00
0	 2.444444e+00	 7.037037e+00	 9.949628e+00
0	 2.518519e+00	 6.666667e+00	 9.953171e+00
0	 2.518519e+00	 6.740741e+00	 9.953841e+00
0	 2.518519e+00	 6.814815e+00	 9.954597e+00
0	 2.518519e+00	 6.888889e+00	 9.955447e+00
0	 2.518519e+00	 6.962963e+00	 9.956397e+00
0	 2.518519e+00	 7.037037e+00	 9.957455e+00
0	 2.592593e+00	 6.666667e+00	 9.962858e+00
0	 2.592593e+00	 6.740741e+00	 9.963110e+00
0	 2.592593e+00	 6.814815e+00	 9.963459e+00
0	 2.592593e+00	 6.888889e+00	 9.963912e+00
0	 2.592593e+00	 6.962963e+00	 9.964476e+00
0	 2.592593e+00	 7.037037e+00	 9.965158e+00
0	 2.222222e+00	 7.037037e+00	 9.925694e+00
0	 2.222222e+00	 7.111111e+00	 9.928364e+00
0	 2.222222e+00	 7.185185e+00	 9.931033e+00
0	 2.222222e+00	 7.259259e+00	 9.933706e+00
0	 2.222222e+00	 7.333333e+00	 9.936391e+00
0	 2.222222e+00	 7.407407e+00	 9.939091e+00
0	 2.296296e+00	 7.037037e+00	 9.933720e+00
0	 2.296296e+00	 7.111111e+00	 9.935997e+00
0	 2.296296e+00	 7.185185e+00	 9.938286e+00
0	 2.296296e+00	 7.259259e+00	 9.940591e+00
0	 2.296296e+00	 7.333333e+00	 9.942919e+00
0	 2.296296e+00	 7.407407e+00	 9.945275e+00
0	 2.370370e+00	 7.037037e+00	 9.941708e+00
0	 2.370370e+00	 7.111111e+00	 9.943597e+00
0	 2.370370e+00	 7.185185e+00	 9.945509e+00
0	 2.370370e+00	 7.259259e+00	 9.947450e+00
0	 2.370370e+00	 7.333333e+00	 9.949425e+00
0	 2.370370e+00	 7.407407e+00	 9.951441e+00
0	 2.444444e+00	 7.037037e+00	 9.949628e+00
0	 2.444444e+00	 7.111111e+00	 9.951136e+00
0	 2.444444e+00	 7.185185e+00	 9.952678e+00
0	 2.444444e+00	 7.259259e+00	 9.954260e+00
0	 2.444444e+00	 7.333333e+00	 9.955888e+00
0	 2.444444e+00	 7.407407e+00	 9.957568e+00
0	 2.518519e+00	 7.037037e+00	 9.957455e+00
0	 2.518519e+00	 7.111111e+00	 9.958588e+00
0	 2.518519e+00	 7.185185e+00	 9.959767e+00
0	 2.518519e+00	 7.259259e+00	 9.960997e+00
0	 2.518519e+00	 7.333333e+00	 9.962284e+00
0	 2.518519e+00	 7.407407e+00	 9.963634e+00
0	 2.592593e+00	 7.037037e+00	 9.965158e+00
0	 2.592593e+00	 7.111111e+00	 9.965927e+00
0	 2.592593e+00	 7.185185e+00	 9.966751e+00
0	 2.592593e+00	 7.259259e+00	 9.967637e+00
0	 2.592593e+00	 7.333333e+00	 9.968591e+00
0	 2.592593e+00	 7.407407e+00	 9.969617e+00
0	 2.222222e+00	 7.407407e+00	 9.939091e+00
0	 2.222222e+00	 7.481481e+00	 9.941787e+00
0	 2.222222e+00	 7.555556e+00	 9.944458e+00
0	 2.222222e+00	 7.629630e+00	 9.947109e+00
0	 2.222222e+00	 7.703704e+00	 9.949746e+00
0	 2.222222e+00	 7.777778e+00	 9.952373e+00
0	 2.296296e+00	 7.407407e+00	 9.945275e+00
0	 2.296296e+00	 7.481481e+00	 9.947638e+00
0	 2.296296e+00	 7.555556e+00	 9.949986e+00
0	 2.296296e+00	 7.629630e+00	 9.952326e+00
0	 2.296296e+00	 7.703704e+00	 9.954660e+00
0	 2.296296e+00	 7.777778e+00	 9.956995e+00
0	 2.370370e+00	 7.407407e+00	 9.951441e+00
0	 2.370370e+00	 7.481481e+00	 9.953475e+00
0	 2.370370e+00	 7.555556e+00	 9.955504e+00
0	 2.370370e+00	 7.629630e+00	 9.957533e+00
0	 2.370370e+00	 7.703704e+00	 9.959568e+00
0	 2.370370e+00	 7.777778e+00	 9.961613e+00
0	 2.444444e+00	 7.407407e+00	 9.957568e+00
0	 2.444444e+00	 7.481481e+00	 9.959277e+00
0	 2.444444e+00	 7.555556e+00	 9.960990e+00
0	 2.444444e+00	 7.629630e+00	 9.962713e+00
0	 2.444444e+00	 7.703704e+00	 9.964451e+00
0	 2.444444e+00	 7.777778e+00	 9.966209e+00
0	 2.518519e+00	 7.407407e+00	 9.963634e+00
0	 2.518519e+00	 7.481481e+00	 9.965023e+00
0	 2.518519e+00	 7.555556e+00	 9.966425e+00
0	 2.518519e+00	 7.629630e+00	 9.967847e+00
0	 2.518519e+00	 7.703704e+00	 9.969292e+00
0	 2.518519e+00	 7.777778e+00	 9.970765e+00
0	 2.592593e+00	 7.407407e+00	 9.969617e+00
0	 2.592593e+00	 7.481481e+00	 9.970692e+00
0	 2.592593e+00	 7.555556e+00	 9.971789e+00
0	 2.592593e+00	 7.629630e+00	 9.972914e+00
0	 2.592593e+00	 7.703704e+00	 9.974071e+00
0	 2.592593e+00	 7.777778e+00	 9.975265e+00
0	 2.222222e+00	 7.777778e+00	 9.952373e+00
0	 2.222222e+00	 7.851852e+00	 9.954971e+00
0	 2.222222e+00	 7.925926e+00	 9.957523e+00
0	 2.222222e+00	 8.000000e+00	 9.960032e+00
0	 2.222222e+00	 8.074074e+00	 9.962504e+00
0	 2.222222e+00	 8.148148e+00	 9.964942e+00
0	 2.296296e+00	 7.777778e+00	 9.956995e+00
0	 2.296296e+00	 7.851852e+00	 9.959312e+00
0	 2.296296e+00	 7.925926e+00	 9.961590e+00
0	 2.296296e+00	 8.000000e+00	 9.963835e+00
0	 2.296296e+00	 8.074074e+00	 9.966052e+00
0	 2.296296e+00	 8.148148e+00	 9.968244e+00
0	 2.370370e+00	 7.777778e+00	 9.961613e+00
0	 2.370370e+00	 7.851852e+00	 9.963649e+00
0	 2.370370e+00	 7.925926e+00	 9.965655e+00
0	 2.370370e+00	 8.000000e+00	 9.967638e+00
0	 2.370370e+00	 8.074074e+00	 9.969600e+00
0	 2.370370e+00	 8.148148e+00	 9.971547e+00
0	 2.444444e+00	 7.777778e+00	 9.966209e+00
0	 2.444444e+00	 7.851852e+00	 9.967966e+00
0	 2.444444e+00	 7.925926e+00	 9.969703e+00
0	 2.444444e+00	 8.000000e+00	 9.971424e+00
0	 2.444444e+00	 8.074074e+00	 9.973135e+00
0	 2.444444e+00	 8.148148e+00	 9.974838e+00
0	 2.518519e+00	 7.777778e+00	 9.970765e+00
0	 2.518519e+00	 7.851852e+00	 9.972247e+00
0	 2.518519e+00	 7.925926e+00	 9.973718e+00
0	 2.518519e+00	 8.000000e+00	 9.975181e+00
0	 2.518519e+00	 8.074074e+00	 9.976642e+00
0	 2.518519e+00	 8.148148e+00	 9.978105e+00
0	 2.592593e+00	 7.777778e+00	 9.975265e+00
0	 2.592593e+00	 7.851852e+00	 9.976476e+00
0	 2.592593e+00	 7.925926e+00	 9.977684e+00
0	 2.592593e+00	 8.000000e+00	 9.978894e+00
0	 2.592593e+00	 8.074074e+00	 9.980108e+00
0	 2.592593e+00	 8.148148e+00	 9.981333e+00
0	 2.222222e+00	 8.148148e+00	 9.964942e+00
0	 2.222222e+00	 8.222222e+00	 9.967331e+00
0	 2.222222e+00	 8.296296e+00	 9.969655e+00
0	 2.222222e+00	 8.370370e+00	 9.971918e+00
0	 2.222222e+00	 8.444444e+00	 9.974124e+00
0	 2.222222e+00	 8.518519e+00	 9.976279e+00
0	 2.296296e+00	 8.148148e+00	 9.968244e+00
0	 2.296296e+00	 8.222222e+00	 9.970396e+00
0	 2.296296e+00	 8.296296e+00	 9.972490e+00
0	 2.296296e+00	 8.370370e+00	 9.974533e+00
0	 2.296296e+00	 8.444444e+00	 9.976527e+00
0	 2.296296e+00	 8.518519e+00	 9.978477e+00
0	 2.370370e+00	 8.148148e+00	 9.971547e+00
0	 2.370370e+00	 8.222222e+00	 9.973462e+00
0	 2.370370e+00	 8.296296e+00	 9.975329e+00
0	 2.370370e+00	 8.370370e+00	 9.977151e+00
0	 2.370370e+00	 8.444444e+00	 9.978933e+00
0	 2.370370e+00	 8.518519e+00	 9.980680e+00
0	 2.444444e+00	 8.148148e+00	 9.974838e+00
0	 2.444444e+00	 8.222222e+00	 9.976518e+00
0	 2.444444e+00	 8.296296e+00	 9.978158e+00
0	 2.444444e+00	 8.370370e+00	 9.979762e+00
0	 2.444444e+00	 8.444444e+00	 9.981333e+00
0	 2.444444e+00	 8.518519e+00	 9.982876e+00
0	 2.518519e+00	 8.148148e+00	 9.978105e+00
0	 2.518519e+00	 8.222222e+00	 9.979552e+00
0	 2.518519e+00	 8.296296e+00	 9.980967e+00
0	 2.518519e+00	 8.370370e+00	 9.982354e+00
0	 2.518519e+00	 8.444444e+00	 9.983716e+00
0	 2.518519e+00	 8.518519e+00	 9.985057e+00
0	 2.592593e+00	 8.148148e+00	 9.981333e+00
0	 2.592593e+00	 8.222222e+00	 9.982550e+00
0	 2.592593e+00	 8.296296e+00	 9.983743e+00
0	 2.592593e+00	 8.370370e+00	 9.984915e+00
0	 2.592593e+00	 8.444444e+00	 9.986070e+00
0	 2.592593e+00	 8.518519e+00	 9.987212e+00
0	 2.222222e+00	 8.518519e+00	 9.976279e+00
0	 2.222222e+00	 8.592593e+00	 9.978366e+00
0	 2.222222e+00	 8.666667e+00	 9.980369e+00
0	 2.222222e+00	 8.740741e+00	 9.982293e+00
0	 2.222222e+00	 8.814815e+00	 9.984141e+00
0	 2.222222e+00	 8.888889e+00	 9.985920e+00
0	 2.296296e+00	 8.518519e+00	 9.978477e+00
0	 2.296296e+00	 8.592593e+00	 9.980368e+00
0	 2.296296e+00	 8.666667e+00	 9.982183e+00
0	 2.296296e+00	 8.740741e+00	 9.983927e+00
0	 2.296296e+00	 8.814815e+00	 9.985605e+00
0	 2.296296e+00	 8.888889e+00	 9.987220e+00
0	 2.370370e+00	 8.518519e+00	 9.980680e+00
0	 2.370370e+00	 8.592593e+00	 9.982375e+00
0	 2.370370e+00	 8.666667e+00	 9.984002e+00
0	 2.370370e+00	 8.740741e+00	 9.985567e+00
0	 2.370370e+00	 8.814815e+00	 9.987073e+00
0	 2.370370e+00	 8.888889e+00	 9.988525e+00
0	 2.444444e+00	 8.518519e+00	 9.982876e+00
0	 2.444444e+00	 8.592593e+00	 9.984376e+00
0	 2.444444e+00	 8.666667e+00	 9.985817e+00
0	 2.444444e+00	 8.740741e+00	 9.987204e+00
0	 2.444444e+00	 8.814815e+00	 9.988539e+00
0	 2.444444e+00	 8.888889e+00	 9.989828e+00
0	 2.518519e+00	 8.518519e+00	 9.985057e+00
0	 2.518519e+00	 8.592593e+00	 9.986363e+00
0	 2.518519e+00	 8.666667e+00	 9.987619e+00
0	 2.518519e+00	 8.740741e+00	 9.988828e+00
0	 2.518519e+00	 8.814815e+00	 9.989995e+00
0	 2.518519e+00	 8.888889e+00	 9.991122e+00
0	 2.592593e+00	 8.518519e+00	 9.987212e+00
0	 2.592593e+00	 8.592593e+00	 9.988326e+00
0	 2.592593e+00	 8.666667e+00	 9.989399e+00
0	 2.592593e+00	 8.740741e+00	 9.990433e+00
0	 2.592593e+00	 8.814815e+00	 9.991431e+00
0	 2.592593e+00	 8.888889e+00	 9.992397e+00
0	 2.222222e+00	 8.888889e+00	 9.985920e+00
0	 2.222222e+00	 8.962963e+00	 9.987612e+00
0	 2.222222e+00	 9.037037e+00	 9.989202e+00
0	 2.222222e+00	 9.111111e+00	 9.990695e+00
0	 2.222222e+00	 9.185185e+00	 9.992095e+00
0	 2.222222e+00	 9.259259e+00	 9.993407e+00
0	 2.296296e+00	 8.888889e+00	 9.987220e+00
0	 2.296296e+00	 8.962963e+00	 9.988757e+00
0	 2.296296e+00	 9.037037e+00	 9.990201e+00
0	 2.296296e+00	 9.111111e+00	 9.991556e+00
0	 2.296296e+00	 9.185185e+00	 9.992827e+00
0	 2.296296e+00	 9.259259e+00	 9.994019e+00
0	 2.370370e+00	 8.888889e+00	 9.988525e+00
0	 2.370370e+00	 8.962963e+00	 9.989907e+00
0	 2.370370e+00	 9.037037e+00	 9.991205e+00
0	 2.370370e+00	 9.111111e+00	 9.992424e+00
0	 2.370370e+00	 9.185185e+00	 9.993567e+00
0	 2.370370e+00	 9.259259e+00	 9.994638e+00
0	 2.444444e+00	 8.888889e+00	 9.989828e+00
0	 2.444444e+00	 8.962963e+00	 9.991056e+00
0	 2.444444e+00	 9.037037e+00	 9.992209e+00
0	 2.444444e+00	 9.111111e+00	 9.993291e+00
0	 2.444444e+00	 9.185185e+00	 9.994306e+00
0	 2.444444e+00	 9.259259e+00	 9.995257e+00
0	 2.518519e+00	 8.888889e+00	 9.991122e+00
0	 2.518519e+00	 8.962963e+00	 9.992196e+00
0	 2.518519e+00	 9.037037e+00	 9.993205e+00
0	 2.518519e+00	 9.111111e+00	 9.994151e+00
0	 2.518519e+00	 9.185185e+00	 9.995039e+00
0	 2.518519e+00	 9.259259e+00	 9.995870e+00
0	 2.592593e+00	 8.888889e+00	 9.992397e+00
0	 2.592593e+00	 8.962963e+00	 9.993319e+00
0	 2.592593e+00	 9.037037e+00	 9.994185e+00
0	 2.592593e+00	 9.111111e+00	 9.994997e+00
0	 2.592593e+00	 9.185185e+00	 9.995758e+00
0	 2.592593e+00	 9.259259e+00	 9.996471e+00
0	 2.222222e+00	 9.259259e+00	 9.993407e+00
0	 2.222222e+00	 9.333333e+00	 9.994613e+00
0	 2.222222e+00	 9.407407e+00	 9.995697e+00
0	 2.222222e+00	 9.481481e+00	 9.996664e+00
0	 2.222222e+00	 9.555556e+00	 9.997517e+00
0	 2.222222e+00	 9.629630e+00	 9.998264e+00
0	 2.296296e+00	 9.259259e+00	 9.994019e+00
0	 2.296296e+00	 9.333333e+00	 9.995114e+00
0	 2.296296e+00	 9.407407e+00	 9.996098e+00
0	 2.296296e+00	 9.481481e+00	 9.996974e+00
0	 2.296296e+00	 9.555556e+00	 9.997748e+00
0	 2.296296e+00	 9.629630e+00	 9.998424e+00
0	 2.370370e+00	 9.259259e+00	 9.994638e+00
0	 2.370370e+00	 9.333333e+00	 9.995622e+00
0	 2.370370e+00	 9.407407e+00	 9.996506e+00
0	 2.370370e+00	 9.481481e+00	 9.997293e+00
0	 2.370370e+00	 9.555556e+00	 9.997988e+00
0	 2.370370e+00	 9.629630e+00	 9.998593e+00
0	 2.444444e+00	 9.259259e+00	 9.995257e+00
0	 2.444444e+00	 9.333333e+00	 9.996131e+00
0	 2.444444e+00	 9.407407e+00	 9.996916e+00
0	 2.444444e+00	 9.481481e+00	 9.997614e+00
0	 2.444444e+00	 9.555556e+00	 9.998229e+00
0	 2.444444e+00	 9.629630e+00	 9.998764e+00
0	 2.518519e+00	 9.259259e+00	 9.995870e+00
0	 2.518519e+00	 9.333333e+00	 9.996635e+00
0	 2.518519e+00	 9.407407e+00	 9.997320e+00
0	 2.518519e+00	 9.481481e+00	 9.997930e+00
0	 2.518519e+00	 9.555556e+00	 9.998466e+00
0	 2.518519e+00	 9.629630e+00	 9.998931e+00
0	 2.592593e+00	 9.259259e+00	 9.996471e+00
0	 2.592593e+00	 9.333333e+00	 9.997126e+00
0	 2.592593e+00	 9.407407e+00	 9.997713e+00
0	 2.592593e+00	 9.481481e+00	 9.998235e+00
0	 2.592593e+00	 9.555556e+00	 9.998692e+00
0	 2.592593e+00	 9.629630e+00	 9.999089e+00
0	 2.222222e+00	 9.629630e+00	 9.998264e+00
0	 2.222222e+00	 9.703704e+00	 9.998886e+00
0	 2.222222e+00	 9.777778e+00	 9.999366e+00
0	 2.222222e+00	 9.851852e+00	 9.999710e+00
0	 2.222222e+00	 9.925926e+00	 9.999924e+00
0	 2.222222e+00	 1.000000e+01	 1.000001e+01
0	 2.296296e+00	 9.629630e+00	 9.998424e+00
0	 2.296296e+00	 9.703704e+00	 9.998987e+00
0	 2.296296e+00	 9.777778e+00	 9.999421e+00
0	 2.296296e+00	 9.851852e+00	 9.999732e+00
0	 2.296296e+00	 9.925926e+00	 9.999924e+00
0	 2.296296e+00	 1.000000e+01	 1.000000e+01
0	 2.370370e+00	 9.629630e+00	 9.998593e+00
0	 2.370370e+00	 9.703704e+00	 9.999097e+00
0	 2.370370e+00	 9.777778e+00	 9.999486e+00
0	 2.370370e+00	 9.851852e+00	 9.999764e+00
0	 2.370370e+00	 9.925926e+00	 9.999935e+00
0	 2.370370e+00	 1.000000e+01	 1.000000e+01
0	 2.444444e+00	 9.629630e+00	 9.998764e+00
0	 2.444444e+00	 9.703704e+00	 9.999209e+00
0	 2.444444e+00	 9.777778e+00	 9.999554e+00
0	 2.444444e+00	 9.851852e+00	 9.999800e+00
0	 2.444444e+00	 9.925926e+00	 9.999950e+00
0	 2.444444e+00	 1.000000e+01	 1.000001e+01
0	 2.518519e+00	 9.629630e+00	 9.998931e+00
0	 2.518519e+00	 9.703704e+00	 9.999318e+00
0	 2.518519e+00	 9.777778e+00	 9.999618e+00
0	 2.518519e+00	 9.851852e+00	 9.999831e+00
0	 2.518519e+00	 9.925926e+00	 9.999962e+00
0	 2.518519e+00	 1.000000e+01	 1.000001e+01
0	 2.592593e+00	 9.629630e+00	 9.999089e+00
0	 2.592593e+00	 9.703704e+00	 9.999417e+00
0	 2.592593e+00	 9.777778e+00	 9.999672e+00
0	 2.592593e+00	 9.851852e+00	 9.999853e+00
0	 2.592593e+00	 9.925926e+00	 9.999962e+00
0	 2.592593e+00	 1.000000e+01	 1.000000e+01
0	 2.592593e+00	 0.000000e+00	 1.127357e+01
0	 2.592593e+00	 7.407407e-02	 1.125229e+01
0	 2.592593e+00	 1.481481e-01	 1.124588e+01
0	 2.592593e+00	 2.222222e-01	 1.125360e+01
0	 2.592593e+00	 2.962963e-01	 1.127474e+01
0	 2.592593e+00	 3.703704e-01	 1.130855e+01
0	 2.666667e+00	 0.000000e+00	 1.131833e+01
0	 2.666667e+00	 7.407407e-02	 1.128128e+01
0	 2.666667e+00	 1.481481e-01	 1.125686e+01
0	 2.666667e+00	 2.222222e-01	 1.124596e+01
0	 2.666667e+00	 2.962963e-01	 1.124949e+01
0	 2.666667e+00	 3.703704e-01	 1.126835e+01
0	 2.740741e+00	 0.000000e+00	 1.128269e+01
0	 2.740741e+00	 7.407407e-02	 1.125048e+01
0	 2.740741e+00	 1.481481e-01	 1.122622e+01
0	 2.740741e+00	 2.222222e-01	 1.121184e+01
0	 2.740741e+00	 2.962963e-01	 1.120927e+01
0	 2.740741e+00	 3.703704e-01	 1.122044e+01
0	 2.814815e+00	 0.000000e+00	 1.119085e+01
0	 2.814815e+00	 7.407407e-02	 1.117593e+01
0	 2.814815e+00	 1.481481e-01	 1.116352e+01
0	 2.814815e+00	 2.222222e-01	 1.115598e+01
0	 2.814815e+00	 2.962963e-01	 1.115565e+01
0	 2.814815e+00	 3.703704e-01	 1.116488e+01
0	 2.888889e+00	 0.000000e+00	 1.106700e+01
0	 2.888889e+00	 7.407407e-02	 1.107369e+01
0	 2.888889e+00	 1.481481e-01	 1.107835e+01
0	 2.888889e+00	 2.222222e-01	 1.108313e+01
0	 2.888889e+00	 2.962963e-01	 1.109019e+01
0	 2.888889e+00	 3.703704e-01	 1.110171e+01
0	 2.962963e+00	 0.000000e+00	 1.093535e+01
0	 2.962963e+00	 7.407407e-02	 1.095983e+01
0	 2.962963e+00	 1.481481e-01	 1.098027e+01
0	 2.962963e+00	 2.222222e-01	 1.099803e+01
0	 2.962963e+00	 2.962963e-01	 1.101448e+01
0	 2.962963e+00	 3.703704e-01	 1.103100e+01
0	 2.592593e+00	 3.703704e-01	 1.130855e+01
0	 2.592593e+00	 4.444444e-01	 1.134417e+01
0	 2.592593e+00	 5.185185e-01	 1.137267e+01
0	 2.592593e+00	 5.925926e-01	 1.139628e+01
0	 2.592593e+00	 6.666667e-01	 1.141722e+01
0	 2.592593e+00	 7.407407e-01	 1.143771e+01
0	 2.666667e+00	 3.703704e-01	 1.126835e+01
0	 2.666667e+00	 4.444444e-01	 1.129245e+01
0	 2.666667e+00	 5.185185e-01	 1.131185e+01
0	 2.666667e+00	 5.925926e-01	 1.132769e+01
0	 2.666667e+00	 6.666667e-01	 1.134111e+01
0	 2.666667e+00	 7.407407e-01	 1.135327e+01
0	 2.740741e+00	 3.703704e-01	 1.122044e+01
0	 2.740741e+00	 4.444444e-01	 1.123799e+01
0	 2.740741e+00	 5.185185e-01	 1.125354e+01
0	 2.740741e+00	 5.925926e-01	 1.126751e+01
0	 2.740741e+00	 6.666667e-01	 1.128031e+01
0	 2.740741e+00	 7.407407e-01	 1.129237e+01
0	 2.814815e+00	 3.703704e-01	 1.116488e+01
0	 2.814815e+00	 4.444444e-01	 1.117987e+01
0	 2.814815e+00	 5.185185e-01	 1.119532e+01
0	 2.814815e+00	 5.925926e-01	 1.121124e+01
0	 2.814815e+00	 6.666667e-01	 1.122769e+01
0	 2.814815e+00	 7.407407e-01	 1.124471e+01
0	 2.888889e+00	 3.703704e-01	 1.110171e+01
0	 2.888889e+00	 4.444444e-01	 1.111720e+01
0	 2.888889e+00	 5.185185e-01	 1.113476e+01
0	 2.888889e+00	 5.925926e-01	 1.115440e+01
0	 2.888889e+00	 6.666667e-01	 1.117614e+01
0	 2.888889e+00	 7.407407e-01	 1.120000e+01
0	 2.962963e+00	 3.703704e-01	 1.103100e+01
0	 2.962963e+00	 4.444444e-01	 1.104905e+01
0	 2.962963e+00	 5.185185e-01	 1.106943e+01
0	 2.962963e+00	 5.925926e-01	 1.109248e+01
0	 2.962963e+00	 6.666667e-01	 1.111854e+01
0	 2.962963e+00	 7.407407e-01	 1.114794e+01
0	 2.592593e+00	 7.407407e-01	 1.143771e+01
0	 2.592593e+00	 8.148148e-01	 1.145807e+01
0	 2.592593e+00	 8.888889e-01	 1.147820e+01
0	 2.592593e+00	 9.629630e-01	 1.149962e+01
0	 2.592593e+00	 1.037037e+00	 1.152386e+01
0	 2.592593e+00	 1.111111e+00	 1.155245e+01
0	 2.666667e+00	 7.407407e-01	 1.135327e+01
0	 2.666667e+00	 8.148148e-01	 1.136646e+01
0	 2.666667e+00	 8.888889e-01	 1.138305e+01
0	 2.666667e+00	 9.629630e-01	 1.140435e+01
0	 2.666667e+00	 1.037037e+00	 1.143163e+01
0	 2.666667e+00	 1.111111e+00	 1.146618e+01
0	 2.740741e+00	 7.407407e-01	 1.129237e+01
0	 2.740741e+00	 8.148148e-01	 1.130531e+01
0	 2.740741e+00	 8.888889e-01	 1.132118e+01
0	 2.740741e+00	 9.629630e-01	 1.134107e+01
0	 2.740741e+00	 1.037037e+00	 1.136606e+01
0	 2.740741e+00	 1.111111e+00	 1.139723e+01
0	 2.814815e+00	 7.407407e-01	 1.124471e+01
0	 2.814815e+00	 8.148148e-01	 1.126174e+01
0	 2.814815e+00	 8.888889e-01	 1.127881e+01
0	 2.814815e+00	 9.629630e-01	 1.129684e+01
0	 2.814815e+00	 1.037037e+00	 1.131675e+01
0	 2.814815e+00	 1.111111e+00	 1.133946e+01
0	 2.888889e+00	 7.407407e-01	 1.120000e+01
0	 2.888889e+00	 8.148148e-01	 1.122288e+01
0	 2.888889e+00	 8.888889e-01	 1.124219e+01
0	 2.888889e+00	 9.629630e-01	 1.125874e+01
0	 2.888889e+00	 1.037037e+00	 1.127333e+01
0	 2.888889e+00	 1.111111e+00	 1.128674e+01
0	 2.962963e+00	 7.407407e-01	 1.114794e+01
0	 2.962963e+00	 8.148148e-01	 1.117582e+01
0	 2.962963e+00	 8.888889e-01	 1.119755e+01
0	 2.962963e+00	 9.629630e-01	 1.121383e+01
0	 2.962963e+00	 1.037037e+00	 1.122539e+01
0	 2.962963e+00	 1.111111e+00	 1.123293e+01
0	 2.592593e+00	 1.111111e+00	 1.155245e+01
0	 2.592593e+00	 1.185185e+00	 1.157820e+01
0	 2.592593e+00	 1.259259e+00	 1.159260e+01
0	 2.592593e+00	 1.333333e+00	 1.159525e+01
0	 2.592593e+00	 1.407407e+00	 1.158571e+01
0	 2.592593e+00	 1.481481e+00	 1.156357e+01
0	 2.666667e+00	 1.111111e+00	 1.146618e+01
0	 2.666667e+00	 1.185185e+00	 1.149796e+01
0	 2.666667e+00	 1.259259e+00	 1.151633e+01
0	 2.666667e+00	 1.333333e+00	 1.152175e+01
0	 2.666667e+00	 1.407407e+00	 1.151465e+01
0	 2.666667e+00	 1.481481e+00	 1.149549e+01
0	 2.740741e+00	 1.111111e+00	 1.139723e+01
0	 2.740741e+00	 1.185185e+00	 1.142539e+01
0	 2.740741e+00	 1.259259e+00	 1.144125e+01
0	 2.740741e+00	 1.333333e+00	 1.144581e+01
0	 2.740741e+00	 1.407407e+00	 1.144006e+01
0	 2.740741e+00	 1.481481e+00	 1.142500e+01
0	 2.814815e+00	 1.111111e+00	 1.133946e+01
0	 2.814815e+00	 1.185185e+00	 1.135884e+01
0	 2.814815e+00	 1.259259e+00	 1.136895e+01
0	 2.814815e+00	 1.333333e+00	 1.137104e+01
0	 2.814815e+00	 1.407407e+00	 1.136631e+01
0	 2.814815e+00	 1.481481e+00	 1.135602e+01
0	 2.888889e+00	 1.111111e+00	 1.128674e+01
0	 2.888889e+00	 1.185185e+00	 1.129668e+01
0	 2.888889e+00	 1.259259e+00	 1.130106e+01
0	 2.888889e+00	 1.333333e+00	 1.130105e+01
0	 2.888889e+00	 1.407407e+00	 1.129780e+01
0	 2.888889e+00	 1.481481e+00	 1.129245e+01
0	 2.962963e+00	 1.111111e+00	 1.123293e+01
0	 2.962963e+00	 1.185185e+00	 1.123725e+01
0	 2.962963e+00	 1.259259e+00	 1.123918e+01
0	 2.962963e+00	 1.333333e+00	 1.123948e+01
0	 2.962963e+00	 1.407407e+00	 1.123890e+01
0	 2.962963e+00	 1.481481e+00	 1.123821e+01
0	 2.592593e+00	 1.481481e+00	 1.156357e+01
0	 2.592593e+00	 1.555556e+00	 1.153268e+01
0	 2.592593e+00	 1.629630e+00	 1.149762e+01
0	 2.592593e+00	 1.703704e+00	 1.145905e+01
0	 2.592593e+00	 1.777778e+00	 1.141764e+01
0	 2.592593e+00	 1.851852e+00	 1.137407e+01
0	 2.666667e+00	 1.481481e+00	 1.149549e+01
0	 2.666667e+00	 1.555556e+00	 1.146953e+01
0	 2.666667e+00	 1.629630e+00	 1.144154e+01
0	 2.666667e+00	 1.703704e+00	 1.141122e+01
0	 2.666667e+00	 1.777778e+00	 1.137824e+01
0	 2.666667e+00	 1.851852e+00	 1.134229e+01
0	 2.740741e+00	 1.481481e+00	 1.142500e+01
0	 2.740741e+00	 1.555556e+00	 1.140536e+01
0	 2.740741e+00	 1.629630e+00	 1.138459e+01
0	 2.740741e+00	 1.703704e+00	 1.136177e+01
0	 2.740741e+00	 1.777778e+00	 1.133598e+01
0	 2.740741e+00	 1.851852e+00	 1.130629e+01
0	 2.814815e+00	 1.481481e+00	 1.135602e+01
0	 2.814815e+00	 1.555556e+00	 1.134311e+01
0	 2.814815e+00	 1.629630e+00	 1.132899e+01
0	 2.814815e+00	 1.703704e+00	 1.131247e+01
0	 2.814815e+00	 1.777778e+00	 1.129241e+01
0	 2.814815e+00	 1.851852e+00	 1.126764e+01
0	 2.888889e+00	 1.481481e+00	 1.129245e+01
0	 2.888889e+00	 1.555556e+00	 1.128574e+01
0	 2.888889e+00	 1.629630e+00	 1.127696e+01
0	 2.888889e+00	 1.703704e+00	 1.126509e+01
0	 2.888889e+00	 1.777778e+00	 1.124909e+01
0	 2.888889e+00	 1.851852e+00	 1.122794e+01
0	 2.962963e+00	 1.481481e+00	 1.123821e+01
0	 2.962963e+00	 1.555556e+00	 1.123618e+01
0	 2.962963e+00	 1.629630e+00	 1.123074e+01
0	 2.962963e+00	 1.703704e+00	 1.122137e+01
0	 2.962963e+00	 1.777778e+00	 1.120755e+01
0	 2.962963e+00	 1.851852e+00	 1.118876e+01
0	 2.592593e+00	 1.851852e+00	 1.137407e+01
0	 2.592593e+00	 1.925926e+00	 1.132962e+01
0	 2.592593e+00	 2.000000e+00	 1.128451e+01
0	 2.592593e+00	 2.074074e+00	 1.123777e+01
0	 2.592593e+00	 2.148148e+00	 1.118843e+01
0	 2.592593e+00	 2.222222e+00	 1.113551e+01
0	 2.666667e+00	 1.851852e+00	 1.134229e+01
0	 2.666667e+00	 1.925926e+00	 1.130382e+01
0	 2.666667e+00	 2.000000e+00	 1.126328e+01
0	 2.666667e+00	 2.074074e+00	 1.122032e+01
0	 2.666667e+00	 2.148148e+00	 1.117464e+01
0	 2.666667e+00	 2.222222e+00	 1.112590e+01
0	 2.740741e+00	 1.851852e+00	 1.130629e+01
0	 2.740741e+00	 1.925926e+00	 1.127291e+01
0	 2.740741e+00	 2.000000e+00	 1.123674e+01
0	 2.740741e+00	 2.074074e+00	 1.119789e+01
0	 2.740741e+00	 2.148148e+00	 1.115644e+01
0	 2.740741e+00	 2.222222e+00	 1.111251e+01
0	 2.814815e+00	 1.851852e+00	 1.126764e+01
0	 2.814815e+00	 1.925926e+00	 1.123857e+01
0	 2.814815e+00	 2.000000e+00	 1.120660e+01
0	 2.814815e+00	 2.074074e+00	 1.117202e+01
0	 2.814815e+00	 2.148148e+00	 1.113516e+01
0	 2.814815e+00	 2.222222e+00	 1.109633e+01
0	 2.888889e+00	 1.851852e+00	 1.122794e+01
0	 2.888889e+00	 1.925926e+00	 1.120250e+01
0	 2.888889e+00	 2.000000e+00	 1.117452e+01
0	 2.888889e+00	 2.074074e+00	 1.114430e+01
0	 2.888889e+00	 2.148148e+00	 1.111215e+01
0	 2.888889e+00	 2.222222e+00	 1.107836e+01
0	 2.962963e+00	 1.851852e+00	 1.118876e+01
0	 2.962963e+00	 1.925926e+00	 1.116639e+01
0	 2.962963e+00	 2.000000e+00	 1.114221e+01
0	 2.962963e+00	 2.074074e+00	 1.111629e+01
0	 2.962963e+00	 2.148148e+00	 1.108872e+01
0	 2.962963e+00	 2.222222e+00	 1.105957e+01
0	 2.592593e+00	 2.222222e+00	 1.113551e+01
0	 2.592593e+00	 2.296296e+00	 1.108120e+01
0	 2.592593e+00	 2.370370e+00	 1.102827e+01
0	 2.592593e+00	 2.444444e+00	 1.097664e+01
0	 2.592593e+00	 2.518519e+00	 1.092621e+01
0	 2.592593e+00	 2.592593e+00	 1.087691e+01
0	 2.666667e+00	 2.222222e+00	 1.112590e+01
0	 2.666667e+00	 2.296296e+00	 1.107635e+01
0	 2.666667e+00	 2.370370e+00	 1.102822e+01
0	 2.666667e+00	 2.444444e+00	 1.098119e+01
0	 2.666667e+00	 2.518519e+00	 1.093493e+01
0	 2.666667e+00	 2.592593e+00	 1.088913e+01
0	 2.740741e+00	 2.222222e+00	 1.111251e+01
0	 2.740741e+00	 2.296296e+00	 1.106807e+01
0	 2.740741e+00	 2.370370e+00	 1.102473e+01
0	 2.740741e+00	 2.444444e+00	 1.098200e+01
0	 2.740741e+00	 2.518519e+00	 1.093942e+01
0	 2.740741e+00	 2.592593e+00	 1.089652e+01
0	 2.814815e+00	 2.222222e+00	 1.109633e+01
0	 2.814815e+00	 2.296296e+00	 1.105704e+01
0	 2.814815e+00	 2.370370e+00	 1.101826e+01
0	 2.814815e+00	 2.444444e+00	 1.097945e+01
0	 2.814815e+00	 2.518519e+00	 1.094010e+01
0	 2.814815e+00	 2.592593e+00	 1.089969e+01
0	 2.888889e+00	 2.222222e+00	 1.107836e+01
0	 2.888889e+00	 2.296296e+00	 1.104391e+01
0	 2.888889e+00	 2.370370e+00	 1.100925e+01
0	 2.888889e+00	 2.444444e+00	 1.097390e+01
0	 2.888889e+00	 2.518519e+00	 1.093740e+01
0	 2.888889e+00	 2.592593e+00	 1.089927e+01
0	 2.962963e+00	 2.222222e+00	 1.105957e+01
0	 2.962963e+00	 2.296296e+00	 1.102931e+01
0	 2.962963e+00	 2.370370e+00	 1.099815e+01
0	 2.962963e+00	 2.444444e+00	 1.096574e+01
0	 2.962963e+00	 2.518519e+00	 1.093176e+01
0	 2.962963e+00	 2.592593e+00	 1.089588e+01
0	 2.592593e+00	 2.592593e+00	 1.087691e+01
0	 2.592593e+00	 2.666667e+00	 1.082891e+01
0	 2.592593e+00	 2.740741e+00	 1.078223e+01
0	 2.592593e+00	 2.814815e+00	 1.073652e+01
0	 2.592593e+00	 2.888889e+00	 1.069144e+01
0	 2.592593e+00	 2.962963e+00	 1.064665e+01
0	 2.666667e+00	 2.592593e+00	 1.088913e+01
0	 2.666667e+00	 2.666667e+00	 1.084390e+01
0	 2.666667e+00	 2.740741e+00	 1.079945e+01
0	 2.666667e+00	 2.814815e+00	 1.075559e+01
0	 2.666667e+00	 2.888889e+00	 1.071213e+01
0	 2.666667e+00	 2.962963e+00	 1.066889e+01
0	 2.740741e+00	 2.592593e+00	 1.089652e+01
0	 2.740741e+00	 2.666667e+00	 1.085362e+01
0	 2.740741e+00	 2.740741e+00	 1.081128e+01
0	 2.740741e+00	 2.814815e+00	 1.076943e+01
0	 2.740741e+00	 2.888889e+00	 1.072796e+01
0	 2.740741e+00	 2.962963e+00	 1.068678e+01
0	 2.814815e+00	 2.592593e+00	 1.089969e+01
0	 2.814815e+00	 2.666667e+00	 1.085889e+01
0	 2.814815e+00	 2.740741e+00	 1.081866e+01
0	 2.814815e+00	 2.814815e+00	 1.077895e+01
0	 2.814815e+00	 2.888889e+00	 1.073973e+01
0	 2.814815e+00	 2.962963e+00	 1.070093e+01
0	 2.888889e+00	 2.592593e+00	 1.089927e+01
0	 2.888889e+00	 2.666667e+00	 1.086054e+01
0	 2.888889e+00	 2.740741e+00	 1.082250e+01
0	 2.888889e+00	 2.814815e+00	 1.078509e+01
0	 2.888889e+00	 2.888889e+00	 1.074826e+01
0	 2.888889e+00	 2.962963e+00	 1.071196e+01
0	 2.962963e+00	 2.592593e+00	 1.089588e+01
0	 2.962963e+00	 2.666667e+00	 1.085938e+01
0	 2.962963e+00	 2.740741e+00	 1.082372e+01
0	 2.962963e+00	 2.814815e+00	 1.078876e+01
0	 2.962963e+00	 2.888889e+00	 1.075439e+01
0	 2.962963e+00	 2.962963e+00	 1.072048e+01
0	 2.592593e+00	 2.962963e+00	 1.064665e+01
0	 2.592593e+00	 3.037037e+00	 1.060302e+01
0	 2.592593e+00	 3.111111e+00	 1.056162e+01
0	 2.592593e+00	 3.185185e+00	 1.052241e+01
0	 2.592593e+00	 3.259259e+00	 1.048537e+01
0	 2.592593e+00	 3.333333e+00	 1.045046e+01
0	 2.666667e+00	 2.962963e+00	 1.066889e+01
0	 2.666667e+00	 3.037037e+00	 1.062682e+01
0	 2.666667e+00	 3.111111e+00	 1.058693e+01
0	 2.666667e+00	 3.185185e+00	 1.054908e+01
0	 2.666667e+00	 3.259259e+00	 1.051317e+01
0	 2.666667e+00	 3.333333e+00	 1.047907e+01
0	 2.740741e+00	 2.962963e+00	 1.068678e+01
0	 2.740741e+00	 3.037037e+00	 1.064674e+01
0	 2.740741e+00	 3.111111e+00	 1.060863e+01
0	 2.740741e+00	 3.185185e+00	 1.057227e+01
0	 2.740741e+00	 3.259259e+00	 1.053748e+01
0	 2.740741e+00	 3.333333e+00	 1.050410e+01
0	 2.814815e+00	 2.962963e+00	 1.070093e+01
0	 2.814815e+00	 3.037037e+00	 1.066318e+01
0	 2.814815e+00	 3.111111e+00	 1.062698e+01
0	 2.814815e+00	 3.185185e+00	 1.059215e+01
0	 2.814815e+00	 3.259259e+00	 1.055849e+01
0	 2.814815e+00	 3.333333e+00	 1.052579e+01
0	 2.888889e+00	 2.962963e+00	 1.071196e+01
0	 2.888889e+00	 3.037037e+00	 1.067653e+01
0	 2.888889e+00	 3.111111e+00	 1.064224e+01
0	 2.888889e+00	 3.185185e+00	 1.060892e+01
0	 2.888889e+00	 3.259259e+00	 1.057636e+01
0	 2.888889e+00	 3.333333e+00	 1.054440e+01
0	 2.962963e+00	 2.962963e+00	 1.072048e+01
0	 2.962963e+00	 3.037037e+00	 1.068719e+01
0	 2.962963e+00	 3.111111e+00	 1.065466e+01
0	 2.962963e+00	 3.185185e+00	 1.062274e+01
0	 2.962963e+00	 3.259259e+00	 1.059128e+01
0	 2.962963e+00	 3.333333e+00	 1.056016e+01
0	 2.592593e+00	 3.333333e+00	 1.045046e+01
0	 2.592593e+00	 3.407407e+00	 1.041738e+01
0	 2.592593e+00	 3.481481e+00	 1.038582e+01
0	 2.592593e+00	 3.555556e+00	 1.035569e+01
0	 2.592593e+00	 3.629630e+00	 1.032692e+01
0	 2.592593e+00	 3.703704e+00	 1.029945e+01
0	 2.666667e+00	 3.333333e+00	 1.047907e+01
0	 2.666667e+00	 3.407407e+00	 1.044650e+01
0	 2.666667e+00	 3.481481e+00	 1.041525e+01
0	 2.666667e+00	 3.555556e+00	 1.038527e+01
0	 2.666667e+00	 3.629630e+00	 1.035653e+01
0	 2.666667e+00	 3.703704e+00	 1.032900e+01
0	 2.740741e+00	 3.333333e+00	 1.050410e+01
0	 2.740741e+00	 3.407407e+00	 1.047198e+01
0	 2.740741e+00	 3.481481e+00	 1.044108e+01
0	 2.740741e+00	 3.555556e+00	 1.041140e+01
0	 2.740741e+00	 3.629630e+00	 1.038293e+01
0	 2.740741e+00	 3.703704e+00	 1.035564e+01
0	 2.814815e+00	 3.333333e+00	 1.052579e+01
0	 2.814815e+00	 3.407407e+00	 1.049413e+01
0	 2.814815e+00	 3.481481e+00	 1.046369e+01
0	 2.814815e+00	 3.555556e+00	 1.043446e+01
0	 2.814815e+00	 3.629630e+00	 1.040644e+01
0	 2.814815e+00	 3.703704e+00	 1.037962e+01
0	 2.888889e+00	 3.333333e+00	 1.054440e+01
0	 2.888889e+00	 3.407407e+00	 1.051330e+01
0	 2.888889e+00	 3.481481e+00	 1.048344e+01
0	 2.888889e+00	 3.555556e+00	 1.045481e+01
0	 2.888889e+00	 3.629630e+00	 1.042740e+01
0	 2.888889e+00	 3.703704e+00	 1.040118e+01
0	 2.962963e+00	 3.333333e+00	 1.056016e+01
0	 2.962963e+00	 3.407407e+00	 1.052980e+01
0	 2.962963e+00	 3.481481e+00	 1.050072e+01
0	 2.962963e+00	 3.555556e+00	 1.047285e+01
0	 2.962963e+00	 3.629630e+00	 1.044615e+01
0	 2.962963e+00	 3.703704e+00	 1.042057e+01
0	 2.592593e+00	 3.703704e+00	 1.029945e+01
0	 2.592593e+00	 3.777778e+00	 1.027336e+01
0	 2.592593e+00	 3.851852e+00	 1.024884e+01
0	 2.592593e+00	 3.925926e+00	 1.022588e+01
0	 2.592593e+00	 4.000000e+00	 1.020452e+01
0	 2.592593e+00	 4.074074e+00	 1.018474e+01
0	 2.666667e+00	 3.703704e+00	 1.032900e+01
0	 2.666667e+00	 3.777778e+00	 1.030284e+01
0	 2.666667e+00	 3.851852e+00	 1.027822e+01
0	 2.666667e+00	 3.925926e+00	 1.025512e+01
0	 2.666667e+00	 4.000000e+00	 1.023353e+01
0	 2.666667e+00	 4.074074e+00	 1.021341e+01
0	 2.740741e+00	 3.703704e+00	 1.035564e+01
0	 2.740741e+00	 3.777778e+00	 1.032969e+01
0	 2.740741e+00	 3.851852e+00	 1.030519e+01
0	 2.740741e+00	 3.925926e+00	 1.028209e+01
0	 2.740741e+00	 4.000000e+00	 1.026036e+01
0	 2.740741e+00	 4.074074e+00	 1.023996e+01
0	 2.814815e+00	 3.703704e+00	 1.037962e+01
0	 2.814815e+00	 3.777778e+00	 1.035407e+01
0	 2.814815e+00	 3.851852e+00	 1.032983e+01
0	 2.814815e+00	 3.925926e+00	 1.030684e+01
0	 2.814815e+00	 4.000000e+00	 1.028507e+01
0	 2.814815e+00	 4.074074e+00	 1.026445e+01
0	 2.888889e+00	 3.703704e+00	 1.040118e+01
0	 2.888889e+00	 3.777778e+00	 1.037613e+01
0	 2.888889e+00	 3.851852e+00	 1.035224e+01
0	 2.888889e+00	 3.925926e+00	 1.032944e+01
0	 2.888889e+00	 4.000000e+00	 1.030769e+01
0	 2.888889e+00	 4.074074e+00	 1.028694e+01
0	 2.962963e+00	 3.703704e+00	 1.042057e+01
0	 2.962963e+00	 3.777778e+00	 1.039605e+01
0	 2.962963e+00	 3.851852e+00	 1.037251e+01
0	 2.962963e+00	 3.925926e+00	 1.034993e+01
0	 2.962963e+00	 4.000000e+00	 1.032827e+01
0	 2.962963e+00	 4.074074e+00	 1.030749e+01
0	 2.592593e+00	 4.074074e+00	 1.018474e+01
0	 2.592593e+00	 4.148148e+00	 1.016629e+01
0	 2.592593e+00	 4.222222e+00	 1.014889e+01
0	 2.592593e+00	 4.296296e+00	 1.013254e+01
0	 2.592593e+00	 4.370370e+00	 1.011724e+01
0	 2.592593e+00	 4.444444e+00	 1.010300e+01
0	 2.666667e+00	 4.074074e+00	 1.021341e+01
0	 2.666667e+00	 4.148148e+00	 1.019453e+01
0	 2.666667e+00	 4.222222e+00	 1.017664e+01
0	 2.666667e+00	 4.296296e+00	 1.015976e+01
0	 2.666667e+00	 4.370370e+00	 1.014391e+01
0	 2.666667e+00	 4.444444e+00	 1.012909e+01
0	 2.740741e+00	 4.074074e+00	 1.023996e+01
0	 2.740741e+00	 4.148148e+00	 1.022069e+01
0	 2.740741e+00	 4.222222e+00	 1.020241e+01
0	 2.740741e+00	 4.296296e+00	 1.018511e+01
0	 2.740741e+00	 4.370370e+00	 1.016883e+01
0	 2.740741e+00	 4.444444e+00	 1.015358e+01
0	 2.814815e+00	 4.074074e+00	 1.026445e+01
0	 2.814815e+00	 4.148148e+00	 1.024488e+01
0	 2.814815e+00	 4.222222e+00	 1.022629e+01
0	 2.814815e+00	 4.296296e+00	 1.020869e+01
0	 2.814815e+00	 4.370370e+00	 1.019210e+01
0	 2.814815e+00	 4.444444e+00	 1.017653e+01
0	 2.888889e+00	 4.074074e+00	 1.028694e+01
0	 2.888889e+00	 4.148148e+00	 1.026717e+01
0	 2.888889e+00	 4.222222e+00	 1.024838e+01
0	 2.888889e+00	 4.296296e+00	 1.023058e+01
0	 2.888889e+00	 4.370370e+00	 1.021377e+01
0	 2.888889e+00	 4.444444e+00	 1.019798e+01
0	 2.962963e+00	 4.074074e+00	 1.030749e+01
0	 2.962963e+00	 4.148148e+00	 1.028764e+01
0	 2.962963e+00	 4.222222e+00	 1.026877e+01
0	 2.962963e+00	 4.296296e+00	 1.025087e+01
0	 2.962963e+00	 4.370370e+00	 1.023395e+01
0	 2.962963e+00	 4.444444e+00	 1.021800e+01
0	 2.592593e+00	 4.444444e+00	 1.010300e+01
0	 2.592593e+00	 4.518519e+00	 1.008973e+01
0	 2.592593e+00	 4.592593e+00	 1.007734e+01
0	 2.592593e+00	 4.666667e+00	 1.006586e+01
0	 2.592593e+00	 4.740741e+00	 1.005531e+01
0	 2.592593e+00	 4.814815e+00	 1.004570e+01
0	 2.666667e+00	 4.444444e+00	 1.012909e+01
0	 2.666667e+00	 4.518519e+00	 1.011524e+01
0	 2.666667e+00	 4.592593e+00	 1.010228e+01
0	 2.666667e+00	 4.666667e+00	 1.009022e+01
0	 2.666667e+00	 4.740741e+00	 1.007906e+01
0	 2.666667e+00	 4.814815e+00	 1.006883e+01
0	 2.740741e+00	 4.444444e+00	 1.015358e+01
0	 2.740741e+00	 4.518519e+00	 1.013929e+01
0	 2.740741e+00	 4.592593e+00	 1.012586e+01
0	 2.740741e+00	 4.666667e+00	 1.011331e+01
0	 2.740741e+00	 4.740741e+00	 1.010163e+01
0	 2.740741e+00	 4.814815e+00	 1.009083e+01
0	 2.814815e+00	 4.444444e+00	 1.017653e+01
0	 2.814815e+00	 4.518519e+00	 1.016189e+01
0	 2.814815e+00	 4.592593e+00	 1.014809e+01
0	 2.814815e+00	 4.666667e+00	 1.013513e+01
0	 2.814815e+00	 4.740741e+00	 1.012300e+01
0	 2.814815e+00	 4.814815e+00	 1.011170e+01
0	 2.888889e+00	 4.444444e+00	 1.019798e+01
0	 2.888889e+00	 4.518519e+00	 1.018309e+01
0	 2.888889e+00	 4.592593e+00	 1.016899e+01
0	 2.888889e+00	 4.666667e+00	 1.015568e+01
0	 2.888889e+00	 4.740741e+00	 1.014316e+01
0	 2.888889e+00	 4.814815e+00	 1.013143e+01
0	 2.962963e+00	 4.444444e+00	 1.021800e+01
0	 2.962963e+00	 4.518519e+00	 1.020290e+01
0	 2.962963e+00	 4.592593e+00	 1.018855e+01
0	 2.962963e+00	 4.666667e+00	 1.017495e+01
0	 2.962963e+00	 4.740741e+00	 1.016210e+01
0	 2.962963e+00	 4.814815e+00	 1.015000e+01
0	 2.592593e+00	 4.814815e+00	 1.004570e+01
0	 2.592593e+00	 4.888889e+00	 1.003686e+01
0	 2.592593e+00	 4.962963e+00	 1.002863e+01
0	 2.592593e+00	 5.037037e+00	 1.002103e+01
0	 2.592593e+00	 5.111111e+00	 1.001407e+01
0	 2.592593e+00	 5.185185e+00	 1.000777e+01
0	 2.666667e+00	 4.814815e+00	 1.006883e+01
0	 2.666667e+00	 4.888889e+00	 1.005935e+01
0	 2.666667e+00	 4.962963e+00	 1.005049e+01
0	 2.666667e+00	 5.037037e+00	 1.004225e+01
0	 2.666667e+00	 5.111111e+00	 1.003466e+01
0	 2.666667e+00	 5.185185e+00	 1.002772e+01
0	 2.740741e+00	 4.814815e+00	 1.009083e+01
0	 2.740741e+00	 4.888889e+00	 1.008078e+01
0	 2.740741e+00	 4.962963e+00	 1.007133e+01
0	 2.740741e+00	 5.037037e+00	 1.006252e+01
0	 2.740741e+00	 5.111111e+00	 1.005436e+01
0	 2.740741e+00	 5.185185e+00	 1.004687e+01
0	 2.814815e+00	 4.814815e+00	 1.011170e+01
0	 2.814815e+00	 4.888889e+00	 1.010113e+01
0	 2.814815e+00	 4.962963e+00	 1.009117e+01
0	 2.814815e+00	 5.037037e+00	 1.008186e+01
0	 2.814815e+00	 5.111111e+00	 1.007319e+01
0	 2.814815e+00	 5.185185e+00	 1.006519e+01
0	 2.888889e+00	 4.814815e+00	 1.013143e+01
0	 2.888889e+00	 4.888889e+00	 1.012040e+01
0	 2.888889e+00	 4.962963e+00	 1.011000e+01
0	 2.888889e+00	 5.037037e+00	 1.010024e+01
0	 2.888889e+00	 5.111111e+00	 1.009113e+01
0	 2.888889e+00	 5.185185e+00	 1.008268e+01
0	 2.962963e+00	 4.814815e+00	 1.015000e+01
0	 2.962963e+00	 4.888889e+00	 1.013859e+01
0	 2.962963e+00	 4.962963e+00	 1.012781e+01
0	 2.962963e+00	 5.037037e+00	 1.011767e+01
0	 2.962963e+00	 5.111111e+00	 1.010817e+01
0	 2.962963e+00	 5.185185e+00	 1.009932e+01
0	 2.592593e+00	 5.185185e+00	 1.000777e+01
0	 2.592593e+00	 5.259259e+00	 1.000202e+01
0	 2.592593e+00	 5.333333e+00	 9.996741e+00
0	 2.592593e+00	 5.407407e+00	 9.991939e+00
0	 2.592593e+00	 5.481481e+00	 9.987631e+00
0	 2.592593e+00	 5.555556e+00	 9.983831e+00
0	 2.666667e+00	 5.185185e+00	 1.002772e+01
0	 2.666667e+00	 5.259259e+00	 1.002136e+01
0	 2.666667e+00	 5.333333e+00	 1.001548e+01
0	 2.666667e+00	 5.407407e+00	 1.001008e+01
0	 2.666667e+00	 5.481481e+00	 1.000518e+01
0	 2.666667e+00	 5.555556e+00	 1.000079e+01
0	 2.740741e+00	 5.185185e+00	 1.004687e+01
0	 2.740741e+00	 5.259259e+00	 1.003995e+01
0	 2.740741e+00	 5.333333e+00	 1.003351e+01
0	 2.740741e+00	 5.407407e+00	 1.002757e+01
0	 2.740741e+00	 5.481481e+00	 1.002212e+01
0	 2.740741e+00	 5.555556e+00	 1.001718e+01
0	 2.814815e+00	 5.185185e+00	 1.006519e+01
0	 2.814815e+00	 5.259259e+00	 1.005777e+01
0	 2.814815e+00	 5.333333e+00	 1.005083e+01
0	 2.814815e+00	 5.407407e+00	 1.004438e+01
0	 2.814815e+00	 5.481481e+00	 1.003843e+01
0	 2.814815e+00	 5.555556e+00	 1.003299e+01
0	 2.888889e+00	 5.185185e+00	 1.008268e+01
0	 2.888889e+00	 5.259259e+00	 1.007481e+01
0	 2.888889e+00	 5.333333e+00	 1.006741e+01
0	 2.888889e+00	 5.407407e+00	 1.006050e+01
0	 2.888889e+00	 5.481481e+00	 1.005408e+01
0	 2.888889e+00	 5.555556e+00	 1.004817e+01
0	 2.962963e+00	 5.185185e+00	 1.009932e+01
0	 2.962963e+00	 5.259259e+00	 1.009103e+01
0	 2.962963e+00	 5.333333e+00	 1.008322e+01
0	 2.962963e+00	 5.407407e+00	 1.007589e+01
0	 2.962963e+00	 5.481481e+00	 1.006905e+01
0	 2.962963e+00	 5.555556e+00	 1.006271e+01
0	 2.592593e+00	 5.555556e+00	 9.983831e+00
0	 2.592593e+00	 5.629630e+00	 9.980446e+00
0	 2.592593e+00	 5.703704e+00	 9.977383e+00
0	 2.592593e+00	 5.777778e+00	 9.974655e+00
0	 2.592593e+00	 5.851852e+00	 9.972274e+00
0	 2.592593e+00	 5.925926e+00	 9.970252e+00
0	 2.666667e+00	 5.555556e+00	 1.000079e+01
0	 2.666667e+00	 5.629630e+00	 9.996824e+00
0	 2.666667e+00	 5.703704e+00	 9.993194e+00
0	 2.666667e+00	 5.777778e+00	 9.989910e+00
0	 2.666667e+00	 5.851852e+00	 9.986986e+00
0	 2.666667e+00	 5.925926e+00	 9.984433e+00
0	 2.740741e+00	 5.555556e+00	 1.001718e+01
0	 2.740741e+00	 5.629630e+00	 1.001268e+01
0	 2.740741e+00	 5.703704e+00	 1.000851e+01
0	 2.740741e+00	 5.777778e+00	 1.000471e+01
0	 2.740741e+00	 5.851852e+00	 1.000127e+01
0	 2.740741e+00	 5.925926e+00	 9.998220e+00
0	 2.814815e+00	 5.555556e+00	 1.003299e+01
0	 2.814815e+00	 5.629630e+00	 1.002798e+01
0	 2.814815e+00	 5.703704e+00	 1.002332e+01
0	 2.814815e+00	 5.777778e+00	 1.001903e+01
0	 2.814815e+00	 5.851852e+00	 1.001511e+01
0	 2.814815e+00	 5.925926e+00	 1.001159e+01
0	 2.888889e+00	 5.555556e+00	 1.004817e+01
0	 2.888889e+00	 5.629630e+00	 1.004269e+01
0	 2.888889e+00	 5.703704e+00	 1.003758e+01
0	 2.888889e+00	 5.777778e+00	 1.003284e+01
0	 2.888889e+00	 5.851852e+00	 1.002847e+01
0	 2.888889e+00	 5.925926e+00	 1.002450e+01
0	 2.962963e+00	 5.555556e+00	 1.006271e+01
0	 2.962963e+00	 5.629630e+00	 1.005680e+01
0	 2.962963e+00	 5.703704e+00	 1.005127e+01
0	 2.962963e+00	 5.777778e+00	 1.004611e+01
0	 2.962963e+00	 5.851852e+00	 1.004133e+01
0	 2.962963e+00	 5.925926e+00	 1.003695e+01
0	 2.592593e+00	 5.925926e+00	 9.970252e+00
0	 2.592593e+00	 6.000000e+00	 9.968525e+00
0	 2.592593e+00	 6.074074e+00	 9.967026e+00
0	 2.592593e+00	 6.148148e+00	 9.965765e+00
0	 2.592593e+00	 6.222222e+00	 9.964751e+00
0	 2.592593e+00	 6.296296e+00	 9.963995e+00
0	 2.666667e+00	 5.925926e+00	 9.984433e+00
0	 2.666667e+00	 6.000000e+00	 9.982187e+00
0	 2.666667e+00	 6.074074e+00	 9.980180e+00
0	 2.666667e+00	 6.148148e+00	 9.978423e+00
0	 2.666667e+00	 6.222222e+00	 9.976924e+00
0	 2.666667e+00	 6.296296e+00	 9.975693e+00
0	 2.740741e+00	 5.925926e+00	 9.998220e+00
0	 2.740741e+00	 6.000000e+00	 9.995481e+00
0	 2.740741e+00	 6.074074e+00	 9.992993e+00
0	 2.740741e+00	 6.148148e+00	 9.990764e+00
0	 2.740741e+00	 6.222222e+00	 9.988803e+00
0	 2.740741e+00	 6.296296e+00	 9.987120e+00
0	 2.814815e+00	 5.925926e+00	 1.001159e+01
0	 2.814815e+00	 6.000000e+00	 1.000838e+01
0	 2.814815e+00	 6.074074e+00	 1.000544e+01
0	 2.814815e+00	 6.148148e+00	 1.000276e+01
0	 2.814815e+00	 6.222222e+00	 1.000036e+01
0	 2.814815e+00	 6.296296e+00	 9.998248e+00
0	 2.888889e+00	 5.925926e+00	 1.002450e+01
0	 2.888889e+00	 6.000000e+00	 1.002086e+01
0	 2.888889e+00	 6.074074e+00	 1.001749e+01
0	 2.888889e+00	 6.148148e+00	 1.001439e+01
0	 2.888889e+00	 6.222222e+00	 1.001158e+01
0	 2.888889e+00	 6.296296e+00	 1.000905e+01
0	 2.962963e+00	 5.925926e+00	 1.003695e+01
0	 2.962963e+00	 6.000000e+00	 1.003290e+01
0	 2.962963e+00	 6.074074e+00	 1.002912e+01
0	 2.962963e+00	 6.148148e+00	 1.002562e+01
0	 2.962963e+00	 6.222222e+00	 1.002241e+01
0	 2.962963e+00	 6.296296e+00	 1.001950e+01
0	 2.592593e+00	 6.296296e+00	 9.963995e+00
0	 2.592593e+00	 6.370370e+00	 9.963444e+00
0	 2.592593e+00	 6.444444e+00	 9.963047e+00
0	 2.592593e+00	 6.518519e+00	 9.962811e+00
0	 2.592593e+00	 6.592593e+00	 9.962746e+00
0	 2.592593e+00	 6.666667e+00	 9.962858e+00
0	 2.666667e+00	 6.296296e+00	 9.975693e+00
0	 2.666667e+00	 6.370370e+00	 9.974680e+00
0	 2.666667e+00	 6.444444e+00	 9.973831e+00
0	 2.666667e+00	 6.518519e+00	 9.973156e+00
0	 2.666667e+00	 6.592593e+00	 9.972663e+00
0	 2.666667e+00	 6.666667e+00	 9.972360e+00
0	 2.740741e+00	 6.296296e+00	 9.987120e+00
0	 2.740741e+00	 6.370370e+00	 9.985663e+00
0	 2.740741e+00	 6.444444e+00	 9.984383e+00
0	 2.740741e+00	 6.518519e+00	 9.983286e+00
0	 2.740741e+00	 6.592593e+00	 9.982381e+00
0	 2.740741e+00	 6.666667e+00	 9.981675e+00
0	 2.814815e+00	 6.296296e+00	 9.998248e+00
0	 2.814815e+00	 6.370370e+00	 9.996369e+00
0	 2.814815e+00	 6.444444e+00	 9.994675e+00
0	 2.814815e+00	 6.518519e+00	 9.993174e+00
0	 2.814815e+00	 6.592593e+00	 9.991873e+00
0	 2.814815e+00	 6.666667e+00	 9.990780e+00
0	 2.888889e+00	 6.296296e+00	 1.000905e+01
0	 2.888889e+00	 6.370370e+00	 1.000677e+01
0	 2.888889e+00	 6.444444e+00	 1.000468e+01
0	 2.888889e+00	 6.518519e+00	 1.000280e+01
0	 2.888889e+00	 6.592593e+00	 1.000112e+01
0	 2.888889e+00	 6.666667e+00	 9.999653e+00
0	 2.962963e+00	 6.296296e+00	 1.001950e+01
0	 2.962963e+00	 6.370370e+00	 1.001684e+01
0	 2.962963e+00	 6.444444e+00	 1.001438e+01
0	 2.962963e+00	 6.518519e+00	 1.001213e+01
0	 2.962963e+00	 6.592593e+00	 1.001009e+01
0	 2.962963e+00	 6.666667e+00	 1.000827e+01
0	 2.592593e+00	 6.666667e+00	 9.962858e+00
0	 2.592593e+00	 6.740741e+00	 9.963110e+00
0	 2.592593e+00	 6.814815e+00	 9.963459e+00
0	 2.592593e+00	 6.888889e+00	 9.963912e+00
0	 2.592593e+00	 6.962963e+00	 9.964476e+00
0	 2.592593e+00	 7.037037e+00	 9.965158e+00
0	 2.666667e+00	 6.666667e+00	 9.972360e+00
0	 2.666667e+00	 6.740741e+00	 9.972206e+00
0	 2.666667e+00	 6.814815e+00	 9.972159e+00
0	 2.666667e+00	 6.888889e+00	 9.972228e+00
0	 2.666667e+00	 6.962963e+00	 9.972417e+00
0	 2.666667e+00	 7.037037e+00	 9.972734e+00
0	 2.740741e+00	 6.666667e+00	 9.981675e+00
0	 2.740741e+00	 6.740741e+00	 9.981128e+00
0	 2.740741e+00	 6.814815e+00	 9.980699e+00
0	 2.740741e+00	 6.888889e+00	 9.980394e+00
0	 2.740741e+00	 6.962963e+00	 9.980220e+00
0	 2.740741e+00	 7.037037e+00	 9.980183e+00
0	 2.814815e+00	 6.666667e+00	 9.990780e+00
0	 2.814815e+00	 6.740741e+00	 9.989855e+00
0	 2.814815e+00	 6.814815e+00	 9.989057e+00
0	 2.814815e+00	 6.888889e+00	 9.988392e+00
0	 2.814815e+00	 6.962963e+00	 9.987866e+00
0	 2.814815e+00	 7.037037e+00	 9.987486e+00
0	 2.888889e+00	 6.666667e+00	 9.999653e+00
0	 2.888889e+00	 6.740741e+00	 9.998364e+00
0	 2.888889e+00	 6.814815e+00	 9.997210e+00
0	 2.888889e+00	 6.888889e+00	 9.996198e+00
0	 2.888889e+00	 6.962963e+00	 9.995333e+00
0	 2.888889e+00	 7.037037e+00	 9.994622e+00
0	 2.962963e+00	 6.666667e+00	 1.000827e+01
0	 2.962963e+00	 6.740741e+00	 1.000663e+01
0	 2.962963e+00	 6.814815e+00	 1.000514e+01
0	 2.962963e+00	 6.888889e+00	 1.000379e+01
0	 2.962963e+00	 6.962963e+00	 1.000260e+01
0	 2.962963e+00	 7.037037e+00	 1.000157e+01
0	 2.592593e+00	 7.037037e+00	 9.965158e+00
0	 2.592593e+00	 7.111111e+00	 9.965927e+00
0	 2.592593e+00	 7.185185e+00	 9.966751e+00
0	 2.592593e+00	 7.259259e+00	 9.967637e+00
0	 2.592593e+00	 7.333333e+00	 9.968591e+00
0	 2.592593e+00	 7.407407e+00	 9.969617e+00
0	 2.666667e+00	 7.037037e+00	 9.972734e+00
0	 2.666667e+00	 7.111111e+00	 9.973148e+00
0	 2.666667e+00	 7.185185e+00	 9.973627e+00
0	 2.666667e+00	 7.259259e+00	 9.974178e+00
0	 2.666667e+00	 7.333333e+00	 9.974806e+00
0	 2.666667e+00	 7.407407e+00	 9.975515e+00
0	 2.740741e+00	 7.037037e+00	 9.980183e+00
0	 2.740741e+00	 7.111111e+00	 9.980253e+00
0	 2.740741e+00	 7.185185e+00	 9.980396e+00
0	 2.740741e+00	 7.259259e+00	 9.980620e+00
0	 2.740741e+00	 7.333333e+00	 9.980929e+00
0	 2.740741e+00	 7.407407e+00	 9.981329e+00
0	 2.814815e+00	 7.037037e+00	 9.987486e+00
0	 2.814815e+00	 7.111111e+00	 9.987221e+00
0	 2.814815e+00	 7.185185e+00	 9.987039e+00
0	 2.814815e+00	 7.259259e+00	 9.986945e+00
0	 2.814815e+00	 7.333333e+00	 9.986944e+00
0	 2.814815e+00	 7.407407e+00	 9.987041e+00
0	 2.888889e+00	 7.037037e+00	 9.994622e+00
0	 2.888889e+00	 7.111111e+00	 9.994034e+00
0	 2.888889e+00	 7.185185e+00	 9.993536e+00
0	 2.888889e+00	 7.259259e+00	 9.993134e+00
0	 2.888889e+00	 7.333333e+00	 9.992832e+00
0	 2.888889e+00	 7.407407e+00	 9.992636e+00
0	 2.962963e+00	 7.037037e+00	 1.000157e+01
0	 2.962963e+00	 7.111111e+00	 1.000067e+01
0	 2.962963e+00	 7.185185e+00	 9.999869e+00
0	 2.962963e+00	 7.259259e+00	 9.999169e+00
0	 2.962963e+00	 7.333333e+00	 9.998576e+00
0	 2.962963e+00	 7.407407e+00	 9.998095e+00
0	 2.592593e+00	 7.407407e+00	 9.969617e+00
0	 2.592593e+00	 7.481481e+00	 9.970692e+00
0	 2.592593e+00	 7.555556e+00	 9.971789e+00
0	 2.592593e+00	 7.629630e+00	 9.972914e+00
0	 2.592593e+00	 7.703704e+00	 9.974071e+00
0	 2.592593e+00	 7.777778e+00	 9.975265e+00
0	 2.666667e+00	 7.407407e+00	 9.975515e+00
0	 2.666667e+00	 7.481481e+00	 9.976282e+00
0	 2.666667e+00	 7.555556e+00	 9.977080e+00
0	 2.666667e+00	 7.629630e+00	 9.977913e+00
0	 2.666667e+00	 7.703704e+00	 9.978788e+00
0	 2.666667e+00	 7.777778e+00	 9.979707e+00
0	 2.740741e+00	 7.407407e+00	 9.981329e+00
0	 2.740741e+00	 7.481481e+00	 9.981794e+00
0	 2.740741e+00	 7.555556e+00	 9.982298e+00
0	 2.740741e+00	 7.629630e+00	 9.982847e+00
0	 2.740741e+00	 7.703704e+00	 9.983444e+00
0	 2.740741e+00	 7.777778e+00	 9.984095e+00
0	 2.814815e+00	 7.407407e+00	 9.987041e+00
0	 2.814815e+00	 7.481481e+00	 9.987212e+00
0	 2.814815e+00	 7.555556e+00	 9.987430e+00
0	 2.814815e+00	 7.629630e+00	 9.987700e+00
0	 2.814815e+00	 7.703704e+00	 9.988026e+00
0	 2.814815e+00	 7.777778e+00	 9.988413e+00
0	 2.888889e+00	 7.407407e+00	 9.992636e+00
0	 2.888889e+00	 7.481481e+00	 9.992520e+00
0	 2.888889e+00	 7.555556e+00	 9.992459e+00
0	 2.888889e+00	 7.629630e+00	 9.992457e+00
0	 2.888889e+00	 7.703704e+00	 9.992520e+00
0	 2.888889e+00	 7.777778e+00	 9.992650e+00
0	 2.962963e+00	 7.407407e+00	 9.998095e+00
0	 2.962963e+00	 7.481481e+00	 9.997702e+00
0	 2.962963e+00	 7.555556e+00	 9.997370e+00
0	 2.962963e+00	 7.629630e+00	 9.997105e+00
0	 2.962963e+00	 7.703704e+00	 9.996910e+00
0	 2.962963e+00	 7.777778e+00	 9.996790e+00
0	 2.592593e+00	 7.777778e+00	 9.975265e+00
0	 2.592593e+00	 7.851852e+00	 9.976476e+00
0	 2.592593e+00	 7.925926e+00	 9.977684e+00
0	 2.592593e+00	 8.000000e+00	 9.978894e+00
0	 2.592593e+00	 8.074074e+00	 9.980108e+00
0	 2.592593e+00	 8.148148e+00	 9.981333e+00
0	 2.666667e+00	 7.777778e+00	 9.979707e+00
0	 2.666667e+00	 7.851852e+00	 9.980652e+00
0	 2.666667e+00	 7.925926e+00	 9.981603e+00
0	 2.666667e+00	 8.000000e+00	 9.982562e+00
0	 2.666667e+00	 8.074074e+00	 9.983535e+00
0	 2.666667e+00	 8.148148e+00	 9.984524e+00
0	 2.740741e+00	 7.777778e+00	 9.984095e+00
0	 2.740741e+00	 7.851852e+00	 9.984779e+00
0	 2.740741e+00	 7.925926e+00	 9.985475e+00
0	 2.740741e+00	 8.000000e+00	 9.986189e+00
0	 2.740741e+00	 8.074074e+00	 9.986923e+00
0	 2.740741e+00	 8.148148e+00	 9.987681e+00
0	 2.814815e+00	 7.777778e+00	 9.988413e+00
0	 2.814815e+00	 7.851852e+00	 9.988841e+00
0	 2.814815e+00	 7.925926e+00	 9.989290e+00
0	 2.814815e+00	 8.000000e+00	 9.989762e+00
0	 2.814815e+00	 8.074074e+00	 9.990262e+00
0	 2.814815e+00	 8.148148e+00	 9.990793e+00
0	 2.888889e+00	 7.777778e+00	 9.992650e+00
0	 2.888889e+00	 7.851852e+00	 9.992828e+00
0	 2.888889e+00	 7.925926e+00	 9.993033e+00
0	 2.888889e+00	 8.000000e+00	 9.993270e+00
0	 2.888889e+00	 8.074074e+00	 9.993540e+00
0	 2.888889e+00	 8.148148e+00	 9.993849e+00
0	 2.962963e+00	 7.777778e+00	 9.996790e+00
0	 2.962963e+00	 7.851852e+00	 9.996725e+00
0	 2.962963e+00	 7.925926e+00	 9.996694e+00
0	 2.962963e+00	 8.000000e+00	 9.996700e+00
0	 2.962963e+00	 8.074074e+00	 9.996747e+00
0	 2.962963e+00	 8.148148e+00	 9.996838e+00
0	 2.592593e+00	 8.148148e+00	 9.981333e+00
0	 2.592593e+00	 8.222222e+00	 9.982550e+00
0	 2.592593e+00	 8.296296e+00	 9.983743e+00
0	 2.592593e+00	 8.370370e+00	 9.984915e+00
0	 2.592593e+00	 8.444444e+00	 9.986070e+00
0	 2.592593e+00	 8.518519e+00	 9.987212e+00
0	 2.666667e+00	 8.148148e+00	 9.984524e+00
0	 2.666667e+00	 8.222222e+00	 9.985514e+00
0	 2.666667e+00	 8.296296e+00	 9.986488e+00
0	 2.666667e+00	 8.370370e+00	 9.987448e+00
0	 2.666667e+00	 8.444444e+00	 9.988399e+00
0	 2.666667e+00	 8.518519e+00	 9.989344e+00
0	 2.740741e+00	 8.148148e+00	 9.987681e+00
0	 2.740741e+00	 8.222222e+00	 9.988448e+00
0	 2.740741e+00	 8.296296e+00	 9.989205e+00
0	 2.740741e+00	 8.370370e+00	 9.989957e+00
0	 2.740741e+00	 8.444444e+00	 9.990706e+00
0	 2.740741e+00	 8.518519e+00	 9.991456e+00
0	 2.814815e+00	 8.148148e+00	 9.990793e+00
0	 2.814815e+00	 8.222222e+00	 9.991339e+00
0	 2.814815e+00	 8.296296e+00	 9.991884e+00
0	 2.814815e+00	 8.370370e+00	 9.992430e+00
0	 2.814815e+00	 8.444444e+00	 9.992981e+00
0	 2.814815e+00	 8.518519e+00	 9.993540e+00
0	 2.888889e+00	 8.148148e+00	 9.993849e+00
0	 2.888889e+00	 8.222222e+00	 9.994179e+00
0	 2.888889e+00	 8.296296e+00	 9.994516e+00
0	 2.888889e+00	 8.370370e+00	 9.994861e+00
0	 2.888889e+00	 8.444444e+00	 9.995217e+00
0	 2.888889e+00	 8.518519e+00	 9.995588e+00
0	 2.962963e+00	 8.148148e+00	 9.996838e+00
0	 2.962963e+00	 8.222222e+00	 9.996958e+00
0	 2.962963e+00	 8.296296e+00	 9.997090e+00
0	 2.962963e+00	 8.370370e+00	 9.997238e+00
0	 2.962963e+00	 8.444444e+00	 9.997404e+00
0	 2.962963e+00	 8.518519e+00	 9.997591e+00
0	 2.592593e+00	 8.518519e+00	 9.987212e+00
0	 2.592593e+00	 8.592593e+00	 9.988326e+00
0	 2.592593e+00	 8.666667e+00	 9.989399e+00
0	 2.592593e+00	 8.740741e+00	 9.990433e+00
0	 2.592593e+00	 8.814815e+00	 9.991431e+00
0	 2.592593e+00	 8.888889e+00	 9.992397e+00
0	 2.666667e+00	 8.518519e+00	 9.989344e+00
0	 2.666667e+00	 8.592593e+00	 9.990269e+00
0	 2.666667e+00	 8.666667e+00	 9.991160e+00
0	 2.666667e+00	 8.740741e+00	 9.992020e+00
0	 2.666667e+00	 8.814815e+00	 9.992852e+00
0	 2.666667e+00	 8.888889e+00	 9.993660e+00
0	 2.740741e+00	 8.518519e+00	 9.991456e+00
0	 2.740741e+00	 8.592593e+00	 9.992194e+00
0	 2.740741e+00	 8.666667e+00	 9.992906e+00
0	 2.740741e+00	 8.740741e+00	 9.993595e+00
0	 2.740741e+00	 8.814815e+00	 9.994263e+00
0	 2.740741e+00	 8.888889e+00	 9.994914e+00
0	 2.814815e+00	 8.518519e+00	 9.993540e+00
0	 2.814815e+00	 8.592593e+00	 9.994094e+00
0	 2.814815e+00	 8.666667e+00	 9.994630e+00
0	 2.814815e+00	 8.740741e+00	 9.995150e+00
0	 2.814815e+00	 8.814815e+00	 9.995657e+00
0	 2.814815e+00	 8.888889e+00	 9.996153e+00
0	 2.888889e+00	 8.518519e+00	 9.995588e+00
0	 2.888889e+00	 8.592593e+00	 9.995961e+00
0	 2.888889e+00	 8.666667e+00	 9.996324e+00
0	 2.888889e+00	 8.740741e+00	 9.996678e+00
0	 2.888889e+00	 8.814815e+00	 9.997026e+00
0	 2.888889e+00	 8.888889e+00	 9.997370e+00
0	 2.962963e+00	 8.518519e+00	 9.997591e+00
0	 2.962963e+00	 8.592593e+00	 9.997787e+00
0	 2.962963e+00	 8.666667e+00	 9.997979e+00
0	 2.962963e+00	 8.740741e+00	 9.998171e+00
0	 2.962963e+00	 8.814815e+00	 9.998363e+00
0	 2.962963e+00	 8.888889e+00	 9.998558e+00
0	 2.592593e+00	 8.888889e+00	 9.992397e+00
0	 2.592593e+00	 8.962963e+00	 9.993319e+00
0	 2.592593e+00	 9.037037e+00	 9.994185e+00
0	 2.592593e+00	 9.111111e+00	 9.994997e+00
0	 2.592593e+00	 9.185185e+00	 9.995758e+00
0	 2.592593e+00	 9.259259e+00	 9.996471e+00
0	 2.666667e+00	 8.888889e+00	 9.993660e+00
0	 2.666667e+00	 8.962963e+00	 9.994431e+00
0	 2.666667e+00	 9.037037e+00	 9.995155e+00
0	 2.666667e+00	 9.111111e+00	 9.995834e+00
0	 2.666667e+00	 9.185185e+00	 9.996470e+00
0	 2.666667e+00	 9.259259e+00	 9.997065e+00
0	 2.740741e+00	 8.888889e+00	 9.994914e+00
0	 2.740741e+00	 8.962963e+00	 9.995537e+00
0	 2.740741e+00	 9.037037e+00	 9.996120e+00
0	 2.740741e+00	 9.111111e+00	 9.996668e+00
0	 2.740741e+00	 9.185185e+00	 9.997180e+00
0	 2.740741e+00	 9.259259e+00	 9.997660e+00
0	 2.814815e+00	 8.888889e+00	 9.996153e+00
0	 2.814815e+00	 8.962963e+00	 9.996629e+00
0	 2.814815e+00	 9.037037e+00	 9.997075e+00
0	 2.814815e+00	 9.111111e+00	 9.997492e+00
0	 2.814815e+00	 9.185185e+00	 9.997883e+00
0	 2.814815e+00	 9.259259e+00	 9.998249e+00
0	 2.888889e+00	 8.888889e+00	 9.997370e+00
0	 2.888889e+00	 8.962963e+00	 9.997701e+00
0	 2.888889e+00	 9.037037e+00	 9.998011e+00
0	 2.888889e+00	 9.111111e+00	 9.998301e+00
0	 2.888889e+00	 9.185185e+00	 9.998572e+00
0	 2.888889e+00	 9.259259e+00	 9.998826e+00
0	 2.962963e+00	 8.888889e+00	 9.998558e+00
0	 2.962963e+00	 8.962963e+00	 9.998747e+00
0	 2.962963e+00	 9.037037e+00	 9.998924e+00
0	 2.962963e+00	 9.111111e+00	 9.999089e+00
0	 2.962963e+00	 9.185185e+00	 9.999242e+00
0	 2.962963e+00	 9.259259e+00	 9.999385e+00
0	 2.592593e+00	 9.259259e+00	 9.996471e+00
0	 2.592593e+00	 9.333333e+00	 9.997126e+00
0	 2.592593e+00	 9.407407e+00	 9.997713e+00
0	 2.592593e+00	 9.481481e+00	 9.998235e+00
0	 2.592593e+00	 9.555556e+00	 9.998692e+00
0	 2.592593e+00	 9.629630e+00	 9.999089e+00
0	 2.666667e+00	 9.259259e+00	 9.997065e+00
0	 2.666667e+00	 9.333333e+00	 9.997612e+00
0	 2.666667e+00	 9.407407e+00	 9.998102e+00
0	 2.666667e+00	 9.481481e+00	 9.998536e+00
0	 2.666667e+00	 9.555556e+00	 9.998916e+00
0	 2.666667e+00	 9.629630e+00	 9.999244e+00
0	 2.740741e+00	 9.259259e+00	 9.997660e+00
0	 2.740741e+00	 9.333333e+00	 9.998100e+00
0	 2.740741e+00	 9.407407e+00	 9.998494e+00
0	 2.740741e+00	 9.481481e+00	 9.998842e+00
0	 2.740741e+00	 9.555556e+00	 9.999146e+00
0	 2.740741e+00	 9.629630e+00	 9.999406e+00
0	 2.814815e+00	 9.259259e+00	 9.998249e+00
0	 2.814815e+00	 9.333333e+00	 9.998584e+00
0	 2.814815e+00	 9.407407e+00	 9.998883e+00
0	 2.814815e+00	 9.481481e+00	 9.999147e+00
0	 2.814815e+00	 9.555556e+00	 9.999375e+00
0	 2.814815e+00	 9.629630e+00	 9.999568e+00
0	 2.888889e+00	 9.259259e+00	 9.998826e+00
0	 2.888889e+00	 9.333333e+00	 9.999058e+00
0	 2.888889e+00	 9.407407e+00	 9.999264e+00
0	 2.888889e+00	 9.481481e+00	 9.999444e+00
0	 2.888889e+00	 9.555556e+00	 9.999598e+00
0	 2.888889e+00	 9.629630e+00	 9.999725e+00
0	 2.962963e+00	 9.259259e+00	 9.999385e+00
0	 2.962963e+00	 9.333333e+00	 9.999515e+00
0	 2.962963e+00	 9.407407e+00	 9.999629e+00
0	 2.962963e+00	 9.481481e+00	 9.999727e+00
0	 2.962963e+00	 9.555556e+00	 9.999808e+00
0	 2.962963e+00	 9.629630e+00	 9.999871e+00
0	 2.592593e+00	 9.629630e+00	 9.999089e+00
0	 2.592593e+00	 9.703704e+00	 9.999417e+00
0	 2.592593e+00	 9.777778e+00	 9.999672e+00
0	 2.592593e+00	 9.851852e+00	 9.999853e+00
0	 2.592593e+00	 9.925926e+00	 9.999962e+00
0	 2.592593e+00	 1.000000e+01	 1.000000e+01
0	 2.666667e+00	 9.629630e+00	 9.999244e+00
0	 2.666667e+00	 9.703704e+00	 9.999515e+00
0	 2.666667e+00	 9.777778e+00	 9.999725e+00
0	 2.666667e+00	 9.851852e+00	 9.999874e+00
0	 2.666667e+00	 9.925926e+00	 9.999963e+00
0	 2.666667e+00	 1.000000e+01	 9.999992e+00
0	 2.740741e+00	 9.629630e+00	 9.999406e+00
0	 2.740741e+00	 9.703704e+00	 9.999620e+00
0	 2.740741e+00	 9.777778e+00	 9.999786e+00
0	 2.740741e+00	 9.851852e+00	 9.999904e+00
0	 2.740741e+00	 9.925926e+00	 9.999973e+00
0	 2.740741e+00	 1.000000e+01	 9.999994e+00
0	 2.814815e+00	 9.629630e+00	 9.999568e+00
0	 2.814815e+00	 9.703704e+00	 9.999727e+00
0	 2.814815e+00	 9.777778e+00	 9.999850e+00
0	 2.814815e+00	 9.851852e+00	 9.999938e+00
0	 2.814815e+00	 9.925926e+00	 9.999987e+00
0	 2.814815e+00	 1.000000e+01	 9.999999e+00
0	 2.888889e+00	 9.629630e+00	 9.999725e+00
0	 2.888889e+00	 9.703704e+00	 9.999829e+00
0	 2.888889e+00	 9.777778e+00	 9.999911e+00
0	 2.888889e+00	 9.851852e+00	 9.999968e+00
0	 2.888889e+00	 9.925926e+00	 9.999998e+00
0	 2.888889e+00	 1.000000e+01	 1.000000e+01
0	 2.962963e+00	 9.629630e+00	 9.999871e+00
0	 2.962963e+00	 9.703704e+00	 9.999921e+00
0	 2.962963e+00	 9.777778e+00	 9.999961e+00
0	 2.962963e+00	 9.851852e+00	 9.999987e+00
0	 2.962963e+00	 9.925926e+00	 9.999999e+00
0	 2.962963e+00	 1.000000e+01	 9.999993e+00
0	 2.962963e+00	 0.000000e+00	 1.093535e+01
0	 2.962963e+00	 7.407407e-02	 1.095983e+01
0	 2.962963e+00	 1.481481e-01	 1.098027e+01
0	 2.962963e+00	 2.222222e-01	 1.099803e+01
0	 2.962963e+00	 2.962963e-01	 1.101448e+01
0	 2.962963e+00	 3.703704e-01	 1.103100e+01
0	 3.037037e+00	 0.000000e+00	 1.083683e+01
0	 3.037037e+00	 7.407407e-02	 1.086707e+01
0	 3.037037e+00	 1.481481e-01	 1.089424e+01
0	 3.037037e+00	 2.222222e-01	 1.091875e+01
0	 3.037037e+00	 2.962963e-01	 1.094105e+01
0	 3.037037e+00	 3.703704e-01	 1.096154e+01
0	 3.111111e+00	 0.000000e+00	 1.078631e+01
0	 3.111111e+00	 7.407407e-02	 1.081082e+01
0	 3.111111e+00	 1.481481e-01	 1.083483e+01
0	 3.111111e+00	 2.222222e-01	 1.085814e+01
0	 3.111111e+00	 2.962963e-01	 1.088054e+01
0	 3.111111e+00	 3.703704e-01	 1.090184e+01
0	 3.185185e+00	 0.000000e+00	 1.076892e+01
0	 3.185185e+00	 7.407407e-02	 1.078114e+01
0	 3.185185e+00	 1.481481e-01	 1.079603e+01
0	 3.185185e+00	 2.222222e-01	 1.081307e+01
0	 3.185185e+00	 2.962963e-01	 1.083173e+01
0	 3.185185e+00	 3.703704e-01	 1.085148e+01
0	 3.259259e+00	 0.000000e+00	 1.076973e+01
0	 3.259259e+00	 7.407407e-02	 1.076809e+01
0	 3.259259e+00	 1.481481e-01	 1.077184e+01
0	 3.259259e+00	 2.222222e-01	 1.078045e+01
0	 3.259259e+00	 2.962963e-01	 1.079337e+01
0	 3.259259e+00	 3.703704e-01	 1.081007e+01
0	 3.333333e+00	 0.000000e+00	 1.077386e+01
0	 3.333333e+00	 7.407407e-02	 1.076174e+01
0	 3.333333e+00	 1.481481e-01	 1.075625e+01
0	 3.333333e+00	 2.222222e-01	 1.075716e+01
0	 3.333333e+00	 2.962963e-01	 1.076422e+01
0	 3.333333e+00	 3.703704e-01	 1.077719e+01
0	 2.962963e+00	 3.703704e-01	 1.103100e+01
0	 2.962963e+00	 4.444444e-01	 1.104905e+01
0	 2.962963e+00	 5.185185e-01	 1.106943e+01
0	 2.962963e+00	 5.925926e-01	 1.109248e+01
0	 2.962963e+00	 6.666667e-01	 1.111854e+01
0	 2.962963e+00	 7.407407e-01	 1.114794e+01
0	 3.037037e+00	 3.703704e-01	 1.096154e+01
0	 3.037037e+00	 4.444444e-01	 1.098183e+01
0	 3.037037e+00	 5.185185e-01	 1.100371e+01
0	 3.037037e+00	 5.925926e-01	 1.102793e+01
0	 3.037037e+00	 6.666667e-01	 1.105526e+01
0	 3.037037e+00	 7.407407e-01	 1.108645e+01
0	 3.111111e+00	 3.703704e-01	 1.090184e+01
0	 3.111111e+00	 4.444444e-01	 1.092255e+01
0	 3.111111e+00	 5.185185e-01	 1.094400e+01
0	 3.111111e+00	 5.925926e-01	 1.096721e+01
0	 3.111111e+00	 6.666667e-01	 1.099316e+01
0	 3.111111e+00	 7.407407e-01	 1.102288e+01
0	 3.185185e+00	 3.703704e-01	 1.085148e+01
0	 3.185185e+00	 4.444444e-01	 1.087124e+01
0	 3.185185e+00	 5.185185e-01	 1.089099e+01
0	 3.185185e+00	 5.925926e-01	 1.091182e+01
0	 3.185185e+00	 6.666667e-01	 1.093482e+01
0	 3.185185e+00	 7.407407e-01	 1.096108e+01
0	 3.259259e+00	 3.703704e-01	 1.081007e+01
0	 3.259259e+00	 4.444444e-01	 1.082791e+01
0	 3.259259e+00	 5.185185e-01	 1.084532e+01
0	 3.259259e+00	 5.925926e-01	 1.086329e+01
0	 3.259259e+00	 6.666667e-01	 1.088281e+01
0	 3.259259e+00	 7.407407e-01	 1.090490e+01
0	 3.333333e+00	 3.703704e-01	 1.077719e+01
0	 3.333333e+00	 4.444444e-01	 1.079261e+01
0	 3.333333e+00	 5.185185e-01	 1.080767e+01
0	 3.333333e+00	 5.925926e-01	 1.082313e+01
0	 3.333333e+00	 6.666667e-01	 1.083973e+01
0	 3.333333e+00	 7.407407e-01	 1.085822e+01
0	 2.962963e+00	 7.407407e-01	 1.114794e+01
0	 2.962963e+00	 8.148148e-01	 1.117582e+01
0	 2.962963e+00	 8.888889e-01	 1.119755e+01
0	 2.962963e+00	 9.629630e-01	 1.121383e+01
0	 2.962963e+00	 1.037037e+00	 1.122539e+01
0	 2.962963e+00	 1.111111e+00	 1.123293e+01
0	 3.037037e+00	 7.407407e-01	 1.108645e+01
0	 3.037037e+00	 8.148148e-01	 1.111627e+01
0	 3.037037e+00	 8.888889e-01	 1.113941e+01
0	 3.037037e+00	 9.629630e-01	 1.115652e+01
0	 3.037037e+00	 1.037037e+00	 1.116826e+01
0	 3.037037e+00	 1.111111e+00	 1.117527e+01
0	 3.111111e+00	 7.407407e-01	 1.102288e+01
0	 3.111111e+00	 8.148148e-01	 1.105177e+01
0	 3.111111e+00	 8.888889e-01	 1.107498e+01
0	 3.111111e+00	 9.629630e-01	 1.109310e+01
0	 3.111111e+00	 1.037037e+00	 1.110675e+01
0	 3.111111e+00	 1.111111e+00	 1.111651e+01
0	 3.185185e+00	 7.407407e-01	 1.096108e+01
0	 3.185185e+00	 8.148148e-01	 1.098721e+01
0	 3.185185e+00	 8.888889e-01	 1.100950e+01
0	 3.185185e+00	 9.629630e-01	 1.102849e+01
0	 3.185185e+00	 1.037037e+00	 1.104475e+01
0	 3.185185e+00	 1.111111e+00	 1.105883e+01
0	 3.259259e+00	 7.407407e-01	 1.090490e+01
0	 3.259259e+00	 8.148148e-01	 1.092750e+01
0	 3.259259e+00	 8.888889e-01	 1.094822e+01
0	 3.259259e+00	 9.629630e-01	 1.096760e+01
0	 3.259259e+00	 1.037037e+00	 1.098615e+01
0	 3.259259e+00	 1.111111e+00	 1.100438e+01
0	 3.333333e+00	 7.407407e-01	 1.085822e+01
0	 3.333333e+00	 8.148148e-01	 1.087752e+01
0	 3.333333e+00	 8.888889e-01	 1.089640e+01
0	 3.333333e+00	 9.629630e-01	 1.091533e+01
0	 3.333333e+00	 1.037037e+00	 1.093482e+01
0	 3.333333e+00	 1.111111e+00	 1.095535e+01
0	 2.962963e+00	 1.111111e+00	 1.123293e+01
0	 2.962963e+00	 1.185185e+00	 1.123725e+01
0	 2.962963e+00	 1.259259e+00	 1.123918e+01
0	 2.962963e+00	 1.333333e+00	 1.123948e+01
0	 2.962963e+00	 1.407407e+00	 1.123890e+01
0	 2.962963e+00	 1.481481e+00	 1.123821e+01
0	 3.037037e+00	 1.111111e+00	 1.117527e+01
0	 3.037037e+00	 1.185185e+00	 1.117963e+01
0	 3.037037e+00	 1.259259e+00	 1.118317e+01
0	 3.037037e+00	 1.333333e+00	 1.118618e+01
0	 3.037037e+00	 1.407407e+00	 1.118895e+01
0	 3.037037e+00	 1.481481e+00	 1.119179e+01
0	 3.111111e+00	 1.111111e+00	 1.111651e+01
0	 3.111111e+00	 1.185185e+00	 1.112420e+01
0	 3.111111e+00	 1.259259e+00	 1.113122e+01
0	 3.111111e+00	 1.333333e+00	 1.113755e+01
0	 3.111111e+00	 1.407407e+00	 1.114319e+01
0	 3.111111e+00	 1.481481e+00	 1.114812e+01
0	 3.185185e+00	 1.111111e+00	 1.105883e+01
0	 3.185185e+00	 1.185185e+00	 1.107134e+01
0	 3.185185e+00	 1.259259e+00	 1.108244e+01
0	 3.185185e+00	 1.333333e+00	 1.109198e+01
0	 3.185185e+00	 1.407407e+00	 1.109981e+01
0	 3.185185e+00	 1.481481e+00	 1.110578e+01
0	 3.259259e+00	 1.111111e+00	 1.100438e+01
0	 3.259259e+00	 1.185185e+00	 1.102143e+01
0	 3.259259e+00	 1.259259e+00	 1.103597e+01
0	 3.259259e+00	 1.333333e+00	 1.104788e+01
0	 3.259259e+00	 1.407407e+00	 1.105704e+01
0	 3.259259e+00	 1.481481e+00	 1.106331e+01
0	 3.333333e+00	 1.111111e+00	 1.095535e+01
0	 3.333333e+00	 1.185185e+00	 1.097484e+01
0	 3.333333e+00	 1.259259e+00	 1.099092e+01
0	 3.333333e+00	 1.333333e+00	 1.100365e+01
0	 3.333333e+00	 1.407407e+00	 1.101309e+01
0	 3.333333e+00	 1.481481e+00	 1.101930e+01
0	 2.962963e+00	 1.481481e+00	 1.123821e+01
0	 2.962963e+00	 1.555556e+00	 1.123618e+01
0	 2.962963e+00	 1.629630e+00	 1.123074e+01
0	 2.962963e+00	 1.703704e+00	 1.122137e+01
0	 2.962963e+00	 1.777778e+00	 1.120755e+01
0	 2.962963e+00	 1.851852e+00	 1.118876e+01
0	 3.037037e+00	 1.481481e+00	 1.119179e+01
0	 3.037037e+00	 1.555556e+00	 1.119249e+01
0	 3.037037e+00	 1.629630e+00	 1.118870e+01
0	 3.037037e+00	 1.703704e+00	 1.118051e+01
0	 3.037037e+00	 1.777778e+00	 1.116798e+01
0	 3.037037e+00	 1.851852e+00	 1.115119e+01
0	 3.111111e+00	 1.481481e+00	 1.114812e+01
0	 3.111111e+00	 1.555556e+00	 1.115016e+01
0	 3.111111e+00	 1.629630e+00	 1.114740e+01
0	 3.111111e+00	 1.703704e+00	 1.114031e+01
0	 3.111111e+00	 1.777778e+00	 1.112935e+01
0	 3.111111e+00	 1.851852e+00	 1.111498e+01
0	 3.185185e+00	 1.481481e+00	 1.110578e+01
0	 3.185185e+00	 1.555556e+00	 1.110830e+01
0	 3.185185e+00	 1.629630e+00	 1.110632e+01
0	 3.185185e+00	 1.703704e+00	 1.110048e+01
0	 3.185185e+00	 1.777778e+00	 1.109141e+01
0	 3.185185e+00	 1.851852e+00	 1.107976e+01
0	 3.259259e+00	 1.481481e+00	 1.106331e+01
0	 3.259259e+00	 1.555556e+00	 1.106601e+01
0	 3.259259e+00	 1.629630e+00	 1.106494e+01
0	 3.259259e+00	 1.703704e+00	 1.106070e+01
0	 3.259259e+00	 1.777778e+00	 1.105391e+01
0	 3.259259e+00	 1.851852e+00	 1.104518e+01
0	 3.333333e+00	 1.481481e+00	 1.101930e+01
0	 3.333333e+00	 1.555556e+00	 1.102241e+01
0	 3.333333e+00	 1.629630e+00	 1.102274e+01
0	 3.333333e+00	 1.703704e+00	 1.102067e+01
0	 3.333333e+00	 1.777778e+00	 1.101658e+01
0	 3.333333e+00	 1.851852e+00	 1.101085e+01
0	 2.962963e+00	 1.851852e+00	 1.118876e+01
0	 2.962963e+00	 1.925926e+00	 1.116639e+01
0	 2.962963e+00	 2.000000e+00	 1.114221e+01
0	 2.962963e+00	 2.074074e+00	 1.111629e+01
0	 2.962963e+00	 2.148148e+00	 1.108872e+01
0	 2.962963e+00	 2.222222e+00	 1.105957e+01
0	 3.037037e+00	 1.851852e+00	 1.115119e+01
0	 3.037037e+00	 1.925926e+00	 1.113176e+01
0	 3.037037e+00	 2.000000e+00	 1.111113e+01
0	 3.037037e+00	 2.074074e+00	 1.108911e+01
0	 3.037037e+00	 2.148148e+00	 1.106548e+01
0	 3.037037e+00	 2.222222e+00	 1.104005e+01
0	 3.111111e+00	 1.851852e+00	 1.111498e+01
0	 3.111111e+00	 1.925926e+00	 1.109865e+01
0	 3.111111e+00	 2.000000e+00	 1.108129e+01
0	 3.111111e+00	 2.074074e+00	 1.106252e+01
0	 3.111111e+00	 2.148148e+00	 1.104197e+01
0	 3.111111e+00	 2.222222e+00	 1.101927e+01
0	 3.185185e+00	 1.851852e+00	 1.107976e+01
0	 3.185185e+00	 1.925926e+00	 1.106657e+01
0	 3.185185e+00	 2.000000e+00	 1.105216e+01
0	 3.185185e+00	 2.074074e+00	 1.103610e+01
0	 3.185185e+00	 2.148148e+00	 1.101796e+01
0	 3.185185e+00	 2.222222e+00	 1.099731e+01
0	 3.259259e+00	 1.851852e+00	 1.104518e+01
0	 3.259259e+00	 1.925926e+00	 1.103500e+01
0	 3.259259e+00	 2.000000e+00	 1.102320e+01
0	 3.259259e+00	 2.074074e+00	 1.100939e+01
0	 3.259259e+00	 2.148148e+00	 1.099319e+01
0	 3.259259e+00	 2.222222e+00	 1.097422e+01
0	 3.333333e+00	 1.851852e+00	 1.101085e+01
0	 3.333333e+00	 1.925926e+00	 1.100344e+01
0	 3.333333e+00	 2.000000e+00	 1.099388e+01
0	 3.333333e+00	 2.074074e+00	 1.098195e+01
0	 3.333333e+00	 2.148148e+00	 1.096743e+01
0	 3.333333e+00	 2.222222e+00	 1.095009e+01
0	 2.962963e+00	 2.222222e+00	 1.105957e+01
0	 2.962963e+00	 2.296296e+00	 1.102931e+01
0	 2.962963e+00	 2.370370e+00	 1.099815e+01
0	 2.962963e+00	 2.444444e+00	 1.096574e+01
0	 2.962963e+00	 2.518519e+00	 1.093176e+01
0	 2.962963e+00	 2.592593e+00	 1.089588e+01
0	 3.037037e+00	 2.222222e+00	 1.104005e+01
0	 3.037037e+00	 2.296296e+00	 1.101304e+01
0	 3.037037e+00	 2.370370e+00	 1.098469e+01
0	 3.037037e+00	 2.444444e+00	 1.095482e+01
0	 3.037037e+00	 2.518519e+00	 1.092327e+01
0	 3.037037e+00	 2.592593e+00	 1.088988e+01
0	 3.111111e+00	 2.222222e+00	 1.101927e+01
0	 3.111111e+00	 2.296296e+00	 1.099469e+01
0	 3.111111e+00	 2.370370e+00	 1.096868e+01
0	 3.111111e+00	 2.444444e+00	 1.094119e+01
0	 3.111111e+00	 2.518519e+00	 1.091216e+01
0	 3.111111e+00	 2.592593e+00	 1.088154e+01
0	 3.185185e+00	 2.222222e+00	 1.099731e+01
0	 3.185185e+00	 2.296296e+00	 1.097463e+01
0	 3.185185e+00	 2.370370e+00	 1.095069e+01
0	 3.185185e+00	 2.444444e+00	 1.092550e+01
0	 3.185185e+00	 2.518519e+00	 1.089904e+01
0	 3.185185e+00	 2.592593e+00	 1.087131e+01
0	 3.259259e+00	 2.222222e+00	 1.097422e+01
0	 3.259259e+00	 2.296296e+00	 1.095325e+01
0	 3.259259e+00	 2.370370e+00	 1.093131e+01
0	 3.259259e+00	 2.444444e+00	 1.090840e+01
0	 3.259259e+00	 2.518519e+00	 1.088452e+01
0	 3.259259e+00	 2.592593e+00	 1.085965e+01
0	 3.333333e+00	 2.222222e+00	 1.095009e+01
0	 3.333333e+00	 2.296296e+00	 1.093094e+01
0	 3.333333e+00	 2.370370e+00	 1.091112e+01
0	 3.333333e+00	 2.444444e+00	 1.089056e+01
0	 3.333333e+00	 2.518519e+00	 1.086920e+01
0	 3.333333e+00	 2.592593e+00	 1.084699e+01
0	 2.962963e+00	 2.592593e+00	 1.089588e+01
0	 2.962963e+00	 2.666667e+00	 1.085938e+01
0	 2.962963e+00	 2.740741e+00	 1.082372e+01
0	 2.962963e+00	 2.814815e+00	 1.078876e+01
0	 2.962963e+00	 2.888889e+00	 1.075439e+01
0	 2.962963e+00	 2.962963e+00	 1.072048e+01
0	 3.037037e+00	 2.592593e+00	 1.088988e+01
0	 3.037037e+00	 2.666667e+00	 1.085597e+01
0	 3.037037e+00	 2.740741e+00	 1.082288e+01
0	 3.037037e+00	 2.814815e+00	 1.079040e+01
0	 3.037037e+00	 2.888889e+00	 1.075835e+01
0	 3.037037e+00	 2.962963e+00	 1.072654e+01
0	 3.111111e+00	 2.592593e+00	 1.088154e+01
0	 3.111111e+00	 2.666667e+00	 1.085047e+01
0	 3.111111e+00	 2.740741e+00	 1.082002e+01
0	 3.111111e+00	 2.814815e+00	 1.078993e+01
0	 3.111111e+00	 2.888889e+00	 1.075999e+01
0	 3.111111e+00	 2.962963e+00	 1.072994e+01
0	 3.185185e+00	 2.592593e+00	 1.087131e+01
0	 3.185185e+00	 2.666667e+00	 1.084317e+01
0	 3.185185e+00	 2.740741e+00	 1.081530e+01
0	 3.185185e+00	 2.814815e+00	 1.078747e+01
0	 3.185185e+00	 2.888889e+00	 1.075944e+01
0	 3.185185e+00	 2.962963e+00	 1.073096e+01
0	 3.259259e+00	 2.592593e+00	 1.085965e+01
0	 3.259259e+00	 2.666667e+00	 1.083431e+01
0	 3.259259e+00	 2.740741e+00	 1.080888e+01
0	 3.259259e+00	 2.814815e+00	 1.078314e+01
0	 3.259259e+00	 2.888889e+00	 1.075687e+01
0	 3.259259e+00	 2.962963e+00	 1.072985e+01
0	 3.333333e+00	 2.592593e+00	 1.084699e+01
0	 3.333333e+00	 2.666667e+00	 1.082418e+01
0	 3.333333e+00	 2.740741e+00	 1.080092e+01
0	 3.333333e+00	 2.814815e+00	 1.077706e+01
0	 3.333333e+00	 2.888889e+00	 1.075243e+01
0	 3.333333e+00	 2.962963e+00	 1.072688e+01
0	 2.962963e+00	 2.962963e+00	 1.072048e+01
0	 2.962963e+00	 3.037037e+00	 1.068719e+01
0	 2.962963e+00	 3.111111e+00	 1.065466e+01
0	 2.962963e+00	 3.185185e+00	 1.062274e+01
0	 2.962963e+00	 3.259259e+00	 1.059128e+01
0	 2.962963e+00	 3.333333e+00	 1.056016e+01
0	 3.037037e+00	 2.962963e+00	 1.072654e+01
0	 3.037037e+00	 3.037037e+00	 1.069506e+01
0	 3.037037e+00	 3.111111e+00	 1.066406e+01
0	 3.037037e+00	 3.185185e+00	 1.063347e+01
0	 3.037037e+00	 3.259259e+00	 1.060319e+01
0	 3.037037e+00	 3.333333e+00	 1.057313e+01
0	 3.111111e+00	 2.962963e+00	 1.072994e+01
0	 3.111111e+00	 3.037037e+00	 1.069999e+01
0	 3.111111e+00	 3.111111e+00	 1.067042e+01
0	 3.111111e+00	 3.185185e+00	 1.064117e+01
0	 3.111111e+00	 3.259259e+00	 1.061220e+01
0	 3.111111e+00	 3.333333e+00	 1.058344e+01
0	 3.185185e+00	 2.962963e+00	 1.073096e+01
0	 3.185185e+00	 3.037037e+00	 1.070237e+01
0	 3.185185e+00	 3.111111e+00	 1.067417e+01
0	 3.185185e+00	 3.185185e+00	 1.064631e+01
0	 3.185185e+00	 3.259259e+00	 1.061873e+01
0	 3.185185e+00	 3.333333e+00	 1.059141e+01
0	 3.259259e+00	 2.962963e+00	 1.072985e+01
0	 3.259259e+00	 3.037037e+00	 1.070260e+01
0	 3.259259e+00	 3.111111e+00	 1.067579e+01
0	 3.259259e+00	 3.185185e+00	 1.064935e+01
0	 3.259259e+00	 3.259259e+00	 1.062323e+01
0	 3.259259e+00	 3.333333e+00	 1.059739e+01
0	 3.333333e+00	 2.962963e+00	 1.072688e+01
0	 3.333333e+00	 3.037037e+00	 1.070107e+01
0	 3.333333e+00	 3.111111e+00	 1.067572e+01
0	 3.333333e+00	 3.185185e+00	 1.065076e+01
0	 3.333333e+00	 3.259259e+00	 1.062612e+01
0	 3.333333e+00	 3.333333e+00	 1.060172e+01
0	 2.962963e+00	 3.333333e+00	 1.056016e+01
0	 2.962963e+00	 3.407407e+00	 1.052980e+01
0	 2.962963e+00	 3.481481e+00	 1.050072e+01
0	 2.962963e+00	 3.555556e+00	 1.047285e+01
0	 2.962963e+00	 3.629630e+00	 1.044615e+01
0	 2.962963e+00	 3.703704e+00	 1.042057e+01
0	 3.037037e+00	 3.333333e+00	 1.057313e+01
0	 3.037037e+00	 3.407407e+00	 1.054379e+01
0	 3.037037e+00	 3.481481e+00	 1.051567e+01
0	 3.037037e+00	 3.555556e+00	 1.048868e+01
0	 3.037037e+00	 3.629630e+00	 1.046275e+01
0	 3.037037e+00	 3.703704e+00	 1.043779e+01
0	 3.111111e+00	 3.333333e+00	 1.058344e+01
0	 3.111111e+00	 3.407407e+00	 1.055533e+01
0	 3.111111e+00	 3.481481e+00	 1.052831e+01
0	 3.111111e+00	 3.555556e+00	 1.050228e+01
0	 3.111111e+00	 3.629630e+00	 1.047713e+01
0	 3.111111e+00	 3.703704e+00	 1.045276e+01
0	 3.185185e+00	 3.333333e+00	 1.059141e+01
0	 3.185185e+00	 3.407407e+00	 1.056467e+01
0	 3.185185e+00	 3.481481e+00	 1.053883e+01
0	 3.185185e+00	 3.555556e+00	 1.051378e+01
0	 3.185185e+00	 3.629630e+00	 1.048942e+01
0	 3.185185e+00	 3.703704e+00	 1.046563e+01
0	 3.259259e+00	 3.333333e+00	 1.059739e+01
0	 3.259259e+00	 3.407407e+00	 1.057204e+01
0	 3.259259e+00	 3.481481e+00	 1.054738e+01
0	 3.259259e+00	 3.555556e+00	 1.052332e+01
0	 3.259259e+00	 3.629630e+00	 1.049975e+01
0	 3.259259e+00	 3.703704e+00	 1.047657e+01
0	 3.333333e+00	 3.333333e+00	 1.060172e+01
0	 3.333333e+00	 3.407407e+00	 1.057768e+01
0	 3.333333e+00	 3.481481e+00	 1.055415e+01
0	 3.333333e+00	 3.555556e+00	 1.053103e+01
0	 3.333333e+00	 3.629630e+00	 1.050825e+01
0	 3.333333e+00	 3.703704e+00	 1.048573e+01
0	 2.962963e+00	 3.703704e+00	 1.042057e+01
0	 2.962963e+00	 3.777778e+00	 1.039605e+01
0	 2.962963e+00	 3.851852e+00	 1.037251e+01
0	 2.962963e+00	 3.925926e+00	 1.034993e+01
0	 2.962963e+00	 4.000000e+00	 1.032827e+01
0	 2.962963e+00	 4.074074e+00	 1.030749e+01
0	 3.037037e+00	 3.703704e+00	 1.043779e+01
0	 3.037037e+00	 3.777778e+00	 1.041374e+01
0	 3.037037e+00	 3.851852e+00	 1.039057e+01
0	 3.037037e+00	 3.925926e+00	 1.036825e+01
0	 3.037037e+00	 4.000000e+00	 1.034676e+01
0	 3.037037e+00	 4.074074e+00	 1.032609e+01
0	 3.111111e+00	 3.703704e+00	 1.045276e+01
0	 3.111111e+00	 3.777778e+00	 1.042916e+01
0	 3.111111e+00	 3.851852e+00	 1.040638e+01
0	 3.111111e+00	 3.925926e+00	 1.038440e+01
0	 3.111111e+00	 4.000000e+00	 1.036320e+01
0	 3.111111e+00	 4.074074e+00	 1.034278e+01
0	 3.185185e+00	 3.703704e+00	 1.046563e+01
0	 3.185185e+00	 3.777778e+00	 1.044250e+01
0	 3.185185e+00	 3.851852e+00	 1.042016e+01
0	 3.185185e+00	 3.925926e+00	 1.039858e+01
0	 3.185185e+00	 4.000000e+00	 1.037777e+01
0	 3.185185e+00	 4.074074e+00	 1.035770e+01
0	 3.259259e+00	 3.703704e+00	 1.047657e+01
0	 3.259259e+00	 3.777778e+00	 1.045395e+01
0	 3.259259e+00	 3.851852e+00	 1.043211e+01
0	 3.259259e+00	 3.925926e+00	 1.041101e+01
0	 3.259259e+00	 4.000000e+00	 1.039065e+01
0	 3.259259e+00	 4.074074e+00	 1.037101e+01
0	 3.333333e+00	 3.703704e+00	 1.048573e+01
0	 3.333333e+00	 3.777778e+00	 1.046371e+01
0	 3.333333e+00	 3.851852e+00	 1.044244e+01
0	 3.333333e+00	 3.925926e+00	 1.042190e+01
0	 3.333333e+00	 4.000000e+00	 1.040205e+01
0	 3.333333e+00	 4.074074e+00	 1.038286e+01
0	 2.962963e+00	 4.074074e+00	 1.030749e+01
0	 2.962963e+00	 4.148148e+00	 1.028764e+01
0	 2.962963e+00	 4.222222e+00	 1.026877e+01
0	 2.962963e+00	 4.296296e+00	 1.025087e+01
0	 2.962963e+00	 4.370370e+00	 1.023395e+01
0	 2.962963e+00	 4.444444e+00	 1.021800e+01
0	 3.037037e+00	 4.074074e+00	 1.032609e+01
0	 3.037037e+00	 4.148148e+00	 1.030631e+01
0	 3.037037e+00	 4.222222e+00	 1.028748e+01
0	 3.037037e+00	 4.296296e+00	 1.026959e+01
0	 3.037037e+00	 4.370370e+00	 1.025262e+01
0	 3.037037e+00	 4.444444e+00	 1.023655e+01
0	 3.111111e+00	 4.074074e+00	 1.034278e+01
0	 3.111111e+00	 4.148148e+00	 1.032320e+01
0	 3.111111e+00	 4.222222e+00	 1.030452e+01
0	 3.111111e+00	 4.296296e+00	 1.028672e+01
0	 3.111111e+00	 4.370370e+00	 1.026976e+01
0	 3.111111e+00	 4.444444e+00	 1.025363e+01
0	 3.185185e+00	 4.074074e+00	 1.035770e+01
0	 3.185185e+00	 4.148148e+00	 1.033842e+01
0	 3.185185e+00	 4.222222e+00	 1.031997e+01
0	 3.185185e+00	 4.296296e+00	 1.030232e+01
0	 3.185185e+00	 4.370370e+00	 1.028543e+01
0	 3.185185e+00	 4.444444e+00	 1.026928e+01
0	 3.259259e+00	 4.074074e+00	 1.037101e+01
0	 3.259259e+00	 4.148148e+00	 1.035209e+01
0	 3.259259e+00	 4.222222e+00	 1.033392e+01
0	 3.259259e+00	 4.296296e+00	 1.031646e+01
0	 3.259259e+00	 4.370370e+00	 1.029968e+01
0	 3.259259e+00	 4.444444e+00	 1.028356e+01
0	 3.333333e+00	 4.074074e+00	 1.038286e+01
0	 3.333333e+00	 4.148148e+00	 1.036433e+01
0	 3.333333e+00	 4.222222e+00	 1.034645e+01
0	 3.333333e+00	 4.296296e+00	 1.032921e+01
0	 3.333333e+00	 4.370370e+00	 1.031258e+01
0	 3.333333e+00	 4.444444e+00	 1.029653e+01
0	 2.962963e+00	 4.444444e+00	 1.021800e+01
0	 2.962963e+00	 4.518519e+00	 1.020290e+01
0	 2.962963e+00	 4.592593e+00	 1.018855e+01
0	 2.962963e+00	 4.666667e+00	 1.017495e+01
0	 2.962963e+00	 4.740741e+00	 1.016210e+01
0	 2.962963e+00	 4.814815e+00	 1.015000e+01
0	 3.037037e+00	 4.444444e+00	 1.023655e+01
0	 3.037037e+00	 4.518519e+00	 1.022129e+01
0	 3.037037e+00	 4.592593e+00	 1.020673e+01
0	 3.037037e+00	 4.666667e+00	 1.019290e+01
0	 3.037037e+00	 4.740741e+00	 1.017978e+01
0	 3.037037e+00	 4.814815e+00	 1.016740e+01
0	 3.111111e+00	 4.444444e+00	 1.025363e+01
0	 3.111111e+00	 4.518519e+00	 1.023824e+01
0	 3.111111e+00	 4.592593e+00	 1.022354e+01
0	 3.111111e+00	 4.666667e+00	 1.020953e+01
0	 3.111111e+00	 4.740741e+00	 1.019623e+01
0	 3.111111e+00	 4.814815e+00	 1.018363e+01
0	 3.185185e+00	 4.444444e+00	 1.026928e+01
0	 3.185185e+00	 4.518519e+00	 1.025381e+01
0	 3.185185e+00	 4.592593e+00	 1.023902e+01
0	 3.185185e+00	 4.666667e+00	 1.022491e+01
0	 3.185185e+00	 4.740741e+00	 1.021148e+01
0	 3.185185e+00	 4.814815e+00	 1.019874e+01
0	 3.259259e+00	 4.444444e+00	 1.028356e+01
0	 3.259259e+00	 4.518519e+00	 1.026808e+01
0	 3.259259e+00	 4.592593e+00	 1.025326e+01
0	 3.259259e+00	 4.666667e+00	 1.023910e+01
0	 3.259259e+00	 4.740741e+00	 1.022560e+01
0	 3.259259e+00	 4.814815e+00	 1.021277e+01
0	 3.333333e+00	 4.444444e+00	 1.029653e+01
0	 3.333333e+00	 4.518519e+00	 1.028110e+01
0	 3.333333e+00	 4.592593e+00	 1.026631e+01
0	 3.333333e+00	 4.666667e+00	 1.025216e+01
0	 3.333333e+00	 4.740741e+00	 1.023865e+01
0	 3.333333e+00	 4.814815e+00	 1.022577e+01
0	 2.962963e+00	 4.814815e+00	 1.015000e+01
0	 2.962963e+00	 4.888889e+00	 1.013859e+01
0	 2.962963e+00	 4.962963e+00	 1.012781e+01
0	 2.962963e+00	 5.037037e+00	 1.011767e+01
0	 2.962963e+00	 5.111111e+00	 1.010817e+01
0	 2.962963e+00	 5.185185e+00	 1.009932e+01
0	 3.037037e+00	 4.814815e+00	 1.016740e+01
0	 3.037037e+00	 4.888889e+00	 1.015568e+01
0	 3.037037e+00	 4.962963e+00	 1.014460e+01
0	 3.037037e+00	 5.037037e+00	 1.013413e+01
0	 3.037037e+00	 5.111111e+00	 1.012429e+01
0	 3.037037e+00	 5.185185e+00	 1.011509e+01
0	 3.111111e+00	 4.814815e+00	 1.018363e+01
0	 3.111111e+00	 4.888889e+00	 1.017169e+01
0	 3.111111e+00	 4.962963e+00	 1.016035e+01
0	 3.111111e+00	 5.037037e+00	 1.014962e+01
0	 3.111111e+00	 5.111111e+00	 1.013950e+01
0	 3.111111e+00	 5.185185e+00	 1.012998e+01
0	 3.185185e+00	 4.814815e+00	 1.019874e+01
0	 3.185185e+00	 4.888889e+00	 1.018663e+01
0	 3.185185e+00	 4.962963e+00	 1.017510e+01
0	 3.185185e+00	 5.037037e+00	 1.016416e+01
0	 3.185185e+00	 5.111111e+00	 1.015380e+01
0	 3.185185e+00	 5.185185e+00	 1.014401e+01
0	 3.259259e+00	 4.814815e+00	 1.021277e+01
0	 3.259259e+00	 4.888889e+00	 1.020054e+01
0	 3.259259e+00	 4.962963e+00	 1.018887e+01
0	 3.259259e+00	 5.037037e+00	 1.017776e+01
0	 3.259259e+00	 5.111111e+00	 1.016720e+01
0	 3.259259e+00	 5.185185e+00	 1.015718e+01
0	 3.333333e+00	 4.814815e+00	 1.022577e+01
0	 3.333333e+00	 4.888889e+00	 1.021346e+01
0	 3.333333e+00	 4.962963e+00	 1.020168e+01
0	 3.333333e+00	 5.037037e+00	 1.019043e+01
0	 3.333333e+00	 5.111111e+00	 1.017971e+01
0	 3.333333e+00	 5.185185e+00	 1.016951e+01
0	 2.962963e+00	 5.185185e+00	 1.009932e+01
0	 2.962963e+00	 5.259259e+00	 1.009103e+01
0	 2.962963e+00	 5.333333e+00	 1.008322e+01
0	 2.962963e+00	 5.407407e+00	 1.007589e+01
0	 2.962963e+00	 5.481481e+00	 1.006905e+01
0	 2.962963e+00	 5.555556e+00	 1.006271e+01
0	 3.037037e+00	 5.185185e+00	 1.011509e+01
0	 3.037037e+00	 5.259259e+00	 1.010643e+01
0	 3.037037e+00	 5.333333e+00	 1.009824e+01
0	 3.037037e+00	 5.407407e+00	 1.009053e+01
0	 3.037037e+00	 5.481481e+00	 1.008331e+01
0	 3.037037e+00	 5.555556e+00	 1.007658e+01
0	 3.111111e+00	 5.185185e+00	 1.012998e+01
0	 3.111111e+00	 5.259259e+00	 1.012100e+01
0	 3.111111e+00	 5.333333e+00	 1.011248e+01
0	 3.111111e+00	 5.407407e+00	 1.010443e+01
0	 3.111111e+00	 5.481481e+00	 1.009687e+01
0	 3.111111e+00	 5.555556e+00	 1.008980e+01
0	 3.185185e+00	 5.185185e+00	 1.014401e+01
0	 3.185185e+00	 5.259259e+00	 1.013474e+01
0	 3.185185e+00	 5.333333e+00	 1.012593e+01
0	 3.185185e+00	 5.407407e+00	 1.011759e+01
0	 3.185185e+00	 5.481481e+00	 1.010973e+01
0	 3.185185e+00	 5.555556e+00	 1.010235e+01
0	 3.259259e+00	 5.185185e+00	 1.015718e+01
0	 3.259259e+00	 5.259259e+00	 1.014767e+01
0	 3.259259e+00	 5.333333e+00	 1.013861e+01
0	 3.259259e+00	 5.407407e+00	 1.013002e+01
0	 3.259259e+00	 5.481481e+00	 1.012190e+01
0	 3.259259e+00	 5.555556e+00	 1.011425e+01
0	 3.333333e+00	 5.185185e+00	 1.016951e+01
0	 3.333333e+00	 5.259259e+00	 1.015979e+01
0	 3.333333e+00	 5.333333e+00	 1.015053e+01
0	 3.333333e+00	 5.407407e+00	 1.014172e+01
0	 3.333333e+00	 5.481481e+00	 1.013338e+01
0	 3.333333e+00	 5.555556e+00	 1.012549e+01
0	 2.962963e+00	 5.555556e+00	 1.006271e+01
0	 2.962963e+00	 5.629630e+00	 1.005680e+01
0	 2.962963e+00	 5.703704e+00	 1.005127e+01
0	 2.962963e+00	 5.777778e+00	 1.004611e+01
0	 2.962963e+00	 5.851852e+00	 1.004133e+01
0	 2.962963e+00	 5.925926e+00	 1.003695e+01
0	 3.037037e+00	 5.555556e+00	 1.007658e+01
0	 3.037037e+00	 5.629630e+00	 1.007029e+01
0	 3.037037e+00	 5.703704e+00	 1.006437e+01
0	 3.037037e+00	 5.777778e+00	 1.005883e+01
0	 3.037037e+00	 5.851852e+00	 1.005367e+01
0	 3.037037e+00	 5.925926e+00	 1.004890e+01
0	 3.111111e+00	 5.555556e+00	 1.008980e+01
0	 3.111111e+00	 5.629630e+00	 1.008316e+01
0	 3.111111e+00	 5.703704e+00	 1.007689e+01
0	 3.111111e+00	 5.777778e+00	 1.007100e+01
0	 3.111111e+00	 5.851852e+00	 1.006549e+01
0	 3.111111e+00	 5.925926e+00	 1.006037e+01
0	 3.185185e+00	 5.555556e+00	 1.010235e+01
0	 3.185185e+00	 5.629630e+00	 1.009540e+01
0	 3.185185e+00	 5.703704e+00	 1.008882e+01
0	 3.185185e+00	 5.777778e+00	 1.008261e+01
0	 3.185185e+00	 5.851852e+00	 1.007678e+01
0	 3.185185e+00	 5.925926e+00	 1.007134e+01
0	 3.259259e+00	 5.555556e+00	 1.011425e+01
0	 3.259259e+00	 5.629630e+00	 1.010702e+01
0	 3.259259e+00	 5.703704e+00	 1.010016e+01
0	 3.259259e+00	 5.777778e+00	 1.009366e+01
0	 3.259259e+00	 5.851852e+00	 1.008754e+01
0	 3.259259e+00	 5.925926e+00	 1.008180e+01
0	 3.333333e+00	 5.555556e+00	 1.012549e+01
0	 3.333333e+00	 5.629630e+00	 1.011802e+01
0	 3.333333e+00	 5.703704e+00	 1.011090e+01
0	 3.333333e+00	 5.777778e+00	 1.010415e+01
0	 3.333333e+00	 5.851852e+00	 1.009776e+01
0	 3.333333e+00	 5.925926e+00	 1.009175e+01
0	 2.962963e+00	 5.925926e+00	 1.003695e+01
0	 2.962963e+00	 6.000000e+00	 1.003290e+01
0	 2.962963e+00	 6.074074e+00	 1.002912e+01
0	 2.962963e+00	 6.148148e+00	 1.002562e+01
0	 2.962963e+00	 6.222222e+00	 1.002241e+01
0	 2.962963e+00	 6.296296e+00	 1.001950e+01
0	 3.037037e+00	 5.925926e+00	 1.004890e+01
0	 3.037037e+00	 6.000000e+00	 1.004447e+01
0	 3.037037e+00	 6.074074e+00	 1.004031e+01
0	 3.037037e+00	 6.148148e+00	 1.003645e+01
0	 3.037037e+00	 6.222222e+00	 1.003287e+01
0	 3.037037e+00	 6.296296e+00	 1.002959e+01
0	 3.111111e+00	 5.925926e+00	 1.006037e+01
0	 3.111111e+00	 6.000000e+00	 1.005558e+01
0	 3.111111e+00	 6.074074e+00	 1.005108e+01
0	 3.111111e+00	 6.148148e+00	 1.004686e+01
0	 3.111111e+00	 6.222222e+00	 1.004294e+01
0	 3.111111e+00	 6.296296e+00	 1.003932e+01
0	 3.185185e+00	 5.925926e+00	 1.007134e+01
0	 3.185185e+00	 6.000000e+00	 1.006623e+01
0	 3.185185e+00	 6.074074e+00	 1.006140e+01
0	 3.185185e+00	 6.148148e+00	 1.005686e+01
0	 3.185185e+00	 6.222222e+00	 1.005262e+01
0	 3.185185e+00	 6.296296e+00	 1.004868e+01
0	 3.259259e+00	 5.925926e+00	 1.008180e+01
0	 3.259259e+00	 6.000000e+00	 1.007639e+01
0	 3.259259e+00	 6.074074e+00	 1.007126e+01
0	 3.259259e+00	 6.148148e+00	 1.006643e+01
0	 3.259259e+00	 6.222222e+00	 1.006189e+01
0	 3.259259e+00	 6.296296e+00	 1.005766e+01
0	 3.333333e+00	 5.925926e+00	 1.009175e+01
0	 3.333333e+00	 6.000000e+00	 1.008606e+01
0	 3.333333e+00	 6.074074e+00	 1.008066e+01
0	 3.333333e+00	 6.148148e+00	 1.007556e+01
0	 3.333333e+00	 6.222222e+00	 1.007075e+01
0	 3.333333e+00	 6.296296e+00	 1.006624e+01
0	 2.962963e+00	 6.296296e+00	 1.001950e+01
0	 2.962963e+00	 6.370370e+00	 1.001684e+01
0	 2.962963e+00	 6.444444e+00	 1.001438e+01
0	 2.962963e+00	 6.518519e+00	 1.001213e+01
0	 2.962963e+00	 6.592593e+00	 1.001009e+01
0	 2.962963e+00	 6.666667e+00	 1.000827e+01
0	 3.037037e+00	 6.296296e+00	 1.002959e+01
0	 3.037037e+00	 6.370370e+00	 1.002657e+01
0	 3.037037e+00	 6.444444e+00	 1.002376e+01
0	 3.037037e+00	 6.518519e+00	 1.002116e+01
0	 3.037037e+00	 6.592593e+00	 1.001878e+01
0	 3.037037e+00	 6.666667e+00	 1.001662e+01
0	 3.111111e+00	 6.296296e+00	 1.003932e+01
0	 3.111111e+00	 6.370370e+00	 1.003597e+01
0	 3.111111e+00	 6.444444e+00	 1.003282e+01
0	 3.111111e+00	 6.518519e+00	 1.002989e+01
0	 3.111111e+00	 6.592593e+00	 1.002718e+01
0	 3.111111e+00	 6.666667e+00	 1.002471e+01
0	 3.185185e+00	 6.296296e+00	 1.004868e+01
0	 3.185185e+00	 6.370370e+00	 1.004501e+01
0	 3.185185e+00	 6.444444e+00	 1.004155e+01
0	 3.185185e+00	 6.518519e+00	 1.003831e+01
0	 3.185185e+00	 6.592593e+00	 1.003530e+01
0	 3.185185e+00	 6.666667e+00	 1.003252e+01
0	 3.259259e+00	 6.296296e+00	 1.005766e+01
0	 3.259259e+00	 6.370370e+00	 1.005369e+01
0	 3.259259e+00	 6.444444e+00	 1.004994e+01
0	 3.259259e+00	 6.518519e+00	 1.004641e+01
0	 3.259259e+00	 6.592593e+00	 1.004311e+01
0	 3.259259e+00	 6.666667e+00	 1.004004e+01
0	 3.333333e+00	 6.296296e+00	 1.006624e+01
0	 3.333333e+00	 6.370370e+00	 1.006199e+01
0	 3.333333e+00	 6.444444e+00	 1.005797e+01
0	 3.333333e+00	 6.518519e+00	 1.005417e+01
0	 3.333333e+00	 6.592593e+00	 1.005060e+01
0	 3.333333e+00	 6.666667e+00	 1.004726e+01
0	 2.962963e+00	 6.666667e+00	 1.000827e+01
0	 2.962963e+00	 6.740741e+00	 1.000663e+01
0	 2.962963e+00	 6.814815e+00	 1.000514e+01
0	 2.962963e+00	 6.888889e+00	 1.000379e+01
0	 2.962963e+00	 6.962963e+00	 1.000260e+01
0	 2.962963e+00	 7.037037e+00	 1.000157e+01
0	 3.037037e+00	 6.666667e+00	 1.001662e+01
0	 3.037037e+00	 6.740741e+00	 1.001465e+01
0	 3.037037e+00	 6.814815e+00	 1.001283e+01
0	 3.037037e+00	 6.888889e+00	 1.001117e+01
0	 3.037037e+00	 6.962963e+00	 1.000967e+01
0	 3.037037e+00	 7.037037e+00	 1.000833e+01
0	 3.111111e+00	 6.666667e+00	 1.002471e+01
0	 3.111111e+00	 6.740741e+00	 1.002242e+01
0	 3.111111e+00	 6.814815e+00	 1.002030e+01
0	 3.111111e+00	 6.888889e+00	 1.001833e+01
0	 3.111111e+00	 6.962963e+00	 1.001653e+01
0	 3.111111e+00	 7.037037e+00	 1.001490e+01
0	 3.185185e+00	 6.666667e+00	 1.003252e+01
0	 3.185185e+00	 6.740741e+00	 1.002994e+01
0	 3.185185e+00	 6.814815e+00	 1.002752e+01
0	 3.185185e+00	 6.888889e+00	 1.002526e+01
0	 3.185185e+00	 6.962963e+00	 1.002317e+01
0	 3.185185e+00	 7.037037e+00	 1.002126e+01
0	 3.259259e+00	 6.666667e+00	 1.004004e+01
0	 3.259259e+00	 6.740741e+00	 1.003718e+01
0	 3.259259e+00	 6.814815e+00	 1.003448e+01
0	 3.259259e+00	 6.888889e+00	 1.003195e+01
0	 3.259259e+00	 6.962963e+00	 1.002959e+01
0	 3.259259e+00	 7.037037e+00	 1.002741e+01
0	 3.333333e+00	 6.666667e+00	 1.004726e+01
0	 3.333333e+00	 6.740741e+00	 1.004413e+01
0	 3.333333e+00	 6.814815e+00	 1.004117e+01
0	 3.333333e+00	 6.888889e+00	 1.003838e+01
0	 3.333333e+00	 6.962963e+00	 1.003577e+01
0	 3.333333e+00	 7.037037e+00	 1.003334e+01
0	 2.962963e+00	 7.037037e+00	 1.000157e+01
0	 2.962963e+00	 7.111111e+00	 1.000067e+01
0	 2.962963e+00	 7.185185e+00	 9.999869e+00
0	 2.962963e+00	 7.259259e+00	 9.999169e+00
0	 2.962963e+00	 7.333333e+00	 9.998576e+00
0	 2.962963e+00	 7.407407e+00	 9.998095e+00
0	 3.037037e+00	 7.037037e+00	 1.000833e+01
0	 3.037037e+00	 7.111111e+00	 1.000713e+01
0	 3.037037e+00	 7.185185e+00	 1.000603e+01
0	 3.037037e+00	 7.259259e+00	 1.000505e+01
0	 3.037037e+00	 7.333333e+00	 1.000417e+01
0	 3.037037e+00	 7.407407e+00	 1.000342e+01
0	 3.111111e+00	 7.037037e+00	 1.001490e+01
0	 3.111111e+00	 7.111111e+00	 1.001341e+01
0	 3.111111e+00	 7.185185e+00	 1.001203e+01
0	 3.111111e+00	 7.259259e+00	 1.001077e+01
0	 3.111111e+00	 7.333333e+00	 1.000962e+01
0	 3.111111e+00	 7.407407e+00	 1.000860e+01
0	 3.185185e+00	 7.037037e+00	 1.002126e+01
0	 3.185185e+00	 7.111111e+00	 1.001950e+01
0	 3.185185e+00	 7.185185e+00	 1.001785e+01
0	 3.185185e+00	 7.259259e+00	 1.001632e+01
0	 3.185185e+00	 7.333333e+00	 1.001492e+01
0	 3.185185e+00	 7.407407e+00	 1.001364e+01
0	 3.259259e+00	 7.037037e+00	 1.002741e+01
0	 3.259259e+00	 7.111111e+00	 1.002539e+01
0	 3.259259e+00	 7.185185e+00	 1.002348e+01
0	 3.259259e+00	 7.259259e+00	 1.002170e+01
0	 3.259259e+00	 7.333333e+00	 1.002005e+01
0	 3.259259e+00	 7.407407e+00	 1.001853e+01
0	 3.333333e+00	 7.037037e+00	 1.003334e+01
0	 3.333333e+00	 7.111111e+00	 1.003106e+01
0	 3.333333e+00	 7.185185e+00	 1.002891e+01
0	 3.333333e+00	 7.259259e+00	 1.002688e+01
0	 3.333333e+00	 7.333333e+00	 1.002499e+01
0	 3.333333e+00	 7.407407e+00	 1.002324e+01
0	 2.962963e+00	 7.407407e+00	 9.998095e+00
0	 2.962963e+00	 7.481481e+00	 9.997702e+00
0	 2.962963e+00	 7.555556e+00	 9.997370e+00
0	 2.962963e+00	 7.629630e+00	 9.997105e+00
0	 2.962963e+00	 7.703704e+00	 9.996910e+00
0	 2.962963e+00	 7.777778e+00	 9.996790e+00
0	 3.037037e+00	 7.407407e+00	 1.000342e+01
0	 3.037037e+00	 7.481481e+00	 1.000276e+01
0	 3.037037e+00	 7.555556e+00	 1.000216e+01
0	 3.037037e+00	 7.629630e+00	 1.000164e+01
0	 3.037037e+00	 7.703704e+00	 1.000120e+01
0	 3.037037e+00	 7.777778e+00	 1.000083e+01
0	 3.111111e+00	 7.407407e+00	 1.000860e+01
0	 3.111111e+00	 7.481481e+00	 1.000768e+01
0	 3.111111e+00	 7.555556e+00	 1.000684e+01
0	 3.111111e+00	 7.629630e+00	 1.000607e+01
0	 3.111111e+00	 7.703704e+00	 1.000538e+01
0	 3.111111e+00	 7.777778e+00	 1.000478e+01
0	 3.185185e+00	 7.407407e+00	 1.001364e+01
0	 3.185185e+00	 7.481481e+00	 1.001247e+01
0	 3.185185e+00	 7.555556e+00	 1.001138e+01
0	 3.185185e+00	 7.629630e+00	 1.001038e+01
0	 3.185185e+00	 7.703704e+00	 1.000946e+01
0	 3.185185e+00	 7.777778e+00	 1.000863e+01
0	 3.259259e+00	 7.407407e+00	 1.001853e+01
0	 3.259259e+00	 7.481481e+00	 1.001712e+01
0	 3.259259e+00	 7.555556e+00	 1.001579e+01
0	 3.259259e+00	 7.629630e+00	 1.001455e+01
0	 3.259259e+00	 7.703704e+00	 1.001341e+01
0	 3.259259e+00	 7.777778e+00	 1.001236e+01
0	 3.333333e+00	 7.407407e+00	 1.002324e+01
0	 3.333333e+00	 7.481481e+00	 1.002160e+01
0	 3.333333e+00	 7.555556e+00	 1.002005e+01
0	 3.333333e+00	 7.629630e+00	 1.001859e+01
0	 3.333333e+00	 7.703704e+00	 1.001723e+01
0	 3.333333e+00	 7.777778e+00	 1.001597e+01
0	 2.962963e+00	 7.777778e+00	 9.996790e+00
0	 2.962963e+00	 7.851852e+00	 9.996725e+00
0	 2.962963e+00	 7.925926e+00	 9.996694e+00
0	 2.962963e+00	 8.000000e+00	 9.996700e+00
0	 2.962963e+00	 8.074074e+00	 9.996747e+00
0	 2.962963e+00	 8.148148e+00	 9.996838e+00
0	 3.037037e+00	 7.777778e+00	 1.000083e+01
0	 3.037037e+00	 7.851852e+00	 1.000053e+01
0	 3.037037e+00	 7.925926e+00	 1.000027e+01
0	 3.037037e+00	 8.000000e+00	 1.000005e+01
0	 3.037037e+00	 8.074074e+00	 9.999882e+00
0	 3.037037e+00	 8.148148e+00	 9.999761e+00
0	 3.111111e+00	 7.777778e+00	 1.000478e+01
0	 3.111111e+00	 7.851852e+00	 1.000425e+01
0	 3.111111e+00	 7.925926e+00	 1.000377e+01
0	 3.111111e+00	 8.000000e+00	 1.000333e+01
0	 3.111111e+00	 8.074074e+00	 1.000295e+01
0	 3.111111e+00	 8.148148e+00	 1.000262e+01
0	 3.185185e+00	 7.777778e+00	 1.000863e+01
0	 3.185185e+00	 7.851852e+00	 1.000788e+01
0	 3.185185e+00	 7.925926e+00	 1.000717e+01
0	 3.185185e+00	 8.000000e+00	 1.000653e+01
0	 3.185185e+00	 8.074074e+00	 1.000594e+01
0	 3.185185e+00	 8.148148e+00	 1.000541e+01
0	 3.259259e+00	 7.777778e+00	 1.001236e+01
0	 3.259259e+00	 7.851852e+00	 1.001139e+01
0	 3.259259e+00	 7.925926e+00	 1.001048e+01
0	 3.259259e+00	 8.000000e+00	 1.000963e+01
0	 3.259259e+00	 8.074074e+00	 1.000884e+01
0	 3.259259e+00	 8.148148e+00	 1.000812e+01
0	 3.333333e+00	 7.777778e+00	 1.001597e+01
0	 3.333333e+00	 7.851852e+00	 1.001479e+01
0	 3.333333e+00	 7.925926e+00	 1.001368e+01
0	 3.333333e+00	 8.000000e+00	 1.001263e+01
0	 3.333333e+00	 8.074074e+00	 1.001165e+01
0	 3.333333e+00	 8.148148e+00	 1.001074e+01
0	 2.962963e+00	 8.148148e+00	 9.996838e+00
0	 2.962963e+00	 8.222222e+00	 9.996958e+00
0	 2.962963e+00	 8.296296e+00	 9.997090e+00
0	 2.962963e+00	 8.370370e+00	 9.997238e+00
0	 2.962963e+00	 8.444444e+00	 9.997404e+00
0	 2.962963e+00	 8.518519e+00	 9.997591e+00
0	 3.037037e+00	 8.148148e+00	 9.999761e+00
0	 3.037037e+00	 8.222222e+00	 9.999675e+00
0	 3.037037e+00	 8.296296e+00	 9.999609e+00
0	 3.037037e+00	 8.370370e+00	 9.999564e+00
0	 3.037037e+00	 8.444444e+00	 9.999544e+00
0	 3.037037e+00	 8.518519e+00	 9.999551e+00
0	 3.111111e+00	 8.148148e+00	 1.000262e+01
0	 3.111111e+00	 8.222222e+00	 1.000233e+01
0	 3.111111e+00	 8.296296e+00	 1.000207e+01
0	 3.111111e+00	 8.370370e+00	 1.000184e+01
0	 3.111111e+00	 8.444444e+00	 1.000164e+01
0	 3.111111e+00	 8.518519e+00	 1.000147e+01
0	 3.185185e+00	 8.148148e+00	 1.000541e+01
0	 3.185185e+00	 8.222222e+00	 1.000493e+01
0	 3.185185e+00	 8.296296e+00	 1.000448e+01
0	 3.185185e+00	 8.370370e+00	 1.000407e+01
0	 3.185185e+00	 8.444444e+00	 1.000369e+01
0	 3.185185e+00	 8.518519e+00	 1.000335e+01
0	 3.259259e+00	 8.148148e+00	 1.000812e+01
0	 3.259259e+00	 8.222222e+00	 1.000745e+01
0	 3.259259e+00	 8.296296e+00	 1.000682e+01
0	 3.259259e+00	 8.370370e+00	 1.000623e+01
0	 3.259259e+00	 8.444444e+00	 1.000568e+01
0	 3.259259e+00	 8.518519e+00	 1.000517e+01
0	 3.333333e+00	 8.148148e+00	 1.001074e+01
0	 3.333333e+00	 8.222222e+00	 1.000989e+01
0	 3.333333e+00	 8.296296e+00	 1.000908e+01
0	 3.333333e+00	 8.370370e+00	 1.000832e+01
0	 3.333333e+00	 8.444444e+00	 1.000761e+01
0	 3.333333e+00	 8.518519e+00	 1.000694e+01
0	 2.962963e+00	 8.518519e+00	 9.997591e+00
0	 2.962963e+00	 8.592593e+00	 9.997787e+00
0	 2.962963e+00	 8.666667e+00	 9.997979e+00
0	 2.962963e+00	 8.740741e+00	 9.998171e+00
0	 2.962963e+00	 8.814815e+00	 9.998363e+00
0	 2.962963e+00	 8.888889e+00	 9.998558e+00
0	 3.037037e+00	 8.518519e+00	 9.999551e+00
0	 3.037037e+00	 8.592593e+00	 9.999573e+00
0	 3.037037e+00	 8.666667e+00	 9.999600e+00
0	 3.037037e+00	 8.740741e+00	 9.999633e+00
0	 3.037037e+00	 8.814815e+00	 9.999672e+00
0	 3.037037e+00	 8.888889e+00	 9.999721e+00
0	 3.111111e+00	 8.518519e+00	 1.000147e+01
0	 3.111111e+00	 8.592593e+00	 1.000133e+01
0	 3.111111e+00	 8.666667e+00	 1.000119e+01
0	 3.111111e+00	 8.740741e+00	 1.000107e+01
0	 3.111111e+00	 8.814815e+00	 1.000096e+01
0	 3.111111e+00	 8.888889e+00	 1.000086e+01
0	 3.185185e+00	 8.518519e+00	 1.000335e+01
0	 3.185185e+00	 8.592593e+00	 1.000304e+01
0	 3.185185e+00	 8.666667e+00	 1.000274e+01
0	 3.185185e+00	 8.740741e+00	 1.000247e+01
0	 3.185185e+00	 8.814815e+00	 1.000221e+01
0	 3.185185e+00	 8.888889e+00	 1.000198e+01
0	 3.259259e+00	 8.518519e+00	 1.000517e+01
0	 3.259259e+00	 8.592593e+00	 1.000470e+01
0	 3.259259e+00	 8.666667e+00	 1.000425e+01
0	 3.259259e+00	 8.740741e+00	 1.000383e+01
0	 3.259259e+00	 8.814815e+00	 1.000344e+01
0	 3.259259e+00	 8.888889e+00	 1.000307e+01
0	 3.333333e+00	 8.518519e+00	 1.000694e+01
0	 3.333333e+00	 8.592593e+00	 1.000631e+01
0	 3.333333e+00	 8.666667e+00	 1.000571e+01
0	 3.333333e+00	 8.740741e+00	 1.000515e+01
0	 3.333333e+00	 8.814815e+00	 1.000462e+01
0	 3.333333e+00	 8.888889e+00	 1.000411e+01
0	 2.962963e+00	 8.888889e+00	 9.998558e+00
0	 2.962963e+00	 8.962963e+00	 9.998747e+00
0	 2.962963e+00	 9.037037e+00	 9.998924e+00
0	 2.962963e+00	 9.111111e+00	 9.999089e+00
0	 2.962963e+00	 9.185185e+00	 9.999242e+00
0	 2.962963e+00	 9.259259e+00	 9.999385e+00
0	 3.037037e+00	 8.888889e+00	 9.999721e+00
0	 3.037037e+00	 8.962963e+00	 9.999771e+00
0	 3.037037e+00	 9.037037e+00	 9.999818e+00
0	 3.037037e+00	 9.111111e+00	 9.999860e+00
0	 3.037037e+00	 9.185185e+00	 9.999898e+00
0	 3.037037e+00	 9.259259e+00	 9.999932e+00
0	 3.111111e+00	 8.888889e+00	 1.000086e+01
0	 3.111111e+00	 8.962963e+00	 1.000078e+01
0	 3.111111e+00	 9.037037e+00	 1.000070e+01
0	 3.111111e+00	 9.111111e+00	 1.000062e+01
0	 3.111111e+00	 9.185185e+00	 1.000054e+01
0	 3.111111e+00	 9.259259e+00	 1.000047e+01
0	 3.185185e+00	 8.888889e+00	 1.000198e+01
0	 3.185185e+00	 8.962963e+00	 1.000176e+01
0	 3.185185e+00	 9.037037e+00	 1.000156e+01
0	 3.185185e+00	 9.111111e+00	 1.000136e+01
0	 3.185185e+00	 9.185185e+00	 1.000118e+01
0	 3.185185e+00	 9.259259e+00	 1.000100e+01
0	 3.259259e+00	 8.888889e+00	 1.000307e+01
0	 3.259259e+00	 8.962963e+00	 1.000272e+01
0	 3.259259e+00	 9.037037e+00	 1.000239e+01
0	 3.259259e+00	 9.111111e+00	 1.000209e+01
0	 3.259259e+00	 9.185185e+00	 1.000179e+01
0	 3.259259e+00	 9.259259e+00	 1.000152e+01
0	 3.333333e+00	 8.888889e+00	 1.000411e+01
0	 3.333333e+00	 8.962963e+00	 1.000364e+01
0	 3.333333e+00	 9.037037e+00	 1.000320e+01
0	 3.333333e+00	 9.111111e+00	 1.000278e+01
0	 3.333333e+00	 9.185185e+00	 1.000239e+01
0	 3.333333e+00	 9.259259e+00	 1.000201e+01
0	 2.962963e+00	 9.259259e+00	 9.999385e+00
0	 2.962963e+00	 9.333333e+00	 9.999515e+00
0	 2.962963e+00	 9.407407e+00	 9.999629e+00
0	 2.962963e+00	 9.481481e+00	 9.999727e+00
0	 2.962963e+00	 9.555556e+00	 9.999808e+00
0	 2.962963e+00	 9.629630e+00	 9.999871e+00
0	 3.037037e+00	 9.259259e+00	 9.999932e+00
0	 3.037037e+00	 9.333333e+00	 9.999963e+00
0	 3.037037e+00	 9.407407e+00	 9.999987e+00
0	 3.037037e+00	 9.481481e+00	 1.000000e+01
0	 3.037037e+00	 9.555556e+00	 1.000001e+01
0	 3.037037e+00	 9.629630e+00	 1.000001e+01
0	 3.111111e+00	 9.259259e+00	 1.000047e+01
0	 3.111111e+00	 9.333333e+00	 1.000041e+01
0	 3.111111e+00	 9.407407e+00	 1.000034e+01
0	 3.111111e+00	 9.481481e+00	 1.000028e+01
0	 3.111111e+00	 9.555556e+00	 1.000022e+01
0	 3.111111e+00	 9.629630e+00	 1.000016e+01
0	 3.185185e+00	 9.259259e+00	 1.000100e+01
0	 3.185185e+00	 9.333333e+00	 1.000084e+01
0	 3.185185e+00	 9.407407e+00	 1.000069e+01
0	 3.185185e+00	 9.481481e+00	 1.000056e+01
0	 3.185185e+00	 9.555556e+00	 1.000043e+01
0	 3.185185e+00	 9.629630e+00	 1.000031e+01
0	 3.259259e+00	 9.259259e+00	 1.000152e+01
0	 3.259259e+00	 9.333333e+00	 1.000126e+01
0	 3.259259e+00	 9.407407e+00	 1.000103e+01
0	 3.259259e+00	 9.481481e+00	 1.000082e+01
0	 3.259259e+00	 9.555556e+00	 1.000063e+01
0	 3.259259e+00	 9.629630e+00	 1.000045e+01
0	 3.333333e+00	 9.259259e+00	 1.000201e+01
0	 3.333333e+00	 9.333333e+00	 1.000167e+01
0	 3.333333e+00	 9.407407e+00	 1.000136e+01
0	 3.333333e+00	 9.481481e+00	 1.000107e+01
0	 3.333333e+00	 9.555556e+00	 1.000081e+01
0	 3.333333e+00	 9.629630e+00	 1.000058e+01
0	 2.962963e+00	 9.629630e+00	 9.999871e+00
0	 2.962963e+00	 9.703704e+00	 9.999921e+00
0	 2.962963e+00	 9.777778e+00	 9.999961e+00
0	 2.962963e+00	 9.851852e+00	 9.999987e+00
0	 2.962963e+00	 9.925926e+00	 9.999999e+00
0	 2.962963e+00	 1.000000e+01	 9.999993e+00
0	 3.037037e+00	 9.629630e+00	 1.000001e+01
0	 3.037037e+00	 9.703704e+00	 1.000001e+01
0	 3.037037e+00	 9.777778e+00	 1.000001e+01
0	 3.037037e+00	 9.851852e+00	 1.000001e+01
0	 3.037037e+00	 9.925926e+00	 9.999999e+00
0	 3.037037e+00	 1.000000e+01	 9.999984e+00
0	 3.111111e+00	 9.629630e+00	 1.000016e+01
0	 3.111111e+00	 9.703704e+00	 1.000011e+01
0	 3.111111e+00	 9.777778e+00	 1.000007e+01
0	 3.111111e+00	 9.851852e+00	 1.000003e+01
0	 3.111111e+00	 9.925926e+00	 1.000001e+01
0	 3.111111e+00	 1.000000e+01	 9.999985e+00
0	 3.185185e+00	 9.629630e+00	 1.000031e+01
0	 3.185185e+00	 9.703704e+00	 1.000020e+01
0	 3.185185e+00	 9.777778e+00	 1.000012e+01
0	 3.185185e+00	 9.851852e+00	 1.000006e+01
0	 3.185185e+00	 9.925926e+00	 1.000002e+01
0	 3.185185e+00	 1.000000e+01	 9.999990e+00
0	 3.259259e+00	 9.629630e+00	 1.000045e+01
0	 3.259259e+00	 9.703704e+00	 1.000029e+01
0	 3.259259e+00	 9.777778e+00	 1.000018e+01
0	 3.259259e+00	 9.851852e+00	 1.000009e+01
0	 3.259259e+00	 9.925926e+00	 1.000003e+01
0	 3.259259e+00	 1.000000e+01	 9.999992e+00
0	 3.333333e+00	 9.629630e+00	 1.000058e+01
0	 3.333333e+00	 9.703704e+00	 1.000037e+01
0	 3.333333e+00	 9.777778e+00	 1.000022e+01
0	 3.333333e+00	 9.851852e+00	 1.000011e+01
0	 3.333333e+00	 9.925926e+00	 1.000003e+01
0	 3.333333e+00	 1.000000e+01	 9.999985e+00
0	 3.333333e+00	 0.000000e+00	 1.077386e+01
0	 3.333333e+00	 7.407407e-02	 1.076174e+01
0	 3.333333e+00	 1.481481e-01	 1.075625e+01
0	 3.333333e+00	 2.222222e-01	 1.075716e+01
0	 3.333333e+00	 2.962963e-01	 1.076422e+01
0	 3.333333e+00	 3.703704e-01	 1.077719e+01
0	 3.407407e+00	 0.000000e+00	 1.076215e+01
0	 3.407407e+00	 7.407407e-02	 1.074708e+01
0	 3.407407e+00	 1.481481e-01	 1.073808e+01
0	 3.407407e+00	 2.222222e-01	 1.073531e+01
0	 3.407407e+00	 2.962963e-01	 1.073891e+01
0	 3.407407e+00	 3.703704e-01	 1.074902e+01
0	 3.481481e+00	 0.000000e+00	 1.073061e+01
0	 3.481481e+00	 7.407407e-02	 1.071905e+01
0	 3.481481e+00	 1.481481e-01	 1.071198e+01
0	 3.481481e+00	 2.222222e-01	 1.070979e+01
0	 3.481481e+00	 2.962963e-01	 1.071289e+01
0	 3.481481e+00	 3.703704e-01	 1.072165e+01
0	 3.555556e+00	 0.000000e+00	 1.068713e+01
0	 3.555556e+00	 7.407407e-02	 1.068264e+01
0	 3.555556e+00	 1.481481e-01	 1.068063e+01
0	 3.555556e+00	 2.222222e-01	 1.068162e+01
0	 3.555556e+00	 2.962963e-01	 1.068610e+01
0	 3.555556e+00	 3.703704e-01	 1.069457e+01
0	 3.629630e+00	 0.000000e+00	 1.063957e+01
0	 3.629630e+00	 7.407407e-02	 1.064282e+01
0	 3.629630e+00	 1.481481e-01	 1.064675e+01
0	 3.629630e+00	 2.222222e-01	 1.065182e+01
0	 3.629630e+00	 2.962963e-01	 1.065851e+01
0	 3.629630e+00	 3.703704e-01	 1.066730e+01
0	 3.703704e+00	 0.000000e+00	 1.059581e+01
0	 3.703704e+00	 7.407407e-02	 1.060460e+01
0	 3.703704e+00	 1.481481e-01	 1.061302e+01
0	 3.703704e+00	 2.222222e-01	 1.062141e+01
0	 3.703704e+00	 2.962963e-01	 1.063007e+01
0	 3.703704e+00	 3.703704e-01	 1.063933e+01
0	 3.333333e+00	 3.703704e-01	 1.077719e+01
0	 3.333333e+00	 4.444444e-01	 1.079261e+01
0	 3.333333e+00	 5.185185e-01	 1.080767e+01
0	 3.333333e+00	 5.925926e-01	 1.082313e+01
0	 3.333333e+00	 6.666667e-01	 1.083973e+01
0	 3.333333e+00	 7.407407e-01	 1.085822e+01
0	 3.407407e+00	 3.703704e-01	 1.074902e+01
0	 3.407407e+00	 4.444444e-01	 1.076232e+01
0	 3.407407e+00	 5.185185e-01	 1.077570e+01
0	 3.407407e+00	 5.925926e-01	 1.078964e+01
0	 3.407407e+00	 6.666667e-01	 1.080458e+01
0	 3.407407e+00	 7.407407e-01	 1.082097e+01
0	 3.481481e+00	 3.703704e-01	 1.072165e+01
0	 3.481481e+00	 4.444444e-01	 1.073355e+01
0	 3.481481e+00	 5.185185e-01	 1.074600e+01
0	 3.481481e+00	 5.925926e-01	 1.075923e+01
0	 3.481481e+00	 6.666667e-01	 1.077350e+01
0	 3.481481e+00	 7.407407e-01	 1.078906e+01
0	 3.555556e+00	 3.703704e-01	 1.069457e+01
0	 3.555556e+00	 4.444444e-01	 1.070563e+01
0	 3.555556e+00	 5.185185e-01	 1.071760e+01
0	 3.555556e+00	 5.925926e-01	 1.073061e+01
0	 3.555556e+00	 6.666667e-01	 1.074480e+01
0	 3.555556e+00	 7.407407e-01	 1.076028e+01
0	 3.629630e+00	 3.703704e-01	 1.066730e+01
0	 3.629630e+00	 4.444444e-01	 1.067785e+01
0	 3.629630e+00	 5.185185e-01	 1.068954e+01
0	 3.629630e+00	 5.925926e-01	 1.070247e+01
0	 3.629630e+00	 6.666667e-01	 1.071673e+01
0	 3.629630e+00	 7.407407e-01	 1.073241e+01
0	 3.703704e+00	 3.703704e-01	 1.063933e+01
0	 3.703704e+00	 4.444444e-01	 1.064952e+01
0	 3.703704e+00	 5.185185e-01	 1.066087e+01
0	 3.703704e+00	 5.925926e-01	 1.067351e+01
0	 3.703704e+00	 6.666667e-01	 1.068759e+01
0	 3.703704e+00	 7.407407e-01	 1.070324e+01
0	 3.333333e+00	 7.407407e-01	 1.085822e+01
0	 3.333333e+00	 8.148148e-01	 1.087752e+01
0	 3.333333e+00	 8.888889e-01	 1.089640e+01
0	 3.333333e+00	 9.629630e-01	 1.091533e+01
0	 3.333333e+00	 1.037037e+00	 1.093482e+01
0	 3.333333e+00	 1.111111e+00	 1.095535e+01
0	 3.407407e+00	 7.407407e-01	 1.082097e+01
0	 3.407407e+00	 8.148148e-01	 1.083814e+01
0	 3.407407e+00	 8.888889e-01	 1.085542e+01
0	 3.407407e+00	 9.629630e-01	 1.087328e+01
0	 3.407407e+00	 1.037037e+00	 1.089217e+01
0	 3.407407e+00	 1.111111e+00	 1.091257e+01
0	 3.481481e+00	 7.407407e-01	 1.078906e+01
0	 3.481481e+00	 8.148148e-01	 1.080521e+01
0	 3.481481e+00	 8.888889e-01	 1.082140e+01
0	 3.481481e+00	 9.629630e-01	 1.083805e+01
0	 3.481481e+00	 1.037037e+00	 1.085561e+01
0	 3.481481e+00	 1.111111e+00	 1.087451e+01
0	 3.555556e+00	 7.407407e-01	 1.076028e+01
0	 3.555556e+00	 8.148148e-01	 1.077612e+01
0	 3.555556e+00	 8.888889e-01	 1.079159e+01
0	 3.555556e+00	 9.629630e-01	 1.080708e+01
0	 3.555556e+00	 1.037037e+00	 1.082300e+01
0	 3.555556e+00	 1.111111e+00	 1.083973e+01
0	 3.629630e+00	 7.407407e-01	 1.073241e+01
0	 3.629630e+00	 8.148148e-01	 1.074827e+01
0	 3.629630e+00	 8.888889e-01	 1.076328e+01
0	 3.629630e+00	 9.629630e-01	 1.077780e+01
0	 3.629630e+00	 1.037037e+00	 1.079218e+01
0	 3.629630e+00	 1.111111e+00	 1.080680e+01
0	 3.703704e+00	 7.407407e-01	 1.070324e+01
0	 3.703704e+00	 8.148148e-01	 1.071906e+01
0	 3.703704e+00	 8.888889e-01	 1.073375e+01
0	 3.703704e+00	 9.629630e-01	 1.074763e+01
0	 3.703704e+00	 1.037037e+00	 1.076103e+01
0	 3.703704e+00	 1.111111e+00	 1.077426e+01
0	 3.333333e+00	 1.111111e+00	 1.095535e+01
0	 3.333333e+00	 1.185185e+00	 1.097484e+01
0	 3.333333e+00	 1.259259e+00	 1.099092e+01
0	 3.333333e+00	 1.333333e+00	 1.100365e+01
0	 3.333333e+00	 1.407407e+00	 1.101309e+01
0	 3.333333e+00	 1.481481e+00	 1.101930e+01
0	 3.407407e+00	 1.111111e+00	 1.091257e+01
0	 3.407407e+00	 1.185185e+00	 1.093193e+01
0	 3.407407e+00	 1.259259e+00	 1.094760e+01
0	 3.407407e+00	 1.333333e+00	 1.095986e+01
0	 3.407407e+00	 1.407407e+00	 1.096900e+01
0	 3.407407e+00	 1.481481e+00	 1.097530e+01
0	 3.481481e+00	 1.111111e+00	 1.087451e+01
0	 3.481481e+00	 1.185185e+00	 1.089237e+01
0	 3.481481e+00	 1.259259e+00	 1.090681e+01
0	 3.481481e+00	 1.333333e+00	 1.091825e+01
0	 3.481481e+00	 1.407407e+00	 1.092713e+01
0	 3.481481e+00	 1.481481e+00	 1.093388e+01
0	 3.555556e+00	 1.111111e+00	 1.083973e+01
0	 3.555556e+00	 1.185185e+00	 1.085545e+01
0	 3.555556e+00	 1.259259e+00	 1.086836e+01
0	 3.555556e+00	 1.333333e+00	 1.087896e+01
0	 3.555556e+00	 1.407407e+00	 1.088772e+01
0	 3.555556e+00	 1.481481e+00	 1.089515e+01
0	 3.629630e+00	 1.111111e+00	 1.080680e+01
0	 3.629630e+00	 1.185185e+00	 1.082047e+01
0	 3.629630e+00	 1.259259e+00	 1.083208e+01
0	 3.629630e+00	 1.333333e+00	 1.084210e+01
0	 3.629630e+00	 1.407407e+00	 1.085099e+01
0	 3.629630e+00	 1.481481e+00	 1.085921e+01
0	 3.703704e+00	 1.111111e+00	 1.077426e+01
0	 3.703704e+00	 1.185185e+00	 1.078671e+01
0	 3.703704e+00	 1.259259e+00	 1.079777e+01
0	 3.703704e+00	 1.333333e+00	 1.080780e+01
0	 3.703704e+00	 1.407407e+00	 1.081715e+01
0	 3.703704e+00	 1.481481e+00	 1.082617e+01
0	 3.333333e+00	 1.481481e+00	 1.101930e+01
0	 3.333333e+00	 1.555556e+00	 1.102241e+01
0	 3.333333e+00	 1.629630e+00	 1.102274e+01
0	 3.333333e+00	 1.703704e+00	 1.102067e+01
0	 3.333333e+00	 1.777778e+00	 1.101658e+01
0	 3.333333e+00	 1.851852e+00	 1.101085e+01
0	 3.407407e+00	 1.481481e+00	 1.097530e+01
0	 3.407407e+00	 1.555556e+00	 1.097928e+01
0	 3.407407e+00	 1.629630e+00	 1.098132e+01
0	 3.407407e+00	 1.703704e+00	 1.098151e+01
0	 3.407407e+00	 1.777778e+00	 1.097995e+01
0	 3.407407e+00	 1.851852e+00	 1.097672e+01
0	 3.481481e+00	 1.481481e+00	 1.093388e+01
0	 3.481481e+00	 1.555556e+00	 1.093896e+01
0	 3.481481e+00	 1.629630e+00	 1.094252e+01
0	 3.481481e+00	 1.703704e+00	 1.094446e+01
0	 3.481481e+00	 1.777778e+00	 1.094468e+01
0	 3.481481e+00	 1.851852e+00	 1.094309e+01
0	 3.555556e+00	 1.481481e+00	 1.089515e+01
0	 3.555556e+00	 1.555556e+00	 1.090140e+01
0	 3.555556e+00	 1.629630e+00	 1.090620e+01
0	 3.555556e+00	 1.703704e+00	 1.090938e+01
0	 3.555556e+00	 1.777778e+00	 1.091076e+01
0	 3.555556e+00	 1.851852e+00	 1.091016e+01
0	 3.629630e+00	 1.481481e+00	 1.085921e+01
0	 3.629630e+00	 1.555556e+00	 1.086651e+01
0	 3.629630e+00	 1.629630e+00	 1.087221e+01
0	 3.629630e+00	 1.703704e+00	 1.087615e+01
0	 3.629630e+00	 1.777778e+00	 1.087818e+01
0	 3.629630e+00	 1.851852e+00	 1.087812e+01
0	 3.703704e+00	 1.481481e+00	 1.082617e+01
0	 3.703704e+00	 1.555556e+00	 1.083422e+01
0	 3.703704e+00	 1.629630e+00	 1.084039e+01
0	 3.703704e+00	 1.703704e+00	 1.084464e+01
0	 3.703704e+00	 1.777778e+00	 1.084691e+01
0	 3.703704e+00	 1.851852e+00	 1.084717e+01
0	 3.333333e+00	 1.851852e+00	 1.101085e+01
0	 3.333333e+00	 1.925926e+00	 1.100344e+01
0	 3.333333e+00	 2.000000e+00	 1.099388e+01
0	 3.333333e+00	 2.074074e+00	 1.098195e+01
0	 3.333333e+00	 2.148148e+00	 1.096743e+01
0	 3.333333e+00	 2.222222e+00	 1.095009e+01
0	 3.407407e+00	 1.851852e+00	 1.097672e+01
0	 3.407407e+00	 1.925926e+00	 1.097147e+01
0	 3.407407e+00	 2.000000e+00	 1.096374e+01
0	 3.407407e+00	 2.074074e+00	 1.095348e+01
0	 3.407407e+00	 2.148148e+00	 1.094065e+01
0	 3.407407e+00	 2.222222e+00	 1.092521e+01
0	 3.481481e+00	 1.851852e+00	 1.094309e+01
0	 3.481481e+00	 1.925926e+00	 1.093930e+01
0	 3.481481e+00	 2.000000e+00	 1.093302e+01
0	 3.481481e+00	 2.074074e+00	 1.092433e+01
0	 3.481481e+00	 2.148148e+00	 1.091331e+01
0	 3.481481e+00	 2.222222e+00	 1.090003e+01
0	 3.555556e+00	 1.851852e+00	 1.091016e+01
0	 3.555556e+00	 1.925926e+00	 1.090734e+01
0	 3.555556e+00	 2.000000e+00	 1.090225e+01
0	 3.555556e+00	 2.074074e+00	 1.089505e+01
0	 3.555556e+00	 2.148148e+00	 1.088586e+01
0	 3.555556e+00	 2.222222e+00	 1.087483e+01
0	 3.629630e+00	 1.851852e+00	 1.087812e+01
0	 3.629630e+00	 1.925926e+00	 1.087598e+01
0	 3.629630e+00	 2.000000e+00	 1.087195e+01
0	 3.629630e+00	 2.074074e+00	 1.086616e+01
0	 3.629630e+00	 2.148148e+00	 1.085877e+01
0	 3.629630e+00	 2.222222e+00	 1.084991e+01
0	 3.703704e+00	 1.851852e+00	 1.084717e+01
0	 3.703704e+00	 1.925926e+00	 1.084563e+01
0	 3.703704e+00	 2.000000e+00	 1.084262e+01
0	 3.703704e+00	 2.074074e+00	 1.083822e+01
0	 3.703704e+00	 2.148148e+00	 1.083250e+01
0	 3.703704e+00	 2.222222e+00	 1.082556e+01
0	 3.333333e+00	 2.222222e+00	 1.095009e+01
0	 3.333333e+00	 2.296296e+00	 1.093094e+01
0	 3.333333e+00	 2.370370e+00	 1.091112e+01
0	 3.333333e+00	 2.444444e+00	 1.089056e+01
0	 3.333333e+00	 2.518519e+00	 1.086920e+01
0	 3.333333e+00	 2.592593e+00	 1.084699e+01
0	 3.407407e+00	 2.222222e+00	 1.092521e+01
0	 3.407407e+00	 2.296296e+00	 1.090821e+01
0	 3.407407e+00	 2.370370e+00	 1.089066e+01
0	 3.407407e+00	 2.444444e+00	 1.087243e+01
0	 3.407407e+00	 2.518519e+00	 1.085340e+01
0	 3.407407e+00	 2.592593e+00	 1.083344e+01
0	 3.481481e+00	 2.222222e+00	 1.090003e+01
0	 3.481481e+00	 2.296296e+00	 1.088538e+01
0	 3.481481e+00	 2.370370e+00	 1.087011e+01
0	 3.481481e+00	 2.444444e+00	 1.085404e+01
0	 3.481481e+00	 2.518519e+00	 1.083701e+01
0	 3.481481e+00	 2.592593e+00	 1.081888e+01
0	 3.555556e+00	 2.222222e+00	 1.087483e+01
0	 3.555556e+00	 2.296296e+00	 1.086257e+01
0	 3.555556e+00	 2.370370e+00	 1.084947e+01
0	 3.555556e+00	 2.444444e+00	 1.083536e+01
0	 3.555556e+00	 2.518519e+00	 1.082007e+01
0	 3.555556e+00	 2.592593e+00	 1.080344e+01
0	 3.629630e+00	 2.222222e+00	 1.084991e+01
0	 3.629630e+00	 2.296296e+00	 1.083987e+01
0	 3.629630e+00	 2.370370e+00	 1.082873e+01
0	 3.629630e+00	 2.444444e+00	 1.081636e+01
0	 3.629630e+00	 2.518519e+00	 1.080259e+01
0	 3.629630e+00	 2.592593e+00	 1.078728e+01
0	 3.703704e+00	 2.222222e+00	 1.082556e+01
0	 3.703704e+00	 2.296296e+00	 1.081740e+01
0	 3.703704e+00	 2.370370e+00	 1.080792e+01
0	 3.703704e+00	 2.444444e+00	 1.079701e+01
0	 3.703704e+00	 2.518519e+00	 1.078459e+01
0	 3.703704e+00	 2.592593e+00	 1.077054e+01
0	 3.333333e+00	 2.592593e+00	 1.084699e+01
0	 3.333333e+00	 2.666667e+00	 1.082418e+01
0	 3.333333e+00	 2.740741e+00	 1.080092e+01
0	 3.333333e+00	 2.814815e+00	 1.077706e+01
0	 3.333333e+00	 2.888889e+00	 1.075243e+01
0	 3.333333e+00	 2.962963e+00	 1.072688e+01
0	 3.407407e+00	 2.592593e+00	 1.083344e+01
0	 3.407407e+00	 2.666667e+00	 1.081269e+01
0	 3.407407e+00	 2.740741e+00	 1.079129e+01
0	 3.407407e+00	 2.814815e+00	 1.076914e+01
0	 3.407407e+00	 2.888889e+00	 1.074614e+01
0	 3.407407e+00	 2.962963e+00	 1.072219e+01
0	 3.481481e+00	 2.592593e+00	 1.081888e+01
0	 3.481481e+00	 2.666667e+00	 1.079980e+01
0	 3.481481e+00	 2.740741e+00	 1.078002e+01
0	 3.481481e+00	 2.814815e+00	 1.075949e+01
0	 3.481481e+00	 2.888889e+00	 1.073814e+01
0	 3.481481e+00	 2.962963e+00	 1.071591e+01
0	 3.555556e+00	 2.592593e+00	 1.080344e+01
0	 3.555556e+00	 2.666667e+00	 1.078577e+01
0	 3.555556e+00	 2.740741e+00	 1.076747e+01
0	 3.555556e+00	 2.814815e+00	 1.074848e+01
0	 3.555556e+00	 2.888889e+00	 1.072878e+01
0	 3.555556e+00	 2.962963e+00	 1.070833e+01
0	 3.629630e+00	 2.592593e+00	 1.078728e+01
0	 3.629630e+00	 2.666667e+00	 1.077090e+01
0	 3.629630e+00	 2.740741e+00	 1.075399e+01
0	 3.629630e+00	 2.814815e+00	 1.073652e+01
0	 3.629630e+00	 2.888889e+00	 1.071845e+01
0	 3.629630e+00	 2.962963e+00	 1.069974e+01
0	 3.703704e+00	 2.592593e+00	 1.077054e+01
0	 3.703704e+00	 2.666667e+00	 1.075547e+01
0	 3.703704e+00	 2.740741e+00	 1.073997e+01
0	 3.703704e+00	 2.814815e+00	 1.072400e+01
0	 3.703704e+00	 2.888889e+00	 1.070750e+01
0	 3.703704e+00	 2.962963e+00	 1.069041e+01
0	 3.333333e+00	 2.962963e+00	 1.072688e+01
0	 3.333333e+00	 3.037037e+00	 1.070107e+01
0	 3.333333e+00	 3.111111e+00	 1.067572e+01
0	 3.333333e+00	 3.185185e+00	 1.065076e+01
0	 3.333333e+00	 3.259259e+00	 1.062612e+01
0	 3.333333e+00	 3.333333e+00	 1.060172e+01
0	 3.407407e+00	 2.962963e+00	 1.072219e+01
0	 3.407407e+00	 3.037037e+00	 1.069798e+01
0	 3.407407e+00	 3.111111e+00	 1.067420e+01
0	 3.407407e+00	 3.185185e+00	 1.065076e+01
0	 3.407407e+00	 3.259259e+00	 1.062754e+01
0	 3.407407e+00	 3.333333e+00	 1.060444e+01
0	 3.481481e+00	 2.962963e+00	 1.071591e+01
0	 3.481481e+00	 3.037037e+00	 1.069342e+01
0	 3.481481e+00	 3.111111e+00	 1.067126e+01
0	 3.481481e+00	 3.185185e+00	 1.064929e+01
0	 3.481481e+00	 3.259259e+00	 1.062741e+01
0	 3.481481e+00	 3.333333e+00	 1.060548e+01
0	 3.555556e+00	 2.962963e+00	 1.070833e+01
0	 3.555556e+00	 3.037037e+00	 1.068760e+01
0	 3.555556e+00	 3.111111e+00	 1.066703e+01
0	 3.555556e+00	 3.185185e+00	 1.064649e+01
0	 3.555556e+00	 3.259259e+00	 1.062585e+01
0	 3.555556e+00	 3.333333e+00	 1.060500e+01
0	 3.629630e+00	 2.962963e+00	 1.069974e+01
0	 3.629630e+00	 3.037037e+00	 1.068071e+01
0	 3.629630e+00	 3.111111e+00	 1.066165e+01
0	 3.629630e+00	 3.185185e+00	 1.064245e+01
0	 3.629630e+00	 3.259259e+00	 1.062299e+01
0	 3.629630e+00	 3.333333e+00	 1.060317e+01
0	 3.703704e+00	 2.962963e+00	 1.069041e+01
0	 3.703704e+00	 3.037037e+00	 1.067294e+01
0	 3.703704e+00	 3.111111e+00	 1.065526e+01
0	 3.703704e+00	 3.185185e+00	 1.063730e+01
0	 3.703704e+00	 3.259259e+00	 1.061896e+01
0	 3.703704e+00	 3.333333e+00	 1.060015e+01
0	 3.333333e+00	 3.333333e+00	 1.060172e+01
0	 3.333333e+00	 3.407407e+00	 1.057768e+01
0	 3.333333e+00	 3.481481e+00	 1.055415e+01
0	 3.333333e+00	 3.555556e+00	 1.053103e+01
0	 3.333333e+00	 3.629630e+00	 1.050825e+01
0	 3.333333e+00	 3.703704e+00	 1.048573e+01
0	 3.407407e+00	 3.333333e+00	 1.060444e+01
0	 3.407407e+00	 3.407407e+00	 1.058157e+01
0	 3.407407e+00	 3.481481e+00	 1.055906e+01
0	 3.407407e+00	 3.555556e+00	 1.053686e+01
0	 3.407407e+00	 3.629630e+00	 1.051490e+01
0	 3.407407e+00	 3.703704e+00	 1.049314e+01
0	 3.481481e+00	 3.333333e+00	 1.060548e+01
0	 3.481481e+00	 3.407407e+00	 1.058366e+01
0	 3.481481e+00	 3.481481e+00	 1.056212e+01
0	 3.481481e+00	 3.555556e+00	 1.054084e+01
0	 3.481481e+00	 3.629630e+00	 1.051976e+01
0	 3.481481e+00	 3.703704e+00	 1.049884e+01
0	 3.555556e+00	 3.333333e+00	 1.060500e+01
0	 3.555556e+00	 3.407407e+00	 1.058415e+01
0	 3.555556e+00	 3.481481e+00	 1.056356e+01
0	 3.555556e+00	 3.555556e+00	 1.054321e+01
0	 3.555556e+00	 3.629630e+00	 1.052305e+01
0	 3.555556e+00	 3.703704e+00	 1.050304e+01
0	 3.629630e+00	 3.333333e+00	 1.060317e+01
0	 3.629630e+00	 3.407407e+00	 1.058327e+01
0	 3.629630e+00	 3.481481e+00	 1.056363e+01
0	 3.629630e+00	 3.555556e+00	 1.054422e+01
0	 3.629630e+00	 3.629630e+00	 1.052500e+01
0	 3.629630e+00	 3.703704e+00	 1.050592e+01
0	 3.703704e+00	 3.333333e+00	 1.060015e+01
0	 3.703704e+00	 3.407407e+00	 1.058123e+01
0	 3.703704e+00	 3.481481e+00	 1.056257e+01
0	 3.703704e+00	 3.555556e+00	 1.054413e+01
0	 3.703704e+00	 3.629630e+00	 1.052585e+01
0	 3.703704e+00	 3.703704e+00	 1.050769e+01
0	 3.333333e+00	 3.703704e+00	 1.048573e+01
0	 3.333333e+00	 3.777778e+00	 1.046371e+01
0	 3.333333e+00	 3.851852e+00	 1.044244e+01
0	 3.333333e+00	 3.925926e+00	 1.042190e+01
0	 3.333333e+00	 4.000000e+00	 1.040205e+01
0	 3.333333e+00	 4.074074e+00	 1.038286e+01
0	 3.407407e+00	 3.703704e+00	 1.049314e+01
0	 3.407407e+00	 3.777778e+00	 1.047182e+01
0	 3.407407e+00	 3.851852e+00	 1.045122e+01
0	 3.407407e+00	 3.925926e+00	 1.043129e+01
0	 3.407407e+00	 4.000000e+00	 1.041198e+01
0	 3.407407e+00	 4.074074e+00	 1.039325e+01
0	 3.481481e+00	 3.703704e+00	 1.049884e+01
0	 3.481481e+00	 3.777778e+00	 1.047833e+01
0	 3.481481e+00	 3.851852e+00	 1.045846e+01
0	 3.481481e+00	 3.925926e+00	 1.043918e+01
0	 3.481481e+00	 4.000000e+00	 1.042042e+01
0	 3.481481e+00	 4.074074e+00	 1.040214e+01
0	 3.555556e+00	 3.703704e+00	 1.050304e+01
0	 3.555556e+00	 3.777778e+00	 1.048339e+01
0	 3.555556e+00	 3.851852e+00	 1.046429e+01
0	 3.555556e+00	 3.925926e+00	 1.044567e+01
0	 3.555556e+00	 4.000000e+00	 1.042747e+01
0	 3.555556e+00	 4.074074e+00	 1.040965e+01
0	 3.629630e+00	 3.703704e+00	 1.050592e+01
0	 3.629630e+00	 3.777778e+00	 1.048715e+01
0	 3.629630e+00	 3.851852e+00	 1.046881e+01
0	 3.629630e+00	 3.925926e+00	 1.045086e+01
0	 3.629630e+00	 4.000000e+00	 1.043323e+01
0	 3.629630e+00	 4.074074e+00	 1.041588e+01
0	 3.703704e+00	 3.703704e+00	 1.050769e+01
0	 3.703704e+00	 3.777778e+00	 1.048975e+01
0	 3.703704e+00	 3.851852e+00	 1.047216e+01
0	 3.703704e+00	 3.925926e+00	 1.045485e+01
0	 3.703704e+00	 4.000000e+00	 1.043780e+01
0	 3.703704e+00	 4.074074e+00	 1.042094e+01
0	 3.333333e+00	 4.074074e+00	 1.038286e+01
0	 3.333333e+00	 4.148148e+00	 1.036433e+01
0	 3.333333e+00	 4.222222e+00	 1.034645e+01
0	 3.333333e+00	 4.296296e+00	 1.032921e+01
0	 3.333333e+00	 4.370370e+00	 1.031258e+01
0	 3.333333e+00	 4.444444e+00	 1.029653e+01
0	 3.407407e+00	 4.074074e+00	 1.039325e+01
0	 3.407407e+00	 4.148148e+00	 1.037509e+01
0	 3.407407e+00	 4.222222e+00	 1.035752e+01
0	 3.407407e+00	 4.296296e+00	 1.034053e+01
0	 3.407407e+00	 4.370370e+00	 1.032409e+01
0	 3.407407e+00	 4.444444e+00	 1.030820e+01
0	 3.481481e+00	 4.074074e+00	 1.040214e+01
0	 3.481481e+00	 4.148148e+00	 1.038436e+01
0	 3.481481e+00	 4.222222e+00	 1.036712e+01
0	 3.481481e+00	 4.296296e+00	 1.035042e+01
0	 3.481481e+00	 4.370370e+00	 1.033424e+01
0	 3.481481e+00	 4.444444e+00	 1.031857e+01
0	 3.555556e+00	 4.074074e+00	 1.040965e+01
0	 3.555556e+00	 4.148148e+00	 1.039226e+01
0	 3.555556e+00	 4.222222e+00	 1.037539e+01
0	 3.555556e+00	 4.296296e+00	 1.035902e+01
0	 3.555556e+00	 4.370370e+00	 1.034314e+01
0	 3.555556e+00	 4.444444e+00	 1.032773e+01
0	 3.629630e+00	 4.074074e+00	 1.041588e+01
0	 3.629630e+00	 4.148148e+00	 1.039891e+01
0	 3.629630e+00	 4.222222e+00	 1.038243e+01
0	 3.629630e+00	 4.296296e+00	 1.036643e+01
0	 3.629630e+00	 4.370370e+00	 1.035089e+01
0	 3.629630e+00	 4.444444e+00	 1.033580e+01
0	 3.703704e+00	 4.074074e+00	 1.042094e+01
0	 3.703704e+00	 4.148148e+00	 1.040442e+01
0	 3.703704e+00	 4.222222e+00	 1.038837e+01
0	 3.703704e+00	 4.296296e+00	 1.037277e+01
0	 3.703704e+00	 4.370370e+00	 1.035761e+01
0	 3.703704e+00	 4.444444e+00	 1.034285e+01
0	 3.333333e+00	 4.444444e+00	 1.029653e+01
0	 3.333333e+00	 4.518519e+00	 1.028110e+01
0	 3.333333e+00	 4.592593e+00	 1.026631e+01
0	 3.333333e+00	 4.666667e+00	 1.025216e+01
0	 3.333333e+00	 4.740741e+00	 1.023865e+01
0	 3.333333e+00	 4.814815e+00	 1.022577e+01
0	 3.407407e+00	 4.444444e+00	 1.030820e+01
0	 3.407407e+00	 4.518519e+00	 1.029288e+01
0	 3.407407e+00	 4.592593e+00	 1.027819e+01
0	 3.407407e+00	 4.666667e+00	 1.026411e+01
0	 3.407407e+00	 4.740741e+00	 1.025062e+01
0	 3.407407e+00	 4.814815e+00	 1.023772e+01
0	 3.481481e+00	 4.444444e+00	 1.031857e+01
0	 3.481481e+00	 4.518519e+00	 1.030344e+01
0	 3.481481e+00	 4.592593e+00	 1.028889e+01
0	 3.481481e+00	 4.666667e+00	 1.027492e+01
0	 3.481481e+00	 4.740741e+00	 1.026150e+01
0	 3.481481e+00	 4.814815e+00	 1.024862e+01
0	 3.555556e+00	 4.444444e+00	 1.032773e+01
0	 3.555556e+00	 4.518519e+00	 1.031284e+01
0	 3.555556e+00	 4.592593e+00	 1.029849e+01
0	 3.555556e+00	 4.666667e+00	 1.028467e+01
0	 3.555556e+00	 4.740741e+00	 1.027135e+01
0	 3.555556e+00	 4.814815e+00	 1.025851e+01
0	 3.629630e+00	 4.444444e+00	 1.033580e+01
0	 3.629630e+00	 4.518519e+00	 1.032117e+01
0	 3.629630e+00	 4.592593e+00	 1.030705e+01
0	 3.629630e+00	 4.666667e+00	 1.029339e+01
0	 3.629630e+00	 4.740741e+00	 1.028020e+01
0	 3.629630e+00	 4.814815e+00	 1.026745e+01
0	 3.703704e+00	 4.444444e+00	 1.034285e+01
0	 3.703704e+00	 4.518519e+00	 1.032851e+01
0	 3.703704e+00	 4.592593e+00	 1.031462e+01
0	 3.703704e+00	 4.666667e+00	 1.030116e+01
0	 3.703704e+00	 4.740741e+00	 1.028812e+01
0	 3.703704e+00	 4.814815e+00	 1.027547e+01
0	 3.333333e+00	 4.814815e+00	 1.022577e+01
0	 3.333333e+00	 4.888889e+00	 1.021346e+01
0	 3.333333e+00	 4.962963e+00	 1.020168e+01
0	 3.333333e+00	 5.037037e+00	 1.019043e+01
0	 3.333333e+00	 5.111111e+00	 1.017971e+01
0	 3.333333e+00	 5.185185e+00	 1.016951e+01
0	 3.407407e+00	 4.814815e+00	 1.023772e+01
0	 3.407407e+00	 4.888889e+00	 1.022536e+01
0	 3.407407e+00	 4.962963e+00	 1.021351e+01
0	 3.407407e+00	 5.037037e+00	 1.020216e+01
0	 3.407407e+00	 5.111111e+00	 1.019131e+01
0	 3.407407e+00	 5.185185e+00	 1.018097e+01
0	 3.481481e+00	 4.814815e+00	 1.024862e+01
0	 3.481481e+00	 4.888889e+00	 1.023624e+01
0	 3.481481e+00	 4.962963e+00	 1.022435e+01
0	 3.481481e+00	 5.037037e+00	 1.021294e+01
0	 3.481481e+00	 5.111111e+00	 1.020202e+01
0	 3.481481e+00	 5.185185e+00	 1.019158e+01
0	 3.555556e+00	 4.814815e+00	 1.025851e+01
0	 3.555556e+00	 4.888889e+00	 1.024615e+01
0	 3.555556e+00	 4.962963e+00	 1.023425e+01
0	 3.555556e+00	 5.037037e+00	 1.022283e+01
0	 3.555556e+00	 5.111111e+00	 1.021187e+01
0	 3.555556e+00	 5.185185e+00	 1.020137e+01
0	 3.629630e+00	 4.814815e+00	 1.026745e+01
0	 3.629630e+00	 4.888889e+00	 1.025513e+01
0	 3.629630e+00	 4.962963e+00	 1.024327e+01
0	 3.629630e+00	 5.037037e+00	 1.023186e+01
0	 3.629630e+00	 5.111111e+00	 1.022090e+01
0	 3.629630e+00	 5.185185e+00	 1.021038e+01
0	 3.703704e+00	 4.814815e+00	 1.027547e+01
0	 3.703704e+00	 4.888889e+00	 1.026324e+01
0	 3.703704e+00	 4.962963e+00	 1.025145e+01
0	 3.703704e+00	 5.037037e+00	 1.024008e+01
0	 3.703704e+00	 5.111111e+00	 1.022915e+01
0	 3.703704e+00	 5.185185e+00	 1.021863e+01
0	 3.333333e+00	 5.185185e+00	 1.016951e+01
0	 3.333333e+00	 5.259259e+00	 1.015979e+01
0	 3.333333e+00	 5.333333e+00	 1.015053e+01
0	 3.333333e+00	 5.407407e+00	 1.014172e+01
0	 3.333333e+00	 5.481481e+00	 1.013338e+01
0	 3.333333e+00	 5.555556e+00	 1.012549e+01
0	 3.407407e+00	 5.185185e+00	 1.018097e+01
0	 3.407407e+00	 5.259259e+00	 1.017110e+01
0	 3.407407e+00	 5.333333e+00	 1.016167e+01
0	 3.407407e+00	 5.407407e+00	 1.015269e+01
0	 3.407407e+00	 5.481481e+00	 1.014415e+01
0	 3.407407e+00	 5.555556e+00	 1.013606e+01
0	 3.481481e+00	 5.185185e+00	 1.019158e+01
0	 3.481481e+00	 5.259259e+00	 1.018160e+01
0	 3.481481e+00	 5.333333e+00	 1.017205e+01
0	 3.481481e+00	 5.407407e+00	 1.016292e+01
0	 3.481481e+00	 5.481481e+00	 1.015423e+01
0	 3.481481e+00	 5.555556e+00	 1.014596e+01
0	 3.555556e+00	 5.185185e+00	 1.020137e+01
0	 3.555556e+00	 5.259259e+00	 1.019131e+01
0	 3.555556e+00	 5.333333e+00	 1.018167e+01
0	 3.555556e+00	 5.407407e+00	 1.017244e+01
0	 3.555556e+00	 5.481481e+00	 1.016362e+01
0	 3.555556e+00	 5.555556e+00	 1.015521e+01
0	 3.629630e+00	 5.185185e+00	 1.021038e+01
0	 3.629630e+00	 5.259259e+00	 1.020028e+01
0	 3.629630e+00	 5.333333e+00	 1.019057e+01
0	 3.629630e+00	 5.407407e+00	 1.018126e+01
0	 3.629630e+00	 5.481481e+00	 1.017234e+01
0	 3.629630e+00	 5.555556e+00	 1.016381e+01
0	 3.703704e+00	 5.185185e+00	 1.021863e+01
0	 3.703704e+00	 5.259259e+00	 1.020851e+01
0	 3.703704e+00	 5.333333e+00	 1.019877e+01
0	 3.703704e+00	 5.407407e+00	 1.018940e+01
0	 3.703704e+00	 5.481481e+00	 1.018041e+01
0	 3.703704e+00	 5.555556e+00	 1.017178e+01
0	 3.333333e+00	 5.555556e+00	 1.012549e+01
0	 3.333333e+00	 5.629630e+00	 1.011802e+01
0	 3.333333e+00	 5.703704e+00	 1.011090e+01
0	 3.333333e+00	 5.777778e+00	 1.010415e+01
0	 3.333333e+00	 5.851852e+00	 1.009776e+01
0	 3.333333e+00	 5.925926e+00	 1.009175e+01
0	 3.407407e+00	 5.555556e+00	 1.013606e+01
0	 3.407407e+00	 5.629630e+00	 1.012837e+01
0	 3.407407e+00	 5.703704e+00	 1.012103e+01
0	 3.407407e+00	 5.777778e+00	 1.011405e+01
0	 3.407407e+00	 5.851852e+00	 1.010742e+01
0	 3.407407e+00	 5.925926e+00	 1.010117e+01
0	 3.481481e+00	 5.555556e+00	 1.014596e+01
0	 3.481481e+00	 5.629630e+00	 1.013808e+01
0	 3.481481e+00	 5.703704e+00	 1.013055e+01
0	 3.481481e+00	 5.777778e+00	 1.012336e+01
0	 3.481481e+00	 5.851852e+00	 1.011654e+01
0	 3.481481e+00	 5.925926e+00	 1.011007e+01
0	 3.555556e+00	 5.555556e+00	 1.015521e+01
0	 3.555556e+00	 5.629630e+00	 1.014717e+01
0	 3.555556e+00	 5.703704e+00	 1.013947e+01
0	 3.555556e+00	 5.777778e+00	 1.013211e+01
0	 3.555556e+00	 5.851852e+00	 1.012510e+01
0	 3.555556e+00	 5.925926e+00	 1.011845e+01
0	 3.629630e+00	 5.555556e+00	 1.016381e+01
0	 3.629630e+00	 5.629630e+00	 1.015564e+01
0	 3.629630e+00	 5.703704e+00	 1.014780e+01
0	 3.629630e+00	 5.777778e+00	 1.014030e+01
0	 3.629630e+00	 5.851852e+00	 1.013314e+01
0	 3.629630e+00	 5.925926e+00	 1.012632e+01
0	 3.703704e+00	 5.555556e+00	 1.017178e+01
0	 3.703704e+00	 5.629630e+00	 1.016351e+01
0	 3.703704e+00	 5.703704e+00	 1.015556e+01
0	 3.703704e+00	 5.777778e+00	 1.014794e+01
0	 3.703704e+00	 5.851852e+00	 1.014065e+01
0	 3.703704e+00	 5.925926e+00	 1.013369e+01
0	 3.333333e+00	 5.925926e+00	 1.009175e+01
0	 3.333333e+00	 6.000000e+00	 1.008606e+01
0	 3.333333e+00	 6.074074e+00	 1.008066e+01
0	 3.333333e+00	 6.148148e+00	 1.007556e+01
0	 3.333333e+00	 6.222222e+00	 1.007075e+01
0	 3.333333e+00	 6.296296e+00	 1.006624e+01
0	 3.407407e+00	 5.925926e+00	 1.010117e+01
0	 3.407407e+00	 6.000000e+00	 1.009524e+01
0	 3.407407e+00	 6.074074e+00	 1.008959e+01
0	 3.407407e+00	 6.148148e+00	 1.008424e+01
0	 3.407407e+00	 6.222222e+00	 1.007918e+01
0	 3.407407e+00	 6.296296e+00	 1.007442e+01
0	 3.481481e+00	 5.925926e+00	 1.011007e+01
0	 3.481481e+00	 6.000000e+00	 1.010392e+01
0	 3.481481e+00	 6.074074e+00	 1.009805e+01
0	 3.481481e+00	 6.148148e+00	 1.009247e+01
0	 3.481481e+00	 6.222222e+00	 1.008719e+01
0	 3.481481e+00	 6.296296e+00	 1.008219e+01
0	 3.555556e+00	 5.925926e+00	 1.011845e+01
0	 3.555556e+00	 6.000000e+00	 1.011210e+01
0	 3.555556e+00	 6.074074e+00	 1.010604e+01
0	 3.555556e+00	 6.148148e+00	 1.010026e+01
0	 3.555556e+00	 6.222222e+00	 1.009477e+01
0	 3.555556e+00	 6.296296e+00	 1.008957e+01
0	 3.629630e+00	 5.925926e+00	 1.012632e+01
0	 3.629630e+00	 6.000000e+00	 1.011981e+01
0	 3.629630e+00	 6.074074e+00	 1.011357e+01
0	 3.629630e+00	 6.148148e+00	 1.010761e+01
0	 3.629630e+00	 6.222222e+00	 1.010193e+01
0	 3.629630e+00	 6.296296e+00	 1.009654e+01
0	 3.703704e+00	 5.925926e+00	 1.013369e+01
0	 3.703704e+00	 6.000000e+00	 1.012703e+01
0	 3.703704e+00	 6.074074e+00	 1.012063e+01
0	 3.703704e+00	 6.148148e+00	 1.011452e+01
0	 3.703704e+00	 6.222222e+00	 1.010867e+01
0	 3.703704e+00	 6.296296e+00	 1.010310e+01
0	 3.333333e+00	 6.296296e+00	 1.006624e+01
0	 3.333333e+00	 6.370370e+00	 1.006199e+01
0	 3.333333e+00	 6.444444e+00	 1.005797e+01
0	 3.333333e+00	 6.518519e+00	 1.005417e+01
0	 3.333333e+00	 6.592593e+00	 1.005060e+01
0	 3.333333e+00	 6.666667e+00	 1.004726e+01
0	 3.407407e+00	 6.296296e+00	 1.007442e+01
0	 3.407407e+00	 6.370370e+00	 1.006992e+01
0	 3.407407e+00	 6.444444e+00	 1.006564e+01
0	 3.407407e+00	 6.518519e+00	 1.006158e+01
0	 3.407407e+00	 6.592593e+00	 1.005776e+01
0	 3.407407e+00	 6.666667e+00	 1.005418e+01
0	 3.481481e+00	 6.296296e+00	 1.008219e+01
0	 3.481481e+00	 6.370370e+00	 1.007746e+01
0	 3.481481e+00	 6.444444e+00	 1.007295e+01
0	 3.481481e+00	 6.518519e+00	 1.006866e+01
0	 3.481481e+00	 6.592593e+00	 1.006461e+01
0	 3.481481e+00	 6.666667e+00	 1.006079e+01
0	 3.555556e+00	 6.296296e+00	 1.008957e+01
0	 3.555556e+00	 6.370370e+00	 1.008462e+01
0	 3.555556e+00	 6.444444e+00	 1.007989e+01
0	 3.555556e+00	 6.518519e+00	 1.007539e+01
0	 3.555556e+00	 6.592593e+00	 1.007112e+01
0	 3.555556e+00	 6.666667e+00	 1.006709e+01
0	 3.629630e+00	 6.296296e+00	 1.009654e+01
0	 3.629630e+00	 6.370370e+00	 1.009139e+01
0	 3.629630e+00	 6.444444e+00	 1.008647e+01
0	 3.629630e+00	 6.518519e+00	 1.008178e+01
0	 3.629630e+00	 6.592593e+00	 1.007731e+01
0	 3.629630e+00	 6.666667e+00	 1.007307e+01
0	 3.703704e+00	 6.296296e+00	 1.010310e+01
0	 3.703704e+00	 6.370370e+00	 1.009778e+01
0	 3.703704e+00	 6.444444e+00	 1.009269e+01
0	 3.703704e+00	 6.518519e+00	 1.008781e+01
0	 3.703704e+00	 6.592593e+00	 1.008316e+01
0	 3.703704e+00	 6.666667e+00	 1.007874e+01
0	 3.333333e+00	 6.666667e+00	 1.004726e+01
0	 3.333333e+00	 6.740741e+00	 1.004413e+01
0	 3.333333e+00	 6.814815e+00	 1.004117e+01
0	 3.333333e+00	 6.888889e+00	 1.003838e+01
0	 3.333333e+00	 6.962963e+00	 1.003577e+01
0	 3.333333e+00	 7.037037e+00	 1.003334e+01
0	 3.407407e+00	 6.666667e+00	 1.005418e+01
0	 3.407407e+00	 6.740741e+00	 1.005080e+01
0	 3.407407e+00	 6.814815e+00	 1.004759e+01
0	 3.407407e+00	 6.888889e+00	 1.004456e+01
0	 3.407407e+00	 6.962963e+00	 1.004170e+01
0	 3.407407e+00	 7.037037e+00	 1.003903e+01
0	 3.481481e+00	 6.666667e+00	 1.006079e+01
0	 3.481481e+00	 6.740741e+00	 1.005718e+01
0	 3.481481e+00	 6.814815e+00	 1.005374e+01
0	 3.481481e+00	 6.888889e+00	 1.005047e+01
0	 3.481481e+00	 6.962963e+00	 1.004739e+01
0	 3.481481e+00	 7.037037e+00	 1.004449e+01
0	 3.555556e+00	 6.666667e+00	 1.006709e+01
0	 3.555556e+00	 6.740741e+00	 1.006326e+01
0	 3.555556e+00	 6.814815e+00	 1.005960e+01
0	 3.555556e+00	 6.888889e+00	 1.005613e+01
0	 3.555556e+00	 6.962963e+00	 1.005283e+01
0	 3.555556e+00	 7.037037e+00	 1.004972e+01
0	 3.629630e+00	 6.666667e+00	 1.007307e+01
0	 3.629630e+00	 6.740741e+00	 1.006904e+01
0	 3.629630e+00	 6.814815e+00	 1.006519e+01
0	 3.629630e+00	 6.888889e+00	 1.006151e+01
0	 3.629630e+00	 6.962963e+00	 1.005802e+01
0	 3.629630e+00	 7.037037e+00	 1.005471e+01
0	 3.703704e+00	 6.666667e+00	 1.007874e+01
0	 3.703704e+00	 6.740741e+00	 1.007453e+01
0	 3.703704e+00	 6.814815e+00	 1.007049e+01
0	 3.703704e+00	 6.888889e+00	 1.006663e+01
0	 3.703704e+00	 6.962963e+00	 1.006295e+01
0	 3.703704e+00	 7.037037e+00	 1.005945e+01
0	 3.333333e+00	 7.037037e+00	 1.003334e+01
0	 3.333333e+00	 7.111111e+00	 1.003106e+01
0	 3.333333e+00	 7.185185e+00	 1.002891e+01
0	 3.333333e+00	 7.259259e+00	 1.002688e+01
0	 3.333333e+00	 7.333333e+00	 1.002499e+01
0	 3.333333e+00	 7.407407e+00	 1.002324e+01
0	 3.407407e+00	 7.037037e+00	 1.003903e+01
0	 3.407407e+00	 7.111111e+00	 1.003652e+01
0	 3.407407e+00	 7.185185e+00	 1.003413e+01
0	 3.407407e+00	 7.259259e+00	 1.003188e+01
0	 3.407407e+00	 7.333333e+00	 1.002976e+01
0	 3.407407e+00	 7.407407e+00	 1.002778e+01
0	 3.481481e+00	 7.037037e+00	 1.004449e+01
0	 3.481481e+00	 7.111111e+00	 1.004175e+01
0	 3.481481e+00	 7.185185e+00	 1.003915e+01
0	 3.481481e+00	 7.259259e+00	 1.003668e+01
0	 3.481481e+00	 7.333333e+00	 1.003435e+01
0	 3.481481e+00	 7.407407e+00	 1.003216e+01
0	 3.555556e+00	 7.037037e+00	 1.004972e+01
0	 3.555556e+00	 7.111111e+00	 1.004677e+01
0	 3.555556e+00	 7.185185e+00	 1.004396e+01
0	 3.555556e+00	 7.259259e+00	 1.004128e+01
0	 3.555556e+00	 7.333333e+00	 1.003875e+01
0	 3.555556e+00	 7.407407e+00	 1.003635e+01
0	 3.629630e+00	 7.037037e+00	 1.005471e+01
0	 3.629630e+00	 7.111111e+00	 1.005156e+01
0	 3.629630e+00	 7.185185e+00	 1.004855e+01
0	 3.629630e+00	 7.259259e+00	 1.004568e+01
0	 3.629630e+00	 7.333333e+00	 1.004295e+01
0	 3.629630e+00	 7.407407e+00	 1.004037e+01
0	 3.703704e+00	 7.037037e+00	 1.005945e+01
0	 3.703704e+00	 7.111111e+00	 1.005612e+01
0	 3.703704e+00	 7.185185e+00	 1.005293e+01
0	 3.703704e+00	 7.259259e+00	 1.004987e+01
0	 3.703704e+00	 7.333333e+00	 1.004697e+01
0	 3.703704e+00	 7.407407e+00	 1.004420e+01
0	 3.333333e+00	 7.407407e+00	 1.002324e+01
0	 3.333333e+00	 7.481481e+00	 1.002160e+01
0	 3.333333e+00	 7.555556e+00	 1.002005e+01
0	 3.333333e+00	 7.629630e+00	 1.001859e+01
0	 3.333333e+00	 7.703704e+00	 1.001723e+01
0	 3.333333e+00	 7.777778e+00	 1.001597e+01
0	 3.407407e+00	 7.407407e+00	 1.002778e+01
0	 3.407407e+00	 7.481481e+00	 1.002592e+01
0	 3.407407e+00	 7.555556e+00	 1.002416e+01
0	 3.407407e+00	 7.629630e+00	 1.002249e+01
0	 3.407407e+00	 7.703704e+00	 1.002092e+01
0	 3.407407e+00	 7.777778e+00	 1.001946e+01
0	 3.481481e+00	 7.407407e+00	 1.003216e+01
0	 3.481481e+00	 7.481481e+00	 1.003009e+01
0	 3.481481e+00	 7.555556e+00	 1.002812e+01
0	 3.481481e+00	 7.629630e+00	 1.002625e+01
0	 3.481481e+00	 7.703704e+00	 1.002448e+01
0	 3.481481e+00	 7.777778e+00	 1.002282e+01
0	 3.555556e+00	 7.407407e+00	 1.003635e+01
0	 3.555556e+00	 7.481481e+00	 1.003409e+01
0	 3.555556e+00	 7.555556e+00	 1.003192e+01
0	 3.555556e+00	 7.629630e+00	 1.002986e+01
0	 3.555556e+00	 7.703704e+00	 1.002791e+01
0	 3.555556e+00	 7.777778e+00	 1.002606e+01
0	 3.629630e+00	 7.407407e+00	 1.004037e+01
0	 3.629630e+00	 7.481481e+00	 1.003792e+01
0	 3.629630e+00	 7.555556e+00	 1.003556e+01
0	 3.629630e+00	 7.629630e+00	 1.003332e+01
0	 3.629630e+00	 7.703704e+00	 1.003119e+01
0	 3.629630e+00	 7.777778e+00	 1.002917e+01
0	 3.703704e+00	 7.407407e+00	 1.004420e+01
0	 3.703704e+00	 7.481481e+00	 1.004157e+01
0	 3.703704e+00	 7.555556e+00	 1.003904e+01
0	 3.703704e+00	 7.629630e+00	 1.003663e+01
0	 3.703704e+00	 7.703704e+00	 1.003432e+01
0	 3.703704e+00	 7.777778e+00	 1.003213e+01
0	 3.333333e+00	 7.777778e+00	 1.001597e+01
0	 3.333333e+00	 7.851852e+00	 1.001479e+01
0	 3.333333e+00	 7.925926e+00	 1.001368e+01
0	 3.333333e+00	 8.000000e+00	 1.001263e+01
0	 3.333333e+00	 8.074074e+00	 1.001165e+01
0	 3.333333e+00	 8.148148e+00	 1.001074e+01
0	 3.407407e+00	 7.777778e+00	 1.001946e+01
0	 3.407407e+00	 7.851852e+00	 1.001808e+01
0	 3.407407e+00	 7.925926e+00	 1.001677e+01
0	 3.407407e+00	 8.000000e+00	 1.001554e+01
0	 3.407407e+00	 8.074074e+00	 1.001437e+01
0	 3.407407e+00	 8.148148e+00	 1.001328e+01
0	 3.481481e+00	 7.777778e+00	 1.002282e+01
0	 3.481481e+00	 7.851852e+00	 1.002126e+01
0	 3.481481e+00	 7.925926e+00	 1.001976e+01
0	 3.481481e+00	 8.000000e+00	 1.001834e+01
0	 3.481481e+00	 8.074074e+00	 1.001700e+01
0	 3.481481e+00	 8.148148e+00	 1.001573e+01
0	 3.555556e+00	 7.777778e+00	 1.002606e+01
0	 3.555556e+00	 7.851852e+00	 1.002431e+01
0	 3.555556e+00	 7.925926e+00	 1.002264e+01
0	 3.555556e+00	 8.000000e+00	 1.002104e+01
0	 3.555556e+00	 8.074074e+00	 1.001953e+01
0	 3.555556e+00	 8.148148e+00	 1.001810e+01
0	 3.629630e+00	 7.777778e+00	 1.002917e+01
0	 3.629630e+00	 7.851852e+00	 1.002724e+01
0	 3.629630e+00	 7.925926e+00	 1.002540e+01
0	 3.629630e+00	 8.000000e+00	 1.002364e+01
0	 3.629630e+00	 8.074074e+00	 1.002196e+01
0	 3.629630e+00	 8.148148e+00	 1.002037e+01
0	 3.703704e+00	 7.777778e+00	 1.003213e+01
0	 3.703704e+00	 7.851852e+00	 1.003004e+01
0	 3.703704e+00	 7.925926e+00	 1.002804e+01
0	 3.703704e+00	 8.000000e+00	 1.002612e+01
0	 3.703704e+00	 8.074074e+00	 1.002429e+01
0	 3.703704e+00	 8.148148e+00	 1.002254e+01
0	 3.333333e+00	 8.148148e+00	 1.001074e+01
0	 3.333333e+00	 8.222222e+00	 1.000989e+01
0	 3.333333e+00	 8.296296e+00	 1.000908e+01
0	 3.333333e+00	 8.370370e+00	 1.000832e+01
0	 3.333333e+00	 8.444444e+00	 1.000761e+01
0	 3.333333e+00	 8.518519e+00	 1.000694e+01
0	 3.407407e+00	 8.148148e+00	 1.001328e+01
0	 3.407407e+00	 8.222222e+00	 1.001225e+01
0	 3.407407e+00	 8.296296e+00	 1.001127e+01
0	 3.407407e+00	 8.370370e+00	 1.001035e+01
0	 3.407407e+00	 8.444444e+00	 1.000947e+01
0	 3.407407e+00	 8.518519e+00	 1.000865e+01
0	 3.481481e+00	 8.148148e+00	 1.001573e+01
0	 3.481481e+00	 8.222222e+00	 1.001454e+01
0	 3.481481e+00	 8.296296e+00	 1.001339e+01
0	 3.481481e+00	 8.370370e+00	 1.001231e+01
0	 3.481481e+00	 8.444444e+00	 1.001128e+01
0	 3.481481e+00	 8.518519e+00	 1.001030e+01
0	 3.555556e+00	 8.148148e+00	 1.001810e+01
0	 3.555556e+00	 8.222222e+00	 1.001674e+01
0	 3.555556e+00	 8.296296e+00	 1.001544e+01
0	 3.555556e+00	 8.370370e+00	 1.001420e+01
0	 3.555556e+00	 8.444444e+00	 1.001302e+01
0	 3.555556e+00	 8.518519e+00	 1.001190e+01
0	 3.629630e+00	 8.148148e+00	 1.002037e+01
0	 3.629630e+00	 8.222222e+00	 1.001886e+01
0	 3.629630e+00	 8.296296e+00	 1.001740e+01
0	 3.629630e+00	 8.370370e+00	 1.001602e+01
0	 3.629630e+00	 8.444444e+00	 1.001469e+01
0	 3.629630e+00	 8.518519e+00	 1.001344e+01
0	 3.703704e+00	 8.148148e+00	 1.002254e+01
0	 3.703704e+00	 8.222222e+00	 1.002088e+01
0	 3.703704e+00	 8.296296e+00	 1.001928e+01
0	 3.703704e+00	 8.370370e+00	 1.001775e+01
0	 3.703704e+00	 8.444444e+00	 1.001630e+01
0	 3.703704e+00	 8.518519e+00	 1.001490e+01
0	 3.333333e+00	 8.518519e+00	 1.000694e+01
0	 3.333333e+00	 8.592593e+00	 1.000631e+01
0	 3.333333e+00	 8.666667e+00	 1.000571e+01
0	 3.333333e+00	 8.740741e+00	 1.000515e+01
0	 3.333333e+00	 8.814815e+00	 1.000462e+01
0	 3.333333e+00	 8.888889e+00	 1.000411e+01
0	 3.407407e+00	 8.518519e+00	 1.000865e+01
0	 3.407407e+00	 8.592593e+00	 1.000787e+01
0	 3.407407e+00	 8.666667e+00	 1.000713e+01
0	 3.407407e+00	 8.740741e+00	 1.000642e+01
0	 3.407407e+00	 8.814815e+00	 1.000576e+01
0	 3.407407e+00	 8.888889e+00	 1.000513e+01
0	 3.481481e+00	 8.518519e+00	 1.001030e+01
0	 3.481481e+00	 8.592593e+00	 1.000938e+01
0	 3.481481e+00	 8.666667e+00	 1.000850e+01
0	 3.481481e+00	 8.740741e+00	 1.000766e+01
0	 3.481481e+00	 8.814815e+00	 1.000687e+01
0	 3.481481e+00	 8.888889e+00	 1.000612e+01
0	 3.555556e+00	 8.518519e+00	 1.001190e+01
0	 3.555556e+00	 8.592593e+00	 1.001084e+01
0	 3.555556e+00	 8.666667e+00	 1.000982e+01
0	 3.555556e+00	 8.740741e+00	 1.000886e+01
0	 3.555556e+00	 8.814815e+00	 1.000794e+01
0	 3.555556e+00	 8.888889e+00	 1.000707e+01
0	 3.629630e+00	 8.518519e+00	 1.001344e+01
0	 3.629630e+00	 8.592593e+00	 1.001224e+01
0	 3.629630e+00	 8.666667e+00	 1.001110e+01
0	 3.629630e+00	 8.740741e+00	 1.001001e+01
0	 3.629630e+00	 8.814815e+00	 1.000897e+01
0	 3.629630e+00	 8.888889e+00	 1.000799e+01
0	 3.703704e+00	 8.518519e+00	 1.001490e+01
0	 3.703704e+00	 8.592593e+00	 1.001358e+01
0	 3.703704e+00	 8.666667e+00	 1.001231e+01
0	 3.703704e+00	 8.740741e+00	 1.001110e+01
0	 3.703704e+00	 8.814815e+00	 1.000995e+01
0	 3.703704e+00	 8.888889e+00	 1.000886e+01
0	 3.333333e+00	 8.888889e+00	 1.000411e+01
0	 3.333333e+00	 8.962963e+00	 1.000364e+01
0	 3.333333e+00	 9.037037e+00	 1.000320e+01
0	 3.333333e+00	 9.111111e+00	 1.000278e+01
0	 3.333333e+00	 9.185185e+00	 1.000239e+01
0	 3.333333e+00	 9.259259e+00	 1.000201e+01
0	 3.407407e+00	 8.888889e+00	 1.000513e+01
0	 3.407407e+00	 8.962963e+00	 1.000454e+01
0	 3.407407e+00	 9.037037e+00	 1.000398e+01
0	 3.407407e+00	 9.111111e+00	 1.000345e+01
0	 3.407407e+00	 9.185185e+00	 1.000296e+01
0	 3.407407e+00	 9.259259e+00	 1.000249e+01
0	 3.481481e+00	 8.888889e+00	 1.000612e+01
0	 3.481481e+00	 8.962963e+00	 1.000541e+01
0	 3.481481e+00	 9.037037e+00	 1.000474e+01
0	 3.481481e+00	 9.111111e+00	 1.000411e+01
0	 3.481481e+00	 9.185185e+00	 1.000352e+01
0	 3.481481e+00	 9.259259e+00	 1.000296e+01
0	 3.555556e+00	 8.888889e+00	 1.000707e+01
0	 3.555556e+00	 8.962963e+00	 1.000625e+01
0	 3.555556e+00	 9.037037e+00	 1.000547e+01
0	 3.555556e+00	 9.111111e+00	 1.000474e+01
0	 3.555556e+00	 9.185185e+00	 1.000406e+01
0	 3.555556e+00	 9.259259e+00	 1.000341e+01
0	 3.629630e+00	 8.888889e+00	 1.000799e+01
0	 3.629630e+00	 8.962963e+00	 1.000706e+01
0	 3.629630e+00	 9.037037e+00	 1.000618e+01
0	 3.629630e+00	 9.111111e+00	 1.000535e+01
0	 3.629630e+00	 9.185185e+00	 1.000457e+01
0	 3.629630e+00	 9.259259e+00	 1.000384e+01
0	 3.703704e+00	 8.888889e+00	 1.000886e+01
0	 3.703704e+00	 8.962963e+00	 1.000783e+01
0	 3.703704e+00	 9.037037e+00	 1.000685e+01
0	 3.703704e+00	 9.111111e+00	 1.000593e+01
0	 3.703704e+00	 9.185185e+00	 1.000507e+01
0	 3.703704e+00	 9.259259e+00	 1.000425e+01
0	 3.333333e+00	 9.259259e+00	 1.000201e+01
0	 3.333333e+00	 9.333333e+00	 1.000167e+01
0	 3.333333e+00	 9.407407e+00	 1.000136e+01
0	 3.333333e+00	 9.481481e+00	 1.000107e+01
0	 3.333333e+00	 9.555556e+00	 1.000081e+01
0	 3.333333e+00	 9.629630e+00	 1.000058e+01
0	 3.407407e+00	 9.259259e+00	 1.000249e+01
0	 3.407407e+00	 9.333333e+00	 1.000206e+01
0	 3.407407e+00	 9.407407e+00	 1.000167e+01
0	 3.407407e+00	 9.481481e+00	 1.000131e+01
0	 3.407407e+00	 9.555556e+00	 1.000099e+01
0	 3.407407e+00	 9.629630e+00	 1.000070e+01
0	 3.481481e+00	 9.259259e+00	 1.000296e+01
0	 3.481481e+00	 9.333333e+00	 1.000244e+01
0	 3.481481e+00	 9.407407e+00	 1.000197e+01
0	 3.481481e+00	 9.481481e+00	 1.000155e+01
0	 3.481481e+00	 9.555556e+00	 1.000117e+01
0	 3.481481e+00	 9.629630e+00	 1.000083e+01
0	 3.555556e+00	 9.259259e+00	 1.000341e+01
0	 3.555556e+00	 9.333333e+00	 1.000281e+01
0	 3.555556e+00	 9.407407e+00	 1.000227e+01
0	 3.555556e+00	 9.481481e+00	 1.000179e+01
0	 3.555556e+00	 9.555556e+00	 1.000135e+01
0	 3.555556e+00	 9.629630e+00	 1.000095e+01
0	 3.629630e+00	 9.259259e+00	 1.000384e+01
0	 3.629630e+00	 9.333333e+00	 1.000317e+01
0	 3.629630e+00	 9.407407e+00	 1.000256e+01
0	 3.629630e+00	 9.481481e+00	 1.000201e+01
0	 3.629630e+00	 9.555556e+00	 1.000151e+01
0	 3.629630e+00	 9.629630e+00	 1.000107e+01
0	 3.703704e+00	 9.259259e+00	 1.000425e+01
0	 3.703704e+00	 9.333333e+00	 1.000350e+01
0	 3.703704e+00	 9.407407e+00	 1.000283e+01
0	 3.703704e+00	 9.481481e+00	 1.000222e+01
0	 3.703704e+00	 9.555556e+00	 1.000167e+01
0	 3.703704e+00	 9.629630e+00	 1.000117e+01
0	 3.333333e+00	 9.629630e+00	 1.000058e+01
0	 3.333333e+00	 9.703704e+00	 1.000037e+01
0	 3.333333e+00	 9.777778e+00	 1.000022e+01
0	 3.333333e+00	 9.851852e+00	 1.000011e+01
0	 3.333333e+00	 9.925926e+00	 1.000003e+01
0	 3.333333e+00	 1.000000e+01	 9.999985e+00
0	 3.407407e+00	 9.629630e+00	 1.000070e+01
0	 3.407407e+00	 9.703704e+00	 1.000045e+01
0	 3.407407e+00	 9.777778e+00	 1.000026e+01
0	 3.407407e+00	 9.851852e+00	 1.000012e+01
0	 3.407407e+00	 9.925926e+00	 1.000003e+01
0	 3.407407e+00	 1.000000e+01	 9.999978e+00
0	 3.481481e+00	 9.629630e+00	 1.000083e+01
0	 3.481481e+00	 9.703704e+00	 1.000053e+01
0	 3.481481e+00	 9.777778e+00	 1.000031e+01
0	 3.481481e+00	 9.851852e+00	 1.000015e+01
0	 3.481481e+00	 9.925926e+00	 1.000004e+01
0	 3.481481e+00	 1.000000e+01	 9.999979e+00
0	 3.555556e+00	 9.629630e+00	 1.000095e+01
0	 3.555556e+00	 9.703704e+00	 1.000062e+01
0	 3.555556e+00	 9.777778e+00	 1.000036e+01
0	 3.555556e+00	 9.851852e+00	 1.000017e+01
0	 3.555556e+00	 9.925926e+00	 1.000005e+01
0	 3.555556e+00	 1.000000e+01	 9.999983e+00
0	 3.629630e+00	 9.629630e+00	 1.000107e+01
0	 3.629630e+00	 9.703704e+00	 1.000069e+01
0	 3.629630e+00	 9.777778e+00	 1.000040e+01
0	 3.629630e+00	 9.851852e+00	 1.000020e+01
0	 3.629630e+00	 9.925926e+00	 1.000006e+01
0	 3.629630e+00	 1.000000e+01	 9.999985e+00
0	 3.703704e+00	 9.629630e+00	 1.000117e+01
0	 3.703704e+00	 9.703704e+00	 1.000076e+01
0	 3.703704e+00	 9.777778e+00	 1.000044e+01
0	 3.703704e+00	 9.851852e+00	 1.000021e+01
0	 3.703704e+00	 9.925926e+00	 1.000006e+01
0	 3.703704e+00	 1.000000e+01	 9.999980e+00
0	 3.703704e+00	 0.000000e+00	 1.059581e+01
0	 3.703704e+00	 7.407407e-02	 1.060460e+01
0	 3.703704e+00	 1.481481e-01	 1.061302e+01
0	 3.703704e+00	 2.222222e-01	 1.062141e+01
0	 3.703704e+00	 2.962963e-01	 1.063007e+01
0	 3.703704e+00	 3.703704e-01	 1.063933e+01
0	 3.777778e+00	 0.000000e+00	 1.056391e+01
0	 3.777778e+00	 7.407407e-02	 1.057393e+01
0	 3.777778e+00	 1.481481e-01	 1.058360e+01
0	 3.777778e+00	 2.222222e-01	 1.059302e+01
0	 3.777778e+00	 2.962963e-01	 1.060233e+01
0	 3.777778e+00	 3.703704e-01	 1.061166e+01
0	 3.851852e+00	 0.000000e+00	 1.054383e+01
0	 3.851852e+00	 7.407407e-02	 1.055170e+01
0	 3.851852e+00	 1.481481e-01	 1.055984e+01
0	 3.851852e+00	 2.222222e-01	 1.056823e+01
0	 3.851852e+00	 2.962963e-01	 1.057687e+01
0	 3.851852e+00	 3.703704e-01	 1.058577e+01
0	 3.925926e+00	 0.000000e+00	 1.053135e+01
0	 3.925926e+00	 7.407407e-02	 1.053525e+01
0	 3.925926e+00	 1.481481e-01	 1.054031e+01
0	 3.925926e+00	 2.222222e-01	 1.054647e+01
0	 3.925926e+00	 2.962963e-01	 1.055366e+01
0	 3.925926e+00	 3.703704e-01	 1.056181e+01
0	 4.000000e+00	 0.000000e+00	 1.052223e+01
0	 4.000000e+00	 7.407407e-02	 1.052190e+01
0	 4.000000e+00	 1.481481e-01	 1.052358e+01
0	 4.000000e+00	 2.222222e-01	 1.052720e+01
0	 4.000000e+00	 2.962963e-01	 1.053268e+01
0	 4.000000e+00	 3.703704e-01	 1.053994e+01
0	 4.074074e+00	 0.000000e+00	 1.051224e+01
0	 4.074074e+00	 7.407407e-02	 1.050900e+01
0	 4.074074e+00	 1.481481e-01	 1.050821e+01
0	 4.074074e+00	 2.222222e-01	 1.050985e+01
0	 4.074074e+00	 2.962963e-01	 1.051390e+01
0	 4.074074e+00	 3.703704e-01	 1.052035e+01
0	 3.703704e+00	 3.703704e-01	 1.063933e+01
0	 3.703704e+00	 4.444444e-01	 1.064952e+01
0	 3.703704e+00	 5.185185e-01	 1.066087e+01
0	 3.703704e+00	 5.925926e-01	 1.067351e+01
0	 3.703704e+00	 6.666667e-01	 1.068759e+01
0	 3.703704e+00	 7.407407e-01	 1.070324e+01
0	 3.777778e+00	 3.703704e-01	 1.061166e+01
0	 3.777778e+00	 4.444444e-01	 1.062147e+01
0	 3.777778e+00	 5.185185e-01	 1.063228e+01
0	 3.777778e+00	 5.925926e-01	 1.064431e+01
0	 3.777778e+00	 6.666667e-01	 1.065778e+01
0	 3.777778e+00	 7.407407e-01	 1.067292e+01
0	 3.851852e+00	 3.703704e-01	 1.058577e+01
0	 3.851852e+00	 4.444444e-01	 1.059511e+01
0	 3.851852e+00	 5.185185e-01	 1.060529e+01
0	 3.851852e+00	 5.925926e-01	 1.061656e+01
0	 3.851852e+00	 6.666667e-01	 1.062921e+01
0	 3.851852e+00	 7.407407e-01	 1.064348e+01
0	 3.925926e+00	 3.703704e-01	 1.056181e+01
0	 3.925926e+00	 4.444444e-01	 1.057064e+01
0	 3.925926e+00	 5.185185e-01	 1.058015e+01
0	 3.925926e+00	 5.925926e-01	 1.059062e+01
0	 3.925926e+00	 6.666667e-01	 1.060233e+01
0	 3.925926e+00	 7.407407e-01	 1.061556e+01
0	 4.000000e+00	 3.703704e-01	 1.053994e+01
0	 4.000000e+00	 4.444444e-01	 1.054826e+01
0	 4.000000e+00	 5.185185e-01	 1.055714e+01
0	 4.000000e+00	 5.925926e-01	 1.056684e+01
0	 4.000000e+00	 6.666667e-01	 1.057763e+01
0	 4.000000e+00	 7.407407e-01	 1.058978e+01
0	 4.074074e+00	 3.703704e-01	 1.052035e+01
0	 4.074074e+00	 4.444444e-01	 1.052816e+01
0	 4.074074e+00	 5.185185e-01	 1.053649e+01
0	 4.074074e+00	 5.925926e-01	 1.054556e+01
0	 4.074074e+00	 6.666667e-01	 1.055558e+01
0	 4.074074e+00	 7.407407e-01	 1.056679e+01
0	 3.703704e+00	 7.407407e-01	 1.070324e+01
0	 3.703704e+00	 8.148148e-01	 1.071906e+01
0	 3.703704e+00	 8.888889e-01	 1.073375e+01
0	 3.703704e+00	 9.629630e-01	 1.074763e+01
0	 3.703704e+00	 1.037037e+00	 1.076103e+01
0	 3.703704e+00	 1.111111e+00	 1.077426e+01
0	 3.777778e+00	 7.407407e-01	 1.067292e+01
0	 3.777778e+00	 8.148148e-01	 1.068832e+01
0	 3.777778e+00	 8.888889e-01	 1.070264e+01
0	 3.777778e+00	 9.629630e-01	 1.071616e+01
0	 3.777778e+00	 1.037037e+00	 1.072916e+01
0	 3.777778e+00	 1.111111e+00	 1.074193e+01
0	 3.851852e+00	 7.407407e-01	 1.064348e+01
0	 3.851852e+00	 8.148148e-01	 1.065815e+01
0	 3.851852e+00	 8.888889e-01	 1.067196e+01
0	 3.851852e+00	 9.629630e-01	 1.068516e+01
0	 3.851852e+00	 1.037037e+00	 1.069801e+01
0	 3.851852e+00	 1.111111e+00	 1.071075e+01
0	 3.925926e+00	 7.407407e-01	 1.061556e+01
0	 3.925926e+00	 8.148148e-01	 1.062930e+01
0	 3.925926e+00	 8.888889e-01	 1.064249e+01
0	 3.925926e+00	 9.629630e-01	 1.065535e+01
0	 3.925926e+00	 1.037037e+00	 1.066812e+01
0	 3.925926e+00	 1.111111e+00	 1.068101e+01
0	 4.000000e+00	 7.407407e-01	 1.058978e+01
0	 4.000000e+00	 8.148148e-01	 1.060252e+01
0	 4.000000e+00	 8.888889e-01	 1.061500e+01
0	 4.000000e+00	 9.629630e-01	 1.062744e+01
0	 4.000000e+00	 1.037037e+00	 1.064005e+01
0	 4.000000e+00	 1.111111e+00	 1.065301e+01
0	 4.074074e+00	 7.407407e-01	 1.056679e+01
0	 4.074074e+00	 8.148148e-01	 1.057857e+01
0	 4.074074e+00	 8.888889e-01	 1.059029e+01
0	 4.074074e+00	 9.629630e-01	 1.060215e+01
0	 4.074074e+00	 1.037037e+00	 1.061434e+01
0	 4.074074e+00	 1.111111e+00	 1.062706e+01
0	 3.703704e+00	 1.111111e+00	 1.077426e+01
0	 3.703704e+00	 1.185185e+00	 1.078671e+01
0	 3.703704e+00	 1.259259e+00	 1.079777e+01
0	 3.703704e+00	 1.333333e+00	 1.080780e+01
0	 3.703704e+00	 1.407407e+00	 1.081715e+01
0	 3.703704e+00	 1.481481e+00	 1.082617e+01
0	 3.777778e+00	 1.111111e+00	 1.074193e+01
0	 3.777778e+00	 1.185185e+00	 1.075411e+01
0	 3.777778e+00	 1.259259e+00	 1.076530e+01
0	 3.777778e+00	 1.333333e+00	 1.077573e+01
0	 3.777778e+00	 1.407407e+00	 1.078562e+01
0	 3.777778e+00	 1.481481e+00	 1.079520e+01
0	 3.851852e+00	 1.111111e+00	 1.071075e+01
0	 3.851852e+00	 1.185185e+00	 1.072305e+01
0	 3.851852e+00	 1.259259e+00	 1.073452e+01
0	 3.851852e+00	 1.333333e+00	 1.074530e+01
0	 3.851852e+00	 1.407407e+00	 1.075552e+01
0	 3.851852e+00	 1.481481e+00	 1.076531e+01
0	 3.925926e+00	 1.111111e+00	 1.068101e+01
0	 3.925926e+00	 1.185185e+00	 1.069358e+01
0	 3.925926e+00	 1.259259e+00	 1.070532e+01
0	 3.925926e+00	 1.333333e+00	 1.071630e+01
0	 3.925926e+00	 1.407407e+00	 1.072662e+01
0	 3.925926e+00	 1.481481e+00	 1.073635e+01
0	 4.000000e+00	 1.111111e+00	 1.065301e+01
0	 4.000000e+00	 1.185185e+00	 1.066574e+01
0	 4.000000e+00	 1.259259e+00	 1.067754e+01
0	 4.000000e+00	 1.333333e+00	 1.068850e+01
0	 4.000000e+00	 1.407407e+00	 1.069868e+01
0	 4.000000e+00	 1.481481e+00	 1.070816e+01
0	 4.074074e+00	 1.111111e+00	 1.062706e+01
0	 4.074074e+00	 1.185185e+00	 1.063956e+01
0	 4.074074e+00	 1.259259e+00	 1.065106e+01
0	 4.074074e+00	 1.333333e+00	 1.066166e+01
0	 4.074074e+00	 1.407407e+00	 1.067148e+01
0	 4.074074e+00	 1.481481e+00	 1.068061e+01
0	 3.703704e+00	 1.481481e+00	 1.082617e+01
0	 3.703704e+00	 1.555556e+00	 1.083422e+01
0	 3.703704e+00	 1.629630e+00	 1.084039e+01
0	 3.703704e+00	 1.703704e+00	 1.084464e+01
0	 3.703704e+00	 1.777778e+00	 1.084691e+01
0	 3.703704e+00	 1.851852e+00	 1.084717e+01
0	 3.777778e+00	 1.481481e+00	 1.079520e+01
0	 3.777778e+00	 1.555556e+00	 1.080363e+01
0	 3.777778e+00	 1.629630e+00	 1.080998e+01
0	 3.777778e+00	 1.703704e+00	 1.081435e+01
0	 3.777778e+00	 1.777778e+00	 1.081683e+01
0	 3.777778e+00	 1.851852e+00	 1.081752e+01
0	 3.851852e+00	 1.481481e+00	 1.076531e+01
0	 3.851852e+00	 1.555556e+00	 1.077384e+01
0	 3.851852e+00	 1.629630e+00	 1.078029e+01
0	 3.851852e+00	 1.703704e+00	 1.078488e+01
0	 3.851852e+00	 1.777778e+00	 1.078777e+01
0	 3.851852e+00	 1.851852e+00	 1.078917e+01
0	 3.925926e+00	 1.481481e+00	 1.073635e+01
0	 3.925926e+00	 1.555556e+00	 1.074479e+01
0	 3.925926e+00	 1.629630e+00	 1.075133e+01
0	 3.925926e+00	 1.703704e+00	 1.075621e+01
0	 3.925926e+00	 1.777778e+00	 1.075967e+01
0	 3.925926e+00	 1.851852e+00	 1.076193e+01
0	 4.000000e+00	 1.481481e+00	 1.070816e+01
0	 4.000000e+00	 1.555556e+00	 1.071644e+01
0	 4.000000e+00	 1.629630e+00	 1.072309e+01
0	 4.000000e+00	 1.703704e+00	 1.072836e+01
0	 4.000000e+00	 1.777778e+00	 1.073246e+01
0	 4.000000e+00	 1.851852e+00	 1.073562e+01
0	 4.074074e+00	 1.481481e+00	 1.068061e+01
0	 4.074074e+00	 1.555556e+00	 1.068874e+01
0	 4.074074e+00	 1.629630e+00	 1.069558e+01
0	 4.074074e+00	 1.703704e+00	 1.070129e+01
0	 4.074074e+00	 1.777778e+00	 1.070606e+01
0	 4.074074e+00	 1.851852e+00	 1.071006e+01
0	 3.703704e+00	 1.851852e+00	 1.084717e+01
0	 3.703704e+00	 1.925926e+00	 1.084563e+01
0	 3.703704e+00	 2.000000e+00	 1.084262e+01
0	 3.703704e+00	 2.074074e+00	 1.083822e+01
0	 3.703704e+00	 2.148148e+00	 1.083250e+01
0	 3.703704e+00	 2.222222e+00	 1.082556e+01
0	 3.777778e+00	 1.851852e+00	 1.081752e+01
0	 3.777778e+00	 1.925926e+00	 1.081676e+01
0	 3.777778e+00	 2.000000e+00	 1.081480e+01
0	 3.777778e+00	 2.074074e+00	 1.081166e+01
0	 3.777778e+00	 2.148148e+00	 1.080734e+01
0	 3.777778e+00	 2.222222e+00	 1.080186e+01
0	 3.851852e+00	 1.851852e+00	 1.078917e+01
0	 3.851852e+00	 1.925926e+00	 1.078935e+01
0	 3.851852e+00	 2.000000e+00	 1.078842e+01
0	 3.851852e+00	 2.074074e+00	 1.078635e+01
0	 3.851852e+00	 2.148148e+00	 1.078311e+01
0	 3.851852e+00	 2.222222e+00	 1.077864e+01
0	 3.925926e+00	 1.851852e+00	 1.076193e+01
0	 3.925926e+00	 1.925926e+00	 1.076312e+01
0	 3.925926e+00	 2.000000e+00	 1.076316e+01
0	 3.925926e+00	 2.074074e+00	 1.076200e+01
0	 3.925926e+00	 2.148148e+00	 1.075957e+01
0	 3.925926e+00	 2.222222e+00	 1.075582e+01
0	 4.000000e+00	 1.851852e+00	 1.073562e+01
0	 4.000000e+00	 1.925926e+00	 1.073778e+01
0	 4.000000e+00	 2.000000e+00	 1.073868e+01
0	 4.000000e+00	 2.074074e+00	 1.073826e+01
0	 4.000000e+00	 2.148148e+00	 1.073648e+01
0	 4.000000e+00	 2.222222e+00	 1.073329e+01
0	 4.074074e+00	 1.851852e+00	 1.071006e+01
0	 4.074074e+00	 1.925926e+00	 1.071304e+01
0	 4.074074e+00	 2.000000e+00	 1.071464e+01
0	 4.074074e+00	 2.074074e+00	 1.071483e+01
0	 4.074074e+00	 2.148148e+00	 1.071360e+01
0	 4.074074e+00	 2.222222e+00	 1.071096e+01
0	 3.703704e+00	 2.222222e+00	 1.082556e+01
0	 3.703704e+00	 2.296296e+00	 1.081740e+01
0	 3.703704e+00	 2.370370e+00	 1.080792e+01
0	 3.703704e+00	 2.444444e+00	 1.079701e+01
0	 3.703704e+00	 2.518519e+00	 1.078459e+01
0	 3.703704e+00	 2.592593e+00	 1.077054e+01
0	 3.777778e+00	 2.222222e+00	 1.080186e+01
0	 3.777778e+00	 2.296296e+00	 1.079510e+01
0	 3.777778e+00	 2.370370e+00	 1.078691e+01
0	 3.777778e+00	 2.444444e+00	 1.077726e+01
0	 3.777778e+00	 2.518519e+00	 1.076610e+01
0	 3.777778e+00	 2.592593e+00	 1.075338e+01
0	 3.851852e+00	 2.222222e+00	 1.077864e+01
0	 3.851852e+00	 2.296296e+00	 1.077287e+01
0	 3.851852e+00	 2.370370e+00	 1.076572e+01
0	 3.851852e+00	 2.444444e+00	 1.075718e+01
0	 3.851852e+00	 2.518519e+00	 1.074725e+01
0	 3.851852e+00	 2.592593e+00	 1.073592e+01
0	 3.925926e+00	 2.222222e+00	 1.075582e+01
0	 3.925926e+00	 2.296296e+00	 1.075077e+01
0	 3.925926e+00	 2.370370e+00	 1.074447e+01
0	 3.925926e+00	 2.444444e+00	 1.073695e+01
0	 3.925926e+00	 2.518519e+00	 1.072822e+01
0	 3.925926e+00	 2.592593e+00	 1.071828e+01
0	 4.000000e+00	 2.222222e+00	 1.073329e+01
0	 4.000000e+00	 2.296296e+00	 1.072884e+01
0	 4.000000e+00	 2.370370e+00	 1.072333e+01
0	 4.000000e+00	 2.444444e+00	 1.071677e+01
0	 4.000000e+00	 2.518519e+00	 1.070919e+01
0	 4.000000e+00	 2.592593e+00	 1.070060e+01
0	 4.074074e+00	 2.222222e+00	 1.071096e+01
0	 4.074074e+00	 2.296296e+00	 1.070714e+01
0	 4.074074e+00	 2.370370e+00	 1.070244e+01
0	 4.074074e+00	 2.444444e+00	 1.069684e+01
0	 4.074074e+00	 2.518519e+00	 1.069036e+01
0	 4.074074e+00	 2.592593e+00	 1.068299e+01
0	 3.703704e+00	 2.592593e+00	 1.077054e+01
0	 3.703704e+00	 2.666667e+00	 1.075547e+01
0	 3.703704e+00	 2.740741e+00	 1.073997e+01
0	 3.703704e+00	 2.814815e+00	 1.072400e+01
0	 3.703704e+00	 2.888889e+00	 1.070750e+01
0	 3.703704e+00	 2.962963e+00	 1.069041e+01
0	 3.777778e+00	 2.592593e+00	 1.075338e+01
0	 3.777778e+00	 2.666667e+00	 1.073971e+01
0	 3.777778e+00	 2.740741e+00	 1.072566e+01
0	 3.777778e+00	 2.814815e+00	 1.071114e+01
0	 3.777778e+00	 2.888889e+00	 1.069609e+01
0	 3.777778e+00	 2.962963e+00	 1.068042e+01
0	 3.851852e+00	 2.592593e+00	 1.073592e+01
0	 3.851852e+00	 2.666667e+00	 1.072371e+01
0	 3.851852e+00	 2.740741e+00	 1.071108e+01
0	 3.851852e+00	 2.814815e+00	 1.069793e+01
0	 3.851852e+00	 2.888889e+00	 1.068417e+01
0	 3.851852e+00	 2.962963e+00	 1.066971e+01
0	 3.925926e+00	 2.592593e+00	 1.071828e+01
0	 3.925926e+00	 2.666667e+00	 1.070753e+01
0	 3.925926e+00	 2.740741e+00	 1.069625e+01
0	 3.925926e+00	 2.814815e+00	 1.068436e+01
0	 3.925926e+00	 2.888889e+00	 1.067176e+01
0	 3.925926e+00	 2.962963e+00	 1.065836e+01
0	 4.000000e+00	 2.592593e+00	 1.070060e+01
0	 4.000000e+00	 2.666667e+00	 1.069121e+01
0	 4.000000e+00	 2.740741e+00	 1.068119e+01
0	 4.000000e+00	 2.814815e+00	 1.067044e+01
0	 4.000000e+00	 2.888889e+00	 1.065889e+01
0	 4.000000e+00	 2.962963e+00	 1.064646e+01
0	 4.074074e+00	 2.592593e+00	 1.068299e+01
0	 4.074074e+00	 2.666667e+00	 1.067482e+01
0	 4.074074e+00	 2.740741e+00	 1.066591e+01
0	 4.074074e+00	 2.814815e+00	 1.065619e+01
0	 4.074074e+00	 2.888889e+00	 1.064561e+01
0	 4.074074e+00	 2.962963e+00	 1.063410e+01
0	 3.703704e+00	 2.962963e+00	 1.069041e+01
0	 3.703704e+00	 3.037037e+00	 1.067294e+01
0	 3.703704e+00	 3.111111e+00	 1.065526e+01
0	 3.703704e+00	 3.185185e+00	 1.063730e+01
0	 3.703704e+00	 3.259259e+00	 1.061896e+01
0	 3.703704e+00	 3.333333e+00	 1.060015e+01
0	 3.777778e+00	 2.962963e+00	 1.068042e+01
0	 3.777778e+00	 3.037037e+00	 1.066428e+01
0	 3.777778e+00	 3.111111e+00	 1.064783e+01
0	 3.777778e+00	 3.185185e+00	 1.063101e+01
0	 3.777778e+00	 3.259259e+00	 1.061376e+01
0	 3.777778e+00	 3.333333e+00	 1.059601e+01
0	 3.851852e+00	 2.962963e+00	 1.066971e+01
0	 3.851852e+00	 3.037037e+00	 1.065471e+01
0	 3.851852e+00	 3.111111e+00	 1.063937e+01
0	 3.851852e+00	 3.185185e+00	 1.062363e+01
0	 3.851852e+00	 3.259259e+00	 1.060747e+01
0	 3.851852e+00	 3.333333e+00	 1.059082e+01
0	 3.925926e+00	 2.962963e+00	 1.065836e+01
0	 3.925926e+00	 3.037037e+00	 1.064437e+01
0	 3.925926e+00	 3.111111e+00	 1.063005e+01
0	 3.925926e+00	 3.185185e+00	 1.061536e+01
0	 3.925926e+00	 3.259259e+00	 1.060026e+01
0	 3.925926e+00	 3.333333e+00	 1.058473e+01
0	 4.000000e+00	 2.962963e+00	 1.064646e+01
0	 4.000000e+00	 3.037037e+00	 1.063341e+01
0	 4.000000e+00	 3.111111e+00	 1.062007e+01
0	 4.000000e+00	 3.185185e+00	 1.060640e+01
0	 4.000000e+00	 3.259259e+00	 1.059235e+01
0	 4.000000e+00	 3.333333e+00	 1.057791e+01
0	 4.074074e+00	 2.962963e+00	 1.063410e+01
0	 4.074074e+00	 3.037037e+00	 1.062199e+01
0	 4.074074e+00	 3.111111e+00	 1.060962e+01
0	 4.074074e+00	 3.185185e+00	 1.059695e+01
0	 4.074074e+00	 3.259259e+00	 1.058392e+01
0	 4.074074e+00	 3.333333e+00	 1.057051e+01
0	 3.703704e+00	 3.333333e+00	 1.060015e+01
0	 3.703704e+00	 3.407407e+00	 1.058123e+01
0	 3.703704e+00	 3.481481e+00	 1.056257e+01
0	 3.703704e+00	 3.555556e+00	 1.054413e+01
0	 3.703704e+00	 3.629630e+00	 1.052585e+01
0	 3.703704e+00	 3.703704e+00	 1.050769e+01
0	 3.777778e+00	 3.333333e+00	 1.059601e+01
0	 3.777778e+00	 3.407407e+00	 1.057814e+01
0	 3.777778e+00	 3.481481e+00	 1.056049e+01
0	 3.777778e+00	 3.555556e+00	 1.054302e+01
0	 3.777778e+00	 3.629630e+00	 1.052567e+01
0	 3.777778e+00	 3.703704e+00	 1.050836e+01
0	 3.851852e+00	 3.333333e+00	 1.059082e+01
0	 3.851852e+00	 3.407407e+00	 1.057403e+01
0	 3.851852e+00	 3.481481e+00	 1.055741e+01
0	 3.851852e+00	 3.555556e+00	 1.054089e+01
0	 3.851852e+00	 3.629630e+00	 1.052441e+01
0	 3.851852e+00	 3.703704e+00	 1.050790e+01
0	 3.925926e+00	 3.333333e+00	 1.058473e+01
0	 3.925926e+00	 3.407407e+00	 1.056903e+01
0	 3.925926e+00	 3.481481e+00	 1.055342e+01
0	 3.925926e+00	 3.555556e+00	 1.053783e+01
0	 3.925926e+00	 3.629630e+00	 1.052218e+01
0	 3.925926e+00	 3.703704e+00	 1.050642e+01
0	 4.000000e+00	 3.333333e+00	 1.057791e+01
0	 4.000000e+00	 3.407407e+00	 1.056327e+01
0	 4.000000e+00	 3.481481e+00	 1.054862e+01
0	 4.000000e+00	 3.555556e+00	 1.053391e+01
0	 4.000000e+00	 3.629630e+00	 1.051907e+01
0	 4.000000e+00	 3.703704e+00	 1.050404e+01
0	 4.074074e+00	 3.333333e+00	 1.057051e+01
0	 4.074074e+00	 3.407407e+00	 1.055686e+01
0	 4.074074e+00	 3.481481e+00	 1.054312e+01
0	 4.074074e+00	 3.555556e+00	 1.052924e+01
0	 4.074074e+00	 3.629630e+00	 1.051517e+01
0	 4.074074e+00	 3.703704e+00	 1.050085e+01
0	 3.703704e+00	 3.703704e+00	 1.050769e+01
0	 3.703704e+00	 3.777778e+00	 1.048975e+01
0	 3.703704e+00	 3.851852e+00	 1.047216e+01
0	 3.703704e+00	 3.925926e+00	 1.045485e+01
0	 3.703704e+00	 4.000000e+00	 1.043780e+01
0	 3.703704e+00	 4.074074e+00	 1.042094e+01
0	 3.777778e+00	 3.703704e+00	 1.050836e+01
0	 3.777778e+00	 3.777778e+00	 1.049120e+01
0	 3.777778e+00	 3.851852e+00	 1.047431e+01
0	 3.777778e+00	 3.925926e+00	 1.045764e+01
0	 3.777778e+00	 4.000000e+00	 1.044117e+01
0	 3.777778e+00	 4.074074e+00	 1.042485e+01
0	 3.851852e+00	 3.703704e+00	 1.050790e+01
0	 3.851852e+00	 3.777778e+00	 1.049147e+01
0	 3.851852e+00	 3.851852e+00	 1.047526e+01
0	 3.851852e+00	 3.925926e+00	 1.045923e+01
0	 3.851852e+00	 4.000000e+00	 1.044336e+01
0	 3.851852e+00	 4.074074e+00	 1.042763e+01
0	 3.925926e+00	 3.703704e+00	 1.050642e+01
0	 3.925926e+00	 3.777778e+00	 1.049069e+01
0	 3.925926e+00	 3.851852e+00	 1.047514e+01
0	 3.925926e+00	 3.925926e+00	 1.045976e+01
0	 3.925926e+00	 4.000000e+00	 1.044452e+01
0	 3.925926e+00	 4.074074e+00	 1.042939e+01
0	 4.000000e+00	 3.703704e+00	 1.050404e+01
0	 4.000000e+00	 3.777778e+00	 1.048898e+01
0	 4.000000e+00	 3.851852e+00	 1.047411e+01
0	 4.000000e+00	 3.925926e+00	 1.045938e+01
0	 4.000000e+00	 4.000000e+00	 1.044477e+01
0	 4.000000e+00	 4.074074e+00	 1.043025e+01
0	 4.074074e+00	 3.703704e+00	 1.050085e+01
0	 4.074074e+00	 3.777778e+00	 1.048649e+01
0	 4.074074e+00	 3.851852e+00	 1.047229e+01
0	 4.074074e+00	 3.925926e+00	 1.045821e+01
0	 4.074074e+00	 4.000000e+00	 1.044423e+01
0	 4.074074e+00	 4.074074e+00	 1.043032e+01
0	 3.703704e+00	 4.074074e+00	 1.042094e+01
0	 3.703704e+00	 4.148148e+00	 1.040442e+01
0	 3.703704e+00	 4.222222e+00	 1.038837e+01
0	 3.703704e+00	 4.296296e+00	 1.037277e+01
0	 3.703704e+00	 4.370370e+00	 1.035761e+01
0	 3.703704e+00	 4.444444e+00	 1.034285e+01
0	 3.777778e+00	 4.074074e+00	 1.042485e+01
0	 3.777778e+00	 4.148148e+00	 1.040883e+01
0	 3.777778e+00	 4.222222e+00	 1.039325e+01
0	 3.777778e+00	 4.296296e+00	 1.037809e+01
0	 3.777778e+00	 4.370370e+00	 1.036331e+01
0	 3.777778e+00	 4.444444e+00	 1.034889e+01
0	 3.851852e+00	 4.074074e+00	 1.042763e+01
0	 3.851852e+00	 4.148148e+00	 1.041215e+01
0	 3.851852e+00	 4.222222e+00	 1.039708e+01
0	 3.851852e+00	 4.296296e+00	 1.038236e+01
0	 3.851852e+00	 4.370370e+00	 1.036798e+01
0	 3.851852e+00	 4.444444e+00	 1.035390e+01
0	 3.925926e+00	 4.074074e+00	 1.042939e+01
0	 3.925926e+00	 4.148148e+00	 1.041448e+01
0	 3.925926e+00	 4.222222e+00	 1.039992e+01
0	 3.925926e+00	 4.296296e+00	 1.038567e+01
0	 3.925926e+00	 4.370370e+00	 1.037170e+01
0	 3.925926e+00	 4.444444e+00	 1.035797e+01
0	 4.000000e+00	 4.074074e+00	 1.043025e+01
0	 4.000000e+00	 4.148148e+00	 1.041592e+01
0	 4.000000e+00	 4.222222e+00	 1.040188e+01
0	 4.000000e+00	 4.296296e+00	 1.038809e+01
0	 4.000000e+00	 4.370370e+00	 1.037453e+01
0	 4.000000e+00	 4.444444e+00	 1.036116e+01
0	 4.074074e+00	 4.074074e+00	 1.043032e+01
0	 4.074074e+00	 4.148148e+00	 1.041656e+01
0	 4.074074e+00	 4.222222e+00	 1.040302e+01
0	 4.074074e+00	 4.296296e+00	 1.038970e+01
0	 4.074074e+00	 4.370370e+00	 1.037655e+01
0	 4.074074e+00	 4.444444e+00	 1.036355e+01
0	 3.703704e+00	 4.444444e+00	 1.034285e+01
0	 3.703704e+00	 4.518519e+00	 1.032851e+01
0	 3.703704e+00	 4.592593e+00	 1.031462e+01
0	 3.703704e+00	 4.666667e+00	 1.030116e+01
0	 3.703704e+00	 4.740741e+00	 1.028812e+01
0	 3.703704e+00	 4.814815e+00	 1.027547e+01
0	 3.777778e+00	 4.444444e+00	 1.034889e+01
0	 3.777778e+00	 4.518519e+00	 1.033484e+01
0	 3.777778e+00	 4.592593e+00	 1.032120e+01
0	 3.777778e+00	 4.666667e+00	 1.030795e+01
0	 3.777778e+00	 4.740741e+00	 1.029508e+01
0	 3.777778e+00	 4.814815e+00	 1.028258e+01
0	 3.851852e+00	 4.444444e+00	 1.035390e+01
0	 3.851852e+00	 4.518519e+00	 1.034015e+01
0	 3.851852e+00	 4.592593e+00	 1.032678e+01
0	 3.851852e+00	 4.666667e+00	 1.031377e+01
0	 3.851852e+00	 4.740741e+00	 1.030111e+01
0	 3.851852e+00	 4.814815e+00	 1.028880e+01
0	 3.925926e+00	 4.444444e+00	 1.035797e+01
0	 3.925926e+00	 4.518519e+00	 1.034453e+01
0	 3.925926e+00	 4.592593e+00	 1.033144e+01
0	 3.925926e+00	 4.666667e+00	 1.031869e+01
0	 3.925926e+00	 4.740741e+00	 1.030627e+01
0	 3.925926e+00	 4.814815e+00	 1.029417e+01
0	 4.000000e+00	 4.444444e+00	 1.036116e+01
0	 4.000000e+00	 4.518519e+00	 1.034804e+01
0	 4.000000e+00	 4.592593e+00	 1.033526e+01
0	 4.000000e+00	 4.666667e+00	 1.032279e+01
0	 4.000000e+00	 4.740741e+00	 1.031063e+01
0	 4.000000e+00	 4.814815e+00	 1.029876e+01
0	 4.074074e+00	 4.444444e+00	 1.036355e+01
0	 4.074074e+00	 4.518519e+00	 1.035078e+01
0	 4.074074e+00	 4.592593e+00	 1.033831e+01
0	 4.074074e+00	 4.666667e+00	 1.032615e+01
0	 4.074074e+00	 4.740741e+00	 1.031426e+01
0	 4.074074e+00	 4.814815e+00	 1.030263e+01
0	 3.703704e+00	 4.814815e+00	 1.027547e+01
0	 3.703704e+00	 4.888889e+00	 1.026324e+01
0	 3.703704e+00	 4.962963e+00	 1.025145e+01
0	 3.703704e+00	 5.037037e+00	 1.024008e+01
0	 3.703704e+00	 5.111111e+00	 1.022915e+01
0	 3.703704e+00	 5.185185e+00	 1.021863e+01
0	 3.777778e+00	 4.814815e+00	 1.028258e+01
0	 3.777778e+00	 4.888889e+00	 1.027048e+01
0	 3.777778e+00	 4.962963e+00	 1.025878e+01
0	 3.777778e+00	 5.037037e+00	 1.024750e+01
0	 3.777778e+00	 5.111111e+00	 1.023662e+01
0	 3.777778e+00	 5.185185e+00	 1.022613e+01
0	 3.851852e+00	 4.814815e+00	 1.028880e+01
0	 3.851852e+00	 4.888889e+00	 1.027684e+01
0	 3.851852e+00	 4.962963e+00	 1.026529e+01
0	 3.851852e+00	 5.037037e+00	 1.025411e+01
0	 3.851852e+00	 5.111111e+00	 1.024331e+01
0	 3.851852e+00	 5.185185e+00	 1.023287e+01
0	 3.925926e+00	 4.814815e+00	 1.029417e+01
0	 3.925926e+00	 4.888889e+00	 1.028240e+01
0	 3.925926e+00	 4.962963e+00	 1.027100e+01
0	 3.925926e+00	 5.037037e+00	 1.025996e+01
0	 3.925926e+00	 5.111111e+00	 1.024926e+01
0	 3.925926e+00	 5.185185e+00	 1.023889e+01
0	 4.000000e+00	 4.814815e+00	 1.029876e+01
0	 4.000000e+00	 4.888889e+00	 1.028720e+01
0	 4.000000e+00	 4.962963e+00	 1.027598e+01
0	 4.000000e+00	 5.037037e+00	 1.026508e+01
0	 4.000000e+00	 5.111111e+00	 1.025450e+01
0	 4.000000e+00	 5.185185e+00	 1.024422e+01
0	 4.074074e+00	 4.814815e+00	 1.030263e+01
0	 4.074074e+00	 4.888889e+00	 1.029129e+01
0	 4.074074e+00	 4.962963e+00	 1.028026e+01
0	 4.074074e+00	 5.037037e+00	 1.026953e+01
0	 4.074074e+00	 5.111111e+00	 1.025908e+01
0	 4.074074e+00	 5.185185e+00	 1.024891e+01
0	 3.703704e+00	 5.185185e+00	 1.021863e+01
0	 3.703704e+00	 5.259259e+00	 1.020851e+01
0	 3.703704e+00	 5.333333e+00	 1.019877e+01
0	 3.703704e+00	 5.407407e+00	 1.018940e+01
0	 3.703704e+00	 5.481481e+00	 1.018041e+01
0	 3.703704e+00	 5.555556e+00	 1.017178e+01
0	 3.777778e+00	 5.185185e+00	 1.022613e+01
0	 3.777778e+00	 5.259259e+00	 1.021602e+01
0	 3.777778e+00	 5.333333e+00	 1.020626e+01
0	 3.777778e+00	 5.407407e+00	 1.019686e+01
0	 3.777778e+00	 5.481481e+00	 1.018782e+01
0	 3.777778e+00	 5.555556e+00	 1.017913e+01
0	 3.851852e+00	 5.185185e+00	 1.023287e+01
0	 3.851852e+00	 5.259259e+00	 1.022278e+01
0	 3.851852e+00	 5.333333e+00	 1.021303e+01
0	 3.851852e+00	 5.407407e+00	 1.020363e+01
0	 3.851852e+00	 5.481481e+00	 1.019456e+01
0	 3.851852e+00	 5.555556e+00	 1.018584e+01
0	 3.925926e+00	 5.185185e+00	 1.023889e+01
0	 3.925926e+00	 5.259259e+00	 1.022884e+01
0	 3.925926e+00	 5.333333e+00	 1.021913e+01
0	 3.925926e+00	 5.407407e+00	 1.020975e+01
0	 3.925926e+00	 5.481481e+00	 1.020068e+01
0	 3.925926e+00	 5.555556e+00	 1.019195e+01
0	 4.000000e+00	 5.185185e+00	 1.024422e+01
0	 4.000000e+00	 5.259259e+00	 1.023424e+01
0	 4.000000e+00	 5.333333e+00	 1.022459e+01
0	 4.000000e+00	 5.407407e+00	 1.021524e+01
0	 4.000000e+00	 5.481481e+00	 1.020621e+01
0	 4.000000e+00	 5.555556e+00	 1.019748e+01
0	 4.074074e+00	 5.185185e+00	 1.024891e+01
0	 4.074074e+00	 5.259259e+00	 1.023902e+01
0	 4.074074e+00	 5.333333e+00	 1.022944e+01
0	 4.074074e+00	 5.407407e+00	 1.022015e+01
0	 4.074074e+00	 5.481481e+00	 1.021116e+01
0	 4.074074e+00	 5.555556e+00	 1.020246e+01
0	 3.703704e+00	 5.555556e+00	 1.017178e+01
0	 3.703704e+00	 5.629630e+00	 1.016351e+01
0	 3.703704e+00	 5.703704e+00	 1.015556e+01
0	 3.703704e+00	 5.777778e+00	 1.014794e+01
0	 3.703704e+00	 5.851852e+00	 1.014065e+01
0	 3.703704e+00	 5.925926e+00	 1.013369e+01
0	 3.777778e+00	 5.555556e+00	 1.017913e+01
0	 3.777778e+00	 5.629630e+00	 1.017077e+01
0	 3.777778e+00	 5.703704e+00	 1.016274e+01
0	 3.777778e+00	 5.777778e+00	 1.015502e+01
0	 3.777778e+00	 5.851852e+00	 1.014762e+01
0	 3.777778e+00	 5.925926e+00	 1.014054e+01
0	 3.851852e+00	 5.555556e+00	 1.018584e+01
0	 3.851852e+00	 5.629630e+00	 1.017743e+01
0	 3.851852e+00	 5.703704e+00	 1.016934e+01
0	 3.851852e+00	 5.777778e+00	 1.016155e+01
0	 3.851852e+00	 5.851852e+00	 1.015407e+01
0	 3.851852e+00	 5.925926e+00	 1.014689e+01
0	 3.925926e+00	 5.555556e+00	 1.019195e+01
0	 3.925926e+00	 5.629630e+00	 1.018352e+01
0	 3.925926e+00	 5.703704e+00	 1.017538e+01
0	 3.925926e+00	 5.777778e+00	 1.016755e+01
0	 3.925926e+00	 5.851852e+00	 1.016000e+01
0	 3.925926e+00	 5.925926e+00	 1.015275e+01
0	 4.000000e+00	 5.555556e+00	 1.019748e+01
0	 4.000000e+00	 5.629630e+00	 1.018904e+01
0	 4.000000e+00	 5.703704e+00	 1.018089e+01
0	 4.000000e+00	 5.777778e+00	 1.017302e+01
0	 4.000000e+00	 5.851852e+00	 1.016544e+01
0	 4.000000e+00	 5.925926e+00	 1.015812e+01
0	 4.074074e+00	 5.555556e+00	 1.020246e+01
0	 4.074074e+00	 5.629630e+00	 1.019404e+01
0	 4.074074e+00	 5.703704e+00	 1.018589e+01
0	 4.074074e+00	 5.777778e+00	 1.017800e+01
0	 4.074074e+00	 5.851852e+00	 1.017039e+01
0	 4.074074e+00	 5.925926e+00	 1.016303e+01
0	 3.703704e+00	 5.925926e+00	 1.013369e+01
0	 3.703704e+00	 6.000000e+00	 1.012703e+01
0	 3.703704e+00	 6.074074e+00	 1.012063e+01
0	 3.703704e+00	 6.148148e+00	 1.011452e+01
0	 3.703704e+00	 6.222222e+00	 1.010867e+01
0	 3.703704e+00	 6.296296e+00	 1.010310e+01
0	 3.777778e+00	 5.925926e+00	 1.014054e+01
0	 3.777778e+00	 6.000000e+00	 1.013376e+01
0	 3.777778e+00	 6.074074e+00	 1.012723e+01
0	 3.777778e+00	 6.148148e+00	 1.012097e+01
0	 3.777778e+00	 6.222222e+00	 1.011498e+01
0	 3.777778e+00	 6.296296e+00	 1.010926e+01
0	 3.851852e+00	 5.925926e+00	 1.014689e+01
0	 3.851852e+00	 6.000000e+00	 1.014000e+01
0	 3.851852e+00	 6.074074e+00	 1.013336e+01
0	 3.851852e+00	 6.148148e+00	 1.012698e+01
0	 3.851852e+00	 6.222222e+00	 1.012087e+01
0	 3.851852e+00	 6.296296e+00	 1.011502e+01
0	 3.925926e+00	 5.925926e+00	 1.015275e+01
0	 3.925926e+00	 6.000000e+00	 1.014577e+01
0	 3.925926e+00	 6.074074e+00	 1.013903e+01
0	 3.925926e+00	 6.148148e+00	 1.013256e+01
0	 3.925926e+00	 6.222222e+00	 1.012634e+01
0	 3.925926e+00	 6.296296e+00	 1.012037e+01
0	 4.000000e+00	 5.925926e+00	 1.015812e+01
0	 4.000000e+00	 6.000000e+00	 1.015107e+01
0	 4.000000e+00	 6.074074e+00	 1.014427e+01
0	 4.000000e+00	 6.148148e+00	 1.013771e+01
0	 4.000000e+00	 6.222222e+00	 1.013140e+01
0	 4.000000e+00	 6.296296e+00	 1.012533e+01
0	 4.074074e+00	 5.925926e+00	 1.016303e+01
0	 4.074074e+00	 6.000000e+00	 1.015593e+01
0	 4.074074e+00	 6.074074e+00	 1.014907e+01
0	 4.074074e+00	 6.148148e+00	 1.014245e+01
0	 4.074074e+00	 6.222222e+00	 1.013606e+01
0	 4.074074e+00	 6.296296e+00	 1.012992e+01
0	 3.703704e+00	 6.296296e+00	 1.010310e+01
0	 3.703704e+00	 6.370370e+00	 1.009778e+01
0	 3.703704e+00	 6.444444e+00	 1.009269e+01
0	 3.703704e+00	 6.518519e+00	 1.008781e+01
0	 3.703704e+00	 6.592593e+00	 1.008316e+01
0	 3.703704e+00	 6.666667e+00	 1.007874e+01
0	 3.777778e+00	 6.296296e+00	 1.010926e+01
0	 3.777778e+00	 6.370370e+00	 1.010379e+01
0	 3.777778e+00	 6.444444e+00	 1.009853e+01
0	 3.777778e+00	 6.518519e+00	 1.009349e+01
0	 3.777778e+00	 6.592593e+00	 1.008868e+01
0	 3.777778e+00	 6.666667e+00	 1.008410e+01
0	 3.851852e+00	 6.296296e+00	 1.011502e+01
0	 3.851852e+00	 6.370370e+00	 1.010940e+01
0	 3.851852e+00	 6.444444e+00	 1.010400e+01
0	 3.851852e+00	 6.518519e+00	 1.009883e+01
0	 3.851852e+00	 6.592593e+00	 1.009387e+01
0	 3.851852e+00	 6.666667e+00	 1.008913e+01
0	 3.925926e+00	 6.296296e+00	 1.012037e+01
0	 3.925926e+00	 6.370370e+00	 1.011464e+01
0	 3.925926e+00	 6.444444e+00	 1.010912e+01
0	 3.925926e+00	 6.518519e+00	 1.010381e+01
0	 3.925926e+00	 6.592593e+00	 1.009872e+01
0	 3.925926e+00	 6.666667e+00	 1.009384e+01
0	 4.000000e+00	 6.296296e+00	 1.012533e+01
0	 4.000000e+00	 6.370370e+00	 1.011950e+01
0	 4.000000e+00	 6.444444e+00	 1.011387e+01
0	 4.000000e+00	 6.518519e+00	 1.010845e+01
0	 4.000000e+00	 6.592593e+00	 1.010324e+01
0	 4.000000e+00	 6.666667e+00	 1.009825e+01
0	 4.074074e+00	 6.296296e+00	 1.012992e+01
0	 4.074074e+00	 6.370370e+00	 1.012399e+01
0	 4.074074e+00	 6.444444e+00	 1.011827e+01
0	 4.074074e+00	 6.518519e+00	 1.011276e+01
0	 4.074074e+00	 6.592593e+00	 1.010745e+01
0	 4.074074e+00	 6.666667e+00	 1.010234e+01
0	 3.703704e+00	 6.666667e+00	 1.007874e+01
0	 3.703704e+00	 6.740741e+00	 1.007453e+01
0	 3.703704e+00	 6.814815e+00	 1.007049e+01
0	 3.703704e+00	 6.888889e+00	 1.006663e+01
0	 3.703704e+00	 6.962963e+00	 1.006295e+01
0	 3.703704e+00	 7.037037e+00	 1.005945e+01
0	 3.777778e+00	 6.666667e+00	 1.008410e+01
0	 3.777778e+00	 6.740741e+00	 1.007971e+01
0	 3.777778e+00	 6.814815e+00	 1.007550e+01
0	 3.777778e+00	 6.888889e+00	 1.007147e+01
0	 3.777778e+00	 6.962963e+00	 1.006762e+01
0	 3.777778e+00	 7.037037e+00	 1.006395e+01
0	 3.851852e+00	 6.666667e+00	 1.008913e+01
0	 3.851852e+00	 6.740741e+00	 1.008459e+01
0	 3.851852e+00	 6.814815e+00	 1.008022e+01
0	 3.851852e+00	 6.888889e+00	 1.007603e+01
0	 3.851852e+00	 6.962963e+00	 1.007202e+01
0	 3.851852e+00	 7.037037e+00	 1.006820e+01
0	 3.925926e+00	 6.666667e+00	 1.009384e+01
0	 3.925926e+00	 6.740741e+00	 1.008916e+01
0	 3.925926e+00	 6.814815e+00	 1.008466e+01
0	 3.925926e+00	 6.888889e+00	 1.008033e+01
0	 3.925926e+00	 6.962963e+00	 1.007617e+01
0	 3.925926e+00	 7.037037e+00	 1.007220e+01
0	 4.000000e+00	 6.666667e+00	 1.009825e+01
0	 4.000000e+00	 6.740741e+00	 1.009344e+01
0	 4.000000e+00	 6.814815e+00	 1.008881e+01
0	 4.000000e+00	 6.888889e+00	 1.008435e+01
0	 4.000000e+00	 6.962963e+00	 1.008007e+01
0	 4.000000e+00	 7.037037e+00	 1.007596e+01
0	 4.074074e+00	 6.666667e+00	 1.010234e+01
0	 4.074074e+00	 6.740741e+00	 1.009743e+01
0	 4.074074e+00	 6.814815e+00	 1.009268e+01
0	 4.074074e+00	 6.888889e+00	 1.008810e+01
0	 4.074074e+00	 6.962963e+00	 1.008370e+01
0	 4.074074e+00	 7.037037e+00	 1.007948e+01
0	 3.703704e+00	 7.037037e+00	 1.005945e+01
0	 3.703704e+00	 7.111111e+00	 1.005612e+01
0	 3.703704e+00	 7.185185e+00	 1.005293e+01
0	 3.703704e+00	 7.259259e+00	 1.004987e+01
0	 3.703704e+00	 7.333333e+00	 1.004697e+01
0	 3.703704e+00	 7.407407e+00	 1.004420e+01
0	 3.777778e+00	 7.037037e+00	 1.006395e+01
0	 3.777778e+00	 7.111111e+00	 1.006044e+01
0	 3.777778e+00	 7.185185e+00	 1.005708e+01
0	 3.777778e+00	 7.259259e+00	 1.005386e+01
0	 3.777778e+00	 7.333333e+00	 1.005078e+01
0	 3.777778e+00	 7.407407e+00	 1.004785e+01
0	 3.851852e+00	 7.037037e+00	 1.006820e+01
0	 3.851852e+00	 7.111111e+00	 1.006453e+01
0	 3.851852e+00	 7.185185e+00	 1.006101e+01
0	 3.851852e+00	 7.259259e+00	 1.005763e+01
0	 3.851852e+00	 7.333333e+00	 1.005440e+01
0	 3.851852e+00	 7.407407e+00	 1.005131e+01
0	 3.925926e+00	 7.037037e+00	 1.007220e+01
0	 3.925926e+00	 7.111111e+00	 1.006839e+01
0	 3.925926e+00	 7.185185e+00	 1.006472e+01
0	 3.925926e+00	 7.259259e+00	 1.006120e+01
0	 3.925926e+00	 7.333333e+00	 1.005781e+01
0	 3.925926e+00	 7.407407e+00	 1.005458e+01
0	 4.000000e+00	 7.037037e+00	 1.007596e+01
0	 4.000000e+00	 7.111111e+00	 1.007202e+01
0	 4.000000e+00	 7.185185e+00	 1.006821e+01
0	 4.000000e+00	 7.259259e+00	 1.006455e+01
0	 4.000000e+00	 7.333333e+00	 1.006103e+01
0	 4.000000e+00	 7.407407e+00	 1.005766e+01
0	 4.074074e+00	 7.037037e+00	 1.007948e+01
0	 4.074074e+00	 7.111111e+00	 1.007541e+01
0	 4.074074e+00	 7.185185e+00	 1.007148e+01
0	 4.074074e+00	 7.259259e+00	 1.006770e+01
0	 4.074074e+00	 7.333333e+00	 1.006405e+01
0	 4.074074e+00	 7.407407e+00	 1.006056e+01
0	 3.703704e+00	 7.407407e+00	 1.004420e+01
0	 3.703704e+00	 7.481481e+00	 1.004157e+01
0	 3.703704e+00	 7.555556e+00	 1.003904e+01
0	 3.703704e+00	 7.629630e+00	 1.003663e+01
0	 3.703704e+00	 7.703704e+00	 1.003432e+01
0	 3.703704e+00	 7.777778e+00	 1.003213e+01
0	 3.777778e+00	 7.407407e+00	 1.004785e+01
0	 3.777778e+00	 7.481481e+00	 1.004505e+01
0	 3.777778e+00	 7.555556e+00	 1.004236e+01
0	 3.777778e+00	 7.629630e+00	 1.003978e+01
0	 3.777778e+00	 7.703704e+00	 1.003731e+01
0	 3.777778e+00	 7.777778e+00	 1.003496e+01
0	 3.851852e+00	 7.407407e+00	 1.005131e+01
0	 3.851852e+00	 7.481481e+00	 1.004835e+01
0	 3.851852e+00	 7.555556e+00	 1.004550e+01
0	 3.851852e+00	 7.629630e+00	 1.004277e+01
0	 3.851852e+00	 7.703704e+00	 1.004015e+01
0	 3.851852e+00	 7.777778e+00	 1.003766e+01
0	 3.925926e+00	 7.407407e+00	 1.005458e+01
0	 3.925926e+00	 7.481481e+00	 1.005147e+01
0	 3.925926e+00	 7.555556e+00	 1.004848e+01
0	 3.925926e+00	 7.629630e+00	 1.004561e+01
0	 3.925926e+00	 7.703704e+00	 1.004285e+01
0	 3.925926e+00	 7.777778e+00	 1.004021e+01
0	 4.000000e+00	 7.407407e+00	 1.005766e+01
0	 4.000000e+00	 7.481481e+00	 1.005442e+01
0	 4.000000e+00	 7.555556e+00	 1.005130e+01
0	 4.000000e+00	 7.629630e+00	 1.004829e+01
0	 4.000000e+00	 7.703704e+00	 1.004540e+01
0	 4.000000e+00	 7.777778e+00	 1.004263e+01
0	 4.074074e+00	 7.407407e+00	 1.006056e+01
0	 4.074074e+00	 7.481481e+00	 1.005719e+01
0	 4.074074e+00	 7.555556e+00	 1.005394e+01
0	 4.074074e+00	 7.629630e+00	 1.005081e+01
0	 4.074074e+00	 7.703704e+00	 1.004779e+01
0	 4.074074e+00	 7.777778e+00	 1.004490e+01
0	 3.703704e+00	 7.777778e+00	 1.003213e+01
0	 3.703704e+00	 7.851852e+00	 1.003004e+01
0	 3.703704e+00	 7.925926e+00	 1.002804e+01
0	 3.703704e+00	 8.000000e+00	 1.002612e+01
0	 3.703704e+00	 8.074074e+00	 1.002429e+01
0	 3.703704e+00	 8.148148e+00	 1.002254e+01
0	 3.777778e+00	 7.777778e+00	 1.003496e+01
0	 3.777778e+00	 7.851852e+00	 1.003272e+01
0	 3.777778e+00	 7.925926e+00	 1.003056e+01
0	 3.777778e+00	 8.000000e+00	 1.002849e+01
0	 3.777778e+00	 8.074074e+00	 1.002651e+01
0	 3.777778e+00	 8.148148e+00	 1.002462e+01
0	 3.851852e+00	 7.777778e+00	 1.003766e+01
0	 3.851852e+00	 7.851852e+00	 1.003526e+01
0	 3.851852e+00	 7.925926e+00	 1.003296e+01
0	 3.851852e+00	 8.000000e+00	 1.003075e+01
0	 3.851852e+00	 8.074074e+00	 1.002863e+01
0	 3.851852e+00	 8.148148e+00	 1.002660e+01
0	 3.925926e+00	 7.777778e+00	 1.004021e+01
0	 3.925926e+00	 7.851852e+00	 1.003768e+01
0	 3.925926e+00	 7.925926e+00	 1.003524e+01
0	 3.925926e+00	 8.000000e+00	 1.003289e+01
0	 3.925926e+00	 8.074074e+00	 1.003064e+01
0	 3.925926e+00	 8.148148e+00	 1.002848e+01
0	 4.000000e+00	 7.777778e+00	 1.004263e+01
0	 4.000000e+00	 7.851852e+00	 1.003996e+01
0	 4.000000e+00	 7.925926e+00	 1.003739e+01
0	 4.000000e+00	 8.000000e+00	 1.003492e+01
0	 4.000000e+00	 8.074074e+00	 1.003254e+01
0	 4.000000e+00	 8.148148e+00	 1.003027e+01
0	 4.074074e+00	 7.777778e+00	 1.004490e+01
0	 4.074074e+00	 7.851852e+00	 1.004211e+01
0	 4.074074e+00	 7.925926e+00	 1.003942e+01
0	 4.074074e+00	 8.000000e+00	 1.003683e+01
0	 4.074074e+00	 8.074074e+00	 1.003434e+01
0	 4.074074e+00	 8.148148e+00	 1.003195e+01
0	 3.703704e+00	 8.148148e+00	 1.002254e+01
0	 3.703704e+00	 8.222222e+00	 1.002088e+01
0	 3.703704e+00	 8.296296e+00	 1.001928e+01
0	 3.703704e+00	 8.370370e+00	 1.001775e+01
0	 3.703704e+00	 8.444444e+00	 1.001630e+01
0	 3.703704e+00	 8.518519e+00	 1.001490e+01
0	 3.777778e+00	 8.148148e+00	 1.002462e+01
0	 3.777778e+00	 8.222222e+00	 1.002281e+01
0	 3.777778e+00	 8.296296e+00	 1.002108e+01
0	 3.777778e+00	 8.370370e+00	 1.001942e+01
0	 3.777778e+00	 8.444444e+00	 1.001783e+01
0	 3.777778e+00	 8.518519e+00	 1.001631e+01
0	 3.851852e+00	 8.148148e+00	 1.002660e+01
0	 3.851852e+00	 8.222222e+00	 1.002466e+01
0	 3.851852e+00	 8.296296e+00	 1.002279e+01
0	 3.851852e+00	 8.370370e+00	 1.002100e+01
0	 3.851852e+00	 8.444444e+00	 1.001929e+01
0	 3.851852e+00	 8.518519e+00	 1.001765e+01
0	 3.925926e+00	 8.148148e+00	 1.002848e+01
0	 3.925926e+00	 8.222222e+00	 1.002641e+01
0	 3.925926e+00	 8.296296e+00	 1.002443e+01
0	 3.925926e+00	 8.370370e+00	 1.002252e+01
0	 3.925926e+00	 8.444444e+00	 1.002068e+01
0	 3.925926e+00	 8.518519e+00	 1.001893e+01
0	 4.000000e+00	 8.148148e+00	 1.003027e+01
0	 4.000000e+00	 8.222222e+00	 1.002808e+01
0	 4.000000e+00	 8.296296e+00	 1.002597e+01
0	 4.000000e+00	 8.370370e+00	 1.002395e+01
0	 4.000000e+00	 8.444444e+00	 1.002200e+01
0	 4.000000e+00	 8.518519e+00	 1.002014e+01
0	 4.074074e+00	 8.148148e+00	 1.003195e+01
0	 4.074074e+00	 8.222222e+00	 1.002964e+01
0	 4.074074e+00	 8.296296e+00	 1.002743e+01
0	 4.074074e+00	 8.370370e+00	 1.002530e+01
0	 4.074074e+00	 8.444444e+00	 1.002325e+01
0	 4.074074e+00	 8.518519e+00	 1.002128e+01
0	 3.703704e+00	 8.518519e+00	 1.001490e+01
0	 3.703704e+00	 8.592593e+00	 1.001358e+01
0	 3.703704e+00	 8.666667e+00	 1.001231e+01
0	 3.703704e+00	 8.740741e+00	 1.001110e+01
0	 3.703704e+00	 8.814815e+00	 1.000995e+01
0	 3.703704e+00	 8.888889e+00	 1.000886e+01
0	 3.777778e+00	 8.518519e+00	 1.001631e+01
0	 3.777778e+00	 8.592593e+00	 1.001486e+01
0	 3.777778e+00	 8.666667e+00	 1.001348e+01
0	 3.777778e+00	 8.740741e+00	 1.001215e+01
0	 3.777778e+00	 8.814815e+00	 1.001090e+01
0	 3.777778e+00	 8.888889e+00	 1.000970e+01
0	 3.851852e+00	 8.518519e+00	 1.001765e+01
0	 3.851852e+00	 8.592593e+00	 1.001609e+01
0	 3.851852e+00	 8.666667e+00	 1.001459e+01
0	 3.851852e+00	 8.740741e+00	 1.001316e+01
0	 3.851852e+00	 8.814815e+00	 1.001180e+01
0	 3.851852e+00	 8.888889e+00	 1.001050e+01
0	 3.925926e+00	 8.518519e+00	 1.001893e+01
0	 3.925926e+00	 8.592593e+00	 1.001725e+01
0	 3.925926e+00	 8.666667e+00	 1.001565e+01
0	 3.925926e+00	 8.740741e+00	 1.001412e+01
0	 3.925926e+00	 8.814815e+00	 1.001266e+01
0	 3.925926e+00	 8.888889e+00	 1.001126e+01
0	 4.000000e+00	 8.518519e+00	 1.002014e+01
0	 4.000000e+00	 8.592593e+00	 1.001836e+01
0	 4.000000e+00	 8.666667e+00	 1.001665e+01
0	 4.000000e+00	 8.740741e+00	 1.001503e+01
0	 4.000000e+00	 8.814815e+00	 1.001347e+01
0	 4.000000e+00	 8.888889e+00	 1.001199e+01
0	 4.074074e+00	 8.518519e+00	 1.002128e+01
0	 4.074074e+00	 8.592593e+00	 1.001940e+01
0	 4.074074e+00	 8.666667e+00	 1.001760e+01
0	 4.074074e+00	 8.740741e+00	 1.001588e+01
0	 4.074074e+00	 8.814815e+00	 1.001424e+01
0	 4.074074e+00	 8.888889e+00	 1.001267e+01
0	 3.703704e+00	 8.888889e+00	 1.000886e+01
0	 3.703704e+00	 8.962963e+00	 1.000783e+01
0	 3.703704e+00	 9.037037e+00	 1.000685e+01
0	 3.703704e+00	 9.111111e+00	 1.000593e+01
0	 3.703704e+00	 9.185185e+00	 1.000507e+01
0	 3.703704e+00	 9.259259e+00	 1.000425e+01
0	 3.777778e+00	 8.888889e+00	 1.000970e+01
0	 3.777778e+00	 8.962963e+00	 1.000856e+01
0	 3.777778e+00	 9.037037e+00	 1.000749e+01
0	 3.777778e+00	 9.111111e+00	 1.000649e+01
0	 3.777778e+00	 9.185185e+00	 1.000554e+01
0	 3.777778e+00	 9.259259e+00	 1.000465e+01
0	 3.851852e+00	 8.888889e+00	 1.001050e+01
0	 3.851852e+00	 8.962963e+00	 1.000927e+01
0	 3.851852e+00	 9.037037e+00	 1.000811e+01
0	 3.851852e+00	 9.111111e+00	 1.000702e+01
0	 3.851852e+00	 9.185185e+00	 1.000599e+01
0	 3.851852e+00	 9.259259e+00	 1.000503e+01
0	 3.925926e+00	 8.888889e+00	 1.001126e+01
0	 3.925926e+00	 8.962963e+00	 1.000994e+01
0	 3.925926e+00	 9.037037e+00	 1.000870e+01
0	 3.925926e+00	 9.111111e+00	 1.000753e+01
0	 3.925926e+00	 9.185185e+00	 1.000642e+01
0	 3.925926e+00	 9.259259e+00	 1.000539e+01
0	 4.000000e+00	 8.888889e+00	 1.001199e+01
0	 4.000000e+00	 8.962963e+00	 1.001058e+01
0	 4.000000e+00	 9.037037e+00	 1.000925e+01
0	 4.000000e+00	 9.111111e+00	 1.000801e+01
0	 4.000000e+00	 9.185185e+00	 1.000683e+01
0	 4.000000e+00	 9.259259e+00	 1.000573e+01
0	 4.074074e+00	 8.888889e+00	 1.001267e+01
0	 4.074074e+00	 8.962963e+00	 1.001118e+01
0	 4.074074e+00	 9.037037e+00	 1.000978e+01
0	 4.074074e+00	 9.111111e+00	 1.000846e+01
0	 4.074074e+00	 9.185185e+00	 1.000722e+01
0	 4.074074e+00	 9.259259e+00	 1.000605e+01
0	 3.703704e+00	 9.259259e+00	 1.000425e+01
0	 3.703704e+00	 9.333333e+00	 1.000350e+01
0	 3.703704e+00	 9.407407e+00	 1.000283e+01
0	 3.703704e+00	 9.481481e+00	 1.000222e+01
0	 3.703704e+00	 9.555556e+00	 1.000167e+01
0	 3.703704e+00	 9.629630e+00	 1.000117e+01
0	 3.777778e+00	 9.259259e+00	 1.000465e+01
0	 3.777778e+00	 9.333333e+00	 1.000383e+01
0	 3.777778e+00	 9.407407e+00	 1.000308e+01
0	 3.777778e+00	 9.481481e+00	 1.000241e+01
0	 3.777778e+00	 9.555556e+00	 1.000181e+01
0	 3.777778e+00	 9.629630e+00	 1.000128e+01
0	 3.851852e+00	 9.259259e+00	 1.000503e+01
0	 3.851852e+00	 9.333333e+00	 1.000414e+01
0	 3.851852e+00	 9.407407e+00	 1.000333e+01
0	 3.851852e+00	 9.481481e+00	 1.000261e+01
0	 3.851852e+00	 9.555556e+00	 1.000196e+01
0	 3.851852e+00	 9.629630e+00	 1.000138e+01
0	 3.925926e+00	 9.259259e+00	 1.000539e+01
0	 3.925926e+00	 9.333333e+00	 1.000443e+01
0	 3.925926e+00	 9.407407e+00	 1.000357e+01
0	 3.925926e+00	 9.481481e+00	 1.000279e+01
0	 3.925926e+00	 9.555556e+00	 1.000210e+01
0	 3.925926e+00	 9.629630e+00	 1.000148e+01
0	 4.000000e+00	 9.259259e+00	 1.000573e+01
0	 4.000000e+00	 9.333333e+00	 1.000471e+01
0	 4.000000e+00	 9.407407e+00	 1.000379e+01
0	 4.000000e+00	 9.481481e+00	 1.000297e+01
0	 4.000000e+00	 9.555556e+00	 1.000223e+01
0	 4.000000e+00	 9.629630e+00	 1.000157e+01
0	 4.074074e+00	 9.259259e+00	 1.000605e+01
0	 4.074074e+00	 9.333333e+00	 1.000497e+01
0	 4.074074e+00	 9.407407e+00	 1.000400e+01
0	 4.074074e+00	 9.481481e+00	 1.000313e+01
0	 4.074074e+00	 9.555556e+00	 1.000235e+01
0	 4.074074e+00	 9.629630e+00	 1.000165e+01
0	 3.703704e+00	 9.629630e+00	 1.000117e+01
0	 3.703704e+00	 9.703704e+00	 1.000076e+01
0	 3.703704e+00	 9.777778e+00	 1.000044e+01
0	 3.703704e+00	 9.851852e+00	 1.000021e+01
0	 3.703704e+00	 9.925926e+00	 1.000006e+01
0	 3.703704e+00	 1.000000e+01	 9.999980e+00
0	 3.777778e+00	 9.629630e+00	 1.000128e+01
0	 3.777778e+00	 9.703704e+00	 1.000082e+01
0	 3.777778e+00	 9.777778e+00	 1.000047e+01
0	 3.777778e+00	 9.851852e+00	 1.000022e+01
0	 3.777778e+00	 9.925926e+00	 1.000006e+01
0	 3.777778e+00	 1.000000e+01	 9.999974e+00
0	 3.851852e+00	 9.629630e+00	 1.000138e+01
0	 3.851852e+00	 9.703704e+00	 1.000089e+01
0	 3.851852e+00	 9.777778e+00	 1.000051e+01
0	 3.851852e+00	 9.851852e+00	 1.000024e+01
0	 3.851852e+00	 9.925926e+00	 1.000006e+01
0	 3.851852e+00	 1.000000e+01	 9.999974e+00
0	 3.925926e+00	 9.629630e+00	 1.000148e+01
0	 3.925926e+00	 9.703704e+00	 1.000095e+01
0	 3.925926e+00	 9.777778e+00	 1.000055e+01
0	 3.925926e+00	 9.851852e+00	 1.000026e+01
0	 3.925926e+00	 9.925926e+00	 1.000007e+01
0	 3.925926e+00	 1.000000e+01	 9.999978e+00
0	 4.000000e+00	 9.629630e+00	 1.000157e+01
0	 4.000000e+00	 9.703704e+00	 1.000101e+01
0	 4.000000e+00	 9.777778e+00	 1.000059e+01
0	 4.000000e+00	 9.851852e+00	 1.000028e+01
0	 4.000000e+00	 9.925926e+00	 1.000008e+01
0	 4.000000e+00	 1.000000e+01	 9.999980e+00
0	 4.074074e+00	 9.629630e+00	 1.000165e+01
0	 4.074074e+00	 9.703704e+00	 1.000107e+01
0	 4.074074e+00	 9.777778e+00	 1.000062e+01
0	 4.074074e+00	 9.851852e+00	 1.000029e+01
0	 4.074074e+00	 9.925926e+00	 1.000008e+01
0	 4.074074e+00	 1.000000e+01	 9.999976e+00
0	 4.074074e+00	 0.000000e+00	 1.051224e+01
0	 4.074074e+00	 7.407407e-02	 1.050900e+01
0	 4.074074e+00	 1.481481e-01	 1.050821e+01
0	 4.074074e+00	 2.222222e-01	 1.050985e+01
0	 4.074074e+00	 2.962963e-01	 1.051390e+01
0	 4.074074e+00	 3.703704e-01	 1.052035e+01
0	 4.148148e+00	 0.000000e+00	 1.049772e+01
0	 4.148148e+00	 7.407407e-02	 1.049388e+01
0	 4.148148e+00	 1.481481e-01	 1.049237e+01
0	 4.148148e+00	 2.222222e-01	 1.049326e+01
0	 4.148148e+00	 2.962963e-01	 1.049660e+01
0	 4.148148e+00	 3.703704e-01	 1.050246e+01
0	 4.222222e+00	 0.000000e+00	 1.047917e+01
0	 4.222222e+00	 7.407407e-02	 1.047640e+01
0	 4.222222e+00	 1.481481e-01	 1.047554e+01
0	 4.222222e+00	 2.222222e-01	 1.047669e+01
0	 4.222222e+00	 2.962963e-01	 1.047996e+01
0	 4.222222e+00	 3.703704e-01	 1.048545e+01
0	 4.296296e+00	 0.000000e+00	 1.045859e+01
0	 4.296296e+00	 7.407407e-02	 1.045778e+01
0	 4.296296e+00	 1.481481e-01	 1.045830e+01
0	 4.296296e+00	 2.222222e-01	 1.046028e+01
0	 4.296296e+00	 2.962963e-01	 1.046384e+01
0	 4.296296e+00	 3.703704e-01	 1.046911e+01
0	 4.370370e+00	 0.000000e+00	 1.043796e+01
0	 4.370370e+00	 7.407407e-02	 1.043919e+01
0	 4.370370e+00	 1.481481e-01	 1.044122e+01
0	 4.370370e+00	 2.222222e-01	 1.044414e+01
0	 4.370370e+00	 2.962963e-01	 1.044809e+01
0	 4.370370e+00	 3.703704e-01	 1.045319e+01
0	 4.444444e+00	 0.000000e+00	 1.041929e+01
0	 4.444444e+00	 7.407407e-02	 1.042184e+01
0	 4.444444e+00	 1.481481e-01	 1.042485e+01
0	 4.444444e+00	 2.222222e-01	 1.042840e+01
0	 4.444444e+00	 2.962963e-01	 1.043258e+01
0	 4.444444e+00	 3.703704e-01	 1.043747e+01
0	 4.074074e+00	 3.703704e-01	 1.052035e+01
0	 4.074074e+00	 4.444444e-01	 1.052816e+01
0	 4.074074e+00	 5.185185e-01	 1.053649e+01
0	 4.074074e+00	 5.925926e-01	 1.054556e+01
0	 4.074074e+00	 6.666667e-01	 1.055558e+01
0	 4.074074e+00	 7.407407e-01	 1.056679e+01
0	 4.148148e+00	 3.703704e-01	 1.050246e+01
0	 4.148148e+00	 4.444444e-01	 1.050980e+01
0	 4.148148e+00	 5.185185e-01	 1.051767e+01
0	 4.148148e+00	 5.925926e-01	 1.052625e+01
0	 4.148148e+00	 6.666667e-01	 1.053569e+01
0	 4.148148e+00	 7.407407e-01	 1.054617e+01
0	 4.222222e+00	 3.703704e-01	 1.048545e+01
0	 4.222222e+00	 4.444444e-01	 1.049234e+01
0	 4.222222e+00	 5.185185e-01	 1.049979e+01
0	 4.222222e+00	 5.925926e-01	 1.050794e+01
0	 4.222222e+00	 6.666667e-01	 1.051691e+01
0	 4.222222e+00	 7.407407e-01	 1.052683e+01
0	 4.296296e+00	 3.703704e-01	 1.046911e+01
0	 4.296296e+00	 4.444444e-01	 1.047554e+01
0	 4.296296e+00	 5.185185e-01	 1.048259e+01
0	 4.296296e+00	 5.925926e-01	 1.049035e+01
0	 4.296296e+00	 6.666667e-01	 1.049892e+01
0	 4.296296e+00	 7.407407e-01	 1.050840e+01
0	 4.370370e+00	 3.703704e-01	 1.045319e+01
0	 4.370370e+00	 4.444444e-01	 1.045918e+01
0	 4.370370e+00	 5.185185e-01	 1.046583e+01
0	 4.370370e+00	 5.925926e-01	 1.047320e+01
0	 4.370370e+00	 6.666667e-01	 1.048140e+01
0	 4.370370e+00	 7.407407e-01	 1.049049e+01
0	 4.444444e+00	 3.703704e-01	 1.043747e+01
0	 4.444444e+00	 4.444444e-01	 1.044303e+01
0	 4.444444e+00	 5.185185e-01	 1.044926e+01
0	 4.444444e+00	 5.925926e-01	 1.045622e+01
0	 4.444444e+00	 6.666667e-01	 1.046401e+01
0	 4.444444e+00	 7.407407e-01	 1.047269e+01
0	 4.074074e+00	 7.407407e-01	 1.056679e+01
0	 4.074074e+00	 8.148148e-01	 1.057857e+01
0	 4.074074e+00	 8.888889e-01	 1.059029e+01
0	 4.074074e+00	 9.629630e-01	 1.060215e+01
0	 4.074074e+00	 1.037037e+00	 1.061434e+01
0	 4.074074e+00	 1.111111e+00	 1.062706e+01
0	 4.148148e+00	 7.407407e-01	 1.054617e+01
0	 4.148148e+00	 8.148148e-01	 1.055716e+01
0	 4.148148e+00	 8.888889e-01	 1.056816e+01
0	 4.148148e+00	 9.629630e-01	 1.057936e+01
0	 4.148148e+00	 1.037037e+00	 1.059094e+01
0	 4.148148e+00	 1.111111e+00	 1.060307e+01
0	 4.222222e+00	 7.407407e-01	 1.052683e+01
0	 4.222222e+00	 8.148148e-01	 1.053722e+01
0	 4.222222e+00	 8.888889e-01	 1.054761e+01
0	 4.222222e+00	 9.629630e-01	 1.055819e+01
0	 4.222222e+00	 1.037037e+00	 1.056912e+01
0	 4.222222e+00	 1.111111e+00	 1.058058e+01
0	 4.296296e+00	 7.407407e-01	 1.050840e+01
0	 4.296296e+00	 8.148148e-01	 1.051830e+01
0	 4.296296e+00	 8.888889e-01	 1.052818e+01
0	 4.296296e+00	 9.629630e-01	 1.053818e+01
0	 4.296296e+00	 1.037037e+00	 1.054849e+01
0	 4.296296e+00	 1.111111e+00	 1.055925e+01
0	 4.370370e+00	 7.407407e-01	 1.049049e+01
0	 4.370370e+00	 8.148148e-01	 1.049997e+01
0	 4.370370e+00	 8.888889e-01	 1.050939e+01
0	 4.370370e+00	 9.629630e-01	 1.051890e+01
0	 4.370370e+00	 1.037037e+00	 1.052864e+01
0	 4.370370e+00	 1.111111e+00	 1.053877e+01
0	 4.444444e+00	 7.407407e-01	 1.047269e+01
0	 4.444444e+00	 8.148148e-01	 1.048178e+01
0	 4.444444e+00	 8.888889e-01	 1.049080e+01
0	 4.444444e+00	 9.629630e-01	 1.049989e+01
0	 4.444444e+00	 1.037037e+00	 1.050918e+01
0	 4.444444e+00	 1.111111e+00	 1.051882e+01
0	 4.074074e+00	 1.111111e+00	 1.062706e+01
0	 4.074074e+00	 1.185185e+00	 1.063956e+01
0	 4.074074e+00	 1.259259e+00	 1.065106e+01
0	 4.074074e+00	 1.333333e+00	 1.066166e+01
0	 4.074074e+00	 1.407407e+00	 1.067148e+01
0	 4.074074e+00	 1.481481e+00	 1.068061e+01
0	 4.148148e+00	 1.111111e+00	 1.060307e+01
0	 4.148148e+00	 1.185185e+00	 1.061500e+01
0	 4.148148e+00	 1.259259e+00	 1.062592e+01
0	 4.148148e+00	 1.333333e+00	 1.063600e+01
0	 4.148148e+00	 1.407407e+00	 1.064538e+01
0	 4.148148e+00	 1.481481e+00	 1.065421e+01
0	 4.222222e+00	 1.111111e+00	 1.058058e+01
0	 4.222222e+00	 1.185185e+00	 1.059184e+01
0	 4.222222e+00	 1.259259e+00	 1.060217e+01
0	 4.222222e+00	 1.333333e+00	 1.061177e+01
0	 4.222222e+00	 1.407407e+00	 1.062079e+01
0	 4.222222e+00	 1.481481e+00	 1.062941e+01
0	 4.296296e+00	 1.111111e+00	 1.055925e+01
0	 4.296296e+00	 1.185185e+00	 1.056983e+01
0	 4.296296e+00	 1.259259e+00	 1.057962e+01
0	 4.296296e+00	 1.333333e+00	 1.058880e+01
0	 4.296296e+00	 1.407407e+00	 1.059755e+01
0	 4.296296e+00	 1.481481e+00	 1.060605e+01
0	 4.370370e+00	 1.111111e+00	 1.053877e+01
0	 4.370370e+00	 1.185185e+00	 1.054875e+01
0	 4.370370e+00	 1.259259e+00	 1.055809e+01
0	 4.370370e+00	 1.333333e+00	 1.056694e+01
0	 4.370370e+00	 1.407407e+00	 1.057549e+01
0	 4.370370e+00	 1.481481e+00	 1.058391e+01
0	 4.444444e+00	 1.111111e+00	 1.051882e+01
0	 4.444444e+00	 1.185185e+00	 1.052836e+01
0	 4.444444e+00	 1.259259e+00	 1.053738e+01
0	 4.444444e+00	 1.333333e+00	 1.054603e+01
0	 4.444444e+00	 1.407407e+00	 1.055446e+01
0	 4.444444e+00	 1.481481e+00	 1.056281e+01
0	 4.074074e+00	 1.481481e+00	 1.068061e+01
0	 4.074074e+00	 1.555556e+00	 1.068874e+01
0	 4.074074e+00	 1.629630e+00	 1.069558e+01
0	 4.074074e+00	 1.703704e+00	 1.070129e+01
0	 4.074074e+00	 1.777778e+00	 1.070606e+01
0	 4.074074e+00	 1.851852e+00	 1.071006e+01
0	 4.148148e+00	 1.481481e+00	 1.065421e+01
0	 4.148148e+00	 1.555556e+00	 1.066226e+01
0	 4.148148e+00	 1.629630e+00	 1.066929e+01
0	 4.148148e+00	 1.703704e+00	 1.067539e+01
0	 4.148148e+00	 1.777778e+00	 1.068068e+01
0	 4.148148e+00	 1.851852e+00	 1.068525e+01
0	 4.222222e+00	 1.481481e+00	 1.062941e+01
0	 4.222222e+00	 1.555556e+00	 1.063744e+01
0	 4.222222e+00	 1.629630e+00	 1.064458e+01
0	 4.222222e+00	 1.703704e+00	 1.065090e+01
0	 4.222222e+00	 1.777778e+00	 1.065645e+01
0	 4.222222e+00	 1.851852e+00	 1.066130e+01
0	 4.296296e+00	 1.481481e+00	 1.060605e+01
0	 4.296296e+00	 1.555556e+00	 1.061406e+01
0	 4.296296e+00	 1.629630e+00	 1.062124e+01
0	 4.296296e+00	 1.703704e+00	 1.062764e+01
0	 4.296296e+00	 1.777778e+00	 1.063326e+01
0	 4.296296e+00	 1.851852e+00	 1.063816e+01
0	 4.370370e+00	 1.481481e+00	 1.058391e+01
0	 4.370370e+00	 1.555556e+00	 1.059190e+01
0	 4.370370e+00	 1.629630e+00	 1.059905e+01
0	 4.370370e+00	 1.703704e+00	 1.060540e+01
0	 4.370370e+00	 1.777778e+00	 1.061098e+01
0	 4.370370e+00	 1.851852e+00	 1.061582e+01
0	 4.444444e+00	 1.481481e+00	 1.056281e+01
0	 4.444444e+00	 1.555556e+00	 1.057073e+01
0	 4.444444e+00	 1.629630e+00	 1.057778e+01
0	 4.444444e+00	 1.703704e+00	 1.058402e+01
0	 4.444444e+00	 1.777778e+00	 1.058949e+01
0	 4.444444e+00	 1.851852e+00	 1.059424e+01
0	 4.074074e+00	 1.851852e+00	 1.071006e+01
0	 4.074074e+00	 1.925926e+00	 1.071304e+01
0	 4.074074e+00	 2.000000e+00	 1.071464e+01
0	 4.074074e+00	 2.074074e+00	 1.071483e+01
0	 4.074074e+00	 2.148148e+00	 1.071360e+01
0	 4.074074e+00	 2.222222e+00	 1.071096e+01
0	 4.148148e+00	 1.851852e+00	 1.068525e+01
0	 4.148148e+00	 1.925926e+00	 1.068878e+01
0	 4.148148e+00	 2.000000e+00	 1.069088e+01
0	 4.148148e+00	 2.074074e+00	 1.069158e+01
0	 4.148148e+00	 2.148148e+00	 1.069092e+01
0	 4.148148e+00	 2.222222e+00	 1.068891e+01
0	 4.222222e+00	 1.851852e+00	 1.066130e+01
0	 4.222222e+00	 1.925926e+00	 1.066510e+01
0	 4.222222e+00	 2.000000e+00	 1.066755e+01
0	 4.222222e+00	 2.074074e+00	 1.066870e+01
0	 4.222222e+00	 2.148148e+00	 1.066861e+01
0	 4.222222e+00	 2.222222e+00	 1.066734e+01
0	 4.296296e+00	 1.851852e+00	 1.063816e+01
0	 4.296296e+00	 1.925926e+00	 1.064207e+01
0	 4.296296e+00	 2.000000e+00	 1.064477e+01
0	 4.296296e+00	 2.074074e+00	 1.064632e+01
0	 4.296296e+00	 2.148148e+00	 1.064680e+01
0	 4.296296e+00	 2.222222e+00	 1.064628e+01
0	 4.370370e+00	 1.851852e+00	 1.061582e+01
0	 4.370370e+00	 1.925926e+00	 1.061975e+01
0	 4.370370e+00	 2.000000e+00	 1.062263e+01
0	 4.370370e+00	 2.074074e+00	 1.062455e+01
0	 4.370370e+00	 2.148148e+00	 1.062557e+01
0	 4.370370e+00	 2.222222e+00	 1.062576e+01
0	 4.444444e+00	 1.851852e+00	 1.059424e+01
0	 4.444444e+00	 1.925926e+00	 1.059818e+01
0	 4.444444e+00	 2.000000e+00	 1.060126e+01
0	 4.444444e+00	 2.074074e+00	 1.060352e+01
0	 4.444444e+00	 2.148148e+00	 1.060502e+01
0	 4.444444e+00	 2.222222e+00	 1.060583e+01
0	 4.074074e+00	 2.222222e+00	 1.071096e+01
0	 4.074074e+00	 2.296296e+00	 1.070714e+01
0	 4.074074e+00	 2.370370e+00	 1.070244e+01
0	 4.074074e+00	 2.444444e+00	 1.069684e+01
0	 4.074074e+00	 2.518519e+00	 1.069036e+01
0	 4.074074e+00	 2.592593e+00	 1.068299e+01
0	 4.148148e+00	 2.222222e+00	 1.068891e+01
0	 4.148148e+00	 2.296296e+00	 1.068586e+01
0	 4.148148e+00	 2.370370e+00	 1.068201e+01
0	 4.148148e+00	 2.444444e+00	 1.067734e+01
0	 4.148148e+00	 2.518519e+00	 1.067185e+01
0	 4.148148e+00	 2.592593e+00	 1.066550e+01
0	 4.222222e+00	 2.222222e+00	 1.066734e+01
0	 4.222222e+00	 2.296296e+00	 1.066512e+01
0	 4.222222e+00	 2.370370e+00	 1.066211e+01
0	 4.222222e+00	 2.444444e+00	 1.065829e+01
0	 4.222222e+00	 2.518519e+00	 1.065364e+01
0	 4.222222e+00	 2.592593e+00	 1.064812e+01
0	 4.296296e+00	 2.222222e+00	 1.064628e+01
0	 4.296296e+00	 2.296296e+00	 1.064488e+01
0	 4.296296e+00	 2.370370e+00	 1.064268e+01
0	 4.296296e+00	 2.444444e+00	 1.063962e+01
0	 4.296296e+00	 2.518519e+00	 1.063569e+01
0	 4.296296e+00	 2.592593e+00	 1.063085e+01
0	 4.370370e+00	 2.222222e+00	 1.062576e+01
0	 4.370370e+00	 2.296296e+00	 1.062514e+01
0	 4.370370e+00	 2.370370e+00	 1.062365e+01
0	 4.370370e+00	 2.444444e+00	 1.062126e+01
0	 4.370370e+00	 2.518519e+00	 1.061795e+01
0	 4.370370e+00	 2.592593e+00	 1.061369e+01
0	 4.444444e+00	 2.222222e+00	 1.060583e+01
0	 4.444444e+00	 2.296296e+00	 1.060585e+01
0	 4.444444e+00	 2.370370e+00	 1.060495e+01
0	 4.444444e+00	 2.444444e+00	 1.060313e+01
0	 4.444444e+00	 2.518519e+00	 1.060037e+01
0	 4.444444e+00	 2.592593e+00	 1.059666e+01
0	 4.074074e+00	 2.592593e+00	 1.068299e+01
0	 4.074074e+00	 2.666667e+00	 1.067482e+01
0	 4.074074e+00	 2.740741e+00	 1.066591e+01
0	 4.074074e+00	 2.814815e+00	 1.065619e+01
0	 4.074074e+00	 2.888889e+00	 1.064561e+01
0	 4.074074e+00	 2.962963e+00	 1.063410e+01
0	 4.148148e+00	 2.592593e+00	 1.066550e+01
0	 4.148148e+00	 2.666667e+00	 1.065834e+01
0	 4.148148e+00	 2.740741e+00	 1.065037e+01
0	 4.148148e+00	 2.814815e+00	 1.064158e+01
0	 4.148148e+00	 2.888889e+00	 1.063192e+01
0	 4.148148e+00	 2.962963e+00	 1.062136e+01
0	 4.222222e+00	 2.592593e+00	 1.064812e+01
0	 4.222222e+00	 2.666667e+00	 1.064176e+01
0	 4.222222e+00	 2.740741e+00	 1.063463e+01
0	 4.222222e+00	 2.814815e+00	 1.062668e+01
0	 4.222222e+00	 2.888889e+00	 1.061792e+01
0	 4.222222e+00	 2.962963e+00	 1.060831e+01
0	 4.296296e+00	 2.592593e+00	 1.063085e+01
0	 4.296296e+00	 2.666667e+00	 1.062517e+01
0	 4.296296e+00	 2.740741e+00	 1.061876e+01
0	 4.296296e+00	 2.814815e+00	 1.061161e+01
0	 4.296296e+00	 2.888889e+00	 1.060370e+01
0	 4.296296e+00	 2.962963e+00	 1.059503e+01
0	 4.370370e+00	 2.592593e+00	 1.061369e+01
0	 4.370370e+00	 2.666667e+00	 1.060862e+01
0	 4.370370e+00	 2.740741e+00	 1.060289e+01
0	 4.370370e+00	 2.814815e+00	 1.059648e+01
0	 4.370370e+00	 2.888889e+00	 1.058940e+01
0	 4.370370e+00	 2.962963e+00	 1.058162e+01
0	 4.444444e+00	 2.592593e+00	 1.059666e+01
0	 4.444444e+00	 2.666667e+00	 1.059218e+01
0	 4.444444e+00	 2.740741e+00	 1.058710e+01
0	 4.444444e+00	 2.814815e+00	 1.058142e+01
0	 4.444444e+00	 2.888889e+00	 1.057511e+01
0	 4.444444e+00	 2.962963e+00	 1.056816e+01
0	 4.074074e+00	 2.962963e+00	 1.063410e+01
0	 4.074074e+00	 3.037037e+00	 1.062199e+01
0	 4.074074e+00	 3.111111e+00	 1.060962e+01
0	 4.074074e+00	 3.185185e+00	 1.059695e+01
0	 4.074074e+00	 3.259259e+00	 1.058392e+01
0	 4.074074e+00	 3.333333e+00	 1.057051e+01
0	 4.148148e+00	 2.962963e+00	 1.062136e+01
0	 4.148148e+00	 3.037037e+00	 1.061022e+01
0	 4.148148e+00	 3.111111e+00	 1.059883e+01
0	 4.148148e+00	 3.185185e+00	 1.058712e+01
0	 4.148148e+00	 3.259259e+00	 1.057505e+01
0	 4.148148e+00	 3.333333e+00	 1.056257e+01
0	 4.222222e+00	 2.962963e+00	 1.060831e+01
0	 4.222222e+00	 3.037037e+00	 1.059815e+01
0	 4.222222e+00	 3.111111e+00	 1.058770e+01
0	 4.222222e+00	 3.185185e+00	 1.057691e+01
0	 4.222222e+00	 3.259259e+00	 1.056572e+01
0	 4.222222e+00	 3.333333e+00	 1.055408e+01
0	 4.296296e+00	 2.962963e+00	 1.059503e+01
0	 4.296296e+00	 3.037037e+00	 1.058583e+01
0	 4.296296e+00	 3.111111e+00	 1.057629e+01
0	 4.296296e+00	 3.185185e+00	 1.056636e+01
0	 4.296296e+00	 3.259259e+00	 1.055598e+01
0	 4.296296e+00	 3.333333e+00	 1.054511e+01
0	 4.370370e+00	 2.962963e+00	 1.058162e+01
0	 4.370370e+00	 3.037037e+00	 1.057332e+01
0	 4.370370e+00	 3.111111e+00	 1.056463e+01
0	 4.370370e+00	 3.185185e+00	 1.055550e+01
0	 4.370370e+00	 3.259259e+00	 1.054588e+01
0	 4.370370e+00	 3.333333e+00	 1.053571e+01
0	 4.444444e+00	 2.962963e+00	 1.056816e+01
0	 4.444444e+00	 3.037037e+00	 1.056069e+01
0	 4.444444e+00	 3.111111e+00	 1.055277e+01
0	 4.444444e+00	 3.185185e+00	 1.054437e+01
0	 4.444444e+00	 3.259259e+00	 1.053545e+01
0	 4.444444e+00	 3.333333e+00	 1.052597e+01
0	 4.074074e+00	 3.333333e+00	 1.057051e+01
0	 4.074074e+00	 3.407407e+00	 1.055686e+01
0	 4.074074e+00	 3.481481e+00	 1.054312e+01
0	 4.074074e+00	 3.555556e+00	 1.052924e+01
0	 4.074074e+00	 3.629630e+00	 1.051517e+01
0	 4.074074e+00	 3.703704e+00	 1.050085e+01
0	 4.148148e+00	 3.333333e+00	 1.056257e+01
0	 4.148148e+00	 3.407407e+00	 1.054981e+01
0	 4.148148e+00	 3.481481e+00	 1.053691e+01
0	 4.148148e+00	 3.555556e+00	 1.052381e+01
0	 4.148148e+00	 3.629630e+00	 1.051049e+01
0	 4.148148e+00	 3.703704e+00	 1.049690e+01
0	 4.222222e+00	 3.333333e+00	 1.055408e+01
0	 4.222222e+00	 3.407407e+00	 1.054212e+01
0	 4.222222e+00	 3.481481e+00	 1.052999e+01
0	 4.222222e+00	 3.555556e+00	 1.051765e+01
0	 4.222222e+00	 3.629630e+00	 1.050507e+01
0	 4.222222e+00	 3.703704e+00	 1.049222e+01
0	 4.296296e+00	 3.333333e+00	 1.054511e+01
0	 4.296296e+00	 3.407407e+00	 1.053388e+01
0	 4.296296e+00	 3.481481e+00	 1.052248e+01
0	 4.296296e+00	 3.555556e+00	 1.051087e+01
0	 4.296296e+00	 3.629630e+00	 1.049902e+01
0	 4.296296e+00	 3.703704e+00	 1.048690e+01
0	 4.370370e+00	 3.333333e+00	 1.053571e+01
0	 4.370370e+00	 3.407407e+00	 1.052519e+01
0	 4.370370e+00	 3.481481e+00	 1.051449e+01
0	 4.370370e+00	 3.555556e+00	 1.050358e+01
0	 4.370370e+00	 3.629630e+00	 1.049244e+01
0	 4.370370e+00	 3.703704e+00	 1.048104e+01
0	 4.444444e+00	 3.333333e+00	 1.052597e+01
0	 4.444444e+00	 3.407407e+00	 1.051613e+01
0	 4.444444e+00	 3.481481e+00	 1.050612e+01
0	 4.444444e+00	 3.555556e+00	 1.049590e+01
0	 4.444444e+00	 3.629630e+00	 1.048545e+01
0	 4.444444e+00	 3.703704e+00	 1.047475e+01
0	 4.074074e+00	 3.703704e+00	 1.050085e+01
0	 4.074074e+00	 3.777778e+00	 1.048649e+01
0	 4.074074e+00	 3.851852e+00	 1.047229e+01
0	 4.074074e+00	 3.925926e+00	 1.045821e+01
0	 4.074074e+00	 4.000000e+00	 1.044423e+01
0	 4.074074e+00	 4.074074e+00	 1.043032e+01
0	 4.148148e+00	 3.703704e+00	 1.049690e+01
0	 4.148148e+00	 3.777778e+00	 1.048325e+01
0	 4.148148e+00	 3.851852e+00	 1.046973e+01
0	 4.148148e+00	 3.925926e+00	 1.045631e+01
0	 4.148148e+00	 4.000000e+00	 1.044296e+01
0	 4.148148e+00	 4.074074e+00	 1.042963e+01
0	 4.222222e+00	 3.703704e+00	 1.049222e+01
0	 4.222222e+00	 3.777778e+00	 1.047929e+01
0	 4.222222e+00	 3.851852e+00	 1.046645e+01
0	 4.222222e+00	 3.925926e+00	 1.045368e+01
0	 4.222222e+00	 4.000000e+00	 1.044092e+01
0	 4.222222e+00	 4.074074e+00	 1.042815e+01
0	 4.296296e+00	 3.703704e+00	 1.048690e+01
0	 4.296296e+00	 3.777778e+00	 1.047469e+01
0	 4.296296e+00	 3.851852e+00	 1.046252e+01
0	 4.296296e+00	 3.925926e+00	 1.045038e+01
0	 4.296296e+00	 4.000000e+00	 1.043820e+01
0	 4.296296e+00	 4.074074e+00	 1.042596e+01
0	 4.370370e+00	 3.703704e+00	 1.048104e+01
0	 4.370370e+00	 3.777778e+00	 1.046953e+01
0	 4.370370e+00	 3.851852e+00	 1.045801e+01
0	 4.370370e+00	 3.925926e+00	 1.044647e+01
0	 4.370370e+00	 4.000000e+00	 1.043486e+01
0	 4.370370e+00	 4.074074e+00	 1.042314e+01
0	 4.444444e+00	 3.703704e+00	 1.047475e+01
0	 4.444444e+00	 3.777778e+00	 1.046389e+01
0	 4.444444e+00	 3.851852e+00	 1.045300e+01
0	 4.444444e+00	 3.925926e+00	 1.044203e+01
0	 4.444444e+00	 4.000000e+00	 1.043096e+01
0	 4.444444e+00	 4.074074e+00	 1.041976e+01
0	 4.074074e+00	 4.074074e+00	 1.043032e+01
0	 4.074074e+00	 4.148148e+00	 1.041656e+01
0	 4.074074e+00	 4.222222e+00	 1.040302e+01
0	 4.074074e+00	 4.296296e+00	 1.038970e+01
0	 4.074074e+00	 4.370370e+00	 1.037655e+01
0	 4.074074e+00	 4.444444e+00	 1.036355e+01
0	 4.148148e+00	 4.074074e+00	 1.042963e+01
0	 4.148148e+00	 4.148148e+00	 1.041640e+01
0	 4.148148e+00	 4.222222e+00	 1.040336e+01
0	 4.148148e+00	 4.296296e+00	 1.039049e+01
0	 4.148148e+00	 4.370370e+00	 1.037776e+01
0	 4.148148e+00	 4.444444e+00	 1.036515e+01
0	 4.222222e+00	 4.074074e+00	 1.042815e+01
0	 4.222222e+00	 4.148148e+00	 1.041543e+01
0	 4.222222e+00	 4.222222e+00	 1.040288e+01
0	 4.222222e+00	 4.296296e+00	 1.039047e+01
0	 4.222222e+00	 4.370370e+00	 1.037817e+01
0	 4.222222e+00	 4.444444e+00	 1.036597e+01
0	 4.296296e+00	 4.074074e+00	 1.042596e+01
0	 4.296296e+00	 4.148148e+00	 1.041375e+01
0	 4.296296e+00	 4.222222e+00	 1.040168e+01
0	 4.296296e+00	 4.296296e+00	 1.038972e+01
0	 4.296296e+00	 4.370370e+00	 1.037786e+01
0	 4.296296e+00	 4.444444e+00	 1.036608e+01
0	 4.370370e+00	 4.074074e+00	 1.042314e+01
0	 4.370370e+00	 4.148148e+00	 1.041142e+01
0	 4.370370e+00	 4.222222e+00	 1.039983e+01
0	 4.370370e+00	 4.296296e+00	 1.038833e+01
0	 4.370370e+00	 4.370370e+00	 1.037692e+01
0	 4.370370e+00	 4.444444e+00	 1.036556e+01
0	 4.444444e+00	 4.074074e+00	 1.041976e+01
0	 4.444444e+00	 4.148148e+00	 1.040853e+01
0	 4.444444e+00	 4.222222e+00	 1.039742e+01
0	 4.444444e+00	 4.296296e+00	 1.038638e+01
0	 4.444444e+00	 4.370370e+00	 1.037541e+01
0	 4.444444e+00	 4.444444e+00	 1.036448e+01
0	 4.074074e+00	 4.444444e+00	 1.036355e+01
0	 4.074074e+00	 4.518519e+00	 1.035078e+01
0	 4.074074e+00	 4.592593e+00	 1.033831e+01
0	 4.074074e+00	 4.666667e+00	 1.032615e+01
0	 4.074074e+00	 4.740741e+00	 1.031426e+01
0	 4.074074e+00	 4.814815e+00	 1.030263e+01
0	 4.148148e+00	 4.444444e+00	 1.036515e+01
0	 4.148148e+00	 4.518519e+00	 1.035274e+01
0	 4.148148e+00	 4.592593e+00	 1.034062e+01
0	 4.148148e+00	 4.666667e+00	 1.032877e+01
0	 4.148148e+00	 4.740741e+00	 1.031716e+01
0	 4.148148e+00	 4.814815e+00	 1.030579e+01
0	 4.222222e+00	 4.444444e+00	 1.036597e+01
0	 4.222222e+00	 4.518519e+00	 1.035395e+01
0	 4.222222e+00	 4.592593e+00	 1.034218e+01
0	 4.222222e+00	 4.666667e+00	 1.033065e+01
0	 4.222222e+00	 4.740741e+00	 1.031935e+01
0	 4.222222e+00	 4.814815e+00	 1.030824e+01
0	 4.296296e+00	 4.444444e+00	 1.036608e+01
0	 4.296296e+00	 4.518519e+00	 1.035446e+01
0	 4.296296e+00	 4.592593e+00	 1.034306e+01
0	 4.296296e+00	 4.666667e+00	 1.033186e+01
0	 4.296296e+00	 4.740741e+00	 1.032085e+01
0	 4.296296e+00	 4.814815e+00	 1.031001e+01
0	 4.370370e+00	 4.444444e+00	 1.036556e+01
0	 4.370370e+00	 4.518519e+00	 1.035433e+01
0	 4.370370e+00	 4.592593e+00	 1.034330e+01
0	 4.370370e+00	 4.666667e+00	 1.033244e+01
0	 4.370370e+00	 4.740741e+00	 1.032174e+01
0	 4.370370e+00	 4.814815e+00	 1.031117e+01
0	 4.444444e+00	 4.444444e+00	 1.036448e+01
0	 4.444444e+00	 4.518519e+00	 1.035364e+01
0	 4.444444e+00	 4.592593e+00	 1.034297e+01
0	 4.444444e+00	 4.666667e+00	 1.033245e+01
0	 4.444444e+00	 4.740741e+00	 1.032205e+01
0	 4.444444e+00	 4.814815e+00	 1.031176e+01
0	 4.074074e+00	 4.814815e+00	 1.030263e+01
0	 4.074074e+00	 4.888889e+00	 1.029129e+01
0	 4.074074e+00	 4.962963e+00	 1.028026e+01
0	 4.074074e+00	 5.037037e+00	 1.026953e+01
0	 4.074074e+00	 5.111111e+00	 1.025908e+01
0	 4.074074e+00	 5.185185e+00	 1.024891e+01
0	 4.148148e+00	 4.814815e+00	 1.030579e+01
0	 4.148148e+00	 4.888889e+00	 1.029468e+01
0	 4.148148e+00	 4.962963e+00	 1.028384e+01
0	 4.148148e+00	 5.037037e+00	 1.027329e+01
0	 4.148148e+00	 5.111111e+00	 1.026299e+01
0	 4.148148e+00	 5.185185e+00	 1.025294e+01
0	 4.222222e+00	 4.814815e+00	 1.030824e+01
0	 4.222222e+00	 4.888889e+00	 1.029735e+01
0	 4.222222e+00	 4.962963e+00	 1.028673e+01
0	 4.222222e+00	 5.037037e+00	 1.027636e+01
0	 4.222222e+00	 5.111111e+00	 1.026623e+01
0	 4.222222e+00	 5.185185e+00	 1.025634e+01
0	 4.296296e+00	 4.814815e+00	 1.031001e+01
0	 4.296296e+00	 4.888889e+00	 1.029937e+01
0	 4.296296e+00	 4.962963e+00	 1.028897e+01
0	 4.296296e+00	 5.037037e+00	 1.027880e+01
0	 4.296296e+00	 5.111111e+00	 1.026886e+01
0	 4.296296e+00	 5.185185e+00	 1.025914e+01
0	 4.370370e+00	 4.814815e+00	 1.031117e+01
0	 4.370370e+00	 4.888889e+00	 1.030078e+01
0	 4.370370e+00	 4.962963e+00	 1.029061e+01
0	 4.370370e+00	 5.037037e+00	 1.028066e+01
0	 4.370370e+00	 5.111111e+00	 1.027092e+01
0	 4.370370e+00	 5.185185e+00	 1.026137e+01
0	 4.444444e+00	 4.814815e+00	 1.031176e+01
0	 4.444444e+00	 4.888889e+00	 1.030163e+01
0	 4.444444e+00	 4.962963e+00	 1.029171e+01
0	 4.444444e+00	 5.037037e+00	 1.028199e+01
0	 4.444444e+00	 5.111111e+00	 1.027245e+01
0	 4.444444e+00	 5.185185e+00	 1.026310e+01
0	 4.074074e+00	 5.185185e+00	 1.024891e+01
0	 4.074074e+00	 5.259259e+00	 1.023902e+01
0	 4.074074e+00	 5.333333e+00	 1.022944e+01
0	 4.074074e+00	 5.407407e+00	 1.022015e+01
0	 4.074074e+00	 5.481481e+00	 1.021116e+01
0	 4.074074e+00	 5.555556e+00	 1.020246e+01
0	 4.148148e+00	 5.185185e+00	 1.025294e+01
0	 4.148148e+00	 5.259259e+00	 1.024317e+01
0	 4.148148e+00	 5.333333e+00	 1.023368e+01
0	 4.148148e+00	 5.407407e+00	 1.022448e+01
0	 4.148148e+00	 5.481481e+00	 1.021555e+01
0	 4.148148e+00	 5.555556e+00	 1.020689e+01
0	 4.222222e+00	 5.185185e+00	 1.025634e+01
0	 4.222222e+00	 5.259259e+00	 1.024670e+01
0	 4.222222e+00	 5.333333e+00	 1.023733e+01
0	 4.222222e+00	 5.407407e+00	 1.022822e+01
0	 4.222222e+00	 5.481481e+00	 1.021937e+01
0	 4.222222e+00	 5.555556e+00	 1.021077e+01
0	 4.296296e+00	 5.185185e+00	 1.025914e+01
0	 4.296296e+00	 5.259259e+00	 1.024964e+01
0	 4.296296e+00	 5.333333e+00	 1.024041e+01
0	 4.296296e+00	 5.407407e+00	 1.023141e+01
0	 4.296296e+00	 5.481481e+00	 1.022266e+01
0	 4.296296e+00	 5.555556e+00	 1.021413e+01
0	 4.370370e+00	 5.185185e+00	 1.026137e+01
0	 4.370370e+00	 5.259259e+00	 1.025204e+01
0	 4.370370e+00	 5.333333e+00	 1.024295e+01
0	 4.370370e+00	 5.407407e+00	 1.023408e+01
0	 4.370370e+00	 5.481481e+00	 1.022543e+01
0	 4.370370e+00	 5.555556e+00	 1.021699e+01
0	 4.444444e+00	 5.185185e+00	 1.026310e+01
0	 4.444444e+00	 5.259259e+00	 1.025394e+01
0	 4.444444e+00	 5.333333e+00	 1.024500e+01
0	 4.444444e+00	 5.407407e+00	 1.023626e+01
0	 4.444444e+00	 5.481481e+00	 1.022773e+01
0	 4.444444e+00	 5.555556e+00	 1.021939e+01
0	 4.074074e+00	 5.555556e+00	 1.020246e+01
0	 4.074074e+00	 5.629630e+00	 1.019404e+01
0	 4.074074e+00	 5.703704e+00	 1.018589e+01
0	 4.074074e+00	 5.777778e+00	 1.017800e+01
0	 4.074074e+00	 5.851852e+00	 1.017039e+01
0	 4.074074e+00	 5.925926e+00	 1.016303e+01
0	 4.148148e+00	 5.555556e+00	 1.020689e+01
0	 4.148148e+00	 5.629630e+00	 1.019850e+01
0	 4.148148e+00	 5.703704e+00	 1.019036e+01
0	 4.148148e+00	 5.777778e+00	 1.018248e+01
0	 4.148148e+00	 5.851852e+00	 1.017485e+01
0	 4.148148e+00	 5.925926e+00	 1.016748e+01
0	 4.222222e+00	 5.555556e+00	 1.021077e+01
0	 4.222222e+00	 5.629630e+00	 1.020242e+01
0	 4.222222e+00	 5.703704e+00	 1.019432e+01
0	 4.222222e+00	 5.777778e+00	 1.018645e+01
0	 4.222222e+00	 5.851852e+00	 1.017883e+01
0	 4.222222e+00	 5.925926e+00	 1.017145e+01
0	 4.296296e+00	 5.555556e+00	 1.021413e+01
0	 4.296296e+00	 5.629630e+00	 1.020584e+01
0	 4.296296e+00	 5.703704e+00	 1.019778e+01
0	 4.296296e+00	 5.777778e+00	 1.018995e+01
0	 4.296296e+00	 5.851852e+00	 1.018236e+01
0	 4.296296e+00	 5.925926e+00	 1.017499e+01
0	 4.370370e+00	 5.555556e+00	 1.021699e+01
0	 4.370370e+00	 5.629630e+00	 1.020877e+01
0	 4.370370e+00	 5.703704e+00	 1.020077e+01
0	 4.370370e+00	 5.777778e+00	 1.019300e+01
0	 4.370370e+00	 5.851852e+00	 1.018544e+01
0	 4.370370e+00	 5.925926e+00	 1.017810e+01
0	 4.444444e+00	 5.555556e+00	 1.021939e+01
0	 4.444444e+00	 5.629630e+00	 1.021125e+01
0	 4.444444e+00	 5.703704e+00	 1.020333e+01
0	 4.444444e+00	 5.777778e+00	 1.019561e+01
0	 4.444444e+00	 5.851852e+00	 1.018811e+01
0	 4.444444e+00	 5.925926e+00	 1.018080e+01
0	 4.074074e+00	 5.925926e+00	 1.016303e+01
0	 4.074074e+00	 6.000000e+00	 1.015593e+01
0	 4.074074e+00	 6.074074e+00	 1.014907e+01
0	 4.074074e+00	 6.148148e+00	 1.014245e+01
0	 4.074074e+00	 6.222222e+00	 1.013606e+01
0	 4.074074e+00	 6.296296e+00	 1.012992e+01
0	 4.148148e+00	 5.925926e+00	 1.016748e+01
0	 4.148148e+00	 6.000000e+00	 1.016034e+01
0	 4.148148e+00	 6.074074e+00	 1.015344e+01
0	 4.148148e+00	 6.148148e+00	 1.014677e+01
0	 4.148148e+00	 6.222222e+00	 1.014033e+01
0	 4.148148e+00	 6.296296e+00	 1.013412e+01
0	 4.222222e+00	 5.925926e+00	 1.017145e+01
0	 4.222222e+00	 6.000000e+00	 1.016430e+01
0	 4.222222e+00	 6.074074e+00	 1.015738e+01
0	 4.222222e+00	 6.148148e+00	 1.015068e+01
0	 4.222222e+00	 6.222222e+00	 1.014420e+01
0	 4.222222e+00	 6.296296e+00	 1.013794e+01
0	 4.296296e+00	 5.925926e+00	 1.017499e+01
0	 4.296296e+00	 6.000000e+00	 1.016784e+01
0	 4.296296e+00	 6.074074e+00	 1.016091e+01
0	 4.296296e+00	 6.148148e+00	 1.015419e+01
0	 4.296296e+00	 6.222222e+00	 1.014768e+01
0	 4.296296e+00	 6.296296e+00	 1.014138e+01
0	 4.370370e+00	 5.925926e+00	 1.017810e+01
0	 4.370370e+00	 6.000000e+00	 1.017096e+01
0	 4.370370e+00	 6.074074e+00	 1.016404e+01
0	 4.370370e+00	 6.148148e+00	 1.015732e+01
0	 4.370370e+00	 6.222222e+00	 1.015080e+01
0	 4.370370e+00	 6.296296e+00	 1.014448e+01
0	 4.444444e+00	 5.925926e+00	 1.018080e+01
0	 4.444444e+00	 6.000000e+00	 1.017370e+01
0	 4.444444e+00	 6.074074e+00	 1.016679e+01
0	 4.444444e+00	 6.148148e+00	 1.016008e+01
0	 4.444444e+00	 6.222222e+00	 1.015356e+01
0	 4.444444e+00	 6.296296e+00	 1.014723e+01
0	 4.074074e+00	 6.296296e+00	 1.012992e+01
0	 4.074074e+00	 6.370370e+00	 1.012399e+01
0	 4.074074e+00	 6.444444e+00	 1.011827e+01
0	 4.074074e+00	 6.518519e+00	 1.011276e+01
0	 4.074074e+00	 6.592593e+00	 1.010745e+01
0	 4.074074e+00	 6.666667e+00	 1.010234e+01
0	 4.148148e+00	 6.296296e+00	 1.013412e+01
0	 4.148148e+00	 6.370370e+00	 1.012812e+01
0	 4.148148e+00	 6.444444e+00	 1.012232e+01
0	 4.148148e+00	 6.518519e+00	 1.011673e+01
0	 4.148148e+00	 6.592593e+00	 1.011133e+01
0	 4.148148e+00	 6.666667e+00	 1.010613e+01
0	 4.222222e+00	 6.296296e+00	 1.013794e+01
0	 4.222222e+00	 6.370370e+00	 1.013188e+01
0	 4.222222e+00	 6.444444e+00	 1.012602e+01
0	 4.222222e+00	 6.518519e+00	 1.012035e+01
0	 4.222222e+00	 6.592593e+00	 1.011488e+01
0	 4.222222e+00	 6.666667e+00	 1.010960e+01
0	 4.296296e+00	 6.296296e+00	 1.014138e+01
0	 4.296296e+00	 6.370370e+00	 1.013529e+01
0	 4.296296e+00	 6.444444e+00	 1.012938e+01
0	 4.296296e+00	 6.518519e+00	 1.012366e+01
0	 4.296296e+00	 6.592593e+00	 1.011812e+01
0	 4.296296e+00	 6.666667e+00	 1.011278e+01
0	 4.370370e+00	 6.296296e+00	 1.014448e+01
0	 4.370370e+00	 6.370370e+00	 1.013835e+01
0	 4.370370e+00	 6.444444e+00	 1.013240e+01
0	 4.370370e+00	 6.518519e+00	 1.012664e+01
0	 4.370370e+00	 6.592593e+00	 1.012106e+01
0	 4.370370e+00	 6.666667e+00	 1.011566e+01
0	 4.444444e+00	 6.296296e+00	 1.014723e+01
0	 4.444444e+00	 6.370370e+00	 1.014108e+01
0	 4.444444e+00	 6.444444e+00	 1.013511e+01
0	 4.444444e+00	 6.518519e+00	 1.012932e+01
0	 4.444444e+00	 6.592593e+00	 1.012370e+01
0	 4.444444e+00	 6.666667e+00	 1.011826e+01
0	 4.074074e+00	 6.666667e+00	 1.010234e+01
0	 4.074074e+00	 6.740741e+00	 1.009743e+01
0	 4.074074e+00	 6.814815e+00	 1.009268e+01
0	 4.074074e+00	 6.888889e+00	 1.008810e+01
0	 4.074074e+00	 6.962963e+00	 1.008370e+01
0	 4.074074e+00	 7.037037e+00	 1.007948e+01
0	 4.148148e+00	 6.666667e+00	 1.010613e+01
0	 4.148148e+00	 6.740741e+00	 1.010111e+01
0	 4.148148e+00	 6.814815e+00	 1.009627e+01
0	 4.148148e+00	 6.888889e+00	 1.009159e+01
0	 4.148148e+00	 6.962963e+00	 1.008708e+01
0	 4.148148e+00	 7.037037e+00	 1.008275e+01
0	 4.222222e+00	 6.666667e+00	 1.010960e+01
0	 4.222222e+00	 6.740741e+00	 1.010450e+01
0	 4.222222e+00	 6.814815e+00	 1.009957e+01
0	 4.222222e+00	 6.888889e+00	 1.009481e+01
0	 4.222222e+00	 6.962963e+00	 1.009021e+01
0	 4.222222e+00	 7.037037e+00	 1.008577e+01
0	 4.296296e+00	 6.666667e+00	 1.011278e+01
0	 4.296296e+00	 6.740741e+00	 1.010761e+01
0	 4.296296e+00	 6.814815e+00	 1.010260e+01
0	 4.296296e+00	 6.888889e+00	 1.009776e+01
0	 4.296296e+00	 6.962963e+00	 1.009308e+01
0	 4.296296e+00	 7.037037e+00	 1.008856e+01
0	 4.370370e+00	 6.666667e+00	 1.011566e+01
0	 4.370370e+00	 6.740741e+00	 1.011043e+01
0	 4.370370e+00	 6.814815e+00	 1.010537e+01
0	 4.370370e+00	 6.888889e+00	 1.010046e+01
0	 4.370370e+00	 6.962963e+00	 1.009570e+01
0	 4.370370e+00	 7.037037e+00	 1.009111e+01
0	 4.444444e+00	 6.666667e+00	 1.011826e+01
0	 4.444444e+00	 6.740741e+00	 1.011299e+01
0	 4.444444e+00	 6.814815e+00	 1.010787e+01
0	 4.444444e+00	 6.888889e+00	 1.010290e+01
0	 4.444444e+00	 6.962963e+00	 1.009809e+01
0	 4.444444e+00	 7.037037e+00	 1.009344e+01
0	 4.074074e+00	 7.037037e+00	 1.007948e+01
0	 4.074074e+00	 7.111111e+00	 1.007541e+01
0	 4.074074e+00	 7.185185e+00	 1.007148e+01
0	 4.074074e+00	 7.259259e+00	 1.006770e+01
0	 4.074074e+00	 7.333333e+00	 1.006405e+01
0	 4.074074e+00	 7.407407e+00	 1.006056e+01
0	 4.148148e+00	 7.037037e+00	 1.008275e+01
0	 4.148148e+00	 7.111111e+00	 1.007857e+01
0	 4.148148e+00	 7.185185e+00	 1.007453e+01
0	 4.148148e+00	 7.259259e+00	 1.007063e+01
0	 4.148148e+00	 7.333333e+00	 1.006687e+01
0	 4.148148e+00	 7.407407e+00	 1.006326e+01
0	 4.222222e+00	 7.037037e+00	 1.008577e+01
0	 4.222222e+00	 7.111111e+00	 1.008149e+01
0	 4.222222e+00	 7.185185e+00	 1.007735e+01
0	 4.222222e+00	 7.259259e+00	 1.007335e+01
0	 4.222222e+00	 7.333333e+00	 1.006950e+01
0	 4.222222e+00	 7.407407e+00	 1.006578e+01
0	 4.296296e+00	 7.037037e+00	 1.008856e+01
0	 4.296296e+00	 7.111111e+00	 1.008419e+01
0	 4.296296e+00	 7.185185e+00	 1.007996e+01
0	 4.296296e+00	 7.259259e+00	 1.007587e+01
0	 4.296296e+00	 7.333333e+00	 1.007192e+01
0	 4.296296e+00	 7.407407e+00	 1.006811e+01
0	 4.370370e+00	 7.037037e+00	 1.009111e+01
0	 4.370370e+00	 7.111111e+00	 1.008667e+01
0	 4.370370e+00	 7.185185e+00	 1.008236e+01
0	 4.370370e+00	 7.259259e+00	 1.007819e+01
0	 4.370370e+00	 7.333333e+00	 1.007415e+01
0	 4.370370e+00	 7.407407e+00	 1.007026e+01
0	 4.444444e+00	 7.037037e+00	 1.009344e+01
0	 4.444444e+00	 7.111111e+00	 1.008892e+01
0	 4.444444e+00	 7.185185e+00	 1.008455e+01
0	 4.444444e+00	 7.259259e+00	 1.008031e+01
0	 4.444444e+00	 7.333333e+00	 1.007620e+01
0	 4.444444e+00	 7.407407e+00	 1.007223e+01
0	 4.074074e+00	 7.407407e+00	 1.006056e+01
0	 4.074074e+00	 7.481481e+00	 1.005719e+01
0	 4.074074e+00	 7.555556e+00	 1.005394e+01
0	 4.074074e+00	 7.629630e+00	 1.005081e+01
0	 4.074074e+00	 7.703704e+00	 1.004779e+01
0	 4.074074e+00	 7.777778e+00	 1.004490e+01
0	 4.148148e+00	 7.407407e+00	 1.006326e+01
0	 4.148148e+00	 7.481481e+00	 1.005978e+01
0	 4.148148e+00	 7.555556e+00	 1.005641e+01
0	 4.148148e+00	 7.629630e+00	 1.005317e+01
0	 4.148148e+00	 7.703704e+00	 1.005004e+01
0	 4.148148e+00	 7.777778e+00	 1.004703e+01
0	 4.222222e+00	 7.407407e+00	 1.006578e+01
0	 4.222222e+00	 7.481481e+00	 1.006219e+01
0	 4.222222e+00	 7.555556e+00	 1.005872e+01
0	 4.222222e+00	 7.629630e+00	 1.005537e+01
0	 4.222222e+00	 7.703704e+00	 1.005214e+01
0	 4.222222e+00	 7.777778e+00	 1.004902e+01
0	 4.296296e+00	 7.407407e+00	 1.006811e+01
0	 4.296296e+00	 7.481481e+00	 1.006443e+01
0	 4.296296e+00	 7.555556e+00	 1.006086e+01
0	 4.296296e+00	 7.629630e+00	 1.005741e+01
0	 4.296296e+00	 7.703704e+00	 1.005408e+01
0	 4.296296e+00	 7.777778e+00	 1.005087e+01
0	 4.370370e+00	 7.407407e+00	 1.007026e+01
0	 4.370370e+00	 7.481481e+00	 1.006649e+01
0	 4.370370e+00	 7.555556e+00	 1.006284e+01
0	 4.370370e+00	 7.629630e+00	 1.005930e+01
0	 4.370370e+00	 7.703704e+00	 1.005589e+01
0	 4.370370e+00	 7.777778e+00	 1.005259e+01
0	 4.444444e+00	 7.407407e+00	 1.007223e+01
0	 4.444444e+00	 7.481481e+00	 1.006838e+01
0	 4.444444e+00	 7.555556e+00	 1.006465e+01
0	 4.444444e+00	 7.629630e+00	 1.006104e+01
0	 4.444444e+00	 7.703704e+00	 1.005754e+01
0	 4.444444e+00	 7.777778e+00	 1.005416e+01
0	 4.074074e+00	 7.777778e+00	 1.004490e+01
0	 4.074074e+00	 7.851852e+00	 1.004211e+01
0	 4.074074e+00	 7.925926e+00	 1.003942e+01
0	 4.074074e+00	 8.000000e+00	 1.003683e+01
0	 4.074074e+00	 8.074074e+00	 1.003434e+01
0	 4.074074e+00	 8.148148e+00	 1.003195e+01
0	 4.148148e+00	 7.777778e+00	 1.004703e+01
0	 4.148148e+00	 7.851852e+00	 1.004413e+01
0	 4.148148e+00	 7.925926e+00	 1.004133e+01
0	 4.148148e+00	 8.000000e+00	 1.003863e+01
0	 4.148148e+00	 8.074074e+00	 1.003603e+01
0	 4.148148e+00	 8.148148e+00	 1.003352e+01
0	 4.222222e+00	 7.777778e+00	 1.004902e+01
0	 4.222222e+00	 7.851852e+00	 1.004602e+01
0	 4.222222e+00	 7.925926e+00	 1.004311e+01
0	 4.222222e+00	 8.000000e+00	 1.004031e+01
0	 4.222222e+00	 8.074074e+00	 1.003761e+01
0	 4.222222e+00	 8.148148e+00	 1.003500e+01
0	 4.296296e+00	 7.777778e+00	 1.005087e+01
0	 4.296296e+00	 7.851852e+00	 1.004777e+01
0	 4.296296e+00	 7.925926e+00	 1.004477e+01
0	 4.296296e+00	 8.000000e+00	 1.004187e+01
0	 4.296296e+00	 8.074074e+00	 1.003908e+01
0	 4.296296e+00	 8.148148e+00	 1.003638e+01
0	 4.370370e+00	 7.777778e+00	 1.005259e+01
0	 4.370370e+00	 7.851852e+00	 1.004940e+01
0	 4.370370e+00	 7.925926e+00	 1.004631e+01
0	 4.370370e+00	 8.000000e+00	 1.004333e+01
0	 4.370370e+00	 8.074074e+00	 1.004044e+01
0	 4.370370e+00	 8.148148e+00	 1.003766e+01
0	 4.444444e+00	 7.777778e+00	 1.005416e+01
0	 4.444444e+00	 7.851852e+00	 1.005089e+01
0	 4.444444e+00	 7.925926e+00	 1.004773e+01
0	 4.444444e+00	 8.000000e+00	 1.004466e+01
0	 4.444444e+00	 8.074074e+00	 1.004170e+01
0	 4.444444e+00	 8.148148e+00	 1.003884e+01
0	 4.074074e+00	 8.148148e+00	 1.003195e+01
0	 4.074074e+00	 8.222222e+00	 1.002964e+01
0	 4.074074e+00	 8.296296e+00	 1.002743e+01
0	 4.074074e+00	 8.370370e+00	 1.002530e+01
0	 4.074074e+00	 8.444444e+00	 1.002325e+01
0	 4.074074e+00	 8.518519e+00	 1.002128e+01
0	 4.148148e+00	 8.148148e+00	 1.003352e+01
0	 4.148148e+00	 8.222222e+00	 1.003112e+01
0	 4.148148e+00	 8.296296e+00	 1.002880e+01
0	 4.148148e+00	 8.370370e+00	 1.002656e+01
0	 4.148148e+00	 8.444444e+00	 1.002442e+01
0	 4.148148e+00	 8.518519e+00	 1.002236e+01
0	 4.222222e+00	 8.148148e+00	 1.003500e+01
0	 4.222222e+00	 8.222222e+00	 1.003250e+01
0	 4.222222e+00	 8.296296e+00	 1.003008e+01
0	 4.222222e+00	 8.370370e+00	 1.002776e+01
0	 4.222222e+00	 8.444444e+00	 1.002552e+01
0	 4.222222e+00	 8.518519e+00	 1.002337e+01
0	 4.296296e+00	 8.148148e+00	 1.003638e+01
0	 4.296296e+00	 8.222222e+00	 1.003379e+01
0	 4.296296e+00	 8.296296e+00	 1.003128e+01
0	 4.296296e+00	 8.370370e+00	 1.002887e+01
0	 4.296296e+00	 8.444444e+00	 1.002654e+01
0	 4.296296e+00	 8.518519e+00	 1.002431e+01
0	 4.370370e+00	 8.148148e+00	 1.003766e+01
0	 4.370370e+00	 8.222222e+00	 1.003498e+01
0	 4.370370e+00	 8.296296e+00	 1.003239e+01
0	 4.370370e+00	 8.370370e+00	 1.002990e+01
0	 4.370370e+00	 8.444444e+00	 1.002750e+01
0	 4.370370e+00	 8.518519e+00	 1.002519e+01
0	 4.444444e+00	 8.148148e+00	 1.003884e+01
0	 4.444444e+00	 8.222222e+00	 1.003608e+01
0	 4.444444e+00	 8.296296e+00	 1.003342e+01
0	 4.444444e+00	 8.370370e+00	 1.003085e+01
0	 4.444444e+00	 8.444444e+00	 1.002838e+01
0	 4.444444e+00	 8.518519e+00	 1.002599e+01
0	 4.074074e+00	 8.518519e+00	 1.002128e+01
0	 4.074074e+00	 8.592593e+00	 1.001940e+01
0	 4.074074e+00	 8.666667e+00	 1.001760e+01
0	 4.074074e+00	 8.740741e+00	 1.001588e+01
0	 4.074074e+00	 8.814815e+00	 1.001424e+01
0	 4.074074e+00	 8.888889e+00	 1.001267e+01
0	 4.148148e+00	 8.518519e+00	 1.002236e+01
0	 4.148148e+00	 8.592593e+00	 1.002038e+01
0	 4.148148e+00	 8.666667e+00	 1.001849e+01
0	 4.148148e+00	 8.740741e+00	 1.001668e+01
0	 4.148148e+00	 8.814815e+00	 1.001496e+01
0	 4.148148e+00	 8.888889e+00	 1.001331e+01
0	 4.222222e+00	 8.518519e+00	 1.002337e+01
0	 4.222222e+00	 8.592593e+00	 1.002130e+01
0	 4.222222e+00	 8.666667e+00	 1.001933e+01
0	 4.222222e+00	 8.740741e+00	 1.001744e+01
0	 4.222222e+00	 8.814815e+00	 1.001564e+01
0	 4.222222e+00	 8.888889e+00	 1.001391e+01
0	 4.296296e+00	 8.518519e+00	 1.002431e+01
0	 4.296296e+00	 8.592593e+00	 1.002216e+01
0	 4.296296e+00	 8.666667e+00	 1.002011e+01
0	 4.296296e+00	 8.740741e+00	 1.001815e+01
0	 4.296296e+00	 8.814815e+00	 1.001627e+01
0	 4.296296e+00	 8.888889e+00	 1.001447e+01
0	 4.370370e+00	 8.518519e+00	 1.002519e+01
0	 4.370370e+00	 8.592593e+00	 1.002297e+01
0	 4.370370e+00	 8.666667e+00	 1.002084e+01
0	 4.370370e+00	 8.740741e+00	 1.001881e+01
0	 4.370370e+00	 8.814815e+00	 1.001686e+01
0	 4.370370e+00	 8.888889e+00	 1.001500e+01
0	 4.444444e+00	 8.518519e+00	 1.002599e+01
0	 4.444444e+00	 8.592593e+00	 1.002370e+01
0	 4.444444e+00	 8.666667e+00	 1.002151e+01
0	 4.444444e+00	 8.740741e+00	 1.001941e+01
0	 4.444444e+00	 8.814815e+00	 1.001740e+01
0	 4.444444e+00	 8.888889e+00	 1.001548e+01
0	 4.074074e+00	 8.888889e+00	 1.001267e+01
0	 4.074074e+00	 8.962963e+00	 1.001118e+01
0	 4.074074e+00	 9.037037e+00	 1.000978e+01
0	 4.074074e+00	 9.111111e+00	 1.000846e+01
0	 4.074074e+00	 9.185185e+00	 1.000722e+01
0	 4.074074e+00	 9.259259e+00	 1.000605e+01
0	 4.148148e+00	 8.888889e+00	 1.001331e+01
0	 4.148148e+00	 8.962963e+00	 1.001174e+01
0	 4.148148e+00	 9.037037e+00	 1.001027e+01
0	 4.148148e+00	 9.111111e+00	 1.000888e+01
0	 4.148148e+00	 9.185185e+00	 1.000758e+01
0	 4.148148e+00	 9.259259e+00	 1.000635e+01
0	 4.222222e+00	 8.888889e+00	 1.001391e+01
0	 4.222222e+00	 8.962963e+00	 1.001227e+01
0	 4.222222e+00	 9.037037e+00	 1.001073e+01
0	 4.222222e+00	 9.111111e+00	 1.000928e+01
0	 4.222222e+00	 9.185185e+00	 1.000792e+01
0	 4.222222e+00	 9.259259e+00	 1.000663e+01
0	 4.296296e+00	 8.888889e+00	 1.001447e+01
0	 4.296296e+00	 8.962963e+00	 1.001277e+01
0	 4.296296e+00	 9.037037e+00	 1.001117e+01
0	 4.296296e+00	 9.111111e+00	 1.000966e+01
0	 4.296296e+00	 9.185185e+00	 1.000824e+01
0	 4.296296e+00	 9.259259e+00	 1.000690e+01
0	 4.370370e+00	 8.888889e+00	 1.001500e+01
0	 4.370370e+00	 8.962963e+00	 1.001323e+01
0	 4.370370e+00	 9.037037e+00	 1.001157e+01
0	 4.370370e+00	 9.111111e+00	 1.001000e+01
0	 4.370370e+00	 9.185185e+00	 1.000853e+01
0	 4.370370e+00	 9.259259e+00	 1.000715e+01
0	 4.444444e+00	 8.888889e+00	 1.001548e+01
0	 4.444444e+00	 8.962963e+00	 1.001366e+01
0	 4.444444e+00	 9.037037e+00	 1.001194e+01
0	 4.444444e+00	 9.111111e+00	 1.001032e+01
0	 4.444444e+00	 9.185185e+00	 1.000880e+01
0	 4.444444e+00	 9.259259e+00	 1.000737e+01
0	 4.074074e+00	 9.259259e+00	 1.000605e+01
0	 4.074074e+00	 9.333333e+00	 1.000497e+01
0	 4.074074e+00	 9.407407e+00	 1.000400e+01
0	 4.074074e+00	 9.481481e+00	 1.000313e+01
0	 4.074074e+00	 9.555556e+00	 1.000235e+01
0	 4.074074e+00	 9.629630e+00	 1.000165e+01
0	 4.148148e+00	 9.259259e+00	 1.000635e+01
0	 4.148148e+00	 9.333333e+00	 1.000522e+01
0	 4.148148e+00	 9.407407e+00	 1.000420e+01
0	 4.148148e+00	 9.481481e+00	 1.000328e+01
0	 4.148148e+00	 9.555556e+00	 1.000246e+01
0	 4.148148e+00	 9.629630e+00	 1.000173e+01
0	 4.222222e+00	 9.259259e+00	 1.000663e+01
0	 4.222222e+00	 9.333333e+00	 1.000545e+01
0	 4.222222e+00	 9.407407e+00	 1.000438e+01
0	 4.222222e+00	 9.481481e+00	 1.000343e+01
0	 4.222222e+00	 9.555556e+00	 1.000257e+01
0	 4.222222e+00	 9.629630e+00	 1.000180e+01
0	 4.296296e+00	 9.259259e+00	 1.000690e+01
0	 4.296296e+00	 9.333333e+00	 1.000567e+01
0	 4.296296e+00	 9.407407e+00	 1.000456e+01
0	 4.296296e+00	 9.481481e+00	 1.000356e+01
0	 4.296296e+00	 9.555556e+00	 1.000267e+01
0	 4.296296e+00	 9.629630e+00	 1.000188e+01
0	 4.370370e+00	 9.259259e+00	 1.000715e+01
0	 4.370370e+00	 9.333333e+00	 1.000587e+01
0	 4.370370e+00	 9.407407e+00	 1.000472e+01
0	 4.370370e+00	 9.481481e+00	 1.000369e+01
0	 4.370370e+00	 9.555556e+00	 1.000276e+01
0	 4.370370e+00	 9.629630e+00	 1.000194e+01
0	 4.444444e+00	 9.259259e+00	 1.000737e+01
0	 4.444444e+00	 9.333333e+00	 1.000606e+01
0	 4.444444e+00	 9.407407e+00	 1.000487e+01
0	 4.444444e+00	 9.481481e+00	 1.000380e+01
0	 4.444444e+00	 9.555556e+00	 1.000285e+01
0	 4.444444e+00	 9.629630e+00	 1.000200e+01
0	 4.074074e+00	 9.629630e+00	 1.000165e+01
0	 4.074074e+00	 9.703704e+00	 1.000107e+01
0	 4.074074e+00	 9.777778e+00	 1.000062e+01
0	 4.074074e+00	 9.851852e+00	 1.000029e+01
0	 4.074074e+00	 9.925926e+00	 1.000008e+01
0	 4.074074e+00	 1.000000e+01	 9.999976e+00
0	 4.148148e+00	 9.629630e+00	 1.000173e+01
0	 4.148148e+00	 9.703704e+00	 1.000111e+01
0	 4.148148e+00	 9.777778e+00	 1.000064e+01
0	 4.148148e+00	 9.851852e+00	 1.000030e+01
0	 4.148148e+00	 9.925926e+00	 1.000008e+01
0	 4.148148e+00	 1.000000e+01	 9.999971e+00
0	 4.222222e+00	 9.629630e+00	 1.000180e+01
0	 4.222222e+00	 9.703704e+00	 1.000116e+01
0	 4.222222e+00	 9.777778e+00	 1.000067e+01
0	 4.222222e+00	 9.851852e+00	 1.000031e+01
0	 4.222222e+00	 9.925926e+00	 1.000008e+01
0	 4.222222e+00	 1.000000e+01	 9.999972e+00
0	 4.296296e+00	 9.629630e+00	 1.000188e+01
0	 4.296296e+00	 9.703704e+00	 1.000121e+01
0	 4.296296e+00	 9.777778e+00	 1.000070e+01
0	 4.296296e+00	 9.851852e+00	 1.000033e+01
0	 4.296296e+00	 9.925926e+00	 1.000009e+01
0	 4.296296e+00	 1.000000e+01	 9.999974e+00
0	 4.370370e+00	 9.629630e+00	 1.000194e+01
0	 4.370370e+00	 9.703704e+00	 1.000125e+01
0	 4.370370e+00	 9.777778e+00	 1.000072e+01
0	 4.370370e+00	 9.851852e+00	 1.000034e+01
0	 4.370370e+00	 9.925926e+00	 1.000010e+01
0	 4.370370e+00	 1.000000e+01	 9.999976e+00
0	 4.444444e+00	 9.629630e+00	 1.000200e+01
0	 4.444444e+00	 9.703704e+00	 1.000129e+01
0	 4.444444e+00	 9.777778e+00	 1.000074e+01
0	 4.444444e+00	 9.851852e+00	 1.000035e+01
0	 4.444444e+00	 9.925926e+00	 1.000010e+01
0	 4.444444e+00	 1.000000e+01	 9.999973e+00
0	 4.444444e+00	 0.000000e+00	 1.041929e+01
0	 4.444444e+00	 7.407407e-02	 1.042184e+01
0	 4.444444e+00	 1.481481e-01	 1.042485e+01
0	 4.444444e+00	 2.222222e-01	 1.042840e+01
0	 4.444444e+00	 2.962963e-01	 1.043258e+01
0	 4.444444e+00	 3.703704e-01	 1.043747e+01
0	 4.518519e+00	 0.000000e+00	 1.040388e+01
0	 4.518519e+00	 7.407407e-02	 1.040659e+01
0	 4.518519e+00	 1.481481e-01	 1.040972e+01
0	 4.518519e+00	 2.222222e-01	 1.041331e+01
0	 4.518519e+00	 2.962963e-01	 1.041740e+01
0	 4.518519e+00	 3.703704e-01	 1.042202e+01
0	 4.592593e+00	 0.000000e+00	 1.039106e+01
0	 4.592593e+00	 7.407407e-02	 1.039317e+01
0	 4.592593e+00	 1.481481e-01	 1.039581e+01
0	 4.592593e+00	 2.222222e-01	 1.039901e+01
0	 4.592593e+00	 2.962963e-01	 1.040277e+01
0	 4.592593e+00	 3.703704e-01	 1.040710e+01
0	 4.666667e+00	 0.000000e+00	 1.037988e+01
0	 4.666667e+00	 7.407407e-02	 1.038099e+01
0	 4.666667e+00	 1.481481e-01	 1.038284e+01
0	 4.666667e+00	 2.222222e-01	 1.038543e+01
0	 4.666667e+00	 2.962963e-01	 1.038875e+01
0	 4.666667e+00	 3.703704e-01	 1.039279e+01
0	 4.740741e+00	 0.000000e+00	 1.036939e+01
0	 4.740741e+00	 7.407407e-02	 1.036950e+01
0	 4.740741e+00	 1.481481e-01	 1.037054e+01
0	 4.740741e+00	 2.222222e-01	 1.037249e+01
0	 4.740741e+00	 2.962963e-01	 1.037536e+01
0	 4.740741e+00	 3.703704e-01	 1.037914e+01
0	 4.814815e+00	 0.000000e+00	 1.035863e+01
0	 4.814815e+00	 7.407407e-02	 1.035813e+01
0	 4.814815e+00	 1.481481e-01	 1.035862e+01
0	 4.814815e+00	 2.222222e-01	 1.036013e+01
0	 4.814815e+00	 2.962963e-01	 1.036266e+01
0	 4.814815e+00	 3.703704e-01	 1.036621e+01
0	 4.444444e+00	 3.703704e-01	 1.043747e+01
0	 4.444444e+00	 4.444444e-01	 1.044303e+01
0	 4.444444e+00	 5.185185e-01	 1.044926e+01
0	 4.444444e+00	 5.925926e-01	 1.045622e+01
0	 4.444444e+00	 6.666667e-01	 1.046401e+01
0	 4.444444e+00	 7.407407e-01	 1.047269e+01
0	 4.518519e+00	 3.703704e-01	 1.042202e+01
0	 4.518519e+00	 4.444444e-01	 1.042721e+01
0	 4.518519e+00	 5.185185e-01	 1.043303e+01
0	 4.518519e+00	 5.925926e-01	 1.043958e+01
0	 4.518519e+00	 6.666667e-01	 1.044694e+01
0	 4.518519e+00	 7.407407e-01	 1.045519e+01
0	 4.592593e+00	 3.703704e-01	 1.040710e+01
0	 4.592593e+00	 4.444444e-01	 1.041199e+01
0	 4.592593e+00	 5.185185e-01	 1.041748e+01
0	 4.592593e+00	 5.925926e-01	 1.042366e+01
0	 4.592593e+00	 6.666667e-01	 1.043061e+01
0	 4.592593e+00	 7.407407e-01	 1.043842e+01
0	 4.666667e+00	 3.703704e-01	 1.039279e+01
0	 4.666667e+00	 4.444444e-01	 1.039744e+01
0	 4.666667e+00	 5.185185e-01	 1.040265e+01
0	 4.666667e+00	 5.925926e-01	 1.040849e+01
0	 4.666667e+00	 6.666667e-01	 1.041506e+01
0	 4.666667e+00	 7.407407e-01	 1.042244e+01
0	 4.740741e+00	 3.703704e-01	 1.037914e+01
0	 4.740741e+00	 4.444444e-01	 1.038359e+01
0	 4.740741e+00	 5.185185e-01	 1.038855e+01
0	 4.740741e+00	 5.925926e-01	 1.039410e+01
0	 4.740741e+00	 6.666667e-01	 1.040031e+01
0	 4.740741e+00	 7.407407e-01	 1.040727e+01
0	 4.814815e+00	 3.703704e-01	 1.036621e+01
0	 4.814815e+00	 4.444444e-01	 1.037049e+01
0	 4.814815e+00	 5.185185e-01	 1.037523e+01
0	 4.814815e+00	 5.925926e-01	 1.038051e+01
0	 4.814815e+00	 6.666667e-01	 1.038640e+01
0	 4.814815e+00	 7.407407e-01	 1.039297e+01
0	 4.444444e+00	 7.407407e-01	 1.047269e+01
0	 4.444444e+00	 8.148148e-01	 1.048178e+01
0	 4.444444e+00	 8.888889e-01	 1.049080e+01
0	 4.444444e+00	 9.629630e-01	 1.049989e+01
0	 4.444444e+00	 1.037037e+00	 1.050918e+01
0	 4.444444e+00	 1.111111e+00	 1.051882e+01
0	 4.518519e+00	 7.407407e-01	 1.045519e+01
0	 4.518519e+00	 8.148148e-01	 1.046386e+01
0	 4.518519e+00	 8.888889e-01	 1.047249e+01
0	 4.518519e+00	 9.629630e-01	 1.048122e+01
0	 4.518519e+00	 1.037037e+00	 1.049015e+01
0	 4.518519e+00	 1.111111e+00	 1.049941e+01
0	 4.592593e+00	 7.407407e-01	 1.043842e+01
0	 4.592593e+00	 8.148148e-01	 1.044666e+01
0	 4.592593e+00	 8.888889e-01	 1.045491e+01
0	 4.592593e+00	 9.629630e-01	 1.046327e+01
0	 4.592593e+00	 1.037037e+00	 1.047187e+01
0	 4.592593e+00	 1.111111e+00	 1.048080e+01
0	 4.666667e+00	 7.407407e-01	 1.042244e+01
0	 4.666667e+00	 8.148148e-01	 1.043024e+01
0	 4.666667e+00	 8.888889e-01	 1.043809e+01
0	 4.666667e+00	 9.629630e-01	 1.044610e+01
0	 4.666667e+00	 1.037037e+00	 1.045437e+01
0	 4.666667e+00	 1.111111e+00	 1.046298e+01
0	 4.740741e+00	 7.407407e-01	 1.040727e+01
0	 4.740741e+00	 8.148148e-01	 1.041464e+01
0	 4.740741e+00	 8.888889e-01	 1.042211e+01
0	 4.740741e+00	 9.629630e-01	 1.042975e+01
0	 4.740741e+00	 1.037037e+00	 1.043767e+01
0	 4.740741e+00	 1.111111e+00	 1.044596e+01
0	 4.814815e+00	 7.407407e-01	 1.039297e+01
0	 4.814815e+00	 8.148148e-01	 1.039993e+01
0	 4.814815e+00	 8.888889e-01	 1.040700e+01
0	 4.814815e+00	 9.629630e-01	 1.041427e+01
0	 4.814815e+00	 1.037037e+00	 1.042182e+01
0	 4.814815e+00	 1.111111e+00	 1.042974e+01
0	 4.444444e+00	 1.111111e+00	 1.051882e+01
0	 4.444444e+00	 1.185185e+00	 1.052836e+01
0	 4.444444e+00	 1.259259e+00	 1.053738e+01
0	 4.444444e+00	 1.333333e+00	 1.054603e+01
0	 4.444444e+00	 1.407407e+00	 1.055446e+01
0	 4.444444e+00	 1.481481e+00	 1.056281e+01
0	 4.518519e+00	 1.111111e+00	 1.049941e+01
0	 4.518519e+00	 1.185185e+00	 1.050864e+01
0	 4.518519e+00	 1.259259e+00	 1.051744e+01
0	 4.518519e+00	 1.333333e+00	 1.052594e+01
0	 4.518519e+00	 1.407407e+00	 1.053425e+01
0	 4.518519e+00	 1.481481e+00	 1.054250e+01
0	 4.592593e+00	 1.111111e+00	 1.048080e+01
0	 4.592593e+00	 1.185185e+00	 1.048973e+01
0	 4.592593e+00	 1.259259e+00	 1.049831e+01
0	 4.592593e+00	 1.333333e+00	 1.050662e+01
0	 4.592593e+00	 1.407407e+00	 1.051476e+01
0	 4.592593e+00	 1.481481e+00	 1.052281e+01
0	 4.666667e+00	 1.111111e+00	 1.046298e+01
0	 4.666667e+00	 1.185185e+00	 1.047163e+01
0	 4.666667e+00	 1.259259e+00	 1.047995e+01
0	 4.666667e+00	 1.333333e+00	 1.048802e+01
0	 4.666667e+00	 1.407407e+00	 1.049593e+01
0	 4.666667e+00	 1.481481e+00	 1.050376e+01
0	 4.740741e+00	 1.111111e+00	 1.044596e+01
0	 4.740741e+00	 1.185185e+00	 1.045429e+01
0	 4.740741e+00	 1.259259e+00	 1.046232e+01
0	 4.740741e+00	 1.333333e+00	 1.047011e+01
0	 4.740741e+00	 1.407407e+00	 1.047775e+01
0	 4.740741e+00	 1.481481e+00	 1.048531e+01
0	 4.814815e+00	 1.111111e+00	 1.042974e+01
0	 4.814815e+00	 1.185185e+00	 1.043771e+01
0	 4.814815e+00	 1.259259e+00	 1.044539e+01
0	 4.814815e+00	 1.333333e+00	 1.045286e+01
0	 4.814815e+00	 1.407407e+00	 1.046019e+01
0	 4.814815e+00	 1.481481e+00	 1.046745e+01
0	 4.444444e+00	 1.481481e+00	 1.056281e+01
0	 4.444444e+00	 1.555556e+00	 1.057073e+01
0	 4.444444e+00	 1.629630e+00	 1.057778e+01
0	 4.444444e+00	 1.703704e+00	 1.058402e+01
0	 4.444444e+00	 1.777778e+00	 1.058949e+01
0	 4.444444e+00	 1.851852e+00	 1.059424e+01
0	 4.518519e+00	 1.481481e+00	 1.054250e+01
0	 4.518519e+00	 1.555556e+00	 1.055028e+01
0	 4.518519e+00	 1.629630e+00	 1.055719e+01
0	 4.518519e+00	 1.703704e+00	 1.056331e+01
0	 4.518519e+00	 1.777778e+00	 1.056871e+01
0	 4.518519e+00	 1.851852e+00	 1.057345e+01
0	 4.592593e+00	 1.481481e+00	 1.052281e+01
0	 4.592593e+00	 1.555556e+00	 1.053042e+01
0	 4.592593e+00	 1.629630e+00	 1.053720e+01
0	 4.592593e+00	 1.703704e+00	 1.054325e+01
0	 4.592593e+00	 1.777778e+00	 1.054864e+01
0	 4.592593e+00	 1.851852e+00	 1.055348e+01
0	 4.666667e+00	 1.481481e+00	 1.050376e+01
0	 4.666667e+00	 1.555556e+00	 1.051116e+01
0	 4.666667e+00	 1.629630e+00	 1.051781e+01
0	 4.666667e+00	 1.703704e+00	 1.052380e+01
0	 4.666667e+00	 1.777778e+00	 1.052924e+01
0	 4.666667e+00	 1.851852e+00	 1.053422e+01
0	 4.740741e+00	 1.481481e+00	 1.048531e+01
0	 4.740741e+00	 1.555556e+00	 1.049248e+01
0	 4.740741e+00	 1.629630e+00	 1.049901e+01
0	 4.740741e+00	 1.703704e+00	 1.050498e+01
0	 4.740741e+00	 1.777778e+00	 1.051047e+01
0	 4.740741e+00	 1.851852e+00	 1.051560e+01
0	 4.814815e+00	 1.481481e+00	 1.046745e+01
0	 4.814815e+00	 1.555556e+00	 1.047441e+01
0	 4.814815e+00	 1.629630e+00	 1.048081e+01
0	 4.814815e+00	 1.703704e+00	 1.048674e+01
0	 4.814815e+00	 1.777778e+00	 1.049229e+01
0	 4.814815e+00	 1.851852e+00	 1.049752e+01
0	 4.444444e+00	 1.851852e+00	 1.059424e+01
0	 4.444444e+00	 1.925926e+00	 1.059818e+01
0	 4.444444e+00	 2.000000e+00	 1.060126e+01
0	 4.444444e+00	 2.074074e+00	 1.060352e+01
0	 4.444444e+00	 2.148148e+00	 1.060502e+01
0	 4.444444e+00	 2.222222e+00	 1.060583e+01
0	 4.518519e+00	 1.851852e+00	 1.057345e+01
0	 4.518519e+00	 1.925926e+00	 1.057750e+01
0	 4.518519e+00	 2.000000e+00	 1.058079e+01
0	 4.518519e+00	 2.074074e+00	 1.058336e+01
0	 4.518519e+00	 2.148148e+00	 1.058525e+01
0	 4.518519e+00	 2.222222e+00	 1.058651e+01
0	 4.592593e+00	 1.851852e+00	 1.055348e+01
0	 4.592593e+00	 1.925926e+00	 1.055770e+01
0	 4.592593e+00	 2.000000e+00	 1.056121e+01
0	 4.592593e+00	 2.074074e+00	 1.056403e+01
0	 4.592593e+00	 2.148148e+00	 1.056621e+01
0	 4.592593e+00	 2.222222e+00	 1.056776e+01
0	 4.666667e+00	 1.851852e+00	 1.053422e+01
0	 4.666667e+00	 1.925926e+00	 1.053864e+01
0	 4.666667e+00	 2.000000e+00	 1.054236e+01
0	 4.666667e+00	 2.074074e+00	 1.054539e+01
0	 4.666667e+00	 2.148148e+00	 1.054777e+01
0	 4.666667e+00	 2.222222e+00	 1.054951e+01
0	 4.740741e+00	 1.851852e+00	 1.051560e+01
0	 4.740741e+00	 1.925926e+00	 1.052020e+01
0	 4.740741e+00	 2.000000e+00	 1.052409e+01
0	 4.740741e+00	 2.074074e+00	 1.052729e+01
0	 4.740741e+00	 2.148148e+00	 1.052982e+01
0	 4.740741e+00	 2.222222e+00	 1.053170e+01
0	 4.814815e+00	 1.851852e+00	 1.049752e+01
0	 4.814815e+00	 1.925926e+00	 1.050226e+01
0	 4.814815e+00	 2.000000e+00	 1.050627e+01
0	 4.814815e+00	 2.074074e+00	 1.050959e+01
0	 4.814815e+00	 2.148148e+00	 1.051224e+01
0	 4.814815e+00	 2.222222e+00	 1.051425e+01
0	 4.444444e+00	 2.222222e+00	 1.060583e+01
0	 4.444444e+00	 2.296296e+00	 1.060585e+01
0	 4.444444e+00	 2.370370e+00	 1.060495e+01
0	 4.444444e+00	 2.444444e+00	 1.060313e+01
0	 4.444444e+00	 2.518519e+00	 1.060037e+01
0	 4.444444e+00	 2.592593e+00	 1.059666e+01
0	 4.518519e+00	 2.222222e+00	 1.058651e+01
0	 4.518519e+00	 2.296296e+00	 1.058699e+01
0	 4.518519e+00	 2.370370e+00	 1.058656e+01
0	 4.518519e+00	 2.444444e+00	 1.058522e+01
0	 4.518519e+00	 2.518519e+00	 1.058297e+01
0	 4.518519e+00	 2.592593e+00	 1.057981e+01
0	 4.592593e+00	 2.222222e+00	 1.056776e+01
0	 4.592593e+00	 2.296296e+00	 1.056856e+01
0	 4.592593e+00	 2.370370e+00	 1.056849e+01
0	 4.592593e+00	 2.444444e+00	 1.056757e+01
0	 4.592593e+00	 2.518519e+00	 1.056580e+01
0	 4.592593e+00	 2.592593e+00	 1.056321e+01
0	 4.666667e+00	 2.222222e+00	 1.054951e+01
0	 4.666667e+00	 2.296296e+00	 1.055054e+01
0	 4.666667e+00	 2.370370e+00	 1.055076e+01
0	 4.666667e+00	 2.444444e+00	 1.055021e+01
0	 4.666667e+00	 2.518519e+00	 1.054890e+01
0	 4.666667e+00	 2.592593e+00	 1.054686e+01
0	 4.740741e+00	 2.222222e+00	 1.053170e+01
0	 4.740741e+00	 2.296296e+00	 1.053290e+01
0	 4.740741e+00	 2.370370e+00	 1.053338e+01
0	 4.740741e+00	 2.444444e+00	 1.053317e+01
0	 4.740741e+00	 2.518519e+00	 1.053230e+01
0	 4.740741e+00	 2.592593e+00	 1.053077e+01
0	 4.814815e+00	 2.222222e+00	 1.051425e+01
0	 4.814815e+00	 2.296296e+00	 1.051563e+01
0	 4.814815e+00	 2.370370e+00	 1.051637e+01
0	 4.814815e+00	 2.444444e+00	 1.051649e+01
0	 4.814815e+00	 2.518519e+00	 1.051601e+01
0	 4.814815e+00	 2.592593e+00	 1.051496e+01
0	 4.444444e+00	 2.592593e+00	 1.059666e+01
0	 4.444444e+00	 2.666667e+00	 1.059218e+01
0	 4.444444e+00	 2.740741e+00	 1.058710e+01
0	 4.444444e+00	 2.814815e+00	 1.058142e+01
0	 4.444444e+00	 2.888889e+00	 1.057511e+01
0	 4.444444e+00	 2.962963e+00	 1.056816e+01
0	 4.518519e+00	 2.592593e+00	 1.057981e+01
0	 4.518519e+00	 2.666667e+00	 1.057594e+01
0	 4.518519e+00	 2.740741e+00	 1.057152e+01
0	 4.518519e+00	 2.814815e+00	 1.056651e+01
0	 4.518519e+00	 2.888889e+00	 1.056091e+01
0	 4.518519e+00	 2.962963e+00	 1.055469e+01
0	 4.592593e+00	 2.592593e+00	 1.056321e+01
0	 4.592593e+00	 2.666667e+00	 1.055995e+01
0	 4.592593e+00	 2.740741e+00	 1.055614e+01
0	 4.592593e+00	 2.814815e+00	 1.055177e+01
0	 4.592593e+00	 2.888889e+00	 1.054679e+01
0	 4.592593e+00	 2.962963e+00	 1.054120e+01
0	 4.666667e+00	 2.592593e+00	 1.054686e+01
0	 4.666667e+00	 2.666667e+00	 1.054419e+01
0	 4.666667e+00	 2.740741e+00	 1.054097e+01
0	 4.666667e+00	 2.814815e+00	 1.053716e+01
0	 4.666667e+00	 2.888889e+00	 1.053274e+01
0	 4.666667e+00	 2.962963e+00	 1.052770e+01
0	 4.740741e+00	 2.592593e+00	 1.053077e+01
0	 4.740741e+00	 2.666667e+00	 1.052866e+01
0	 4.740741e+00	 2.740741e+00	 1.052596e+01
0	 4.740741e+00	 2.814815e+00	 1.052267e+01
0	 4.740741e+00	 2.888889e+00	 1.051875e+01
0	 4.740741e+00	 2.962963e+00	 1.051421e+01
0	 4.814815e+00	 2.592593e+00	 1.051496e+01
0	 4.814815e+00	 2.666667e+00	 1.051333e+01
0	 4.814815e+00	 2.740741e+00	 1.051110e+01
0	 4.814815e+00	 2.814815e+00	 1.050827e+01
0	 4.814815e+00	 2.888889e+00	 1.050482e+01
0	 4.814815e+00	 2.962963e+00	 1.050073e+01
0	 4.444444e+00	 2.962963e+00	 1.056816e+01
0	 4.444444e+00	 3.037037e+00	 1.056069e+01
0	 4.444444e+00	 3.111111e+00	 1.055277e+01
0	 4.444444e+00	 3.185185e+00	 1.054437e+01
0	 4.444444e+00	 3.259259e+00	 1.053545e+01
0	 4.444444e+00	 3.333333e+00	 1.052597e+01
0	 4.518519e+00	 2.962963e+00	 1.055469e+01
0	 4.518519e+00	 3.037037e+00	 1.054793e+01
0	 4.518519e+00	 3.111111e+00	 1.054070e+01
0	 4.518519e+00	 3.185185e+00	 1.053298e+01
0	 4.518519e+00	 3.259259e+00	 1.052473e+01
0	 4.518519e+00	 3.333333e+00	 1.051593e+01
0	 4.592593e+00	 2.962963e+00	 1.054120e+01
0	 4.592593e+00	 3.037037e+00	 1.053506e+01
0	 4.592593e+00	 3.111111e+00	 1.052845e+01
0	 4.592593e+00	 3.185185e+00	 1.052135e+01
0	 4.592593e+00	 3.259259e+00	 1.051375e+01
0	 4.592593e+00	 3.333333e+00	 1.050562e+01
0	 4.666667e+00	 2.962963e+00	 1.052770e+01
0	 4.666667e+00	 3.037037e+00	 1.052211e+01
0	 4.666667e+00	 3.111111e+00	 1.051607e+01
0	 4.666667e+00	 3.185185e+00	 1.050956e+01
0	 4.666667e+00	 3.259259e+00	 1.050257e+01
0	 4.666667e+00	 3.333333e+00	 1.049509e+01
0	 4.740741e+00	 2.962963e+00	 1.051421e+01
0	 4.740741e+00	 3.037037e+00	 1.050912e+01
0	 4.740741e+00	 3.111111e+00	 1.050361e+01
0	 4.740741e+00	 3.185185e+00	 1.049767e+01
0	 4.740741e+00	 3.259259e+00	 1.049127e+01
0	 4.740741e+00	 3.333333e+00	 1.048440e+01
0	 4.814815e+00	 2.962963e+00	 1.050073e+01
0	 4.814815e+00	 3.037037e+00	 1.049614e+01
0	 4.814815e+00	 3.111111e+00	 1.049114e+01
0	 4.814815e+00	 3.185185e+00	 1.048573e+01
0	 4.814815e+00	 3.259259e+00	 1.047990e+01
0	 4.814815e+00	 3.333333e+00	 1.047361e+01
0	 4.444444e+00	 3.333333e+00	 1.052597e+01
0	 4.444444e+00	 3.407407e+00	 1.051613e+01
0	 4.444444e+00	 3.481481e+00	 1.050612e+01
0	 4.444444e+00	 3.555556e+00	 1.049590e+01
0	 4.444444e+00	 3.629630e+00	 1.048545e+01
0	 4.444444e+00	 3.703704e+00	 1.047475e+01
0	 4.518519e+00	 3.333333e+00	 1.051593e+01
0	 4.518519e+00	 3.407407e+00	 1.050677e+01
0	 4.518519e+00	 3.481481e+00	 1.049743e+01
0	 4.518519e+00	 3.555556e+00	 1.048788e+01
0	 4.518519e+00	 3.629630e+00	 1.047810e+01
0	 4.518519e+00	 3.703704e+00	 1.046803e+01
0	 4.592593e+00	 3.333333e+00	 1.050562e+01
0	 4.592593e+00	 3.407407e+00	 1.049713e+01
0	 4.592593e+00	 3.481481e+00	 1.048845e+01
0	 4.592593e+00	 3.555556e+00	 1.047954e+01
0	 4.592593e+00	 3.629630e+00	 1.047036e+01
0	 4.592593e+00	 3.703704e+00	 1.046089e+01
0	 4.666667e+00	 3.333333e+00	 1.049509e+01
0	 4.666667e+00	 3.407407e+00	 1.048725e+01
0	 4.666667e+00	 3.481481e+00	 1.047920e+01
0	 4.666667e+00	 3.555556e+00	 1.047089e+01
0	 4.666667e+00	 3.629630e+00	 1.046230e+01
0	 4.666667e+00	 3.703704e+00	 1.045338e+01
0	 4.740741e+00	 3.333333e+00	 1.048440e+01
0	 4.740741e+00	 3.407407e+00	 1.047719e+01
0	 4.740741e+00	 3.481481e+00	 1.046973e+01
0	 4.740741e+00	 3.555556e+00	 1.046199e+01
0	 4.740741e+00	 3.629630e+00	 1.045394e+01
0	 4.740741e+00	 3.703704e+00	 1.044555e+01
0	 4.814815e+00	 3.333333e+00	 1.047361e+01
0	 4.814815e+00	 3.407407e+00	 1.046698e+01
0	 4.814815e+00	 3.481481e+00	 1.046007e+01
0	 4.814815e+00	 3.555556e+00	 1.045286e+01
0	 4.814815e+00	 3.629630e+00	 1.044533e+01
0	 4.814815e+00	 3.703704e+00	 1.043744e+01
0	 4.444444e+00	 3.703704e+00	 1.047475e+01
0	 4.444444e+00	 3.777778e+00	 1.046389e+01
0	 4.444444e+00	 3.851852e+00	 1.045300e+01
0	 4.444444e+00	 3.925926e+00	 1.044203e+01
0	 4.444444e+00	 4.000000e+00	 1.043096e+01
0	 4.444444e+00	 4.074074e+00	 1.041976e+01
0	 4.518519e+00	 3.703704e+00	 1.046803e+01
0	 4.518519e+00	 3.777778e+00	 1.045779e+01
0	 4.518519e+00	 3.851852e+00	 1.044748e+01
0	 4.518519e+00	 3.925926e+00	 1.043707e+01
0	 4.518519e+00	 4.000000e+00	 1.042653e+01
0	 4.518519e+00	 4.074074e+00	 1.041584e+01
0	 4.592593e+00	 3.703704e+00	 1.046089e+01
0	 4.592593e+00	 3.777778e+00	 1.045122e+01
0	 4.592593e+00	 3.851852e+00	 1.044146e+01
0	 4.592593e+00	 3.925926e+00	 1.043159e+01
0	 4.592593e+00	 4.000000e+00	 1.042157e+01
0	 4.592593e+00	 4.074074e+00	 1.041139e+01
0	 4.666667e+00	 3.703704e+00	 1.045338e+01
0	 4.666667e+00	 3.777778e+00	 1.044425e+01
0	 4.666667e+00	 3.851852e+00	 1.043501e+01
0	 4.666667e+00	 3.925926e+00	 1.042566e+01
0	 4.666667e+00	 4.000000e+00	 1.041616e+01
0	 4.666667e+00	 4.074074e+00	 1.040649e+01
0	 4.740741e+00	 3.703704e+00	 1.044555e+01
0	 4.740741e+00	 3.777778e+00	 1.043693e+01
0	 4.740741e+00	 3.851852e+00	 1.042820e+01
0	 4.740741e+00	 3.925926e+00	 1.041935e+01
0	 4.740741e+00	 4.000000e+00	 1.041035e+01
0	 4.740741e+00	 4.074074e+00	 1.040118e+01
0	 4.814815e+00	 3.703704e+00	 1.043744e+01
0	 4.814815e+00	 3.777778e+00	 1.042933e+01
0	 4.814815e+00	 3.851852e+00	 1.042110e+01
0	 4.814815e+00	 3.925926e+00	 1.041274e+01
0	 4.814815e+00	 4.000000e+00	 1.040423e+01
0	 4.814815e+00	 4.074074e+00	 1.039554e+01
0	 4.444444e+00	 4.074074e+00	 1.041976e+01
0	 4.444444e+00	 4.148148e+00	 1.040853e+01
0	 4.444444e+00	 4.222222e+00	 1.039742e+01
0	 4.444444e+00	 4.296296e+00	 1.038638e+01
0	 4.444444e+00	 4.370370e+00	 1.037541e+01
0	 4.444444e+00	 4.444444e+00	 1.036448e+01
0	 4.518519e+00	 4.074074e+00	 1.041584e+01
0	 4.518519e+00	 4.148148e+00	 1.040511e+01
0	 4.518519e+00	 4.222222e+00	 1.039448e+01
0	 4.518519e+00	 4.296296e+00	 1.038390e+01
0	 4.518519e+00	 4.370370e+00	 1.037336e+01
0	 4.518519e+00	 4.444444e+00	 1.036284e+01
0	 4.592593e+00	 4.074074e+00	 1.041139e+01
0	 4.592593e+00	 4.148148e+00	 1.040117e+01
0	 4.592593e+00	 4.222222e+00	 1.039101e+01
0	 4.592593e+00	 4.296296e+00	 1.038088e+01
0	 4.592593e+00	 4.370370e+00	 1.037077e+01
0	 4.592593e+00	 4.444444e+00	 1.036065e+01
0	 4.666667e+00	 4.074074e+00	 1.040649e+01
0	 4.666667e+00	 4.148148e+00	 1.039676e+01
0	 4.666667e+00	 4.222222e+00	 1.038706e+01
0	 4.666667e+00	 4.296296e+00	 1.037738e+01
0	 4.666667e+00	 4.370370e+00	 1.036768e+01
0	 4.666667e+00	 4.444444e+00	 1.035795e+01
0	 4.740741e+00	 4.074074e+00	 1.040118e+01
0	 4.740741e+00	 4.148148e+00	 1.039193e+01
0	 4.740741e+00	 4.222222e+00	 1.038270e+01
0	 4.740741e+00	 4.296296e+00	 1.037344e+01
0	 4.740741e+00	 4.370370e+00	 1.036415e+01
0	 4.740741e+00	 4.444444e+00	 1.035480e+01
0	 4.814815e+00	 4.074074e+00	 1.039554e+01
0	 4.814815e+00	 4.148148e+00	 1.038675e+01
0	 4.814815e+00	 4.222222e+00	 1.037795e+01
0	 4.814815e+00	 4.296296e+00	 1.036912e+01
0	 4.814815e+00	 4.370370e+00	 1.036022e+01
0	 4.814815e+00	 4.444444e+00	 1.035125e+01
0	 4.444444e+00	 4.444444e+00	 1.036448e+01
0	 4.444444e+00	 4.518519e+00	 1.035364e+01
0	 4.444444e+00	 4.592593e+00	 1.034297e+01
0	 4.444444e+00	 4.666667e+00	 1.033245e+01
0	 4.444444e+00	 4.740741e+00	 1.032205e+01
0	 4.444444e+00	 4.814815e+00	 1.031176e+01
0	 4.518519e+00	 4.444444e+00	 1.036284e+01
0	 4.518519e+00	 4.518519e+00	 1.035239e+01
0	 4.518519e+00	 4.592593e+00	 1.034208e+01
0	 4.518519e+00	 4.666667e+00	 1.033189e+01
0	 4.518519e+00	 4.740741e+00	 1.032180e+01
0	 4.518519e+00	 4.814815e+00	 1.031180e+01
0	 4.592593e+00	 4.444444e+00	 1.036065e+01
0	 4.592593e+00	 4.518519e+00	 1.035057e+01
0	 4.592593e+00	 4.592593e+00	 1.034061e+01
0	 4.592593e+00	 4.666667e+00	 1.033076e+01
0	 4.592593e+00	 4.740741e+00	 1.032099e+01
0	 4.592593e+00	 4.814815e+00	 1.031128e+01
0	 4.666667e+00	 4.444444e+00	 1.035795e+01
0	 4.666667e+00	 4.518519e+00	 1.034824e+01
0	 4.666667e+00	 4.592593e+00	 1.033864e+01
0	 4.666667e+00	 4.666667e+00	 1.032911e+01
0	 4.666667e+00	 4.740741e+00	 1.031966e+01
0	 4.666667e+00	 4.814815e+00	 1.031027e+01
0	 4.740741e+00	 4.444444e+00	 1.035480e+01
0	 4.740741e+00	 4.518519e+00	 1.034546e+01
0	 4.740741e+00	 4.592593e+00	 1.033620e+01
0	 4.740741e+00	 4.666667e+00	 1.032701e+01
0	 4.740741e+00	 4.740741e+00	 1.031788e+01
0	 4.740741e+00	 4.814815e+00	 1.030879e+01
0	 4.814815e+00	 4.444444e+00	 1.035125e+01
0	 4.814815e+00	 4.518519e+00	 1.034226e+01
0	 4.814815e+00	 4.592593e+00	 1.033336e+01
0	 4.814815e+00	 4.666667e+00	 1.032450e+01
0	 4.814815e+00	 4.740741e+00	 1.031570e+01
0	 4.814815e+00	 4.814815e+00	 1.030691e+01
0	 4.444444e+00	 4.814815e+00	 1.031176e+01
0	 4.444444e+00	 4.888889e+00	 1.030163e+01
0	 4.444444e+00	 4.962963e+00	 1.029171e+01
0	 4.444444e+00	 5.037037e+00	 1.028199e+01
0	 4.444444e+00	 5.111111e+00	 1.027245e+01
0	 4.444444e+00	 5.185185e+00	 1.026310e+01
0	 4.518519e+00	 4.814815e+00	 1.031180e+01
0	 4.518519e+00	 4.888889e+00	 1.030194e+01
0	 4.518519e+00	 4.962963e+00	 1.029227e+01
0	 4.518519e+00	 5.037037e+00	 1.028279e+01
0	 4.518519e+00	 5.111111e+00	 1.027347e+01
0	 4.518519e+00	 5.185185e+00	 1.026431e+01
0	 4.592593e+00	 4.814815e+00	 1.031128e+01
0	 4.592593e+00	 4.888889e+00	 1.030171e+01
0	 4.592593e+00	 4.962963e+00	 1.029230e+01
0	 4.592593e+00	 5.037037e+00	 1.028306e+01
0	 4.592593e+00	 5.111111e+00	 1.027397e+01
0	 4.592593e+00	 5.185185e+00	 1.026501e+01
0	 4.666667e+00	 4.814815e+00	 1.031027e+01
0	 4.666667e+00	 4.888889e+00	 1.030098e+01
0	 4.666667e+00	 4.962963e+00	 1.029184e+01
0	 4.666667e+00	 5.037037e+00	 1.028285e+01
0	 4.666667e+00	 5.111111e+00	 1.027398e+01
0	 4.666667e+00	 5.185185e+00	 1.026523e+01
0	 4.740741e+00	 4.814815e+00	 1.030879e+01
0	 4.740741e+00	 4.888889e+00	 1.029979e+01
0	 4.740741e+00	 4.962963e+00	 1.029093e+01
0	 4.740741e+00	 5.037037e+00	 1.028218e+01
0	 4.740741e+00	 5.111111e+00	 1.027355e+01
0	 4.740741e+00	 5.185185e+00	 1.026501e+01
0	 4.814815e+00	 4.814815e+00	 1.030691e+01
0	 4.814815e+00	 4.888889e+00	 1.029820e+01
0	 4.814815e+00	 4.962963e+00	 1.028960e+01
0	 4.814815e+00	 5.037037e+00	 1.028111e+01
0	 4.814815e+00	 5.111111e+00	 1.027271e+01
0	 4.814815e+00	 5.185185e+00	 1.026438e+01
0	 4.444444e+00	 5.185185e+00	 1.026310e+01
0	 4.444444e+00	 5.259259e+00	 1.025394e+01
0	 4.444444e+00	 5.333333e+00	 1.024500e+01
0	 4.444444e+00	 5.407407e+00	 1.023626e+01
0	 4.444444e+00	 5.481481e+00	 1.022773e+01
0	 4.444444e+00	 5.555556e+00	 1.021939e+01
0	 4.518519e+00	 5.185185e+00	 1.026431e+01
0	 4.518519e+00	 5.259259e+00	 1.025533e+01
0	 4.518519e+00	 5.333333e+00	 1.024654e+01
0	 4.518519e+00	 5.407407e+00	 1.023795e+01
0	 4.518519e+00	 5.481481e+00	 1.022955e+01
0	 4.518519e+00	 5.555556e+00	 1.022132e+01
0	 4.592593e+00	 5.185185e+00	 1.026501e+01
0	 4.592593e+00	 5.259259e+00	 1.025621e+01
0	 4.592593e+00	 5.333333e+00	 1.024759e+01
0	 4.592593e+00	 5.407407e+00	 1.023915e+01
0	 4.592593e+00	 5.481481e+00	 1.023089e+01
0	 4.592593e+00	 5.555556e+00	 1.022278e+01
0	 4.666667e+00	 5.185185e+00	 1.026523e+01
0	 4.666667e+00	 5.259259e+00	 1.025662e+01
0	 4.666667e+00	 5.333333e+00	 1.024818e+01
0	 4.666667e+00	 5.407407e+00	 1.023990e+01
0	 4.666667e+00	 5.481481e+00	 1.023179e+01
0	 4.666667e+00	 5.555556e+00	 1.022382e+01
0	 4.740741e+00	 5.185185e+00	 1.026501e+01
0	 4.740741e+00	 5.259259e+00	 1.025659e+01
0	 4.740741e+00	 5.333333e+00	 1.024834e+01
0	 4.740741e+00	 5.407407e+00	 1.024023e+01
0	 4.740741e+00	 5.481481e+00	 1.023227e+01
0	 4.740741e+00	 5.555556e+00	 1.022445e+01
0	 4.814815e+00	 5.185185e+00	 1.026438e+01
0	 4.814815e+00	 5.259259e+00	 1.025617e+01
0	 4.814815e+00	 5.333333e+00	 1.024811e+01
0	 4.814815e+00	 5.407407e+00	 1.024018e+01
0	 4.814815e+00	 5.481481e+00	 1.023238e+01
0	 4.814815e+00	 5.555556e+00	 1.022471e+01
0	 4.444444e+00	 5.555556e+00	 1.021939e+01
0	 4.444444e+00	 5.629630e+00	 1.021125e+01
0	 4.444444e+00	 5.703704e+00	 1.020333e+01
0	 4.444444e+00	 5.777778e+00	 1.019561e+01
0	 4.444444e+00	 5.851852e+00	 1.018811e+01
0	 4.444444e+00	 5.925926e+00	 1.018080e+01
0	 4.518519e+00	 5.555556e+00	 1.022132e+01
0	 4.518519e+00	 5.629630e+00	 1.021328e+01
0	 4.518519e+00	 5.703704e+00	 1.020544e+01
0	 4.518519e+00	 5.777778e+00	 1.019781e+01
0	 4.518519e+00	 5.851852e+00	 1.019036e+01
0	 4.518519e+00	 5.925926e+00	 1.018311e+01
0	 4.592593e+00	 5.555556e+00	 1.022278e+01
0	 4.592593e+00	 5.629630e+00	 1.021486e+01
0	 4.592593e+00	 5.703704e+00	 1.020712e+01
0	 4.592593e+00	 5.777778e+00	 1.019957e+01
0	 4.592593e+00	 5.851852e+00	 1.019220e+01
0	 4.592593e+00	 5.925926e+00	 1.018501e+01
0	 4.666667e+00	 5.555556e+00	 1.022382e+01
0	 4.666667e+00	 5.629630e+00	 1.021601e+01
0	 4.666667e+00	 5.703704e+00	 1.020839e+01
0	 4.666667e+00	 5.777778e+00	 1.020094e+01
0	 4.666667e+00	 5.851852e+00	 1.019365e+01
0	 4.666667e+00	 5.925926e+00	 1.018653e+01
0	 4.740741e+00	 5.555556e+00	 1.022445e+01
0	 4.740741e+00	 5.629630e+00	 1.021678e+01
0	 4.740741e+00	 5.703704e+00	 1.020927e+01
0	 4.740741e+00	 5.777778e+00	 1.020193e+01
0	 4.740741e+00	 5.851852e+00	 1.019474e+01
0	 4.740741e+00	 5.925926e+00	 1.018770e+01
0	 4.814815e+00	 5.555556e+00	 1.022471e+01
0	 4.814815e+00	 5.629630e+00	 1.021717e+01
0	 4.814815e+00	 5.703704e+00	 1.020979e+01
0	 4.814815e+00	 5.777778e+00	 1.020256e+01
0	 4.814815e+00	 5.851852e+00	 1.019547e+01
0	 4.814815e+00	 5.925926e+00	 1.018852e+01
0	 4.444444e+00	 5.925926e+00	 1.018080e+01
0	 4.444444e+00	 6.000000e+00	 1.017370e+01
0	 4.444444e+00	 6.074074e+00	 1.016679e+01
0	 4.444444e+00	 6.148148e+00	 1.016008e+01
0	 4.444444e+00	 6.222222e+00	 1.015356e+01
0	 4.444444e+00	 6.296296e+00	 1.014723e+01
0	 4.518519e+00	 5.925926e+00	 1.018311e+01
0	 4.518519e+00	 6.000000e+00	 1.017604e+01
0	 4.518519e+00	 6.074074e+00	 1.016916e+01
0	 4.518519e+00	 6.148148e+00	 1.016247e+01
0	 4.518519e+00	 6.222222e+00	 1.015596e+01
0	 4.518519e+00	 6.296296e+00	 1.014963e+01
0	 4.592593e+00	 5.925926e+00	 1.018501e+01
0	 4.592593e+00	 6.000000e+00	 1.017799e+01
0	 4.592593e+00	 6.074074e+00	 1.017116e+01
0	 4.592593e+00	 6.148148e+00	 1.016450e+01
0	 4.592593e+00	 6.222222e+00	 1.015801e+01
0	 4.592593e+00	 6.296296e+00	 1.015170e+01
0	 4.666667e+00	 5.925926e+00	 1.018653e+01
0	 4.666667e+00	 6.000000e+00	 1.017958e+01
0	 4.666667e+00	 6.074074e+00	 1.017279e+01
0	 4.666667e+00	 6.148148e+00	 1.016618e+01
0	 4.666667e+00	 6.222222e+00	 1.015973e+01
0	 4.666667e+00	 6.296296e+00	 1.015344e+01
0	 4.740741e+00	 5.925926e+00	 1.018770e+01
0	 4.740741e+00	 6.000000e+00	 1.018081e+01
0	 4.740741e+00	 6.074074e+00	 1.017409e+01
0	 4.740741e+00	 6.148148e+00	 1.016753e+01
0	 4.740741e+00	 6.222222e+00	 1.016112e+01
0	 4.740741e+00	 6.296296e+00	 1.015487e+01
0	 4.814815e+00	 5.925926e+00	 1.018852e+01
0	 4.814815e+00	 6.000000e+00	 1.018172e+01
0	 4.814815e+00	 6.074074e+00	 1.017507e+01
0	 4.814815e+00	 6.148148e+00	 1.016857e+01
0	 4.814815e+00	 6.222222e+00	 1.016222e+01
0	 4.814815e+00	 6.296296e+00	 1.015601e+01
0	 4.444444e+00	 6.296296e+00	 1.014723e+01
0	 4.444444e+00	 6.370370e+00	 1.014108e+01
0	 4.444444e+00	 6.444444e+00	 1.013511e+01
0	 4.444444e+00	 6.518519e+00	 1.012932e+01
0	 4.444444e+00	 6.592593e+00	 1.012370e+01
0	 4.444444e+00	 6.666667e+00	 1.011826e+01
0	 4.518519e+00	 6.296296e+00	 1.014963e+01
0	 4.518519e+00	 6.370370e+00	 1.014348e+01
0	 4.518519e+00	 6.444444e+00	 1.013750e+01
0	 4.518519e+00	 6.518519e+00	 1.013169e+01
0	 4.518519e+00	 6.592593e+00	 1.012605e+01
0	 4.518519e+00	 6.666667e+00	 1.012058e+01
0	 4.592593e+00	 6.296296e+00	 1.015170e+01
0	 4.592593e+00	 6.370370e+00	 1.014555e+01
0	 4.592593e+00	 6.444444e+00	 1.013958e+01
0	 4.592593e+00	 6.518519e+00	 1.013376e+01
0	 4.592593e+00	 6.592593e+00	 1.012811e+01
0	 4.592593e+00	 6.666667e+00	 1.012262e+01
0	 4.666667e+00	 6.296296e+00	 1.015344e+01
0	 4.666667e+00	 6.370370e+00	 1.014731e+01
0	 4.666667e+00	 6.444444e+00	 1.014134e+01
0	 4.666667e+00	 6.518519e+00	 1.013554e+01
0	 4.666667e+00	 6.592593e+00	 1.012988e+01
0	 4.666667e+00	 6.666667e+00	 1.012438e+01
0	 4.740741e+00	 6.296296e+00	 1.015487e+01
0	 4.740741e+00	 6.370370e+00	 1.014877e+01
0	 4.740741e+00	 6.444444e+00	 1.014283e+01
0	 4.740741e+00	 6.518519e+00	 1.013703e+01
0	 4.740741e+00	 6.592593e+00	 1.013138e+01
0	 4.740741e+00	 6.666667e+00	 1.012588e+01
0	 4.814815e+00	 6.296296e+00	 1.015601e+01
0	 4.814815e+00	 6.370370e+00	 1.014995e+01
0	 4.814815e+00	 6.444444e+00	 1.014403e+01
0	 4.814815e+00	 6.518519e+00	 1.013826e+01
0	 4.814815e+00	 6.592593e+00	 1.013263e+01
0	 4.814815e+00	 6.666667e+00	 1.012714e+01
0	 4.444444e+00	 6.666667e+00	 1.011826e+01
0	 4.444444e+00	 6.740741e+00	 1.011299e+01
0	 4.444444e+00	 6.814815e+00	 1.010787e+01
0	 4.444444e+00	 6.888889e+00	 1.010290e+01
0	 4.444444e+00	 6.962963e+00	 1.009809e+01
0	 4.444444e+00	 7.037037e+00	 1.009344e+01
0	 4.518519e+00	 6.666667e+00	 1.012058e+01
0	 4.518519e+00	 6.740741e+00	 1.011527e+01
0	 4.518519e+00	 6.814815e+00	 1.011011e+01
0	 4.518519e+00	 6.888889e+00	 1.010510e+01
0	 4.518519e+00	 6.962963e+00	 1.010024e+01
0	 4.518519e+00	 7.037037e+00	 1.009553e+01
0	 4.592593e+00	 6.666667e+00	 1.012262e+01
0	 4.592593e+00	 6.740741e+00	 1.011728e+01
0	 4.592593e+00	 6.814815e+00	 1.011209e+01
0	 4.592593e+00	 6.888889e+00	 1.010704e+01
0	 4.592593e+00	 6.962963e+00	 1.010215e+01
0	 4.592593e+00	 7.037037e+00	 1.009739e+01
0	 4.666667e+00	 6.666667e+00	 1.012438e+01
0	 4.666667e+00	 6.740741e+00	 1.011903e+01
0	 4.666667e+00	 6.814815e+00	 1.011382e+01
0	 4.666667e+00	 6.888889e+00	 1.010875e+01
0	 4.666667e+00	 6.962963e+00	 1.010382e+01
0	 4.666667e+00	 7.037037e+00	 1.009904e+01
0	 4.740741e+00	 6.666667e+00	 1.012588e+01
0	 4.740741e+00	 6.740741e+00	 1.012052e+01
0	 4.740741e+00	 6.814815e+00	 1.011531e+01
0	 4.740741e+00	 6.888889e+00	 1.011022e+01
0	 4.740741e+00	 6.962963e+00	 1.010528e+01
0	 4.740741e+00	 7.037037e+00	 1.010047e+01
0	 4.814815e+00	 6.666667e+00	 1.012714e+01
0	 4.814815e+00	 6.740741e+00	 1.012178e+01
0	 4.814815e+00	 6.814815e+00	 1.011656e+01
0	 4.814815e+00	 6.888889e+00	 1.011148e+01
0	 4.814815e+00	 6.962963e+00	 1.010652e+01
0	 4.814815e+00	 7.037037e+00	 1.010170e+01
0	 4.444444e+00	 7.037037e+00	 1.009344e+01
0	 4.444444e+00	 7.111111e+00	 1.008892e+01
0	 4.444444e+00	 7.185185e+00	 1.008455e+01
0	 4.444444e+00	 7.259259e+00	 1.008031e+01
0	 4.444444e+00	 7.333333e+00	 1.007620e+01
0	 4.444444e+00	 7.407407e+00	 1.007223e+01
0	 4.518519e+00	 7.037037e+00	 1.009553e+01
0	 4.518519e+00	 7.111111e+00	 1.009096e+01
0	 4.518519e+00	 7.185185e+00	 1.008653e+01
0	 4.518519e+00	 7.259259e+00	 1.008222e+01
0	 4.518519e+00	 7.333333e+00	 1.007805e+01
0	 4.518519e+00	 7.407407e+00	 1.007401e+01
0	 4.592593e+00	 7.037037e+00	 1.009739e+01
0	 4.592593e+00	 7.111111e+00	 1.009278e+01
0	 4.592593e+00	 7.185185e+00	 1.008830e+01
0	 4.592593e+00	 7.259259e+00	 1.008394e+01
0	 4.592593e+00	 7.333333e+00	 1.007972e+01
0	 4.592593e+00	 7.407407e+00	 1.007562e+01
0	 4.666667e+00	 7.037037e+00	 1.009904e+01
0	 4.666667e+00	 7.111111e+00	 1.009439e+01
0	 4.666667e+00	 7.185185e+00	 1.008987e+01
0	 4.666667e+00	 7.259259e+00	 1.008547e+01
0	 4.666667e+00	 7.333333e+00	 1.008120e+01
0	 4.666667e+00	 7.407407e+00	 1.007706e+01
0	 4.740741e+00	 7.037037e+00	 1.010047e+01
0	 4.740741e+00	 7.111111e+00	 1.009579e+01
0	 4.740741e+00	 7.185185e+00	 1.009124e+01
0	 4.740741e+00	 7.259259e+00	 1.008681e+01
0	 4.740741e+00	 7.333333e+00	 1.008251e+01
0	 4.740741e+00	 7.407407e+00	 1.007832e+01
0	 4.814815e+00	 7.037037e+00	 1.010170e+01
0	 4.814815e+00	 7.111111e+00	 1.009700e+01
0	 4.814815e+00	 7.185185e+00	 1.009243e+01
0	 4.814815e+00	 7.259259e+00	 1.008798e+01
0	 4.814815e+00	 7.333333e+00	 1.008364e+01
0	 4.814815e+00	 7.407407e+00	 1.007943e+01
0	 4.444444e+00	 7.407407e+00	 1.007223e+01
0	 4.444444e+00	 7.481481e+00	 1.006838e+01
0	 4.444444e+00	 7.555556e+00	 1.006465e+01
0	 4.444444e+00	 7.629630e+00	 1.006104e+01
0	 4.444444e+00	 7.703704e+00	 1.005754e+01
0	 4.444444e+00	 7.777778e+00	 1.005416e+01
0	 4.518519e+00	 7.407407e+00	 1.007401e+01
0	 4.518519e+00	 7.481481e+00	 1.007010e+01
0	 4.518519e+00	 7.555556e+00	 1.006630e+01
0	 4.518519e+00	 7.629630e+00	 1.006262e+01
0	 4.518519e+00	 7.703704e+00	 1.005905e+01
0	 4.518519e+00	 7.777778e+00	 1.005560e+01
0	 4.592593e+00	 7.407407e+00	 1.007562e+01
0	 4.592593e+00	 7.481481e+00	 1.007165e+01
0	 4.592593e+00	 7.555556e+00	 1.006779e+01
0	 4.592593e+00	 7.629630e+00	 1.006405e+01
0	 4.592593e+00	 7.703704e+00	 1.006042e+01
0	 4.592593e+00	 7.777778e+00	 1.005691e+01
0	 4.666667e+00	 7.407407e+00	 1.007706e+01
0	 4.666667e+00	 7.481481e+00	 1.007303e+01
0	 4.666667e+00	 7.555556e+00	 1.006913e+01
0	 4.666667e+00	 7.629630e+00	 1.006533e+01
0	 4.666667e+00	 7.703704e+00	 1.006165e+01
0	 4.666667e+00	 7.777778e+00	 1.005808e+01
0	 4.740741e+00	 7.407407e+00	 1.007832e+01
0	 4.740741e+00	 7.481481e+00	 1.007426e+01
0	 4.740741e+00	 7.555556e+00	 1.007031e+01
0	 4.740741e+00	 7.629630e+00	 1.006647e+01
0	 4.740741e+00	 7.703704e+00	 1.006274e+01
0	 4.740741e+00	 7.777778e+00	 1.005912e+01
0	 4.814815e+00	 7.407407e+00	 1.007943e+01
0	 4.814815e+00	 7.481481e+00	 1.007533e+01
0	 4.814815e+00	 7.555556e+00	 1.007134e+01
0	 4.814815e+00	 7.629630e+00	 1.006747e+01
0	 4.814815e+00	 7.703704e+00	 1.006370e+01
0	 4.814815e+00	 7.777778e+00	 1.006004e+01
0	 4.444444e+00	 7.777778e+00	 1.005416e+01
0	 4.444444e+00	 7.851852e+00	 1.005089e+01
0	 4.444444e+00	 7.925926e+00	 1.004773e+01
0	 4.444444e+00	 8.000000e+00	 1.004466e+01
0	 4.444444e+00	 8.074074e+00	 1.004170e+01
0	 4.444444e+00	 8.148148e+00	 1.003884e+01
0	 4.518519e+00	 7.777778e+00	 1.005560e+01
0	 4.518519e+00	 7.851852e+00	 1.005226e+01
0	 4.518519e+00	 7.925926e+00	 1.004902e+01
0	 4.518519e+00	 8.000000e+00	 1.004589e+01
0	 4.518519e+00	 8.074074e+00	 1.004286e+01
0	 4.518519e+00	 8.148148e+00	 1.003993e+01
0	 4.592593e+00	 7.777778e+00	 1.005691e+01
0	 4.592593e+00	 7.851852e+00	 1.005350e+01
0	 4.592593e+00	 7.925926e+00	 1.005020e+01
0	 4.592593e+00	 8.000000e+00	 1.004700e+01
0	 4.592593e+00	 8.074074e+00	 1.004391e+01
0	 4.592593e+00	 8.148148e+00	 1.004091e+01
0	 4.666667e+00	 7.777778e+00	 1.005808e+01
0	 4.666667e+00	 7.851852e+00	 1.005462e+01
0	 4.666667e+00	 7.925926e+00	 1.005126e+01
0	 4.666667e+00	 8.000000e+00	 1.004800e+01
0	 4.666667e+00	 8.074074e+00	 1.004485e+01
0	 4.666667e+00	 8.148148e+00	 1.004180e+01
0	 4.740741e+00	 7.777778e+00	 1.005912e+01
0	 4.740741e+00	 7.851852e+00	 1.005561e+01
0	 4.740741e+00	 7.925926e+00	 1.005220e+01
0	 4.740741e+00	 8.000000e+00	 1.004890e+01
0	 4.740741e+00	 8.074074e+00	 1.004570e+01
0	 4.740741e+00	 8.148148e+00	 1.004260e+01
0	 4.814815e+00	 7.777778e+00	 1.006004e+01
0	 4.814815e+00	 7.851852e+00	 1.005649e+01
0	 4.814815e+00	 7.925926e+00	 1.005304e+01
0	 4.814815e+00	 8.000000e+00	 1.004969e+01
0	 4.814815e+00	 8.074074e+00	 1.004645e+01
0	 4.814815e+00	 8.148148e+00	 1.004330e+01
0	 4.444444e+00	 8.148148e+00	 1.003884e+01
0	 4.444444e+00	 8.222222e+00	 1.003608e+01
0	 4.444444e+00	 8.296296e+00	 1.003342e+01
0	 4.444444e+00	 8.370370e+00	 1.003085e+01
0	 4.444444e+00	 8.444444e+00	 1.002838e+01
0	 4.444444e+00	 8.518519e+00	 1.002599e+01
0	 4.518519e+00	 8.148148e+00	 1.003993e+01
0	 4.518519e+00	 8.222222e+00	 1.003710e+01
0	 4.518519e+00	 8.296296e+00	 1.003436e+01
0	 4.518519e+00	 8.370370e+00	 1.003173e+01
0	 4.518519e+00	 8.444444e+00	 1.002919e+01
0	 4.518519e+00	 8.518519e+00	 1.002673e+01
0	 4.592593e+00	 8.148148e+00	 1.004091e+01
0	 4.592593e+00	 8.222222e+00	 1.003802e+01
0	 4.592593e+00	 8.296296e+00	 1.003522e+01
0	 4.592593e+00	 8.370370e+00	 1.003252e+01
0	 4.592593e+00	 8.444444e+00	 1.002992e+01
0	 4.592593e+00	 8.518519e+00	 1.002741e+01
0	 4.666667e+00	 8.148148e+00	 1.004180e+01
0	 4.666667e+00	 8.222222e+00	 1.003885e+01
0	 4.666667e+00	 8.296296e+00	 1.003600e+01
0	 4.666667e+00	 8.370370e+00	 1.003325e+01
0	 4.666667e+00	 8.444444e+00	 1.003059e+01
0	 4.666667e+00	 8.518519e+00	 1.002802e+01
0	 4.740741e+00	 8.148148e+00	 1.004260e+01
0	 4.740741e+00	 8.222222e+00	 1.003959e+01
0	 4.740741e+00	 8.296296e+00	 1.003669e+01
0	 4.740741e+00	 8.370370e+00	 1.003389e+01
0	 4.740741e+00	 8.444444e+00	 1.003119e+01
0	 4.740741e+00	 8.518519e+00	 1.002857e+01
0	 4.814815e+00	 8.148148e+00	 1.004330e+01
0	 4.814815e+00	 8.222222e+00	 1.004025e+01
0	 4.814815e+00	 8.296296e+00	 1.003731e+01
0	 4.814815e+00	 8.370370e+00	 1.003446e+01
0	 4.814815e+00	 8.444444e+00	 1.003172e+01
0	 4.814815e+00	 8.518519e+00	 1.002906e+01
0	 4.444444e+00	 8.518519e+00	 1.002599e+01
0	 4.444444e+00	 8.592593e+00	 1.002370e+01
0	 4.444444e+00	 8.666667e+00	 1.002151e+01
0	 4.444444e+00	 8.740741e+00	 1.001941e+01
0	 4.444444e+00	 8.814815e+00	 1.001740e+01
0	 4.444444e+00	 8.888889e+00	 1.001548e+01
0	 4.518519e+00	 8.518519e+00	 1.002673e+01
0	 4.518519e+00	 8.592593e+00	 1.002438e+01
0	 4.518519e+00	 8.666667e+00	 1.002213e+01
0	 4.518519e+00	 8.740741e+00	 1.001997e+01
0	 4.518519e+00	 8.814815e+00	 1.001790e+01
0	 4.518519e+00	 8.888889e+00	 1.001592e+01
0	 4.592593e+00	 8.518519e+00	 1.002741e+01
0	 4.592593e+00	 8.592593e+00	 1.002500e+01
0	 4.592593e+00	 8.666667e+00	 1.002269e+01
0	 4.592593e+00	 8.740741e+00	 1.002048e+01
0	 4.592593e+00	 8.814815e+00	 1.001836e+01
0	 4.592593e+00	 8.888889e+00	 1.001633e+01
0	 4.666667e+00	 8.518519e+00	 1.002802e+01
0	 4.666667e+00	 8.592593e+00	 1.002556e+01
0	 4.666667e+00	 8.666667e+00	 1.002320e+01
0	 4.666667e+00	 8.740741e+00	 1.002094e+01
0	 4.666667e+00	 8.814815e+00	 1.001877e+01
0	 4.666667e+00	 8.888889e+00	 1.001670e+01
0	 4.740741e+00	 8.518519e+00	 1.002857e+01
0	 4.740741e+00	 8.592593e+00	 1.002606e+01
0	 4.740741e+00	 8.666667e+00	 1.002366e+01
0	 4.740741e+00	 8.740741e+00	 1.002135e+01
0	 4.740741e+00	 8.814815e+00	 1.001914e+01
0	 4.740741e+00	 8.888889e+00	 1.001703e+01
0	 4.814815e+00	 8.518519e+00	 1.002906e+01
0	 4.814815e+00	 8.592593e+00	 1.002651e+01
0	 4.814815e+00	 8.666667e+00	 1.002406e+01
0	 4.814815e+00	 8.740741e+00	 1.002172e+01
0	 4.814815e+00	 8.814815e+00	 1.001947e+01
0	 4.814815e+00	 8.888889e+00	 1.001732e+01
0	 4.444444e+00	 8.888889e+00	 1.001548e+01
0	 4.444444e+00	 8.962963e+00	 1.001366e+01
0	 4.444444e+00	 9.037037e+00	 1.001194e+01
0	 4.444444e+00	 9.111111e+00	 1.001032e+01
0	 4.444444e+00	 9.185185e+00	 1.000880e+01
0	 4.444444e+00	 9.259259e+00	 1.000737e+01
0	 4.518519e+00	 8.888889e+00	 1.001592e+01
0	 4.518519e+00	 8.962963e+00	 1.001405e+01
0	 4.518519e+00	 9.037037e+00	 1.001228e+01
0	 4.518519e+00	 9.111111e+00	 1.001062e+01
0	 4.518519e+00	 9.185185e+00	 1.000905e+01
0	 4.518519e+00	 9.259259e+00	 1.000758e+01
0	 4.592593e+00	 8.888889e+00	 1.001633e+01
0	 4.592593e+00	 8.962963e+00	 1.001440e+01
0	 4.592593e+00	 9.037037e+00	 1.001259e+01
0	 4.592593e+00	 9.111111e+00	 1.001088e+01
0	 4.592593e+00	 9.185185e+00	 1.000928e+01
0	 4.592593e+00	 9.259259e+00	 1.000777e+01
0	 4.666667e+00	 8.888889e+00	 1.001670e+01
0	 4.666667e+00	 8.962963e+00	 1.001473e+01
0	 4.666667e+00	 9.037037e+00	 1.001287e+01
0	 4.666667e+00	 9.111111e+00	 1.001113e+01
0	 4.666667e+00	 9.185185e+00	 1.000949e+01
0	 4.666667e+00	 9.259259e+00	 1.000794e+01
0	 4.740741e+00	 8.888889e+00	 1.001703e+01
0	 4.740741e+00	 8.962963e+00	 1.001502e+01
0	 4.740741e+00	 9.037037e+00	 1.001313e+01
0	 4.740741e+00	 9.111111e+00	 1.001135e+01
0	 4.740741e+00	 9.185185e+00	 1.000967e+01
0	 4.740741e+00	 9.259259e+00	 1.000810e+01
0	 4.814815e+00	 8.888889e+00	 1.001732e+01
0	 4.814815e+00	 8.962963e+00	 1.001527e+01
0	 4.814815e+00	 9.037037e+00	 1.001335e+01
0	 4.814815e+00	 9.111111e+00	 1.001154e+01
0	 4.814815e+00	 9.185185e+00	 1.000984e+01
0	 4.814815e+00	 9.259259e+00	 1.000823e+01
0	 4.444444e+00	 9.259259e+00	 1.000737e+01
0	 4.444444e+00	 9.333333e+00	 1.000606e+01
0	 4.444444e+00	 9.407407e+00	 1.000487e+01
0	 4.444444e+00	 9.481481e+00	 1.000380e+01
0	 4.444444e+00	 9.555556e+00	 1.000285e+01
0	 4.444444e+00	 9.629630e+00	 1.000200e+01
0	 4.518519e+00	 9.259259e+00	 1.000758e+01
0	 4.518519e+00	 9.333333e+00	 1.000622e+01
0	 4.518519e+00	 9.407407e+00	 1.000500e+01
0	 4.518519e+00	 9.481481e+00	 1.000390e+01
0	 4.518519e+00	 9.555556e+00	 1.000292e+01
0	 4.518519e+00	 9.629630e+00	 1.000205e+01
0	 4.592593e+00	 9.259259e+00	 1.000777e+01
0	 4.592593e+00	 9.333333e+00	 1.000638e+01
0	 4.592593e+00	 9.407407e+00	 1.000513e+01
0	 4.592593e+00	 9.481481e+00	 1.000400e+01
0	 4.592593e+00	 9.555556e+00	 1.000300e+01
0	 4.592593e+00	 9.629630e+00	 1.000210e+01
0	 4.666667e+00	 9.259259e+00	 1.000794e+01
0	 4.666667e+00	 9.333333e+00	 1.000652e+01
0	 4.666667e+00	 9.407407e+00	 1.000524e+01
0	 4.666667e+00	 9.481481e+00	 1.000409e+01
0	 4.666667e+00	 9.555556e+00	 1.000306e+01
0	 4.666667e+00	 9.629630e+00	 1.000215e+01
0	 4.740741e+00	 9.259259e+00	 1.000810e+01
0	 4.740741e+00	 9.333333e+00	 1.000665e+01
0	 4.740741e+00	 9.407407e+00	 1.000534e+01
0	 4.740741e+00	 9.481481e+00	 1.000417e+01
0	 4.740741e+00	 9.555556e+00	 1.000312e+01
0	 4.740741e+00	 9.629630e+00	 1.000219e+01
0	 4.814815e+00	 9.259259e+00	 1.000823e+01
0	 4.814815e+00	 9.333333e+00	 1.000676e+01
0	 4.814815e+00	 9.407407e+00	 1.000543e+01
0	 4.814815e+00	 9.481481e+00	 1.000423e+01
0	 4.814815e+00	 9.555556e+00	 1.000317e+01
0	 4.814815e+00	 9.629630e+00	 1.000223e+01
0	 4.444444e+00	 9.629630e+00	 1.000200e+01
0	 4.444444e+00	 9.703704e+00	 1.000129e+01
0	 4.444444e+00	 9.777778e+00	 1.000074e+01
0	 4.444444e+00	 9.851852e+00	 1.000035e+01
0	 4.444444e+00	 9.925926e+00	 1.000010e+01
0	 4.444444e+00	 1.000000e+01	 9.999973e+00
0	 4.518519e+00	 9.629630e+00	 1.000205e+01
0	 4.518519e+00	 9.703704e+00	 1.000132e+01
0	 4.518519e+00	 9.777778e+00	 1.000076e+01
0	 4.518519e+00	 9.851852e+00	 1.000036e+01
0	 4.518519e+00	 9.925926e+00	 1.000010e+01
0	 4.518519e+00	 1.000000e+01	 9.999970e+00
0	 4.592593e+00	 9.629630e+00	 1.000210e+01
0	 4.592593e+00	 9.703704e+00	 1.000136e+01
0	 4.592593e+00	 9.777778e+00	 1.000078e+01
0	 4.592593e+00	 9.851852e+00	 1.000036e+01
0	 4.592593e+00	 9.925926e+00	 1.000010e+01
0	 4.592593e+00	 1.000000e+01	 9.999971e+00
0	 4.666667e+00	 9.629630e+00	 1.000215e+01
0	 4.666667e+00	 9.703704e+00	 1.000139e+01
0	 4.666667e+00	 9.777778e+00	 1.000080e+01
0	 4.666667e+00	 9.851852e+00	 1.000037e+01
0	 4.666667e+00	 9.925926e+00	 1.000010e+01
0	 4.666667e+00	 1.000000e+01	 9.999972e+00
0	 4.740741e+00	 9.629630e+00	 1.000219e+01
0	 4.740741e+00	 9.703704e+00	 1.000141e+01
0	 4.740741e+00	 9.777778e+00	 1.000081e+01
0	 4.740741e+00	 9.851852e+00	 1.000038e+01
0	 4.740741e+00	 9.925926e+00	 1.000010e+01
0	 4.740741e+00	 1.000000e+01	 9.999974e+00
0	 4.814815e+00	 9.629630e+00	 1.000223e+01
0	 4.814815e+00	 9.703704e+00	 1.000143e+01
0	 4.814815e+00	 9.777778e+00	 1.000082e+01
0	 4.814815e+00	 9.851852e+00	 1.000039e+01
0	 4.814815e+00	 9.925926e+00	 1.000011e+01
0	 4.814815e+00	 1.000000e+01	 9.999973e+00
0	 4.814815e+00	 0.000000e+00	 1.035863e+01
0	 4.814815e+00	 7.407407e-02	 1.035813e+01
0	 4.814815e+00	 1.481481e-01	 1.035862e+01
0	 4.814815e+00	 2.222222e-01	 1.036013e+01
0	 4.814815e+00	 2.962963e-01	 1.036266e+01
0	 4.814815e+00	 3.703704e-01	 1.036621e+01
0	 4.888889e+00	 0.000000e+00	 1.034703e+01
0	 4.888889e+00	 7.407407e-02	 1.034645e+01
0	 4.888889e+00	 1.481481e-01	 1.034682e+01
0	 4.888889e+00	 2.222222e-01	 1.034817e+01
0	 4.888889e+00	 2.962963e-01	 1.035052e+01
0	 4.888889e+00	 3.703704e-01	 1.035389e+01
0	 4.962963e+00	 0.000000e+00	 1.033493e+01
0	 4.962963e+00	 7.407407e-02	 1.033461e+01
0	 4.962963e+00	 1.481481e-01	 1.033512e+01
0	 4.962963e+00	 2.222222e-01	 1.033649e+01
0	 4.962963e+00	 2.962963e-01	 1.033876e+01
0	 4.962963e+00	 3.703704e-01	 1.034197e+01
0	 5.037037e+00	 0.000000e+00	 1.032272e+01
0	 5.037037e+00	 7.407407e-02	 1.032282e+01
0	 5.037037e+00	 1.481481e-01	 1.032360e+01
0	 5.037037e+00	 2.222222e-01	 1.032509e+01
0	 5.037037e+00	 2.962963e-01	 1.032734e+01
0	 5.037037e+00	 3.703704e-01	 1.033040e+01
0	 5.111111e+00	 0.000000e+00	 1.031080e+01
0	 5.111111e+00	 7.407407e-02	 1.031130e+01
0	 5.111111e+00	 1.481481e-01	 1.031234e+01
0	 5.111111e+00	 2.222222e-01	 1.031397e+01
0	 5.111111e+00	 2.962963e-01	 1.031621e+01
0	 5.111111e+00	 3.703704e-01	 1.031910e+01
0	 5.185185e+00	 0.000000e+00	 1.029955e+01
0	 5.185185e+00	 7.407407e-02	 1.030027e+01
0	 5.185185e+00	 1.481481e-01	 1.030145e+01
0	 5.185185e+00	 2.222222e-01	 1.030312e+01
0	 5.185185e+00	 2.962963e-01	 1.030530e+01
0	 5.185185e+00	 3.703704e-01	 1.030803e+01
0	 4.814815e+00	 3.703704e-01	 1.036621e+01
0	 4.814815e+00	 4.444444e-01	 1.037049e+01
0	 4.814815e+00	 5.185185e-01	 1.037523e+01
0	 4.814815e+00	 5.925926e-01	 1.038051e+01
0	 4.814815e+00	 6.666667e-01	 1.038640e+01
0	 4.814815e+00	 7.407407e-01	 1.039297e+01
0	 4.888889e+00	 3.703704e-01	 1.035389e+01
0	 4.888889e+00	 4.444444e-01	 1.035798e+01
0	 4.888889e+00	 5.185185e-01	 1.036251e+01
0	 4.888889e+00	 5.925926e-01	 1.036753e+01
0	 4.888889e+00	 6.666667e-01	 1.037312e+01
0	 4.888889e+00	 7.407407e-01	 1.037934e+01
0	 4.962963e+00	 3.703704e-01	 1.034197e+01
0	 4.962963e+00	 4.444444e-01	 1.034585e+01
0	 4.962963e+00	 5.185185e-01	 1.035015e+01
0	 4.962963e+00	 5.925926e-01	 1.035493e+01
0	 4.962963e+00	 6.666667e-01	 1.036024e+01
0	 4.962963e+00	 7.407407e-01	 1.036615e+01
0	 5.037037e+00	 3.703704e-01	 1.033040e+01
0	 5.037037e+00	 4.444444e-01	 1.033405e+01
0	 5.037037e+00	 5.185185e-01	 1.033812e+01
0	 5.037037e+00	 5.925926e-01	 1.034265e+01
0	 5.037037e+00	 6.666667e-01	 1.034770e+01
0	 5.037037e+00	 7.407407e-01	 1.035332e+01
0	 5.111111e+00	 3.703704e-01	 1.031910e+01
0	 5.111111e+00	 4.444444e-01	 1.032253e+01
0	 5.111111e+00	 5.185185e-01	 1.032636e+01
0	 5.111111e+00	 5.925926e-01	 1.033066e+01
0	 5.111111e+00	 6.666667e-01	 1.033545e+01
0	 5.111111e+00	 7.407407e-01	 1.034080e+01
0	 5.185185e+00	 3.703704e-01	 1.030803e+01
0	 5.185185e+00	 4.444444e-01	 1.031122e+01
0	 5.185185e+00	 5.185185e-01	 1.031483e+01
0	 5.185185e+00	 5.925926e-01	 1.031889e+01
0	 5.185185e+00	 6.666667e-01	 1.032345e+01
0	 5.185185e+00	 7.407407e-01	 1.032854e+01
0	 4.814815e+00	 7.407407e-01	 1.039297e+01
0	 4.814815e+00	 8.148148e-01	 1.039993e+01
0	 4.814815e+00	 8.888889e-01	 1.040700e+01
0	 4.814815e+00	 9.629630e-01	 1.041427e+01
0	 4.814815e+00	 1.037037e+00	 1.042182e+01
0	 4.814815e+00	 1.111111e+00	 1.042974e+01
0	 4.888889e+00	 7.407407e-01	 1.037934e+01
0	 4.888889e+00	 8.148148e-01	 1.038593e+01
0	 4.888889e+00	 8.888889e-01	 1.039263e+01
0	 4.888889e+00	 9.629630e-01	 1.039953e+01
0	 4.888889e+00	 1.037037e+00	 1.040671e+01
0	 4.888889e+00	 1.111111e+00	 1.041425e+01
0	 4.962963e+00	 7.407407e-01	 1.036615e+01
0	 4.962963e+00	 8.148148e-01	 1.037240e+01
0	 4.962963e+00	 8.888889e-01	 1.037877e+01
0	 4.962963e+00	 9.629630e-01	 1.038534e+01
0	 4.962963e+00	 1.037037e+00	 1.039218e+01
0	 4.962963e+00	 1.111111e+00	 1.039936e+01
0	 5.037037e+00	 7.407407e-01	 1.035332e+01
0	 5.037037e+00	 8.148148e-01	 1.035927e+01
0	 5.037037e+00	 8.888889e-01	 1.036535e+01
0	 5.037037e+00	 9.629630e-01	 1.037161e+01
0	 5.037037e+00	 1.037037e+00	 1.037813e+01
0	 5.037037e+00	 1.111111e+00	 1.038498e+01
0	 5.111111e+00	 7.407407e-01	 1.034080e+01
0	 5.111111e+00	 8.148148e-01	 1.034648e+01
0	 5.111111e+00	 8.888889e-01	 1.035228e+01
0	 5.111111e+00	 9.629630e-01	 1.035826e+01
0	 5.111111e+00	 1.037037e+00	 1.036450e+01
0	 5.111111e+00	 1.111111e+00	 1.037105e+01
0	 5.185185e+00	 7.407407e-01	 1.032854e+01
0	 5.185185e+00	 8.148148e-01	 1.033395e+01
0	 5.185185e+00	 8.888889e-01	 1.033949e+01
0	 5.185185e+00	 9.629630e-01	 1.034522e+01
0	 5.185185e+00	 1.037037e+00	 1.035119e+01
0	 5.185185e+00	 1.111111e+00	 1.035746e+01
0	 4.814815e+00	 1.111111e+00	 1.042974e+01
0	 4.814815e+00	 1.185185e+00	 1.043771e+01
0	 4.814815e+00	 1.259259e+00	 1.044539e+01
0	 4.814815e+00	 1.333333e+00	 1.045286e+01
0	 4.814815e+00	 1.407407e+00	 1.046019e+01
0	 4.814815e+00	 1.481481e+00	 1.046745e+01
0	 4.888889e+00	 1.111111e+00	 1.041425e+01
0	 4.888889e+00	 1.185185e+00	 1.042183e+01
0	 4.888889e+00	 1.259259e+00	 1.042916e+01
0	 4.888889e+00	 1.333333e+00	 1.043629e+01
0	 4.888889e+00	 1.407407e+00	 1.044332e+01
0	 4.888889e+00	 1.481481e+00	 1.045031e+01
0	 4.962963e+00	 1.111111e+00	 1.039936e+01
0	 4.962963e+00	 1.185185e+00	 1.040659e+01
0	 4.962963e+00	 1.259259e+00	 1.041359e+01
0	 4.962963e+00	 1.333333e+00	 1.042042e+01
0	 4.962963e+00	 1.407407e+00	 1.042718e+01
0	 4.962963e+00	 1.481481e+00	 1.043394e+01
0	 5.037037e+00	 1.111111e+00	 1.038498e+01
0	 5.037037e+00	 1.185185e+00	 1.039189e+01
0	 5.037037e+00	 1.259259e+00	 1.039860e+01
0	 5.037037e+00	 1.333333e+00	 1.040517e+01
0	 5.037037e+00	 1.407407e+00	 1.041169e+01
0	 5.037037e+00	 1.481481e+00	 1.041824e+01
0	 5.111111e+00	 1.111111e+00	 1.037105e+01
0	 5.111111e+00	 1.185185e+00	 1.037766e+01
0	 5.111111e+00	 1.259259e+00	 1.038410e+01
0	 5.111111e+00	 1.333333e+00	 1.039044e+01
0	 5.111111e+00	 1.407407e+00	 1.039675e+01
0	 5.111111e+00	 1.481481e+00	 1.040310e+01
0	 5.185185e+00	 1.111111e+00	 1.035746e+01
0	 5.185185e+00	 1.185185e+00	 1.036382e+01
0	 5.185185e+00	 1.259259e+00	 1.037002e+01
0	 5.185185e+00	 1.333333e+00	 1.037615e+01
0	 5.185185e+00	 1.407407e+00	 1.038227e+01
0	 5.185185e+00	 1.481481e+00	 1.038843e+01
0	 4.814815e+00	 1.481481e+00	 1.046745e+01
0	 4.814815e+00	 1.555556e+00	 1.047441e+01
0	 4.814815e+00	 1.629630e+00	 1.048081e+01
0	 4.814815e+00	 1.703704e+00	 1.048674e+01
0	 4.814815e+00	 1.777778e+00	 1.049229e+01
0	 4.814815e+00	 1.851852e+00	 1.049752e+01
0	 4.888889e+00	 1.481481e+00	 1.045031e+01
0	 4.888889e+00	 1.555556e+00	 1.045706e+01
0	 4.888889e+00	 1.629630e+00	 1.046333e+01
0	 4.888889e+00	 1.703704e+00	 1.046921e+01
0	 4.888889e+00	 1.777778e+00	 1.047474e+01
0	 4.888889e+00	 1.851852e+00	 1.048000e+01
0	 4.962963e+00	 1.481481e+00	 1.043394e+01
0	 4.962963e+00	 1.555556e+00	 1.044049e+01
0	 4.962963e+00	 1.629630e+00	 1.044663e+01
0	 4.962963e+00	 1.703704e+00	 1.045240e+01
0	 4.962963e+00	 1.777778e+00	 1.045786e+01
0	 4.962963e+00	 1.851852e+00	 1.046306e+01
0	 5.037037e+00	 1.481481e+00	 1.041824e+01
0	 5.037037e+00	 1.555556e+00	 1.042461e+01
0	 5.037037e+00	 1.629630e+00	 1.043059e+01
0	 5.037037e+00	 1.703704e+00	 1.043623e+01
0	 5.037037e+00	 1.777778e+00	 1.044157e+01
0	 5.037037e+00	 1.851852e+00	 1.044665e+01
0	 5.111111e+00	 1.481481e+00	 1.040310e+01
0	 5.111111e+00	 1.555556e+00	 1.040930e+01
0	 5.111111e+00	 1.629630e+00	 1.041512e+01
0	 5.111111e+00	 1.703704e+00	 1.042060e+01
0	 5.111111e+00	 1.777778e+00	 1.042580e+01
0	 5.111111e+00	 1.851852e+00	 1.043075e+01
0	 5.185185e+00	 1.481481e+00	 1.038843e+01
0	 5.185185e+00	 1.555556e+00	 1.039445e+01
0	 5.185185e+00	 1.629630e+00	 1.040010e+01
0	 5.185185e+00	 1.703704e+00	 1.040543e+01
0	 5.185185e+00	 1.777778e+00	 1.041048e+01
0	 5.185185e+00	 1.851852e+00	 1.041529e+01
0	 4.814815e+00	 1.851852e+00	 1.049752e+01
0	 4.814815e+00	 1.925926e+00	 1.050226e+01
0	 4.814815e+00	 2.000000e+00	 1.050627e+01
0	 4.814815e+00	 2.074074e+00	 1.050959e+01
0	 4.814815e+00	 2.148148e+00	 1.051224e+01
0	 4.814815e+00	 2.222222e+00	 1.051425e+01
0	 4.888889e+00	 1.851852e+00	 1.048000e+01
0	 4.888889e+00	 1.925926e+00	 1.048478e+01
0	 4.888889e+00	 2.000000e+00	 1.048885e+01
0	 4.888889e+00	 2.074074e+00	 1.049226e+01
0	 4.888889e+00	 2.148148e+00	 1.049502e+01
0	 4.888889e+00	 2.222222e+00	 1.049719e+01
0	 4.962963e+00	 1.851852e+00	 1.046306e+01
0	 4.962963e+00	 1.925926e+00	 1.046780e+01
0	 4.962963e+00	 2.000000e+00	 1.047189e+01
0	 4.962963e+00	 2.074074e+00	 1.047536e+01
0	 4.962963e+00	 2.148148e+00	 1.047825e+01
0	 4.962963e+00	 2.222222e+00	 1.048060e+01
0	 5.037037e+00	 1.851852e+00	 1.044665e+01
0	 5.037037e+00	 1.925926e+00	 1.045132e+01
0	 5.037037e+00	 2.000000e+00	 1.045539e+01
0	 5.037037e+00	 2.074074e+00	 1.045890e+01
0	 5.037037e+00	 2.148148e+00	 1.046191e+01
0	 5.037037e+00	 2.222222e+00	 1.046444e+01
0	 5.111111e+00	 1.851852e+00	 1.043075e+01
0	 5.111111e+00	 1.925926e+00	 1.043531e+01
0	 5.111111e+00	 2.000000e+00	 1.043935e+01
0	 5.111111e+00	 2.074074e+00	 1.044290e+01
0	 5.111111e+00	 2.148148e+00	 1.044600e+01
0	 5.111111e+00	 2.222222e+00	 1.044870e+01
0	 5.185185e+00	 1.851852e+00	 1.041529e+01
0	 5.185185e+00	 1.925926e+00	 1.041976e+01
0	 5.185185e+00	 2.000000e+00	 1.042376e+01
0	 5.185185e+00	 2.074074e+00	 1.042734e+01
0	 5.185185e+00	 2.148148e+00	 1.043053e+01
0	 5.185185e+00	 2.222222e+00	 1.043337e+01
0	 4.814815e+00	 2.222222e+00	 1.051425e+01
0	 4.814815e+00	 2.296296e+00	 1.051563e+01
0	 4.814815e+00	 2.370370e+00	 1.051637e+01
0	 4.814815e+00	 2.444444e+00	 1.051649e+01
0	 4.814815e+00	 2.518519e+00	 1.051601e+01
0	 4.814815e+00	 2.592593e+00	 1.051496e+01
0	 4.888889e+00	 2.222222e+00	 1.049719e+01
0	 4.888889e+00	 2.296296e+00	 1.049878e+01
0	 4.888889e+00	 2.370370e+00	 1.049979e+01
0	 4.888889e+00	 2.444444e+00	 1.050022e+01
0	 4.888889e+00	 2.518519e+00	 1.050010e+01
0	 4.888889e+00	 2.592593e+00	 1.049944e+01
0	 4.962963e+00	 2.222222e+00	 1.048060e+01
0	 4.962963e+00	 2.296296e+00	 1.048241e+01
0	 4.962963e+00	 2.370370e+00	 1.048367e+01
0	 4.962963e+00	 2.444444e+00	 1.048439e+01
0	 4.962963e+00	 2.518519e+00	 1.048456e+01
0	 4.962963e+00	 2.592593e+00	 1.048421e+01
0	 5.037037e+00	 2.222222e+00	 1.046444e+01
0	 5.037037e+00	 2.296296e+00	 1.046648e+01
0	 5.037037e+00	 2.370370e+00	 1.046798e+01
0	 5.037037e+00	 2.444444e+00	 1.046893e+01
0	 5.037037e+00	 2.518519e+00	 1.046936e+01
0	 5.037037e+00	 2.592593e+00	 1.046926e+01
0	 5.111111e+00	 2.222222e+00	 1.044870e+01
0	 5.111111e+00	 2.296296e+00	 1.045095e+01
0	 5.111111e+00	 2.370370e+00	 1.045264e+01
0	 5.111111e+00	 2.444444e+00	 1.045381e+01
0	 5.111111e+00	 2.518519e+00	 1.045445e+01
0	 5.111111e+00	 2.592593e+00	 1.045457e+01
0	 5.185185e+00	 2.222222e+00	 1.043337e+01
0	 5.185185e+00	 2.296296e+00	 1.043577e+01
0	 5.185185e+00	 2.370370e+00	 1.043763e+01
0	 5.185185e+00	 2.444444e+00	 1.043897e+01
0	 5.185185e+00	 2.518519e+00	 1.043980e+01
0	 5.185185e+00	 2.592593e+00	 1.044012e+01
0	 4.814815e+00	 2.592593e+00	 1.051496e+01
0	 4.814815e+00	 2.666667e+00	 1.051333e+01
0	 4.814815e+00	 2.740741e+00	 1.051110e+01
0	 4.814815e+00	 2.814815e+00	 1.050827e+01
0	 4.814815e+00	 2.888889e+00	 1.050482e+01
0	 4.814815e+00	 2.962963e+00	 1.050073e+01
0	 4.888889e+00	 2.592593e+00	 1.049944e+01
0	 4.888889e+00	 2.666667e+00	 1.049821e+01
0	 4.888889e+00	 2.740741e+00	 1.049639e+01
0	 4.888889e+00	 2.814815e+00	 1.049397e+01
0	 4.888889e+00	 2.888889e+00	 1.049095e+01
0	 4.888889e+00	 2.962963e+00	 1.048732e+01
0	 4.962963e+00	 2.592593e+00	 1.048421e+01
0	 4.962963e+00	 2.666667e+00	 1.048331e+01
0	 4.962963e+00	 2.740741e+00	 1.048184e+01
0	 4.962963e+00	 2.814815e+00	 1.047980e+01
0	 4.962963e+00	 2.888889e+00	 1.047719e+01
0	 4.962963e+00	 2.962963e+00	 1.047401e+01
0	 5.037037e+00	 2.592593e+00	 1.046926e+01
0	 5.037037e+00	 2.666667e+00	 1.046864e+01
0	 5.037037e+00	 2.740741e+00	 1.046748e+01
0	 5.037037e+00	 2.814815e+00	 1.046578e+01
0	 5.037037e+00	 2.888889e+00	 1.046355e+01
0	 5.037037e+00	 2.962963e+00	 1.046080e+01
0	 5.111111e+00	 2.592593e+00	 1.045457e+01
0	 5.111111e+00	 2.666667e+00	 1.045419e+01
0	 5.111111e+00	 2.740741e+00	 1.045331e+01
0	 5.111111e+00	 2.814815e+00	 1.045193e+01
0	 5.111111e+00	 2.888889e+00	 1.045006e+01
0	 5.111111e+00	 2.962963e+00	 1.044771e+01
0	 5.185185e+00	 2.592593e+00	 1.044012e+01
0	 5.185185e+00	 2.666667e+00	 1.043997e+01
0	 5.185185e+00	 2.740741e+00	 1.043935e+01
0	 5.185185e+00	 2.814815e+00	 1.043827e+01
0	 5.185185e+00	 2.888889e+00	 1.043674e+01
0	 5.185185e+00	 2.962963e+00	 1.043476e+01
0	 4.814815e+00	 2.962963e+00	 1.050073e+01
0	 4.814815e+00	 3.037037e+00	 1.049614e+01
0	 4.814815e+00	 3.111111e+00	 1.049114e+01
0	 4.814815e+00	 3.185185e+00	 1.048573e+01
0	 4.814815e+00	 3.259259e+00	 1.047990e+01
0	 4.814815e+00	 3.333333e+00	 1.047361e+01
0	 4.888889e+00	 2.962963e+00	 1.048732e+01
0	 4.888889e+00	 3.037037e+00	 1.048321e+01
0	 4.888889e+00	 3.111111e+00	 1.047871e+01
0	 4.888889e+00	 3.185185e+00	 1.047381e+01
0	 4.888889e+00	 3.259259e+00	 1.046850e+01
0	 4.888889e+00	 3.333333e+00	 1.046275e+01
0	 4.962963e+00	 2.962963e+00	 1.047401e+01
0	 4.962963e+00	 3.037037e+00	 1.047036e+01
0	 4.962963e+00	 3.111111e+00	 1.046634e+01
0	 4.962963e+00	 3.185185e+00	 1.046191e+01
0	 4.962963e+00	 3.259259e+00	 1.045707e+01
0	 4.962963e+00	 3.333333e+00	 1.045180e+01
0	 5.037037e+00	 2.962963e+00	 1.046080e+01
0	 5.037037e+00	 3.037037e+00	 1.045760e+01
0	 5.037037e+00	 3.111111e+00	 1.045402e+01
0	 5.037037e+00	 3.185185e+00	 1.045004e+01
0	 5.037037e+00	 3.259259e+00	 1.044563e+01
0	 5.037037e+00	 3.333333e+00	 1.044079e+01
0	 5.111111e+00	 2.962963e+00	 1.044771e+01
0	 5.111111e+00	 3.037037e+00	 1.044493e+01
0	 5.111111e+00	 3.111111e+00	 1.044176e+01
0	 5.111111e+00	 3.185185e+00	 1.043819e+01
0	 5.111111e+00	 3.259259e+00	 1.043419e+01
0	 5.111111e+00	 3.333333e+00	 1.042975e+01
0	 5.185185e+00	 2.962963e+00	 1.043476e+01
0	 5.185185e+00	 3.037037e+00	 1.043237e+01
0	 5.185185e+00	 3.111111e+00	 1.042957e+01
0	 5.185185e+00	 3.185185e+00	 1.042636e+01
0	 5.185185e+00	 3.259259e+00	 1.042274e+01
0	 5.185185e+00	 3.333333e+00	 1.041868e+01
0	 4.814815e+00	 3.333333e+00	 1.047361e+01
0	 4.814815e+00	 3.407407e+00	 1.046698e+01
0	 4.814815e+00	 3.481481e+00	 1.046007e+01
0	 4.814815e+00	 3.555556e+00	 1.045286e+01
0	 4.814815e+00	 3.629630e+00	 1.044533e+01
0	 4.814815e+00	 3.703704e+00	 1.043744e+01
0	 4.888889e+00	 3.333333e+00	 1.046275e+01
0	 4.888889e+00	 3.407407e+00	 1.045664e+01
0	 4.888889e+00	 3.481481e+00	 1.045023e+01
0	 4.888889e+00	 3.555556e+00	 1.044352e+01
0	 4.888889e+00	 3.629630e+00	 1.043649e+01
0	 4.888889e+00	 3.703704e+00	 1.042910e+01
0	 4.962963e+00	 3.333333e+00	 1.045180e+01
0	 4.962963e+00	 3.407407e+00	 1.044616e+01
0	 4.962963e+00	 3.481481e+00	 1.044023e+01
0	 4.962963e+00	 3.555556e+00	 1.043399e+01
0	 4.962963e+00	 3.629630e+00	 1.042743e+01
0	 4.962963e+00	 3.703704e+00	 1.042052e+01
0	 5.037037e+00	 3.333333e+00	 1.044079e+01
0	 5.037037e+00	 3.407407e+00	 1.043559e+01
0	 5.037037e+00	 3.481481e+00	 1.043010e+01
0	 5.037037e+00	 3.555556e+00	 1.042431e+01
0	 5.037037e+00	 3.629630e+00	 1.041820e+01
0	 5.037037e+00	 3.703704e+00	 1.041176e+01
0	 5.111111e+00	 3.333333e+00	 1.042975e+01
0	 5.111111e+00	 3.407407e+00	 1.042495e+01
0	 5.111111e+00	 3.481481e+00	 1.041988e+01
0	 5.111111e+00	 3.555556e+00	 1.041451e+01
0	 5.111111e+00	 3.629630e+00	 1.040884e+01
0	 5.111111e+00	 3.703704e+00	 1.040284e+01
0	 5.185185e+00	 3.333333e+00	 1.041868e+01
0	 5.185185e+00	 3.407407e+00	 1.041428e+01
0	 5.185185e+00	 3.481481e+00	 1.040960e+01
0	 5.185185e+00	 3.555556e+00	 1.040464e+01
0	 5.185185e+00	 3.629630e+00	 1.039938e+01
0	 5.185185e+00	 3.703704e+00	 1.039382e+01
0	 4.814815e+00	 3.703704e+00	 1.043744e+01
0	 4.814815e+00	 3.777778e+00	 1.042933e+01
0	 4.814815e+00	 3.851852e+00	 1.042110e+01
0	 4.814815e+00	 3.925926e+00	 1.041274e+01
0	 4.814815e+00	 4.000000e+00	 1.040423e+01
0	 4.814815e+00	 4.074074e+00	 1.039554e+01
0	 4.888889e+00	 3.703704e+00	 1.042910e+01
0	 4.888889e+00	 3.777778e+00	 1.042147e+01
0	 4.888889e+00	 3.851852e+00	 1.041373e+01
0	 4.888889e+00	 3.925926e+00	 1.040585e+01
0	 4.888889e+00	 4.000000e+00	 1.039780e+01
0	 4.888889e+00	 4.074074e+00	 1.038957e+01
0	 4.962963e+00	 3.703704e+00	 1.042052e+01
0	 4.962963e+00	 3.777778e+00	 1.041338e+01
0	 4.962963e+00	 3.851852e+00	 1.040611e+01
0	 4.962963e+00	 3.925926e+00	 1.039868e+01
0	 4.962963e+00	 4.000000e+00	 1.039108e+01
0	 4.962963e+00	 4.074074e+00	 1.038328e+01
0	 5.037037e+00	 3.703704e+00	 1.041176e+01
0	 5.037037e+00	 3.777778e+00	 1.040508e+01
0	 5.037037e+00	 3.851852e+00	 1.039826e+01
0	 5.037037e+00	 3.925926e+00	 1.039128e+01
0	 5.037037e+00	 4.000000e+00	 1.038410e+01
0	 5.037037e+00	 4.074074e+00	 1.037671e+01
0	 5.111111e+00	 3.703704e+00	 1.040284e+01
0	 5.111111e+00	 3.777778e+00	 1.039662e+01
0	 5.111111e+00	 3.851852e+00	 1.039023e+01
0	 5.111111e+00	 3.925926e+00	 1.038366e+01
0	 5.111111e+00	 4.000000e+00	 1.037688e+01
0	 5.111111e+00	 4.074074e+00	 1.036989e+01
0	 5.185185e+00	 3.703704e+00	 1.039382e+01
0	 5.185185e+00	 3.777778e+00	 1.038801e+01
0	 5.185185e+00	 3.851852e+00	 1.038203e+01
0	 5.185185e+00	 3.925926e+00	 1.037585e+01
0	 5.185185e+00	 4.000000e+00	 1.036947e+01
0	 5.185185e+00	 4.074074e+00	 1.036285e+01
0	 4.814815e+00	 4.074074e+00	 1.039554e+01
0	 4.814815e+00	 4.148148e+00	 1.038675e+01
0	 4.814815e+00	 4.222222e+00	 1.037795e+01
0	 4.814815e+00	 4.296296e+00	 1.036912e+01
0	 4.814815e+00	 4.370370e+00	 1.036022e+01
0	 4.814815e+00	 4.444444e+00	 1.035125e+01
0	 4.888889e+00	 4.074074e+00	 1.038957e+01
0	 4.888889e+00	 4.148148e+00	 1.038123e+01
0	 4.888889e+00	 4.222222e+00	 1.037285e+01
0	 4.888889e+00	 4.296296e+00	 1.036441e+01
0	 4.888889e+00	 4.370370e+00	 1.035590e+01
0	 4.888889e+00	 4.444444e+00	 1.034730e+01
0	 4.962963e+00	 4.074074e+00	 1.038328e+01
0	 4.962963e+00	 4.148148e+00	 1.037536e+01
0	 4.962963e+00	 4.222222e+00	 1.036738e+01
0	 4.962963e+00	 4.296296e+00	 1.035934e+01
0	 4.962963e+00	 4.370370e+00	 1.035121e+01
0	 4.962963e+00	 4.444444e+00	 1.034298e+01
0	 5.037037e+00	 4.074074e+00	 1.037671e+01
0	 5.037037e+00	 4.148148e+00	 1.036918e+01
0	 5.037037e+00	 4.222222e+00	 1.036159e+01
0	 5.037037e+00	 4.296296e+00	 1.035393e+01
0	 5.037037e+00	 4.370370e+00	 1.034618e+01
0	 5.037037e+00	 4.444444e+00	 1.033831e+01
0	 5.111111e+00	 4.074074e+00	 1.036989e+01
0	 5.111111e+00	 4.148148e+00	 1.036274e+01
0	 5.111111e+00	 4.222222e+00	 1.035553e+01
0	 5.111111e+00	 4.296296e+00	 1.034824e+01
0	 5.111111e+00	 4.370370e+00	 1.034085e+01
0	 5.111111e+00	 4.444444e+00	 1.033335e+01
0	 5.185185e+00	 4.074074e+00	 1.036285e+01
0	 5.185185e+00	 4.148148e+00	 1.035608e+01
0	 5.185185e+00	 4.222222e+00	 1.034924e+01
0	 5.185185e+00	 4.296296e+00	 1.034231e+01
0	 5.185185e+00	 4.370370e+00	 1.033528e+01
0	 5.185185e+00	 4.444444e+00	 1.032813e+01
0	 4.814815e+00	 4.444444e+00	 1.035125e+01
0	 4.814815e+00	 4.518519e+00	 1.034226e+01
0	 4.814815e+00	 4.592593e+00	 1.033336e+01
0	 4.814815e+00	 4.666667e+00	 1.032450e+01
0	 4.814815e+00	 4.740741e+00	 1.031570e+01
0	 4.814815e+00	 4.814815e+00	 1.030691e+01
0	 4.888889e+00	 4.444444e+00	 1.034730e+01
0	 4.888889e+00	 4.518519e+00	 1.033868e+01
0	 4.888889e+00	 4.592593e+00	 1.033012e+01
0	 4.888889e+00	 4.666667e+00	 1.032161e+01
0	 4.888889e+00	 4.740741e+00	 1.031311e+01
0	 4.888889e+00	 4.814815e+00	 1.030463e+01
0	 4.962963e+00	 4.444444e+00	 1.034298e+01
0	 4.962963e+00	 4.518519e+00	 1.033472e+01
0	 4.962963e+00	 4.592593e+00	 1.032650e+01
0	 4.962963e+00	 4.666667e+00	 1.031832e+01
0	 4.962963e+00	 4.740741e+00	 1.031014e+01
0	 4.962963e+00	 4.814815e+00	 1.030195e+01
0	 5.037037e+00	 4.444444e+00	 1.033831e+01
0	 5.037037e+00	 4.518519e+00	 1.033041e+01
0	 5.037037e+00	 4.592593e+00	 1.032254e+01
0	 5.037037e+00	 4.666667e+00	 1.031467e+01
0	 5.037037e+00	 4.740741e+00	 1.030680e+01
0	 5.037037e+00	 4.814815e+00	 1.029890e+01
0	 5.111111e+00	 4.444444e+00	 1.033335e+01
0	 5.111111e+00	 4.518519e+00	 1.032580e+01
0	 5.111111e+00	 4.592593e+00	 1.031826e+01
0	 5.111111e+00	 4.666667e+00	 1.031071e+01
0	 5.111111e+00	 4.740741e+00	 1.030314e+01
0	 5.111111e+00	 4.814815e+00	 1.029553e+01
0	 5.185185e+00	 4.444444e+00	 1.032813e+01
0	 5.185185e+00	 4.518519e+00	 1.032092e+01
0	 5.185185e+00	 4.592593e+00	 1.031370e+01
0	 5.185185e+00	 4.666667e+00	 1.030646e+01
0	 5.185185e+00	 4.740741e+00	 1.029918e+01
0	 5.185185e+00	 4.814815e+00	 1.029186e+01
0	 4.814815e+00	 4.814815e+00	 1.030691e+01
0	 4.814815e+00	 4.888889e+00	 1.029820e+01
0	 4.814815e+00	 4.962963e+00	 1.028960e+01
0	 4.814815e+00	 5.037037e+00	 1.028111e+01
0	 4.814815e+00	 5.111111e+00	 1.027271e+01
0	 4.814815e+00	 5.185185e+00	 1.026438e+01
0	 4.888889e+00	 4.814815e+00	 1.030463e+01
0	 4.888889e+00	 4.888889e+00	 1.029620e+01
0	 4.888889e+00	 4.962963e+00	 1.028787e+01
0	 4.888889e+00	 5.037037e+00	 1.027963e+01
0	 4.888889e+00	 5.111111e+00	 1.027146e+01
0	 4.888889e+00	 5.185185e+00	 1.026336e+01
0	 4.962963e+00	 4.814815e+00	 1.030195e+01
0	 4.962963e+00	 4.888889e+00	 1.029380e+01
0	 4.962963e+00	 4.962963e+00	 1.028574e+01
0	 4.962963e+00	 5.037037e+00	 1.027775e+01
0	 4.962963e+00	 5.111111e+00	 1.026982e+01
0	 4.962963e+00	 5.185185e+00	 1.026194e+01
0	 5.037037e+00	 4.814815e+00	 1.029890e+01
0	 5.037037e+00	 4.888889e+00	 1.029103e+01
0	 5.037037e+00	 4.962963e+00	 1.028323e+01
0	 5.037037e+00	 5.037037e+00	 1.027550e+01
0	 5.037037e+00	 5.111111e+00	 1.026781e+01
0	 5.037037e+00	 5.185185e+00	 1.026016e+01
0	 5.111111e+00	 4.814815e+00	 1.029553e+01
0	 5.111111e+00	 4.888889e+00	 1.028793e+01
0	 5.111111e+00	 4.962963e+00	 1.028040e+01
0	 5.111111e+00	 5.037037e+00	 1.027291e+01
0	 5.111111e+00	 5.111111e+00	 1.026547e+01
0	 5.111111e+00	 5.185185e+00	 1.025806e+01
0	 5.185185e+00	 4.814815e+00	 1.029186e+01
0	 5.185185e+00	 4.888889e+00	 1.028454e+01
0	 5.185185e+00	 4.962963e+00	 1.027727e+01
0	 5.185185e+00	 5.037037e+00	 1.027003e+01
0	 5.185185e+00	 5.111111e+00	 1.026283e+01
0	 5.185185e+00	 5.185185e+00	 1.025565e+01
0	 4.814815e+00	 5.185185e+00	 1.026438e+01
0	 4.814815e+00	 5.259259e+00	 1.025617e+01
0	 4.814815e+00	 5.333333e+00	 1.024811e+01
0	 4.814815e+00	 5.407407e+00	 1.024018e+01
0	 4.814815e+00	 5.481481e+00	 1.023238e+01
0	 4.814815e+00	 5.555556e+00	 1.022471e+01
0	 4.888889e+00	 5.185185e+00	 1.026336e+01
0	 4.888889e+00	 5.259259e+00	 1.025536e+01
0	 4.888889e+00	 5.333333e+00	 1.024749e+01
0	 4.888889e+00	 5.407407e+00	 1.023974e+01
0	 4.888889e+00	 5.481481e+00	 1.023212e+01
0	 4.888889e+00	 5.555556e+00	 1.022460e+01
0	 4.962963e+00	 5.185185e+00	 1.026194e+01
0	 4.962963e+00	 5.259259e+00	 1.025415e+01
0	 4.962963e+00	 5.333333e+00	 1.024649e+01
0	 4.962963e+00	 5.407407e+00	 1.023893e+01
0	 4.962963e+00	 5.481481e+00	 1.023148e+01
0	 4.962963e+00	 5.555556e+00	 1.022412e+01
0	 5.037037e+00	 5.185185e+00	 1.026016e+01
0	 5.037037e+00	 5.259259e+00	 1.025259e+01
0	 5.037037e+00	 5.333333e+00	 1.024513e+01
0	 5.037037e+00	 5.407407e+00	 1.023777e+01
0	 5.037037e+00	 5.481481e+00	 1.023049e+01
0	 5.037037e+00	 5.555556e+00	 1.022330e+01
0	 5.111111e+00	 5.185185e+00	 1.025806e+01
0	 5.111111e+00	 5.259259e+00	 1.025070e+01
0	 5.111111e+00	 5.333333e+00	 1.024345e+01
0	 5.111111e+00	 5.407407e+00	 1.023628e+01
0	 5.111111e+00	 5.481481e+00	 1.022919e+01
0	 5.111111e+00	 5.555556e+00	 1.022216e+01
0	 5.185185e+00	 5.185185e+00	 1.025565e+01
0	 5.185185e+00	 5.259259e+00	 1.024852e+01
0	 5.185185e+00	 5.333333e+00	 1.024147e+01
0	 5.185185e+00	 5.407407e+00	 1.023450e+01
0	 5.185185e+00	 5.481481e+00	 1.022759e+01
0	 5.185185e+00	 5.555556e+00	 1.022074e+01
0	 4.814815e+00	 5.555556e+00	 1.022471e+01
0	 4.814815e+00	 5.629630e+00	 1.021717e+01
0	 4.814815e+00	 5.703704e+00	 1.020979e+01
0	 4.814815e+00	 5.777778e+00	 1.020256e+01
0	 4.814815e+00	 5.851852e+00	 1.019547e+01
0	 4.814815e+00	 5.925926e+00	 1.018852e+01
0	 4.888889e+00	 5.555556e+00	 1.022460e+01
0	 4.888889e+00	 5.629630e+00	 1.021721e+01
0	 4.888889e+00	 5.703704e+00	 1.020996e+01
0	 4.888889e+00	 5.777778e+00	 1.020285e+01
0	 4.888889e+00	 5.851852e+00	 1.019587e+01
0	 4.888889e+00	 5.925926e+00	 1.018902e+01
0	 4.962963e+00	 5.555556e+00	 1.022412e+01
0	 4.962963e+00	 5.629630e+00	 1.021688e+01
0	 4.962963e+00	 5.703704e+00	 1.020977e+01
0	 4.962963e+00	 5.777778e+00	 1.020278e+01
0	 4.962963e+00	 5.851852e+00	 1.019592e+01
0	 4.962963e+00	 5.925926e+00	 1.018917e+01
0	 5.037037e+00	 5.555556e+00	 1.022330e+01
0	 5.037037e+00	 5.629630e+00	 1.021621e+01
0	 5.037037e+00	 5.703704e+00	 1.020924e+01
0	 5.037037e+00	 5.777778e+00	 1.020239e+01
0	 5.037037e+00	 5.851852e+00	 1.019565e+01
0	 5.037037e+00	 5.925926e+00	 1.018902e+01
0	 5.111111e+00	 5.555556e+00	 1.022216e+01
0	 5.111111e+00	 5.629630e+00	 1.021523e+01
0	 5.111111e+00	 5.703704e+00	 1.020841e+01
0	 5.111111e+00	 5.777778e+00	 1.020170e+01
0	 5.111111e+00	 5.851852e+00	 1.019509e+01
0	 5.111111e+00	 5.925926e+00	 1.018858e+01
0	 5.185185e+00	 5.555556e+00	 1.022074e+01
0	 5.185185e+00	 5.629630e+00	 1.021396e+01
0	 5.185185e+00	 5.703704e+00	 1.020730e+01
0	 5.185185e+00	 5.777778e+00	 1.020073e+01
0	 5.185185e+00	 5.851852e+00	 1.019426e+01
0	 5.185185e+00	 5.925926e+00	 1.018787e+01
0	 4.814815e+00	 5.925926e+00	 1.018852e+01
0	 4.814815e+00	 6.000000e+00	 1.018172e+01
0	 4.814815e+00	 6.074074e+00	 1.017507e+01
0	 4.814815e+00	 6.148148e+00	 1.016857e+01
0	 4.814815e+00	 6.222222e+00	 1.016222e+01
0	 4.814815e+00	 6.296296e+00	 1.015601e+01
0	 4.888889e+00	 5.925926e+00	 1.018902e+01
0	 4.888889e+00	 6.000000e+00	 1.018230e+01
0	 4.888889e+00	 6.074074e+00	 1.017573e+01
0	 4.888889e+00	 6.148148e+00	 1.016930e+01
0	 4.888889e+00	 6.222222e+00	 1.016301e+01
0	 4.888889e+00	 6.296296e+00	 1.015686e+01
0	 4.962963e+00	 5.925926e+00	 1.018917e+01
0	 4.962963e+00	 6.000000e+00	 1.018255e+01
0	 4.962963e+00	 6.074074e+00	 1.017607e+01
0	 4.962963e+00	 6.148148e+00	 1.016972e+01
0	 4.962963e+00	 6.222222e+00	 1.016351e+01
0	 4.962963e+00	 6.296296e+00	 1.015742e+01
0	 5.037037e+00	 5.925926e+00	 1.018902e+01
0	 5.037037e+00	 6.000000e+00	 1.018251e+01
0	 5.037037e+00	 6.074074e+00	 1.017612e+01
0	 5.037037e+00	 6.148148e+00	 1.016986e+01
0	 5.037037e+00	 6.222222e+00	 1.016372e+01
0	 5.037037e+00	 6.296296e+00	 1.015770e+01
0	 5.111111e+00	 5.925926e+00	 1.018858e+01
0	 5.111111e+00	 6.000000e+00	 1.018217e+01
0	 5.111111e+00	 6.074074e+00	 1.017589e+01
0	 5.111111e+00	 6.148148e+00	 1.016973e+01
0	 5.111111e+00	 6.222222e+00	 1.016367e+01
0	 5.111111e+00	 6.296296e+00	 1.015772e+01
0	 5.185185e+00	 5.925926e+00	 1.018787e+01
0	 5.185185e+00	 6.000000e+00	 1.018158e+01
0	 5.185185e+00	 6.074074e+00	 1.017541e+01
0	 5.185185e+00	 6.148148e+00	 1.016934e+01
0	 5.185185e+00	 6.222222e+00	 1.016338e+01
0	 5.185185e+00	 6.296296e+00	 1.015751e+01
0	 4.814815e+00	 6.296296e+00	 1.015601e+01
0	 4.814815e+00	 6.370370e+00	 1.014995e+01
0	 4.814815e+00	 6.444444e+00	 1.014403e+01
0	 4.814815e+00	 6.518519e+00	 1.013826e+01
0	 4.814815e+00	 6.592593e+00	 1.013263e+01
0	 4.814815e+00	 6.666667e+00	 1.012714e+01
0	 4.888889e+00	 6.296296e+00	 1.015686e+01
0	 4.888889e+00	 6.370370e+00	 1.015084e+01
0	 4.888889e+00	 6.444444e+00	 1.014496e+01
0	 4.888889e+00	 6.518519e+00	 1.013922e+01
0	 4.888889e+00	 6.592593e+00	 1.013362e+01
0	 4.888889e+00	 6.666667e+00	 1.012815e+01
0	 4.962963e+00	 6.296296e+00	 1.015742e+01
0	 4.962963e+00	 6.370370e+00	 1.015145e+01
0	 4.962963e+00	 6.444444e+00	 1.014562e+01
0	 4.962963e+00	 6.518519e+00	 1.013992e+01
0	 4.962963e+00	 6.592593e+00	 1.013435e+01
0	 4.962963e+00	 6.666667e+00	 1.012891e+01
0	 5.037037e+00	 6.296296e+00	 1.015770e+01
0	 5.037037e+00	 6.370370e+00	 1.015180e+01
0	 5.037037e+00	 6.444444e+00	 1.014602e+01
0	 5.037037e+00	 6.518519e+00	 1.014037e+01
0	 5.037037e+00	 6.592593e+00	 1.013484e+01
0	 5.037037e+00	 6.666667e+00	 1.012943e+01
0	 5.111111e+00	 6.296296e+00	 1.015772e+01
0	 5.111111e+00	 6.370370e+00	 1.015189e+01
0	 5.111111e+00	 6.444444e+00	 1.014618e+01
0	 5.111111e+00	 6.518519e+00	 1.014059e+01
0	 5.111111e+00	 6.592593e+00	 1.013511e+01
0	 5.111111e+00	 6.666667e+00	 1.012974e+01
0	 5.185185e+00	 6.296296e+00	 1.015751e+01
0	 5.185185e+00	 6.370370e+00	 1.015175e+01
0	 5.185185e+00	 6.444444e+00	 1.014611e+01
0	 5.185185e+00	 6.518519e+00	 1.014058e+01
0	 5.185185e+00	 6.592593e+00	 1.013516e+01
0	 5.185185e+00	 6.666667e+00	 1.012984e+01
0	 4.814815e+00	 6.666667e+00	 1.012714e+01
0	 4.814815e+00	 6.740741e+00	 1.012178e+01
0	 4.814815e+00	 6.814815e+00	 1.011656e+01
0	 4.814815e+00	 6.888889e+00	 1.011148e+01
0	 4.814815e+00	 6.962963e+00	 1.010652e+01
0	 4.814815e+00	 7.037037e+00	 1.010170e+01
0	 4.888889e+00	 6.666667e+00	 1.012815e+01
0	 4.888889e+00	 6.740741e+00	 1.012280e+01
0	 4.888889e+00	 6.814815e+00	 1.011759e+01
0	 4.888889e+00	 6.888889e+00	 1.011251e+01
0	 4.888889e+00	 6.962963e+00	 1.010756e+01
0	 4.888889e+00	 7.037037e+00	 1.010273e+01
0	 4.962963e+00	 6.666667e+00	 1.012891e+01
0	 4.962963e+00	 6.740741e+00	 1.012359e+01
0	 4.962963e+00	 6.814815e+00	 1.011839e+01
0	 4.962963e+00	 6.888889e+00	 1.011332e+01
0	 4.962963e+00	 6.962963e+00	 1.010837e+01
0	 4.962963e+00	 7.037037e+00	 1.010355e+01
0	 5.037037e+00	 6.666667e+00	 1.012943e+01
0	 5.037037e+00	 6.740741e+00	 1.012414e+01
0	 5.037037e+00	 6.814815e+00	 1.011898e+01
0	 5.037037e+00	 6.888889e+00	 1.011393e+01
0	 5.037037e+00	 6.962963e+00	 1.010899e+01
0	 5.037037e+00	 7.037037e+00	 1.010417e+01
0	 5.111111e+00	 6.666667e+00	 1.012974e+01
0	 5.111111e+00	 6.740741e+00	 1.012449e+01
0	 5.111111e+00	 6.814815e+00	 1.011935e+01
0	 5.111111e+00	 6.888889e+00	 1.011433e+01
0	 5.111111e+00	 6.962963e+00	 1.010942e+01
0	 5.111111e+00	 7.037037e+00	 1.010462e+01
0	 5.185185e+00	 6.666667e+00	 1.012984e+01
0	 5.185185e+00	 6.740741e+00	 1.012463e+01
0	 5.185185e+00	 6.814815e+00	 1.011953e+01
0	 5.185185e+00	 6.888889e+00	 1.011455e+01
0	 5.185185e+00	 6.962963e+00	 1.010966e+01
0	 5.185185e+00	 7.037037e+00	 1.010489e+01
0	 4.814815e+00	 7.037037e+00	 1.010170e+01
0	 4.814815e+00	 7.111111e+00	 1.009700e+01
0	 4.814815e+00	 7.185185e+00	 1.009243e+01
0	 4.814815e+00	 7.259259e+00	 1.008798e+01
0	 4.814815e+00	 7.333333e+00	 1.008364e+01
0	 4.814815e+00	 7.407407e+00	 1.007943e+01
0	 4.888889e+00	 7.037037e+00	 1.010273e+01
0	 4.888889e+00	 7.111111e+00	 1.009802e+01
0	 4.888889e+00	 7.185185e+00	 1.009343e+01
0	 4.888889e+00	 7.259259e+00	 1.008896e+01
0	 4.888889e+00	 7.333333e+00	 1.008461e+01
0	 4.888889e+00	 7.407407e+00	 1.008037e+01
0	 4.962963e+00	 7.037037e+00	 1.010355e+01
0	 4.962963e+00	 7.111111e+00	 1.009884e+01
0	 4.962963e+00	 7.185185e+00	 1.009424e+01
0	 4.962963e+00	 7.259259e+00	 1.008976e+01
0	 4.962963e+00	 7.333333e+00	 1.008540e+01
0	 4.962963e+00	 7.407407e+00	 1.008115e+01
0	 5.037037e+00	 7.037037e+00	 1.010417e+01
0	 5.037037e+00	 7.111111e+00	 1.009947e+01
0	 5.037037e+00	 7.185185e+00	 1.009488e+01
0	 5.037037e+00	 7.259259e+00	 1.009040e+01
0	 5.037037e+00	 7.333333e+00	 1.008603e+01
0	 5.037037e+00	 7.407407e+00	 1.008177e+01
0	 5.111111e+00	 7.037037e+00	 1.010462e+01
0	 5.111111e+00	 7.111111e+00	 1.009993e+01
0	 5.111111e+00	 7.185185e+00	 1.009535e+01
0	 5.111111e+00	 7.259259e+00	 1.009087e+01
0	 5.111111e+00	 7.333333e+00	 1.008651e+01
0	 5.111111e+00	 7.407407e+00	 1.008224e+01
0	 5.185185e+00	 7.037037e+00	 1.010489e+01
0	 5.185185e+00	 7.111111e+00	 1.010022e+01
0	 5.185185e+00	 7.185185e+00	 1.009565e+01
0	 5.185185e+00	 7.259259e+00	 1.009119e+01
0	 5.185185e+00	 7.333333e+00	 1.008683e+01
0	 5.185185e+00	 7.407407e+00	 1.008258e+01
0	 4.814815e+00	 7.407407e+00	 1.007943e+01
0	 4.814815e+00	 7.481481e+00	 1.007533e+01
0	 4.814815e+00	 7.555556e+00	 1.007134e+01
0	 4.814815e+00	 7.629630e+00	 1.006747e+01
0	 4.814815e+00	 7.703704e+00	 1.006370e+01
0	 4.814815e+00	 7.777778e+00	 1.006004e+01
0	 4.888889e+00	 7.407407e+00	 1.008037e+01
0	 4.888889e+00	 7.481481e+00	 1.007624e+01
0	 4.888889e+00	 7.555556e+00	 1.007223e+01
0	 4.888889e+00	 7.629630e+00	 1.006832e+01
0	 4.888889e+00	 7.703704e+00	 1.006452e+01
0	 4.888889e+00	 7.777778e+00	 1.006083e+01
0	 4.962963e+00	 7.407407e+00	 1.008115e+01
0	 4.962963e+00	 7.481481e+00	 1.007700e+01
0	 4.962963e+00	 7.555556e+00	 1.007297e+01
0	 4.962963e+00	 7.629630e+00	 1.006904e+01
0	 4.962963e+00	 7.703704e+00	 1.006522e+01
0	 4.962963e+00	 7.777778e+00	 1.006150e+01
0	 5.037037e+00	 7.407407e+00	 1.008177e+01
0	 5.037037e+00	 7.481481e+00	 1.007762e+01
0	 5.037037e+00	 7.555556e+00	 1.007357e+01
0	 5.037037e+00	 7.629630e+00	 1.006963e+01
0	 5.037037e+00	 7.703704e+00	 1.006579e+01
0	 5.037037e+00	 7.777778e+00	 1.006205e+01
0	 5.111111e+00	 7.407407e+00	 1.008224e+01
0	 5.111111e+00	 7.481481e+00	 1.007809e+01
0	 5.111111e+00	 7.555556e+00	 1.007403e+01
0	 5.111111e+00	 7.629630e+00	 1.007008e+01
0	 5.111111e+00	 7.703704e+00	 1.006623e+01
0	 5.111111e+00	 7.777778e+00	 1.006248e+01
0	 5.185185e+00	 7.407407e+00	 1.008258e+01
0	 5.185185e+00	 7.481481e+00	 1.007842e+01
0	 5.185185e+00	 7.555556e+00	 1.007437e+01
0	 5.185185e+00	 7.629630e+00	 1.007042e+01
0	 5.185185e+00	 7.703704e+00	 1.006657e+01
0	 5.185185e+00	 7.777778e+00	 1.006281e+01
0	 4.814815e+00	 7.777778e+00	 1.006004e+01
0	 4.814815e+00	 7.851852e+00	 1.005649e+01
0	 4.814815e+00	 7.925926e+00	 1.005304e+01
0	 4.814815e+00	 8.000000e+00	 1.004969e+01
0	 4.814815e+00	 8.074074e+00	 1.004645e+01
0	 4.814815e+00	 8.148148e+00	 1.004330e+01
0	 4.888889e+00	 7.777778e+00	 1.006083e+01
0	 4.888889e+00	 7.851852e+00	 1.005724e+01
0	 4.888889e+00	 7.925926e+00	 1.005376e+01
0	 4.888889e+00	 8.000000e+00	 1.005038e+01
0	 4.888889e+00	 8.074074e+00	 1.004709e+01
0	 4.888889e+00	 8.148148e+00	 1.004391e+01
0	 4.962963e+00	 7.777778e+00	 1.006150e+01
0	 4.962963e+00	 7.851852e+00	 1.005788e+01
0	 4.962963e+00	 7.925926e+00	 1.005437e+01
0	 4.962963e+00	 8.000000e+00	 1.005096e+01
0	 4.962963e+00	 8.074074e+00	 1.004765e+01
0	 4.962963e+00	 8.148148e+00	 1.004443e+01
0	 5.037037e+00	 7.777778e+00	 1.006205e+01
0	 5.037037e+00	 7.851852e+00	 1.005841e+01
0	 5.037037e+00	 7.925926e+00	 1.005488e+01
0	 5.037037e+00	 8.000000e+00	 1.005144e+01
0	 5.037037e+00	 8.074074e+00	 1.004811e+01
0	 5.037037e+00	 8.148148e+00	 1.004487e+01
0	 5.111111e+00	 7.777778e+00	 1.006248e+01
0	 5.111111e+00	 7.851852e+00	 1.005883e+01
0	 5.111111e+00	 7.925926e+00	 1.005528e+01
0	 5.111111e+00	 8.000000e+00	 1.005183e+01
0	 5.111111e+00	 8.074074e+00	 1.004848e+01
0	 5.111111e+00	 8.148148e+00	 1.004522e+01
0	 5.185185e+00	 7.777778e+00	 1.006281e+01
0	 5.185185e+00	 7.851852e+00	 1.005915e+01
0	 5.185185e+00	 7.925926e+00	 1.005559e+01
0	 5.185185e+00	 8.000000e+00	 1.005213e+01
0	 5.185185e+00	 8.074074e+00	 1.004876e+01
0	 5.185185e+00	 8.148148e+00	 1.004549e+01
0	 4.814815e+00	 8.148148e+00	 1.004330e+01
0	 4.814815e+00	 8.222222e+00	 1.004025e+01
0	 4.814815e+00	 8.296296e+00	 1.003731e+01
0	 4.814815e+00	 8.370370e+00	 1.003446e+01
0	 4.814815e+00	 8.444444e+00	 1.003172e+01
0	 4.814815e+00	 8.518519e+00	 1.002906e+01
0	 4.888889e+00	 8.148148e+00	 1.004391e+01
0	 4.888889e+00	 8.222222e+00	 1.004083e+01
0	 4.888889e+00	 8.296296e+00	 1.003785e+01
0	 4.888889e+00	 8.370370e+00	 1.003496e+01
0	 4.888889e+00	 8.444444e+00	 1.003218e+01
0	 4.888889e+00	 8.518519e+00	 1.002949e+01
0	 4.962963e+00	 8.148148e+00	 1.004443e+01
0	 4.962963e+00	 8.222222e+00	 1.004132e+01
0	 4.962963e+00	 8.296296e+00	 1.003830e+01
0	 4.962963e+00	 8.370370e+00	 1.003539e+01
0	 4.962963e+00	 8.444444e+00	 1.003258e+01
0	 4.962963e+00	 8.518519e+00	 1.002985e+01
0	 5.037037e+00	 8.148148e+00	 1.004487e+01
0	 5.037037e+00	 8.222222e+00	 1.004173e+01
0	 5.037037e+00	 8.296296e+00	 1.003869e+01
0	 5.037037e+00	 8.370370e+00	 1.003575e+01
0	 5.037037e+00	 8.444444e+00	 1.003291e+01
0	 5.037037e+00	 8.518519e+00	 1.003016e+01
0	 5.111111e+00	 8.148148e+00	 1.004522e+01
0	 5.111111e+00	 8.222222e+00	 1.004206e+01
0	 5.111111e+00	 8.296296e+00	 1.003900e+01
0	 5.111111e+00	 8.370370e+00	 1.003604e+01
0	 5.111111e+00	 8.444444e+00	 1.003318e+01
0	 5.111111e+00	 8.518519e+00	 1.003041e+01
0	 5.185185e+00	 8.148148e+00	 1.004549e+01
0	 5.185185e+00	 8.222222e+00	 1.004231e+01
0	 5.185185e+00	 8.296296e+00	 1.003924e+01
0	 5.185185e+00	 8.370370e+00	 1.003627e+01
0	 5.185185e+00	 8.444444e+00	 1.003339e+01
0	 5.185185e+00	 8.518519e+00	 1.003060e+01
0	 4.814815e+00	 8.518519e+00	 1.002906e+01
0	 4.814815e+00	 8.592593e+00	 1.002651e+01
0	 4.814815e+00	 8.666667e+00	 1.002406e+01
0	 4.814815e+00	 8.740741e+00	 1.002172e+01
0	 4.814815e+00	 8.814815e+00	 1.001947e+01
0	 4.814815e+00	 8.888889e+00	 1.001732e+01
0	 4.888889e+00	 8.518519e+00	 1.002949e+01
0	 4.888889e+00	 8.592593e+00	 1.002690e+01
0	 4.888889e+00	 8.666667e+00	 1.002441e+01
0	 4.888889e+00	 8.740741e+00	 1.002204e+01
0	 4.888889e+00	 8.814815e+00	 1.001976e+01
0	 4.888889e+00	 8.888889e+00	 1.001757e+01
0	 4.962963e+00	 8.518519e+00	 1.002985e+01
0	 4.962963e+00	 8.592593e+00	 1.002723e+01
0	 4.962963e+00	 8.666667e+00	 1.002472e+01
0	 4.962963e+00	 8.740741e+00	 1.002231e+01
0	 4.962963e+00	 8.814815e+00	 1.002000e+01
0	 4.962963e+00	 8.888889e+00	 1.001779e+01
0	 5.037037e+00	 8.518519e+00	 1.003016e+01
0	 5.037037e+00	 8.592593e+00	 1.002751e+01
0	 5.037037e+00	 8.666667e+00	 1.002497e+01
0	 5.037037e+00	 8.740741e+00	 1.002254e+01
0	 5.037037e+00	 8.814815e+00	 1.002021e+01
0	 5.037037e+00	 8.888889e+00	 1.001798e+01
0	 5.111111e+00	 8.518519e+00	 1.003041e+01
0	 5.111111e+00	 8.592593e+00	 1.002774e+01
0	 5.111111e+00	 8.666667e+00	 1.002518e+01
0	 5.111111e+00	 8.740741e+00	 1.002273e+01
0	 5.111111e+00	 8.814815e+00	 1.002038e+01
0	 5.111111e+00	 8.888889e+00	 1.001813e+01
0	 5.185185e+00	 8.518519e+00	 1.003060e+01
0	 5.185185e+00	 8.592593e+00	 1.002792e+01
0	 5.185185e+00	 8.666667e+00	 1.002534e+01
0	 5.185185e+00	 8.740741e+00	 1.002288e+01
0	 5.185185e+00	 8.814815e+00	 1.002051e+01
0	 5.185185e+00	 8.888889e+00	 1.001824e+01
0	 4.814815e+00	 8.888889e+00	 1.001732e+01
0	 4.814815e+00	 8.962963e+00	 1.001527e+01
0	 4.814815e+00	 9.037037e+00	 1.001335e+01
0	 4.814815e+00	 9.111111e+00	 1.001154e+01
0	 4.814815e+00	 9.185185e+00	 1.000984e+01
0	 4.814815e+00	 9.259259e+00	 1.000823e+01
0	 4.888889e+00	 8.888889e+00	 1.001757e+01
0	 4.888889e+00	 8.962963e+00	 1.001550e+01
0	 4.888889e+00	 9.037037e+00	 1.001354e+01
0	 4.888889e+00	 9.111111e+00	 1.001171e+01
0	 4.888889e+00	 9.185185e+00	 1.000998e+01
0	 4.888889e+00	 9.259259e+00	 1.000835e+01
0	 4.962963e+00	 8.888889e+00	 1.001779e+01
0	 4.962963e+00	 8.962963e+00	 1.001569e+01
0	 4.962963e+00	 9.037037e+00	 1.001371e+01
0	 4.962963e+00	 9.111111e+00	 1.001185e+01
0	 4.962963e+00	 9.185185e+00	 1.001010e+01
0	 4.962963e+00	 9.259259e+00	 1.000845e+01
0	 5.037037e+00	 8.888889e+00	 1.001798e+01
0	 5.037037e+00	 8.962963e+00	 1.001585e+01
0	 5.037037e+00	 9.037037e+00	 1.001385e+01
0	 5.037037e+00	 9.111111e+00	 1.001197e+01
0	 5.037037e+00	 9.185185e+00	 1.001020e+01
0	 5.037037e+00	 9.259259e+00	 1.000854e+01
0	 5.111111e+00	 8.888889e+00	 1.001813e+01
0	 5.111111e+00	 8.962963e+00	 1.001598e+01
0	 5.111111e+00	 9.037037e+00	 1.001397e+01
0	 5.111111e+00	 9.111111e+00	 1.001207e+01
0	 5.111111e+00	 9.185185e+00	 1.001029e+01
0	 5.111111e+00	 9.259259e+00	 1.000861e+01
0	 5.185185e+00	 8.888889e+00	 1.001824e+01
0	 5.185185e+00	 8.962963e+00	 1.001609e+01
0	 5.185185e+00	 9.037037e+00	 1.001406e+01
0	 5.185185e+00	 9.111111e+00	 1.001215e+01
0	 5.185185e+00	 9.185185e+00	 1.001035e+01
0	 5.185185e+00	 9.259259e+00	 1.000866e+01
0	 4.814815e+00	 9.259259e+00	 1.000823e+01
0	 4.814815e+00	 9.333333e+00	 1.000676e+01
0	 4.814815e+00	 9.407407e+00	 1.000543e+01
0	 4.814815e+00	 9.481481e+00	 1.000423e+01
0	 4.814815e+00	 9.555556e+00	 1.000317e+01
0	 4.814815e+00	 9.629630e+00	 1.000223e+01
0	 4.888889e+00	 9.259259e+00	 1.000835e+01
0	 4.888889e+00	 9.333333e+00	 1.000685e+01
0	 4.888889e+00	 9.407407e+00	 1.000550e+01
0	 4.888889e+00	 9.481481e+00	 1.000429e+01
0	 4.888889e+00	 9.555556e+00	 1.000321e+01
0	 4.888889e+00	 9.629630e+00	 1.000225e+01
0	 4.962963e+00	 9.259259e+00	 1.000845e+01
0	 4.962963e+00	 9.333333e+00	 1.000694e+01
0	 4.962963e+00	 9.407407e+00	 1.000557e+01
0	 4.962963e+00	 9.481481e+00	 1.000434e+01
0	 4.962963e+00	 9.555556e+00	 1.000325e+01
0	 4.962963e+00	 9.629630e+00	 1.000228e+01
0	 5.037037e+00	 9.259259e+00	 1.000854e+01
0	 5.037037e+00	 9.333333e+00	 1.000700e+01
0	 5.037037e+00	 9.407407e+00	 1.000562e+01
0	 5.037037e+00	 9.481481e+00	 1.000438e+01
0	 5.037037e+00	 9.555556e+00	 1.000328e+01
0	 5.037037e+00	 9.629630e+00	 1.000230e+01
0	 5.111111e+00	 9.259259e+00	 1.000861e+01
0	 5.111111e+00	 9.333333e+00	 1.000706e+01
0	 5.111111e+00	 9.407407e+00	 1.000567e+01
0	 5.111111e+00	 9.481481e+00	 1.000442e+01
0	 5.111111e+00	 9.555556e+00	 1.000331e+01
0	 5.111111e+00	 9.629630e+00	 1.000232e+01
0	 5.185185e+00	 9.259259e+00	 1.000866e+01
0	 5.185185e+00	 9.333333e+00	 1.000710e+01
0	 5.185185e+00	 9.407407e+00	 1.000570e+01
0	 5.185185e+00	 9.481481e+00	 1.000444e+01
0	 5.185185e+00	 9.555556e+00	 1.000332e+01
0	 5.185185e+00	 9.629630e+00	 1.000233e+01
0	 4.814815e+00	 9.629630e+00	 1.000223e+01
0	 4.814815e+00	 9.703704e+00	 1.000143e+01
0	 4.814815e+00	 9.777778e+00	 1.000082e+01
0	 4.814815e+00	 9.851852e+00	 1.000039e+01
0	 4.814815e+00	 9.925926e+00	 1.000011e+01
0	 4.814815e+00	 1.000000e+01	 9.999973e+00
0	 4.888889e+00	 9.629630e+00	 1.000225e+01
0	 4.888889e+00	 9.703704e+00	 1.000145e+01
0	 4.888889e+00	 9.777778e+00	 1.000083e+01
0	 4.888889e+00	 9.851852e+00	 1.000039e+01
0	 4.888889e+00	 9.925926e+00	 1.000010e+01
0	 4.888889e+00	 1.000000e+01	 9.999971e+00
0	 4.962963e+00	 9.629630e+00	 1.000228e+01
0	 4.962963e+00	 9.703704e+00	 1.000147e+01
0	 4.962963e+00	 9.777778e+00	 1.000084e+01
0	 4.962963e+00	 9.851852e+00	 1.000039e+01
0	 4.962963e+00	 9.925926e+00	 1.000011e+01
0	 4.962963e+00	 1.000000e+01	 9.999971e+00
0	 5.037037e+00	 9.629630e+00	 1.000230e+01
0	 5.037037e+00	 9.703704e+00	 1.000148e+01
0	 5.037037e+00	 9.777778e+00	 1.000085e+01
0	 5.037037e+00	 9.851852e+00	 1.000040e+01
0	 5.037037e+00	 9.925926e+00	 1.000011e+01
0	 5.037037e+00	 1.000000e+01	 9.999972e+00
0	 5.111111e+00	 9.629630e+00	 1.000232e+01
0	 5.111111e+00	 9.703704e+00	 1.000149e+01
0	 5.111111e+00	 9.777778e+00	 1.000086e+01
0	 5.111111e+00	 9.851852e+00	 1.000040e+01
0	 5.111111e+00	 9.925926e+00	 1.000011e+01
0	 5.111111e+00	 1.000000e+01	 9.999973e+00
0	 5.185185e+00	 9.629630e+00	 1.000233e+01
0	 5.185185e+00	 9.703704e+00	 1.000150e+01
0	 5.185185e+00	 9.777778e+00	 1.000086e+01
0	 5.185185e+00	 9.851852e+00	 1.000040e+01
0	 5.185185e+00	 9.925926e+00	 1.000011e+01
0	 5.185185e+00	 1.000000e+01	 9.999973e+00
0	 5.185185e+00	 0.000000e+00	 1.029955e+01
0	 5.185185e+00	 7.407407e-02	 1.030027e+01
0	 5.185185e+00	 1.481481e-01	 1.030145e+01
0	 5.185185e+00	 2.222222e-01	 1.030312e+01
0	 5.185185e+00	 2.962963e-01	 1.030530e+01
0	 5.185185e+00	 3.703704e-01	 1.030803e+01
0	 5.259259e+00	 0.000000e+00	 1.028910e+01
0	 5.259259e+00	 7.407407e-02	 1.028979e+01
0	 5.259259e+00	 1.481481e-01	 1.029093e+01
0	 5.259259e+00	 2.222222e-01	 1.029253e+01
0	 5.259259e+00	 2.962963e-01	 1.029460e+01
0	 5.259259e+00	 3.703704e-01	 1.029716e+01
0	 5.333333e+00	 0.000000e+00	 1.027917e+01
0	 5.333333e+00	 7.407407e-02	 1.027971e+01
0	 5.333333e+00	 1.481481e-01	 1.028071e+01
0	 5.333333e+00	 2.222222e-01	 1.028219e+01
0	 5.333333e+00	 2.962963e-01	 1.028413e+01
0	 5.333333e+00	 3.703704e-01	 1.028654e+01
0	 5.407407e+00	 0.000000e+00	 1.026960e+01
0	 5.407407e+00	 7.407407e-02	 1.026994e+01
0	 5.407407e+00	 1.481481e-01	 1.027077e+01
0	 5.407407e+00	 2.222222e-01	 1.027209e+01
0	 5.407407e+00	 2.962963e-01	 1.027389e+01
0	 5.407407e+00	 3.703704e-01	 1.027618e+01
0	 5.481481e+00	 0.000000e+00	 1.026022e+01
0	 5.481481e+00	 7.407407e-02	 1.026039e+01
0	 5.481481e+00	 1.481481e-01	 1.026105e+01
0	 5.481481e+00	 2.222222e-01	 1.026222e+01
0	 5.481481e+00	 2.962963e-01	 1.026389e+01
0	 5.481481e+00	 3.703704e-01	 1.026607e+01
0	 5.555556e+00	 0.000000e+00	 1.025087e+01
0	 5.555556e+00	 7.407407e-02	 1.025095e+01
0	 5.555556e+00	 1.481481e-01	 1.025151e+01
0	 5.555556e+00	 2.222222e-01	 1.025258e+01
0	 5.555556e+00	 2.962963e-01	 1.025415e+01
0	 5.555556e+00	 3.703704e-01	 1.025623e+01
0	 5.185185e+00	 3.703704e-01	 1.030803e+01
0	 5.185185e+00	 4.444444e-01	 1.031122e+01
0	 5.185185e+00	 5.185185e-01	 1.031483e+01
0	 5.185185e+00	 5.925926e-01	 1.031889e+01
0	 5.185185e+00	 6.666667e-01	 1.032345e+01
0	 5.185185e+00	 7.407407e-01	 1.032854e+01
0	 5.259259e+00	 3.703704e-01	 1.029716e+01
0	 5.259259e+00	 4.444444e-01	 1.030016e+01
0	 5.259259e+00	 5.185185e-01	 1.030356e+01
0	 5.259259e+00	 5.925926e-01	 1.030741e+01
0	 5.259259e+00	 6.666667e-01	 1.031173e+01
0	 5.259259e+00	 7.407407e-01	 1.031657e+01
0	 5.333333e+00	 3.703704e-01	 1.028654e+01
0	 5.333333e+00	 4.444444e-01	 1.028938e+01
0	 5.333333e+00	 5.185185e-01	 1.029261e+01
0	 5.333333e+00	 5.925926e-01	 1.029626e+01
0	 5.333333e+00	 6.666667e-01	 1.030037e+01
0	 5.333333e+00	 7.407407e-01	 1.030498e+01
0	 5.407407e+00	 3.703704e-01	 1.027618e+01
0	 5.407407e+00	 4.444444e-01	 1.027889e+01
0	 5.407407e+00	 5.185185e-01	 1.028196e+01
0	 5.407407e+00	 5.925926e-01	 1.028544e+01
0	 5.407407e+00	 6.666667e-01	 1.028935e+01
0	 5.407407e+00	 7.407407e-01	 1.029373e+01
0	 5.481481e+00	 3.703704e-01	 1.026607e+01
0	 5.481481e+00	 4.444444e-01	 1.026867e+01
0	 5.481481e+00	 5.185185e-01	 1.027161e+01
0	 5.481481e+00	 5.925926e-01	 1.027493e+01
0	 5.481481e+00	 6.666667e-01	 1.027865e+01
0	 5.481481e+00	 7.407407e-01	 1.028282e+01
0	 5.555556e+00	 3.703704e-01	 1.025623e+01
0	 5.555556e+00	 4.444444e-01	 1.025872e+01
0	 5.555556e+00	 5.185185e-01	 1.026154e+01
0	 5.555556e+00	 5.925926e-01	 1.026470e+01
0	 5.555556e+00	 6.666667e-01	 1.026825e+01
0	 5.555556e+00	 7.407407e-01	 1.027222e+01
0	 5.185185e+00	 7.407407e-01	 1.032854e+01
0	 5.185185e+00	 8.148148e-01	 1.033395e+01
0	 5.185185e+00	 8.888889e-01	 1.033949e+01
0	 5.185185e+00	 9.629630e-01	 1.034522e+01
0	 5.185185e+00	 1.037037e+00	 1.035119e+01
0	 5.185185e+00	 1.111111e+00	 1.035746e+01
0	 5.259259e+00	 7.407407e-01	 1.031657e+01
0	 5.259259e+00	 8.148148e-01	 1.032173e+01
0	 5.259259e+00	 8.888889e-01	 1.032702e+01
0	 5.259259e+00	 9.629630e-01	 1.033250e+01
0	 5.259259e+00	 1.037037e+00	 1.033822e+01
0	 5.259259e+00	 1.111111e+00	 1.034424e+01
0	 5.333333e+00	 7.407407e-01	 1.030498e+01
0	 5.333333e+00	 8.148148e-01	 1.030989e+01
0	 5.333333e+00	 8.888889e-01	 1.031494e+01
0	 5.333333e+00	 9.629630e-01	 1.032018e+01
0	 5.333333e+00	 1.037037e+00	 1.032566e+01
0	 5.333333e+00	 1.111111e+00	 1.033142e+01
0	 5.407407e+00	 7.407407e-01	 1.029373e+01
0	 5.407407e+00	 8.148148e-01	 1.029841e+01
0	 5.407407e+00	 8.888889e-01	 1.030323e+01
0	 5.407407e+00	 9.629630e-01	 1.030823e+01
0	 5.407407e+00	 1.037037e+00	 1.031347e+01
0	 5.407407e+00	 1.111111e+00	 1.031900e+01
0	 5.481481e+00	 7.407407e-01	 1.028282e+01
0	 5.481481e+00	 8.148148e-01	 1.028727e+01
0	 5.481481e+00	 8.888889e-01	 1.029186e+01
0	 5.481481e+00	 9.629630e-01	 1.029664e+01
0	 5.481481e+00	 1.037037e+00	 1.030165e+01
0	 5.481481e+00	 1.111111e+00	 1.030693e+01
0	 5.555556e+00	 7.407407e-01	 1.027222e+01
0	 5.555556e+00	 8.148148e-01	 1.027645e+01
0	 5.555556e+00	 8.888889e-01	 1.028083e+01
0	 5.555556e+00	 9.629630e-01	 1.028538e+01
0	 5.555556e+00	 1.037037e+00	 1.029017e+01
0	 5.555556e+00	 1.111111e+00	 1.029521e+01
0	 5.185185e+00	 1.111111e+00	 1.035746e+01
0	 5.185185e+00	 1.185185e+00	 1.036382e+01
0	 5.185185e+00	 1.259259e+00	 1.037002e+01
0	 5.185185e+00	 1.333333e+00	 1.037615e+01
0	 5.185185e+00	 1.407407e+00	 1.038227e+01
0	 5.185185e+00	 1.481481e+00	 1.038843e+01
0	 5.259259e+00	 1.111111e+00	 1.034424e+01
0	 5.259259e+00	 1.185185e+00	 1.035035e+01
0	 5.259259e+00	 1.259259e+00	 1.035633e+01
0	 5.259259e+00	 1.333333e+00	 1.036226e+01
0	 5.259259e+00	 1.407407e+00	 1.036818e+01
0	 5.259259e+00	 1.481481e+00	 1.037416e+01
0	 5.333333e+00	 1.111111e+00	 1.033142e+01
0	 5.333333e+00	 1.185185e+00	 1.033729e+01
0	 5.333333e+00	 1.259259e+00	 1.034305e+01
0	 5.333333e+00	 1.333333e+00	 1.034877e+01
0	 5.333333e+00	 1.407407e+00	 1.035449e+01
0	 5.333333e+00	 1.481481e+00	 1.036028e+01
0	 5.407407e+00	 1.111111e+00	 1.031900e+01
0	 5.407407e+00	 1.185185e+00	 1.032462e+01
0	 5.407407e+00	 1.259259e+00	 1.033016e+01
0	 5.407407e+00	 1.333333e+00	 1.033567e+01
0	 5.407407e+00	 1.407407e+00	 1.034119e+01
0	 5.407407e+00	 1.481481e+00	 1.034677e+01
0	 5.481481e+00	 1.111111e+00	 1.030693e+01
0	 5.481481e+00	 1.185185e+00	 1.031232e+01
0	 5.481481e+00	 1.259259e+00	 1.031763e+01
0	 5.481481e+00	 1.333333e+00	 1.032293e+01
0	 5.481481e+00	 1.407407e+00	 1.032824e+01
0	 5.481481e+00	 1.481481e+00	 1.033362e+01
0	 5.555556e+00	 1.111111e+00	 1.029521e+01
0	 5.555556e+00	 1.185185e+00	 1.030036e+01
0	 5.555556e+00	 1.259259e+00	 1.030545e+01
0	 5.555556e+00	 1.333333e+00	 1.031053e+01
0	 5.555556e+00	 1.407407e+00	 1.031564e+01
0	 5.555556e+00	 1.481481e+00	 1.032081e+01
0	 5.185185e+00	 1.481481e+00	 1.038843e+01
0	 5.185185e+00	 1.555556e+00	 1.039445e+01
0	 5.185185e+00	 1.629630e+00	 1.040010e+01
0	 5.185185e+00	 1.703704e+00	 1.040543e+01
0	 5.185185e+00	 1.777778e+00	 1.041048e+01
0	 5.185185e+00	 1.851852e+00	 1.041529e+01
0	 5.259259e+00	 1.481481e+00	 1.037416e+01
0	 5.259259e+00	 1.555556e+00	 1.037999e+01
0	 5.259259e+00	 1.629630e+00	 1.038548e+01
0	 5.259259e+00	 1.703704e+00	 1.039066e+01
0	 5.259259e+00	 1.777778e+00	 1.039558e+01
0	 5.259259e+00	 1.851852e+00	 1.040029e+01
0	 5.333333e+00	 1.481481e+00	 1.036028e+01
0	 5.333333e+00	 1.555556e+00	 1.036593e+01
0	 5.333333e+00	 1.629630e+00	 1.037125e+01
0	 5.333333e+00	 1.703704e+00	 1.037630e+01
0	 5.333333e+00	 1.777778e+00	 1.038112e+01
0	 5.333333e+00	 1.851852e+00	 1.038575e+01
0	 5.407407e+00	 1.481481e+00	 1.034677e+01
0	 5.407407e+00	 1.555556e+00	 1.035223e+01
0	 5.407407e+00	 1.629630e+00	 1.035740e+01
0	 5.407407e+00	 1.703704e+00	 1.036233e+01
0	 5.407407e+00	 1.777778e+00	 1.036706e+01
0	 5.407407e+00	 1.851852e+00	 1.037163e+01
0	 5.481481e+00	 1.481481e+00	 1.033362e+01
0	 5.481481e+00	 1.555556e+00	 1.033890e+01
0	 5.481481e+00	 1.629630e+00	 1.034392e+01
0	 5.481481e+00	 1.703704e+00	 1.034873e+01
0	 5.481481e+00	 1.777778e+00	 1.035337e+01
0	 5.481481e+00	 1.851852e+00	 1.035789e+01
0	 5.555556e+00	 1.481481e+00	 1.032081e+01
0	 5.555556e+00	 1.555556e+00	 1.032591e+01
0	 5.555556e+00	 1.629630e+00	 1.033078e+01
0	 5.555556e+00	 1.703704e+00	 1.033547e+01
0	 5.555556e+00	 1.777778e+00	 1.034002e+01
0	 5.555556e+00	 1.851852e+00	 1.034447e+01
0	 5.185185e+00	 1.851852e+00	 1.041529e+01
0	 5.185185e+00	 1.925926e+00	 1.041976e+01
0	 5.185185e+00	 2.000000e+00	 1.042376e+01
0	 5.185185e+00	 2.074074e+00	 1.042734e+01
0	 5.185185e+00	 2.148148e+00	 1.043053e+01
0	 5.185185e+00	 2.222222e+00	 1.043337e+01
0	 5.259259e+00	 1.851852e+00	 1.040029e+01
0	 5.259259e+00	 1.925926e+00	 1.040469e+01
0	 5.259259e+00	 2.000000e+00	 1.040867e+01
0	 5.259259e+00	 2.074074e+00	 1.041227e+01
0	 5.259259e+00	 2.148148e+00	 1.041551e+01
0	 5.259259e+00	 2.222222e+00	 1.041843e+01
0	 5.333333e+00	 1.851852e+00	 1.038575e+01
0	 5.333333e+00	 1.925926e+00	 1.039011e+01
0	 5.333333e+00	 2.000000e+00	 1.039407e+01
0	 5.333333e+00	 2.074074e+00	 1.039767e+01
0	 5.333333e+00	 2.148148e+00	 1.040094e+01
0	 5.333333e+00	 2.222222e+00	 1.040390e+01
0	 5.407407e+00	 1.851852e+00	 1.037163e+01
0	 5.407407e+00	 1.925926e+00	 1.037595e+01
0	 5.407407e+00	 2.000000e+00	 1.037989e+01
0	 5.407407e+00	 2.074074e+00	 1.038348e+01
0	 5.407407e+00	 2.148148e+00	 1.038676e+01
0	 5.407407e+00	 2.222222e+00	 1.038973e+01
0	 5.481481e+00	 1.851852e+00	 1.035789e+01
0	 5.481481e+00	 1.925926e+00	 1.036217e+01
0	 5.481481e+00	 2.000000e+00	 1.036608e+01
0	 5.481481e+00	 2.074074e+00	 1.036965e+01
0	 5.481481e+00	 2.148148e+00	 1.037291e+01
0	 5.481481e+00	 2.222222e+00	 1.037589e+01
0	 5.555556e+00	 1.851852e+00	 1.034447e+01
0	 5.555556e+00	 1.925926e+00	 1.034870e+01
0	 5.555556e+00	 2.000000e+00	 1.035257e+01
0	 5.555556e+00	 2.074074e+00	 1.035611e+01
0	 5.555556e+00	 2.148148e+00	 1.035935e+01
0	 5.555556e+00	 2.222222e+00	 1.036232e+01
0	 5.185185e+00	 2.222222e+00	 1.043337e+01
0	 5.185185e+00	 2.296296e+00	 1.043577e+01
0	 5.185185e+00	 2.370370e+00	 1.043763e+01
0	 5.185185e+00	 2.444444e+00	 1.043897e+01
0	 5.185185e+00	 2.518519e+00	 1.043980e+01
0	 5.185185e+00	 2.592593e+00	 1.044012e+01
0	 5.259259e+00	 2.222222e+00	 1.041843e+01
0	 5.259259e+00	 2.296296e+00	 1.042094e+01
0	 5.259259e+00	 2.370370e+00	 1.042293e+01
0	 5.259259e+00	 2.444444e+00	 1.042441e+01
0	 5.259259e+00	 2.518519e+00	 1.042541e+01
0	 5.259259e+00	 2.592593e+00	 1.042593e+01
0	 5.333333e+00	 2.222222e+00	 1.040390e+01
0	 5.333333e+00	 2.296296e+00	 1.040648e+01
0	 5.333333e+00	 2.370370e+00	 1.040855e+01
0	 5.333333e+00	 2.444444e+00	 1.041016e+01
0	 5.333333e+00	 2.518519e+00	 1.041131e+01
0	 5.333333e+00	 2.592593e+00	 1.041202e+01
0	 5.407407e+00	 2.222222e+00	 1.038973e+01
0	 5.407407e+00	 2.296296e+00	 1.039234e+01
0	 5.407407e+00	 2.370370e+00	 1.039449e+01
0	 5.407407e+00	 2.444444e+00	 1.039620e+01
0	 5.407407e+00	 2.518519e+00	 1.039749e+01
0	 5.407407e+00	 2.592593e+00	 1.039839e+01
0	 5.481481e+00	 2.222222e+00	 1.037589e+01
0	 5.481481e+00	 2.296296e+00	 1.037851e+01
0	 5.481481e+00	 2.370370e+00	 1.038071e+01
0	 5.481481e+00	 2.444444e+00	 1.038252e+01
0	 5.481481e+00	 2.518519e+00	 1.038394e+01
0	 5.481481e+00	 2.592593e+00	 1.038501e+01
0	 5.555556e+00	 2.222222e+00	 1.036232e+01
0	 5.555556e+00	 2.296296e+00	 1.036496e+01
0	 5.555556e+00	 2.370370e+00	 1.036722e+01
0	 5.555556e+00	 2.444444e+00	 1.036911e+01
0	 5.555556e+00	 2.518519e+00	 1.037065e+01
0	 5.555556e+00	 2.592593e+00	 1.037187e+01
0	 5.185185e+00	 2.592593e+00	 1.044012e+01
0	 5.185185e+00	 2.666667e+00	 1.043997e+01
0	 5.185185e+00	 2.740741e+00	 1.043935e+01
0	 5.185185e+00	 2.814815e+00	 1.043827e+01
0	 5.185185e+00	 2.888889e+00	 1.043674e+01
0	 5.185185e+00	 2.962963e+00	 1.043476e+01
0	 5.259259e+00	 2.592593e+00	 1.042593e+01
0	 5.259259e+00	 2.666667e+00	 1.042600e+01
0	 5.259259e+00	 2.740741e+00	 1.042564e+01
0	 5.259259e+00	 2.814815e+00	 1.042485e+01
0	 5.259259e+00	 2.888889e+00	 1.042362e+01
0	 5.259259e+00	 2.962963e+00	 1.042197e+01
0	 5.333333e+00	 2.592593e+00	 1.041202e+01
0	 5.333333e+00	 2.666667e+00	 1.041232e+01
0	 5.333333e+00	 2.740741e+00	 1.041220e+01
0	 5.333333e+00	 2.814815e+00	 1.041165e+01
0	 5.333333e+00	 2.888889e+00	 1.041070e+01
0	 5.333333e+00	 2.962963e+00	 1.040933e+01
0	 5.407407e+00	 2.592593e+00	 1.039839e+01
0	 5.407407e+00	 2.666667e+00	 1.039889e+01
0	 5.407407e+00	 2.740741e+00	 1.039899e+01
0	 5.407407e+00	 2.814815e+00	 1.039868e+01
0	 5.407407e+00	 2.888889e+00	 1.039796e+01
0	 5.407407e+00	 2.962963e+00	 1.039684e+01
0	 5.481481e+00	 2.592593e+00	 1.038501e+01
0	 5.481481e+00	 2.666667e+00	 1.038570e+01
0	 5.481481e+00	 2.740741e+00	 1.038600e+01
0	 5.481481e+00	 2.814815e+00	 1.038589e+01
0	 5.481481e+00	 2.888889e+00	 1.038539e+01
0	 5.481481e+00	 2.962963e+00	 1.038449e+01
0	 5.555556e+00	 2.592593e+00	 1.037187e+01
0	 5.555556e+00	 2.666667e+00	 1.037273e+01
0	 5.555556e+00	 2.740741e+00	 1.037320e+01
0	 5.555556e+00	 2.814815e+00	 1.037327e+01
0	 5.555556e+00	 2.888889e+00	 1.037296e+01
0	 5.555556e+00	 2.962963e+00	 1.037227e+01
0	 5.185185e+00	 2.962963e+00	 1.043476e+01
0	 5.185185e+00	 3.037037e+00	 1.043237e+01
0	 5.185185e+00	 3.111111e+00	 1.042957e+01
0	 5.185185e+00	 3.185185e+00	 1.042636e+01
0	 5.185185e+00	 3.259259e+00	 1.042274e+01
0	 5.185185e+00	 3.333333e+00	 1.041868e+01
0	 5.259259e+00	 2.962963e+00	 1.042197e+01
0	 5.259259e+00	 3.037037e+00	 1.041990e+01
0	 5.259259e+00	 3.111111e+00	 1.041744e+01
0	 5.259259e+00	 3.185185e+00	 1.041458e+01
0	 5.259259e+00	 3.259259e+00	 1.041131e+01
0	 5.259259e+00	 3.333333e+00	 1.040762e+01
0	 5.333333e+00	 2.962963e+00	 1.040933e+01
0	 5.333333e+00	 3.037037e+00	 1.040756e+01
0	 5.333333e+00	 3.111111e+00	 1.040540e+01
0	 5.333333e+00	 3.185185e+00	 1.040285e+01
0	 5.333333e+00	 3.259259e+00	 1.039992e+01
0	 5.333333e+00	 3.333333e+00	 1.039658e+01
0	 5.407407e+00	 2.962963e+00	 1.039684e+01
0	 5.407407e+00	 3.037037e+00	 1.039533e+01
0	 5.407407e+00	 3.111111e+00	 1.039345e+01
0	 5.407407e+00	 3.185185e+00	 1.039120e+01
0	 5.407407e+00	 3.259259e+00	 1.038857e+01
0	 5.407407e+00	 3.333333e+00	 1.038557e+01
0	 5.481481e+00	 2.962963e+00	 1.038449e+01
0	 5.481481e+00	 3.037037e+00	 1.038322e+01
0	 5.481481e+00	 3.111111e+00	 1.038159e+01
0	 5.481481e+00	 3.185185e+00	 1.037962e+01
0	 5.481481e+00	 3.259259e+00	 1.037729e+01
0	 5.481481e+00	 3.333333e+00	 1.037461e+01
0	 5.555556e+00	 2.962963e+00	 1.037227e+01
0	 5.555556e+00	 3.037037e+00	 1.037123e+01
0	 5.555556e+00	 3.111111e+00	 1.036985e+01
0	 5.555556e+00	 3.185185e+00	 1.036814e+01
0	 5.555556e+00	 3.259259e+00	 1.036609e+01
0	 5.555556e+00	 3.333333e+00	 1.036370e+01
0	 5.185185e+00	 3.333333e+00	 1.041868e+01
0	 5.185185e+00	 3.407407e+00	 1.041428e+01
0	 5.185185e+00	 3.481481e+00	 1.040960e+01
0	 5.185185e+00	 3.555556e+00	 1.040464e+01
0	 5.185185e+00	 3.629630e+00	 1.039938e+01
0	 5.185185e+00	 3.703704e+00	 1.039382e+01
0	 5.259259e+00	 3.333333e+00	 1.040762e+01
0	 5.259259e+00	 3.407407e+00	 1.040359e+01
0	 5.259259e+00	 3.481481e+00	 1.039930e+01
0	 5.259259e+00	 3.555556e+00	 1.039473e+01
0	 5.259259e+00	 3.629630e+00	 1.038987e+01
0	 5.259259e+00	 3.703704e+00	 1.038470e+01
0	 5.333333e+00	 3.333333e+00	 1.039658e+01
0	 5.333333e+00	 3.407407e+00	 1.039291e+01
0	 5.333333e+00	 3.481481e+00	 1.038899e+01
0	 5.333333e+00	 3.555556e+00	 1.038478e+01
0	 5.333333e+00	 3.629630e+00	 1.038028e+01
0	 5.333333e+00	 3.703704e+00	 1.037548e+01
0	 5.407407e+00	 3.333333e+00	 1.038557e+01
0	 5.407407e+00	 3.407407e+00	 1.038225e+01
0	 5.407407e+00	 3.481481e+00	 1.037867e+01
0	 5.407407e+00	 3.555556e+00	 1.037481e+01
0	 5.407407e+00	 3.629630e+00	 1.037065e+01
0	 5.407407e+00	 3.703704e+00	 1.036619e+01
0	 5.481481e+00	 3.333333e+00	 1.037461e+01
0	 5.481481e+00	 3.407407e+00	 1.037162e+01
0	 5.481481e+00	 3.481481e+00	 1.036836e+01
0	 5.481481e+00	 3.555556e+00	 1.036482e+01
0	 5.481481e+00	 3.629630e+00	 1.036098e+01
0	 5.481481e+00	 3.703704e+00	 1.035685e+01
0	 5.555556e+00	 3.333333e+00	 1.036370e+01
0	 5.555556e+00	 3.407407e+00	 1.036102e+01
0	 5.555556e+00	 3.481481e+00	 1.035806e+01
0	 5.555556e+00	 3.555556e+00	 1.035482e+01
0	 5.555556e+00	 3.629630e+00	 1.035129e+01
0	 5.555556e+00	 3.703704e+00	 1.034746e+01
0	 5.185185e+00	 3.703704e+00	 1.039382e+01
0	 5.185185e+00	 3.777778e+00	 1.038801e+01
0	 5.185185e+00	 3.851852e+00	 1.038203e+01
0	 5.185185e+00	 3.925926e+00	 1.037585e+01
0	 5.185185e+00	 4.000000e+00	 1.036947e+01
0	 5.185185e+00	 4.074074e+00	 1.036285e+01
0	 5.259259e+00	 3.703704e+00	 1.038470e+01
0	 5.259259e+00	 3.777778e+00	 1.037928e+01
0	 5.259259e+00	 3.851852e+00	 1.037368e+01
0	 5.259259e+00	 3.925926e+00	 1.036788e+01
0	 5.259259e+00	 4.000000e+00	 1.036187e+01
0	 5.259259e+00	 4.074074e+00	 1.035562e+01
0	 5.333333e+00	 3.703704e+00	 1.037548e+01
0	 5.333333e+00	 3.777778e+00	 1.037043e+01
0	 5.333333e+00	 3.851852e+00	 1.036519e+01
0	 5.333333e+00	 3.925926e+00	 1.035975e+01
0	 5.333333e+00	 4.000000e+00	 1.035410e+01
0	 5.333333e+00	 4.074074e+00	 1.034821e+01
0	 5.407407e+00	 3.703704e+00	 1.036619e+01
0	 5.407407e+00	 3.777778e+00	 1.036148e+01
0	 5.407407e+00	 3.851852e+00	 1.035659e+01
0	 5.407407e+00	 3.925926e+00	 1.035149e+01
0	 5.407407e+00	 4.000000e+00	 1.034618e+01
0	 5.407407e+00	 4.074074e+00	 1.034064e+01
0	 5.481481e+00	 3.703704e+00	 1.035685e+01
0	 5.481481e+00	 3.777778e+00	 1.035246e+01
0	 5.481481e+00	 3.851852e+00	 1.034789e+01
0	 5.481481e+00	 3.925926e+00	 1.034312e+01
0	 5.481481e+00	 4.000000e+00	 1.033814e+01
0	 5.481481e+00	 4.074074e+00	 1.033294e+01
0	 5.555556e+00	 3.703704e+00	 1.034746e+01
0	 5.555556e+00	 3.777778e+00	 1.034339e+01
0	 5.555556e+00	 3.851852e+00	 1.033913e+01
0	 5.555556e+00	 3.925926e+00	 1.033467e+01
0	 5.555556e+00	 4.000000e+00	 1.033001e+01
0	 5.555556e+00	 4.074074e+00	 1.032514e+01
0	 5.185185e+00	 4.074074e+00	 1.036285e+01
0	 5.185185e+00	 4.148148e+00	 1.035608e+01
0	 5.185185e+00	 4.222222e+00	 1.034924e+01
0	 5.185185e+00	 4.296296e+00	 1.034231e+01
0	 5.185185e+00	 4.370370e+00	 1.033528e+01
0	 5.185185e+00	 4.444444e+00	 1.032813e+01
0	 5.259259e+00	 4.074074e+00	 1.035562e+01
0	 5.259259e+00	 4.148148e+00	 1.034922e+01
0	 5.259259e+00	 4.222222e+00	 1.034274e+01
0	 5.259259e+00	 4.296296e+00	 1.033617e+01
0	 5.259259e+00	 4.370370e+00	 1.032948e+01
0	 5.259259e+00	 4.444444e+00	 1.032266e+01
0	 5.333333e+00	 4.074074e+00	 1.034821e+01
0	 5.333333e+00	 4.148148e+00	 1.034217e+01
0	 5.333333e+00	 4.222222e+00	 1.033604e+01
0	 5.333333e+00	 4.296296e+00	 1.032980e+01
0	 5.333333e+00	 4.370370e+00	 1.032344e+01
0	 5.333333e+00	 4.444444e+00	 1.031695e+01
0	 5.407407e+00	 4.074074e+00	 1.034064e+01
0	 5.407407e+00	 4.148148e+00	 1.033494e+01
0	 5.407407e+00	 4.222222e+00	 1.032915e+01
0	 5.407407e+00	 4.296296e+00	 1.032324e+01
0	 5.407407e+00	 4.370370e+00	 1.031720e+01
0	 5.407407e+00	 4.444444e+00	 1.031102e+01
0	 5.481481e+00	 4.074074e+00	 1.033294e+01
0	 5.481481e+00	 4.148148e+00	 1.032758e+01
0	 5.481481e+00	 4.222222e+00	 1.032211e+01
0	 5.481481e+00	 4.296296e+00	 1.031651e+01
0	 5.481481e+00	 4.370370e+00	 1.031078e+01
0	 5.481481e+00	 4.444444e+00	 1.030491e+01
0	 5.555556e+00	 4.074074e+00	 1.032514e+01
0	 5.555556e+00	 4.148148e+00	 1.032009e+01
0	 5.555556e+00	 4.222222e+00	 1.031493e+01
0	 5.555556e+00	 4.296296e+00	 1.030964e+01
0	 5.555556e+00	 4.370370e+00	 1.030421e+01
0	 5.555556e+00	 4.444444e+00	 1.029863e+01
0	 5.185185e+00	 4.444444e+00	 1.032813e+01
0	 5.185185e+00	 4.518519e+00	 1.032092e+01
0	 5.185185e+00	 4.592593e+00	 1.031370e+01
0	 5.185185e+00	 4.666667e+00	 1.030646e+01
0	 5.185185e+00	 4.740741e+00	 1.029918e+01
0	 5.185185e+00	 4.814815e+00	 1.029186e+01
0	 5.259259e+00	 4.444444e+00	 1.032266e+01
0	 5.259259e+00	 4.518519e+00	 1.031578e+01
0	 5.259259e+00	 4.592593e+00	 1.030887e+01
0	 5.259259e+00	 4.666667e+00	 1.030193e+01
0	 5.259259e+00	 4.740741e+00	 1.029495e+01
0	 5.259259e+00	 4.814815e+00	 1.028791e+01
0	 5.333333e+00	 4.444444e+00	 1.031695e+01
0	 5.333333e+00	 4.518519e+00	 1.031038e+01
0	 5.333333e+00	 4.592593e+00	 1.030378e+01
0	 5.333333e+00	 4.666667e+00	 1.029713e+01
0	 5.333333e+00	 4.740741e+00	 1.029044e+01
0	 5.333333e+00	 4.814815e+00	 1.028368e+01
0	 5.407407e+00	 4.444444e+00	 1.031102e+01
0	 5.407407e+00	 4.518519e+00	 1.030475e+01
0	 5.407407e+00	 4.592593e+00	 1.029845e+01
0	 5.407407e+00	 4.666667e+00	 1.029209e+01
0	 5.407407e+00	 4.740741e+00	 1.028568e+01
0	 5.407407e+00	 4.814815e+00	 1.027919e+01
0	 5.481481e+00	 4.444444e+00	 1.030491e+01
0	 5.481481e+00	 4.518519e+00	 1.029893e+01
0	 5.481481e+00	 4.592593e+00	 1.029291e+01
0	 5.481481e+00	 4.666667e+00	 1.028684e+01
0	 5.481481e+00	 4.740741e+00	 1.028070e+01
0	 5.481481e+00	 4.814815e+00	 1.027449e+01
0	 5.555556e+00	 4.444444e+00	 1.029863e+01
0	 5.555556e+00	 4.518519e+00	 1.029294e+01
0	 5.555556e+00	 4.592593e+00	 1.028720e+01
0	 5.555556e+00	 4.666667e+00	 1.028141e+01
0	 5.555556e+00	 4.740741e+00	 1.027554e+01
0	 5.555556e+00	 4.814815e+00	 1.026959e+01
0	 5.185185e+00	 4.814815e+00	 1.029186e+01
0	 5.185185e+00	 4.888889e+00	 1.028454e+01
0	 5.185185e+00	 4.962963e+00	 1.027727e+01
0	 5.185185e+00	 5.037037e+00	 1.027003e+01
0	 5.185185e+00	 5.111111e+00	 1.026283e+01
0	 5.185185e+00	 5.185185e+00	 1.025565e+01
0	 5.259259e+00	 4.814815e+00	 1.028791e+01
0	 5.259259e+00	 4.888889e+00	 1.028086e+01
0	 5.259259e+00	 4.962963e+00	 1.027385e+01
0	 5.259259e+00	 5.037037e+00	 1.026687e+01
0	 5.259259e+00	 5.111111e+00	 1.025991e+01
0	 5.259259e+00	 5.185185e+00	 1.025295e+01
0	 5.333333e+00	 4.814815e+00	 1.028368e+01
0	 5.333333e+00	 4.888889e+00	 1.027690e+01
0	 5.333333e+00	 4.962963e+00	 1.027015e+01
0	 5.333333e+00	 5.037037e+00	 1.026342e+01
0	 5.333333e+00	 5.111111e+00	 1.025669e+01
0	 5.333333e+00	 5.185185e+00	 1.024997e+01
0	 5.407407e+00	 4.814815e+00	 1.027919e+01
0	 5.407407e+00	 4.888889e+00	 1.027268e+01
0	 5.407407e+00	 4.962963e+00	 1.026619e+01
0	 5.407407e+00	 5.037037e+00	 1.025971e+01
0	 5.407407e+00	 5.111111e+00	 1.025322e+01
0	 5.407407e+00	 5.185185e+00	 1.024672e+01
0	 5.481481e+00	 4.814815e+00	 1.027449e+01
0	 5.481481e+00	 4.888889e+00	 1.026824e+01
0	 5.481481e+00	 4.962963e+00	 1.026200e+01
0	 5.481481e+00	 5.037037e+00	 1.025576e+01
0	 5.481481e+00	 5.111111e+00	 1.024951e+01
0	 5.481481e+00	 5.185185e+00	 1.024323e+01
0	 5.555556e+00	 4.814815e+00	 1.026959e+01
0	 5.555556e+00	 4.888889e+00	 1.026360e+01
0	 5.555556e+00	 4.962963e+00	 1.025761e+01
0	 5.555556e+00	 5.037037e+00	 1.025161e+01
0	 5.555556e+00	 5.111111e+00	 1.024559e+01
0	 5.555556e+00	 5.185185e+00	 1.023953e+01
0	 5.185185e+00	 5.185185e+00	 1.025565e+01
0	 5.185185e+00	 5.259259e+00	 1.024852e+01
0	 5.185185e+00	 5.333333e+00	 1.024147e+01
0	 5.185185e+00	 5.407407e+00	 1.023450e+01
0	 5.185185e+00	 5.481481e+00	 1.022759e+01
0	 5.185185e+00	 5.555556e+00	 1.022074e+01
0	 5.259259e+00	 5.185185e+00	 1.025295e+01
0	 5.259259e+00	 5.259259e+00	 1.024604e+01
0	 5.259259e+00	 5.333333e+00	 1.023920e+01
0	 5.259259e+00	 5.407407e+00	 1.023242e+01
0	 5.259259e+00	 5.481481e+00	 1.022570e+01
0	 5.259259e+00	 5.555556e+00	 1.021902e+01
0	 5.333333e+00	 5.185185e+00	 1.024997e+01
0	 5.333333e+00	 5.259259e+00	 1.024327e+01
0	 5.333333e+00	 5.333333e+00	 1.023664e+01
0	 5.333333e+00	 5.407407e+00	 1.023006e+01
0	 5.333333e+00	 5.481481e+00	 1.022352e+01
0	 5.333333e+00	 5.555556e+00	 1.021703e+01
0	 5.407407e+00	 5.185185e+00	 1.024672e+01
0	 5.407407e+00	 5.259259e+00	 1.024024e+01
0	 5.407407e+00	 5.333333e+00	 1.023381e+01
0	 5.407407e+00	 5.407407e+00	 1.022743e+01
0	 5.407407e+00	 5.481481e+00	 1.022108e+01
0	 5.407407e+00	 5.555556e+00	 1.021477e+01
0	 5.481481e+00	 5.185185e+00	 1.024323e+01
0	 5.481481e+00	 5.259259e+00	 1.023697e+01
0	 5.481481e+00	 5.333333e+00	 1.023075e+01
0	 5.481481e+00	 5.407407e+00	 1.022456e+01
0	 5.481481e+00	 5.481481e+00	 1.021841e+01
0	 5.481481e+00	 5.555556e+00	 1.021228e+01
0	 5.555556e+00	 5.185185e+00	 1.023953e+01
0	 5.555556e+00	 5.259259e+00	 1.023348e+01
0	 5.555556e+00	 5.333333e+00	 1.022747e+01
0	 5.555556e+00	 5.407407e+00	 1.022148e+01
0	 5.555556e+00	 5.481481e+00	 1.021552e+01
0	 5.555556e+00	 5.555556e+00	 1.020957e+01
0	 5.185185e+00	 5.555556e+00	 1.022074e+01
0	 5.185185e+00	 5.629630e+00	 1.021396e+01
0	 5.185185e+00	 5.703704e+00	 1.020730e+01
0	 5.185185e+00	 5.777778e+00	 1.020073e+01
0	 5.185185e+00	 5.851852e+00	 1.019426e+01
0	 5.185185e+00	 5.925926e+00	 1.018787e+01
0	 5.259259e+00	 5.555556e+00	 1.021902e+01
0	 5.259259e+00	 5.629630e+00	 1.021242e+01
0	 5.259259e+00	 5.703704e+00	 1.020591e+01
0	 5.259259e+00	 5.777778e+00	 1.019949e+01
0	 5.259259e+00	 5.851852e+00	 1.019315e+01
0	 5.259259e+00	 5.925926e+00	 1.018690e+01
0	 5.333333e+00	 5.555556e+00	 1.021703e+01
0	 5.333333e+00	 5.629630e+00	 1.021059e+01
0	 5.333333e+00	 5.703704e+00	 1.020424e+01
0	 5.333333e+00	 5.777778e+00	 1.019798e+01
0	 5.333333e+00	 5.851852e+00	 1.019178e+01
0	 5.333333e+00	 5.925926e+00	 1.018566e+01
0	 5.407407e+00	 5.555556e+00	 1.021477e+01
0	 5.407407e+00	 5.629630e+00	 1.020851e+01
0	 5.407407e+00	 5.703704e+00	 1.020232e+01
0	 5.407407e+00	 5.777778e+00	 1.019621e+01
0	 5.407407e+00	 5.851852e+00	 1.019016e+01
0	 5.407407e+00	 5.925926e+00	 1.018417e+01
0	 5.481481e+00	 5.555556e+00	 1.021228e+01
0	 5.481481e+00	 5.629630e+00	 1.020619e+01
0	 5.481481e+00	 5.703704e+00	 1.020017e+01
0	 5.481481e+00	 5.777778e+00	 1.019421e+01
0	 5.481481e+00	 5.851852e+00	 1.018832e+01
0	 5.481481e+00	 5.925926e+00	 1.018247e+01
0	 5.555556e+00	 5.555556e+00	 1.020957e+01
0	 5.555556e+00	 5.629630e+00	 1.020366e+01
0	 5.555556e+00	 5.703704e+00	 1.019781e+01
0	 5.555556e+00	 5.777778e+00	 1.019201e+01
0	 5.555556e+00	 5.851852e+00	 1.018626e+01
0	 5.555556e+00	 5.925926e+00	 1.018055e+01
0	 5.185185e+00	 5.925926e+00	 1.018787e+01
0	 5.185185e+00	 6.000000e+00	 1.018158e+01
0	 5.185185e+00	 6.074074e+00	 1.017541e+01
0	 5.185185e+00	 6.148148e+00	 1.016934e+01
0	 5.185185e+00	 6.222222e+00	 1.016338e+01
0	 5.185185e+00	 6.296296e+00	 1.015751e+01
0	 5.259259e+00	 5.925926e+00	 1.018690e+01
0	 5.259259e+00	 6.000000e+00	 1.018073e+01
0	 5.259259e+00	 6.074074e+00	 1.017466e+01
0	 5.259259e+00	 6.148148e+00	 1.016870e+01
0	 5.259259e+00	 6.222222e+00	 1.016283e+01
0	 5.259259e+00	 6.296296e+00	 1.015706e+01
0	 5.333333e+00	 5.925926e+00	 1.018566e+01
0	 5.333333e+00	 6.000000e+00	 1.017961e+01
0	 5.333333e+00	 6.074074e+00	 1.017367e+01
0	 5.333333e+00	 6.148148e+00	 1.016781e+01
0	 5.333333e+00	 6.222222e+00	 1.016205e+01
0	 5.333333e+00	 6.296296e+00	 1.015637e+01
0	 5.407407e+00	 5.925926e+00	 1.018417e+01
0	 5.407407e+00	 6.000000e+00	 1.017826e+01
0	 5.407407e+00	 6.074074e+00	 1.017243e+01
0	 5.407407e+00	 6.148148e+00	 1.016670e+01
0	 5.407407e+00	 6.222222e+00	 1.016104e+01
0	 5.407407e+00	 6.296296e+00	 1.015546e+01
0	 5.481481e+00	 5.925926e+00	 1.018247e+01
0	 5.481481e+00	 6.000000e+00	 1.017668e+01
0	 5.481481e+00	 6.074074e+00	 1.017098e+01
0	 5.481481e+00	 6.148148e+00	 1.016536e+01
0	 5.481481e+00	 6.222222e+00	 1.015982e+01
0	 5.481481e+00	 6.296296e+00	 1.015434e+01
0	 5.555556e+00	 5.925926e+00	 1.018055e+01
0	 5.555556e+00	 6.000000e+00	 1.017491e+01
0	 5.555556e+00	 6.074074e+00	 1.016934e+01
0	 5.555556e+00	 6.148148e+00	 1.016384e+01
0	 5.555556e+00	 6.222222e+00	 1.015841e+01
0	 5.555556e+00	 6.296296e+00	 1.015304e+01
0	 5.185185e+00	 6.296296e+00	 1.015751e+01
0	 5.185185e+00	 6.370370e+00	 1.015175e+01
0	 5.185185e+00	 6.444444e+00	 1.014611e+01
0	 5.185185e+00	 6.518519e+00	 1.014058e+01
0	 5.185185e+00	 6.592593e+00	 1.013516e+01
0	 5.185185e+00	 6.666667e+00	 1.012984e+01
0	 5.259259e+00	 6.296296e+00	 1.015706e+01
0	 5.259259e+00	 6.370370e+00	 1.015138e+01
0	 5.259259e+00	 6.444444e+00	 1.014581e+01
0	 5.259259e+00	 6.518519e+00	 1.014035e+01
0	 5.259259e+00	 6.592593e+00	 1.013499e+01
0	 5.259259e+00	 6.666667e+00	 1.012973e+01
0	 5.333333e+00	 6.296296e+00	 1.015637e+01
0	 5.333333e+00	 6.370370e+00	 1.015078e+01
0	 5.333333e+00	 6.444444e+00	 1.014529e+01
0	 5.333333e+00	 6.518519e+00	 1.013991e+01
0	 5.333333e+00	 6.592593e+00	 1.013462e+01
0	 5.333333e+00	 6.666667e+00	 1.012942e+01
0	 5.407407e+00	 6.296296e+00	 1.015546e+01
0	 5.407407e+00	 6.370370e+00	 1.014996e+01
0	 5.407407e+00	 6.444444e+00	 1.014456e+01
0	 5.407407e+00	 6.518519e+00	 1.013926e+01
0	 5.407407e+00	 6.592593e+00	 1.013404e+01
0	 5.407407e+00	 6.666667e+00	 1.012891e+01
0	 5.481481e+00	 6.296296e+00	 1.015434e+01
0	 5.481481e+00	 6.370370e+00	 1.014894e+01
0	 5.481481e+00	 6.444444e+00	 1.014364e+01
0	 5.481481e+00	 6.518519e+00	 1.013842e+01
0	 5.481481e+00	 6.592593e+00	 1.013328e+01
0	 5.481481e+00	 6.666667e+00	 1.012823e+01
0	 5.555556e+00	 6.296296e+00	 1.015304e+01
0	 5.555556e+00	 6.370370e+00	 1.014774e+01
0	 5.555556e+00	 6.444444e+00	 1.014253e+01
0	 5.555556e+00	 6.518519e+00	 1.013740e+01
0	 5.555556e+00	 6.592593e+00	 1.013235e+01
0	 5.555556e+00	 6.666667e+00	 1.012737e+01
0	 5.185185e+00	 6.666667e+00	 1.012984e+01
0	 5.185185e+00	 6.740741e+00	 1.012463e+01
0	 5.185185e+00	 6.814815e+00	 1.011953e+01
0	 5.185185e+00	 6.888889e+00	 1.011455e+01
0	 5.185185e+00	 6.962963e+00	 1.010966e+01
0	 5.185185e+00	 7.037037e+00	 1.010489e+01
0	 5.259259e+00	 6.666667e+00	 1.012973e+01
0	 5.259259e+00	 6.740741e+00	 1.012457e+01
0	 5.259259e+00	 6.814815e+00	 1.011952e+01
0	 5.259259e+00	 6.888889e+00	 1.011457e+01
0	 5.259259e+00	 6.962963e+00	 1.010973e+01
0	 5.259259e+00	 7.037037e+00	 1.010498e+01
0	 5.333333e+00	 6.666667e+00	 1.012942e+01
0	 5.333333e+00	 6.740741e+00	 1.012432e+01
0	 5.333333e+00	 6.814815e+00	 1.011932e+01
0	 5.333333e+00	 6.888889e+00	 1.011442e+01
0	 5.333333e+00	 6.962963e+00	 1.010961e+01
0	 5.333333e+00	 7.037037e+00	 1.010491e+01
0	 5.407407e+00	 6.666667e+00	 1.012891e+01
0	 5.407407e+00	 6.740741e+00	 1.012387e+01
0	 5.407407e+00	 6.814815e+00	 1.011893e+01
0	 5.407407e+00	 6.888889e+00	 1.011409e+01
0	 5.407407e+00	 6.962963e+00	 1.010933e+01
0	 5.407407e+00	 7.037037e+00	 1.010467e+01
0	 5.481481e+00	 6.666667e+00	 1.012823e+01
0	 5.481481e+00	 6.740741e+00	 1.012325e+01
0	 5.481481e+00	 6.814815e+00	 1.011838e+01
0	 5.481481e+00	 6.888889e+00	 1.011359e+01
0	 5.481481e+00	 6.962963e+00	 1.010889e+01
0	 5.481481e+00	 7.037037e+00	 1.010427e+01
0	 5.555556e+00	 6.666667e+00	 1.012737e+01
0	 5.555556e+00	 6.740741e+00	 1.012247e+01
0	 5.555556e+00	 6.814815e+00	 1.011766e+01
0	 5.555556e+00	 6.888889e+00	 1.011294e+01
0	 5.555556e+00	 6.962963e+00	 1.010830e+01
0	 5.555556e+00	 7.037037e+00	 1.010374e+01
0	 5.185185e+00	 7.037037e+00	 1.010489e+01
0	 5.185185e+00	 7.111111e+00	 1.010022e+01
0	 5.185185e+00	 7.185185e+00	 1.009565e+01
0	 5.185185e+00	 7.259259e+00	 1.009119e+01
0	 5.185185e+00	 7.333333e+00	 1.008683e+01
0	 5.185185e+00	 7.407407e+00	 1.008258e+01
0	 5.259259e+00	 7.037037e+00	 1.010498e+01
0	 5.259259e+00	 7.111111e+00	 1.010034e+01
0	 5.259259e+00	 7.185185e+00	 1.009580e+01
0	 5.259259e+00	 7.259259e+00	 1.009136e+01
0	 5.259259e+00	 7.333333e+00	 1.008701e+01
0	 5.259259e+00	 7.407407e+00	 1.008277e+01
0	 5.333333e+00	 7.037037e+00	 1.010491e+01
0	 5.333333e+00	 7.111111e+00	 1.010029e+01
0	 5.333333e+00	 7.185185e+00	 1.009578e+01
0	 5.333333e+00	 7.259259e+00	 1.009137e+01
0	 5.333333e+00	 7.333333e+00	 1.008705e+01
0	 5.333333e+00	 7.407407e+00	 1.008282e+01
0	 5.407407e+00	 7.037037e+00	 1.010467e+01
0	 5.407407e+00	 7.111111e+00	 1.010009e+01
0	 5.407407e+00	 7.185185e+00	 1.009562e+01
0	 5.407407e+00	 7.259259e+00	 1.009124e+01
0	 5.407407e+00	 7.333333e+00	 1.008695e+01
0	 5.407407e+00	 7.407407e+00	 1.008274e+01
0	 5.481481e+00	 7.037037e+00	 1.010427e+01
0	 5.481481e+00	 7.111111e+00	 1.009974e+01
0	 5.481481e+00	 7.185185e+00	 1.009531e+01
0	 5.481481e+00	 7.259259e+00	 1.009097e+01
0	 5.481481e+00	 7.333333e+00	 1.008671e+01
0	 5.481481e+00	 7.407407e+00	 1.008254e+01
0	 5.555556e+00	 7.037037e+00	 1.010374e+01
0	 5.555556e+00	 7.111111e+00	 1.009926e+01
0	 5.555556e+00	 7.185185e+00	 1.009487e+01
0	 5.555556e+00	 7.259259e+00	 1.009057e+01
0	 5.555556e+00	 7.333333e+00	 1.008636e+01
0	 5.555556e+00	 7.407407e+00	 1.008222e+01
0	 5.185185e+00	 7.407407e+00	 1.008258e+01
0	 5.185185e+00	 7.481481e+00	 1.007842e+01
0	 5.185185e+00	 7.555556e+00	 1.007437e+01
0	 5.185185e+00	 7.629630e+00	 1.007042e+01
0	 5.185185e+00	 7.703704e+00	 1.006657e+01
0	 5.185185e+00	 7.777778e+00	 1.006281e+01
0	 5.259259e+00	 7.407407e+00	 1.008277e+01
0	 5.259259e+00	 7.481481e+00	 1.007862e+01
0	 5.259259e+00	 7.555556e+00	 1.007458e+01
0	 5.259259e+00	 7.629630e+00	 1.007063e+01
0	 5.259259e+00	 7.703704e+00	 1.006678e+01
0	 5.259259e+00	 7.777778e+00	 1.006302e+01
0	 5.333333e+00	 7.407407e+00	 1.008282e+01
0	 5.333333e+00	 7.481481e+00	 1.007869e+01
0	 5.333333e+00	 7.555556e+00	 1.007466e+01
0	 5.333333e+00	 7.629630e+00	 1.007073e+01
0	 5.333333e+00	 7.703704e+00	 1.006688e+01
0	 5.333333e+00	 7.777778e+00	 1.006313e+01
0	 5.407407e+00	 7.407407e+00	 1.008274e+01
0	 5.407407e+00	 7.481481e+00	 1.007864e+01
0	 5.407407e+00	 7.555556e+00	 1.007462e+01
0	 5.407407e+00	 7.629630e+00	 1.007070e+01
0	 5.407407e+00	 7.703704e+00	 1.006687e+01
0	 5.407407e+00	 7.777778e+00	 1.006313e+01
0	 5.481481e+00	 7.407407e+00	 1.008254e+01
0	 5.481481e+00	 7.481481e+00	 1.007846e+01
0	 5.481481e+00	 7.555556e+00	 1.007447e+01
0	 5.481481e+00	 7.629630e+00	 1.007057e+01
0	 5.481481e+00	 7.703704e+00	 1.006676e+01
0	 5.481481e+00	 7.777778e+00	 1.006304e+01
0	 5.555556e+00	 7.407407e+00	 1.008222e+01
0	 5.555556e+00	 7.481481e+00	 1.007817e+01
0	 5.555556e+00	 7.555556e+00	 1.007421e+01
0	 5.555556e+00	 7.629630e+00	 1.007034e+01
0	 5.555556e+00	 7.703704e+00	 1.006656e+01
0	 5.555556e+00	 7.777778e+00	 1.006286e+01
0	 5.185185e+00	 7.777778e+00	 1.006281e+01
0	 5.185185e+00	 7.851852e+00	 1.005915e+01
0	 5.185185e+00	 7.925926e+00	 1.005559e+01
0	 5.185185e+00	 8.000000e+00	 1.005213e+01
0	 5.185185e+00	 8.074074e+00	 1.004876e+01
0	 5.185185e+00	 8.148148e+00	 1.004549e+01
0	 5.259259e+00	 7.777778e+00	 1.006302e+01
0	 5.259259e+00	 7.851852e+00	 1.005936e+01
0	 5.259259e+00	 7.925926e+00	 1.005580e+01
0	 5.259259e+00	 8.000000e+00	 1.005233e+01
0	 5.259259e+00	 8.074074e+00	 1.004896e+01
0	 5.259259e+00	 8.148148e+00	 1.004568e+01
0	 5.333333e+00	 7.777778e+00	 1.006313e+01
0	 5.333333e+00	 7.851852e+00	 1.005947e+01
0	 5.333333e+00	 7.925926e+00	 1.005591e+01
0	 5.333333e+00	 8.000000e+00	 1.005245e+01
0	 5.333333e+00	 8.074074e+00	 1.004907e+01
0	 5.333333e+00	 8.148148e+00	 1.004579e+01
0	 5.407407e+00	 7.777778e+00	 1.006313e+01
0	 5.407407e+00	 7.851852e+00	 1.005948e+01
0	 5.407407e+00	 7.925926e+00	 1.005593e+01
0	 5.407407e+00	 8.000000e+00	 1.005247e+01
0	 5.407407e+00	 8.074074e+00	 1.004911e+01
0	 5.407407e+00	 8.148148e+00	 1.004582e+01
0	 5.481481e+00	 7.777778e+00	 1.006304e+01
0	 5.481481e+00	 7.851852e+00	 1.005941e+01
0	 5.481481e+00	 7.925926e+00	 1.005587e+01
0	 5.481481e+00	 8.000000e+00	 1.005242e+01
0	 5.481481e+00	 8.074074e+00	 1.004906e+01
0	 5.481481e+00	 8.148148e+00	 1.004579e+01
0	 5.555556e+00	 7.777778e+00	 1.006286e+01
0	 5.555556e+00	 7.851852e+00	 1.005924e+01
0	 5.555556e+00	 7.925926e+00	 1.005572e+01
0	 5.555556e+00	 8.000000e+00	 1.005229e+01
0	 5.555556e+00	 8.074074e+00	 1.004894e+01
0	 5.555556e+00	 8.148148e+00	 1.004568e+01
0	 5.185185e+00	 8.148148e+00	 1.004549e+01
0	 5.185185e+00	 8.222222e+00	 1.004231e+01
0	 5.185185e+00	 8.296296e+00	 1.003924e+01
0	 5.185185e+00	 8.370370e+00	 1.003627e+01
0	 5.185185e+00	 8.444444e+00	 1.003339e+01
0	 5.185185e+00	 8.518519e+00	 1.003060e+01
0	 5.259259e+00	 8.148148e+00	 1.004568e+01
0	 5.259259e+00	 8.222222e+00	 1.004249e+01
0	 5.259259e+00	 8.296296e+00	 1.003941e+01
0	 5.259259e+00	 8.370370e+00	 1.003643e+01
0	 5.259259e+00	 8.444444e+00	 1.003354e+01
0	 5.259259e+00	 8.518519e+00	 1.003074e+01
0	 5.333333e+00	 8.148148e+00	 1.004579e+01
0	 5.333333e+00	 8.222222e+00	 1.004260e+01
0	 5.333333e+00	 8.296296e+00	 1.003951e+01
0	 5.333333e+00	 8.370370e+00	 1.003653e+01
0	 5.333333e+00	 8.444444e+00	 1.003363e+01
0	 5.333333e+00	 8.518519e+00	 1.003083e+01
0	 5.407407e+00	 8.148148e+00	 1.004582e+01
0	 5.407407e+00	 8.222222e+00	 1.004264e+01
0	 5.407407e+00	 8.296296e+00	 1.003955e+01
0	 5.407407e+00	 8.370370e+00	 1.003656e+01
0	 5.407407e+00	 8.444444e+00	 1.003367e+01
0	 5.407407e+00	 8.518519e+00	 1.003086e+01
0	 5.481481e+00	 8.148148e+00	 1.004579e+01
0	 5.481481e+00	 8.222222e+00	 1.004261e+01
0	 5.481481e+00	 8.296296e+00	 1.003953e+01
0	 5.481481e+00	 8.370370e+00	 1.003654e+01
0	 5.481481e+00	 8.444444e+00	 1.003365e+01
0	 5.481481e+00	 8.518519e+00	 1.003085e+01
0	 5.555556e+00	 8.148148e+00	 1.004568e+01
0	 5.555556e+00	 8.222222e+00	 1.004251e+01
0	 5.555556e+00	 8.296296e+00	 1.003944e+01
0	 5.555556e+00	 8.370370e+00	 1.003647e+01
0	 5.555556e+00	 8.444444e+00	 1.003359e+01
0	 5.555556e+00	 8.518519e+00	 1.003079e+01
0	 5.185185e+00	 8.518519e+00	 1.003060e+01
0	 5.185185e+00	 8.592593e+00	 1.002792e+01
0	 5.185185e+00	 8.666667e+00	 1.002534e+01
0	 5.185185e+00	 8.740741e+00	 1.002288e+01
0	 5.185185e+00	 8.814815e+00	 1.002051e+01
0	 5.185185e+00	 8.888889e+00	 1.001824e+01
0	 5.259259e+00	 8.518519e+00	 1.003074e+01
0	 5.259259e+00	 8.592593e+00	 1.002805e+01
0	 5.259259e+00	 8.666667e+00	 1.002546e+01
0	 5.259259e+00	 8.740741e+00	 1.002298e+01
0	 5.259259e+00	 8.814815e+00	 1.002061e+01
0	 5.259259e+00	 8.888889e+00	 1.001833e+01
0	 5.333333e+00	 8.518519e+00	 1.003083e+01
0	 5.333333e+00	 8.592593e+00	 1.002813e+01
0	 5.333333e+00	 8.666667e+00	 1.002553e+01
0	 5.333333e+00	 8.740741e+00	 1.002305e+01
0	 5.333333e+00	 8.814815e+00	 1.002067e+01
0	 5.333333e+00	 8.888889e+00	 1.001838e+01
0	 5.407407e+00	 8.518519e+00	 1.003086e+01
0	 5.407407e+00	 8.592593e+00	 1.002816e+01
0	 5.407407e+00	 8.666667e+00	 1.002556e+01
0	 5.407407e+00	 8.740741e+00	 1.002308e+01
0	 5.407407e+00	 8.814815e+00	 1.002069e+01
0	 5.407407e+00	 8.888889e+00	 1.001840e+01
0	 5.481481e+00	 8.518519e+00	 1.003085e+01
0	 5.481481e+00	 8.592593e+00	 1.002815e+01
0	 5.481481e+00	 8.666667e+00	 1.002555e+01
0	 5.481481e+00	 8.740741e+00	 1.002307e+01
0	 5.481481e+00	 8.814815e+00	 1.002068e+01
0	 5.481481e+00	 8.888889e+00	 1.001839e+01
0	 5.555556e+00	 8.518519e+00	 1.003079e+01
0	 5.555556e+00	 8.592593e+00	 1.002809e+01
0	 5.555556e+00	 8.666667e+00	 1.002551e+01
0	 5.555556e+00	 8.740741e+00	 1.002302e+01
0	 5.555556e+00	 8.814815e+00	 1.002064e+01
0	 5.555556e+00	 8.888889e+00	 1.001836e+01
0	 5.185185e+00	 8.888889e+00	 1.001824e+01
0	 5.185185e+00	 8.962963e+00	 1.001609e+01
0	 5.185185e+00	 9.037037e+00	 1.001406e+01
0	 5.185185e+00	 9.111111e+00	 1.001215e+01
0	 5.185185e+00	 9.185185e+00	 1.001035e+01
0	 5.185185e+00	 9.259259e+00	 1.000866e+01
0	 5.259259e+00	 8.888889e+00	 1.001833e+01
0	 5.259259e+00	 8.962963e+00	 1.001616e+01
0	 5.259259e+00	 9.037037e+00	 1.001412e+01
0	 5.259259e+00	 9.111111e+00	 1.001220e+01
0	 5.259259e+00	 9.185185e+00	 1.001039e+01
0	 5.259259e+00	 9.259259e+00	 1.000870e+01
0	 5.333333e+00	 8.888889e+00	 1.001838e+01
0	 5.333333e+00	 8.962963e+00	 1.001620e+01
0	 5.333333e+00	 9.037037e+00	 1.001416e+01
0	 5.333333e+00	 9.111111e+00	 1.001223e+01
0	 5.333333e+00	 9.185185e+00	 1.001042e+01
0	 5.333333e+00	 9.259259e+00	 1.000872e+01
0	 5.407407e+00	 8.888889e+00	 1.001840e+01
0	 5.407407e+00	 8.962963e+00	 1.001622e+01
0	 5.407407e+00	 9.037037e+00	 1.001417e+01
0	 5.407407e+00	 9.111111e+00	 1.001224e+01
0	 5.407407e+00	 9.185185e+00	 1.001043e+01
0	 5.407407e+00	 9.259259e+00	 1.000873e+01
0	 5.481481e+00	 8.888889e+00	 1.001839e+01
0	 5.481481e+00	 8.962963e+00	 1.001621e+01
0	 5.481481e+00	 9.037037e+00	 1.001417e+01
0	 5.481481e+00	 9.111111e+00	 1.001224e+01
0	 5.481481e+00	 9.185185e+00	 1.001042e+01
0	 5.481481e+00	 9.259259e+00	 1.000872e+01
0	 5.555556e+00	 8.888889e+00	 1.001836e+01
0	 5.555556e+00	 8.962963e+00	 1.001618e+01
0	 5.555556e+00	 9.037037e+00	 1.001414e+01
0	 5.555556e+00	 9.111111e+00	 1.001221e+01
0	 5.555556e+00	 9.185185e+00	 1.001040e+01
0	 5.555556e+00	 9.259259e+00	 1.000870e+01
0	 5.185185e+00	 9.259259e+00	 1.000866e+01
0	 5.185185e+00	 9.333333e+00	 1.000710e+01
0	 5.185185e+00	 9.407407e+00	 1.000570e+01
0	 5.185185e+00	 9.481481e+00	 1.000444e+01
0	 5.185185e+00	 9.555556e+00	 1.000332e+01
0	 5.185185e+00	 9.629630e+00	 1.000233e+01
0	 5.259259e+00	 9.259259e+00	 1.000870e+01
0	 5.259259e+00	 9.333333e+00	 1.000713e+01
0	 5.259259e+00	 9.407407e+00	 1.000572e+01
0	 5.259259e+00	 9.481481e+00	 1.000446e+01
0	 5.259259e+00	 9.555556e+00	 1.000334e+01
0	 5.259259e+00	 9.629630e+00	 1.000234e+01
0	 5.333333e+00	 9.259259e+00	 1.000872e+01
0	 5.333333e+00	 9.333333e+00	 1.000715e+01
0	 5.333333e+00	 9.407407e+00	 1.000574e+01
0	 5.333333e+00	 9.481481e+00	 1.000447e+01
0	 5.333333e+00	 9.555556e+00	 1.000334e+01
0	 5.333333e+00	 9.629630e+00	 1.000235e+01
0	 5.407407e+00	 9.259259e+00	 1.000873e+01
0	 5.407407e+00	 9.333333e+00	 1.000716e+01
0	 5.407407e+00	 9.407407e+00	 1.000574e+01
0	 5.407407e+00	 9.481481e+00	 1.000447e+01
0	 5.407407e+00	 9.555556e+00	 1.000334e+01
0	 5.407407e+00	 9.629630e+00	 1.000235e+01
0	 5.481481e+00	 9.259259e+00	 1.000872e+01
0	 5.481481e+00	 9.333333e+00	 1.000715e+01
0	 5.481481e+00	 9.407407e+00	 1.000574e+01
0	 5.481481e+00	 9.481481e+00	 1.000447e+01
0	 5.481481e+00	 9.555556e+00	 1.000334e+01
0	 5.481481e+00	 9.629630e+00	 1.000234e+01
0	 5.555556e+00	 9.259259e+00	 1.000870e+01
0	 5.555556e+00	 9.333333e+00	 1.000713e+01
0	 5.555556e+00	 9.407407e+00	 1.000572e+01
0	 5.555556e+00	 9.481481e+00	 1.000446e+01
0	 5.555556e+00	 9.555556e+00	 1.000333e+01
0	 5.555556e+00	 9.629630e+00	 1.000234e+01
0	 5.185185e+00	 9.629630e+00	 1.000233e+01
0	 5.185185e+00	 9.703704e+00	 1.000150e+01
0	 5.185185e+00	 9.777778e+00	 1.000086e+01
0	 5.185185e+00	 9.851852e+00	 1.000040e+01
0	 5.185185e+00	 9.925926e+00	 1.000011e+01
0	 5.185185e+00	 1.000000e+01	 9.999973e+00
0	 5.259259e+00	 9.629630e+00	 1.000234e+01
0	 5.259259e+00	 9.703704e+00	 1.000151e+01
0	 5.259259e+00	 9.777778e+00	 1.000086e+01
0	 5.259259e+00	 9.851852e+00	 1.000040e+01
0	 5.259259e+00	 9.925926e+00	 1.000011e+01
0	 5.259259e+00	 1.000000e+01	 9.999973e+00
0	 5.333333e+00	 9.629630e+00	 1.000235e+01
0	 5.333333e+00	 9.703704e+00	 1.000151e+01
0	 5.333333e+00	 9.777778e+00	 1.000087e+01
0	 5.333333e+00	 9.851852e+00	 1.000040e+01
0	 5.333333e+00	 9.925926e+00	 1.000011e+01
0	 5.333333e+00	 1.000000e+01	 9.999973e+00
0	 5.407407e+00	 9.629630e+00	 1.000235e+01
0	 5.407407e+00	 9.703704e+00	 1.000151e+01
0	 5.407407e+00	 9.777778e+00	 1.000087e+01
0	 5.407407e+00	 9.851852e+00	 1.000040e+01
0	 5.407407e+00	 9.925926e+00	 1.000011e+01
0	 5.407407e+00	 1.000000e+01	 9.999973e+00
0	 5.481481e+00	 9.629630e+00	 1.000234e+01
0	 5.481481e+00	 9.703704e+00	 1.000151e+01
0	 5.481481e+00	 9.777778e+00	 1.000086e+01
0	 5.481481e+00	 9.851852e+00	 1.000040e+01
0	 5.481481e+00	 9.925926e+00	 1.000011e+01
0	 5.481481e+00	 1.000000e+01	 9.999974e+00
0	 5.555556e+00	 9.629630e+00	 1.000234e+01
0	 5.555556e+00	 9.703704e+00	 1.000150e+01
0	 5.555556e+00	 9.777778e+00	 1.000086e+01
0	 5.555556e+00	 9.851852e+00	 1.000040e+01
0	 5.555556e+00	 9.925926e+00	 1.000011e+01
0	 5.555556e+00	 1.000000e+01	 9.999975e+00
0	 5.555556e+00	 0.000000e+00	 1.025087e+01
0	 5.555556e+00	 7.407407e-02	 1.025095e+01
0	 5.555556e+00	 1.481481e-01	 1.025151e+01
0	 5.555556e+00	 2.222222e-01	 1.025258e+01
0	 5.555556e+00	 2.962963e-01	 1.025415e+01
0	 5.555556e+00	 3.703704e-01	 1.025623e+01
0	 5.629630e+00	 0.000000e+00	 1.024148e+01
0	 5.629630e+00	 7.407407e-02	 1.024157e+01
0	 5.629630e+00	 1.481481e-01	 1.024211e+01
0	 5.629630e+00	 2.222222e-01	 1.024313e+01
0	 5.629630e+00	 2.962963e-01	 1.024462e+01
0	 5.629630e+00	 3.703704e-01	 1.024661e+01
0	 5.703704e+00	 0.000000e+00	 1.023216e+01
0	 5.703704e+00	 7.407407e-02	 1.023229e+01
0	 5.703704e+00	 1.481481e-01	 1.023284e+01
0	 5.703704e+00	 2.222222e-01	 1.023383e+01
0	 5.703704e+00	 2.962963e-01	 1.023526e+01
0	 5.703704e+00	 3.703704e-01	 1.023716e+01
0	 5.777778e+00	 0.000000e+00	 1.022294e+01
0	 5.777778e+00	 7.407407e-02	 1.022313e+01
0	 5.777778e+00	 1.481481e-01	 1.022370e+01
0	 5.777778e+00	 2.222222e-01	 1.022467e+01
0	 5.777778e+00	 2.962963e-01	 1.022605e+01
0	 5.777778e+00	 3.703704e-01	 1.022785e+01
0	 5.851852e+00	 0.000000e+00	 1.021388e+01
0	 5.851852e+00	 7.407407e-02	 1.021412e+01
0	 5.851852e+00	 1.481481e-01	 1.021470e+01
0	 5.851852e+00	 2.222222e-01	 1.021565e+01
0	 5.851852e+00	 2.962963e-01	 1.021697e+01
0	 5.851852e+00	 3.703704e-01	 1.021869e+01
0	 5.925926e+00	 0.000000e+00	 1.020503e+01
0	 5.925926e+00	 7.407407e-02	 1.020527e+01
0	 5.925926e+00	 1.481481e-01	 1.020585e+01
0	 5.925926e+00	 2.222222e-01	 1.020676e+01
0	 5.925926e+00	 2.962963e-01	 1.020802e+01
0	 5.925926e+00	 3.703704e-01	 1.020965e+01
0	 5.555556e+00	 3.703704e-01	 1.025623e+01
0	 5.555556e+00	 4.444444e-01	 1.025872e+01
0	 5.555556e+00	 5.185185e-01	 1.026154e+01
0	 5.555556e+00	 5.925926e-01	 1.026470e+01
0	 5.555556e+00	 6.666667e-01	 1.026825e+01
0	 5.555556e+00	 7.407407e-01	 1.027222e+01
0	 5.629630e+00	 3.703704e-01	 1.024661e+01
0	 5.629630e+00	 4.444444e-01	 1.024899e+01
0	 5.629630e+00	 5.185185e-01	 1.025168e+01
0	 5.629630e+00	 5.925926e-01	 1.025471e+01
0	 5.629630e+00	 6.666667e-01	 1.025809e+01
0	 5.629630e+00	 7.407407e-01	 1.026186e+01
0	 5.703704e+00	 3.703704e-01	 1.023716e+01
0	 5.703704e+00	 4.444444e-01	 1.023943e+01
0	 5.703704e+00	 5.185185e-01	 1.024199e+01
0	 5.703704e+00	 5.925926e-01	 1.024487e+01
0	 5.703704e+00	 6.666667e-01	 1.024810e+01
0	 5.703704e+00	 7.407407e-01	 1.025170e+01
0	 5.777778e+00	 3.703704e-01	 1.022785e+01
0	 5.777778e+00	 4.444444e-01	 1.023001e+01
0	 5.777778e+00	 5.185185e-01	 1.023245e+01
0	 5.777778e+00	 5.925926e-01	 1.023520e+01
0	 5.777778e+00	 6.666667e-01	 1.023828e+01
0	 5.777778e+00	 7.407407e-01	 1.024171e+01
0	 5.851852e+00	 3.703704e-01	 1.021869e+01
0	 5.851852e+00	 4.444444e-01	 1.022073e+01
0	 5.851852e+00	 5.185185e-01	 1.022305e+01
0	 5.851852e+00	 5.925926e-01	 1.022567e+01
0	 5.851852e+00	 6.666667e-01	 1.022861e+01
0	 5.851852e+00	 7.407407e-01	 1.023189e+01
0	 5.925926e+00	 3.703704e-01	 1.020965e+01
0	 5.925926e+00	 4.444444e-01	 1.021159e+01
0	 5.925926e+00	 5.185185e-01	 1.021379e+01
0	 5.925926e+00	 5.925926e-01	 1.021628e+01
0	 5.925926e+00	 6.666667e-01	 1.021909e+01
0	 5.925926e+00	 7.407407e-01	 1.022222e+01
0	 5.555556e+00	 7.407407e-01	 1.027222e+01
0	 5.555556e+00	 8.148148e-01	 1.027645e+01
0	 5.555556e+00	 8.888889e-01	 1.028083e+01
0	 5.555556e+00	 9.629630e-01	 1.028538e+01
0	 5.555556e+00	 1.037037e+00	 1.029017e+01
0	 5.555556e+00	 1.111111e+00	 1.029521e+01
0	 5.629630e+00	 7.407407e-01	 1.026186e+01
0	 5.629630e+00	 8.148148e-01	 1.026589e+01
0	 5.629630e+00	 8.888889e-01	 1.027007e+01
0	 5.629630e+00	 9.629630e-01	 1.027442e+01
0	 5.629630e+00	 1.037037e+00	 1.027898e+01
0	 5.629630e+00	 1.111111e+00	 1.028380e+01
0	 5.703704e+00	 7.407407e-01	 1.025170e+01
0	 5.703704e+00	 8.148148e-01	 1.025554e+01
0	 5.703704e+00	 8.888889e-01	 1.025953e+01
0	 5.703704e+00	 9.629630e-01	 1.026369e+01
0	 5.703704e+00	 1.037037e+00	 1.026806e+01
0	 5.703704e+00	 1.111111e+00	 1.027267e+01
0	 5.777778e+00	 7.407407e-01	 1.024171e+01
0	 5.777778e+00	 8.148148e-01	 1.024538e+01
0	 5.777778e+00	 8.888889e-01	 1.024920e+01
0	 5.777778e+00	 9.629630e-01	 1.025318e+01
0	 5.777778e+00	 1.037037e+00	 1.025737e+01
0	 5.777778e+00	 1.111111e+00	 1.026179e+01
0	 5.851852e+00	 7.407407e-01	 1.023189e+01
0	 5.851852e+00	 8.148148e-01	 1.023540e+01
0	 5.851852e+00	 8.888889e-01	 1.023905e+01
0	 5.851852e+00	 9.629630e-01	 1.024287e+01
0	 5.851852e+00	 1.037037e+00	 1.024688e+01
0	 5.851852e+00	 1.111111e+00	 1.025113e+01
0	 5.925926e+00	 7.407407e-01	 1.022222e+01
0	 5.925926e+00	 8.148148e-01	 1.022558e+01
0	 5.925926e+00	 8.888889e-01	 1.022908e+01
0	 5.925926e+00	 9.629630e-01	 1.023274e+01
0	 5.925926e+00	 1.037037e+00	 1.023659e+01
0	 5.925926e+00	 1.111111e+00	 1.024066e+01
0	 5.555556e+00	 1.111111e+00	 1.029521e+01
0	 5.555556e+00	 1.185185e+00	 1.030036e+01
0	 5.555556e+00	 1.259259e+00	 1.030545e+01
0	 5.555556e+00	 1.333333e+00	 1.031053e+01
0	 5.555556e+00	 1.407407e+00	 1.031564e+01
0	 5.555556e+00	 1.481481e+00	 1.032081e+01
0	 5.629630e+00	 1.111111e+00	 1.028380e+01
0	 5.629630e+00	 1.185185e+00	 1.028873e+01
0	 5.629630e+00	 1.259259e+00	 1.029361e+01
0	 5.629630e+00	 1.333333e+00	 1.029848e+01
0	 5.629630e+00	 1.407407e+00	 1.030339e+01
0	 5.629630e+00	 1.481481e+00	 1.030837e+01
0	 5.703704e+00	 1.111111e+00	 1.027267e+01
0	 5.703704e+00	 1.185185e+00	 1.027739e+01
0	 5.703704e+00	 1.259259e+00	 1.028207e+01
0	 5.703704e+00	 1.333333e+00	 1.028676e+01
0	 5.703704e+00	 1.407407e+00	 1.029148e+01
0	 5.703704e+00	 1.481481e+00	 1.029629e+01
0	 5.777778e+00	 1.111111e+00	 1.026179e+01
0	 5.777778e+00	 1.185185e+00	 1.026632e+01
0	 5.777778e+00	 1.259259e+00	 1.027082e+01
0	 5.777778e+00	 1.333333e+00	 1.027533e+01
0	 5.777778e+00	 1.407407e+00	 1.027989e+01
0	 5.777778e+00	 1.481481e+00	 1.028453e+01
0	 5.851852e+00	 1.111111e+00	 1.025113e+01
0	 5.851852e+00	 1.185185e+00	 1.025548e+01
0	 5.851852e+00	 1.259259e+00	 1.025981e+01
0	 5.851852e+00	 1.333333e+00	 1.026416e+01
0	 5.851852e+00	 1.407407e+00	 1.026855e+01
0	 5.851852e+00	 1.481481e+00	 1.027304e+01
0	 5.925926e+00	 1.111111e+00	 1.024066e+01
0	 5.925926e+00	 1.185185e+00	 1.024484e+01
0	 5.925926e+00	 1.259259e+00	 1.024901e+01
0	 5.925926e+00	 1.333333e+00	 1.025320e+01
0	 5.925926e+00	 1.407407e+00	 1.025745e+01
0	 5.925926e+00	 1.481481e+00	 1.026178e+01
0	 5.555556e+00	 1.481481e+00	 1.032081e+01
0	 5.555556e+00	 1.555556e+00	 1.032591e+01
0	 5.555556e+00	 1.629630e+00	 1.033078e+01
0	 5.555556e+00	 1.703704e+00	 1.033547e+01
0	 5.555556e+00	 1.777778e+00	 1.034002e+01
0	 5.555556e+00	 1.851852e+00	 1.034447e+01
0	 5.629630e+00	 1.481481e+00	 1.030837e+01
0	 5.629630e+00	 1.555556e+00	 1.031330e+01
0	 5.629630e+00	 1.629630e+00	 1.031802e+01
0	 5.629630e+00	 1.703704e+00	 1.032259e+01
0	 5.629630e+00	 1.777778e+00	 1.032703e+01
0	 5.629630e+00	 1.851852e+00	 1.033139e+01
0	 5.703704e+00	 1.481481e+00	 1.029629e+01
0	 5.703704e+00	 1.555556e+00	 1.030105e+01
0	 5.703704e+00	 1.629630e+00	 1.030563e+01
0	 5.703704e+00	 1.703704e+00	 1.031007e+01
0	 5.703704e+00	 1.777778e+00	 1.031439e+01
0	 5.703704e+00	 1.851852e+00	 1.031864e+01
0	 5.777778e+00	 1.481481e+00	 1.028453e+01
0	 5.777778e+00	 1.555556e+00	 1.028913e+01
0	 5.777778e+00	 1.629630e+00	 1.029357e+01
0	 5.777778e+00	 1.703704e+00	 1.029787e+01
0	 5.777778e+00	 1.777778e+00	 1.030207e+01
0	 5.777778e+00	 1.851852e+00	 1.030621e+01
0	 5.851852e+00	 1.481481e+00	 1.027304e+01
0	 5.851852e+00	 1.555556e+00	 1.027749e+01
0	 5.851852e+00	 1.629630e+00	 1.028179e+01
0	 5.851852e+00	 1.703704e+00	 1.028596e+01
0	 5.851852e+00	 1.777778e+00	 1.029004e+01
0	 5.851852e+00	 1.851852e+00	 1.029406e+01
0	 5.925926e+00	 1.481481e+00	 1.026178e+01
0	 5.925926e+00	 1.555556e+00	 1.026609e+01
0	 5.925926e+00	 1.629630e+00	 1.027025e+01
0	 5.925926e+00	 1.703704e+00	 1.027430e+01
0	 5.925926e+00	 1.777778e+00	 1.027826e+01
0	 5.925926e+00	 1.851852e+00	 1.028216e+01
0	 5.555556e+00	 1.851852e+00	 1.034447e+01
0	 5.555556e+00	 1.925926e+00	 1.034870e+01
0	 5.555556e+00	 2.000000e+00	 1.035257e+01
0	 5.555556e+00	 2.074074e+00	 1.035611e+01
0	 5.555556e+00	 2.148148e+00	 1.035935e+01
0	 5.555556e+00	 2.222222e+00	 1.036232e+01
0	 5.629630e+00	 1.851852e+00	 1.033139e+01
0	 5.629630e+00	 1.925926e+00	 1.033554e+01
0	 5.629630e+00	 2.000000e+00	 1.033935e+01
0	 5.629630e+00	 2.074074e+00	 1.034286e+01
0	 5.629630e+00	 2.148148e+00	 1.034608e+01
0	 5.629630e+00	 2.222222e+00	 1.034905e+01
0	 5.703704e+00	 1.851852e+00	 1.031864e+01
0	 5.703704e+00	 1.925926e+00	 1.032270e+01
0	 5.703704e+00	 2.000000e+00	 1.032645e+01
0	 5.703704e+00	 2.074074e+00	 1.032991e+01
0	 5.703704e+00	 2.148148e+00	 1.033311e+01
0	 5.703704e+00	 2.222222e+00	 1.033609e+01
0	 5.777778e+00	 1.851852e+00	 1.030621e+01
0	 5.777778e+00	 1.925926e+00	 1.031017e+01
0	 5.777778e+00	 2.000000e+00	 1.031384e+01
0	 5.777778e+00	 2.074074e+00	 1.031726e+01
0	 5.777778e+00	 2.148148e+00	 1.032044e+01
0	 5.777778e+00	 2.222222e+00	 1.032342e+01
0	 5.851852e+00	 1.851852e+00	 1.029406e+01
0	 5.851852e+00	 1.925926e+00	 1.029791e+01
0	 5.851852e+00	 2.000000e+00	 1.030151e+01
0	 5.851852e+00	 2.074074e+00	 1.030488e+01
0	 5.851852e+00	 2.148148e+00	 1.030804e+01
0	 5.851852e+00	 2.222222e+00	 1.031102e+01
0	 5.925926e+00	 1.851852e+00	 1.028216e+01
0	 5.925926e+00	 1.925926e+00	 1.028592e+01
0	 5.925926e+00	 2.000000e+00	 1.028944e+01
0	 5.925926e+00	 2.074074e+00	 1.029276e+01
0	 5.925926e+00	 2.148148e+00	 1.029589e+01
0	 5.925926e+00	 2.222222e+00	 1.029886e+01
0	 5.555556e+00	 2.222222e+00	 1.036232e+01
0	 5.555556e+00	 2.296296e+00	 1.036496e+01
0	 5.555556e+00	 2.370370e+00	 1.036722e+01
0	 5.555556e+00	 2.444444e+00	 1.036911e+01
0	 5.555556e+00	 2.518519e+00	 1.037065e+01
0	 5.555556e+00	 2.592593e+00	 1.037187e+01
0	 5.629630e+00	 2.222222e+00	 1.034905e+01
0	 5.629630e+00	 2.296296e+00	 1.035171e+01
0	 5.629630e+00	 2.370370e+00	 1.035402e+01
0	 5.629630e+00	 2.444444e+00	 1.035599e+01
0	 5.629630e+00	 2.518519e+00	 1.035764e+01
0	 5.629630e+00	 2.592593e+00	 1.035897e+01
0	 5.703704e+00	 2.222222e+00	 1.033609e+01
0	 5.703704e+00	 2.296296e+00	 1.033878e+01
0	 5.703704e+00	 2.370370e+00	 1.034113e+01
0	 5.703704e+00	 2.444444e+00	 1.034317e+01
0	 5.703704e+00	 2.518519e+00	 1.034490e+01
0	 5.703704e+00	 2.592593e+00	 1.034633e+01
0	 5.777778e+00	 2.222222e+00	 1.032342e+01
0	 5.777778e+00	 2.296296e+00	 1.032613e+01
0	 5.777778e+00	 2.370370e+00	 1.032853e+01
0	 5.777778e+00	 2.444444e+00	 1.033062e+01
0	 5.777778e+00	 2.518519e+00	 1.033241e+01
0	 5.777778e+00	 2.592593e+00	 1.033393e+01
0	 5.851852e+00	 2.222222e+00	 1.031102e+01
0	 5.851852e+00	 2.296296e+00	 1.031375e+01
0	 5.851852e+00	 2.370370e+00	 1.031618e+01
0	 5.851852e+00	 2.444444e+00	 1.031831e+01
0	 5.851852e+00	 2.518519e+00	 1.032015e+01
0	 5.851852e+00	 2.592593e+00	 1.032173e+01
0	 5.925926e+00	 2.222222e+00	 1.029886e+01
0	 5.925926e+00	 2.296296e+00	 1.030160e+01
0	 5.925926e+00	 2.370370e+00	 1.030405e+01
0	 5.925926e+00	 2.444444e+00	 1.030621e+01
0	 5.925926e+00	 2.518519e+00	 1.030810e+01
0	 5.925926e+00	 2.592593e+00	 1.030974e+01
0	 5.555556e+00	 2.592593e+00	 1.037187e+01
0	 5.555556e+00	 2.666667e+00	 1.037273e+01
0	 5.555556e+00	 2.740741e+00	 1.037320e+01
0	 5.555556e+00	 2.814815e+00	 1.037327e+01
0	 5.555556e+00	 2.888889e+00	 1.037296e+01
0	 5.555556e+00	 2.962963e+00	 1.037227e+01
0	 5.629630e+00	 2.592593e+00	 1.035897e+01
0	 5.629630e+00	 2.666667e+00	 1.035997e+01
0	 5.629630e+00	 2.740741e+00	 1.036059e+01
0	 5.629630e+00	 2.814815e+00	 1.036083e+01
0	 5.629630e+00	 2.888889e+00	 1.036070e+01
0	 5.629630e+00	 2.962963e+00	 1.036021e+01
0	 5.703704e+00	 2.592593e+00	 1.034633e+01
0	 5.703704e+00	 2.666667e+00	 1.034744e+01
0	 5.703704e+00	 2.740741e+00	 1.034819e+01
0	 5.703704e+00	 2.814815e+00	 1.034858e+01
0	 5.703704e+00	 2.888889e+00	 1.034862e+01
0	 5.703704e+00	 2.962963e+00	 1.034832e+01
0	 5.777778e+00	 2.592593e+00	 1.033393e+01
0	 5.777778e+00	 2.666667e+00	 1.033513e+01
0	 5.777778e+00	 2.740741e+00	 1.033599e+01
0	 5.777778e+00	 2.814815e+00	 1.033652e+01
0	 5.777778e+00	 2.888889e+00	 1.033671e+01
0	 5.777778e+00	 2.962963e+00	 1.033659e+01
0	 5.851852e+00	 2.592593e+00	 1.032173e+01
0	 5.851852e+00	 2.666667e+00	 1.032302e+01
0	 5.851852e+00	 2.740741e+00	 1.032398e+01
0	 5.851852e+00	 2.814815e+00	 1.032463e+01
0	 5.851852e+00	 2.888889e+00	 1.032497e+01
0	 5.851852e+00	 2.962963e+00	 1.032502e+01
0	 5.925926e+00	 2.592593e+00	 1.030974e+01
0	 5.925926e+00	 2.666667e+00	 1.031110e+01
0	 5.925926e+00	 2.740741e+00	 1.031215e+01
0	 5.925926e+00	 2.814815e+00	 1.031292e+01
0	 5.925926e+00	 2.888889e+00	 1.031339e+01
0	 5.925926e+00	 2.962963e+00	 1.031359e+01
0	 5.555556e+00	 2.962963e+00	 1.037227e+01
0	 5.555556e+00	 3.037037e+00	 1.037123e+01
0	 5.555556e+00	 3.111111e+00	 1.036985e+01
0	 5.555556e+00	 3.185185e+00	 1.036814e+01
0	 5.555556e+00	 3.259259e+00	 1.036609e+01
0	 5.555556e+00	 3.333333e+00	 1.036370e+01
0	 5.629630e+00	 2.962963e+00	 1.036021e+01
0	 5.629630e+00	 3.037037e+00	 1.035939e+01
0	 5.629630e+00	 3.111111e+00	 1.035824e+01
0	 5.629630e+00	 3.185185e+00	 1.035677e+01
0	 5.629630e+00	 3.259259e+00	 1.035498e+01
0	 5.629630e+00	 3.333333e+00	 1.035287e+01
0	 5.703704e+00	 2.962963e+00	 1.034832e+01
0	 5.703704e+00	 3.037037e+00	 1.034770e+01
0	 5.703704e+00	 3.111111e+00	 1.034677e+01
0	 5.703704e+00	 3.185185e+00	 1.034553e+01
0	 5.703704e+00	 3.259259e+00	 1.034398e+01
0	 5.703704e+00	 3.333333e+00	 1.034211e+01
0	 5.777778e+00	 2.962963e+00	 1.033659e+01
0	 5.777778e+00	 3.037037e+00	 1.033616e+01
0	 5.777778e+00	 3.111111e+00	 1.033544e+01
0	 5.777778e+00	 3.185185e+00	 1.033441e+01
0	 5.777778e+00	 3.259259e+00	 1.033307e+01
0	 5.777778e+00	 3.333333e+00	 1.033143e+01
0	 5.851852e+00	 2.962963e+00	 1.032502e+01
0	 5.851852e+00	 3.037037e+00	 1.032477e+01
0	 5.851852e+00	 3.111111e+00	 1.032423e+01
0	 5.851852e+00	 3.185185e+00	 1.032339e+01
0	 5.851852e+00	 3.259259e+00	 1.032226e+01
0	 5.851852e+00	 3.333333e+00	 1.032082e+01
0	 5.925926e+00	 2.962963e+00	 1.031359e+01
0	 5.925926e+00	 3.037037e+00	 1.031351e+01
0	 5.925926e+00	 3.111111e+00	 1.031314e+01
0	 5.925926e+00	 3.185185e+00	 1.031248e+01
0	 5.925926e+00	 3.259259e+00	 1.031153e+01
0	 5.925926e+00	 3.333333e+00	 1.031030e+01
0	 5.555556e+00	 3.333333e+00	 1.036370e+01
0	 5.555556e+00	 3.407407e+00	 1.036102e+01
0	 5.555556e+00	 3.481481e+00	 1.035806e+01
0	 5.555556e+00	 3.555556e+00	 1.035482e+01
0	 5.555556e+00	 3.629630e+00	 1.035129e+01
0	 5.555556e+00	 3.703704e+00	 1.034746e+01
0	 5.629630e+00	 3.333333e+00	 1.035287e+01
0	 5.629630e+00	 3.407407e+00	 1.035046e+01
0	 5.629630e+00	 3.481481e+00	 1.034778e+01
0	 5.629630e+00	 3.555556e+00	 1.034482e+01
0	 5.629630e+00	 3.629630e+00	 1.034158e+01
0	 5.629630e+00	 3.703704e+00	 1.033805e+01
0	 5.703704e+00	 3.333333e+00	 1.034211e+01
0	 5.703704e+00	 3.407407e+00	 1.033996e+01
0	 5.703704e+00	 3.481481e+00	 1.033753e+01
0	 5.703704e+00	 3.555556e+00	 1.033484e+01
0	 5.703704e+00	 3.629630e+00	 1.033187e+01
0	 5.703704e+00	 3.703704e+00	 1.032862e+01
0	 5.777778e+00	 3.333333e+00	 1.033143e+01
0	 5.777778e+00	 3.407407e+00	 1.032951e+01
0	 5.777778e+00	 3.481481e+00	 1.032733e+01
0	 5.777778e+00	 3.555556e+00	 1.032488e+01
0	 5.777778e+00	 3.629630e+00	 1.032217e+01
0	 5.777778e+00	 3.703704e+00	 1.031919e+01
0	 5.851852e+00	 3.333333e+00	 1.032082e+01
0	 5.851852e+00	 3.407407e+00	 1.031912e+01
0	 5.851852e+00	 3.481481e+00	 1.031716e+01
0	 5.851852e+00	 3.555556e+00	 1.031496e+01
0	 5.851852e+00	 3.629630e+00	 1.031250e+01
0	 5.851852e+00	 3.703704e+00	 1.030977e+01
0	 5.925926e+00	 3.333333e+00	 1.031030e+01
0	 5.925926e+00	 3.407407e+00	 1.030880e+01
0	 5.925926e+00	 3.481481e+00	 1.030706e+01
0	 5.925926e+00	 3.555556e+00	 1.030508e+01
0	 5.925926e+00	 3.629630e+00	 1.030285e+01
0	 5.925926e+00	 3.703704e+00	 1.030037e+01
0	 5.555556e+00	 3.703704e+00	 1.034746e+01
0	 5.555556e+00	 3.777778e+00	 1.034339e+01
0	 5.555556e+00	 3.851852e+00	 1.033913e+01
0	 5.555556e+00	 3.925926e+00	 1.033467e+01
0	 5.555556e+00	 4.000000e+00	 1.033001e+01
0	 5.555556e+00	 4.074074e+00	 1.032514e+01
0	 5.629630e+00	 3.703704e+00	 1.033805e+01
0	 5.629630e+00	 3.777778e+00	 1.033427e+01
0	 5.629630e+00	 3.851852e+00	 1.033032e+01
0	 5.629630e+00	 3.925926e+00	 1.032617e+01
0	 5.629630e+00	 4.000000e+00	 1.032181e+01
0	 5.629630e+00	 4.074074e+00	 1.031724e+01
0	 5.703704e+00	 3.703704e+00	 1.032862e+01
0	 5.703704e+00	 3.777778e+00	 1.032514e+01
0	 5.703704e+00	 3.851852e+00	 1.032147e+01
0	 5.703704e+00	 3.925926e+00	 1.031761e+01
0	 5.703704e+00	 4.000000e+00	 1.031354e+01
0	 5.703704e+00	 4.074074e+00	 1.030926e+01
0	 5.777778e+00	 3.703704e+00	 1.031919e+01
0	 5.777778e+00	 3.777778e+00	 1.031599e+01
0	 5.777778e+00	 3.851852e+00	 1.031259e+01
0	 5.777778e+00	 3.925926e+00	 1.030900e+01
0	 5.777778e+00	 4.000000e+00	 1.030521e+01
0	 5.777778e+00	 4.074074e+00	 1.030120e+01
0	 5.851852e+00	 3.703704e+00	 1.030977e+01
0	 5.851852e+00	 3.777778e+00	 1.030683e+01
0	 5.851852e+00	 3.851852e+00	 1.030370e+01
0	 5.851852e+00	 3.925926e+00	 1.030037e+01
0	 5.851852e+00	 4.000000e+00	 1.029683e+01
0	 5.851852e+00	 4.074074e+00	 1.029308e+01
0	 5.925926e+00	 3.703704e+00	 1.030037e+01
0	 5.925926e+00	 3.777778e+00	 1.029768e+01
0	 5.925926e+00	 3.851852e+00	 1.029479e+01
0	 5.925926e+00	 3.925926e+00	 1.029171e+01
0	 5.925926e+00	 4.000000e+00	 1.028842e+01
0	 5.925926e+00	 4.074074e+00	 1.028492e+01
0	 5.555556e+00	 4.074074e+00	 1.032514e+01
0	 5.555556e+00	 4.148148e+00	 1.032009e+01
0	 5.555556e+00	 4.222222e+00	 1.031493e+01
0	 5.555556e+00	 4.296296e+00	 1.030964e+01
0	 5.555556e+00	 4.370370e+00	 1.030421e+01
0	 5.555556e+00	 4.444444e+00	 1.029863e+01
0	 5.629630e+00	 4.074074e+00	 1.031724e+01
0	 5.629630e+00	 4.148148e+00	 1.031250e+01
0	 5.629630e+00	 4.222222e+00	 1.030763e+01
0	 5.629630e+00	 4.296296e+00	 1.030264e+01
0	 5.629630e+00	 4.370370e+00	 1.029749e+01
0	 5.629630e+00	 4.444444e+00	 1.029219e+01
0	 5.703704e+00	 4.074074e+00	 1.030926e+01
0	 5.703704e+00	 4.148148e+00	 1.030480e+01
0	 5.703704e+00	 4.222222e+00	 1.030022e+01
0	 5.703704e+00	 4.296296e+00	 1.029550e+01
0	 5.703704e+00	 4.370370e+00	 1.029064e+01
0	 5.703704e+00	 4.444444e+00	 1.028561e+01
0	 5.777778e+00	 4.074074e+00	 1.030120e+01
0	 5.777778e+00	 4.148148e+00	 1.029702e+01
0	 5.777778e+00	 4.222222e+00	 1.029270e+01
0	 5.777778e+00	 4.296296e+00	 1.028826e+01
0	 5.777778e+00	 4.370370e+00	 1.028366e+01
0	 5.777778e+00	 4.444444e+00	 1.027891e+01
0	 5.851852e+00	 4.074074e+00	 1.029308e+01
0	 5.851852e+00	 4.148148e+00	 1.028916e+01
0	 5.851852e+00	 4.222222e+00	 1.028511e+01
0	 5.851852e+00	 4.296296e+00	 1.028092e+01
0	 5.851852e+00	 4.370370e+00	 1.027659e+01
0	 5.851852e+00	 4.444444e+00	 1.027210e+01
0	 5.925926e+00	 4.074074e+00	 1.028492e+01
0	 5.925926e+00	 4.148148e+00	 1.028125e+01
0	 5.925926e+00	 4.222222e+00	 1.027746e+01
0	 5.925926e+00	 4.296296e+00	 1.027352e+01
0	 5.925926e+00	 4.370370e+00	 1.026944e+01
0	 5.925926e+00	 4.444444e+00	 1.026521e+01
0	 5.555556e+00	 4.444444e+00	 1.029863e+01
0	 5.555556e+00	 4.518519e+00	 1.029294e+01
0	 5.555556e+00	 4.592593e+00	 1.028720e+01
0	 5.555556e+00	 4.666667e+00	 1.028141e+01
0	 5.555556e+00	 4.740741e+00	 1.027554e+01
0	 5.555556e+00	 4.814815e+00	 1.026959e+01
0	 5.629630e+00	 4.444444e+00	 1.029219e+01
0	 5.629630e+00	 4.518519e+00	 1.028679e+01
0	 5.629630e+00	 4.592593e+00	 1.028133e+01
0	 5.629630e+00	 4.666667e+00	 1.027580e+01
0	 5.629630e+00	 4.740741e+00	 1.027020e+01
0	 5.629630e+00	 4.814815e+00	 1.026451e+01
0	 5.703704e+00	 4.444444e+00	 1.028561e+01
0	 5.703704e+00	 4.518519e+00	 1.028048e+01
0	 5.703704e+00	 4.592593e+00	 1.027529e+01
0	 5.703704e+00	 4.666667e+00	 1.027003e+01
0	 5.703704e+00	 4.740741e+00	 1.026469e+01
0	 5.703704e+00	 4.814815e+00	 1.025925e+01
0	 5.777778e+00	 4.444444e+00	 1.027891e+01
0	 5.777778e+00	 4.518519e+00	 1.027405e+01
0	 5.777778e+00	 4.592593e+00	 1.026912e+01
0	 5.777778e+00	 4.666667e+00	 1.026411e+01
0	 5.777778e+00	 4.740741e+00	 1.025902e+01
0	 5.777778e+00	 4.814815e+00	 1.025382e+01
0	 5.851852e+00	 4.444444e+00	 1.027210e+01
0	 5.851852e+00	 4.518519e+00	 1.026750e+01
0	 5.851852e+00	 4.592593e+00	 1.026282e+01
0	 5.851852e+00	 4.666667e+00	 1.025806e+01
0	 5.851852e+00	 4.740741e+00	 1.025321e+01
0	 5.851852e+00	 4.814815e+00	 1.024825e+01
0	 5.925926e+00	 4.444444e+00	 1.026521e+01
0	 5.925926e+00	 4.518519e+00	 1.026085e+01
0	 5.925926e+00	 4.592593e+00	 1.025642e+01
0	 5.925926e+00	 4.666667e+00	 1.025190e+01
0	 5.925926e+00	 4.740741e+00	 1.024729e+01
0	 5.925926e+00	 4.814815e+00	 1.024256e+01
0	 5.555556e+00	 4.814815e+00	 1.026959e+01
0	 5.555556e+00	 4.888889e+00	 1.026360e+01
0	 5.555556e+00	 4.962963e+00	 1.025761e+01
0	 5.555556e+00	 5.037037e+00	 1.025161e+01
0	 5.555556e+00	 5.111111e+00	 1.024559e+01
0	 5.555556e+00	 5.185185e+00	 1.023953e+01
0	 5.629630e+00	 4.814815e+00	 1.026451e+01
0	 5.629630e+00	 4.888889e+00	 1.025877e+01
0	 5.629630e+00	 4.962963e+00	 1.025303e+01
0	 5.629630e+00	 5.037037e+00	 1.024726e+01
0	 5.629630e+00	 5.111111e+00	 1.024146e+01
0	 5.629630e+00	 5.185185e+00	 1.023563e+01
0	 5.703704e+00	 4.814815e+00	 1.025925e+01
0	 5.703704e+00	 4.888889e+00	 1.025375e+01
0	 5.703704e+00	 4.962963e+00	 1.024824e+01
0	 5.703704e+00	 5.037037e+00	 1.024271e+01
0	 5.703704e+00	 5.111111e+00	 1.023714e+01
0	 5.703704e+00	 5.185185e+00	 1.023152e+01
0	 5.777778e+00	 4.814815e+00	 1.025382e+01
0	 5.777778e+00	 4.888889e+00	 1.024857e+01
0	 5.777778e+00	 4.962963e+00	 1.024329e+01
0	 5.777778e+00	 5.037037e+00	 1.023798e+01
0	 5.777778e+00	 5.111111e+00	 1.023263e+01
0	 5.777778e+00	 5.185185e+00	 1.022723e+01
0	 5.851852e+00	 4.814815e+00	 1.024825e+01
0	 5.851852e+00	 4.888889e+00	 1.024323e+01
0	 5.851852e+00	 4.962963e+00	 1.023818e+01
0	 5.851852e+00	 5.037037e+00	 1.023309e+01
0	 5.851852e+00	 5.111111e+00	 1.022796e+01
0	 5.851852e+00	 5.185185e+00	 1.022278e+01
0	 5.925926e+00	 4.814815e+00	 1.024256e+01
0	 5.925926e+00	 4.888889e+00	 1.023777e+01
0	 5.925926e+00	 4.962963e+00	 1.023294e+01
0	 5.925926e+00	 5.037037e+00	 1.022808e+01
0	 5.925926e+00	 5.111111e+00	 1.022316e+01
0	 5.925926e+00	 5.185185e+00	 1.021819e+01
0	 5.555556e+00	 5.185185e+00	 1.023953e+01
0	 5.555556e+00	 5.259259e+00	 1.023348e+01
0	 5.555556e+00	 5.333333e+00	 1.022747e+01
0	 5.555556e+00	 5.407407e+00	 1.022148e+01
0	 5.555556e+00	 5.481481e+00	 1.021552e+01
0	 5.555556e+00	 5.555556e+00	 1.020957e+01
0	 5.629630e+00	 5.185185e+00	 1.023563e+01
0	 5.629630e+00	 5.259259e+00	 1.022979e+01
0	 5.629630e+00	 5.333333e+00	 1.022398e+01
0	 5.629630e+00	 5.407407e+00	 1.021819e+01
0	 5.629630e+00	 5.481481e+00	 1.021242e+01
0	 5.629630e+00	 5.555556e+00	 1.020666e+01
0	 5.703704e+00	 5.185185e+00	 1.023152e+01
0	 5.703704e+00	 5.259259e+00	 1.022589e+01
0	 5.703704e+00	 5.333333e+00	 1.022029e+01
0	 5.703704e+00	 5.407407e+00	 1.021470e+01
0	 5.703704e+00	 5.481481e+00	 1.020912e+01
0	 5.703704e+00	 5.555556e+00	 1.020353e+01
0	 5.777778e+00	 5.185185e+00	 1.022723e+01
0	 5.777778e+00	 5.259259e+00	 1.022181e+01
0	 5.777778e+00	 5.333333e+00	 1.021641e+01
0	 5.777778e+00	 5.407407e+00	 1.021102e+01
0	 5.777778e+00	 5.481481e+00	 1.020563e+01
0	 5.777778e+00	 5.555556e+00	 1.020022e+01
0	 5.851852e+00	 5.185185e+00	 1.022278e+01
0	 5.851852e+00	 5.259259e+00	 1.021757e+01
0	 5.851852e+00	 5.333333e+00	 1.021237e+01
0	 5.851852e+00	 5.407407e+00	 1.020717e+01
0	 5.851852e+00	 5.481481e+00	 1.020197e+01
0	 5.851852e+00	 5.555556e+00	 1.019674e+01
0	 5.925926e+00	 5.185185e+00	 1.021819e+01
0	 5.925926e+00	 5.259259e+00	 1.021319e+01
0	 5.925926e+00	 5.333333e+00	 1.020819e+01
0	 5.925926e+00	 5.407407e+00	 1.020318e+01
0	 5.925926e+00	 5.481481e+00	 1.019816e+01
0	 5.925926e+00	 5.555556e+00	 1.019312e+01
0	 5.555556e+00	 5.555556e+00	 1.020957e+01
0	 5.555556e+00	 5.629630e+00	 1.020366e+01
0	 5.555556e+00	 5.703704e+00	 1.019781e+01
0	 5.555556e+00	 5.777778e+00	 1.019201e+01
0	 5.555556e+00	 5.851852e+00	 1.018626e+01
0	 5.555556e+00	 5.925926e+00	 1.018055e+01
0	 5.629630e+00	 5.555556e+00	 1.020666e+01
0	 5.629630e+00	 5.629630e+00	 1.020092e+01
0	 5.629630e+00	 5.703704e+00	 1.019523e+01
0	 5.629630e+00	 5.777778e+00	 1.018960e+01
0	 5.629630e+00	 5.851852e+00	 1.018400e+01
0	 5.629630e+00	 5.925926e+00	 1.017844e+01
0	 5.703704e+00	 5.555556e+00	 1.020353e+01
0	 5.703704e+00	 5.629630e+00	 1.019797e+01
0	 5.703704e+00	 5.703704e+00	 1.019245e+01
0	 5.703704e+00	 5.777778e+00	 1.018698e+01
0	 5.703704e+00	 5.851852e+00	 1.018154e+01
0	 5.703704e+00	 5.925926e+00	 1.017612e+01
0	 5.777778e+00	 5.555556e+00	 1.020022e+01
0	 5.777778e+00	 5.629630e+00	 1.019484e+01
0	 5.777778e+00	 5.703704e+00	 1.018949e+01
0	 5.777778e+00	 5.777778e+00	 1.018417e+01
0	 5.777778e+00	 5.851852e+00	 1.017889e+01
0	 5.777778e+00	 5.925926e+00	 1.017362e+01
0	 5.851852e+00	 5.555556e+00	 1.019674e+01
0	 5.851852e+00	 5.629630e+00	 1.019153e+01
0	 5.851852e+00	 5.703704e+00	 1.018635e+01
0	 5.851852e+00	 5.777778e+00	 1.018120e+01
0	 5.851852e+00	 5.851852e+00	 1.017607e+01
0	 5.851852e+00	 5.925926e+00	 1.017096e+01
0	 5.925926e+00	 5.555556e+00	 1.019312e+01
0	 5.925926e+00	 5.629630e+00	 1.018808e+01
0	 5.925926e+00	 5.703704e+00	 1.018307e+01
0	 5.925926e+00	 5.777778e+00	 1.017808e+01
0	 5.925926e+00	 5.851852e+00	 1.017311e+01
0	 5.925926e+00	 5.925926e+00	 1.016814e+01
0	 5.555556e+00	 5.925926e+00	 1.018055e+01
0	 5.555556e+00	 6.000000e+00	 1.017491e+01
0	 5.555556e+00	 6.074074e+00	 1.016934e+01
0	 5.555556e+00	 6.148148e+00	 1.016384e+01
0	 5.555556e+00	 6.222222e+00	 1.015841e+01
0	 5.555556e+00	 6.296296e+00	 1.015304e+01
0	 5.629630e+00	 5.925926e+00	 1.017844e+01
0	 5.629630e+00	 6.000000e+00	 1.017293e+01
0	 5.629630e+00	 6.074074e+00	 1.016749e+01
0	 5.629630e+00	 6.148148e+00	 1.016212e+01
0	 5.629630e+00	 6.222222e+00	 1.015680e+01
0	 5.629630e+00	 6.296296e+00	 1.015155e+01
0	 5.703704e+00	 5.925926e+00	 1.017612e+01
0	 5.703704e+00	 6.000000e+00	 1.017075e+01
0	 5.703704e+00	 6.074074e+00	 1.016545e+01
0	 5.703704e+00	 6.148148e+00	 1.016021e+01
0	 5.703704e+00	 6.222222e+00	 1.015501e+01
0	 5.703704e+00	 6.296296e+00	 1.014987e+01
0	 5.777778e+00	 5.925926e+00	 1.017362e+01
0	 5.777778e+00	 6.000000e+00	 1.016840e+01
0	 5.777778e+00	 6.074074e+00	 1.016323e+01
0	 5.777778e+00	 6.148148e+00	 1.015812e+01
0	 5.777778e+00	 6.222222e+00	 1.015305e+01
0	 5.777778e+00	 6.296296e+00	 1.014803e+01
0	 5.851852e+00	 5.925926e+00	 1.017096e+01
0	 5.851852e+00	 6.000000e+00	 1.016588e+01
0	 5.851852e+00	 6.074074e+00	 1.016085e+01
0	 5.851852e+00	 6.148148e+00	 1.015587e+01
0	 5.851852e+00	 6.222222e+00	 1.015093e+01
0	 5.851852e+00	 6.296296e+00	 1.014603e+01
0	 5.925926e+00	 5.925926e+00	 1.016814e+01
0	 5.925926e+00	 6.000000e+00	 1.016321e+01
0	 5.925926e+00	 6.074074e+00	 1.015832e+01
0	 5.925926e+00	 6.148148e+00	 1.015348e+01
0	 5.925926e+00	 6.222222e+00	 1.014867e+01
0	 5.925926e+00	 6.296296e+00	 1.014389e+01
0	 5.555556e+00	 6.296296e+00	 1.015304e+01
0	 5.555556e+00	 6.370370e+00	 1.014774e+01
0	 5.555556e+00	 6.444444e+00	 1.014253e+01
0	 5.555556e+00	 6.518519e+00	 1.013740e+01
0	 5.555556e+00	 6.592593e+00	 1.013235e+01
0	 5.555556e+00	 6.666667e+00	 1.012737e+01
0	 5.629630e+00	 6.296296e+00	 1.015155e+01
0	 5.629630e+00	 6.370370e+00	 1.014636e+01
0	 5.629630e+00	 6.444444e+00	 1.014125e+01
0	 5.629630e+00	 6.518519e+00	 1.013621e+01
0	 5.629630e+00	 6.592593e+00	 1.013125e+01
0	 5.629630e+00	 6.666667e+00	 1.012635e+01
0	 5.703704e+00	 6.296296e+00	 1.014987e+01
0	 5.703704e+00	 6.370370e+00	 1.014479e+01
0	 5.703704e+00	 6.444444e+00	 1.013979e+01
0	 5.703704e+00	 6.518519e+00	 1.013485e+01
0	 5.703704e+00	 6.592593e+00	 1.012998e+01
0	 5.703704e+00	 6.666667e+00	 1.012517e+01
0	 5.777778e+00	 6.296296e+00	 1.014803e+01
0	 5.777778e+00	 6.370370e+00	 1.014306e+01
0	 5.777778e+00	 6.444444e+00	 1.013816e+01
0	 5.777778e+00	 6.518519e+00	 1.013333e+01
0	 5.777778e+00	 6.592593e+00	 1.012855e+01
0	 5.777778e+00	 6.666667e+00	 1.012383e+01
0	 5.851852e+00	 6.296296e+00	 1.014603e+01
0	 5.851852e+00	 6.370370e+00	 1.014117e+01
0	 5.851852e+00	 6.444444e+00	 1.013639e+01
0	 5.851852e+00	 6.518519e+00	 1.013166e+01
0	 5.851852e+00	 6.592593e+00	 1.012698e+01
0	 5.851852e+00	 6.666667e+00	 1.012236e+01
0	 5.925926e+00	 6.296296e+00	 1.014389e+01
0	 5.925926e+00	 6.370370e+00	 1.013915e+01
0	 5.925926e+00	 6.444444e+00	 1.013447e+01
0	 5.925926e+00	 6.518519e+00	 1.012985e+01
0	 5.925926e+00	 6.592593e+00	 1.012528e+01
0	 5.925926e+00	 6.666667e+00	 1.012076e+01
0	 5.555556e+00	 6.666667e+00	 1.012737e+01
0	 5.555556e+00	 6.740741e+00	 1.012247e+01
0	 5.555556e+00	 6.814815e+00	 1.011766e+01
0	 5.555556e+00	 6.888889e+00	 1.011294e+01
0	 5.555556e+00	 6.962963e+00	 1.010830e+01
0	 5.555556e+00	 7.037037e+00	 1.010374e+01
0	 5.629630e+00	 6.666667e+00	 1.012635e+01
0	 5.629630e+00	 6.740741e+00	 1.012153e+01
0	 5.629630e+00	 6.814815e+00	 1.011680e+01
0	 5.629630e+00	 6.888889e+00	 1.011214e+01
0	 5.629630e+00	 6.962963e+00	 1.010756e+01
0	 5.629630e+00	 7.037037e+00	 1.010306e+01
0	 5.703704e+00	 6.666667e+00	 1.012517e+01
0	 5.703704e+00	 6.740741e+00	 1.012043e+01
0	 5.703704e+00	 6.814815e+00	 1.011577e+01
0	 5.703704e+00	 6.888889e+00	 1.011119e+01
0	 5.703704e+00	 6.962963e+00	 1.010668e+01
0	 5.703704e+00	 7.037037e+00	 1.010225e+01
0	 5.777778e+00	 6.666667e+00	 1.012383e+01
0	 5.777778e+00	 6.740741e+00	 1.011918e+01
0	 5.777778e+00	 6.814815e+00	 1.011461e+01
0	 5.777778e+00	 6.888889e+00	 1.011010e+01
0	 5.777778e+00	 6.962963e+00	 1.010567e+01
0	 5.777778e+00	 7.037037e+00	 1.010130e+01
0	 5.851852e+00	 6.666667e+00	 1.012236e+01
0	 5.851852e+00	 6.740741e+00	 1.011780e+01
0	 5.851852e+00	 6.814815e+00	 1.011331e+01
0	 5.851852e+00	 6.888889e+00	 1.010889e+01
0	 5.851852e+00	 6.962963e+00	 1.010453e+01
0	 5.851852e+00	 7.037037e+00	 1.010023e+01
0	 5.925926e+00	 6.666667e+00	 1.012076e+01
0	 5.925926e+00	 6.740741e+00	 1.011629e+01
0	 5.925926e+00	 6.814815e+00	 1.011189e+01
0	 5.925926e+00	 6.888889e+00	 1.010755e+01
0	 5.925926e+00	 6.962963e+00	 1.010327e+01
0	 5.925926e+00	 7.037037e+00	 1.009905e+01
0	 5.555556e+00	 7.037037e+00	 1.010374e+01
0	 5.555556e+00	 7.111111e+00	 1.009926e+01
0	 5.555556e+00	 7.185185e+00	 1.009487e+01
0	 5.555556e+00	 7.259259e+00	 1.009057e+01
0	 5.555556e+00	 7.333333e+00	 1.008636e+01
0	 5.555556e+00	 7.407407e+00	 1.008222e+01
0	 5.629630e+00	 7.037037e+00	 1.010306e+01
0	 5.629630e+00	 7.111111e+00	 1.009864e+01
0	 5.629630e+00	 7.185185e+00	 1.009430e+01
0	 5.629630e+00	 7.259259e+00	 1.009005e+01
0	 5.629630e+00	 7.333333e+00	 1.008588e+01
0	 5.629630e+00	 7.407407e+00	 1.008178e+01
0	 5.703704e+00	 7.037037e+00	 1.010225e+01
0	 5.703704e+00	 7.111111e+00	 1.009788e+01
0	 5.703704e+00	 7.185185e+00	 1.009360e+01
0	 5.703704e+00	 7.259259e+00	 1.008940e+01
0	 5.703704e+00	 7.333333e+00	 1.008528e+01
0	 5.703704e+00	 7.407407e+00	 1.008123e+01
0	 5.777778e+00	 7.037037e+00	 1.010130e+01
0	 5.777778e+00	 7.111111e+00	 1.009700e+01
0	 5.777778e+00	 7.185185e+00	 1.009278e+01
0	 5.777778e+00	 7.259259e+00	 1.008864e+01
0	 5.777778e+00	 7.333333e+00	 1.008457e+01
0	 5.777778e+00	 7.407407e+00	 1.008057e+01
0	 5.851852e+00	 7.037037e+00	 1.010023e+01
0	 5.851852e+00	 7.111111e+00	 1.009600e+01
0	 5.851852e+00	 7.185185e+00	 1.009185e+01
0	 5.851852e+00	 7.259259e+00	 1.008777e+01
0	 5.851852e+00	 7.333333e+00	 1.008376e+01
0	 5.851852e+00	 7.407407e+00	 1.007981e+01
0	 5.925926e+00	 7.037037e+00	 1.009905e+01
0	 5.925926e+00	 7.111111e+00	 1.009489e+01
0	 5.925926e+00	 7.185185e+00	 1.009081e+01
0	 5.925926e+00	 7.259259e+00	 1.008680e+01
0	 5.925926e+00	 7.333333e+00	 1.008285e+01
0	 5.925926e+00	 7.407407e+00	 1.007896e+01
0	 5.555556e+00	 7.407407e+00	 1.008222e+01
0	 5.555556e+00	 7.481481e+00	 1.007817e+01
0	 5.555556e+00	 7.555556e+00	 1.007421e+01
0	 5.555556e+00	 7.629630e+00	 1.007034e+01
0	 5.555556e+00	 7.703704e+00	 1.006656e+01
0	 5.555556e+00	 7.777778e+00	 1.006286e+01
0	 5.629630e+00	 7.407407e+00	 1.008178e+01
0	 5.629630e+00	 7.481481e+00	 1.007777e+01
0	 5.629630e+00	 7.555556e+00	 1.007385e+01
0	 5.629630e+00	 7.629630e+00	 1.007001e+01
0	 5.629630e+00	 7.703704e+00	 1.006626e+01
0	 5.629630e+00	 7.777778e+00	 1.006258e+01
0	 5.703704e+00	 7.407407e+00	 1.008123e+01
0	 5.703704e+00	 7.481481e+00	 1.007726e+01
0	 5.703704e+00	 7.555556e+00	 1.007338e+01
0	 5.703704e+00	 7.629630e+00	 1.006958e+01
0	 5.703704e+00	 7.703704e+00	 1.006586e+01
0	 5.703704e+00	 7.777778e+00	 1.006221e+01
0	 5.777778e+00	 7.407407e+00	 1.008057e+01
0	 5.777778e+00	 7.481481e+00	 1.007665e+01
0	 5.777778e+00	 7.555556e+00	 1.007281e+01
0	 5.777778e+00	 7.629630e+00	 1.006905e+01
0	 5.777778e+00	 7.703704e+00	 1.006537e+01
0	 5.777778e+00	 7.777778e+00	 1.006176e+01
0	 5.851852e+00	 7.407407e+00	 1.007981e+01
0	 5.851852e+00	 7.481481e+00	 1.007594e+01
0	 5.851852e+00	 7.555556e+00	 1.007215e+01
0	 5.851852e+00	 7.629630e+00	 1.006844e+01
0	 5.851852e+00	 7.703704e+00	 1.006480e+01
0	 5.851852e+00	 7.777778e+00	 1.006123e+01
0	 5.925926e+00	 7.407407e+00	 1.007896e+01
0	 5.925926e+00	 7.481481e+00	 1.007515e+01
0	 5.925926e+00	 7.555556e+00	 1.007141e+01
0	 5.925926e+00	 7.629630e+00	 1.006775e+01
0	 5.925926e+00	 7.703704e+00	 1.006415e+01
0	 5.925926e+00	 7.777778e+00	 1.006063e+01
0	 5.555556e+00	 7.777778e+00	 1.006286e+01
0	 5.555556e+00	 7.851852e+00	 1.005924e+01
0	 5.555556e+00	 7.925926e+00	 1.005572e+01
0	 5.555556e+00	 8.000000e+00	 1.005229e+01
0	 5.555556e+00	 8.074074e+00	 1.004894e+01
0	 5.555556e+00	 8.148148e+00	 1.004568e+01
0	 5.629630e+00	 7.777778e+00	 1.006258e+01
0	 5.629630e+00	 7.851852e+00	 1.005899e+01
0	 5.629630e+00	 7.925926e+00	 1.005549e+01
0	 5.629630e+00	 8.000000e+00	 1.005208e+01
0	 5.629630e+00	 8.074074e+00	 1.004875e+01
0	 5.629630e+00	 8.148148e+00	 1.004551e+01
0	 5.703704e+00	 7.777778e+00	 1.006221e+01
0	 5.703704e+00	 7.851852e+00	 1.005865e+01
0	 5.703704e+00	 7.925926e+00	 1.005518e+01
0	 5.703704e+00	 8.000000e+00	 1.005180e+01
0	 5.703704e+00	 8.074074e+00	 1.004849e+01
0	 5.703704e+00	 8.148148e+00	 1.004527e+01
0	 5.777778e+00	 7.777778e+00	 1.006176e+01
0	 5.777778e+00	 7.851852e+00	 1.005823e+01
0	 5.777778e+00	 7.925926e+00	 1.005479e+01
0	 5.777778e+00	 8.000000e+00	 1.005144e+01
0	 5.777778e+00	 8.074074e+00	 1.004817e+01
0	 5.777778e+00	 8.148148e+00	 1.004497e+01
0	 5.851852e+00	 7.777778e+00	 1.006123e+01
0	 5.851852e+00	 7.851852e+00	 1.005774e+01
0	 5.851852e+00	 7.925926e+00	 1.005434e+01
0	 5.851852e+00	 8.000000e+00	 1.005102e+01
0	 5.851852e+00	 8.074074e+00	 1.004778e+01
0	 5.851852e+00	 8.148148e+00	 1.004461e+01
0	 5.925926e+00	 7.777778e+00	 1.006063e+01
0	 5.925926e+00	 7.851852e+00	 1.005718e+01
0	 5.925926e+00	 7.925926e+00	 1.005382e+01
0	 5.925926e+00	 8.000000e+00	 1.005054e+01
0	 5.925926e+00	 8.074074e+00	 1.004733e+01
0	 5.925926e+00	 8.148148e+00	 1.004420e+01
0	 5.555556e+00	 8.148148e+00	 1.004568e+01
0	 5.555556e+00	 8.222222e+00	 1.004251e+01
0	 5.555556e+00	 8.296296e+00	 1.003944e+01
0	 5.555556e+00	 8.370370e+00	 1.003647e+01
0	 5.555556e+00	 8.444444e+00	 1.003359e+01
0	 5.555556e+00	 8.518519e+00	 1.003079e+01
0	 5.629630e+00	 8.148148e+00	 1.004551e+01
0	 5.629630e+00	 8.222222e+00	 1.004236e+01
0	 5.629630e+00	 8.296296e+00	 1.003930e+01
0	 5.629630e+00	 8.370370e+00	 1.003634e+01
0	 5.629630e+00	 8.444444e+00	 1.003347e+01
0	 5.629630e+00	 8.518519e+00	 1.003068e+01
0	 5.703704e+00	 8.148148e+00	 1.004527e+01
0	 5.703704e+00	 8.222222e+00	 1.004214e+01
0	 5.703704e+00	 8.296296e+00	 1.003910e+01
0	 5.703704e+00	 8.370370e+00	 1.003616e+01
0	 5.703704e+00	 8.444444e+00	 1.003330e+01
0	 5.703704e+00	 8.518519e+00	 1.003053e+01
0	 5.777778e+00	 8.148148e+00	 1.004497e+01
0	 5.777778e+00	 8.222222e+00	 1.004186e+01
0	 5.777778e+00	 8.296296e+00	 1.003885e+01
0	 5.777778e+00	 8.370370e+00	 1.003592e+01
0	 5.777778e+00	 8.444444e+00	 1.003309e+01
0	 5.777778e+00	 8.518519e+00	 1.003034e+01
0	 5.851852e+00	 8.148148e+00	 1.004461e+01
0	 5.851852e+00	 8.222222e+00	 1.004153e+01
0	 5.851852e+00	 8.296296e+00	 1.003854e+01
0	 5.851852e+00	 8.370370e+00	 1.003564e+01
0	 5.851852e+00	 8.444444e+00	 1.003283e+01
0	 5.851852e+00	 8.518519e+00	 1.003010e+01
0	 5.925926e+00	 8.148148e+00	 1.004420e+01
0	 5.925926e+00	 8.222222e+00	 1.004115e+01
0	 5.925926e+00	 8.296296e+00	 1.003819e+01
0	 5.925926e+00	 8.370370e+00	 1.003532e+01
0	 5.925926e+00	 8.444444e+00	 1.003254e+01
0	 5.925926e+00	 8.518519e+00	 1.002983e+01
0	 5.555556e+00	 8.518519e+00	 1.003079e+01
0	 5.555556e+00	 8.592593e+00	 1.002809e+01
0	 5.555556e+00	 8.666667e+00	 1.002551e+01
0	 5.555556e+00	 8.740741e+00	 1.002302e+01
0	 5.555556e+00	 8.814815e+00	 1.002064e+01
0	 5.555556e+00	 8.888889e+00	 1.001836e+01
0	 5.629630e+00	 8.518519e+00	 1.003068e+01
0	 5.629630e+00	 8.592593e+00	 1.002800e+01
0	 5.629630e+00	 8.666667e+00	 1.002542e+01
0	 5.629630e+00	 8.740741e+00	 1.002295e+01
0	 5.629630e+00	 8.814815e+00	 1.002057e+01
0	 5.629630e+00	 8.888889e+00	 1.001829e+01
0	 5.703704e+00	 8.518519e+00	 1.003053e+01
0	 5.703704e+00	 8.592593e+00	 1.002786e+01
0	 5.703704e+00	 8.666667e+00	 1.002529e+01
0	 5.703704e+00	 8.740741e+00	 1.002283e+01
0	 5.703704e+00	 8.814815e+00	 1.002047e+01
0	 5.703704e+00	 8.888889e+00	 1.001820e+01
0	 5.777778e+00	 8.518519e+00	 1.003034e+01
0	 5.777778e+00	 8.592593e+00	 1.002768e+01
0	 5.777778e+00	 8.666667e+00	 1.002513e+01
0	 5.777778e+00	 8.740741e+00	 1.002269e+01
0	 5.777778e+00	 8.814815e+00	 1.002034e+01
0	 5.777778e+00	 8.888889e+00	 1.001809e+01
0	 5.851852e+00	 8.518519e+00	 1.003010e+01
0	 5.851852e+00	 8.592593e+00	 1.002747e+01
0	 5.851852e+00	 8.666667e+00	 1.002494e+01
0	 5.851852e+00	 8.740741e+00	 1.002251e+01
0	 5.851852e+00	 8.814815e+00	 1.002018e+01
0	 5.851852e+00	 8.888889e+00	 1.001795e+01
0	 5.925926e+00	 8.518519e+00	 1.002983e+01
0	 5.925926e+00	 8.592593e+00	 1.002722e+01
0	 5.925926e+00	 8.666667e+00	 1.002472e+01
0	 5.925926e+00	 8.740741e+00	 1.002231e+01
0	 5.925926e+00	 8.814815e+00	 1.002000e+01
0	 5.925926e+00	 8.888889e+00	 1.001779e+01
0	 5.555556e+00	 8.888889e+00	 1.001836e+01
0	 5.555556e+00	 8.962963e+00	 1.001618e+01
0	 5.555556e+00	 9.037037e+00	 1.001414e+01
0	 5.555556e+00	 9.111111e+00	 1.001221e+01
0	 5.555556e+00	 9.185185e+00	 1.001040e+01
0	 5.555556e+00	 9.259259e+00	 1.000870e+01
0	 5.629630e+00	 8.888889e+00	 1.001829e+01
0	 5.629630e+00	 8.962963e+00	 1.001613e+01
0	 5.629630e+00	 9.037037e+00	 1.001409e+01
0	 5.629630e+00	 9.111111e+00	 1.001217e+01
0	 5.629630e+00	 9.185185e+00	 1.001036e+01
0	 5.629630e+00	 9.259259e+00	 1.000867e+01
0	 5.703704e+00	 8.888889e+00	 1.001820e+01
0	 5.703704e+00	 8.962963e+00	 1.001605e+01
0	 5.703704e+00	 9.037037e+00	 1.001402e+01
0	 5.703704e+00	 9.111111e+00	 1.001211e+01
0	 5.703704e+00	 9.185185e+00	 1.001031e+01
0	 5.703704e+00	 9.259259e+00	 1.000862e+01
0	 5.777778e+00	 8.888889e+00	 1.001809e+01
0	 5.777778e+00	 8.962963e+00	 1.001594e+01
0	 5.777778e+00	 9.037037e+00	 1.001393e+01
0	 5.777778e+00	 9.111111e+00	 1.001203e+01
0	 5.777778e+00	 9.185185e+00	 1.001024e+01
0	 5.777778e+00	 9.259259e+00	 1.000857e+01
0	 5.851852e+00	 8.888889e+00	 1.001795e+01
0	 5.851852e+00	 8.962963e+00	 1.001582e+01
0	 5.851852e+00	 9.037037e+00	 1.001382e+01
0	 5.851852e+00	 9.111111e+00	 1.001193e+01
0	 5.851852e+00	 9.185185e+00	 1.001016e+01
0	 5.851852e+00	 9.259259e+00	 1.000850e+01
0	 5.925926e+00	 8.888889e+00	 1.001779e+01
0	 5.925926e+00	 8.962963e+00	 1.001568e+01
0	 5.925926e+00	 9.037037e+00	 1.001369e+01
0	 5.925926e+00	 9.111111e+00	 1.001182e+01
0	 5.925926e+00	 9.185185e+00	 1.001007e+01
0	 5.925926e+00	 9.259259e+00	 1.000842e+01
0	 5.555556e+00	 9.259259e+00	 1.000870e+01
0	 5.555556e+00	 9.333333e+00	 1.000713e+01
0	 5.555556e+00	 9.407407e+00	 1.000572e+01
0	 5.555556e+00	 9.481481e+00	 1.000446e+01
0	 5.555556e+00	 9.555556e+00	 1.000333e+01
0	 5.555556e+00	 9.629630e+00	 1.000234e+01
0	 5.629630e+00	 9.259259e+00	 1.000867e+01
0	 5.629630e+00	 9.333333e+00	 1.000711e+01
0	 5.629630e+00	 9.407407e+00	 1.000570e+01
0	 5.629630e+00	 9.481481e+00	 1.000444e+01
0	 5.629630e+00	 9.555556e+00	 1.000332e+01
0	 5.629630e+00	 9.629630e+00	 1.000233e+01
0	 5.703704e+00	 9.259259e+00	 1.000862e+01
0	 5.703704e+00	 9.333333e+00	 1.000707e+01
0	 5.703704e+00	 9.407407e+00	 1.000567e+01
0	 5.703704e+00	 9.481481e+00	 1.000441e+01
0	 5.703704e+00	 9.555556e+00	 1.000330e+01
0	 5.703704e+00	 9.629630e+00	 1.000231e+01
0	 5.777778e+00	 9.259259e+00	 1.000857e+01
0	 5.777778e+00	 9.333333e+00	 1.000702e+01
0	 5.777778e+00	 9.407407e+00	 1.000563e+01
0	 5.777778e+00	 9.481481e+00	 1.000438e+01
0	 5.777778e+00	 9.555556e+00	 1.000327e+01
0	 5.777778e+00	 9.629630e+00	 1.000230e+01
0	 5.851852e+00	 9.259259e+00	 1.000850e+01
0	 5.851852e+00	 9.333333e+00	 1.000696e+01
0	 5.851852e+00	 9.407407e+00	 1.000558e+01
0	 5.851852e+00	 9.481481e+00	 1.000435e+01
0	 5.851852e+00	 9.555556e+00	 1.000325e+01
0	 5.851852e+00	 9.629630e+00	 1.000228e+01
0	 5.925926e+00	 9.259259e+00	 1.000842e+01
0	 5.925926e+00	 9.333333e+00	 1.000690e+01
0	 5.925926e+00	 9.407407e+00	 1.000553e+01
0	 5.925926e+00	 9.481481e+00	 1.000430e+01
0	 5.925926e+00	 9.555556e+00	 1.000322e+01
0	 5.925926e+00	 9.629630e+00	 1.000225e+01
0	 5.555556e+00	 9.629630e+00	 1.000234e+01
0	 5.555556e+00	 9.703704e+00	 1.000150e+01
0	 5.555556e+00	 9.777778e+00	 1.000086e+01
0	 5.555556e+00	 9.851852e+00	 1.000040e+01
0	 5.555556e+00	 9.925926e+00	 1.000011e+01
0	 5.555556e+00	 1.000000e+01	 9.999975e+00
0	 5.629630e+00	 9.629630e+00	 1.000233e+01
0	 5.629630e+00	 9.703704e+00	 1.000150e+01
0	 5.629630e+00	 9.777778e+00	 1.000086e+01
0	 5.629630e+00	 9.851852e+00	 1.000040e+01
0	 5.629630e+00	 9.925926e+00	 1.000011e+01
0	 5.629630e+00	 1.000000e+01	 9.999976e+00
0	 5.703704e+00	 9.629630e+00	 1.000231e+01
0	 5.703704e+00	 9.703704e+00	 1.000149e+01
0	 5.703704e+00	 9.777778e+00	 1.000085e+01
0	 5.703704e+00	 9.851852e+00	 1.000040e+01
0	 5.703704e+00	 9.925926e+00	 1.000011e+01
0	 5.703704e+00	 1.000000e+01	 9.999975e+00
0	 5.777778e+00	 9.629630e+00	 1.000230e+01
0	 5.777778e+00	 9.703704e+00	 1.000148e+01
0	 5.777778e+00	 9.777778e+00	 1.000085e+01
0	 5.777778e+00	 9.851852e+00	 1.000039e+01
0	 5.777778e+00	 9.925926e+00	 1.000010e+01
0	 5.777778e+00	 1.000000e+01	 9.999975e+00
0	 5.851852e+00	 9.629630e+00	 1.000228e+01
0	 5.851852e+00	 9.703704e+00	 1.000146e+01
0	 5.851852e+00	 9.777778e+00	 1.000084e+01
0	 5.851852e+00	 9.851852e+00	 1.000039e+01
0	 5.851852e+00	 9.925926e+00	 1.000010e+01
0	 5.851852e+00	 1.000000e+01	 9.999975e+00
0	 5.925926e+00	 9.629630e+00	 1.000225e+01
0	 5.925926e+00	 9.703704e+00	 1.000145e+01
0	 5.925926e+00	 9.777778e+00	 1.000083e+01
0	 5.925926e+00	 9.851852e+00	 1.000038e+01
0	 5.925926e+00	 9.925926e+00	 1.000010e+01
0	 5.925926e+00	 1.000000e+01	 9.999977e+00
0	 5.925926e+00	 0.000000e+00	 1.020503e+01
0	 5.925926e+00	 7.407407e-02	 1.020527e+01
0	 5.925926e+00	 1.481481e-01	 1.020585e+01
0	 5.925926e+00	 2.222222e-01	 1.020676e+01
0	 5.925926e+00	 2.962963e-01	 1.020802e+01
0	 5.925926e+00	 3.703704e-01	 1.020965e+01
0	 6.000000e+00	 0.000000e+00	 1.019637e+01
0	 6.000000e+00	 7.407407e-02	 1.019658e+01
0	 6.000000e+00	 1.481481e-01	 1.019712e+01
0	 6.000000e+00	 2.222222e-01	 1.019798e+01
0	 6.000000e+00	 2.962963e-01	 1.019918e+01
0	 6.000000e+00	 3.703704e-01	 1.020073e+01
0	 6.074074e+00	 0.000000e+00	 1.018781e+01
0	 6.074074e+00	 7.407407e-02	 1.018799e+01
0	 6.074074e+00	 1.481481e-01	 1.018849e+01
0	 6.074074e+00	 2.222222e-01	 1.018930e+01
0	 6.074074e+00	 2.962963e-01	 1.019045e+01
0	 6.074074e+00	 3.703704e-01	 1.019191e+01
0	 6.148148e+00	 0.000000e+00	 1.017933e+01
0	 6.148148e+00	 7.407407e-02	 1.017948e+01
0	 6.148148e+00	 1.481481e-01	 1.017994e+01
0	 6.148148e+00	 2.222222e-01	 1.018072e+01
0	 6.148148e+00	 2.962963e-01	 1.018180e+01
0	 6.148148e+00	 3.703704e-01	 1.018321e+01
0	 6.222222e+00	 0.000000e+00	 1.017092e+01
0	 6.222222e+00	 7.407407e-02	 1.017105e+01
0	 6.222222e+00	 1.481481e-01	 1.017149e+01
0	 6.222222e+00	 2.222222e-01	 1.017222e+01
0	 6.222222e+00	 2.962963e-01	 1.017325e+01
0	 6.222222e+00	 3.703704e-01	 1.017460e+01
0	 6.296296e+00	 0.000000e+00	 1.016256e+01
0	 6.296296e+00	 7.407407e-02	 1.016269e+01
0	 6.296296e+00	 1.481481e-01	 1.016310e+01
0	 6.296296e+00	 2.222222e-01	 1.016380e+01
0	 6.296296e+00	 2.962963e-01	 1.016479e+01
0	 6.296296e+00	 3.703704e-01	 1.016608e+01
0	 5.925926e+00	 3.703704e-01	 1.020965e+01
0	 5.925926e+00	 4.444444e-01	 1.021159e+01
0	 5.925926e+00	 5.185185e-01	 1.021379e+01
0	 5.925926e+00	 5.925926e-01	 1.021628e+01
0	 5.925926e+00	 6.666667e-01	 1.021909e+01
0	 5.925926e+00	 7.407407e-01	 1.022222e+01
0	 6.000000e+00	 3.703704e-01	 1.020073e+01
0	 6.000000e+00	 4.444444e-01	 1.020257e+01
0	 6.000000e+00	 5.185185e-01	 1.020466e+01
0	 6.000000e+00	 5.925926e-01	 1.020704e+01
0	 6.000000e+00	 6.666667e-01	 1.020972e+01
0	 6.000000e+00	 7.407407e-01	 1.021271e+01
0	 6.074074e+00	 3.703704e-01	 1.019191e+01
0	 6.074074e+00	 4.444444e-01	 1.019367e+01
0	 6.074074e+00	 5.185185e-01	 1.019567e+01
0	 6.074074e+00	 5.925926e-01	 1.019794e+01
0	 6.074074e+00	 6.666667e-01	 1.020050e+01
0	 6.074074e+00	 7.407407e-01	 1.020336e+01
0	 6.148148e+00	 3.703704e-01	 1.018321e+01
0	 6.148148e+00	 4.444444e-01	 1.018488e+01
0	 6.148148e+00	 5.185185e-01	 1.018680e+01
0	 6.148148e+00	 5.925926e-01	 1.018897e+01
0	 6.148148e+00	 6.666667e-01	 1.019142e+01
0	 6.148148e+00	 7.407407e-01	 1.019415e+01
0	 6.222222e+00	 3.703704e-01	 1.017460e+01
0	 6.222222e+00	 4.444444e-01	 1.017620e+01
0	 6.222222e+00	 5.185185e-01	 1.017804e+01
0	 6.222222e+00	 5.925926e-01	 1.018012e+01
0	 6.222222e+00	 6.666667e-01	 1.018246e+01
0	 6.222222e+00	 7.407407e-01	 1.018507e+01
0	 6.296296e+00	 3.703704e-01	 1.016608e+01
0	 6.296296e+00	 4.444444e-01	 1.016762e+01
0	 6.296296e+00	 5.185185e-01	 1.016938e+01
0	 6.296296e+00	 5.925926e-01	 1.017137e+01
0	 6.296296e+00	 6.666667e-01	 1.017361e+01
0	 6.296296e+00	 7.407407e-01	 1.017611e+01
0	 5.925926e+00	 7.407407e-01	 1.022222e+01
0	 5.925926e+00	 8.148148e-01	 1.022558e+01
0	 5.925926e+00	 8.888889e-01	 1.022908e+01
0	 5.925926e+00	 9.629630e-01	 1.023274e+01
0	 5.925926e+00	 1.037037e+00	 1.023659e+01
0	 5.925926e+00	 1.111111e+00	 1.024066e+01
0	 6.000000e+00	 7.407407e-01	 1.021271e+01
0	 6.000000e+00	 8.148148e-01	 1.021592e+01
0	 6.000000e+00	 8.888889e-01	 1.021927e+01
0	 6.000000e+00	 9.629630e-01	 1.022278e+01
0	 6.000000e+00	 1.037037e+00	 1.022647e+01
0	 6.000000e+00	 1.111111e+00	 1.023038e+01
0	 6.074074e+00	 7.407407e-01	 1.020336e+01
0	 6.074074e+00	 8.148148e-01	 1.020643e+01
0	 6.074074e+00	 8.888889e-01	 1.020964e+01
0	 6.074074e+00	 9.629630e-01	 1.021300e+01
0	 6.074074e+00	 1.037037e+00	 1.021654e+01
0	 6.074074e+00	 1.111111e+00	 1.022030e+01
0	 6.148148e+00	 7.407407e-01	 1.019415e+01
0	 6.148148e+00	 8.148148e-01	 1.019709e+01
0	 6.148148e+00	 8.888889e-01	 1.020016e+01
0	 6.148148e+00	 9.629630e-01	 1.020339e+01
0	 6.148148e+00	 1.037037e+00	 1.020679e+01
0	 6.148148e+00	 1.111111e+00	 1.021039e+01
0	 6.222222e+00	 7.407407e-01	 1.018507e+01
0	 6.222222e+00	 8.148148e-01	 1.018789e+01
0	 6.222222e+00	 8.888889e-01	 1.019083e+01
0	 6.222222e+00	 9.629630e-01	 1.019392e+01
0	 6.222222e+00	 1.037037e+00	 1.019719e+01
0	 6.222222e+00	 1.111111e+00	 1.020064e+01
0	 6.296296e+00	 7.407407e-01	 1.017611e+01
0	 6.296296e+00	 8.148148e-01	 1.017881e+01
0	 6.296296e+00	 8.888889e-01	 1.018163e+01
0	 6.296296e+00	 9.629630e-01	 1.018459e+01
0	 6.296296e+00	 1.037037e+00	 1.018773e+01
0	 6.296296e+00	 1.111111e+00	 1.019105e+01
0	 5.925926e+00	 1.111111e+00	 1.024066e+01
0	 5.925926e+00	 1.185185e+00	 1.024484e+01
0	 5.925926e+00	 1.259259e+00	 1.024901e+01
0	 5.925926e+00	 1.333333e+00	 1.025320e+01
0	 5.925926e+00	 1.407407e+00	 1.025745e+01
0	 5.925926e+00	 1.481481e+00	 1.026178e+01
0	 6.000000e+00	 1.111111e+00	 1.023038e+01
0	 6.000000e+00	 1.185185e+00	 1.023440e+01
0	 6.000000e+00	 1.259259e+00	 1.023841e+01
0	 6.000000e+00	 1.333333e+00	 1.024245e+01
0	 6.000000e+00	 1.407407e+00	 1.024655e+01
0	 6.000000e+00	 1.481481e+00	 1.025074e+01
0	 6.074074e+00	 1.111111e+00	 1.022030e+01
0	 6.074074e+00	 1.185185e+00	 1.022416e+01
0	 6.074074e+00	 1.259259e+00	 1.022802e+01
0	 6.074074e+00	 1.333333e+00	 1.023191e+01
0	 6.074074e+00	 1.407407e+00	 1.023587e+01
0	 6.074074e+00	 1.481481e+00	 1.023991e+01
0	 6.148148e+00	 1.111111e+00	 1.021039e+01
0	 6.148148e+00	 1.185185e+00	 1.021410e+01
0	 6.148148e+00	 1.259259e+00	 1.021781e+01
0	 6.148148e+00	 1.333333e+00	 1.022157e+01
0	 6.148148e+00	 1.407407e+00	 1.022538e+01
0	 6.148148e+00	 1.481481e+00	 1.022929e+01
0	 6.222222e+00	 1.111111e+00	 1.020064e+01
0	 6.222222e+00	 1.185185e+00	 1.020421e+01
0	 6.222222e+00	 1.259259e+00	 1.020778e+01
0	 6.222222e+00	 1.333333e+00	 1.021140e+01
0	 6.222222e+00	 1.407407e+00	 1.021508e+01
0	 6.222222e+00	 1.481481e+00	 1.021885e+01
0	 6.296296e+00	 1.111111e+00	 1.019105e+01
0	 6.296296e+00	 1.185185e+00	 1.019447e+01
0	 6.296296e+00	 1.259259e+00	 1.019791e+01
0	 6.296296e+00	 1.333333e+00	 1.020139e+01
0	 6.296296e+00	 1.407407e+00	 1.020494e+01
0	 6.296296e+00	 1.481481e+00	 1.020858e+01
0	 5.925926e+00	 1.481481e+00	 1.026178e+01
0	 5.925926e+00	 1.555556e+00	 1.026609e+01
0	 5.925926e+00	 1.629630e+00	 1.027025e+01
0	 5.925926e+00	 1.703704e+00	 1.027430e+01
0	 5.925926e+00	 1.777778e+00	 1.027826e+01
0	 5.925926e+00	 1.851852e+00	 1.028216e+01
0	 6.000000e+00	 1.481481e+00	 1.025074e+01
0	 6.000000e+00	 1.555556e+00	 1.025490e+01
0	 6.000000e+00	 1.629630e+00	 1.025894e+01
0	 6.000000e+00	 1.703704e+00	 1.026286e+01
0	 6.000000e+00	 1.777778e+00	 1.026671e+01
0	 6.000000e+00	 1.851852e+00	 1.027051e+01
0	 6.074074e+00	 1.481481e+00	 1.023991e+01
0	 6.074074e+00	 1.555556e+00	 1.024394e+01
0	 6.074074e+00	 1.629630e+00	 1.024785e+01
0	 6.074074e+00	 1.703704e+00	 1.025166e+01
0	 6.074074e+00	 1.777778e+00	 1.025541e+01
0	 6.074074e+00	 1.851852e+00	 1.025912e+01
0	 6.148148e+00	 1.481481e+00	 1.022929e+01
0	 6.148148e+00	 1.555556e+00	 1.023318e+01
0	 6.148148e+00	 1.629630e+00	 1.023697e+01
0	 6.148148e+00	 1.703704e+00	 1.024068e+01
0	 6.148148e+00	 1.777778e+00	 1.024433e+01
0	 6.148148e+00	 1.851852e+00	 1.024795e+01
0	 6.222222e+00	 1.481481e+00	 1.021885e+01
0	 6.222222e+00	 1.555556e+00	 1.022261e+01
0	 6.222222e+00	 1.629630e+00	 1.022629e+01
0	 6.222222e+00	 1.703704e+00	 1.022989e+01
0	 6.222222e+00	 1.777778e+00	 1.023345e+01
0	 6.222222e+00	 1.851852e+00	 1.023698e+01
0	 6.296296e+00	 1.481481e+00	 1.020858e+01
0	 6.296296e+00	 1.555556e+00	 1.021222e+01
0	 6.296296e+00	 1.629630e+00	 1.021578e+01
0	 6.296296e+00	 1.703704e+00	 1.021929e+01
0	 6.296296e+00	 1.777778e+00	 1.022275e+01
0	 6.296296e+00	 1.851852e+00	 1.022620e+01
0	 5.925926e+00	 1.851852e+00	 1.028216e+01
0	 5.925926e+00	 1.925926e+00	 1.028592e+01
0	 5.925926e+00	 2.000000e+00	 1.028944e+01
0	 5.925926e+00	 2.074074e+00	 1.029276e+01
0	 5.925926e+00	 2.148148e+00	 1.029589e+01
0	 5.925926e+00	 2.222222e+00	 1.029886e+01
0	 6.000000e+00	 1.851852e+00	 1.027051e+01
0	 6.000000e+00	 1.925926e+00	 1.027418e+01
0	 6.000000e+00	 2.000000e+00	 1.027764e+01
0	 6.000000e+00	 2.074074e+00	 1.028090e+01
0	 6.000000e+00	 2.148148e+00	 1.028400e+01
0	 6.000000e+00	 2.222222e+00	 1.028695e+01
0	 6.074074e+00	 1.851852e+00	 1.025912e+01
0	 6.074074e+00	 1.925926e+00	 1.026270e+01
0	 6.074074e+00	 2.000000e+00	 1.026609e+01
0	 6.074074e+00	 2.074074e+00	 1.026931e+01
0	 6.074074e+00	 2.148148e+00	 1.027236e+01
0	 6.074074e+00	 2.222222e+00	 1.027528e+01
0	 6.148148e+00	 1.851852e+00	 1.024795e+01
0	 6.148148e+00	 1.925926e+00	 1.025146e+01
0	 6.148148e+00	 2.000000e+00	 1.025479e+01
0	 6.148148e+00	 2.074074e+00	 1.025794e+01
0	 6.148148e+00	 2.148148e+00	 1.026095e+01
0	 6.148148e+00	 2.222222e+00	 1.026384e+01
0	 6.222222e+00	 1.851852e+00	 1.023698e+01
0	 6.222222e+00	 1.925926e+00	 1.024042e+01
0	 6.222222e+00	 2.000000e+00	 1.024368e+01
0	 6.222222e+00	 2.074074e+00	 1.024679e+01
0	 6.222222e+00	 2.148148e+00	 1.024975e+01
0	 6.222222e+00	 2.222222e+00	 1.025260e+01
0	 6.296296e+00	 1.851852e+00	 1.022620e+01
0	 6.296296e+00	 1.925926e+00	 1.022957e+01
0	 6.296296e+00	 2.000000e+00	 1.023276e+01
0	 6.296296e+00	 2.074074e+00	 1.023581e+01
0	 6.296296e+00	 2.148148e+00	 1.023873e+01
0	 6.296296e+00	 2.222222e+00	 1.024153e+01
0	 5.925926e+00	 2.222222e+00	 1.029886e+01
0	 5.925926e+00	 2.296296e+00	 1.030160e+01
0	 5.925926e+00	 2.370370e+00	 1.030405e+01
0	 5.925926e+00	 2.444444e+00	 1.030621e+01
0	 5.925926e+00	 2.518519e+00	 1.030810e+01
0	 5.925926e+00	 2.592593e+00	 1.030974e+01
0	 6.000000e+00	 2.222222e+00	 1.028695e+01
0	 6.000000e+00	 2.296296e+00	 1.028968e+01
0	 6.000000e+00	 2.370370e+00	 1.029214e+01
0	 6.000000e+00	 2.444444e+00	 1.029432e+01
0	 6.000000e+00	 2.518519e+00	 1.029625e+01
0	 6.000000e+00	 2.592593e+00	 1.029794e+01
0	 6.074074e+00	 2.222222e+00	 1.027528e+01
0	 6.074074e+00	 2.296296e+00	 1.027800e+01
0	 6.074074e+00	 2.370370e+00	 1.028046e+01
0	 6.074074e+00	 2.444444e+00	 1.028266e+01
0	 6.074074e+00	 2.518519e+00	 1.028462e+01
0	 6.074074e+00	 2.592593e+00	 1.028636e+01
0	 6.148148e+00	 2.222222e+00	 1.026384e+01
0	 6.148148e+00	 2.296296e+00	 1.026654e+01
0	 6.148148e+00	 2.370370e+00	 1.026898e+01
0	 6.148148e+00	 2.444444e+00	 1.027120e+01
0	 6.148148e+00	 2.518519e+00	 1.027319e+01
0	 6.148148e+00	 2.592593e+00	 1.027498e+01
0	 6.222222e+00	 2.222222e+00	 1.025260e+01
0	 6.222222e+00	 2.296296e+00	 1.025527e+01
0	 6.222222e+00	 2.370370e+00	 1.025771e+01
0	 6.222222e+00	 2.444444e+00	 1.025993e+01
0	 6.222222e+00	 2.518519e+00	 1.026195e+01
0	 6.222222e+00	 2.592593e+00	 1.026378e+01
0	 6.296296e+00	 2.222222e+00	 1.024153e+01
0	 6.296296e+00	 2.296296e+00	 1.024418e+01
0	 6.296296e+00	 2.370370e+00	 1.024661e+01
0	 6.296296e+00	 2.444444e+00	 1.024884e+01
0	 6.296296e+00	 2.518519e+00	 1.025088e+01
0	 6.296296e+00	 2.592593e+00	 1.025275e+01
0	 5.925926e+00	 2.592593e+00	 1.030974e+01
0	 5.925926e+00	 2.666667e+00	 1.031110e+01
0	 5.925926e+00	 2.740741e+00	 1.031215e+01
0	 5.925926e+00	 2.814815e+00	 1.031292e+01
0	 5.925926e+00	 2.888889e+00	 1.031339e+01
0	 5.925926e+00	 2.962963e+00	 1.031359e+01
0	 6.000000e+00	 2.592593e+00	 1.029794e+01
0	 6.000000e+00	 2.666667e+00	 1.029937e+01
0	 6.000000e+00	 2.740741e+00	 1.030052e+01
0	 6.000000e+00	 2.814815e+00	 1.030139e+01
0	 6.000000e+00	 2.888889e+00	 1.030198e+01
0	 6.000000e+00	 2.962963e+00	 1.030232e+01
0	 6.074074e+00	 2.592593e+00	 1.028636e+01
0	 6.074074e+00	 2.666667e+00	 1.028786e+01
0	 6.074074e+00	 2.740741e+00	 1.028909e+01
0	 6.074074e+00	 2.814815e+00	 1.029005e+01
0	 6.074074e+00	 2.888889e+00	 1.029076e+01
0	 6.074074e+00	 2.962963e+00	 1.029121e+01
0	 6.148148e+00	 2.592593e+00	 1.027498e+01
0	 6.148148e+00	 2.666667e+00	 1.027654e+01
0	 6.148148e+00	 2.740741e+00	 1.027784e+01
0	 6.148148e+00	 2.814815e+00	 1.027889e+01
0	 6.148148e+00	 2.888889e+00	 1.027969e+01
0	 6.148148e+00	 2.962963e+00	 1.028025e+01
0	 6.222222e+00	 2.592593e+00	 1.026378e+01
0	 6.222222e+00	 2.666667e+00	 1.026540e+01
0	 6.222222e+00	 2.740741e+00	 1.026677e+01
0	 6.222222e+00	 2.814815e+00	 1.026789e+01
0	 6.222222e+00	 2.888889e+00	 1.026877e+01
0	 6.222222e+00	 2.962963e+00	 1.026943e+01
0	 6.296296e+00	 2.592593e+00	 1.025275e+01
0	 6.296296e+00	 2.666667e+00	 1.025441e+01
0	 6.296296e+00	 2.740741e+00	 1.025584e+01
0	 6.296296e+00	 2.814815e+00	 1.025703e+01
0	 6.296296e+00	 2.888889e+00	 1.025799e+01
0	 6.296296e+00	 2.962963e+00	 1.025874e+01
0	 5.925926e+00	 2.962963e+00	 1.031359e+01
0	 5.925926e+00	 3.037037e+00	 1.031351e+01
0	 5.925926e+00	 3.111111e+00	 1.031314e+01
0	 5.925926e+00	 3.185185e+00	 1.031248e+01
0	 5.925926e+00	 3.259259e+00	 1.031153e+01
0	 5.925926e+00	 3.333333e+00	 1.031030e+01
0	 6.000000e+00	 2.962963e+00	 1.030232e+01
0	 6.000000e+00	 3.037037e+00	 1.030238e+01
0	 6.000000e+00	 3.111111e+00	 1.030217e+01
0	 6.000000e+00	 3.185185e+00	 1.030167e+01
0	 6.000000e+00	 3.259259e+00	 1.030090e+01
0	 6.000000e+00	 3.333333e+00	 1.029985e+01
0	 6.074074e+00	 2.962963e+00	 1.029121e+01
0	 6.074074e+00	 3.037037e+00	 1.029140e+01
0	 6.074074e+00	 3.111111e+00	 1.029133e+01
0	 6.074074e+00	 3.185185e+00	 1.029099e+01
0	 6.074074e+00	 3.259259e+00	 1.029038e+01
0	 6.074074e+00	 3.333333e+00	 1.028951e+01
0	 6.148148e+00	 2.962963e+00	 1.028025e+01
0	 6.148148e+00	 3.037037e+00	 1.028056e+01
0	 6.148148e+00	 3.111111e+00	 1.028062e+01
0	 6.148148e+00	 3.185185e+00	 1.028042e+01
0	 6.148148e+00	 3.259259e+00	 1.027997e+01
0	 6.148148e+00	 3.333333e+00	 1.027927e+01
0	 6.222222e+00	 2.962963e+00	 1.026943e+01
0	 6.222222e+00	 3.037037e+00	 1.026985e+01
0	 6.222222e+00	 3.111111e+00	 1.027003e+01
0	 6.222222e+00	 3.185185e+00	 1.026996e+01
0	 6.222222e+00	 3.259259e+00	 1.026965e+01
0	 6.222222e+00	 3.333333e+00	 1.026911e+01
0	 6.296296e+00	 2.962963e+00	 1.025874e+01
0	 6.296296e+00	 3.037037e+00	 1.025926e+01
0	 6.296296e+00	 3.111111e+00	 1.025955e+01
0	 6.296296e+00	 3.185185e+00	 1.025961e+01
0	 6.296296e+00	 3.259259e+00	 1.025944e+01
0	 6.296296e+00	 3.333333e+00	 1.025905e+01
0	 5.925926e+00	 3.333333e+00	 1.031030e+01
0	 5.925926e+00	 3.407407e+00	 1.030880e+01
0	 5.925926e+00	 3.481481e+00	 1.030706e+01
0	 5.925926e+00	 3.555556e+00	 1.030508e+01
0	 5.925926e+00	 3.629630e+00	 1.030285e+01
0	 5.925926e+00	 3.703704e+00	 1.030037e+01
0	 6.000000e+00	 3.333333e+00	 1.029985e+01
0	 6.000000e+00	 3.407407e+00	 1.029855e+01
0	 6.000000e+00	 3.481481e+00	 1.029702e+01
0	 6.000000e+00	 3.555556e+00	 1.029525e+01
0	 6.000000e+00	 3.629630e+00	 1.029325e+01
0	 6.000000e+00	 3.703704e+00	 1.029100e+01
0	 6.074074e+00	 3.333333e+00	 1.028951e+01
0	 6.074074e+00	 3.407407e+00	 1.028840e+01
0	 6.074074e+00	 3.481481e+00	 1.028706e+01
0	 6.074074e+00	 3.555556e+00	 1.028550e+01
0	 6.074074e+00	 3.629630e+00	 1.028370e+01
0	 6.074074e+00	 3.703704e+00	 1.028166e+01
0	 6.148148e+00	 3.333333e+00	 1.027927e+01
0	 6.148148e+00	 3.407407e+00	 1.027833e+01
0	 6.148148e+00	 3.481481e+00	 1.027718e+01
0	 6.148148e+00	 3.555556e+00	 1.027580e+01
0	 6.148148e+00	 3.629630e+00	 1.027419e+01
0	 6.148148e+00	 3.703704e+00	 1.027236e+01
0	 6.222222e+00	 3.333333e+00	 1.026911e+01
0	 6.222222e+00	 3.407407e+00	 1.026835e+01
0	 6.222222e+00	 3.481481e+00	 1.026737e+01
0	 6.222222e+00	 3.555556e+00	 1.026616e+01
0	 6.222222e+00	 3.629630e+00	 1.026474e+01
0	 6.222222e+00	 3.703704e+00	 1.026310e+01
0	 6.296296e+00	 3.333333e+00	 1.025905e+01
0	 6.296296e+00	 3.407407e+00	 1.025844e+01
0	 6.296296e+00	 3.481481e+00	 1.025762e+01
0	 6.296296e+00	 3.555556e+00	 1.025659e+01
0	 6.296296e+00	 3.629630e+00	 1.025534e+01
0	 6.296296e+00	 3.703704e+00	 1.025388e+01
0	 5.925926e+00	 3.703704e+00	 1.030037e+01
0	 5.925926e+00	 3.777778e+00	 1.029768e+01
0	 5.925926e+00	 3.851852e+00	 1.029479e+01
0	 5.925926e+00	 3.925926e+00	 1.029171e+01
0	 5.925926e+00	 4.000000e+00	 1.028842e+01
0	 5.925926e+00	 4.074074e+00	 1.028492e+01
0	 6.000000e+00	 3.703704e+00	 1.029100e+01
0	 6.000000e+00	 3.777778e+00	 1.028854e+01
0	 6.000000e+00	 3.851852e+00	 1.028588e+01
0	 6.000000e+00	 3.925926e+00	 1.028304e+01
0	 6.000000e+00	 4.000000e+00	 1.027999e+01
0	 6.000000e+00	 4.074074e+00	 1.027673e+01
0	 6.074074e+00	 3.703704e+00	 1.028166e+01
0	 6.074074e+00	 3.777778e+00	 1.027941e+01
0	 6.074074e+00	 3.851852e+00	 1.027698e+01
0	 6.074074e+00	 3.925926e+00	 1.027436e+01
0	 6.074074e+00	 4.000000e+00	 1.027154e+01
0	 6.074074e+00	 4.074074e+00	 1.026852e+01
0	 6.148148e+00	 3.703704e+00	 1.027236e+01
0	 6.148148e+00	 3.777778e+00	 1.027032e+01
0	 6.148148e+00	 3.851852e+00	 1.026809e+01
0	 6.148148e+00	 3.925926e+00	 1.026568e+01
0	 6.148148e+00	 4.000000e+00	 1.026308e+01
0	 6.148148e+00	 4.074074e+00	 1.026028e+01
0	 6.222222e+00	 3.703704e+00	 1.026310e+01
0	 6.222222e+00	 3.777778e+00	 1.026125e+01
0	 6.222222e+00	 3.851852e+00	 1.025923e+01
0	 6.222222e+00	 3.925926e+00	 1.025702e+01
0	 6.222222e+00	 4.000000e+00	 1.025463e+01
0	 6.222222e+00	 4.074074e+00	 1.025204e+01
0	 6.296296e+00	 3.703704e+00	 1.025388e+01
0	 6.296296e+00	 3.777778e+00	 1.025222e+01
0	 6.296296e+00	 3.851852e+00	 1.025038e+01
0	 6.296296e+00	 3.925926e+00	 1.024837e+01
0	 6.296296e+00	 4.000000e+00	 1.024618e+01
0	 6.296296e+00	 4.074074e+00	 1.024380e+01
0	 5.925926e+00	 4.074074e+00	 1.028492e+01
0	 5.925926e+00	 4.148148e+00	 1.028125e+01
0	 5.925926e+00	 4.222222e+00	 1.027746e+01
0	 5.925926e+00	 4.296296e+00	 1.027352e+01
0	 5.925926e+00	 4.370370e+00	 1.026944e+01
0	 5.925926e+00	 4.444444e+00	 1.026521e+01
0	 6.000000e+00	 4.074074e+00	 1.027673e+01
0	 6.000000e+00	 4.148148e+00	 1.027331e+01
0	 6.000000e+00	 4.222222e+00	 1.026975e+01
0	 6.000000e+00	 4.296296e+00	 1.026606e+01
0	 6.000000e+00	 4.370370e+00	 1.026222e+01
0	 6.000000e+00	 4.444444e+00	 1.025823e+01
0	 6.074074e+00	 4.074074e+00	 1.026852e+01
0	 6.074074e+00	 4.148148e+00	 1.026533e+01
0	 6.074074e+00	 4.222222e+00	 1.026201e+01
0	 6.074074e+00	 4.296296e+00	 1.025855e+01
0	 6.074074e+00	 4.370370e+00	 1.025494e+01
0	 6.074074e+00	 4.444444e+00	 1.025119e+01
0	 6.148148e+00	 4.074074e+00	 1.026028e+01
0	 6.148148e+00	 4.148148e+00	 1.025732e+01
0	 6.148148e+00	 4.222222e+00	 1.025423e+01
0	 6.148148e+00	 4.296296e+00	 1.025099e+01
0	 6.148148e+00	 4.370370e+00	 1.024761e+01
0	 6.148148e+00	 4.444444e+00	 1.024408e+01
0	 6.222222e+00	 4.074074e+00	 1.025204e+01
0	 6.222222e+00	 4.148148e+00	 1.024930e+01
0	 6.222222e+00	 4.222222e+00	 1.024642e+01
0	 6.222222e+00	 4.296296e+00	 1.024340e+01
0	 6.222222e+00	 4.370370e+00	 1.024024e+01
0	 6.222222e+00	 4.444444e+00	 1.023692e+01
0	 6.296296e+00	 4.074074e+00	 1.024380e+01
0	 6.296296e+00	 4.148148e+00	 1.024127e+01
0	 6.296296e+00	 4.222222e+00	 1.023860e+01
0	 6.296296e+00	 4.296296e+00	 1.023579e+01
0	 6.296296e+00	 4.370370e+00	 1.023283e+01
0	 6.296296e+00	 4.444444e+00	 1.022973e+01
0	 5.925926e+00	 4.444444e+00	 1.026521e+01
0	 5.925926e+00	 4.518519e+00	 1.026085e+01
0	 5.925926e+00	 4.592593e+00	 1.025642e+01
0	 5.925926e+00	 4.666667e+00	 1.025190e+01
0	 5.925926e+00	 4.740741e+00	 1.024729e+01
0	 5.925926e+00	 4.814815e+00	 1.024256e+01
0	 6.000000e+00	 4.444444e+00	 1.025823e+01
0	 6.000000e+00	 4.518519e+00	 1.025412e+01
0	 6.000000e+00	 4.592593e+00	 1.024993e+01
0	 6.000000e+00	 4.666667e+00	 1.024564e+01
0	 6.000000e+00	 4.740741e+00	 1.024125e+01
0	 6.000000e+00	 4.814815e+00	 1.023676e+01
0	 6.074074e+00	 4.444444e+00	 1.025119e+01
0	 6.074074e+00	 4.518519e+00	 1.024731e+01
0	 6.074074e+00	 4.592593e+00	 1.024334e+01
0	 6.074074e+00	 4.666667e+00	 1.023928e+01
0	 6.074074e+00	 4.740741e+00	 1.023512e+01
0	 6.074074e+00	 4.814815e+00	 1.023085e+01
0	 6.148148e+00	 4.444444e+00	 1.024408e+01
0	 6.148148e+00	 4.518519e+00	 1.024042e+01
0	 6.148148e+00	 4.592593e+00	 1.023668e+01
0	 6.148148e+00	 4.666667e+00	 1.023284e+01
0	 6.148148e+00	 4.740741e+00	 1.022889e+01
0	 6.148148e+00	 4.814815e+00	 1.022484e+01
0	 6.222222e+00	 4.444444e+00	 1.023692e+01
0	 6.222222e+00	 4.518519e+00	 1.023348e+01
0	 6.222222e+00	 4.592593e+00	 1.022995e+01
0	 6.222222e+00	 4.666667e+00	 1.022632e+01
0	 6.222222e+00	 4.740741e+00	 1.022259e+01
0	 6.222222e+00	 4.814815e+00	 1.021875e+01
0	 6.296296e+00	 4.444444e+00	 1.022973e+01
0	 6.296296e+00	 4.518519e+00	 1.022650e+01
0	 6.296296e+00	 4.592593e+00	 1.022317e+01
0	 6.296296e+00	 4.666667e+00	 1.021976e+01
0	 6.296296e+00	 4.740741e+00	 1.021623e+01
0	 6.296296e+00	 4.814815e+00	 1.021260e+01
0	 5.925926e+00	 4.814815e+00	 1.024256e+01
0	 5.925926e+00	 4.888889e+00	 1.023777e+01
0	 5.925926e+00	 4.962963e+00	 1.023294e+01
0	 5.925926e+00	 5.037037e+00	 1.022808e+01
0	 5.925926e+00	 5.111111e+00	 1.022316e+01
0	 5.925926e+00	 5.185185e+00	 1.021819e+01
0	 6.000000e+00	 4.814815e+00	 1.023676e+01
0	 6.000000e+00	 4.888889e+00	 1.023219e+01
0	 6.000000e+00	 4.962963e+00	 1.022759e+01
0	 6.000000e+00	 5.037037e+00	 1.022293e+01
0	 6.000000e+00	 5.111111e+00	 1.021823e+01
0	 6.000000e+00	 5.185185e+00	 1.021346e+01
0	 6.074074e+00	 4.814815e+00	 1.023085e+01
0	 6.074074e+00	 4.888889e+00	 1.022650e+01
0	 6.074074e+00	 4.962963e+00	 1.022211e+01
0	 6.074074e+00	 5.037037e+00	 1.021767e+01
0	 6.074074e+00	 5.111111e+00	 1.021317e+01
0	 6.074074e+00	 5.185185e+00	 1.020860e+01
0	 6.148148e+00	 4.814815e+00	 1.022484e+01
0	 6.148148e+00	 4.888889e+00	 1.022070e+01
0	 6.148148e+00	 4.962963e+00	 1.021653e+01
0	 6.148148e+00	 5.037037e+00	 1.021229e+01
0	 6.148148e+00	 5.111111e+00	 1.020799e+01
0	 6.148148e+00	 5.185185e+00	 1.020363e+01
0	 6.222222e+00	 4.814815e+00	 1.021875e+01
0	 6.222222e+00	 4.888889e+00	 1.021483e+01
0	 6.222222e+00	 4.962963e+00	 1.021085e+01
0	 6.222222e+00	 5.037037e+00	 1.020682e+01
0	 6.222222e+00	 5.111111e+00	 1.020272e+01
0	 6.222222e+00	 5.185185e+00	 1.019855e+01
0	 6.296296e+00	 4.814815e+00	 1.021260e+01
0	 6.296296e+00	 4.888889e+00	 1.020888e+01
0	 6.296296e+00	 4.962963e+00	 1.020511e+01
0	 6.296296e+00	 5.037037e+00	 1.020127e+01
0	 6.296296e+00	 5.111111e+00	 1.019737e+01
0	 6.296296e+00	 5.185185e+00	 1.019339e+01
0	 5.925926e+00	 5.185185e+00	 1.021819e+01
0	 5.925926e+00	 5.259259e+00	 1.021319e+01
0	 5.925926e+00	 5.333333e+00	 1.020819e+01
0	 5.925926e+00	 5.407407e+00	 1.020318e+01
0	 5.925926e+00	 5.481481e+00	 1.019816e+01
0	 5.925926e+00	 5.555556e+00	 1.019312e+01
0	 6.000000e+00	 5.185185e+00	 1.021346e+01
0	 6.000000e+00	 5.259259e+00	 1.020866e+01
0	 6.000000e+00	 5.333333e+00	 1.020386e+01
0	 6.000000e+00	 5.407407e+00	 1.019904e+01
0	 6.000000e+00	 5.481481e+00	 1.019420e+01
0	 6.000000e+00	 5.555556e+00	 1.018934e+01
0	 6.074074e+00	 5.185185e+00	 1.020860e+01
0	 6.074074e+00	 5.259259e+00	 1.020400e+01
0	 6.074074e+00	 5.333333e+00	 1.019939e+01
0	 6.074074e+00	 5.407407e+00	 1.019476e+01
0	 6.074074e+00	 5.481481e+00	 1.019011e+01
0	 6.074074e+00	 5.555556e+00	 1.018542e+01
0	 6.148148e+00	 5.185185e+00	 1.020363e+01
0	 6.148148e+00	 5.259259e+00	 1.019922e+01
0	 6.148148e+00	 5.333333e+00	 1.019480e+01
0	 6.148148e+00	 5.407407e+00	 1.019035e+01
0	 6.148148e+00	 5.481481e+00	 1.018588e+01
0	 6.148148e+00	 5.555556e+00	 1.018138e+01
0	 6.222222e+00	 5.185185e+00	 1.019855e+01
0	 6.222222e+00	 5.259259e+00	 1.019434e+01
0	 6.222222e+00	 5.333333e+00	 1.019010e+01
0	 6.222222e+00	 5.407407e+00	 1.018584e+01
0	 6.222222e+00	 5.481481e+00	 1.018155e+01
0	 6.222222e+00	 5.555556e+00	 1.017722e+01
0	 6.296296e+00	 5.185185e+00	 1.019339e+01
0	 6.296296e+00	 5.259259e+00	 1.018936e+01
0	 6.296296e+00	 5.333333e+00	 1.018531e+01
0	 6.296296e+00	 5.407407e+00	 1.018123e+01
0	 6.296296e+00	 5.481481e+00	 1.017712e+01
0	 6.296296e+00	 5.555556e+00	 1.017296e+01
0	 5.925926e+00	 5.555556e+00	 1.019312e+01
0	 5.925926e+00	 5.629630e+00	 1.018808e+01
0	 5.925926e+00	 5.703704e+00	 1.018307e+01
0	 5.925926e+00	 5.777778e+00	 1.017808e+01
0	 5.925926e+00	 5.851852e+00	 1.017311e+01
0	 5.925926e+00	 5.925926e+00	 1.016814e+01
0	 6.000000e+00	 5.555556e+00	 1.018934e+01
0	 6.000000e+00	 5.629630e+00	 1.018448e+01
0	 6.000000e+00	 5.703704e+00	 1.017964e+01
0	 6.000000e+00	 5.777778e+00	 1.017481e+01
0	 6.000000e+00	 5.851852e+00	 1.017000e+01
0	 6.000000e+00	 5.925926e+00	 1.016519e+01
0	 6.074074e+00	 5.555556e+00	 1.018542e+01
0	 6.074074e+00	 5.629630e+00	 1.018073e+01
0	 6.074074e+00	 5.703704e+00	 1.017606e+01
0	 6.074074e+00	 5.777778e+00	 1.017140e+01
0	 6.074074e+00	 5.851852e+00	 1.016674e+01
0	 6.074074e+00	 5.925926e+00	 1.016208e+01
0	 6.148148e+00	 5.555556e+00	 1.018138e+01
0	 6.148148e+00	 5.629630e+00	 1.017686e+01
0	 6.148148e+00	 5.703704e+00	 1.017235e+01
0	 6.148148e+00	 5.777778e+00	 1.016785e+01
0	 6.148148e+00	 5.851852e+00	 1.016336e+01
0	 6.148148e+00	 5.925926e+00	 1.015885e+01
0	 6.222222e+00	 5.555556e+00	 1.017722e+01
0	 6.222222e+00	 5.629630e+00	 1.017287e+01
0	 6.222222e+00	 5.703704e+00	 1.016853e+01
0	 6.222222e+00	 5.777778e+00	 1.016420e+01
0	 6.222222e+00	 5.851852e+00	 1.015985e+01
0	 6.222222e+00	 5.925926e+00	 1.015550e+01
0	 6.296296e+00	 5.555556e+00	 1.017296e+01
0	 6.296296e+00	 5.629630e+00	 1.016879e+01
0	 6.296296e+00	 5.703704e+00	 1.016462e+01
0	 6.296296e+00	 5.777778e+00	 1.016044e+01
0	 6.296296e+00	 5.851852e+00	 1.015625e+01
0	 6.296296e+00	 5.925926e+00	 1.015205e+01
0	 5.925926e+00	 5.925926e+00	 1.016814e+01
0	 5.925926e+00	 6.000000e+00	 1.016321e+01
0	 5.925926e+00	 6.074074e+00	 1.015832e+01
0	 5.925926e+00	 6.148148e+00	 1.015348e+01
0	 5.925926e+00	 6.222222e+00	 1.014867e+01
0	 5.925926e+00	 6.296296e+00	 1.014389e+01
0	 6.000000e+00	 5.925926e+00	 1.016519e+01
0	 6.000000e+00	 6.000000e+00	 1.016040e+01
0	 6.000000e+00	 6.074074e+00	 1.015565e+01
0	 6.000000e+00	 6.148148e+00	 1.015094e+01
0	 6.000000e+00	 6.222222e+00	 1.014626e+01
0	 6.000000e+00	 6.296296e+00	 1.014160e+01
0	 6.074074e+00	 5.925926e+00	 1.016208e+01
0	 6.074074e+00	 6.000000e+00	 1.015744e+01
0	 6.074074e+00	 6.074074e+00	 1.015284e+01
0	 6.074074e+00	 6.148148e+00	 1.014826e+01
0	 6.074074e+00	 6.222222e+00	 1.014371e+01
0	 6.074074e+00	 6.296296e+00	 1.013919e+01
0	 6.148148e+00	 5.925926e+00	 1.015885e+01
0	 6.148148e+00	 6.000000e+00	 1.015436e+01
0	 6.148148e+00	 6.074074e+00	 1.014990e+01
0	 6.148148e+00	 6.148148e+00	 1.014546e+01
0	 6.148148e+00	 6.222222e+00	 1.014104e+01
0	 6.148148e+00	 6.296296e+00	 1.013665e+01
0	 6.222222e+00	 5.925926e+00	 1.015550e+01
0	 6.222222e+00	 6.000000e+00	 1.015116e+01
0	 6.222222e+00	 6.074074e+00	 1.014684e+01
0	 6.222222e+00	 6.148148e+00	 1.014254e+01
0	 6.222222e+00	 6.222222e+00	 1.013826e+01
0	 6.222222e+00	 6.296296e+00	 1.013399e+01
0	 6.296296e+00	 5.925926e+00	 1.015205e+01
0	 6.296296e+00	 6.000000e+00	 1.014786e+01
0	 6.296296e+00	 6.074074e+00	 1.014368e+01
0	 6.296296e+00	 6.148148e+00	 1.013952e+01
0	 6.296296e+00	 6.222222e+00	 1.013538e+01
0	 6.296296e+00	 6.296296e+00	 1.013124e+01
0	 5.925926e+00	 6.296296e+00	 1.014389e+01
0	 5.925926e+00	 6.370370e+00	 1.013915e+01
0	 5.925926e+00	 6.444444e+00	 1.013447e+01
0	 5.925926e+00	 6.518519e+00	 1.012985e+01
0	 5.925926e+00	 6.592593e+00	 1.012528e+01
0	 5.925926e+00	 6.666667e+00	 1.012076e+01
0	 6.000000e+00	 6.296296e+00	 1.014160e+01
0	 6.000000e+00	 6.370370e+00	 1.013699e+01
0	 6.000000e+00	 6.444444e+00	 1.013243e+01
0	 6.000000e+00	 6.518519e+00	 1.012792e+01
0	 6.000000e+00	 6.592593e+00	 1.012345e+01
0	 6.000000e+00	 6.666667e+00	 1.011903e+01
0	 6.074074e+00	 6.296296e+00	 1.013919e+01
0	 6.074074e+00	 6.370370e+00	 1.013469e+01
0	 6.074074e+00	 6.444444e+00	 1.013025e+01
0	 6.074074e+00	 6.518519e+00	 1.012585e+01
0	 6.074074e+00	 6.592593e+00	 1.012150e+01
0	 6.074074e+00	 6.666667e+00	 1.011718e+01
0	 6.148148e+00	 6.296296e+00	 1.013665e+01
0	 6.148148e+00	 6.370370e+00	 1.013228e+01
0	 6.148148e+00	 6.444444e+00	 1.012795e+01
0	 6.148148e+00	 6.518519e+00	 1.012367e+01
0	 6.148148e+00	 6.592593e+00	 1.011942e+01
0	 6.148148e+00	 6.666667e+00	 1.011521e+01
0	 6.222222e+00	 6.296296e+00	 1.013399e+01
0	 6.222222e+00	 6.370370e+00	 1.012975e+01
0	 6.222222e+00	 6.444444e+00	 1.012555e+01
0	 6.222222e+00	 6.518519e+00	 1.012138e+01
0	 6.222222e+00	 6.592593e+00	 1.011725e+01
0	 6.222222e+00	 6.666667e+00	 1.011314e+01
0	 6.296296e+00	 6.296296e+00	 1.013124e+01
0	 6.296296e+00	 6.370370e+00	 1.012712e+01
0	 6.296296e+00	 6.444444e+00	 1.012305e+01
0	 6.296296e+00	 6.518519e+00	 1.011900e+01
0	 6.296296e+00	 6.592593e+00	 1.011498e+01
0	 6.296296e+00	 6.666667e+00	 1.011098e+01
0	 5.925926e+00	 6.666667e+00	 1.012076e+01
0	 5.925926e+00	 6.740741e+00	 1.011629e+01
0	 5.925926e+00	 6.814815e+00	 1.011189e+01
0	 5.925926e+00	 6.888889e+00	 1.010755e+01
0	 5.925926e+00	 6.962963e+00	 1.010327e+01
0	 5.925926e+00	 7.037037e+00	 1.009905e+01
0	 6.000000e+00	 6.666667e+00	 1.011903e+01
0	 6.000000e+00	 6.740741e+00	 1.011466e+01
0	 6.000000e+00	 6.814815e+00	 1.011035e+01
0	 6.000000e+00	 6.888889e+00	 1.010610e+01
0	 6.000000e+00	 6.962963e+00	 1.010191e+01
0	 6.000000e+00	 7.037037e+00	 1.009776e+01
0	 6.074074e+00	 6.666667e+00	 1.011718e+01
0	 6.074074e+00	 6.740741e+00	 1.011290e+01
0	 6.074074e+00	 6.814815e+00	 1.010869e+01
0	 6.074074e+00	 6.888889e+00	 1.010453e+01
0	 6.074074e+00	 6.962963e+00	 1.010043e+01
0	 6.074074e+00	 7.037037e+00	 1.009637e+01
0	 6.148148e+00	 6.666667e+00	 1.011521e+01
0	 6.148148e+00	 6.740741e+00	 1.011104e+01
0	 6.148148e+00	 6.814815e+00	 1.010693e+01
0	 6.148148e+00	 6.888889e+00	 1.010286e+01
0	 6.148148e+00	 6.962963e+00	 1.009884e+01
0	 6.148148e+00	 7.037037e+00	 1.009487e+01
0	 6.222222e+00	 6.666667e+00	 1.011314e+01
0	 6.222222e+00	 6.740741e+00	 1.010908e+01
0	 6.222222e+00	 6.814815e+00	 1.010506e+01
0	 6.222222e+00	 6.888889e+00	 1.010109e+01
0	 6.222222e+00	 6.962963e+00	 1.009717e+01
0	 6.222222e+00	 7.037037e+00	 1.009329e+01
0	 6.296296e+00	 6.666667e+00	 1.011098e+01
0	 6.296296e+00	 6.740741e+00	 1.010702e+01
0	 6.296296e+00	 6.814815e+00	 1.010311e+01
0	 6.296296e+00	 6.888889e+00	 1.009924e+01
0	 6.296296e+00	 6.962963e+00	 1.009541e+01
0	 6.296296e+00	 7.037037e+00	 1.009162e+01
0	 5.925926e+00	 7.037037e+00	 1.009905e+01
0	 5.925926e+00	 7.111111e+00	 1.009489e+01
0	 5.925926e+00	 7.185185e+00	 1.009081e+01
0	 5.925926e+00	 7.259259e+00	 1.008680e+01
0	 5.925926e+00	 7.333333e+00	 1.008285e+01
0	 5.925926e+00	 7.407407e+00	 1.007896e+01
0	 6.000000e+00	 7.037037e+00	 1.009776e+01
0	 6.000000e+00	 7.111111e+00	 1.009368e+01
0	 6.000000e+00	 7.185185e+00	 1.008967e+01
0	 6.000000e+00	 7.259259e+00	 1.008573e+01
0	 6.000000e+00	 7.333333e+00	 1.008184e+01
0	 6.000000e+00	 7.407407e+00	 1.007802e+01
0	 6.074074e+00	 7.037037e+00	 1.009637e+01
0	 6.074074e+00	 7.111111e+00	 1.009237e+01
0	 6.074074e+00	 7.185185e+00	 1.008843e+01
0	 6.074074e+00	 7.259259e+00	 1.008456e+01
0	 6.074074e+00	 7.333333e+00	 1.008074e+01
0	 6.074074e+00	 7.407407e+00	 1.007699e+01
0	 6.148148e+00	 7.037037e+00	 1.009487e+01
0	 6.148148e+00	 7.111111e+00	 1.009095e+01
0	 6.148148e+00	 7.185185e+00	 1.008710e+01
0	 6.148148e+00	 7.259259e+00	 1.008330e+01
0	 6.148148e+00	 7.333333e+00	 1.007956e+01
0	 6.148148e+00	 7.407407e+00	 1.007587e+01
0	 6.222222e+00	 7.037037e+00	 1.009329e+01
0	 6.222222e+00	 7.111111e+00	 1.008945e+01
0	 6.222222e+00	 7.185185e+00	 1.008568e+01
0	 6.222222e+00	 7.259259e+00	 1.008196e+01
0	 6.222222e+00	 7.333333e+00	 1.007830e+01
0	 6.222222e+00	 7.407407e+00	 1.007468e+01
0	 6.296296e+00	 7.037037e+00	 1.009162e+01
0	 6.296296e+00	 7.111111e+00	 1.008788e+01
0	 6.296296e+00	 7.185185e+00	 1.008419e+01
0	 6.296296e+00	 7.259259e+00	 1.008055e+01
0	 6.296296e+00	 7.333333e+00	 1.007696e+01
0	 6.296296e+00	 7.407407e+00	 1.007342e+01
0	 5.925926e+00	 7.407407e+00	 1.007896e+01
0	 5.925926e+00	 7.481481e+00	 1.007515e+01
0	 5.925926e+00	 7.555556e+00	 1.007141e+01
0	 5.925926e+00	 7.629630e+00	 1.006775e+01
0	 5.925926e+00	 7.703704e+00	 1.006415e+01
0	 5.925926e+00	 7.777778e+00	 1.006063e+01
0	 6.000000e+00	 7.407407e+00	 1.007802e+01
0	 6.000000e+00	 7.481481e+00	 1.007426e+01
0	 6.000000e+00	 7.555556e+00	 1.007058e+01
0	 6.000000e+00	 7.629630e+00	 1.006697e+01
0	 6.000000e+00	 7.703704e+00	 1.006343e+01
0	 6.000000e+00	 7.777778e+00	 1.005996e+01
0	 6.074074e+00	 7.407407e+00	 1.007699e+01
0	 6.074074e+00	 7.481481e+00	 1.007329e+01
0	 6.074074e+00	 7.555556e+00	 1.006967e+01
0	 6.074074e+00	 7.629630e+00	 1.006612e+01
0	 6.074074e+00	 7.703704e+00	 1.006263e+01
0	 6.074074e+00	 7.777778e+00	 1.005921e+01
0	 6.148148e+00	 7.407407e+00	 1.007587e+01
0	 6.148148e+00	 7.481481e+00	 1.007224e+01
0	 6.148148e+00	 7.555556e+00	 1.006869e+01
0	 6.148148e+00	 7.629630e+00	 1.006519e+01
0	 6.148148e+00	 7.703704e+00	 1.006177e+01
0	 6.148148e+00	 7.777778e+00	 1.005840e+01
0	 6.222222e+00	 7.407407e+00	 1.007468e+01
0	 6.222222e+00	 7.481481e+00	 1.007112e+01
0	 6.222222e+00	 7.555556e+00	 1.006763e+01
0	 6.222222e+00	 7.629630e+00	 1.006420e+01
0	 6.222222e+00	 7.703704e+00	 1.006084e+01
0	 6.222222e+00	 7.777778e+00	 1.005752e+01
0	 6.296296e+00	 7.407407e+00	 1.007342e+01
0	 6.296296e+00	 7.481481e+00	 1.006993e+01
0	 6.296296e+00	 7.555556e+00	 1.006651e+01
0	 6.296296e+00	 7.629630e+00	 1.006315e+01
0	 6.296296e+00	 7.703704e+00	 1.005985e+01
0	 6.296296e+00	 7.777778e+00	 1.005660e+01
0	 5.925926e+00	 7.777778e+00	 1.006063e+01
0	 5.925926e+00	 7.851852e+00	 1.005718e+01
0	 5.925926e+00	 7.925926e+00	 1.005382e+01
0	 5.925926e+00	 8.000000e+00	 1.005054e+01
0	 5.925926e+00	 8.074074e+00	 1.004733e+01
0	 5.925926e+00	 8.148148e+00	 1.004420e+01
0	 6.000000e+00	 7.777778e+00	 1.005996e+01
0	 6.000000e+00	 7.851852e+00	 1.005655e+01
0	 6.000000e+00	 7.925926e+00	 1.005323e+01
0	 6.000000e+00	 8.000000e+00	 1.004999e+01
0	 6.000000e+00	 8.074074e+00	 1.004682e+01
0	 6.000000e+00	 8.148148e+00	 1.004373e+01
0	 6.074074e+00	 7.777778e+00	 1.005921e+01
0	 6.074074e+00	 7.851852e+00	 1.005586e+01
0	 6.074074e+00	 7.925926e+00	 1.005258e+01
0	 6.074074e+00	 8.000000e+00	 1.004939e+01
0	 6.074074e+00	 8.074074e+00	 1.004626e+01
0	 6.074074e+00	 8.148148e+00	 1.004321e+01
0	 6.148148e+00	 7.777778e+00	 1.005840e+01
0	 6.148148e+00	 7.851852e+00	 1.005510e+01
0	 6.148148e+00	 7.925926e+00	 1.005187e+01
0	 6.148148e+00	 8.000000e+00	 1.004873e+01
0	 6.148148e+00	 8.074074e+00	 1.004565e+01
0	 6.148148e+00	 8.148148e+00	 1.004264e+01
0	 6.222222e+00	 7.777778e+00	 1.005752e+01
0	 6.222222e+00	 7.851852e+00	 1.005428e+01
0	 6.222222e+00	 7.925926e+00	 1.005111e+01
0	 6.222222e+00	 8.000000e+00	 1.004802e+01
0	 6.222222e+00	 8.074074e+00	 1.004499e+01
0	 6.222222e+00	 8.148148e+00	 1.004202e+01
0	 6.296296e+00	 7.777778e+00	 1.005660e+01
0	 6.296296e+00	 7.851852e+00	 1.005341e+01
0	 6.296296e+00	 7.925926e+00	 1.005030e+01
0	 6.296296e+00	 8.000000e+00	 1.004726e+01
0	 6.296296e+00	 8.074074e+00	 1.004428e+01
0	 6.296296e+00	 8.148148e+00	 1.004137e+01
0	 5.925926e+00	 8.148148e+00	 1.004420e+01
0	 5.925926e+00	 8.222222e+00	 1.004115e+01
0	 5.925926e+00	 8.296296e+00	 1.003819e+01
0	 5.925926e+00	 8.370370e+00	 1.003532e+01
0	 5.925926e+00	 8.444444e+00	 1.003254e+01
0	 5.925926e+00	 8.518519e+00	 1.002983e+01
0	 6.000000e+00	 8.148148e+00	 1.004373e+01
0	 6.000000e+00	 8.222222e+00	 1.004071e+01
0	 6.000000e+00	 8.296296e+00	 1.003779e+01
0	 6.000000e+00	 8.370370e+00	 1.003495e+01
0	 6.000000e+00	 8.444444e+00	 1.003220e+01
0	 6.000000e+00	 8.518519e+00	 1.002952e+01
0	 6.074074e+00	 8.148148e+00	 1.004321e+01
0	 6.074074e+00	 8.222222e+00	 1.004023e+01
0	 6.074074e+00	 8.296296e+00	 1.003734e+01
0	 6.074074e+00	 8.370370e+00	 1.003454e+01
0	 6.074074e+00	 8.444444e+00	 1.003182e+01
0	 6.074074e+00	 8.518519e+00	 1.002918e+01
0	 6.148148e+00	 8.148148e+00	 1.004264e+01
0	 6.148148e+00	 8.222222e+00	 1.003970e+01
0	 6.148148e+00	 8.296296e+00	 1.003686e+01
0	 6.148148e+00	 8.370370e+00	 1.003409e+01
0	 6.148148e+00	 8.444444e+00	 1.003141e+01
0	 6.148148e+00	 8.518519e+00	 1.002880e+01
0	 6.222222e+00	 8.148148e+00	 1.004202e+01
0	 6.222222e+00	 8.222222e+00	 1.003913e+01
0	 6.222222e+00	 8.296296e+00	 1.003633e+01
0	 6.222222e+00	 8.370370e+00	 1.003361e+01
0	 6.222222e+00	 8.444444e+00	 1.003096e+01
0	 6.222222e+00	 8.518519e+00	 1.002839e+01
0	 6.296296e+00	 8.148148e+00	 1.004137e+01
0	 6.296296e+00	 8.222222e+00	 1.003853e+01
0	 6.296296e+00	 8.296296e+00	 1.003577e+01
0	 6.296296e+00	 8.370370e+00	 1.003309e+01
0	 6.296296e+00	 8.444444e+00	 1.003049e+01
0	 6.296296e+00	 8.518519e+00	 1.002796e+01
0	 5.925926e+00	 8.518519e+00	 1.002983e+01
0	 5.925926e+00	 8.592593e+00	 1.002722e+01
0	 5.925926e+00	 8.666667e+00	 1.002472e+01
0	 5.925926e+00	 8.740741e+00	 1.002231e+01
0	 5.925926e+00	 8.814815e+00	 1.002000e+01
0	 5.925926e+00	 8.888889e+00	 1.001779e+01
0	 6.000000e+00	 8.518519e+00	 1.002952e+01
0	 6.000000e+00	 8.592593e+00	 1.002694e+01
0	 6.000000e+00	 8.666667e+00	 1.002446e+01
0	 6.000000e+00	 8.740741e+00	 1.002208e+01
0	 6.000000e+00	 8.814815e+00	 1.001980e+01
0	 6.000000e+00	 8.888889e+00	 1.001760e+01
0	 6.074074e+00	 8.518519e+00	 1.002918e+01
0	 6.074074e+00	 8.592593e+00	 1.002663e+01
0	 6.074074e+00	 8.666667e+00	 1.002418e+01
0	 6.074074e+00	 8.740741e+00	 1.002183e+01
0	 6.074074e+00	 8.814815e+00	 1.001957e+01
0	 6.074074e+00	 8.888889e+00	 1.001740e+01
0	 6.148148e+00	 8.518519e+00	 1.002880e+01
0	 6.148148e+00	 8.592593e+00	 1.002628e+01
0	 6.148148e+00	 8.666667e+00	 1.002386e+01
0	 6.148148e+00	 8.740741e+00	 1.002154e+01
0	 6.148148e+00	 8.814815e+00	 1.001931e+01
0	 6.148148e+00	 8.888889e+00	 1.001717e+01
0	 6.222222e+00	 8.518519e+00	 1.002839e+01
0	 6.222222e+00	 8.592593e+00	 1.002591e+01
0	 6.222222e+00	 8.666667e+00	 1.002353e+01
0	 6.222222e+00	 8.740741e+00	 1.002124e+01
0	 6.222222e+00	 8.814815e+00	 1.001904e+01
0	 6.222222e+00	 8.888889e+00	 1.001693e+01
0	 6.296296e+00	 8.518519e+00	 1.002796e+01
0	 6.296296e+00	 8.592593e+00	 1.002551e+01
0	 6.296296e+00	 8.666667e+00	 1.002317e+01
0	 6.296296e+00	 8.740741e+00	 1.002091e+01
0	 6.296296e+00	 8.814815e+00	 1.001875e+01
0	 6.296296e+00	 8.888889e+00	 1.001667e+01
0	 5.925926e+00	 8.888889e+00	 1.001779e+01
0	 5.925926e+00	 8.962963e+00	 1.001568e+01
0	 5.925926e+00	 9.037037e+00	 1.001369e+01
0	 5.925926e+00	 9.111111e+00	 1.001182e+01
0	 5.925926e+00	 9.185185e+00	 1.001007e+01
0	 5.925926e+00	 9.259259e+00	 1.000842e+01
0	 6.000000e+00	 8.888889e+00	 1.001760e+01
0	 6.000000e+00	 8.962963e+00	 1.001551e+01
0	 6.000000e+00	 9.037037e+00	 1.001355e+01
0	 6.000000e+00	 9.111111e+00	 1.001170e+01
0	 6.000000e+00	 9.185185e+00	 1.000996e+01
0	 6.000000e+00	 9.259259e+00	 1.000833e+01
0	 6.074074e+00	 8.888889e+00	 1.001740e+01
0	 6.074074e+00	 8.962963e+00	 1.001533e+01
0	 6.074074e+00	 9.037037e+00	 1.001339e+01
0	 6.074074e+00	 9.111111e+00	 1.001156e+01
0	 6.074074e+00	 9.185185e+00	 1.000984e+01
0	 6.074074e+00	 9.259259e+00	 1.000823e+01
0	 6.148148e+00	 8.888889e+00	 1.001717e+01
0	 6.148148e+00	 8.962963e+00	 1.001513e+01
0	 6.148148e+00	 9.037037e+00	 1.001321e+01
0	 6.148148e+00	 9.111111e+00	 1.001141e+01
0	 6.148148e+00	 9.185185e+00	 1.000971e+01
0	 6.148148e+00	 9.259259e+00	 1.000812e+01
0	 6.222222e+00	 8.888889e+00	 1.001693e+01
0	 6.222222e+00	 8.962963e+00	 1.001492e+01
0	 6.222222e+00	 9.037037e+00	 1.001302e+01
0	 6.222222e+00	 9.111111e+00	 1.001125e+01
0	 6.222222e+00	 9.185185e+00	 1.000957e+01
0	 6.222222e+00	 9.259259e+00	 1.000800e+01
0	 6.296296e+00	 8.888889e+00	 1.001667e+01
0	 6.296296e+00	 8.962963e+00	 1.001469e+01
0	 6.296296e+00	 9.037037e+00	 1.001282e+01
0	 6.296296e+00	 9.111111e+00	 1.001107e+01
0	 6.296296e+00	 9.185185e+00	 1.000943e+01
0	 6.296296e+00	 9.259259e+00	 1.000788e+01
0	 5.925926e+00	 9.259259e+00	 1.000842e+01
0	 5.925926e+00	 9.333333e+00	 1.000690e+01
0	 5.925926e+00	 9.407407e+00	 1.000553e+01
0	 5.925926e+00	 9.481481e+00	 1.000430e+01
0	 5.925926e+00	 9.555556e+00	 1.000322e+01
0	 5.925926e+00	 9.629630e+00	 1.000225e+01
0	 6.000000e+00	 9.259259e+00	 1.000833e+01
0	 6.000000e+00	 9.333333e+00	 1.000682e+01
0	 6.000000e+00	 9.407407e+00	 1.000547e+01
0	 6.000000e+00	 9.481481e+00	 1.000426e+01
0	 6.000000e+00	 9.555556e+00	 1.000318e+01
0	 6.000000e+00	 9.629630e+00	 1.000223e+01
0	 6.074074e+00	 9.259259e+00	 1.000823e+01
0	 6.074074e+00	 9.333333e+00	 1.000674e+01
0	 6.074074e+00	 9.407407e+00	 1.000540e+01
0	 6.074074e+00	 9.481481e+00	 1.000420e+01
0	 6.074074e+00	 9.555556e+00	 1.000314e+01
0	 6.074074e+00	 9.629630e+00	 1.000220e+01
0	 6.148148e+00	 9.259259e+00	 1.000812e+01
0	 6.148148e+00	 9.333333e+00	 1.000665e+01
0	 6.148148e+00	 9.407407e+00	 1.000533e+01
0	 6.148148e+00	 9.481481e+00	 1.000415e+01
0	 6.148148e+00	 9.555556e+00	 1.000310e+01
0	 6.148148e+00	 9.629630e+00	 1.000217e+01
0	 6.222222e+00	 9.259259e+00	 1.000800e+01
0	 6.222222e+00	 9.333333e+00	 1.000655e+01
0	 6.222222e+00	 9.407407e+00	 1.000525e+01
0	 6.222222e+00	 9.481481e+00	 1.000409e+01
0	 6.222222e+00	 9.555556e+00	 1.000305e+01
0	 6.222222e+00	 9.629630e+00	 1.000214e+01
0	 6.296296e+00	 9.259259e+00	 1.000788e+01
0	 6.296296e+00	 9.333333e+00	 1.000645e+01
0	 6.296296e+00	 9.407407e+00	 1.000517e+01
0	 6.296296e+00	 9.481481e+00	 1.000402e+01
0	 6.296296e+00	 9.555556e+00	 1.000300e+01
0	 6.296296e+00	 9.629630e+00	 1.000210e+01
0	 5.925926e+00	 9.629630e+00	 1.000225e+01
0	 5.925926e+00	 9.703704e+00	 1.000145e+01
0	 5.925926e+00	 9.777778e+00	 1.000083e+01
0	 5.925926e+00	 9.851852e+00	 1.000038e+01
0	 5.925926e+00	 9.925926e+00	 1.000010e+01
0	 5.925926e+00	 1.000000e+01	 9.999977e+00
0	 6.000000e+00	 9.629630e+00	 1.000223e+01
0	 6.000000e+00	 9.703704e+00	 1.000143e+01
0	 6.000000e+00	 9.777778e+00	 1.000082e+01
0	 6.000000e+00	 9.851852e+00	 1.000038e+01
0	 6.000000e+00	 9.925926e+00	 1.000010e+01
0	 6.000000e+00	 1.000000e+01	 9.999979e+00
0	 6.074074e+00	 9.629630e+00	 1.000220e+01
0	 6.074074e+00	 9.703704e+00	 1.000142e+01
0	 6.074074e+00	 9.777778e+00	 1.000081e+01
0	 6.074074e+00	 9.851852e+00	 1.000038e+01
0	 6.074074e+00	 9.925926e+00	 1.000010e+01
0	 6.074074e+00	 1.000000e+01	 9.999979e+00
0	 6.148148e+00	 9.629630e+00	 1.000217e+01
0	 6.148148e+00	 9.703704e+00	 1.000139e+01
0	 6.148148e+00	 9.777778e+00	 1.000080e+01
0	 6.148148e+00	 9.851852e+00	 1.000037e+01
0	 6.148148e+00	 9.925926e+00	 1.000010e+01
0	 6.148148e+00	 1.000000e+01	 9.999978e+00
0	 6.222222e+00	 9.629630e+00	 1.000214e+01
0	 6.222222e+00	 9.703704e+00	 1.000137e+01
0	 6.222222e+00	 9.777778e+00	 1.000078e+01
0	 6.222222e+00	 9.851852e+00	 1.000036e+01
0	 6.222222e+00	 9.925926e+00	 1.000010e+01
0	 6.222222e+00	 1.000000e+01	 9.999978e+00
0	 6.296296e+00	 9.629630e+00	 1.000210e+01
0	 6.296296e+00	 9.703704e+00	 1.000135e+01
0	 6.296296e+00	 9.777778e+00	 1.000077e+01
0	 6.296296e+00	 9.851852e+00	 1.000036e+01
0	 6.296296e+00	 9.925926e+00	 1.000010e+01
0	 6.296296e+00	 1.000000e+01	 9.999980e+00
0	 6.296296e+00	 0.000000e+00	 1.016256e+01
0	 6.296296e+00	 7.407407e-02	 1.016269e+01
0	 6.296296e+00	 1.481481e-01	 1.016310e+01
0	 6.296296e+00	 2.222222e-01	 1.016380e+01
0	 6.296296e+00	 2.962963e-01	 1.016479e+01
0	 6.296296e+00	 3.703704e-01	 1.016608e+01
0	 6.370370e+00	 0.000000e+00	 1.015424e+01
0	 6.370370e+00	 7.407407e-02	 1.015438e+01
0	 6.370370e+00	 1.481481e-01	 1.015478e+01
0	 6.370370e+00	 2.222222e-01	 1.015545e+01
0	 6.370370e+00	 2.962963e-01	 1.015640e+01
0	 6.370370e+00	 3.703704e-01	 1.015764e+01
0	 6.444444e+00	 0.000000e+00	 1.014597e+01
0	 6.444444e+00	 7.407407e-02	 1.014612e+01
0	 6.444444e+00	 1.481481e-01	 1.014651e+01
0	 6.444444e+00	 2.222222e-01	 1.014715e+01
0	 6.444444e+00	 2.962963e-01	 1.014807e+01
0	 6.444444e+00	 3.703704e-01	 1.014925e+01
0	 6.518519e+00	 0.000000e+00	 1.013776e+01
0	 6.518519e+00	 7.407407e-02	 1.013790e+01
0	 6.518519e+00	 1.481481e-01	 1.013828e+01
0	 6.518519e+00	 2.222222e-01	 1.013890e+01
0	 6.518519e+00	 2.962963e-01	 1.013977e+01
0	 6.518519e+00	 3.703704e-01	 1.014090e+01
0	 6.592593e+00	 0.000000e+00	 1.012960e+01
0	 6.592593e+00	 7.407407e-02	 1.012973e+01
0	 6.592593e+00	 1.481481e-01	 1.013009e+01
0	 6.592593e+00	 2.222222e-01	 1.013069e+01
0	 6.592593e+00	 2.962963e-01	 1.013152e+01
0	 6.592593e+00	 3.703704e-01	 1.013260e+01
0	 6.666667e+00	 0.000000e+00	 1.012148e+01
0	 6.666667e+00	 7.407407e-02	 1.012160e+01
0	 6.666667e+00	 1.481481e-01	 1.012194e+01
0	 6.666667e+00	 2.222222e-01	 1.012251e+01
0	 6.666667e+00	 2.962963e-01	 1.012331e+01
0	 6.666667e+00	 3.703704e-01	 1.012435e+01
0	 6.296296e+00	 3.703704e-01	 1.016608e+01
0	 6.296296e+00	 4.444444e-01	 1.016762e+01
0	 6.296296e+00	 5.185185e-01	 1.016938e+01
0	 6.296296e+00	 5.925926e-01	 1.017137e+01
0	 6.296296e+00	 6.666667e-01	 1.017361e+01
0	 6.296296e+00	 7.407407e-01	 1.017611e+01
0	 6.370370e+00	 3.703704e-01	 1.015764e+01
0	 6.370370e+00	 4.444444e-01	 1.015911e+01
0	 6.370370e+00	 5.185185e-01	 1.016080e+01
0	 6.370370e+00	 5.925926e-01	 1.016271e+01
0	 6.370370e+00	 6.666667e-01	 1.016485e+01
0	 6.370370e+00	 7.407407e-01	 1.016725e+01
0	 6.444444e+00	 3.703704e-01	 1.014925e+01
0	 6.444444e+00	 4.444444e-01	 1.015066e+01
0	 6.444444e+00	 5.185185e-01	 1.015228e+01
0	 6.444444e+00	 5.925926e-01	 1.015411e+01
0	 6.444444e+00	 6.666667e-01	 1.015617e+01
0	 6.444444e+00	 7.407407e-01	 1.015846e+01
0	 6.518519e+00	 3.703704e-01	 1.014090e+01
0	 6.518519e+00	 4.444444e-01	 1.014226e+01
0	 6.518519e+00	 5.185185e-01	 1.014381e+01
0	 6.518519e+00	 5.925926e-01	 1.014557e+01
0	 6.518519e+00	 6.666667e-01	 1.014754e+01
0	 6.518519e+00	 7.407407e-01	 1.014975e+01
0	 6.592593e+00	 3.703704e-01	 1.013260e+01
0	 6.592593e+00	 4.444444e-01	 1.013390e+01
0	 6.592593e+00	 5.185185e-01	 1.013539e+01
0	 6.592593e+00	 5.925926e-01	 1.013708e+01
0	 6.592593e+00	 6.666667e-01	 1.013898e+01
0	 6.592593e+00	 7.407407e-01	 1.014110e+01
0	 6.666667e+00	 3.703704e-01	 1.012435e+01
0	 6.666667e+00	 4.444444e-01	 1.012559e+01
0	 6.666667e+00	 5.185185e-01	 1.012702e+01
0	 6.666667e+00	 5.925926e-01	 1.012864e+01
0	 6.666667e+00	 6.666667e-01	 1.013046e+01
0	 6.666667e+00	 7.407407e-01	 1.013250e+01
0	 6.296296e+00	 7.407407e-01	 1.017611e+01
0	 6.296296e+00	 8.148148e-01	 1.017881e+01
0	 6.296296e+00	 8.888889e-01	 1.018163e+01
0	 6.296296e+00	 9.629630e-01	 1.018459e+01
0	 6.296296e+00	 1.037037e+00	 1.018773e+01
0	 6.296296e+00	 1.111111e+00	 1.019105e+01
0	 6.370370e+00	 7.407407e-01	 1.016725e+01
0	 6.370370e+00	 8.148148e-01	 1.016983e+01
0	 6.370370e+00	 8.888889e-01	 1.017254e+01
0	 6.370370e+00	 9.629630e-01	 1.017538e+01
0	 6.370370e+00	 1.037037e+00	 1.017839e+01
0	 6.370370e+00	 1.111111e+00	 1.018158e+01
0	 6.444444e+00	 7.407407e-01	 1.015846e+01
0	 6.444444e+00	 8.148148e-01	 1.016094e+01
0	 6.444444e+00	 8.888889e-01	 1.016354e+01
0	 6.444444e+00	 9.629630e-01	 1.016627e+01
0	 6.444444e+00	 1.037037e+00	 1.016917e+01
0	 6.444444e+00	 1.111111e+00	 1.017224e+01
0	 6.518519e+00	 7.407407e-01	 1.014975e+01
0	 6.518519e+00	 8.148148e-01	 1.015213e+01
0	 6.518519e+00	 8.888889e-01	 1.015462e+01
0	 6.518519e+00	 9.629630e-01	 1.015726e+01
0	 6.518519e+00	 1.037037e+00	 1.016004e+01
0	 6.518519e+00	 1.111111e+00	 1.016300e+01
0	 6.592593e+00	 7.407407e-01	 1.014110e+01
0	 6.592593e+00	 8.148148e-01	 1.014338e+01
0	 6.592593e+00	 8.888889e-01	 1.014579e+01
0	 6.592593e+00	 9.629630e-01	 1.014832e+01
0	 6.592593e+00	 1.037037e+00	 1.015101e+01
0	 6.592593e+00	 1.111111e+00	 1.015386e+01
0	 6.666667e+00	 7.407407e-01	 1.013250e+01
0	 6.666667e+00	 8.148148e-01	 1.013470e+01
0	 6.666667e+00	 8.888889e-01	 1.013702e+01
0	 6.666667e+00	 9.629630e-01	 1.013946e+01
0	 6.666667e+00	 1.037037e+00	 1.014205e+01
0	 6.666667e+00	 1.111111e+00	 1.014480e+01
0	 6.296296e+00	 1.111111e+00	 1.019105e+01
0	 6.296296e+00	 1.185185e+00	 1.019447e+01
0	 6.296296e+00	 1.259259e+00	 1.019791e+01
0	 6.296296e+00	 1.333333e+00	 1.020139e+01
0	 6.296296e+00	 1.407407e+00	 1.020494e+01
0	 6.296296e+00	 1.481481e+00	 1.020858e+01
0	 6.370370e+00	 1.111111e+00	 1.018158e+01
0	 6.370370e+00	 1.185185e+00	 1.018487e+01
0	 6.370370e+00	 1.259259e+00	 1.018819e+01
0	 6.370370e+00	 1.333333e+00	 1.019155e+01
0	 6.370370e+00	 1.407407e+00	 1.019497e+01
0	 6.370370e+00	 1.481481e+00	 1.019849e+01
0	 6.444444e+00	 1.111111e+00	 1.017224e+01
0	 6.444444e+00	 1.185185e+00	 1.017541e+01
0	 6.444444e+00	 1.259259e+00	 1.017860e+01
0	 6.444444e+00	 1.333333e+00	 1.018184e+01
0	 6.444444e+00	 1.407407e+00	 1.018516e+01
0	 6.444444e+00	 1.481481e+00	 1.018855e+01
0	 6.518519e+00	 1.111111e+00	 1.016300e+01
0	 6.518519e+00	 1.185185e+00	 1.016605e+01
0	 6.518519e+00	 1.259259e+00	 1.016914e+01
0	 6.518519e+00	 1.333333e+00	 1.017227e+01
0	 6.518519e+00	 1.407407e+00	 1.017548e+01
0	 6.518519e+00	 1.481481e+00	 1.017877e+01
0	 6.592593e+00	 1.111111e+00	 1.015386e+01
0	 6.592593e+00	 1.185185e+00	 1.015681e+01
0	 6.592593e+00	 1.259259e+00	 1.015979e+01
0	 6.592593e+00	 1.333333e+00	 1.016282e+01
0	 6.592593e+00	 1.407407e+00	 1.016592e+01
0	 6.592593e+00	 1.481481e+00	 1.016910e+01
0	 6.666667e+00	 1.111111e+00	 1.014480e+01
0	 6.666667e+00	 1.185185e+00	 1.014764e+01
0	 6.666667e+00	 1.259259e+00	 1.015052e+01
0	 6.666667e+00	 1.333333e+00	 1.015345e+01
0	 6.666667e+00	 1.407407e+00	 1.015646e+01
0	 6.666667e+00	 1.481481e+00	 1.015955e+01
0	 6.296296e+00	 1.481481e+00	 1.020858e+01
0	 6.296296e+00	 1.555556e+00	 1.021222e+01
0	 6.296296e+00	 1.629630e+00	 1.021578e+01
0	 6.296296e+00	 1.703704e+00	 1.021929e+01
0	 6.296296e+00	 1.777778e+00	 1.022275e+01
0	 6.296296e+00	 1.851852e+00	 1.022620e+01
0	 6.370370e+00	 1.481481e+00	 1.019849e+01
0	 6.370370e+00	 1.555556e+00	 1.020201e+01
0	 6.370370e+00	 1.629630e+00	 1.020546e+01
0	 6.370370e+00	 1.703704e+00	 1.020886e+01
0	 6.370370e+00	 1.777778e+00	 1.021224e+01
0	 6.370370e+00	 1.851852e+00	 1.021560e+01
0	 6.444444e+00	 1.481481e+00	 1.018855e+01
0	 6.444444e+00	 1.555556e+00	 1.019197e+01
0	 6.444444e+00	 1.629630e+00	 1.019531e+01
0	 6.444444e+00	 1.703704e+00	 1.019862e+01
0	 6.444444e+00	 1.777778e+00	 1.020190e+01
0	 6.444444e+00	 1.851852e+00	 1.020518e+01
0	 6.518519e+00	 1.481481e+00	 1.017877e+01
0	 6.518519e+00	 1.555556e+00	 1.018207e+01
0	 6.518519e+00	 1.629630e+00	 1.018532e+01
0	 6.518519e+00	 1.703704e+00	 1.018853e+01
0	 6.518519e+00	 1.777778e+00	 1.019173e+01
0	 6.518519e+00	 1.851852e+00	 1.019492e+01
0	 6.592593e+00	 1.481481e+00	 1.016910e+01
0	 6.592593e+00	 1.555556e+00	 1.017231e+01
0	 6.592593e+00	 1.629630e+00	 1.017546e+01
0	 6.592593e+00	 1.703704e+00	 1.017859e+01
0	 6.592593e+00	 1.777778e+00	 1.018170e+01
0	 6.592593e+00	 1.851852e+00	 1.018481e+01
0	 6.666667e+00	 1.481481e+00	 1.015955e+01
0	 6.666667e+00	 1.555556e+00	 1.016266e+01
0	 6.666667e+00	 1.629630e+00	 1.016572e+01
0	 6.666667e+00	 1.703704e+00	 1.016876e+01
0	 6.666667e+00	 1.777778e+00	 1.017179e+01
0	 6.666667e+00	 1.851852e+00	 1.017483e+01
0	 6.296296e+00	 1.851852e+00	 1.022620e+01
0	 6.296296e+00	 1.925926e+00	 1.022957e+01
0	 6.296296e+00	 2.000000e+00	 1.023276e+01
0	 6.296296e+00	 2.074074e+00	 1.023581e+01
0	 6.296296e+00	 2.148148e+00	 1.023873e+01
0	 6.296296e+00	 2.222222e+00	 1.024153e+01
0	 6.370370e+00	 1.851852e+00	 1.021560e+01
0	 6.370370e+00	 1.925926e+00	 1.021889e+01
0	 6.370370e+00	 2.000000e+00	 1.022202e+01
0	 6.370370e+00	 2.074074e+00	 1.022501e+01
0	 6.370370e+00	 2.148148e+00	 1.022788e+01
0	 6.370370e+00	 2.222222e+00	 1.023065e+01
0	 6.444444e+00	 1.851852e+00	 1.020518e+01
0	 6.444444e+00	 1.925926e+00	 1.020839e+01
0	 6.444444e+00	 2.000000e+00	 1.021145e+01
0	 6.444444e+00	 2.074074e+00	 1.021439e+01
0	 6.444444e+00	 2.148148e+00	 1.021722e+01
0	 6.444444e+00	 2.222222e+00	 1.021995e+01
0	 6.518519e+00	 1.851852e+00	 1.019492e+01
0	 6.518519e+00	 1.925926e+00	 1.019805e+01
0	 6.518519e+00	 2.000000e+00	 1.020105e+01
0	 6.518519e+00	 2.074074e+00	 1.020394e+01
0	 6.518519e+00	 2.148148e+00	 1.020672e+01
0	 6.518519e+00	 2.222222e+00	 1.020943e+01
0	 6.592593e+00	 1.851852e+00	 1.018481e+01
0	 6.592593e+00	 1.925926e+00	 1.018787e+01
0	 6.592593e+00	 2.000000e+00	 1.019080e+01
0	 6.592593e+00	 2.074074e+00	 1.019364e+01
0	 6.592593e+00	 2.148148e+00	 1.019638e+01
0	 6.592593e+00	 2.222222e+00	 1.019905e+01
0	 6.666667e+00	 1.851852e+00	 1.017483e+01
0	 6.666667e+00	 1.925926e+00	 1.017781e+01
0	 6.666667e+00	 2.000000e+00	 1.018069e+01
0	 6.666667e+00	 2.074074e+00	 1.018347e+01
0	 6.666667e+00	 2.148148e+00	 1.018618e+01
0	 6.666667e+00	 2.222222e+00	 1.018882e+01
0	 6.296296e+00	 2.222222e+00	 1.024153e+01
0	 6.296296e+00	 2.296296e+00	 1.024418e+01
0	 6.296296e+00	 2.370370e+00	 1.024661e+01
0	 6.296296e+00	 2.444444e+00	 1.024884e+01
0	 6.296296e+00	 2.518519e+00	 1.025088e+01
0	 6.296296e+00	 2.592593e+00	 1.025275e+01
0	 6.370370e+00	 2.222222e+00	 1.023065e+01
0	 6.370370e+00	 2.296296e+00	 1.023327e+01
0	 6.370370e+00	 2.370370e+00	 1.023569e+01
0	 6.370370e+00	 2.444444e+00	 1.023792e+01
0	 6.370370e+00	 2.518519e+00	 1.023998e+01
0	 6.370370e+00	 2.592593e+00	 1.024188e+01
0	 6.444444e+00	 2.222222e+00	 1.021995e+01
0	 6.444444e+00	 2.296296e+00	 1.022255e+01
0	 6.444444e+00	 2.370370e+00	 1.022496e+01
0	 6.444444e+00	 2.444444e+00	 1.022720e+01
0	 6.444444e+00	 2.518519e+00	 1.022927e+01
0	 6.444444e+00	 2.592593e+00	 1.023119e+01
0	 6.518519e+00	 2.222222e+00	 1.020943e+01
0	 6.518519e+00	 2.296296e+00	 1.021200e+01
0	 6.518519e+00	 2.370370e+00	 1.021440e+01
0	 6.518519e+00	 2.444444e+00	 1.021664e+01
0	 6.518519e+00	 2.518519e+00	 1.021872e+01
0	 6.518519e+00	 2.592593e+00	 1.022065e+01
0	 6.592593e+00	 2.222222e+00	 1.019905e+01
0	 6.592593e+00	 2.296296e+00	 1.020161e+01
0	 6.592593e+00	 2.370370e+00	 1.020399e+01
0	 6.592593e+00	 2.444444e+00	 1.020622e+01
0	 6.592593e+00	 2.518519e+00	 1.020831e+01
0	 6.592593e+00	 2.592593e+00	 1.021026e+01
0	 6.666667e+00	 2.222222e+00	 1.018882e+01
0	 6.666667e+00	 2.296296e+00	 1.019135e+01
0	 6.666667e+00	 2.370370e+00	 1.019372e+01
0	 6.666667e+00	 2.444444e+00	 1.019594e+01
0	 6.666667e+00	 2.518519e+00	 1.019803e+01
0	 6.666667e+00	 2.592593e+00	 1.020000e+01
0	 6.296296e+00	 2.592593e+00	 1.025275e+01
0	 6.296296e+00	 2.666667e+00	 1.025441e+01
0	 6.296296e+00	 2.740741e+00	 1.025584e+01
0	 6.296296e+00	 2.814815e+00	 1.025703e+01
0	 6.296296e+00	 2.888889e+00	 1.025799e+01
0	 6.296296e+00	 2.962963e+00	 1.025874e+01
0	 6.370370e+00	 2.592593e+00	 1.024188e+01
0	 6.370370e+00	 2.666667e+00	 1.024359e+01
0	 6.370370e+00	 2.740741e+00	 1.024506e+01
0	 6.370370e+00	 2.814815e+00	 1.024632e+01
0	 6.370370e+00	 2.888889e+00	 1.024735e+01
0	 6.370370e+00	 2.962963e+00	 1.024819e+01
0	 6.444444e+00	 2.592593e+00	 1.023119e+01
0	 6.444444e+00	 2.666667e+00	 1.023293e+01
0	 6.444444e+00	 2.740741e+00	 1.023445e+01
0	 6.444444e+00	 2.814815e+00	 1.023576e+01
0	 6.444444e+00	 2.888889e+00	 1.023686e+01
0	 6.444444e+00	 2.962963e+00	 1.023777e+01
0	 6.518519e+00	 2.592593e+00	 1.022065e+01
0	 6.518519e+00	 2.666667e+00	 1.022242e+01
0	 6.518519e+00	 2.740741e+00	 1.022398e+01
0	 6.518519e+00	 2.814815e+00	 1.022534e+01
0	 6.518519e+00	 2.888889e+00	 1.022651e+01
0	 6.518519e+00	 2.962963e+00	 1.022750e+01
0	 6.592593e+00	 2.592593e+00	 1.021026e+01
0	 6.592593e+00	 2.666667e+00	 1.021205e+01
0	 6.592593e+00	 2.740741e+00	 1.021364e+01
0	 6.592593e+00	 2.814815e+00	 1.021505e+01
0	 6.592593e+00	 2.888889e+00	 1.021628e+01
0	 6.592593e+00	 2.962963e+00	 1.021734e+01
0	 6.666667e+00	 2.592593e+00	 1.020000e+01
0	 6.666667e+00	 2.666667e+00	 1.020181e+01
0	 6.666667e+00	 2.740741e+00	 1.020344e+01
0	 6.666667e+00	 2.814815e+00	 1.020489e+01
0	 6.666667e+00	 2.888889e+00	 1.020618e+01
0	 6.666667e+00	 2.962963e+00	 1.020730e+01
0	 6.296296e+00	 2.962963e+00	 1.025874e+01
0	 6.296296e+00	 3.037037e+00	 1.025926e+01
0	 6.296296e+00	 3.111111e+00	 1.025955e+01
0	 6.296296e+00	 3.185185e+00	 1.025961e+01
0	 6.296296e+00	 3.259259e+00	 1.025944e+01
0	 6.296296e+00	 3.333333e+00	 1.025905e+01
0	 6.370370e+00	 2.962963e+00	 1.024819e+01
0	 6.370370e+00	 3.037037e+00	 1.024880e+01
0	 6.370370e+00	 3.111111e+00	 1.024920e+01
0	 6.370370e+00	 3.185185e+00	 1.024938e+01
0	 6.370370e+00	 3.259259e+00	 1.024934e+01
0	 6.370370e+00	 3.333333e+00	 1.024909e+01
0	 6.444444e+00	 2.962963e+00	 1.023777e+01
0	 6.444444e+00	 3.037037e+00	 1.023848e+01
0	 6.444444e+00	 3.111111e+00	 1.023898e+01
0	 6.444444e+00	 3.185185e+00	 1.023927e+01
0	 6.444444e+00	 3.259259e+00	 1.023935e+01
0	 6.444444e+00	 3.333333e+00	 1.023923e+01
0	 6.518519e+00	 2.962963e+00	 1.022750e+01
0	 6.518519e+00	 3.037037e+00	 1.022829e+01
0	 6.518519e+00	 3.111111e+00	 1.022889e+01
0	 6.518519e+00	 3.185185e+00	 1.022928e+01
0	 6.518519e+00	 3.259259e+00	 1.022947e+01
0	 6.518519e+00	 3.333333e+00	 1.022946e+01
0	 6.592593e+00	 2.962963e+00	 1.021734e+01
0	 6.592593e+00	 3.037037e+00	 1.021822e+01
0	 6.592593e+00	 3.111111e+00	 1.021890e+01
0	 6.592593e+00	 3.185185e+00	 1.021939e+01
0	 6.592593e+00	 3.259259e+00	 1.021968e+01
0	 6.592593e+00	 3.333333e+00	 1.021979e+01
0	 6.666667e+00	 2.962963e+00	 1.020730e+01
0	 6.666667e+00	 3.037037e+00	 1.020826e+01
0	 6.666667e+00	 3.111111e+00	 1.020902e+01
0	 6.666667e+00	 3.185185e+00	 1.020960e+01
0	 6.666667e+00	 3.259259e+00	 1.020999e+01
0	 6.666667e+00	 3.333333e+00	 1.021021e+01
0	 6.296296e+00	 3.333333e+00	 1.025905e+01
0	 6.296296e+00	 3.407407e+00	 1.025844e+01
0	 6.296296e+00	 3.481481e+00	 1.025762e+01
0	 6.296296e+00	 3.555556e+00	 1.025659e+01
0	 6.296296e+00	 3.629630e+00	 1.025534e+01
0	 6.296296e+00	 3.703704e+00	 1.025388e+01
0	 6.370370e+00	 3.333333e+00	 1.024909e+01
0	 6.370370e+00	 3.407407e+00	 1.024862e+01
0	 6.370370e+00	 3.481481e+00	 1.024796e+01
0	 6.370370e+00	 3.555556e+00	 1.024708e+01
0	 6.370370e+00	 3.629630e+00	 1.024600e+01
0	 6.370370e+00	 3.703704e+00	 1.024471e+01
0	 6.444444e+00	 3.333333e+00	 1.023923e+01
0	 6.444444e+00	 3.407407e+00	 1.023890e+01
0	 6.444444e+00	 3.481481e+00	 1.023838e+01
0	 6.444444e+00	 3.555556e+00	 1.023765e+01
0	 6.444444e+00	 3.629630e+00	 1.023673e+01
0	 6.444444e+00	 3.703704e+00	 1.023560e+01
0	 6.518519e+00	 3.333333e+00	 1.022946e+01
0	 6.518519e+00	 3.407407e+00	 1.022926e+01
0	 6.518519e+00	 3.481481e+00	 1.022887e+01
0	 6.518519e+00	 3.555556e+00	 1.022829e+01
0	 6.518519e+00	 3.629630e+00	 1.022752e+01
0	 6.518519e+00	 3.703704e+00	 1.022655e+01
0	 6.592593e+00	 3.333333e+00	 1.021979e+01
0	 6.592593e+00	 3.407407e+00	 1.021971e+01
0	 6.592593e+00	 3.481481e+00	 1.021945e+01
0	 6.592593e+00	 3.555556e+00	 1.021900e+01
0	 6.592593e+00	 3.629630e+00	 1.021837e+01
0	 6.592593e+00	 3.703704e+00	 1.021756e+01
0	 6.666667e+00	 3.333333e+00	 1.021021e+01
0	 6.666667e+00	 3.407407e+00	 1.021024e+01
0	 6.666667e+00	 3.481481e+00	 1.021010e+01
0	 6.666667e+00	 3.555556e+00	 1.020979e+01
0	 6.666667e+00	 3.629630e+00	 1.020929e+01
0	 6.666667e+00	 3.703704e+00	 1.020862e+01
0	 6.296296e+00	 3.703704e+00	 1.025388e+01
0	 6.296296e+00	 3.777778e+00	 1.025222e+01
0	 6.296296e+00	 3.851852e+00	 1.025038e+01
0	 6.296296e+00	 3.925926e+00	 1.024837e+01
0	 6.296296e+00	 4.000000e+00	 1.024618e+01
0	 6.296296e+00	 4.074074e+00	 1.024380e+01
0	 6.370370e+00	 3.703704e+00	 1.024471e+01
0	 6.370370e+00	 3.777778e+00	 1.024323e+01
0	 6.370370e+00	 3.851852e+00	 1.024158e+01
0	 6.370370e+00	 3.925926e+00	 1.023976e+01
0	 6.370370e+00	 4.000000e+00	 1.023776e+01
0	 6.370370e+00	 4.074074e+00	 1.023558e+01
0	 6.444444e+00	 3.703704e+00	 1.023560e+01
0	 6.444444e+00	 3.777778e+00	 1.023429e+01
0	 6.444444e+00	 3.851852e+00	 1.023282e+01
0	 6.444444e+00	 3.925926e+00	 1.023117e+01
0	 6.444444e+00	 4.000000e+00	 1.022936e+01
0	 6.444444e+00	 4.074074e+00	 1.022736e+01
0	 6.518519e+00	 3.703704e+00	 1.022655e+01
0	 6.518519e+00	 3.777778e+00	 1.022540e+01
0	 6.518519e+00	 3.851852e+00	 1.022410e+01
0	 6.518519e+00	 3.925926e+00	 1.022263e+01
0	 6.518519e+00	 4.000000e+00	 1.022098e+01
0	 6.518519e+00	 4.074074e+00	 1.021917e+01
0	 6.592593e+00	 3.703704e+00	 1.021756e+01
0	 6.592593e+00	 3.777778e+00	 1.021657e+01
0	 6.592593e+00	 3.851852e+00	 1.021542e+01
0	 6.592593e+00	 3.925926e+00	 1.021411e+01
0	 6.592593e+00	 4.000000e+00	 1.021264e+01
0	 6.592593e+00	 4.074074e+00	 1.021100e+01
0	 6.666667e+00	 3.703704e+00	 1.020862e+01
0	 6.666667e+00	 3.777778e+00	 1.020779e+01
0	 6.666667e+00	 3.851852e+00	 1.020679e+01
0	 6.666667e+00	 3.925926e+00	 1.020564e+01
0	 6.666667e+00	 4.000000e+00	 1.020433e+01
0	 6.666667e+00	 4.074074e+00	 1.020286e+01
0	 6.296296e+00	 4.074074e+00	 1.024380e+01
0	 6.296296e+00	 4.148148e+00	 1.024127e+01
0	 6.296296e+00	 4.222222e+00	 1.023860e+01
0	 6.296296e+00	 4.296296e+00	 1.023579e+01
0	 6.296296e+00	 4.370370e+00	 1.023283e+01
0	 6.296296e+00	 4.444444e+00	 1.022973e+01
0	 6.370370e+00	 4.074074e+00	 1.023558e+01
0	 6.370370e+00	 4.148148e+00	 1.023324e+01
0	 6.370370e+00	 4.222222e+00	 1.023077e+01
0	 6.370370e+00	 4.296296e+00	 1.022816e+01
0	 6.370370e+00	 4.370370e+00	 1.022541e+01
0	 6.370370e+00	 4.444444e+00	 1.022250e+01
0	 6.444444e+00	 4.074074e+00	 1.022736e+01
0	 6.444444e+00	 4.148148e+00	 1.022522e+01
0	 6.444444e+00	 4.222222e+00	 1.022294e+01
0	 6.444444e+00	 4.296296e+00	 1.022052e+01
0	 6.444444e+00	 4.370370e+00	 1.021796e+01
0	 6.444444e+00	 4.444444e+00	 1.021525e+01
0	 6.518519e+00	 4.074074e+00	 1.021917e+01
0	 6.518519e+00	 4.148148e+00	 1.021720e+01
0	 6.518519e+00	 4.222222e+00	 1.021511e+01
0	 6.518519e+00	 4.296296e+00	 1.021288e+01
0	 6.518519e+00	 4.370370e+00	 1.021051e+01
0	 6.518519e+00	 4.444444e+00	 1.020799e+01
0	 6.592593e+00	 4.074074e+00	 1.021100e+01
0	 6.592593e+00	 4.148148e+00	 1.020921e+01
0	 6.592593e+00	 4.222222e+00	 1.020729e+01
0	 6.592593e+00	 4.296296e+00	 1.020524e+01
0	 6.592593e+00	 4.370370e+00	 1.020305e+01
0	 6.592593e+00	 4.444444e+00	 1.020072e+01
0	 6.666667e+00	 4.074074e+00	 1.020286e+01
0	 6.666667e+00	 4.148148e+00	 1.020124e+01
0	 6.666667e+00	 4.222222e+00	 1.019949e+01
0	 6.666667e+00	 4.296296e+00	 1.019761e+01
0	 6.666667e+00	 4.370370e+00	 1.019560e+01
0	 6.666667e+00	 4.444444e+00	 1.019345e+01
0	 6.296296e+00	 4.444444e+00	 1.022973e+01
0	 6.296296e+00	 4.518519e+00	 1.022650e+01
0	 6.296296e+00	 4.592593e+00	 1.022317e+01
0	 6.296296e+00	 4.666667e+00	 1.021976e+01
0	 6.296296e+00	 4.740741e+00	 1.021623e+01
0	 6.296296e+00	 4.814815e+00	 1.021260e+01
0	 6.370370e+00	 4.444444e+00	 1.022250e+01
0	 6.370370e+00	 4.518519e+00	 1.021948e+01
0	 6.370370e+00	 4.592593e+00	 1.021636e+01
0	 6.370370e+00	 4.666667e+00	 1.021314e+01
0	 6.370370e+00	 4.740741e+00	 1.020982e+01
0	 6.370370e+00	 4.814815e+00	 1.020639e+01
0	 6.444444e+00	 4.444444e+00	 1.021525e+01
0	 6.444444e+00	 4.518519e+00	 1.021243e+01
0	 6.444444e+00	 4.592593e+00	 1.020951e+01
0	 6.444444e+00	 4.666667e+00	 1.020649e+01
0	 6.444444e+00	 4.740741e+00	 1.020336e+01
0	 6.444444e+00	 4.814815e+00	 1.020012e+01
0	 6.518519e+00	 4.444444e+00	 1.020799e+01
0	 6.518519e+00	 4.518519e+00	 1.020536e+01
0	 6.518519e+00	 4.592593e+00	 1.020263e+01
0	 6.518519e+00	 4.666667e+00	 1.019980e+01
0	 6.518519e+00	 4.740741e+00	 1.019686e+01
0	 6.518519e+00	 4.814815e+00	 1.019381e+01
0	 6.592593e+00	 4.444444e+00	 1.020072e+01
0	 6.592593e+00	 4.518519e+00	 1.019827e+01
0	 6.592593e+00	 4.592593e+00	 1.019573e+01
0	 6.592593e+00	 4.666667e+00	 1.019308e+01
0	 6.592593e+00	 4.740741e+00	 1.019033e+01
0	 6.592593e+00	 4.814815e+00	 1.018747e+01
0	 6.666667e+00	 4.444444e+00	 1.019345e+01
0	 6.666667e+00	 4.518519e+00	 1.019118e+01
0	 6.666667e+00	 4.592593e+00	 1.018882e+01
0	 6.666667e+00	 4.666667e+00	 1.018635e+01
0	 6.666667e+00	 4.740741e+00	 1.018378e+01
0	 6.666667e+00	 4.814815e+00	 1.018110e+01
0	 6.296296e+00	 4.814815e+00	 1.021260e+01
0	 6.296296e+00	 4.888889e+00	 1.020888e+01
0	 6.296296e+00	 4.962963e+00	 1.020511e+01
0	 6.296296e+00	 5.037037e+00	 1.020127e+01
0	 6.296296e+00	 5.111111e+00	 1.019737e+01
0	 6.296296e+00	 5.185185e+00	 1.019339e+01
0	 6.370370e+00	 4.814815e+00	 1.020639e+01
0	 6.370370e+00	 4.888889e+00	 1.020287e+01
0	 6.370370e+00	 4.962963e+00	 1.019929e+01
0	 6.370370e+00	 5.037037e+00	 1.019565e+01
0	 6.370370e+00	 5.111111e+00	 1.019194e+01
0	 6.370370e+00	 5.185185e+00	 1.018815e+01
0	 6.444444e+00	 4.814815e+00	 1.020012e+01
0	 6.444444e+00	 4.888889e+00	 1.019680e+01
0	 6.444444e+00	 4.962963e+00	 1.019341e+01
0	 6.444444e+00	 5.037037e+00	 1.018996e+01
0	 6.444444e+00	 5.111111e+00	 1.018644e+01
0	 6.444444e+00	 5.185185e+00	 1.018283e+01
0	 6.518519e+00	 4.814815e+00	 1.019381e+01
0	 6.518519e+00	 4.888889e+00	 1.019068e+01
0	 6.518519e+00	 4.962963e+00	 1.018748e+01
0	 6.518519e+00	 5.037037e+00	 1.018421e+01
0	 6.518519e+00	 5.111111e+00	 1.018087e+01
0	 6.518519e+00	 5.185185e+00	 1.017745e+01
0	 6.592593e+00	 4.814815e+00	 1.018747e+01
0	 6.592593e+00	 4.888889e+00	 1.018452e+01
0	 6.592593e+00	 4.962963e+00	 1.018150e+01
0	 6.592593e+00	 5.037037e+00	 1.017841e+01
0	 6.592593e+00	 5.111111e+00	 1.017525e+01
0	 6.592593e+00	 5.185185e+00	 1.017201e+01
0	 6.666667e+00	 4.814815e+00	 1.018110e+01
0	 6.666667e+00	 4.888889e+00	 1.017833e+01
0	 6.666667e+00	 4.962963e+00	 1.017549e+01
0	 6.666667e+00	 5.037037e+00	 1.017258e+01
0	 6.666667e+00	 5.111111e+00	 1.016960e+01
0	 6.666667e+00	 5.185185e+00	 1.016653e+01
0	 6.296296e+00	 5.185185e+00	 1.019339e+01
0	 6.296296e+00	 5.259259e+00	 1.018936e+01
0	 6.296296e+00	 5.333333e+00	 1.018531e+01
0	 6.296296e+00	 5.407407e+00	 1.018123e+01
0	 6.296296e+00	 5.481481e+00	 1.017712e+01
0	 6.296296e+00	 5.555556e+00	 1.017296e+01
0	 6.370370e+00	 5.185185e+00	 1.018815e+01
0	 6.370370e+00	 5.259259e+00	 1.018431e+01
0	 6.370370e+00	 5.333333e+00	 1.018044e+01
0	 6.370370e+00	 5.407407e+00	 1.017654e+01
0	 6.370370e+00	 5.481481e+00	 1.017260e+01
0	 6.370370e+00	 5.555556e+00	 1.016862e+01
0	 6.444444e+00	 5.185185e+00	 1.018283e+01
0	 6.444444e+00	 5.259259e+00	 1.017917e+01
0	 6.444444e+00	 5.333333e+00	 1.017549e+01
0	 6.444444e+00	 5.407407e+00	 1.017176e+01
0	 6.444444e+00	 5.481481e+00	 1.016800e+01
0	 6.444444e+00	 5.555556e+00	 1.016418e+01
0	 6.518519e+00	 5.185185e+00	 1.017745e+01
0	 6.518519e+00	 5.259259e+00	 1.017397e+01
0	 6.518519e+00	 5.333333e+00	 1.017046e+01
0	 6.518519e+00	 5.407407e+00	 1.016691e+01
0	 6.518519e+00	 5.481481e+00	 1.016331e+01
0	 6.518519e+00	 5.555556e+00	 1.015967e+01
0	 6.592593e+00	 5.185185e+00	 1.017201e+01
0	 6.592593e+00	 5.259259e+00	 1.016871e+01
0	 6.592593e+00	 5.333333e+00	 1.016537e+01
0	 6.592593e+00	 5.407407e+00	 1.016199e+01
0	 6.592593e+00	 5.481481e+00	 1.015857e+01
0	 6.592593e+00	 5.555556e+00	 1.015509e+01
0	 6.666667e+00	 5.185185e+00	 1.016653e+01
0	 6.666667e+00	 5.259259e+00	 1.016341e+01
0	 6.666667e+00	 5.333333e+00	 1.016024e+01
0	 6.666667e+00	 5.407407e+00	 1.015703e+01
0	 6.666667e+00	 5.481481e+00	 1.015377e+01
0	 6.666667e+00	 5.555556e+00	 1.015045e+01
0	 6.296296e+00	 5.555556e+00	 1.017296e+01
0	 6.296296e+00	 5.629630e+00	 1.016879e+01
0	 6.296296e+00	 5.703704e+00	 1.016462e+01
0	 6.296296e+00	 5.777778e+00	 1.016044e+01
0	 6.296296e+00	 5.851852e+00	 1.015625e+01
0	 6.296296e+00	 5.925926e+00	 1.015205e+01
0	 6.370370e+00	 5.555556e+00	 1.016862e+01
0	 6.370370e+00	 5.629630e+00	 1.016461e+01
0	 6.370370e+00	 5.703704e+00	 1.016060e+01
0	 6.370370e+00	 5.777778e+00	 1.015659e+01
0	 6.370370e+00	 5.851852e+00	 1.015256e+01
0	 6.370370e+00	 5.925926e+00	 1.014851e+01
0	 6.444444e+00	 5.555556e+00	 1.016418e+01
0	 6.444444e+00	 5.629630e+00	 1.016034e+01
0	 6.444444e+00	 5.703704e+00	 1.015649e+01
0	 6.444444e+00	 5.777778e+00	 1.015264e+01
0	 6.444444e+00	 5.851852e+00	 1.014876e+01
0	 6.444444e+00	 5.925926e+00	 1.014487e+01
0	 6.518519e+00	 5.555556e+00	 1.015967e+01
0	 6.518519e+00	 5.629630e+00	 1.015599e+01
0	 6.518519e+00	 5.703704e+00	 1.015231e+01
0	 6.518519e+00	 5.777778e+00	 1.014861e+01
0	 6.518519e+00	 5.851852e+00	 1.014488e+01
0	 6.518519e+00	 5.925926e+00	 1.014114e+01
0	 6.592593e+00	 5.555556e+00	 1.015509e+01
0	 6.592593e+00	 5.629630e+00	 1.015157e+01
0	 6.592593e+00	 5.703704e+00	 1.014805e+01
0	 6.592593e+00	 5.777778e+00	 1.014450e+01
0	 6.592593e+00	 5.851852e+00	 1.014094e+01
0	 6.592593e+00	 5.925926e+00	 1.013734e+01
0	 6.666667e+00	 5.555556e+00	 1.015045e+01
0	 6.666667e+00	 5.629630e+00	 1.014710e+01
0	 6.666667e+00	 5.703704e+00	 1.014373e+01
0	 6.666667e+00	 5.777778e+00	 1.014035e+01
0	 6.666667e+00	 5.851852e+00	 1.013693e+01
0	 6.666667e+00	 5.925926e+00	 1.013349e+01
0	 6.296296e+00	 5.925926e+00	 1.015205e+01
0	 6.296296e+00	 6.000000e+00	 1.014786e+01
0	 6.296296e+00	 6.074074e+00	 1.014368e+01
0	 6.296296e+00	 6.148148e+00	 1.013952e+01
0	 6.296296e+00	 6.222222e+00	 1.013538e+01
0	 6.296296e+00	 6.296296e+00	 1.013124e+01
0	 6.370370e+00	 5.925926e+00	 1.014851e+01
0	 6.370370e+00	 6.000000e+00	 1.014446e+01
0	 6.370370e+00	 6.074074e+00	 1.014043e+01
0	 6.370370e+00	 6.148148e+00	 1.013641e+01
0	 6.370370e+00	 6.222222e+00	 1.013240e+01
0	 6.370370e+00	 6.296296e+00	 1.012839e+01
0	 6.444444e+00	 5.925926e+00	 1.014487e+01
0	 6.444444e+00	 6.000000e+00	 1.014096e+01
0	 6.444444e+00	 6.074074e+00	 1.013708e+01
0	 6.444444e+00	 6.148148e+00	 1.013320e+01
0	 6.444444e+00	 6.222222e+00	 1.012933e+01
0	 6.444444e+00	 6.296296e+00	 1.012545e+01
0	 6.518519e+00	 5.925926e+00	 1.014114e+01
0	 6.518519e+00	 6.000000e+00	 1.013739e+01
0	 6.518519e+00	 6.074074e+00	 1.013364e+01
0	 6.518519e+00	 6.148148e+00	 1.012991e+01
0	 6.518519e+00	 6.222222e+00	 1.012617e+01
0	 6.518519e+00	 6.296296e+00	 1.012243e+01
0	 6.592593e+00	 5.925926e+00	 1.013734e+01
0	 6.592593e+00	 6.000000e+00	 1.013374e+01
0	 6.592593e+00	 6.074074e+00	 1.013014e+01
0	 6.592593e+00	 6.148148e+00	 1.012654e+01
0	 6.592593e+00	 6.222222e+00	 1.012294e+01
0	 6.592593e+00	 6.296296e+00	 1.011933e+01
0	 6.666667e+00	 5.925926e+00	 1.013349e+01
0	 6.666667e+00	 6.000000e+00	 1.013003e+01
0	 6.666667e+00	 6.074074e+00	 1.012657e+01
0	 6.666667e+00	 6.148148e+00	 1.012311e+01
0	 6.666667e+00	 6.222222e+00	 1.011965e+01
0	 6.666667e+00	 6.296296e+00	 1.011617e+01
0	 6.296296e+00	 6.296296e+00	 1.013124e+01
0	 6.296296e+00	 6.370370e+00	 1.012712e+01
0	 6.296296e+00	 6.444444e+00	 1.012305e+01
0	 6.296296e+00	 6.518519e+00	 1.011900e+01
0	 6.296296e+00	 6.592593e+00	 1.011498e+01
0	 6.296296e+00	 6.666667e+00	 1.011098e+01
0	 6.370370e+00	 6.296296e+00	 1.012839e+01
0	 6.370370e+00	 6.370370e+00	 1.012441e+01
0	 6.370370e+00	 6.444444e+00	 1.012045e+01
0	 6.370370e+00	 6.518519e+00	 1.011652e+01
0	 6.370370e+00	 6.592593e+00	 1.011262e+01
0	 6.370370e+00	 6.666667e+00	 1.010873e+01
0	 6.444444e+00	 6.296296e+00	 1.012545e+01
0	 6.444444e+00	 6.370370e+00	 1.012159e+01
0	 6.444444e+00	 6.444444e+00	 1.011776e+01
0	 6.444444e+00	 6.518519e+00	 1.011395e+01
0	 6.444444e+00	 6.592593e+00	 1.011017e+01
0	 6.444444e+00	 6.666667e+00	 1.010640e+01
0	 6.518519e+00	 6.296296e+00	 1.012243e+01
0	 6.518519e+00	 6.370370e+00	 1.011870e+01
0	 6.518519e+00	 6.444444e+00	 1.011499e+01
0	 6.518519e+00	 6.518519e+00	 1.011130e+01
0	 6.518519e+00	 6.592593e+00	 1.010764e+01
0	 6.518519e+00	 6.666667e+00	 1.010398e+01
0	 6.592593e+00	 6.296296e+00	 1.011933e+01
0	 6.592593e+00	 6.370370e+00	 1.011573e+01
0	 6.592593e+00	 6.444444e+00	 1.011215e+01
0	 6.592593e+00	 6.518519e+00	 1.010859e+01
0	 6.592593e+00	 6.592593e+00	 1.010504e+01
0	 6.592593e+00	 6.666667e+00	 1.010150e+01
0	 6.666667e+00	 6.296296e+00	 1.011617e+01
0	 6.666667e+00	 6.370370e+00	 1.011270e+01
0	 6.666667e+00	 6.444444e+00	 1.010925e+01
0	 6.666667e+00	 6.518519e+00	 1.010581e+01
0	 6.666667e+00	 6.592593e+00	 1.010238e+01
0	 6.666667e+00	 6.666667e+00	 1.009895e+01
0	 6.296296e+00	 6.666667e+00	 1.011098e+01
0	 6.296296e+00	 6.740741e+00	 1.010702e+01
0	 6.296296e+00	 6.814815e+00	 1.010311e+01
0	 6.296296e+00	 6.888889e+00	 1.009924e+01
0	 6.296296e+00	 6.962963e+00	 1.009541e+01
0	 6.296296e+00	 7.037037e+00	 1.009162e+01
0	 6.370370e+00	 6.666667e+00	 1.010873e+01
0	 6.370370e+00	 6.740741e+00	 1.010488e+01
0	 6.370370e+00	 6.814815e+00	 1.010107e+01
0	 6.370370e+00	 6.888889e+00	 1.009731e+01
0	 6.370370e+00	 6.962963e+00	 1.009357e+01
0	 6.370370e+00	 7.037037e+00	 1.008988e+01
0	 6.444444e+00	 6.666667e+00	 1.010640e+01
0	 6.444444e+00	 6.740741e+00	 1.010265e+01
0	 6.444444e+00	 6.814815e+00	 1.009895e+01
0	 6.444444e+00	 6.888889e+00	 1.009529e+01
0	 6.444444e+00	 6.962963e+00	 1.009165e+01
0	 6.444444e+00	 7.037037e+00	 1.008805e+01
0	 6.518519e+00	 6.666667e+00	 1.010398e+01
0	 6.518519e+00	 6.740741e+00	 1.010035e+01
0	 6.518519e+00	 6.814815e+00	 1.009676e+01
0	 6.518519e+00	 6.888889e+00	 1.009319e+01
0	 6.518519e+00	 6.962963e+00	 1.008966e+01
0	 6.518519e+00	 7.037037e+00	 1.008616e+01
0	 6.592593e+00	 6.666667e+00	 1.010150e+01
0	 6.592593e+00	 6.740741e+00	 1.009798e+01
0	 6.592593e+00	 6.814815e+00	 1.009449e+01
0	 6.592593e+00	 6.888889e+00	 1.009104e+01
0	 6.592593e+00	 6.962963e+00	 1.008761e+01
0	 6.592593e+00	 7.037037e+00	 1.008420e+01
0	 6.666667e+00	 6.666667e+00	 1.009895e+01
0	 6.666667e+00	 6.740741e+00	 1.009555e+01
0	 6.666667e+00	 6.814815e+00	 1.009217e+01
0	 6.666667e+00	 6.888889e+00	 1.008883e+01
0	 6.666667e+00	 6.962963e+00	 1.008550e+01
0	 6.666667e+00	 7.037037e+00	 1.008219e+01
0	 6.296296e+00	 7.037037e+00	 1.009162e+01
0	 6.296296e+00	 7.111111e+00	 1.008788e+01
0	 6.296296e+00	 7.185185e+00	 1.008419e+01
0	 6.296296e+00	 7.259259e+00	 1.008055e+01
0	 6.296296e+00	 7.333333e+00	 1.007696e+01
0	 6.296296e+00	 7.407407e+00	 1.007342e+01
0	 6.370370e+00	 7.037037e+00	 1.008988e+01
0	 6.370370e+00	 7.111111e+00	 1.008622e+01
0	 6.370370e+00	 7.185185e+00	 1.008262e+01
0	 6.370370e+00	 7.259259e+00	 1.007906e+01
0	 6.370370e+00	 7.333333e+00	 1.007556e+01
0	 6.370370e+00	 7.407407e+00	 1.007209e+01
0	 6.444444e+00	 7.037037e+00	 1.008805e+01
0	 6.444444e+00	 7.111111e+00	 1.008449e+01
0	 6.444444e+00	 7.185185e+00	 1.008098e+01
0	 6.444444e+00	 7.259259e+00	 1.007751e+01
0	 6.444444e+00	 7.333333e+00	 1.007409e+01
0	 6.444444e+00	 7.407407e+00	 1.007070e+01
0	 6.518519e+00	 7.037037e+00	 1.008616e+01
0	 6.518519e+00	 7.111111e+00	 1.008269e+01
0	 6.518519e+00	 7.185185e+00	 1.007927e+01
0	 6.518519e+00	 7.259259e+00	 1.007589e+01
0	 6.518519e+00	 7.333333e+00	 1.007255e+01
0	 6.518519e+00	 7.407407e+00	 1.006925e+01
0	 6.592593e+00	 7.037037e+00	 1.008420e+01
0	 6.592593e+00	 7.111111e+00	 1.008083e+01
0	 6.592593e+00	 7.185185e+00	 1.007750e+01
0	 6.592593e+00	 7.259259e+00	 1.007421e+01
0	 6.592593e+00	 7.333333e+00	 1.007096e+01
0	 6.592593e+00	 7.407407e+00	 1.006775e+01
0	 6.666667e+00	 7.037037e+00	 1.008219e+01
0	 6.666667e+00	 7.111111e+00	 1.007892e+01
0	 6.666667e+00	 7.185185e+00	 1.007569e+01
0	 6.666667e+00	 7.259259e+00	 1.007249e+01
0	 6.666667e+00	 7.333333e+00	 1.006933e+01
0	 6.666667e+00	 7.407407e+00	 1.006620e+01
0	 6.296296e+00	 7.407407e+00	 1.007342e+01
0	 6.296296e+00	 7.481481e+00	 1.006993e+01
0	 6.296296e+00	 7.555556e+00	 1.006651e+01
0	 6.296296e+00	 7.629630e+00	 1.006315e+01
0	 6.296296e+00	 7.703704e+00	 1.005985e+01
0	 6.296296e+00	 7.777778e+00	 1.005660e+01
0	 6.370370e+00	 7.407407e+00	 1.007209e+01
0	 6.370370e+00	 7.481481e+00	 1.006868e+01
0	 6.370370e+00	 7.555556e+00	 1.006533e+01
0	 6.370370e+00	 7.629630e+00	 1.006204e+01
0	 6.370370e+00	 7.703704e+00	 1.005880e+01
0	 6.370370e+00	 7.777778e+00	 1.005562e+01
0	 6.444444e+00	 7.407407e+00	 1.007070e+01
0	 6.444444e+00	 7.481481e+00	 1.006737e+01
0	 6.444444e+00	 7.555556e+00	 1.006409e+01
0	 6.444444e+00	 7.629630e+00	 1.006087e+01
0	 6.444444e+00	 7.703704e+00	 1.005771e+01
0	 6.444444e+00	 7.777778e+00	 1.005459e+01
0	 6.518519e+00	 7.407407e+00	 1.006925e+01
0	 6.518519e+00	 7.481481e+00	 1.006600e+01
0	 6.518519e+00	 7.555556e+00	 1.006280e+01
0	 6.518519e+00	 7.629630e+00	 1.005965e+01
0	 6.518519e+00	 7.703704e+00	 1.005656e+01
0	 6.518519e+00	 7.777778e+00	 1.005351e+01
0	 6.592593e+00	 7.407407e+00	 1.006775e+01
0	 6.592593e+00	 7.481481e+00	 1.006457e+01
0	 6.592593e+00	 7.555556e+00	 1.006145e+01
0	 6.592593e+00	 7.629630e+00	 1.005839e+01
0	 6.592593e+00	 7.703704e+00	 1.005536e+01
0	 6.592593e+00	 7.777778e+00	 1.005238e+01
0	 6.666667e+00	 7.407407e+00	 1.006620e+01
0	 6.666667e+00	 7.481481e+00	 1.006311e+01
0	 6.666667e+00	 7.555556e+00	 1.006007e+01
0	 6.666667e+00	 7.629630e+00	 1.005708e+01
0	 6.666667e+00	 7.703704e+00	 1.005413e+01
0	 6.666667e+00	 7.777778e+00	 1.005123e+01
0	 6.296296e+00	 7.777778e+00	 1.005660e+01
0	 6.296296e+00	 7.851852e+00	 1.005341e+01
0	 6.296296e+00	 7.925926e+00	 1.005030e+01
0	 6.296296e+00	 8.000000e+00	 1.004726e+01
0	 6.296296e+00	 8.074074e+00	 1.004428e+01
0	 6.296296e+00	 8.148148e+00	 1.004137e+01
0	 6.370370e+00	 7.777778e+00	 1.005562e+01
0	 6.370370e+00	 7.851852e+00	 1.005250e+01
0	 6.370370e+00	 7.925926e+00	 1.004944e+01
0	 6.370370e+00	 8.000000e+00	 1.004646e+01
0	 6.370370e+00	 8.074074e+00	 1.004353e+01
0	 6.370370e+00	 8.148148e+00	 1.004067e+01
0	 6.444444e+00	 7.777778e+00	 1.005459e+01
0	 6.444444e+00	 7.851852e+00	 1.005153e+01
0	 6.444444e+00	 7.925926e+00	 1.004854e+01
0	 6.444444e+00	 8.000000e+00	 1.004561e+01
0	 6.444444e+00	 8.074074e+00	 1.004274e+01
0	 6.444444e+00	 8.148148e+00	 1.003994e+01
0	 6.518519e+00	 7.777778e+00	 1.005351e+01
0	 6.518519e+00	 7.851852e+00	 1.005051e+01
0	 6.518519e+00	 7.925926e+00	 1.004759e+01
0	 6.518519e+00	 8.000000e+00	 1.004472e+01
0	 6.518519e+00	 8.074074e+00	 1.004192e+01
0	 6.518519e+00	 8.148148e+00	 1.003917e+01
0	 6.592593e+00	 7.777778e+00	 1.005238e+01
0	 6.592593e+00	 7.851852e+00	 1.004946e+01
0	 6.592593e+00	 7.925926e+00	 1.004660e+01
0	 6.592593e+00	 8.000000e+00	 1.004380e+01
0	 6.592593e+00	 8.074074e+00	 1.004106e+01
0	 6.592593e+00	 8.148148e+00	 1.003836e+01
0	 6.666667e+00	 7.777778e+00	 1.005123e+01
0	 6.666667e+00	 7.851852e+00	 1.004837e+01
0	 6.666667e+00	 7.925926e+00	 1.004558e+01
0	 6.666667e+00	 8.000000e+00	 1.004284e+01
0	 6.666667e+00	 8.074074e+00	 1.004016e+01
0	 6.666667e+00	 8.148148e+00	 1.003754e+01
0	 6.296296e+00	 8.148148e+00	 1.004137e+01
0	 6.296296e+00	 8.222222e+00	 1.003853e+01
0	 6.296296e+00	 8.296296e+00	 1.003577e+01
0	 6.296296e+00	 8.370370e+00	 1.003309e+01
0	 6.296296e+00	 8.444444e+00	 1.003049e+01
0	 6.296296e+00	 8.518519e+00	 1.002796e+01
0	 6.370370e+00	 8.148148e+00	 1.004067e+01
0	 6.370370e+00	 8.222222e+00	 1.003788e+01
0	 6.370370e+00	 8.296296e+00	 1.003517e+01
0	 6.370370e+00	 8.370370e+00	 1.003254e+01
0	 6.370370e+00	 8.444444e+00	 1.002998e+01
0	 6.370370e+00	 8.518519e+00	 1.002750e+01
0	 6.444444e+00	 8.148148e+00	 1.003994e+01
0	 6.444444e+00	 8.222222e+00	 1.003720e+01
0	 6.444444e+00	 8.296296e+00	 1.003454e+01
0	 6.444444e+00	 8.370370e+00	 1.003196e+01
0	 6.444444e+00	 8.444444e+00	 1.002945e+01
0	 6.444444e+00	 8.518519e+00	 1.002701e+01
0	 6.518519e+00	 8.148148e+00	 1.003917e+01
0	 6.518519e+00	 8.222222e+00	 1.003648e+01
0	 6.518519e+00	 8.296296e+00	 1.003388e+01
0	 6.518519e+00	 8.370370e+00	 1.003135e+01
0	 6.518519e+00	 8.444444e+00	 1.002889e+01
0	 6.518519e+00	 8.518519e+00	 1.002649e+01
0	 6.592593e+00	 8.148148e+00	 1.003836e+01
0	 6.592593e+00	 8.222222e+00	 1.003574e+01
0	 6.592593e+00	 8.296296e+00	 1.003319e+01
0	 6.592593e+00	 8.370370e+00	 1.003071e+01
0	 6.592593e+00	 8.444444e+00	 1.002830e+01
0	 6.592593e+00	 8.518519e+00	 1.002595e+01
0	 6.666667e+00	 8.148148e+00	 1.003754e+01
0	 6.666667e+00	 8.222222e+00	 1.003497e+01
0	 6.666667e+00	 8.296296e+00	 1.003248e+01
0	 6.666667e+00	 8.370370e+00	 1.003005e+01
0	 6.666667e+00	 8.444444e+00	 1.002770e+01
0	 6.666667e+00	 8.518519e+00	 1.002540e+01
0	 6.296296e+00	 8.518519e+00	 1.002796e+01
0	 6.296296e+00	 8.592593e+00	 1.002551e+01
0	 6.296296e+00	 8.666667e+00	 1.002317e+01
0	 6.296296e+00	 8.740741e+00	 1.002091e+01
0	 6.296296e+00	 8.814815e+00	 1.001875e+01
0	 6.296296e+00	 8.888889e+00	 1.001667e+01
0	 6.370370e+00	 8.518519e+00	 1.002750e+01
0	 6.370370e+00	 8.592593e+00	 1.002509e+01
0	 6.370370e+00	 8.666667e+00	 1.002278e+01
0	 6.370370e+00	 8.740741e+00	 1.002057e+01
0	 6.370370e+00	 8.814815e+00	 1.001844e+01
0	 6.370370e+00	 8.888889e+00	 1.001639e+01
0	 6.444444e+00	 8.518519e+00	 1.002701e+01
0	 6.444444e+00	 8.592593e+00	 1.002464e+01
0	 6.444444e+00	 8.666667e+00	 1.002238e+01
0	 6.444444e+00	 8.740741e+00	 1.002020e+01
0	 6.444444e+00	 8.814815e+00	 1.001811e+01
0	 6.444444e+00	 8.888889e+00	 1.001610e+01
0	 6.518519e+00	 8.518519e+00	 1.002649e+01
0	 6.518519e+00	 8.592593e+00	 1.002417e+01
0	 6.518519e+00	 8.666667e+00	 1.002195e+01
0	 6.518519e+00	 8.740741e+00	 1.001982e+01
0	 6.518519e+00	 8.814815e+00	 1.001776e+01
0	 6.518519e+00	 8.888889e+00	 1.001579e+01
0	 6.592593e+00	 8.518519e+00	 1.002595e+01
0	 6.592593e+00	 8.592593e+00	 1.002369e+01
0	 6.592593e+00	 8.666667e+00	 1.002151e+01
0	 6.592593e+00	 8.740741e+00	 1.001942e+01
0	 6.592593e+00	 8.814815e+00	 1.001741e+01
0	 6.592593e+00	 8.888889e+00	 1.001547e+01
0	 6.666667e+00	 8.518519e+00	 1.002540e+01
0	 6.666667e+00	 8.592593e+00	 1.002318e+01
0	 6.666667e+00	 8.666667e+00	 1.002105e+01
0	 6.666667e+00	 8.740741e+00	 1.001900e+01
0	 6.666667e+00	 8.814815e+00	 1.001703e+01
0	 6.666667e+00	 8.888889e+00	 1.001514e+01
0	 6.296296e+00	 8.888889e+00	 1.001667e+01
0	 6.296296e+00	 8.962963e+00	 1.001469e+01
0	 6.296296e+00	 9.037037e+00	 1.001282e+01
0	 6.296296e+00	 9.111111e+00	 1.001107e+01
0	 6.296296e+00	 9.185185e+00	 1.000943e+01
0	 6.296296e+00	 9.259259e+00	 1.000788e+01
0	 6.370370e+00	 8.888889e+00	 1.001639e+01
0	 6.370370e+00	 8.962963e+00	 1.001444e+01
0	 6.370370e+00	 9.037037e+00	 1.001261e+01
0	 6.370370e+00	 9.111111e+00	 1.001089e+01
0	 6.370370e+00	 9.185185e+00	 1.000927e+01
0	 6.370370e+00	 9.259259e+00	 1.000775e+01
0	 6.444444e+00	 8.888889e+00	 1.001610e+01
0	 6.444444e+00	 8.962963e+00	 1.001418e+01
0	 6.444444e+00	 9.037037e+00	 1.001238e+01
0	 6.444444e+00	 9.111111e+00	 1.001069e+01
0	 6.444444e+00	 9.185185e+00	 1.000910e+01
0	 6.444444e+00	 9.259259e+00	 1.000760e+01
0	 6.518519e+00	 8.888889e+00	 1.001579e+01
0	 6.518519e+00	 8.962963e+00	 1.001391e+01
0	 6.518519e+00	 9.037037e+00	 1.001215e+01
0	 6.518519e+00	 9.111111e+00	 1.001048e+01
0	 6.518519e+00	 9.185185e+00	 1.000892e+01
0	 6.518519e+00	 9.259259e+00	 1.000746e+01
0	 6.592593e+00	 8.888889e+00	 1.001547e+01
0	 6.592593e+00	 8.962963e+00	 1.001363e+01
0	 6.592593e+00	 9.037037e+00	 1.001190e+01
0	 6.592593e+00	 9.111111e+00	 1.001027e+01
0	 6.592593e+00	 9.185185e+00	 1.000874e+01
0	 6.592593e+00	 9.259259e+00	 1.000730e+01
0	 6.666667e+00	 8.888889e+00	 1.001514e+01
0	 6.666667e+00	 8.962963e+00	 1.001334e+01
0	 6.666667e+00	 9.037037e+00	 1.001164e+01
0	 6.666667e+00	 9.111111e+00	 1.001005e+01
0	 6.666667e+00	 9.185185e+00	 1.000855e+01
0	 6.666667e+00	 9.259259e+00	 1.000715e+01
0	 6.296296e+00	 9.259259e+00	 1.000788e+01
0	 6.296296e+00	 9.333333e+00	 1.000645e+01
0	 6.296296e+00	 9.407407e+00	 1.000517e+01
0	 6.296296e+00	 9.481481e+00	 1.000402e+01
0	 6.296296e+00	 9.555556e+00	 1.000300e+01
0	 6.296296e+00	 9.629630e+00	 1.000210e+01
0	 6.370370e+00	 9.259259e+00	 1.000775e+01
0	 6.370370e+00	 9.333333e+00	 1.000634e+01
0	 6.370370e+00	 9.407407e+00	 1.000508e+01
0	 6.370370e+00	 9.481481e+00	 1.000395e+01
0	 6.370370e+00	 9.555556e+00	 1.000295e+01
0	 6.370370e+00	 9.629630e+00	 1.000207e+01
0	 6.444444e+00	 9.259259e+00	 1.000760e+01
0	 6.444444e+00	 9.333333e+00	 1.000623e+01
0	 6.444444e+00	 9.407407e+00	 1.000499e+01
0	 6.444444e+00	 9.481481e+00	 1.000388e+01
0	 6.444444e+00	 9.555556e+00	 1.000289e+01
0	 6.444444e+00	 9.629630e+00	 1.000203e+01
0	 6.518519e+00	 9.259259e+00	 1.000746e+01
0	 6.518519e+00	 9.333333e+00	 1.000610e+01
0	 6.518519e+00	 9.407407e+00	 1.000489e+01
0	 6.518519e+00	 9.481481e+00	 1.000380e+01
0	 6.518519e+00	 9.555556e+00	 1.000284e+01
0	 6.518519e+00	 9.629630e+00	 1.000199e+01
0	 6.592593e+00	 9.259259e+00	 1.000730e+01
0	 6.592593e+00	 9.333333e+00	 1.000598e+01
0	 6.592593e+00	 9.407407e+00	 1.000479e+01
0	 6.592593e+00	 9.481481e+00	 1.000372e+01
0	 6.592593e+00	 9.555556e+00	 1.000278e+01
0	 6.592593e+00	 9.629630e+00	 1.000194e+01
0	 6.666667e+00	 9.259259e+00	 1.000715e+01
0	 6.666667e+00	 9.333333e+00	 1.000585e+01
0	 6.666667e+00	 9.407407e+00	 1.000468e+01
0	 6.666667e+00	 9.481481e+00	 1.000364e+01
0	 6.666667e+00	 9.555556e+00	 1.000272e+01
0	 6.666667e+00	 9.629630e+00	 1.000190e+01
0	 6.296296e+00	 9.629630e+00	 1.000210e+01
0	 6.296296e+00	 9.703704e+00	 1.000135e+01
0	 6.296296e+00	 9.777778e+00	 1.000077e+01
0	 6.296296e+00	 9.851852e+00	 1.000036e+01
0	 6.296296e+00	 9.925926e+00	 1.000010e+01
0	 6.296296e+00	 1.000000e+01	 9.999980e+00
0	 6.370370e+00	 9.629630e+00	 1.000207e+01
0	 6.370370e+00	 9.703704e+00	 1.000133e+01
0	 6.370370e+00	 9.777778e+00	 1.000076e+01
0	 6.370370e+00	 9.851852e+00	 1.000035e+01
0	 6.370370e+00	 9.925926e+00	 1.000010e+01
0	 6.370370e+00	 1.000000e+01	 9.999983e+00
0	 6.444444e+00	 9.629630e+00	 1.000203e+01
0	 6.444444e+00	 9.703704e+00	 1.000130e+01
0	 6.444444e+00	 9.777778e+00	 1.000075e+01
0	 6.444444e+00	 9.851852e+00	 1.000034e+01
0	 6.444444e+00	 9.925926e+00	 1.000009e+01
0	 6.444444e+00	 1.000000e+01	 9.999982e+00
0	 6.518519e+00	 9.629630e+00	 1.000199e+01
0	 6.518519e+00	 9.703704e+00	 1.000128e+01
0	 6.518519e+00	 9.777778e+00	 1.000073e+01
0	 6.518519e+00	 9.851852e+00	 1.000034e+01
0	 6.518519e+00	 9.925926e+00	 1.000009e+01
0	 6.518519e+00	 1.000000e+01	 9.999981e+00
0	 6.592593e+00	 9.629630e+00	 1.000194e+01
0	 6.592593e+00	 9.703704e+00	 1.000125e+01
0	 6.592593e+00	 9.777778e+00	 1.000071e+01
0	 6.592593e+00	 9.851852e+00	 1.000033e+01
0	 6.592593e+00	 9.925926e+00	 1.000009e+01
0	 6.592593e+00	 1.000000e+01	 9.999981e+00
0	 6.666667e+00	 9.629630e+00	 1.000190e+01
0	 6.666667e+00	 9.703704e+00	 1.000122e+01
0	 6.666667e+00	 9.777778e+00	 1.000070e+01
0	 6.666667e+00	 9.851852e+00	 1.000032e+01
0	 6.666667e+00	 9.925926e+00	 1.000009e+01
0	 6.666667e+00	 1.000000e+01	 9.999984e+00
0	 6.666667e+00	 0.000000e+00	 1.012148e+01
0	 6.666667e+00	 7.407407e-02	 1.012160e+01
0	 6.666667e+00	 1.481481e-01	 1.012194e+01
0	 6.666667e+00	 2.222222e-01	 1.012251e+01
0	 6.666667e+00	 2.962963e-01	 1.012331e+01
0	 6.666667e+00	 3.703704e-01	 1.012435e+01
0	 6.740741e+00	 0.000000e+00	 1.011339e+01
0	 6.740741e+00	 7.407407e-02	 1.011349e+01
0	 6.740741e+00	 1.481481e-01	 1.011382e+01
0	 6.740741e+00	 2.222222e-01	 1.011436e+01
0	 6.740741e+00	 2.962963e-01	 1.011513e+01
0	 6.740741e+00	 3.703704e-01	 1.011612e+01
0	 6.814815e+00	 0.000000e+00	 1.010529e+01
0	 6.814815e+00	 7.407407e-02	 1.010539e+01
0	 6.814815e+00	 1.481481e-01	 1.010570e+01
0	 6.814815e+00	 2.222222e-01	 1.010622e+01
0	 6.814815e+00	 2.962963e-01	 1.010696e+01
0	 6.814815e+00	 3.703704e-01	 1.010791e+01
0	 6.888889e+00	 0.000000e+00	 1.009720e+01
0	 6.888889e+00	 7.407407e-02	 1.009729e+01
0	 6.888889e+00	 1.481481e-01	 1.009759e+01
0	 6.888889e+00	 2.222222e-01	 1.009809e+01
0	 6.888889e+00	 2.962963e-01	 1.009880e+01
0	 6.888889e+00	 3.703704e-01	 1.009972e+01
0	 6.962963e+00	 0.000000e+00	 1.008909e+01
0	 6.962963e+00	 7.407407e-02	 1.008919e+01
0	 6.962963e+00	 1.481481e-01	 1.008948e+01
0	 6.962963e+00	 2.222222e-01	 1.008997e+01
0	 6.962963e+00	 2.962963e-01	 1.009065e+01
0	 6.962963e+00	 3.703704e-01	 1.009154e+01
0	 7.037037e+00	 0.000000e+00	 1.008098e+01
0	 7.037037e+00	 7.407407e-02	 1.008108e+01
0	 7.037037e+00	 1.481481e-01	 1.008137e+01
0	 7.037037e+00	 2.222222e-01	 1.008184e+01
0	 7.037037e+00	 2.962963e-01	 1.008250e+01
0	 7.037037e+00	 3.703704e-01	 1.008336e+01
0	 6.666667e+00	 3.703704e-01	 1.012435e+01
0	 6.666667e+00	 4.444444e-01	 1.012559e+01
0	 6.666667e+00	 5.185185e-01	 1.012702e+01
0	 6.666667e+00	 5.925926e-01	 1.012864e+01
0	 6.666667e+00	 6.666667e-01	 1.013046e+01
0	 6.666667e+00	 7.407407e-01	 1.013250e+01
0	 6.740741e+00	 3.703704e-01	 1.011612e+01
0	 6.740741e+00	 4.444444e-01	 1.011731e+01
0	 6.740741e+00	 5.185185e-01	 1.011868e+01
0	 6.740741e+00	 5.925926e-01	 1.012024e+01
0	 6.740741e+00	 6.666667e-01	 1.012200e+01
0	 6.740741e+00	 7.407407e-01	 1.012396e+01
0	 6.814815e+00	 3.703704e-01	 1.010791e+01
0	 6.814815e+00	 4.444444e-01	 1.010906e+01
0	 6.814815e+00	 5.185185e-01	 1.011038e+01
0	 6.814815e+00	 5.925926e-01	 1.011188e+01
0	 6.814815e+00	 6.666667e-01	 1.011357e+01
0	 6.814815e+00	 7.407407e-01	 1.011546e+01
0	 6.888889e+00	 3.703704e-01	 1.009972e+01
0	 6.888889e+00	 4.444444e-01	 1.010083e+01
0	 6.888889e+00	 5.185185e-01	 1.010210e+01
0	 6.888889e+00	 5.925926e-01	 1.010354e+01
0	 6.888889e+00	 6.666667e-01	 1.010517e+01
0	 6.888889e+00	 7.407407e-01	 1.010699e+01
0	 6.962963e+00	 3.703704e-01	 1.009154e+01
0	 6.962963e+00	 4.444444e-01	 1.009260e+01
0	 6.962963e+00	 5.185185e-01	 1.009383e+01
0	 6.962963e+00	 5.925926e-01	 1.009522e+01
0	 6.962963e+00	 6.666667e-01	 1.009680e+01
0	 6.962963e+00	 7.407407e-01	 1.009855e+01
0	 7.037037e+00	 3.703704e-01	 1.008336e+01
0	 7.037037e+00	 4.444444e-01	 1.008439e+01
0	 7.037037e+00	 5.185185e-01	 1.008557e+01
0	 7.037037e+00	 5.925926e-01	 1.008692e+01
0	 7.037037e+00	 6.666667e-01	 1.008843e+01
0	 7.037037e+00	 7.407407e-01	 1.009013e+01
0	 6.666667e+00	 7.407407e-01	 1.013250e+01
0	 6.666667e+00	 8.148148e-01	 1.013470e+01
0	 6.666667e+00	 8.888889e-01	 1.013702e+01
0	 6.666667e+00	 9.629630e-01	 1.013946e+01
0	 6.666667e+00	 1.037037e+00	 1.014205e+01
0	 6.666667e+00	 1.111111e+00	 1.014480e+01
0	 6.740741e+00	 7.407407e-01	 1.012396e+01
0	 6.740741e+00	 8.148148e-01	 1.012607e+01
0	 6.740741e+00	 8.888889e-01	 1.012830e+01
0	 6.740741e+00	 9.629630e-01	 1.013066e+01
0	 6.740741e+00	 1.037037e+00	 1.013316e+01
0	 6.740741e+00	 1.111111e+00	 1.013581e+01
0	 6.814815e+00	 7.407407e-01	 1.011546e+01
0	 6.814815e+00	 8.148148e-01	 1.011750e+01
0	 6.814815e+00	 8.888889e-01	 1.011965e+01
0	 6.814815e+00	 9.629630e-01	 1.012192e+01
0	 6.814815e+00	 1.037037e+00	 1.012433e+01
0	 6.814815e+00	 1.111111e+00	 1.012689e+01
0	 6.888889e+00	 7.407407e-01	 1.010699e+01
0	 6.888889e+00	 8.148148e-01	 1.010896e+01
0	 6.888889e+00	 8.888889e-01	 1.011103e+01
0	 6.888889e+00	 9.629630e-01	 1.011323e+01
0	 6.888889e+00	 1.037037e+00	 1.011556e+01
0	 6.888889e+00	 1.111111e+00	 1.011804e+01
0	 6.962963e+00	 7.407407e-01	 1.009855e+01
0	 6.962963e+00	 8.148148e-01	 1.010045e+01
0	 6.962963e+00	 8.888889e-01	 1.010246e+01
0	 6.962963e+00	 9.629630e-01	 1.010458e+01
0	 6.962963e+00	 1.037037e+00	 1.010684e+01
0	 6.962963e+00	 1.111111e+00	 1.010923e+01
0	 7.037037e+00	 7.407407e-01	 1.009013e+01
0	 7.037037e+00	 8.148148e-01	 1.009196e+01
0	 7.037037e+00	 8.888889e-01	 1.009390e+01
0	 7.037037e+00	 9.629630e-01	 1.009596e+01
0	 7.037037e+00	 1.037037e+00	 1.009814e+01
0	 7.037037e+00	 1.111111e+00	 1.010047e+01
0	 6.666667e+00	 1.111111e+00	 1.014480e+01
0	 6.666667e+00	 1.185185e+00	 1.014764e+01
0	 6.666667e+00	 1.259259e+00	 1.015052e+01
0	 6.666667e+00	 1.333333e+00	 1.015345e+01
0	 6.666667e+00	 1.407407e+00	 1.015646e+01
0	 6.666667e+00	 1.481481e+00	 1.015955e+01
0	 6.740741e+00	 1.111111e+00	 1.013581e+01
0	 6.740741e+00	 1.185185e+00	 1.013856e+01
0	 6.740741e+00	 1.259259e+00	 1.014134e+01
0	 6.740741e+00	 1.333333e+00	 1.014418e+01
0	 6.740741e+00	 1.407407e+00	 1.014709e+01
0	 6.740741e+00	 1.481481e+00	 1.015009e+01
0	 6.814815e+00	 1.111111e+00	 1.012689e+01
0	 6.814815e+00	 1.185185e+00	 1.012955e+01
0	 6.814815e+00	 1.259259e+00	 1.013225e+01
0	 6.814815e+00	 1.333333e+00	 1.013500e+01
0	 6.814815e+00	 1.407407e+00	 1.013782e+01
0	 6.814815e+00	 1.481481e+00	 1.014073e+01
0	 6.888889e+00	 1.111111e+00	 1.011804e+01
0	 6.888889e+00	 1.185185e+00	 1.012061e+01
0	 6.888889e+00	 1.259259e+00	 1.012322e+01
0	 6.888889e+00	 1.333333e+00	 1.012589e+01
0	 6.888889e+00	 1.407407e+00	 1.012863e+01
0	 6.888889e+00	 1.481481e+00	 1.013145e+01
0	 6.962963e+00	 1.111111e+00	 1.010923e+01
0	 6.962963e+00	 1.185185e+00	 1.011172e+01
0	 6.962963e+00	 1.259259e+00	 1.011425e+01
0	 6.962963e+00	 1.333333e+00	 1.011684e+01
0	 6.962963e+00	 1.407407e+00	 1.011950e+01
0	 6.962963e+00	 1.481481e+00	 1.012225e+01
0	 7.037037e+00	 1.111111e+00	 1.010047e+01
0	 7.037037e+00	 1.185185e+00	 1.010288e+01
0	 7.037037e+00	 1.259259e+00	 1.010534e+01
0	 7.037037e+00	 1.333333e+00	 1.010785e+01
0	 7.037037e+00	 1.407407e+00	 1.011044e+01
0	 7.037037e+00	 1.481481e+00	 1.011311e+01
0	 6.666667e+00	 1.481481e+00	 1.015955e+01
0	 6.666667e+00	 1.555556e+00	 1.016266e+01
0	 6.666667e+00	 1.629630e+00	 1.016572e+01
0	 6.666667e+00	 1.703704e+00	 1.016876e+01
0	 6.666667e+00	 1.777778e+00	 1.017179e+01
0	 6.666667e+00	 1.851852e+00	 1.017483e+01
0	 6.740741e+00	 1.481481e+00	 1.015009e+01
0	 6.740741e+00	 1.555556e+00	 1.015311e+01
0	 6.740741e+00	 1.629630e+00	 1.015609e+01
0	 6.740741e+00	 1.703704e+00	 1.015905e+01
0	 6.740741e+00	 1.777778e+00	 1.016200e+01
0	 6.740741e+00	 1.851852e+00	 1.016497e+01
0	 6.814815e+00	 1.481481e+00	 1.014073e+01
0	 6.814815e+00	 1.555556e+00	 1.014366e+01
0	 6.814815e+00	 1.629630e+00	 1.014656e+01
0	 6.814815e+00	 1.703704e+00	 1.014945e+01
0	 6.814815e+00	 1.777778e+00	 1.015233e+01
0	 6.814815e+00	 1.851852e+00	 1.015523e+01
0	 6.888889e+00	 1.481481e+00	 1.013145e+01
0	 6.888889e+00	 1.555556e+00	 1.013430e+01
0	 6.888889e+00	 1.629630e+00	 1.013713e+01
0	 6.888889e+00	 1.703704e+00	 1.013995e+01
0	 6.888889e+00	 1.777778e+00	 1.014277e+01
0	 6.888889e+00	 1.851852e+00	 1.014560e+01
0	 6.962963e+00	 1.481481e+00	 1.012225e+01
0	 6.962963e+00	 1.555556e+00	 1.012503e+01
0	 6.962963e+00	 1.629630e+00	 1.012778e+01
0	 6.962963e+00	 1.703704e+00	 1.013053e+01
0	 6.962963e+00	 1.777778e+00	 1.013329e+01
0	 6.962963e+00	 1.851852e+00	 1.013607e+01
0	 7.037037e+00	 1.481481e+00	 1.011311e+01
0	 7.037037e+00	 1.555556e+00	 1.011582e+01
0	 7.037037e+00	 1.629630e+00	 1.011851e+01
0	 7.037037e+00	 1.703704e+00	 1.012119e+01
0	 7.037037e+00	 1.777778e+00	 1.012389e+01
0	 7.037037e+00	 1.851852e+00	 1.012661e+01
0	 6.666667e+00	 1.851852e+00	 1.017483e+01
0	 6.666667e+00	 1.925926e+00	 1.017781e+01
0	 6.666667e+00	 2.000000e+00	 1.018069e+01
0	 6.666667e+00	 2.074074e+00	 1.018347e+01
0	 6.666667e+00	 2.148148e+00	 1.018618e+01
0	 6.666667e+00	 2.222222e+00	 1.018882e+01
0	 6.740741e+00	 1.851852e+00	 1.016497e+01
0	 6.740741e+00	 1.925926e+00	 1.016788e+01
0	 6.740741e+00	 2.000000e+00	 1.017071e+01
0	 6.740741e+00	 2.074074e+00	 1.017344e+01
0	 6.740741e+00	 2.148148e+00	 1.017611e+01
0	 6.740741e+00	 2.222222e+00	 1.017871e+01
0	 6.814815e+00	 1.851852e+00	 1.015523e+01
0	 6.814815e+00	 1.925926e+00	 1.015809e+01
0	 6.814815e+00	 2.000000e+00	 1.016085e+01
0	 6.814815e+00	 2.074074e+00	 1.016354e+01
0	 6.814815e+00	 2.148148e+00	 1.016617e+01
0	 6.814815e+00	 2.222222e+00	 1.016875e+01
0	 6.888889e+00	 1.851852e+00	 1.014560e+01
0	 6.888889e+00	 1.925926e+00	 1.014840e+01
0	 6.888889e+00	 2.000000e+00	 1.015112e+01
0	 6.888889e+00	 2.074074e+00	 1.015377e+01
0	 6.888889e+00	 2.148148e+00	 1.015636e+01
0	 6.888889e+00	 2.222222e+00	 1.015890e+01
0	 6.962963e+00	 1.851852e+00	 1.013607e+01
0	 6.962963e+00	 1.925926e+00	 1.013882e+01
0	 6.962963e+00	 2.000000e+00	 1.014149e+01
0	 6.962963e+00	 2.074074e+00	 1.014409e+01
0	 6.962963e+00	 2.148148e+00	 1.014665e+01
0	 6.962963e+00	 2.222222e+00	 1.014916e+01
0	 7.037037e+00	 1.851852e+00	 1.012661e+01
0	 7.037037e+00	 1.925926e+00	 1.012931e+01
0	 7.037037e+00	 2.000000e+00	 1.013194e+01
0	 7.037037e+00	 2.074074e+00	 1.013451e+01
0	 7.037037e+00	 2.148148e+00	 1.013703e+01
0	 7.037037e+00	 2.222222e+00	 1.013952e+01
0	 6.666667e+00	 2.222222e+00	 1.018882e+01
0	 6.666667e+00	 2.296296e+00	 1.019135e+01
0	 6.666667e+00	 2.370370e+00	 1.019372e+01
0	 6.666667e+00	 2.444444e+00	 1.019594e+01
0	 6.666667e+00	 2.518519e+00	 1.019803e+01
0	 6.666667e+00	 2.592593e+00	 1.020000e+01
0	 6.740741e+00	 2.222222e+00	 1.017871e+01
0	 6.740741e+00	 2.296296e+00	 1.018122e+01
0	 6.740741e+00	 2.370370e+00	 1.018358e+01
0	 6.740741e+00	 2.444444e+00	 1.018580e+01
0	 6.740741e+00	 2.518519e+00	 1.018789e+01
0	 6.740741e+00	 2.592593e+00	 1.018986e+01
0	 6.814815e+00	 2.222222e+00	 1.016875e+01
0	 6.814815e+00	 2.296296e+00	 1.017123e+01
0	 6.814815e+00	 2.370370e+00	 1.017357e+01
0	 6.814815e+00	 2.444444e+00	 1.017578e+01
0	 6.814815e+00	 2.518519e+00	 1.017788e+01
0	 6.814815e+00	 2.592593e+00	 1.017987e+01
0	 6.888889e+00	 2.222222e+00	 1.015890e+01
0	 6.888889e+00	 2.296296e+00	 1.016136e+01
0	 6.888889e+00	 2.370370e+00	 1.016368e+01
0	 6.888889e+00	 2.444444e+00	 1.016589e+01
0	 6.888889e+00	 2.518519e+00	 1.016799e+01
0	 6.888889e+00	 2.592593e+00	 1.016999e+01
0	 6.962963e+00	 2.222222e+00	 1.014916e+01
0	 6.962963e+00	 2.296296e+00	 1.015160e+01
0	 6.962963e+00	 2.370370e+00	 1.015391e+01
0	 6.962963e+00	 2.444444e+00	 1.015611e+01
0	 6.962963e+00	 2.518519e+00	 1.015822e+01
0	 6.962963e+00	 2.592593e+00	 1.016023e+01
0	 7.037037e+00	 2.222222e+00	 1.013952e+01
0	 7.037037e+00	 2.296296e+00	 1.014193e+01
0	 7.037037e+00	 2.370370e+00	 1.014423e+01
0	 7.037037e+00	 2.444444e+00	 1.014643e+01
0	 7.037037e+00	 2.518519e+00	 1.014854e+01
0	 7.037037e+00	 2.592593e+00	 1.015056e+01
0	 6.666667e+00	 2.592593e+00	 1.020000e+01
0	 6.666667e+00	 2.666667e+00	 1.020181e+01
0	 6.666667e+00	 2.740741e+00	 1.020344e+01
0	 6.666667e+00	 2.814815e+00	 1.020489e+01
0	 6.666667e+00	 2.888889e+00	 1.020618e+01
0	 6.666667e+00	 2.962963e+00	 1.020730e+01
0	 6.740741e+00	 2.592593e+00	 1.018986e+01
0	 6.740741e+00	 2.666667e+00	 1.019170e+01
0	 6.740741e+00	 2.740741e+00	 1.019336e+01
0	 6.740741e+00	 2.814815e+00	 1.019485e+01
0	 6.740741e+00	 2.888889e+00	 1.019619e+01
0	 6.740741e+00	 2.962963e+00	 1.019738e+01
0	 6.814815e+00	 2.592593e+00	 1.017987e+01
0	 6.814815e+00	 2.666667e+00	 1.018172e+01
0	 6.814815e+00	 2.740741e+00	 1.018341e+01
0	 6.814815e+00	 2.814815e+00	 1.018495e+01
0	 6.814815e+00	 2.888889e+00	 1.018634e+01
0	 6.814815e+00	 2.962963e+00	 1.018758e+01
0	 6.888889e+00	 2.592593e+00	 1.016999e+01
0	 6.888889e+00	 2.666667e+00	 1.017187e+01
0	 6.888889e+00	 2.740741e+00	 1.017359e+01
0	 6.888889e+00	 2.814815e+00	 1.017516e+01
0	 6.888889e+00	 2.888889e+00	 1.017660e+01
0	 6.888889e+00	 2.962963e+00	 1.017789e+01
0	 6.962963e+00	 2.592593e+00	 1.016023e+01
0	 6.962963e+00	 2.666667e+00	 1.016212e+01
0	 6.962963e+00	 2.740741e+00	 1.016387e+01
0	 6.962963e+00	 2.814815e+00	 1.016548e+01
0	 6.962963e+00	 2.888889e+00	 1.016696e+01
0	 6.962963e+00	 2.962963e+00	 1.016831e+01
0	 7.037037e+00	 2.592593e+00	 1.015056e+01
0	 7.037037e+00	 2.666667e+00	 1.015248e+01
0	 7.037037e+00	 2.740741e+00	 1.015425e+01
0	 7.037037e+00	 2.814815e+00	 1.015590e+01
0	 7.037037e+00	 2.888889e+00	 1.015742e+01
0	 7.037037e+00	 2.962963e+00	 1.015882e+01
0	 6.666667e+00	 2.962963e+00	 1.020730e+01
0	 6.666667e+00	 3.037037e+00	 1.020826e+01
0	 6.666667e+00	 3.111111e+00	 1.020902e+01
0	 6.666667e+00	 3.185185e+00	 1.020960e+01
0	 6.666667e+00	 3.259259e+00	 1.020999e+01
0	 6.666667e+00	 3.333333e+00	 1.021021e+01
0	 6.740741e+00	 2.962963e+00	 1.019738e+01
0	 6.740741e+00	 3.037037e+00	 1.019841e+01
0	 6.740741e+00	 3.111111e+00	 1.019925e+01
0	 6.740741e+00	 3.185185e+00	 1.019991e+01
0	 6.740741e+00	 3.259259e+00	 1.020040e+01
0	 6.740741e+00	 3.333333e+00	 1.020072e+01
0	 6.814815e+00	 2.962963e+00	 1.018758e+01
0	 6.814815e+00	 3.037037e+00	 1.018867e+01
0	 6.814815e+00	 3.111111e+00	 1.018959e+01
0	 6.814815e+00	 3.185185e+00	 1.019033e+01
0	 6.814815e+00	 3.259259e+00	 1.019091e+01
0	 6.814815e+00	 3.333333e+00	 1.019133e+01
0	 6.888889e+00	 2.962963e+00	 1.017789e+01
0	 6.888889e+00	 3.037037e+00	 1.017904e+01
0	 6.888889e+00	 3.111111e+00	 1.018003e+01
0	 6.888889e+00	 3.185185e+00	 1.018085e+01
0	 6.888889e+00	 3.259259e+00	 1.018152e+01
0	 6.888889e+00	 3.333333e+00	 1.018203e+01
0	 6.962963e+00	 2.962963e+00	 1.016831e+01
0	 6.962963e+00	 3.037037e+00	 1.016952e+01
0	 6.962963e+00	 3.111111e+00	 1.017057e+01
0	 6.962963e+00	 3.185185e+00	 1.017147e+01
0	 6.962963e+00	 3.259259e+00	 1.017221e+01
0	 6.962963e+00	 3.333333e+00	 1.017282e+01
0	 7.037037e+00	 2.962963e+00	 1.015882e+01
0	 7.037037e+00	 3.037037e+00	 1.016008e+01
0	 7.037037e+00	 3.111111e+00	 1.016120e+01
0	 7.037037e+00	 3.185185e+00	 1.016217e+01
0	 7.037037e+00	 3.259259e+00	 1.016300e+01
0	 7.037037e+00	 3.333333e+00	 1.016369e+01
0	 6.666667e+00	 3.333333e+00	 1.021021e+01
0	 6.666667e+00	 3.407407e+00	 1.021024e+01
0	 6.666667e+00	 3.481481e+00	 1.021010e+01
0	 6.666667e+00	 3.555556e+00	 1.020979e+01
0	 6.666667e+00	 3.629630e+00	 1.020929e+01
0	 6.666667e+00	 3.703704e+00	 1.020862e+01
0	 6.740741e+00	 3.333333e+00	 1.020072e+01
0	 6.740741e+00	 3.407407e+00	 1.020087e+01
0	 6.740741e+00	 3.481481e+00	 1.020084e+01
0	 6.740741e+00	 3.555556e+00	 1.020065e+01
0	 6.740741e+00	 3.629630e+00	 1.020029e+01
0	 6.740741e+00	 3.703704e+00	 1.019976e+01
0	 6.814815e+00	 3.333333e+00	 1.019133e+01
0	 6.814815e+00	 3.407407e+00	 1.019158e+01
0	 6.814815e+00	 3.481481e+00	 1.019167e+01
0	 6.814815e+00	 3.555556e+00	 1.019160e+01
0	 6.814815e+00	 3.629630e+00	 1.019136e+01
0	 6.814815e+00	 3.703704e+00	 1.019096e+01
0	 6.888889e+00	 3.333333e+00	 1.018203e+01
0	 6.888889e+00	 3.407407e+00	 1.018238e+01
0	 6.888889e+00	 3.481481e+00	 1.018258e+01
0	 6.888889e+00	 3.555556e+00	 1.018262e+01
0	 6.888889e+00	 3.629630e+00	 1.018250e+01
0	 6.888889e+00	 3.703704e+00	 1.018223e+01
0	 6.962963e+00	 3.333333e+00	 1.017282e+01
0	 6.962963e+00	 3.407407e+00	 1.017327e+01
0	 6.962963e+00	 3.481481e+00	 1.017357e+01
0	 6.962963e+00	 3.555556e+00	 1.017372e+01
0	 6.962963e+00	 3.629630e+00	 1.017372e+01
0	 6.962963e+00	 3.703704e+00	 1.017356e+01
0	 7.037037e+00	 3.333333e+00	 1.016369e+01
0	 7.037037e+00	 3.407407e+00	 1.016424e+01
0	 7.037037e+00	 3.481481e+00	 1.016464e+01
0	 7.037037e+00	 3.555556e+00	 1.016489e+01
0	 7.037037e+00	 3.629630e+00	 1.016500e+01
0	 7.037037e+00	 3.703704e+00	 1.016497e+01
0	 6.666667e+00	 3.703704e+00	 1.020862e+01
0	 6.666667e+00	 3.777778e+00	 1.020779e+01
0	 6.666667e+00	 3.851852e+00	 1.020679e+01
0	 6.666667e+00	 3.925926e+00	 1.020564e+01
0	 6.666667e+00	 4.000000e+00	 1.020433e+01
0	 6.666667e+00	 4.074074e+00	 1.020286e+01
0	 6.740741e+00	 3.703704e+00	 1.019976e+01
0	 6.740741e+00	 3.777778e+00	 1.019906e+01
0	 6.740741e+00	 3.851852e+00	 1.019822e+01
0	 6.740741e+00	 3.925926e+00	 1.019722e+01
0	 6.740741e+00	 4.000000e+00	 1.019606e+01
0	 6.740741e+00	 4.074074e+00	 1.019475e+01
0	 6.814815e+00	 3.703704e+00	 1.019096e+01
0	 6.814815e+00	 3.777778e+00	 1.019040e+01
0	 6.814815e+00	 3.851852e+00	 1.018970e+01
0	 6.814815e+00	 3.925926e+00	 1.018884e+01
0	 6.814815e+00	 4.000000e+00	 1.018784e+01
0	 6.814815e+00	 4.074074e+00	 1.018668e+01
0	 6.888889e+00	 3.703704e+00	 1.018223e+01
0	 6.888889e+00	 3.777778e+00	 1.018180e+01
0	 6.888889e+00	 3.851852e+00	 1.018123e+01
0	 6.888889e+00	 3.925926e+00	 1.018052e+01
0	 6.888889e+00	 4.000000e+00	 1.017966e+01
0	 6.888889e+00	 4.074074e+00	 1.017865e+01
0	 6.962963e+00	 3.703704e+00	 1.017356e+01
0	 6.962963e+00	 3.777778e+00	 1.017327e+01
0	 6.962963e+00	 3.851852e+00	 1.017283e+01
0	 6.962963e+00	 3.925926e+00	 1.017225e+01
0	 6.962963e+00	 4.000000e+00	 1.017153e+01
0	 6.962963e+00	 4.074074e+00	 1.017066e+01
0	 7.037037e+00	 3.703704e+00	 1.016497e+01
0	 7.037037e+00	 3.777778e+00	 1.016479e+01
0	 7.037037e+00	 3.851852e+00	 1.016448e+01
0	 7.037037e+00	 3.925926e+00	 1.016403e+01
0	 7.037037e+00	 4.000000e+00	 1.016345e+01
0	 7.037037e+00	 4.074074e+00	 1.016273e+01
0	 6.666667e+00	 4.074074e+00	 1.020286e+01
0	 6.666667e+00	 4.148148e+00	 1.020124e+01
0	 6.666667e+00	 4.222222e+00	 1.019949e+01
0	 6.666667e+00	 4.296296e+00	 1.019761e+01
0	 6.666667e+00	 4.370370e+00	 1.019560e+01
0	 6.666667e+00	 4.444444e+00	 1.019345e+01
0	 6.740741e+00	 4.074074e+00	 1.019475e+01
0	 6.740741e+00	 4.148148e+00	 1.019329e+01
0	 6.740741e+00	 4.222222e+00	 1.019171e+01
0	 6.740741e+00	 4.296296e+00	 1.019000e+01
0	 6.740741e+00	 4.370370e+00	 1.018816e+01
0	 6.740741e+00	 4.444444e+00	 1.018619e+01
0	 6.814815e+00	 4.074074e+00	 1.018668e+01
0	 6.814815e+00	 4.148148e+00	 1.018538e+01
0	 6.814815e+00	 4.222222e+00	 1.018396e+01
0	 6.814815e+00	 4.296296e+00	 1.018242e+01
0	 6.814815e+00	 4.370370e+00	 1.018074e+01
0	 6.814815e+00	 4.444444e+00	 1.017893e+01
0	 6.888889e+00	 4.074074e+00	 1.017865e+01
0	 6.888889e+00	 4.148148e+00	 1.017751e+01
0	 6.888889e+00	 4.222222e+00	 1.017624e+01
0	 6.888889e+00	 4.296296e+00	 1.017486e+01
0	 6.888889e+00	 4.370370e+00	 1.017334e+01
0	 6.888889e+00	 4.444444e+00	 1.017170e+01
0	 6.962963e+00	 4.074074e+00	 1.017066e+01
0	 6.962963e+00	 4.148148e+00	 1.016967e+01
0	 6.962963e+00	 4.222222e+00	 1.016856e+01
0	 6.962963e+00	 4.296296e+00	 1.016732e+01
0	 6.962963e+00	 4.370370e+00	 1.016597e+01
0	 6.962963e+00	 4.444444e+00	 1.016448e+01
0	 7.037037e+00	 4.074074e+00	 1.016273e+01
0	 7.037037e+00	 4.148148e+00	 1.016188e+01
0	 7.037037e+00	 4.222222e+00	 1.016091e+01
0	 7.037037e+00	 4.296296e+00	 1.015983e+01
0	 7.037037e+00	 4.370370e+00	 1.015862e+01
0	 7.037037e+00	 4.444444e+00	 1.015729e+01
0	 6.666667e+00	 4.444444e+00	 1.019345e+01
0	 6.666667e+00	 4.518519e+00	 1.019118e+01
0	 6.666667e+00	 4.592593e+00	 1.018882e+01
0	 6.666667e+00	 4.666667e+00	 1.018635e+01
0	 6.666667e+00	 4.740741e+00	 1.018378e+01
0	 6.666667e+00	 4.814815e+00	 1.018110e+01
0	 6.740741e+00	 4.444444e+00	 1.018619e+01
0	 6.740741e+00	 4.518519e+00	 1.018409e+01
0	 6.740741e+00	 4.592593e+00	 1.018191e+01
0	 6.740741e+00	 4.666667e+00	 1.017962e+01
0	 6.740741e+00	 4.740741e+00	 1.017722e+01
0	 6.740741e+00	 4.814815e+00	 1.017472e+01
0	 6.814815e+00	 4.444444e+00	 1.017893e+01
0	 6.814815e+00	 4.518519e+00	 1.017701e+01
0	 6.814815e+00	 4.592593e+00	 1.017499e+01
0	 6.814815e+00	 4.666667e+00	 1.017287e+01
0	 6.814815e+00	 4.740741e+00	 1.017065e+01
0	 6.814815e+00	 4.814815e+00	 1.016832e+01
0	 6.888889e+00	 4.444444e+00	 1.017170e+01
0	 6.888889e+00	 4.518519e+00	 1.016994e+01
0	 6.888889e+00	 4.592593e+00	 1.016808e+01
0	 6.888889e+00	 4.666667e+00	 1.016613e+01
0	 6.888889e+00	 4.740741e+00	 1.016407e+01
0	 6.888889e+00	 4.814815e+00	 1.016191e+01
0	 6.962963e+00	 4.444444e+00	 1.016448e+01
0	 6.962963e+00	 4.518519e+00	 1.016288e+01
0	 6.962963e+00	 4.592593e+00	 1.016119e+01
0	 6.962963e+00	 4.666667e+00	 1.015940e+01
0	 6.962963e+00	 4.740741e+00	 1.015750e+01
0	 6.962963e+00	 4.814815e+00	 1.015550e+01
0	 7.037037e+00	 4.444444e+00	 1.015729e+01
0	 7.037037e+00	 4.518519e+00	 1.015585e+01
0	 7.037037e+00	 4.592593e+00	 1.015431e+01
0	 7.037037e+00	 4.666667e+00	 1.015268e+01
0	 7.037037e+00	 4.740741e+00	 1.015095e+01
0	 7.037037e+00	 4.814815e+00	 1.014911e+01
0	 6.666667e+00	 4.814815e+00	 1.018110e+01
0	 6.666667e+00	 4.888889e+00	 1.017833e+01
0	 6.666667e+00	 4.962963e+00	 1.017549e+01
0	 6.666667e+00	 5.037037e+00	 1.017258e+01
0	 6.666667e+00	 5.111111e+00	 1.016960e+01
0	 6.666667e+00	 5.185185e+00	 1.016653e+01
0	 6.740741e+00	 4.814815e+00	 1.017472e+01
0	 6.740741e+00	 4.888889e+00	 1.017212e+01
0	 6.740741e+00	 4.962963e+00	 1.016946e+01
0	 6.740741e+00	 5.037037e+00	 1.016672e+01
0	 6.740741e+00	 5.111111e+00	 1.016391e+01
0	 6.740741e+00	 5.185185e+00	 1.016102e+01
0	 6.814815e+00	 4.814815e+00	 1.016832e+01
0	 6.814815e+00	 4.888889e+00	 1.016589e+01
0	 6.814815e+00	 4.962963e+00	 1.016340e+01
0	 6.814815e+00	 5.037037e+00	 1.016084e+01
0	 6.814815e+00	 5.111111e+00	 1.015820e+01
0	 6.814815e+00	 5.185185e+00	 1.015547e+01
0	 6.888889e+00	 4.814815e+00	 1.016191e+01
0	 6.888889e+00	 4.888889e+00	 1.015966e+01
0	 6.888889e+00	 4.962963e+00	 1.015733e+01
0	 6.888889e+00	 5.037037e+00	 1.015493e+01
0	 6.888889e+00	 5.111111e+00	 1.015246e+01
0	 6.888889e+00	 5.185185e+00	 1.014990e+01
0	 6.962963e+00	 4.814815e+00	 1.015550e+01
0	 6.962963e+00	 4.888889e+00	 1.015341e+01
0	 6.962963e+00	 4.962963e+00	 1.015126e+01
0	 6.962963e+00	 5.037037e+00	 1.014902e+01
0	 6.962963e+00	 5.111111e+00	 1.014671e+01
0	 6.962963e+00	 5.185185e+00	 1.014431e+01
0	 7.037037e+00	 4.814815e+00	 1.014911e+01
0	 7.037037e+00	 4.888889e+00	 1.014718e+01
0	 7.037037e+00	 4.962963e+00	 1.014518e+01
0	 7.037037e+00	 5.037037e+00	 1.014311e+01
0	 7.037037e+00	 5.111111e+00	 1.014095e+01
0	 7.037037e+00	 5.185185e+00	 1.013872e+01
0	 6.666667e+00	 5.185185e+00	 1.016653e+01
0	 6.666667e+00	 5.259259e+00	 1.016341e+01
0	 6.666667e+00	 5.333333e+00	 1.016024e+01
0	 6.666667e+00	 5.407407e+00	 1.015703e+01
0	 6.666667e+00	 5.481481e+00	 1.015377e+01
0	 6.666667e+00	 5.555556e+00	 1.015045e+01
0	 6.740741e+00	 5.185185e+00	 1.016102e+01
0	 6.740741e+00	 5.259259e+00	 1.015806e+01
0	 6.740741e+00	 5.333333e+00	 1.015507e+01
0	 6.740741e+00	 5.407407e+00	 1.015202e+01
0	 6.740741e+00	 5.481481e+00	 1.014892e+01
0	 6.740741e+00	 5.555556e+00	 1.014577e+01
0	 6.814815e+00	 5.185185e+00	 1.015547e+01
0	 6.814815e+00	 5.259259e+00	 1.015268e+01
0	 6.814815e+00	 5.333333e+00	 1.014985e+01
0	 6.814815e+00	 5.407407e+00	 1.014697e+01
0	 6.814815e+00	 5.481481e+00	 1.014403e+01
0	 6.814815e+00	 5.555556e+00	 1.014104e+01
0	 6.888889e+00	 5.185185e+00	 1.014990e+01
0	 6.888889e+00	 5.259259e+00	 1.014727e+01
0	 6.888889e+00	 5.333333e+00	 1.014460e+01
0	 6.888889e+00	 5.407407e+00	 1.014188e+01
0	 6.888889e+00	 5.481481e+00	 1.013911e+01
0	 6.888889e+00	 5.555556e+00	 1.013627e+01
0	 6.962963e+00	 5.185185e+00	 1.014431e+01
0	 6.962963e+00	 5.259259e+00	 1.014185e+01
0	 6.962963e+00	 5.333333e+00	 1.013934e+01
0	 6.962963e+00	 5.407407e+00	 1.013678e+01
0	 6.962963e+00	 5.481481e+00	 1.013416e+01
0	 6.962963e+00	 5.555556e+00	 1.013148e+01
0	 7.037037e+00	 5.185185e+00	 1.013872e+01
0	 7.037037e+00	 5.259259e+00	 1.013641e+01
0	 7.037037e+00	 5.333333e+00	 1.013406e+01
0	 7.037037e+00	 5.407407e+00	 1.013165e+01
0	 7.037037e+00	 5.481481e+00	 1.012919e+01
0	 7.037037e+00	 5.555556e+00	 1.012666e+01
0	 6.666667e+00	 5.555556e+00	 1.015045e+01
0	 6.666667e+00	 5.629630e+00	 1.014710e+01
0	 6.666667e+00	 5.703704e+00	 1.014373e+01
0	 6.666667e+00	 5.777778e+00	 1.014035e+01
0	 6.666667e+00	 5.851852e+00	 1.013693e+01
0	 6.666667e+00	 5.925926e+00	 1.013349e+01
0	 6.740741e+00	 5.555556e+00	 1.014577e+01
0	 6.740741e+00	 5.629630e+00	 1.014258e+01
0	 6.740741e+00	 5.703704e+00	 1.013937e+01
0	 6.740741e+00	 5.777778e+00	 1.013613e+01
0	 6.740741e+00	 5.851852e+00	 1.013287e+01
0	 6.740741e+00	 5.925926e+00	 1.012957e+01
0	 6.814815e+00	 5.555556e+00	 1.014104e+01
0	 6.814815e+00	 5.629630e+00	 1.013801e+01
0	 6.814815e+00	 5.703704e+00	 1.013495e+01
0	 6.814815e+00	 5.777778e+00	 1.013187e+01
0	 6.814815e+00	 5.851852e+00	 1.012875e+01
0	 6.814815e+00	 5.925926e+00	 1.012560e+01
0	 6.888889e+00	 5.555556e+00	 1.013627e+01
0	 6.888889e+00	 5.629630e+00	 1.013339e+01
0	 6.888889e+00	 5.703704e+00	 1.013049e+01
0	 6.888889e+00	 5.777778e+00	 1.012756e+01
0	 6.888889e+00	 5.851852e+00	 1.012459e+01
0	 6.888889e+00	 5.925926e+00	 1.012159e+01
0	 6.962963e+00	 5.555556e+00	 1.013148e+01
0	 6.962963e+00	 5.629630e+00	 1.012875e+01
0	 6.962963e+00	 5.703704e+00	 1.012600e+01
0	 6.962963e+00	 5.777778e+00	 1.012322e+01
0	 6.962963e+00	 5.851852e+00	 1.012040e+01
0	 6.962963e+00	 5.925926e+00	 1.011754e+01
0	 7.037037e+00	 5.555556e+00	 1.012666e+01
0	 7.037037e+00	 5.629630e+00	 1.012409e+01
0	 7.037037e+00	 5.703704e+00	 1.012149e+01
0	 7.037037e+00	 5.777778e+00	 1.011886e+01
0	 7.037037e+00	 5.851852e+00	 1.011618e+01
0	 7.037037e+00	 5.925926e+00	 1.011347e+01
0	 6.666667e+00	 5.925926e+00	 1.013349e+01
0	 6.666667e+00	 6.000000e+00	 1.013003e+01
0	 6.666667e+00	 6.074074e+00	 1.012657e+01
0	 6.666667e+00	 6.148148e+00	 1.012311e+01
0	 6.666667e+00	 6.222222e+00	 1.011965e+01
0	 6.666667e+00	 6.296296e+00	 1.011617e+01
0	 6.740741e+00	 5.925926e+00	 1.012957e+01
0	 6.740741e+00	 6.000000e+00	 1.012626e+01
0	 6.740741e+00	 6.074074e+00	 1.012294e+01
0	 6.740741e+00	 6.148148e+00	 1.011962e+01
0	 6.740741e+00	 6.222222e+00	 1.011630e+01
0	 6.740741e+00	 6.296296e+00	 1.011295e+01
0	 6.814815e+00	 5.925926e+00	 1.012560e+01
0	 6.814815e+00	 6.000000e+00	 1.012244e+01
0	 6.814815e+00	 6.074074e+00	 1.011926e+01
0	 6.814815e+00	 6.148148e+00	 1.011608e+01
0	 6.814815e+00	 6.222222e+00	 1.011289e+01
0	 6.814815e+00	 6.296296e+00	 1.010968e+01
0	 6.888889e+00	 5.925926e+00	 1.012159e+01
0	 6.888889e+00	 6.000000e+00	 1.011857e+01
0	 6.888889e+00	 6.074074e+00	 1.011553e+01
0	 6.888889e+00	 6.148148e+00	 1.011249e+01
0	 6.888889e+00	 6.222222e+00	 1.010943e+01
0	 6.888889e+00	 6.296296e+00	 1.010636e+01
0	 6.962963e+00	 5.925926e+00	 1.011754e+01
0	 6.962963e+00	 6.000000e+00	 1.011466e+01
0	 6.962963e+00	 6.074074e+00	 1.011177e+01
0	 6.962963e+00	 6.148148e+00	 1.010886e+01
0	 6.962963e+00	 6.222222e+00	 1.010594e+01
0	 6.962963e+00	 6.296296e+00	 1.010300e+01
0	 7.037037e+00	 5.925926e+00	 1.011347e+01
0	 7.037037e+00	 6.000000e+00	 1.011073e+01
0	 7.037037e+00	 6.074074e+00	 1.010798e+01
0	 7.037037e+00	 6.148148e+00	 1.010521e+01
0	 7.037037e+00	 6.222222e+00	 1.010242e+01
0	 7.037037e+00	 6.296296e+00	 1.009961e+01
0	 6.666667e+00	 6.296296e+00	 1.011617e+01
0	 6.666667e+00	 6.370370e+00	 1.011270e+01
0	 6.666667e+00	 6.444444e+00	 1.010925e+01
0	 6.666667e+00	 6.518519e+00	 1.010581e+01
0	 6.666667e+00	 6.592593e+00	 1.010238e+01
0	 6.666667e+00	 6.666667e+00	 1.009895e+01
0	 6.740741e+00	 6.296296e+00	 1.011295e+01
0	 6.740741e+00	 6.370370e+00	 1.010961e+01
0	 6.740741e+00	 6.444444e+00	 1.010629e+01
0	 6.740741e+00	 6.518519e+00	 1.010297e+01
0	 6.740741e+00	 6.592593e+00	 1.009966e+01
0	 6.740741e+00	 6.666667e+00	 1.009635e+01
0	 6.814815e+00	 6.296296e+00	 1.010968e+01
0	 6.814815e+00	 6.370370e+00	 1.010647e+01
0	 6.814815e+00	 6.444444e+00	 1.010327e+01
0	 6.814815e+00	 6.518519e+00	 1.010007e+01
0	 6.814815e+00	 6.592593e+00	 1.009689e+01
0	 6.814815e+00	 6.666667e+00	 1.009370e+01
0	 6.888889e+00	 6.296296e+00	 1.010636e+01
0	 6.888889e+00	 6.370370e+00	 1.010327e+01
0	 6.888889e+00	 6.444444e+00	 1.010020e+01
0	 6.888889e+00	 6.518519e+00	 1.009713e+01
0	 6.888889e+00	 6.592593e+00	 1.009407e+01
0	 6.888889e+00	 6.666667e+00	 1.009100e+01
0	 6.962963e+00	 6.296296e+00	 1.010300e+01
0	 6.962963e+00	 6.370370e+00	 1.010004e+01
0	 6.962963e+00	 6.444444e+00	 1.009710e+01
0	 6.962963e+00	 6.518519e+00	 1.009415e+01
0	 6.962963e+00	 6.592593e+00	 1.009121e+01
0	 6.962963e+00	 6.666667e+00	 1.008825e+01
0	 7.037037e+00	 6.296296e+00	 1.009961e+01
0	 7.037037e+00	 6.370370e+00	 1.009678e+01
0	 7.037037e+00	 6.444444e+00	 1.009396e+01
0	 7.037037e+00	 6.518519e+00	 1.009114e+01
0	 7.037037e+00	 6.592593e+00	 1.008832e+01
0	 7.037037e+00	 6.666667e+00	 1.008548e+01
0	 6.666667e+00	 6.666667e+00	 1.009895e+01
0	 6.666667e+00	 6.740741e+00	 1.009555e+01
0	 6.666667e+00	 6.814815e+00	 1.009217e+01
0	 6.666667e+00	 6.888889e+00	 1.008883e+01
0	 6.666667e+00	 6.962963e+00	 1.008550e+01
0	 6.666667e+00	 7.037037e+00	 1.008219e+01
0	 6.740741e+00	 6.666667e+00	 1.009635e+01
0	 6.740741e+00	 6.740741e+00	 1.009306e+01
0	 6.740741e+00	 6.814815e+00	 1.008980e+01
0	 6.740741e+00	 6.888889e+00	 1.008656e+01
0	 6.740741e+00	 6.962963e+00	 1.008334e+01
0	 6.740741e+00	 7.037037e+00	 1.008013e+01
0	 6.814815e+00	 6.666667e+00	 1.009370e+01
0	 6.814815e+00	 6.740741e+00	 1.009052e+01
0	 6.814815e+00	 6.814815e+00	 1.008737e+01
0	 6.814815e+00	 6.888889e+00	 1.008424e+01
0	 6.814815e+00	 6.962963e+00	 1.008112e+01
0	 6.814815e+00	 7.037037e+00	 1.007802e+01
0	 6.888889e+00	 6.666667e+00	 1.009100e+01
0	 6.888889e+00	 6.740741e+00	 1.008793e+01
0	 6.888889e+00	 6.814815e+00	 1.008489e+01
0	 6.888889e+00	 6.888889e+00	 1.008187e+01
0	 6.888889e+00	 6.962963e+00	 1.007887e+01
0	 6.888889e+00	 7.037037e+00	 1.007587e+01
0	 6.962963e+00	 6.666667e+00	 1.008825e+01
0	 6.962963e+00	 6.740741e+00	 1.008531e+01
0	 6.962963e+00	 6.814815e+00	 1.008238e+01
0	 6.962963e+00	 6.888889e+00	 1.007947e+01
0	 6.962963e+00	 6.962963e+00	 1.007657e+01
0	 6.962963e+00	 7.037037e+00	 1.007368e+01
0	 7.037037e+00	 6.666667e+00	 1.008548e+01
0	 7.037037e+00	 6.740741e+00	 1.008265e+01
0	 7.037037e+00	 6.814815e+00	 1.007984e+01
0	 7.037037e+00	 6.888889e+00	 1.007704e+01
0	 7.037037e+00	 6.962963e+00	 1.007425e+01
0	 7.037037e+00	 7.037037e+00	 1.007146e+01
0	 6.666667e+00	 7.037037e+00	 1.008219e+01
0	 6.666667e+00	 7.111111e+00	 1.007892e+01
0	 6.666667e+00	 7.185185e+00	 1.007569e+01
0	 6.666667e+00	 7.259259e+00	 1.007249e+01
0	 6.666667e+00	 7.333333e+00	 1.006933e+01
0	 6.666667e+00	 7.407407e+00	 1.006620e+01
0	 6.740741e+00	 7.037037e+00	 1.008013e+01
0	 6.740741e+00	 7.111111e+00	 1.007696e+01
0	 6.740741e+00	 7.185185e+00	 1.007382e+01
0	 6.740741e+00	 7.259259e+00	 1.007072e+01
0	 6.740741e+00	 7.333333e+00	 1.006765e+01
0	 6.740741e+00	 7.407407e+00	 1.006460e+01
0	 6.814815e+00	 7.037037e+00	 1.007802e+01
0	 6.814815e+00	 7.111111e+00	 1.007495e+01
0	 6.814815e+00	 7.185185e+00	 1.007191e+01
0	 6.814815e+00	 7.259259e+00	 1.006890e+01
0	 6.814815e+00	 7.333333e+00	 1.006592e+01
0	 6.814815e+00	 7.407407e+00	 1.006297e+01
0	 6.888889e+00	 7.037037e+00	 1.007587e+01
0	 6.888889e+00	 7.111111e+00	 1.007289e+01
0	 6.888889e+00	 7.185185e+00	 1.006995e+01
0	 6.888889e+00	 7.259259e+00	 1.006704e+01
0	 6.888889e+00	 7.333333e+00	 1.006415e+01
0	 6.888889e+00	 7.407407e+00	 1.006129e+01
0	 6.962963e+00	 7.037037e+00	 1.007368e+01
0	 6.962963e+00	 7.111111e+00	 1.007081e+01
0	 6.962963e+00	 7.185185e+00	 1.006796e+01
0	 6.962963e+00	 7.259259e+00	 1.006515e+01
0	 6.962963e+00	 7.333333e+00	 1.006236e+01
0	 6.962963e+00	 7.407407e+00	 1.005958e+01
0	 7.037037e+00	 7.037037e+00	 1.007146e+01
0	 7.037037e+00	 7.111111e+00	 1.006869e+01
0	 7.037037e+00	 7.185185e+00	 1.006595e+01
0	 7.037037e+00	 7.259259e+00	 1.006323e+01
0	 7.037037e+00	 7.333333e+00	 1.006053e+01
0	 7.037037e+00	 7.407407e+00	 1.005785e+01
0	 6.666667e+00	 7.407407e+00	 1.006620e+01
0	 6.666667e+00	 7.481481e+00	 1.006311e+01
0	 6.666667e+00	 7.555556e+00	 1.006007e+01
0	 6.666667e+00	 7.629630e+00	 1.005708e+01
0	 6.666667e+00	 7.703704e+00	 1.005413e+01
0	 6.666667e+00	 7.777778e+00	 1.005123e+01
0	 6.740741e+00	 7.407407e+00	 1.006460e+01
0	 6.740741e+00	 7.481481e+00	 1.006160e+01
0	 6.740741e+00	 7.555556e+00	 1.005864e+01
0	 6.740741e+00	 7.629630e+00	 1.005573e+01
0	 6.740741e+00	 7.703704e+00	 1.005286e+01
0	 6.740741e+00	 7.777778e+00	 1.005003e+01
0	 6.814815e+00	 7.407407e+00	 1.006297e+01
0	 6.814815e+00	 7.481481e+00	 1.006005e+01
0	 6.814815e+00	 7.555556e+00	 1.005718e+01
0	 6.814815e+00	 7.629630e+00	 1.005435e+01
0	 6.814815e+00	 7.703704e+00	 1.005156e+01
0	 6.814815e+00	 7.777778e+00	 1.004880e+01
0	 6.888889e+00	 7.407407e+00	 1.006129e+01
0	 6.888889e+00	 7.481481e+00	 1.005846e+01
0	 6.888889e+00	 7.555556e+00	 1.005567e+01
0	 6.888889e+00	 7.629630e+00	 1.005293e+01
0	 6.888889e+00	 7.703704e+00	 1.005022e+01
0	 6.888889e+00	 7.777778e+00	 1.004754e+01
0	 6.962963e+00	 7.407407e+00	 1.005958e+01
0	 6.962963e+00	 7.481481e+00	 1.005684e+01
0	 6.962963e+00	 7.555556e+00	 1.005414e+01
0	 6.962963e+00	 7.629630e+00	 1.005148e+01
0	 6.962963e+00	 7.703704e+00	 1.004885e+01
0	 6.962963e+00	 7.777778e+00	 1.004625e+01
0	 7.037037e+00	 7.407407e+00	 1.005785e+01
0	 7.037037e+00	 7.481481e+00	 1.005520e+01
0	 7.037037e+00	 7.555556e+00	 1.005259e+01
0	 7.037037e+00	 7.629630e+00	 1.005001e+01
0	 7.037037e+00	 7.703704e+00	 1.004746e+01
0	 7.037037e+00	 7.777778e+00	 1.004495e+01
0	 6.666667e+00	 7.777778e+00	 1.005123e+01
0	 6.666667e+00	 7.851852e+00	 1.004837e+01
0	 6.666667e+00	 7.925926e+00	 1.004558e+01
0	 6.666667e+00	 8.000000e+00	 1.004284e+01
0	 6.666667e+00	 8.074074e+00	 1.004016e+01
0	 6.666667e+00	 8.148148e+00	 1.003754e+01
0	 6.740741e+00	 7.777778e+00	 1.005003e+01
0	 6.740741e+00	 7.851852e+00	 1.004725e+01
0	 6.740741e+00	 7.925926e+00	 1.004453e+01
0	 6.740741e+00	 8.000000e+00	 1.004186e+01
0	 6.740741e+00	 8.074074e+00	 1.003925e+01
0	 6.740741e+00	 8.148148e+00	 1.003668e+01
0	 6.814815e+00	 7.777778e+00	 1.004880e+01
0	 6.814815e+00	 7.851852e+00	 1.004609e+01
0	 6.814815e+00	 7.925926e+00	 1.004344e+01
0	 6.814815e+00	 8.000000e+00	 1.004085e+01
0	 6.814815e+00	 8.074074e+00	 1.003830e+01
0	 6.814815e+00	 8.148148e+00	 1.003580e+01
0	 6.888889e+00	 7.777778e+00	 1.004754e+01
0	 6.888889e+00	 7.851852e+00	 1.004491e+01
0	 6.888889e+00	 7.925926e+00	 1.004233e+01
0	 6.888889e+00	 8.000000e+00	 1.003980e+01
0	 6.888889e+00	 8.074074e+00	 1.003732e+01
0	 6.888889e+00	 8.148148e+00	 1.003489e+01
0	 6.962963e+00	 7.777778e+00	 1.004625e+01
0	 6.962963e+00	 7.851852e+00	 1.004370e+01
0	 6.962963e+00	 7.925926e+00	 1.004120e+01
0	 6.962963e+00	 8.000000e+00	 1.003874e+01
0	 6.962963e+00	 8.074074e+00	 1.003633e+01
0	 6.962963e+00	 8.148148e+00	 1.003396e+01
0	 7.037037e+00	 7.777778e+00	 1.004495e+01
0	 7.037037e+00	 7.851852e+00	 1.004247e+01
0	 7.037037e+00	 7.925926e+00	 1.004004e+01
0	 7.037037e+00	 8.000000e+00	 1.003766e+01
0	 7.037037e+00	 8.074074e+00	 1.003532e+01
0	 7.037037e+00	 8.148148e+00	 1.003302e+01
0	 6.666667e+00	 8.148148e+00	 1.003754e+01
0	 6.666667e+00	 8.222222e+00	 1.003497e+01
0	 6.666667e+00	 8.296296e+00	 1.003248e+01
0	 6.666667e+00	 8.370370e+00	 1.003005e+01
0	 6.666667e+00	 8.444444e+00	 1.002770e+01
0	 6.666667e+00	 8.518519e+00	 1.002540e+01
0	 6.740741e+00	 8.148148e+00	 1.003668e+01
0	 6.740741e+00	 8.222222e+00	 1.003417e+01
0	 6.740741e+00	 8.296296e+00	 1.003174e+01
0	 6.740741e+00	 8.370370e+00	 1.002937e+01
0	 6.740741e+00	 8.444444e+00	 1.002707e+01
0	 6.740741e+00	 8.518519e+00	 1.002483e+01
0	 6.814815e+00	 8.148148e+00	 1.003580e+01
0	 6.814815e+00	 8.222222e+00	 1.003335e+01
0	 6.814815e+00	 8.296296e+00	 1.003098e+01
0	 6.814815e+00	 8.370370e+00	 1.002867e+01
0	 6.814815e+00	 8.444444e+00	 1.002643e+01
0	 6.814815e+00	 8.518519e+00	 1.002424e+01
0	 6.888889e+00	 8.148148e+00	 1.003489e+01
0	 6.888889e+00	 8.222222e+00	 1.003251e+01
0	 6.888889e+00	 8.296296e+00	 1.003020e+01
0	 6.888889e+00	 8.370370e+00	 1.002795e+01
0	 6.888889e+00	 8.444444e+00	 1.002576e+01
0	 6.888889e+00	 8.518519e+00	 1.002363e+01
0	 6.962963e+00	 8.148148e+00	 1.003396e+01
0	 6.962963e+00	 8.222222e+00	 1.003165e+01
0	 6.962963e+00	 8.296296e+00	 1.002940e+01
0	 6.962963e+00	 8.370370e+00	 1.002722e+01
0	 6.962963e+00	 8.444444e+00	 1.002509e+01
0	 6.962963e+00	 8.518519e+00	 1.002301e+01
0	 7.037037e+00	 8.148148e+00	 1.003302e+01
0	 7.037037e+00	 8.222222e+00	 1.003078e+01
0	 7.037037e+00	 8.296296e+00	 1.002859e+01
0	 7.037037e+00	 8.370370e+00	 1.002647e+01
0	 7.037037e+00	 8.444444e+00	 1.002440e+01
0	 7.037037e+00	 8.518519e+00	 1.002238e+01
0	 6.666667e+00	 8.518519e+00	 1.002540e+01
0	 6.666667e+00	 8.592593e+00	 1.002318e+01
0	 6.666667e+00	 8.666667e+00	 1.002105e+01
0	 6.666667e+00	 8.740741e+00	 1.001900e+01
0	 6.666667e+00	 8.814815e+00	 1.001703e+01
0	 6.666667e+00	 8.888889e+00	 1.001514e+01
0	 6.740741e+00	 8.518519e+00	 1.002483e+01
0	 6.740741e+00	 8.592593e+00	 1.002266e+01
0	 6.740741e+00	 8.666667e+00	 1.002058e+01
0	 6.740741e+00	 8.740741e+00	 1.001857e+01
0	 6.740741e+00	 8.814815e+00	 1.001665e+01
0	 6.740741e+00	 8.888889e+00	 1.001480e+01
0	 6.814815e+00	 8.518519e+00	 1.002424e+01
0	 6.814815e+00	 8.592593e+00	 1.002212e+01
0	 6.814815e+00	 8.666667e+00	 1.002009e+01
0	 6.814815e+00	 8.740741e+00	 1.001813e+01
0	 6.814815e+00	 8.814815e+00	 1.001625e+01
0	 6.814815e+00	 8.888889e+00	 1.001445e+01
0	 6.888889e+00	 8.518519e+00	 1.002363e+01
0	 6.888889e+00	 8.592593e+00	 1.002156e+01
0	 6.888889e+00	 8.666667e+00	 1.001958e+01
0	 6.888889e+00	 8.740741e+00	 1.001768e+01
0	 6.888889e+00	 8.814815e+00	 1.001585e+01
0	 6.888889e+00	 8.888889e+00	 1.001408e+01
0	 6.962963e+00	 8.518519e+00	 1.002301e+01
0	 6.962963e+00	 8.592593e+00	 1.002100e+01
0	 6.962963e+00	 8.666667e+00	 1.001907e+01
0	 6.962963e+00	 8.740741e+00	 1.001721e+01
0	 6.962963e+00	 8.814815e+00	 1.001543e+01
0	 6.962963e+00	 8.888889e+00	 1.001371e+01
0	 7.037037e+00	 8.518519e+00	 1.002238e+01
0	 7.037037e+00	 8.592593e+00	 1.002042e+01
0	 7.037037e+00	 8.666667e+00	 1.001855e+01
0	 7.037037e+00	 8.740741e+00	 1.001674e+01
0	 7.037037e+00	 8.814815e+00	 1.001501e+01
0	 7.037037e+00	 8.888889e+00	 1.001334e+01
0	 6.666667e+00	 8.888889e+00	 1.001514e+01
0	 6.666667e+00	 8.962963e+00	 1.001334e+01
0	 6.666667e+00	 9.037037e+00	 1.001164e+01
0	 6.666667e+00	 9.111111e+00	 1.001005e+01
0	 6.666667e+00	 9.185185e+00	 1.000855e+01
0	 6.666667e+00	 9.259259e+00	 1.000715e+01
0	 6.740741e+00	 8.888889e+00	 1.001480e+01
0	 6.740741e+00	 8.962963e+00	 1.001304e+01
0	 6.740741e+00	 9.037037e+00	 1.001138e+01
0	 6.740741e+00	 9.111111e+00	 1.000982e+01
0	 6.740741e+00	 9.185185e+00	 1.000836e+01
0	 6.740741e+00	 9.259259e+00	 1.000698e+01
0	 6.814815e+00	 8.888889e+00	 1.001445e+01
0	 6.814815e+00	 8.962963e+00	 1.001273e+01
0	 6.814815e+00	 9.037037e+00	 1.001111e+01
0	 6.814815e+00	 9.111111e+00	 1.000959e+01
0	 6.814815e+00	 9.185185e+00	 1.000816e+01
0	 6.814815e+00	 9.259259e+00	 1.000681e+01
0	 6.888889e+00	 8.888889e+00	 1.001408e+01
0	 6.888889e+00	 8.962963e+00	 1.001241e+01
0	 6.888889e+00	 9.037037e+00	 1.001083e+01
0	 6.888889e+00	 9.111111e+00	 1.000934e+01
0	 6.888889e+00	 9.185185e+00	 1.000795e+01
0	 6.888889e+00	 9.259259e+00	 1.000664e+01
0	 6.962963e+00	 8.888889e+00	 1.001371e+01
0	 6.962963e+00	 8.962963e+00	 1.001208e+01
0	 6.962963e+00	 9.037037e+00	 1.001054e+01
0	 6.962963e+00	 9.111111e+00	 1.000910e+01
0	 6.962963e+00	 9.185185e+00	 1.000774e+01
0	 6.962963e+00	 9.259259e+00	 1.000646e+01
0	 7.037037e+00	 8.888889e+00	 1.001334e+01
0	 7.037037e+00	 8.962963e+00	 1.001175e+01
0	 7.037037e+00	 9.037037e+00	 1.001025e+01
0	 7.037037e+00	 9.111111e+00	 1.000885e+01
0	 7.037037e+00	 9.185185e+00	 1.000753e+01
0	 7.037037e+00	 9.259259e+00	 1.000629e+01
0	 6.666667e+00	 9.259259e+00	 1.000715e+01
0	 6.666667e+00	 9.333333e+00	 1.000585e+01
0	 6.666667e+00	 9.407407e+00	 1.000468e+01
0	 6.666667e+00	 9.481481e+00	 1.000364e+01
0	 6.666667e+00	 9.555556e+00	 1.000272e+01
0	 6.666667e+00	 9.629630e+00	 1.000190e+01
0	 6.740741e+00	 9.259259e+00	 1.000698e+01
0	 6.740741e+00	 9.333333e+00	 1.000572e+01
0	 6.740741e+00	 9.407407e+00	 1.000458e+01
0	 6.740741e+00	 9.481481e+00	 1.000356e+01
0	 6.740741e+00	 9.555556e+00	 1.000265e+01
0	 6.740741e+00	 9.629630e+00	 1.000186e+01
0	 6.814815e+00	 9.259259e+00	 1.000681e+01
0	 6.814815e+00	 9.333333e+00	 1.000558e+01
0	 6.814815e+00	 9.407407e+00	 1.000446e+01
0	 6.814815e+00	 9.481481e+00	 1.000347e+01
0	 6.814815e+00	 9.555556e+00	 1.000259e+01
0	 6.814815e+00	 9.629630e+00	 1.000181e+01
0	 6.888889e+00	 9.259259e+00	 1.000664e+01
0	 6.888889e+00	 9.333333e+00	 1.000543e+01
0	 6.888889e+00	 9.407407e+00	 1.000435e+01
0	 6.888889e+00	 9.481481e+00	 1.000338e+01
0	 6.888889e+00	 9.555556e+00	 1.000252e+01
0	 6.888889e+00	 9.629630e+00	 1.000176e+01
0	 6.962963e+00	 9.259259e+00	 1.000646e+01
0	 6.962963e+00	 9.333333e+00	 1.000529e+01
0	 6.962963e+00	 9.407407e+00	 1.000423e+01
0	 6.962963e+00	 9.481481e+00	 1.000329e+01
0	 6.962963e+00	 9.555556e+00	 1.000245e+01
0	 6.962963e+00	 9.629630e+00	 1.000172e+01
0	 7.037037e+00	 9.259259e+00	 1.000629e+01
0	 7.037037e+00	 9.333333e+00	 1.000514e+01
0	 7.037037e+00	 9.407407e+00	 1.000412e+01
0	 7.037037e+00	 9.481481e+00	 1.000320e+01
0	 7.037037e+00	 9.555556e+00	 1.000238e+01
0	 7.037037e+00	 9.629630e+00	 1.000167e+01
0	 6.666667e+00	 9.629630e+00	 1.000190e+01
0	 6.666667e+00	 9.703704e+00	 1.000122e+01
0	 6.666667e+00	 9.777778e+00	 1.000070e+01
0	 6.666667e+00	 9.851852e+00	 1.000032e+01
0	 6.666667e+00	 9.925926e+00	 1.000009e+01
0	 6.666667e+00	 1.000000e+01	 9.999984e+00
0	 6.740741e+00	 9.629630e+00	 1.000186e+01
0	 6.740741e+00	 9.703704e+00	 1.000120e+01
0	 6.740741e+00	 9.777778e+00	 1.000068e+01
0	 6.740741e+00	 9.851852e+00	 1.000032e+01
0	 6.740741e+00	 9.925926e+00	 1.000009e+01
0	 6.740741e+00	 1.000000e+01	 9.999986e+00
0	 6.814815e+00	 9.629630e+00	 1.000181e+01
0	 6.814815e+00	 9.703704e+00	 1.000116e+01
0	 6.814815e+00	 9.777778e+00	 1.000067e+01
0	 6.814815e+00	 9.851852e+00	 1.000031e+01
0	 6.814815e+00	 9.925926e+00	 1.000008e+01
0	 6.814815e+00	 1.000000e+01	 9.999986e+00
0	 6.888889e+00	 9.629630e+00	 1.000176e+01
0	 6.888889e+00	 9.703704e+00	 1.000113e+01
0	 6.888889e+00	 9.777778e+00	 1.000065e+01
0	 6.888889e+00	 9.851852e+00	 1.000030e+01
0	 6.888889e+00	 9.925926e+00	 1.000008e+01
0	 6.888889e+00	 1.000000e+01	 9.999984e+00
0	 6.962963e+00	 9.629630e+00	 1.000172e+01
0	 6.962963e+00	 9.703704e+00	 1.000110e+01
0	 6.962963e+00	 9.777778e+00	 1.000063e+01
0	 6.962963e+00	 9.851852e+00	 1.000029e+01
0	 6.962963e+00	 9.925926e+00	 1.000007e+01
0	 6.962963e+00	 1.000000e+01	 9.999984e+00
0	 7.037037e+00	 9.629630e+00	 1.000167e+01
0	 7.037037e+00	 9.703704e+00	 1.000107e+01
0	 7.037037e+00	 9.777778e+00	 1.000061e+01
0	 7.037037e+00	 9.851852e+00	 1.000028e+01
0	 7.037037e+00	 9.925926e+00	 1.000007e+01
0	 7.037037e+00	 1.000000e+01	 9.999987e+00
0	 7.037037e+00	 0.000000e+00	 1.008098e+01
0	 7.037037e+00	 7.407407e-02	 1.008108e+01
0	 7.037037e+00	 1.481481e-01	 1.008137e+01
0	 7.037037e+00	 2.222222e-01	 1.008184e+01
0	 7.037037e+00	 2.962963e-01	 1.008250e+01
0	 7.037037e+00	 3.703704e-01	 1.008336e+01
0	 7.111111e+00	 0.000000e+00	 1.007286e+01
0	 7.111111e+00	 7.407407e-02	 1.007297e+01
0	 7.111111e+00	 1.481481e-01	 1.007324e+01
0	 7.111111e+00	 2.222222e-01	 1.007370e+01
0	 7.111111e+00	 2.962963e-01	 1.007434e+01
0	 7.111111e+00	 3.703704e-01	 1.007517e+01
0	 7.185185e+00	 0.000000e+00	 1.006473e+01
0	 7.185185e+00	 7.407407e-02	 1.006483e+01
0	 7.185185e+00	 1.481481e-01	 1.006510e+01
0	 7.185185e+00	 2.222222e-01	 1.006554e+01
0	 7.185185e+00	 2.962963e-01	 1.006616e+01
0	 7.185185e+00	 3.703704e-01	 1.006696e+01
0	 7.259259e+00	 0.000000e+00	 1.005657e+01
0	 7.259259e+00	 7.407407e-02	 1.005666e+01
0	 7.259259e+00	 1.481481e-01	 1.005692e+01
0	 7.259259e+00	 2.222222e-01	 1.005735e+01
0	 7.259259e+00	 2.962963e-01	 1.005795e+01
0	 7.259259e+00	 3.703704e-01	 1.005872e+01
0	 7.333333e+00	 0.000000e+00	 1.004838e+01
0	 7.333333e+00	 7.407407e-02	 1.004846e+01
0	 7.333333e+00	 1.481481e-01	 1.004871e+01
0	 7.333333e+00	 2.222222e-01	 1.004912e+01
0	 7.333333e+00	 2.962963e-01	 1.004970e+01
0	 7.333333e+00	 3.703704e-01	 1.005045e+01
0	 7.407407e+00	 0.000000e+00	 1.004014e+01
0	 7.407407e+00	 7.407407e-02	 1.004022e+01
0	 7.407407e+00	 1.481481e-01	 1.004046e+01
0	 7.407407e+00	 2.222222e-01	 1.004086e+01
0	 7.407407e+00	 2.962963e-01	 1.004142e+01
0	 7.407407e+00	 3.703704e-01	 1.004215e+01
0	 7.037037e+00	 3.703704e-01	 1.008336e+01
0	 7.037037e+00	 4.444444e-01	 1.008439e+01
0	 7.037037e+00	 5.185185e-01	 1.008557e+01
0	 7.037037e+00	 5.925926e-01	 1.008692e+01
0	 7.037037e+00	 6.666667e-01	 1.008843e+01
0	 7.037037e+00	 7.407407e-01	 1.009013e+01
0	 7.111111e+00	 3.703704e-01	 1.007517e+01
0	 7.111111e+00	 4.444444e-01	 1.007616e+01
0	 7.111111e+00	 5.185185e-01	 1.007730e+01
0	 7.111111e+00	 5.925926e-01	 1.007861e+01
0	 7.111111e+00	 6.666667e-01	 1.008007e+01
0	 7.111111e+00	 7.407407e-01	 1.008171e+01
0	 7.185185e+00	 3.703704e-01	 1.006696e+01
0	 7.185185e+00	 4.444444e-01	 1.006792e+01
0	 7.185185e+00	 5.185185e-01	 1.006903e+01
0	 7.185185e+00	 5.925926e-01	 1.007029e+01
0	 7.185185e+00	 6.666667e-01	 1.007171e+01
0	 7.185185e+00	 7.407407e-01	 1.007330e+01
0	 7.259259e+00	 3.703704e-01	 1.005872e+01
0	 7.259259e+00	 4.444444e-01	 1.005965e+01
0	 7.259259e+00	 5.185185e-01	 1.006073e+01
0	 7.259259e+00	 5.925926e-01	 1.006195e+01
0	 7.259259e+00	 6.666667e-01	 1.006333e+01
0	 7.259259e+00	 7.407407e-01	 1.006487e+01
0	 7.333333e+00	 3.703704e-01	 1.005045e+01
0	 7.333333e+00	 4.444444e-01	 1.005136e+01
0	 7.333333e+00	 5.185185e-01	 1.005240e+01
0	 7.333333e+00	 5.925926e-01	 1.005359e+01
0	 7.333333e+00	 6.666667e-01	 1.005493e+01
0	 7.333333e+00	 7.407407e-01	 1.005643e+01
0	 7.407407e+00	 3.703704e-01	 1.004215e+01
0	 7.407407e+00	 4.444444e-01	 1.004303e+01
0	 7.407407e+00	 5.185185e-01	 1.004405e+01
0	 7.407407e+00	 5.925926e-01	 1.004520e+01
0	 7.407407e+00	 6.666667e-01	 1.004651e+01
0	 7.407407e+00	 7.407407e-01	 1.004796e+01
0	 7.037037e+00	 7.407407e-01	 1.009013e+01
0	 7.037037e+00	 8.148148e-01	 1.009196e+01
0	 7.037037e+00	 8.888889e-01	 1.009390e+01
0	 7.037037e+00	 9.629630e-01	 1.009596e+01
0	 7.037037e+00	 1.037037e+00	 1.009814e+01
0	 7.037037e+00	 1.111111e+00	 1.010047e+01
0	 7.111111e+00	 7.407407e-01	 1.008171e+01
0	 7.111111e+00	 8.148148e-01	 1.008349e+01
0	 7.111111e+00	 8.888889e-01	 1.008537e+01
0	 7.111111e+00	 9.629630e-01	 1.008736e+01
0	 7.111111e+00	 1.037037e+00	 1.008948e+01
0	 7.111111e+00	 1.111111e+00	 1.009173e+01
0	 7.185185e+00	 7.407407e-01	 1.007330e+01
0	 7.185185e+00	 8.148148e-01	 1.007502e+01
0	 7.185185e+00	 8.888889e-01	 1.007684e+01
0	 7.185185e+00	 9.629630e-01	 1.007878e+01
0	 7.185185e+00	 1.037037e+00	 1.008083e+01
0	 7.185185e+00	 1.111111e+00	 1.008302e+01
0	 7.259259e+00	 7.407407e-01	 1.006487e+01
0	 7.259259e+00	 8.148148e-01	 1.006654e+01
0	 7.259259e+00	 8.888889e-01	 1.006831e+01
0	 7.259259e+00	 9.629630e-01	 1.007020e+01
0	 7.259259e+00	 1.037037e+00	 1.007220e+01
0	 7.259259e+00	 1.111111e+00	 1.007432e+01
0	 7.333333e+00	 7.407407e-01	 1.005643e+01
0	 7.333333e+00	 8.148148e-01	 1.005805e+01
0	 7.333333e+00	 8.888889e-01	 1.005978e+01
0	 7.333333e+00	 9.629630e-01	 1.006161e+01
0	 7.333333e+00	 1.037037e+00	 1.006356e+01
0	 7.333333e+00	 1.111111e+00	 1.006563e+01
0	 7.407407e+00	 7.407407e-01	 1.004796e+01
0	 7.407407e+00	 8.148148e-01	 1.004955e+01
0	 7.407407e+00	 8.888889e-01	 1.005123e+01
0	 7.407407e+00	 9.629630e-01	 1.005301e+01
0	 7.407407e+00	 1.037037e+00	 1.005492e+01
0	 7.407407e+00	 1.111111e+00	 1.005694e+01
0	 7.037037e+00	 1.111111e+00	 1.010047e+01
0	 7.037037e+00	 1.185185e+00	 1.010288e+01
0	 7.037037e+00	 1.259259e+00	 1.010534e+01
0	 7.037037e+00	 1.333333e+00	 1.010785e+01
0	 7.037037e+00	 1.407407e+00	 1.011044e+01
0	 7.037037e+00	 1.481481e+00	 1.011311e+01
0	 7.111111e+00	 1.111111e+00	 1.009173e+01
0	 7.111111e+00	 1.185185e+00	 1.009407e+01
0	 7.111111e+00	 1.259259e+00	 1.009646e+01
0	 7.111111e+00	 1.333333e+00	 1.009891e+01
0	 7.111111e+00	 1.407407e+00	 1.010143e+01
0	 7.111111e+00	 1.481481e+00	 1.010403e+01
0	 7.185185e+00	 1.111111e+00	 1.008302e+01
0	 7.185185e+00	 1.185185e+00	 1.008530e+01
0	 7.185185e+00	 1.259259e+00	 1.008762e+01
0	 7.185185e+00	 1.333333e+00	 1.009001e+01
0	 7.185185e+00	 1.407407e+00	 1.009246e+01
0	 7.185185e+00	 1.481481e+00	 1.009500e+01
0	 7.259259e+00	 1.111111e+00	 1.007432e+01
0	 7.259259e+00	 1.185185e+00	 1.007654e+01
0	 7.259259e+00	 1.259259e+00	 1.007881e+01
0	 7.259259e+00	 1.333333e+00	 1.008114e+01
0	 7.259259e+00	 1.407407e+00	 1.008354e+01
0	 7.259259e+00	 1.481481e+00	 1.008602e+01
0	 7.333333e+00	 1.111111e+00	 1.006563e+01
0	 7.333333e+00	 1.185185e+00	 1.006780e+01
0	 7.333333e+00	 1.259259e+00	 1.007001e+01
0	 7.333333e+00	 1.333333e+00	 1.007229e+01
0	 7.333333e+00	 1.407407e+00	 1.007463e+01
0	 7.333333e+00	 1.481481e+00	 1.007706e+01
0	 7.407407e+00	 1.111111e+00	 1.005694e+01
0	 7.407407e+00	 1.185185e+00	 1.005905e+01
0	 7.407407e+00	 1.259259e+00	 1.006122e+01
0	 7.407407e+00	 1.333333e+00	 1.006344e+01
0	 7.407407e+00	 1.407407e+00	 1.006574e+01
0	 7.407407e+00	 1.481481e+00	 1.006812e+01
0	 7.037037e+00	 1.481481e+00	 1.011311e+01
0	 7.037037e+00	 1.555556e+00	 1.011582e+01
0	 7.037037e+00	 1.629630e+00	 1.011851e+01
0	 7.037037e+00	 1.703704e+00	 1.012119e+01
0	 7.037037e+00	 1.777778e+00	 1.012389e+01
0	 7.037037e+00	 1.851852e+00	 1.012661e+01
0	 7.111111e+00	 1.481481e+00	 1.010403e+01
0	 7.111111e+00	 1.555556e+00	 1.010667e+01
0	 7.111111e+00	 1.629630e+00	 1.010930e+01
0	 7.111111e+00	 1.703704e+00	 1.011193e+01
0	 7.111111e+00	 1.777778e+00	 1.011457e+01
0	 7.111111e+00	 1.851852e+00	 1.011724e+01
0	 7.185185e+00	 1.481481e+00	 1.009500e+01
0	 7.185185e+00	 1.555556e+00	 1.009758e+01
0	 7.185185e+00	 1.629630e+00	 1.010015e+01
0	 7.185185e+00	 1.703704e+00	 1.010273e+01
0	 7.185185e+00	 1.777778e+00	 1.010532e+01
0	 7.185185e+00	 1.851852e+00	 1.010794e+01
0	 7.259259e+00	 1.481481e+00	 1.008602e+01
0	 7.259259e+00	 1.555556e+00	 1.008854e+01
0	 7.259259e+00	 1.629630e+00	 1.009106e+01
0	 7.259259e+00	 1.703704e+00	 1.009358e+01
0	 7.259259e+00	 1.777778e+00	 1.009613e+01
0	 7.259259e+00	 1.851852e+00	 1.009871e+01
0	 7.333333e+00	 1.481481e+00	 1.007706e+01
0	 7.333333e+00	 1.555556e+00	 1.007953e+01
0	 7.333333e+00	 1.629630e+00	 1.008200e+01
0	 7.333333e+00	 1.703704e+00	 1.008448e+01
0	 7.333333e+00	 1.777778e+00	 1.008699e+01
0	 7.333333e+00	 1.851852e+00	 1.008953e+01
0	 7.407407e+00	 1.481481e+00	 1.006812e+01
0	 7.407407e+00	 1.555556e+00	 1.007055e+01
0	 7.407407e+00	 1.629630e+00	 1.007297e+01
0	 7.407407e+00	 1.703704e+00	 1.007542e+01
0	 7.407407e+00	 1.777778e+00	 1.007788e+01
0	 7.407407e+00	 1.851852e+00	 1.008038e+01
0	 7.037037e+00	 1.851852e+00	 1.012661e+01
0	 7.037037e+00	 1.925926e+00	 1.012931e+01
0	 7.037037e+00	 2.000000e+00	 1.013194e+01
0	 7.037037e+00	 2.074074e+00	 1.013451e+01
0	 7.037037e+00	 2.148148e+00	 1.013703e+01
0	 7.037037e+00	 2.222222e+00	 1.013952e+01
0	 7.111111e+00	 1.851852e+00	 1.011724e+01
0	 7.111111e+00	 1.925926e+00	 1.011989e+01
0	 7.111111e+00	 2.000000e+00	 1.012248e+01
0	 7.111111e+00	 2.074074e+00	 1.012501e+01
0	 7.111111e+00	 2.148148e+00	 1.012750e+01
0	 7.111111e+00	 2.222222e+00	 1.012996e+01
0	 7.185185e+00	 1.851852e+00	 1.010794e+01
0	 7.185185e+00	 1.925926e+00	 1.011055e+01
0	 7.185185e+00	 2.000000e+00	 1.011310e+01
0	 7.185185e+00	 2.074074e+00	 1.011560e+01
0	 7.185185e+00	 2.148148e+00	 1.011806e+01
0	 7.185185e+00	 2.222222e+00	 1.012050e+01
0	 7.259259e+00	 1.851852e+00	 1.009871e+01
0	 7.259259e+00	 1.925926e+00	 1.010127e+01
0	 7.259259e+00	 2.000000e+00	 1.010379e+01
0	 7.259259e+00	 2.074074e+00	 1.010626e+01
0	 7.259259e+00	 2.148148e+00	 1.010871e+01
0	 7.259259e+00	 2.222222e+00	 1.011113e+01
0	 7.333333e+00	 1.851852e+00	 1.008953e+01
0	 7.333333e+00	 1.925926e+00	 1.009205e+01
0	 7.333333e+00	 2.000000e+00	 1.009454e+01
0	 7.333333e+00	 2.074074e+00	 1.009699e+01
0	 7.333333e+00	 2.148148e+00	 1.009941e+01
0	 7.333333e+00	 2.222222e+00	 1.010182e+01
0	 7.407407e+00	 1.851852e+00	 1.008038e+01
0	 7.407407e+00	 1.925926e+00	 1.008288e+01
0	 7.407407e+00	 2.000000e+00	 1.008534e+01
0	 7.407407e+00	 2.074074e+00	 1.008777e+01
0	 7.407407e+00	 2.148148e+00	 1.009018e+01
0	 7.407407e+00	 2.222222e+00	 1.009257e+01
0	 7.037037e+00	 2.222222e+00	 1.013952e+01
0	 7.037037e+00	 2.296296e+00	 1.014193e+01
0	 7.037037e+00	 2.370370e+00	 1.014423e+01
0	 7.037037e+00	 2.444444e+00	 1.014643e+01
0	 7.037037e+00	 2.518519e+00	 1.014854e+01
0	 7.037037e+00	 2.592593e+00	 1.015056e+01
0	 7.111111e+00	 2.222222e+00	 1.012996e+01
0	 7.111111e+00	 2.296296e+00	 1.013236e+01
0	 7.111111e+00	 2.370370e+00	 1.013465e+01
0	 7.111111e+00	 2.444444e+00	 1.013685e+01
0	 7.111111e+00	 2.518519e+00	 1.013896e+01
0	 7.111111e+00	 2.592593e+00	 1.014100e+01
0	 7.185185e+00	 2.222222e+00	 1.012050e+01
0	 7.185185e+00	 2.296296e+00	 1.012288e+01
0	 7.185185e+00	 2.370370e+00	 1.012517e+01
0	 7.185185e+00	 2.444444e+00	 1.012737e+01
0	 7.185185e+00	 2.518519e+00	 1.012948e+01
0	 7.185185e+00	 2.592593e+00	 1.013153e+01
0	 7.259259e+00	 2.222222e+00	 1.011113e+01
0	 7.259259e+00	 2.296296e+00	 1.011349e+01
0	 7.259259e+00	 2.370370e+00	 1.011577e+01
0	 7.259259e+00	 2.444444e+00	 1.011797e+01
0	 7.259259e+00	 2.518519e+00	 1.012010e+01
0	 7.259259e+00	 2.592593e+00	 1.012216e+01
0	 7.333333e+00	 2.222222e+00	 1.010182e+01
0	 7.333333e+00	 2.296296e+00	 1.010418e+01
0	 7.333333e+00	 2.370370e+00	 1.010645e+01
0	 7.333333e+00	 2.444444e+00	 1.010865e+01
0	 7.333333e+00	 2.518519e+00	 1.011079e+01
0	 7.333333e+00	 2.592593e+00	 1.011286e+01
0	 7.407407e+00	 2.222222e+00	 1.009257e+01
0	 7.407407e+00	 2.296296e+00	 1.009492e+01
0	 7.407407e+00	 2.370370e+00	 1.009720e+01
0	 7.407407e+00	 2.444444e+00	 1.009940e+01
0	 7.407407e+00	 2.518519e+00	 1.010155e+01
0	 7.407407e+00	 2.592593e+00	 1.010364e+01
0	 7.037037e+00	 2.592593e+00	 1.015056e+01
0	 7.037037e+00	 2.666667e+00	 1.015248e+01
0	 7.037037e+00	 2.740741e+00	 1.015425e+01
0	 7.037037e+00	 2.814815e+00	 1.015590e+01
0	 7.037037e+00	 2.888889e+00	 1.015742e+01
0	 7.037037e+00	 2.962963e+00	 1.015882e+01
0	 7.111111e+00	 2.592593e+00	 1.014100e+01
0	 7.111111e+00	 2.666667e+00	 1.014293e+01
0	 7.111111e+00	 2.740741e+00	 1.014473e+01
0	 7.111111e+00	 2.814815e+00	 1.014641e+01
0	 7.111111e+00	 2.888889e+00	 1.014797e+01
0	 7.111111e+00	 2.962963e+00	 1.014942e+01
0	 7.185185e+00	 2.592593e+00	 1.013153e+01
0	 7.185185e+00	 2.666667e+00	 1.013348e+01
0	 7.185185e+00	 2.740741e+00	 1.013531e+01
0	 7.185185e+00	 2.814815e+00	 1.013702e+01
0	 7.185185e+00	 2.888889e+00	 1.013863e+01
0	 7.185185e+00	 2.962963e+00	 1.014012e+01
0	 7.259259e+00	 2.592593e+00	 1.012216e+01
0	 7.259259e+00	 2.666667e+00	 1.012413e+01
0	 7.259259e+00	 2.740741e+00	 1.012598e+01
0	 7.259259e+00	 2.814815e+00	 1.012773e+01
0	 7.259259e+00	 2.888889e+00	 1.012937e+01
0	 7.259259e+00	 2.962963e+00	 1.013091e+01
0	 7.333333e+00	 2.592593e+00	 1.011286e+01
0	 7.333333e+00	 2.666667e+00	 1.011485e+01
0	 7.333333e+00	 2.740741e+00	 1.011674e+01
0	 7.333333e+00	 2.814815e+00	 1.011852e+01
0	 7.333333e+00	 2.888889e+00	 1.012020e+01
0	 7.333333e+00	 2.962963e+00	 1.012179e+01
0	 7.407407e+00	 2.592593e+00	 1.010364e+01
0	 7.407407e+00	 2.666667e+00	 1.010565e+01
0	 7.407407e+00	 2.740741e+00	 1.010756e+01
0	 7.407407e+00	 2.814815e+00	 1.010938e+01
0	 7.407407e+00	 2.888889e+00	 1.011110e+01
0	 7.407407e+00	 2.962963e+00	 1.011274e+01
0	 7.037037e+00	 2.962963e+00	 1.015882e+01
0	 7.037037e+00	 3.037037e+00	 1.016008e+01
0	 7.037037e+00	 3.111111e+00	 1.016120e+01
0	 7.037037e+00	 3.185185e+00	 1.016217e+01
0	 7.037037e+00	 3.259259e+00	 1.016300e+01
0	 7.037037e+00	 3.333333e+00	 1.016369e+01
0	 7.111111e+00	 2.962963e+00	 1.014942e+01
0	 7.111111e+00	 3.037037e+00	 1.015074e+01
0	 7.111111e+00	 3.111111e+00	 1.015192e+01
0	 7.111111e+00	 3.185185e+00	 1.015296e+01
0	 7.111111e+00	 3.259259e+00	 1.015387e+01
0	 7.111111e+00	 3.333333e+00	 1.015464e+01
0	 7.185185e+00	 2.962963e+00	 1.014012e+01
0	 7.185185e+00	 3.037037e+00	 1.014150e+01
0	 7.185185e+00	 3.111111e+00	 1.014274e+01
0	 7.185185e+00	 3.185185e+00	 1.014385e+01
0	 7.185185e+00	 3.259259e+00	 1.014483e+01
0	 7.185185e+00	 3.333333e+00	 1.014569e+01
0	 7.259259e+00	 2.962963e+00	 1.013091e+01
0	 7.259259e+00	 3.037037e+00	 1.013235e+01
0	 7.259259e+00	 3.111111e+00	 1.013365e+01
0	 7.259259e+00	 3.185185e+00	 1.013483e+01
0	 7.259259e+00	 3.259259e+00	 1.013588e+01
0	 7.259259e+00	 3.333333e+00	 1.013682e+01
0	 7.333333e+00	 2.962963e+00	 1.012179e+01
0	 7.333333e+00	 3.037037e+00	 1.012328e+01
0	 7.333333e+00	 3.111111e+00	 1.012464e+01
0	 7.333333e+00	 3.185185e+00	 1.012588e+01
0	 7.333333e+00	 3.259259e+00	 1.012701e+01
0	 7.333333e+00	 3.333333e+00	 1.012803e+01
0	 7.407407e+00	 2.962963e+00	 1.011274e+01
0	 7.407407e+00	 3.037037e+00	 1.011428e+01
0	 7.407407e+00	 3.111111e+00	 1.011571e+01
0	 7.407407e+00	 3.185185e+00	 1.011702e+01
0	 7.407407e+00	 3.259259e+00	 1.011822e+01
0	 7.407407e+00	 3.333333e+00	 1.011931e+01
0	 7.037037e+00	 3.333333e+00	 1.016369e+01
0	 7.037037e+00	 3.407407e+00	 1.016424e+01
0	 7.037037e+00	 3.481481e+00	 1.016464e+01
0	 7.037037e+00	 3.555556e+00	 1.016489e+01
0	 7.037037e+00	 3.629630e+00	 1.016500e+01
0	 7.037037e+00	 3.703704e+00	 1.016497e+01
0	 7.111111e+00	 3.333333e+00	 1.015464e+01
0	 7.111111e+00	 3.407407e+00	 1.015528e+01
0	 7.111111e+00	 3.481481e+00	 1.015578e+01
0	 7.111111e+00	 3.555556e+00	 1.015614e+01
0	 7.111111e+00	 3.629630e+00	 1.015636e+01
0	 7.111111e+00	 3.703704e+00	 1.015644e+01
0	 7.185185e+00	 3.333333e+00	 1.014569e+01
0	 7.185185e+00	 3.407407e+00	 1.014642e+01
0	 7.185185e+00	 3.481481e+00	 1.014701e+01
0	 7.185185e+00	 3.555556e+00	 1.014747e+01
0	 7.185185e+00	 3.629630e+00	 1.014779e+01
0	 7.185185e+00	 3.703704e+00	 1.014798e+01
0	 7.259259e+00	 3.333333e+00	 1.013682e+01
0	 7.259259e+00	 3.407407e+00	 1.013763e+01
0	 7.259259e+00	 3.481481e+00	 1.013832e+01
0	 7.259259e+00	 3.555556e+00	 1.013887e+01
0	 7.259259e+00	 3.629630e+00	 1.013930e+01
0	 7.259259e+00	 3.703704e+00	 1.013959e+01
0	 7.333333e+00	 3.333333e+00	 1.012803e+01
0	 7.333333e+00	 3.407407e+00	 1.012893e+01
0	 7.333333e+00	 3.481481e+00	 1.012970e+01
0	 7.333333e+00	 3.555556e+00	 1.013035e+01
0	 7.333333e+00	 3.629630e+00	 1.013087e+01
0	 7.333333e+00	 3.703704e+00	 1.013128e+01
0	 7.407407e+00	 3.333333e+00	 1.011931e+01
0	 7.407407e+00	 3.407407e+00	 1.012029e+01
0	 7.407407e+00	 3.481481e+00	 1.012115e+01
0	 7.407407e+00	 3.555556e+00	 1.012190e+01
0	 7.407407e+00	 3.629630e+00	 1.012252e+01
0	 7.407407e+00	 3.703704e+00	 1.012303e+01
0	 7.037037e+00	 3.703704e+00	 1.016497e+01
0	 7.037037e+00	 3.777778e+00	 1.016479e+01
0	 7.037037e+00	 3.851852e+00	 1.016448e+01
0	 7.037037e+00	 3.925926e+00	 1.016403e+01
0	 7.037037e+00	 4.000000e+00	 1.016345e+01
0	 7.037037e+00	 4.074074e+00	 1.016273e+01
0	 7.111111e+00	 3.703704e+00	 1.015644e+01
0	 7.111111e+00	 3.777778e+00	 1.015638e+01
0	 7.111111e+00	 3.851852e+00	 1.015619e+01
0	 7.111111e+00	 3.925926e+00	 1.015587e+01
0	 7.111111e+00	 4.000000e+00	 1.015542e+01
0	 7.111111e+00	 4.074074e+00	 1.015484e+01
0	 7.185185e+00	 3.703704e+00	 1.014798e+01
0	 7.185185e+00	 3.777778e+00	 1.014804e+01
0	 7.185185e+00	 3.851852e+00	 1.014797e+01
0	 7.185185e+00	 3.925926e+00	 1.014778e+01
0	 7.185185e+00	 4.000000e+00	 1.014746e+01
0	 7.185185e+00	 4.074074e+00	 1.014700e+01
0	 7.259259e+00	 3.703704e+00	 1.013959e+01
0	 7.259259e+00	 3.777778e+00	 1.013977e+01
0	 7.259259e+00	 3.851852e+00	 1.013982e+01
0	 7.259259e+00	 3.925926e+00	 1.013975e+01
0	 7.259259e+00	 4.000000e+00	 1.013955e+01
0	 7.259259e+00	 4.074074e+00	 1.013923e+01
0	 7.333333e+00	 3.703704e+00	 1.013128e+01
0	 7.333333e+00	 3.777778e+00	 1.013156e+01
0	 7.333333e+00	 3.851852e+00	 1.013173e+01
0	 7.333333e+00	 3.925926e+00	 1.013177e+01
0	 7.333333e+00	 4.000000e+00	 1.013170e+01
0	 7.333333e+00	 4.074074e+00	 1.013150e+01
0	 7.407407e+00	 3.703704e+00	 1.012303e+01
0	 7.407407e+00	 3.777778e+00	 1.012342e+01
0	 7.407407e+00	 3.851852e+00	 1.012370e+01
0	 7.407407e+00	 3.925926e+00	 1.012386e+01
0	 7.407407e+00	 4.000000e+00	 1.012391e+01
0	 7.407407e+00	 4.074074e+00	 1.012384e+01
0	 7.037037e+00	 4.074074e+00	 1.016273e+01
0	 7.037037e+00	 4.148148e+00	 1.016188e+01
0	 7.037037e+00	 4.222222e+00	 1.016091e+01
0	 7.037037e+00	 4.296296e+00	 1.015983e+01
0	 7.037037e+00	 4.370370e+00	 1.015862e+01
0	 7.037037e+00	 4.444444e+00	 1.015729e+01
0	 7.111111e+00	 4.074074e+00	 1.015484e+01
0	 7.111111e+00	 4.148148e+00	 1.015413e+01
0	 7.111111e+00	 4.222222e+00	 1.015331e+01
0	 7.111111e+00	 4.296296e+00	 1.015237e+01
0	 7.111111e+00	 4.370370e+00	 1.015131e+01
0	 7.111111e+00	 4.444444e+00	 1.015013e+01
0	 7.185185e+00	 4.074074e+00	 1.014700e+01
0	 7.185185e+00	 4.148148e+00	 1.014643e+01
0	 7.185185e+00	 4.222222e+00	 1.014575e+01
0	 7.185185e+00	 4.296296e+00	 1.014495e+01
0	 7.185185e+00	 4.370370e+00	 1.014404e+01
0	 7.185185e+00	 4.444444e+00	 1.014300e+01
0	 7.259259e+00	 4.074074e+00	 1.013923e+01
0	 7.259259e+00	 4.148148e+00	 1.013879e+01
0	 7.259259e+00	 4.222222e+00	 1.013824e+01
0	 7.259259e+00	 4.296296e+00	 1.013758e+01
0	 7.259259e+00	 4.370370e+00	 1.013680e+01
0	 7.259259e+00	 4.444444e+00	 1.013592e+01
0	 7.333333e+00	 4.074074e+00	 1.013150e+01
0	 7.333333e+00	 4.148148e+00	 1.013120e+01
0	 7.333333e+00	 4.222222e+00	 1.013078e+01
0	 7.333333e+00	 4.296296e+00	 1.013025e+01
0	 7.333333e+00	 4.370370e+00	 1.012962e+01
0	 7.333333e+00	 4.444444e+00	 1.012887e+01
0	 7.407407e+00	 4.074074e+00	 1.012384e+01
0	 7.407407e+00	 4.148148e+00	 1.012366e+01
0	 7.407407e+00	 4.222222e+00	 1.012337e+01
0	 7.407407e+00	 4.296296e+00	 1.012298e+01
0	 7.407407e+00	 4.370370e+00	 1.012248e+01
0	 7.407407e+00	 4.444444e+00	 1.012187e+01
0	 7.037037e+00	 4.444444e+00	 1.015729e+01
0	 7.037037e+00	 4.518519e+00	 1.015585e+01
0	 7.037037e+00	 4.592593e+00	 1.015431e+01
0	 7.037037e+00	 4.666667e+00	 1.015268e+01
0	 7.037037e+00	 4.740741e+00	 1.015095e+01
0	 7.037037e+00	 4.814815e+00	 1.014911e+01
0	 7.111111e+00	 4.444444e+00	 1.015013e+01
0	 7.111111e+00	 4.518519e+00	 1.014884e+01
0	 7.111111e+00	 4.592593e+00	 1.014746e+01
0	 7.111111e+00	 4.666667e+00	 1.014598e+01
0	 7.111111e+00	 4.740741e+00	 1.014440e+01
0	 7.111111e+00	 4.814815e+00	 1.014272e+01
0	 7.185185e+00	 4.444444e+00	 1.014300e+01
0	 7.185185e+00	 4.518519e+00	 1.014186e+01
0	 7.185185e+00	 4.592593e+00	 1.014063e+01
0	 7.185185e+00	 4.666667e+00	 1.013931e+01
0	 7.185185e+00	 4.740741e+00	 1.013788e+01
0	 7.185185e+00	 4.814815e+00	 1.013635e+01
0	 7.259259e+00	 4.444444e+00	 1.013592e+01
0	 7.259259e+00	 4.518519e+00	 1.013492e+01
0	 7.259259e+00	 4.592593e+00	 1.013384e+01
0	 7.259259e+00	 4.666667e+00	 1.013266e+01
0	 7.259259e+00	 4.740741e+00	 1.013139e+01
0	 7.259259e+00	 4.814815e+00	 1.013001e+01
0	 7.333333e+00	 4.444444e+00	 1.012887e+01
0	 7.333333e+00	 4.518519e+00	 1.012802e+01
0	 7.333333e+00	 4.592593e+00	 1.012708e+01
0	 7.333333e+00	 4.666667e+00	 1.012605e+01
0	 7.333333e+00	 4.740741e+00	 1.012492e+01
0	 7.333333e+00	 4.814815e+00	 1.012369e+01
0	 7.407407e+00	 4.444444e+00	 1.012187e+01
0	 7.407407e+00	 4.518519e+00	 1.012116e+01
0	 7.407407e+00	 4.592593e+00	 1.012037e+01
0	 7.407407e+00	 4.666667e+00	 1.011948e+01
0	 7.407407e+00	 4.740741e+00	 1.011849e+01
0	 7.407407e+00	 4.814815e+00	 1.011741e+01
0	 7.037037e+00	 4.814815e+00	 1.014911e+01
0	 7.037037e+00	 4.888889e+00	 1.014718e+01
0	 7.037037e+00	 4.962963e+00	 1.014518e+01
0	 7.037037e+00	 5.037037e+00	 1.014311e+01
0	 7.037037e+00	 5.111111e+00	 1.014095e+01
0	 7.037037e+00	 5.185185e+00	 1.013872e+01
0	 7.111111e+00	 4.814815e+00	 1.014272e+01
0	 7.111111e+00	 4.888889e+00	 1.014095e+01
0	 7.111111e+00	 4.962963e+00	 1.013911e+01
0	 7.111111e+00	 5.037037e+00	 1.013720e+01
0	 7.111111e+00	 5.111111e+00	 1.013520e+01
0	 7.111111e+00	 5.185185e+00	 1.013312e+01
0	 7.185185e+00	 4.814815e+00	 1.013635e+01
0	 7.185185e+00	 4.888889e+00	 1.013474e+01
0	 7.185185e+00	 4.962963e+00	 1.013305e+01
0	 7.185185e+00	 5.037037e+00	 1.013129e+01
0	 7.185185e+00	 5.111111e+00	 1.012945e+01
0	 7.185185e+00	 5.185185e+00	 1.012752e+01
0	 7.259259e+00	 4.814815e+00	 1.013001e+01
0	 7.259259e+00	 4.888889e+00	 1.012855e+01
0	 7.259259e+00	 4.962963e+00	 1.012701e+01
0	 7.259259e+00	 5.037037e+00	 1.012540e+01
0	 7.259259e+00	 5.111111e+00	 1.012371e+01
0	 7.259259e+00	 5.185185e+00	 1.012194e+01
0	 7.333333e+00	 4.814815e+00	 1.012369e+01
0	 7.333333e+00	 4.888889e+00	 1.012238e+01
0	 7.333333e+00	 4.962963e+00	 1.012099e+01
0	 7.333333e+00	 5.037037e+00	 1.011953e+01
0	 7.333333e+00	 5.111111e+00	 1.011799e+01
0	 7.333333e+00	 5.185185e+00	 1.011636e+01
0	 7.407407e+00	 4.814815e+00	 1.011741e+01
0	 7.407407e+00	 4.888889e+00	 1.011624e+01
0	 7.407407e+00	 4.962963e+00	 1.011500e+01
0	 7.407407e+00	 5.037037e+00	 1.011368e+01
0	 7.407407e+00	 5.111111e+00	 1.011229e+01
0	 7.407407e+00	 5.185185e+00	 1.011081e+01
0	 7.037037e+00	 5.185185e+00	 1.013872e+01
0	 7.037037e+00	 5.259259e+00	 1.013641e+01
0	 7.037037e+00	 5.333333e+00	 1.013406e+01
0	 7.037037e+00	 5.407407e+00	 1.013165e+01
0	 7.037037e+00	 5.481481e+00	 1.012919e+01
0	 7.037037e+00	 5.555556e+00	 1.012666e+01
0	 7.111111e+00	 5.185185e+00	 1.013312e+01
0	 7.111111e+00	 5.259259e+00	 1.013097e+01
0	 7.111111e+00	 5.333333e+00	 1.012878e+01
0	 7.111111e+00	 5.407407e+00	 1.012652e+01
0	 7.111111e+00	 5.481481e+00	 1.012421e+01
0	 7.111111e+00	 5.555556e+00	 1.012184e+01
0	 7.185185e+00	 5.185185e+00	 1.012752e+01
0	 7.185185e+00	 5.259259e+00	 1.012553e+01
0	 7.185185e+00	 5.333333e+00	 1.012349e+01
0	 7.185185e+00	 5.407407e+00	 1.012138e+01
0	 7.185185e+00	 5.481481e+00	 1.011922e+01
0	 7.185185e+00	 5.555556e+00	 1.011700e+01
0	 7.259259e+00	 5.185185e+00	 1.012194e+01
0	 7.259259e+00	 5.259259e+00	 1.012009e+01
0	 7.259259e+00	 5.333333e+00	 1.011820e+01
0	 7.259259e+00	 5.407407e+00	 1.011625e+01
0	 7.259259e+00	 5.481481e+00	 1.011424e+01
0	 7.259259e+00	 5.555556e+00	 1.011216e+01
0	 7.333333e+00	 5.185185e+00	 1.011636e+01
0	 7.333333e+00	 5.259259e+00	 1.011467e+01
0	 7.333333e+00	 5.333333e+00	 1.011292e+01
0	 7.333333e+00	 5.407407e+00	 1.011112e+01
0	 7.333333e+00	 5.481481e+00	 1.010925e+01
0	 7.333333e+00	 5.555556e+00	 1.010732e+01
0	 7.407407e+00	 5.185185e+00	 1.011081e+01
0	 7.407407e+00	 5.259259e+00	 1.010927e+01
0	 7.407407e+00	 5.333333e+00	 1.010767e+01
0	 7.407407e+00	 5.407407e+00	 1.010601e+01
0	 7.407407e+00	 5.481481e+00	 1.010429e+01
0	 7.407407e+00	 5.555556e+00	 1.010250e+01
0	 7.037037e+00	 5.555556e+00	 1.012666e+01
0	 7.037037e+00	 5.629630e+00	 1.012409e+01
0	 7.037037e+00	 5.703704e+00	 1.012149e+01
0	 7.037037e+00	 5.777778e+00	 1.011886e+01
0	 7.037037e+00	 5.851852e+00	 1.011618e+01
0	 7.037037e+00	 5.925926e+00	 1.011347e+01
0	 7.111111e+00	 5.555556e+00	 1.012184e+01
0	 7.111111e+00	 5.629630e+00	 1.011942e+01
0	 7.111111e+00	 5.703704e+00	 1.011696e+01
0	 7.111111e+00	 5.777778e+00	 1.011448e+01
0	 7.111111e+00	 5.851852e+00	 1.011195e+01
0	 7.111111e+00	 5.925926e+00	 1.010938e+01
0	 7.185185e+00	 5.555556e+00	 1.011700e+01
0	 7.185185e+00	 5.629630e+00	 1.011473e+01
0	 7.185185e+00	 5.703704e+00	 1.011242e+01
0	 7.185185e+00	 5.777778e+00	 1.011008e+01
0	 7.185185e+00	 5.851852e+00	 1.010769e+01
0	 7.185185e+00	 5.925926e+00	 1.010526e+01
0	 7.259259e+00	 5.555556e+00	 1.011216e+01
0	 7.259259e+00	 5.629630e+00	 1.011003e+01
0	 7.259259e+00	 5.703704e+00	 1.010787e+01
0	 7.259259e+00	 5.777778e+00	 1.010567e+01
0	 7.259259e+00	 5.851852e+00	 1.010342e+01
0	 7.259259e+00	 5.925926e+00	 1.010113e+01
0	 7.333333e+00	 5.555556e+00	 1.010732e+01
0	 7.333333e+00	 5.629630e+00	 1.010534e+01
0	 7.333333e+00	 5.703704e+00	 1.010332e+01
0	 7.333333e+00	 5.777778e+00	 1.010126e+01
0	 7.333333e+00	 5.851852e+00	 1.009916e+01
0	 7.333333e+00	 5.925926e+00	 1.009700e+01
0	 7.407407e+00	 5.555556e+00	 1.010250e+01
0	 7.407407e+00	 5.629630e+00	 1.010066e+01
0	 7.407407e+00	 5.703704e+00	 1.009878e+01
0	 7.407407e+00	 5.777778e+00	 1.009686e+01
0	 7.407407e+00	 5.851852e+00	 1.009489e+01
0	 7.407407e+00	 5.925926e+00	 1.009288e+01
0	 7.037037e+00	 5.925926e+00	 1.011347e+01
0	 7.037037e+00	 6.000000e+00	 1.011073e+01
0	 7.037037e+00	 6.074074e+00	 1.010798e+01
0	 7.037037e+00	 6.148148e+00	 1.010521e+01
0	 7.037037e+00	 6.222222e+00	 1.010242e+01
0	 7.037037e+00	 6.296296e+00	 1.009961e+01
0	 7.111111e+00	 5.925926e+00	 1.010938e+01
0	 7.111111e+00	 6.000000e+00	 1.010677e+01
0	 7.111111e+00	 6.074074e+00	 1.010416e+01
0	 7.111111e+00	 6.148148e+00	 1.010153e+01
0	 7.111111e+00	 6.222222e+00	 1.009887e+01
0	 7.111111e+00	 6.296296e+00	 1.009619e+01
0	 7.185185e+00	 5.925926e+00	 1.010526e+01
0	 7.185185e+00	 6.000000e+00	 1.010280e+01
0	 7.185185e+00	 6.074074e+00	 1.010032e+01
0	 7.185185e+00	 6.148148e+00	 1.009782e+01
0	 7.185185e+00	 6.222222e+00	 1.009530e+01
0	 7.185185e+00	 6.296296e+00	 1.009275e+01
0	 7.259259e+00	 5.925926e+00	 1.010113e+01
0	 7.259259e+00	 6.000000e+00	 1.009881e+01
0	 7.259259e+00	 6.074074e+00	 1.009647e+01
0	 7.259259e+00	 6.148148e+00	 1.009410e+01
0	 7.259259e+00	 6.222222e+00	 1.009171e+01
0	 7.259259e+00	 6.296296e+00	 1.008929e+01
0	 7.333333e+00	 5.925926e+00	 1.009700e+01
0	 7.333333e+00	 6.000000e+00	 1.009482e+01
0	 7.333333e+00	 6.074074e+00	 1.009261e+01
0	 7.333333e+00	 6.148148e+00	 1.009038e+01
0	 7.333333e+00	 6.222222e+00	 1.008811e+01
0	 7.333333e+00	 6.296296e+00	 1.008582e+01
0	 7.407407e+00	 5.925926e+00	 1.009288e+01
0	 7.407407e+00	 6.000000e+00	 1.009083e+01
0	 7.407407e+00	 6.074074e+00	 1.008875e+01
0	 7.407407e+00	 6.148148e+00	 1.008665e+01
0	 7.407407e+00	 6.222222e+00	 1.008452e+01
0	 7.407407e+00	 6.296296e+00	 1.008235e+01
0	 7.037037e+00	 6.296296e+00	 1.009961e+01
0	 7.037037e+00	 6.370370e+00	 1.009678e+01
0	 7.037037e+00	 6.444444e+00	 1.009396e+01
0	 7.037037e+00	 6.518519e+00	 1.009114e+01
0	 7.037037e+00	 6.592593e+00	 1.008832e+01
0	 7.037037e+00	 6.666667e+00	 1.008548e+01
0	 7.111111e+00	 6.296296e+00	 1.009619e+01
0	 7.111111e+00	 6.370370e+00	 1.009349e+01
0	 7.111111e+00	 6.444444e+00	 1.009080e+01
0	 7.111111e+00	 6.518519e+00	 1.008810e+01
0	 7.111111e+00	 6.592593e+00	 1.008540e+01
0	 7.111111e+00	 6.666667e+00	 1.008268e+01
0	 7.185185e+00	 6.296296e+00	 1.009275e+01
0	 7.185185e+00	 6.370370e+00	 1.009018e+01
0	 7.185185e+00	 6.444444e+00	 1.008761e+01
0	 7.185185e+00	 6.518519e+00	 1.008504e+01
0	 7.185185e+00	 6.592593e+00	 1.008245e+01
0	 7.185185e+00	 6.666667e+00	 1.007986e+01
0	 7.259259e+00	 6.296296e+00	 1.008929e+01
0	 7.259259e+00	 6.370370e+00	 1.008685e+01
0	 7.259259e+00	 6.444444e+00	 1.008441e+01
0	 7.259259e+00	 6.518519e+00	 1.008195e+01
0	 7.259259e+00	 6.592593e+00	 1.007949e+01
0	 7.259259e+00	 6.666667e+00	 1.007701e+01
0	 7.333333e+00	 6.296296e+00	 1.008582e+01
0	 7.333333e+00	 6.370370e+00	 1.008351e+01
0	 7.333333e+00	 6.444444e+00	 1.008119e+01
0	 7.333333e+00	 6.518519e+00	 1.007886e+01
0	 7.333333e+00	 6.592593e+00	 1.007652e+01
0	 7.333333e+00	 6.666667e+00	 1.007416e+01
0	 7.407407e+00	 6.296296e+00	 1.008235e+01
0	 7.407407e+00	 6.370370e+00	 1.008017e+01
0	 7.407407e+00	 6.444444e+00	 1.007797e+01
0	 7.407407e+00	 6.518519e+00	 1.007576e+01
0	 7.407407e+00	 6.592593e+00	 1.007354e+01
0	 7.407407e+00	 6.666667e+00	 1.007129e+01
0	 7.037037e+00	 6.666667e+00	 1.008548e+01
0	 7.037037e+00	 6.740741e+00	 1.008265e+01
0	 7.037037e+00	 6.814815e+00	 1.007984e+01
0	 7.037037e+00	 6.888889e+00	 1.007704e+01
0	 7.037037e+00	 6.962963e+00	 1.007425e+01
0	 7.037037e+00	 7.037037e+00	 1.007146e+01
0	 7.111111e+00	 6.666667e+00	 1.008268e+01
0	 7.111111e+00	 6.740741e+00	 1.007997e+01
0	 7.111111e+00	 6.814815e+00	 1.007727e+01
0	 7.111111e+00	 6.888889e+00	 1.007458e+01
0	 7.111111e+00	 6.962963e+00	 1.007190e+01
0	 7.111111e+00	 7.037037e+00	 1.006922e+01
0	 7.185185e+00	 6.666667e+00	 1.007986e+01
0	 7.185185e+00	 6.740741e+00	 1.007726e+01
0	 7.185185e+00	 6.814815e+00	 1.007467e+01
0	 7.185185e+00	 6.888889e+00	 1.007209e+01
0	 7.185185e+00	 6.962963e+00	 1.006952e+01
0	 7.185185e+00	 7.037037e+00	 1.006694e+01
0	 7.259259e+00	 6.666667e+00	 1.007701e+01
0	 7.259259e+00	 6.740741e+00	 1.007453e+01
0	 7.259259e+00	 6.814815e+00	 1.007206e+01
0	 7.259259e+00	 6.888889e+00	 1.006959e+01
0	 7.259259e+00	 6.962963e+00	 1.006712e+01
0	 7.259259e+00	 7.037037e+00	 1.006465e+01
0	 7.333333e+00	 6.666667e+00	 1.007416e+01
0	 7.333333e+00	 6.740741e+00	 1.007179e+01
0	 7.333333e+00	 6.814815e+00	 1.006943e+01
0	 7.333333e+00	 6.888889e+00	 1.006707e+01
0	 7.333333e+00	 6.962963e+00	 1.006471e+01
0	 7.333333e+00	 7.037037e+00	 1.006235e+01
0	 7.407407e+00	 6.666667e+00	 1.007129e+01
0	 7.407407e+00	 6.740741e+00	 1.006904e+01
0	 7.407407e+00	 6.814815e+00	 1.006679e+01
0	 7.407407e+00	 6.888889e+00	 1.006455e+01
0	 7.407407e+00	 6.962963e+00	 1.006229e+01
0	 7.407407e+00	 7.037037e+00	 1.006004e+01
0	 7.037037e+00	 7.037037e+00	 1.007146e+01
0	 7.037037e+00	 7.111111e+00	 1.006869e+01
0	 7.037037e+00	 7.185185e+00	 1.006595e+01
0	 7.037037e+00	 7.259259e+00	 1.006323e+01
0	 7.037037e+00	 7.333333e+00	 1.006053e+01
0	 7.037037e+00	 7.407407e+00	 1.005785e+01
0	 7.111111e+00	 7.037037e+00	 1.006922e+01
0	 7.111111e+00	 7.111111e+00	 1.006655e+01
0	 7.111111e+00	 7.185185e+00	 1.006391e+01
0	 7.111111e+00	 7.259259e+00	 1.006129e+01
0	 7.111111e+00	 7.333333e+00	 1.005868e+01
0	 7.111111e+00	 7.407407e+00	 1.005610e+01
0	 7.185185e+00	 7.037037e+00	 1.006694e+01
0	 7.185185e+00	 7.111111e+00	 1.006438e+01
0	 7.185185e+00	 7.185185e+00	 1.006184e+01
0	 7.185185e+00	 7.259259e+00	 1.005932e+01
0	 7.185185e+00	 7.333333e+00	 1.005681e+01
0	 7.185185e+00	 7.407407e+00	 1.005432e+01
0	 7.259259e+00	 7.037037e+00	 1.006465e+01
0	 7.259259e+00	 7.111111e+00	 1.006219e+01
0	 7.259259e+00	 7.185185e+00	 1.005975e+01
0	 7.259259e+00	 7.259259e+00	 1.005733e+01
0	 7.259259e+00	 7.333333e+00	 1.005492e+01
0	 7.259259e+00	 7.407407e+00	 1.005252e+01
0	 7.333333e+00	 7.037037e+00	 1.006235e+01
0	 7.333333e+00	 7.111111e+00	 1.005999e+01
0	 7.333333e+00	 7.185185e+00	 1.005765e+01
0	 7.333333e+00	 7.259259e+00	 1.005533e+01
0	 7.333333e+00	 7.333333e+00	 1.005302e+01
0	 7.333333e+00	 7.407407e+00	 1.005071e+01
0	 7.407407e+00	 7.037037e+00	 1.006004e+01
0	 7.407407e+00	 7.111111e+00	 1.005778e+01
0	 7.407407e+00	 7.185185e+00	 1.005555e+01
0	 7.407407e+00	 7.259259e+00	 1.005332e+01
0	 7.407407e+00	 7.333333e+00	 1.005111e+01
0	 7.407407e+00	 7.407407e+00	 1.004890e+01
0	 7.037037e+00	 7.407407e+00	 1.005785e+01
0	 7.037037e+00	 7.481481e+00	 1.005520e+01
0	 7.037037e+00	 7.555556e+00	 1.005259e+01
0	 7.037037e+00	 7.629630e+00	 1.005001e+01
0	 7.037037e+00	 7.703704e+00	 1.004746e+01
0	 7.037037e+00	 7.777778e+00	 1.004495e+01
0	 7.111111e+00	 7.407407e+00	 1.005610e+01
0	 7.111111e+00	 7.481481e+00	 1.005354e+01
0	 7.111111e+00	 7.555556e+00	 1.005101e+01
0	 7.111111e+00	 7.629630e+00	 1.004852e+01
0	 7.111111e+00	 7.703704e+00	 1.004606e+01
0	 7.111111e+00	 7.777778e+00	 1.004362e+01
0	 7.185185e+00	 7.407407e+00	 1.005432e+01
0	 7.185185e+00	 7.481481e+00	 1.005185e+01
0	 7.185185e+00	 7.555556e+00	 1.004941e+01
0	 7.185185e+00	 7.629630e+00	 1.004701e+01
0	 7.185185e+00	 7.703704e+00	 1.004463e+01
0	 7.185185e+00	 7.777778e+00	 1.004227e+01
0	 7.259259e+00	 7.407407e+00	 1.005252e+01
0	 7.259259e+00	 7.481481e+00	 1.005014e+01
0	 7.259259e+00	 7.555556e+00	 1.004780e+01
0	 7.259259e+00	 7.629630e+00	 1.004548e+01
0	 7.259259e+00	 7.703704e+00	 1.004318e+01
0	 7.259259e+00	 7.777778e+00	 1.004091e+01
0	 7.333333e+00	 7.407407e+00	 1.005071e+01
0	 7.333333e+00	 7.481481e+00	 1.004843e+01
0	 7.333333e+00	 7.555556e+00	 1.004617e+01
0	 7.333333e+00	 7.629630e+00	 1.004394e+01
0	 7.333333e+00	 7.703704e+00	 1.004173e+01
0	 7.333333e+00	 7.777778e+00	 1.003954e+01
0	 7.407407e+00	 7.407407e+00	 1.004890e+01
0	 7.407407e+00	 7.481481e+00	 1.004670e+01
0	 7.407407e+00	 7.555556e+00	 1.004454e+01
0	 7.407407e+00	 7.629630e+00	 1.004239e+01
0	 7.407407e+00	 7.703704e+00	 1.004027e+01
0	 7.407407e+00	 7.777778e+00	 1.003816e+01
0	 7.037037e+00	 7.777778e+00	 1.004495e+01
0	 7.037037e+00	 7.851852e+00	 1.004247e+01
0	 7.037037e+00	 7.925926e+00	 1.004004e+01
0	 7.037037e+00	 8.000000e+00	 1.003766e+01
0	 7.037037e+00	 8.074074e+00	 1.003532e+01
0	 7.037037e+00	 8.148148e+00	 1.003302e+01
0	 7.111111e+00	 7.777778e+00	 1.004362e+01
0	 7.111111e+00	 7.851852e+00	 1.004122e+01
0	 7.111111e+00	 7.925926e+00	 1.003887e+01
0	 7.111111e+00	 8.000000e+00	 1.003656e+01
0	 7.111111e+00	 8.074074e+00	 1.003430e+01
0	 7.111111e+00	 8.148148e+00	 1.003207e+01
0	 7.185185e+00	 7.777778e+00	 1.004227e+01
0	 7.185185e+00	 7.851852e+00	 1.003996e+01
0	 7.185185e+00	 7.925926e+00	 1.003768e+01
0	 7.185185e+00	 8.000000e+00	 1.003545e+01
0	 7.185185e+00	 8.074074e+00	 1.003326e+01
0	 7.185185e+00	 8.148148e+00	 1.003110e+01
0	 7.259259e+00	 7.777778e+00	 1.004091e+01
0	 7.259259e+00	 7.851852e+00	 1.003867e+01
0	 7.259259e+00	 7.925926e+00	 1.003648e+01
0	 7.259259e+00	 8.000000e+00	 1.003432e+01
0	 7.259259e+00	 8.074074e+00	 1.003220e+01
0	 7.259259e+00	 8.148148e+00	 1.003012e+01
0	 7.333333e+00	 7.777778e+00	 1.003954e+01
0	 7.333333e+00	 7.851852e+00	 1.003738e+01
0	 7.333333e+00	 7.925926e+00	 1.003527e+01
0	 7.333333e+00	 8.000000e+00	 1.003319e+01
0	 7.333333e+00	 8.074074e+00	 1.003114e+01
0	 7.333333e+00	 8.148148e+00	 1.002913e+01
0	 7.407407e+00	 7.777778e+00	 1.003816e+01
0	 7.407407e+00	 7.851852e+00	 1.003609e+01
0	 7.407407e+00	 7.925926e+00	 1.003405e+01
0	 7.407407e+00	 8.000000e+00	 1.003204e+01
0	 7.407407e+00	 8.074074e+00	 1.003007e+01
0	 7.407407e+00	 8.148148e+00	 1.002813e+01
0	 7.037037e+00	 8.148148e+00	 1.003302e+01
0	 7.037037e+00	 8.222222e+00	 1.003078e+01
0	 7.037037e+00	 8.296296e+00	 1.002859e+01
0	 7.037037e+00	 8.370370e+00	 1.002647e+01
0	 7.037037e+00	 8.444444e+00	 1.002440e+01
0	 7.037037e+00	 8.518519e+00	 1.002238e+01
0	 7.111111e+00	 8.148148e+00	 1.003207e+01
0	 7.111111e+00	 8.222222e+00	 1.002989e+01
0	 7.111111e+00	 8.296296e+00	 1.002777e+01
0	 7.111111e+00	 8.370370e+00	 1.002571e+01
0	 7.111111e+00	 8.444444e+00	 1.002370e+01
0	 7.111111e+00	 8.518519e+00	 1.002174e+01
0	 7.185185e+00	 8.148148e+00	 1.003110e+01
0	 7.185185e+00	 8.222222e+00	 1.002899e+01
0	 7.185185e+00	 8.296296e+00	 1.002693e+01
0	 7.185185e+00	 8.370370e+00	 1.002494e+01
0	 7.185185e+00	 8.444444e+00	 1.002299e+01
0	 7.185185e+00	 8.518519e+00	 1.002109e+01
0	 7.259259e+00	 8.148148e+00	 1.003012e+01
0	 7.259259e+00	 8.222222e+00	 1.002807e+01
0	 7.259259e+00	 8.296296e+00	 1.002609e+01
0	 7.259259e+00	 8.370370e+00	 1.002415e+01
0	 7.259259e+00	 8.444444e+00	 1.002227e+01
0	 7.259259e+00	 8.518519e+00	 1.002043e+01
0	 7.333333e+00	 8.148148e+00	 1.002913e+01
0	 7.333333e+00	 8.222222e+00	 1.002715e+01
0	 7.333333e+00	 8.296296e+00	 1.002523e+01
0	 7.333333e+00	 8.370370e+00	 1.002337e+01
0	 7.333333e+00	 8.444444e+00	 1.002154e+01
0	 7.333333e+00	 8.518519e+00	 1.001976e+01
0	 7.407407e+00	 8.148148e+00	 1.002813e+01
0	 7.407407e+00	 8.222222e+00	 1.002623e+01
0	 7.407407e+00	 8.296296e+00	 1.002438e+01
0	 7.407407e+00	 8.370370e+00	 1.002257e+01
0	 7.407407e+00	 8.444444e+00	 1.002082e+01
0	 7.407407e+00	 8.518519e+00	 1.001910e+01
0	 7.037037e+00	 8.518519e+00	 1.002238e+01
0	 7.037037e+00	 8.592593e+00	 1.002042e+01
0	 7.037037e+00	 8.666667e+00	 1.001855e+01
0	 7.037037e+00	 8.740741e+00	 1.001674e+01
0	 7.037037e+00	 8.814815e+00	 1.001501e+01
0	 7.037037e+00	 8.888889e+00	 1.001334e+01
0	 7.111111e+00	 8.518519e+00	 1.002174e+01
0	 7.111111e+00	 8.592593e+00	 1.001984e+01
0	 7.111111e+00	 8.666667e+00	 1.001802e+01
0	 7.111111e+00	 8.740741e+00	 1.001627e+01
0	 7.111111e+00	 8.814815e+00	 1.001458e+01
0	 7.111111e+00	 8.888889e+00	 1.001296e+01
0	 7.185185e+00	 8.518519e+00	 1.002109e+01
0	 7.185185e+00	 8.592593e+00	 1.001925e+01
0	 7.185185e+00	 8.666667e+00	 1.001748e+01
0	 7.185185e+00	 8.740741e+00	 1.001578e+01
0	 7.185185e+00	 8.814815e+00	 1.001415e+01
0	 7.185185e+00	 8.888889e+00	 1.001257e+01
0	 7.259259e+00	 8.518519e+00	 1.002043e+01
0	 7.259259e+00	 8.592593e+00	 1.001865e+01
0	 7.259259e+00	 8.666667e+00	 1.001693e+01
0	 7.259259e+00	 8.740741e+00	 1.001529e+01
0	 7.259259e+00	 8.814815e+00	 1.001370e+01
0	 7.259259e+00	 8.888889e+00	 1.001218e+01
0	 7.333333e+00	 8.518519e+00	 1.001976e+01
0	 7.333333e+00	 8.592593e+00	 1.001804e+01
0	 7.333333e+00	 8.666667e+00	 1.001638e+01
0	 7.333333e+00	 8.740741e+00	 1.001479e+01
0	 7.333333e+00	 8.814815e+00	 1.001326e+01
0	 7.333333e+00	 8.888889e+00	 1.001178e+01
0	 7.407407e+00	 8.518519e+00	 1.001910e+01
0	 7.407407e+00	 8.592593e+00	 1.001743e+01
0	 7.407407e+00	 8.666667e+00	 1.001583e+01
0	 7.407407e+00	 8.740741e+00	 1.001429e+01
0	 7.407407e+00	 8.814815e+00	 1.001281e+01
0	 7.407407e+00	 8.888889e+00	 1.001139e+01
0	 7.037037e+00	 8.888889e+00	 1.001334e+01
0	 7.037037e+00	 8.962963e+00	 1.001175e+01
0	 7.037037e+00	 9.037037e+00	 1.001025e+01
0	 7.037037e+00	 9.111111e+00	 1.000885e+01
0	 7.037037e+00	 9.185185e+00	 1.000753e+01
0	 7.037037e+00	 9.259259e+00	 1.000629e+01
0	 7.111111e+00	 8.888889e+00	 1.001296e+01
0	 7.111111e+00	 8.962963e+00	 1.001141e+01
0	 7.111111e+00	 9.037037e+00	 1.000996e+01
0	 7.111111e+00	 9.111111e+00	 1.000860e+01
0	 7.111111e+00	 9.185185e+00	 1.000731e+01
0	 7.111111e+00	 9.259259e+00	 1.000611e+01
0	 7.185185e+00	 8.888889e+00	 1.001257e+01
0	 7.185185e+00	 8.962963e+00	 1.001107e+01
0	 7.185185e+00	 9.037037e+00	 1.000966e+01
0	 7.185185e+00	 9.111111e+00	 1.000834e+01
0	 7.185185e+00	 9.185185e+00	 1.000709e+01
0	 7.185185e+00	 9.259259e+00	 1.000592e+01
0	 7.259259e+00	 8.888889e+00	 1.001218e+01
0	 7.259259e+00	 8.962963e+00	 1.001073e+01
0	 7.259259e+00	 9.037037e+00	 1.000936e+01
0	 7.259259e+00	 9.111111e+00	 1.000808e+01
0	 7.259259e+00	 9.185185e+00	 1.000687e+01
0	 7.259259e+00	 9.259259e+00	 1.000573e+01
0	 7.333333e+00	 8.888889e+00	 1.001178e+01
0	 7.333333e+00	 8.962963e+00	 1.001038e+01
0	 7.333333e+00	 9.037037e+00	 1.000906e+01
0	 7.333333e+00	 9.111111e+00	 1.000781e+01
0	 7.333333e+00	 9.185185e+00	 1.000664e+01
0	 7.333333e+00	 9.259259e+00	 1.000555e+01
0	 7.407407e+00	 8.888889e+00	 1.001139e+01
0	 7.407407e+00	 8.962963e+00	 1.001003e+01
0	 7.407407e+00	 9.037037e+00	 1.000875e+01
0	 7.407407e+00	 9.111111e+00	 1.000755e+01
0	 7.407407e+00	 9.185185e+00	 1.000642e+01
0	 7.407407e+00	 9.259259e+00	 1.000536e+01
0	 7.037037e+00	 9.259259e+00	 1.000629e+01
0	 7.037037e+00	 9.333333e+00	 1.000514e+01
0	 7.037037e+00	 9.407407e+00	 1.000412e+01
0	 7.037037e+00	 9.481481e+00	 1.000320e+01
0	 7.037037e+00	 9.555556e+00	 1.000238e+01
0	 7.037037e+00	 9.629630e+00	 1.000167e+01
0	 7.111111e+00	 9.259259e+00	 1.000611e+01
0	 7.111111e+00	 9.333333e+00	 1.000500e+01
0	 7.111111e+00	 9.407407e+00	 1.000400e+01
0	 7.111111e+00	 9.481481e+00	 1.000311e+01
0	 7.111111e+00	 9.555556e+00	 1.000232e+01
0	 7.111111e+00	 9.629630e+00	 1.000162e+01
0	 7.185185e+00	 9.259259e+00	 1.000592e+01
0	 7.185185e+00	 9.333333e+00	 1.000484e+01
0	 7.185185e+00	 9.407407e+00	 1.000387e+01
0	 7.185185e+00	 9.481481e+00	 1.000301e+01
0	 7.185185e+00	 9.555556e+00	 1.000224e+01
0	 7.185185e+00	 9.629630e+00	 1.000157e+01
0	 7.259259e+00	 9.259259e+00	 1.000573e+01
0	 7.259259e+00	 9.333333e+00	 1.000469e+01
0	 7.259259e+00	 9.407407e+00	 1.000375e+01
0	 7.259259e+00	 9.481481e+00	 1.000291e+01
0	 7.259259e+00	 9.555556e+00	 1.000217e+01
0	 7.259259e+00	 9.629630e+00	 1.000152e+01
0	 7.333333e+00	 9.259259e+00	 1.000555e+01
0	 7.333333e+00	 9.333333e+00	 1.000454e+01
0	 7.333333e+00	 9.407407e+00	 1.000363e+01
0	 7.333333e+00	 9.481481e+00	 1.000282e+01
0	 7.333333e+00	 9.555556e+00	 1.000210e+01
0	 7.333333e+00	 9.629630e+00	 1.000147e+01
0	 7.407407e+00	 9.259259e+00	 1.000536e+01
0	 7.407407e+00	 9.333333e+00	 1.000438e+01
0	 7.407407e+00	 9.407407e+00	 1.000351e+01
0	 7.407407e+00	 9.481481e+00	 1.000272e+01
0	 7.407407e+00	 9.555556e+00	 1.000203e+01
0	 7.407407e+00	 9.629630e+00	 1.000142e+01
0	 7.037037e+00	 9.629630e+00	 1.000167e+01
0	 7.037037e+00	 9.703704e+00	 1.000107e+01
0	 7.037037e+00	 9.777778e+00	 1.000061e+01
0	 7.037037e+00	 9.851852e+00	 1.000028e+01
0	 7.037037e+00	 9.925926e+00	 1.000007e+01
0	 7.037037e+00	 1.000000e+01	 9.999987e+00
0	 7.111111e+00	 9.629630e+00	 1.000162e+01
0	 7.111111e+00	 9.703704e+00	 1.000104e+01
0	 7.111111e+00	 9.777778e+00	 1.000059e+01
0	 7.111111e+00	 9.851852e+00	 1.000027e+01
0	 7.111111e+00	 9.925926e+00	 1.000007e+01
0	 7.111111e+00	 1.000000e+01	 9.999990e+00
0	 7.185185e+00	 9.629630e+00	 1.000157e+01
0	 7.185185e+00	 9.703704e+00	 1.000101e+01
0	 7.185185e+00	 9.777778e+00	 1.000058e+01
0	 7.185185e+00	 9.851852e+00	 1.000026e+01
0	 7.185185e+00	 9.925926e+00	 1.000007e+01
0	 7.185185e+00	 1.000000e+01	 9.999989e+00
0	 7.259259e+00	 9.629630e+00	 1.000152e+01
0	 7.259259e+00	 9.703704e+00	 1.000097e+01
0	 7.259259e+00	 9.777778e+00	 1.000055e+01
0	 7.259259e+00	 9.851852e+00	 1.000025e+01
0	 7.259259e+00	 9.925926e+00	 1.000007e+01
0	 7.259259e+00	 1.000000e+01	 9.999988e+00
0	 7.333333e+00	 9.629630e+00	 1.000147e+01
0	 7.333333e+00	 9.703704e+00	 1.000094e+01
0	 7.333333e+00	 9.777778e+00	 1.000054e+01
0	 7.333333e+00	 9.851852e+00	 1.000024e+01
0	 7.333333e+00	 9.925926e+00	 1.000006e+01
0	 7.333333e+00	 1.000000e+01	 9.999987e+00
0	 7.407407e+00	 9.629630e+00	 1.000142e+01
0	 7.407407e+00	 9.703704e+00	 1.000091e+01
0	 7.407407e+00	 9.777778e+00	 1.000052e+01
0	 7.407407e+00	 9.851852e+00	 1.000024e+01
0	 7.407407e+00	 9.925926e+00	 1.000006e+01
0	 7.407407e+00	 1.000000e+01	 9.999990e+00
0	 7.407407e+00	 0.000000e+00	 1.004014e+01
0	 7.407407e+00	 7.407407e-02	 1.004022e+01
0	 7.407407e+00	 1.481481e-01	 1.004046e+01
0	 7.407407e+00	 2.222222e-01	 1.004086e+01
0	 7.407407e+00	 2.962963e-01	 1.004142e+01
0	 7.407407e+00	 3.703704e-01	 1.004215e+01
0	 7.481481e+00	 0.000000e+00	 1.003186e+01
0	 7.481481e+00	 7.407407e-02	 1.003193e+01
0	 7.481481e+00	 1.481481e-01	 1.003216e+01
0	 7.481481e+00	 2.222222e-01	 1.003255e+01
0	 7.481481e+00	 2.962963e-01	 1.003310e+01
0	 7.481481e+00	 3.703704e-01	 1.003381e+01
0	 7.555556e+00	 0.000000e+00	 1.002351e+01
0	 7.555556e+00	 7.407407e-02	 1.002358e+01
0	 7.555556e+00	 1.481481e-01	 1.002380e+01
0	 7.555556e+00	 2.222222e-01	 1.002418e+01
0	 7.555556e+00	 2.962963e-01	 1.002472e+01
0	 7.555556e+00	 3.703704e-01	 1.002541e+01
0	 7.629630e+00	 0.000000e+00	 1.001509e+01
0	 7.629630e+00	 7.407407e-02	 1.001516e+01
0	 7.629630e+00	 1.481481e-01	 1.001538e+01
0	 7.629630e+00	 2.222222e-01	 1.001575e+01
0	 7.629630e+00	 2.962963e-01	 1.001628e+01
0	 7.629630e+00	 3.703704e-01	 1.001695e+01
0	 7.703704e+00	 0.000000e+00	 1.000659e+01
0	 7.703704e+00	 7.407407e-02	 1.000667e+01
0	 7.703704e+00	 1.481481e-01	 1.000689e+01
0	 7.703704e+00	 2.222222e-01	 1.000725e+01
0	 7.703704e+00	 2.962963e-01	 1.000776e+01
0	 7.703704e+00	 3.703704e-01	 1.000843e+01
0	 7.777778e+00	 0.000000e+00	 9.998019e+00
0	 7.777778e+00	 7.407407e-02	 9.998094e+00
0	 7.777778e+00	 1.481481e-01	 9.998311e+00
0	 7.777778e+00	 2.222222e-01	 9.998670e+00
0	 7.777778e+00	 2.962963e-01	 9.999174e+00
0	 7.777778e+00	 3.703704e-01	 9.999823e+00
0	 7.407407e+00	 3.703704e-01	 1.004215e+01
0	 7.407407e+00	 4.444444e-01	 1.004303e+01
0	 7.407407e+00	 5.185185e-01	 1.004405e+01
0	 7.407407e+00	 5.925926e-01	 1.004520e+01
0	 7.407407e+00	 6.666667e-01	 1.004651e+01
0	 7.407407e+00	 7.407407e-01	 1.004796e+01
0	 7.481481e+00	 3.703704e-01	 1.003381e+01
0	 7.481481e+00	 4.444444e-01	 1.003466e+01
0	 7.481481e+00	 5.185185e-01	 1.003565e+01
0	 7.481481e+00	 5.925926e-01	 1.003678e+01
0	 7.481481e+00	 6.666667e-01	 1.003805e+01
0	 7.481481e+00	 7.407407e-01	 1.003947e+01
0	 7.555556e+00	 3.703704e-01	 1.002541e+01
0	 7.555556e+00	 4.444444e-01	 1.002624e+01
0	 7.555556e+00	 5.185185e-01	 1.002721e+01
0	 7.555556e+00	 5.925926e-01	 1.002831e+01
0	 7.555556e+00	 6.666667e-01	 1.002955e+01
0	 7.555556e+00	 7.407407e-01	 1.003094e+01
0	 7.629630e+00	 3.703704e-01	 1.001695e+01
0	 7.629630e+00	 4.444444e-01	 1.001777e+01
0	 7.629630e+00	 5.185185e-01	 1.001871e+01
0	 7.629630e+00	 5.925926e-01	 1.001979e+01
0	 7.629630e+00	 6.666667e-01	 1.002100e+01
0	 7.629630e+00	 7.407407e-01	 1.002236e+01
0	 7.703704e+00	 3.703704e-01	 1.000843e+01
0	 7.703704e+00	 4.444444e-01	 1.000922e+01
0	 7.703704e+00	 5.185185e-01	 1.001015e+01
0	 7.703704e+00	 5.925926e-01	 1.001121e+01
0	 7.703704e+00	 6.666667e-01	 1.001240e+01
0	 7.703704e+00	 7.407407e-01	 1.001373e+01
0	 7.777778e+00	 3.703704e-01	 9.999823e+00
0	 7.777778e+00	 4.444444e-01	 1.000061e+01
0	 7.777778e+00	 5.185185e-01	 1.000152e+01
0	 7.777778e+00	 5.925926e-01	 1.000256e+01
0	 7.777778e+00	 6.666667e-01	 1.000373e+01
0	 7.777778e+00	 7.407407e-01	 1.000504e+01
0	 7.407407e+00	 7.407407e-01	 1.004796e+01
0	 7.407407e+00	 8.148148e-01	 1.004955e+01
0	 7.407407e+00	 8.888889e-01	 1.005123e+01
0	 7.407407e+00	 9.629630e-01	 1.005301e+01
0	 7.407407e+00	 1.037037e+00	 1.005492e+01
0	 7.407407e+00	 1.111111e+00	 1.005694e+01
0	 7.481481e+00	 7.407407e-01	 1.003947e+01
0	 7.481481e+00	 8.148148e-01	 1.004101e+01
0	 7.481481e+00	 8.888889e-01	 1.004265e+01
0	 7.481481e+00	 9.629630e-01	 1.004440e+01
0	 7.481481e+00	 1.037037e+00	 1.004626e+01
0	 7.481481e+00	 1.111111e+00	 1.004824e+01
0	 7.555556e+00	 7.407407e-01	 1.003094e+01
0	 7.555556e+00	 8.148148e-01	 1.003245e+01
0	 7.555556e+00	 8.888889e-01	 1.003405e+01
0	 7.555556e+00	 9.629630e-01	 1.003576e+01
0	 7.555556e+00	 1.037037e+00	 1.003758e+01
0	 7.555556e+00	 1.111111e+00	 1.003952e+01
0	 7.629630e+00	 7.407407e-01	 1.002236e+01
0	 7.629630e+00	 8.148148e-01	 1.002384e+01
0	 7.629630e+00	 8.888889e-01	 1.002541e+01
0	 7.629630e+00	 9.629630e-01	 1.002709e+01
0	 7.629630e+00	 1.037037e+00	 1.002887e+01
0	 7.629630e+00	 1.111111e+00	 1.003077e+01
0	 7.703704e+00	 7.407407e-01	 1.001373e+01
0	 7.703704e+00	 8.148148e-01	 1.001518e+01
0	 7.703704e+00	 8.888889e-01	 1.001672e+01
0	 7.703704e+00	 9.629630e-01	 1.001837e+01
0	 7.703704e+00	 1.037037e+00	 1.002013e+01
0	 7.703704e+00	 1.111111e+00	 1.002200e+01
0	 7.777778e+00	 7.407407e-01	 1.000504e+01
0	 7.777778e+00	 8.148148e-01	 1.000646e+01
0	 7.777778e+00	 8.888889e-01	 1.000798e+01
0	 7.777778e+00	 9.629630e-01	 1.000960e+01
0	 7.777778e+00	 1.037037e+00	 1.001133e+01
0	 7.777778e+00	 1.111111e+00	 1.001318e+01
0	 7.407407e+00	 1.111111e+00	 1.005694e+01
0	 7.407407e+00	 1.185185e+00	 1.005905e+01
0	 7.407407e+00	 1.259259e+00	 1.006122e+01
0	 7.407407e+00	 1.333333e+00	 1.006344e+01
0	 7.407407e+00	 1.407407e+00	 1.006574e+01
0	 7.407407e+00	 1.481481e+00	 1.006812e+01
0	 7.481481e+00	 1.111111e+00	 1.004824e+01
0	 7.481481e+00	 1.185185e+00	 1.005030e+01
0	 7.481481e+00	 1.259259e+00	 1.005242e+01
0	 7.481481e+00	 1.333333e+00	 1.005461e+01
0	 7.481481e+00	 1.407407e+00	 1.005686e+01
0	 7.481481e+00	 1.481481e+00	 1.005920e+01
0	 7.555556e+00	 1.111111e+00	 1.003952e+01
0	 7.555556e+00	 1.185185e+00	 1.004154e+01
0	 7.555556e+00	 1.259259e+00	 1.004362e+01
0	 7.555556e+00	 1.333333e+00	 1.004577e+01
0	 7.555556e+00	 1.407407e+00	 1.004799e+01
0	 7.555556e+00	 1.481481e+00	 1.005028e+01
0	 7.629630e+00	 1.111111e+00	 1.003077e+01
0	 7.629630e+00	 1.185185e+00	 1.003276e+01
0	 7.629630e+00	 1.259259e+00	 1.003481e+01
0	 7.629630e+00	 1.333333e+00	 1.003692e+01
0	 7.629630e+00	 1.407407e+00	 1.003911e+01
0	 7.629630e+00	 1.481481e+00	 1.004137e+01
0	 7.703704e+00	 1.111111e+00	 1.002200e+01
0	 7.703704e+00	 1.185185e+00	 1.002395e+01
0	 7.703704e+00	 1.259259e+00	 1.002597e+01
0	 7.703704e+00	 1.333333e+00	 1.002805e+01
0	 7.703704e+00	 1.407407e+00	 1.003021e+01
0	 7.703704e+00	 1.481481e+00	 1.003245e+01
0	 7.777778e+00	 1.111111e+00	 1.001318e+01
0	 7.777778e+00	 1.185185e+00	 1.001511e+01
0	 7.777778e+00	 1.259259e+00	 1.001710e+01
0	 7.777778e+00	 1.333333e+00	 1.001916e+01
0	 7.777778e+00	 1.407407e+00	 1.002129e+01
0	 7.777778e+00	 1.481481e+00	 1.002350e+01
0	 7.407407e+00	 1.481481e+00	 1.006812e+01
0	 7.407407e+00	 1.555556e+00	 1.007055e+01
0	 7.407407e+00	 1.629630e+00	 1.007297e+01
0	 7.407407e+00	 1.703704e+00	 1.007542e+01
0	 7.407407e+00	 1.777778e+00	 1.007788e+01
0	 7.407407e+00	 1.851852e+00	 1.008038e+01
0	 7.481481e+00	 1.481481e+00	 1.005920e+01
0	 7.481481e+00	 1.555556e+00	 1.006158e+01
0	 7.481481e+00	 1.629630e+00	 1.006397e+01
0	 7.481481e+00	 1.703704e+00	 1.006638e+01
0	 7.481481e+00	 1.777778e+00	 1.006881e+01
0	 7.481481e+00	 1.851852e+00	 1.007128e+01
0	 7.555556e+00	 1.481481e+00	 1.005028e+01
0	 7.555556e+00	 1.555556e+00	 1.005263e+01
0	 7.555556e+00	 1.629630e+00	 1.005499e+01
0	 7.555556e+00	 1.703704e+00	 1.005736e+01
0	 7.555556e+00	 1.777778e+00	 1.005977e+01
0	 7.555556e+00	 1.851852e+00	 1.006221e+01
0	 7.629630e+00	 1.481481e+00	 1.004137e+01
0	 7.629630e+00	 1.555556e+00	 1.004368e+01
0	 7.629630e+00	 1.629630e+00	 1.004601e+01
0	 7.629630e+00	 1.703704e+00	 1.004836e+01
0	 7.629630e+00	 1.777778e+00	 1.005075e+01
0	 7.629630e+00	 1.851852e+00	 1.005317e+01
0	 7.703704e+00	 1.481481e+00	 1.003245e+01
0	 7.703704e+00	 1.555556e+00	 1.003473e+01
0	 7.703704e+00	 1.629630e+00	 1.003704e+01
0	 7.703704e+00	 1.703704e+00	 1.003937e+01
0	 7.703704e+00	 1.777778e+00	 1.004173e+01
0	 7.703704e+00	 1.851852e+00	 1.004414e+01
0	 7.777778e+00	 1.481481e+00	 1.002350e+01
0	 7.777778e+00	 1.555556e+00	 1.002577e+01
0	 7.777778e+00	 1.629630e+00	 1.002805e+01
0	 7.777778e+00	 1.703704e+00	 1.003037e+01
0	 7.777778e+00	 1.777778e+00	 1.003272e+01
0	 7.777778e+00	 1.851852e+00	 1.003512e+01
0	 7.407407e+00	 1.851852e+00	 1.008038e+01
0	 7.407407e+00	 1.925926e+00	 1.008288e+01
0	 7.407407e+00	 2.000000e+00	 1.008534e+01
0	 7.407407e+00	 2.074074e+00	 1.008777e+01
0	 7.407407e+00	 2.148148e+00	 1.009018e+01
0	 7.407407e+00	 2.222222e+00	 1.009257e+01
0	 7.481481e+00	 1.851852e+00	 1.007128e+01
0	 7.481481e+00	 1.925926e+00	 1.007375e+01
0	 7.481481e+00	 2.000000e+00	 1.007619e+01
0	 7.481481e+00	 2.074074e+00	 1.007860e+01
0	 7.481481e+00	 2.148148e+00	 1.008099e+01
0	 7.481481e+00	 2.222222e+00	 1.008338e+01
0	 7.555556e+00	 1.851852e+00	 1.006221e+01
0	 7.555556e+00	 1.925926e+00	 1.006466e+01
0	 7.555556e+00	 2.000000e+00	 1.006708e+01
0	 7.555556e+00	 2.074074e+00	 1.006948e+01
0	 7.555556e+00	 2.148148e+00	 1.007186e+01
0	 7.555556e+00	 2.222222e+00	 1.007424e+01
0	 7.629630e+00	 1.851852e+00	 1.005317e+01
0	 7.629630e+00	 1.925926e+00	 1.005560e+01
0	 7.629630e+00	 2.000000e+00	 1.005801e+01
0	 7.629630e+00	 2.074074e+00	 1.006039e+01
0	 7.629630e+00	 2.148148e+00	 1.006277e+01
0	 7.629630e+00	 2.222222e+00	 1.006515e+01
0	 7.703704e+00	 1.851852e+00	 1.004414e+01
0	 7.703704e+00	 1.925926e+00	 1.004656e+01
0	 7.703704e+00	 2.000000e+00	 1.004896e+01
0	 7.703704e+00	 2.074074e+00	 1.005134e+01
0	 7.703704e+00	 2.148148e+00	 1.005372e+01
0	 7.703704e+00	 2.222222e+00	 1.005610e+01
0	 7.777778e+00	 1.851852e+00	 1.003512e+01
0	 7.777778e+00	 1.925926e+00	 1.003752e+01
0	 7.777778e+00	 2.000000e+00	 1.003992e+01
0	 7.777778e+00	 2.074074e+00	 1.004230e+01
0	 7.777778e+00	 2.148148e+00	 1.004468e+01
0	 7.777778e+00	 2.222222e+00	 1.004707e+01
0	 7.407407e+00	 2.222222e+00	 1.009257e+01
0	 7.407407e+00	 2.296296e+00	 1.009492e+01
0	 7.407407e+00	 2.370370e+00	 1.009720e+01
0	 7.407407e+00	 2.444444e+00	 1.009940e+01
0	 7.407407e+00	 2.518519e+00	 1.010155e+01
0	 7.407407e+00	 2.592593e+00	 1.010364e+01
0	 7.481481e+00	 2.222222e+00	 1.008338e+01
0	 7.481481e+00	 2.296296e+00	 1.008572e+01
0	 7.481481e+00	 2.370370e+00	 1.008800e+01
0	 7.481481e+00	 2.444444e+00	 1.009021e+01
0	 7.481481e+00	 2.518519e+00	 1.009237e+01
0	 7.481481e+00	 2.592593e+00	 1.009448e+01
0	 7.555556e+00	 2.222222e+00	 1.007424e+01
0	 7.555556e+00	 2.296296e+00	 1.007659e+01
0	 7.555556e+00	 2.370370e+00	 1.007887e+01
0	 7.555556e+00	 2.444444e+00	 1.008109e+01
0	 7.555556e+00	 2.518519e+00	 1.008327e+01
0	 7.555556e+00	 2.592593e+00	 1.008540e+01
0	 7.629630e+00	 2.222222e+00	 1.006515e+01
0	 7.629630e+00	 2.296296e+00	 1.006750e+01
0	 7.629630e+00	 2.370370e+00	 1.006979e+01
0	 7.629630e+00	 2.444444e+00	 1.007203e+01
0	 7.629630e+00	 2.518519e+00	 1.007422e+01
0	 7.629630e+00	 2.592593e+00	 1.007638e+01
0	 7.703704e+00	 2.222222e+00	 1.005610e+01
0	 7.703704e+00	 2.296296e+00	 1.005845e+01
0	 7.703704e+00	 2.370370e+00	 1.006076e+01
0	 7.703704e+00	 2.444444e+00	 1.006301e+01
0	 7.703704e+00	 2.518519e+00	 1.006523e+01
0	 7.703704e+00	 2.592593e+00	 1.006741e+01
0	 7.777778e+00	 2.222222e+00	 1.004707e+01
0	 7.777778e+00	 2.296296e+00	 1.004944e+01
0	 7.777778e+00	 2.370370e+00	 1.005176e+01
0	 7.777778e+00	 2.444444e+00	 1.005403e+01
0	 7.777778e+00	 2.518519e+00	 1.005627e+01
0	 7.777778e+00	 2.592593e+00	 1.005848e+01
0	 7.407407e+00	 2.592593e+00	 1.010364e+01
0	 7.407407e+00	 2.666667e+00	 1.010565e+01
0	 7.407407e+00	 2.740741e+00	 1.010756e+01
0	 7.407407e+00	 2.814815e+00	 1.010938e+01
0	 7.407407e+00	 2.888889e+00	 1.011110e+01
0	 7.407407e+00	 2.962963e+00	 1.011274e+01
0	 7.481481e+00	 2.592593e+00	 1.009448e+01
0	 7.481481e+00	 2.666667e+00	 1.009652e+01
0	 7.481481e+00	 2.740741e+00	 1.009846e+01
0	 7.481481e+00	 2.814815e+00	 1.010031e+01
0	 7.481481e+00	 2.888889e+00	 1.010208e+01
0	 7.481481e+00	 2.962963e+00	 1.010377e+01
0	 7.555556e+00	 2.592593e+00	 1.008540e+01
0	 7.555556e+00	 2.666667e+00	 1.008746e+01
0	 7.555556e+00	 2.740741e+00	 1.008944e+01
0	 7.555556e+00	 2.814815e+00	 1.009133e+01
0	 7.555556e+00	 2.888889e+00	 1.009314e+01
0	 7.555556e+00	 2.962963e+00	 1.009488e+01
0	 7.629630e+00	 2.592593e+00	 1.007638e+01
0	 7.629630e+00	 2.666667e+00	 1.007847e+01
0	 7.629630e+00	 2.740741e+00	 1.008048e+01
0	 7.629630e+00	 2.814815e+00	 1.008241e+01
0	 7.629630e+00	 2.888889e+00	 1.008427e+01
0	 7.629630e+00	 2.962963e+00	 1.008605e+01
0	 7.703704e+00	 2.592593e+00	 1.006741e+01
0	 7.703704e+00	 2.666667e+00	 1.006953e+01
0	 7.703704e+00	 2.740741e+00	 1.007158e+01
0	 7.703704e+00	 2.814815e+00	 1.007355e+01
0	 7.703704e+00	 2.888889e+00	 1.007546e+01
0	 7.703704e+00	 2.962963e+00	 1.007730e+01
0	 7.777778e+00	 2.592593e+00	 1.005848e+01
0	 7.777778e+00	 2.666667e+00	 1.006064e+01
0	 7.777778e+00	 2.740741e+00	 1.006273e+01
0	 7.777778e+00	 2.814815e+00	 1.006475e+01
0	 7.777778e+00	 2.888889e+00	 1.006670e+01
0	 7.777778e+00	 2.962963e+00	 1.006860e+01
0	 7.407407e+00	 2.962963e+00	 1.011274e+01
0	 7.407407e+00	 3.037037e+00	 1.011428e+01
0	 7.407407e+00	 3.111111e+00	 1.011571e+01
0	 7.407407e+00	 3.185185e+00	 1.011702e+01
0	 7.407407e+00	 3.259259e+00	 1.011822e+01
0	 7.407407e+00	 3.333333e+00	 1.011931e+01
0	 7.481481e+00	 2.962963e+00	 1.010377e+01
0	 7.481481e+00	 3.037037e+00	 1.010536e+01
0	 7.481481e+00	 3.111111e+00	 1.010685e+01
0	 7.481481e+00	 3.185185e+00	 1.010822e+01
0	 7.481481e+00	 3.259259e+00	 1.010950e+01
0	 7.481481e+00	 3.333333e+00	 1.011067e+01
0	 7.555556e+00	 2.962963e+00	 1.009488e+01
0	 7.555556e+00	 3.037037e+00	 1.009653e+01
0	 7.555556e+00	 3.111111e+00	 1.009807e+01
0	 7.555556e+00	 3.185185e+00	 1.009951e+01
0	 7.555556e+00	 3.259259e+00	 1.010086e+01
0	 7.555556e+00	 3.333333e+00	 1.010210e+01
0	 7.629630e+00	 2.962963e+00	 1.008605e+01
0	 7.629630e+00	 3.037037e+00	 1.008776e+01
0	 7.629630e+00	 3.111111e+00	 1.008937e+01
0	 7.629630e+00	 3.185185e+00	 1.009087e+01
0	 7.629630e+00	 3.259259e+00	 1.009229e+01
0	 7.629630e+00	 3.333333e+00	 1.009362e+01
0	 7.703704e+00	 2.962963e+00	 1.007730e+01
0	 7.703704e+00	 3.037037e+00	 1.007906e+01
0	 7.703704e+00	 3.111111e+00	 1.008073e+01
0	 7.703704e+00	 3.185185e+00	 1.008231e+01
0	 7.703704e+00	 3.259259e+00	 1.008379e+01
0	 7.703704e+00	 3.333333e+00	 1.008520e+01
0	 7.777778e+00	 2.962963e+00	 1.006860e+01
0	 7.777778e+00	 3.037037e+00	 1.007042e+01
0	 7.777778e+00	 3.111111e+00	 1.007215e+01
0	 7.777778e+00	 3.185185e+00	 1.007380e+01
0	 7.777778e+00	 3.259259e+00	 1.007536e+01
0	 7.777778e+00	 3.333333e+00	 1.007685e+01
0	 7.407407e+00	 3.333333e+00	 1.011931e+01
0	 7.407407e+00	 3.407407e+00	 1.012029e+01
0	 7.407407e+00	 3.481481e+00	 1.012115e+01
0	 7.407407e+00	 3.555556e+00	 1.012190e+01
0	 7.407407e+00	 3.629630e+00	 1.012252e+01
0	 7.407407e+00	 3.703704e+00	 1.012303e+01
0	 7.481481e+00	 3.333333e+00	 1.011067e+01
0	 7.481481e+00	 3.407407e+00	 1.011173e+01
0	 7.481481e+00	 3.481481e+00	 1.011268e+01
0	 7.481481e+00	 3.555556e+00	 1.011352e+01
0	 7.481481e+00	 3.629630e+00	 1.011424e+01
0	 7.481481e+00	 3.703704e+00	 1.011485e+01
0	 7.555556e+00	 3.333333e+00	 1.010210e+01
0	 7.555556e+00	 3.407407e+00	 1.010325e+01
0	 7.555556e+00	 3.481481e+00	 1.010429e+01
0	 7.555556e+00	 3.555556e+00	 1.010521e+01
0	 7.555556e+00	 3.629630e+00	 1.010603e+01
0	 7.555556e+00	 3.703704e+00	 1.010675e+01
0	 7.629630e+00	 3.333333e+00	 1.009362e+01
0	 7.629630e+00	 3.407407e+00	 1.009485e+01
0	 7.629630e+00	 3.481481e+00	 1.009597e+01
0	 7.629630e+00	 3.555556e+00	 1.009699e+01
0	 7.629630e+00	 3.629630e+00	 1.009790e+01
0	 7.629630e+00	 3.703704e+00	 1.009872e+01
0	 7.703704e+00	 3.333333e+00	 1.008520e+01
0	 7.703704e+00	 3.407407e+00	 1.008651e+01
0	 7.703704e+00	 3.481481e+00	 1.008772e+01
0	 7.703704e+00	 3.555556e+00	 1.008883e+01
0	 7.703704e+00	 3.629630e+00	 1.008984e+01
0	 7.703704e+00	 3.703704e+00	 1.009076e+01
0	 7.777778e+00	 3.333333e+00	 1.007685e+01
0	 7.777778e+00	 3.407407e+00	 1.007824e+01
0	 7.777778e+00	 3.481481e+00	 1.007954e+01
0	 7.777778e+00	 3.555556e+00	 1.008074e+01
0	 7.777778e+00	 3.629630e+00	 1.008185e+01
0	 7.777778e+00	 3.703704e+00	 1.008286e+01
0	 7.407407e+00	 3.703704e+00	 1.012303e+01
0	 7.407407e+00	 3.777778e+00	 1.012342e+01
0	 7.407407e+00	 3.851852e+00	 1.012370e+01
0	 7.407407e+00	 3.925926e+00	 1.012386e+01
0	 7.407407e+00	 4.000000e+00	 1.012391e+01
0	 7.407407e+00	 4.074074e+00	 1.012384e+01
0	 7.481481e+00	 3.703704e+00	 1.011485e+01
0	 7.481481e+00	 3.777778e+00	 1.011535e+01
0	 7.481481e+00	 3.851852e+00	 1.011574e+01
0	 7.481481e+00	 3.925926e+00	 1.011602e+01
0	 7.481481e+00	 4.000000e+00	 1.011618e+01
0	 7.481481e+00	 4.074074e+00	 1.011624e+01
0	 7.555556e+00	 3.703704e+00	 1.010675e+01
0	 7.555556e+00	 3.777778e+00	 1.010736e+01
0	 7.555556e+00	 3.851852e+00	 1.010785e+01
0	 7.555556e+00	 3.925926e+00	 1.010824e+01
0	 7.555556e+00	 4.000000e+00	 1.010852e+01
0	 7.555556e+00	 4.074074e+00	 1.010870e+01
0	 7.629630e+00	 3.703704e+00	 1.009872e+01
0	 7.629630e+00	 3.777778e+00	 1.009943e+01
0	 7.629630e+00	 3.851852e+00	 1.010003e+01
0	 7.629630e+00	 3.925926e+00	 1.010054e+01
0	 7.629630e+00	 4.000000e+00	 1.010093e+01
0	 7.629630e+00	 4.074074e+00	 1.010122e+01
0	 7.703704e+00	 3.703704e+00	 1.009076e+01
0	 7.703704e+00	 3.777778e+00	 1.009157e+01
0	 7.703704e+00	 3.851852e+00	 1.009228e+01
0	 7.703704e+00	 3.925926e+00	 1.009290e+01
0	 7.703704e+00	 4.000000e+00	 1.009341e+01
0	 7.703704e+00	 4.074074e+00	 1.009382e+01
0	 7.777778e+00	 3.703704e+00	 1.008286e+01
0	 7.777778e+00	 3.777778e+00	 1.008378e+01
0	 7.777778e+00	 3.851852e+00	 1.008460e+01
0	 7.777778e+00	 3.925926e+00	 1.008533e+01
0	 7.777778e+00	 4.000000e+00	 1.008595e+01
0	 7.777778e+00	 4.074074e+00	 1.008648e+01
0	 7.407407e+00	 4.074074e+00	 1.012384e+01
0	 7.407407e+00	 4.148148e+00	 1.012366e+01
0	 7.407407e+00	 4.222222e+00	 1.012337e+01
0	 7.407407e+00	 4.296296e+00	 1.012298e+01
0	 7.407407e+00	 4.370370e+00	 1.012248e+01
0	 7.407407e+00	 4.444444e+00	 1.012187e+01
0	 7.481481e+00	 4.074074e+00	 1.011624e+01
0	 7.481481e+00	 4.148148e+00	 1.011618e+01
0	 7.481481e+00	 4.222222e+00	 1.011602e+01
0	 7.481481e+00	 4.296296e+00	 1.011576e+01
0	 7.481481e+00	 4.370370e+00	 1.011540e+01
0	 7.481481e+00	 4.444444e+00	 1.011492e+01
0	 7.555556e+00	 4.074074e+00	 1.010870e+01
0	 7.555556e+00	 4.148148e+00	 1.010877e+01
0	 7.555556e+00	 4.222222e+00	 1.010873e+01
0	 7.555556e+00	 4.296296e+00	 1.010860e+01
0	 7.555556e+00	 4.370370e+00	 1.010837e+01
0	 7.555556e+00	 4.444444e+00	 1.010803e+01
0	 7.629630e+00	 4.074074e+00	 1.010122e+01
0	 7.629630e+00	 4.148148e+00	 1.010141e+01
0	 7.629630e+00	 4.222222e+00	 1.010151e+01
0	 7.629630e+00	 4.296296e+00	 1.010150e+01
0	 7.629630e+00	 4.370370e+00	 1.010140e+01
0	 7.629630e+00	 4.444444e+00	 1.010119e+01
0	 7.703704e+00	 4.074074e+00	 1.009382e+01
0	 7.703704e+00	 4.148148e+00	 1.009413e+01
0	 7.703704e+00	 4.222222e+00	 1.009434e+01
0	 7.703704e+00	 4.296296e+00	 1.009446e+01
0	 7.703704e+00	 4.370370e+00	 1.009449e+01
0	 7.703704e+00	 4.444444e+00	 1.009441e+01
0	 7.777778e+00	 4.074074e+00	 1.008648e+01
0	 7.777778e+00	 4.148148e+00	 1.008691e+01
0	 7.777778e+00	 4.222222e+00	 1.008725e+01
0	 7.777778e+00	 4.296296e+00	 1.008749e+01
0	 7.777778e+00	 4.370370e+00	 1.008764e+01
0	 7.777778e+00	 4.444444e+00	 1.008769e+01
0	 7.407407e+00	 4.444444e+00	 1.012187e+01
0	 7.407407e+00	 4.518519e+00	 1.012116e+01
0	 7.407407e+00	 4.592593e+00	 1.012037e+01
0	 7.407407e+00	 4.666667e+00	 1.011948e+01
0	 7.407407e+00	 4.740741e+00	 1.011849e+01
0	 7.407407e+00	 4.814815e+00	 1.011741e+01
0	 7.481481e+00	 4.444444e+00	 1.011492e+01
0	 7.481481e+00	 4.518519e+00	 1.011435e+01
0	 7.481481e+00	 4.592593e+00	 1.011369e+01
0	 7.481481e+00	 4.666667e+00	 1.011294e+01
0	 7.481481e+00	 4.740741e+00	 1.011210e+01
0	 7.481481e+00	 4.814815e+00	 1.011116e+01
0	 7.555556e+00	 4.444444e+00	 1.010803e+01
0	 7.555556e+00	 4.518519e+00	 1.010759e+01
0	 7.555556e+00	 4.592593e+00	 1.010707e+01
0	 7.555556e+00	 4.666667e+00	 1.010646e+01
0	 7.555556e+00	 4.740741e+00	 1.010576e+01
0	 7.555556e+00	 4.814815e+00	 1.010496e+01
0	 7.629630e+00	 4.444444e+00	 1.010119e+01
0	 7.629630e+00	 4.518519e+00	 1.010089e+01
0	 7.629630e+00	 4.592593e+00	 1.010050e+01
0	 7.629630e+00	 4.666667e+00	 1.010002e+01
0	 7.629630e+00	 4.740741e+00	 1.009946e+01
0	 7.629630e+00	 4.814815e+00	 1.009880e+01
0	 7.703704e+00	 4.444444e+00	 1.009441e+01
0	 7.703704e+00	 4.518519e+00	 1.009424e+01
0	 7.703704e+00	 4.592593e+00	 1.009398e+01
0	 7.703704e+00	 4.666667e+00	 1.009364e+01
0	 7.703704e+00	 4.740741e+00	 1.009321e+01
0	 7.703704e+00	 4.814815e+00	 1.009269e+01
0	 7.777778e+00	 4.444444e+00	 1.008769e+01
0	 7.777778e+00	 4.518519e+00	 1.008765e+01
0	 7.777778e+00	 4.592593e+00	 1.008753e+01
0	 7.777778e+00	 4.666667e+00	 1.008732e+01
0	 7.777778e+00	 4.740741e+00	 1.008702e+01
0	 7.777778e+00	 4.814815e+00	 1.008664e+01
0	 7.407407e+00	 4.814815e+00	 1.011741e+01
0	 7.407407e+00	 4.888889e+00	 1.011624e+01
0	 7.407407e+00	 4.962963e+00	 1.011500e+01
0	 7.407407e+00	 5.037037e+00	 1.011368e+01
0	 7.407407e+00	 5.111111e+00	 1.011229e+01
0	 7.407407e+00	 5.185185e+00	 1.011081e+01
0	 7.481481e+00	 4.814815e+00	 1.011116e+01
0	 7.481481e+00	 4.888889e+00	 1.011014e+01
0	 7.481481e+00	 4.962963e+00	 1.010904e+01
0	 7.481481e+00	 5.037037e+00	 1.010787e+01
0	 7.481481e+00	 5.111111e+00	 1.010662e+01
0	 7.481481e+00	 5.185185e+00	 1.010529e+01
0	 7.555556e+00	 4.814815e+00	 1.010496e+01
0	 7.555556e+00	 4.888889e+00	 1.010408e+01
0	 7.555556e+00	 4.962963e+00	 1.010312e+01
0	 7.555556e+00	 5.037037e+00	 1.010209e+01
0	 7.555556e+00	 5.111111e+00	 1.010098e+01
0	 7.555556e+00	 5.185185e+00	 1.009980e+01
0	 7.629630e+00	 4.814815e+00	 1.009880e+01
0	 7.629630e+00	 4.888889e+00	 1.009806e+01
0	 7.629630e+00	 4.962963e+00	 1.009724e+01
0	 7.629630e+00	 5.037037e+00	 1.009635e+01
0	 7.629630e+00	 5.111111e+00	 1.009538e+01
0	 7.629630e+00	 5.185185e+00	 1.009434e+01
0	 7.703704e+00	 4.814815e+00	 1.009269e+01
0	 7.703704e+00	 4.888889e+00	 1.009209e+01
0	 7.703704e+00	 4.962963e+00	 1.009141e+01
0	 7.703704e+00	 5.037037e+00	 1.009066e+01
0	 7.703704e+00	 5.111111e+00	 1.008983e+01
0	 7.703704e+00	 5.185185e+00	 1.008892e+01
0	 7.777778e+00	 4.814815e+00	 1.008664e+01
0	 7.777778e+00	 4.888889e+00	 1.008617e+01
0	 7.777778e+00	 4.962963e+00	 1.008563e+01
0	 7.777778e+00	 5.037037e+00	 1.008501e+01
0	 7.777778e+00	 5.111111e+00	 1.008432e+01
0	 7.777778e+00	 5.185185e+00	 1.008355e+01
0	 7.407407e+00	 5.185185e+00	 1.011081e+01
0	 7.407407e+00	 5.259259e+00	 1.010927e+01
0	 7.407407e+00	 5.333333e+00	 1.010767e+01
0	 7.407407e+00	 5.407407e+00	 1.010601e+01
0	 7.407407e+00	 5.481481e+00	 1.010429e+01
0	 7.407407e+00	 5.555556e+00	 1.010250e+01
0	 7.481481e+00	 5.185185e+00	 1.010529e+01
0	 7.481481e+00	 5.259259e+00	 1.010389e+01
0	 7.481481e+00	 5.333333e+00	 1.010243e+01
0	 7.481481e+00	 5.407407e+00	 1.010092e+01
0	 7.481481e+00	 5.481481e+00	 1.009934e+01
0	 7.481481e+00	 5.555556e+00	 1.009769e+01
0	 7.555556e+00	 5.185185e+00	 1.009980e+01
0	 7.555556e+00	 5.259259e+00	 1.009854e+01
0	 7.555556e+00	 5.333333e+00	 1.009722e+01
0	 7.555556e+00	 5.407407e+00	 1.009585e+01
0	 7.555556e+00	 5.481481e+00	 1.009441e+01
0	 7.555556e+00	 5.555556e+00	 1.009290e+01
0	 7.629630e+00	 5.185185e+00	 1.009434e+01
0	 7.629630e+00	 5.259259e+00	 1.009322e+01
0	 7.629630e+00	 5.333333e+00	 1.009204e+01
0	 7.629630e+00	 5.407407e+00	 1.009081e+01
0	 7.629630e+00	 5.481481e+00	 1.008951e+01
0	 7.629630e+00	 5.555556e+00	 1.008814e+01
0	 7.703704e+00	 5.185185e+00	 1.008892e+01
0	 7.703704e+00	 5.259259e+00	 1.008794e+01
0	 7.703704e+00	 5.333333e+00	 1.008690e+01
0	 7.703704e+00	 5.407407e+00	 1.008580e+01
0	 7.703704e+00	 5.481481e+00	 1.008464e+01
0	 7.703704e+00	 5.555556e+00	 1.008341e+01
0	 7.777778e+00	 5.185185e+00	 1.008355e+01
0	 7.777778e+00	 5.259259e+00	 1.008271e+01
0	 7.777778e+00	 5.333333e+00	 1.008181e+01
0	 7.777778e+00	 5.407407e+00	 1.008084e+01
0	 7.777778e+00	 5.481481e+00	 1.007981e+01
0	 7.777778e+00	 5.555556e+00	 1.007872e+01
0	 7.407407e+00	 5.555556e+00	 1.010250e+01
0	 7.407407e+00	 5.629630e+00	 1.010066e+01
0	 7.407407e+00	 5.703704e+00	 1.009878e+01
0	 7.407407e+00	 5.777778e+00	 1.009686e+01
0	 7.407407e+00	 5.851852e+00	 1.009489e+01
0	 7.407407e+00	 5.925926e+00	 1.009288e+01
0	 7.481481e+00	 5.555556e+00	 1.009769e+01
0	 7.481481e+00	 5.629630e+00	 1.009599e+01
0	 7.481481e+00	 5.703704e+00	 1.009425e+01
0	 7.481481e+00	 5.777778e+00	 1.009247e+01
0	 7.481481e+00	 5.851852e+00	 1.009064e+01
0	 7.481481e+00	 5.925926e+00	 1.008876e+01
0	 7.555556e+00	 5.555556e+00	 1.009290e+01
0	 7.555556e+00	 5.629630e+00	 1.009134e+01
0	 7.555556e+00	 5.703704e+00	 1.008974e+01
0	 7.555556e+00	 5.777778e+00	 1.008809e+01
0	 7.555556e+00	 5.851852e+00	 1.008640e+01
0	 7.555556e+00	 5.925926e+00	 1.008465e+01
0	 7.629630e+00	 5.555556e+00	 1.008814e+01
0	 7.629630e+00	 5.629630e+00	 1.008672e+01
0	 7.629630e+00	 5.703704e+00	 1.008525e+01
0	 7.629630e+00	 5.777778e+00	 1.008374e+01
0	 7.629630e+00	 5.851852e+00	 1.008218e+01
0	 7.629630e+00	 5.925926e+00	 1.008056e+01
0	 7.703704e+00	 5.555556e+00	 1.008341e+01
0	 7.703704e+00	 5.629630e+00	 1.008212e+01
0	 7.703704e+00	 5.703704e+00	 1.008079e+01
0	 7.703704e+00	 5.777778e+00	 1.007941e+01
0	 7.703704e+00	 5.851852e+00	 1.007798e+01
0	 7.703704e+00	 5.925926e+00	 1.007650e+01
0	 7.777778e+00	 5.555556e+00	 1.007872e+01
0	 7.777778e+00	 5.629630e+00	 1.007757e+01
0	 7.777778e+00	 5.703704e+00	 1.007637e+01
0	 7.777778e+00	 5.777778e+00	 1.007512e+01
0	 7.777778e+00	 5.851852e+00	 1.007382e+01
0	 7.777778e+00	 5.925926e+00	 1.007247e+01
0	 7.407407e+00	 5.925926e+00	 1.009288e+01
0	 7.407407e+00	 6.000000e+00	 1.009083e+01
0	 7.407407e+00	 6.074074e+00	 1.008875e+01
0	 7.407407e+00	 6.148148e+00	 1.008665e+01
0	 7.407407e+00	 6.222222e+00	 1.008452e+01
0	 7.407407e+00	 6.296296e+00	 1.008235e+01
0	 7.481481e+00	 5.925926e+00	 1.008876e+01
0	 7.481481e+00	 6.000000e+00	 1.008684e+01
0	 7.481481e+00	 6.074074e+00	 1.008490e+01
0	 7.481481e+00	 6.148148e+00	 1.008293e+01
0	 7.481481e+00	 6.222222e+00	 1.008093e+01
0	 7.481481e+00	 6.296296e+00	 1.007889e+01
0	 7.555556e+00	 5.925926e+00	 1.008465e+01
0	 7.555556e+00	 6.000000e+00	 1.008287e+01
0	 7.555556e+00	 6.074074e+00	 1.008106e+01
0	 7.555556e+00	 6.148148e+00	 1.007921e+01
0	 7.555556e+00	 6.222222e+00	 1.007734e+01
0	 7.555556e+00	 6.296296e+00	 1.007542e+01
0	 7.629630e+00	 5.925926e+00	 1.008056e+01
0	 7.629630e+00	 6.000000e+00	 1.007891e+01
0	 7.629630e+00	 6.074074e+00	 1.007723e+01
0	 7.629630e+00	 6.148148e+00	 1.007551e+01
0	 7.629630e+00	 6.222222e+00	 1.007376e+01
0	 7.629630e+00	 6.296296e+00	 1.007197e+01
0	 7.703704e+00	 5.925926e+00	 1.007650e+01
0	 7.703704e+00	 6.000000e+00	 1.007498e+01
0	 7.703704e+00	 6.074074e+00	 1.007342e+01
0	 7.703704e+00	 6.148148e+00	 1.007183e+01
0	 7.703704e+00	 6.222222e+00	 1.007020e+01
0	 7.703704e+00	 6.296296e+00	 1.006854e+01
0	 7.777778e+00	 5.925926e+00	 1.007247e+01
0	 7.777778e+00	 6.000000e+00	 1.007107e+01
0	 7.777778e+00	 6.074074e+00	 1.006964e+01
0	 7.777778e+00	 6.148148e+00	 1.006817e+01
0	 7.777778e+00	 6.222222e+00	 1.006667e+01
0	 7.777778e+00	 6.296296e+00	 1.006513e+01
0	 7.407407e+00	 6.296296e+00	 1.008235e+01
0	 7.407407e+00	 6.370370e+00	 1.008017e+01
0	 7.407407e+00	 6.444444e+00	 1.007797e+01
0	 7.407407e+00	 6.518519e+00	 1.007576e+01
0	 7.407407e+00	 6.592593e+00	 1.007354e+01
0	 7.407407e+00	 6.666667e+00	 1.007129e+01
0	 7.481481e+00	 6.296296e+00	 1.007889e+01
0	 7.481481e+00	 6.370370e+00	 1.007683e+01
0	 7.481481e+00	 6.444444e+00	 1.007475e+01
0	 7.481481e+00	 6.518519e+00	 1.007266e+01
0	 7.481481e+00	 6.592593e+00	 1.007056e+01
0	 7.481481e+00	 6.666667e+00	 1.006843e+01
0	 7.555556e+00	 6.296296e+00	 1.007542e+01
0	 7.555556e+00	 6.370370e+00	 1.007349e+01
0	 7.555556e+00	 6.444444e+00	 1.007153e+01
0	 7.555556e+00	 6.518519e+00	 1.006956e+01
0	 7.555556e+00	 6.592593e+00	 1.006758e+01
0	 7.555556e+00	 6.666667e+00	 1.006556e+01
0	 7.629630e+00	 6.296296e+00	 1.007197e+01
0	 7.629630e+00	 6.370370e+00	 1.007016e+01
0	 7.629630e+00	 6.444444e+00	 1.006832e+01
0	 7.629630e+00	 6.518519e+00	 1.006647e+01
0	 7.629630e+00	 6.592593e+00	 1.006460e+01
0	 7.629630e+00	 6.666667e+00	 1.006270e+01
0	 7.703704e+00	 6.296296e+00	 1.006854e+01
0	 7.703704e+00	 6.370370e+00	 1.006684e+01
0	 7.703704e+00	 6.444444e+00	 1.006513e+01
0	 7.703704e+00	 6.518519e+00	 1.006340e+01
0	 7.703704e+00	 6.592593e+00	 1.006164e+01
0	 7.703704e+00	 6.666667e+00	 1.005985e+01
0	 7.777778e+00	 6.296296e+00	 1.006513e+01
0	 7.777778e+00	 6.370370e+00	 1.006355e+01
0	 7.777778e+00	 6.444444e+00	 1.006196e+01
0	 7.777778e+00	 6.518519e+00	 1.006034e+01
0	 7.777778e+00	 6.592593e+00	 1.005870e+01
0	 7.777778e+00	 6.666667e+00	 1.005702e+01
0	 7.407407e+00	 6.666667e+00	 1.007129e+01
0	 7.407407e+00	 6.740741e+00	 1.006904e+01
0	 7.407407e+00	 6.814815e+00	 1.006679e+01
0	 7.407407e+00	 6.888889e+00	 1.006455e+01
0	 7.407407e+00	 6.962963e+00	 1.006229e+01
0	 7.407407e+00	 7.037037e+00	 1.006004e+01
0	 7.481481e+00	 6.666667e+00	 1.006843e+01
0	 7.481481e+00	 6.740741e+00	 1.006629e+01
0	 7.481481e+00	 6.814815e+00	 1.006416e+01
0	 7.481481e+00	 6.888889e+00	 1.006202e+01
0	 7.481481e+00	 6.962963e+00	 1.005987e+01
0	 7.481481e+00	 7.037037e+00	 1.005772e+01
0	 7.555556e+00	 6.666667e+00	 1.006556e+01
0	 7.555556e+00	 6.740741e+00	 1.006354e+01
0	 7.555556e+00	 6.814815e+00	 1.006151e+01
0	 7.555556e+00	 6.888889e+00	 1.005948e+01
0	 7.555556e+00	 6.962963e+00	 1.005745e+01
0	 7.555556e+00	 7.037037e+00	 1.005540e+01
0	 7.629630e+00	 6.666667e+00	 1.006270e+01
0	 7.629630e+00	 6.740741e+00	 1.006079e+01
0	 7.629630e+00	 6.814815e+00	 1.005888e+01
0	 7.629630e+00	 6.888889e+00	 1.005696e+01
0	 7.629630e+00	 6.962963e+00	 1.005503e+01
0	 7.629630e+00	 7.037037e+00	 1.005308e+01
0	 7.703704e+00	 6.666667e+00	 1.005985e+01
0	 7.703704e+00	 6.740741e+00	 1.005806e+01
0	 7.703704e+00	 6.814815e+00	 1.005625e+01
0	 7.703704e+00	 6.888889e+00	 1.005444e+01
0	 7.703704e+00	 6.962963e+00	 1.005261e+01
0	 7.703704e+00	 7.037037e+00	 1.005077e+01
0	 7.777778e+00	 6.666667e+00	 1.005702e+01
0	 7.777778e+00	 6.740741e+00	 1.005534e+01
0	 7.777778e+00	 6.814815e+00	 1.005364e+01
0	 7.777778e+00	 6.888889e+00	 1.005193e+01
0	 7.777778e+00	 6.962963e+00	 1.005021e+01
0	 7.777778e+00	 7.037037e+00	 1.004848e+01
0	 7.407407e+00	 7.037037e+00	 1.006004e+01
0	 7.407407e+00	 7.111111e+00	 1.005778e+01
0	 7.407407e+00	 7.185185e+00	 1.005555e+01
0	 7.407407e+00	 7.259259e+00	 1.005332e+01
0	 7.407407e+00	 7.333333e+00	 1.005111e+01
0	 7.407407e+00	 7.407407e+00	 1.004890e+01
0	 7.481481e+00	 7.037037e+00	 1.005772e+01
0	 7.481481e+00	 7.111111e+00	 1.005557e+01
0	 7.481481e+00	 7.185185e+00	 1.005344e+01
0	 7.481481e+00	 7.259259e+00	 1.005131e+01
0	 7.481481e+00	 7.333333e+00	 1.004919e+01
0	 7.481481e+00	 7.407407e+00	 1.004707e+01
0	 7.555556e+00	 7.037037e+00	 1.005540e+01
0	 7.555556e+00	 7.111111e+00	 1.005336e+01
0	 7.555556e+00	 7.185185e+00	 1.005132e+01
0	 7.555556e+00	 7.259259e+00	 1.004929e+01
0	 7.555556e+00	 7.333333e+00	 1.004727e+01
0	 7.555556e+00	 7.407407e+00	 1.004525e+01
0	 7.629630e+00	 7.037037e+00	 1.005308e+01
0	 7.629630e+00	 7.111111e+00	 1.005114e+01
0	 7.629630e+00	 7.185185e+00	 1.004920e+01
0	 7.629630e+00	 7.259259e+00	 1.004727e+01
0	 7.629630e+00	 7.333333e+00	 1.004535e+01
0	 7.629630e+00	 7.407407e+00	 1.004342e+01
0	 7.703704e+00	 7.037037e+00	 1.005077e+01
0	 7.703704e+00	 7.111111e+00	 1.004893e+01
0	 7.703704e+00	 7.185185e+00	 1.004709e+01
0	 7.703704e+00	 7.259259e+00	 1.004526e+01
0	 7.703704e+00	 7.333333e+00	 1.004343e+01
0	 7.703704e+00	 7.407407e+00	 1.004159e+01
0	 7.777778e+00	 7.037037e+00	 1.004848e+01
0	 7.777778e+00	 7.111111e+00	 1.004673e+01
0	 7.777778e+00	 7.185185e+00	 1.004500e+01
0	 7.777778e+00	 7.259259e+00	 1.004326e+01
0	 7.777778e+00	 7.333333e+00	 1.004152e+01
0	 7.777778e+00	 7.407407e+00	 1.003978e+01
0	 7.407407e+00	 7.407407e+00	 1.004890e+01
0	 7.407407e+00	 7.481481e+00	 1.004670e+01
0	 7.407407e+00	 7.555556e+00	 1.004454e+01
0	 7.407407e+00	 7.629630e+00	 1.004239e+01
0	 7.407407e+00	 7.703704e+00	 1.004027e+01
0	 7.407407e+00	 7.777778e+00	 1.003816e+01
0	 7.481481e+00	 7.407407e+00	 1.004707e+01
0	 7.481481e+00	 7.481481e+00	 1.004497e+01
0	 7.481481e+00	 7.555556e+00	 1.004290e+01
0	 7.481481e+00	 7.629630e+00	 1.004084e+01
0	 7.481481e+00	 7.703704e+00	 1.003880e+01
0	 7.481481e+00	 7.777778e+00	 1.003678e+01
0	 7.555556e+00	 7.407407e+00	 1.004525e+01
0	 7.555556e+00	 7.481481e+00	 1.004324e+01
0	 7.555556e+00	 7.555556e+00	 1.004125e+01
0	 7.555556e+00	 7.629630e+00	 1.003928e+01
0	 7.555556e+00	 7.703704e+00	 1.003733e+01
0	 7.555556e+00	 7.777778e+00	 1.003539e+01
0	 7.629630e+00	 7.407407e+00	 1.004342e+01
0	 7.629630e+00	 7.481481e+00	 1.004150e+01
0	 7.629630e+00	 7.555556e+00	 1.003960e+01
0	 7.629630e+00	 7.629630e+00	 1.003772e+01
0	 7.629630e+00	 7.703704e+00	 1.003586e+01
0	 7.629630e+00	 7.777778e+00	 1.003400e+01
0	 7.703704e+00	 7.407407e+00	 1.004159e+01
0	 7.703704e+00	 7.481481e+00	 1.003977e+01
0	 7.703704e+00	 7.555556e+00	 1.003796e+01
0	 7.703704e+00	 7.629630e+00	 1.003617e+01
0	 7.703704e+00	 7.703704e+00	 1.003438e+01
0	 7.703704e+00	 7.777778e+00	 1.003261e+01
0	 7.777778e+00	 7.407407e+00	 1.003978e+01
0	 7.777778e+00	 7.481481e+00	 1.003805e+01
0	 7.777778e+00	 7.555556e+00	 1.003632e+01
0	 7.777778e+00	 7.629630e+00	 1.003462e+01
0	 7.777778e+00	 7.703704e+00	 1.003292e+01
0	 7.777778e+00	 7.777778e+00	 1.003123e+01
0	 7.407407e+00	 7.777778e+00	 1.003816e+01
0	 7.407407e+00	 7.851852e+00	 1.003609e+01
0	 7.407407e+00	 7.925926e+00	 1.003405e+01
0	 7.407407e+00	 8.000000e+00	 1.003204e+01
0	 7.407407e+00	 8.074074e+00	 1.003007e+01
0	 7.407407e+00	 8.148148e+00	 1.002813e+01
0	 7.481481e+00	 7.777778e+00	 1.003678e+01
0	 7.481481e+00	 7.851852e+00	 1.003478e+01
0	 7.481481e+00	 7.925926e+00	 1.003282e+01
0	 7.481481e+00	 8.000000e+00	 1.003090e+01
0	 7.481481e+00	 8.074074e+00	 1.002900e+01
0	 7.481481e+00	 8.148148e+00	 1.002713e+01
0	 7.555556e+00	 7.777778e+00	 1.003539e+01
0	 7.555556e+00	 7.851852e+00	 1.003348e+01
0	 7.555556e+00	 7.925926e+00	 1.003160e+01
0	 7.555556e+00	 8.000000e+00	 1.002975e+01
0	 7.555556e+00	 8.074074e+00	 1.002792e+01
0	 7.555556e+00	 8.148148e+00	 1.002613e+01
0	 7.629630e+00	 7.777778e+00	 1.003400e+01
0	 7.629630e+00	 7.851852e+00	 1.003217e+01
0	 7.629630e+00	 7.925926e+00	 1.003037e+01
0	 7.629630e+00	 8.000000e+00	 1.002859e+01
0	 7.629630e+00	 8.074074e+00	 1.002685e+01
0	 7.629630e+00	 8.148148e+00	 1.002512e+01
0	 7.703704e+00	 7.777778e+00	 1.003261e+01
0	 7.703704e+00	 7.851852e+00	 1.003086e+01
0	 7.703704e+00	 7.925926e+00	 1.002914e+01
0	 7.703704e+00	 8.000000e+00	 1.002744e+01
0	 7.703704e+00	 8.074074e+00	 1.002577e+01
0	 7.703704e+00	 8.148148e+00	 1.002412e+01
0	 7.777778e+00	 7.777778e+00	 1.003123e+01
0	 7.777778e+00	 7.851852e+00	 1.002956e+01
0	 7.777778e+00	 7.925926e+00	 1.002792e+01
0	 7.777778e+00	 8.000000e+00	 1.002630e+01
0	 7.777778e+00	 8.074074e+00	 1.002470e+01
0	 7.777778e+00	 8.148148e+00	 1.002312e+01
0	 7.407407e+00	 8.148148e+00	 1.002813e+01
0	 7.407407e+00	 8.222222e+00	 1.002623e+01
0	 7.407407e+00	 8.296296e+00	 1.002438e+01
0	 7.407407e+00	 8.370370e+00	 1.002257e+01
0	 7.407407e+00	 8.444444e+00	 1.002082e+01
0	 7.407407e+00	 8.518519e+00	 1.001910e+01
0	 7.481481e+00	 8.148148e+00	 1.002713e+01
0	 7.481481e+00	 8.222222e+00	 1.002530e+01
0	 7.481481e+00	 8.296296e+00	 1.002352e+01
0	 7.481481e+00	 8.370370e+00	 1.002178e+01
0	 7.481481e+00	 8.444444e+00	 1.002008e+01
0	 7.481481e+00	 8.518519e+00	 1.001843e+01
0	 7.555556e+00	 8.148148e+00	 1.002613e+01
0	 7.555556e+00	 8.222222e+00	 1.002437e+01
0	 7.555556e+00	 8.296296e+00	 1.002265e+01
0	 7.555556e+00	 8.370370e+00	 1.002098e+01
0	 7.555556e+00	 8.444444e+00	 1.001935e+01
0	 7.555556e+00	 8.518519e+00	 1.001775e+01
0	 7.629630e+00	 8.148148e+00	 1.002512e+01
0	 7.629630e+00	 8.222222e+00	 1.002343e+01
0	 7.629630e+00	 8.296296e+00	 1.002178e+01
0	 7.629630e+00	 8.370370e+00	 1.002018e+01
0	 7.629630e+00	 8.444444e+00	 1.001861e+01
0	 7.629630e+00	 8.518519e+00	 1.001708e+01
0	 7.703704e+00	 8.148148e+00	 1.002412e+01
0	 7.703704e+00	 8.222222e+00	 1.002250e+01
0	 7.703704e+00	 8.296296e+00	 1.002092e+01
0	 7.703704e+00	 8.370370e+00	 1.001938e+01
0	 7.703704e+00	 8.444444e+00	 1.001788e+01
0	 7.703704e+00	 8.518519e+00	 1.001640e+01
0	 7.777778e+00	 8.148148e+00	 1.002312e+01
0	 7.777778e+00	 8.222222e+00	 1.002157e+01
0	 7.777778e+00	 8.296296e+00	 1.002006e+01
0	 7.777778e+00	 8.370370e+00	 1.001858e+01
0	 7.777778e+00	 8.444444e+00	 1.001714e+01
0	 7.777778e+00	 8.518519e+00	 1.001573e+01
0	 7.407407e+00	 8.518519e+00	 1.001910e+01
0	 7.407407e+00	 8.592593e+00	 1.001743e+01
0	 7.407407e+00	 8.666667e+00	 1.001583e+01
0	 7.407407e+00	 8.740741e+00	 1.001429e+01
0	 7.407407e+00	 8.814815e+00	 1.001281e+01
0	 7.407407e+00	 8.888889e+00	 1.001139e+01
0	 7.481481e+00	 8.518519e+00	 1.001843e+01
0	 7.481481e+00	 8.592593e+00	 1.001682e+01
0	 7.481481e+00	 8.666667e+00	 1.001528e+01
0	 7.481481e+00	 8.740741e+00	 1.001380e+01
0	 7.481481e+00	 8.814815e+00	 1.001237e+01
0	 7.481481e+00	 8.888889e+00	 1.001099e+01
0	 7.555556e+00	 8.518519e+00	 1.001775e+01
0	 7.555556e+00	 8.592593e+00	 1.001621e+01
0	 7.555556e+00	 8.666667e+00	 1.001472e+01
0	 7.555556e+00	 8.740741e+00	 1.001329e+01
0	 7.555556e+00	 8.814815e+00	 1.001192e+01
0	 7.555556e+00	 8.888889e+00	 1.001059e+01
0	 7.629630e+00	 8.518519e+00	 1.001708e+01
0	 7.629630e+00	 8.592593e+00	 1.001559e+01
0	 7.629630e+00	 8.666667e+00	 1.001416e+01
0	 7.629630e+00	 8.740741e+00	 1.001279e+01
0	 7.629630e+00	 8.814815e+00	 1.001147e+01
0	 7.629630e+00	 8.888889e+00	 1.001019e+01
0	 7.703704e+00	 8.518519e+00	 1.001640e+01
0	 7.703704e+00	 8.592593e+00	 1.001498e+01
0	 7.703704e+00	 8.666667e+00	 1.001361e+01
0	 7.703704e+00	 8.740741e+00	 1.001229e+01
0	 7.703704e+00	 8.814815e+00	 1.001102e+01
0	 7.703704e+00	 8.888889e+00	 1.000979e+01
0	 7.777778e+00	 8.518519e+00	 1.001573e+01
0	 7.777778e+00	 8.592593e+00	 1.001437e+01
0	 7.777778e+00	 8.666667e+00	 1.001305e+01
0	 7.777778e+00	 8.740741e+00	 1.001179e+01
0	 7.777778e+00	 8.814815e+00	 1.001057e+01
0	 7.777778e+00	 8.888889e+00	 1.000939e+01
0	 7.407407e+00	 8.888889e+00	 1.001139e+01
0	 7.407407e+00	 8.962963e+00	 1.001003e+01
0	 7.407407e+00	 9.037037e+00	 1.000875e+01
0	 7.407407e+00	 9.111111e+00	 1.000755e+01
0	 7.407407e+00	 9.185185e+00	 1.000642e+01
0	 7.407407e+00	 9.259259e+00	 1.000536e+01
0	 7.481481e+00	 8.888889e+00	 1.001099e+01
0	 7.481481e+00	 8.962963e+00	 1.000968e+01
0	 7.481481e+00	 9.037037e+00	 1.000845e+01
0	 7.481481e+00	 9.111111e+00	 1.000729e+01
0	 7.481481e+00	 9.185185e+00	 1.000620e+01
0	 7.481481e+00	 9.259259e+00	 1.000517e+01
0	 7.555556e+00	 8.888889e+00	 1.001059e+01
0	 7.555556e+00	 8.962963e+00	 1.000933e+01
0	 7.555556e+00	 9.037037e+00	 1.000814e+01
0	 7.555556e+00	 9.111111e+00	 1.000702e+01
0	 7.555556e+00	 9.185185e+00	 1.000597e+01
0	 7.555556e+00	 9.259259e+00	 1.000498e+01
0	 7.629630e+00	 8.888889e+00	 1.001019e+01
0	 7.629630e+00	 8.962963e+00	 1.000897e+01
0	 7.629630e+00	 9.037037e+00	 1.000783e+01
0	 7.629630e+00	 9.111111e+00	 1.000675e+01
0	 7.629630e+00	 9.185185e+00	 1.000574e+01
0	 7.629630e+00	 9.259259e+00	 1.000479e+01
0	 7.703704e+00	 8.888889e+00	 1.000979e+01
0	 7.703704e+00	 8.962963e+00	 1.000862e+01
0	 7.703704e+00	 9.037037e+00	 1.000752e+01
0	 7.703704e+00	 9.111111e+00	 1.000649e+01
0	 7.703704e+00	 9.185185e+00	 1.000552e+01
0	 7.703704e+00	 9.259259e+00	 1.000460e+01
0	 7.777778e+00	 8.888889e+00	 1.000939e+01
0	 7.777778e+00	 8.962963e+00	 1.000827e+01
0	 7.777778e+00	 9.037037e+00	 1.000722e+01
0	 7.777778e+00	 9.111111e+00	 1.000623e+01
0	 7.777778e+00	 9.185185e+00	 1.000529e+01
0	 7.777778e+00	 9.259259e+00	 1.000442e+01
0	 7.407407e+00	 9.259259e+00	 1.000536e+01
0	 7.407407e+00	 9.333333e+00	 1.000438e+01
0	 7.407407e+00	 9.407407e+00	 1.000351e+01
0	 7.407407e+00	 9.481481e+00	 1.000272e+01
0	 7.407407e+00	 9.555556e+00	 1.000203e+01
0	 7.407407e+00	 9.629630e+00	 1.000142e+01
0	 7.481481e+00	 9.259259e+00	 1.000517e+01
0	 7.481481e+00	 9.333333e+00	 1.000423e+01
0	 7.481481e+00	 9.407407e+00	 1.000338e+01
0	 7.481481e+00	 9.481481e+00	 1.000263e+01
0	 7.481481e+00	 9.555556e+00	 1.000196e+01
0	 7.481481e+00	 9.629630e+00	 1.000137e+01
0	 7.555556e+00	 9.259259e+00	 1.000498e+01
0	 7.555556e+00	 9.333333e+00	 1.000407e+01
0	 7.555556e+00	 9.407407e+00	 1.000326e+01
0	 7.555556e+00	 9.481481e+00	 1.000253e+01
0	 7.555556e+00	 9.555556e+00	 1.000188e+01
0	 7.555556e+00	 9.629630e+00	 1.000132e+01
0	 7.629630e+00	 9.259259e+00	 1.000479e+01
0	 7.629630e+00	 9.333333e+00	 1.000392e+01
0	 7.629630e+00	 9.407407e+00	 1.000313e+01
0	 7.629630e+00	 9.481481e+00	 1.000243e+01
0	 7.629630e+00	 9.555556e+00	 1.000181e+01
0	 7.629630e+00	 9.629630e+00	 1.000127e+01
0	 7.703704e+00	 9.259259e+00	 1.000460e+01
0	 7.703704e+00	 9.333333e+00	 1.000376e+01
0	 7.703704e+00	 9.407407e+00	 1.000301e+01
0	 7.703704e+00	 9.481481e+00	 1.000233e+01
0	 7.703704e+00	 9.555556e+00	 1.000174e+01
0	 7.703704e+00	 9.629630e+00	 1.000122e+01
0	 7.777778e+00	 9.259259e+00	 1.000442e+01
0	 7.777778e+00	 9.333333e+00	 1.000361e+01
0	 7.777778e+00	 9.407407e+00	 1.000289e+01
0	 7.777778e+00	 9.481481e+00	 1.000224e+01
0	 7.777778e+00	 9.555556e+00	 1.000167e+01
0	 7.777778e+00	 9.629630e+00	 1.000117e+01
0	 7.407407e+00	 9.629630e+00	 1.000142e+01
0	 7.407407e+00	 9.703704e+00	 1.000091e+01
0	 7.407407e+00	 9.777778e+00	 1.000052e+01
0	 7.407407e+00	 9.851852e+00	 1.000024e+01
0	 7.407407e+00	 9.925926e+00	 1.000006e+01
0	 7.407407e+00	 1.000000e+01	 9.999990e+00
0	 7.481481e+00	 9.629630e+00	 1.000137e+01
0	 7.481481e+00	 9.703704e+00	 1.000088e+01
0	 7.481481e+00	 9.777778e+00	 1.000050e+01
0	 7.481481e+00	 9.851852e+00	 1.000023e+01
0	 7.481481e+00	 9.925926e+00	 1.000006e+01
0	 7.481481e+00	 1.000000e+01	 9.999993e+00
0	 7.555556e+00	 9.629630e+00	 1.000132e+01
0	 7.555556e+00	 9.703704e+00	 1.000085e+01
0	 7.555556e+00	 9.777778e+00	 1.000048e+01
0	 7.555556e+00	 9.851852e+00	 1.000022e+01
0	 7.555556e+00	 9.925926e+00	 1.000006e+01
0	 7.555556e+00	 1.000000e+01	 9.999992e+00
0	 7.629630e+00	 9.629630e+00	 1.000127e+01
0	 7.629630e+00	 9.703704e+00	 1.000081e+01
0	 7.629630e+00	 9.777778e+00	 1.000046e+01
0	 7.629630e+00	 9.851852e+00	 1.000021e+01
0	 7.629630e+00	 9.925926e+00	 1.000005e+01
0	 7.629630e+00	 1.000000e+01	 9.999990e+00
0	 7.703704e+00	 9.629630e+00	 1.000122e+01
0	 7.703704e+00	 9.703704e+00	 1.000078e+01
0	 7.703704e+00	 9.777778e+00	 1.000044e+01
0	 7.703704e+00	 9.851852e+00	 1.000020e+01
0	 7.703704e+00	 9.925926e+00	 1.000005e+01
0	 7.703704e+00	 1.000000e+01	 9.999989e+00
0	 7.777778e+00	 9.629630e+00	 1.000117e+01
0	 7.777778e+00	 9.703704e+00	 1.000075e+01
0	 7.777778e+00	 9.777778e+00	 1.000043e+01
0	 7.777778e+00	 9.851852e+00	 1.000019e+01
0	 7.777778e+00	 9.925926e+00	 1.000005e+01
0	 7.777778e+00	 1.000000e+01	 9.999992e+00
0	 7.777778e+00	 0.000000e+00	 9.998019e+00
0	 7.777778e+00	 7.407407e-02	 9.998094e+00
0	 7.777778e+00	 1.481481e-01	 9.998311e+00
0	 7.777778e+00	 2.222222e-01	 9.998670e+00
0	 7.777778e+00	 2.962963e-01	 9.999174e+00
0	 7.777778e+00	 3.703704e-01	 9.999823e+00
0	 7.851852e+00	 0.000000e+00	 9.989360e+00
0	 7.851852e+00	 7.407407e-02	 9.989435e+00
0	 7.851852e+00	 1.481481e-01	 9.989649e+00
0	 7.851852e+00	 2.222222e-01	 9.990004e+00
0	 7.851852e+00	 2.962963e-01	 9.990500e+00
0	 7.851852e+00	 3.703704e-01	 9.991138e+00
0	 7.925926e+00	 0.000000e+00	 9.980608e+00
0	 7.925926e+00	 7.407407e-02	 9.980683e+00
0	 7.925926e+00	 1.481481e-01	 9.980894e+00
0	 7.925926e+00	 2.222222e-01	 9.981243e+00
0	 7.925926e+00	 2.962963e-01	 9.981732e+00
0	 7.925926e+00	 3.703704e-01	 9.982362e+00
0	 8.000000e+00	 0.000000e+00	 9.971754e+00
0	 8.000000e+00	 7.407407e-02	 9.971826e+00
0	 8.000000e+00	 1.481481e-01	 9.972034e+00
0	 8.000000e+00	 2.222222e-01	 9.972379e+00
0	 8.000000e+00	 2.962963e-01	 9.972862e+00
0	 8.000000e+00	 3.703704e-01	 9.973484e+00
0	 8.074074e+00	 0.000000e+00	 9.962785e+00
0	 8.074074e+00	 7.407407e-02	 9.962854e+00
0	 8.074074e+00	 1.481481e-01	 9.963059e+00
0	 8.074074e+00	 2.222222e-01	 9.963401e+00
0	 8.074074e+00	 2.962963e-01	 9.963879e+00
0	 8.074074e+00	 3.703704e-01	 9.964497e+00
0	 8.148148e+00	 0.000000e+00	 9.953690e+00
0	 8.148148e+00	 7.407407e-02	 9.953758e+00
0	 8.148148e+00	 1.481481e-01	 9.953961e+00
0	 8.148148e+00	 2.222222e-01	 9.954300e+00
0	 8.148148e+00	 2.962963e-01	 9.954776e+00
0	 8.148148e+00	 3.703704e-01	 9.955390e+00
0	 7.777778e+00	 3.703704e-01	 9.999823e+00
0	 7.777778e+00	 4.444444e-01	 1.000061e+01
0	 7.777778e+00	 5.185185e-01	 1.000152e+01
0	 7.777778e+00	 5.925926e-01	 1.000256e+01
0	 7.777778e+00	 6.666667e-01	 1.000373e+01
0	 7.777778e+00	 7.407407e-01	 1.000504e+01
0	 7.851852e+00	 3.703704e-01	 9.991138e+00
0	 7.851852e+00	 4.444444e-01	 9.991909e+00
0	 7.851852e+00	 5.185185e-01	 9.992805e+00
0	 7.851852e+00	 5.925926e-01	 9.993828e+00
0	 7.851852e+00	 6.666667e-01	 9.994983e+00
0	 7.851852e+00	 7.407407e-01	 9.996272e+00
0	 7.925926e+00	 3.703704e-01	 9.982362e+00
0	 7.925926e+00	 4.444444e-01	 9.983123e+00
0	 7.925926e+00	 5.185185e-01	 9.984007e+00
0	 7.925926e+00	 5.925926e-01	 9.985018e+00
0	 7.925926e+00	 6.666667e-01	 9.986158e+00
0	 7.925926e+00	 7.407407e-01	 9.987431e+00
0	 8.000000e+00	 3.703704e-01	 9.973484e+00
0	 8.000000e+00	 4.444444e-01	 9.974238e+00
0	 8.000000e+00	 5.185185e-01	 9.975113e+00
0	 8.000000e+00	 5.925926e-01	 9.976115e+00
0	 8.000000e+00	 6.666667e-01	 9.977244e+00
0	 8.000000e+00	 7.407407e-01	 9.978505e+00
0	 8.074074e+00	 3.703704e-01	 9.964497e+00
0	 8.074074e+00	 4.444444e-01	 9.965245e+00
0	 8.074074e+00	 5.185185e-01	 9.966114e+00
0	 8.074074e+00	 5.925926e-01	 9.967108e+00
0	 8.074074e+00	 6.666667e-01	 9.968230e+00
0	 8.074074e+00	 7.407407e-01	 9.969482e+00
0	 8.148148e+00	 3.703704e-01	 9.955390e+00
0	 8.148148e+00	 4.444444e-01	 9.956134e+00
0	 8.148148e+00	 5.185185e-01	 9.956999e+00
0	 8.148148e+00	 5.925926e-01	 9.957989e+00
0	 8.148148e+00	 6.666667e-01	 9.959106e+00
0	 8.148148e+00	 7.407407e-01	 9.960353e+00
0	 7.777778e+00	 7.407407e-01	 1.000504e+01
0	 7.777778e+00	 8.148148e-01	 1.000646e+01
0	 7.777778e+00	 8.888889e-01	 1.000798e+01
0	 7.777778e+00	 9.629630e-01	 1.000960e+01
0	 7.777778e+00	 1.037037e+00	 1.001133e+01
0	 7.777778e+00	 1.111111e+00	 1.001318e+01
0	 7.851852e+00	 7.407407e-01	 9.996272e+00
0	 7.851852e+00	 8.148148e-01	 9.997675e+00
0	 7.851852e+00	 8.888889e-01	 9.999176e+00
0	 7.851852e+00	 9.629630e-01	 1.000078e+01
0	 7.851852e+00	 1.037037e+00	 1.000249e+01
0	 7.851852e+00	 1.111111e+00	 1.000431e+01
0	 7.925926e+00	 7.407407e-01	 9.987431e+00
0	 7.925926e+00	 8.148148e-01	 9.988819e+00
0	 7.925926e+00	 8.888889e-01	 9.990303e+00
0	 7.925926e+00	 9.629630e-01	 9.991888e+00
0	 7.925926e+00	 1.037037e+00	 9.993581e+00
0	 7.925926e+00	 1.111111e+00	 9.995384e+00
0	 8.000000e+00	 7.407407e-01	 9.978505e+00
0	 8.000000e+00	 8.148148e-01	 9.979880e+00
0	 8.000000e+00	 8.888889e-01	 9.981351e+00
0	 8.000000e+00	 9.629630e-01	 9.982925e+00
0	 8.000000e+00	 1.037037e+00	 9.984605e+00
0	 8.000000e+00	 1.111111e+00	 9.986396e+00
0	 8.074074e+00	 7.407407e-01	 9.969482e+00
0	 8.074074e+00	 8.148148e-01	 9.970848e+00
0	 8.074074e+00	 8.888889e-01	 9.972311e+00
0	 8.074074e+00	 9.629630e-01	 9.973877e+00
0	 8.074074e+00	 1.037037e+00	 9.975549e+00
0	 8.074074e+00	 1.111111e+00	 9.977332e+00
0	 8.148148e+00	 7.407407e-01	 9.960353e+00
0	 8.148148e+00	 8.148148e-01	 9.961713e+00
0	 8.148148e+00	 8.888889e-01	 9.963172e+00
0	 8.148148e+00	 9.629630e-01	 9.964734e+00
0	 8.148148e+00	 1.037037e+00	 9.966402e+00
0	 8.148148e+00	 1.111111e+00	 9.968182e+00
0	 7.777778e+00	 1.111111e+00	 1.001318e+01
0	 7.777778e+00	 1.185185e+00	 1.001511e+01
0	 7.777778e+00	 1.259259e+00	 1.001710e+01
0	 7.777778e+00	 1.333333e+00	 1.001916e+01
0	 7.777778e+00	 1.407407e+00	 1.002129e+01
0	 7.777778e+00	 1.481481e+00	 1.002350e+01
0	 7.851852e+00	 1.111111e+00	 1.000431e+01
0	 7.851852e+00	 1.185185e+00	 1.000622e+01
0	 7.851852e+00	 1.259259e+00	 1.000819e+01
0	 7.851852e+00	 1.333333e+00	 1.001023e+01
0	 7.851852e+00	 1.407407e+00	 1.001234e+01
0	 7.851852e+00	 1.481481e+00	 1.001453e+01
0	 7.925926e+00	 1.111111e+00	 9.995384e+00
0	 7.925926e+00	 1.185185e+00	 9.997275e+00
0	 7.925926e+00	 1.259259e+00	 9.999230e+00
0	 7.925926e+00	 1.333333e+00	 1.000126e+01
0	 7.925926e+00	 1.407407e+00	 1.000336e+01
0	 7.925926e+00	 1.481481e+00	 1.000554e+01
0	 8.000000e+00	 1.111111e+00	 9.986396e+00
0	 8.000000e+00	 1.185185e+00	 9.988275e+00
0	 8.000000e+00	 1.259259e+00	 9.990219e+00
0	 8.000000e+00	 1.333333e+00	 9.992235e+00
0	 8.000000e+00	 1.407407e+00	 9.994328e+00
0	 8.000000e+00	 1.481481e+00	 9.996503e+00
0	 8.074074e+00	 1.111111e+00	 9.977332e+00
0	 8.074074e+00	 1.185185e+00	 9.979203e+00
0	 8.074074e+00	 1.259259e+00	 9.981143e+00
0	 8.074074e+00	 1.333333e+00	 9.983155e+00
0	 8.074074e+00	 1.407407e+00	 9.985245e+00
0	 8.074074e+00	 1.481481e+00	 9.987418e+00
0	 8.148148e+00	 1.111111e+00	 9.968182e+00
0	 8.148148e+00	 1.185185e+00	 9.970051e+00
0	 8.148148e+00	 1.259259e+00	 9.971990e+00
0	 8.148148e+00	 1.333333e+00	 9.974003e+00
0	 8.148148e+00	 1.407407e+00	 9.976096e+00
0	 8.148148e+00	 1.481481e+00	 9.978273e+00
0	 7.777778e+00	 1.481481e+00	 1.002350e+01
0	 7.777778e+00	 1.555556e+00	 1.002577e+01
0	 7.777778e+00	 1.629630e+00	 1.002805e+01
0	 7.777778e+00	 1.703704e+00	 1.003037e+01
0	 7.777778e+00	 1.777778e+00	 1.003272e+01
0	 7.777778e+00	 1.851852e+00	 1.003512e+01
0	 7.851852e+00	 1.481481e+00	 1.001453e+01
0	 7.851852e+00	 1.555556e+00	 1.001678e+01
0	 7.851852e+00	 1.629630e+00	 1.001906e+01
0	 7.851852e+00	 1.703704e+00	 1.002136e+01
0	 7.851852e+00	 1.777778e+00	 1.002370e+01
0	 7.851852e+00	 1.851852e+00	 1.002609e+01
0	 7.925926e+00	 1.481481e+00	 1.000554e+01
0	 7.925926e+00	 1.555556e+00	 1.000777e+01
0	 7.925926e+00	 1.629630e+00	 1.001004e+01
0	 7.925926e+00	 1.703704e+00	 1.001234e+01
0	 7.925926e+00	 1.777778e+00	 1.001468e+01
0	 7.925926e+00	 1.851852e+00	 1.001707e+01
0	 8.000000e+00	 1.481481e+00	 9.996503e+00
0	 8.000000e+00	 1.555556e+00	 9.998734e+00
0	 8.000000e+00	 1.629630e+00	 1.000100e+01
0	 8.000000e+00	 1.703704e+00	 1.000330e+01
0	 8.000000e+00	 1.777778e+00	 1.000564e+01
0	 8.000000e+00	 1.851852e+00	 1.000803e+01
0	 8.074074e+00	 1.481481e+00	 9.987418e+00
0	 8.074074e+00	 1.555556e+00	 9.989649e+00
0	 8.074074e+00	 1.629630e+00	 9.991915e+00
0	 8.074074e+00	 1.703704e+00	 9.994220e+00
0	 8.074074e+00	 1.777778e+00	 9.996570e+00
0	 8.074074e+00	 1.851852e+00	 9.998970e+00
0	 8.148148e+00	 1.481481e+00	 9.978273e+00
0	 8.148148e+00	 1.555556e+00	 9.980510e+00
0	 8.148148e+00	 1.629630e+00	 9.982784e+00
0	 8.148148e+00	 1.703704e+00	 9.985100e+00
0	 8.148148e+00	 1.777778e+00	 9.987464e+00
0	 8.148148e+00	 1.851852e+00	 9.989880e+00
0	 7.777778e+00	 1.851852e+00	 1.003512e+01
0	 7.777778e+00	 1.925926e+00	 1.003752e+01
0	 7.777778e+00	 2.000000e+00	 1.003992e+01
0	 7.777778e+00	 2.074074e+00	 1.004230e+01
0	 7.777778e+00	 2.148148e+00	 1.004468e+01
0	 7.777778e+00	 2.222222e+00	 1.004707e+01
0	 7.851852e+00	 1.851852e+00	 1.002609e+01
0	 7.851852e+00	 1.925926e+00	 1.002850e+01
0	 7.851852e+00	 2.000000e+00	 1.003089e+01
0	 7.851852e+00	 2.074074e+00	 1.003328e+01
0	 7.851852e+00	 2.148148e+00	 1.003567e+01
0	 7.851852e+00	 2.222222e+00	 1.003807e+01
0	 7.925926e+00	 1.851852e+00	 1.001707e+01
0	 7.925926e+00	 1.925926e+00	 1.001947e+01
0	 7.925926e+00	 2.000000e+00	 1.002187e+01
0	 7.925926e+00	 2.074074e+00	 1.002427e+01
0	 7.925926e+00	 2.148148e+00	 1.002667e+01
0	 7.925926e+00	 2.222222e+00	 1.002909e+01
0	 8.000000e+00	 1.851852e+00	 1.000803e+01
0	 8.000000e+00	 1.925926e+00	 1.001044e+01
0	 8.000000e+00	 2.000000e+00	 1.001285e+01
0	 8.000000e+00	 2.074074e+00	 1.001527e+01
0	 8.000000e+00	 2.148148e+00	 1.001769e+01
0	 8.000000e+00	 2.222222e+00	 1.002012e+01
0	 8.074074e+00	 1.851852e+00	 9.998970e+00
0	 8.074074e+00	 1.925926e+00	 1.000140e+01
0	 8.074074e+00	 2.000000e+00	 1.000382e+01
0	 8.074074e+00	 2.074074e+00	 1.000626e+01
0	 8.074074e+00	 2.148148e+00	 1.000870e+01
0	 8.074074e+00	 2.222222e+00	 1.001117e+01
0	 8.148148e+00	 1.851852e+00	 9.989880e+00
0	 8.148148e+00	 1.925926e+00	 9.992325e+00
0	 8.148148e+00	 2.000000e+00	 9.994775e+00
0	 8.148148e+00	 2.074074e+00	 9.997234e+00
0	 8.148148e+00	 2.148148e+00	 9.999709e+00
0	 8.148148e+00	 2.222222e+00	 1.000220e+01
0	 7.777778e+00	 2.222222e+00	 1.004707e+01
0	 7.777778e+00	 2.296296e+00	 1.004944e+01
0	 7.777778e+00	 2.370370e+00	 1.005176e+01
0	 7.777778e+00	 2.444444e+00	 1.005403e+01
0	 7.777778e+00	 2.518519e+00	 1.005627e+01
0	 7.777778e+00	 2.592593e+00	 1.005848e+01
0	 7.851852e+00	 2.222222e+00	 1.003807e+01
0	 7.851852e+00	 2.296296e+00	 1.004045e+01
0	 7.851852e+00	 2.370370e+00	 1.004279e+01
0	 7.851852e+00	 2.444444e+00	 1.004509e+01
0	 7.851852e+00	 2.518519e+00	 1.004736e+01
0	 7.851852e+00	 2.592593e+00	 1.004960e+01
0	 7.925926e+00	 2.222222e+00	 1.002909e+01
0	 7.925926e+00	 2.296296e+00	 1.003149e+01
0	 7.925926e+00	 2.370370e+00	 1.003385e+01
0	 7.925926e+00	 2.444444e+00	 1.003618e+01
0	 7.925926e+00	 2.518519e+00	 1.003849e+01
0	 7.925926e+00	 2.592593e+00	 1.004077e+01
0	 8.000000e+00	 2.222222e+00	 1.002012e+01
0	 8.000000e+00	 2.296296e+00	 1.002255e+01
0	 8.000000e+00	 2.370370e+00	 1.002494e+01
0	 8.000000e+00	 2.444444e+00	 1.002731e+01
0	 8.000000e+00	 2.518519e+00	 1.002965e+01
0	 8.000000e+00	 2.592593e+00	 1.003197e+01
0	 8.074074e+00	 2.222222e+00	 1.001117e+01
0	 8.074074e+00	 2.296296e+00	 1.001362e+01
0	 8.074074e+00	 2.370370e+00	 1.001605e+01
0	 8.074074e+00	 2.444444e+00	 1.001845e+01
0	 8.074074e+00	 2.518519e+00	 1.002083e+01
0	 8.074074e+00	 2.592593e+00	 1.002320e+01
0	 8.148148e+00	 2.222222e+00	 1.000220e+01
0	 8.148148e+00	 2.296296e+00	 1.000469e+01
0	 8.148148e+00	 2.370370e+00	 1.000716e+01
0	 8.148148e+00	 2.444444e+00	 1.000961e+01
0	 8.148148e+00	 2.518519e+00	 1.001204e+01
0	 8.148148e+00	 2.592593e+00	 1.001446e+01
0	 7.777778e+00	 2.592593e+00	 1.005848e+01
0	 7.777778e+00	 2.666667e+00	 1.006064e+01
0	 7.777778e+00	 2.740741e+00	 1.006273e+01
0	 7.777778e+00	 2.814815e+00	 1.006475e+01
0	 7.777778e+00	 2.888889e+00	 1.006670e+01
0	 7.777778e+00	 2.962963e+00	 1.006860e+01
0	 7.851852e+00	 2.592593e+00	 1.004960e+01
0	 7.851852e+00	 2.666667e+00	 1.005180e+01
0	 7.851852e+00	 2.740741e+00	 1.005393e+01
0	 7.851852e+00	 2.814815e+00	 1.005600e+01
0	 7.851852e+00	 2.888889e+00	 1.005800e+01
0	 7.851852e+00	 2.962963e+00	 1.005996e+01
0	 7.925926e+00	 2.592593e+00	 1.004077e+01
0	 7.925926e+00	 2.666667e+00	 1.004301e+01
0	 7.925926e+00	 2.740741e+00	 1.004518e+01
0	 7.925926e+00	 2.814815e+00	 1.004730e+01
0	 7.925926e+00	 2.888889e+00	 1.004936e+01
0	 7.925926e+00	 2.962963e+00	 1.005138e+01
0	 8.000000e+00	 2.592593e+00	 1.003197e+01
0	 8.000000e+00	 2.666667e+00	 1.003425e+01
0	 8.000000e+00	 2.740741e+00	 1.003648e+01
0	 8.000000e+00	 2.814815e+00	 1.003865e+01
0	 8.000000e+00	 2.888889e+00	 1.004078e+01
0	 8.000000e+00	 2.962963e+00	 1.004285e+01
0	 8.074074e+00	 2.592593e+00	 1.002320e+01
0	 8.074074e+00	 2.666667e+00	 1.002554e+01
0	 8.074074e+00	 2.740741e+00	 1.002782e+01
0	 8.074074e+00	 2.814815e+00	 1.003005e+01
0	 8.074074e+00	 2.888889e+00	 1.003223e+01
0	 8.074074e+00	 2.962963e+00	 1.003437e+01
0	 8.148148e+00	 2.592593e+00	 1.001446e+01
0	 8.148148e+00	 2.666667e+00	 1.001684e+01
0	 8.148148e+00	 2.740741e+00	 1.001918e+01
0	 8.148148e+00	 2.814815e+00	 1.002148e+01
0	 8.148148e+00	 2.888889e+00	 1.002373e+01
0	 8.148148e+00	 2.962963e+00	 1.002594e+01
0	 7.777778e+00	 2.962963e+00	 1.006860e+01
0	 7.777778e+00	 3.037037e+00	 1.007042e+01
0	 7.777778e+00	 3.111111e+00	 1.007215e+01
0	 7.777778e+00	 3.185185e+00	 1.007380e+01
0	 7.777778e+00	 3.259259e+00	 1.007536e+01
0	 7.777778e+00	 3.333333e+00	 1.007685e+01
0	 7.851852e+00	 2.962963e+00	 1.005996e+01
0	 7.851852e+00	 3.037037e+00	 1.006184e+01
0	 7.851852e+00	 3.111111e+00	 1.006364e+01
0	 7.851852e+00	 3.185185e+00	 1.006536e+01
0	 7.851852e+00	 3.259259e+00	 1.006700e+01
0	 7.851852e+00	 3.333333e+00	 1.006856e+01
0	 7.925926e+00	 2.962963e+00	 1.005138e+01
0	 7.925926e+00	 3.037037e+00	 1.005332e+01
0	 7.925926e+00	 3.111111e+00	 1.005519e+01
0	 7.925926e+00	 3.185185e+00	 1.005698e+01
0	 7.925926e+00	 3.259259e+00	 1.005870e+01
0	 7.925926e+00	 3.333333e+00	 1.006035e+01
0	 8.000000e+00	 2.962963e+00	 1.004285e+01
0	 8.000000e+00	 3.037037e+00	 1.004487e+01
0	 8.000000e+00	 3.111111e+00	 1.004681e+01
0	 8.000000e+00	 3.185185e+00	 1.004867e+01
0	 8.000000e+00	 3.259259e+00	 1.005047e+01
0	 8.000000e+00	 3.333333e+00	 1.005220e+01
0	 8.074074e+00	 2.962963e+00	 1.003437e+01
0	 8.074074e+00	 3.037037e+00	 1.003646e+01
0	 8.074074e+00	 3.111111e+00	 1.003847e+01
0	 8.074074e+00	 3.185185e+00	 1.004042e+01
0	 8.074074e+00	 3.259259e+00	 1.004230e+01
0	 8.074074e+00	 3.333333e+00	 1.004412e+01
0	 8.148148e+00	 2.962963e+00	 1.002594e+01
0	 8.148148e+00	 3.037037e+00	 1.002810e+01
0	 8.148148e+00	 3.111111e+00	 1.003019e+01
0	 8.148148e+00	 3.185185e+00	 1.003222e+01
0	 8.148148e+00	 3.259259e+00	 1.003419e+01
0	 8.148148e+00	 3.333333e+00	 1.003609e+01
0	 7.777778e+00	 3.333333e+00	 1.007685e+01
0	 7.777778e+00	 3.407407e+00	 1.007824e+01
0	 7.777778e+00	 3.481481e+00	 1.007954e+01
0	 7.777778e+00	 3.555556e+00	 1.008074e+01
0	 7.777778e+00	 3.629630e+00	 1.008185e+01
0	 7.777778e+00	 3.703704e+00	 1.008286e+01
0	 7.851852e+00	 3.333333e+00	 1.006856e+01
0	 7.851852e+00	 3.407407e+00	 1.007004e+01
0	 7.851852e+00	 3.481481e+00	 1.007143e+01
0	 7.851852e+00	 3.555556e+00	 1.007272e+01
0	 7.851852e+00	 3.629630e+00	 1.007393e+01
0	 7.851852e+00	 3.703704e+00	 1.007504e+01
0	 7.925926e+00	 3.333333e+00	 1.006035e+01
0	 7.925926e+00	 3.407407e+00	 1.006191e+01
0	 7.925926e+00	 3.481481e+00	 1.006339e+01
0	 7.925926e+00	 3.555556e+00	 1.006478e+01
0	 7.925926e+00	 3.629630e+00	 1.006608e+01
0	 7.925926e+00	 3.703704e+00	 1.006729e+01
0	 8.000000e+00	 3.333333e+00	 1.005220e+01
0	 8.000000e+00	 3.407407e+00	 1.005385e+01
0	 8.000000e+00	 3.481481e+00	 1.005542e+01
0	 8.000000e+00	 3.555556e+00	 1.005690e+01
0	 8.000000e+00	 3.629630e+00	 1.005830e+01
0	 8.000000e+00	 3.703704e+00	 1.005962e+01
0	 8.074074e+00	 3.333333e+00	 1.004412e+01
0	 8.074074e+00	 3.407407e+00	 1.004586e+01
0	 8.074074e+00	 3.481481e+00	 1.004752e+01
0	 8.074074e+00	 3.555556e+00	 1.004910e+01
0	 8.074074e+00	 3.629630e+00	 1.005060e+01
0	 8.074074e+00	 3.703704e+00	 1.005202e+01
0	 8.148148e+00	 3.333333e+00	 1.003609e+01
0	 8.148148e+00	 3.407407e+00	 1.003793e+01
0	 8.148148e+00	 3.481481e+00	 1.003968e+01
0	 8.148148e+00	 3.555556e+00	 1.004136e+01
0	 8.148148e+00	 3.629630e+00	 1.004296e+01
0	 8.148148e+00	 3.703704e+00	 1.004449e+01
0	 7.777778e+00	 3.703704e+00	 1.008286e+01
0	 7.777778e+00	 3.777778e+00	 1.008378e+01
0	 7.777778e+00	 3.851852e+00	 1.008460e+01
0	 7.777778e+00	 3.925926e+00	 1.008533e+01
0	 7.777778e+00	 4.000000e+00	 1.008595e+01
0	 7.777778e+00	 4.074074e+00	 1.008648e+01
0	 7.851852e+00	 3.703704e+00	 1.007504e+01
0	 7.851852e+00	 3.777778e+00	 1.007606e+01
0	 7.851852e+00	 3.851852e+00	 1.007699e+01
0	 7.851852e+00	 3.925926e+00	 1.007783e+01
0	 7.851852e+00	 4.000000e+00	 1.007856e+01
0	 7.851852e+00	 4.074074e+00	 1.007921e+01
0	 7.925926e+00	 3.703704e+00	 1.006729e+01
0	 7.925926e+00	 3.777778e+00	 1.006842e+01
0	 7.925926e+00	 3.851852e+00	 1.006946e+01
0	 7.925926e+00	 3.925926e+00	 1.007040e+01
0	 7.925926e+00	 4.000000e+00	 1.007125e+01
0	 7.925926e+00	 4.074074e+00	 1.007201e+01
0	 8.000000e+00	 3.703704e+00	 1.005962e+01
0	 8.000000e+00	 3.777778e+00	 1.006085e+01
0	 8.000000e+00	 3.851852e+00	 1.006200e+01
0	 8.000000e+00	 3.925926e+00	 1.006305e+01
0	 8.000000e+00	 4.000000e+00	 1.006402e+01
0	 8.000000e+00	 4.074074e+00	 1.006489e+01
0	 8.074074e+00	 3.703704e+00	 1.005202e+01
0	 8.074074e+00	 3.777778e+00	 1.005336e+01
0	 8.074074e+00	 3.851852e+00	 1.005461e+01
0	 8.074074e+00	 3.925926e+00	 1.005578e+01
0	 8.074074e+00	 4.000000e+00	 1.005686e+01
0	 8.074074e+00	 4.074074e+00	 1.005785e+01
0	 8.148148e+00	 3.703704e+00	 1.004449e+01
0	 8.148148e+00	 3.777778e+00	 1.004594e+01
0	 8.148148e+00	 3.851852e+00	 1.004730e+01
0	 8.148148e+00	 3.925926e+00	 1.004858e+01
0	 8.148148e+00	 4.000000e+00	 1.004978e+01
0	 8.148148e+00	 4.074074e+00	 1.005089e+01
0	 7.777778e+00	 4.074074e+00	 1.008648e+01
0	 7.777778e+00	 4.148148e+00	 1.008691e+01
0	 7.777778e+00	 4.222222e+00	 1.008725e+01
0	 7.777778e+00	 4.296296e+00	 1.008749e+01
0	 7.777778e+00	 4.370370e+00	 1.008764e+01
0	 7.777778e+00	 4.444444e+00	 1.008769e+01
0	 7.851852e+00	 4.074074e+00	 1.007921e+01
0	 7.851852e+00	 4.148148e+00	 1.007976e+01
0	 7.851852e+00	 4.222222e+00	 1.008022e+01
0	 7.851852e+00	 4.296296e+00	 1.008059e+01
0	 7.851852e+00	 4.370370e+00	 1.008086e+01
0	 7.851852e+00	 4.444444e+00	 1.008104e+01
0	 7.925926e+00	 4.074074e+00	 1.007201e+01
0	 7.925926e+00	 4.148148e+00	 1.007268e+01
0	 7.925926e+00	 4.222222e+00	 1.007326e+01
0	 7.925926e+00	 4.296296e+00	 1.007375e+01
0	 7.925926e+00	 4.370370e+00	 1.007415e+01
0	 7.925926e+00	 4.444444e+00	 1.007446e+01
0	 8.000000e+00	 4.074074e+00	 1.006489e+01
0	 8.000000e+00	 4.148148e+00	 1.006568e+01
0	 8.000000e+00	 4.222222e+00	 1.006638e+01
0	 8.000000e+00	 4.296296e+00	 1.006700e+01
0	 8.000000e+00	 4.370370e+00	 1.006752e+01
0	 8.000000e+00	 4.444444e+00	 1.006795e+01
0	 8.074074e+00	 4.074074e+00	 1.005785e+01
0	 8.074074e+00	 4.148148e+00	 1.005876e+01
0	 8.074074e+00	 4.222222e+00	 1.005958e+01
0	 8.074074e+00	 4.296296e+00	 1.006031e+01
0	 8.074074e+00	 4.370370e+00	 1.006096e+01
0	 8.074074e+00	 4.444444e+00	 1.006152e+01
0	 8.148148e+00	 4.074074e+00	 1.005089e+01
0	 8.148148e+00	 4.148148e+00	 1.005191e+01
0	 8.148148e+00	 4.222222e+00	 1.005286e+01
0	 8.148148e+00	 4.296296e+00	 1.005371e+01
0	 8.148148e+00	 4.370370e+00	 1.005448e+01
0	 8.148148e+00	 4.444444e+00	 1.005517e+01
0	 7.777778e+00	 4.444444e+00	 1.008769e+01
0	 7.777778e+00	 4.518519e+00	 1.008765e+01
0	 7.777778e+00	 4.592593e+00	 1.008753e+01
0	 7.777778e+00	 4.666667e+00	 1.008732e+01
0	 7.777778e+00	 4.740741e+00	 1.008702e+01
0	 7.777778e+00	 4.814815e+00	 1.008664e+01
0	 7.851852e+00	 4.444444e+00	 1.008104e+01
0	 7.851852e+00	 4.518519e+00	 1.008113e+01
0	 7.851852e+00	 4.592593e+00	 1.008114e+01
0	 7.851852e+00	 4.666667e+00	 1.008106e+01
0	 7.851852e+00	 4.740741e+00	 1.008090e+01
0	 7.851852e+00	 4.814815e+00	 1.008065e+01
0	 7.925926e+00	 4.444444e+00	 1.007446e+01
0	 7.925926e+00	 4.518519e+00	 1.007468e+01
0	 7.925926e+00	 4.592593e+00	 1.007482e+01
0	 7.925926e+00	 4.666667e+00	 1.007487e+01
0	 7.925926e+00	 4.740741e+00	 1.007484e+01
0	 7.925926e+00	 4.814815e+00	 1.007472e+01
0	 8.000000e+00	 4.444444e+00	 1.006795e+01
0	 8.000000e+00	 4.518519e+00	 1.006830e+01
0	 8.000000e+00	 4.592593e+00	 1.006856e+01
0	 8.000000e+00	 4.666667e+00	 1.006875e+01
0	 8.000000e+00	 4.740741e+00	 1.006884e+01
0	 8.000000e+00	 4.814815e+00	 1.006885e+01
0	 8.074074e+00	 4.444444e+00	 1.006152e+01
0	 8.074074e+00	 4.518519e+00	 1.006199e+01
0	 8.074074e+00	 4.592593e+00	 1.006239e+01
0	 8.074074e+00	 4.666667e+00	 1.006270e+01
0	 8.074074e+00	 4.740741e+00	 1.006292e+01
0	 8.074074e+00	 4.814815e+00	 1.006307e+01
0	 8.148148e+00	 4.444444e+00	 1.005517e+01
0	 8.148148e+00	 4.518519e+00	 1.005577e+01
0	 8.148148e+00	 4.592593e+00	 1.005629e+01
0	 8.148148e+00	 4.666667e+00	 1.005673e+01
0	 8.148148e+00	 4.740741e+00	 1.005708e+01
0	 8.148148e+00	 4.814815e+00	 1.005736e+01
0	 7.777778e+00	 4.814815e+00	 1.008664e+01
0	 7.777778e+00	 4.888889e+00	 1.008617e+01
0	 7.777778e+00	 4.962963e+00	 1.008563e+01
0	 7.777778e+00	 5.037037e+00	 1.008501e+01
0	 7.777778e+00	 5.111111e+00	 1.008432e+01
0	 7.777778e+00	 5.185185e+00	 1.008355e+01
0	 7.851852e+00	 4.814815e+00	 1.008065e+01
0	 7.851852e+00	 4.888889e+00	 1.008031e+01
0	 7.851852e+00	 4.962963e+00	 1.007991e+01
0	 7.851852e+00	 5.037037e+00	 1.007943e+01
0	 7.851852e+00	 5.111111e+00	 1.007887e+01
0	 7.851852e+00	 5.185185e+00	 1.007823e+01
0	 7.925926e+00	 4.814815e+00	 1.007472e+01
0	 7.925926e+00	 4.888889e+00	 1.007452e+01
0	 7.925926e+00	 4.962963e+00	 1.007424e+01
0	 7.925926e+00	 5.037037e+00	 1.007390e+01
0	 7.925926e+00	 5.111111e+00	 1.007347e+01
0	 7.925926e+00	 5.185185e+00	 1.007297e+01
0	 8.000000e+00	 4.814815e+00	 1.006885e+01
0	 8.000000e+00	 4.888889e+00	 1.006879e+01
0	 8.000000e+00	 4.962963e+00	 1.006865e+01
0	 8.000000e+00	 5.037037e+00	 1.006843e+01
0	 8.000000e+00	 5.111111e+00	 1.006814e+01
0	 8.000000e+00	 5.185185e+00	 1.006777e+01
0	 8.074074e+00	 4.814815e+00	 1.006307e+01
0	 8.074074e+00	 4.888889e+00	 1.006313e+01
0	 8.074074e+00	 4.962963e+00	 1.006312e+01
0	 8.074074e+00	 5.037037e+00	 1.006303e+01
0	 8.074074e+00	 5.111111e+00	 1.006287e+01
0	 8.074074e+00	 5.185185e+00	 1.006263e+01
0	 8.148148e+00	 4.814815e+00	 1.005736e+01
0	 8.148148e+00	 4.888889e+00	 1.005755e+01
0	 8.148148e+00	 4.962963e+00	 1.005767e+01
0	 8.148148e+00	 5.037037e+00	 1.005771e+01
0	 8.148148e+00	 5.111111e+00	 1.005768e+01
0	 8.148148e+00	 5.185185e+00	 1.005757e+01
0	 7.777778e+00	 5.185185e+00	 1.008355e+01
0	 7.777778e+00	 5.259259e+00	 1.008271e+01
0	 7.777778e+00	 5.333333e+00	 1.008181e+01
0	 7.777778e+00	 5.407407e+00	 1.008084e+01
0	 7.777778e+00	 5.481481e+00	 1.007981e+01
0	 7.777778e+00	 5.555556e+00	 1.007872e+01
0	 7.851852e+00	 5.185185e+00	 1.007823e+01
0	 7.851852e+00	 5.259259e+00	 1.007753e+01
0	 7.851852e+00	 5.333333e+00	 1.007676e+01
0	 7.851852e+00	 5.407407e+00	 1.007593e+01
0	 7.851852e+00	 5.481481e+00	 1.007503e+01
0	 7.851852e+00	 5.555556e+00	 1.007407e+01
0	 7.925926e+00	 5.185185e+00	 1.007297e+01
0	 7.925926e+00	 5.259259e+00	 1.007240e+01
0	 7.925926e+00	 5.333333e+00	 1.007176e+01
0	 7.925926e+00	 5.407407e+00	 1.007106e+01
0	 7.925926e+00	 5.481481e+00	 1.007030e+01
0	 7.925926e+00	 5.555556e+00	 1.006947e+01
0	 8.000000e+00	 5.185185e+00	 1.006777e+01
0	 8.000000e+00	 5.259259e+00	 1.006733e+01
0	 8.000000e+00	 5.333333e+00	 1.006682e+01
0	 8.000000e+00	 5.407407e+00	 1.006626e+01
0	 8.000000e+00	 5.481481e+00	 1.006562e+01
0	 8.000000e+00	 5.555556e+00	 1.006492e+01
0	 8.074074e+00	 5.185185e+00	 1.006263e+01
0	 8.074074e+00	 5.259259e+00	 1.006232e+01
0	 8.074074e+00	 5.333333e+00	 1.006195e+01
0	 8.074074e+00	 5.407407e+00	 1.006151e+01
0	 8.074074e+00	 5.481481e+00	 1.006101e+01
0	 8.074074e+00	 5.555556e+00	 1.006043e+01
0	 8.148148e+00	 5.185185e+00	 1.005757e+01
0	 8.148148e+00	 5.259259e+00	 1.005739e+01
0	 8.148148e+00	 5.333333e+00	 1.005715e+01
0	 8.148148e+00	 5.407407e+00	 1.005684e+01
0	 8.148148e+00	 5.481481e+00	 1.005646e+01
0	 8.148148e+00	 5.555556e+00	 1.005601e+01
0	 7.777778e+00	 5.555556e+00	 1.007872e+01
0	 7.777778e+00	 5.629630e+00	 1.007757e+01
0	 7.777778e+00	 5.703704e+00	 1.007637e+01
0	 7.777778e+00	 5.777778e+00	 1.007512e+01
0	 7.777778e+00	 5.851852e+00	 1.007382e+01
0	 7.777778e+00	 5.925926e+00	 1.007247e+01
0	 7.851852e+00	 5.555556e+00	 1.007407e+01
0	 7.851852e+00	 5.629630e+00	 1.007305e+01
0	 7.851852e+00	 5.703704e+00	 1.007198e+01
0	 7.851852e+00	 5.777778e+00	 1.007086e+01
0	 7.851852e+00	 5.851852e+00	 1.006969e+01
0	 7.851852e+00	 5.925926e+00	 1.006847e+01
0	 7.925926e+00	 5.555556e+00	 1.006947e+01
0	 7.925926e+00	 5.629630e+00	 1.006858e+01
0	 7.925926e+00	 5.703704e+00	 1.006764e+01
0	 7.925926e+00	 5.777778e+00	 1.006665e+01
0	 7.925926e+00	 5.851852e+00	 1.006561e+01
0	 7.925926e+00	 5.925926e+00	 1.006451e+01
0	 8.000000e+00	 5.555556e+00	 1.006492e+01
0	 8.000000e+00	 5.629630e+00	 1.006416e+01
0	 8.000000e+00	 5.703704e+00	 1.006335e+01
0	 8.000000e+00	 5.777778e+00	 1.006248e+01
0	 8.000000e+00	 5.851852e+00	 1.006157e+01
0	 8.000000e+00	 5.925926e+00	 1.006059e+01
0	 8.074074e+00	 5.555556e+00	 1.006043e+01
0	 8.074074e+00	 5.629630e+00	 1.005980e+01
0	 8.074074e+00	 5.703704e+00	 1.005911e+01
0	 8.074074e+00	 5.777778e+00	 1.005837e+01
0	 8.074074e+00	 5.851852e+00	 1.005758e+01
0	 8.074074e+00	 5.925926e+00	 1.005672e+01
0	 8.148148e+00	 5.555556e+00	 1.005601e+01
0	 8.148148e+00	 5.629630e+00	 1.005550e+01
0	 8.148148e+00	 5.703704e+00	 1.005494e+01
0	 8.148148e+00	 5.777778e+00	 1.005432e+01
0	 8.148148e+00	 5.851852e+00	 1.005365e+01
0	 8.148148e+00	 5.925926e+00	 1.005292e+01
0	 7.777778e+00	 5.925926e+00	 1.007247e+01
0	 7.777778e+00	 6.000000e+00	 1.007107e+01
0	 7.777778e+00	 6.074074e+00	 1.006964e+01
0	 7.777778e+00	 6.148148e+00	 1.006817e+01
0	 7.777778e+00	 6.222222e+00	 1.006667e+01
0	 7.777778e+00	 6.296296e+00	 1.006513e+01
0	 7.851852e+00	 5.925926e+00	 1.006847e+01
0	 7.851852e+00	 6.000000e+00	 1.006720e+01
0	 7.851852e+00	 6.074074e+00	 1.006589e+01
0	 7.851852e+00	 6.148148e+00	 1.006455e+01
0	 7.851852e+00	 6.222222e+00	 1.006317e+01
0	 7.851852e+00	 6.296296e+00	 1.006174e+01
0	 7.925926e+00	 5.925926e+00	 1.006451e+01
0	 7.925926e+00	 6.000000e+00	 1.006336e+01
0	 7.925926e+00	 6.074074e+00	 1.006218e+01
0	 7.925926e+00	 6.148148e+00	 1.006096e+01
0	 7.925926e+00	 6.222222e+00	 1.005970e+01
0	 7.925926e+00	 6.296296e+00	 1.005839e+01
0	 8.000000e+00	 5.925926e+00	 1.006059e+01
0	 8.000000e+00	 6.000000e+00	 1.005957e+01
0	 8.000000e+00	 6.074074e+00	 1.005851e+01
0	 8.000000e+00	 6.148148e+00	 1.005740e+01
0	 8.000000e+00	 6.222222e+00	 1.005626e+01
0	 8.000000e+00	 6.296296e+00	 1.005507e+01
0	 8.074074e+00	 5.925926e+00	 1.005672e+01
0	 8.074074e+00	 6.000000e+00	 1.005582e+01
0	 8.074074e+00	 6.074074e+00	 1.005488e+01
0	 8.074074e+00	 6.148148e+00	 1.005390e+01
0	 8.074074e+00	 6.222222e+00	 1.005287e+01
0	 8.074074e+00	 6.296296e+00	 1.005180e+01
0	 8.148148e+00	 5.925926e+00	 1.005292e+01
0	 8.148148e+00	 6.000000e+00	 1.005213e+01
0	 8.148148e+00	 6.074074e+00	 1.005131e+01
0	 8.148148e+00	 6.148148e+00	 1.005044e+01
0	 8.148148e+00	 6.222222e+00	 1.004953e+01
0	 8.148148e+00	 6.296296e+00	 1.004857e+01
0	 7.777778e+00	 6.296296e+00	 1.006513e+01
0	 7.777778e+00	 6.370370e+00	 1.006355e+01
0	 7.777778e+00	 6.444444e+00	 1.006196e+01
0	 7.777778e+00	 6.518519e+00	 1.006034e+01
0	 7.777778e+00	 6.592593e+00	 1.005870e+01
0	 7.777778e+00	 6.666667e+00	 1.005702e+01
0	 7.851852e+00	 6.296296e+00	 1.006174e+01
0	 7.851852e+00	 6.370370e+00	 1.006029e+01
0	 7.851852e+00	 6.444444e+00	 1.005881e+01
0	 7.851852e+00	 6.518519e+00	 1.005731e+01
0	 7.851852e+00	 6.592593e+00	 1.005578e+01
0	 7.851852e+00	 6.666667e+00	 1.005422e+01
0	 7.925926e+00	 6.296296e+00	 1.005839e+01
0	 7.925926e+00	 6.370370e+00	 1.005705e+01
0	 7.925926e+00	 6.444444e+00	 1.005569e+01
0	 7.925926e+00	 6.518519e+00	 1.005430e+01
0	 7.925926e+00	 6.592593e+00	 1.005288e+01
0	 7.925926e+00	 6.666667e+00	 1.005143e+01
0	 8.000000e+00	 6.296296e+00	 1.005507e+01
0	 8.000000e+00	 6.370370e+00	 1.005385e+01
0	 8.000000e+00	 6.444444e+00	 1.005260e+01
0	 8.000000e+00	 6.518519e+00	 1.005132e+01
0	 8.000000e+00	 6.592593e+00	 1.005001e+01
0	 8.000000e+00	 6.666667e+00	 1.004867e+01
0	 8.074074e+00	 6.296296e+00	 1.005180e+01
0	 8.074074e+00	 6.370370e+00	 1.005068e+01
0	 8.074074e+00	 6.444444e+00	 1.004955e+01
0	 8.074074e+00	 6.518519e+00	 1.004838e+01
0	 8.074074e+00	 6.592593e+00	 1.004718e+01
0	 8.074074e+00	 6.666667e+00	 1.004594e+01
0	 8.148148e+00	 6.296296e+00	 1.004857e+01
0	 8.148148e+00	 6.370370e+00	 1.004757e+01
0	 8.148148e+00	 6.444444e+00	 1.004654e+01
0	 8.148148e+00	 6.518519e+00	 1.004548e+01
0	 8.148148e+00	 6.592593e+00	 1.004438e+01
0	 8.148148e+00	 6.666667e+00	 1.004325e+01
0	 7.777778e+00	 6.666667e+00	 1.005702e+01
0	 7.777778e+00	 6.740741e+00	 1.005534e+01
0	 7.777778e+00	 6.814815e+00	 1.005364e+01
0	 7.777778e+00	 6.888889e+00	 1.005193e+01
0	 7.777778e+00	 6.962963e+00	 1.005021e+01
0	 7.777778e+00	 7.037037e+00	 1.004848e+01
0	 7.851852e+00	 6.666667e+00	 1.005422e+01
0	 7.851852e+00	 6.740741e+00	 1.005264e+01
0	 7.851852e+00	 6.814815e+00	 1.005105e+01
0	 7.851852e+00	 6.888889e+00	 1.004944e+01
0	 7.851852e+00	 6.962963e+00	 1.004783e+01
0	 7.851852e+00	 7.037037e+00	 1.004619e+01
0	 7.925926e+00	 6.666667e+00	 1.005143e+01
0	 7.925926e+00	 6.740741e+00	 1.004996e+01
0	 7.925926e+00	 6.814815e+00	 1.004847e+01
0	 7.925926e+00	 6.888889e+00	 1.004697e+01
0	 7.925926e+00	 6.962963e+00	 1.004546e+01
0	 7.925926e+00	 7.037037e+00	 1.004393e+01
0	 8.000000e+00	 6.666667e+00	 1.004867e+01
0	 8.000000e+00	 6.740741e+00	 1.004730e+01
0	 8.000000e+00	 6.814815e+00	 1.004592e+01
0	 8.000000e+00	 6.888889e+00	 1.004453e+01
0	 8.000000e+00	 6.962963e+00	 1.004311e+01
0	 8.000000e+00	 7.037037e+00	 1.004168e+01
0	 8.074074e+00	 6.666667e+00	 1.004594e+01
0	 8.074074e+00	 6.740741e+00	 1.004468e+01
0	 8.074074e+00	 6.814815e+00	 1.004340e+01
0	 8.074074e+00	 6.888889e+00	 1.004211e+01
0	 8.074074e+00	 6.962963e+00	 1.004080e+01
0	 8.074074e+00	 7.037037e+00	 1.003946e+01
0	 8.148148e+00	 6.666667e+00	 1.004325e+01
0	 8.148148e+00	 6.740741e+00	 1.004210e+01
0	 8.148148e+00	 6.814815e+00	 1.004092e+01
0	 8.148148e+00	 6.888889e+00	 1.003973e+01
0	 8.148148e+00	 6.962963e+00	 1.003851e+01
0	 8.148148e+00	 7.037037e+00	 1.003727e+01
0	 7.777778e+00	 7.037037e+00	 1.004848e+01
0	 7.777778e+00	 7.111111e+00	 1.004673e+01
0	 7.777778e+00	 7.185185e+00	 1.004500e+01
0	 7.777778e+00	 7.259259e+00	 1.004326e+01
0	 7.777778e+00	 7.333333e+00	 1.004152e+01
0	 7.777778e+00	 7.407407e+00	 1.003978e+01
0	 7.851852e+00	 7.037037e+00	 1.004619e+01
0	 7.851852e+00	 7.111111e+00	 1.004455e+01
0	 7.851852e+00	 7.185185e+00	 1.004291e+01
0	 7.851852e+00	 7.259259e+00	 1.004127e+01
0	 7.851852e+00	 7.333333e+00	 1.003963e+01
0	 7.851852e+00	 7.407407e+00	 1.003798e+01
0	 7.925926e+00	 7.037037e+00	 1.004393e+01
0	 7.925926e+00	 7.111111e+00	 1.004238e+01
0	 7.925926e+00	 7.185185e+00	 1.004084e+01
0	 7.925926e+00	 7.259259e+00	 1.003929e+01
0	 7.925926e+00	 7.333333e+00	 1.003774e+01
0	 7.925926e+00	 7.407407e+00	 1.003618e+01
0	 8.000000e+00	 7.037037e+00	 1.004168e+01
0	 8.000000e+00	 7.111111e+00	 1.004023e+01
0	 8.000000e+00	 7.185185e+00	 1.003879e+01
0	 8.000000e+00	 7.259259e+00	 1.003733e+01
0	 8.000000e+00	 7.333333e+00	 1.003587e+01
0	 8.000000e+00	 7.407407e+00	 1.003440e+01
0	 8.074074e+00	 7.037037e+00	 1.003946e+01
0	 8.074074e+00	 7.111111e+00	 1.003811e+01
0	 8.074074e+00	 7.185185e+00	 1.003676e+01
0	 8.074074e+00	 7.259259e+00	 1.003539e+01
0	 8.074074e+00	 7.333333e+00	 1.003402e+01
0	 8.074074e+00	 7.407407e+00	 1.003264e+01
0	 8.148148e+00	 7.037037e+00	 1.003727e+01
0	 8.148148e+00	 7.111111e+00	 1.003601e+01
0	 8.148148e+00	 7.185185e+00	 1.003475e+01
0	 8.148148e+00	 7.259259e+00	 1.003348e+01
0	 8.148148e+00	 7.333333e+00	 1.003220e+01
0	 8.148148e+00	 7.407407e+00	 1.003091e+01
0	 7.777778e+00	 7.407407e+00	 1.003978e+01
0	 7.777778e+00	 7.481481e+00	 1.003805e+01
0	 7.777778e+00	 7.555556e+00	 1.003632e+01
0	 7.777778e+00	 7.629630e+00	 1.003462e+01
0	 7.777778e+00	 7.703704e+00	 1.003292e+01
0	 7.777778e+00	 7.777778e+00	 1.003123e+01
0	 7.851852e+00	 7.407407e+00	 1.003798e+01
0	 7.851852e+00	 7.481481e+00	 1.003633e+01
0	 7.851852e+00	 7.555556e+00	 1.003470e+01
0	 7.851852e+00	 7.629630e+00	 1.003308e+01
0	 7.851852e+00	 7.703704e+00	 1.003146e+01
0	 7.851852e+00	 7.777778e+00	 1.002986e+01
0	 7.925926e+00	 7.407407e+00	 1.003618e+01
0	 7.925926e+00	 7.481481e+00	 1.003463e+01
0	 7.925926e+00	 7.555556e+00	 1.003308e+01
0	 7.925926e+00	 7.629630e+00	 1.003154e+01
0	 7.925926e+00	 7.703704e+00	 1.003001e+01
0	 7.925926e+00	 7.777778e+00	 1.002849e+01
0	 8.000000e+00	 7.407407e+00	 1.003440e+01
0	 8.000000e+00	 7.481481e+00	 1.003294e+01
0	 8.000000e+00	 7.555556e+00	 1.003148e+01
0	 8.000000e+00	 7.629630e+00	 1.003002e+01
0	 8.000000e+00	 7.703704e+00	 1.002858e+01
0	 8.000000e+00	 7.777778e+00	 1.002713e+01
0	 8.074074e+00	 7.407407e+00	 1.003264e+01
0	 8.074074e+00	 7.481481e+00	 1.003126e+01
0	 8.074074e+00	 7.555556e+00	 1.002989e+01
0	 8.074074e+00	 7.629630e+00	 1.002852e+01
0	 8.074074e+00	 7.703704e+00	 1.002715e+01
0	 8.074074e+00	 7.777778e+00	 1.002579e+01
0	 8.148148e+00	 7.407407e+00	 1.003091e+01
0	 8.148148e+00	 7.481481e+00	 1.002961e+01
0	 8.148148e+00	 7.555556e+00	 1.002832e+01
0	 8.148148e+00	 7.629630e+00	 1.002703e+01
0	 8.148148e+00	 7.703704e+00	 1.002575e+01
0	 8.148148e+00	 7.777778e+00	 1.002446e+01
0	 7.777778e+00	 7.777778e+00	 1.003123e+01
0	 7.777778e+00	 7.851852e+00	 1.002956e+01
0	 7.777778e+00	 7.925926e+00	 1.002792e+01
0	 7.777778e+00	 8.000000e+00	 1.002630e+01
0	 7.777778e+00	 8.074074e+00	 1.002470e+01
0	 7.777778e+00	 8.148148e+00	 1.002312e+01
0	 7.851852e+00	 7.777778e+00	 1.002986e+01
0	 7.851852e+00	 7.851852e+00	 1.002826e+01
0	 7.851852e+00	 7.925926e+00	 1.002670e+01
0	 7.851852e+00	 8.000000e+00	 1.002515e+01
0	 7.851852e+00	 8.074074e+00	 1.002363e+01
0	 7.851852e+00	 8.148148e+00	 1.002212e+01
0	 7.925926e+00	 7.777778e+00	 1.002849e+01
0	 7.925926e+00	 7.851852e+00	 1.002698e+01
0	 7.925926e+00	 7.925926e+00	 1.002549e+01
0	 7.925926e+00	 8.000000e+00	 1.002402e+01
0	 7.925926e+00	 8.074074e+00	 1.002257e+01
0	 7.925926e+00	 8.148148e+00	 1.002113e+01
0	 8.000000e+00	 7.777778e+00	 1.002713e+01
0	 8.000000e+00	 7.851852e+00	 1.002570e+01
0	 8.000000e+00	 7.925926e+00	 1.002428e+01
0	 8.000000e+00	 8.000000e+00	 1.002289e+01
0	 8.000000e+00	 8.074074e+00	 1.002151e+01
0	 8.000000e+00	 8.148148e+00	 1.002015e+01
0	 8.074074e+00	 7.777778e+00	 1.002579e+01
0	 8.074074e+00	 7.851852e+00	 1.002443e+01
0	 8.074074e+00	 7.925926e+00	 1.002309e+01
0	 8.074074e+00	 8.000000e+00	 1.002177e+01
0	 8.074074e+00	 8.074074e+00	 1.002046e+01
0	 8.074074e+00	 8.148148e+00	 1.001917e+01
0	 8.148148e+00	 7.777778e+00	 1.002446e+01
0	 8.148148e+00	 7.851852e+00	 1.002318e+01
0	 8.148148e+00	 7.925926e+00	 1.002191e+01
0	 8.148148e+00	 8.000000e+00	 1.002067e+01
0	 8.148148e+00	 8.074074e+00	 1.001943e+01
0	 8.148148e+00	 8.148148e+00	 1.001820e+01
0	 7.777778e+00	 8.148148e+00	 1.002312e+01
0	 7.777778e+00	 8.222222e+00	 1.002157e+01
0	 7.777778e+00	 8.296296e+00	 1.002006e+01
0	 7.777778e+00	 8.370370e+00	 1.001858e+01
0	 7.777778e+00	 8.444444e+00	 1.001714e+01
0	 7.777778e+00	 8.518519e+00	 1.001573e+01
0	 7.851852e+00	 8.148148e+00	 1.002212e+01
0	 7.851852e+00	 8.222222e+00	 1.002064e+01
0	 7.851852e+00	 8.296296e+00	 1.001920e+01
0	 7.851852e+00	 8.370370e+00	 1.001779e+01
0	 7.851852e+00	 8.444444e+00	 1.001641e+01
0	 7.851852e+00	 8.518519e+00	 1.001507e+01
0	 7.925926e+00	 8.148148e+00	 1.002113e+01
0	 7.925926e+00	 8.222222e+00	 1.001972e+01
0	 7.925926e+00	 8.296296e+00	 1.001834e+01
0	 7.925926e+00	 8.370370e+00	 1.001700e+01
0	 7.925926e+00	 8.444444e+00	 1.001569e+01
0	 7.925926e+00	 8.518519e+00	 1.001440e+01
0	 8.000000e+00	 8.148148e+00	 1.002015e+01
0	 8.000000e+00	 8.222222e+00	 1.001880e+01
0	 8.000000e+00	 8.296296e+00	 1.001749e+01
0	 8.000000e+00	 8.370370e+00	 1.001622e+01
0	 8.000000e+00	 8.444444e+00	 1.001496e+01
0	 8.000000e+00	 8.518519e+00	 1.001374e+01
0	 8.074074e+00	 8.148148e+00	 1.001917e+01
0	 8.074074e+00	 8.222222e+00	 1.001790e+01
0	 8.074074e+00	 8.296296e+00	 1.001665e+01
0	 8.074074e+00	 8.370370e+00	 1.001544e+01
0	 8.074074e+00	 8.444444e+00	 1.001425e+01
0	 8.074074e+00	 8.518519e+00	 1.001308e+01
0	 8.148148e+00	 8.148148e+00	 1.001820e+01
0	 8.148148e+00	 8.222222e+00	 1.001700e+01
0	 8.148148e+00	 8.296296e+00	 1.001582e+01
0	 8.148148e+00	 8.370370e+00	 1.001467e+01
0	 8.148148e+00	 8.444444e+00	 1.001354e+01
0	 8.148148e+00	 8.518519e+00	 1.001243e+01
0	 7.777778e+00	 8.518519e+00	 1.001573e+01
0	 7.777778e+00	 8.592593e+00	 1.001437e+01
0	 7.777778e+00	 8.666667e+00	 1.001305e+01
0	 7.777778e+00	 8.740741e+00	 1.001179e+01
0	 7.777778e+00	 8.814815e+00	 1.001057e+01
0	 7.777778e+00	 8.888889e+00	 1.000939e+01
0	 7.851852e+00	 8.518519e+00	 1.001507e+01
0	 7.851852e+00	 8.592593e+00	 1.001376e+01
0	 7.851852e+00	 8.666667e+00	 1.001250e+01
0	 7.851852e+00	 8.740741e+00	 1.001129e+01
0	 7.851852e+00	 8.814815e+00	 1.001012e+01
0	 7.851852e+00	 8.888889e+00	 1.000900e+01
0	 7.925926e+00	 8.518519e+00	 1.001440e+01
0	 7.925926e+00	 8.592593e+00	 1.001315e+01
0	 7.925926e+00	 8.666667e+00	 1.001195e+01
0	 7.925926e+00	 8.740741e+00	 1.001079e+01
0	 7.925926e+00	 8.814815e+00	 1.000968e+01
0	 7.925926e+00	 8.888889e+00	 1.000860e+01
0	 8.000000e+00	 8.518519e+00	 1.001374e+01
0	 8.000000e+00	 8.592593e+00	 1.001255e+01
0	 8.000000e+00	 8.666667e+00	 1.001140e+01
0	 8.000000e+00	 8.740741e+00	 1.001030e+01
0	 8.000000e+00	 8.814815e+00	 1.000924e+01
0	 8.000000e+00	 8.888889e+00	 1.000821e+01
0	 8.074074e+00	 8.518519e+00	 1.001308e+01
0	 8.074074e+00	 8.592593e+00	 1.001195e+01
0	 8.074074e+00	 8.666667e+00	 1.001086e+01
0	 8.074074e+00	 8.740741e+00	 1.000981e+01
0	 8.074074e+00	 8.814815e+00	 1.000880e+01
0	 8.074074e+00	 8.888889e+00	 1.000782e+01
0	 8.148148e+00	 8.518519e+00	 1.001243e+01
0	 8.148148e+00	 8.592593e+00	 1.001136e+01
0	 8.148148e+00	 8.666667e+00	 1.001032e+01
0	 8.148148e+00	 8.740741e+00	 1.000932e+01
0	 8.148148e+00	 8.814815e+00	 1.000836e+01
0	 8.148148e+00	 8.888889e+00	 1.000743e+01
0	 7.777778e+00	 8.888889e+00	 1.000939e+01
0	 7.777778e+00	 8.962963e+00	 1.000827e+01
0	 7.777778e+00	 9.037037e+00	 1.000722e+01
0	 7.777778e+00	 9.111111e+00	 1.000623e+01
0	 7.777778e+00	 9.185185e+00	 1.000529e+01
0	 7.777778e+00	 9.259259e+00	 1.000442e+01
0	 7.851852e+00	 8.888889e+00	 1.000900e+01
0	 7.851852e+00	 8.962963e+00	 1.000792e+01
0	 7.851852e+00	 9.037037e+00	 1.000691e+01
0	 7.851852e+00	 9.111111e+00	 1.000596e+01
0	 7.851852e+00	 9.185185e+00	 1.000507e+01
0	 7.851852e+00	 9.259259e+00	 1.000423e+01
0	 7.925926e+00	 8.888889e+00	 1.000860e+01
0	 7.925926e+00	 8.962963e+00	 1.000758e+01
0	 7.925926e+00	 9.037037e+00	 1.000661e+01
0	 7.925926e+00	 9.111111e+00	 1.000570e+01
0	 7.925926e+00	 9.185185e+00	 1.000485e+01
0	 7.925926e+00	 9.259259e+00	 1.000405e+01
0	 8.000000e+00	 8.888889e+00	 1.000821e+01
0	 8.000000e+00	 8.962963e+00	 1.000723e+01
0	 8.000000e+00	 9.037037e+00	 1.000631e+01
0	 8.000000e+00	 9.111111e+00	 1.000544e+01
0	 8.000000e+00	 9.185185e+00	 1.000463e+01
0	 8.000000e+00	 9.259259e+00	 1.000386e+01
0	 8.074074e+00	 8.888889e+00	 1.000782e+01
0	 8.074074e+00	 8.962963e+00	 1.000689e+01
0	 8.074074e+00	 9.037037e+00	 1.000601e+01
0	 8.074074e+00	 9.111111e+00	 1.000518e+01
0	 8.074074e+00	 9.185185e+00	 1.000441e+01
0	 8.074074e+00	 9.259259e+00	 1.000368e+01
0	 8.148148e+00	 8.888889e+00	 1.000743e+01
0	 8.148148e+00	 8.962963e+00	 1.000655e+01
0	 8.148148e+00	 9.037037e+00	 1.000571e+01
0	 8.148148e+00	 9.111111e+00	 1.000493e+01
0	 8.148148e+00	 9.185185e+00	 1.000419e+01
0	 8.148148e+00	 9.259259e+00	 1.000350e+01
0	 7.777778e+00	 9.259259e+00	 1.000442e+01
0	 7.777778e+00	 9.333333e+00	 1.000361e+01
0	 7.777778e+00	 9.407407e+00	 1.000289e+01
0	 7.777778e+00	 9.481481e+00	 1.000224e+01
0	 7.777778e+00	 9.555556e+00	 1.000167e+01
0	 7.777778e+00	 9.629630e+00	 1.000117e+01
0	 7.851852e+00	 9.259259e+00	 1.000423e+01
0	 7.851852e+00	 9.333333e+00	 1.000346e+01
0	 7.851852e+00	 9.407407e+00	 1.000277e+01
0	 7.851852e+00	 9.481481e+00	 1.000215e+01
0	 7.851852e+00	 9.555556e+00	 1.000160e+01
0	 7.851852e+00	 9.629630e+00	 1.000112e+01
0	 7.925926e+00	 9.259259e+00	 1.000405e+01
0	 7.925926e+00	 9.333333e+00	 1.000331e+01
0	 7.925926e+00	 9.407407e+00	 1.000264e+01
0	 7.925926e+00	 9.481481e+00	 1.000205e+01
0	 7.925926e+00	 9.555556e+00	 1.000153e+01
0	 7.925926e+00	 9.629630e+00	 1.000107e+01
0	 8.000000e+00	 9.259259e+00	 1.000386e+01
0	 8.000000e+00	 9.333333e+00	 1.000316e+01
0	 8.000000e+00	 9.407407e+00	 1.000252e+01
0	 8.000000e+00	 9.481481e+00	 1.000196e+01
0	 8.000000e+00	 9.555556e+00	 1.000146e+01
0	 8.000000e+00	 9.629630e+00	 1.000102e+01
0	 8.074074e+00	 9.259259e+00	 1.000368e+01
0	 8.074074e+00	 9.333333e+00	 1.000301e+01
0	 8.074074e+00	 9.407407e+00	 1.000240e+01
0	 8.074074e+00	 9.481481e+00	 1.000186e+01
0	 8.074074e+00	 9.555556e+00	 1.000139e+01
0	 8.074074e+00	 9.629630e+00	 1.000097e+01
0	 8.148148e+00	 9.259259e+00	 1.000350e+01
0	 8.148148e+00	 9.333333e+00	 1.000286e+01
0	 8.148148e+00	 9.407407e+00	 1.000228e+01
0	 8.148148e+00	 9.481481e+00	 1.000177e+01
0	 8.148148e+00	 9.555556e+00	 1.000132e+01
0	 8.148148e+00	 9.629630e+00	 1.000092e+01
0	 7.777778e+00	 9.629630e+00	 1.000117e+01
0	 7.777778e+00	 9.703704e+00	 1.000075e+01
0	 7.777778e+00	 9.777778e+00	 1.000043e+01
0	 7.777778e+00	 9.851852e+00	 1.000019e+01
0	 7.777778e+00	 9.925926e+00	 1.000005e+01
0	 7.777778e+00	 1.000000e+01	 9.999992e+00
0	 7.851852e+00	 9.629630e+00	 1.000112e+01
0	 7.851852e+00	 9.703704e+00	 1.000072e+01
0	 7.851852e+00	 9.777778e+00	 1.000041e+01
0	 7.851852e+00	 9.851852e+00	 1.000019e+01
0	 7.851852e+00	 9.925926e+00	 1.000005e+01
0	 7.851852e+00	 1.000000e+01	 9.999995e+00
0	 7.925926e+00	 9.629630e+00	 1.000107e+01
0	 7.925926e+00	 9.703704e+00	 1.000069e+01
0	 7.925926e+00	 9.777778e+00	 1.000039e+01
0	 7.925926e+00	 9.851852e+00	 1.000018e+01
0	 7.925926e+00	 9.925926e+00	 1.000005e+01
0	 7.925926e+00	 1.000000e+01	 9.999995e+00
0	 8.000000e+00	 9.629630e+00	 1.000102e+01
0	 8.000000e+00	 9.703704e+00	 1.000065e+01
0	 8.000000e+00	 9.777778e+00	 1.000037e+01
0	 8.000000e+00	 9.851852e+00	 1.000017e+01
0	 8.000000e+00	 9.925926e+00	 1.000004e+01
0	 8.000000e+00	 1.000000e+01	 9.999993e+00
0	 8.074074e+00	 9.629630e+00	 1.000097e+01
0	 8.074074e+00	 9.703704e+00	 1.000062e+01
0	 8.074074e+00	 9.777778e+00	 1.000035e+01
0	 8.074074e+00	 9.851852e+00	 1.000016e+01
0	 8.074074e+00	 9.925926e+00	 1.000004e+01
0	 8.074074e+00	 1.000000e+01	 9.999992e+00
0	 8.148148e+00	 9.629630e+00	 1.000092e+01
0	 8.148148e+00	 9.703704e+00	 1.000059e+01
0	 8.148148e+00	 9.777778e+00	 1.000034e+01
0	 8.148148e+00	 9.851852e+00	 1.000015e+01
0	 8.148148e+00	 9.925926e+00	 1.000004e+01
0	 8.148148e+00	 1.000000e+01	 9.999994e+00
0	 8.148148e+00	 0.000000e+00	 9.953690e+00
0	 8.148148e+00	 7.407407e-02	 9.953758e+00
0	 8.148148e+00	 1.481481e-01	 9.953961e+00
0	 8.148148e+00	 2.222222e-01	 9.954300e+00
0	 8.148148e+00	 2.962963e-01	 9.954776e+00
0	 8.148148e+00	 3.703704e-01	 9.955390e+00
0	 8.222222e+00	 0.000000e+00	 9.944464e+00
0	 8.222222e+00	 7.407407e-02	 9.944530e+00
0	 8.222222e+00	 1.481481e-01	 9.944732e+00
0	 8.222222e+00	 2.222222e-01	 9.945070e+00
0	 8.222222e+00	 2.962963e-01	 9.945545e+00
0	 8.222222e+00	 3.703704e-01	 9.946157e+00
0	 8.296296e+00	 0.000000e+00	 9.935097e+00
0	 8.296296e+00	 7.407407e-02	 9.935164e+00
0	 8.296296e+00	 1.481481e-01	 9.935366e+00
0	 8.296296e+00	 2.222222e-01	 9.935704e+00
0	 8.296296e+00	 2.962963e-01	 9.936179e+00
0	 8.296296e+00	 3.703704e-01	 9.936792e+00
0	 8.370370e+00	 0.000000e+00	 9.925578e+00
0	 8.370370e+00	 7.407407e-02	 9.925646e+00
0	 8.370370e+00	 1.481481e-01	 9.925849e+00
0	 8.370370e+00	 2.222222e-01	 9.926189e+00
0	 8.370370e+00	 2.962963e-01	 9.926666e+00
0	 8.370370e+00	 3.703704e-01	 9.927280e+00
0	 8.444444e+00	 0.000000e+00	 9.915894e+00
0	 8.444444e+00	 7.407407e-02	 9.915963e+00
0	 8.444444e+00	 1.481481e-01	 9.916168e+00
0	 8.444444e+00	 2.222222e-01	 9.916511e+00
0	 8.444444e+00	 2.962963e-01	 9.916991e+00
0	 8.444444e+00	 3.703704e-01	 9.917609e+00
0	 8.518519e+00	 0.000000e+00	 9.906033e+00
0	 8.518519e+00	 7.407407e-02	 9.906103e+00
0	 8.518519e+00	 1.481481e-01	 9.906311e+00
0	 8.518519e+00	 2.222222e-01	 9.906657e+00
0	 8.518519e+00	 2.962963e-01	 9.907142e+00
0	 8.518519e+00	 3.703704e-01	 9.907766e+00
0	 8.148148e+00	 3.703704e-01	 9.955390e+00
0	 8.148148e+00	 4.444444e-01	 9.956134e+00
0	 8.148148e+00	 5.185185e-01	 9.956999e+00
0	 8.148148e+00	 5.925926e-01	 9.957989e+00
0	 8.148148e+00	 6.666667e-01	 9.959106e+00
0	 8.148148e+00	 7.407407e-01	 9.960353e+00
0	 8.222222e+00	 3.703704e-01	 9.946157e+00
0	 8.222222e+00	 4.444444e-01	 9.946899e+00
0	 8.222222e+00	 5.185185e-01	 9.947763e+00
0	 8.222222e+00	 5.925926e-01	 9.948751e+00
0	 8.222222e+00	 6.666667e-01	 9.949867e+00
0	 8.222222e+00	 7.407407e-01	 9.951111e+00
0	 8.296296e+00	 3.703704e-01	 9.936792e+00
0	 8.296296e+00	 4.444444e-01	 9.937534e+00
0	 8.296296e+00	 5.185185e-01	 9.938399e+00
0	 8.296296e+00	 5.925926e-01	 9.939388e+00
0	 8.296296e+00	 6.666667e-01	 9.940505e+00
0	 8.296296e+00	 7.407407e-01	 9.941751e+00
0	 8.370370e+00	 3.703704e-01	 9.927280e+00
0	 8.370370e+00	 4.444444e-01	 9.928025e+00
0	 8.370370e+00	 5.185185e-01	 9.928893e+00
0	 8.370370e+00	 5.925926e-01	 9.929887e+00
0	 8.370370e+00	 6.666667e-01	 9.931008e+00
0	 8.370370e+00	 7.407407e-01	 9.932260e+00
0	 8.444444e+00	 3.703704e-01	 9.917609e+00
0	 8.444444e+00	 4.444444e-01	 9.918358e+00
0	 8.444444e+00	 5.185185e-01	 9.919233e+00
0	 8.444444e+00	 5.925926e-01	 9.920234e+00
0	 8.444444e+00	 6.666667e-01	 9.921364e+00
0	 8.444444e+00	 7.407407e-01	 9.922625e+00
0	 8.518519e+00	 3.703704e-01	 9.907766e+00
0	 8.518519e+00	 4.444444e-01	 9.908522e+00
0	 8.518519e+00	 5.185185e-01	 9.909405e+00
0	 8.518519e+00	 5.925926e-01	 9.910417e+00
0	 8.518519e+00	 6.666667e-01	 9.911559e+00
0	 8.518519e+00	 7.407407e-01	 9.912834e+00
0	 8.148148e+00	 7.407407e-01	 9.960353e+00
0	 8.148148e+00	 8.148148e-01	 9.961713e+00
0	 8.148148e+00	 8.888889e-01	 9.963172e+00
0	 8.148148e+00	 9.629630e-01	 9.964734e+00
0	 8.148148e+00	 1.037037e+00	 9.966402e+00
0	 8.148148e+00	 1.111111e+00	 9.968182e+00
0	 8.222222e+00	 7.407407e-01	 9.951111e+00
0	 8.222222e+00	 8.148148e-01	 9.952470e+00
0	 8.222222e+00	 8.888889e-01	 9.953929e+00
0	 8.222222e+00	 9.629630e-01	 9.955491e+00
0	 8.222222e+00	 1.037037e+00	 9.957161e+00
0	 8.222222e+00	 1.111111e+00	 9.958942e+00
0	 8.296296e+00	 7.407407e-01	 9.941751e+00
0	 8.296296e+00	 8.148148e-01	 9.943113e+00
0	 8.296296e+00	 8.888889e-01	 9.944575e+00
0	 8.296296e+00	 9.629630e-01	 9.946143e+00
0	 8.296296e+00	 1.037037e+00	 9.947819e+00
0	 8.296296e+00	 1.111111e+00	 9.949606e+00
0	 8.370370e+00	 7.407407e-01	 9.932260e+00
0	 8.370370e+00	 8.148148e-01	 9.933628e+00
0	 8.370370e+00	 8.888889e-01	 9.935099e+00
0	 8.370370e+00	 9.629630e-01	 9.936676e+00
0	 8.370370e+00	 1.037037e+00	 9.938363e+00
0	 8.370370e+00	 1.111111e+00	 9.940162e+00
0	 8.444444e+00	 7.407407e-01	 9.922625e+00
0	 8.444444e+00	 8.148148e-01	 9.924004e+00
0	 8.444444e+00	 8.888889e-01	 9.925488e+00
0	 8.444444e+00	 9.629630e-01	 9.927079e+00
0	 8.444444e+00	 1.037037e+00	 9.928782e+00
0	 8.444444e+00	 1.111111e+00	 9.930598e+00
0	 8.518519e+00	 7.407407e-01	 9.912834e+00
0	 8.518519e+00	 8.148148e-01	 9.914227e+00
0	 8.518519e+00	 8.888889e-01	 9.915728e+00
0	 8.518519e+00	 9.629630e-01	 9.917339e+00
0	 8.518519e+00	 1.037037e+00	 9.919063e+00
0	 8.518519e+00	 1.111111e+00	 9.920902e+00
0	 8.148148e+00	 1.111111e+00	 9.968182e+00
0	 8.148148e+00	 1.185185e+00	 9.970051e+00
0	 8.148148e+00	 1.259259e+00	 9.971990e+00
0	 8.148148e+00	 1.333333e+00	 9.974003e+00
0	 8.148148e+00	 1.407407e+00	 9.976096e+00
0	 8.148148e+00	 1.481481e+00	 9.978273e+00
0	 8.222222e+00	 1.111111e+00	 9.958942e+00
0	 8.222222e+00	 1.185185e+00	 9.960814e+00
0	 8.222222e+00	 1.259259e+00	 9.962758e+00
0	 8.222222e+00	 1.333333e+00	 9.964777e+00
0	 8.222222e+00	 1.407407e+00	 9.966878e+00
0	 8.222222e+00	 1.481481e+00	 9.969064e+00
0	 8.296296e+00	 1.111111e+00	 9.949606e+00
0	 8.296296e+00	 1.185185e+00	 9.951486e+00
0	 8.296296e+00	 1.259259e+00	 9.953440e+00
0	 8.296296e+00	 1.333333e+00	 9.955472e+00
0	 8.296296e+00	 1.407407e+00	 9.957587e+00
0	 8.296296e+00	 1.481481e+00	 9.959788e+00
0	 8.370370e+00	 1.111111e+00	 9.940162e+00
0	 8.370370e+00	 1.185185e+00	 9.942056e+00
0	 8.370370e+00	 1.259259e+00	 9.944026e+00
0	 8.370370e+00	 1.333333e+00	 9.946076e+00
0	 8.370370e+00	 1.407407e+00	 9.948210e+00
0	 8.370370e+00	 1.481481e+00	 9.950433e+00
0	 8.444444e+00	 1.111111e+00	 9.930598e+00
0	 8.444444e+00	 1.185185e+00	 9.932511e+00
0	 8.444444e+00	 1.259259e+00	 9.934502e+00
0	 8.444444e+00	 1.333333e+00	 9.936576e+00
0	 8.444444e+00	 1.407407e+00	 9.938737e+00
0	 8.444444e+00	 1.481481e+00	 9.940987e+00
0	 8.518519e+00	 1.111111e+00	 9.920902e+00
0	 8.518519e+00	 1.185185e+00	 9.922839e+00
0	 8.518519e+00	 1.259259e+00	 9.924858e+00
0	 8.518519e+00	 1.333333e+00	 9.926962e+00
0	 8.518519e+00	 1.407407e+00	 9.929155e+00
0	 8.518519e+00	 1.481481e+00	 9.931440e+00
0	 8.148148e+00	 1.481481e+00	 9.978273e+00
0	 8.148148e+00	 1.555556e+00	 9.980510e+00
0	 8.148148e+00	 1.629630e+00	 9.982784e+00
0	 8.148148e+00	 1.703704e+00	 9.985100e+00
0	 8.148148e+00	 1.777778e+00	 9.987464e+00
0	 8.148148e+00	 1.851852e+00	 9.989880e+00
0	 8.222222e+00	 1.481481e+00	 9.969064e+00
0	 8.222222e+00	 1.555556e+00	 9.971313e+00
0	 8.222222e+00	 1.629630e+00	 9.973601e+00
0	 8.222222e+00	 1.703704e+00	 9.975935e+00
0	 8.222222e+00	 1.777778e+00	 9.978318e+00
0	 8.222222e+00	 1.851852e+00	 9.980756e+00
0	 8.296296e+00	 1.481481e+00	 9.959788e+00
0	 8.296296e+00	 1.555556e+00	 9.962054e+00
0	 8.296296e+00	 1.629630e+00	 9.964363e+00
0	 8.296296e+00	 1.703704e+00	 9.966720e+00
0	 8.296296e+00	 1.777778e+00	 9.969129e+00
0	 8.296296e+00	 1.851852e+00	 9.971595e+00
0	 8.370370e+00	 1.481481e+00	 9.950433e+00
0	 8.370370e+00	 1.555556e+00	 9.952723e+00
0	 8.370370e+00	 1.629630e+00	 9.955059e+00
0	 8.370370e+00	 1.703704e+00	 9.957445e+00
0	 8.370370e+00	 1.777778e+00	 9.959886e+00
0	 8.370370e+00	 1.851852e+00	 9.962387e+00
0	 8.444444e+00	 1.481481e+00	 9.940987e+00
0	 8.444444e+00	 1.555556e+00	 9.943307e+00
0	 8.444444e+00	 1.629630e+00	 9.945677e+00
0	 8.444444e+00	 1.703704e+00	 9.948100e+00
0	 8.444444e+00	 1.777778e+00	 9.950580e+00
0	 8.444444e+00	 1.851852e+00	 9.953121e+00
0	 8.518519e+00	 1.481481e+00	 9.931440e+00
0	 8.518519e+00	 1.555556e+00	 9.933797e+00
0	 8.518519e+00	 1.629630e+00	 9.936207e+00
0	 8.518519e+00	 1.703704e+00	 9.938673e+00
0	 8.518519e+00	 1.777778e+00	 9.941199e+00
0	 8.518519e+00	 1.851852e+00	 9.943789e+00
0	 8.148148e+00	 1.851852e+00	 9.989880e+00
0	 8.148148e+00	 1.925926e+00	 9.992325e+00
0	 8.148148e+00	 2.000000e+00	 9.994775e+00
0	 8.148148e+00	 2.074074e+00	 9.997234e+00
0	 8.148148e+00	 2.148148e+00	 9.999709e+00
0	 8.148148e+00	 2.222222e+00	 1.000220e+01
0	 8.222222e+00	 1.851852e+00	 9.980756e+00
0	 8.222222e+00	 1.925926e+00	 9.983225e+00
0	 8.222222e+00	 2.000000e+00	 9.985703e+00
0	 8.222222e+00	 2.074074e+00	 9.988194e+00
0	 8.222222e+00	 2.148148e+00	 9.990703e+00
0	 8.222222e+00	 2.222222e+00	 9.993234e+00
0	 8.296296e+00	 1.851852e+00	 9.971595e+00
0	 8.296296e+00	 1.925926e+00	 9.974095e+00
0	 8.296296e+00	 2.000000e+00	 9.976607e+00
0	 8.296296e+00	 2.074074e+00	 9.979136e+00
0	 8.296296e+00	 2.148148e+00	 9.981686e+00
0	 8.296296e+00	 2.222222e+00	 9.984261e+00
0	 8.370370e+00	 1.851852e+00	 9.962387e+00
0	 8.370370e+00	 1.925926e+00	 9.964924e+00
0	 8.370370e+00	 2.000000e+00	 9.967477e+00
0	 8.370370e+00	 2.074074e+00	 9.970050e+00
0	 8.370370e+00	 2.148148e+00	 9.972647e+00
0	 8.370370e+00	 2.222222e+00	 9.975272e+00
0	 8.444444e+00	 1.851852e+00	 9.953121e+00
0	 8.444444e+00	 1.925926e+00	 9.955703e+00
0	 8.444444e+00	 2.000000e+00	 9.958304e+00
0	 8.444444e+00	 2.074074e+00	 9.960928e+00
0	 8.444444e+00	 2.148148e+00	 9.963579e+00
0	 8.444444e+00	 2.222222e+00	 9.966260e+00
0	 8.518519e+00	 1.851852e+00	 9.943789e+00
0	 8.518519e+00	 1.925926e+00	 9.946422e+00
0	 8.518519e+00	 2.000000e+00	 9.949077e+00
0	 8.518519e+00	 2.074074e+00	 9.951759e+00
0	 8.518519e+00	 2.148148e+00	 9.954471e+00
0	 8.518519e+00	 2.222222e+00	 9.957217e+00
0	 8.148148e+00	 2.222222e+00	 1.000220e+01
0	 8.148148e+00	 2.296296e+00	 1.000469e+01
0	 8.148148e+00	 2.370370e+00	 1.000716e+01
0	 8.148148e+00	 2.444444e+00	 1.000961e+01
0	 8.148148e+00	 2.518519e+00	 1.001204e+01
0	 8.148148e+00	 2.592593e+00	 1.001446e+01
0	 8.222222e+00	 2.222222e+00	 9.993234e+00
0	 8.222222e+00	 2.296296e+00	 9.995767e+00
0	 8.222222e+00	 2.370370e+00	 9.998279e+00
0	 8.222222e+00	 2.444444e+00	 1.000077e+01
0	 8.222222e+00	 2.518519e+00	 1.000326e+01
0	 8.222222e+00	 2.592593e+00	 1.000573e+01
0	 8.296296e+00	 2.222222e+00	 9.984261e+00
0	 8.296296e+00	 2.296296e+00	 9.986840e+00
0	 8.296296e+00	 2.370370e+00	 9.989403e+00
0	 8.296296e+00	 2.444444e+00	 9.991952e+00
0	 8.296296e+00	 2.518519e+00	 9.994493e+00
0	 8.296296e+00	 2.592593e+00	 9.997029e+00
0	 8.370370e+00	 2.222222e+00	 9.975272e+00
0	 8.370370e+00	 2.296296e+00	 9.977905e+00
0	 8.370370e+00	 2.370370e+00	 9.980524e+00
0	 8.370370e+00	 2.444444e+00	 9.983135e+00
0	 8.370370e+00	 2.518519e+00	 9.985739e+00
0	 8.370370e+00	 2.592593e+00	 9.988342e+00
0	 8.444444e+00	 2.222222e+00	 9.966260e+00
0	 8.444444e+00	 2.296296e+00	 9.968953e+00
0	 8.444444e+00	 2.370370e+00	 9.971636e+00
0	 8.444444e+00	 2.444444e+00	 9.974313e+00
0	 8.444444e+00	 2.518519e+00	 9.976988e+00
0	 8.444444e+00	 2.592593e+00	 9.979664e+00
0	 8.518519e+00	 2.222222e+00	 9.957217e+00
0	 8.518519e+00	 2.296296e+00	 9.959976e+00
0	 8.518519e+00	 2.370370e+00	 9.962730e+00
0	 8.518519e+00	 2.444444e+00	 9.965481e+00
0	 8.518519e+00	 2.518519e+00	 9.968233e+00
0	 8.518519e+00	 2.592593e+00	 9.970988e+00
0	 8.148148e+00	 2.592593e+00	 1.001446e+01
0	 8.148148e+00	 2.666667e+00	 1.001684e+01
0	 8.148148e+00	 2.740741e+00	 1.001918e+01
0	 8.148148e+00	 2.814815e+00	 1.002148e+01
0	 8.148148e+00	 2.888889e+00	 1.002373e+01
0	 8.148148e+00	 2.962963e+00	 1.002594e+01
0	 8.222222e+00	 2.592593e+00	 1.000573e+01
0	 8.222222e+00	 2.666667e+00	 1.000818e+01
0	 8.222222e+00	 2.740741e+00	 1.001058e+01
0	 8.222222e+00	 2.814815e+00	 1.001294e+01
0	 8.222222e+00	 2.888889e+00	 1.001527e+01
0	 8.222222e+00	 2.962963e+00	 1.001755e+01
0	 8.296296e+00	 2.592593e+00	 9.997029e+00
0	 8.296296e+00	 2.666667e+00	 9.999541e+00
0	 8.296296e+00	 2.740741e+00	 1.000201e+01
0	 8.296296e+00	 2.814815e+00	 1.000445e+01
0	 8.296296e+00	 2.888889e+00	 1.000684e+01
0	 8.296296e+00	 2.962963e+00	 1.000921e+01
0	 8.370370e+00	 2.592593e+00	 9.988342e+00
0	 8.370370e+00	 2.666667e+00	 9.990925e+00
0	 8.370370e+00	 2.740741e+00	 9.993470e+00
0	 8.370370e+00	 2.814815e+00	 9.995981e+00
0	 8.370370e+00	 2.888889e+00	 9.998460e+00
0	 8.370370e+00	 2.962963e+00	 1.000091e+01
0	 8.444444e+00	 2.592593e+00	 9.979664e+00
0	 8.444444e+00	 2.666667e+00	 9.982323e+00
0	 8.444444e+00	 2.740741e+00	 9.984949e+00
0	 8.444444e+00	 2.814815e+00	 9.987542e+00
0	 8.444444e+00	 2.888889e+00	 9.990108e+00
0	 8.444444e+00	 2.962963e+00	 9.992647e+00
0	 8.518519e+00	 2.592593e+00	 9.970988e+00
0	 8.518519e+00	 2.666667e+00	 9.973731e+00
0	 8.518519e+00	 2.740741e+00	 9.976442e+00
0	 8.518519e+00	 2.814815e+00	 9.979125e+00
0	 8.518519e+00	 2.888889e+00	 9.981783e+00
0	 8.518519e+00	 2.962963e+00	 9.984417e+00
0	 8.148148e+00	 2.962963e+00	 1.002594e+01
0	 8.148148e+00	 3.037037e+00	 1.002810e+01
0	 8.148148e+00	 3.111111e+00	 1.003019e+01
0	 8.148148e+00	 3.185185e+00	 1.003222e+01
0	 8.148148e+00	 3.259259e+00	 1.003419e+01
0	 8.148148e+00	 3.333333e+00	 1.003609e+01
0	 8.222222e+00	 2.962963e+00	 1.001755e+01
0	 8.222222e+00	 3.037037e+00	 1.001979e+01
0	 8.222222e+00	 3.111111e+00	 1.002197e+01
0	 8.222222e+00	 3.185185e+00	 1.002408e+01
0	 8.222222e+00	 3.259259e+00	 1.002613e+01
0	 8.222222e+00	 3.333333e+00	 1.002813e+01
0	 8.296296e+00	 2.962963e+00	 1.000921e+01
0	 8.296296e+00	 3.037037e+00	 1.001153e+01
0	 8.296296e+00	 3.111111e+00	 1.001379e+01
0	 8.296296e+00	 3.185185e+00	 1.001599e+01
0	 8.296296e+00	 3.259259e+00	 1.001814e+01
0	 8.296296e+00	 3.333333e+00	 1.002023e+01
0	 8.370370e+00	 2.962963e+00	 1.000091e+01
0	 8.370370e+00	 3.037037e+00	 1.000332e+01
0	 8.370370e+00	 3.111111e+00	 1.000567e+01
0	 8.370370e+00	 3.185185e+00	 1.000796e+01
0	 8.370370e+00	 3.259259e+00	 1.001021e+01
0	 8.370370e+00	 3.333333e+00	 1.001240e+01
0	 8.444444e+00	 2.962963e+00	 9.992647e+00
0	 8.444444e+00	 3.037037e+00	 9.995147e+00
0	 8.444444e+00	 3.111111e+00	 9.997593e+00
0	 8.444444e+00	 3.185185e+00	 9.999986e+00
0	 8.444444e+00	 3.259259e+00	 1.000233e+01
0	 8.444444e+00	 3.333333e+00	 1.000463e+01
0	 8.518519e+00	 2.962963e+00	 9.984417e+00
0	 8.518519e+00	 3.037037e+00	 9.987015e+00
0	 8.518519e+00	 3.111111e+00	 9.989561e+00
0	 8.518519e+00	 3.185185e+00	 9.992058e+00
0	 8.518519e+00	 3.259259e+00	 9.994507e+00
0	 8.518519e+00	 3.333333e+00	 9.996911e+00
0	 8.148148e+00	 3.333333e+00	 1.003609e+01
0	 8.148148e+00	 3.407407e+00	 1.003793e+01
0	 8.148148e+00	 3.481481e+00	 1.003968e+01
0	 8.148148e+00	 3.555556e+00	 1.004136e+01
0	 8.148148e+00	 3.629630e+00	 1.004296e+01
0	 8.148148e+00	 3.703704e+00	 1.004449e+01
0	 8.222222e+00	 3.333333e+00	 1.002813e+01
0	 8.222222e+00	 3.407407e+00	 1.003006e+01
0	 8.222222e+00	 3.481481e+00	 1.003192e+01
0	 8.222222e+00	 3.555556e+00	 1.003370e+01
0	 8.222222e+00	 3.629630e+00	 1.003540e+01
0	 8.222222e+00	 3.703704e+00	 1.003704e+01
0	 8.296296e+00	 3.333333e+00	 1.002023e+01
0	 8.296296e+00	 3.407407e+00	 1.002226e+01
0	 8.296296e+00	 3.481481e+00	 1.002422e+01
0	 8.296296e+00	 3.555556e+00	 1.002610e+01
0	 8.296296e+00	 3.629630e+00	 1.002792e+01
0	 8.296296e+00	 3.703704e+00	 1.002966e+01
0	 8.370370e+00	 3.333333e+00	 1.001240e+01
0	 8.370370e+00	 3.407407e+00	 1.001453e+01
0	 8.370370e+00	 3.481481e+00	 1.001659e+01
0	 8.370370e+00	 3.555556e+00	 1.001858e+01
0	 8.370370e+00	 3.629630e+00	 1.002050e+01
0	 8.370370e+00	 3.703704e+00	 1.002236e+01
0	 8.444444e+00	 3.333333e+00	 1.000463e+01
0	 8.444444e+00	 3.407407e+00	 1.000686e+01
0	 8.444444e+00	 3.481481e+00	 1.000903e+01
0	 8.444444e+00	 3.555556e+00	 1.001113e+01
0	 8.444444e+00	 3.629630e+00	 1.001317e+01
0	 8.444444e+00	 3.703704e+00	 1.001514e+01
0	 8.518519e+00	 3.333333e+00	 9.996911e+00
0	 8.518519e+00	 3.407407e+00	 9.999259e+00
0	 8.518519e+00	 3.481481e+00	 1.000154e+01
0	 8.518519e+00	 3.555556e+00	 1.000376e+01
0	 8.518519e+00	 3.629630e+00	 1.000591e+01
0	 8.518519e+00	 3.703704e+00	 1.000800e+01
0	 8.148148e+00	 3.703704e+00	 1.004449e+01
0	 8.148148e+00	 3.777778e+00	 1.004594e+01
0	 8.148148e+00	 3.851852e+00	 1.004730e+01
0	 8.148148e+00	 3.925926e+00	 1.004858e+01
0	 8.148148e+00	 4.000000e+00	 1.004978e+01
0	 8.148148e+00	 4.074074e+00	 1.005089e+01
0	 8.222222e+00	 3.703704e+00	 1.003704e+01
0	 8.222222e+00	 3.777778e+00	 1.003859e+01
0	 8.222222e+00	 3.851852e+00	 1.004007e+01
0	 8.222222e+00	 3.925926e+00	 1.004146e+01
0	 8.222222e+00	 4.000000e+00	 1.004277e+01
0	 8.222222e+00	 4.074074e+00	 1.004400e+01
0	 8.296296e+00	 3.703704e+00	 1.002966e+01
0	 8.296296e+00	 3.777778e+00	 1.003133e+01
0	 8.296296e+00	 3.851852e+00	 1.003292e+01
0	 8.296296e+00	 3.925926e+00	 1.003443e+01
0	 8.296296e+00	 4.000000e+00	 1.003585e+01
0	 8.296296e+00	 4.074074e+00	 1.003720e+01
0	 8.370370e+00	 3.703704e+00	 1.002236e+01
0	 8.370370e+00	 3.777778e+00	 1.002414e+01
0	 8.370370e+00	 3.851852e+00	 1.002585e+01
0	 8.370370e+00	 3.925926e+00	 1.002747e+01
0	 8.370370e+00	 4.000000e+00	 1.002902e+01
0	 8.370370e+00	 4.074074e+00	 1.003049e+01
0	 8.444444e+00	 3.703704e+00	 1.001514e+01
0	 8.444444e+00	 3.777778e+00	 1.001704e+01
0	 8.444444e+00	 3.851852e+00	 1.001886e+01
0	 8.444444e+00	 3.925926e+00	 1.002061e+01
0	 8.444444e+00	 4.000000e+00	 1.002228e+01
0	 8.444444e+00	 4.074074e+00	 1.002387e+01
0	 8.518519e+00	 3.703704e+00	 1.000800e+01
0	 8.518519e+00	 3.777778e+00	 1.001002e+01
0	 8.518519e+00	 3.851852e+00	 1.001196e+01
0	 8.518519e+00	 3.925926e+00	 1.001383e+01
0	 8.518519e+00	 4.000000e+00	 1.001563e+01
0	 8.518519e+00	 4.074074e+00	 1.001734e+01
0	 8.148148e+00	 4.074074e+00	 1.005089e+01
0	 8.148148e+00	 4.148148e+00	 1.005191e+01
0	 8.148148e+00	 4.222222e+00	 1.005286e+01
0	 8.148148e+00	 4.296296e+00	 1.005371e+01
0	 8.148148e+00	 4.370370e+00	 1.005448e+01
0	 8.148148e+00	 4.444444e+00	 1.005517e+01
0	 8.222222e+00	 4.074074e+00	 1.004400e+01
0	 8.222222e+00	 4.148148e+00	 1.004515e+01
0	 8.222222e+00	 4.222222e+00	 1.004621e+01
0	 8.222222e+00	 4.296296e+00	 1.004719e+01
0	 8.222222e+00	 4.370370e+00	 1.004809e+01
0	 8.222222e+00	 4.444444e+00	 1.004890e+01
0	 8.296296e+00	 4.074074e+00	 1.003720e+01
0	 8.296296e+00	 4.148148e+00	 1.003847e+01
0	 8.296296e+00	 4.222222e+00	 1.003966e+01
0	 8.296296e+00	 4.296296e+00	 1.004076e+01
0	 8.296296e+00	 4.370370e+00	 1.004178e+01
0	 8.296296e+00	 4.444444e+00	 1.004272e+01
0	 8.370370e+00	 4.074074e+00	 1.003049e+01
0	 8.370370e+00	 4.148148e+00	 1.003188e+01
0	 8.370370e+00	 4.222222e+00	 1.003319e+01
0	 8.370370e+00	 4.296296e+00	 1.003442e+01
0	 8.370370e+00	 4.370370e+00	 1.003557e+01
0	 8.370370e+00	 4.444444e+00	 1.003663e+01
0	 8.444444e+00	 4.074074e+00	 1.002387e+01
0	 8.444444e+00	 4.148148e+00	 1.002539e+01
0	 8.444444e+00	 4.222222e+00	 1.002682e+01
0	 8.444444e+00	 4.296296e+00	 1.002817e+01
0	 8.444444e+00	 4.370370e+00	 1.002945e+01
0	 8.444444e+00	 4.444444e+00	 1.003064e+01
0	 8.518519e+00	 4.074074e+00	 1.001734e+01
0	 8.518519e+00	 4.148148e+00	 1.001899e+01
0	 8.518519e+00	 4.222222e+00	 1.002055e+01
0	 8.518519e+00	 4.296296e+00	 1.002203e+01
0	 8.518519e+00	 4.370370e+00	 1.002343e+01
0	 8.518519e+00	 4.444444e+00	 1.002475e+01
0	 8.148148e+00	 4.444444e+00	 1.005517e+01
0	 8.148148e+00	 4.518519e+00	 1.005577e+01
0	 8.148148e+00	 4.592593e+00	 1.005629e+01
0	 8.148148e+00	 4.666667e+00	 1.005673e+01
0	 8.148148e+00	 4.740741e+00	 1.005708e+01
0	 8.148148e+00	 4.814815e+00	 1.005736e+01
0	 8.222222e+00	 4.444444e+00	 1.004890e+01
0	 8.222222e+00	 4.518519e+00	 1.004963e+01
0	 8.222222e+00	 4.592593e+00	 1.005028e+01
0	 8.222222e+00	 4.666667e+00	 1.005084e+01
0	 8.222222e+00	 4.740741e+00	 1.005133e+01
0	 8.222222e+00	 4.814815e+00	 1.005173e+01
0	 8.296296e+00	 4.444444e+00	 1.004272e+01
0	 8.296296e+00	 4.518519e+00	 1.004357e+01
0	 8.296296e+00	 4.592593e+00	 1.004435e+01
0	 8.296296e+00	 4.666667e+00	 1.004504e+01
0	 8.296296e+00	 4.740741e+00	 1.004565e+01
0	 8.296296e+00	 4.814815e+00	 1.004618e+01
0	 8.370370e+00	 4.444444e+00	 1.003663e+01
0	 8.370370e+00	 4.518519e+00	 1.003761e+01
0	 8.370370e+00	 4.592593e+00	 1.003851e+01
0	 8.370370e+00	 4.666667e+00	 1.003934e+01
0	 8.370370e+00	 4.740741e+00	 1.004007e+01
0	 8.370370e+00	 4.814815e+00	 1.004073e+01
0	 8.444444e+00	 4.444444e+00	 1.003064e+01
0	 8.444444e+00	 4.518519e+00	 1.003175e+01
0	 8.444444e+00	 4.592593e+00	 1.003278e+01
0	 8.444444e+00	 4.666667e+00	 1.003373e+01
0	 8.444444e+00	 4.740741e+00	 1.003459e+01
0	 8.444444e+00	 4.814815e+00	 1.003538e+01
0	 8.518519e+00	 4.444444e+00	 1.002475e+01
0	 8.518519e+00	 4.518519e+00	 1.002598e+01
0	 8.518519e+00	 4.592593e+00	 1.002714e+01
0	 8.518519e+00	 4.666667e+00	 1.002822e+01
0	 8.518519e+00	 4.740741e+00	 1.002921e+01
0	 8.518519e+00	 4.814815e+00	 1.003013e+01
0	 8.148148e+00	 4.814815e+00	 1.005736e+01
0	 8.148148e+00	 4.888889e+00	 1.005755e+01
0	 8.148148e+00	 4.962963e+00	 1.005767e+01
0	 8.148148e+00	 5.037037e+00	 1.005771e+01
0	 8.148148e+00	 5.111111e+00	 1.005768e+01
0	 8.148148e+00	 5.185185e+00	 1.005757e+01
0	 8.222222e+00	 4.814815e+00	 1.005173e+01
0	 8.222222e+00	 4.888889e+00	 1.005205e+01
0	 8.222222e+00	 4.962963e+00	 1.005230e+01
0	 8.222222e+00	 5.037037e+00	 1.005247e+01
0	 8.222222e+00	 5.111111e+00	 1.005257e+01
0	 8.222222e+00	 5.185185e+00	 1.005259e+01
0	 8.296296e+00	 4.814815e+00	 1.004618e+01
0	 8.296296e+00	 4.888889e+00	 1.004663e+01
0	 8.296296e+00	 4.962963e+00	 1.004701e+01
0	 8.296296e+00	 5.037037e+00	 1.004731e+01
0	 8.296296e+00	 5.111111e+00	 1.004754e+01
0	 8.296296e+00	 5.185185e+00	 1.004768e+01
0	 8.370370e+00	 4.814815e+00	 1.004073e+01
0	 8.370370e+00	 4.888889e+00	 1.004131e+01
0	 8.370370e+00	 4.962963e+00	 1.004181e+01
0	 8.370370e+00	 5.037037e+00	 1.004224e+01
0	 8.370370e+00	 5.111111e+00	 1.004259e+01
0	 8.370370e+00	 5.185185e+00	 1.004286e+01
0	 8.444444e+00	 4.814815e+00	 1.003538e+01
0	 8.444444e+00	 4.888889e+00	 1.003608e+01
0	 8.444444e+00	 4.962963e+00	 1.003671e+01
0	 8.444444e+00	 5.037037e+00	 1.003727e+01
0	 8.444444e+00	 5.111111e+00	 1.003774e+01
0	 8.444444e+00	 5.185185e+00	 1.003814e+01
0	 8.518519e+00	 4.814815e+00	 1.003013e+01
0	 8.518519e+00	 4.888889e+00	 1.003096e+01
0	 8.518519e+00	 4.962963e+00	 1.003172e+01
0	 8.518519e+00	 5.037037e+00	 1.003240e+01
0	 8.518519e+00	 5.111111e+00	 1.003300e+01
0	 8.518519e+00	 5.185185e+00	 1.003352e+01
0	 8.148148e+00	 5.185185e+00	 1.005757e+01
0	 8.148148e+00	 5.259259e+00	 1.005739e+01
0	 8.148148e+00	 5.333333e+00	 1.005715e+01
0	 8.148148e+00	 5.407407e+00	 1.005684e+01
0	 8.148148e+00	 5.481481e+00	 1.005646e+01
0	 8.148148e+00	 5.555556e+00	 1.005601e+01
0	 8.222222e+00	 5.185185e+00	 1.005259e+01
0	 8.222222e+00	 5.259259e+00	 1.005253e+01
0	 8.222222e+00	 5.333333e+00	 1.005242e+01
0	 8.222222e+00	 5.407407e+00	 1.005223e+01
0	 8.222222e+00	 5.481481e+00	 1.005198e+01
0	 8.222222e+00	 5.555556e+00	 1.005166e+01
0	 8.296296e+00	 5.185185e+00	 1.004768e+01
0	 8.296296e+00	 5.259259e+00	 1.004776e+01
0	 8.296296e+00	 5.333333e+00	 1.004776e+01
0	 8.296296e+00	 5.407407e+00	 1.004770e+01
0	 8.296296e+00	 5.481481e+00	 1.004758e+01
0	 8.296296e+00	 5.555556e+00	 1.004738e+01
0	 8.370370e+00	 5.185185e+00	 1.004286e+01
0	 8.370370e+00	 5.259259e+00	 1.004306e+01
0	 8.370370e+00	 5.333333e+00	 1.004320e+01
0	 8.370370e+00	 5.407407e+00	 1.004326e+01
0	 8.370370e+00	 5.481481e+00	 1.004325e+01
0	 8.370370e+00	 5.555556e+00	 1.004317e+01
0	 8.444444e+00	 5.185185e+00	 1.003814e+01
0	 8.444444e+00	 5.259259e+00	 1.003846e+01
0	 8.444444e+00	 5.333333e+00	 1.003872e+01
0	 8.444444e+00	 5.407407e+00	 1.003891e+01
0	 8.444444e+00	 5.481481e+00	 1.003902e+01
0	 8.444444e+00	 5.555556e+00	 1.003906e+01
0	 8.518519e+00	 5.185185e+00	 1.003352e+01
0	 8.518519e+00	 5.259259e+00	 1.003397e+01
0	 8.518519e+00	 5.333333e+00	 1.003434e+01
0	 8.518519e+00	 5.407407e+00	 1.003465e+01
0	 8.518519e+00	 5.481481e+00	 1.003488e+01
0	 8.518519e+00	 5.555556e+00	 1.003504e+01
0	 8.148148e+00	 5.555556e+00	 1.005601e+01
0	 8.148148e+00	 5.629630e+00	 1.005550e+01
0	 8.148148e+00	 5.703704e+00	 1.005494e+01
0	 8.148148e+00	 5.777778e+00	 1.005432e+01
0	 8.148148e+00	 5.851852e+00	 1.005365e+01
0	 8.148148e+00	 5.925926e+00	 1.005292e+01
0	 8.222222e+00	 5.555556e+00	 1.005166e+01
0	 8.222222e+00	 5.629630e+00	 1.005127e+01
0	 8.222222e+00	 5.703704e+00	 1.005083e+01
0	 8.222222e+00	 5.777778e+00	 1.005034e+01
0	 8.222222e+00	 5.851852e+00	 1.004978e+01
0	 8.222222e+00	 5.925926e+00	 1.004917e+01
0	 8.296296e+00	 5.555556e+00	 1.004738e+01
0	 8.296296e+00	 5.629630e+00	 1.004711e+01
0	 8.296296e+00	 5.703704e+00	 1.004679e+01
0	 8.296296e+00	 5.777778e+00	 1.004642e+01
0	 8.296296e+00	 5.851852e+00	 1.004598e+01
0	 8.296296e+00	 5.925926e+00	 1.004549e+01
0	 8.370370e+00	 5.555556e+00	 1.004317e+01
0	 8.370370e+00	 5.629630e+00	 1.004303e+01
0	 8.370370e+00	 5.703704e+00	 1.004283e+01
0	 8.370370e+00	 5.777778e+00	 1.004257e+01
0	 8.370370e+00	 5.851852e+00	 1.004225e+01
0	 8.370370e+00	 5.925926e+00	 1.004187e+01
0	 8.444444e+00	 5.555556e+00	 1.003906e+01
0	 8.444444e+00	 5.629630e+00	 1.003904e+01
0	 8.444444e+00	 5.703704e+00	 1.003895e+01
0	 8.444444e+00	 5.777778e+00	 1.003881e+01
0	 8.444444e+00	 5.851852e+00	 1.003861e+01
0	 8.444444e+00	 5.925926e+00	 1.003834e+01
0	 8.518519e+00	 5.555556e+00	 1.003504e+01
0	 8.518519e+00	 5.629630e+00	 1.003514e+01
0	 8.518519e+00	 5.703704e+00	 1.003517e+01
0	 8.518519e+00	 5.777778e+00	 1.003514e+01
0	 8.518519e+00	 5.851852e+00	 1.003504e+01
0	 8.518519e+00	 5.925926e+00	 1.003489e+01
0	 8.148148e+00	 5.925926e+00	 1.005292e+01
0	 8.148148e+00	 6.000000e+00	 1.005213e+01
0	 8.148148e+00	 6.074074e+00	 1.005131e+01
0	 8.148148e+00	 6.148148e+00	 1.005044e+01
0	 8.148148e+00	 6.222222e+00	 1.004953e+01
0	 8.148148e+00	 6.296296e+00	 1.004857e+01
0	 8.222222e+00	 5.925926e+00	 1.004917e+01
0	 8.222222e+00	 6.000000e+00	 1.004850e+01
0	 8.222222e+00	 6.074074e+00	 1.004780e+01
0	 8.222222e+00	 6.148148e+00	 1.004704e+01
0	 8.222222e+00	 6.222222e+00	 1.004624e+01
0	 8.222222e+00	 6.296296e+00	 1.004539e+01
0	 8.296296e+00	 5.925926e+00	 1.004549e+01
0	 8.296296e+00	 6.000000e+00	 1.004494e+01
0	 8.296296e+00	 6.074074e+00	 1.004434e+01
0	 8.296296e+00	 6.148148e+00	 1.004370e+01
0	 8.296296e+00	 6.222222e+00	 1.004301e+01
0	 8.296296e+00	 6.296296e+00	 1.004227e+01
0	 8.370370e+00	 5.925926e+00	 1.004187e+01
0	 8.370370e+00	 6.000000e+00	 1.004144e+01
0	 8.370370e+00	 6.074074e+00	 1.004095e+01
0	 8.370370e+00	 6.148148e+00	 1.004042e+01
0	 8.370370e+00	 6.222222e+00	 1.003984e+01
0	 8.370370e+00	 6.296296e+00	 1.003921e+01
0	 8.444444e+00	 5.925926e+00	 1.003834e+01
0	 8.444444e+00	 6.000000e+00	 1.003801e+01
0	 8.444444e+00	 6.074074e+00	 1.003764e+01
0	 8.444444e+00	 6.148148e+00	 1.003721e+01
0	 8.444444e+00	 6.222222e+00	 1.003674e+01
0	 8.444444e+00	 6.296296e+00	 1.003621e+01
0	 8.518519e+00	 5.925926e+00	 1.003489e+01
0	 8.518519e+00	 6.000000e+00	 1.003467e+01
0	 8.518519e+00	 6.074074e+00	 1.003440e+01
0	 8.518519e+00	 6.148148e+00	 1.003409e+01
0	 8.518519e+00	 6.222222e+00	 1.003371e+01
0	 8.518519e+00	 6.296296e+00	 1.003329e+01
0	 8.148148e+00	 6.296296e+00	 1.004857e+01
0	 8.148148e+00	 6.370370e+00	 1.004757e+01
0	 8.148148e+00	 6.444444e+00	 1.004654e+01
0	 8.148148e+00	 6.518519e+00	 1.004548e+01
0	 8.148148e+00	 6.592593e+00	 1.004438e+01
0	 8.148148e+00	 6.666667e+00	 1.004325e+01
0	 8.222222e+00	 6.296296e+00	 1.004539e+01
0	 8.222222e+00	 6.370370e+00	 1.004450e+01
0	 8.222222e+00	 6.444444e+00	 1.004358e+01
0	 8.222222e+00	 6.518519e+00	 1.004263e+01
0	 8.222222e+00	 6.592593e+00	 1.004164e+01
0	 8.222222e+00	 6.666667e+00	 1.004061e+01
0	 8.296296e+00	 6.296296e+00	 1.004227e+01
0	 8.296296e+00	 6.370370e+00	 1.004149e+01
0	 8.296296e+00	 6.444444e+00	 1.004067e+01
0	 8.296296e+00	 6.518519e+00	 1.003982e+01
0	 8.296296e+00	 6.592593e+00	 1.003893e+01
0	 8.296296e+00	 6.666667e+00	 1.003801e+01
0	 8.370370e+00	 6.296296e+00	 1.003921e+01
0	 8.370370e+00	 6.370370e+00	 1.003853e+01
0	 8.370370e+00	 6.444444e+00	 1.003782e+01
0	 8.370370e+00	 6.518519e+00	 1.003707e+01
0	 8.370370e+00	 6.592593e+00	 1.003628e+01
0	 8.370370e+00	 6.666667e+00	 1.003545e+01
0	 8.444444e+00	 6.296296e+00	 1.003621e+01
0	 8.444444e+00	 6.370370e+00	 1.003564e+01
0	 8.444444e+00	 6.444444e+00	 1.003503e+01
0	 8.444444e+00	 6.518519e+00	 1.003438e+01
0	 8.444444e+00	 6.592593e+00	 1.003369e+01
0	 8.444444e+00	 6.666667e+00	 1.003296e+01
0	 8.518519e+00	 6.296296e+00	 1.003329e+01
0	 8.518519e+00	 6.370370e+00	 1.003281e+01
0	 8.518519e+00	 6.444444e+00	 1.003230e+01
0	 8.518519e+00	 6.518519e+00	 1.003175e+01
0	 8.518519e+00	 6.592593e+00	 1.003116e+01
0	 8.518519e+00	 6.666667e+00	 1.003052e+01
0	 8.148148e+00	 6.666667e+00	 1.004325e+01
0	 8.148148e+00	 6.740741e+00	 1.004210e+01
0	 8.148148e+00	 6.814815e+00	 1.004092e+01
0	 8.148148e+00	 6.888889e+00	 1.003973e+01
0	 8.148148e+00	 6.962963e+00	 1.003851e+01
0	 8.148148e+00	 7.037037e+00	 1.003727e+01
0	 8.222222e+00	 6.666667e+00	 1.004061e+01
0	 8.222222e+00	 6.740741e+00	 1.003955e+01
0	 8.222222e+00	 6.814815e+00	 1.003848e+01
0	 8.222222e+00	 6.888889e+00	 1.003738e+01
0	 8.222222e+00	 6.962963e+00	 1.003626e+01
0	 8.222222e+00	 7.037037e+00	 1.003511e+01
0	 8.296296e+00	 6.666667e+00	 1.003801e+01
0	 8.296296e+00	 6.740741e+00	 1.003705e+01
0	 8.296296e+00	 6.814815e+00	 1.003607e+01
0	 8.296296e+00	 6.888889e+00	 1.003507e+01
0	 8.296296e+00	 6.962963e+00	 1.003404e+01
0	 8.296296e+00	 7.037037e+00	 1.003299e+01
0	 8.370370e+00	 6.666667e+00	 1.003545e+01
0	 8.370370e+00	 6.740741e+00	 1.003459e+01
0	 8.370370e+00	 6.814815e+00	 1.003371e+01
0	 8.370370e+00	 6.888889e+00	 1.003280e+01
0	 8.370370e+00	 6.962963e+00	 1.003187e+01
0	 8.370370e+00	 7.037037e+00	 1.003090e+01
0	 8.444444e+00	 6.666667e+00	 1.003296e+01
0	 8.444444e+00	 6.740741e+00	 1.003219e+01
0	 8.444444e+00	 6.814815e+00	 1.003140e+01
0	 8.444444e+00	 6.888889e+00	 1.003058e+01
0	 8.444444e+00	 6.962963e+00	 1.002974e+01
0	 8.444444e+00	 7.037037e+00	 1.002886e+01
0	 8.518519e+00	 6.666667e+00	 1.003052e+01
0	 8.518519e+00	 6.740741e+00	 1.002984e+01
0	 8.518519e+00	 6.814815e+00	 1.002914e+01
0	 8.518519e+00	 6.888889e+00	 1.002842e+01
0	 8.518519e+00	 6.962963e+00	 1.002766e+01
0	 8.518519e+00	 7.037037e+00	 1.002686e+01
0	 8.148148e+00	 7.037037e+00	 1.003727e+01
0	 8.148148e+00	 7.111111e+00	 1.003601e+01
0	 8.148148e+00	 7.185185e+00	 1.003475e+01
0	 8.148148e+00	 7.259259e+00	 1.003348e+01
0	 8.148148e+00	 7.333333e+00	 1.003220e+01
0	 8.148148e+00	 7.407407e+00	 1.003091e+01
0	 8.222222e+00	 7.037037e+00	 1.003511e+01
0	 8.222222e+00	 7.111111e+00	 1.003395e+01
0	 8.222222e+00	 7.185185e+00	 1.003278e+01
0	 8.222222e+00	 7.259259e+00	 1.003160e+01
0	 8.222222e+00	 7.333333e+00	 1.003040e+01
0	 8.222222e+00	 7.407407e+00	 1.002920e+01
0	 8.296296e+00	 7.037037e+00	 1.003299e+01
0	 8.296296e+00	 7.111111e+00	 1.003192e+01
0	 8.296296e+00	 7.185185e+00	 1.003083e+01
0	 8.296296e+00	 7.259259e+00	 1.002974e+01
0	 8.296296e+00	 7.333333e+00	 1.002863e+01
0	 8.296296e+00	 7.407407e+00	 1.002751e+01
0	 8.370370e+00	 7.037037e+00	 1.003090e+01
0	 8.370370e+00	 7.111111e+00	 1.002992e+01
0	 8.370370e+00	 7.185185e+00	 1.002892e+01
0	 8.370370e+00	 7.259259e+00	 1.002791e+01
0	 8.370370e+00	 7.333333e+00	 1.002689e+01
0	 8.370370e+00	 7.407407e+00	 1.002585e+01
0	 8.444444e+00	 7.037037e+00	 1.002886e+01
0	 8.444444e+00	 7.111111e+00	 1.002796e+01
0	 8.444444e+00	 7.185185e+00	 1.002705e+01
0	 8.444444e+00	 7.259259e+00	 1.002612e+01
0	 8.444444e+00	 7.333333e+00	 1.002518e+01
0	 8.444444e+00	 7.407407e+00	 1.002422e+01
0	 8.518519e+00	 7.037037e+00	 1.002686e+01
0	 8.518519e+00	 7.111111e+00	 1.002605e+01
0	 8.518519e+00	 7.185185e+00	 1.002522e+01
0	 8.518519e+00	 7.259259e+00	 1.002437e+01
0	 8.518519e+00	 7.333333e+00	 1.002351e+01
0	 8.518519e+00	 7.407407e+00	 1.002263e+01
0	 8.148148e+00	 7.407407e+00	 1.003091e+01
0	 8.148148e+00	 7.481481e+00	 1.002961e+01
0	 8.148148e+00	 7.555556e+00	 1.002832e+01
0	 8.148148e+00	 7.629630e+00	 1.002703e+01
0	 8.148148e+00	 7.703704e+00	 1.002575e+01
0	 8.148148e+00	 7.777778e+00	 1.002446e+01
0	 8.222222e+00	 7.407407e+00	 1.002920e+01
0	 8.222222e+00	 7.481481e+00	 1.002798e+01
0	 8.222222e+00	 7.555556e+00	 1.002677e+01
0	 8.222222e+00	 7.629630e+00	 1.002557e+01
0	 8.222222e+00	 7.703704e+00	 1.002436e+01
0	 8.222222e+00	 7.777778e+00	 1.002315e+01
0	 8.296296e+00	 7.407407e+00	 1.002751e+01
0	 8.296296e+00	 7.481481e+00	 1.002638e+01
0	 8.296296e+00	 7.555556e+00	 1.002525e+01
0	 8.296296e+00	 7.629630e+00	 1.002412e+01
0	 8.296296e+00	 7.703704e+00	 1.002299e+01
0	 8.296296e+00	 7.777778e+00	 1.002185e+01
0	 8.370370e+00	 7.407407e+00	 1.002585e+01
0	 8.370370e+00	 7.481481e+00	 1.002480e+01
0	 8.370370e+00	 7.555556e+00	 1.002375e+01
0	 8.370370e+00	 7.629630e+00	 1.002269e+01
0	 8.370370e+00	 7.703704e+00	 1.002164e+01
0	 8.370370e+00	 7.777778e+00	 1.002058e+01
0	 8.444444e+00	 7.407407e+00	 1.002422e+01
0	 8.444444e+00	 7.481481e+00	 1.002325e+01
0	 8.444444e+00	 7.555556e+00	 1.002227e+01
0	 8.444444e+00	 7.629630e+00	 1.002130e+01
0	 8.444444e+00	 7.703704e+00	 1.002031e+01
0	 8.444444e+00	 7.777778e+00	 1.001932e+01
0	 8.518519e+00	 7.407407e+00	 1.002263e+01
0	 8.518519e+00	 7.481481e+00	 1.002173e+01
0	 8.518519e+00	 7.555556e+00	 1.002083e+01
0	 8.518519e+00	 7.629630e+00	 1.001992e+01
0	 8.518519e+00	 7.703704e+00	 1.001901e+01
0	 8.518519e+00	 7.777778e+00	 1.001809e+01
0	 8.148148e+00	 7.777778e+00	 1.002446e+01
0	 8.148148e+00	 7.851852e+00	 1.002318e+01
0	 8.148148e+00	 7.925926e+00	 1.002191e+01
0	 8.148148e+00	 8.000000e+00	 1.002067e+01
0	 8.148148e+00	 8.074074e+00	 1.001943e+01
0	 8.148148e+00	 8.148148e+00	 1.001820e+01
0	 8.222222e+00	 7.777778e+00	 1.002315e+01
0	 8.222222e+00	 7.851852e+00	 1.002194e+01
0	 8.222222e+00	 7.925926e+00	 1.002075e+01
0	 8.222222e+00	 8.000000e+00	 1.001957e+01
0	 8.222222e+00	 8.074074e+00	 1.001841e+01
0	 8.222222e+00	 8.148148e+00	 1.001725e+01
0	 8.296296e+00	 7.777778e+00	 1.002185e+01
0	 8.296296e+00	 7.851852e+00	 1.002072e+01
0	 8.296296e+00	 7.925926e+00	 1.001960e+01
0	 8.296296e+00	 8.000000e+00	 1.001850e+01
0	 8.296296e+00	 8.074074e+00	 1.001740e+01
0	 8.296296e+00	 8.148148e+00	 1.001631e+01
0	 8.370370e+00	 7.777778e+00	 1.002058e+01
0	 8.370370e+00	 7.851852e+00	 1.001952e+01
0	 8.370370e+00	 7.925926e+00	 1.001847e+01
0	 8.370370e+00	 8.000000e+00	 1.001743e+01
0	 8.370370e+00	 8.074074e+00	 1.001640e+01
0	 8.370370e+00	 8.148148e+00	 1.001538e+01
0	 8.444444e+00	 7.777778e+00	 1.001932e+01
0	 8.444444e+00	 7.851852e+00	 1.001833e+01
0	 8.444444e+00	 7.925926e+00	 1.001735e+01
0	 8.444444e+00	 8.000000e+00	 1.001638e+01
0	 8.444444e+00	 8.074074e+00	 1.001542e+01
0	 8.444444e+00	 8.148148e+00	 1.001446e+01
0	 8.518519e+00	 7.777778e+00	 1.001809e+01
0	 8.518519e+00	 7.851852e+00	 1.001717e+01
0	 8.518519e+00	 7.925926e+00	 1.001626e+01
0	 8.518519e+00	 8.000000e+00	 1.001535e+01
0	 8.518519e+00	 8.074074e+00	 1.001445e+01
0	 8.518519e+00	 8.148148e+00	 1.001355e+01
0	 8.148148e+00	 8.148148e+00	 1.001820e+01
0	 8.148148e+00	 8.222222e+00	 1.001700e+01
0	 8.148148e+00	 8.296296e+00	 1.001582e+01
0	 8.148148e+00	 8.370370e+00	 1.001467e+01
0	 8.148148e+00	 8.444444e+00	 1.001354e+01
0	 8.148148e+00	 8.518519e+00	 1.001243e+01
0	 8.222222e+00	 8.148148e+00	 1.001725e+01
0	 8.222222e+00	 8.222222e+00	 1.001611e+01
0	 8.222222e+00	 8.296296e+00	 1.001500e+01
0	 8.222222e+00	 8.370370e+00	 1.001391e+01
0	 8.222222e+00	 8.444444e+00	 1.001284e+01
0	 8.222222e+00	 8.518519e+00	 1.001179e+01
0	 8.296296e+00	 8.148148e+00	 1.001631e+01
0	 8.296296e+00	 8.222222e+00	 1.001523e+01
0	 8.296296e+00	 8.296296e+00	 1.001418e+01
0	 8.296296e+00	 8.370370e+00	 1.001315e+01
0	 8.296296e+00	 8.444444e+00	 1.001214e+01
0	 8.296296e+00	 8.518519e+00	 1.001115e+01
0	 8.370370e+00	 8.148148e+00	 1.001538e+01
0	 8.370370e+00	 8.222222e+00	 1.001436e+01
0	 8.370370e+00	 8.296296e+00	 1.001337e+01
0	 8.370370e+00	 8.370370e+00	 1.001241e+01
0	 8.370370e+00	 8.444444e+00	 1.001146e+01
0	 8.370370e+00	 8.518519e+00	 1.001052e+01
0	 8.444444e+00	 8.148148e+00	 1.001446e+01
0	 8.444444e+00	 8.222222e+00	 1.001351e+01
0	 8.444444e+00	 8.296296e+00	 1.001258e+01
0	 8.444444e+00	 8.370370e+00	 1.001167e+01
0	 8.444444e+00	 8.444444e+00	 1.001078e+01
0	 8.444444e+00	 8.518519e+00	 1.000990e+01
0	 8.518519e+00	 8.148148e+00	 1.001355e+01
0	 8.518519e+00	 8.222222e+00	 1.001267e+01
0	 8.518519e+00	 8.296296e+00	 1.001180e+01
0	 8.518519e+00	 8.370370e+00	 1.001095e+01
0	 8.518519e+00	 8.444444e+00	 1.001011e+01
0	 8.518519e+00	 8.518519e+00	 1.000929e+01
0	 8.148148e+00	 8.518519e+00	 1.001243e+01
0	 8.148148e+00	 8.592593e+00	 1.001136e+01
0	 8.148148e+00	 8.666667e+00	 1.001032e+01
0	 8.148148e+00	 8.740741e+00	 1.000932e+01
0	 8.148148e+00	 8.814815e+00	 1.000836e+01
0	 8.148148e+00	 8.888889e+00	 1.000743e+01
0	 8.222222e+00	 8.518519e+00	 1.001179e+01
0	 8.222222e+00	 8.592593e+00	 1.001077e+01
0	 8.222222e+00	 8.666667e+00	 1.000979e+01
0	 8.222222e+00	 8.740741e+00	 1.000885e+01
0	 8.222222e+00	 8.814815e+00	 1.000793e+01
0	 8.222222e+00	 8.888889e+00	 1.000705e+01
0	 8.296296e+00	 8.518519e+00	 1.001115e+01
0	 8.296296e+00	 8.592593e+00	 1.001019e+01
0	 8.296296e+00	 8.666667e+00	 1.000926e+01
0	 8.296296e+00	 8.740741e+00	 1.000837e+01
0	 8.296296e+00	 8.814815e+00	 1.000751e+01
0	 8.296296e+00	 8.888889e+00	 1.000667e+01
0	 8.370370e+00	 8.518519e+00	 1.001052e+01
0	 8.370370e+00	 8.592593e+00	 1.000961e+01
0	 8.370370e+00	 8.666667e+00	 1.000874e+01
0	 8.370370e+00	 8.740741e+00	 1.000790e+01
0	 8.370370e+00	 8.814815e+00	 1.000708e+01
0	 8.370370e+00	 8.888889e+00	 1.000630e+01
0	 8.444444e+00	 8.518519e+00	 1.000990e+01
0	 8.444444e+00	 8.592593e+00	 1.000905e+01
0	 8.444444e+00	 8.666667e+00	 1.000822e+01
0	 8.444444e+00	 8.740741e+00	 1.000743e+01
0	 8.444444e+00	 8.814815e+00	 1.000666e+01
0	 8.444444e+00	 8.888889e+00	 1.000592e+01
0	 8.518519e+00	 8.518519e+00	 1.000929e+01
0	 8.518519e+00	 8.592593e+00	 1.000848e+01
0	 8.518519e+00	 8.666667e+00	 1.000771e+01
0	 8.518519e+00	 8.740741e+00	 1.000697e+01
0	 8.518519e+00	 8.814815e+00	 1.000625e+01
0	 8.518519e+00	 8.888889e+00	 1.000556e+01
0	 8.148148e+00	 8.888889e+00	 1.000743e+01
0	 8.148148e+00	 8.962963e+00	 1.000655e+01
0	 8.148148e+00	 9.037037e+00	 1.000571e+01
0	 8.148148e+00	 9.111111e+00	 1.000493e+01
0	 8.148148e+00	 9.185185e+00	 1.000419e+01
0	 8.148148e+00	 9.259259e+00	 1.000350e+01
0	 8.222222e+00	 8.888889e+00	 1.000705e+01
0	 8.222222e+00	 8.962963e+00	 1.000621e+01
0	 8.222222e+00	 9.037037e+00	 1.000542e+01
0	 8.222222e+00	 9.111111e+00	 1.000468e+01
0	 8.222222e+00	 9.185185e+00	 1.000398e+01
0	 8.222222e+00	 9.259259e+00	 1.000332e+01
0	 8.296296e+00	 8.888889e+00	 1.000667e+01
0	 8.296296e+00	 8.962963e+00	 1.000588e+01
0	 8.296296e+00	 9.037037e+00	 1.000513e+01
0	 8.296296e+00	 9.111111e+00	 1.000442e+01
0	 8.296296e+00	 9.185185e+00	 1.000376e+01
0	 8.296296e+00	 9.259259e+00	 1.000314e+01
0	 8.370370e+00	 8.888889e+00	 1.000630e+01
0	 8.370370e+00	 8.962963e+00	 1.000555e+01
0	 8.370370e+00	 9.037037e+00	 1.000484e+01
0	 8.370370e+00	 9.111111e+00	 1.000417e+01
0	 8.370370e+00	 9.185185e+00	 1.000355e+01
0	 8.370370e+00	 9.259259e+00	 1.000296e+01
0	 8.444444e+00	 8.888889e+00	 1.000592e+01
0	 8.444444e+00	 8.962963e+00	 1.000522e+01
0	 8.444444e+00	 9.037037e+00	 1.000455e+01
0	 8.444444e+00	 9.111111e+00	 1.000393e+01
0	 8.444444e+00	 9.185185e+00	 1.000334e+01
0	 8.444444e+00	 9.259259e+00	 1.000279e+01
0	 8.518519e+00	 8.888889e+00	 1.000556e+01
0	 8.518519e+00	 8.962963e+00	 1.000489e+01
0	 8.518519e+00	 9.037037e+00	 1.000427e+01
0	 8.518519e+00	 9.111111e+00	 1.000368e+01
0	 8.518519e+00	 9.185185e+00	 1.000313e+01
0	 8.518519e+00	 9.259259e+00	 1.000261e+01
0	 8.148148e+00	 9.259259e+00	 1.000350e+01
0	 8.148148e+00	 9.333333e+00	 1.000286e+01
0	 8.148148e+00	 9.407407e+00	 1.000228e+01
0	 8.148148e+00	 9.481481e+00	 1.000177e+01
0	 8.148148e+00	 9.555556e+00	 1.000132e+01
0	 8.148148e+00	 9.629630e+00	 1.000092e+01
0	 8.222222e+00	 9.259259e+00	 1.000332e+01
0	 8.222222e+00	 9.333333e+00	 1.000271e+01
0	 8.222222e+00	 9.407407e+00	 1.000217e+01
0	 8.222222e+00	 9.481481e+00	 1.000168e+01
0	 8.222222e+00	 9.555556e+00	 1.000125e+01
0	 8.222222e+00	 9.629630e+00	 1.000088e+01
0	 8.296296e+00	 9.259259e+00	 1.000314e+01
0	 8.296296e+00	 9.333333e+00	 1.000257e+01
0	 8.296296e+00	 9.407407e+00	 1.000205e+01
0	 8.296296e+00	 9.481481e+00	 1.000159e+01
0	 8.296296e+00	 9.555556e+00	 1.000119e+01
0	 8.296296e+00	 9.629630e+00	 1.000083e+01
0	 8.370370e+00	 9.259259e+00	 1.000296e+01
0	 8.370370e+00	 9.333333e+00	 1.000242e+01
0	 8.370370e+00	 9.407407e+00	 1.000193e+01
0	 8.370370e+00	 9.481481e+00	 1.000150e+01
0	 8.370370e+00	 9.555556e+00	 1.000112e+01
0	 8.370370e+00	 9.629630e+00	 1.000078e+01
0	 8.444444e+00	 9.259259e+00	 1.000279e+01
0	 8.444444e+00	 9.333333e+00	 1.000228e+01
0	 8.444444e+00	 9.407407e+00	 1.000182e+01
0	 8.444444e+00	 9.481481e+00	 1.000141e+01
0	 8.444444e+00	 9.555556e+00	 1.000105e+01
0	 8.444444e+00	 9.629630e+00	 1.000073e+01
0	 8.518519e+00	 9.259259e+00	 1.000261e+01
0	 8.518519e+00	 9.333333e+00	 1.000213e+01
0	 8.518519e+00	 9.407407e+00	 1.000171e+01
0	 8.518519e+00	 9.481481e+00	 1.000132e+01
0	 8.518519e+00	 9.555556e+00	 1.000099e+01
0	 8.518519e+00	 9.629630e+00	 1.000069e+01
0	 8.148148e+00	 9.629630e+00	 1.000092e+01
0	 8.148148e+00	 9.703704e+00	 1.000059e+01
0	 8.148148e+00	 9.777778e+00	 1.000034e+01
0	 8.148148e+00	 9.851852e+00	 1.000015e+01
0	 8.148148e+00	 9.925926e+00	 1.000004e+01
0	 8.148148e+00	 1.000000e+01	 9.999994e+00
0	 8.222222e+00	 9.629630e+00	 1.000088e+01
0	 8.222222e+00	 9.703704e+00	 1.000056e+01
0	 8.222222e+00	 9.777778e+00	 1.000032e+01
0	 8.222222e+00	 9.851852e+00	 1.000015e+01
0	 8.222222e+00	 9.925926e+00	 1.000004e+01
0	 8.222222e+00	 1.000000e+01	 9.999996e+00
0	 8.296296e+00	 9.629630e+00	 1.000083e+01
0	 8.296296e+00	 9.703704e+00	 1.000053e+01
0	 8.296296e+00	 9.777778e+00	 1.000030e+01
0	 8.296296e+00	 9.851852e+00	 1.000014e+01
0	 8.296296e+00	 9.925926e+00	 1.000004e+01
0	 8.296296e+00	 1.000000e+01	 9.999995e+00
0	 8.370370e+00	 9.629630e+00	 1.000078e+01
0	 8.370370e+00	 9.703704e+00	 1.000050e+01
0	 8.370370e+00	 9.777778e+00	 1.000028e+01
0	 8.370370e+00	 9.851852e+00	 1.000013e+01
0	 8.370370e+00	 9.925926e+00	 1.000003e+01
0	 8.370370e+00	 1.000000e+01	 9.999993e+00
0	 8.444444e+00	 9.629630e+00	 1.000073e+01
0	 8.444444e+00	 9.703704e+00	 1.000047e+01
0	 8.444444e+00	 9.777778e+00	 1.000027e+01
0	 8.444444e+00	 9.851852e+00	 1.000012e+01
0	 8.444444e+00	 9.925926e+00	 1.000003e+01
0	 8.444444e+00	 1.000000e+01	 9.999992e+00
0	 8.518519e+00	 9.629630e+00	 1.000069e+01
0	 8.518519e+00	 9.703704e+00	 1.000044e+01
0	 8.518519e+00	 9.777778e+00	 1.000025e+01
0	 8.518519e+00	 9.851852e+00	 1.000012e+01
0	 8.518519e+00	 9.925926e+00	 1.000003e+01
0	 8.518519e+00	 1.000000e+01	 9.999995e+00
0	 8.518519e+00	 0.000000e+00	 9.906033e+00
0	 8.518519e+00	 7.407407e-02	 9.906103e+00
0	 8.518519e+00	 1.481481e-01	 9.906311e+00
0	 8.518519e+00	 2.222222e-01	 9.906657e+00
0	 8.518519e+00	 2.962963e-01	 9.907142e+00
0	 8.518519e+00	 3.703704e-01	 9.907766e+00
0	 8.592593e+00	 0.000000e+00	 9.895990e+00
0	 8.592593e+00	 7.407407e-02	 9.896062e+00
0	 8.592593e+00	 1.481481e-01	 9.896273e+00
0	 8.592593e+00	 2.222222e-01	 9.896623e+00
0	 8.592593e+00	 2.962963e-01	 9.897114e+00
0	 8.592593e+00	 3.703704e-01	 9.897745e+00
0	 8.666667e+00	 0.000000e+00	 9.885757e+00
0	 8.666667e+00	 7.407407e-02	 9.885830e+00
0	 8.666667e+00	 1.481481e-01	 9.886044e+00
0	 8.666667e+00	 2.222222e-01	 9.886400e+00
0	 8.666667e+00	 2.962963e-01	 9.886898e+00
0	 8.666667e+00	 3.703704e-01	 9.887540e+00
0	 8.740741e+00	 0.000000e+00	 9.875317e+00
0	 8.740741e+00	 7.407407e-02	 9.875391e+00
0	 8.740741e+00	 1.481481e-01	 9.875609e+00
0	 8.740741e+00	 2.222222e-01	 9.875971e+00
0	 8.740741e+00	 2.962963e-01	 9.876479e+00
0	 8.740741e+00	 3.703704e-01	 9.877132e+00
0	 8.814815e+00	 0.000000e+00	 9.864652e+00
0	 8.814815e+00	 7.407407e-02	 9.864727e+00
0	 8.814815e+00	 1.481481e-01	 9.864949e+00
0	 8.814815e+00	 2.222222e-01	 9.865319e+00
0	 8.814815e+00	 2.962963e-01	 9.865838e+00
0	 8.814815e+00	 3.703704e-01	 9.866506e+00
0	 8.888889e+00	 0.000000e+00	 9.853745e+00
0	 8.888889e+00	 7.407407e-02	 9.853821e+00
0	 8.888889e+00	 1.481481e-01	 9.854049e+00
0	 8.888889e+00	 2.222222e-01	 9.854428e+00
0	 8.888889e+00	 2.962963e-01	 9.854959e+00
0	 8.888889e+00	 3.703704e-01	 9.855643e+00
0	 8.518519e+00	 3.703704e-01	 9.907766e+00
0	 8.518519e+00	 4.444444e-01	 9.908522e+00
0	 8.518519e+00	 5.185185e-01	 9.909405e+00
0	 8.518519e+00	 5.925926e-01	 9.910417e+00
0	 8.518519e+00	 6.666667e-01	 9.911559e+00
0	 8.518519e+00	 7.407407e-01	 9.912834e+00
0	 8.592593e+00	 3.703704e-01	 9.897745e+00
0	 8.592593e+00	 4.444444e-01	 9.898511e+00
0	 8.592593e+00	 5.185185e-01	 9.899406e+00
0	 8.592593e+00	 5.925926e-01	 9.900431e+00
0	 8.592593e+00	 6.666667e-01	 9.901589e+00
0	 8.592593e+00	 7.407407e-01	 9.902881e+00
0	 8.666667e+00	 3.703704e-01	 9.887540e+00
0	 8.666667e+00	 4.444444e-01	 9.888318e+00
0	 8.666667e+00	 5.185185e-01	 9.889227e+00
0	 8.666667e+00	 5.925926e-01	 9.890270e+00
0	 8.666667e+00	 6.666667e-01	 9.891447e+00
0	 8.666667e+00	 7.407407e-01	 9.892760e+00
0	 8.740741e+00	 3.703704e-01	 9.877132e+00
0	 8.740741e+00	 4.444444e-01	 9.877925e+00
0	 8.740741e+00	 5.185185e-01	 9.878852e+00
0	 8.740741e+00	 5.925926e-01	 9.879915e+00
0	 8.740741e+00	 6.666667e-01	 9.881115e+00
0	 8.740741e+00	 7.407407e-01	 9.882454e+00
0	 8.814815e+00	 3.703704e-01	 9.866506e+00
0	 8.814815e+00	 4.444444e-01	 9.867316e+00
0	 8.814815e+00	 5.185185e-01	 9.868264e+00
0	 8.814815e+00	 5.925926e-01	 9.869351e+00
0	 8.814815e+00	 6.666667e-01	 9.870579e+00
0	 8.814815e+00	 7.407407e-01	 9.871948e+00
0	 8.888889e+00	 3.703704e-01	 9.855643e+00
0	 8.888889e+00	 4.444444e-01	 9.856474e+00
0	 8.888889e+00	 5.185185e-01	 9.857447e+00
0	 8.888889e+00	 5.925926e-01	 9.858561e+00
0	 8.888889e+00	 6.666667e-01	 9.859820e+00
0	 8.888889e+00	 7.407407e-01	 9.861224e+00
0	 8.518519e+00	 7.407407e-01	 9.912834e+00
0	 8.518519e+00	 8.148148e-01	 9.914227e+00
0	 8.518519e+00	 8.888889e-01	 9.915728e+00
0	 8.518519e+00	 9.629630e-01	 9.917339e+00
0	 8.518519e+00	 1.037037e+00	 9.919063e+00
0	 8.518519e+00	 1.111111e+00	 9.920902e+00
0	 8.592593e+00	 7.407407e-01	 9.902881e+00
0	 8.592593e+00	 8.148148e-01	 9.904294e+00
0	 8.592593e+00	 8.888889e-01	 9.905817e+00
0	 8.592593e+00	 9.629630e-01	 9.907451e+00
0	 8.592593e+00	 1.037037e+00	 9.909201e+00
0	 8.592593e+00	 1.111111e+00	 9.911069e+00
0	 8.666667e+00	 7.407407e-01	 9.892760e+00
0	 8.666667e+00	 8.148148e-01	 9.894197e+00
0	 8.666667e+00	 8.888889e-01	 9.895746e+00
0	 8.666667e+00	 9.629630e-01	 9.897410e+00
0	 8.666667e+00	 1.037037e+00	 9.899192e+00
0	 8.666667e+00	 1.111111e+00	 9.901093e+00
0	 8.740741e+00	 7.407407e-01	 9.882454e+00
0	 8.740741e+00	 8.148148e-01	 9.883919e+00
0	 8.740741e+00	 8.888889e-01	 9.885501e+00
0	 8.740741e+00	 9.629630e-01	 9.887200e+00
0	 8.740741e+00	 1.037037e+00	 9.889019e+00
0	 8.740741e+00	 1.111111e+00	 9.890960e+00
0	 8.814815e+00	 7.407407e-01	 9.871948e+00
0	 8.814815e+00	 8.148148e-01	 9.873447e+00
0	 8.814815e+00	 8.888889e-01	 9.875065e+00
0	 8.814815e+00	 9.629630e-01	 9.876804e+00
0	 8.814815e+00	 1.037037e+00	 9.878667e+00
0	 8.814815e+00	 1.111111e+00	 9.880655e+00
0	 8.888889e+00	 7.407407e-01	 9.861224e+00
0	 8.888889e+00	 8.148148e-01	 9.862762e+00
0	 8.888889e+00	 8.888889e-01	 9.864423e+00
0	 8.888889e+00	 9.629630e-01	 9.866208e+00
0	 8.888889e+00	 1.037037e+00	 9.868121e+00
0	 8.888889e+00	 1.111111e+00	 9.870163e+00
0	 8.518519e+00	 1.111111e+00	 9.920902e+00
0	 8.518519e+00	 1.185185e+00	 9.922839e+00
0	 8.518519e+00	 1.259259e+00	 9.924858e+00
0	 8.518519e+00	 1.333333e+00	 9.926962e+00
0	 8.518519e+00	 1.407407e+00	 9.929155e+00
0	 8.518519e+00	 1.481481e+00	 9.931440e+00
0	 8.592593e+00	 1.111111e+00	 9.911069e+00
0	 8.592593e+00	 1.185185e+00	 9.913037e+00
0	 8.592593e+00	 1.259259e+00	 9.915089e+00
0	 8.592593e+00	 1.333333e+00	 9.917230e+00
0	 8.592593e+00	 1.407407e+00	 9.919462e+00
0	 8.592593e+00	 1.481481e+00	 9.921787e+00
0	 8.666667e+00	 1.111111e+00	 9.901093e+00
0	 8.666667e+00	 1.185185e+00	 9.903098e+00
0	 8.666667e+00	 1.259259e+00	 9.905191e+00
0	 8.666667e+00	 1.333333e+00	 9.907374e+00
0	 8.666667e+00	 1.407407e+00	 9.909651e+00
0	 8.666667e+00	 1.481481e+00	 9.912026e+00
0	 8.740741e+00	 1.111111e+00	 9.890960e+00
0	 8.740741e+00	 1.185185e+00	 9.893009e+00
0	 8.740741e+00	 1.259259e+00	 9.895148e+00
0	 8.740741e+00	 1.333333e+00	 9.897381e+00
0	 8.740741e+00	 1.407407e+00	 9.899711e+00
0	 8.740741e+00	 1.481481e+00	 9.902141e+00
0	 8.814815e+00	 1.111111e+00	 9.880655e+00
0	 8.814815e+00	 1.185185e+00	 9.882754e+00
0	 8.814815e+00	 1.259259e+00	 9.884947e+00
0	 8.814815e+00	 1.333333e+00	 9.887237e+00
0	 8.814815e+00	 1.407407e+00	 9.889627e+00
0	 8.814815e+00	 1.481481e+00	 9.892121e+00
0	 8.888889e+00	 1.111111e+00	 9.870163e+00
0	 8.888889e+00	 1.185185e+00	 9.872319e+00
0	 8.888889e+00	 1.259259e+00	 9.874573e+00
0	 8.888889e+00	 1.333333e+00	 9.876928e+00
0	 8.888889e+00	 1.407407e+00	 9.879386e+00
0	 8.888889e+00	 1.481481e+00	 9.881951e+00
0	 8.518519e+00	 1.481481e+00	 9.931440e+00
0	 8.518519e+00	 1.555556e+00	 9.933797e+00
0	 8.518519e+00	 1.629630e+00	 9.936207e+00
0	 8.518519e+00	 1.703704e+00	 9.938673e+00
0	 8.518519e+00	 1.777778e+00	 9.941199e+00
0	 8.518519e+00	 1.851852e+00	 9.943789e+00
0	 8.592593e+00	 1.481481e+00	 9.921787e+00
0	 8.592593e+00	 1.555556e+00	 9.924188e+00
0	 8.592593e+00	 1.629630e+00	 9.926645e+00
0	 8.592593e+00	 1.703704e+00	 9.929161e+00
0	 8.592593e+00	 1.777778e+00	 9.931741e+00
0	 8.592593e+00	 1.851852e+00	 9.934386e+00
0	 8.666667e+00	 1.481481e+00	 9.912026e+00
0	 8.666667e+00	 1.555556e+00	 9.914478e+00
0	 8.666667e+00	 1.629630e+00	 9.916989e+00
0	 8.666667e+00	 1.703704e+00	 9.919563e+00
0	 8.666667e+00	 1.777778e+00	 9.922202e+00
0	 8.666667e+00	 1.851852e+00	 9.924911e+00
0	 8.740741e+00	 1.481481e+00	 9.902141e+00
0	 8.740741e+00	 1.555556e+00	 9.904652e+00
0	 8.740741e+00	 1.629630e+00	 9.907225e+00
0	 8.740741e+00	 1.703704e+00	 9.909864e+00
0	 8.740741e+00	 1.777778e+00	 9.912573e+00
0	 8.740741e+00	 1.851852e+00	 9.915353e+00
0	 8.814815e+00	 1.481481e+00	 9.892121e+00
0	 8.814815e+00	 1.555556e+00	 9.894698e+00
0	 8.814815e+00	 1.629630e+00	 9.897342e+00
0	 8.814815e+00	 1.703704e+00	 9.900055e+00
0	 8.814815e+00	 1.777778e+00	 9.902840e+00
0	 8.814815e+00	 1.851852e+00	 9.905700e+00
0	 8.888889e+00	 1.481481e+00	 9.881951e+00
0	 8.888889e+00	 1.555556e+00	 9.884604e+00
0	 8.888889e+00	 1.629630e+00	 9.887327e+00
0	 8.888889e+00	 1.703704e+00	 9.890122e+00
0	 8.888889e+00	 1.777778e+00	 9.892993e+00
0	 8.888889e+00	 1.851852e+00	 9.895942e+00
0	 8.518519e+00	 1.851852e+00	 9.943789e+00
0	 8.518519e+00	 1.925926e+00	 9.946422e+00
0	 8.518519e+00	 2.000000e+00	 9.949077e+00
0	 8.518519e+00	 2.074074e+00	 9.951759e+00
0	 8.518519e+00	 2.148148e+00	 9.954471e+00
0	 8.518519e+00	 2.222222e+00	 9.957217e+00
0	 8.592593e+00	 1.851852e+00	 9.934386e+00
0	 8.592593e+00	 1.925926e+00	 9.937078e+00
0	 8.592593e+00	 2.000000e+00	 9.939796e+00
0	 8.592593e+00	 2.074074e+00	 9.942543e+00
0	 8.592593e+00	 2.148148e+00	 9.945323e+00
0	 8.592593e+00	 2.222222e+00	 9.948140e+00
0	 8.666667e+00	 1.851852e+00	 9.924911e+00
0	 8.666667e+00	 1.925926e+00	 9.927669e+00
0	 8.666667e+00	 2.000000e+00	 9.930457e+00
0	 8.666667e+00	 2.074074e+00	 9.933277e+00
0	 8.666667e+00	 2.148148e+00	 9.936133e+00
0	 8.666667e+00	 2.222222e+00	 9.939029e+00
0	 8.740741e+00	 1.851852e+00	 9.915353e+00
0	 8.740741e+00	 1.925926e+00	 9.918186e+00
0	 8.740741e+00	 2.000000e+00	 9.921051e+00
0	 8.740741e+00	 2.074074e+00	 9.923952e+00
0	 8.740741e+00	 2.148148e+00	 9.926893e+00
0	 8.740741e+00	 2.222222e+00	 9.929876e+00
0	 8.814815e+00	 1.851852e+00	 9.905700e+00
0	 8.814815e+00	 1.925926e+00	 9.908616e+00
0	 8.814815e+00	 2.000000e+00	 9.911568e+00
0	 8.814815e+00	 2.074074e+00	 9.914559e+00
0	 8.814815e+00	 2.148148e+00	 9.917593e+00
0	 8.814815e+00	 2.222222e+00	 9.920671e+00
0	 8.888889e+00	 1.851852e+00	 9.895942e+00
0	 8.888889e+00	 1.925926e+00	 9.898951e+00
0	 8.888889e+00	 2.000000e+00	 9.901998e+00
0	 8.888889e+00	 2.074074e+00	 9.905089e+00
0	 8.888889e+00	 2.148148e+00	 9.908224e+00
0	 8.888889e+00	 2.222222e+00	 9.911408e+00
0	 8.518519e+00	 2.222222e+00	 9.957217e+00
0	 8.518519e+00	 2.296296e+00	 9.959976e+00
0	 8.518519e+00	 2.370370e+00	 9.962730e+00
0	 8.518519e+00	 2.444444e+00	 9.965481e+00
0	 8.518519e+00	 2.518519e+00	 9.968233e+00
0	 8.518519e+00	 2.592593e+00	 9.970988e+00
0	 8.592593e+00	 2.222222e+00	 9.948140e+00
0	 8.592593e+00	 2.296296e+00	 9.950974e+00
0	 8.592593e+00	 2.370370e+00	 9.953805e+00
0	 8.592593e+00	 2.444444e+00	 9.956637e+00
0	 8.592593e+00	 2.518519e+00	 9.959473e+00
0	 8.592593e+00	 2.592593e+00	 9.962315e+00
0	 8.666667e+00	 2.222222e+00	 9.939029e+00
0	 8.666667e+00	 2.296296e+00	 9.941945e+00
0	 8.666667e+00	 2.370370e+00	 9.944861e+00
0	 8.666667e+00	 2.444444e+00	 9.947781e+00
0	 8.666667e+00	 2.518519e+00	 9.950708e+00
0	 8.666667e+00	 2.592593e+00	 9.953644e+00
0	 8.740741e+00	 2.222222e+00	 9.929876e+00
0	 8.740741e+00	 2.296296e+00	 9.932881e+00
0	 8.740741e+00	 2.370370e+00	 9.935891e+00
0	 8.740741e+00	 2.444444e+00	 9.938907e+00
0	 8.740741e+00	 2.518519e+00	 9.941932e+00
0	 8.740741e+00	 2.592593e+00	 9.944970e+00
0	 8.814815e+00	 2.222222e+00	 9.920671e+00
0	 8.814815e+00	 2.296296e+00	 9.923776e+00
0	 8.814815e+00	 2.370370e+00	 9.926887e+00
0	 8.814815e+00	 2.444444e+00	 9.930007e+00
0	 8.814815e+00	 2.518519e+00	 9.933140e+00
0	 8.814815e+00	 2.592593e+00	 9.936288e+00
0	 8.888889e+00	 2.222222e+00	 9.911408e+00
0	 8.888889e+00	 2.296296e+00	 9.914620e+00
0	 8.888889e+00	 2.370370e+00	 9.917842e+00
0	 8.888889e+00	 2.444444e+00	 9.921077e+00
0	 8.888889e+00	 2.518519e+00	 9.924326e+00
0	 8.888889e+00	 2.592593e+00	 9.927592e+00
0	 8.518519e+00	 2.592593e+00	 9.970988e+00
0	 8.518519e+00	 2.666667e+00	 9.973731e+00
0	 8.518519e+00	 2.740741e+00	 9.976442e+00
0	 8.518519e+00	 2.814815e+00	 9.979125e+00
0	 8.518519e+00	 2.888889e+00	 9.981783e+00
0	 8.518519e+00	 2.962963e+00	 9.984417e+00
0	 8.592593e+00	 2.592593e+00	 9.962315e+00
0	 8.592593e+00	 2.666667e+00	 9.965147e+00
0	 8.592593e+00	 2.740741e+00	 9.967951e+00
0	 8.592593e+00	 2.814815e+00	 9.970730e+00
0	 8.592593e+00	 2.888889e+00	 9.973486e+00
0	 8.592593e+00	 2.962963e+00	 9.976221e+00
0	 8.666667e+00	 2.592593e+00	 9.953644e+00
0	 8.666667e+00	 2.666667e+00	 9.956573e+00
0	 8.666667e+00	 2.740741e+00	 9.959476e+00
0	 8.666667e+00	 2.814815e+00	 9.962357e+00
0	 8.666667e+00	 2.888889e+00	 9.965218e+00
0	 8.666667e+00	 2.962963e+00	 9.968061e+00
0	 8.740741e+00	 2.592593e+00	 9.944970e+00
0	 8.740741e+00	 2.666667e+00	 9.948003e+00
0	 8.740741e+00	 2.740741e+00	 9.951014e+00
0	 8.740741e+00	 2.814815e+00	 9.954004e+00
0	 8.740741e+00	 2.888889e+00	 9.956977e+00
0	 8.740741e+00	 2.962963e+00	 9.959934e+00
0	 8.814815e+00	 2.592593e+00	 9.936288e+00
0	 8.814815e+00	 2.666667e+00	 9.939434e+00
0	 8.814815e+00	 2.740741e+00	 9.942559e+00
0	 8.814815e+00	 2.814815e+00	 9.945666e+00
0	 8.814815e+00	 2.888889e+00	 9.948758e+00
0	 8.814815e+00	 2.962963e+00	 9.951837e+00
0	 8.888889e+00	 2.592593e+00	 9.927592e+00
0	 8.888889e+00	 2.666667e+00	 9.930859e+00
0	 8.888889e+00	 2.740741e+00	 9.934108e+00
0	 8.888889e+00	 2.814815e+00	 9.937341e+00
0	 8.888889e+00	 2.888889e+00	 9.940561e+00
0	 8.888889e+00	 2.962963e+00	 9.943769e+00
0	 8.518519e+00	 2.962963e+00	 9.984417e+00
0	 8.518519e+00	 3.037037e+00	 9.987015e+00
0	 8.518519e+00	 3.111111e+00	 9.989561e+00
0	 8.518519e+00	 3.185185e+00	 9.992058e+00
0	 8.518519e+00	 3.259259e+00	 9.994507e+00
0	 8.518519e+00	 3.333333e+00	 9.996911e+00
0	 8.592593e+00	 2.962963e+00	 9.976221e+00
0	 8.592593e+00	 3.037037e+00	 9.978923e+00
0	 8.592593e+00	 3.111111e+00	 9.981575e+00
0	 8.592593e+00	 3.185185e+00	 9.984180e+00
0	 8.592593e+00	 3.259259e+00	 9.986740e+00
0	 8.592593e+00	 3.333333e+00	 9.989258e+00
0	 8.666667e+00	 2.962963e+00	 9.968061e+00
0	 8.666667e+00	 3.037037e+00	 9.970872e+00
0	 8.666667e+00	 3.111111e+00	 9.973636e+00
0	 8.666667e+00	 3.185185e+00	 9.976356e+00
0	 8.666667e+00	 3.259259e+00	 9.979032e+00
0	 8.666667e+00	 3.333333e+00	 9.981667e+00
0	 8.740741e+00	 2.962963e+00	 9.959934e+00
0	 8.740741e+00	 3.037037e+00	 9.962861e+00
0	 8.740741e+00	 3.111111e+00	 9.965744e+00
0	 8.740741e+00	 3.185185e+00	 9.968583e+00
0	 8.740741e+00	 3.259259e+00	 9.971382e+00
0	 8.740741e+00	 3.333333e+00	 9.974141e+00
0	 8.814815e+00	 2.962963e+00	 9.951837e+00
0	 8.814815e+00	 3.037037e+00	 9.954888e+00
0	 8.814815e+00	 3.111111e+00	 9.957896e+00
0	 8.814815e+00	 3.185185e+00	 9.960863e+00
0	 8.814815e+00	 3.259259e+00	 9.963790e+00
0	 8.814815e+00	 3.333333e+00	 9.966680e+00
0	 8.888889e+00	 2.962963e+00	 9.943769e+00
0	 8.888889e+00	 3.037037e+00	 9.946952e+00
0	 8.888889e+00	 3.111111e+00	 9.950092e+00
0	 8.888889e+00	 3.185185e+00	 9.953193e+00
0	 8.888889e+00	 3.259259e+00	 9.956256e+00
0	 8.888889e+00	 3.333333e+00	 9.959283e+00
0	 8.518519e+00	 3.333333e+00	 9.996911e+00
0	 8.518519e+00	 3.407407e+00	 9.999259e+00
0	 8.518519e+00	 3.481481e+00	 1.000154e+01
0	 8.518519e+00	 3.555556e+00	 1.000376e+01
0	 8.518519e+00	 3.629630e+00	 1.000591e+01
0	 8.518519e+00	 3.703704e+00	 1.000800e+01
0	 8.592593e+00	 3.333333e+00	 9.989258e+00
0	 8.592593e+00	 3.407407e+00	 9.991721e+00
0	 8.592593e+00	 3.481481e+00	 9.994120e+00
0	 8.592593e+00	 3.555556e+00	 9.996455e+00
0	 8.592593e+00	 3.629630e+00	 9.998727e+00
0	 8.592593e+00	 3.703704e+00	 1.000094e+01
0	 8.666667e+00	 3.333333e+00	 9.981667e+00
0	 8.666667e+00	 3.407407e+00	 9.984251e+00
0	 8.666667e+00	 3.481481e+00	 9.986771e+00
0	 8.666667e+00	 3.555556e+00	 9.989229e+00
0	 8.666667e+00	 3.629630e+00	 9.991627e+00
0	 8.666667e+00	 3.703704e+00	 9.993964e+00
0	 8.740741e+00	 3.333333e+00	 9.974141e+00
0	 8.740741e+00	 3.407407e+00	 9.976850e+00
0	 8.740741e+00	 3.481481e+00	 9.979497e+00
0	 8.740741e+00	 3.555556e+00	 9.982083e+00
0	 8.740741e+00	 3.629630e+00	 9.984610e+00
0	 8.740741e+00	 3.703704e+00	 9.987078e+00
0	 8.814815e+00	 3.333333e+00	 9.966680e+00
0	 8.814815e+00	 3.407407e+00	 9.969520e+00
0	 8.814815e+00	 3.481481e+00	 9.972299e+00
0	 8.814815e+00	 3.555556e+00	 9.975019e+00
0	 8.814815e+00	 3.629630e+00	 9.977679e+00
0	 8.814815e+00	 3.703704e+00	 9.980283e+00
0	 8.888889e+00	 3.333333e+00	 9.959283e+00
0	 8.888889e+00	 3.407407e+00	 9.962261e+00
0	 8.888889e+00	 3.481481e+00	 9.965179e+00
0	 8.888889e+00	 3.555556e+00	 9.968038e+00
0	 8.888889e+00	 3.629630e+00	 9.970838e+00
0	 8.888889e+00	 3.703704e+00	 9.973582e+00
0	 8.518519e+00	 3.703704e+00	 1.000800e+01
0	 8.518519e+00	 3.777778e+00	 1.001002e+01
0	 8.518519e+00	 3.851852e+00	 1.001196e+01
0	 8.518519e+00	 3.925926e+00	 1.001383e+01
0	 8.518519e+00	 4.000000e+00	 1.001563e+01
0	 8.518519e+00	 4.074074e+00	 1.001734e+01
0	 8.592593e+00	 3.703704e+00	 1.000094e+01
0	 8.592593e+00	 3.777778e+00	 1.000308e+01
0	 8.592593e+00	 3.851852e+00	 1.000515e+01
0	 8.592593e+00	 3.925926e+00	 1.000715e+01
0	 8.592593e+00	 4.000000e+00	 1.000907e+01
0	 8.592593e+00	 4.074074e+00	 1.001091e+01
0	 8.666667e+00	 3.703704e+00	 9.993964e+00
0	 8.666667e+00	 3.777778e+00	 9.996235e+00
0	 8.666667e+00	 3.851852e+00	 9.998432e+00
0	 8.666667e+00	 3.925926e+00	 1.000055e+01
0	 8.666667e+00	 4.000000e+00	 1.000260e+01
0	 8.666667e+00	 4.074074e+00	 1.000458e+01
0	 8.740741e+00	 3.703704e+00	 9.987078e+00
0	 8.740741e+00	 3.777778e+00	 9.989480e+00
0	 8.740741e+00	 3.851852e+00	 9.991808e+00
0	 8.740741e+00	 3.925926e+00	 9.994063e+00
0	 8.740741e+00	 4.000000e+00	 9.996245e+00
0	 8.740741e+00	 4.074074e+00	 9.998355e+00
0	 8.814815e+00	 3.703704e+00	 9.980283e+00
0	 8.814815e+00	 3.777778e+00	 9.982821e+00
0	 8.814815e+00	 3.851852e+00	 9.985285e+00
0	 8.814815e+00	 3.925926e+00	 9.987676e+00
0	 8.814815e+00	 4.000000e+00	 9.989994e+00
0	 8.814815e+00	 4.074074e+00	 9.992240e+00
0	 8.888889e+00	 3.703704e+00	 9.973582e+00
0	 8.888889e+00	 3.777778e+00	 9.976261e+00
0	 8.888889e+00	 3.851852e+00	 9.978865e+00
0	 8.888889e+00	 3.925926e+00	 9.981397e+00
0	 8.888889e+00	 4.000000e+00	 9.983855e+00
0	 8.888889e+00	 4.074074e+00	 9.986242e+00
0	 8.518519e+00	 4.074074e+00	 1.001734e+01
0	 8.518519e+00	 4.148148e+00	 1.001899e+01
0	 8.518519e+00	 4.222222e+00	 1.002055e+01
0	 8.518519e+00	 4.296296e+00	 1.002203e+01
0	 8.518519e+00	 4.370370e+00	 1.002343e+01
0	 8.518519e+00	 4.444444e+00	 1.002475e+01
0	 8.592593e+00	 4.074074e+00	 1.001091e+01
0	 8.592593e+00	 4.148148e+00	 1.001268e+01
0	 8.592593e+00	 4.222222e+00	 1.001437e+01
0	 8.592593e+00	 4.296296e+00	 1.001598e+01
0	 8.592593e+00	 4.370370e+00	 1.001751e+01
0	 8.592593e+00	 4.444444e+00	 1.001896e+01
0	 8.666667e+00	 4.074074e+00	 1.000458e+01
0	 8.666667e+00	 4.148148e+00	 1.000648e+01
0	 8.666667e+00	 4.222222e+00	 1.000830e+01
0	 8.666667e+00	 4.296296e+00	 1.001004e+01
0	 8.666667e+00	 4.370370e+00	 1.001170e+01
0	 8.666667e+00	 4.444444e+00	 1.001328e+01
0	 8.740741e+00	 4.074074e+00	 9.998355e+00
0	 8.740741e+00	 4.148148e+00	 1.000039e+01
0	 8.740741e+00	 4.222222e+00	 1.000234e+01
0	 8.740741e+00	 4.296296e+00	 1.000421e+01
0	 8.740741e+00	 4.370370e+00	 1.000601e+01
0	 8.740741e+00	 4.444444e+00	 1.000772e+01
0	 8.814815e+00	 4.074074e+00	 9.992240e+00
0	 8.814815e+00	 4.148148e+00	 9.994410e+00
0	 8.814815e+00	 4.222222e+00	 9.996499e+00
0	 8.814815e+00	 4.296296e+00	 9.998506e+00
0	 8.814815e+00	 4.370370e+00	 1.000043e+01
0	 8.814815e+00	 4.444444e+00	 1.000228e+01
0	 8.888889e+00	 4.074074e+00	 9.986242e+00
0	 8.888889e+00	 4.148148e+00	 9.988551e+00
0	 8.888889e+00	 4.222222e+00	 9.990778e+00
0	 8.888889e+00	 4.296296e+00	 9.992924e+00
0	 8.888889e+00	 4.370370e+00	 9.994987e+00
0	 8.888889e+00	 4.444444e+00	 9.996968e+00
0	 8.518519e+00	 4.444444e+00	 1.002475e+01
0	 8.518519e+00	 4.518519e+00	 1.002598e+01
0	 8.518519e+00	 4.592593e+00	 1.002714e+01
0	 8.518519e+00	 4.666667e+00	 1.002822e+01
0	 8.518519e+00	 4.740741e+00	 1.002921e+01
0	 8.518519e+00	 4.814815e+00	 1.003013e+01
0	 8.592593e+00	 4.444444e+00	 1.001896e+01
0	 8.592593e+00	 4.518519e+00	 1.002033e+01
0	 8.592593e+00	 4.592593e+00	 1.002161e+01
0	 8.592593e+00	 4.666667e+00	 1.002282e+01
0	 8.592593e+00	 4.740741e+00	 1.002394e+01
0	 8.592593e+00	 4.814815e+00	 1.002498e+01
0	 8.666667e+00	 4.444444e+00	 1.001328e+01
0	 8.666667e+00	 4.518519e+00	 1.001478e+01
0	 8.666667e+00	 4.592593e+00	 1.001620e+01
0	 8.666667e+00	 4.666667e+00	 1.001753e+01
0	 8.666667e+00	 4.740741e+00	 1.001878e+01
0	 8.666667e+00	 4.814815e+00	 1.001995e+01
0	 8.740741e+00	 4.444444e+00	 1.000772e+01
0	 8.740741e+00	 4.518519e+00	 1.000935e+01
0	 8.740741e+00	 4.592593e+00	 1.001090e+01
0	 8.740741e+00	 4.666667e+00	 1.001236e+01
0	 8.740741e+00	 4.740741e+00	 1.001374e+01
0	 8.740741e+00	 4.814815e+00	 1.001504e+01
0	 8.814815e+00	 4.444444e+00	 1.000228e+01
0	 8.814815e+00	 4.518519e+00	 1.000404e+01
0	 8.814815e+00	 4.592593e+00	 1.000572e+01
0	 8.814815e+00	 4.666667e+00	 1.000732e+01
0	 8.814815e+00	 4.740741e+00	 1.000883e+01
0	 8.814815e+00	 4.814815e+00	 1.001025e+01
0	 8.888889e+00	 4.444444e+00	 9.996968e+00
0	 8.888889e+00	 4.518519e+00	 9.998866e+00
0	 8.888889e+00	 4.592593e+00	 1.000068e+01
0	 8.888889e+00	 4.666667e+00	 1.000241e+01
0	 8.888889e+00	 4.740741e+00	 1.000405e+01
0	 8.888889e+00	 4.814815e+00	 1.000560e+01
0	 8.518519e+00	 4.814815e+00	 1.003013e+01
0	 8.518519e+00	 4.888889e+00	 1.003096e+01
0	 8.518519e+00	 4.962963e+00	 1.003172e+01
0	 8.518519e+00	 5.037037e+00	 1.003240e+01
0	 8.518519e+00	 5.111111e+00	 1.003300e+01
0	 8.518519e+00	 5.185185e+00	 1.003352e+01
0	 8.592593e+00	 4.814815e+00	 1.002498e+01
0	 8.592593e+00	 4.888889e+00	 1.002594e+01
0	 8.592593e+00	 4.962963e+00	 1.002683e+01
0	 8.592593e+00	 5.037037e+00	 1.002763e+01
0	 8.592593e+00	 5.111111e+00	 1.002836e+01
0	 8.592593e+00	 5.185185e+00	 1.002900e+01
0	 8.666667e+00	 4.814815e+00	 1.001995e+01
0	 8.666667e+00	 4.888889e+00	 1.002104e+01
0	 8.666667e+00	 4.962963e+00	 1.002205e+01
0	 8.666667e+00	 5.037037e+00	 1.002298e+01
0	 8.666667e+00	 5.111111e+00	 1.002383e+01
0	 8.666667e+00	 5.185185e+00	 1.002459e+01
0	 8.740741e+00	 4.814815e+00	 1.001504e+01
0	 8.740741e+00	 4.888889e+00	 1.001625e+01
0	 8.740741e+00	 4.962963e+00	 1.001739e+01
0	 8.740741e+00	 5.037037e+00	 1.001844e+01
0	 8.740741e+00	 5.111111e+00	 1.001941e+01
0	 8.740741e+00	 5.185185e+00	 1.002030e+01
0	 8.814815e+00	 4.814815e+00	 1.001025e+01
0	 8.814815e+00	 4.888889e+00	 1.001159e+01
0	 8.814815e+00	 4.962963e+00	 1.001285e+01
0	 8.814815e+00	 5.037037e+00	 1.001403e+01
0	 8.814815e+00	 5.111111e+00	 1.001512e+01
0	 8.814815e+00	 5.185185e+00	 1.001613e+01
0	 8.888889e+00	 4.814815e+00	 1.000560e+01
0	 8.888889e+00	 4.888889e+00	 1.000707e+01
0	 8.888889e+00	 4.962963e+00	 1.000846e+01
0	 8.888889e+00	 5.037037e+00	 1.000976e+01
0	 8.888889e+00	 5.111111e+00	 1.001097e+01
0	 8.888889e+00	 5.185185e+00	 1.001210e+01
0	 8.518519e+00	 5.185185e+00	 1.003352e+01
0	 8.518519e+00	 5.259259e+00	 1.003397e+01
0	 8.518519e+00	 5.333333e+00	 1.003434e+01
0	 8.518519e+00	 5.407407e+00	 1.003465e+01
0	 8.518519e+00	 5.481481e+00	 1.003488e+01
0	 8.518519e+00	 5.555556e+00	 1.003504e+01
0	 8.592593e+00	 5.185185e+00	 1.002900e+01
0	 8.592593e+00	 5.259259e+00	 1.002957e+01
0	 8.592593e+00	 5.333333e+00	 1.003007e+01
0	 8.592593e+00	 5.407407e+00	 1.003049e+01
0	 8.592593e+00	 5.481481e+00	 1.003084e+01
0	 8.592593e+00	 5.555556e+00	 1.003112e+01
0	 8.666667e+00	 5.185185e+00	 1.002459e+01
0	 8.666667e+00	 5.259259e+00	 1.002528e+01
0	 8.666667e+00	 5.333333e+00	 1.002590e+01
0	 8.666667e+00	 5.407407e+00	 1.002644e+01
0	 8.666667e+00	 5.481481e+00	 1.002691e+01
0	 8.666667e+00	 5.555556e+00	 1.002730e+01
0	 8.740741e+00	 5.185185e+00	 1.002030e+01
0	 8.740741e+00	 5.259259e+00	 1.002111e+01
0	 8.740741e+00	 5.333333e+00	 1.002184e+01
0	 8.740741e+00	 5.407407e+00	 1.002250e+01
0	 8.740741e+00	 5.481481e+00	 1.002309e+01
0	 8.740741e+00	 5.555556e+00	 1.002359e+01
0	 8.814815e+00	 5.185185e+00	 1.001613e+01
0	 8.814815e+00	 5.259259e+00	 1.001706e+01
0	 8.814815e+00	 5.333333e+00	 1.001791e+01
0	 8.814815e+00	 5.407407e+00	 1.001869e+01
0	 8.814815e+00	 5.481481e+00	 1.001938e+01
0	 8.814815e+00	 5.555556e+00	 1.002000e+01
0	 8.888889e+00	 5.185185e+00	 1.001210e+01
0	 8.888889e+00	 5.259259e+00	 1.001315e+01
0	 8.888889e+00	 5.333333e+00	 1.001411e+01
0	 8.888889e+00	 5.407407e+00	 1.001500e+01
0	 8.888889e+00	 5.481481e+00	 1.001581e+01
0	 8.888889e+00	 5.555556e+00	 1.001653e+01
0	 8.518519e+00	 5.555556e+00	 1.003504e+01
0	 8.518519e+00	 5.629630e+00	 1.003514e+01
0	 8.518519e+00	 5.703704e+00	 1.003517e+01
0	 8.518519e+00	 5.777778e+00	 1.003514e+01
0	 8.518519e+00	 5.851852e+00	 1.003504e+01
0	 8.518519e+00	 5.925926e+00	 1.003489e+01
0	 8.592593e+00	 5.555556e+00	 1.003112e+01
0	 8.592593e+00	 5.629630e+00	 1.003133e+01
0	 8.592593e+00	 5.703704e+00	 1.003148e+01
0	 8.592593e+00	 5.777778e+00	 1.003156e+01
0	 8.592593e+00	 5.851852e+00	 1.003157e+01
0	 8.592593e+00	 5.925926e+00	 1.003152e+01
0	 8.666667e+00	 5.555556e+00	 1.002730e+01
0	 8.666667e+00	 5.629630e+00	 1.002762e+01
0	 8.666667e+00	 5.703704e+00	 1.002788e+01
0	 8.666667e+00	 5.777778e+00	 1.002807e+01
0	 8.666667e+00	 5.851852e+00	 1.002819e+01
0	 8.666667e+00	 5.925926e+00	 1.002825e+01
0	 8.740741e+00	 5.555556e+00	 1.002359e+01
0	 8.740741e+00	 5.629630e+00	 1.002402e+01
0	 8.740741e+00	 5.703704e+00	 1.002439e+01
0	 8.740741e+00	 5.777778e+00	 1.002469e+01
0	 8.740741e+00	 5.851852e+00	 1.002492e+01
0	 8.740741e+00	 5.925926e+00	 1.002508e+01
0	 8.814815e+00	 5.555556e+00	 1.002000e+01
0	 8.814815e+00	 5.629630e+00	 1.002054e+01
0	 8.814815e+00	 5.703704e+00	 1.002101e+01
0	 8.814815e+00	 5.777778e+00	 1.002142e+01
0	 8.814815e+00	 5.851852e+00	 1.002175e+01
0	 8.814815e+00	 5.925926e+00	 1.002201e+01
0	 8.888889e+00	 5.555556e+00	 1.001653e+01
0	 8.888889e+00	 5.629630e+00	 1.001718e+01
0	 8.888889e+00	 5.703704e+00	 1.001776e+01
0	 8.888889e+00	 5.777778e+00	 1.001827e+01
0	 8.888889e+00	 5.851852e+00	 1.001870e+01
0	 8.888889e+00	 5.925926e+00	 1.001906e+01
0	 8.518519e+00	 5.925926e+00	 1.003489e+01
0	 8.518519e+00	 6.000000e+00	 1.003467e+01
0	 8.518519e+00	 6.074074e+00	 1.003440e+01
0	 8.518519e+00	 6.148148e+00	 1.003409e+01
0	 8.518519e+00	 6.222222e+00	 1.003371e+01
0	 8.518519e+00	 6.296296e+00	 1.003329e+01
0	 8.592593e+00	 5.925926e+00	 1.003152e+01
0	 8.592593e+00	 6.000000e+00	 1.003141e+01
0	 8.592593e+00	 6.074074e+00	 1.003125e+01
0	 8.592593e+00	 6.148148e+00	 1.003104e+01
0	 8.592593e+00	 6.222222e+00	 1.003077e+01
0	 8.592593e+00	 6.296296e+00	 1.003044e+01
0	 8.666667e+00	 5.925926e+00	 1.002825e+01
0	 8.666667e+00	 6.000000e+00	 1.002825e+01
0	 8.666667e+00	 6.074074e+00	 1.002819e+01
0	 8.666667e+00	 6.148148e+00	 1.002807e+01
0	 8.666667e+00	 6.222222e+00	 1.002790e+01
0	 8.666667e+00	 6.296296e+00	 1.002767e+01
0	 8.740741e+00	 5.925926e+00	 1.002508e+01
0	 8.740741e+00	 6.000000e+00	 1.002517e+01
0	 8.740741e+00	 6.074074e+00	 1.002521e+01
0	 8.740741e+00	 6.148148e+00	 1.002520e+01
0	 8.740741e+00	 6.222222e+00	 1.002512e+01
0	 8.740741e+00	 6.296296e+00	 1.002498e+01
0	 8.814815e+00	 5.925926e+00	 1.002201e+01
0	 8.814815e+00	 6.000000e+00	 1.002220e+01
0	 8.814815e+00	 6.074074e+00	 1.002234e+01
0	 8.814815e+00	 6.148148e+00	 1.002242e+01
0	 8.814815e+00	 6.222222e+00	 1.002244e+01
0	 8.814815e+00	 6.296296e+00	 1.002239e+01
0	 8.888889e+00	 5.925926e+00	 1.001906e+01
0	 8.888889e+00	 6.000000e+00	 1.001935e+01
0	 8.888889e+00	 6.074074e+00	 1.001958e+01
0	 8.888889e+00	 6.148148e+00	 1.001975e+01
0	 8.888889e+00	 6.222222e+00	 1.001985e+01
0	 8.888889e+00	 6.296296e+00	 1.001990e+01
0	 8.518519e+00	 6.296296e+00	 1.003329e+01
0	 8.518519e+00	 6.370370e+00	 1.003281e+01
0	 8.518519e+00	 6.444444e+00	 1.003230e+01
0	 8.518519e+00	 6.518519e+00	 1.003175e+01
0	 8.518519e+00	 6.592593e+00	 1.003116e+01
0	 8.518519e+00	 6.666667e+00	 1.003052e+01
0	 8.592593e+00	 6.296296e+00	 1.003044e+01
0	 8.592593e+00	 6.370370e+00	 1.003006e+01
0	 8.592593e+00	 6.444444e+00	 1.002965e+01
0	 8.592593e+00	 6.518519e+00	 1.002919e+01
0	 8.592593e+00	 6.592593e+00	 1.002869e+01
0	 8.592593e+00	 6.666667e+00	 1.002814e+01
0	 8.666667e+00	 6.296296e+00	 1.002767e+01
0	 8.666667e+00	 6.370370e+00	 1.002739e+01
0	 8.666667e+00	 6.444444e+00	 1.002707e+01
0	 8.666667e+00	 6.518519e+00	 1.002670e+01
0	 8.666667e+00	 6.592593e+00	 1.002629e+01
0	 8.666667e+00	 6.666667e+00	 1.002583e+01
0	 8.740741e+00	 6.296296e+00	 1.002498e+01
0	 8.740741e+00	 6.370370e+00	 1.002480e+01
0	 8.740741e+00	 6.444444e+00	 1.002456e+01
0	 8.740741e+00	 6.518519e+00	 1.002428e+01
0	 8.740741e+00	 6.592593e+00	 1.002396e+01
0	 8.740741e+00	 6.666667e+00	 1.002358e+01
0	 8.814815e+00	 6.296296e+00	 1.002239e+01
0	 8.814815e+00	 6.370370e+00	 1.002229e+01
0	 8.814815e+00	 6.444444e+00	 1.002215e+01
0	 8.814815e+00	 6.518519e+00	 1.002195e+01
0	 8.814815e+00	 6.592593e+00	 1.002171e+01
0	 8.814815e+00	 6.666667e+00	 1.002142e+01
0	 8.888889e+00	 6.296296e+00	 1.001990e+01
0	 8.888889e+00	 6.370370e+00	 1.001988e+01
0	 8.888889e+00	 6.444444e+00	 1.001982e+01
0	 8.888889e+00	 6.518519e+00	 1.001971e+01
0	 8.888889e+00	 6.592593e+00	 1.001954e+01
0	 8.888889e+00	 6.666667e+00	 1.001933e+01
0	 8.518519e+00	 6.666667e+00	 1.003052e+01
0	 8.518519e+00	 6.740741e+00	 1.002984e+01
0	 8.518519e+00	 6.814815e+00	 1.002914e+01
0	 8.518519e+00	 6.888889e+00	 1.002842e+01
0	 8.518519e+00	 6.962963e+00	 1.002766e+01
0	 8.518519e+00	 7.037037e+00	 1.002686e+01
0	 8.592593e+00	 6.666667e+00	 1.002814e+01
0	 8.592593e+00	 6.740741e+00	 1.002756e+01
0	 8.592593e+00	 6.814815e+00	 1.002694e+01
0	 8.592593e+00	 6.888889e+00	 1.002630e+01
0	 8.592593e+00	 6.962963e+00	 1.002563e+01
0	 8.592593e+00	 7.037037e+00	 1.002492e+01
0	 8.666667e+00	 6.666667e+00	 1.002583e+01
0	 8.666667e+00	 6.740741e+00	 1.002533e+01
0	 8.666667e+00	 6.814815e+00	 1.002480e+01
0	 8.666667e+00	 6.888889e+00	 1.002424e+01
0	 8.666667e+00	 6.962963e+00	 1.002365e+01
0	 8.666667e+00	 7.037037e+00	 1.002302e+01
0	 8.740741e+00	 6.666667e+00	 1.002358e+01
0	 8.740741e+00	 6.740741e+00	 1.002317e+01
0	 8.740741e+00	 6.814815e+00	 1.002272e+01
0	 8.740741e+00	 6.888889e+00	 1.002224e+01
0	 8.740741e+00	 6.962963e+00	 1.002173e+01
0	 8.740741e+00	 7.037037e+00	 1.002117e+01
0	 8.814815e+00	 6.666667e+00	 1.002142e+01
0	 8.814815e+00	 6.740741e+00	 1.002108e+01
0	 8.814815e+00	 6.814815e+00	 1.002071e+01
0	 8.814815e+00	 6.888889e+00	 1.002031e+01
0	 8.814815e+00	 6.962963e+00	 1.001987e+01
0	 8.814815e+00	 7.037037e+00	 1.001939e+01
0	 8.888889e+00	 6.666667e+00	 1.001933e+01
0	 8.888889e+00	 6.740741e+00	 1.001907e+01
0	 8.888889e+00	 6.814815e+00	 1.001878e+01
0	 8.888889e+00	 6.888889e+00	 1.001844e+01
0	 8.888889e+00	 6.962963e+00	 1.001807e+01
0	 8.888889e+00	 7.037037e+00	 1.001766e+01
0	 8.518519e+00	 7.037037e+00	 1.002686e+01
0	 8.518519e+00	 7.111111e+00	 1.002605e+01
0	 8.518519e+00	 7.185185e+00	 1.002522e+01
0	 8.518519e+00	 7.259259e+00	 1.002437e+01
0	 8.518519e+00	 7.333333e+00	 1.002351e+01
0	 8.518519e+00	 7.407407e+00	 1.002263e+01
0	 8.592593e+00	 7.037037e+00	 1.002492e+01
0	 8.592593e+00	 7.111111e+00	 1.002418e+01
0	 8.592593e+00	 7.185185e+00	 1.002343e+01
0	 8.592593e+00	 7.259259e+00	 1.002267e+01
0	 8.592593e+00	 7.333333e+00	 1.002188e+01
0	 8.592593e+00	 7.407407e+00	 1.002107e+01
0	 8.666667e+00	 7.037037e+00	 1.002302e+01
0	 8.666667e+00	 7.111111e+00	 1.002236e+01
0	 8.666667e+00	 7.185185e+00	 1.002169e+01
0	 8.666667e+00	 7.259259e+00	 1.002100e+01
0	 8.666667e+00	 7.333333e+00	 1.002028e+01
0	 8.666667e+00	 7.407407e+00	 1.001954e+01
0	 8.740741e+00	 7.037037e+00	 1.002117e+01
0	 8.740741e+00	 7.111111e+00	 1.002059e+01
0	 8.740741e+00	 7.185185e+00	 1.001999e+01
0	 8.740741e+00	 7.259259e+00	 1.001937e+01
0	 8.740741e+00	 7.333333e+00	 1.001873e+01
0	 8.740741e+00	 7.407407e+00	 1.001806e+01
0	 8.814815e+00	 7.037037e+00	 1.001939e+01
0	 8.814815e+00	 7.111111e+00	 1.001888e+01
0	 8.814815e+00	 7.185185e+00	 1.001835e+01
0	 8.814815e+00	 7.259259e+00	 1.001780e+01
0	 8.814815e+00	 7.333333e+00	 1.001722e+01
0	 8.814815e+00	 7.407407e+00	 1.001662e+01
0	 8.888889e+00	 7.037037e+00	 1.001766e+01
0	 8.888889e+00	 7.111111e+00	 1.001722e+01
0	 8.888889e+00	 7.185185e+00	 1.001676e+01
0	 8.888889e+00	 7.259259e+00	 1.001627e+01
0	 8.888889e+00	 7.333333e+00	 1.001576e+01
0	 8.888889e+00	 7.407407e+00	 1.001522e+01
0	 8.518519e+00	 7.407407e+00	 1.002263e+01
0	 8.518519e+00	 7.481481e+00	 1.002173e+01
0	 8.518519e+00	 7.555556e+00	 1.002083e+01
0	 8.518519e+00	 7.629630e+00	 1.001992e+01
0	 8.518519e+00	 7.703704e+00	 1.001901e+01
0	 8.518519e+00	 7.777778e+00	 1.001809e+01
0	 8.592593e+00	 7.407407e+00	 1.002107e+01
0	 8.592593e+00	 7.481481e+00	 1.002024e+01
0	 8.592593e+00	 7.555556e+00	 1.001942e+01
0	 8.592593e+00	 7.629630e+00	 1.001858e+01
0	 8.592593e+00	 7.703704e+00	 1.001774e+01
0	 8.592593e+00	 7.777778e+00	 1.001689e+01
0	 8.666667e+00	 7.407407e+00	 1.001954e+01
0	 8.666667e+00	 7.481481e+00	 1.001879e+01
0	 8.666667e+00	 7.555556e+00	 1.001803e+01
0	 8.666667e+00	 7.629630e+00	 1.001727e+01
0	 8.666667e+00	 7.703704e+00	 1.001649e+01
0	 8.666667e+00	 7.777778e+00	 1.001571e+01
0	 8.740741e+00	 7.407407e+00	 1.001806e+01
0	 8.740741e+00	 7.481481e+00	 1.001738e+01
0	 8.740741e+00	 7.555556e+00	 1.001668e+01
0	 8.740741e+00	 7.629630e+00	 1.001598e+01
0	 8.740741e+00	 7.703704e+00	 1.001527e+01
0	 8.740741e+00	 7.777778e+00	 1.001455e+01
0	 8.814815e+00	 7.407407e+00	 1.001662e+01
0	 8.814815e+00	 7.481481e+00	 1.001600e+01
0	 8.814815e+00	 7.555556e+00	 1.001537e+01
0	 8.814815e+00	 7.629630e+00	 1.001473e+01
0	 8.814815e+00	 7.703704e+00	 1.001408e+01
0	 8.814815e+00	 7.777778e+00	 1.001342e+01
0	 8.888889e+00	 7.407407e+00	 1.001522e+01
0	 8.888889e+00	 7.481481e+00	 1.001466e+01
0	 8.888889e+00	 7.555556e+00	 1.001409e+01
0	 8.888889e+00	 7.629630e+00	 1.001351e+01
0	 8.888889e+00	 7.703704e+00	 1.001292e+01
0	 8.888889e+00	 7.777778e+00	 1.001231e+01
0	 8.518519e+00	 7.777778e+00	 1.001809e+01
0	 8.518519e+00	 7.851852e+00	 1.001717e+01
0	 8.518519e+00	 7.925926e+00	 1.001626e+01
0	 8.518519e+00	 8.000000e+00	 1.001535e+01
0	 8.518519e+00	 8.074074e+00	 1.001445e+01
0	 8.518519e+00	 8.148148e+00	 1.001355e+01
0	 8.592593e+00	 7.777778e+00	 1.001689e+01
0	 8.592593e+00	 7.851852e+00	 1.001603e+01
0	 8.592593e+00	 7.925926e+00	 1.001519e+01
0	 8.592593e+00	 8.000000e+00	 1.001434e+01
0	 8.592593e+00	 8.074074e+00	 1.001350e+01
0	 8.592593e+00	 8.148148e+00	 1.001267e+01
0	 8.666667e+00	 7.777778e+00	 1.001571e+01
0	 8.666667e+00	 7.851852e+00	 1.001492e+01
0	 8.666667e+00	 7.925926e+00	 1.001413e+01
0	 8.666667e+00	 8.000000e+00	 1.001335e+01
0	 8.666667e+00	 8.074074e+00	 1.001257e+01
0	 8.666667e+00	 8.148148e+00	 1.001179e+01
0	 8.740741e+00	 7.777778e+00	 1.001455e+01
0	 8.740741e+00	 7.851852e+00	 1.001382e+01
0	 8.740741e+00	 7.925926e+00	 1.001310e+01
0	 8.740741e+00	 8.000000e+00	 1.001237e+01
0	 8.740741e+00	 8.074074e+00	 1.001165e+01
0	 8.740741e+00	 8.148148e+00	 1.001093e+01
0	 8.814815e+00	 7.777778e+00	 1.001342e+01
0	 8.814815e+00	 7.851852e+00	 1.001275e+01
0	 8.814815e+00	 7.925926e+00	 1.001208e+01
0	 8.814815e+00	 8.000000e+00	 1.001142e+01
0	 8.814815e+00	 8.074074e+00	 1.001075e+01
0	 8.814815e+00	 8.148148e+00	 1.001008e+01
0	 8.888889e+00	 7.777778e+00	 1.001231e+01
0	 8.888889e+00	 7.851852e+00	 1.001170e+01
0	 8.888889e+00	 7.925926e+00	 1.001109e+01
0	 8.888889e+00	 8.000000e+00	 1.001048e+01
0	 8.888889e+00	 8.074074e+00	 1.000987e+01
0	 8.888889e+00	 8.148148e+00	 1.000925e+01
0	 8.518519e+00	 8.148148e+00	 1.001355e+01
0	 8.518519e+00	 8.222222e+00	 1.001267e+01
0	 8.518519e+00	 8.296296e+00	 1.001180e+01
0	 8.518519e+00	 8.370370e+00	 1.001095e+01
0	 8.518519e+00	 8.444444e+00	 1.001011e+01
0	 8.518519e+00	 8.518519e+00	 1.000929e+01
0	 8.592593e+00	 8.148148e+00	 1.001267e+01
0	 8.592593e+00	 8.222222e+00	 1.001184e+01
0	 8.592593e+00	 8.296296e+00	 1.001103e+01
0	 8.592593e+00	 8.370370e+00	 1.001023e+01
0	 8.592593e+00	 8.444444e+00	 1.000945e+01
0	 8.592593e+00	 8.518519e+00	 1.000868e+01
0	 8.666667e+00	 8.148148e+00	 1.001179e+01
0	 8.666667e+00	 8.222222e+00	 1.001102e+01
0	 8.666667e+00	 8.296296e+00	 1.001027e+01
0	 8.666667e+00	 8.370370e+00	 1.000953e+01
0	 8.666667e+00	 8.444444e+00	 1.000880e+01
0	 8.666667e+00	 8.518519e+00	 1.000808e+01
0	 8.740741e+00	 8.148148e+00	 1.001093e+01
0	 8.740741e+00	 8.222222e+00	 1.001022e+01
0	 8.740741e+00	 8.296296e+00	 1.000952e+01
0	 8.740741e+00	 8.370370e+00	 1.000883e+01
0	 8.740741e+00	 8.444444e+00	 1.000815e+01
0	 8.740741e+00	 8.518519e+00	 1.000749e+01
0	 8.814815e+00	 8.148148e+00	 1.001008e+01
0	 8.814815e+00	 8.222222e+00	 1.000942e+01
0	 8.814815e+00	 8.296296e+00	 1.000878e+01
0	 8.814815e+00	 8.370370e+00	 1.000814e+01
0	 8.814815e+00	 8.444444e+00	 1.000751e+01
0	 8.814815e+00	 8.518519e+00	 1.000690e+01
0	 8.888889e+00	 8.148148e+00	 1.000925e+01
0	 8.888889e+00	 8.222222e+00	 1.000864e+01
0	 8.888889e+00	 8.296296e+00	 1.000805e+01
0	 8.888889e+00	 8.370370e+00	 1.000746e+01
0	 8.888889e+00	 8.444444e+00	 1.000688e+01
0	 8.888889e+00	 8.518519e+00	 1.000631e+01
0	 8.518519e+00	 8.518519e+00	 1.000929e+01
0	 8.518519e+00	 8.592593e+00	 1.000848e+01
0	 8.518519e+00	 8.666667e+00	 1.000771e+01
0	 8.518519e+00	 8.740741e+00	 1.000697e+01
0	 8.518519e+00	 8.814815e+00	 1.000625e+01
0	 8.518519e+00	 8.888889e+00	 1.000556e+01
0	 8.592593e+00	 8.518519e+00	 1.000868e+01
0	 8.592593e+00	 8.592593e+00	 1.000793e+01
0	 8.592593e+00	 8.666667e+00	 1.000721e+01
0	 8.592593e+00	 8.740741e+00	 1.000651e+01
0	 8.592593e+00	 8.814815e+00	 1.000584e+01
0	 8.592593e+00	 8.888889e+00	 1.000519e+01
0	 8.666667e+00	 8.518519e+00	 1.000808e+01
0	 8.666667e+00	 8.592593e+00	 1.000738e+01
0	 8.666667e+00	 8.666667e+00	 1.000671e+01
0	 8.666667e+00	 8.740741e+00	 1.000606e+01
0	 8.666667e+00	 8.814815e+00	 1.000543e+01
0	 8.666667e+00	 8.888889e+00	 1.000483e+01
0	 8.740741e+00	 8.518519e+00	 1.000749e+01
0	 8.740741e+00	 8.592593e+00	 1.000684e+01
0	 8.740741e+00	 8.666667e+00	 1.000621e+01
0	 8.740741e+00	 8.740741e+00	 1.000561e+01
0	 8.740741e+00	 8.814815e+00	 1.000503e+01
0	 8.740741e+00	 8.888889e+00	 1.000446e+01
0	 8.814815e+00	 8.518519e+00	 1.000690e+01
0	 8.814815e+00	 8.592593e+00	 1.000629e+01
0	 8.814815e+00	 8.666667e+00	 1.000572e+01
0	 8.814815e+00	 8.740741e+00	 1.000516e+01
0	 8.814815e+00	 8.814815e+00	 1.000462e+01
0	 8.814815e+00	 8.888889e+00	 1.000410e+01
0	 8.888889e+00	 8.518519e+00	 1.000631e+01
0	 8.888889e+00	 8.592593e+00	 1.000576e+01
0	 8.888889e+00	 8.666667e+00	 1.000522e+01
0	 8.888889e+00	 8.740741e+00	 1.000471e+01
0	 8.888889e+00	 8.814815e+00	 1.000422e+01
0	 8.888889e+00	 8.888889e+00	 1.000374e+01
0	 8.518519e+00	 8.888889e+00	 1.000556e+01
0	 8.518519e+00	 8.962963e+00	 1.000489e+01
0	 8.518519e+00	 9.037037e+00	 1.000427e+01
0	 8.518519e+00	 9.111111e+00	 1.000368e+01
0	 8.518519e+00	 9.185185e+00	 1.000313e+01
0	 8.518519e+00	 9.259259e+00	 1.000261e+01
0	 8.592593e+00	 8.888889e+00	 1.000519e+01
0	 8.592593e+00	 8.962963e+00	 1.000457e+01
0	 8.592593e+00	 9.037037e+00	 1.000399e+01
0	 8.592593e+00	 9.111111e+00	 1.000344e+01
0	 8.592593e+00	 9.185185e+00	 1.000292e+01
0	 8.592593e+00	 9.259259e+00	 1.000244e+01
0	 8.666667e+00	 8.888889e+00	 1.000483e+01
0	 8.666667e+00	 8.962963e+00	 1.000425e+01
0	 8.666667e+00	 9.037037e+00	 1.000370e+01
0	 8.666667e+00	 9.111111e+00	 1.000319e+01
0	 8.666667e+00	 9.185185e+00	 1.000271e+01
0	 8.666667e+00	 9.259259e+00	 1.000226e+01
0	 8.740741e+00	 8.888889e+00	 1.000446e+01
0	 8.740741e+00	 8.962963e+00	 1.000393e+01
0	 8.740741e+00	 9.037037e+00	 1.000342e+01
0	 8.740741e+00	 9.111111e+00	 1.000295e+01
0	 8.740741e+00	 9.185185e+00	 1.000250e+01
0	 8.740741e+00	 9.259259e+00	 1.000209e+01
0	 8.814815e+00	 8.888889e+00	 1.000410e+01
0	 8.814815e+00	 8.962963e+00	 1.000360e+01
0	 8.814815e+00	 9.037037e+00	 1.000314e+01
0	 8.814815e+00	 9.111111e+00	 1.000270e+01
0	 8.814815e+00	 9.185185e+00	 1.000229e+01
0	 8.814815e+00	 9.259259e+00	 1.000191e+01
0	 8.888889e+00	 8.888889e+00	 1.000374e+01
0	 8.888889e+00	 8.962963e+00	 1.000328e+01
0	 8.888889e+00	 9.037037e+00	 1.000285e+01
0	 8.888889e+00	 9.111111e+00	 1.000246e+01
0	 8.888889e+00	 9.185185e+00	 1.000208e+01
0	 8.888889e+00	 9.259259e+00	 1.000173e+01
0	 8.518519e+00	 9.259259e+00	 1.000261e+01
0	 8.518519e+00	 9.333333e+00	 1.000213e+01
0	 8.518519e+00	 9.407407e+00	 1.000171e+01
0	 8.518519e+00	 9.481481e+00	 1.000132e+01
0	 8.518519e+00	 9.555556e+00	 1.000099e+01
0	 8.518519e+00	 9.629630e+00	 1.000069e+01
0	 8.592593e+00	 9.259259e+00	 1.000244e+01
0	 8.592593e+00	 9.333333e+00	 1.000199e+01
0	 8.592593e+00	 9.407407e+00	 1.000159e+01
0	 8.592593e+00	 9.481481e+00	 1.000124e+01
0	 8.592593e+00	 9.555556e+00	 1.000092e+01
0	 8.592593e+00	 9.629630e+00	 1.000064e+01
0	 8.666667e+00	 9.259259e+00	 1.000226e+01
0	 8.666667e+00	 9.333333e+00	 1.000185e+01
0	 8.666667e+00	 9.407407e+00	 1.000148e+01
0	 8.666667e+00	 9.481481e+00	 1.000115e+01
0	 8.666667e+00	 9.555556e+00	 1.000085e+01
0	 8.666667e+00	 9.629630e+00	 1.000060e+01
0	 8.740741e+00	 9.259259e+00	 1.000209e+01
0	 8.740741e+00	 9.333333e+00	 1.000170e+01
0	 8.740741e+00	 9.407407e+00	 1.000136e+01
0	 8.740741e+00	 9.481481e+00	 1.000105e+01
0	 8.740741e+00	 9.555556e+00	 1.000078e+01
0	 8.740741e+00	 9.629630e+00	 1.000055e+01
0	 8.814815e+00	 9.259259e+00	 1.000191e+01
0	 8.814815e+00	 9.333333e+00	 1.000156e+01
0	 8.814815e+00	 9.407407e+00	 1.000124e+01
0	 8.814815e+00	 9.481481e+00	 1.000096e+01
0	 8.814815e+00	 9.555556e+00	 1.000071e+01
0	 8.814815e+00	 9.629630e+00	 1.000050e+01
0	 8.888889e+00	 9.259259e+00	 1.000173e+01
0	 8.888889e+00	 9.333333e+00	 1.000141e+01
0	 8.888889e+00	 9.407407e+00	 1.000112e+01
0	 8.888889e+00	 9.481481e+00	 1.000087e+01
0	 8.888889e+00	 9.555556e+00	 1.000065e+01
0	 8.888889e+00	 9.629630e+00	 1.000045e+01
0	 8.518519e+00	 9.629630e+00	 1.000069e+01
0	 8.518519e+00	 9.703704e+00	 1.000044e+01
0	 8.518519e+00	 9.777778e+00	 1.000025e+01
0	 8.518519e+00	 9.851852e+00	 1.000012e+01
0	 8.518519e+00	 9.925926e+00	 1.000003e+01
0	 8.518519e+00	 1.000000e+01	 9.999995e+00
0	 8.592593e+00	 9.629630e+00	 1.000064e+01
0	 8.592593e+00	 9.703704e+00	 1.000041e+01
0	 8.592593e+00	 9.777778e+00	 1.000024e+01
0	 8.592593e+00	 9.851852e+00	 1.000011e+01
0	 8.592593e+00	 9.925926e+00	 1.000003e+01
0	 8.592593e+00	 1.000000e+01	 9.999998e+00
0	 8.666667e+00	 9.629630e+00	 1.000060e+01
0	 8.666667e+00	 9.703704e+00	 1.000038e+01
0	 8.666667e+00	 9.777778e+00	 1.000022e+01
0	 8.666667e+00	 9.851852e+00	 1.000010e+01
0	 8.666667e+00	 9.925926e+00	 1.000003e+01
0	 8.666667e+00	 1.000000e+01	 9.999998e+00
0	 8.740741e+00	 9.629630e+00	 1.000055e+01
0	 8.740741e+00	 9.703704e+00	 1.000035e+01
0	 8.740741e+00	 9.777778e+00	 1.000020e+01
0	 8.740741e+00	 9.851852e+00	 1.000009e+01
0	 8.740741e+00	 9.925926e+00	 1.000002e+01
0	 8.740741e+00	 1.000000e+01	 9.999997e+00
0	 8.814815e+00	 9.629630e+00	 1.000050e+01
0	 8.814815e+00	 9.703704e+00	 1.000032e+01
0	 8.814815e+00	 9.777778e+00	 1.000018e+01
0	 8.814815e+00	 9.851852e+00	 1.000008e+01
0	 8.814815e+00	 9.925926e+00	 1.000002e+01
0	 8.814815e+00	 1.000000e+01	 9.999996e+00
0	 8.888889e+00	 9.629630e+00	 1.000045e+01
0	 8.888889e+00	 9.703704e+00	 1.000029e+01
0	 8.888889e+00	 9.777778e+00	 1.000017e+01
0	 8.888889e+00	 9.851852e+00	 1.000008e+01
0	 8.888889e+00	 9.925926e+00	 1.000002e+01
0	 8.888889e+00	 1.000000e+01	 9.999997e+00
0	 8.888889e+00	 0.000000e+00	 9.853745e+00
0	 8.888889e+00	 7.407407e-02	 9.853821e+00
0	 8.888889e+00	 1.481481e-01	 9.854049e+00
0	 8.888889e+00	 2.222222e-01	 9.854428e+00
0	 8.888889e+00	 2.962963e-01	 9.854959e+00
0	 8.888889e+00	 3.703704e-01	 9.855643e+00
0	 8.962963e+00	 0.000000e+00	 9.842590e+00
0	 8.962963e+00	 7.407407e-02	 9.842668e+00
0	 8.962963e+00	 1.481481e-01	 9.842901e+00
0	 8.962963e+00	 2.222222e-01	 9.843291e+00
0	 8.962963e+00	 2.962963e-01	 9.843837e+00
0	 8.962963e+00	 3.703704e-01	 9.844541e+00
0	 9.037037e+00	 0.000000e+00	 9.831178e+00
0	 9.037037e+00	 7.407407e-02	 9.831258e+00
0	 9.037037e+00	 1.481481e-01	 9.831499e+00
0	 9.037037e+00	 2.222222e-01	 9.831901e+00
0	 9.037037e+00	 2.962963e-01	 9.832464e+00
0	 9.037037e+00	 3.703704e-01	 9.833189e+00
0	 9.111111e+00	 0.000000e+00	 9.819486e+00
0	 9.111111e+00	 7.407407e-02	 9.819570e+00
0	 9.111111e+00	 1.481481e-01	 9.819819e+00
0	 9.111111e+00	 2.222222e-01	 9.820235e+00
0	 9.111111e+00	 2.962963e-01	 9.820816e+00
0	 9.111111e+00	 3.703704e-01	 9.821565e+00
0	 9.185185e+00	 0.000000e+00	 9.807493e+00
0	 9.185185e+00	 7.407407e-02	 9.807580e+00
0	 9.185185e+00	 1.481481e-01	 9.807838e+00
0	 9.185185e+00	 2.222222e-01	 9.808269e+00
0	 9.185185e+00	 2.962963e-01	 9.808871e+00
0	 9.185185e+00	 3.703704e-01	 9.809647e+00
0	 9.259259e+00	 0.000000e+00	 9.795174e+00
0	 9.259259e+00	 7.407407e-02	 9.795265e+00
0	 9.259259e+00	 1.481481e-01	 9.795533e+00
0	 9.259259e+00	 2.222222e-01	 9.795980e+00
0	 9.259259e+00	 2.962963e-01	 9.796607e+00
0	 9.259259e+00	 3.703704e-01	 9.797412e+00
0	 8.888889e+00	 3.703704e-01	 9.855643e+00
0	 8.888889e+00	 4.444444e-01	 9.856474e+00
0	 8.888889e+00	 5.185185e-01	 9.857447e+00
0	 8.888889e+00	 5.925926e-01	 9.858561e+00
0	 8.888889e+00	 6.666667e-01	 9.859820e+00
0	 8.888889e+00	 7.407407e-01	 9.861224e+00
0	 8.962963e+00	 3.703704e-01	 9.844541e+00
0	 8.962963e+00	 4.444444e-01	 9.845395e+00
0	 8.962963e+00	 5.185185e-01	 9.846394e+00
0	 8.962963e+00	 5.925926e-01	 9.847541e+00
0	 8.962963e+00	 6.666667e-01	 9.848836e+00
0	 8.962963e+00	 7.407407e-01	 9.850279e+00
0	 9.037037e+00	 3.703704e-01	 9.833189e+00
0	 9.037037e+00	 4.444444e-01	 9.834069e+00
0	 9.037037e+00	 5.185185e-01	 9.835100e+00
0	 9.037037e+00	 5.925926e-01	 9.836282e+00
0	 9.037037e+00	 6.666667e-01	 9.837617e+00
0	 9.037037e+00	 7.407407e-01	 9.839105e+00
0	 9.111111e+00	 3.703704e-01	 9.821565e+00
0	 9.111111e+00	 4.444444e-01	 9.822475e+00
0	 9.111111e+00	 5.185185e-01	 9.823540e+00
0	 9.111111e+00	 5.925926e-01	 9.824762e+00
0	 9.111111e+00	 6.666667e-01	 9.826142e+00
0	 9.111111e+00	 7.407407e-01	 9.827681e+00
0	 9.185185e+00	 3.703704e-01	 9.809647e+00
0	 9.185185e+00	 4.444444e-01	 9.810589e+00
0	 9.185185e+00	 5.185185e-01	 9.811694e+00
0	 9.185185e+00	 5.925926e-01	 9.812960e+00
0	 9.185185e+00	 6.666667e-01	 9.814391e+00
0	 9.185185e+00	 7.407407e-01	 9.815986e+00
0	 9.259259e+00	 3.703704e-01	 9.797412e+00
0	 9.259259e+00	 4.444444e-01	 9.798391e+00
0	 9.259259e+00	 5.185185e-01	 9.799538e+00
0	 9.259259e+00	 5.925926e-01	 9.800854e+00
0	 9.259259e+00	 6.666667e-01	 9.802340e+00
0	 9.259259e+00	 7.407407e-01	 9.803998e+00
0	 8.888889e+00	 7.407407e-01	 9.861224e+00
0	 8.888889e+00	 8.148148e-01	 9.862762e+00
0	 8.888889e+00	 8.888889e-01	 9.864423e+00
0	 8.888889e+00	 9.629630e-01	 9.866208e+00
0	 8.888889e+00	 1.037037e+00	 9.868121e+00
0	 8.888889e+00	 1.111111e+00	 9.870163e+00
0	 8.962963e+00	 7.407407e-01	 9.850279e+00
0	 8.962963e+00	 8.148148e-01	 9.851861e+00
0	 8.962963e+00	 8.888889e-01	 9.853570e+00
0	 8.962963e+00	 9.629630e-01	 9.855408e+00
0	 8.962963e+00	 1.037037e+00	 9.857378e+00
0	 8.962963e+00	 1.111111e+00	 9.859480e+00
0	 9.037037e+00	 7.407407e-01	 9.839105e+00
0	 9.037037e+00	 8.148148e-01	 9.840737e+00
0	 9.037037e+00	 8.888889e-01	 9.842500e+00
0	 9.037037e+00	 9.629630e-01	 9.844397e+00
0	 9.037037e+00	 1.037037e+00	 9.846429e+00
0	 9.037037e+00	 1.111111e+00	 9.848599e+00
0	 9.111111e+00	 7.407407e-01	 9.827681e+00
0	 9.111111e+00	 8.148148e-01	 9.829368e+00
0	 9.111111e+00	 8.888889e-01	 9.831192e+00
0	 9.111111e+00	 9.629630e-01	 9.833154e+00
0	 9.111111e+00	 1.037037e+00	 9.835257e+00
0	 9.111111e+00	 1.111111e+00	 9.837502e+00
0	 9.185185e+00	 7.407407e-01	 9.815986e+00
0	 9.185185e+00	 8.148148e-01	 9.817734e+00
0	 9.185185e+00	 8.888889e-01	 9.819625e+00
0	 9.185185e+00	 9.629630e-01	 9.821660e+00
0	 9.185185e+00	 1.037037e+00	 9.823841e+00
0	 9.185185e+00	 1.111111e+00	 9.826170e+00
0	 9.259259e+00	 7.407407e-01	 9.803998e+00
0	 9.259259e+00	 8.148148e-01	 9.805815e+00
0	 9.259259e+00	 8.888889e-01	 9.807780e+00
0	 9.259259e+00	 9.629630e-01	 9.809896e+00
0	 9.259259e+00	 1.037037e+00	 9.812163e+00
0	 9.259259e+00	 1.111111e+00	 9.814584e+00
0	 8.888889e+00	 1.111111e+00	 9.870163e+00
0	 8.888889e+00	 1.185185e+00	 9.872319e+00
0	 8.888889e+00	 1.259259e+00	 9.874573e+00
0	 8.888889e+00	 1.333333e+00	 9.876928e+00
0	 8.888889e+00	 1.407407e+00	 9.879386e+00
0	 8.888889e+00	 1.481481e+00	 9.881951e+00
0	 8.962963e+00	 1.111111e+00	 9.859480e+00
0	 8.962963e+00	 1.185185e+00	 9.861700e+00
0	 8.962963e+00	 1.259259e+00	 9.864022e+00
0	 8.962963e+00	 1.333333e+00	 9.866450e+00
0	 8.962963e+00	 1.407407e+00	 9.868985e+00
0	 8.962963e+00	 1.481481e+00	 9.871630e+00
0	 9.037037e+00	 1.111111e+00	 9.848599e+00
0	 9.037037e+00	 1.185185e+00	 9.850891e+00
0	 9.037037e+00	 1.259259e+00	 9.853290e+00
0	 9.037037e+00	 1.333333e+00	 9.855798e+00
0	 9.037037e+00	 1.407407e+00	 9.858418e+00
0	 9.037037e+00	 1.481481e+00	 9.861151e+00
0	 9.111111e+00	 1.111111e+00	 9.837502e+00
0	 9.111111e+00	 1.185185e+00	 9.839874e+00
0	 9.111111e+00	 1.259259e+00	 9.842357e+00
0	 9.111111e+00	 1.333333e+00	 9.844955e+00
0	 9.111111e+00	 1.407407e+00	 9.847668e+00
0	 9.111111e+00	 1.481481e+00	 9.850500e+00
0	 9.185185e+00	 1.111111e+00	 9.826170e+00
0	 9.185185e+00	 1.185185e+00	 9.828630e+00
0	 9.185185e+00	 1.259259e+00	 9.831207e+00
0	 9.185185e+00	 1.333333e+00	 9.833903e+00
0	 9.185185e+00	 1.407407e+00	 9.836721e+00
0	 9.185185e+00	 1.481481e+00	 9.839660e+00
0	 9.259259e+00	 1.111111e+00	 9.814584e+00
0	 9.259259e+00	 1.185185e+00	 9.817142e+00
0	 9.259259e+00	 1.259259e+00	 9.819822e+00
0	 9.259259e+00	 1.333333e+00	 9.822627e+00
0	 9.259259e+00	 1.407407e+00	 9.825558e+00
0	 9.259259e+00	 1.481481e+00	 9.828617e+00
0	 8.888889e+00	 1.481481e+00	 9.881951e+00
0	 8.888889e+00	 1.555556e+00	 9.884604e+00
0	 8.888889e+00	 1.629630e+00	 9.887327e+00
0	 8.888889e+00	 1.703704e+00	 9.890122e+00
0	 8.888889e+00	 1.777778e+00	 9.892993e+00
0	 8.888889e+00	 1.851852e+00	 9.895942e+00
0	 8.962963e+00	 1.481481e+00	 9.871630e+00
0	 8.962963e+00	 1.555556e+00	 9.874366e+00
0	 8.962963e+00	 1.629630e+00	 9.877177e+00
0	 8.962963e+00	 1.703704e+00	 9.880063e+00
0	 8.962963e+00	 1.777778e+00	 9.883029e+00
0	 8.962963e+00	 1.851852e+00	 9.886077e+00
0	 9.037037e+00	 1.481481e+00	 9.861151e+00
0	 9.037037e+00	 1.555556e+00	 9.863980e+00
0	 9.037037e+00	 1.629630e+00	 9.866888e+00
0	 9.037037e+00	 1.703704e+00	 9.869875e+00
0	 9.037037e+00	 1.777778e+00	 9.872945e+00
0	 9.037037e+00	 1.851852e+00	 9.876101e+00
0	 9.111111e+00	 1.481481e+00	 9.850500e+00
0	 9.111111e+00	 1.555556e+00	 9.853432e+00
0	 9.111111e+00	 1.629630e+00	 9.856446e+00
0	 9.111111e+00	 1.703704e+00	 9.859544e+00
0	 9.111111e+00	 1.777778e+00	 9.862728e+00
0	 9.111111e+00	 1.851852e+00	 9.866002e+00
0	 9.185185e+00	 1.481481e+00	 9.839660e+00
0	 9.185185e+00	 1.555556e+00	 9.842705e+00
0	 9.185185e+00	 1.629630e+00	 9.845836e+00
0	 9.185185e+00	 1.703704e+00	 9.849055e+00
0	 9.185185e+00	 1.777778e+00	 9.852366e+00
0	 9.185185e+00	 1.851852e+00	 9.855769e+00
0	 9.259259e+00	 1.481481e+00	 9.828617e+00
0	 9.259259e+00	 1.555556e+00	 9.831785e+00
0	 9.259259e+00	 1.629630e+00	 9.835044e+00
0	 9.259259e+00	 1.703704e+00	 9.838397e+00
0	 9.259259e+00	 1.777778e+00	 9.841844e+00
0	 9.259259e+00	 1.851852e+00	 9.845389e+00
0	 8.888889e+00	 1.851852e+00	 9.895942e+00
0	 8.888889e+00	 1.925926e+00	 9.898951e+00
0	 8.888889e+00	 2.000000e+00	 9.901998e+00
0	 8.888889e+00	 2.074074e+00	 9.905089e+00
0	 8.888889e+00	 2.148148e+00	 9.908224e+00
0	 8.888889e+00	 2.222222e+00	 9.911408e+00
0	 8.962963e+00	 1.851852e+00	 9.886077e+00
0	 8.962963e+00	 1.925926e+00	 9.889187e+00
0	 8.962963e+00	 2.000000e+00	 9.892340e+00
0	 8.962963e+00	 2.074074e+00	 9.895539e+00
0	 8.962963e+00	 2.148148e+00	 9.898786e+00
0	 8.962963e+00	 2.222222e+00	 9.902084e+00
0	 9.037037e+00	 1.851852e+00	 9.876101e+00
0	 9.037037e+00	 1.925926e+00	 9.879322e+00
0	 9.037037e+00	 2.000000e+00	 9.882590e+00
0	 9.037037e+00	 2.074074e+00	 9.885907e+00
0	 9.037037e+00	 2.148148e+00	 9.889276e+00
0	 9.037037e+00	 2.222222e+00	 9.892698e+00
0	 9.111111e+00	 1.851852e+00	 9.866002e+00
0	 9.111111e+00	 1.925926e+00	 9.869346e+00
0	 9.111111e+00	 2.000000e+00	 9.872739e+00
0	 9.111111e+00	 2.074074e+00	 9.876185e+00
0	 9.111111e+00	 2.148148e+00	 9.879685e+00
0	 9.111111e+00	 2.222222e+00	 9.883242e+00
0	 9.185185e+00	 1.851852e+00	 9.855769e+00
0	 9.185185e+00	 1.925926e+00	 9.859245e+00
0	 9.185185e+00	 2.000000e+00	 9.862775e+00
0	 9.185185e+00	 2.074074e+00	 9.866361e+00
0	 9.185185e+00	 2.148148e+00	 9.870005e+00
0	 9.185185e+00	 2.222222e+00	 9.873709e+00
0	 9.259259e+00	 1.851852e+00	 9.845389e+00
0	 9.259259e+00	 1.925926e+00	 9.849010e+00
0	 9.259259e+00	 2.000000e+00	 9.852689e+00
0	 9.259259e+00	 2.074074e+00	 9.856427e+00
0	 9.259259e+00	 2.148148e+00	 9.860226e+00
0	 9.259259e+00	 2.222222e+00	 9.864089e+00
0	 8.888889e+00	 2.222222e+00	 9.911408e+00
0	 8.888889e+00	 2.296296e+00	 9.914620e+00
0	 8.888889e+00	 2.370370e+00	 9.917842e+00
0	 8.888889e+00	 2.444444e+00	 9.921077e+00
0	 8.888889e+00	 2.518519e+00	 9.924326e+00
0	 8.888889e+00	 2.592593e+00	 9.927592e+00
0	 8.962963e+00	 2.222222e+00	 9.902084e+00
0	 8.962963e+00	 2.296296e+00	 9.905413e+00
0	 8.962963e+00	 2.370370e+00	 9.908756e+00
0	 8.962963e+00	 2.444444e+00	 9.912113e+00
0	 8.962963e+00	 2.518519e+00	 9.915488e+00
0	 8.962963e+00	 2.592593e+00	 9.918882e+00
0	 9.037037e+00	 2.222222e+00	 9.892698e+00
0	 9.037037e+00	 2.296296e+00	 9.896155e+00
0	 9.037037e+00	 2.370370e+00	 9.899627e+00
0	 9.037037e+00	 2.444444e+00	 9.903117e+00
0	 9.037037e+00	 2.518519e+00	 9.906627e+00
0	 9.037037e+00	 2.592593e+00	 9.910159e+00
0	 9.111111e+00	 2.222222e+00	 9.883242e+00
0	 9.111111e+00	 2.296296e+00	 9.886837e+00
0	 9.111111e+00	 2.370370e+00	 9.890450e+00
0	 9.111111e+00	 2.444444e+00	 9.894083e+00
0	 9.111111e+00	 2.518519e+00	 9.897738e+00
0	 9.111111e+00	 2.592593e+00	 9.901417e+00
0	 9.185185e+00	 2.222222e+00	 9.873709e+00
0	 9.185185e+00	 2.296296e+00	 9.877453e+00
0	 9.185185e+00	 2.370370e+00	 9.881217e+00
0	 9.185185e+00	 2.444444e+00	 9.885004e+00
0	 9.185185e+00	 2.518519e+00	 9.888816e+00
0	 9.185185e+00	 2.592593e+00	 9.892654e+00
0	 9.259259e+00	 2.222222e+00	 9.864089e+00
0	 9.259259e+00	 2.296296e+00	 9.867995e+00
0	 9.259259e+00	 2.370370e+00	 9.871923e+00
0	 9.259259e+00	 2.444444e+00	 9.875876e+00
0	 9.259259e+00	 2.518519e+00	 9.879856e+00
0	 9.259259e+00	 2.592593e+00	 9.883865e+00
0	 8.888889e+00	 2.592593e+00	 9.927592e+00
0	 8.888889e+00	 2.666667e+00	 9.930859e+00
0	 8.888889e+00	 2.740741e+00	 9.934108e+00
0	 8.888889e+00	 2.814815e+00	 9.937341e+00
0	 8.888889e+00	 2.888889e+00	 9.940561e+00
0	 8.888889e+00	 2.962963e+00	 9.943769e+00
0	 8.962963e+00	 2.592593e+00	 9.918882e+00
0	 8.962963e+00	 2.666667e+00	 9.922279e+00
0	 8.962963e+00	 2.740741e+00	 9.925660e+00
0	 8.962963e+00	 2.814815e+00	 9.929028e+00
0	 8.962963e+00	 2.888889e+00	 9.932383e+00
0	 8.962963e+00	 2.962963e+00	 9.935730e+00
0	 9.037037e+00	 2.592593e+00	 9.910159e+00
0	 9.037037e+00	 2.666667e+00	 9.913695e+00
0	 9.037037e+00	 2.740741e+00	 9.917217e+00
0	 9.037037e+00	 2.814815e+00	 9.920728e+00
0	 9.037037e+00	 2.888889e+00	 9.924228e+00
0	 9.037037e+00	 2.962963e+00	 9.927721e+00
0	 9.111111e+00	 2.592593e+00	 9.901417e+00
0	 9.111111e+00	 2.666667e+00	 9.905103e+00
0	 9.111111e+00	 2.740741e+00	 9.908777e+00
0	 9.111111e+00	 2.814815e+00	 9.912440e+00
0	 9.111111e+00	 2.888889e+00	 9.916095e+00
0	 9.111111e+00	 2.962963e+00	 9.919743e+00
0	 9.185185e+00	 2.592593e+00	 9.892654e+00
0	 9.185185e+00	 2.666667e+00	 9.896500e+00
0	 9.185185e+00	 2.740741e+00	 9.900336e+00
0	 9.185185e+00	 2.814815e+00	 9.904162e+00
0	 9.185185e+00	 2.888889e+00	 9.907982e+00
0	 9.185185e+00	 2.962963e+00	 9.911796e+00
0	 9.259259e+00	 2.592593e+00	 9.883865e+00
0	 9.259259e+00	 2.666667e+00	 9.887884e+00
0	 9.259259e+00	 2.740741e+00	 9.891892e+00
0	 9.259259e+00	 2.814815e+00	 9.895893e+00
0	 9.259259e+00	 2.888889e+00	 9.899888e+00
0	 9.259259e+00	 2.962963e+00	 9.903879e+00
0	 8.888889e+00	 2.962963e+00	 9.943769e+00
0	 8.888889e+00	 3.037037e+00	 9.946952e+00
0	 8.888889e+00	 3.111111e+00	 9.950092e+00
0	 8.888889e+00	 3.185185e+00	 9.953193e+00
0	 8.888889e+00	 3.259259e+00	 9.956256e+00
0	 8.888889e+00	 3.333333e+00	 9.959283e+00
0	 8.962963e+00	 2.962963e+00	 9.935730e+00
0	 8.962963e+00	 3.037037e+00	 9.939052e+00
0	 8.962963e+00	 3.111111e+00	 9.942333e+00
0	 8.962963e+00	 3.185185e+00	 9.945576e+00
0	 8.962963e+00	 3.259259e+00	 9.948782e+00
0	 8.962963e+00	 3.333333e+00	 9.951952e+00
0	 9.037037e+00	 2.962963e+00	 9.927721e+00
0	 9.037037e+00	 3.037037e+00	 9.931191e+00
0	 9.037037e+00	 3.111111e+00	 9.934621e+00
0	 9.037037e+00	 3.185185e+00	 9.938013e+00
0	 9.037037e+00	 3.259259e+00	 9.941369e+00
0	 9.037037e+00	 3.333333e+00	 9.944691e+00
0	 9.111111e+00	 2.962963e+00	 9.919743e+00
0	 9.111111e+00	 3.037037e+00	 9.923369e+00
0	 9.111111e+00	 3.111111e+00	 9.926957e+00
0	 9.111111e+00	 3.185185e+00	 9.930507e+00
0	 9.111111e+00	 3.259259e+00	 9.934021e+00
0	 9.111111e+00	 3.333333e+00	 9.937502e+00
0	 9.185185e+00	 2.962963e+00	 9.911796e+00
0	 9.185185e+00	 3.037037e+00	 9.915588e+00
0	 9.185185e+00	 3.111111e+00	 9.919342e+00
0	 9.185185e+00	 3.185185e+00	 9.923060e+00
0	 9.185185e+00	 3.259259e+00	 9.926742e+00
0	 9.185185e+00	 3.333333e+00	 9.930390e+00
0	 9.259259e+00	 2.962963e+00	 9.903879e+00
0	 9.259259e+00	 3.037037e+00	 9.907849e+00
0	 9.259259e+00	 3.111111e+00	 9.911780e+00
0	 9.259259e+00	 3.185185e+00	 9.915674e+00
0	 9.259259e+00	 3.259259e+00	 9.919533e+00
0	 9.259259e+00	 3.333333e+00	 9.923358e+00
0	 8.888889e+00	 3.333333e+00	 9.959283e+00
0	 8.888889e+00	 3.407407e+00	 9.962261e+00
0	 8.888889e+00	 3.481481e+00	 9.965179e+00
0	 8.888889e+00	 3.555556e+00	 9.968038e+00
0	 8.888889e+00	 3.629630e+00	 9.970838e+00
0	 8.888889e+00	 3.703704e+00	 9.973582e+00
0	 8.962963e+00	 3.333333e+00	 9.951952e+00
0	 8.962963e+00	 3.407407e+00	 9.955075e+00
0	 8.962963e+00	 3.481481e+00	 9.958138e+00
0	 8.962963e+00	 3.555556e+00	 9.961142e+00
0	 8.962963e+00	 3.629630e+00	 9.964088e+00
0	 8.962963e+00	 3.703704e+00	 9.966978e+00
0	 9.037037e+00	 3.333333e+00	 9.944691e+00
0	 9.037037e+00	 3.407407e+00	 9.947965e+00
0	 9.037037e+00	 3.481481e+00	 9.951179e+00
0	 9.037037e+00	 3.555556e+00	 9.954335e+00
0	 9.037037e+00	 3.629630e+00	 9.957433e+00
0	 9.037037e+00	 3.703704e+00	 9.960474e+00
0	 9.111111e+00	 3.333333e+00	 9.937502e+00
0	 9.111111e+00	 3.407407e+00	 9.940935e+00
0	 9.111111e+00	 3.481481e+00	 9.944309e+00
0	 9.111111e+00	 3.555556e+00	 9.947623e+00
0	 9.111111e+00	 3.629630e+00	 9.950878e+00
0	 9.111111e+00	 3.703704e+00	 9.954077e+00
0	 9.185185e+00	 3.333333e+00	 9.930390e+00
0	 9.185185e+00	 3.407407e+00	 9.933991e+00
0	 9.185185e+00	 3.481481e+00	 9.937530e+00
0	 9.185185e+00	 3.555556e+00	 9.941010e+00
0	 9.185185e+00	 3.629630e+00	 9.944431e+00
0	 9.185185e+00	 3.703704e+00	 9.947794e+00
0	 9.259259e+00	 3.333333e+00	 9.923358e+00
0	 9.259259e+00	 3.407407e+00	 9.927135e+00
0	 9.259259e+00	 3.481481e+00	 9.930849e+00
0	 9.259259e+00	 3.555556e+00	 9.934503e+00
0	 9.259259e+00	 3.629630e+00	 9.938097e+00
0	 9.259259e+00	 3.703704e+00	 9.941632e+00
0	 8.888889e+00	 3.703704e+00	 9.973582e+00
0	 8.888889e+00	 3.777778e+00	 9.976261e+00
0	 8.888889e+00	 3.851852e+00	 9.978865e+00
0	 8.888889e+00	 3.925926e+00	 9.981397e+00
0	 8.888889e+00	 4.000000e+00	 9.983855e+00
0	 8.888889e+00	 4.074074e+00	 9.986242e+00
0	 8.962963e+00	 3.703704e+00	 9.966978e+00
0	 8.962963e+00	 3.777778e+00	 9.969802e+00
0	 8.962963e+00	 3.851852e+00	 9.972552e+00
0	 8.962963e+00	 3.925926e+00	 9.975228e+00
0	 8.962963e+00	 4.000000e+00	 9.977831e+00
0	 8.962963e+00	 4.074074e+00	 9.980362e+00
0	 9.037037e+00	 3.703704e+00	 9.960474e+00
0	 9.037037e+00	 3.777778e+00	 9.963450e+00
0	 9.037037e+00	 3.851852e+00	 9.966350e+00
0	 9.037037e+00	 3.925926e+00	 9.969175e+00
0	 9.037037e+00	 4.000000e+00	 9.971926e+00
0	 9.037037e+00	 4.074074e+00	 9.974605e+00
0	 9.111111e+00	 3.703704e+00	 9.954077e+00
0	 9.111111e+00	 3.777778e+00	 9.957210e+00
0	 9.111111e+00	 3.851852e+00	 9.960265e+00
0	 9.111111e+00	 3.925926e+00	 9.963245e+00
0	 9.111111e+00	 4.000000e+00	 9.966150e+00
0	 9.111111e+00	 4.074074e+00	 9.968980e+00
0	 9.185185e+00	 3.703704e+00	 9.947794e+00
0	 9.185185e+00	 3.777778e+00	 9.951090e+00
0	 9.185185e+00	 3.851852e+00	 9.954307e+00
0	 9.185185e+00	 3.925926e+00	 9.957447e+00
0	 9.185185e+00	 4.000000e+00	 9.960510e+00
0	 9.185185e+00	 4.074074e+00	 9.963497e+00
0	 9.259259e+00	 3.703704e+00	 9.941632e+00
0	 9.259259e+00	 3.777778e+00	 9.945097e+00
0	 9.259259e+00	 3.851852e+00	 9.948482e+00
0	 9.259259e+00	 3.925926e+00	 9.951788e+00
0	 9.259259e+00	 4.000000e+00	 9.955015e+00
0	 9.259259e+00	 4.074074e+00	 9.958164e+00
0	 8.888889e+00	 4.074074e+00	 9.986242e+00
0	 8.888889e+00	 4.148148e+00	 9.988551e+00
0	 8.888889e+00	 4.222222e+00	 9.990778e+00
0	 8.888889e+00	 4.296296e+00	 9.992924e+00
0	 8.888889e+00	 4.370370e+00	 9.994987e+00
0	 8.888889e+00	 4.444444e+00	 9.996968e+00
0	 8.962963e+00	 4.074074e+00	 9.980362e+00
0	 8.962963e+00	 4.148148e+00	 9.982814e+00
0	 8.962963e+00	 4.222222e+00	 9.985183e+00
0	 8.962963e+00	 4.296296e+00	 9.987469e+00
0	 8.962963e+00	 4.370370e+00	 9.989671e+00
0	 8.962963e+00	 4.444444e+00	 9.991791e+00
0	 9.037037e+00	 4.074074e+00	 9.974605e+00
0	 9.037037e+00	 4.148148e+00	 9.977204e+00
0	 9.037037e+00	 4.222222e+00	 9.979718e+00
0	 9.037037e+00	 4.296296e+00	 9.982147e+00
0	 9.037037e+00	 4.370370e+00	 9.984491e+00
0	 9.037037e+00	 4.444444e+00	 9.986751e+00
0	 9.111111e+00	 4.074074e+00	 9.968980e+00
0	 9.111111e+00	 4.148148e+00	 9.971729e+00
0	 9.111111e+00	 4.222222e+00	 9.974392e+00
0	 9.111111e+00	 4.296296e+00	 9.976968e+00
0	 9.111111e+00	 4.370370e+00	 9.979457e+00
0	 9.111111e+00	 4.444444e+00	 9.981860e+00
0	 9.185185e+00	 4.074074e+00	 9.963497e+00
0	 9.185185e+00	 4.148148e+00	 9.966401e+00
0	 9.185185e+00	 4.222222e+00	 9.969216e+00
0	 9.185185e+00	 4.296296e+00	 9.971942e+00
0	 9.185185e+00	 4.370370e+00	 9.974579e+00
0	 9.185185e+00	 4.444444e+00	 9.977127e+00
0	 9.259259e+00	 4.074074e+00	 9.958164e+00
0	 9.259259e+00	 4.148148e+00	 9.961228e+00
0	 9.259259e+00	 4.222222e+00	 9.964200e+00
0	 9.259259e+00	 4.296296e+00	 9.967079e+00
0	 9.259259e+00	 4.370370e+00	 9.969868e+00
0	 9.259259e+00	 4.444444e+00	 9.972565e+00
0	 8.888889e+00	 4.444444e+00	 9.996968e+00
0	 8.888889e+00	 4.518519e+00	 9.998866e+00
0	 8.888889e+00	 4.592593e+00	 1.000068e+01
0	 8.888889e+00	 4.666667e+00	 1.000241e+01
0	 8.888889e+00	 4.740741e+00	 1.000405e+01
0	 8.888889e+00	 4.814815e+00	 1.000560e+01
0	 8.962963e+00	 4.444444e+00	 9.991791e+00
0	 8.962963e+00	 4.518519e+00	 9.993826e+00
0	 8.962963e+00	 4.592593e+00	 9.995773e+00
0	 8.962963e+00	 4.666667e+00	 9.997633e+00
0	 8.962963e+00	 4.740741e+00	 9.999405e+00
0	 8.962963e+00	 4.814815e+00	 1.000109e+01
0	 9.037037e+00	 4.444444e+00	 9.986751e+00
0	 9.037037e+00	 4.518519e+00	 9.988925e+00
0	 9.037037e+00	 4.592593e+00	 9.991009e+00
0	 9.037037e+00	 4.666667e+00	 9.993003e+00
0	 9.037037e+00	 4.740741e+00	 9.994907e+00
0	 9.037037e+00	 4.814815e+00	 9.996722e+00
0	 9.111111e+00	 4.444444e+00	 9.981860e+00
0	 9.111111e+00	 4.518519e+00	 9.984174e+00
0	 9.111111e+00	 4.592593e+00	 9.986396e+00
0	 9.111111e+00	 4.666667e+00	 9.988526e+00
0	 9.111111e+00	 4.740741e+00	 9.990563e+00
0	 9.111111e+00	 4.814815e+00	 9.992509e+00
0	 9.185185e+00	 4.444444e+00	 9.977127e+00
0	 9.185185e+00	 4.518519e+00	 9.979584e+00
0	 9.185185e+00	 4.592593e+00	 9.981947e+00
0	 9.185185e+00	 4.666667e+00	 9.984214e+00
0	 9.185185e+00	 4.740741e+00	 9.986386e+00
0	 9.185185e+00	 4.814815e+00	 9.988463e+00
0	 9.259259e+00	 4.444444e+00	 9.972565e+00
0	 9.259259e+00	 4.518519e+00	 9.975167e+00
0	 9.259259e+00	 4.592593e+00	 9.977672e+00
0	 9.259259e+00	 4.666667e+00	 9.980078e+00
0	 9.259259e+00	 4.740741e+00	 9.982386e+00
0	 9.259259e+00	 4.814815e+00	 9.984596e+00
0	 8.888889e+00	 4.814815e+00	 1.000560e+01
0	 8.888889e+00	 4.888889e+00	 1.000707e+01
0	 8.888889e+00	 4.962963e+00	 1.000846e+01
0	 8.888889e+00	 5.037037e+00	 1.000976e+01
0	 8.888889e+00	 5.111111e+00	 1.001097e+01
0	 8.888889e+00	 5.185185e+00	 1.001210e+01
0	 8.962963e+00	 4.814815e+00	 1.000109e+01
0	 8.962963e+00	 4.888889e+00	 1.000269e+01
0	 8.962963e+00	 4.962963e+00	 1.000420e+01
0	 8.962963e+00	 5.037037e+00	 1.000562e+01
0	 8.962963e+00	 5.111111e+00	 1.000696e+01
0	 8.962963e+00	 5.185185e+00	 1.000821e+01
0	 9.037037e+00	 4.814815e+00	 9.996722e+00
0	 9.037037e+00	 4.888889e+00	 9.998447e+00
0	 9.037037e+00	 4.962963e+00	 1.000008e+01
0	 9.037037e+00	 5.037037e+00	 1.000163e+01
0	 9.037037e+00	 5.111111e+00	 1.000309e+01
0	 9.037037e+00	 5.185185e+00	 1.000445e+01
0	 9.111111e+00	 4.814815e+00	 9.992509e+00
0	 9.111111e+00	 4.888889e+00	 9.994362e+00
0	 9.111111e+00	 4.962963e+00	 9.996124e+00
0	 9.111111e+00	 5.037037e+00	 9.997793e+00
0	 9.111111e+00	 5.111111e+00	 9.999370e+00
0	 9.111111e+00	 5.185185e+00	 1.000085e+01
0	 9.185185e+00	 4.814815e+00	 9.988463e+00
0	 9.185185e+00	 4.888889e+00	 9.990445e+00
0	 9.185185e+00	 4.962963e+00	 9.992332e+00
0	 9.185185e+00	 5.037037e+00	 9.994124e+00
0	 9.185185e+00	 5.111111e+00	 9.995820e+00
0	 9.185185e+00	 5.185185e+00	 9.997420e+00
0	 9.259259e+00	 4.814815e+00	 9.984596e+00
0	 9.259259e+00	 4.888889e+00	 9.986707e+00
0	 9.259259e+00	 4.962963e+00	 9.988720e+00
0	 9.259259e+00	 5.037037e+00	 9.990634e+00
0	 9.259259e+00	 5.111111e+00	 9.992449e+00
0	 9.259259e+00	 5.185185e+00	 9.994164e+00
0	 8.888889e+00	 5.185185e+00	 1.001210e+01
0	 8.888889e+00	 5.259259e+00	 1.001315e+01
0	 8.888889e+00	 5.333333e+00	 1.001411e+01
0	 8.888889e+00	 5.407407e+00	 1.001500e+01
0	 8.888889e+00	 5.481481e+00	 1.001581e+01
0	 8.888889e+00	 5.555556e+00	 1.001653e+01
0	 8.962963e+00	 5.185185e+00	 1.000821e+01
0	 8.962963e+00	 5.259259e+00	 1.000937e+01
0	 8.962963e+00	 5.333333e+00	 1.001045e+01
0	 8.962963e+00	 5.407407e+00	 1.001145e+01
0	 8.962963e+00	 5.481481e+00	 1.001237e+01
0	 8.962963e+00	 5.555556e+00	 1.001320e+01
0	 9.037037e+00	 5.185185e+00	 1.000445e+01
0	 9.037037e+00	 5.259259e+00	 1.000573e+01
0	 9.037037e+00	 5.333333e+00	 1.000693e+01
0	 9.037037e+00	 5.407407e+00	 1.000804e+01
0	 9.037037e+00	 5.481481e+00	 1.000906e+01
0	 9.037037e+00	 5.555556e+00	 1.001000e+01
0	 9.111111e+00	 5.185185e+00	 1.000085e+01
0	 9.111111e+00	 5.259259e+00	 1.000225e+01
0	 9.111111e+00	 5.333333e+00	 1.000355e+01
0	 9.111111e+00	 5.407407e+00	 1.000477e+01
0	 9.111111e+00	 5.481481e+00	 1.000590e+01
0	 9.111111e+00	 5.555556e+00	 1.000694e+01
0	 9.185185e+00	 5.185185e+00	 9.997420e+00
0	 9.185185e+00	 5.259259e+00	 9.998927e+00
0	 9.185185e+00	 5.333333e+00	 1.000034e+01
0	 9.185185e+00	 5.407407e+00	 1.000167e+01
0	 9.185185e+00	 5.481481e+00	 1.000290e+01
0	 9.185185e+00	 5.555556e+00	 1.000404e+01
0	 9.259259e+00	 5.185185e+00	 9.994164e+00
0	 9.259259e+00	 5.259259e+00	 9.995783e+00
0	 9.259259e+00	 5.333333e+00	 9.997307e+00
0	 9.259259e+00	 5.407407e+00	 9.998737e+00
0	 9.259259e+00	 5.481481e+00	 1.000007e+01
0	 9.259259e+00	 5.555556e+00	 1.000131e+01
0	 8.888889e+00	 5.555556e+00	 1.001653e+01
0	 8.888889e+00	 5.629630e+00	 1.001718e+01
0	 8.888889e+00	 5.703704e+00	 1.001776e+01
0	 8.888889e+00	 5.777778e+00	 1.001827e+01
0	 8.888889e+00	 5.851852e+00	 1.001870e+01
0	 8.888889e+00	 5.925926e+00	 1.001906e+01
0	 8.962963e+00	 5.555556e+00	 1.001320e+01
0	 8.962963e+00	 5.629630e+00	 1.001395e+01
0	 8.962963e+00	 5.703704e+00	 1.001463e+01
0	 8.962963e+00	 5.777778e+00	 1.001524e+01
0	 8.962963e+00	 5.851852e+00	 1.001577e+01
0	 8.962963e+00	 5.925926e+00	 1.001622e+01
0	 9.037037e+00	 5.555556e+00	 1.001000e+01
0	 9.037037e+00	 5.629630e+00	 1.001085e+01
0	 9.037037e+00	 5.703704e+00	 1.001163e+01
0	 9.037037e+00	 5.777778e+00	 1.001234e+01
0	 9.037037e+00	 5.851852e+00	 1.001296e+01
0	 9.037037e+00	 5.925926e+00	 1.001351e+01
0	 9.111111e+00	 5.555556e+00	 1.000694e+01
0	 9.111111e+00	 5.629630e+00	 1.000790e+01
0	 9.111111e+00	 5.703704e+00	 1.000877e+01
0	 9.111111e+00	 5.777778e+00	 1.000957e+01
0	 9.111111e+00	 5.851852e+00	 1.001029e+01
0	 9.111111e+00	 5.925926e+00	 1.001092e+01
0	 9.185185e+00	 5.555556e+00	 1.000404e+01
0	 9.185185e+00	 5.629630e+00	 1.000510e+01
0	 9.185185e+00	 5.703704e+00	 1.000607e+01
0	 9.185185e+00	 5.777778e+00	 1.000696e+01
0	 9.185185e+00	 5.851852e+00	 1.000776e+01
0	 9.185185e+00	 5.925926e+00	 1.000848e+01
0	 9.259259e+00	 5.555556e+00	 1.000131e+01
0	 9.259259e+00	 5.629630e+00	 1.000246e+01
0	 9.259259e+00	 5.703704e+00	 1.000352e+01
0	 9.259259e+00	 5.777778e+00	 1.000450e+01
0	 9.259259e+00	 5.851852e+00	 1.000539e+01
0	 9.259259e+00	 5.925926e+00	 1.000619e+01
0	 8.888889e+00	 5.925926e+00	 1.001906e+01
0	 8.888889e+00	 6.000000e+00	 1.001935e+01
0	 8.888889e+00	 6.074074e+00	 1.001958e+01
0	 8.888889e+00	 6.148148e+00	 1.001975e+01
0	 8.888889e+00	 6.222222e+00	 1.001985e+01
0	 8.888889e+00	 6.296296e+00	 1.001990e+01
0	 8.962963e+00	 5.925926e+00	 1.001622e+01
0	 8.962963e+00	 6.000000e+00	 1.001661e+01
0	 8.962963e+00	 6.074074e+00	 1.001693e+01
0	 8.962963e+00	 6.148148e+00	 1.001718e+01
0	 8.962963e+00	 6.222222e+00	 1.001738e+01
0	 8.962963e+00	 6.296296e+00	 1.001750e+01
0	 9.037037e+00	 5.925926e+00	 1.001351e+01
0	 9.037037e+00	 6.000000e+00	 1.001398e+01
0	 9.037037e+00	 6.074074e+00	 1.001439e+01
0	 9.037037e+00	 6.148148e+00	 1.001473e+01
0	 9.037037e+00	 6.222222e+00	 1.001501e+01
0	 9.037037e+00	 6.296296e+00	 1.001521e+01
0	 9.111111e+00	 5.925926e+00	 1.001092e+01
0	 9.111111e+00	 6.000000e+00	 1.001148e+01
0	 9.111111e+00	 6.074074e+00	 1.001198e+01
0	 9.111111e+00	 6.148148e+00	 1.001240e+01
0	 9.111111e+00	 6.222222e+00	 1.001275e+01
0	 9.111111e+00	 6.296296e+00	 1.001304e+01
0	 9.185185e+00	 5.925926e+00	 1.000848e+01
0	 9.185185e+00	 6.000000e+00	 1.000912e+01
0	 9.185185e+00	 6.074074e+00	 1.000970e+01
0	 9.185185e+00	 6.148148e+00	 1.001020e+01
0	 9.185185e+00	 6.222222e+00	 1.001062e+01
0	 9.185185e+00	 6.296296e+00	 1.001098e+01
0	 9.259259e+00	 5.925926e+00	 1.000619e+01
0	 9.259259e+00	 6.000000e+00	 1.000691e+01
0	 9.259259e+00	 6.074074e+00	 1.000756e+01
0	 9.259259e+00	 6.148148e+00	 1.000813e+01
0	 9.259259e+00	 6.222222e+00	 1.000863e+01
0	 9.259259e+00	 6.296296e+00	 1.000905e+01
0	 8.888889e+00	 6.296296e+00	 1.001990e+01
0	 8.888889e+00	 6.370370e+00	 1.001988e+01
0	 8.888889e+00	 6.444444e+00	 1.001982e+01
0	 8.888889e+00	 6.518519e+00	 1.001971e+01
0	 8.888889e+00	 6.592593e+00	 1.001954e+01
0	 8.888889e+00	 6.666667e+00	 1.001933e+01
0	 8.962963e+00	 6.296296e+00	 1.001750e+01
0	 8.962963e+00	 6.370370e+00	 1.001757e+01
0	 8.962963e+00	 6.444444e+00	 1.001759e+01
0	 8.962963e+00	 6.518519e+00	 1.001755e+01
0	 8.962963e+00	 6.592593e+00	 1.001747e+01
0	 8.962963e+00	 6.666667e+00	 1.001732e+01
0	 9.037037e+00	 6.296296e+00	 1.001521e+01
0	 9.037037e+00	 6.370370e+00	 1.001536e+01
0	 9.037037e+00	 6.444444e+00	 1.001545e+01
0	 9.037037e+00	 6.518519e+00	 1.001549e+01
0	 9.037037e+00	 6.592593e+00	 1.001548e+01
0	 9.037037e+00	 6.666667e+00	 1.001540e+01
0	 9.111111e+00	 6.296296e+00	 1.001304e+01
0	 9.111111e+00	 6.370370e+00	 1.001326e+01
0	 9.111111e+00	 6.444444e+00	 1.001342e+01
0	 9.111111e+00	 6.518519e+00	 1.001353e+01
0	 9.111111e+00	 6.592593e+00	 1.001358e+01
0	 9.111111e+00	 6.666667e+00	 1.001357e+01
0	 9.185185e+00	 6.296296e+00	 1.001098e+01
0	 9.185185e+00	 6.370370e+00	 1.001127e+01
0	 9.185185e+00	 6.444444e+00	 1.001150e+01
0	 9.185185e+00	 6.518519e+00	 1.001167e+01
0	 9.185185e+00	 6.592593e+00	 1.001179e+01
0	 9.185185e+00	 6.666667e+00	 1.001184e+01
0	 9.259259e+00	 6.296296e+00	 1.000905e+01
0	 9.259259e+00	 6.370370e+00	 1.000940e+01
0	 9.259259e+00	 6.444444e+00	 1.000970e+01
0	 9.259259e+00	 6.518519e+00	 1.000993e+01
0	 9.259259e+00	 6.592593e+00	 1.001010e+01
0	 9.259259e+00	 6.666667e+00	 1.001021e+01
0	 8.888889e+00	 6.666667e+00	 1.001933e+01
0	 8.888889e+00	 6.740741e+00	 1.001907e+01
0	 8.888889e+00	 6.814815e+00	 1.001878e+01
0	 8.888889e+00	 6.888889e+00	 1.001844e+01
0	 8.888889e+00	 6.962963e+00	 1.001807e+01
0	 8.888889e+00	 7.037037e+00	 1.001766e+01
0	 8.962963e+00	 6.666667e+00	 1.001732e+01
0	 8.962963e+00	 6.740741e+00	 1.001714e+01
0	 8.962963e+00	 6.814815e+00	 1.001691e+01
0	 8.962963e+00	 6.888889e+00	 1.001665e+01
0	 8.962963e+00	 6.962963e+00	 1.001635e+01
0	 8.962963e+00	 7.037037e+00	 1.001600e+01
0	 9.037037e+00	 6.666667e+00	 1.001540e+01
0	 9.037037e+00	 6.740741e+00	 1.001528e+01
0	 9.037037e+00	 6.814815e+00	 1.001513e+01
0	 9.037037e+00	 6.888889e+00	 1.001493e+01
0	 9.037037e+00	 6.962963e+00	 1.001469e+01
0	 9.037037e+00	 7.037037e+00	 1.001440e+01
0	 9.111111e+00	 6.666667e+00	 1.001357e+01
0	 9.111111e+00	 6.740741e+00	 1.001352e+01
0	 9.111111e+00	 6.814815e+00	 1.001342e+01
0	 9.111111e+00	 6.888889e+00	 1.001328e+01
0	 9.111111e+00	 6.962963e+00	 1.001310e+01
0	 9.111111e+00	 7.037037e+00	 1.001287e+01
0	 9.185185e+00	 6.666667e+00	 1.001184e+01
0	 9.185185e+00	 6.740741e+00	 1.001184e+01
0	 9.185185e+00	 6.814815e+00	 1.001180e+01
0	 9.185185e+00	 6.888889e+00	 1.001172e+01
0	 9.185185e+00	 6.962963e+00	 1.001159e+01
0	 9.185185e+00	 7.037037e+00	 1.001142e+01
0	 9.259259e+00	 6.666667e+00	 1.001021e+01
0	 9.259259e+00	 6.740741e+00	 1.001027e+01
0	 9.259259e+00	 6.814815e+00	 1.001028e+01
0	 9.259259e+00	 6.888889e+00	 1.001024e+01
0	 9.259259e+00	 6.962963e+00	 1.001016e+01
0	 9.259259e+00	 7.037037e+00	 1.001003e+01
0	 8.888889e+00	 7.037037e+00	 1.001766e+01
0	 8.888889e+00	 7.111111e+00	 1.001722e+01
0	 8.888889e+00	 7.185185e+00	 1.001676e+01
0	 8.888889e+00	 7.259259e+00	 1.001627e+01
0	 8.888889e+00	 7.333333e+00	 1.001576e+01
0	 8.888889e+00	 7.407407e+00	 1.001522e+01
0	 8.962963e+00	 7.037037e+00	 1.001600e+01
0	 8.962963e+00	 7.111111e+00	 1.001562e+01
0	 8.962963e+00	 7.185185e+00	 1.001522e+01
0	 8.962963e+00	 7.259259e+00	 1.001480e+01
0	 8.962963e+00	 7.333333e+00	 1.001434e+01
0	 8.962963e+00	 7.407407e+00	 1.001386e+01
0	 9.037037e+00	 7.037037e+00	 1.001440e+01
0	 9.037037e+00	 7.111111e+00	 1.001409e+01
0	 9.037037e+00	 7.185185e+00	 1.001374e+01
0	 9.037037e+00	 7.259259e+00	 1.001338e+01
0	 9.037037e+00	 7.333333e+00	 1.001298e+01
0	 9.037037e+00	 7.407407e+00	 1.001255e+01
0	 9.111111e+00	 7.037037e+00	 1.001287e+01
0	 9.111111e+00	 7.111111e+00	 1.001261e+01
0	 9.111111e+00	 7.185185e+00	 1.001232e+01
0	 9.111111e+00	 7.259259e+00	 1.001201e+01
0	 9.111111e+00	 7.333333e+00	 1.001166e+01
0	 9.111111e+00	 7.407407e+00	 1.001129e+01
0	 9.185185e+00	 7.037037e+00	 1.001142e+01
0	 9.185185e+00	 7.111111e+00	 1.001120e+01
0	 9.185185e+00	 7.185185e+00	 1.001097e+01
0	 9.185185e+00	 7.259259e+00	 1.001070e+01
0	 9.185185e+00	 7.333333e+00	 1.001040e+01
0	 9.185185e+00	 7.407407e+00	 1.001007e+01
0	 9.259259e+00	 7.037037e+00	 1.001003e+01
0	 9.259259e+00	 7.111111e+00	 1.000987e+01
0	 9.259259e+00	 7.185185e+00	 1.000967e+01
0	 9.259259e+00	 7.259259e+00	 1.000945e+01
0	 9.259259e+00	 7.333333e+00	 1.000919e+01
0	 9.259259e+00	 7.407407e+00	 1.000890e+01
0	 8.888889e+00	 7.407407e+00	 1.001522e+01
0	 8.888889e+00	 7.481481e+00	 1.001466e+01
0	 8.888889e+00	 7.555556e+00	 1.001409e+01
0	 8.888889e+00	 7.629630e+00	 1.001351e+01
0	 8.888889e+00	 7.703704e+00	 1.001292e+01
0	 8.888889e+00	 7.777778e+00	 1.001231e+01
0	 8.962963e+00	 7.407407e+00	 1.001386e+01
0	 8.962963e+00	 7.481481e+00	 1.001336e+01
0	 8.962963e+00	 7.555556e+00	 1.001285e+01
0	 8.962963e+00	 7.629630e+00	 1.001233e+01
0	 8.962963e+00	 7.703704e+00	 1.001179e+01
0	 8.962963e+00	 7.777778e+00	 1.001124e+01
0	 9.037037e+00	 7.407407e+00	 1.001255e+01
0	 9.037037e+00	 7.481481e+00	 1.001211e+01
0	 9.037037e+00	 7.555556e+00	 1.001165e+01
0	 9.037037e+00	 7.629630e+00	 1.001118e+01
0	 9.037037e+00	 7.703704e+00	 1.001069e+01
0	 9.037037e+00	 7.777778e+00	 1.001019e+01
0	 9.111111e+00	 7.407407e+00	 1.001129e+01
0	 9.111111e+00	 7.481481e+00	 1.001089e+01
0	 9.111111e+00	 7.555556e+00	 1.001048e+01
0	 9.111111e+00	 7.629630e+00	 1.001006e+01
0	 9.111111e+00	 7.703704e+00	 1.000962e+01
0	 9.111111e+00	 7.777778e+00	 1.000917e+01
0	 9.185185e+00	 7.407407e+00	 1.001007e+01
0	 9.185185e+00	 7.481481e+00	 1.000972e+01
0	 9.185185e+00	 7.555556e+00	 1.000936e+01
0	 9.185185e+00	 7.629630e+00	 1.000898e+01
0	 9.185185e+00	 7.703704e+00	 1.000858e+01
0	 9.185185e+00	 7.777778e+00	 1.000817e+01
0	 9.259259e+00	 7.407407e+00	 1.000890e+01
0	 9.259259e+00	 7.481481e+00	 1.000859e+01
0	 9.259259e+00	 7.555556e+00	 1.000827e+01
0	 9.259259e+00	 7.629630e+00	 1.000793e+01
0	 9.259259e+00	 7.703704e+00	 1.000757e+01
0	 9.259259e+00	 7.777778e+00	 1.000720e+01
0	 8.888889e+00	 7.777778e+00	 1.001231e+01
0	 8.888889e+00	 7.851852e+00	 1.001170e+01
0	 8.888889e+00	 7.925926e+00	 1.001109e+01
0	 8.888889e+00	 8.000000e+00	 1.001048e+01
0	 8.888889e+00	 8.074074e+00	 1.000987e+01
0	 8.888889e+00	 8.148148e+00	 1.000925e+01
0	 8.962963e+00	 7.777778e+00	 1.001124e+01
0	 8.962963e+00	 7.851852e+00	 1.001068e+01
0	 8.962963e+00	 7.925926e+00	 1.001012e+01
0	 8.962963e+00	 8.000000e+00	 1.000956e+01
0	 8.962963e+00	 8.074074e+00	 1.000900e+01
0	 8.962963e+00	 8.148148e+00	 1.000844e+01
0	 9.037037e+00	 7.777778e+00	 1.001019e+01
0	 9.037037e+00	 7.851852e+00	 1.000968e+01
0	 9.037037e+00	 7.925926e+00	 1.000917e+01
0	 9.037037e+00	 8.000000e+00	 1.000866e+01
0	 9.037037e+00	 8.074074e+00	 1.000815e+01
0	 9.037037e+00	 8.148148e+00	 1.000763e+01
0	 9.111111e+00	 7.777778e+00	 1.000917e+01
0	 9.111111e+00	 7.851852e+00	 1.000870e+01
0	 9.111111e+00	 7.925926e+00	 1.000824e+01
0	 9.111111e+00	 8.000000e+00	 1.000778e+01
0	 9.111111e+00	 8.074074e+00	 1.000731e+01
0	 9.111111e+00	 8.148148e+00	 1.000684e+01
0	 9.185185e+00	 7.777778e+00	 1.000817e+01
0	 9.185185e+00	 7.851852e+00	 1.000775e+01
0	 9.185185e+00	 7.925926e+00	 1.000733e+01
0	 9.185185e+00	 8.000000e+00	 1.000691e+01
0	 9.185185e+00	 8.074074e+00	 1.000648e+01
0	 9.185185e+00	 8.148148e+00	 1.000605e+01
0	 9.259259e+00	 7.777778e+00	 1.000720e+01
0	 9.259259e+00	 7.851852e+00	 1.000682e+01
0	 9.259259e+00	 7.925926e+00	 1.000644e+01
0	 9.259259e+00	 8.000000e+00	 1.000605e+01
0	 9.259259e+00	 8.074074e+00	 1.000566e+01
0	 9.259259e+00	 8.148148e+00	 1.000527e+01
0	 8.888889e+00	 8.148148e+00	 1.000925e+01
0	 8.888889e+00	 8.222222e+00	 1.000864e+01
0	 8.888889e+00	 8.296296e+00	 1.000805e+01
0	 8.888889e+00	 8.370370e+00	 1.000746e+01
0	 8.888889e+00	 8.444444e+00	 1.000688e+01
0	 8.888889e+00	 8.518519e+00	 1.000631e+01
0	 8.962963e+00	 8.148148e+00	 1.000844e+01
0	 8.962963e+00	 8.222222e+00	 1.000788e+01
0	 8.962963e+00	 8.296296e+00	 1.000733e+01
0	 8.962963e+00	 8.370370e+00	 1.000679e+01
0	 8.962963e+00	 8.444444e+00	 1.000626e+01
0	 8.962963e+00	 8.518519e+00	 1.000573e+01
0	 9.037037e+00	 8.148148e+00	 1.000763e+01
0	 9.037037e+00	 8.222222e+00	 1.000712e+01
0	 9.037037e+00	 8.296296e+00	 1.000662e+01
0	 9.037037e+00	 8.370370e+00	 1.000612e+01
0	 9.037037e+00	 8.444444e+00	 1.000564e+01
0	 9.037037e+00	 8.518519e+00	 1.000516e+01
0	 9.111111e+00	 8.148148e+00	 1.000684e+01
0	 9.111111e+00	 8.222222e+00	 1.000637e+01
0	 9.111111e+00	 8.296296e+00	 1.000591e+01
0	 9.111111e+00	 8.370370e+00	 1.000546e+01
0	 9.111111e+00	 8.444444e+00	 1.000502e+01
0	 9.111111e+00	 8.518519e+00	 1.000458e+01
0	 9.185185e+00	 8.148148e+00	 1.000605e+01
0	 9.185185e+00	 8.222222e+00	 1.000562e+01
0	 9.185185e+00	 8.296296e+00	 1.000521e+01
0	 9.185185e+00	 8.370370e+00	 1.000480e+01
0	 9.185185e+00	 8.444444e+00	 1.000440e+01
0	 9.185185e+00	 8.518519e+00	 1.000400e+01
0	 9.259259e+00	 8.148148e+00	 1.000527e+01
0	 9.259259e+00	 8.222222e+00	 1.000488e+01
0	 9.259259e+00	 8.296296e+00	 1.000451e+01
0	 9.259259e+00	 8.370370e+00	 1.000414e+01
0	 9.259259e+00	 8.444444e+00	 1.000377e+01
0	 9.259259e+00	 8.518519e+00	 1.000342e+01
0	 8.888889e+00	 8.518519e+00	 1.000631e+01
0	 8.888889e+00	 8.592593e+00	 1.000576e+01
0	 8.888889e+00	 8.666667e+00	 1.000522e+01
0	 8.888889e+00	 8.740741e+00	 1.000471e+01
0	 8.888889e+00	 8.814815e+00	 1.000422e+01
0	 8.888889e+00	 8.888889e+00	 1.000374e+01
0	 8.962963e+00	 8.518519e+00	 1.000573e+01
0	 8.962963e+00	 8.592593e+00	 1.000523e+01
0	 8.962963e+00	 8.666667e+00	 1.000474e+01
0	 8.962963e+00	 8.740741e+00	 1.000427e+01
0	 8.962963e+00	 8.814815e+00	 1.000381e+01
0	 8.962963e+00	 8.888889e+00	 1.000337e+01
0	 9.037037e+00	 8.518519e+00	 1.000516e+01
0	 9.037037e+00	 8.592593e+00	 1.000469e+01
0	 9.037037e+00	 8.666667e+00	 1.000425e+01
0	 9.037037e+00	 8.740741e+00	 1.000382e+01
0	 9.037037e+00	 8.814815e+00	 1.000340e+01
0	 9.037037e+00	 8.888889e+00	 1.000301e+01
0	 9.111111e+00	 8.518519e+00	 1.000458e+01
0	 9.111111e+00	 8.592593e+00	 1.000416e+01
0	 9.111111e+00	 8.666667e+00	 1.000375e+01
0	 9.111111e+00	 8.740741e+00	 1.000336e+01
0	 9.111111e+00	 8.814815e+00	 1.000299e+01
0	 9.111111e+00	 8.888889e+00	 1.000263e+01
0	 9.185185e+00	 8.518519e+00	 1.000400e+01
0	 9.185185e+00	 8.592593e+00	 1.000362e+01
0	 9.185185e+00	 8.666667e+00	 1.000325e+01
0	 9.185185e+00	 8.740741e+00	 1.000291e+01
0	 9.185185e+00	 8.814815e+00	 1.000257e+01
0	 9.185185e+00	 8.888889e+00	 1.000225e+01
0	 9.259259e+00	 8.518519e+00	 1.000342e+01
0	 9.259259e+00	 8.592593e+00	 1.000307e+01
0	 9.259259e+00	 8.666667e+00	 1.000275e+01
0	 9.259259e+00	 8.740741e+00	 1.000244e+01
0	 9.259259e+00	 8.814815e+00	 1.000214e+01
0	 9.259259e+00	 8.888889e+00	 1.000186e+01
0	 8.888889e+00	 8.888889e+00	 1.000374e+01
0	 8.888889e+00	 8.962963e+00	 1.000328e+01
0	 8.888889e+00	 9.037037e+00	 1.000285e+01
0	 8.888889e+00	 9.111111e+00	 1.000246e+01
0	 8.888889e+00	 9.185185e+00	 1.000208e+01
0	 8.888889e+00	 9.259259e+00	 1.000173e+01
0	 8.962963e+00	 8.888889e+00	 1.000337e+01
0	 8.962963e+00	 8.962963e+00	 1.000296e+01
0	 8.962963e+00	 9.037037e+00	 1.000257e+01
0	 8.962963e+00	 9.111111e+00	 1.000221e+01
0	 8.962963e+00	 9.185185e+00	 1.000187e+01
0	 8.962963e+00	 9.259259e+00	 1.000155e+01
0	 9.037037e+00	 8.888889e+00	 1.000301e+01
0	 9.037037e+00	 8.962963e+00	 1.000263e+01
0	 9.037037e+00	 9.037037e+00	 1.000228e+01
0	 9.037037e+00	 9.111111e+00	 1.000195e+01
0	 9.037037e+00	 9.185185e+00	 1.000165e+01
0	 9.037037e+00	 9.259259e+00	 1.000136e+01
0	 9.111111e+00	 8.888889e+00	 1.000263e+01
0	 9.111111e+00	 8.962963e+00	 1.000229e+01
0	 9.111111e+00	 9.037037e+00	 1.000198e+01
0	 9.111111e+00	 9.111111e+00	 1.000169e+01
0	 9.111111e+00	 9.185185e+00	 1.000142e+01
0	 9.111111e+00	 9.259259e+00	 1.000117e+01
0	 9.185185e+00	 8.888889e+00	 1.000225e+01
0	 9.185185e+00	 8.962963e+00	 1.000195e+01
0	 9.185185e+00	 9.037037e+00	 1.000167e+01
0	 9.185185e+00	 9.111111e+00	 1.000142e+01
0	 9.185185e+00	 9.185185e+00	 1.000118e+01
0	 9.185185e+00	 9.259259e+00	 1.000097e+01
0	 9.259259e+00	 8.888889e+00	 1.000186e+01
0	 9.259259e+00	 8.962963e+00	 1.000160e+01
0	 9.259259e+00	 9.037037e+00	 1.000136e+01
0	 9.259259e+00	 9.111111e+00	 1.000114e+01
0	 9.259259e+00	 9.185185e+00	 1.000094e+01
0	 9.259259e+00	 9.259259e+00	 1.000076e+01
0	 8.888889e+00	 9.259259e+00	 1.000173e+01
0	 8.888889e+00	 9.333333e+00	 1.000141e+01
0	 8.888889e+00	 9.407407e+00	 1.000112e+01
0	 8.888889e+00	 9.481481e+00	 1.000087e+01
0	 8.888889e+00	 9.555556e+00	 1.000065e+01
0	 8.888889e+00	 9.629630e+00	 1.000045e+01
0	 8.962963e+00	 9.259259e+00	 1.000155e+01
0	 8.962963e+00	 9.333333e+00	 1.000126e+01
0	 8.962963e+00	 9.407407e+00	 1.000100e+01
0	 8.962963e+00	 9.481481e+00	 1.000077e+01
0	 8.962963e+00	 9.555556e+00	 1.000057e+01
0	 8.962963e+00	 9.629630e+00	 1.000040e+01
0	 9.037037e+00	 9.259259e+00	 1.000136e+01
0	 9.037037e+00	 9.333333e+00	 1.000111e+01
0	 9.037037e+00	 9.407407e+00	 1.000088e+01
0	 9.037037e+00	 9.481481e+00	 1.000067e+01
0	 9.037037e+00	 9.555556e+00	 1.000050e+01
0	 9.037037e+00	 9.629630e+00	 1.000035e+01
0	 9.111111e+00	 9.259259e+00	 1.000117e+01
0	 9.111111e+00	 9.333333e+00	 1.000095e+01
0	 9.111111e+00	 9.407407e+00	 1.000075e+01
0	 9.111111e+00	 9.481481e+00	 1.000057e+01
0	 9.111111e+00	 9.555556e+00	 1.000042e+01
0	 9.111111e+00	 9.629630e+00	 1.000029e+01
0	 9.185185e+00	 9.259259e+00	 1.000097e+01
0	 9.185185e+00	 9.333333e+00	 1.000078e+01
0	 9.185185e+00	 9.407407e+00	 1.000061e+01
0	 9.185185e+00	 9.481481e+00	 1.000046e+01
0	 9.185185e+00	 9.555556e+00	 1.000033e+01
0	 9.185185e+00	 9.629630e+00	 1.000023e+01
0	 9.259259e+00	 9.259259e+00	 1.000076e+01
0	 9.259259e+00	 9.333333e+00	 1.000060e+01
0	 9.259259e+00	 9.407407e+00	 1.000046e+01
0	 9.259259e+00	 9.481481e+00	 1.000034e+01
0	 9.259259e+00	 9.555556e+00	 1.000024e+01
0	 9.259259e+00	 9.629630e+00	 1.000016e+01
0	 8.888889e+00	 9.629630e+00	 1.000045e+01
0	 8.888889e+00	 9.703704e+00	 1.000029e+01
0	 8.888889e+00	 9.777778e+00	 1.000017e+01
0	 8.888889e+00	 9.851852e+00	 1.000008e+01
0	 8.888889e+00	 9.925926e+00	 1.000002e+01
0	 8.888889e+00	 1.000000e+01	 9.999997e+00
0	 8.962963e+00	 9.629630e+00	 1.000040e+01
0	 8.962963e+00	 9.703704e+00	 1.000026e+01
0	 8.962963e+00	 9.777778e+00	 1.000015e+01
0	 8.962963e+00	 9.851852e+00	 1.000007e+01
0	 8.962963e+00	 9.925926e+00	 1.000002e+01
0	 8.962963e+00	 1.000000e+01	 9.999998e+00
0	 9.037037e+00	 9.629630e+00	 1.000035e+01
0	 9.037037e+00	 9.703704e+00	 1.000022e+01
0	 9.037037e+00	 9.777778e+00	 1.000013e+01
0	 9.037037e+00	 9.851852e+00	 1.000006e+01
0	 9.037037e+00	 9.925926e+00	 1.000001e+01
0	 9.037037e+00	 1.000000e+01	 9.999996e+00
0	 9.111111e+00	 9.629630e+00	 1.000029e+01
0	 9.111111e+00	 9.703704e+00	 1.000018e+01
0	 9.111111e+00	 9.777778e+00	 1.000010e+01
0	 9.111111e+00	 9.851852e+00	 1.000004e+01
0	 9.111111e+00	 9.925926e+00	 1.000001e+01
0	 9.111111e+00	 1.000000e+01	 9.999995e+00
0	 9.185185e+00	 9.629630e+00	 1.000023e+01
0	 9.185185e+00	 9.703704e+00	 1.000014e+01
0	 9.185185e+00	 9.777778e+00	 1.000008e+01
0	 9.185185e+00	 9.851852e+00	 1.000003e+01
0	 9.185185e+00	 9.925926e+00	 1.000000e+01
0	 9.185185e+00	 1.000000e+01	 9.999998e+00
0	 9.259259e+00	 9.629630e+00	 1.000016e+01
0	 9.259259e+00	 9.703704e+00	 1.000010e+01
0	 9.259259e+00	 9.777778e+00	 1.000005e+01
0	 9.259259e+00	 9.851852e+00	 1.000002e+01
0	 9.259259e+00	 9.925926e+00	 1.000001e+01
0	 9.259259e+00	 1.000000e+01	 1.000001e+01
0	 9.259259e+00	 0.000000e+00	 9.795174e+00
0	 9.259259e+00	 7.407407e-02	 9.795265e+00
0	 9.259259e+00	 1.481481e-01	 9.795533e+00
0	 9.259259e+00	 2.222222e-01	 9.795980e+00
0	 9.259259e+00	 2.962963e-01	 9.796607e+00
0	 9.259259e+00	 3.703704e-01	 9.797412e+00
0	 9.333333e+00	 0.000000e+00	 9.782526e+00
0	 9.333333e+00	 7.407407e-02	 9.782620e+00
0	 9.333333e+00	 1.481481e-01	 9.782900e+00
0	 9.333333e+00	 2.222222e-01	 9.783366e+00
0	 9.333333e+00	 2.962963e-01	 9.784018e+00
0	 9.333333e+00	 3.703704e-01	 9.784856e+00
0	 9.407407e+00	 0.000000e+00	 9.769540e+00
0	 9.407407e+00	 7.407407e-02	 9.769638e+00
0	 9.407407e+00	 1.481481e-01	 9.769929e+00
0	 9.407407e+00	 2.222222e-01	 9.770415e+00
0	 9.407407e+00	 2.962963e-01	 9.771095e+00
0	 9.407407e+00	 3.703704e-01	 9.771970e+00
0	 9.481481e+00	 0.000000e+00	 9.756183e+00
0	 9.481481e+00	 7.407407e-02	 9.756285e+00
0	 9.481481e+00	 1.481481e-01	 9.756590e+00
0	 9.481481e+00	 2.222222e-01	 9.757098e+00
0	 9.481481e+00	 2.962963e-01	 9.757809e+00
0	 9.481481e+00	 3.703704e-01	 9.758723e+00
0	 9.555556e+00	 0.000000e+00	 9.742425e+00
0	 9.555556e+00	 7.407407e-02	 9.742532e+00
0	 9.555556e+00	 1.481481e-01	 9.742851e+00
0	 9.555556e+00	 2.222222e-01	 9.743383e+00
0	 9.555556e+00	 2.962963e-01	 9.744128e+00
0	 9.555556e+00	 3.703704e-01	 9.745085e+00
0	 9.629630e+00	 0.000000e+00	 9.728234e+00
0	 9.629630e+00	 7.407407e-02	 9.728347e+00
0	 9.629630e+00	 1.481481e-01	 9.728682e+00
0	 9.629630e+00	 2.222222e-01	 9.729240e+00
0	 9.629630e+00	 2.962963e-01	 9.730021e+00
0	 9.629630e+00	 3.703704e-01	 9.731027e+00
0	 9.259259e+00	 3.703704e-01	 9.797412e+00
0	 9.259259e+00	 4.444444e-01	 9.798391e+00
0	 9.259259e+00	 5.185185e-01	 9.799538e+00
0	 9.259259e+00	 5.925926e-01	 9.800854e+00
0	 9.259259e+00	 6.666667e-01	 9.802340e+00
0	 9.259259e+00	 7.407407e-01	 9.803998e+00
0	 9.333333e+00	 3.703704e-01	 9.784856e+00
0	 9.333333e+00	 4.444444e-01	 9.785875e+00
0	 9.333333e+00	 5.185185e-01	 9.787070e+00
0	 9.333333e+00	 5.925926e-01	 9.788440e+00
0	 9.333333e+00	 6.666667e-01	 9.789988e+00
0	 9.333333e+00	 7.407407e-01	 9.791714e+00
0	 9.407407e+00	 3.703704e-01	 9.771970e+00
0	 9.407407e+00	 4.444444e-01	 9.773033e+00
0	 9.407407e+00	 5.185185e-01	 9.774279e+00
0	 9.407407e+00	 5.925926e-01	 9.775709e+00
0	 9.407407e+00	 6.666667e-01	 9.777324e+00
0	 9.407407e+00	 7.407407e-01	 9.779125e+00
0	 9.481481e+00	 3.703704e-01	 9.758723e+00
0	 9.481481e+00	 4.444444e-01	 9.759834e+00
0	 9.481481e+00	 5.185185e-01	 9.761137e+00
0	 9.481481e+00	 5.925926e-01	 9.762633e+00
0	 9.481481e+00	 6.666667e-01	 9.764321e+00
0	 9.481481e+00	 7.407407e-01	 9.766203e+00
0	 9.555556e+00	 3.703704e-01	 9.745085e+00
0	 9.555556e+00	 4.444444e-01	 9.746250e+00
0	 9.555556e+00	 5.185185e-01	 9.747615e+00
0	 9.555556e+00	 5.925926e-01	 9.749181e+00
0	 9.555556e+00	 6.666667e-01	 9.750950e+00
0	 9.555556e+00	 7.407407e-01	 9.752922e+00
0	 9.629630e+00	 3.703704e-01	 9.731027e+00
0	 9.629630e+00	 4.444444e-01	 9.732249e+00
0	 9.629630e+00	 5.185185e-01	 9.733681e+00
0	 9.629630e+00	 5.925926e-01	 9.735326e+00
0	 9.629630e+00	 6.666667e-01	 9.737182e+00
0	 9.629630e+00	 7.407407e-01	 9.739251e+00
0	 9.259259e+00	 7.407407e-01	 9.803998e+00
0	 9.259259e+00	 8.148148e-01	 9.805815e+00
0	 9.259259e+00	 8.888889e-01	 9.807780e+00
0	 9.259259e+00	 9.629630e-01	 9.809896e+00
0	 9.259259e+00	 1.037037e+00	 9.812163e+00
0	 9.259259e+00	 1.111111e+00	 9.814584e+00
0	 9.333333e+00	 7.407407e-01	 9.791714e+00
0	 9.333333e+00	 8.148148e-01	 9.793606e+00
0	 9.333333e+00	 8.888889e-01	 9.795653e+00
0	 9.333333e+00	 9.629630e-01	 9.797857e+00
0	 9.333333e+00	 1.037037e+00	 9.800219e+00
0	 9.333333e+00	 1.111111e+00	 9.802741e+00
0	 9.407407e+00	 7.407407e-01	 9.779125e+00
0	 9.407407e+00	 8.148148e-01	 9.781099e+00
0	 9.407407e+00	 8.888889e-01	 9.783236e+00
0	 9.407407e+00	 9.629630e-01	 9.785536e+00
0	 9.407407e+00	 1.037037e+00	 9.788001e+00
0	 9.407407e+00	 1.111111e+00	 9.790633e+00
0	 9.481481e+00	 7.407407e-01	 9.766203e+00
0	 9.481481e+00	 8.148148e-01	 9.768268e+00
0	 9.481481e+00	 8.888889e-01	 9.770502e+00
0	 9.481481e+00	 9.629630e-01	 9.772907e+00
0	 9.481481e+00	 1.037037e+00	 9.775485e+00
0	 9.481481e+00	 1.111111e+00	 9.778237e+00
0	 9.555556e+00	 7.407407e-01	 9.752922e+00
0	 9.555556e+00	 8.148148e-01	 9.755084e+00
0	 9.555556e+00	 8.888889e-01	 9.757424e+00
0	 9.555556e+00	 9.629630e-01	 9.759945e+00
0	 9.555556e+00	 1.037037e+00	 9.762646e+00
0	 9.555556e+00	 1.111111e+00	 9.765529e+00
0	 9.629630e+00	 7.407407e-01	 9.739251e+00
0	 9.629630e+00	 8.148148e-01	 9.741521e+00
0	 9.629630e+00	 8.888889e-01	 9.743978e+00
0	 9.629630e+00	 9.629630e-01	 9.746623e+00
0	 9.629630e+00	 1.037037e+00	 9.749458e+00
0	 9.629630e+00	 1.111111e+00	 9.752484e+00
0	 9.259259e+00	 1.111111e+00	 9.814584e+00
0	 9.259259e+00	 1.185185e+00	 9.817142e+00
0	 9.259259e+00	 1.259259e+00	 9.819822e+00
0	 9.259259e+00	 1.333333e+00	 9.822627e+00
0	 9.259259e+00	 1.407407e+00	 9.825558e+00
0	 9.259259e+00	 1.481481e+00	 9.828617e+00
0	 9.333333e+00	 1.111111e+00	 9.802741e+00
0	 9.333333e+00	 1.185185e+00	 9.805406e+00
0	 9.333333e+00	 1.259259e+00	 9.808199e+00
0	 9.333333e+00	 1.333333e+00	 9.811123e+00
0	 9.333333e+00	 1.407407e+00	 9.814178e+00
0	 9.333333e+00	 1.481481e+00	 9.817366e+00
0	 9.407407e+00	 1.111111e+00	 9.790633e+00
0	 9.407407e+00	 1.185185e+00	 9.793415e+00
0	 9.407407e+00	 1.259259e+00	 9.796332e+00
0	 9.407407e+00	 1.333333e+00	 9.799384e+00
0	 9.407407e+00	 1.407407e+00	 9.802574e+00
0	 9.407407e+00	 1.481481e+00	 9.805904e+00
0	 9.481481e+00	 1.111111e+00	 9.778237e+00
0	 9.481481e+00	 1.185185e+00	 9.781147e+00
0	 9.481481e+00	 1.259259e+00	 9.784197e+00
0	 9.481481e+00	 1.333333e+00	 9.787390e+00
0	 9.481481e+00	 1.407407e+00	 9.790727e+00
0	 9.481481e+00	 1.481481e+00	 9.794210e+00
0	 9.555556e+00	 1.111111e+00	 9.765529e+00
0	 9.555556e+00	 1.185185e+00	 9.768577e+00
0	 9.555556e+00	 1.259259e+00	 9.771774e+00
0	 9.555556e+00	 1.333333e+00	 9.775119e+00
0	 9.555556e+00	 1.407407e+00	 9.778616e+00
0	 9.555556e+00	 1.481481e+00	 9.782265e+00
0	 9.629630e+00	 1.111111e+00	 9.752484e+00
0	 9.629630e+00	 1.185185e+00	 9.755684e+00
0	 9.629630e+00	 1.259259e+00	 9.759038e+00
0	 9.629630e+00	 1.333333e+00	 9.762550e+00
0	 9.629630e+00	 1.407407e+00	 9.766220e+00
0	 9.629630e+00	 1.481481e+00	 9.770051e+00
0	 9.259259e+00	 1.481481e+00	 9.828617e+00
0	 9.259259e+00	 1.555556e+00	 9.831785e+00
0	 9.259259e+00	 1.629630e+00	 9.835044e+00
0	 9.259259e+00	 1.703704e+00	 9.838397e+00
0	 9.259259e+00	 1.777778e+00	 9.841844e+00
0	 9.259259e+00	 1.851852e+00	 9.845389e+00
0	 9.333333e+00	 1.481481e+00	 9.817366e+00
0	 9.333333e+00	 1.555556e+00	 9.820670e+00
0	 9.333333e+00	 1.629630e+00	 9.824068e+00
0	 9.333333e+00	 1.703704e+00	 9.827565e+00
0	 9.333333e+00	 1.777778e+00	 9.831161e+00
0	 9.333333e+00	 1.851852e+00	 9.834859e+00
0	 9.407407e+00	 1.481481e+00	 9.805904e+00
0	 9.407407e+00	 1.555556e+00	 9.809354e+00
0	 9.407407e+00	 1.629630e+00	 9.812904e+00
0	 9.407407e+00	 1.703704e+00	 9.816557e+00
0	 9.407407e+00	 1.777778e+00	 9.820314e+00
0	 9.407407e+00	 1.851852e+00	 9.824178e+00
0	 9.481481e+00	 1.481481e+00	 9.794210e+00
0	 9.481481e+00	 1.555556e+00	 9.797819e+00
0	 9.481481e+00	 1.629630e+00	 9.801533e+00
0	 9.481481e+00	 1.703704e+00	 9.805355e+00
0	 9.481481e+00	 1.777778e+00	 9.809287e+00
0	 9.481481e+00	 1.851852e+00	 9.813331e+00
0	 9.555556e+00	 1.481481e+00	 9.782265e+00
0	 9.555556e+00	 1.555556e+00	 9.786047e+00
0	 9.555556e+00	 1.629630e+00	 9.789939e+00
0	 9.555556e+00	 1.703704e+00	 9.793945e+00
0	 9.555556e+00	 1.777778e+00	 9.798066e+00
0	 9.555556e+00	 1.851852e+00	 9.802304e+00
0	 9.629630e+00	 1.481481e+00	 9.770051e+00
0	 9.629630e+00	 1.555556e+00	 9.774020e+00
0	 9.629630e+00	 1.629630e+00	 9.778105e+00
0	 9.629630e+00	 1.703704e+00	 9.782310e+00
0	 9.629630e+00	 1.777778e+00	 9.786635e+00
0	 9.629630e+00	 1.851852e+00	 9.791083e+00
0	 9.259259e+00	 1.851852e+00	 9.845389e+00
0	 9.259259e+00	 1.925926e+00	 9.849010e+00
0	 9.259259e+00	 2.000000e+00	 9.852689e+00
0	 9.259259e+00	 2.074074e+00	 9.856427e+00
0	 9.259259e+00	 2.148148e+00	 9.860226e+00
0	 9.259259e+00	 2.222222e+00	 9.864089e+00
0	 9.333333e+00	 1.851852e+00	 9.834859e+00
0	 9.333333e+00	 1.925926e+00	 9.838639e+00
0	 9.333333e+00	 2.000000e+00	 9.842478e+00
0	 9.333333e+00	 2.074074e+00	 9.846381e+00
0	 9.333333e+00	 2.148148e+00	 9.850348e+00
0	 9.333333e+00	 2.222222e+00	 9.854382e+00
0	 9.407407e+00	 1.851852e+00	 9.824178e+00
0	 9.407407e+00	 1.925926e+00	 9.828128e+00
0	 9.407407e+00	 2.000000e+00	 9.832141e+00
0	 9.407407e+00	 2.074074e+00	 9.836220e+00
0	 9.407407e+00	 2.148148e+00	 9.840368e+00
0	 9.407407e+00	 2.222222e+00	 9.844586e+00
0	 9.481481e+00	 1.851852e+00	 9.813331e+00
0	 9.481481e+00	 1.925926e+00	 9.817464e+00
0	 9.481481e+00	 2.000000e+00	 9.821665e+00
0	 9.481481e+00	 2.074074e+00	 9.825935e+00
0	 9.481481e+00	 2.148148e+00	 9.830278e+00
0	 9.481481e+00	 2.222222e+00	 9.834694e+00
0	 9.555556e+00	 1.851852e+00	 9.802304e+00
0	 9.555556e+00	 1.925926e+00	 9.806636e+00
0	 9.555556e+00	 2.000000e+00	 9.811039e+00
0	 9.555556e+00	 2.074074e+00	 9.815516e+00
0	 9.555556e+00	 2.148148e+00	 9.820068e+00
0	 9.555556e+00	 2.222222e+00	 9.824697e+00
0	 9.629630e+00	 1.851852e+00	 9.791083e+00
0	 9.629630e+00	 1.925926e+00	 9.795630e+00
0	 9.629630e+00	 2.000000e+00	 9.800252e+00
0	 9.629630e+00	 2.074074e+00	 9.804951e+00
0	 9.629630e+00	 2.148148e+00	 9.809729e+00
0	 9.629630e+00	 2.222222e+00	 9.814588e+00
0	 9.259259e+00	 2.222222e+00	 9.864089e+00
0	 9.259259e+00	 2.296296e+00	 9.867995e+00
0	 9.259259e+00	 2.370370e+00	 9.871923e+00
0	 9.259259e+00	 2.444444e+00	 9.875876e+00
0	 9.259259e+00	 2.518519e+00	 9.879856e+00
0	 9.259259e+00	 2.592593e+00	 9.883865e+00
0	 9.333333e+00	 2.222222e+00	 9.854382e+00
0	 9.333333e+00	 2.296296e+00	 9.858461e+00
0	 9.333333e+00	 2.370370e+00	 9.862566e+00
0	 9.333333e+00	 2.444444e+00	 9.866698e+00
0	 9.333333e+00	 2.518519e+00	 9.870858e+00
0	 9.333333e+00	 2.592593e+00	 9.875050e+00
0	 9.407407e+00	 2.222222e+00	 9.844586e+00
0	 9.407407e+00	 2.296296e+00	 9.848853e+00
0	 9.407407e+00	 2.370370e+00	 9.853146e+00
0	 9.407407e+00	 2.444444e+00	 9.857469e+00
0	 9.407407e+00	 2.518519e+00	 9.861822e+00
0	 9.407407e+00	 2.592593e+00	 9.866209e+00
0	 9.481481e+00	 2.222222e+00	 9.834694e+00
0	 9.481481e+00	 2.296296e+00	 9.839161e+00
0	 9.481481e+00	 2.370370e+00	 9.843657e+00
0	 9.481481e+00	 2.444444e+00	 9.848185e+00
0	 9.481481e+00	 2.518519e+00	 9.852745e+00
0	 9.481481e+00	 2.592593e+00	 9.857340e+00
0	 9.555556e+00	 2.222222e+00	 9.824697e+00
0	 9.555556e+00	 2.296296e+00	 9.829380e+00
0	 9.555556e+00	 2.370370e+00	 9.834094e+00
0	 9.555556e+00	 2.444444e+00	 9.838841e+00
0	 9.555556e+00	 2.518519e+00	 9.843623e+00
0	 9.555556e+00	 2.592593e+00	 9.848441e+00
0	 9.629630e+00	 2.222222e+00	 9.814588e+00
0	 9.629630e+00	 2.296296e+00	 9.819503e+00
0	 9.629630e+00	 2.370370e+00	 9.824452e+00
0	 9.629630e+00	 2.444444e+00	 9.829434e+00
0	 9.629630e+00	 2.518519e+00	 9.834453e+00
0	 9.629630e+00	 2.592593e+00	 9.839511e+00
0	 9.259259e+00	 2.592593e+00	 9.883865e+00
0	 9.259259e+00	 2.666667e+00	 9.887884e+00
0	 9.259259e+00	 2.740741e+00	 9.891892e+00
0	 9.259259e+00	 2.814815e+00	 9.895893e+00
0	 9.259259e+00	 2.888889e+00	 9.899888e+00
0	 9.259259e+00	 2.962963e+00	 9.903879e+00
0	 9.333333e+00	 2.592593e+00	 9.875050e+00
0	 9.333333e+00	 2.666667e+00	 9.879252e+00
0	 9.333333e+00	 2.740741e+00	 9.883446e+00
0	 9.333333e+00	 2.814815e+00	 9.887633e+00
0	 9.333333e+00	 2.888889e+00	 9.891815e+00
0	 9.333333e+00	 2.962963e+00	 9.895993e+00
0	 9.407407e+00	 2.592593e+00	 9.866209e+00
0	 9.407407e+00	 2.666667e+00	 9.870608e+00
0	 9.407407e+00	 2.740741e+00	 9.874999e+00
0	 9.407407e+00	 2.814815e+00	 9.879383e+00
0	 9.407407e+00	 2.888889e+00	 9.883763e+00
0	 9.407407e+00	 2.962963e+00	 9.888140e+00
0	 9.481481e+00	 2.592593e+00	 9.857340e+00
0	 9.481481e+00	 2.666667e+00	 9.861949e+00
0	 9.481481e+00	 2.740741e+00	 9.866550e+00
0	 9.481481e+00	 2.814815e+00	 9.871144e+00
0	 9.481481e+00	 2.888889e+00	 9.875735e+00
0	 9.481481e+00	 2.962963e+00	 9.880323e+00
0	 9.555556e+00	 2.592593e+00	 9.848441e+00
0	 9.555556e+00	 2.666667e+00	 9.853274e+00
0	 9.555556e+00	 2.740741e+00	 9.858099e+00
0	 9.555556e+00	 2.814815e+00	 9.862918e+00
0	 9.555556e+00	 2.888889e+00	 9.867733e+00
0	 9.555556e+00	 2.962963e+00	 9.872546e+00
0	 9.629630e+00	 2.592593e+00	 9.839511e+00
0	 9.629630e+00	 2.666667e+00	 9.844583e+00
0	 9.629630e+00	 2.740741e+00	 9.849648e+00
0	 9.629630e+00	 2.814815e+00	 9.854706e+00
0	 9.629630e+00	 2.888889e+00	 9.859760e+00
0	 9.629630e+00	 2.962963e+00	 9.864812e+00
0	 9.259259e+00	 2.962963e+00	 9.903879e+00
0	 9.259259e+00	 3.037037e+00	 9.907849e+00
0	 9.259259e+00	 3.111111e+00	 9.911780e+00
0	 9.259259e+00	 3.185185e+00	 9.915674e+00
0	 9.259259e+00	 3.259259e+00	 9.919533e+00
0	 9.259259e+00	 3.333333e+00	 9.923358e+00
0	 9.333333e+00	 2.962963e+00	 9.895993e+00
0	 9.333333e+00	 3.037037e+00	 9.900150e+00
0	 9.333333e+00	 3.111111e+00	 9.904269e+00
0	 9.333333e+00	 3.185185e+00	 9.908350e+00
0	 9.333333e+00	 3.259259e+00	 9.912395e+00
0	 9.333333e+00	 3.333333e+00	 9.916406e+00
0	 9.407407e+00	 2.962963e+00	 9.888140e+00
0	 9.407407e+00	 3.037037e+00	 9.892496e+00
0	 9.407407e+00	 3.111111e+00	 9.896812e+00
0	 9.407407e+00	 3.185185e+00	 9.901091e+00
0	 9.407407e+00	 3.259259e+00	 9.905333e+00
0	 9.407407e+00	 3.333333e+00	 9.909539e+00
0	 9.481481e+00	 2.962963e+00	 9.880323e+00
0	 9.481481e+00	 3.037037e+00	 9.884890e+00
0	 9.481481e+00	 3.111111e+00	 9.889416e+00
0	 9.481481e+00	 3.185185e+00	 9.893903e+00
0	 9.481481e+00	 3.259259e+00	 9.898352e+00
0	 9.481481e+00	 3.333333e+00	 9.902765e+00
0	 9.555556e+00	 2.962963e+00	 9.872546e+00
0	 9.555556e+00	 3.037037e+00	 9.877337e+00
0	 9.555556e+00	 3.111111e+00	 9.882085e+00
0	 9.555556e+00	 3.185185e+00	 9.886792e+00
0	 9.555556e+00	 3.259259e+00	 9.891460e+00
0	 9.555556e+00	 3.333333e+00	 9.896091e+00
0	 9.629630e+00	 2.962963e+00	 9.864812e+00
0	 9.629630e+00	 3.037037e+00	 9.869840e+00
0	 9.629630e+00	 3.111111e+00	 9.874824e+00
0	 9.629630e+00	 3.185185e+00	 9.879765e+00
0	 9.629630e+00	 3.259259e+00	 9.884665e+00
0	 9.629630e+00	 3.333333e+00	 9.889525e+00
0	 9.259259e+00	 3.333333e+00	 9.923358e+00
0	 9.259259e+00	 3.407407e+00	 9.927135e+00
0	 9.259259e+00	 3.481481e+00	 9.930849e+00
0	 9.259259e+00	 3.555556e+00	 9.934503e+00
0	 9.259259e+00	 3.629630e+00	 9.938097e+00
0	 9.259259e+00	 3.703704e+00	 9.941632e+00
0	 9.333333e+00	 3.333333e+00	 9.916406e+00
0	 9.333333e+00	 3.407407e+00	 9.920368e+00
0	 9.333333e+00	 3.481481e+00	 9.924267e+00
0	 9.333333e+00	 3.555556e+00	 9.928103e+00
0	 9.333333e+00	 3.629630e+00	 9.931877e+00
0	 9.333333e+00	 3.703704e+00	 9.935591e+00
0	 9.407407e+00	 3.333333e+00	 9.909539e+00
0	 9.407407e+00	 3.407407e+00	 9.913696e+00
0	 9.407407e+00	 3.481481e+00	 9.917787e+00
0	 9.407407e+00	 3.555556e+00	 9.921813e+00
0	 9.407407e+00	 3.629630e+00	 9.925776e+00
0	 9.407407e+00	 3.703704e+00	 9.929677e+00
0	 9.481481e+00	 3.333333e+00	 9.902765e+00
0	 9.481481e+00	 3.407407e+00	 9.907126e+00
0	 9.481481e+00	 3.481481e+00	 9.911419e+00
0	 9.481481e+00	 3.555556e+00	 9.915645e+00
0	 9.481481e+00	 3.629630e+00	 9.919805e+00
0	 9.481481e+00	 3.703704e+00	 9.923900e+00
0	 9.555556e+00	 3.333333e+00	 9.896091e+00
0	 9.555556e+00	 3.407407e+00	 9.900667e+00
0	 9.555556e+00	 3.481481e+00	 9.905173e+00
0	 9.555556e+00	 3.555556e+00	 9.909608e+00
0	 9.555556e+00	 3.629630e+00	 9.913975e+00
0	 9.555556e+00	 3.703704e+00	 9.918274e+00
0	 9.629630e+00	 3.333333e+00	 9.889525e+00
0	 9.629630e+00	 3.407407e+00	 9.894329e+00
0	 9.629630e+00	 3.481481e+00	 9.899058e+00
0	 9.629630e+00	 3.555556e+00	 9.903713e+00
0	 9.629630e+00	 3.629630e+00	 9.908297e+00
0	 9.629630e+00	 3.703704e+00	 9.912809e+00
0	 9.259259e+00	 3.703704e+00	 9.941632e+00
0	 9.259259e+00	 3.777778e+00	 9.945097e+00
0	 9.259259e+00	 3.851852e+00	 9.948482e+00
0	 9.259259e+00	 3.925926e+00	 9.951788e+00
0	 9.259259e+00	 4.000000e+00	 9.955015e+00
0	 9.259259e+00	 4.074074e+00	 9.958164e+00
0	 9.333333e+00	 3.703704e+00	 9.935591e+00
0	 9.333333e+00	 3.777778e+00	 9.939233e+00
0	 9.333333e+00	 3.851852e+00	 9.942793e+00
0	 9.333333e+00	 3.925926e+00	 9.946271e+00
0	 9.333333e+00	 4.000000e+00	 9.949668e+00
0	 9.333333e+00	 4.074074e+00	 9.952984e+00
0	 9.407407e+00	 3.703704e+00	 9.929677e+00
0	 9.407407e+00	 3.777778e+00	 9.933503e+00
0	 9.407407e+00	 3.851852e+00	 9.937244e+00
0	 9.407407e+00	 3.925926e+00	 9.940900e+00
0	 9.407407e+00	 4.000000e+00	 9.944472e+00
0	 9.407407e+00	 4.074074e+00	 9.947961e+00
0	 9.481481e+00	 3.703704e+00	 9.923900e+00
0	 9.481481e+00	 3.777778e+00	 9.927919e+00
0	 9.481481e+00	 3.851852e+00	 9.931849e+00
0	 9.481481e+00	 3.925926e+00	 9.935690e+00
0	 9.481481e+00	 4.000000e+00	 9.939443e+00
0	 9.481481e+00	 4.074074e+00	 9.943110e+00
0	 9.555556e+00	 3.703704e+00	 9.918274e+00
0	 9.555556e+00	 3.777778e+00	 9.922493e+00
0	 9.555556e+00	 3.851852e+00	 9.926619e+00
0	 9.555556e+00	 3.925926e+00	 9.930653e+00
0	 9.555556e+00	 4.000000e+00	 9.934595e+00
0	 9.555556e+00	 4.074074e+00	 9.938446e+00
0	 9.629630e+00	 3.703704e+00	 9.912809e+00
0	 9.629630e+00	 3.777778e+00	 9.917238e+00
0	 9.629630e+00	 3.851852e+00	 9.921568e+00
0	 9.629630e+00	 3.925926e+00	 9.925802e+00
0	 9.629630e+00	 4.000000e+00	 9.929940e+00
0	 9.629630e+00	 4.074074e+00	 9.933982e+00
0	 9.259259e+00	 4.074074e+00	 9.958164e+00
0	 9.259259e+00	 4.148148e+00	 9.961228e+00
0	 9.259259e+00	 4.222222e+00	 9.964200e+00
0	 9.259259e+00	 4.296296e+00	 9.967079e+00
0	 9.259259e+00	 4.370370e+00	 9.969868e+00
0	 9.259259e+00	 4.444444e+00	 9.972565e+00
0	 9.333333e+00	 4.074074e+00	 9.952984e+00
0	 9.333333e+00	 4.148148e+00	 9.956212e+00
0	 9.333333e+00	 4.222222e+00	 9.959345e+00
0	 9.333333e+00	 4.296296e+00	 9.962383e+00
0	 9.333333e+00	 4.370370e+00	 9.965326e+00
0	 9.333333e+00	 4.444444e+00	 9.968174e+00
0	 9.407407e+00	 4.074074e+00	 9.947961e+00
0	 9.407407e+00	 4.148148e+00	 9.951359e+00
0	 9.407407e+00	 4.222222e+00	 9.954657e+00
0	 9.407407e+00	 4.296296e+00	 9.957857e+00
0	 9.407407e+00	 4.370370e+00	 9.960958e+00
0	 9.407407e+00	 4.444444e+00	 9.963961e+00
0	 9.481481e+00	 4.074074e+00	 9.943110e+00
0	 9.481481e+00	 4.148148e+00	 9.946682e+00
0	 9.481481e+00	 4.222222e+00	 9.950151e+00
0	 9.481481e+00	 4.296296e+00	 9.953517e+00
0	 9.481481e+00	 4.370370e+00	 9.956780e+00
0	 9.481481e+00	 4.444444e+00	 9.959941e+00
0	 9.555556e+00	 4.074074e+00	 9.938446e+00
0	 9.555556e+00	 4.148148e+00	 9.942198e+00
0	 9.555556e+00	 4.222222e+00	 9.945842e+00
0	 9.555556e+00	 4.296296e+00	 9.949379e+00
0	 9.555556e+00	 4.370370e+00	 9.952808e+00
0	 9.555556e+00	 4.444444e+00	 9.956131e+00
0	 9.629630e+00	 4.074074e+00	 9.933982e+00
0	 9.629630e+00	 4.148148e+00	 9.937921e+00
0	 9.629630e+00	 4.222222e+00	 9.941746e+00
0	 9.629630e+00	 4.296296e+00	 9.945458e+00
0	 9.629630e+00	 4.370370e+00	 9.949058e+00
0	 9.629630e+00	 4.444444e+00	 9.952546e+00
0	 9.259259e+00	 4.444444e+00	 9.972565e+00
0	 9.259259e+00	 4.518519e+00	 9.975167e+00
0	 9.259259e+00	 4.592593e+00	 9.977672e+00
0	 9.259259e+00	 4.666667e+00	 9.980078e+00
0	 9.259259e+00	 4.740741e+00	 9.982386e+00
0	 9.259259e+00	 4.814815e+00	 9.984596e+00
0	 9.333333e+00	 4.444444e+00	 9.968174e+00
0	 9.333333e+00	 4.518519e+00	 9.970925e+00
0	 9.333333e+00	 4.592593e+00	 9.973574e+00
0	 9.333333e+00	 4.666667e+00	 9.976121e+00
0	 9.333333e+00	 4.740741e+00	 9.978566e+00
0	 9.333333e+00	 4.814815e+00	 9.980909e+00
0	 9.407407e+00	 4.444444e+00	 9.963961e+00
0	 9.407407e+00	 4.518519e+00	 9.966863e+00
0	 9.407407e+00	 4.592593e+00	 9.969658e+00
0	 9.407407e+00	 4.666667e+00	 9.972348e+00
0	 9.407407e+00	 4.740741e+00	 9.974931e+00
0	 9.407407e+00	 4.814815e+00	 9.977409e+00
0	 9.481481e+00	 4.444444e+00	 9.959941e+00
0	 9.481481e+00	 4.518519e+00	 9.962997e+00
0	 9.481481e+00	 4.592593e+00	 9.965941e+00
0	 9.481481e+00	 4.666667e+00	 9.968775e+00
0	 9.481481e+00	 4.740741e+00	 9.971498e+00
0	 9.481481e+00	 4.814815e+00	 9.974111e+00
0	 9.555556e+00	 4.444444e+00	 9.956131e+00
0	 9.555556e+00	 4.518519e+00	 9.959343e+00
0	 9.555556e+00	 4.592593e+00	 9.962439e+00
0	 9.555556e+00	 4.666667e+00	 9.965419e+00
0	 9.555556e+00	 4.740741e+00	 9.968283e+00
0	 9.555556e+00	 4.814815e+00	 9.971033e+00
0	 9.629630e+00	 4.444444e+00	 9.952546e+00
0	 9.629630e+00	 4.518519e+00	 9.955917e+00
0	 9.629630e+00	 4.592593e+00	 9.959167e+00
0	 9.629630e+00	 4.666667e+00	 9.962296e+00
0	 9.629630e+00	 4.740741e+00	 9.965303e+00
0	 9.629630e+00	 4.814815e+00	 9.968190e+00
0	 9.259259e+00	 4.814815e+00	 9.984596e+00
0	 9.259259e+00	 4.888889e+00	 9.986707e+00
0	 9.259259e+00	 4.962963e+00	 9.988720e+00
0	 9.259259e+00	 5.037037e+00	 9.990634e+00
0	 9.259259e+00	 5.111111e+00	 9.992449e+00
0	 9.259259e+00	 5.185185e+00	 9.994164e+00
0	 9.333333e+00	 4.814815e+00	 9.980909e+00
0	 9.333333e+00	 4.888889e+00	 9.983151e+00
0	 9.333333e+00	 4.962963e+00	 9.985289e+00
0	 9.333333e+00	 5.037037e+00	 9.987325e+00
0	 9.333333e+00	 5.111111e+00	 9.989258e+00
0	 9.333333e+00	 5.185185e+00	 9.991088e+00
0	 9.407407e+00	 4.814815e+00	 9.977409e+00
0	 9.407407e+00	 4.888889e+00	 9.979781e+00
0	 9.407407e+00	 4.962963e+00	 9.982045e+00
0	 9.407407e+00	 5.037037e+00	 9.984203e+00
0	 9.407407e+00	 5.111111e+00	 9.986253e+00
0	 9.407407e+00	 5.185185e+00	 9.988196e+00
0	 9.481481e+00	 4.814815e+00	 9.974111e+00
0	 9.481481e+00	 4.888889e+00	 9.976614e+00
0	 9.481481e+00	 4.962963e+00	 9.979004e+00
0	 9.481481e+00	 5.037037e+00	 9.981283e+00
0	 9.481481e+00	 5.111111e+00	 9.983450e+00
0	 9.481481e+00	 5.185185e+00	 9.985505e+00
0	 9.555556e+00	 4.814815e+00	 9.971033e+00
0	 9.555556e+00	 4.888889e+00	 9.973666e+00
0	 9.555556e+00	 4.962963e+00	 9.976183e+00
0	 9.555556e+00	 5.037037e+00	 9.978582e+00
0	 9.555556e+00	 5.111111e+00	 9.980865e+00
0	 9.555556e+00	 5.185185e+00	 9.983031e+00
0	 9.629630e+00	 4.814815e+00	 9.968190e+00
0	 9.629630e+00	 4.888889e+00	 9.970955e+00
0	 9.629630e+00	 4.962963e+00	 9.973597e+00
0	 9.629630e+00	 5.037037e+00	 9.976117e+00
0	 9.629630e+00	 5.111111e+00	 9.978515e+00
0	 9.629630e+00	 5.185185e+00	 9.980789e+00
0	 9.259259e+00	 5.185185e+00	 9.994164e+00
0	 9.259259e+00	 5.259259e+00	 9.995783e+00
0	 9.259259e+00	 5.333333e+00	 9.997307e+00
0	 9.259259e+00	 5.407407e+00	 9.998737e+00
0	 9.259259e+00	 5.481481e+00	 1.000007e+01
0	 9.259259e+00	 5.555556e+00	 1.000131e+01
0	 9.333333e+00	 5.185185e+00	 9.991088e+00
0	 9.333333e+00	 5.259259e+00	 9.992817e+00
0	 9.333333e+00	 5.333333e+00	 9.994448e+00
0	 9.333333e+00	 5.407407e+00	 9.995980e+00
0	 9.333333e+00	 5.481481e+00	 9.997414e+00
0	 9.333333e+00	 5.555556e+00	 9.998748e+00
0	 9.407407e+00	 5.185185e+00	 9.988196e+00
0	 9.407407e+00	 5.259259e+00	 9.990034e+00
0	 9.407407e+00	 5.333333e+00	 9.991770e+00
0	 9.407407e+00	 5.407407e+00	 9.993403e+00
0	 9.407407e+00	 5.481481e+00	 9.994933e+00
0	 9.407407e+00	 5.555556e+00	 9.996360e+00
0	 9.481481e+00	 5.185185e+00	 9.985505e+00
0	 9.481481e+00	 5.259259e+00	 9.987450e+00
0	 9.481481e+00	 5.333333e+00	 9.989289e+00
0	 9.481481e+00	 5.407407e+00	 9.991021e+00
0	 9.481481e+00	 5.481481e+00	 9.992645e+00
0	 9.481481e+00	 5.555556e+00	 9.994161e+00
0	 9.555556e+00	 5.185185e+00	 9.983031e+00
0	 9.555556e+00	 5.259259e+00	 9.985082e+00
0	 9.555556e+00	 5.333333e+00	 9.987021e+00
0	 9.555556e+00	 5.407407e+00	 9.988848e+00
0	 9.555556e+00	 5.481481e+00	 9.990563e+00
0	 9.555556e+00	 5.555556e+00	 9.992165e+00
0	 9.629630e+00	 5.185185e+00	 9.980789e+00
0	 9.629630e+00	 5.259259e+00	 9.982944e+00
0	 9.629630e+00	 5.333333e+00	 9.984981e+00
0	 9.629630e+00	 5.407407e+00	 9.986901e+00
0	 9.629630e+00	 5.481481e+00	 9.988704e+00
0	 9.629630e+00	 5.555556e+00	 9.990388e+00
0	 9.259259e+00	 5.555556e+00	 1.000131e+01
0	 9.259259e+00	 5.629630e+00	 1.000246e+01
0	 9.259259e+00	 5.703704e+00	 1.000352e+01
0	 9.259259e+00	 5.777778e+00	 1.000450e+01
0	 9.259259e+00	 5.851852e+00	 1.000539e+01
0	 9.259259e+00	 5.925926e+00	 1.000619e+01
0	 9.333333e+00	 5.555556e+00	 9.998748e+00
0	 9.333333e+00	 5.629630e+00	 9.999988e+00
0	 9.333333e+00	 5.703704e+00	 1.000114e+01
0	 9.333333e+00	 5.777778e+00	 1.000220e+01
0	 9.333333e+00	 5.851852e+00	 1.000317e+01
0	 9.333333e+00	 5.925926e+00	 1.000405e+01
0	 9.407407e+00	 5.555556e+00	 9.996360e+00
0	 9.407407e+00	 5.629630e+00	 9.997689e+00
0	 9.407407e+00	 5.703704e+00	 9.998924e+00
0	 9.407407e+00	 5.777778e+00	 1.000007e+01
0	 9.407407e+00	 5.851852e+00	 1.000111e+01
0	 9.407407e+00	 5.925926e+00	 1.000207e+01
0	 9.481481e+00	 5.555556e+00	 9.994161e+00
0	 9.481481e+00	 5.629630e+00	 9.995574e+00
0	 9.481481e+00	 5.703704e+00	 9.996891e+00
0	 9.481481e+00	 5.777778e+00	 9.998110e+00
0	 9.481481e+00	 5.851852e+00	 9.999230e+00
0	 9.481481e+00	 5.925926e+00	 1.000025e+01
0	 9.555556e+00	 5.555556e+00	 9.992165e+00
0	 9.555556e+00	 5.629630e+00	 9.993660e+00
0	 9.555556e+00	 5.703704e+00	 9.995054e+00
0	 9.555556e+00	 5.777778e+00	 9.996345e+00
0	 9.555556e+00	 5.851852e+00	 9.997534e+00
0	 9.555556e+00	 5.925926e+00	 9.998619e+00
0	 9.629630e+00	 5.555556e+00	 9.990388e+00
0	 9.629630e+00	 5.629630e+00	 9.991960e+00
0	 9.629630e+00	 5.703704e+00	 9.993426e+00
0	 9.629630e+00	 5.777778e+00	 9.994785e+00
0	 9.629630e+00	 5.851852e+00	 9.996037e+00
0	 9.629630e+00	 5.925926e+00	 9.997181e+00
0	 9.259259e+00	 5.925926e+00	 1.000619e+01
0	 9.259259e+00	 6.000000e+00	 1.000691e+01
0	 9.259259e+00	 6.074074e+00	 1.000756e+01
0	 9.259259e+00	 6.148148e+00	 1.000813e+01
0	 9.259259e+00	 6.222222e+00	 1.000863e+01
0	 9.259259e+00	 6.296296e+00	 1.000905e+01
0	 9.333333e+00	 5.925926e+00	 1.000405e+01
0	 9.333333e+00	 6.000000e+00	 1.000485e+01
0	 9.333333e+00	 6.074074e+00	 1.000556e+01
0	 9.333333e+00	 6.148148e+00	 1.000620e+01
0	 9.333333e+00	 6.222222e+00	 1.000677e+01
0	 9.333333e+00	 6.296296e+00	 1.000725e+01
0	 9.407407e+00	 5.925926e+00	 1.000207e+01
0	 9.407407e+00	 6.000000e+00	 1.000293e+01
0	 9.407407e+00	 6.074074e+00	 1.000372e+01
0	 9.407407e+00	 6.148148e+00	 1.000442e+01
0	 9.407407e+00	 6.222222e+00	 1.000504e+01
0	 9.407407e+00	 6.296296e+00	 1.000558e+01
0	 9.481481e+00	 5.925926e+00	 1.000025e+01
0	 9.481481e+00	 6.000000e+00	 1.000118e+01
0	 9.481481e+00	 6.074074e+00	 1.000203e+01
0	 9.481481e+00	 6.148148e+00	 1.000279e+01
0	 9.481481e+00	 6.222222e+00	 1.000347e+01
0	 9.481481e+00	 6.296296e+00	 1.000406e+01
0	 9.555556e+00	 5.925926e+00	 9.998619e+00
0	 9.555556e+00	 6.000000e+00	 9.999609e+00
0	 9.555556e+00	 6.074074e+00	 1.000051e+01
0	 9.555556e+00	 6.148148e+00	 1.000133e+01
0	 9.555556e+00	 6.222222e+00	 1.000205e+01
0	 9.555556e+00	 6.296296e+00	 1.000269e+01
0	 9.629630e+00	 5.925926e+00	 9.997181e+00
0	 9.629630e+00	 6.000000e+00	 9.998225e+00
0	 9.629630e+00	 6.074074e+00	 9.999178e+00
0	 9.629630e+00	 6.148148e+00	 1.000004e+01
0	 9.629630e+00	 6.222222e+00	 1.000081e+01
0	 9.629630e+00	 6.296296e+00	 1.000148e+01
0	 9.259259e+00	 6.296296e+00	 1.000905e+01
0	 9.259259e+00	 6.370370e+00	 1.000940e+01
0	 9.259259e+00	 6.444444e+00	 1.000970e+01
0	 9.259259e+00	 6.518519e+00	 1.000993e+01
0	 9.259259e+00	 6.592593e+00	 1.001010e+01
0	 9.259259e+00	 6.666667e+00	 1.001021e+01
0	 9.333333e+00	 6.296296e+00	 1.000725e+01
0	 9.333333e+00	 6.370370e+00	 1.000766e+01
0	 9.333333e+00	 6.444444e+00	 1.000801e+01
0	 9.333333e+00	 6.518519e+00	 1.000830e+01
0	 9.333333e+00	 6.592593e+00	 1.000852e+01
0	 9.333333e+00	 6.666667e+00	 1.000868e+01
0	 9.407407e+00	 6.296296e+00	 1.000558e+01
0	 9.407407e+00	 6.370370e+00	 1.000605e+01
0	 9.407407e+00	 6.444444e+00	 1.000645e+01
0	 9.407407e+00	 6.518519e+00	 1.000679e+01
0	 9.407407e+00	 6.592593e+00	 1.000706e+01
0	 9.407407e+00	 6.666667e+00	 1.000726e+01
0	 9.481481e+00	 6.296296e+00	 1.000406e+01
0	 9.481481e+00	 6.370370e+00	 1.000458e+01
0	 9.481481e+00	 6.444444e+00	 1.000502e+01
0	 9.481481e+00	 6.518519e+00	 1.000540e+01
0	 9.481481e+00	 6.592593e+00	 1.000571e+01
0	 9.481481e+00	 6.666667e+00	 1.000595e+01
0	 9.555556e+00	 6.296296e+00	 1.000269e+01
0	 9.555556e+00	 6.370370e+00	 1.000325e+01
0	 9.555556e+00	 6.444444e+00	 1.000373e+01
0	 9.555556e+00	 6.518519e+00	 1.000415e+01
0	 9.555556e+00	 6.592593e+00	 1.000449e+01
0	 9.555556e+00	 6.666667e+00	 1.000477e+01
0	 9.629630e+00	 6.296296e+00	 1.000148e+01
0	 9.629630e+00	 6.370370e+00	 1.000207e+01
0	 9.629630e+00	 6.444444e+00	 1.000259e+01
0	 9.629630e+00	 6.518519e+00	 1.000304e+01
0	 9.629630e+00	 6.592593e+00	 1.000341e+01
0	 9.629630e+00	 6.666667e+00	 1.000370e+01
0	 9.259259e+00	 6.666667e+00	 1.001021e+01
0	 9.259259e+00	 6.740741e+00	 1.001027e+01
0	 9.259259e+00	 6.814815e+00	 1.001028e+01
0	 9.259259e+00	 6.888889e+00	 1.001024e+01
0	 9.259259e+00	 6.962963e+00	 1.001016e+01
0	 9.259259e+00	 7.037037e+00	 1.001003e+01
0	 9.333333e+00	 6.666667e+00	 1.000868e+01
0	 9.333333e+00	 6.740741e+00	 1.000879e+01
0	 9.333333e+00	 6.814815e+00	 1.000884e+01
0	 9.333333e+00	 6.888889e+00	 1.000885e+01
0	 9.333333e+00	 6.962963e+00	 1.000881e+01
0	 9.333333e+00	 7.037037e+00	 1.000873e+01
0	 9.407407e+00	 6.666667e+00	 1.000726e+01
0	 9.407407e+00	 6.740741e+00	 1.000741e+01
0	 9.407407e+00	 6.814815e+00	 1.000750e+01
0	 9.407407e+00	 6.888889e+00	 1.000755e+01
0	 9.407407e+00	 6.962963e+00	 1.000755e+01
0	 9.407407e+00	 7.037037e+00	 1.000750e+01
0	 9.481481e+00	 6.666667e+00	 1.000595e+01
0	 9.481481e+00	 6.740741e+00	 1.000613e+01
0	 9.481481e+00	 6.814815e+00	 1.000627e+01
0	 9.481481e+00	 6.888889e+00	 1.000635e+01
0	 9.481481e+00	 6.962963e+00	 1.000637e+01
0	 9.481481e+00	 7.037037e+00	 1.000635e+01
0	 9.555556e+00	 6.666667e+00	 1.000477e+01
0	 9.555556e+00	 6.740741e+00	 1.000497e+01
0	 9.555556e+00	 6.814815e+00	 1.000513e+01
0	 9.555556e+00	 6.888889e+00	 1.000524e+01
0	 9.555556e+00	 6.962963e+00	 1.000529e+01
0	 9.555556e+00	 7.037037e+00	 1.000529e+01
0	 9.629630e+00	 6.666667e+00	 1.000370e+01
0	 9.629630e+00	 6.740741e+00	 1.000393e+01
0	 9.629630e+00	 6.814815e+00	 1.000411e+01
0	 9.629630e+00	 6.888889e+00	 1.000423e+01
0	 9.629630e+00	 6.962963e+00	 1.000430e+01
0	 9.629630e+00	 7.037037e+00	 1.000431e+01
0	 9.259259e+00	 7.037037e+00	 1.001003e+01
0	 9.259259e+00	 7.111111e+00	 1.000987e+01
0	 9.259259e+00	 7.185185e+00	 1.000967e+01
0	 9.259259e+00	 7.259259e+00	 1.000945e+01
0	 9.259259e+00	 7.333333e+00	 1.000919e+01
0	 9.259259e+00	 7.407407e+00	 1.000890e+01
0	 9.333333e+00	 7.037037e+00	 1.000873e+01
0	 9.333333e+00	 7.111111e+00	 1.000860e+01
0	 9.333333e+00	 7.185185e+00	 1.000844e+01
0	 9.333333e+00	 7.259259e+00	 1.000826e+01
0	 9.333333e+00	 7.333333e+00	 1.000804e+01
0	 9.333333e+00	 7.407407e+00	 1.000779e+01
0	 9.407407e+00	 7.037037e+00	 1.000750e+01
0	 9.407407e+00	 7.111111e+00	 1.000741e+01
0	 9.407407e+00	 7.185185e+00	 1.000728e+01
0	 9.407407e+00	 7.259259e+00	 1.000713e+01
0	 9.407407e+00	 7.333333e+00	 1.000694e+01
0	 9.407407e+00	 7.407407e+00	 1.000672e+01
0	 9.481481e+00	 7.037037e+00	 1.000635e+01
0	 9.481481e+00	 7.111111e+00	 1.000629e+01
0	 9.481481e+00	 7.185185e+00	 1.000619e+01
0	 9.481481e+00	 7.259259e+00	 1.000606e+01
0	 9.481481e+00	 7.333333e+00	 1.000590e+01
0	 9.481481e+00	 7.407407e+00	 1.000570e+01
0	 9.555556e+00	 7.037037e+00	 1.000529e+01
0	 9.555556e+00	 7.111111e+00	 1.000524e+01
0	 9.555556e+00	 7.185185e+00	 1.000517e+01
0	 9.555556e+00	 7.259259e+00	 1.000506e+01
0	 9.555556e+00	 7.333333e+00	 1.000491e+01
0	 9.555556e+00	 7.407407e+00	 1.000473e+01
0	 9.629630e+00	 7.037037e+00	 1.000431e+01
0	 9.629630e+00	 7.111111e+00	 1.000428e+01
0	 9.629630e+00	 7.185185e+00	 1.000422e+01
0	 9.629630e+00	 7.259259e+00	 1.000412e+01
0	 9.629630e+00	 7.333333e+00	 1.000398e+01
0	 9.629630e+00	 7.407407e+00	 1.000381e+01
0	 9.259259e+00	 7.407407e+00	 1.000890e+01
0	 9.259259e+00	 7.481481e+00	 1.000859e+01
0	 9.259259e+00	 7.555556e+00	 1.000827e+01
0	 9.259259e+00	 7.629630e+00	 1.000793e+01
0	 9.259259e+00	 7.703704e+00	 1.000757e+01
0	 9.259259e+00	 7.777778e+00	 1.000720e+01
0	 9.333333e+00	 7.407407e+00	 1.000779e+01
0	 9.333333e+00	 7.481481e+00	 1.000751e+01
0	 9.333333e+00	 7.555556e+00	 1.000722e+01
0	 9.333333e+00	 7.629630e+00	 1.000692e+01
0	 9.333333e+00	 7.703704e+00	 1.000659e+01
0	 9.333333e+00	 7.777778e+00	 1.000626e+01
0	 9.407407e+00	 7.407407e+00	 1.000672e+01
0	 9.407407e+00	 7.481481e+00	 1.000647e+01
0	 9.407407e+00	 7.555556e+00	 1.000621e+01
0	 9.407407e+00	 7.629630e+00	 1.000594e+01
0	 9.407407e+00	 7.703704e+00	 1.000565e+01
0	 9.407407e+00	 7.777778e+00	 1.000534e+01
0	 9.481481e+00	 7.407407e+00	 1.000570e+01
0	 9.481481e+00	 7.481481e+00	 1.000548e+01
0	 9.481481e+00	 7.555556e+00	 1.000524e+01
0	 9.481481e+00	 7.629630e+00	 1.000499e+01
0	 9.481481e+00	 7.703704e+00	 1.000472e+01
0	 9.481481e+00	 7.777778e+00	 1.000444e+01
0	 9.555556e+00	 7.407407e+00	 1.000473e+01
0	 9.555556e+00	 7.481481e+00	 1.000453e+01
0	 9.555556e+00	 7.555556e+00	 1.000431e+01
0	 9.555556e+00	 7.629630e+00	 1.000407e+01
0	 9.555556e+00	 7.703704e+00	 1.000382e+01
0	 9.555556e+00	 7.777778e+00	 1.000356e+01
0	 9.629630e+00	 7.407407e+00	 1.000381e+01
0	 9.629630e+00	 7.481481e+00	 1.000362e+01
0	 9.629630e+00	 7.555556e+00	 1.000341e+01
0	 9.629630e+00	 7.629630e+00	 1.000319e+01
0	 9.629630e+00	 7.703704e+00	 1.000295e+01
0	 9.629630e+00	 7.777778e+00	 1.000269e+01
0	 9.259259e+00	 7.777778e+00	 1.000720e+01
0	 9.259259e+00	 7.851852e+00	 1.000682e+01
0	 9.259259e+00	 7.925926e+00	 1.000644e+01
0	 9.259259e+00	 8.000000e+00	 1.000605e+01
0	 9.259259e+00	 8.074074e+00	 1.000566e+01
0	 9.259259e+00	 8.148148e+00	 1.000527e+01
0	 9.333333e+00	 7.777778e+00	 1.000626e+01
0	 9.333333e+00	 7.851852e+00	 1.000591e+01
0	 9.333333e+00	 7.925926e+00	 1.000556e+01
0	 9.333333e+00	 8.000000e+00	 1.000521e+01
0	 9.333333e+00	 8.074074e+00	 1.000486e+01
0	 9.333333e+00	 8.148148e+00	 1.000450e+01
0	 9.407407e+00	 7.777778e+00	 1.000534e+01
0	 9.407407e+00	 7.851852e+00	 1.000502e+01
0	 9.407407e+00	 7.925926e+00	 1.000470e+01
0	 9.407407e+00	 8.000000e+00	 1.000438e+01
0	 9.407407e+00	 8.074074e+00	 1.000406e+01
0	 9.407407e+00	 8.148148e+00	 1.000373e+01
0	 9.481481e+00	 7.777778e+00	 1.000444e+01
0	 9.481481e+00	 7.851852e+00	 1.000414e+01
0	 9.481481e+00	 7.925926e+00	 1.000385e+01
0	 9.481481e+00	 8.000000e+00	 1.000356e+01
0	 9.481481e+00	 8.074074e+00	 1.000326e+01
0	 9.481481e+00	 8.148148e+00	 1.000297e+01
0	 9.555556e+00	 7.777778e+00	 1.000356e+01
0	 9.555556e+00	 7.851852e+00	 1.000328e+01
0	 9.555556e+00	 7.925926e+00	 1.000301e+01
0	 9.555556e+00	 8.000000e+00	 1.000274e+01
0	 9.555556e+00	 8.074074e+00	 1.000247e+01
0	 9.555556e+00	 8.148148e+00	 1.000219e+01
0	 9.629630e+00	 7.777778e+00	 1.000269e+01
0	 9.629630e+00	 7.851852e+00	 1.000243e+01
0	 9.629630e+00	 7.925926e+00	 1.000217e+01
0	 9.629630e+00	 8.000000e+00	 1.000192e+01
0	 9.629630e+00	 8.074074e+00	 1.000166e+01
0	 9.629630e+00	 8.148148e+00	 1.000141e+01
0	 9.259259e+00	 8.148148e+00	 1.000527e+01
0	 9.259259e+00	 8.222222e+00	 1.000488e+01
0	 9.259259e+00	 8.296296e+00	 1.000451e+01
0	 9.259259e+00	 8.370370e+00	 1.000414e+01
0	 9.259259e+00	 8.444444e+00	 1.000377e+01
0	 9.259259e+00	 8.518519e+00	 1.000342e+01
0	 9.333333e+00	 8.148148e+00	 1.000450e+01
0	 9.333333e+00	 8.222222e+00	 1.000415e+01
0	 9.333333e+00	 8.296296e+00	 1.000381e+01
0	 9.333333e+00	 8.370370e+00	 1.000347e+01
0	 9.333333e+00	 8.444444e+00	 1.000315e+01
0	 9.333333e+00	 8.518519e+00	 1.000283e+01
0	 9.407407e+00	 8.148148e+00	 1.000373e+01
0	 9.407407e+00	 8.222222e+00	 1.000341e+01
0	 9.407407e+00	 8.296296e+00	 1.000310e+01
0	 9.407407e+00	 8.370370e+00	 1.000280e+01
0	 9.407407e+00	 8.444444e+00	 1.000251e+01
0	 9.407407e+00	 8.518519e+00	 1.000223e+01
0	 9.481481e+00	 8.148148e+00	 1.000297e+01
0	 9.481481e+00	 8.222222e+00	 1.000267e+01
0	 9.481481e+00	 8.296296e+00	 1.000239e+01
0	 9.481481e+00	 8.370370e+00	 1.000213e+01
0	 9.481481e+00	 8.444444e+00	 1.000187e+01
0	 9.481481e+00	 8.518519e+00	 1.000162e+01
0	 9.555556e+00	 8.148148e+00	 1.000219e+01
0	 9.555556e+00	 8.222222e+00	 1.000193e+01
0	 9.555556e+00	 8.296296e+00	 1.000167e+01
0	 9.555556e+00	 8.370370e+00	 1.000143e+01
0	 9.555556e+00	 8.444444e+00	 1.000120e+01
0	 9.555556e+00	 8.518519e+00	 1.000098e+01
0	 9.629630e+00	 8.148148e+00	 1.000141e+01
0	 9.629630e+00	 8.222222e+00	 1.000116e+01
0	 9.629630e+00	 8.296296e+00	 1.000093e+01
0	 9.629630e+00	 8.370370e+00	 1.000071e+01
0	 9.629630e+00	 8.444444e+00	 1.000051e+01
0	 9.629630e+00	 8.518519e+00	 1.000032e+01
0	 9.259259e+00	 8.518519e+00	 1.000342e+01
0	 9.259259e+00	 8.592593e+00	 1.000307e+01
0	 9.259259e+00	 8.666667e+00	 1.000275e+01
0	 9.259259e+00	 8.740741e+00	 1.000244e+01
0	 9.259259e+00	 8.814815e+00	 1.000214e+01
0	 9.259259e+00	 8.888889e+00	 1.000186e+01
0	 9.333333e+00	 8.518519e+00	 1.000283e+01
0	 9.333333e+00	 8.592593e+00	 1.000252e+01
0	 9.333333e+00	 8.666667e+00	 1.000223e+01
0	 9.333333e+00	 8.740741e+00	 1.000196e+01
0	 9.333333e+00	 8.814815e+00	 1.000170e+01
0	 9.333333e+00	 8.888889e+00	 1.000146e+01
0	 9.407407e+00	 8.518519e+00	 1.000223e+01
0	 9.407407e+00	 8.592593e+00	 1.000196e+01
0	 9.407407e+00	 8.666667e+00	 1.000171e+01
0	 9.407407e+00	 8.740741e+00	 1.000147e+01
0	 9.407407e+00	 8.814815e+00	 1.000125e+01
0	 9.407407e+00	 8.888889e+00	 1.000105e+01
0	 9.481481e+00	 8.518519e+00	 1.000162e+01
0	 9.481481e+00	 8.592593e+00	 1.000138e+01
0	 9.481481e+00	 8.666667e+00	 1.000116e+01
0	 9.481481e+00	 8.740741e+00	 1.000096e+01
0	 9.481481e+00	 8.814815e+00	 1.000078e+01
0	 9.481481e+00	 8.888889e+00	 1.000061e+01
0	 9.555556e+00	 8.518519e+00	 1.000098e+01
0	 9.555556e+00	 8.592593e+00	 1.000078e+01
0	 9.555556e+00	 8.666667e+00	 1.000059e+01
0	 9.555556e+00	 8.740741e+00	 1.000043e+01
0	 9.555556e+00	 8.814815e+00	 1.000028e+01
0	 9.555556e+00	 8.888889e+00	 1.000015e+01
0	 9.629630e+00	 8.518519e+00	 1.000032e+01
0	 9.629630e+00	 8.592593e+00	 1.000015e+01
0	 9.629630e+00	 8.666667e+00	 9.999996e+00
0	 9.629630e+00	 8.740741e+00	 9.999865e+00
0	 9.629630e+00	 8.814815e+00	 9.999756e+00
0	 9.629630e+00	 8.888889e+00	 9.999666e+00
0	 9.259259e+00	 8.888889e+00	 1.000186e+01
0	 9.259259e+00	 8.962963e+00	 1.000160e+01
0	 9.259259e+00	 9.037037e+00	 1.000136e+01
0	 9.259259e+00	 9.111111e+00	 1.000114e+01
0	 9.259259e+00	 9.185185e+00	 1.000094e+01
0	 9.259259e+00	 9.259259e+00	 1.000076e+01
0	 9.333333e+00	 8.888889e+00	 1.000146e+01
0	 9.333333e+00	 8.962963e+00	 1.000124e+01
0	 9.333333e+00	 9.037037e+00	 1.000103e+01
0	 9.333333e+00	 9.111111e+00	 1.000085e+01
0	 9.333333e+00	 9.185185e+00	 1.000069e+01
0	 9.333333e+00	 9.259259e+00	 1.000054e+01
0	 9.407407e+00	 8.888889e+00	 1.000105e+01
0	 9.407407e+00	 8.962963e+00	 1.000086e+01
0	 9.407407e+00	 9.037037e+00	 1.000069e+01
0	 9.407407e+00	 9.111111e+00	 1.000055e+01
0	 9.407407e+00	 9.185185e+00	 1.000042e+01
0	 9.407407e+00	 9.259259e+00	 1.000030e+01
0	 9.481481e+00	 8.888889e+00	 1.000061e+01
0	 9.481481e+00	 8.962963e+00	 1.000046e+01
0	 9.481481e+00	 9.037037e+00	 1.000033e+01
0	 9.481481e+00	 9.111111e+00	 1.000022e+01
0	 9.481481e+00	 9.185185e+00	 1.000013e+01
0	 9.481481e+00	 9.259259e+00	 1.000006e+01
0	 9.555556e+00	 8.888889e+00	 1.000015e+01
0	 9.555556e+00	 8.962963e+00	 1.000004e+01
0	 9.555556e+00	 9.037037e+00	 9.999953e+00
0	 9.555556e+00	 9.111111e+00	 9.999881e+00
0	 9.555556e+00	 9.185185e+00	 9.999826e+00
0	 9.555556e+00	 9.259259e+00	 9.999790e+00
0	 9.629630e+00	 8.888889e+00	 9.999666e+00
0	 9.629630e+00	 8.962963e+00	 9.999597e+00
0	 9.629630e+00	 9.037037e+00	 9.999546e+00
0	 9.629630e+00	 9.111111e+00	 9.999514e+00
0	 9.629630e+00	 9.185185e+00	 9.999501e+00
0	 9.629630e+00	 9.259259e+00	 9.999506e+00
0	 9.259259e+00	 9.259259e+00	 1.000076e+01
0	 9.259259e+00	 9.333333e+00	 1.000060e+01
0	 9.259259e+00	 9.407407e+00	 1.000046e+01
0	 9.259259e+00	 9.481481e+00	 1.000034e+01
0	 9.259259e+00	 9.555556e+00	 1.000024e+01
0	 9.259259e+00	 9.629630e+00	 1.000016e+01
0	 9.333333e+00	 9.259259e+00	 1.000054e+01
0	 9.333333e+00	 9.333333e+00	 1.000041e+01
0	 9.333333e+00	 9.407407e+00	 1.000030e+01
0	 9.333333e+00	 9.481481e+00	 1.000021e+01
0	 9.333333e+00	 9.555556e+00	 1.000014e+01
0	 9.333333e+00	 9.629630e+00	 1.000009e+01
0	 9.407407e+00	 9.259259e+00	 1.000030e+01
0	 9.407407e+00	 9.333333e+00	 1.000021e+01
0	 9.407407e+00	 9.407407e+00	 1.000013e+01
0	 9.407407e+00	 9.481481e+00	 1.000008e+01
0	 9.407407e+00	 9.555556e+00	 1.000004e+01
0	 9.407407e+00	 9.629630e+00	 1.000002e+01
0	 9.481481e+00	 9.259259e+00	 1.000006e+01
0	 9.481481e+00	 9.333333e+00	 9.999996e+00
0	 9.481481e+00	 9.407407e+00	 9.999954e+00
0	 9.481481e+00	 9.481481e+00	 9.999929e+00
0	 9.481481e+00	 9.555556e+00	 9.999922e+00
0	 9.481481e+00	 9.629630e+00	 9.999933e+00
0	 9.555556e+00	 9.259259e+00	 9.999790e+00
0	 9.555556e+00	 9.333333e+00	 9.999769e+00
0	 9.555556e+00	 9.407407e+00	 9.999763e+00
0	 9.555556e+00	 9.481481e+00	 9.999773e+00
0	 9.555556e+00	 9.555556e+00	 9.999800e+00
0	 9.555556e+00	 9.629630e+00	 9.999843e+00
0	 9.629630e+00	 9.259259e+00	 9.999506e+00
0	 9.629630e+00	 9.333333e+00	 9.999527e+00
0	 9.629630e+00	 9.407407e+00	 9.999561e+00
0	 9.629630e+00	 9.481481e+00	 9.999609e+00
0	 9.629630e+00	 9.555556e+00	 9.999670e+00
0	 9.629630e+00	 9.629630e+00	 9.999746e+00
0	 9.259259e+00	 9.629630e+00	 1.000016e+01
0	 9.259259e+00	 9.703704e+00	 1.000010e+01
0	 9.259259e+00	 9.777778e+00	 1.000005e+01
0	 9.259259e+00	 9.851852e+00	 1.000002e+01
0	 9.259259e+00	 9.925926e+00	 1.000001e+01
0	 9.259259e+00	 1.000000e+01	 1.000001e+01
0	 9.333333e+00	 9.629630e+00	 1.000009e+01
0	 9.333333e+00	 9.703704e+00	 1.000006e+01
0	 9.333333e+00	 9.777778e+00	 1.000003e+01
0	 9.333333e+00	 9.851852e+00	 1.000001e+01
0	 9.333333e+00	 9.925926e+00	 1.000000e+01
0	 9.333333e+00	 1.000000e+01	 1.000002e+01
0	 9.407407e+00	 9.629630e+00	 1.000002e+01
0	 9.407407e+00	 9.703704e+00	 1.000001e+01
0	 9.407407e+00	 9.777778e+00	 9.999997e+00
0	 9.407407e+00	 9.851852e+00	 9.999993e+00
0	 9.407407e+00	 9.925926e+00	 9.999999e+00
0	 9.407407e+00	 1.000000e+01	 1.000002e+01
0	 9.481481e+00	 9.629630e+00	 9.999933e+00
0	 9.481481e+00	 9.703704e+00	 9.999950e+00
0	 9.481481e+00	 9.777778e+00	 9.999960e+00
0	 9.481481e+00	 9.851852e+00	 9.999972e+00
0	 9.481481e+00	 9.925926e+00	 9.999990e+00
0	 9.481481e+00	 1.000000e+01	 1.000002e+01
0	 9.555556e+00	 9.629630e+00	 9.999843e+00
0	 9.555556e+00	 9.703704e+00	 9.999886e+00
0	 9.555556e+00	 9.777778e+00	 9.999919e+00
0	 9.555556e+00	 9.851852e+00	 9.999947e+00
0	 9.555556e+00	 9.925926e+00	 9.999980e+00
0	 9.555556e+00	 1.000000e+01	 1.000002e+01
0	 9.629630e+00	 9.629630e+00	 9.999746e+00
0	 9.629630e+00	 9.703704e+00	 9.999818e+00
0	 9.629630e+00	 9.777778e+00	 9.999873e+00
0	 9.629630e+00	 9.851852e+00	 9.999921e+00
0	 9.629630e+00	 9.925926e+00	 9.999973e+00
0	 9.629630e+00	 1.000000e+01	 1.000004e+01
0	 9.629630e+00	 0.000000e+00	 9.728234e+00
0	 9.629630e+00	 7.407407e-02	 9.728347e+00
0	 9.629630e+00	 1.481481e-01	 9.728682e+00
0	 9.629630e+00	 2.222222e-01	 9.729240e+00
0	 9.629630e+00	 2.962963e-01	 9.730021e+00
0	 9.629630e+00	 3.703704e-01	 9.731027e+00
0	 9.703704e+00	 0.000000e+00	 9.713606e+00
0	 9.703704e+00	 7.407407e-02	 9.713724e+00
0	 9.703704e+00	 1.481481e-01	 9.714076e+00
0	 9.703704e+00	 2.222222e-01	 9.714663e+00
0	 9.703704e+00	 2.962963e-01	 9.715485e+00
0	 9.703704e+00	 3.703704e-01	 9.716541e+00
0	 9.777778e+00	 0.000000e+00	 9.698527e+00
0	 9.777778e+00	 7.407407e-02	 9.698651e+00
0	 9.777778e+00	 1.481481e-01	 9.699022e+00
0	 9.777778e+00	 2.222222e-01	 9.699640e+00
0	 9.777778e+00	 2.962963e-01	 9.700505e+00
0	 9.777778e+00	 3.703704e-01	 9.701617e+00
0	 9.851852e+00	 0.000000e+00	 9.682955e+00
0	 9.851852e+00	 7.407407e-02	 9.683087e+00
0	 9.851852e+00	 1.481481e-01	 9.683478e+00
0	 9.851852e+00	 2.222222e-01	 9.684129e+00
0	 9.851852e+00	 2.962963e-01	 9.685041e+00
0	 9.851852e+00	 3.703704e-01	 9.686214e+00
0	 9.925926e+00	 0.000000e+00	 9.666851e+00
0	 9.925926e+00	 7.407407e-02	 9.666990e+00
0	 9.925926e+00	 1.481481e-01	 9.667403e+00
0	 9.925926e+00	 2.222222e-01	 9.668091e+00
0	 9.925926e+00	 2.962963e-01	 9.669054e+00
0	 9.925926e+00	 3.703704e-01	 9.670292e+00
0	 1.000000e+01	 0.000000e+00	 9.650172e+00
0	 1.000000e+01	 7.407407e-02	 9.650318e+00
0	 1.000000e+01	 1.481481e-01	 9.650755e+00
0	 1.000000e+01	 2.222222e-01	 9.651482e+00
0	 1.000000e+01	 2.962963e-01	 9.652500e+00
0	 1.000000e+01	 3.703704e-01	 9.653810e+00
0	 9.629630e+00	 3.703704e-01	 9.731027e+00
0	 9.629630e+00	 4.444444e-01	 9.732249e+00
0	 9.629630e+00	 5.185185e-01	 9.733681e+00
0	 9.629630e+00	 5.925926e-01	 9.735326e+00
0	 9.629630e+00	 6.666667e-01	 9.737182e+00
0	 9.629630e+00	 7.407407e-01	 9.739251e+00
0	 9.703704e+00	 3.703704e-01	 9.716541e+00
0	 9.703704e+00	 4.444444e-01	 9.717826e+00
0	 9.703704e+00	 5.185185e-01	 9.719332e+00
0	 9.703704e+00	 5.925926e-01	 9.721061e+00
0	 9.703704e+00	 6.666667e-01	 9.723012e+00
0	 9.703704e+00	 7.407407e-01	 9.725188e+00
0	 9.777778e+00	 3.703704e-01	 9.701617e+00
0	 9.777778e+00	 4.444444e-01	 9.702970e+00
0	 9.777778e+00	 5.185185e-01	 9.704556e+00
0	 9.777778e+00	 5.925926e-01	 9.706375e+00
0	 9.777778e+00	 6.666667e-01	 9.708430e+00
0	 9.777778e+00	 7.407407e-01	 9.710720e+00
0	 9.851852e+00	 3.703704e-01	 9.686214e+00
0	 9.851852e+00	 4.444444e-01	 9.687641e+00
0	 9.851852e+00	 5.185185e-01	 9.689312e+00
0	 9.851852e+00	 5.925926e-01	 9.691231e+00
0	 9.851852e+00	 6.666667e-01	 9.693396e+00
0	 9.851852e+00	 7.407407e-01	 9.695811e+00
0	 9.925926e+00	 3.703704e-01	 9.670292e+00
0	 9.925926e+00	 4.444444e-01	 9.671798e+00
0	 9.925926e+00	 5.185185e-01	 9.673563e+00
0	 9.925926e+00	 5.925926e-01	 9.675589e+00
0	 9.925926e+00	 6.666667e-01	 9.677875e+00
0	 9.925926e+00	 7.407407e-01	 9.680424e+00
0	 1.000000e+01	 3.703704e-01	 9.653810e+00
0	 1.000000e+01	 4.444444e-01	 9.655403e+00
0	 1.000000e+01	 5.185185e-01	 9.657270e+00
0	 1.000000e+01	 5.925926e-01	 9.659411e+00
0	 1.000000e+01	 6.666667e-01	 9.661829e+00
0	 1.000000e+01	 7.407407e-01	 9.664523e+00
0	 9.629630e+00	 7.407407e-01	 9.739251e+00
0	 9.629630e+00	 8.148148e-01	 9.741521e+00
0	 9.629630e+00	 8.888889e-01	 9.743978e+00
0	 9.629630e+00	 9.629630e-01	 9.746623e+00
0	 9.629630e+00	 1.037037e+00	 9.749458e+00
0	 9.629630e+00	 1.111111e+00	 9.752484e+00
0	 9.703704e+00	 7.407407e-01	 9.725188e+00
0	 9.703704e+00	 8.148148e-01	 9.727574e+00
0	 9.703704e+00	 8.888889e-01	 9.730156e+00
0	 9.703704e+00	 9.629630e-01	 9.732937e+00
0	 9.703704e+00	 1.037037e+00	 9.735917e+00
0	 9.703704e+00	 1.111111e+00	 9.739098e+00
0	 9.777778e+00	 7.407407e-01	 9.710720e+00
0	 9.777778e+00	 8.148148e-01	 9.713231e+00
0	 9.777778e+00	 8.888889e-01	 9.715950e+00
0	 9.777778e+00	 9.629630e-01	 9.718877e+00
0	 9.777778e+00	 1.037037e+00	 9.722014e+00
0	 9.777778e+00	 1.111111e+00	 9.725362e+00
0	 9.851852e+00	 7.407407e-01	 9.695811e+00
0	 9.851852e+00	 8.148148e-01	 9.698458e+00
0	 9.851852e+00	 8.888889e-01	 9.701324e+00
0	 9.851852e+00	 9.629630e-01	 9.704409e+00
0	 9.851852e+00	 1.037037e+00	 9.707715e+00
0	 9.851852e+00	 1.111111e+00	 9.711244e+00
0	 9.925926e+00	 7.407407e-01	 9.680424e+00
0	 9.925926e+00	 8.148148e-01	 9.683219e+00
0	 9.925926e+00	 8.888889e-01	 9.686244e+00
0	 9.925926e+00	 9.629630e-01	 9.689500e+00
0	 9.925926e+00	 1.037037e+00	 9.692990e+00
0	 9.925926e+00	 1.111111e+00	 9.696714e+00
0	 1.000000e+01	 7.407407e-01	 9.664523e+00
0	 1.000000e+01	 8.148148e-01	 9.667477e+00
0	 1.000000e+01	 8.888889e-01	 9.670674e+00
0	 1.000000e+01	 9.629630e-01	 9.674116e+00
0	 1.000000e+01	 1.037037e+00	 9.677804e+00
0	 1.000000e+01	 1.111111e+00	 9.681741e+00
0	 9.629630e+00	 1.111111e+00	 9.752484e+00
0	 9.629630e+00	 1.185185e+00	 9.755684e+00
0	 9.629630e+00	 1.259259e+00	 9.759038e+00
0	 9.629630e+00	 1.333333e+00	 9.762550e+00
0	 9.629630e+00	 1.407407e+00	 9.766220e+00
0	 9.629630e+00	 1.481481e+00	 9.770051e+00
0	 9.703704e+00	 1.111111e+00	 9.739098e+00
0	 9.703704e+00	 1.185185e+00	 9.742461e+00
0	 9.703704e+00	 1.259259e+00	 9.745987e+00
0	 9.703704e+00	 1.333333e+00	 9.749678e+00
0	 9.703704e+00	 1.407407e+00	 9.753536e+00
0	 9.703704e+00	 1.481481e+00	 9.757562e+00
0	 9.777778e+00	 1.111111e+00	 9.725362e+00
0	 9.777778e+00	 1.185185e+00	 9.728901e+00
0	 9.777778e+00	 1.259259e+00	 9.732612e+00
0	 9.777778e+00	 1.333333e+00	 9.736497e+00
0	 9.777778e+00	 1.407407e+00	 9.740556e+00
0	 9.777778e+00	 1.481481e+00	 9.744793e+00
0	 9.851852e+00	 1.111111e+00	 9.711244e+00
0	 9.851852e+00	 1.185185e+00	 9.714974e+00
0	 9.851852e+00	 1.259259e+00	 9.718885e+00
0	 9.851852e+00	 1.333333e+00	 9.722978e+00
0	 9.851852e+00	 1.407407e+00	 9.727256e+00
0	 9.851852e+00	 1.481481e+00	 9.731720e+00
0	 9.925926e+00	 1.111111e+00	 9.696714e+00
0	 9.925926e+00	 1.185185e+00	 9.700651e+00
0	 9.925926e+00	 1.259259e+00	 9.704778e+00
0	 9.925926e+00	 1.333333e+00	 9.709096e+00
0	 9.925926e+00	 1.407407e+00	 9.713609e+00
0	 9.925926e+00	 1.481481e+00	 9.718318e+00
0	 1.000000e+01	 1.111111e+00	 9.681741e+00
0	 1.000000e+01	 1.185185e+00	 9.685901e+00
0	 1.000000e+01	 1.259259e+00	 9.690261e+00
0	 1.000000e+01	 1.333333e+00	 9.694823e+00
0	 1.000000e+01	 1.407407e+00	 9.699590e+00
0	 1.000000e+01	 1.481481e+00	 9.704564e+00
0	 9.629630e+00	 1.481481e+00	 9.770051e+00
0	 9.629630e+00	 1.555556e+00	 9.774020e+00
0	 9.629630e+00	 1.629630e+00	 9.778105e+00
0	 9.629630e+00	 1.703704e+00	 9.782310e+00
0	 9.629630e+00	 1.777778e+00	 9.786635e+00
0	 9.629630e+00	 1.851852e+00	 9.791083e+00
0	 9.703704e+00	 1.481481e+00	 9.757562e+00
0	 9.703704e+00	 1.555556e+00	 9.761734e+00
0	 9.703704e+00	 1.629630e+00	 9.766028e+00
0	 9.703704e+00	 1.703704e+00	 9.770447e+00
0	 9.703704e+00	 1.777778e+00	 9.774992e+00
0	 9.703704e+00	 1.851852e+00	 9.779667e+00
0	 9.777778e+00	 1.481481e+00	 9.744793e+00
0	 9.777778e+00	 1.555556e+00	 9.749182e+00
0	 9.777778e+00	 1.629630e+00	 9.753701e+00
0	 9.777778e+00	 1.703704e+00	 9.758350e+00
0	 9.777778e+00	 1.777778e+00	 9.763132e+00
0	 9.777778e+00	 1.851852e+00	 9.768050e+00
0	 9.851852e+00	 1.481481e+00	 9.731720e+00
0	 9.851852e+00	 1.555556e+00	 9.736344e+00
0	 9.851852e+00	 1.629630e+00	 9.741103e+00
0	 9.851852e+00	 1.703704e+00	 9.746001e+00
0	 9.851852e+00	 1.777778e+00	 9.751037e+00
0	 9.851852e+00	 1.851852e+00	 9.756216e+00
0	 9.925926e+00	 1.481481e+00	 9.718318e+00
0	 9.925926e+00	 1.555556e+00	 9.723195e+00
0	 9.925926e+00	 1.629630e+00	 9.728215e+00
0	 9.925926e+00	 1.703704e+00	 9.733380e+00
0	 9.925926e+00	 1.777778e+00	 9.738691e+00
0	 9.925926e+00	 1.851852e+00	 9.744150e+00
0	 1.000000e+01	 1.481481e+00	 9.704564e+00
0	 1.000000e+01	 1.555556e+00	 9.709715e+00
0	 1.000000e+01	 1.629630e+00	 9.715015e+00
0	 1.000000e+01	 1.703704e+00	 9.720468e+00
0	 1.000000e+01	 1.777778e+00	 9.726074e+00
0	 1.000000e+01	 1.851852e+00	 9.731837e+00
0	 9.629630e+00	 1.851852e+00	 9.791083e+00
0	 9.629630e+00	 1.925926e+00	 9.795630e+00
0	 9.629630e+00	 2.000000e+00	 9.800252e+00
0	 9.629630e+00	 2.074074e+00	 9.804951e+00
0	 9.629630e+00	 2.148148e+00	 9.809729e+00
0	 9.629630e+00	 2.222222e+00	 9.814588e+00
0	 9.703704e+00	 1.851852e+00	 9.779667e+00
0	 9.703704e+00	 1.925926e+00	 9.784445e+00
0	 9.703704e+00	 2.000000e+00	 9.789301e+00
0	 9.703704e+00	 2.074074e+00	 9.794239e+00
0	 9.703704e+00	 2.148148e+00	 9.799259e+00
0	 9.703704e+00	 2.222222e+00	 9.804364e+00
0	 9.777778e+00	 1.851852e+00	 9.768050e+00
0	 9.777778e+00	 1.925926e+00	 9.773076e+00
0	 9.777778e+00	 2.000000e+00	 9.778184e+00
0	 9.777778e+00	 2.074074e+00	 9.783377e+00
0	 9.777778e+00	 2.148148e+00	 9.788657e+00
0	 9.777778e+00	 2.222222e+00	 9.794025e+00
0	 9.851852e+00	 1.851852e+00	 9.756216e+00
0	 9.851852e+00	 1.925926e+00	 9.761509e+00
0	 9.851852e+00	 2.000000e+00	 9.766887e+00
0	 9.851852e+00	 2.074074e+00	 9.772355e+00
0	 9.851852e+00	 2.148148e+00	 9.777912e+00
0	 9.851852e+00	 2.222222e+00	 9.783563e+00
0	 9.925926e+00	 1.851852e+00	 9.744150e+00
0	 9.925926e+00	 1.925926e+00	 9.749730e+00
0	 9.925926e+00	 2.000000e+00	 9.755399e+00
0	 9.925926e+00	 2.074074e+00	 9.761161e+00
0	 9.925926e+00	 2.148148e+00	 9.767017e+00
0	 9.925926e+00	 2.222222e+00	 9.772970e+00
0	 1.000000e+01	 1.851852e+00	 9.731837e+00
0	 1.000000e+01	 1.925926e+00	 9.737725e+00
0	 1.000000e+01	 2.000000e+00	 9.743706e+00
0	 1.000000e+01	 2.074074e+00	 9.749784e+00
0	 1.000000e+01	 2.148148e+00	 9.755961e+00
0	 1.000000e+01	 2.222222e+00	 9.762239e+00
0	 9.629630e+00	 2.222222e+00	 9.814588e+00
0	 9.629630e+00	 2.296296e+00	 9.819503e+00
0	 9.629630e+00	 2.370370e+00	 9.824452e+00
0	 9.629630e+00	 2.444444e+00	 9.829434e+00
0	 9.629630e+00	 2.518519e+00	 9.834453e+00
0	 9.629630e+00	 2.592593e+00	 9.839511e+00
0	 9.703704e+00	 2.222222e+00	 9.804364e+00
0	 9.703704e+00	 2.296296e+00	 9.809529e+00
0	 9.703704e+00	 2.370370e+00	 9.814728e+00
0	 9.703704e+00	 2.444444e+00	 9.819962e+00
0	 9.703704e+00	 2.518519e+00	 9.825234e+00
0	 9.703704e+00	 2.592593e+00	 9.830547e+00
0	 9.777778e+00	 2.222222e+00	 9.794025e+00
0	 9.777778e+00	 2.296296e+00	 9.799456e+00
0	 9.777778e+00	 2.370370e+00	 9.804922e+00
0	 9.777778e+00	 2.444444e+00	 9.810425e+00
0	 9.777778e+00	 2.518519e+00	 9.815968e+00
0	 9.777778e+00	 2.592593e+00	 9.821552e+00
0	 9.851852e+00	 2.222222e+00	 9.783563e+00
0	 9.851852e+00	 2.296296e+00	 9.789279e+00
0	 9.851852e+00	 2.370370e+00	 9.795030e+00
0	 9.851852e+00	 2.444444e+00	 9.800821e+00
0	 9.851852e+00	 2.518519e+00	 9.806652e+00
0	 9.851852e+00	 2.592593e+00	 9.812526e+00
0	 9.925926e+00	 2.222222e+00	 9.772970e+00
0	 9.925926e+00	 2.296296e+00	 9.778991e+00
0	 9.925926e+00	 2.370370e+00	 9.785049e+00
0	 9.925926e+00	 2.444444e+00	 9.791146e+00
0	 9.925926e+00	 2.518519e+00	 9.797285e+00
0	 9.925926e+00	 2.592593e+00	 9.803469e+00
0	 1.000000e+01	 2.222222e+00	 9.762239e+00
0	 1.000000e+01	 2.296296e+00	 9.768587e+00
0	 1.000000e+01	 2.370370e+00	 9.774973e+00
0	 1.000000e+01	 2.444444e+00	 9.781399e+00
0	 1.000000e+01	 2.518519e+00	 9.787867e+00
0	 1.000000e+01	 2.592593e+00	 9.794381e+00
0	 9.629630e+00	 2.592593e+00	 9.839511e+00
0	 9.629630e+00	 2.666667e+00	 9.844583e+00
0	 9.629630e+00	 2.740741e+00	 9.849648e+00
0	 9.629630e+00	 2.814815e+00	 9.854706e+00
0	 9.629630e+00	 2.888889e+00	 9.859760e+00
0	 9.629630e+00	 2.962963e+00	 9.864812e+00
0	 9.703704e+00	 2.592593e+00	 9.830547e+00
0	 9.703704e+00	 2.666667e+00	 9.835876e+00
0	 9.703704e+00	 2.740741e+00	 9.841195e+00
0	 9.703704e+00	 2.814815e+00	 9.846508e+00
0	 9.703704e+00	 2.888889e+00	 9.851816e+00
0	 9.703704e+00	 2.962963e+00	 9.857121e+00
0	 9.777778e+00	 2.592593e+00	 9.821552e+00
0	 9.777778e+00	 2.666667e+00	 9.827152e+00
0	 9.777778e+00	 2.740741e+00	 9.832743e+00
0	 9.777778e+00	 2.814815e+00	 9.838326e+00
0	 9.777778e+00	 2.888889e+00	 9.843903e+00
0	 9.777778e+00	 2.962963e+00	 9.849476e+00
0	 9.851852e+00	 2.592593e+00	 9.812526e+00
0	 9.851852e+00	 2.666667e+00	 9.818416e+00
0	 9.851852e+00	 2.740741e+00	 9.824295e+00
0	 9.851852e+00	 2.814815e+00	 9.830164e+00
0	 9.851852e+00	 2.888889e+00	 9.836027e+00
0	 9.851852e+00	 2.962963e+00	 9.841885e+00
0	 9.925926e+00	 2.592593e+00	 9.803469e+00
0	 9.925926e+00	 2.666667e+00	 9.809668e+00
0	 9.925926e+00	 2.740741e+00	 9.815854e+00
0	 9.925926e+00	 2.814815e+00	 9.822029e+00
0	 9.925926e+00	 2.888889e+00	 9.828196e+00
0	 9.925926e+00	 2.962963e+00	 9.834356e+00
0	 1.000000e+01	 2.592593e+00	 9.794381e+00
0	 1.000000e+01	 2.666667e+00	 9.800910e+00
0	 1.000000e+01	 2.740741e+00	 9.807424e+00
0	 1.000000e+01	 2.814815e+00	 9.813924e+00
0	 1.000000e+01	 2.888889e+00	 9.820414e+00
0	 1.000000e+01	 2.962963e+00	 9.826896e+00
0	 9.629630e+00	 2.962963e+00	 9.864812e+00
0	 9.629630e+00	 3.037037e+00	 9.869840e+00
0	 9.629630e+00	 3.111111e+00	 9.874824e+00
0	 9.629630e+00	 3.185185e+00	 9.879765e+00
0	 9.629630e+00	 3.259259e+00	 9.884665e+00
0	 9.629630e+00	 3.333333e+00	 9.889525e+00
0	 9.703704e+00	 2.962963e+00	 9.857121e+00
0	 9.703704e+00	 3.037037e+00	 9.862401e+00
0	 9.703704e+00	 3.111111e+00	 9.867634e+00
0	 9.703704e+00	 3.185185e+00	 9.872822e+00
0	 9.703704e+00	 3.259259e+00	 9.877966e+00
0	 9.703704e+00	 3.333333e+00	 9.883069e+00
0	 9.777778e+00	 2.962963e+00	 9.849476e+00
0	 9.777778e+00	 3.037037e+00	 9.855022e+00
0	 9.777778e+00	 3.111111e+00	 9.860519e+00
0	 9.777778e+00	 3.185185e+00	 9.865968e+00
0	 9.777778e+00	 3.259259e+00	 9.871370e+00
0	 9.777778e+00	 3.333333e+00	 9.876727e+00
0	 9.851852e+00	 2.962963e+00	 9.841885e+00
0	 9.851852e+00	 3.037037e+00	 9.847714e+00
0	 9.851852e+00	 3.111111e+00	 9.853489e+00
0	 9.851852e+00	 3.185185e+00	 9.859213e+00
0	 9.851852e+00	 3.259259e+00	 9.864887e+00
0	 9.851852e+00	 3.333333e+00	 9.870513e+00
0	 9.925926e+00	 2.962963e+00	 9.834356e+00
0	 9.925926e+00	 3.037037e+00	 9.840484e+00
0	 9.925926e+00	 3.111111e+00	 9.846555e+00
0	 9.925926e+00	 3.185185e+00	 9.852570e+00
0	 9.925926e+00	 3.259259e+00	 9.858531e+00
0	 9.925926e+00	 3.333333e+00	 9.864441e+00
0	 1.000000e+01	 2.962963e+00	 9.826896e+00
0	 1.000000e+01	 3.037037e+00	 9.833342e+00
0	 1.000000e+01	 3.111111e+00	 9.839726e+00
0	 1.000000e+01	 3.185185e+00	 9.846050e+00
0	 1.000000e+01	 3.259259e+00	 9.852315e+00
0	 1.000000e+01	 3.333333e+00	 9.858524e+00
0	 9.629630e+00	 3.333333e+00	 9.889525e+00
0	 9.629630e+00	 3.407407e+00	 9.894329e+00
0	 9.629630e+00	 3.481481e+00	 9.899058e+00
0	 9.629630e+00	 3.555556e+00	 9.903713e+00
0	 9.629630e+00	 3.629630e+00	 9.908297e+00
0	 9.629630e+00	 3.703704e+00	 9.912809e+00
0	 9.703704e+00	 3.333333e+00	 9.883069e+00
0	 9.703704e+00	 3.407407e+00	 9.888111e+00
0	 9.703704e+00	 3.481481e+00	 9.893075e+00
0	 9.703704e+00	 3.555556e+00	 9.897962e+00
0	 9.703704e+00	 3.629630e+00	 9.902772e+00
0	 9.703704e+00	 3.703704e+00	 9.907508e+00
0	 9.777778e+00	 3.333333e+00	 9.876727e+00
0	 9.777778e+00	 3.407407e+00	 9.882021e+00
0	 9.777778e+00	 3.481481e+00	 9.887231e+00
0	 9.777778e+00	 3.555556e+00	 9.892359e+00
0	 9.777778e+00	 3.629630e+00	 9.897407e+00
0	 9.777778e+00	 3.703704e+00	 9.902376e+00
0	 9.851852e+00	 3.333333e+00	 9.870513e+00
0	 9.851852e+00	 3.407407e+00	 9.876071e+00
0	 9.851852e+00	 3.481481e+00	 9.881540e+00
0	 9.851852e+00	 3.555556e+00	 9.886923e+00
0	 9.851852e+00	 3.629630e+00	 9.892219e+00
0	 9.851852e+00	 3.703704e+00	 9.897432e+00
0	 9.925926e+00	 3.333333e+00	 9.864441e+00
0	 9.925926e+00	 3.407407e+00	 9.870277e+00
0	 9.925926e+00	 3.481481e+00	 9.876019e+00
0	 9.925926e+00	 3.555556e+00	 9.881668e+00
0	 9.925926e+00	 3.629630e+00	 9.887226e+00
0	 9.925926e+00	 3.703704e+00	 9.892693e+00
0	 1.000000e+01	 3.333333e+00	 9.858524e+00
0	 1.000000e+01	 3.407407e+00	 9.864654e+00
0	 1.000000e+01	 3.481481e+00	 9.870683e+00
0	 1.000000e+01	 3.555556e+00	 9.876613e+00
0	 1.000000e+01	 3.629630e+00	 9.882444e+00
0	 1.000000e+01	 3.703704e+00	 9.888179e+00
0	 9.629630e+00	 3.703704e+00	 9.912809e+00
0	 9.629630e+00	 3.777778e+00	 9.917238e+00
0	 9.629630e+00	 3.851852e+00	 9.921568e+00
0	 9.629630e+00	 3.925926e+00	 9.925802e+00
0	 9.629630e+00	 4.000000e+00	 9.929940e+00
0	 9.629630e+00	 4.074074e+00	 9.933982e+00
0	 9.703704e+00	 3.703704e+00	 9.907508e+00
0	 9.703704e+00	 3.777778e+00	 9.912155e+00
0	 9.703704e+00	 3.851852e+00	 9.916699e+00
0	 9.703704e+00	 3.925926e+00	 9.921141e+00
0	 9.703704e+00	 4.000000e+00	 9.925481e+00
0	 9.703704e+00	 4.074074e+00	 9.929722e+00
0	 9.777778e+00	 3.703704e+00	 9.902376e+00
0	 9.777778e+00	 3.777778e+00	 9.907251e+00
0	 9.777778e+00	 3.851852e+00	 9.912017e+00
0	 9.777778e+00	 3.925926e+00	 9.916675e+00
0	 9.777778e+00	 4.000000e+00	 9.921226e+00
0	 9.777778e+00	 4.074074e+00	 9.925672e+00
0	 9.851852e+00	 3.703704e+00	 9.897432e+00
0	 9.851852e+00	 3.777778e+00	 9.902544e+00
0	 9.851852e+00	 3.851852e+00	 9.907542e+00
0	 9.851852e+00	 3.925926e+00	 9.912425e+00
0	 9.851852e+00	 4.000000e+00	 9.917195e+00
0	 9.851852e+00	 4.074074e+00	 9.921852e+00
0	 9.925926e+00	 3.703704e+00	 9.892693e+00
0	 9.925926e+00	 3.777778e+00	 9.898055e+00
0	 9.925926e+00	 3.851852e+00	 9.903293e+00
0	 9.925926e+00	 3.925926e+00	 9.908411e+00
0	 9.925926e+00	 4.000000e+00	 9.913408e+00
0	 9.925926e+00	 4.074074e+00	 9.918286e+00
0	 1.000000e+01	 3.703704e+00	 9.888179e+00
0	 1.000000e+01	 3.777778e+00	 9.893800e+00
0	 1.000000e+01	 3.851852e+00	 9.899291e+00
0	 1.000000e+01	 3.925926e+00	 9.904653e+00
0	 1.000000e+01	 4.000000e+00	 9.909886e+00
0	 1.000000e+01	 4.074074e+00	 9.914992e+00
0	 9.629630e+00	 4.074074e+00	 9.933982e+00
0	 9.629630e+00	 4.148148e+00	 9.937921e+00
0	 9.629630e+00	 4.222222e+00	 9.941746e+00
0	 9.629630e+00	 4.296296e+00	 9.945458e+00
0	 9.629630e+00	 4.370370e+00	 9.949058e+00
0	 9.629630e+00	 4.444444e+00	 9.952546e+00
0	 9.703704e+00	 4.074074e+00	 9.929722e+00
0	 9.703704e+00	 4.148148e+00	 9.933853e+00
0	 9.703704e+00	 4.222222e+00	 9.937865e+00
0	 9.703704e+00	 4.296296e+00	 9.941758e+00
0	 9.703704e+00	 4.370370e+00	 9.945532e+00
0	 9.703704e+00	 4.444444e+00	 9.949189e+00
0	 9.777778e+00	 4.074074e+00	 9.925672e+00
0	 9.777778e+00	 4.148148e+00	 9.930001e+00
0	 9.777778e+00	 4.222222e+00	 9.934205e+00
0	 9.777778e+00	 4.296296e+00	 9.938284e+00
0	 9.777778e+00	 4.370370e+00	 9.942238e+00
0	 9.777778e+00	 4.444444e+00	 9.946068e+00
0	 9.851852e+00	 4.074074e+00	 9.921852e+00
0	 9.851852e+00	 4.148148e+00	 9.926388e+00
0	 9.851852e+00	 4.222222e+00	 9.930790e+00
0	 9.851852e+00	 4.296296e+00	 9.935060e+00
0	 9.851852e+00	 4.370370e+00	 9.939197e+00
0	 9.851852e+00	 4.444444e+00	 9.943204e+00
0	 9.925926e+00	 4.074074e+00	 9.918286e+00
0	 9.925926e+00	 4.148148e+00	 9.923033e+00
0	 9.925926e+00	 4.222222e+00	 9.927640e+00
0	 9.925926e+00	 4.296296e+00	 9.932107e+00
0	 9.925926e+00	 4.370370e+00	 9.936433e+00
0	 9.925926e+00	 4.444444e+00	 9.940621e+00
0	 1.000000e+01	 4.074074e+00	 9.914992e+00
0	 1.000000e+01	 4.148148e+00	 9.919960e+00
0	 1.000000e+01	 4.222222e+00	 9.924778e+00
0	 1.000000e+01	 4.296296e+00	 9.929447e+00
0	 1.000000e+01	 4.370370e+00	 9.933968e+00
0	 1.000000e+01	 4.444444e+00	 9.938341e+00
0	 9.629630e+00	 4.444444e+00	 9.952546e+00
0	 9.629630e+00	 4.518519e+00	 9.955917e+00
0	 9.629630e+00	 4.592593e+00	 9.959167e+00
0	 9.629630e+00	 4.666667e+00	 9.962296e+00
0	 9.629630e+00	 4.740741e+00	 9.965303e+00
0	 9.629630e+00	 4.814815e+00	 9.968190e+00
0	 9.703704e+00	 4.444444e+00	 9.949189e+00
0	 9.703704e+00	 4.518519e+00	 9.952724e+00
0	 9.703704e+00	 4.592593e+00	 9.956130e+00
0	 9.703704e+00	 4.666667e+00	 9.959409e+00
0	 9.703704e+00	 4.740741e+00	 9.962561e+00
0	 9.703704e+00	 4.814815e+00	 9.965586e+00
0	 9.777778e+00	 4.444444e+00	 9.946068e+00
0	 9.777778e+00	 4.518519e+00	 9.949768e+00
0	 9.777778e+00	 4.592593e+00	 9.953334e+00
0	 9.777778e+00	 4.666667e+00	 9.956766e+00
0	 9.777778e+00	 4.740741e+00	 9.960064e+00
0	 9.777778e+00	 4.814815e+00	 9.963227e+00
0	 9.851852e+00	 4.444444e+00	 9.943204e+00
0	 9.851852e+00	 4.518519e+00	 9.947074e+00
0	 9.851852e+00	 4.592593e+00	 9.950802e+00
0	 9.851852e+00	 4.666667e+00	 9.954389e+00
0	 9.851852e+00	 4.740741e+00	 9.957834e+00
0	 9.851852e+00	 4.814815e+00	 9.961137e+00
0	 9.925926e+00	 4.444444e+00	 9.940621e+00
0	 9.925926e+00	 4.518519e+00	 9.944664e+00
0	 9.925926e+00	 4.592593e+00	 9.948557e+00
0	 9.925926e+00	 4.666667e+00	 9.952300e+00
0	 9.925926e+00	 4.740741e+00	 9.955894e+00
0	 9.925926e+00	 4.814815e+00	 9.959338e+00
0	 1.000000e+01	 4.444444e+00	 9.938341e+00
0	 1.000000e+01	 4.518519e+00	 9.942561e+00
0	 1.000000e+01	 4.592593e+00	 9.946621e+00
0	 1.000000e+01	 4.666667e+00	 9.950523e+00
0	 1.000000e+01	 4.740741e+00	 9.954267e+00
0	 1.000000e+01	 4.814815e+00	 9.957852e+00
0	 9.629630e+00	 4.814815e+00	 9.968190e+00
0	 9.629630e+00	 4.888889e+00	 9.970955e+00
0	 9.629630e+00	 4.962963e+00	 9.973597e+00
0	 9.629630e+00	 5.037037e+00	 9.976117e+00
0	 9.629630e+00	 5.111111e+00	 9.978515e+00
0	 9.629630e+00	 5.185185e+00	 9.980789e+00
0	 9.703704e+00	 4.814815e+00	 9.965586e+00
0	 9.703704e+00	 4.888889e+00	 9.968483e+00
0	 9.703704e+00	 4.962963e+00	 9.971251e+00
0	 9.703704e+00	 5.037037e+00	 9.973891e+00
0	 9.703704e+00	 5.111111e+00	 9.976401e+00
0	 9.703704e+00	 5.185185e+00	 9.978783e+00
0	 9.777778e+00	 4.814815e+00	 9.963227e+00
0	 9.777778e+00	 4.888889e+00	 9.966257e+00
0	 9.777778e+00	 4.962963e+00	 9.969151e+00
0	 9.777778e+00	 5.037037e+00	 9.971909e+00
0	 9.777778e+00	 5.111111e+00	 9.974532e+00
0	 9.777778e+00	 5.185185e+00	 9.977020e+00
0	 9.851852e+00	 4.814815e+00	 9.961137e+00
0	 9.851852e+00	 4.888889e+00	 9.964299e+00
0	 9.851852e+00	 4.962963e+00	 9.967318e+00
0	 9.851852e+00	 5.037037e+00	 9.970195e+00
0	 9.851852e+00	 5.111111e+00	 9.972929e+00
0	 9.851852e+00	 5.185185e+00	 9.975520e+00
0	 9.925926e+00	 4.814815e+00	 9.959338e+00
0	 9.925926e+00	 4.888889e+00	 9.962632e+00
0	 9.925926e+00	 4.962963e+00	 9.965776e+00
0	 9.925926e+00	 5.037037e+00	 9.968770e+00
0	 9.925926e+00	 5.111111e+00	 9.971613e+00
0	 9.925926e+00	 5.185185e+00	 9.974305e+00
0	 1.000000e+01	 4.814815e+00	 9.957852e+00
0	 1.000000e+01	 4.888889e+00	 9.961279e+00
0	 1.000000e+01	 4.962963e+00	 9.964547e+00
0	 1.000000e+01	 5.037037e+00	 9.967656e+00
0	 1.000000e+01	 5.111111e+00	 9.970606e+00
0	 1.000000e+01	 5.185185e+00	 9.973396e+00
0	 9.629630e+00	 5.185185e+00	 9.980789e+00
0	 9.629630e+00	 5.259259e+00	 9.982944e+00
0	 9.629630e+00	 5.333333e+00	 9.984981e+00
0	 9.629630e+00	 5.407407e+00	 9.986901e+00
0	 9.629630e+00	 5.481481e+00	 9.988704e+00
0	 9.629630e+00	 5.555556e+00	 9.990388e+00
0	 9.703704e+00	 5.185185e+00	 9.978783e+00
0	 9.703704e+00	 5.259259e+00	 9.981039e+00
0	 9.703704e+00	 5.333333e+00	 9.983173e+00
0	 9.703704e+00	 5.407407e+00	 9.985183e+00
0	 9.703704e+00	 5.481481e+00	 9.987069e+00
0	 9.703704e+00	 5.555556e+00	 9.988832e+00
0	 9.777778e+00	 5.185185e+00	 9.977020e+00
0	 9.777778e+00	 5.259259e+00	 9.979375e+00
0	 9.777778e+00	 5.333333e+00	 9.981601e+00
0	 9.777778e+00	 5.407407e+00	 9.983698e+00
0	 9.777778e+00	 5.481481e+00	 9.985665e+00
0	 9.777778e+00	 5.555556e+00	 9.987502e+00
0	 9.851852e+00	 5.185185e+00	 9.975520e+00
0	 9.851852e+00	 5.259259e+00	 9.977971e+00
0	 9.851852e+00	 5.333333e+00	 9.980288e+00
0	 9.851852e+00	 5.407407e+00	 9.982468e+00
0	 9.851852e+00	 5.481481e+00	 9.984512e+00
0	 9.851852e+00	 5.555556e+00	 9.986419e+00
0	 9.925926e+00	 5.185185e+00	 9.974305e+00
0	 9.925926e+00	 5.259259e+00	 9.976850e+00
0	 9.925926e+00	 5.333333e+00	 9.979253e+00
0	 9.925926e+00	 5.407407e+00	 9.981512e+00
0	 9.925926e+00	 5.481481e+00	 9.983628e+00
0	 9.925926e+00	 5.555556e+00	 9.985600e+00
0	 1.000000e+01	 5.185185e+00	 9.973396e+00
0	 1.000000e+01	 5.259259e+00	 9.976032e+00
0	 1.000000e+01	 5.333333e+00	 9.978517e+00
0	 1.000000e+01	 5.407407e+00	 9.980852e+00
0	 1.000000e+01	 5.481481e+00	 9.983035e+00
0	 1.000000e+01	 5.555556e+00	 9.985066e+00
0	 9.629630e+00	 5.555556e+00	 9.990388e+00
0	 9.629630e+00	 5.629630e+00	 9.991960e+00
0	 9.629630e+00	 5.703704e+00	 9.993426e+00
0	 9.629630e+00	 5.777778e+00	 9.994785e+00
0	 9.629630e+00	 5.851852e+00	 9.996037e+00
0	 9.629630e+00	 5.925926e+00	 9.997181e+00
0	 9.703704e+00	 5.555556e+00	 9.988832e+00
0	 9.703704e+00	 5.629630e+00	 9.990477e+00
0	 9.703704e+00	 5.703704e+00	 9.992011e+00
0	 9.703704e+00	 5.777778e+00	 9.993433e+00
0	 9.703704e+00	 5.851852e+00	 9.994742e+00
0	 9.703704e+00	 5.925926e+00	 9.995939e+00
0	 9.777778e+00	 5.555556e+00	 9.987502e+00
0	 9.777778e+00	 5.629630e+00	 9.989216e+00
0	 9.777778e+00	 5.703704e+00	 9.990813e+00
0	 9.777778e+00	 5.777778e+00	 9.992293e+00
0	 9.777778e+00	 5.851852e+00	 9.993655e+00
0	 9.777778e+00	 5.925926e+00	 9.994898e+00
0	 9.851852e+00	 5.555556e+00	 9.986419e+00
0	 9.851852e+00	 5.629630e+00	 9.988196e+00
0	 9.851852e+00	 5.703704e+00	 9.989851e+00
0	 9.851852e+00	 5.777778e+00	 9.991383e+00
0	 9.851852e+00	 5.851852e+00	 9.992791e+00
0	 9.851852e+00	 5.925926e+00	 9.994074e+00
0	 9.925926e+00	 5.555556e+00	 9.985600e+00
0	 9.925926e+00	 5.629630e+00	 9.987435e+00
0	 9.925926e+00	 5.703704e+00	 9.989142e+00
0	 9.925926e+00	 5.777778e+00	 9.990720e+00
0	 9.925926e+00	 5.851852e+00	 9.992168e+00
0	 9.925926e+00	 5.925926e+00	 9.993484e+00
0	 1.000000e+01	 5.555556e+00	 9.985066e+00
0	 1.000000e+01	 5.629630e+00	 9.986953e+00
0	 1.000000e+01	 5.703704e+00	 9.988705e+00
0	 1.000000e+01	 5.777778e+00	 9.990322e+00
0	 1.000000e+01	 5.851852e+00	 9.991801e+00
0	 1.000000e+01	 5.925926e+00	 9.993144e+00
0	 9.629630e+00	 5.925926e+00	 9.997181e+00
0	 9.629630e+00	 6.000000e+00	 9.998225e+00
0	 9.629630e+00	 6.074074e+00	 9.999178e+00
0	 9.629630e+00	 6.148148e+00	 1.000004e+01
0	 9.629630e+00	 6.222222e+00	 1.000081e+01
0	 9.629630e+00	 6.296296e+00	 1.000148e+01
0	 9.703704e+00	 5.925926e+00	 9.995939e+00
0	 9.703704e+00	 6.000000e+00	 9.997031e+00
0	 9.703704e+00	 6.074074e+00	 9.998028e+00
0	 9.703704e+00	 6.148148e+00	 9.998929e+00
0	 9.703704e+00	 6.222222e+00	 9.999733e+00
0	 9.703704e+00	 6.296296e+00	 1.000044e+01
0	 9.777778e+00	 5.925926e+00	 9.994898e+00
0	 9.777778e+00	 6.000000e+00	 9.996032e+00
0	 9.777778e+00	 6.074074e+00	 9.997067e+00
0	 9.777778e+00	 6.148148e+00	 9.998001e+00
0	 9.777778e+00	 6.222222e+00	 9.998834e+00
0	 9.777778e+00	 6.296296e+00	 9.999565e+00
0	 9.851852e+00	 5.925926e+00	 9.994074e+00
0	 9.851852e+00	 6.000000e+00	 9.995244e+00
0	 9.851852e+00	 6.074074e+00	 9.996309e+00
0	 9.851852e+00	 6.148148e+00	 9.997269e+00
0	 9.851852e+00	 6.222222e+00	 9.998124e+00
0	 9.851852e+00	 6.296296e+00	 9.998871e+00
0	 9.925926e+00	 5.925926e+00	 9.993484e+00
0	 9.925926e+00	 6.000000e+00	 9.994681e+00
0	 9.925926e+00	 6.074074e+00	 9.995769e+00
0	 9.925926e+00	 6.148148e+00	 9.996747e+00
0	 9.925926e+00	 6.222222e+00	 9.997614e+00
0	 9.925926e+00	 6.296296e+00	 9.998369e+00
0	 1.000000e+01	 5.925926e+00	 9.993144e+00
0	 1.000000e+01	 6.000000e+00	 9.994360e+00
0	 1.000000e+01	 6.074074e+00	 9.995462e+00
0	 1.000000e+01	 6.148148e+00	 9.996449e+00
0	 1.000000e+01	 6.222222e+00	 9.997320e+00
0	 1.000000e+01	 6.296296e+00	 9.998073e+00
0	 9.629630e+00	 6.296296e+00	 1.000148e+01
0	 9.629630e+00	 6.370370e+00	 1.000207e+01
0	 9.629630e+00	 6.444444e+00	 1.000259e+01
0	 9.629630e+00	 6.518519e+00	 1.000304e+01
0	 9.629630e+00	 6.592593e+00	 1.000341e+01
0	 9.629630e+00	 6.666667e+00	 1.000370e+01
0	 9.703704e+00	 6.296296e+00	 1.000044e+01
0	 9.703704e+00	 6.370370e+00	 1.000106e+01
0	 9.703704e+00	 6.444444e+00	 1.000160e+01
0	 9.703704e+00	 6.518519e+00	 1.000207e+01
0	 9.703704e+00	 6.592593e+00	 1.000246e+01
0	 9.703704e+00	 6.666667e+00	 1.000277e+01
0	 9.777778e+00	 6.296296e+00	 9.999565e+00
0	 9.777778e+00	 6.370370e+00	 1.000021e+01
0	 9.777778e+00	 6.444444e+00	 1.000077e+01
0	 9.777778e+00	 6.518519e+00	 1.000125e+01
0	 9.777778e+00	 6.592593e+00	 1.000165e+01
0	 9.777778e+00	 6.666667e+00	 1.000197e+01
0	 9.851852e+00	 6.296296e+00	 9.998871e+00
0	 9.851852e+00	 6.370370e+00	 9.999524e+00
0	 9.851852e+00	 6.444444e+00	 1.000009e+01
0	 9.851852e+00	 6.518519e+00	 1.000058e+01
0	 9.851852e+00	 6.592593e+00	 1.000098e+01
0	 9.851852e+00	 6.666667e+00	 1.000130e+01
0	 9.925926e+00	 6.296296e+00	 9.998369e+00
0	 9.925926e+00	 6.370370e+00	 9.999025e+00
0	 9.925926e+00	 6.444444e+00	 9.999596e+00
0	 9.925926e+00	 6.518519e+00	 1.000008e+01
0	 9.925926e+00	 6.592593e+00	 1.000047e+01
0	 9.925926e+00	 6.666667e+00	 1.000078e+01
0	 1.000000e+01	 6.296296e+00	 9.998073e+00
0	 1.000000e+01	 6.370370e+00	 9.998723e+00
0	 1.000000e+01	 6.444444e+00	 9.999283e+00
0	 1.000000e+01	 6.518519e+00	 9.999753e+00
0	 1.000000e+01	 6.592593e+00	 1.000013e+01
0	 1.000000e+01	 6.666667e+00	 1.000042e+01
0	 9.629630e+00	 6.666667e+00	 1.000370e+01
0	 9.629630e+00	 6.740741e+00	 1.000393e+01
0	 9.629630e+00	 6.814815e+00	 1.000411e+01
0	 9.629630e+00	 6.888889e+00	 1.000423e+01
0	 9.629630e+00	 6.962963e+00	 1.000430e+01
0	 9.629630e+00	 7.037037e+00	 1.000431e+01
0	 9.703704e+00	 6.666667e+00	 1.000277e+01
0	 9.703704e+00	 6.740741e+00	 1.000301e+01
0	 9.703704e+00	 6.814815e+00	 1.000320e+01
0	 9.703704e+00	 6.888889e+00	 1.000333e+01
0	 9.703704e+00	 6.962963e+00	 1.000341e+01
0	 9.703704e+00	 7.037037e+00	 1.000343e+01
0	 9.777778e+00	 6.666667e+00	 1.000197e+01
0	 9.777778e+00	 6.740741e+00	 1.000221e+01
0	 9.777778e+00	 6.814815e+00	 1.000241e+01
0	 9.777778e+00	 6.888889e+00	 1.000254e+01
0	 9.777778e+00	 6.962963e+00	 1.000262e+01
0	 9.777778e+00	 7.037037e+00	 1.000263e+01
0	 9.851852e+00	 6.666667e+00	 1.000130e+01
0	 9.851852e+00	 6.740741e+00	 1.000155e+01
0	 9.851852e+00	 6.814815e+00	 1.000173e+01
0	 9.851852e+00	 6.888889e+00	 1.000186e+01
0	 9.851852e+00	 6.962963e+00	 1.000192e+01
0	 9.851852e+00	 7.037037e+00	 1.000193e+01
0	 9.925926e+00	 6.666667e+00	 1.000078e+01
0	 9.925926e+00	 6.740741e+00	 1.000101e+01
0	 9.925926e+00	 6.814815e+00	 1.000118e+01
0	 9.925926e+00	 6.888889e+00	 1.000129e+01
0	 9.925926e+00	 6.962963e+00	 1.000134e+01
0	 9.925926e+00	 7.037037e+00	 1.000132e+01
0	 1.000000e+01	 6.666667e+00	 1.000042e+01
0	 1.000000e+01	 6.740741e+00	 1.000062e+01
0	 1.000000e+01	 6.814815e+00	 1.000077e+01
0	 1.000000e+01	 6.888889e+00	 1.000085e+01
0	 1.000000e+01	 6.962963e+00	 1.000087e+01
0	 1.000000e+01	 7.037037e+00	 1.000082e+01
0	 9.629630e+00	 7.037037e+00	 1.000431e+01
0	 9.629630e+00	 7.111111e+00	 1.000428e+01
0	 9.629630e+00	 7.185185e+00	 1.000422e+01
0	 9.629630e+00	 7.259259e+00	 1.000412e+01
0	 9.629630e+00	 7.333333e+00	 1.000398e+01
0	 9.629630e+00	 7.407407e+00	 1.000381e+01
0	 9.703704e+00	 7.037037e+00	 1.000343e+01
0	 9.703704e+00	 7.111111e+00	 1.000340e+01
0	 9.703704e+00	 7.185185e+00	 1.000334e+01
0	 9.703704e+00	 7.259259e+00	 1.000324e+01
0	 9.703704e+00	 7.333333e+00	 1.000311e+01
0	 9.703704e+00	 7.407407e+00	 1.000294e+01
0	 9.777778e+00	 7.037037e+00	 1.000263e+01
0	 9.777778e+00	 7.111111e+00	 1.000260e+01
0	 9.777778e+00	 7.185185e+00	 1.000254e+01
0	 9.777778e+00	 7.259259e+00	 1.000244e+01
0	 9.777778e+00	 7.333333e+00	 1.000230e+01
0	 9.777778e+00	 7.407407e+00	 1.000213e+01
0	 9.851852e+00	 7.037037e+00	 1.000193e+01
0	 9.851852e+00	 7.111111e+00	 1.000188e+01
0	 9.851852e+00	 7.185185e+00	 1.000181e+01
0	 9.851852e+00	 7.259259e+00	 1.000169e+01
0	 9.851852e+00	 7.333333e+00	 1.000154e+01
0	 9.851852e+00	 7.407407e+00	 1.000136e+01
0	 9.925926e+00	 7.037037e+00	 1.000132e+01
0	 9.925926e+00	 7.111111e+00	 1.000126e+01
0	 9.925926e+00	 7.185185e+00	 1.000116e+01
0	 9.925926e+00	 7.259259e+00	 1.000102e+01
0	 9.925926e+00	 7.333333e+00	 1.000085e+01
0	 9.925926e+00	 7.407407e+00	 1.000064e+01
0	 1.000000e+01	 7.037037e+00	 1.000082e+01
0	 1.000000e+01	 7.111111e+00	 1.000072e+01
0	 1.000000e+01	 7.185185e+00	 1.000058e+01
0	 1.000000e+01	 7.259259e+00	 1.000041e+01
0	 1.000000e+01	 7.333333e+00	 1.000021e+01
0	 1.000000e+01	 7.407407e+00	 9.999960e+00
0	 9.629630e+00	 7.407407e+00	 1.000381e+01
0	 9.629630e+00	 7.481481e+00	 1.000362e+01
0	 9.629630e+00	 7.555556e+00	 1.000341e+01
0	 9.629630e+00	 7.629630e+00	 1.000319e+01
0	 9.629630e+00	 7.703704e+00	 1.000295e+01
0	 9.629630e+00	 7.777778e+00	 1.000269e+01
0	 9.703704e+00	 7.407407e+00	 1.000294e+01
0	 9.703704e+00	 7.481481e+00	 1.000275e+01
0	 9.703704e+00	 7.555556e+00	 1.000255e+01
0	 9.703704e+00	 7.629630e+00	 1.000233e+01
0	 9.703704e+00	 7.703704e+00	 1.000210e+01
0	 9.703704e+00	 7.777778e+00	 1.000185e+01
0	 9.777778e+00	 7.407407e+00	 1.000213e+01
0	 9.777778e+00	 7.481481e+00	 1.000193e+01
0	 9.777778e+00	 7.555556e+00	 1.000172e+01
0	 9.777778e+00	 7.629630e+00	 1.000150e+01
0	 9.777778e+00	 7.703704e+00	 1.000126e+01
0	 9.777778e+00	 7.777778e+00	 1.000101e+01
0	 9.851852e+00	 7.407407e+00	 1.000136e+01
0	 9.851852e+00	 7.481481e+00	 1.000115e+01
0	 9.851852e+00	 7.555556e+00	 1.000093e+01
0	 9.851852e+00	 7.629630e+00	 1.000069e+01
0	 9.851852e+00	 7.703704e+00	 1.000045e+01
0	 9.851852e+00	 7.777778e+00	 1.000019e+01
0	 9.925926e+00	 7.407407e+00	 1.000064e+01
0	 9.925926e+00	 7.481481e+00	 1.000040e+01
0	 9.925926e+00	 7.555556e+00	 1.000016e+01
0	 9.925926e+00	 7.629630e+00	 9.999905e+00
0	 9.925926e+00	 7.703704e+00	 9.999639e+00
0	 9.925926e+00	 7.777778e+00	 9.999362e+00
0	 1.000000e+01	 7.407407e+00	 9.999960e+00
0	 1.000000e+01	 7.481481e+00	 9.999692e+00
0	 1.000000e+01	 7.555556e+00	 9.999417e+00
0	 1.000000e+01	 7.629630e+00	 9.999132e+00
0	 1.000000e+01	 7.703704e+00	 9.998838e+00
0	 1.000000e+01	 7.777778e+00	 9.998533e+00
0	 9.629630e+00	 7.777778e+00	 1.000269e+01
0	 9.629630e+00	 7.851852e+00	 1.000243e+01
0	 9.629630e+00	 7.925926e+00	 1.000217e+01
0	 9.629630e+00	 8.000000e+00	 1.000192e+01
0	 9.629630e+00	 8.074074e+00	 1.000166e+01
0	 9.629630e+00	 8.148148e+00	 1.000141e+01
0	 9.703704e+00	 7.777778e+00	 1.000185e+01
0	 9.703704e+00	 7.851852e+00	 1.000159e+01
0	 9.703704e+00	 7.925926e+00	 1.000134e+01
0	 9.703704e+00	 8.000000e+00	 1.000110e+01
0	 9.703704e+00	 8.074074e+00	 1.000085e+01
0	 9.703704e+00	 8.148148e+00	 1.000061e+01
0	 9.777778e+00	 7.777778e+00	 1.000101e+01
0	 9.777778e+00	 7.851852e+00	 1.000076e+01
0	 9.777778e+00	 7.925926e+00	 1.000051e+01
0	 9.777778e+00	 8.000000e+00	 1.000027e+01
0	 9.777778e+00	 8.074074e+00	 1.000003e+01
0	 9.777778e+00	 8.148148e+00	 9.999801e+00
0	 9.851852e+00	 7.777778e+00	 1.000019e+01
0	 9.851852e+00	 7.851852e+00	 9.999924e+00
0	 9.851852e+00	 7.925926e+00	 9.999671e+00
0	 9.851852e+00	 8.000000e+00	 9.999428e+00
0	 9.851852e+00	 8.074074e+00	 9.999192e+00
0	 9.851852e+00	 8.148148e+00	 9.998963e+00
0	 9.925926e+00	 7.777778e+00	 9.999362e+00
0	 9.925926e+00	 7.851852e+00	 9.999084e+00
0	 9.925926e+00	 7.925926e+00	 9.998819e+00
0	 9.925926e+00	 8.000000e+00	 9.998565e+00
0	 9.925926e+00	 8.074074e+00	 9.998323e+00
0	 9.925926e+00	 8.148148e+00	 9.998090e+00
0	 1.000000e+01	 7.777778e+00	 9.998533e+00
0	 1.000000e+01	 7.851852e+00	 9.998231e+00
0	 1.000000e+01	 7.925926e+00	 9.997944e+00
0	 1.000000e+01	 8.000000e+00	 9.997673e+00
0	 1.000000e+01	 8.074074e+00	 9.997415e+00
0	 1.000000e+01	 8.148148e+00	 9.997171e+00
0	 9.629630e+00	 8.148148e+00	 1.000141e+01
0	 9.629630e+00	 8.222222e+00	 1.000116e+01
0	 9.629630e+00	 8.296296e+00	 1.000093e+01
0	 9.629630e+00	 8.370370e+00	 1.000071e+01
0	 9.629630e+00	 8.444444e+00	 1.000051e+01
0	 9.629630e+00	 8.518519e+00	 1.000032e+01
0	 9.703704e+00	 8.148148e+00	 1.000061e+01
0	 9.703704e+00	 8.222222e+00	 1.000038e+01
0	 9.703704e+00	 8.296296e+00	 1.000017e+01
0	 9.703704e+00	 8.370370e+00	 9.999973e+00
0	 9.703704e+00	 8.444444e+00	 9.999793e+00
0	 9.703704e+00	 8.518519e+00	 9.999630e+00
0	 9.777778e+00	 8.148148e+00	 9.999801e+00
0	 9.777778e+00	 8.222222e+00	 9.999582e+00
0	 9.777778e+00	 8.296296e+00	 9.999383e+00
0	 9.777778e+00	 8.370370e+00	 9.999205e+00
0	 9.777778e+00	 8.444444e+00	 9.999046e+00
0	 9.777778e+00	 8.518519e+00	 9.998906e+00
0	 9.851852e+00	 8.148148e+00	 9.998963e+00
0	 9.851852e+00	 8.222222e+00	 9.998750e+00
0	 9.851852e+00	 8.296296e+00	 9.998562e+00
0	 9.851852e+00	 8.370370e+00	 9.998397e+00
0	 9.851852e+00	 8.444444e+00	 9.998255e+00
0	 9.851852e+00	 8.518519e+00	 9.998136e+00
0	 9.925926e+00	 8.148148e+00	 9.998090e+00
0	 9.925926e+00	 8.222222e+00	 9.997877e+00
0	 9.925926e+00	 8.296296e+00	 9.997692e+00
0	 9.925926e+00	 8.370370e+00	 9.997536e+00
0	 9.925926e+00	 8.444444e+00	 9.997408e+00
0	 9.925926e+00	 8.518519e+00	 9.997307e+00
0	 1.000000e+01	 8.148148e+00	 9.997171e+00
0	 1.000000e+01	 8.222222e+00	 9.996950e+00
0	 1.000000e+01	 8.296296e+00	 9.996764e+00
0	 1.000000e+01	 8.370370e+00	 9.996612e+00
0	 1.000000e+01	 8.444444e+00	 9.996493e+00
0	 1.000000e+01	 8.518519e+00	 9.996406e+00
0	 9.629630e+00	 8.518519e+00	 1.000032e+01
0	 9.629630e+00	 8.592593e+00	 1.000015e+01
0	 9.629630e+00	 8.666667e+00	 9.999996e+00
0	 9.629630e+00	 8.740741e+00	 9.999865e+00
0	 9.629630e+00	 8.814815e+00	 9.999756e+00
0	 9.629630e+00	 8.888889e+00	 9.999666e+00
0	 9.703704e+00	 8.518519e+00	 9.999630e+00
0	 9.703704e+00	 8.592593e+00	 9.999485e+00
0	 9.703704e+00	 8.666667e+00	 9.999365e+00
0	 9.703704e+00	 8.740741e+00	 9.999269e+00
0	 9.703704e+00	 8.814815e+00	 9.999197e+00
0	 9.703704e+00	 8.888889e+00	 9.999148e+00
0	 9.777778e+00	 8.518519e+00	 9.998906e+00
0	 9.777778e+00	 8.592593e+00	 9.998789e+00
0	 9.777778e+00	 8.666667e+00	 9.998699e+00
0	 9.777778e+00	 8.740741e+00	 9.998637e+00
0	 9.777778e+00	 8.814815e+00	 9.998601e+00
0	 9.777778e+00	 8.888889e+00	 9.998593e+00
0	 9.851852e+00	 8.518519e+00	 9.998136e+00
0	 9.851852e+00	 8.592593e+00	 9.998044e+00
0	 9.851852e+00	 8.666667e+00	 9.997983e+00
0	 9.851852e+00	 8.740741e+00	 9.997954e+00
0	 9.851852e+00	 8.814815e+00	 9.997955e+00
0	 9.851852e+00	 8.888889e+00	 9.997988e+00
0	 9.925926e+00	 8.518519e+00	 9.997307e+00
0	 9.925926e+00	 8.592593e+00	 9.997238e+00
0	 9.925926e+00	 8.666667e+00	 9.997205e+00
0	 9.925926e+00	 8.740741e+00	 9.997208e+00
0	 9.925926e+00	 8.814815e+00	 9.997246e+00
0	 9.925926e+00	 8.888889e+00	 9.997321e+00
0	 1.000000e+01	 8.518519e+00	 9.996406e+00
0	 1.000000e+01	 8.592593e+00	 9.996358e+00
0	 1.000000e+01	 8.666667e+00	 9.996351e+00
0	 1.000000e+01	 8.740741e+00	 9.996385e+00
0	 1.000000e+01	 8.814815e+00	 9.996461e+00
0	 1.000000e+01	 8.888889e+00	 9.996579e+00
0	 9.629630e+00	 8.888889e+00	 9.999666e+00
0	 9.629630e+00	 8.962963e+00	 9.999597e+00
0	 9.629630e+00	 9.037037e+00	 9.999546e+00
0	 9.629630e+00	 9.111111e+00	 9.999514e+00
0	 9.629630e+00	 9.185185e+00	 9.999501e+00
0	 9.629630e+00	 9.259259e+00	 9.999506e+00
0	 9.703704e+00	 8.888889e+00	 9.999148e+00
0	 9.703704e+00	 8.962963e+00	 9.999120e+00
0	 9.703704e+00	 9.037037e+00	 9.999111e+00
0	 9.703704e+00	 9.111111e+00	 9.999122e+00
0	 9.703704e+00	 9.185185e+00	 9.999153e+00
0	 9.703704e+00	 9.259259e+00	 9.999204e+00
0	 9.777778e+00	 8.888889e+00	 9.998593e+00
0	 9.777778e+00	 8.962963e+00	 9.998608e+00
0	 9.777778e+00	 9.037037e+00	 9.998644e+00
0	 9.777778e+00	 9.111111e+00	 9.998701e+00
0	 9.777778e+00	 9.185185e+00	 9.998780e+00
0	 9.777778e+00	 9.259259e+00	 9.998880e+00
0	 9.851852e+00	 8.888889e+00	 9.997988e+00
0	 9.851852e+00	 8.962963e+00	 9.998048e+00
0	 9.851852e+00	 9.037037e+00	 9.998132e+00
0	 9.851852e+00	 9.111111e+00	 9.998240e+00
0	 9.851852e+00	 9.185185e+00	 9.998373e+00
0	 9.851852e+00	 9.259259e+00	 9.998532e+00
0	 9.925926e+00	 8.888889e+00	 9.997321e+00
0	 9.925926e+00	 8.962963e+00	 9.997428e+00
0	 9.925926e+00	 9.037037e+00	 9.997564e+00
0	 9.925926e+00	 9.111111e+00	 9.997730e+00
0	 9.925926e+00	 9.185185e+00	 9.997927e+00
0	 9.925926e+00	 9.259259e+00	 9.998155e+00
0	 1.000000e+01	 8.888889e+00	 9.996579e+00
0	 1.000000e+01	 8.962963e+00	 9.996735e+00
0	 1.000000e+01	 9.037037e+00	 9.996929e+00
0	 1.000000e+01	 9.111111e+00	 9.997162e+00
0	 1.000000e+01	 9.185185e+00	 9.997434e+00
0	 1.000000e+01	 9.259259e+00	 9.997747e+00
0	 9.629630e+00	 9.259259e+00	 9.999506e+00
0	 9.629630e+00	 9.333333e+00	 9.999527e+00
0	 9.629630e+00	 9.407407e+00	 9.999561e+00
0	 9.629630e+00	 9.481481e+00	 9.999609e+00
0	 9.629630e+00	 9.555556e+00	 9.999670e+00
0	 9.629630e+00	 9.629630e+00	 9.999746e+00
0	 9.703704e+00	 9.259259e+00	 9.999204e+00
0	 9.703704e+00	 9.333333e+00	 9.999270e+00
0	 9.703704e+00	 9.407407e+00	 9.999346e+00
0	 9.703704e+00	 9.481481e+00	 9.999432e+00
0	 9.703704e+00	 9.555556e+00	 9.999530e+00
0	 9.703704e+00	 9.629630e+00	 9.999638e+00
0	 9.777778e+00	 9.259259e+00	 9.998880e+00
0	 9.777778e+00	 9.333333e+00	 9.998996e+00
0	 9.777778e+00	 9.407407e+00	 9.999118e+00
0	 9.777778e+00	 9.481481e+00	 9.999247e+00
0	 9.777778e+00	 9.555556e+00	 9.999383e+00
0	 9.777778e+00	 9.629630e+00	 9.999528e+00
0	 9.851852e+00	 9.259259e+00	 9.998532e+00
0	 9.851852e+00	 9.333333e+00	 9.998705e+00
0	 9.851852e+00	 9.407407e+00	 9.998881e+00
0	 9.851852e+00	 9.481481e+00	 9.999061e+00
0	 9.851852e+00	 9.555556e+00	 9.999246e+00
0	 9.851852e+00	 9.629630e+00	 9.999435e+00
0	 9.925926e+00	 9.259259e+00	 9.998155e+00
0	 9.925926e+00	 9.333333e+00	 9.998399e+00
0	 9.925926e+00	 9.407407e+00	 9.998642e+00
0	 9.925926e+00	 9.481481e+00	 9.998885e+00
0	 9.925926e+00	 9.555556e+00	 9.999130e+00
0	 9.925926e+00	 9.629630e+00	 9.999378e+00
0	 1.000000e+01	 9.259259e+00	 9.997747e+00
0	 1.000000e+01	 9.333333e+00	 9.998078e+00
0	 1.000000e+01	 9.407407e+00	 9.998404e+00
0	 1.000000e+01	 9.481481e+00	 9.998728e+00
0	 1.000000e+01	 9.555556e+00	 9.999051e+00
0	 1.000000e+01	 9.629630e+00	 9.999377e+00
0	 9.629630e+00	 9.629630e+00	 9.999746e+00
0	 9.629630e+00	 9.703704e+00	 9.999818e+00
0	 9.629630e+00	 9.777778e+00	 9.999873e+00
0	 9.629630e+00	 9.851852e+00	 9.999921e+00
0	 9.629630e+00	 9.925926e+00	 9.999973e+00
0	 9.629630e+00	 1.000000e+01	 1.000004e+01
0	 9.703704e+00	 9.629630e+00	 9.999638e+00
0	 9.703704e+00	 9.703704e+00	 9.999738e+00
0	 9.703704e+00	 9.777778e+00	 9.999818e+00
0	 9.703704e+00	 9.851852e+00	 9.999888e+00
0	 9.703704e+00	 9.925926e+00	 9.999960e+00
0	 9.703704e+00	 1.000000e+01	 1.000004e+01
0	 9.777778e+00	 9.629630e+00	 9.999528e+00
0	 9.777778e+00	 9.703704e+00	 9.999660e+00
0	 9.777778e+00	 9.777778e+00	 9.999766e+00
0	 9.777778e+00	 9.851852e+00	 9.999857e+00
0	 9.777778e+00	 9.925926e+00	 9.999943e+00
0	 9.777778e+00	 1.000000e+01	 1.000004e+01
0	 9.851852e+00	 9.629630e+00	 9.999435e+00
0	 9.851852e+00	 9.703704e+00	 9.999606e+00
0	 9.851852e+00	 9.777778e+00	 9.999740e+00
0	 9.851852e+00	 9.851852e+00	 9.999849e+00
0	 9.851852e+00	 9.925926e+00	 9.999941e+00
0	 9.851852e+00	 1.000000e+01	 1.000003e+01
0	 9.925926e+00	 9.629630e+00	 9.999378e+00
0	 9.925926e+00	 9.703704e+00	 9.999599e+00
0	 9.925926e+00	 9.777778e+00	 9.999765e+00
0	 9.925926e+00	 9.851852e+00	 9.999886e+00
0	 9.925926e+00	 9.925926e+00	 9.999969e+00
0	 9.925926e+00	 1.000000e+01	 1.000002e+01
0	 1.000000e+01	 9.629630e+00	 9.999377e+00
0	 1.000000e+01	 9.703704e+00	 9.999662e+00
0	 1.000000e+01	 9.777778e+00	 9.999865e+00
0	 1.000000e+01	 9.851852e+00	 9.999992e+00
0	 1.000000e+01	 9.925926e+00	 1.000005e+01
0	 1.000000e+01	 1.000000e+01	 1.000003e+01
