patch_n	x	y	stress_yy
0	 0.000000e+00	 0.000000e+00	-7.660130e-01
0	 0.000000e+00	 1.176471e-01	 1.005739e+00
0	 0.000000e+00	 2.352941e-01	 1.823720e+00
0	 0.000000e+00	 3.529412e-01	 1.625101e+00
0	 0.000000e+00	 4.705882e-01	 3.470480e-01
0	 0.000000e+00	 5.882353e-01	-2.073270e+00
0	 1.176471e-01	 0.000000e+00	-2.148516e+00
0	 1.176471e-01	 1.176471e-01	 5.133157e-01
0	 1.176471e-01	 2.352941e-01	 1.980840e+00
0	 1.176471e-01	 3.529412e-01	 2.130917e+00
0	 1.176471e-01	 4.705882e-01	 8.404040e-01
0	 1.176471e-01	 5.882353e-01	-2.013839e+00
0	 2.352941e-01	 0.000000e+00	-2.140961e+00
0	 2.352941e-01	 1.176471e-01	 2.559193e-01
0	 2.352941e-01	 2.352941e-01	 1.623479e+00
0	 2.352941e-01	 3.529412e-01	 1.822751e+00
0	 2.352941e-01	 4.705882e-01	 7.147697e-01
0	 2.352941e-01	 5.882353e-01	-1.839432e+00
0	 3.529412e-01	 0.000000e+00	-1.184216e+00
0	 3.529412e-01	 1.176471e-01	 2.271533e-01
0	 3.529412e-01	 2.352941e-01	 1.023629e+00
0	 3.529412e-01	 3.529412e-01	 1.094904e+00
0	 3.529412e-01	 4.705882e-01	 3.306671e-01
0	 3.529412e-01	 5.882353e-01	-1.379388e+00
0	 4.705882e-01	 0.000000e+00	 2.808485e-01
0	 4.705882e-01	 1.176471e-01	 4.206215e-01
0	 4.705882e-01	 2.352941e-01	 4.532850e-01
0	 4.705882e-01	 3.529412e-01	 3.416726e-01
0	 4.705882e-01	 4.705882e-01	 4.861785e-02
0	 4.705882e-01	 5.882353e-01	-4.630458e-01
0	 5.882353e-01	 0.000000e+00	 1.813366e+00
0	 5.882353e-01	 1.176471e-01	 8.299278e-01
0	 5.882353e-01	 2.352941e-01	 1.844387e-01
0	 5.882353e-01	 3.529412e-01	-4.264244e-02
0	 5.882353e-01	 4.705882e-01	 2.291438e-01
0	 5.882353e-01	 5.882353e-01	 1.080257e+00
0	 0.000000e+00	 5.882353e-01	-2.073270e+00
0	 0.000000e+00	 7.058824e-01	-3.127011e+00
0	 0.000000e+00	 8.235294e-01	-2.201563e-01
0	 0.000000e+00	 9.411765e-01	 6.712233e+00
0	 0.000000e+00	 1.058824e+00	 1.773509e+01
0	 0.000000e+00	 1.176471e+00	 3.291337e+01
0	 1.176471e-01	 5.882353e-01	-2.013839e+00
0	 1.176471e-01	 7.058824e-01	-3.622732e+00
0	 1.176471e-01	 8.235294e-01	-1.045575e+00
0	 1.176471e-01	 9.411765e-01	 5.791919e+00
0	 1.176471e-01	 1.058824e+00	 1.696404e+01
0	 1.176471e-01	 1.176471e+00	 3.254507e+01
0	 2.352941e-01	 5.882353e-01	-1.839432e+00
0	 2.352941e-01	 7.058824e-01	-3.166152e+00
0	 2.352941e-01	 8.235294e-01	-4.502675e-01
0	 2.352941e-01	 9.411765e-01	 6.381379e+00
0	 2.352941e-01	 1.058824e+00	 1.740195e+01
0	 2.352941e-01	 1.176471e+00	 3.268459e+01
0	 3.529412e-01	 5.882353e-01	-1.379388e+00
0	 3.529412e-01	 7.058824e-01	-1.821789e+00
0	 3.529412e-01	 8.235294e-01	 1.331512e+00
0	 3.529412e-01	 9.411765e-01	 8.142066e+00
0	 3.529412e-01	 1.058824e+00	 1.867142e+01
0	 3.529412e-01	 1.176471e+00	 3.298113e+01
0	 4.705882e-01	 5.882353e-01	-4.630458e-01
0	 4.705882e-01	 7.058824e-01	 3.458374e-01
0	 4.705882e-01	 8.235294e-01	 4.065510e+00
0	 4.705882e-01	 9.411765e-01	 1.073543e+01
0	 4.705882e-01	 1.058824e+00	 2.039507e+01
0	 4.705882e-01	 1.176471e+00	 3.308389e+01
0	 5.882353e-01	 5.882353e-01	 1.080257e+00
0	 5.882353e-01	 7.058824e-01	 3.272209e+00
0	 5.882353e-01	 8.235294e-01	 7.517470e+00
0	 5.882353e-01	 9.411765e-01	 1.382294e+01
0	 5.882353e-01	 1.058824e+00	 2.219551e+01
0	 5.882353e-01	 1.176471e+00	 3.264208e+01
0	 0.000000e+00	 1.176471e+00	 3.291337e+01
0	 0.000000e+00	 1.294118e+00	 4.695998e+01
0	 0.000000e+00	 1.411765e+00	 5.450500e+01
0	 0.000000e+00	 1.529412e+00	 5.548906e+01
0	 0.000000e+00	 1.647059e+00	 4.985281e+01
0	 0.000000e+00	 1.764706e+00	 3.753688e+01
0	 1.176471e-01	 1.176471e+00	 3.254507e+01
0	 1.176471e-01	 1.294118e+00	 4.705328e+01
0	 1.176471e-01	 1.411765e+00	 5.492485e+01
0	 1.176471e-01	 1.529412e+00	 5.611102e+01
0	 1.176471e-01	 1.647059e+00	 5.056298e+01
0	 1.176471e-01	 1.764706e+00	 3.823196e+01
0	 2.352941e-01	 1.176471e+00	 3.268459e+01
0	 2.352941e-01	 1.294118e+00	 4.686027e+01
0	 2.352941e-01	 1.411765e+00	 5.448526e+01
0	 2.352941e-01	 1.529412e+00	 5.552075e+01
0	 2.352941e-01	 1.647059e+00	 4.992793e+01
0	 2.352941e-01	 1.764706e+00	 3.766797e+01
0	 3.529412e-01	 1.176471e+00	 3.298113e+01
0	 3.529412e-01	 1.294118e+00	 4.609669e+01
0	 3.529412e-01	 1.411765e+00	 5.298294e+01
0	 3.529412e-01	 1.529412e+00	 5.361040e+01
0	 3.529412e-01	 1.647059e+00	 4.794964e+01
0	 3.529412e-01	 1.764706e+00	 3.597119e+01
0	 4.705882e-01	 1.176471e+00	 3.308389e+01
0	 4.705882e-01	 1.294118e+00	 4.447830e+01
0	 4.705882e-01	 1.411765e+00	 5.021460e+01
0	 4.705882e-01	 1.529412e+00	 5.027209e+01
0	 4.705882e-01	 1.647059e+00	 4.463009e+01
0	 4.705882e-01	 1.764706e+00	 3.326789e+01
0	 5.882353e-01	 1.176471e+00	 3.264208e+01
0	 5.882353e-01	 1.294118e+00	 4.172082e+01
0	 5.882353e-01	 1.411765e+00	 4.597696e+01
0	 5.882353e-01	 1.529412e+00	 4.539795e+01
0	 5.882353e-01	 1.647059e+00	 3.997126e+01
0	 5.882353e-01	 1.764706e+00	 2.968435e+01
0	 0.000000e+00	 1.764706e+00	 3.753688e+01
0	 0.000000e+00	 1.882353e+00	 2.361966e+01
0	 0.000000e+00	 2.000000e+00	 1.324369e+01
0	 0.000000e+00	 2.117647e+00	 6.445886e+00
0	 0.000000e+00	 2.235294e+00	 3.263173e+00
0	 0.000000e+00	 2.352941e+00	 3.732461e+00
0	 1.176471e-01	 1.764706e+00	 3.823196e+01
0	 1.176471e-01	 1.882353e+00	 2.425012e+01
0	 1.176471e-01	 2.000000e+00	 1.380110e+01
0	 1.176471e-01	 2.117647e+00	 6.913278e+00
0	 1.176471e-01	 2.235294e+00	 3.615064e+00
0	 1.176471e-01	 2.352941e+00	 3.934849e+00
0	 2.352941e-01	 1.764706e+00	 3.766797e+01
0	 2.352941e-01	 1.882353e+00	 2.382318e+01
0	 2.352941e-01	 2.000000e+00	 1.351472e+01
0	 2.352941e-01	 2.117647e+00	 6.761992e+00
0	 2.352941e-01	 2.235294e+00	 3.584438e+00
0	 2.352941e-01	 2.352941e+00	 4.001482e+00
0	 3.529412e-01	 1.764706e+00	 3.597119e+01
0	 3.529412e-01	 1.882353e+00	 2.256996e+01
0	 3.529412e-01	 2.000000e+00	 1.266717e+01
0	 3.529412e-01	 2.117647e+00	 6.272830e+00
0	 3.529412e-01	 2.235294e+00	 3.396938e+00
0	 3.529412e-01	 2.352941e+00	 4.049505e+00
0	 4.705882e-01	 1.764706e+00	 3.326789e+01
0	 4.705882e-01	 1.882353e+00	 2.072157e+01
0	 4.705882e-01	 2.000000e+00	 1.154110e+01
0	 4.705882e-01	 2.117647e+00	 5.726594e+00
0	 4.705882e-01	 2.235294e+00	 3.278205e+00
0	 4.705882e-01	 2.352941e+00	 4.196065e+00
0	 5.882353e-01	 1.764706e+00	 2.968435e+01
0	 5.882353e-01	 1.882353e+00	 1.850914e+01
0	 5.882353e-01	 2.000000e+00	 1.041911e+01
0	 5.882353e-01	 2.117647e+00	 5.404086e+00
0	 5.882353e-01	 2.235294e+00	 3.453879e+00
0	 5.882353e-01	 2.352941e+00	 4.558307e+00
0	 0.000000e+00	 2.352941e+00	 3.732461e+00
0	 0.000000e+00	 2.470588e+00	 5.779059e+00
0	 0.000000e+00	 2.588235e+00	 7.289729e+00
0	 0.000000e+00	 2.705882e+00	 8.243565e+00
0	 0.000000e+00	 2.823529e+00	 8.619660e+00
0	 0.000000e+00	 2.941176e+00	 8.397107e+00
0	 1.176471e-01	 2.352941e+00	 3.934849e+00
0	 1.176471e-01	 2.470588e+00	 5.830296e+00
0	 1.176471e-01	 2.588235e+00	 7.230235e+00
0	 1.176471e-01	 2.705882e+00	 8.119818e+00
0	 1.176471e-01	 2.823529e+00	 8.484197e+00
0	 1.176471e-01	 2.941176e+00	 8.308521e+00
0	 2.352941e-01	 2.352941e+00	 4.001482e+00
0	 2.352941e-01	 2.470588e+00	 5.959323e+00
0	 2.352941e-01	 2.588235e+00	 7.385709e+00
0	 2.352941e-01	 2.705882e+00	 8.272386e+00
0	 2.352941e-01	 2.823529e+00	 8.611099e+00
0	 2.352941e-01	 2.941176e+00	 8.393596e+00
0	 3.529412e-01	 2.352941e+00	 4.049505e+00
0	 3.529412e-01	 2.470588e+00	 6.167655e+00
0	 3.529412e-01	 2.588235e+00	 7.681091e+00
0	 3.529412e-01	 2.705882e+00	 8.588694e+00
0	 3.529412e-01	 2.823529e+00	 8.889341e+00
0	 3.529412e-01	 2.941176e+00	 8.581911e+00
0	 4.705882e-01	 2.352941e+00	 4.196065e+00
0	 4.705882e-01	 2.470588e+00	 6.456804e+00
0	 4.705882e-01	 2.588235e+00	 8.041323e+00
0	 4.705882e-01	 2.705882e+00	 8.956171e+00
0	 4.705882e-01	 2.823529e+00	 9.207896e+00
0	 4.705882e-01	 2.941176e+00	 8.803046e+00
0	 5.882353e-01	 2.352941e+00	 4.558307e+00
0	 5.882353e-01	 2.470588e+00	 6.828283e+00
0	 5.882353e-01	 2.588235e+00	 8.391343e+00
0	 5.882353e-01	 2.705882e+00	 9.262243e+00
0	 5.882353e-01	 2.823529e+00	 9.455738e+00
0	 5.882353e-01	 2.941176e+00	 8.986582e+00
0	 0.000000e+00	 2.941176e+00	 8.397107e+00
0	 0.000000e+00	 3.058824e+00	 7.949338e+00
0	 0.000000e+00	 3.176471e+00	 7.673106e+00
0	 0.000000e+00	 3.294118e+00	 7.582487e+00
0	 0.000000e+00	 3.411765e+00	 7.691554e+00
0	 0.000000e+00	 3.529412e+00	 8.014384e+00
0	 1.176471e-01	 2.941176e+00	 8.308521e+00
0	 1.176471e-01	 3.058824e+00	 7.933551e+00
0	 1.176471e-01	 3.176471e+00	 7.715411e+00
0	 1.176471e-01	 3.294118e+00	 7.662300e+00
0	 1.176471e-01	 3.411765e+00	 7.782420e+00
0	 1.176471e-01	 3.529412e+00	 8.083970e+00
0	 2.352941e-01	 2.941176e+00	 8.393596e+00
0	 2.352941e-01	 3.058824e+00	 7.982085e+00
0	 2.352941e-01	 3.176471e+00	 7.746132e+00
0	 2.352941e-01	 3.294118e+00	 7.688523e+00
0	 2.352941e-01	 3.411765e+00	 7.812042e+00
0	 2.352941e-01	 3.529412e+00	 8.119475e+00
0	 3.529412e-01	 2.941176e+00	 8.581911e+00
0	 3.529412e-01	 3.058824e+00	 8.076397e+00
0	 3.529412e-01	 3.176471e+00	 7.782094e+00
0	 3.529412e-01	 3.294118e+00	 7.696828e+00
0	 3.529412e-01	 3.411765e+00	 7.818430e+00
0	 3.529412e-01	 3.529412e+00	 8.144727e+00
0	 4.705882e-01	 2.941176e+00	 8.803046e+00
0	 4.705882e-01	 3.058824e+00	 8.197948e+00
0	 4.705882e-01	 3.176471e+00	 7.840119e+00
0	 4.705882e-01	 3.294118e+00	 7.722890e+00
0	 4.705882e-01	 3.411765e+00	 7.839592e+00
0	 4.705882e-01	 3.529412e+00	 8.183556e+00
0	 5.882353e-01	 2.941176e+00	 8.986582e+00
0	 5.882353e-01	 3.058824e+00	 8.328197e+00
0	 5.882353e-01	 3.176471e+00	 7.937033e+00
0	 5.882353e-01	 3.294118e+00	 7.802382e+00
0	 5.882353e-01	 3.411765e+00	 7.913537e+00
0	 5.882353e-01	 3.529412e+00	 8.259793e+00
0	 0.000000e+00	 3.529412e+00	 8.014384e+00
0	 0.000000e+00	 3.647059e+00	 8.407798e+00
0	 0.000000e+00	 3.764706e+00	 8.713288e+00
0	 0.000000e+00	 3.882353e+00	 8.921937e+00
0	 0.000000e+00	 4.000000e+00	 9.024825e+00
0	 0.000000e+00	 4.117647e+00	 9.013035e+00
0	 1.176471e-01	 3.529412e+00	 8.083970e+00
0	 1.176471e-01	 3.647059e+00	 8.439208e+00
0	 1.176471e-01	 3.764706e+00	 8.711799e+00
0	 1.176471e-01	 3.882353e+00	 8.897059e+00
0	 1.176471e-01	 4.000000e+00	 8.990302e+00
0	 1.176471e-01	 4.117647e+00	 8.986844e+00
0	 2.352941e-01	 3.529412e+00	 8.119475e+00
0	 2.352941e-01	 3.647059e+00	 8.475436e+00
0	 2.352941e-01	 3.764706e+00	 8.742047e+00
0	 2.352941e-01	 3.882353e+00	 8.918352e+00
0	 2.352941e-01	 4.000000e+00	 9.003392e+00
0	 2.352941e-01	 4.117647e+00	 8.996211e+00
0	 3.529412e-01	 3.529412e+00	 8.144727e+00
0	 3.529412e-01	 3.647059e+00	 8.520951e+00
0	 3.529412e-01	 3.764706e+00	 8.795294e+00
0	 3.529412e-01	 3.882353e+00	 8.970021e+00
0	 3.529412e-01	 4.000000e+00	 9.047396e+00
0	 3.529412e-01	 4.117647e+00	 9.029686e+00
0	 4.705882e-01	 3.529412e+00	 8.183556e+00
0	 4.705882e-01	 3.647059e+00	 8.580224e+00
0	 4.705882e-01	 3.764706e+00	 8.862802e+00
0	 4.705882e-01	 3.882353e+00	 9.036272e+00
0	 4.705882e-01	 4.000000e+00	 9.105617e+00
0	 4.705882e-01	 4.117647e+00	 9.075818e+00
0	 5.882353e-01	 3.529412e+00	 8.259793e+00
0	 5.882353e-01	 3.647059e+00	 8.657723e+00
0	 5.882353e-01	 3.764706e+00	 8.935830e+00
0	 5.882353e-01	 3.882353e+00	 9.101310e+00
0	 5.882353e-01	 4.000000e+00	 9.161355e+00
0	 5.882353e-01	 4.117647e+00	 9.123158e+00
0	 0.000000e+00	 4.117647e+00	 9.013035e+00
0	 0.000000e+00	 4.235294e+00	 8.955426e+00
0	 0.000000e+00	 4.352941e+00	 8.929816e+00
0	 0.000000e+00	 4.470588e+00	 8.940719e+00
0	 0.000000e+00	 4.588235e+00	 8.992649e+00
0	 0.000000e+00	 4.705882e+00	 9.090121e+00
0	 1.176471e-01	 4.117647e+00	 8.986844e+00
0	 1.176471e-01	 4.235294e+00	 8.947703e+00
0	 1.176471e-01	 4.352941e+00	 8.938389e+00
0	 1.176471e-01	 4.470588e+00	 8.960948e+00
0	 1.176471e-01	 4.588235e+00	 9.017425e+00
0	 1.176471e-01	 4.705882e+00	 9.109868e+00
0	 2.352941e-01	 4.117647e+00	 8.996211e+00
0	 2.352941e-01	 4.235294e+00	 8.958608e+00
0	 2.352941e-01	 4.352941e+00	 8.952990e+00
0	 2.352941e-01	 4.470588e+00	 8.979302e+00
0	 2.352941e-01	 4.588235e+00	 9.037493e+00
0	 2.352941e-01	 4.705882e+00	 9.127510e+00
0	 3.529412e-01	 4.117647e+00	 9.029686e+00
0	 3.529412e-01	 4.235294e+00	 8.983936e+00
0	 3.529412e-01	 4.352941e+00	 8.974498e+00
0	 3.529412e-01	 4.470588e+00	 8.999590e+00
0	 3.529412e-01	 4.588235e+00	 9.057429e+00
0	 3.529412e-01	 4.705882e+00	 9.146235e+00
0	 4.705882e-01	 4.117647e+00	 9.075818e+00
0	 4.705882e-01	 4.235294e+00	 9.019481e+00
0	 4.705882e-01	 4.352941e+00	 9.003796e+00
0	 4.705882e-01	 4.470588e+00	 9.025620e+00
0	 4.705882e-01	 4.588235e+00	 9.081812e+00
0	 4.705882e-01	 4.705882e+00	 9.169231e+00
0	 5.882353e-01	 4.117647e+00	 9.123158e+00
0	 5.882353e-01	 4.235294e+00	 9.061038e+00
0	 5.882353e-01	 4.352941e+00	 9.041763e+00
0	 5.882353e-01	 4.470588e+00	 9.061201e+00
0	 5.882353e-01	 4.588235e+00	 9.115219e+00
0	 5.882353e-01	 4.705882e+00	 9.199687e+00
0	 0.000000e+00	 4.705882e+00	 9.090121e+00
0	 0.000000e+00	 4.823529e+00	 9.202569e+00
0	 0.000000e+00	 4.941176e+00	 9.294909e+00
0	 0.000000e+00	 5.058824e+00	 9.364871e+00
0	 0.000000e+00	 5.176471e+00	 9.410190e+00
0	 0.000000e+00	 5.294118e+00	 9.428596e+00
0	 1.176471e-01	 4.705882e+00	 9.109868e+00
0	 1.176471e-01	 4.823529e+00	 9.211925e+00
0	 1.176471e-01	 4.941176e+00	 9.295211e+00
0	 1.176471e-01	 5.058824e+00	 9.358722e+00
0	 1.176471e-01	 5.176471e+00	 9.401452e+00
0	 1.176471e-01	 5.294118e+00	 9.422395e+00
0	 2.352941e-01	 4.705882e+00	 9.127510e+00
0	 2.352941e-01	 4.823529e+00	 9.224053e+00
0	 2.352941e-01	 4.941176e+00	 9.301899e+00
0	 2.352941e-01	 5.058824e+00	 9.361110e+00
0	 2.352941e-01	 5.176471e+00	 9.401748e+00
0	 2.352941e-01	 5.294118e+00	 9.423876e+00
0	 3.529412e-01	 4.705882e+00	 9.146235e+00
0	 3.529412e-01	 4.823529e+00	 9.239983e+00
0	 3.529412e-01	 4.941176e+00	 9.314460e+00
0	 3.529412e-01	 5.058824e+00	 9.370600e+00
0	 3.529412e-01	 5.176471e+00	 9.409341e+00
0	 3.529412e-01	 5.294118e+00	 9.431616e+00
0	 4.705882e-01	 4.705882e+00	 9.169231e+00
0	 4.705882e-01	 4.823529e+00	 9.260743e+00
0	 4.705882e-01	 4.941176e+00	 9.332381e+00
0	 4.705882e-01	 5.058824e+00	 9.385760e+00
0	 4.705882e-01	 5.176471e+00	 9.422493e+00
0	 4.705882e-01	 5.294118e+00	 9.444193e+00
0	 5.882353e-01	 4.705882e+00	 9.199687e+00
0	 5.882353e-01	 4.823529e+00	 9.287361e+00
0	 5.882353e-01	 4.941176e+00	 9.355152e+00
0	 5.882353e-01	 5.058824e+00	 9.405155e+00
0	 5.882353e-01	 5.176471e+00	 9.439468e+00
0	 5.882353e-01	 5.294118e+00	 9.460187e+00
0	 0.000000e+00	 5.294118e+00	 9.428596e+00
0	 0.000000e+00	 5.411765e+00	 9.435826e+00
0	 0.000000e+00	 5.529412e+00	 9.449706e+00
0	 0.000000e+00	 5.647059e+00	 9.471106e+00
0	 0.000000e+00	 5.764706e+00	 9.500893e+00
0	 0.000000e+00	 5.882353e+00	 9.539939e+00
0	 1.176471e-01	 5.294118e+00	 9.422395e+00
0	 1.176471e-01	 5.411765e+00	 9.434877e+00
0	 1.176471e-01	 5.529412e+00	 9.453097e+00
0	 1.176471e-01	 5.647059e+00	 9.477361e+00
0	 1.176471e-01	 5.764706e+00	 9.507976e+00
0	 1.176471e-01	 5.882353e+00	 9.545249e+00
0	 2.352941e-01	 5.294118e+00	 9.423876e+00
0	 2.352941e-01	 5.411765e+00	 9.439433e+00
0	 2.352941e-01	 5.529412e+00	 9.460209e+00
0	 2.352941e-01	 5.647059e+00	 9.486038e+00
0	 2.352941e-01	 5.764706e+00	 9.516757e+00
0	 2.352941e-01	 5.882353e+00	 9.552200e+00
0	 3.529412e-01	 5.294118e+00	 9.431616e+00
0	 3.529412e-01	 5.411765e+00	 9.448635e+00
0	 3.529412e-01	 5.529412e+00	 9.470620e+00
0	 3.529412e-01	 5.647059e+00	 9.497028e+00
0	 3.529412e-01	 5.764706e+00	 9.527313e+00
0	 3.529412e-01	 5.882353e+00	 9.560930e+00
0	 4.705882e-01	 5.294118e+00	 9.444193e+00
0	 4.705882e-01	 5.411765e+00	 9.461622e+00
0	 4.705882e-01	 5.529412e+00	 9.483909e+00
0	 4.705882e-01	 5.647059e+00	 9.510220e+00
0	 4.705882e-01	 5.764706e+00	 9.539720e+00
0	 4.705882e-01	 5.882353e+00	 9.571577e+00
0	 5.882353e-01	 5.294118e+00	 9.460187e+00
0	 5.882353e-01	 5.411765e+00	 9.477536e+00
0	 5.882353e-01	 5.529412e+00	 9.499653e+00
0	 5.882353e-01	 5.647059e+00	 9.525504e+00
0	 5.882353e-01	 5.764706e+00	 9.554057e+00
0	 5.882353e-01	 5.882353e+00	 9.584279e+00
0	 0.000000e+00	 5.882353e+00	 9.539939e+00
0	 0.000000e+00	 6.000000e+00	 9.581260e+00
0	 0.000000e+00	 6.117647e+00	 9.617080e+00
0	 0.000000e+00	 6.235294e+00	 9.647072e+00
0	 0.000000e+00	 6.352941e+00	 9.670912e+00
0	 0.000000e+00	 6.470588e+00	 9.688274e+00
0	 1.176471e-01	 5.882353e+00	 9.545249e+00
0	 1.176471e-01	 6.000000e+00	 9.583569e+00
0	 1.176471e-01	 6.117647e+00	 9.617046e+00
0	 1.176471e-01	 6.235294e+00	 9.645565e+00
0	 1.176471e-01	 6.352941e+00	 9.669016e+00
0	 1.176471e-01	 6.470588e+00	 9.687285e+00
0	 2.352941e-01	 5.882353e+00	 9.552200e+00
0	 2.352941e-01	 6.000000e+00	 9.587801e+00
0	 2.352941e-01	 6.117647e+00	 9.619146e+00
0	 2.352941e-01	 6.235294e+00	 9.646308e+00
0	 2.352941e-01	 6.352941e+00	 9.669354e+00
0	 2.352941e-01	 6.470588e+00	 9.688357e+00
0	 3.529412e-01	 5.882353e+00	 9.560930e+00
0	 3.529412e-01	 6.000000e+00	 9.594082e+00
0	 3.529412e-01	 6.117647e+00	 9.623482e+00
0	 3.529412e-01	 6.235294e+00	 9.649354e+00
0	 3.529412e-01	 6.352941e+00	 9.671919e+00
0	 3.529412e-01	 6.470588e+00	 9.691400e+00
0	 4.705882e-01	 5.882353e+00	 9.571577e+00
0	 4.705882e-01	 6.000000e+00	 9.602542e+00
0	 4.705882e-01	 6.117647e+00	 9.630155e+00
0	 4.705882e-01	 6.235294e+00	 9.654761e+00
0	 4.705882e-01	 6.352941e+00	 9.676702e+00
0	 4.705882e-01	 6.470588e+00	 9.696324e+00
0	 5.882353e-01	 5.882353e+00	 9.584279e+00
0	 5.882353e-01	 6.000000e+00	 9.613309e+00
0	 5.882353e-01	 6.117647e+00	 9.639265e+00
0	 5.882353e-01	 6.235294e+00	 9.662582e+00
0	 5.882353e-01	 6.352941e+00	 9.683694e+00
0	 5.882353e-01	 6.470588e+00	 9.703039e+00
0	 0.000000e+00	 6.470588e+00	 9.688274e+00
0	 0.000000e+00	 6.588235e+00	 9.702886e+00
0	 0.000000e+00	 6.705882e+00	 9.718724e+00
0	 0.000000e+00	 6.823529e+00	 9.735834e+00
0	 0.000000e+00	 6.941176e+00	 9.754262e+00
0	 0.000000e+00	 7.058824e+00	 9.774053e+00
0	 1.176471e-01	 6.470588e+00	 9.687285e+00
0	 1.176471e-01	 6.588235e+00	 9.703330e+00
0	 1.176471e-01	 6.705882e+00	 9.720175e+00
0	 1.176471e-01	 6.823529e+00	 9.737809e+00
0	 1.176471e-01	 6.941176e+00	 9.756221e+00
0	 1.176471e-01	 7.058824e+00	 9.775397e+00
0	 2.352941e-01	 6.470588e+00	 9.688357e+00
0	 2.352941e-01	 6.588235e+00	 9.705582e+00
0	 2.352941e-01	 6.705882e+00	 9.723205e+00
0	 2.352941e-01	 6.823529e+00	 9.741165e+00
0	 2.352941e-01	 6.941176e+00	 9.759398e+00
0	 2.352941e-01	 7.058824e+00	 9.777840e+00
0	 3.529412e-01	 6.470588e+00	 9.691400e+00
0	 3.529412e-01	 6.588235e+00	 9.709479e+00
0	 3.529412e-01	 6.705882e+00	 9.727616e+00
0	 3.529412e-01	 6.823529e+00	 9.745704e+00
0	 3.529412e-01	 6.941176e+00	 9.763633e+00
0	 3.529412e-01	 7.058824e+00	 9.781294e+00
0	 4.705882e-01	 6.470588e+00	 9.696324e+00
0	 4.705882e-01	 6.588235e+00	 9.714859e+00
0	 4.705882e-01	 6.705882e+00	 9.733209e+00
0	 4.705882e-01	 6.823529e+00	 9.751228e+00
0	 4.705882e-01	 6.941176e+00	 9.768765e+00
0	 4.705882e-01	 7.058824e+00	 9.785672e+00
0	 5.882353e-01	 6.470588e+00	 9.703039e+00
0	 5.882353e-01	 6.588235e+00	 9.721559e+00
0	 5.882353e-01	 6.705882e+00	 9.739787e+00
0	 5.882353e-01	 6.823529e+00	 9.757539e+00
0	 5.882353e-01	 6.941176e+00	 9.774634e+00
0	 5.882353e-01	 7.058824e+00	 9.790887e+00
0	 0.000000e+00	 7.058824e+00	 9.774053e+00
0	 0.000000e+00	 7.176471e+00	 9.793645e+00
0	 0.000000e+00	 7.294118e+00	 9.811470e+00
0	 0.000000e+00	 7.411765e+00	 9.827557e+00
0	 0.000000e+00	 7.529412e+00	 9.841939e+00
0	 0.000000e+00	 7.647059e+00	 9.854645e+00
0	 1.176471e-01	 7.058824e+00	 9.775397e+00
0	 1.176471e-01	 7.176471e+00	 9.794192e+00
0	 1.176471e-01	 7.294118e+00	 9.811487e+00
0	 1.176471e-01	 7.411765e+00	 9.827312e+00
0	 1.176471e-01	 7.529412e+00	 9.841699e+00
0	 1.176471e-01	 7.647059e+00	 9.854676e+00
0	 2.352941e-01	 7.058824e+00	 9.777840e+00
0	 2.352941e-01	 7.176471e+00	 9.795739e+00
0	 2.352941e-01	 7.294118e+00	 9.812410e+00
0	 2.352941e-01	 7.411765e+00	 9.827884e+00
0	 2.352941e-01	 7.529412e+00	 9.842197e+00
0	 2.352941e-01	 7.647059e+00	 9.855383e+00
0	 3.529412e-01	 7.058824e+00	 9.781294e+00
0	 3.529412e-01	 7.176471e+00	 9.798278e+00
0	 3.529412e-01	 7.294118e+00	 9.814277e+00
0	 3.529412e-01	 7.411765e+00	 9.829332e+00
0	 3.529412e-01	 7.529412e+00	 9.843484e+00
0	 3.529412e-01	 7.647059e+00	 9.856776e+00
0	 4.705882e-01	 7.058824e+00	 9.785672e+00
0	 4.705882e-01	 7.176471e+00	 9.801798e+00
0	 4.705882e-01	 7.294118e+00	 9.817128e+00
0	 4.705882e-01	 7.411765e+00	 9.831713e+00
0	 4.705882e-01	 7.529412e+00	 9.845609e+00
0	 4.705882e-01	 7.647059e+00	 9.858867e+00
0	 5.882353e-01	 7.058824e+00	 9.790887e+00
0	 5.882353e-01	 7.176471e+00	 9.806289e+00
0	 5.882353e-01	 7.294118e+00	 9.821000e+00
0	 5.882353e-01	 7.411765e+00	 9.835087e+00
0	 5.882353e-01	 7.529412e+00	 9.848620e+00
0	 5.882353e-01	 7.647059e+00	 9.861668e+00
0	 0.000000e+00	 7.647059e+00	 9.854645e+00
0	 0.000000e+00	 7.764706e+00	 9.866491e+00
0	 0.000000e+00	 7.882353e+00	 9.878250e+00
0	 0.000000e+00	 8.000000e+00	 9.889892e+00
0	 0.000000e+00	 8.117647e+00	 9.901387e+00
0	 0.000000e+00	 8.235294e+00	 9.912705e+00
0	 1.176471e-01	 7.647059e+00	 9.854676e+00
0	 1.176471e-01	 7.764706e+00	 9.866845e+00
0	 1.176471e-01	 7.882353e+00	 9.878775e+00
0	 1.176471e-01	 8.000000e+00	 9.890453e+00
0	 1.176471e-01	 8.117647e+00	 9.901866e+00
0	 1.176471e-01	 8.235294e+00	 9.912999e+00
0	 2.352941e-01	 7.647059e+00	 9.855383e+00
0	 2.352941e-01	 7.764706e+00	 9.867825e+00
0	 2.352941e-01	 7.882353e+00	 9.879883e+00
0	 2.352941e-01	 8.000000e+00	 9.891554e+00
0	 2.352941e-01	 8.117647e+00	 9.902838e+00
0	 2.352941e-01	 8.235294e+00	 9.913730e+00
0	 3.529412e-01	 7.647059e+00	 9.856776e+00
0	 3.529412e-01	 7.764706e+00	 9.869397e+00
0	 3.529412e-01	 7.882353e+00	 9.881513e+00
0	 3.529412e-01	 8.000000e+00	 9.893126e+00
0	 3.529412e-01	 8.117647e+00	 9.904241e+00
0	 3.529412e-01	 8.235294e+00	 9.914860e+00
0	 4.705882e-01	 7.647059e+00	 9.858867e+00
0	 4.705882e-01	 7.764706e+00	 9.871530e+00
0	 4.705882e-01	 7.882353e+00	 9.883607e+00
0	 4.705882e-01	 8.000000e+00	 9.895100e+00
0	 4.705882e-01	 8.117647e+00	 9.906014e+00
0	 4.705882e-01	 8.235294e+00	 9.916350e+00
0	 5.882353e-01	 7.647059e+00	 9.861668e+00
0	 5.882353e-01	 7.764706e+00	 9.874191e+00
0	 5.882353e-01	 7.882353e+00	 9.886106e+00
0	 5.882353e-01	 8.000000e+00	 9.897407e+00
0	 5.882353e-01	 8.117647e+00	 9.908094e+00
0	 5.882353e-01	 8.235294e+00	 9.918162e+00
0	 0.000000e+00	 8.235294e+00	 9.912705e+00
0	 0.000000e+00	 8.352941e+00	 9.923474e+00
0	 0.000000e+00	 8.470588e+00	 9.933386e+00
0	 0.000000e+00	 8.588235e+00	 9.942507e+00
0	 0.000000e+00	 8.705882e+00	 9.950904e+00
0	 0.000000e+00	 8.823529e+00	 9.958644e+00
0	 1.176471e-01	 8.235294e+00	 9.912999e+00
0	 1.176471e-01	 8.352941e+00	 9.923586e+00
0	 1.176471e-01	 8.470588e+00	 9.933404e+00
0	 1.176471e-01	 8.588235e+00	 9.942500e+00
0	 1.176471e-01	 8.705882e+00	 9.950924e+00
0	 1.176471e-01	 8.823529e+00	 9.958724e+00
0	 2.352941e-01	 8.235294e+00	 9.913730e+00
0	 2.352941e-01	 8.352941e+00	 9.924072e+00
0	 2.352941e-01	 8.470588e+00	 9.933731e+00
0	 2.352941e-01	 8.588235e+00	 9.942743e+00
0	 2.352941e-01	 8.705882e+00	 9.951144e+00
0	 2.352941e-01	 8.823529e+00	 9.958970e+00
0	 3.529412e-01	 8.235294e+00	 9.914860e+00
0	 3.529412e-01	 8.352941e+00	 9.924919e+00
0	 3.529412e-01	 8.470588e+00	 9.934373e+00
0	 3.529412e-01	 8.588235e+00	 9.943250e+00
0	 3.529412e-01	 8.705882e+00	 9.951578e+00
0	 3.529412e-01	 8.823529e+00	 9.959386e+00
0	 4.705882e-01	 8.235294e+00	 9.916350e+00
0	 4.705882e-01	 8.352941e+00	 9.926117e+00
0	 4.705882e-01	 8.470588e+00	 9.935336e+00
0	 4.705882e-01	 8.588235e+00	 9.944035e+00
0	 4.705882e-01	 8.705882e+00	 9.952239e+00
0	 4.705882e-01	 8.823529e+00	 9.959974e+00
0	 5.882353e-01	 8.235294e+00	 9.918162e+00
0	 5.882353e-01	 8.352941e+00	 9.927653e+00
0	 5.882353e-01	 8.470588e+00	 9.936627e+00
0	 5.882353e-01	 8.588235e+00	 9.945113e+00
0	 5.882353e-01	 8.705882e+00	 9.953141e+00
0	 5.882353e-01	 8.823529e+00	 9.960739e+00
0	 0.000000e+00	 8.823529e+00	 9.958644e+00
0	 0.000000e+00	 8.941176e+00	 9.965777e+00
0	 0.000000e+00	 9.058824e+00	 9.972324e+00
0	 0.000000e+00	 9.176471e+00	 9.978301e+00
0	 0.000000e+00	 9.294118e+00	 9.983725e+00
0	 0.000000e+00	 9.411765e+00	 9.988613e+00
0	 1.176471e-01	 8.823529e+00	 9.958724e+00
0	 1.176471e-01	 8.941176e+00	 9.965901e+00
0	 1.176471e-01	 9.058824e+00	 9.972447e+00
0	 1.176471e-01	 9.176471e+00	 9.978393e+00
0	 1.176471e-01	 9.294118e+00	 9.983773e+00
0	 1.176471e-01	 9.411765e+00	 9.988619e+00
0	 2.352941e-01	 8.823529e+00	 9.958970e+00
0	 2.352941e-01	 8.941176e+00	 9.966171e+00
0	 2.352941e-01	 9.058824e+00	 9.972700e+00
0	 2.352941e-01	 9.176471e+00	 9.978601e+00
0	 2.352941e-01	 9.294118e+00	 9.983917e+00
0	 2.352941e-01	 9.411765e+00	 9.988693e+00
0	 3.529412e-01	 8.823529e+00	 9.959386e+00
0	 3.529412e-01	 8.941176e+00	 9.966577e+00
0	 3.529412e-01	 9.058824e+00	 9.973066e+00
0	 3.529412e-01	 9.176471e+00	 9.978904e+00
0	 3.529412e-01	 9.294118e+00	 9.984142e+00
0	 3.529412e-01	 9.411765e+00	 9.988828e+00
0	 4.705882e-01	 8.823529e+00	 9.959974e+00
0	 4.705882e-01	 8.941176e+00	 9.967110e+00
0	 4.705882e-01	 9.058824e+00	 9.973529e+00
0	 4.705882e-01	 9.176471e+00	 9.979285e+00
0	 4.705882e-01	 9.294118e+00	 9.984429e+00
0	 4.705882e-01	 9.411765e+00	 9.989014e+00
0	 5.882353e-01	 8.823529e+00	 9.960739e+00
0	 5.882353e-01	 8.941176e+00	 9.967760e+00
0	 5.882353e-01	 9.058824e+00	 9.974072e+00
0	 5.882353e-01	 9.176471e+00	 9.979723e+00
0	 5.882353e-01	 9.294118e+00	 9.984764e+00
0	 5.882353e-01	 9.411765e+00	 9.989243e+00
0	 0.000000e+00	 9.411765e+00	 9.988613e+00
0	 0.000000e+00	 9.529412e+00	 9.992700e+00
0	 0.000000e+00	 9.647059e+00	 9.995791e+00
0	 0.000000e+00	 9.764706e+00	 9.998003e+00
0	 0.000000e+00	 9.882353e+00	 9.999455e+00
0	 0.000000e+00	 1.000000e+01	 1.000027e+01
0	 1.176471e-01	 9.411765e+00	 9.988619e+00
0	 1.176471e-01	 9.529412e+00	 9.992689e+00
0	 1.176471e-01	 9.647059e+00	 9.995785e+00
0	 1.176471e-01	 9.764706e+00	 9.998003e+00
0	 1.176471e-01	 9.882353e+00	 9.999439e+00
0	 1.176471e-01	 1.000000e+01	 1.000019e+01
0	 2.352941e-01	 9.411765e+00	 9.988693e+00
0	 2.352941e-01	 9.529412e+00	 9.992715e+00
0	 2.352941e-01	 9.647059e+00	 9.995795e+00
0	 2.352941e-01	 9.764706e+00	 9.998010e+00
0	 2.352941e-01	 9.882353e+00	 9.999441e+00
0	 2.352941e-01	 1.000000e+01	 1.000017e+01
0	 3.529412e-01	 9.411765e+00	 9.988828e+00
0	 3.529412e-01	 9.529412e+00	 9.992778e+00
0	 3.529412e-01	 9.647059e+00	 9.995821e+00
0	 3.529412e-01	 9.764706e+00	 9.998022e+00
0	 3.529412e-01	 9.882353e+00	 9.999453e+00
0	 3.529412e-01	 1.000000e+01	 1.000018e+01
0	 4.705882e-01	 9.411765e+00	 9.989014e+00
0	 4.705882e-01	 9.529412e+00	 9.992877e+00
0	 4.705882e-01	 9.647059e+00	 9.995864e+00
0	 4.705882e-01	 9.764706e+00	 9.998038e+00
0	 4.705882e-01	 9.882353e+00	 9.999462e+00
0	 4.705882e-01	 1.000000e+01	 1.000020e+01
0	 5.882353e-01	 9.411765e+00	 9.989243e+00
0	 5.882353e-01	 9.529412e+00	 9.993011e+00
0	 5.882353e-01	 9.647059e+00	 9.995927e+00
0	 5.882353e-01	 9.764706e+00	 9.998055e+00
0	 5.882353e-01	 9.882353e+00	 9.999460e+00
0	 5.882353e-01	 1.000000e+01	 1.000020e+01
0	 5.882353e-01	 0.000000e+00	 1.813366e+00
0	 5.882353e-01	 1.176471e-01	 8.299278e-01
0	 5.882353e-01	 2.352941e-01	 1.844387e-01
0	 5.882353e-01	 3.529412e-01	-4.264244e-02
0	 5.882353e-01	 4.705882e-01	 2.291438e-01
0	 5.882353e-01	 5.882353e-01	 1.080257e+00
0	 7.058824e-01	 0.000000e+00	 2.643380e+00
0	 7.058824e-01	 1.176471e-01	 9.274913e-01
0	 7.058824e-01	 2.352941e-01	-6.176869e-02
0	 7.058824e-01	 3.529412e-01	-1.312480e-01
0	 7.058824e-01	 4.705882e-01	 9.122052e-01
0	 7.058824e-01	 5.882353e-01	 3.261743e+00
0	 8.235294e-01	 0.000000e+00	 2.437936e+00
0	 8.235294e-01	 1.176471e-01	 2.997375e-01
0	 8.235294e-01	 2.352941e-01	-6.950706e-01
0	 8.235294e-01	 3.529412e-01	-2.949954e-01
0	 8.235294e-01	 4.705882e-01	 1.751456e+00
0	 8.235294e-01	 5.882353e-01	 5.695777e+00
0	 9.411765e-01	 0.000000e+00	 1.411659e+00
0	 9.411765e-01	 1.176471e-01	-8.887199e-01
0	 9.411765e-01	 2.352941e-01	-1.639785e+00
0	 9.411765e-01	 3.529412e-01	-5.860530e-01
0	 9.411765e-01	 4.705882e-01	 2.527960e+00
0	 9.411765e-01	 5.882353e-01	 7.957737e+00
0	 1.058824e+00	 0.000000e+00	-2.208217e-01
0	 1.058824e+00	 1.176471e-01	-2.473267e+00
0	 1.058824e+00	 2.352941e-01	-2.820231e+00
0	 1.058824e+00	 3.529412e-01	-1.056589e+00
0	 1.058824e+00	 4.705882e-01	 3.022779e+00
0	 1.058824e+00	 5.882353e-01	 9.622998e+00
0	 1.176471e+00	 0.000000e+00	-2.244880e+00
0	 1.176471e+00	 1.176471e-01	-4.289290e+00
0	 1.176471e+00	 2.352941e-01	-4.160725e+00
0	 1.176471e+00	 3.529412e-01	-1.758773e+00
0	 1.176471e+00	 4.705882e-01	 3.016977e+00
0	 1.176471e+00	 5.882353e-01	 1.026694e+01
0	 5.882353e-01	 5.882353e-01	 1.080257e+00
0	 5.882353e-01	 7.058824e-01	 3.272209e+00
0	 5.882353e-01	 8.235294e-01	 7.517470e+00
0	 5.882353e-01	 9.411765e-01	 1.382294e+01
0	 5.882353e-01	 1.058824e+00	 2.219551e+01
0	 5.882353e-01	 1.176471e+00	 3.264208e+01
0	 7.058824e-01	 5.882353e-01	 3.261743e+00
0	 7.058824e-01	 7.058824e-01	 6.864763e+00
0	 7.058824e-01	 8.235294e-01	 1.152256e+01
0	 7.058824e-01	 9.411765e-01	 1.720913e+01
0	 7.058824e-01	 1.058824e+00	 2.389847e+01
0	 7.058824e-01	 1.176471e+00	 3.156457e+01
0	 8.235294e-01	 5.882353e-01	 5.695777e+00
0	 8.235294e-01	 7.058824e-01	 1.068397e+01
0	 8.235294e-01	 8.235294e-01	 1.566165e+01
0	 8.235294e-01	 9.411765e-01	 2.057971e+01
0	 8.235294e-01	 1.058824e+00	 2.538905e+01
0	 8.235294e-01	 1.176471e+00	 3.004058e+01
0	 9.411765e-01	 5.882353e-01	 7.957737e+00
0	 9.411765e-01	 7.058824e-01	 1.414487e+01
0	 9.411765e-01	 8.235294e-01	 1.931902e+01
0	 9.411765e-01	 9.411765e-01	 2.341782e+01
0	 9.411765e-01	 1.058824e+00	 2.637887e+01
0	 9.411765e-01	 1.176471e+00	 2.813978e+01
0	 1.058824e+00	 5.882353e-01	 9.622998e+00
0	 1.058824e+00	 7.058824e-01	 1.666248e+01
0	 1.058824e+00	 8.235294e-01	 2.187897e+01
0	 1.058824e+00	 9.411765e-01	 2.520661e+01
0	 1.058824e+00	 1.058824e+00	 2.657953e+01
0	 1.058824e+00	 1.176471e+00	 2.593186e+01
0	 1.176471e+00	 5.882353e-01	 1.026694e+01
0	 1.176471e+00	 7.058824e-01	 1.765184e+01
0	 1.176471e+00	 8.235294e-01	 2.272578e+01
0	 1.176471e+00	 9.411765e-01	 2.542923e+01
0	 1.176471e+00	 1.058824e+00	 2.570265e+01
0	 1.176471e+00	 1.176471e+00	 2.348650e+01
0	 5.882353e-01	 1.176471e+00	 3.264208e+01
0	 5.882353e-01	 1.294118e+00	 4.172082e+01
0	 5.882353e-01	 1.411765e+00	 4.597696e+01
0	 5.882353e-01	 1.529412e+00	 4.539795e+01
0	 5.882353e-01	 1.647059e+00	 3.997126e+01
0	 5.882353e-01	 1.764706e+00	 2.968435e+01
0	 7.058824e-01	 1.176471e+00	 3.156457e+01
0	 7.058824e-01	 1.294118e+00	 3.784258e+01
0	 7.058824e-01	 1.411765e+00	 4.038164e+01
0	 7.058824e-01	 1.529412e+00	 3.917670e+01
0	 7.058824e-01	 1.647059e+00	 3.422274e+01
0	 7.058824e-01	 1.764706e+00	 2.551472e+01
0	 8.235294e-01	 1.176471e+00	 3.004058e+01
0	 8.235294e-01	 1.294118e+00	 3.333162e+01
0	 8.235294e-01	 1.411765e+00	 3.409342e+01
0	 8.235294e-01	 1.529412e+00	 3.232773e+01
0	 8.235294e-01	 1.647059e+00	 2.803634e+01
0	 8.235294e-01	 1.764706e+00	 2.122100e+01
0	 9.411765e-01	 1.176471e+00	 2.813978e+01
0	 9.411765e-01	 1.294118e+00	 2.860824e+01
0	 9.411765e-01	 1.411765e+00	 2.773875e+01
0	 9.411765e-01	 1.529412e+00	 2.553918e+01
0	 9.411765e-01	 1.647059e+00	 2.201740e+01
0	 9.411765e-01	 1.764706e+00	 1.718127e+01
0	 1.058824e+00	 1.176471e+00	 2.593186e+01
0	 1.058824e+00	 1.294118e+00	 2.409276e+01
0	 1.058824e+00	 1.411765e+00	 2.194412e+01
0	 1.058824e+00	 1.529412e+00	 1.949920e+01
0	 1.058824e+00	 1.647059e+00	 1.677127e+01
0	 1.058824e+00	 1.764706e+00	 1.377360e+01
0	 1.176471e+00	 1.176471e+00	 2.348650e+01
0	 1.176471e+00	 1.294118e+00	 2.020549e+01
0	 1.176471e+00	 1.411765e+00	 1.733598e+01
0	 1.176471e+00	 1.529412e+00	 1.489593e+01
0	 1.176471e+00	 1.647059e+00	 1.290331e+01
0	 1.176471e+00	 1.764706e+00	 1.137608e+01
0	 5.882353e-01	 1.764706e+00	 2.968435e+01
0	 5.882353e-01	 1.882353e+00	 1.850914e+01
0	 5.882353e-01	 2.000000e+00	 1.041911e+01
0	 5.882353e-01	 2.117647e+00	 5.404086e+00
0	 5.882353e-01	 2.235294e+00	 3.453879e+00
0	 5.882353e-01	 2.352941e+00	 4.558307e+00
0	 7.058824e-01	 1.764706e+00	 2.551472e+01
0	 7.058824e-01	 1.882353e+00	 1.624590e+01
0	 7.058824e-01	 2.000000e+00	 9.600714e+00
0	 7.058824e-01	 2.117647e+00	 5.560835e+00
0	 7.058824e-01	 2.235294e+00	 4.107951e+00
0	 7.058824e-01	 2.352941e+00	 5.223748e+00
0	 8.235294e-01	 1.764706e+00	 2.122100e+01
0	 8.235294e-01	 1.882353e+00	 1.416990e+01
0	 8.235294e-01	 2.000000e+00	 9.155629e+00
0	 8.235294e-01	 2.117647e+00	 6.156574e+00
0	 8.235294e-01	 2.235294e+00	 5.151115e+00
0	 8.235294e-01	 2.352941e+00	 6.117636e+00
0	 9.411765e-01	 1.764706e+00	 1.718127e+01
0	 9.411765e-01	 1.882353e+00	 1.239942e+01
0	 9.411765e-01	 2.000000e+00	 9.021827e+00
0	 9.411765e-01	 2.117647e+00	 7.028407e+00
0	 9.411765e-01	 2.235294e+00	 6.399068e+00
0	 9.411765e-01	 2.352941e+00	 7.113719e+00
0	 1.058824e+00	 1.764706e+00	 1.377360e+01
0	 1.058824e+00	 1.882353e+00	 1.105276e+01
0	 1.058824e+00	 2.000000e+00	 9.137279e+00
0	 1.058824e+00	 2.117647e+00	 8.013442e+00
0	 1.058824e+00	 2.235294e+00	 7.667508e+00
0	 1.058824e+00	 2.352941e+00	 8.085743e+00
0	 1.176471e+00	 1.764706e+00	 1.137608e+01
0	 1.176471e+00	 1.882353e+00	 1.024821e+01
0	 1.176471e+00	 2.000000e+00	 9.439958e+00
0	 1.176471e+00	 2.117647e+00	 8.948784e+00
0	 1.176471e+00	 2.235294e+00	 8.772133e+00
0	 1.176471e+00	 2.352941e+00	 8.907455e+00
0	 5.882353e-01	 2.352941e+00	 4.558307e+00
0	 5.882353e-01	 2.470588e+00	 6.828283e+00
0	 5.882353e-01	 2.588235e+00	 8.391343e+00
0	 5.882353e-01	 2.705882e+00	 9.262243e+00
0	 5.882353e-01	 2.823529e+00	 9.455738e+00
0	 5.882353e-01	 2.941176e+00	 8.986582e+00
0	 7.058824e-01	 2.352941e+00	 5.223748e+00
0	 7.058824e-01	 2.470588e+00	 7.279647e+00
0	 7.058824e-01	 2.588235e+00	 8.673309e+00
0	 7.058824e-01	 2.705882e+00	 9.425777e+00
0	 7.058824e-01	 2.823529e+00	 9.558092e+00
0	 7.058824e-01	 2.941176e+00	 9.091299e+00
0	 8.235294e-01	 2.352941e+00	 6.117636e+00
0	 8.235294e-01	 2.470588e+00	 7.779583e+00
0	 8.235294e-01	 2.588235e+00	 8.890114e+00
0	 8.235294e-01	 2.705882e+00	 9.472188e+00
0	 8.235294e-01	 2.823529e+00	 9.548759e+00
0	 8.235294e-01	 2.941176e+00	 9.142785e+00
0	 9.411765e-01	 2.352941e+00	 7.113719e+00
0	 9.411765e-01	 2.470588e+00	 8.286299e+00
0	 9.411765e-01	 2.588235e+00	 9.057806e+00
0	 9.411765e-01	 2.705882e+00	 9.448733e+00
0	 9.411765e-01	 2.823529e+00	 9.479576e+00
0	 9.411765e-01	 2.941176e+00	 9.170830e+00
0	 1.058824e+00	 2.352941e+00	 8.085743e+00
0	 1.058824e+00	 2.470588e+00	 8.758009e+00
0	 1.058824e+00	 2.588235e+00	 9.192431e+00
0	 1.058824e+00	 2.705882e+00	 9.402669e+00
0	 1.058824e+00	 2.823529e+00	 9.402380e+00
0	 1.058824e+00	 2.941176e+00	 9.205223e+00
0	 1.176471e+00	 2.352941e+00	 8.907455e+00
0	 1.176471e+00	 2.470588e+00	 9.152922e+00
0	 1.176471e+00	 2.588235e+00	 9.310038e+00
0	 1.176471e+00	 2.705882e+00	 9.381251e+00
0	 1.176471e+00	 2.823529e+00	 9.369007e+00
0	 1.176471e+00	 2.941176e+00	 9.275755e+00
0	 5.882353e-01	 2.941176e+00	 8.986582e+00
0	 5.882353e-01	 3.058824e+00	 8.328197e+00
0	 5.882353e-01	 3.176471e+00	 7.937033e+00
0	 5.882353e-01	 3.294118e+00	 7.802382e+00
0	 5.882353e-01	 3.411765e+00	 7.913537e+00
0	 5.882353e-01	 3.529412e+00	 8.259793e+00
0	 7.058824e-01	 2.941176e+00	 9.091299e+00
0	 7.058824e-01	 3.058824e+00	 8.464698e+00
0	 7.058824e-01	 3.176471e+00	 8.094706e+00
0	 7.058824e-01	 3.294118e+00	 7.968044e+00
0	 7.058824e-01	 3.411765e+00	 8.071431e+00
0	 7.058824e-01	 3.529412e+00	 8.391585e+00
0	 8.235294e-01	 2.941176e+00	 9.142785e+00
0	 8.235294e-01	 3.058824e+00	 8.617001e+00
0	 8.235294e-01	 3.176471e+00	 8.309916e+00
0	 8.235294e-01	 3.294118e+00	 8.208143e+00
0	 8.235294e-01	 3.411765e+00	 8.298296e+00
0	 8.235294e-01	 3.529412e+00	 8.566987e+00
0	 9.411765e-01	 2.941176e+00	 9.170830e+00
0	 9.411765e-01	 3.058824e+00	 8.784566e+00
0	 9.411765e-01	 3.176471e+00	 8.561845e+00
0	 9.411765e-01	 3.294118e+00	 8.491642e+00
0	 9.411765e-01	 3.411765e+00	 8.562931e+00
0	 9.411765e-01	 3.529412e+00	 8.764690e+00
0	 1.058824e+00	 2.941176e+00	 9.205223e+00
0	 1.058824e+00	 3.058824e+00	 8.966849e+00
0	 1.058824e+00	 3.176471e+00	 8.829673e+00
0	 1.058824e+00	 3.294118e+00	 8.787500e+00
0	 1.058824e+00	 3.411765e+00	 8.834135e+00
0	 1.058824e+00	 3.529412e+00	 8.963385e+00
0	 1.176471e+00	 2.941176e+00	 9.275755e+00
0	 1.176471e+00	 3.058824e+00	 9.163307e+00
0	 1.176471e+00	 3.176471e+00	 9.092581e+00
0	 1.176471e+00	 3.294118e+00	 9.064679e+00
0	 1.176471e+00	 3.411765e+00	 9.080706e+00
0	 1.176471e+00	 3.529412e+00	 9.141763e+00
0	 5.882353e-01	 3.529412e+00	 8.259793e+00
0	 5.882353e-01	 3.647059e+00	 8.657723e+00
0	 5.882353e-01	 3.764706e+00	 8.935830e+00
0	 5.882353e-01	 3.882353e+00	 9.101310e+00
0	 5.882353e-01	 4.000000e+00	 9.161355e+00
0	 5.882353e-01	 4.117647e+00	 9.123158e+00
0	 7.058824e-01	 3.529412e+00	 8.391585e+00
0	 7.058824e-01	 3.647059e+00	 8.756180e+00
0	 7.058824e-01	 3.764706e+00	 9.007371e+00
0	 7.058824e-01	 3.882353e+00	 9.153609e+00
0	 7.058824e-01	 4.000000e+00	 9.203341e+00
0	 7.058824e-01	 4.117647e+00	 9.165019e+00
0	 8.235294e-01	 3.529412e+00	 8.566987e+00
0	 8.235294e-01	 3.647059e+00	 8.869784e+00
0	 8.235294e-01	 3.764706e+00	 9.076711e+00
0	 8.235294e-01	 3.882353e+00	 9.196068e+00
0	 8.235294e-01	 4.000000e+00	 9.236155e+00
0	 8.235294e-01	 4.117647e+00	 9.205272e+00
0	 9.411765e-01	 3.529412e+00	 8.764690e+00
0	 9.411765e-01	 3.647059e+00	 8.990191e+00
0	 9.411765e-01	 3.764706e+00	 9.144559e+00
0	 9.411765e-01	 3.882353e+00	 9.234536e+00
0	 9.411765e-01	 4.000000e+00	 9.266870e+00
0	 9.411765e-01	 4.117647e+00	 9.248305e+00
0	 1.058824e+00	 3.529412e+00	 8.963385e+00
0	 1.058824e+00	 3.647059e+00	 9.109059e+00
0	 1.058824e+00	 3.764706e+00	 9.211622e+00
0	 1.058824e+00	 3.882353e+00	 9.274861e+00
0	 1.058824e+00	 4.000000e+00	 9.302561e+00
0	 1.058824e+00	 4.117647e+00	 9.298506e+00
0	 1.176471e+00	 3.529412e+00	 9.141763e+00
0	 1.176471e+00	 3.647059e+00	 9.218042e+00
0	 1.176471e+00	 3.764706e+00	 9.278611e+00
0	 1.176471e+00	 3.882353e+00	 9.322891e+00
0	 1.176471e+00	 4.000000e+00	 9.350301e+00
0	 1.176471e+00	 4.117647e+00	 9.360264e+00
0	 5.882353e-01	 4.117647e+00	 9.123158e+00
0	 5.882353e-01	 4.235294e+00	 9.061038e+00
0	 5.882353e-01	 4.352941e+00	 9.041763e+00
0	 5.882353e-01	 4.470588e+00	 9.061201e+00
0	 5.882353e-01	 4.588235e+00	 9.115219e+00
0	 5.882353e-01	 4.705882e+00	 9.199687e+00
0	 7.058824e-01	 4.117647e+00	 9.165019e+00
0	 7.058824e-01	 4.235294e+00	 9.107448e+00
0	 7.058824e-01	 4.352941e+00	 9.090754e+00
0	 7.058824e-01	 4.470588e+00	 9.110359e+00
0	 7.058824e-01	 4.588235e+00	 9.161686e+00
0	 7.058824e-01	 4.705882e+00	 9.240161e+00
0	 8.235294e-01	 4.117647e+00	 9.205272e+00
0	 8.235294e-01	 4.235294e+00	 9.160598e+00
0	 8.235294e-01	 4.352941e+00	 9.150914e+00
0	 8.235294e-01	 4.470588e+00	 9.171922e+00
0	 8.235294e-01	 4.588235e+00	 9.219325e+00
0	 8.235294e-01	 4.705882e+00	 9.288822e+00
0	 9.411765e-01	 4.117647e+00	 9.248305e+00
0	 9.411765e-01	 4.235294e+00	 9.220849e+00
0	 9.411765e-01	 4.352941e+00	 9.219815e+00
0	 9.411765e-01	 4.470588e+00	 9.241907e+00
0	 9.411765e-01	 4.588235e+00	 9.283826e+00
0	 9.411765e-01	 4.705882e+00	 9.342275e+00
0	 1.058824e+00	 4.117647e+00	 9.298506e+00
0	 1.058824e+00	 4.235294e+00	 9.288564e+00
0	 1.058824e+00	 4.352941e+00	 9.295029e+00
0	 1.058824e+00	 4.470588e+00	 9.316326e+00
0	 1.058824e+00	 4.588235e+00	 9.350882e+00
0	 1.058824e+00	 4.705882e+00	 9.397123e+00
0	 1.176471e+00	 4.117647e+00	 9.360264e+00
0	 1.176471e+00	 4.235294e+00	 9.364106e+00
0	 1.176471e+00	 4.352941e+00	 9.374125e+00
0	 1.176471e+00	 4.470588e+00	 9.391194e+00
0	 1.176471e+00	 4.588235e+00	 9.416184e+00
0	 1.176471e+00	 4.705882e+00	 9.449970e+00
0	 5.882353e-01	 4.705882e+00	 9.199687e+00
0	 5.882353e-01	 4.823529e+00	 9.287361e+00
0	 5.882353e-01	 4.941176e+00	 9.355152e+00
0	 5.882353e-01	 5.058824e+00	 9.405155e+00
0	 5.882353e-01	 5.176471e+00	 9.439468e+00
0	 5.882353e-01	 5.294118e+00	 9.460187e+00
0	 7.058824e-01	 4.705882e+00	 9.240161e+00
0	 7.058824e-01	 4.823529e+00	 9.320595e+00
0	 7.058824e-01	 4.941176e+00	 9.382389e+00
0	 7.058824e-01	 5.058824e+00	 9.427847e+00
0	 7.058824e-01	 5.176471e+00	 9.459273e+00
0	 7.058824e-01	 5.294118e+00	 9.478972e+00
0	 8.235294e-01	 4.705882e+00	 9.288822e+00
0	 8.235294e-01	 4.823529e+00	 9.359160e+00
0	 8.235294e-01	 4.941176e+00	 9.413384e+00
0	 8.235294e-01	 5.058824e+00	 9.453650e+00
0	 8.235294e-01	 5.176471e+00	 9.482114e+00
0	 8.235294e-01	 5.294118e+00	 9.500931e+00
0	 9.411765e-01	 4.705882e+00	 9.342275e+00
0	 9.411765e-01	 4.823529e+00	 9.401022e+00
0	 9.411765e-01	 4.941176e+00	 9.447132e+00
0	 9.411765e-01	 5.058824e+00	 9.482257e+00
0	 9.411765e-01	 5.176471e+00	 9.508048e+00
0	 9.411765e-01	 5.294118e+00	 9.526155e+00
0	 1.058824e+00	 4.705882e+00	 9.397123e+00
0	 1.058824e+00	 4.823529e+00	 9.444148e+00
0	 1.058824e+00	 4.941176e+00	 9.482632e+00
0	 1.058824e+00	 5.058824e+00	 9.513364e+00
0	 1.058824e+00	 5.176471e+00	 9.537135e+00
0	 1.058824e+00	 5.294118e+00	 9.554734e+00
0	 1.176471e+00	 4.705882e+00	 9.449970e+00
0	 1.176471e+00	 4.823529e+00	 9.486505e+00
0	 1.176471e+00	 4.941176e+00	 9.518878e+00
0	 1.176471e+00	 5.058824e+00	 9.546663e+00
0	 1.176471e+00	 5.176471e+00	 9.569432e+00
0	 1.176471e+00	 5.294118e+00	 9.586759e+00
0	 5.882353e-01	 5.294118e+00	 9.460187e+00
0	 5.882353e-01	 5.411765e+00	 9.477536e+00
0	 5.882353e-01	 5.529412e+00	 9.499653e+00
0	 5.882353e-01	 5.647059e+00	 9.525504e+00
0	 5.882353e-01	 5.764706e+00	 9.554057e+00
0	 5.882353e-01	 5.882353e+00	 9.584279e+00
0	 7.058824e-01	 5.294118e+00	 9.478972e+00
0	 7.058824e-01	 5.411765e+00	 9.496198e+00
0	 7.058824e-01	 5.529412e+00	 9.517935e+00
0	 7.058824e-01	 5.647059e+00	 9.543081e+00
0	 7.058824e-01	 5.764706e+00	 9.570532e+00
0	 7.058824e-01	 5.882353e+00	 9.599188e+00
0	 8.235294e-01	 5.294118e+00	 9.500931e+00
0	 8.235294e-01	 5.411765e+00	 9.517977e+00
0	 8.235294e-01	 5.529412e+00	 9.539018e+00
0	 8.235294e-01	 5.647059e+00	 9.563050e+00
0	 8.235294e-01	 5.764706e+00	 9.589069e+00
0	 8.235294e-01	 5.882353e+00	 9.616071e+00
0	 9.411765e-01	 5.294118e+00	 9.526155e+00
0	 9.411765e-01	 5.411765e+00	 9.542834e+00
0	 9.411765e-01	 5.529412e+00	 9.562747e+00
0	 9.411765e-01	 5.647059e+00	 9.585154e+00
0	 9.411765e-01	 5.764706e+00	 9.609316e+00
0	 9.411765e-01	 5.882353e+00	 9.634494e+00
0	 1.058824e+00	 5.294118e+00	 9.554734e+00
0	 1.058824e+00	 5.411765e+00	 9.570732e+00
0	 1.058824e+00	 5.529412e+00	 9.588967e+00
0	 1.058824e+00	 5.647059e+00	 9.609132e+00
0	 1.058824e+00	 5.764706e+00	 9.630921e+00
0	 1.058824e+00	 5.882353e+00	 9.654025e+00
0	 1.176471e+00	 5.294118e+00	 9.586759e+00
0	 1.176471e+00	 5.411765e+00	 9.601633e+00
0	 1.176471e+00	 5.529412e+00	 9.617525e+00
0	 1.176471e+00	 5.647059e+00	 9.634726e+00
0	 1.176471e+00	 5.764706e+00	 9.653530e+00
0	 1.176471e+00	 5.882353e+00	 9.674230e+00
0	 5.882353e-01	 5.882353e+00	 9.584279e+00
0	 5.882353e-01	 6.000000e+00	 9.613309e+00
0	 5.882353e-01	 6.117647e+00	 9.639265e+00
0	 5.882353e-01	 6.235294e+00	 9.662582e+00
0	 5.882353e-01	 6.352941e+00	 9.683694e+00
0	 5.882353e-01	 6.470588e+00	 9.703039e+00
0	 7.058824e-01	 5.882353e+00	 9.599188e+00
0	 7.058824e-01	 6.000000e+00	 9.626481e+00
0	 7.058824e-01	 6.117647e+00	 9.650898e+00
0	 7.058824e-01	 6.235294e+00	 9.672912e+00
0	 7.058824e-01	 6.352941e+00	 9.692997e+00
0	 7.058824e-01	 6.470588e+00	 9.711626e+00
0	 8.235294e-01	 5.882353e+00	 9.616071e+00
0	 8.235294e-01	 6.000000e+00	 9.641745e+00
0	 8.235294e-01	 6.117647e+00	 9.664746e+00
0	 8.235294e-01	 6.235294e+00	 9.685510e+00
0	 8.235294e-01	 6.352941e+00	 9.704474e+00
0	 8.235294e-01	 6.470588e+00	 9.722075e+00
0	 9.411765e-01	 5.882353e+00	 9.634494e+00
0	 9.411765e-01	 6.000000e+00	 9.658616e+00
0	 9.411765e-01	 6.117647e+00	 9.680318e+00
0	 9.411765e-01	 6.235294e+00	 9.699925e+00
0	 9.411765e-01	 6.352941e+00	 9.717763e+00
0	 9.411765e-01	 6.470588e+00	 9.734157e+00
0	 1.058824e+00	 5.882353e+00	 9.654025e+00
0	 1.058824e+00	 6.000000e+00	 9.676607e+00
0	 1.058824e+00	 6.117647e+00	 9.697121e+00
0	 1.058824e+00	 6.235294e+00	 9.715707e+00
0	 1.058824e+00	 6.352941e+00	 9.732503e+00
0	 1.058824e+00	 6.470588e+00	 9.747646e+00
0	 1.176471e+00	 5.882353e+00	 9.674230e+00
0	 1.176471e+00	 6.000000e+00	 9.695232e+00
0	 1.176471e+00	 6.117647e+00	 9.714666e+00
0	 1.176471e+00	 6.235294e+00	 9.732406e+00
0	 1.176471e+00	 6.352941e+00	 9.748330e+00
0	 1.176471e+00	 6.470588e+00	 9.762313e+00
0	 5.882353e-01	 6.470588e+00	 9.703039e+00
0	 5.882353e-01	 6.588235e+00	 9.721559e+00
0	 5.882353e-01	 6.705882e+00	 9.739787e+00
0	 5.882353e-01	 6.823529e+00	 9.757539e+00
0	 5.882353e-01	 6.941176e+00	 9.774634e+00
0	 5.882353e-01	 7.058824e+00	 9.790887e+00
0	 7.058824e-01	 6.470588e+00	 9.711626e+00
0	 7.058824e-01	 6.588235e+00	 9.729615e+00
0	 7.058824e-01	 6.705882e+00	 9.747333e+00
0	 7.058824e-01	 6.823529e+00	 9.764582e+00
0	 7.058824e-01	 6.941176e+00	 9.781164e+00
0	 7.058824e-01	 7.058824e+00	 9.796881e+00
0	 8.235294e-01	 6.470588e+00	 9.722075e+00
0	 8.235294e-01	 6.588235e+00	 9.739108e+00
0	 8.235294e-01	 6.705882e+00	 9.755959e+00
0	 8.235294e-01	 6.823529e+00	 9.772448e+00
0	 8.235294e-01	 6.941176e+00	 9.788395e+00
0	 8.235294e-01	 7.058824e+00	 9.803621e+00
0	 9.411765e-01	 6.470588e+00	 9.734157e+00
0	 9.411765e-01	 6.588235e+00	 9.749943e+00
0	 9.411765e-01	 6.705882e+00	 9.765654e+00
0	 9.411765e-01	 6.823529e+00	 9.781162e+00
0	 9.411765e-01	 6.941176e+00	 9.796339e+00
0	 9.411765e-01	 7.058824e+00	 9.811057e+00
0	 1.058824e+00	 6.470588e+00	 9.747646e+00
0	 1.058824e+00	 6.588235e+00	 9.762025e+00
0	 1.058824e+00	 6.705882e+00	 9.776408e+00
0	 1.058824e+00	 6.823529e+00	 9.790750e+00
0	 1.058824e+00	 6.941176e+00	 9.805008e+00
0	 1.058824e+00	 7.058824e+00	 9.819137e+00
0	 1.176471e+00	 6.470588e+00	 9.762313e+00
0	 1.176471e+00	 6.588235e+00	 9.775261e+00
0	 1.176471e+00	 6.705882e+00	 9.788212e+00
0	 1.176471e+00	 6.823529e+00	 9.801238e+00
0	 1.176471e+00	 6.941176e+00	 9.814413e+00
0	 1.176471e+00	 7.058824e+00	 9.827811e+00
0	 5.882353e-01	 7.058824e+00	 9.790887e+00
0	 5.882353e-01	 7.176471e+00	 9.806289e+00
0	 5.882353e-01	 7.294118e+00	 9.821000e+00
0	 5.882353e-01	 7.411765e+00	 9.835087e+00
0	 5.882353e-01	 7.529412e+00	 9.848620e+00
0	 5.882353e-01	 7.647059e+00	 9.861668e+00
0	 7.058824e-01	 7.058824e+00	 9.796881e+00
0	 7.058824e-01	 7.176471e+00	 9.811738e+00
0	 7.058824e-01	 7.294118e+00	 9.825923e+00
0	 7.058824e-01	 7.411765e+00	 9.839516e+00
0	 7.058824e-01	 7.529412e+00	 9.852598e+00
0	 7.058824e-01	 7.647059e+00	 9.865246e+00
0	 8.235294e-01	 7.058824e+00	 9.803621e+00
0	 8.235294e-01	 7.176471e+00	 9.818054e+00
0	 8.235294e-01	 7.294118e+00	 9.831791e+00
0	 8.235294e-01	 7.411765e+00	 9.844908e+00
0	 8.235294e-01	 7.529412e+00	 9.857483e+00
0	 8.235294e-01	 7.647059e+00	 9.869591e+00
0	 9.411765e-01	 7.058824e+00	 9.811057e+00
0	 9.411765e-01	 7.176471e+00	 9.825115e+00
0	 9.411765e-01	 7.294118e+00	 9.838438e+00
0	 9.411765e-01	 7.411765e+00	 9.851086e+00
0	 9.411765e-01	 7.529412e+00	 9.863118e+00
0	 9.411765e-01	 7.647059e+00	 9.874594e+00
0	 1.058824e+00	 7.058824e+00	 9.819137e+00
0	 1.058824e+00	 7.176471e+00	 9.832799e+00
0	 1.058824e+00	 7.294118e+00	 9.845701e+00
0	 1.058824e+00	 7.411765e+00	 9.857874e+00
0	 1.058824e+00	 7.529412e+00	 9.869345e+00
0	 1.058824e+00	 7.647059e+00	 9.880145e+00
0	 1.176471e+00	 7.058824e+00	 9.827811e+00
0	 1.176471e+00	 7.176471e+00	 9.840982e+00
0	 1.176471e+00	 7.294118e+00	 9.853415e+00
0	 1.176471e+00	 7.411765e+00	 9.865096e+00
0	 1.176471e+00	 7.529412e+00	 9.876008e+00
0	 1.176471e+00	 7.647059e+00	 9.886137e+00
0	 5.882353e-01	 7.647059e+00	 9.861668e+00
0	 5.882353e-01	 7.764706e+00	 9.874191e+00
0	 5.882353e-01	 7.882353e+00	 9.886106e+00
0	 5.882353e-01	 8.000000e+00	 9.897407e+00
0	 5.882353e-01	 8.117647e+00	 9.908094e+00
0	 5.882353e-01	 8.235294e+00	 9.918162e+00
0	 7.058824e-01	 7.647059e+00	 9.865246e+00
0	 7.058824e-01	 7.764706e+00	 9.877420e+00
0	 7.058824e-01	 7.882353e+00	 9.889018e+00
0	 7.058824e-01	 8.000000e+00	 9.900032e+00
0	 7.058824e-01	 8.117647e+00	 9.910452e+00
0	 7.058824e-01	 8.235294e+00	 9.920270e+00
0	 8.235294e-01	 7.647059e+00	 9.869591e+00
0	 8.235294e-01	 7.764706e+00	 9.881241e+00
0	 8.235294e-01	 7.882353e+00	 9.892382e+00
0	 8.235294e-01	 8.000000e+00	 9.903005e+00
0	 8.235294e-01	 8.117647e+00	 9.913102e+00
0	 8.235294e-01	 8.235294e+00	 9.922665e+00
0	 9.411765e-01	 7.647059e+00	 9.874594e+00
0	 9.411765e-01	 7.764706e+00	 9.885600e+00
0	 9.411765e-01	 7.882353e+00	 9.896179e+00
0	 9.411765e-01	 8.000000e+00	 9.906330e+00
0	 9.411765e-01	 8.117647e+00	 9.916049e+00
0	 9.411765e-01	 8.235294e+00	 9.925335e+00
0	 1.058824e+00	 7.647059e+00	 9.880145e+00
0	 1.058824e+00	 7.764706e+00	 9.890443e+00
0	 1.058824e+00	 7.882353e+00	 9.900394e+00
0	 1.058824e+00	 8.000000e+00	 9.910008e+00
0	 1.058824e+00	 8.117647e+00	 9.919295e+00
0	 1.058824e+00	 8.235294e+00	 9.928265e+00
0	 1.176471e+00	 7.647059e+00	 9.886137e+00
0	 1.176471e+00	 7.764706e+00	 9.895716e+00
0	 1.176471e+00	 7.882353e+00	 9.905009e+00
0	 1.176471e+00	 8.000000e+00	 9.914043e+00
0	 1.176471e+00	 8.117647e+00	 9.922845e+00
0	 1.176471e+00	 8.235294e+00	 9.931442e+00
0	 5.882353e-01	 8.235294e+00	 9.918162e+00
0	 5.882353e-01	 8.352941e+00	 9.927653e+00
0	 5.882353e-01	 8.470588e+00	 9.936627e+00
0	 5.882353e-01	 8.588235e+00	 9.945113e+00
0	 5.882353e-01	 8.705882e+00	 9.953141e+00
0	 5.882353e-01	 8.823529e+00	 9.960739e+00
0	 7.058824e-01	 8.235294e+00	 9.920270e+00
0	 7.058824e-01	 8.352941e+00	 9.929518e+00
0	 7.058824e-01	 8.470588e+00	 9.938252e+00
0	 7.058824e-01	 8.588235e+00	 9.946508e+00
0	 7.058824e-01	 8.705882e+00	 9.954316e+00
0	 7.058824e-01	 8.823529e+00	 9.961710e+00
0	 8.235294e-01	 8.235294e+00	 9.922665e+00
0	 8.235294e-01	 8.352941e+00	 9.931686e+00
0	 8.235294e-01	 8.470588e+00	 9.940186e+00
0	 8.235294e-01	 8.588235e+00	 9.948197e+00
0	 8.235294e-01	 8.705882e+00	 9.955755e+00
0	 8.235294e-01	 8.823529e+00	 9.962893e+00
0	 9.411765e-01	 8.235294e+00	 9.925335e+00
0	 9.411765e-01	 8.352941e+00	 9.934124e+00
0	 9.411765e-01	 8.470588e+00	 9.942378e+00
0	 9.411765e-01	 8.588235e+00	 9.950130e+00
0	 9.411765e-01	 8.705882e+00	 9.957411e+00
0	 9.411765e-01	 8.823529e+00	 9.964254e+00
0	 1.058824e+00	 8.235294e+00	 9.928265e+00
0	 1.058824e+00	 8.352941e+00	 9.936796e+00
0	 1.058824e+00	 8.470588e+00	 9.944782e+00
0	 1.058824e+00	 8.588235e+00	 9.952252e+00
0	 1.058824e+00	 8.705882e+00	 9.959235e+00
0	 1.058824e+00	 8.823529e+00	 9.965758e+00
0	 1.176471e+00	 8.235294e+00	 9.931442e+00
0	 1.176471e+00	 8.352941e+00	 9.939667e+00
0	 1.176471e+00	 8.470588e+00	 9.947350e+00
0	 1.176471e+00	 8.588235e+00	 9.954514e+00
0	 1.176471e+00	 8.705882e+00	 9.961179e+00
0	 1.176471e+00	 8.823529e+00	 9.967370e+00
0	 5.882353e-01	 8.823529e+00	 9.960739e+00
0	 5.882353e-01	 8.941176e+00	 9.967760e+00
0	 5.882353e-01	 9.058824e+00	 9.974072e+00
0	 5.882353e-01	 9.176471e+00	 9.979723e+00
0	 5.882353e-01	 9.294118e+00	 9.984764e+00
0	 5.882353e-01	 9.411765e+00	 9.989243e+00
0	 7.058824e-01	 8.823529e+00	 9.961710e+00
0	 7.058824e-01	 8.941176e+00	 9.968550e+00
0	 7.058824e-01	 9.058824e+00	 9.974706e+00
0	 7.058824e-01	 9.176471e+00	 9.980223e+00
0	 7.058824e-01	 9.294118e+00	 9.985146e+00
0	 7.058824e-01	 9.411765e+00	 9.989519e+00
0	 8.235294e-01	 8.823529e+00	 9.962893e+00
0	 8.235294e-01	 8.941176e+00	 9.969495e+00
0	 8.235294e-01	 9.058824e+00	 9.975449e+00
0	 8.235294e-01	 9.176471e+00	 9.980797e+00
0	 8.235294e-01	 9.294118e+00	 9.985581e+00
0	 8.235294e-01	 9.411765e+00	 9.989842e+00
0	 9.411765e-01	 8.823529e+00	 9.964254e+00
0	 9.411765e-01	 8.941176e+00	 9.970575e+00
0	 9.411765e-01	 9.058824e+00	 9.976290e+00
0	 9.411765e-01	 9.176471e+00	 9.981439e+00
0	 9.411765e-01	 9.294118e+00	 9.986063e+00
0	 9.411765e-01	 9.411765e+00	 9.990201e+00
0	 1.058824e+00	 8.823529e+00	 9.965758e+00
0	 1.058824e+00	 8.941176e+00	 9.971768e+00
0	 1.058824e+00	 9.058824e+00	 9.977217e+00
0	 1.058824e+00	 9.176471e+00	 9.982144e+00
0	 1.058824e+00	 9.294118e+00	 9.986587e+00
0	 1.058824e+00	 9.411765e+00	 9.990586e+00
0	 1.176471e+00	 8.823529e+00	 9.967370e+00
0	 1.176471e+00	 8.941176e+00	 9.973056e+00
0	 1.176471e+00	 9.058824e+00	 9.978221e+00
0	 1.176471e+00	 9.176471e+00	 9.982905e+00
0	 1.176471e+00	 9.294118e+00	 9.987146e+00
0	 1.176471e+00	 9.411765e+00	 9.990984e+00
0	 5.882353e-01	 9.411765e+00	 9.989243e+00
0	 5.882353e-01	 9.529412e+00	 9.993011e+00
0	 5.882353e-01	 9.647059e+00	 9.995927e+00
0	 5.882353e-01	 9.764706e+00	 9.998055e+00
0	 5.882353e-01	 9.882353e+00	 9.999460e+00
0	 5.882353e-01	 1.000000e+01	 1.000020e+01
0	 7.058824e-01	 9.411765e+00	 9.989519e+00
0	 7.058824e-01	 9.529412e+00	 9.993192e+00
0	 7.058824e-01	 9.647059e+00	 9.996029e+00
0	 7.058824e-01	 9.764706e+00	 9.998098e+00
0	 7.058824e-01	 9.882353e+00	 9.999465e+00
0	 7.058824e-01	 1.000000e+01	 1.000020e+01
0	 8.235294e-01	 9.411765e+00	 9.989842e+00
0	 8.235294e-01	 9.529412e+00	 9.993422e+00
0	 8.235294e-01	 9.647059e+00	 9.996178e+00
0	 8.235294e-01	 9.764706e+00	 9.998180e+00
0	 8.235294e-01	 9.882353e+00	 9.999494e+00
0	 8.235294e-01	 1.000000e+01	 1.000019e+01
0	 9.411765e-01	 9.411765e+00	 9.990201e+00
0	 9.411765e-01	 9.529412e+00	 9.993683e+00
0	 9.411765e-01	 9.647059e+00	 9.996353e+00
0	 9.411765e-01	 9.764706e+00	 9.998280e+00
0	 9.411765e-01	 9.882353e+00	 9.999530e+00
0	 9.411765e-01	 1.000000e+01	 1.000017e+01
0	 1.058824e+00	 9.411765e+00	 9.990586e+00
0	 1.058824e+00	 9.529412e+00	 9.993957e+00
0	 1.058824e+00	 9.647059e+00	 9.996533e+00
0	 1.058824e+00	 9.764706e+00	 9.998379e+00
0	 1.058824e+00	 9.882353e+00	 9.999557e+00
0	 1.058824e+00	 1.000000e+01	 1.000013e+01
0	 1.176471e+00	 9.411765e+00	 9.990984e+00
0	 1.176471e+00	 9.529412e+00	 9.994227e+00
0	 1.176471e+00	 9.647059e+00	 9.996698e+00
0	 1.176471e+00	 9.764706e+00	 9.998455e+00
0	 1.176471e+00	 9.882353e+00	 9.999558e+00
0	 1.176471e+00	 1.000000e+01	 1.000007e+01
0	 1.176471e+00	 0.000000e+00	-2.244880e+00
0	 1.176471e+00	 1.176471e-01	-4.289290e+00
0	 1.176471e+00	 2.352941e-01	-4.160725e+00
0	 1.176471e+00	 3.529412e-01	-1.758773e+00
0	 1.176471e+00	 4.705882e-01	 3.016977e+00
0	 1.176471e+00	 5.882353e-01	 1.026694e+01
0	 1.294118e+00	 0.000000e+00	-3.586245e+00
0	 1.294118e+00	 1.176471e-01	-5.218331e+00
0	 1.294118e+00	 2.352941e-01	-4.652996e+00
0	 1.294118e+00	 3.529412e-01	-1.904460e+00
0	 1.294118e+00	 4.705882e-01	 3.013058e+00
0	 1.294118e+00	 5.882353e-01	 1.008534e+01
0	 1.411765e+00	 0.000000e+00	-3.436472e+00
0	 1.411765e+00	 1.176471e-01	-4.458377e+00
0	 1.411765e+00	 2.352941e-01	-3.557781e+00
0	 1.411765e+00	 3.529412e-01	-8.290226e-01
0	 1.411765e+00	 4.705882e-01	 3.633559e+00
0	 1.411765e+00	 5.882353e-01	 9.735626e+00
0	 1.529412e+00	 0.000000e+00	-1.979666e+00
0	 1.529412e+00	 1.176471e-01	-2.319484e+00
0	 1.529412e+00	 2.352941e-01	-1.202916e+00
0	 1.529412e+00	 3.529412e-01	 1.230093e+00
0	 1.529412e+00	 4.705882e-01	 4.839597e+00
0	 1.529412e+00	 5.882353e-01	 9.485649e+00
0	 1.647059e+00	 0.000000e+00	 6.000619e-01
0	 1.647059e+00	 1.176471e-01	 8.882898e-01
0	 1.647059e+00	 2.352941e-01	 2.083763e+00
0	 1.647059e+00	 3.529412e-01	 4.035442e+00
0	 1.647059e+00	 4.705882e-01	 6.592285e+00
0	 1.647059e+00	 5.882353e-01	 9.603252e+00
0	 1.764706e+00	 0.000000e+00	 4.118605e+00
0	 1.764706e+00	 1.176471e-01	 4.854889e+00
0	 1.764706e+00	 2.352941e-01	 5.974421e+00
0	 1.764706e+00	 3.529412e-01	 7.349579e+00
0	 1.764706e+00	 4.705882e-01	 8.852740e+00
0	 1.764706e+00	 5.882353e-01	 1.035628e+01
0	 1.176471e+00	 5.882353e-01	 1.026694e+01
0	 1.176471e+00	 7.058824e-01	 1.765184e+01
0	 1.176471e+00	 8.235294e-01	 2.272578e+01
0	 1.176471e+00	 9.411765e-01	 2.542923e+01
0	 1.176471e+00	 1.058824e+00	 2.570265e+01
0	 1.176471e+00	 1.176471e+00	 2.348650e+01
0	 1.294118e+00	 5.882353e-01	 1.008534e+01
0	 1.294118e+00	 7.058824e-01	 1.706584e+01
0	 1.294118e+00	 8.235294e-01	 2.168535e+01
0	 1.294118e+00	 9.411765e-01	 2.389561e+01
0	 1.294118e+00	 1.058824e+00	 2.364837e+01
0	 1.294118e+00	 1.176471e+00	 2.089540e+01
0	 1.411765e+00	 5.882353e-01	 9.735626e+00
0	 1.411765e+00	 7.058824e-01	 1.561642e+01
0	 1.411765e+00	 8.235294e-01	 1.945352e+01
0	 1.411765e+00	 9.411765e-01	 2.121007e+01
0	 1.411765e+00	 1.058824e+00	 2.084921e+01
0	 1.411765e+00	 1.176471e+00	 1.833408e+01
0	 1.529412e+00	 5.882353e-01	 9.485649e+00
0	 1.529412e+00	 7.058824e-01	 1.385719e+01
0	 1.529412e+00	 8.235294e-01	 1.671955e+01
0	 1.529412e+00	 9.411765e-01	 1.804737e+01
0	 1.529412e+00	 1.058824e+00	 1.781530e+01
0	 1.529412e+00	 1.176471e+00	 1.599799e+01
0	 1.647059e+00	 5.882353e-01	 9.603252e+00
0	 1.647059e+00	 7.058824e-01	 1.234174e+01
0	 1.647059e+00	 8.235294e-01	 1.417266e+01
0	 1.647059e+00	 9.411765e-01	 1.508227e+01
0	 1.647059e+00	 1.058824e+00	 1.505682e+01
0	 1.647059e+00	 1.176471e+00	 1.408257e+01
0	 1.764706e+00	 5.882353e-01	 1.035628e+01
0	 1.764706e+00	 7.058824e-01	 1.162366e+01
0	 1.764706e+00	 8.235294e-01	 1.250209e+01
0	 1.764706e+00	 9.411765e-01	 1.298952e+01
0	 1.764706e+00	 1.058824e+00	 1.308391e+01
0	 1.764706e+00	 1.176471e+00	 1.278324e+01
0	 1.176471e+00	 1.176471e+00	 2.348650e+01
0	 1.176471e+00	 1.294118e+00	 2.020549e+01
0	 1.176471e+00	 1.411765e+00	 1.733598e+01
0	 1.176471e+00	 1.529412e+00	 1.489593e+01
0	 1.176471e+00	 1.647059e+00	 1.290331e+01
0	 1.176471e+00	 1.764706e+00	 1.137608e+01
0	 1.294118e+00	 1.176471e+00	 2.089540e+01
0	 1.294118e+00	 1.294118e+00	 1.723475e+01
0	 1.294118e+00	 1.411765e+00	 1.431095e+01
0	 1.294118e+00	 1.529412e+00	 1.214546e+01
0	 1.294118e+00	 1.647059e+00	 1.075971e+01
0	 1.294118e+00	 1.764706e+00	 1.017514e+01
0	 1.411765e+00	 1.176471e+00	 1.833408e+01
0	 1.411765e+00	 1.294118e+00	 1.509729e+01
0	 1.411765e+00	 1.411765e+00	 1.261143e+01
0	 1.411765e+00	 1.529412e+00	 1.089970e+01
0	 1.411765e+00	 1.647059e+00	 9.985251e+00
0	 1.411765e+00	 1.764706e+00	 9.891267e+00
0	 1.529412e+00	 1.176471e+00	 1.599799e+01
0	 1.529412e+00	 1.294118e+00	 1.365607e+01
0	 1.529412e+00	 1.411765e+00	 1.188250e+01
0	 1.529412e+00	 1.529412e+00	 1.070046e+01
0	 1.529412e+00	 1.647059e+00	 1.013310e+01
0	 1.529412e+00	 1.764706e+00	 1.020359e+01
0	 1.647059e+00	 1.176471e+00	 1.408257e+01
0	 1.647059e+00	 1.294118e+00	 1.277405e+01
0	 1.647059e+00	 1.411765e+00	 1.176926e+01
0	 1.647059e+00	 1.529412e+00	 1.108959e+01
0	 1.647059e+00	 1.647059e+00	 1.075645e+01
0	 1.647059e+00	 1.764706e+00	 1.079123e+01
0	 1.764706e+00	 1.176471e+00	 1.278324e+01
0	 1.764706e+00	 1.294118e+00	 1.231421e+01
0	 1.764706e+00	 1.411765e+00	 1.191680e+01
0	 1.764706e+00	 1.529412e+00	 1.160892e+01
0	 1.764706e+00	 1.647059e+00	 1.140846e+01
0	 1.764706e+00	 1.764706e+00	 1.133333e+01
0	 1.176471e+00	 1.764706e+00	 1.137608e+01
0	 1.176471e+00	 1.882353e+00	 1.024821e+01
0	 1.176471e+00	 2.000000e+00	 9.439958e+00
0	 1.176471e+00	 2.117647e+00	 8.948784e+00
0	 1.176471e+00	 2.235294e+00	 8.772133e+00
0	 1.176471e+00	 2.352941e+00	 8.907455e+00
0	 1.294118e+00	 1.764706e+00	 1.017514e+01
0	 1.294118e+00	 1.882353e+00	 1.000139e+01
0	 1.294118e+00	 2.000000e+00	 9.839509e+00
0	 1.294118e+00	 2.117647e+00	 9.698072e+00
0	 1.294118e+00	 2.235294e+00	 9.585650e+00
0	 1.294118e+00	 2.352941e+00	 9.510819e+00
0	 1.411765e+00	 1.764706e+00	 9.891267e+00
0	 1.411765e+00	 1.882353e+00	 1.014259e+01
0	 1.411765e+00	 2.000000e+00	 1.025844e+01
0	 1.411765e+00	 2.117647e+00	 1.025356e+01
0	 1.411765e+00	 2.235294e+00	 1.014271e+01
0	 1.411765e+00	 2.352941e+00	 9.940633e+00
0	 1.529412e+00	 1.764706e+00	 1.020359e+01
0	 1.529412e+00	 1.882353e+00	 1.051209e+01
0	 1.529412e+00	 2.000000e+00	 1.065400e+01
0	 1.529412e+00	 2.117647e+00	 1.064529e+01
0	 1.529412e+00	 2.235294e+00	 1.050193e+01
0	 1.529412e+00	 2.352941e+00	 1.023990e+01
0	 1.647059e+00	 1.764706e+00	 1.079123e+01
0	 1.647059e+00	 1.882353e+00	 1.095018e+01
0	 1.647059e+00	 2.000000e+00	 1.098345e+01
0	 1.647059e+00	 2.117647e+00	 1.090328e+01
0	 1.647059e+00	 2.235294e+00	 1.072192e+01
0	 1.647059e+00	 2.352941e+00	 1.045162e+01
0	 1.764706e+00	 1.764706e+00	 1.133333e+01
0	 1.764706e+00	 1.882353e+00	 1.129716e+01
0	 1.764706e+00	 2.000000e+00	 1.120404e+01
0	 1.764706e+00	 2.117647e+00	 1.105756e+01
0	 1.764706e+00	 2.235294e+00	 1.086129e+01
0	 1.764706e+00	 2.352941e+00	 1.061880e+01
0	 1.176471e+00	 2.352941e+00	 8.907455e+00
0	 1.176471e+00	 2.470588e+00	 9.152922e+00
0	 1.176471e+00	 2.588235e+00	 9.310038e+00
0	 1.176471e+00	 2.705882e+00	 9.381251e+00
0	 1.176471e+00	 2.823529e+00	 9.369007e+00
0	 1.176471e+00	 2.941176e+00	 9.275755e+00
0	 1.294118e+00	 2.352941e+00	 9.510819e+00
0	 1.294118e+00	 2.470588e+00	 9.469446e+00
0	 1.294118e+00	 2.588235e+00	 9.445855e+00
0	 1.294118e+00	 2.705882e+00	 9.431296e+00
0	 1.294118e+00	 2.823529e+00	 9.417020e+00
0	 1.294118e+00	 2.941176e+00	 9.394278e+00
0	 1.411765e+00	 2.352941e+00	 9.940633e+00
0	 1.411765e+00	 2.470588e+00	 9.740837e+00
0	 1.411765e+00	 2.588235e+00	 9.616643e+00
0	 1.411765e+00	 2.705882e+00	 9.552508e+00
0	 1.411765e+00	 2.823529e+00	 9.532892e+00
0	 1.411765e+00	 2.941176e+00	 9.542253e+00
0	 1.529412e+00	 2.352941e+00	 1.023990e+01
0	 1.529412e+00	 2.470588e+00	 9.977580e+00
0	 1.529412e+00	 2.588235e+00	 9.810747e+00
0	 1.529412e+00	 2.705882e+00	 9.721474e+00
0	 1.529412e+00	 2.823529e+00	 9.691829e+00
0	 1.529412e+00	 2.941176e+00	 9.703884e+00
0	 1.647059e+00	 2.352941e+00	 1.045162e+01
0	 1.647059e+00	 2.470588e+00	 1.019016e+01
0	 1.647059e+00	 2.588235e+00	 1.001652e+01
0	 1.647059e+00	 2.705882e+00	 9.914779e+00
0	 1.647059e+00	 2.823529e+00	 9.869037e+00
0	 1.647059e+00	 2.941176e+00	 9.863373e+00
0	 1.764706e+00	 2.352941e+00	 1.061880e+01
0	 1.764706e+00	 2.470588e+00	 1.038906e+01
0	 1.764706e+00	 2.588235e+00	 1.022229e+01
0	 1.764706e+00	 2.705882e+00	 1.010901e+01
0	 1.764706e+00	 2.823529e+00	 1.003972e+01
0	 1.764706e+00	 2.941176e+00	 1.000492e+01
0	 1.176471e+00	 2.941176e+00	 9.275755e+00
0	 1.176471e+00	 3.058824e+00	 9.163307e+00
0	 1.176471e+00	 3.176471e+00	 9.092581e+00
0	 1.176471e+00	 3.294118e+00	 9.064679e+00
0	 1.176471e+00	 3.411765e+00	 9.080706e+00
0	 1.176471e+00	 3.529412e+00	 9.141763e+00
0	 1.294118e+00	 2.941176e+00	 9.394278e+00
0	 1.294118e+00	 3.058824e+00	 9.360919e+00
0	 1.294118e+00	 3.176471e+00	 9.326083e+00
0	 1.294118e+00	 3.294118e+00	 9.297960e+00
0	 1.294118e+00	 3.411765e+00	 9.284738e+00
0	 1.294118e+00	 3.529412e+00	 9.294606e+00
0	 1.411765e+00	 2.941176e+00	 9.542253e+00
0	 1.411765e+00	 3.058824e+00	 9.544580e+00
0	 1.411765e+00	 3.176471e+00	 9.522478e+00
0	 1.411765e+00	 3.294118e+00	 9.488329e+00
0	 1.411765e+00	 3.411765e+00	 9.454517e+00
0	 1.411765e+00	 3.529412e+00	 9.433425e+00
0	 1.529412e+00	 2.941176e+00	 9.703884e+00
0	 1.529412e+00	 3.058824e+00	 9.710628e+00
0	 1.529412e+00	 3.176471e+00	 9.686127e+00
0	 1.529412e+00	 3.294118e+00	 9.644065e+00
0	 1.529412e+00	 3.411765e+00	 9.598129e+00
0	 1.529412e+00	 3.529412e+00	 9.562002e+00
0	 1.647059e+00	 2.941176e+00	 9.863373e+00
0	 1.647059e+00	 3.058824e+00	 9.855397e+00
0	 1.647059e+00	 3.176471e+00	 9.821390e+00
0	 1.647059e+00	 3.294118e+00	 9.773446e+00
0	 1.647059e+00	 3.411765e+00	 9.723659e+00
0	 1.647059e+00	 3.529412e+00	 9.684124e+00
0	 1.764706e+00	 2.941176e+00	 1.000492e+01
0	 1.764706e+00	 3.058824e+00	 9.975225e+00
0	 1.764706e+00	 3.176471e+00	 9.932629e+00
0	 1.764706e+00	 3.294118e+00	 9.884747e+00
0	 1.764706e+00	 3.411765e+00	 9.839192e+00
0	 1.764706e+00	 3.529412e+00	 9.803574e+00
0	 1.176471e+00	 3.529412e+00	 9.141763e+00
0	 1.176471e+00	 3.647059e+00	 9.218042e+00
0	 1.176471e+00	 3.764706e+00	 9.278611e+00
0	 1.176471e+00	 3.882353e+00	 9.322891e+00
0	 1.176471e+00	 4.000000e+00	 9.350301e+00
0	 1.176471e+00	 4.117647e+00	 9.360264e+00
0	 1.294118e+00	 3.529412e+00	 9.294606e+00
0	 1.294118e+00	 3.647059e+00	 9.322685e+00
0	 1.294118e+00	 3.764706e+00	 9.355440e+00
0	 1.294118e+00	 3.882353e+00	 9.388087e+00
0	 1.294118e+00	 4.000000e+00	 9.415839e+00
0	 1.294118e+00	 4.117647e+00	 9.433911e+00
0	 1.411765e+00	 3.529412e+00	 9.433425e+00
0	 1.411765e+00	 3.647059e+00	 9.433005e+00
0	 1.411765e+00	 3.764706e+00	 9.448109e+00
0	 1.411765e+00	 3.882353e+00	 9.471465e+00
0	 1.411765e+00	 4.000000e+00	 9.495805e+00
0	 1.411765e+00	 4.117647e+00	 9.513858e+00
0	 1.529412e+00	 3.529412e+00	 9.562002e+00
0	 1.529412e+00	 3.647059e+00	 9.547373e+00
0	 1.529412e+00	 3.764706e+00	 9.551450e+00
0	 1.529412e+00	 3.882353e+00	 9.566202e+00
0	 1.529412e+00	 4.000000e+00	 9.583597e+00
0	 1.529412e+00	 4.117647e+00	 9.595602e+00
0	 1.647059e+00	 3.529412e+00	 9.684124e+00
0	 1.647059e+00	 3.647059e+00	 9.664157e+00
0	 1.647059e+00	 3.764706e+00	 9.660297e+00
0	 1.647059e+00	 3.882353e+00	 9.665473e+00
0	 1.647059e+00	 4.000000e+00	 9.672612e+00
0	 1.647059e+00	 4.117647e+00	 9.674643e+00
0	 1.764706e+00	 3.529412e+00	 9.803574e+00
0	 1.764706e+00	 3.647059e+00	 9.781727e+00
0	 1.764706e+00	 3.764706e+00	 9.769484e+00
0	 1.764706e+00	 3.882353e+00	 9.762455e+00
0	 1.764706e+00	 4.000000e+00	 9.756250e+00
0	 1.764706e+00	 4.117647e+00	 9.746480e+00
0	 1.176471e+00	 4.117647e+00	 9.360264e+00
0	 1.176471e+00	 4.235294e+00	 9.364106e+00
0	 1.176471e+00	 4.352941e+00	 9.374125e+00
0	 1.176471e+00	 4.470588e+00	 9.391194e+00
0	 1.176471e+00	 4.588235e+00	 9.416184e+00
0	 1.176471e+00	 4.705882e+00	 9.449970e+00
0	 1.294118e+00	 4.117647e+00	 9.433911e+00
0	 1.294118e+00	 4.235294e+00	 9.443777e+00
0	 1.294118e+00	 4.352941e+00	 9.452233e+00
0	 1.294118e+00	 4.470588e+00	 9.462473e+00
0	 1.294118e+00	 4.588235e+00	 9.477691e+00
0	 1.294118e+00	 4.705882e+00	 9.501084e+00
0	 1.411765e+00	 4.117647e+00	 9.513858e+00
0	 1.411765e+00	 4.235294e+00	 9.522389e+00
0	 1.411765e+00	 4.352941e+00	 9.526044e+00
0	 1.411765e+00	 4.470588e+00	 9.529367e+00
0	 1.411765e+00	 4.588235e+00	 9.536903e+00
0	 1.411765e+00	 4.705882e+00	 9.553199e+00
0	 1.529412e+00	 4.117647e+00	 9.595602e+00
0	 1.529412e+00	 4.235294e+00	 9.598065e+00
0	 1.529412e+00	 4.352941e+00	 9.595474e+00
0	 1.529412e+00	 4.470588e+00	 9.592752e+00
0	 1.529412e+00	 4.588235e+00	 9.594826e+00
0	 1.529412e+00	 4.705882e+00	 9.606619e+00
0	 1.647059e+00	 4.117647e+00	 9.674643e+00
0	 1.647059e+00	 4.235294e+00	 9.668929e+00
0	 1.647059e+00	 4.352941e+00	 9.660440e+00
0	 1.647059e+00	 4.470588e+00	 9.653507e+00
0	 1.647059e+00	 4.588235e+00	 9.652465e+00
0	 1.647059e+00	 4.705882e+00	 9.661646e+00
0	 1.764706e+00	 4.117647e+00	 9.746480e+00
0	 1.764706e+00	 4.235294e+00	 9.733105e+00
0	 1.764706e+00	 4.352941e+00	 9.720858e+00
0	 1.764706e+00	 4.470588e+00	 9.712509e+00
0	 1.764706e+00	 4.588235e+00	 9.710827e+00
0	 1.764706e+00	 4.705882e+00	 9.718583e+00
0	 1.176471e+00	 4.705882e+00	 9.449970e+00
0	 1.176471e+00	 4.823529e+00	 9.486505e+00
0	 1.176471e+00	 4.941176e+00	 9.518878e+00
0	 1.176471e+00	 5.058824e+00	 9.546663e+00
0	 1.176471e+00	 5.176471e+00	 9.569432e+00
0	 1.176471e+00	 5.294118e+00	 9.586759e+00
0	 1.294118e+00	 4.705882e+00	 9.501084e+00
0	 1.294118e+00	 4.823529e+00	 9.529795e+00
0	 1.294118e+00	 4.941176e+00	 9.557791e+00
0	 1.294118e+00	 5.058824e+00	 9.583498e+00
0	 1.294118e+00	 5.176471e+00	 9.605341e+00
0	 1.294118e+00	 5.294118e+00	 9.621745e+00
0	 1.411765e+00	 4.705882e+00	 9.553199e+00
0	 1.411765e+00	 4.823529e+00	 9.576643e+00
0	 1.411765e+00	 4.941176e+00	 9.601110e+00
0	 1.411765e+00	 5.058824e+00	 9.624373e+00
0	 1.411765e+00	 5.176471e+00	 9.644206e+00
0	 1.411765e+00	 5.294118e+00	 9.658381e+00
0	 1.529412e+00	 4.705882e+00	 9.606619e+00
0	 1.529412e+00	 4.823529e+00	 9.626400e+00
0	 1.529412e+00	 4.941176e+00	 9.647564e+00
0	 1.529412e+00	 5.058824e+00	 9.667727e+00
0	 1.529412e+00	 5.176471e+00	 9.684506e+00
0	 1.529412e+00	 5.294118e+00	 9.695518e+00
0	 1.647059e+00	 4.705882e+00	 9.661646e+00
0	 1.647059e+00	 4.823529e+00	 9.678414e+00
0	 1.647059e+00	 4.941176e+00	 9.695879e+00
0	 1.647059e+00	 5.058824e+00	 9.711996e+00
0	 1.647059e+00	 5.176471e+00	 9.724720e+00
0	 1.647059e+00	 5.294118e+00	 9.732006e+00
0	 1.764706e+00	 4.705882e+00	 9.718583e+00
0	 1.764706e+00	 4.823529e+00	 9.732034e+00
0	 1.764706e+00	 4.941176e+00	 9.744783e+00
0	 1.764706e+00	 5.058824e+00	 9.755618e+00
0	 1.764706e+00	 5.176471e+00	 9.763326e+00
0	 1.764706e+00	 5.294118e+00	 9.766696e+00
0	 1.176471e+00	 5.294118e+00	 9.586759e+00
0	 1.176471e+00	 5.411765e+00	 9.601633e+00
0	 1.176471e+00	 5.529412e+00	 9.617525e+00
0	 1.176471e+00	 5.647059e+00	 9.634726e+00
0	 1.176471e+00	 5.764706e+00	 9.653530e+00
0	 1.176471e+00	 5.882353e+00	 9.674230e+00
0	 1.294118e+00	 5.294118e+00	 9.621745e+00
0	 1.294118e+00	 5.411765e+00	 9.634652e+00
0	 1.294118e+00	 5.529412e+00	 9.647621e+00
0	 1.294118e+00	 5.647059e+00	 9.661507e+00
0	 1.294118e+00	 5.764706e+00	 9.677165e+00
0	 1.294118e+00	 5.882353e+00	 9.695448e+00
0	 1.411765e+00	 5.294118e+00	 9.658381e+00
0	 1.411765e+00	 5.411765e+00	 9.668476e+00
0	 1.411765e+00	 5.529412e+00	 9.678333e+00
0	 1.411765e+00	 5.647059e+00	 9.689126e+00
0	 1.411765e+00	 5.764706e+00	 9.702028e+00
0	 1.411765e+00	 5.882353e+00	 9.718213e+00
0	 1.529412e+00	 5.294118e+00	 9.695518e+00
0	 1.529412e+00	 5.411765e+00	 9.702426e+00
0	 1.529412e+00	 5.529412e+00	 9.709317e+00
0	 1.529412e+00	 5.647059e+00	 9.717440e+00
0	 1.529412e+00	 5.764706e+00	 9.728043e+00
0	 1.529412e+00	 5.882353e+00	 9.742374e+00
0	 1.647059e+00	 5.294118e+00	 9.732006e+00
0	 1.647059e+00	 5.411765e+00	 9.735824e+00
0	 1.647059e+00	 5.529412e+00	 9.740230e+00
0	 1.647059e+00	 5.647059e+00	 9.746306e+00
0	 1.647059e+00	 5.764706e+00	 9.755131e+00
0	 1.647059e+00	 5.882353e+00	 9.767785e+00
0	 1.764706e+00	 5.294118e+00	 9.766696e+00
0	 1.764706e+00	 5.411765e+00	 9.767991e+00
0	 1.764706e+00	 5.529412e+00	 9.770730e+00
0	 1.764706e+00	 5.647059e+00	 9.775581e+00
0	 1.764706e+00	 5.764706e+00	 9.783214e+00
0	 1.764706e+00	 5.882353e+00	 9.794297e+00
0	 1.176471e+00	 5.882353e+00	 9.674230e+00
0	 1.176471e+00	 6.000000e+00	 9.695232e+00
0	 1.176471e+00	 6.117647e+00	 9.714666e+00
0	 1.176471e+00	 6.235294e+00	 9.732406e+00
0	 1.176471e+00	 6.352941e+00	 9.748330e+00
0	 1.176471e+00	 6.470588e+00	 9.762313e+00
0	 1.294118e+00	 5.882353e+00	 9.695448e+00
0	 1.294118e+00	 6.000000e+00	 9.714900e+00
0	 1.294118e+00	 6.117647e+00	 9.733244e+00
0	 1.294118e+00	 6.235294e+00	 9.750114e+00
0	 1.294118e+00	 6.352941e+00	 9.765140e+00
0	 1.294118e+00	 6.470588e+00	 9.777954e+00
0	 1.411765e+00	 5.882353e+00	 9.718213e+00
0	 1.411765e+00	 6.000000e+00	 9.736164e+00
0	 1.411765e+00	 6.117647e+00	 9.753252e+00
0	 1.411765e+00	 6.235294e+00	 9.768973e+00
0	 1.411765e+00	 6.352941e+00	 9.782826e+00
0	 1.411765e+00	 6.470588e+00	 9.794311e+00
0	 1.529412e+00	 5.882353e+00	 9.742374e+00
0	 1.529412e+00	 6.000000e+00	 9.758761e+00
0	 1.529412e+00	 6.117647e+00	 9.774349e+00
0	 1.529412e+00	 6.235294e+00	 9.788613e+00
0	 1.529412e+00	 6.352941e+00	 9.801031e+00
0	 1.529412e+00	 6.470588e+00	 9.811078e+00
0	 1.647059e+00	 5.882353e+00	 9.767785e+00
0	 1.647059e+00	 6.000000e+00	 9.782425e+00
0	 1.647059e+00	 6.117647e+00	 9.796197e+00
0	 1.647059e+00	 6.235294e+00	 9.808665e+00
0	 1.647059e+00	 6.352941e+00	 9.819394e+00
0	 1.647059e+00	 6.470588e+00	 9.827951e+00
0	 1.764706e+00	 5.882353e+00	 9.794297e+00
0	 1.764706e+00	 6.000000e+00	 9.806892e+00
0	 1.764706e+00	 6.117647e+00	 9.818456e+00
0	 1.764706e+00	 6.235294e+00	 9.828756e+00
0	 1.764706e+00	 6.352941e+00	 9.837557e+00
0	 1.764706e+00	 6.470588e+00	 9.844624e+00
0	 1.176471e+00	 6.470588e+00	 9.762313e+00
0	 1.176471e+00	 6.588235e+00	 9.775261e+00
0	 1.176471e+00	 6.705882e+00	 9.788212e+00
0	 1.176471e+00	 6.823529e+00	 9.801238e+00
0	 1.176471e+00	 6.941176e+00	 9.814413e+00
0	 1.176471e+00	 7.058824e+00	 9.827811e+00
0	 1.294118e+00	 6.470588e+00	 9.777954e+00
0	 1.294118e+00	 6.588235e+00	 9.789471e+00
0	 1.294118e+00	 6.705882e+00	 9.800971e+00
0	 1.294118e+00	 6.823529e+00	 9.812638e+00
0	 1.294118e+00	 6.941176e+00	 9.824654e+00
0	 1.294118e+00	 7.058824e+00	 9.837203e+00
0	 1.411765e+00	 6.470588e+00	 9.794311e+00
0	 1.411765e+00	 6.588235e+00	 9.804378e+00
0	 1.411765e+00	 6.705882e+00	 9.814477e+00
0	 1.411765e+00	 6.823529e+00	 9.824850e+00
0	 1.411765e+00	 6.941176e+00	 9.835741e+00
0	 1.411765e+00	 7.058824e+00	 9.847392e+00
0	 1.529412e+00	 6.470588e+00	 9.811078e+00
0	 1.529412e+00	 6.588235e+00	 9.819747e+00
0	 1.529412e+00	 6.705882e+00	 9.828545e+00
0	 1.529412e+00	 6.823529e+00	 9.837728e+00
0	 1.529412e+00	 6.941176e+00	 9.847550e+00
0	 1.529412e+00	 7.058824e+00	 9.858266e+00
0	 1.647059e+00	 6.470588e+00	 9.827951e+00
0	 1.647059e+00	 6.588235e+00	 9.835338e+00
0	 1.647059e+00	 6.705882e+00	 9.842989e+00
0	 1.647059e+00	 6.823529e+00	 9.851123e+00
0	 1.647059e+00	 6.941176e+00	 9.859957e+00
0	 1.647059e+00	 7.058824e+00	 9.869708e+00
0	 1.764706e+00	 6.470588e+00	 9.844624e+00
0	 1.764706e+00	 6.588235e+00	 9.850914e+00
0	 1.764706e+00	 6.705882e+00	 9.857626e+00
0	 1.764706e+00	 6.823529e+00	 9.864891e+00
0	 1.764706e+00	 6.941176e+00	 9.872840e+00
0	 1.764706e+00	 7.058824e+00	 9.881603e+00
0	 1.176471e+00	 7.058824e+00	 9.827811e+00
0	 1.176471e+00	 7.176471e+00	 9.840982e+00
0	 1.176471e+00	 7.294118e+00	 9.853415e+00
0	 1.176471e+00	 7.411765e+00	 9.865096e+00
0	 1.176471e+00	 7.529412e+00	 9.876008e+00
0	 1.176471e+00	 7.647059e+00	 9.886137e+00
0	 1.294118e+00	 7.058824e+00	 9.837203e+00
0	 1.294118e+00	 7.176471e+00	 9.849754e+00
0	 1.294118e+00	 7.294118e+00	 9.861617e+00
0	 1.294118e+00	 7.411765e+00	 9.872737e+00
0	 1.294118e+00	 7.529412e+00	 9.883056e+00
0	 1.294118e+00	 7.647059e+00	 9.892518e+00
0	 1.411765e+00	 7.058824e+00	 9.847392e+00
0	 1.411765e+00	 7.176471e+00	 9.859209e+00
0	 1.411765e+00	 7.294118e+00	 9.870381e+00
0	 1.411765e+00	 7.411765e+00	 9.880831e+00
0	 1.411765e+00	 7.529412e+00	 9.890479e+00
0	 1.411765e+00	 7.647059e+00	 9.899248e+00
0	 1.529412e+00	 7.058824e+00	 9.858266e+00
0	 1.529412e+00	 7.176471e+00	 9.869236e+00
0	 1.529412e+00	 7.294118e+00	 9.879597e+00
0	 1.529412e+00	 7.411765e+00	 9.889271e+00
0	 1.529412e+00	 7.529412e+00	 9.898177e+00
0	 1.529412e+00	 7.647059e+00	 9.906236e+00
0	 1.647059e+00	 7.058824e+00	 9.869708e+00
0	 1.647059e+00	 7.176471e+00	 9.879720e+00
0	 1.647059e+00	 7.294118e+00	 9.889156e+00
0	 1.647059e+00	 7.411765e+00	 9.897953e+00
0	 1.647059e+00	 7.529412e+00	 9.906051e+00
0	 1.647059e+00	 7.647059e+00	 9.913388e+00
0	 1.764706e+00	 7.058824e+00	 9.881603e+00
0	 1.764706e+00	 7.176471e+00	 9.890550e+00
0	 1.764706e+00	 7.294118e+00	 9.898946e+00
0	 1.764706e+00	 7.411765e+00	 9.906771e+00
0	 1.764706e+00	 7.529412e+00	 9.914001e+00
0	 1.764706e+00	 7.647059e+00	 9.920615e+00
0	 1.176471e+00	 7.647059e+00	 9.886137e+00
0	 1.176471e+00	 7.764706e+00	 9.895716e+00
0	 1.176471e+00	 7.882353e+00	 9.905009e+00
0	 1.176471e+00	 8.000000e+00	 9.914043e+00
0	 1.176471e+00	 8.117647e+00	 9.922845e+00
0	 1.176471e+00	 8.235294e+00	 9.931442e+00
0	 1.294118e+00	 7.647059e+00	 9.892518e+00
0	 1.294118e+00	 7.764706e+00	 9.901395e+00
0	 1.294118e+00	 7.882353e+00	 9.910029e+00
0	 1.294118e+00	 8.000000e+00	 9.918462e+00
0	 1.294118e+00	 8.117647e+00	 9.926740e+00
0	 1.294118e+00	 8.235294e+00	 9.934907e+00
0	 1.411765e+00	 7.647059e+00	 9.899248e+00
0	 1.411765e+00	 7.764706e+00	 9.907433e+00
0	 1.411765e+00	 7.882353e+00	 9.915415e+00
0	 1.411765e+00	 8.000000e+00	 9.923247e+00
0	 1.411765e+00	 8.117647e+00	 9.930982e+00
0	 1.411765e+00	 8.235294e+00	 9.938673e+00
0	 1.529412e+00	 7.647059e+00	 9.906236e+00
0	 1.529412e+00	 7.764706e+00	 9.913745e+00
0	 1.529412e+00	 7.882353e+00	 9.921092e+00
0	 1.529412e+00	 8.000000e+00	 9.928329e+00
0	 1.529412e+00	 8.117647e+00	 9.935511e+00
0	 1.529412e+00	 8.235294e+00	 9.942690e+00
0	 1.647059e+00	 7.647059e+00	 9.913388e+00
0	 1.647059e+00	 7.764706e+00	 9.920248e+00
0	 1.647059e+00	 7.882353e+00	 9.926984e+00
0	 1.647059e+00	 8.000000e+00	 9.933640e+00
0	 1.647059e+00	 8.117647e+00	 9.940265e+00
0	 1.647059e+00	 8.235294e+00	 9.946905e+00
0	 1.764706e+00	 7.647059e+00	 9.920615e+00
0	 1.764706e+00	 7.764706e+00	 9.926859e+00
0	 1.764706e+00	 7.882353e+00	 9.933014e+00
0	 1.764706e+00	 8.000000e+00	 9.939113e+00
0	 1.764706e+00	 8.117647e+00	 9.945186e+00
0	 1.764706e+00	 8.235294e+00	 9.951265e+00
0	 1.176471e+00	 8.235294e+00	 9.931442e+00
0	 1.176471e+00	 8.352941e+00	 9.939667e+00
0	 1.176471e+00	 8.470588e+00	 9.947350e+00
0	 1.176471e+00	 8.588235e+00	 9.954514e+00
0	 1.176471e+00	 8.705882e+00	 9.961179e+00
0	 1.176471e+00	 8.823529e+00	 9.967370e+00
0	 1.294118e+00	 8.235294e+00	 9.934907e+00
0	 1.294118e+00	 8.352941e+00	 9.942763e+00
0	 1.294118e+00	 8.470588e+00	 9.950094e+00
0	 1.294118e+00	 8.588235e+00	 9.956915e+00
0	 1.294118e+00	 8.705882e+00	 9.963242e+00
0	 1.294118e+00	 8.823529e+00	 9.969091e+00
0	 1.411765e+00	 8.235294e+00	 9.938673e+00
0	 1.411765e+00	 8.352941e+00	 9.946104e+00
0	 1.411765e+00	 8.470588e+00	 9.953033e+00
0	 1.411765e+00	 8.588235e+00	 9.959471e+00
0	 1.411765e+00	 8.705882e+00	 9.965432e+00
0	 1.411765e+00	 8.823529e+00	 9.970926e+00
0	 1.529412e+00	 8.235294e+00	 9.942690e+00
0	 1.529412e+00	 8.352941e+00	 9.949645e+00
0	 1.529412e+00	 8.470588e+00	 9.956127e+00
0	 1.529412e+00	 8.588235e+00	 9.962147e+00
0	 1.529412e+00	 8.705882e+00	 9.967716e+00
0	 1.529412e+00	 8.823529e+00	 9.972846e+00
0	 1.647059e+00	 8.235294e+00	 9.946905e+00
0	 1.647059e+00	 8.352941e+00	 9.953342e+00
0	 1.647059e+00	 8.470588e+00	 9.959338e+00
0	 1.647059e+00	 8.588235e+00	 9.964907e+00
0	 1.647059e+00	 8.705882e+00	 9.970063e+00
0	 1.647059e+00	 8.823529e+00	 9.974819e+00
0	 1.764706e+00	 8.235294e+00	 9.951265e+00
0	 1.764706e+00	 8.352941e+00	 9.957148e+00
0	 1.764706e+00	 8.470588e+00	 9.962626e+00
0	 1.764706e+00	 8.588235e+00	 9.967718e+00
0	 1.764706e+00	 8.705882e+00	 9.972441e+00
0	 1.764706e+00	 8.823529e+00	 9.976815e+00
0	 1.176471e+00	 8.823529e+00	 9.967370e+00
0	 1.176471e+00	 8.941176e+00	 9.973056e+00
0	 1.176471e+00	 9.058824e+00	 9.978221e+00
0	 1.176471e+00	 9.176471e+00	 9.982905e+00
0	 1.176471e+00	 9.294118e+00	 9.987146e+00
0	 1.176471e+00	 9.411765e+00	 9.990984e+00
0	 1.294118e+00	 8.823529e+00	 9.969091e+00
0	 1.294118e+00	 8.941176e+00	 9.974449e+00
0	 1.294118e+00	 9.058824e+00	 9.979322e+00
0	 1.294118e+00	 9.176471e+00	 9.983749e+00
0	 1.294118e+00	 9.294118e+00	 9.987770e+00
0	 1.294118e+00	 9.411765e+00	 9.991424e+00
0	 1.411765e+00	 8.823529e+00	 9.970926e+00
0	 1.411765e+00	 8.941176e+00	 9.975953e+00
0	 1.411765e+00	 9.058824e+00	 9.980527e+00
0	 1.411765e+00	 9.176471e+00	 9.984689e+00
0	 1.411765e+00	 9.294118e+00	 9.988475e+00
0	 1.411765e+00	 9.411765e+00	 9.991926e+00
0	 1.529412e+00	 8.823529e+00	 9.972846e+00
0	 1.529412e+00	 8.941176e+00	 9.977537e+00
0	 1.529412e+00	 9.058824e+00	 9.981809e+00
0	 1.529412e+00	 9.176471e+00	 9.985697e+00
0	 1.529412e+00	 9.294118e+00	 9.989238e+00
0	 1.529412e+00	 9.411765e+00	 9.992468e+00
0	 1.647059e+00	 8.823529e+00	 9.974819e+00
0	 1.647059e+00	 8.941176e+00	 9.979173e+00
0	 1.647059e+00	 9.058824e+00	 9.983138e+00
0	 1.647059e+00	 9.176471e+00	 9.986747e+00
0	 1.647059e+00	 9.294118e+00	 9.990032e+00
0	 1.647059e+00	 9.411765e+00	 9.993028e+00
0	 1.764706e+00	 8.823529e+00	 9.976815e+00
0	 1.764706e+00	 8.941176e+00	 9.980830e+00
0	 1.764706e+00	 9.058824e+00	 9.984487e+00
0	 1.764706e+00	 9.176471e+00	 9.987812e+00
0	 1.764706e+00	 9.294118e+00	 9.990835e+00
0	 1.764706e+00	 9.411765e+00	 9.993583e+00
0	 1.176471e+00	 9.411765e+00	 9.990984e+00
0	 1.176471e+00	 9.529412e+00	 9.994227e+00
0	 1.176471e+00	 9.647059e+00	 9.996698e+00
0	 1.176471e+00	 9.764706e+00	 9.998455e+00
0	 1.176471e+00	 9.882353e+00	 9.999558e+00
0	 1.176471e+00	 1.000000e+01	 1.000007e+01
0	 1.294118e+00	 9.411765e+00	 9.991424e+00
0	 1.294118e+00	 9.529412e+00	 9.994518e+00
0	 1.294118e+00	 9.647059e+00	 9.996871e+00
0	 1.294118e+00	 9.764706e+00	 9.998536e+00
0	 1.294118e+00	 9.882353e+00	 9.999567e+00
0	 1.294118e+00	 1.000000e+01	 1.000002e+01
0	 1.411765e+00	 9.411765e+00	 9.991926e+00
0	 1.411765e+00	 9.529412e+00	 9.994853e+00
0	 1.411765e+00	 9.647059e+00	 9.997076e+00
0	 1.411765e+00	 9.764706e+00	 9.998645e+00
0	 1.411765e+00	 9.882353e+00	 9.999609e+00
0	 1.411765e+00	 1.000000e+01	 1.000002e+01
0	 1.529412e+00	 9.411765e+00	 9.992468e+00
0	 1.529412e+00	 9.529412e+00	 9.995210e+00
0	 1.529412e+00	 9.647059e+00	 9.997292e+00
0	 1.529412e+00	 9.764706e+00	 9.998761e+00
0	 1.529412e+00	 9.882353e+00	 9.999660e+00
0	 1.529412e+00	 1.000000e+01	 1.000004e+01
0	 1.647059e+00	 9.411765e+00	 9.993028e+00
0	 1.647059e+00	 9.529412e+00	 9.995569e+00
0	 1.647059e+00	 9.647059e+00	 9.997500e+00
0	 1.647059e+00	 9.764706e+00	 9.998862e+00
0	 1.647059e+00	 9.882353e+00	 9.999697e+00
0	 1.647059e+00	 1.000000e+01	 1.000005e+01
0	 1.764706e+00	 9.411765e+00	 9.993583e+00
0	 1.764706e+00	 9.529412e+00	 9.995911e+00
0	 1.764706e+00	 9.647059e+00	 9.997680e+00
0	 1.764706e+00	 9.764706e+00	 9.998929e+00
0	 1.764706e+00	 9.882353e+00	 9.999696e+00
0	 1.764706e+00	 1.000000e+01	 1.000002e+01
0	 1.764706e+00	 0.000000e+00	 4.118605e+00
0	 1.764706e+00	 1.176471e-01	 4.854889e+00
0	 1.764706e+00	 2.352941e-01	 5.974421e+00
0	 1.764706e+00	 3.529412e-01	 7.349579e+00
0	 1.764706e+00	 4.705882e-01	 8.852740e+00
0	 1.764706e+00	 5.882353e-01	 1.035628e+01
0	 1.882353e+00	 0.000000e+00	 7.541257e+00
0	 1.882353e+00	 1.176471e-01	 8.411410e+00
0	 1.882353e+00	 2.352941e-01	 9.318139e+00
0	 1.882353e+00	 3.529412e-01	 1.017165e+01
0	 1.882353e+00	 4.705882e-01	 1.088213e+01
0	 1.882353e+00	 5.882353e-01	 1.135980e+01
0	 2.000000e+00	 0.000000e+00	 9.997510e+00
0	 2.000000e+00	 1.176471e-01	 1.071876e+01
0	 2.000000e+00	 2.352941e-01	 1.134141e+01
0	 2.000000e+00	 3.529412e-01	 1.180780e+01
0	 2.000000e+00	 4.705882e-01	 1.206024e+01
0	 2.000000e+00	 5.882353e-01	 1.204107e+01
0	 2.117647e+00	 0.000000e+00	 1.154956e+01
0	 2.117647e+00	 1.176471e-01	 1.196160e+01
0	 2.117647e+00	 2.352941e-01	 1.228253e+01
0	 2.117647e+00	 3.529412e-01	 1.248110e+01
0	 2.117647e+00	 4.705882e-01	 1.252609e+01
0	 2.117647e+00	 5.882353e-01	 1.238625e+01
0	 2.235294e+00	 0.000000e+00	 1.225960e+01
0	 2.235294e+00	 1.176471e-01	 1.232458e+01
0	 2.235294e+00	 2.352941e-01	 1.237976e+01
0	 2.235294e+00	 3.529412e-01	 1.241465e+01
0	 2.235294e+00	 4.705882e-01	 1.241872e+01
0	 2.235294e+00	 5.882353e-01	 1.238147e+01
0	 2.352941e+00	 0.000000e+00	 1.218982e+01
0	 2.352941e+00	 1.176471e-01	 1.199236e+01
0	 2.352941e+00	 2.352941e-01	 1.187141e+01
0	 2.352941e+00	 3.529412e-01	 1.183150e+01
0	 2.352941e+00	 4.705882e-01	 1.187714e+01
0	 2.352941e+00	 5.882353e-01	 1.201288e+01
0	 1.764706e+00	 5.882353e-01	 1.035628e+01
0	 1.764706e+00	 7.058824e-01	 1.162366e+01
0	 1.764706e+00	 8.235294e-01	 1.250209e+01
0	 1.764706e+00	 9.411765e-01	 1.298952e+01
0	 1.764706e+00	 1.058824e+00	 1.308391e+01
0	 1.764706e+00	 1.176471e+00	 1.278324e+01
0	 1.882353e+00	 5.882353e-01	 1.135980e+01
0	 1.882353e+00	 7.058824e-01	 1.165008e+01
0	 1.882353e+00	 8.235294e-01	 1.186355e+01
0	 1.882353e+00	 9.411765e-01	 1.200816e+01
0	 1.882353e+00	 1.058824e+00	 1.209183e+01
0	 1.882353e+00	 1.176471e+00	 1.212249e+01
0	 2.000000e+00	 5.882353e-01	 1.204107e+01
0	 2.000000e+00	 7.058824e-01	 1.188577e+01
0	 2.000000e+00	 8.235294e-01	 1.177780e+01
0	 2.000000e+00	 9.411765e-01	 1.173144e+01
0	 2.000000e+00	 1.058824e+00	 1.176101e+01
0	 2.000000e+00	 1.176471e+00	 1.188079e+01
0	 2.117647e+00	 5.882353e-01	 1.238625e+01
0	 2.117647e+00	 7.058824e-01	 1.216091e+01
0	 2.117647e+00	 8.235294e-01	 1.198160e+01
0	 2.117647e+00	 9.411765e-01	 1.186540e+01
0	 2.117647e+00	 1.058824e+00	 1.182936e+01
0	 2.117647e+00	 1.176471e+00	 1.189055e+01
0	 2.235294e+00	 5.882353e-01	 1.238147e+01
0	 2.235294e+00	 7.058824e-01	 1.230563e+01
0	 2.235294e+00	 8.235294e-01	 1.221176e+01
0	 2.235294e+00	 9.411765e-01	 1.211607e+01
0	 2.235294e+00	 1.058824e+00	 1.203480e+01
0	 2.235294e+00	 1.176471e+00	 1.198419e+01
0	 2.352941e+00	 5.882353e-01	 1.201288e+01
0	 2.352941e+00	 7.058824e-01	 1.215010e+01
0	 2.352941e+00	 8.235294e-01	 1.220504e+01
0	 2.352941e+00	 9.411765e-01	 1.218949e+01
0	 2.352941e+00	 1.058824e+00	 1.211525e+01
0	 2.352941e+00	 1.176471e+00	 1.199411e+01
0	 1.764706e+00	 1.176471e+00	 1.278324e+01
0	 1.764706e+00	 1.294118e+00	 1.231421e+01
0	 1.764706e+00	 1.411765e+00	 1.191680e+01
0	 1.764706e+00	 1.529412e+00	 1.160892e+01
0	 1.764706e+00	 1.647059e+00	 1.140846e+01
0	 1.764706e+00	 1.764706e+00	 1.133333e+01
0	 1.882353e+00	 1.176471e+00	 1.212249e+01
0	 1.882353e+00	 1.294118e+00	 1.209841e+01
0	 1.882353e+00	 1.411765e+00	 1.202166e+01
0	 1.882353e+00	 1.529412e+00	 1.190591e+01
0	 1.882353e+00	 1.647059e+00	 1.176484e+01
0	 1.882353e+00	 1.764706e+00	 1.161211e+01
0	 2.000000e+00	 1.176471e+00	 1.188079e+01
0	 2.000000e+00	 1.294118e+00	 1.200186e+01
0	 2.000000e+00	 1.411765e+00	 1.203224e+01
0	 2.000000e+00	 1.529412e+00	 1.198167e+01
0	 2.000000e+00	 1.647059e+00	 1.185988e+01
0	 2.000000e+00	 1.764706e+00	 1.167661e+01
0	 2.117647e+00	 1.176471e+00	 1.189055e+01
0	 2.117647e+00	 1.294118e+00	 1.196751e+01
0	 2.117647e+00	 1.411765e+00	 1.197145e+01
0	 2.117647e+00	 1.529412e+00	 1.190848e+01
0	 2.117647e+00	 1.647059e+00	 1.178468e+01
0	 2.117647e+00	 1.764706e+00	 1.160614e+01
0	 2.235294e+00	 1.176471e+00	 1.198419e+01
0	 2.235294e+00	 1.294118e+00	 1.193829e+01
0	 2.235294e+00	 1.411765e+00	 1.186218e+01
0	 2.235294e+00	 1.529412e+00	 1.175860e+01
0	 2.235294e+00	 1.647059e+00	 1.163031e+01
0	 2.235294e+00	 1.764706e+00	 1.148004e+01
0	 2.352941e+00	 1.176471e+00	 1.199411e+01
0	 2.352941e+00	 1.294118e+00	 1.185714e+01
0	 2.352941e+00	 1.411765e+00	 1.172731e+01
0	 2.352941e+00	 1.529412e+00	 1.160432e+01
0	 2.352941e+00	 1.647059e+00	 1.148786e+01
0	 2.352941e+00	 1.764706e+00	 1.137763e+01
0	 1.764706e+00	 1.764706e+00	 1.133333e+01
0	 1.764706e+00	 1.882353e+00	 1.129716e+01
0	 1.764706e+00	 2.000000e+00	 1.120404e+01
0	 1.764706e+00	 2.117647e+00	 1.105756e+01
0	 1.764706e+00	 2.235294e+00	 1.086129e+01
0	 1.764706e+00	 2.352941e+00	 1.061880e+01
0	 1.882353e+00	 1.764706e+00	 1.161211e+01
0	 1.882353e+00	 1.882353e+00	 1.145846e+01
0	 1.882353e+00	 2.000000e+00	 1.130166e+01
0	 1.882353e+00	 2.117647e+00	 1.113595e+01
0	 1.882353e+00	 2.235294e+00	 1.095554e+01
0	 1.882353e+00	 2.352941e+00	 1.075468e+01
0	 2.000000e+00	 1.764706e+00	 1.167661e+01
0	 2.000000e+00	 1.882353e+00	 1.148256e+01
0	 2.000000e+00	 2.000000e+00	 1.131429e+01
0	 2.000000e+00	 2.117647e+00	 1.116028e+01
0	 2.000000e+00	 2.235294e+00	 1.100900e+01
0	 2.000000e+00	 2.352941e+00	 1.084895e+01
0	 2.117647e+00	 1.764706e+00	 1.160614e+01
0	 2.117647e+00	 1.882353e+00	 1.142429e+01
0	 2.117647e+00	 2.000000e+00	 1.127734e+01
0	 2.117647e+00	 2.117647e+00	 1.115164e+01
0	 2.117647e+00	 2.235294e+00	 1.103353e+01
0	 2.117647e+00	 2.352941e+00	 1.090935e+01
0	 2.235294e+00	 1.764706e+00	 1.148004e+01
0	 2.235294e+00	 1.882353e+00	 1.133845e+01
0	 2.235294e+00	 2.000000e+00	 1.122622e+01
0	 2.235294e+00	 2.117647e+00	 1.113113e+01
0	 2.235294e+00	 2.235294e+00	 1.104099e+01
0	 2.235294e+00	 2.352941e+00	 1.094360e+01
0	 2.352941e+00	 1.764706e+00	 1.137763e+01
0	 2.352941e+00	 1.882353e+00	 1.127988e+01
0	 2.352941e+00	 2.000000e+00	 1.119633e+01
0	 2.352941e+00	 2.117647e+00	 1.111984e+01
0	 2.352941e+00	 2.235294e+00	 1.104325e+01
0	 2.352941e+00	 2.352941e+00	 1.095942e+01
0	 1.764706e+00	 2.352941e+00	 1.061880e+01
0	 1.764706e+00	 2.470588e+00	 1.038906e+01
0	 1.764706e+00	 2.588235e+00	 1.022229e+01
0	 1.764706e+00	 2.705882e+00	 1.010901e+01
0	 1.764706e+00	 2.823529e+00	 1.003972e+01
0	 1.764706e+00	 2.941176e+00	 1.000492e+01
0	 1.882353e+00	 2.352941e+00	 1.075468e+01
0	 1.882353e+00	 2.470588e+00	 1.056059e+01
0	 1.882353e+00	 2.588235e+00	 1.040297e+01
0	 1.882353e+00	 2.705882e+00	 1.027968e+01
0	 1.882353e+00	 2.823529e+00	 1.018861e+01
0	 1.882353e+00	 2.941176e+00	 1.012762e+01
0	 2.000000e+00	 2.352941e+00	 1.084895e+01
0	 2.000000e+00	 2.470588e+00	 1.068818e+01
0	 2.000000e+00	 2.588235e+00	 1.054425e+01
0	 2.000000e+00	 2.705882e+00	 1.041992e+01
0	 2.000000e+00	 2.823529e+00	 1.031793e+01
0	 2.000000e+00	 2.941176e+00	 1.024104e+01
0	 2.117647e+00	 2.352941e+00	 1.090935e+01
0	 2.117647e+00	 2.470588e+00	 1.077795e+01
0	 2.117647e+00	 2.588235e+00	 1.065070e+01
0	 2.117647e+00	 2.705882e+00	 1.053274e+01
0	 2.117647e+00	 2.823529e+00	 1.042918e+01
0	 2.117647e+00	 2.941176e+00	 1.034514e+01
0	 2.235294e+00	 2.352941e+00	 1.094360e+01
0	 2.235294e+00	 2.470588e+00	 1.083604e+01
0	 2.235294e+00	 2.588235e+00	 1.072690e+01
0	 2.235294e+00	 2.705882e+00	 1.062116e+01
0	 2.235294e+00	 2.823529e+00	 1.052382e+01
0	 2.235294e+00	 2.941176e+00	 1.043987e+01
0	 2.352941e+00	 2.352941e+00	 1.095942e+01
0	 2.352941e+00	 2.470588e+00	 1.086860e+01
0	 2.352941e+00	 2.588235e+00	 1.077740e+01
0	 2.352941e+00	 2.705882e+00	 1.068818e+01
0	 2.352941e+00	 2.823529e+00	 1.060332e+01
0	 2.352941e+00	 2.941176e+00	 1.052518e+01
0	 1.764706e+00	 2.941176e+00	 1.000492e+01
0	 1.764706e+00	 3.058824e+00	 9.975225e+00
0	 1.764706e+00	 3.176471e+00	 9.932629e+00
0	 1.764706e+00	 3.294118e+00	 9.884747e+00
0	 1.764706e+00	 3.411765e+00	 9.839192e+00
0	 1.764706e+00	 3.529412e+00	 9.803574e+00
0	 1.882353e+00	 2.941176e+00	 1.012762e+01
0	 1.882353e+00	 3.058824e+00	 1.008020e+01
0	 1.882353e+00	 3.176471e+00	 1.003290e+01
0	 1.882353e+00	 3.294118e+00	 9.988191e+00
0	 1.882353e+00	 3.411765e+00	 9.948550e+00
0	 1.882353e+00	 3.529412e+00	 9.916455e+00
0	 2.000000e+00	 2.941176e+00	 1.024104e+01
0	 2.000000e+00	 3.058824e+00	 1.018203e+01
0	 2.000000e+00	 3.176471e+00	 1.013113e+01
0	 2.000000e+00	 3.294118e+00	 1.008728e+01
0	 2.000000e+00	 3.411765e+00	 1.004940e+01
0	 2.000000e+00	 3.529412e+00	 1.001643e+01
0	 2.117647e+00	 2.941176e+00	 1.034514e+01
0	 2.117647e+00	 3.058824e+00	 1.027944e+01
0	 2.117647e+00	 3.176471e+00	 1.022547e+01
0	 2.117647e+00	 3.294118e+00	 1.018020e+01
0	 2.117647e+00	 3.411765e+00	 1.014059e+01
0	 2.117647e+00	 3.529412e+00	 1.010362e+01
0	 2.235294e+00	 2.941176e+00	 1.043987e+01
0	 2.235294e+00	 3.058824e+00	 1.037120e+01
0	 2.235294e+00	 3.176471e+00	 1.031410e+01
0	 2.235294e+00	 3.294118e+00	 1.026515e+01
0	 2.235294e+00	 3.411765e+00	 1.022097e+01
0	 2.235294e+00	 3.529412e+00	 1.017814e+01
0	 2.352941e+00	 2.941176e+00	 1.052518e+01
0	 2.352941e+00	 3.058824e+00	 1.045604e+01
0	 2.352941e+00	 3.176471e+00	 1.039515e+01
0	 2.352941e+00	 3.294118e+00	 1.034033e+01
0	 2.352941e+00	 3.411765e+00	 1.028938e+01
0	 2.352941e+00	 3.529412e+00	 1.024013e+01
0	 1.764706e+00	 3.529412e+00	 9.803574e+00
0	 1.764706e+00	 3.647059e+00	 9.781727e+00
0	 1.764706e+00	 3.764706e+00	 9.769484e+00
0	 1.764706e+00	 3.882353e+00	 9.762455e+00
0	 1.764706e+00	 4.000000e+00	 9.756250e+00
0	 1.764706e+00	 4.117647e+00	 9.746480e+00
0	 1.882353e+00	 3.529412e+00	 9.916455e+00
0	 1.882353e+00	 3.647059e+00	 9.891176e+00
0	 1.882353e+00	 3.764706e+00	 9.869446e+00
0	 1.882353e+00	 3.882353e+00	 9.849937e+00
0	 1.882353e+00	 4.000000e+00	 9.831318e+00
0	 1.882353e+00	 4.117647e+00	 9.812261e+00
0	 2.000000e+00	 3.529412e+00	 1.001643e+01
0	 2.000000e+00	 3.647059e+00	 9.985609e+00
0	 2.000000e+00	 3.764706e+00	 9.955415e+00
0	 2.000000e+00	 3.882353e+00	 9.926608e+00
0	 2.000000e+00	 4.000000e+00	 9.899954e+00
0	 2.000000e+00	 4.117647e+00	 9.876217e+00
0	 2.117647e+00	 3.529412e+00	 1.010362e+01
0	 2.117647e+00	 3.647059e+00	 1.006642e+01
0	 2.117647e+00	 3.764706e+00	 1.002941e+01
0	 2.117647e+00	 3.882353e+00	 9.994493e+00
0	 2.117647e+00	 4.000000e+00	 9.963550e+00
0	 2.117647e+00	 4.117647e+00	 9.938473e+00
0	 2.235294e+00	 3.529412e+00	 1.017814e+01
0	 2.235294e+00	 3.647059e+00	 1.013499e+01
0	 2.235294e+00	 3.764706e+00	 1.009347e+01
0	 2.235294e+00	 3.882353e+00	 1.005562e+01
0	 2.235294e+00	 4.000000e+00	 1.002350e+01
0	 2.235294e+00	 4.117647e+00	 9.999157e+00
0	 2.352941e+00	 3.529412e+00	 1.024013e+01
0	 2.352941e+00	 3.647059e+00	 1.019272e+01
0	 2.352941e+00	 3.764706e+00	 1.014960e+01
0	 2.352941e+00	 3.882353e+00	 1.011201e+01
0	 2.352941e+00	 4.000000e+00	 1.008119e+01
0	 2.352941e+00	 4.117647e+00	 1.005839e+01
0	 1.764706e+00	 4.117647e+00	 9.746480e+00
0	 1.764706e+00	 4.235294e+00	 9.733105e+00
0	 1.764706e+00	 4.352941e+00	 9.720858e+00
0	 1.764706e+00	 4.470588e+00	 9.712509e+00
0	 1.764706e+00	 4.588235e+00	 9.710827e+00
0	 1.764706e+00	 4.705882e+00	 9.718583e+00
0	 1.882353e+00	 4.117647e+00	 9.812261e+00
0	 1.882353e+00	 4.235294e+00	 9.794374e+00
0	 1.882353e+00	 4.352941e+00	 9.780818e+00
0	 1.882353e+00	 4.470588e+00	 9.772591e+00
0	 1.882353e+00	 4.588235e+00	 9.770692e+00
0	 1.882353e+00	 4.705882e+00	 9.776118e+00
0	 2.000000e+00	 4.117647e+00	 9.876217e+00
0	 2.000000e+00	 4.235294e+00	 9.856975e+00
0	 2.000000e+00	 4.352941e+00	 9.843152e+00
0	 2.000000e+00	 4.470588e+00	 9.834529e+00
0	 2.000000e+00	 4.588235e+00	 9.830885e+00
0	 2.000000e+00	 4.705882e+00	 9.832001e+00
0	 2.117647e+00	 4.117647e+00	 9.938473e+00
0	 2.117647e+00	 4.235294e+00	 9.919718e+00
0	 2.117647e+00	 4.352941e+00	 9.905891e+00
0	 2.117647e+00	 4.470588e+00	 9.896106e+00
0	 2.117647e+00	 4.588235e+00	 9.889479e+00
0	 2.117647e+00	 4.705882e+00	 9.885127e+00
0	 2.235294e+00	 4.117647e+00	 9.999157e+00
0	 2.235294e+00	 4.235294e+00	 9.981415e+00
0	 2.235294e+00	 4.352941e+00	 9.967062e+00
0	 2.235294e+00	 4.470588e+00	 9.955103e+00
0	 2.235294e+00	 4.588235e+00	 9.944545e+00
0	 2.235294e+00	 4.705882e+00	 9.934393e+00
0	 2.352941e+00	 4.117647e+00	 1.005839e+01
0	 2.352941e+00	 4.235294e+00	 1.004088e+01
0	 2.352941e+00	 4.352941e+00	 1.002470e+01
0	 2.352941e+00	 4.470588e+00	 1.000931e+01
0	 2.352941e+00	 4.588235e+00	 9.994155e+00
0	 2.352941e+00	 4.705882e+00	 9.978692e+00
0	 1.764706e+00	 4.705882e+00	 9.718583e+00
0	 1.764706e+00	 4.823529e+00	 9.732034e+00
0	 1.764706e+00	 4.941176e+00	 9.744783e+00
0	 1.764706e+00	 5.058824e+00	 9.755618e+00
0	 1.764706e+00	 5.176471e+00	 9.763326e+00
0	 1.764706e+00	 5.294118e+00	 9.766696e+00
0	 1.882353e+00	 4.705882e+00	 9.776118e+00
0	 1.882353e+00	 4.823529e+00	 9.784799e+00
0	 1.882353e+00	 4.941176e+00	 9.791813e+00
0	 1.882353e+00	 5.058824e+00	 9.796877e+00
0	 1.882353e+00	 5.176471e+00	 9.799706e+00
0	 1.882353e+00	 5.294118e+00	 9.800018e+00
0	 2.000000e+00	 4.705882e+00	 9.832001e+00
0	 2.000000e+00	 4.823529e+00	 9.834559e+00
0	 2.000000e+00	 4.941176e+00	 9.835616e+00
0	 2.000000e+00	 5.058824e+00	 9.835516e+00
0	 2.000000e+00	 5.176471e+00	 9.834599e+00
0	 2.000000e+00	 5.294118e+00	 9.833207e+00
0	 2.117647e+00	 4.705882e+00	 9.885127e+00
0	 2.117647e+00	 4.823529e+00	 9.881126e+00
0	 2.117647e+00	 4.941176e+00	 9.876582e+00
0	 2.117647e+00	 5.058824e+00	 9.872158e+00
0	 2.117647e+00	 5.176471e+00	 9.868517e+00
0	 2.117647e+00	 5.294118e+00	 9.866322e+00
0	 2.235294e+00	 4.705882e+00	 9.934393e+00
0	 2.235294e+00	 4.823529e+00	 9.924316e+00
0	 2.235294e+00	 4.941176e+00	 9.915100e+00
0	 2.235294e+00	 5.058824e+00	 9.907426e+00
0	 2.235294e+00	 5.176471e+00	 9.901974e+00
0	 2.235294e+00	 5.294118e+00	 9.899424e+00
0	 2.352941e+00	 4.705882e+00	 9.978692e+00
0	 2.352941e+00	 4.823529e+00	 9.963942e+00
0	 2.352941e+00	 4.941176e+00	 9.951562e+00
0	 2.352941e+00	 5.058824e+00	 9.941945e+00
0	 2.352941e+00	 5.176471e+00	 9.935483e+00
0	 2.352941e+00	 5.294118e+00	 9.932571e+00
0	 1.764706e+00	 5.294118e+00	 9.766696e+00
0	 1.764706e+00	 5.411765e+00	 9.767991e+00
0	 1.764706e+00	 5.529412e+00	 9.770730e+00
0	 1.764706e+00	 5.647059e+00	 9.775581e+00
0	 1.764706e+00	 5.764706e+00	 9.783214e+00
0	 1.764706e+00	 5.882353e+00	 9.794297e+00
0	 1.882353e+00	 5.294118e+00	 9.800018e+00
0	 1.882353e+00	 5.411765e+00	 9.799906e+00
0	 1.882353e+00	 5.529412e+00	 9.801791e+00
0	 1.882353e+00	 5.647059e+00	 9.805888e+00
0	 1.882353e+00	 5.764706e+00	 9.812408e+00
0	 1.882353e+00	 5.882353e+00	 9.821566e+00
0	 2.000000e+00	 5.294118e+00	 9.833207e+00
0	 2.000000e+00	 5.411765e+00	 9.832686e+00
0	 2.000000e+00	 5.529412e+00	 9.834092e+00
0	 2.000000e+00	 5.647059e+00	 9.837335e+00
0	 2.000000e+00	 5.764706e+00	 9.842328e+00
0	 2.000000e+00	 5.882353e+00	 9.848979e+00
0	 2.117647e+00	 5.294118e+00	 9.866322e+00
0	 2.117647e+00	 5.411765e+00	 9.865867e+00
0	 2.117647e+00	 5.529412e+00	 9.866843e+00
0	 2.117647e+00	 5.647059e+00	 9.869013e+00
0	 2.117647e+00	 5.764706e+00	 9.872139e+00
0	 2.117647e+00	 5.882353e+00	 9.875981e+00
0	 2.235294e+00	 5.294118e+00	 9.899424e+00
0	 2.235294e+00	 5.411765e+00	 9.898985e+00
0	 2.235294e+00	 5.529412e+00	 9.899258e+00
0	 2.235294e+00	 5.647059e+00	 9.900010e+00
0	 2.235294e+00	 5.764706e+00	 9.901009e+00
0	 2.235294e+00	 5.882353e+00	 9.902020e+00
0	 2.352941e+00	 5.294118e+00	 9.932571e+00
0	 2.352941e+00	 5.411765e+00	 9.931575e+00
0	 2.352941e+00	 5.529412e+00	 9.930548e+00
0	 2.352941e+00	 5.647059e+00	 9.929416e+00
0	 2.352941e+00	 5.764706e+00	 9.928104e+00
0	 2.352941e+00	 5.882353e+00	 9.926540e+00
0	 1.764706e+00	 5.882353e+00	 9.794297e+00
0	 1.764706e+00	 6.000000e+00	 9.806892e+00
0	 1.764706e+00	 6.117647e+00	 9.818456e+00
0	 1.764706e+00	 6.235294e+00	 9.828756e+00
0	 1.764706e+00	 6.352941e+00	 9.837557e+00
0	 1.764706e+00	 6.470588e+00	 9.844624e+00
0	 1.882353e+00	 5.882353e+00	 9.821566e+00
0	 1.882353e+00	 6.000000e+00	 9.831601e+00
0	 1.882353e+00	 6.117647e+00	 9.840600e+00
0	 1.882353e+00	 6.235294e+00	 9.848545e+00
0	 1.882353e+00	 6.352941e+00	 9.855420e+00
0	 1.882353e+00	 6.470588e+00	 9.861206e+00
0	 2.000000e+00	 5.882353e+00	 9.848979e+00
0	 2.000000e+00	 6.000000e+00	 9.856018e+00
0	 2.000000e+00	 6.117647e+00	 9.862315e+00
0	 2.000000e+00	 6.235294e+00	 9.867994e+00
0	 2.000000e+00	 6.352941e+00	 9.873177e+00
0	 2.000000e+00	 6.470588e+00	 9.877988e+00
0	 2.117647e+00	 5.882353e+00	 9.875981e+00
0	 2.117647e+00	 6.000000e+00	 9.879913e+00
0	 2.117647e+00	 6.117647e+00	 9.883587e+00
0	 2.117647e+00	 6.235294e+00	 9.887191e+00
0	 2.117647e+00	 6.352941e+00	 9.890911e+00
0	 2.117647e+00	 6.470588e+00	 9.894936e+00
0	 2.235294e+00	 5.882353e+00	 9.902020e+00
0	 2.235294e+00	 6.000000e+00	 9.903056e+00
0	 2.235294e+00	 6.117647e+00	 9.904399e+00
0	 2.235294e+00	 6.235294e+00	 9.906225e+00
0	 2.235294e+00	 6.352941e+00	 9.908706e+00
0	 2.235294e+00	 6.470588e+00	 9.912016e+00
0	 2.352941e+00	 5.882353e+00	 9.926540e+00
0	 2.352941e+00	 6.000000e+00	 9.925217e+00
0	 2.352941e+00	 6.117647e+00	 9.924737e+00
0	 2.352941e+00	 6.235294e+00	 9.925184e+00
0	 2.352941e+00	 6.352941e+00	 9.926642e+00
0	 2.352941e+00	 6.470588e+00	 9.929196e+00
0	 1.764706e+00	 6.470588e+00	 9.844624e+00
0	 1.764706e+00	 6.588235e+00	 9.850914e+00
0	 1.764706e+00	 6.705882e+00	 9.857626e+00
0	 1.764706e+00	 6.823529e+00	 9.864891e+00
0	 1.764706e+00	 6.941176e+00	 9.872840e+00
0	 1.764706e+00	 7.058824e+00	 9.881603e+00
0	 1.882353e+00	 6.470588e+00	 9.861206e+00
0	 1.882353e+00	 6.588235e+00	 9.866677e+00
0	 1.882353e+00	 6.705882e+00	 9.872643e+00
0	 1.882353e+00	 6.823529e+00	 9.879140e+00
0	 1.882353e+00	 6.941176e+00	 9.886207e+00
0	 1.882353e+00	 7.058824e+00	 9.893880e+00
0	 2.000000e+00	 6.470588e+00	 9.877988e+00
0	 2.000000e+00	 6.588235e+00	 9.882871e+00
0	 2.000000e+00	 6.705882e+00	 9.888174e+00
0	 2.000000e+00	 6.823529e+00	 9.893876e+00
0	 2.000000e+00	 6.941176e+00	 9.899959e+00
0	 2.000000e+00	 7.058824e+00	 9.906400e+00
0	 2.117647e+00	 6.470588e+00	 9.894936e+00
0	 2.117647e+00	 6.588235e+00	 9.899316e+00
0	 2.117647e+00	 6.705882e+00	 9.903951e+00
0	 2.117647e+00	 6.823529e+00	 9.908798e+00
0	 2.117647e+00	 6.941176e+00	 9.913813e+00
0	 2.117647e+00	 7.058824e+00	 9.918955e+00
0	 2.235294e+00	 6.470588e+00	 9.912016e+00
0	 2.235294e+00	 6.588235e+00	 9.915836e+00
0	 2.235294e+00	 6.705882e+00	 9.919708e+00
0	 2.235294e+00	 6.823529e+00	 9.923602e+00
0	 2.235294e+00	 6.941176e+00	 9.927488e+00
0	 2.235294e+00	 7.058824e+00	 9.931337e+00
0	 2.352941e+00	 6.470588e+00	 9.929196e+00
0	 2.352941e+00	 6.588235e+00	 9.932253e+00
0	 2.352941e+00	 6.705882e+00	 9.935177e+00
0	 2.352941e+00	 6.823529e+00	 9.937987e+00
0	 2.352941e+00	 6.941176e+00	 9.940701e+00
0	 2.352941e+00	 7.058824e+00	 9.943336e+00
0	 1.764706e+00	 7.058824e+00	 9.881603e+00
0	 1.764706e+00	 7.176471e+00	 9.890550e+00
0	 1.764706e+00	 7.294118e+00	 9.898946e+00
0	 1.764706e+00	 7.411765e+00	 9.906771e+00
0	 1.764706e+00	 7.529412e+00	 9.914001e+00
0	 1.764706e+00	 7.647059e+00	 9.920615e+00
0	 1.882353e+00	 7.058824e+00	 9.893880e+00
0	 1.882353e+00	 7.176471e+00	 9.901621e+00
0	 1.882353e+00	 7.294118e+00	 9.908879e+00
0	 1.882353e+00	 7.411765e+00	 9.915673e+00
0	 1.882353e+00	 7.529412e+00	 9.922021e+00
0	 1.882353e+00	 7.647059e+00	 9.927943e+00
0	 2.000000e+00	 7.058824e+00	 9.906400e+00
0	 2.000000e+00	 7.176471e+00	 9.912824e+00
0	 2.000000e+00	 7.294118e+00	 9.918896e+00
0	 2.000000e+00	 7.411765e+00	 9.924660e+00
0	 2.000000e+00	 7.529412e+00	 9.930158e+00
0	 2.000000e+00	 7.647059e+00	 9.935434e+00
0	 2.117647e+00	 7.058824e+00	 9.918955e+00
0	 2.117647e+00	 7.176471e+00	 9.924037e+00
0	 2.117647e+00	 7.294118e+00	 9.928936e+00
0	 2.117647e+00	 7.411765e+00	 9.933704e+00
0	 2.117647e+00	 7.529412e+00	 9.938390e+00
0	 2.117647e+00	 7.647059e+00	 9.943045e+00
0	 2.235294e+00	 7.058824e+00	 9.931337e+00
0	 2.235294e+00	 7.176471e+00	 9.935140e+00
0	 2.235294e+00	 7.294118e+00	 9.938939e+00
0	 2.235294e+00	 7.411765e+00	 9.942777e+00
0	 2.235294e+00	 7.529412e+00	 9.946694e+00
0	 2.235294e+00	 7.647059e+00	 9.950734e+00
0	 2.352941e+00	 7.058824e+00	 9.943336e+00
0	 2.352941e+00	 7.176471e+00	 9.946012e+00
0	 2.352941e+00	 7.294118e+00	 9.948844e+00
0	 2.352941e+00	 7.411765e+00	 9.951851e+00
0	 2.352941e+00	 7.529412e+00	 9.955050e+00
0	 2.352941e+00	 7.647059e+00	 9.958460e+00
0	 1.764706e+00	 7.647059e+00	 9.920615e+00
0	 1.764706e+00	 7.764706e+00	 9.926859e+00
0	 1.764706e+00	 7.882353e+00	 9.933014e+00
0	 1.764706e+00	 8.000000e+00	 9.939113e+00
0	 1.764706e+00	 8.117647e+00	 9.945186e+00
0	 1.764706e+00	 8.235294e+00	 9.951265e+00
0	 1.882353e+00	 7.647059e+00	 9.927943e+00
0	 1.882353e+00	 7.764706e+00	 9.933616e+00
0	 1.882353e+00	 7.882353e+00	 9.939220e+00
0	 1.882353e+00	 8.000000e+00	 9.944769e+00
0	 1.882353e+00	 8.117647e+00	 9.950279e+00
0	 1.882353e+00	 8.235294e+00	 9.955767e+00
0	 2.000000e+00	 7.647059e+00	 9.935434e+00
0	 2.000000e+00	 7.764706e+00	 9.940570e+00
0	 2.000000e+00	 7.882353e+00	 9.945627e+00
0	 2.000000e+00	 8.000000e+00	 9.950612e+00
0	 2.000000e+00	 8.117647e+00	 9.955532e+00
0	 2.000000e+00	 8.235294e+00	 9.960393e+00
0	 2.117647e+00	 7.647059e+00	 9.943045e+00
0	 2.117647e+00	 7.764706e+00	 9.947648e+00
0	 2.117647e+00	 7.882353e+00	 9.952147e+00
0	 2.117647e+00	 8.000000e+00	 9.956548e+00
0	 2.117647e+00	 8.117647e+00	 9.960855e+00
0	 2.117647e+00	 8.235294e+00	 9.965073e+00
0	 2.235294e+00	 7.647059e+00	 9.950734e+00
0	 2.235294e+00	 7.764706e+00	 9.954780e+00
0	 2.235294e+00	 7.882353e+00	 9.958693e+00
0	 2.235294e+00	 8.000000e+00	 9.962482e+00
0	 2.235294e+00	 8.117647e+00	 9.966160e+00
0	 2.235294e+00	 8.235294e+00	 9.969736e+00
0	 2.352941e+00	 7.647059e+00	 9.958460e+00
0	 2.352941e+00	 7.764706e+00	 9.961894e+00
0	 2.352941e+00	 7.882353e+00	 9.965174e+00
0	 2.352941e+00	 8.000000e+00	 9.968322e+00
0	 2.352941e+00	 8.117647e+00	 9.971360e+00
0	 2.352941e+00	 8.235294e+00	 9.974310e+00
0	 1.764706e+00	 8.235294e+00	 9.951265e+00
0	 1.764706e+00	 8.352941e+00	 9.957148e+00
0	 1.764706e+00	 8.470588e+00	 9.962626e+00
0	 1.764706e+00	 8.588235e+00	 9.967718e+00
0	 1.764706e+00	 8.705882e+00	 9.972441e+00
0	 1.764706e+00	 8.823529e+00	 9.976815e+00
0	 1.882353e+00	 8.235294e+00	 9.955767e+00
0	 1.882353e+00	 8.352941e+00	 9.961060e+00
0	 1.882353e+00	 8.470588e+00	 9.965992e+00
0	 1.882353e+00	 8.588235e+00	 9.970586e+00
0	 1.882353e+00	 8.705882e+00	 9.974866e+00
0	 1.882353e+00	 8.823529e+00	 9.978855e+00
0	 2.000000e+00	 8.235294e+00	 9.960393e+00
0	 2.000000e+00	 8.352941e+00	 9.965067e+00
0	 2.000000e+00	 8.470588e+00	 9.969436e+00
0	 2.000000e+00	 8.588235e+00	 9.973526e+00
0	 2.000000e+00	 8.705882e+00	 9.977361e+00
0	 2.000000e+00	 8.823529e+00	 9.980965e+00
0	 2.117647e+00	 8.235294e+00	 9.965073e+00
0	 2.117647e+00	 8.352941e+00	 9.969120e+00
0	 2.117647e+00	 8.470588e+00	 9.972925e+00
0	 2.117647e+00	 8.588235e+00	 9.976511e+00
0	 2.117647e+00	 8.705882e+00	 9.979901e+00
0	 2.117647e+00	 8.823529e+00	 9.983120e+00
0	 2.235294e+00	 8.235294e+00	 9.969736e+00
0	 2.235294e+00	 8.352941e+00	 9.973168e+00
0	 2.235294e+00	 8.470588e+00	 9.976421e+00
0	 2.235294e+00	 8.588235e+00	 9.979514e+00
0	 2.235294e+00	 8.705882e+00	 9.982465e+00
0	 2.235294e+00	 8.823529e+00	 9.985294e+00
0	 2.352941e+00	 8.235294e+00	 9.974310e+00
0	 2.352941e+00	 8.352941e+00	 9.977161e+00
0	 2.352941e+00	 8.470588e+00	 9.979890e+00
0	 2.352941e+00	 8.588235e+00	 9.982508e+00
0	 2.352941e+00	 8.705882e+00	 9.985029e+00
0	 2.352941e+00	 8.823529e+00	 9.987461e+00
0	 1.764706e+00	 8.823529e+00	 9.976815e+00
0	 1.764706e+00	 8.941176e+00	 9.980830e+00
0	 1.764706e+00	 9.058824e+00	 9.984487e+00
0	 1.764706e+00	 9.176471e+00	 9.987812e+00
0	 1.764706e+00	 9.294118e+00	 9.990835e+00
0	 1.764706e+00	 9.411765e+00	 9.993583e+00
0	 1.882353e+00	 8.823529e+00	 9.978855e+00
0	 1.882353e+00	 8.941176e+00	 9.982532e+00
0	 1.882353e+00	 9.058824e+00	 9.985877e+00
0	 1.882353e+00	 9.176471e+00	 9.988914e+00
0	 1.882353e+00	 9.294118e+00	 9.991667e+00
0	 1.882353e+00	 9.411765e+00	 9.994159e+00
0	 2.000000e+00	 8.823529e+00	 9.980965e+00
0	 2.000000e+00	 8.941176e+00	 9.984303e+00
0	 2.000000e+00	 9.058824e+00	 9.987332e+00
0	 2.000000e+00	 9.176471e+00	 9.990073e+00
0	 2.000000e+00	 9.294118e+00	 9.992548e+00
0	 2.000000e+00	 9.411765e+00	 9.994776e+00
0	 2.117647e+00	 8.823529e+00	 9.983120e+00
0	 2.117647e+00	 8.941176e+00	 9.986112e+00
0	 2.117647e+00	 9.058824e+00	 9.988817e+00
0	 2.117647e+00	 9.176471e+00	 9.991256e+00
0	 2.117647e+00	 9.294118e+00	 9.993447e+00
0	 2.117647e+00	 9.411765e+00	 9.995409e+00
0	 2.235294e+00	 8.823529e+00	 9.985294e+00
0	 2.235294e+00	 8.941176e+00	 9.987930e+00
0	 2.235294e+00	 9.058824e+00	 9.990303e+00
0	 2.235294e+00	 9.176471e+00	 9.992432e+00
0	 2.235294e+00	 9.294118e+00	 9.994334e+00
0	 2.235294e+00	 9.411765e+00	 9.996029e+00
0	 2.352941e+00	 8.823529e+00	 9.987461e+00
0	 2.352941e+00	 8.941176e+00	 9.989728e+00
0	 2.352941e+00	 9.058824e+00	 9.991758e+00
0	 2.352941e+00	 9.176471e+00	 9.993568e+00
0	 2.352941e+00	 9.294118e+00	 9.995179e+00
0	 2.352941e+00	 9.411765e+00	 9.996610e+00
0	 1.764706e+00	 9.411765e+00	 9.993583e+00
0	 1.764706e+00	 9.529412e+00	 9.995911e+00
0	 1.764706e+00	 9.647059e+00	 9.997680e+00
0	 1.764706e+00	 9.764706e+00	 9.998929e+00
0	 1.764706e+00	 9.882353e+00	 9.999696e+00
0	 1.764706e+00	 1.000000e+01	 1.000002e+01
0	 1.882353e+00	 9.411765e+00	 9.994159e+00
0	 1.882353e+00	 9.529412e+00	 9.996264e+00
0	 1.882353e+00	 9.647059e+00	 9.997866e+00
0	 1.882353e+00	 9.764706e+00	 9.998998e+00
0	 1.882353e+00	 9.882353e+00	 9.999697e+00
0	 1.882353e+00	 1.000000e+01	 9.999999e+00
0	 2.000000e+00	 9.411765e+00	 9.994776e+00
0	 2.000000e+00	 9.529412e+00	 9.996655e+00
0	 2.000000e+00	 9.647059e+00	 9.998088e+00
0	 2.000000e+00	 9.764706e+00	 9.999105e+00
0	 2.000000e+00	 9.882353e+00	 9.999739e+00
0	 2.000000e+00	 1.000000e+01	 1.000002e+01
0	 2.117647e+00	 9.411765e+00	 9.995409e+00
0	 2.117647e+00	 9.529412e+00	 9.997060e+00
0	 2.117647e+00	 9.647059e+00	 9.998325e+00
0	 2.117647e+00	 9.764706e+00	 9.999227e+00
0	 2.117647e+00	 9.882353e+00	 9.999795e+00
0	 2.117647e+00	 1.000000e+01	 1.000005e+01
0	 2.235294e+00	 9.411765e+00	 9.996029e+00
0	 2.235294e+00	 9.529412e+00	 9.997456e+00
0	 2.235294e+00	 9.647059e+00	 9.998553e+00
0	 2.235294e+00	 9.764706e+00	 9.999341e+00
0	 2.235294e+00	 9.882353e+00	 9.999838e+00
0	 2.235294e+00	 1.000000e+01	 1.000006e+01
0	 2.352941e+00	 9.411765e+00	 9.996610e+00
0	 2.352941e+00	 9.529412e+00	 9.997818e+00
0	 2.352941e+00	 9.647059e+00	 9.998752e+00
0	 2.352941e+00	 9.764706e+00	 9.999423e+00
0	 2.352941e+00	 9.882353e+00	 9.999844e+00
0	 2.352941e+00	 1.000000e+01	 1.000002e+01
0	 2.352941e+00	 0.000000e+00	 1.218982e+01
0	 2.352941e+00	 1.176471e-01	 1.199236e+01
0	 2.352941e+00	 2.352941e-01	 1.187141e+01
0	 2.352941e+00	 3.529412e-01	 1.183150e+01
0	 2.352941e+00	 4.705882e-01	 1.187714e+01
0	 2.352941e+00	 5.882353e-01	 1.201288e+01
0	 2.470588e+00	 0.000000e+00	 1.175477e+01
0	 2.470588e+00	 1.176471e-01	 1.147178e+01
0	 2.470588e+00	 2.352941e-01	 1.129455e+01
0	 2.470588e+00	 3.529412e-01	 1.123750e+01
0	 2.470588e+00	 4.705882e-01	 1.131510e+01
0	 2.470588e+00	 5.882353e-01	 1.154178e+01
0	 2.588235e+00	 0.000000e+00	 1.135133e+01
0	 2.588235e+00	 1.176471e-01	 1.112703e+01
0	 2.588235e+00	 2.352941e-01	 1.098237e+01
0	 2.588235e+00	 3.529412e-01	 1.093719e+01
0	 2.588235e+00	 4.705882e-01	 1.101131e+01
0	 2.588235e+00	 5.882353e-01	 1.122456e+01
0	 2.705882e+00	 0.000000e+00	 1.101525e+01
0	 2.705882e+00	 1.176471e-01	 1.092879e+01
0	 2.705882e+00	 2.352941e-01	 1.086737e+01
0	 2.705882e+00	 3.529412e-01	 1.085164e+01
0	 2.705882e+00	 4.705882e-01	 1.090231e+01
0	 2.705882e+00	 5.882353e-01	 1.104003e+01
0	 2.823529e+00	 0.000000e+00	 1.078225e+01
0	 2.823529e+00	 1.176471e-01	 1.084777e+01
0	 2.823529e+00	 2.352941e-01	 1.088201e+01
0	 2.823529e+00	 3.529412e-01	 1.090196e+01
0	 2.823529e+00	 4.705882e-01	 1.092462e+01
0	 2.823529e+00	 5.882353e-01	 1.096698e+01
0	 2.941176e+00	 0.000000e+00	 1.068807e+01
0	 2.941176e+00	 1.176471e-01	 1.085465e+01
0	 2.941176e+00	 2.352941e-01	 1.095877e+01
0	 2.941176e+00	 3.529412e-01	 1.100923e+01
0	 2.941176e+00	 4.705882e-01	 1.101478e+01
0	 2.941176e+00	 5.882353e-01	 1.098420e+01
0	 2.352941e+00	 5.882353e-01	 1.201288e+01
0	 2.352941e+00	 7.058824e-01	 1.215010e+01
0	 2.352941e+00	 8.235294e-01	 1.220504e+01
0	 2.352941e+00	 9.411765e-01	 1.218949e+01
0	 2.352941e+00	 1.058824e+00	 1.211525e+01
0	 2.352941e+00	 1.176471e+00	 1.199411e+01
0	 2.470588e+00	 5.882353e-01	 1.154178e+01
0	 2.470588e+00	 7.058824e-01	 1.179492e+01
0	 2.470588e+00	 8.235294e-01	 1.194652e+01
0	 2.470588e+00	 9.411765e-01	 1.200292e+01
0	 2.470588e+00	 1.058824e+00	 1.197048e+01
0	 2.470588e+00	 1.176471e+00	 1.185555e+01
0	 2.588235e+00	 5.882353e-01	 1.122456e+01
0	 2.588235e+00	 7.058824e-01	 1.147132e+01
0	 2.588235e+00	 8.235294e-01	 1.163439e+01
0	 2.588235e+00	 9.411765e-01	 1.171627e+01
0	 2.588235e+00	 1.058824e+00	 1.171949e+01
0	 2.588235e+00	 1.176471e+00	 1.164653e+01
0	 2.705882e+00	 5.882353e-01	 1.104003e+01
0	 2.705882e+00	 7.058824e-01	 1.120533e+01
0	 2.705882e+00	 8.235294e-01	 1.132510e+01
0	 2.705882e+00	 9.411765e-01	 1.139957e+01
0	 2.705882e+00	 1.058824e+00	 1.142900e+01
0	 2.705882e+00	 1.176471e+00	 1.141364e+01
0	 2.823529e+00	 5.882353e-01	 1.096698e+01
0	 2.823529e+00	 7.058824e-01	 1.102302e+01
0	 2.823529e+00	 8.235294e-01	 1.107511e+01
0	 2.823529e+00	 9.411765e-01	 1.112283e+01
0	 2.823529e+00	 1.058824e+00	 1.116577e+01
0	 2.823529e+00	 1.176471e+00	 1.120350e+01
0	 2.941176e+00	 5.882353e-01	 1.098420e+01
0	 2.941176e+00	 7.058824e-01	 1.095042e+01
0	 2.941176e+00	 8.235294e-01	 1.094087e+01
0	 2.941176e+00	 9.411765e-01	 1.095607e+01
0	 2.941176e+00	 1.058824e+00	 1.099650e+01
0	 2.941176e+00	 1.176471e+00	 1.106269e+01
0	 2.352941e+00	 1.176471e+00	 1.199411e+01
0	 2.352941e+00	 1.294118e+00	 1.185714e+01
0	 2.352941e+00	 1.411765e+00	 1.172731e+01
0	 2.352941e+00	 1.529412e+00	 1.160432e+01
0	 2.352941e+00	 1.647059e+00	 1.148786e+01
0	 2.352941e+00	 1.764706e+00	 1.137763e+01
0	 2.470588e+00	 1.176471e+00	 1.185555e+01
0	 2.470588e+00	 1.294118e+00	 1.171301e+01
0	 2.470588e+00	 1.411765e+00	 1.159170e+01
0	 2.470588e+00	 1.529412e+00	 1.148898e+01
0	 2.470588e+00	 1.647059e+00	 1.140219e+01
0	 2.470588e+00	 1.764706e+00	 1.132869e+01
0	 2.588235e+00	 1.176471e+00	 1.164653e+01
0	 2.588235e+00	 1.294118e+00	 1.154710e+01
0	 2.588235e+00	 1.411765e+00	 1.146664e+01
0	 2.588235e+00	 1.529412e+00	 1.140130e+01
0	 2.588235e+00	 1.647059e+00	 1.134721e+01
0	 2.588235e+00	 1.764706e+00	 1.130052e+01
0	 2.705882e+00	 1.176471e+00	 1.141364e+01
0	 2.705882e+00	 1.294118e+00	 1.138073e+01
0	 2.705882e+00	 1.411765e+00	 1.135471e+01
0	 2.705882e+00	 1.529412e+00	 1.133165e+01
0	 2.705882e+00	 1.647059e+00	 1.130762e+01
0	 2.705882e+00	 1.764706e+00	 1.127869e+01
0	 2.823529e+00	 1.176471e+00	 1.120350e+01
0	 2.823529e+00	 1.294118e+00	 1.123521e+01
0	 2.823529e+00	 1.411765e+00	 1.125848e+01
0	 2.823529e+00	 1.529412e+00	 1.127041e+01
0	 2.823529e+00	 1.647059e+00	 1.126813e+01
0	 2.823529e+00	 1.764706e+00	 1.124877e+01
0	 2.941176e+00	 1.176471e+00	 1.106269e+01
0	 2.941176e+00	 1.294118e+00	 1.113187e+01
0	 2.941176e+00	 1.411765e+00	 1.118051e+01
0	 2.941176e+00	 1.529412e+00	 1.120792e+01
0	 2.941176e+00	 1.647059e+00	 1.121342e+01
0	 2.941176e+00	 1.764706e+00	 1.119632e+01
0	 2.352941e+00	 1.764706e+00	 1.137763e+01
0	 2.352941e+00	 1.882353e+00	 1.127988e+01
0	 2.352941e+00	 2.000000e+00	 1.119633e+01
0	 2.352941e+00	 2.117647e+00	 1.111984e+01
0	 2.352941e+00	 2.235294e+00	 1.104325e+01
0	 2.352941e+00	 2.352941e+00	 1.095942e+01
0	 2.470588e+00	 1.764706e+00	 1.132869e+01
0	 2.470588e+00	 1.882353e+00	 1.126090e+01
0	 2.470588e+00	 2.000000e+00	 1.119213e+01
0	 2.470588e+00	 2.117647e+00	 1.112108e+01
0	 2.470588e+00	 2.235294e+00	 1.104644e+01
0	 2.470588e+00	 2.352941e+00	 1.096690e+01
0	 2.588235e+00	 1.764706e+00	 1.130052e+01
0	 2.588235e+00	 1.882353e+00	 1.125025e+01
0	 2.588235e+00	 2.000000e+00	 1.118966e+01
0	 2.588235e+00	 2.117647e+00	 1.112125e+01
0	 2.588235e+00	 2.235294e+00	 1.104752e+01
0	 2.588235e+00	 2.352941e+00	 1.097096e+01
0	 2.705882e+00	 1.764706e+00	 1.127869e+01
0	 2.705882e+00	 1.882353e+00	 1.123740e+01
0	 2.705882e+00	 2.000000e+00	 1.118176e+01
0	 2.705882e+00	 2.117647e+00	 1.111606e+01
0	 2.705882e+00	 2.235294e+00	 1.104456e+01
0	 2.705882e+00	 2.352941e+00	 1.097154e+01
0	 2.823529e+00	 1.764706e+00	 1.124877e+01
0	 2.823529e+00	 1.882353e+00	 1.121179e+01
0	 2.823529e+00	 2.000000e+00	 1.116128e+01
0	 2.823529e+00	 2.117647e+00	 1.110123e+01
0	 2.823529e+00	 2.235294e+00	 1.103566e+01
0	 2.823529e+00	 2.352941e+00	 1.096857e+01
0	 2.941176e+00	 1.764706e+00	 1.119632e+01
0	 2.941176e+00	 1.882353e+00	 1.116290e+01
0	 2.941176e+00	 2.000000e+00	 1.112104e+01
0	 2.941176e+00	 2.117647e+00	 1.107247e+01
0	 2.941176e+00	 2.235294e+00	 1.101889e+01
0	 2.941176e+00	 2.352941e+00	 1.096201e+01
0	 2.352941e+00	 2.352941e+00	 1.095942e+01
0	 2.352941e+00	 2.470588e+00	 1.086860e+01
0	 2.352941e+00	 2.588235e+00	 1.077740e+01
0	 2.352941e+00	 2.705882e+00	 1.068818e+01
0	 2.352941e+00	 2.823529e+00	 1.060332e+01
0	 2.352941e+00	 2.941176e+00	 1.052518e+01
0	 2.470588e+00	 2.352941e+00	 1.096690e+01
0	 2.470588e+00	 2.470588e+00	 1.088666e+01
0	 2.470588e+00	 2.588235e+00	 1.081014e+01
0	 2.470588e+00	 2.705882e+00	 1.073643e+01
0	 2.470588e+00	 2.823529e+00	 1.066461e+01
0	 2.470588e+00	 2.941176e+00	 1.059376e+01
0	 2.588235e+00	 2.352941e+00	 1.097096e+01
0	 2.588235e+00	 2.470588e+00	 1.089808e+01
0	 2.588235e+00	 2.588235e+00	 1.083168e+01
0	 2.588235e+00	 2.705882e+00	 1.076873e+01
0	 2.588235e+00	 2.823529e+00	 1.070620e+01
0	 2.588235e+00	 2.941176e+00	 1.064106e+01
0	 2.705882e+00	 2.352941e+00	 1.097154e+01
0	 2.705882e+00	 2.470588e+00	 1.090427e+01
0	 2.705882e+00	 2.588235e+00	 1.084456e+01
0	 2.705882e+00	 2.705882e+00	 1.078844e+01
0	 2.705882e+00	 2.823529e+00	 1.073196e+01
0	 2.705882e+00	 2.941176e+00	 1.067114e+01
0	 2.823529e+00	 2.352941e+00	 1.096857e+01
0	 2.823529e+00	 2.470588e+00	 1.090662e+01
0	 2.823529e+00	 2.588235e+00	 1.085132e+01
0	 2.823529e+00	 2.705882e+00	 1.079893e+01
0	 2.823529e+00	 2.823529e+00	 1.074576e+01
0	 2.823529e+00	 2.941176e+00	 1.068808e+01
0	 2.941176e+00	 2.352941e+00	 1.096201e+01
0	 2.941176e+00	 2.470588e+00	 1.090653e+01
0	 2.941176e+00	 2.588235e+00	 1.085448e+01
0	 2.941176e+00	 2.705882e+00	 1.080356e+01
0	 2.941176e+00	 2.823529e+00	 1.075149e+01
0	 2.941176e+00	 2.941176e+00	 1.069596e+01
0	 2.352941e+00	 2.941176e+00	 1.052518e+01
0	 2.352941e+00	 3.058824e+00	 1.045604e+01
0	 2.352941e+00	 3.176471e+00	 1.039515e+01
0	 2.352941e+00	 3.294118e+00	 1.034033e+01
0	 2.352941e+00	 3.411765e+00	 1.028938e+01
0	 2.352941e+00	 3.529412e+00	 1.024013e+01
0	 2.470588e+00	 2.941176e+00	 1.059376e+01
0	 2.470588e+00	 3.058824e+00	 1.052551e+01
0	 2.470588e+00	 3.176471e+00	 1.046175e+01
0	 2.470588e+00	 3.294118e+00	 1.040203e+01
0	 2.470588e+00	 3.411765e+00	 1.034586e+01
0	 2.470588e+00	 3.529412e+00	 1.029278e+01
0	 2.588235e+00	 2.941176e+00	 1.064106e+01
0	 2.588235e+00	 3.058824e+00	 1.057461e+01
0	 2.588235e+00	 3.176471e+00	 1.051059e+01
0	 2.588235e+00	 3.294118e+00	 1.044966e+01
0	 2.588235e+00	 3.411765e+00	 1.039246e+01
0	 2.588235e+00	 3.529412e+00	 1.033963e+01
0	 2.705882e+00	 2.941176e+00	 1.067114e+01
0	 2.705882e+00	 3.058824e+00	 1.060732e+01
0	 2.705882e+00	 3.176471e+00	 1.054526e+01
0	 2.705882e+00	 3.294118e+00	 1.048611e+01
0	 2.705882e+00	 3.411765e+00	 1.043107e+01
0	 2.705882e+00	 3.529412e+00	 1.038129e+01
0	 2.823529e+00	 2.941176e+00	 1.068808e+01
0	 2.823529e+00	 3.058824e+00	 1.062762e+01
0	 2.823529e+00	 3.176471e+00	 1.056931e+01
0	 2.823529e+00	 3.294118e+00	 1.051426e+01
0	 2.823529e+00	 3.411765e+00	 1.046357e+01
0	 2.823529e+00	 3.529412e+00	 1.041834e+01
0	 2.941176e+00	 2.941176e+00	 1.069596e+01
0	 2.941176e+00	 3.058824e+00	 1.063947e+01
0	 2.941176e+00	 3.176471e+00	 1.058633e+01
0	 2.941176e+00	 3.294118e+00	 1.053698e+01
0	 2.941176e+00	 3.411765e+00	 1.049186e+01
0	 2.941176e+00	 3.529412e+00	 1.045141e+01
0	 2.352941e+00	 3.529412e+00	 1.024013e+01
0	 2.352941e+00	 3.647059e+00	 1.019272e+01
0	 2.352941e+00	 3.764706e+00	 1.014960e+01
0	 2.352941e+00	 3.882353e+00	 1.011201e+01
0	 2.352941e+00	 4.000000e+00	 1.008119e+01
0	 2.352941e+00	 4.117647e+00	 1.005839e+01
0	 2.470588e+00	 3.529412e+00	 1.029278e+01
0	 2.470588e+00	 3.647059e+00	 1.024419e+01
0	 2.470588e+00	 3.764706e+00	 1.020188e+01
0	 2.470588e+00	 3.882353e+00	 1.016601e+01
0	 2.470588e+00	 4.000000e+00	 1.013669e+01
0	 2.470588e+00	 4.117647e+00	 1.011409e+01
0	 2.588235e+00	 3.529412e+00	 1.033963e+01
0	 2.588235e+00	 3.647059e+00	 1.029267e+01
0	 2.588235e+00	 3.764706e+00	 1.025223e+01
0	 2.588235e+00	 3.882353e+00	 1.021770e+01
0	 2.588235e+00	 4.000000e+00	 1.018850e+01
0	 2.588235e+00	 4.117647e+00	 1.016402e+01
0	 2.705882e+00	 3.529412e+00	 1.038129e+01
0	 2.705882e+00	 3.647059e+00	 1.033760e+01
0	 2.705882e+00	 3.764706e+00	 1.029940e+01
0	 2.705882e+00	 3.882353e+00	 1.026573e+01
0	 2.705882e+00	 4.000000e+00	 1.023561e+01
0	 2.705882e+00	 4.117647e+00	 1.020809e+01
0	 2.823529e+00	 3.529412e+00	 1.041834e+01
0	 2.823529e+00	 3.647059e+00	 1.037840e+01
0	 2.823529e+00	 3.764706e+00	 1.034219e+01
0	 2.823529e+00	 3.882353e+00	 1.030873e+01
0	 2.823529e+00	 4.000000e+00	 1.027707e+01
0	 2.823529e+00	 4.117647e+00	 1.024624e+01
0	 2.941176e+00	 3.529412e+00	 1.045141e+01
0	 2.941176e+00	 3.647059e+00	 1.041451e+01
0	 2.941176e+00	 3.764706e+00	 1.037935e+01
0	 2.941176e+00	 3.882353e+00	 1.034534e+01
0	 2.941176e+00	 4.000000e+00	 1.031189e+01
0	 2.941176e+00	 4.117647e+00	 1.027838e+01
0	 2.352941e+00	 4.117647e+00	 1.005839e+01
0	 2.352941e+00	 4.235294e+00	 1.004088e+01
0	 2.352941e+00	 4.352941e+00	 1.002470e+01
0	 2.352941e+00	 4.470588e+00	 1.000931e+01
0	 2.352941e+00	 4.588235e+00	 9.994155e+00
0	 2.352941e+00	 4.705882e+00	 9.978692e+00
0	 2.470588e+00	 4.117647e+00	 1.011409e+01
0	 2.470588e+00	 4.235294e+00	 1.009486e+01
0	 2.470588e+00	 4.352941e+00	 1.007563e+01
0	 2.470588e+00	 4.470588e+00	 1.005645e+01
0	 2.470588e+00	 4.588235e+00	 1.003738e+01
0	 2.470588e+00	 4.705882e+00	 1.001848e+01
0	 2.588235e+00	 4.117647e+00	 1.016402e+01
0	 2.588235e+00	 4.235294e+00	 1.014151e+01
0	 2.588235e+00	 4.352941e+00	 1.011894e+01
0	 2.588235e+00	 4.470588e+00	 1.009673e+01
0	 2.588235e+00	 4.588235e+00	 1.007535e+01
0	 2.588235e+00	 4.705882e+00	 1.005523e+01
0	 2.705882e+00	 4.117647e+00	 1.020809e+01
0	 2.705882e+00	 4.235294e+00	 1.018170e+01
0	 2.705882e+00	 4.352941e+00	 1.015602e+01
0	 2.705882e+00	 4.470588e+00	 1.013166e+01
0	 2.705882e+00	 4.588235e+00	 1.010924e+01
0	 2.705882e+00	 4.705882e+00	 1.008937e+01
0	 2.823529e+00	 4.117647e+00	 1.024624e+01
0	 2.823529e+00	 4.235294e+00	 1.021629e+01
0	 2.823529e+00	 4.352941e+00	 1.018826e+01
0	 2.823529e+00	 4.470588e+00	 1.016271e+01
0	 2.823529e+00	 4.588235e+00	 1.014022e+01
0	 2.823529e+00	 4.705882e+00	 1.012133e+01
0	 2.941176e+00	 4.117647e+00	 1.027838e+01
0	 2.941176e+00	 4.235294e+00	 1.024614e+01
0	 2.941176e+00	 4.352941e+00	 1.021705e+01
0	 2.941176e+00	 4.470588e+00	 1.019140e+01
0	 2.941176e+00	 4.588235e+00	 1.016947e+01
0	 2.941176e+00	 4.705882e+00	 1.015154e+01
0	 2.352941e+00	 4.705882e+00	 9.978692e+00
0	 2.352941e+00	 4.823529e+00	 9.963942e+00
0	 2.352941e+00	 4.941176e+00	 9.951562e+00
0	 2.352941e+00	 5.058824e+00	 9.941945e+00
0	 2.352941e+00	 5.176471e+00	 9.935483e+00
0	 2.352941e+00	 5.294118e+00	 9.932571e+00
0	 2.470588e+00	 4.705882e+00	 1.001848e+01
0	 2.470588e+00	 4.823529e+00	 1.000130e+01
0	 2.470588e+00	 4.941176e+00	 9.987382e+00
0	 2.470588e+00	 5.058824e+00	 9.976734e+00
0	 2.470588e+00	 5.176471e+00	 9.969381e+00
0	 2.470588e+00	 5.294118e+00	 9.965345e+00
0	 2.588235e+00	 4.705882e+00	 1.005523e+01
0	 2.588235e+00	 4.823529e+00	 1.003757e+01
0	 2.588235e+00	 4.941176e+00	 1.002314e+01
0	 2.588235e+00	 5.058824e+00	 1.001170e+01
0	 2.588235e+00	 5.176471e+00	 1.000304e+01
0	 2.588235e+00	 5.294118e+00	 9.996954e+00
0	 2.705882e+00	 4.705882e+00	 1.008937e+01
0	 2.705882e+00	 4.823529e+00	 1.007238e+01
0	 2.705882e+00	 4.941176e+00	 1.005796e+01
0	 2.705882e+00	 5.058824e+00	 1.004579e+01
0	 2.705882e+00	 5.176471e+00	 1.003554e+01
0	 2.705882e+00	 5.294118e+00	 1.002690e+01
0	 2.823529e+00	 4.705882e+00	 1.012133e+01
0	 2.823529e+00	 4.823529e+00	 1.010534e+01
0	 2.823529e+00	 4.941176e+00	 1.009098e+01
0	 2.823529e+00	 5.058824e+00	 1.007795e+01
0	 2.823529e+00	 5.176471e+00	 1.006595e+01
0	 2.823529e+00	 5.294118e+00	 1.005469e+01
0	 2.941176e+00	 4.705882e+00	 1.015154e+01
0	 2.941176e+00	 4.823529e+00	 1.013609e+01
0	 2.941176e+00	 4.941176e+00	 1.012133e+01
0	 2.941176e+00	 5.058824e+00	 1.010712e+01
0	 2.941176e+00	 5.176471e+00	 1.009334e+01
0	 2.941176e+00	 5.294118e+00	 1.007983e+01
0	 2.352941e+00	 5.294118e+00	 9.932571e+00
0	 2.352941e+00	 5.411765e+00	 9.931575e+00
0	 2.352941e+00	 5.529412e+00	 9.930548e+00
0	 2.352941e+00	 5.647059e+00	 9.929416e+00
0	 2.352941e+00	 5.764706e+00	 9.928104e+00
0	 2.352941e+00	 5.882353e+00	 9.926540e+00
0	 2.470588e+00	 5.294118e+00	 9.965345e+00
0	 2.470588e+00	 5.411765e+00	 9.962735e+00
0	 2.470588e+00	 5.529412e+00	 9.959730e+00
0	 2.470588e+00	 5.647059e+00	 9.956452e+00
0	 2.470588e+00	 5.764706e+00	 9.953022e+00
0	 2.470588e+00	 5.882353e+00	 9.949564e+00
0	 2.588235e+00	 5.294118e+00	 9.996954e+00
0	 2.588235e+00	 5.411765e+00	 9.991874e+00
0	 2.588235e+00	 5.529412e+00	 9.986553e+00
0	 2.588235e+00	 5.647059e+00	 9.981234e+00
0	 2.588235e+00	 5.764706e+00	 9.976155e+00
0	 2.588235e+00	 5.882353e+00	 9.971557e+00
0	 2.705882e+00	 5.294118e+00	 1.002690e+01
0	 2.705882e+00	 5.411765e+00	 1.001899e+01
0	 2.705882e+00	 5.529412e+00	 1.001132e+01
0	 2.705882e+00	 5.647059e+00	 1.000419e+01
0	 2.705882e+00	 5.764706e+00	 9.997864e+00
0	 2.705882e+00	 5.882353e+00	 9.992632e+00
0	 2.823529e+00	 5.294118e+00	 1.005469e+01
0	 2.823529e+00	 5.411765e+00	 1.004407e+01
0	 2.823529e+00	 5.529412e+00	 1.003434e+01
0	 2.823529e+00	 5.647059e+00	 1.002574e+01
0	 2.823529e+00	 5.764706e+00	 1.001851e+01
0	 2.823529e+00	 5.882353e+00	 1.001290e+01
0	 2.941176e+00	 5.294118e+00	 1.007983e+01
0	 2.941176e+00	 5.411765e+00	 1.006713e+01
0	 2.941176e+00	 5.529412e+00	 1.005592e+01
0	 2.941176e+00	 5.647059e+00	 1.004632e+01
0	 2.941176e+00	 5.764706e+00	 1.003846e+01
0	 2.941176e+00	 5.882353e+00	 1.003247e+01
0	 2.352941e+00	 5.882353e+00	 9.926540e+00
0	 2.352941e+00	 6.000000e+00	 9.925217e+00
0	 2.352941e+00	 6.117647e+00	 9.924737e+00
0	 2.352941e+00	 6.235294e+00	 9.925184e+00
0	 2.352941e+00	 6.352941e+00	 9.926642e+00
0	 2.352941e+00	 6.470588e+00	 9.929196e+00
0	 2.470588e+00	 5.882353e+00	 9.949564e+00
0	 2.470588e+00	 6.000000e+00	 9.946706e+00
0	 2.470588e+00	 6.117647e+00	 9.944983e+00
0	 2.470588e+00	 6.235294e+00	 9.944372e+00
0	 2.470588e+00	 6.352941e+00	 9.944852e+00
0	 2.470588e+00	 6.470588e+00	 9.946399e+00
0	 2.588235e+00	 5.882353e+00	 9.971557e+00
0	 2.588235e+00	 6.000000e+00	 9.967867e+00
0	 2.588235e+00	 6.117647e+00	 9.965291e+00
0	 2.588235e+00	 6.235294e+00	 9.963744e+00
0	 2.588235e+00	 6.352941e+00	 9.963141e+00
0	 2.588235e+00	 6.470588e+00	 9.963397e+00
0	 2.705882e+00	 5.882353e+00	 9.992632e+00
0	 2.705882e+00	 6.000000e+00	 9.988520e+00
0	 2.705882e+00	 6.117647e+00	 9.985299e+00
0	 2.705882e+00	 6.235294e+00	 9.982864e+00
0	 2.705882e+00	 6.352941e+00	 9.981109e+00
0	 2.705882e+00	 6.470588e+00	 9.979928e+00
0	 2.823529e+00	 5.882353e+00	 1.001290e+01
0	 2.823529e+00	 6.000000e+00	 1.000849e+01
0	 2.823529e+00	 6.117647e+00	 1.000465e+01
0	 2.823529e+00	 6.235294e+00	 1.000130e+01
0	 2.823529e+00	 6.352941e+00	 9.998352e+00
0	 2.823529e+00	 6.470588e+00	 9.995731e+00
0	 2.941176e+00	 5.882353e+00	 1.003247e+01
0	 2.941176e+00	 6.000000e+00	 1.002759e+01
0	 2.941176e+00	 6.117647e+00	 1.002297e+01
0	 2.941176e+00	 6.235294e+00	 1.001861e+01
0	 2.941176e+00	 6.352941e+00	 1.001447e+01
0	 2.941176e+00	 6.470588e+00	 1.001054e+01
0	 2.352941e+00	 6.470588e+00	 9.929196e+00
0	 2.352941e+00	 6.588235e+00	 9.932253e+00
0	 2.352941e+00	 6.705882e+00	 9.935177e+00
0	 2.352941e+00	 6.823529e+00	 9.937987e+00
0	 2.352941e+00	 6.941176e+00	 9.940701e+00
0	 2.352941e+00	 7.058824e+00	 9.943336e+00
0	 2.470588e+00	 6.470588e+00	 9.946399e+00
0	 2.470588e+00	 6.588235e+00	 9.948351e+00
0	 2.470588e+00	 6.705882e+00	 9.950110e+00
0	 2.470588e+00	 6.823529e+00	 9.951747e+00
0	 2.470588e+00	 6.941176e+00	 9.953334e+00
0	 2.470588e+00	 7.058824e+00	 9.954944e+00
0	 2.588235e+00	 6.470588e+00	 9.963397e+00
0	 2.588235e+00	 6.588235e+00	 9.963969e+00
0	 2.588235e+00	 6.705882e+00	 9.964442e+00
0	 2.588235e+00	 6.823529e+00	 9.964918e+00
0	 2.588235e+00	 6.941176e+00	 9.965498e+00
0	 2.588235e+00	 7.058824e+00	 9.966285e+00
0	 2.705882e+00	 6.470588e+00	 9.979928e+00
0	 2.705882e+00	 6.588235e+00	 9.979010e+00
0	 2.705882e+00	 6.705882e+00	 9.978186e+00
0	 2.705882e+00	 6.823529e+00	 9.977564e+00
0	 2.705882e+00	 6.941176e+00	 9.977251e+00
0	 2.705882e+00	 7.058824e+00	 9.977355e+00
0	 2.823529e+00	 6.470588e+00	 9.995731e+00
0	 2.823529e+00	 6.588235e+00	 9.993379e+00
0	 2.823529e+00	 6.705882e+00	 9.991355e+00
0	 2.823529e+00	 6.823529e+00	 9.989749e+00
0	 2.823529e+00	 6.941176e+00	 9.988651e+00
0	 2.823529e+00	 7.058824e+00	 9.988148e+00
0	 2.941176e+00	 6.470588e+00	 1.001054e+01
0	 2.941176e+00	 6.588235e+00	 1.000698e+01
0	 2.941176e+00	 6.705882e+00	 1.000396e+01
0	 2.941176e+00	 6.823529e+00	 1.000154e+01
0	 2.941176e+00	 6.941176e+00	 9.999755e+00
0	 2.941176e+00	 7.058824e+00	 9.998660e+00
0	 2.352941e+00	 7.058824e+00	 9.943336e+00
0	 2.352941e+00	 7.176471e+00	 9.946012e+00
0	 2.352941e+00	 7.294118e+00	 9.948844e+00
0	 2.352941e+00	 7.411765e+00	 9.951851e+00
0	 2.352941e+00	 7.529412e+00	 9.955050e+00
0	 2.352941e+00	 7.647059e+00	 9.958460e+00
0	 2.470588e+00	 7.058824e+00	 9.954944e+00
0	 2.470588e+00	 7.176471e+00	 9.956717e+00
0	 2.470588e+00	 7.294118e+00	 9.958739e+00
0	 2.470588e+00	 7.411765e+00	 9.961002e+00
0	 2.470588e+00	 7.529412e+00	 9.963496e+00
0	 2.470588e+00	 7.647059e+00	 9.966212e+00
0	 2.588235e+00	 7.058824e+00	 9.966285e+00
0	 2.588235e+00	 7.176471e+00	 9.967346e+00
0	 2.588235e+00	 7.294118e+00	 9.968666e+00
0	 2.588235e+00	 7.411765e+00	 9.970221e+00
0	 2.588235e+00	 7.529412e+00	 9.971987e+00
0	 2.588235e+00	 7.647059e+00	 9.973941e+00
0	 2.705882e+00	 7.058824e+00	 9.977355e+00
0	 2.705882e+00	 7.176471e+00	 9.977818e+00
0	 2.705882e+00	 7.294118e+00	 9.978494e+00
0	 2.705882e+00	 7.411765e+00	 9.979357e+00
0	 2.705882e+00	 7.529412e+00	 9.980382e+00
0	 2.705882e+00	 7.647059e+00	 9.981543e+00
0	 2.823529e+00	 7.058824e+00	 9.988148e+00
0	 2.823529e+00	 7.176471e+00	 9.988050e+00
0	 2.823529e+00	 7.294118e+00	 9.988092e+00
0	 2.823529e+00	 7.411765e+00	 9.988261e+00
0	 2.823529e+00	 7.529412e+00	 9.988539e+00
0	 2.823529e+00	 7.647059e+00	 9.988913e+00
0	 2.941176e+00	 7.058824e+00	 9.998660e+00
0	 2.941176e+00	 7.176471e+00	 9.997958e+00
0	 2.941176e+00	 7.294118e+00	 9.997329e+00
0	 2.941176e+00	 7.411765e+00	 9.996779e+00
0	 2.941176e+00	 7.529412e+00	 9.996316e+00
0	 2.941176e+00	 7.647059e+00	 9.995948e+00
0	 2.352941e+00	 7.647059e+00	 9.958460e+00
0	 2.352941e+00	 7.764706e+00	 9.961894e+00
0	 2.352941e+00	 7.882353e+00	 9.965174e+00
0	 2.352941e+00	 8.000000e+00	 9.968322e+00
0	 2.352941e+00	 8.117647e+00	 9.971360e+00
0	 2.352941e+00	 8.235294e+00	 9.974310e+00
0	 2.470588e+00	 7.647059e+00	 9.966212e+00
0	 2.470588e+00	 7.764706e+00	 9.968951e+00
0	 2.470588e+00	 7.882353e+00	 9.971545e+00
0	 2.470588e+00	 8.000000e+00	 9.974028e+00
0	 2.470588e+00	 8.117647e+00	 9.976436e+00
0	 2.470588e+00	 8.235294e+00	 9.978803e+00
0	 2.588235e+00	 7.647059e+00	 9.973941e+00
0	 2.588235e+00	 7.764706e+00	 9.975918e+00
0	 2.588235e+00	 7.882353e+00	 9.977798e+00
0	 2.588235e+00	 8.000000e+00	 9.979620e+00
0	 2.588235e+00	 8.117647e+00	 9.981425e+00
0	 2.588235e+00	 8.235294e+00	 9.983254e+00
0	 2.705882e+00	 7.647059e+00	 9.981543e+00
0	 2.705882e+00	 7.764706e+00	 9.982737e+00
0	 2.705882e+00	 7.882353e+00	 9.983904e+00
0	 2.705882e+00	 8.000000e+00	 9.985084e+00
0	 2.705882e+00	 8.117647e+00	 9.986316e+00
0	 2.705882e+00	 8.235294e+00	 9.987641e+00
0	 2.823529e+00	 7.647059e+00	 9.988913e+00
0	 2.823529e+00	 7.764706e+00	 9.989346e+00
0	 2.823529e+00	 7.882353e+00	 9.989834e+00
0	 2.823529e+00	 8.000000e+00	 9.990408e+00
0	 2.823529e+00	 8.117647e+00	 9.991100e+00
0	 2.823529e+00	 8.235294e+00	 9.991943e+00
0	 2.941176e+00	 7.647059e+00	 9.995948e+00
0	 2.941176e+00	 7.764706e+00	 9.995688e+00
0	 2.941176e+00	 7.882353e+00	 9.995559e+00
0	 2.941176e+00	 8.000000e+00	 9.995580e+00
0	 2.941176e+00	 8.117647e+00	 9.995767e+00
0	 2.941176e+00	 8.235294e+00	 9.996138e+00
0	 2.352941e+00	 8.235294e+00	 9.974310e+00
0	 2.352941e+00	 8.352941e+00	 9.977161e+00
0	 2.352941e+00	 8.470588e+00	 9.979890e+00
0	 2.352941e+00	 8.588235e+00	 9.982508e+00
0	 2.352941e+00	 8.705882e+00	 9.985029e+00
0	 2.352941e+00	 8.823529e+00	 9.987461e+00
0	 2.470588e+00	 8.235294e+00	 9.978803e+00
0	 2.470588e+00	 8.352941e+00	 9.981121e+00
0	 2.470588e+00	 8.470588e+00	 9.983359e+00
0	 2.470588e+00	 8.588235e+00	 9.985522e+00
0	 2.470588e+00	 8.705882e+00	 9.987613e+00
0	 2.470588e+00	 8.823529e+00	 9.989637e+00
0	 2.588235e+00	 8.235294e+00	 9.983254e+00
0	 2.588235e+00	 8.352941e+00	 9.985081e+00
0	 2.588235e+00	 8.470588e+00	 9.986852e+00
0	 2.588235e+00	 8.588235e+00	 9.988567e+00
0	 2.588235e+00	 8.705882e+00	 9.990225e+00
0	 2.588235e+00	 8.823529e+00	 9.991826e+00
0	 2.705882e+00	 8.235294e+00	 9.987641e+00
0	 2.705882e+00	 8.352941e+00	 9.989004e+00
0	 2.705882e+00	 8.470588e+00	 9.990321e+00
0	 2.705882e+00	 8.588235e+00	 9.991593e+00
0	 2.705882e+00	 8.705882e+00	 9.992816e+00
0	 2.705882e+00	 8.823529e+00	 9.993991e+00
0	 2.823529e+00	 8.235294e+00	 9.991943e+00
0	 2.823529e+00	 8.352941e+00	 9.992852e+00
0	 2.823529e+00	 8.470588e+00	 9.993720e+00
0	 2.823529e+00	 8.588235e+00	 9.994549e+00
0	 2.823529e+00	 8.705882e+00	 9.995340e+00
0	 2.823529e+00	 8.823529e+00	 9.996094e+00
0	 2.941176e+00	 8.235294e+00	 9.996138e+00
0	 2.941176e+00	 8.352941e+00	 9.996588e+00
0	 2.941176e+00	 8.470588e+00	 9.997002e+00
0	 2.941176e+00	 8.588235e+00	 9.997387e+00
0	 2.941176e+00	 8.705882e+00	 9.997749e+00
0	 2.941176e+00	 8.823529e+00	 9.998096e+00
0	 2.352941e+00	 8.823529e+00	 9.987461e+00
0	 2.352941e+00	 8.941176e+00	 9.989728e+00
0	 2.352941e+00	 9.058824e+00	 9.991758e+00
0	 2.352941e+00	 9.176471e+00	 9.993568e+00
0	 2.352941e+00	 9.294118e+00	 9.995179e+00
0	 2.352941e+00	 9.411765e+00	 9.996610e+00
0	 2.470588e+00	 8.823529e+00	 9.989637e+00
0	 2.470588e+00	 8.941176e+00	 9.991517e+00
0	 2.470588e+00	 9.058824e+00	 9.993192e+00
0	 2.470588e+00	 9.176471e+00	 9.994681e+00
0	 2.470588e+00	 9.294118e+00	 9.996004e+00
0	 2.470588e+00	 9.411765e+00	 9.997182e+00
0	 2.588235e+00	 8.823529e+00	 9.991826e+00
0	 2.588235e+00	 8.941176e+00	 9.993309e+00
0	 2.588235e+00	 9.058824e+00	 9.994627e+00
0	 2.588235e+00	 9.176471e+00	 9.995798e+00
0	 2.588235e+00	 9.294118e+00	 9.996843e+00
0	 2.588235e+00	 9.411765e+00	 9.997779e+00
0	 2.705882e+00	 8.823529e+00	 9.993991e+00
0	 2.705882e+00	 8.941176e+00	 9.995076e+00
0	 2.705882e+00	 9.058824e+00	 9.996041e+00
0	 2.705882e+00	 9.176471e+00	 9.996903e+00
0	 2.705882e+00	 9.294118e+00	 9.997677e+00
0	 2.705882e+00	 9.411765e+00	 9.998379e+00
0	 2.823529e+00	 8.823529e+00	 9.996094e+00
0	 2.823529e+00	 8.941176e+00	 9.996790e+00
0	 2.823529e+00	 9.058824e+00	 9.997414e+00
0	 2.823529e+00	 9.176471e+00	 9.997977e+00
0	 2.823529e+00	 9.294118e+00	 9.998491e+00
0	 2.823529e+00	 9.411765e+00	 9.998964e+00
0	 2.941176e+00	 8.823529e+00	 9.998096e+00
0	 2.941176e+00	 8.941176e+00	 9.998424e+00
0	 2.941176e+00	 9.058824e+00	 9.998726e+00
0	 2.941176e+00	 9.176471e+00	 9.999005e+00
0	 2.941176e+00	 9.294118e+00	 9.999266e+00
0	 2.941176e+00	 9.411765e+00	 9.999512e+00
0	 2.352941e+00	 9.411765e+00	 9.996610e+00
0	 2.352941e+00	 9.529412e+00	 9.997818e+00
0	 2.352941e+00	 9.647059e+00	 9.998752e+00
0	 2.352941e+00	 9.764706e+00	 9.999423e+00
0	 2.352941e+00	 9.882353e+00	 9.999844e+00
0	 2.352941e+00	 1.000000e+01	 1.000002e+01
0	 2.470588e+00	 9.411765e+00	 9.997182e+00
0	 2.470588e+00	 9.529412e+00	 9.998181e+00
0	 2.470588e+00	 9.647059e+00	 9.998956e+00
0	 2.470588e+00	 9.764706e+00	 9.999511e+00
0	 2.470588e+00	 9.882353e+00	 9.999850e+00
0	 2.470588e+00	 1.000000e+01	 9.999976e+00
0	 2.588235e+00	 9.411765e+00	 9.997779e+00
0	 2.588235e+00	 9.529412e+00	 9.998578e+00
0	 2.588235e+00	 9.647059e+00	 9.999198e+00
0	 2.588235e+00	 9.764706e+00	 9.999638e+00
0	 2.588235e+00	 9.882353e+00	 9.999895e+00
0	 2.588235e+00	 1.000000e+01	 9.999968e+00
0	 2.705882e+00	 9.411765e+00	 9.998379e+00
0	 2.705882e+00	 9.529412e+00	 9.998984e+00
0	 2.705882e+00	 9.647059e+00	 9.999451e+00
0	 2.705882e+00	 9.764706e+00	 9.999776e+00
0	 2.705882e+00	 9.882353e+00	 9.999952e+00
0	 2.705882e+00	 1.000000e+01	 9.999976e+00
0	 2.823529e+00	 9.411765e+00	 9.998964e+00
0	 2.823529e+00	 9.529412e+00	 9.999375e+00
0	 2.823529e+00	 9.647059e+00	 9.999688e+00
0	 2.823529e+00	 9.764706e+00	 9.999897e+00
0	 2.823529e+00	 9.882353e+00	 9.999995e+00
0	 2.823529e+00	 1.000000e+01	 9.999976e+00
0	 2.941176e+00	 9.411765e+00	 9.999512e+00
0	 2.941176e+00	 9.529412e+00	 9.999725e+00
0	 2.941176e+00	 9.647059e+00	 9.999881e+00
0	 2.941176e+00	 9.764706e+00	 9.999974e+00
0	 2.941176e+00	 9.882353e+00	 9.999996e+00
0	 2.941176e+00	 1.000000e+01	 9.999944e+00
0	 2.941176e+00	 0.000000e+00	 1.068807e+01
0	 2.941176e+00	 1.176471e-01	 1.085465e+01
0	 2.941176e+00	 2.352941e-01	 1.095877e+01
0	 2.941176e+00	 3.529412e-01	 1.100923e+01
0	 2.941176e+00	 4.705882e-01	 1.101478e+01
0	 2.941176e+00	 5.882353e-01	 1.098420e+01
0	 3.058824e+00	 0.000000e+00	 1.069802e+01
0	 3.058824e+00	 1.176471e-01	 1.087703e+01
0	 3.058824e+00	 2.352941e-01	 1.099801e+01
0	 3.058824e+00	 3.529412e-01	 1.106086e+01
0	 3.058824e+00	 4.705882e-01	 1.106547e+01
0	 3.058824e+00	 5.882353e-01	 1.101176e+01
0	 3.176471e+00	 0.000000e+00	 1.073648e+01
0	 3.176471e+00	 1.176471e-01	 1.086583e+01
0	 3.176471e+00	 2.352941e-01	 1.096161e+01
0	 3.176471e+00	 3.529412e-01	 1.101809e+01
0	 3.176471e+00	 4.705882e-01	 1.102958e+01
0	 3.176471e+00	 5.882353e-01	 1.099036e+01
0	 3.294118e+00	 0.000000e+00	 1.077782e+01
0	 3.294118e+00	 1.176471e-01	 1.082667e+01
0	 3.294118e+00	 2.352941e-01	 1.087435e+01
0	 3.294118e+00	 3.529412e-01	 1.091281e+01
0	 3.294118e+00	 4.705882e-01	 1.093395e+01
0	 3.294118e+00	 5.882353e-01	 1.092969e+01
0	 3.411765e+00	 0.000000e+00	 1.079638e+01
0	 3.411765e+00	 1.176471e-01	 1.076516e+01
0	 3.411765e+00	 2.352941e-01	 1.076105e+01
0	 3.411765e+00	 3.529412e-01	 1.077686e+01
0	 3.411765e+00	 4.705882e-01	 1.080540e+01
0	 3.411765e+00	 5.882353e-01	 1.083947e+01
0	 3.529412e+00	 0.000000e+00	 1.076652e+01
0	 3.529412e+00	 1.176471e-01	 1.068693e+01
0	 3.529412e+00	 2.352941e-01	 1.064649e+01
0	 3.529412e+00	 3.529412e-01	 1.064212e+01
0	 3.529412e+00	 4.705882e-01	 1.067077e+01
0	 3.529412e+00	 5.882353e-01	 1.072938e+01
0	 2.941176e+00	 5.882353e-01	 1.098420e+01
0	 2.941176e+00	 7.058824e-01	 1.095042e+01
0	 2.941176e+00	 8.235294e-01	 1.094087e+01
0	 2.941176e+00	 9.411765e-01	 1.095607e+01
0	 2.941176e+00	 1.058824e+00	 1.099650e+01
0	 2.941176e+00	 1.176471e+00	 1.106269e+01
0	 3.058824e+00	 5.882353e-01	 1.101176e+01
0	 3.058824e+00	 7.058824e-01	 1.094356e+01
0	 3.058824e+00	 8.235294e-01	 1.090607e+01
0	 3.058824e+00	 9.411765e-01	 1.090125e+01
0	 3.058824e+00	 1.058824e+00	 1.093106e+01
0	 3.058824e+00	 1.176471e+00	 1.099746e+01
0	 3.176471e+00	 5.882353e-01	 1.099036e+01
0	 3.176471e+00	 7.058824e-01	 1.093439e+01
0	 3.176471e+00	 8.235294e-01	 1.090139e+01
0	 3.176471e+00	 9.411765e-01	 1.089422e+01
0	 3.176471e+00	 1.058824e+00	 1.091576e+01
0	 3.176471e+00	 1.176471e+00	 1.096890e+01
0	 3.294118e+00	 5.882353e-01	 1.092969e+01
0	 3.294118e+00	 7.058824e-01	 1.091285e+01
0	 3.294118e+00	 8.235294e-01	 1.090377e+01
0	 3.294118e+00	 9.411765e-01	 1.090574e+01
0	 3.294118e+00	 1.058824e+00	 1.092202e+01
0	 3.294118e+00	 1.176471e+00	 1.095587e+01
0	 3.411765e+00	 5.882353e-01	 1.083947e+01
0	 3.411765e+00	 7.058824e-01	 1.086884e+01
0	 3.411765e+00	 8.235294e-01	 1.089018e+01
0	 3.411765e+00	 9.411765e-01	 1.090661e+01
0	 3.411765e+00	 1.058824e+00	 1.092125e+01
0	 3.411765e+00	 1.176471e+00	 1.093725e+01
0	 3.529412e+00	 5.882353e-01	 1.072938e+01
0	 3.529412e+00	 7.058824e-01	 1.079230e+01
0	 3.529412e+00	 8.235294e-01	 1.083756e+01
0	 3.529412e+00	 9.411765e-01	 1.086760e+01
0	 3.529412e+00	 1.058824e+00	 1.088489e+01
0	 3.529412e+00	 1.176471e+00	 1.089189e+01
0	 2.941176e+00	 1.176471e+00	 1.106269e+01
0	 2.941176e+00	 1.294118e+00	 1.113187e+01
0	 2.941176e+00	 1.411765e+00	 1.118051e+01
0	 2.941176e+00	 1.529412e+00	 1.120792e+01
0	 2.941176e+00	 1.647059e+00	 1.121342e+01
0	 2.941176e+00	 1.764706e+00	 1.119632e+01
0	 3.058824e+00	 1.176471e+00	 1.099746e+01
0	 3.058824e+00	 1.294118e+00	 1.106979e+01
0	 3.058824e+00	 1.411765e+00	 1.111715e+01
0	 3.058824e+00	 1.529412e+00	 1.114118e+01
0	 3.058824e+00	 1.647059e+00	 1.114349e+01
0	 3.058824e+00	 1.764706e+00	 1.112571e+01
0	 3.176471e+00	 1.176471e+00	 1.096890e+01
0	 3.176471e+00	 1.294118e+00	 1.102620e+01
0	 3.176471e+00	 1.411765e+00	 1.106030e+01
0	 3.176471e+00	 1.529412e+00	 1.107425e+01
0	 3.176471e+00	 1.647059e+00	 1.107108e+01
0	 3.176471e+00	 1.764706e+00	 1.105380e+01
0	 3.294118e+00	 1.176471e+00	 1.095587e+01
0	 3.294118e+00	 1.294118e+00	 1.098967e+01
0	 3.294118e+00	 1.411765e+00	 1.100592e+01
0	 3.294118e+00	 1.529412e+00	 1.100819e+01
0	 3.294118e+00	 1.647059e+00	 1.099998e+01
0	 3.294118e+00	 1.764706e+00	 1.098486e+01
0	 3.411765e+00	 1.176471e+00	 1.093725e+01
0	 3.411765e+00	 1.294118e+00	 1.094876e+01
0	 3.411765e+00	 1.411765e+00	 1.094996e+01
0	 3.411765e+00	 1.529412e+00	 1.094401e+01
0	 3.411765e+00	 1.647059e+00	 1.093403e+01
0	 3.411765e+00	 1.764706e+00	 1.092318e+01
0	 3.529412e+00	 1.176471e+00	 1.089189e+01
0	 3.529412e+00	 1.294118e+00	 1.089203e+01
0	 3.529412e+00	 1.411765e+00	 1.088837e+01
0	 3.529412e+00	 1.529412e+00	 1.088276e+01
0	 3.529412e+00	 1.647059e+00	 1.087703e+01
0	 3.529412e+00	 1.764706e+00	 1.087305e+01
0	 2.941176e+00	 1.764706e+00	 1.119632e+01
0	 2.941176e+00	 1.882353e+00	 1.116290e+01
0	 2.941176e+00	 2.000000e+00	 1.112104e+01
0	 2.941176e+00	 2.117647e+00	 1.107247e+01
0	 2.941176e+00	 2.235294e+00	 1.101889e+01
0	 2.941176e+00	 2.352941e+00	 1.096201e+01
0	 3.058824e+00	 1.764706e+00	 1.112571e+01
0	 3.058824e+00	 1.882353e+00	 1.109749e+01
0	 3.058824e+00	 2.000000e+00	 1.106668e+01
0	 3.058824e+00	 2.117647e+00	 1.103221e+01
0	 3.058824e+00	 2.235294e+00	 1.099300e+01
0	 3.058824e+00	 2.352941e+00	 1.094798e+01
0	 3.176471e+00	 1.764706e+00	 1.105380e+01
0	 3.176471e+00	 1.882353e+00	 1.103183e+01
0	 3.176471e+00	 2.000000e+00	 1.101071e+01
0	 3.176471e+00	 2.117647e+00	 1.098763e+01
0	 3.176471e+00	 2.235294e+00	 1.095979e+01
0	 3.176471e+00	 2.352941e+00	 1.092437e+01
0	 3.294118e+00	 1.764706e+00	 1.098486e+01
0	 3.294118e+00	 1.882353e+00	 1.096960e+01
0	 3.294118e+00	 2.000000e+00	 1.095633e+01
0	 3.294118e+00	 2.117647e+00	 1.094158e+01
0	 3.294118e+00	 2.235294e+00	 1.092186e+01
0	 3.294118e+00	 2.352941e+00	 1.089369e+01
0	 3.411765e+00	 1.764706e+00	 1.092318e+01
0	 3.411765e+00	 1.882353e+00	 1.091446e+01
0	 3.411765e+00	 2.000000e+00	 1.090673e+01
0	 3.411765e+00	 2.117647e+00	 1.089689e+01
0	 3.411765e+00	 2.235294e+00	 1.088184e+01
0	 3.411765e+00	 2.352941e+00	 1.085849e+01
0	 3.529412e+00	 1.764706e+00	 1.087305e+01
0	 3.529412e+00	 1.882353e+00	 1.087009e+01
0	 3.529412e+00	 2.000000e+00	 1.086510e+01
0	 3.529412e+00	 2.117647e+00	 1.085641e+01
0	 3.529412e+00	 2.235294e+00	 1.084236e+01
0	 3.529412e+00	 2.352941e+00	 1.082129e+01
0	 2.941176e+00	 2.352941e+00	 1.096201e+01
0	 2.941176e+00	 2.470588e+00	 1.090653e+01
0	 2.941176e+00	 2.588235e+00	 1.085448e+01
0	 2.941176e+00	 2.705882e+00	 1.080356e+01
0	 2.941176e+00	 2.823529e+00	 1.075149e+01
0	 2.941176e+00	 2.941176e+00	 1.069596e+01
0	 3.058824e+00	 2.352941e+00	 1.094798e+01
0	 3.058824e+00	 2.470588e+00	 1.089977e+01
0	 3.058824e+00	 2.588235e+00	 1.085131e+01
0	 3.058824e+00	 2.705882e+00	 1.080204e+01
0	 3.058824e+00	 2.823529e+00	 1.075136e+01
0	 3.058824e+00	 2.941176e+00	 1.069871e+01
0	 3.176471e+00	 2.352941e+00	 1.092437e+01
0	 3.176471e+00	 2.470588e+00	 1.088283e+01
0	 3.176471e+00	 2.588235e+00	 1.083886e+01
0	 3.176471e+00	 2.705882e+00	 1.079302e+01
0	 3.176471e+00	 2.823529e+00	 1.074587e+01
0	 3.176471e+00	 2.941176e+00	 1.069795e+01
0	 3.294118e+00	 2.352941e+00	 1.089369e+01
0	 3.294118e+00	 2.470588e+00	 1.085814e+01
0	 3.294118e+00	 2.588235e+00	 1.081932e+01
0	 3.294118e+00	 2.705882e+00	 1.077835e+01
0	 3.294118e+00	 2.823529e+00	 1.073631e+01
0	 3.294118e+00	 2.941176e+00	 1.069431e+01
0	 3.411765e+00	 2.352941e+00	 1.085849e+01
0	 3.411765e+00	 2.470588e+00	 1.082814e+01
0	 3.411765e+00	 2.588235e+00	 1.079490e+01
0	 3.411765e+00	 2.705882e+00	 1.075982e+01
0	 3.411765e+00	 2.823529e+00	 1.072397e+01
0	 3.411765e+00	 2.941176e+00	 1.068839e+01
0	 3.529412e+00	 2.352941e+00	 1.082129e+01
0	 3.529412e+00	 2.470588e+00	 1.079528e+01
0	 3.529412e+00	 2.588235e+00	 1.076780e+01
0	 3.529412e+00	 2.705882e+00	 1.073927e+01
0	 3.529412e+00	 2.823529e+00	 1.071013e+01
0	 3.529412e+00	 2.941176e+00	 1.068082e+01
0	 2.941176e+00	 2.941176e+00	 1.069596e+01
0	 2.941176e+00	 3.058824e+00	 1.063947e+01
0	 2.941176e+00	 3.176471e+00	 1.058633e+01
0	 2.941176e+00	 3.294118e+00	 1.053698e+01
0	 2.941176e+00	 3.411765e+00	 1.049186e+01
0	 2.941176e+00	 3.529412e+00	 1.045141e+01
0	 3.058824e+00	 2.941176e+00	 1.069871e+01
0	 3.058824e+00	 3.058824e+00	 1.064710e+01
0	 3.058824e+00	 3.176471e+00	 1.059968e+01
0	 3.058824e+00	 3.294118e+00	 1.055607e+01
0	 3.058824e+00	 3.411765e+00	 1.051590e+01
0	 3.058824e+00	 3.529412e+00	 1.047880e+01
0	 3.176471e+00	 2.941176e+00	 1.069795e+01
0	 3.176471e+00	 3.058824e+00	 1.065210e+01
0	 3.176471e+00	 3.176471e+00	 1.061017e+01
0	 3.176471e+00	 3.294118e+00	 1.057128e+01
0	 3.176471e+00	 3.411765e+00	 1.053452e+01
0	 3.176471e+00	 3.529412e+00	 1.049900e+01
0	 3.294118e+00	 2.941176e+00	 1.069431e+01
0	 3.294118e+00	 3.058824e+00	 1.065451e+01
0	 3.294118e+00	 3.176471e+00	 1.061759e+01
0	 3.294118e+00	 3.294118e+00	 1.058243e+01
0	 3.294118e+00	 3.411765e+00	 1.054792e+01
0	 3.294118e+00	 3.529412e+00	 1.051291e+01
0	 3.411765e+00	 2.941176e+00	 1.068839e+01
0	 3.411765e+00	 3.058824e+00	 1.065435e+01
0	 3.411765e+00	 3.176471e+00	 1.062169e+01
0	 3.411765e+00	 3.294118e+00	 1.058935e+01
0	 3.411765e+00	 3.411765e+00	 1.055627e+01
0	 3.411765e+00	 3.529412e+00	 1.052141e+01
0	 3.529412e+00	 2.941176e+00	 1.068082e+01
0	 3.529412e+00	 3.058824e+00	 1.065166e+01
0	 3.529412e+00	 3.176471e+00	 1.062224e+01
0	 3.529412e+00	 3.294118e+00	 1.059184e+01
0	 3.529412e+00	 3.411765e+00	 1.055979e+01
0	 3.529412e+00	 3.529412e+00	 1.052537e+01
0	 2.941176e+00	 3.529412e+00	 1.045141e+01
0	 2.941176e+00	 3.647059e+00	 1.041451e+01
0	 2.941176e+00	 3.764706e+00	 1.037935e+01
0	 2.941176e+00	 3.882353e+00	 1.034534e+01
0	 2.941176e+00	 4.000000e+00	 1.031189e+01
0	 2.941176e+00	 4.117647e+00	 1.027838e+01
0	 3.058824e+00	 3.529412e+00	 1.047880e+01
0	 3.058824e+00	 3.647059e+00	 1.044337e+01
0	 3.058824e+00	 3.764706e+00	 1.040842e+01
0	 3.058824e+00	 3.882353e+00	 1.037380e+01
0	 3.058824e+00	 4.000000e+00	 1.033939e+01
0	 3.058824e+00	 4.117647e+00	 1.030506e+01
0	 3.176471e+00	 3.529412e+00	 1.049900e+01
0	 3.176471e+00	 3.647059e+00	 1.046387e+01
0	 3.176471e+00	 3.764706e+00	 1.042896e+01
0	 3.176471e+00	 3.882353e+00	 1.039446e+01
0	 3.176471e+00	 4.000000e+00	 1.036054e+01
0	 3.176471e+00	 4.117647e+00	 1.032737e+01
0	 3.294118e+00	 3.529412e+00	 1.051291e+01
0	 3.294118e+00	 3.647059e+00	 1.047754e+01
0	 3.294118e+00	 3.764706e+00	 1.044287e+01
0	 3.294118e+00	 3.882353e+00	 1.040919e+01
0	 3.294118e+00	 4.000000e+00	 1.037682e+01
0	 3.294118e+00	 4.117647e+00	 1.034605e+01
0	 3.411765e+00	 3.529412e+00	 1.052141e+01
0	 3.411765e+00	 3.647059e+00	 1.048596e+01
0	 3.411765e+00	 3.764706e+00	 1.045201e+01
0	 3.411765e+00	 3.882353e+00	 1.041984e+01
0	 3.411765e+00	 4.000000e+00	 1.038969e+01
0	 3.411765e+00	 4.117647e+00	 1.036184e+01
0	 3.529412e+00	 3.529412e+00	 1.052537e+01
0	 3.529412e+00	 3.647059e+00	 1.049067e+01
0	 3.529412e+00	 3.764706e+00	 1.045828e+01
0	 3.529412e+00	 3.882353e+00	 1.042825e+01
0	 3.529412e+00	 4.000000e+00	 1.040063e+01
0	 3.529412e+00	 4.117647e+00	 1.037548e+01
0	 2.941176e+00	 4.117647e+00	 1.027838e+01
0	 2.941176e+00	 4.235294e+00	 1.024614e+01
0	 2.941176e+00	 4.352941e+00	 1.021705e+01
0	 2.941176e+00	 4.470588e+00	 1.019140e+01
0	 2.941176e+00	 4.588235e+00	 1.016947e+01
0	 2.941176e+00	 4.705882e+00	 1.015154e+01
0	 3.058824e+00	 4.117647e+00	 1.030506e+01
0	 3.058824e+00	 4.235294e+00	 1.027261e+01
0	 3.058824e+00	 4.352941e+00	 1.024389e+01
0	 3.058824e+00	 4.470588e+00	 1.021885e+01
0	 3.058824e+00	 4.588235e+00	 1.019744e+01
0	 3.058824e+00	 4.705882e+00	 1.017962e+01
0	 3.176471e+00	 4.117647e+00	 1.032737e+01
0	 3.176471e+00	 4.235294e+00	 1.029645e+01
0	 3.176471e+00	 4.352941e+00	 1.026899e+01
0	 3.176471e+00	 4.470588e+00	 1.024475e+01
0	 3.176471e+00	 4.588235e+00	 1.022344e+01
0	 3.176471e+00	 4.705882e+00	 1.020482e+01
0	 3.294118e+00	 4.117647e+00	 1.034605e+01
0	 3.294118e+00	 4.235294e+00	 1.031763e+01
0	 3.294118e+00	 4.352941e+00	 1.029188e+01
0	 3.294118e+00	 4.470588e+00	 1.026845e+01
0	 3.294118e+00	 4.588235e+00	 1.024696e+01
0	 3.294118e+00	 4.705882e+00	 1.022707e+01
0	 3.411765e+00	 4.117647e+00	 1.036184e+01
0	 3.411765e+00	 4.235294e+00	 1.033614e+01
0	 3.411765e+00	 4.352941e+00	 1.031208e+01
0	 3.411765e+00	 4.470588e+00	 1.028930e+01
0	 3.411765e+00	 4.588235e+00	 1.026747e+01
0	 3.411765e+00	 4.705882e+00	 1.024625e+01
0	 3.529412e+00	 4.117647e+00	 1.037548e+01
0	 3.529412e+00	 4.235294e+00	 1.035197e+01
0	 3.529412e+00	 4.352941e+00	 1.032909e+01
0	 3.529412e+00	 4.470588e+00	 1.030665e+01
0	 3.529412e+00	 4.588235e+00	 1.028445e+01
0	 3.529412e+00	 4.705882e+00	 1.026227e+01
0	 2.941176e+00	 4.705882e+00	 1.015154e+01
0	 2.941176e+00	 4.823529e+00	 1.013609e+01
0	 2.941176e+00	 4.941176e+00	 1.012133e+01
0	 2.941176e+00	 5.058824e+00	 1.010712e+01
0	 2.941176e+00	 5.176471e+00	 1.009334e+01
0	 2.941176e+00	 5.294118e+00	 1.007983e+01
0	 3.058824e+00	 4.705882e+00	 1.017962e+01
0	 3.058824e+00	 4.823529e+00	 1.016365e+01
0	 3.058824e+00	 4.941176e+00	 1.014788e+01
0	 3.058824e+00	 5.058824e+00	 1.013236e+01
0	 3.058824e+00	 5.176471e+00	 1.011714e+01
0	 3.058824e+00	 5.294118e+00	 1.010229e+01
0	 3.176471e+00	 4.705882e+00	 1.020482e+01
0	 3.176471e+00	 4.823529e+00	 1.018753e+01
0	 3.176471e+00	 4.941176e+00	 1.017049e+01
0	 3.176471e+00	 5.058824e+00	 1.015386e+01
0	 3.176471e+00	 5.176471e+00	 1.013783e+01
0	 3.176471e+00	 5.294118e+00	 1.012257e+01
0	 3.294118e+00	 4.705882e+00	 1.022707e+01
0	 3.294118e+00	 4.823529e+00	 1.020811e+01
0	 3.294118e+00	 4.941176e+00	 1.018981e+01
0	 3.294118e+00	 5.058824e+00	 1.017237e+01
0	 3.294118e+00	 5.176471e+00	 1.015602e+01
0	 3.294118e+00	 5.294118e+00	 1.014095e+01
0	 3.411765e+00	 4.705882e+00	 1.024625e+01
0	 3.411765e+00	 4.823529e+00	 1.022577e+01
0	 3.411765e+00	 4.941176e+00	 1.020650e+01
0	 3.411765e+00	 5.058824e+00	 1.018862e+01
0	 3.411765e+00	 5.176471e+00	 1.017230e+01
0	 3.411765e+00	 5.294118e+00	 1.015773e+01
0	 3.529412e+00	 4.705882e+00	 1.026227e+01
0	 3.529412e+00	 4.823529e+00	 1.024088e+01
0	 3.529412e+00	 4.941176e+00	 1.022120e+01
0	 3.529412e+00	 5.058824e+00	 1.020332e+01
0	 3.529412e+00	 5.176471e+00	 1.018729e+01
0	 3.529412e+00	 5.294118e+00	 1.017320e+01
0	 2.941176e+00	 5.294118e+00	 1.007983e+01
0	 2.941176e+00	 5.411765e+00	 1.006713e+01
0	 2.941176e+00	 5.529412e+00	 1.005592e+01
0	 2.941176e+00	 5.647059e+00	 1.004632e+01
0	 2.941176e+00	 5.764706e+00	 1.003846e+01
0	 2.941176e+00	 5.882353e+00	 1.003247e+01
0	 3.058824e+00	 5.294118e+00	 1.010229e+01
0	 3.058824e+00	 5.411765e+00	 1.008853e+01
0	 3.058824e+00	 5.529412e+00	 1.007656e+01
0	 3.058824e+00	 5.647059e+00	 1.006635e+01
0	 3.058824e+00	 5.764706e+00	 1.005792e+01
0	 3.058824e+00	 5.882353e+00	 1.005126e+01
0	 3.176471e+00	 5.294118e+00	 1.012257e+01
0	 3.176471e+00	 5.411765e+00	 1.010862e+01
0	 3.176471e+00	 5.529412e+00	 1.009638e+01
0	 3.176471e+00	 5.647059e+00	 1.008575e+01
0	 3.176471e+00	 5.764706e+00	 1.007665e+01
0	 3.176471e+00	 5.882353e+00	 1.006898e+01
0	 3.294118e+00	 5.294118e+00	 1.014095e+01
0	 3.294118e+00	 5.411765e+00	 1.012733e+01
0	 3.294118e+00	 5.529412e+00	 1.011510e+01
0	 3.294118e+00	 5.647059e+00	 1.010412e+01
0	 3.294118e+00	 5.764706e+00	 1.009429e+01
0	 3.294118e+00	 5.882353e+00	 1.008547e+01
0	 3.411765e+00	 5.294118e+00	 1.015773e+01
0	 3.411765e+00	 5.411765e+00	 1.014460e+01
0	 3.411765e+00	 5.529412e+00	 1.013243e+01
0	 3.411765e+00	 5.647059e+00	 1.012110e+01
0	 3.411765e+00	 5.764706e+00	 1.011051e+01
0	 3.411765e+00	 5.882353e+00	 1.010056e+01
0	 3.529412e+00	 5.294118e+00	 1.017320e+01
0	 3.529412e+00	 5.411765e+00	 1.016037e+01
0	 3.529412e+00	 5.529412e+00	 1.014808e+01
0	 3.529412e+00	 5.647059e+00	 1.013630e+01
0	 3.529412e+00	 5.764706e+00	 1.012498e+01
0	 3.529412e+00	 5.882353e+00	 1.011407e+01
0	 2.941176e+00	 5.882353e+00	 1.003247e+01
0	 2.941176e+00	 6.000000e+00	 1.002759e+01
0	 2.941176e+00	 6.117647e+00	 1.002297e+01
0	 2.941176e+00	 6.235294e+00	 1.001861e+01
0	 2.941176e+00	 6.352941e+00	 1.001447e+01
0	 2.941176e+00	 6.470588e+00	 1.001054e+01
0	 3.058824e+00	 5.882353e+00	 1.005126e+01
0	 3.058824e+00	 6.000000e+00	 1.004551e+01
0	 3.058824e+00	 6.117647e+00	 1.003989e+01
0	 3.058824e+00	 6.235294e+00	 1.003445e+01
0	 3.058824e+00	 6.352941e+00	 1.002924e+01
0	 3.058824e+00	 6.470588e+00	 1.002433e+01
0	 3.176471e+00	 5.882353e+00	 1.006898e+01
0	 3.176471e+00	 6.000000e+00	 1.006207e+01
0	 3.176471e+00	 6.117647e+00	 1.005534e+01
0	 3.176471e+00	 6.235294e+00	 1.004890e+01
0	 3.176471e+00	 6.352941e+00	 1.004284e+01
0	 3.176471e+00	 6.470588e+00	 1.003726e+01
0	 3.294118e+00	 5.882353e+00	 1.008547e+01
0	 3.294118e+00	 6.000000e+00	 1.007728e+01
0	 3.294118e+00	 6.117647e+00	 1.006947e+01
0	 3.294118e+00	 6.235294e+00	 1.006214e+01
0	 3.294118e+00	 6.352941e+00	 1.005542e+01
0	 3.294118e+00	 6.470588e+00	 1.004940e+01
0	 3.411765e+00	 5.882353e+00	 1.010056e+01
0	 3.411765e+00	 6.000000e+00	 1.009117e+01
0	 3.411765e+00	 6.117647e+00	 1.008241e+01
0	 3.411765e+00	 6.235294e+00	 1.007437e+01
0	 3.411765e+00	 6.352941e+00	 1.006715e+01
0	 3.411765e+00	 6.470588e+00	 1.006082e+01
0	 3.529412e+00	 5.882353e+00	 1.011407e+01
0	 3.529412e+00	 6.000000e+00	 1.010377e+01
0	 3.529412e+00	 6.117647e+00	 1.009432e+01
0	 3.529412e+00	 6.235294e+00	 1.008578e+01
0	 3.529412e+00	 6.352941e+00	 1.007819e+01
0	 3.529412e+00	 6.470588e+00	 1.007158e+01
0	 2.941176e+00	 6.470588e+00	 1.001054e+01
0	 2.941176e+00	 6.588235e+00	 1.000698e+01
0	 2.941176e+00	 6.705882e+00	 1.000396e+01
0	 2.941176e+00	 6.823529e+00	 1.000154e+01
0	 2.941176e+00	 6.941176e+00	 9.999755e+00
0	 2.941176e+00	 7.058824e+00	 9.998660e+00
0	 3.058824e+00	 6.470588e+00	 1.002433e+01
0	 3.058824e+00	 6.588235e+00	 1.001991e+01
0	 3.058824e+00	 6.705882e+00	 1.001615e+01
0	 3.058824e+00	 6.823529e+00	 1.001306e+01
0	 3.058824e+00	 6.941176e+00	 1.001063e+01
0	 3.058824e+00	 7.058824e+00	 1.000887e+01
0	 3.176471e+00	 6.470588e+00	 1.003726e+01
0	 3.176471e+00	 6.588235e+00	 1.003229e+01
0	 3.176471e+00	 6.705882e+00	 1.002798e+01
0	 3.176471e+00	 6.823529e+00	 1.002429e+01
0	 3.176471e+00	 6.941176e+00	 1.002120e+01
0	 3.176471e+00	 7.058824e+00	 1.001869e+01
0	 3.294118e+00	 6.470588e+00	 1.004940e+01
0	 3.294118e+00	 6.588235e+00	 1.004408e+01
0	 3.294118e+00	 6.705882e+00	 1.003931e+01
0	 3.294118e+00	 6.823529e+00	 1.003507e+01
0	 3.294118e+00	 6.941176e+00	 1.003132e+01
0	 3.294118e+00	 7.058824e+00	 1.002802e+01
0	 3.411765e+00	 6.470588e+00	 1.006082e+01
0	 3.411765e+00	 6.588235e+00	 1.005521e+01
0	 3.411765e+00	 6.705882e+00	 1.005002e+01
0	 3.411765e+00	 6.823529e+00	 1.004524e+01
0	 3.411765e+00	 6.941176e+00	 1.004083e+01
0	 3.411765e+00	 7.058824e+00	 1.003678e+01
0	 3.529412e+00	 6.470588e+00	 1.007158e+01
0	 3.529412e+00	 6.588235e+00	 1.006563e+01
0	 3.529412e+00	 6.705882e+00	 1.005998e+01
0	 3.529412e+00	 6.823529e+00	 1.005464e+01
0	 3.529412e+00	 6.941176e+00	 1.004960e+01
0	 3.529412e+00	 7.058824e+00	 1.004485e+01
0	 2.941176e+00	 7.058824e+00	 9.998660e+00
0	 2.941176e+00	 7.176471e+00	 9.997958e+00
0	 2.941176e+00	 7.294118e+00	 9.997329e+00
0	 2.941176e+00	 7.411765e+00	 9.996779e+00
0	 2.941176e+00	 7.529412e+00	 9.996316e+00
0	 2.941176e+00	 7.647059e+00	 9.995948e+00
0	 3.058824e+00	 7.058824e+00	 1.000887e+01
0	 3.058824e+00	 7.176471e+00	 1.000746e+01
0	 3.058824e+00	 7.294118e+00	 1.000610e+01
0	 3.058824e+00	 7.411765e+00	 1.000482e+01
0	 3.058824e+00	 7.529412e+00	 1.000366e+01
0	 3.058824e+00	 7.647059e+00	 1.000264e+01
0	 3.176471e+00	 7.058824e+00	 1.001869e+01
0	 3.176471e+00	 7.176471e+00	 1.001649e+01
0	 3.176471e+00	 7.294118e+00	 1.001438e+01
0	 3.176471e+00	 7.411765e+00	 1.001240e+01
0	 3.176471e+00	 7.529412e+00	 1.001061e+01
0	 3.176471e+00	 7.647059e+00	 1.000904e+01
0	 3.294118e+00	 7.058824e+00	 1.002802e+01
0	 3.294118e+00	 7.176471e+00	 1.002501e+01
0	 3.294118e+00	 7.294118e+00	 1.002218e+01
0	 3.294118e+00	 7.411765e+00	 1.001956e+01
0	 3.294118e+00	 7.529412e+00	 1.001721e+01
0	 3.294118e+00	 7.647059e+00	 1.001517e+01
0	 3.411765e+00	 7.058824e+00	 1.003678e+01
0	 3.411765e+00	 7.176471e+00	 1.003301e+01
0	 3.411765e+00	 7.294118e+00	 1.002951e+01
0	 3.411765e+00	 7.411765e+00	 1.002631e+01
0	 3.411765e+00	 7.529412e+00	 1.002346e+01
0	 3.411765e+00	 7.647059e+00	 1.002100e+01
0	 3.529412e+00	 7.058824e+00	 1.004485e+01
0	 3.529412e+00	 7.176471e+00	 1.004043e+01
0	 3.529412e+00	 7.294118e+00	 1.003637e+01
0	 3.529412e+00	 7.411765e+00	 1.003269e+01
0	 3.529412e+00	 7.529412e+00	 1.002940e+01
0	 3.529412e+00	 7.647059e+00	 1.002653e+01
0	 2.941176e+00	 7.647059e+00	 9.995948e+00
0	 2.941176e+00	 7.764706e+00	 9.995688e+00
0	 2.941176e+00	 7.882353e+00	 9.995559e+00
0	 2.941176e+00	 8.000000e+00	 9.995580e+00
0	 2.941176e+00	 8.117647e+00	 9.995767e+00
0	 2.941176e+00	 8.235294e+00	 9.996138e+00
0	 3.058824e+00	 7.647059e+00	 1.000264e+01
0	 3.058824e+00	 7.764706e+00	 1.000179e+01
0	 3.058824e+00	 7.882353e+00	 1.000112e+01
0	 3.058824e+00	 8.000000e+00	 1.000064e+01
0	 3.058824e+00	 8.117647e+00	 1.000034e+01
0	 3.058824e+00	 8.235294e+00	 1.000023e+01
0	 3.176471e+00	 7.647059e+00	 1.000904e+01
0	 3.176471e+00	 7.764706e+00	 1.000770e+01
0	 3.176471e+00	 7.882353e+00	 1.000655e+01
0	 3.176471e+00	 8.000000e+00	 1.000559e+01
0	 3.176471e+00	 8.117647e+00	 1.000481e+01
0	 3.176471e+00	 8.235294e+00	 1.000420e+01
0	 3.294118e+00	 7.647059e+00	 1.001517e+01
0	 3.294118e+00	 7.764706e+00	 1.001339e+01
0	 3.294118e+00	 7.882353e+00	 1.001179e+01
0	 3.294118e+00	 8.000000e+00	 1.001037e+01
0	 3.294118e+00	 8.117647e+00	 1.000911e+01
0	 3.294118e+00	 8.235294e+00	 1.000801e+01
0	 3.411765e+00	 7.647059e+00	 1.002100e+01
0	 3.411765e+00	 7.764706e+00	 1.001881e+01
0	 3.411765e+00	 7.882353e+00	 1.001679e+01
0	 3.411765e+00	 8.000000e+00	 1.001492e+01
0	 3.411765e+00	 8.117647e+00	 1.001320e+01
0	 3.411765e+00	 8.235294e+00	 1.001162e+01
0	 3.529412e+00	 7.647059e+00	 1.002653e+01
0	 3.529412e+00	 7.764706e+00	 1.002395e+01
0	 3.529412e+00	 7.882353e+00	 1.002150e+01
0	 3.529412e+00	 8.000000e+00	 1.001918e+01
0	 3.529412e+00	 8.117647e+00	 1.001701e+01
0	 3.529412e+00	 8.235294e+00	 1.001499e+01
0	 2.941176e+00	 8.235294e+00	 9.996138e+00
0	 2.941176e+00	 8.352941e+00	 9.996588e+00
0	 2.941176e+00	 8.470588e+00	 9.997002e+00
0	 2.941176e+00	 8.588235e+00	 9.997387e+00
0	 2.941176e+00	 8.705882e+00	 9.997749e+00
0	 2.941176e+00	 8.823529e+00	 9.998096e+00
0	 3.058824e+00	 8.235294e+00	 1.000023e+01
0	 3.058824e+00	 8.352941e+00	 1.000020e+01
0	 3.058824e+00	 8.470588e+00	 1.000015e+01
0	 3.058824e+00	 8.588235e+00	 1.000010e+01
0	 3.058824e+00	 8.705882e+00	 1.000005e+01
0	 3.058824e+00	 8.823529e+00	 1.000001e+01
0	 3.176471e+00	 8.235294e+00	 1.000420e+01
0	 3.176471e+00	 8.352941e+00	 1.000368e+01
0	 3.176471e+00	 8.470588e+00	 1.000318e+01
0	 3.176471e+00	 8.588235e+00	 1.000270e+01
0	 3.176471e+00	 8.705882e+00	 1.000226e+01
0	 3.176471e+00	 8.823529e+00	 1.000188e+01
0	 3.294118e+00	 8.235294e+00	 1.000801e+01
0	 3.294118e+00	 8.352941e+00	 1.000701e+01
0	 3.294118e+00	 8.470588e+00	 1.000606e+01
0	 3.294118e+00	 8.588235e+00	 1.000518e+01
0	 3.294118e+00	 8.705882e+00	 1.000438e+01
0	 3.294118e+00	 8.823529e+00	 1.000368e+01
0	 3.411765e+00	 8.235294e+00	 1.001162e+01
0	 3.411765e+00	 8.352941e+00	 1.001016e+01
0	 3.411765e+00	 8.470588e+00	 1.000880e+01
0	 3.411765e+00	 8.588235e+00	 1.000754e+01
0	 3.411765e+00	 8.705882e+00	 1.000641e+01
0	 3.411765e+00	 8.823529e+00	 1.000540e+01
0	 3.529412e+00	 8.235294e+00	 1.001499e+01
0	 3.529412e+00	 8.352941e+00	 1.001311e+01
0	 3.529412e+00	 8.470588e+00	 1.001137e+01
0	 3.529412e+00	 8.588235e+00	 1.000977e+01
0	 3.529412e+00	 8.705882e+00	 1.000833e+01
0	 3.529412e+00	 8.823529e+00	 1.000703e+01
0	 2.941176e+00	 8.823529e+00	 9.998096e+00
0	 2.941176e+00	 8.941176e+00	 9.998424e+00
0	 2.941176e+00	 9.058824e+00	 9.998726e+00
0	 2.941176e+00	 9.176471e+00	 9.999005e+00
0	 2.941176e+00	 9.294118e+00	 9.999266e+00
0	 2.941176e+00	 9.411765e+00	 9.999512e+00
0	 3.058824e+00	 8.823529e+00	 1.000001e+01
0	 3.058824e+00	 8.941176e+00	 1.000000e+01
0	 3.058824e+00	 9.058824e+00	 1.000000e+01
0	 3.058824e+00	 9.176471e+00	 1.000001e+01
0	 3.058824e+00	 9.294118e+00	 1.000003e+01
0	 3.058824e+00	 9.411765e+00	 1.000005e+01
0	 3.176471e+00	 8.823529e+00	 1.000188e+01
0	 3.176471e+00	 8.941176e+00	 1.000156e+01
0	 3.176471e+00	 9.058824e+00	 1.000127e+01
0	 3.176471e+00	 9.176471e+00	 1.000102e+01
0	 3.176471e+00	 9.294118e+00	 1.000080e+01
0	 3.176471e+00	 9.411765e+00	 1.000059e+01
0	 3.294118e+00	 8.823529e+00	 1.000368e+01
0	 3.294118e+00	 8.941176e+00	 1.000306e+01
0	 3.294118e+00	 9.058824e+00	 1.000251e+01
0	 3.294118e+00	 9.176471e+00	 1.000201e+01
0	 3.294118e+00	 9.294118e+00	 1.000154e+01
0	 3.294118e+00	 9.411765e+00	 1.000111e+01
0	 3.411765e+00	 8.823529e+00	 1.000540e+01
0	 3.411765e+00	 8.941176e+00	 1.000450e+01
0	 3.411765e+00	 9.058824e+00	 1.000369e+01
0	 3.411765e+00	 9.176471e+00	 1.000294e+01
0	 3.411765e+00	 9.294118e+00	 1.000225e+01
0	 3.411765e+00	 9.411765e+00	 1.000160e+01
0	 3.529412e+00	 8.823529e+00	 1.000703e+01
0	 3.529412e+00	 8.941176e+00	 1.000586e+01
0	 3.529412e+00	 9.058824e+00	 1.000478e+01
0	 3.529412e+00	 9.176471e+00	 1.000379e+01
0	 3.529412e+00	 9.294118e+00	 1.000288e+01
0	 3.529412e+00	 9.411765e+00	 1.000203e+01
0	 2.941176e+00	 9.411765e+00	 9.999512e+00
0	 2.941176e+00	 9.529412e+00	 9.999725e+00
0	 2.941176e+00	 9.647059e+00	 9.999881e+00
0	 2.941176e+00	 9.764706e+00	 9.999974e+00
0	 2.941176e+00	 9.882353e+00	 9.999996e+00
0	 2.941176e+00	 1.000000e+01	 9.999944e+00
0	 3.058824e+00	 9.411765e+00	 1.000005e+01
0	 3.058824e+00	 9.529412e+00	 1.000006e+01
0	 3.058824e+00	 9.647059e+00	 1.000006e+01
0	 3.058824e+00	 9.764706e+00	 1.000004e+01
0	 3.058824e+00	 9.882353e+00	 9.999993e+00
0	 3.058824e+00	 1.000000e+01	 9.999920e+00
0	 3.176471e+00	 9.411765e+00	 1.000059e+01
0	 3.176471e+00	 9.529412e+00	 1.000040e+01
0	 3.176471e+00	 9.647059e+00	 1.000025e+01
0	 3.176471e+00	 9.764706e+00	 1.000013e+01
0	 3.176471e+00	 9.882353e+00	 1.000003e+01
0	 3.176471e+00	 1.000000e+01	 9.999940e+00
0	 3.294118e+00	 9.411765e+00	 1.000111e+01
0	 3.294118e+00	 9.529412e+00	 1.000073e+01
0	 3.294118e+00	 9.647059e+00	 1.000044e+01
0	 3.294118e+00	 9.764706e+00	 1.000022e+01
0	 3.294118e+00	 9.882353e+00	 1.000007e+01
0	 3.294118e+00	 1.000000e+01	 9.999974e+00
0	 3.411765e+00	 9.411765e+00	 1.000160e+01
0	 3.411765e+00	 9.529412e+00	 1.000104e+01
0	 3.411765e+00	 9.647059e+00	 1.000062e+01
0	 3.411765e+00	 9.764706e+00	 1.000031e+01
0	 3.411765e+00	 9.882353e+00	 1.000011e+01
0	 3.411765e+00	 1.000000e+01	 9.999994e+00
0	 3.529412e+00	 9.411765e+00	 1.000203e+01
0	 3.529412e+00	 9.529412e+00	 1.000131e+01
0	 3.529412e+00	 9.647059e+00	 1.000076e+01
0	 3.529412e+00	 9.764706e+00	 1.000038e+01
0	 3.529412e+00	 9.882353e+00	 1.000012e+01
0	 3.529412e+00	 1.000000e+01	 9.999971e+00
0	 3.529412e+00	 0.000000e+00	 1.076652e+01
0	 3.529412e+00	 1.176471e-01	 1.068693e+01
0	 3.529412e+00	 2.352941e-01	 1.064649e+01
0	 3.529412e+00	 3.529412e-01	 1.064212e+01
0	 3.529412e+00	 4.705882e-01	 1.067077e+01
0	 3.529412e+00	 5.882353e-01	 1.072938e+01
0	 3.647059e+00	 0.000000e+00	 1.069344e+01
0	 3.647059e+00	 1.176471e-01	 1.061143e+01
0	 3.647059e+00	 2.352941e-01	 1.056253e+01
0	 3.647059e+00	 3.529412e-01	 1.054852e+01
0	 3.647059e+00	 4.705882e-01	 1.057119e+01
0	 3.647059e+00	 5.882353e-01	 1.063232e+01
0	 3.764706e+00	 0.000000e+00	 1.060852e+01
0	 3.764706e+00	 1.176471e-01	 1.055308e+01
0	 3.764706e+00	 2.352941e-01	 1.051669e+01
0	 3.764706e+00	 3.529412e-01	 1.050413e+01
0	 3.764706e+00	 4.705882e-01	 1.052021e+01
0	 3.764706e+00	 5.882353e-01	 1.056971e+01
0	 3.882353e+00	 0.000000e+00	 1.052531e+01
0	 3.882353e+00	 1.176471e-01	 1.051001e+01
0	 3.882353e+00	 2.352941e-01	 1.049727e+01
0	 3.882353e+00	 3.529412e-01	 1.049305e+01
0	 3.882353e+00	 4.705882e-01	 1.050332e+01
0	 3.882353e+00	 5.882353e-01	 1.053405e+01
0	 4.000000e+00	 0.000000e+00	 1.045741e+01
0	 4.000000e+00	 1.176471e-01	 1.048035e+01
0	 4.000000e+00	 2.352941e-01	 1.049256e+01
0	 4.000000e+00	 3.529412e-01	 1.049934e+01
0	 4.000000e+00	 4.705882e-01	 1.050600e+01
0	 4.000000e+00	 5.882353e-01	 1.051787e+01
0	 4.117647e+00	 0.000000e+00	 1.041839e+01
0	 4.117647e+00	 1.176471e-01	 1.046223e+01
0	 4.117647e+00	 2.352941e-01	 1.049086e+01
0	 4.117647e+00	 3.529412e-01	 1.050709e+01
0	 4.117647e+00	 4.705882e-01	 1.051375e+01
0	 4.117647e+00	 5.882353e-01	 1.051365e+01
0	 3.529412e+00	 5.882353e-01	 1.072938e+01
0	 3.529412e+00	 7.058824e-01	 1.079230e+01
0	 3.529412e+00	 8.235294e-01	 1.083756e+01
0	 3.529412e+00	 9.411765e-01	 1.086760e+01
0	 3.529412e+00	 1.058824e+00	 1.088489e+01
0	 3.529412e+00	 1.176471e+00	 1.089189e+01
0	 3.647059e+00	 5.882353e-01	 1.063232e+01
0	 3.647059e+00	 7.058824e-01	 1.070357e+01
0	 3.647059e+00	 8.235294e-01	 1.075647e+01
0	 3.647059e+00	 9.411765e-01	 1.079265e+01
0	 3.647059e+00	 1.058824e+00	 1.081374e+01
0	 3.647059e+00	 1.176471e+00	 1.082135e+01
0	 3.764706e+00	 5.882353e-01	 1.056971e+01
0	 3.764706e+00	 7.058824e-01	 1.063035e+01
0	 3.764706e+00	 8.235294e-01	 1.067734e+01
0	 3.764706e+00	 9.411765e-01	 1.071166e+01
0	 3.764706e+00	 1.058824e+00	 1.073433e+01
0	 3.764706e+00	 1.176471e+00	 1.074634e+01
0	 3.882353e+00	 5.882353e-01	 1.053405e+01
0	 3.882353e+00	 7.058824e-01	 1.057364e+01
0	 3.882353e+00	 8.235294e-01	 1.060689e+01
0	 3.882353e+00	 9.411765e-01	 1.063438e+01
0	 3.882353e+00	 1.058824e+00	 1.065671e+01
0	 3.882353e+00	 1.176471e+00	 1.067447e+01
0	 4.000000e+00	 5.882353e-01	 1.051787e+01
0	 4.000000e+00	 7.058824e-01	 1.053441e+01
0	 4.000000e+00	 8.235294e-01	 1.055184e+01
0	 4.000000e+00	 9.411765e-01	 1.057054e+01
0	 4.000000e+00	 1.058824e+00	 1.059092e+01
0	 4.000000e+00	 1.176471e+00	 1.061336e+01
0	 4.117647e+00	 5.882353e-01	 1.051365e+01
0	 4.117647e+00	 7.058824e-01	 1.051364e+01
0	 4.117647e+00	 8.235294e-01	 1.051892e+01
0	 4.117647e+00	 9.411765e-01	 1.052990e+01
0	 4.117647e+00	 1.058824e+00	 1.054700e+01
0	 4.117647e+00	 1.176471e+00	 1.057062e+01
0	 3.529412e+00	 1.176471e+00	 1.089189e+01
0	 3.529412e+00	 1.294118e+00	 1.089203e+01
0	 3.529412e+00	 1.411765e+00	 1.088837e+01
0	 3.529412e+00	 1.529412e+00	 1.088276e+01
0	 3.529412e+00	 1.647059e+00	 1.087703e+01
0	 3.529412e+00	 1.764706e+00	 1.087305e+01
0	 3.647059e+00	 1.176471e+00	 1.082135e+01
0	 3.647059e+00	 1.294118e+00	 1.082260e+01
0	 3.647059e+00	 1.411765e+00	 1.082380e+01
0	 3.647059e+00	 1.529412e+00	 1.082530e+01
0	 3.647059e+00	 1.647059e+00	 1.082748e+01
0	 3.647059e+00	 1.764706e+00	 1.083070e+01
0	 3.764706e+00	 1.176471e+00	 1.074634e+01
0	 3.764706e+00	 1.294118e+00	 1.075404e+01
0	 3.764706e+00	 1.411765e+00	 1.076274e+01
0	 3.764706e+00	 1.529412e+00	 1.077185e+01
0	 3.764706e+00	 1.647059e+00	 1.078082e+01
0	 3.764706e+00	 1.764706e+00	 1.078905e+01
0	 3.882353e+00	 1.176471e+00	 1.067447e+01
0	 3.882353e+00	 1.294118e+00	 1.069059e+01
0	 3.882353e+00	 1.411765e+00	 1.070693e+01
0	 3.882353e+00	 1.529412e+00	 1.072250e+01
0	 3.882353e+00	 1.647059e+00	 1.073632e+01
0	 3.882353e+00	 1.764706e+00	 1.074740e+01
0	 4.000000e+00	 1.176471e+00	 1.061336e+01
0	 4.000000e+00	 1.294118e+00	 1.063649e+01
0	 4.000000e+00	 1.411765e+00	 1.065810e+01
0	 4.000000e+00	 1.529412e+00	 1.067731e+01
0	 4.000000e+00	 1.647059e+00	 1.069325e+01
0	 4.000000e+00	 1.764706e+00	 1.070505e+01
0	 4.117647e+00	 1.176471e+00	 1.057062e+01
0	 4.117647e+00	 1.294118e+00	 1.059600e+01
0	 4.117647e+00	 1.411765e+00	 1.061799e+01
0	 4.117647e+00	 1.529412e+00	 1.063636e+01
0	 4.117647e+00	 1.647059e+00	 1.065088e+01
0	 4.117647e+00	 1.764706e+00	 1.066133e+01
0	 3.529412e+00	 1.764706e+00	 1.087305e+01
0	 3.529412e+00	 1.882353e+00	 1.087009e+01
0	 3.529412e+00	 2.000000e+00	 1.086510e+01
0	 3.529412e+00	 2.117647e+00	 1.085641e+01
0	 3.529412e+00	 2.235294e+00	 1.084236e+01
0	 3.529412e+00	 2.352941e+00	 1.082129e+01
0	 3.647059e+00	 1.764706e+00	 1.083070e+01
0	 3.647059e+00	 1.882353e+00	 1.083198e+01
0	 3.647059e+00	 2.000000e+00	 1.082804e+01
0	 3.647059e+00	 2.117647e+00	 1.081892e+01
0	 3.647059e+00	 2.235294e+00	 1.080463e+01
0	 3.647059e+00	 2.352941e+00	 1.078519e+01
0	 3.764706e+00	 1.764706e+00	 1.078905e+01
0	 3.764706e+00	 1.882353e+00	 1.079294e+01
0	 3.764706e+00	 2.000000e+00	 1.079000e+01
0	 3.764706e+00	 2.117647e+00	 1.078134e+01
0	 3.764706e+00	 2.235294e+00	 1.076808e+01
0	 3.764706e+00	 2.352941e+00	 1.075133e+01
0	 3.882353e+00	 1.764706e+00	 1.074740e+01
0	 3.882353e+00	 1.882353e+00	 1.075269e+01
0	 3.882353e+00	 2.000000e+00	 1.075090e+01
0	 3.882353e+00	 2.117647e+00	 1.074366e+01
0	 3.882353e+00	 2.235294e+00	 1.073261e+01
0	 3.882353e+00	 2.352941e+00	 1.071937e+01
0	 4.000000e+00	 1.764706e+00	 1.070505e+01
0	 4.000000e+00	 1.882353e+00	 1.071091e+01
0	 4.000000e+00	 2.000000e+00	 1.071066e+01
0	 4.000000e+00	 2.117647e+00	 1.070588e+01
0	 4.000000e+00	 2.235294e+00	 1.069812e+01
0	 4.000000e+00	 2.352941e+00	 1.068896e+01
0	 4.117647e+00	 1.764706e+00	 1.066133e+01
0	 4.117647e+00	 1.882353e+00	 1.066732e+01
0	 4.117647e+00	 2.000000e+00	 1.066923e+01
0	 4.117647e+00	 2.117647e+00	 1.066798e+01
0	 4.117647e+00	 2.235294e+00	 1.066451e+01
0	 4.117647e+00	 2.352941e+00	 1.065974e+01
0	 3.529412e+00	 2.352941e+00	 1.082129e+01
0	 3.529412e+00	 2.470588e+00	 1.079528e+01
0	 3.529412e+00	 2.588235e+00	 1.076780e+01
0	 3.529412e+00	 2.705882e+00	 1.073927e+01
0	 3.529412e+00	 2.823529e+00	 1.071013e+01
0	 3.529412e+00	 2.941176e+00	 1.068082e+01
0	 3.647059e+00	 2.352941e+00	 1.078519e+01
0	 3.647059e+00	 2.470588e+00	 1.076322e+01
0	 3.647059e+00	 2.588235e+00	 1.074114e+01
0	 3.647059e+00	 2.705882e+00	 1.071859e+01
0	 3.647059e+00	 2.823529e+00	 1.069524e+01
0	 3.647059e+00	 2.941176e+00	 1.067074e+01
0	 3.764706e+00	 2.352941e+00	 1.075133e+01
0	 3.764706e+00	 2.470588e+00	 1.073362e+01
0	 3.764706e+00	 2.588235e+00	 1.071619e+01
0	 3.764706e+00	 2.705882e+00	 1.069820e+01
0	 3.764706e+00	 2.823529e+00	 1.067883e+01
0	 3.764706e+00	 2.941176e+00	 1.065725e+01
0	 3.882353e+00	 2.352941e+00	 1.071937e+01
0	 3.882353e+00	 2.470588e+00	 1.070589e+01
0	 3.882353e+00	 2.588235e+00	 1.069234e+01
0	 3.882353e+00	 2.705882e+00	 1.067769e+01
0	 3.882353e+00	 2.823529e+00	 1.066090e+01
0	 3.882353e+00	 2.941176e+00	 1.064096e+01
0	 4.000000e+00	 2.352941e+00	 1.068896e+01
0	 4.000000e+00	 2.470588e+00	 1.067946e+01
0	 4.000000e+00	 2.588235e+00	 1.066899e+01
0	 4.000000e+00	 2.705882e+00	 1.065663e+01
0	 4.000000e+00	 2.823529e+00	 1.064142e+01
0	 4.000000e+00	 2.941176e+00	 1.062244e+01
0	 4.117647e+00	 2.352941e+00	 1.065974e+01
0	 4.117647e+00	 2.470588e+00	 1.065372e+01
0	 4.117647e+00	 2.588235e+00	 1.064553e+01
0	 4.117647e+00	 2.705882e+00	 1.063460e+01
0	 4.117647e+00	 2.823529e+00	 1.062037e+01
0	 4.117647e+00	 2.941176e+00	 1.060228e+01
0	 3.529412e+00	 2.941176e+00	 1.068082e+01
0	 3.529412e+00	 3.058824e+00	 1.065166e+01
0	 3.529412e+00	 3.176471e+00	 1.062224e+01
0	 3.529412e+00	 3.294118e+00	 1.059184e+01
0	 3.529412e+00	 3.411765e+00	 1.055979e+01
0	 3.529412e+00	 3.529412e+00	 1.052537e+01
0	 3.647059e+00	 2.941176e+00	 1.067074e+01
0	 3.647059e+00	 3.058824e+00	 1.064496e+01
0	 3.647059e+00	 3.176471e+00	 1.061783e+01
0	 3.647059e+00	 3.294118e+00	 1.058908e+01
0	 3.647059e+00	 3.411765e+00	 1.055845e+01
0	 3.647059e+00	 3.529412e+00	 1.052568e+01
0	 3.764706e+00	 2.941176e+00	 1.065725e+01
0	 3.764706e+00	 3.058824e+00	 1.063350e+01
0	 3.764706e+00	 3.176471e+00	 1.060818e+01
0	 3.764706e+00	 3.294118e+00	 1.058132e+01
0	 3.764706e+00	 3.411765e+00	 1.055294e+01
0	 3.764706e+00	 3.529412e+00	 1.052307e+01
0	 3.882353e+00	 2.941176e+00	 1.064096e+01
0	 3.882353e+00	 3.058824e+00	 1.061845e+01
0	 3.882353e+00	 3.176471e+00	 1.059475e+01
0	 3.882353e+00	 3.294118e+00	 1.057003e+01
0	 3.882353e+00	 3.411765e+00	 1.054445e+01
0	 3.882353e+00	 3.529412e+00	 1.051819e+01
0	 4.000000e+00	 2.941176e+00	 1.062244e+01
0	 4.000000e+00	 3.058824e+00	 1.060095e+01
0	 4.000000e+00	 3.176471e+00	 1.057898e+01
0	 4.000000e+00	 3.294118e+00	 1.055667e+01
0	 4.000000e+00	 3.411765e+00	 1.053419e+01
0	 4.000000e+00	 3.529412e+00	 1.051170e+01
0	 4.117647e+00	 2.941176e+00	 1.060228e+01
0	 4.117647e+00	 3.058824e+00	 1.058219e+01
0	 4.117647e+00	 3.176471e+00	 1.056232e+01
0	 4.117647e+00	 3.294118e+00	 1.054270e+01
0	 4.117647e+00	 3.411765e+00	 1.052334e+01
0	 4.117647e+00	 3.529412e+00	 1.050423e+01
0	 3.529412e+00	 3.529412e+00	 1.052537e+01
0	 3.529412e+00	 3.647059e+00	 1.049067e+01
0	 3.529412e+00	 3.764706e+00	 1.045828e+01
0	 3.529412e+00	 3.882353e+00	 1.042825e+01
0	 3.529412e+00	 4.000000e+00	 1.040063e+01
0	 3.529412e+00	 4.117647e+00	 1.037548e+01
0	 3.647059e+00	 3.529412e+00	 1.052568e+01
0	 3.647059e+00	 3.647059e+00	 1.049310e+01
0	 3.647059e+00	 3.764706e+00	 1.046311e+01
0	 3.647059e+00	 3.882353e+00	 1.043550e+01
0	 3.647059e+00	 4.000000e+00	 1.041010e+01
0	 3.647059e+00	 4.117647e+00	 1.038670e+01
0	 3.764706e+00	 3.529412e+00	 1.052307e+01
0	 3.764706e+00	 3.647059e+00	 1.049368e+01
0	 3.764706e+00	 3.764706e+00	 1.046652e+01
0	 3.764706e+00	 3.882353e+00	 1.044122e+01
0	 3.764706e+00	 4.000000e+00	 1.041746e+01
0	 3.764706e+00	 4.117647e+00	 1.039487e+01
0	 3.882353e+00	 3.529412e+00	 1.051819e+01
0	 3.882353e+00	 3.647059e+00	 1.049250e+01
0	 3.882353e+00	 3.764706e+00	 1.046827e+01
0	 3.882353e+00	 3.882353e+00	 1.044508e+01
0	 3.882353e+00	 4.000000e+00	 1.042253e+01
0	 3.882353e+00	 4.117647e+00	 1.040020e+01
0	 4.000000e+00	 3.529412e+00	 1.051170e+01
0	 4.000000e+00	 3.647059e+00	 1.048964e+01
0	 4.000000e+00	 3.764706e+00	 1.046811e+01
0	 4.000000e+00	 3.882353e+00	 1.044673e+01
0	 4.000000e+00	 4.000000e+00	 1.042512e+01
0	 4.000000e+00	 4.117647e+00	 1.040290e+01
0	 4.117647e+00	 3.529412e+00	 1.050423e+01
0	 4.117647e+00	 3.647059e+00	 1.048519e+01
0	 4.117647e+00	 3.764706e+00	 1.046581e+01
0	 4.117647e+00	 3.882353e+00	 1.044585e+01
0	 4.117647e+00	 4.000000e+00	 1.042505e+01
0	 4.117647e+00	 4.117647e+00	 1.040317e+01
0	 3.529412e+00	 4.117647e+00	 1.037548e+01
0	 3.529412e+00	 4.235294e+00	 1.035197e+01
0	 3.529412e+00	 4.352941e+00	 1.032909e+01
0	 3.529412e+00	 4.470588e+00	 1.030665e+01
0	 3.529412e+00	 4.588235e+00	 1.028445e+01
0	 3.529412e+00	 4.705882e+00	 1.026227e+01
0	 3.647059e+00	 4.117647e+00	 1.038670e+01
0	 3.647059e+00	 4.235294e+00	 1.036430e+01
0	 3.647059e+00	 4.352941e+00	 1.034199e+01
0	 3.647059e+00	 4.470588e+00	 1.031973e+01
0	 3.647059e+00	 4.588235e+00	 1.029749e+01
0	 3.647059e+00	 4.705882e+00	 1.027522e+01
0	 3.764706e+00	 4.117647e+00	 1.039487e+01
0	 3.764706e+00	 4.235294e+00	 1.037277e+01
0	 3.764706e+00	 4.352941e+00	 1.035073e+01
0	 3.764706e+00	 4.470588e+00	 1.032880e+01
0	 3.764706e+00	 4.588235e+00	 1.030706e+01
0	 3.764706e+00	 4.705882e+00	 1.028555e+01
0	 3.882353e+00	 4.117647e+00	 1.040020e+01
0	 3.882353e+00	 4.235294e+00	 1.037800e+01
0	 3.882353e+00	 4.352941e+00	 1.035615e+01
0	 3.882353e+00	 4.470588e+00	 1.033475e+01
0	 3.882353e+00	 4.588235e+00	 1.031390e+01
0	 3.882353e+00	 4.705882e+00	 1.029370e+01
0	 4.000000e+00	 4.117647e+00	 1.040290e+01
0	 4.000000e+00	 4.235294e+00	 1.038062e+01
0	 4.000000e+00	 4.352941e+00	 1.035912e+01
0	 4.000000e+00	 4.470588e+00	 1.033848e+01
0	 4.000000e+00	 4.588235e+00	 1.031878e+01
0	 4.000000e+00	 4.705882e+00	 1.030010e+01
0	 4.117647e+00	 4.117647e+00	 1.040317e+01
0	 4.117647e+00	 4.235294e+00	 1.038124e+01
0	 4.117647e+00	 4.352941e+00	 1.036049e+01
0	 4.117647e+00	 4.470588e+00	 1.034090e+01
0	 4.117647e+00	 4.588235e+00	 1.032247e+01
0	 4.117647e+00	 4.705882e+00	 1.030519e+01
0	 3.529412e+00	 4.705882e+00	 1.026227e+01
0	 3.529412e+00	 4.823529e+00	 1.024088e+01
0	 3.529412e+00	 4.941176e+00	 1.022120e+01
0	 3.529412e+00	 5.058824e+00	 1.020332e+01
0	 3.529412e+00	 5.176471e+00	 1.018729e+01
0	 3.529412e+00	 5.294118e+00	 1.017320e+01
0	 3.647059e+00	 4.705882e+00	 1.027522e+01
0	 3.647059e+00	 4.823529e+00	 1.025390e+01
0	 3.647059e+00	 4.941176e+00	 1.023450e+01
0	 3.647059e+00	 5.058824e+00	 1.021696e+01
0	 3.647059e+00	 5.176471e+00	 1.020122e+01
0	 3.647059e+00	 5.294118e+00	 1.018725e+01
0	 3.764706e+00	 4.705882e+00	 1.028555e+01
0	 3.764706e+00	 4.823529e+00	 1.026511e+01
0	 3.764706e+00	 4.941176e+00	 1.024642e+01
0	 3.764706e+00	 5.058824e+00	 1.022936e+01
0	 3.764706e+00	 5.176471e+00	 1.021379e+01
0	 3.764706e+00	 5.294118e+00	 1.019958e+01
0	 3.882353e+00	 4.705882e+00	 1.029370e+01
0	 3.882353e+00	 4.823529e+00	 1.027459e+01
0	 3.882353e+00	 4.941176e+00	 1.025685e+01
0	 3.882353e+00	 5.058824e+00	 1.024031e+01
0	 3.882353e+00	 5.176471e+00	 1.022482e+01
0	 3.882353e+00	 5.294118e+00	 1.021019e+01
0	 4.000000e+00	 4.705882e+00	 1.030010e+01
0	 4.000000e+00	 4.823529e+00	 1.028243e+01
0	 4.000000e+00	 4.941176e+00	 1.026564e+01
0	 4.000000e+00	 5.058824e+00	 1.024959e+01
0	 4.000000e+00	 5.176471e+00	 1.023411e+01
0	 4.000000e+00	 5.294118e+00	 1.021907e+01
0	 4.117647e+00	 4.705882e+00	 1.030519e+01
0	 4.117647e+00	 4.823529e+00	 1.028872e+01
0	 4.117647e+00	 4.941176e+00	 1.027267e+01
0	 4.117647e+00	 5.058824e+00	 1.025697e+01
0	 4.117647e+00	 5.176471e+00	 1.024151e+01
0	 4.117647e+00	 5.294118e+00	 1.022620e+01
0	 3.529412e+00	 5.294118e+00	 1.017320e+01
0	 3.529412e+00	 5.411765e+00	 1.016037e+01
0	 3.529412e+00	 5.529412e+00	 1.014808e+01
0	 3.529412e+00	 5.647059e+00	 1.013630e+01
0	 3.529412e+00	 5.764706e+00	 1.012498e+01
0	 3.529412e+00	 5.882353e+00	 1.011407e+01
0	 3.647059e+00	 5.294118e+00	 1.018725e+01
0	 3.647059e+00	 5.411765e+00	 1.017428e+01
0	 3.647059e+00	 5.529412e+00	 1.016164e+01
0	 3.647059e+00	 5.647059e+00	 1.014936e+01
0	 3.647059e+00	 5.764706e+00	 1.013746e+01
0	 3.647059e+00	 5.882353e+00	 1.012598e+01
0	 3.764706e+00	 5.294118e+00	 1.019958e+01
0	 3.764706e+00	 5.411765e+00	 1.018615e+01
0	 3.764706e+00	 5.529412e+00	 1.017305e+01
0	 3.764706e+00	 5.647059e+00	 1.016036e+01
0	 3.764706e+00	 5.764706e+00	 1.014815e+01
0	 3.764706e+00	 5.882353e+00	 1.013650e+01
0	 3.882353e+00	 5.294118e+00	 1.021019e+01
0	 3.882353e+00	 5.411765e+00	 1.019617e+01
0	 3.882353e+00	 5.529412e+00	 1.018263e+01
0	 3.882353e+00	 5.647059e+00	 1.016966e+01
0	 3.882353e+00	 5.764706e+00	 1.015735e+01
0	 3.882353e+00	 5.882353e+00	 1.014578e+01
0	 4.000000e+00	 5.294118e+00	 1.021907e+01
0	 4.000000e+00	 5.411765e+00	 1.020452e+01
0	 4.000000e+00	 5.529412e+00	 1.019066e+01
0	 4.000000e+00	 5.647059e+00	 1.017758e+01
0	 4.000000e+00	 5.764706e+00	 1.016534e+01
0	 4.000000e+00	 5.882353e+00	 1.015400e+01
0	 4.117647e+00	 5.294118e+00	 1.022620e+01
0	 4.117647e+00	 5.411765e+00	 1.021138e+01
0	 4.117647e+00	 5.529412e+00	 1.019746e+01
0	 4.117647e+00	 5.647059e+00	 1.018446e+01
0	 4.117647e+00	 5.764706e+00	 1.017240e+01
0	 4.117647e+00	 5.882353e+00	 1.016129e+01
0	 3.529412e+00	 5.882353e+00	 1.011407e+01
0	 3.529412e+00	 6.000000e+00	 1.010377e+01
0	 3.529412e+00	 6.117647e+00	 1.009432e+01
0	 3.529412e+00	 6.235294e+00	 1.008578e+01
0	 3.529412e+00	 6.352941e+00	 1.007819e+01
0	 3.529412e+00	 6.470588e+00	 1.007158e+01
0	 3.647059e+00	 5.882353e+00	 1.012598e+01
0	 3.647059e+00	 6.000000e+00	 1.011520e+01
0	 3.647059e+00	 6.117647e+00	 1.010539e+01
0	 3.647059e+00	 6.235294e+00	 1.009653e+01
0	 3.647059e+00	 6.352941e+00	 1.008861e+01
0	 3.647059e+00	 6.470588e+00	 1.008162e+01
0	 3.764706e+00	 5.882353e+00	 1.013650e+01
0	 3.764706e+00	 6.000000e+00	 1.012561e+01
0	 3.764706e+00	 6.117647e+00	 1.011565e+01
0	 3.764706e+00	 6.235294e+00	 1.010657e+01
0	 3.764706e+00	 6.352941e+00	 1.009832e+01
0	 3.764706e+00	 6.470588e+00	 1.009085e+01
0	 3.882353e+00	 5.882353e+00	 1.014578e+01
0	 3.882353e+00	 6.000000e+00	 1.013502e+01
0	 3.882353e+00	 6.117647e+00	 1.012505e+01
0	 3.882353e+00	 6.235294e+00	 1.011579e+01
0	 3.882353e+00	 6.352941e+00	 1.010720e+01
0	 3.882353e+00	 6.470588e+00	 1.009922e+01
0	 4.000000e+00	 5.882353e+00	 1.015400e+01
0	 4.000000e+00	 6.000000e+00	 1.014344e+01
0	 4.000000e+00	 6.117647e+00	 1.013349e+01
0	 4.000000e+00	 6.235294e+00	 1.012407e+01
0	 4.000000e+00	 6.352941e+00	 1.011515e+01
0	 4.000000e+00	 6.470588e+00	 1.010668e+01
0	 4.117647e+00	 5.882353e+00	 1.016129e+01
0	 4.117647e+00	 6.000000e+00	 1.015089e+01
0	 4.117647e+00	 6.117647e+00	 1.014090e+01
0	 4.117647e+00	 6.235294e+00	 1.013130e+01
0	 4.117647e+00	 6.352941e+00	 1.012207e+01
0	 4.117647e+00	 6.470588e+00	 1.011319e+01
0	 3.529412e+00	 6.470588e+00	 1.007158e+01
0	 3.529412e+00	 6.588235e+00	 1.006563e+01
0	 3.529412e+00	 6.705882e+00	 1.005998e+01
0	 3.529412e+00	 6.823529e+00	 1.005464e+01
0	 3.529412e+00	 6.941176e+00	 1.004960e+01
0	 3.529412e+00	 7.058824e+00	 1.004485e+01
0	 3.647059e+00	 6.470588e+00	 1.008162e+01
0	 3.647059e+00	 6.588235e+00	 1.007521e+01
0	 3.647059e+00	 6.705882e+00	 1.006904e+01
0	 3.647059e+00	 6.823529e+00	 1.006313e+01
0	 3.647059e+00	 6.941176e+00	 1.005753e+01
0	 3.647059e+00	 7.058824e+00	 1.005224e+01
0	 3.764706e+00	 6.470588e+00	 1.009085e+01
0	 3.764706e+00	 6.588235e+00	 1.008388e+01
0	 3.764706e+00	 6.705882e+00	 1.007717e+01
0	 3.764706e+00	 6.823529e+00	 1.007076e+01
0	 3.764706e+00	 6.941176e+00	 1.006469e+01
0	 3.764706e+00	 7.058824e+00	 1.005902e+01
0	 3.882353e+00	 6.470588e+00	 1.009922e+01
0	 3.882353e+00	 6.588235e+00	 1.009167e+01
0	 3.882353e+00	 6.705882e+00	 1.008445e+01
0	 3.882353e+00	 6.823529e+00	 1.007760e+01
0	 3.882353e+00	 6.941176e+00	 1.007118e+01
0	 3.882353e+00	 7.058824e+00	 1.006523e+01
0	 4.000000e+00	 6.470588e+00	 1.010668e+01
0	 4.000000e+00	 6.588235e+00	 1.009860e+01
0	 4.000000e+00	 6.705882e+00	 1.009095e+01
0	 4.000000e+00	 6.823529e+00	 1.008376e+01
0	 4.000000e+00	 6.941176e+00	 1.007707e+01
0	 4.000000e+00	 7.058824e+00	 1.007091e+01
0	 4.117647e+00	 6.470588e+00	 1.011319e+01
0	 4.117647e+00	 6.588235e+00	 1.010472e+01
0	 4.117647e+00	 6.705882e+00	 1.009676e+01
0	 4.117647e+00	 6.823529e+00	 1.008932e+01
0	 4.117647e+00	 6.941176e+00	 1.008243e+01
0	 4.117647e+00	 7.058824e+00	 1.007609e+01
0	 3.529412e+00	 7.058824e+00	 1.004485e+01
0	 3.529412e+00	 7.176471e+00	 1.004043e+01
0	 3.529412e+00	 7.294118e+00	 1.003637e+01
0	 3.529412e+00	 7.411765e+00	 1.003269e+01
0	 3.529412e+00	 7.529412e+00	 1.002940e+01
0	 3.529412e+00	 7.647059e+00	 1.002653e+01
0	 3.647059e+00	 7.058824e+00	 1.005224e+01
0	 3.647059e+00	 7.176471e+00	 1.004733e+01
0	 3.647059e+00	 7.294118e+00	 1.004283e+01
0	 3.647059e+00	 7.411765e+00	 1.003874e+01
0	 3.647059e+00	 7.529412e+00	 1.003505e+01
0	 3.647059e+00	 7.647059e+00	 1.003177e+01
0	 3.764706e+00	 7.058824e+00	 1.005902e+01
0	 3.764706e+00	 7.176471e+00	 1.005377e+01
0	 3.764706e+00	 7.294118e+00	 1.004892e+01
0	 3.764706e+00	 7.411765e+00	 1.004446e+01
0	 3.764706e+00	 7.529412e+00	 1.004038e+01
0	 3.764706e+00	 7.647059e+00	 1.003667e+01
0	 3.882353e+00	 7.058824e+00	 1.006523e+01
0	 3.882353e+00	 7.176471e+00	 1.005972e+01
0	 3.882353e+00	 7.294118e+00	 1.005458e+01
0	 3.882353e+00	 7.411765e+00	 1.004979e+01
0	 3.882353e+00	 7.529412e+00	 1.004534e+01
0	 3.882353e+00	 7.647059e+00	 1.004120e+01
0	 4.000000e+00	 7.058824e+00	 1.007091e+01
0	 4.000000e+00	 7.176471e+00	 1.006519e+01
0	 4.000000e+00	 7.294118e+00	 1.005979e+01
0	 4.000000e+00	 7.411765e+00	 1.005469e+01
0	 4.000000e+00	 7.529412e+00	 1.004988e+01
0	 4.000000e+00	 7.647059e+00	 1.004534e+01
0	 4.117647e+00	 7.058824e+00	 1.007609e+01
0	 4.117647e+00	 7.176471e+00	 1.007016e+01
0	 4.117647e+00	 7.294118e+00	 1.006450e+01
0	 4.117647e+00	 7.411765e+00	 1.005910e+01
0	 4.117647e+00	 7.529412e+00	 1.005395e+01
0	 4.117647e+00	 7.647059e+00	 1.004905e+01
0	 3.529412e+00	 7.647059e+00	 1.002653e+01
0	 3.529412e+00	 7.764706e+00	 1.002395e+01
0	 3.529412e+00	 7.882353e+00	 1.002150e+01
0	 3.529412e+00	 8.000000e+00	 1.001918e+01
0	 3.529412e+00	 8.117647e+00	 1.001701e+01
0	 3.529412e+00	 8.235294e+00	 1.001499e+01
0	 3.647059e+00	 7.647059e+00	 1.003177e+01
0	 3.647059e+00	 7.764706e+00	 1.002875e+01
0	 3.647059e+00	 7.882353e+00	 1.002586e+01
0	 3.647059e+00	 8.000000e+00	 1.002312e+01
0	 3.647059e+00	 8.117647e+00	 1.002053e+01
0	 3.647059e+00	 8.235294e+00	 1.001811e+01
0	 3.764706e+00	 7.647059e+00	 1.003667e+01
0	 3.764706e+00	 7.764706e+00	 1.003320e+01
0	 3.764706e+00	 7.882353e+00	 1.002989e+01
0	 3.764706e+00	 8.000000e+00	 1.002675e+01
0	 3.764706e+00	 8.117647e+00	 1.002379e+01
0	 3.764706e+00	 8.235294e+00	 1.002103e+01
0	 3.882353e+00	 7.647059e+00	 1.004120e+01
0	 3.882353e+00	 7.764706e+00	 1.003730e+01
0	 3.882353e+00	 7.882353e+00	 1.003359e+01
0	 3.882353e+00	 8.000000e+00	 1.003008e+01
0	 3.882353e+00	 8.117647e+00	 1.002679e+01
0	 3.882353e+00	 8.235294e+00	 1.002375e+01
0	 4.000000e+00	 7.647059e+00	 1.004534e+01
0	 4.000000e+00	 7.764706e+00	 1.004104e+01
0	 4.000000e+00	 7.882353e+00	 1.003697e+01
0	 4.000000e+00	 8.000000e+00	 1.003314e+01
0	 4.000000e+00	 8.117647e+00	 1.002957e+01
0	 4.000000e+00	 8.235294e+00	 1.002626e+01
0	 4.117647e+00	 7.647059e+00	 1.004905e+01
0	 4.117647e+00	 7.764706e+00	 1.004441e+01
0	 4.117647e+00	 7.882353e+00	 1.004004e+01
0	 4.117647e+00	 8.000000e+00	 1.003594e+01
0	 4.117647e+00	 8.117647e+00	 1.003211e+01
0	 4.117647e+00	 8.235294e+00	 1.002857e+01
0	 3.529412e+00	 8.235294e+00	 1.001499e+01
0	 3.529412e+00	 8.352941e+00	 1.001311e+01
0	 3.529412e+00	 8.470588e+00	 1.001137e+01
0	 3.529412e+00	 8.588235e+00	 1.000977e+01
0	 3.529412e+00	 8.705882e+00	 1.000833e+01
0	 3.529412e+00	 8.823529e+00	 1.000703e+01
0	 3.647059e+00	 8.235294e+00	 1.001811e+01
0	 3.647059e+00	 8.352941e+00	 1.001587e+01
0	 3.647059e+00	 8.470588e+00	 1.001380e+01
0	 3.647059e+00	 8.588235e+00	 1.001190e+01
0	 3.647059e+00	 8.705882e+00	 1.001016e+01
0	 3.647059e+00	 8.823529e+00	 1.000857e+01
0	 3.764706e+00	 8.235294e+00	 1.002103e+01
0	 3.764706e+00	 8.352941e+00	 1.001848e+01
0	 3.764706e+00	 8.470588e+00	 1.001611e+01
0	 3.764706e+00	 8.588235e+00	 1.001392e+01
0	 3.764706e+00	 8.705882e+00	 1.001190e+01
0	 3.764706e+00	 8.823529e+00	 1.001004e+01
0	 3.882353e+00	 8.235294e+00	 1.002375e+01
0	 3.882353e+00	 8.352941e+00	 1.002092e+01
0	 3.882353e+00	 8.470588e+00	 1.001829e+01
0	 3.882353e+00	 8.588235e+00	 1.001583e+01
0	 3.882353e+00	 8.705882e+00	 1.001354e+01
0	 3.882353e+00	 8.823529e+00	 1.001140e+01
0	 4.000000e+00	 8.235294e+00	 1.002626e+01
0	 4.000000e+00	 8.352941e+00	 1.002319e+01
0	 4.000000e+00	 8.470588e+00	 1.002030e+01
0	 4.000000e+00	 8.588235e+00	 1.001759e+01
0	 4.000000e+00	 8.705882e+00	 1.001505e+01
0	 4.000000e+00	 8.823529e+00	 1.001266e+01
0	 4.117647e+00	 8.235294e+00	 1.002857e+01
0	 4.117647e+00	 8.352941e+00	 1.002526e+01
0	 4.117647e+00	 8.470588e+00	 1.002213e+01
0	 4.117647e+00	 8.588235e+00	 1.001918e+01
0	 4.117647e+00	 8.705882e+00	 1.001640e+01
0	 4.117647e+00	 8.823529e+00	 1.001378e+01
0	 3.529412e+00	 8.823529e+00	 1.000703e+01
0	 3.529412e+00	 8.941176e+00	 1.000586e+01
0	 3.529412e+00	 9.058824e+00	 1.000478e+01
0	 3.529412e+00	 9.176471e+00	 1.000379e+01
0	 3.529412e+00	 9.294118e+00	 1.000288e+01
0	 3.529412e+00	 9.411765e+00	 1.000203e+01
0	 3.647059e+00	 8.823529e+00	 1.000857e+01
0	 3.647059e+00	 8.941176e+00	 1.000713e+01
0	 3.647059e+00	 9.058824e+00	 1.000580e+01
0	 3.647059e+00	 9.176471e+00	 1.000457e+01
0	 3.647059e+00	 9.294118e+00	 1.000345e+01
0	 3.647059e+00	 9.411765e+00	 1.000243e+01
0	 3.764706e+00	 8.823529e+00	 1.001004e+01
0	 3.764706e+00	 8.941176e+00	 1.000832e+01
0	 3.764706e+00	 9.058824e+00	 1.000675e+01
0	 3.764706e+00	 9.176471e+00	 1.000531e+01
0	 3.764706e+00	 9.294118e+00	 1.000400e+01
0	 3.764706e+00	 9.411765e+00	 1.000282e+01
0	 3.882353e+00	 8.823529e+00	 1.001140e+01
0	 3.882353e+00	 8.941176e+00	 1.000943e+01
0	 3.882353e+00	 9.058824e+00	 1.000763e+01
0	 3.882353e+00	 9.176471e+00	 1.000600e+01
0	 3.882353e+00	 9.294118e+00	 1.000452e+01
0	 3.882353e+00	 9.411765e+00	 1.000319e+01
0	 4.000000e+00	 8.823529e+00	 1.001266e+01
0	 4.000000e+00	 8.941176e+00	 1.001044e+01
0	 4.000000e+00	 9.058824e+00	 1.000844e+01
0	 4.000000e+00	 9.176471e+00	 1.000663e+01
0	 4.000000e+00	 9.294118e+00	 1.000500e+01
0	 4.000000e+00	 9.411765e+00	 1.000354e+01
0	 4.117647e+00	 8.823529e+00	 1.001378e+01
0	 4.117647e+00	 8.941176e+00	 1.001135e+01
0	 4.117647e+00	 9.058824e+00	 1.000916e+01
0	 4.117647e+00	 9.176471e+00	 1.000719e+01
0	 4.117647e+00	 9.294118e+00	 1.000543e+01
0	 4.117647e+00	 9.411765e+00	 1.000385e+01
0	 3.529412e+00	 9.411765e+00	 1.000203e+01
0	 3.529412e+00	 9.529412e+00	 1.000131e+01
0	 3.529412e+00	 9.647059e+00	 1.000076e+01
0	 3.529412e+00	 9.764706e+00	 1.000038e+01
0	 3.529412e+00	 9.882353e+00	 1.000012e+01
0	 3.529412e+00	 1.000000e+01	 9.999971e+00
0	 3.647059e+00	 9.411765e+00	 1.000243e+01
0	 3.647059e+00	 9.529412e+00	 1.000156e+01
0	 3.647059e+00	 9.647059e+00	 1.000091e+01
0	 3.647059e+00	 9.764706e+00	 1.000044e+01
0	 3.647059e+00	 9.882353e+00	 1.000012e+01
0	 3.647059e+00	 1.000000e+01	 9.999930e+00
0	 3.764706e+00	 9.411765e+00	 1.000282e+01
0	 3.764706e+00	 9.529412e+00	 1.000182e+01
0	 3.764706e+00	 9.647059e+00	 1.000107e+01
0	 3.764706e+00	 9.764706e+00	 1.000052e+01
0	 3.764706e+00	 9.882353e+00	 1.000015e+01
0	 3.764706e+00	 1.000000e+01	 9.999912e+00
0	 3.882353e+00	 9.411765e+00	 1.000319e+01
0	 3.882353e+00	 9.529412e+00	 1.000208e+01
0	 3.882353e+00	 9.647059e+00	 1.000123e+01
0	 3.882353e+00	 9.764706e+00	 1.000061e+01
0	 3.882353e+00	 9.882353e+00	 1.000018e+01
0	 3.882353e+00	 1.000000e+01	 9.999904e+00
0	 4.000000e+00	 9.411765e+00	 1.000354e+01
0	 4.000000e+00	 9.529412e+00	 1.000232e+01
0	 4.000000e+00	 9.647059e+00	 1.000138e+01
0	 4.000000e+00	 9.764706e+00	 1.000069e+01
0	 4.000000e+00	 9.882353e+00	 1.000021e+01
0	 4.000000e+00	 1.000000e+01	 9.999896e+00
0	 4.117647e+00	 9.411765e+00	 1.000385e+01
0	 4.117647e+00	 9.529412e+00	 1.000252e+01
0	 4.117647e+00	 9.647059e+00	 1.000149e+01
0	 4.117647e+00	 9.764706e+00	 1.000073e+01
0	 4.117647e+00	 9.882353e+00	 1.000021e+01
0	 4.117647e+00	 1.000000e+01	 9.999877e+00
0	 4.117647e+00	 0.000000e+00	 1.041839e+01
0	 4.117647e+00	 1.176471e-01	 1.046223e+01
0	 4.117647e+00	 2.352941e-01	 1.049086e+01
0	 4.117647e+00	 3.529412e-01	 1.050709e+01
0	 4.117647e+00	 4.705882e-01	 1.051375e+01
0	 4.117647e+00	 5.882353e-01	 1.051365e+01
0	 4.235294e+00	 0.000000e+00	 1.040612e+01
0	 4.235294e+00	 1.176471e-01	 1.044829e+01
0	 4.235294e+00	 2.352941e-01	 1.047939e+01
0	 4.235294e+00	 3.529412e-01	 1.049936e+01
0	 4.235294e+00	 4.705882e-01	 1.050812e+01
0	 4.235294e+00	 5.882353e-01	 1.050561e+01
0	 4.352941e+00	 0.000000e+00	 1.040449e+01
0	 4.352941e+00	 1.176471e-01	 1.043233e+01
0	 4.352941e+00	 2.352941e-01	 1.045625e+01
0	 4.352941e+00	 3.529412e-01	 1.047433e+01
0	 4.352941e+00	 4.705882e-01	 1.048465e+01
0	 4.352941e+00	 5.882353e-01	 1.048530e+01
0	 4.470588e+00	 0.000000e+00	 1.040613e+01
0	 4.470588e+00	 1.176471e-01	 1.041424e+01
0	 4.470588e+00	 2.352941e-01	 1.042604e+01
0	 4.470588e+00	 3.529412e-01	 1.043881e+01
0	 4.470588e+00	 4.705882e-01	 1.044981e+01
0	 4.470588e+00	 5.882353e-01	 1.045634e+01
0	 4.588235e+00	 0.000000e+00	 1.040365e+01
0	 4.588235e+00	 1.176471e-01	 1.039390e+01
0	 4.588235e+00	 2.352941e-01	 1.039338e+01
0	 4.588235e+00	 3.529412e-01	 1.039960e+01
0	 4.588235e+00	 4.705882e-01	 1.041007e+01
0	 4.588235e+00	 5.882353e-01	 1.042231e+01
0	 4.705882e+00	 0.000000e+00	 1.038968e+01
0	 4.705882e+00	 1.176471e-01	 1.037120e+01
0	 4.705882e+00	 2.352941e-01	 1.036288e+01
0	 4.705882e+00	 3.529412e-01	 1.036351e+01
0	 4.705882e+00	 4.705882e-01	 1.037190e+01
0	 4.705882e+00	 5.882353e-01	 1.038682e+01
0	 4.117647e+00	 5.882353e-01	 1.051365e+01
0	 4.117647e+00	 7.058824e-01	 1.051364e+01
0	 4.117647e+00	 8.235294e-01	 1.051892e+01
0	 4.117647e+00	 9.411765e-01	 1.052990e+01
0	 4.117647e+00	 1.058824e+00	 1.054700e+01
0	 4.117647e+00	 1.176471e+00	 1.057062e+01
0	 4.235294e+00	 5.882353e-01	 1.050561e+01
0	 4.235294e+00	 7.058824e-01	 1.050026e+01
0	 4.235294e+00	 8.235294e-01	 1.050089e+01
0	 4.235294e+00	 9.411765e-01	 1.050800e+01
0	 4.235294e+00	 1.058824e+00	 1.052209e+01
0	 4.235294e+00	 1.176471e+00	 1.054367e+01
0	 4.352941e+00	 5.882353e-01	 1.048530e+01
0	 4.352941e+00	 7.058824e-01	 1.048256e+01
0	 4.352941e+00	 8.235294e-01	 1.048434e+01
0	 4.352941e+00	 9.411765e-01	 1.049120e+01
0	 4.352941e+00	 1.058824e+00	 1.050370e+01
0	 4.352941e+00	 1.176471e+00	 1.052239e+01
0	 4.470588e+00	 5.882353e-01	 1.045634e+01
0	 4.470588e+00	 7.058824e-01	 1.046054e+01
0	 4.470588e+00	 8.235294e-01	 1.046674e+01
0	 4.470588e+00	 9.411765e-01	 1.047551e+01
0	 4.470588e+00	 1.058824e+00	 1.048743e+01
0	 4.470588e+00	 1.176471e+00	 1.050306e+01
0	 4.588235e+00	 5.882353e-01	 1.042231e+01
0	 4.588235e+00	 7.058824e-01	 1.043418e+01
0	 4.588235e+00	 8.235294e-01	 1.044554e+01
0	 4.588235e+00	 9.411765e-01	 1.045693e+01
0	 4.588235e+00	 1.058824e+00	 1.046889e+01
0	 4.588235e+00	 1.176471e+00	 1.048196e+01
0	 4.705882e+00	 5.882353e-01	 1.038682e+01
0	 4.705882e+00	 7.058824e-01	 1.040348e+01
0	 4.705882e+00	 8.235294e-01	 1.041820e+01
0	 4.705882e+00	 9.411765e-01	 1.043145e+01
0	 4.705882e+00	 1.058824e+00	 1.044369e+01
0	 4.705882e+00	 1.176471e+00	 1.045538e+01
0	 4.117647e+00	 1.176471e+00	 1.057062e+01
0	 4.117647e+00	 1.294118e+00	 1.059600e+01
0	 4.117647e+00	 1.411765e+00	 1.061799e+01
0	 4.117647e+00	 1.529412e+00	 1.063636e+01
0	 4.117647e+00	 1.647059e+00	 1.065088e+01
0	 4.117647e+00	 1.764706e+00	 1.066133e+01
0	 4.235294e+00	 1.176471e+00	 1.054367e+01
0	 4.235294e+00	 1.294118e+00	 1.056673e+01
0	 4.235294e+00	 1.411765e+00	 1.058533e+01
0	 4.235294e+00	 1.529412e+00	 1.060000e+01
0	 4.235294e+00	 1.647059e+00	 1.061128e+01
0	 4.235294e+00	 1.764706e+00	 1.061972e+01
0	 4.352941e+00	 1.176471e+00	 1.052239e+01
0	 4.352941e+00	 1.294118e+00	 1.054173e+01
0	 4.352941e+00	 1.411765e+00	 1.055648e+01
0	 4.352941e+00	 1.529412e+00	 1.056769e+01
0	 4.352941e+00	 1.647059e+00	 1.057636e+01
0	 4.352941e+00	 1.764706e+00	 1.058353e+01
0	 4.470588e+00	 1.176471e+00	 1.050306e+01
0	 4.470588e+00	 1.294118e+00	 1.051834e+01
0	 4.470588e+00	 1.411765e+00	 1.052962e+01
0	 4.470588e+00	 1.529412e+00	 1.053815e+01
0	 4.470588e+00	 1.647059e+00	 1.054512e+01
0	 4.470588e+00	 1.764706e+00	 1.055178e+01
0	 4.588235e+00	 1.176471e+00	 1.048196e+01
0	 4.588235e+00	 1.294118e+00	 1.049392e+01
0	 4.588235e+00	 1.411765e+00	 1.050292e+01
0	 4.588235e+00	 1.529412e+00	 1.051010e+01
0	 4.588235e+00	 1.647059e+00	 1.051659e+01
0	 4.588235e+00	 1.764706e+00	 1.052350e+01
0	 4.705882e+00	 1.176471e+00	 1.045538e+01
0	 4.705882e+00	 1.294118e+00	 1.046584e+01
0	 4.705882e+00	 1.411765e+00	 1.047455e+01
0	 4.705882e+00	 1.529412e+00	 1.048227e+01
0	 4.705882e+00	 1.647059e+00	 1.048975e+01
0	 4.705882e+00	 1.764706e+00	 1.049773e+01
0	 4.117647e+00	 1.764706e+00	 1.066133e+01
0	 4.117647e+00	 1.882353e+00	 1.066732e+01
0	 4.117647e+00	 2.000000e+00	 1.066923e+01
0	 4.117647e+00	 2.117647e+00	 1.066798e+01
0	 4.117647e+00	 2.235294e+00	 1.066451e+01
0	 4.117647e+00	 2.352941e+00	 1.065974e+01
0	 4.235294e+00	 1.764706e+00	 1.061972e+01
0	 4.235294e+00	 1.882353e+00	 1.062585e+01
0	 4.235294e+00	 2.000000e+00	 1.062990e+01
0	 4.235294e+00	 2.117647e+00	 1.063202e+01
0	 4.235294e+00	 2.235294e+00	 1.063234e+01
0	 4.235294e+00	 2.352941e+00	 1.063098e+01
0	 4.352941e+00	 1.764706e+00	 1.058353e+01
0	 4.352941e+00	 1.882353e+00	 1.058994e+01
0	 4.352941e+00	 2.000000e+00	 1.059541e+01
0	 4.352941e+00	 2.117647e+00	 1.059955e+01
0	 4.352941e+00	 2.235294e+00	 1.060198e+01
0	 4.352941e+00	 2.352941e+00	 1.060230e+01
0	 4.470588e+00	 1.764706e+00	 1.055178e+01
0	 4.470588e+00	 1.882353e+00	 1.055860e+01
0	 4.470588e+00	 2.000000e+00	 1.056484e+01
0	 4.470588e+00	 2.117647e+00	 1.056987e+01
0	 4.470588e+00	 2.235294e+00	 1.057308e+01
0	 4.470588e+00	 2.352941e+00	 1.057383e+01
0	 4.588235e+00	 1.764706e+00	 1.052350e+01
0	 4.588235e+00	 1.882353e+00	 1.053079e+01
0	 4.588235e+00	 2.000000e+00	 1.053725e+01
0	 4.588235e+00	 2.117647e+00	 1.054228e+01
0	 4.588235e+00	 2.235294e+00	 1.054529e+01
0	 4.588235e+00	 2.352941e+00	 1.054569e+01
0	 4.705882e+00	 1.764706e+00	 1.049773e+01
0	 4.705882e+00	 1.882353e+00	 1.050552e+01
0	 4.705882e+00	 2.000000e+00	 1.051172e+01
0	 4.705882e+00	 2.117647e+00	 1.051606e+01
0	 4.705882e+00	 2.235294e+00	 1.051826e+01
0	 4.705882e+00	 2.352941e+00	 1.051803e+01
0	 4.117647e+00	 2.352941e+00	 1.065974e+01
0	 4.117647e+00	 2.470588e+00	 1.065372e+01
0	 4.117647e+00	 2.588235e+00	 1.064553e+01
0	 4.117647e+00	 2.705882e+00	 1.063460e+01
0	 4.117647e+00	 2.823529e+00	 1.062037e+01
0	 4.117647e+00	 2.941176e+00	 1.060228e+01
0	 4.235294e+00	 2.352941e+00	 1.063098e+01
0	 4.235294e+00	 2.470588e+00	 1.062736e+01
0	 4.235294e+00	 2.588235e+00	 1.062069e+01
0	 4.235294e+00	 2.705882e+00	 1.061086e+01
0	 4.235294e+00	 2.823529e+00	 1.059776e+01
0	 4.235294e+00	 2.941176e+00	 1.058127e+01
0	 4.352941e+00	 2.352941e+00	 1.060230e+01
0	 4.352941e+00	 2.470588e+00	 1.059981e+01
0	 4.352941e+00	 2.588235e+00	 1.059415e+01
0	 4.352941e+00	 2.705882e+00	 1.058550e+01
0	 4.352941e+00	 2.823529e+00	 1.057404e+01
0	 4.352941e+00	 2.941176e+00	 1.055997e+01
0	 4.470588e+00	 2.352941e+00	 1.057383e+01
0	 4.470588e+00	 2.470588e+00	 1.057165e+01
0	 4.470588e+00	 2.588235e+00	 1.056671e+01
0	 4.470588e+00	 2.705882e+00	 1.055934e+01
0	 4.470588e+00	 2.823529e+00	 1.054988e+01
0	 4.470588e+00	 2.941176e+00	 1.053866e+01
0	 4.588235e+00	 2.352941e+00	 1.054569e+01
0	 4.588235e+00	 2.470588e+00	 1.054347e+01
0	 4.588235e+00	 2.588235e+00	 1.053921e+01
0	 4.588235e+00	 2.705882e+00	 1.053325e+01
0	 4.588235e+00	 2.823529e+00	 1.052594e+01
0	 4.588235e+00	 2.941176e+00	 1.051761e+01
0	 4.705882e+00	 2.352941e+00	 1.051803e+01
0	 4.705882e+00	 2.470588e+00	 1.051583e+01
0	 4.705882e+00	 2.588235e+00	 1.051245e+01
0	 4.705882e+00	 2.705882e+00	 1.050807e+01
0	 4.705882e+00	 2.823529e+00	 1.050288e+01
0	 4.705882e+00	 2.941176e+00	 1.049709e+01
0	 4.117647e+00	 2.941176e+00	 1.060228e+01
0	 4.117647e+00	 3.058824e+00	 1.058219e+01
0	 4.117647e+00	 3.176471e+00	 1.056232e+01
0	 4.117647e+00	 3.294118e+00	 1.054270e+01
0	 4.117647e+00	 3.411765e+00	 1.052334e+01
0	 4.117647e+00	 3.529412e+00	 1.050423e+01
0	 4.235294e+00	 2.941176e+00	 1.058127e+01
0	 4.235294e+00	 3.058824e+00	 1.056339e+01
0	 4.235294e+00	 3.176471e+00	 1.054607e+01
0	 4.235294e+00	 3.294118e+00	 1.052913e+01
0	 4.235294e+00	 3.411765e+00	 1.051241e+01
0	 4.235294e+00	 3.529412e+00	 1.049571e+01
0	 4.352941e+00	 2.941176e+00	 1.055997e+01
0	 4.352941e+00	 3.058824e+00	 1.054494e+01
0	 4.352941e+00	 3.176471e+00	 1.053029e+01
0	 4.352941e+00	 3.294118e+00	 1.051573e+01
0	 4.352941e+00	 3.411765e+00	 1.050097e+01
0	 4.352941e+00	 3.529412e+00	 1.048571e+01
0	 4.470588e+00	 2.941176e+00	 1.053866e+01
0	 4.470588e+00	 3.058824e+00	 1.052672e+01
0	 4.470588e+00	 3.176471e+00	 1.051465e+01
0	 4.470588e+00	 3.294118e+00	 1.050212e+01
0	 4.470588e+00	 3.411765e+00	 1.048881e+01
0	 4.470588e+00	 3.529412e+00	 1.047437e+01
0	 4.588235e+00	 2.941176e+00	 1.051761e+01
0	 4.588235e+00	 3.058824e+00	 1.050859e+01
0	 4.588235e+00	 3.176471e+00	 1.049880e+01
0	 4.588235e+00	 3.294118e+00	 1.048795e+01
0	 4.588235e+00	 3.411765e+00	 1.047574e+01
0	 4.588235e+00	 3.529412e+00	 1.046185e+01
0	 4.705882e+00	 2.941176e+00	 1.049709e+01
0	 4.705882e+00	 3.058824e+00	 1.049043e+01
0	 4.705882e+00	 3.176471e+00	 1.048242e+01
0	 4.705882e+00	 3.294118e+00	 1.047285e+01
0	 4.705882e+00	 3.411765e+00	 1.046154e+01
0	 4.705882e+00	 3.529412e+00	 1.044830e+01
0	 4.117647e+00	 3.529412e+00	 1.050423e+01
0	 4.117647e+00	 3.647059e+00	 1.048519e+01
0	 4.117647e+00	 3.764706e+00	 1.046581e+01
0	 4.117647e+00	 3.882353e+00	 1.044585e+01
0	 4.117647e+00	 4.000000e+00	 1.042505e+01
0	 4.117647e+00	 4.117647e+00	 1.040317e+01
0	 4.235294e+00	 3.529412e+00	 1.049571e+01
0	 4.235294e+00	 3.647059e+00	 1.047862e+01
0	 4.235294e+00	 3.764706e+00	 1.046073e+01
0	 4.235294e+00	 3.882353e+00	 1.044194e+01
0	 4.235294e+00	 4.000000e+00	 1.042214e+01
0	 4.235294e+00	 4.117647e+00	 1.040122e+01
0	 4.352941e+00	 3.529412e+00	 1.048571e+01
0	 4.352941e+00	 3.647059e+00	 1.046971e+01
0	 4.352941e+00	 3.764706e+00	 1.045290e+01
0	 4.352941e+00	 3.882353e+00	 1.043526e+01
0	 4.352941e+00	 4.000000e+00	 1.041677e+01
0	 4.352941e+00	 4.117647e+00	 1.039742e+01
0	 4.470588e+00	 3.529412e+00	 1.047437e+01
0	 4.470588e+00	 3.647059e+00	 1.045898e+01
0	 4.470588e+00	 3.764706e+00	 1.044304e+01
0	 4.470588e+00	 3.882353e+00	 1.042657e+01
0	 4.470588e+00	 4.000000e+00	 1.040960e+01
0	 4.470588e+00	 4.117647e+00	 1.039217e+01
0	 4.588235e+00	 3.529412e+00	 1.046185e+01
0	 4.588235e+00	 3.647059e+00	 1.044695e+01
0	 4.588235e+00	 3.764706e+00	 1.043188e+01
0	 4.588235e+00	 3.882353e+00	 1.041665e+01
0	 4.588235e+00	 4.000000e+00	 1.040131e+01
0	 4.588235e+00	 4.117647e+00	 1.038585e+01
0	 4.705882e+00	 3.529412e+00	 1.044830e+01
0	 4.705882e+00	 3.647059e+00	 1.043413e+01
0	 4.705882e+00	 3.764706e+00	 1.042013e+01
0	 4.705882e+00	 3.882353e+00	 1.040629e+01
0	 4.705882e+00	 4.000000e+00	 1.039255e+01
0	 4.705882e+00	 4.117647e+00	 1.037888e+01
0	 4.117647e+00	 4.117647e+00	 1.040317e+01
0	 4.117647e+00	 4.235294e+00	 1.038124e+01
0	 4.117647e+00	 4.352941e+00	 1.036049e+01
0	 4.117647e+00	 4.470588e+00	 1.034090e+01
0	 4.117647e+00	 4.588235e+00	 1.032247e+01
0	 4.117647e+00	 4.705882e+00	 1.030519e+01
0	 4.235294e+00	 4.117647e+00	 1.040122e+01
0	 4.235294e+00	 4.235294e+00	 1.038039e+01
0	 4.235294e+00	 4.352941e+00	 1.036085e+01
0	 4.235294e+00	 4.470588e+00	 1.034249e+01
0	 4.235294e+00	 4.588235e+00	 1.032522e+01
0	 4.235294e+00	 4.705882e+00	 1.030892e+01
0	 4.352941e+00	 4.117647e+00	 1.039742e+01
0	 4.352941e+00	 4.235294e+00	 1.037825e+01
0	 4.352941e+00	 4.352941e+00	 1.036019e+01
0	 4.352941e+00	 4.470588e+00	 1.034307e+01
0	 4.352941e+00	 4.588235e+00	 1.032673e+01
0	 4.352941e+00	 4.705882e+00	 1.031101e+01
0	 4.470588e+00	 4.117647e+00	 1.039217e+01
0	 4.470588e+00	 4.235294e+00	 1.037494e+01
0	 4.470588e+00	 4.352941e+00	 1.035845e+01
0	 4.470588e+00	 4.470588e+00	 1.034252e+01
0	 4.470588e+00	 4.588235e+00	 1.032695e+01
0	 4.470588e+00	 4.705882e+00	 1.031156e+01
0	 4.588235e+00	 4.117647e+00	 1.038585e+01
0	 4.588235e+00	 4.235294e+00	 1.037056e+01
0	 4.588235e+00	 4.352941e+00	 1.035557e+01
0	 4.588235e+00	 4.470588e+00	 1.034070e+01
0	 4.588235e+00	 4.588235e+00	 1.032579e+01
0	 4.588235e+00	 4.705882e+00	 1.031067e+01
0	 4.705882e+00	 4.117647e+00	 1.037888e+01
0	 4.705882e+00	 4.235294e+00	 1.036523e+01
0	 4.705882e+00	 4.352941e+00	 1.035148e+01
0	 4.705882e+00	 4.470588e+00	 1.033750e+01
0	 4.705882e+00	 4.588235e+00	 1.032319e+01
0	 4.705882e+00	 4.705882e+00	 1.030842e+01
0	 4.117647e+00	 4.705882e+00	 1.030519e+01
0	 4.117647e+00	 4.823529e+00	 1.028872e+01
0	 4.117647e+00	 4.941176e+00	 1.027267e+01
0	 4.117647e+00	 5.058824e+00	 1.025697e+01
0	 4.117647e+00	 5.176471e+00	 1.024151e+01
0	 4.117647e+00	 5.294118e+00	 1.022620e+01
0	 4.235294e+00	 4.705882e+00	 1.030892e+01
0	 4.235294e+00	 4.823529e+00	 1.029316e+01
0	 4.235294e+00	 4.941176e+00	 1.027757e+01
0	 4.235294e+00	 5.058824e+00	 1.026214e+01
0	 4.235294e+00	 5.176471e+00	 1.024682e+01
0	 4.235294e+00	 5.294118e+00	 1.023161e+01
0	 4.352941e+00	 4.705882e+00	 1.031101e+01
0	 4.352941e+00	 4.823529e+00	 1.029560e+01
0	 4.352941e+00	 4.941176e+00	 1.028032e+01
0	 4.352941e+00	 5.058824e+00	 1.026520e+01
0	 4.352941e+00	 5.176471e+00	 1.025026e+01
0	 4.352941e+00	 5.294118e+00	 1.023551e+01
0	 4.470588e+00	 4.705882e+00	 1.031156e+01
0	 4.470588e+00	 4.823529e+00	 1.029631e+01
0	 4.470588e+00	 4.941176e+00	 1.028131e+01
0	 4.470588e+00	 5.058824e+00	 1.026658e+01
0	 4.470588e+00	 5.176471e+00	 1.025218e+01
0	 4.470588e+00	 5.294118e+00	 1.023812e+01
0	 4.588235e+00	 4.705882e+00	 1.031067e+01
0	 4.588235e+00	 4.823529e+00	 1.029558e+01
0	 4.588235e+00	 4.941176e+00	 1.028091e+01
0	 4.588235e+00	 5.058824e+00	 1.026669e+01
0	 4.588235e+00	 5.176471e+00	 1.025293e+01
0	 4.588235e+00	 5.294118e+00	 1.023966e+01
0	 4.705882e+00	 4.705882e+00	 1.030842e+01
0	 4.705882e+00	 4.823529e+00	 1.029369e+01
0	 4.705882e+00	 4.941176e+00	 1.027953e+01
0	 4.705882e+00	 5.058824e+00	 1.026593e+01
0	 4.705882e+00	 5.176471e+00	 1.025288e+01
0	 4.705882e+00	 5.294118e+00	 1.024037e+01
0	 4.117647e+00	 5.294118e+00	 1.022620e+01
0	 4.117647e+00	 5.411765e+00	 1.021138e+01
0	 4.117647e+00	 5.529412e+00	 1.019746e+01
0	 4.117647e+00	 5.647059e+00	 1.018446e+01
0	 4.117647e+00	 5.764706e+00	 1.017240e+01
0	 4.117647e+00	 5.882353e+00	 1.016129e+01
0	 4.235294e+00	 5.294118e+00	 1.023161e+01
0	 4.235294e+00	 5.411765e+00	 1.021695e+01
0	 4.235294e+00	 5.529412e+00	 1.020325e+01
0	 4.235294e+00	 5.647059e+00	 1.019049e+01
0	 4.235294e+00	 5.764706e+00	 1.017863e+01
0	 4.235294e+00	 5.882353e+00	 1.016764e+01
0	 4.352941e+00	 5.294118e+00	 1.023551e+01
0	 4.352941e+00	 5.411765e+00	 1.022134e+01
0	 4.352941e+00	 5.529412e+00	 1.020806e+01
0	 4.352941e+00	 5.647059e+00	 1.019561e+01
0	 4.352941e+00	 5.764706e+00	 1.018391e+01
0	 4.352941e+00	 5.882353e+00	 1.017290e+01
0	 4.470588e+00	 5.294118e+00	 1.023812e+01
0	 4.470588e+00	 5.411765e+00	 1.022464e+01
0	 4.470588e+00	 5.529412e+00	 1.021188e+01
0	 4.470588e+00	 5.647059e+00	 1.019976e+01
0	 4.470588e+00	 5.764706e+00	 1.018820e+01
0	 4.470588e+00	 5.882353e+00	 1.017711e+01
0	 4.588235e+00	 5.294118e+00	 1.023966e+01
0	 4.588235e+00	 5.411765e+00	 1.022693e+01
0	 4.588235e+00	 5.529412e+00	 1.021470e+01
0	 4.588235e+00	 5.647059e+00	 1.020290e+01
0	 4.588235e+00	 5.764706e+00	 1.019146e+01
0	 4.588235e+00	 5.882353e+00	 1.018030e+01
0	 4.705882e+00	 5.294118e+00	 1.024037e+01
0	 4.705882e+00	 5.411765e+00	 1.022828e+01
0	 4.705882e+00	 5.529412e+00	 1.021650e+01
0	 4.705882e+00	 5.647059e+00	 1.020497e+01
0	 4.705882e+00	 5.764706e+00	 1.019365e+01
0	 4.705882e+00	 5.882353e+00	 1.018250e+01
0	 4.117647e+00	 5.882353e+00	 1.016129e+01
0	 4.117647e+00	 6.000000e+00	 1.015089e+01
0	 4.117647e+00	 6.117647e+00	 1.014090e+01
0	 4.117647e+00	 6.235294e+00	 1.013130e+01
0	 4.117647e+00	 6.352941e+00	 1.012207e+01
0	 4.117647e+00	 6.470588e+00	 1.011319e+01
0	 4.235294e+00	 5.882353e+00	 1.016764e+01
0	 4.235294e+00	 6.000000e+00	 1.015722e+01
0	 4.235294e+00	 6.117647e+00	 1.014711e+01
0	 4.235294e+00	 6.235294e+00	 1.013732e+01
0	 4.235294e+00	 6.352941e+00	 1.012787e+01
0	 4.235294e+00	 6.470588e+00	 1.011874e+01
0	 4.352941e+00	 5.882353e+00	 1.017290e+01
0	 4.352941e+00	 6.000000e+00	 1.016236e+01
0	 4.352941e+00	 6.117647e+00	 1.015211e+01
0	 4.352941e+00	 6.235294e+00	 1.014219e+01
0	 4.352941e+00	 6.352941e+00	 1.013263e+01
0	 4.352941e+00	 6.470588e+00	 1.012344e+01
0	 4.470588e+00	 5.882353e+00	 1.017711e+01
0	 4.470588e+00	 6.000000e+00	 1.016640e+01
0	 4.470588e+00	 6.117647e+00	 1.015604e+01
0	 4.470588e+00	 6.235294e+00	 1.014606e+01
0	 4.470588e+00	 6.352941e+00	 1.013649e+01
0	 4.470588e+00	 6.470588e+00	 1.012736e+01
0	 4.588235e+00	 5.882353e+00	 1.018030e+01
0	 4.588235e+00	 6.000000e+00	 1.016947e+01
0	 4.588235e+00	 6.117647e+00	 1.015905e+01
0	 4.588235e+00	 6.235294e+00	 1.014909e+01
0	 4.588235e+00	 6.352941e+00	 1.013960e+01
0	 4.588235e+00	 6.470588e+00	 1.013060e+01
0	 4.705882e+00	 5.882353e+00	 1.018250e+01
0	 4.705882e+00	 6.000000e+00	 1.017165e+01
0	 4.705882e+00	 6.117647e+00	 1.016130e+01
0	 4.705882e+00	 6.235294e+00	 1.015144e+01
0	 4.705882e+00	 6.352941e+00	 1.014209e+01
0	 4.705882e+00	 6.470588e+00	 1.013324e+01
0	 4.117647e+00	 6.470588e+00	 1.011319e+01
0	 4.117647e+00	 6.588235e+00	 1.010472e+01
0	 4.117647e+00	 6.705882e+00	 1.009676e+01
0	 4.117647e+00	 6.823529e+00	 1.008932e+01
0	 4.117647e+00	 6.941176e+00	 1.008243e+01
0	 4.117647e+00	 7.058824e+00	 1.007609e+01
0	 4.235294e+00	 6.470588e+00	 1.011874e+01
0	 4.235294e+00	 6.588235e+00	 1.011007e+01
0	 4.235294e+00	 6.705882e+00	 1.010194e+01
0	 4.235294e+00	 6.823529e+00	 1.009435e+01
0	 4.235294e+00	 6.941176e+00	 1.008729e+01
0	 4.235294e+00	 7.058824e+00	 1.008075e+01
0	 4.352941e+00	 6.470588e+00	 1.012344e+01
0	 4.352941e+00	 6.588235e+00	 1.011473e+01
0	 4.352941e+00	 6.705882e+00	 1.010653e+01
0	 4.352941e+00	 6.823529e+00	 1.009884e+01
0	 4.352941e+00	 6.941176e+00	 1.009162e+01
0	 4.352941e+00	 7.058824e+00	 1.008486e+01
0	 4.470588e+00	 6.470588e+00	 1.012736e+01
0	 4.470588e+00	 6.588235e+00	 1.011871e+01
0	 4.470588e+00	 6.705882e+00	 1.011052e+01
0	 4.470588e+00	 6.823529e+00	 1.010276e+01
0	 4.470588e+00	 6.941176e+00	 1.009540e+01
0	 4.470588e+00	 7.058824e+00	 1.008841e+01
0	 4.588235e+00	 6.470588e+00	 1.013060e+01
0	 4.588235e+00	 6.588235e+00	 1.012206e+01
0	 4.588235e+00	 6.705882e+00	 1.011389e+01
0	 4.588235e+00	 6.823529e+00	 1.010608e+01
0	 4.588235e+00	 6.941176e+00	 1.009860e+01
0	 4.588235e+00	 7.058824e+00	 1.009141e+01
0	 4.705882e+00	 6.470588e+00	 1.013324e+01
0	 4.705882e+00	 6.588235e+00	 1.012479e+01
0	 4.705882e+00	 6.705882e+00	 1.011665e+01
0	 4.705882e+00	 6.823529e+00	 1.010878e+01
0	 4.705882e+00	 6.941176e+00	 1.010119e+01
0	 4.705882e+00	 7.058824e+00	 1.009385e+01
0	 4.117647e+00	 7.058824e+00	 1.007609e+01
0	 4.117647e+00	 7.176471e+00	 1.007016e+01
0	 4.117647e+00	 7.294118e+00	 1.006450e+01
0	 4.117647e+00	 7.411765e+00	 1.005910e+01
0	 4.117647e+00	 7.529412e+00	 1.005395e+01
0	 4.117647e+00	 7.647059e+00	 1.004905e+01
0	 4.235294e+00	 7.058824e+00	 1.008075e+01
0	 4.235294e+00	 7.176471e+00	 1.007459e+01
0	 4.235294e+00	 7.294118e+00	 1.006866e+01
0	 4.235294e+00	 7.411765e+00	 1.006296e+01
0	 4.235294e+00	 7.529412e+00	 1.005752e+01
0	 4.235294e+00	 7.647059e+00	 1.005234e+01
0	 4.352941e+00	 7.058824e+00	 1.008486e+01
0	 4.352941e+00	 7.176471e+00	 1.007843e+01
0	 4.352941e+00	 7.294118e+00	 1.007224e+01
0	 4.352941e+00	 7.411765e+00	 1.006630e+01
0	 4.352941e+00	 7.529412e+00	 1.006063e+01
0	 4.352941e+00	 7.647059e+00	 1.005524e+01
0	 4.470588e+00	 7.058824e+00	 1.008841e+01
0	 4.470588e+00	 7.176471e+00	 1.008173e+01
0	 4.470588e+00	 7.294118e+00	 1.007531e+01
0	 4.470588e+00	 7.411765e+00	 1.006917e+01
0	 4.470588e+00	 7.529412e+00	 1.006332e+01
0	 4.470588e+00	 7.647059e+00	 1.005778e+01
0	 4.588235e+00	 7.058824e+00	 1.009141e+01
0	 4.588235e+00	 7.176471e+00	 1.008451e+01
0	 4.588235e+00	 7.294118e+00	 1.007790e+01
0	 4.588235e+00	 7.411765e+00	 1.007161e+01
0	 4.588235e+00	 7.529412e+00	 1.006563e+01
0	 4.588235e+00	 7.647059e+00	 1.005999e+01
0	 4.705882e+00	 7.058824e+00	 1.009385e+01
0	 4.705882e+00	 7.176471e+00	 1.008679e+01
0	 4.705882e+00	 7.294118e+00	 1.008007e+01
0	 4.705882e+00	 7.411765e+00	 1.007367e+01
0	 4.705882e+00	 7.529412e+00	 1.006761e+01
0	 4.705882e+00	 7.647059e+00	 1.006188e+01
0	 4.117647e+00	 7.647059e+00	 1.004905e+01
0	 4.117647e+00	 7.764706e+00	 1.004441e+01
0	 4.117647e+00	 7.882353e+00	 1.004004e+01
0	 4.117647e+00	 8.000000e+00	 1.003594e+01
0	 4.117647e+00	 8.117647e+00	 1.003211e+01
0	 4.117647e+00	 8.235294e+00	 1.002857e+01
0	 4.235294e+00	 7.647059e+00	 1.005234e+01
0	 4.235294e+00	 7.764706e+00	 1.004744e+01
0	 4.235294e+00	 7.882353e+00	 1.004282e+01
0	 4.235294e+00	 8.000000e+00	 1.003850e+01
0	 4.235294e+00	 8.117647e+00	 1.003445e+01
0	 4.235294e+00	 8.235294e+00	 1.003067e+01
0	 4.352941e+00	 7.647059e+00	 1.005524e+01
0	 4.352941e+00	 7.764706e+00	 1.005015e+01
0	 4.352941e+00	 7.882353e+00	 1.004535e+01
0	 4.352941e+00	 8.000000e+00	 1.004082e+01
0	 4.352941e+00	 8.117647e+00	 1.003657e+01
0	 4.352941e+00	 8.235294e+00	 1.003257e+01
0	 4.470588e+00	 7.647059e+00	 1.005778e+01
0	 4.470588e+00	 7.764706e+00	 1.005255e+01
0	 4.470588e+00	 7.882353e+00	 1.004759e+01
0	 4.470588e+00	 8.000000e+00	 1.004290e+01
0	 4.470588e+00	 8.117647e+00	 1.003846e+01
0	 4.470588e+00	 8.235294e+00	 1.003425e+01
0	 4.588235e+00	 7.647059e+00	 1.005999e+01
0	 4.588235e+00	 7.764706e+00	 1.005465e+01
0	 4.588235e+00	 7.882353e+00	 1.004956e+01
0	 4.588235e+00	 8.000000e+00	 1.004471e+01
0	 4.588235e+00	 8.117647e+00	 1.004010e+01
0	 4.588235e+00	 8.235294e+00	 1.003570e+01
0	 4.705882e+00	 7.647059e+00	 1.006188e+01
0	 4.705882e+00	 7.764706e+00	 1.005644e+01
0	 4.705882e+00	 7.882353e+00	 1.005123e+01
0	 4.705882e+00	 8.000000e+00	 1.004625e+01
0	 4.705882e+00	 8.117647e+00	 1.004148e+01
0	 4.705882e+00	 8.235294e+00	 1.003692e+01
0	 4.117647e+00	 8.235294e+00	 1.002857e+01
0	 4.117647e+00	 8.352941e+00	 1.002526e+01
0	 4.117647e+00	 8.470588e+00	 1.002213e+01
0	 4.117647e+00	 8.588235e+00	 1.001918e+01
0	 4.117647e+00	 8.705882e+00	 1.001640e+01
0	 4.117647e+00	 8.823529e+00	 1.001378e+01
0	 4.235294e+00	 8.235294e+00	 1.003067e+01
0	 4.235294e+00	 8.352941e+00	 1.002713e+01
0	 4.235294e+00	 8.470588e+00	 1.002377e+01
0	 4.235294e+00	 8.588235e+00	 1.002060e+01
0	 4.235294e+00	 8.705882e+00	 1.001760e+01
0	 4.235294e+00	 8.823529e+00	 1.001478e+01
0	 4.352941e+00	 8.235294e+00	 1.003257e+01
0	 4.352941e+00	 8.352941e+00	 1.002880e+01
0	 4.352941e+00	 8.470588e+00	 1.002522e+01
0	 4.352941e+00	 8.588235e+00	 1.002185e+01
0	 4.352941e+00	 8.705882e+00	 1.001867e+01
0	 4.352941e+00	 8.823529e+00	 1.001567e+01
0	 4.470588e+00	 8.235294e+00	 1.003425e+01
0	 4.470588e+00	 8.352941e+00	 1.003026e+01
0	 4.470588e+00	 8.470588e+00	 1.002649e+01
0	 4.470588e+00	 8.588235e+00	 1.002294e+01
0	 4.470588e+00	 8.705882e+00	 1.001960e+01
0	 4.470588e+00	 8.823529e+00	 1.001647e+01
0	 4.588235e+00	 8.235294e+00	 1.003570e+01
0	 4.588235e+00	 8.352941e+00	 1.003153e+01
0	 4.588235e+00	 8.470588e+00	 1.002759e+01
0	 4.588235e+00	 8.588235e+00	 1.002389e+01
0	 4.588235e+00	 8.705882e+00	 1.002042e+01
0	 4.588235e+00	 8.823529e+00	 1.001718e+01
0	 4.705882e+00	 8.235294e+00	 1.003692e+01
0	 4.705882e+00	 8.352941e+00	 1.003259e+01
0	 4.705882e+00	 8.470588e+00	 1.002853e+01
0	 4.705882e+00	 8.588235e+00	 1.002471e+01
0	 4.705882e+00	 8.705882e+00	 1.002113e+01
0	 4.705882e+00	 8.823529e+00	 1.001778e+01
0	 4.117647e+00	 8.823529e+00	 1.001378e+01
0	 4.117647e+00	 8.941176e+00	 1.001135e+01
0	 4.117647e+00	 9.058824e+00	 1.000916e+01
0	 4.117647e+00	 9.176471e+00	 1.000719e+01
0	 4.117647e+00	 9.294118e+00	 1.000543e+01
0	 4.117647e+00	 9.411765e+00	 1.000385e+01
0	 4.235294e+00	 8.823529e+00	 1.001478e+01
0	 4.235294e+00	 8.941176e+00	 1.001217e+01
0	 4.235294e+00	 9.058824e+00	 1.000982e+01
0	 4.235294e+00	 9.176471e+00	 1.000772e+01
0	 4.235294e+00	 9.294118e+00	 1.000582e+01
0	 4.235294e+00	 9.411765e+00	 1.000413e+01
0	 4.352941e+00	 8.823529e+00	 1.001567e+01
0	 4.352941e+00	 8.941176e+00	 1.001292e+01
0	 4.352941e+00	 9.058824e+00	 1.001044e+01
0	 4.352941e+00	 9.176471e+00	 1.000821e+01
0	 4.352941e+00	 9.294118e+00	 1.000620e+01
0	 4.352941e+00	 9.411765e+00	 1.000439e+01
0	 4.470588e+00	 8.823529e+00	 1.001647e+01
0	 4.470588e+00	 8.941176e+00	 1.001359e+01
0	 4.470588e+00	 9.058824e+00	 1.001099e+01
0	 4.470588e+00	 9.176471e+00	 1.000865e+01
0	 4.470588e+00	 9.294118e+00	 1.000653e+01
0	 4.470588e+00	 9.411765e+00	 1.000462e+01
0	 4.588235e+00	 8.823529e+00	 1.001718e+01
0	 4.588235e+00	 8.941176e+00	 1.001419e+01
0	 4.588235e+00	 9.058824e+00	 1.001148e+01
0	 4.588235e+00	 9.176471e+00	 1.000904e+01
0	 4.588235e+00	 9.294118e+00	 1.000683e+01
0	 4.588235e+00	 9.411765e+00	 1.000482e+01
0	 4.705882e+00	 8.823529e+00	 1.001778e+01
0	 4.705882e+00	 8.941176e+00	 1.001470e+01
0	 4.705882e+00	 9.058824e+00	 1.001190e+01
0	 4.705882e+00	 9.176471e+00	 1.000936e+01
0	 4.705882e+00	 9.294118e+00	 1.000706e+01
0	 4.705882e+00	 9.411765e+00	 1.000497e+01
0	 4.117647e+00	 9.411765e+00	 1.000385e+01
0	 4.117647e+00	 9.529412e+00	 1.000252e+01
0	 4.117647e+00	 9.647059e+00	 1.000149e+01
0	 4.117647e+00	 9.764706e+00	 1.000073e+01
0	 4.117647e+00	 9.882353e+00	 1.000021e+01
0	 4.117647e+00	 1.000000e+01	 9.999877e+00
0	 4.235294e+00	 9.411765e+00	 1.000413e+01
0	 4.235294e+00	 9.529412e+00	 1.000269e+01
0	 4.235294e+00	 9.647059e+00	 1.000158e+01
0	 4.235294e+00	 9.764706e+00	 1.000076e+01
0	 4.235294e+00	 9.882353e+00	 1.000020e+01
0	 4.235294e+00	 1.000000e+01	 9.999867e+00
0	 4.352941e+00	 9.411765e+00	 1.000439e+01
0	 4.352941e+00	 9.529412e+00	 1.000285e+01
0	 4.352941e+00	 9.647059e+00	 1.000167e+01
0	 4.352941e+00	 9.764706e+00	 1.000080e+01
0	 4.352941e+00	 9.882353e+00	 1.000021e+01
0	 4.352941e+00	 1.000000e+01	 9.999883e+00
0	 4.470588e+00	 9.411765e+00	 1.000462e+01
0	 4.470588e+00	 9.529412e+00	 1.000300e+01
0	 4.470588e+00	 9.647059e+00	 1.000174e+01
0	 4.470588e+00	 9.764706e+00	 1.000084e+01
0	 4.470588e+00	 9.882353e+00	 1.000023e+01
0	 4.470588e+00	 1.000000e+01	 9.999909e+00
0	 4.588235e+00	 9.411765e+00	 1.000482e+01
0	 4.588235e+00	 9.529412e+00	 1.000312e+01
0	 4.588235e+00	 9.647059e+00	 1.000181e+01
0	 4.588235e+00	 9.764706e+00	 1.000087e+01
0	 4.588235e+00	 9.882353e+00	 1.000025e+01
0	 4.588235e+00	 1.000000e+01	 9.999931e+00
0	 4.705882e+00	 9.411765e+00	 1.000497e+01
0	 4.705882e+00	 9.529412e+00	 1.000321e+01
0	 4.705882e+00	 9.647059e+00	 1.000186e+01
0	 4.705882e+00	 9.764706e+00	 1.000089e+01
0	 4.705882e+00	 9.882353e+00	 1.000026e+01
0	 4.705882e+00	 1.000000e+01	 9.999931e+00
0	 4.705882e+00	 0.000000e+00	 1.038968e+01
0	 4.705882e+00	 1.176471e-01	 1.037120e+01
0	 4.705882e+00	 2.352941e-01	 1.036288e+01
0	 4.705882e+00	 3.529412e-01	 1.036351e+01
0	 4.705882e+00	 4.705882e-01	 1.037190e+01
0	 4.705882e+00	 5.882353e-01	 1.038682e+01
0	 4.823529e+00	 0.000000e+00	 1.036459e+01
0	 4.823529e+00	 1.176471e-01	 1.034795e+01
0	 4.823529e+00	 2.352941e-01	 1.033851e+01
0	 4.823529e+00	 3.529412e-01	 1.033656e+01
0	 4.823529e+00	 4.705882e-01	 1.034242e+01
0	 4.823529e+00	 5.882353e-01	 1.035640e+01
0	 4.941176e+00	 0.000000e+00	 1.033599e+01
0	 4.941176e+00	 1.176471e-01	 1.032627e+01
0	 4.941176e+00	 2.352941e-01	 1.031992e+01
0	 4.941176e+00	 3.529412e-01	 1.031822e+01
0	 4.941176e+00	 4.705882e-01	 1.032242e+01
0	 4.941176e+00	 5.882353e-01	 1.033382e+01
0	 5.058824e+00	 0.000000e+00	 1.030733e+01
0	 5.058824e+00	 1.176471e-01	 1.030641e+01
0	 5.058824e+00	 2.352941e-01	 1.030523e+01
0	 5.058824e+00	 3.529412e-01	 1.030548e+01
0	 5.058824e+00	 4.705882e-01	 1.030885e+01
0	 5.058824e+00	 5.882353e-01	 1.031703e+01
0	 5.176471e+00	 0.000000e+00	 1.028211e+01
0	 5.176471e+00	 1.176471e-01	 1.028863e+01
0	 5.176471e+00	 2.352941e-01	 1.029254e+01
0	 5.176471e+00	 3.529412e-01	 1.029537e+01
0	 5.176471e+00	 4.705882e-01	 1.029867e+01
0	 5.176471e+00	 5.882353e-01	 1.030399e+01
0	 5.294118e+00	 0.000000e+00	 1.026379e+01
0	 5.294118e+00	 1.176471e-01	 1.027320e+01
0	 5.294118e+00	 2.352941e-01	 1.027995e+01
0	 5.294118e+00	 3.529412e-01	 1.028487e+01
0	 5.294118e+00	 4.705882e-01	 1.028882e+01
0	 5.294118e+00	 5.882353e-01	 1.029265e+01
0	 4.705882e+00	 5.882353e-01	 1.038682e+01
0	 4.705882e+00	 7.058824e-01	 1.040348e+01
0	 4.705882e+00	 8.235294e-01	 1.041820e+01
0	 4.705882e+00	 9.411765e-01	 1.043145e+01
0	 4.705882e+00	 1.058824e+00	 1.044369e+01
0	 4.705882e+00	 1.176471e+00	 1.045538e+01
0	 4.823529e+00	 5.882353e-01	 1.035640e+01
0	 4.823529e+00	 7.058824e-01	 1.037340e+01
0	 4.823529e+00	 8.235294e-01	 1.038840e+01
0	 4.823529e+00	 9.411765e-01	 1.040175e+01
0	 4.823529e+00	 1.058824e+00	 1.041386e+01
0	 4.823529e+00	 1.176471e+00	 1.042509e+01
0	 4.941176e+00	 5.882353e-01	 1.033382e+01
0	 4.941176e+00	 7.058824e-01	 1.034843e+01
0	 4.941176e+00	 8.235294e-01	 1.036164e+01
0	 4.941176e+00	 9.411765e-01	 1.037377e+01
0	 4.941176e+00	 1.058824e+00	 1.038511e+01
0	 4.941176e+00	 1.176471e+00	 1.039598e+01
0	 5.058824e+00	 5.882353e-01	 1.031703e+01
0	 5.058824e+00	 7.058824e-01	 1.032785e+01
0	 5.058824e+00	 8.235294e-01	 1.033822e+01
0	 5.058824e+00	 9.411765e-01	 1.034838e+01
0	 5.058824e+00	 1.058824e+00	 1.035858e+01
0	 5.058824e+00	 1.176471e+00	 1.036907e+01
0	 5.176471e+00	 5.882353e-01	 1.030399e+01
0	 5.176471e+00	 7.058824e-01	 1.031098e+01
0	 5.176471e+00	 8.235294e-01	 1.031840e+01
0	 5.176471e+00	 9.411765e-01	 1.032646e+01
0	 5.176471e+00	 1.058824e+00	 1.033538e+01
0	 5.176471e+00	 1.176471e+00	 1.034535e+01
0	 5.294118e+00	 5.882353e-01	 1.029265e+01
0	 5.294118e+00	 7.058824e-01	 1.029710e+01
0	 5.294118e+00	 8.235294e-01	 1.030246e+01
0	 5.294118e+00	 9.411765e-01	 1.030891e+01
0	 5.294118e+00	 1.058824e+00	 1.031663e+01
0	 5.294118e+00	 1.176471e+00	 1.032581e+01
0	 4.705882e+00	 1.176471e+00	 1.045538e+01
0	 4.705882e+00	 1.294118e+00	 1.046584e+01
0	 4.705882e+00	 1.411765e+00	 1.047455e+01
0	 4.705882e+00	 1.529412e+00	 1.048227e+01
0	 4.705882e+00	 1.647059e+00	 1.048975e+01
0	 4.705882e+00	 1.764706e+00	 1.049773e+01
0	 4.823529e+00	 1.176471e+00	 1.042509e+01
0	 4.823529e+00	 1.294118e+00	 1.043551e+01
0	 4.823529e+00	 1.411765e+00	 1.044517e+01
0	 4.823529e+00	 1.529412e+00	 1.045435e+01
0	 4.823529e+00	 1.647059e+00	 1.046335e+01
0	 4.823529e+00	 1.764706e+00	 1.047247e+01
0	 4.941176e+00	 1.176471e+00	 1.039598e+01
0	 4.941176e+00	 1.294118e+00	 1.040660e+01
0	 4.941176e+00	 1.411765e+00	 1.041699e+01
0	 4.941176e+00	 1.529412e+00	 1.042713e+01
0	 4.941176e+00	 1.647059e+00	 1.043704e+01
0	 4.941176e+00	 1.764706e+00	 1.044670e+01
0	 5.058824e+00	 1.176471e+00	 1.036907e+01
0	 5.058824e+00	 1.294118e+00	 1.037983e+01
0	 5.058824e+00	 1.411765e+00	 1.039055e+01
0	 5.058824e+00	 1.529412e+00	 1.040106e+01
0	 5.058824e+00	 1.647059e+00	 1.041123e+01
0	 5.058824e+00	 1.764706e+00	 1.042088e+01
0	 5.176471e+00	 1.176471e+00	 1.034535e+01
0	 5.176471e+00	 1.294118e+00	 1.035592e+01
0	 5.176471e+00	 1.411765e+00	 1.036638e+01
0	 5.176471e+00	 1.529412e+00	 1.037657e+01
0	 5.176471e+00	 1.647059e+00	 1.038632e+01
0	 5.176471e+00	 1.764706e+00	 1.039547e+01
0	 5.294118e+00	 1.176471e+00	 1.032581e+01
0	 5.294118e+00	 1.294118e+00	 1.033561e+01
0	 5.294118e+00	 1.411765e+00	 1.034504e+01
0	 5.294118e+00	 1.529412e+00	 1.035408e+01
0	 5.294118e+00	 1.647059e+00	 1.036272e+01
0	 5.294118e+00	 1.764706e+00	 1.037094e+01
0	 4.705882e+00	 1.764706e+00	 1.049773e+01
0	 4.705882e+00	 1.882353e+00	 1.050552e+01
0	 4.705882e+00	 2.000000e+00	 1.051172e+01
0	 4.705882e+00	 2.117647e+00	 1.051606e+01
0	 4.705882e+00	 2.235294e+00	 1.051826e+01
0	 4.705882e+00	 2.352941e+00	 1.051803e+01
0	 4.823529e+00	 1.764706e+00	 1.047247e+01
0	 4.823529e+00	 1.882353e+00	 1.048060e+01
0	 4.823529e+00	 2.000000e+00	 1.048645e+01
0	 4.823529e+00	 2.117647e+00	 1.049014e+01
0	 4.823529e+00	 2.235294e+00	 1.049176e+01
0	 4.823529e+00	 2.352941e+00	 1.049141e+01
0	 4.941176e+00	 1.764706e+00	 1.044670e+01
0	 4.941176e+00	 1.882353e+00	 1.045489e+01
0	 4.941176e+00	 2.000000e+00	 1.046058e+01
0	 4.941176e+00	 2.117647e+00	 1.046413e+01
0	 4.941176e+00	 2.235294e+00	 1.046589e+01
0	 4.941176e+00	 2.352941e+00	 1.046622e+01
0	 5.058824e+00	 1.764706e+00	 1.042088e+01
0	 5.058824e+00	 1.882353e+00	 1.042890e+01
0	 5.058824e+00	 2.000000e+00	 1.043458e+01
0	 5.058824e+00	 2.117647e+00	 1.043839e+01
0	 5.058824e+00	 2.235294e+00	 1.044081e+01
0	 5.058824e+00	 2.352941e+00	 1.044230e+01
0	 5.176471e+00	 1.764706e+00	 1.039547e+01
0	 5.176471e+00	 1.882353e+00	 1.040316e+01
0	 5.176471e+00	 2.000000e+00	 1.040894e+01
0	 5.176471e+00	 2.117647e+00	 1.041328e+01
0	 5.176471e+00	 2.235294e+00	 1.041664e+01
0	 5.176471e+00	 2.352941e+00	 1.041947e+01
0	 5.294118e+00	 1.764706e+00	 1.037094e+01
0	 5.294118e+00	 1.882353e+00	 1.037818e+01
0	 5.294118e+00	 2.000000e+00	 1.038415e+01
0	 5.294118e+00	 2.117647e+00	 1.038915e+01
0	 5.294118e+00	 2.235294e+00	 1.039352e+01
0	 5.294118e+00	 2.352941e+00	 1.039758e+01
0	 4.705882e+00	 2.352941e+00	 1.051803e+01
0	 4.705882e+00	 2.470588e+00	 1.051583e+01
0	 4.705882e+00	 2.588235e+00	 1.051245e+01
0	 4.705882e+00	 2.705882e+00	 1.050807e+01
0	 4.705882e+00	 2.823529e+00	 1.050288e+01
0	 4.705882e+00	 2.941176e+00	 1.049709e+01
0	 4.823529e+00	 2.352941e+00	 1.049141e+01
0	 4.823529e+00	 2.470588e+00	 1.048980e+01
0	 4.823529e+00	 2.588235e+00	 1.048755e+01
0	 4.823529e+00	 2.705882e+00	 1.048468e+01
0	 4.823529e+00	 2.823529e+00	 1.048119e+01
0	 4.823529e+00	 2.941176e+00	 1.047709e+01
0	 4.941176e+00	 2.352941e+00	 1.046622e+01
0	 4.941176e+00	 2.470588e+00	 1.046573e+01
0	 4.941176e+00	 2.588235e+00	 1.046471e+01
0	 4.941176e+00	 2.705882e+00	 1.046305e+01
0	 4.941176e+00	 2.823529e+00	 1.046064e+01
0	 4.941176e+00	 2.941176e+00	 1.045736e+01
0	 5.058824e+00	 2.352941e+00	 1.044230e+01
0	 5.058824e+00	 2.470588e+00	 1.044319e+01
0	 5.058824e+00	 2.588235e+00	 1.044335e+01
0	 5.058824e+00	 2.705882e+00	 1.044262e+01
0	 5.058824e+00	 2.823529e+00	 1.044083e+01
0	 5.058824e+00	 2.941176e+00	 1.043782e+01
0	 5.176471e+00	 2.352941e+00	 1.041947e+01
0	 5.176471e+00	 2.470588e+00	 1.042172e+01
0	 5.176471e+00	 2.588235e+00	 1.042288e+01
0	 5.176471e+00	 2.705882e+00	 1.042281e+01
0	 5.176471e+00	 2.823529e+00	 1.042136e+01
0	 5.176471e+00	 2.941176e+00	 1.041836e+01
0	 5.294118e+00	 2.352941e+00	 1.039758e+01
0	 5.294118e+00	 2.470588e+00	 1.040089e+01
0	 5.294118e+00	 2.588235e+00	 1.040275e+01
0	 5.294118e+00	 2.705882e+00	 1.040309e+01
0	 5.294118e+00	 2.823529e+00	 1.040183e+01
0	 5.294118e+00	 2.941176e+00	 1.039889e+01
0	 4.705882e+00	 2.941176e+00	 1.049709e+01
0	 4.705882e+00	 3.058824e+00	 1.049043e+01
0	 4.705882e+00	 3.176471e+00	 1.048242e+01
0	 4.705882e+00	 3.294118e+00	 1.047285e+01
0	 4.705882e+00	 3.411765e+00	 1.046154e+01
0	 4.705882e+00	 3.529412e+00	 1.044830e+01
0	 4.823529e+00	 2.941176e+00	 1.047709e+01
0	 4.823529e+00	 3.058824e+00	 1.047188e+01
0	 4.823529e+00	 3.176471e+00	 1.046503e+01
0	 4.823529e+00	 3.294118e+00	 1.045647e+01
0	 4.823529e+00	 3.411765e+00	 1.044614e+01
0	 4.823529e+00	 3.529412e+00	 1.043395e+01
0	 4.941176e+00	 2.941176e+00	 1.045736e+01
0	 4.941176e+00	 3.058824e+00	 1.045283e+01
0	 4.941176e+00	 3.176471e+00	 1.044671e+01
0	 4.941176e+00	 3.294118e+00	 1.043904e+01
0	 4.941176e+00	 3.411765e+00	 1.042983e+01
0	 4.941176e+00	 3.529412e+00	 1.041909e+01
0	 5.058824e+00	 2.941176e+00	 1.043782e+01
0	 5.058824e+00	 3.058824e+00	 1.043348e+01
0	 5.058824e+00	 3.176471e+00	 1.042786e+01
0	 5.058824e+00	 3.294118e+00	 1.042103e+01
0	 5.058824e+00	 3.411765e+00	 1.041302e+01
0	 5.058824e+00	 3.529412e+00	 1.040391e+01
0	 5.176471e+00	 2.941176e+00	 1.041836e+01
0	 5.176471e+00	 3.058824e+00	 1.041407e+01
0	 5.176471e+00	 3.176471e+00	 1.040890e+01
0	 5.176471e+00	 3.294118e+00	 1.040290e+01
0	 5.176471e+00	 3.411765e+00	 1.039612e+01
0	 5.176471e+00	 3.529412e+00	 1.038864e+01
0	 5.294118e+00	 2.941176e+00	 1.039889e+01
0	 5.294118e+00	 3.058824e+00	 1.039482e+01
0	 5.294118e+00	 3.176471e+00	 1.039023e+01
0	 5.294118e+00	 3.294118e+00	 1.038512e+01
0	 5.294118e+00	 3.411765e+00	 1.037954e+01
0	 5.294118e+00	 3.529412e+00	 1.037348e+01
0	 4.705882e+00	 3.529412e+00	 1.044830e+01
0	 4.705882e+00	 3.647059e+00	 1.043413e+01
0	 4.705882e+00	 3.764706e+00	 1.042013e+01
0	 4.705882e+00	 3.882353e+00	 1.040629e+01
0	 4.705882e+00	 4.000000e+00	 1.039255e+01
0	 4.705882e+00	 4.117647e+00	 1.037888e+01
0	 4.823529e+00	 3.529412e+00	 1.043395e+01
0	 4.823529e+00	 3.647059e+00	 1.042101e+01
0	 4.823529e+00	 3.764706e+00	 1.040837e+01
0	 4.823529e+00	 3.882353e+00	 1.039593e+01
0	 4.823529e+00	 4.000000e+00	 1.038360e+01
0	 4.823529e+00	 4.117647e+00	 1.037127e+01
0	 4.941176e+00	 3.529412e+00	 1.041909e+01
0	 4.941176e+00	 3.647059e+00	 1.040773e+01
0	 4.941176e+00	 3.764706e+00	 1.039656e+01
0	 4.941176e+00	 3.882353e+00	 1.038544e+01
0	 4.941176e+00	 4.000000e+00	 1.037424e+01
0	 4.941176e+00	 4.117647e+00	 1.036280e+01
0	 5.058824e+00	 3.529412e+00	 1.040391e+01
0	 5.058824e+00	 3.647059e+00	 1.039428e+01
0	 5.058824e+00	 3.764706e+00	 1.038459e+01
0	 5.058824e+00	 3.882353e+00	 1.037467e+01
0	 5.058824e+00	 4.000000e+00	 1.036437e+01
0	 5.058824e+00	 4.117647e+00	 1.035356e+01
0	 5.176471e+00	 3.529412e+00	 1.038864e+01
0	 5.176471e+00	 3.647059e+00	 1.038068e+01
0	 5.176471e+00	 3.764706e+00	 1.037232e+01
0	 5.176471e+00	 3.882353e+00	 1.036345e+01
0	 5.176471e+00	 4.000000e+00	 1.035392e+01
0	 5.176471e+00	 4.117647e+00	 1.034360e+01
0	 5.294118e+00	 3.529412e+00	 1.037348e+01
0	 5.294118e+00	 3.647059e+00	 1.036690e+01
0	 5.294118e+00	 3.764706e+00	 1.035965e+01
0	 5.294118e+00	 3.882353e+00	 1.035164e+01
0	 5.294118e+00	 4.000000e+00	 1.034278e+01
0	 5.294118e+00	 4.117647e+00	 1.033299e+01
0	 4.705882e+00	 4.117647e+00	 1.037888e+01
0	 4.705882e+00	 4.235294e+00	 1.036523e+01
0	 4.705882e+00	 4.352941e+00	 1.035148e+01
0	 4.705882e+00	 4.470588e+00	 1.033750e+01
0	 4.705882e+00	 4.588235e+00	 1.032319e+01
0	 4.705882e+00	 4.705882e+00	 1.030842e+01
0	 4.823529e+00	 4.117647e+00	 1.037127e+01
0	 4.823529e+00	 4.235294e+00	 1.035876e+01
0	 4.823529e+00	 4.352941e+00	 1.034592e+01
0	 4.823529e+00	 4.470588e+00	 1.033271e+01
0	 4.823529e+00	 4.588235e+00	 1.031906e+01
0	 4.823529e+00	 4.705882e+00	 1.030492e+01
0	 4.941176e+00	 4.117647e+00	 1.036280e+01
0	 4.941176e+00	 4.235294e+00	 1.035104e+01
0	 4.941176e+00	 4.352941e+00	 1.033892e+01
0	 4.941176e+00	 4.470588e+00	 1.032644e+01
0	 4.941176e+00	 4.588235e+00	 1.031358e+01
0	 4.941176e+00	 4.705882e+00	 1.030032e+01
0	 5.058824e+00	 4.117647e+00	 1.035356e+01
0	 5.058824e+00	 4.235294e+00	 1.034230e+01
0	 5.058824e+00	 4.352941e+00	 1.033080e+01
0	 5.058824e+00	 4.470588e+00	 1.031905e+01
0	 5.058824e+00	 4.588235e+00	 1.030707e+01
0	 5.058824e+00	 4.705882e+00	 1.029484e+01
0	 5.176471e+00	 4.117647e+00	 1.034360e+01
0	 5.176471e+00	 4.235294e+00	 1.033279e+01
0	 5.176471e+00	 4.352941e+00	 1.032189e+01
0	 5.176471e+00	 4.470588e+00	 1.031091e+01
0	 5.176471e+00	 4.588235e+00	 1.029985e+01
0	 5.176471e+00	 4.705882e+00	 1.028869e+01
0	 5.294118e+00	 4.117647e+00	 1.033299e+01
0	 5.294118e+00	 4.235294e+00	 1.032274e+01
0	 5.294118e+00	 4.352941e+00	 1.031255e+01
0	 5.294118e+00	 4.470588e+00	 1.030239e+01
0	 5.294118e+00	 4.588235e+00	 1.029224e+01
0	 5.294118e+00	 4.705882e+00	 1.028207e+01
0	 4.705882e+00	 4.705882e+00	 1.030842e+01
0	 4.705882e+00	 4.823529e+00	 1.029369e+01
0	 4.705882e+00	 4.941176e+00	 1.027953e+01
0	 4.705882e+00	 5.058824e+00	 1.026593e+01
0	 4.705882e+00	 5.176471e+00	 1.025288e+01
0	 4.705882e+00	 5.294118e+00	 1.024037e+01
0	 4.823529e+00	 4.705882e+00	 1.030492e+01
0	 4.823529e+00	 4.823529e+00	 1.029085e+01
0	 4.823529e+00	 4.941176e+00	 1.027740e+01
0	 4.823529e+00	 5.058824e+00	 1.026452e+01
0	 4.823529e+00	 5.176471e+00	 1.025214e+01
0	 4.823529e+00	 5.294118e+00	 1.024022e+01
0	 4.941176e+00	 4.705882e+00	 1.030032e+01
0	 4.941176e+00	 4.823529e+00	 1.028717e+01
0	 4.941176e+00	 4.941176e+00	 1.027455e+01
0	 4.941176e+00	 5.058824e+00	 1.026239e+01
0	 4.941176e+00	 5.176471e+00	 1.025060e+01
0	 4.941176e+00	 5.294118e+00	 1.023910e+01
0	 5.058824e+00	 4.705882e+00	 1.029484e+01
0	 5.058824e+00	 4.823529e+00	 1.028272e+01
0	 5.058824e+00	 4.941176e+00	 1.027098e+01
0	 5.058824e+00	 5.058824e+00	 1.025952e+01
0	 5.058824e+00	 5.176471e+00	 1.024825e+01
0	 5.058824e+00	 5.294118e+00	 1.023707e+01
0	 5.176471e+00	 4.705882e+00	 1.028869e+01
0	 5.176471e+00	 4.823529e+00	 1.027761e+01
0	 5.176471e+00	 4.941176e+00	 1.026670e+01
0	 5.176471e+00	 5.058824e+00	 1.025589e+01
0	 5.176471e+00	 5.176471e+00	 1.024509e+01
0	 5.176471e+00	 5.294118e+00	 1.023421e+01
0	 5.294118e+00	 4.705882e+00	 1.028207e+01
0	 5.294118e+00	 4.823529e+00	 1.027190e+01
0	 5.294118e+00	 4.941176e+00	 1.026173e+01
0	 5.294118e+00	 5.058824e+00	 1.025150e+01
0	 5.294118e+00	 5.176471e+00	 1.024114e+01
0	 5.294118e+00	 5.294118e+00	 1.023059e+01
0	 4.705882e+00	 5.294118e+00	 1.024037e+01
0	 4.705882e+00	 5.411765e+00	 1.022828e+01
0	 4.705882e+00	 5.529412e+00	 1.021650e+01
0	 4.705882e+00	 5.647059e+00	 1.020497e+01
0	 4.705882e+00	 5.764706e+00	 1.019365e+01
0	 4.705882e+00	 5.882353e+00	 1.018250e+01
0	 4.823529e+00	 5.294118e+00	 1.024022e+01
0	 4.823529e+00	 5.411765e+00	 1.022859e+01
0	 4.823529e+00	 5.529412e+00	 1.021715e+01
0	 4.823529e+00	 5.647059e+00	 1.020586e+01
0	 4.823529e+00	 5.764706e+00	 1.019472e+01
0	 4.823529e+00	 5.882353e+00	 1.018372e+01
0	 4.941176e+00	 5.294118e+00	 1.023910e+01
0	 4.941176e+00	 5.411765e+00	 1.022778e+01
0	 4.941176e+00	 5.529412e+00	 1.021662e+01
0	 4.941176e+00	 5.647059e+00	 1.020561e+01
0	 4.941176e+00	 5.764706e+00	 1.019475e+01
0	 4.941176e+00	 5.882353e+00	 1.018405e+01
0	 5.058824e+00	 5.294118e+00	 1.023707e+01
0	 5.058824e+00	 5.411765e+00	 1.022600e+01
0	 5.058824e+00	 5.529412e+00	 1.021511e+01
0	 5.058824e+00	 5.647059e+00	 1.020441e+01
0	 5.058824e+00	 5.764706e+00	 1.019391e+01
0	 5.058824e+00	 5.882353e+00	 1.018362e+01
0	 5.176471e+00	 5.294118e+00	 1.023421e+01
0	 5.176471e+00	 5.411765e+00	 1.022339e+01
0	 5.176471e+00	 5.529412e+00	 1.021280e+01
0	 5.176471e+00	 5.647059e+00	 1.020246e+01
0	 5.176471e+00	 5.764706e+00	 1.019238e+01
0	 5.176471e+00	 5.882353e+00	 1.018255e+01
0	 5.294118e+00	 5.294118e+00	 1.023059e+01
0	 5.294118e+00	 5.411765e+00	 1.022008e+01
0	 5.294118e+00	 5.529412e+00	 1.020988e+01
0	 5.294118e+00	 5.647059e+00	 1.019996e+01
0	 5.294118e+00	 5.764706e+00	 1.019032e+01
0	 5.294118e+00	 5.882353e+00	 1.018094e+01
0	 4.705882e+00	 5.882353e+00	 1.018250e+01
0	 4.705882e+00	 6.000000e+00	 1.017165e+01
0	 4.705882e+00	 6.117647e+00	 1.016130e+01
0	 4.705882e+00	 6.235294e+00	 1.015144e+01
0	 4.705882e+00	 6.352941e+00	 1.014209e+01
0	 4.705882e+00	 6.470588e+00	 1.013324e+01
0	 4.823529e+00	 5.882353e+00	 1.018372e+01
0	 4.823529e+00	 6.000000e+00	 1.017304e+01
0	 4.823529e+00	 6.117647e+00	 1.016287e+01
0	 4.823529e+00	 6.235294e+00	 1.015320e+01
0	 4.823529e+00	 6.352941e+00	 1.014401e+01
0	 4.823529e+00	 6.470588e+00	 1.013526e+01
0	 4.941176e+00	 5.882353e+00	 1.018405e+01
0	 4.941176e+00	 6.000000e+00	 1.017369e+01
0	 4.941176e+00	 6.117647e+00	 1.016379e+01
0	 4.941176e+00	 6.235294e+00	 1.015434e+01
0	 4.941176e+00	 6.352941e+00	 1.014530e+01
0	 4.941176e+00	 6.470588e+00	 1.013662e+01
0	 5.058824e+00	 5.882353e+00	 1.018362e+01
0	 5.058824e+00	 6.000000e+00	 1.017366e+01
0	 5.058824e+00	 6.117647e+00	 1.016409e+01
0	 5.058824e+00	 6.235294e+00	 1.015487e+01
0	 5.058824e+00	 6.352941e+00	 1.014598e+01
0	 5.058824e+00	 6.470588e+00	 1.013735e+01
0	 5.176471e+00	 5.882353e+00	 1.018255e+01
0	 5.176471e+00	 6.000000e+00	 1.017301e+01
0	 5.176471e+00	 6.117647e+00	 1.016377e+01
0	 5.176471e+00	 6.235294e+00	 1.015480e+01
0	 5.176471e+00	 6.352941e+00	 1.014605e+01
0	 5.176471e+00	 6.470588e+00	 1.013748e+01
0	 5.294118e+00	 5.882353e+00	 1.018094e+01
0	 5.294118e+00	 6.000000e+00	 1.017180e+01
0	 5.294118e+00	 6.117647e+00	 1.016287e+01
0	 5.294118e+00	 6.235294e+00	 1.015412e+01
0	 5.294118e+00	 6.352941e+00	 1.014552e+01
0	 5.294118e+00	 6.470588e+00	 1.013705e+01
0	 4.705882e+00	 6.470588e+00	 1.013324e+01
0	 4.705882e+00	 6.588235e+00	 1.012479e+01
0	 4.705882e+00	 6.705882e+00	 1.011665e+01
0	 4.705882e+00	 6.823529e+00	 1.010878e+01
0	 4.705882e+00	 6.941176e+00	 1.010119e+01
0	 4.705882e+00	 7.058824e+00	 1.009385e+01
0	 4.823529e+00	 6.470588e+00	 1.013526e+01
0	 4.823529e+00	 6.588235e+00	 1.012686e+01
0	 4.823529e+00	 6.705882e+00	 1.011871e+01
0	 4.823529e+00	 6.823529e+00	 1.011081e+01
0	 4.823529e+00	 6.941176e+00	 1.010315e+01
0	 4.823529e+00	 7.058824e+00	 1.009573e+01
0	 4.941176e+00	 6.470588e+00	 1.013662e+01
0	 4.941176e+00	 6.588235e+00	 1.012823e+01
0	 4.941176e+00	 6.705882e+00	 1.012008e+01
0	 4.941176e+00	 6.823529e+00	 1.011217e+01
0	 4.941176e+00	 6.941176e+00	 1.010451e+01
0	 4.941176e+00	 7.058824e+00	 1.009710e+01
0	 5.058824e+00	 6.470588e+00	 1.013735e+01
0	 5.058824e+00	 6.588235e+00	 1.012897e+01
0	 5.058824e+00	 6.705882e+00	 1.012084e+01
0	 5.058824e+00	 6.823529e+00	 1.011296e+01
0	 5.058824e+00	 6.941176e+00	 1.010535e+01
0	 5.058824e+00	 7.058824e+00	 1.009802e+01
0	 5.176471e+00	 6.470588e+00	 1.013748e+01
0	 5.176471e+00	 6.588235e+00	 1.012913e+01
0	 5.176471e+00	 6.705882e+00	 1.012106e+01
0	 5.176471e+00	 6.823529e+00	 1.011326e+01
0	 5.176471e+00	 6.941176e+00	 1.010575e+01
0	 5.176471e+00	 7.058824e+00	 1.009852e+01
0	 5.294118e+00	 6.470588e+00	 1.013705e+01
0	 5.294118e+00	 6.588235e+00	 1.012879e+01
0	 5.294118e+00	 6.705882e+00	 1.012083e+01
0	 5.294118e+00	 6.823529e+00	 1.011315e+01
0	 5.294118e+00	 6.941176e+00	 1.010577e+01
0	 5.294118e+00	 7.058824e+00	 1.009866e+01
0	 4.705882e+00	 7.058824e+00	 1.009385e+01
0	 4.705882e+00	 7.176471e+00	 1.008679e+01
0	 4.705882e+00	 7.294118e+00	 1.008007e+01
0	 4.705882e+00	 7.411765e+00	 1.007367e+01
0	 4.705882e+00	 7.529412e+00	 1.006761e+01
0	 4.705882e+00	 7.647059e+00	 1.006188e+01
0	 4.823529e+00	 7.058824e+00	 1.009573e+01
0	 4.823529e+00	 7.176471e+00	 1.008861e+01
0	 4.823529e+00	 7.294118e+00	 1.008183e+01
0	 4.823529e+00	 7.411765e+00	 1.007539e+01
0	 4.823529e+00	 7.529412e+00	 1.006926e+01
0	 4.823529e+00	 7.647059e+00	 1.006346e+01
0	 4.941176e+00	 7.058824e+00	 1.009710e+01
0	 4.941176e+00	 7.176471e+00	 1.009000e+01
0	 4.941176e+00	 7.294118e+00	 1.008322e+01
0	 4.941176e+00	 7.411765e+00	 1.007675e+01
0	 4.941176e+00	 7.529412e+00	 1.007059e+01
0	 4.941176e+00	 7.647059e+00	 1.006470e+01
0	 5.058824e+00	 7.058824e+00	 1.009802e+01
0	 5.058824e+00	 7.176471e+00	 1.009097e+01
0	 5.058824e+00	 7.294118e+00	 1.008423e+01
0	 5.058824e+00	 7.411765e+00	 1.007777e+01
0	 5.058824e+00	 7.529412e+00	 1.007158e+01
0	 5.058824e+00	 7.647059e+00	 1.006562e+01
0	 5.176471e+00	 7.058824e+00	 1.009852e+01
0	 5.176471e+00	 7.176471e+00	 1.009157e+01
0	 5.176471e+00	 7.294118e+00	 1.008489e+01
0	 5.176471e+00	 7.411765e+00	 1.007845e+01
0	 5.176471e+00	 7.529412e+00	 1.007224e+01
0	 5.176471e+00	 7.647059e+00	 1.006623e+01
0	 5.294118e+00	 7.058824e+00	 1.009866e+01
0	 5.294118e+00	 7.176471e+00	 1.009181e+01
0	 5.294118e+00	 7.294118e+00	 1.008519e+01
0	 5.294118e+00	 7.411765e+00	 1.007878e+01
0	 5.294118e+00	 7.529412e+00	 1.007257e+01
0	 5.294118e+00	 7.647059e+00	 1.006654e+01
0	 4.705882e+00	 7.647059e+00	 1.006188e+01
0	 4.705882e+00	 7.764706e+00	 1.005644e+01
0	 4.705882e+00	 7.882353e+00	 1.005123e+01
0	 4.705882e+00	 8.000000e+00	 1.004625e+01
0	 4.705882e+00	 8.117647e+00	 1.004148e+01
0	 4.705882e+00	 8.235294e+00	 1.003692e+01
0	 4.823529e+00	 7.647059e+00	 1.006346e+01
0	 4.823529e+00	 7.764706e+00	 1.005791e+01
0	 4.823529e+00	 7.882353e+00	 1.005259e+01
0	 4.823529e+00	 8.000000e+00	 1.004749e+01
0	 4.823529e+00	 8.117647e+00	 1.004260e+01
0	 4.823529e+00	 8.235294e+00	 1.003792e+01
0	 4.941176e+00	 7.647059e+00	 1.006470e+01
0	 4.941176e+00	 7.764706e+00	 1.005906e+01
0	 4.941176e+00	 7.882353e+00	 1.005364e+01
0	 4.941176e+00	 8.000000e+00	 1.004845e+01
0	 4.941176e+00	 8.117647e+00	 1.004347e+01
0	 4.941176e+00	 8.235294e+00	 1.003871e+01
0	 5.058824e+00	 7.647059e+00	 1.006562e+01
0	 5.058824e+00	 7.764706e+00	 1.005990e+01
0	 5.058824e+00	 7.882353e+00	 1.005441e+01
0	 5.058824e+00	 8.000000e+00	 1.004915e+01
0	 5.058824e+00	 8.117647e+00	 1.004411e+01
0	 5.058824e+00	 8.235294e+00	 1.003931e+01
0	 5.176471e+00	 7.647059e+00	 1.006623e+01
0	 5.176471e+00	 7.764706e+00	 1.006045e+01
0	 5.176471e+00	 7.882353e+00	 1.005491e+01
0	 5.176471e+00	 8.000000e+00	 1.004962e+01
0	 5.176471e+00	 8.117647e+00	 1.004456e+01
0	 5.176471e+00	 8.235294e+00	 1.003973e+01
0	 5.294118e+00	 7.647059e+00	 1.006654e+01
0	 5.294118e+00	 7.764706e+00	 1.006074e+01
0	 5.294118e+00	 7.882353e+00	 1.005519e+01
0	 5.294118e+00	 8.000000e+00	 1.004989e+01
0	 5.294118e+00	 8.117647e+00	 1.004483e+01
0	 5.294118e+00	 8.235294e+00	 1.004000e+01
0	 4.705882e+00	 8.235294e+00	 1.003692e+01
0	 4.705882e+00	 8.352941e+00	 1.003259e+01
0	 4.705882e+00	 8.470588e+00	 1.002853e+01
0	 4.705882e+00	 8.588235e+00	 1.002471e+01
0	 4.705882e+00	 8.705882e+00	 1.002113e+01
0	 4.705882e+00	 8.823529e+00	 1.001778e+01
0	 4.823529e+00	 8.235294e+00	 1.003792e+01
0	 4.823529e+00	 8.352941e+00	 1.003348e+01
0	 4.823529e+00	 8.470588e+00	 1.002931e+01
0	 4.823529e+00	 8.588235e+00	 1.002540e+01
0	 4.823529e+00	 8.705882e+00	 1.002174e+01
0	 4.823529e+00	 8.823529e+00	 1.001829e+01
0	 4.941176e+00	 8.235294e+00	 1.003871e+01
0	 4.941176e+00	 8.352941e+00	 1.003420e+01
0	 4.941176e+00	 8.470588e+00	 1.002996e+01
0	 4.941176e+00	 8.588235e+00	 1.002598e+01
0	 4.941176e+00	 8.705882e+00	 1.002224e+01
0	 4.941176e+00	 8.823529e+00	 1.001871e+01
0	 5.058824e+00	 8.235294e+00	 1.003931e+01
0	 5.058824e+00	 8.352941e+00	 1.003475e+01
0	 5.058824e+00	 8.470588e+00	 1.003047e+01
0	 5.058824e+00	 8.588235e+00	 1.002644e+01
0	 5.058824e+00	 8.705882e+00	 1.002263e+01
0	 5.058824e+00	 8.823529e+00	 1.001904e+01
0	 5.176471e+00	 8.235294e+00	 1.003973e+01
0	 5.176471e+00	 8.352941e+00	 1.003516e+01
0	 5.176471e+00	 8.470588e+00	 1.003084e+01
0	 5.176471e+00	 8.588235e+00	 1.002677e+01
0	 5.176471e+00	 8.705882e+00	 1.002292e+01
0	 5.176471e+00	 8.823529e+00	 1.001927e+01
0	 5.294118e+00	 8.235294e+00	 1.004000e+01
0	 5.294118e+00	 8.352941e+00	 1.003541e+01
0	 5.294118e+00	 8.470588e+00	 1.003108e+01
0	 5.294118e+00	 8.588235e+00	 1.002698e+01
0	 5.294118e+00	 8.705882e+00	 1.002309e+01
0	 5.294118e+00	 8.823529e+00	 1.001941e+01
0	 4.705882e+00	 8.823529e+00	 1.001778e+01
0	 4.705882e+00	 8.941176e+00	 1.001470e+01
0	 4.705882e+00	 9.058824e+00	 1.001190e+01
0	 4.705882e+00	 9.176471e+00	 1.000936e+01
0	 4.705882e+00	 9.294118e+00	 1.000706e+01
0	 4.705882e+00	 9.411765e+00	 1.000497e+01
0	 4.823529e+00	 8.823529e+00	 1.001829e+01
0	 4.823529e+00	 8.941176e+00	 1.001512e+01
0	 4.823529e+00	 9.058824e+00	 1.001223e+01
0	 4.823529e+00	 9.176471e+00	 1.000961e+01
0	 4.823529e+00	 9.294118e+00	 1.000724e+01
0	 4.823529e+00	 9.411765e+00	 1.000510e+01
0	 4.941176e+00	 8.823529e+00	 1.001871e+01
0	 4.941176e+00	 8.941176e+00	 1.001545e+01
0	 4.941176e+00	 9.058824e+00	 1.001249e+01
0	 4.941176e+00	 9.176471e+00	 1.000981e+01
0	 4.941176e+00	 9.294118e+00	 1.000739e+01
0	 4.941176e+00	 9.411765e+00	 1.000520e+01
0	 5.058824e+00	 8.823529e+00	 1.001904e+01
0	 5.058824e+00	 8.941176e+00	 1.001571e+01
0	 5.058824e+00	 9.058824e+00	 1.001269e+01
0	 5.058824e+00	 9.176471e+00	 1.000996e+01
0	 5.058824e+00	 9.294118e+00	 1.000750e+01
0	 5.058824e+00	 9.411765e+00	 1.000528e+01
0	 5.176471e+00	 8.823529e+00	 1.001927e+01
0	 5.176471e+00	 8.941176e+00	 1.001588e+01
0	 5.176471e+00	 9.058824e+00	 1.001282e+01
0	 5.176471e+00	 9.176471e+00	 1.001006e+01
0	 5.176471e+00	 9.294118e+00	 1.000757e+01
0	 5.176471e+00	 9.411765e+00	 1.000534e+01
0	 5.294118e+00	 8.823529e+00	 1.001941e+01
0	 5.294118e+00	 8.941176e+00	 1.001599e+01
0	 5.294118e+00	 9.058824e+00	 1.001290e+01
0	 5.294118e+00	 9.176471e+00	 1.001012e+01
0	 5.294118e+00	 9.294118e+00	 1.000762e+01
0	 5.294118e+00	 9.411765e+00	 1.000538e+01
0	 4.705882e+00	 9.411765e+00	 1.000497e+01
0	 4.705882e+00	 9.529412e+00	 1.000321e+01
0	 4.705882e+00	 9.647059e+00	 1.000186e+01
0	 4.705882e+00	 9.764706e+00	 1.000089e+01
0	 4.705882e+00	 9.882353e+00	 1.000026e+01
0	 4.705882e+00	 1.000000e+01	 9.999931e+00
0	 4.823529e+00	 9.411765e+00	 1.000510e+01
0	 4.823529e+00	 9.529412e+00	 1.000328e+01
0	 4.823529e+00	 9.647059e+00	 1.000190e+01
0	 4.823529e+00	 9.764706e+00	 1.000091e+01
0	 4.823529e+00	 9.882353e+00	 1.000026e+01
0	 4.823529e+00	 1.000000e+01	 9.999915e+00
0	 4.941176e+00	 9.411765e+00	 1.000520e+01
0	 4.941176e+00	 9.529412e+00	 1.000336e+01
0	 4.941176e+00	 9.647059e+00	 1.000195e+01
0	 4.941176e+00	 9.764706e+00	 1.000093e+01
0	 4.941176e+00	 9.882353e+00	 1.000026e+01
0	 4.941176e+00	 1.000000e+01	 9.999900e+00
0	 5.058824e+00	 9.411765e+00	 1.000528e+01
0	 5.058824e+00	 9.529412e+00	 1.000342e+01
0	 5.058824e+00	 9.647059e+00	 1.000199e+01
0	 5.058824e+00	 9.764706e+00	 1.000095e+01
0	 5.058824e+00	 9.882353e+00	 1.000027e+01
0	 5.058824e+00	 1.000000e+01	 9.999888e+00
0	 5.176471e+00	 9.411765e+00	 1.000534e+01
0	 5.176471e+00	 9.529412e+00	 1.000346e+01
0	 5.176471e+00	 9.647059e+00	 1.000202e+01
0	 5.176471e+00	 9.764706e+00	 1.000097e+01
0	 5.176471e+00	 9.882353e+00	 1.000027e+01
0	 5.176471e+00	 1.000000e+01	 9.999880e+00
0	 5.294118e+00	 9.411765e+00	 1.000538e+01
0	 5.294118e+00	 9.529412e+00	 1.000349e+01
0	 5.294118e+00	 9.647059e+00	 1.000204e+01
0	 5.294118e+00	 9.764706e+00	 1.000098e+01
0	 5.294118e+00	 9.882353e+00	 1.000027e+01
0	 5.294118e+00	 1.000000e+01	 9.999878e+00
0	 5.294118e+00	 0.000000e+00	 1.026379e+01
0	 5.294118e+00	 1.176471e-01	 1.027320e+01
0	 5.294118e+00	 2.352941e-01	 1.027995e+01
0	 5.294118e+00	 3.529412e-01	 1.028487e+01
0	 5.294118e+00	 4.705882e-01	 1.028882e+01
0	 5.294118e+00	 5.882353e-01	 1.029265e+01
0	 5.411765e+00	 0.000000e+00	 1.025166e+01
0	 5.411765e+00	 1.176471e-01	 1.025936e+01
0	 5.411765e+00	 2.352941e-01	 1.026601e+01
0	 5.411765e+00	 3.529412e-01	 1.027166e+01
0	 5.411765e+00	 4.705882e-01	 1.027631e+01
0	 5.411765e+00	 5.882353e-01	 1.028001e+01
0	 5.529412e+00	 0.000000e+00	 1.024168e+01
0	 5.529412e+00	 1.176471e-01	 1.024598e+01
0	 5.529412e+00	 2.352941e-01	 1.025097e+01
0	 5.529412e+00	 3.529412e-01	 1.025614e+01
0	 5.529412e+00	 4.705882e-01	 1.026099e+01
0	 5.529412e+00	 5.882353e-01	 1.026501e+01
0	 5.647059e+00	 0.000000e+00	 1.023229e+01
0	 5.647059e+00	 1.176471e-01	 1.023281e+01
0	 5.647059e+00	 2.352941e-01	 1.023543e+01
0	 5.647059e+00	 3.529412e-01	 1.023943e+01
0	 5.647059e+00	 4.705882e-01	 1.024403e+01
0	 5.647059e+00	 5.882353e-01	 1.024851e+01
0	 5.764706e+00	 0.000000e+00	 1.022193e+01
0	 5.764706e+00	 1.176471e-01	 1.021957e+01
0	 5.764706e+00	 2.352941e-01	 1.022002e+01
0	 5.764706e+00	 3.529412e-01	 1.022261e+01
0	 5.764706e+00	 4.705882e-01	 1.022662e+01
0	 5.764706e+00	 5.882353e-01	 1.023136e+01
0	 5.882353e+00	 0.000000e+00	 1.020906e+01
0	 5.882353e+00	 1.176471e-01	 1.020600e+01
0	 5.882353e+00	 2.352941e-01	 1.020536e+01
0	 5.882353e+00	 3.529412e-01	 1.020679e+01
0	 5.882353e+00	 4.705882e-01	 1.020994e+01
0	 5.882353e+00	 5.882353e-01	 1.021444e+01
0	 5.294118e+00	 5.882353e-01	 1.029265e+01
0	 5.294118e+00	 7.058824e-01	 1.029710e+01
0	 5.294118e+00	 8.235294e-01	 1.030246e+01
0	 5.294118e+00	 9.411765e-01	 1.030891e+01
0	 5.294118e+00	 1.058824e+00	 1.031663e+01
0	 5.294118e+00	 1.176471e+00	 1.032581e+01
0	 5.411765e+00	 5.882353e-01	 1.028001e+01
0	 5.411765e+00	 7.058824e-01	 1.028365e+01
0	 5.411765e+00	 8.235294e-01	 1.028822e+01
0	 5.411765e+00	 9.411765e-01	 1.029388e+01
0	 5.411765e+00	 1.058824e+00	 1.030079e+01
0	 5.411765e+00	 1.176471e+00	 1.030913e+01
0	 5.529412e+00	 5.882353e-01	 1.026501e+01
0	 5.529412e+00	 7.058824e-01	 1.026878e+01
0	 5.529412e+00	 8.235294e-01	 1.027332e+01
0	 5.529412e+00	 9.411765e-01	 1.027878e+01
0	 5.529412e+00	 1.058824e+00	 1.028530e+01
0	 5.529412e+00	 1.176471e+00	 1.029303e+01
0	 5.647059e+00	 5.882353e-01	 1.024851e+01
0	 5.647059e+00	 7.058824e-01	 1.025289e+01
0	 5.647059e+00	 8.235294e-01	 1.025780e+01
0	 5.647059e+00	 9.411765e-01	 1.026337e+01
0	 5.647059e+00	 1.058824e+00	 1.026974e+01
0	 5.647059e+00	 1.176471e+00	 1.027705e+01
0	 5.764706e+00	 5.882353e-01	 1.023136e+01
0	 5.764706e+00	 7.058824e-01	 1.023636e+01
0	 5.764706e+00	 8.235294e-01	 1.024167e+01
0	 5.764706e+00	 9.411765e-01	 1.024743e+01
0	 5.764706e+00	 1.058824e+00	 1.025374e+01
0	 5.764706e+00	 1.176471e+00	 1.026074e+01
0	 5.882353e+00	 5.882353e-01	 1.021444e+01
0	 5.882353e+00	 7.058824e-01	 1.021959e+01
0	 5.882353e+00	 8.235294e-01	 1.022498e+01
0	 5.882353e+00	 9.411765e-01	 1.023071e+01
0	 5.882353e+00	 1.058824e+00	 1.023689e+01
0	 5.882353e+00	 1.176471e+00	 1.024363e+01
0	 5.294118e+00	 1.176471e+00	 1.032581e+01
0	 5.294118e+00	 1.294118e+00	 1.033561e+01
0	 5.294118e+00	 1.411765e+00	 1.034504e+01
0	 5.294118e+00	 1.529412e+00	 1.035408e+01
0	 5.294118e+00	 1.647059e+00	 1.036272e+01
0	 5.294118e+00	 1.764706e+00	 1.037094e+01
0	 5.411765e+00	 1.176471e+00	 1.030913e+01
0	 5.411765e+00	 1.294118e+00	 1.031788e+01
0	 5.411765e+00	 1.411765e+00	 1.032602e+01
0	 5.411765e+00	 1.529412e+00	 1.033369e+01
0	 5.411765e+00	 1.647059e+00	 1.034108e+01
0	 5.411765e+00	 1.764706e+00	 1.034833e+01
0	 5.529412e+00	 1.176471e+00	 1.029303e+01
0	 5.529412e+00	 1.294118e+00	 1.030096e+01
0	 5.529412e+00	 1.411765e+00	 1.030815e+01
0	 5.529412e+00	 1.529412e+00	 1.031487e+01
0	 5.529412e+00	 1.647059e+00	 1.032140e+01
0	 5.529412e+00	 1.764706e+00	 1.032802e+01
0	 5.647059e+00	 1.176471e+00	 1.027705e+01
0	 5.647059e+00	 1.294118e+00	 1.028438e+01
0	 5.647059e+00	 1.411765e+00	 1.029095e+01
0	 5.647059e+00	 1.529412e+00	 1.029709e+01
0	 5.647059e+00	 1.647059e+00	 1.030312e+01
0	 5.647059e+00	 1.764706e+00	 1.030938e+01
0	 5.764706e+00	 1.176471e+00	 1.026074e+01
0	 5.764706e+00	 1.294118e+00	 1.026767e+01
0	 5.764706e+00	 1.411765e+00	 1.027394e+01
0	 5.764706e+00	 1.529412e+00	 1.027984e+01
0	 5.764706e+00	 1.647059e+00	 1.028570e+01
0	 5.764706e+00	 1.764706e+00	 1.029183e+01
0	 5.882353e+00	 1.176471e+00	 1.024363e+01
0	 5.882353e+00	 1.294118e+00	 1.025037e+01
0	 5.882353e+00	 1.411765e+00	 1.025663e+01
0	 5.882353e+00	 1.529412e+00	 1.026262e+01
0	 5.882353e+00	 1.647059e+00	 1.026859e+01
0	 5.882353e+00	 1.764706e+00	 1.027476e+01
0	 5.294118e+00	 1.764706e+00	 1.037094e+01
0	 5.294118e+00	 1.882353e+00	 1.037818e+01
0	 5.294118e+00	 2.000000e+00	 1.038415e+01
0	 5.294118e+00	 2.117647e+00	 1.038915e+01
0	 5.294118e+00	 2.235294e+00	 1.039352e+01
0	 5.294118e+00	 2.352941e+00	 1.039758e+01
0	 5.411765e+00	 1.764706e+00	 1.034833e+01
0	 5.411765e+00	 1.882353e+00	 1.035516e+01
0	 5.411765e+00	 2.000000e+00	 1.036124e+01
0	 5.411765e+00	 2.117647e+00	 1.036673e+01
0	 5.411765e+00	 2.235294e+00	 1.037176e+01
0	 5.411765e+00	 2.352941e+00	 1.037648e+01
0	 5.529412e+00	 1.764706e+00	 1.032802e+01
0	 5.529412e+00	 1.882353e+00	 1.033453e+01
0	 5.529412e+00	 2.000000e+00	 1.034057e+01
0	 5.529412e+00	 2.117647e+00	 1.034617e+01
0	 5.529412e+00	 2.235294e+00	 1.035133e+01
0	 5.529412e+00	 2.352941e+00	 1.035609e+01
0	 5.647059e+00	 1.764706e+00	 1.030938e+01
0	 5.647059e+00	 1.882353e+00	 1.031568e+01
0	 5.647059e+00	 2.000000e+00	 1.032156e+01
0	 5.647059e+00	 2.117647e+00	 1.032698e+01
0	 5.647059e+00	 2.235294e+00	 1.033191e+01
0	 5.647059e+00	 2.352941e+00	 1.033630e+01
0	 5.764706e+00	 1.764706e+00	 1.029183e+01
0	 5.764706e+00	 1.882353e+00	 1.029797e+01
0	 5.764706e+00	 2.000000e+00	 1.030361e+01
0	 5.764706e+00	 2.117647e+00	 1.030870e+01
0	 5.764706e+00	 2.235294e+00	 1.031319e+01
0	 5.764706e+00	 2.352941e+00	 1.031704e+01
0	 5.882353e+00	 1.764706e+00	 1.027476e+01
0	 5.882353e+00	 1.882353e+00	 1.028078e+01
0	 5.882353e+00	 2.000000e+00	 1.028614e+01
0	 5.882353e+00	 2.117647e+00	 1.029084e+01
0	 5.882353e+00	 2.235294e+00	 1.029486e+01
0	 5.882353e+00	 2.352941e+00	 1.029821e+01
0	 5.294118e+00	 2.352941e+00	 1.039758e+01
0	 5.294118e+00	 2.470588e+00	 1.040089e+01
0	 5.294118e+00	 2.588235e+00	 1.040275e+01
0	 5.294118e+00	 2.705882e+00	 1.040309e+01
0	 5.294118e+00	 2.823529e+00	 1.040183e+01
0	 5.294118e+00	 2.941176e+00	 1.039889e+01
0	 5.411765e+00	 2.352941e+00	 1.037648e+01
0	 5.411765e+00	 2.470588e+00	 1.038029e+01
0	 5.411765e+00	 2.588235e+00	 1.038247e+01
0	 5.411765e+00	 2.705882e+00	 1.038307e+01
0	 5.411765e+00	 2.823529e+00	 1.038209e+01
0	 5.411765e+00	 2.941176e+00	 1.037955e+01
0	 5.529412e+00	 2.352941e+00	 1.035609e+01
0	 5.529412e+00	 2.470588e+00	 1.035986e+01
0	 5.529412e+00	 2.588235e+00	 1.036211e+01
0	 5.529412e+00	 2.705882e+00	 1.036293e+01
0	 5.529412e+00	 2.823529e+00	 1.036239e+01
0	 5.529412e+00	 2.941176e+00	 1.036058e+01
0	 5.647059e+00	 2.352941e+00	 1.033630e+01
0	 5.647059e+00	 2.470588e+00	 1.033974e+01
0	 5.647059e+00	 2.588235e+00	 1.034192e+01
0	 5.647059e+00	 2.705882e+00	 1.034294e+01
0	 5.647059e+00	 2.823529e+00	 1.034294e+01
0	 5.647059e+00	 2.941176e+00	 1.034203e+01
0	 5.764706e+00	 2.352941e+00	 1.031704e+01
0	 5.764706e+00	 2.470588e+00	 1.032004e+01
0	 5.764706e+00	 2.588235e+00	 1.032212e+01
0	 5.764706e+00	 2.705882e+00	 1.032338e+01
0	 5.764706e+00	 2.823529e+00	 1.032394e+01
0	 5.764706e+00	 2.941176e+00	 1.032393e+01
0	 5.882353e+00	 2.352941e+00	 1.029821e+01
0	 5.882353e+00	 2.470588e+00	 1.030089e+01
0	 5.882353e+00	 2.588235e+00	 1.030296e+01
0	 5.882353e+00	 2.705882e+00	 1.030450e+01
0	 5.882353e+00	 2.823529e+00	 1.030560e+01
0	 5.882353e+00	 2.941176e+00	 1.030635e+01
0	 5.294118e+00	 2.941176e+00	 1.039889e+01
0	 5.294118e+00	 3.058824e+00	 1.039482e+01
0	 5.294118e+00	 3.176471e+00	 1.039023e+01
0	 5.294118e+00	 3.294118e+00	 1.038512e+01
0	 5.294118e+00	 3.411765e+00	 1.037954e+01
0	 5.294118e+00	 3.529412e+00	 1.037348e+01
0	 5.411765e+00	 2.941176e+00	 1.037955e+01
0	 5.411765e+00	 3.058824e+00	 1.037609e+01
0	 5.411765e+00	 3.176471e+00	 1.037228e+01
0	 5.411765e+00	 3.294118e+00	 1.036809e+01
0	 5.411765e+00	 3.411765e+00	 1.036349e+01
0	 5.411765e+00	 3.529412e+00	 1.035846e+01
0	 5.529412e+00	 2.941176e+00	 1.036058e+01
0	 5.529412e+00	 3.058824e+00	 1.035801e+01
0	 5.529412e+00	 3.176471e+00	 1.035507e+01
0	 5.529412e+00	 3.294118e+00	 1.035171e+01
0	 5.529412e+00	 3.411765e+00	 1.034786e+01
0	 5.529412e+00	 3.529412e+00	 1.034347e+01
0	 5.647059e+00	 2.941176e+00	 1.034203e+01
0	 5.647059e+00	 3.058824e+00	 1.034046e+01
0	 5.647059e+00	 3.176471e+00	 1.033840e+01
0	 5.647059e+00	 3.294118e+00	 1.033576e+01
0	 5.647059e+00	 3.411765e+00	 1.033247e+01
0	 5.647059e+00	 3.529412e+00	 1.032847e+01
0	 5.764706e+00	 2.941176e+00	 1.032393e+01
0	 5.764706e+00	 3.058824e+00	 1.032334e+01
0	 5.764706e+00	 3.176471e+00	 1.032206e+01
0	 5.764706e+00	 3.294118e+00	 1.032002e+01
0	 5.764706e+00	 3.411765e+00	 1.031717e+01
0	 5.764706e+00	 3.529412e+00	 1.031344e+01
0	 5.882353e+00	 2.941176e+00	 1.030635e+01
0	 5.882353e+00	 3.058824e+00	 1.030653e+01
0	 5.882353e+00	 3.176471e+00	 1.030585e+01
0	 5.882353e+00	 3.294118e+00	 1.030429e+01
0	 5.882353e+00	 3.411765e+00	 1.030180e+01
0	 5.882353e+00	 3.529412e+00	 1.029837e+01
0	 5.294118e+00	 3.529412e+00	 1.037348e+01
0	 5.294118e+00	 3.647059e+00	 1.036690e+01
0	 5.294118e+00	 3.764706e+00	 1.035965e+01
0	 5.294118e+00	 3.882353e+00	 1.035164e+01
0	 5.294118e+00	 4.000000e+00	 1.034278e+01
0	 5.294118e+00	 4.117647e+00	 1.033299e+01
0	 5.411765e+00	 3.529412e+00	 1.035846e+01
0	 5.411765e+00	 3.647059e+00	 1.035282e+01
0	 5.411765e+00	 3.764706e+00	 1.034638e+01
0	 5.411765e+00	 3.882353e+00	 1.033909e+01
0	 5.411765e+00	 4.000000e+00	 1.033093e+01
0	 5.411765e+00	 4.117647e+00	 1.032185e+01
0	 5.529412e+00	 3.529412e+00	 1.034347e+01
0	 5.529412e+00	 3.647059e+00	 1.033840e+01
0	 5.529412e+00	 3.764706e+00	 1.033256e+01
0	 5.529412e+00	 3.882353e+00	 1.032593e+01
0	 5.529412e+00	 4.000000e+00	 1.031852e+01
0	 5.529412e+00	 4.117647e+00	 1.031030e+01
0	 5.647059e+00	 3.529412e+00	 1.032847e+01
0	 5.647059e+00	 3.647059e+00	 1.032376e+01
0	 5.647059e+00	 3.764706e+00	 1.031839e+01
0	 5.647059e+00	 3.882353e+00	 1.031239e+01
0	 5.647059e+00	 4.000000e+00	 1.030575e+01
0	 5.647059e+00	 4.117647e+00	 1.029849e+01
0	 5.764706e+00	 3.529412e+00	 1.031344e+01
0	 5.764706e+00	 3.647059e+00	 1.030901e+01
0	 5.764706e+00	 3.764706e+00	 1.030409e+01
0	 5.764706e+00	 3.882353e+00	 1.029870e+01
0	 5.764706e+00	 4.000000e+00	 1.029284e+01
0	 5.764706e+00	 4.117647e+00	 1.028652e+01
0	 5.882353e+00	 3.529412e+00	 1.029837e+01
0	 5.882353e+00	 3.647059e+00	 1.029428e+01
0	 5.882353e+00	 3.764706e+00	 1.028985e+01
0	 5.882353e+00	 3.882353e+00	 1.028509e+01
0	 5.882353e+00	 4.000000e+00	 1.027998e+01
0	 5.882353e+00	 4.117647e+00	 1.027452e+01
0	 5.294118e+00	 4.117647e+00	 1.033299e+01
0	 5.294118e+00	 4.235294e+00	 1.032274e+01
0	 5.294118e+00	 4.352941e+00	 1.031255e+01
0	 5.294118e+00	 4.470588e+00	 1.030239e+01
0	 5.294118e+00	 4.588235e+00	 1.029224e+01
0	 5.294118e+00	 4.705882e+00	 1.028207e+01
0	 5.411765e+00	 4.117647e+00	 1.032185e+01
0	 5.411765e+00	 4.235294e+00	 1.031237e+01
0	 5.411765e+00	 4.352941e+00	 1.030300e+01
0	 5.411765e+00	 4.470588e+00	 1.029369e+01
0	 5.411765e+00	 4.588235e+00	 1.028437e+01
0	 5.411765e+00	 4.705882e+00	 1.027500e+01
0	 5.529412e+00	 4.117647e+00	 1.031030e+01
0	 5.529412e+00	 4.235294e+00	 1.030175e+01
0	 5.529412e+00	 4.352941e+00	 1.029325e+01
0	 5.529412e+00	 4.470588e+00	 1.028474e+01
0	 5.529412e+00	 4.588235e+00	 1.027615e+01
0	 5.529412e+00	 4.705882e+00	 1.026739e+01
0	 5.647059e+00	 4.117647e+00	 1.029849e+01
0	 5.647059e+00	 4.235294e+00	 1.029091e+01
0	 5.647059e+00	 4.352941e+00	 1.028329e+01
0	 5.647059e+00	 4.470588e+00	 1.027553e+01
0	 5.647059e+00	 4.588235e+00	 1.026755e+01
0	 5.647059e+00	 4.705882e+00	 1.025928e+01
0	 5.764706e+00	 4.117647e+00	 1.028652e+01
0	 5.764706e+00	 4.235294e+00	 1.027990e+01
0	 5.764706e+00	 4.352941e+00	 1.027308e+01
0	 5.764706e+00	 4.470588e+00	 1.026600e+01
0	 5.764706e+00	 4.588235e+00	 1.025857e+01
0	 5.764706e+00	 4.705882e+00	 1.025074e+01
0	 5.882353e+00	 4.117647e+00	 1.027452e+01
0	 5.882353e+00	 4.235294e+00	 1.026872e+01
0	 5.882353e+00	 4.352941e+00	 1.026261e+01
0	 5.882353e+00	 4.470588e+00	 1.025612e+01
0	 5.882353e+00	 4.588235e+00	 1.024920e+01
0	 5.882353e+00	 4.705882e+00	 1.024181e+01
0	 5.294118e+00	 4.705882e+00	 1.028207e+01
0	 5.294118e+00	 4.823529e+00	 1.027190e+01
0	 5.294118e+00	 4.941176e+00	 1.026173e+01
0	 5.294118e+00	 5.058824e+00	 1.025150e+01
0	 5.294118e+00	 5.176471e+00	 1.024114e+01
0	 5.294118e+00	 5.294118e+00	 1.023059e+01
0	 5.411765e+00	 4.705882e+00	 1.027500e+01
0	 5.411765e+00	 4.823529e+00	 1.026554e+01
0	 5.411765e+00	 4.941176e+00	 1.025596e+01
0	 5.411765e+00	 5.058824e+00	 1.024624e+01
0	 5.411765e+00	 5.176471e+00	 1.023635e+01
0	 5.411765e+00	 5.294118e+00	 1.022625e+01
0	 5.529412e+00	 4.705882e+00	 1.026739e+01
0	 5.529412e+00	 4.823529e+00	 1.025846e+01
0	 5.529412e+00	 4.941176e+00	 1.024939e+01
0	 5.529412e+00	 5.058824e+00	 1.024018e+01
0	 5.529412e+00	 5.176471e+00	 1.023081e+01
0	 5.529412e+00	 5.294118e+00	 1.022126e+01
0	 5.647059e+00	 4.705882e+00	 1.025928e+01
0	 5.647059e+00	 4.823529e+00	 1.025079e+01
0	 5.647059e+00	 4.941176e+00	 1.024219e+01
0	 5.647059e+00	 5.058824e+00	 1.023349e+01
0	 5.647059e+00	 5.176471e+00	 1.022468e+01
0	 5.647059e+00	 5.294118e+00	 1.021575e+01
0	 5.764706e+00	 4.705882e+00	 1.025074e+01
0	 5.764706e+00	 4.823529e+00	 1.024265e+01
0	 5.764706e+00	 4.941176e+00	 1.023453e+01
0	 5.764706e+00	 5.058824e+00	 1.022635e+01
0	 5.764706e+00	 5.176471e+00	 1.021812e+01
0	 5.764706e+00	 5.294118e+00	 1.020982e+01
0	 5.882353e+00	 4.705882e+00	 1.024181e+01
0	 5.882353e+00	 4.823529e+00	 1.023417e+01
0	 5.882353e+00	 4.941176e+00	 1.022655e+01
0	 5.882353e+00	 5.058824e+00	 1.021893e+01
0	 5.882353e+00	 5.176471e+00	 1.021128e+01
0	 5.882353e+00	 5.294118e+00	 1.020359e+01
0	 5.294118e+00	 5.294118e+00	 1.023059e+01
0	 5.294118e+00	 5.411765e+00	 1.022008e+01
0	 5.294118e+00	 5.529412e+00	 1.020988e+01
0	 5.294118e+00	 5.647059e+00	 1.019996e+01
0	 5.294118e+00	 5.764706e+00	 1.019032e+01
0	 5.294118e+00	 5.882353e+00	 1.018094e+01
0	 5.411765e+00	 5.294118e+00	 1.022625e+01
0	 5.411765e+00	 5.411765e+00	 1.021620e+01
0	 5.411765e+00	 5.529412e+00	 1.020646e+01
0	 5.411765e+00	 5.647059e+00	 1.019701e+01
0	 5.411765e+00	 5.764706e+00	 1.018780e+01
0	 5.411765e+00	 5.882353e+00	 1.017881e+01
0	 5.529412e+00	 5.294118e+00	 1.022126e+01
0	 5.529412e+00	 5.411765e+00	 1.021177e+01
0	 5.529412e+00	 5.529412e+00	 1.020256e+01
0	 5.529412e+00	 5.647059e+00	 1.019357e+01
0	 5.529412e+00	 5.764706e+00	 1.018476e+01
0	 5.529412e+00	 5.882353e+00	 1.017610e+01
0	 5.647059e+00	 5.294118e+00	 1.021575e+01
0	 5.647059e+00	 5.411765e+00	 1.020687e+01
0	 5.647059e+00	 5.529412e+00	 1.019820e+01
0	 5.647059e+00	 5.647059e+00	 1.018967e+01
0	 5.647059e+00	 5.764706e+00	 1.018124e+01
0	 5.647059e+00	 5.882353e+00	 1.017286e+01
0	 5.764706e+00	 5.294118e+00	 1.020982e+01
0	 5.764706e+00	 5.411765e+00	 1.020156e+01
0	 5.764706e+00	 5.529412e+00	 1.019340e+01
0	 5.764706e+00	 5.647059e+00	 1.018531e+01
0	 5.764706e+00	 5.764706e+00	 1.017724e+01
0	 5.764706e+00	 5.882353e+00	 1.016914e+01
0	 5.882353e+00	 5.294118e+00	 1.020359e+01
0	 5.882353e+00	 5.411765e+00	 1.019589e+01
0	 5.882353e+00	 5.529412e+00	 1.018821e+01
0	 5.882353e+00	 5.647059e+00	 1.018053e+01
0	 5.882353e+00	 5.764706e+00	 1.017280e+01
0	 5.882353e+00	 5.882353e+00	 1.016500e+01
0	 5.294118e+00	 5.882353e+00	 1.018094e+01
0	 5.294118e+00	 6.000000e+00	 1.017180e+01
0	 5.294118e+00	 6.117647e+00	 1.016287e+01
0	 5.294118e+00	 6.235294e+00	 1.015412e+01
0	 5.294118e+00	 6.352941e+00	 1.014552e+01
0	 5.294118e+00	 6.470588e+00	 1.013705e+01
0	 5.411765e+00	 5.882353e+00	 1.017881e+01
0	 5.411765e+00	 6.000000e+00	 1.016999e+01
0	 5.411765e+00	 6.117647e+00	 1.016132e+01
0	 5.411765e+00	 6.235294e+00	 1.015279e+01
0	 5.411765e+00	 6.352941e+00	 1.014438e+01
0	 5.411765e+00	 6.470588e+00	 1.013608e+01
0	 5.529412e+00	 5.882353e+00	 1.017610e+01
0	 5.529412e+00	 6.000000e+00	 1.016755e+01
0	 5.529412e+00	 6.117647e+00	 1.015913e+01
0	 5.529412e+00	 6.235294e+00	 1.015083e+01
0	 5.529412e+00	 6.352941e+00	 1.014266e+01
0	 5.529412e+00	 6.470588e+00	 1.013459e+01
0	 5.647059e+00	 5.882353e+00	 1.017286e+01
0	 5.647059e+00	 6.000000e+00	 1.016455e+01
0	 5.647059e+00	 6.117647e+00	 1.015639e+01
0	 5.647059e+00	 6.235294e+00	 1.014835e+01
0	 5.647059e+00	 6.352941e+00	 1.014044e+01
0	 5.647059e+00	 6.470588e+00	 1.013267e+01
0	 5.764706e+00	 5.882353e+00	 1.016914e+01
0	 5.764706e+00	 6.000000e+00	 1.016109e+01
0	 5.764706e+00	 6.117647e+00	 1.015319e+01
0	 5.764706e+00	 6.235294e+00	 1.014544e+01
0	 5.764706e+00	 6.352941e+00	 1.013783e+01
0	 5.764706e+00	 6.470588e+00	 1.013037e+01
0	 5.882353e+00	 5.882353e+00	 1.016500e+01
0	 5.882353e+00	 6.000000e+00	 1.015723e+01
0	 5.882353e+00	 6.117647e+00	 1.014964e+01
0	 5.882353e+00	 6.235294e+00	 1.014221e+01
0	 5.882353e+00	 6.352941e+00	 1.013492e+01
0	 5.882353e+00	 6.470588e+00	 1.012776e+01
0	 5.294118e+00	 6.470588e+00	 1.013705e+01
0	 5.294118e+00	 6.588235e+00	 1.012879e+01
0	 5.294118e+00	 6.705882e+00	 1.012083e+01
0	 5.294118e+00	 6.823529e+00	 1.011315e+01
0	 5.294118e+00	 6.941176e+00	 1.010577e+01
0	 5.294118e+00	 7.058824e+00	 1.009866e+01
0	 5.411765e+00	 6.470588e+00	 1.013608e+01
0	 5.411765e+00	 6.588235e+00	 1.012798e+01
0	 5.411765e+00	 6.705882e+00	 1.012018e+01
0	 5.411765e+00	 6.823529e+00	 1.011267e+01
0	 5.411765e+00	 6.941176e+00	 1.010543e+01
0	 5.411765e+00	 7.058824e+00	 1.009844e+01
0	 5.529412e+00	 6.470588e+00	 1.013459e+01
0	 5.529412e+00	 6.588235e+00	 1.012673e+01
0	 5.529412e+00	 6.705882e+00	 1.011915e+01
0	 5.529412e+00	 6.823529e+00	 1.011182e+01
0	 5.529412e+00	 6.941176e+00	 1.010473e+01
0	 5.529412e+00	 7.058824e+00	 1.009785e+01
0	 5.647059e+00	 6.470588e+00	 1.013267e+01
0	 5.647059e+00	 6.588235e+00	 1.012508e+01
0	 5.647059e+00	 6.705882e+00	 1.011773e+01
0	 5.647059e+00	 6.823529e+00	 1.011060e+01
0	 5.647059e+00	 6.941176e+00	 1.010367e+01
0	 5.647059e+00	 7.058824e+00	 1.009689e+01
0	 5.764706e+00	 6.470588e+00	 1.013037e+01
0	 5.764706e+00	 6.588235e+00	 1.012307e+01
0	 5.764706e+00	 6.705882e+00	 1.011598e+01
0	 5.764706e+00	 6.823529e+00	 1.010905e+01
0	 5.764706e+00	 6.941176e+00	 1.010227e+01
0	 5.764706e+00	 7.058824e+00	 1.009562e+01
0	 5.882353e+00	 6.470588e+00	 1.012776e+01
0	 5.882353e+00	 6.588235e+00	 1.012075e+01
0	 5.882353e+00	 6.705882e+00	 1.011390e+01
0	 5.882353e+00	 6.823529e+00	 1.010717e+01
0	 5.882353e+00	 6.941176e+00	 1.010056e+01
0	 5.882353e+00	 7.058824e+00	 1.009405e+01
0	 5.294118e+00	 7.058824e+00	 1.009866e+01
0	 5.294118e+00	 7.176471e+00	 1.009181e+01
0	 5.294118e+00	 7.294118e+00	 1.008519e+01
0	 5.294118e+00	 7.411765e+00	 1.007878e+01
0	 5.294118e+00	 7.529412e+00	 1.007257e+01
0	 5.294118e+00	 7.647059e+00	 1.006654e+01
0	 5.411765e+00	 7.058824e+00	 1.009844e+01
0	 5.411765e+00	 7.176471e+00	 1.009168e+01
0	 5.411765e+00	 7.294118e+00	 1.008512e+01
0	 5.411765e+00	 7.411765e+00	 1.007875e+01
0	 5.411765e+00	 7.529412e+00	 1.007257e+01
0	 5.411765e+00	 7.647059e+00	 1.006656e+01
0	 5.529412e+00	 7.058824e+00	 1.009785e+01
0	 5.529412e+00	 7.176471e+00	 1.009116e+01
0	 5.529412e+00	 7.294118e+00	 1.008467e+01
0	 5.529412e+00	 7.411765e+00	 1.007837e+01
0	 5.529412e+00	 7.529412e+00	 1.007225e+01
0	 5.529412e+00	 7.647059e+00	 1.006630e+01
0	 5.647059e+00	 7.058824e+00	 1.009689e+01
0	 5.647059e+00	 7.176471e+00	 1.009030e+01
0	 5.647059e+00	 7.294118e+00	 1.008389e+01
0	 5.647059e+00	 7.411765e+00	 1.007768e+01
0	 5.647059e+00	 7.529412e+00	 1.007165e+01
0	 5.647059e+00	 7.647059e+00	 1.006580e+01
0	 5.764706e+00	 7.058824e+00	 1.009562e+01
0	 5.764706e+00	 7.176471e+00	 1.008912e+01
0	 5.764706e+00	 7.294118e+00	 1.008283e+01
0	 5.764706e+00	 7.411765e+00	 1.007673e+01
0	 5.764706e+00	 7.529412e+00	 1.007081e+01
0	 5.764706e+00	 7.647059e+00	 1.006508e+01
0	 5.882353e+00	 7.058824e+00	 1.009405e+01
0	 5.882353e+00	 7.176471e+00	 1.008768e+01
0	 5.882353e+00	 7.294118e+00	 1.008152e+01
0	 5.882353e+00	 7.411765e+00	 1.007556e+01
0	 5.882353e+00	 7.529412e+00	 1.006978e+01
0	 5.882353e+00	 7.647059e+00	 1.006418e+01
0	 5.294118e+00	 7.647059e+00	 1.006654e+01
0	 5.294118e+00	 7.764706e+00	 1.006074e+01
0	 5.294118e+00	 7.882353e+00	 1.005519e+01
0	 5.294118e+00	 8.000000e+00	 1.004989e+01
0	 5.294118e+00	 8.117647e+00	 1.004483e+01
0	 5.294118e+00	 8.235294e+00	 1.004000e+01
0	 5.411765e+00	 7.647059e+00	 1.006656e+01
0	 5.411765e+00	 7.764706e+00	 1.006078e+01
0	 5.411765e+00	 7.882353e+00	 1.005525e+01
0	 5.411765e+00	 8.000000e+00	 1.004997e+01
0	 5.411765e+00	 8.117647e+00	 1.004493e+01
0	 5.411765e+00	 8.235294e+00	 1.004011e+01
0	 5.529412e+00	 7.647059e+00	 1.006630e+01
0	 5.529412e+00	 7.764706e+00	 1.006058e+01
0	 5.529412e+00	 7.882353e+00	 1.005511e+01
0	 5.529412e+00	 8.000000e+00	 1.004987e+01
0	 5.529412e+00	 8.117647e+00	 1.004486e+01
0	 5.529412e+00	 8.235294e+00	 1.004005e+01
0	 5.647059e+00	 7.647059e+00	 1.006580e+01
0	 5.647059e+00	 7.764706e+00	 1.006017e+01
0	 5.647059e+00	 7.882353e+00	 1.005477e+01
0	 5.647059e+00	 8.000000e+00	 1.004960e+01
0	 5.647059e+00	 8.117647e+00	 1.004462e+01
0	 5.647059e+00	 8.235294e+00	 1.003984e+01
0	 5.764706e+00	 7.647059e+00	 1.006508e+01
0	 5.764706e+00	 7.764706e+00	 1.005956e+01
0	 5.764706e+00	 7.882353e+00	 1.005425e+01
0	 5.764706e+00	 8.000000e+00	 1.004915e+01
0	 5.764706e+00	 8.117647e+00	 1.004423e+01
0	 5.764706e+00	 8.235294e+00	 1.003948e+01
0	 5.882353e+00	 7.647059e+00	 1.006418e+01
0	 5.882353e+00	 7.764706e+00	 1.005877e+01
0	 5.882353e+00	 7.882353e+00	 1.005356e+01
0	 5.882353e+00	 8.000000e+00	 1.004854e+01
0	 5.882353e+00	 8.117647e+00	 1.004369e+01
0	 5.882353e+00	 8.235294e+00	 1.003899e+01
0	 5.294118e+00	 8.235294e+00	 1.004000e+01
0	 5.294118e+00	 8.352941e+00	 1.003541e+01
0	 5.294118e+00	 8.470588e+00	 1.003108e+01
0	 5.294118e+00	 8.588235e+00	 1.002698e+01
0	 5.294118e+00	 8.705882e+00	 1.002309e+01
0	 5.294118e+00	 8.823529e+00	 1.001941e+01
0	 5.411765e+00	 8.235294e+00	 1.004011e+01
0	 5.411765e+00	 8.352941e+00	 1.003552e+01
0	 5.411765e+00	 8.470588e+00	 1.003117e+01
0	 5.411765e+00	 8.588235e+00	 1.002705e+01
0	 5.411765e+00	 8.705882e+00	 1.002315e+01
0	 5.411765e+00	 8.823529e+00	 1.001945e+01
0	 5.529412e+00	 8.235294e+00	 1.004005e+01
0	 5.529412e+00	 8.352941e+00	 1.003546e+01
0	 5.529412e+00	 8.470588e+00	 1.003112e+01
0	 5.529412e+00	 8.588235e+00	 1.002701e+01
0	 5.529412e+00	 8.705882e+00	 1.002311e+01
0	 5.529412e+00	 8.823529e+00	 1.001941e+01
0	 5.647059e+00	 8.235294e+00	 1.003984e+01
0	 5.647059e+00	 8.352941e+00	 1.003526e+01
0	 5.647059e+00	 8.470588e+00	 1.003094e+01
0	 5.647059e+00	 8.588235e+00	 1.002685e+01
0	 5.647059e+00	 8.705882e+00	 1.002297e+01
0	 5.647059e+00	 8.823529e+00	 1.001931e+01
0	 5.764706e+00	 8.235294e+00	 1.003948e+01
0	 5.764706e+00	 8.352941e+00	 1.003494e+01
0	 5.764706e+00	 8.470588e+00	 1.003065e+01
0	 5.764706e+00	 8.588235e+00	 1.002659e+01
0	 5.764706e+00	 8.705882e+00	 1.002276e+01
0	 5.764706e+00	 8.823529e+00	 1.001913e+01
0	 5.882353e+00	 8.235294e+00	 1.003899e+01
0	 5.882353e+00	 8.352941e+00	 1.003450e+01
0	 5.882353e+00	 8.470588e+00	 1.003026e+01
0	 5.882353e+00	 8.588235e+00	 1.002626e+01
0	 5.882353e+00	 8.705882e+00	 1.002248e+01
0	 5.882353e+00	 8.823529e+00	 1.001891e+01
0	 5.294118e+00	 8.823529e+00	 1.001941e+01
0	 5.294118e+00	 8.941176e+00	 1.001599e+01
0	 5.294118e+00	 9.058824e+00	 1.001290e+01
0	 5.294118e+00	 9.176471e+00	 1.001012e+01
0	 5.294118e+00	 9.294118e+00	 1.000762e+01
0	 5.294118e+00	 9.411765e+00	 1.000538e+01
0	 5.411765e+00	 8.823529e+00	 1.001945e+01
0	 5.411765e+00	 8.941176e+00	 1.001602e+01
0	 5.411765e+00	 9.058824e+00	 1.001293e+01
0	 5.411765e+00	 9.176471e+00	 1.001014e+01
0	 5.411765e+00	 9.294118e+00	 1.000764e+01
0	 5.411765e+00	 9.411765e+00	 1.000539e+01
0	 5.529412e+00	 8.823529e+00	 1.001941e+01
0	 5.529412e+00	 8.941176e+00	 1.001599e+01
0	 5.529412e+00	 9.058824e+00	 1.001291e+01
0	 5.529412e+00	 9.176471e+00	 1.001013e+01
0	 5.529412e+00	 9.294118e+00	 1.000763e+01
0	 5.529412e+00	 9.411765e+00	 1.000539e+01
0	 5.647059e+00	 8.823529e+00	 1.001931e+01
0	 5.647059e+00	 8.941176e+00	 1.001591e+01
0	 5.647059e+00	 9.058824e+00	 1.001284e+01
0	 5.647059e+00	 9.176471e+00	 1.001008e+01
0	 5.647059e+00	 9.294118e+00	 1.000760e+01
0	 5.647059e+00	 9.411765e+00	 1.000536e+01
0	 5.764706e+00	 8.823529e+00	 1.001913e+01
0	 5.764706e+00	 8.941176e+00	 1.001577e+01
0	 5.764706e+00	 9.058824e+00	 1.001274e+01
0	 5.764706e+00	 9.176471e+00	 1.001000e+01
0	 5.764706e+00	 9.294118e+00	 1.000753e+01
0	 5.764706e+00	 9.411765e+00	 1.000531e+01
0	 5.882353e+00	 8.823529e+00	 1.001891e+01
0	 5.882353e+00	 8.941176e+00	 1.001559e+01
0	 5.882353e+00	 9.058824e+00	 1.001259e+01
0	 5.882353e+00	 9.176471e+00	 1.000989e+01
0	 5.882353e+00	 9.294118e+00	 1.000744e+01
0	 5.882353e+00	 9.411765e+00	 1.000524e+01
0	 5.294118e+00	 9.411765e+00	 1.000538e+01
0	 5.294118e+00	 9.529412e+00	 1.000349e+01
0	 5.294118e+00	 9.647059e+00	 1.000204e+01
0	 5.294118e+00	 9.764706e+00	 1.000098e+01
0	 5.294118e+00	 9.882353e+00	 1.000027e+01
0	 5.294118e+00	 1.000000e+01	 9.999878e+00
0	 5.411765e+00	 9.411765e+00	 1.000539e+01
0	 5.411765e+00	 9.529412e+00	 1.000350e+01
0	 5.411765e+00	 9.647059e+00	 1.000204e+01
0	 5.411765e+00	 9.764706e+00	 1.000097e+01
0	 5.411765e+00	 9.882353e+00	 1.000027e+01
0	 5.411765e+00	 1.000000e+01	 9.999883e+00
0	 5.529412e+00	 9.411765e+00	 1.000539e+01
0	 5.529412e+00	 9.529412e+00	 1.000349e+01
0	 5.529412e+00	 9.647059e+00	 1.000202e+01
0	 5.529412e+00	 9.764706e+00	 1.000096e+01
0	 5.529412e+00	 9.882353e+00	 1.000026e+01
0	 5.529412e+00	 1.000000e+01	 9.999893e+00
0	 5.647059e+00	 9.411765e+00	 1.000536e+01
0	 5.647059e+00	 9.529412e+00	 1.000346e+01
0	 5.647059e+00	 9.647059e+00	 1.000200e+01
0	 5.647059e+00	 9.764706e+00	 1.000095e+01
0	 5.647059e+00	 9.882353e+00	 1.000026e+01
0	 5.647059e+00	 1.000000e+01	 9.999906e+00
0	 5.764706e+00	 9.411765e+00	 1.000531e+01
0	 5.764706e+00	 9.529412e+00	 1.000342e+01
0	 5.764706e+00	 9.647059e+00	 1.000198e+01
0	 5.764706e+00	 9.764706e+00	 1.000093e+01
0	 5.764706e+00	 9.882353e+00	 1.000026e+01
0	 5.764706e+00	 1.000000e+01	 9.999921e+00
0	 5.882353e+00	 9.411765e+00	 1.000524e+01
0	 5.882353e+00	 9.529412e+00	 1.000338e+01
0	 5.882353e+00	 9.647059e+00	 1.000195e+01
0	 5.882353e+00	 9.764706e+00	 1.000092e+01
0	 5.882353e+00	 9.882353e+00	 1.000026e+01
0	 5.882353e+00	 1.000000e+01	 9.999934e+00
0	 5.882353e+00	 0.000000e+00	 1.020906e+01
0	 5.882353e+00	 1.176471e-01	 1.020600e+01
0	 5.882353e+00	 2.352941e-01	 1.020536e+01
0	 5.882353e+00	 3.529412e-01	 1.020679e+01
0	 5.882353e+00	 4.705882e-01	 1.020994e+01
0	 5.882353e+00	 5.882353e-01	 1.021444e+01
0	 6.000000e+00	 0.000000e+00	 1.019412e+01
0	 6.000000e+00	 1.176471e-01	 1.019220e+01
0	 6.000000e+00	 2.352941e-01	 1.019165e+01
0	 6.000000e+00	 3.529412e-01	 1.019253e+01
0	 6.000000e+00	 4.705882e-01	 1.019490e+01
0	 6.000000e+00	 5.882353e-01	 1.019883e+01
0	 6.117647e+00	 0.000000e+00	 1.017898e+01
0	 6.117647e+00	 1.176471e-01	 1.017854e+01
0	 6.117647e+00	 2.352941e-01	 1.017857e+01
0	 6.117647e+00	 3.529412e-01	 1.017939e+01
0	 6.117647e+00	 4.705882e-01	 1.018134e+01
0	 6.117647e+00	 5.882353e-01	 1.018473e+01
0	 6.235294e+00	 0.000000e+00	 1.016419e+01
0	 6.235294e+00	 1.176471e-01	 1.016512e+01
0	 6.235294e+00	 2.352941e-01	 1.016590e+01
0	 6.235294e+00	 3.529412e-01	 1.016696e+01
0	 6.235294e+00	 4.705882e-01	 1.016876e+01
0	 6.235294e+00	 5.882353e-01	 1.017173e+01
0	 6.352941e+00	 0.000000e+00	 1.015031e+01
0	 6.352941e+00	 1.176471e-01	 1.015207e+01
0	 6.352941e+00	 2.352941e-01	 1.015344e+01
0	 6.352941e+00	 3.529412e-01	 1.015485e+01
0	 6.352941e+00	 4.705882e-01	 1.015670e+01
0	 6.352941e+00	 5.882353e-01	 1.015941e+01
0	 6.470588e+00	 0.000000e+00	 1.013789e+01
0	 6.470588e+00	 1.176471e-01	 1.013949e+01
0	 6.470588e+00	 2.352941e-01	 1.014100e+01
0	 6.470588e+00	 3.529412e-01	 1.014265e+01
0	 6.470588e+00	 4.705882e-01	 1.014468e+01
0	 6.470588e+00	 5.882353e-01	 1.014734e+01
0	 5.882353e+00	 5.882353e-01	 1.021444e+01
0	 5.882353e+00	 7.058824e-01	 1.021959e+01
0	 5.882353e+00	 8.235294e-01	 1.022498e+01
0	 5.882353e+00	 9.411765e-01	 1.023071e+01
0	 5.882353e+00	 1.058824e+00	 1.023689e+01
0	 5.882353e+00	 1.176471e+00	 1.024363e+01
0	 6.000000e+00	 5.882353e-01	 1.019883e+01
0	 6.000000e+00	 7.058824e-01	 1.020364e+01
0	 6.000000e+00	 8.235294e-01	 1.020870e+01
0	 6.000000e+00	 9.411765e-01	 1.021412e+01
0	 6.000000e+00	 1.058824e+00	 1.021999e+01
0	 6.000000e+00	 1.176471e+00	 1.022642e+01
0	 6.117647e+00	 5.882353e-01	 1.018473e+01
0	 6.117647e+00	 7.058824e-01	 1.018906e+01
0	 6.117647e+00	 8.235294e-01	 1.019367e+01
0	 6.117647e+00	 9.411765e-01	 1.019865e+01
0	 6.117647e+00	 1.058824e+00	 1.020408e+01
0	 6.117647e+00	 1.176471e+00	 1.021006e+01
0	 6.235294e+00	 5.882353e-01	 1.017173e+01
0	 6.235294e+00	 7.058824e-01	 1.017556e+01
0	 6.235294e+00	 8.235294e-01	 1.017967e+01
0	 6.235294e+00	 9.411765e-01	 1.018415e+01
0	 6.235294e+00	 1.058824e+00	 1.018909e+01
0	 6.235294e+00	 1.176471e+00	 1.019456e+01
0	 6.352941e+00	 5.882353e-01	 1.015941e+01
0	 6.352941e+00	 7.058824e-01	 1.016280e+01
0	 6.352941e+00	 8.235294e-01	 1.016647e+01
0	 6.352941e+00	 9.411765e-01	 1.017049e+01
0	 6.352941e+00	 1.058824e+00	 1.017494e+01
0	 6.352941e+00	 1.176471e+00	 1.017989e+01
0	 6.470588e+00	 5.882353e-01	 1.014734e+01
0	 6.470588e+00	 7.058824e-01	 1.015048e+01
0	 6.470588e+00	 8.235294e-01	 1.015385e+01
0	 6.470588e+00	 9.411765e-01	 1.015752e+01
0	 6.470588e+00	 1.058824e+00	 1.016157e+01
0	 6.470588e+00	 1.176471e+00	 1.016606e+01
0	 5.882353e+00	 1.176471e+00	 1.024363e+01
0	 5.882353e+00	 1.294118e+00	 1.025037e+01
0	 5.882353e+00	 1.411765e+00	 1.025663e+01
0	 5.882353e+00	 1.529412e+00	 1.026262e+01
0	 5.882353e+00	 1.647059e+00	 1.026859e+01
0	 5.882353e+00	 1.764706e+00	 1.027476e+01
0	 6.000000e+00	 1.176471e+00	 1.022642e+01
0	 6.000000e+00	 1.294118e+00	 1.023296e+01
0	 6.000000e+00	 1.411765e+00	 1.023923e+01
0	 6.000000e+00	 1.529412e+00	 1.024534e+01
0	 6.000000e+00	 1.647059e+00	 1.025143e+01
0	 6.000000e+00	 1.764706e+00	 1.025763e+01
0	 6.117647e+00	 1.176471e+00	 1.021006e+01
0	 6.117647e+00	 1.294118e+00	 1.021626e+01
0	 6.117647e+00	 1.411765e+00	 1.022234e+01
0	 6.117647e+00	 1.529412e+00	 1.022834e+01
0	 6.117647e+00	 1.647059e+00	 1.023435e+01
0	 6.117647e+00	 1.764706e+00	 1.024042e+01
0	 6.235294e+00	 1.176471e+00	 1.019456e+01
0	 6.235294e+00	 1.294118e+00	 1.020031e+01
0	 6.235294e+00	 1.411765e+00	 1.020604e+01
0	 6.235294e+00	 1.529412e+00	 1.021177e+01
0	 6.235294e+00	 1.647059e+00	 1.021754e+01
0	 6.235294e+00	 1.764706e+00	 1.022335e+01
0	 6.352941e+00	 1.176471e+00	 1.017989e+01
0	 6.352941e+00	 1.294118e+00	 1.018514e+01
0	 6.352941e+00	 1.411765e+00	 1.019042e+01
0	 6.352941e+00	 1.529412e+00	 1.019576e+01
0	 6.352941e+00	 1.647059e+00	 1.020115e+01
0	 6.352941e+00	 1.764706e+00	 1.020661e+01
0	 6.470588e+00	 1.176471e+00	 1.016606e+01
0	 6.470588e+00	 1.294118e+00	 1.017080e+01
0	 6.470588e+00	 1.411765e+00	 1.017558e+01
0	 6.470588e+00	 1.529412e+00	 1.018042e+01
0	 6.470588e+00	 1.647059e+00	 1.018535e+01
0	 6.470588e+00	 1.764706e+00	 1.019041e+01
0	 5.882353e+00	 1.764706e+00	 1.027476e+01
0	 5.882353e+00	 1.882353e+00	 1.028078e+01
0	 5.882353e+00	 2.000000e+00	 1.028614e+01
0	 5.882353e+00	 2.117647e+00	 1.029084e+01
0	 5.882353e+00	 2.235294e+00	 1.029486e+01
0	 5.882353e+00	 2.352941e+00	 1.029821e+01
0	 6.000000e+00	 1.764706e+00	 1.025763e+01
0	 6.000000e+00	 1.882353e+00	 1.026352e+01
0	 6.000000e+00	 2.000000e+00	 1.026863e+01
0	 6.000000e+00	 2.117647e+00	 1.027302e+01
0	 6.000000e+00	 2.235294e+00	 1.027676e+01
0	 6.000000e+00	 2.352941e+00	 1.027990e+01
0	 6.117647e+00	 1.764706e+00	 1.024042e+01
0	 6.117647e+00	 1.882353e+00	 1.024612e+01
0	 6.117647e+00	 2.000000e+00	 1.025105e+01
0	 6.117647e+00	 2.117647e+00	 1.025530e+01
0	 6.117647e+00	 2.235294e+00	 1.025899e+01
0	 6.117647e+00	 2.352941e+00	 1.026223e+01
0	 6.235294e+00	 1.764706e+00	 1.022335e+01
0	 6.235294e+00	 1.882353e+00	 1.022881e+01
0	 6.235294e+00	 2.000000e+00	 1.023359e+01
0	 6.235294e+00	 2.117647e+00	 1.023782e+01
0	 6.235294e+00	 2.235294e+00	 1.024161e+01
0	 6.235294e+00	 2.352941e+00	 1.024511e+01
0	 6.352941e+00	 1.764706e+00	 1.020661e+01
0	 6.352941e+00	 1.882353e+00	 1.021181e+01
0	 6.352941e+00	 2.000000e+00	 1.021647e+01
0	 6.352941e+00	 2.117647e+00	 1.022072e+01
0	 6.352941e+00	 2.235294e+00	 1.022468e+01
0	 6.352941e+00	 2.352941e+00	 1.022849e+01
0	 6.470588e+00	 1.764706e+00	 1.019041e+01
0	 6.470588e+00	 1.882353e+00	 1.019532e+01
0	 6.470588e+00	 2.000000e+00	 1.019987e+01
0	 6.470588e+00	 2.117647e+00	 1.020414e+01
0	 6.470588e+00	 2.235294e+00	 1.020825e+01
0	 6.470588e+00	 2.352941e+00	 1.021230e+01
0	 5.882353e+00	 2.352941e+00	 1.029821e+01
0	 5.882353e+00	 2.470588e+00	 1.030089e+01
0	 5.882353e+00	 2.588235e+00	 1.030296e+01
0	 5.882353e+00	 2.705882e+00	 1.030450e+01
0	 5.882353e+00	 2.823529e+00	 1.030560e+01
0	 5.882353e+00	 2.941176e+00	 1.030635e+01
0	 6.000000e+00	 2.352941e+00	 1.027990e+01
0	 6.000000e+00	 2.470588e+00	 1.028255e+01
0	 6.000000e+00	 2.588235e+00	 1.028476e+01
0	 6.000000e+00	 2.705882e+00	 1.028660e+01
0	 6.000000e+00	 2.823529e+00	 1.028809e+01
0	 6.000000e+00	 2.941176e+00	 1.028930e+01
0	 6.117647e+00	 2.352941e+00	 1.026223e+01
0	 6.117647e+00	 2.470588e+00	 1.026507e+01
0	 6.117647e+00	 2.588235e+00	 1.026752e+01
0	 6.117647e+00	 2.705882e+00	 1.026960e+01
0	 6.117647e+00	 2.823529e+00	 1.027132e+01
0	 6.117647e+00	 2.941176e+00	 1.027270e+01
0	 6.235294e+00	 2.352941e+00	 1.024511e+01
0	 6.235294e+00	 2.470588e+00	 1.024827e+01
0	 6.235294e+00	 2.588235e+00	 1.025099e+01
0	 6.235294e+00	 2.705882e+00	 1.025326e+01
0	 6.235294e+00	 2.823529e+00	 1.025509e+01
0	 6.235294e+00	 2.941176e+00	 1.025648e+01
0	 6.352941e+00	 2.352941e+00	 1.022849e+01
0	 6.352941e+00	 2.470588e+00	 1.023199e+01
0	 6.352941e+00	 2.588235e+00	 1.023494e+01
0	 6.352941e+00	 2.705882e+00	 1.023734e+01
0	 6.352941e+00	 2.823529e+00	 1.023921e+01
0	 6.352941e+00	 2.941176e+00	 1.024054e+01
0	 6.470588e+00	 2.352941e+00	 1.021230e+01
0	 6.470588e+00	 2.470588e+00	 1.021603e+01
0	 6.470588e+00	 2.588235e+00	 1.021913e+01
0	 6.470588e+00	 2.705882e+00	 1.022161e+01
0	 6.470588e+00	 2.823529e+00	 1.022350e+01
0	 6.470588e+00	 2.941176e+00	 1.022479e+01
0	 5.882353e+00	 2.941176e+00	 1.030635e+01
0	 5.882353e+00	 3.058824e+00	 1.030653e+01
0	 5.882353e+00	 3.176471e+00	 1.030585e+01
0	 5.882353e+00	 3.294118e+00	 1.030429e+01
0	 5.882353e+00	 3.411765e+00	 1.030180e+01
0	 5.882353e+00	 3.529412e+00	 1.029837e+01
0	 6.000000e+00	 2.941176e+00	 1.028930e+01
0	 6.000000e+00	 3.058824e+00	 1.028991e+01
0	 6.000000e+00	 3.176471e+00	 1.028962e+01
0	 6.000000e+00	 3.294118e+00	 1.028843e+01
0	 6.000000e+00	 3.411765e+00	 1.028632e+01
0	 6.000000e+00	 3.529412e+00	 1.028331e+01
0	 6.117647e+00	 2.941176e+00	 1.027270e+01
0	 6.117647e+00	 3.058824e+00	 1.027349e+01
0	 6.117647e+00	 3.176471e+00	 1.027343e+01
0	 6.117647e+00	 3.294118e+00	 1.027254e+01
0	 6.117647e+00	 3.411765e+00	 1.027085e+01
0	 6.117647e+00	 3.529412e+00	 1.026838e+01
0	 6.235294e+00	 2.941176e+00	 1.025648e+01
0	 6.235294e+00	 3.058824e+00	 1.025728e+01
0	 6.235294e+00	 3.176471e+00	 1.025736e+01
0	 6.235294e+00	 3.294118e+00	 1.025675e+01
0	 6.235294e+00	 3.411765e+00	 1.025550e+01
0	 6.235294e+00	 3.529412e+00	 1.025362e+01
0	 6.352941e+00	 2.941176e+00	 1.024054e+01
0	 6.352941e+00	 3.058824e+00	 1.024130e+01
0	 6.352941e+00	 3.176471e+00	 1.024150e+01
0	 6.352941e+00	 3.294118e+00	 1.024117e+01
0	 6.352941e+00	 3.411765e+00	 1.024034e+01
0	 6.352941e+00	 3.529412e+00	 1.023906e+01
0	 6.470588e+00	 2.941176e+00	 1.022479e+01
0	 6.470588e+00	 3.058824e+00	 1.022558e+01
0	 6.470588e+00	 3.176471e+00	 1.022594e+01
0	 6.470588e+00	 3.294118e+00	 1.022591e+01
0	 6.470588e+00	 3.411765e+00	 1.022549e+01
0	 6.470588e+00	 3.529412e+00	 1.022473e+01
0	 5.882353e+00	 3.529412e+00	 1.029837e+01
0	 5.882353e+00	 3.647059e+00	 1.029428e+01
0	 5.882353e+00	 3.764706e+00	 1.028985e+01
0	 5.882353e+00	 3.882353e+00	 1.028509e+01
0	 5.882353e+00	 4.000000e+00	 1.027998e+01
0	 5.882353e+00	 4.117647e+00	 1.027452e+01
0	 6.000000e+00	 3.529412e+00	 1.028331e+01
0	 6.000000e+00	 3.647059e+00	 1.027972e+01
0	 6.000000e+00	 3.764706e+00	 1.027587e+01
0	 6.000000e+00	 3.882353e+00	 1.027174e+01
0	 6.000000e+00	 4.000000e+00	 1.026730e+01
0	 6.000000e+00	 4.117647e+00	 1.026251e+01
0	 6.117647e+00	 3.529412e+00	 1.026838e+01
0	 6.117647e+00	 3.647059e+00	 1.026540e+01
0	 6.117647e+00	 3.764706e+00	 1.026216e+01
0	 6.117647e+00	 3.882353e+00	 1.025861e+01
0	 6.117647e+00	 4.000000e+00	 1.025472e+01
0	 6.117647e+00	 4.117647e+00	 1.025044e+01
0	 6.235294e+00	 3.529412e+00	 1.025362e+01
0	 6.235294e+00	 3.647059e+00	 1.025129e+01
0	 6.235294e+00	 3.764706e+00	 1.024864e+01
0	 6.235294e+00	 3.882353e+00	 1.024562e+01
0	 6.235294e+00	 4.000000e+00	 1.024219e+01
0	 6.235294e+00	 4.117647e+00	 1.023831e+01
0	 6.352941e+00	 3.529412e+00	 1.023906e+01
0	 6.352941e+00	 3.647059e+00	 1.023736e+01
0	 6.352941e+00	 3.764706e+00	 1.023525e+01
0	 6.352941e+00	 3.882353e+00	 1.023270e+01
0	 6.352941e+00	 4.000000e+00	 1.022967e+01
0	 6.352941e+00	 4.117647e+00	 1.022612e+01
0	 6.470588e+00	 3.529412e+00	 1.022473e+01
0	 6.470588e+00	 3.647059e+00	 1.022356e+01
0	 6.470588e+00	 3.764706e+00	 1.022191e+01
0	 6.470588e+00	 3.882353e+00	 1.021977e+01
0	 6.470588e+00	 4.000000e+00	 1.021711e+01
0	 6.470588e+00	 4.117647e+00	 1.021390e+01
0	 5.882353e+00	 4.117647e+00	 1.027452e+01
0	 5.882353e+00	 4.235294e+00	 1.026872e+01
0	 5.882353e+00	 4.352941e+00	 1.026261e+01
0	 5.882353e+00	 4.470588e+00	 1.025612e+01
0	 5.882353e+00	 4.588235e+00	 1.024920e+01
0	 5.882353e+00	 4.705882e+00	 1.024181e+01
0	 6.000000e+00	 4.117647e+00	 1.026251e+01
0	 6.000000e+00	 4.235294e+00	 1.025735e+01
0	 6.000000e+00	 4.352941e+00	 1.025181e+01
0	 6.000000e+00	 4.470588e+00	 1.024584e+01
0	 6.000000e+00	 4.588235e+00	 1.023944e+01
0	 6.000000e+00	 4.705882e+00	 1.023255e+01
0	 6.117647e+00	 4.117647e+00	 1.025044e+01
0	 6.117647e+00	 4.235294e+00	 1.024576e+01
0	 6.117647e+00	 4.352941e+00	 1.024069e+01
0	 6.117647e+00	 4.470588e+00	 1.023522e+01
0	 6.117647e+00	 4.588235e+00	 1.022934e+01
0	 6.117647e+00	 4.705882e+00	 1.022304e+01
0	 6.235294e+00	 4.117647e+00	 1.023831e+01
0	 6.235294e+00	 4.235294e+00	 1.023401e+01
0	 6.235294e+00	 4.352941e+00	 1.022936e+01
0	 6.235294e+00	 4.470588e+00	 1.022437e+01
0	 6.235294e+00	 4.588235e+00	 1.021903e+01
0	 6.235294e+00	 4.705882e+00	 1.021334e+01
0	 6.352941e+00	 4.117647e+00	 1.022612e+01
0	 6.352941e+00	 4.235294e+00	 1.022217e+01
0	 6.352941e+00	 4.352941e+00	 1.021793e+01
0	 6.352941e+00	 4.470588e+00	 1.021341e+01
0	 6.352941e+00	 4.588235e+00	 1.020861e+01
0	 6.352941e+00	 4.705882e+00	 1.020352e+01
0	 6.470588e+00	 4.117647e+00	 1.021390e+01
0	 6.470588e+00	 4.235294e+00	 1.021030e+01
0	 6.470588e+00	 4.352941e+00	 1.020649e+01
0	 6.470588e+00	 4.470588e+00	 1.020245e+01
0	 6.470588e+00	 4.588235e+00	 1.019818e+01
0	 6.470588e+00	 4.705882e+00	 1.019365e+01
0	 5.882353e+00	 4.705882e+00	 1.024181e+01
0	 5.882353e+00	 4.823529e+00	 1.023417e+01
0	 5.882353e+00	 4.941176e+00	 1.022655e+01
0	 5.882353e+00	 5.058824e+00	 1.021893e+01
0	 5.882353e+00	 5.176471e+00	 1.021128e+01
0	 5.882353e+00	 5.294118e+00	 1.020359e+01
0	 6.000000e+00	 4.705882e+00	 1.023255e+01
0	 6.000000e+00	 4.823529e+00	 1.022546e+01
0	 6.000000e+00	 4.941176e+00	 1.021839e+01
0	 6.000000e+00	 5.058824e+00	 1.021132e+01
0	 6.000000e+00	 5.176471e+00	 1.020422e+01
0	 6.000000e+00	 5.294118e+00	 1.019706e+01
0	 6.117647e+00	 4.705882e+00	 1.022304e+01
0	 6.117647e+00	 4.823529e+00	 1.021654e+01
0	 6.117647e+00	 4.941176e+00	 1.021004e+01
0	 6.117647e+00	 5.058824e+00	 1.020352e+01
0	 6.117647e+00	 5.176471e+00	 1.019691e+01
0	 6.117647e+00	 5.294118e+00	 1.019019e+01
0	 6.235294e+00	 4.705882e+00	 1.021334e+01
0	 6.235294e+00	 4.823529e+00	 1.020745e+01
0	 6.235294e+00	 4.941176e+00	 1.020153e+01
0	 6.235294e+00	 5.058824e+00	 1.019551e+01
0	 6.235294e+00	 5.176471e+00	 1.018936e+01
0	 6.235294e+00	 5.294118e+00	 1.018304e+01
0	 6.352941e+00	 4.705882e+00	 1.020352e+01
0	 6.352941e+00	 4.823529e+00	 1.019824e+01
0	 6.352941e+00	 4.941176e+00	 1.019285e+01
0	 6.352941e+00	 5.058824e+00	 1.018732e+01
0	 6.352941e+00	 5.176471e+00	 1.018159e+01
0	 6.352941e+00	 5.294118e+00	 1.017564e+01
0	 6.470588e+00	 4.705882e+00	 1.019365e+01
0	 6.470588e+00	 4.823529e+00	 1.018892e+01
0	 6.470588e+00	 4.941176e+00	 1.018403e+01
0	 6.470588e+00	 5.058824e+00	 1.017893e+01
0	 6.470588e+00	 5.176471e+00	 1.017361e+01
0	 6.470588e+00	 5.294118e+00	 1.016803e+01
0	 5.882353e+00	 5.294118e+00	 1.020359e+01
0	 5.882353e+00	 5.411765e+00	 1.019589e+01
0	 5.882353e+00	 5.529412e+00	 1.018821e+01
0	 5.882353e+00	 5.647059e+00	 1.018053e+01
0	 5.882353e+00	 5.764706e+00	 1.017280e+01
0	 5.882353e+00	 5.882353e+00	 1.016500e+01
0	 6.000000e+00	 5.294118e+00	 1.019706e+01
0	 6.000000e+00	 5.411765e+00	 1.018984e+01
0	 6.000000e+00	 5.529412e+00	 1.018259e+01
0	 6.000000e+00	 5.647059e+00	 1.017529e+01
0	 6.000000e+00	 5.764706e+00	 1.016792e+01
0	 6.000000e+00	 5.882353e+00	 1.016046e+01
0	 6.117647e+00	 5.294118e+00	 1.019019e+01
0	 6.117647e+00	 5.411765e+00	 1.018338e+01
0	 6.117647e+00	 5.529412e+00	 1.017653e+01
0	 6.117647e+00	 5.647059e+00	 1.016961e+01
0	 6.117647e+00	 5.764706e+00	 1.016263e+01
0	 6.117647e+00	 5.882353e+00	 1.015556e+01
0	 6.235294e+00	 5.294118e+00	 1.018304e+01
0	 6.235294e+00	 5.411765e+00	 1.017660e+01
0	 6.235294e+00	 5.529412e+00	 1.017012e+01
0	 6.235294e+00	 5.647059e+00	 1.016359e+01
0	 6.235294e+00	 5.764706e+00	 1.015701e+01
0	 6.235294e+00	 5.882353e+00	 1.015036e+01
0	 6.352941e+00	 5.294118e+00	 1.017564e+01
0	 6.352941e+00	 5.411765e+00	 1.016955e+01
0	 6.352941e+00	 5.529412e+00	 1.016344e+01
0	 6.352941e+00	 5.647059e+00	 1.015731e+01
0	 6.352941e+00	 5.764706e+00	 1.015114e+01
0	 6.352941e+00	 5.882353e+00	 1.014492e+01
0	 6.470588e+00	 5.294118e+00	 1.016803e+01
0	 6.470588e+00	 5.411765e+00	 1.016232e+01
0	 6.470588e+00	 5.529412e+00	 1.015660e+01
0	 6.470588e+00	 5.647059e+00	 1.015087e+01
0	 6.470588e+00	 5.764706e+00	 1.014512e+01
0	 6.470588e+00	 5.882353e+00	 1.013932e+01
0	 5.882353e+00	 5.882353e+00	 1.016500e+01
0	 5.882353e+00	 6.000000e+00	 1.015723e+01
0	 5.882353e+00	 6.117647e+00	 1.014964e+01
0	 5.882353e+00	 6.235294e+00	 1.014221e+01
0	 5.882353e+00	 6.352941e+00	 1.013492e+01
0	 5.882353e+00	 6.470588e+00	 1.012776e+01
0	 6.000000e+00	 5.882353e+00	 1.016046e+01
0	 6.000000e+00	 6.000000e+00	 1.015304e+01
0	 6.000000e+00	 6.117647e+00	 1.014579e+01
0	 6.000000e+00	 6.235294e+00	 1.013869e+01
0	 6.000000e+00	 6.352941e+00	 1.013172e+01
0	 6.000000e+00	 6.470588e+00	 1.012486e+01
0	 6.117647e+00	 5.882353e+00	 1.015556e+01
0	 6.117647e+00	 6.000000e+00	 1.014853e+01
0	 6.117647e+00	 6.117647e+00	 1.014164e+01
0	 6.117647e+00	 6.235294e+00	 1.013488e+01
0	 6.117647e+00	 6.352941e+00	 1.012822e+01
0	 6.117647e+00	 6.470588e+00	 1.012163e+01
0	 6.235294e+00	 5.882353e+00	 1.015036e+01
0	 6.235294e+00	 6.000000e+00	 1.014374e+01
0	 6.235294e+00	 6.117647e+00	 1.013723e+01
0	 6.235294e+00	 6.235294e+00	 1.013081e+01
0	 6.235294e+00	 6.352941e+00	 1.012445e+01
0	 6.235294e+00	 6.470588e+00	 1.011811e+01
0	 6.352941e+00	 5.882353e+00	 1.014492e+01
0	 6.352941e+00	 6.000000e+00	 1.013872e+01
0	 6.352941e+00	 6.117647e+00	 1.013259e+01
0	 6.352941e+00	 6.235294e+00	 1.012650e+01
0	 6.352941e+00	 6.352941e+00	 1.012043e+01
0	 6.352941e+00	 6.470588e+00	 1.011435e+01
0	 6.470588e+00	 5.882353e+00	 1.013932e+01
0	 6.470588e+00	 6.000000e+00	 1.013352e+01
0	 6.470588e+00	 6.117647e+00	 1.012774e+01
0	 6.470588e+00	 6.235294e+00	 1.012197e+01
0	 6.470588e+00	 6.352941e+00	 1.011619e+01
0	 6.470588e+00	 6.470588e+00	 1.011038e+01
0	 5.882353e+00	 6.470588e+00	 1.012776e+01
0	 5.882353e+00	 6.588235e+00	 1.012075e+01
0	 5.882353e+00	 6.705882e+00	 1.011390e+01
0	 5.882353e+00	 6.823529e+00	 1.010717e+01
0	 5.882353e+00	 6.941176e+00	 1.010056e+01
0	 5.882353e+00	 7.058824e+00	 1.009405e+01
0	 6.000000e+00	 6.470588e+00	 1.012486e+01
0	 6.000000e+00	 6.588235e+00	 1.011811e+01
0	 6.000000e+00	 6.705882e+00	 1.011148e+01
0	 6.000000e+00	 6.823529e+00	 1.010496e+01
0	 6.000000e+00	 6.941176e+00	 1.009853e+01
0	 6.000000e+00	 7.058824e+00	 1.009219e+01
0	 6.117647e+00	 6.470588e+00	 1.012163e+01
0	 6.117647e+00	 6.588235e+00	 1.011512e+01
0	 6.117647e+00	 6.705882e+00	 1.010872e+01
0	 6.117647e+00	 6.823529e+00	 1.010241e+01
0	 6.117647e+00	 6.941176e+00	 1.009620e+01
0	 6.117647e+00	 7.058824e+00	 1.009007e+01
0	 6.235294e+00	 6.470588e+00	 1.011811e+01
0	 6.235294e+00	 6.588235e+00	 1.011184e+01
0	 6.235294e+00	 6.705882e+00	 1.010567e+01
0	 6.235294e+00	 6.823529e+00	 1.009959e+01
0	 6.235294e+00	 6.941176e+00	 1.009361e+01
0	 6.235294e+00	 7.058824e+00	 1.008771e+01
0	 6.352941e+00	 6.470588e+00	 1.011435e+01
0	 6.352941e+00	 6.588235e+00	 1.010832e+01
0	 6.352941e+00	 6.705882e+00	 1.010239e+01
0	 6.352941e+00	 6.823529e+00	 1.009656e+01
0	 6.352941e+00	 6.941176e+00	 1.009082e+01
0	 6.352941e+00	 7.058824e+00	 1.008517e+01
0	 6.470588e+00	 6.470588e+00	 1.011038e+01
0	 6.470588e+00	 6.588235e+00	 1.010460e+01
0	 6.470588e+00	 6.705882e+00	 1.009893e+01
0	 6.470588e+00	 6.823529e+00	 1.009336e+01
0	 6.470588e+00	 6.941176e+00	 1.008788e+01
0	 6.470588e+00	 7.058824e+00	 1.008248e+01
0	 5.882353e+00	 7.058824e+00	 1.009405e+01
0	 5.882353e+00	 7.176471e+00	 1.008768e+01
0	 5.882353e+00	 7.294118e+00	 1.008152e+01
0	 5.882353e+00	 7.411765e+00	 1.007556e+01
0	 5.882353e+00	 7.529412e+00	 1.006978e+01
0	 5.882353e+00	 7.647059e+00	 1.006418e+01
0	 6.000000e+00	 7.058824e+00	 1.009219e+01
0	 6.000000e+00	 7.176471e+00	 1.008599e+01
0	 6.000000e+00	 7.294118e+00	 1.008000e+01
0	 6.000000e+00	 7.411765e+00	 1.007420e+01
0	 6.000000e+00	 7.529412e+00	 1.006857e+01
0	 6.000000e+00	 7.647059e+00	 1.006310e+01
0	 6.117647e+00	 7.058824e+00	 1.009007e+01
0	 6.117647e+00	 7.176471e+00	 1.008407e+01
0	 6.117647e+00	 7.294118e+00	 1.007827e+01
0	 6.117647e+00	 7.411765e+00	 1.007263e+01
0	 6.117647e+00	 7.529412e+00	 1.006716e+01
0	 6.117647e+00	 7.647059e+00	 1.006182e+01
0	 6.235294e+00	 7.058824e+00	 1.008771e+01
0	 6.235294e+00	 7.176471e+00	 1.008194e+01
0	 6.235294e+00	 7.294118e+00	 1.007634e+01
0	 6.235294e+00	 7.411765e+00	 1.007089e+01
0	 6.235294e+00	 7.529412e+00	 1.006557e+01
0	 6.235294e+00	 7.647059e+00	 1.006038e+01
0	 6.352941e+00	 7.058824e+00	 1.008517e+01
0	 6.352941e+00	 7.176471e+00	 1.007963e+01
0	 6.352941e+00	 7.294118e+00	 1.007424e+01
0	 6.352941e+00	 7.411765e+00	 1.006898e+01
0	 6.352941e+00	 7.529412e+00	 1.006383e+01
0	 6.352941e+00	 7.647059e+00	 1.005878e+01
0	 6.470588e+00	 7.058824e+00	 1.008248e+01
0	 6.470588e+00	 7.176471e+00	 1.007717e+01
0	 6.470588e+00	 7.294118e+00	 1.007200e+01
0	 6.470588e+00	 7.411765e+00	 1.006693e+01
0	 6.470588e+00	 7.529412e+00	 1.006195e+01
0	 6.470588e+00	 7.647059e+00	 1.005706e+01
0	 5.882353e+00	 7.647059e+00	 1.006418e+01
0	 5.882353e+00	 7.764706e+00	 1.005877e+01
0	 5.882353e+00	 7.882353e+00	 1.005356e+01
0	 5.882353e+00	 8.000000e+00	 1.004854e+01
0	 5.882353e+00	 8.117647e+00	 1.004369e+01
0	 5.882353e+00	 8.235294e+00	 1.003899e+01
0	 6.000000e+00	 7.647059e+00	 1.006310e+01
0	 6.000000e+00	 7.764706e+00	 1.005780e+01
0	 6.000000e+00	 7.882353e+00	 1.005269e+01
0	 6.000000e+00	 8.000000e+00	 1.004776e+01
0	 6.000000e+00	 8.117647e+00	 1.004299e+01
0	 6.000000e+00	 8.235294e+00	 1.003837e+01
0	 6.117647e+00	 7.647059e+00	 1.006182e+01
0	 6.117647e+00	 7.764706e+00	 1.005664e+01
0	 6.117647e+00	 7.882353e+00	 1.005165e+01
0	 6.117647e+00	 8.000000e+00	 1.004682e+01
0	 6.117647e+00	 8.117647e+00	 1.004215e+01
0	 6.117647e+00	 8.235294e+00	 1.003763e+01
0	 6.235294e+00	 7.647059e+00	 1.006038e+01
0	 6.235294e+00	 7.764706e+00	 1.005532e+01
0	 6.235294e+00	 7.882353e+00	 1.005045e+01
0	 6.235294e+00	 8.000000e+00	 1.004574e+01
0	 6.235294e+00	 8.117647e+00	 1.004119e+01
0	 6.235294e+00	 8.235294e+00	 1.003678e+01
0	 6.352941e+00	 7.647059e+00	 1.005878e+01
0	 6.352941e+00	 7.764706e+00	 1.005386e+01
0	 6.352941e+00	 7.882353e+00	 1.004912e+01
0	 6.352941e+00	 8.000000e+00	 1.004454e+01
0	 6.352941e+00	 8.117647e+00	 1.004012e+01
0	 6.352941e+00	 8.235294e+00	 1.003585e+01
0	 6.470588e+00	 7.647059e+00	 1.005706e+01
0	 6.470588e+00	 7.764706e+00	 1.005229e+01
0	 6.470588e+00	 7.882353e+00	 1.004769e+01
0	 6.470588e+00	 8.000000e+00	 1.004326e+01
0	 6.470588e+00	 8.117647e+00	 1.003898e+01
0	 6.470588e+00	 8.235294e+00	 1.003484e+01
0	 5.882353e+00	 8.235294e+00	 1.003899e+01
0	 5.882353e+00	 8.352941e+00	 1.003450e+01
0	 5.882353e+00	 8.470588e+00	 1.003026e+01
0	 5.882353e+00	 8.588235e+00	 1.002626e+01
0	 5.882353e+00	 8.705882e+00	 1.002248e+01
0	 5.882353e+00	 8.823529e+00	 1.001891e+01
0	 6.000000e+00	 8.235294e+00	 1.003837e+01
0	 6.000000e+00	 8.352941e+00	 1.003395e+01
0	 6.000000e+00	 8.470588e+00	 1.002979e+01
0	 6.000000e+00	 8.588235e+00	 1.002586e+01
0	 6.000000e+00	 8.705882e+00	 1.002214e+01
0	 6.000000e+00	 8.823529e+00	 1.001862e+01
0	 6.117647e+00	 8.235294e+00	 1.003763e+01
0	 6.117647e+00	 8.352941e+00	 1.003331e+01
0	 6.117647e+00	 8.470588e+00	 1.002923e+01
0	 6.117647e+00	 8.588235e+00	 1.002538e+01
0	 6.117647e+00	 8.705882e+00	 1.002173e+01
0	 6.117647e+00	 8.823529e+00	 1.001828e+01
0	 6.235294e+00	 8.235294e+00	 1.003678e+01
0	 6.235294e+00	 8.352941e+00	 1.003257e+01
0	 6.235294e+00	 8.470588e+00	 1.002859e+01
0	 6.235294e+00	 8.588235e+00	 1.002483e+01
0	 6.235294e+00	 8.705882e+00	 1.002127e+01
0	 6.235294e+00	 8.823529e+00	 1.001788e+01
0	 6.352941e+00	 8.235294e+00	 1.003585e+01
0	 6.352941e+00	 8.352941e+00	 1.003175e+01
0	 6.352941e+00	 8.470588e+00	 1.002788e+01
0	 6.352941e+00	 8.588235e+00	 1.002422e+01
0	 6.352941e+00	 8.705882e+00	 1.002074e+01
0	 6.352941e+00	 8.823529e+00	 1.001743e+01
0	 6.470588e+00	 8.235294e+00	 1.003484e+01
0	 6.470588e+00	 8.352941e+00	 1.003087e+01
0	 6.470588e+00	 8.470588e+00	 1.002712e+01
0	 6.470588e+00	 8.588235e+00	 1.002356e+01
0	 6.470588e+00	 8.705882e+00	 1.002018e+01
0	 6.470588e+00	 8.823529e+00	 1.001695e+01
0	 5.882353e+00	 8.823529e+00	 1.001891e+01
0	 5.882353e+00	 8.941176e+00	 1.001559e+01
0	 5.882353e+00	 9.058824e+00	 1.001259e+01
0	 5.882353e+00	 9.176471e+00	 1.000989e+01
0	 5.882353e+00	 9.294118e+00	 1.000744e+01
0	 5.882353e+00	 9.411765e+00	 1.000524e+01
0	 6.000000e+00	 8.823529e+00	 1.001862e+01
0	 6.000000e+00	 8.941176e+00	 1.001536e+01
0	 6.000000e+00	 9.058824e+00	 1.001240e+01
0	 6.000000e+00	 9.176471e+00	 1.000973e+01
0	 6.000000e+00	 9.294118e+00	 1.000732e+01
0	 6.000000e+00	 9.411765e+00	 1.000515e+01
0	 6.117647e+00	 8.823529e+00	 1.001828e+01
0	 6.117647e+00	 8.941176e+00	 1.001506e+01
0	 6.117647e+00	 9.058824e+00	 1.001216e+01
0	 6.117647e+00	 9.176471e+00	 1.000954e+01
0	 6.117647e+00	 9.294118e+00	 1.000717e+01
0	 6.117647e+00	 9.411765e+00	 1.000505e+01
0	 6.235294e+00	 8.823529e+00	 1.001788e+01
0	 6.235294e+00	 8.941176e+00	 1.001473e+01
0	 6.235294e+00	 9.058824e+00	 1.001188e+01
0	 6.235294e+00	 9.176471e+00	 1.000931e+01
0	 6.235294e+00	 9.294118e+00	 1.000700e+01
0	 6.235294e+00	 9.411765e+00	 1.000493e+01
0	 6.352941e+00	 8.823529e+00	 1.001743e+01
0	 6.352941e+00	 8.941176e+00	 1.001435e+01
0	 6.352941e+00	 9.058824e+00	 1.001157e+01
0	 6.352941e+00	 9.176471e+00	 1.000907e+01
0	 6.352941e+00	 9.294118e+00	 1.000682e+01
0	 6.352941e+00	 9.411765e+00	 1.000480e+01
0	 6.470588e+00	 8.823529e+00	 1.001695e+01
0	 6.470588e+00	 8.941176e+00	 1.001395e+01
0	 6.470588e+00	 9.058824e+00	 1.001125e+01
0	 6.470588e+00	 9.176471e+00	 1.000881e+01
0	 6.470588e+00	 9.294118e+00	 1.000663e+01
0	 6.470588e+00	 9.411765e+00	 1.000467e+01
0	 5.882353e+00	 9.411765e+00	 1.000524e+01
0	 5.882353e+00	 9.529412e+00	 1.000338e+01
0	 5.882353e+00	 9.647059e+00	 1.000195e+01
0	 5.882353e+00	 9.764706e+00	 1.000092e+01
0	 5.882353e+00	 9.882353e+00	 1.000026e+01
0	 5.882353e+00	 1.000000e+01	 9.999934e+00
0	 6.000000e+00	 9.411765e+00	 1.000515e+01
0	 6.000000e+00	 9.529412e+00	 1.000332e+01
0	 6.000000e+00	 9.647059e+00	 1.000192e+01
0	 6.000000e+00	 9.764706e+00	 1.000091e+01
0	 6.000000e+00	 9.882353e+00	 1.000026e+01
0	 6.000000e+00	 1.000000e+01	 9.999937e+00
0	 6.117647e+00	 9.411765e+00	 1.000505e+01
0	 6.117647e+00	 9.529412e+00	 1.000325e+01
0	 6.117647e+00	 9.647059e+00	 1.000188e+01
0	 6.117647e+00	 9.764706e+00	 1.000089e+01
0	 6.117647e+00	 9.882353e+00	 1.000025e+01
0	 6.117647e+00	 1.000000e+01	 9.999928e+00
0	 6.235294e+00	 9.411765e+00	 1.000493e+01
0	 6.235294e+00	 9.529412e+00	 1.000318e+01
0	 6.235294e+00	 9.647059e+00	 1.000183e+01
0	 6.235294e+00	 9.764706e+00	 1.000087e+01
0	 6.235294e+00	 9.882353e+00	 1.000024e+01
0	 6.235294e+00	 1.000000e+01	 9.999915e+00
0	 6.352941e+00	 9.411765e+00	 1.000480e+01
0	 6.352941e+00	 9.529412e+00	 1.000310e+01
0	 6.352941e+00	 9.647059e+00	 1.000179e+01
0	 6.352941e+00	 9.764706e+00	 1.000084e+01
0	 6.352941e+00	 9.882353e+00	 1.000023e+01
0	 6.352941e+00	 1.000000e+01	 9.999908e+00
0	 6.470588e+00	 9.411765e+00	 1.000467e+01
0	 6.470588e+00	 9.529412e+00	 1.000302e+01
0	 6.470588e+00	 9.647059e+00	 1.000175e+01
0	 6.470588e+00	 9.764706e+00	 1.000083e+01
0	 6.470588e+00	 9.882353e+00	 1.000023e+01
0	 6.470588e+00	 1.000000e+01	 9.999916e+00
0	 6.470588e+00	 0.000000e+00	 1.013789e+01
0	 6.470588e+00	 1.176471e-01	 1.013949e+01
0	 6.470588e+00	 2.352941e-01	 1.014100e+01
0	 6.470588e+00	 3.529412e-01	 1.014265e+01
0	 6.470588e+00	 4.705882e-01	 1.014468e+01
0	 6.470588e+00	 5.882353e-01	 1.014734e+01
0	 6.588235e+00	 0.000000e+00	 1.012644e+01
0	 6.588235e+00	 1.176471e-01	 1.012725e+01
0	 6.588235e+00	 2.352941e-01	 1.012850e+01
0	 6.588235e+00	 3.529412e-01	 1.013019e+01
0	 6.588235e+00	 4.705882e-01	 1.013237e+01
0	 6.588235e+00	 5.882353e-01	 1.013503e+01
0	 6.705882e+00	 0.000000e+00	 1.011496e+01
0	 6.705882e+00	 1.176471e-01	 1.011510e+01
0	 6.705882e+00	 2.352941e-01	 1.011604e+01
0	 6.705882e+00	 3.529412e-01	 1.011764e+01
0	 6.705882e+00	 4.705882e-01	 1.011979e+01
0	 6.705882e+00	 5.882353e-01	 1.012238e+01
0	 6.823529e+00	 0.000000e+00	 1.010327e+01
0	 6.823529e+00	 1.176471e-01	 1.010297e+01
0	 6.823529e+00	 2.352941e-01	 1.010363e+01
0	 6.823529e+00	 3.529412e-01	 1.010505e+01
0	 6.823529e+00	 4.705882e-01	 1.010707e+01
0	 6.823529e+00	 5.882353e-01	 1.010950e+01
0	 6.941176e+00	 0.000000e+00	 1.009121e+01
0	 6.941176e+00	 1.176471e-01	 1.009079e+01
0	 6.941176e+00	 2.352941e-01	 1.009128e+01
0	 6.941176e+00	 3.529412e-01	 1.009252e+01
0	 6.941176e+00	 4.705882e-01	 1.009432e+01
0	 6.941176e+00	 5.882353e-01	 1.009653e+01
0	 7.058824e+00	 0.000000e+00	 1.007861e+01
0	 7.058824e+00	 1.176471e-01	 1.007849e+01
0	 7.058824e+00	 2.352941e-01	 1.007901e+01
0	 7.058824e+00	 3.529412e-01	 1.008010e+01
0	 7.058824e+00	 4.705882e-01	 1.008165e+01
0	 7.058824e+00	 5.882353e-01	 1.008358e+01
0	 6.470588e+00	 5.882353e-01	 1.014734e+01
0	 6.470588e+00	 7.058824e-01	 1.015048e+01
0	 6.470588e+00	 8.235294e-01	 1.015385e+01
0	 6.470588e+00	 9.411765e-01	 1.015752e+01
0	 6.470588e+00	 1.058824e+00	 1.016157e+01
0	 6.470588e+00	 1.176471e+00	 1.016606e+01
0	 6.588235e+00	 5.882353e-01	 1.013503e+01
0	 6.588235e+00	 7.058824e-01	 1.013804e+01
0	 6.588235e+00	 8.235294e-01	 1.014123e+01
0	 6.588235e+00	 9.411765e-01	 1.014469e+01
0	 6.588235e+00	 1.058824e+00	 1.014847e+01
0	 6.588235e+00	 1.176471e+00	 1.015263e+01
0	 6.705882e+00	 5.882353e-01	 1.012238e+01
0	 6.705882e+00	 7.058824e-01	 1.012523e+01
0	 6.705882e+00	 8.235294e-01	 1.012827e+01
0	 6.705882e+00	 9.411765e-01	 1.013157e+01
0	 6.705882e+00	 1.058824e+00	 1.013518e+01
0	 6.705882e+00	 1.176471e+00	 1.013915e+01
0	 6.823529e+00	 5.882353e-01	 1.010950e+01
0	 6.823529e+00	 7.058824e-01	 1.011217e+01
0	 6.823529e+00	 8.235294e-01	 1.011507e+01
0	 6.823529e+00	 9.411765e-01	 1.011824e+01
0	 6.823529e+00	 1.058824e+00	 1.012174e+01
0	 6.823529e+00	 1.176471e+00	 1.012562e+01
0	 6.941176e+00	 5.882353e-01	 1.009653e+01
0	 6.941176e+00	 7.058824e-01	 1.009899e+01
0	 6.941176e+00	 8.235294e-01	 1.010173e+01
0	 6.941176e+00	 9.411765e-01	 1.010479e+01
0	 6.941176e+00	 1.058824e+00	 1.010820e+01
0	 6.941176e+00	 1.176471e+00	 1.011201e+01
0	 7.058824e+00	 5.882353e-01	 1.008358e+01
0	 7.058824e+00	 7.058824e-01	 1.008582e+01
0	 7.058824e+00	 8.235294e-01	 1.008838e+01
0	 7.058824e+00	 9.411765e-01	 1.009129e+01
0	 7.058824e+00	 1.058824e+00	 1.009459e+01
0	 7.058824e+00	 1.176471e+00	 1.009833e+01
0	 6.470588e+00	 1.176471e+00	 1.016606e+01
0	 6.470588e+00	 1.294118e+00	 1.017080e+01
0	 6.470588e+00	 1.411765e+00	 1.017558e+01
0	 6.470588e+00	 1.529412e+00	 1.018042e+01
0	 6.470588e+00	 1.647059e+00	 1.018535e+01
0	 6.470588e+00	 1.764706e+00	 1.019041e+01
0	 6.588235e+00	 1.176471e+00	 1.015263e+01
0	 6.588235e+00	 1.294118e+00	 1.015698e+01
0	 6.588235e+00	 1.411765e+00	 1.016133e+01
0	 6.588235e+00	 1.529412e+00	 1.016574e+01
0	 6.588235e+00	 1.647059e+00	 1.017027e+01
0	 6.588235e+00	 1.764706e+00	 1.017496e+01
0	 6.705882e+00	 1.176471e+00	 1.013915e+01
0	 6.705882e+00	 1.294118e+00	 1.014328e+01
0	 6.705882e+00	 1.411765e+00	 1.014738e+01
0	 6.705882e+00	 1.529412e+00	 1.015152e+01
0	 6.705882e+00	 1.647059e+00	 1.015577e+01
0	 6.705882e+00	 1.764706e+00	 1.016021e+01
0	 6.823529e+00	 1.176471e+00	 1.012562e+01
0	 6.823529e+00	 1.294118e+00	 1.012964e+01
0	 6.823529e+00	 1.411765e+00	 1.013360e+01
0	 6.823529e+00	 1.529412e+00	 1.013759e+01
0	 6.823529e+00	 1.647059e+00	 1.014167e+01
0	 6.823529e+00	 1.764706e+00	 1.014595e+01
0	 6.941176e+00	 1.176471e+00	 1.011201e+01
0	 6.941176e+00	 1.294118e+00	 1.011598e+01
0	 6.941176e+00	 1.411765e+00	 1.011988e+01
0	 6.941176e+00	 1.529412e+00	 1.012379e+01
0	 6.941176e+00	 1.647059e+00	 1.012779e+01
0	 6.941176e+00	 1.764706e+00	 1.013196e+01
0	 7.058824e+00	 1.176471e+00	 1.009833e+01
0	 7.058824e+00	 1.294118e+00	 1.010224e+01
0	 7.058824e+00	 1.411765e+00	 1.010610e+01
0	 7.058824e+00	 1.529412e+00	 1.010997e+01
0	 7.058824e+00	 1.647059e+00	 1.011392e+01
0	 7.058824e+00	 1.764706e+00	 1.011802e+01
0	 6.470588e+00	 1.764706e+00	 1.019041e+01
0	 6.470588e+00	 1.882353e+00	 1.019532e+01
0	 6.470588e+00	 2.000000e+00	 1.019987e+01
0	 6.470588e+00	 2.117647e+00	 1.020414e+01
0	 6.470588e+00	 2.235294e+00	 1.020825e+01
0	 6.470588e+00	 2.352941e+00	 1.021230e+01
0	 6.588235e+00	 1.764706e+00	 1.017496e+01
0	 6.588235e+00	 1.882353e+00	 1.017962e+01
0	 6.588235e+00	 2.000000e+00	 1.018403e+01
0	 6.588235e+00	 2.117647e+00	 1.018827e+01
0	 6.588235e+00	 2.235294e+00	 1.019241e+01
0	 6.588235e+00	 2.352941e+00	 1.019651e+01
0	 6.705882e+00	 1.764706e+00	 1.016021e+01
0	 6.705882e+00	 1.882353e+00	 1.016467e+01
0	 6.705882e+00	 2.000000e+00	 1.016894e+01
0	 6.705882e+00	 2.117647e+00	 1.017307e+01
0	 6.705882e+00	 2.235294e+00	 1.017711e+01
0	 6.705882e+00	 2.352941e+00	 1.018110e+01
0	 6.823529e+00	 1.764706e+00	 1.014595e+01
0	 6.823529e+00	 1.882353e+00	 1.015025e+01
0	 6.823529e+00	 2.000000e+00	 1.015437e+01
0	 6.823529e+00	 2.117647e+00	 1.015835e+01
0	 6.823529e+00	 2.235294e+00	 1.016222e+01
0	 6.823529e+00	 2.352941e+00	 1.016602e+01
0	 6.941176e+00	 1.764706e+00	 1.013196e+01
0	 6.941176e+00	 1.882353e+00	 1.013613e+01
0	 6.941176e+00	 2.000000e+00	 1.014012e+01
0	 6.941176e+00	 2.117647e+00	 1.014394e+01
0	 6.941176e+00	 2.235294e+00	 1.014762e+01
0	 6.941176e+00	 2.352941e+00	 1.015119e+01
0	 7.058824e+00	 1.764706e+00	 1.011802e+01
0	 7.058824e+00	 1.882353e+00	 1.012210e+01
0	 7.058824e+00	 2.000000e+00	 1.012596e+01
0	 7.058824e+00	 2.117647e+00	 1.012964e+01
0	 7.058824e+00	 2.235294e+00	 1.013316e+01
0	 7.058824e+00	 2.352941e+00	 1.013655e+01
0	 6.470588e+00	 2.352941e+00	 1.021230e+01
0	 6.470588e+00	 2.470588e+00	 1.021603e+01
0	 6.470588e+00	 2.588235e+00	 1.021913e+01
0	 6.470588e+00	 2.705882e+00	 1.022161e+01
0	 6.470588e+00	 2.823529e+00	 1.022350e+01
0	 6.470588e+00	 2.941176e+00	 1.022479e+01
0	 6.588235e+00	 2.352941e+00	 1.019651e+01
0	 6.588235e+00	 2.470588e+00	 1.020029e+01
0	 6.588235e+00	 2.588235e+00	 1.020343e+01
0	 6.588235e+00	 2.705882e+00	 1.020595e+01
0	 6.588235e+00	 2.823529e+00	 1.020789e+01
0	 6.588235e+00	 2.941176e+00	 1.020927e+01
0	 6.705882e+00	 2.352941e+00	 1.018110e+01
0	 6.705882e+00	 2.470588e+00	 1.018479e+01
0	 6.705882e+00	 2.588235e+00	 1.018788e+01
0	 6.705882e+00	 2.705882e+00	 1.019044e+01
0	 6.705882e+00	 2.823529e+00	 1.019248e+01
0	 6.705882e+00	 2.941176e+00	 1.019406e+01
0	 6.823529e+00	 2.352941e+00	 1.016602e+01
0	 6.823529e+00	 2.470588e+00	 1.016952e+01
0	 6.823529e+00	 2.588235e+00	 1.017255e+01
0	 6.823529e+00	 2.705882e+00	 1.017513e+01
0	 6.823529e+00	 2.823529e+00	 1.017731e+01
0	 6.823529e+00	 2.941176e+00	 1.017914e+01
0	 6.941176e+00	 2.352941e+00	 1.015119e+01
0	 6.941176e+00	 2.470588e+00	 1.015451e+01
0	 6.941176e+00	 2.588235e+00	 1.015746e+01
0	 6.941176e+00	 2.705882e+00	 1.016007e+01
0	 6.941176e+00	 2.823529e+00	 1.016241e+01
0	 6.941176e+00	 2.941176e+00	 1.016449e+01
0	 7.058824e+00	 2.352941e+00	 1.013655e+01
0	 7.058824e+00	 2.470588e+00	 1.013974e+01
0	 7.058824e+00	 2.588235e+00	 1.014265e+01
0	 7.058824e+00	 2.705882e+00	 1.014533e+01
0	 7.058824e+00	 2.823529e+00	 1.014780e+01
0	 7.058824e+00	 2.941176e+00	 1.015012e+01
0	 6.470588e+00	 2.941176e+00	 1.022479e+01
0	 6.470588e+00	 3.058824e+00	 1.022558e+01
0	 6.470588e+00	 3.176471e+00	 1.022594e+01
0	 6.470588e+00	 3.294118e+00	 1.022591e+01
0	 6.470588e+00	 3.411765e+00	 1.022549e+01
0	 6.470588e+00	 3.529412e+00	 1.022473e+01
0	 6.588235e+00	 2.941176e+00	 1.020927e+01
0	 6.588235e+00	 3.058824e+00	 1.021021e+01
0	 6.588235e+00	 3.176471e+00	 1.021081e+01
0	 6.588235e+00	 3.294118e+00	 1.021108e+01
0	 6.588235e+00	 3.411765e+00	 1.021102e+01
0	 6.588235e+00	 3.529412e+00	 1.021064e+01
0	 6.705882e+00	 2.941176e+00	 1.019406e+01
0	 6.705882e+00	 3.058824e+00	 1.019525e+01
0	 6.705882e+00	 3.176471e+00	 1.019612e+01
0	 6.705882e+00	 3.294118e+00	 1.019667e+01
0	 6.705882e+00	 3.411765e+00	 1.019689e+01
0	 6.705882e+00	 3.529412e+00	 1.019678e+01
0	 6.823529e+00	 2.941176e+00	 1.017914e+01
0	 6.823529e+00	 3.058824e+00	 1.018063e+01
0	 6.823529e+00	 3.176471e+00	 1.018178e+01
0	 6.823529e+00	 3.294118e+00	 1.018258e+01
0	 6.823529e+00	 3.411765e+00	 1.018302e+01
0	 6.823529e+00	 3.529412e+00	 1.018311e+01
0	 6.941176e+00	 2.941176e+00	 1.016449e+01
0	 6.941176e+00	 3.058824e+00	 1.016629e+01
0	 6.941176e+00	 3.176471e+00	 1.016770e+01
0	 6.941176e+00	 3.294118e+00	 1.016872e+01
0	 6.941176e+00	 3.411765e+00	 1.016935e+01
0	 6.941176e+00	 3.529412e+00	 1.016959e+01
0	 7.058824e+00	 2.941176e+00	 1.015012e+01
0	 7.058824e+00	 3.058824e+00	 1.015215e+01
0	 7.058824e+00	 3.176471e+00	 1.015378e+01
0	 7.058824e+00	 3.294118e+00	 1.015499e+01
0	 7.058824e+00	 3.411765e+00	 1.015580e+01
0	 7.058824e+00	 3.529412e+00	 1.015621e+01
0	 6.470588e+00	 3.529412e+00	 1.022473e+01
0	 6.470588e+00	 3.647059e+00	 1.022356e+01
0	 6.470588e+00	 3.764706e+00	 1.022191e+01
0	 6.470588e+00	 3.882353e+00	 1.021977e+01
0	 6.470588e+00	 4.000000e+00	 1.021711e+01
0	 6.470588e+00	 4.117647e+00	 1.021390e+01
0	 6.588235e+00	 3.529412e+00	 1.021064e+01
0	 6.588235e+00	 3.647059e+00	 1.020986e+01
0	 6.588235e+00	 3.764706e+00	 1.020858e+01
0	 6.588235e+00	 3.882353e+00	 1.020680e+01
0	 6.588235e+00	 4.000000e+00	 1.020450e+01
0	 6.588235e+00	 4.117647e+00	 1.020167e+01
0	 6.705882e+00	 3.529412e+00	 1.019678e+01
0	 6.705882e+00	 3.647059e+00	 1.019627e+01
0	 6.705882e+00	 3.764706e+00	 1.019529e+01
0	 6.705882e+00	 3.882353e+00	 1.019383e+01
0	 6.705882e+00	 4.000000e+00	 1.019190e+01
0	 6.705882e+00	 4.117647e+00	 1.018950e+01
0	 6.823529e+00	 3.529412e+00	 1.018311e+01
0	 6.823529e+00	 3.647059e+00	 1.018280e+01
0	 6.823529e+00	 3.764706e+00	 1.018206e+01
0	 6.823529e+00	 3.882353e+00	 1.018092e+01
0	 6.823529e+00	 4.000000e+00	 1.017937e+01
0	 6.823529e+00	 4.117647e+00	 1.017742e+01
0	 6.941176e+00	 3.529412e+00	 1.016959e+01
0	 6.941176e+00	 3.647059e+00	 1.016946e+01
0	 6.941176e+00	 3.764706e+00	 1.016896e+01
0	 6.941176e+00	 3.882353e+00	 1.016812e+01
0	 6.941176e+00	 4.000000e+00	 1.016695e+01
0	 6.941176e+00	 4.117647e+00	 1.016544e+01
0	 7.058824e+00	 3.529412e+00	 1.015621e+01
0	 7.058824e+00	 3.647059e+00	 1.015626e+01
0	 7.058824e+00	 3.764706e+00	 1.015603e+01
0	 7.058824e+00	 3.882353e+00	 1.015550e+01
0	 7.058824e+00	 4.000000e+00	 1.015469e+01
0	 7.058824e+00	 4.117647e+00	 1.015359e+01
0	 6.470588e+00	 4.117647e+00	 1.021390e+01
0	 6.470588e+00	 4.235294e+00	 1.021030e+01
0	 6.470588e+00	 4.352941e+00	 1.020649e+01
0	 6.470588e+00	 4.470588e+00	 1.020245e+01
0	 6.470588e+00	 4.588235e+00	 1.019818e+01
0	 6.470588e+00	 4.705882e+00	 1.019365e+01
0	 6.588235e+00	 4.117647e+00	 1.020167e+01
0	 6.588235e+00	 4.235294e+00	 1.019850e+01
0	 6.588235e+00	 4.352941e+00	 1.019514e+01
0	 6.588235e+00	 4.470588e+00	 1.019157e+01
0	 6.588235e+00	 4.588235e+00	 1.018779e+01
0	 6.588235e+00	 4.705882e+00	 1.018375e+01
0	 6.705882e+00	 4.117647e+00	 1.018950e+01
0	 6.705882e+00	 4.235294e+00	 1.018679e+01
0	 6.705882e+00	 4.352941e+00	 1.018389e+01
0	 6.705882e+00	 4.470588e+00	 1.018077e+01
0	 6.705882e+00	 4.588235e+00	 1.017742e+01
0	 6.705882e+00	 4.705882e+00	 1.017380e+01
0	 6.823529e+00	 4.117647e+00	 1.017742e+01
0	 6.823529e+00	 4.235294e+00	 1.017517e+01
0	 6.823529e+00	 4.352941e+00	 1.017272e+01
0	 6.823529e+00	 4.470588e+00	 1.017002e+01
0	 6.823529e+00	 4.588235e+00	 1.016706e+01
0	 6.823529e+00	 4.705882e+00	 1.016381e+01
0	 6.941176e+00	 4.117647e+00	 1.016544e+01
0	 6.941176e+00	 4.235294e+00	 1.016365e+01
0	 6.941176e+00	 4.352941e+00	 1.016162e+01
0	 6.941176e+00	 4.470588e+00	 1.015932e+01
0	 6.941176e+00	 4.588235e+00	 1.015672e+01
0	 6.941176e+00	 4.705882e+00	 1.015380e+01
0	 7.058824e+00	 4.117647e+00	 1.015359e+01
0	 7.058824e+00	 4.235294e+00	 1.015222e+01
0	 7.058824e+00	 4.352941e+00	 1.015057e+01
0	 7.058824e+00	 4.470588e+00	 1.014863e+01
0	 7.058824e+00	 4.588235e+00	 1.014638e+01
0	 7.058824e+00	 4.705882e+00	 1.014379e+01
0	 6.470588e+00	 4.705882e+00	 1.019365e+01
0	 6.470588e+00	 4.823529e+00	 1.018892e+01
0	 6.470588e+00	 4.941176e+00	 1.018403e+01
0	 6.470588e+00	 5.058824e+00	 1.017893e+01
0	 6.470588e+00	 5.176471e+00	 1.017361e+01
0	 6.470588e+00	 5.294118e+00	 1.016803e+01
0	 6.588235e+00	 4.705882e+00	 1.018375e+01
0	 6.588235e+00	 4.823529e+00	 1.017949e+01
0	 6.588235e+00	 4.941176e+00	 1.017503e+01
0	 6.588235e+00	 5.058824e+00	 1.017035e+01
0	 6.588235e+00	 5.176471e+00	 1.016543e+01
0	 6.588235e+00	 5.294118e+00	 1.016025e+01
0	 6.705882e+00	 4.705882e+00	 1.017380e+01
0	 6.705882e+00	 4.823529e+00	 1.016994e+01
0	 6.705882e+00	 4.941176e+00	 1.016587e+01
0	 6.705882e+00	 5.058824e+00	 1.016159e+01
0	 6.705882e+00	 5.176471e+00	 1.015708e+01
0	 6.705882e+00	 5.294118e+00	 1.015232e+01
0	 6.823529e+00	 4.705882e+00	 1.016381e+01
0	 6.823529e+00	 4.823529e+00	 1.016030e+01
0	 6.823529e+00	 4.941176e+00	 1.015661e+01
0	 6.823529e+00	 5.058824e+00	 1.015271e+01
0	 6.823529e+00	 5.176471e+00	 1.014862e+01
0	 6.823529e+00	 5.294118e+00	 1.014431e+01
0	 6.941176e+00	 4.705882e+00	 1.015380e+01
0	 6.941176e+00	 4.823529e+00	 1.015063e+01
0	 6.941176e+00	 4.941176e+00	 1.014730e+01
0	 6.941176e+00	 5.058824e+00	 1.014380e+01
0	 6.941176e+00	 5.176471e+00	 1.014011e+01
0	 6.941176e+00	 5.294118e+00	 1.013624e+01
0	 7.058824e+00	 4.705882e+00	 1.014379e+01
0	 7.058824e+00	 4.823529e+00	 1.014097e+01
0	 7.058824e+00	 4.941176e+00	 1.013801e+01
0	 7.058824e+00	 5.058824e+00	 1.013489e+01
0	 7.058824e+00	 5.176471e+00	 1.013162e+01
0	 7.058824e+00	 5.294118e+00	 1.012816e+01
0	 6.470588e+00	 5.294118e+00	 1.016803e+01
0	 6.470588e+00	 5.411765e+00	 1.016232e+01
0	 6.470588e+00	 5.529412e+00	 1.015660e+01
0	 6.470588e+00	 5.647059e+00	 1.015087e+01
0	 6.470588e+00	 5.764706e+00	 1.014512e+01
0	 6.470588e+00	 5.882353e+00	 1.013932e+01
0	 6.588235e+00	 5.294118e+00	 1.016025e+01
0	 6.588235e+00	 5.411765e+00	 1.015494e+01
0	 6.588235e+00	 5.529412e+00	 1.014964e+01
0	 6.588235e+00	 5.647059e+00	 1.014432e+01
0	 6.588235e+00	 5.764706e+00	 1.013897e+01
0	 6.588235e+00	 5.882353e+00	 1.013356e+01
0	 6.705882e+00	 5.294118e+00	 1.015232e+01
0	 6.705882e+00	 5.411765e+00	 1.014745e+01
0	 6.705882e+00	 5.529412e+00	 1.014257e+01
0	 6.705882e+00	 5.647059e+00	 1.013765e+01
0	 6.705882e+00	 5.764706e+00	 1.013268e+01
0	 6.705882e+00	 5.882353e+00	 1.012762e+01
0	 6.823529e+00	 5.294118e+00	 1.014431e+01
0	 6.823529e+00	 5.411765e+00	 1.013987e+01
0	 6.823529e+00	 5.529412e+00	 1.013541e+01
0	 6.823529e+00	 5.647059e+00	 1.013088e+01
0	 6.823529e+00	 5.764706e+00	 1.012627e+01
0	 6.823529e+00	 5.882353e+00	 1.012154e+01
0	 6.941176e+00	 5.294118e+00	 1.013624e+01
0	 6.941176e+00	 5.411765e+00	 1.013224e+01
0	 6.941176e+00	 5.529412e+00	 1.012818e+01
0	 6.941176e+00	 5.647059e+00	 1.012402e+01
0	 6.941176e+00	 5.764706e+00	 1.011976e+01
0	 6.941176e+00	 5.882353e+00	 1.011535e+01
0	 7.058824e+00	 5.294118e+00	 1.012816e+01
0	 7.058824e+00	 5.411765e+00	 1.012458e+01
0	 7.058824e+00	 5.529412e+00	 1.012090e+01
0	 7.058824e+00	 5.647059e+00	 1.011710e+01
0	 7.058824e+00	 5.764706e+00	 1.011317e+01
0	 7.058824e+00	 5.882353e+00	 1.010909e+01
0	 6.470588e+00	 5.882353e+00	 1.013932e+01
0	 6.470588e+00	 6.000000e+00	 1.013352e+01
0	 6.470588e+00	 6.117647e+00	 1.012774e+01
0	 6.470588e+00	 6.235294e+00	 1.012197e+01
0	 6.470588e+00	 6.352941e+00	 1.011619e+01
0	 6.470588e+00	 6.470588e+00	 1.011038e+01
0	 6.588235e+00	 5.882353e+00	 1.013356e+01
0	 6.588235e+00	 6.000000e+00	 1.012811e+01
0	 6.588235e+00	 6.117647e+00	 1.012267e+01
0	 6.588235e+00	 6.235294e+00	 1.011722e+01
0	 6.588235e+00	 6.352941e+00	 1.011173e+01
0	 6.588235e+00	 6.470588e+00	 1.010621e+01
0	 6.705882e+00	 5.882353e+00	 1.012762e+01
0	 6.705882e+00	 6.000000e+00	 1.012251e+01
0	 6.705882e+00	 6.117647e+00	 1.011739e+01
0	 6.705882e+00	 6.235294e+00	 1.011225e+01
0	 6.705882e+00	 6.352941e+00	 1.010707e+01
0	 6.705882e+00	 6.470588e+00	 1.010186e+01
0	 6.823529e+00	 5.882353e+00	 1.012154e+01
0	 6.823529e+00	 6.000000e+00	 1.011675e+01
0	 6.823529e+00	 6.117647e+00	 1.011194e+01
0	 6.823529e+00	 6.235294e+00	 1.010712e+01
0	 6.823529e+00	 6.352941e+00	 1.010226e+01
0	 6.823529e+00	 6.470588e+00	 1.009737e+01
0	 6.941176e+00	 5.882353e+00	 1.011535e+01
0	 6.941176e+00	 6.000000e+00	 1.011087e+01
0	 6.941176e+00	 6.117647e+00	 1.010638e+01
0	 6.941176e+00	 6.235294e+00	 1.010188e+01
0	 6.941176e+00	 6.352941e+00	 1.009735e+01
0	 6.941176e+00	 6.470588e+00	 1.009278e+01
0	 7.058824e+00	 5.882353e+00	 1.010909e+01
0	 7.058824e+00	 6.000000e+00	 1.010493e+01
0	 7.058824e+00	 6.117647e+00	 1.010076e+01
0	 7.058824e+00	 6.235294e+00	 1.009658e+01
0	 7.058824e+00	 6.352941e+00	 1.009237e+01
0	 7.058824e+00	 6.470588e+00	 1.008813e+01
0	 6.470588e+00	 6.470588e+00	 1.011038e+01
0	 6.470588e+00	 6.588235e+00	 1.010460e+01
0	 6.470588e+00	 6.705882e+00	 1.009893e+01
0	 6.470588e+00	 6.823529e+00	 1.009336e+01
0	 6.470588e+00	 6.941176e+00	 1.008788e+01
0	 6.470588e+00	 7.058824e+00	 1.008248e+01
0	 6.588235e+00	 6.470588e+00	 1.010621e+01
0	 6.588235e+00	 6.588235e+00	 1.010071e+01
0	 6.588235e+00	 6.705882e+00	 1.009532e+01
0	 6.588235e+00	 6.823529e+00	 1.009002e+01
0	 6.588235e+00	 6.941176e+00	 1.008480e+01
0	 6.588235e+00	 7.058824e+00	 1.007964e+01
0	 6.705882e+00	 6.470588e+00	 1.010186e+01
0	 6.705882e+00	 6.588235e+00	 1.009666e+01
0	 6.705882e+00	 6.705882e+00	 1.009157e+01
0	 6.705882e+00	 6.823529e+00	 1.008654e+01
0	 6.705882e+00	 6.941176e+00	 1.008158e+01
0	 6.705882e+00	 7.058824e+00	 1.007665e+01
0	 6.823529e+00	 6.470588e+00	 1.009737e+01
0	 6.823529e+00	 6.588235e+00	 1.009249e+01
0	 6.823529e+00	 6.705882e+00	 1.008769e+01
0	 6.823529e+00	 6.823529e+00	 1.008294e+01
0	 6.823529e+00	 6.941176e+00	 1.007823e+01
0	 6.823529e+00	 7.058824e+00	 1.007354e+01
0	 6.941176e+00	 6.470588e+00	 1.009278e+01
0	 6.941176e+00	 6.588235e+00	 1.008822e+01
0	 6.941176e+00	 6.705882e+00	 1.008371e+01
0	 6.941176e+00	 6.823529e+00	 1.007924e+01
0	 6.941176e+00	 6.941176e+00	 1.007478e+01
0	 6.941176e+00	 7.058824e+00	 1.007032e+01
0	 7.058824e+00	 6.470588e+00	 1.008813e+01
0	 7.058824e+00	 6.588235e+00	 1.008388e+01
0	 7.058824e+00	 6.705882e+00	 1.007966e+01
0	 7.058824e+00	 6.823529e+00	 1.007546e+01
0	 7.058824e+00	 6.941176e+00	 1.007125e+01
0	 7.058824e+00	 7.058824e+00	 1.006703e+01
0	 6.470588e+00	 7.058824e+00	 1.008248e+01
0	 6.470588e+00	 7.176471e+00	 1.007717e+01
0	 6.470588e+00	 7.294118e+00	 1.007200e+01
0	 6.470588e+00	 7.411765e+00	 1.006693e+01
0	 6.470588e+00	 7.529412e+00	 1.006195e+01
0	 6.470588e+00	 7.647059e+00	 1.005706e+01
0	 6.588235e+00	 7.058824e+00	 1.007964e+01
0	 6.588235e+00	 7.176471e+00	 1.007456e+01
0	 6.588235e+00	 7.294118e+00	 1.006959e+01
0	 6.588235e+00	 7.411765e+00	 1.006472e+01
0	 6.588235e+00	 7.529412e+00	 1.005993e+01
0	 6.588235e+00	 7.647059e+00	 1.005520e+01
0	 6.705882e+00	 7.058824e+00	 1.007665e+01
0	 6.705882e+00	 7.176471e+00	 1.007179e+01
0	 6.705882e+00	 7.294118e+00	 1.006704e+01
0	 6.705882e+00	 7.411765e+00	 1.006236e+01
0	 6.705882e+00	 7.529412e+00	 1.005777e+01
0	 6.705882e+00	 7.647059e+00	 1.005324e+01
0	 6.823529e+00	 7.058824e+00	 1.007354e+01
0	 6.823529e+00	 7.176471e+00	 1.006890e+01
0	 6.823529e+00	 7.294118e+00	 1.006435e+01
0	 6.823529e+00	 7.411765e+00	 1.005989e+01
0	 6.823529e+00	 7.529412e+00	 1.005550e+01
0	 6.823529e+00	 7.647059e+00	 1.005117e+01
0	 6.941176e+00	 7.058824e+00	 1.007032e+01
0	 6.941176e+00	 7.176471e+00	 1.006591e+01
0	 6.941176e+00	 7.294118e+00	 1.006158e+01
0	 6.941176e+00	 7.411765e+00	 1.005734e+01
0	 6.941176e+00	 7.529412e+00	 1.005316e+01
0	 6.941176e+00	 7.647059e+00	 1.004904e+01
0	 7.058824e+00	 7.058824e+00	 1.006703e+01
0	 7.058824e+00	 7.176471e+00	 1.006285e+01
0	 7.058824e+00	 7.294118e+00	 1.005875e+01
0	 7.058824e+00	 7.411765e+00	 1.005473e+01
0	 7.058824e+00	 7.529412e+00	 1.005077e+01
0	 7.058824e+00	 7.647059e+00	 1.004687e+01
0	 6.470588e+00	 7.647059e+00	 1.005706e+01
0	 6.470588e+00	 7.764706e+00	 1.005229e+01
0	 6.470588e+00	 7.882353e+00	 1.004769e+01
0	 6.470588e+00	 8.000000e+00	 1.004326e+01
0	 6.470588e+00	 8.117647e+00	 1.003898e+01
0	 6.470588e+00	 8.235294e+00	 1.003484e+01
0	 6.588235e+00	 7.647059e+00	 1.005520e+01
0	 6.588235e+00	 7.764706e+00	 1.005060e+01
0	 6.588235e+00	 7.882353e+00	 1.004618e+01
0	 6.588235e+00	 8.000000e+00	 1.004190e+01
0	 6.588235e+00	 8.117647e+00	 1.003777e+01
0	 6.588235e+00	 8.235294e+00	 1.003377e+01
0	 6.705882e+00	 7.647059e+00	 1.005324e+01
0	 6.705882e+00	 7.764706e+00	 1.004882e+01
0	 6.705882e+00	 7.882353e+00	 1.004457e+01
0	 6.705882e+00	 8.000000e+00	 1.004046e+01
0	 6.705882e+00	 8.117647e+00	 1.003648e+01
0	 6.705882e+00	 8.235294e+00	 1.003262e+01
0	 6.823529e+00	 7.647059e+00	 1.005117e+01
0	 6.823529e+00	 7.764706e+00	 1.004696e+01
0	 6.823529e+00	 7.882353e+00	 1.004288e+01
0	 6.823529e+00	 8.000000e+00	 1.003895e+01
0	 6.823529e+00	 8.117647e+00	 1.003513e+01
0	 6.823529e+00	 8.235294e+00	 1.003141e+01
0	 6.941176e+00	 7.647059e+00	 1.004904e+01
0	 6.941176e+00	 7.764706e+00	 1.004502e+01
0	 6.941176e+00	 7.882353e+00	 1.004114e+01
0	 6.941176e+00	 8.000000e+00	 1.003738e+01
0	 6.941176e+00	 8.117647e+00	 1.003372e+01
0	 6.941176e+00	 8.235294e+00	 1.003015e+01
0	 7.058824e+00	 7.647059e+00	 1.004687e+01
0	 7.058824e+00	 7.764706e+00	 1.004305e+01
0	 7.058824e+00	 7.882353e+00	 1.003935e+01
0	 7.058824e+00	 8.000000e+00	 1.003577e+01
0	 7.058824e+00	 8.117647e+00	 1.003227e+01
0	 7.058824e+00	 8.235294e+00	 1.002885e+01
0	 6.470588e+00	 8.235294e+00	 1.003484e+01
0	 6.470588e+00	 8.352941e+00	 1.003087e+01
0	 6.470588e+00	 8.470588e+00	 1.002712e+01
0	 6.470588e+00	 8.588235e+00	 1.002356e+01
0	 6.470588e+00	 8.705882e+00	 1.002018e+01
0	 6.470588e+00	 8.823529e+00	 1.001695e+01
0	 6.588235e+00	 8.235294e+00	 1.003377e+01
0	 6.588235e+00	 8.352941e+00	 1.002993e+01
0	 6.588235e+00	 8.470588e+00	 1.002629e+01
0	 6.588235e+00	 8.588235e+00	 1.002284e+01
0	 6.588235e+00	 8.705882e+00	 1.001956e+01
0	 6.588235e+00	 8.823529e+00	 1.001643e+01
0	 6.705882e+00	 8.235294e+00	 1.003262e+01
0	 6.705882e+00	 8.352941e+00	 1.002891e+01
0	 6.705882e+00	 8.470588e+00	 1.002539e+01
0	 6.705882e+00	 8.588235e+00	 1.002206e+01
0	 6.705882e+00	 8.705882e+00	 1.001889e+01
0	 6.705882e+00	 8.823529e+00	 1.001586e+01
0	 6.823529e+00	 8.235294e+00	 1.003141e+01
0	 6.823529e+00	 8.352941e+00	 1.002783e+01
0	 6.823529e+00	 8.470588e+00	 1.002445e+01
0	 6.823529e+00	 8.588235e+00	 1.002123e+01
0	 6.823529e+00	 8.705882e+00	 1.001818e+01
0	 6.823529e+00	 8.823529e+00	 1.001527e+01
0	 6.941176e+00	 8.235294e+00	 1.003015e+01
0	 6.941176e+00	 8.352941e+00	 1.002671e+01
0	 6.941176e+00	 8.470588e+00	 1.002346e+01
0	 6.941176e+00	 8.588235e+00	 1.002038e+01
0	 6.941176e+00	 8.705882e+00	 1.001745e+01
0	 6.941176e+00	 8.823529e+00	 1.001466e+01
0	 7.058824e+00	 8.235294e+00	 1.002885e+01
0	 7.058824e+00	 8.352941e+00	 1.002557e+01
0	 7.058824e+00	 8.470588e+00	 1.002246e+01
0	 7.058824e+00	 8.588235e+00	 1.001951e+01
0	 7.058824e+00	 8.705882e+00	 1.001671e+01
0	 7.058824e+00	 8.823529e+00	 1.001404e+01
0	 6.470588e+00	 8.823529e+00	 1.001695e+01
0	 6.470588e+00	 8.941176e+00	 1.001395e+01
0	 6.470588e+00	 9.058824e+00	 1.001125e+01
0	 6.470588e+00	 9.176471e+00	 1.000881e+01
0	 6.470588e+00	 9.294118e+00	 1.000663e+01
0	 6.470588e+00	 9.411765e+00	 1.000467e+01
0	 6.588235e+00	 8.823529e+00	 1.001643e+01
0	 6.588235e+00	 8.941176e+00	 1.001352e+01
0	 6.588235e+00	 9.058824e+00	 1.001090e+01
0	 6.588235e+00	 9.176471e+00	 1.000854e+01
0	 6.588235e+00	 9.294118e+00	 1.000642e+01
0	 6.588235e+00	 9.411765e+00	 1.000453e+01
0	 6.705882e+00	 8.823529e+00	 1.001586e+01
0	 6.705882e+00	 8.941176e+00	 1.001306e+01
0	 6.705882e+00	 9.058824e+00	 1.001052e+01
0	 6.705882e+00	 9.176471e+00	 1.000825e+01
0	 6.705882e+00	 9.294118e+00	 1.000620e+01
0	 6.705882e+00	 9.411765e+00	 1.000437e+01
0	 6.823529e+00	 8.823529e+00	 1.001527e+01
0	 6.823529e+00	 8.941176e+00	 1.001257e+01
0	 6.823529e+00	 9.058824e+00	 1.001013e+01
0	 6.823529e+00	 9.176471e+00	 1.000794e+01
0	 6.823529e+00	 9.294118e+00	 1.000597e+01
0	 6.823529e+00	 9.411765e+00	 1.000420e+01
0	 6.941176e+00	 8.823529e+00	 1.001466e+01
0	 6.941176e+00	 8.941176e+00	 1.001207e+01
0	 6.941176e+00	 9.058824e+00	 1.000973e+01
0	 6.941176e+00	 9.176471e+00	 1.000763e+01
0	 6.941176e+00	 9.294118e+00	 1.000573e+01
0	 6.941176e+00	 9.411765e+00	 1.000403e+01
0	 7.058824e+00	 8.823529e+00	 1.001404e+01
0	 7.058824e+00	 8.941176e+00	 1.001156e+01
0	 7.058824e+00	 9.058824e+00	 1.000932e+01
0	 7.058824e+00	 9.176471e+00	 1.000731e+01
0	 7.058824e+00	 9.294118e+00	 1.000549e+01
0	 7.058824e+00	 9.411765e+00	 1.000386e+01
0	 6.470588e+00	 9.411765e+00	 1.000467e+01
0	 6.470588e+00	 9.529412e+00	 1.000302e+01
0	 6.470588e+00	 9.647059e+00	 1.000175e+01
0	 6.470588e+00	 9.764706e+00	 1.000083e+01
0	 6.470588e+00	 9.882353e+00	 1.000023e+01
0	 6.470588e+00	 1.000000e+01	 9.999916e+00
0	 6.588235e+00	 9.411765e+00	 1.000453e+01
0	 6.588235e+00	 9.529412e+00	 1.000293e+01
0	 6.588235e+00	 9.647059e+00	 1.000169e+01
0	 6.588235e+00	 9.764706e+00	 1.000080e+01
0	 6.588235e+00	 9.882353e+00	 1.000022e+01
0	 6.588235e+00	 1.000000e+01	 9.999930e+00
0	 6.705882e+00	 9.411765e+00	 1.000437e+01
0	 6.705882e+00	 9.529412e+00	 1.000282e+01
0	 6.705882e+00	 9.647059e+00	 1.000163e+01
0	 6.705882e+00	 9.764706e+00	 1.000077e+01
0	 6.705882e+00	 9.882353e+00	 1.000021e+01
0	 6.705882e+00	 1.000000e+01	 9.999935e+00
0	 6.823529e+00	 9.411765e+00	 1.000420e+01
0	 6.823529e+00	 9.529412e+00	 1.000271e+01
0	 6.823529e+00	 9.647059e+00	 1.000156e+01
0	 6.823529e+00	 9.764706e+00	 1.000073e+01
0	 6.823529e+00	 9.882353e+00	 1.000020e+01
0	 6.823529e+00	 1.000000e+01	 9.999939e+00
0	 6.941176e+00	 9.411765e+00	 1.000403e+01
0	 6.941176e+00	 9.529412e+00	 1.000259e+01
0	 6.941176e+00	 9.647059e+00	 1.000149e+01
0	 6.941176e+00	 9.764706e+00	 1.000069e+01
0	 6.941176e+00	 9.882353e+00	 1.000019e+01
0	 6.941176e+00	 1.000000e+01	 9.999945e+00
0	 7.058824e+00	 9.411765e+00	 1.000386e+01
0	 7.058824e+00	 9.529412e+00	 1.000248e+01
0	 7.058824e+00	 9.647059e+00	 1.000142e+01
0	 7.058824e+00	 9.764706e+00	 1.000067e+01
0	 7.058824e+00	 9.882353e+00	 1.000019e+01
0	 7.058824e+00	 1.000000e+01	 9.999961e+00
0	 7.058824e+00	 0.000000e+00	 1.007861e+01
0	 7.058824e+00	 1.176471e-01	 1.007849e+01
0	 7.058824e+00	 2.352941e-01	 1.007901e+01
0	 7.058824e+00	 3.529412e-01	 1.008010e+01
0	 7.058824e+00	 4.705882e-01	 1.008165e+01
0	 7.058824e+00	 5.882353e-01	 1.008358e+01
0	 7.176471e+00	 0.000000e+00	 1.006575e+01
0	 7.176471e+00	 1.176471e-01	 1.006608e+01
0	 7.176471e+00	 2.352941e-01	 1.006674e+01
0	 7.176471e+00	 3.529412e-01	 1.006773e+01
0	 7.176471e+00	 4.705882e-01	 1.006907e+01
0	 7.176471e+00	 5.882353e-01	 1.007077e+01
0	 7.294118e+00	 0.000000e+00	 1.005305e+01
0	 7.294118e+00	 1.176471e-01	 1.005363e+01
0	 7.294118e+00	 2.352941e-01	 1.005434e+01
0	 7.294118e+00	 3.529412e-01	 1.005526e+01
0	 7.294118e+00	 4.705882e-01	 1.005649e+01
0	 7.294118e+00	 5.882353e-01	 1.005809e+01
0	 7.411765e+00	 0.000000e+00	 1.004048e+01
0	 7.411765e+00	 1.176471e-01	 1.004111e+01
0	 7.411765e+00	 2.352941e-01	 1.004181e+01
0	 7.411765e+00	 3.529412e-01	 1.004269e+01
0	 7.411765e+00	 4.705882e-01	 1.004386e+01
0	 7.411765e+00	 5.882353e-01	 1.004544e+01
0	 7.529412e+00	 0.000000e+00	 1.002801e+01
0	 7.529412e+00	 1.176471e-01	 1.002851e+01
0	 7.529412e+00	 2.352941e-01	 1.002913e+01
0	 7.529412e+00	 3.529412e-01	 1.002998e+01
0	 7.529412e+00	 4.705882e-01	 1.003115e+01
0	 7.529412e+00	 5.882353e-01	 1.003276e+01
0	 7.647059e+00	 0.000000e+00	 1.001561e+01
0	 7.647059e+00	 1.176471e-01	 1.001581e+01
0	 7.647059e+00	 2.352941e-01	 1.001629e+01
0	 7.647059e+00	 3.529412e-01	 1.001710e+01
0	 7.647059e+00	 4.705882e-01	 1.001831e+01
0	 7.647059e+00	 5.882353e-01	 1.001997e+01
0	 7.058824e+00	 5.882353e-01	 1.008358e+01
0	 7.058824e+00	 7.058824e-01	 1.008582e+01
0	 7.058824e+00	 8.235294e-01	 1.008838e+01
0	 7.058824e+00	 9.411765e-01	 1.009129e+01
0	 7.058824e+00	 1.058824e+00	 1.009459e+01
0	 7.058824e+00	 1.176471e+00	 1.009833e+01
0	 7.176471e+00	 5.882353e-01	 1.007077e+01
0	 7.176471e+00	 7.058824e-01	 1.007283e+01
0	 7.176471e+00	 8.235294e-01	 1.007522e+01
0	 7.176471e+00	 9.411765e-01	 1.007798e+01
0	 7.176471e+00	 1.058824e+00	 1.008114e+01
0	 7.176471e+00	 1.176471e+00	 1.008474e+01
0	 7.294118e+00	 5.882353e-01	 1.005809e+01
0	 7.294118e+00	 7.058824e-01	 1.006005e+01
0	 7.294118e+00	 8.235294e-01	 1.006234e+01
0	 7.294118e+00	 9.411765e-01	 1.006497e+01
0	 7.294118e+00	 1.058824e+00	 1.006798e+01
0	 7.294118e+00	 1.176471e+00	 1.007139e+01
0	 7.411765e+00	 5.882353e-01	 1.004544e+01
0	 7.411765e+00	 7.058824e-01	 1.004739e+01
0	 7.411765e+00	 8.235294e-01	 1.004961e+01
0	 7.411765e+00	 9.411765e-01	 1.005214e+01
0	 7.411765e+00	 1.058824e+00	 1.005499e+01
0	 7.411765e+00	 1.176471e+00	 1.005819e+01
0	 7.529412e+00	 5.882353e-01	 1.003276e+01
0	 7.529412e+00	 7.058824e-01	 1.003473e+01
0	 7.529412e+00	 8.235294e-01	 1.003692e+01
0	 7.529412e+00	 9.411765e-01	 1.003936e+01
0	 7.529412e+00	 1.058824e+00	 1.004207e+01
0	 7.529412e+00	 1.176471e+00	 1.004508e+01
0	 7.647059e+00	 5.882353e-01	 1.001997e+01
0	 7.647059e+00	 7.058824e-01	 1.002197e+01
0	 7.647059e+00	 8.235294e-01	 1.002414e+01
0	 7.647059e+00	 9.411765e-01	 1.002652e+01
0	 7.647059e+00	 1.058824e+00	 1.002912e+01
0	 7.647059e+00	 1.176471e+00	 1.003198e+01
0	 7.058824e+00	 1.176471e+00	 1.009833e+01
0	 7.058824e+00	 1.294118e+00	 1.010224e+01
0	 7.058824e+00	 1.411765e+00	 1.010610e+01
0	 7.058824e+00	 1.529412e+00	 1.010997e+01
0	 7.058824e+00	 1.647059e+00	 1.011392e+01
0	 7.058824e+00	 1.764706e+00	 1.011802e+01
0	 7.176471e+00	 1.176471e+00	 1.008474e+01
0	 7.176471e+00	 1.294118e+00	 1.008854e+01
0	 7.176471e+00	 1.411765e+00	 1.009231e+01
0	 7.176471e+00	 1.529412e+00	 1.009612e+01
0	 7.176471e+00	 1.647059e+00	 1.010000e+01
0	 7.176471e+00	 1.764706e+00	 1.010403e+01
0	 7.294118e+00	 1.176471e+00	 1.007139e+01
0	 7.294118e+00	 1.294118e+00	 1.007500e+01
0	 7.294118e+00	 1.411765e+00	 1.007863e+01
0	 7.294118e+00	 1.529412e+00	 1.008232e+01
0	 7.294118e+00	 1.647059e+00	 1.008611e+01
0	 7.294118e+00	 1.764706e+00	 1.009004e+01
0	 7.411765e+00	 1.176471e+00	 1.005819e+01
0	 7.411765e+00	 1.294118e+00	 1.006160e+01
0	 7.411765e+00	 1.411765e+00	 1.006506e+01
0	 7.411765e+00	 1.529412e+00	 1.006861e+01
0	 7.411765e+00	 1.647059e+00	 1.007227e+01
0	 7.411765e+00	 1.764706e+00	 1.007608e+01
0	 7.529412e+00	 1.176471e+00	 1.004508e+01
0	 7.529412e+00	 1.294118e+00	 1.004828e+01
0	 7.529412e+00	 1.411765e+00	 1.005157e+01
0	 7.529412e+00	 1.529412e+00	 1.005497e+01
0	 7.529412e+00	 1.647059e+00	 1.005851e+01
0	 7.529412e+00	 1.764706e+00	 1.006221e+01
0	 7.647059e+00	 1.176471e+00	 1.003198e+01
0	 7.647059e+00	 1.294118e+00	 1.003501e+01
0	 7.647059e+00	 1.411765e+00	 1.003815e+01
0	 7.647059e+00	 1.529412e+00	 1.004142e+01
0	 7.647059e+00	 1.647059e+00	 1.004485e+01
0	 7.647059e+00	 1.764706e+00	 1.004844e+01
0	 7.058824e+00	 1.764706e+00	 1.011802e+01
0	 7.058824e+00	 1.882353e+00	 1.012210e+01
0	 7.058824e+00	 2.000000e+00	 1.012596e+01
0	 7.058824e+00	 2.117647e+00	 1.012964e+01
0	 7.058824e+00	 2.235294e+00	 1.013316e+01
0	 7.058824e+00	 2.352941e+00	 1.013655e+01
0	 7.176471e+00	 1.764706e+00	 1.010403e+01
0	 7.176471e+00	 1.882353e+00	 1.010802e+01
0	 7.176471e+00	 2.000000e+00	 1.011179e+01
0	 7.176471e+00	 2.117647e+00	 1.011537e+01
0	 7.176471e+00	 2.235294e+00	 1.011881e+01
0	 7.176471e+00	 2.352941e+00	 1.012212e+01
0	 7.294118e+00	 1.764706e+00	 1.009004e+01
0	 7.294118e+00	 1.882353e+00	 1.009393e+01
0	 7.294118e+00	 2.000000e+00	 1.009763e+01
0	 7.294118e+00	 2.117647e+00	 1.010118e+01
0	 7.294118e+00	 2.235294e+00	 1.010459e+01
0	 7.294118e+00	 2.352941e+00	 1.010792e+01
0	 7.411765e+00	 1.764706e+00	 1.007608e+01
0	 7.411765e+00	 1.882353e+00	 1.007989e+01
0	 7.411765e+00	 2.000000e+00	 1.008354e+01
0	 7.411765e+00	 2.117647e+00	 1.008707e+01
0	 7.411765e+00	 2.235294e+00	 1.009051e+01
0	 7.411765e+00	 2.352941e+00	 1.009391e+01
0	 7.529412e+00	 1.764706e+00	 1.006221e+01
0	 7.529412e+00	 1.882353e+00	 1.006593e+01
0	 7.529412e+00	 2.000000e+00	 1.006954e+01
0	 7.529412e+00	 2.117647e+00	 1.007307e+01
0	 7.529412e+00	 2.235294e+00	 1.007657e+01
0	 7.529412e+00	 2.352941e+00	 1.008006e+01
0	 7.647059e+00	 1.764706e+00	 1.004844e+01
0	 7.647059e+00	 1.882353e+00	 1.005209e+01
0	 7.647059e+00	 2.000000e+00	 1.005567e+01
0	 7.647059e+00	 2.117647e+00	 1.005921e+01
0	 7.647059e+00	 2.235294e+00	 1.006275e+01
0	 7.647059e+00	 2.352941e+00	 1.006632e+01
0	 7.058824e+00	 2.352941e+00	 1.013655e+01
0	 7.058824e+00	 2.470588e+00	 1.013974e+01
0	 7.058824e+00	 2.588235e+00	 1.014265e+01
0	 7.058824e+00	 2.705882e+00	 1.014533e+01
0	 7.058824e+00	 2.823529e+00	 1.014780e+01
0	 7.058824e+00	 2.941176e+00	 1.015012e+01
0	 7.176471e+00	 2.352941e+00	 1.012212e+01
0	 7.176471e+00	 2.470588e+00	 1.012527e+01
0	 7.176471e+00	 2.588235e+00	 1.012821e+01
0	 7.176471e+00	 2.705882e+00	 1.013096e+01
0	 7.176471e+00	 2.823529e+00	 1.013355e+01
0	 7.176471e+00	 2.941176e+00	 1.013600e+01
0	 7.294118e+00	 2.352941e+00	 1.010792e+01
0	 7.294118e+00	 2.470588e+00	 1.011111e+01
0	 7.294118e+00	 2.588235e+00	 1.011411e+01
0	 7.294118e+00	 2.705882e+00	 1.011693e+01
0	 7.294118e+00	 2.823529e+00	 1.011960e+01
0	 7.294118e+00	 2.941176e+00	 1.012214e+01
0	 7.411765e+00	 2.352941e+00	 1.009391e+01
0	 7.411765e+00	 2.470588e+00	 1.009719e+01
0	 7.411765e+00	 2.588235e+00	 1.010027e+01
0	 7.411765e+00	 2.705882e+00	 1.010317e+01
0	 7.411765e+00	 2.823529e+00	 1.010590e+01
0	 7.411765e+00	 2.941176e+00	 1.010849e+01
0	 7.529412e+00	 2.352941e+00	 1.008006e+01
0	 7.529412e+00	 2.470588e+00	 1.008344e+01
0	 7.529412e+00	 2.588235e+00	 1.008661e+01
0	 7.529412e+00	 2.705882e+00	 1.008959e+01
0	 7.529412e+00	 2.823529e+00	 1.009238e+01
0	 7.529412e+00	 2.941176e+00	 1.009500e+01
0	 7.647059e+00	 2.352941e+00	 1.006632e+01
0	 7.647059e+00	 2.470588e+00	 1.006979e+01
0	 7.647059e+00	 2.588235e+00	 1.007305e+01
0	 7.647059e+00	 2.705882e+00	 1.007610e+01
0	 7.647059e+00	 2.823529e+00	 1.007896e+01
0	 7.647059e+00	 2.941176e+00	 1.008165e+01
0	 7.058824e+00	 2.941176e+00	 1.015012e+01
0	 7.058824e+00	 3.058824e+00	 1.015215e+01
0	 7.058824e+00	 3.176471e+00	 1.015378e+01
0	 7.058824e+00	 3.294118e+00	 1.015499e+01
0	 7.058824e+00	 3.411765e+00	 1.015580e+01
0	 7.058824e+00	 3.529412e+00	 1.015621e+01
0	 7.176471e+00	 2.941176e+00	 1.013600e+01
0	 7.176471e+00	 3.058824e+00	 1.013820e+01
0	 7.176471e+00	 3.176471e+00	 1.013998e+01
0	 7.176471e+00	 3.294118e+00	 1.014137e+01
0	 7.176471e+00	 3.411765e+00	 1.014236e+01
0	 7.176471e+00	 3.529412e+00	 1.014297e+01
0	 7.294118e+00	 2.941176e+00	 1.012214e+01
0	 7.294118e+00	 3.058824e+00	 1.012443e+01
0	 7.294118e+00	 3.176471e+00	 1.012634e+01
0	 7.294118e+00	 3.294118e+00	 1.012788e+01
0	 7.294118e+00	 3.411765e+00	 1.012908e+01
0	 7.294118e+00	 3.529412e+00	 1.012994e+01
0	 7.411765e+00	 2.941176e+00	 1.010849e+01
0	 7.411765e+00	 3.058824e+00	 1.011084e+01
0	 7.411765e+00	 3.176471e+00	 1.011286e+01
0	 7.411765e+00	 3.294118e+00	 1.011456e+01
0	 7.411765e+00	 3.411765e+00	 1.011597e+01
0	 7.411765e+00	 3.529412e+00	 1.011709e+01
0	 7.529412e+00	 2.941176e+00	 1.009500e+01
0	 7.529412e+00	 3.058824e+00	 1.009741e+01
0	 7.529412e+00	 3.176471e+00	 1.009954e+01
0	 7.529412e+00	 3.294118e+00	 1.010141e+01
0	 7.529412e+00	 3.411765e+00	 1.010303e+01
0	 7.529412e+00	 3.529412e+00	 1.010443e+01
0	 7.647059e+00	 2.941176e+00	 1.008165e+01
0	 7.647059e+00	 3.058824e+00	 1.008413e+01
0	 7.647059e+00	 3.176471e+00	 1.008639e+01
0	 7.647059e+00	 3.294118e+00	 1.008844e+01
0	 7.647059e+00	 3.411765e+00	 1.009029e+01
0	 7.647059e+00	 3.529412e+00	 1.009195e+01
0	 7.058824e+00	 3.529412e+00	 1.015621e+01
0	 7.058824e+00	 3.647059e+00	 1.015626e+01
0	 7.058824e+00	 3.764706e+00	 1.015603e+01
0	 7.058824e+00	 3.882353e+00	 1.015550e+01
0	 7.058824e+00	 4.000000e+00	 1.015469e+01
0	 7.058824e+00	 4.117647e+00	 1.015359e+01
0	 7.176471e+00	 3.529412e+00	 1.014297e+01
0	 7.176471e+00	 3.647059e+00	 1.014327e+01
0	 7.176471e+00	 3.764706e+00	 1.014332e+01
0	 7.176471e+00	 3.882353e+00	 1.014310e+01
0	 7.176471e+00	 4.000000e+00	 1.014263e+01
0	 7.176471e+00	 4.117647e+00	 1.014189e+01
0	 7.294118e+00	 3.529412e+00	 1.012994e+01
0	 7.294118e+00	 3.647059e+00	 1.013051e+01
0	 7.294118e+00	 3.764706e+00	 1.013085e+01
0	 7.294118e+00	 3.882353e+00	 1.013093e+01
0	 7.294118e+00	 4.000000e+00	 1.013076e+01
0	 7.294118e+00	 4.117647e+00	 1.013032e+01
0	 7.411765e+00	 3.529412e+00	 1.011709e+01
0	 7.411765e+00	 3.647059e+00	 1.011796e+01
0	 7.411765e+00	 3.764706e+00	 1.011859e+01
0	 7.411765e+00	 3.882353e+00	 1.011895e+01
0	 7.411765e+00	 4.000000e+00	 1.011905e+01
0	 7.411765e+00	 4.117647e+00	 1.011888e+01
0	 7.529412e+00	 3.529412e+00	 1.010443e+01
0	 7.529412e+00	 3.647059e+00	 1.010559e+01
0	 7.529412e+00	 3.764706e+00	 1.010650e+01
0	 7.529412e+00	 3.882353e+00	 1.010713e+01
0	 7.529412e+00	 4.000000e+00	 1.010749e+01
0	 7.529412e+00	 4.117647e+00	 1.010757e+01
0	 7.647059e+00	 3.529412e+00	 1.009195e+01
0	 7.647059e+00	 3.647059e+00	 1.009339e+01
0	 7.647059e+00	 3.764706e+00	 1.009455e+01
0	 7.647059e+00	 3.882353e+00	 1.009544e+01
0	 7.647059e+00	 4.000000e+00	 1.009606e+01
0	 7.647059e+00	 4.117647e+00	 1.009639e+01
0	 7.058824e+00	 4.117647e+00	 1.015359e+01
0	 7.058824e+00	 4.235294e+00	 1.015222e+01
0	 7.058824e+00	 4.352941e+00	 1.015057e+01
0	 7.058824e+00	 4.470588e+00	 1.014863e+01
0	 7.058824e+00	 4.588235e+00	 1.014638e+01
0	 7.058824e+00	 4.705882e+00	 1.014379e+01
0	 7.176471e+00	 4.117647e+00	 1.014189e+01
0	 7.176471e+00	 4.235294e+00	 1.014087e+01
0	 7.176471e+00	 4.352941e+00	 1.013956e+01
0	 7.176471e+00	 4.470588e+00	 1.013796e+01
0	 7.176471e+00	 4.588235e+00	 1.013605e+01
0	 7.176471e+00	 4.705882e+00	 1.013382e+01
0	 7.294118e+00	 4.117647e+00	 1.013032e+01
0	 7.294118e+00	 4.235294e+00	 1.012960e+01
0	 7.294118e+00	 4.352941e+00	 1.012861e+01
0	 7.294118e+00	 4.470588e+00	 1.012733e+01
0	 7.294118e+00	 4.588235e+00	 1.012576e+01
0	 7.294118e+00	 4.705882e+00	 1.012390e+01
0	 7.411765e+00	 4.117647e+00	 1.011888e+01
0	 7.411765e+00	 4.235294e+00	 1.011844e+01
0	 7.411765e+00	 4.352941e+00	 1.011774e+01
0	 7.411765e+00	 4.470588e+00	 1.011678e+01
0	 7.411765e+00	 4.588235e+00	 1.011555e+01
0	 7.411765e+00	 4.705882e+00	 1.011407e+01
0	 7.529412e+00	 4.117647e+00	 1.010757e+01
0	 7.529412e+00	 4.235294e+00	 1.010739e+01
0	 7.529412e+00	 4.352941e+00	 1.010698e+01
0	 7.529412e+00	 4.470588e+00	 1.010634e+01
0	 7.529412e+00	 4.588235e+00	 1.010546e+01
0	 7.529412e+00	 4.705882e+00	 1.010434e+01
0	 7.647059e+00	 4.117647e+00	 1.009639e+01
0	 7.647059e+00	 4.235294e+00	 1.009648e+01
0	 7.647059e+00	 4.352941e+00	 1.009637e+01
0	 7.647059e+00	 4.470588e+00	 1.009604e+01
0	 7.647059e+00	 4.588235e+00	 1.009550e+01
0	 7.647059e+00	 4.705882e+00	 1.009475e+01
0	 7.058824e+00	 4.705882e+00	 1.014379e+01
0	 7.058824e+00	 4.823529e+00	 1.014097e+01
0	 7.058824e+00	 4.941176e+00	 1.013801e+01
0	 7.058824e+00	 5.058824e+00	 1.013489e+01
0	 7.058824e+00	 5.176471e+00	 1.013162e+01
0	 7.058824e+00	 5.294118e+00	 1.012816e+01
0	 7.176471e+00	 4.705882e+00	 1.013382e+01
0	 7.176471e+00	 4.823529e+00	 1.013136e+01
0	 7.176471e+00	 4.941176e+00	 1.012878e+01
0	 7.176471e+00	 5.058824e+00	 1.012605e+01
0	 7.176471e+00	 5.176471e+00	 1.012316e+01
0	 7.176471e+00	 5.294118e+00	 1.012010e+01
0	 7.294118e+00	 4.705882e+00	 1.012390e+01
0	 7.294118e+00	 4.823529e+00	 1.012183e+01
0	 7.294118e+00	 4.941176e+00	 1.011962e+01
0	 7.294118e+00	 5.058824e+00	 1.011727e+01
0	 7.294118e+00	 5.176471e+00	 1.011474e+01
0	 7.294118e+00	 5.294118e+00	 1.011203e+01
0	 7.411765e+00	 4.705882e+00	 1.011407e+01
0	 7.411765e+00	 4.823529e+00	 1.011238e+01
0	 7.411765e+00	 4.941176e+00	 1.011055e+01
0	 7.411765e+00	 5.058824e+00	 1.010855e+01
0	 7.411765e+00	 5.176471e+00	 1.010637e+01
0	 7.411765e+00	 5.294118e+00	 1.010400e+01
0	 7.529412e+00	 4.705882e+00	 1.010434e+01
0	 7.529412e+00	 4.823529e+00	 1.010304e+01
0	 7.529412e+00	 4.941176e+00	 1.010156e+01
0	 7.529412e+00	 5.058824e+00	 1.009991e+01
0	 7.529412e+00	 5.176471e+00	 1.009806e+01
0	 7.529412e+00	 5.294118e+00	 1.009600e+01
0	 7.647059e+00	 4.705882e+00	 1.009475e+01
0	 7.647059e+00	 4.823529e+00	 1.009380e+01
0	 7.647059e+00	 4.941176e+00	 1.009267e+01
0	 7.647059e+00	 5.058824e+00	 1.009135e+01
0	 7.647059e+00	 5.176471e+00	 1.008982e+01
0	 7.647059e+00	 5.294118e+00	 1.008808e+01
0	 7.058824e+00	 5.294118e+00	 1.012816e+01
0	 7.058824e+00	 5.411765e+00	 1.012458e+01
0	 7.058824e+00	 5.529412e+00	 1.012090e+01
0	 7.058824e+00	 5.647059e+00	 1.011710e+01
0	 7.058824e+00	 5.764706e+00	 1.011317e+01
0	 7.058824e+00	 5.882353e+00	 1.010909e+01
0	 7.176471e+00	 5.294118e+00	 1.012010e+01
0	 7.176471e+00	 5.411765e+00	 1.011689e+01
0	 7.176471e+00	 5.529412e+00	 1.011357e+01
0	 7.176471e+00	 5.647059e+00	 1.011011e+01
0	 7.176471e+00	 5.764706e+00	 1.010652e+01
0	 7.176471e+00	 5.882353e+00	 1.010277e+01
0	 7.294118e+00	 5.294118e+00	 1.011203e+01
0	 7.294118e+00	 5.411765e+00	 1.010917e+01
0	 7.294118e+00	 5.529412e+00	 1.010619e+01
0	 7.294118e+00	 5.647059e+00	 1.010307e+01
0	 7.294118e+00	 5.764706e+00	 1.009982e+01
0	 7.294118e+00	 5.882353e+00	 1.009641e+01
0	 7.411765e+00	 5.294118e+00	 1.010400e+01
0	 7.411765e+00	 5.411765e+00	 1.010146e+01
0	 7.411765e+00	 5.529412e+00	 1.009880e+01
0	 7.411765e+00	 5.647059e+00	 1.009602e+01
0	 7.411765e+00	 5.764706e+00	 1.009311e+01
0	 7.411765e+00	 5.882353e+00	 1.009005e+01
0	 7.529412e+00	 5.294118e+00	 1.009600e+01
0	 7.529412e+00	 5.411765e+00	 1.009378e+01
0	 7.529412e+00	 5.529412e+00	 1.009145e+01
0	 7.529412e+00	 5.647059e+00	 1.008900e+01
0	 7.529412e+00	 5.764706e+00	 1.008642e+01
0	 7.529412e+00	 5.882353e+00	 1.008371e+01
0	 7.647059e+00	 5.294118e+00	 1.008808e+01
0	 7.647059e+00	 5.411765e+00	 1.008618e+01
0	 7.647059e+00	 5.529412e+00	 1.008417e+01
0	 7.647059e+00	 5.647059e+00	 1.008205e+01
0	 7.647059e+00	 5.764706e+00	 1.007981e+01
0	 7.647059e+00	 5.882353e+00	 1.007744e+01
0	 7.058824e+00	 5.882353e+00	 1.010909e+01
0	 7.058824e+00	 6.000000e+00	 1.010493e+01
0	 7.058824e+00	 6.117647e+00	 1.010076e+01
0	 7.058824e+00	 6.235294e+00	 1.009658e+01
0	 7.058824e+00	 6.352941e+00	 1.009237e+01
0	 7.058824e+00	 6.470588e+00	 1.008813e+01
0	 7.176471e+00	 5.882353e+00	 1.010277e+01
0	 7.176471e+00	 6.000000e+00	 1.009894e+01
0	 7.176471e+00	 6.117647e+00	 1.009511e+01
0	 7.176471e+00	 6.235294e+00	 1.009125e+01
0	 7.176471e+00	 6.352941e+00	 1.008737e+01
0	 7.176471e+00	 6.470588e+00	 1.008343e+01
0	 7.294118e+00	 5.882353e+00	 1.009641e+01
0	 7.294118e+00	 6.000000e+00	 1.009293e+01
0	 7.294118e+00	 6.117647e+00	 1.008943e+01
0	 7.294118e+00	 6.235294e+00	 1.008589e+01
0	 7.294118e+00	 6.352941e+00	 1.008231e+01
0	 7.294118e+00	 6.470588e+00	 1.007867e+01
0	 7.411765e+00	 5.882353e+00	 1.009005e+01
0	 7.411765e+00	 6.000000e+00	 1.008691e+01
0	 7.411765e+00	 6.117647e+00	 1.008374e+01
0	 7.411765e+00	 6.235294e+00	 1.008052e+01
0	 7.411765e+00	 6.352941e+00	 1.007724e+01
0	 7.411765e+00	 6.470588e+00	 1.007389e+01
0	 7.529412e+00	 5.882353e+00	 1.008371e+01
0	 7.529412e+00	 6.000000e+00	 1.008092e+01
0	 7.529412e+00	 6.117647e+00	 1.007807e+01
0	 7.529412e+00	 6.235294e+00	 1.007516e+01
0	 7.529412e+00	 6.352941e+00	 1.007218e+01
0	 7.529412e+00	 6.470588e+00	 1.006910e+01
0	 7.647059e+00	 5.882353e+00	 1.007744e+01
0	 7.647059e+00	 6.000000e+00	 1.007497e+01
0	 7.647059e+00	 6.117647e+00	 1.007244e+01
0	 7.647059e+00	 6.235294e+00	 1.006983e+01
0	 7.647059e+00	 6.352941e+00	 1.006713e+01
0	 7.647059e+00	 6.470588e+00	 1.006433e+01
0	 7.058824e+00	 6.470588e+00	 1.008813e+01
0	 7.058824e+00	 6.588235e+00	 1.008388e+01
0	 7.058824e+00	 6.705882e+00	 1.007966e+01
0	 7.058824e+00	 6.823529e+00	 1.007546e+01
0	 7.058824e+00	 6.941176e+00	 1.007125e+01
0	 7.058824e+00	 7.058824e+00	 1.006703e+01
0	 7.176471e+00	 6.470588e+00	 1.008343e+01
0	 7.176471e+00	 6.588235e+00	 1.007947e+01
0	 7.176471e+00	 6.705882e+00	 1.007553e+01
0	 7.176471e+00	 6.823529e+00	 1.007159e+01
0	 7.176471e+00	 6.941176e+00	 1.006764e+01
0	 7.176471e+00	 7.058824e+00	 1.006367e+01
0	 7.294118e+00	 6.470588e+00	 1.007867e+01
0	 7.294118e+00	 6.588235e+00	 1.007500e+01
0	 7.294118e+00	 6.705882e+00	 1.007133e+01
0	 7.294118e+00	 6.823529e+00	 1.006766e+01
0	 7.294118e+00	 6.941176e+00	 1.006397e+01
0	 7.294118e+00	 7.058824e+00	 1.006025e+01
0	 7.411765e+00	 6.470588e+00	 1.007389e+01
0	 7.411765e+00	 6.588235e+00	 1.007049e+01
0	 7.411765e+00	 6.705882e+00	 1.006709e+01
0	 7.411765e+00	 6.823529e+00	 1.006368e+01
0	 7.411765e+00	 6.941176e+00	 1.006026e+01
0	 7.411765e+00	 7.058824e+00	 1.005680e+01
0	 7.529412e+00	 6.470588e+00	 1.006910e+01
0	 7.529412e+00	 6.588235e+00	 1.006597e+01
0	 7.529412e+00	 6.705882e+00	 1.006284e+01
0	 7.529412e+00	 6.823529e+00	 1.005970e+01
0	 7.529412e+00	 6.941176e+00	 1.005653e+01
0	 7.529412e+00	 7.058824e+00	 1.005334e+01
0	 7.647059e+00	 6.470588e+00	 1.006433e+01
0	 7.647059e+00	 6.588235e+00	 1.006147e+01
0	 7.647059e+00	 6.705882e+00	 1.005861e+01
0	 7.647059e+00	 6.823529e+00	 1.005574e+01
0	 7.647059e+00	 6.941176e+00	 1.005284e+01
0	 7.647059e+00	 7.058824e+00	 1.004990e+01
0	 7.058824e+00	 7.058824e+00	 1.006703e+01
0	 7.058824e+00	 7.176471e+00	 1.006285e+01
0	 7.058824e+00	 7.294118e+00	 1.005875e+01
0	 7.058824e+00	 7.411765e+00	 1.005473e+01
0	 7.058824e+00	 7.529412e+00	 1.005077e+01
0	 7.058824e+00	 7.647059e+00	 1.004687e+01
0	 7.176471e+00	 7.058824e+00	 1.006367e+01
0	 7.176471e+00	 7.176471e+00	 1.005973e+01
0	 7.176471e+00	 7.294118e+00	 1.005587e+01
0	 7.176471e+00	 7.411765e+00	 1.005208e+01
0	 7.176471e+00	 7.529412e+00	 1.004834e+01
0	 7.176471e+00	 7.647059e+00	 1.004464e+01
0	 7.294118e+00	 7.058824e+00	 1.006025e+01
0	 7.294118e+00	 7.176471e+00	 1.005656e+01
0	 7.294118e+00	 7.294118e+00	 1.005294e+01
0	 7.294118e+00	 7.411765e+00	 1.004938e+01
0	 7.294118e+00	 7.529412e+00	 1.004586e+01
0	 7.294118e+00	 7.647059e+00	 1.004238e+01
0	 7.411765e+00	 7.058824e+00	 1.005680e+01
0	 7.411765e+00	 7.176471e+00	 1.005337e+01
0	 7.411765e+00	 7.294118e+00	 1.004999e+01
0	 7.411765e+00	 7.411765e+00	 1.004666e+01
0	 7.411765e+00	 7.529412e+00	 1.004336e+01
0	 7.411765e+00	 7.647059e+00	 1.004007e+01
0	 7.529412e+00	 7.058824e+00	 1.005334e+01
0	 7.529412e+00	 7.176471e+00	 1.005016e+01
0	 7.529412e+00	 7.294118e+00	 1.004703e+01
0	 7.529412e+00	 7.411765e+00	 1.004392e+01
0	 7.529412e+00	 7.529412e+00	 1.004084e+01
0	 7.529412e+00	 7.647059e+00	 1.003776e+01
0	 7.647059e+00	 7.058824e+00	 1.004990e+01
0	 7.647059e+00	 7.176471e+00	 1.004697e+01
0	 7.647059e+00	 7.294118e+00	 1.004407e+01
0	 7.647059e+00	 7.411765e+00	 1.004119e+01
0	 7.647059e+00	 7.529412e+00	 1.003832e+01
0	 7.647059e+00	 7.647059e+00	 1.003545e+01
0	 7.058824e+00	 7.647059e+00	 1.004687e+01
0	 7.058824e+00	 7.764706e+00	 1.004305e+01
0	 7.058824e+00	 7.882353e+00	 1.003935e+01
0	 7.058824e+00	 8.000000e+00	 1.003577e+01
0	 7.058824e+00	 8.117647e+00	 1.003227e+01
0	 7.058824e+00	 8.235294e+00	 1.002885e+01
0	 7.176471e+00	 7.647059e+00	 1.004464e+01
0	 7.176471e+00	 7.764706e+00	 1.004103e+01
0	 7.176471e+00	 7.882353e+00	 1.003752e+01
0	 7.176471e+00	 8.000000e+00	 1.003411e+01
0	 7.176471e+00	 8.117647e+00	 1.003078e+01
0	 7.176471e+00	 8.235294e+00	 1.002752e+01
0	 7.294118e+00	 7.647059e+00	 1.004238e+01
0	 7.294118e+00	 7.764706e+00	 1.003895e+01
0	 7.294118e+00	 7.882353e+00	 1.003563e+01
0	 7.294118e+00	 8.000000e+00	 1.003240e+01
0	 7.294118e+00	 8.117647e+00	 1.002925e+01
0	 7.294118e+00	 8.235294e+00	 1.002616e+01
0	 7.411765e+00	 7.647059e+00	 1.004007e+01
0	 7.411765e+00	 7.764706e+00	 1.003685e+01
0	 7.411765e+00	 7.882353e+00	 1.003372e+01
0	 7.411765e+00	 8.000000e+00	 1.003067e+01
0	 7.411765e+00	 8.117647e+00	 1.002769e+01
0	 7.411765e+00	 8.235294e+00	 1.002478e+01
0	 7.529412e+00	 7.647059e+00	 1.003776e+01
0	 7.529412e+00	 7.764706e+00	 1.003473e+01
0	 7.529412e+00	 7.882353e+00	 1.003179e+01
0	 7.529412e+00	 8.000000e+00	 1.002892e+01
0	 7.529412e+00	 8.117647e+00	 1.002613e+01
0	 7.529412e+00	 8.235294e+00	 1.002338e+01
0	 7.647059e+00	 7.647059e+00	 1.003545e+01
0	 7.647059e+00	 7.764706e+00	 1.003261e+01
0	 7.647059e+00	 7.882353e+00	 1.002986e+01
0	 7.647059e+00	 8.000000e+00	 1.002718e+01
0	 7.647059e+00	 8.117647e+00	 1.002457e+01
0	 7.647059e+00	 8.235294e+00	 1.002200e+01
0	 7.058824e+00	 8.235294e+00	 1.002885e+01
0	 7.058824e+00	 8.352941e+00	 1.002557e+01
0	 7.058824e+00	 8.470588e+00	 1.002246e+01
0	 7.058824e+00	 8.588235e+00	 1.001951e+01
0	 7.058824e+00	 8.705882e+00	 1.001671e+01
0	 7.058824e+00	 8.823529e+00	 1.001404e+01
0	 7.176471e+00	 8.235294e+00	 1.002752e+01
0	 7.176471e+00	 8.352941e+00	 1.002439e+01
0	 7.176471e+00	 8.470588e+00	 1.002143e+01
0	 7.176471e+00	 8.588235e+00	 1.001862e+01
0	 7.176471e+00	 8.705882e+00	 1.001595e+01
0	 7.176471e+00	 8.823529e+00	 1.001341e+01
0	 7.294118e+00	 8.235294e+00	 1.002616e+01
0	 7.294118e+00	 8.352941e+00	 1.002319e+01
0	 7.294118e+00	 8.470588e+00	 1.002038e+01
0	 7.294118e+00	 8.588235e+00	 1.001771e+01
0	 7.294118e+00	 8.705882e+00	 1.001517e+01
0	 7.294118e+00	 8.823529e+00	 1.001275e+01
0	 7.411765e+00	 8.235294e+00	 1.002478e+01
0	 7.411765e+00	 8.352941e+00	 1.002197e+01
0	 7.411765e+00	 8.470588e+00	 1.001931e+01
0	 7.411765e+00	 8.588235e+00	 1.001679e+01
0	 7.411765e+00	 8.705882e+00	 1.001438e+01
0	 7.411765e+00	 8.823529e+00	 1.001209e+01
0	 7.529412e+00	 8.235294e+00	 1.002338e+01
0	 7.529412e+00	 8.352941e+00	 1.002074e+01
0	 7.529412e+00	 8.470588e+00	 1.001824e+01
0	 7.529412e+00	 8.588235e+00	 1.001586e+01
0	 7.529412e+00	 8.705882e+00	 1.001359e+01
0	 7.529412e+00	 8.823529e+00	 1.001142e+01
0	 7.647059e+00	 8.235294e+00	 1.002200e+01
0	 7.647059e+00	 8.352941e+00	 1.001952e+01
0	 7.647059e+00	 8.470588e+00	 1.001717e+01
0	 7.647059e+00	 8.588235e+00	 1.001494e+01
0	 7.647059e+00	 8.705882e+00	 1.001280e+01
0	 7.647059e+00	 8.823529e+00	 1.001075e+01
0	 7.058824e+00	 8.823529e+00	 1.001404e+01
0	 7.058824e+00	 8.941176e+00	 1.001156e+01
0	 7.058824e+00	 9.058824e+00	 1.000932e+01
0	 7.058824e+00	 9.176471e+00	 1.000731e+01
0	 7.058824e+00	 9.294118e+00	 1.000549e+01
0	 7.058824e+00	 9.411765e+00	 1.000386e+01
0	 7.176471e+00	 8.823529e+00	 1.001341e+01
0	 7.176471e+00	 8.941176e+00	 1.001104e+01
0	 7.176471e+00	 9.058824e+00	 1.000890e+01
0	 7.176471e+00	 9.176471e+00	 1.000698e+01
0	 7.176471e+00	 9.294118e+00	 1.000524e+01
0	 7.176471e+00	 9.411765e+00	 1.000369e+01
0	 7.294118e+00	 8.823529e+00	 1.001275e+01
0	 7.294118e+00	 8.941176e+00	 1.001050e+01
0	 7.294118e+00	 9.058824e+00	 1.000846e+01
0	 7.294118e+00	 9.176471e+00	 1.000663e+01
0	 7.294118e+00	 9.294118e+00	 1.000498e+01
0	 7.294118e+00	 9.411765e+00	 1.000350e+01
0	 7.411765e+00	 8.823529e+00	 1.001209e+01
0	 7.411765e+00	 8.941176e+00	 1.000995e+01
0	 7.411765e+00	 9.058824e+00	 1.000801e+01
0	 7.411765e+00	 9.176471e+00	 1.000627e+01
0	 7.411765e+00	 9.294118e+00	 1.000471e+01
0	 7.411765e+00	 9.411765e+00	 1.000331e+01
0	 7.529412e+00	 8.823529e+00	 1.001142e+01
0	 7.529412e+00	 8.941176e+00	 1.000939e+01
0	 7.529412e+00	 9.058824e+00	 1.000756e+01
0	 7.529412e+00	 9.176471e+00	 1.000592e+01
0	 7.529412e+00	 9.294118e+00	 1.000444e+01
0	 7.529412e+00	 9.411765e+00	 1.000312e+01
0	 7.647059e+00	 8.823529e+00	 1.001075e+01
0	 7.647059e+00	 8.941176e+00	 1.000884e+01
0	 7.647059e+00	 9.058824e+00	 1.000712e+01
0	 7.647059e+00	 9.176471e+00	 1.000558e+01
0	 7.647059e+00	 9.294118e+00	 1.000419e+01
0	 7.647059e+00	 9.411765e+00	 1.000295e+01
0	 7.058824e+00	 9.411765e+00	 1.000386e+01
0	 7.058824e+00	 9.529412e+00	 1.000248e+01
0	 7.058824e+00	 9.647059e+00	 1.000142e+01
0	 7.058824e+00	 9.764706e+00	 1.000067e+01
0	 7.058824e+00	 9.882353e+00	 1.000019e+01
0	 7.058824e+00	 1.000000e+01	 9.999961e+00
0	 7.176471e+00	 9.411765e+00	 1.000369e+01
0	 7.176471e+00	 9.529412e+00	 1.000237e+01
0	 7.176471e+00	 9.647059e+00	 1.000136e+01
0	 7.176471e+00	 9.764706e+00	 1.000064e+01
0	 7.176471e+00	 9.882353e+00	 1.000019e+01
0	 7.176471e+00	 1.000000e+01	 9.999971e+00
0	 7.294118e+00	 9.411765e+00	 1.000350e+01
0	 7.294118e+00	 9.529412e+00	 1.000225e+01
0	 7.294118e+00	 9.647059e+00	 1.000129e+01
0	 7.294118e+00	 9.764706e+00	 1.000061e+01
0	 7.294118e+00	 9.882353e+00	 1.000017e+01
0	 7.294118e+00	 1.000000e+01	 9.999964e+00
0	 7.411765e+00	 9.411765e+00	 1.000331e+01
0	 7.411765e+00	 9.529412e+00	 1.000213e+01
0	 7.411765e+00	 9.647059e+00	 1.000122e+01
0	 7.411765e+00	 9.764706e+00	 1.000057e+01
0	 7.411765e+00	 9.882353e+00	 1.000015e+01
0	 7.411765e+00	 1.000000e+01	 9.999953e+00
0	 7.529412e+00	 9.411765e+00	 1.000312e+01
0	 7.529412e+00	 9.529412e+00	 1.000201e+01
0	 7.529412e+00	 9.647059e+00	 1.000115e+01
0	 7.529412e+00	 9.764706e+00	 1.000053e+01
0	 7.529412e+00	 9.882353e+00	 1.000014e+01
0	 7.529412e+00	 1.000000e+01	 9.999947e+00
0	 7.647059e+00	 9.411765e+00	 1.000295e+01
0	 7.647059e+00	 9.529412e+00	 1.000190e+01
0	 7.647059e+00	 9.647059e+00	 1.000109e+01
0	 7.647059e+00	 9.764706e+00	 1.000051e+01
0	 7.647059e+00	 9.882353e+00	 1.000014e+01
0	 7.647059e+00	 1.000000e+01	 9.999957e+00
0	 7.647059e+00	 0.000000e+00	 1.001561e+01
0	 7.647059e+00	 1.176471e-01	 1.001581e+01
0	 7.647059e+00	 2.352941e-01	 1.001629e+01
0	 7.647059e+00	 3.529412e-01	 1.001710e+01
0	 7.647059e+00	 4.705882e-01	 1.001831e+01
0	 7.647059e+00	 5.882353e-01	 1.001997e+01
0	 7.764706e+00	 0.000000e+00	 1.000302e+01
0	 7.764706e+00	 1.176471e-01	 1.000296e+01
0	 7.764706e+00	 2.352941e-01	 1.000332e+01
0	 7.764706e+00	 3.529412e-01	 1.000410e+01
0	 7.764706e+00	 4.705882e-01	 1.000533e+01
0	 7.764706e+00	 5.882353e-01	 1.000701e+01
0	 7.882353e+00	 0.000000e+00	 9.990030e+00
0	 7.882353e+00	 1.176471e-01	 9.989873e+00
0	 7.882353e+00	 2.352941e-01	 9.990201e+00
0	 7.882353e+00	 3.529412e-01	 9.990990e+00
0	 7.882353e+00	 4.705882e-01	 9.992214e+00
0	 7.882353e+00	 5.882353e-01	 9.993850e+00
0	 8.000000e+00	 0.000000e+00	 9.976636e+00
0	 8.000000e+00	 1.176471e-01	 9.976525e+00
0	 8.000000e+00	 2.352941e-01	 9.976892e+00
0	 8.000000e+00	 3.529412e-01	 9.977697e+00
0	 8.000000e+00	 4.705882e-01	 9.978897e+00
0	 8.000000e+00	 5.882353e-01	 9.980454e+00
0	 8.117647e+00	 0.000000e+00	 9.962851e+00
0	 8.117647e+00	 1.176471e-01	 9.962885e+00
0	 8.117647e+00	 2.352941e-01	 9.963336e+00
0	 8.117647e+00	 3.529412e-01	 9.964163e+00
0	 8.117647e+00	 4.705882e-01	 9.965329e+00
0	 8.117647e+00	 5.882353e-01	 9.966795e+00
0	 8.235294e+00	 0.000000e+00	 9.948688e+00
0	 8.235294e+00	 1.176471e-01	 9.948925e+00
0	 8.235294e+00	 2.352941e-01	 9.949478e+00
0	 8.235294e+00	 3.529412e-01	 9.950328e+00
0	 8.235294e+00	 4.705882e-01	 9.951457e+00
0	 8.235294e+00	 5.882353e-01	 9.952843e+00
0	 7.647059e+00	 5.882353e-01	 1.001997e+01
0	 7.647059e+00	 7.058824e-01	 1.002197e+01
0	 7.647059e+00	 8.235294e-01	 1.002414e+01
0	 7.647059e+00	 9.411765e-01	 1.002652e+01
0	 7.647059e+00	 1.058824e+00	 1.002912e+01
0	 7.647059e+00	 1.176471e+00	 1.003198e+01
0	 7.764706e+00	 5.882353e-01	 1.000701e+01
0	 7.764706e+00	 7.058824e-01	 1.000899e+01
0	 7.764706e+00	 8.235294e-01	 1.001113e+01
0	 7.764706e+00	 9.411765e-01	 1.001346e+01
0	 7.764706e+00	 1.058824e+00	 1.001600e+01
0	 7.764706e+00	 1.176471e+00	 1.001876e+01
0	 7.882353e+00	 5.882353e-01	 9.993850e+00
0	 7.882353e+00	 7.058824e-01	 9.995761e+00
0	 7.882353e+00	 8.235294e-01	 9.997845e+00
0	 7.882353e+00	 9.411765e-01	 1.000013e+01
0	 7.882353e+00	 1.058824e+00	 1.000262e+01
0	 7.882353e+00	 1.176471e+00	 1.000536e+01
0	 8.000000e+00	 5.882353e-01	 9.980454e+00
0	 8.000000e+00	 7.058824e-01	 9.982268e+00
0	 8.000000e+00	 8.235294e-01	 9.984285e+00
0	 8.000000e+00	 9.411765e-01	 9.986526e+00
0	 8.000000e+00	 1.058824e+00	 9.989011e+00
0	 8.000000e+00	 1.176471e+00	 9.991761e+00
0	 8.117647e+00	 5.882353e-01	 9.966795e+00
0	 8.117647e+00	 7.058824e-01	 9.968510e+00
0	 8.117647e+00	 8.235294e-01	 9.970466e+00
0	 8.117647e+00	 9.411765e-01	 9.972679e+00
0	 8.117647e+00	 1.058824e+00	 9.975169e+00
0	 8.117647e+00	 1.176471e+00	 9.977954e+00
0	 8.235294e+00	 5.882353e-01	 9.952843e+00
0	 8.235294e+00	 7.058824e-01	 9.954484e+00
0	 8.235294e+00	 8.235294e-01	 9.956399e+00
0	 8.235294e+00	 9.411765e-01	 9.958602e+00
0	 8.235294e+00	 1.058824e+00	 9.961107e+00
0	 8.235294e+00	 1.176471e+00	 9.963929e+00
0	 7.647059e+00	 1.176471e+00	 1.003198e+01
0	 7.647059e+00	 1.294118e+00	 1.003501e+01
0	 7.647059e+00	 1.411765e+00	 1.003815e+01
0	 7.647059e+00	 1.529412e+00	 1.004142e+01
0	 7.647059e+00	 1.647059e+00	 1.004485e+01
0	 7.647059e+00	 1.764706e+00	 1.004844e+01
0	 7.764706e+00	 1.176471e+00	 1.001876e+01
0	 7.764706e+00	 1.294118e+00	 1.002170e+01
0	 7.764706e+00	 1.411765e+00	 1.002476e+01
0	 7.764706e+00	 1.529412e+00	 1.002795e+01
0	 7.764706e+00	 1.647059e+00	 1.003129e+01
0	 7.764706e+00	 1.764706e+00	 1.003482e+01
0	 7.882353e+00	 1.176471e+00	 1.000536e+01
0	 7.882353e+00	 1.294118e+00	 1.000828e+01
0	 7.882353e+00	 1.411765e+00	 1.001130e+01
0	 7.882353e+00	 1.529412e+00	 1.001447e+01
0	 7.882353e+00	 1.647059e+00	 1.001779e+01
0	 7.882353e+00	 1.764706e+00	 1.002128e+01
0	 8.000000e+00	 1.176471e+00	 9.991761e+00
0	 8.000000e+00	 1.294118e+00	 9.994699e+00
0	 8.000000e+00	 1.411765e+00	 9.997745e+00
0	 8.000000e+00	 1.529412e+00	 1.000092e+01
0	 8.000000e+00	 1.647059e+00	 1.000425e+01
0	 8.000000e+00	 1.764706e+00	 1.000775e+01
0	 8.117647e+00	 1.176471e+00	 9.977954e+00
0	 8.117647e+00	 1.294118e+00	 9.980937e+00
0	 8.117647e+00	 1.411765e+00	 9.984027e+00
0	 8.117647e+00	 1.529412e+00	 9.987244e+00
0	 8.117647e+00	 1.647059e+00	 9.990609e+00
0	 8.117647e+00	 1.764706e+00	 9.994141e+00
0	 8.235294e+00	 1.176471e+00	 9.963929e+00
0	 8.235294e+00	 1.294118e+00	 9.966962e+00
0	 8.235294e+00	 1.411765e+00	 9.970103e+00
0	 8.235294e+00	 1.529412e+00	 9.973374e+00
0	 8.235294e+00	 1.647059e+00	 9.976793e+00
0	 8.235294e+00	 1.764706e+00	 9.980380e+00
0	 7.647059e+00	 1.764706e+00	 1.004844e+01
0	 7.647059e+00	 1.882353e+00	 1.005209e+01
0	 7.647059e+00	 2.000000e+00	 1.005567e+01
0	 7.647059e+00	 2.117647e+00	 1.005921e+01
0	 7.647059e+00	 2.235294e+00	 1.006275e+01
0	 7.647059e+00	 2.352941e+00	 1.006632e+01
0	 7.764706e+00	 1.764706e+00	 1.003482e+01
0	 7.764706e+00	 1.882353e+00	 1.003842e+01
0	 7.764706e+00	 2.000000e+00	 1.004197e+01
0	 7.764706e+00	 2.117647e+00	 1.004552e+01
0	 7.764706e+00	 2.235294e+00	 1.004908e+01
0	 7.764706e+00	 2.352941e+00	 1.005269e+01
0	 7.882353e+00	 1.764706e+00	 1.002128e+01
0	 7.882353e+00	 1.882353e+00	 1.002486e+01
0	 7.882353e+00	 2.000000e+00	 1.002841e+01
0	 7.882353e+00	 2.117647e+00	 1.003196e+01
0	 7.882353e+00	 2.235294e+00	 1.003554e+01
0	 7.882353e+00	 2.352941e+00	 1.003918e+01
0	 8.000000e+00	 1.764706e+00	 1.000775e+01
0	 8.000000e+00	 1.882353e+00	 1.001133e+01
0	 8.000000e+00	 2.000000e+00	 1.001489e+01
0	 8.000000e+00	 2.117647e+00	 1.001847e+01
0	 8.000000e+00	 2.235294e+00	 1.002207e+01
0	 8.000000e+00	 2.352941e+00	 1.002573e+01
0	 8.117647e+00	 1.764706e+00	 9.994141e+00
0	 8.117647e+00	 1.882353e+00	 9.997754e+00
0	 8.117647e+00	 2.000000e+00	 1.000136e+01
0	 8.117647e+00	 2.117647e+00	 1.000497e+01
0	 8.117647e+00	 2.235294e+00	 1.000862e+01
0	 8.117647e+00	 2.352941e+00	 1.001231e+01
0	 8.235294e+00	 1.764706e+00	 9.980380e+00
0	 8.235294e+00	 1.882353e+00	 9.984051e+00
0	 8.235294e+00	 2.000000e+00	 9.987721e+00
0	 8.235294e+00	 2.117647e+00	 9.991407e+00
0	 8.235294e+00	 2.235294e+00	 9.995124e+00
0	 8.235294e+00	 2.352941e+00	 9.998890e+00
0	 7.647059e+00	 2.352941e+00	 1.006632e+01
0	 7.647059e+00	 2.470588e+00	 1.006979e+01
0	 7.647059e+00	 2.588235e+00	 1.007305e+01
0	 7.647059e+00	 2.705882e+00	 1.007610e+01
0	 7.647059e+00	 2.823529e+00	 1.007896e+01
0	 7.647059e+00	 2.941176e+00	 1.008165e+01
0	 7.764706e+00	 2.352941e+00	 1.005269e+01
0	 7.764706e+00	 2.470588e+00	 1.005623e+01
0	 7.764706e+00	 2.588235e+00	 1.005955e+01
0	 7.764706e+00	 2.705882e+00	 1.006268e+01
0	 7.764706e+00	 2.823529e+00	 1.006563e+01
0	 7.764706e+00	 2.941176e+00	 1.006842e+01
0	 7.882353e+00	 2.352941e+00	 1.003918e+01
0	 7.882353e+00	 2.470588e+00	 1.004275e+01
0	 7.882353e+00	 2.588235e+00	 1.004613e+01
0	 7.882353e+00	 2.705882e+00	 1.004935e+01
0	 7.882353e+00	 2.823529e+00	 1.005242e+01
0	 7.882353e+00	 2.941176e+00	 1.005536e+01
0	 8.000000e+00	 2.352941e+00	 1.002573e+01
0	 8.000000e+00	 2.470588e+00	 1.002933e+01
0	 8.000000e+00	 2.588235e+00	 1.003279e+01
0	 8.000000e+00	 2.705882e+00	 1.003612e+01
0	 8.000000e+00	 2.823529e+00	 1.003932e+01
0	 8.000000e+00	 2.941176e+00	 1.004243e+01
0	 8.117647e+00	 2.352941e+00	 1.001231e+01
0	 8.117647e+00	 2.470588e+00	 1.001597e+01
0	 8.117647e+00	 2.588235e+00	 1.001952e+01
0	 8.117647e+00	 2.705882e+00	 1.002297e+01
0	 8.117647e+00	 2.823529e+00	 1.002633e+01
0	 8.117647e+00	 2.941176e+00	 1.002963e+01
0	 8.235294e+00	 2.352941e+00	 9.998890e+00
0	 8.235294e+00	 2.470588e+00	 1.000264e+01
0	 8.235294e+00	 2.588235e+00	 1.000630e+01
0	 8.235294e+00	 2.705882e+00	 1.000990e+01
0	 8.235294e+00	 2.823529e+00	 1.001343e+01
0	 8.235294e+00	 2.941176e+00	 1.001693e+01
0	 7.647059e+00	 2.941176e+00	 1.008165e+01
0	 7.647059e+00	 3.058824e+00	 1.008413e+01
0	 7.647059e+00	 3.176471e+00	 1.008639e+01
0	 7.647059e+00	 3.294118e+00	 1.008844e+01
0	 7.647059e+00	 3.411765e+00	 1.009029e+01
0	 7.647059e+00	 3.529412e+00	 1.009195e+01
0	 7.764706e+00	 2.941176e+00	 1.006842e+01
0	 7.764706e+00	 3.058824e+00	 1.007104e+01
0	 7.764706e+00	 3.176471e+00	 1.007346e+01
0	 7.764706e+00	 3.294118e+00	 1.007570e+01
0	 7.764706e+00	 3.411765e+00	 1.007776e+01
0	 7.764706e+00	 3.529412e+00	 1.007965e+01
0	 7.882353e+00	 2.941176e+00	 1.005536e+01
0	 7.882353e+00	 3.058824e+00	 1.005814e+01
0	 7.882353e+00	 3.176471e+00	 1.006074e+01
0	 7.882353e+00	 3.294118e+00	 1.006317e+01
0	 7.882353e+00	 3.411765e+00	 1.006543e+01
0	 7.882353e+00	 3.529412e+00	 1.006754e+01
0	 8.000000e+00	 2.941176e+00	 1.004243e+01
0	 8.000000e+00	 3.058824e+00	 1.004541e+01
0	 8.000000e+00	 3.176471e+00	 1.004821e+01
0	 8.000000e+00	 3.294118e+00	 1.005083e+01
0	 8.000000e+00	 3.411765e+00	 1.005329e+01
0	 8.000000e+00	 3.529412e+00	 1.005559e+01
0	 8.117647e+00	 2.941176e+00	 1.002963e+01
0	 8.117647e+00	 3.058824e+00	 1.003281e+01
0	 8.117647e+00	 3.176471e+00	 1.003582e+01
0	 8.117647e+00	 3.294118e+00	 1.003865e+01
0	 8.117647e+00	 3.411765e+00	 1.004131e+01
0	 8.117647e+00	 3.529412e+00	 1.004381e+01
0	 8.235294e+00	 2.941176e+00	 1.001693e+01
0	 8.235294e+00	 3.058824e+00	 1.002032e+01
0	 8.235294e+00	 3.176471e+00	 1.002354e+01
0	 8.235294e+00	 3.294118e+00	 1.002658e+01
0	 8.235294e+00	 3.411765e+00	 1.002946e+01
0	 8.235294e+00	 3.529412e+00	 1.003218e+01
0	 7.647059e+00	 3.529412e+00	 1.009195e+01
0	 7.647059e+00	 3.647059e+00	 1.009339e+01
0	 7.647059e+00	 3.764706e+00	 1.009455e+01
0	 7.647059e+00	 3.882353e+00	 1.009544e+01
0	 7.647059e+00	 4.000000e+00	 1.009606e+01
0	 7.647059e+00	 4.117647e+00	 1.009639e+01
0	 7.764706e+00	 3.529412e+00	 1.007965e+01
0	 7.764706e+00	 3.647059e+00	 1.008133e+01
0	 7.764706e+00	 3.764706e+00	 1.008274e+01
0	 7.764706e+00	 3.882353e+00	 1.008388e+01
0	 7.764706e+00	 4.000000e+00	 1.008475e+01
0	 7.764706e+00	 4.117647e+00	 1.008536e+01
0	 7.882353e+00	 3.529412e+00	 1.006754e+01
0	 7.882353e+00	 3.647059e+00	 1.006943e+01
0	 7.882353e+00	 3.764706e+00	 1.007107e+01
0	 7.882353e+00	 3.882353e+00	 1.007246e+01
0	 7.882353e+00	 4.000000e+00	 1.007360e+01
0	 7.882353e+00	 4.117647e+00	 1.007450e+01
0	 8.000000e+00	 3.529412e+00	 1.005559e+01
0	 8.000000e+00	 3.647059e+00	 1.005770e+01
0	 8.000000e+00	 3.764706e+00	 1.005957e+01
0	 8.000000e+00	 3.882353e+00	 1.006121e+01
0	 8.000000e+00	 4.000000e+00	 1.006262e+01
0	 8.000000e+00	 4.117647e+00	 1.006382e+01
0	 8.117647e+00	 3.529412e+00	 1.004381e+01
0	 8.117647e+00	 3.647059e+00	 1.004613e+01
0	 8.117647e+00	 3.764706e+00	 1.004823e+01
0	 8.117647e+00	 3.882353e+00	 1.005013e+01
0	 8.117647e+00	 4.000000e+00	 1.005183e+01
0	 8.117647e+00	 4.117647e+00	 1.005333e+01
0	 8.235294e+00	 3.529412e+00	 1.003218e+01
0	 8.235294e+00	 3.647059e+00	 1.003472e+01
0	 8.235294e+00	 3.764706e+00	 1.003708e+01
0	 8.235294e+00	 3.882353e+00	 1.003925e+01
0	 8.235294e+00	 4.000000e+00	 1.004123e+01
0	 8.235294e+00	 4.117647e+00	 1.004304e+01
0	 7.647059e+00	 4.117647e+00	 1.009639e+01
0	 7.647059e+00	 4.235294e+00	 1.009648e+01
0	 7.647059e+00	 4.352941e+00	 1.009637e+01
0	 7.647059e+00	 4.470588e+00	 1.009604e+01
0	 7.647059e+00	 4.588235e+00	 1.009550e+01
0	 7.647059e+00	 4.705882e+00	 1.009475e+01
0	 7.764706e+00	 4.117647e+00	 1.008536e+01
0	 7.764706e+00	 4.235294e+00	 1.008574e+01
0	 7.764706e+00	 4.352941e+00	 1.008593e+01
0	 7.764706e+00	 4.470588e+00	 1.008592e+01
0	 7.764706e+00	 4.588235e+00	 1.008571e+01
0	 7.764706e+00	 4.705882e+00	 1.008529e+01
0	 7.882353e+00	 4.117647e+00	 1.007450e+01
0	 7.882353e+00	 4.235294e+00	 1.007518e+01
0	 7.882353e+00	 4.352941e+00	 1.007568e+01
0	 7.882353e+00	 4.470588e+00	 1.007598e+01
0	 7.882353e+00	 4.588235e+00	 1.007609e+01
0	 7.882353e+00	 4.705882e+00	 1.007598e+01
0	 8.000000e+00	 4.117647e+00	 1.006382e+01
0	 8.000000e+00	 4.235294e+00	 1.006482e+01
0	 8.000000e+00	 4.352941e+00	 1.006562e+01
0	 8.000000e+00	 4.470588e+00	 1.006623e+01
0	 8.000000e+00	 4.588235e+00	 1.006664e+01
0	 8.000000e+00	 4.705882e+00	 1.006683e+01
0	 8.117647e+00	 4.117647e+00	 1.005333e+01
0	 8.117647e+00	 4.235294e+00	 1.005464e+01
0	 8.117647e+00	 4.352941e+00	 1.005576e+01
0	 8.117647e+00	 4.470588e+00	 1.005667e+01
0	 8.117647e+00	 4.588235e+00	 1.005736e+01
0	 8.117647e+00	 4.705882e+00	 1.005785e+01
0	 8.235294e+00	 4.117647e+00	 1.004304e+01
0	 8.235294e+00	 4.235294e+00	 1.004466e+01
0	 8.235294e+00	 4.352941e+00	 1.004608e+01
0	 8.235294e+00	 4.470588e+00	 1.004729e+01
0	 8.235294e+00	 4.588235e+00	 1.004828e+01
0	 8.235294e+00	 4.705882e+00	 1.004905e+01
0	 7.647059e+00	 4.705882e+00	 1.009475e+01
0	 7.647059e+00	 4.823529e+00	 1.009380e+01
0	 7.647059e+00	 4.941176e+00	 1.009267e+01
0	 7.647059e+00	 5.058824e+00	 1.009135e+01
0	 7.647059e+00	 5.176471e+00	 1.008982e+01
0	 7.647059e+00	 5.294118e+00	 1.008808e+01
0	 7.764706e+00	 4.705882e+00	 1.008529e+01
0	 7.764706e+00	 4.823529e+00	 1.008468e+01
0	 7.764706e+00	 4.941176e+00	 1.008387e+01
0	 7.764706e+00	 5.058824e+00	 1.008287e+01
0	 7.764706e+00	 5.176471e+00	 1.008167e+01
0	 7.764706e+00	 5.294118e+00	 1.008025e+01
0	 7.882353e+00	 4.705882e+00	 1.007598e+01
0	 7.882353e+00	 4.823529e+00	 1.007568e+01
0	 7.882353e+00	 4.941176e+00	 1.007518e+01
0	 7.882353e+00	 5.058824e+00	 1.007450e+01
0	 7.882353e+00	 5.176471e+00	 1.007361e+01
0	 7.882353e+00	 5.294118e+00	 1.007252e+01
0	 8.000000e+00	 4.705882e+00	 1.006683e+01
0	 8.000000e+00	 4.823529e+00	 1.006682e+01
0	 8.000000e+00	 4.941176e+00	 1.006663e+01
0	 8.000000e+00	 5.058824e+00	 1.006625e+01
0	 8.000000e+00	 5.176471e+00	 1.006569e+01
0	 8.000000e+00	 5.294118e+00	 1.006493e+01
0	 8.117647e+00	 4.705882e+00	 1.005785e+01
0	 8.117647e+00	 4.823529e+00	 1.005813e+01
0	 8.117647e+00	 4.941176e+00	 1.005824e+01
0	 8.117647e+00	 5.058824e+00	 1.005817e+01
0	 8.117647e+00	 5.176471e+00	 1.005793e+01
0	 8.117647e+00	 5.294118e+00	 1.005749e+01
0	 8.235294e+00	 4.705882e+00	 1.004905e+01
0	 8.235294e+00	 4.823529e+00	 1.004964e+01
0	 8.235294e+00	 4.941176e+00	 1.005005e+01
0	 8.235294e+00	 5.058824e+00	 1.005029e+01
0	 8.235294e+00	 5.176471e+00	 1.005036e+01
0	 8.235294e+00	 5.294118e+00	 1.005025e+01
0	 7.647059e+00	 5.294118e+00	 1.008808e+01
0	 7.647059e+00	 5.411765e+00	 1.008618e+01
0	 7.647059e+00	 5.529412e+00	 1.008417e+01
0	 7.647059e+00	 5.647059e+00	 1.008205e+01
0	 7.647059e+00	 5.764706e+00	 1.007981e+01
0	 7.647059e+00	 5.882353e+00	 1.007744e+01
0	 7.764706e+00	 5.294118e+00	 1.008025e+01
0	 7.764706e+00	 5.411765e+00	 1.007867e+01
0	 7.764706e+00	 5.529412e+00	 1.007699e+01
0	 7.764706e+00	 5.647059e+00	 1.007520e+01
0	 7.764706e+00	 5.764706e+00	 1.007328e+01
0	 7.764706e+00	 5.882353e+00	 1.007123e+01
0	 7.882353e+00	 5.294118e+00	 1.007252e+01
0	 7.882353e+00	 5.411765e+00	 1.007128e+01
0	 7.882353e+00	 5.529412e+00	 1.006992e+01
0	 7.882353e+00	 5.647059e+00	 1.006845e+01
0	 7.882353e+00	 5.764706e+00	 1.006685e+01
0	 7.882353e+00	 5.882353e+00	 1.006510e+01
0	 8.000000e+00	 5.294118e+00	 1.006493e+01
0	 8.000000e+00	 5.411765e+00	 1.006401e+01
0	 8.000000e+00	 5.529412e+00	 1.006298e+01
0	 8.000000e+00	 5.647059e+00	 1.006182e+01
0	 8.000000e+00	 5.764706e+00	 1.006052e+01
0	 8.000000e+00	 5.882353e+00	 1.005906e+01
0	 8.117647e+00	 5.294118e+00	 1.005749e+01
0	 8.117647e+00	 5.411765e+00	 1.005690e+01
0	 8.117647e+00	 5.529412e+00	 1.005619e+01
0	 8.117647e+00	 5.647059e+00	 1.005533e+01
0	 8.117647e+00	 5.764706e+00	 1.005432e+01
0	 8.117647e+00	 5.882353e+00	 1.005315e+01
0	 8.235294e+00	 5.294118e+00	 1.005025e+01
0	 8.235294e+00	 5.411765e+00	 1.004997e+01
0	 8.235294e+00	 5.529412e+00	 1.004956e+01
0	 8.235294e+00	 5.647059e+00	 1.004899e+01
0	 8.235294e+00	 5.764706e+00	 1.004827e+01
0	 8.235294e+00	 5.882353e+00	 1.004738e+01
0	 7.647059e+00	 5.882353e+00	 1.007744e+01
0	 7.647059e+00	 6.000000e+00	 1.007497e+01
0	 7.647059e+00	 6.117647e+00	 1.007244e+01
0	 7.647059e+00	 6.235294e+00	 1.006983e+01
0	 7.647059e+00	 6.352941e+00	 1.006713e+01
0	 7.647059e+00	 6.470588e+00	 1.006433e+01
0	 7.764706e+00	 5.882353e+00	 1.007123e+01
0	 7.764706e+00	 6.000000e+00	 1.006908e+01
0	 7.764706e+00	 6.117647e+00	 1.006685e+01
0	 7.764706e+00	 6.235294e+00	 1.006453e+01
0	 7.764706e+00	 6.352941e+00	 1.006211e+01
0	 7.764706e+00	 6.470588e+00	 1.005959e+01
0	 7.882353e+00	 5.882353e+00	 1.006510e+01
0	 7.882353e+00	 6.000000e+00	 1.006324e+01
0	 7.882353e+00	 6.117647e+00	 1.006130e+01
0	 7.882353e+00	 6.235294e+00	 1.005927e+01
0	 7.882353e+00	 6.352941e+00	 1.005713e+01
0	 7.882353e+00	 6.470588e+00	 1.005489e+01
0	 8.000000e+00	 5.882353e+00	 1.005906e+01
0	 8.000000e+00	 6.000000e+00	 1.005749e+01
0	 8.000000e+00	 6.117647e+00	 1.005583e+01
0	 8.000000e+00	 6.235294e+00	 1.005408e+01
0	 8.000000e+00	 6.352941e+00	 1.005222e+01
0	 8.000000e+00	 6.470588e+00	 1.005027e+01
0	 8.117647e+00	 5.882353e+00	 1.005315e+01
0	 8.117647e+00	 6.000000e+00	 1.005185e+01
0	 8.117647e+00	 6.117647e+00	 1.005047e+01
0	 8.117647e+00	 6.235294e+00	 1.004899e+01
0	 8.117647e+00	 6.352941e+00	 1.004742e+01
0	 8.117647e+00	 6.470588e+00	 1.004573e+01
0	 8.235294e+00	 5.882353e+00	 1.004738e+01
0	 8.235294e+00	 6.000000e+00	 1.004636e+01
0	 8.235294e+00	 6.117647e+00	 1.004525e+01
0	 8.235294e+00	 6.235294e+00	 1.004404e+01
0	 8.235294e+00	 6.352941e+00	 1.004273e+01
0	 8.235294e+00	 6.470588e+00	 1.004132e+01
0	 7.647059e+00	 6.470588e+00	 1.006433e+01
0	 7.647059e+00	 6.588235e+00	 1.006147e+01
0	 7.647059e+00	 6.705882e+00	 1.005861e+01
0	 7.647059e+00	 6.823529e+00	 1.005574e+01
0	 7.647059e+00	 6.941176e+00	 1.005284e+01
0	 7.647059e+00	 7.058824e+00	 1.004990e+01
0	 7.764706e+00	 6.470588e+00	 1.005959e+01
0	 7.764706e+00	 6.588235e+00	 1.005701e+01
0	 7.764706e+00	 6.705882e+00	 1.005442e+01
0	 7.764706e+00	 6.823529e+00	 1.005181e+01
0	 7.764706e+00	 6.941176e+00	 1.004917e+01
0	 7.764706e+00	 7.058824e+00	 1.004649e+01
0	 7.882353e+00	 6.470588e+00	 1.005489e+01
0	 7.882353e+00	 6.588235e+00	 1.005259e+01
0	 7.882353e+00	 6.705882e+00	 1.005027e+01
0	 7.882353e+00	 6.823529e+00	 1.004792e+01
0	 7.882353e+00	 6.941176e+00	 1.004553e+01
0	 7.882353e+00	 7.058824e+00	 1.004309e+01
0	 8.000000e+00	 6.470588e+00	 1.005027e+01
0	 8.000000e+00	 6.588235e+00	 1.004824e+01
0	 8.000000e+00	 6.705882e+00	 1.004618e+01
0	 8.000000e+00	 6.823529e+00	 1.004408e+01
0	 8.000000e+00	 6.941176e+00	 1.004194e+01
0	 8.000000e+00	 7.058824e+00	 1.003973e+01
0	 8.117647e+00	 6.470588e+00	 1.004573e+01
0	 8.117647e+00	 6.588235e+00	 1.004397e+01
0	 8.117647e+00	 6.705882e+00	 1.004217e+01
0	 8.117647e+00	 6.823529e+00	 1.004032e+01
0	 8.117647e+00	 6.941176e+00	 1.003841e+01
0	 8.117647e+00	 7.058824e+00	 1.003643e+01
0	 8.235294e+00	 6.470588e+00	 1.004132e+01
0	 8.235294e+00	 6.588235e+00	 1.003982e+01
0	 8.235294e+00	 6.705882e+00	 1.003826e+01
0	 8.235294e+00	 6.823529e+00	 1.003665e+01
0	 8.235294e+00	 6.941176e+00	 1.003497e+01
0	 8.235294e+00	 7.058824e+00	 1.003321e+01
0	 7.647059e+00	 7.058824e+00	 1.004990e+01
0	 7.647059e+00	 7.176471e+00	 1.004697e+01
0	 7.647059e+00	 7.294118e+00	 1.004407e+01
0	 7.647059e+00	 7.411765e+00	 1.004119e+01
0	 7.647059e+00	 7.529412e+00	 1.003832e+01
0	 7.647059e+00	 7.647059e+00	 1.003545e+01
0	 7.764706e+00	 7.058824e+00	 1.004649e+01
0	 7.764706e+00	 7.176471e+00	 1.004380e+01
0	 7.764706e+00	 7.294118e+00	 1.004113e+01
0	 7.764706e+00	 7.411765e+00	 1.003847e+01
0	 7.764706e+00	 7.529412e+00	 1.003581e+01
0	 7.764706e+00	 7.647059e+00	 1.003314e+01
0	 7.882353e+00	 7.058824e+00	 1.004309e+01
0	 7.882353e+00	 7.176471e+00	 1.004063e+01
0	 7.882353e+00	 7.294118e+00	 1.003819e+01
0	 7.882353e+00	 7.411765e+00	 1.003574e+01
0	 7.882353e+00	 7.529412e+00	 1.003330e+01
0	 7.882353e+00	 7.647059e+00	 1.003084e+01
0	 8.000000e+00	 7.058824e+00	 1.003973e+01
0	 8.000000e+00	 7.176471e+00	 1.003750e+01
0	 8.000000e+00	 7.294118e+00	 1.003527e+01
0	 8.000000e+00	 7.411765e+00	 1.003305e+01
0	 8.000000e+00	 7.529412e+00	 1.003081e+01
0	 8.000000e+00	 7.647059e+00	 1.002856e+01
0	 8.117647e+00	 7.058824e+00	 1.003643e+01
0	 8.117647e+00	 7.176471e+00	 1.003442e+01
0	 8.117647e+00	 7.294118e+00	 1.003241e+01
0	 8.117647e+00	 7.411765e+00	 1.003039e+01
0	 8.117647e+00	 7.529412e+00	 1.002837e+01
0	 8.117647e+00	 7.647059e+00	 1.002632e+01
0	 8.235294e+00	 7.058824e+00	 1.003321e+01
0	 8.235294e+00	 7.176471e+00	 1.003142e+01
0	 8.235294e+00	 7.294118e+00	 1.002962e+01
0	 8.235294e+00	 7.411765e+00	 1.002781e+01
0	 8.235294e+00	 7.529412e+00	 1.002598e+01
0	 8.235294e+00	 7.647059e+00	 1.002413e+01
0	 7.647059e+00	 7.647059e+00	 1.003545e+01
0	 7.647059e+00	 7.764706e+00	 1.003261e+01
0	 7.647059e+00	 7.882353e+00	 1.002986e+01
0	 7.647059e+00	 8.000000e+00	 1.002718e+01
0	 7.647059e+00	 8.117647e+00	 1.002457e+01
0	 7.647059e+00	 8.235294e+00	 1.002200e+01
0	 7.764706e+00	 7.647059e+00	 1.003314e+01
0	 7.764706e+00	 7.764706e+00	 1.003051e+01
0	 7.764706e+00	 7.882353e+00	 1.002795e+01
0	 7.764706e+00	 8.000000e+00	 1.002546e+01
0	 7.764706e+00	 8.117647e+00	 1.002302e+01
0	 7.764706e+00	 8.235294e+00	 1.002062e+01
0	 7.882353e+00	 7.647059e+00	 1.003084e+01
0	 7.882353e+00	 7.764706e+00	 1.002841e+01
0	 7.882353e+00	 7.882353e+00	 1.002604e+01
0	 7.882353e+00	 8.000000e+00	 1.002373e+01
0	 7.882353e+00	 8.117647e+00	 1.002147e+01
0	 7.882353e+00	 8.235294e+00	 1.001924e+01
0	 8.000000e+00	 7.647059e+00	 1.002856e+01
0	 8.000000e+00	 7.764706e+00	 1.002633e+01
0	 8.000000e+00	 7.882353e+00	 1.002415e+01
0	 8.000000e+00	 8.000000e+00	 1.002203e+01
0	 8.000000e+00	 8.117647e+00	 1.001994e+01
0	 8.000000e+00	 8.235294e+00	 1.001787e+01
0	 8.117647e+00	 7.647059e+00	 1.002632e+01
0	 8.117647e+00	 7.764706e+00	 1.002428e+01
0	 8.117647e+00	 7.882353e+00	 1.002229e+01
0	 8.117647e+00	 8.000000e+00	 1.002034e+01
0	 8.117647e+00	 8.117647e+00	 1.001842e+01
0	 8.117647e+00	 8.235294e+00	 1.001652e+01
0	 8.235294e+00	 7.647059e+00	 1.002413e+01
0	 8.235294e+00	 7.764706e+00	 1.002228e+01
0	 8.235294e+00	 7.882353e+00	 1.002047e+01
0	 8.235294e+00	 8.000000e+00	 1.001870e+01
0	 8.235294e+00	 8.117647e+00	 1.001694e+01
0	 8.235294e+00	 8.235294e+00	 1.001519e+01
0	 7.647059e+00	 8.235294e+00	 1.002200e+01
0	 7.647059e+00	 8.352941e+00	 1.001952e+01
0	 7.647059e+00	 8.470588e+00	 1.001717e+01
0	 7.647059e+00	 8.588235e+00	 1.001494e+01
0	 7.647059e+00	 8.705882e+00	 1.001280e+01
0	 7.647059e+00	 8.823529e+00	 1.001075e+01
0	 7.764706e+00	 8.235294e+00	 1.002062e+01
0	 7.764706e+00	 8.352941e+00	 1.001831e+01
0	 7.764706e+00	 8.470588e+00	 1.001611e+01
0	 7.764706e+00	 8.588235e+00	 1.001401e+01
0	 7.764706e+00	 8.705882e+00	 1.001201e+01
0	 7.764706e+00	 8.823529e+00	 1.001009e+01
0	 7.882353e+00	 8.235294e+00	 1.001924e+01
0	 7.882353e+00	 8.352941e+00	 1.001709e+01
0	 7.882353e+00	 8.470588e+00	 1.001504e+01
0	 7.882353e+00	 8.588235e+00	 1.001308e+01
0	 7.882353e+00	 8.705882e+00	 1.001122e+01
0	 7.882353e+00	 8.823529e+00	 1.000942e+01
0	 8.000000e+00	 8.235294e+00	 1.001787e+01
0	 8.000000e+00	 8.352941e+00	 1.001587e+01
0	 8.000000e+00	 8.470588e+00	 1.001397e+01
0	 8.000000e+00	 8.588235e+00	 1.001216e+01
0	 8.000000e+00	 8.705882e+00	 1.001042e+01
0	 8.000000e+00	 8.823529e+00	 1.000876e+01
0	 8.117647e+00	 8.235294e+00	 1.001652e+01
0	 8.117647e+00	 8.352941e+00	 1.001467e+01
0	 8.117647e+00	 8.470588e+00	 1.001292e+01
0	 8.117647e+00	 8.588235e+00	 1.001124e+01
0	 8.117647e+00	 8.705882e+00	 1.000964e+01
0	 8.117647e+00	 8.823529e+00	 1.000810e+01
0	 8.235294e+00	 8.235294e+00	 1.001519e+01
0	 8.235294e+00	 8.352941e+00	 1.001350e+01
0	 8.235294e+00	 8.470588e+00	 1.001188e+01
0	 8.235294e+00	 8.588235e+00	 1.001035e+01
0	 8.235294e+00	 8.705882e+00	 1.000888e+01
0	 8.235294e+00	 8.823529e+00	 1.000746e+01
0	 7.647059e+00	 8.823529e+00	 1.001075e+01
0	 7.647059e+00	 8.941176e+00	 1.000884e+01
0	 7.647059e+00	 9.058824e+00	 1.000712e+01
0	 7.647059e+00	 9.176471e+00	 1.000558e+01
0	 7.647059e+00	 9.294118e+00	 1.000419e+01
0	 7.647059e+00	 9.411765e+00	 1.000295e+01
0	 7.764706e+00	 8.823529e+00	 1.001009e+01
0	 7.764706e+00	 8.941176e+00	 1.000830e+01
0	 7.764706e+00	 9.058824e+00	 1.000669e+01
0	 7.764706e+00	 9.176471e+00	 1.000524e+01
0	 7.764706e+00	 9.294118e+00	 1.000393e+01
0	 7.764706e+00	 9.411765e+00	 1.000277e+01
0	 7.882353e+00	 8.823529e+00	 1.000942e+01
0	 7.882353e+00	 8.941176e+00	 1.000775e+01
0	 7.882353e+00	 9.058824e+00	 1.000624e+01
0	 7.882353e+00	 9.176471e+00	 1.000489e+01
0	 7.882353e+00	 9.294118e+00	 1.000368e+01
0	 7.882353e+00	 9.411765e+00	 1.000259e+01
0	 8.000000e+00	 8.823529e+00	 1.000876e+01
0	 8.000000e+00	 8.941176e+00	 1.000720e+01
0	 8.000000e+00	 9.058824e+00	 1.000580e+01
0	 8.000000e+00	 9.176471e+00	 1.000455e+01
0	 8.000000e+00	 9.294118e+00	 1.000341e+01
0	 8.000000e+00	 9.411765e+00	 1.000240e+01
0	 8.117647e+00	 8.823529e+00	 1.000810e+01
0	 8.117647e+00	 8.941176e+00	 1.000667e+01
0	 8.117647e+00	 9.058824e+00	 1.000537e+01
0	 8.117647e+00	 9.176471e+00	 1.000421e+01
0	 8.117647e+00	 9.294118e+00	 1.000316e+01
0	 8.117647e+00	 9.411765e+00	 1.000222e+01
0	 8.235294e+00	 8.823529e+00	 1.000746e+01
0	 8.235294e+00	 8.941176e+00	 1.000614e+01
0	 8.235294e+00	 9.058824e+00	 1.000495e+01
0	 8.235294e+00	 9.176471e+00	 1.000388e+01
0	 8.235294e+00	 9.294118e+00	 1.000292e+01
0	 8.235294e+00	 9.411765e+00	 1.000205e+01
0	 7.647059e+00	 9.411765e+00	 1.000295e+01
0	 7.647059e+00	 9.529412e+00	 1.000190e+01
0	 7.647059e+00	 9.647059e+00	 1.000109e+01
0	 7.647059e+00	 9.764706e+00	 1.000051e+01
0	 7.647059e+00	 9.882353e+00	 1.000014e+01
0	 7.647059e+00	 1.000000e+01	 9.999957e+00
0	 7.764706e+00	 9.411765e+00	 1.000277e+01
0	 7.764706e+00	 9.529412e+00	 1.000179e+01
0	 7.764706e+00	 9.647059e+00	 1.000103e+01
0	 7.764706e+00	 9.764706e+00	 1.000048e+01
0	 7.764706e+00	 9.882353e+00	 1.000014e+01
0	 7.764706e+00	 1.000000e+01	 9.999972e+00
0	 7.882353e+00	 9.411765e+00	 1.000259e+01
0	 7.882353e+00	 9.529412e+00	 1.000167e+01
0	 7.882353e+00	 9.647059e+00	 1.000096e+01
0	 7.882353e+00	 9.764706e+00	 1.000045e+01
0	 7.882353e+00	 9.882353e+00	 1.000012e+01
0	 7.882353e+00	 1.000000e+01	 9.999975e+00
0	 8.000000e+00	 9.411765e+00	 1.000240e+01
0	 8.000000e+00	 9.529412e+00	 1.000154e+01
0	 8.000000e+00	 9.647059e+00	 1.000088e+01
0	 8.000000e+00	 9.764706e+00	 1.000041e+01
0	 8.000000e+00	 9.882353e+00	 1.000011e+01
0	 8.000000e+00	 1.000000e+01	 9.999973e+00
0	 8.117647e+00	 9.411765e+00	 1.000222e+01
0	 8.117647e+00	 9.529412e+00	 1.000142e+01
0	 8.117647e+00	 9.647059e+00	 1.000081e+01
0	 8.117647e+00	 9.764706e+00	 1.000037e+01
0	 8.117647e+00	 9.882353e+00	 1.000010e+01
0	 8.117647e+00	 1.000000e+01	 9.999974e+00
0	 8.235294e+00	 9.411765e+00	 1.000205e+01
0	 8.235294e+00	 9.529412e+00	 1.000132e+01
0	 8.235294e+00	 9.647059e+00	 1.000075e+01
0	 8.235294e+00	 9.764706e+00	 1.000035e+01
0	 8.235294e+00	 9.882353e+00	 1.000010e+01
0	 8.235294e+00	 1.000000e+01	 9.999983e+00
0	 8.235294e+00	 0.000000e+00	 9.948688e+00
0	 8.235294e+00	 1.176471e-01	 9.948925e+00
0	 8.235294e+00	 2.352941e-01	 9.949478e+00
0	 8.235294e+00	 3.529412e-01	 9.950328e+00
0	 8.235294e+00	 4.705882e-01	 9.951457e+00
0	 8.235294e+00	 5.882353e-01	 9.952843e+00
0	 8.352941e+00	 0.000000e+00	 9.934271e+00
0	 8.352941e+00	 1.176471e-01	 9.934651e+00
0	 8.352941e+00	 2.352941e-01	 9.935268e+00
0	 8.352941e+00	 3.529412e-01	 9.936126e+00
0	 8.352941e+00	 4.705882e-01	 9.937230e+00
0	 8.352941e+00	 5.882353e-01	 9.938585e+00
0	 8.470588e+00	 0.000000e+00	 9.919649e+00
0	 8.470588e+00	 1.176471e-01	 9.920047e+00
0	 8.470588e+00	 2.352941e-01	 9.920660e+00
0	 8.470588e+00	 3.529412e-01	 9.921508e+00
0	 8.470588e+00	 4.705882e-01	 9.922612e+00
0	 8.470588e+00	 5.882353e-01	 9.923992e+00
0	 8.588235e+00	 0.000000e+00	 9.904715e+00
0	 8.588235e+00	 1.176471e-01	 9.905045e+00
0	 8.588235e+00	 2.352941e-01	 9.905613e+00
0	 8.588235e+00	 3.529412e-01	 9.906445e+00
0	 8.588235e+00	 4.705882e-01	 9.907570e+00
0	 8.588235e+00	 5.882353e-01	 9.909013e+00
0	 8.705882e+00	 0.000000e+00	 9.889361e+00
0	 8.705882e+00	 1.176471e-01	 9.889576e+00
0	 8.705882e+00	 2.352941e-01	 9.890082e+00
0	 8.705882e+00	 3.529412e-01	 9.890905e+00
0	 8.705882e+00	 4.705882e-01	 9.892069e+00
0	 8.705882e+00	 5.882353e-01	 9.893599e+00
0	 8.823529e+00	 0.000000e+00	 9.873480e+00
0	 8.823529e+00	 1.176471e-01	 9.873572e+00
0	 8.823529e+00	 2.352941e-01	 9.874025e+00
0	 8.823529e+00	 3.529412e-01	 9.874855e+00
0	 8.823529e+00	 4.705882e-01	 9.876074e+00
0	 8.823529e+00	 5.882353e-01	 9.877698e+00
0	 8.235294e+00	 5.882353e-01	 9.952843e+00
0	 8.235294e+00	 7.058824e-01	 9.954484e+00
0	 8.235294e+00	 8.235294e-01	 9.956399e+00
0	 8.235294e+00	 9.411765e-01	 9.958602e+00
0	 8.235294e+00	 1.058824e+00	 9.961107e+00
0	 8.235294e+00	 1.176471e+00	 9.963929e+00
0	 8.352941e+00	 5.882353e-01	 9.938585e+00
0	 8.352941e+00	 7.058824e-01	 9.940209e+00
0	 8.352941e+00	 8.235294e-01	 9.942124e+00
0	 8.352941e+00	 9.411765e-01	 9.944340e+00
0	 8.352941e+00	 1.058824e+00	 9.946868e+00
0	 8.352941e+00	 1.176471e+00	 9.949719e+00
0	 8.470588e+00	 5.882353e-01	 9.923992e+00
0	 8.470588e+00	 7.058824e-01	 9.925659e+00
0	 8.470588e+00	 8.235294e-01	 9.927617e+00
0	 8.470588e+00	 9.411765e-01	 9.929873e+00
0	 8.470588e+00	 1.058824e+00	 9.932437e+00
0	 8.470588e+00	 1.176471e+00	 9.935315e+00
0	 8.588235e+00	 5.882353e-01	 9.909013e+00
0	 8.588235e+00	 7.058824e-01	 9.910764e+00
0	 8.588235e+00	 8.235294e-01	 9.912796e+00
0	 8.588235e+00	 9.411765e-01	 9.915117e+00
0	 8.588235e+00	 1.058824e+00	 9.917732e+00
0	 8.588235e+00	 1.176471e+00	 9.920649e+00
0	 8.705882e+00	 5.882353e-01	 9.893599e+00
0	 8.705882e+00	 7.058824e-01	 9.895454e+00
0	 8.705882e+00	 8.235294e-01	 9.897581e+00
0	 8.705882e+00	 9.411765e-01	 9.899985e+00
0	 8.705882e+00	 1.058824e+00	 9.902672e+00
0	 8.705882e+00	 1.176471e+00	 9.905650e+00
0	 8.823529e+00	 5.882353e-01	 9.877698e+00
0	 8.823529e+00	 7.058824e-01	 9.879660e+00
0	 8.823529e+00	 8.235294e-01	 9.881888e+00
0	 8.823529e+00	 9.411765e-01	 9.884392e+00
0	 8.823529e+00	 1.058824e+00	 9.887176e+00
0	 8.823529e+00	 1.176471e+00	 9.890249e+00
0	 8.235294e+00	 1.176471e+00	 9.963929e+00
0	 8.235294e+00	 1.294118e+00	 9.966962e+00
0	 8.235294e+00	 1.411765e+00	 9.970103e+00
0	 8.235294e+00	 1.529412e+00	 9.973374e+00
0	 8.235294e+00	 1.647059e+00	 9.976793e+00
0	 8.235294e+00	 1.764706e+00	 9.980380e+00
0	 8.352941e+00	 1.176471e+00	 9.949719e+00
0	 8.352941e+00	 1.294118e+00	 9.952787e+00
0	 8.352941e+00	 1.411765e+00	 9.955976e+00
0	 8.352941e+00	 1.529412e+00	 9.959302e+00
0	 8.352941e+00	 1.647059e+00	 9.962785e+00
0	 8.352941e+00	 1.764706e+00	 9.966443e+00
0	 8.470588e+00	 1.176471e+00	 9.935315e+00
0	 8.470588e+00	 1.294118e+00	 9.938416e+00
0	 8.470588e+00	 1.411765e+00	 9.941653e+00
0	 8.470588e+00	 1.529412e+00	 9.945042e+00
0	 8.470588e+00	 1.647059e+00	 9.948603e+00
0	 8.470588e+00	 1.764706e+00	 9.952350e+00
0	 8.588235e+00	 1.176471e+00	 9.920649e+00
0	 8.588235e+00	 1.294118e+00	 9.923792e+00
0	 8.588235e+00	 1.411765e+00	 9.927091e+00
0	 8.588235e+00	 1.529412e+00	 9.930561e+00
0	 8.588235e+00	 1.647059e+00	 9.934218e+00
0	 8.588235e+00	 1.764706e+00	 9.938077e+00
0	 8.705882e+00	 1.176471e+00	 9.905650e+00
0	 8.705882e+00	 1.294118e+00	 9.908859e+00
0	 8.705882e+00	 1.411765e+00	 9.912246e+00
0	 8.705882e+00	 1.529412e+00	 9.915824e+00
0	 8.705882e+00	 1.647059e+00	 9.919606e+00
0	 8.705882e+00	 1.764706e+00	 9.923604e+00
0	 8.823529e+00	 1.176471e+00	 9.890249e+00
0	 8.823529e+00	 1.294118e+00	 9.893563e+00
0	 8.823529e+00	 1.411765e+00	 9.897076e+00
0	 8.823529e+00	 1.529412e+00	 9.900798e+00
0	 8.823529e+00	 1.647059e+00	 9.904738e+00
0	 8.823529e+00	 1.764706e+00	 9.908909e+00
0	 8.235294e+00	 1.764706e+00	 9.980380e+00
0	 8.235294e+00	 1.882353e+00	 9.984051e+00
0	 8.235294e+00	 2.000000e+00	 9.987721e+00
0	 8.235294e+00	 2.117647e+00	 9.991407e+00
0	 8.235294e+00	 2.235294e+00	 9.995124e+00
0	 8.235294e+00	 2.352941e+00	 9.998890e+00
0	 8.352941e+00	 1.764706e+00	 9.966443e+00
0	 8.352941e+00	 1.882353e+00	 9.970196e+00
0	 8.352941e+00	 2.000000e+00	 9.973960e+00
0	 8.352941e+00	 2.117647e+00	 9.977749e+00
0	 8.352941e+00	 2.235294e+00	 9.981579e+00
0	 8.352941e+00	 2.352941e+00	 9.985463e+00
0	 8.470588e+00	 1.764706e+00	 9.952350e+00
0	 8.470588e+00	 1.882353e+00	 9.956206e+00
0	 8.470588e+00	 2.000000e+00	 9.960089e+00
0	 8.470588e+00	 2.117647e+00	 9.964012e+00
0	 8.470588e+00	 2.235294e+00	 9.967988e+00
0	 8.470588e+00	 2.352941e+00	 9.972029e+00
0	 8.588235e+00	 1.764706e+00	 9.938077e+00
0	 8.588235e+00	 1.882353e+00	 9.942061e+00
0	 8.588235e+00	 2.000000e+00	 9.946090e+00
0	 8.588235e+00	 2.117647e+00	 9.950176e+00
0	 8.588235e+00	 2.235294e+00	 9.954330e+00
0	 8.588235e+00	 2.352941e+00	 9.958563e+00
0	 8.705882e+00	 1.764706e+00	 9.923604e+00
0	 8.705882e+00	 1.882353e+00	 9.927743e+00
0	 8.705882e+00	 2.000000e+00	 9.931945e+00
0	 8.705882e+00	 2.117647e+00	 9.936221e+00
0	 8.705882e+00	 2.235294e+00	 9.940581e+00
0	 8.705882e+00	 2.352941e+00	 9.945037e+00
0	 8.823529e+00	 1.764706e+00	 9.908909e+00
0	 8.823529e+00	 1.882353e+00	 9.913233e+00
0	 8.823529e+00	 2.000000e+00	 9.917636e+00
0	 8.823529e+00	 2.117647e+00	 9.922128e+00
0	 8.823529e+00	 2.235294e+00	 9.926720e+00
0	 8.823529e+00	 2.352941e+00	 9.931424e+00
0	 8.235294e+00	 2.352941e+00	 9.998890e+00
0	 8.235294e+00	 2.470588e+00	 1.000264e+01
0	 8.235294e+00	 2.588235e+00	 1.000630e+01
0	 8.235294e+00	 2.705882e+00	 1.000990e+01
0	 8.235294e+00	 2.823529e+00	 1.001343e+01
0	 8.235294e+00	 2.941176e+00	 1.001693e+01
0	 8.352941e+00	 2.352941e+00	 9.985463e+00
0	 8.352941e+00	 2.470588e+00	 9.989341e+00
0	 8.352941e+00	 2.588235e+00	 9.993154e+00
0	 8.352941e+00	 2.705882e+00	 9.996915e+00
0	 8.352941e+00	 2.823529e+00	 1.000064e+01
0	 8.352941e+00	 2.941176e+00	 1.000433e+01
0	 8.470588e+00	 2.352941e+00	 9.972029e+00
0	 8.470588e+00	 2.470588e+00	 9.976076e+00
0	 8.470588e+00	 2.588235e+00	 9.980068e+00
0	 8.470588e+00	 2.705882e+00	 9.984018e+00
0	 8.470588e+00	 2.823529e+00	 9.987937e+00
0	 8.470588e+00	 2.941176e+00	 9.991837e+00
0	 8.588235e+00	 2.352941e+00	 9.958563e+00
0	 8.588235e+00	 2.470588e+00	 9.962813e+00
0	 8.588235e+00	 2.588235e+00	 9.967013e+00
0	 8.588235e+00	 2.705882e+00	 9.971176e+00
0	 8.588235e+00	 2.823529e+00	 9.975311e+00
0	 8.588235e+00	 2.941176e+00	 9.979430e+00
0	 8.705882e+00	 2.352941e+00	 9.945037e+00
0	 8.705882e+00	 2.470588e+00	 9.949519e+00
0	 8.705882e+00	 2.588235e+00	 9.953956e+00
0	 8.705882e+00	 2.705882e+00	 9.958358e+00
0	 8.705882e+00	 2.823529e+00	 9.962735e+00
0	 8.705882e+00	 2.941176e+00	 9.967096e+00
0	 8.823529e+00	 2.352941e+00	 9.931424e+00
0	 8.823529e+00	 2.470588e+00	 9.936164e+00
0	 8.823529e+00	 2.588235e+00	 9.940866e+00
0	 8.823529e+00	 2.705882e+00	 9.945537e+00
0	 8.823529e+00	 2.823529e+00	 9.950186e+00
0	 8.823529e+00	 2.941176e+00	 9.954823e+00
0	 8.235294e+00	 2.941176e+00	 1.001693e+01
0	 8.235294e+00	 3.058824e+00	 1.002032e+01
0	 8.235294e+00	 3.176471e+00	 1.002354e+01
0	 8.235294e+00	 3.294118e+00	 1.002658e+01
0	 8.235294e+00	 3.411765e+00	 1.002946e+01
0	 8.235294e+00	 3.529412e+00	 1.003218e+01
0	 8.352941e+00	 2.941176e+00	 1.000433e+01
0	 8.352941e+00	 3.058824e+00	 1.000793e+01
0	 8.352941e+00	 3.176471e+00	 1.001136e+01
0	 8.352941e+00	 3.294118e+00	 1.001463e+01
0	 8.352941e+00	 3.411765e+00	 1.001774e+01
0	 8.352941e+00	 3.529412e+00	 1.002070e+01
0	 8.470588e+00	 2.941176e+00	 9.991837e+00
0	 8.470588e+00	 3.058824e+00	 9.995651e+00
0	 8.470588e+00	 3.176471e+00	 9.999306e+00
0	 8.470588e+00	 3.294118e+00	 1.000281e+01
0	 8.470588e+00	 3.411765e+00	 1.000617e+01
0	 8.470588e+00	 3.529412e+00	 1.000940e+01
0	 8.588235e+00	 2.941176e+00	 9.979430e+00
0	 8.588235e+00	 3.058824e+00	 9.983470e+00
0	 8.588235e+00	 3.176471e+00	 9.987368e+00
0	 8.588235e+00	 3.294118e+00	 9.991131e+00
0	 8.588235e+00	 3.411765e+00	 9.994768e+00
0	 8.588235e+00	 3.529412e+00	 9.998286e+00
0	 8.705882e+00	 2.941176e+00	 9.967096e+00
0	 8.705882e+00	 3.058824e+00	 9.971387e+00
0	 8.705882e+00	 3.176471e+00	 9.975550e+00
0	 8.705882e+00	 3.294118e+00	 9.979594e+00
0	 8.705882e+00	 3.411765e+00	 9.983527e+00
0	 8.705882e+00	 3.529412e+00	 9.987356e+00
0	 8.823529e+00	 2.941176e+00	 9.954823e+00
0	 8.823529e+00	 3.058824e+00	 9.959396e+00
0	 8.823529e+00	 3.176471e+00	 9.963856e+00
0	 8.823529e+00	 3.294118e+00	 9.968207e+00
0	 8.823529e+00	 3.411765e+00	 9.972458e+00
0	 8.823529e+00	 3.529412e+00	 9.976615e+00
0	 8.235294e+00	 3.529412e+00	 1.003218e+01
0	 8.235294e+00	 3.647059e+00	 1.003472e+01
0	 8.235294e+00	 3.764706e+00	 1.003708e+01
0	 8.235294e+00	 3.882353e+00	 1.003925e+01
0	 8.235294e+00	 4.000000e+00	 1.004123e+01
0	 8.235294e+00	 4.117647e+00	 1.004304e+01
0	 8.352941e+00	 3.529412e+00	 1.002070e+01
0	 8.352941e+00	 3.647059e+00	 1.002350e+01
0	 8.352941e+00	 3.764706e+00	 1.002612e+01
0	 8.352941e+00	 3.882353e+00	 1.002857e+01
0	 8.352941e+00	 4.000000e+00	 1.003085e+01
0	 8.352941e+00	 4.117647e+00	 1.003296e+01
0	 8.470588e+00	 3.529412e+00	 1.000940e+01
0	 8.470588e+00	 3.647059e+00	 1.001248e+01
0	 8.470588e+00	 3.764706e+00	 1.001539e+01
0	 8.470588e+00	 3.882353e+00	 1.001812e+01
0	 8.470588e+00	 4.000000e+00	 1.002069e+01
0	 8.470588e+00	 4.117647e+00	 1.002309e+01
0	 8.588235e+00	 3.529412e+00	 9.998286e+00
0	 8.588235e+00	 3.647059e+00	 1.000166e+01
0	 8.588235e+00	 3.764706e+00	 1.000487e+01
0	 8.588235e+00	 3.882353e+00	 1.000790e+01
0	 8.588235e+00	 4.000000e+00	 1.001076e+01
0	 8.588235e+00	 4.117647e+00	 1.001346e+01
0	 8.705882e+00	 3.529412e+00	 9.987356e+00
0	 8.705882e+00	 3.647059e+00	 9.991047e+00
0	 8.705882e+00	 3.764706e+00	 9.994563e+00
0	 8.705882e+00	 3.882353e+00	 9.997905e+00
0	 8.705882e+00	 4.000000e+00	 1.000107e+01
0	 8.705882e+00	 4.117647e+00	 1.000407e+01
0	 8.823529e+00	 3.529412e+00	 9.976615e+00
0	 8.823529e+00	 3.647059e+00	 9.980637e+00
0	 8.823529e+00	 3.764706e+00	 9.984478e+00
0	 8.823529e+00	 3.882353e+00	 9.988141e+00
0	 8.823529e+00	 4.000000e+00	 9.991628e+00
0	 8.823529e+00	 4.117647e+00	 9.994939e+00
0	 8.235294e+00	 4.117647e+00	 1.004304e+01
0	 8.235294e+00	 4.235294e+00	 1.004466e+01
0	 8.235294e+00	 4.352941e+00	 1.004608e+01
0	 8.235294e+00	 4.470588e+00	 1.004729e+01
0	 8.235294e+00	 4.588235e+00	 1.004828e+01
0	 8.235294e+00	 4.705882e+00	 1.004905e+01
0	 8.352941e+00	 4.117647e+00	 1.003296e+01
0	 8.352941e+00	 4.235294e+00	 1.003488e+01
0	 8.352941e+00	 4.352941e+00	 1.003659e+01
0	 8.352941e+00	 4.470588e+00	 1.003810e+01
0	 8.352941e+00	 4.588235e+00	 1.003939e+01
0	 8.352941e+00	 4.705882e+00	 1.004046e+01
0	 8.470588e+00	 4.117647e+00	 1.002309e+01
0	 8.470588e+00	 4.235294e+00	 1.002531e+01
0	 8.470588e+00	 4.352941e+00	 1.002731e+01
0	 8.470588e+00	 4.470588e+00	 1.002912e+01
0	 8.470588e+00	 4.588235e+00	 1.003071e+01
0	 8.470588e+00	 4.705882e+00	 1.003210e+01
0	 8.588235e+00	 4.117647e+00	 1.001346e+01
0	 8.588235e+00	 4.235294e+00	 1.001596e+01
0	 8.588235e+00	 4.352941e+00	 1.001827e+01
0	 8.588235e+00	 4.470588e+00	 1.002037e+01
0	 8.588235e+00	 4.588235e+00	 1.002228e+01
0	 8.588235e+00	 4.705882e+00	 1.002398e+01
0	 8.705882e+00	 4.117647e+00	 1.000407e+01
0	 8.705882e+00	 4.235294e+00	 1.000688e+01
0	 8.705882e+00	 4.352941e+00	 1.000949e+01
0	 8.705882e+00	 4.470588e+00	 1.001190e+01
0	 8.705882e+00	 4.588235e+00	 1.001412e+01
0	 8.705882e+00	 4.705882e+00	 1.001615e+01
0	 8.823529e+00	 4.117647e+00	 9.994939e+00
0	 8.823529e+00	 4.235294e+00	 9.998065e+00
0	 8.823529e+00	 4.352941e+00	 1.000100e+01
0	 8.823529e+00	 4.470588e+00	 1.000373e+01
0	 8.823529e+00	 4.588235e+00	 1.000627e+01
0	 8.823529e+00	 4.705882e+00	 1.000862e+01
0	 8.235294e+00	 4.705882e+00	 1.004905e+01
0	 8.235294e+00	 4.823529e+00	 1.004964e+01
0	 8.235294e+00	 4.941176e+00	 1.005005e+01
0	 8.235294e+00	 5.058824e+00	 1.005029e+01
0	 8.235294e+00	 5.176471e+00	 1.005036e+01
0	 8.235294e+00	 5.294118e+00	 1.005025e+01
0	 8.352941e+00	 4.705882e+00	 1.004046e+01
0	 8.352941e+00	 4.823529e+00	 1.004135e+01
0	 8.352941e+00	 4.941176e+00	 1.004208e+01
0	 8.352941e+00	 5.058824e+00	 1.004263e+01
0	 8.352941e+00	 5.176471e+00	 1.004300e+01
0	 8.352941e+00	 5.294118e+00	 1.004320e+01
0	 8.470588e+00	 4.705882e+00	 1.003210e+01
0	 8.470588e+00	 4.823529e+00	 1.003330e+01
0	 8.470588e+00	 4.941176e+00	 1.003433e+01
0	 8.470588e+00	 5.058824e+00	 1.003519e+01
0	 8.470588e+00	 5.176471e+00	 1.003586e+01
0	 8.470588e+00	 5.294118e+00	 1.003635e+01
0	 8.588235e+00	 4.705882e+00	 1.002398e+01
0	 8.588235e+00	 4.823529e+00	 1.002550e+01
0	 8.588235e+00	 4.941176e+00	 1.002684e+01
0	 8.588235e+00	 5.058824e+00	 1.002800e+01
0	 8.588235e+00	 5.176471e+00	 1.002897e+01
0	 8.588235e+00	 5.294118e+00	 1.002974e+01
0	 8.705882e+00	 4.705882e+00	 1.001615e+01
0	 8.705882e+00	 4.823529e+00	 1.001798e+01
0	 8.705882e+00	 4.941176e+00	 1.001963e+01
0	 8.705882e+00	 5.058824e+00	 1.002108e+01
0	 8.705882e+00	 5.176471e+00	 1.002234e+01
0	 8.705882e+00	 5.294118e+00	 1.002339e+01
0	 8.823529e+00	 4.705882e+00	 1.000862e+01
0	 8.823529e+00	 4.823529e+00	 1.001077e+01
0	 8.823529e+00	 4.941176e+00	 1.001272e+01
0	 8.823529e+00	 5.058824e+00	 1.001447e+01
0	 8.823529e+00	 5.176471e+00	 1.001601e+01
0	 8.823529e+00	 5.294118e+00	 1.001734e+01
0	 8.235294e+00	 5.294118e+00	 1.005025e+01
0	 8.235294e+00	 5.411765e+00	 1.004997e+01
0	 8.235294e+00	 5.529412e+00	 1.004956e+01
0	 8.235294e+00	 5.647059e+00	 1.004899e+01
0	 8.235294e+00	 5.764706e+00	 1.004827e+01
0	 8.235294e+00	 5.882353e+00	 1.004738e+01
0	 8.352941e+00	 5.294118e+00	 1.004320e+01
0	 8.352941e+00	 5.411765e+00	 1.004322e+01
0	 8.352941e+00	 5.529412e+00	 1.004310e+01
0	 8.352941e+00	 5.647059e+00	 1.004282e+01
0	 8.352941e+00	 5.764706e+00	 1.004238e+01
0	 8.352941e+00	 5.882353e+00	 1.004176e+01
0	 8.470588e+00	 5.294118e+00	 1.003635e+01
0	 8.470588e+00	 5.411765e+00	 1.003667e+01
0	 8.470588e+00	 5.529412e+00	 1.003683e+01
0	 8.470588e+00	 5.647059e+00	 1.003683e+01
0	 8.470588e+00	 5.764706e+00	 1.003666e+01
0	 8.470588e+00	 5.882353e+00	 1.003632e+01
0	 8.588235e+00	 5.294118e+00	 1.002974e+01
0	 8.588235e+00	 5.411765e+00	 1.003034e+01
0	 8.588235e+00	 5.529412e+00	 1.003077e+01
0	 8.588235e+00	 5.647059e+00	 1.003104e+01
0	 8.588235e+00	 5.764706e+00	 1.003115e+01
0	 8.588235e+00	 5.882353e+00	 1.003108e+01
0	 8.705882e+00	 5.294118e+00	 1.002339e+01
0	 8.705882e+00	 5.411765e+00	 1.002426e+01
0	 8.705882e+00	 5.529412e+00	 1.002497e+01
0	 8.705882e+00	 5.647059e+00	 1.002551e+01
0	 8.705882e+00	 5.764706e+00	 1.002588e+01
0	 8.705882e+00	 5.882353e+00	 1.002608e+01
0	 8.823529e+00	 5.294118e+00	 1.001734e+01
0	 8.823529e+00	 5.411765e+00	 1.001848e+01
0	 8.823529e+00	 5.529412e+00	 1.001945e+01
0	 8.823529e+00	 5.647059e+00	 1.002026e+01
0	 8.823529e+00	 5.764706e+00	 1.002088e+01
0	 8.823529e+00	 5.882353e+00	 1.002133e+01
0	 8.235294e+00	 5.882353e+00	 1.004738e+01
0	 8.235294e+00	 6.000000e+00	 1.004636e+01
0	 8.235294e+00	 6.117647e+00	 1.004525e+01
0	 8.235294e+00	 6.235294e+00	 1.004404e+01
0	 8.235294e+00	 6.352941e+00	 1.004273e+01
0	 8.235294e+00	 6.470588e+00	 1.004132e+01
0	 8.352941e+00	 5.882353e+00	 1.004176e+01
0	 8.352941e+00	 6.000000e+00	 1.004102e+01
0	 8.352941e+00	 6.117647e+00	 1.004018e+01
0	 8.352941e+00	 6.235294e+00	 1.003924e+01
0	 8.352941e+00	 6.352941e+00	 1.003819e+01
0	 8.352941e+00	 6.470588e+00	 1.003703e+01
0	 8.470588e+00	 5.882353e+00	 1.003632e+01
0	 8.470588e+00	 6.000000e+00	 1.003585e+01
0	 8.470588e+00	 6.117647e+00	 1.003528e+01
0	 8.470588e+00	 6.235294e+00	 1.003459e+01
0	 8.470588e+00	 6.352941e+00	 1.003379e+01
0	 8.470588e+00	 6.470588e+00	 1.003287e+01
0	 8.588235e+00	 5.882353e+00	 1.003108e+01
0	 8.588235e+00	 6.000000e+00	 1.003088e+01
0	 8.588235e+00	 6.117647e+00	 1.003056e+01
0	 8.588235e+00	 6.235294e+00	 1.003012e+01
0	 8.588235e+00	 6.352941e+00	 1.002956e+01
0	 8.588235e+00	 6.470588e+00	 1.002886e+01
0	 8.705882e+00	 5.882353e+00	 1.002608e+01
0	 8.705882e+00	 6.000000e+00	 1.002613e+01
0	 8.705882e+00	 6.117647e+00	 1.002605e+01
0	 8.705882e+00	 6.235294e+00	 1.002585e+01
0	 8.705882e+00	 6.352941e+00	 1.002551e+01
0	 8.705882e+00	 6.470588e+00	 1.002503e+01
0	 8.823529e+00	 5.882353e+00	 1.002133e+01
0	 8.823529e+00	 6.000000e+00	 1.002163e+01
0	 8.823529e+00	 6.117647e+00	 1.002178e+01
0	 8.823529e+00	 6.235294e+00	 1.002180e+01
0	 8.823529e+00	 6.352941e+00	 1.002168e+01
0	 8.823529e+00	 6.470588e+00	 1.002140e+01
0	 8.235294e+00	 6.470588e+00	 1.004132e+01
0	 8.235294e+00	 6.588235e+00	 1.003982e+01
0	 8.235294e+00	 6.705882e+00	 1.003826e+01
0	 8.235294e+00	 6.823529e+00	 1.003665e+01
0	 8.235294e+00	 6.941176e+00	 1.003497e+01
0	 8.235294e+00	 7.058824e+00	 1.003321e+01
0	 8.352941e+00	 6.470588e+00	 1.003703e+01
0	 8.352941e+00	 6.588235e+00	 1.003577e+01
0	 8.352941e+00	 6.705882e+00	 1.003446e+01
0	 8.352941e+00	 6.823529e+00	 1.003307e+01
0	 8.352941e+00	 6.941176e+00	 1.003161e+01
0	 8.352941e+00	 7.058824e+00	 1.003007e+01
0	 8.470588e+00	 6.470588e+00	 1.003287e+01
0	 8.470588e+00	 6.588235e+00	 1.003185e+01
0	 8.470588e+00	 6.705882e+00	 1.003076e+01
0	 8.470588e+00	 6.823529e+00	 1.002959e+01
0	 8.470588e+00	 6.941176e+00	 1.002835e+01
0	 8.470588e+00	 7.058824e+00	 1.002702e+01
0	 8.588235e+00	 6.470588e+00	 1.002886e+01
0	 8.588235e+00	 6.588235e+00	 1.002806e+01
0	 8.588235e+00	 6.705882e+00	 1.002719e+01
0	 8.588235e+00	 6.823529e+00	 1.002623e+01
0	 8.588235e+00	 6.941176e+00	 1.002520e+01
0	 8.588235e+00	 7.058824e+00	 1.002407e+01
0	 8.705882e+00	 6.470588e+00	 1.002503e+01
0	 8.705882e+00	 6.588235e+00	 1.002444e+01
0	 8.705882e+00	 6.705882e+00	 1.002377e+01
0	 8.705882e+00	 6.823529e+00	 1.002302e+01
0	 8.705882e+00	 6.941176e+00	 1.002218e+01
0	 8.705882e+00	 7.058824e+00	 1.002125e+01
0	 8.823529e+00	 6.470588e+00	 1.002140e+01
0	 8.823529e+00	 6.588235e+00	 1.002101e+01
0	 8.823529e+00	 6.705882e+00	 1.002053e+01
0	 8.823529e+00	 6.823529e+00	 1.001997e+01
0	 8.823529e+00	 6.941176e+00	 1.001931e+01
0	 8.823529e+00	 7.058824e+00	 1.001856e+01
0	 8.235294e+00	 7.058824e+00	 1.003321e+01
0	 8.235294e+00	 7.176471e+00	 1.003142e+01
0	 8.235294e+00	 7.294118e+00	 1.002962e+01
0	 8.235294e+00	 7.411765e+00	 1.002781e+01
0	 8.235294e+00	 7.529412e+00	 1.002598e+01
0	 8.235294e+00	 7.647059e+00	 1.002413e+01
0	 8.352941e+00	 7.058824e+00	 1.003007e+01
0	 8.352941e+00	 7.176471e+00	 1.002849e+01
0	 8.352941e+00	 7.294118e+00	 1.002690e+01
0	 8.352941e+00	 7.411765e+00	 1.002529e+01
0	 8.352941e+00	 7.529412e+00	 1.002365e+01
0	 8.352941e+00	 7.647059e+00	 1.002199e+01
0	 8.470588e+00	 7.058824e+00	 1.002702e+01
0	 8.470588e+00	 7.176471e+00	 1.002564e+01
0	 8.470588e+00	 7.294118e+00	 1.002425e+01
0	 8.470588e+00	 7.411765e+00	 1.002283e+01
0	 8.470588e+00	 7.529412e+00	 1.002139e+01
0	 8.470588e+00	 7.647059e+00	 1.001990e+01
0	 8.588235e+00	 7.058824e+00	 1.002407e+01
0	 8.588235e+00	 7.176471e+00	 1.002289e+01
0	 8.588235e+00	 7.294118e+00	 1.002169e+01
0	 8.588235e+00	 7.411765e+00	 1.002046e+01
0	 8.588235e+00	 7.529412e+00	 1.001919e+01
0	 8.588235e+00	 7.647059e+00	 1.001787e+01
0	 8.705882e+00	 7.058824e+00	 1.002125e+01
0	 8.705882e+00	 7.176471e+00	 1.002025e+01
0	 8.705882e+00	 7.294118e+00	 1.001923e+01
0	 8.705882e+00	 7.411765e+00	 1.001817e+01
0	 8.705882e+00	 7.529412e+00	 1.001706e+01
0	 8.705882e+00	 7.647059e+00	 1.001591e+01
0	 8.823529e+00	 7.058824e+00	 1.001856e+01
0	 8.823529e+00	 7.176471e+00	 1.001774e+01
0	 8.823529e+00	 7.294118e+00	 1.001688e+01
0	 8.823529e+00	 7.411765e+00	 1.001598e+01
0	 8.823529e+00	 7.529412e+00	 1.001503e+01
0	 8.823529e+00	 7.647059e+00	 1.001402e+01
0	 8.235294e+00	 7.647059e+00	 1.002413e+01
0	 8.235294e+00	 7.764706e+00	 1.002228e+01
0	 8.235294e+00	 7.882353e+00	 1.002047e+01
0	 8.235294e+00	 8.000000e+00	 1.001870e+01
0	 8.235294e+00	 8.117647e+00	 1.001694e+01
0	 8.235294e+00	 8.235294e+00	 1.001519e+01
0	 8.352941e+00	 7.647059e+00	 1.002199e+01
0	 8.352941e+00	 7.764706e+00	 1.002033e+01
0	 8.352941e+00	 7.882353e+00	 1.001869e+01
0	 8.352941e+00	 8.000000e+00	 1.001708e+01
0	 8.352941e+00	 8.117647e+00	 1.001548e+01
0	 8.352941e+00	 8.235294e+00	 1.001389e+01
0	 8.470588e+00	 7.647059e+00	 1.001990e+01
0	 8.470588e+00	 7.764706e+00	 1.001841e+01
0	 8.470588e+00	 7.882353e+00	 1.001694e+01
0	 8.470588e+00	 8.000000e+00	 1.001549e+01
0	 8.470588e+00	 8.117647e+00	 1.001405e+01
0	 8.470588e+00	 8.235294e+00	 1.001261e+01
0	 8.588235e+00	 7.647059e+00	 1.001787e+01
0	 8.588235e+00	 7.764706e+00	 1.001655e+01
0	 8.588235e+00	 7.882353e+00	 1.001524e+01
0	 8.588235e+00	 8.000000e+00	 1.001394e+01
0	 8.588235e+00	 8.117647e+00	 1.001265e+01
0	 8.588235e+00	 8.235294e+00	 1.001136e+01
0	 8.705882e+00	 7.647059e+00	 1.001591e+01
0	 8.705882e+00	 7.764706e+00	 1.001474e+01
0	 8.705882e+00	 7.882353e+00	 1.001358e+01
0	 8.705882e+00	 8.000000e+00	 1.001243e+01
0	 8.705882e+00	 8.117647e+00	 1.001128e+01
0	 8.705882e+00	 8.235294e+00	 1.001013e+01
0	 8.823529e+00	 7.647059e+00	 1.001402e+01
0	 8.823529e+00	 7.764706e+00	 1.001300e+01
0	 8.823529e+00	 7.882353e+00	 1.001198e+01
0	 8.823529e+00	 8.000000e+00	 1.001097e+01
0	 8.823529e+00	 8.117647e+00	 1.000995e+01
0	 8.823529e+00	 8.235294e+00	 1.000894e+01
0	 8.235294e+00	 8.235294e+00	 1.001519e+01
0	 8.235294e+00	 8.352941e+00	 1.001350e+01
0	 8.235294e+00	 8.470588e+00	 1.001188e+01
0	 8.235294e+00	 8.588235e+00	 1.001035e+01
0	 8.235294e+00	 8.705882e+00	 1.000888e+01
0	 8.235294e+00	 8.823529e+00	 1.000746e+01
0	 8.352941e+00	 8.235294e+00	 1.001389e+01
0	 8.352941e+00	 8.352941e+00	 1.001234e+01
0	 8.352941e+00	 8.470588e+00	 1.001087e+01
0	 8.352941e+00	 8.588235e+00	 1.000947e+01
0	 8.352941e+00	 8.705882e+00	 1.000813e+01
0	 8.352941e+00	 8.823529e+00	 1.000684e+01
0	 8.470588e+00	 8.235294e+00	 1.001261e+01
0	 8.470588e+00	 8.352941e+00	 1.001121e+01
0	 8.470588e+00	 8.470588e+00	 1.000988e+01
0	 8.470588e+00	 8.588235e+00	 1.000861e+01
0	 8.470588e+00	 8.705882e+00	 1.000739e+01
0	 8.470588e+00	 8.823529e+00	 1.000621e+01
0	 8.588235e+00	 8.235294e+00	 1.001136e+01
0	 8.588235e+00	 8.352941e+00	 1.001010e+01
0	 8.588235e+00	 8.470588e+00	 1.000890e+01
0	 8.588235e+00	 8.588235e+00	 1.000775e+01
0	 8.588235e+00	 8.705882e+00	 1.000665e+01
0	 8.588235e+00	 8.823529e+00	 1.000559e+01
0	 8.705882e+00	 8.235294e+00	 1.001013e+01
0	 8.705882e+00	 8.352941e+00	 1.000900e+01
0	 8.705882e+00	 8.470588e+00	 1.000793e+01
0	 8.705882e+00	 8.588235e+00	 1.000691e+01
0	 8.705882e+00	 8.705882e+00	 1.000593e+01
0	 8.705882e+00	 8.823529e+00	 1.000498e+01
0	 8.823529e+00	 8.235294e+00	 1.000894e+01
0	 8.823529e+00	 8.352941e+00	 1.000794e+01
0	 8.823529e+00	 8.470588e+00	 1.000699e+01
0	 8.823529e+00	 8.588235e+00	 1.000608e+01
0	 8.823529e+00	 8.705882e+00	 1.000521e+01
0	 8.823529e+00	 8.823529e+00	 1.000437e+01
0	 8.235294e+00	 8.823529e+00	 1.000746e+01
0	 8.235294e+00	 8.941176e+00	 1.000614e+01
0	 8.235294e+00	 9.058824e+00	 1.000495e+01
0	 8.235294e+00	 9.176471e+00	 1.000388e+01
0	 8.235294e+00	 9.294118e+00	 1.000292e+01
0	 8.235294e+00	 9.411765e+00	 1.000205e+01
0	 8.352941e+00	 8.823529e+00	 1.000684e+01
0	 8.352941e+00	 8.941176e+00	 1.000563e+01
0	 8.352941e+00	 9.058824e+00	 1.000454e+01
0	 8.352941e+00	 9.176471e+00	 1.000356e+01
0	 8.352941e+00	 9.294118e+00	 1.000267e+01
0	 8.352941e+00	 9.411765e+00	 1.000188e+01
0	 8.470588e+00	 8.823529e+00	 1.000621e+01
0	 8.470588e+00	 8.941176e+00	 1.000511e+01
0	 8.470588e+00	 9.058824e+00	 1.000412e+01
0	 8.470588e+00	 9.176471e+00	 1.000323e+01
0	 8.470588e+00	 9.294118e+00	 1.000243e+01
0	 8.470588e+00	 9.411765e+00	 1.000170e+01
0	 8.588235e+00	 8.823529e+00	 1.000559e+01
0	 8.588235e+00	 8.941176e+00	 1.000460e+01
0	 8.588235e+00	 9.058824e+00	 1.000370e+01
0	 8.588235e+00	 9.176471e+00	 1.000290e+01
0	 8.588235e+00	 9.294118e+00	 1.000217e+01
0	 8.588235e+00	 9.411765e+00	 1.000153e+01
0	 8.705882e+00	 8.823529e+00	 1.000498e+01
0	 8.705882e+00	 8.941176e+00	 1.000409e+01
0	 8.705882e+00	 9.058824e+00	 1.000329e+01
0	 8.705882e+00	 9.176471e+00	 1.000257e+01
0	 8.705882e+00	 9.294118e+00	 1.000192e+01
0	 8.705882e+00	 9.411765e+00	 1.000135e+01
0	 8.823529e+00	 8.823529e+00	 1.000437e+01
0	 8.823529e+00	 8.941176e+00	 1.000358e+01
0	 8.823529e+00	 9.058824e+00	 1.000287e+01
0	 8.823529e+00	 9.176471e+00	 1.000224e+01
0	 8.823529e+00	 9.294118e+00	 1.000168e+01
0	 8.823529e+00	 9.411765e+00	 1.000118e+01
0	 8.235294e+00	 9.411765e+00	 1.000205e+01
0	 8.235294e+00	 9.529412e+00	 1.000132e+01
0	 8.235294e+00	 9.647059e+00	 1.000075e+01
0	 8.235294e+00	 9.764706e+00	 1.000035e+01
0	 8.235294e+00	 9.882353e+00	 1.000010e+01
0	 8.235294e+00	 1.000000e+01	 9.999983e+00
0	 8.352941e+00	 9.411765e+00	 1.000188e+01
0	 8.352941e+00	 9.529412e+00	 1.000121e+01
0	 8.352941e+00	 9.647059e+00	 1.000070e+01
0	 8.352941e+00	 9.764706e+00	 1.000033e+01
0	 8.352941e+00	 9.882353e+00	 1.000010e+01
0	 8.352941e+00	 1.000000e+01	 9.999990e+00
0	 8.470588e+00	 9.411765e+00	 1.000170e+01
0	 8.470588e+00	 9.529412e+00	 1.000109e+01
0	 8.470588e+00	 9.647059e+00	 1.000063e+01
0	 8.470588e+00	 9.764706e+00	 1.000029e+01
0	 8.470588e+00	 9.882353e+00	 1.000008e+01
0	 8.470588e+00	 1.000000e+01	 9.999984e+00
0	 8.588235e+00	 9.411765e+00	 1.000153e+01
0	 8.588235e+00	 9.529412e+00	 1.000098e+01
0	 8.588235e+00	 9.647059e+00	 1.000056e+01
0	 8.588235e+00	 9.764706e+00	 1.000026e+01
0	 8.588235e+00	 9.882353e+00	 1.000006e+01
0	 8.588235e+00	 1.000000e+01	 9.999976e+00
0	 8.705882e+00	 9.411765e+00	 1.000135e+01
0	 8.705882e+00	 9.529412e+00	 1.000086e+01
0	 8.705882e+00	 9.647059e+00	 1.000049e+01
0	 8.705882e+00	 9.764706e+00	 1.000022e+01
0	 8.705882e+00	 9.882353e+00	 1.000005e+01
0	 8.705882e+00	 1.000000e+01	 9.999973e+00
0	 8.823529e+00	 9.411765e+00	 1.000118e+01
0	 8.823529e+00	 9.529412e+00	 1.000075e+01
0	 8.823529e+00	 9.647059e+00	 1.000043e+01
0	 8.823529e+00	 9.764706e+00	 1.000020e+01
0	 8.823529e+00	 9.882353e+00	 1.000005e+01
0	 8.823529e+00	 1.000000e+01	 9.999987e+00
0	 8.823529e+00	 0.000000e+00	 9.873480e+00
0	 8.823529e+00	 1.176471e-01	 9.873572e+00
0	 8.823529e+00	 2.352941e-01	 9.874025e+00
0	 8.823529e+00	 3.529412e-01	 9.874855e+00
0	 8.823529e+00	 4.705882e-01	 9.876074e+00
0	 8.823529e+00	 5.882353e-01	 9.877698e+00
0	 8.941176e+00	 0.000000e+00	 9.856967e+00
0	 8.941176e+00	 1.176471e-01	 9.856999e+00
0	 8.941176e+00	 2.352941e-01	 9.857447e+00
0	 8.941176e+00	 3.529412e-01	 9.858313e+00
0	 8.941176e+00	 4.705882e-01	 9.859597e+00
0	 8.941176e+00	 5.882353e-01	 9.861301e+00
0	 9.058824e+00	 0.000000e+00	 9.839759e+00
0	 9.058824e+00	 1.176471e-01	 9.839818e+00
0	 9.058824e+00	 2.352941e-01	 9.840316e+00
0	 9.058824e+00	 3.529412e-01	 9.841245e+00
0	 9.058824e+00	 4.705882e-01	 9.842599e+00
0	 9.058824e+00	 5.882353e-01	 9.844372e+00
0	 9.176471e+00	 0.000000e+00	 9.821811e+00
0	 9.176471e+00	 1.176471e-01	 9.821951e+00
0	 9.176471e+00	 2.352941e-01	 9.822531e+00
0	 9.176471e+00	 3.529412e-01	 9.823541e+00
0	 9.176471e+00	 4.705882e-01	 9.824972e+00
0	 9.176471e+00	 5.882353e-01	 9.826815e+00
0	 9.294118e+00	 0.000000e+00	 9.803080e+00
0	 9.294118e+00	 1.176471e-01	 9.803319e+00
0	 9.294118e+00	 2.352941e-01	 9.803992e+00
0	 9.294118e+00	 3.529412e-01	 9.805091e+00
0	 9.294118e+00	 4.705882e-01	 9.806609e+00
0	 9.294118e+00	 5.882353e-01	 9.808537e+00
0	 9.411765e+00	 0.000000e+00	 9.783523e+00
0	 9.411765e+00	 1.176471e-01	 9.783845e+00
0	 9.411765e+00	 2.352941e-01	 9.784600e+00
0	 9.411765e+00	 3.529412e-01	 9.785785e+00
0	 9.411765e+00	 4.705882e-01	 9.787400e+00
0	 9.411765e+00	 5.882353e-01	 9.789444e+00
0	 8.823529e+00	 5.882353e-01	 9.877698e+00
0	 8.823529e+00	 7.058824e-01	 9.879660e+00
0	 8.823529e+00	 8.235294e-01	 9.881888e+00
0	 8.823529e+00	 9.411765e-01	 9.884392e+00
0	 8.823529e+00	 1.058824e+00	 9.887176e+00
0	 8.823529e+00	 1.176471e+00	 9.890249e+00
0	 8.941176e+00	 5.882353e-01	 9.861301e+00
0	 8.941176e+00	 7.058824e-01	 9.863352e+00
0	 8.941176e+00	 8.235294e-01	 9.865680e+00
0	 8.941176e+00	 9.411765e-01	 9.868294e+00
0	 8.941176e+00	 1.058824e+00	 9.871202e+00
0	 8.941176e+00	 1.176471e+00	 9.874412e+00
0	 9.058824e+00	 5.882353e-01	 9.844372e+00
0	 9.058824e+00	 7.058824e-01	 9.846499e+00
0	 9.058824e+00	 8.235294e-01	 9.848929e+00
0	 9.058824e+00	 9.411765e-01	 9.851669e+00
0	 9.058824e+00	 1.058824e+00	 9.854728e+00
0	 9.058824e+00	 1.176471e+00	 9.858115e+00
0	 9.176471e+00	 5.882353e-01	 9.826815e+00
0	 9.176471e+00	 7.058824e-01	 9.829025e+00
0	 9.176471e+00	 8.235294e-01	 9.831570e+00
0	 9.176471e+00	 9.411765e-01	 9.834458e+00
0	 9.176471e+00	 1.058824e+00	 9.837698e+00
0	 9.176471e+00	 1.176471e+00	 9.841299e+00
0	 9.294118e+00	 5.882353e-01	 9.808537e+00
0	 9.294118e+00	 7.058824e-01	 9.810851e+00
0	 9.294118e+00	 8.235294e-01	 9.813539e+00
0	 9.294118e+00	 9.411765e-01	 9.816605e+00
0	 9.294118e+00	 1.058824e+00	 9.820059e+00
0	 9.294118e+00	 1.176471e+00	 9.823906e+00
0	 9.411765e+00	 5.882353e-01	 9.789444e+00
0	 9.411765e+00	 7.058824e-01	 9.791903e+00
0	 9.411765e+00	 8.235294e-01	 9.794771e+00
0	 9.411765e+00	 9.411765e-01	 9.798053e+00
0	 9.411765e+00	 1.058824e+00	 9.801754e+00
0	 9.411765e+00	 1.176471e+00	 9.805879e+00
0	 8.823529e+00	 1.176471e+00	 9.890249e+00
0	 8.823529e+00	 1.294118e+00	 9.893563e+00
0	 8.823529e+00	 1.411765e+00	 9.897076e+00
0	 8.823529e+00	 1.529412e+00	 9.900798e+00
0	 8.823529e+00	 1.647059e+00	 9.904738e+00
0	 8.823529e+00	 1.764706e+00	 9.908909e+00
0	 8.941176e+00	 1.176471e+00	 9.874412e+00
0	 8.941176e+00	 1.294118e+00	 9.877880e+00
0	 8.941176e+00	 1.411765e+00	 9.881563e+00
0	 8.941176e+00	 1.529412e+00	 9.885469e+00
0	 8.941176e+00	 1.647059e+00	 9.889606e+00
0	 8.941176e+00	 1.764706e+00	 9.893984e+00
0	 9.058824e+00	 1.176471e+00	 9.858115e+00
0	 9.058824e+00	 1.294118e+00	 9.861780e+00
0	 9.058824e+00	 1.411765e+00	 9.865674e+00
0	 9.058824e+00	 1.529412e+00	 9.869803e+00
0	 9.058824e+00	 1.647059e+00	 9.874175e+00
0	 9.058824e+00	 1.764706e+00	 9.878796e+00
0	 9.176471e+00	 1.176471e+00	 9.841299e+00
0	 9.176471e+00	 1.294118e+00	 9.845201e+00
0	 9.176471e+00	 1.411765e+00	 9.849344e+00
0	 9.176471e+00	 1.529412e+00	 9.853735e+00
0	 9.176471e+00	 1.647059e+00	 9.858381e+00
0	 9.176471e+00	 1.764706e+00	 9.863287e+00
0	 9.294118e+00	 1.176471e+00	 9.823906e+00
0	 9.294118e+00	 1.294118e+00	 9.828079e+00
0	 9.294118e+00	 1.411765e+00	 9.832508e+00
0	 9.294118e+00	 1.529412e+00	 9.837199e+00
0	 9.294118e+00	 1.647059e+00	 9.842159e+00
0	 9.294118e+00	 1.764706e+00	 9.847394e+00
0	 9.411765e+00	 1.176471e+00	 9.805879e+00
0	 9.411765e+00	 1.294118e+00	 9.810352e+00
0	 9.411765e+00	 1.411765e+00	 9.815099e+00
0	 9.411765e+00	 1.529412e+00	 9.820127e+00
0	 9.411765e+00	 1.647059e+00	 9.825444e+00
0	 9.411765e+00	 1.764706e+00	 9.831058e+00
0	 8.823529e+00	 1.764706e+00	 9.908909e+00
0	 8.823529e+00	 1.882353e+00	 9.913233e+00
0	 8.823529e+00	 2.000000e+00	 9.917636e+00
0	 8.823529e+00	 2.117647e+00	 9.922128e+00
0	 8.823529e+00	 2.235294e+00	 9.926720e+00
0	 8.823529e+00	 2.352941e+00	 9.931424e+00
0	 8.941176e+00	 1.764706e+00	 9.893984e+00
0	 8.941176e+00	 1.882353e+00	 9.898526e+00
0	 8.941176e+00	 2.000000e+00	 9.903159e+00
0	 8.941176e+00	 2.117647e+00	 9.907896e+00
0	 8.941176e+00	 2.235294e+00	 9.912745e+00
0	 8.941176e+00	 2.352941e+00	 9.917720e+00
0	 9.058824e+00	 1.764706e+00	 9.878796e+00
0	 9.058824e+00	 1.882353e+00	 9.883593e+00
0	 9.058824e+00	 2.000000e+00	 9.888493e+00
0	 9.058824e+00	 2.117647e+00	 9.893507e+00
0	 9.058824e+00	 2.235294e+00	 9.898646e+00
0	 9.058824e+00	 2.352941e+00	 9.903921e+00
0	 9.176471e+00	 1.764706e+00	 9.863287e+00
0	 9.176471e+00	 1.882353e+00	 9.868379e+00
0	 9.176471e+00	 2.000000e+00	 9.873587e+00
0	 9.176471e+00	 2.117647e+00	 9.878920e+00
0	 9.176471e+00	 2.235294e+00	 9.884389e+00
0	 9.176471e+00	 2.352941e+00	 9.890004e+00
0	 9.294118e+00	 1.764706e+00	 9.847394e+00
0	 9.294118e+00	 1.882353e+00	 9.852830e+00
0	 9.294118e+00	 2.000000e+00	 9.858393e+00
0	 9.294118e+00	 2.117647e+00	 9.864093e+00
0	 9.294118e+00	 2.235294e+00	 9.869940e+00
0	 9.294118e+00	 2.352941e+00	 9.875942e+00
0	 9.411765e+00	 1.764706e+00	 9.831058e+00
0	 9.411765e+00	 1.882353e+00	 9.836889e+00
0	 9.411765e+00	 2.000000e+00	 9.842862e+00
0	 9.411765e+00	 2.117647e+00	 9.848984e+00
0	 9.411765e+00	 2.235294e+00	 9.855264e+00
0	 9.411765e+00	 2.352941e+00	 9.861709e+00
0	 8.823529e+00	 2.352941e+00	 9.931424e+00
0	 8.823529e+00	 2.470588e+00	 9.936164e+00
0	 8.823529e+00	 2.588235e+00	 9.940866e+00
0	 8.823529e+00	 2.705882e+00	 9.945537e+00
0	 8.823529e+00	 2.823529e+00	 9.950186e+00
0	 8.823529e+00	 2.941176e+00	 9.954823e+00
0	 8.941176e+00	 2.352941e+00	 9.917720e+00
0	 8.941176e+00	 2.470588e+00	 9.922742e+00
0	 8.941176e+00	 2.588235e+00	 9.927734e+00
0	 8.941176e+00	 2.705882e+00	 9.932704e+00
0	 8.941176e+00	 2.823529e+00	 9.937660e+00
0	 8.941176e+00	 2.941176e+00	 9.942611e+00
0	 9.058824e+00	 2.352941e+00	 9.903921e+00
0	 9.058824e+00	 2.470588e+00	 9.909256e+00
0	 9.058824e+00	 2.588235e+00	 9.914570e+00
0	 9.058824e+00	 2.705882e+00	 9.919873e+00
0	 9.058824e+00	 2.823529e+00	 9.925171e+00
0	 9.058824e+00	 2.941176e+00	 9.930472e+00
0	 9.176471e+00	 2.352941e+00	 9.890004e+00
0	 9.176471e+00	 2.470588e+00	 9.895688e+00
0	 9.176471e+00	 2.588235e+00	 9.901363e+00
0	 9.176471e+00	 2.705882e+00	 9.907036e+00
0	 9.176471e+00	 2.823529e+00	 9.912715e+00
0	 9.176471e+00	 2.941176e+00	 9.918406e+00
0	 9.294118e+00	 2.352941e+00	 9.875942e+00
0	 9.294118e+00	 2.470588e+00	 9.882022e+00
0	 9.294118e+00	 2.588235e+00	 9.888102e+00
0	 9.294118e+00	 2.705882e+00	 9.894189e+00
0	 9.294118e+00	 2.823529e+00	 9.900290e+00
0	 9.294118e+00	 2.941176e+00	 9.906413e+00
0	 9.411765e+00	 2.352941e+00	 9.861709e+00
0	 9.411765e+00	 2.470588e+00	 9.868240e+00
0	 9.411765e+00	 2.588235e+00	 9.874777e+00
0	 9.411765e+00	 2.705882e+00	 9.881326e+00
0	 9.411765e+00	 2.823529e+00	 9.887896e+00
0	 9.411765e+00	 2.941176e+00	 9.894494e+00
0	 8.823529e+00	 2.941176e+00	 9.954823e+00
0	 8.823529e+00	 3.058824e+00	 9.959396e+00
0	 8.823529e+00	 3.176471e+00	 9.963856e+00
0	 8.823529e+00	 3.294118e+00	 9.968207e+00
0	 8.823529e+00	 3.411765e+00	 9.972458e+00
0	 8.823529e+00	 3.529412e+00	 9.976615e+00
0	 8.941176e+00	 2.941176e+00	 9.942611e+00
0	 8.941176e+00	 3.058824e+00	 9.947505e+00
0	 8.941176e+00	 3.176471e+00	 9.952291e+00
0	 8.941176e+00	 3.294118e+00	 9.956976e+00
0	 8.941176e+00	 3.411765e+00	 9.961566e+00
0	 8.941176e+00	 3.529412e+00	 9.966065e+00
0	 9.058824e+00	 2.941176e+00	 9.930472e+00
0	 9.058824e+00	 3.058824e+00	 9.935722e+00
0	 9.058824e+00	 3.176471e+00	 9.940867e+00
0	 9.058824e+00	 3.294118e+00	 9.945911e+00
0	 9.058824e+00	 3.411765e+00	 9.950860e+00
0	 9.058824e+00	 3.529412e+00	 9.955719e+00
0	 9.176471e+00	 2.941176e+00	 9.918406e+00
0	 9.176471e+00	 3.058824e+00	 9.924050e+00
0	 9.176471e+00	 3.176471e+00	 9.929587e+00
0	 9.176471e+00	 3.294118e+00	 9.935020e+00
0	 9.176471e+00	 3.411765e+00	 9.940356e+00
0	 9.176471e+00	 3.529412e+00	 9.945598e+00
0	 9.294118e+00	 2.941176e+00	 9.906413e+00
0	 9.294118e+00	 3.058824e+00	 9.912491e+00
0	 9.294118e+00	 3.176471e+00	 9.918457e+00
0	 9.294118e+00	 3.294118e+00	 9.924314e+00
0	 9.294118e+00	 3.411765e+00	 9.930068e+00
0	 9.294118e+00	 3.529412e+00	 9.935725e+00
0	 9.411765e+00	 2.941176e+00	 9.894494e+00
0	 9.411765e+00	 3.058824e+00	 9.901047e+00
0	 9.411765e+00	 3.176471e+00	 9.907481e+00
0	 9.411765e+00	 3.294118e+00	 9.913801e+00
0	 9.411765e+00	 3.411765e+00	 9.920012e+00
0	 9.411765e+00	 3.529412e+00	 9.926121e+00
0	 8.823529e+00	 3.529412e+00	 9.976615e+00
0	 8.823529e+00	 3.647059e+00	 9.980637e+00
0	 8.823529e+00	 3.764706e+00	 9.984478e+00
0	 8.823529e+00	 3.882353e+00	 9.988141e+00
0	 8.823529e+00	 4.000000e+00	 9.991628e+00
0	 8.823529e+00	 4.117647e+00	 9.994939e+00
0	 8.941176e+00	 3.529412e+00	 9.966065e+00
0	 8.941176e+00	 3.647059e+00	 9.970429e+00
0	 8.941176e+00	 3.764706e+00	 9.974610e+00
0	 8.941176e+00	 3.882353e+00	 9.978610e+00
0	 8.941176e+00	 4.000000e+00	 9.982433e+00
0	 8.941176e+00	 4.117647e+00	 9.986080e+00
0	 9.058824e+00	 3.529412e+00	 9.955719e+00
0	 9.058824e+00	 3.647059e+00	 9.960441e+00
0	 9.058824e+00	 3.764706e+00	 9.964978e+00
0	 9.058824e+00	 3.882353e+00	 9.969333e+00
0	 9.058824e+00	 4.000000e+00	 9.973511e+00
0	 9.058824e+00	 4.117647e+00	 9.977514e+00
0	 9.176471e+00	 3.529412e+00	 9.945598e+00
0	 9.176471e+00	 3.647059e+00	 9.950700e+00
0	 9.176471e+00	 3.764706e+00	 9.955616e+00
0	 9.176471e+00	 3.882353e+00	 9.960348e+00
0	 9.176471e+00	 4.000000e+00	 9.964901e+00
0	 9.176471e+00	 4.117647e+00	 9.969278e+00
0	 9.294118e+00	 3.529412e+00	 9.935725e+00
0	 9.294118e+00	 3.647059e+00	 9.941237e+00
0	 9.294118e+00	 3.764706e+00	 9.946557e+00
0	 9.294118e+00	 3.882353e+00	 9.951691e+00
0	 9.294118e+00	 4.000000e+00	 9.956641e+00
0	 9.294118e+00	 4.117647e+00	 9.961412e+00
0	 9.411765e+00	 3.529412e+00	 9.926121e+00
0	 9.411765e+00	 3.647059e+00	 9.932078e+00
0	 9.411765e+00	 3.764706e+00	 9.937836e+00
0	 9.411765e+00	 3.882353e+00	 9.943399e+00
0	 9.411765e+00	 4.000000e+00	 9.948770e+00
0	 9.411765e+00	 4.117647e+00	 9.953953e+00
0	 8.823529e+00	 4.117647e+00	 9.994939e+00
0	 8.823529e+00	 4.235294e+00	 9.998065e+00
0	 8.823529e+00	 4.352941e+00	 1.000100e+01
0	 8.823529e+00	 4.470588e+00	 1.000373e+01
0	 8.823529e+00	 4.588235e+00	 1.000627e+01
0	 8.823529e+00	 4.705882e+00	 1.000862e+01
0	 8.941176e+00	 4.117647e+00	 9.986080e+00
0	 8.941176e+00	 4.235294e+00	 9.989542e+00
0	 8.941176e+00	 4.352941e+00	 9.992804e+00
0	 8.941176e+00	 4.470588e+00	 9.995869e+00
0	 8.941176e+00	 4.588235e+00	 9.998734e+00
0	 8.941176e+00	 4.705882e+00	 1.000140e+01
0	 9.058824e+00	 4.117647e+00	 9.977514e+00
0	 9.058824e+00	 4.235294e+00	 9.981328e+00
0	 9.058824e+00	 4.352941e+00	 9.984934e+00
0	 9.058824e+00	 4.470588e+00	 9.988334e+00
0	 9.058824e+00	 4.588235e+00	 9.991526e+00
0	 9.058824e+00	 4.705882e+00	 9.994510e+00
0	 9.176471e+00	 4.117647e+00	 9.969278e+00
0	 9.176471e+00	 4.235294e+00	 9.973460e+00
0	 9.176471e+00	 4.352941e+00	 9.977423e+00
0	 9.176471e+00	 4.470588e+00	 9.981166e+00
0	 9.176471e+00	 4.588235e+00	 9.984690e+00
0	 9.176471e+00	 4.705882e+00	 9.987993e+00
0	 9.294118e+00	 4.117647e+00	 9.961412e+00
0	 9.294118e+00	 4.235294e+00	 9.965977e+00
0	 9.294118e+00	 4.352941e+00	 9.970308e+00
0	 9.294118e+00	 4.470588e+00	 9.974405e+00
0	 9.294118e+00	 4.588235e+00	 9.978267e+00
0	 9.294118e+00	 4.705882e+00	 9.981896e+00
0	 9.411765e+00	 4.117647e+00	 9.953953e+00
0	 9.411765e+00	 4.235294e+00	 9.958916e+00
0	 9.411765e+00	 4.352941e+00	 9.963628e+00
0	 9.411765e+00	 4.470588e+00	 9.968089e+00
0	 9.411765e+00	 4.588235e+00	 9.972300e+00
0	 9.411765e+00	 4.705882e+00	 9.976262e+00
0	 8.823529e+00	 4.705882e+00	 1.000862e+01
0	 8.823529e+00	 4.823529e+00	 1.001077e+01
0	 8.823529e+00	 4.941176e+00	 1.001272e+01
0	 8.823529e+00	 5.058824e+00	 1.001447e+01
0	 8.823529e+00	 5.176471e+00	 1.001601e+01
0	 8.823529e+00	 5.294118e+00	 1.001734e+01
0	 8.941176e+00	 4.705882e+00	 1.000140e+01
0	 8.941176e+00	 4.823529e+00	 1.000386e+01
0	 8.941176e+00	 4.941176e+00	 1.000611e+01
0	 8.941176e+00	 5.058824e+00	 1.000815e+01
0	 8.941176e+00	 5.176471e+00	 1.000998e+01
0	 8.941176e+00	 5.294118e+00	 1.001159e+01
0	 9.058824e+00	 4.705882e+00	 9.994510e+00
0	 9.058824e+00	 4.823529e+00	 9.997281e+00
0	 9.058824e+00	 4.941176e+00	 9.999832e+00
0	 9.058824e+00	 5.058824e+00	 1.000216e+01
0	 9.058824e+00	 5.176471e+00	 1.000427e+01
0	 9.058824e+00	 5.294118e+00	 1.000616e+01
0	 9.176471e+00	 4.705882e+00	 9.987993e+00
0	 9.176471e+00	 4.823529e+00	 9.991073e+00
0	 9.176471e+00	 4.941176e+00	 9.993923e+00
0	 9.176471e+00	 5.058824e+00	 9.996545e+00
0	 9.176471e+00	 5.176471e+00	 9.998937e+00
0	 9.176471e+00	 5.294118e+00	 1.000110e+01
0	 9.294118e+00	 4.705882e+00	 9.981896e+00
0	 9.294118e+00	 4.823529e+00	 9.985287e+00
0	 9.294118e+00	 4.941176e+00	 9.988439e+00
0	 9.294118e+00	 5.058824e+00	 9.991351e+00
0	 9.294118e+00	 5.176471e+00	 9.994023e+00
0	 9.294118e+00	 5.294118e+00	 9.996454e+00
0	 9.411765e+00	 4.705882e+00	 9.976262e+00
0	 9.411765e+00	 4.823529e+00	 9.979973e+00
0	 9.411765e+00	 4.941176e+00	 9.983430e+00
0	 9.411765e+00	 5.058824e+00	 9.986633e+00
0	 9.411765e+00	 5.176471e+00	 9.989581e+00
0	 9.411765e+00	 5.294118e+00	 9.992273e+00
0	 8.823529e+00	 5.294118e+00	 1.001734e+01
0	 8.823529e+00	 5.411765e+00	 1.001848e+01
0	 8.823529e+00	 5.529412e+00	 1.001945e+01
0	 8.823529e+00	 5.647059e+00	 1.002026e+01
0	 8.823529e+00	 5.764706e+00	 1.002088e+01
0	 8.823529e+00	 5.882353e+00	 1.002133e+01
0	 8.941176e+00	 5.294118e+00	 1.001159e+01
0	 8.941176e+00	 5.411765e+00	 1.001300e+01
0	 8.941176e+00	 5.529412e+00	 1.001424e+01
0	 8.941176e+00	 5.647059e+00	 1.001530e+01
0	 8.941176e+00	 5.764706e+00	 1.001617e+01
0	 8.941176e+00	 5.882353e+00	 1.001686e+01
0	 9.058824e+00	 5.294118e+00	 1.000616e+01
0	 9.058824e+00	 5.411765e+00	 1.000784e+01
0	 9.058824e+00	 5.529412e+00	 1.000934e+01
0	 9.058824e+00	 5.647059e+00	 1.001064e+01
0	 9.058824e+00	 5.764706e+00	 1.001175e+01
0	 9.058824e+00	 5.882353e+00	 1.001266e+01
0	 9.176471e+00	 5.294118e+00	 1.000110e+01
0	 9.176471e+00	 5.411765e+00	 1.000305e+01
0	 9.176471e+00	 5.529412e+00	 1.000479e+01
0	 9.176471e+00	 5.647059e+00	 1.000633e+01
0	 9.176471e+00	 5.764706e+00	 1.000766e+01
0	 9.176471e+00	 5.882353e+00	 1.000878e+01
0	 9.294118e+00	 5.294118e+00	 9.996454e+00
0	 9.294118e+00	 5.411765e+00	 9.998658e+00
0	 9.294118e+00	 5.529412e+00	 1.000064e+01
0	 9.294118e+00	 5.647059e+00	 1.000241e+01
0	 9.294118e+00	 5.764706e+00	 1.000395e+01
0	 9.294118e+00	 5.882353e+00	 1.000527e+01
0	 9.411765e+00	 5.294118e+00	 9.992273e+00
0	 9.411765e+00	 5.411765e+00	 9.994721e+00
0	 9.411765e+00	 5.529412e+00	 9.996935e+00
0	 9.411765e+00	 5.647059e+00	 9.998912e+00
0	 9.411765e+00	 5.764706e+00	 1.000065e+01
0	 9.411765e+00	 5.882353e+00	 1.000215e+01
0	 8.823529e+00	 5.882353e+00	 1.002133e+01
0	 8.823529e+00	 6.000000e+00	 1.002163e+01
0	 8.823529e+00	 6.117647e+00	 1.002178e+01
0	 8.823529e+00	 6.235294e+00	 1.002180e+01
0	 8.823529e+00	 6.352941e+00	 1.002168e+01
0	 8.823529e+00	 6.470588e+00	 1.002140e+01
0	 8.941176e+00	 5.882353e+00	 1.001686e+01
0	 8.941176e+00	 6.000000e+00	 1.001738e+01
0	 8.941176e+00	 6.117647e+00	 1.001775e+01
0	 8.941176e+00	 6.235294e+00	 1.001798e+01
0	 8.941176e+00	 6.352941e+00	 1.001806e+01
0	 8.941176e+00	 6.470588e+00	 1.001798e+01
0	 9.058824e+00	 5.882353e+00	 1.001266e+01
0	 9.058824e+00	 6.000000e+00	 1.001340e+01
0	 9.058824e+00	 6.117647e+00	 1.001398e+01
0	 9.058824e+00	 6.235294e+00	 1.001440e+01
0	 9.058824e+00	 6.352941e+00	 1.001467e+01
0	 9.058824e+00	 6.470588e+00	 1.001477e+01
0	 9.176471e+00	 5.882353e+00	 1.000878e+01
0	 9.176471e+00	 6.000000e+00	 1.000972e+01
0	 9.176471e+00	 6.117647e+00	 1.001049e+01
0	 9.176471e+00	 6.235294e+00	 1.001110e+01
0	 9.176471e+00	 6.352941e+00	 1.001154e+01
0	 9.176471e+00	 6.470588e+00	 1.001180e+01
0	 9.294118e+00	 5.882353e+00	 1.000527e+01
0	 9.294118e+00	 6.000000e+00	 1.000638e+01
0	 9.294118e+00	 6.117647e+00	 1.000733e+01
0	 9.294118e+00	 6.235294e+00	 1.000810e+01
0	 9.294118e+00	 6.352941e+00	 1.000870e+01
0	 9.294118e+00	 6.470588e+00	 1.000912e+01
0	 9.411765e+00	 5.882353e+00	 1.000215e+01
0	 9.411765e+00	 6.000000e+00	 1.000343e+01
0	 9.411765e+00	 6.117647e+00	 1.000453e+01
0	 9.411765e+00	 6.235294e+00	 1.000545e+01
0	 9.411765e+00	 6.352941e+00	 1.000619e+01
0	 9.411765e+00	 6.470588e+00	 1.000673e+01
0	 8.823529e+00	 6.470588e+00	 1.002140e+01
0	 8.823529e+00	 6.588235e+00	 1.002101e+01
0	 8.823529e+00	 6.705882e+00	 1.002053e+01
0	 8.823529e+00	 6.823529e+00	 1.001997e+01
0	 8.823529e+00	 6.941176e+00	 1.001931e+01
0	 8.823529e+00	 7.058824e+00	 1.001856e+01
0	 8.941176e+00	 6.470588e+00	 1.001798e+01
0	 8.941176e+00	 6.588235e+00	 1.001777e+01
0	 8.941176e+00	 6.705882e+00	 1.001748e+01
0	 8.941176e+00	 6.823529e+00	 1.001709e+01
0	 8.941176e+00	 6.941176e+00	 1.001660e+01
0	 8.941176e+00	 7.058824e+00	 1.001601e+01
0	 9.058824e+00	 6.470588e+00	 1.001477e+01
0	 9.058824e+00	 6.588235e+00	 1.001474e+01
0	 9.058824e+00	 6.705882e+00	 1.001461e+01
0	 9.058824e+00	 6.823529e+00	 1.001439e+01
0	 9.058824e+00	 6.941176e+00	 1.001405e+01
0	 9.058824e+00	 7.058824e+00	 1.001361e+01
0	 9.176471e+00	 6.470588e+00	 1.001180e+01
0	 9.176471e+00	 6.588235e+00	 1.001194e+01
0	 9.176471e+00	 6.705882e+00	 1.001196e+01
0	 9.176471e+00	 6.823529e+00	 1.001188e+01
0	 9.176471e+00	 6.941176e+00	 1.001168e+01
0	 9.176471e+00	 7.058824e+00	 1.001136e+01
0	 9.294118e+00	 6.470588e+00	 1.000912e+01
0	 9.294118e+00	 6.588235e+00	 1.000939e+01
0	 9.294118e+00	 6.705882e+00	 1.000954e+01
0	 9.294118e+00	 6.823529e+00	 1.000958e+01
0	 9.294118e+00	 6.941176e+00	 1.000950e+01
0	 9.294118e+00	 7.058824e+00	 1.000929e+01
0	 9.411765e+00	 6.470588e+00	 1.000673e+01
0	 9.411765e+00	 6.588235e+00	 1.000711e+01
0	 9.411765e+00	 6.705882e+00	 1.000738e+01
0	 9.411765e+00	 6.823529e+00	 1.000751e+01
0	 9.411765e+00	 6.941176e+00	 1.000752e+01
0	 9.411765e+00	 7.058824e+00	 1.000740e+01
0	 8.823529e+00	 7.058824e+00	 1.001856e+01
0	 8.823529e+00	 7.176471e+00	 1.001774e+01
0	 8.823529e+00	 7.294118e+00	 1.001688e+01
0	 8.823529e+00	 7.411765e+00	 1.001598e+01
0	 8.823529e+00	 7.529412e+00	 1.001503e+01
0	 8.823529e+00	 7.647059e+00	 1.001402e+01
0	 8.941176e+00	 7.058824e+00	 1.001601e+01
0	 8.941176e+00	 7.176471e+00	 1.001535e+01
0	 8.941176e+00	 7.294118e+00	 1.001464e+01
0	 8.941176e+00	 7.411765e+00	 1.001389e+01
0	 8.941176e+00	 7.529412e+00	 1.001308e+01
0	 8.941176e+00	 7.647059e+00	 1.001221e+01
0	 9.058824e+00	 7.058824e+00	 1.001361e+01
0	 9.058824e+00	 7.176471e+00	 1.001309e+01
0	 9.058824e+00	 7.294118e+00	 1.001252e+01
0	 9.058824e+00	 7.411765e+00	 1.001189e+01
0	 9.058824e+00	 7.529412e+00	 1.001122e+01
0	 9.058824e+00	 7.647059e+00	 1.001048e+01
0	 9.176471e+00	 7.058824e+00	 1.001136e+01
0	 9.176471e+00	 7.176471e+00	 1.001096e+01
0	 9.176471e+00	 7.294118e+00	 1.001051e+01
0	 9.176471e+00	 7.411765e+00	 1.001000e+01
0	 9.176471e+00	 7.529412e+00	 1.000944e+01
0	 9.176471e+00	 7.647059e+00	 1.000881e+01
0	 9.294118e+00	 7.058824e+00	 1.000929e+01
0	 9.294118e+00	 7.176471e+00	 1.000899e+01
0	 9.294118e+00	 7.294118e+00	 1.000864e+01
0	 9.294118e+00	 7.411765e+00	 1.000823e+01
0	 9.294118e+00	 7.529412e+00	 1.000776e+01
0	 9.294118e+00	 7.647059e+00	 1.000723e+01
0	 9.411765e+00	 7.058824e+00	 1.000740e+01
0	 9.411765e+00	 7.176471e+00	 1.000717e+01
0	 9.411765e+00	 7.294118e+00	 1.000690e+01
0	 9.411765e+00	 7.411765e+00	 1.000657e+01
0	 9.411765e+00	 7.529412e+00	 1.000617e+01
0	 9.411765e+00	 7.647059e+00	 1.000572e+01
0	 8.823529e+00	 7.647059e+00	 1.001402e+01
0	 8.823529e+00	 7.764706e+00	 1.001300e+01
0	 8.823529e+00	 7.882353e+00	 1.001198e+01
0	 8.823529e+00	 8.000000e+00	 1.001097e+01
0	 8.823529e+00	 8.117647e+00	 1.000995e+01
0	 8.823529e+00	 8.235294e+00	 1.000894e+01
0	 8.941176e+00	 7.647059e+00	 1.001221e+01
0	 8.941176e+00	 7.764706e+00	 1.001132e+01
0	 8.941176e+00	 7.882353e+00	 1.001044e+01
0	 8.941176e+00	 8.000000e+00	 1.000955e+01
0	 8.941176e+00	 8.117647e+00	 1.000867e+01
0	 8.941176e+00	 8.235294e+00	 1.000777e+01
0	 9.058824e+00	 7.647059e+00	 1.001048e+01
0	 9.058824e+00	 7.764706e+00	 1.000971e+01
0	 9.058824e+00	 7.882353e+00	 1.000895e+01
0	 9.058824e+00	 8.000000e+00	 1.000818e+01
0	 9.058824e+00	 8.117647e+00	 1.000741e+01
0	 9.058824e+00	 8.235294e+00	 1.000663e+01
0	 9.176471e+00	 7.647059e+00	 1.000881e+01
0	 9.176471e+00	 7.764706e+00	 1.000816e+01
0	 9.176471e+00	 7.882353e+00	 1.000750e+01
0	 9.176471e+00	 8.000000e+00	 1.000684e+01
0	 9.176471e+00	 8.117647e+00	 1.000618e+01
0	 9.176471e+00	 8.235294e+00	 1.000550e+01
0	 9.294118e+00	 7.647059e+00	 1.000723e+01
0	 9.294118e+00	 7.764706e+00	 1.000666e+01
0	 9.294118e+00	 7.882353e+00	 1.000610e+01
0	 9.294118e+00	 8.000000e+00	 1.000553e+01
0	 9.294118e+00	 8.117647e+00	 1.000496e+01
0	 9.294118e+00	 8.235294e+00	 1.000438e+01
0	 9.411765e+00	 7.647059e+00	 1.000572e+01
0	 9.411765e+00	 7.764706e+00	 1.000522e+01
0	 9.411765e+00	 7.882353e+00	 1.000473e+01
0	 9.411765e+00	 8.000000e+00	 1.000424e+01
0	 9.411765e+00	 8.117647e+00	 1.000375e+01
0	 9.411765e+00	 8.235294e+00	 1.000324e+01
0	 8.823529e+00	 8.235294e+00	 1.000894e+01
0	 8.823529e+00	 8.352941e+00	 1.000794e+01
0	 8.823529e+00	 8.470588e+00	 1.000699e+01
0	 8.823529e+00	 8.588235e+00	 1.000608e+01
0	 8.823529e+00	 8.705882e+00	 1.000521e+01
0	 8.823529e+00	 8.823529e+00	 1.000437e+01
0	 8.941176e+00	 8.235294e+00	 1.000777e+01
0	 8.941176e+00	 8.352941e+00	 1.000690e+01
0	 8.941176e+00	 8.470588e+00	 1.000606e+01
0	 8.941176e+00	 8.588235e+00	 1.000527e+01
0	 8.941176e+00	 8.705882e+00	 1.000450e+01
0	 8.941176e+00	 8.823529e+00	 1.000376e+01
0	 9.058824e+00	 8.235294e+00	 1.000663e+01
0	 9.058824e+00	 8.352941e+00	 1.000587e+01
0	 9.058824e+00	 8.470588e+00	 1.000514e+01
0	 9.058824e+00	 8.588235e+00	 1.000445e+01
0	 9.058824e+00	 8.705882e+00	 1.000378e+01
0	 9.058824e+00	 8.823529e+00	 1.000315e+01
0	 9.176471e+00	 8.235294e+00	 1.000550e+01
0	 9.176471e+00	 8.352941e+00	 1.000484e+01
0	 9.176471e+00	 8.470588e+00	 1.000421e+01
0	 9.176471e+00	 8.588235e+00	 1.000362e+01
0	 9.176471e+00	 8.705882e+00	 1.000305e+01
0	 9.176471e+00	 8.823529e+00	 1.000251e+01
0	 9.294118e+00	 8.235294e+00	 1.000438e+01
0	 9.294118e+00	 8.352941e+00	 1.000380e+01
0	 9.294118e+00	 8.470588e+00	 1.000327e+01
0	 9.294118e+00	 8.588235e+00	 1.000277e+01
0	 9.294118e+00	 8.705882e+00	 1.000230e+01
0	 9.294118e+00	 8.823529e+00	 1.000185e+01
0	 9.411765e+00	 8.235294e+00	 1.000324e+01
0	 9.411765e+00	 8.352941e+00	 1.000275e+01
0	 9.411765e+00	 8.470588e+00	 1.000230e+01
0	 9.411765e+00	 8.588235e+00	 1.000189e+01
0	 9.411765e+00	 8.705882e+00	 1.000151e+01
0	 9.411765e+00	 8.823529e+00	 1.000116e+01
0	 8.823529e+00	 8.823529e+00	 1.000437e+01
0	 8.823529e+00	 8.941176e+00	 1.000358e+01
0	 8.823529e+00	 9.058824e+00	 1.000287e+01
0	 8.823529e+00	 9.176471e+00	 1.000224e+01
0	 8.823529e+00	 9.294118e+00	 1.000168e+01
0	 8.823529e+00	 9.411765e+00	 1.000118e+01
0	 8.941176e+00	 8.823529e+00	 1.000376e+01
0	 8.941176e+00	 8.941176e+00	 1.000307e+01
0	 8.941176e+00	 9.058824e+00	 1.000246e+01
0	 8.941176e+00	 9.176471e+00	 1.000191e+01
0	 8.941176e+00	 9.294118e+00	 1.000143e+01
0	 8.941176e+00	 9.411765e+00	 1.000100e+01
0	 9.058824e+00	 8.823529e+00	 1.000315e+01
0	 9.058824e+00	 8.941176e+00	 1.000255e+01
0	 9.058824e+00	 9.058824e+00	 1.000203e+01
0	 9.058824e+00	 9.176471e+00	 1.000157e+01
0	 9.058824e+00	 9.294118e+00	 1.000116e+01
0	 9.058824e+00	 9.411765e+00	 1.000082e+01
0	 9.176471e+00	 8.823529e+00	 1.000251e+01
0	 9.176471e+00	 8.941176e+00	 1.000202e+01
0	 9.176471e+00	 9.058824e+00	 1.000158e+01
0	 9.176471e+00	 9.176471e+00	 1.000121e+01
0	 9.176471e+00	 9.294118e+00	 1.000088e+01
0	 9.176471e+00	 9.411765e+00	 1.000061e+01
0	 9.294118e+00	 8.823529e+00	 1.000185e+01
0	 9.294118e+00	 8.941176e+00	 1.000145e+01
0	 9.294118e+00	 9.058824e+00	 1.000111e+01
0	 9.294118e+00	 9.176471e+00	 1.000082e+01
0	 9.294118e+00	 9.294118e+00	 1.000058e+01
0	 9.294118e+00	 9.411765e+00	 1.000039e+01
0	 9.411765e+00	 8.823529e+00	 1.000116e+01
0	 9.411765e+00	 8.941176e+00	 1.000085e+01
0	 9.411765e+00	 9.058824e+00	 1.000060e+01
0	 9.411765e+00	 9.176471e+00	 1.000040e+01
0	 9.411765e+00	 9.294118e+00	 1.000024e+01
0	 9.411765e+00	 9.411765e+00	 1.000014e+01
0	 8.823529e+00	 9.411765e+00	 1.000118e+01
0	 8.823529e+00	 9.529412e+00	 1.000075e+01
0	 8.823529e+00	 9.647059e+00	 1.000043e+01
0	 8.823529e+00	 9.764706e+00	 1.000020e+01
0	 8.823529e+00	 9.882353e+00	 1.000005e+01
0	 8.823529e+00	 1.000000e+01	 9.999987e+00
0	 8.941176e+00	 9.411765e+00	 1.000100e+01
0	 8.941176e+00	 9.529412e+00	 1.000065e+01
0	 8.941176e+00	 9.647059e+00	 1.000037e+01
0	 8.941176e+00	 9.764706e+00	 1.000017e+01
0	 8.941176e+00	 9.882353e+00	 1.000005e+01
0	 8.941176e+00	 1.000000e+01	 1.000000e+01
0	 9.058824e+00	 9.411765e+00	 1.000082e+01
0	 9.058824e+00	 9.529412e+00	 1.000052e+01
0	 9.058824e+00	 9.647059e+00	 1.000030e+01
0	 9.058824e+00	 9.764706e+00	 1.000014e+01
0	 9.058824e+00	 9.882353e+00	 1.000004e+01
0	 9.058824e+00	 1.000000e+01	 1.000001e+01
0	 9.176471e+00	 9.411765e+00	 1.000061e+01
0	 9.176471e+00	 9.529412e+00	 1.000039e+01
0	 9.176471e+00	 9.647059e+00	 1.000021e+01
0	 9.176471e+00	 9.764706e+00	 1.000009e+01
0	 9.176471e+00	 9.882353e+00	 1.000003e+01
0	 9.176471e+00	 1.000000e+01	 1.000002e+01
0	 9.294118e+00	 9.411765e+00	 1.000039e+01
0	 9.294118e+00	 9.529412e+00	 1.000023e+01
0	 9.294118e+00	 9.647059e+00	 1.000012e+01
0	 9.294118e+00	 9.764706e+00	 1.000004e+01
0	 9.294118e+00	 9.882353e+00	 1.000001e+01
0	 9.294118e+00	 1.000000e+01	 1.000003e+01
0	 9.411765e+00	 9.411765e+00	 1.000014e+01
0	 9.411765e+00	 9.529412e+00	 1.000006e+01
0	 9.411765e+00	 9.647059e+00	 1.000000e+01
0	 9.411765e+00	 9.764706e+00	 9.999977e+00
0	 9.411765e+00	 9.882353e+00	 9.999992e+00
0	 9.411765e+00	 1.000000e+01	 1.000006e+01
0	 9.411765e+00	 0.000000e+00	 9.783523e+00
0	 9.411765e+00	 1.176471e-01	 9.783845e+00
0	 9.411765e+00	 2.352941e-01	 9.784600e+00
0	 9.411765e+00	 3.529412e-01	 9.785785e+00
0	 9.411765e+00	 4.705882e-01	 9.787400e+00
0	 9.411765e+00	 5.882353e-01	 9.789444e+00
0	 9.529412e+00	 0.000000e+00	 9.763184e+00
0	 9.529412e+00	 1.176471e-01	 9.763527e+00
0	 9.529412e+00	 2.352941e-01	 9.764326e+00
0	 9.529412e+00	 3.529412e-01	 9.765587e+00
0	 9.529412e+00	 4.705882e-01	 9.767315e+00
0	 9.529412e+00	 5.882353e-01	 9.769516e+00
0	 9.647059e+00	 0.000000e+00	 9.741998e+00
0	 9.647059e+00	 1.176471e-01	 9.742307e+00
0	 9.647059e+00	 2.352941e-01	 9.743125e+00
0	 9.647059e+00	 3.529412e-01	 9.744460e+00
0	 9.647059e+00	 4.705882e-01	 9.746321e+00
0	 9.647059e+00	 5.882353e-01	 9.748718e+00
0	 9.764706e+00	 0.000000e+00	 9.719753e+00
0	 9.764706e+00	 1.176471e-01	 9.720023e+00
0	 9.764706e+00	 2.352941e-01	 9.720868e+00
0	 9.764706e+00	 3.529412e-01	 9.722296e+00
0	 9.764706e+00	 4.705882e-01	 9.724316e+00
0	 9.764706e+00	 5.882353e-01	 9.726934e+00
0	 9.882353e+00	 0.000000e+00	 9.696236e+00
0	 9.882353e+00	 1.176471e-01	 9.696512e+00
0	 9.882353e+00	 2.352941e-01	 9.697428e+00
0	 9.882353e+00	 3.529412e-01	 9.698988e+00
0	 9.882353e+00	 4.705882e-01	 9.701193e+00
0	 9.882353e+00	 5.882353e-01	 9.704047e+00
0	 1.000000e+01	 0.000000e+00	 9.671235e+00
0	 1.000000e+01	 1.176471e-01	 9.671612e+00
0	 1.000000e+01	 2.352941e-01	 9.672677e+00
0	 1.000000e+01	 3.529412e-01	 9.674425e+00
0	 1.000000e+01	 4.705882e-01	 9.676848e+00
0	 1.000000e+01	 5.882353e-01	 9.679940e+00
0	 9.411765e+00	 5.882353e-01	 9.789444e+00
0	 9.411765e+00	 7.058824e-01	 9.791903e+00
0	 9.411765e+00	 8.235294e-01	 9.794771e+00
0	 9.411765e+00	 9.411765e-01	 9.798053e+00
0	 9.411765e+00	 1.058824e+00	 9.801754e+00
0	 9.411765e+00	 1.176471e+00	 9.805879e+00
0	 9.529412e+00	 5.882353e-01	 9.769516e+00
0	 9.529412e+00	 7.058824e-01	 9.772173e+00
0	 9.529412e+00	 8.235294e-01	 9.775268e+00
0	 9.529412e+00	 9.411765e-01	 9.778803e+00
0	 9.529412e+00	 1.058824e+00	 9.782784e+00
0	 9.529412e+00	 1.176471e+00	 9.787213e+00
0	 9.647059e+00	 5.882353e-01	 9.748718e+00
0	 9.647059e+00	 7.058824e-01	 9.751616e+00
0	 9.647059e+00	 8.235294e-01	 9.754976e+00
0	 9.647059e+00	 9.411765e-01	 9.758802e+00
0	 9.647059e+00	 1.058824e+00	 9.763097e+00
0	 9.647059e+00	 1.176471e+00	 9.767864e+00
0	 9.764706e+00	 5.882353e-01	 9.726934e+00
0	 9.764706e+00	 7.058824e-01	 9.730099e+00
0	 9.764706e+00	 8.235294e-01	 9.733756e+00
0	 9.764706e+00	 9.411765e-01	 9.737908e+00
0	 9.764706e+00	 1.058824e+00	 9.742560e+00
0	 9.764706e+00	 1.176471e+00	 9.747715e+00
0	 9.882353e+00	 5.882353e-01	 9.704047e+00
0	 9.882353e+00	 7.058824e-01	 9.707491e+00
0	 9.882353e+00	 8.235294e-01	 9.711466e+00
0	 9.882353e+00	 9.411765e-01	 9.715981e+00
0	 9.882353e+00	 1.058824e+00	 9.721039e+00
0	 9.882353e+00	 1.176471e+00	 9.726647e+00
0	 1.000000e+01	 5.882353e-01	 9.679940e+00
0	 1.000000e+01	 7.058824e-01	 9.683658e+00
0	 1.000000e+01	 8.235294e-01	 9.687968e+00
0	 1.000000e+01	 9.411765e-01	 9.692879e+00
0	 1.000000e+01	 1.058824e+00	 9.698401e+00
0	 1.000000e+01	 1.176471e+00	 9.704541e+00
0	 9.411765e+00	 1.176471e+00	 9.805879e+00
0	 9.411765e+00	 1.294118e+00	 9.810352e+00
0	 9.411765e+00	 1.411765e+00	 9.815099e+00
0	 9.411765e+00	 1.529412e+00	 9.820127e+00
0	 9.411765e+00	 1.647059e+00	 9.825444e+00
0	 9.411765e+00	 1.764706e+00	 9.831058e+00
0	 9.529412e+00	 1.176471e+00	 9.787213e+00
0	 9.529412e+00	 1.294118e+00	 9.792013e+00
0	 9.529412e+00	 1.411765e+00	 9.797110e+00
0	 9.529412e+00	 1.529412e+00	 9.802514e+00
0	 9.529412e+00	 1.647059e+00	 9.808232e+00
0	 9.529412e+00	 1.764706e+00	 9.814272e+00
0	 9.647059e+00	 1.176471e+00	 9.767864e+00
0	 9.647059e+00	 1.294118e+00	 9.773029e+00
0	 9.647059e+00	 1.411765e+00	 9.778520e+00
0	 9.647059e+00	 1.529412e+00	 9.784345e+00
0	 9.647059e+00	 1.647059e+00	 9.790514e+00
0	 9.647059e+00	 1.764706e+00	 9.797036e+00
0	 9.764706e+00	 1.176471e+00	 9.747715e+00
0	 9.764706e+00	 1.294118e+00	 9.753300e+00
0	 9.764706e+00	 1.411765e+00	 9.759242e+00
0	 9.764706e+00	 1.529412e+00	 9.765549e+00
0	 9.764706e+00	 1.647059e+00	 9.772230e+00
0	 9.764706e+00	 1.764706e+00	 9.779294e+00
0	 9.882353e+00	 1.176471e+00	 9.726647e+00
0	 9.882353e+00	 1.294118e+00	 9.732725e+00
0	 9.882353e+00	 1.411765e+00	 9.739190e+00
0	 9.882353e+00	 1.529412e+00	 9.746052e+00
0	 9.882353e+00	 1.647059e+00	 9.753317e+00
0	 9.882353e+00	 1.764706e+00	 9.760993e+00
0	 1.000000e+01	 1.176471e+00	 9.704541e+00
0	 1.000000e+01	 1.294118e+00	 9.711202e+00
0	 1.000000e+01	 1.411765e+00	 9.718280e+00
0	 1.000000e+01	 1.529412e+00	 9.725781e+00
0	 1.000000e+01	 1.647059e+00	 9.733712e+00
0	 1.000000e+01	 1.764706e+00	 9.742079e+00
0	 9.411765e+00	 1.764706e+00	 9.831058e+00
0	 9.411765e+00	 1.882353e+00	 9.836889e+00
0	 9.411765e+00	 2.000000e+00	 9.842862e+00
0	 9.411765e+00	 2.117647e+00	 9.848984e+00
0	 9.411765e+00	 2.235294e+00	 9.855264e+00
0	 9.411765e+00	 2.352941e+00	 9.861709e+00
0	 9.529412e+00	 1.764706e+00	 9.814272e+00
0	 9.529412e+00	 1.882353e+00	 9.820552e+00
0	 9.529412e+00	 2.000000e+00	 9.826988e+00
0	 9.529412e+00	 2.117647e+00	 9.833587e+00
0	 9.529412e+00	 2.235294e+00	 9.840355e+00
0	 9.529412e+00	 2.352941e+00	 9.847301e+00
0	 9.647059e+00	 1.764706e+00	 9.797036e+00
0	 9.647059e+00	 1.882353e+00	 9.803818e+00
0	 9.647059e+00	 2.000000e+00	 9.810770e+00
0	 9.647059e+00	 2.117647e+00	 9.817899e+00
0	 9.647059e+00	 2.235294e+00	 9.825211e+00
0	 9.647059e+00	 2.352941e+00	 9.832714e+00
0	 9.764706e+00	 1.764706e+00	 9.779294e+00
0	 9.764706e+00	 1.882353e+00	 9.786640e+00
0	 9.764706e+00	 2.000000e+00	 9.794169e+00
0	 9.764706e+00	 2.117647e+00	 9.801889e+00
0	 9.764706e+00	 2.235294e+00	 9.809806e+00
0	 9.764706e+00	 2.352941e+00	 9.817929e+00
0	 9.882353e+00	 1.764706e+00	 9.760993e+00
0	 9.882353e+00	 1.882353e+00	 9.768971e+00
0	 9.882353e+00	 2.000000e+00	 9.777144e+00
0	 9.882353e+00	 2.117647e+00	 9.785522e+00
0	 9.882353e+00	 2.235294e+00	 9.794113e+00
0	 9.882353e+00	 2.352941e+00	 9.802927e+00
0	 1.000000e+01	 1.764706e+00	 9.742079e+00
0	 1.000000e+01	 1.882353e+00	 9.750764e+00
0	 1.000000e+01	 2.000000e+00	 9.759656e+00
0	 1.000000e+01	 2.117647e+00	 9.768765e+00
0	 1.000000e+01	 2.235294e+00	 9.778105e+00
0	 1.000000e+01	 2.352941e+00	 9.787687e+00
0	 9.411765e+00	 2.352941e+00	 9.861709e+00
0	 9.411765e+00	 2.470588e+00	 9.868240e+00
0	 9.411765e+00	 2.588235e+00	 9.874777e+00
0	 9.411765e+00	 2.705882e+00	 9.881326e+00
0	 9.411765e+00	 2.823529e+00	 9.887896e+00
0	 9.411765e+00	 2.941176e+00	 9.894494e+00
0	 9.529412e+00	 2.352941e+00	 9.847301e+00
0	 9.529412e+00	 2.470588e+00	 9.854339e+00
0	 9.529412e+00	 2.588235e+00	 9.861384e+00
0	 9.529412e+00	 2.705882e+00	 9.868446e+00
0	 9.529412e+00	 2.823529e+00	 9.875530e+00
0	 9.529412e+00	 2.941176e+00	 9.882646e+00
0	 9.647059e+00	 2.352941e+00	 9.832714e+00
0	 9.647059e+00	 2.470588e+00	 9.840316e+00
0	 9.647059e+00	 2.588235e+00	 9.847925e+00
0	 9.647059e+00	 2.705882e+00	 9.855550e+00
0	 9.647059e+00	 2.823529e+00	 9.863199e+00
0	 9.647059e+00	 2.941176e+00	 9.870880e+00
0	 9.764706e+00	 2.352941e+00	 9.817929e+00
0	 9.764706e+00	 2.470588e+00	 9.826159e+00
0	 9.764706e+00	 2.588235e+00	 9.834394e+00
0	 9.764706e+00	 2.705882e+00	 9.842644e+00
0	 9.764706e+00	 2.823529e+00	 9.850916e+00
0	 9.764706e+00	 2.941176e+00	 9.859219e+00
0	 9.882353e+00	 2.352941e+00	 9.802927e+00
0	 9.882353e+00	 2.470588e+00	 9.811855e+00
0	 9.882353e+00	 2.588235e+00	 9.820787e+00
0	 9.882353e+00	 2.705882e+00	 9.829730e+00
0	 9.882353e+00	 2.823529e+00	 9.838694e+00
0	 9.882353e+00	 2.941176e+00	 9.847685e+00
0	 1.000000e+01	 2.352941e+00	 9.787687e+00
0	 1.000000e+01	 2.470588e+00	 9.797392e+00
0	 1.000000e+01	 2.588235e+00	 9.807098e+00
0	 1.000000e+01	 2.705882e+00	 9.816813e+00
0	 1.000000e+01	 2.823529e+00	 9.826545e+00
0	 1.000000e+01	 2.941176e+00	 9.836302e+00
0	 9.411765e+00	 2.941176e+00	 9.894494e+00
0	 9.411765e+00	 3.058824e+00	 9.901047e+00
0	 9.411765e+00	 3.176471e+00	 9.907481e+00
0	 9.411765e+00	 3.294118e+00	 9.913801e+00
0	 9.411765e+00	 3.411765e+00	 9.920012e+00
0	 9.411765e+00	 3.529412e+00	 9.926121e+00
0	 9.529412e+00	 2.941176e+00	 9.882646e+00
0	 9.529412e+00	 3.058824e+00	 9.889714e+00
0	 9.529412e+00	 3.176471e+00	 9.896657e+00
0	 9.529412e+00	 3.294118e+00	 9.903480e+00
0	 9.529412e+00	 3.411765e+00	 9.910189e+00
0	 9.529412e+00	 3.529412e+00	 9.916790e+00
0	 9.647059e+00	 2.941176e+00	 9.870880e+00
0	 9.647059e+00	 3.058824e+00	 9.878509e+00
0	 9.647059e+00	 3.176471e+00	 9.886006e+00
0	 9.647059e+00	 3.294118e+00	 9.893376e+00
0	 9.647059e+00	 3.411765e+00	 9.900624e+00
0	 9.647059e+00	 3.529412e+00	 9.907758e+00
0	 9.764706e+00	 2.941176e+00	 9.859219e+00
0	 9.764706e+00	 3.058824e+00	 9.867465e+00
0	 9.764706e+00	 3.176471e+00	 9.875567e+00
0	 9.764706e+00	 3.294118e+00	 9.883532e+00
0	 9.764706e+00	 3.411765e+00	 9.891366e+00
0	 9.764706e+00	 3.529412e+00	 9.899076e+00
0	 9.882353e+00	 2.941176e+00	 9.847685e+00
0	 9.882353e+00	 3.058824e+00	 9.856612e+00
0	 9.882353e+00	 3.176471e+00	 9.865379e+00
0	 9.882353e+00	 3.294118e+00	 9.873994e+00
0	 9.882353e+00	 3.411765e+00	 9.882464e+00
0	 9.882353e+00	 3.529412e+00	 9.890796e+00
0	 1.000000e+01	 2.941176e+00	 9.836302e+00
0	 1.000000e+01	 3.058824e+00	 9.845983e+00
0	 1.000000e+01	 3.176471e+00	 9.855482e+00
0	 1.000000e+01	 3.294118e+00	 9.864809e+00
0	 1.000000e+01	 3.411765e+00	 9.873969e+00
0	 1.000000e+01	 3.529412e+00	 9.882970e+00
0	 9.411765e+00	 3.529412e+00	 9.926121e+00
0	 9.411765e+00	 3.647059e+00	 9.932078e+00
0	 9.411765e+00	 3.764706e+00	 9.937836e+00
0	 9.411765e+00	 3.882353e+00	 9.943399e+00
0	 9.411765e+00	 4.000000e+00	 9.948770e+00
0	 9.411765e+00	 4.117647e+00	 9.953953e+00
0	 9.529412e+00	 3.529412e+00	 9.916790e+00
0	 9.529412e+00	 3.647059e+00	 9.923231e+00
0	 9.529412e+00	 3.764706e+00	 9.929460e+00
0	 9.529412e+00	 3.882353e+00	 9.935479e+00
0	 9.529412e+00	 4.000000e+00	 9.941293e+00
0	 9.529412e+00	 4.117647e+00	 9.946904e+00
0	 9.647059e+00	 3.529412e+00	 9.907758e+00
0	 9.647059e+00	 3.647059e+00	 9.914720e+00
0	 9.647059e+00	 3.764706e+00	 9.921451e+00
0	 9.647059e+00	 3.882353e+00	 9.927955e+00
0	 9.647059e+00	 4.000000e+00	 9.934234e+00
0	 9.647059e+00	 4.117647e+00	 9.940292e+00
0	 9.764706e+00	 3.529412e+00	 9.899076e+00
0	 9.764706e+00	 3.647059e+00	 9.906598e+00
0	 9.764706e+00	 3.764706e+00	 9.913866e+00
0	 9.764706e+00	 3.882353e+00	 9.920886e+00
0	 9.764706e+00	 4.000000e+00	 9.927658e+00
0	 9.764706e+00	 4.117647e+00	 9.934189e+00
0	 9.882353e+00	 3.529412e+00	 9.890796e+00
0	 9.882353e+00	 3.647059e+00	 9.898919e+00
0	 9.882353e+00	 3.764706e+00	 9.906764e+00
0	 9.882353e+00	 3.882353e+00	 9.914334e+00
0	 9.882353e+00	 4.000000e+00	 9.921633e+00
0	 9.882353e+00	 4.117647e+00	 9.928665e+00
0	 1.000000e+01	 3.529412e+00	 9.882970e+00
0	 1.000000e+01	 3.647059e+00	 9.891738e+00
0	 1.000000e+01	 3.764706e+00	 9.900200e+00
0	 1.000000e+01	 3.882353e+00	 9.908360e+00
0	 1.000000e+01	 4.000000e+00	 9.916222e+00
0	 1.000000e+01	 4.117647e+00	 9.923793e+00
0	 9.411765e+00	 4.117647e+00	 9.953953e+00
0	 9.411765e+00	 4.235294e+00	 9.958916e+00
0	 9.411765e+00	 4.352941e+00	 9.963628e+00
0	 9.411765e+00	 4.470588e+00	 9.968089e+00
0	 9.411765e+00	 4.588235e+00	 9.972300e+00
0	 9.411765e+00	 4.705882e+00	 9.976262e+00
0	 9.529412e+00	 4.117647e+00	 9.946904e+00
0	 9.529412e+00	 4.235294e+00	 9.952279e+00
0	 9.529412e+00	 4.352941e+00	 9.957385e+00
0	 9.529412e+00	 4.470588e+00	 9.962223e+00
0	 9.529412e+00	 4.588235e+00	 9.966794e+00
0	 9.529412e+00	 4.705882e+00	 9.971101e+00
0	 9.647059e+00	 4.117647e+00	 9.940292e+00
0	 9.647059e+00	 4.235294e+00	 9.946096e+00
0	 9.647059e+00	 4.352941e+00	 9.951611e+00
0	 9.647059e+00	 4.470588e+00	 9.956839e+00
0	 9.647059e+00	 4.588235e+00	 9.961783e+00
0	 9.647059e+00	 4.705882e+00	 9.966443e+00
0	 9.764706e+00	 4.117647e+00	 9.934189e+00
0	 9.764706e+00	 4.235294e+00	 9.940443e+00
0	 9.764706e+00	 4.352941e+00	 9.946385e+00
0	 9.764706e+00	 4.470588e+00	 9.952019e+00
0	 9.764706e+00	 4.588235e+00	 9.957346e+00
0	 9.764706e+00	 4.705882e+00	 9.962367e+00
0	 9.882353e+00	 4.117647e+00	 9.928665e+00
0	 9.882353e+00	 4.235294e+00	 9.935396e+00
0	 9.882353e+00	 4.352941e+00	 9.941788e+00
0	 9.882353e+00	 4.470588e+00	 9.947843e+00
0	 9.882353e+00	 4.588235e+00	 9.953563e+00
0	 9.882353e+00	 4.705882e+00	 9.958950e+00
0	 1.000000e+01	 4.117647e+00	 9.923793e+00
0	 1.000000e+01	 4.235294e+00	 9.931033e+00
0	 1.000000e+01	 4.352941e+00	 9.937899e+00
0	 1.000000e+01	 4.470588e+00	 9.944393e+00
0	 1.000000e+01	 4.588235e+00	 9.950516e+00
0	 1.000000e+01	 4.705882e+00	 9.956269e+00
0	 9.411765e+00	 4.705882e+00	 9.976262e+00
0	 9.411765e+00	 4.823529e+00	 9.979973e+00
0	 9.411765e+00	 4.941176e+00	 9.983430e+00
0	 9.411765e+00	 5.058824e+00	 9.986633e+00
0	 9.411765e+00	 5.176471e+00	 9.989581e+00
0	 9.411765e+00	 5.294118e+00	 9.992273e+00
0	 9.529412e+00	 4.705882e+00	 9.971101e+00
0	 9.529412e+00	 4.823529e+00	 9.975140e+00
0	 9.529412e+00	 4.941176e+00	 9.978906e+00
0	 9.529412e+00	 5.058824e+00	 9.982399e+00
0	 9.529412e+00	 5.176471e+00	 9.985618e+00
0	 9.529412e+00	 5.294118e+00	 9.988561e+00
0	 9.647059e+00	 4.705882e+00	 9.966443e+00
0	 9.647059e+00	 4.823529e+00	 9.970816e+00
0	 9.647059e+00	 4.941176e+00	 9.974893e+00
0	 9.647059e+00	 5.058824e+00	 9.978674e+00
0	 9.647059e+00	 5.176471e+00	 9.982157e+00
0	 9.647059e+00	 5.294118e+00	 9.985342e+00
0	 9.764706e+00	 4.705882e+00	 9.962367e+00
0	 9.764706e+00	 4.823529e+00	 9.967076e+00
0	 9.764706e+00	 4.941176e+00	 9.971464e+00
0	 9.764706e+00	 5.058824e+00	 9.975529e+00
0	 9.764706e+00	 5.176471e+00	 9.979270e+00
0	 9.764706e+00	 5.294118e+00	 9.982686e+00
0	 9.882353e+00	 4.705882e+00	 9.958950e+00
0	 9.882353e+00	 4.823529e+00	 9.963995e+00
0	 9.882353e+00	 4.941176e+00	 9.968690e+00
0	 9.882353e+00	 5.058824e+00	 9.973034e+00
0	 9.882353e+00	 5.176471e+00	 9.977026e+00
0	 9.882353e+00	 5.294118e+00	 9.980666e+00
0	 1.000000e+01	 4.705882e+00	 9.956269e+00
0	 1.000000e+01	 4.823529e+00	 9.961647e+00
0	 1.000000e+01	 4.941176e+00	 9.966645e+00
0	 1.000000e+01	 5.058824e+00	 9.971261e+00
0	 1.000000e+01	 5.176471e+00	 9.975497e+00
0	 1.000000e+01	 5.294118e+00	 9.979351e+00
0	 9.411765e+00	 5.294118e+00	 9.992273e+00
0	 9.411765e+00	 5.411765e+00	 9.994721e+00
0	 9.411765e+00	 5.529412e+00	 9.996935e+00
0	 9.411765e+00	 5.647059e+00	 9.998912e+00
0	 9.411765e+00	 5.764706e+00	 1.000065e+01
0	 9.411765e+00	 5.882353e+00	 1.000215e+01
0	 9.529412e+00	 5.294118e+00	 9.988561e+00
0	 9.529412e+00	 5.411765e+00	 9.991242e+00
0	 9.529412e+00	 5.529412e+00	 9.993671e+00
0	 9.529412e+00	 5.647059e+00	 9.995846e+00
0	 9.529412e+00	 5.764706e+00	 9.997767e+00
0	 9.529412e+00	 5.882353e+00	 9.999431e+00
0	 9.647059e+00	 5.294118e+00	 9.985342e+00
0	 9.647059e+00	 5.411765e+00	 9.988243e+00
0	 9.647059e+00	 5.529412e+00	 9.990875e+00
0	 9.647059e+00	 5.647059e+00	 9.993237e+00
0	 9.647059e+00	 5.764706e+00	 9.995326e+00
0	 9.647059e+00	 5.882353e+00	 9.997142e+00
0	 9.764706e+00	 5.294118e+00	 9.982686e+00
0	 9.764706e+00	 5.411765e+00	 9.985796e+00
0	 9.764706e+00	 5.529412e+00	 9.988619e+00
0	 9.764706e+00	 5.647059e+00	 9.991151e+00
0	 9.764706e+00	 5.764706e+00	 9.993391e+00
0	 9.764706e+00	 5.882353e+00	 9.995337e+00
0	 9.882353e+00	 5.294118e+00	 9.980666e+00
0	 9.882353e+00	 5.411765e+00	 9.983974e+00
0	 9.882353e+00	 5.529412e+00	 9.986972e+00
0	 9.882353e+00	 5.647059e+00	 9.989656e+00
0	 9.882353e+00	 5.764706e+00	 9.992024e+00
0	 9.882353e+00	 5.882353e+00	 9.994074e+00
0	 1.000000e+01	 5.294118e+00	 9.979351e+00
0	 1.000000e+01	 5.411765e+00	 9.982848e+00
0	 1.000000e+01	 5.529412e+00	 9.986005e+00
0	 1.000000e+01	 5.647059e+00	 9.988821e+00
0	 1.000000e+01	 5.764706e+00	 9.991290e+00
0	 1.000000e+01	 5.882353e+00	 9.993411e+00
0	 9.411765e+00	 5.882353e+00	 1.000215e+01
0	 9.411765e+00	 6.000000e+00	 1.000343e+01
0	 9.411765e+00	 6.117647e+00	 1.000453e+01
0	 9.411765e+00	 6.235294e+00	 1.000545e+01
0	 9.411765e+00	 6.352941e+00	 1.000619e+01
0	 9.411765e+00	 6.470588e+00	 1.000673e+01
0	 9.529412e+00	 5.882353e+00	 9.999431e+00
0	 9.529412e+00	 6.000000e+00	 1.000087e+01
0	 9.529412e+00	 6.117647e+00	 1.000211e+01
0	 9.529412e+00	 6.235294e+00	 1.000316e+01
0	 9.529412e+00	 6.352941e+00	 1.000401e+01
0	 9.529412e+00	 6.470588e+00	 1.000465e+01
0	 9.647059e+00	 5.882353e+00	 9.997142e+00
0	 9.647059e+00	 6.000000e+00	 9.998716e+00
0	 9.647059e+00	 6.117647e+00	 1.000008e+01
0	 9.647059e+00	 6.235294e+00	 1.000123e+01
0	 9.647059e+00	 6.352941e+00	 1.000217e+01
0	 9.647059e+00	 6.470588e+00	 1.000289e+01
0	 9.764706e+00	 5.882353e+00	 9.995337e+00
0	 9.764706e+00	 6.000000e+00	 9.997024e+00
0	 9.764706e+00	 6.117647e+00	 9.998485e+00
0	 9.764706e+00	 6.235294e+00	 9.999716e+00
0	 9.764706e+00	 6.352941e+00	 1.000071e+01
0	 9.764706e+00	 6.470588e+00	 1.000148e+01
0	 9.882353e+00	 5.882353e+00	 9.994074e+00
0	 9.882353e+00	 6.000000e+00	 9.995843e+00
0	 9.882353e+00	 6.117647e+00	 9.997370e+00
0	 9.882353e+00	 6.235294e+00	 9.998649e+00
0	 9.882353e+00	 6.352941e+00	 9.999679e+00
0	 9.882353e+00	 6.470588e+00	 1.000045e+01
0	 1.000000e+01	 5.882353e+00	 9.993411e+00
0	 1.000000e+01	 6.000000e+00	 9.995227e+00
0	 1.000000e+01	 6.117647e+00	 9.996783e+00
0	 1.000000e+01	 6.235294e+00	 9.998076e+00
0	 1.000000e+01	 6.352941e+00	 9.999101e+00
0	 1.000000e+01	 6.470588e+00	 9.999856e+00
0	 9.411765e+00	 6.470588e+00	 1.000673e+01
0	 9.411765e+00	 6.588235e+00	 1.000711e+01
0	 9.411765e+00	 6.705882e+00	 1.000738e+01
0	 9.411765e+00	 6.823529e+00	 1.000751e+01
0	 9.411765e+00	 6.941176e+00	 1.000752e+01
0	 9.411765e+00	 7.058824e+00	 1.000740e+01
0	 9.529412e+00	 6.470588e+00	 1.000465e+01
0	 9.529412e+00	 6.588235e+00	 1.000512e+01
0	 9.529412e+00	 6.705882e+00	 1.000547e+01
0	 9.529412e+00	 6.823529e+00	 1.000568e+01
0	 9.529412e+00	 6.941176e+00	 1.000575e+01
0	 9.529412e+00	 7.058824e+00	 1.000569e+01
0	 9.647059e+00	 6.470588e+00	 1.000289e+01
0	 9.647059e+00	 6.588235e+00	 1.000342e+01
0	 9.647059e+00	 6.705882e+00	 1.000382e+01
0	 9.647059e+00	 6.823529e+00	 1.000409e+01
0	 9.647059e+00	 6.941176e+00	 1.000420e+01
0	 9.647059e+00	 7.058824e+00	 1.000418e+01
0	 9.764706e+00	 6.470588e+00	 1.000148e+01
0	 9.764706e+00	 6.588235e+00	 1.000205e+01
0	 9.764706e+00	 6.705882e+00	 1.000248e+01
0	 9.764706e+00	 6.823529e+00	 1.000276e+01
0	 9.764706e+00	 6.941176e+00	 1.000289e+01
0	 9.764706e+00	 7.058824e+00	 1.000287e+01
0	 9.882353e+00	 6.470588e+00	 1.000045e+01
0	 9.882353e+00	 6.588235e+00	 1.000103e+01
0	 9.882353e+00	 6.705882e+00	 1.000145e+01
0	 9.882353e+00	 6.823529e+00	 1.000172e+01
0	 9.882353e+00	 6.941176e+00	 1.000183e+01
0	 9.882353e+00	 7.058824e+00	 1.000177e+01
0	 1.000000e+01	 6.470588e+00	 9.999856e+00
0	 1.000000e+01	 6.588235e+00	 1.000040e+01
0	 1.000000e+01	 6.705882e+00	 1.000078e+01
0	 1.000000e+01	 6.823529e+00	 1.000099e+01
0	 1.000000e+01	 6.941176e+00	 1.000104e+01
0	 1.000000e+01	 7.058824e+00	 1.000090e+01
0	 9.411765e+00	 7.058824e+00	 1.000740e+01
0	 9.411765e+00	 7.176471e+00	 1.000717e+01
0	 9.411765e+00	 7.294118e+00	 1.000690e+01
0	 9.411765e+00	 7.411765e+00	 1.000657e+01
0	 9.411765e+00	 7.529412e+00	 1.000617e+01
0	 9.411765e+00	 7.647059e+00	 1.000572e+01
0	 9.529412e+00	 7.058824e+00	 1.000569e+01
0	 9.529412e+00	 7.176471e+00	 1.000553e+01
0	 9.529412e+00	 7.294118e+00	 1.000531e+01
0	 9.529412e+00	 7.411765e+00	 1.000503e+01
0	 9.529412e+00	 7.529412e+00	 1.000469e+01
0	 9.529412e+00	 7.647059e+00	 1.000428e+01
0	 9.647059e+00	 7.058824e+00	 1.000418e+01
0	 9.647059e+00	 7.176471e+00	 1.000405e+01
0	 9.647059e+00	 7.294118e+00	 1.000386e+01
0	 9.647059e+00	 7.411765e+00	 1.000361e+01
0	 9.647059e+00	 7.529412e+00	 1.000330e+01
0	 9.647059e+00	 7.647059e+00	 1.000292e+01
0	 9.764706e+00	 7.058824e+00	 1.000287e+01
0	 9.764706e+00	 7.176471e+00	 1.000274e+01
0	 9.764706e+00	 7.294118e+00	 1.000255e+01
0	 9.764706e+00	 7.411765e+00	 1.000230e+01
0	 9.764706e+00	 7.529412e+00	 1.000199e+01
0	 9.764706e+00	 7.647059e+00	 1.000160e+01
0	 9.882353e+00	 7.058824e+00	 1.000177e+01
0	 9.882353e+00	 7.176471e+00	 1.000160e+01
0	 9.882353e+00	 7.294118e+00	 1.000138e+01
0	 9.882353e+00	 7.411765e+00	 1.000110e+01
0	 9.882353e+00	 7.529412e+00	 1.000075e+01
0	 9.882353e+00	 7.647059e+00	 1.000034e+01
0	 1.000000e+01	 7.058824e+00	 1.000090e+01
0	 1.000000e+01	 7.176471e+00	 1.000066e+01
0	 1.000000e+01	 7.294118e+00	 1.000035e+01
0	 1.000000e+01	 7.411765e+00	 9.999997e+00
0	 1.000000e+01	 7.529412e+00	 9.999579e+00
0	 1.000000e+01	 7.647059e+00	 9.999095e+00
0	 9.411765e+00	 7.647059e+00	 1.000572e+01
0	 9.411765e+00	 7.764706e+00	 1.000522e+01
0	 9.411765e+00	 7.882353e+00	 1.000473e+01
0	 9.411765e+00	 8.000000e+00	 1.000424e+01
0	 9.411765e+00	 8.117647e+00	 1.000375e+01
0	 9.411765e+00	 8.235294e+00	 1.000324e+01
0	 9.529412e+00	 7.647059e+00	 1.000428e+01
0	 9.529412e+00	 7.764706e+00	 1.000384e+01
0	 9.529412e+00	 7.882353e+00	 1.000341e+01
0	 9.529412e+00	 8.000000e+00	 1.000297e+01
0	 9.529412e+00	 8.117647e+00	 1.000254e+01
0	 9.529412e+00	 8.235294e+00	 1.000210e+01
0	 9.647059e+00	 7.647059e+00	 1.000292e+01
0	 9.647059e+00	 7.764706e+00	 1.000250e+01
0	 9.647059e+00	 7.882353e+00	 1.000210e+01
0	 9.647059e+00	 8.000000e+00	 1.000171e+01
0	 9.647059e+00	 8.117647e+00	 1.000133e+01
0	 9.647059e+00	 8.235294e+00	 1.000094e+01
0	 9.764706e+00	 7.647059e+00	 1.000160e+01
0	 9.764706e+00	 7.764706e+00	 1.000120e+01
0	 9.764706e+00	 7.882353e+00	 1.000081e+01
0	 9.764706e+00	 8.000000e+00	 1.000043e+01
0	 9.764706e+00	 8.117647e+00	 1.000007e+01
0	 9.764706e+00	 8.235294e+00	 9.999723e+00
0	 9.882353e+00	 7.647059e+00	 1.000034e+01
0	 9.882353e+00	 7.764706e+00	 9.999900e+00
0	 9.882353e+00	 7.882353e+00	 9.999493e+00
0	 9.882353e+00	 8.000000e+00	 9.999112e+00
0	 9.882353e+00	 8.117647e+00	 9.998754e+00
0	 9.882353e+00	 8.235294e+00	 9.998414e+00
0	 1.000000e+01	 7.647059e+00	 9.999095e+00
0	 1.000000e+01	 7.764706e+00	 9.998599e+00
0	 1.000000e+01	 7.882353e+00	 9.998144e+00
0	 1.000000e+01	 8.000000e+00	 9.997725e+00
0	 1.000000e+01	 8.117647e+00	 9.997339e+00
0	 1.000000e+01	 8.235294e+00	 9.996980e+00
0	 9.411765e+00	 8.235294e+00	 1.000324e+01
0	 9.411765e+00	 8.352941e+00	 1.000275e+01
0	 9.411765e+00	 8.470588e+00	 1.000230e+01
0	 9.411765e+00	 8.588235e+00	 1.000189e+01
0	 9.411765e+00	 8.705882e+00	 1.000151e+01
0	 9.411765e+00	 8.823529e+00	 1.000116e+01
0	 9.529412e+00	 8.235294e+00	 1.000210e+01
0	 9.529412e+00	 8.352941e+00	 1.000169e+01
0	 9.529412e+00	 8.470588e+00	 1.000131e+01
0	 9.529412e+00	 8.588235e+00	 1.000098e+01
0	 9.529412e+00	 8.705882e+00	 1.000068e+01
0	 9.529412e+00	 8.823529e+00	 1.000043e+01
0	 9.647059e+00	 8.235294e+00	 1.000094e+01
0	 9.647059e+00	 8.352941e+00	 1.000058e+01
0	 9.647059e+00	 8.470588e+00	 1.000028e+01
0	 9.647059e+00	 8.588235e+00	 1.000002e+01
0	 9.647059e+00	 8.705882e+00	 9.999804e+00
0	 9.647059e+00	 8.823529e+00	 9.999637e+00
0	 9.764706e+00	 8.235294e+00	 9.999723e+00
0	 9.764706e+00	 8.352941e+00	 9.999409e+00
0	 9.764706e+00	 8.470588e+00	 9.999156e+00
0	 9.764706e+00	 8.588235e+00	 9.998963e+00
0	 9.764706e+00	 8.705882e+00	 9.998830e+00
0	 9.764706e+00	 8.823529e+00	 9.998755e+00
0	 9.882353e+00	 8.235294e+00	 9.998414e+00
0	 9.882353e+00	 8.352941e+00	 9.998122e+00
0	 9.882353e+00	 8.470588e+00	 9.997910e+00
0	 9.882353e+00	 8.588235e+00	 9.997777e+00
0	 9.882353e+00	 8.705882e+00	 9.997721e+00
0	 9.882353e+00	 8.823529e+00	 9.997742e+00
0	 1.000000e+01	 8.235294e+00	 9.996980e+00
0	 1.000000e+01	 8.352941e+00	 9.996686e+00
0	 1.000000e+01	 8.470588e+00	 9.996499e+00
0	 1.000000e+01	 8.588235e+00	 9.996416e+00
0	 1.000000e+01	 8.705882e+00	 9.996438e+00
0	 1.000000e+01	 8.823529e+00	 9.996563e+00
0	 9.411765e+00	 8.823529e+00	 1.000116e+01
0	 9.411765e+00	 8.941176e+00	 1.000085e+01
0	 9.411765e+00	 9.058824e+00	 1.000060e+01
0	 9.411765e+00	 9.176471e+00	 1.000040e+01
0	 9.411765e+00	 9.294118e+00	 1.000024e+01
0	 9.411765e+00	 9.411765e+00	 1.000014e+01
0	 9.529412e+00	 8.823529e+00	 1.000043e+01
0	 9.529412e+00	 8.941176e+00	 1.000021e+01
0	 9.529412e+00	 9.058824e+00	 1.000005e+01
0	 9.529412e+00	 9.176471e+00	 9.999940e+00
0	 9.529412e+00	 9.294118e+00	 9.999876e+00
0	 9.529412e+00	 9.411765e+00	 9.999857e+00
0	 9.647059e+00	 8.823529e+00	 9.999637e+00
0	 9.647059e+00	 8.941176e+00	 9.999518e+00
0	 9.647059e+00	 9.058824e+00	 9.999450e+00
0	 9.647059e+00	 9.176471e+00	 9.999433e+00
0	 9.647059e+00	 9.294118e+00	 9.999464e+00
0	 9.647059e+00	 9.411765e+00	 9.999542e+00
0	 9.764706e+00	 8.823529e+00	 9.998755e+00
0	 9.764706e+00	 8.941176e+00	 9.998735e+00
0	 9.764706e+00	 9.058824e+00	 9.998770e+00
0	 9.764706e+00	 9.176471e+00	 9.998860e+00
0	 9.764706e+00	 9.294118e+00	 9.999004e+00
0	 9.764706e+00	 9.411765e+00	 9.999203e+00
0	 9.882353e+00	 8.823529e+00	 9.997742e+00
0	 9.882353e+00	 8.941176e+00	 9.997833e+00
0	 9.882353e+00	 9.058824e+00	 9.997987e+00
0	 9.882353e+00	 9.176471e+00	 9.998207e+00
0	 9.882353e+00	 9.294118e+00	 9.998493e+00
0	 9.882353e+00	 9.411765e+00	 9.998847e+00
0	 1.000000e+01	 8.823529e+00	 9.996563e+00
0	 1.000000e+01	 8.941176e+00	 9.996779e+00
0	 1.000000e+01	 9.058824e+00	 9.997077e+00
0	 1.000000e+01	 9.176471e+00	 9.997458e+00
0	 1.000000e+01	 9.294118e+00	 9.997926e+00
0	 1.000000e+01	 9.411765e+00	 9.998484e+00
0	 9.411765e+00	 9.411765e+00	 1.000014e+01
0	 9.411765e+00	 9.529412e+00	 1.000006e+01
0	 9.411765e+00	 9.647059e+00	 1.000000e+01
0	 9.411765e+00	 9.764706e+00	 9.999977e+00
0	 9.411765e+00	 9.882353e+00	 9.999992e+00
0	 9.411765e+00	 1.000000e+01	 1.000006e+01
0	 9.529412e+00	 9.411765e+00	 9.999857e+00
0	 9.529412e+00	 9.529412e+00	 9.999859e+00
0	 9.529412e+00	 9.647059e+00	 9.999867e+00
0	 9.529412e+00	 9.764706e+00	 9.999896e+00
0	 9.529412e+00	 9.882353e+00	 9.999959e+00
0	 9.529412e+00	 1.000000e+01	 1.000007e+01
0	 9.647059e+00	 9.411765e+00	 9.999542e+00
0	 9.647059e+00	 9.529412e+00	 9.999633e+00
0	 9.647059e+00	 9.647059e+00	 9.999713e+00
0	 9.647059e+00	 9.764706e+00	 9.999799e+00
0	 9.647059e+00	 9.882353e+00	 9.999908e+00
0	 9.647059e+00	 1.000000e+01	 1.000005e+01
0	 9.764706e+00	 9.411765e+00	 9.999203e+00
0	 9.764706e+00	 9.529412e+00	 9.999405e+00
0	 9.764706e+00	 9.647059e+00	 9.999573e+00
0	 9.764706e+00	 9.764706e+00	 9.999724e+00
0	 9.764706e+00	 9.882353e+00	 9.999876e+00
0	 9.764706e+00	 1.000000e+01	 1.000005e+01
0	 9.882353e+00	 9.411765e+00	 9.998847e+00
0	 9.882353e+00	 9.529412e+00	 9.999195e+00
0	 9.882353e+00	 9.647059e+00	 9.999475e+00
0	 9.882353e+00	 9.764706e+00	 9.999705e+00
0	 9.882353e+00	 9.882353e+00	 9.999903e+00
0	 9.882353e+00	 1.000000e+01	 1.000009e+01
0	 1.000000e+01	 9.411765e+00	 9.998484e+00
0	 1.000000e+01	 9.529412e+00	 9.999024e+00
0	 1.000000e+01	 9.647059e+00	 9.999451e+00
0	 1.000000e+01	 9.764706e+00	 9.999779e+00
0	 1.000000e+01	 9.882353e+00	 1.000003e+01
0	 1.000000e+01	 1.000000e+01	 1.000021e+01
1	 1.000000e+00	 0.000000e+00	 2.952056e+01
1	 9.998606e-01	 1.669417e-02	 2.992280e+01
1	 9.994388e-01	 3.349713e-02	 3.025134e+01
1	 9.987290e-01	 5.040273e-02	 3.050478e+01
1	 9.977257e-01	 6.740460e-02	 3.068175e+01
1	 9.964238e-01	 8.449607e-02	 3.078095e+01
1	 1.011765e+00	 0.000000e+00	 2.887419e+01
1	 1.011624e+00	 1.689057e-02	 2.928410e+01
1	 1.011197e+00	 3.389121e-02	 2.962112e+01
1	 1.010479e+00	 5.099571e-02	 2.988376e+01
1	 1.009464e+00	 6.819760e-02	 3.007060e+01
1	 1.008146e+00	 8.549014e-02	 3.018027e+01
1	 1.023529e+00	 0.000000e+00	 2.827938e+01
1	 1.023387e+00	 1.708698e-02	 2.869654e+01
1	 1.022955e+00	 3.428529e-02	 2.904145e+01
1	 1.022228e+00	 5.158868e-02	 2.931256e+01
1	 1.021202e+00	 6.899059e-02	 2.950839e+01
1	 1.019869e+00	 8.648421e-02	 2.962752e+01
1	 1.035294e+00	 0.000000e+00	 2.773132e+01
1	 1.035150e+00	 1.728338e-02	 2.815533e+01
1	 1.034713e+00	 3.467938e-02	 2.850757e+01
1	 1.033978e+00	 5.218165e-02	 2.878646e+01
1	 1.032940e+00	 6.978359e-02	 2.899045e+01
1	 1.031592e+00	 8.747828e-02	 2.911809e+01
1	 1.047059e+00	 0.000000e+00	 2.722546e+01
1	 1.046913e+00	 1.747978e-02	 2.765592e+01
1	 1.046471e+00	 3.507346e-02	 2.801495e+01
1	 1.045728e+00	 5.277463e-02	 2.830093e+01
1	 1.044678e+00	 7.057658e-02	 2.851230e+01
1	 1.043314e+00	 8.847235e-02	 2.864755e+01
1	 1.058824e+00	 0.000000e+00	 2.675743e+01
1	 1.058676e+00	 1.767618e-02	 2.719393e+01
1	 1.058229e+00	 3.546754e-02	 2.755922e+01
1	 1.057478e+00	 5.336760e-02	 2.785167e+01
1	 1.056415e+00	 7.136958e-02	 2.806967e+01
1	 1.055037e+00	 8.946642e-02	 2.821166e+01
1	 9.964238e-01	 8.449607e-02	 3.078095e+01
1	 9.948182e-01	 1.016702e-01	 3.080127e+01
1	 9.929039e-01	 1.189198e-01	 3.074172e+01
1	 9.906762e-01	 1.362375e-01	 3.060139e+01
1	 9.881307e-01	 1.536156e-01	 3.037952e+01
1	 9.852630e-01	 1.710460e-01	 3.007551e+01
1	 1.008146e+00	 8.549014e-02	 3.018027e+01
1	 1.006522e+00	 1.028663e-01	 3.021182e+01
1	 1.004585e+00	 1.203189e-01	 3.016447e+01
1	 1.002331e+00	 1.378403e-01	 3.003729e+01
1	 9.997558e-01	 1.554228e-01	 2.982948e+01
1	 9.968544e-01	 1.730583e-01	 2.954040e+01
1	 1.019869e+00	 8.648421e-02	 2.962752e+01
1	 1.018226e+00	 1.040624e-01	 2.966912e+01
1	 1.016266e+00	 1.217180e-01	 2.963255e+01
1	 1.013986e+00	 1.394431e-01	 2.951686e+01
1	 1.011381e+00	 1.572300e-01	 2.932120e+01
1	 1.008446e+00	 1.750706e-01	 2.904488e+01
1	 1.031592e+00	 8.747828e-02	 2.911809e+01
1	 1.029929e+00	 1.052586e-01	 2.916862e+01
1	 1.027948e+00	 1.231170e-01	 2.914151e+01
1	 1.025641e+00	 1.410459e-01	 2.903576e+01
1	 1.023006e+00	 1.590373e-01	 2.885049e+01
1	 1.020037e+00	 1.770829e-01	 2.858493e+01
1	 1.043314e+00	 8.847235e-02	 2.864755e+01
1	 1.041633e+00	 1.064547e-01	 2.870597e+01
1	 1.039629e+00	 1.245161e-01	 2.868709e+01
1	 1.037296e+00	 1.426487e-01	 2.858987e+01
1	 1.034631e+00	 1.608445e-01	 2.841336e+01
1	 1.031628e+00	 1.790952e-01	 2.815674e+01
1	 1.055037e+00	 8.946642e-02	 2.821166e+01
1	 1.053337e+00	 1.076508e-01	 2.827700e+01
1	 1.051310e+00	 1.259151e-01	 2.826522e+01
1	 1.048951e+00	 1.442515e-01	 2.817521e+01
1	 1.046256e+00	 1.626518e-01	 2.800598e+01
1	 1.043220e+00	 1.811076e-01	 2.775665e+01
1	 9.852630e-01	 1.710460e-01	 3.007551e+01
1	 9.820692e-01	 1.885207e-01	 2.969136e+01
1	 9.785454e-01	 2.060313e-01	 2.922925e+01
1	 9.746881e-01	 2.235690e-01	 2.868912e+01
1	 9.704941e-01	 2.411251e-01	 2.807106e+01
1	 9.659603e-01	 2.586904e-01	 2.737535e+01
1	 9.968544e-01	 1.730583e-01	 2.954040e+01
1	 9.936230e-01	 1.907386e-01	 2.917189e+01
1	 9.900577e-01	 2.084551e-01	 2.872600e+01
1	 9.861550e-01	 2.261992e-01	 2.820263e+01
1	 9.819116e-01	 2.439618e-01	 2.760182e+01
1	 9.773245e-01	 2.617339e-01	 2.692384e+01
1	 1.008446e+00	 1.750706e-01	 2.904488e+01
1	 1.005177e+00	 1.929565e-01	 2.868964e+01
1	 1.001570e+00	 2.108790e-01	 2.825748e+01
1	 9.976219e-01	 2.288294e-01	 2.774825e+01
1	 9.933292e-01	 2.467986e-01	 2.716202e+01
1	 9.886888e-01	 2.647773e-01	 2.649899e+01
1	 1.020037e+00	 1.770829e-01	 2.858493e+01
1	 1.016730e+00	 1.951744e-01	 2.824078e+01
1	 1.013082e+00	 2.133029e-01	 2.782000e+01
1	 1.009089e+00	 2.314597e-01	 2.732247e+01
1	 1.004747e+00	 2.496354e-01	 2.674823e+01
1	 1.000053e+00	 2.678207e-01	 2.609748e+01
1	 1.031628e+00	 1.790952e-01	 2.815674e+01
1	 1.028284e+00	 1.973923e-01	 2.782166e+01
1	 1.024595e+00	 2.157268e-01	 2.741009e+01
1	 1.020556e+00	 2.340899e-01	 2.692191e+01
1	 1.016164e+00	 2.524721e-01	 2.635719e+01
1	 1.011417e+00	 2.708641e-01	 2.571613e+01
1	 1.043220e+00	 1.811076e-01	 2.775665e+01
1	 1.039838e+00	 1.996102e-01	 2.742878e+01
1	 1.036107e+00	 2.181507e-01	 2.702438e+01
1	 1.032023e+00	 2.367201e-01	 2.654335e+01
1	 1.027582e+00	 2.553089e-01	 2.598579e+01
1	 1.022781e+00	 2.739075e-01	 2.535191e+01
1	 9.659603e-01	 2.586904e-01	 2.737535e+01
1	 9.610841e-01	 2.762559e-01	 2.660817e+01
1	 9.558632e-01	 2.938119e-01	 2.577567e+01
1	 9.502956e-01	 3.113490e-01	 2.487840e+01
1	 9.443796e-01	 3.288574e-01	 2.391705e+01
1	 9.381138e-01	 3.463271e-01	 2.289255e+01
1	 9.773245e-01	 2.617339e-01	 2.692384e+01
1	 9.723910e-01	 2.795059e-01	 2.617472e+01
1	 9.671087e-01	 2.972685e-01	 2.536040e+01
1	 9.614756e-01	 3.150120e-01	 2.448120e+01
1	 9.554899e-01	 3.327263e-01	 2.353758e+01
1	 9.491504e-01	 3.504016e-01	 2.253018e+01
1	 9.886888e-01	 2.647773e-01	 2.649899e+01
1	 9.836979e-01	 2.827560e-01	 2.576502e+01
1	 9.783541e-01	 3.007252e-01	 2.496575e+01
1	 9.726555e-01	 3.186749e-01	 2.410131e+01
1	 9.666003e-01	 3.365952e-01	 2.317198e+01
1	 9.601871e-01	 3.544760e-01	 2.217816e+01
1	 1.000053e+00	 2.678207e-01	 2.609748e+01
1	 9.950047e-01	 2.860061e-01	 2.537582e+01
1	 9.895996e-01	 3.041818e-01	 2.458858e+01
1	 9.838355e-01	 3.223378e-01	 2.373573e+01
1	 9.777106e-01	 3.404641e-01	 2.281740e+01
1	 9.712237e-01	 3.585504e-01	 2.183382e+01
1	 1.011417e+00	 2.708641e-01	 2.571613e+01
1	 1.006312e+00	 2.892562e-01	 2.500405e+01
1	 1.000845e+00	 3.076384e-01	 2.422591e+01
1	 9.950154e-01	 3.260007e-01	 2.338161e+01
1	 9.888210e-01	 3.443330e-01	 2.247114e+01
1	 9.822603e-01	 3.626249e-01	 2.149459e+01
1	 1.022781e+00	 2.739075e-01	 2.535191e+01
1	 1.017618e+00	 2.925062e-01	 2.464673e+01
1	 1.012090e+00	 3.110950e-01	 2.387489e+01
1	 1.006195e+00	 3.296637e-01	 2.303620e+01
1	 9.999313e-01	 3.482019e-01	 2.213059e+01
1	 9.932970e-01	 3.666993e-01	 2.115804e+01
1	 9.381138e-01	 3.463271e-01	 2.289255e+01
1	 9.314973e-01	 3.637482e-01	 2.181443e+01
1	 9.245295e-01	 3.811105e-01	 2.069246e+01
1	 9.172101e-01	 3.984038e-01	 1.952814e+01
1	 9.095393e-01	 4.156178e-01	 1.832324e+01
1	 9.015177e-01	 4.327422e-01	 1.707979e+01
1	 9.491504e-01	 3.504016e-01	 2.253018e+01
1	 9.424561e-01	 3.680276e-01	 2.146859e+01
1	 9.354063e-01	 3.855942e-01	 2.036281e+01
1	 9.280008e-01	 4.030910e-01	 1.921434e+01
1	 9.202398e-01	 4.205075e-01	 1.802495e+01
1	 9.121238e-01	 4.378332e-01	 1.679664e+01
1	 9.601871e-01	 3.544760e-01	 2.217816e+01
1	 9.534149e-01	 3.723070e-01	 2.112957e+01
1	 9.462831e-01	 3.900778e-01	 2.003642e+01
1	 9.387915e-01	 4.077781e-01	 1.890021e+01
1	 9.309403e-01	 4.253971e-01	 1.772261e+01
1	 9.227299e-01	 4.429243e-01	 1.650557e+01
1	 9.712237e-01	 3.585504e-01	 2.183382e+01
1	 9.643737e-01	 3.765864e-01	 2.079485e+01
1	 9.571599e-01	 3.945615e-01	 1.971097e+01
1	 9.495822e-01	 4.124652e-01	 1.858356e+01
1	 9.416407e-01	 4.302867e-01	 1.741420e+01
1	 9.333360e-01	 4.480154e-01	 1.620470e+01
1	 9.822603e-01	 3.626249e-01	 2.149459e+01
1	 9.753325e-01	 3.808658e-01	 2.046205e+01
1	 9.680367e-01	 3.990452e-01	 1.938422e+01
1	 9.603729e-01	 4.171523e-01	 1.826233e+01
1	 9.523412e-01	 4.351763e-01	 1.709779e+01
1	 9.439421e-01	 4.531065e-01	 1.589225e+01
1	 9.932970e-01	 3.666993e-01	 2.115804e+01
1	 9.862913e-01	 3.851452e-01	 2.012889e+01
1	 9.789136e-01	 4.035288e-01	 1.905403e+01
1	 9.711636e-01	 4.218394e-01	 1.793451e+01
1	 9.630417e-01	 4.400660e-01	 1.677153e+01
1	 9.545482e-01	 4.581976e-01	 1.556651e+01
1	 9.015177e-01	 4.327422e-01	 1.707979e+01
1	 8.931462e-01	 4.497664e-01	 1.581124e+01
1	 8.844262e-01	 4.666801e-01	 1.453068e+01
1	 8.753594e-01	 4.834728e-01	 1.323982e+01
1	 8.659480e-01	 5.001341e-01	 1.194045e+01
1	 8.561945e-01	 5.166537e-01	 1.063442e+01
1	 9.121238e-01	 4.378332e-01	 1.679664e+01
1	 9.036538e-01	 4.550577e-01	 1.554225e+01
1	 8.948312e-01	 4.721704e-01	 1.427396e+01
1	 8.856577e-01	 4.891607e-01	 1.299303e+01
1	 8.761356e-01	 5.060180e-01	 1.170080e+01
1	 8.662674e-01	 5.227319e-01	 1.039867e+01
1	 9.227299e-01	 4.429243e-01	 1.650557e+01
1	 9.141614e-01	 4.603491e-01	 1.526127e+01
1	 9.052362e-01	 4.776608e-01	 1.400108e+01
1	 8.959561e-01	 4.948486e-01	 1.272594e+01
1	 8.863232e-01	 5.119020e-01	 1.143684e+01
1	 8.763402e-01	 5.288102e-01	 1.013482e+01
1	 9.333360e-01	 4.480154e-01	 1.620470e+01
1	 9.246691e-01	 4.656405e-01	 1.496661e+01
1	 9.156413e-01	 4.831511e-01	 1.371060e+01
1	 9.062544e-01	 5.005365e-01	 1.243738e+01
1	 8.965108e-01	 5.177859e-01	 1.114770e+01
1	 8.864131e-01	 5.348885e-01	 9.842370e+00
1	 9.439421e-01	 4.531065e-01	 1.589225e+01
1	 9.351767e-01	 4.709318e-01	 1.465666e+01
1	 9.260463e-01	 4.886415e-01	 1.340113e+01
1	 9.165528e-01	 5.062244e-01	 1.212622e+01
1	 9.066984e-01	 5.236698e-01	 1.083256e+01
1	 8.964860e-01	 5.409668e-01	 9.520840e+00
1	 9.545482e-01	 4.581976e-01	 1.556651e+01
1	 9.456843e-01	 4.762232e-01	 1.432988e+01
1	 9.364513e-01	 4.941318e-01	 1.307134e+01
1	 9.268511e-01	 5.119124e-01	 1.179139e+01
1	 9.168861e-01	 5.295538e-01	 1.049064e+01
1	 9.065589e-01	 5.470451e-01	 9.169780e+00
1	 8.561945e-01	 5.166537e-01	 1.063442e+01
1	 8.461019e-01	 5.330211e-01	 9.336853e+00
1	 8.356738e-01	 5.492262e-01	 8.065135e+00
1	 8.249137e-01	 5.652587e-01	 6.825001e+00
1	 8.138260e-01	 5.811086e-01	 5.622708e+00
1	 8.024153e-01	 5.967660e-01	 4.465020e+00
1	 8.662674e-01	 5.227319e-01	 1.039867e+01
1	 8.560561e-01	 5.392919e-01	 9.103565e+00
1	 8.455052e-01	 5.556876e-01	 7.835349e+00
1	 8.346186e-01	 5.719088e-01	 6.600360e+00
1	 8.234005e-01	 5.879452e-01	 5.405535e+00
1	 8.118555e-01	 6.037868e-01	 4.258386e+00
1	 8.763402e-01	 5.288102e-01	 1.013482e+01
1	 8.660102e-01	 5.455628e-01	 8.839011e+00
1	 8.553367e-01	 5.621491e-01	 7.572008e+00
1	 8.443235e-01	 5.785589e-01	 6.340663e+00
1	 8.329749e-01	 5.947817e-01	 5.152492e+00
1	 8.212957e-01	 6.108075e-01	 4.015656e+00
1	 8.864131e-01	 5.348885e-01	 9.842370e+00
1	 8.759644e-01	 5.518336e-01	 8.543035e+00
1	 8.651681e-01	 5.686106e-01	 7.275224e+00
1	 8.540283e-01	 5.852090e-01	 6.046216e+00
1	 8.425493e-01	 6.016183e-01	 4.864018e+00
1	 8.307359e-01	 6.178283e-01	 3.737336e+00
1	 8.964860e-01	 5.409668e-01	 9.520840e+00
1	 8.859185e-01	 5.581044e-01	 8.215487e+00
1	 8.749996e-01	 5.750721e-01	 6.945102e+00
1	 8.637332e-01	 5.918591e-01	 5.717315e+00
1	 8.521237e-01	 6.084549e-01	 4.540532e+00
1	 8.401761e-01	 6.248491e-01	 3.423907e+00
1	 9.065589e-01	 5.470451e-01	 9.169780e+00
1	 8.958727e-01	 5.643753e-01	 7.856224e+00
1	 8.848310e-01	 5.815336e-01	 6.581744e+00
1	 8.734381e-01	 5.985092e-01	 5.354240e+00
1	 8.616982e-01	 6.152914e-01	 4.182433e+00
1	 8.496162e-01	 6.318699e-01	 3.075831e+00
1	 8.024153e-01	 5.967660e-01	 4.465020e+00
1	 7.906866e-01	 6.122211e-01	 3.366499e+00
1	 7.786453e-01	 6.274644e-01	 2.339528e+00
1	 7.662971e-01	 6.424864e-01	 1.387961e+00
1	 7.536483e-01	 6.572779e-01	 5.156355e-01
1	 7.407053e-01	 6.718301e-01	-2.736470e-01
1	 8.118555e-01	 6.037868e-01	 4.258386e+00
1	 7.999888e-01	 6.194237e-01	 3.172401e+00
1	 7.878058e-01	 6.348463e-01	 2.158118e+00
1	 7.753124e-01	 6.500450e-01	 1.219017e+00
1	 7.625147e-01	 6.650106e-01	 3.585320e-01
1	 7.494195e-01	 6.797340e-01	-4.199650e-01
1	 8.212957e-01	 6.108075e-01	 4.015656e+00
1	 8.092910e-01	 6.266263e-01	 2.942139e+00
1	 7.969663e-01	 6.422282e-01	 1.940301e+00
1	 7.843276e-01	 6.576037e-01	 1.013279e+00
1	 7.713812e-01	 6.727433e-01	 1.641367e-01
1	 7.581336e-01	 6.876379e-01	-6.041510e-01
1	 8.307359e-01	 6.178283e-01	 3.737336e+00
1	 8.185932e-01	 6.338289e-01	 2.676257e+00
1	 8.061269e-01	 6.496102e-01	 1.686663e+00
1	 7.933429e-01	 6.651624e-01	 7.713814e-01
1	 7.802476e-01	 6.804760e-01	-6.686568e-02
1	 7.668478e-01	 6.955418e-01	-8.254691e-01
1	 8.401761e-01	 6.248491e-01	 3.423907e+00
1	 8.278954e-01	 6.410315e-01	 2.375275e+00
1	 8.152874e-01	 6.569921e-01	 1.397768e+00
1	 8.023582e-01	 6.727210e-01	 4.939311e-01
1	 7.891141e-01	 6.882087e-01	-3.338212e-01
1	 7.755620e-01	 7.034456e-01	-1.083217e+00
1	 8.496162e-01	 6.318699e-01	 3.075831e+00
1	 8.371976e-01	 6.482341e-01	 2.039689e+00
1	 8.244479e-01	 6.643740e-01	 1.074150e+00
1	 8.113734e-01	 6.802797e-01	 1.815079e-01
1	 7.979805e-01	 6.959413e-01	-6.361048e-01
1	 7.842762e-01	 7.113495e-01	-1.376722e+00
1	 7.407053e-01	 6.718301e-01	-2.736470e-01
1	 7.274750e-01	 6.861342e-01	-9.972624e-01
1	 7.139646e-01	 7.001818e-01	-1.672555e+00
1	 7.001818e-01	 7.139646e-01	-2.295824e+00
1	 6.861342e-01	 7.274750e-01	-2.863534e+00
1	 6.718301e-01	 7.407053e-01	-3.372323e+00
1	 7.494195e-01	 6.797340e-01	-4.199650e-01
1	 7.360335e-01	 6.942064e-01	-1.134645e+00
1	 7.223642e-01	 7.084192e-01	-1.803220e+00
1	 7.084192e-01	 7.223642e-01	-2.421790e+00
1	 6.942064e-01	 7.360335e-01	-2.986608e+00
1	 6.797340e-01	 7.494195e-01	-3.494093e+00
1	 7.581336e-01	 6.876379e-01	-6.041510e-01
1	 7.445921e-01	 7.022785e-01	-1.310403e+00
1	 7.307638e-01	 7.166566e-01	-1.972616e+00
1	 7.166566e-01	 7.307638e-01	-2.586750e+00
1	 7.022785e-01	 7.445921e-01	-3.148911e+00
1	 6.876379e-01	 7.581336e-01	-3.655360e+00
1	 7.668478e-01	 6.955418e-01	-8.254691e-01
1	 7.531506e-01	 7.103507e-01	-1.523760e+00
1	 7.391634e-01	 7.248941e-01	-2.179939e+00
1	 7.248941e-01	 7.391634e-01	-2.789888e+00
1	 7.103507e-01	 7.531506e-01	-3.349624e+00
1	 6.955418e-01	 7.668478e-01	-3.855317e+00
1	 7.755620e-01	 7.034456e-01	-1.083217e+00
1	 7.617091e-01	 7.184229e-01	-1.773971e+00
1	 7.475630e-01	 7.331315e-01	-2.424420e+00
1	 7.331315e-01	 7.475630e-01	-3.030424e+00
1	 7.184229e-01	 7.617091e-01	-3.587971e+00
1	 7.034456e-01	 7.755620e-01	-4.093197e+00
1	 7.842762e-01	 7.113495e-01	-1.376722e+00
1	 7.702676e-01	 7.264950e-01	-2.060327e+00
1	 7.559626e-01	 7.413689e-01	-2.705326e+00
1	 7.413689e-01	 7.559626e-01	-3.307613e+00
1	 7.264950e-01	 7.702676e-01	-3.863206e+00
1	 7.113495e-01	 7.842762e-01	-4.368265e+00
1	 6.718301e-01	 7.407053e-01	-3.372323e+00
1	 6.572779e-01	 7.536483e-01	-3.834445e+00
1	 6.424864e-01	 7.662971e-01	-4.264372e+00
1	 6.274644e-01	 7.786453e-01	-4.662562e+00
1	 6.122211e-01	 7.906866e-01	-5.029935e+00
1	 5.967660e-01	 8.024153e-01	-5.367854e+00
1	 6.797340e-01	 7.494195e-01	-3.494093e+00
1	 6.650106e-01	 7.625147e-01	-3.957561e+00
1	 6.500450e-01	 7.753124e-01	-4.392540e+00
1	 6.348463e-01	 7.878058e-01	-4.799227e+00
1	 6.194237e-01	 7.999888e-01	-5.178251e+00
1	 6.037868e-01	 8.118555e-01	-5.530652e+00
1	 6.876379e-01	 7.581336e-01	-3.655360e+00
1	 6.727433e-01	 7.713812e-01	-4.120425e+00
1	 6.576037e-01	 7.843276e-01	-4.560577e+00
1	 6.422282e-01	 7.969663e-01	-4.975722e+00
1	 6.266263e-01	 8.092910e-01	-5.366169e+00
1	 6.108075e-01	 8.212957e-01	-5.732608e+00
1	 6.955418e-01	 7.668478e-01	-3.855317e+00
1	 6.804760e-01	 7.802476e-01	-4.322246e+00
1	 6.651624e-01	 7.933429e-01	-4.767703e+00
1	 6.496102e-01	 8.061269e-01	-5.191279e+00
1	 6.338289e-01	 8.185932e-01	-5.592933e+00
1	 6.178283e-01	 8.307359e-01	-5.972978e+00
1	 7.034456e-01	 7.755620e-01	-4.093197e+00
1	 6.882087e-01	 7.891141e-01	-4.562269e+00
1	 6.727210e-01	 8.023582e-01	-5.013176e+00
1	 6.569921e-01	 8.152874e-01	-5.445165e+00
1	 6.410315e-01	 8.278954e-01	-5.857822e+00
1	 6.248491e-01	 8.401761e-01	-6.251053e+00
1	 7.113495e-01	 7.842762e-01	-4.368265e+00
1	 6.959413e-01	 7.979805e-01	-4.839771e+00
1	 6.802797e-01	 8.113734e-01	-5.296283e+00
1	 6.643740e-01	 8.244479e-01	-5.736680e+00
1	 6.482341e-01	 8.371976e-01	-6.160145e+00
1	 6.318699e-01	 8.496162e-01	-6.566155e+00
1	 5.967660e-01	 8.024153e-01	-5.367854e+00
1	 5.811086e-01	 8.138260e-01	-5.678425e+00
1	 5.652587e-01	 8.249137e-01	-5.964593e+00
1	 5.492262e-01	 8.356738e-01	-6.229611e+00
1	 5.330211e-01	 8.461019e-01	-6.477119e+00
1	 5.166537e-01	 8.561945e-01	-6.711116e+00
1	 6.037868e-01	 8.118555e-01	-5.530652e+00
1	 5.879452e-01	 8.234005e-01	-5.858590e+00
1	 5.719088e-01	 8.346186e-01	-6.165307e+00
1	 5.556876e-01	 8.455052e-01	-6.454101e+00
1	 5.392919e-01	 8.560561e-01	-6.728685e+00
1	 5.227319e-01	 8.662674e-01	-6.993156e+00
1	 6.108075e-01	 8.212957e-01	-5.732608e+00
1	 5.947817e-01	 8.329749e-01	-6.077440e+00
1	 5.785589e-01	 8.443235e-01	-6.404413e+00
1	 5.621491e-01	 8.553367e-01	-6.716866e+00
1	 5.455628e-01	 8.660102e-01	-7.018581e+00
1	 5.288102e-01	 8.763402e-01	-7.313742e+00
1	 6.178283e-01	 8.307359e-01	-5.972978e+00
1	 6.016183e-01	 8.425493e-01	-6.334237e+00
1	 5.852090e-01	 8.540283e-01	-6.681159e+00
1	 5.686106e-01	 8.651681e-01	-7.017124e+00
1	 5.518336e-01	 8.759644e-01	-7.345975e+00
1	 5.348885e-01	 8.864131e-01	-7.671981e+00
1	 6.248491e-01	 8.401761e-01	-6.251053e+00
1	 6.084549e-01	 8.521237e-01	-6.628275e+00
1	 5.918591e-01	 8.637332e-01	-6.994829e+00
1	 5.750721e-01	 8.749996e-01	-7.354130e+00
1	 5.581044e-01	 8.859185e-01	-7.710079e+00
1	 5.409668e-01	 8.964860e-01	-8.067018e+00
1	 6.318699e-01	 8.496162e-01	-6.566155e+00
1	 6.152914e-01	 8.616982e-01	-6.958882e+00
1	 5.985092e-01	 8.734381e-01	-7.344738e+00
1	 5.815336e-01	 8.848310e-01	-7.727172e+00
1	 5.643753e-01	 8.958727e-01	-8.110135e+00
1	 5.470451e-01	 9.065589e-01	-8.498038e+00
1	 5.166537e-01	 8.561945e-01	-6.711116e+00
1	 5.001341e-01	 8.659480e-01	-6.931875e+00
1	 4.834728e-01	 8.753594e-01	-7.137707e+00
1	 4.666801e-01	 8.844262e-01	-7.330023e+00
1	 4.497664e-01	 8.931462e-01	-7.510366e+00
1	 4.327422e-01	 9.015177e-01	-7.680395e+00
1	 5.227319e-01	 8.662674e-01	-6.993156e+00
1	 5.060180e-01	 8.761356e-01	-7.247181e+00
1	 4.891607e-01	 8.856577e-01	-7.488394e+00
1	 4.721704e-01	 8.948312e-01	-7.718209e+00
1	 4.550577e-01	 9.036538e-01	-7.938170e+00
1	 4.378332e-01	 9.121238e-01	-8.149934e+00
1	 5.288102e-01	 8.763402e-01	-7.313742e+00
1	 5.119020e-01	 8.863232e-01	-7.601305e+00
1	 4.948486e-01	 8.959561e-01	-7.878109e+00
1	 4.776608e-01	 9.052362e-01	-8.145554e+00
1	 4.603491e-01	 9.141614e-01	-8.405165e+00
1	 4.429243e-01	 9.227299e-01	-8.658575e+00
1	 5.348885e-01	 8.864131e-01	-7.671981e+00
1	 5.177859e-01	 8.965108e-01	-7.993274e+00
1	 5.005365e-01	 9.062544e-01	-8.305792e+00
1	 4.831511e-01	 9.156413e-01	-8.610902e+00
1	 4.656405e-01	 9.246691e-01	-8.910090e+00
1	 4.480154e-01	 9.333360e-01	-9.204949e+00
1	 5.409668e-01	 8.964860e-01	-8.067018e+00
1	 5.236698e-01	 9.066984e-01	-8.422160e+00
1	 5.062244e-01	 9.165528e-01	-8.770432e+00
1	 4.886415e-01	 9.260463e-01	-9.113150e+00
1	 4.709318e-01	 9.351767e-01	-9.451744e+00
1	 4.531065e-01	 9.439421e-01	-9.787745e+00
1	 5.470451e-01	 9.065589e-01	-8.498038e+00
1	 5.295538e-01	 9.168861e-01	-8.887076e+00
1	 5.119124e-01	 9.268511e-01	-9.271062e+00
1	 4.941318e-01	 9.364513e-01	-9.651243e+00
1	 4.762232e-01	 9.456843e-01	-1.002898e+01
1	 4.581976e-01	 9.545482e-01	-1.040572e+01
1	 4.327422e-01	 9.015177e-01	-7.680395e+00
1	 4.156178e-01	 9.095393e-01	-7.841612e+00
1	 3.984038e-01	 9.172101e-01	-7.995591e+00
1	 3.811105e-01	 9.245295e-01	-8.144235e+00
1	 3.637482e-01	 9.314973e-01	-8.289525e+00
1	 3.463271e-01	 9.381138e-01	-8.433494e+00
1	 4.378332e-01	 9.121238e-01	-8.149934e+00
1	 4.205075e-01	 9.202398e-01	-8.354944e+00
1	 4.030910e-01	 9.280008e-01	-8.554287e+00
1	 3.855942e-01	 9.354063e-01	-8.749221e+00
1	 3.680276e-01	 9.424561e-01	-8.941061e+00
1	 3.504016e-01	 9.491504e-01	-9.131179e+00
1	 4.429243e-01	 9.227299e-01	-8.658575e+00
1	 4.253971e-01	 9.309403e-01	-8.907095e+00
1	 4.077781e-01	 9.387915e-01	-9.151343e+00
1	 3.900778e-01	 9.462831e-01	-9.392039e+00
1	 3.723070e-01	 9.534149e-01	-9.629958e+00
1	 3.544760e-01	 9.601871e-01	-9.865921e+00
1	 4.480154e-01	 9.333360e-01	-9.204949e+00
1	 4.302867e-01	 9.416407e-01	-9.496597e+00
1	 4.124652e-01	 9.495822e-01	-9.785219e+00
1	 3.945615e-01	 9.571599e-01	-1.007111e+01
1	 3.765864e-01	 9.643737e-01	-1.035461e+01
1	 3.585504e-01	 9.712237e-01	-1.063612e+01
1	 4.531065e-01	 9.439421e-01	-9.787745e+00
1	 4.351763e-01	 9.523412e-01	-1.012205e+01
1	 4.171523e-01	 9.603729e-01	-1.045445e+01
1	 3.990452e-01	 9.680367e-01	-1.078492e+01
1	 3.808658e-01	 9.753325e-01	-1.111350e+01
1	 3.626249e-01	 9.822603e-01	-1.144023e+01
1	 4.581976e-01	 9.545482e-01	-1.040572e+01
1	 4.400660e-01	 9.630417e-01	-1.078211e+01
1	 4.218394e-01	 9.711636e-01	-1.115763e+01
1	 4.035288e-01	 9.789136e-01	-1.153204e+01
1	 3.851452e-01	 9.862913e-01	-1.190515e+01
1	 3.666993e-01	 9.932970e-01	-1.227680e+01
1	 3.463271e-01	 9.381138e-01	-8.433494e+00
1	 3.288574e-01	 9.443796e-01	-8.575399e+00
1	 3.113490e-01	 9.502956e-01	-8.714032e+00
1	 2.938119e-01	 9.558632e-01	-8.850812e+00
1	 2.762559e-01	 9.610841e-01	-8.987210e+00
1	 2.586904e-01	 9.659603e-01	-9.124739e+00
1	 3.504016e-01	 9.491504e-01	-9.131179e+00
1	 3.327263e-01	 9.554899e-01	-9.318369e+00
1	 3.150120e-01	 9.614756e-01	-9.501303e+00
1	 2.972685e-01	 9.671087e-01	-9.681233e+00
1	 2.795059e-01	 9.723910e-01	-9.859452e+00
1	 2.617339e-01	 9.773245e-01	-1.003728e+01
1	 3.544760e-01	 9.601871e-01	-9.865921e+00
1	 3.365952e-01	 9.666003e-01	-1.009832e+01
1	 3.186749e-01	 9.726555e-01	-1.032565e+01
1	 3.007252e-01	 9.783541e-01	-1.054891e+01
1	 2.827560e-01	 9.836979e-01	-1.076917e+01
1	 2.647773e-01	 9.886888e-01	-1.098750e+01
1	 3.585504e-01	 9.712237e-01	-1.063612e+01
1	 3.404641e-01	 9.777106e-01	-1.091367e+01
1	 3.223378e-01	 9.838355e-01	-1.118550e+01
1	 3.041818e-01	 9.895996e-01	-1.145235e+01
1	 2.860061e-01	 9.950047e-01	-1.171494e+01
1	 2.678207e-01	 1.000053e+00	-1.197406e+01
1	 3.626249e-01	 9.822603e-01	-1.144023e+01
1	 3.443330e-01	 9.888210e-01	-1.176288e+01
1	 3.260007e-01	 9.950154e-01	-1.207938e+01
1	 3.076384e-01	 1.000845e+00	-1.239009e+01
1	 2.892562e-01	 1.006312e+00	-1.269540e+01
1	 2.708641e-01	 1.011417e+00	-1.299571e+01
1	 3.666993e-01	 9.932970e-01	-1.227680e+01
1	 3.482019e-01	 9.999313e-01	-1.264451e+01
1	 3.296637e-01	 1.006195e+00	-1.300586e+01
1	 3.110950e-01	 1.012090e+00	-1.336078e+01
1	 2.925062e-01	 1.017618e+00	-1.370923e+01
1	 2.739075e-01	 1.022781e+00	-1.405121e+01
1	 2.586904e-01	 9.659603e-01	-9.124739e+00
1	 2.411251e-01	 9.704941e-01	-9.263658e+00
1	 2.235690e-01	 9.746881e-01	-9.403834e+00
1	 2.060313e-01	 9.785454e-01	-9.546205e+00
1	 1.885207e-01	 9.820692e-01	-9.691688e+00
1	 1.710460e-01	 9.852630e-01	-9.841180e+00
1	 2.617339e-01	 9.773245e-01	-1.003728e+01
1	 2.439618e-01	 9.819116e-01	-1.021467e+01
1	 2.261992e-01	 9.861550e-01	-1.039126e+01
1	 2.084551e-01	 9.900577e-01	-1.056791e+01
1	 1.907386e-01	 9.936230e-01	-1.074549e+01
1	 1.730583e-01	 9.968544e-01	-1.092486e+01
1	 2.647773e-01	 9.886888e-01	-1.098750e+01
1	 2.467986e-01	 9.933292e-01	-1.120357e+01
1	 2.288294e-01	 9.976219e-01	-1.141679e+01
1	 2.108790e-01	 1.001570e+00	-1.162791e+01
1	 1.929565e-01	 1.005177e+00	-1.183765e+01
1	 1.750706e-01	 1.008446e+00	-1.204674e+01
1	 2.678207e-01	 1.000053e+00	-1.197406e+01
1	 2.496354e-01	 1.004747e+00	-1.222910e+01
1	 2.314597e-01	 1.009089e+00	-1.247924e+01
1	 2.133029e-01	 1.013082e+00	-1.272499e+01
1	 1.951744e-01	 1.016730e+00	-1.296686e+01
1	 1.770829e-01	 1.020037e+00	-1.320538e+01
1	 2.708641e-01	 1.011417e+00	-1.299571e+01
1	 2.524721e-01	 1.016164e+00	-1.329008e+01
1	 2.340899e-01	 1.020556e+00	-1.357743e+01
1	 2.157268e-01	 1.024595e+00	-1.385796e+01
1	 1.973923e-01	 1.028284e+00	-1.413189e+01
1	 1.790952e-01	 1.031628e+00	-1.439944e+01
1	 2.739075e-01	 1.022781e+00	-1.405121e+01
1	 2.553089e-01	 1.027582e+00	-1.438538e+01
1	 2.367201e-01	 1.032023e+00	-1.471027e+01
1	 2.181507e-01	 1.036107e+00	-1.502570e+01
1	 1.996102e-01	 1.039838e+00	-1.533153e+01
1	 1.811076e-01	 1.043220e+00	-1.562762e+01
1	 1.710460e-01	 9.852630e-01	-9.841180e+00
1	 1.536156e-01	 9.881307e-01	-9.994526e+00
1	 1.362375e-01	 9.906762e-01	-1.015199e+01
1	 1.189198e-01	 9.929039e-01	-1.031503e+01
1	 1.016702e-01	 9.948182e-01	-1.048512e+01
1	 8.449607e-02	 9.964238e-01	-1.066368e+01
1	 1.730583e-01	 9.968544e-01	-1.092486e+01
1	 1.554228e-01	 9.997558e-01	-1.110591e+01
1	 1.378403e-01	 1.002331e+00	-1.128873e+01
1	 1.203189e-01	 1.004585e+00	-1.147449e+01
1	 1.028663e-01	 1.006522e+00	-1.166435e+01
1	 8.549014e-02	 1.008146e+00	-1.185943e+01
1	 1.750706e-01	 1.008446e+00	-1.204674e+01
1	 1.572300e-01	 1.011381e+00	-1.225496e+01
1	 1.394431e-01	 1.013986e+00	-1.246226e+01
1	 1.217180e-01	 1.016266e+00	-1.266962e+01
1	 1.040624e-01	 1.018226e+00	-1.287800e+01
1	 8.648421e-02	 1.019869e+00	-1.308833e+01
1	 1.770829e-01	 1.020037e+00	-1.320538e+01
1	 1.590373e-01	 1.023006e+00	-1.344014e+01
1	 1.410459e-01	 1.025641e+00	-1.367095e+01
1	 1.231170e-01	 1.027948e+00	-1.389873e+01
1	 1.052586e-01	 1.029929e+00	-1.412433e+01
1	 8.747828e-02	 1.031592e+00	-1.434864e+01
1	 1.790952e-01	 1.031628e+00	-1.439944e+01
1	 1.608445e-01	 1.034631e+00	-1.465997e+01
1	 1.426487e-01	 1.037296e+00	-1.491324e+01
1	 1.245161e-01	 1.039629e+00	-1.516019e+01
1	 1.064547e-01	 1.041633e+00	-1.540171e+01
1	 8.847235e-02	 1.043314e+00	-1.563870e+01
1	 1.811076e-01	 1.043220e+00	-1.562762e+01
1	 1.626518e-01	 1.046256e+00	-1.591304e+01
1	 1.442515e-01	 1.048951e+00	-1.618764e+01
1	 1.259151e-01	 1.051310e+00	-1.645246e+01
1	 1.076508e-01	 1.053337e+00	-1.670854e+01
1	 8.946642e-02	 1.055037e+00	-1.695690e+01
1	 8.449607e-02	 9.964238e-01	-1.066368e+01
1	 6.740460e-02	 9.977257e-01	-1.085174e+01
1	 5.040273e-02	 9.987290e-01	-1.104996e+01
1	 3.349713e-02	 9.994388e-01	-1.125910e+01
1	 1.669417e-02	 9.998606e-01	-1.147991e+01
1	 0.000000e+00	 1.000000e+00	-1.171308e+01
1	 8.549014e-02	 1.008146e+00	-1.185943e+01
1	 6.819760e-02	 1.009464e+00	-1.206047e+01
1	 5.099571e-02	 1.010479e+00	-1.226818e+01
1	 3.389121e-02	 1.011197e+00	-1.248358e+01
1	 1.689057e-02	 1.011624e+00	-1.270767e+01
1	 0.000000e+00	 1.011765e+00	-1.294139e+01
1	 8.648421e-02	 1.019869e+00	-1.308833e+01
1	 6.899059e-02	 1.021202e+00	-1.330118e+01
1	 5.158868e-02	 1.022228e+00	-1.351731e+01
1	 3.428529e-02	 1.022955e+00	-1.373796e+01
1	 1.708698e-02	 1.023387e+00	-1.396429e+01
1	 0.000000e+00	 1.023529e+00	-1.419743e+01
1	 8.747828e-02	 1.031592e+00	-1.434864e+01
1	 6.978359e-02	 1.032940e+00	-1.457212e+01
1	 5.218165e-02	 1.033978e+00	-1.479561e+01
1	 3.467938e-02	 1.034713e+00	-1.502047e+01
1	 1.728338e-02	 1.035150e+00	-1.524801e+01
1	 0.000000e+00	 1.035294e+00	-1.547949e+01
1	 8.847235e-02	 1.043314e+00	-1.563870e+01
1	 7.057658e-02	 1.044678e+00	-1.587164e+01
1	 5.277463e-02	 1.045728e+00	-1.610141e+01
1	 3.507346e-02	 1.046471e+00	-1.632945e+01
1	 1.747978e-02	 1.046913e+00	-1.655716e+01
1	 0.000000e+00	 1.047059e+00	-1.678588e+01
1	 8.946642e-02	 1.055037e+00	-1.695690e+01
1	 7.136958e-02	 1.056415e+00	-1.719812e+01
1	 5.336760e-02	 1.057478e+00	-1.743310e+01
1	 3.546754e-02	 1.058229e+00	-1.766329e+01
1	 1.767618e-02	 1.058676e+00	-1.789014e+01
1	 0.000000e+00	 1.058824e+00	-1.811503e+01
1	 1.058824e+00	 0.000000e+00	 2.675743e+01
1	 1.058676e+00	 1.767618e-02	 2.719393e+01
1	 1.058229e+00	 3.546754e-02	 2.755922e+01
1	 1.057478e+00	 5.336760e-02	 2.785167e+01
1	 1.056415e+00	 7.136958e-02	 2.806967e+01
1	 1.055037e+00	 8.946642e-02	 2.821166e+01
1	 1.070588e+00	 0.000000e+00	 2.632628e+01
1	 1.070439e+00	 1.787258e-02	 2.676841e+01
1	 1.069987e+00	 3.586163e-02	 2.713945e+01
1	 1.069227e+00	 5.396057e-02	 2.743770e+01
1	 1.068153e+00	 7.216257e-02	 2.766154e+01
1	 1.066760e+00	 9.046050e-02	 2.780939e+01
1	 1.082353e+00	 0.000000e+00	 2.593174e+01
1	 1.082202e+00	 1.806899e-02	 2.637909e+01
1	 1.081746e+00	 3.625571e-02	 2.675531e+01
1	 1.080977e+00	 5.455355e-02	 2.705869e+01
1	 1.079891e+00	 7.295557e-02	 2.728755e+01
1	 1.078482e+00	 9.145457e-02	 2.744029e+01
1	 1.094118e+00	 0.000000e+00	 2.557067e+01
1	 1.093965e+00	 1.826539e-02	 2.602282e+01
1	 1.093504e+00	 3.664980e-02	 2.640370e+01
1	 1.092727e+00	 5.514652e-02	 2.671154e+01
1	 1.091629e+00	 7.374856e-02	 2.694461e+01
1	 1.090205e+00	 9.244864e-02	 2.710128e+01
1	 1.105882e+00	 0.000000e+00	 2.524010e+01
1	 1.105728e+00	 1.846179e-02	 2.569664e+01
1	 1.105262e+00	 3.704388e-02	 2.608164e+01
1	 1.104477e+00	 5.573949e-02	 2.639327e+01
1	 1.103367e+00	 7.454156e-02	 2.662976e+01
1	 1.101928e+00	 9.344271e-02	 2.678943e+01
1	 1.117647e+00	 0.000000e+00	 2.493715e+01
1	 1.117491e+00	 1.865819e-02	 2.539768e+01
1	 1.117020e+00	 3.743796e-02	 2.578627e+01
1	 1.116227e+00	 5.633247e-02	 2.610104e+01
1	 1.115105e+00	 7.533455e-02	 2.634017e+01
1	 1.113650e+00	 9.443678e-02	 2.650192e+01
1	 1.055037e+00	 8.946642e-02	 2.821166e+01
1	 1.053337e+00	 1.076508e-01	 2.827700e+01
1	 1.051310e+00	 1.259151e-01	 2.826522e+01
1	 1.048951e+00	 1.442515e-01	 2.817521e+01
1	 1.046256e+00	 1.626518e-01	 2.800598e+01
1	 1.043220e+00	 1.811076e-01	 2.775665e+01
1	 1.066760e+00	 9.046050e-02	 2.780939e+01
1	 1.065041e+00	 1.088469e-01	 2.788060e+01
1	 1.062991e+00	 1.273142e-01	 2.787471e+01
1	 1.060606e+00	 1.458543e-01	 2.779057e+01
1	 1.057881e+00	 1.644590e-01	 2.762715e+01
1	 1.054811e+00	 1.831199e-01	 2.738351e+01
1	 1.078482e+00	 9.145457e-02	 2.744029e+01
1	 1.076744e+00	 1.100430e-01	 2.751622e+01
1	 1.074672e+00	 1.287132e-01	 2.751492e+01
1	 1.072261e+00	 1.474571e-01	 2.743522e+01
1	 1.069506e+00	 1.662663e-01	 2.727609e+01
1	 1.066402e+00	 1.851322e-01	 2.703658e+01
1	 1.090205e+00	 9.244864e-02	 2.710128e+01
1	 1.088448e+00	 1.112392e-01	 2.718083e+01
1	 1.086354e+00	 1.301123e-01	 2.718285e+01
1	 1.083916e+00	 1.490599e-01	 2.710620e+01
1	 1.081131e+00	 1.680735e-01	 2.694987e+01
1	 1.077994e+00	 1.871445e-01	 2.671297e+01
1	 1.101928e+00	 9.344271e-02	 2.678943e+01
1	 1.100152e+00	 1.124353e-01	 2.687151e+01
1	 1.098035e+00	 1.315114e-01	 2.687560e+01
1	 1.095571e+00	 1.506627e-01	 2.680064e+01
1	 1.092756e+00	 1.698807e-01	 2.664569e+01
1	 1.089585e+00	 1.891568e-01	 2.640991e+01
1	 1.113650e+00	 9.443678e-02	 2.650192e+01
1	 1.111856e+00	 1.136314e-01	 2.658546e+01
1	 1.109716e+00	 1.329104e-01	 2.659042e+01
1	 1.107226e+00	 1.522655e-01	 2.651584e+01
1	 1.104381e+00	 1.716880e-01	 2.636086e+01
1	 1.101176e+00	 1.911691e-01	 2.612477e+01
1	 1.043220e+00	 1.811076e-01	 2.775665e+01
1	 1.039838e+00	 1.996102e-01	 2.742878e+01
1	 1.036107e+00	 2.181507e-01	 2.702438e+01
1	 1.032023e+00	 2.367201e-01	 2.654335e+01
1	 1.027582e+00	 2.553089e-01	 2.598579e+01
1	 1.022781e+00	 2.739075e-01	 2.535191e+01
1	 1.054811e+00	 1.831199e-01	 2.738351e+01
1	 1.051392e+00	 2.018281e-01	 2.706117e+01
1	 1.047619e+00	 2.205746e-01	 2.666208e+01
1	 1.043490e+00	 2.393503e-01	 2.618621e+01
1	 1.039000e+00	 2.581457e-01	 2.563367e+01
1	 1.034146e+00	 2.769509e-01	 2.500469e+01
1	 1.066402e+00	 1.851322e-01	 2.703658e+01
1	 1.062946e+00	 2.040460e-01	 2.671813e+01
1	 1.059132e+00	 2.229985e-01	 2.632266e+01
1	 1.054957e+00	 2.419805e-01	 2.585015e+01
1	 1.050417e+00	 2.609824e-01	 2.530073e+01
1	 1.045510e+00	 2.799944e-01	 2.467464e+01
1	 1.077994e+00	 1.871445e-01	 2.671297e+01
1	 1.074499e+00	 2.062638e-01	 2.639685e+01
1	 1.070644e+00	 2.254224e-01	 2.600336e+01
1	 1.066423e+00	 2.446108e-01	 2.553250e+01
1	 1.061835e+00	 2.638192e-01	 2.498440e+01
1	 1.056874e+00	 2.830378e-01	 2.435930e+01
1	 1.089585e+00	 1.891568e-01	 2.640991e+01
1	 1.086053e+00	 2.084817e-01	 2.609461e+01
1	 1.082156e+00	 2.278463e-01	 2.570155e+01
1	 1.077890e+00	 2.472410e-01	 2.523071e+01
1	 1.073252e+00	 2.666560e-01	 2.468223e+01
1	 1.068238e+00	 2.860812e-01	 2.405635e+01
1	 1.101176e+00	 1.911691e-01	 2.612477e+01
1	 1.097607e+00	 2.106996e-01	 2.580884e+01
1	 1.093668e+00	 2.302702e-01	 2.541470e+01
1	 1.089357e+00	 2.498712e-01	 2.494234e+01
1	 1.084670e+00	 2.694927e-01	 2.439188e+01
1	 1.079603e+00	 2.891246e-01	 2.376354e+01
1	 1.022781e+00	 2.739075e-01	 2.535191e+01
1	 1.017618e+00	 2.925062e-01	 2.464673e+01
1	 1.012090e+00	 3.110950e-01	 2.387489e+01
1	 1.006195e+00	 3.296637e-01	 2.303620e+01
1	 9.999313e-01	 3.482019e-01	 2.213059e+01
1	 9.932970e-01	 3.666993e-01	 2.115804e+01
1	 1.034146e+00	 2.769509e-01	 2.500469e+01
1	 1.028925e+00	 2.957563e-01	 2.430400e+01
1	 1.023336e+00	 3.145516e-01	 2.353590e+01
1	 1.017375e+00	 3.333266e-01	 2.270018e+01
1	 1.011042e+00	 3.520708e-01	 2.179671e+01
1	 1.004334e+00	 3.707737e-01	 2.082541e+01
1	 1.045510e+00	 2.799944e-01	 2.467464e+01
1	 1.040232e+00	 2.990064e-01	 2.397630e+01
1	 1.034581e+00	 3.180082e-01	 2.320972e+01
1	 1.028555e+00	 3.369895e-01	 2.237466e+01
1	 1.022152e+00	 3.559398e-01	 2.147097e+01
1	 1.015370e+00	 3.748482e-01	 2.049854e+01
1	 1.056874e+00	 2.830378e-01	 2.435930e+01
1	 1.051539e+00	 3.022564e-01	 2.366134e+01
1	 1.045827e+00	 3.214648e-01	 2.289421e+01
1	 1.039735e+00	 3.406525e-01	 2.205771e+01
1	 1.033262e+00	 3.598087e-01	 2.115167e+01
1	 1.026407e+00	 3.789226e-01	 2.017600e+01
1	 1.068238e+00	 2.860812e-01	 2.405635e+01
1	 1.062846e+00	 3.055065e-01	 2.335690e+01
1	 1.057072e+00	 3.249214e-01	 2.258735e+01
1	 1.050915e+00	 3.443154e-01	 2.174749e+01
1	 1.044373e+00	 3.636776e-01	 2.083720e+01
1	 1.037444e+00	 3.829971e-01	 1.985642e+01
1	 1.079603e+00	 2.891246e-01	 2.376354e+01
1	 1.074153e+00	 3.087566e-01	 2.306089e+01
1	 1.068318e+00	 3.283780e-01	 2.228717e+01
1	 1.062095e+00	 3.479783e-01	 2.144223e+01
1	 1.055483e+00	 3.675465e-01	 2.052601e+01
1	 1.048480e+00	 3.870715e-01	 1.953848e+01
1	 9.932970e-01	 3.666993e-01	 2.115804e+01
1	 9.862913e-01	 3.851452e-01	 2.012889e+01
1	 9.789136e-01	 4.035288e-01	 1.905403e+01
1	 9.711636e-01	 4.218394e-01	 1.793451e+01
1	 9.630417e-01	 4.400660e-01	 1.677153e+01
1	 9.545482e-01	 4.581976e-01	 1.556651e+01
1	 1.004334e+00	 3.707737e-01	 2.082541e+01
1	 9.972501e-01	 3.894246e-01	 1.979688e+01
1	 9.897904e-01	 4.080125e-01	 1.872217e+01
1	 9.819543e-01	 4.265265e-01	 1.760210e+01
1	 9.737421e-01	 4.449556e-01	 1.643762e+01
1	 9.651543e-01	 4.632887e-01	 1.522988e+01
1	 1.015370e+00	 3.748482e-01	 2.049854e+01
1	 1.008209e+00	 3.937040e-01	 1.946819e+01
1	 1.000667e+00	 4.124961e-01	 1.839106e+01
1	 9.927451e-01	 4.312136e-01	 1.726769e+01
1	 9.844426e-01	 4.498452e-01	 1.609876e+01
1	 9.757604e-01	 4.683797e-01	 1.488508e+01
1	 1.026407e+00	 3.789226e-01	 2.017600e+01
1	 1.019168e+00	 3.979833e-01	 1.914162e+01
1	 1.011544e+00	 4.169798e-01	 1.805964e+01
1	 1.003536e+00	 4.359007e-01	 1.693032e+01
1	 9.951430e-01	 4.547348e-01	 1.575398e+01
1	 9.863665e-01	 4.734708e-01	 1.453107e+01
1	 1.037444e+00	 3.829971e-01	 1.985642e+01
1	 1.030126e+00	 4.022627e-01	 1.881604e+01
1	 1.022421e+00	 4.214634e-01	 1.772694e+01
1	 1.014326e+00	 4.405878e-01	 1.658906e+01
1	 1.005844e+00	 4.596244e-01	 1.540236e+01
1	 9.969726e-01	 4.785619e-01	 1.416684e+01
1	 1.048480e+00	 3.870715e-01	 1.953848e+01
1	 1.041085e+00	 4.065421e-01	 1.849034e+01
1	 1.033298e+00	 4.259471e-01	 1.739199e+01
1	 1.025117e+00	 4.452749e-01	 1.624302e+01
1	 1.016544e+00	 4.645141e-01	 1.504298e+01
1	 1.007579e+00	 4.836530e-01	 1.379140e+01
1	 9.545482e-01	 4.581976e-01	 1.556651e+01
1	 9.456843e-01	 4.762232e-01	 1.432988e+01
1	 9.364513e-01	 4.941318e-01	 1.307134e+01
1	 9.268511e-01	 5.119124e-01	 1.179139e+01
1	 9.168861e-01	 5.295538e-01	 1.049064e+01
1	 9.065589e-01	 5.470451e-01	 9.169780e+00
1	 9.651543e-01	 4.632887e-01	 1.522988e+01
1	 9.561919e-01	 4.815146e-01	 1.398886e+01
1	 9.468563e-01	 4.996222e-01	 1.272406e+01
1	 9.371495e-01	 5.176003e-01	 1.143605e+01
1	 9.270737e-01	 5.354377e-01	 1.012552e+01
1	 9.166317e-01	 5.531233e-01	 8.793293e+00
1	 9.757604e-01	 4.683797e-01	 1.488508e+01
1	 9.666995e-01	 4.868060e-01	 1.363639e+01
1	 9.572613e-01	 5.051125e-01	 1.236226e+01
1	 9.474478e-01	 5.232882e-01	 1.106347e+01
1	 9.372613e-01	 5.413216e-01	 9.740935e+00
1	 9.267046e-01	 5.592016e-01	 8.395741e+00
1	 9.863665e-01	 4.734708e-01	 1.453107e+01
1	 9.772071e-01	 4.920973e-01	 1.327136e+01
1	 9.676663e-01	 5.106029e-01	 1.198493e+01
1	 9.577462e-01	 5.289761e-01	 1.067283e+01
1	 9.474489e-01	 5.472056e-01	 9.336373e+00
1	 9.367775e-01	 5.652799e-01	 7.977069e+00
1	 9.969726e-01	 4.785619e-01	 1.416684e+01
1	 9.877147e-01	 4.973887e-01	 1.289272e+01
1	 9.780713e-01	 5.160932e-01	 1.159105e+01
1	 9.680445e-01	 5.346640e-01	 1.026333e+01
1	 9.576366e-01	 5.530895e-01	 8.911356e+00
1	 9.468504e-01	 5.713582e-01	 7.537223e+00
1	 1.007579e+00	 4.836530e-01	 1.379140e+01
1	 9.982223e-01	 5.026801e-01	 1.249943e+01
1	 9.884764e-01	 5.215836e-01	 1.117969e+01
1	 9.783428e-01	 5.403519e-01	 9.834214e+00
1	 9.678242e-01	 5.589734e-01	 8.465423e+00
1	 9.569232e-01	 5.774365e-01	 7.076155e+00
1	 9.065589e-01	 5.470451e-01	 9.169780e+00
1	 8.958727e-01	 5.643753e-01	 7.856224e+00
1	 8.848310e-01	 5.815336e-01	 6.581744e+00
1	 8.734381e-01	 5.985092e-01	 5.354240e+00
1	 8.616982e-01	 6.152914e-01	 4.182433e+00
1	 8.496162e-01	 6.318699e-01	 3.075831e+00
1	 9.166317e-01	 5.531233e-01	 8.793293e+00
1	 9.058268e-01	 5.706461e-01	 7.469953e+00
1	 8.946625e-01	 5.879951e-01	 6.190441e+00
1	 8.831429e-01	 6.051593e-01	 4.962817e+00
1	 8.712726e-01	 6.221280e-01	 3.795987e+00
1	 8.590564e-01	 6.388906e-01	 2.699670e+00
1	 9.267046e-01	 5.592016e-01	 8.395741e+00
1	 9.157809e-01	 5.769170e-01	 7.061726e+00
1	 9.044939e-01	 5.944565e-01	 5.776861e+00
1	 8.928478e-01	 6.118094e-01	 4.549215e+00
1	 8.808470e-01	 6.289646e-01	 3.387710e+00
1	 8.684966e-01	 6.459114e-01	 2.302083e+00
1	 9.367775e-01	 5.652799e-01	 7.977069e+00
1	 9.257351e-01	 5.831878e-01	 6.631917e+00
1	 9.143254e-01	 6.009180e-01	 5.341648e+00
1	 9.025527e-01	 6.184595e-01	 4.114199e+00
1	 8.904214e-01	 6.358012e-01	 2.958340e+00
1	 8.779368e-01	 6.529322e-01	 1.883642e+00
1	 9.468504e-01	 5.713582e-01	 7.537223e+00
1	 9.356892e-01	 5.894586e-01	 6.180881e+00
1	 9.241569e-01	 6.073795e-01	 4.885418e+00
1	 9.122575e-01	 6.251096e-01	 3.658498e+00
1	 8.999959e-01	 6.426377e-01	 2.508582e+00
1	 8.873770e-01	 6.599530e-01	 1.444893e+00
1	 9.569232e-01	 5.774365e-01	 7.076155e+00
1	 9.456434e-01	 5.957295e-01	 5.708962e+00
1	 9.339883e-01	 6.138410e-01	 4.408762e+00
1	 9.219624e-01	 6.317597e-01	 3.182814e+00
1	 9.095703e-01	 6.494743e-01	 2.039113e+00
1	 8.968171e-01	 6.669737e-01	 9.863591e-01
1	 8.496162e-01	 6.318699e-01	 3.075831e+00
1	 8.371976e-01	 6.482341e-01	 2.039689e+00
1	 8.244479e-01	 6.643740e-01	 1.074150e+00
1	 8.113734e-01	 6.802797e-01	 1.815079e-01
1	 7.979805e-01	 6.959413e-01	-6.361048e-01
1	 7.842762e-01	 7.113495e-01	-1.376722e+00
1	 8.590564e-01	 6.388906e-01	 2.699670e+00
1	 8.464998e-01	 6.554367e-01	 1.676213e+00
1	 8.336085e-01	 6.717560e-01	 7.225762e-01
1	 8.203887e-01	 6.878383e-01	-1.591515e-01
1	 8.068470e-01	 7.036740e-01	-9.670622e-01
1	 7.929904e-01	 7.192534e-01	-1.699439e+00
1	 8.684966e-01	 6.459114e-01	 2.302083e+00
1	 8.558020e-01	 6.626393e-01	 1.291499e+00
1	 8.427690e-01	 6.791379e-01	 3.496352e-01
1	 8.294039e-01	 6.953970e-01	-5.215518e-01
1	 8.157134e-01	 7.114067e-01	-1.320303e+00
1	 8.017045e-01	 7.271573e-01	-2.045060e+00
1	 8.779368e-01	 6.529322e-01	 1.883642e+00
1	 8.651042e-01	 6.698419e-01	 8.859186e-01
1	 8.519295e-01	 6.865198e-01	-4.442479e-02
1	 8.384192e-01	 7.029557e-01	-9.055015e-01
1	 8.245799e-01	 7.191394e-01	-1.695624e+00
1	 8.104187e-01	 7.350612e-01	-2.413311e+00
1	 8.873770e-01	 6.599530e-01	 1.444893e+00
1	 8.744064e-01	 6.770445e-01	 4.598306e-01
1	 8.610901e-01	 6.939018e-01	-4.593667e-01
1	 8.474345e-01	 7.105143e-01	-1.310817e+00
1	 8.334463e-01	 7.268721e-01	-2.092833e+00
1	 8.191329e-01	 7.429651e-01	-2.803926e+00
1	 8.968171e-01	 6.669737e-01	 9.863591e-01
1	 8.837086e-01	 6.842471e-01	 1.357714e-02
1	 8.702506e-01	 7.012837e-01	-8.949632e-01
1	 8.564497e-01	 7.180730e-01	-1.737324e+00
1	 8.423128e-01	 7.346048e-01	-2.511745e+00
1	 8.278471e-01	 7.508689e-01	-3.216652e+00
1	 7.842762e-01	 7.113495e-01	-1.376722e+00
1	 7.702676e-01	 7.264950e-01	-2.060327e+00
1	 7.559626e-01	 7.413689e-01	-2.705326e+00
1	 7.413689e-01	 7.559626e-01	-3.307613e+00
1	 7.264950e-01	 7.702676e-01	-3.863206e+00
1	 7.113495e-01	 7.842762e-01	-4.368265e+00
1	 7.929904e-01	 7.192534e-01	-1.699439e+00
1	 7.788262e-01	 7.345672e-01	-2.376392e+00
1	 7.643621e-01	 7.496064e-01	-3.016331e+00
1	 7.496064e-01	 7.643621e-01	-3.615216e+00
1	 7.345672e-01	 7.788262e-01	-4.169133e+00
1	 7.192534e-01	 7.929904e-01	-4.674305e+00
1	 8.017045e-01	 7.271573e-01	-2.045060e+00
1	 7.873847e-01	 7.426394e-01	-2.715929e+00
1	 7.727617e-01	 7.578438e-01	-3.351258e+00
1	 7.578438e-01	 7.727617e-01	-3.947092e+00
1	 7.426394e-01	 7.873847e-01	-4.499600e+00
1	 7.271573e-01	 8.017045e-01	-5.005089e+00
1	 8.104187e-01	 7.350612e-01	-2.413311e+00
1	 7.959432e-01	 7.507115e-01	-3.078562e+00
1	 7.811613e-01	 7.660812e-01	-3.709637e+00
1	 7.660812e-01	 7.811613e-01	-4.302684e+00
1	 7.507115e-01	 7.959432e-01	-4.853973e+00
1	 7.350612e-01	 8.104187e-01	-5.359909e+00
1	 8.191329e-01	 7.429651e-01	-2.803926e+00
1	 8.045018e-01	 7.587837e-01	-3.463928e+00
1	 7.895609e-01	 7.743186e-01	-4.091018e+00
1	 7.743186e-01	 7.895609e-01	-4.681461e+00
1	 7.587837e-01	 8.045018e-01	-5.231644e+00
1	 7.429651e-01	 8.191329e-01	-5.738090e+00
1	 8.278471e-01	 7.508689e-01	-3.216652e+00
1	 8.130603e-01	 7.668559e-01	-3.871681e+00
1	 7.979605e-01	 7.825561e-01	-4.494969e+00
1	 7.825561e-01	 7.979605e-01	-5.082912e+00
1	 7.668559e-01	 8.130603e-01	-5.632031e+00
1	 7.508689e-01	 8.278471e-01	-6.138985e+00
1	 7.113495e-01	 7.842762e-01	-4.368265e+00
1	 6.959413e-01	 7.979805e-01	-4.839771e+00
1	 6.802797e-01	 8.113734e-01	-5.296283e+00
1	 6.643740e-01	 8.244479e-01	-5.736680e+00
1	 6.482341e-01	 8.371976e-01	-6.160145e+00
1	 6.318699e-01	 8.496162e-01	-6.566155e+00
1	 7.192534e-01	 7.929904e-01	-4.674305e+00
1	 7.036740e-01	 8.068470e-01	-5.148445e+00
1	 6.878383e-01	 8.203887e-01	-5.610594e+00
1	 6.717560e-01	 8.336085e-01	-6.059289e+00
1	 6.554367e-01	 8.464998e-01	-6.493343e+00
1	 6.388906e-01	 8.590564e-01	-6.911835e+00
1	 7.271573e-01	 8.017045e-01	-5.005089e+00
1	 7.114067e-01	 8.157134e-01	-5.481937e+00
1	 6.953970e-01	 8.294039e-01	-5.949635e+00
1	 6.791379e-01	 8.427690e-01	-6.406458e+00
1	 6.626393e-01	 8.558020e-01	-6.850933e+00
1	 6.459114e-01	 8.684966e-01	-7.281834e+00
1	 7.350612e-01	 8.104187e-01	-5.359909e+00
1	 7.191394e-01	 8.245799e-01	-5.839499e+00
1	 7.029557e-01	 8.384192e-01	-6.312677e+00
1	 6.865198e-01	 8.519295e-01	-6.777530e+00
1	 6.698419e-01	 8.651042e-01	-7.232382e+00
1	 6.529322e-01	 8.779368e-01	-7.675794e+00
1	 7.429651e-01	 8.191329e-01	-5.738090e+00
1	 7.268721e-01	 8.334463e-01	-6.220418e+00
1	 7.105143e-01	 8.474345e-01	-6.699022e+00
1	 6.939018e-01	 8.610901e-01	-7.171875e+00
1	 6.770445e-01	 8.744064e-01	-7.637181e+00
1	 6.599530e-01	 8.873770e-01	-8.093371e+00
1	 7.508689e-01	 8.278471e-01	-6.138985e+00
1	 7.346048e-01	 8.423128e-01	-6.624010e+00
1	 7.180730e-01	 8.564497e-01	-7.108003e+00
1	 7.012837e-01	 8.702506e-01	-7.588893e+00
1	 6.842471e-01	 8.837086e-01	-8.064842e+00
1	 6.669737e-01	 8.968171e-01	-8.534235e+00
1	 6.318699e-01	 8.496162e-01	-6.566155e+00
1	 6.152914e-01	 8.616982e-01	-6.958882e+00
1	 5.985092e-01	 8.734381e-01	-7.344738e+00
1	 5.815336e-01	 8.848310e-01	-7.727172e+00
1	 5.643753e-01	 8.958727e-01	-8.110135e+00
1	 5.470451e-01	 9.065589e-01	-8.498038e+00
1	 6.388906e-01	 8.590564e-01	-6.911835e+00
1	 6.221280e-01	 8.712726e-01	-7.319881e+00
1	 6.051593e-01	 8.831429e-01	-7.725085e+00
1	 5.879951e-01	 8.946625e-01	-8.130865e+00
1	 5.706461e-01	 9.058268e-01	-8.541148e+00
1	 5.531233e-01	 9.166317e-01	-8.960337e+00
1	 6.459114e-01	 8.684966e-01	-7.281834e+00
1	 6.289646e-01	 8.808470e-01	-7.705384e+00
1	 6.118094e-01	 8.928478e-01	-8.130400e+00
1	 5.944565e-01	 9.044939e-01	-8.560142e+00
1	 5.769170e-01	 9.157809e-01	-8.998380e+00
1	 5.592016e-01	 9.267046e-01	-9.449360e+00
1	 6.529322e-01	 8.779368e-01	-7.675794e+00
1	 6.358012e-01	 8.904214e-01	-8.115180e+00
1	 6.184595e-01	 9.025527e-01	-8.560521e+00
1	 6.009180e-01	 9.143254e-01	-9.014799e+00
1	 5.831878e-01	 9.257351e-01	-9.481497e+00
1	 5.652799e-01	 9.367775e-01	-9.964558e+00
1	 6.599530e-01	 8.873770e-01	-8.093371e+00
1	 6.426377e-01	 8.999959e-01	-8.549065e+00
1	 6.251096e-01	 9.122575e-01	-9.015293e+00
1	 6.073795e-01	 9.241569e-01	-9.494642e+00
1	 5.894586e-01	 9.356892e-01	-9.990179e+00
1	 5.713582e-01	 9.468504e-01	-1.050541e+01
1	 6.669737e-01	 8.968171e-01	-8.534235e+00
1	 6.494743e-01	 9.095703e-01	-9.006846e+00
1	 6.317597e-01	 9.219624e-01	-9.494568e+00
1	 6.138410e-01	 9.339883e-01	-9.999484e+00
1	 5.957295e-01	 9.456434e-01	-1.052412e+01
1	 5.774365e-01	 9.569232e-01	-1.107140e+01
1	 5.470451e-01	 9.065589e-01	-8.498038e+00
1	 5.295538e-01	 9.168861e-01	-8.887076e+00
1	 5.119124e-01	 9.268511e-01	-9.271062e+00
1	 4.941318e-01	 9.364513e-01	-9.651243e+00
1	 4.762232e-01	 9.456843e-01	-1.002898e+01
1	 4.581976e-01	 9.545482e-01	-1.040572e+01
1	 5.531233e-01	 9.166317e-01	-8.960337e+00
1	 5.354377e-01	 9.270737e-01	-9.383479e+00
1	 5.176003e-01	 9.371495e-01	-9.803242e+00
1	 4.996222e-01	 9.468563e-01	-1.022088e+01
1	 4.815146e-01	 9.561919e-01	-1.063774e+01
1	 4.632887e-01	 9.651543e-01	-1.105527e+01
1	 5.592016e-01	 9.267046e-01	-9.449360e+00
1	 5.413216e-01	 9.372613e-01	-9.906879e+00
1	 5.232882e-01	 9.474478e-01	-1.036256e+01
1	 5.051125e-01	 9.572613e-01	-1.081781e+01
1	 4.868060e-01	 9.666995e-01	-1.127413e+01
1	 4.683797e-01	 9.757604e-01	-1.173316e+01
1	 5.652799e-01	 9.367775e-01	-9.964558e+00
1	 5.472056e-01	 9.474489e-01	-1.045652e+01
1	 5.289761e-01	 9.577462e-01	-1.094815e+01
1	 5.106029e-01	 9.676663e-01	-1.144115e+01
1	 4.920973e-01	 9.772071e-01	-1.193734e+01
1	 4.734708e-01	 9.863665e-01	-1.243868e+01
1	 5.713582e-01	 9.468504e-01	-1.050541e+01
1	 5.530895e-01	 9.576366e-01	-1.103169e+01
1	 5.346640e-01	 9.680445e-01	-1.155919e+01
1	 5.160932e-01	 9.780713e-01	-1.209004e+01
1	 4.973887e-01	 9.877147e-01	-1.262655e+01
1	 4.785619e-01	 9.969726e-01	-1.317116e+01
1	 5.774365e-01	 9.569232e-01	-1.107140e+01
1	 5.589734e-01	 9.678242e-01	-1.163168e+01
1	 5.403519e-01	 9.783428e-01	-1.219487e+01
1	 5.215836e-01	 9.884764e-01	-1.276368e+01
1	 5.026801e-01	 9.982223e-01	-1.334102e+01
1	 4.836530e-01	 1.007579e+00	-1.392998e+01
1	 4.581976e-01	 9.545482e-01	-1.040572e+01
1	 4.400660e-01	 9.630417e-01	-1.078211e+01
1	 4.218394e-01	 9.711636e-01	-1.115763e+01
1	 4.035288e-01	 9.789136e-01	-1.153204e+01
1	 3.851452e-01	 9.862913e-01	-1.190515e+01
1	 3.666993e-01	 9.932970e-01	-1.227680e+01
1	 4.632887e-01	 9.651543e-01	-1.105527e+01
1	 4.449556e-01	 9.737421e-01	-1.147394e+01
1	 4.265265e-01	 9.819543e-01	-1.189285e+01
1	 4.080125e-01	 9.897904e-01	-1.231152e+01
1	 3.894246e-01	 9.972501e-01	-1.272948e+01
1	 3.707737e-01	 1.004334e+00	-1.314631e+01
1	 4.683797e-01	 9.757604e-01	-1.173316e+01
1	 4.498452e-01	 9.844426e-01	-1.219518e+01
1	 4.312136e-01	 9.927451e-01	-1.265877e+01
1	 4.124961e-01	 1.000667e+00	-1.312300e+01
1	 3.937040e-01	 1.008209e+00	-1.358696e+01
1	 3.748482e-01	 1.015370e+00	-1.404977e+01
1	 4.734708e-01	 9.863665e-01	-1.243868e+01
1	 4.547348e-01	 9.951430e-01	-1.294528e+01
1	 4.359007e-01	 1.003536e+00	-1.345489e+01
1	 4.169798e-01	 1.011544e+00	-1.396599e+01
1	 3.979833e-01	 1.019168e+00	-1.447703e+01
1	 3.789226e-01	 1.026407e+00	-1.498651e+01
1	 4.785619e-01	 9.969726e-01	-1.317116e+01
1	 4.596244e-01	 1.005844e+00	-1.372369e+01
1	 4.405878e-01	 1.014326e+00	-1.428074e+01
1	 4.214634e-01	 1.022421e+00	-1.484001e+01
1	 4.022627e-01	 1.030126e+00	-1.539918e+01
1	 3.829971e-01	 1.037444e+00	-1.595590e+01
1	 4.836530e-01	 1.007579e+00	-1.392998e+01
1	 4.645141e-01	 1.016544e+00	-1.452991e+01
1	 4.452749e-01	 1.025117e+00	-1.513587e+01
1	 4.259471e-01	 1.033298e+00	-1.574463e+01
1	 4.065421e-01	 1.041085e+00	-1.635289e+01
1	 3.870715e-01	 1.048480e+00	-1.695734e+01
1	 3.666993e-01	 9.932970e-01	-1.227680e+01
1	 3.482019e-01	 9.999313e-01	-1.264451e+01
1	 3.296637e-01	 1.006195e+00	-1.300586e+01
1	 3.110950e-01	 1.012090e+00	-1.336078e+01
1	 2.925062e-01	 1.017618e+00	-1.370923e+01
1	 2.739075e-01	 1.022781e+00	-1.405121e+01
1	 3.707737e-01	 1.004334e+00	-1.314631e+01
1	 3.520708e-01	 1.011042e+00	-1.355927e+01
1	 3.333266e-01	 1.017375e+00	-1.396556e+01
1	 3.145516e-01	 1.023336e+00	-1.436472e+01
1	 2.957563e-01	 1.028925e+00	-1.475635e+01
1	 2.769509e-01	 1.034146e+00	-1.514003e+01
1	 3.748482e-01	 1.015370e+00	-1.404977e+01
1	 3.559398e-01	 1.022152e+00	-1.450829e+01
1	 3.369895e-01	 1.028555e+00	-1.495943e+01
1	 3.180082e-01	 1.034581e+00	-1.540247e+01
1	 2.990064e-01	 1.040232e+00	-1.583674e+01
1	 2.799944e-01	 1.045510e+00	-1.626159e+01
1	 3.789226e-01	 1.026407e+00	-1.498651e+01
1	 3.598087e-01	 1.033262e+00	-1.549077e+01
1	 3.406525e-01	 1.039735e+00	-1.598656e+01
1	 3.214648e-01	 1.045827e+00	-1.647303e+01
1	 3.022564e-01	 1.051539e+00	-1.694934e+01
1	 2.830378e-01	 1.056874e+00	-1.741471e+01
1	 3.829971e-01	 1.037444e+00	-1.595590e+01
1	 3.636776e-01	 1.044373e+00	-1.650597e+01
1	 3.443154e-01	 1.050915e+00	-1.704612e+01
1	 3.249214e-01	 1.057072e+00	-1.757545e+01
1	 3.055065e-01	 1.062846e+00	-1.809311e+01
1	 2.860812e-01	 1.068238e+00	-1.859827e+01
1	 3.870715e-01	 1.048480e+00	-1.695734e+01
1	 3.675465e-01	 1.055483e+00	-1.755317e+01
1	 3.479783e-01	 1.062095e+00	-1.813727e+01
1	 3.283780e-01	 1.068318e+00	-1.870883e+01
1	 3.087566e-01	 1.074153e+00	-1.926706e+01
1	 2.891246e-01	 1.079603e+00	-1.981120e+01
1	 2.739075e-01	 1.022781e+00	-1.405121e+01
1	 2.553089e-01	 1.027582e+00	-1.438538e+01
1	 2.367201e-01	 1.032023e+00	-1.471027e+01
1	 2.181507e-01	 1.036107e+00	-1.502570e+01
1	 1.996102e-01	 1.039838e+00	-1.533153e+01
1	 1.811076e-01	 1.043220e+00	-1.562762e+01
1	 2.769509e-01	 1.034146e+00	-1.514003e+01
1	 2.581457e-01	 1.039000e+00	-1.551401e+01
1	 2.393503e-01	 1.043490e+00	-1.587638e+01
1	 2.205746e-01	 1.047619e+00	-1.622660e+01
1	 2.018281e-01	 1.051392e+00	-1.656413e+01
1	 1.831199e-01	 1.054811e+00	-1.688845e+01
1	 2.799944e-01	 1.045510e+00	-1.626159e+01
1	 2.609824e-01	 1.050417e+00	-1.667486e+01
1	 2.419805e-01	 1.054957e+00	-1.707425e+01
1	 2.229985e-01	 1.059132e+00	-1.745888e+01
1	 2.040460e-01	 1.062946e+00	-1.782792e+01
1	 1.851322e-01	 1.066402e+00	-1.818053e+01
1	 2.830378e-01	 1.056874e+00	-1.741471e+01
1	 2.638192e-01	 1.061835e+00	-1.786668e+01
1	 2.446108e-01	 1.066423e+00	-1.830259e+01
1	 2.254224e-01	 1.070644e+00	-1.872129e+01
1	 2.062638e-01	 1.074499e+00	-1.912169e+01
1	 1.871445e-01	 1.077994e+00	-1.950271e+01
1	 2.860812e-01	 1.068238e+00	-1.859827e+01
1	 2.666560e-01	 1.073252e+00	-1.908830e+01
1	 2.472410e-01	 1.077890e+00	-1.956020e+01
1	 2.278463e-01	 1.082156e+00	-2.001263e+01
1	 2.084817e-01	 1.086053e+00	-2.044428e+01
1	 1.891568e-01	 1.089585e+00	-2.085390e+01
1	 2.891246e-01	 1.079603e+00	-1.981120e+01
1	 2.694927e-01	 1.084670e+00	-2.033857e+01
1	 2.498712e-01	 1.089357e+00	-2.084591e+01
1	 2.302702e-01	 1.093668e+00	-2.133173e+01
1	 2.106996e-01	 1.097607e+00	-2.179458e+01
1	 1.911691e-01	 1.101176e+00	-2.223305e+01
1	 1.811076e-01	 1.043220e+00	-1.562762e+01
1	 1.626518e-01	 1.046256e+00	-1.591304e+01
1	 1.442515e-01	 1.048951e+00	-1.618764e+01
1	 1.259151e-01	 1.051310e+00	-1.645246e+01
1	 1.076508e-01	 1.053337e+00	-1.670854e+01
1	 8.946642e-02	 1.055037e+00	-1.695690e+01
1	 1.831199e-01	 1.054811e+00	-1.688845e+01
1	 1.644590e-01	 1.057881e+00	-1.719844e+01
1	 1.458543e-01	 1.060606e+00	-1.749406e+01
1	 1.273142e-01	 1.062991e+00	-1.777643e+01
1	 1.088469e-01	 1.065041e+00	-1.804670e+01
1	 9.046050e-02	 1.066760e+00	-1.830601e+01
1	 1.851322e-01	 1.066402e+00	-1.818053e+01
1	 1.662663e-01	 1.069506e+00	-1.851545e+01
1	 1.474571e-01	 1.072261e+00	-1.883266e+01
1	 1.287132e-01	 1.074672e+00	-1.913327e+01
1	 1.100430e-01	 1.076744e+00	-1.941839e+01
1	 9.145457e-02	 1.078482e+00	-1.968914e+01
1	 1.871445e-01	 1.077994e+00	-1.950271e+01
1	 1.680735e-01	 1.081131e+00	-1.986298e+01
1	 1.490599e-01	 1.083916e+00	-2.020243e+01
1	 1.301123e-01	 1.086354e+00	-2.052201e+01
1	 1.112392e-01	 1.088448e+00	-2.082265e+01
1	 9.244864e-02	 1.090205e+00	-2.110531e+01
1	 1.891568e-01	 1.089585e+00	-2.085390e+01
1	 1.698807e-01	 1.092756e+00	-2.124002e+01
1	 1.506627e-01	 1.095571e+00	-2.160241e+01
1	 1.315114e-01	 1.098035e+00	-2.194171e+01
1	 1.124353e-01	 1.100152e+00	-2.225856e+01
1	 9.344271e-02	 1.101928e+00	-2.255363e+01
1	 1.911691e-01	 1.101176e+00	-2.223305e+01
1	 1.716880e-01	 1.104381e+00	-2.264559e+01
1	 1.522655e-01	 1.107226e+00	-2.303167e+01
1	 1.329104e-01	 1.109716e+00	-2.339147e+01
1	 1.136314e-01	 1.111856e+00	-2.372523e+01
1	 9.443678e-02	 1.113650e+00	-2.403319e+01
1	 8.946642e-02	 1.055037e+00	-1.695690e+01
1	 7.136958e-02	 1.056415e+00	-1.719812e+01
1	 5.336760e-02	 1.057478e+00	-1.743310e+01
1	 3.546754e-02	 1.058229e+00	-1.766329e+01
1	 1.767618e-02	 1.058676e+00	-1.789014e+01
1	 0.000000e+00	 1.058824e+00	-1.811503e+01
1	 9.046050e-02	 1.066760e+00	-1.830601e+01
1	 7.216257e-02	 1.068153e+00	-1.855502e+01
1	 5.396057e-02	 1.069227e+00	-1.879462e+01
1	 3.586163e-02	 1.069987e+00	-1.902631e+01
1	 1.787258e-02	 1.070439e+00	-1.925155e+01
1	 0.000000e+00	 1.070588e+00	-1.947175e+01
1	 9.145457e-02	 1.078482e+00	-1.968914e+01
1	 7.295557e-02	 1.079891e+00	-1.994612e+01
1	 5.455355e-02	 1.080977e+00	-2.019028e+01
1	 3.625571e-02	 1.081746e+00	-2.042317e+01
1	 1.806899e-02	 1.082202e+00	-2.064631e+01
1	 0.000000e+00	 1.082353e+00	-2.086120e+01
1	 9.244864e-02	 1.090205e+00	-2.110531e+01
1	 7.374856e-02	 1.091629e+00	-2.137048e+01
1	 5.514652e-02	 1.092727e+00	-2.161913e+01
1	 3.664980e-02	 1.093504e+00	-2.185291e+01
1	 1.826539e-02	 1.093965e+00	-2.207347e+01
1	 0.000000e+00	 1.094118e+00	-2.228242e+01
1	 9.344271e-02	 1.101928e+00	-2.255363e+01
1	 7.454156e-02	 1.103367e+00	-2.282718e+01
1	 5.573949e-02	 1.104477e+00	-2.308024e+01
1	 3.704388e-02	 1.105262e+00	-2.331462e+01
1	 1.846179e-02	 1.105728e+00	-2.353211e+01
1	 0.000000e+00	 1.105882e+00	-2.373447e+01
1	 9.443678e-02	 1.113650e+00	-2.403319e+01
1	 7.533455e-02	 1.115105e+00	-2.431532e+01
1	 5.633247e-02	 1.116227e+00	-2.457273e+01
1	 3.743796e-02	 1.117020e+00	-2.480742e+01
1	 1.865819e-02	 1.117491e+00	-2.502135e+01
1	 0.000000e+00	 1.117647e+00	-2.521647e+01
1	 1.117647e+00	 0.000000e+00	 2.493715e+01
1	 1.117491e+00	 1.865819e-02	 2.539768e+01
1	 1.117020e+00	 3.743796e-02	 2.578627e+01
1	 1.116227e+00	 5.633247e-02	 2.610104e+01
1	 1.115105e+00	 7.533455e-02	 2.634017e+01
1	 1.113650e+00	 9.443678e-02	 2.650192e+01
1	 1.129412e+00	 0.000000e+00	 2.466133e+01
1	 1.129254e+00	 1.885459e-02	 2.512551e+01
1	 1.128778e+00	 3.783205e-02	 2.551728e+01
1	 1.127976e+00	 5.692544e-02	 2.583469e+01
1	 1.126843e+00	 7.612755e-02	 2.607585e+01
1	 1.125373e+00	 9.543085e-02	 2.623898e+01
1	 1.141176e+00	 0.000000e+00	 2.441235e+01
1	 1.141017e+00	 1.905100e-02	 2.487994e+01
1	 1.140536e+00	 3.822613e-02	 2.527458e+01
1	 1.139726e+00	 5.751841e-02	 2.559425e+01
1	 1.138581e+00	 7.692054e-02	 2.583702e+01
1	 1.137095e+00	 9.642492e-02	 2.600103e+01
1	 1.152941e+00	 0.000000e+00	 2.418785e+01
1	 1.152781e+00	 1.924740e-02	 2.465857e+01
1	 1.152294e+00	 3.862022e-02	 2.505575e+01
1	 1.151476e+00	 5.811139e-02	 2.537732e+01
1	 1.150319e+00	 7.771354e-02	 2.562128e+01
1	 1.148818e+00	 9.741900e-02	 2.578571e+01
1	 1.164706e+00	 0.000000e+00	 2.398553e+01
1	 1.164544e+00	 1.944380e-02	 2.445910e+01
1	 1.164052e+00	 3.901430e-02	 2.485851e+01
1	 1.163226e+00	 5.870436e-02	 2.518162e+01
1	 1.162057e+00	 7.850653e-02	 2.542635e+01
1	 1.160541e+00	 9.841307e-02	 2.559075e+01
1	 1.176471e+00	 0.000000e+00	 2.380320e+01
1	 1.176307e+00	 1.964020e-02	 2.427933e+01
1	 1.175810e+00	 3.940838e-02	 2.468065e+01
1	 1.174975e+00	 5.929733e-02	 2.500493e+01
1	 1.173795e+00	 7.929953e-02	 2.525004e+01
1	 1.172263e+00	 9.940714e-02	 2.541395e+01
1	 1.113650e+00	 9.443678e-02	 2.650192e+01
1	 1.111856e+00	 1.136314e-01	 2.658546e+01
1	 1.109716e+00	 1.329104e-01	 2.659042e+01
1	 1.107226e+00	 1.522655e-01	 2.651584e+01
1	 1.104381e+00	 1.716880e-01	 2.636086e+01
1	 1.101176e+00	 1.911691e-01	 2.612477e+01
1	 1.125373e+00	 9.543085e-02	 2.623898e+01
1	 1.123559e+00	 1.148275e-01	 2.632317e+01
1	 1.121397e+00	 1.343095e-01	 2.632805e+01
1	 1.118881e+00	 1.538683e-01	 2.625277e+01
1	 1.116006e+00	 1.734952e-01	 2.609659e+01
1	 1.112768e+00	 1.931814e-01	 2.585889e+01
1	 1.137095e+00	 9.642492e-02	 2.600103e+01
1	 1.135263e+00	 1.160237e-01	 2.608531e+01
1	 1.133079e+00	 1.357085e-01	 2.608947e+01
1	 1.130536e+00	 1.554711e-01	 2.601273e+01
1	 1.127631e+00	 1.753025e-01	 2.585443e+01
1	 1.124359e+00	 1.951937e-01	 2.561406e+01
1	 1.148818e+00	 9.741900e-02	 2.578571e+01
1	 1.146967e+00	 1.172198e-01	 2.586956e+01
1	 1.144760e+00	 1.371076e-01	 2.587242e+01
1	 1.142191e+00	 1.570739e-01	 2.579356e+01
1	 1.139257e+00	 1.771097e-01	 2.563239e+01
1	 1.135950e+00	 1.972060e-01	 2.538846e+01
1	 1.160541e+00	 9.841307e-02	 2.559075e+01
1	 1.158671e+00	 1.184159e-01	 2.567368e+01
1	 1.156441e+00	 1.385066e-01	 2.567474e+01
1	 1.153846e+00	 1.586766e-01	 2.559321e+01
1	 1.150882e+00	 1.789169e-01	 2.542854e+01
1	 1.147542e+00	 1.992183e-01	 2.518035e+01
1	 1.172263e+00	 9.940714e-02	 2.541395e+01
1	 1.170374e+00	 1.196120e-01	 2.549553e+01
1	 1.168122e+00	 1.399057e-01	 2.549435e+01
1	 1.165501e+00	 1.602794e-01	 2.540970e+01
1	 1.162507e+00	 1.807242e-01	 2.524105e+01
1	 1.159133e+00	 2.012306e-01	 2.498806e+01
1	 1.101176e+00	 1.911691e-01	 2.612477e+01
1	 1.097607e+00	 2.106996e-01	 2.580884e+01
1	 1.093668e+00	 2.302702e-01	 2.541470e+01
1	 1.089357e+00	 2.498712e-01	 2.494234e+01
1	 1.084670e+00	 2.694927e-01	 2.439188e+01
1	 1.079603e+00	 2.891246e-01	 2.376354e+01
1	 1.112768e+00	 1.931814e-01	 2.585889e+01
1	 1.109161e+00	 2.129175e-01	 2.554091e+01
1	 1.105181e+00	 2.326941e-01	 2.514417e+01
1	 1.100824e+00	 2.525014e-01	 2.466866e+01
1	 1.096087e+00	 2.723295e-01	 2.411450e+01
1	 1.090967e+00	 2.921680e-01	 2.348190e+01
1	 1.124359e+00	 1.951937e-01	 2.561406e+01
1	 1.120714e+00	 2.151354e-01	 2.529276e+01
1	 1.116693e+00	 2.351180e-01	 2.489194e+01
1	 1.112291e+00	 2.551317e-01	 2.441161e+01
1	 1.107505e+00	 2.751662e-01	 2.385192e+01
1	 1.102331e+00	 2.952114e-01	 2.321312e+01
1	 1.135950e+00	 1.972060e-01	 2.538846e+01
1	 1.132268e+00	 2.173533e-01	 2.506277e+01
1	 1.128205e+00	 2.375419e-01	 2.465654e+01
1	 1.123758e+00	 2.577619e-01	 2.416987e+01
1	 1.118923e+00	 2.780030e-01	 2.360296e+01
1	 1.113695e+00	 2.982549e-01	 2.295611e+01
1	 1.147542e+00	 1.992183e-01	 2.518035e+01
1	 1.143822e+00	 2.195712e-01	 2.484937e+01
1	 1.139718e+00	 2.399658e-01	 2.443658e+01
1	 1.135225e+00	 2.603921e-01	 2.394218e+01
1	 1.130340e+00	 2.808398e-01	 2.336646e+01
1	 1.125060e+00	 3.012983e-01	 2.270981e+01
1	 1.159133e+00	 2.012306e-01	 2.498806e+01
1	 1.155376e+00	 2.217891e-01	 2.465106e+01
1	 1.151230e+00	 2.423897e-01	 2.423071e+01
1	 1.146692e+00	 2.630223e-01	 2.372732e+01
1	 1.141758e+00	 2.836765e-01	 2.314132e+01
1	 1.136424e+00	 3.043417e-01	 2.247319e+01
1	 1.079603e+00	 2.891246e-01	 2.376354e+01
1	 1.074153e+00	 3.087566e-01	 2.306089e+01
1	 1.068318e+00	 3.283780e-01	 2.228717e+01
1	 1.062095e+00	 3.479783e-01	 2.144223e+01
1	 1.055483e+00	 3.675465e-01	 2.052601e+01
1	 1.048480e+00	 3.870715e-01	 1.953848e+01
1	 1.090967e+00	 2.921680e-01	 2.348190e+01
1	 1.085460e+00	 3.120066e-01	 2.277421e+01
1	 1.079563e+00	 3.318347e-01	 2.199451e+01
1	 1.073275e+00	 3.516413e-01	 2.114274e+01
1	 1.066593e+00	 3.714154e-01	 2.021894e+01
1	 1.059517e+00	 3.911459e-01	 1.922317e+01
1	 1.102331e+00	 2.952114e-01	 2.321312e+01
1	 1.096767e+00	 3.152567e-01	 2.249840e+01
1	 1.090809e+00	 3.352913e-01	 2.171076e+01
1	 1.084455e+00	 3.553042e-01	 2.085028e+01
1	 1.077704e+00	 3.752843e-01	 1.991715e+01
1	 1.070553e+00	 3.952204e-01	 1.891160e+01
1	 1.113695e+00	 2.982549e-01	 2.295611e+01
1	 1.108073e+00	 3.185068e-01	 2.223243e+01
1	 1.102054e+00	 3.387479e-01	 2.143492e+01
1	 1.095635e+00	 3.589671e-01	 2.056388e+01
1	 1.088814e+00	 3.791532e-01	 1.961968e+01
1	 1.081590e+00	 3.992948e-01	 1.860277e+01
1	 1.125060e+00	 3.012983e-01	 2.270981e+01
1	 1.119380e+00	 3.217568e-01	 2.197531e+01
1	 1.113300e+00	 3.422045e-01	 2.116605e+01
1	 1.106815e+00	 3.626300e-01	 2.028261e+01
1	 1.099924e+00	 3.830221e-01	 1.932559e+01
1	 1.092627e+00	 4.033692e-01	 1.829571e+01
1	 1.136424e+00	 3.043417e-01	 2.247319e+01
1	 1.130687e+00	 3.250069e-01	 2.172606e+01
1	 1.124545e+00	 3.456611e-01	 2.090323e+01
1	 1.117995e+00	 3.662930e-01	 2.000556e+01
1	 1.111035e+00	 3.868910e-01	 1.903398e+01
1	 1.103663e+00	 4.074437e-01	 1.798949e+01
1	 1.048480e+00	 3.870715e-01	 1.953848e+01
1	 1.041085e+00	 4.065421e-01	 1.849034e+01
1	 1.033298e+00	 4.259471e-01	 1.739199e+01
1	 1.025117e+00	 4.452749e-01	 1.624302e+01
1	 1.016544e+00	 4.645141e-01	 1.504298e+01
1	 1.007579e+00	 4.836530e-01	 1.379140e+01
1	 1.059517e+00	 3.911459e-01	 1.922317e+01
1	 1.052044e+00	 4.108215e-01	 1.816568e+01
1	 1.044174e+00	 4.304307e-01	 1.705614e+01
1	 1.035908e+00	 4.499620e-01	 1.589374e+01
1	 1.027244e+00	 4.694037e-01	 1.467760e+01
1	 1.018185e+00	 4.887441e-01	 1.340672e+01
1	 1.070553e+00	 3.952204e-01	 1.891160e+01
1	 1.063003e+00	 4.151009e-01	 1.784322e+01
1	 1.055051e+00	 4.349144e-01	 1.672068e+01
1	 1.046699e+00	 4.546491e-01	 1.554276e+01
1	 1.037945e+00	 4.742933e-01	 1.430807e+01
1	 1.028791e+00	 4.938352e-01	 1.301506e+01
1	 1.081590e+00	 3.992948e-01	 1.860277e+01
1	 1.073962e+00	 4.193803e-01	 1.752194e+01
1	 1.065928e+00	 4.393980e-01	 1.638466e+01
1	 1.057489e+00	 4.593362e-01	 1.518922e+01
1	 1.048645e+00	 4.791829e-01	 1.393371e+01
1	 1.039397e+00	 4.989262e-01	 1.261601e+01
1	 1.092627e+00	 4.033692e-01	 1.829571e+01
1	 1.084920e+00	 4.236597e-01	 1.720087e+01
1	 1.076805e+00	 4.438817e-01	 1.604713e+01
1	 1.068280e+00	 4.640233e-01	 1.483229e+01
1	 1.059346e+00	 4.840725e-01	 1.355388e+01
1	 1.050003e+00	 5.040173e-01	 1.220916e+01
1	 1.103663e+00	 4.074437e-01	 1.798949e+01
1	 1.095879e+00	 4.279391e-01	 1.687905e+01
1	 1.087682e+00	 4.483653e-01	 1.570720e+01
1	 1.079071e+00	 4.687104e-01	 1.447120e+01
1	 1.070046e+00	 4.889622e-01	 1.316795e+01
1	 1.060609e+00	 5.091084e-01	 1.179410e+01
1	 1.007579e+00	 4.836530e-01	 1.379140e+01
1	 9.982223e-01	 5.026801e-01	 1.249943e+01
1	 9.884764e-01	 5.215836e-01	 1.117969e+01
1	 9.783428e-01	 5.403519e-01	 9.834214e+00
1	 9.678242e-01	 5.589734e-01	 8.465423e+00
1	 9.569232e-01	 5.774365e-01	 7.076155e+00
1	 1.018185e+00	 4.887441e-01	 1.340672e+01
1	 1.008730e+00	 5.079714e-01	 1.209374e+01
1	 9.988814e-01	 5.270740e-01	 1.075353e+01
1	 9.886412e-01	 5.460399e-01	 9.388739e+00
1	 9.780118e-01	 5.648574e-01	 8.002509e+00
1	 9.669961e-01	 5.835147e-01	 6.598508e+00
1	 1.028791e+00	 4.938352e-01	 1.301506e+01
1	 1.019237e+00	 5.132628e-01	 1.167844e+01
1	 1.009286e+00	 5.325643e-01	 1.031592e+01
1	 9.989395e-01	 5.517278e-01	 8.930824e+00
1	 9.881994e-01	 5.707413e-01	 7.527083e+00
1	 9.770690e-01	 5.895930e-01	 6.109249e+00
1	 1.039397e+00	 4.989262e-01	 1.261601e+01
1	 1.029745e+00	 5.185542e-01	 1.125337e+01
1	 1.019691e+00	 5.380547e-01	 9.866911e+00
1	 1.009238e+00	 5.574157e-01	 8.460692e+00
1	 9.983871e-01	 5.766252e-01	 7.039491e+00
1	 9.871419e-01	 5.956713e-01	 5.608792e+00
1	 1.050003e+00	 5.040173e-01	 1.220916e+01
1	 1.040253e+00	 5.238455e-01	 1.081837e+01
1	 1.030096e+00	 5.435450e-01	 9.406549e+00
1	 1.019536e+00	 5.631036e-01	 7.978556e+00
1	 1.008575e+00	 5.825091e-01	 6.540062e+00
1	 9.972147e-01	 6.017496e-01	 5.097538e+00
1	 1.060609e+00	 5.091084e-01	 1.179410e+01
1	 1.050760e+00	 5.291369e-01	 1.037328e+01
1	 1.040501e+00	 5.490354e-01	 8.934884e+00
1	 1.029835e+00	 5.687915e-01	 7.484619e+00
1	 1.018762e+00	 5.883931e-01	 6.029113e+00
1	 1.007288e+00	 6.078278e-01	 4.575869e+00
1	 9.569232e-01	 5.774365e-01	 7.076155e+00
1	 9.456434e-01	 5.957295e-01	 5.708962e+00
1	 9.339883e-01	 6.138410e-01	 4.408762e+00
1	 9.219624e-01	 6.317597e-01	 3.182814e+00
1	 9.095703e-01	 6.494743e-01	 2.039113e+00
1	 8.968171e-01	 6.669737e-01	 9.863591e-01
1	 9.669961e-01	 5.835147e-01	 6.598508e+00
1	 9.555975e-01	 6.020003e-01	 5.221409e+00
1	 9.438198e-01	 6.203025e-01	 3.917329e+00
1	 9.316673e-01	 6.384098e-01	 2.692998e+00
1	 9.191447e-01	 6.563109e-01	 1.555815e+00
1	 9.062573e-01	 6.739945e-01	 5.138074e-01
1	 9.770690e-01	 5.895930e-01	 6.109249e+00
1	 9.655516e-01	 6.082711e-01	 4.723563e+00
1	 9.536512e-01	 6.267640e-01	 3.416693e+00
1	 9.413721e-01	 6.450599e-01	 2.194737e+00
1	 9.287191e-01	 6.631474e-01	 1.064379e+00
1	 9.156975e-01	 6.810153e-01	 3.286135e-02
1	 9.871419e-01	 5.956713e-01	 5.608792e+00
1	 9.755058e-01	 6.145420e-01	 4.215868e+00
1	 9.634827e-01	 6.332255e-01	 2.907300e+00
1	 9.510770e-01	 6.517100e-01	 1.688446e+00
1	 9.382935e-01	 6.699840e-01	 5.651680e-01
1	 9.251377e-01	 6.880361e-01	-4.561954e-01
1	 9.972147e-01	 6.017496e-01	 5.097538e+00
1	 9.854599e-01	 6.208128e-01	 3.698754e+00
1	 9.733141e-01	 6.396869e-01	 2.389576e+00
1	 9.607819e-01	 6.583601e-01	 1.174522e+00
1	 9.478680e-01	 6.768206e-01	 5.852604e-02
1	 9.345779e-01	 6.950568e-01	-9.530905e-01
1	 1.007288e+00	 6.078278e-01	 4.575869e+00
1	 9.954141e-01	 6.270836e-01	 3.172632e+00
1	 9.831456e-01	 6.461484e-01	 1.863931e+00
1	 9.704867e-01	 6.650102e-01	 6.533493e-01
1	 9.574424e-01	 6.836572e-01	-4.552146e-01
1	 9.440180e-01	 7.020776e-01	-1.457562e+00
1	 8.968171e-01	 6.669737e-01	 9.863591e-01
1	 8.837086e-01	 6.842471e-01	 1.357714e-02
1	 8.702506e-01	 7.012837e-01	-8.949632e-01
1	 8.564497e-01	 7.180730e-01	-1.737324e+00
1	 8.423128e-01	 7.346048e-01	-2.511745e+00
1	 8.278471e-01	 7.508689e-01	-3.216652e+00
1	 9.062573e-01	 6.739945e-01	 5.138074e-01
1	 8.930108e-01	 6.914497e-01	-4.472231e-01
1	 8.794111e-01	 7.086656e-01	-1.345682e+00
1	 8.654650e-01	 7.256317e-01	-2.179506e+00
1	 8.511792e-01	 7.423374e-01	-2.946791e+00
1	 8.365612e-01	 7.587728e-01	-3.645790e+00
1	 9.156975e-01	 6.810153e-01	 3.286135e-02
1	 9.023130e-01	 6.986523e-01	-9.170231e-01
1	 8.885717e-01	 7.160476e-01	-1.806006e+00
1	 8.744802e-01	 7.331903e-01	-2.631828e+00
1	 8.600457e-01	 7.500701e-01	-3.392357e+00
1	 8.452754e-01	 7.666767e-01	-4.085595e+00
1	 9.251377e-01	 6.880361e-01	-4.561954e-01
1	 9.116152e-01	 7.058549e-01	-1.395606e+00
1	 8.977322e-01	 7.234295e-01	-2.275748e+00
1	 8.834955e-01	 7.407490e-01	-3.094095e+00
1	 8.689121e-01	 7.578028e-01	-3.848210e+00
1	 8.539896e-01	 7.745806e-01	-4.535761e+00
1	 9.345779e-01	 6.950568e-01	-9.530905e-01
1	 9.209173e-01	 7.130575e-01	-1.882762e+00
1	 9.068927e-01	 7.308114e-01	-2.754726e+00
1	 8.925108e-01	 7.483077e-01	-3.566118e+00
1	 8.777786e-01	 7.655355e-01	-4.314124e+00
1	 8.627038e-01	 7.824845e-01	-4.995996e+00
1	 9.440180e-01	 7.020776e-01	-1.457562e+00
1	 9.302195e-01	 7.202601e-01	-2.378293e+00
1	 9.160533e-01	 7.381934e-01	-3.242768e+00
1	 9.015260e-01	 7.558663e-01	-4.047718e+00
1	 8.866450e-01	 7.732682e-01	-4.789883e+00
1	 8.714180e-01	 7.903884e-01	-5.466019e+00
1	 8.278471e-01	 7.508689e-01	-3.216652e+00
1	 8.130603e-01	 7.668559e-01	-3.871681e+00
1	 7.979605e-01	 7.825561e-01	-4.494969e+00
1	 7.825561e-01	 7.979605e-01	-5.082912e+00
1	 7.668559e-01	 8.130603e-01	-5.632031e+00
1	 7.508689e-01	 8.278471e-01	-6.138985e+00
1	 8.365612e-01	 7.587728e-01	-3.645790e+00
1	 8.216188e-01	 7.749280e-01	-4.295953e+00
1	 8.063601e-01	 7.907935e-01	-4.915459e+00
1	 7.907935e-01	 8.063601e-01	-5.500877e+00
1	 7.749280e-01	 8.216188e-01	-6.048903e+00
1	 7.587728e-01	 8.365612e-01	-6.556375e+00
1	 8.452754e-01	 7.666767e-01	-4.085595e+00
1	 8.301773e-01	 7.830002e-01	-4.730840e+00
1	 8.147596e-01	 7.990309e-01	-5.346455e+00
1	 7.990309e-01	 8.147596e-01	-5.929241e+00
1	 7.830002e-01	 8.301773e-01	-6.476137e+00
1	 7.666767e-01	 8.452754e-01	-6.984229e+00
1	 8.539896e-01	 7.745806e-01	-4.535761e+00
1	 8.387359e-01	 7.910724e-01	-5.175970e+00
1	 8.231592e-01	 8.072684e-01	-5.787549e+00
1	 8.072684e-01	 8.231592e-01	-6.367593e+00
1	 7.910724e-01	 8.387359e-01	-6.913346e+00
1	 7.745806e-01	 8.539896e-01	-7.422214e+00
1	 8.627038e-01	 7.824845e-01	-4.995996e+00
1	 8.472944e-01	 7.991445e-01	-5.630985e+00
1	 8.315588e-01	 8.155058e-01	-6.238351e+00
1	 8.155058e-01	 8.315588e-01	-6.815537e+00
1	 7.991445e-01	 8.472944e-01	-7.360160e+00
1	 7.824845e-01	 8.627038e-01	-7.870009e+00
1	 8.714180e-01	 7.903884e-01	-5.466019e+00
1	 8.558529e-01	 8.072167e-01	-6.095542e+00
1	 8.399584e-01	 8.237432e-01	-6.698484e+00
1	 8.237432e-01	 8.399584e-01	-7.272696e+00
1	 8.072167e-01	 8.558529e-01	-7.816223e+00
1	 7.903884e-01	 8.714180e-01	-8.327306e+00
1	 7.508689e-01	 8.278471e-01	-6.138985e+00
1	 7.346048e-01	 8.423128e-01	-6.624010e+00
1	 7.180730e-01	 8.564497e-01	-7.108003e+00
1	 7.012837e-01	 8.702506e-01	-7.588893e+00
1	 6.842471e-01	 8.837086e-01	-8.064842e+00
1	 6.669737e-01	 8.968171e-01	-8.534235e+00
1	 7.587728e-01	 8.365612e-01	-6.556375e+00
1	 7.423374e-01	 8.511792e-01	-7.044186e+00
1	 7.256317e-01	 8.654650e-01	-7.533748e+00
1	 7.086656e-01	 8.794111e-01	-8.022963e+00
1	 6.914497e-01	 8.930108e-01	-8.509959e+00
1	 6.739945e-01	 9.062573e-01	-8.993089e+00
1	 7.666767e-01	 8.452754e-01	-6.984229e+00
1	 7.500701e-01	 8.600457e-01	-7.475100e+00
1	 7.331903e-01	 8.744802e-01	-7.970631e+00
1	 7.160476e-01	 8.885717e-01	-8.468648e+00
1	 6.986523e-01	 9.023130e-01	-8.967197e+00
1	 6.810153e-01	 9.156975e-01	-9.464546e+00
1	 7.745806e-01	 8.539896e-01	-7.422214e+00
1	 7.578028e-01	 8.689121e-01	-7.916465e+00
1	 7.407490e-01	 8.834955e-01	-8.418375e+00
1	 7.234295e-01	 8.977322e-01	-8.925648e+00
1	 7.058549e-01	 9.116152e-01	-9.436203e+00
1	 6.880361e-01	 9.251377e-01	-9.948167e+00
1	 7.824845e-01	 8.627038e-01	-7.870009e+00
1	 7.655355e-01	 8.777786e-01	-8.368005e+00
1	 7.483077e-01	 8.925108e-01	-8.876714e+00
1	 7.308114e-01	 9.068927e-01	-9.393678e+00
1	 7.130575e-01	 9.209173e-01	-9.916638e+00
1	 6.950568e-01	 9.345779e-01	-1.044353e+01
1	 7.903884e-01	 8.714180e-01	-8.327306e+00
1	 7.732682e-01	 8.866450e-01	-8.829456e+00
1	 7.558663e-01	 9.015260e-01	-9.345395e+00
1	 7.381934e-01	 9.160533e-01	-9.872462e+00
1	 7.202601e-01	 9.302195e-01	-1.040818e+01
1	 7.020776e-01	 9.440180e-01	-1.095023e+01
1	 6.669737e-01	 8.968171e-01	-8.534235e+00
1	 6.494743e-01	 9.095703e-01	-9.006846e+00
1	 6.317597e-01	 9.219624e-01	-9.494568e+00
1	 6.138410e-01	 9.339883e-01	-9.999484e+00
1	 5.957295e-01	 9.456434e-01	-1.052412e+01
1	 5.774365e-01	 9.569232e-01	-1.107140e+01
1	 6.739945e-01	 9.062573e-01	-8.993089e+00
1	 6.563109e-01	 9.191447e-01	-9.483138e+00
1	 6.384098e-01	 9.316673e-01	-9.992726e+00
1	 6.203025e-01	 9.438198e-01	-1.052344e+01
1	 6.020003e-01	 9.555975e-01	-1.107729e+01
1	 5.835147e-01	 9.669961e-01	-1.165665e+01
1	 6.810153e-01	 9.156975e-01	-9.464546e+00
1	 6.631474e-01	 9.287191e-01	-9.972343e+00
1	 6.450599e-01	 9.413721e-01	-1.050391e+01
1	 6.267640e-01	 9.536512e-01	-1.106050e+01
1	 6.082711e-01	 9.655516e-01	-1.164372e+01
1	 5.895930e-01	 9.770690e-01	-1.225555e+01
1	 6.880361e-01	 9.251377e-01	-9.948167e+00
1	 6.699840e-01	 9.382935e-01	-1.047396e+01
1	 6.517100e-01	 9.510770e-01	-1.102764e+01
1	 6.332255e-01	 9.634827e-01	-1.161024e+01
1	 6.145420e-01	 9.755058e-01	-1.222316e+01
1	 5.956713e-01	 9.871419e-01	-1.286811e+01
1	 6.950568e-01	 9.345779e-01	-1.044353e+01
1	 6.768206e-01	 9.478680e-01	-1.098751e+01
1	 6.583601e-01	 9.607819e-01	-1.156345e+01
1	 6.396869e-01	 9.733141e-01	-1.217231e+01
1	 6.208128e-01	 9.854599e-01	-1.281539e+01
1	 6.017496e-01	 9.972147e-01	-1.349430e+01
1	 7.020776e-01	 9.440180e-01	-1.095023e+01
1	 6.836572e-01	 9.574424e-01	-1.151254e+01
1	 6.650102e-01	 9.704867e-01	-1.211090e+01
1	 6.461484e-01	 9.831456e-01	-1.274634e+01
1	 6.270836e-01	 9.954141e-01	-1.342019e+01
1	 6.078278e-01	 1.007288e+00	-1.413412e+01
1	 5.774365e-01	 9.569232e-01	-1.107140e+01
1	 5.589734e-01	 9.678242e-01	-1.163168e+01
1	 5.403519e-01	 9.783428e-01	-1.219487e+01
1	 5.215836e-01	 9.884764e-01	-1.276368e+01
1	 5.026801e-01	 9.982223e-01	-1.334102e+01
1	 4.836530e-01	 1.007579e+00	-1.392998e+01
1	 5.835147e-01	 9.669961e-01	-1.165665e+01
1	 5.648574e-01	 9.780118e-01	-1.225114e+01
1	 5.460399e-01	 9.886412e-01	-1.285068e+01
1	 5.270740e-01	 9.988814e-01	-1.345845e+01
1	 5.079714e-01	 1.008730e+00	-1.407790e+01
1	 4.887441e-01	 1.018185e+00	-1.471267e+01
1	 5.895930e-01	 9.770690e-01	-1.225555e+01
1	 5.707413e-01	 9.881994e-01	-1.288526e+01
1	 5.517278e-01	 9.989395e-01	-1.352273e+01
1	 5.325643e-01	 1.009286e+00	-1.417135e+01
1	 5.132628e-01	 1.019237e+00	-1.483479e+01
1	 4.938352e-01	 1.028791e+00	-1.551690e+01
1	 5.956713e-01	 9.871419e-01	-1.286811e+01
1	 5.766252e-01	 9.983871e-01	-1.353419e+01
1	 5.574157e-01	 1.009238e+00	-1.421122e+01
1	 5.380547e-01	 1.019691e+00	-1.490249e+01
1	 5.185542e-01	 1.029745e+00	-1.561156e+01
1	 4.989262e-01	 1.039397e+00	-1.634223e+01
1	 6.017496e-01	 9.972147e-01	-1.349430e+01
1	 5.825091e-01	 1.008575e+00	-1.419809e+01
1	 5.631036e-01	 1.019536e+00	-1.491634e+01
1	 5.435450e-01	 1.030096e+00	-1.565196e+01
1	 5.238455e-01	 1.040253e+00	-1.640814e+01
1	 5.040173e-01	 1.050003e+00	-1.718824e+01
1	 6.078278e-01	 1.007288e+00	-1.413412e+01
1	 5.883931e-01	 1.018762e+00	-1.487712e+01
1	 5.687915e-01	 1.029835e+00	-1.563828e+01
1	 5.490354e-01	 1.040501e+00	-1.641988e+01
1	 5.291369e-01	 1.050760e+00	-1.722440e+01
1	 5.091084e-01	 1.060609e+00	-1.805454e+01
1	 4.836530e-01	 1.007579e+00	-1.392998e+01
1	 4.645141e-01	 1.016544e+00	-1.452991e+01
1	 4.452749e-01	 1.025117e+00	-1.513587e+01
1	 4.259471e-01	 1.033298e+00	-1.574463e+01
1	 4.065421e-01	 1.041085e+00	-1.635289e+01
1	 3.870715e-01	 1.048480e+00	-1.695734e+01
1	 4.887441e-01	 1.018185e+00	-1.471267e+01
1	 4.694037e-01	 1.027244e+00	-1.536126e+01
1	 4.499620e-01	 1.035908e+00	-1.601699e+01
1	 4.304307e-01	 1.044174e+00	-1.667586e+01
1	 4.108215e-01	 1.052044e+00	-1.733377e+01
1	 3.911459e-01	 1.059517e+00	-1.798656e+01
1	 4.938352e-01	 1.028791e+00	-1.551690e+01
1	 4.742933e-01	 1.037945e+00	-1.621492e+01
1	 4.546491e-01	 1.046699e+00	-1.692054e+01
1	 4.349144e-01	 1.055051e+00	-1.762944e+01
1	 4.151009e-01	 1.063003e+00	-1.833720e+01
1	 3.952204e-01	 1.070553e+00	-1.903934e+01
1	 4.989262e-01	 1.039397e+00	-1.634223e+01
1	 4.791829e-01	 1.048645e+00	-1.709015e+01
1	 4.593362e-01	 1.057489e+00	-1.784562e+01
1	 4.393980e-01	 1.065928e+00	-1.860448e+01
1	 4.193803e-01	 1.073962e+00	-1.936243e+01
1	 3.992948e-01	 1.081590e+00	-2.011512e+01
1	 5.040173e-01	 1.050003e+00	-1.718824e+01
1	 4.840725e-01	 1.059346e+00	-1.798625e+01
1	 4.640233e-01	 1.068280e+00	-1.879141e+01
1	 4.438817e-01	 1.076805e+00	-1.960013e+01
1	 4.236597e-01	 1.084920e+00	-2.040870e+01
1	 4.033692e-01	 1.092627e+00	-2.121338e+01
1	 5.091084e-01	 1.060609e+00	-1.805454e+01
1	 4.889622e-01	 1.070046e+00	-1.890255e+01
1	 4.687104e-01	 1.079071e+00	-1.975710e+01
1	 4.483653e-01	 1.087682e+00	-2.061558e+01
1	 4.279391e-01	 1.095879e+00	-2.147532e+01
1	 4.074437e-01	 1.103663e+00	-2.233360e+01
1	 3.870715e-01	 1.048480e+00	-1.695734e+01
1	 3.675465e-01	 1.055483e+00	-1.755317e+01
1	 3.479783e-01	 1.062095e+00	-1.813727e+01
1	 3.283780e-01	 1.068318e+00	-1.870883e+01
1	 3.087566e-01	 1.074153e+00	-1.926706e+01
1	 2.891246e-01	 1.079603e+00	-1.981120e+01
1	 3.911459e-01	 1.059517e+00	-1.798656e+01
1	 3.714154e-01	 1.066593e+00	-1.862911e+01
1	 3.516413e-01	 1.073275e+00	-1.925846e+01
1	 3.318347e-01	 1.079563e+00	-1.987375e+01
1	 3.120066e-01	 1.085460e+00	-2.047414e+01
1	 2.921680e-01	 1.090967e+00	-2.105881e+01
1	 3.952204e-01	 1.070553e+00	-1.903934e+01
1	 3.752843e-01	 1.077704e+00	-1.973077e+01
1	 3.553042e-01	 1.084455e+00	-2.040853e+01
1	 3.352913e-01	 1.090809e+00	-2.107134e+01
1	 3.152567e-01	 1.096767e+00	-2.171793e+01
1	 2.952114e-01	 1.102331e+00	-2.234707e+01
1	 3.992948e-01	 1.081590e+00	-2.011512e+01
1	 3.791532e-01	 1.088814e+00	-2.085782e+01
1	 3.589671e-01	 1.095635e+00	-2.158731e+01
1	 3.387479e-01	 1.102054e+00	-2.230152e+01
1	 3.185068e-01	 1.108073e+00	-2.299841e+01
1	 2.982549e-01	 1.113695e+00	-2.367597e+01
1	 4.033692e-01	 1.092627e+00	-2.121338e+01
1	 3.830221e-01	 1.099924e+00	-2.200996e+01
1	 3.626300e-01	 1.106815e+00	-2.279464e+01
1	 3.422045e-01	 1.113300e+00	-2.356423e+01
1	 3.217568e-01	 1.119380e+00	-2.431556e+01
1	 3.012983e-01	 1.125060e+00	-2.504549e+01
1	 4.074437e-01	 1.103663e+00	-2.233360e+01
1	 3.868910e-01	 1.111035e+00	-2.318689e+01
1	 3.662930e-01	 1.117995e+00	-2.403037e+01
1	 3.456611e-01	 1.124545e+00	-2.485940e+01
1	 3.250069e-01	 1.130687e+00	-2.566935e+01
1	 3.043417e-01	 1.136424e+00	-2.645563e+01
1	 2.891246e-01	 1.079603e+00	-1.981120e+01
1	 2.694927e-01	 1.084670e+00	-2.033857e+01
1	 2.498712e-01	 1.089357e+00	-2.084591e+01
1	 2.302702e-01	 1.093668e+00	-2.133173e+01
1	 2.106996e-01	 1.097607e+00	-2.179458e+01
1	 1.911691e-01	 1.101176e+00	-2.223305e+01
1	 2.921680e-01	 1.090967e+00	-2.105881e+01
1	 2.723295e-01	 1.096087e+00	-2.162491e+01
1	 2.525014e-01	 1.100824e+00	-2.216893e+01
1	 2.326941e-01	 1.105181e+00	-2.268919e+01
1	 2.129175e-01	 1.109161e+00	-2.318405e+01
1	 1.931814e-01	 1.112768e+00	-2.365195e+01
1	 2.952114e-01	 1.102331e+00	-2.234707e+01
1	 2.751662e-01	 1.107505e+00	-2.295544e+01
1	 2.551317e-01	 1.112291e+00	-2.353914e+01
1	 2.351180e-01	 1.116693e+00	-2.409620e+01
1	 2.151354e-01	 1.120714e+00	-2.462468e+01
1	 1.951937e-01	 1.124359e+00	-2.512274e+01
1	 2.982549e-01	 1.113695e+00	-2.367597e+01
1	 2.780030e-01	 1.118923e+00	-2.433012e+01
1	 2.577619e-01	 1.123758e+00	-2.495645e+01
1	 2.375419e-01	 1.128205e+00	-2.555257e+01
1	 2.173533e-01	 1.132268e+00	-2.611615e+01
1	 1.972060e-01	 1.135950e+00	-2.664495e+01
1	 3.012983e-01	 1.125060e+00	-2.504549e+01
1	 2.808398e-01	 1.130340e+00	-2.574891e+01
1	 2.603921e-01	 1.135225e+00	-2.642075e+01
1	 2.399658e-01	 1.139718e+00	-2.705811e+01
1	 2.195712e-01	 1.143822e+00	-2.765814e+01
1	 1.992183e-01	 1.147542e+00	-2.821812e+01
1	 3.043417e-01	 1.136424e+00	-2.645563e+01
1	 2.836765e-01	 1.141758e+00	-2.721177e+01
1	 2.630223e-01	 1.146692e+00	-2.793195e+01
1	 2.423897e-01	 1.151230e+00	-2.861263e+01
1	 2.217891e-01	 1.155376e+00	-2.925037e+01
1	 2.012306e-01	 1.159133e+00	-2.984181e+01
1	 1.911691e-01	 1.101176e+00	-2.223305e+01
1	 1.716880e-01	 1.104381e+00	-2.264559e+01
1	 1.522655e-01	 1.107226e+00	-2.303167e+01
1	 1.329104e-01	 1.109716e+00	-2.339147e+01
1	 1.136314e-01	 1.111856e+00	-2.372523e+01
1	 9.443678e-02	 1.113650e+00	-2.403319e+01
1	 1.931814e-01	 1.112768e+00	-2.365195e+01
1	 1.734952e-01	 1.116006e+00	-2.409116e+01
1	 1.538683e-01	 1.118881e+00	-2.450082e+01
1	 1.343095e-01	 1.121397e+00	-2.488075e+01
1	 1.148275e-01	 1.123559e+00	-2.523082e+01
1	 9.543085e-02	 1.125373e+00	-2.555093e+01
1	 1.951937e-01	 1.124359e+00	-2.512274e+01
1	 1.753025e-01	 1.127631e+00	-2.558839e+01
1	 1.554711e-01	 1.130536e+00	-2.602059e+01
1	 1.357085e-01	 1.133079e+00	-2.641905e+01
1	 1.160237e-01	 1.135263e+00	-2.678350e+01
1	 9.642492e-02	 1.137095e+00	-2.711374e+01
1	 1.972060e-01	 1.135950e+00	-2.664495e+01
1	 1.771097e-01	 1.139257e+00	-2.713666e+01
1	 1.570739e-01	 1.142191e+00	-2.759028e+01
1	 1.371076e-01	 1.144760e+00	-2.800559e+01
1	 1.172198e-01	 1.146967e+00	-2.838246e+01
1	 9.741900e-02	 1.148818e+00	-2.872082e+01
1	 1.992183e-01	 1.147542e+00	-2.821812e+01
1	 1.789169e-01	 1.150882e+00	-2.873540e+01
1	 1.586766e-01	 1.153846e+00	-2.920919e+01
1	 1.385066e-01	 1.156441e+00	-2.963963e+01
1	 1.184159e-01	 1.158671e+00	-3.002693e+01
1	 9.841307e-02	 1.160541e+00	-3.037137e+01
1	 2.012306e-01	 1.159133e+00	-2.984181e+01
1	 1.807242e-01	 1.162507e+00	-3.038402e+01
1	 1.602794e-01	 1.165501e+00	-3.087667e+01
1	 1.399057e-01	 1.168122e+00	-3.132046e+01
1	 1.196120e-01	 1.170374e+00	-3.171617e+01
1	 9.940714e-02	 1.172263e+00	-3.206463e+01
1	 9.443678e-02	 1.113650e+00	-2.403319e+01
1	 7.533455e-02	 1.115105e+00	-2.431532e+01
1	 5.633247e-02	 1.116227e+00	-2.457273e+01
1	 3.743796e-02	 1.117020e+00	-2.480742e+01
1	 1.865819e-02	 1.117491e+00	-2.502135e+01
1	 0.000000e+00	 1.117647e+00	-2.521647e+01
1	 9.543085e-02	 1.125373e+00	-2.555093e+01
1	 7.612755e-02	 1.126843e+00	-2.584079e+01
1	 5.692544e-02	 1.127976e+00	-2.610165e+01
1	 3.783205e-02	 1.128778e+00	-2.633567e+01
1	 1.885459e-02	 1.129254e+00	-2.654502e+01
1	 0.000000e+00	 1.129412e+00	-2.673184e+01
1	 9.642492e-02	 1.137095e+00	-2.711374e+01
1	 7.692054e-02	 1.138581e+00	-2.740946e+01
1	 5.751841e-02	 1.139726e+00	-2.767201e+01
1	 3.822613e-02	 1.140536e+00	-2.790375e+01
1	 1.905100e-02	 1.141017e+00	-2.810699e+01
1	 0.000000e+00	 1.141176e+00	-2.828404e+01
1	 9.741900e-02	 1.148818e+00	-2.872082e+01
1	 7.771354e-02	 1.150319e+00	-2.902049e+01
1	 5.811139e-02	 1.151476e+00	-2.928301e+01
1	 3.862022e-02	 1.152294e+00	-2.951085e+01
1	 1.924740e-02	 1.152781e+00	-2.970648e+01
1	 0.000000e+00	 1.152941e+00	-2.987234e+01
1	 9.841307e-02	 1.160541e+00	-3.037137e+01
1	 7.850653e-02	 1.162057e+00	-3.067311e+01
1	 5.870436e-02	 1.163226e+00	-3.093386e+01
1	 3.901430e-02	 1.164052e+00	-3.115621e+01
1	 1.944380e-02	 1.164544e+00	-3.134273e+01
1	 0.000000e+00	 1.164706e+00	-3.149600e+01
1	 9.940714e-02	 1.172263e+00	-3.206463e+01
1	 7.929953e-02	 1.173795e+00	-3.236655e+01
1	 5.929733e-02	 1.174975e+00	-3.262380e+01
1	 3.940838e-02	 1.175810e+00	-3.283907e+01
1	 1.964020e-02	 1.176307e+00	-3.301503e+01
1	 0.000000e+00	 1.176471e+00	-3.315434e+01
1	 1.176471e+00	 0.000000e+00	 2.380320e+01
1	 1.176307e+00	 1.964020e-02	 2.427933e+01
1	 1.175810e+00	 3.940838e-02	 2.468065e+01
1	 1.174975e+00	 5.929733e-02	 2.500493e+01
1	 1.173795e+00	 7.929953e-02	 2.525004e+01
1	 1.172263e+00	 9.940714e-02	 2.541395e+01
1	 1.188235e+00	 0.000000e+00	 2.363113e+01
1	 1.188070e+00	 1.983660e-02	 2.410923e+01
1	 1.187568e+00	 3.980247e-02	 2.451190e+01
1	 1.186725e+00	 5.989031e-02	 2.483687e+01
1	 1.185533e+00	 8.009253e-02	 2.508192e+01
1	 1.183986e+00	 1.004012e-01	 2.524499e+01
1	 1.200000e+00	 0.000000e+00	 2.346022e+01
1	 1.199833e+00	 2.003301e-02	 2.393937e+01
1	 1.199327e+00	 4.019655e-02	 2.434265e+01
1	 1.198475e+00	 6.048328e-02	 2.466769e+01
1	 1.197271e+00	 8.088552e-02	 2.491224e+01
1	 1.195709e+00	 1.013953e-01	 2.507413e+01
1	 1.211765e+00	 0.000000e+00	 2.328931e+01
1	 1.211596e+00	 2.022941e-02	 2.376861e+01
1	 1.211085e+00	 4.059063e-02	 2.417175e+01
1	 1.210225e+00	 6.107625e-02	 2.449628e+01
1	 1.209009e+00	 8.167852e-02	 2.473984e+01
1	 1.207431e+00	 1.023894e-01	 2.490022e+01
1	 1.223529e+00	 0.000000e+00	 2.311726e+01
1	 1.223359e+00	 2.042581e-02	 2.359586e+01
1	 1.222843e+00	 4.098472e-02	 2.399812e+01
1	 1.221974e+00	 6.166923e-02	 2.432152e+01
1	 1.220747e+00	 8.247151e-02	 2.456363e+01
1	 1.219154e+00	 1.033834e-01	 2.472217e+01
1	 1.235294e+00	 0.000000e+00	 2.294301e+01
1	 1.235122e+00	 2.062221e-02	 2.342004e+01
1	 1.234601e+00	 4.137880e-02	 2.382070e+01
1	 1.233724e+00	 6.226220e-02	 2.414238e+01
1	 1.232485e+00	 8.326451e-02	 2.438257e+01
1	 1.230876e+00	 1.043775e-01	 2.453891e+01
1	 1.172263e+00	 9.940714e-02	 2.541395e+01
1	 1.170374e+00	 1.196120e-01	 2.549553e+01
1	 1.168122e+00	 1.399057e-01	 2.549435e+01
1	 1.165501e+00	 1.602794e-01	 2.540970e+01
1	 1.162507e+00	 1.807242e-01	 2.524105e+01
1	 1.159133e+00	 2.012306e-01	 2.498806e+01
1	 1.183986e+00	 1.004012e-01	 2.524499e+01
1	 1.182078e+00	 1.208081e-01	 2.532493e+01
1	 1.179803e+00	 1.413048e-01	 2.532138e+01
1	 1.177156e+00	 1.618822e-01	 2.523361e+01
1	 1.174132e+00	 1.825314e-01	 2.506112e+01
1	 1.170724e+00	 2.032429e-01	 2.480362e+01
1	 1.195709e+00	 1.013953e-01	 2.507413e+01
1	 1.193782e+00	 1.220043e-01	 2.515229e+01
1	 1.191485e+00	 1.427038e-01	 2.514644e+01
1	 1.188811e+00	 1.634850e-01	 2.505589e+01
1	 1.185757e+00	 1.843387e-01	 2.488016e+01
1	 1.182316e+00	 2.052552e-01	 2.461902e+01
1	 1.207431e+00	 1.023894e-01	 2.490022e+01
1	 1.205486e+00	 1.232004e-01	 2.497642e+01
1	 1.203166e+00	 1.441029e-01	 2.496830e+01
1	 1.200466e+00	 1.650878e-01	 2.487519e+01
1	 1.197382e+00	 1.861459e-01	 2.469670e+01
1	 1.193907e+00	 2.072675e-01	 2.443263e+01
1	 1.219154e+00	 1.033834e-01	 2.472217e+01
1	 1.217189e+00	 1.243965e-01	 2.479620e+01
1	 1.214847e+00	 1.455019e-01	 2.478576e+01
1	 1.212121e+00	 1.666906e-01	 2.469025e+01
1	 1.209007e+00	 1.879532e-01	 2.450931e+01
1	 1.205498e+00	 2.092798e-01	 2.424287e+01
1	 1.230876e+00	 1.043775e-01	 2.453891e+01
1	 1.228893e+00	 1.255926e-01	 2.461054e+01
1	 1.226528e+00	 1.469010e-01	 2.459768e+01
1	 1.223776e+00	 1.682934e-01	 2.449980e+01
1	 1.220632e+00	 1.897604e-01	 2.431665e+01
1	 1.217090e+00	 2.112921e-01	 2.404821e+01
1	 1.159133e+00	 2.012306e-01	 2.498806e+01
1	 1.155376e+00	 2.217891e-01	 2.465106e+01
1	 1.151230e+00	 2.423897e-01	 2.423071e+01
1	 1.146692e+00	 2.630223e-01	 2.372732e+01
1	 1.141758e+00	 2.836765e-01	 2.314132e+01
1	 1.136424e+00	 3.043417e-01	 2.247319e+01
1	 1.170724e+00	 2.032429e-01	 2.480362e+01
1	 1.166929e+00	 2.240070e-01	 2.446089e+01
1	 1.162742e+00	 2.448136e-01	 2.403308e+01
1	 1.158159e+00	 2.656526e-01	 2.352063e+01
1	 1.153175e+00	 2.865133e-01	 2.292406e+01
1	 1.147788e+00	 3.073851e-01	 2.224396e+01
1	 1.182316e+00	 2.052552e-01	 2.461902e+01
1	 1.178483e+00	 2.262249e-01	 2.427162e+01
1	 1.174254e+00	 2.472375e-01	 2.383743e+01
1	 1.169626e+00	 2.682828e-01	 2.331694e+01
1	 1.164593e+00	 2.893501e-01	 2.271071e+01
1	 1.159152e+00	 3.104285e-01	 2.201937e+01
1	 1.193907e+00	 2.072675e-01	 2.443263e+01
1	 1.190037e+00	 2.284428e-01	 2.408146e+01
1	 1.185767e+00	 2.496614e-01	 2.364188e+01
1	 1.181093e+00	 2.709130e-01	 2.311438e+01
1	 1.176010e+00	 2.921868e-01	 2.249948e+01
1	 1.170517e+00	 3.134720e-01	 2.179781e+01
1	 1.205498e+00	 2.092798e-01	 2.424287e+01
1	 1.201591e+00	 2.306606e-01	 2.388868e+01
1	 1.197279e+00	 2.520853e-01	 2.344465e+01
1	 1.192560e+00	 2.735432e-01	 2.291116e+01
1	 1.187428e+00	 2.950236e-01	 2.228866e+01
1	 1.181881e+00	 3.165154e-01	 2.157774e+01
1	 1.217090e+00	 2.112921e-01	 2.404821e+01
1	 1.213144e+00	 2.328785e-01	 2.369163e+01
1	 1.208791e+00	 2.545092e-01	 2.324401e+01
1	 1.204026e+00	 2.761734e-01	 2.270556e+01
1	 1.198846e+00	 2.978604e-01	 2.207662e+01
1	 1.193245e+00	 3.195588e-01	 2.135767e+01
1	 1.136424e+00	 3.043417e-01	 2.247319e+01
1	 1.130687e+00	 3.250069e-01	 2.172606e+01
1	 1.124545e+00	 3.456611e-01	 2.090323e+01
1	 1.117995e+00	 3.662930e-01	 2.000556e+01
1	 1.111035e+00	 3.868910e-01	 1.903398e+01
1	 1.103663e+00	 4.074437e-01	 1.798949e+01
1	 1.147788e+00	 3.073851e-01	 2.224396e+01
1	 1.141994e+00	 3.282570e-01	 2.148352e+01
1	 1.135790e+00	 3.491177e-01	 2.064627e+01
1	 1.129175e+00	 3.699559e-01	 1.973338e+01
1	 1.122145e+00	 3.907600e-01	 1.874608e+01
1	 1.114700e+00	 4.115181e-01	 1.768566e+01
1	 1.159152e+00	 3.104285e-01	 2.201937e+01
1	 1.153301e+00	 3.315071e-01	 2.124615e+01
1	 1.147036e+00	 3.525743e-01	 2.039476e+01
1	 1.140355e+00	 3.736188e-01	 1.946661e+01
1	 1.133256e+00	 3.946289e-01	 1.846318e+01
1	 1.125737e+00	 4.155926e-01	 1.738600e+01
1	 1.170517e+00	 3.134720e-01	 2.179781e+01
1	 1.164608e+00	 3.347571e-01	 2.101257e+01
1	 1.158281e+00	 3.560309e-01	 2.014753e+01
1	 1.151535e+00	 3.772818e-01	 1.920430e+01
1	 1.144366e+00	 3.984978e-01	 1.818456e+01
1	 1.136773e+00	 4.196670e-01	 1.709003e+01
1	 1.181881e+00	 3.165154e-01	 2.157774e+01
1	 1.175915e+00	 3.380072e-01	 2.078142e+01
1	 1.169527e+00	 3.594875e-01	 1.990342e+01
1	 1.162715e+00	 3.809447e-01	 1.894552e+01
1	 1.155476e+00	 4.023667e-01	 1.790952e+01
1	 1.147810e+00	 4.237414e-01	 1.679728e+01
1	 1.193245e+00	 3.195588e-01	 2.135767e+01
1	 1.187222e+00	 3.412573e-01	 2.055141e+01
1	 1.180772e+00	 3.629442e-01	 1.966136e+01
1	 1.173895e+00	 3.846076e-01	 1.868938e+01
1	 1.166587e+00	 4.062356e-01	 1.763738e+01
1	 1.158846e+00	 4.278159e-01	 1.650729e+01
1	 1.103663e+00	 4.074437e-01	 1.798949e+01
1	 1.095879e+00	 4.279391e-01	 1.687905e+01
1	 1.087682e+00	 4.483653e-01	 1.570720e+01
1	 1.079071e+00	 4.687104e-01	 1.447120e+01
1	 1.070046e+00	 4.889622e-01	 1.316795e+01
1	 1.060609e+00	 5.091084e-01	 1.179410e+01
1	 1.114700e+00	 4.115181e-01	 1.768566e+01
1	 1.106838e+00	 4.322185e-01	 1.655807e+01
1	 1.098559e+00	 4.528490e-01	 1.536636e+01
1	 1.089861e+00	 4.733975e-01	 1.410731e+01
1	 1.080747e+00	 4.938518e-01	 1.277735e+01
1	 1.071215e+00	 5.141995e-01	 1.137256e+01
1	 1.125737e+00	 4.155926e-01	 1.738600e+01
1	 1.117797e+00	 4.364979e-01	 1.623993e+01
1	 1.109435e+00	 4.573326e-01	 1.502664e+01
1	 1.100652e+00	 4.780846e-01	 1.374265e+01
1	 1.091447e+00	 4.987414e-01	 1.238411e+01
1	 1.081821e+00	 5.192906e-01	 1.094680e+01
1	 1.136773e+00	 4.196670e-01	 1.709003e+01
1	 1.128756e+00	 4.407773e-01	 1.592439e+01
1	 1.120312e+00	 4.618163e-01	 1.468801e+01
1	 1.111443e+00	 4.827717e-01	 1.337737e+01
1	 1.102148e+00	 5.036310e-01	 1.198856e+01
1	 1.092427e+00	 5.243817e-01	 1.051725e+01
1	 1.147810e+00	 4.237414e-01	 1.679728e+01
1	 1.139714e+00	 4.450566e-01	 1.561120e+01
1	 1.131189e+00	 4.663000e-01	 1.435043e+01
1	 1.122234e+00	 4.874588e-01	 1.301162e+01
1	 1.112848e+00	 5.085207e-01	 1.159100e+01
1	 1.103033e+00	 5.294728e-01	 1.008433e+01
1	 1.158846e+00	 4.278159e-01	 1.650729e+01
1	 1.150673e+00	 4.493360e-01	 1.530013e+01
1	 1.142066e+00	 4.707836e-01	 1.401387e+01
1	 1.133024e+00	 4.921459e-01	 1.264555e+01
1	 1.123549e+00	 5.134103e-01	 1.119172e+01
1	 1.113640e+00	 5.345638e-01	 9.648463e+00
1	 1.060609e+00	 5.091084e-01	 1.179410e+01
1	 1.050760e+00	 5.291369e-01	 1.037328e+01
1	 1.040501e+00	 5.490354e-01	 8.934884e+00
1	 1.029835e+00	 5.687915e-01	 7.484619e+00
1	 1.018762e+00	 5.883931e-01	 6.029113e+00
1	 1.007288e+00	 6.078278e-01	 4.575869e+00
1	 1.071215e+00	 5.141995e-01	 1.137256e+01
1	 1.061268e+00	 5.344283e-01	 9.920406e+00
1	 1.050906e+00	 5.545257e-01	 8.454943e+00
1	 1.040133e+00	 5.744794e-01	 6.982682e+00
1	 1.028950e+00	 5.942770e-01	 5.511116e+00
1	 1.017360e+00	 6.139061e-01	 4.048702e+00
1	 1.081821e+00	 5.192906e-01	 1.094680e+01
1	 1.071775e+00	 5.397196e-01	 9.462469e+00
1	 1.061311e+00	 5.600161e-01	 7.970087e+00
1	 1.050431e+00	 5.801673e-01	 6.476756e+00
1	 1.039138e+00	 6.001609e-01	 4.990641e+00
1	 1.027433e+00	 6.199844e-01	 3.520940e+00
1	 1.092427e+00	 5.243817e-01	 1.051725e+01
1	 1.082283e+00	 5.450110e-01	 8.999984e+00
1	 1.071716e+00	 5.655064e-01	 7.480846e+00
1	 1.060730e+00	 5.858553e-01	 5.967348e+00
1	 1.049325e+00	 6.060449e-01	 4.468128e+00
1	 1.037506e+00	 6.260627e-01	 2.992921e+00
1	 1.103033e+00	 5.294728e-01	 1.008433e+01
1	 1.092791e+00	 5.503024e-01	 8.533441e+00
1	 1.082121e+00	 5.709968e-01	 6.987730e+00
1	 1.071028e+00	 5.915432e-01	 5.454942e+00
1	 1.059513e+00	 6.119288e-01	 3.943998e+00
1	 1.047579e+00	 6.321410e-01	 2.464972e+00
1	 1.113640e+00	 5.345638e-01	 9.648463e+00
1	 1.103298e+00	 5.555938e-01	 8.063312e+00
1	 1.092526e+00	 5.764871e-01	 6.491230e+00
1	 1.081326e+00	 5.972311e-01	 4.940005e+00
1	 1.069700e+00	 6.178127e-01	 3.418657e+00
1	 1.057652e+00	 6.382192e-01	 1.937405e+00
1	 1.007288e+00	 6.078278e-01	 4.575869e+00
1	 9.954141e-01	 6.270836e-01	 3.172632e+00
1	 9.831456e-01	 6.461484e-01	 1.863931e+00
1	 9.704867e-01	 6.650102e-01	 6.533493e-01
1	 9.574424e-01	 6.836572e-01	-4.552146e-01
1	 9.440180e-01	 7.020776e-01	-1.457562e+00
1	 1.017360e+00	 6.139061e-01	 4.048702e+00
1	 1.005368e+00	 6.333545e-01	 2.642550e+00
1	 9.929771e-01	 6.526099e-01	 1.335311e+00
1	 9.801916e-01	 6.716603e-01	 1.296376e-01
1	 9.670168e-01	 6.904937e-01	-9.715953e-01
1	 9.534582e-01	 7.090984e-01	-1.965305e+00
1	 1.027433e+00	 6.199844e-01	 3.520940e+00
1	 1.015322e+00	 6.396253e-01	 2.113462e+00
1	 1.002809e+00	 6.590714e-01	 8.085298e-01
1	 9.898965e-01	 6.783104e-01	-3.920232e-01
1	 9.765912e-01	 6.973303e-01	-1.486230e+00
1	 9.628984e-01	 7.161192e-01	-2.472000e+00
1	 1.037506e+00	 6.260627e-01	 2.992921e+00
1	 1.025276e+00	 6.458962e-01	 1.585613e+00
1	 1.012640e+00	 6.655329e-01	 2.837826e-01
1	 9.996013e-01	 6.849605e-01	-9.114494e-01
1	 9.861657e-01	 7.041669e-01	-1.998910e+00
1	 9.723386e-01	 7.231400e-01	-2.977384e+00
1	 1.047579e+00	 6.321410e-01	 2.464972e+00
1	 1.035231e+00	 6.521670e-01	 1.059241e+00
1	 1.022471e+00	 6.719944e-01	-2.387425e-01
1	 1.009306e+00	 6.916106e-01	-1.428464e+00
1	 9.957401e-01	 7.110034e-01	-2.509436e+00
1	 9.817788e-01	 7.301607e-01	-3.481204e+00
1	 1.057652e+00	 6.382192e-01	 1.937405e+00
1	 1.045185e+00	 6.584378e-01	 5.345724e-01
1	 1.032303e+00	 6.784558e-01	-7.588647e-01
1	 1.019011e+00	 6.982607e-01	-1.942898e+00
1	 1.005315e+00	 7.178400e-01	-3.017617e+00
1	 9.912189e-01	 7.371815e-01	-3.983214e+00
1	 9.440180e-01	 7.020776e-01	-1.457562e+00
1	 9.302195e-01	 7.202601e-01	-2.378293e+00
1	 9.160533e-01	 7.381934e-01	-3.242768e+00
1	 9.015260e-01	 7.558663e-01	-4.047718e+00
1	 8.866450e-01	 7.732682e-01	-4.789883e+00
1	 8.714180e-01	 7.903884e-01	-5.466019e+00
1	 9.534582e-01	 7.090984e-01	-1.965305e+00
1	 9.395217e-01	 7.274627e-01	-2.877840e+00
1	 9.252138e-01	 7.455753e-01	-3.735293e+00
1	 9.105413e-01	 7.634250e-01	-4.534013e+00
1	 8.955115e-01	 7.810008e-01	-5.270311e+00
1	 8.801321e-01	 7.982922e-01	-5.940472e+00
1	 9.628984e-01	 7.161192e-01	-2.472000e+00
1	 9.488239e-01	 7.346653e-01	-3.376961e+00
1	 9.343743e-01	 7.529572e-01	-4.227617e+00
1	 9.195565e-01	 7.709836e-01	-5.020039e+00
1	 9.043779e-01	 7.887335e-01	-5.750221e+00
1	 8.888463e-01	 8.061961e-01	-6.414096e+00
1	 9.723386e-01	 7.231400e-01	-2.977384e+00
1	 9.581261e-01	 7.418679e-01	-3.875345e+00
1	 9.435349e-01	 7.603392e-01	-4.719419e+00
1	 9.285718e-01	 7.785423e-01	-5.505506e+00
1	 9.132444e-01	 7.964662e-01	-6.229391e+00
1	 8.975605e-01	 8.141000e-01	-6.886767e+00
1	 9.817788e-01	 7.301607e-01	-3.481204e+00
1	 9.674283e-01	 7.490705e-01	-4.372689e+00
1	 9.526954e-01	 7.677211e-01	-5.210392e+00
1	 9.375871e-01	 7.861010e-01	-5.990138e+00
1	 9.221108e-01	 8.041989e-01	-6.707609e+00
1	 9.062747e-01	 8.220039e-01	-7.358370e+00
1	 9.912189e-01	 7.371815e-01	-3.983214e+00
1	 9.767305e-01	 7.562731e-01	-4.868705e+00
1	 9.618559e-01	 7.751030e-01	-5.700240e+00
1	 9.466023e-01	 7.936596e-01	-6.473667e+00
1	 9.309773e-01	 8.119316e-01	-7.184668e+00
1	 9.149889e-01	 8.299078e-01	-7.828789e+00
1	 8.714180e-01	 7.903884e-01	-5.466019e+00
1	 8.558529e-01	 8.072167e-01	-6.095542e+00
1	 8.399584e-01	 8.237432e-01	-6.698484e+00
1	 8.237432e-01	 8.399584e-01	-7.272696e+00
1	 8.072167e-01	 8.558529e-01	-7.816223e+00
1	 7.903884e-01	 8.714180e-01	-8.327306e+00
1	 8.801321e-01	 7.982922e-01	-5.940472e+00
1	 8.644115e-01	 8.152889e-01	-6.564298e+00
1	 8.483580e-01	 8.319807e-01	-7.162778e+00
1	 8.319807e-01	 8.483580e-01	-7.734134e+00
1	 8.152889e-01	 8.644115e-01	-8.276802e+00
1	 7.982922e-01	 8.801321e-01	-8.789430e+00
1	 8.888463e-01	 8.061961e-01	-6.414096e+00
1	 8.729700e-01	 8.233610e-01	-7.032103e+00
1	 8.567576e-01	 8.402181e-01	-7.626281e+00
1	 8.402181e-01	 8.567576e-01	-8.195099e+00
1	 8.233610e-01	 8.729700e-01	-8.737249e+00
1	 8.061961e-01	 8.888463e-01	-9.251645e+00
1	 8.975605e-01	 8.141000e-01	-6.886767e+00
1	 8.815285e-01	 8.314332e-01	-7.498911e+00
1	 8.651572e-01	 8.484555e-01	-8.088958e+00
1	 8.484555e-01	 8.651572e-01	-8.655502e+00
1	 8.314332e-01	 8.815285e-01	-9.197359e+00
1	 8.141000e-01	 8.975605e-01	-9.713567e+00
1	 9.062747e-01	 8.220039e-01	-7.358370e+00
1	 8.900870e-01	 8.395054e-01	-7.964682e+00
1	 8.735567e-01	 8.566930e-01	-8.550777e+00
1	 8.566930e-01	 8.735567e-01	-9.115255e+00
1	 8.395054e-01	 8.900870e-01	-9.656931e+00
1	 8.220039e-01	 9.062747e-01	-1.017483e+01
1	 9.149889e-01	 8.299078e-01	-7.828789e+00
1	 8.986456e-01	 8.475775e-01	-8.429375e+00
1	 8.819563e-01	 8.649304e-01	-9.011705e+00
1	 8.649304e-01	 8.819563e-01	-9.574276e+00
1	 8.475775e-01	 8.986456e-01	-1.011577e+01
1	 8.299078e-01	 9.149889e-01	-1.063508e+01
1	 7.903884e-01	 8.714180e-01	-8.327306e+00
1	 7.732682e-01	 8.866450e-01	-8.829456e+00
1	 7.558663e-01	 9.015260e-01	-9.345395e+00
1	 7.381934e-01	 9.160533e-01	-9.872462e+00
1	 7.202601e-01	 9.302195e-01	-1.040818e+01
1	 7.020776e-01	 9.440180e-01	-1.095023e+01
1	 7.982922e-01	 8.801321e-01	-8.789430e+00
1	 7.810008e-01	 8.955115e-01	-9.295976e+00
1	 7.634250e-01	 9.105413e-01	-9.819249e+00
1	 7.455753e-01	 9.252138e-01	-1.035647e+01
1	 7.274627e-01	 9.395217e-01	-1.090501e+01
1	 7.090984e-01	 9.534582e-01	-1.146242e+01
1	 8.061961e-01	 8.888463e-01	-9.251645e+00
1	 7.887335e-01	 9.043779e-01	-9.762533e+00
1	 7.709836e-01	 9.195565e-01	-1.029289e+01
1	 7.529572e-01	 9.343743e-01	-1.083999e+01
1	 7.346653e-01	 9.488239e-01	-1.140130e+01
1	 7.161192e-01	 9.628984e-01	-1.197443e+01
1	 8.141000e-01	 8.975605e-01	-9.713567e+00
1	 7.964662e-01	 9.132444e-01	-1.022860e+01
1	 7.785423e-01	 9.285718e-01	-1.076573e+01
1	 7.603392e-01	 9.435349e-01	-1.132252e+01
1	 7.418679e-01	 9.581261e-01	-1.189669e+01
1	 7.231400e-01	 9.723386e-01	-1.248615e+01
1	 8.220039e-01	 9.062747e-01	-1.017483e+01
1	 8.041989e-01	 9.221108e-01	-1.069366e+01
1	 7.861010e-01	 9.375871e-01	-1.123725e+01
1	 7.677211e-01	 9.526954e-01	-1.180357e+01
1	 7.490705e-01	 9.674283e-01	-1.239085e+01
1	 7.301607e-01	 9.817788e-01	-1.299748e+01
1	 8.299078e-01	 9.149889e-01	-1.063508e+01
1	 8.119316e-01	 9.309773e-01	-1.115724e+01
1	 7.936596e-01	 9.466023e-01	-1.170690e+01
1	 7.751030e-01	 9.618559e-01	-1.228268e+01
1	 7.562731e-01	 9.767305e-01	-1.288345e+01
1	 7.371815e-01	 9.912189e-01	-1.350833e+01
1	 7.020776e-01	 9.440180e-01	-1.095023e+01
1	 6.836572e-01	 9.574424e-01	-1.151254e+01
1	 6.650102e-01	 9.704867e-01	-1.211090e+01
1	 6.461484e-01	 9.831456e-01	-1.274634e+01
1	 6.270836e-01	 9.954141e-01	-1.342019e+01
1	 6.078278e-01	 1.007288e+00	-1.413412e+01
1	 7.090984e-01	 9.534582e-01	-1.146242e+01
1	 6.904937e-01	 9.670168e-01	-1.204348e+01
1	 6.716603e-01	 9.801916e-01	-1.266498e+01
1	 6.526099e-01	 9.929771e-01	-1.332790e+01
1	 6.333545e-01	 1.005368e+00	-1.403356e+01
1	 6.139061e-01	 1.017360e+00	-1.478361e+01
1	 7.161192e-01	 9.628984e-01	-1.197443e+01
1	 6.973303e-01	 9.765912e-01	-1.257516e+01
1	 6.783104e-01	 9.898965e-01	-1.322108e+01
1	 6.590714e-01	 1.002809e+00	-1.391289e+01
1	 6.396253e-01	 1.015322e+00	-1.465164e+01
1	 6.199844e-01	 1.027433e+00	-1.543865e+01
1	 7.231400e-01	 9.723386e-01	-1.248615e+01
1	 7.041669e-01	 9.861657e-01	-1.310769e+01
1	 6.849605e-01	 9.996013e-01	-1.377940e+01
1	 6.655329e-01	 1.012640e+00	-1.450148e+01
1	 6.458962e-01	 1.025276e+00	-1.527441e+01
1	 6.260627e-01	 1.037506e+00	-1.609895e+01
1	 7.301607e-01	 9.817788e-01	-1.299748e+01
1	 7.110034e-01	 9.957401e-01	-1.364118e+01
1	 6.916106e-01	 1.009306e+00	-1.434013e+01
1	 6.719944e-01	 1.022471e+00	-1.509380e+01
1	 6.521670e-01	 1.035231e+00	-1.590187e+01
1	 6.321410e-01	 1.047579e+00	-1.676423e+01
1	 7.371815e-01	 9.912189e-01	-1.350833e+01
1	 7.178400e-01	 1.005315e+00	-1.417573e+01
1	 6.982607e-01	 1.019011e+00	-1.490345e+01
1	 6.784558e-01	 1.032303e+00	-1.568999e+01
1	 6.584378e-01	 1.045185e+00	-1.653398e+01
1	 6.382192e-01	 1.057652e+00	-1.743421e+01
1	 6.078278e-01	 1.007288e+00	-1.413412e+01
1	 5.883931e-01	 1.018762e+00	-1.487712e+01
1	 5.687915e-01	 1.029835e+00	-1.563828e+01
1	 5.490354e-01	 1.040501e+00	-1.641988e+01
1	 5.291369e-01	 1.050760e+00	-1.722440e+01
1	 5.091084e-01	 1.060609e+00	-1.805454e+01
1	 6.139061e-01	 1.017360e+00	-1.478361e+01
1	 5.942770e-01	 1.028950e+00	-1.556683e+01
1	 5.744794e-01	 1.040133e+00	-1.637178e+01
1	 5.545257e-01	 1.050906e+00	-1.720020e+01
1	 5.344283e-01	 1.061268e+00	-1.805404e+01
1	 5.141995e-01	 1.071215e+00	-1.893543e+01
1	 6.199844e-01	 1.027433e+00	-1.543865e+01
1	 6.001609e-01	 1.039138e+00	-1.626233e+01
1	 5.801673e-01	 1.050431e+00	-1.711106e+01
1	 5.600161e-01	 1.061311e+00	-1.798656e+01
1	 5.397196e-01	 1.071775e+00	-1.889074e+01
1	 5.192906e-01	 1.081821e+00	-1.982571e+01
1	 6.260627e-01	 1.037506e+00	-1.609895e+01
1	 6.060449e-01	 1.049325e+00	-1.696310e+01
1	 5.858553e-01	 1.060730e+00	-1.785557e+01
1	 5.655064e-01	 1.071716e+00	-1.877853e+01
1	 5.450110e-01	 1.082283e+00	-1.973436e+01
1	 5.243817e-01	 1.092427e+00	-2.072568e+01
1	 6.321410e-01	 1.047579e+00	-1.676423e+01
1	 6.119288e-01	 1.059513e+00	-1.766864e+01
1	 5.915432e-01	 1.071028e+00	-1.860477e+01
1	 5.709968e-01	 1.082121e+00	-1.957570e+01
1	 5.503024e-01	 1.092791e+00	-2.058480e+01
1	 5.294728e-01	 1.103033e+00	-2.163566e+01
1	 6.382192e-01	 1.057652e+00	-1.743421e+01
1	 6.178127e-01	 1.069700e+00	-1.837848e+01
1	 5.972311e-01	 1.081326e+00	-1.935815e+01
1	 5.764871e-01	 1.092526e+00	-2.037770e+01
1	 5.555938e-01	 1.103298e+00	-2.144193e+01
1	 5.345638e-01	 1.113640e+00	-2.255593e+01
1	 5.091084e-01	 1.060609e+00	-1.805454e+01
1	 4.889622e-01	 1.070046e+00	-1.890255e+01
1	 4.687104e-01	 1.079071e+00	-1.975710e+01
1	 4.483653e-01	 1.087682e+00	-2.061558e+01
1	 4.279391e-01	 1.095879e+00	-2.147532e+01
1	 4.074437e-01	 1.103663e+00	-2.233360e+01
1	 5.141995e-01	 1.071215e+00	-1.893543e+01
1	 4.938518e-01	 1.080747e+00	-1.983520e+01
1	 4.733975e-01	 1.089861e+00	-2.074145e+01
1	 4.528490e-01	 1.098559e+00	-2.165232e+01
1	 4.322185e-01	 1.106838e+00	-2.256587e+01
1	 4.115181e-01	 1.114700e+00	-2.348016e+01
1	 5.192906e-01	 1.081821e+00	-1.982571e+01
1	 4.987414e-01	 1.091447e+00	-2.078126e+01
1	 4.780846e-01	 1.100652e+00	-2.174433e+01
1	 4.573326e-01	 1.109435e+00	-2.271285e+01
1	 4.364979e-01	 1.117797e+00	-2.368469e+01
1	 4.155926e-01	 1.125737e+00	-2.465767e+01
1	 5.243817e-01	 1.092427e+00	-2.072568e+01
1	 5.036310e-01	 1.102148e+00	-2.174140e+01
1	 4.827717e-01	 1.111443e+00	-2.276653e+01
1	 4.618163e-01	 1.120312e+00	-2.379787e+01
1	 4.407773e-01	 1.128756e+00	-2.483216e+01
1	 4.196670e-01	 1.136773e+00	-2.586605e+01
1	 5.294728e-01	 1.103033e+00	-2.163566e+01
1	 5.085207e-01	 1.112848e+00	-2.271630e+01
1	 4.874588e-01	 1.122234e+00	-2.380882e+01
1	 4.663000e-01	 1.131189e+00	-2.490804e+01
1	 4.450566e-01	 1.139714e+00	-2.600864e+01
1	 4.237414e-01	 1.147810e+00	-2.710520e+01
1	 5.345638e-01	 1.113640e+00	-2.255593e+01
1	 5.134103e-01	 1.123549e+00	-2.370658e+01
1	 4.921459e-01	 1.133024e+00	-2.487196e+01
1	 4.707836e-01	 1.142066e+00	-2.604400e+01
1	 4.493360e-01	 1.150673e+00	-2.721449e+01
1	 4.278159e-01	 1.158846e+00	-2.837504e+01
1	 4.074437e-01	 1.103663e+00	-2.233360e+01
1	 3.868910e-01	 1.111035e+00	-2.318689e+01
1	 3.662930e-01	 1.117995e+00	-2.403037e+01
1	 3.456611e-01	 1.124545e+00	-2.485940e+01
1	 3.250069e-01	 1.130687e+00	-2.566935e+01
1	 3.043417e-01	 1.136424e+00	-2.645563e+01
1	 4.115181e-01	 1.114700e+00	-2.348016e+01
1	 3.907600e-01	 1.122145e+00	-2.439181e+01
1	 3.699559e-01	 1.129175e+00	-2.529475e+01
1	 3.491177e-01	 1.135790e+00	-2.618293e+01
1	 3.282570e-01	 1.141994e+00	-2.705030e+01
1	 3.073851e-01	 1.147788e+00	-2.789085e+01
1	 4.155926e-01	 1.125737e+00	-2.465767e+01
1	 3.946289e-01	 1.133256e+00	-2.562770e+01
1	 3.736188e-01	 1.140355e+00	-2.658746e+01
1	 3.525743e-01	 1.147036e+00	-2.752987e+01
1	 3.315071e-01	 1.153301e+00	-2.844788e+01
1	 3.104285e-01	 1.159152e+00	-2.933446e+01
1	 4.196670e-01	 1.136773e+00	-2.586605e+01
1	 3.984978e-01	 1.144366e+00	-2.689398e+01
1	 3.772818e-01	 1.151535e+00	-2.790751e+01
1	 3.560309e-01	 1.158281e+00	-2.889893e+01
1	 3.347571e-01	 1.164608e+00	-2.986056e+01
1	 3.134720e-01	 1.170517e+00	-3.078479e+01
1	 4.237414e-01	 1.147810e+00	-2.710520e+01
1	 4.023667e-01	 1.155476e+00	-2.819008e+01
1	 3.809447e-01	 1.162715e+00	-2.925394e+01
1	 3.594875e-01	 1.169527e+00	-3.028886e+01
1	 3.380072e-01	 1.175915e+00	-3.128690e+01
1	 3.165154e-01	 1.181881e+00	-3.224022e+01
1	 4.278159e-01	 1.158846e+00	-2.837504e+01
1	 4.062356e-01	 1.166587e+00	-2.951543e+01
1	 3.846076e-01	 1.173895e+00	-3.062585e+01
1	 3.629442e-01	 1.180772e+00	-3.169846e+01
1	 3.412573e-01	 1.187222e+00	-3.272548e+01
1	 3.195588e-01	 1.193245e+00	-3.369921e+01
1	 3.043417e-01	 1.136424e+00	-2.645563e+01
1	 2.836765e-01	 1.141758e+00	-2.721177e+01
1	 2.630223e-01	 1.146692e+00	-2.793195e+01
1	 2.423897e-01	 1.151230e+00	-2.861263e+01
1	 2.217891e-01	 1.155376e+00	-2.925037e+01
1	 2.012306e-01	 1.159133e+00	-2.984181e+01
1	 3.073851e-01	 1.147788e+00	-2.789085e+01
1	 2.865133e-01	 1.153175e+00	-2.869685e+01
1	 2.656526e-01	 1.158159e+00	-2.946188e+01
1	 2.448136e-01	 1.162742e+00	-3.018199e+01
1	 2.240070e-01	 1.166929e+00	-3.085330e+01
1	 2.032429e-01	 1.170724e+00	-3.147207e+01
1	 3.104285e-01	 1.159152e+00	-2.933446e+01
1	 2.893501e-01	 1.164593e+00	-3.018109e+01
1	 2.682828e-01	 1.169626e+00	-3.098124e+01
1	 2.472375e-01	 1.174254e+00	-3.173102e+01
1	 2.262249e-01	 1.178483e+00	-3.242662e+01
1	 2.052552e-01	 1.182316e+00	-3.306437e+01
1	 3.134720e-01	 1.170517e+00	-3.078479e+01
1	 2.921868e-01	 1.176010e+00	-3.166274e+01
1	 2.709130e-01	 1.181093e+00	-3.248829e+01
1	 2.496614e-01	 1.185767e+00	-3.325807e+01
1	 2.284428e-01	 1.190037e+00	-3.396884e+01
1	 2.072675e-01	 1.193907e+00	-3.461746e+01
1	 3.165154e-01	 1.181881e+00	-3.224022e+01
1	 2.950236e-01	 1.187428e+00	-3.314010e+01
1	 2.735432e-01	 1.192560e+00	-3.398135e+01
1	 2.520853e-01	 1.197279e+00	-3.476159e+01
1	 2.306606e-01	 1.201591e+00	-3.547856e+01
1	 2.092798e-01	 1.205498e+00	-3.613013e+01
1	 3.195588e-01	 1.193245e+00	-3.369921e+01
1	 2.978604e-01	 1.198846e+00	-3.461156e+01
1	 2.761734e-01	 1.204026e+00	-3.545882e+01
1	 2.545092e-01	 1.208791e+00	-3.624004e+01
1	 2.328785e-01	 1.213144e+00	-3.695441e+01
1	 2.112921e-01	 1.217090e+00	-3.760123e+01
1	 2.012306e-01	 1.159133e+00	-2.984181e+01
1	 1.807242e-01	 1.162507e+00	-3.038402e+01
1	 1.602794e-01	 1.165501e+00	-3.087667e+01
1	 1.399057e-01	 1.168122e+00	-3.132046e+01
1	 1.196120e-01	 1.170374e+00	-3.171617e+01
1	 9.940714e-02	 1.172263e+00	-3.206463e+01
1	 2.032429e-01	 1.170724e+00	-3.147207e+01
1	 1.825314e-01	 1.174132e+00	-3.203530e+01
1	 1.618822e-01	 1.177156e+00	-3.254325e+01
1	 1.413048e-01	 1.179803e+00	-3.299718e+01
1	 1.208081e-01	 1.182078e+00	-3.339844e+01
1	 1.004012e-01	 1.183986e+00	-3.374842e+01
1	 2.052552e-01	 1.182316e+00	-3.306437e+01
1	 1.843387e-01	 1.185757e+00	-3.364165e+01
1	 1.634850e-01	 1.188811e+00	-3.415928e+01
1	 1.427038e-01	 1.191485e+00	-3.461885e+01
1	 1.220043e-01	 1.193782e+00	-3.502205e+01
1	 1.013953e-01	 1.195709e+00	-3.537064e+01
1	 2.072675e-01	 1.193907e+00	-3.461746e+01
1	 1.861459e-01	 1.197382e+00	-3.520205e+01
1	 1.650878e-01	 1.200466e+00	-3.572389e+01
1	 1.441029e-01	 1.203166e+00	-3.618471e+01
1	 1.232004e-01	 1.205486e+00	-3.658635e+01
1	 1.023894e-01	 1.207431e+00	-3.693071e+01
1	 2.092798e-01	 1.205498e+00	-3.613013e+01
1	 1.879532e-01	 1.209007e+00	-3.671549e+01
1	 1.666906e-01	 1.212121e+00	-3.723624e+01
1	 1.455019e-01	 1.214847e+00	-3.769406e+01
1	 1.243965e-01	 1.217189e+00	-3.809073e+01
1	 1.033834e-01	 1.219154e+00	-3.842809e+01
1	 2.112921e-01	 1.217090e+00	-3.760123e+01
1	 1.897604e-01	 1.220632e+00	-3.818101e+01
1	 1.682934e-01	 1.223776e+00	-3.869553e+01
1	 1.469010e-01	 1.226528e+00	-3.914622e+01
1	 1.255926e-01	 1.228893e+00	-3.953459e+01
1	 1.043775e-01	 1.230876e+00	-3.986223e+01
1	 9.940714e-02	 1.172263e+00	-3.206463e+01
1	 7.929953e-02	 1.173795e+00	-3.236655e+01
1	 5.929733e-02	 1.174975e+00	-3.262380e+01
1	 3.940838e-02	 1.175810e+00	-3.283907e+01
1	 1.964020e-02	 1.176307e+00	-3.301503e+01
1	 0.000000e+00	 1.176471e+00	-3.315434e+01
1	 1.004012e-01	 1.183986e+00	-3.374842e+01
1	 8.009253e-02	 1.185533e+00	-3.404835e+01
1	 5.989031e-02	 1.186725e+00	-3.430033e+01
1	 3.980247e-02	 1.187568e+00	-3.450713e+01
1	 1.983660e-02	 1.188070e+00	-3.467155e+01
1	 0.000000e+00	 1.188235e+00	-3.479636e+01
1	 1.013953e-01	 1.195709e+00	-3.537064e+01
1	 8.088552e-02	 1.197271e+00	-3.566620e+01
1	 6.048328e-02	 1.198475e+00	-3.591107e+01
1	 4.019655e-02	 1.199327e+00	-3.610821e+01
1	 2.003301e-02	 1.199833e+00	-3.626058e+01
1	 0.000000e+00	 1.200000e+00	-3.637115e+01
1	 1.023894e-01	 1.207431e+00	-3.693071e+01
1	 8.167852e-02	 1.209009e+00	-3.721958e+01
1	 6.107625e-02	 1.210225e+00	-3.745554e+01
1	 4.059063e-02	 1.211085e+00	-3.764183e+01
1	 2.022941e-02	 1.211596e+00	-3.778164e+01
1	 0.000000e+00	 1.211765e+00	-3.787820e+01
1	 1.033834e-01	 1.219154e+00	-3.842809e+01
1	 8.247151e-02	 1.220747e+00	-3.870797e+01
1	 6.166923e-02	 1.221974e+00	-3.893327e+01
1	 4.098472e-02	 1.222843e+00	-3.910754e+01
1	 2.042581e-02	 1.223359e+00	-3.923428e+01
1	 0.000000e+00	 1.223529e+00	-3.931702e+01
1	 1.043775e-01	 1.230876e+00	-3.986223e+01
1	 8.326451e-02	 1.232485e+00	-4.013090e+01
1	 6.226220e-02	 1.233724e+00	-4.034381e+01
1	 4.137880e-02	 1.234601e+00	-4.050490e+01
1	 2.062221e-02	 1.235122e+00	-4.061804e+01
1	 0.000000e+00	 1.235294e+00	-4.068713e+01
1	 1.235294e+00	 0.000000e+00	 2.294301e+01
1	 1.235122e+00	 2.062221e-02	 2.342004e+01
1	 1.234601e+00	 4.137880e-02	 2.382070e+01
1	 1.233724e+00	 6.226220e-02	 2.414238e+01
1	 1.232485e+00	 8.326451e-02	 2.438257e+01
1	 1.230876e+00	 1.043775e-01	 2.453891e+01
1	 1.247059e+00	 0.000000e+00	 2.276652e+01
1	 1.246885e+00	 2.081861e-02	 2.324115e+01
1	 1.246359e+00	 4.177289e-02	 2.363942e+01
1	 1.245474e+00	 6.285517e-02	 2.395863e+01
1	 1.244223e+00	 8.405750e-02	 2.419620e+01
1	 1.242599e+00	 1.053716e-01	 2.434973e+01
1	 1.258824e+00	 0.000000e+00	 2.258787e+01
1	 1.258648e+00	 2.101502e-02	 2.305930e+01
1	 1.258117e+00	 4.216697e-02	 2.345430e+01
1	 1.257224e+00	 6.344815e-02	 2.377015e+01
1	 1.255961e+00	 8.485050e-02	 2.400423e+01
1	 1.254322e+00	 1.063656e-01	 2.415410e+01
1	 1.270588e+00	 0.000000e+00	 2.240615e+01
1	 1.270411e+00	 2.121142e-02	 2.287361e+01
1	 1.269875e+00	 4.256105e-02	 2.326452e+01
1	 1.268973e+00	 6.404112e-02	 2.357614e+01
1	 1.267699e+00	 8.564349e-02	 2.380589e+01
1	 1.266044e+00	 1.073597e-01	 2.395133e+01
1	 1.282353e+00	 0.000000e+00	 2.222051e+01
1	 1.282174e+00	 2.140782e-02	 2.268324e+01
1	 1.281633e+00	 4.295514e-02	 2.306924e+01
1	 1.280723e+00	 6.463409e-02	 2.337583e+01
1	 1.279437e+00	 8.643649e-02	 2.360044e+01
1	 1.277767e+00	 1.083538e-01	 2.374070e+01
1	 1.294118e+00	 0.000000e+00	 2.203013e+01
1	 1.293937e+00	 2.160422e-02	 2.248738e+01
1	 1.293391e+00	 4.334922e-02	 2.286771e+01
1	 1.292473e+00	 6.522707e-02	 2.316846e+01
1	 1.291174e+00	 8.722948e-02	 2.338718e+01
1	 1.289490e+00	 1.093479e-01	 2.352155e+01
1	 1.230876e+00	 1.043775e-01	 2.453891e+01
1	 1.228893e+00	 1.255926e-01	 2.461054e+01
1	 1.226528e+00	 1.469010e-01	 2.459768e+01
1	 1.223776e+00	 1.682934e-01	 2.449980e+01
1	 1.220632e+00	 1.897604e-01	 2.431665e+01
1	 1.217090e+00	 2.112921e-01	 2.404821e+01
1	 1.242599e+00	 1.053716e-01	 2.434973e+01
1	 1.240597e+00	 1.267887e-01	 2.441843e+01
1	 1.238210e+00	 1.483000e-01	 2.440270e+01
1	 1.235431e+00	 1.698962e-01	 2.430207e+01
1	 1.232257e+00	 1.915676e-01	 2.411637e+01
1	 1.228681e+00	 2.133044e-01	 2.384567e+01
1	 1.254322e+00	 1.063656e-01	 2.415410e+01
1	 1.252301e+00	 1.279849e-01	 2.421912e+01
1	 1.249891e+00	 1.496991e-01	 2.419978e+01
1	 1.247087e+00	 1.714990e-01	 2.409570e+01
1	 1.243882e+00	 1.933749e-01	 2.390674e+01
1	 1.240272e+00	 2.153168e-01	 2.363306e+01
1	 1.266044e+00	 1.073597e-01	 2.395133e+01
1	 1.264004e+00	 1.291810e-01	 2.401193e+01
1	 1.261572e+00	 1.510982e-01	 2.398833e+01
1	 1.258742e+00	 1.731018e-01	 2.388017e+01
1	 1.255507e+00	 1.951821e-01	 2.368736e+01
1	 1.251864e+00	 2.173291e-01	 2.341008e+01
1	 1.277767e+00	 1.083538e-01	 2.374070e+01
1	 1.275708e+00	 1.303771e-01	 2.379623e+01
1	 1.273253e+00	 1.524972e-01	 2.376779e+01
1	 1.270397e+00	 1.747046e-01	 2.365500e+01
1	 1.267132e+00	 1.969894e-01	 2.345781e+01
1	 1.263455e+00	 2.193414e-01	 2.317642e+01
1	 1.289490e+00	 1.093479e-01	 2.352155e+01
1	 1.287412e+00	 1.315732e-01	 2.357141e+01
1	 1.284934e+00	 1.538963e-01	 2.353759e+01
1	 1.282052e+00	 1.763074e-01	 2.341972e+01
1	 1.278757e+00	 1.987966e-01	 2.321772e+01
1	 1.275046e+00	 2.213537e-01	 2.293182e+01
1	 1.217090e+00	 2.112921e-01	 2.404821e+01
1	 1.213144e+00	 2.328785e-01	 2.369163e+01
1	 1.208791e+00	 2.545092e-01	 2.324401e+01
1	 1.204026e+00	 2.761734e-01	 2.270556e+01
1	 1.198846e+00	 2.978604e-01	 2.207662e+01
1	 1.193245e+00	 3.195588e-01	 2.135767e+01
1	 1.228681e+00	 2.133044e-01	 2.384567e+01
1	 1.224698e+00	 2.350964e-01	 2.348660e+01
1	 1.220304e+00	 2.569331e-01	 2.303555e+01
1	 1.215493e+00	 2.788037e-01	 2.249259e+01
1	 1.210263e+00	 3.006971e-01	 2.185797e+01
1	 1.204609e+00	 3.226022e-01	 2.113208e+01
1	 1.240272e+00	 2.153168e-01	 2.363306e+01
1	 1.236252e+00	 2.373143e-01	 2.327082e+01
1	 1.231816e+00	 2.593570e-01	 2.281587e+01
1	 1.226960e+00	 2.814339e-01	 2.226826e+01
1	 1.221681e+00	 3.035339e-01	 2.162822e+01
1	 1.215974e+00	 3.256456e-01	 2.089614e+01
1	 1.251864e+00	 2.173291e-01	 2.341008e+01
1	 1.247806e+00	 2.395322e-01	 2.304408e+01
1	 1.243328e+00	 2.617809e-01	 2.258482e+01
1	 1.238427e+00	 2.840641e-01	 2.203240e+01
1	 1.233098e+00	 3.063707e-01	 2.138712e+01
1	 1.227338e+00	 3.286890e-01	 2.064948e+01
1	 1.263455e+00	 2.193414e-01	 2.317642e+01
1	 1.259359e+00	 2.417501e-01	 2.280619e+01
1	 1.254841e+00	 2.642048e-01	 2.234224e+01
1	 1.249894e+00	 2.866943e-01	 2.178484e+01
1	 1.244516e+00	 3.092074e-01	 2.113443e+01
1	 1.238702e+00	 3.317325e-01	 2.039171e+01
1	 1.275046e+00	 2.213537e-01	 2.293182e+01
1	 1.270913e+00	 2.439680e-01	 2.255696e+01
1	 1.266353e+00	 2.666287e-01	 2.208799e+01
1	 1.261361e+00	 2.893246e-01	 2.152541e+01
1	 1.255933e+00	 3.120442e-01	 2.086993e+01
1	 1.250066e+00	 3.347759e-01	 2.012249e+01
1	 1.193245e+00	 3.195588e-01	 2.135767e+01
1	 1.187222e+00	 3.412573e-01	 2.055141e+01
1	 1.180772e+00	 3.629442e-01	 1.966136e+01
1	 1.173895e+00	 3.846076e-01	 1.868938e+01
1	 1.166587e+00	 4.062356e-01	 1.763738e+01
1	 1.158846e+00	 4.278159e-01	 1.650729e+01
1	 1.204609e+00	 3.226022e-01	 2.113208e+01
1	 1.198528e+00	 3.445073e-01	 2.031716e+01
1	 1.192018e+00	 3.664008e-01	 1.941635e+01
1	 1.185075e+00	 3.882705e-01	 1.843151e+01
1	 1.177697e+00	 4.101045e-01	 1.736458e+01
1	 1.169883e+00	 4.318903e-01	 1.621752e+01
1	 1.215974e+00	 3.256456e-01	 2.089614e+01
1	 1.209835e+00	 3.477574e-01	 2.007375e+01
1	 1.203263e+00	 3.698574e-01	 1.916359e+01
1	 1.196254e+00	 3.919335e-01	 1.816746e+01
1	 1.188807e+00	 4.139734e-01	 1.708724e+01
1	 1.180920e+00	 4.359647e-01	 1.592480e+01
1	 1.227338e+00	 3.286890e-01	 2.064948e+01
1	 1.221142e+00	 3.510075e-01	 1.982062e+01
1	 1.214509e+00	 3.733140e-01	 1.890233e+01
1	 1.207434e+00	 3.955964e-01	 1.789630e+01
1	 1.199918e+00	 4.178423e-01	 1.680423e+01
1	 1.191956e+00	 4.400392e-01	 1.562781e+01
1	 1.238702e+00	 3.317325e-01	 2.039171e+01
1	 1.232449e+00	 3.542575e-01	 1.955722e+01
1	 1.225754e+00	 3.767706e-01	 1.863187e+01
1	 1.218614e+00	 3.992593e-01	 1.761714e+01
1	 1.211028e+00	 4.217112e-01	 1.651445e+01
1	 1.202993e+00	 4.441136e-01	 1.532529e+01
1	 1.250066e+00	 3.347759e-01	 2.012249e+01
1	 1.243756e+00	 3.575076e-01	 1.928303e+01
1	 1.236999e+00	 3.802272e-01	 1.835152e+01
1	 1.229794e+00	 4.029223e-01	 1.732909e+01
1	 1.222138e+00	 4.255801e-01	 1.621688e+01
1	 1.214030e+00	 4.481880e-01	 1.501599e+01
1	 1.158846e+00	 4.278159e-01	 1.650729e+01
1	 1.150673e+00	 4.493360e-01	 1.530013e+01
1	 1.142066e+00	 4.707836e-01	 1.401387e+01
1	 1.133024e+00	 4.921459e-01	 1.264555e+01
1	 1.123549e+00	 5.134103e-01	 1.119172e+01
1	 1.113640e+00	 5.345638e-01	 9.648463e+00
1	 1.169883e+00	 4.318903e-01	 1.621752e+01
1	 1.161632e+00	 4.536154e-01	 1.498979e+01
1	 1.152943e+00	 4.752673e-01	 1.367817e+01
1	 1.143815e+00	 4.968330e-01	 1.228016e+01
1	 1.134249e+00	 5.182999e-01	 1.079278e+01
1	 1.124246e+00	 5.396549e-01	 9.212516e+00
1	 1.180920e+00	 4.359647e-01	 1.592480e+01
1	 1.172591e+00	 4.578948e-01	 1.467798e+01
1	 1.163819e+00	 4.797509e-01	 1.334227e+01
1	 1.154606e+00	 5.015201e-01	 1.191566e+01
1	 1.144950e+00	 5.231895e-01	 1.039563e+01
1	 1.134852e+00	 5.447460e-01	 8.779167e+00
1	 1.191956e+00	 4.400392e-01	 1.562781e+01
1	 1.183550e+00	 4.621742e-01	 1.436326e+01
1	 1.174696e+00	 4.842346e-01	 1.300484e+01
1	 1.165396e+00	 5.062072e-01	 1.155099e+01
1	 1.155650e+00	 5.280791e-01	 9.999701e+00
1	 1.145458e+00	 5.498371e-01	 8.348497e+00
1	 1.202993e+00	 4.441136e-01	 1.532529e+01
1	 1.194508e+00	 4.664536e-01	 1.404428e+01
1	 1.185573e+00	 4.887182e-01	 1.266458e+01
1	 1.176187e+00	 5.108943e-01	 1.118512e+01
1	 1.166350e+00	 5.329688e-01	 9.604423e+00
1	 1.156064e+00	 5.549282e-01	 7.920583e+00
1	 1.214030e+00	 4.481880e-01	 1.501599e+01
1	 1.205467e+00	 4.707330e-01	 1.371970e+01
1	 1.196450e+00	 4.932019e-01	 1.232027e+01
1	 1.186978e+00	 5.155815e-01	 1.081710e+01
1	 1.177051e+00	 5.378584e-01	 9.209258e+00
1	 1.166670e+00	 5.600193e-01	 7.495500e+00
1	 1.113640e+00	 5.345638e-01	 9.648463e+00
1	 1.103298e+00	 5.555938e-01	 8.063312e+00
1	 1.092526e+00	 5.764871e-01	 6.491230e+00
1	 1.081326e+00	 5.972311e-01	 4.940005e+00
1	 1.069700e+00	 6.178127e-01	 3.418657e+00
1	 1.057652e+00	 6.382192e-01	 1.937405e+00
1	 1.124246e+00	 5.396549e-01	 9.212516e+00
1	 1.113806e+00	 5.608851e-01	 7.593024e+00
1	 1.102932e+00	 5.819775e-01	 5.995065e+00
1	 1.091625e+00	 6.029190e-01	 4.426386e+00
1	 1.079888e+00	 6.236967e-01	 2.895988e+00
1	 1.067725e+00	 6.442975e-01	 1.414098e+00
1	 1.134852e+00	 5.447460e-01	 8.779167e+00
1	 1.124314e+00	 5.661765e-01	 7.126189e+00
1	 1.113337e+00	 5.874678e-01	 5.503390e+00
1	 1.101923e+00	 6.086069e-01	 3.918472e+00
1	 1.090076e+00	 6.295806e-01	 2.380372e+00
1	 1.077798e+00	 6.503758e-01	 8.992407e-01
1	 1.145458e+00	 5.498371e-01	 8.348497e+00
1	 1.134821e+00	 5.714679e-01	 6.663520e+00
1	 1.123742e+00	 5.929582e-01	 5.017304e+00
1	 1.112221e+00	 6.142948e-01	 3.417495e+00
1	 1.100263e+00	 6.354645e-01	 1.872924e+00
1	 1.087871e+00	 6.564541e-01	 3.935820e-01
1	 1.156064e+00	 5.549282e-01	 7.920583e+00
1	 1.145329e+00	 5.767592e-01	 6.205706e+00
1	 1.134147e+00	 5.984486e-01	 4.537862e+00
1	 1.122520e+00	 6.199827e-01	 2.924639e+00
1	 1.110451e+00	 6.413485e-01	 1.374718e+00
1	 1.097944e+00	 6.625324e-01	-1.021554e-01
1	 1.166670e+00	 5.600193e-01	 7.495500e+00
1	 1.155836e+00	 5.820506e-01	 5.753409e+00
1	 1.144552e+00	 6.039389e-01	 4.066084e+00
1	 1.132818e+00	 6.256707e-01	 2.441047e+00
1	 1.120639e+00	 6.472324e-01	 8.867870e-01
1	 1.108016e+00	 6.686106e-01	-5.872754e-01
1	 1.057652e+00	 6.382192e-01	 1.937405e+00
1	 1.045185e+00	 6.584378e-01	 5.345724e-01
1	 1.032303e+00	 6.784558e-01	-7.588647e-01
1	 1.019011e+00	 6.982607e-01	-1.942898e+00
1	 1.005315e+00	 7.178400e-01	-3.017617e+00
1	 9.912189e-01	 7.371815e-01	-3.983214e+00
1	 1.067725e+00	 6.442975e-01	 1.414098e+00
1	 1.055139e+00	 6.647087e-01	 1.552654e-02
1	 1.042134e+00	 6.849173e-01	-1.272557e+00
1	 1.028716e+00	 7.049108e-01	-2.450598e+00
1	 1.014889e+00	 7.246766e-01	-3.519198e+00
1	 1.000659e+00	 7.442023e-01	-4.479118e+00
1	 1.077798e+00	 6.503758e-01	 8.992407e-01
1	 1.065093e+00	 6.709795e-01	-4.939026e-01
1	 1.051966e+00	 6.913788e-01	-1.775896e+00
1	 1.038421e+00	 7.115609e-01	-2.947631e+00
1	 1.024463e+00	 7.315132e-01	-4.010195e+00
1	 1.010099e+00	 7.512231e-01	-4.964876e+00
1	 1.087871e+00	 6.564541e-01	 3.935820e-01
1	 1.075047e+00	 6.772503e-01	-9.933907e-01
1	 1.061797e+00	 6.978403e-01	-2.268858e+00
1	 1.048126e+00	 7.182110e-01	-3.434151e+00
1	 1.034038e+00	 7.383497e-01	-4.490821e+00
1	 1.019539e+00	 7.582438e-01	-5.440634e+00
1	 1.097944e+00	 6.625324e-01	-1.021554e-01
1	 1.085001e+00	 6.835212e-01	-1.482625e+00
1	 1.071629e+00	 7.043018e-01	-2.751421e+00
1	 1.057831e+00	 7.248611e-01	-3.910311e+00
1	 1.043612e+00	 7.451863e-01	-4.961281e+00
1	 1.028980e+00	 7.652646e-01	-5.906535e+00
1	 1.108016e+00	 6.686106e-01	-5.872754e-01
1	 1.094955e+00	 6.897920e-01	-1.961306e+00
1	 1.081460e+00	 7.107633e-01	-3.223566e+00
1	 1.067535e+00	 7.315112e-01	-4.376254e+00
1	 1.053187e+00	 7.520229e-01	-5.421772e+00
1	 1.038420e+00	 7.722854e-01	-6.362716e+00
1	 9.912189e-01	 7.371815e-01	-3.983214e+00
1	 9.767305e-01	 7.562731e-01	-4.868705e+00
1	 9.618559e-01	 7.751030e-01	-5.700240e+00
1	 9.466023e-01	 7.936596e-01	-6.473667e+00
1	 9.309773e-01	 8.119316e-01	-7.184668e+00
1	 9.149889e-01	 8.299078e-01	-7.828789e+00
1	 1.000659e+00	 7.442023e-01	-4.479118e+00
1	 9.860327e-01	 7.634757e-01	-5.359156e+00
1	 9.710165e-01	 7.824850e-01	-6.184878e+00
1	 9.556176e-01	 8.012183e-01	-6.952177e+00
1	 9.398437e-01	 8.196642e-01	-7.656765e+00
1	 9.237030e-01	 8.378117e-01	-8.294195e+00
1	 1.010099e+00	 7.512231e-01	-4.964876e+00
1	 9.953349e-01	 7.706783e-01	-5.840011e+00
1	 9.801770e-01	 7.898669e-01	-6.660352e+00
1	 9.646328e-01	 8.087770e-01	-7.421792e+00
1	 9.487102e-01	 8.273969e-01	-8.120026e+00
1	 9.324172e-01	 8.457156e-01	-8.750571e+00
1	 1.019539e+00	 7.582438e-01	-5.440634e+00
1	 1.004637e+00	 7.778809e-01	-6.311295e+00
1	 9.893375e-01	 7.972488e-01	-7.126574e+00
1	 9.736481e-01	 8.163356e-01	-7.882318e+00
1	 9.575766e-01	 8.351296e-01	-8.574159e+00
1	 9.411314e-01	 8.536194e-01	-9.197539e+00
1	 1.028980e+00	 7.652646e-01	-5.906535e+00
1	 1.013939e+00	 7.850835e-01	-6.773033e+00
1	 9.984981e-01	 8.046308e-01	-7.583457e+00
1	 9.826634e-01	 8.238943e-01	-8.333565e+00
1	 9.664431e-01	 8.428623e-01	-9.018884e+00
1	 9.498456e-01	 8.615233e-01	-9.634736e+00
1	 1.038420e+00	 7.722854e-01	-6.362716e+00
1	 1.023241e+00	 7.922861e-01	-7.225249e+00
1	 1.007659e+00	 8.120127e-01	-8.030919e+00
1	 9.916786e-01	 8.314530e-01	-8.775352e+00
1	 9.753095e-01	 8.505950e-01	-9.453929e+00
1	 9.585598e-01	 8.694272e-01	-1.006181e+01
1	 9.149889e-01	 8.299078e-01	-7.828789e+00
1	 8.986456e-01	 8.475775e-01	-8.429375e+00
1	 8.819563e-01	 8.649304e-01	-9.011705e+00
1	 8.649304e-01	 8.819563e-01	-9.574276e+00
1	 8.475775e-01	 8.986456e-01	-1.011577e+01
1	 8.299078e-01	 9.149889e-01	-1.063508e+01
1	 9.237030e-01	 8.378117e-01	-8.294195e+00
1	 9.072041e-01	 8.556497e-01	-8.888918e+00
1	 8.903559e-01	 8.731678e-01	-9.467270e+00
1	 8.731678e-01	 8.903559e-01	-1.002765e+01
1	 8.556497e-01	 9.072041e-01	-1.056864e+01
1	 8.378117e-01	 9.237030e-01	-1.108898e+01
1	 9.324172e-01	 8.457156e-01	-8.750571e+00
1	 9.157626e-01	 8.637219e-01	-9.338978e+00
1	 8.987555e-01	 8.814053e-01	-9.912743e+00
1	 8.814053e-01	 8.987555e-01	-1.047031e+01
1	 8.637219e-01	 9.157626e-01	-1.101029e+01
1	 8.457156e-01	 9.324172e-01	-1.153146e+01
1	 9.411314e-01	 8.536194e-01	-9.197539e+00
1	 9.243212e-01	 8.717940e-01	-9.779131e+00
1	 9.071551e-01	 8.896427e-01	-1.034773e+01
1	 8.896427e-01	 9.071551e-01	-1.090195e+01
1	 8.717940e-01	 9.243212e-01	-1.144058e+01
1	 8.536194e-01	 9.411314e-01	-1.196257e+01
1	 9.498456e-01	 8.615233e-01	-9.634736e+00
1	 9.328797e-01	 8.798662e-01	-1.020897e+01
1	 9.155547e-01	 8.978801e-01	-1.077184e+01
1	 8.978801e-01	 9.155547e-01	-1.132226e+01
1	 8.798662e-01	 9.328797e-01	-1.185934e+01
1	 8.615233e-01	 9.498456e-01	-1.238236e+01
1	 9.585598e-01	 8.694272e-01	-1.006181e+01
1	 9.414382e-01	 8.879384e-01	-1.062810e+01
1	 9.239542e-01	 9.061176e-01	-1.118470e+01
1	 9.061176e-01	 9.239542e-01	-1.173096e+01
1	 8.879384e-01	 9.414382e-01	-1.226644e+01
1	 8.694272e-01	 9.585598e-01	-1.279087e+01
1	 8.299078e-01	 9.149889e-01	-1.063508e+01
1	 8.119316e-01	 9.309773e-01	-1.115724e+01
1	 7.936596e-01	 9.466023e-01	-1.170690e+01
1	 7.751030e-01	 9.618559e-01	-1.228268e+01
1	 7.562731e-01	 9.767305e-01	-1.288345e+01
1	 7.371815e-01	 9.912189e-01	-1.350833e+01
1	 8.378117e-01	 9.237030e-01	-1.108898e+01
1	 8.196642e-01	 9.398437e-01	-1.161428e+01
1	 8.012183e-01	 9.556176e-01	-1.217023e+01
1	 7.824850e-01	 9.710165e-01	-1.275601e+01
1	 7.634757e-01	 9.860327e-01	-1.337110e+01
1	 7.442023e-01	 1.000659e+00	-1.401526e+01
1	 8.457156e-01	 9.324172e-01	-1.153146e+01
1	 8.273969e-01	 9.487102e-01	-1.206024e+01
1	 8.087770e-01	 9.646328e-01	-1.262329e+01
1	 7.898669e-01	 9.801770e-01	-1.322011e+01
1	 7.706783e-01	 9.953349e-01	-1.385049e+01
1	 7.512231e-01	 1.010099e+00	-1.451452e+01
1	 8.536194e-01	 9.411314e-01	-1.196257e+01
1	 8.351296e-01	 9.575766e-01	-1.249530e+01
1	 8.163356e-01	 9.736481e-01	-1.306630e+01
1	 7.972488e-01	 9.893375e-01	-1.367507e+01
1	 7.778809e-01	 1.004637e+00	-1.432145e+01
1	 7.582438e-01	 1.019539e+00	-1.500555e+01
1	 8.615233e-01	 9.498456e-01	-1.238236e+01
1	 8.428623e-01	 9.664431e-01	-1.291968e+01
1	 8.238943e-01	 9.826634e-01	-1.349946e+01
1	 8.046308e-01	 9.984981e-01	-1.412098e+01
1	 7.850835e-01	 1.013939e+00	-1.478382e+01
1	 7.652646e-01	 1.028980e+00	-1.548781e+01
1	 8.694272e-01	 9.585598e-01	-1.279087e+01
1	 8.505950e-01	 9.753095e-01	-1.333356e+01
1	 8.314530e-01	 9.916786e-01	-1.392297e+01
1	 8.120127e-01	 1.007659e+00	-1.455791e+01
1	 7.922861e-01	 1.023241e+00	-1.523742e+01
1	 7.722854e-01	 1.038420e+00	-1.596079e+01
1	 7.371815e-01	 9.912189e-01	-1.350833e+01
1	 7.178400e-01	 1.005315e+00	-1.417573e+01
1	 6.982607e-01	 1.019011e+00	-1.490345e+01
1	 6.784558e-01	 1.032303e+00	-1.568999e+01
1	 6.584378e-01	 1.045185e+00	-1.653398e+01
1	 6.382192e-01	 1.057652e+00	-1.743421e+01
1	 7.442023e-01	 1.000659e+00	-1.401526e+01
1	 7.246766e-01	 1.014889e+00	-1.470719e+01
1	 7.049108e-01	 1.028716e+00	-1.546407e+01
1	 6.849173e-01	 1.042134e+00	-1.628364e+01
1	 6.647087e-01	 1.055139e+00	-1.716371e+01
1	 6.442975e-01	 1.067725e+00	-1.810220e+01
1	 7.512231e-01	 1.010099e+00	-1.451452e+01
1	 7.315132e-01	 1.024463e+00	-1.523077e+01
1	 7.115609e-01	 1.038421e+00	-1.601599e+01
1	 6.913788e-01	 1.051966e+00	-1.686781e+01
1	 6.709795e-01	 1.065093e+00	-1.778391e+01
1	 6.503758e-01	 1.077798e+00	-1.876203e+01
1	 7.582438e-01	 1.019539e+00	-1.500555e+01
1	 7.383497e-01	 1.034038e+00	-1.574559e+01
1	 7.182110e-01	 1.048126e+00	-1.655831e+01
1	 6.978403e-01	 1.061797e+00	-1.744184e+01
1	 6.772503e-01	 1.075047e+00	-1.839439e+01
1	 6.564541e-01	 1.087871e+00	-1.941421e+01
1	 7.652646e-01	 1.028980e+00	-1.548781e+01
1	 7.451863e-01	 1.043612e+00	-1.625084e+01
1	 7.248611e-01	 1.057831e+00	-1.709018e+01
1	 7.043018e-01	 1.071629e+00	-1.800511e+01
1	 6.835212e-01	 1.085001e+00	-1.899498e+01
1	 6.625324e-01	 1.097944e+00	-2.005924e+01
1	 7.722854e-01	 1.038420e+00	-1.596079e+01
1	 7.520229e-01	 1.053187e+00	-1.674570e+01
1	 7.315112e-01	 1.067535e+00	-1.761079e+01
1	 7.107633e-01	 1.081460e+00	-1.855701e+01
1	 6.897920e-01	 1.094955e+00	-1.958551e+01
1	 6.686106e-01	 1.108016e+00	-2.069759e+01
1	 6.382192e-01	 1.057652e+00	-1.743421e+01
1	 6.178127e-01	 1.069700e+00	-1.837848e+01
1	 5.972311e-01	 1.081326e+00	-1.935815e+01
1	 5.764871e-01	 1.092526e+00	-2.037770e+01
1	 5.555938e-01	 1.103298e+00	-2.144193e+01
1	 5.345638e-01	 1.113640e+00	-2.255593e+01
1	 6.442975e-01	 1.067725e+00	-1.810220e+01
1	 6.236967e-01	 1.079888e+00	-1.908757e+01
1	 6.029190e-01	 1.091625e+00	-2.011307e+01
1	 5.819775e-01	 1.102932e+00	-2.118409e+01
1	 5.608851e-01	 1.113806e+00	-2.230640e+01
1	 5.396549e-01	 1.124246e+00	-2.348612e+01
1	 6.503758e-01	 1.077798e+00	-1.876203e+01
1	 6.295806e-01	 1.090076e+00	-1.979195e+01
1	 6.086069e-01	 1.101923e+00	-2.086805e+01
1	 5.874678e-01	 1.113337e+00	-2.199532e+01
1	 5.661765e-01	 1.124314e+00	-2.317912e+01
1	 5.447460e-01	 1.134852e+00	-2.442514e+01
1	 6.564541e-01	 1.087871e+00	-1.941421e+01
1	 6.354645e-01	 1.100263e+00	-2.049267e+01
1	 6.142948e-01	 1.112221e+00	-2.162427e+01
1	 5.929582e-01	 1.123742e+00	-2.281230e+01
1	 5.714679e-01	 1.134821e+00	-2.406034e+01
1	 5.498371e-01	 1.145458e+00	-2.537229e+01
1	 6.625324e-01	 1.097944e+00	-2.005924e+01
1	 6.413485e-01	 1.110451e+00	-2.119078e+01
1	 6.199827e-01	 1.122520e+00	-2.238290e+01
1	 5.984486e-01	 1.134147e+00	-2.363590e+01
1	 5.767592e-01	 1.145329e+00	-2.495032e+01
1	 5.549282e-01	 1.156064e+00	-2.632689e+01
1	 6.686106e-01	 1.108016e+00	-2.069759e+01
1	 6.472324e-01	 1.120639e+00	-2.188727e+01
1	 6.256707e-01	 1.132818e+00	-2.314504e+01
1	 6.039389e-01	 1.144552e+00	-2.446699e+01
1	 5.820506e-01	 1.155836e+00	-2.584931e+01
1	 5.600193e-01	 1.166670e+00	-2.728829e+01
1	 5.345638e-01	 1.113640e+00	-2.255593e+01
1	 5.134103e-01	 1.123549e+00	-2.370658e+01
1	 4.921459e-01	 1.133024e+00	-2.487196e+01
1	 4.707836e-01	 1.142066e+00	-2.604400e+01
1	 4.493360e-01	 1.150673e+00	-2.721449e+01
1	 4.278159e-01	 1.158846e+00	-2.837504e+01
1	 5.396549e-01	 1.124246e+00	-2.348612e+01
1	 5.182999e-01	 1.134249e+00	-2.470796e+01
1	 4.968330e-01	 1.143815e+00	-2.594541e+01
1	 4.752673e-01	 1.152943e+00	-2.718772e+01
1	 4.536154e-01	 1.161632e+00	-2.842390e+01
1	 4.318903e-01	 1.169883e+00	-2.964279e+01
1	 5.447460e-01	 1.134852e+00	-2.442514e+01
1	 5.231895e-01	 1.144950e+00	-2.571458e+01
1	 5.015201e-01	 1.154606e+00	-2.701664e+01
1	 4.797509e-01	 1.163819e+00	-2.831901e+01
1	 4.578948e-01	 1.172591e+00	-2.960912e+01
1	 4.359647e-01	 1.180920e+00	-3.087422e+01
1	 5.498371e-01	 1.145458e+00	-2.537229e+01
1	 5.280791e-01	 1.155650e+00	-2.672480e+01
1	 5.062072e-01	 1.165396e+00	-2.808343e+01
1	 4.842346e-01	 1.174696e+00	-2.943539e+01
1	 4.621742e-01	 1.183550e+00	-3.076769e+01
1	 4.400392e-01	 1.191956e+00	-3.206713e+01
1	 5.549282e-01	 1.156064e+00	-2.632689e+01
1	 5.329688e-01	 1.166350e+00	-2.773704e+01
1	 5.108943e-01	 1.176187e+00	-2.914362e+01
1	 4.887182e-01	 1.185573e+00	-3.053446e+01
1	 4.664536e-01	 1.194508e+00	-3.189722e+01
1	 4.441136e-01	 1.202993e+00	-3.321939e+01
1	 5.600193e-01	 1.166670e+00	-2.728829e+01
1	 5.378584e-01	 1.177051e+00	-2.874978e+01
1	 5.155815e-01	 1.186978e+00	-3.019516e+01
1	 4.932019e-01	 1.196450e+00	-3.161391e+01
1	 4.707330e-01	 1.205467e+00	-3.299541e+01
1	 4.481880e-01	 1.214030e+00	-3.432896e+01
1	 4.278159e-01	 1.158846e+00	-2.837504e+01
1	 4.062356e-01	 1.166587e+00	-2.951543e+01
1	 3.846076e-01	 1.173895e+00	-3.062585e+01
1	 3.629442e-01	 1.180772e+00	-3.169846e+01
1	 3.412573e-01	 1.187222e+00	-3.272548e+01
1	 3.195588e-01	 1.193245e+00	-3.369921e+01
1	 4.318903e-01	 1.169883e+00	-2.964279e+01
1	 4.101045e-01	 1.177697e+00	-3.083209e+01
1	 3.882705e-01	 1.185075e+00	-3.198204e+01
1	 3.664008e-01	 1.192018e+00	-3.308518e+01
1	 3.445073e-01	 1.198528e+00	-3.413416e+01
1	 3.226022e-01	 1.204609e+00	-3.512169e+01
1	 4.359647e-01	 1.180920e+00	-3.087422e+01
1	 4.139734e-01	 1.188807e+00	-3.210119e+01
1	 3.919335e-01	 1.196254e+00	-3.328090e+01
1	 3.698574e-01	 1.203263e+00	-3.440649e+01
1	 3.477574e-01	 1.209835e+00	-3.547119e+01
1	 3.256456e-01	 1.215974e+00	-3.646834e+01
1	 4.400392e-01	 1.191956e+00	-3.206713e+01
1	 4.178423e-01	 1.199918e+00	-3.332091e+01
1	 3.955964e-01	 1.207434e+00	-3.452099e+01
1	 3.733140e-01	 1.214509e+00	-3.566130e+01
1	 3.510075e-01	 1.221142e+00	-3.673584e+01
1	 3.286890e-01	 1.227338e+00	-3.773873e+01
1	 4.441136e-01	 1.202993e+00	-3.321939e+01
1	 4.217112e-01	 1.211028e+00	-3.448949e+01
1	 3.992593e-01	 1.218614e+00	-3.570091e+01
1	 3.767706e-01	 1.225754e+00	-3.684855e+01
1	 3.542575e-01	 1.232449e+00	-3.792737e+01
1	 3.317325e-01	 1.238702e+00	-3.893247e+01
1	 4.481880e-01	 1.214030e+00	-3.432896e+01
1	 4.255801e-01	 1.222138e+00	-3.560522e+01
1	 4.029223e-01	 1.229794e+00	-3.681931e+01
1	 3.802272e-01	 1.236999e+00	-3.796724e+01
1	 3.575076e-01	 1.243756e+00	-3.904512e+01
1	 3.347759e-01	 1.250066e+00	-4.004915e+01
1	 3.195588e-01	 1.193245e+00	-3.369921e+01
1	 2.978604e-01	 1.198846e+00	-3.461156e+01
1	 2.761734e-01	 1.204026e+00	-3.545882e+01
1	 2.545092e-01	 1.208791e+00	-3.624004e+01
1	 2.328785e-01	 1.213144e+00	-3.695441e+01
1	 2.112921e-01	 1.217090e+00	-3.760123e+01
1	 3.226022e-01	 1.204609e+00	-3.512169e+01
1	 3.006971e-01	 1.210263e+00	-3.604067e+01
1	 2.788037e-01	 1.215493e+00	-3.688896e+01
1	 2.569331e-01	 1.220304e+00	-3.766697e+01
1	 2.350964e-01	 1.224698e+00	-3.837526e+01
1	 2.133044e-01	 1.228681e+00	-3.901451e+01
1	 3.256456e-01	 1.215974e+00	-3.646834e+01
1	 3.035339e-01	 1.221681e+00	-3.739193e+01
1	 2.814339e-01	 1.226960e+00	-3.824105e+01
1	 2.593570e-01	 1.231816e+00	-3.901691e+01
1	 2.373143e-01	 1.236252e+00	-3.972087e+01
1	 2.153168e-01	 1.240272e+00	-4.035442e+01
1	 3.286890e-01	 1.227338e+00	-3.773873e+01
1	 3.063707e-01	 1.233098e+00	-3.866517e+01
1	 2.840641e-01	 1.238427e+00	-3.951507e+01
1	 2.617809e-01	 1.243328e+00	-4.028988e+01
1	 2.395322e-01	 1.247806e+00	-4.099122e+01
1	 2.173291e-01	 1.251864e+00	-4.162084e+01
1	 3.317325e-01	 1.238702e+00	-3.893247e+01
1	 3.092074e-01	 1.244516e+00	-3.986023e+01
1	 2.866943e-01	 1.249894e+00	-4.071098e+01
1	 2.642048e-01	 1.254841e+00	-4.148589e+01
1	 2.417501e-01	 1.259359e+00	-4.218630e+01
1	 2.193414e-01	 1.263455e+00	-4.281369e+01
1	 3.347759e-01	 1.250066e+00	-4.004915e+01
1	 3.120442e-01	 1.255933e+00	-4.097695e+01
1	 2.893246e-01	 1.261361e+00	-4.182876e+01
1	 2.666287e-01	 1.266353e+00	-4.260497e+01
1	 2.439680e-01	 1.270913e+00	-4.330611e+01
1	 2.213537e-01	 1.275046e+00	-4.393285e+01
1	 2.112921e-01	 1.217090e+00	-3.760123e+01
1	 1.897604e-01	 1.220632e+00	-3.818101e+01
1	 1.682934e-01	 1.223776e+00	-3.869553e+01
1	 1.469010e-01	 1.226528e+00	-3.914622e+01
1	 1.255926e-01	 1.228893e+00	-3.953459e+01
1	 1.043775e-01	 1.230876e+00	-3.986223e+01
1	 2.133044e-01	 1.228681e+00	-3.901451e+01
1	 1.915676e-01	 1.232257e+00	-3.958638e+01
1	 1.698962e-01	 1.235431e+00	-4.009271e+01
1	 1.483000e-01	 1.238210e+00	-4.053464e+01
1	 1.267887e-01	 1.240597e+00	-4.091341e+01
1	 1.053716e-01	 1.242599e+00	-4.123036e+01
1	 2.153168e-01	 1.240272e+00	-4.035442e+01
1	 1.933749e-01	 1.243882e+00	-4.091985e+01
1	 1.714990e-01	 1.247087e+00	-4.141902e+01
1	 1.496991e-01	 1.249891e+00	-4.185297e+01
1	 1.279849e-01	 1.252301e+00	-4.222281e+01
1	 1.063656e-01	 1.254322e+00	-4.252974e+01
1	 2.173291e-01	 1.251864e+00	-4.162084e+01
1	 1.951821e-01	 1.255507e+00	-4.218121e+01
1	 1.731018e-01	 1.258742e+00	-4.267420e+01
1	 1.510982e-01	 1.261572e+00	-4.310088e+01
1	 1.291810e-01	 1.264004e+00	-4.346238e+01
1	 1.073597e-01	 1.266044e+00	-4.375995e+01
1	 2.193414e-01	 1.263455e+00	-4.281369e+01
1	 1.969894e-01	 1.267132e+00	-4.337026e+01
1	 1.747046e-01	 1.270397e+00	-4.385796e+01
1	 1.524972e-01	 1.273253e+00	-4.427802e+01
1	 1.303771e-01	 1.275708e+00	-4.463176e+01
1	 1.083538e-01	 1.277767e+00	-4.492059e+01
1	 2.213537e-01	 1.275046e+00	-4.393285e+01
1	 1.987966e-01	 1.278757e+00	-4.448681e+01
1	 1.763074e-01	 1.282052e+00	-4.497004e+01
1	 1.538963e-01	 1.284934e+00	-4.538408e+01
1	 1.315732e-01	 1.287412e+00	-4.573058e+01
1	 1.093479e-01	 1.289490e+00	-4.601127e+01
1	 1.043775e-01	 1.230876e+00	-3.986223e+01
1	 8.326451e-02	 1.232485e+00	-4.013090e+01
1	 6.226220e-02	 1.233724e+00	-4.034381e+01
1	 4.137880e-02	 1.234601e+00	-4.050490e+01
1	 2.062221e-02	 1.235122e+00	-4.061804e+01
1	 0.000000e+00	 1.235294e+00	-4.068713e+01
1	 1.053716e-01	 1.242599e+00	-4.123036e+01
1	 8.405750e-02	 1.244223e+00	-4.148712e+01
1	 6.285517e-02	 1.245474e+00	-4.168721e+01
1	 4.177289e-02	 1.246359e+00	-4.183486e+01
1	 2.081861e-02	 1.246885e+00	-4.193429e+01
1	 0.000000e+00	 1.247059e+00	-4.198966e+01
1	 1.063656e-01	 1.254322e+00	-4.252974e+01
1	 8.485050e-02	 1.255961e+00	-4.277540e+01
1	 6.344815e-02	 1.257224e+00	-4.296348e+01
1	 4.216697e-02	 1.258117e+00	-4.309835e+01
1	 2.101502e-02	 1.258648e+00	-4.318435e+01
1	 0.000000e+00	 1.258824e+00	-4.322578e+01
1	 1.073597e-01	 1.266044e+00	-4.375995e+01
1	 8.564349e-02	 1.267699e+00	-4.399531e+01
1	 6.404112e-02	 1.268973e+00	-4.417217e+01
1	 4.256105e-02	 1.269875e+00	-4.429488e+01
1	 2.121142e-02	 1.270411e+00	-4.436774e+01
1	 0.000000e+00	 1.270588e+00	-4.439501e+01
1	 1.083538e-01	 1.277767e+00	-4.492059e+01
1	 8.643649e-02	 1.279437e+00	-4.514640e+01
1	 6.463409e-02	 1.280723e+00	-4.531283e+01
1	 4.295514e-02	 1.281633e+00	-4.542400e+01
1	 2.140782e-02	 1.282174e+00	-4.548400e+01
1	 0.000000e+00	 1.282353e+00	-4.549691e+01
1	 1.093479e-01	 1.289490e+00	-4.601127e+01
1	 8.722948e-02	 1.291174e+00	-4.622828e+01
1	 6.522707e-02	 1.292473e+00	-4.638503e+01
1	 4.334922e-02	 1.293391e+00	-4.648526e+01
1	 2.160422e-02	 1.293937e+00	-4.653271e+01
1	 0.000000e+00	 1.294118e+00	-4.653108e+01
1	 1.294118e+00	 0.000000e+00	 2.203013e+01
1	 1.293937e+00	 2.160422e-02	 2.248738e+01
1	 1.293391e+00	 4.334922e-02	 2.286771e+01
1	 1.292473e+00	 6.522707e-02	 2.316846e+01
1	 1.291174e+00	 8.722948e-02	 2.338718e+01
1	 1.289490e+00	 1.093479e-01	 2.352155e+01
1	 1.305882e+00	 0.000000e+00	 2.183503e+01
1	 1.305700e+00	 2.180062e-02	 2.228601e+01
1	 1.305150e+00	 4.374330e-02	 2.265991e+01
1	 1.304223e+00	 6.582004e-02	 2.295416e+01
1	 1.302912e+00	 8.802248e-02	 2.316637e+01
1	 1.301212e+00	 1.103419e-01	 2.329432e+01
1	 1.317647e+00	 0.000000e+00	 2.163546e+01
1	 1.317463e+00	 2.199703e-02	 2.207929e+01
1	 1.316908e+00	 4.413739e-02	 2.244605e+01
1	 1.315972e+00	 6.641301e-02	 2.273322e+01
1	 1.314650e+00	 8.881547e-02	 2.293846e+01
1	 1.312935e+00	 1.113360e-01	 2.305962e+01
1	 1.329412e+00	 0.000000e+00	 2.143094e+01
1	 1.329227e+00	 2.219343e-02	 2.186674e+01
1	 1.328666e+00	 4.453147e-02	 2.222566e+01
1	 1.327722e+00	 6.700599e-02	 2.250520e+01
1	 1.326388e+00	 8.960847e-02	 2.270303e+01
1	 1.324658e+00	 1.123301e-01	 2.281708e+01
1	 1.341176e+00	 0.000000e+00	 2.122100e+01
1	 1.340990e+00	 2.238983e-02	 2.164790e+01
1	 1.340424e+00	 4.492556e-02	 2.199829e+01
1	 1.339472e+00	 6.759896e-02	 2.226966e+01
1	 1.338126e+00	 9.040146e-02	 2.245970e+01
1	 1.336380e+00	 1.133241e-01	 2.256633e+01
1	 1.352941e+00	 0.000000e+00	 2.100520e+01
1	 1.352753e+00	 2.258623e-02	 2.142233e+01
1	 1.352182e+00	 4.531964e-02	 2.176352e+01
1	 1.351222e+00	 6.819193e-02	 2.202621e+01
1	 1.349864e+00	 9.119446e-02	 2.220807e+01
1	 1.348103e+00	 1.143182e-01	 2.230704e+01
1	 1.289490e+00	 1.093479e-01	 2.352155e+01
1	 1.287412e+00	 1.315732e-01	 2.357141e+01
1	 1.284934e+00	 1.538963e-01	 2.353759e+01
1	 1.282052e+00	 1.763074e-01	 2.341972e+01
1	 1.278757e+00	 1.987966e-01	 2.321772e+01
1	 1.275046e+00	 2.213537e-01	 2.293182e+01
1	 1.301212e+00	 1.103419e-01	 2.329432e+01
1	 1.299115e+00	 1.327693e-01	 2.333804e+01
1	 1.296616e+00	 1.552953e-01	 2.329848e+01
1	 1.293707e+00	 1.779102e-01	 2.317525e+01
1	 1.290382e+00	 2.006039e-01	 2.296825e+01
1	 1.286638e+00	 2.233660e-01	 2.267774e+01
1	 1.312935e+00	 1.113360e-01	 2.305962e+01
1	 1.310819e+00	 1.339655e-01	 2.309690e+01
1	 1.308297e+00	 1.566944e-01	 2.305135e+01
1	 1.305362e+00	 1.795130e-01	 2.292260e+01
1	 1.302007e+00	 2.024111e-01	 2.271058e+01
1	 1.298229e+00	 2.253783e-01	 2.241553e+01
1	 1.324658e+00	 1.123301e-01	 2.281708e+01
1	 1.322523e+00	 1.351616e-01	 2.284764e+01
1	 1.319978e+00	 1.580934e-01	 2.279588e+01
1	 1.317017e+00	 1.811158e-01	 2.266146e+01
1	 1.313633e+00	 2.042183e-01	 2.244432e+01
1	 1.309820e+00	 2.273906e-01	 2.214475e+01
1	 1.336380e+00	 1.133241e-01	 2.256633e+01
1	 1.334227e+00	 1.363577e-01	 2.258994e+01
1	 1.331659e+00	 1.594925e-01	 2.253177e+01
1	 1.328672e+00	 1.827186e-01	 2.239150e+01
1	 1.325258e+00	 2.060256e-01	 2.216914e+01
1	 1.321412e+00	 2.294029e-01	 2.186501e+01
1	 1.348103e+00	 1.143182e-01	 2.230704e+01
1	 1.345930e+00	 1.375538e-01	 2.232349e+01
1	 1.343341e+00	 1.608916e-01	 2.225870e+01
1	 1.340327e+00	 1.843214e-01	 2.211241e+01
1	 1.336883e+00	 2.078328e-01	 2.188468e+01
1	 1.333003e+00	 2.314152e-01	 2.157591e+01
1	 1.275046e+00	 2.213537e-01	 2.293182e+01
1	 1.270913e+00	 2.439680e-01	 2.255696e+01
1	 1.266353e+00	 2.666287e-01	 2.208799e+01
1	 1.261361e+00	 2.893246e-01	 2.152541e+01
1	 1.255933e+00	 3.120442e-01	 2.086993e+01
1	 1.250066e+00	 3.347759e-01	 2.012249e+01
1	 1.286638e+00	 2.233660e-01	 2.267774e+01
1	 1.282467e+00	 2.461859e-01	 2.229819e+01
1	 1.277865e+00	 2.690526e-01	 2.182415e+01
1	 1.272828e+00	 2.919548e-01	 2.125641e+01
1	 1.267351e+00	 3.148810e-01	 2.059595e+01
1	 1.261430e+00	 3.378193e-01	 1.984397e+01
1	 1.298229e+00	 2.253783e-01	 2.241553e+01
1	 1.294021e+00	 2.484038e-01	 2.203147e+01
1	 1.289377e+00	 2.714765e-01	 2.155263e+01
1	 1.284295e+00	 2.945850e-01	 2.097999e+01
1	 1.278769e+00	 3.177177e-01	 2.031479e+01
1	 1.272795e+00	 3.408627e-01	 1.955848e+01
1	 1.309820e+00	 2.273906e-01	 2.214475e+01
1	 1.305574e+00	 2.506217e-01	 2.175634e+01
1	 1.300890e+00	 2.739004e-01	 2.127294e+01
1	 1.295762e+00	 2.972152e-01	 2.069575e+01
1	 1.290186e+00	 3.205545e-01	 2.002617e+01
1	 1.284159e+00	 3.439061e-01	 1.926590e+01
1	 1.321412e+00	 2.294029e-01	 2.186501e+01
1	 1.317128e+00	 2.528396e-01	 2.147234e+01
1	 1.312402e+00	 2.763243e-01	 2.098466e+01
1	 1.307229e+00	 2.998455e-01	 2.040329e+01
1	 1.301604e+00	 3.233913e-01	 1.972982e+01
1	 1.295523e+00	 3.469495e-01	 1.896614e+01
1	 1.333003e+00	 2.314152e-01	 2.157591e+01
1	 1.328682e+00	 2.550574e-01	 2.117904e+01
1	 1.323914e+00	 2.787482e-01	 2.068734e+01
1	 1.318696e+00	 3.024757e-01	 2.010224e+01
1	 1.313021e+00	 3.262280e-01	 1.942547e+01
1	 1.306887e+00	 3.499930e-01	 1.865910e+01
1	 1.250066e+00	 3.347759e-01	 2.012249e+01
1	 1.243756e+00	 3.575076e-01	 1.928303e+01
1	 1.236999e+00	 3.802272e-01	 1.835152e+01
1	 1.229794e+00	 4.029223e-01	 1.732909e+01
1	 1.222138e+00	 4.255801e-01	 1.621688e+01
1	 1.214030e+00	 4.481880e-01	 1.501599e+01
1	 1.261430e+00	 3.378193e-01	 1.984397e+01
1	 1.255063e+00	 3.607577e-01	 1.899981e+01
1	 1.248245e+00	 3.836838e-01	 1.806244e+01
1	 1.240974e+00	 4.065852e-01	 1.703269e+01
1	 1.233249e+00	 4.294491e-01	 1.591135e+01
1	 1.225066e+00	 4.522625e-01	 1.469918e+01
1	 1.272795e+00	 3.408627e-01	 1.955848e+01
1	 1.266370e+00	 3.640077e-01	 1.870969e+01
1	 1.259490e+00	 3.871404e-01	 1.776641e+01
1	 1.252154e+00	 4.102481e-01	 1.672920e+01
1	 1.244359e+00	 4.333180e-01	 1.559860e+01
1	 1.236103e+00	 4.563369e-01	 1.437507e+01
1	 1.284159e+00	 3.439061e-01	 1.926590e+01
1	 1.277677e+00	 3.672578e-01	 1.841276e+01
1	 1.270736e+00	 3.905970e-01	 1.746362e+01
1	 1.263334e+00	 4.139111e-01	 1.641891e+01
1	 1.255469e+00	 4.371869e-01	 1.527894e+01
1	 1.247140e+00	 4.604114e-01	 1.404395e+01
1	 1.295523e+00	 3.469495e-01	 1.896614e+01
1	 1.288983e+00	 3.705079e-01	 1.810906e+01
1	 1.281981e+00	 3.940537e-01	 1.715427e+01
1	 1.274514e+00	 4.175740e-01	 1.610207e+01
1	 1.266580e+00	 4.410558e-01	 1.495265e+01
1	 1.258176e+00	 4.644858e-01	 1.370607e+01
1	 1.306887e+00	 3.499930e-01	 1.865910e+01
1	 1.300290e+00	 3.737580e-01	 1.779868e+01
1	 1.293227e+00	 3.975103e-01	 1.683854e+01
1	 1.285694e+00	 4.212369e-01	 1.577895e+01
1	 1.277690e+00	 4.449247e-01	 1.462002e+01
1	 1.269213e+00	 4.685602e-01	 1.336168e+01
1	 1.214030e+00	 4.481880e-01	 1.501599e+01
1	 1.205467e+00	 4.707330e-01	 1.371970e+01
1	 1.196450e+00	 4.932019e-01	 1.232027e+01
1	 1.186978e+00	 5.155815e-01	 1.081710e+01
1	 1.177051e+00	 5.378584e-01	 9.209258e+00
1	 1.166670e+00	 5.600193e-01	 7.495500e+00
1	 1.225066e+00	 4.522625e-01	 1.469918e+01
1	 1.216426e+00	 4.750124e-01	 1.338838e+01
1	 1.207327e+00	 4.976855e-01	 1.197068e+01
1	 1.197768e+00	 5.202686e-01	 1.044596e+01
1	 1.187751e+00	 5.427480e-01	 8.813878e+00
1	 1.177276e+00	 5.651103e-01	 7.073891e+00
1	 1.236103e+00	 4.563369e-01	 1.437507e+01
1	 1.227385e+00	 4.792918e-01	 1.305017e+01
1	 1.218204e+00	 5.021692e-01	 1.161549e+01
1	 1.208559e+00	 5.249557e-01	 1.007144e+01
1	 1.198452e+00	 5.476376e-01	 8.418322e+00
1	 1.187882e+00	 5.702014e-01	 6.656320e+00
1	 1.247140e+00	 4.604114e-01	 1.404395e+01
1	 1.238343e+00	 4.835712e-01	 1.270529e+01
1	 1.229080e+00	 5.066528e-01	 1.125486e+01
1	 1.219350e+00	 5.296428e-01	 9.693645e+00
1	 1.209152e+00	 5.525273e-01	 8.022615e+00
1	 1.198488e+00	 5.752925e-01	 6.242743e+00
1	 1.258176e+00	 4.644858e-01	 1.370607e+01
1	 1.249302e+00	 4.878506e-01	 1.235394e+01
1	 1.239957e+00	 5.111365e-01	 1.088894e+01
1	 1.230141e+00	 5.343299e-01	 9.312655e+00
1	 1.219853e+00	 5.574169e-01	 7.626783e+00
1	 1.209094e+00	 5.803836e-01	 5.833117e+00
1	 1.269213e+00	 4.685602e-01	 1.336168e+01
1	 1.260261e+00	 4.921299e-01	 1.199632e+01
1	 1.250834e+00	 5.156201e-01	 1.051786e+01
1	 1.240931e+00	 5.390170e-01	 8.928557e+00
1	 1.230553e+00	 5.623065e-01	 7.230850e+00
1	 1.219700e+00	 5.854747e-01	 5.427401e+00
1	 1.166670e+00	 5.600193e-01	 7.495500e+00
1	 1.155836e+00	 5.820506e-01	 5.753409e+00
1	 1.144552e+00	 6.039389e-01	 4.066084e+00
1	 1.132818e+00	 6.256707e-01	 2.441047e+00
1	 1.120639e+00	 6.472324e-01	 8.867870e-01
1	 1.108016e+00	 6.686106e-01	-5.872754e-01
1	 1.177276e+00	 5.651103e-01	 7.073891e+00
1	 1.166344e+00	 5.873420e-01	 5.308392e+00
1	 1.154957e+00	 6.094293e-01	 3.604725e+00
1	 1.143116e+00	 6.313586e-01	 1.970233e+00
1	 1.130826e+00	 6.531163e-01	 4.130722e-01
1	 1.118089e+00	 6.746889e-01	-1.057811e+00
1	 1.187882e+00	 5.702014e-01	 6.656320e+00
1	 1.176852e+00	 5.926333e-01	 4.871913e+00
1	 1.165362e+00	 6.149196e-01	 3.155784e+00
1	 1.153415e+00	 6.370465e-01	 1.514866e+00
1	 1.141014e+00	 6.590002e-01	-4.323436e-02
1	 1.128162e+00	 6.807672e-01	-1.510270e+00
1	 1.198488e+00	 5.752925e-01	 6.242743e+00
1	 1.187359e+00	 5.979247e-01	 4.443868e+00
1	 1.175767e+00	 6.204100e-01	 2.719118e+00
1	 1.163713e+00	 6.427344e-01	 1.074802e+00
1	 1.151201e+00	 6.648842e-01	-4.822453e-01
1	 1.138235e+00	 6.868455e-01	-1.944689e+00
1	 1.209094e+00	 5.803836e-01	 5.833117e+00
1	 1.197867e+00	 6.032161e-01	 4.024155e+00
1	 1.186172e+00	 6.259003e-01	 2.294593e+00
1	 1.174011e+00	 6.484223e-01	 6.498999e-01
1	 1.161389e+00	 6.707681e-01	-9.040691e-01
1	 1.148308e+00	 6.929237e-01	-2.361104e+00
1	 1.219700e+00	 5.854747e-01	 5.427401e+00
1	 1.208374e+00	 6.085074e-01	 3.612675e+00
1	 1.196577e+00	 6.313907e-01	 1.882075e+00
1	 1.184310e+00	 6.541102e-01	 2.400246e-01
1	 1.171577e+00	 6.766520e-01	-1.308811e+00
1	 1.158381e+00	 6.990020e-01	-2.759547e+00
1	 1.108016e+00	 6.686106e-01	-5.872754e-01
1	 1.094955e+00	 6.897920e-01	-1.961306e+00
1	 1.081460e+00	 7.107633e-01	-3.223566e+00
1	 1.067535e+00	 7.315112e-01	-4.376254e+00
1	 1.053187e+00	 7.520229e-01	-5.421772e+00
1	 1.038420e+00	 7.722854e-01	-6.362716e+00
1	 1.118089e+00	 6.746889e-01	-1.057811e+00
1	 1.104910e+00	 6.960629e-01	-2.425729e+00
1	 1.091292e+00	 7.172247e-01	-3.681924e+00
1	 1.077240e+00	 7.381613e-01	-4.828911e+00
1	 1.062761e+00	 7.588594e-01	-5.869387e+00
1	 1.047860e+00	 7.793062e-01	-6.806216e+00
1	 1.128162e+00	 6.807672e-01	-1.510270e+00
1	 1.114864e+00	 7.023337e-01	-2.872348e+00
1	 1.101123e+00	 7.236862e-01	-4.123045e+00
1	 1.086945e+00	 7.448114e-01	-5.264983e+00
1	 1.072335e+00	 7.656960e-01	-6.300935e+00
1	 1.057300e+00	 7.863269e-01	-7.233822e+00
1	 1.138235e+00	 6.868455e-01	-1.944689e+00
1	 1.124818e+00	 7.086045e-01	-3.301103e+00
1	 1.110955e+00	 7.301477e-01	-4.546792e+00
1	 1.096650e+00	 7.514615e-01	-5.684269e+00
1	 1.081910e+00	 7.725326e-01	-6.716182e+00
1	 1.066740e+00	 7.933477e-01	-7.645299e+00
1	 1.148308e+00	 6.929237e-01	-2.361104e+00
1	 1.134772e+00	 7.148754e-01	-3.711940e+00
1	 1.120786e+00	 7.366092e-01	-4.953030e+00
1	 1.106355e+00	 7.581116e-01	-6.086579e+00
1	 1.091484e+00	 7.793692e-01	-7.114902e+00
1	 1.076181e+00	 8.003685e-01	-8.040419e+00
1	 1.158381e+00	 6.990020e-01	-2.759547e+00
1	 1.144726e+00	 7.211462e-01	-4.104802e+00
1	 1.130617e+00	 7.430707e-01	-5.341631e+00
1	 1.116060e+00	 7.647617e-01	-6.471728e+00
1	 1.101059e+00	 7.862057e-01	-7.496880e+00
1	 1.085621e+00	 8.073893e-01	-8.418962e+00
1	 1.038420e+00	 7.722854e-01	-6.362716e+00
1	 1.023241e+00	 7.922861e-01	-7.225249e+00
1	 1.007659e+00	 8.120127e-01	-8.030919e+00
1	 9.916786e-01	 8.314530e-01	-8.775352e+00
1	 9.753095e-01	 8.505950e-01	-9.453929e+00
1	 9.585598e-01	 8.694272e-01	-1.006181e+01
1	 1.047860e+00	 7.793062e-01	-6.806216e+00
1	 1.032544e+00	 7.994887e-01	-7.664705e+00
1	 1.016819e+00	 8.193946e-01	-8.465351e+00
1	 1.000694e+00	 8.390116e-01	-9.203710e+00
1	 9.841760e-01	 8.583277e-01	-9.875086e+00
1	 9.672739e-01	 8.773311e-01	-1.047455e+01
1	 1.057300e+00	 7.863269e-01	-7.233822e+00
1	 1.041846e+00	 8.066913e-01	-8.088008e+00
1	 1.025980e+00	 8.267766e-01	-8.883091e+00
1	 1.009709e+00	 8.465703e-01	-9.614735e+00
1	 9.930424e-01	 8.660603e-01	-1.027834e+01
1	 9.759881e-01	 8.852350e-01	-1.086906e+01
1	 1.066740e+00	 7.933477e-01	-7.645299e+00
1	 1.051148e+00	 8.138939e-01	-8.494949e+00
1	 1.035140e+00	 8.341585e-01	-9.283990e+00
1	 1.018724e+00	 8.541289e-01	-1.000835e+01
1	 1.001909e+00	 8.737930e-01	-1.066370e+01
1	 9.847023e-01	 8.931389e-01	-1.124546e+01
1	 1.076181e+00	 8.003685e-01	-8.040419e+00
1	 1.060450e+00	 8.210965e-01	-8.885332e+00
1	 1.044301e+00	 8.415404e-01	-9.667900e+00
1	 1.027740e+00	 8.616876e-01	-1.038449e+01
1	 1.010775e+00	 8.815257e-01	-1.103120e+01
1	 9.934165e-01	 9.010427e-01	-1.160388e+01
1	 1.085621e+00	 8.073893e-01	-8.418962e+00
1	 1.069752e+00	 8.282991e-01	-9.258961e+00
1	 1.053461e+00	 8.489224e-01	-1.003468e+01
1	 1.036755e+00	 8.692463e-01	-1.074308e+01
1	 1.019642e+00	 8.892584e-01	-1.138084e+01
1	 1.002131e+00	 9.089466e-01	-1.194443e+01
1	 9.585598e-01	 8.694272e-01	-1.006181e+01
1	 9.414382e-01	 8.879384e-01	-1.062810e+01
1	 9.239542e-01	 9.061176e-01	-1.118470e+01
1	 9.061176e-01	 9.239542e-01	-1.173096e+01
1	 8.879384e-01	 9.414382e-01	-1.226644e+01
1	 8.694272e-01	 9.585598e-01	-1.279087e+01
1	 9.672739e-01	 8.773311e-01	-1.047455e+01
1	 9.499968e-01	 8.960105e-01	-1.103263e+01
1	 9.323538e-01	 9.143550e-01	-1.158293e+01
1	 9.143550e-01	 9.323538e-01	-1.212516e+01
1	 8.960105e-01	 9.499968e-01	-1.265928e+01
1	 8.773311e-01	 9.672739e-01	-1.318542e+01
1	 9.759881e-01	 8.852350e-01	-1.086906e+01
1	 9.585553e-01	 9.040827e-01	-1.141902e+01
1	 9.407534e-01	 9.225924e-01	-1.196344e+01
1	 9.225924e-01	 9.407534e-01	-1.250217e+01
1	 9.040827e-01	 9.585553e-01	-1.303524e+01
1	 8.852350e-01	 9.759881e-01	-1.356294e+01
1	 9.847023e-01	 8.931389e-01	-1.124546e+01
1	 9.671138e-01	 9.121549e-01	-1.178746e+01
1	 9.491530e-01	 9.308299e-01	-1.232641e+01
1	 9.308299e-01	 9.491530e-01	-1.286199e+01
1	 9.121549e-01	 9.671138e-01	-1.339414e+01
1	 8.931389e-01	 9.847023e-01	-1.392296e+01
1	 9.934165e-01	 9.010427e-01	-1.160388e+01
1	 9.756723e-01	 9.202270e-01	-1.213814e+01
1	 9.575526e-01	 9.390673e-01	-1.267196e+01
1	 9.390673e-01	 9.575526e-01	-1.320466e+01
1	 9.202270e-01	 9.756723e-01	-1.373577e+01
1	 9.010427e-01	 9.934165e-01	-1.426501e+01
1	 1.002131e+00	 9.089466e-01	-1.194443e+01
1	 9.842309e-01	 9.282992e-01	-1.247123e+01
1	 9.659522e-01	 9.473047e-01	-1.300023e+01
1	 9.473047e-01	 9.659522e-01	-1.353018e+01
1	 9.282992e-01	 9.842309e-01	-1.405997e+01
1	 9.089466e-01	 1.002131e+00	-1.458863e+01
1	 8.694272e-01	 9.585598e-01	-1.279087e+01
1	 8.505950e-01	 9.753095e-01	-1.333356e+01
1	 8.314530e-01	 9.916786e-01	-1.392297e+01
1	 8.120127e-01	 1.007659e+00	-1.455791e+01
1	 7.922861e-01	 1.023241e+00	-1.523742e+01
1	 7.722854e-01	 1.038420e+00	-1.596079e+01
1	 8.773311e-01	 9.672739e-01	-1.318542e+01
1	 8.583277e-01	 9.841760e-01	-1.373356e+01
1	 8.390116e-01	 1.000694e+00	-1.433236e+01
1	 8.193946e-01	 1.016819e+00	-1.498027e+01
1	 7.994887e-01	 1.032544e+00	-1.567596e+01
1	 7.793062e-01	 1.047860e+00	-1.641828e+01
1	 8.852350e-01	 9.759881e-01	-1.356294e+01
1	 8.660603e-01	 9.930424e-01	-1.411566e+01
1	 8.465703e-01	 1.009709e+00	-1.472249e+01
1	 8.267766e-01	 1.025980e+00	-1.538204e+01
1	 8.066913e-01	 1.041846e+00	-1.609308e+01
1	 7.863269e-01	 1.057300e+00	-1.685460e+01
1	 8.931389e-01	 9.847023e-01	-1.392296e+01
1	 8.737930e-01	 1.001909e+00	-1.447917e+01
1	 8.541289e-01	 1.018724e+00	-1.509265e+01
1	 8.341585e-01	 1.035140e+00	-1.576263e+01
1	 8.138939e-01	 1.051148e+00	-1.648856e+01
1	 7.933477e-01	 1.066740e+00	-1.727005e+01
1	 9.010427e-01	 9.934165e-01	-1.426501e+01
1	 8.815257e-01	 1.010775e+00	-1.482339e+01
1	 8.616876e-01	 1.027740e+00	-1.544212e+01
1	 8.415404e-01	 1.044301e+00	-1.612153e+01
1	 8.210965e-01	 1.060450e+00	-1.686218e+01
1	 8.003685e-01	 1.076181e+00	-1.766489e+01
1	 9.089466e-01	 1.002131e+00	-1.458863e+01
1	 8.892584e-01	 1.019642e+00	-1.514768e+01
1	 8.692463e-01	 1.036755e+00	-1.577024e+01
1	 8.489224e-01	 1.053461e+00	-1.645819e+01
1	 8.282991e-01	 1.069752e+00	-1.721373e+01
1	 8.073893e-01	 1.085621e+00	-1.803938e+01
1	 7.722854e-01	 1.038420e+00	-1.596079e+01
1	 7.520229e-01	 1.053187e+00	-1.674570e+01
1	 7.315112e-01	 1.067535e+00	-1.761079e+01
1	 7.107633e-01	 1.081460e+00	-1.855701e+01
1	 6.897920e-01	 1.094955e+00	-1.958551e+01
1	 6.686106e-01	 1.108016e+00	-2.069759e+01
1	 7.793062e-01	 1.047860e+00	-1.641828e+01
1	 7.588594e-01	 1.062761e+00	-1.722528e+01
1	 7.381613e-01	 1.077240e+00	-1.811720e+01
1	 7.172247e-01	 1.091292e+00	-1.909651e+01
1	 6.960629e-01	 1.104910e+00	-2.016588e+01
1	 6.746889e-01	 1.118089e+00	-2.132822e+01
1	 7.863269e-01	 1.057300e+00	-1.685460e+01
1	 7.656960e-01	 1.072335e+00	-1.768562e+01
1	 7.448114e-01	 1.086945e+00	-1.860754e+01
1	 7.236862e-01	 1.101123e+00	-1.962327e+01
1	 7.023337e-01	 1.114864e+00	-2.073600e+01
1	 6.807672e-01	 1.128162e+00	-2.194914e+01
1	 7.933477e-01	 1.066740e+00	-1.727005e+01
1	 7.725326e-01	 1.081910e+00	-1.812740e+01
1	 7.514615e-01	 1.096650e+00	-1.908251e+01
1	 7.301477e-01	 1.110955e+00	-2.013775e+01
1	 7.086045e-01	 1.124818e+00	-2.129577e+01
1	 6.868455e-01	 1.138235e+00	-2.255943e+01
1	 8.003685e-01	 1.076181e+00	-1.766489e+01
1	 7.793692e-01	 1.091484e+00	-1.855128e+01
1	 7.581116e-01	 1.106355e+00	-1.954280e+01
1	 7.366092e-01	 1.120786e+00	-2.064038e+01
1	 7.148754e-01	 1.134772e+00	-2.184508e+01
1	 6.929237e-01	 1.148308e+00	-2.315817e+01
1	 8.073893e-01	 1.085621e+00	-1.803938e+01
1	 7.862057e-01	 1.101059e+00	-1.895787e+01
1	 7.647617e-01	 1.116060e+00	-1.998910e+01
1	 7.430707e-01	 1.130617e+00	-2.113157e+01
1	 7.211462e-01	 1.144726e+00	-2.238383e+01
1	 6.990020e-01	 1.158381e+00	-2.374450e+01
1	 6.686106e-01	 1.108016e+00	-2.069759e+01
1	 6.472324e-01	 1.120639e+00	-2.188727e+01
1	 6.256707e-01	 1.132818e+00	-2.314504e+01
1	 6.039389e-01	 1.144552e+00	-2.446699e+01
1	 5.820506e-01	 1.155836e+00	-2.584931e+01
1	 5.600193e-01	 1.166670e+00	-2.728829e+01
1	 6.746889e-01	 1.118089e+00	-2.132822e+01
1	 6.531163e-01	 1.130826e+00	-2.257755e+01
1	 6.313586e-01	 1.143116e+00	-2.390047e+01
1	 6.094293e-01	 1.154957e+00	-2.528886e+01
1	 5.873420e-01	 1.166344e+00	-2.673451e+01
1	 5.651103e-01	 1.177276e+00	-2.822920e+01
1	 6.807672e-01	 1.128162e+00	-2.194914e+01
1	 6.590002e-01	 1.141014e+00	-2.325519e+01
1	 6.370465e-01	 1.153415e+00	-2.463683e+01
1	 6.149196e-01	 1.165362e+00	-2.608280e+01
1	 5.926333e-01	 1.176852e+00	-2.758165e+01
1	 5.702014e-01	 1.187882e+00	-2.912180e+01
1	 6.868455e-01	 1.138235e+00	-2.255943e+01
1	 6.648842e-01	 1.151201e+00	-2.391851e+01
1	 6.427344e-01	 1.163713e+00	-2.535204e+01
1	 6.204100e-01	 1.175767e+00	-2.684666e+01
1	 5.979247e-01	 1.187359e+00	-2.838878e+01
1	 5.752925e-01	 1.198488e+00	-2.996464e+01
1	 6.929237e-01	 1.148308e+00	-2.315817e+01
1	 6.707681e-01	 1.161389e+00	-2.456587e+01
1	 6.484223e-01	 1.174011e+00	-2.604406e+01
1	 6.259003e-01	 1.186172e+00	-2.757835e+01
1	 6.032161e-01	 1.197867e+00	-2.915405e+01
1	 5.803836e-01	 1.209094e+00	-3.075633e+01
1	 6.990020e-01	 1.158381e+00	-2.374450e+01
1	 6.766520e-01	 1.171577e+00	-2.519571e+01
1	 6.541102e-01	 1.184310e+00	-2.671098e+01
1	 6.313907e-01	 1.196577e+00	-2.827586e+01
1	 6.085074e-01	 1.208374e+00	-2.987566e+01
1	 5.854747e-01	 1.219700e+00	-3.149553e+01
1	 5.600193e-01	 1.166670e+00	-2.728829e+01
1	 5.378584e-01	 1.177051e+00	-2.874978e+01
1	 5.155815e-01	 1.186978e+00	-3.019516e+01
1	 4.932019e-01	 1.196450e+00	-3.161391e+01
1	 4.707330e-01	 1.205467e+00	-3.299541e+01
1	 4.481880e-01	 1.214030e+00	-3.432896e+01
1	 5.651103e-01	 1.177276e+00	-2.822920e+01
1	 5.427480e-01	 1.187751e+00	-2.973409e+01
1	 5.202686e-01	 1.197768e+00	-3.121023e+01
1	 4.976855e-01	 1.207327e+00	-3.264923e+01
1	 4.750124e-01	 1.216426e+00	-3.404260e+01
1	 4.522625e-01	 1.225066e+00	-3.538192e+01
1	 5.702014e-01	 1.187882e+00	-2.912180e+01
1	 5.476376e-01	 1.198452e+00	-3.066142e+01
1	 5.249557e-01	 1.208559e+00	-3.216209e+01
1	 5.021692e-01	 1.218204e+00	-3.361734e+01
1	 4.792918e-01	 1.227385e+00	-3.502071e+01
1	 4.563369e-01	 1.236103e+00	-3.636584e+01
1	 5.752925e-01	 1.198488e+00	-2.996464e+01
1	 5.525273e-01	 1.209152e+00	-3.153089e+01
1	 5.296428e-01	 1.219350e+00	-3.305027e+01
1	 5.066528e-01	 1.229080e+00	-3.451812e+01
1	 4.835712e-01	 1.238343e+00	-3.592984e+01
1	 4.604114e-01	 1.247140e+00	-3.728095e+01
1	 5.803836e-01	 1.209094e+00	-3.075633e+01
1	 5.574169e-01	 1.219853e+00	-3.234164e+01
1	 5.343299e-01	 1.230141e+00	-3.387435e+01
1	 5.111365e-01	 1.239957e+00	-3.535145e+01
1	 4.878506e-01	 1.249302e+00	-3.677008e+01
1	 4.644858e-01	 1.258176e+00	-3.812747e+01
1	 5.854747e-01	 1.219700e+00	-3.149553e+01
1	 5.623065e-01	 1.230553e+00	-3.309284e+01
1	 5.390170e-01	 1.240931e+00	-3.463390e+01
1	 5.156201e-01	 1.250834e+00	-3.611724e+01
1	 4.921299e-01	 1.260261e+00	-3.754153e+01
1	 4.685602e-01	 1.269213e+00	-3.890561e+01
1	 4.481880e-01	 1.214030e+00	-3.432896e+01
1	 4.255801e-01	 1.222138e+00	-3.560522e+01
1	 4.029223e-01	 1.229794e+00	-3.681931e+01
1	 3.802272e-01	 1.236999e+00	-3.796724e+01
1	 3.575076e-01	 1.243756e+00	-3.904512e+01
1	 3.347759e-01	 1.250066e+00	-4.004915e+01
1	 4.522625e-01	 1.225066e+00	-3.538192e+01
1	 4.294491e-01	 1.233249e+00	-3.666016e+01
1	 4.065852e-01	 1.240974e+00	-3.787388e+01
1	 3.836838e-01	 1.248245e+00	-3.902005e+01
1	 3.607577e-01	 1.255063e+00	-4.009571e+01
1	 3.378193e-01	 1.261430e+00	-4.109802e+01
1	 4.563369e-01	 1.236103e+00	-3.636584e+01
1	 4.333180e-01	 1.244359e+00	-3.764760e+01
1	 4.102481e-01	 1.252154e+00	-3.886332e+01
1	 3.871404e-01	 1.259490e+00	-4.001038e+01
1	 3.640077e-01	 1.266370e+00	-4.108624e+01
1	 3.408627e-01	 1.272795e+00	-4.208845e+01
1	 4.604114e-01	 1.247140e+00	-3.728095e+01
1	 4.371869e-01	 1.255469e+00	-3.856781e+01
1	 4.139111e-01	 1.263334e+00	-3.978786e+01
1	 3.905970e-01	 1.270736e+00	-4.093837e+01
1	 3.672578e-01	 1.277677e+00	-4.201668e+01
1	 3.439061e-01	 1.284159e+00	-4.302022e+01
1	 4.644858e-01	 1.258176e+00	-3.812747e+01
1	 4.410558e-01	 1.266580e+00	-3.942104e+01
1	 4.175740e-01	 1.274514e+00	-4.064771e+01
1	 3.940537e-01	 1.281981e+00	-4.180412e+01
1	 3.705079e-01	 1.288983e+00	-4.288700e+01
1	 3.469495e-01	 1.295523e+00	-4.389314e+01
1	 4.685602e-01	 1.269213e+00	-3.890561e+01
1	 4.449247e-01	 1.277690e+00	-4.020754e+01
1	 4.212369e-01	 1.285694e+00	-4.144307e+01
1	 3.975103e-01	 1.293227e+00	-4.260775e+01
1	 3.737580e-01	 1.300290e+00	-4.369716e+01
1	 3.499930e-01	 1.306887e+00	-4.470700e+01
1	 3.347759e-01	 1.250066e+00	-4.004915e+01
1	 3.120442e-01	 1.255933e+00	-4.097695e+01
1	 2.893246e-01	 1.261361e+00	-4.182876e+01
1	 2.666287e-01	 1.266353e+00	-4.260497e+01
1	 2.439680e-01	 1.270913e+00	-4.330611e+01
1	 2.213537e-01	 1.275046e+00	-4.393285e+01
1	 3.378193e-01	 1.261430e+00	-4.109802e+01
1	 3.148810e-01	 1.267351e+00	-4.202554e+01
1	 2.919548e-01	 1.272828e+00	-4.287828e+01
1	 2.690526e-01	 1.277865e+00	-4.365575e+01
1	 2.461859e-01	 1.282467e+00	-4.435765e+01
1	 2.233660e-01	 1.286638e+00	-4.498380e+01
1	 3.408627e-01	 1.272795e+00	-4.208845e+01
1	 3.177177e-01	 1.278769e+00	-4.301608e+01
1	 2.945850e-01	 1.284295e+00	-4.386910e+01
1	 2.714765e-01	 1.289377e+00	-4.464655e+01
1	 2.484038e-01	 1.294021e+00	-4.534766e+01
1	 2.253783e-01	 1.298229e+00	-4.597181e+01
1	 3.439061e-01	 1.284159e+00	-4.302022e+01
1	 3.205545e-01	 1.290186e+00	-4.394822e+01
1	 2.972152e-01	 1.295762e+00	-4.480078e+01
1	 2.739004e-01	 1.300890e+00	-4.557689e+01
1	 2.506217e-01	 1.305574e+00	-4.627569e+01
1	 2.273906e-01	 1.309820e+00	-4.689650e+01
1	 3.469495e-01	 1.295523e+00	-4.389314e+01
1	 3.233913e-01	 1.301604e+00	-4.482159e+01
1	 2.998455e-01	 1.307229e+00	-4.567289e+01
1	 2.763243e-01	 1.312402e+00	-4.644632e+01
1	 2.528396e-01	 1.317128e+00	-4.714132e+01
1	 2.294029e-01	 1.321412e+00	-4.775750e+01
1	 3.499930e-01	 1.306887e+00	-4.470700e+01
1	 3.262280e-01	 1.313021e+00	-4.563586e+01
1	 3.024757e-01	 1.318696e+00	-4.648502e+01
1	 2.787482e-01	 1.323914e+00	-4.725441e+01
1	 2.550574e-01	 1.328682e+00	-4.794413e+01
1	 2.314152e-01	 1.333003e+00	-4.855445e+01
1	 2.213537e-01	 1.275046e+00	-4.393285e+01
1	 1.987966e-01	 1.278757e+00	-4.448681e+01
1	 1.763074e-01	 1.282052e+00	-4.497004e+01
1	 1.538963e-01	 1.284934e+00	-4.538408e+01
1	 1.315732e-01	 1.287412e+00	-4.573058e+01
1	 1.093479e-01	 1.289490e+00	-4.601127e+01
1	 2.233660e-01	 1.286638e+00	-4.498380e+01
1	 2.006039e-01	 1.290382e+00	-4.553521e+01
1	 1.779102e-01	 1.293707e+00	-4.601410e+01
1	 1.552953e-01	 1.296616e+00	-4.642229e+01
1	 1.327693e-01	 1.299115e+00	-4.676173e+01
1	 1.103419e-01	 1.301212e+00	-4.703447e+01
1	 2.253783e-01	 1.298229e+00	-4.597181e+01
1	 2.024111e-01	 1.302007e+00	-4.651975e+01
1	 1.795130e-01	 1.305362e+00	-4.699379e+01
1	 1.566944e-01	 1.308297e+00	-4.739590e+01
1	 1.339655e-01	 1.310819e+00	-4.772816e+01
1	 1.113360e-01	 1.312935e+00	-4.799274e+01
1	 2.273906e-01	 1.309820e+00	-4.689650e+01
1	 2.042183e-01	 1.313633e+00	-4.744009e+01
1	 1.811158e-01	 1.317017e+00	-4.790883e+01
1	 1.580934e-01	 1.319978e+00	-4.830466e+01
1	 1.351616e-01	 1.322523e+00	-4.862961e+01
1	 1.123301e-01	 1.324658e+00	-4.888583e+01
1	 2.294029e-01	 1.321412e+00	-4.775750e+01
1	 2.060256e-01	 1.325258e+00	-4.829593e+01
1	 1.827186e-01	 1.328672e+00	-4.875895e+01
1	 1.594925e-01	 1.331659e+00	-4.914831e+01
1	 1.363577e-01	 1.334227e+00	-4.946584e+01
1	 1.133241e-01	 1.336380e+00	-4.971349e+01
1	 2.314152e-01	 1.333003e+00	-4.855445e+01
1	 2.078328e-01	 1.336883e+00	-4.908697e+01
1	 1.843214e-01	 1.340327e+00	-4.954390e+01
1	 1.608916e-01	 1.343341e+00	-4.992662e+01
1	 1.375538e-01	 1.345930e+00	-5.023661e+01
1	 1.143182e-01	 1.348103e+00	-5.047548e+01
1	 1.093479e-01	 1.289490e+00	-4.601127e+01
1	 8.722948e-02	 1.291174e+00	-4.622828e+01
1	 6.522707e-02	 1.292473e+00	-4.638503e+01
1	 4.334922e-02	 1.293391e+00	-4.648526e+01
1	 2.160422e-02	 1.293937e+00	-4.653271e+01
1	 0.000000e+00	 1.294118e+00	-4.653108e+01
1	 1.103419e-01	 1.301212e+00	-4.703447e+01
1	 8.802248e-02	 1.302912e+00	-4.724285e+01
1	 6.582004e-02	 1.304223e+00	-4.739009e+01
1	 4.374330e-02	 1.305150e+00	-4.747956e+01
1	 2.180062e-02	 1.305700e+00	-4.751465e+01
1	 0.000000e+00	 1.305882e+00	-4.749872e+01
1	 1.113360e-01	 1.312935e+00	-4.799274e+01
1	 8.881547e-02	 1.314650e+00	-4.819212e+01
1	 6.641301e-02	 1.315972e+00	-4.832943e+01
1	 4.413739e-02	 1.316908e+00	-4.840789e+01
1	 2.199703e-02	 1.317463e+00	-4.843072e+01
1	 0.000000e+00	 1.317647e+00	-4.840114e+01
1	 1.123301e-01	 1.324658e+00	-4.888583e+01
1	 8.960847e-02	 1.326388e+00	-4.907582e+01
1	 6.700599e-02	 1.327722e+00	-4.920280e+01
1	 4.453147e-02	 1.328666e+00	-4.926999e+01
1	 2.219343e-02	 1.329227e+00	-4.928066e+01
1	 0.000000e+00	 1.329412e+00	-4.923806e+01
1	 1.133241e-01	 1.336380e+00	-4.971349e+01
1	 9.040146e-02	 1.338126e+00	-4.989372e+01
1	 6.759896e-02	 1.339472e+00	-5.000995e+01
1	 4.492556e-02	 1.340424e+00	-5.006562e+01
1	 2.238983e-02	 1.340990e+00	-5.006421e+01
1	 0.000000e+00	 1.341176e+00	-5.000920e+01
1	 1.143182e-01	 1.348103e+00	-5.047548e+01
1	 9.119446e-02	 1.349864e+00	-5.064556e+01
1	 6.819193e-02	 1.351222e+00	-5.075063e+01
1	 4.531964e-02	 1.352182e+00	-5.079454e+01
1	 2.258623e-02	 1.352753e+00	-5.078114e+01
1	 0.000000e+00	 1.352941e+00	-5.071430e+01
1	 1.352941e+00	 0.000000e+00	 2.100520e+01
1	 1.352753e+00	 2.258623e-02	 2.142233e+01
1	 1.352182e+00	 4.531964e-02	 2.176352e+01
1	 1.351222e+00	 6.819193e-02	 2.202621e+01
1	 1.349864e+00	 9.119446e-02	 2.220807e+01
1	 1.348103e+00	 1.143182e-01	 2.230704e+01
1	 1.364706e+00	 0.000000e+00	 2.078356e+01
1	 1.364516e+00	 2.278263e-02	 2.119013e+01
1	 1.363940e+00	 4.571372e-02	 2.152143e+01
1	 1.362971e+00	 6.878491e-02	 2.177488e+01
1	 1.361602e+00	 9.198745e-02	 2.194816e+01
1	 1.359825e+00	 1.153123e-01	 2.203921e+01
1	 1.376471e+00	 0.000000e+00	 2.055611e+01
1	 1.376279e+00	 2.297904e-02	 2.095144e+01
1	 1.375698e+00	 4.610781e-02	 2.127220e+01
1	 1.374721e+00	 6.937788e-02	 2.151584e+01
1	 1.373340e+00	 9.278045e-02	 2.168008e+01
1	 1.371548e+00	 1.163064e-01	 2.176292e+01
1	 1.388235e+00	 0.000000e+00	 2.032247e+01
1	 1.388042e+00	 2.317544e-02	 2.070592e+01
1	 1.387456e+00	 4.650189e-02	 2.101554e+01
1	 1.386471e+00	 6.997085e-02	 2.124883e+01
1	 1.385078e+00	 9.357345e-02	 2.140361e+01
1	 1.383271e+00	 1.173004e-01	 2.147796e+01
1	 1.400000e+00	 0.000000e+00	 2.008225e+01
1	 1.399805e+00	 2.337184e-02	 2.045327e+01
1	 1.399214e+00	 4.689598e-02	 2.075119e+01
1	 1.398221e+00	 7.056383e-02	 2.097363e+01
1	 1.396816e+00	 9.436644e-02	 2.111852e+01
1	 1.394993e+00	 1.182945e-01	 2.118410e+01
1	 1.411765e+00	 0.000000e+00	 1.983509e+01
1	 1.411568e+00	 2.356824e-02	 2.019317e+01
1	 1.410972e+00	 4.729006e-02	 2.047887e+01
1	 1.409970e+00	 7.115680e-02	 2.068999e+01
1	 1.408554e+00	 9.515944e-02	 2.082461e+01
1	 1.406716e+00	 1.192886e-01	 2.088116e+01
1	 1.348103e+00	 1.143182e-01	 2.230704e+01
1	 1.345930e+00	 1.375538e-01	 2.232349e+01
1	 1.343341e+00	 1.608916e-01	 2.225870e+01
1	 1.340327e+00	 1.843214e-01	 2.211241e+01
1	 1.336883e+00	 2.078328e-01	 2.188468e+01
1	 1.333003e+00	 2.314152e-01	 2.157591e+01
1	 1.359825e+00	 1.153123e-01	 2.203921e+01
1	 1.357634e+00	 1.387499e-01	 2.204834e+01
1	 1.355022e+00	 1.622906e-01	 2.197679e+01
1	 1.351982e+00	 1.859241e-01	 2.182435e+01
1	 1.348508e+00	 2.096401e-01	 2.159113e+01
1	 1.344594e+00	 2.334275e-01	 2.127760e+01
1	 1.371548e+00	 1.163064e-01	 2.176292e+01
1	 1.369338e+00	 1.399461e-01	 2.176458e+01
1	 1.366703e+00	 1.636897e-01	 2.168619e+01
1	 1.363637e+00	 1.875269e-01	 2.152755e+01
1	 1.360133e+00	 2.114473e-01	 2.128881e+01
1	 1.356186e+00	 2.354398e-01	 2.097046e+01
1	 1.383271e+00	 1.173004e-01	 2.147796e+01
1	 1.381042e+00	 1.411422e-01	 2.147201e+01
1	 1.378384e+00	 1.650887e-01	 2.138670e+01
1	 1.375292e+00	 1.891297e-01	 2.122186e+01
1	 1.371758e+00	 2.132545e-01	 2.097761e+01
1	 1.367777e+00	 2.374521e-01	 2.065446e+01
1	 1.394993e+00	 1.182945e-01	 2.118410e+01
1	 1.392745e+00	 1.423383e-01	 2.117040e+01
1	 1.390065e+00	 1.664878e-01	 2.107815e+01
1	 1.386947e+00	 1.907325e-01	 2.090713e+01
1	 1.383383e+00	 2.150618e-01	 2.065746e+01
1	 1.379368e+00	 2.394644e-01	 2.032960e+01
1	 1.406716e+00	 1.192886e-01	 2.088116e+01
1	 1.404449e+00	 1.435344e-01	 2.085958e+01
1	 1.401747e+00	 1.678868e-01	 2.076037e+01
1	 1.398602e+00	 1.923353e-01	 2.058324e+01
1	 1.395008e+00	 2.168690e-01	 2.032826e+01
1	 1.390960e+00	 2.414767e-01	 1.999586e+01
1	 1.333003e+00	 2.314152e-01	 2.157591e+01
1	 1.328682e+00	 2.550574e-01	 2.117904e+01
1	 1.323914e+00	 2.787482e-01	 2.068734e+01
1	 1.318696e+00	 3.024757e-01	 2.010224e+01
1	 1.313021e+00	 3.262280e-01	 1.942547e+01
1	 1.306887e+00	 3.499930e-01	 1.865910e+01
1	 1.344594e+00	 2.334275e-01	 2.127760e+01
1	 1.340236e+00	 2.572753e-01	 2.087652e+01
1	 1.335427e+00	 2.811721e-01	 2.038105e+01
1	 1.330163e+00	 3.051059e-01	 1.979272e+01
1	 1.324439e+00	 3.290648e-01	 1.911339e+01
1	 1.318252e+00	 3.530364e-01	 1.834531e+01
1	 1.356186e+00	 2.354398e-01	 2.097046e+01
1	 1.351789e+00	 2.594932e-01	 2.056520e+01
1	 1.346939e+00	 2.835960e-01	 2.006620e+01
1	 1.341630e+00	 3.077361e-01	 1.947511e+01
1	 1.335857e+00	 3.319016e-01	 1.879400e+01
1	 1.329616e+00	 3.560798e-01	 1.802532e+01
1	 1.367777e+00	 2.374521e-01	 2.065446e+01
1	 1.363343e+00	 2.617111e-01	 2.024512e+01
1	 1.358451e+00	 2.860199e-01	 1.974283e+01
1	 1.353096e+00	 3.103664e-01	 1.914948e+01
1	 1.347274e+00	 3.347383e-01	 1.846732e+01
1	 1.340980e+00	 3.591232e-01	 1.769905e+01
1	 1.379368e+00	 2.394644e-01	 2.032960e+01
1	 1.374897e+00	 2.639290e-01	 1.991631e+01
1	 1.369964e+00	 2.884438e-01	 1.941104e+01
1	 1.364563e+00	 3.129966e-01	 1.881589e+01
1	 1.358692e+00	 3.375751e-01	 1.813336e+01
1	 1.352344e+00	 3.621666e-01	 1.736641e+01
1	 1.390960e+00	 2.414767e-01	 1.999586e+01
1	 1.386451e+00	 2.661469e-01	 1.957883e+01
1	 1.381476e+00	 2.908676e-01	 1.907089e+01
1	 1.376030e+00	 3.156268e-01	 1.847438e+01
1	 1.370109e+00	 3.404119e-01	 1.779212e+01
1	 1.363709e+00	 3.652100e-01	 1.702734e+01
1	 1.306887e+00	 3.499930e-01	 1.865910e+01
1	 1.300290e+00	 3.737580e-01	 1.779868e+01
1	 1.293227e+00	 3.975103e-01	 1.683854e+01
1	 1.285694e+00	 4.212369e-01	 1.577895e+01
1	 1.277690e+00	 4.449247e-01	 1.462002e+01
1	 1.269213e+00	 4.685602e-01	 1.336168e+01
1	 1.318252e+00	 3.530364e-01	 1.834531e+01
1	 1.311597e+00	 3.770080e-01	 1.748254e+01
1	 1.304472e+00	 4.009669e-01	 1.651779e+01
1	 1.296874e+00	 4.248998e-01	 1.545131e+01
1	 1.288800e+00	 4.487936e-01	 1.428314e+01
1	 1.280249e+00	 4.726347e-01	 1.301309e+01
1	 1.329616e+00	 3.560798e-01	 1.802532e+01
1	 1.322904e+00	 3.802581e-01	 1.716142e+01
1	 1.315718e+00	 4.044235e-01	 1.619313e+01
1	 1.308054e+00	 4.285628e-01	 1.512064e+01
1	 1.299911e+00	 4.526625e-01	 1.394389e+01
1	 1.291286e+00	 4.767091e-01	 1.266254e+01
1	 1.340980e+00	 3.591232e-01	 1.769905e+01
1	 1.334211e+00	 3.835082e-01	 1.683516e+01
1	 1.326963e+00	 4.078801e-01	 1.586439e+01
1	 1.319234e+00	 4.322257e-01	 1.478681e+01
1	 1.311021e+00	 4.565314e-01	 1.360223e+01
1	 1.302323e+00	 4.807835e-01	 1.231018e+01
1	 1.352344e+00	 3.621666e-01	 1.736641e+01
1	 1.345518e+00	 3.867582e-01	 1.650359e+01
1	 1.338209e+00	 4.113367e-01	 1.553136e+01
1	 1.330414e+00	 4.358886e-01	 1.444967e+01
1	 1.322131e+00	 4.604003e-01	 1.325815e+01
1	 1.313359e+00	 4.848580e-01	 1.195613e+01
1	 1.363709e+00	 3.652100e-01	 1.702734e+01
1	 1.356825e+00	 3.900083e-01	 1.616656e+01
1	 1.349454e+00	 4.147933e-01	 1.519389e+01
1	 1.341594e+00	 4.395516e-01	 1.410909e+01
1	 1.333242e+00	 4.642693e-01	 1.291160e+01
1	 1.324396e+00	 4.889324e-01	 1.160055e+01
1	 1.269213e+00	 4.685602e-01	 1.336168e+01
1	 1.260261e+00	 4.921299e-01	 1.199632e+01
1	 1.250834e+00	 5.156201e-01	 1.051786e+01
1	 1.240931e+00	 5.390170e-01	 8.928557e+00
1	 1.230553e+00	 5.623065e-01	 7.230850e+00
1	 1.219700e+00	 5.854747e-01	 5.427401e+00
1	 1.280249e+00	 4.726347e-01	 1.301309e+01
1	 1.271220e+00	 4.964093e-01	 1.163482e+01
1	 1.261711e+00	 5.201038e-01	 1.014401e+01
1	 1.251722e+00	 5.437041e-01	 8.543602e+00
1	 1.241254e+00	 5.671961e-01	 6.836858e+00
1	 1.230307e+00	 5.905658e-01	 5.027343e+00
1	 1.291286e+00	 4.767091e-01	 1.266254e+01
1	 1.282179e+00	 5.006887e-01	 1.127192e+01
1	 1.272588e+00	 5.245874e-01	 9.769958e+00
1	 1.262513e+00	 5.483912e-01	 8.160348e+00
1	 1.251954e+00	 5.720857e-01	 6.447205e+00
1	 1.240913e+00	 5.956568e-01	 4.635048e+00
1	 1.302323e+00	 4.807835e-01	 1.231018e+01
1	 1.293137e+00	 5.049681e-01	 1.090797e+01
1	 1.283464e+00	 5.290711e-01	 9.396174e+00
1	 1.273303e+00	 5.530783e-01	 7.779319e+00
1	 1.262655e+00	 5.769754e-01	 6.062424e+00
1	 1.251519e+00	 6.007479e-01	 4.250999e+00
1	 1.313359e+00	 4.848580e-01	 1.195613e+01
1	 1.304096e+00	 5.092475e-01	 1.054326e+01
1	 1.294341e+00	 5.335548e-01	 9.023094e+00
1	 1.284094e+00	 5.577654e-01	 7.401024e+00
1	 1.273355e+00	 5.818650e-01	 5.683030e+00
1	 1.262125e+00	 6.058390e-01	 3.875661e+00
1	 1.324396e+00	 4.889324e-01	 1.160055e+01
1	 1.315055e+00	 5.135269e-01	 1.017812e+01
1	 1.305218e+00	 5.380384e-01	 8.651147e+00
1	 1.294885e+00	 5.624525e-01	 7.025953e+00
1	 1.284056e+00	 5.867546e-01	 5.309525e+00
1	 1.272731e+00	 6.109301e-01	 3.509488e+00
1	 1.219700e+00	 5.854747e-01	 5.427401e+00
1	 1.208374e+00	 6.085074e-01	 3.612675e+00
1	 1.196577e+00	 6.313907e-01	 1.882075e+00
1	 1.184310e+00	 6.541102e-01	 2.400246e-01
1	 1.171577e+00	 6.766520e-01	-1.308811e+00
1	 1.158381e+00	 6.990020e-01	-2.759547e+00
1	 1.230307e+00	 5.905658e-01	 5.027343e+00
1	 1.218882e+00	 6.137988e-01	 3.210817e+00
1	 1.206982e+00	 6.368810e-01	 1.482614e+00
1	 1.194608e+00	 6.597982e-01	-1.540129e-01
1	 1.181764e+00	 6.825360e-01	-1.695715e+00
1	 1.168454e+00	 7.050803e-01	-3.139060e+00
1	 1.240913e+00	 5.956568e-01	 4.635048e+00
1	 1.229390e+00	 6.190902e-01	 2.820307e+00
1	 1.217387e+00	 6.423714e-01	 1.097566e+00
1	 1.204906e+00	 6.654861e-01	-5.311446e-01
1	 1.191952e+00	 6.884199e-01	-2.063838e+00
1	 1.178527e+00	 7.111586e-01	-3.498587e+00
1	 1.251519e+00	 6.007479e-01	 4.250999e+00
1	 1.239897e+00	 6.243816e-01	 2.441547e+00
1	 1.227792e+00	 6.478617e-01	 7.272527e-01
1	 1.215205e+00	 6.711740e-01	-8.911235e-01
1	 1.202140e+00	 6.943038e-01	-2.413006e+00
1	 1.188599e+00	 7.172369e-01	-3.838018e+00
1	 1.262125e+00	 6.058390e-01	 3.875661e+00
1	 1.250405e+00	 6.296729e-01	 2.074926e+00
1	 1.238197e+00	 6.533521e-01	 3.719858e-01
1	 1.225503e+00	 6.768619e-01	-1.233711e+00
1	 1.212327e+00	 7.001878e-01	-2.743048e+00
1	 1.198672e+00	 7.233151e-01	-4.157247e+00
1	 1.272731e+00	 6.109301e-01	 3.509488e+00
1	 1.260912e+00	 6.349643e-01	 1.720819e+00
1	 1.248602e+00	 6.588424e-01	 3.206671e-02
1	 1.235801e+00	 6.825498e-01	-1.558677e+00
1	 1.222515e+00	 7.060717e-01	-3.053800e+00
1	 1.208745e+00	 7.293934e-01	-4.456172e+00
1	 1.158381e+00	 6.990020e-01	-2.759547e+00
1	 1.144726e+00	 7.211462e-01	-4.104802e+00
1	 1.130617e+00	 7.430707e-01	-5.341631e+00
1	 1.116060e+00	 7.647617e-01	-6.471728e+00
1	 1.101059e+00	 7.862057e-01	-7.496880e+00
1	 1.085621e+00	 8.073893e-01	-8.418962e+00
1	 1.168454e+00	 7.050803e-01	-3.139060e+00
1	 1.154680e+00	 7.274170e-01	-4.478249e+00
1	 1.140449e+00	 7.495322e-01	-5.710520e+00
1	 1.125765e+00	 7.714118e-01	-6.837001e+00
1	 1.110633e+00	 7.930423e-01	-7.858894e+00
1	 1.095061e+00	 8.144100e-01	-8.777474e+00
1	 1.178527e+00	 7.111586e-01	-3.498587e+00
1	 1.164634e+00	 7.336879e-01	-4.830843e+00
1	 1.150280e+00	 7.559937e-01	-6.057714e+00
1	 1.135469e+00	 7.780619e-01	-7.179845e+00
1	 1.120208e+00	 7.998789e-01	-8.197934e+00
1	 1.104501e+00	 8.214308e-01	-9.112731e+00
1	 1.188599e+00	 7.172369e-01	-3.838018e+00
1	 1.174589e+00	 7.399587e-01	-5.162533e+00
1	 1.160112e+00	 7.624551e-01	-6.383220e+00
1	 1.145174e+00	 7.847120e-01	-7.500318e+00
1	 1.129782e+00	 8.067154e-01	-8.514098e+00
1	 1.113941e+00	 8.284516e-01	-9.424866e+00
1	 1.198672e+00	 7.233151e-01	-4.157247e+00
1	 1.184543e+00	 7.462295e-01	-5.473275e+00
1	 1.169943e+00	 7.689166e-01	-6.687048e+00
1	 1.154879e+00	 7.913621e-01	-7.798478e+00
1	 1.139356e+00	 8.135520e-01	-8.807486e+00
1	 1.123381e+00	 8.354724e-01	-9.714007e+00
1	 1.208745e+00	 7.293934e-01	-4.456172e+00
1	 1.194497e+00	 7.525004e-01	-5.763021e+00
1	 1.179775e+00	 7.753781e-01	-6.969204e+00
1	 1.164584e+00	 7.980122e-01	-8.074378e+00
1	 1.148931e+00	 8.203886e-01	-9.078189e+00
1	 1.132822e+00	 8.424932e-01	-9.980277e+00
1	 1.085621e+00	 8.073893e-01	-8.418962e+00
1	 1.069752e+00	 8.282991e-01	-9.258961e+00
1	 1.053461e+00	 8.489224e-01	-1.003468e+01
1	 1.036755e+00	 8.692463e-01	-1.074308e+01
1	 1.019642e+00	 8.892584e-01	-1.138084e+01
1	 1.002131e+00	 9.089466e-01	-1.194443e+01
1	 1.095061e+00	 8.144100e-01	-8.777474e+00
1	 1.079055e+00	 8.355017e-01	-9.612504e+00
1	 1.062622e+00	 8.563043e-01	-1.038136e+01
1	 1.045770e+00	 8.768049e-01	-1.108158e+01
1	 1.028508e+00	 8.969911e-01	-1.171045e+01
1	 1.010845e+00	 9.168505e-01	-1.226501e+01
1	 1.104501e+00	 8.214308e-01	-9.112731e+00
1	 1.088357e+00	 8.427043e-01	-9.942845e+00
1	 1.071782e+00	 8.636862e-01	-1.070513e+01
1	 1.054785e+00	 8.843636e-01	-1.139754e+01
1	 1.037375e+00	 9.047237e-01	-1.201779e+01
1	 1.019559e+00	 9.247544e-01	-1.256331e+01
1	 1.113941e+00	 8.284516e-01	-9.424866e+00
1	 1.097659e+00	 8.499069e-01	-1.025012e+01
1	 1.080943e+00	 8.710682e-01	-1.100609e+01
1	 1.063801e+00	 8.919223e-01	-1.169100e+01
1	 1.046241e+00	 9.124564e-01	-1.230280e+01
1	 1.028273e+00	 9.326583e-01	-1.283918e+01
1	 1.123381e+00	 8.354724e-01	-9.714007e+00
1	 1.106961e+00	 8.571095e-01	-1.053447e+01
1	 1.090103e+00	 8.784501e-01	-1.128435e+01
1	 1.072816e+00	 8.994809e-01	-1.196200e+01
1	 1.055108e+00	 9.201891e-01	-1.256543e+01
1	 1.036987e+00	 9.405622e-01	-1.309243e+01
1	 1.132822e+00	 8.424932e-01	-9.980277e+00
1	 1.116263e+00	 8.643121e-01	-1.079601e+01
1	 1.099264e+00	 8.858320e-01	-1.154001e+01
1	 1.081831e+00	 9.070396e-01	-1.221057e+01
1	 1.063974e+00	 9.279218e-01	-1.280564e+01
1	 1.045702e+00	 9.484660e-01	-1.332291e+01
1	 1.002131e+00	 9.089466e-01	-1.194443e+01
1	 9.842309e-01	 9.282992e-01	-1.247123e+01
1	 9.659522e-01	 9.473047e-01	-1.300023e+01
1	 9.473047e-01	 9.659522e-01	-1.353018e+01
1	 9.282992e-01	 9.842309e-01	-1.405997e+01
1	 9.089466e-01	 1.002131e+00	-1.458863e+01
1	 1.010845e+00	 9.168505e-01	-1.226501e+01
1	 9.927894e-01	 9.363714e-01	-1.278430e+01
1	 9.743517e-01	 9.555422e-01	-1.330818e+01
1	 9.555422e-01	 9.743517e-01	-1.383482e+01
1	 9.363714e-01	 9.927894e-01	-1.436249e+01
1	 9.168505e-01	 1.010845e+00	-1.488954e+01
1	 1.019559e+00	 9.247544e-01	-1.256331e+01
1	 1.001348e+00	 9.444435e-01	-1.307461e+01
1	 9.827513e-01	 9.637796e-01	-1.359247e+01
1	 9.637796e-01	 9.827513e-01	-1.411469e+01
1	 9.444435e-01	 1.001348e+00	-1.463914e+01
1	 9.247544e-01	 1.019559e+00	-1.516375e+01
1	 1.028273e+00	 9.326583e-01	-1.283918e+01
1	 1.009906e+00	 9.525157e-01	-1.334191e+01
1	 9.911509e-01	 9.720170e-01	-1.385281e+01
1	 9.720170e-01	 9.911509e-01	-1.436954e+01
1	 9.525157e-01	 1.009906e+00	-1.488980e+01
1	 9.326583e-01	 1.028273e+00	-1.541135e+01
1	 1.036987e+00	 9.405622e-01	-1.309243e+01
1	 1.018465e+00	 9.605879e-01	-1.358593e+01
1	 9.995505e-01	 9.802545e-01	-1.408893e+01
1	 9.802545e-01	 9.995505e-01	-1.459916e+01
1	 9.605879e-01	 1.018465e+00	-1.511437e+01
1	 9.405622e-01	 1.036987e+00	-1.563237e+01
1	 1.045702e+00	 9.484660e-01	-1.332291e+01
1	 1.027024e+00	 9.686600e-01	-1.380643e+01
1	 1.007950e+00	 9.884919e-01	-1.430058e+01
1	 9.884919e-01	 1.007950e+00	-1.480333e+01
1	 9.686600e-01	 1.027024e+00	-1.531273e+01
1	 9.484660e-01	 1.045702e+00	-1.582687e+01
1	 9.089466e-01	 1.002131e+00	-1.458863e+01
1	 8.892584e-01	 1.019642e+00	-1.514768e+01
1	 8.692463e-01	 1.036755e+00	-1.577024e+01
1	 8.489224e-01	 1.053461e+00	-1.645819e+01
1	 8.282991e-01	 1.069752e+00	-1.721373e+01
1	 8.073893e-01	 1.085621e+00	-1.803938e+01
1	 9.168505e-01	 1.010845e+00	-1.488954e+01
1	 8.969911e-01	 1.028508e+00	-1.544835e+01
1	 8.768049e-01	 1.045770e+00	-1.607440e+01
1	 8.563043e-01	 1.062622e+00	-1.677113e+01
1	 8.355017e-01	 1.079055e+00	-1.754238e+01
1	 8.144100e-01	 1.095061e+00	-1.839236e+01
1	 9.247544e-01	 1.019559e+00	-1.516375e+01
1	 9.047237e-01	 1.037375e+00	-1.572228e+01
1	 8.843636e-01	 1.054785e+00	-1.635258e+01
1	 8.636862e-01	 1.071782e+00	-1.705923e+01
1	 8.427043e-01	 1.088357e+00	-1.784726e+01
1	 8.214308e-01	 1.104501e+00	-1.872213e+01
1	 9.326583e-01	 1.028273e+00	-1.541135e+01
1	 9.124564e-01	 1.046241e+00	-1.596966e+01
1	 8.919223e-01	 1.063801e+00	-1.660495e+01
1	 8.710682e-01	 1.080943e+00	-1.732251e+01
1	 8.499069e-01	 1.097659e+00	-1.812813e+01
1	 8.284516e-01	 1.113941e+00	-1.902809e+01
1	 9.405622e-01	 1.036987e+00	-1.563237e+01
1	 9.201891e-01	 1.055108e+00	-1.619066e+01
1	 8.994809e-01	 1.072816e+00	-1.683167e+01
1	 8.784501e-01	 1.090103e+00	-1.756100e+01
1	 8.571095e-01	 1.106961e+00	-1.838479e+01
1	 8.354724e-01	 1.123381e+00	-1.930966e+01
1	 9.484660e-01	 1.045702e+00	-1.582687e+01
1	 9.279218e-01	 1.063974e+00	-1.638546e+01
1	 9.070396e-01	 1.081831e+00	-1.703290e+01
1	 8.858320e-01	 1.099264e+00	-1.777473e+01
1	 8.643121e-01	 1.116263e+00	-1.861701e+01
1	 8.424932e-01	 1.132822e+00	-1.956631e+01
1	 8.073893e-01	 1.085621e+00	-1.803938e+01
1	 7.862057e-01	 1.101059e+00	-1.895787e+01
1	 7.647617e-01	 1.116060e+00	-1.998910e+01
1	 7.430707e-01	 1.130617e+00	-2.113157e+01
1	 7.211462e-01	 1.144726e+00	-2.238383e+01
1	 6.990020e-01	 1.158381e+00	-2.374450e+01
1	 8.144100e-01	 1.095061e+00	-1.839236e+01
1	 7.930423e-01	 1.110633e+00	-1.934428e+01
1	 7.714118e-01	 1.125765e+00	-2.041558e+01
1	 7.495322e-01	 1.140449e+00	-2.160207e+01
1	 7.274170e-01	 1.154680e+00	-2.289949e+01
1	 7.050803e-01	 1.168454e+00	-2.430357e+01
1	 8.214308e-01	 1.104501e+00	-1.872213e+01
1	 7.998789e-01	 1.120208e+00	-1.970657e+01
1	 7.780619e-01	 1.135469e+00	-2.081520e+01
1	 7.559937e-01	 1.150280e+00	-2.204152e+01
1	 7.336879e-01	 1.164634e+00	-2.337885e+01
1	 7.111586e-01	 1.178527e+00	-2.482042e+01
1	 8.284516e-01	 1.113941e+00	-1.902809e+01
1	 8.067154e-01	 1.129782e+00	-2.004381e+01
1	 7.847120e-01	 1.145174e+00	-2.118685e+01
1	 7.624551e-01	 1.160112e+00	-2.244873e+01
1	 7.399587e-01	 1.174589e+00	-2.382076e+01
1	 7.172369e-01	 1.188599e+00	-2.529406e+01
1	 8.354724e-01	 1.123381e+00	-1.930966e+01
1	 8.135520e-01	 1.139356e+00	-2.035511e+01
1	 7.913621e-01	 1.154879e+00	-2.152942e+01
1	 7.689166e-01	 1.169943e+00	-2.282255e+01
1	 7.462295e-01	 1.184543e+00	-2.422412e+01
1	 7.233151e-01	 1.198672e+00	-2.572354e+01
1	 8.424932e-01	 1.132822e+00	-1.956631e+01
1	 8.203886e-01	 1.148931e+00	-2.063960e+01
1	 7.980122e-01	 1.164584e+00	-2.184188e+01
1	 7.753781e-01	 1.179775e+00	-2.316185e+01
1	 7.525004e-01	 1.194497e+00	-2.458786e+01
1	 7.293934e-01	 1.208745e+00	-2.610795e+01
1	 6.990020e-01	 1.158381e+00	-2.374450e+01
1	 6.766520e-01	 1.171577e+00	-2.519571e+01
1	 6.541102e-01	 1.184310e+00	-2.671098e+01
1	 6.313907e-01	 1.196577e+00	-2.827586e+01
1	 6.085074e-01	 1.208374e+00	-2.987566e+01
1	 5.854747e-01	 1.219700e+00	-3.149553e+01
1	 7.050803e-01	 1.168454e+00	-2.430357e+01
1	 6.825360e-01	 1.181764e+00	-2.579253e+01
1	 6.597982e-01	 1.194608e+00	-2.733837e+01
1	 6.368810e-01	 1.206982e+00	-2.892721e+01
1	 6.137988e-01	 1.218882e+00	-3.054498e+01
1	 5.905658e-01	 1.230307e+00	-3.217743e+01
1	 7.111586e-01	 1.178527e+00	-2.482042e+01
1	 6.884199e-01	 1.191952e+00	-2.634134e+01
1	 6.654861e-01	 1.204906e+00	-2.791273e+01
1	 6.423714e-01	 1.217387e+00	-2.952152e+01
1	 6.190902e-01	 1.229390e+00	-3.115444e+01
1	 5.956568e-01	 1.240913e+00	-3.279813e+01
1	 7.172369e-01	 1.188599e+00	-2.529406e+01
1	 6.943038e-01	 1.202140e+00	-2.684136e+01
1	 6.711740e-01	 1.215205e+00	-2.843350e+01
1	 6.478617e-01	 1.227792e+00	-3.005842e+01
1	 6.243816e-01	 1.239897e+00	-3.170392e+01
1	 6.007479e-01	 1.251519e+00	-3.335769e+01
1	 7.233151e-01	 1.198672e+00	-2.572354e+01
1	 7.001878e-01	 1.212327e+00	-2.729185e+01
1	 6.768619e-01	 1.225503e+00	-2.890014e+01
1	 6.533521e-01	 1.238197e+00	-3.053760e+01
1	 6.296729e-01	 1.250405e+00	-3.219327e+01
1	 6.058390e-01	 1.262125e+00	-3.385615e+01
1	 7.293934e-01	 1.208745e+00	-2.610795e+01
1	 7.060717e-01	 1.222515e+00	-2.769208e+01
1	 6.825498e-01	 1.235801e+00	-2.931213e+01
1	 6.588424e-01	 1.248602e+00	-3.095872e+01
1	 6.349643e-01	 1.260912e+00	-3.262238e+01
1	 6.109301e-01	 1.272731e+00	-3.429356e+01
1	 5.854747e-01	 1.219700e+00	-3.149553e+01
1	 5.623065e-01	 1.230553e+00	-3.309284e+01
1	 5.390170e-01	 1.240931e+00	-3.463390e+01
1	 5.156201e-01	 1.250834e+00	-3.611724e+01
1	 4.921299e-01	 1.260261e+00	-3.754153e+01
1	 4.685602e-01	 1.269213e+00	-3.890561e+01
1	 5.905658e-01	 1.230307e+00	-3.217743e+01
1	 5.671961e-01	 1.241254e+00	-3.378344e+01
1	 5.437041e-01	 1.251722e+00	-3.533110e+01
1	 5.201038e-01	 1.261711e+00	-3.682011e+01
1	 4.964093e-01	 1.271220e+00	-3.825032e+01
1	 4.726347e-01	 1.280249e+00	-3.962172e+01
1	 5.956568e-01	 1.240913e+00	-3.279813e+01
1	 5.720857e-01	 1.251954e+00	-3.441301e+01
1	 5.483912e-01	 1.262513e+00	-3.596852e+01
1	 5.245874e-01	 1.272588e+00	-3.746489e+01
1	 5.006887e-01	 1.282179e+00	-3.890249e+01
1	 4.767091e-01	 1.291286e+00	-4.028187e+01
1	 6.007479e-01	 1.251519e+00	-3.335769e+01
1	 5.769754e-01	 1.262655e+00	-3.498175e+01
1	 5.530783e-01	 1.273303e+00	-3.654637e+01
1	 5.290711e-01	 1.283464e+00	-3.805170e+01
1	 5.049681e-01	 1.293137e+00	-3.949804e+01
1	 4.807835e-01	 1.302323e+00	-4.088585e+01
1	 6.058390e-01	 1.262125e+00	-3.385615e+01
1	 5.818650e-01	 1.273355e+00	-3.548982e+01
1	 5.577654e-01	 1.284094e+00	-3.706483e+01
1	 5.335548e-01	 1.294341e+00	-3.858067e+01
1	 5.092475e-01	 1.304096e+00	-4.003696e+01
1	 4.848580e-01	 1.313359e+00	-4.143349e+01
1	 6.109301e-01	 1.272731e+00	-3.429356e+01
1	 5.867546e-01	 1.284056e+00	-3.593738e+01
1	 5.624525e-01	 1.294885e+00	-3.752410e+01
1	 5.380384e-01	 1.305218e+00	-3.905193e+01
1	 5.135269e-01	 1.315055e+00	-4.051926e+01
1	 4.889324e-01	 1.324396e+00	-4.192459e+01
1	 4.685602e-01	 1.269213e+00	-3.890561e+01
1	 4.449247e-01	 1.277690e+00	-4.020754e+01
1	 4.212369e-01	 1.285694e+00	-4.144307e+01
1	 3.975103e-01	 1.293227e+00	-4.260775e+01
1	 3.737580e-01	 1.300290e+00	-4.369716e+01
1	 3.499930e-01	 1.306887e+00	-4.470700e+01
1	 4.726347e-01	 1.280249e+00	-3.962172e+01
1	 4.487936e-01	 1.288800e+00	-4.093252e+01
1	 4.248998e-01	 1.296874e+00	-4.217713e+01
1	 4.009669e-01	 1.304472e+00	-4.334999e+01
1	 3.770080e-01	 1.311597e+00	-4.444560e+01
1	 3.530364e-01	 1.318252e+00	-4.545857e+01
1	 4.767091e-01	 1.291286e+00	-4.028187e+01
1	 4.526625e-01	 1.299911e+00	-4.160083e+01
1	 4.285628e-01	 1.308054e+00	-4.285265e+01
1	 4.044235e-01	 1.315718e+00	-4.403123e+01
1	 3.802581e-01	 1.322904e+00	-4.513052e+01
1	 3.560798e-01	 1.329616e+00	-4.614459e+01
1	 4.807835e-01	 1.302323e+00	-4.088585e+01
1	 4.565314e-01	 1.311021e+00	-4.221209e+01
1	 4.322257e-01	 1.319234e+00	-4.346920e+01
1	 4.078801e-01	 1.326963e+00	-4.465105e+01
1	 3.835082e-01	 1.334211e+00	-4.575159e+01
1	 3.591232e-01	 1.340980e+00	-4.676486e+01
1	 4.848580e-01	 1.313359e+00	-4.143349e+01
1	 4.604003e-01	 1.322131e+00	-4.276596e+01
1	 4.358886e-01	 1.330414e+00	-4.402637e+01
1	 4.113367e-01	 1.338209e+00	-4.520907e+01
1	 3.867582e-01	 1.345518e+00	-4.630849e+01
1	 3.621666e-01	 1.352344e+00	-4.731918e+01
1	 4.889324e-01	 1.324396e+00	-4.192459e+01
1	 4.642693e-01	 1.333242e+00	-4.326210e+01
1	 4.395516e-01	 1.341594e+00	-4.452376e+01
1	 4.147933e-01	 1.349454e+00	-4.570488e+01
1	 3.900083e-01	 1.356825e+00	-4.680091e+01
1	 3.652100e-01	 1.363709e+00	-4.780737e+01
1	 3.499930e-01	 1.306887e+00	-4.470700e+01
1	 3.262280e-01	 1.313021e+00	-4.563586e+01
1	 3.024757e-01	 1.318696e+00	-4.648502e+01
1	 2.787482e-01	 1.323914e+00	-4.725441e+01
1	 2.550574e-01	 1.328682e+00	-4.794413e+01
1	 2.314152e-01	 1.333003e+00	-4.855445e+01
1	 3.530364e-01	 1.318252e+00	-4.545857e+01
1	 3.290648e-01	 1.324439e+00	-4.638719e+01
1	 3.051059e-01	 1.330163e+00	-4.723361e+01
1	 2.811721e-01	 1.335427e+00	-4.799842e+01
1	 2.572753e-01	 1.340236e+00	-4.868240e+01
1	 2.334275e-01	 1.344594e+00	-4.928650e+01
1	 3.560798e-01	 1.329616e+00	-4.614459e+01
1	 3.319016e-01	 1.335857e+00	-4.707189e+01
1	 3.077361e-01	 1.341630e+00	-4.791534e+01
1	 2.835960e-01	 1.346939e+00	-4.867589e+01
1	 2.594932e-01	 1.351789e+00	-4.935467e+01
1	 2.354398e-01	 1.356186e+00	-4.995297e+01
1	 3.591232e-01	 1.340980e+00	-4.676486e+01
1	 3.347383e-01	 1.347274e+00	-4.768989e+01
1	 3.103664e-01	 1.353096e+00	-4.853021e+01
1	 2.860199e-01	 1.358451e+00	-4.928682e+01
1	 2.617111e-01	 1.363343e+00	-4.996087e+01
1	 2.374521e-01	 1.367777e+00	-5.055371e+01
1	 3.621666e-01	 1.352344e+00	-4.731918e+01
1	 3.375751e-01	 1.358692e+00	-4.824110e+01
1	 3.129966e-01	 1.364563e+00	-4.907819e+01
1	 2.884438e-01	 1.369964e+00	-4.983117e+01
1	 2.639290e-01	 1.374897e+00	-5.050095e+01
1	 2.394644e-01	 1.379368e+00	-5.108861e+01
1	 3.652100e-01	 1.363709e+00	-4.780737e+01
1	 3.404119e-01	 1.370109e+00	-4.872546e+01
1	 3.156268e-01	 1.376030e+00	-4.955925e+01
1	 2.908676e-01	 1.381476e+00	-5.030894e+01
1	 2.661469e-01	 1.386451e+00	-5.097487e+01
1	 2.414767e-01	 1.390960e+00	-5.155755e+01
1	 2.314152e-01	 1.333003e+00	-4.855445e+01
1	 2.078328e-01	 1.336883e+00	-4.908697e+01
1	 1.843214e-01	 1.340327e+00	-4.954390e+01
1	 1.608916e-01	 1.343341e+00	-4.992662e+01
1	 1.375538e-01	 1.345930e+00	-5.023661e+01
1	 1.143182e-01	 1.348103e+00	-5.047548e+01
1	 2.334275e-01	 1.344594e+00	-4.928650e+01
1	 2.096401e-01	 1.348508e+00	-4.981282e+01
1	 1.859241e-01	 1.351982e+00	-5.026335e+01
1	 1.622906e-01	 1.355022e+00	-5.063916e+01
1	 1.387499e-01	 1.357634e+00	-5.094138e+01
1	 1.153123e-01	 1.359825e+00	-5.117130e+01
1	 2.354398e-01	 1.356186e+00	-4.995297e+01
1	 2.114473e-01	 1.360133e+00	-5.047311e+01
1	 1.875269e-01	 1.363637e+00	-5.091699e+01
1	 1.636897e-01	 1.366703e+00	-5.128549e+01
1	 1.399461e-01	 1.369338e+00	-5.157960e+01
1	 1.163064e-01	 1.371548e+00	-5.180045e+01
1	 2.374521e-01	 1.367777e+00	-5.055371e+01
1	 2.132545e-01	 1.371758e+00	-5.106766e+01
1	 1.891297e-01	 1.375292e+00	-5.150457e+01
1	 1.650887e-01	 1.378384e+00	-5.186535e+01
1	 1.411422e-01	 1.381042e+00	-5.215100e+01
1	 1.173004e-01	 1.383271e+00	-5.236269e+01
1	 2.394644e-01	 1.379368e+00	-5.108861e+01
1	 2.150618e-01	 1.383383e+00	-5.159626e+01
1	 1.907325e-01	 1.386947e+00	-5.202586e+01
1	 1.664878e-01	 1.390065e+00	-5.237848e+01
1	 1.423383e-01	 1.392745e+00	-5.265535e+01
1	 1.182945e-01	 1.394993e+00	-5.285779e+01
1	 2.414767e-01	 1.390960e+00	-5.155755e+01
1	 2.168690e-01	 1.395008e+00	-5.205873e+01
1	 1.923353e-01	 1.398602e+00	-5.248062e+01
1	 1.678868e-01	 1.401747e+00	-5.282465e+01
1	 1.435344e-01	 1.404449e+00	-5.309239e+01
1	 1.192886e-01	 1.406716e+00	-5.328555e+01
1	 1.143182e-01	 1.348103e+00	-5.047548e+01
1	 9.119446e-02	 1.349864e+00	-5.064556e+01
1	 6.819193e-02	 1.351222e+00	-5.075063e+01
1	 4.531964e-02	 1.352182e+00	-5.079454e+01
1	 2.258623e-02	 1.352753e+00	-5.078114e+01
1	 0.000000e+00	 1.352941e+00	-5.071430e+01
1	 1.153123e-01	 1.359825e+00	-5.117130e+01
1	 9.198745e-02	 1.361602e+00	-5.133115e+01
1	 6.878491e-02	 1.362971e+00	-5.142508e+01
1	 4.571372e-02	 1.363940e+00	-5.145732e+01
1	 2.278263e-02	 1.364516e+00	-5.143211e+01
1	 0.000000e+00	 1.364706e+00	-5.135366e+01
1	 1.163064e-01	 1.371548e+00	-5.180045e+01
1	 9.278045e-02	 1.373340e+00	-5.195029e+01
1	 6.937788e-02	 1.374721e+00	-5.203353e+01
1	 4.610781e-02	 1.375698e+00	-5.205455e+01
1	 2.297904e-02	 1.376279e+00	-5.201775e+01
1	 0.000000e+00	 1.376471e+00	-5.192753e+01
1	 1.173004e-01	 1.383271e+00	-5.236269e+01
1	 9.357345e-02	 1.385078e+00	-5.250278e+01
1	 6.997085e-02	 1.386471e+00	-5.257576e+01
1	 4.650189e-02	 1.387456e+00	-5.258599e+01
1	 2.317544e-02	 1.388042e+00	-5.253783e+01
1	 0.000000e+00	 1.388235e+00	-5.243563e+01
1	 1.182945e-01	 1.394993e+00	-5.285779e+01
1	 9.436644e-02	 1.396816e+00	-5.298841e+01
1	 7.056383e-02	 1.398221e+00	-5.305157e+01
1	 4.689598e-02	 1.399214e+00	-5.305142e+01
1	 2.337184e-02	 1.399805e+00	-5.299208e+01
1	 0.000000e+00	 1.400000e+00	-5.287768e+01
1	 1.192886e-01	 1.406716e+00	-5.328555e+01
1	 9.515944e-02	 1.408554e+00	-5.340696e+01
1	 7.115680e-02	 1.409970e+00	-5.346076e+01
1	 4.729006e-02	 1.410972e+00	-5.345062e+01
1	 2.356824e-02	 1.411568e+00	-5.338028e+01
1	 0.000000e+00	 1.411765e+00	-5.325343e+01
1	 1.411765e+00	 0.000000e+00	 1.983509e+01
1	 1.411568e+00	 2.356824e-02	 2.019317e+01
1	 1.410972e+00	 4.729006e-02	 2.047887e+01
1	 1.409970e+00	 7.115680e-02	 2.068999e+01
1	 1.408554e+00	 9.515944e-02	 2.082461e+01
1	 1.406716e+00	 1.192886e-01	 2.088116e+01
1	 1.423529e+00	 0.000000e+00	 1.958108e+01
1	 1.423331e+00	 2.376465e-02	 1.992566e+01
1	 1.422731e+00	 4.768414e-02	 2.019869e+01
1	 1.421720e+00	 7.174977e-02	 2.039810e+01
1	 1.420292e+00	 9.595243e-02	 2.052215e+01
1	 1.418439e+00	 1.202826e-01	 2.056946e+01
1	 1.435294e+00	 0.000000e+00	 1.932047e+01
1	 1.435094e+00	 2.396105e-02	 1.965091e+01
1	 1.434489e+00	 4.807823e-02	 1.991079e+01
1	 1.433470e+00	 7.234275e-02	 2.009818e+01
1	 1.432030e+00	 9.674543e-02	 2.021148e+01
1	 1.430161e+00	 1.212767e-01	 2.024945e+01
1	 1.447059e+00	 0.000000e+00	 1.905311e+01
1	 1.446857e+00	 2.415745e-02	 1.936877e+01
1	 1.446247e+00	 4.847231e-02	 1.961505e+01
1	 1.445220e+00	 7.293572e-02	 1.979013e+01
1	 1.443768e+00	 9.753842e-02	 1.989251e+01
1	 1.441884e+00	 1.222708e-01	 1.992108e+01
1	 1.458824e+00	 0.000000e+00	 1.877884e+01
1	 1.458620e+00	 2.435385e-02	 1.907908e+01
1	 1.458005e+00	 4.886639e-02	 1.931133e+01
1	 1.456969e+00	 7.352869e-02	 1.947383e+01
1	 1.455506e+00	 9.833142e-02	 1.956516e+01
1	 1.453607e+00	 1.232649e-01	 1.958431e+01
1	 1.470588e+00	 0.000000e+00	 1.849753e+01
1	 1.470383e+00	 2.455025e-02	 1.878171e+01
1	 1.469763e+00	 4.926048e-02	 1.899950e+01
1	 1.468719e+00	 7.412167e-02	 1.914916e+01
1	 1.467244e+00	 9.912441e-02	 1.922933e+01
1	 1.465329e+00	 1.242589e-01	 1.923908e+01
1	 1.406716e+00	 1.192886e-01	 2.088116e+01
1	 1.404449e+00	 1.435344e-01	 2.085958e+01
1	 1.401747e+00	 1.678868e-01	 2.076037e+01
1	 1.398602e+00	 1.923353e-01	 2.058324e+01
1	 1.395008e+00	 2.168690e-01	 2.032826e+01
1	 1.390960e+00	 2.414767e-01	 1.999586e+01
1	 1.418439e+00	 1.202826e-01	 2.056946e+01
1	 1.416153e+00	 1.447305e-01	 2.053991e+01
1	 1.413428e+00	 1.692859e-01	 2.043373e+01
1	 1.410257e+00	 1.939381e-01	 2.025059e+01
1	 1.406633e+00	 2.186763e-01	 1.999051e+01
1	 1.402551e+00	 2.434890e-01	 1.965387e+01
1	 1.430161e+00	 1.212767e-01	 2.024945e+01
1	 1.427857e+00	 1.459267e-01	 2.021188e+01
1	 1.425109e+00	 1.706849e-01	 2.009876e+01
1	 1.421912e+00	 1.955409e-01	 1.990975e+01
1	 1.418258e+00	 2.204835e-01	 1.964481e+01
1	 1.414142e+00	 2.455013e-01	 1.930432e+01
1	 1.441884e+00	 1.222708e-01	 1.992108e+01
1	 1.439560e+00	 1.471228e-01	 1.987549e+01
1	 1.436790e+00	 1.720840e-01	 1.975549e+01
1	 1.433567e+00	 1.971437e-01	 1.956073e+01
1	 1.429883e+00	 2.222908e-01	 1.929118e+01
1	 1.425734e+00	 2.475137e-01	 1.894721e+01
1	 1.453607e+00	 1.232649e-01	 1.958431e+01
1	 1.451264e+00	 1.483189e-01	 1.953073e+01
1	 1.448472e+00	 1.734831e-01	 1.940393e+01
1	 1.445222e+00	 1.987465e-01	 1.920357e+01
1	 1.441508e+00	 2.240980e-01	 1.892966e+01
1	 1.437325e+00	 2.495260e-01	 1.858257e+01
1	 1.465329e+00	 1.242589e-01	 1.923908e+01
1	 1.462968e+00	 1.495150e-01	 1.917759e+01
1	 1.460153e+00	 1.748821e-01	 1.904410e+01
1	 1.456877e+00	 2.003493e-01	 1.883831e+01
1	 1.453133e+00	 2.259052e-01	 1.856027e+01
1	 1.448916e+00	 2.515383e-01	 1.821041e+01
1	 1.390960e+00	 2.414767e-01	 1.999586e+01
1	 1.386451e+00	 2.661469e-01	 1.957883e+01
1	 1.381476e+00	 2.908676e-01	 1.907089e+01
1	 1.376030e+00	 3.156268e-01	 1.847438e+01
1	 1.370109e+00	 3.404119e-01	 1.779212e+01
1	 1.363709e+00	 3.652100e-01	 1.702734e+01
1	 1.402551e+00	 2.434890e-01	 1.965387e+01
1	 1.398004e+00	 2.683648e-01	 1.923353e+01
1	 1.392988e+00	 2.932915e-01	 1.872342e+01
1	 1.387497e+00	 3.182570e-01	 1.812619e+01
1	 1.381527e+00	 3.432486e-01	 1.744488e+01
1	 1.375073e+00	 3.682535e-01	 1.668306e+01
1	 1.414142e+00	 2.455013e-01	 1.930432e+01
1	 1.409558e+00	 2.705827e-01	 1.888120e+01
1	 1.404500e+00	 2.957154e-01	 1.836963e+01
1	 1.398964e+00	 3.208872e-01	 1.777243e+01
1	 1.392944e+00	 3.460854e-01	 1.709290e+01
1	 1.386437e+00	 3.712969e-01	 1.633482e+01
1	 1.425734e+00	 2.475137e-01	 1.894721e+01
1	 1.421112e+00	 2.728006e-01	 1.852186e+01
1	 1.416013e+00	 2.981393e-01	 1.800949e+01
1	 1.410431e+00	 3.235175e-01	 1.741309e+01
1	 1.404362e+00	 3.489222e-01	 1.673613e+01
1	 1.397801e+00	 3.743403e-01	 1.598260e+01
1	 1.437325e+00	 2.495260e-01	 1.858257e+01
1	 1.432666e+00	 2.750185e-01	 1.815549e+01
1	 1.427525e+00	 3.005632e-01	 1.764297e+01
1	 1.421898e+00	 3.261477e-01	 1.704811e+01
1	 1.415780e+00	 3.517589e-01	 1.637453e+01
1	 1.409166e+00	 3.773837e-01	 1.562635e+01
1	 1.448916e+00	 2.515383e-01	 1.821041e+01
1	 1.444219e+00	 2.772364e-01	 1.778208e+01
1	 1.439037e+00	 3.029871e-01	 1.727005e+01
1	 1.433365e+00	 3.287779e-01	 1.667748e+01
1	 1.427197e+00	 3.545957e-01	 1.600807e+01
1	 1.420530e+00	 3.804271e-01	 1.526603e+01
1	 1.363709e+00	 3.652100e-01	 1.702734e+01
1	 1.356825e+00	 3.900083e-01	 1.616656e+01
1	 1.349454e+00	 4.147933e-01	 1.519389e+01
1	 1.341594e+00	 4.395516e-01	 1.410909e+01
1	 1.333242e+00	 4.642693e-01	 1.291160e+01
1	 1.324396e+00	 4.889324e-01	 1.160055e+01
1	 1.375073e+00	 3.682535e-01	 1.668306e+01
1	 1.368132e+00	 3.932584e-01	 1.582515e+01
1	 1.360699e+00	 4.182499e-01	 1.485289e+01
1	 1.352774e+00	 4.432145e-01	 1.376589e+01
1	 1.344352e+00	 4.681382e-01	 1.256345e+01
1	 1.335433e+00	 4.930068e-01	 1.124452e+01
1	 1.386437e+00	 3.712969e-01	 1.633482e+01
1	 1.379438e+00	 3.965084e-01	 1.548052e+01
1	 1.371945e+00	 4.217065e-01	 1.450942e+01
1	 1.363954e+00	 4.468774e-01	 1.342107e+01
1	 1.355462e+00	 4.720071e-01	 1.221472e+01
1	 1.346469e+00	 4.970813e-01	 1.088928e+01
1	 1.397801e+00	 3.743403e-01	 1.598260e+01
1	 1.390745e+00	 3.997585e-01	 1.513266e+01
1	 1.383190e+00	 4.251632e-01	 1.416350e+01
1	 1.375134e+00	 4.505404e-01	 1.307472e+01
1	 1.366573e+00	 4.758760e-01	 1.186560e+01
1	 1.357506e+00	 5.011557e-01	 1.053513e+01
1	 1.409166e+00	 3.773837e-01	 1.562635e+01
1	 1.402052e+00	 4.030086e-01	 1.478156e+01
1	 1.394436e+00	 4.286198e-01	 1.381518e+01
1	 1.386314e+00	 4.542033e-01	 1.272694e+01
1	 1.377683e+00	 4.797449e-01	 1.151628e+01
1	 1.368543e+00	 5.052302e-01	 1.018236e+01
1	 1.420530e+00	 3.804271e-01	 1.526603e+01
1	 1.413359e+00	 4.062586e-01	 1.442720e+01
1	 1.405681e+00	 4.320764e-01	 1.346447e+01
1	 1.397494e+00	 4.578662e-01	 1.237782e+01
1	 1.388794e+00	 4.836138e-01	 1.116695e+01
1	 1.379579e+00	 5.093046e-01	 9.831269e+00
1	 1.324396e+00	 4.889324e-01	 1.160055e+01
1	 1.315055e+00	 5.135269e-01	 1.017812e+01
1	 1.305218e+00	 5.380384e-01	 8.651147e+00
1	 1.294885e+00	 5.624525e-01	 7.025953e+00
1	 1.284056e+00	 5.867546e-01	 5.309525e+00
1	 1.272731e+00	 6.109301e-01	 3.509488e+00
1	 1.335433e+00	 4.930068e-01	 1.124452e+01
1	 1.326014e+00	 5.178063e-01	 9.814064e+00
1	 1.316095e+00	 5.425221e-01	 8.282318e+00
1	 1.305676e+00	 5.671396e-01	 6.656494e+00
1	 1.294756e+00	 5.916442e-01	 4.944515e+00
1	 1.283337e+00	 6.160212e-01	 3.155005e+00
1	 1.346469e+00	 4.970813e-01	 1.088928e+01
1	 1.336973e+00	 5.220857e-01	 9.452677e+00
1	 1.326972e+00	 5.470057e-01	 7.918597e+00
1	 1.316466e+00	 5.718267e-01	 6.294960e+00
1	 1.305456e+00	 5.965338e-01	 4.590452e+00
1	 1.293943e+00	 6.211123e-01	 2.814502e+00
1	 1.357506e+00	 5.011557e-01	 1.053513e+01
1	 1.347931e+00	 5.263651e-01	 9.094352e+00
1	 1.337849e+00	 5.514894e-01	 7.560389e+00
1	 1.327257e+00	 5.765138e-01	 5.941708e+00
1	 1.316157e+00	 6.014235e-01	 4.247582e+00
1	 1.304549e+00	 6.262034e-01	 2.488057e+00
1	 1.368543e+00	 5.052302e-01	 1.018236e+01
1	 1.358890e+00	 5.306445e-01	 8.739467e+00
1	 1.348725e+00	 5.559730e-01	 7.208088e+00
1	 1.338048e+00	 5.812009e-01	 5.597085e+00
1	 1.326857e+00	 6.063131e-01	 3.916143e+00
1	 1.315155e+00	 6.312944e-01	 2.175747e+00
1	 1.379579e+00	 5.093046e-01	 9.831269e+00
1	 1.369849e+00	 5.349239e-01	 8.388390e+00
1	 1.359602e+00	 5.604567e-01	 6.862074e+00
1	 1.348838e+00	 5.858880e-01	 5.261422e+00
1	 1.337558e+00	 6.112027e-01	 3.596366e+00
1	 1.325761e+00	 6.363855e-01	 1.877645e+00
1	 1.272731e+00	 6.109301e-01	 3.509488e+00
1	 1.260912e+00	 6.349643e-01	 1.720819e+00
1	 1.248602e+00	 6.588424e-01	 3.206671e-02
1	 1.235801e+00	 6.825498e-01	-1.558677e+00
1	 1.222515e+00	 7.060717e-01	-3.053800e+00
1	 1.208745e+00	 7.293934e-01	-4.456172e+00
1	 1.283337e+00	 6.160212e-01	 3.155005e+00
1	 1.271420e+00	 6.402557e-01	 1.381331e+00
1	 1.259007e+00	 6.643328e-01	-2.910370e-01
1	 1.246100e+00	 6.882377e-01	-1.865270e+00
1	 1.232702e+00	 7.119556e-01	-3.345158e+00
1	 1.218818e+00	 7.354717e-01	-4.735108e+00
1	 1.293943e+00	 6.211123e-01	 2.814502e+00
1	 1.281928e+00	 6.455470e-01	 1.058278e+00
1	 1.269412e+00	 6.698231e-01	-5.961353e-01
1	 1.256398e+00	 6.939256e-01	-2.152946e+00
1	 1.242890e+00	 7.178396e-01	-3.617100e+00
1	 1.228891e+00	 7.415500e-01	-4.994279e+00
1	 1.304549e+00	 6.262034e-01	 2.488057e+00
1	 1.292435e+00	 6.508384e-01	 7.515943e-01
1	 1.279817e+00	 6.753135e-01	-8.833474e-01
1	 1.266697e+00	 6.996136e-01	-2.421788e+00
1	 1.253078e+00	 7.237235e-01	-3.869591e+00
1	 1.238964e+00	 7.476282e-01	-5.233456e+00
1	 1.315155e+00	 6.312944e-01	 2.175747e+00
1	 1.302943e+00	 6.561298e-01	 4.612142e-01
1	 1.290222e+00	 6.808039e-01	-1.152789e+00
1	 1.276995e+00	 7.053015e-01	-2.671877e+00
1	 1.263265e+00	 7.296074e-01	-4.102598e+00
1	 1.249037e+00	 7.537065e-01	-5.452418e+00
1	 1.325761e+00	 6.363855e-01	 1.877645e+00
1	 1.313450e+00	 6.614211e-01	 1.870751e-01
1	 1.300627e+00	 6.862942e-01	-1.404571e+00
1	 1.287293e+00	 7.109894e-01	-2.903291e+00
1	 1.273453e+00	 7.354913e-01	-4.316088e+00
1	 1.259110e+00	 7.597848e-01	-5.650951e+00
1	 1.208745e+00	 7.293934e-01	-4.456172e+00
1	 1.194497e+00	 7.525004e-01	-5.763021e+00
1	 1.179775e+00	 7.753781e-01	-6.969204e+00
1	 1.164584e+00	 7.980122e-01	-8.074378e+00
1	 1.148931e+00	 8.203886e-01	-9.078189e+00
1	 1.132822e+00	 8.424932e-01	-9.980277e+00
1	 1.218818e+00	 7.354717e-01	-4.735108e+00
1	 1.204451e+00	 7.587712e-01	-6.032172e+00
1	 1.189606e+00	 7.818396e-01	-7.229890e+00
1	 1.174289e+00	 8.046623e-01	-8.327825e+00
1	 1.158505e+00	 8.272252e-01	-9.325517e+00
1	 1.142262e+00	 8.495139e-01	-1.022249e+01
1	 1.228891e+00	 7.415500e-01	-4.994279e+00
1	 1.214405e+00	 7.650421e-01	-6.280875e+00
1	 1.199438e+00	 7.883011e-01	-7.468959e+00
1	 1.183994e+00	 8.113124e-01	-8.558245e+00
1	 1.168080e+00	 8.340617e-01	-9.548428e+00
1	 1.151702e+00	 8.565347e-01	-1.043919e+01
1	 1.238964e+00	 7.476282e-01	-5.233456e+00
1	 1.224359e+00	 7.713129e-01	-6.508720e+00
1	 1.209269e+00	 7.947626e-01	-7.685913e+00
1	 1.193699e+00	 8.179625e-01	-8.765140e+00
1	 1.177654e+00	 8.408983e-01	-9.746505e+00
1	 1.161142e+00	 8.635555e-01	-1.063012e+01
1	 1.249037e+00	 7.537065e-01	-5.452418e+00
1	 1.234313e+00	 7.775837e-01	-6.715308e+00
1	 1.219101e+00	 8.012240e-01	-7.880270e+00
1	 1.203404e+00	 8.246126e-01	-8.948025e+00
1	 1.187229e+00	 8.477349e-01	-9.919339e+00
1	 1.170582e+00	 8.705763e-01	-1.079502e+01
1	 1.259110e+00	 7.597848e-01	-5.650951e+00
1	 1.244268e+00	 7.838546e-01	-6.900255e+00
1	 1.228932e+00	 8.076855e-01	-8.051560e+00
1	 1.213108e+00	 8.312627e-01	-9.106432e+00
1	 1.196803e+00	 8.545714e-01	-1.006654e+01
1	 1.180023e+00	 8.775970e-01	-1.093365e+01
1	 1.132822e+00	 8.424932e-01	-9.980277e+00
1	 1.116263e+00	 8.643121e-01	-1.079601e+01
1	 1.099264e+00	 8.858320e-01	-1.154001e+01
1	 1.081831e+00	 9.070396e-01	-1.221057e+01
1	 1.063974e+00	 9.279218e-01	-1.280564e+01
1	 1.045702e+00	 9.484660e-01	-1.332291e+01
1	 1.142262e+00	 8.495139e-01	-1.022249e+01
1	 1.125566e+00	 8.715148e-01	-1.103314e+01
1	 1.108424e+00	 8.932140e-01	-1.177112e+01
1	 1.090846e+00	 9.145982e-01	-1.243452e+01
1	 1.072840e+00	 9.356545e-01	-1.302110e+01
1	 1.054416e+00	 9.563699e-01	-1.352828e+01
1	 1.151702e+00	 8.565347e-01	-1.043919e+01
1	 1.134868e+00	 8.787174e-01	-1.124410e+01
1	 1.117585e+00	 9.005959e-01	-1.197567e+01
1	 1.099862e+00	 9.221569e-01	-1.263169e+01
1	 1.081707e+00	 9.433872e-01	-1.320955e+01
1	 1.063130e+00	 9.642738e-01	-1.370630e+01
1	 1.161142e+00	 8.635555e-01	-1.063012e+01
1	 1.144170e+00	 8.859200e-01	-1.142878e+01
1	 1.126746e+00	 9.079778e-01	-1.215367e+01
1	 1.108877e+00	 9.297156e-01	-1.280213e+01
1	 1.090573e+00	 9.511198e-01	-1.337108e+01
1	 1.071844e+00	 9.721777e-01	-1.385703e+01
1	 1.170582e+00	 8.705763e-01	-1.079502e+01
1	 1.153472e+00	 8.931226e-01	-1.158709e+01
1	 1.135906e+00	 9.153598e-01	-1.230512e+01
1	 1.117892e+00	 9.372742e-01	-1.294591e+01
1	 1.099440e+00	 9.588525e-01	-1.350575e+01
1	 1.080558e+00	 9.800816e-01	-1.398048e+01
1	 1.180023e+00	 8.775970e-01	-1.093365e+01
1	 1.162774e+00	 9.003252e-01	-1.171892e+01
1	 1.145067e+00	 9.227417e-01	-1.243003e+01
1	 1.126908e+00	 9.448329e-01	-1.306308e+01
1	 1.108306e+00	 9.665852e-01	-1.361363e+01
1	 1.089272e+00	 9.879855e-01	-1.407670e+01
1	 1.045702e+00	 9.484660e-01	-1.332291e+01
1	 1.027024e+00	 9.686600e-01	-1.380643e+01
1	 1.007950e+00	 9.884919e-01	-1.430058e+01
1	 9.884919e-01	 1.007950e+00	-1.480333e+01
1	 9.686600e-01	 1.027024e+00	-1.531273e+01
1	 9.484660e-01	 1.045702e+00	-1.582687e+01
1	 1.054416e+00	 9.563699e-01	-1.352828e+01
1	 1.035582e+00	 9.767322e-01	-1.400120e+01
1	 1.016350e+00	 9.967293e-01	-1.448576e+01
1	 9.967293e-01	 1.016350e+00	-1.498033e+01
1	 9.767322e-01	 1.035582e+00	-1.548334e+01
1	 9.563699e-01	 1.054416e+00	-1.599328e+01
1	 1.063130e+00	 9.642738e-01	-1.370630e+01
1	 1.044141e+00	 9.848044e-01	-1.416815e+01
1	 1.024749e+00	 1.004967e+00	-1.464263e+01
1	 1.004967e+00	 1.024749e+00	-1.512850e+01
1	 9.848044e-01	 1.044141e+00	-1.562461e+01
1	 9.642738e-01	 1.063130e+00	-1.612987e+01
1	 1.071844e+00	 9.721777e-01	-1.385703e+01
1	 1.052699e+00	 9.928765e-01	-1.430728e+01
1	 1.033149e+00	 1.013204e+00	-1.477112e+01
1	 1.013204e+00	 1.033149e+00	-1.524775e+01
1	 9.928765e-01	 1.052699e+00	-1.573641e+01
1	 9.721777e-01	 1.071844e+00	-1.623648e+01
1	 1.080558e+00	 9.800816e-01	-1.398048e+01
1	 1.061258e+00	 1.000949e+00	-1.441856e+01
1	 1.041548e+00	 1.021442e+00	-1.487118e+01
1	 1.021442e+00	 1.041548e+00	-1.533796e+01
1	 1.000949e+00	 1.061258e+00	-1.581862e+01
1	 9.800816e-01	 1.080558e+00	-1.631295e+01
1	 1.089272e+00	 9.879855e-01	-1.407670e+01
1	 1.069816e+00	 1.009021e+00	-1.450198e+01
1	 1.049948e+00	 1.029679e+00	-1.494274e+01
1	 1.029679e+00	 1.049948e+00	-1.539905e+01
1	 1.009021e+00	 1.069816e+00	-1.587109e+01
1	 9.879855e-01	 1.089272e+00	-1.635913e+01
1	 9.484660e-01	 1.045702e+00	-1.582687e+01
1	 9.279218e-01	 1.063974e+00	-1.638546e+01
1	 9.070396e-01	 1.081831e+00	-1.703290e+01
1	 8.858320e-01	 1.099264e+00	-1.777473e+01
1	 8.643121e-01	 1.116263e+00	-1.861701e+01
1	 8.424932e-01	 1.132822e+00	-1.956631e+01
1	 9.563699e-01	 1.054416e+00	-1.599328e+01
1	 9.356545e-01	 1.072840e+00	-1.655211e+01
1	 9.145982e-01	 1.090846e+00	-1.720599e+01
1	 8.932140e-01	 1.108424e+00	-1.796013e+01
1	 8.715148e-01	 1.125566e+00	-1.882027e+01
1	 8.495139e-01	 1.142262e+00	-1.979262e+01
1	 9.642738e-01	 1.063130e+00	-1.612987e+01
1	 9.433872e-01	 1.081707e+00	-1.668842e+01
1	 9.221569e-01	 1.099862e+00	-1.734801e+01
1	 9.005959e-01	 1.117585e+00	-1.811341e+01
1	 8.787174e-01	 1.134868e+00	-1.898987e+01
1	 8.565347e-01	 1.151702e+00	-1.998312e+01
1	 9.721777e-01	 1.071844e+00	-1.623648e+01
1	 9.511198e-01	 1.090573e+00	-1.679418e+01
1	 9.297156e-01	 1.108877e+00	-1.745869e+01
1	 9.079778e-01	 1.126746e+00	-1.823420e+01
1	 8.859200e-01	 1.144170e+00	-1.912535e+01
1	 8.635555e-01	 1.161142e+00	-2.013725e+01
1	 9.800816e-01	 1.080558e+00	-1.631295e+01
1	 9.588525e-01	 1.099440e+00	-1.686921e+01
1	 9.372742e-01	 1.117892e+00	-1.753779e+01
1	 9.153598e-01	 1.135906e+00	-1.832216e+01
1	 8.931226e-01	 1.153472e+00	-1.922626e+01
1	 8.705763e-01	 1.170582e+00	-2.025445e+01
1	 9.879855e-01	 1.089272e+00	-1.635913e+01
1	 9.665852e-01	 1.108306e+00	-1.691331e+01
1	 9.448329e-01	 1.126908e+00	-1.758504e+01
1	 9.227417e-01	 1.145067e+00	-1.837698e+01
1	 9.003252e-01	 1.162774e+00	-1.929220e+01
1	 8.775970e-01	 1.180023e+00	-2.033417e+01
1	 8.424932e-01	 1.132822e+00	-1.956631e+01
1	 8.203886e-01	 1.148931e+00	-2.063960e+01
1	 7.980122e-01	 1.164584e+00	-2.184188e+01
1	 7.753781e-01	 1.179775e+00	-2.316185e+01
1	 7.525004e-01	 1.194497e+00	-2.458786e+01
1	 7.293934e-01	 1.208745e+00	-2.610795e+01
1	 8.495139e-01	 1.142262e+00	-1.979262e+01
1	 8.272252e-01	 1.158505e+00	-2.089129e+01
1	 8.046623e-01	 1.174289e+00	-2.211815e+01
1	 7.818396e-01	 1.189606e+00	-2.346099e+01
1	 7.587712e-01	 1.204451e+00	-2.490726e+01
1	 7.354717e-01	 1.218818e+00	-2.644408e+01
1	 8.565347e-01	 1.151702e+00	-1.998312e+01
1	 8.340617e-01	 1.168080e+00	-2.110432e+01
1	 8.113124e-01	 1.183994e+00	-2.235238e+01
1	 7.883011e-01	 1.199438e+00	-2.371464e+01
1	 7.650421e-01	 1.214405e+00	-2.517804e+01
1	 7.415500e-01	 1.228891e+00	-2.672918e+01
1	 8.635555e-01	 1.161142e+00	-2.013725e+01
1	 8.408983e-01	 1.177654e+00	-2.127803e+01
1	 8.179625e-01	 1.193699e+00	-2.254394e+01
1	 7.947626e-01	 1.209269e+00	-2.392223e+01
1	 7.713129e-01	 1.224359e+00	-2.539976e+01
1	 7.476282e-01	 1.238964e+00	-2.696306e+01
1	 8.705763e-01	 1.170582e+00	-2.025445e+01
1	 8.477349e-01	 1.187229e+00	-2.141179e+01
1	 8.246126e-01	 1.203404e+00	-2.269219e+01
1	 8.012240e-01	 1.219101e+00	-2.408322e+01
1	 7.775837e-01	 1.234313e+00	-2.557205e+01
1	 7.537065e-01	 1.249037e+00	-2.714552e+01
1	 8.775970e-01	 1.180023e+00	-2.033417e+01
1	 8.545714e-01	 1.196803e+00	-2.150497e+01
1	 8.312627e-01	 1.213108e+00	-2.279652e+01
1	 8.076855e-01	 1.228932e+00	-2.419707e+01
1	 7.838546e-01	 1.244268e+00	-2.569451e+01
1	 7.597848e-01	 1.259110e+00	-2.727638e+01
1	 7.293934e-01	 1.208745e+00	-2.610795e+01
1	 7.060717e-01	 1.222515e+00	-2.769208e+01
1	 6.825498e-01	 1.235801e+00	-2.931213e+01
1	 6.588424e-01	 1.248602e+00	-3.095872e+01
1	 6.349643e-01	 1.260912e+00	-3.262238e+01
1	 6.109301e-01	 1.272731e+00	-3.429356e+01
1	 7.354717e-01	 1.218818e+00	-2.644408e+01
1	 7.119556e-01	 1.232702e+00	-2.804084e+01
1	 6.882377e-01	 1.246100e+00	-2.967038e+01
1	 6.643328e-01	 1.259007e+00	-3.132465e+01
1	 6.402557e-01	 1.271420e+00	-3.299550e+01
1	 6.160212e-01	 1.283337e+00	-3.467473e+01
1	 7.415500e-01	 1.228891e+00	-2.672918e+01
1	 7.178396e-01	 1.242890e+00	-2.833736e+01
1	 6.939256e-01	 1.256398e+00	-2.997619e+01
1	 6.698231e-01	 1.269412e+00	-3.163849e+01
1	 6.455470e-01	 1.281928e+00	-3.331700e+01
1	 6.211123e-01	 1.293943e+00	-3.500437e+01
1	 7.476282e-01	 1.238964e+00	-2.696306e+01
1	 7.237235e-01	 1.253078e+00	-2.858162e+01
1	 6.996136e-01	 1.266697e+00	-3.022964e+01
1	 6.753135e-01	 1.279817e+00	-3.190035e+01
1	 6.508384e-01	 1.292435e+00	-3.358691e+01
1	 6.262034e-01	 1.304549e+00	-3.528240e+01
1	 7.537065e-01	 1.249037e+00	-2.714552e+01
1	 7.296074e-01	 1.263265e+00	-2.877362e+01
1	 7.053015e-01	 1.276995e+00	-3.043079e+01
1	 6.808039e-01	 1.290222e+00	-3.211029e+01
1	 6.561298e-01	 1.302943e+00	-3.380525e+01
1	 6.312944e-01	 1.315155e+00	-3.550872e+01
1	 7.597848e-01	 1.259110e+00	-2.727638e+01
1	 7.354913e-01	 1.273453e+00	-2.891332e+01
1	 7.109894e-01	 1.287293e+00	-3.057973e+01
1	 6.862942e-01	 1.300627e+00	-3.226842e+01
1	 6.614211e-01	 1.313450e+00	-3.397207e+01
1	 6.363855e-01	 1.325761e+00	-3.568326e+01
1	 6.109301e-01	 1.272731e+00	-3.429356e+01
1	 5.867546e-01	 1.284056e+00	-3.593738e+01
1	 5.624525e-01	 1.294885e+00	-3.752410e+01
1	 5.380384e-01	 1.305218e+00	-3.905193e+01
1	 5.135269e-01	 1.315055e+00	-4.051926e+01
1	 4.889324e-01	 1.324396e+00	-4.192459e+01
1	 6.160212e-01	 1.283337e+00	-3.467473e+01
1	 5.916442e-01	 1.294756e+00	-3.632868e+01
1	 5.671396e-01	 1.305676e+00	-3.792703e+01
1	 5.425221e-01	 1.316095e+00	-3.946664e+01
1	 5.178063e-01	 1.326014e+00	-4.094450e+01
1	 4.930068e-01	 1.335433e+00	-4.235778e+01
1	 6.211123e-01	 1.293943e+00	-3.500437e+01
1	 5.965338e-01	 1.305456e+00	-3.666772e+01
1	 5.718267e-01	 1.316466e+00	-3.827621e+01
1	 5.470057e-01	 1.326972e+00	-3.982570e+01
1	 5.220857e-01	 1.336973e+00	-4.131218e+01
1	 4.970813e-01	 1.346469e+00	-4.273176e+01
1	 6.262034e-01	 1.304549e+00	-3.528240e+01
1	 6.014235e-01	 1.316157e+00	-3.695429e+01
1	 5.765138e-01	 1.327257e+00	-3.857139e+01
1	 5.514894e-01	 1.337849e+00	-4.012890e+01
1	 5.263651e-01	 1.347931e+00	-4.162209e+01
1	 5.011557e-01	 1.357506e+00	-4.304645e+01
1	 6.312944e-01	 1.315155e+00	-3.550872e+01
1	 6.063131e-01	 1.326857e+00	-3.718820e+01
1	 5.812009e-01	 1.338048e+00	-3.881235e+01
1	 5.559730e-01	 1.348725e+00	-4.037599e+01
1	 5.306445e-01	 1.358890e+00	-4.187409e+01
1	 5.052302e-01	 1.368543e+00	-4.330177e+01
1	 6.363855e-01	 1.325761e+00	-3.568326e+01
1	 6.112027e-01	 1.337558e+00	-3.736928e+01
1	 5.858880e-01	 1.348838e+00	-3.899885e+01
1	 5.604567e-01	 1.359602e+00	-4.056677e+01
1	 5.349239e-01	 1.369849e+00	-4.206800e+01
1	 5.093046e-01	 1.379579e+00	-4.349763e+01
1	 4.889324e-01	 1.324396e+00	-4.192459e+01
1	 4.642693e-01	 1.333242e+00	-4.326210e+01
1	 4.395516e-01	 1.341594e+00	-4.452376e+01
1	 4.147933e-01	 1.349454e+00	-4.570488e+01
1	 3.900083e-01	 1.356825e+00	-4.680091e+01
1	 3.652100e-01	 1.363709e+00	-4.780737e+01
1	 4.930068e-01	 1.335433e+00	-4.235778e+01
1	 4.681382e-01	 1.344352e+00	-4.369920e+01
1	 4.432145e-01	 1.352774e+00	-4.496089e+01
1	 4.182499e-01	 1.360699e+00	-4.613928e+01
1	 3.932584e-01	 1.368132e+00	-4.723092e+01
1	 3.682535e-01	 1.375073e+00	-4.823244e+01
1	 4.970813e-01	 1.346469e+00	-4.273176e+01
1	 4.720071e-01	 1.355462e+00	-4.407613e+01
1	 4.468774e-01	 1.363954e+00	-4.533756e+01
1	 4.217065e-01	 1.371945e+00	-4.651331e+01
1	 3.965084e-01	 1.379438e+00	-4.760076e+01
1	 3.712969e-01	 1.386437e+00	-4.859739e+01
1	 5.011557e-01	 1.357506e+00	-4.304645e+01
1	 4.758760e-01	 1.366573e+00	-4.439289e+01
1	 4.505404e-01	 1.375134e+00	-4.565379e+01
1	 4.251632e-01	 1.383190e+00	-4.682697e+01
1	 3.997585e-01	 1.390745e+00	-4.791037e+01
1	 3.743403e-01	 1.397801e+00	-4.890207e+01
1	 5.052302e-01	 1.368543e+00	-4.330177e+01
1	 4.797449e-01	 1.377683e+00	-4.464949e+01
1	 4.542033e-01	 1.386314e+00	-4.590960e+01
1	 4.286198e-01	 1.394436e+00	-4.708025e+01
1	 4.030086e-01	 1.402052e+00	-4.815970e+01
1	 3.773837e-01	 1.409166e+00	-4.914633e+01
1	 5.093046e-01	 1.379579e+00	-4.349763e+01
1	 4.836138e-01	 1.388794e+00	-4.484592e+01
1	 4.578662e-01	 1.397494e+00	-4.610503e+01
1	 4.320764e-01	 1.405681e+00	-4.727318e+01
1	 4.062586e-01	 1.413359e+00	-4.834869e+01
1	 3.804271e-01	 1.420530e+00	-4.933003e+01
1	 3.652100e-01	 1.363709e+00	-4.780737e+01
1	 3.404119e-01	 1.370109e+00	-4.872546e+01
1	 3.156268e-01	 1.376030e+00	-4.955925e+01
1	 2.908676e-01	 1.381476e+00	-5.030894e+01
1	 2.661469e-01	 1.386451e+00	-5.097487e+01
1	 2.414767e-01	 1.390960e+00	-5.155755e+01
1	 3.682535e-01	 1.375073e+00	-4.823244e+01
1	 3.432486e-01	 1.381527e+00	-4.914619e+01
1	 3.182570e-01	 1.387497e+00	-4.997630e+01
1	 2.932915e-01	 1.392988e+00	-5.072234e+01
1	 2.683648e-01	 1.398004e+00	-5.138405e+01
1	 2.434890e-01	 1.402551e+00	-5.196133e+01
1	 3.712969e-01	 1.386437e+00	-4.859739e+01
1	 3.460854e-01	 1.392944e+00	-4.950643e+01
1	 3.208872e-01	 1.398964e+00	-5.033205e+01
1	 2.957154e-01	 1.404500e+00	-5.107340e+01
1	 2.705827e-01	 1.409558e+00	-5.172979e+01
1	 2.455013e-01	 1.414142e+00	-5.230071e+01
1	 3.743403e-01	 1.397801e+00	-4.890207e+01
1	 3.489222e-01	 1.404362e+00	-4.980593e+01
1	 3.235175e-01	 1.410431e+00	-5.062621e+01
1	 2.981393e-01	 1.416013e+00	-5.136181e+01
1	 2.728006e-01	 1.421112e+00	-5.201182e+01
1	 2.475137e-01	 1.425734e+00	-5.257550e+01
1	 3.773837e-01	 1.409166e+00	-4.914633e+01
1	 3.517589e-01	 1.415780e+00	-5.004445e+01
1	 3.261477e-01	 1.421898e+00	-5.085849e+01
1	 3.005632e-01	 1.427525e+00	-5.158730e+01
1	 2.750185e-01	 1.432666e+00	-5.222990e+01
1	 2.495260e-01	 1.437325e+00	-5.278551e+01
1	 3.804271e-01	 1.420530e+00	-4.933003e+01
1	 3.545957e-01	 1.427197e+00	-5.022176e+01
1	 3.287779e-01	 1.433365e+00	-5.102863e+01
1	 3.029871e-01	 1.439037e+00	-5.174959e+01
1	 2.772364e-01	 1.444219e+00	-5.238379e+01
1	 2.515383e-01	 1.448916e+00	-5.293055e+01
1	 2.414767e-01	 1.390960e+00	-5.155755e+01
1	 2.168690e-01	 1.395008e+00	-5.205873e+01
1	 1.923353e-01	 1.398602e+00	-5.248062e+01
1	 1.678868e-01	 1.401747e+00	-5.282465e+01
1	 1.435344e-01	 1.404449e+00	-5.309239e+01
1	 1.192886e-01	 1.406716e+00	-5.328555e+01
1	 2.434890e-01	 1.402551e+00	-5.196133e+01
1	 2.186763e-01	 1.406633e+00	-5.245561e+01
1	 1.939381e-01	 1.410257e+00	-5.286944e+01
1	 1.692859e-01	 1.413428e+00	-5.320461e+01
1	 1.447305e-01	 1.416153e+00	-5.346310e+01
1	 1.202826e-01	 1.418439e+00	-5.364696e+01
1	 2.455013e-01	 1.414142e+00	-5.230071e+01
1	 2.204835e-01	 1.418258e+00	-5.278748e+01
1	 1.955409e-01	 1.421912e+00	-5.319296e+01
1	 1.706849e-01	 1.425109e+00	-5.351922e+01
1	 1.459267e-01	 1.427857e+00	-5.376848e+01
1	 1.212767e-01	 1.430161e+00	-5.394307e+01
1	 2.475137e-01	 1.425734e+00	-5.257550e+01
1	 2.222908e-01	 1.429883e+00	-5.305420e+01
1	 1.971437e-01	 1.433567e+00	-5.345109e+01
1	 1.720840e-01	 1.436790e+00	-5.376837e+01
1	 1.471228e-01	 1.439560e+00	-5.400842e+01
1	 1.222708e-01	 1.441884e+00	-5.417373e+01
1	 2.495260e-01	 1.437325e+00	-5.278551e+01
1	 2.240980e-01	 1.441508e+00	-5.325565e+01
1	 1.987465e-01	 1.445222e+00	-5.364372e+01
1	 1.734831e-01	 1.448472e+00	-5.395198e+01
1	 1.483189e-01	 1.451264e+00	-5.418282e+01
1	 1.232649e-01	 1.453607e+00	-5.433877e+01
1	 2.515383e-01	 1.448916e+00	-5.293055e+01
1	 2.259052e-01	 1.453133e+00	-5.339170e+01
1	 2.003493e-01	 1.456877e+00	-5.377077e+01
1	 1.748821e-01	 1.460153e+00	-5.406995e+01
1	 1.495150e-01	 1.462968e+00	-5.429156e+01
1	 1.242589e-01	 1.465329e+00	-5.443806e+01
1	 1.192886e-01	 1.406716e+00	-5.328555e+01
1	 9.515944e-02	 1.408554e+00	-5.340696e+01
1	 7.115680e-02	 1.409970e+00	-5.346076e+01
1	 4.729006e-02	 1.410972e+00	-5.345062e+01
1	 2.356824e-02	 1.411568e+00	-5.338028e+01
1	 0.000000e+00	 1.411765e+00	-5.325343e+01
1	 1.202826e-01	 1.418439e+00	-5.364696e+01
1	 9.595243e-02	 1.420292e+00	-5.375928e+01
1	 7.174977e-02	 1.421720e+00	-5.380383e+01
1	 4.768414e-02	 1.422731e+00	-5.378387e+01
1	 2.376465e-02	 1.423331e+00	-5.370267e+01
1	 0.000000e+00	 1.423529e+00	-5.356350e+01
1	 1.212767e-01	 1.430161e+00	-5.394307e+01
1	 9.674543e-02	 1.432030e+00	-5.404619e+01
1	 7.234275e-02	 1.433470e+00	-5.408133e+01
1	 4.807823e-02	 1.434489e+00	-5.405147e+01
1	 2.396105e-02	 1.435094e+00	-5.395957e+01
1	 0.000000e+00	 1.435294e+00	-5.380863e+01
1	 1.222708e-01	 1.441884e+00	-5.417373e+01
1	 9.753842e-02	 1.443768e+00	-5.426749e+01
1	 7.293572e-02	 1.445220e+00	-5.429305e+01
1	 4.847231e-02	 1.446247e+00	-5.425321e+01
1	 2.415745e-02	 1.446857e+00	-5.415080e+01
1	 0.000000e+00	 1.447059e+00	-5.398869e+01
1	 1.232649e-01	 1.453607e+00	-5.433877e+01
1	 9.833142e-02	 1.455506e+00	-5.442300e+01
1	 7.352869e-02	 1.456969e+00	-5.443878e+01
1	 4.886639e-02	 1.458005e+00	-5.438891e+01
1	 2.435385e-02	 1.458620e+00	-5.427622e+01
1	 0.000000e+00	 1.458824e+00	-5.410355e+01
1	 1.242589e-01	 1.465329e+00	-5.443806e+01
1	 9.912441e-02	 1.467244e+00	-5.451254e+01
1	 7.412167e-02	 1.468719e+00	-5.451834e+01
1	 4.926048e-02	 1.469763e+00	-5.445839e+01
1	 2.455025e-02	 1.470383e+00	-5.433565e+01
1	 0.000000e+00	 1.470588e+00	-5.415311e+01
1	 1.470588e+00	 0.000000e+00	 1.849753e+01
1	 1.470383e+00	 2.455025e-02	 1.878171e+01
1	 1.469763e+00	 4.926048e-02	 1.899950e+01
1	 1.468719e+00	 7.412167e-02	 1.914916e+01
1	 1.467244e+00	 9.912441e-02	 1.922933e+01
1	 1.465329e+00	 1.242589e-01	 1.923908e+01
1	 1.482353e+00	 0.000000e+00	 1.820925e+01
1	 1.482146e+00	 2.474666e-02	 1.847679e+01
1	 1.481521e+00	 4.965456e-02	 1.867969e+01
1	 1.480469e+00	 7.471464e-02	 1.881626e+01
1	 1.478982e+00	 9.991741e-02	 1.888518e+01
1	 1.477052e+00	 1.252530e-01	 1.888557e+01
1	 1.494118e+00	 0.000000e+00	 1.791405e+01
1	 1.493909e+00	 2.494306e-02	 1.816447e+01
1	 1.493279e+00	 5.004865e-02	 1.835213e+01
1	 1.492219e+00	 7.530761e-02	 1.847537e+01
1	 1.490720e+00	 1.007104e-01	 1.853295e+01
1	 1.488774e+00	 1.262471e-01	 1.852402e+01
1	 1.505882e+00	 0.000000e+00	 1.761178e+01
1	 1.505672e+00	 2.513946e-02	 1.784471e+01
1	 1.505037e+00	 5.044273e-02	 1.801684e+01
1	 1.503968e+00	 7.590059e-02	 1.812656e+01
1	 1.502458e+00	 1.015034e-01	 1.817270e+01
1	 1.500497e+00	 1.272411e-01	 1.815448e+01
1	 1.517647e+00	 0.000000e+00	 1.730227e+01
1	 1.517436e+00	 2.533586e-02	 1.751744e+01
1	 1.516795e+00	 5.083681e-02	 1.767383e+01
1	 1.515718e+00	 7.649356e-02	 1.776988e+01
1	 1.514196e+00	 1.022964e-01	 1.780450e+01
1	 1.512220e+00	 1.282352e-01	 1.777700e+01
1	 1.529412e+00	 0.000000e+00	 1.698540e+01
1	 1.529199e+00	 2.553226e-02	 1.718263e+01
1	 1.528553e+00	 5.123090e-02	 1.732311e+01
1	 1.527468e+00	 7.708653e-02	 1.740539e+01
1	 1.525933e+00	 1.030894e-01	 1.742843e+01
1	 1.523942e+00	 1.292293e-01	 1.739164e+01
1	 1.465329e+00	 1.242589e-01	 1.923908e+01
1	 1.462968e+00	 1.495150e-01	 1.917759e+01
1	 1.460153e+00	 1.748821e-01	 1.904410e+01
1	 1.456877e+00	 2.003493e-01	 1.883831e+01
1	 1.453133e+00	 2.259052e-01	 1.856027e+01
1	 1.448916e+00	 2.515383e-01	 1.821041e+01
1	 1.477052e+00	 1.252530e-01	 1.888557e+01
1	 1.474672e+00	 1.507111e-01	 1.881631e+01
1	 1.471834e+00	 1.762812e-01	 1.867631e+01
1	 1.468532e+00	 2.019521e-01	 1.846532e+01
1	 1.464758e+00	 2.277125e-01	 1.818346e+01
1	 1.460508e+00	 2.535506e-01	 1.783121e+01
1	 1.488774e+00	 1.262471e-01	 1.852402e+01
1	 1.486375e+00	 1.519073e-01	 1.844714e+01
1	 1.483515e+00	 1.776802e-01	 1.830087e+01
1	 1.480187e+00	 2.035549e-01	 1.808500e+01
1	 1.476384e+00	 2.295197e-01	 1.779971e+01
1	 1.472099e+00	 2.555629e-01	 1.744556e+01
1	 1.500497e+00	 1.272411e-01	 1.815448e+01
1	 1.498079e+00	 1.531034e-01	 1.807011e+01
1	 1.495196e+00	 1.790793e-01	 1.791779e+01
1	 1.491842e+00	 2.051577e-01	 1.769736e+01
1	 1.488009e+00	 2.313270e-01	 1.740908e+01
1	 1.483690e+00	 2.575752e-01	 1.705357e+01
1	 1.512220e+00	 1.282352e-01	 1.777700e+01
1	 1.509783e+00	 1.542995e-01	 1.768526e+01
1	 1.506878e+00	 1.804783e-01	 1.752710e+01
1	 1.503497e+00	 2.067605e-01	 1.730246e+01
1	 1.499634e+00	 2.331342e-01	 1.701164e+01
1	 1.495282e+00	 2.595875e-01	 1.665535e+01
1	 1.523942e+00	 1.292293e-01	 1.739164e+01
1	 1.521487e+00	 1.554956e-01	 1.729259e+01
1	 1.518559e+00	 1.818774e-01	 1.712883e+01
1	 1.515152e+00	 2.083633e-01	 1.690033e+01
1	 1.511259e+00	 2.349414e-01	 1.660746e+01
1	 1.506873e+00	 2.615998e-01	 1.625103e+01
1	 1.448916e+00	 2.515383e-01	 1.821041e+01
1	 1.444219e+00	 2.772364e-01	 1.778208e+01
1	 1.439037e+00	 3.029871e-01	 1.727005e+01
1	 1.433365e+00	 3.287779e-01	 1.667748e+01
1	 1.427197e+00	 3.545957e-01	 1.600807e+01
1	 1.420530e+00	 3.804271e-01	 1.526603e+01
1	 1.460508e+00	 2.535506e-01	 1.783121e+01
1	 1.455773e+00	 2.794542e-01	 1.740217e+01
1	 1.450550e+00	 3.054110e-01	 1.689129e+01
1	 1.444832e+00	 3.314081e-01	 1.630179e+01
1	 1.438615e+00	 3.574324e-01	 1.563740e+01
1	 1.431894e+00	 3.834705e-01	 1.490241e+01
1	 1.472099e+00	 2.555629e-01	 1.744556e+01
1	 1.467327e+00	 2.816721e-01	 1.701640e+01
1	 1.462062e+00	 3.078349e-01	 1.650739e+01
1	 1.456299e+00	 3.340384e-01	 1.592177e+01
1	 1.450032e+00	 3.602692e-01	 1.526330e+01
1	 1.443258e+00	 3.865140e-01	 1.453630e+01
1	 1.483690e+00	 2.575752e-01	 1.705357e+01
1	 1.478881e+00	 2.838900e-01	 1.662493e+01
1	 1.473574e+00	 3.102588e-01	 1.611851e+01
1	 1.467766e+00	 3.366686e-01	 1.553757e+01
1	 1.461450e+00	 3.631060e-01	 1.488587e+01
1	 1.454623e+00	 3.895574e-01	 1.416770e+01
1	 1.495282e+00	 2.595875e-01	 1.665535e+01
1	 1.490434e+00	 2.861079e-01	 1.622791e+01
1	 1.485087e+00	 3.126827e-01	 1.572483e+01
1	 1.479233e+00	 3.392988e-01	 1.514934e+01
1	 1.472867e+00	 3.659427e-01	 1.450518e+01
1	 1.465987e+00	 3.926008e-01	 1.379660e+01
1	 1.506873e+00	 2.615998e-01	 1.625103e+01
1	 1.501988e+00	 2.883258e-01	 1.582551e+01
1	 1.496599e+00	 3.151066e-01	 1.532651e+01
1	 1.490699e+00	 3.419290e-01	 1.475722e+01
1	 1.484285e+00	 3.687795e-01	 1.412132e+01
1	 1.477351e+00	 3.956442e-01	 1.342302e+01
1	 1.420530e+00	 3.804271e-01	 1.526603e+01
1	 1.413359e+00	 4.062586e-01	 1.442720e+01
1	 1.405681e+00	 4.320764e-01	 1.346447e+01
1	 1.397494e+00	 4.578662e-01	 1.237782e+01
1	 1.388794e+00	 4.836138e-01	 1.116695e+01
1	 1.379579e+00	 5.093046e-01	 9.831269e+00
1	 1.431894e+00	 3.834705e-01	 1.490241e+01
1	 1.424666e+00	 4.095087e-01	 1.407048e+01
1	 1.416927e+00	 4.355330e-01	 1.311247e+01
1	 1.408674e+00	 4.615291e-01	 1.202864e+01
1	 1.399904e+00	 4.874827e-01	 1.081904e+01
1	 1.390616e+00	 5.133790e-01	 9.483425e+00
1	 1.443258e+00	 3.865140e-01	 1.453630e+01
1	 1.435973e+00	 4.127588e-01	 1.371229e+01
1	 1.428172e+00	 4.389896e-01	 1.276017e+01
1	 1.419853e+00	 4.651921e-01	 1.168056e+01
1	 1.411014e+00	 4.913516e-01	 1.047388e+01
1	 1.401652e+00	 5.174535e-01	 9.140334e+00
1	 1.454623e+00	 3.895574e-01	 1.416770e+01
1	 1.447280e+00	 4.160089e-01	 1.335253e+01
1	 1.439418e+00	 4.424462e-01	 1.240747e+01
1	 1.431033e+00	 4.688550e-01	 1.133352e+01
1	 1.422125e+00	 4.952205e-01	 1.013152e+01
1	 1.412689e+00	 5.215279e-01	 8.802160e+00
1	 1.465987e+00	 3.926008e-01	 1.379660e+01
1	 1.458586e+00	 4.192589e-01	 1.299116e+01
1	 1.450663e+00	 4.459028e-01	 1.205430e+01
1	 1.442213e+00	 4.725179e-01	 1.098745e+01
1	 1.433235e+00	 4.990894e-01	 9.791965e+00
1	 1.423726e+00	 5.256023e-01	 8.469066e+00
1	 1.477351e+00	 3.956442e-01	 1.342302e+01
1	 1.469893e+00	 4.225090e-01	 1.262810e+01
1	 1.461908e+00	 4.493594e-01	 1.170056e+01
1	 1.453393e+00	 4.761809e-01	 1.064232e+01
1	 1.444345e+00	 5.029584e-01	 9.455253e+00
1	 1.434762e+00	 5.296768e-01	 8.141206e+00
1	 1.379579e+00	 5.093046e-01	 9.831269e+00
1	 1.369849e+00	 5.349239e-01	 8.388390e+00
1	 1.359602e+00	 5.604567e-01	 6.862074e+00
1	 1.348838e+00	 5.858880e-01	 5.261422e+00
1	 1.337558e+00	 6.112027e-01	 3.596366e+00
1	 1.325761e+00	 6.363855e-01	 1.877645e+00
1	 1.390616e+00	 5.133790e-01	 9.483425e+00
1	 1.380808e+00	 5.392032e-01	 8.042745e+00
1	 1.370479e+00	 5.649403e-01	 6.523914e+00
1	 1.359629e+00	 5.905751e-01	 4.936146e+00
1	 1.348258e+00	 6.160923e-01	 3.289478e+00
1	 1.336367e+00	 6.414766e-01	 1.594754e+00
1	 1.401652e+00	 5.174535e-01	 9.140334e+00
1	 1.391767e+00	 5.434826e-01	 7.704117e+00
1	 1.381356e+00	 5.694240e-01	 6.195145e+00
1	 1.370420e+00	 5.952622e-01	 4.622648e+00
1	 1.358959e+00	 6.209820e-01	 2.996657e+00
1	 1.346974e+00	 6.465677e-01	 1.327986e+00
1	 1.412689e+00	 5.215279e-01	 8.802160e+00
1	 1.402725e+00	 5.477620e-01	 7.372792e+00
1	 1.392233e+00	 5.739076e-01	 5.876089e+00
1	 1.381211e+00	 5.999493e-01	 4.321202e+00
1	 1.369659e+00	 6.258716e-01	 2.718046e+00
1	 1.357580e+00	 6.516588e-01	 1.077276e+00
1	 1.423726e+00	 5.256023e-01	 8.469066e+00
1	 1.413684e+00	 5.520414e-01	 7.049049e+00
1	 1.403109e+00	 5.783913e-01	 5.567059e+00
1	 1.392001e+00	 6.046364e-01	 4.032074e+00
1	 1.380360e+00	 6.307612e-01	 2.453784e+00
1	 1.368186e+00	 6.567499e-01	 8.425633e-01
1	 1.434762e+00	 5.296768e-01	 8.141206e+00
1	 1.424643e+00	 5.563208e-01	 6.733157e+00
1	 1.413986e+00	 5.828749e-01	 5.268357e+00
1	 1.402792e+00	 6.093235e-01	 3.755521e+00
1	 1.391060e+00	 6.356508e-01	 2.204007e+00
1	 1.378792e+00	 6.618409e-01	 6.237860e-01
1	 1.325761e+00	 6.363855e-01	 1.877645e+00
1	 1.313450e+00	 6.614211e-01	 1.870751e-01
1	 1.300627e+00	 6.862942e-01	-1.404571e+00
1	 1.287293e+00	 7.109894e-01	-2.903291e+00
1	 1.273453e+00	 7.354913e-01	-4.316088e+00
1	 1.259110e+00	 7.597848e-01	-5.650951e+00
1	 1.336367e+00	 6.414766e-01	 1.594754e+00
1	 1.323958e+00	 6.667125e-01	-6.999093e-02
1	 1.311032e+00	 6.917846e-01	-1.637951e+00
1	 1.297592e+00	 7.166773e-01	-3.115350e+00
1	 1.283641e+00	 7.413753e-01	-4.509470e+00
1	 1.269182e+00	 7.658631e-01	-5.828636e+00
1	 1.346974e+00	 6.465677e-01	 1.327986e+00
1	 1.334466e+00	 6.720039e-01	-3.092915e-01
1	 1.321437e+00	 6.972749e-01	-1.852366e+00
1	 1.307890e+00	 7.223652e-01	-3.307587e+00
1	 1.293828e+00	 7.472592e-01	-4.682395e+00
1	 1.279255e+00	 7.719414e-01	-5.985310e+00
1	 1.357580e+00	 6.516588e-01	 1.077276e+00
1	 1.344973e+00	 6.772952e-01	-5.310910e-01
1	 1.331842e+00	 7.027653e-01	-2.048190e+00
1	 1.318188e+00	 7.280531e-01	-3.480392e+00
1	 1.304016e+00	 7.531431e-01	-4.835181e+00
1	 1.289328e+00	 7.780196e-01	-6.121137e+00
1	 1.368186e+00	 6.567499e-01	 8.425633e-01
1	 1.355481e+00	 6.825866e-01	-7.356453e-01
1	 1.342247e+00	 7.082556e-01	-2.225782e+00
1	 1.328487e+00	 7.337411e-01	-3.634143e+00
1	 1.314203e+00	 7.590271e-01	-4.968138e+00
1	 1.299401e+00	 7.840979e-01	-6.236278e+00
1	 1.378792e+00	 6.618409e-01	 6.237860e-01
1	 1.365988e+00	 6.878780e-01	-9.232028e-01
1	 1.352652e+00	 7.137460e-01	-2.385491e+00
1	 1.338785e+00	 7.394290e-01	-3.769204e+00
1	 1.324391e+00	 7.649110e-01	-5.081567e+00
1	 1.309474e+00	 7.901762e-01	-6.330887e+00
1	 1.259110e+00	 7.597848e-01	-5.650951e+00
1	 1.244268e+00	 7.838546e-01	-6.900255e+00
1	 1.228932e+00	 8.076855e-01	-8.051560e+00
1	 1.213108e+00	 8.312627e-01	-9.106432e+00
1	 1.196803e+00	 8.545714e-01	-1.006654e+01
1	 1.180023e+00	 8.775970e-01	-1.093365e+01
1	 1.269182e+00	 7.658631e-01	-5.828636e+00
1	 1.254222e+00	 7.901254e-01	-7.063497e+00
1	 1.238763e+00	 8.141470e-01	-8.200228e+00
1	 1.222813e+00	 8.379128e-01	-9.241339e+00
1	 1.206377e+00	 8.614080e-01	-1.018950e+01
1	 1.189463e+00	 8.846178e-01	-1.104756e+01
1	 1.279255e+00	 7.719414e-01	-5.985310e+00
1	 1.264176e+00	 7.963962e-01	-7.205203e+00
1	 1.248595e+00	 8.206085e-01	-8.326893e+00
1	 1.232518e+00	 8.445629e-01	-9.353799e+00
1	 1.215952e+00	 8.682446e-01	-1.028958e+01
1	 1.198903e+00	 8.916386e-01	-1.113811e+01
1	 1.289328e+00	 7.780196e-01	-6.121137e+00
1	 1.274130e+00	 8.026671e-01	-7.325354e+00
1	 1.258426e+00	 8.270700e-01	-8.431369e+00
1	 1.242223e+00	 8.512131e-01	-9.443479e+00
1	 1.225526e+00	 8.750812e-01	-1.036629e+01
1	 1.208343e+00	 8.986594e-01	-1.120473e+01
1	 1.299401e+00	 7.840979e-01	-6.236278e+00
1	 1.284084e+00	 8.089379e-01	-7.423928e+00
1	 1.268258e+00	 8.335315e-01	-8.513472e+00
1	 1.251928e+00	 8.578632e-01	-9.510053e+00
1	 1.235101e+00	 8.819177e-01	-1.041921e+01
1	 1.217783e+00	 9.056801e-01	-1.124685e+01
1	 1.309474e+00	 7.901762e-01	-6.330887e+00
1	 1.294038e+00	 8.152087e-01	-7.500908e+00
1	 1.278089e+00	 8.399929e-01	-8.573027e+00
1	 1.261633e+00	 8.645133e-01	-9.553207e+00
1	 1.244675e+00	 8.887543e-01	-1.044789e+01
1	 1.227223e+00	 9.127009e-01	-1.126396e+01
1	 1.180023e+00	 8.775970e-01	-1.093365e+01
1	 1.162774e+00	 9.003252e-01	-1.171892e+01
1	 1.145067e+00	 9.227417e-01	-1.243003e+01
1	 1.126908e+00	 9.448329e-01	-1.306308e+01
1	 1.108306e+00	 9.665852e-01	-1.361363e+01
1	 1.089272e+00	 9.879855e-01	-1.407670e+01
1	 1.189463e+00	 8.846178e-01	-1.104756e+01
1	 1.172077e+00	 9.075278e-01	-1.182562e+01
1	 1.154227e+00	 9.301237e-01	-1.252916e+01
1	 1.135923e+00	 9.523916e-01	-1.315366e+01
1	 1.117173e+00	 9.743179e-01	-1.369399e+01
1	 1.097987e+00	 9.958893e-01	-1.414438e+01
1	 1.198903e+00	 8.916386e-01	-1.113811e+01
1	 1.181379e+00	 9.147304e-01	-1.190816e+01
1	 1.163388e+00	 9.375056e-01	-1.260286e+01
1	 1.144938e+00	 9.599502e-01	-1.321726e+01
1	 1.126039e+00	 9.820506e-01	-1.374576e+01
1	 1.106701e+00	 1.003793e+00	-1.418205e+01
1	 1.208343e+00	 8.986594e-01	-1.120473e+01
1	 1.190681e+00	 9.219330e-01	-1.196591e+01
1	 1.172548e+00	 9.448875e-01	-1.265049e+01
1	 1.153953e+00	 9.675089e-01	-1.325333e+01
1	 1.134906e+00	 9.897832e-01	-1.376852e+01
1	 1.115415e+00	 1.011697e+00	-1.418946e+01
1	 1.217783e+00	 9.056801e-01	-1.124685e+01
1	 1.199983e+00	 9.291356e-01	-1.199825e+01
1	 1.181709e+00	 9.522695e-01	-1.267147e+01
1	 1.162969e+00	 9.750676e-01	-1.326133e+01
1	 1.143772e+00	 9.975159e-01	-1.376187e+01
1	 1.124129e+00	 1.019601e+00	-1.416639e+01
1	 1.227223e+00	 9.127009e-01	-1.126396e+01
1	 1.209285e+00	 9.363382e-01	-1.200459e+01
1	 1.190869e+00	 9.596514e-01	-1.266520e+01
1	 1.171984e+00	 9.826262e-01	-1.324075e+01
1	 1.152639e+00	 1.005249e+00	-1.372541e+01
1	 1.132843e+00	 1.027505e+00	-1.411260e+01
1	 1.089272e+00	 9.879855e-01	-1.407670e+01
1	 1.069816e+00	 1.009021e+00	-1.450198e+01
1	 1.049948e+00	 1.029679e+00	-1.494274e+01
1	 1.029679e+00	 1.049948e+00	-1.539905e+01
1	 1.009021e+00	 1.069816e+00	-1.587109e+01
1	 9.879855e-01	 1.089272e+00	-1.635913e+01
1	 1.097987e+00	 9.958893e-01	-1.414438e+01
1	 1.078375e+00	 1.017093e+00	-1.455599e+01
1	 1.058348e+00	 1.037916e+00	-1.498429e+01
1	 1.037916e+00	 1.058348e+00	-1.542967e+01
1	 1.017093e+00	 1.078375e+00	-1.589265e+01
1	 9.958893e-01	 1.097987e+00	-1.637385e+01
1	 1.106701e+00	 1.003793e+00	-1.418205e+01
1	 1.086933e+00	 1.025165e+00	-1.457903e+01
1	 1.066747e+00	 1.046154e+00	-1.499438e+01
1	 1.046154e+00	 1.066747e+00	-1.542857e+01
1	 1.025165e+00	 1.086933e+00	-1.588219e+01
1	 1.003793e+00	 1.106701e+00	-1.635595e+01
1	 1.115415e+00	 1.011697e+00	-1.418946e+01
1	 1.095492e+00	 1.033237e+00	-1.457103e+01
1	 1.075147e+00	 1.054391e+00	-1.497302e+01
1	 1.054391e+00	 1.075147e+00	-1.539577e+01
1	 1.033237e+00	 1.095492e+00	-1.583970e+01
1	 1.011697e+00	 1.115415e+00	-1.630533e+01
1	 1.124129e+00	 1.019601e+00	-1.416639e+01
1	 1.104050e+00	 1.041310e+00	-1.453191e+01
1	 1.083546e+00	 1.062629e+00	-1.492024e+01
1	 1.062629e+00	 1.083546e+00	-1.533132e+01
1	 1.041310e+00	 1.104050e+00	-1.576517e+01
1	 1.019601e+00	 1.124129e+00	-1.622187e+01
1	 1.132843e+00	 1.027505e+00	-1.411260e+01
1	 1.112609e+00	 1.049382e+00	-1.446160e+01
1	 1.091946e+00	 1.070866e+00	-1.483604e+01
1	 1.070866e+00	 1.091946e+00	-1.523525e+01
1	 1.049382e+00	 1.112609e+00	-1.565860e+01
1	 1.027505e+00	 1.132843e+00	-1.610545e+01
1	 9.879855e-01	 1.089272e+00	-1.635913e+01
1	 9.665852e-01	 1.108306e+00	-1.691331e+01
1	 9.448329e-01	 1.126908e+00	-1.758504e+01
1	 9.227417e-01	 1.145067e+00	-1.837698e+01
1	 9.003252e-01	 1.162774e+00	-1.929220e+01
1	 8.775970e-01	 1.180023e+00	-2.033417e+01
1	 9.958893e-01	 1.097987e+00	-1.637385e+01
1	 9.743179e-01	 1.117173e+00	-1.692507e+01
1	 9.523916e-01	 1.135923e+00	-1.759869e+01
1	 9.301237e-01	 1.154227e+00	-1.839659e+01
1	 9.075278e-01	 1.172077e+00	-1.932106e+01
1	 8.846178e-01	 1.189463e+00	-2.037479e+01
1	 1.003793e+00	 1.106701e+00	-1.635595e+01
1	 9.820506e-01	 1.126039e+00	-1.690308e+01
1	 9.599502e-01	 1.144938e+00	-1.757696e+01
1	 9.375056e-01	 1.163388e+00	-1.837900e+01
1	 9.147304e-01	 1.181379e+00	-1.931095e+01
1	 8.916386e-01	 1.198903e+00	-2.037498e+01
1	 1.011697e+00	 1.115415e+00	-1.630533e+01
1	 9.897832e-01	 1.134906e+00	-1.684710e+01
1	 9.675089e-01	 1.153953e+00	-1.751961e+01
1	 9.448875e-01	 1.172548e+00	-1.832397e+01
1	 9.219330e-01	 1.190681e+00	-1.926171e+01
1	 8.986594e-01	 1.208343e+00	-2.033471e+01
1	 1.019601e+00	 1.124129e+00	-1.622187e+01
1	 9.975159e-01	 1.143772e+00	-1.675694e+01
1	 9.750676e-01	 1.162969e+00	-1.742638e+01
1	 9.522695e-01	 1.181709e+00	-1.823129e+01
1	 9.291356e-01	 1.199983e+00	-1.917319e+01
1	 9.056801e-01	 1.217783e+00	-2.025395e+01
1	 1.027505e+00	 1.132843e+00	-1.610545e+01
1	 1.005249e+00	 1.152639e+00	-1.663239e+01
1	 9.826262e-01	 1.171984e+00	-1.729705e+01
1	 9.596514e-01	 1.190869e+00	-1.810075e+01
1	 9.363382e-01	 1.209285e+00	-1.904524e+01
1	 9.127009e-01	 1.227223e+00	-2.013265e+01
1	 8.775970e-01	 1.180023e+00	-2.033417e+01
1	 8.545714e-01	 1.196803e+00	-2.150497e+01
1	 8.312627e-01	 1.213108e+00	-2.279652e+01
1	 8.076855e-01	 1.228932e+00	-2.419707e+01
1	 7.838546e-01	 1.244268e+00	-2.569451e+01
1	 7.597848e-01	 1.259110e+00	-2.727638e+01
1	 8.846178e-01	 1.189463e+00	-2.037479e+01
1	 8.614080e-01	 1.206377e+00	-2.155700e+01
1	 8.379128e-01	 1.222813e+00	-2.285785e+01
1	 8.141470e-01	 1.238763e+00	-2.426635e+01
1	 7.901254e-01	 1.254222e+00	-2.577112e+01
1	 7.658631e-01	 1.269182e+00	-2.736048e+01
1	 8.916386e-01	 1.198903e+00	-2.037498e+01
1	 8.682446e-01	 1.215952e+00	-2.156777e+01
1	 8.445629e-01	 1.232518e+00	-2.287760e+01
1	 8.206085e-01	 1.248595e+00	-2.429398e+01
1	 7.963962e-01	 1.264176e+00	-2.580608e+01
1	 7.719414e-01	 1.279255e+00	-2.740270e+01
1	 8.986594e-01	 1.208343e+00	-2.033471e+01
1	 8.750812e-01	 1.225526e+00	-2.153732e+01
1	 8.512131e-01	 1.242223e+00	-2.285584e+01
1	 8.270700e-01	 1.258426e+00	-2.428007e+01
1	 8.026671e-01	 1.274130e+00	-2.579940e+01
1	 7.780196e-01	 1.289328e+00	-2.740294e+01
1	 9.056801e-01	 1.217783e+00	-2.025395e+01
1	 8.819177e-01	 1.235101e+00	-2.146573e+01
1	 8.578632e-01	 1.251928e+00	-2.279270e+01
1	 8.335315e-01	 1.268258e+00	-2.422468e+01
1	 8.089379e-01	 1.284084e+00	-2.575110e+01
1	 7.840979e-01	 1.299401e+00	-2.736107e+01
1	 9.127009e-01	 1.227223e+00	-2.013265e+01
1	 8.887543e-01	 1.244675e+00	-2.135306e+01
1	 8.645133e-01	 1.261633e+00	-2.268826e+01
1	 8.399929e-01	 1.278089e+00	-2.412789e+01
1	 8.152087e-01	 1.294038e+00	-2.566118e+01
1	 7.901762e-01	 1.309474e+00	-2.727700e+01
1	 7.597848e-01	 1.259110e+00	-2.727638e+01
1	 7.354913e-01	 1.273453e+00	-2.891332e+01
1	 7.109894e-01	 1.287293e+00	-3.057973e+01
1	 6.862942e-01	 1.300627e+00	-3.226842e+01
1	 6.614211e-01	 1.313450e+00	-3.397207e+01
1	 6.363855e-01	 1.325761e+00	-3.568326e+01
1	 7.658631e-01	 1.269182e+00	-2.736048e+01
1	 7.413753e-01	 1.283641e+00	-2.900566e+01
1	 7.166773e-01	 1.297592e+00	-3.068075e+01
1	 6.917846e-01	 1.311032e+00	-3.237804e+01
1	 6.667125e-01	 1.323958e+00	-3.408964e+01
1	 6.414766e-01	 1.336367e+00	-3.580755e+01
1	 7.719414e-01	 1.279255e+00	-2.740270e+01
1	 7.472592e-01	 1.293828e+00	-2.905537e+01
1	 7.223652e-01	 1.307890e+00	-3.073789e+01
1	 6.972749e-01	 1.321437e+00	-3.244221e+01
1	 6.720039e-01	 1.334466e+00	-3.416006e+01
1	 6.465677e-01	 1.346974e+00	-3.588306e+01
1	 7.780196e-01	 1.289328e+00	-2.740294e+01
1	 7.531431e-01	 1.304016e+00	-2.906223e+01
1	 7.280531e-01	 1.318188e+00	-3.075087e+01
1	 7.027653e-01	 1.331842e+00	-3.246062e+01
1	 6.772952e-01	 1.344973e+00	-3.418305e+01
1	 6.516588e-01	 1.357580e+00	-3.590959e+01
1	 7.840979e-01	 1.299401e+00	-2.736107e+01
1	 7.590271e-01	 1.314203e+00	-2.902602e+01
1	 7.337411e-01	 1.328487e+00	-3.071940e+01
1	 7.082556e-01	 1.342247e+00	-3.243299e+01
1	 6.825866e-01	 1.355481e+00	-3.415837e+01
1	 6.567499e-01	 1.368186e+00	-3.588697e+01
1	 7.901762e-01	 1.309474e+00	-2.727700e+01
1	 7.649110e-01	 1.324391e+00	-2.894651e+01
1	 7.394290e-01	 1.338785e+00	-3.064321e+01
1	 7.137460e-01	 1.352652e+00	-3.235904e+01
1	 6.878780e-01	 1.365988e+00	-3.408578e+01
1	 6.618409e-01	 1.378792e+00	-3.581502e+01
1	 6.363855e-01	 1.325761e+00	-3.568326e+01
1	 6.112027e-01	 1.337558e+00	-3.736928e+01
1	 5.858880e-01	 1.348838e+00	-3.899885e+01
1	 5.604567e-01	 1.359602e+00	-4.056677e+01
1	 5.349239e-01	 1.369849e+00	-4.206800e+01
1	 5.093046e-01	 1.379579e+00	-4.349763e+01
1	 6.414766e-01	 1.336367e+00	-3.580755e+01
1	 6.160923e-01	 1.348258e+00	-3.749884e+01
1	 5.905751e-01	 1.359629e+00	-3.913247e+01
1	 5.649403e-01	 1.370479e+00	-4.070331e+01
1	 5.392032e-01	 1.380808e+00	-4.220638e+01
1	 5.133790e-01	 1.390616e+00	-4.363687e+01
1	 6.465677e-01	 1.346974e+00	-3.588306e+01
1	 6.209820e-01	 1.358959e+00	-3.757828e+01
1	 5.952622e-01	 1.370420e+00	-3.921492e+01
1	 5.694240e-01	 1.381356e+00	-4.078779e+01
1	 5.434826e-01	 1.391767e+00	-4.229184e+01
1	 5.174535e-01	 1.401652e+00	-4.372223e+01
1	 6.516588e-01	 1.357580e+00	-3.590959e+01
1	 6.258716e-01	 1.369659e+00	-3.760748e+01
1	 5.999493e-01	 1.381211e+00	-3.924612e+01
1	 5.739076e-01	 1.392233e+00	-4.082013e+01
1	 5.477620e-01	 1.402725e+00	-4.232430e+01
1	 5.215279e-01	 1.412689e+00	-4.375358e+01
1	 6.567499e-01	 1.368186e+00	-3.588697e+01
1	 6.307612e-01	 1.380360e+00	-3.758634e+01
1	 6.046364e-01	 1.392001e+00	-3.922601e+01
1	 5.783913e-01	 1.403109e+00	-4.080029e+01
1	 5.520414e-01	 1.413684e+00	-4.230366e+01
1	 5.256023e-01	 1.423726e+00	-4.373078e+01
1	 6.618409e-01	 1.378792e+00	-3.581502e+01
1	 6.356508e-01	 1.391060e+00	-3.751477e+01
1	 6.093235e-01	 1.402792e+00	-3.915453e+01
1	 5.828749e-01	 1.413986e+00	-4.072821e+01
1	 5.563208e-01	 1.424643e+00	-4.222985e+01
1	 5.296768e-01	 1.434762e+00	-4.365368e+01
1	 5.093046e-01	 1.379579e+00	-4.349763e+01
1	 4.836138e-01	 1.388794e+00	-4.484592e+01
1	 4.578662e-01	 1.397494e+00	-4.610503e+01
1	 4.320764e-01	 1.405681e+00	-4.727318e+01
1	 4.062586e-01	 1.413359e+00	-4.834869e+01
1	 3.804271e-01	 1.420530e+00	-4.933003e+01
1	 5.133790e-01	 1.390616e+00	-4.363687e+01
1	 4.874827e-01	 1.399904e+00	-4.498482e+01
1	 4.615291e-01	 1.408674e+00	-4.624216e+01
1	 4.355330e-01	 1.416927e+00	-4.740709e+01
1	 4.095087e-01	 1.424666e+00	-4.847793e+01
1	 3.834705e-01	 1.431894e+00	-4.945315e+01
1	 5.174535e-01	 1.401652e+00	-4.372223e+01
1	 4.913516e-01	 1.411014e+00	-4.506869e+01
1	 4.651921e-01	 1.419853e+00	-4.632291e+01
1	 4.389896e-01	 1.428172e+00	-4.748318e+01
1	 4.127588e-01	 1.435973e+00	-4.854793e+01
1	 3.865140e-01	 1.443258e+00	-4.951568e+01
1	 5.215279e-01	 1.412689e+00	-4.375358e+01
1	 4.952205e-01	 1.422125e+00	-4.509732e+01
1	 4.688550e-01	 1.431033e+00	-4.634704e+01
1	 4.424462e-01	 1.439418e+00	-4.750123e+01
1	 4.160089e-01	 1.447280e+00	-4.855846e+01
1	 3.895574e-01	 1.454623e+00	-4.951748e+01
1	 5.256023e-01	 1.423726e+00	-4.373078e+01
1	 4.990894e-01	 1.433235e+00	-4.507052e+01
1	 4.725179e-01	 1.442213e+00	-4.631436e+01
1	 4.459028e-01	 1.450663e+00	-4.746101e+01
1	 4.192589e-01	 1.458586e+00	-4.850935e+01
1	 3.926008e-01	 1.465987e+00	-4.945838e+01
1	 5.296768e-01	 1.434762e+00	-4.365368e+01
1	 5.029584e-01	 1.444345e+00	-4.498811e+01
1	 4.761809e-01	 1.453393e+00	-4.622463e+01
1	 4.493594e-01	 1.461908e+00	-4.736233e+01
1	 4.225090e-01	 1.469893e+00	-4.840041e+01
1	 3.956442e-01	 1.477351e+00	-4.933824e+01
1	 3.804271e-01	 1.420530e+00	-4.933003e+01
1	 3.545957e-01	 1.427197e+00	-5.022176e+01
1	 3.287779e-01	 1.433365e+00	-5.102863e+01
1	 3.029871e-01	 1.439037e+00	-5.174959e+01
1	 2.772364e-01	 1.444219e+00	-5.238379e+01
1	 2.515383e-01	 1.448916e+00	-5.293055e+01
1	 3.834705e-01	 1.431894e+00	-4.945315e+01
1	 3.574324e-01	 1.438615e+00	-5.033757e+01
1	 3.314081e-01	 1.444832e+00	-5.113633e+01
1	 3.054110e-01	 1.450550e+00	-5.184856e+01
1	 2.794542e-01	 1.455773e+00	-5.247356e+01
1	 2.535506e-01	 1.460508e+00	-5.301088e+01
1	 3.865140e-01	 1.443258e+00	-4.951568e+01
1	 3.602692e-01	 1.450032e+00	-5.039167e+01
1	 3.340384e-01	 1.456299e+00	-5.118142e+01
1	 3.078349e-01	 1.462062e+00	-5.188417e+01
1	 2.816721e-01	 1.467327e+00	-5.249941e+01
1	 2.555629e-01	 1.472099e+00	-5.302677e+01
1	 3.895574e-01	 1.454623e+00	-4.951748e+01
1	 3.631060e-01	 1.461450e+00	-5.038394e+01
1	 3.366686e-01	 1.467766e+00	-5.116379e+01
1	 3.102588e-01	 1.473574e+00	-5.185636e+01
1	 2.838900e-01	 1.478881e+00	-5.246121e+01
1	 2.575752e-01	 1.483690e+00	-5.297808e+01
1	 3.926008e-01	 1.465987e+00	-4.945838e+01
1	 3.659427e-01	 1.472867e+00	-5.031428e+01
1	 3.392988e-01	 1.479233e+00	-5.108337e+01
1	 3.126827e-01	 1.485087e+00	-5.176504e+01
1	 2.861079e-01	 1.490434e+00	-5.235887e+01
1	 2.595875e-01	 1.495282e+00	-5.286468e+01
1	 3.956442e-01	 1.477351e+00	-4.933824e+01
1	 3.687795e-01	 1.484285e+00	-5.018259e+01
1	 3.419290e-01	 1.490699e+00	-5.094008e+01
1	 3.151066e-01	 1.496599e+00	-5.161011e+01
1	 2.883258e-01	 1.501988e+00	-5.219229e+01
1	 2.615998e-01	 1.506873e+00	-5.268642e+01
1	 2.515383e-01	 1.448916e+00	-5.293055e+01
1	 2.259052e-01	 1.453133e+00	-5.339170e+01
1	 2.003493e-01	 1.456877e+00	-5.377077e+01
1	 1.748821e-01	 1.460153e+00	-5.406995e+01
1	 1.495150e-01	 1.462968e+00	-5.429156e+01
1	 1.242589e-01	 1.465329e+00	-5.443806e+01
1	 2.535506e-01	 1.460508e+00	-5.301088e+01
1	 2.277125e-01	 1.464758e+00	-5.346260e+01
1	 2.019521e-01	 1.468532e+00	-5.383235e+01
1	 1.762812e-01	 1.471834e+00	-5.412221e+01
1	 1.507111e-01	 1.474672e+00	-5.433441e+01
1	 1.252530e-01	 1.477052e+00	-5.447129e+01
1	 2.555629e-01	 1.472099e+00	-5.302677e+01
1	 2.295197e-01	 1.476384e+00	-5.346858e+01
1	 2.035549e-01	 1.480187e+00	-5.382853e+01
1	 1.776802e-01	 1.483515e+00	-5.410865e+01
1	 1.519073e-01	 1.486375e+00	-5.431110e+01
1	 1.262471e-01	 1.488774e+00	-5.443819e+01
1	 2.575752e-01	 1.483690e+00	-5.297808e+01
1	 2.313270e-01	 1.488009e+00	-5.340945e+01
1	 2.051577e-01	 1.491842e+00	-5.375910e+01
1	 1.790793e-01	 1.495196e+00	-5.402905e+01
1	 1.531034e-01	 1.498079e+00	-5.422146e+01
1	 1.272411e-01	 1.500497e+00	-5.433860e+01
1	 2.595875e-01	 1.495282e+00	-5.286468e+01
1	 2.331342e-01	 1.499634e+00	-5.328505e+01
1	 2.067605e-01	 1.503497e+00	-5.362389e+01
1	 1.804783e-01	 1.506878e+00	-5.388325e+01
1	 1.542995e-01	 1.509783e+00	-5.406532e+01
1	 1.282352e-01	 1.512220e+00	-5.417241e+01
1	 2.615998e-01	 1.506873e+00	-5.268642e+01
1	 2.349414e-01	 1.511259e+00	-5.309521e+01
1	 2.083633e-01	 1.515152e+00	-5.342271e+01
1	 1.818774e-01	 1.518559e+00	-5.367106e+01
1	 1.554956e-01	 1.521487e+00	-5.384252e+01
1	 1.292293e-01	 1.523942e+00	-5.393949e+01
1	 1.242589e-01	 1.465329e+00	-5.443806e+01
1	 9.912441e-02	 1.467244e+00	-5.451254e+01
1	 7.412167e-02	 1.468719e+00	-5.451834e+01
1	 4.926048e-02	 1.469763e+00	-5.445839e+01
1	 2.455025e-02	 1.470383e+00	-5.433565e+01
1	 0.000000e+00	 1.470588e+00	-5.415311e+01
1	 1.252530e-01	 1.477052e+00	-5.447129e+01
1	 9.991741e-02	 1.478982e+00	-5.453591e+01
1	 7.471464e-02	 1.480469e+00	-5.453173e+01
1	 4.965456e-02	 1.481521e+00	-5.446183e+01
1	 2.474666e-02	 1.482146e+00	-5.432933e+01
1	 0.000000e+00	 1.482353e+00	-5.413738e+01
1	 1.262471e-01	 1.488774e+00	-5.443819e+01
1	 1.007104e-01	 1.490720e+00	-5.449297e+01
1	 7.530761e-02	 1.492219e+00	-5.447901e+01
1	 5.004865e-02	 1.493279e+00	-5.439945e+01
1	 2.494306e-02	 1.493909e+00	-5.425748e+01
1	 0.000000e+00	 1.494118e+00	-5.405633e+01
1	 1.272411e-01	 1.500497e+00	-5.433860e+01
1	 1.015034e-01	 1.502458e+00	-5.438361e+01
1	 7.590059e-02	 1.503968e+00	-5.436008e+01
1	 5.044273e-02	 1.505037e+00	-5.427114e+01
1	 2.513946e-02	 1.505672e+00	-5.411996e+01
1	 0.000000e+00	 1.505882e+00	-5.390975e+01
1	 1.282352e-01	 1.512220e+00	-5.417241e+01
1	 1.022964e-01	 1.514196e+00	-5.420773e+01
1	 7.649356e-02	 1.515718e+00	-5.417485e+01
1	 5.083681e-02	 1.516795e+00	-5.407679e+01
1	 2.533586e-02	 1.517436e+00	-5.391663e+01
1	 0.000000e+00	 1.517647e+00	-5.369747e+01
1	 1.292293e-01	 1.523942e+00	-5.393949e+01
1	 1.030894e-01	 1.525933e+00	-5.396524e+01
1	 7.708653e-02	 1.527468e+00	-5.392323e+01
1	 5.123090e-02	 1.528553e+00	-5.381632e+01
1	 2.553226e-02	 1.529199e+00	-5.364737e+01
1	 0.000000e+00	 1.529412e+00	-5.341930e+01
1	 1.529412e+00	 0.000000e+00	 1.698540e+01
1	 1.529199e+00	 2.553226e-02	 1.718263e+01
1	 1.528553e+00	 5.123090e-02	 1.732311e+01
1	 1.527468e+00	 7.708653e-02	 1.740539e+01
1	 1.525933e+00	 1.030894e-01	 1.742843e+01
1	 1.523942e+00	 1.292293e-01	 1.739164e+01
1	 1.541176e+00	 0.000000e+00	 1.666126e+01
1	 1.540962e+00	 2.572867e-02	 1.684040e+01
1	 1.540312e+00	 5.162498e-02	 1.696488e+01
1	 1.539218e+00	 7.767951e-02	 1.703334e+01
1	 1.537671e+00	 1.038824e-01	 1.704480e+01
1	 1.535665e+00	 1.302234e-01	 1.699875e+01
1	 1.552941e+00	 0.000000e+00	 1.633004e+01
1	 1.552725e+00	 2.592507e-02	 1.649092e+01
1	 1.552070e+00	 5.201907e-02	 1.659934e+01
1	 1.550967e+00	 7.827248e-02	 1.665398e+01
1	 1.549409e+00	 1.046754e-01	 1.665396e+01
1	 1.547388e+00	 1.312174e-01	 1.659878e+01
1	 1.564706e+00	 0.000000e+00	 1.599172e+01
1	 1.564488e+00	 2.612147e-02	 1.613418e+01
1	 1.563828e+00	 5.241315e-02	 1.622650e+01
1	 1.562717e+00	 7.886545e-02	 1.626740e+01
1	 1.561147e+00	 1.054684e-01	 1.625600e+01
1	 1.559110e+00	 1.322115e-01	 1.619185e+01
1	 1.576471e+00	 0.000000e+00	 1.564625e+01
1	 1.576251e+00	 2.631787e-02	 1.577020e+01
1	 1.575586e+00	 5.280723e-02	 1.584642e+01
1	 1.574467e+00	 7.945843e-02	 1.587365e+01
1	 1.572885e+00	 1.062614e-01	 1.585102e+01
1	 1.570833e+00	 1.332056e-01	 1.577809e+01
1	 1.588235e+00	 0.000000e+00	 1.529360e+01
1	 1.588014e+00	 2.651427e-02	 1.539895e+01
1	 1.587344e+00	 5.320132e-02	 1.545911e+01
1	 1.586217e+00	 8.005140e-02	 1.547279e+01
1	 1.584623e+00	 1.070544e-01	 1.543912e+01
1	 1.582555e+00	 1.341996e-01	 1.535764e+01
1	 1.523942e+00	 1.292293e-01	 1.739164e+01
1	 1.521487e+00	 1.554956e-01	 1.729259e+01
1	 1.518559e+00	 1.818774e-01	 1.712883e+01
1	 1.515152e+00	 2.083633e-01	 1.690033e+01
1	 1.511259e+00	 2.349414e-01	 1.660746e+01
1	 1.506873e+00	 2.615998e-01	 1.625103e+01
1	 1.535665e+00	 1.302234e-01	 1.699875e+01
1	 1.533190e+00	 1.566917e-01	 1.689254e+01
1	 1.530240e+00	 1.832765e-01	 1.672344e+01
1	 1.526807e+00	 2.099661e-01	 1.649149e+01
1	 1.522884e+00	 2.367487e-01	 1.619714e+01
1	 1.518464e+00	 2.636121e-01	 1.584128e+01
1	 1.547388e+00	 1.312174e-01	 1.659878e+01
1	 1.544894e+00	 1.578879e-01	 1.648559e+01
1	 1.541921e+00	 1.846755e-01	 1.631149e+01
1	 1.538462e+00	 2.115689e-01	 1.607656e+01
1	 1.534509e+00	 2.385559e-01	 1.578136e+01
1	 1.530056e+00	 2.656244e-01	 1.542685e+01
1	 1.559110e+00	 1.322115e-01	 1.619185e+01
1	 1.556598e+00	 1.590840e-01	 1.607192e+01
1	 1.553603e+00	 1.860746e-01	 1.589316e+01
1	 1.550117e+00	 2.131717e-01	 1.565576e+01
1	 1.546134e+00	 2.403632e-01	 1.536031e+01
1	 1.541647e+00	 2.676367e-01	 1.500790e+01
1	 1.570833e+00	 1.332056e-01	 1.577809e+01
1	 1.568302e+00	 1.602801e-01	 1.565169e+01
1	 1.565284e+00	 1.874736e-01	 1.546865e+01
1	 1.561772e+00	 2.147744e-01	 1.522924e+01
1	 1.557759e+00	 2.421704e-01	 1.493417e+01
1	 1.553238e+00	 2.696490e-01	 1.458459e+01
1	 1.582555e+00	 1.341996e-01	 1.535764e+01
1	 1.580005e+00	 1.614762e-01	 1.522504e+01
1	 1.576965e+00	 1.888727e-01	 1.503812e+01
1	 1.573427e+00	 2.163772e-01	 1.479721e+01
1	 1.569384e+00	 2.439777e-01	 1.450311e+01
1	 1.564830e+00	 2.716613e-01	 1.415708e+01
1	 1.506873e+00	 2.615998e-01	 1.625103e+01
1	 1.501988e+00	 2.883258e-01	 1.582551e+01
1	 1.496599e+00	 3.151066e-01	 1.532651e+01
1	 1.490699e+00	 3.419290e-01	 1.475722e+01
1	 1.484285e+00	 3.687795e-01	 1.412132e+01
1	 1.477351e+00	 3.956442e-01	 1.342302e+01
1	 1.518464e+00	 2.636121e-01	 1.584128e+01
1	 1.513542e+00	 2.905437e-01	 1.541849e+01
1	 1.508111e+00	 3.175305e-01	 1.492437e+01
1	 1.502166e+00	 3.445593e-01	 1.436206e+01
1	 1.495703e+00	 3.716163e-01	 1.373516e+01
1	 1.488715e+00	 3.986876e-01	 1.304780e+01
1	 1.530056e+00	 2.656244e-01	 1.542685e+01
1	 1.525096e+00	 2.927616e-01	 1.500763e+01
1	 1.519623e+00	 3.199544e-01	 1.451922e+01
1	 1.513633e+00	 3.471895e-01	 1.396467e+01
1	 1.507120e+00	 3.744530e-01	 1.334752e+01
1	 1.500079e+00	 4.017310e-01	 1.267178e+01
1	 1.541647e+00	 2.676367e-01	 1.500790e+01
1	 1.536649e+00	 2.949795e-01	 1.459307e+01
1	 1.531136e+00	 3.223783e-01	 1.411116e+01
1	 1.525100e+00	 3.498197e-01	 1.356515e+01
1	 1.518538e+00	 3.772898e-01	 1.295847e+01
1	 1.511444e+00	 4.047745e-01	 1.229503e+01
1	 1.553238e+00	 2.696490e-01	 1.458459e+01
1	 1.548203e+00	 2.971974e-01	 1.417494e+01
1	 1.542648e+00	 3.248022e-01	 1.370031e+01
1	 1.536567e+00	 3.524499e-01	 1.316359e+01
1	 1.529955e+00	 3.801266e-01	 1.256808e+01
1	 1.522808e+00	 4.078179e-01	 1.191757e+01
1	 1.564830e+00	 2.716613e-01	 1.415708e+01
1	 1.559757e+00	 2.994153e-01	 1.375337e+01
1	 1.554160e+00	 3.272261e-01	 1.328678e+01
1	 1.548034e+00	 3.550801e-01	 1.276006e+01
1	 1.541373e+00	 3.829633e-01	 1.217642e+01
1	 1.534172e+00	 4.108613e-01	 1.153946e+01
1	 1.477351e+00	 3.956442e-01	 1.342302e+01
1	 1.469893e+00	 4.225090e-01	 1.262810e+01
1	 1.461908e+00	 4.493594e-01	 1.170056e+01
1	 1.453393e+00	 4.761809e-01	 1.064232e+01
1	 1.444345e+00	 5.029584e-01	 9.455253e+00
1	 1.434762e+00	 5.296768e-01	 8.141206e+00
1	 1.488715e+00	 3.986876e-01	 1.304780e+01
1	 1.481200e+00	 4.257591e-01	 1.226419e+01
1	 1.473154e+00	 4.528160e-01	 1.134716e+01
1	 1.464573e+00	 4.798438e-01	 1.029911e+01
1	 1.455456e+00	 5.068273e-01	 9.122486e+00
1	 1.445799e+00	 5.337512e-01	 7.819787e+00
1	 1.500079e+00	 4.017310e-01	 1.267178e+01
1	 1.492507e+00	 4.290091e-01	 1.190035e+01
1	 1.484399e+00	 4.562727e-01	 1.099506e+01
1	 1.475753e+00	 4.835067e-01	 9.958846e+00
1	 1.466566e+00	 5.106962e-01	 8.794740e+00
1	 1.456836e+00	 5.378257e-01	 7.505893e+00
1	 1.511444e+00	 4.047745e-01	 1.229503e+01
1	 1.503814e+00	 4.322592e-01	 1.153658e+01
1	 1.495645e+00	 4.597293e-01	 1.064427e+01
1	 1.486933e+00	 4.871697e-01	 9.621528e+00
1	 1.477676e+00	 5.145651e-01	 8.471994e+00
1	 1.467872e+00	 5.419001e-01	 7.199491e+00
1	 1.522808e+00	 4.078179e-01	 1.191757e+01
1	 1.515121e+00	 4.355093e-01	 1.117292e+01
1	 1.506890e+00	 4.631859e-01	 1.029479e+01
1	 1.498113e+00	 4.908326e-01	 9.287143e+00
1	 1.488787e+00	 5.184340e-01	 8.154227e+00
1	 1.478909e+00	 5.459745e-01	 6.900553e+00
1	 1.534172e+00	 4.108613e-01	 1.153946e+01
1	 1.526428e+00	 4.387593e-01	 1.080939e+01
1	 1.518136e+00	 4.666425e-01	 9.946631e+00
1	 1.509293e+00	 4.944955e-01	 8.955682e+00
1	 1.499897e+00	 5.223029e-01	 7.841418e+00
1	 1.489945e+00	 5.500490e-01	 6.609048e+00
1	 1.434762e+00	 5.296768e-01	 8.141206e+00
1	 1.424643e+00	 5.563208e-01	 6.733157e+00
1	 1.413986e+00	 5.828749e-01	 5.268357e+00
1	 1.402792e+00	 6.093235e-01	 3.755521e+00
1	 1.391060e+00	 6.356508e-01	 2.204007e+00
1	 1.378792e+00	 6.618409e-01	 6.237860e-01
1	 1.445799e+00	 5.337512e-01	 7.819787e+00
1	 1.435602e+00	 5.606002e-01	 6.426338e+00
1	 1.424863e+00	 5.873586e-01	 4.981094e+00
1	 1.413583e+00	 6.140106e-01	 3.492442e+00
1	 1.401761e+00	 6.405404e-01	 1.969330e+00
1	 1.389398e+00	 6.669320e-01	 4.212416e-01
1	 1.456836e+00	 5.378257e-01	 7.505893e+00
1	 1.446561e+00	 5.648796e-01	 6.129609e+00
1	 1.435740e+00	 5.918422e-01	 4.706137e+00
1	 1.424373e+00	 6.186977e-01	 3.243493e+00
1	 1.412461e+00	 6.454301e-01	 1.750173e+00
1	 1.400004e+00	 6.720231e-01	 2.351204e-01
1	 1.467872e+00	 5.419001e-01	 7.199491e+00
1	 1.457519e+00	 5.691590e-01	 5.842922e+00
1	 1.446617e+00	 5.963259e-01	 4.443411e+00
1	 1.435164e+00	 6.233848e-01	 3.008564e+00
1	 1.423162e+00	 6.503197e-01	 1.546377e+00
1	 1.410610e+00	 6.771142e-01	 6.520836e-02
1	 1.478909e+00	 5.459745e-01	 6.900553e+00
1	 1.468478e+00	 5.734384e-01	 5.566232e+00
1	 1.457494e+00	 6.008096e-01	 4.192846e+00
1	 1.445955e+00	 6.280720e-01	 2.787548e+00
1	 1.433862e+00	 6.552093e-01	 1.357790e+00
1	 1.421216e+00	 6.822053e-01	-8.870246e-02
1	 1.489945e+00	 5.500490e-01	 6.609048e+00
1	 1.479437e+00	 5.777178e-01	 5.299497e+00
1	 1.468370e+00	 6.052932e-01	 3.954375e+00
1	 1.456745e+00	 6.327591e-01	 2.580341e+00
1	 1.444562e+00	 6.600989e-01	 1.184262e+00
1	 1.431822e+00	 6.872964e-01	-2.268137e-01
1	 1.378792e+00	 6.618409e-01	 6.237860e-01
1	 1.365988e+00	 6.878780e-01	-9.232028e-01
1	 1.352652e+00	 7.137460e-01	-2.385491e+00
1	 1.338785e+00	 7.394290e-01	-3.769204e+00
1	 1.324391e+00	 7.649110e-01	-5.081567e+00
1	 1.309474e+00	 7.901762e-01	-6.330887e+00
1	 1.389398e+00	 6.669320e-01	 4.212416e-01
1	 1.376496e+00	 6.931694e-01	-1.093720e+00
1	 1.363057e+00	 7.192363e-01	-2.527416e+00
1	 1.349083e+00	 7.451169e-01	-3.885739e+00
1	 1.334579e+00	 7.707949e-01	-5.175660e+00
1	 1.319547e+00	 7.962545e-01	-6.405206e+00
1	 1.400004e+00	 6.720231e-01	 2.351204e-01
1	 1.387004e+00	 6.984607e-01	-1.247176e+00
1	 1.373462e+00	 7.247267e-01	-2.651637e+00
1	 1.359382e+00	 7.508048e-01	-3.983901e+00
1	 1.344766e+00	 7.766789e-01	-5.250655e+00
1	 1.329620e+00	 8.023328e-01	-6.459617e+00
1	 1.410610e+00	 6.771142e-01	 6.520836e-02
1	 1.397511e+00	 7.037521e-01	-1.383838e+00
1	 1.383867e+00	 7.302170e-01	-2.758463e+00
1	 1.369680e+00	 7.564927e-01	-4.064026e+00
1	 1.354954e+00	 7.825628e-01	-5.306905e+00
1	 1.339693e+00	 8.084110e-01	-6.494478e+00
1	 1.421216e+00	 6.822053e-01	-8.870246e-02
1	 1.408019e+00	 7.090435e-01	-1.503966e+00
1	 1.394272e+00	 7.357074e-01	-2.848194e+00
1	 1.379978e+00	 7.621806e-01	-4.126443e+00
1	 1.365141e+00	 7.884467e-01	-5.344754e+00
1	 1.349765e+00	 8.144893e-01	-6.510137e+00
1	 1.431822e+00	 6.872964e-01	-2.268137e-01
1	 1.418526e+00	 7.143348e-01	-1.607813e+00
1	 1.404677e+00	 7.411977e-01	-2.921120e+00
1	 1.390277e+00	 7.678685e-01	-4.171467e+00
1	 1.375329e+00	 7.943307e-01	-5.364534e+00
1	 1.359838e+00	 8.205676e-01	-6.506933e+00
1	 1.309474e+00	 7.901762e-01	-6.330887e+00
1	 1.294038e+00	 8.152087e-01	-7.500908e+00
1	 1.278089e+00	 8.399929e-01	-8.573027e+00
1	 1.261633e+00	 8.645133e-01	-9.553207e+00
1	 1.244675e+00	 8.887543e-01	-1.044789e+01
1	 1.227223e+00	 9.127009e-01	-1.126396e+01
1	 1.319547e+00	 7.962545e-01	-6.405206e+00
1	 1.303992e+00	 8.214796e-01	-7.556671e+00
1	 1.287921e+00	 8.464544e-01	-8.610661e+00
1	 1.271338e+00	 8.711634e-01	-9.573885e+00
1	 1.254250e+00	 8.955909e-01	-1.045361e+01
1	 1.236664e+00	 9.197217e-01	-1.125763e+01
1	 1.329620e+00	 8.023328e-01	-6.459617e+00
1	 1.313947e+00	 8.277504e-01	-7.591836e+00
1	 1.297752e+00	 8.529159e-01	-8.627285e+00
1	 1.281042e+00	 8.778135e-01	-9.573313e+00
1	 1.263824e+00	 9.024274e-01	-1.043789e+01
1	 1.246104e+00	 9.267425e-01	-1.122960e+01
1	 1.339693e+00	 8.084110e-01	-6.494478e+00
1	 1.323901e+00	 8.340213e-01	-7.606733e+00
1	 1.307584e+00	 8.593774e-01	-8.623148e+00
1	 1.290747e+00	 8.844636e-01	-9.551605e+00
1	 1.273398e+00	 9.092640e-01	-1.040067e+01
1	 1.255544e+00	 9.337632e-01	-1.117957e+01
1	 1.349765e+00	 8.144893e-01	-6.510137e+00
1	 1.333855e+00	 8.402921e-01	-7.601683e+00
1	 1.317415e+00	 8.658389e-01	-8.598491e+00
1	 1.300452e+00	 8.911137e-01	-9.508872e+00
1	 1.282973e+00	 9.161006e-01	-1.034187e+01
1	 1.264984e+00	 9.407840e-01	-1.110724e+01
1	 1.359838e+00	 8.205676e-01	-6.506933e+00
1	 1.343809e+00	 8.465629e-01	-7.576996e+00
1	 1.327247e+00	 8.723004e-01	-8.553547e+00
1	 1.310157e+00	 8.977638e-01	-9.445223e+00
1	 1.292547e+00	 9.229372e-01	-1.026143e+01
1	 1.274424e+00	 9.478048e-01	-1.101234e+01
1	 1.227223e+00	 9.127009e-01	-1.126396e+01
1	 1.209285e+00	 9.363382e-01	-1.200459e+01
1	 1.190869e+00	 9.596514e-01	-1.266520e+01
1	 1.171984e+00	 9.826262e-01	-1.324075e+01
1	 1.152639e+00	 1.005249e+00	-1.372541e+01
1	 1.132843e+00	 1.027505e+00	-1.411260e+01
1	 1.236664e+00	 9.197217e-01	-1.125763e+01
1	 1.218588e+00	 9.435408e-01	-1.198678e+01
1	 1.200030e+00	 9.670333e-01	-1.263369e+01
1	 1.180999e+00	 9.901849e-01	-1.319364e+01
1	 1.161505e+00	 1.012981e+00	-1.366111e+01
1	 1.141558e+00	 1.035409e+00	-1.402978e+01
1	 1.246104e+00	 9.267425e-01	-1.122960e+01
1	 1.227890e+00	 9.507434e-01	-1.194667e+01
1	 1.209190e+00	 9.744153e-01	-1.257887e+01
1	 1.190014e+00	 9.977435e-01	-1.312191e+01
1	 1.170371e+00	 1.020714e+00	-1.357068e+01
1	 1.150272e+00	 1.043313e+00	-1.391930e+01
1	 1.255544e+00	 9.337632e-01	-1.117957e+01
1	 1.237192e+00	 9.579460e-01	-1.188375e+01
1	 1.218351e+00	 9.817972e-01	-1.250008e+01
1	 1.199030e+00	 1.005302e+00	-1.302480e+01
1	 1.179238e+00	 1.028447e+00	-1.345334e+01
1	 1.158986e+00	 1.051217e+00	-1.378040e+01
1	 1.264984e+00	 9.407840e-01	-1.110724e+01
1	 1.246494e+00	 9.651486e-01	-1.179751e+01
1	 1.227511e+00	 9.891791e-01	-1.239667e+01
1	 1.208045e+00	 1.012861e+00	-1.290159e+01
1	 1.188104e+00	 1.036179e+00	-1.330837e+01
1	 1.167700e+00	 1.059120e+00	-1.361240e+01
1	 1.274424e+00	 9.478048e-01	-1.101234e+01
1	 1.255796e+00	 9.723512e-01	-1.168747e+01
1	 1.236672e+00	 9.965611e-01	-1.226801e+01
1	 1.217060e+00	 1.020420e+00	-1.275156e+01
1	 1.196971e+00	 1.043912e+00	-1.313502e+01
1	 1.176414e+00	 1.067024e+00	-1.341461e+01
1	 1.132843e+00	 1.027505e+00	-1.411260e+01
1	 1.112609e+00	 1.049382e+00	-1.446160e+01
1	 1.091946e+00	 1.070866e+00	-1.483604e+01
1	 1.070866e+00	 1.091946e+00	-1.523525e+01
1	 1.049382e+00	 1.112609e+00	-1.565860e+01
1	 1.027505e+00	 1.132843e+00	-1.610545e+01
1	 1.141558e+00	 1.035409e+00	-1.402978e+01
1	 1.121167e+00	 1.057454e+00	-1.436128e+01
1	 1.100346e+00	 1.079104e+00	-1.472093e+01
1	 1.079104e+00	 1.100346e+00	-1.510742e+01
1	 1.057454e+00	 1.121167e+00	-1.551943e+01
1	 1.035409e+00	 1.141558e+00	-1.595559e+01
1	 1.150272e+00	 1.043313e+00	-1.391930e+01
1	 1.129726e+00	 1.065526e+00	-1.423173e+01
1	 1.108745e+00	 1.087341e+00	-1.457507e+01
1	 1.087341e+00	 1.108745e+00	-1.494749e+01
1	 1.065526e+00	 1.129726e+00	-1.534712e+01
1	 1.043313e+00	 1.150272e+00	-1.577202e+01
1	 1.158986e+00	 1.051217e+00	-1.378040e+01
1	 1.138284e+00	 1.073598e+00	-1.407233e+01
1	 1.117145e+00	 1.095579e+00	-1.439797e+01
1	 1.095579e+00	 1.117145e+00	-1.475515e+01
1	 1.073598e+00	 1.138284e+00	-1.514160e+01
1	 1.051217e+00	 1.158986e+00	-1.555496e+01
1	 1.167700e+00	 1.059120e+00	-1.361240e+01
1	 1.146843e+00	 1.081670e+00	-1.388246e+01
1	 1.125544e+00	 1.103816e+00	-1.418916e+01
1	 1.103816e+00	 1.125544e+00	-1.453012e+01
1	 1.081670e+00	 1.146843e+00	-1.490282e+01
1	 1.059120e+00	 1.167700e+00	-1.530462e+01
1	 1.176414e+00	 1.067024e+00	-1.341461e+01
1	 1.155401e+00	 1.089743e+00	-1.366152e+01
1	 1.133944e+00	 1.112053e+00	-1.394820e+01
1	 1.112053e+00	 1.133944e+00	-1.427214e+01
1	 1.089743e+00	 1.155401e+00	-1.463073e+01
1	 1.067024e+00	 1.176414e+00	-1.502121e+01
1	 1.027505e+00	 1.132843e+00	-1.610545e+01
1	 1.005249e+00	 1.152639e+00	-1.663239e+01
1	 9.826262e-01	 1.171984e+00	-1.729705e+01
1	 9.596514e-01	 1.190869e+00	-1.810075e+01
1	 9.363382e-01	 1.209285e+00	-1.904524e+01
1	 9.127009e-01	 1.227223e+00	-2.013265e+01
1	 1.035409e+00	 1.141558e+00	-1.595559e+01
1	 1.012981e+00	 1.161505e+00	-1.647361e+01
1	 9.901849e-01	 1.180999e+00	-1.713290e+01
1	 9.670333e-01	 1.200030e+00	-1.793498e+01
1	 9.435408e-01	 1.218588e+00	-1.888179e+01
1	 9.197217e-01	 1.236664e+00	-1.997567e+01
1	 1.043313e+00	 1.150272e+00	-1.577202e+01
1	 1.020714e+00	 1.170371e+00	-1.628122e+01
1	 9.977435e-01	 1.190014e+00	-1.693579e+01
1	 9.744153e-01	 1.209190e+00	-1.773715e+01
1	 9.507434e-01	 1.227890e+00	-1.868714e+01
1	 9.267425e-01	 1.246104e+00	-1.978800e+01
1	 1.051217e+00	 1.158986e+00	-1.555496e+01
1	 1.028447e+00	 1.179238e+00	-1.605566e+01
1	 1.005302e+00	 1.199030e+00	-1.670625e+01
1	 9.817972e-01	 1.218351e+00	-1.750778e+01
1	 9.579460e-01	 1.237192e+00	-1.846171e+01
1	 9.337632e-01	 1.255544e+00	-1.956981e+01
1	 1.059120e+00	 1.167700e+00	-1.530462e+01
1	 1.036179e+00	 1.188104e+00	-1.579736e+01
1	 1.012861e+00	 1.208045e+00	-1.644482e+01
1	 9.891791e-01	 1.227511e+00	-1.724741e+01
1	 9.651486e-01	 1.246494e+00	-1.820589e+01
1	 9.407840e-01	 1.264984e+00	-1.932129e+01
1	 1.067024e+00	 1.176414e+00	-1.502121e+01
1	 1.043912e+00	 1.196971e+00	-1.550676e+01
1	 1.020420e+00	 1.217060e+00	-1.615204e+01
1	 9.965611e-01	 1.236672e+00	-1.695655e+01
1	 9.723512e-01	 1.255796e+00	-1.792007e+01
1	 9.478048e-01	 1.274424e+00	-1.904260e+01
1	 9.127009e-01	 1.227223e+00	-2.013265e+01
1	 8.887543e-01	 1.244675e+00	-2.135306e+01
1	 8.645133e-01	 1.261633e+00	-2.268826e+01
1	 8.399929e-01	 1.278089e+00	-2.412789e+01
1	 8.152087e-01	 1.294038e+00	-2.566118e+01
1	 7.901762e-01	 1.309474e+00	-2.727700e+01
1	 9.197217e-01	 1.236664e+00	-1.997567e+01
1	 8.955909e-01	 1.254250e+00	-2.120446e+01
1	 8.711634e-01	 1.271338e+00	-2.254747e+01
1	 8.464544e-01	 1.287921e+00	-2.399412e+01
1	 8.214796e-01	 1.303992e+00	-2.553341e+01
1	 7.962545e-01	 1.319547e+00	-2.715396e+01
1	 9.267425e-01	 1.246104e+00	-1.978800e+01
1	 9.024274e-01	 1.263824e+00	-2.102503e+01
1	 8.778135e-01	 1.281042e+00	-2.237506e+01
1	 8.529159e-01	 1.297752e+00	-2.382750e+01
1	 8.277504e-01	 1.313947e+00	-2.537132e+01
1	 8.023328e-01	 1.329620e+00	-2.699509e+01
1	 9.337632e-01	 1.255544e+00	-1.956981e+01
1	 9.092640e-01	 1.273398e+00	-2.081468e+01
1	 8.844636e-01	 1.290747e+00	-2.217081e+01
1	 8.593774e-01	 1.307584e+00	-2.362775e+01
1	 8.340213e-01	 1.323901e+00	-2.517461e+01
1	 8.084110e-01	 1.339693e+00	-2.680011e+01
1	 9.407840e-01	 1.264984e+00	-1.932129e+01
1	 9.161006e-01	 1.282973e+00	-2.057337e+01
1	 8.911137e-01	 1.300452e+00	-2.193451e+01
1	 8.658389e-01	 1.317415e+00	-2.339456e+01
1	 8.402921e-01	 1.333855e+00	-2.494296e+01
1	 8.144893e-01	 1.349765e+00	-2.656879e+01
1	 9.478048e-01	 1.274424e+00	-1.904260e+01
1	 9.229372e-01	 1.292547e+00	-2.030104e+01
1	 8.977638e-01	 1.310157e+00	-2.166594e+01
1	 8.723004e-01	 1.327247e+00	-2.312763e+01
1	 8.465629e-01	 1.343809e+00	-2.467608e+01
1	 8.205676e-01	 1.359838e+00	-2.630088e+01
1	 7.901762e-01	 1.309474e+00	-2.727700e+01
1	 7.649110e-01	 1.324391e+00	-2.894651e+01
1	 7.394290e-01	 1.338785e+00	-3.064321e+01
1	 7.137460e-01	 1.352652e+00	-3.235904e+01
1	 6.878780e-01	 1.365988e+00	-3.408578e+01
1	 6.618409e-01	 1.378792e+00	-3.581502e+01
1	 7.962545e-01	 1.319547e+00	-2.715396e+01
1	 7.707949e-01	 1.334579e+00	-2.882676e+01
1	 7.451169e-01	 1.349083e+00	-3.052542e+01
1	 7.192363e-01	 1.363057e+00	-3.224211e+01
1	 6.931694e-01	 1.376496e+00	-3.396883e+01
1	 6.669320e-01	 1.389398e+00	-3.569742e+01
1	 8.023328e-01	 1.329620e+00	-2.699509e+01
1	 7.766789e-01	 1.344766e+00	-2.866980e+01
1	 7.508048e-01	 1.359382e+00	-3.036922e+01
1	 7.247267e-01	 1.373462e+00	-3.208564e+01
1	 6.984607e-01	 1.387004e+00	-3.381118e+01
1	 6.720231e-01	 1.400004e+00	-3.553780e+01
1	 8.084110e-01	 1.339693e+00	-2.680011e+01
1	 7.825628e-01	 1.354954e+00	-2.847545e+01
1	 7.564927e-01	 1.369680e+00	-3.017446e+01
1	 7.302170e-01	 1.383867e+00	-3.188949e+01
1	 7.037521e-01	 1.397511e+00	-3.361266e+01
1	 6.771142e-01	 1.410610e+00	-3.533595e+01
1	 8.144893e-01	 1.349765e+00	-2.656879e+01
1	 7.884467e-01	 1.365141e+00	-2.824352e+01
1	 7.621806e-01	 1.379978e+00	-2.994101e+01
1	 7.357074e-01	 1.394272e+00	-3.165352e+01
1	 7.090435e-01	 1.408019e+00	-3.337312e+01
1	 6.822053e-01	 1.421216e+00	-3.509171e+01
1	 8.205676e-01	 1.359838e+00	-2.630088e+01
1	 7.943307e-01	 1.375329e+00	-2.797384e+01
1	 7.678685e-01	 1.390277e+00	-2.966872e+01
1	 7.411977e-01	 1.404677e+00	-3.137761e+01
1	 7.143348e-01	 1.418526e+00	-3.309242e+01
1	 6.872964e-01	 1.431822e+00	-3.480486e+01
1	 6.618409e-01	 1.378792e+00	-3.581502e+01
1	 6.356508e-01	 1.391060e+00	-3.751477e+01
1	 6.093235e-01	 1.402792e+00	-3.915453e+01
1	 5.828749e-01	 1.413986e+00	-4.072821e+01
1	 5.563208e-01	 1.424643e+00	-4.222985e+01
1	 5.296768e-01	 1.434762e+00	-4.365368e+01
1	 6.669320e-01	 1.389398e+00	-3.569742e+01
1	 6.405404e-01	 1.401761e+00	-3.739623e+01
1	 6.140106e-01	 1.413583e+00	-3.903471e+01
1	 5.873586e-01	 1.424863e+00	-4.060636e+01
1	 5.606002e-01	 1.435602e+00	-4.210478e+01
1	 5.337512e-01	 1.445799e+00	-4.352375e+01
1	 6.720231e-01	 1.400004e+00	-3.553780e+01
1	 6.454301e-01	 1.412461e+00	-3.723409e+01
1	 6.186977e-01	 1.424373e+00	-3.886946e+01
1	 5.918422e-01	 1.435740e+00	-4.043708e+01
1	 5.648796e-01	 1.446561e+00	-4.193023e+01
1	 5.378257e-01	 1.456836e+00	-4.334237e+01
1	 6.771142e-01	 1.410610e+00	-3.533595e+01
1	 6.503197e-01	 1.423162e+00	-3.702811e+01
1	 6.233848e-01	 1.435164e+00	-3.865851e+01
1	 5.963259e-01	 1.446617e+00	-4.022012e+01
1	 5.691590e-01	 1.457519e+00	-4.170599e+01
1	 5.419001e-01	 1.467872e+00	-4.310934e+01
1	 6.822053e-01	 1.421216e+00	-3.509171e+01
1	 6.552093e-01	 1.433862e+00	-3.677807e+01
1	 6.280720e-01	 1.445955e+00	-3.840163e+01
1	 6.008096e-01	 1.457494e+00	-3.995523e+01
1	 5.734384e-01	 1.468478e+00	-4.143181e+01
1	 5.459745e-01	 1.478909e+00	-4.282447e+01
1	 6.872964e-01	 1.431822e+00	-3.480486e+01
1	 6.600989e-01	 1.444562e+00	-3.648373e+01
1	 6.327591e-01	 1.456745e+00	-3.809856e+01
1	 6.052932e-01	 1.468370e+00	-3.964216e+01
1	 5.777178e-01	 1.479437e+00	-4.110747e+01
1	 5.500490e-01	 1.489945e+00	-4.248756e+01
1	 5.296768e-01	 1.434762e+00	-4.365368e+01
1	 5.029584e-01	 1.444345e+00	-4.498811e+01
1	 4.761809e-01	 1.453393e+00	-4.622463e+01
1	 4.493594e-01	 1.461908e+00	-4.736233e+01
1	 4.225090e-01	 1.469893e+00	-4.840041e+01
1	 3.956442e-01	 1.477351e+00	-4.933824e+01
1	 5.337512e-01	 1.445799e+00	-4.352375e+01
1	 5.068273e-01	 1.455456e+00	-4.485129e+01
1	 4.798438e-01	 1.464573e+00	-4.607903e+01
1	 4.528160e-01	 1.473154e+00	-4.720641e+01
1	 4.257591e-01	 1.481200e+00	-4.823300e+01
1	 3.986876e-01	 1.488715e+00	-4.915854e+01
1	 5.378257e-01	 1.456836e+00	-4.334237e+01
1	 5.106962e-01	 1.466566e+00	-4.466127e+01
1	 4.835067e-01	 1.475753e+00	-4.587875e+01
1	 4.562727e-01	 1.484399e+00	-4.699454e+01
1	 4.290091e-01	 1.492507e+00	-4.800853e+01
1	 4.017310e-01	 1.500079e+00	-4.892076e+01
1	 5.419001e-01	 1.467872e+00	-4.310934e+01
1	 5.145651e-01	 1.477676e+00	-4.441788e+01
1	 4.871697e-01	 1.486933e+00	-4.562364e+01
1	 4.597293e-01	 1.495645e+00	-4.672658e+01
1	 4.322592e-01	 1.503814e+00	-4.772684e+01
1	 4.047745e-01	 1.511444e+00	-4.862474e+01
1	 5.459745e-01	 1.478909e+00	-4.282447e+01
1	 5.184340e-01	 1.488787e+00	-4.412096e+01
1	 4.908326e-01	 1.498113e+00	-4.531354e+01
1	 4.631859e-01	 1.506890e+00	-4.640237e+01
1	 4.355093e-01	 1.515121e+00	-4.738779e+01
1	 4.078179e-01	 1.522808e+00	-4.827031e+01
1	 5.500490e-01	 1.489945e+00	-4.248756e+01
1	 5.223029e-01	 1.499897e+00	-4.377033e+01
1	 4.944955e-01	 1.509293e+00	-4.494832e+01
1	 4.666425e-01	 1.518136e+00	-4.602180e+01
1	 4.387593e-01	 1.526428e+00	-4.699125e+01
1	 4.108613e-01	 1.534172e+00	-4.785732e+01
1	 3.956442e-01	 1.477351e+00	-4.933824e+01
1	 3.687795e-01	 1.484285e+00	-5.018259e+01
1	 3.419290e-01	 1.490699e+00	-5.094008e+01
1	 3.151066e-01	 1.496599e+00	-5.161011e+01
1	 2.883258e-01	 1.501988e+00	-5.219229e+01
1	 2.615998e-01	 1.506873e+00	-5.268642e+01
1	 3.986876e-01	 1.488715e+00	-4.915854e+01
1	 3.716163e-01	 1.495703e+00	-4.999035e+01
1	 3.445593e-01	 1.502166e+00	-5.073532e+01
1	 3.175305e-01	 1.508111e+00	-5.139286e+01
1	 2.905437e-01	 1.513542e+00	-5.196258e+01
1	 2.636121e-01	 1.518464e+00	-5.244427e+01
1	 4.017310e-01	 1.500079e+00	-4.892076e+01
1	 3.744530e-01	 1.507120e+00	-4.973901e+01
1	 3.471895e-01	 1.513633e+00	-5.047045e+01
1	 3.199544e-01	 1.519623e+00	-5.111450e+01
1	 2.927616e-01	 1.525096e+00	-5.167080e+01
1	 2.656244e-01	 1.530056e+00	-5.213919e+01
1	 4.047745e-01	 1.511444e+00	-4.862474e+01
1	 3.772898e-01	 1.518538e+00	-4.942841e+01
1	 3.498197e-01	 1.525100e+00	-5.014529e+01
1	 3.223783e-01	 1.531136e+00	-5.077487e+01
1	 2.949795e-01	 1.536649e+00	-5.131683e+01
1	 2.676367e-01	 1.541647e+00	-5.177109e+01
1	 4.078179e-01	 1.522808e+00	-4.827031e+01
1	 3.801266e-01	 1.529955e+00	-4.905838e+01
1	 3.524499e-01	 1.536567e+00	-4.975969e+01
1	 3.248022e-01	 1.542648e+00	-5.037382e+01
1	 2.971974e-01	 1.548203e+00	-5.090054e+01
1	 2.696490e-01	 1.553238e+00	-5.133987e+01
1	 4.108613e-01	 1.534172e+00	-4.785732e+01
1	 3.829633e-01	 1.541373e+00	-4.862876e+01
1	 3.550801e-01	 1.548034e+00	-4.931349e+01
1	 3.272261e-01	 1.554160e+00	-4.991120e+01
1	 2.994153e-01	 1.559757e+00	-5.042181e+01
1	 2.716613e-01	 1.564830e+00	-5.084543e+01
1	 2.615998e-01	 1.506873e+00	-5.268642e+01
1	 2.349414e-01	 1.511259e+00	-5.309521e+01
1	 2.083633e-01	 1.515152e+00	-5.342271e+01
1	 1.818774e-01	 1.518559e+00	-5.367106e+01
1	 1.554956e-01	 1.521487e+00	-5.384252e+01
1	 1.292293e-01	 1.523942e+00	-5.393949e+01
1	 2.636121e-01	 1.518464e+00	-5.244427e+01
1	 2.367487e-01	 1.522884e+00	-5.284078e+01
1	 2.099661e-01	 1.526807e+00	-5.315639e+01
1	 1.832765e-01	 1.530240e+00	-5.339329e+01
1	 1.566917e-01	 1.533190e+00	-5.355383e+01
1	 1.302234e-01	 1.535665e+00	-5.364051e+01
1	 2.656244e-01	 1.530056e+00	-5.213919e+01
1	 2.385559e-01	 1.534509e+00	-5.252271e+01
1	 2.115689e-01	 1.538462e+00	-5.282582e+01
1	 1.846755e-01	 1.541921e+00	-5.305081e+01
1	 1.578879e-01	 1.544894e+00	-5.320007e+01
1	 1.312174e-01	 1.547388e+00	-5.327618e+01
1	 2.676367e-01	 1.541647e+00	-5.177109e+01
1	 2.403632e-01	 1.546134e+00	-5.214090e+01
1	 2.131717e-01	 1.550117e+00	-5.243096e+01
1	 1.860746e-01	 1.553603e+00	-5.264356e+01
1	 1.590840e-01	 1.556598e+00	-5.278116e+01
1	 1.322115e-01	 1.559110e+00	-5.284636e+01
1	 2.696490e-01	 1.553238e+00	-5.133987e+01
1	 2.421704e-01	 1.557759e+00	-5.169530e+01
1	 2.147744e-01	 1.561772e+00	-5.197173e+01
1	 1.874736e-01	 1.565284e+00	-5.217147e+01
1	 1.602801e-01	 1.568302e+00	-5.229701e+01
1	 1.332056e-01	 1.570833e+00	-5.235096e+01
1	 2.716613e-01	 1.564830e+00	-5.084543e+01
1	 2.439777e-01	 1.569384e+00	-5.118583e+01
1	 2.163772e-01	 1.573427e+00	-5.144808e+01
1	 1.888727e-01	 1.576965e+00	-5.163450e+01
1	 1.614762e-01	 1.580005e+00	-5.174756e+01
1	 1.341996e-01	 1.582555e+00	-5.178986e+01
1	 1.292293e-01	 1.523942e+00	-5.393949e+01
1	 1.030894e-01	 1.525933e+00	-5.396524e+01
1	 7.708653e-02	 1.527468e+00	-5.392323e+01
1	 5.123090e-02	 1.528553e+00	-5.381632e+01
1	 2.553226e-02	 1.529199e+00	-5.364737e+01
1	 0.000000e+00	 1.529412e+00	-5.341930e+01
1	 1.302234e-01	 1.535665e+00	-5.364051e+01
1	 1.038824e-01	 1.537671e+00	-5.365664e+01
1	 7.767951e-02	 1.539218e+00	-5.360554e+01
1	 5.162498e-02	 1.540312e+00	-5.348985e+01
1	 2.572867e-02	 1.540962e+00	-5.331226e+01
1	 0.000000e+00	 1.541176e+00	-5.307551e+01
1	 1.312174e-01	 1.547388e+00	-5.327618e+01
1	 1.046754e-01	 1.549409e+00	-5.328243e+01
1	 7.827248e-02	 1.550967e+00	-5.322203e+01
1	 5.201907e-02	 1.552070e+00	-5.309751e+01
1	 2.592507e-02	 1.552725e+00	-5.291143e+01
1	 0.000000e+00	 1.552941e+00	-5.266641e+01
1	 1.322115e-01	 1.559110e+00	-5.284636e+01
1	 1.054684e-01	 1.561147e+00	-5.284245e+01
1	 7.886545e-02	 1.562717e+00	-5.277256e+01
1	 5.241315e-02	 1.563828e+00	-5.263915e+01
1	 2.612147e-02	 1.564488e+00	-5.244474e+01
1	 0.000000e+00	 1.564706e+00	-5.219191e+01
1	 1.332056e-01	 1.570833e+00	-5.235096e+01
1	 1.062614e-01	 1.572885e+00	-5.233657e+01
1	 7.945843e-02	 1.574467e+00	-5.225697e+01
1	 5.280723e-02	 1.575586e+00	-5.211463e+01
1	 2.631787e-02	 1.576251e+00	-5.191209e+01
1	 0.000000e+00	 1.576471e+00	-5.165193e+01
1	 1.341996e-01	 1.582555e+00	-5.178986e+01
1	 1.070544e-01	 1.584623e+00	-5.176466e+01
1	 8.005140e-02	 1.586217e+00	-5.167512e+01
1	 5.320132e-02	 1.587344e+00	-5.152381e+01
1	 2.651427e-02	 1.588014e+00	-5.131335e+01
1	 0.000000e+00	 1.588235e+00	-5.104639e+01
1	 1.588235e+00	 0.000000e+00	 1.529360e+01
1	 1.588014e+00	 2.651427e-02	 1.539895e+01
1	 1.587344e+00	 5.320132e-02	 1.545911e+01
1	 1.586217e+00	 8.005140e-02	 1.547279e+01
1	 1.584623e+00	 1.070544e-01	 1.543912e+01
1	 1.582555e+00	 1.341996e-01	 1.535764e+01
1	 1.600000e+00	 0.000000e+00	 1.493386e+01
1	 1.599777e+00	 2.671068e-02	 1.502059e+01
1	 1.599102e+00	 5.359540e-02	 1.506472e+01
1	 1.597966e+00	 8.064437e-02	 1.506496e+01
1	 1.596361e+00	 1.078474e-01	 1.502043e+01
1	 1.594278e+00	 1.351937e-01	 1.493064e+01
1	 1.611765e+00	 0.000000e+00	 1.456713e+01
1	 1.611540e+00	 2.690708e-02	 1.463528e+01
1	 1.610860e+00	 5.398948e-02	 1.466347e+01
1	 1.609716e+00	 8.123735e-02	 1.465041e+01
1	 1.608099e+00	 1.086404e-01	 1.459520e+01
1	 1.606001e+00	 1.361878e-01	 1.449732e+01
1	 1.623529e+00	 0.000000e+00	 1.419343e+01
1	 1.623303e+00	 2.710348e-02	 1.424314e+01
1	 1.622618e+00	 5.438357e-02	 1.425553e+01
1	 1.621466e+00	 8.183032e-02	 1.422933e+01
1	 1.619837e+00	 1.094334e-01	 1.416363e+01
1	 1.617723e+00	 1.371819e-01	 1.405791e+01
1	 1.635294e+00	 0.000000e+00	 1.381279e+01
1	 1.635066e+00	 2.729988e-02	 1.384425e+01
1	 1.634376e+00	 5.477765e-02	 1.384104e+01
1	 1.633216e+00	 8.242329e-02	 1.380191e+01
1	 1.631575e+00	 1.102263e-01	 1.372594e+01
1	 1.629446e+00	 1.381759e-01	 1.361261e+01
1	 1.647059e+00	 0.000000e+00	 1.342521e+01
1	 1.646829e+00	 2.749628e-02	 1.343870e+01
1	 1.646135e+00	 5.517174e-02	 1.342015e+01
1	 1.644965e+00	 8.301627e-02	 1.336833e+01
1	 1.643313e+00	 1.110193e-01	 1.328234e+01
1	 1.641169e+00	 1.391700e-01	 1.316165e+01
1	 1.582555e+00	 1.341996e-01	 1.535764e+01
1	 1.580005e+00	 1.614762e-01	 1.522504e+01
1	 1.576965e+00	 1.888727e-01	 1.503812e+01
1	 1.573427e+00	 2.163772e-01	 1.479721e+01
1	 1.569384e+00	 2.439777e-01	 1.450311e+01
1	 1.564830e+00	 2.716613e-01	 1.415708e+01
1	 1.594278e+00	 1.351937e-01	 1.493064e+01
1	 1.591709e+00	 1.626723e-01	 1.479218e+01
1	 1.588646e+00	 1.902717e-01	 1.460179e+01
1	 1.585082e+00	 2.179800e-01	 1.435992e+01
1	 1.581009e+00	 2.457849e-01	 1.406745e+01
1	 1.576421e+00	 2.736736e-01	 1.372574e+01
1	 1.606001e+00	 1.361878e-01	 1.449732e+01
1	 1.603413e+00	 1.638685e-01	 1.435331e+01
1	 1.600327e+00	 1.916708e-01	 1.415991e+01
1	 1.596737e+00	 2.195828e-01	 1.391765e+01
1	 1.592634e+00	 2.475921e-01	 1.362750e+01
1	 1.588012e+00	 2.756859e-01	 1.329091e+01
1	 1.617723e+00	 1.371819e-01	 1.405791e+01
1	 1.615117e+00	 1.650646e-01	 1.390865e+01
1	 1.612009e+00	 1.930699e-01	 1.371268e+01
1	 1.608392e+00	 2.211856e-01	 1.347058e+01
1	 1.604259e+00	 2.493994e-01	 1.318341e+01
1	 1.599604e+00	 2.776982e-01	 1.285271e+01
1	 1.629446e+00	 1.381759e-01	 1.361261e+01
1	 1.626820e+00	 1.662607e-01	 1.345843e+01
1	 1.623690e+00	 1.944689e-01	 1.326029e+01
1	 1.620047e+00	 2.227884e-01	 1.301888e+01
1	 1.615884e+00	 2.512066e-01	 1.273531e+01
1	 1.611195e+00	 2.797106e-01	 1.241123e+01
1	 1.641169e+00	 1.391700e-01	 1.316165e+01
1	 1.638524e+00	 1.674568e-01	 1.300284e+01
1	 1.635371e+00	 1.958680e-01	 1.280294e+01
1	 1.631702e+00	 2.243912e-01	 1.256271e+01
1	 1.627509e+00	 2.530139e-01	 1.228336e+01
1	 1.622786e+00	 2.817229e-01	 1.196658e+01
1	 1.564830e+00	 2.716613e-01	 1.415708e+01
1	 1.559757e+00	 2.994153e-01	 1.375337e+01
1	 1.554160e+00	 3.272261e-01	 1.328678e+01
1	 1.548034e+00	 3.550801e-01	 1.276006e+01
1	 1.541373e+00	 3.829633e-01	 1.217642e+01
1	 1.534172e+00	 4.108613e-01	 1.153946e+01
1	 1.576421e+00	 2.736736e-01	 1.372574e+01
1	 1.571311e+00	 3.016332e-01	 1.332880e+01
1	 1.565673e+00	 3.296500e-01	 1.287106e+01
1	 1.559501e+00	 3.577104e-01	 1.235514e+01
1	 1.552790e+00	 3.858001e-01	 1.178410e+01
1	 1.545536e+00	 4.139047e-01	 1.116140e+01
1	 1.588012e+00	 2.756859e-01	 1.329091e+01
1	 1.582864e+00	 3.038510e-01	 1.290161e+01
1	 1.577185e+00	 3.320739e-01	 1.245360e+01
1	 1.570968e+00	 3.603406e-01	 1.194935e+01
1	 1.564208e+00	 3.886369e-01	 1.139176e+01
1	 1.556901e+00	 4.169481e-01	 1.078413e+01
1	 1.599604e+00	 2.776982e-01	 1.285271e+01
1	 1.594418e+00	 3.060689e-01	 1.247188e+01
1	 1.588697e+00	 3.344978e-01	 1.203444e+01
1	 1.582435e+00	 3.629708e-01	 1.154271e+01
1	 1.575626e+00	 3.914736e-01	 1.099942e+01
1	 1.568265e+00	 4.199915e-01	 1.040769e+01
1	 1.611195e+00	 2.797106e-01	 1.241123e+01
1	 1.605972e+00	 3.082868e-01	 1.203967e+01
1	 1.600210e+00	 3.369217e-01	 1.161363e+01
1	 1.593902e+00	 3.656010e-01	 1.113526e+01
1	 1.587043e+00	 3.943104e-01	 1.060712e+01
1	 1.579629e+00	 4.230350e-01	 1.003212e+01
1	 1.622786e+00	 2.817229e-01	 1.196658e+01
1	 1.617526e+00	 3.105047e-01	 1.160505e+01
1	 1.611722e+00	 3.393456e-01	 1.119121e+01
1	 1.605369e+00	 3.682313e-01	 1.072704e+01
1	 1.598461e+00	 3.971472e-01	 1.021488e+01
1	 1.590993e+00	 4.260784e-01	 9.657482e+00
1	 1.534172e+00	 4.108613e-01	 1.153946e+01
1	 1.526428e+00	 4.387593e-01	 1.080939e+01
1	 1.518136e+00	 4.666425e-01	 9.946631e+00
1	 1.509293e+00	 4.944955e-01	 8.955682e+00
1	 1.499897e+00	 5.223029e-01	 7.841418e+00
1	 1.489945e+00	 5.500490e-01	 6.609048e+00
1	 1.545536e+00	 4.139047e-01	 1.116140e+01
1	 1.537735e+00	 4.420094e-01	 1.044680e+01
1	 1.529381e+00	 4.700991e-01	 9.600677e+00
1	 1.520473e+00	 4.981584e-01	 8.628090e+00
1	 1.511007e+00	 5.261718e-01	 7.534520e+00
1	 1.500982e+00	 5.541234e-01	 6.325866e+00
1	 1.556901e+00	 4.169481e-01	 1.078413e+01
1	 1.549041e+00	 4.452595e-01	 1.008597e+01
1	 1.540627e+00	 4.735557e-01	 9.257834e+00
1	 1.531653e+00	 5.018214e-01	 8.305297e+00
1	 1.522118e+00	 5.300407e-01	 7.234422e+00
1	 1.512019e+00	 5.581978e-01	 6.051763e+00
1	 1.568265e+00	 4.199915e-01	 1.040769e+01
1	 1.560348e+00	 4.485095e-01	 9.726953e+00
1	 1.551872e+00	 4.770123e-01	 8.918130e+00
1	 1.542833e+00	 5.054843e-01	 7.987277e+00
1	 1.533228e+00	 5.339096e-01	 6.941015e+00
1	 1.523055e+00	 5.622723e-01	 5.786518e+00
1	 1.579629e+00	 4.230350e-01	 1.003212e+01
1	 1.571655e+00	 4.517596e-01	 9.369809e+00
1	 1.563118e+00	 4.804689e-01	 8.581595e+00
1	 1.554013e+00	 5.091472e-01	 7.674007e+00
1	 1.544338e+00	 5.377785e-01	 6.654192e+00
1	 1.534092e+00	 5.663467e-01	 5.529915e+00
1	 1.590993e+00	 4.260784e-01	 9.657482e+00
1	 1.582962e+00	 4.550097e-01	 9.014586e+00
1	 1.574363e+00	 4.839255e-01	 8.248256e+00
1	 1.565193e+00	 5.128102e-01	 7.365461e+00
1	 1.555449e+00	 5.416475e-01	 6.373852e+00
1	 1.545129e+00	 5.704211e-01	 5.281744e+00
1	 1.489945e+00	 5.500490e-01	 6.609048e+00
1	 1.479437e+00	 5.777178e-01	 5.299497e+00
1	 1.468370e+00	 6.052932e-01	 3.954375e+00
1	 1.456745e+00	 6.327591e-01	 2.580341e+00
1	 1.444562e+00	 6.600989e-01	 1.184262e+00
1	 1.431822e+00	 6.872964e-01	-2.268137e-01
1	 1.500982e+00	 5.541234e-01	 6.325866e+00
1	 1.490396e+00	 5.819972e-01	 5.043454e+00
1	 1.479247e+00	 6.097769e-01	 3.728509e+00
1	 1.467536e+00	 6.374462e-01	 2.387188e+00
1	 1.455263e+00	 6.649885e-01	 1.025762e+00
1	 1.442428e+00	 6.923874e-01	-3.494044e-01
1	 1.512019e+00	 5.581978e-01	 6.051763e+00
1	 1.501354e+00	 5.862765e-01	 4.798644e+00
1	 1.490124e+00	 6.142605e-01	 3.515534e+00
1	 1.478327e+00	 6.421333e-01	 2.208106e+00
1	 1.465963e+00	 6.698782e-01	 8.820616e-01
1	 1.453034e+00	 6.974785e-01	-4.568884e-01
1	 1.523055e+00	 5.622723e-01	 5.786518e+00
1	 1.512313e+00	 5.905559e-01	 4.564737e+00
1	 1.501001e+00	 6.187442e-01	 3.315050e+00
1	 1.489118e+00	 6.468204e-01	 2.042661e+00
1	 1.476664e+00	 6.747678e-01	 7.527301e-01
1	 1.463641e+00	 7.025696e-01	-5.496560e-01
1	 1.534092e+00	 5.663467e-01	 5.529915e+00
1	 1.523272e+00	 5.948353e-01	 4.341412e+00
1	 1.511878e+00	 6.232278e-01	 3.126667e+00
1	 1.499908e+00	 6.515075e-01	 1.890433e+00
1	 1.487364e+00	 6.796574e-01	 6.373497e-01
1	 1.474247e+00	 7.076607e-01	-6.280863e-01
1	 1.545129e+00	 5.704211e-01	 5.281744e+00
1	 1.534231e+00	 5.991147e-01	 4.128358e+00
1	 1.522754e+00	 6.277115e-01	 2.950006e+00
1	 1.510699e+00	 6.561946e-01	 1.751012e+00
1	 1.498065e+00	 6.845470e-01	 5.355147e-01
1	 1.484853e+00	 7.127518e-01	-6.925478e-01
1	 1.431822e+00	 6.872964e-01	-2.268137e-01
1	 1.418526e+00	 7.143348e-01	-1.607813e+00
1	 1.404677e+00	 7.411977e-01	-2.921120e+00
1	 1.390277e+00	 7.678685e-01	-4.171467e+00
1	 1.375329e+00	 7.943307e-01	-5.364534e+00
1	 1.359838e+00	 8.205676e-01	-6.506933e+00
1	 1.442428e+00	 6.923874e-01	-3.494044e-01
1	 1.429034e+00	 7.196262e-01	-1.695839e+00
1	 1.415082e+00	 7.466881e-01	-2.977825e+00
1	 1.400575e+00	 7.735565e-01	-4.199775e+00
1	 1.385517e+00	 8.002146e-01	-5.367012e+00
1	 1.369911e+00	 8.266459e-01	-6.485759e+00
1	 1.453034e+00	 6.974785e-01	-4.568884e-01
1	 1.439542e+00	 7.249176e-01	-1.768574e+00
1	 1.425487e+00	 7.521785e-01	-3.018926e+00
1	 1.410873e+00	 7.792444e-01	-4.212066e+00
1	 1.395704e+00	 8.060985e-01	-5.352993e+00
1	 1.379984e+00	 8.327241e-01	-6.447582e+00
1	 1.463641e+00	 7.025696e-01	-5.496560e-01
1	 1.450049e+00	 7.302089e-01	-1.826365e+00
1	 1.435892e+00	 7.576688e-01	-3.044752e+00
1	 1.421172e+00	 7.849323e-01	-4.208675e+00
1	 1.405892e+00	 8.119825e-01	-5.322848e+00
1	 1.390057e+00	 8.388024e-01	-6.392833e+00
1	 1.474247e+00	 7.076607e-01	-6.280863e-01
1	 1.460557e+00	 7.355003e-01	-1.869548e+00
1	 1.446297e+00	 7.631592e-01	-3.055622e+00
1	 1.431470e+00	 7.906202e-01	-4.189932e+00
1	 1.416080e+00	 8.178664e-01	-5.276937e+00
1	 1.400130e+00	 8.448807e-01	-6.321929e+00
1	 1.484853e+00	 7.127518e-01	-6.925478e-01
1	 1.471064e+00	 7.407917e-01	-1.898451e+00
1	 1.456702e+00	 7.686495e-01	-3.051847e+00
1	 1.441768e+00	 7.963081e-01	-4.156154e+00
1	 1.426267e+00	 8.237503e-01	-5.215612e+00
1	 1.410203e+00	 8.509590e-01	-6.235278e+00
1	 1.359838e+00	 8.205676e-01	-6.506933e+00
1	 1.343809e+00	 8.465629e-01	-7.576996e+00
1	 1.327247e+00	 8.723004e-01	-8.553547e+00
1	 1.310157e+00	 8.977638e-01	-9.445223e+00
1	 1.292547e+00	 9.229372e-01	-1.026143e+01
1	 1.274424e+00	 9.478048e-01	-1.101234e+01
1	 1.369911e+00	 8.266459e-01	-6.485759e+00
1	 1.353763e+00	 8.528338e-01	-7.533734e+00
1	 1.337078e+00	 8.787619e-01	-8.489551e+00
1	 1.319862e+00	 9.044139e-01	-9.362062e+00
1	 1.302122e+00	 9.297737e-01	-1.016092e+01
1	 1.283865e+00	 9.548256e-01	-1.089653e+01
1	 1.379984e+00	 8.327241e-01	-6.447582e+00
1	 1.363717e+00	 8.591046e-01	-7.473067e+00
1	 1.346909e+00	 8.852233e-01	-8.407875e+00
1	 1.329567e+00	 9.110640e-01	-9.260942e+00
1	 1.311696e+00	 9.366103e-01	-1.004201e+01
1	 1.293305e+00	 9.618463e-01	-1.076161e+01
1	 1.390057e+00	 8.388024e-01	-6.392833e+00
1	 1.373671e+00	 8.653754e-01	-7.395460e+00
1	 1.356741e+00	 8.916848e-01	-8.308944e+00
1	 1.339272e+00	 9.177141e-01	-9.142180e+00
1	 1.321271e+00	 9.434469e-01	-9.904870e+00
1	 1.302745e+00	 9.688671e-01	-1.060749e+01
1	 1.400130e+00	 8.448807e-01	-6.321929e+00
1	 1.383626e+00	 8.716463e-01	-7.301363e+00
1	 1.366572e+00	 8.981463e-01	-8.193171e+00
1	 1.348977e+00	 9.243642e-01	-9.006082e+00
1	 1.330845e+00	 9.502834e-01	-9.749617e+00
1	 1.312185e+00	 9.758879e-01	-1.043405e+01
1	 1.410203e+00	 8.509590e-01	-6.235278e+00
1	 1.393580e+00	 8.779171e-01	-7.191216e+00
1	 1.376404e+00	 9.046078e-01	-8.060956e+00
1	 1.358681e+00	 9.310143e-01	-8.852947e+00
1	 1.340419e+00	 9.571200e-01	-9.576390e+00
1	 1.321625e+00	 9.829087e-01	-1.024121e+01
1	 1.274424e+00	 9.478048e-01	-1.101234e+01
1	 1.255796e+00	 9.723512e-01	-1.168747e+01
1	 1.236672e+00	 9.965611e-01	-1.226801e+01
1	 1.217060e+00	 1.020420e+00	-1.275156e+01
1	 1.196971e+00	 1.043912e+00	-1.313502e+01
1	 1.176414e+00	 1.067024e+00	-1.341461e+01
1	 1.283865e+00	 9.548256e-01	-1.089653e+01
1	 1.265099e+00	 9.795538e-01	-1.155541e+01
1	 1.245832e+00	 1.003943e+00	-1.211605e+01
1	 1.226075e+00	 1.027978e+00	-1.257689e+01
1	 1.205837e+00	 1.051645e+00	-1.293572e+01
1	 1.185128e+00	 1.074928e+00	-1.318973e+01
1	 1.293305e+00	 9.618463e-01	-1.076161e+01
1	 1.274401e+00	 9.867564e-01	-1.140323e+01
1	 1.254993e+00	 1.011325e+00	-1.194284e+01
1	 1.235091e+00	 1.035537e+00	-1.237981e+01
1	 1.214704e+00	 1.059377e+00	-1.271297e+01
1	 1.193843e+00	 1.082832e+00	-1.294057e+01
1	 1.302745e+00	 9.688671e-01	-1.060749e+01
1	 1.283703e+00	 9.939590e-01	-1.123059e+01
1	 1.264154e+00	 1.018707e+00	-1.174788e+01
1	 1.244106e+00	 1.043096e+00	-1.215977e+01
1	 1.223570e+00	 1.067110e+00	-1.246620e+01
1	 1.202557e+00	 1.090736e+00	-1.266663e+01
1	 1.312185e+00	 9.758879e-01	-1.043405e+01
1	 1.293005e+00	 1.001162e+00	-1.103716e+01
1	 1.273314e+00	 1.026089e+00	-1.153070e+01
1	 1.253121e+00	 1.050654e+00	-1.191622e+01
1	 1.232437e+00	 1.074843e+00	-1.219486e+01
1	 1.211271e+00	 1.098640e+00	-1.236743e+01
1	 1.321625e+00	 9.829087e-01	-1.024121e+01
1	 1.302307e+00	 1.008364e+00	-1.082263e+01
1	 1.282475e+00	 1.033471e+00	-1.129085e+01
1	 1.262136e+00	 1.058213e+00	-1.164861e+01
1	 1.241303e+00	 1.082575e+00	-1.189840e+01
1	 1.219985e+00	 1.106544e+00	-1.204248e+01
1	 1.176414e+00	 1.067024e+00	-1.341461e+01
1	 1.155401e+00	 1.089743e+00	-1.366152e+01
1	 1.133944e+00	 1.112053e+00	-1.394820e+01
1	 1.112053e+00	 1.133944e+00	-1.427214e+01
1	 1.089743e+00	 1.155401e+00	-1.463073e+01
1	 1.067024e+00	 1.176414e+00	-1.502121e+01
1	 1.185128e+00	 1.074928e+00	-1.318973e+01
1	 1.163960e+00	 1.097815e+00	-1.341255e+01
1	 1.142343e+00	 1.120291e+00	-1.367844e+01
1	 1.120291e+00	 1.142343e+00	-1.398492e+01
1	 1.097815e+00	 1.163960e+00	-1.432940e+01
1	 1.074928e+00	 1.185128e+00	-1.470913e+01
1	 1.193843e+00	 1.082832e+00	-1.294057e+01
1	 1.172519e+00	 1.105887e+00	-1.313869e+01
1	 1.150743e+00	 1.128528e+00	-1.338337e+01
1	 1.128528e+00	 1.150743e+00	-1.367227e+01
1	 1.105887e+00	 1.172519e+00	-1.400293e+01
1	 1.082832e+00	 1.193843e+00	-1.437274e+01
1	 1.202557e+00	 1.090736e+00	-1.266663e+01
1	 1.181077e+00	 1.113959e+00	-1.283955e+01
1	 1.159143e+00	 1.136766e+00	-1.306271e+01
1	 1.136766e+00	 1.159143e+00	-1.333403e+01
1	 1.113959e+00	 1.181077e+00	-1.365131e+01
1	 1.090736e+00	 1.202557e+00	-1.401217e+01
1	 1.211271e+00	 1.098640e+00	-1.236743e+01
1	 1.189636e+00	 1.122031e+00	-1.251474e+01
1	 1.167542e+00	 1.145003e+00	-1.271619e+01
1	 1.145003e+00	 1.167542e+00	-1.297007e+01
1	 1.122031e+00	 1.189636e+00	-1.327452e+01
1	 1.098640e+00	 1.211271e+00	-1.362755e+01
1	 1.219985e+00	 1.106544e+00	-1.204248e+01
1	 1.198194e+00	 1.130103e+00	-1.216389e+01
1	 1.175942e+00	 1.153241e+00	-1.234355e+01
1	 1.153241e+00	 1.175942e+00	-1.258023e+01
1	 1.130103e+00	 1.198194e+00	-1.287256e+01
1	 1.106544e+00	 1.219985e+00	-1.321900e+01
1	 1.067024e+00	 1.176414e+00	-1.502121e+01
1	 1.043912e+00	 1.196971e+00	-1.550676e+01
1	 1.020420e+00	 1.217060e+00	-1.615204e+01
1	 9.965611e-01	 1.236672e+00	-1.695655e+01
1	 9.723512e-01	 1.255796e+00	-1.792007e+01
1	 9.478048e-01	 1.274424e+00	-1.904260e+01
1	 1.074928e+00	 1.185128e+00	-1.470913e+01
1	 1.051645e+00	 1.205837e+00	-1.518849e+01
1	 1.027978e+00	 1.226075e+00	-1.583259e+01
1	 1.003943e+00	 1.245832e+00	-1.663983e+01
1	 9.795538e-01	 1.265099e+00	-1.760876e+01
1	 9.548256e-01	 1.283865e+00	-1.873804e+01
1	 1.082832e+00	 1.193843e+00	-1.437274e+01
1	 1.059377e+00	 1.214704e+00	-1.484706e+01
1	 1.035537e+00	 1.235091e+00	-1.549105e+01
1	 1.011325e+00	 1.254993e+00	-1.630177e+01
1	 9.867564e-01	 1.274401e+00	-1.727633e+01
1	 9.618463e-01	 1.293305e+00	-1.841186e+01
1	 1.090736e+00	 1.202557e+00	-1.401217e+01
1	 1.067110e+00	 1.223570e+00	-1.448271e+01
1	 1.043096e+00	 1.244106e+00	-1.512769e+01
1	 1.018707e+00	 1.264154e+00	-1.594265e+01
1	 9.939590e-01	 1.283703e+00	-1.692302e+01
1	 9.688671e-01	 1.302745e+00	-1.806417e+01
1	 1.098640e+00	 1.211271e+00	-1.362755e+01
1	 1.074843e+00	 1.232437e+00	-1.409568e+01
1	 1.050654e+00	 1.253121e+00	-1.474282e+01
1	 1.026089e+00	 1.273314e+00	-1.556274e+01
1	 1.001162e+00	 1.293005e+00	-1.654904e+01
1	 9.758879e-01	 1.312185e+00	-1.769507e+01
1	 1.106544e+00	 1.219985e+00	-1.321900e+01
1	 1.082575e+00	 1.241303e+00	-1.368620e+01
1	 1.058213e+00	 1.262136e+00	-1.433668e+01
1	 1.033471e+00	 1.282475e+00	-1.516231e+01
1	 1.008364e+00	 1.302307e+00	-1.615458e+01
1	 9.829087e-01	 1.321625e+00	-1.730466e+01
1	 9.478048e-01	 1.274424e+00	-1.904260e+01
1	 9.229372e-01	 1.292547e+00	-2.030104e+01
1	 8.977638e-01	 1.310157e+00	-2.166594e+01
1	 8.723004e-01	 1.327247e+00	-2.312763e+01
1	 8.465629e-01	 1.343809e+00	-2.467608e+01
1	 8.205676e-01	 1.359838e+00	-2.630088e+01
1	 9.548256e-01	 1.283865e+00	-1.873804e+01
1	 9.297737e-01	 1.302122e+00	-2.000182e+01
1	 9.044139e-01	 1.319862e+00	-2.136920e+01
1	 8.787619e-01	 1.337078e+00	-2.283112e+01
1	 8.528338e-01	 1.353763e+00	-2.437816e+01
1	 8.266459e-01	 1.369911e+00	-2.600063e+01
1	 9.618463e-01	 1.293305e+00	-1.841186e+01
1	 9.366103e-01	 1.311696e+00	-1.967989e+01
1	 9.110640e-01	 1.329567e+00	-2.104847e+01
1	 8.852233e-01	 1.346909e+00	-2.250921e+01
1	 8.591046e-01	 1.363717e+00	-2.405347e+01
1	 8.327241e-01	 1.379984e+00	-2.567230e+01
1	 9.688671e-01	 1.302745e+00	-1.806417e+01
1	 9.434469e-01	 1.321271e+00	-1.933525e+01
1	 9.177141e-01	 1.339272e+00	-2.070364e+01
1	 8.916848e-01	 1.356741e+00	-2.216176e+01
1	 8.653754e-01	 1.373671e+00	-2.370179e+01
1	 8.388024e-01	 1.390057e+00	-2.531568e+01
1	 9.758879e-01	 1.312185e+00	-1.769507e+01
1	 9.502834e-01	 1.330845e+00	-1.896787e+01
1	 9.243642e-01	 1.348977e+00	-2.033461e+01
1	 8.981463e-01	 1.366572e+00	-2.178860e+01
1	 8.716463e-01	 1.383626e+00	-2.332292e+01
1	 8.448807e-01	 1.400130e+00	-2.493054e+01
1	 9.829087e-01	 1.321625e+00	-1.730466e+01
1	 9.571200e-01	 1.340419e+00	-1.857774e+01
1	 9.310143e-01	 1.358681e+00	-1.994129e+01
1	 9.046078e-01	 1.376404e+00	-2.138956e+01
1	 8.779171e-01	 1.393580e+00	-2.291668e+01
1	 8.509590e-01	 1.410203e+00	-2.451667e+01
1	 8.205676e-01	 1.359838e+00	-2.630088e+01
1	 7.943307e-01	 1.375329e+00	-2.797384e+01
1	 7.678685e-01	 1.390277e+00	-2.966872e+01
1	 7.411977e-01	 1.404677e+00	-3.137761e+01
1	 7.143348e-01	 1.418526e+00	-3.309242e+01
1	 6.872964e-01	 1.431822e+00	-3.480486e+01
1	 8.266459e-01	 1.369911e+00	-2.600063e+01
1	 8.002146e-01	 1.385517e+00	-2.767065e+01
1	 7.735565e-01	 1.400575e+00	-2.936168e+01
1	 7.466881e-01	 1.415082e+00	-3.106564e+01
1	 7.196262e-01	 1.429034e+00	-3.277418e+01
1	 6.923874e-01	 1.442428e+00	-3.447879e+01
1	 8.327241e-01	 1.379984e+00	-2.567230e+01
1	 8.060985e-01	 1.395704e+00	-2.733811e+01
1	 7.792444e-01	 1.410873e+00	-2.902392e+01
1	 7.521785e-01	 1.425487e+00	-3.072139e+01
1	 7.249176e-01	 1.439542e+00	-3.242192e+01
1	 6.974785e-01	 1.453034e+00	-3.411675e+01
1	 8.388024e-01	 1.390057e+00	-2.531568e+01
1	 8.119825e-01	 1.405892e+00	-2.697600e+01
1	 7.849323e-01	 1.421172e+00	-2.865518e+01
1	 7.576688e-01	 1.435892e+00	-3.034460e+01
1	 7.302089e-01	 1.450049e+00	-3.203539e+01
1	 7.025696e-01	 1.463641e+00	-3.371845e+01
1	 8.448807e-01	 1.400130e+00	-2.493054e+01
1	 8.178664e-01	 1.416080e+00	-2.658410e+01
1	 7.906202e-01	 1.431470e+00	-2.825524e+01
1	 7.631592e-01	 1.446297e+00	-2.993504e+01
1	 7.355003e-01	 1.460557e+00	-3.161431e+01
1	 7.076607e-01	 1.474247e+00	-3.328363e+01
1	 8.509590e-01	 1.410203e+00	-2.451667e+01
1	 8.237503e-01	 1.426267e+00	-2.616218e+01
1	 7.963081e-01	 1.441768e+00	-2.782385e+01
1	 7.686495e-01	 1.456702e+00	-2.949244e+01
1	 7.407917e-01	 1.471064e+00	-3.115841e+01
1	 7.127518e-01	 1.484853e+00	-3.281199e+01
1	 6.872964e-01	 1.431822e+00	-3.480486e+01
1	 6.600989e-01	 1.444562e+00	-3.648373e+01
1	 6.327591e-01	 1.456745e+00	-3.809856e+01
1	 6.052932e-01	 1.468370e+00	-3.964216e+01
1	 5.777178e-01	 1.479437e+00	-4.110747e+01
1	 5.500490e-01	 1.489945e+00	-4.248756e+01
1	 6.923874e-01	 1.442428e+00	-3.447879e+01
1	 6.649885e-01	 1.455263e+00	-3.614823e+01
1	 6.374462e-01	 1.467536e+00	-3.775224e+01
1	 6.097769e-01	 1.479247e+00	-3.928371e+01
1	 5.819972e-01	 1.490396e+00	-4.073563e+01
1	 5.541234e-01	 1.500982e+00	-4.210114e+01
1	 6.974785e-01	 1.453034e+00	-3.411675e+01
1	 6.698782e-01	 1.465963e+00	-3.577462e+01
1	 6.421333e-01	 1.478327e+00	-3.736558e+01
1	 6.142605e-01	 1.490124e+00	-3.888263e+01
1	 5.862765e-01	 1.501354e+00	-4.031891e+01
1	 5.581978e-01	 1.512019e+00	-4.166771e+01
1	 7.025696e-01	 1.463641e+00	-3.371845e+01
1	 6.747678e-01	 1.476664e+00	-3.536261e+01
1	 6.468204e-01	 1.489118e+00	-3.693826e+01
1	 6.187442e-01	 1.501001e+00	-3.843864e+01
1	 5.905559e-01	 1.512313e+00	-3.985708e+01
1	 5.622723e-01	 1.523055e+00	-4.118706e+01
1	 7.076607e-01	 1.474247e+00	-3.328363e+01
1	 6.796574e-01	 1.487364e+00	-3.491190e+01
1	 6.515075e-01	 1.499908e+00	-3.647002e+01
1	 6.232278e-01	 1.511878e+00	-3.795147e+01
1	 5.948353e-01	 1.523272e+00	-3.934988e+01
1	 5.663467e-01	 1.534092e+00	-4.065898e+01
1	 7.127518e-01	 1.484853e+00	-3.281199e+01
1	 6.845470e-01	 1.498065e+00	-3.442221e+01
1	 6.561946e-01	 1.510699e+00	-3.596056e+01
1	 6.277115e-01	 1.522754e+00	-3.742086e+01
1	 5.991147e-01	 1.534231e+00	-3.879707e+01
1	 5.704211e-01	 1.545129e+00	-4.008328e+01
1	 5.500490e-01	 1.489945e+00	-4.248756e+01
1	 5.223029e-01	 1.499897e+00	-4.377033e+01
1	 4.944955e-01	 1.509293e+00	-4.494832e+01
1	 4.666425e-01	 1.518136e+00	-4.602180e+01
1	 4.387593e-01	 1.526428e+00	-4.699125e+01
1	 4.108613e-01	 1.534172e+00	-4.785732e+01
1	 5.541234e-01	 1.500982e+00	-4.210114e+01
1	 5.261718e-01	 1.511007e+00	-4.336838e+01
1	 4.981584e-01	 1.520473e+00	-4.453014e+01
1	 4.700991e-01	 1.529381e+00	-4.558677e+01
1	 4.420094e-01	 1.537735e+00	-4.653881e+01
1	 4.139047e-01	 1.545536e+00	-4.738701e+01
1	 5.581978e-01	 1.512019e+00	-4.166771e+01
1	 5.300407e-01	 1.522118e+00	-4.291746e+01
1	 5.018214e-01	 1.531653e+00	-4.406118e+01
1	 4.735557e-01	 1.540627e+00	-4.509920e+01
1	 4.452595e-01	 1.549041e+00	-4.603208e+01
1	 4.169481e-01	 1.556901e+00	-4.686056e+01
1	 5.622723e-01	 1.523055e+00	-4.118706e+01
1	 5.339096e-01	 1.533228e+00	-4.241740e+01
1	 5.054843e-01	 1.542833e+00	-4.354126e+01
1	 4.770123e-01	 1.551872e+00	-4.455893e+01
1	 4.485095e-01	 1.560348e+00	-4.547089e+01
1	 4.199915e-01	 1.568265e+00	-4.627780e+01
1	 5.663467e-01	 1.534092e+00	-4.065898e+01
1	 5.377785e-01	 1.544338e+00	-4.186801e+01
1	 5.091472e-01	 1.554013e+00	-4.297025e+01
1	 4.804689e-01	 1.563118e+00	-4.396582e+01
1	 4.517596e-01	 1.571655e+00	-4.485508e+01
1	 4.230350e-01	 1.579629e+00	-4.563857e+01
1	 5.704211e-01	 1.545129e+00	-4.008328e+01
1	 5.416475e-01	 1.555449e+00	-4.126913e+01
1	 5.128102e-01	 1.565193e+00	-4.234797e+01
1	 4.839255e-01	 1.574363e+00	-4.331972e+01
1	 4.550097e-01	 1.582962e+00	-4.418452e+01
1	 4.260784e-01	 1.590993e+00	-4.494270e+01
1	 4.108613e-01	 1.534172e+00	-4.785732e+01
1	 3.829633e-01	 1.541373e+00	-4.862876e+01
1	 3.550801e-01	 1.548034e+00	-4.931349e+01
1	 3.272261e-01	 1.554160e+00	-4.991120e+01
1	 2.994153e-01	 1.559757e+00	-5.042181e+01
1	 2.716613e-01	 1.564830e+00	-5.084543e+01
1	 4.139047e-01	 1.545536e+00	-4.738701e+01
1	 3.858001e-01	 1.552790e+00	-4.814032e+01
1	 3.577104e-01	 1.559501e+00	-4.880698e+01
1	 3.296500e-01	 1.565673e+00	-4.938686e+01
1	 3.016332e-01	 1.571311e+00	-4.988008e+01
1	 2.736736e-01	 1.576421e+00	-5.028694e+01
1	 4.169481e-01	 1.556901e+00	-4.686056e+01
1	 3.886369e-01	 1.564208e+00	-4.759380e+01
1	 3.603406e-01	 1.570968e+00	-4.824042e+01
1	 3.320739e-01	 1.577185e+00	-4.880061e+01
1	 3.038510e-01	 1.582864e+00	-4.927478e+01
1	 2.756859e-01	 1.588012e+00	-4.966353e+01
1	 4.199915e-01	 1.568265e+00	-4.627780e+01
1	 3.914736e-01	 1.575626e+00	-4.698901e+01
1	 3.629708e-01	 1.582435e+00	-4.761363e+01
1	 3.344978e-01	 1.588697e+00	-4.815225e+01
1	 3.060689e-01	 1.594418e+00	-4.860570e+01
1	 2.776982e-01	 1.599604e+00	-4.897498e+01
1	 4.230350e-01	 1.579629e+00	-4.563857e+01
1	 3.943104e-01	 1.587043e+00	-4.632578e+01
1	 3.656010e-01	 1.593902e+00	-4.692642e+01
1	 3.369217e-01	 1.600210e+00	-4.744160e+01
1	 3.082868e-01	 1.605972e+00	-4.787266e+01
1	 2.797106e-01	 1.611195e+00	-4.822112e+01
1	 4.260784e-01	 1.590993e+00	-4.494270e+01
1	 3.971472e-01	 1.598461e+00	-4.560393e+01
1	 3.682313e-01	 1.605369e+00	-4.617861e+01
1	 3.393456e-01	 1.611722e+00	-4.666847e+01
1	 3.105047e-01	 1.617526e+00	-4.707547e+01
1	 2.817229e-01	 1.622786e+00	-4.740176e+01
1	 2.716613e-01	 1.564830e+00	-5.084543e+01
1	 2.439777e-01	 1.569384e+00	-5.118583e+01
1	 2.163772e-01	 1.573427e+00	-5.144808e+01
1	 1.888727e-01	 1.576965e+00	-5.163450e+01
1	 1.614762e-01	 1.580005e+00	-5.174756e+01
1	 1.341996e-01	 1.582555e+00	-5.178986e+01
1	 2.736736e-01	 1.576421e+00	-5.028694e+01
1	 2.457849e-01	 1.581009e+00	-5.061151e+01
1	 2.179800e-01	 1.585082e+00	-5.085897e+01
1	 1.902717e-01	 1.588646e+00	-5.103161e+01
1	 1.626723e-01	 1.591709e+00	-5.113186e+01
1	 1.351937e-01	 1.594278e+00	-5.116227e+01
1	 2.756859e-01	 1.588012e+00	-4.966353e+01
1	 2.475921e-01	 1.592634e+00	-4.997126e+01
1	 2.195828e-01	 1.596737e+00	-5.020327e+01
1	 1.916708e-01	 1.600327e+00	-5.036173e+01
1	 1.638685e-01	 1.603413e+00	-5.044897e+01
1	 1.361878e-01	 1.606001e+00	-5.046742e+01
1	 2.776982e-01	 1.599604e+00	-4.897498e+01
1	 2.493994e-01	 1.604259e+00	-4.926491e+01
1	 2.211856e-01	 1.608392e+00	-4.948082e+01
1	 1.930699e-01	 1.612009e+00	-4.962471e+01
1	 1.650646e-01	 1.615117e+00	-4.969875e+01
1	 1.371819e-01	 1.617723e+00	-4.970524e+01
1	 2.797106e-01	 1.611195e+00	-4.822112e+01
1	 2.512066e-01	 1.615884e+00	-4.849227e+01
1	 2.227884e-01	 1.620047e+00	-4.869142e+01
1	 1.944689e-01	 1.623690e+00	-4.882038e+01
1	 1.662607e-01	 1.626820e+00	-4.888109e+01
1	 1.381759e-01	 1.629446e+00	-4.887564e+01
1	 2.817229e-01	 1.622786e+00	-4.740176e+01
1	 2.530139e-01	 1.627509e+00	-4.765316e+01
1	 2.243912e-01	 1.631702e+00	-4.783493e+01
1	 1.958680e-01	 1.635371e+00	-4.794861e+01
1	 1.674568e-01	 1.638524e+00	-4.799587e+01
1	 1.391700e-01	 1.641169e+00	-4.797856e+01
1	 1.341996e-01	 1.582555e+00	-5.178986e+01
1	 1.070544e-01	 1.584623e+00	-5.176466e+01
1	 8.005140e-02	 1.586217e+00	-5.167512e+01
1	 5.320132e-02	 1.587344e+00	-5.152381e+01
1	 2.651427e-02	 1.588014e+00	-5.131335e+01
1	 0.000000e+00	 1.588235e+00	-5.104639e+01
1	 1.351937e-01	 1.594278e+00	-5.116227e+01
1	 1.078474e-01	 1.596361e+00	-5.112610e+01
1	 8.064437e-02	 1.597966e+00	-5.102661e+01
1	 5.359540e-02	 1.599102e+00	-5.086647e+01
1	 2.671068e-02	 1.599777e+00	-5.064841e+01
1	 0.000000e+00	 1.600000e+00	-5.037520e+01
1	 1.361878e-01	 1.606001e+00	-5.046742e+01
1	 1.086404e-01	 1.608099e+00	-5.042034e+01
1	 8.123735e-02	 1.609716e+00	-5.031109e+01
1	 5.398948e-02	 1.610860e+00	-5.014244e+01
1	 2.690708e-02	 1.611540e+00	-4.991719e+01
1	 0.000000e+00	 1.611765e+00	-4.963823e+01
1	 1.371819e-01	 1.617723e+00	-4.970524e+01
1	 1.094334e-01	 1.619837e+00	-4.964735e+01
1	 8.183032e-02	 1.621466e+00	-4.952856e+01
1	 5.438357e-02	 1.622618e+00	-4.935169e+01
1	 2.710348e-02	 1.623303e+00	-4.911965e+01
1	 0.000000e+00	 1.623529e+00	-4.883537e+01
1	 1.381759e-01	 1.629446e+00	-4.887564e+01
1	 1.102263e-01	 1.631575e+00	-4.880710e+01
1	 8.242329e-02	 1.633216e+00	-4.867898e+01
1	 5.477765e-02	 1.634376e+00	-4.849420e+01
1	 2.729988e-02	 1.635066e+00	-4.825572e+01
1	 0.000000e+00	 1.635294e+00	-4.796653e+01
1	 1.391700e-01	 1.641169e+00	-4.797856e+01
1	 1.110193e-01	 1.643313e+00	-4.789953e+01
1	 8.301627e-02	 1.644965e+00	-4.776234e+01
1	 5.517174e-02	 1.646135e+00	-4.756994e+01
1	 2.749628e-02	 1.646829e+00	-4.732535e+01
1	 0.000000e+00	 1.647059e+00	-4.703160e+01
1	 1.647059e+00	 0.000000e+00	 1.342521e+01
1	 1.646829e+00	 2.749628e-02	 1.343870e+01
1	 1.646135e+00	 5.517174e-02	 1.342015e+01
1	 1.644965e+00	 8.301627e-02	 1.336833e+01
1	 1.643313e+00	 1.110193e-01	 1.328234e+01
1	 1.641169e+00	 1.391700e-01	 1.316165e+01
1	 1.658824e+00	 0.000000e+00	 1.303085e+01
1	 1.658592e+00	 2.769269e-02	 1.302670e+01
1	 1.657893e+00	 5.556582e-02	 1.299314e+01
1	 1.656715e+00	 8.360924e-02	 1.292898e+01
1	 1.655051e+00	 1.118123e-01	 1.283334e+01
1	 1.652891e+00	 1.401641e-01	 1.270566e+01
1	 1.670588e+00	 0.000000e+00	 1.262986e+01
1	 1.670355e+00	 2.788909e-02	 1.260840e+01
1	 1.669651e+00	 5.595990e-02	 1.256024e+01
1	 1.668465e+00	 8.420221e-02	 1.248422e+01
1	 1.666789e+00	 1.126053e-01	 1.237943e+01
1	 1.664614e+00	 1.411581e-01	 1.224530e+01
1	 1.682353e+00	 0.000000e+00	 1.222221e+01
1	 1.682118e+00	 2.808549e-02	 1.218383e+01
1	 1.681409e+00	 5.635399e-02	 1.212153e+01
1	 1.680215e+00	 8.479519e-02	 1.203414e+01
1	 1.678527e+00	 1.133983e-01	 1.192076e+01
1	 1.676337e+00	 1.421522e-01	 1.178077e+01
1	 1.694118e+00	 0.000000e+00	 1.180790e+01
1	 1.693882e+00	 2.828189e-02	 1.175302e+01
1	 1.693167e+00	 5.674807e-02	 1.167707e+01
1	 1.691964e+00	 8.538816e-02	 1.157887e+01
1	 1.690265e+00	 1.141913e-01	 1.145749e+01
1	 1.688059e+00	 1.431463e-01	 1.131228e+01
1	 1.705882e+00	 0.000000e+00	 1.138690e+01
1	 1.705645e+00	 2.847829e-02	 1.131600e+01
1	 1.704925e+00	 5.714215e-02	 1.122693e+01
1	 1.703714e+00	 8.598113e-02	 1.111851e+01
1	 1.702003e+00	 1.149843e-01	 1.098978e+01
1	 1.699782e+00	 1.441403e-01	 1.084002e+01
1	 1.641169e+00	 1.391700e-01	 1.316165e+01
1	 1.638524e+00	 1.674568e-01	 1.300284e+01
1	 1.635371e+00	 1.958680e-01	 1.280294e+01
1	 1.631702e+00	 2.243912e-01	 1.256271e+01
1	 1.627509e+00	 2.530139e-01	 1.228336e+01
1	 1.622786e+00	 2.817229e-01	 1.196658e+01
1	 1.652891e+00	 1.401641e-01	 1.270566e+01
1	 1.650228e+00	 1.686529e-01	 1.254265e+01
1	 1.647052e+00	 1.972670e-01	 1.234152e+01
1	 1.643357e+00	 2.259940e-01	 1.210308e+01
1	 1.639134e+00	 2.548211e-01	 1.182860e+01
1	 1.634378e+00	 2.837352e-01	 1.151983e+01
1	 1.664614e+00	 1.411581e-01	 1.224530e+01
1	 1.661932e+00	 1.698491e-01	 1.207869e+01
1	 1.658734e+00	 1.986661e-01	 1.187702e+01
1	 1.655012e+00	 2.275968e-01	 1.164110e+01
1	 1.650760e+00	 2.566284e-01	 1.137223e+01
1	 1.645969e+00	 2.857475e-01	 1.107216e+01
1	 1.676337e+00	 1.421522e-01	 1.178077e+01
1	 1.673635e+00	 1.710452e-01	 1.161121e+01
1	 1.670415e+00	 2.000651e-01	 1.140970e+01
1	 1.666667e+00	 2.291996e-01	 1.117704e+01
1	 1.662385e+00	 2.584356e-01	 1.091451e+01
1	 1.657560e+00	 2.877598e-01	 1.062383e+01
1	 1.688059e+00	 1.431463e-01	 1.131228e+01
1	 1.685339e+00	 1.722413e-01	 1.114045e+01
1	 1.682096e+00	 2.014642e-01	 1.093983e+01
1	 1.678322e+00	 2.308024e-01	 1.071118e+01
1	 1.674010e+00	 2.602428e-01	 1.045572e+01
1	 1.669152e+00	 2.897721e-01	 1.017509e+01
1	 1.699782e+00	 1.441403e-01	 1.084002e+01
1	 1.697043e+00	 1.734374e-01	 1.066664e+01
1	 1.693777e+00	 2.028633e-01	 1.046767e+01
1	 1.689977e+00	 2.324052e-01	 1.024379e+01
1	 1.685635e+00	 2.620501e-01	 9.996121e+00
1	 1.680743e+00	 2.917844e-01	 9.726194e+00
1	 1.622786e+00	 2.817229e-01	 1.196658e+01
1	 1.617526e+00	 3.105047e-01	 1.160505e+01
1	 1.611722e+00	 3.393456e-01	 1.119121e+01
1	 1.605369e+00	 3.682313e-01	 1.072704e+01
1	 1.598461e+00	 3.971472e-01	 1.021488e+01
1	 1.590993e+00	 4.260784e-01	 9.657482e+00
1	 1.634378e+00	 2.837352e-01	 1.151983e+01
1	 1.629080e+00	 3.127226e-01	 1.116903e+01
1	 1.623234e+00	 3.417695e-01	 1.076809e+01
1	 1.616836e+00	 3.708615e-01	 1.031884e+01
1	 1.609878e+00	 3.999839e-01	 9.823442e+00
1	 1.602358e+00	 4.291218e-01	 9.284444e+00
1	 1.645969e+00	 2.857475e-01	 1.107216e+01
1	 1.640633e+00	 3.149405e-01	 1.073272e+01
1	 1.634746e+00	 3.441934e-01	 1.034529e+01
1	 1.628302e+00	 3.734917e-01	 9.911549e+00
1	 1.621296e+00	 4.028207e-01	 9.433545e+00
1	 1.613722e+00	 4.321652e-01	 8.913677e+00
1	 1.657560e+00	 2.877598e-01	 1.062383e+01
1	 1.652187e+00	 3.171584e-01	 1.029636e+01
1	 1.646259e+00	 3.466173e-01	 9.922986e+00
1	 1.639769e+00	 3.761219e-01	 9.505311e+00
1	 1.632714e+00	 4.056575e-01	 9.045286e+00
1	 1.625086e+00	 4.352086e-01	 8.545204e+00
1	 1.669152e+00	 2.897721e-01	 1.017509e+01
1	 1.663741e+00	 3.193763e-01	 9.860171e+00
1	 1.657771e+00	 3.490412e-01	 9.501375e+00
1	 1.651236e+00	 3.787522e-01	 9.100270e+00
1	 1.644131e+00	 4.084942e-01	 8.658753e+00
1	 1.636450e+00	 4.382520e-01	 8.179051e+00
1	 1.680743e+00	 2.917844e-01	 9.726194e+00
1	 1.675295e+00	 3.215942e-01	 9.424367e+00
1	 1.669283e+00	 3.514651e-01	 9.080637e+00
1	 1.662703e+00	 3.813824e-01	 8.696565e+00
1	 1.655549e+00	 4.113310e-01	 8.274032e+00
1	 1.647815e+00	 4.412955e-01	 7.815242e+00
1	 1.590993e+00	 4.260784e-01	 9.657482e+00
1	 1.582962e+00	 4.550097e-01	 9.014586e+00
1	 1.574363e+00	 4.839255e-01	 8.248256e+00
1	 1.565193e+00	 5.128102e-01	 7.365461e+00
1	 1.555449e+00	 5.416475e-01	 6.373852e+00
1	 1.545129e+00	 5.704211e-01	 5.281744e+00
1	 1.602358e+00	 4.291218e-01	 9.284444e+00
1	 1.594269e+00	 4.582598e-01	 8.661972e+00
1	 1.585608e+00	 4.873822e-01	 7.918812e+00
1	 1.576373e+00	 5.164731e-01	 7.062328e+00
1	 1.566559e+00	 5.455164e-01	 6.100610e+00
1	 1.556165e+00	 5.744956e-01	 5.042467e+00
1	 1.613722e+00	 4.321652e-01	 8.913677e+00
1	 1.605576e+00	 4.615098e-01	 8.312583e+00
1	 1.596854e+00	 4.908388e-01	 7.593847e+00
1	 1.587553e+00	 5.201360e-01	 6.765140e+00
1	 1.577669e+00	 5.493853e-01	 5.834907e+00
1	 1.567202e+00	 5.785700e-01	 4.812356e+00
1	 1.625086e+00	 4.352086e-01	 8.545204e+00
1	 1.616883e+00	 4.647599e-01	 7.966366e+00
1	 1.608099e+00	 4.942954e-01	 7.273217e+00
1	 1.598733e+00	 5.237989e-01	 6.473651e+00
1	 1.588780e+00	 5.532542e-01	 5.576381e+00
1	 1.578239e+00	 5.826445e-01	 4.590929e+00
1	 1.636450e+00	 4.382520e-01	 8.179051e+00
1	 1.628190e+00	 4.680100e-01	 7.623269e+00
1	 1.619345e+00	 4.977520e-01	 6.956778e+00
1	 1.609913e+00	 5.274619e-01	 6.187617e+00
1	 1.599890e+00	 5.571231e-01	 5.324683e+00
1	 1.589275e+00	 5.867189e-01	 4.377718e+00
1	 1.647815e+00	 4.412955e-01	 7.815242e+00
1	 1.639496e+00	 4.712600e-01	 7.283241e+00
1	 1.630590e+00	 5.012086e-01	 6.644395e+00
1	 1.621093e+00	 5.311248e-01	 5.906806e+00
1	 1.611000e+00	 5.609920e-01	 5.079469e+00
1	 1.600312e+00	 5.907933e-01	 4.172267e+00
1	 1.545129e+00	 5.704211e-01	 5.281744e+00
1	 1.534231e+00	 5.991147e-01	 4.128358e+00
1	 1.522754e+00	 6.277115e-01	 2.950006e+00
1	 1.510699e+00	 6.561946e-01	 1.751012e+00
1	 1.498065e+00	 6.845470e-01	 5.355147e-01
1	 1.484853e+00	 7.127518e-01	-6.925478e-01
1	 1.556165e+00	 5.744956e-01	 5.042467e+00
1	 1.545190e+00	 6.033941e-01	 3.925806e+00
1	 1.533631e+00	 6.321951e-01	 2.785040e+00
1	 1.521490e+00	 6.608817e-01	 1.624104e+00
1	 1.508765e+00	 6.894367e-01	 4.466917e-01
1	 1.495459e+00	 7.178429e-01	-7.437601e-01
1	 1.567202e+00	 5.785700e-01	 4.812356e+00
1	 1.556148e+00	 6.076735e-01	 3.733793e+00
1	 1.544508e+00	 6.366788e-01	 2.631550e+00
1	 1.532280e+00	 6.655688e-01	 1.509239e+00
1	 1.519466e+00	 6.943263e-01	 3.701892e-01
1	 1.506065e+00	 7.229340e-01	-7.825774e-01
1	 1.578239e+00	 5.826445e-01	 4.590929e+00
1	 1.567107e+00	 6.119529e-01	 3.551737e+00
1	 1.555385e+00	 6.411624e-01	 2.488896e+00
1	 1.543071e+00	 6.702559e-01	 1.405767e+00
1	 1.530166e+00	 6.992159e-01	 3.053865e-01
1	 1.516671e+00	 7.280250e-01	-8.095498e-01
1	 1.589275e+00	 5.867189e-01	 4.377718e+00
1	 1.578066e+00	 6.162323e-01	 3.379071e+00
1	 1.566262e+00	 6.456461e-01	 2.356460e+00
1	 1.553862e+00	 6.749430e-01	 1.313055e+00
1	 1.540867e+00	 7.041055e-01	 2.516800e-01
1	 1.527277e+00	 7.331161e-01	-8.252123e-01
1	 1.600312e+00	 5.907933e-01	 4.172267e+00
1	 1.589025e+00	 6.205117e-01	 3.215245e+00
1	 1.577139e+00	 6.501297e-01	 2.233636e+00
1	 1.564653e+00	 6.796301e-01	 1.230488e+00
1	 1.551567e+00	 7.089951e-01	 2.084829e-01
1	 1.537883e+00	 7.382072e-01	-8.300850e-01
1	 1.484853e+00	 7.127518e-01	-6.925478e-01
1	 1.471064e+00	 7.407917e-01	-1.898451e+00
1	 1.456702e+00	 7.686495e-01	-3.051847e+00
1	 1.441768e+00	 7.963081e-01	-4.156154e+00
1	 1.426267e+00	 8.237503e-01	-5.215612e+00
1	 1.410203e+00	 8.509590e-01	-6.235278e+00
1	 1.495459e+00	 7.178429e-01	-7.437601e-01
1	 1.481572e+00	 7.460830e-01	-1.913931e+00
1	 1.467107e+00	 7.741399e-01	-3.034411e+00
1	 1.452067e+00	 8.019960e-01	-4.108448e+00
1	 1.436455e+00	 8.296342e-01	-5.140109e+00
1	 1.420276e+00	 8.570373e-01	-6.134265e+00
1	 1.506065e+00	 7.229340e-01	-7.825774e-01
1	 1.492080e+00	 7.513744e-01	-1.916957e+00
1	 1.477512e+00	 7.796302e-01	-3.004381e+00
1	 1.462365e+00	 8.076839e-01	-4.047982e+00
1	 1.446642e+00	 8.355182e-01	-5.051703e+00
1	 1.430348e+00	 8.631155e-01	-6.020293e+00
1	 1.516671e+00	 7.280250e-01	-8.095498e-01
1	 1.502587e+00	 7.566658e-01	-1.908001e+00
1	 1.487917e+00	 7.851206e-01	-2.962180e+00
1	 1.472663e+00	 8.133719e-01	-3.975148e+00
1	 1.456830e+00	 8.414021e-01	-4.950782e+00
1	 1.440421e+00	 8.691938e-01	-5.893767e+00
1	 1.527277e+00	 7.331161e-01	-8.252123e-01
1	 1.513095e+00	 7.619571e-01	-1.887524e+00
1	 1.498322e+00	 7.906109e-01	-2.908216e+00
1	 1.482962e+00	 8.190598e-01	-3.890329e+00
1	 1.467018e+00	 8.472860e-01	-4.837725e+00
1	 1.450494e+00	 8.752721e-01	-5.755083e+00
1	 1.537883e+00	 7.382072e-01	-8.300850e-01
1	 1.523602e+00	 7.672485e-01	-1.855972e+00
1	 1.508727e+00	 7.961013e-01	-2.842888e+00
1	 1.493260e+00	 8.247477e-01	-3.793896e+00
1	 1.477205e+00	 8.531700e-01	-4.712899e+00
1	 1.460567e+00	 8.813504e-01	-5.604625e+00
1	 1.410203e+00	 8.509590e-01	-6.235278e+00
1	 1.393580e+00	 8.779171e-01	-7.191216e+00
1	 1.376404e+00	 9.046078e-01	-8.060956e+00
1	 1.358681e+00	 9.310143e-01	-8.852947e+00
1	 1.340419e+00	 9.571200e-01	-9.576390e+00
1	 1.321625e+00	 9.829087e-01	-1.024121e+01
1	 1.420276e+00	 8.570373e-01	-6.134265e+00
1	 1.403534e+00	 8.841879e-01	-7.066543e+00
1	 1.386235e+00	 9.110693e-01	-7.913920e+00
1	 1.368386e+00	 9.376644e-01	-8.684453e+00
1	 1.349994e+00	 9.639566e-01	-9.386909e+00
1	 1.331065e+00	 9.899295e-01	-1.003073e+01
1	 1.430348e+00	 8.631155e-01	-6.020293e+00
1	 1.413488e+00	 8.904588e-01	-6.928867e+00
1	 1.396067e+00	 9.175308e-01	-7.753681e+00
1	 1.378091e+00	 9.443145e-01	-8.502303e+00
1	 1.359568e+00	 9.707932e-01	-9.182958e+00
1	 1.340506e+00	 9.969502e-01	-9.804497e+00
1	 1.440421e+00	 8.691938e-01	-5.893767e+00
1	 1.423442e+00	 8.967296e-01	-6.778605e+00
1	 1.405898e+00	 9.239922e-01	-7.580623e+00
1	 1.387796e+00	 9.509646e-01	-8.306812e+00
1	 1.369143e+00	 9.776297e-01	-8.964752e+00
1	 1.349946e+00	 1.003971e+00	-9.562590e+00
1	 1.450494e+00	 8.752721e-01	-5.755083e+00
1	 1.433396e+00	 9.030005e-01	-6.616158e+00
1	 1.415730e+00	 9.304537e-01	-7.395122e+00
1	 1.397501e+00	 9.576147e-01	-8.098290e+00
1	 1.378717e+00	 9.844663e-01	-8.732502e+00
1	 1.359386e+00	 1.010992e+00	-9.305088e+00
1	 1.460567e+00	 8.813504e-01	-5.604625e+00
1	 1.443350e+00	 9.092713e-01	-6.441920e+00
1	 1.425561e+00	 9.369152e-01	-7.197540e+00
1	 1.407206e+00	 9.642648e-01	-7.877038e+00
1	 1.388291e+00	 9.913029e-01	-8.486411e+00
1	 1.368826e+00	 1.018013e+00	-9.032070e+00
1	 1.321625e+00	 9.829087e-01	-1.024121e+01
1	 1.302307e+00	 1.008364e+00	-1.082263e+01
1	 1.282475e+00	 1.033471e+00	-1.129085e+01
1	 1.262136e+00	 1.058213e+00	-1.164861e+01
1	 1.241303e+00	 1.082575e+00	-1.189840e+01
1	 1.219985e+00	 1.106544e+00	-1.204248e+01
1	 1.331065e+00	 9.899295e-01	-1.003073e+01
1	 1.311610e+00	 1.015567e+00	-1.058889e+01
1	 1.291635e+00	 1.040853e+00	-1.103049e+01
1	 1.271152e+00	 1.065772e+00	-1.135954e+01
1	 1.250169e+00	 1.090308e+00	-1.157997e+01
1	 1.228699e+00	 1.114448e+00	-1.169561e+01
1	 1.340506e+00	 9.969502e-01	-9.804497e+00
1	 1.320912e+00	 1.022769e+00	-1.033802e+01
1	 1.300796e+00	 1.048235e+00	-1.075199e+01
1	 1.280167e+00	 1.073330e+00	-1.105181e+01
1	 1.259036e+00	 1.098041e+00	-1.124296e+01
1	 1.237414e+00	 1.122351e+00	-1.133095e+01
1	 1.349946e+00	 1.003971e+00	-9.562590e+00
1	 1.330214e+00	 1.029972e+00	-1.006995e+01
1	 1.309956e+00	 1.055617e+00	-1.045523e+01
1	 1.289182e+00	 1.080889e+00	-1.072531e+01
1	 1.267902e+00	 1.105773e+00	-1.088728e+01
1	 1.246128e+00	 1.130255e+00	-1.094844e+01
1	 1.359386e+00	 1.010992e+00	-9.305088e+00
1	 1.339516e+00	 1.037175e+00	-9.784663e+00
1	 1.319117e+00	 1.062998e+00	-1.014012e+01
1	 1.298197e+00	 1.088447e+00	-1.037989e+01
1	 1.276769e+00	 1.113506e+00	-1.051280e+01
1	 1.254842e+00	 1.138159e+00	-1.054806e+01
1	 1.368826e+00	 1.018013e+00	-9.032070e+00
1	 1.348818e+00	 1.044377e+00	-9.482108e+00
1	 1.328277e+00	 1.070380e+00	-9.806541e+00
1	 1.307213e+00	 1.096006e+00	-1.001543e+01
1	 1.285635e+00	 1.121239e+00	-1.011944e+01
1	 1.263556e+00	 1.146063e+00	-1.012976e+01
1	 1.219985e+00	 1.106544e+00	-1.204248e+01
1	 1.198194e+00	 1.130103e+00	-1.216389e+01
1	 1.175942e+00	 1.153241e+00	-1.234355e+01
1	 1.153241e+00	 1.175942e+00	-1.258023e+01
1	 1.130103e+00	 1.198194e+00	-1.287256e+01
1	 1.106544e+00	 1.219985e+00	-1.321900e+01
1	 1.228699e+00	 1.114448e+00	-1.169561e+01
1	 1.206753e+00	 1.138176e+00	-1.179161e+01
1	 1.184341e+00	 1.161478e+00	-1.195018e+01
1	 1.161478e+00	 1.184341e+00	-1.217059e+01
1	 1.138176e+00	 1.206753e+00	-1.245192e+01
1	 1.114448e+00	 1.228699e+00	-1.279313e+01
1	 1.237414e+00	 1.122351e+00	-1.133095e+01
1	 1.215311e+00	 1.146248e+00	-1.140279e+01
1	 1.192741e+00	 1.169715e+00	-1.154169e+01
1	 1.169715e+00	 1.192741e+00	-1.174729e+01
1	 1.146248e+00	 1.215311e+00	-1.201908e+01
1	 1.122351e+00	 1.237414e+00	-1.235638e+01
1	 1.246128e+00	 1.130255e+00	-1.094844e+01
1	 1.223870e+00	 1.154320e+00	-1.099747e+01
1	 1.201141e+00	 1.177953e+00	-1.111812e+01
1	 1.177953e+00	 1.201141e+00	-1.131038e+01
1	 1.154320e+00	 1.223870e+00	-1.157402e+01
1	 1.130255e+00	 1.246128e+00	-1.190862e+01
1	 1.254842e+00	 1.138159e+00	-1.054806e+01
1	 1.232428e+00	 1.162392e+00	-1.057566e+01
1	 1.209540e+00	 1.186190e+00	-1.067953e+01
1	 1.186190e+00	 1.209540e+00	-1.085988e+01
1	 1.162392e+00	 1.232428e+00	-1.111670e+01
1	 1.138159e+00	 1.254842e+00	-1.144973e+01
1	 1.263556e+00	 1.146063e+00	-1.012976e+01
1	 1.240987e+00	 1.170464e+00	-1.013740e+01
1	 1.217940e+00	 1.194428e+00	-1.022597e+01
1	 1.194428e+00	 1.217940e+00	-1.039584e+01
1	 1.170464e+00	 1.240987e+00	-1.064710e+01
1	 1.146063e+00	 1.263556e+00	-1.097958e+01
1	 1.106544e+00	 1.219985e+00	-1.321900e+01
1	 1.082575e+00	 1.241303e+00	-1.368620e+01
1	 1.058213e+00	 1.262136e+00	-1.433668e+01
1	 1.033471e+00	 1.282475e+00	-1.516231e+01
1	 1.008364e+00	 1.302307e+00	-1.615458e+01
1	 9.829087e-01	 1.321625e+00	-1.730466e+01
1	 1.114448e+00	 1.228699e+00	-1.279313e+01
1	 1.090308e+00	 1.250169e+00	-1.326059e+01
1	 1.065772e+00	 1.271152e+00	-1.391499e+01
1	 1.040853e+00	 1.291635e+00	-1.474627e+01
1	 1.015567e+00	 1.311610e+00	-1.574381e+01
1	 9.899295e-01	 1.331065e+00	-1.689656e+01
1	 1.122351e+00	 1.237414e+00	-1.235638e+01
1	 1.098041e+00	 1.259036e+00	-1.282485e+01
1	 1.073330e+00	 1.280167e+00	-1.348308e+01
1	 1.048235e+00	 1.300796e+00	-1.431919e+01
1	 1.022769e+00	 1.320912e+00	-1.532064e+01
1	 9.969502e-01	 1.340506e+00	-1.647426e+01
1	 1.130255e+00	 1.246128e+00	-1.190862e+01
1	 1.105773e+00	 1.267902e+00	-1.237875e+01
1	 1.080889e+00	 1.289182e+00	-1.304069e+01
1	 1.055617e+00	 1.309956e+00	-1.388085e+01
1	 1.029972e+00	 1.330214e+00	-1.488487e+01
1	 1.003971e+00	 1.349946e+00	-1.603769e+01
1	 1.138159e+00	 1.254842e+00	-1.144973e+01
1	 1.113506e+00	 1.276769e+00	-1.192209e+01
1	 1.088447e+00	 1.298197e+00	-1.258756e+01
1	 1.062998e+00	 1.319117e+00	-1.343099e+01
1	 1.037175e+00	 1.339516e+00	-1.443635e+01
1	 1.010992e+00	 1.359386e+00	-1.558679e+01
1	 1.146063e+00	 1.263556e+00	-1.097958e+01
1	 1.121239e+00	 1.285635e+00	-1.145466e+01
1	 1.096006e+00	 1.307213e+00	-1.212345e+01
1	 1.070380e+00	 1.328277e+00	-1.296938e+01
1	 1.044377e+00	 1.348818e+00	-1.397490e+01
1	 1.018013e+00	 1.368826e+00	-1.512150e+01
1	 9.829087e-01	 1.321625e+00	-1.730466e+01
1	 9.571200e-01	 1.340419e+00	-1.857774e+01
1	 9.310143e-01	 1.358681e+00	-1.994129e+01
1	 9.046078e-01	 1.376404e+00	-2.138956e+01
1	 8.779171e-01	 1.393580e+00	-2.291668e+01
1	 8.509590e-01	 1.410203e+00	-2.451667e+01
1	 9.899295e-01	 1.331065e+00	-1.689656e+01
1	 9.639566e-01	 1.349994e+00	-1.816830e+01
1	 9.376644e-01	 1.368386e+00	-1.952724e+01
1	 9.110693e-01	 1.386235e+00	-2.096854e+01
1	 8.841879e-01	 1.403534e+00	-2.248731e+01
1	 8.570373e-01	 1.420276e+00	-2.407861e+01
1	 9.969502e-01	 1.340506e+00	-1.647426e+01
1	 9.707932e-01	 1.359568e+00	-1.774300e+01
1	 9.443145e-01	 1.378091e+00	-1.909613e+01
1	 9.175308e-01	 1.396067e+00	-2.052955e+01
1	 8.904588e-01	 1.413488e+00	-2.203918e+01
1	 8.631155e-01	 1.430348e+00	-2.362092e+01
1	 1.003971e+00	 1.349946e+00	-1.603769e+01
1	 9.776297e-01	 1.369143e+00	-1.730188e+01
1	 9.509646e-01	 1.387796e+00	-1.864804e+01
1	 9.239922e-01	 1.405898e+00	-2.007266e+01
1	 8.967296e-01	 1.423442e+00	-2.157229e+01
1	 8.691938e-01	 1.440421e+00	-2.314348e+01
1	 1.010992e+00	 1.359386e+00	-1.558679e+01
1	 9.844663e-01	 1.378717e+00	-1.684496e+01
1	 9.576147e-01	 1.397501e+00	-1.818303e+01
1	 9.304537e-01	 1.415730e+00	-1.959793e+01
1	 9.030005e-01	 1.433396e+00	-2.108662e+01
1	 8.752721e-01	 1.450494e+00	-2.264614e+01
1	 1.018013e+00	 1.368826e+00	-1.512150e+01
1	 9.913029e-01	 1.388291e+00	-1.637228e+01
1	 9.642648e-01	 1.407206e+00	-1.770119e+01
1	 9.369152e-01	 1.425561e+00	-1.910540e+01
1	 9.092713e-01	 1.443350e+00	-2.058216e+01
1	 8.813504e-01	 1.460567e+00	-2.212880e+01
1	 8.509590e-01	 1.410203e+00	-2.451667e+01
1	 8.237503e-01	 1.426267e+00	-2.616218e+01
1	 7.963081e-01	 1.441768e+00	-2.782385e+01
1	 7.686495e-01	 1.456702e+00	-2.949244e+01
1	 7.407917e-01	 1.471064e+00	-3.115841e+01
1	 7.127518e-01	 1.484853e+00	-3.281199e+01
1	 8.570373e-01	 1.420276e+00	-2.407861e+01
1	 8.296342e-01	 1.436455e+00	-2.571483e+01
1	 8.019960e-01	 1.452067e+00	-2.736548e+01
1	 7.741399e-01	 1.467107e+00	-2.902103e+01
1	 7.460830e-01	 1.481572e+00	-3.067164e+01
1	 7.178429e-01	 1.495459e+00	-3.230721e+01
1	 8.631155e-01	 1.430348e+00	-2.362092e+01
1	 8.355182e-01	 1.446642e+00	-2.524661e+01
1	 8.076839e-01	 1.462365e+00	-2.688453e+01
1	 7.796302e-01	 1.477512e+00	-2.852496e+01
1	 7.513744e-01	 1.492080e+00	-3.015786e+01
1	 7.229340e-01	 1.506065e+00	-3.177294e+01
1	 8.691938e-01	 1.440421e+00	-2.314348e+01
1	 8.414021e-01	 1.456830e+00	-2.475728e+01
1	 8.133719e-01	 1.472663e+00	-2.638067e+01
1	 7.851206e-01	 1.487917e+00	-2.800385e+01
1	 7.566658e-01	 1.502587e+00	-2.961670e+01
1	 7.280250e-01	 1.516671e+00	-3.120885e+01
1	 8.752721e-01	 1.450494e+00	-2.264614e+01
1	 8.472860e-01	 1.467018e+00	-2.424657e+01
1	 8.190598e-01	 1.482962e+00	-2.585357e+01
1	 7.906109e-01	 1.498322e+00	-2.745736e+01
1	 7.619571e-01	 1.513095e+00	-2.904783e+01
1	 7.331161e-01	 1.527277e+00	-3.061465e+01
1	 8.813504e-01	 1.460567e+00	-2.212880e+01
1	 8.531700e-01	 1.477205e+00	-2.371426e+01
1	 8.247477e-01	 1.493260e+00	-2.530293e+01
1	 7.961013e-01	 1.508727e+00	-2.688513e+01
1	 7.672485e-01	 1.523602e+00	-2.845090e+01
1	 7.382072e-01	 1.537883e+00	-2.999004e+01
1	 7.127518e-01	 1.484853e+00	-3.281199e+01
1	 6.845470e-01	 1.498065e+00	-3.442221e+01
1	 6.561946e-01	 1.510699e+00	-3.596056e+01
1	 6.277115e-01	 1.522754e+00	-3.742086e+01
1	 5.991147e-01	 1.534231e+00	-3.879707e+01
1	 5.704211e-01	 1.545129e+00	-4.008328e+01
1	 7.178429e-01	 1.495459e+00	-3.230721e+01
1	 6.894367e-01	 1.508765e+00	-3.389702e+01
1	 6.608817e-01	 1.521490e+00	-3.541325e+01
1	 6.321951e-01	 1.533631e+00	-3.685005e+01
1	 6.033941e-01	 1.545190e+00	-3.820171e+01
1	 5.744956e-01	 1.556165e+00	-3.946268e+01
1	 7.229340e-01	 1.506065e+00	-3.177294e+01
1	 6.943263e-01	 1.519466e+00	-3.333985e+01
1	 6.655688e-01	 1.532280e+00	-3.483147e+01
1	 6.366788e-01	 1.544508e+00	-3.624226e+01
1	 6.076735e-01	 1.556148e+00	-3.756679e+01
1	 5.785700e-01	 1.567202e+00	-3.879980e+01
1	 7.280250e-01	 1.516671e+00	-3.120885e+01
1	 6.992159e-01	 1.530166e+00	-3.275043e+01
1	 6.702559e-01	 1.543071e+00	-3.421499e+01
1	 6.411624e-01	 1.555385e+00	-3.559725e+01
1	 6.119529e-01	 1.567107e+00	-3.689203e+01
1	 5.826445e-01	 1.578239e+00	-3.809430e+01
1	 7.331161e-01	 1.527277e+00	-3.061465e+01
1	 7.041055e-01	 1.540867e+00	-3.212848e+01
1	 6.749430e-01	 1.553862e+00	-3.356355e+01
1	 6.456461e-01	 1.566262e+00	-3.491476e+01
1	 6.162323e-01	 1.578066e+00	-3.617714e+01
1	 5.867189e-01	 1.589275e+00	-3.734584e+01
1	 7.382072e-01	 1.537883e+00	-2.999004e+01
1	 7.089951e-01	 1.551567e+00	-3.147378e+01
1	 6.796301e-01	 1.564653e+00	-3.287693e+01
1	 6.501297e-01	 1.577139e+00	-3.419456e+01
1	 6.205117e-01	 1.589025e+00	-3.542185e+01
1	 5.907933e-01	 1.600312e+00	-3.655409e+01
1	 5.704211e-01	 1.545129e+00	-4.008328e+01
1	 5.416475e-01	 1.555449e+00	-4.126913e+01
1	 5.128102e-01	 1.565193e+00	-4.234797e+01
1	 4.839255e-01	 1.574363e+00	-4.331972e+01
1	 4.550097e-01	 1.582962e+00	-4.418452e+01
1	 4.260784e-01	 1.590993e+00	-4.494270e+01
1	 5.744956e-01	 1.556165e+00	-3.946268e+01
1	 5.455164e-01	 1.566559e+00	-4.062301e+01
1	 5.164731e-01	 1.576373e+00	-4.167614e+01
1	 4.873822e-01	 1.585608e+00	-4.262185e+01
1	 4.582598e-01	 1.594269e+00	-4.346011e+01
1	 4.291218e-01	 1.602358e+00	-4.419114e+01
1	 5.785700e-01	 1.567202e+00	-3.879980e+01
1	 5.493853e-01	 1.577669e+00	-3.993176e+01
1	 5.201360e-01	 1.587553e+00	-4.095631e+01
1	 4.908388e-01	 1.596854e+00	-4.187327e+01
1	 4.615098e-01	 1.605576e+00	-4.268268e+01
1	 4.321652e-01	 1.613722e+00	-4.338478e+01
1	 5.826445e-01	 1.578239e+00	-3.809430e+01
1	 5.532542e-01	 1.588780e+00	-3.919496e+01
1	 5.237989e-01	 1.598733e+00	-4.018806e+01
1	 4.942954e-01	 1.608099e+00	-4.107364e+01
1	 4.647599e-01	 1.616883e+00	-4.185194e+01
1	 4.352086e-01	 1.625086e+00	-4.252345e+01
1	 5.867189e-01	 1.589275e+00	-3.734584e+01
1	 5.571231e-01	 1.599890e+00	-3.841224e+01
1	 5.274619e-01	 1.609913e+00	-3.937101e+01
1	 4.977520e-01	 1.619345e+00	-4.022258e+01
1	 4.680100e-01	 1.628190e+00	-4.096760e+01
1	 4.382520e-01	 1.636450e+00	-4.160696e+01
1	 5.907933e-01	 1.600312e+00	-3.655409e+01
1	 5.609920e-01	 1.611000e+00	-3.758322e+01
1	 5.311248e-01	 1.621093e+00	-3.850478e+01
1	 5.012086e-01	 1.630590e+00	-3.931975e+01
1	 4.712600e-01	 1.639496e+00	-4.002937e+01
1	 4.412955e-01	 1.647815e+00	-4.063513e+01
1	 4.260784e-01	 1.590993e+00	-4.494270e+01
1	 3.971472e-01	 1.598461e+00	-4.560393e+01
1	 3.682313e-01	 1.605369e+00	-4.617861e+01
1	 3.393456e-01	 1.611722e+00	-4.666847e+01
1	 3.105047e-01	 1.617526e+00	-4.707547e+01
1	 2.817229e-01	 1.622786e+00	-4.740176e+01
1	 4.291218e-01	 1.602358e+00	-4.419114e+01
1	 3.999839e-01	 1.609878e+00	-4.482481e+01
1	 3.708615e-01	 1.616836e+00	-4.537223e+01
1	 3.417695e-01	 1.623234e+00	-4.583567e+01
1	 3.127226e-01	 1.629080e+00	-4.621765e+01
1	 2.837352e-01	 1.634378e+00	-4.652082e+01
1	 4.321652e-01	 1.613722e+00	-4.338478e+01
1	 4.028207e-01	 1.621296e+00	-4.398982e+01
1	 3.734917e-01	 1.628302e+00	-4.450941e+01
1	 3.441934e-01	 1.634746e+00	-4.494614e+01
1	 3.149405e-01	 1.640633e+00	-4.530280e+01
1	 2.857475e-01	 1.645969e+00	-4.558232e+01
1	 4.352086e-01	 1.625086e+00	-4.252345e+01
1	 4.056575e-01	 1.632714e+00	-4.309888e+01
1	 3.761219e-01	 1.639769e+00	-4.359014e+01
1	 3.466173e-01	 1.646259e+00	-4.399989e+01
1	 3.171584e-01	 1.652187e+00	-4.433094e+01
1	 2.877598e-01	 1.657560e+00	-4.458629e+01
1	 4.382520e-01	 1.636450e+00	-4.160696e+01
1	 4.084942e-01	 1.644131e+00	-4.215189e+01
1	 3.787522e-01	 1.651236e+00	-4.261439e+01
1	 3.490412e-01	 1.657771e+00	-4.299691e+01
1	 3.193763e-01	 1.663741e+00	-4.330208e+01
1	 2.897721e-01	 1.669152e+00	-4.353270e+01
1	 4.412955e-01	 1.647815e+00	-4.063513e+01
1	 4.113310e-01	 1.655549e+00	-4.114876e+01
1	 3.813824e-01	 1.662703e+00	-4.158212e+01
1	 3.514651e-01	 1.669283e+00	-4.193722e+01
1	 3.215942e-01	 1.675295e+00	-4.221625e+01
1	 2.917844e-01	 1.680743e+00	-4.242158e+01
1	 2.817229e-01	 1.622786e+00	-4.740176e+01
1	 2.530139e-01	 1.627509e+00	-4.765316e+01
1	 2.243912e-01	 1.631702e+00	-4.783493e+01
1	 1.958680e-01	 1.635371e+00	-4.794861e+01
1	 1.674568e-01	 1.638524e+00	-4.799587e+01
1	 1.391700e-01	 1.641169e+00	-4.797856e+01
1	 2.837352e-01	 1.634378e+00	-4.652082e+01
1	 2.548211e-01	 1.639134e+00	-4.675151e+01
1	 2.259940e-01	 1.643357e+00	-4.691497e+01
1	 1.972670e-01	 1.647052e+00	-4.701250e+01
1	 1.686529e-01	 1.650228e+00	-4.704558e+01
1	 1.401641e-01	 1.652891e+00	-4.701583e+01
1	 2.857475e-01	 1.645969e+00	-4.558232e+01
1	 2.566284e-01	 1.650760e+00	-4.579137e+01
1	 2.275968e-01	 1.655012e+00	-4.593527e+01
1	 1.986661e-01	 1.658734e+00	-4.601524e+01
1	 1.698491e-01	 1.661932e+00	-4.603272e+01
1	 1.411581e-01	 1.664614e+00	-4.598926e+01
1	 2.877598e-01	 1.657560e+00	-4.458629e+01
1	 2.584356e-01	 1.662385e+00	-4.477273e+01
1	 2.291996e-01	 1.666667e+00	-4.489578e+01
1	 2.000651e-01	 1.670415e+00	-4.495678e+01
1	 1.710452e-01	 1.673635e+00	-4.495721e+01
1	 1.421522e-01	 1.676337e+00	-4.489873e+01
1	 2.897721e-01	 1.669152e+00	-4.353270e+01
1	 2.602428e-01	 1.674010e+00	-4.369556e+01
1	 2.308024e-01	 1.678322e+00	-4.379649e+01
1	 2.014642e-01	 1.682096e+00	-4.383705e+01
1	 1.722413e-01	 1.685339e+00	-4.381897e+01
1	 1.431463e-01	 1.688059e+00	-4.374414e+01
1	 2.917844e-01	 1.680743e+00	-4.242158e+01
1	 2.620501e-01	 1.685635e+00	-4.255987e+01
1	 2.324052e-01	 1.689977e+00	-4.263736e+01
1	 2.028633e-01	 1.693777e+00	-4.265602e+01
1	 1.734374e-01	 1.697043e+00	-4.261794e+01
1	 1.441403e-01	 1.699782e+00	-4.252538e+01
1	 1.391700e-01	 1.641169e+00	-4.797856e+01
1	 1.110193e-01	 1.643313e+00	-4.789953e+01
1	 8.301627e-02	 1.644965e+00	-4.776234e+01
1	 5.517174e-02	 1.646135e+00	-4.756994e+01
1	 2.749628e-02	 1.646829e+00	-4.732535e+01
1	 0.000000e+00	 1.647059e+00	-4.703160e+01
1	 1.401641e-01	 1.652891e+00	-4.701583e+01
1	 1.118123e-01	 1.655051e+00	-4.692592e+01
1	 8.360924e-02	 1.656715e+00	-4.677938e+01
1	 5.556582e-02	 1.657893e+00	-4.657925e+01
1	 2.769269e-02	 1.658592e+00	-4.632860e+01
1	 0.000000e+00	 1.658824e+00	-4.603051e+01
1	 1.411581e-01	 1.664614e+00	-4.598926e+01
1	 1.126053e-01	 1.666789e+00	-4.588743e+01
1	 8.420221e-02	 1.668465e+00	-4.573076e+01
1	 5.595990e-02	 1.669651e+00	-4.552240e+01
1	 2.788909e-02	 1.670355e+00	-4.526551e+01
1	 0.000000e+00	 1.670588e+00	-4.496323e+01
1	 1.421522e-01	 1.676337e+00	-4.489873e+01
1	 1.133983e-01	 1.678527e+00	-4.478392e+01
1	 8.479519e-02	 1.680215e+00	-4.461634e+01
1	 5.635399e-02	 1.681409e+00	-4.439925e+01
1	 2.808549e-02	 1.682118e+00	-4.413595e+01
1	 0.000000e+00	 1.682353e+00	-4.382971e+01
1	 1.431463e-01	 1.688059e+00	-4.374414e+01
1	 1.141913e-01	 1.690265e+00	-4.361525e+01
1	 8.538816e-02	 1.691964e+00	-4.343594e+01
1	 5.674807e-02	 1.693167e+00	-4.320966e+01
1	 2.828189e-02	 1.693882e+00	-4.293984e+01
1	 0.000000e+00	 1.694118e+00	-4.262989e+01
1	 1.441403e-01	 1.699782e+00	-4.252538e+01
1	 1.149843e-01	 1.702003e+00	-4.238128e+01
1	 8.598113e-02	 1.703714e+00	-4.218945e+01
1	 5.714215e-02	 1.704925e+00	-4.195349e+01
1	 2.847829e-02	 1.705645e+00	-4.167705e+01
1	 0.000000e+00	 1.705882e+00	-4.136370e+01
1	 1.705882e+00	 0.000000e+00	 1.138690e+01
1	 1.705645e+00	 2.847829e-02	 1.131600e+01
1	 1.704925e+00	 5.714215e-02	 1.122693e+01
1	 1.703714e+00	 8.598113e-02	 1.111851e+01
1	 1.702003e+00	 1.149843e-01	 1.098978e+01
1	 1.699782e+00	 1.441403e-01	 1.084002e+01
1	 1.717647e+00	 0.000000e+00	 1.095932e+01
1	 1.717408e+00	 2.867470e-02	 1.087286e+01
1	 1.716683e+00	 5.753624e-02	 1.077114e+01
1	 1.715464e+00	 8.657411e-02	 1.065296e+01
1	 1.713741e+00	 1.157773e-01	 1.051735e+01
1	 1.711504e+00	 1.451344e-01	 1.036355e+01
1	 1.729412e+00	 0.000000e+00	 1.052532e+01
1	 1.729171e+00	 2.887110e-02	 1.042379e+01
1	 1.728441e+00	 5.793032e-02	 1.030981e+01
1	 1.727214e+00	 8.716708e-02	 1.018222e+01
1	 1.725479e+00	 1.165703e-01	 1.004006e+01
1	 1.723227e+00	 1.461285e-01	 9.882560e+00
1	 1.741176e+00	 0.000000e+00	 1.008500e+01
1	 1.740934e+00	 2.906750e-02	 9.968923e+00
1	 1.740199e+00	 5.832441e-02	 9.843135e+00
1	 1.738963e+00	 8.776005e-02	 9.706534e+00
1	 1.737217e+00	 1.173633e-01	 9.558209e+00
1	 1.734950e+00	 1.471226e-01	 9.397442e+00
1	 1.752941e+00	 0.000000e+00	 9.638449e+00
1	 1.752697e+00	 2.926390e-02	 9.508405e+00
1	 1.751957e+00	 5.871849e-02	 9.371302e+00
1	 1.750713e+00	 8.835303e-02	 9.226147e+00
1	 1.748955e+00	 1.181563e-01	 9.072114e+00
1	 1.746672e+00	 1.481166e-01	 8.908564e+00
1	 1.764706e+00	 0.000000e+00	 9.185771e+00
1	 1.764460e+00	 2.946030e-02	 9.042367e+00
1	 1.763716e+00	 5.911257e-02	 8.894494e+00
1	 1.762463e+00	 8.894600e-02	 8.741295e+00
1	 1.760692e+00	 1.189493e-01	 8.582069e+00
1	 1.758395e+00	 1.491107e-01	 8.416291e+00
1	 1.699782e+00	 1.441403e-01	 1.084002e+01
1	 1.697043e+00	 1.734374e-01	 1.066664e+01
1	 1.693777e+00	 2.028633e-01	 1.046767e+01
1	 1.689977e+00	 2.324052e-01	 1.024379e+01
1	 1.685635e+00	 2.620501e-01	 9.996121e+00
1	 1.680743e+00	 2.917844e-01	 9.726194e+00
1	 1.711504e+00	 1.451344e-01	 1.036355e+01
1	 1.708746e+00	 1.746335e-01	 1.018918e+01
1	 1.705458e+00	 2.042623e-01	 9.992471e+00
1	 1.701632e+00	 2.340080e-01	 9.774035e+00
1	 1.697260e+00	 2.638573e-01	 9.534874e+00
1	 1.692334e+00	 2.937967e-01	 9.276400e+00
1	 1.723227e+00	 1.461285e-01	 9.882560e+00
1	 1.720450e+00	 1.758297e-01	 9.707594e+00
1	 1.717140e+00	 2.056614e-01	 9.513605e+00
1	 1.713287e+00	 2.356108e-01	 9.301149e+00
1	 1.708885e+00	 2.656646e-01	 9.071142e+00
1	 1.703925e+00	 2.958090e-01	 8.824874e+00
1	 1.734950e+00	 1.471226e-01	 9.397442e+00
1	 1.732154e+00	 1.770258e-01	 9.222318e+00
1	 1.728821e+00	 2.070604e-01	 9.031495e+00
1	 1.724942e+00	 2.372136e-01	 8.825499e+00
1	 1.720510e+00	 2.674718e-01	 8.605176e+00
1	 1.715517e+00	 2.978213e-01	 8.371703e+00
1	 1.746672e+00	 1.481166e-01	 8.908564e+00
1	 1.743858e+00	 1.782219e-01	 8.733769e+00
1	 1.740502e+00	 2.084595e-01	 8.546554e+00
1	 1.736597e+00	 2.388164e-01	 8.347441e+00
1	 1.732135e+00	 2.692790e-01	 8.137223e+00
1	 1.727108e+00	 2.998336e-01	 7.916967e+00
1	 1.758395e+00	 1.491107e-01	 8.416291e+00
1	 1.755561e+00	 1.794180e-01	 8.242356e+00
1	 1.752183e+00	 2.098585e-01	 8.059185e+00
1	 1.748252e+00	 2.404192e-01	 7.867323e+00
1	 1.743760e+00	 2.710863e-01	 7.667522e+00
1	 1.738699e+00	 3.018459e-01	 7.460748e+00
1	 1.680743e+00	 2.917844e-01	 9.726194e+00
1	 1.675295e+00	 3.215942e-01	 9.424367e+00
1	 1.669283e+00	 3.514651e-01	 9.080637e+00
1	 1.662703e+00	 3.813824e-01	 8.696565e+00
1	 1.655549e+00	 4.113310e-01	 8.274032e+00
1	 1.647815e+00	 4.412955e-01	 7.815242e+00
1	 1.692334e+00	 2.937967e-01	 9.276400e+00
1	 1.686848e+00	 3.238121e-01	 8.988449e+00
1	 1.680796e+00	 3.538890e-01	 8.660585e+00
1	 1.674170e+00	 3.840126e-01	 8.294341e+00
1	 1.666966e+00	 4.141678e-01	 7.891564e+00
1	 1.659179e+00	 4.443389e-01	 7.454414e+00
1	 1.703925e+00	 2.958090e-01	 8.824874e+00
1	 1.698402e+00	 3.260300e-01	 8.551715e+00
1	 1.692308e+00	 3.563129e-01	 8.240779e+00
1	 1.685637e+00	 3.866428e-01	 7.893484e+00
1	 1.678384e+00	 4.170045e-01	 7.511565e+00
1	 1.670543e+00	 4.473823e-01	 7.097070e+00
1	 1.715517e+00	 2.978213e-01	 8.371703e+00
1	 1.709956e+00	 3.282478e-01	 8.114082e+00
1	 1.703820e+00	 3.587368e-01	 7.821022e+00
1	 1.697104e+00	 3.892731e-01	 7.493743e+00
1	 1.689801e+00	 4.198413e-01	 7.133787e+00
1	 1.681907e+00	 4.504257e-01	 6.743026e+00
1	 1.727108e+00	 2.998336e-01	 7.916967e+00
1	 1.721510e+00	 3.304657e-01	 7.675468e+00
1	 1.715333e+00	 3.611607e-01	 7.401125e+00
1	 1.708571e+00	 3.919033e-01	 7.094874e+00
1	 1.701219e+00	 4.226781e-01	 6.757992e+00
1	 1.693272e+00	 4.534691e-01	 6.392108e+00
1	 1.738699e+00	 3.018459e-01	 7.460748e+00
1	 1.733063e+00	 3.326836e-01	 7.235794e+00
1	 1.726845e+00	 3.635846e-01	 6.980900e+00
1	 1.720038e+00	 3.945335e-01	 6.696637e+00
1	 1.712637e+00	 4.255148e-01	 6.383944e+00
1	 1.704636e+00	 4.565125e-01	 6.044143e+00
1	 1.647815e+00	 4.412955e-01	 7.815242e+00
1	 1.639496e+00	 4.712600e-01	 7.283241e+00
1	 1.630590e+00	 5.012086e-01	 6.644395e+00
1	 1.621093e+00	 5.311248e-01	 5.906806e+00
1	 1.611000e+00	 5.609920e-01	 5.079469e+00
1	 1.600312e+00	 5.907933e-01	 4.172267e+00
1	 1.659179e+00	 4.443389e-01	 7.454414e+00
1	 1.650803e+00	 4.745101e-01	 6.946979e+00
1	 1.641836e+00	 5.046652e-01	 6.336695e+00
1	 1.632272e+00	 5.347877e-01	 5.631684e+00
1	 1.622111e+00	 5.648609e-01	 4.840992e+00
1	 1.611348e+00	 5.948678e-01	 3.974579e+00
1	 1.670543e+00	 4.473823e-01	 7.097070e+00
1	 1.662110e+00	 4.777602e-01	 6.615134e+00
1	 1.653081e+00	 5.081218e-01	 6.034316e+00
1	 1.643452e+00	 5.384507e-01	 5.362751e+00
1	 1.633221e+00	 5.687298e-01	 4.609513e+00
1	 1.622385e+00	 5.989422e-01	 3.784608e+00
1	 1.681907e+00	 4.504257e-01	 6.743026e+00
1	 1.673417e+00	 4.810102e-01	 6.287588e+00
1	 1.664327e+00	 5.115784e-01	 5.737140e+00
1	 1.654632e+00	 5.421136e-01	 5.099823e+00
1	 1.644332e+00	 5.725987e-01	 4.384720e+00
1	 1.633422e+00	 6.030166e-01	 3.601845e+00
1	 1.693272e+00	 4.534691e-01	 6.392108e+00
1	 1.684724e+00	 4.842603e-01	 5.964229e+00
1	 1.675572e+00	 5.150350e-01	 5.445054e+00
1	 1.665812e+00	 5.457765e-01	 4.842723e+00
1	 1.655442e+00	 5.764677e-01	 4.166307e+00
1	 1.644458e+00	 6.070911e-01	 3.425798e+00
1	 1.704636e+00	 4.565125e-01	 6.044143e+00
1	 1.696031e+00	 4.875104e-01	 5.644945e+00
1	 1.686817e+00	 5.184917e-01	 5.157947e+00
1	 1.676992e+00	 5.494395e-01	 4.591279e+00
1	 1.666552e+00	 5.803366e-01	 3.953979e+00
1	 1.655495e+00	 6.111655e-01	 3.255984e+00
1	 1.600312e+00	 5.907933e-01	 4.172267e+00
1	 1.589025e+00	 6.205117e-01	 3.215245e+00
1	 1.577139e+00	 6.501297e-01	 2.233636e+00
1	 1.564653e+00	 6.796301e-01	 1.230488e+00
1	 1.551567e+00	 7.089951e-01	 2.084829e-01
1	 1.537883e+00	 7.382072e-01	-8.300850e-01
1	 1.611348e+00	 5.948678e-01	 3.974579e+00
1	 1.599984e+00	 6.247911e-01	 3.060027e+00
1	 1.588015e+00	 6.546134e-01	 2.119996e+00
1	 1.575443e+00	 6.843172e-01	 1.157462e+00
1	 1.562268e+00	 7.138848e-01	 1.750271e-01
1	 1.548489e+00	 7.432983e-01	-8.251000e-01
1	 1.622385e+00	 5.989422e-01	 3.784608e+00
1	 1.610942e+00	 6.290705e-01	 2.913070e+00
1	 1.598892e+00	 6.590971e-01	 2.014945e+00
1	 1.586234e+00	 6.890043e-01	 1.093173e+00
1	 1.572968e+00	 7.187744e-01	 1.503288e-01
1	 1.559095e+00	 7.483894e-01	-8.114004e-01
1	 1.633422e+00	 6.030166e-01	 3.601845e+00
1	 1.621901e+00	 6.333498e-01	 2.773670e+00
1	 1.609769e+00	 6.635807e-01	 1.917653e+00
1	 1.597025e+00	 6.936914e-01	 1.036734e+00
1	 1.583668e+00	 7.236640e-01	 1.335075e-01
1	 1.569701e+00	 7.534805e-01	-7.897951e-01
1	 1.644458e+00	 6.070911e-01	 3.425798e+00
1	 1.632860e+00	 6.376292e-01	 2.641147e+00
1	 1.620646e+00	 6.680644e-01	 1.827317e+00
1	 1.607815e+00	 6.983785e-01	 9.872825e-01
1	 1.594369e+00	 7.285536e-01	 1.237068e-01
1	 1.580308e+00	 7.585715e-01	-7.610712e-01
1	 1.655495e+00	 6.111655e-01	 3.255984e+00
1	 1.643819e+00	 6.419086e-01	 2.514834e+00
1	 1.631523e+00	 6.725480e-01	 1.743152e+00
1	 1.618606e+00	 7.030656e-01	 9.439774e-01
1	 1.605069e+00	 7.334433e-01	 1.200926e-01
1	 1.590914e+00	 7.636626e-01	-7.259948e-01
1	 1.537883e+00	 7.382072e-01	-8.300850e-01
1	 1.523602e+00	 7.672485e-01	-1.855972e+00
1	 1.508727e+00	 7.961013e-01	-2.842888e+00
1	 1.493260e+00	 8.247477e-01	-3.793896e+00
1	 1.477205e+00	 8.531700e-01	-4.712899e+00
1	 1.460567e+00	 8.813504e-01	-5.604625e+00
1	 1.548489e+00	 7.432983e-01	-8.251000e-01
1	 1.534110e+00	 7.725399e-01	-1.814471e+00
1	 1.519132e+00	 8.015916e-01	-2.767550e+00
1	 1.503558e+00	 8.304356e-01	-3.687435e+00
1	 1.487393e+00	 8.590539e-01	-4.578081e+00
1	 1.470640e+00	 8.874287e-01	-5.444287e+00
1	 1.559095e+00	 7.483894e-01	-8.114004e-01
1	 1.544618e+00	 7.778313e-01	-1.764336e+00
1	 1.529537e+00	 8.070820e-01	-2.683705e+00
1	 1.513857e+00	 8.361235e-01	-3.572622e+00
1	 1.497581e+00	 8.649378e-01	-4.435073e+00
1	 1.480713e+00	 8.935069e-01	-5.275901e+00
1	 1.569701e+00	 7.534805e-01	-7.897951e-01
1	 1.555125e+00	 7.831226e-01	-1.706272e+00
1	 1.539942e+00	 8.125723e-01	-2.591953e+00
1	 1.524155e+00	 8.418114e-01	-3.449951e+00
1	 1.507768e+00	 8.708218e-01	-4.284260e+00
1	 1.490786e+00	 8.995852e-01	-5.099748e+00
1	 1.580308e+00	 7.585715e-01	-7.610712e-01
1	 1.565633e+00	 7.884140e-01	-1.640963e+00
1	 1.550347e+00	 8.180627e-01	-2.492878e+00
1	 1.534454e+00	 8.474994e-01	-3.319902e+00
1	 1.517956e+00	 8.767057e-01	-4.126019e+00
1	 1.500859e+00	 9.056635e-01	-4.916100e+00
1	 1.590914e+00	 7.636626e-01	-7.259948e-01
1	 1.576140e+00	 7.937054e-01	-1.569077e+00
1	 1.560752e+00	 8.235531e-01	-2.387046e+00
1	 1.544752e+00	 8.531873e-01	-3.182942e+00
1	 1.528143e+00	 8.825896e-01	-3.960716e+00
1	 1.510931e+00	 9.117418e-01	-4.725221e+00
1	 1.460567e+00	 8.813504e-01	-5.604625e+00
1	 1.443350e+00	 9.092713e-01	-6.441920e+00
1	 1.425561e+00	 9.369152e-01	-7.197540e+00
1	 1.407206e+00	 9.642648e-01	-7.877038e+00
1	 1.388291e+00	 9.913029e-01	-8.486411e+00
1	 1.368826e+00	 1.018013e+00	-9.032070e+00
1	 1.470640e+00	 8.874287e-01	-5.444287e+00
1	 1.453305e+00	 9.155421e-01	-6.257780e+00
1	 1.435393e+00	 9.433767e-01	-6.989670e+00
1	 1.416911e+00	 9.709149e-01	-7.644733e+00
1	 1.397866e+00	 9.981394e-01	-8.228105e+00
1	 1.378266e+00	 1.025033e+00	-8.745263e+00
1	 1.480713e+00	 8.935069e-01	-5.275901e+00
1	 1.463259e+00	 9.218130e-01	-6.065504e+00
1	 1.445224e+00	 9.498382e-01	-6.773174e+00
1	 1.426615e+00	 9.775650e-01	-7.402962e+00
1	 1.407440e+00	 1.004976e+00	-7.959213e+00
1	 1.387707e+00	 1.032054e+00	-8.446542e+00
1	 1.490786e+00	 8.995852e-01	-5.099748e+00
1	 1.473213e+00	 9.280838e-01	-5.865287e+00
1	 1.455055e+00	 9.562997e-01	-6.548205e+00
1	 1.436320e+00	 9.842151e-01	-7.151885e+00
1	 1.417015e+00	 1.011813e+00	-7.679938e+00
1	 1.397147e+00	 1.039075e+00	-8.136194e+00
1	 1.500859e+00	 9.056635e-01	-4.916100e+00
1	 1.483167e+00	 9.343546e-01	-5.657320e+00
1	 1.464887e+00	 9.627611e-01	-6.314915e+00
1	 1.446025e+00	 9.908652e-01	-6.891653e+00
1	 1.426589e+00	 1.018649e+00	-7.390478e+00
1	 1.406587e+00	 1.046096e+00	-7.814500e+00
1	 1.510931e+00	 9.117418e-01	-4.725221e+00
1	 1.493121e+00	 9.406255e-01	-5.441786e+00
1	 1.474718e+00	 9.692226e-01	-6.073451e+00
1	 1.455730e+00	 9.975153e-01	-6.622418e+00
1	 1.436164e+00	 1.025486e+00	-7.091023e+00
1	 1.416027e+00	 1.053116e+00	-7.481733e+00
1	 1.368826e+00	 1.018013e+00	-9.032070e+00
1	 1.348818e+00	 1.044377e+00	-9.482108e+00
1	 1.328277e+00	 1.070380e+00	-9.806541e+00
1	 1.307213e+00	 1.096006e+00	-1.001543e+01
1	 1.285635e+00	 1.121239e+00	-1.011944e+01
1	 1.263556e+00	 1.146063e+00	-1.012976e+01
1	 1.378266e+00	 1.025033e+00	-8.745263e+00
1	 1.358121e+00	 1.051580e+00	-9.164369e+00
1	 1.337438e+00	 1.077762e+00	-9.457156e+00
1	 1.316228e+00	 1.103565e+00	-9.635319e+00
1	 1.294502e+00	 1.128972e+00	-9.711335e+00
1	 1.272270e+00	 1.153967e+00	-9.698412e+00
1	 1.387707e+00	 1.032054e+00	-8.446542e+00
1	 1.367423e+00	 1.058782e+00	-8.833804e+00
1	 1.346598e+00	 1.085144e+00	-9.094972e+00
1	 1.325243e+00	 1.111123e+00	-9.243284e+00
1	 1.303368e+00	 1.136704e+00	-9.292942e+00
1	 1.280984e+00	 1.161871e+00	-9.259052e+00
1	 1.397147e+00	 1.039075e+00	-8.136194e+00
1	 1.376725e+00	 1.065985e+00	-8.490783e+00
1	 1.355759e+00	 1.092526e+00	-8.720392e+00
1	 1.334259e+00	 1.118682e+00	-8.839718e+00
1	 1.312235e+00	 1.144437e+00	-8.864593e+00
1	 1.289699e+00	 1.169775e+00	-8.811918e+00
1	 1.406587e+00	 1.046096e+00	-7.814500e+00
1	 1.386027e+00	 1.073188e+00	-8.135666e+00
1	 1.364919e+00	 1.099908e+00	-8.333807e+00
1	 1.343274e+00	 1.126241e+00	-8.424999e+00
1	 1.321101e+00	 1.152170e+00	-8.426612e+00
1	 1.298413e+00	 1.177679e+00	-8.357237e+00
1	 1.416027e+00	 1.053116e+00	-7.481733e+00
1	 1.395329e+00	 1.080390e+00	-7.768800e+00
1	 1.374080e+00	 1.107290e+00	-7.935599e+00
1	 1.352289e+00	 1.133799e+00	-7.999498e+00
1	 1.329968e+00	 1.159902e+00	-7.979313e+00
1	 1.307127e+00	 1.185583e+00	-7.895230e+00
1	 1.263556e+00	 1.146063e+00	-1.012976e+01
1	 1.240987e+00	 1.170464e+00	-1.013740e+01
1	 1.217940e+00	 1.194428e+00	-1.022597e+01
1	 1.194428e+00	 1.217940e+00	-1.039584e+01
1	 1.170464e+00	 1.240987e+00	-1.064710e+01
1	 1.146063e+00	 1.263556e+00	-1.097958e+01
1	 1.272270e+00	 1.153967e+00	-9.698412e+00
1	 1.249545e+00	 1.178536e+00	-9.688064e+00
1	 1.226339e+00	 1.202665e+00	-9.763107e+00
1	 1.202665e+00	 1.226339e+00	-9.923994e+00
1	 1.178536e+00	 1.249545e+00	-1.017087e+01
1	 1.153967e+00	 1.272270e+00	-1.050355e+01
1	 1.280984e+00	 1.161871e+00	-9.259052e+00
1	 1.258104e+00	 1.186609e+00	-9.233103e+00
1	 1.234739e+00	 1.210903e+00	-9.296592e+00
1	 1.210903e+00	 1.234739e+00	-9.450019e+00
1	 1.186609e+00	 1.258104e+00	-9.693529e+00
1	 1.161871e+00	 1.280984e+00	-1.002691e+01
1	 1.289699e+00	 1.169775e+00	-8.811918e+00
1	 1.266662e+00	 1.194681e+00	-8.772629e+00
1	 1.243138e+00	 1.219140e+00	-8.826422e+00
1	 1.219140e+00	 1.243138e+00	-8.973802e+00
1	 1.194681e+00	 1.266662e+00	-9.214869e+00
1	 1.169775e+00	 1.289699e+00	-9.549327e+00
1	 1.298413e+00	 1.177679e+00	-8.357237e+00
1	 1.275221e+00	 1.202753e+00	-8.306755e+00
1	 1.251538e+00	 1.227377e+00	-8.352599e+00
1	 1.227377e+00	 1.251538e+00	-8.495234e+00
1	 1.202753e+00	 1.275221e+00	-8.734674e+00
1	 1.177679e+00	 1.298413e+00	-9.070495e+00
1	 1.307127e+00	 1.185583e+00	-7.895230e+00
1	 1.283779e+00	 1.210825e+00	-7.835590e+00
1	 1.259938e+00	 1.235615e+00	-7.875124e+00
1	 1.235615e+00	 1.259938e+00	-8.014210e+00
1	 1.210825e+00	 1.283779e+00	-8.252738e+00
1	 1.185583e+00	 1.307127e+00	-8.590111e+00
1	 1.146063e+00	 1.263556e+00	-1.097958e+01
1	 1.121239e+00	 1.285635e+00	-1.145466e+01
1	 1.096006e+00	 1.307213e+00	-1.212345e+01
1	 1.070380e+00	 1.328277e+00	-1.296938e+01
1	 1.044377e+00	 1.348818e+00	-1.397490e+01
1	 1.018013e+00	 1.368826e+00	-1.512150e+01
1	 1.153967e+00	 1.272270e+00	-1.050355e+01
1	 1.128972e+00	 1.294502e+00	-1.098148e+01
1	 1.103565e+00	 1.316228e+00	-1.165304e+01
1	 1.077762e+00	 1.337438e+00	-1.250040e+01
1	 1.051580e+00	 1.358121e+00	-1.350464e+01
1	 1.025033e+00	 1.378266e+00	-1.464581e+01
1	 1.161871e+00	 1.280984e+00	-1.002691e+01
1	 1.136704e+00	 1.303368e+00	-1.050747e+01
1	 1.111123e+00	 1.325243e+00	-1.118089e+01
1	 1.085144e+00	 1.346598e+00	-1.202830e+01
1	 1.058782e+00	 1.367423e+00	-1.302961e+01
1	 1.032054e+00	 1.387707e+00	-1.416367e+01
1	 1.169775e+00	 1.289699e+00	-9.549327e+00
1	 1.144437e+00	 1.312235e+00	-1.003224e+01
1	 1.118682e+00	 1.334259e+00	-1.070661e+01
1	 1.092526e+00	 1.355759e+00	-1.155270e+01
1	 1.065985e+00	 1.376725e+00	-1.254952e+01
1	 1.039075e+00	 1.397147e+00	-1.367490e+01
1	 1.177679e+00	 1.298413e+00	-9.070495e+00
1	 1.152170e+00	 1.321101e+00	-9.555417e+00
1	 1.126241e+00	 1.343274e+00	-1.022980e+01
1	 1.099908e+00	 1.364919e+00	-1.107326e+01
1	 1.073188e+00	 1.386027e+00	-1.206409e+01
1	 1.046096e+00	 1.406587e+00	-1.317934e+01
1	 1.185583e+00	 1.307127e+00	-8.590111e+00
1	 1.159902e+00	 1.329968e+00	-9.076623e+00
1	 1.133799e+00	 1.352289e+00	-9.750064e+00
1	 1.107290e+00	 1.374080e+00	-1.058961e+01
1	 1.080390e+00	 1.395329e+00	-1.157303e+01
1	 1.053116e+00	 1.416027e+00	-1.267682e+01
1	 1.018013e+00	 1.368826e+00	-1.512150e+01
1	 9.913029e-01	 1.388291e+00	-1.637228e+01
1	 9.642648e-01	 1.407206e+00	-1.770119e+01
1	 9.369152e-01	 1.425561e+00	-1.910540e+01
1	 9.092713e-01	 1.443350e+00	-2.058216e+01
1	 8.813504e-01	 1.460567e+00	-2.212880e+01
1	 1.025033e+00	 1.378266e+00	-1.464581e+01
1	 9.981394e-01	 1.397866e+00	-1.588784e+01
1	 9.709149e-01	 1.416911e+00	-1.720653e+01
1	 9.433767e-01	 1.435393e+00	-1.859914e+01
1	 9.155421e-01	 1.453305e+00	-2.006301e+01
1	 8.874287e-01	 1.470640e+00	-2.159557e+01
1	 1.032054e+00	 1.387707e+00	-1.416367e+01
1	 1.004976e+00	 1.407440e+00	-1.539556e+01
1	 9.775650e-01	 1.426615e+00	-1.670303e+01
1	 9.498382e-01	 1.445224e+00	-1.808321e+01
1	 9.218130e-01	 1.463259e+00	-1.953332e+01
1	 8.935069e-01	 1.480713e+00	-2.105066e+01
1	 1.039075e+00	 1.397147e+00	-1.367490e+01
1	 1.011813e+00	 1.417015e+00	-1.489539e+01
1	 9.842151e-01	 1.436320e+00	-1.619070e+01
1	 9.562997e-01	 1.455055e+00	-1.755764e+01
1	 9.280838e-01	 1.473213e+00	-1.899309e+01
1	 8.995852e-01	 1.490786e+00	-2.049403e+01
1	 1.046096e+00	 1.406587e+00	-1.317934e+01
1	 1.018649e+00	 1.426589e+00	-1.438728e+01
1	 9.908652e-01	 1.446025e+00	-1.566956e+01
1	 9.627611e-01	 1.464887e+00	-1.702246e+01
1	 9.343546e-01	 1.483167e+00	-1.844236e+01
1	 9.056635e-01	 1.500859e+00	-1.992566e+01
1	 1.053116e+00	 1.416027e+00	-1.267682e+01
1	 1.025486e+00	 1.436164e+00	-1.387118e+01
1	 9.975153e-01	 1.455730e+00	-1.513962e+01
1	 9.692226e-01	 1.474718e+00	-1.647772e+01
1	 9.406255e-01	 1.493121e+00	-1.788113e+01
1	 9.117418e-01	 1.510931e+00	-1.934550e+01
1	 8.813504e-01	 1.460567e+00	-2.212880e+01
1	 8.531700e-01	 1.477205e+00	-2.371426e+01
1	 8.247477e-01	 1.493260e+00	-2.530293e+01
1	 7.961013e-01	 1.508727e+00	-2.688513e+01
1	 7.672485e-01	 1.523602e+00	-2.845090e+01
1	 7.382072e-01	 1.537883e+00	-2.999004e+01
1	 8.874287e-01	 1.470640e+00	-2.159557e+01
1	 8.590539e-01	 1.487393e+00	-2.316449e+01
1	 8.304356e-01	 1.503558e+00	-2.473293e+01
1	 8.015916e-01	 1.519132e+00	-2.629138e+01
1	 7.725399e-01	 1.534110e+00	-2.783010e+01
1	 7.432983e-01	 1.548489e+00	-2.933910e+01
1	 8.935069e-01	 1.480713e+00	-2.105066e+01
1	 8.649378e-01	 1.497581e+00	-2.260151e+01
1	 8.361235e-01	 1.513857e+00	-2.414783e+01
1	 8.070820e-01	 1.529537e+00	-2.568037e+01
1	 7.778313e-01	 1.544618e+00	-2.718960e+01
1	 7.483894e-01	 1.559095e+00	-2.866582e+01
1	 8.995852e-01	 1.490786e+00	-2.049403e+01
1	 8.708218e-01	 1.507768e+00	-2.202520e+01
1	 8.418114e-01	 1.524155e+00	-2.354747e+01
1	 8.125723e-01	 1.539942e+00	-2.505183e+01
1	 7.831226e-01	 1.555125e+00	-2.652907e+01
1	 7.534805e-01	 1.569701e+00	-2.796980e+01
1	 9.056635e-01	 1.500859e+00	-1.992566e+01
1	 8.767057e-01	 1.517956e+00	-2.143549e+01
1	 8.474994e-01	 1.534454e+00	-2.293168e+01
1	 8.180627e-01	 1.550347e+00	-2.440554e+01
1	 7.884140e-01	 1.565633e+00	-2.584820e+01
1	 7.585715e-01	 1.580308e+00	-2.725062e+01
1	 9.117418e-01	 1.510931e+00	-1.934550e+01
1	 8.825896e-01	 1.528143e+00	-2.083226e+01
1	 8.531873e-01	 1.544752e+00	-2.230029e+01
1	 8.235531e-01	 1.560752e+00	-2.374126e+01
1	 7.937054e-01	 1.576140e+00	-2.514667e+01
1	 7.636626e-01	 1.590914e+00	-2.650789e+01
1	 7.382072e-01	 1.537883e+00	-2.999004e+01
1	 7.089951e-01	 1.551567e+00	-3.147378e+01
1	 6.796301e-01	 1.564653e+00	-3.287693e+01
1	 6.501297e-01	 1.577139e+00	-3.419456e+01
1	 6.205117e-01	 1.589025e+00	-3.542185e+01
1	 5.907933e-01	 1.600312e+00	-3.655409e+01
1	 7.432983e-01	 1.548489e+00	-2.933910e+01
1	 7.138848e-01	 1.562268e+00	-3.079018e+01
1	 6.843172e-01	 1.575443e+00	-3.215871e+01
1	 6.546134e-01	 1.588015e+00	-3.343996e+01
1	 6.247911e-01	 1.599984e+00	-3.462930e+01
1	 5.948678e-01	 1.611348e+00	-3.572218e+01
1	 7.483894e-01	 1.559095e+00	-2.866582e+01
1	 7.187744e-01	 1.572968e+00	-3.008141e+01
1	 6.890043e-01	 1.586234e+00	-3.141231e+01
1	 6.590971e-01	 1.598892e+00	-3.265413e+01
1	 6.290705e-01	 1.610942e+00	-3.380254e+01
1	 5.989422e-01	 1.622385e+00	-3.485333e+01
1	 7.534805e-01	 1.569701e+00	-2.796980e+01
1	 7.236640e-01	 1.583668e+00	-2.934698e+01
1	 6.936914e-01	 1.597025e+00	-3.063723e+01
1	 6.635807e-01	 1.609769e+00	-3.183660e+01
1	 6.333498e-01	 1.621901e+00	-3.294121e+01
1	 6.030166e-01	 1.633422e+00	-3.394729e+01
1	 7.585715e-01	 1.580308e+00	-2.725062e+01
1	 7.285536e-01	 1.594369e+00	-2.858642e+01
1	 6.983785e-01	 1.607815e+00	-2.983298e+01
1	 6.680644e-01	 1.620646e+00	-3.098693e+01
1	 6.376292e-01	 1.632860e+00	-3.204495e+01
1	 6.070911e-01	 1.644458e+00	-3.300384e+01
1	 7.636626e-01	 1.590914e+00	-2.650789e+01
1	 7.334433e-01	 1.605069e+00	-2.779927e+01
1	 7.030656e-01	 1.618606e+00	-2.899911e+01
1	 6.725480e-01	 1.631523e+00	-3.010470e+01
1	 6.419086e-01	 1.643819e+00	-3.111340e+01
1	 6.111655e-01	 1.655495e+00	-3.202274e+01
1	 5.907933e-01	 1.600312e+00	-3.655409e+01
1	 5.609920e-01	 1.611000e+00	-3.758322e+01
1	 5.311248e-01	 1.621093e+00	-3.850478e+01
1	 5.012086e-01	 1.630590e+00	-3.931975e+01
1	 4.712600e-01	 1.639496e+00	-4.002937e+01
1	 4.412955e-01	 1.647815e+00	-4.063513e+01
1	 5.948678e-01	 1.611348e+00	-3.572218e+01
1	 5.648609e-01	 1.622111e+00	-3.671130e+01
1	 5.347877e-01	 1.632272e+00	-3.759311e+01
1	 5.046652e-01	 1.641836e+00	-3.836907e+01
1	 4.745101e-01	 1.650803e+00	-3.904091e+01
1	 4.443389e-01	 1.659179e+00	-3.961063e+01
1	 5.989422e-01	 1.622385e+00	-3.485333e+01
1	 5.687298e-01	 1.633221e+00	-3.580006e+01
1	 5.384507e-01	 1.643452e+00	-3.663995e+01
1	 5.081218e-01	 1.653081e+00	-3.737460e+01
1	 4.777602e-01	 1.662110e+00	-3.800589e+01
1	 4.473823e-01	 1.670543e+00	-3.853600e+01
1	 6.030166e-01	 1.633422e+00	-3.394729e+01
1	 5.725987e-01	 1.644332e+00	-3.484938e+01
1	 5.421136e-01	 1.654632e+00	-3.564522e+01
1	 5.115784e-01	 1.664327e+00	-3.633623e+01
1	 4.810102e-01	 1.673417e+00	-3.692413e+01
1	 4.504257e-01	 1.681907e+00	-3.741091e+01
1	 6.070911e-01	 1.644458e+00	-3.300384e+01
1	 5.764677e-01	 1.655442e+00	-3.385912e+01
1	 5.457765e-01	 1.665812e+00	-3.460882e+01
1	 5.150350e-01	 1.675572e+00	-3.525385e+01
1	 4.842603e-01	 1.684724e+00	-3.579543e+01
1	 4.534691e-01	 1.693272e+00	-3.623504e+01
1	 6.111655e-01	 1.655495e+00	-3.202274e+01
1	 5.803366e-01	 1.666552e+00	-3.282918e+01
1	 5.494395e-01	 1.676992e+00	-3.353068e+01
1	 5.184917e-01	 1.686817e+00	-3.412736e+01
1	 4.875104e-01	 1.696031e+00	-3.461959e+01
1	 4.565125e-01	 1.704636e+00	-3.500806e+01
1	 4.412955e-01	 1.647815e+00	-4.063513e+01
1	 4.113310e-01	 1.655549e+00	-4.114876e+01
1	 3.813824e-01	 1.662703e+00	-4.158212e+01
1	 3.514651e-01	 1.669283e+00	-4.193722e+01
1	 3.215942e-01	 1.675295e+00	-4.221625e+01
1	 2.917844e-01	 1.680743e+00	-4.242158e+01
1	 4.443389e-01	 1.659179e+00	-3.961063e+01
1	 4.141678e-01	 1.666966e+00	-4.009033e+01
1	 3.840126e-01	 1.674170e+00	-4.049174e+01
1	 3.538890e-01	 1.680796e+00	-4.081666e+01
1	 3.238121e-01	 1.686848e+00	-4.106704e+01
1	 2.937967e-01	 1.692334e+00	-4.124500e+01
1	 4.473823e-01	 1.670543e+00	-3.853600e+01
1	 4.170045e-01	 1.678384e+00	-3.897714e+01
1	 3.866428e-01	 1.685637e+00	-3.934134e+01
1	 3.563129e-01	 1.692308e+00	-3.963077e+01
1	 3.260300e-01	 1.698402e+00	-3.984777e+01
1	 2.958090e-01	 1.703925e+00	-3.999483e+01
1	 4.504257e-01	 1.681907e+00	-3.741091e+01
1	 4.198413e-01	 1.689801e+00	-3.780876e+01
1	 3.892731e-01	 1.697104e+00	-3.813041e+01
1	 3.587368e-01	 1.703820e+00	-3.837906e+01
1	 3.282478e-01	 1.709956e+00	-3.855803e+01
1	 2.978213e-01	 1.715517e+00	-3.867078e+01
1	 4.534691e-01	 1.693272e+00	-3.623504e+01
1	 4.226781e-01	 1.701219e+00	-3.658472e+01
1	 3.919033e-01	 1.708571e+00	-3.685847e+01
1	 3.611607e-01	 1.715333e+00	-3.706106e+01
1	 3.304657e-01	 1.721510e+00	-3.719741e+01
1	 2.998336e-01	 1.727108e+00	-3.727253e+01
1	 4.565125e-01	 1.704636e+00	-3.500806e+01
1	 4.255148e-01	 1.712637e+00	-3.530461e+01
1	 3.945335e-01	 1.720038e+00	-3.552504e+01
1	 3.635846e-01	 1.726845e+00	-3.567632e+01
1	 3.326836e-01	 1.733063e+00	-3.576552e+01
1	 3.018459e-01	 1.738699e+00	-3.579980e+01
1	 2.917844e-01	 1.680743e+00	-4.242158e+01
1	 2.620501e-01	 1.685635e+00	-4.255987e+01
1	 2.324052e-01	 1.689977e+00	-4.263736e+01
1	 2.028633e-01	 1.693777e+00	-4.265602e+01
1	 1.734374e-01	 1.697043e+00	-4.261794e+01
1	 1.441403e-01	 1.699782e+00	-4.252538e+01
1	 2.937967e-01	 1.692334e+00	-4.124500e+01
1	 2.638573e-01	 1.697260e+00	-4.135724e+01
1	 2.340080e-01	 1.701632e+00	-4.141040e+01
1	 2.042623e-01	 1.705458e+00	-4.140669e+01
1	 1.746335e-01	 1.708746e+00	-4.134845e+01
1	 1.451344e-01	 1.711504e+00	-4.123817e+01
1	 2.958090e-01	 1.703925e+00	-3.999483e+01
1	 2.656646e-01	 1.708885e+00	-4.007916e+01
1	 2.356108e-01	 1.713287e+00	-4.010755e+01
1	 2.056614e-01	 1.717140e+00	-4.008205e+01
1	 1.758297e-01	 1.720450e+00	-4.000486e+01
1	 1.461285e-01	 1.723227e+00	-3.987833e+01
1	 2.978213e-01	 1.715517e+00	-3.867078e+01
1	 2.674718e-01	 1.720510e+00	-3.872543e+01
1	 2.372136e-01	 1.724942e+00	-3.872867e+01
1	 2.070604e-01	 1.728821e+00	-3.868201e+01
1	 1.770258e-01	 1.732154e+00	-3.858715e+01
1	 1.471226e-01	 1.734950e+00	-3.844587e+01
1	 2.998336e-01	 1.727108e+00	-3.727253e+01
1	 2.692790e-01	 1.732135e+00	-3.729583e+01
1	 2.388164e-01	 1.736597e+00	-3.727363e+01
1	 2.084595e-01	 1.740502e+00	-3.720652e+01
1	 1.782219e-01	 1.743858e+00	-3.709527e+01
1	 1.481166e-01	 1.746672e+00	-3.694077e+01
1	 3.018459e-01	 1.738699e+00	-3.579980e+01
1	 2.710863e-01	 1.743760e+00	-3.579018e+01
1	 2.404192e-01	 1.748252e+00	-3.574231e+01
1	 2.098585e-01	 1.752183e+00	-3.565549e+01
1	 1.794180e-01	 1.755561e+00	-3.552919e+01
1	 1.491107e-01	 1.758395e+00	-3.536304e+01
1	 1.441403e-01	 1.699782e+00	-4.252538e+01
1	 1.149843e-01	 1.702003e+00	-4.238128e+01
1	 8.598113e-02	 1.703714e+00	-4.218945e+01
1	 5.714215e-02	 1.704925e+00	-4.195349e+01
1	 2.847829e-02	 1.705645e+00	-4.167705e+01
1	 0.000000e+00	 1.705882e+00	-4.136370e+01
1	 1.451344e-01	 1.711504e+00	-4.123817e+01
1	 1.157773e-01	 1.713741e+00	-4.107900e+01
1	 8.657411e-02	 1.715464e+00	-4.087488e+01
1	 5.753624e-02	 1.716683e+00	-4.062963e+01
1	 2.867470e-02	 1.717408e+00	-4.034707e+01
1	 0.000000e+00	 1.717647e+00	-4.003098e+01
1	 1.461285e-01	 1.723227e+00	-3.987833e+01
1	 1.165703e-01	 1.725479e+00	-3.970549e+01
1	 8.716708e-02	 1.727214e+00	-3.949040e+01
1	 5.793032e-02	 1.728441e+00	-3.923706e+01
1	 2.887110e-02	 1.729171e+00	-3.894946e+01
1	 0.000000e+00	 1.729412e+00	-3.863156e+01
1	 1.471226e-01	 1.734950e+00	-3.844587e+01
1	 1.173633e-01	 1.737217e+00	-3.826079e+01
1	 8.776005e-02	 1.738963e+00	-3.803605e+01
1	 5.832441e-02	 1.740199e+00	-3.777582e+01
1	 2.906750e-02	 1.740934e+00	-3.748424e+01
1	 0.000000e+00	 1.741176e+00	-3.716544e+01
1	 1.481166e-01	 1.746672e+00	-3.694077e+01
1	 1.181563e-01	 1.748955e+00	-3.674493e+01
1	 8.835303e-02	 1.750713e+00	-3.651188e+01
1	 5.871849e-02	 1.751957e+00	-3.624594e+01
1	 2.926390e-02	 1.752697e+00	-3.595142e+01
1	 0.000000e+00	 1.752941e+00	-3.563257e+01
1	 1.491107e-01	 1.758395e+00	-3.536304e+01
1	 1.189493e-01	 1.760692e+00	-3.515793e+01
1	 8.894600e-02	 1.762463e+00	-3.491792e+01
1	 5.911257e-02	 1.763716e+00	-3.464746e+01
1	 2.946030e-02	 1.764460e+00	-3.435101e+01
1	 0.000000e+00	 1.764706e+00	-3.403294e+01
1	 1.764706e+00	 0.000000e+00	 9.185771e+00
1	 1.764460e+00	 2.946030e-02	 9.042367e+00
1	 1.763716e+00	 5.911257e-02	 8.894494e+00
1	 1.762463e+00	 8.894600e-02	 8.741295e+00
1	 1.760692e+00	 1.189493e-01	 8.582069e+00
1	 1.758395e+00	 1.491107e-01	 8.416291e+00
1	 1.776471e+00	 0.000000e+00	 8.735981e+00
1	 1.776223e+00	 2.965671e-02	 8.580092e+00
1	 1.775474e+00	 5.950666e-02	 8.422159e+00
1	 1.774213e+00	 8.953897e-02	 8.261482e+00
1	 1.772430e+00	 1.197423e-01	 8.097512e+00
1	 1.770118e+00	 1.501048e-01	 7.929862e+00
1	 1.788235e+00	 0.000000e+00	 8.297772e+00
1	 1.787986e+00	 2.985311e-02	 8.130502e+00
1	 1.787232e+00	 5.990074e-02	 7.963371e+00
1	 1.785962e+00	 9.013195e-02	 7.795843e+00
1	 1.784168e+00	 1.205353e-01	 7.627530e+00
1	 1.781840e+00	 1.510988e-01	 7.458206e+00
1	 1.800000e+00	 0.000000e+00	 7.870760e+00
1	 1.799749e+00	 3.004951e-02	 7.693202e+00
1	 1.798990e+00	 6.029483e-02	 7.517758e+00
1	 1.797712e+00	 9.072492e-02	 7.344059e+00
1	 1.795906e+00	 1.213283e-01	 7.171893e+00
1	 1.793563e+00	 1.520929e-01	 7.001213e+00
1	 1.811765e+00	 0.000000e+00	 7.454569e+00
1	 1.811512e+00	 3.024591e-02	 7.267807e+00
1	 1.810748e+00	 6.068891e-02	 7.084955e+00
1	 1.809462e+00	 9.131789e-02	 6.905820e+00
1	 1.807644e+00	 1.221213e-01	 6.730378e+00
1	 1.805285e+00	 1.530870e-01	 6.558779e+00
1	 1.823529e+00	 0.000000e+00	 7.048835e+00
1	 1.823275e+00	 3.044231e-02	 6.853943e+00
1	 1.822506e+00	 6.108299e-02	 6.664609e+00
1	 1.821212e+00	 9.191087e-02	 6.480826e+00
1	 1.819382e+00	 1.229143e-01	 6.302767e+00
1	 1.817008e+00	 1.540811e-01	 6.130799e+00
1	 1.758395e+00	 1.491107e-01	 8.416291e+00
1	 1.755561e+00	 1.794180e-01	 8.242356e+00
1	 1.752183e+00	 2.098585e-01	 8.059185e+00
1	 1.748252e+00	 2.404192e-01	 7.867323e+00
1	 1.743760e+00	 2.710863e-01	 7.667522e+00
1	 1.738699e+00	 3.018459e-01	 7.460748e+00
1	 1.770118e+00	 1.501048e-01	 7.929862e+00
1	 1.767265e+00	 1.806141e-01	 7.756956e+00
1	 1.763865e+00	 2.112576e-01	 7.577710e+00
1	 1.759907e+00	 2.420220e-01	 7.392709e+00
1	 1.755385e+00	 2.728935e-01	 7.202685e+00
1	 1.750291e+00	 3.038582e-01	 7.008516e+00
1	 1.781840e+00	 1.510988e-01	 7.458206e+00
1	 1.778969e+00	 1.818103e-01	 7.286207e+00
1	 1.775546e+00	 2.126567e-01	 7.110326e+00
1	 1.771562e+00	 2.436247e-01	 6.931204e+00
1	 1.767010e+00	 2.747008e-01	 6.749575e+00
1	 1.761882e+00	 3.058705e-01	 6.566253e+00
1	 1.793563e+00	 1.520929e-01	 7.001213e+00
1	 1.790673e+00	 1.830064e-01	 6.830149e+00
1	 1.787227e+00	 2.140557e-01	 6.657239e+00
1	 1.783217e+00	 2.452275e-01	 6.483203e+00
1	 1.778635e+00	 2.765080e-01	 6.308792e+00
1	 1.773473e+00	 3.078828e-01	 6.134786e+00
1	 1.805285e+00	 1.530870e-01	 6.558779e+00
1	 1.802376e+00	 1.842025e-01	 6.388818e+00
1	 1.798908e+00	 2.154548e-01	 6.218650e+00
1	 1.794872e+00	 2.468303e-01	 6.049087e+00
1	 1.790260e+00	 2.783153e-01	 5.880921e+00
1	 1.785065e+00	 3.098951e-01	 5.714920e+00
1	 1.817008e+00	 1.540811e-01	 6.130799e+00
1	 1.814080e+00	 1.853986e-01	 5.962252e+00
1	 1.810589e+00	 2.168538e-01	 5.794756e+00
1	 1.806527e+00	 2.484331e-01	 5.629232e+00
1	 1.801885e+00	 2.801225e-01	 5.466533e+00
1	 1.796656e+00	 3.119074e-01	 5.307440e+00
1	 1.738699e+00	 3.018459e-01	 7.460748e+00
1	 1.733063e+00	 3.326836e-01	 7.235794e+00
1	 1.726845e+00	 3.635846e-01	 6.980900e+00
1	 1.720038e+00	 3.945335e-01	 6.696637e+00
1	 1.712637e+00	 4.255148e-01	 6.383944e+00
1	 1.704636e+00	 4.565125e-01	 6.044143e+00
1	 1.750291e+00	 3.038582e-01	 7.008516e+00
1	 1.744617e+00	 3.349015e-01	 6.799266e+00
1	 1.738357e+00	 3.660085e-01	 6.563303e+00
1	 1.731505e+00	 3.971637e-01	 6.300860e+00
1	 1.724054e+00	 4.283516e-01	 6.012561e+00
1	 1.716000e+00	 4.595560e-01	 5.699431e+00
1	 1.761882e+00	 3.058705e-01	 6.566253e+00
1	 1.756171e+00	 3.371194e-01	 6.370818e+00
1	 1.749869e+00	 3.684324e-01	 6.152097e+00
1	 1.742972e+00	 3.997939e-01	 5.910128e+00
1	 1.735472e+00	 4.311883e-01	 5.645327e+00
1	 1.727364e+00	 4.625994e-01	 5.358508e+00
1	 1.773473e+00	 3.078828e-01	 6.134786e+00
1	 1.767725e+00	 3.393373e-01	 5.951442e+00
1	 1.761382e+00	 3.708563e-01	 5.748300e+00
1	 1.754439e+00	 4.024242e-01	 5.525330e+00
1	 1.746889e+00	 4.340251e-01	 5.282856e+00
1	 1.738728e+00	 4.656428e-01	 5.021561e+00
1	 1.785065e+00	 3.098951e-01	 5.714920e+00
1	 1.779278e+00	 3.415552e-01	 5.542107e+00
1	 1.772894e+00	 3.732802e-01	 5.352898e+00
1	 1.765906e+00	 4.050544e-01	 5.147335e+00
1	 1.758307e+00	 4.368619e-01	 4.925747e+00
1	 1.750093e+00	 4.686862e-01	 4.688768e+00
1	 1.796656e+00	 3.119074e-01	 5.307440e+00
1	 1.790832e+00	 3.437731e-01	 5.143754e+00
1	 1.784406e+00	 3.757040e-01	 4.966856e+00
1	 1.777372e+00	 4.076846e-01	 4.776984e+00
1	 1.769724e+00	 4.396986e-01	 4.574582e+00
1	 1.761457e+00	 4.717296e-01	 4.360305e+00
1	 1.704636e+00	 4.565125e-01	 6.044143e+00
1	 1.696031e+00	 4.875104e-01	 5.644945e+00
1	 1.686817e+00	 5.184917e-01	 5.157947e+00
1	 1.676992e+00	 5.494395e-01	 4.591279e+00
1	 1.666552e+00	 5.803366e-01	 3.953979e+00
1	 1.655495e+00	 6.111655e-01	 3.255984e+00
1	 1.716000e+00	 4.595560e-01	 5.699431e+00
1	 1.707338e+00	 4.907604e-01	 5.329715e+00
1	 1.698063e+00	 5.219483e-01	 4.875662e+00
1	 1.688172e+00	 5.531024e-01	 4.345284e+00
1	 1.677663e+00	 5.842055e-01	 3.747485e+00
1	 1.666532e+00	 6.152400e-01	 3.092050e+00
1	 1.727364e+00	 4.625994e-01	 5.358508e+00
1	 1.718645e+00	 4.940105e-01	 5.018409e+00
1	 1.709308e+00	 5.254049e-01	 4.597700e+00
1	 1.699352e+00	 5.567653e-01	 4.104076e+00
1	 1.688773e+00	 5.880744e-01	 3.546128e+00
1	 1.677568e+00	 6.193144e-01	 2.933323e+00
1	 1.738728e+00	 4.656428e-01	 5.021561e+00
1	 1.729951e+00	 4.972606e-01	 4.710758e+00
1	 1.720554e+00	 5.288615e-01	 4.323451e+00
1	 1.710532e+00	 5.604282e-01	 3.866820e+00
1	 1.699883e+00	 5.919433e-01	 3.348959e+00
1	 1.688605e+00	 6.233888e-01	 2.778868e+00
1	 1.750093e+00	 4.686862e-01	 4.688768e+00
1	 1.741258e+00	 5.005107e-01	 4.406503e+00
1	 1.731799e+00	 5.323181e-01	 4.052322e+00
1	 1.721712e+00	 5.640912e-01	 3.632698e+00
1	 1.710994e+00	 5.958122e-01	 3.155058e+00
1	 1.699641e+00	 6.274633e-01	 2.627777e+00
1	 1.761457e+00	 4.717296e-01	 4.360305e+00
1	 1.752565e+00	 5.037607e-01	 4.105389e+00
1	 1.743045e+00	 5.357747e-01	 3.783735e+00
1	 1.732892e+00	 5.677541e-01	 3.400919e+00
1	 1.722104e+00	 5.996811e-01	 2.963527e+00
1	 1.710678e+00	 6.315377e-01	 2.479162e+00
1	 1.655495e+00	 6.111655e-01	 3.255984e+00
1	 1.643819e+00	 6.419086e-01	 2.514834e+00
1	 1.631523e+00	 6.725480e-01	 1.743152e+00
1	 1.618606e+00	 7.030656e-01	 9.439774e-01
1	 1.605069e+00	 7.334433e-01	 1.200926e-01
1	 1.590914e+00	 7.636626e-01	-7.259948e-01
1	 1.666532e+00	 6.152400e-01	 3.092050e+00
1	 1.654778e+00	 6.461880e-01	 2.394218e+00
1	 1.642399e+00	 6.770317e-01	 1.664472e+00
1	 1.629397e+00	 7.077527e-01	 9.059666e-01
1	 1.615770e+00	 7.383329e-01	 1.216532e-01
1	 1.601520e+00	 7.687537e-01	-6.857349e-01
1	 1.677568e+00	 6.193144e-01	 2.933323e+00
1	 1.665736e+00	 6.504674e-01	 2.278625e+00
1	 1.653276e+00	 6.815153e-01	 1.590538e+00
1	 1.640187e+00	 7.124398e-01	 8.723899e-01
1	 1.626470e+00	 7.432225e-01	 1.273565e-01
1	 1.612126e+00	 7.738448e-01	-6.415516e-01
1	 1.688605e+00	 6.233888e-01	 2.778868e+00
1	 1.676695e+00	 6.547468e-01	 2.167185e+00
1	 1.664153e+00	 6.859990e-01	 1.520519e+00
1	 1.650978e+00	 7.171269e-01	 8.424290e-01
1	 1.637171e+00	 7.481121e-01	 1.363720e-01
1	 1.622732e+00	 7.789359e-01	-5.943150e-01
1	 1.699641e+00	 6.274633e-01	 2.627777e+00
1	 1.687654e+00	 6.590262e-01	 2.059049e+00
1	 1.675030e+00	 6.904826e-01	 1.453602e+00
1	 1.661769e+00	 7.218140e-01	 8.152865e-01
1	 1.647871e+00	 7.530017e-01	 1.478905e-01
1	 1.633338e+00	 7.840270e-01	-5.448726e-01
1	 1.710678e+00	 6.315377e-01	 2.479162e+00
1	 1.698613e+00	 6.633056e-01	 1.953389e+00
1	 1.685907e+00	 6.949663e-01	 1.388999e+00
1	 1.672560e+00	 7.265011e-01	 7.901858e-01
1	 1.658572e+00	 7.578914e-01	 1.611239e-01
1	 1.643944e+00	 7.891180e-01	-4.940500e-01
1	 1.590914e+00	 7.636626e-01	-7.259948e-01
1	 1.576140e+00	 7.937054e-01	-1.569077e+00
1	 1.560752e+00	 8.235531e-01	-2.387046e+00
1	 1.544752e+00	 8.531873e-01	-3.182942e+00
1	 1.528143e+00	 8.825896e-01	-3.960716e+00
1	 1.510931e+00	 9.117418e-01	-4.725221e+00
1	 1.601520e+00	 7.687537e-01	-6.857349e-01
1	 1.586648e+00	 7.989967e-01	-1.491963e+00
1	 1.571157e+00	 8.290434e-01	-2.276011e+00
1	 1.555050e+00	 8.588752e-01	-3.040824e+00
1	 1.538331e+00	 8.884736e-01	-3.790268e+00
1	 1.521004e+00	 9.178200e-01	-4.529117e+00
1	 1.612126e+00	 7.738448e-01	-6.415516e-01
1	 1.597156e+00	 8.042881e-01	-1.411138e+00
1	 1.581562e+00	 8.345338e-01	-2.161523e+00
1	 1.565349e+00	 8.645631e-01	-2.895491e+00
1	 1.548519e+00	 8.943575e-01	-3.616730e+00
1	 1.531077e+00	 9.238983e-01	-4.329833e+00
1	 1.622732e+00	 7.789359e-01	-5.943150e-01
1	 1.607663e+00	 8.095795e-01	-1.327490e+00
1	 1.591967e+00	 8.400241e-01	-2.044427e+00
1	 1.575647e+00	 8.702510e-01	-2.747672e+00
1	 1.558706e+00	 9.002414e-01	-3.440654e+00
1	 1.541150e+00	 9.299766e-01	-4.127680e+00
1	 1.633338e+00	 7.840270e-01	-5.448726e-01
1	 1.618171e+00	 8.148708e-01	-1.241887e+00
1	 1.602372e+00	 8.455145e-01	-1.925542e+00
1	 1.585945e+00	 8.759389e-01	-2.598077e+00
1	 1.568894e+00	 9.061253e-01	-3.262576e+00
1	 1.551223e+00	 9.360549e-01	-3.922961e+00
1	 1.643944e+00	 7.891180e-01	-4.940500e-01
1	 1.628678e+00	 8.201622e-01	-1.155174e+00
1	 1.612777e+00	 8.510048e-01	-1.805668e+00
1	 1.596244e+00	 8.816268e-01	-2.447399e+00
1	 1.579082e+00	 9.120093e-01	-3.083020e+00
1	 1.561296e+00	 9.421332e-01	-3.715972e+00
1	 1.510931e+00	 9.117418e-01	-4.725221e+00
1	 1.493121e+00	 9.406255e-01	-5.441786e+00
1	 1.474718e+00	 9.692226e-01	-6.073451e+00
1	 1.455730e+00	 9.975153e-01	-6.622418e+00
1	 1.436164e+00	 1.025486e+00	-7.091023e+00
1	 1.416027e+00	 1.053116e+00	-7.481733e+00
1	 1.521004e+00	 9.178200e-01	-4.529117e+00
1	 1.503075e+00	 9.468963e-01	-5.220701e+00
1	 1.484550e+00	 9.756841e-01	-5.825813e+00
1	 1.465435e+00	 1.004165e+00	-6.346191e+00
1	 1.445738e+00	 1.032322e+00	-6.783680e+00
1	 1.425467e+00	 1.060137e+00	-7.140231e+00
1	 1.531077e+00	 9.238983e-01	-4.329833e+00
1	 1.513029e+00	 9.531671e-01	-4.996023e+00
1	 1.494381e+00	 9.821456e-01	-5.573900e+00
1	 1.475140e+00	 1.010815e+00	-6.064878e+00
1	 1.455312e+00	 1.039159e+00	-6.470483e+00
1	 1.434907e+00	 1.067158e+00	-6.792343e+00
1	 1.541150e+00	 9.299766e-01	-4.127680e+00
1	 1.522984e+00	 9.594380e-01	-4.767847e+00
1	 1.504213e+00	 9.886071e-01	-5.317697e+00
1	 1.484845e+00	 1.017466e+00	-5.778464e+00
1	 1.464887e+00	 1.045995e+00	-6.151516e+00
1	 1.444348e+00	 1.074179e+00	-6.438354e+00
1	 1.551223e+00	 9.360549e-01	-3.922961e+00
1	 1.532938e+00	 9.657088e-01	-4.536266e+00
1	 1.514044e+00	 9.950686e-01	-5.057193e+00
1	 1.494550e+00	 1.024116e+00	-5.486933e+00
1	 1.474461e+00	 1.052832e+00	-5.826863e+00
1	 1.453788e+00	 1.081200e+00	-6.078538e+00
1	 1.561296e+00	 9.421332e-01	-3.715972e+00
1	 1.542892e+00	 9.719797e-01	-4.301369e+00
1	 1.523876e+00	 1.001530e+00	-4.792374e+00
1	 1.504254e+00	 1.030766e+00	-5.190271e+00
1	 1.484036e+00	 1.059669e+00	-5.496602e+00
1	 1.463228e+00	 1.088220e+00	-5.713165e+00
1	 1.416027e+00	 1.053116e+00	-7.481733e+00
1	 1.395329e+00	 1.080390e+00	-7.768800e+00
1	 1.374080e+00	 1.107290e+00	-7.935599e+00
1	 1.352289e+00	 1.133799e+00	-7.999498e+00
1	 1.329968e+00	 1.159902e+00	-7.979313e+00
1	 1.307127e+00	 1.185583e+00	-7.895230e+00
1	 1.425467e+00	 1.060137e+00	-7.140231e+00
1	 1.404632e+00	 1.087593e+00	-7.392898e+00
1	 1.383240e+00	 1.114672e+00	-7.528908e+00
1	 1.361304e+00	 1.141358e+00	-7.566785e+00
1	 1.338834e+00	 1.167635e+00	-7.526635e+00
1	 1.315841e+00	 1.193486e+00	-7.430068e+00
1	 1.434907e+00	 1.067158e+00	-6.792343e+00
1	 1.413934e+00	 1.094795e+00	-7.010765e+00
1	 1.392401e+00	 1.122054e+00	-7.117018e+00
1	 1.370320e+00	 1.148917e+00	-7.130582e+00
1	 1.347700e+00	 1.175368e+00	-7.072639e+00
1	 1.324555e+00	 1.201390e+00	-6.965982e+00
1	 1.444348e+00	 1.074179e+00	-6.438354e+00
1	 1.423236e+00	 1.101998e+00	-6.622881e+00
1	 1.401561e+00	 1.129436e+00	-6.700502e+00
1	 1.379335e+00	 1.156475e+00	-6.691464e+00
1	 1.356567e+00	 1.183100e+00	-6.617809e+00
1	 1.333269e+00	 1.209294e+00	-6.503276e+00
1	 1.453788e+00	 1.081200e+00	-6.078538e+00
1	 1.432538e+00	 1.109201e+00	-6.229712e+00
1	 1.410722e+00	 1.136818e+00	-6.279920e+00
1	 1.388350e+00	 1.164034e+00	-6.249990e+00
1	 1.365433e+00	 1.190833e+00	-6.162612e+00
1	 1.341984e+00	 1.217198e+00	-6.042245e+00
1	 1.463228e+00	 1.088220e+00	-5.713165e+00
1	 1.441840e+00	 1.116403e+00	-5.831711e+00
1	 1.419883e+00	 1.144200e+00	-5.855818e+00
1	 1.397365e+00	 1.171593e+00	-5.806706e+00
1	 1.374300e+00	 1.198566e+00	-5.707509e+00
1	 1.350698e+00	 1.225102e+00	-5.583177e+00
1	 1.307127e+00	 1.185583e+00	-7.895230e+00
1	 1.283779e+00	 1.210825e+00	-7.835590e+00
1	 1.259938e+00	 1.235615e+00	-7.875124e+00
1	 1.235615e+00	 1.259938e+00	-8.014210e+00
1	 1.210825e+00	 1.283779e+00	-8.252738e+00
1	 1.185583e+00	 1.307127e+00	-8.590111e+00
1	 1.315841e+00	 1.193486e+00	-7.430068e+00
1	 1.292338e+00	 1.218897e+00	-7.363370e+00
1	 1.268337e+00	 1.243852e+00	-7.398172e+00
1	 1.243852e+00	 1.268337e+00	-7.534764e+00
1	 1.218897e+00	 1.292338e+00	-7.772910e+00
1	 1.193486e+00	 1.315841e+00	-8.111846e+00
1	 1.324555e+00	 1.201390e+00	-6.965982e+00
1	 1.300896e+00	 1.226969e+00	-6.894326e+00
1	 1.276737e+00	 1.252090e+00	-6.925872e+00
1	 1.252090e+00	 1.276737e+00	-7.060857e+00
1	 1.226969e+00	 1.300896e+00	-7.298957e+00
1	 1.201390e+00	 1.324555e+00	-7.639293e+00
1	 1.333269e+00	 1.209294e+00	-6.503276e+00
1	 1.309455e+00	 1.235042e+00	-6.428556e+00
1	 1.285136e+00	 1.260327e+00	-6.458150e+00
1	 1.260327e+00	 1.285136e+00	-6.592274e+00
1	 1.235042e+00	 1.309455e+00	-6.830559e+00
1	 1.209294e+00	 1.333269e+00	-7.172056e+00
1	 1.341984e+00	 1.217198e+00	-6.042245e+00
1	 1.318014e+00	 1.243114e+00	-5.966158e+00
1	 1.293536e+00	 1.268565e+00	-5.994936e+00
1	 1.268565e+00	 1.293536e+00	-6.128810e+00
1	 1.243114e+00	 1.318014e+00	-6.367403e+00
1	 1.217198e+00	 1.341984e+00	-6.709743e+00
1	 1.350698e+00	 1.225102e+00	-5.583177e+00
1	 1.326572e+00	 1.251186e+00	-5.507223e+00
1	 1.301936e+00	 1.276802e+00	-5.536160e+00
1	 1.276802e+00	 1.301936e+00	-5.670262e+00
1	 1.251186e+00	 1.326572e+00	-5.909184e+00
1	 1.225102e+00	 1.350698e+00	-6.251976e+00
1	 1.185583e+00	 1.307127e+00	-8.590111e+00
1	 1.159902e+00	 1.329968e+00	-9.076623e+00
1	 1.133799e+00	 1.352289e+00	-9.750064e+00
1	 1.107290e+00	 1.374080e+00	-1.058961e+01
1	 1.080390e+00	 1.395329e+00	-1.157303e+01
1	 1.053116e+00	 1.416027e+00	-1.267682e+01
1	 1.193486e+00	 1.315841e+00	-8.111846e+00
1	 1.167635e+00	 1.338834e+00	-8.599415e+00
1	 1.141358e+00	 1.361304e+00	-9.270939e+00
1	 1.114672e+00	 1.383240e+00	-1.010533e+01
1	 1.087593e+00	 1.404632e+00	-1.108003e+01
1	 1.060137e+00	 1.425467e+00	-1.217118e+01
1	 1.201390e+00	 1.324555e+00	-7.639293e+00
1	 1.175368e+00	 1.347700e+00	-8.127293e+00
1	 1.148917e+00	 1.370320e+00	-8.795911e+00
1	 1.122054e+00	 1.392401e+00	-9.623965e+00
1	 1.094795e+00	 1.413934e+00	-1.058878e+01
1	 1.067158e+00	 1.434907e+00	-1.166630e+01
1	 1.209294e+00	 1.333269e+00	-7.172056e+00
1	 1.183100e+00	 1.356567e+00	-7.659820e+00
1	 1.156475e+00	 1.379335e+00	-8.324564e+00
1	 1.129436e+00	 1.401561e+00	-9.145177e+00
1	 1.101998e+00	 1.423236e+00	-1.009903e+01
1	 1.074179e+00	 1.444348e+00	-1.116210e+01
1	 1.217198e+00	 1.341984e+00	-6.709743e+00
1	 1.190833e+00	 1.365433e+00	-7.196574e+00
1	 1.164034e+00	 1.388350e+00	-7.856488e+00
1	 1.136818e+00	 1.410722e+00	-8.668621e+00
1	 1.109201e+00	 1.432538e+00	-9.610567e+00
1	 1.081200e+00	 1.453788e+00	-1.065850e+01
1	 1.225102e+00	 1.350698e+00	-6.251976e+00
1	 1.198566e+00	 1.374300e+00	-6.737139e+00
1	 1.171593e+00	 1.397365e+00	-7.391289e+00
1	 1.144200e+00	 1.419883e+00	-8.193966e+00
1	 1.116403e+00	 1.441840e+00	-9.123162e+00
1	 1.088220e+00	 1.463228e+00	-1.015544e+01
1	 1.053116e+00	 1.416027e+00	-1.267682e+01
1	 1.025486e+00	 1.436164e+00	-1.387118e+01
1	 9.975153e-01	 1.455730e+00	-1.513962e+01
1	 9.692226e-01	 1.474718e+00	-1.647772e+01
1	 9.406255e-01	 1.493121e+00	-1.788113e+01
1	 9.117418e-01	 1.510931e+00	-1.934550e+01
1	 1.060137e+00	 1.425467e+00	-1.217118e+01
1	 1.032322e+00	 1.445738e+00	-1.335106e+01
1	 1.004165e+00	 1.465435e+00	-1.460497e+01
1	 9.756841e-01	 1.484550e+00	-1.592758e+01
1	 9.468963e-01	 1.503075e+00	-1.731359e+01
1	 9.178200e-01	 1.521004e+00	-1.875771e+01
1	 1.067158e+00	 1.434907e+00	-1.166630e+01
1	 1.039159e+00	 1.455312e+00	-1.283100e+01
1	 1.010815e+00	 1.475140e+00	-1.406979e+01
1	 9.821456e-01	 1.494381e+00	-1.537626e+01
1	 9.531671e-01	 1.513029e+00	-1.674396e+01
1	 9.238983e-01	 1.531077e+00	-1.816643e+01
1	 1.074179e+00	 1.444348e+00	-1.116210e+01
1	 1.045995e+00	 1.464887e+00	-1.231106e+01
1	 1.017466e+00	 1.484845e+00	-1.353422e+01
1	 9.886071e-01	 1.504213e+00	-1.482389e+01
1	 9.594380e-01	 1.522984e+00	-1.617229e+01
1	 9.299766e-01	 1.541150e+00	-1.757156e+01
1	 1.081200e+00	 1.453788e+00	-1.065850e+01
1	 1.052832e+00	 1.474461e+00	-1.179130e+01
1	 1.024116e+00	 1.494550e+00	-1.299837e+01
1	 9.950686e-01	 1.514044e+00	-1.427060e+01
1	 9.657088e-01	 1.532938e+00	-1.559864e+01
1	 9.360549e-01	 1.551223e+00	-1.697303e+01
1	 1.088220e+00	 1.463228e+00	-1.015544e+01
1	 1.059669e+00	 1.484036e+00	-1.127177e+01
1	 1.030766e+00	 1.504254e+00	-1.246238e+01
1	 1.001530e+00	 1.523876e+00	-1.371649e+01
1	 9.719797e-01	 1.542892e+00	-1.502305e+01
1	 9.421332e-01	 1.561296e+00	-1.637075e+01
1	 9.117418e-01	 1.510931e+00	-1.934550e+01
1	 8.825896e-01	 1.528143e+00	-2.083226e+01
1	 8.531873e-01	 1.544752e+00	-2.230029e+01
1	 8.235531e-01	 1.560752e+00	-2.374126e+01
1	 7.937054e-01	 1.576140e+00	-2.514667e+01
1	 7.636626e-01	 1.590914e+00	-2.650789e+01
1	 9.178200e-01	 1.521004e+00	-1.875771e+01
1	 8.884736e-01	 1.538331e+00	-2.021961e+01
1	 8.588752e-01	 1.555050e+00	-2.165732e+01
1	 8.290434e-01	 1.571157e+00	-2.306296e+01
1	 7.989967e-01	 1.586648e+00	-2.442849e+01
1	 7.687537e-01	 1.601520e+00	-2.574576e+01
1	 9.238983e-01	 1.531077e+00	-1.816643e+01
1	 8.943575e-01	 1.548519e+00	-1.960154e+01
1	 8.645631e-01	 1.565349e+00	-2.100669e+01
1	 8.345338e-01	 1.581562e+00	-2.237455e+01
1	 8.042881e-01	 1.597156e+00	-2.369768e+01
1	 7.738448e-01	 1.612126e+00	-2.496849e+01
1	 9.299766e-01	 1.541150e+00	-1.757156e+01
1	 9.002414e-01	 1.558706e+00	-1.897782e+01
1	 8.702510e-01	 1.575647e+00	-2.034811e+01
1	 8.400241e-01	 1.591967e+00	-2.167573e+01
1	 8.095795e-01	 1.607663e+00	-2.295393e+01
1	 7.789359e-01	 1.622732e+00	-2.417587e+01
1	 9.360549e-01	 1.551223e+00	-1.697303e+01
1	 9.061253e-01	 1.568894e+00	-1.834825e+01
1	 8.759389e-01	 1.585945e+00	-1.968128e+01
1	 8.455145e-01	 1.602372e+00	-2.096617e+01
1	 8.148708e-01	 1.618171e+00	-2.219696e+01
1	 7.840270e-01	 1.633338e+00	-2.336767e+01
1	 9.421332e-01	 1.561296e+00	-1.637075e+01
1	 9.120093e-01	 1.579082e+00	-1.771263e+01
1	 8.816268e-01	 1.596244e+00	-1.900593e+01
1	 8.510048e-01	 1.612777e+00	-2.024558e+01
1	 8.201622e-01	 1.628678e+00	-2.142650e+01
1	 7.891180e-01	 1.643944e+00	-2.254370e+01
1	 7.636626e-01	 1.590914e+00	-2.650789e+01
1	 7.334433e-01	 1.605069e+00	-2.779927e+01
1	 7.030656e-01	 1.618606e+00	-2.899911e+01
1	 6.725480e-01	 1.631523e+00	-3.010470e+01
1	 6.419086e-01	 1.643819e+00	-3.111340e+01
1	 6.111655e-01	 1.655495e+00	-3.202274e+01
1	 7.687537e-01	 1.601520e+00	-2.574576e+01
1	 7.383329e-01	 1.615770e+00	-2.698996e+01
1	 7.077527e-01	 1.629397e+00	-2.814030e+01
1	 6.770317e-01	 1.642399e+00	-2.919460e+01
1	 6.461880e-01	 1.654778e+00	-3.015083e+01
1	 6.152400e-01	 1.666532e+00	-3.100711e+01
1	 7.738448e-01	 1.612126e+00	-2.496849e+01
1	 7.432225e-01	 1.626470e+00	-2.616312e+01
1	 7.124398e-01	 1.640187e+00	-2.726139e+01
1	 6.815153e-01	 1.653276e+00	-2.826141e+01
1	 6.504674e-01	 1.665736e+00	-2.916140e+01
1	 6.193144e-01	 1.677568e+00	-2.995972e+01
1	 7.789359e-01	 1.622732e+00	-2.417587e+01
1	 7.481121e-01	 1.637171e+00	-2.531856e+01
1	 7.171269e-01	 1.650978e+00	-2.636221e+01
1	 6.859990e-01	 1.664153e+00	-2.730483e+01
1	 6.547468e-01	 1.676695e+00	-2.814461e+01
1	 6.233888e-01	 1.688605e+00	-2.887984e+01
1	 7.840270e-01	 1.633338e+00	-2.336767e+01
1	 7.530017e-01	 1.647871e+00	-2.445613e+01
1	 7.218140e-01	 1.661769e+00	-2.544254e+01
1	 6.904826e-01	 1.675030e+00	-2.632457e+01
1	 6.590262e-01	 1.687654e+00	-2.710000e+01
1	 6.274633e-01	 1.699641e+00	-2.776677e+01
1	 7.891180e-01	 1.643944e+00	-2.254370e+01
1	 7.578914e-01	 1.658572e+00	-2.357567e+01
1	 7.265011e-01	 1.672560e+00	-2.450221e+01
1	 6.949663e-01	 1.685907e+00	-2.532032e+01
1	 6.633056e-01	 1.698613e+00	-2.602711e+01
1	 6.315377e-01	 1.710678e+00	-2.661981e+01
1	 6.111655e-01	 1.655495e+00	-3.202274e+01
1	 5.803366e-01	 1.666552e+00	-3.282918e+01
1	 5.494395e-01	 1.676992e+00	-3.353068e+01
1	 5.184917e-01	 1.686817e+00	-3.412736e+01
1	 4.875104e-01	 1.696031e+00	-3.461959e+01
1	 4.565125e-01	 1.704636e+00	-3.500806e+01
1	 6.152400e-01	 1.666532e+00	-3.100711e+01
1	 5.842055e-01	 1.677663e+00	-3.176072e+01
1	 5.531024e-01	 1.688172e+00	-3.240982e+01
1	 5.219483e-01	 1.698063e+00	-3.295418e+01
1	 4.907604e-01	 1.707338e+00	-3.339384e+01
1	 4.595560e-01	 1.716000e+00	-3.372912e+01
1	 6.193144e-01	 1.677568e+00	-2.995972e+01
1	 5.880744e-01	 1.688773e+00	-3.065440e+01
1	 5.567653e-01	 1.699352e+00	-3.124473e+01
1	 5.254049e-01	 1.709308e+00	-3.173136e+01
1	 4.940105e-01	 1.718645e+00	-3.211527e+01
1	 4.625994e-01	 1.727364e+00	-3.239767e+01
1	 6.233888e-01	 1.688605e+00	-2.887984e+01
1	 5.919433e-01	 1.699883e+00	-2.950931e+01
1	 5.604282e-01	 1.710532e+00	-3.003452e+01
1	 5.288615e-01	 1.720554e+00	-3.045824e+01
1	 4.972606e-01	 1.729951e+00	-3.078356e+01
1	 4.656428e-01	 1.738728e+00	-3.101385e+01
1	 6.274633e-01	 1.699641e+00	-2.776677e+01
1	 5.958122e-01	 1.710994e+00	-2.832460e+01
1	 5.640912e-01	 1.721712e+00	-2.877837e+01
1	 5.323181e-01	 1.731799e+00	-2.913417e+01
1	 5.005107e-01	 1.741258e+00	-2.939841e+01
1	 4.686862e-01	 1.750093e+00	-2.957780e+01
1	 6.315377e-01	 1.710678e+00	-2.661981e+01
1	 5.996811e-01	 1.722104e+00	-2.709940e+01
1	 5.677541e-01	 1.732892e+00	-2.747546e+01
1	 5.357747e-01	 1.743045e+00	-2.775852e+01
1	 5.037607e-01	 1.752565e+00	-2.795950e+01
1	 4.717296e-01	 1.761457e+00	-2.808965e+01
1	 4.565125e-01	 1.704636e+00	-3.500806e+01
1	 4.255148e-01	 1.712637e+00	-3.530461e+01
1	 3.945335e-01	 1.720038e+00	-3.552504e+01
1	 3.635846e-01	 1.726845e+00	-3.567632e+01
1	 3.326836e-01	 1.733063e+00	-3.576552e+01
1	 3.018459e-01	 1.738699e+00	-3.579980e+01
1	 4.595560e-01	 1.716000e+00	-3.372912e+01
1	 4.283516e-01	 1.724054e+00	-3.397220e+01
1	 3.971637e-01	 1.731505e+00	-3.414063e+01
1	 3.660085e-01	 1.738357e+00	-3.424318e+01
1	 3.349015e-01	 1.744617e+00	-3.428873e+01
1	 3.038582e-01	 1.750291e+00	-3.428620e+01
1	 4.625994e-01	 1.727364e+00	-3.239767e+01
1	 4.311883e-01	 1.735472e+00	-3.259194e+01
1	 3.997939e-01	 1.742972e+00	-3.271658e+01
1	 3.684324e-01	 1.749869e+00	-3.278088e+01
1	 3.371194e-01	 1.756171e+00	-3.279422e+01
1	 3.058705e-01	 1.761882e+00	-3.276603e+01
1	 4.656428e-01	 1.738728e+00	-3.101385e+01
1	 4.340251e-01	 1.746889e+00	-3.116439e+01
1	 4.024242e-01	 1.754439e+00	-3.125370e+01
1	 3.708563e-01	 1.761382e+00	-3.129032e+01
1	 3.393373e-01	 1.767725e+00	-3.128288e+01
1	 3.078828e-01	 1.773473e+00	-3.124002e+01
1	 4.686862e-01	 1.750093e+00	-2.957780e+01
1	 4.368619e-01	 1.758307e+00	-2.969010e+01
1	 4.050544e-01	 1.765906e+00	-2.975276e+01
1	 3.732802e-01	 1.772894e+00	-2.977237e+01
1	 3.415552e-01	 1.779278e+00	-2.975553e+01
1	 3.098951e-01	 1.785065e+00	-2.970889e+01
1	 4.717296e-01	 1.761457e+00	-2.808965e+01
1	 4.396986e-01	 1.769724e+00	-2.816959e+01
1	 4.076846e-01	 1.777372e+00	-2.821453e+01
1	 3.757040e-01	 1.784406e+00	-2.822787e+01
1	 3.437731e-01	 1.790832e+00	-2.821300e+01
1	 3.119074e-01	 1.796656e+00	-2.817332e+01
1	 3.018459e-01	 1.738699e+00	-3.579980e+01
1	 2.710863e-01	 1.743760e+00	-3.579018e+01
1	 2.404192e-01	 1.748252e+00	-3.574231e+01
1	 2.098585e-01	 1.752183e+00	-3.565549e+01
1	 1.794180e-01	 1.755561e+00	-3.552919e+01
1	 1.491107e-01	 1.758395e+00	-3.536304e+01
1	 3.038582e-01	 1.750291e+00	-3.428620e+01
1	 2.728935e-01	 1.755385e+00	-3.424782e+01
1	 2.420220e-01	 1.759907e+00	-3.417830e+01
1	 2.112576e-01	 1.763865e+00	-3.407554e+01
1	 1.806141e-01	 1.767265e+00	-3.393761e+01
1	 1.501048e-01	 1.770118e+00	-3.376277e+01
1	 3.058705e-01	 1.761882e+00	-3.276603e+01
1	 2.747008e-01	 1.767010e+00	-3.270860e+01
1	 2.436247e-01	 1.771562e+00	-3.262557e+01
1	 2.126567e-01	 1.775546e+00	-3.251358e+01
1	 1.818103e-01	 1.778969e+00	-3.236941e+01
1	 1.510988e-01	 1.781840e+00	-3.219009e+01
1	 3.078828e-01	 1.773473e+00	-3.124002e+01
1	 2.765080e-01	 1.778635e+00	-3.117309e+01
1	 2.452275e-01	 1.783217e+00	-3.108456e+01
1	 2.140557e-01	 1.787227e+00	-3.096989e+01
1	 1.830064e-01	 1.790673e+00	-3.082477e+01
1	 1.520929e-01	 1.793563e+00	-3.064511e+01
1	 3.098951e-01	 1.785065e+00	-2.970889e+01
1	 2.783153e-01	 1.790260e+00	-2.964187e+01
1	 2.468303e-01	 1.794872e+00	-2.955568e+01
1	 2.154548e-01	 1.798908e+00	-2.944480e+01
1	 1.842025e-01	 1.802376e+00	-2.930390e+01
1	 1.530870e-01	 1.805285e+00	-2.912792e+01
1	 3.119074e-01	 1.796656e+00	-2.817332e+01
1	 2.801225e-01	 1.801885e+00	-2.811546e+01
1	 2.484331e-01	 1.806527e+00	-2.803935e+01
1	 2.168538e-01	 1.810589e+00	-2.793858e+01
1	 1.853986e-01	 1.814080e+00	-2.780697e+01
1	 1.540811e-01	 1.817008e+00	-2.763861e+01
1	 1.491107e-01	 1.758395e+00	-3.536304e+01
1	 1.189493e-01	 1.760692e+00	-3.515793e+01
1	 8.894600e-02	 1.762463e+00	-3.491792e+01
1	 5.911257e-02	 1.763716e+00	-3.464746e+01
1	 2.946030e-02	 1.764460e+00	-3.435101e+01
1	 0.000000e+00	 1.764706e+00	-3.403294e+01
1	 1.501048e-01	 1.770118e+00	-3.376277e+01
1	 1.197423e-01	 1.772430e+00	-3.355077e+01
1	 8.953897e-02	 1.774213e+00	-3.330559e+01
1	 5.950666e-02	 1.775474e+00	-3.303187e+01
1	 2.965671e-02	 1.776223e+00	-3.273422e+01
1	 0.000000e+00	 1.776471e+00	-3.241718e+01
1	 1.510988e-01	 1.781840e+00	-3.219009e+01
1	 1.205353e-01	 1.784168e+00	-3.197439e+01
1	 9.013195e-02	 1.785962e+00	-3.172626e+01
1	 5.990074e-02	 1.787232e+00	-3.145060e+01
1	 2.985311e-02	 1.787986e+00	-3.115225e+01
1	 0.000000e+00	 1.788235e+00	-3.083597e+01
1	 1.520929e-01	 1.793563e+00	-3.064511e+01
1	 1.213283e-01	 1.795906e+00	-3.042882e+01
1	 9.072492e-02	 1.797712e+00	-3.017992e+01
1	 6.029483e-02	 1.798990e+00	-2.990362e+01
1	 3.004951e-02	 1.799749e+00	-2.960508e+01
1	 0.000000e+00	 1.800000e+00	-2.928935e+01
1	 1.530870e-01	 1.805285e+00	-2.912792e+01
1	 1.221213e-01	 1.807644e+00	-2.891406e+01
1	 9.131789e-02	 1.809462e+00	-2.866653e+01
1	 6.068891e-02	 1.810748e+00	-2.839090e+01
1	 3.024591e-02	 1.811512e+00	-2.809270e+01
1	 0.000000e+00	 1.811765e+00	-2.777737e+01
1	 1.540811e-01	 1.817008e+00	-2.763861e+01
1	 1.229143e-01	 1.819382e+00	-2.743015e+01
1	 9.191087e-02	 1.821212e+00	-2.718608e+01
1	 6.108299e-02	 1.822506e+00	-2.691241e+01
1	 3.044231e-02	 1.823275e+00	-2.661511e+01
1	 0.000000e+00	 1.823529e+00	-2.630008e+01
1	 1.823529e+00	 0.000000e+00	 7.048835e+00
1	 1.823275e+00	 3.044231e-02	 6.853943e+00
1	 1.822506e+00	 6.108299e-02	 6.664609e+00
1	 1.821212e+00	 9.191087e-02	 6.480826e+00
1	 1.819382e+00	 1.229143e-01	 6.302767e+00
1	 1.817008e+00	 1.540811e-01	 6.130799e+00
1	 1.835294e+00	 0.000000e+00	 6.653375e+00
1	 1.835038e+00	 3.063872e-02	 6.451494e+00
1	 1.834264e+00	 6.147708e-02	 6.256722e+00
1	 1.832961e+00	 9.250384e-02	 6.069265e+00
1	 1.831120e+00	 1.237073e-01	 5.889529e+00
1	 1.828731e+00	 1.550751e-01	 5.718136e+00
1	 1.847059e+00	 0.000000e+00	 6.267867e+00
1	 1.846801e+00	 3.083512e-02	 6.060260e+00
1	 1.846022e+00	 6.187116e-02	 5.861241e+00
1	 1.844711e+00	 9.309681e-02	 5.671280e+00
1	 1.842858e+00	 1.245003e-01	 5.491076e+00
1	 1.840453e+00	 1.560692e-01	 5.321559e+00
1	 1.858824e+00	 0.000000e+00	 5.891754e+00
1	 1.858564e+00	 3.103152e-02	 5.679750e+00
1	 1.857780e+00	 6.226524e-02	 5.477739e+00
1	 1.856461e+00	 9.368979e-02	 5.286513e+00
1	 1.854596e+00	 1.252933e-01	 5.107112e+00
1	 1.852176e+00	 1.570633e-01	 4.940833e+00
1	 1.870588e+00	 0.000000e+00	 5.524493e+00
1	 1.870328e+00	 3.122792e-02	 5.309486e+00
1	 1.869538e+00	 6.265933e-02	 5.105805e+00
1	 1.868211e+00	 9.428276e-02	 4.914614e+00
1	 1.866334e+00	 1.260863e-01	 4.737350e+00
1	 1.863899e+00	 1.580573e-01	 4.575729e+00
1	 1.882353e+00	 0.000000e+00	 5.165554e+00
1	 1.882091e+00	 3.142432e-02	 4.949001e+00
1	 1.881297e+00	 6.305341e-02	 4.745035e+00
1	 1.879960e+00	 9.487573e-02	 4.555243e+00
1	 1.878072e+00	 1.268792e-01	 4.381508e+00
1	 1.875621e+00	 1.590514e-01	 4.226024e+00
1	 1.817008e+00	 1.540811e-01	 6.130799e+00
1	 1.814080e+00	 1.853986e-01	 5.962252e+00
1	 1.810589e+00	 2.168538e-01	 5.794756e+00
1	 1.806527e+00	 2.484331e-01	 5.629232e+00
1	 1.801885e+00	 2.801225e-01	 5.466533e+00
1	 1.796656e+00	 3.119074e-01	 5.307440e+00
1	 1.828731e+00	 1.550751e-01	 5.718136e+00
1	 1.825784e+00	 1.865947e-01	 5.551822e+00
1	 1.822271e+00	 2.182529e-01	 5.387538e+00
1	 1.818182e+00	 2.500359e-01	 5.226316e+00
1	 1.813510e+00	 2.819297e-01	 5.069072e+00
1	 1.808247e+00	 3.139198e-01	 4.916594e+00
1	 1.840453e+00	 1.560692e-01	 5.321559e+00
1	 1.837488e+00	 1.877909e-01	 5.158746e+00
1	 1.833952e+00	 2.196519e-01	 4.998737e+00
1	 1.829837e+00	 2.516387e-01	 4.842660e+00
1	 1.825136e+00	 2.837370e-01	 4.691470e+00
1	 1.819839e+00	 3.159321e-01	 4.545940e+00
1	 1.852176e+00	 1.570633e-01	 4.940833e+00
1	 1.849191e+00	 1.889870e-01	 4.782834e+00
1	 1.845633e+00	 2.210510e-01	 4.628185e+00
1	 1.841492e+00	 2.532415e-01	 4.478092e+00
1	 1.836761e+00	 2.855442e-01	 4.333529e+00
1	 1.831430e+00	 3.179444e-01	 4.195225e+00
1	 1.863899e+00	 1.580573e-01	 4.575729e+00
1	 1.860895e+00	 1.901831e-01	 4.423903e+00
1	 1.857314e+00	 2.224501e-01	 4.275719e+00
1	 1.853147e+00	 2.548443e-01	 4.132443e+00
1	 1.848386e+00	 2.873515e-01	 3.995050e+00
1	 1.843021e+00	 3.199567e-01	 3.864200e+00
1	 1.875621e+00	 1.590514e-01	 4.226024e+00
1	 1.872599e+00	 1.913792e-01	 4.081775e+00
1	 1.868995e+00	 2.238491e-01	 3.941179e+00
1	 1.864802e+00	 2.564471e-01	 3.805551e+00
1	 1.860011e+00	 2.891587e-01	 3.675844e+00
1	 1.854613e+00	 3.219690e-01	 3.552622e+00
1	 1.796656e+00	 3.119074e-01	 5.307440e+00
1	 1.790832e+00	 3.437731e-01	 5.143754e+00
1	 1.784406e+00	 3.757040e-01	 4.966856e+00
1	 1.777372e+00	 4.076846e-01	 4.776984e+00
1	 1.769724e+00	 4.396986e-01	 4.574582e+00
1	 1.761457e+00	 4.717296e-01	 4.360305e+00
1	 1.808247e+00	 3.139198e-01	 4.916594e+00
1	 1.802386e+00	 3.459910e-01	 4.761372e+00
1	 1.795919e+00	 3.781279e-01	 4.595683e+00
1	 1.788839e+00	 4.103148e-01	 4.419978e+00
1	 1.781142e+00	 4.425354e-01	 4.234830e+00
1	 1.772821e+00	 4.747731e-01	 4.040929e+00
1	 1.819839e+00	 3.159321e-01	 4.545940e+00
1	 1.813940e+00	 3.482089e-01	 4.399148e+00
1	 1.807431e+00	 3.805518e-01	 4.244117e+00
1	 1.800306e+00	 4.129451e-01	 4.081432e+00
1	 1.792560e+00	 4.453722e-01	 3.911722e+00
1	 1.784185e+00	 4.778165e-01	 3.735661e+00
1	 1.831430e+00	 3.179444e-01	 4.195225e+00
1	 1.825493e+00	 3.504268e-01	 4.056804e+00
1	 1.818943e+00	 3.829757e-01	 3.911952e+00
1	 1.811773e+00	 4.155753e-01	 3.761299e+00
1	 1.803977e+00	 4.482089e-01	 3.605467e+00
1	 1.795550e+00	 4.808599e-01	 3.445063e+00
1	 1.843021e+00	 3.199567e-01	 3.864200e+00
1	 1.837047e+00	 3.526446e-01	 3.734071e+00
1	 1.830456e+00	 3.853996e-01	 3.598984e+00
1	 1.823240e+00	 4.182055e-01	 3.459534e+00
1	 1.815395e+00	 4.510457e-01	 3.316268e+00
1	 1.806914e+00	 4.839033e-01	 3.169681e+00
1	 1.854613e+00	 3.219690e-01	 3.552622e+00
1	 1.848601e+00	 3.548625e-01	 3.430686e+00
1	 1.841968e+00	 3.878235e-01	 3.305016e+00
1	 1.834707e+00	 4.208357e-01	 3.176093e+00
1	 1.826812e+00	 4.538825e-01	 3.044325e+00
1	 1.818278e+00	 4.869467e-01	 2.910048e+00
1	 1.761457e+00	 4.717296e-01	 4.360305e+00
1	 1.752565e+00	 5.037607e-01	 4.105389e+00
1	 1.743045e+00	 5.357747e-01	 3.783735e+00
1	 1.732892e+00	 5.677541e-01	 3.400919e+00
1	 1.722104e+00	 5.996811e-01	 2.963527e+00
1	 1.710678e+00	 6.315377e-01	 2.479162e+00
1	 1.772821e+00	 4.747731e-01	 4.040929e+00
1	 1.763872e+00	 5.070108e-01	 3.811051e+00
1	 1.754290e+00	 5.392313e-01	 3.520047e+00
1	 1.744072e+00	 5.714170e-01	 3.172594e+00
1	 1.733214e+00	 6.035500e-01	 2.774431e+00
1	 1.721715e+00	 6.356121e-01	 2.332368e+00
1	 1.784185e+00	 4.778165e-01	 3.735661e+00
1	 1.775179e+00	 5.102609e-01	 3.527875e+00
1	 1.765536e+00	 5.426879e-01	 3.264639e+00
1	 1.755252e+00	 5.750800e-01	 2.949924e+00
1	 1.744325e+00	 6.074189e-01	 2.588770e+00
1	 1.732751e+00	 6.396866e-01	 2.187293e+00
1	 1.795550e+00	 4.808599e-01	 3.445063e+00
1	 1.786486e+00	 5.135109e-01	 3.256721e+00
1	 1.776781e+00	 5.461445e-01	 3.018466e+00
1	 1.766432e+00	 5.787429e-01	 2.733748e+00
1	 1.755435e+00	 6.112878e-01	 2.407049e+00
1	 1.743788e+00	 6.437610e-01	 2.043896e+00
1	 1.806914e+00	 4.839033e-01	 3.169681e+00
1	 1.797793e+00	 5.167610e-01	 2.998426e+00
1	 1.788027e+00	 5.496012e-01	 2.782457e+00
1	 1.777612e+00	 5.824058e-01	 2.524882e+00
1	 1.766545e+00	 6.151568e-01	 2.229764e+00
1	 1.754825e+00	 6.478354e-01	 1.902140e+00
1	 1.818278e+00	 4.869467e-01	 2.910048e+00
1	 1.809100e+00	 5.200111e-01	 2.753809e+00
1	 1.799272e+00	 5.530578e-01	 2.557520e+00
1	 1.788792e+00	 5.860688e-01	 2.324122e+00
1	 1.777656e+00	 6.190257e-01	 2.057398e+00
1	 1.765861e+00	 6.519099e-01	 1.761987e+00
1	 1.710678e+00	 6.315377e-01	 2.479162e+00
1	 1.698613e+00	 6.633056e-01	 1.953389e+00
1	 1.685907e+00	 6.949663e-01	 1.388999e+00
1	 1.672560e+00	 7.265011e-01	 7.901858e-01
1	 1.658572e+00	 7.578914e-01	 1.611239e-01
1	 1.643944e+00	 7.891180e-01	-4.940500e-01
1	 1.721715e+00	 6.356121e-01	 2.332368e+00
1	 1.709572e+00	 6.675850e-01	 1.849191e+00
1	 1.696784e+00	 6.994499e-01	 1.325568e+00
1	 1.683350e+00	 7.311882e-01	 7.659741e-01
1	 1.669272e+00	 7.627810e-01	 1.749176e-01
1	 1.654550e+00	 7.942091e-01	-4.430750e-01
1	 1.732751e+00	 6.396866e-01	 2.187293e+00
1	 1.720530e+00	 6.718644e-01	 1.745559e+00
1	 1.707660e+00	 7.039336e-01	 1.261988e+00
1	 1.694141e+00	 7.358753e-01	 7.411465e-01
1	 1.679973e+00	 7.676706e-01	 1.877260e-01
1	 1.665156e+00	 7.993002e-01	-3.934702e-01
1	 1.743788e+00	 6.437610e-01	 2.043896e+00
1	 1.731489e+00	 6.761438e-01	 1.641881e+00
1	 1.718537e+00	 7.084172e-01	 1.197236e+00
1	 1.704932e+00	 7.405624e-01	 7.144378e-01
1	 1.690673e+00	 7.725602e-01	 1.982153e-01
1	 1.675762e+00	 8.043913e-01	-3.464634e-01
1	 1.754825e+00	 6.478354e-01	 1.902140e+00
1	 1.742448e+00	 6.804231e-01	 1.537556e+00
1	 1.729414e+00	 7.129009e-01	 1.130312e+00
1	 1.715722e+00	 7.452496e-01	 6.846147e-01
1	 1.701374e+00	 7.774498e-01	 2.050850e-01
1	 1.686368e+00	 8.094824e-01	-3.032518e-01
1	 1.765861e+00	 6.519099e-01	 1.761987e+00
1	 1.753407e+00	 6.847025e-01	 1.432001e+00
1	 1.740291e+00	 7.173845e-01	 1.060243e+00
1	 1.726513e+00	 7.499367e-01	 6.504746e-01
1	 1.712074e+00	 7.823395e-01	 2.070675e-01
1	 1.696975e+00	 8.145735e-01	-2.650024e-01
1	 1.643944e+00	 7.891180e-01	-4.940500e-01
1	 1.628678e+00	 8.201622e-01	-1.155174e+00
1	 1.612777e+00	 8.510048e-01	-1.805668e+00
1	 1.596244e+00	 8.816268e-01	-2.447399e+00
1	 1.579082e+00	 9.120093e-01	-3.083020e+00
1	 1.561296e+00	 9.421332e-01	-3.715972e+00
1	 1.654550e+00	 7.942091e-01	-4.430750e-01
1	 1.639186e+00	 8.254536e-01	-1.068744e+00
1	 1.623182e+00	 8.564952e-01	-1.686404e+00
1	 1.606542e+00	 8.873148e-01	-2.297433e+00
1	 1.589269e+00	 9.178932e-01	-2.903931e+00
1	 1.571369e+00	 9.482114e-01	-3.508724e+00
1	 1.665156e+00	 7.993002e-01	-3.934702e-01
1	 1.649694e+00	 8.307449e-01	-9.841424e-01
1	 1.633587e+00	 8.619855e-01	-1.569397e+00
1	 1.616840e+00	 8.930027e-01	-2.149963e+00
1	 1.599457e+00	 9.237771e-01	-2.727226e+00
1	 1.581442e+00	 9.542897e-01	-3.303235e+00
1	 1.675762e+00	 8.043913e-01	-3.464634e-01
1	 1.660201e+00	 8.360363e-01	-9.024033e-01
1	 1.643992e+00	 8.674759e-01	-1.455488e+00
1	 1.627139e+00	 8.986906e-01	-2.005639e+00
1	 1.609644e+00	 9.296611e-01	-2.553370e+00
1	 1.591514e+00	 9.603680e-01	-3.099795e+00
1	 1.686368e+00	 8.094824e-01	-3.032518e-01
1	 1.670709e+00	 8.413277e-01	-8.245337e-01
1	 1.654397e+00	 8.729662e-01	-1.345494e+00
1	 1.637437e+00	 9.043785e-01	-1.865093e+00
1	 1.619832e+00	 9.355450e-01	-2.382817e+00
1	 1.601587e+00	 9.664463e-01	-2.898686e+00
1	 1.696975e+00	 8.145735e-01	-2.650024e-01
1	 1.681216e+00	 8.466191e-01	-7.515158e-01
1	 1.664802e+00	 8.784566e-01	-1.240214e+00
1	 1.647735e+00	 9.100664e-01	-1.728943e+00
1	 1.630020e+00	 9.414289e-01	-2.216009e+00
1	 1.611660e+00	 9.725246e-01	-2.700184e+00
1	 1.561296e+00	 9.421332e-01	-3.715972e+00
1	 1.542892e+00	 9.719797e-01	-4.301369e+00
1	 1.523876e+00	 1.001530e+00	-4.792374e+00
1	 1.504254e+00	 1.030766e+00	-5.190271e+00
1	 1.484036e+00	 1.059669e+00	-5.496602e+00
1	 1.463228e+00	 1.088220e+00	-5.713165e+00
1	 1.571369e+00	 9.482114e-01	-3.508724e+00
1	 1.552846e+00	 9.782505e-01	-4.065211e+00
1	 1.533707e+00	 1.007992e+00	-4.525387e+00
1	 1.513959e+00	 1.037416e+00	-4.890777e+00
1	 1.493610e+00	 1.066505e+00	-5.163256e+00
1	 1.472668e+00	 1.095241e+00	-5.345049e+00
1	 1.581442e+00	 9.542897e-01	-3.303235e+00
1	 1.562800e+00	 9.845213e-01	-3.829890e+00
1	 1.543539e+00	 1.014453e+00	-4.258442e+00
1	 1.523664e+00	 1.044066e+00	-4.590811e+00
1	 1.503185e+00	 1.073342e+00	-4.829378e+00
1	 1.482108e+00	 1.102262e+00	-4.976984e+00
1	 1.591514e+00	 9.603680e-01	-3.099795e+00
1	 1.572754e+00	 9.907922e-01	-3.595560e+00
1	 1.553370e+00	 1.020915e+00	-3.991620e+00
1	 1.533369e+00	 1.050716e+00	-4.290444e+00
1	 1.512759e+00	 1.080178e+00	-4.495089e+00
1	 1.491548e+00	 1.109283e+00	-4.609195e+00
1	 1.601587e+00	 9.664463e-01	-2.898686e+00
1	 1.582708e+00	 9.970630e-01	-3.362370e+00
1	 1.563201e+00	 1.027376e+00	-3.725001e+00
1	 1.543074e+00	 1.057366e+00	-3.989747e+00
1	 1.522333e+00	 1.087015e+00	-4.160507e+00
1	 1.500989e+00	 1.116303e+00	-4.241902e+00
1	 1.611660e+00	 9.725246e-01	-2.700184e+00
1	 1.592662e+00	 1.003334e+00	-3.130467e+00
1	 1.573033e+00	 1.033837e+00	-3.458664e+00
1	 1.552779e+00	 1.064016e+00	-3.688790e+00
1	 1.531908e+00	 1.093851e+00	-3.825748e+00
1	 1.510429e+00	 1.123324e+00	-3.875322e+00
1	 1.463228e+00	 1.088220e+00	-5.713165e+00
1	 1.441840e+00	 1.116403e+00	-5.831711e+00
1	 1.419883e+00	 1.144200e+00	-5.855818e+00
1	 1.397365e+00	 1.171593e+00	-5.806706e+00
1	 1.374300e+00	 1.198566e+00	-5.707509e+00
1	 1.350698e+00	 1.225102e+00	-5.583177e+00
1	 1.472668e+00	 1.095241e+00	-5.345049e+00
1	 1.451142e+00	 1.123606e+00	-5.431968e+00
1	 1.429043e+00	 1.151582e+00	-5.431434e+00
1	 1.406381e+00	 1.179151e+00	-5.364862e+00
1	 1.383166e+00	 1.206298e+00	-5.255615e+00
1	 1.359412e+00	 1.233006e+00	-5.128897e+00
1	 1.482108e+00	 1.102262e+00	-4.976984e+00
1	 1.460445e+00	 1.130808e+00	-5.033488e+00
1	 1.438204e+00	 1.158964e+00	-5.009879e+00
1	 1.415396e+00	 1.186710e+00	-4.927555e+00
1	 1.392033e+00	 1.214031e+00	-4.809874e+00
1	 1.368126e+00	 1.240910e+00	-4.682052e+00
1	 1.491548e+00	 1.109283e+00	-4.609195e+00
1	 1.469747e+00	 1.138011e+00	-4.636592e+00
1	 1.447364e+00	 1.166346e+00	-4.591496e+00
1	 1.424411e+00	 1.194269e+00	-4.495079e+00
1	 1.400899e+00	 1.221764e+00	-4.370471e+00
1	 1.376840e+00	 1.248814e+00	-4.242658e+00
1	 1.500989e+00	 1.116303e+00	-4.241902e+00
1	 1.479049e+00	 1.145214e+00	-4.241592e+00
1	 1.456525e+00	 1.173727e+00	-4.176617e+00
1	 1.433426e+00	 1.201827e+00	-4.067722e+00
1	 1.409766e+00	 1.229496e+00	-3.937587e+00
1	 1.385555e+00	 1.256718e+00	-3.810730e+00
1	 1.510429e+00	 1.123324e+00	-3.875322e+00
1	 1.488351e+00	 1.152416e+00	-3.848790e+00
1	 1.465685e+00	 1.181109e+00	-3.765567e+00
1	 1.442442e+00	 1.209386e+00	-3.645763e+00
1	 1.418632e+00	 1.237229e+00	-3.511395e+00
1	 1.394269e+00	 1.264621e+00	-3.386281e+00
1	 1.350698e+00	 1.225102e+00	-5.583177e+00
1	 1.326572e+00	 1.251186e+00	-5.507223e+00
1	 1.301936e+00	 1.276802e+00	-5.536160e+00
1	 1.276802e+00	 1.301936e+00	-5.670262e+00
1	 1.251186e+00	 1.326572e+00	-5.909184e+00
1	 1.225102e+00	 1.350698e+00	-6.251976e+00
1	 1.359412e+00	 1.233006e+00	-5.128897e+00
1	 1.335131e+00	 1.259258e+00	-5.054188e+00
1	 1.310335e+00	 1.285039e+00	-5.083877e+00
1	 1.285039e+00	 1.310335e+00	-5.218380e+00
1	 1.259258e+00	 1.335131e+00	-5.457495e+00
1	 1.233006e+00	 1.359412e+00	-5.800414e+00
1	 1.368126e+00	 1.240910e+00	-4.682052e+00
1	 1.343689e+00	 1.267330e+00	-4.609325e+00
1	 1.318735e+00	 1.293277e+00	-4.640020e+00
1	 1.293277e+00	 1.318735e+00	-4.774859e+00
1	 1.267330e+00	 1.343689e+00	-5.013962e+00
1	 1.240910e+00	 1.368126e+00	-5.356858e+00
1	 1.376840e+00	 1.248814e+00	-4.242658e+00
1	 1.352248e+00	 1.275402e+00	-4.172488e+00
1	 1.327134e+00	 1.301514e+00	-4.204347e+00
1	 1.301514e+00	 1.327134e+00	-4.339426e+00
1	 1.275402e+00	 1.352248e+00	-4.578343e+00
1	 1.248814e+00	 1.376840e+00	-4.921156e+00
1	 1.385555e+00	 1.256718e+00	-3.810730e+00
1	 1.360806e+00	 1.283475e+00	-3.743532e+00
1	 1.335534e+00	 1.309752e+00	-3.776622e+00
1	 1.309752e+00	 1.335534e+00	-3.911815e+00
1	 1.283475e+00	 1.360806e+00	-4.150401e+00
1	 1.256718e+00	 1.385555e+00	-4.493155e+00
1	 1.394269e+00	 1.264621e+00	-3.386281e+00
1	 1.369365e+00	 1.291547e+00	-3.322317e+00
1	 1.343933e+00	 1.317989e+00	-3.356614e+00
1	 1.317989e+00	 1.343933e+00	-3.491767e+00
1	 1.291547e+00	 1.369365e+00	-3.729908e+00
1	 1.264621e+00	 1.394269e+00	-4.072710e+00
1	 1.225102e+00	 1.350698e+00	-6.251976e+00
1	 1.198566e+00	 1.374300e+00	-6.737139e+00
1	 1.171593e+00	 1.397365e+00	-7.391289e+00
1	 1.144200e+00	 1.419883e+00	-8.193966e+00
1	 1.116403e+00	 1.441840e+00	-9.123162e+00
1	 1.088220e+00	 1.463228e+00	-1.015544e+01
1	 1.233006e+00	 1.359412e+00	-5.800414e+00
1	 1.206298e+00	 1.383166e+00	-6.283515e+00
1	 1.179151e+00	 1.406381e+00	-6.931495e+00
1	 1.151582e+00	 1.429043e+00	-7.724334e+00
1	 1.123606e+00	 1.451142e+00	-8.640459e+00
1	 1.095241e+00	 1.472668e+00	-9.656863e+00
1	 1.240910e+00	 1.368126e+00	-5.356858e+00
1	 1.214031e+00	 1.392033e+00	-5.837929e+00
1	 1.186710e+00	 1.415396e+00	-6.479883e+00
1	 1.158964e+00	 1.438204e+00	-7.263059e+00
1	 1.130808e+00	 1.460445e+00	-8.166221e+00
1	 1.102262e+00	 1.482108e+00	-9.166679e+00
1	 1.248814e+00	 1.376840e+00	-4.921156e+00
1	 1.221764e+00	 1.400899e+00	-5.400319e+00
1	 1.194269e+00	 1.424411e+00	-6.036443e+00
1	 1.166346e+00	 1.447364e+00	-6.810138e+00
1	 1.138011e+00	 1.469747e+00	-7.700409e+00
1	 1.109283e+00	 1.491548e+00	-8.684785e+00
1	 1.256718e+00	 1.385555e+00	-4.493155e+00
1	 1.229496e+00	 1.409766e+00	-4.970625e+00
1	 1.201827e+00	 1.433426e+00	-5.601163e+00
1	 1.173727e+00	 1.456525e+00	-6.365564e+00
1	 1.145214e+00	 1.479049e+00	-7.242987e+00
1	 1.116303e+00	 1.500989e+00	-8.211072e+00
1	 1.264621e+00	 1.394269e+00	-4.072710e+00
1	 1.237229e+00	 1.418632e+00	-4.548790e+00
1	 1.209386e+00	 1.442442e+00	-5.174030e+00
1	 1.181109e+00	 1.465685e+00	-5.929334e+00
1	 1.152416e+00	 1.488351e+00	-6.793918e+00
1	 1.123324e+00	 1.510429e+00	-7.745438e+00
1	 1.088220e+00	 1.463228e+00	-1.015544e+01
1	 1.059669e+00	 1.484036e+00	-1.127177e+01
1	 1.030766e+00	 1.504254e+00	-1.246238e+01
1	 1.001530e+00	 1.523876e+00	-1.371649e+01
1	 9.719797e-01	 1.542892e+00	-1.502305e+01
1	 9.421332e-01	 1.561296e+00	-1.637075e+01
1	 1.095241e+00	 1.472668e+00	-9.656863e+00
1	 1.066505e+00	 1.493610e+00	-1.075638e+01
1	 1.037416e+00	 1.513959e+00	-1.192981e+01
1	 1.007992e+00	 1.533707e+00	-1.316474e+01
1	 9.782505e-01	 1.552846e+00	-1.444840e+01
1	 9.482114e-01	 1.571369e+00	-1.576769e+01
1	 1.102262e+00	 1.482108e+00	-9.166679e+00
1	 1.073342e+00	 1.503185e+00	-1.024887e+01
1	 1.044066e+00	 1.523664e+00	-1.140404e+01
1	 1.014453e+00	 1.543539e+00	-1.261838e+01
1	 9.845213e-01	 1.562800e+00	-1.387758e+01
1	 9.542897e-01	 1.581442e+00	-1.516696e+01
1	 1.109283e+00	 1.491548e+00	-8.684785e+00
1	 1.080178e+00	 1.512759e+00	-9.749053e+00
1	 1.050716e+00	 1.533369e+00	-1.088492e+01
1	 1.020915e+00	 1.553370e+00	-1.207731e+01
1	 9.907922e-01	 1.572754e+00	-1.331062e+01
1	 9.603680e-01	 1.591514e+00	-1.456880e+01
1	 1.116303e+00	 1.500989e+00	-8.211072e+00
1	 1.087015e+00	 1.522333e+00	-9.256786e+00
1	 1.057366e+00	 1.543074e+00	-1.037228e+01
1	 1.027376e+00	 1.563201e+00	-1.154144e+01
1	 9.970630e-01	 1.582708e+00	-1.274755e+01
1	 9.664463e-01	 1.601587e+00	-1.397339e+01
1	 1.123324e+00	 1.510429e+00	-7.745438e+00
1	 1.093851e+00	 1.531908e+00	-8.771908e+00
1	 1.064016e+00	 1.552779e+00	-9.865992e+00
1	 1.033837e+00	 1.573033e+00	-1.101070e+01
1	 1.003334e+00	 1.592662e+00	-1.218840e+01
1	 9.725246e-01	 1.611660e+00	-1.338094e+01
1	 9.421332e-01	 1.561296e+00	-1.637075e+01
1	 9.120093e-01	 1.579082e+00	-1.771263e+01
1	 8.816268e-01	 1.596244e+00	-1.900593e+01
1	 8.510048e-01	 1.612777e+00	-2.024558e+01
1	 8.201622e-01	 1.628678e+00	-2.142650e+01
1	 7.891180e-01	 1.643944e+00	-2.254370e+01
1	 9.482114e-01	 1.571369e+00	-1.576769e+01
1	 9.178932e-01	 1.589269e+00	-1.707446e+01
1	 8.873148e-01	 1.606542e+00	-1.832642e+01
1	 8.564952e-01	 1.623182e+00	-1.951908e+01
1	 8.254536e-01	 1.639186e+00	-2.064804e+01
1	 7.942091e-01	 1.654550e+00	-2.170900e+01
1	 9.542897e-01	 1.581442e+00	-1.516696e+01
1	 9.237771e-01	 1.599457e+00	-1.643759e+01
1	 8.930027e-01	 1.616840e+00	-1.764746e+01
1	 8.619855e-01	 1.633587e+00	-1.879209e+01
1	 8.307449e-01	 1.649694e+00	-1.986712e+01
1	 7.993002e-01	 1.665156e+00	-2.086832e+01
1	 9.603680e-01	 1.591514e+00	-1.456880e+01
1	 9.296611e-01	 1.609644e+00	-1.580237e+01
1	 8.986906e-01	 1.627139e+00	-1.696935e+01
1	 8.674759e-01	 1.643992e+00	-1.806471e+01
1	 8.360363e-01	 1.660201e+00	-1.908351e+01
1	 8.043913e-01	 1.675762e+00	-2.002097e+01
1	 9.664463e-01	 1.601587e+00	-1.397339e+01
1	 9.355450e-01	 1.619832e+00	-1.516909e+01
1	 9.043785e-01	 1.637437e+00	-1.629236e+01
1	 8.729662e-01	 1.654397e+00	-1.733702e+01
1	 8.413277e-01	 1.670709e+00	-1.829699e+01
1	 8.094824e-01	 1.686368e+00	-1.916630e+01
1	 9.725246e-01	 1.611660e+00	-1.338094e+01
1	 9.414289e-01	 1.630020e+00	-1.453809e+01
1	 9.100664e-01	 1.647735e+00	-1.561677e+01
1	 8.784566e-01	 1.664802e+00	-1.660912e+01
1	 8.466191e-01	 1.681216e+00	-1.750732e+01
1	 8.145735e-01	 1.696975e+00	-1.830366e+01
1	 7.891180e-01	 1.643944e+00	-2.254370e+01
1	 7.578914e-01	 1.658572e+00	-2.357567e+01
1	 7.265011e-01	 1.672560e+00	-2.450221e+01
1	 6.949663e-01	 1.685907e+00	-2.532032e+01
1	 6.633056e-01	 1.698613e+00	-2.602711e+01
1	 6.315377e-01	 1.710678e+00	-2.661981e+01
1	 7.942091e-01	 1.654550e+00	-2.170900e+01
1	 7.627810e-01	 1.669272e+00	-2.268080e+01
1	 7.311882e-01	 1.683350e+00	-2.354308e+01
1	 6.994499e-01	 1.696784e+00	-2.429285e+01
1	 6.675850e-01	 1.709572e+00	-2.492722e+01
1	 6.356121e-01	 1.721715e+00	-2.544338e+01
1	 7.993002e-01	 1.665156e+00	-2.086832e+01
1	 7.676706e-01	 1.679973e+00	-2.177454e+01
1	 7.358753e-01	 1.694141e+00	-2.256643e+01
1	 7.039336e-01	 1.707660e+00	-2.324259e+01
1	 6.718644e-01	 1.720530e+00	-2.380173e+01
1	 6.396866e-01	 1.732751e+00	-2.424268e+01
1	 8.043913e-01	 1.675762e+00	-2.002097e+01
1	 7.725602e-01	 1.690673e+00	-2.085589e+01
1	 7.405624e-01	 1.704932e+00	-2.157124e+01
1	 7.084172e-01	 1.718537e+00	-2.216877e+01
1	 6.761438e-01	 1.731489e+00	-2.265040e+01
1	 6.437610e-01	 1.743788e+00	-2.301821e+01
1	 8.094824e-01	 1.686368e+00	-1.916630e+01
1	 7.774498e-01	 1.701374e+00	-1.992384e+01
1	 7.452496e-01	 1.715722e+00	-2.055648e+01
1	 7.129009e-01	 1.729414e+00	-2.107064e+01
1	 6.804231e-01	 1.742448e+00	-2.147299e+01
1	 6.478354e-01	 1.754825e+00	-2.177047e+01
1	 8.145735e-01	 1.696975e+00	-1.830366e+01
1	 7.823395e-01	 1.712074e+00	-1.897743e+01
1	 7.499367e-01	 1.726513e+00	-1.952119e+01
1	 7.173845e-01	 1.740291e+00	-1.994748e+01
1	 6.847025e-01	 1.753407e+00	-2.026928e+01
1	 6.519099e-01	 1.765861e+00	-2.049995e+01
1	 6.315377e-01	 1.710678e+00	-2.661981e+01
1	 5.996811e-01	 1.722104e+00	-2.709940e+01
1	 5.677541e-01	 1.732892e+00	-2.747546e+01
1	 5.357747e-01	 1.743045e+00	-2.775852e+01
1	 5.037607e-01	 1.752565e+00	-2.795950e+01
1	 4.717296e-01	 1.761457e+00	-2.808965e+01
1	 6.356121e-01	 1.721715e+00	-2.544338e+01
1	 6.035500e-01	 1.733214e+00	-2.584454e+01
1	 5.714170e-01	 1.744072e+00	-2.614517e+01
1	 5.392313e-01	 1.754290e+00	-2.635985e+01
1	 5.070108e-01	 1.763872e+00	-2.650357e+01
1	 4.747731e-01	 1.772821e+00	-2.659165e+01
1	 6.396866e-01	 1.732751e+00	-2.424268e+01
1	 6.074189e-01	 1.744325e+00	-2.457216e+01
1	 5.750800e-01	 1.755252e+00	-2.480846e+01
1	 5.426879e-01	 1.765536e+00	-2.496818e+01
1	 5.102609e-01	 1.775179e+00	-2.506840e+01
1	 4.778165e-01	 1.784185e+00	-2.512650e+01
1	 6.437610e-01	 1.743788e+00	-2.301821e+01
1	 6.112878e-01	 1.755435e+00	-2.328345e+01
1	 5.787429e-01	 1.766432e+00	-2.346679e+01
1	 5.461445e-01	 1.776781e+00	-2.358500e+01
1	 5.135109e-01	 1.786486e+00	-2.365523e+01
1	 4.808599e-01	 1.795550e+00	-2.369494e+01
1	 6.478354e-01	 1.754825e+00	-2.177047e+01
1	 6.151568e-01	 1.766545e+00	-2.197953e+01
1	 5.824058e-01	 1.777612e+00	-2.212164e+01
1	 5.496012e-01	 1.788027e+00	-2.221177e+01
1	 5.167610e-01	 1.797793e+00	-2.226527e+01
1	 4.839033e-01	 1.806914e+00	-2.229770e+01
1	 6.519099e-01	 1.765861e+00	-2.049995e+01
1	 6.190257e-01	 1.777656e+00	-2.066152e+01
1	 5.860688e-01	 1.788792e+00	-2.077439e+01
1	 5.530578e-01	 1.799272e+00	-2.084991e+01
1	 5.200111e-01	 1.809100e+00	-2.089968e+01
1	 4.869467e-01	 1.818278e+00	-2.093549e+01
1	 4.717296e-01	 1.761457e+00	-2.808965e+01
1	 4.396986e-01	 1.769724e+00	-2.816959e+01
1	 4.076846e-01	 1.777372e+00	-2.821453e+01
1	 3.757040e-01	 1.784406e+00	-2.822787e+01
1	 3.437731e-01	 1.790832e+00	-2.821300e+01
1	 3.119074e-01	 1.796656e+00	-2.817332e+01
1	 4.747731e-01	 1.772821e+00	-2.659165e+01
1	 4.425354e-01	 1.781142e+00	-2.664673e+01
1	 4.103148e-01	 1.788839e+00	-2.668104e+01
1	 3.781279e-01	 1.795919e+00	-2.669460e+01
1	 3.459910e-01	 1.802386e+00	-2.668740e+01
1	 3.139198e-01	 1.808247e+00	-2.665943e+01
1	 4.778165e-01	 1.784185e+00	-2.512650e+01
1	 4.453722e-01	 1.792560e+00	-2.516520e+01
1	 4.129451e-01	 1.800306e+00	-2.519378e+01
1	 3.805518e-01	 1.807431e+00	-2.520963e+01
1	 3.482089e-01	 1.813940e+00	-2.521014e+01
1	 3.159321e-01	 1.819839e+00	-2.519272e+01
1	 4.808599e-01	 1.795550e+00	-2.369494e+01
1	 4.482089e-01	 1.803977e+00	-2.372527e+01
1	 4.155753e-01	 1.811773e+00	-2.375268e+01
1	 3.829757e-01	 1.818943e+00	-2.377272e+01
1	 3.504268e-01	 1.825493e+00	-2.378097e+01
1	 3.179444e-01	 1.831430e+00	-2.377304e+01
1	 4.839033e-01	 1.806914e+00	-2.229770e+01
1	 4.510457e-01	 1.815395e+00	-2.232718e+01
1	 4.182055e-01	 1.823240e+00	-2.235766e+01
1	 3.853996e-01	 1.830456e+00	-2.238363e+01
1	 3.526446e-01	 1.837047e+00	-2.239962e+01
1	 3.199567e-01	 1.843021e+00	-2.240023e+01
1	 4.869467e-01	 1.818278e+00	-2.093549e+01
1	 4.538825e-01	 1.826812e+00	-2.097116e+01
1	 4.208357e-01	 1.834707e+00	-2.100865e+01
1	 3.878235e-01	 1.841968e+00	-2.104213e+01
1	 3.548625e-01	 1.848601e+00	-2.106585e+01
1	 3.219690e-01	 1.854613e+00	-2.107414e+01
1	 3.119074e-01	 1.796656e+00	-2.817332e+01
1	 2.801225e-01	 1.801885e+00	-2.811546e+01
1	 2.484331e-01	 1.806527e+00	-2.803935e+01
1	 2.168538e-01	 1.810589e+00	-2.793858e+01
1	 1.853986e-01	 1.814080e+00	-2.780697e+01
1	 1.540811e-01	 1.817008e+00	-2.763861e+01
1	 3.139198e-01	 1.808247e+00	-2.665943e+01
1	 2.819297e-01	 1.813510e+00	-2.661445e+01
1	 2.500359e-01	 1.818182e+00	-2.655133e+01
1	 2.182529e-01	 1.822271e+00	-2.646291e+01
1	 1.865947e-01	 1.825784e+00	-2.634227e+01
1	 1.550751e-01	 1.828731e+00	-2.618280e+01
1	 3.159321e-01	 1.819839e+00	-2.519272e+01
1	 2.837370e-01	 1.825136e+00	-2.515902e+01
1	 2.516387e-01	 1.829837e+00	-2.510714e+01
1	 2.196519e-01	 1.833952e+00	-2.502932e+01
1	 1.877909e-01	 1.837488e+00	-2.491804e+01
1	 1.560692e-01	 1.840453e+00	-2.476607e+01
1	 3.179444e-01	 1.831430e+00	-2.377304e+01
1	 2.855442e-01	 1.836761e+00	-2.374915e+01
1	 2.532415e-01	 1.841492e+00	-2.370686e+01
1	 2.210510e-01	 1.845633e+00	-2.363793e+01
1	 1.889870e-01	 1.849191e+00	-2.353437e+01
1	 1.570633e-01	 1.852176e+00	-2.338844e+01
1	 3.199567e-01	 1.843021e+00	-2.240023e+01
1	 2.873515e-01	 1.848386e+00	-2.238482e+01
1	 2.548443e-01	 1.853147e+00	-2.235054e+01
1	 2.224501e-01	 1.857314e+00	-2.228883e+01
1	 1.901831e-01	 1.860895e+00	-2.219133e+01
1	 1.580573e-01	 1.863899e+00	-2.204992e+01
1	 3.219690e-01	 1.854613e+00	-2.107414e+01
1	 2.891587e-01	 1.860011e+00	-2.106601e+01
1	 2.564471e-01	 1.864802e+00	-2.103826e+01
1	 2.238491e-01	 1.868995e+00	-2.098213e+01
1	 1.913792e-01	 1.872599e+00	-2.088903e+01
1	 1.590514e-01	 1.875621e+00	-2.075055e+01
1	 1.540811e-01	 1.817008e+00	-2.763861e+01
1	 1.229143e-01	 1.819382e+00	-2.743015e+01
1	 9.191087e-02	 1.821212e+00	-2.718608e+01
1	 6.108299e-02	 1.822506e+00	-2.691241e+01
1	 3.044231e-02	 1.823275e+00	-2.661511e+01
1	 0.000000e+00	 1.823529e+00	-2.630008e+01
1	 1.550751e-01	 1.828731e+00	-2.618280e+01
1	 1.237073e-01	 1.831120e+00	-2.598071e+01
1	 9.250384e-02	 1.832961e+00	-2.574072e+01
1	 6.147708e-02	 1.834264e+00	-2.546914e+01
1	 3.063872e-02	 1.835038e+00	-2.517224e+01
1	 0.000000e+00	 1.835294e+00	-2.485624e+01
1	 1.560692e-01	 1.840453e+00	-2.476607e+01
1	 1.245003e-01	 1.842858e+00	-2.456933e+01
1	 9.309681e-02	 1.844711e+00	-2.433260e+01
1	 6.187116e-02	 1.846022e+00	-2.406210e+01
1	 3.083512e-02	 1.846801e+00	-2.376410e+01
1	 0.000000e+00	 1.847059e+00	-2.344480e+01
1	 1.570633e-01	 1.852176e+00	-2.338844e+01
1	 1.252933e-01	 1.854596e+00	-2.319597e+01
1	 9.368979e-02	 1.856461e+00	-2.296165e+01
1	 6.226524e-02	 1.857780e+00	-2.269128e+01
1	 3.103152e-02	 1.858564e+00	-2.239078e+01
1	 0.000000e+00	 1.858824e+00	-2.206606e+01
1	 1.580573e-01	 1.863899e+00	-2.204992e+01
1	 1.260863e-01	 1.866334e+00	-2.186057e+01
1	 9.428276e-02	 1.868211e+00	-2.162780e+01
1	 6.265933e-02	 1.869538e+00	-2.135666e+01
1	 3.122792e-02	 1.870328e+00	-2.105238e+01
1	 0.000000e+00	 1.870588e+00	-2.072028e+01
1	 1.590514e-01	 1.875621e+00	-2.075055e+01
1	 1.268792e-01	 1.878072e+00	-2.056309e+01
1	 9.487573e-02	 1.879960e+00	-2.033099e+01
1	 6.305341e-02	 1.881297e+00	-2.005823e+01
1	 3.142432e-02	 1.882091e+00	-1.974901e+01
1	 0.000000e+00	 1.882353e+00	-1.940777e+01
1	 1.882353e+00	 0.000000e+00	 5.165554e+00
1	 1.882091e+00	 3.142432e-02	 4.949001e+00
1	 1.881297e+00	 6.305341e-02	 4.745035e+00
1	 1.879960e+00	 9.487573e-02	 4.555243e+00
1	 1.878072e+00	 1.268792e-01	 4.381508e+00
1	 1.875621e+00	 1.590514e-01	 4.226024e+00
1	 1.894118e+00	 0.000000e+00	 4.814493e+00
1	 1.893854e+00	 3.162073e-02	 4.598152e+00
1	 1.893055e+00	 6.344750e-02	 4.395340e+00
1	 1.891710e+00	 9.546871e-02	 4.208200e+00
1	 1.889810e+00	 1.276722e-01	 4.039184e+00
1	 1.887344e+00	 1.600455e-01	 3.891063e+00
1	 1.905882e+00	 0.000000e+00	 4.469717e+00
1	 1.905617e+00	 3.181713e-02	 4.256196e+00
1	 1.904813e+00	 6.384158e-02	 4.056449e+00
1	 1.903460e+00	 9.606168e-02	 3.873391e+00
1	 1.901548e+00	 1.284652e-01	 3.710232e+00
1	 1.899067e+00	 1.610396e-01	 3.570471e+00
1	 1.917647e+00	 0.000000e+00	 4.129029e+00
1	 1.917380e+00	 3.201353e-02	 3.921798e+00
1	 1.916571e+00	 6.423566e-02	 3.727702e+00
1	 1.915210e+00	 9.665465e-02	 3.550643e+00
1	 1.913286e+00	 1.292582e-01	 3.394762e+00
1	 1.910789e+00	 1.620336e-01	 3.264444e+00
1	 1.929412e+00	 0.000000e+00	 3.790285e+00
1	 1.929143e+00	 3.220993e-02	 3.593656e+00
1	 1.928329e+00	 6.462975e-02	 3.408459e+00
1	 1.926959e+00	 9.724763e-02	 3.239783e+00
1	 1.925024e+00	 1.300512e-01	 3.092885e+00
1	 1.922512e+00	 1.630277e-01	 2.973175e+00
1	 1.941176e+00	 0.000000e+00	 3.451392e+00
1	 1.940906e+00	 3.240633e-02	 3.270501e+00
1	 1.940087e+00	 6.502383e-02	 3.098091e+00
1	 1.938709e+00	 9.784060e-02	 2.940645e+00
1	 1.936762e+00	 1.308442e-01	 2.804705e+00
1	 1.934234e+00	 1.640218e-01	 2.696853e+00
1	 1.875621e+00	 1.590514e-01	 4.226024e+00
1	 1.872599e+00	 1.913792e-01	 4.081775e+00
1	 1.868995e+00	 2.238491e-01	 3.941179e+00
1	 1.864802e+00	 2.564471e-01	 3.805551e+00
1	 1.860011e+00	 2.891587e-01	 3.675844e+00
1	 1.854613e+00	 3.219690e-01	 3.552622e+00
1	 1.887344e+00	 1.600455e-01	 3.891063e+00
1	 1.884303e+00	 1.925753e-01	 3.755537e+00
1	 1.880677e+00	 2.252482e-01	 3.623411e+00
1	 1.876457e+00	 2.580499e-01	 3.496047e+00
1	 1.871636e+00	 2.909659e-01	 3.374367e+00
1	 1.866204e+00	 3.239813e-01	 3.258828e+00
1	 1.899067e+00	 1.610396e-01	 3.570471e+00
1	 1.896006e+00	 1.937715e-01	 3.444517e+00
1	 1.892358e+00	 2.266472e-01	 3.321482e+00
1	 1.888112e+00	 2.596527e-01	 3.202775e+00
1	 1.883261e+00	 2.927732e-01	 3.089294e+00
1	 1.877795e+00	 3.259936e-01	 2.981398e+00
1	 1.910789e+00	 1.620336e-01	 3.264444e+00
1	 1.907710e+00	 1.949676e-01	 3.148898e+00
1	 1.904039e+00	 2.280463e-01	 3.035557e+00
1	 1.899767e+00	 2.612555e-01	 2.925886e+00
1	 1.894886e+00	 2.945804e-01	 2.820763e+00
1	 1.889387e+00	 3.280059e-01	 2.720452e+00
1	 1.922512e+00	 1.630277e-01	 2.973175e+00
1	 1.919414e+00	 1.961637e-01	 2.868859e+00
1	 1.915720e+00	 2.294453e-01	 2.765801e+00
1	 1.911422e+00	 2.628583e-01	 2.665528e+00
1	 1.906511e+00	 2.963877e-01	 2.568907e+00
1	 1.900978e+00	 3.300182e-01	 2.476108e+00
1	 1.934234e+00	 1.640218e-01	 2.696853e+00
1	 1.931118e+00	 1.973598e-01	 2.604574e+00
1	 1.927402e+00	 2.308444e-01	 2.512374e+00
1	 1.923077e+00	 2.644611e-01	 2.421848e+00
1	 1.918136e+00	 2.981949e-01	 2.333856e+00
1	 1.912569e+00	 3.320305e-01	 2.248481e+00
1	 1.854613e+00	 3.219690e-01	 3.552622e+00
1	 1.848601e+00	 3.548625e-01	 3.430686e+00
1	 1.841968e+00	 3.878235e-01	 3.305016e+00
1	 1.834707e+00	 4.208357e-01	 3.176093e+00
1	 1.826812e+00	 4.538825e-01	 3.044325e+00
1	 1.818278e+00	 4.869467e-01	 2.910048e+00
1	 1.866204e+00	 3.239813e-01	 3.258828e+00
1	 1.860155e+00	 3.570804e-01	 3.144983e+00
1	 1.853480e+00	 3.902474e-01	 3.028566e+00
1	 1.846174e+00	 4.234660e-01	 2.909883e+00
1	 1.838230e+00	 4.567192e-01	 2.789152e+00
1	 1.829642e+00	 4.899901e-01	 2.666495e+00
1	 1.877795e+00	 3.259936e-01	 2.981398e+00
1	 1.871708e+00	 3.592983e-01	 2.875528e+00
1	 1.864992e+00	 3.926713e-01	 2.768287e+00
1	 1.857641e+00	 4.260962e-01	 2.659773e+00
1	 1.849647e+00	 4.595560e-01	 2.549963e+00
1	 1.841007e+00	 4.930336e-01	 2.438710e+00
1	 1.889387e+00	 3.280059e-01	 2.720452e+00
1	 1.883262e+00	 3.615162e-01	 2.622405e+00
1	 1.876505e+00	 3.950952e-01	 2.524193e+00
1	 1.869108e+00	 4.287264e-01	 2.425664e+00
1	 1.861065e+00	 4.623928e-01	 2.326509e+00
1	 1.852371e+00	 4.960770e-01	 2.226258e+00
1	 1.900978e+00	 3.300182e-01	 2.476108e+00
1	 1.894816e+00	 3.637341e-01	 2.385698e+00
1	 1.888017e+00	 3.975191e-01	 2.296294e+00
1	 1.880575e+00	 4.313566e-01	 2.207458e+00
1	 1.872483e+00	 4.652295e-01	 2.118548e+00
1	 1.863735e+00	 4.991204e-01	 2.028713e+00
1	 1.912569e+00	 3.320305e-01	 2.248481e+00
1	 1.906370e+00	 3.659520e-01	 2.165489e+00
1	 1.899529e+00	 3.999430e-01	 2.084603e+00
1	 1.892042e+00	 4.339868e-01	 2.005061e+00
1	 1.883900e+00	 4.680663e-01	 1.925842e+00
1	 1.875099e+00	 5.021638e-01	 1.845662e+00
1	 1.818278e+00	 4.869467e-01	 2.910048e+00
1	 1.809100e+00	 5.200111e-01	 2.753809e+00
1	 1.799272e+00	 5.530578e-01	 2.557520e+00
1	 1.788792e+00	 5.860688e-01	 2.324122e+00
1	 1.777656e+00	 6.190257e-01	 2.057398e+00
1	 1.765861e+00	 6.519099e-01	 1.761987e+00
1	 1.829642e+00	 4.899901e-01	 2.666495e+00
1	 1.820406e+00	 5.232611e-01	 2.524083e+00
1	 1.810517e+00	 5.565144e-01	 2.345580e+00
1	 1.799972e+00	 5.897317e-01	 2.133808e+00
1	 1.788766e+00	 6.228946e-01	 1.892306e+00
1	 1.776898e+00	 6.559843e-01	 1.625341e+00
1	 1.841007e+00	 4.930336e-01	 2.438710e+00
1	 1.831713e+00	 5.265112e-01	 2.309530e+00
1	 1.821763e+00	 5.599710e-01	 2.147540e+00
1	 1.811152e+00	 5.933946e-01	 1.955363e+00
1	 1.799876e+00	 6.267635e-01	 1.736238e+00
1	 1.787935e+00	 6.600588e-01	 1.494024e+00
1	 1.852371e+00	 4.960770e-01	 2.226258e+00
1	 1.843020e+00	 5.297613e-01	 2.109559e+00
1	 1.833008e+00	 5.634276e-01	 1.962759e+00
1	 1.822332e+00	 5.970575e-01	 1.788204e+00
1	 1.810987e+00	 6.306324e-01	 1.588772e+00
1	 1.798971e+00	 6.641332e-01	 1.367884e+00
1	 1.863735e+00	 4.991204e-01	 2.028713e+00
1	 1.854327e+00	 5.330113e-01	 1.923599e+00
1	 1.844254e+00	 5.668842e-01	 1.790616e+00
1	 1.833512e+00	 6.007205e-01	 1.631759e+00
1	 1.822097e+00	 6.345013e-01	 1.449495e+00
1	 1.810008e+00	 6.682076e-01	 1.246768e+00
1	 1.875099e+00	 5.021638e-01	 1.845662e+00
1	 1.865634e+00	 5.362614e-01	 1.751086e+00
1	 1.855499e+00	 5.703408e-01	 1.630501e+00
1	 1.844692e+00	 6.043834e-01	 1.485473e+00
1	 1.833207e+00	 6.383702e-01	 1.318004e+00
1	 1.821044e+00	 6.722821e-01	 1.130529e+00
1	 1.765861e+00	 6.519099e-01	 1.761987e+00
1	 1.753407e+00	 6.847025e-01	 1.432001e+00
1	 1.740291e+00	 7.173845e-01	 1.060243e+00
1	 1.726513e+00	 7.499367e-01	 6.504746e-01
1	 1.712074e+00	 7.823395e-01	 2.070675e-01
1	 1.696975e+00	 8.145735e-01	-2.650024e-01
1	 1.776898e+00	 6.559843e-01	 1.625341e+00
1	 1.764365e+00	 6.889819e-01	 1.326329e+00
1	 1.751168e+00	 7.218682e-01	 9.872751e-01
1	 1.737304e+00	 7.546238e-01	 6.114690e-01
1	 1.722775e+00	 7.872291e-01	 2.029997e-01
1	 1.707581e+00	 8.196646e-01	-2.332373e-01
1	 1.787935e+00	 6.600588e-01	 1.494024e+00
1	 1.775324e+00	 6.932613e-01	 1.222092e+00
1	 1.762044e+00	 7.263519e-01	 9.124049e-01
1	 1.748095e+00	 7.593109e-01	 5.678888e-01
1	 1.733475e+00	 7.921187e-01	 1.924278e-01
1	 1.718187e+00	 8.247556e-01	-2.091250e-01
1	 1.798971e+00	 6.641332e-01	 1.367884e+00
1	 1.786283e+00	 6.975407e-01	 1.119379e+00
1	 1.772921e+00	 7.308355e-01	 8.357980e-01
1	 1.758885e+00	 7.639980e-01	 5.198124e-01
1	 1.744175e+00	 7.970083e-01	 1.751741e-01
1	 1.728793e+00	 8.298467e-01	-1.932686e-01
1	 1.810008e+00	 6.682076e-01	 1.246768e+00
1	 1.797242e+00	 7.018201e-01	 1.018274e+00
1	 1.783798e+00	 7.353192e-01	 7.576163e-01
1	 1.769676e+00	 7.686851e-01	 4.673160e-01
1	 1.754876e+00	 8.018980e-01	 1.510653e-01
1	 1.739399e+00	 8.349378e-01	-1.862569e-01
1	 1.821044e+00	 6.722821e-01	 1.130529e+00
1	 1.808201e+00	 7.060995e-01	 9.188617e-01
1	 1.794675e+00	 7.398028e-01	 6.780178e-01
1	 1.780467e+00	 7.733722e-01	 4.104742e-01
1	 1.765576e+00	 8.067876e-01	 1.199324e-01
1	 1.750005e+00	 8.400289e-01	-1.886643e-01
1	 1.696975e+00	 8.145735e-01	-2.650024e-01
1	 1.681216e+00	 8.466191e-01	-7.515158e-01
1	 1.664802e+00	 8.784566e-01	-1.240214e+00
1	 1.647735e+00	 9.100664e-01	-1.728943e+00
1	 1.630020e+00	 9.414289e-01	-2.216009e+00
1	 1.611660e+00	 9.725246e-01	-2.700184e+00
1	 1.707581e+00	 8.196646e-01	-2.332373e-01
1	 1.691724e+00	 8.519104e-01	-6.849977e-01
1	 1.675207e+00	 8.839469e-01	-1.141311e+00
1	 1.658034e+00	 9.157543e-01	-1.598848e+00
1	 1.640207e+00	 9.473129e-01	-2.054647e+00
1	 1.621733e+00	 9.786028e-01	-2.506122e+00
1	 1.718187e+00	 8.247556e-01	-2.091250e-01
1	 1.702232e+00	 8.572018e-01	-6.266765e-01
1	 1.685612e+00	 8.894373e-01	-1.050768e+00
1	 1.668332e+00	 9.214423e-01	-1.476923e+00
1	 1.650395e+00	 9.531968e-01	-1.900888e+00
1	 1.631806e+00	 9.846811e-01	-2.318652e+00
1	 1.728793e+00	 8.298467e-01	-1.932686e-01
1	 1.712739e+00	 8.624932e-01	-5.775702e-01
1	 1.696017e+00	 8.949277e-01	-9.698254e-01
1	 1.678630e+00	 9.271302e-01	-1.364433e+00
1	 1.660583e+00	 9.590807e-01	-1.755830e+00
1	 1.641879e+00	 9.907594e-01	-2.138511e+00
1	 1.739399e+00	 8.349378e-01	-1.862569e-01
1	 1.723247e+00	 8.677845e-01	-5.386721e-01
1	 1.706422e+00	 9.004180e-01	-8.996914e-01
1	 1.688929e+00	 9.328181e-01	-1.262614e+00
1	 1.670770e+00	 9.649647e-01	-1.620545e+00
1	 1.651952e+00	 9.968377e-01	-1.966418e+00
1	 1.750005e+00	 8.400289e-01	-1.886643e-01
1	 1.733754e+00	 8.730759e-01	-5.109512e-01
1	 1.716827e+00	 9.059084e-01	-8.415458e-01
1	 1.699227e+00	 9.385060e-01	-1.172671e+00
1	 1.680958e+00	 9.708486e-01	-1.496078e+00
1	 1.662025e+00	 1.002916e+00	-1.803072e+00
1	 1.611660e+00	 9.725246e-01	-2.700184e+00
1	 1.592662e+00	 1.003334e+00	-3.130467e+00
1	 1.573033e+00	 1.033837e+00	-3.458664e+00
1	 1.552779e+00	 1.064016e+00	-3.688790e+00
1	 1.531908e+00	 1.093851e+00	-3.825748e+00
1	 1.510429e+00	 1.123324e+00	-3.875322e+00
1	 1.621733e+00	 9.786028e-01	-2.506122e+00
1	 1.602617e+00	 1.009605e+00	-2.901954e+00
1	 1.582864e+00	 1.040299e+00	-3.195084e+00
1	 1.562484e+00	 1.070666e+00	-3.390417e+00
1	 1.541482e+00	 1.100688e+00	-3.493931e+00
1	 1.519869e+00	 1.130345e+00	-3.512656e+00
1	 1.631806e+00	 9.846811e-01	-2.318652e+00
1	 1.612571e+00	 1.015876e+00	-2.679063e+00
1	 1.592696e+00	 1.046760e+00	-2.936698e+00
1	 1.572188e+00	 1.077317e+00	-3.097304e+00
1	 1.551057e+00	 1.107525e+00	-3.167902e+00
1	 1.529309e+00	 1.137366e+00	-3.156770e+00
1	 1.641879e+00	 9.907594e-01	-2.138511e+00
1	 1.622525e+00	 1.022146e+00	-2.462120e+00
1	 1.602527e+00	 1.053222e+00	-2.683526e+00
1	 1.581893e+00	 1.083967e+00	-2.809262e+00
1	 1.560631e+00	 1.114361e+00	-2.847368e+00
1	 1.538749e+00	 1.144387e+00	-2.807367e+00
1	 1.651952e+00	 9.968377e-01	-1.966418e+00
1	 1.632479e+00	 1.028417e+00	-2.251446e+00
1	 1.612359e+00	 1.059683e+00	-2.435587e+00
1	 1.591598e+00	 1.090617e+00	-2.526110e+00
1	 1.570206e+00	 1.121198e+00	-2.532046e+00
1	 1.548190e+00	 1.151407e+00	-2.464161e+00
1	 1.662025e+00	 1.002916e+00	-1.803072e+00
1	 1.642433e+00	 1.034688e+00	-2.047353e+00
1	 1.622190e+00	 1.066145e+00	-2.192901e+00
1	 1.601303e+00	 1.097267e+00	-2.247670e+00
1	 1.579780e+00	 1.128034e+00	-2.221658e+00
1	 1.557630e+00	 1.158428e+00	-2.126870e+00
1	 1.510429e+00	 1.123324e+00	-3.875322e+00
1	 1.488351e+00	 1.152416e+00	-3.848790e+00
1	 1.465685e+00	 1.181109e+00	-3.765567e+00
1	 1.442442e+00	 1.209386e+00	-3.645763e+00
1	 1.418632e+00	 1.237229e+00	-3.511395e+00
1	 1.394269e+00	 1.264621e+00	-3.386281e+00
1	 1.519869e+00	 1.130345e+00	-3.512656e+00
1	 1.497653e+00	 1.159619e+00	-3.461178e+00
1	 1.474846e+00	 1.188491e+00	-3.360852e+00
1	 1.451457e+00	 1.216945e+00	-3.231089e+00
1	 1.427498e+00	 1.244962e+00	-3.093158e+00
1	 1.402983e+00	 1.272525e+00	-2.970091e+00
1	 1.529309e+00	 1.137366e+00	-3.156770e+00
1	 1.506956e+00	 1.166821e+00	-3.081378e+00
1	 1.484006e+00	 1.195873e+00	-2.964633e+00
1	 1.460472e+00	 1.224503e+00	-2.825297e+00
1	 1.436365e+00	 1.252694e+00	-2.683946e+00
1	 1.411697e+00	 1.280429e+00	-2.562881e+00
1	 1.538749e+00	 1.144387e+00	-2.807367e+00
1	 1.516258e+00	 1.174024e+00	-2.709146e+00
1	 1.493167e+00	 1.203255e+00	-2.576711e+00
1	 1.469487e+00	 1.232062e+00	-2.428233e+00
1	 1.445231e+00	 1.260427e+00	-2.283649e+00
1	 1.420411e+00	 1.288333e+00	-2.164580e+00
1	 1.548190e+00	 1.151407e+00	-2.464161e+00
1	 1.525560e+00	 1.181227e+00	-2.344238e+00
1	 1.502327e+00	 1.210637e+00	-2.196891e+00
1	 1.478503e+00	 1.239621e+00	-2.039748e+00
1	 1.454098e+00	 1.268160e+00	-1.892161e+00
1	 1.429125e+00	 1.296237e+00	-1.775123e+00
1	 1.557630e+00	 1.158428e+00	-2.126870e+00
1	 1.534862e+00	 1.188429e+00	-1.986421e+00
1	 1.511488e+00	 1.218019e+00	-1.824983e+00
1	 1.487518e+00	 1.247179e+00	-1.659696e+00
1	 1.462964e+00	 1.275892e+00	-1.509377e+00
1	 1.437840e+00	 1.304141e+00	-1.394444e+00
1	 1.394269e+00	 1.264621e+00	-3.386281e+00
1	 1.369365e+00	 1.291547e+00	-3.322317e+00
1	 1.343933e+00	 1.317989e+00	-3.356614e+00
1	 1.317989e+00	 1.343933e+00	-3.491767e+00
1	 1.291547e+00	 1.369365e+00	-3.729908e+00
1	 1.264621e+00	 1.394269e+00	-4.072710e+00
1	 1.402983e+00	 1.272525e+00	-2.970091e+00
1	 1.377923e+00	 1.299619e+00	-2.909435e+00
1	 1.352333e+00	 1.326227e+00	-2.945004e+00
1	 1.326227e+00	 1.352333e+00	-3.080204e+00
1	 1.299619e+00	 1.377923e+00	-3.318048e+00
1	 1.272525e+00	 1.402983e+00	-3.661152e+00
1	 1.411697e+00	 1.280429e+00	-2.562881e+00
1	 1.386482e+00	 1.307691e+00	-2.505538e+00
1	 1.360733e+00	 1.334464e+00	-2.542586e+00
1	 1.334464e+00	 1.360733e+00	-2.678159e+00
1	 1.307691e+00	 1.386482e+00	-2.916058e+00
1	 1.280429e+00	 1.411697e+00	-3.259742e+00
1	 1.420411e+00	 1.288333e+00	-2.164580e+00
1	 1.395040e+00	 1.315763e+00	-2.110580e+00
1	 1.369132e+00	 1.342701e+00	-2.149308e+00
1	 1.342701e+00	 1.369132e+00	-2.285543e+00
1	 1.315763e+00	 1.395040e+00	-2.523786e+00
1	 1.288333e+00	 1.420411e+00	-2.868242e+00
1	 1.429125e+00	 1.296237e+00	-1.775123e+00
1	 1.403599e+00	 1.323835e+00	-1.724517e+00
1	 1.377532e+00	 1.350939e+00	-1.765117e+00
1	 1.350939e+00	 1.377532e+00	-1.902269e+00
1	 1.323835e+00	 1.403599e+00	-2.141083e+00
1	 1.296237e+00	 1.429125e+00	-2.486419e+00
1	 1.437840e+00	 1.304141e+00	-1.394444e+00
1	 1.412157e+00	 1.331908e+00	-1.347304e+00
1	 1.385931e+00	 1.359176e+00	-1.389965e+00
1	 1.359176e+00	 1.385931e+00	-1.528254e+00
1	 1.331908e+00	 1.412157e+00	-1.767806e+00
1	 1.304141e+00	 1.437840e+00	-2.114043e+00
1	 1.264621e+00	 1.394269e+00	-4.072710e+00
1	 1.237229e+00	 1.418632e+00	-4.548790e+00
1	 1.209386e+00	 1.442442e+00	-5.174030e+00
1	 1.181109e+00	 1.465685e+00	-5.929334e+00
1	 1.152416e+00	 1.488351e+00	-6.793918e+00
1	 1.123324e+00	 1.510429e+00	-7.745438e+00
1	 1.272525e+00	 1.402983e+00	-3.661152e+00
1	 1.244962e+00	 1.427498e+00	-4.136039e+00
1	 1.216945e+00	 1.451457e+00	-4.756010e+00
1	 1.188491e+00	 1.474846e+00	-5.502171e+00
1	 1.159619e+00	 1.497653e+00	-6.353907e+00
1	 1.130345e+00	 1.519869e+00	-7.289002e+00
1	 1.280429e+00	 1.411697e+00	-3.259742e+00
1	 1.252694e+00	 1.436365e+00	-3.733442e+00
1	 1.224503e+00	 1.460472e+00	-4.347907e+00
1	 1.195873e+00	 1.484006e+00	-5.084732e+00
1	 1.166821e+00	 1.506956e+00	-5.923768e+00
1	 1.137366e+00	 1.529309e+00	-6.843249e+00
1	 1.288333e+00	 1.420411e+00	-2.868242e+00
1	 1.260427e+00	 1.445231e+00	-3.340709e+00
1	 1.232062e+00	 1.469487e+00	-3.949481e+00
1	 1.203255e+00	 1.493167e+00	-4.676915e+00
1	 1.174024e+00	 1.516258e+00	-5.503628e+00
1	 1.144387e+00	 1.538749e+00	-6.408613e+00
1	 1.296237e+00	 1.429125e+00	-2.486419e+00
1	 1.268160e+00	 1.454098e+00	-2.957558e+00
1	 1.239621e+00	 1.478503e+00	-3.560497e+00
1	 1.210637e+00	 1.502327e+00	-4.278623e+00
1	 1.181227e+00	 1.525560e+00	-5.093608e+00
1	 1.151407e+00	 1.548190e+00	-5.985521e+00
1	 1.304141e+00	 1.437840e+00	-2.114043e+00
1	 1.275892e+00	 1.462964e+00	-2.583712e+00
1	 1.247179e+00	 1.487518e+00	-3.180723e+00
1	 1.218019e+00	 1.511488e+00	-3.889759e+00
1	 1.188429e+00	 1.534862e+00	-4.693831e+00
1	 1.158428e+00	 1.557630e+00	-5.574386e+00
1	 1.123324e+00	 1.510429e+00	-7.745438e+00
1	 1.093851e+00	 1.531908e+00	-8.771908e+00
1	 1.064016e+00	 1.552779e+00	-9.865992e+00
1	 1.033837e+00	 1.573033e+00	-1.101070e+01
1	 1.003334e+00	 1.592662e+00	-1.218840e+01
1	 9.725246e-01	 1.611660e+00	-1.338094e+01
1	 1.130345e+00	 1.519869e+00	-7.289002e+00
1	 1.100688e+00	 1.541482e+00	-8.296532e+00
1	 1.070666e+00	 1.562484e+00	-9.369481e+00
1	 1.040299e+00	 1.582864e+00	-1.048979e+01
1	 1.009605e+00	 1.602617e+00	-1.163871e+01
1	 9.786028e-01	 1.621733e+00	-1.279687e+01
1	 1.137366e+00	 1.529309e+00	-6.843249e+00
1	 1.107525e+00	 1.551057e+00	-7.833339e+00
1	 1.077317e+00	 1.572188e+00	-8.886786e+00
1	 1.046760e+00	 1.592696e+00	-9.983891e+00
1	 1.015876e+00	 1.612571e+00	-1.110415e+01
1	 9.846811e-01	 1.631806e+00	-1.222637e+01
1	 1.144387e+00	 1.538749e+00	-6.408613e+00
1	 1.114361e+00	 1.560631e+00	-7.383011e+00
1	 1.083967e+00	 1.581893e+00	-8.418640e+00
1	 1.053222e+00	 1.602527e+00	-9.493592e+00
1	 1.022146e+00	 1.622525e+00	-1.058501e+01
1	 9.907594e-01	 1.641879e+00	-1.166922e+01
1	 1.151407e+00	 1.548190e+00	-5.985521e+00
1	 1.121198e+00	 1.570206e+00	-6.946213e+00
1	 1.090617e+00	 1.591598e+00	-7.965754e+00
1	 1.059683e+00	 1.612359e+00	-9.019474e+00
1	 1.028417e+00	 1.632479e+00	-1.008157e+01
1	 9.968377e-01	 1.651952e+00	-1.112524e+01
1	 1.158428e+00	 1.557630e+00	-5.574386e+00
1	 1.128034e+00	 1.579780e+00	-6.523594e+00
1	 1.097267e+00	 1.601303e+00	-7.528824e+00
1	 1.066145e+00	 1.622190e+00	-8.562100e+00
1	 1.034688e+00	 1.642433e+00	-9.594086e+00
1	 1.002916e+00	 1.662025e+00	-1.059425e+01
1	 9.725246e-01	 1.611660e+00	-1.338094e+01
1	 9.414289e-01	 1.630020e+00	-1.453809e+01
1	 9.100664e-01	 1.647735e+00	-1.561677e+01
1	 8.784566e-01	 1.664802e+00	-1.660912e+01
1	 8.466191e-01	 1.681216e+00	-1.750732e+01
1	 8.145735e-01	 1.696975e+00	-1.830366e+01
1	 9.786028e-01	 1.621733e+00	-1.279687e+01
1	 9.473129e-01	 1.640207e+00	-1.391350e+01
1	 9.157543e-01	 1.658034e+00	-1.494485e+01
1	 8.839469e-01	 1.675207e+00	-1.588172e+01
1	 8.519104e-01	 1.691724e+00	-1.671493e+01
1	 8.196646e-01	 1.707581e+00	-1.743533e+01
1	 9.846811e-01	 1.631806e+00	-1.222637e+01
1	 9.531968e-01	 1.650395e+00	-1.329887e+01
1	 9.214423e-01	 1.668332e+00	-1.427824e+01
1	 8.894373e-01	 1.685612e+00	-1.515513e+01
1	 8.572018e-01	 1.702232e+00	-1.592025e+01
1	 8.247556e-01	 1.718187e+00	-1.656436e+01
1	 9.907594e-01	 1.641879e+00	-1.166922e+01
1	 9.590807e-01	 1.660583e+00	-1.269362e+01
1	 9.271302e-01	 1.678630e+00	-1.361622e+01
1	 8.949277e-01	 1.696017e+00	-1.442878e+01
1	 8.624932e-01	 1.712739e+00	-1.512313e+01
1	 8.298467e-01	 1.728793e+00	-1.569122e+01
1	 9.968377e-01	 1.651952e+00	-1.112524e+01
1	 9.649647e-01	 1.670770e+00	-1.209714e+01
1	 9.328181e-01	 1.688929e+00	-1.295812e+01
1	 9.004180e-01	 1.706422e+00	-1.370215e+01
1	 8.677845e-01	 1.723247e+00	-1.432343e+01
1	 8.349378e-01	 1.739399e+00	-1.481636e+01
1	 1.002916e+00	 1.662025e+00	-1.059425e+01
1	 9.708486e-01	 1.680958e+00	-1.150889e+01
1	 9.385060e-01	 1.699227e+00	-1.230326e+01
1	 9.059084e-01	 1.716827e+00	-1.297472e+01
1	 8.730759e-01	 1.733754e+00	-1.352102e+01
1	 8.400289e-01	 1.750005e+00	-1.394024e+01
1	 8.145735e-01	 1.696975e+00	-1.830366e+01
1	 7.823395e-01	 1.712074e+00	-1.897743e+01
1	 7.499367e-01	 1.726513e+00	-1.952119e+01
1	 7.173845e-01	 1.740291e+00	-1.994748e+01
1	 6.847025e-01	 1.753407e+00	-2.026928e+01
1	 6.519099e-01	 1.765861e+00	-2.049995e+01
1	 8.196646e-01	 1.707581e+00	-1.743533e+01
1	 7.872291e-01	 1.722775e+00	-1.802377e+01
1	 7.546238e-01	 1.737304e+00	-1.847921e+01
1	 7.218682e-01	 1.751168e+00	-1.882030e+01
1	 6.889819e-01	 1.764365e+00	-1.906624e+01
1	 6.559843e-01	 1.776898e+00	-1.923672e+01
1	 8.247556e-01	 1.718187e+00	-1.656436e+01
1	 7.921187e-01	 1.733475e+00	-1.707128e+01
1	 7.593109e-01	 1.748095e+00	-1.744592e+01
1	 7.263519e-01	 1.762044e+00	-1.771142e+01
1	 6.932613e-01	 1.775324e+00	-1.789161e+01
1	 6.600588e-01	 1.787935e+00	-1.801084e+01
1	 8.298467e-01	 1.728793e+00	-1.569122e+01
1	 7.970083e-01	 1.744175e+00	-1.612098e+01
1	 7.639980e-01	 1.758885e+00	-1.642256e+01
1	 7.308355e-01	 1.772921e+00	-1.662206e+01
1	 6.975407e-01	 1.786283e+00	-1.674630e+01
1	 6.641332e-01	 1.798971e+00	-1.682270e+01
1	 8.349378e-01	 1.739399e+00	-1.481636e+01
1	 8.018980e-01	 1.754876e+00	-1.517387e+01
1	 7.686851e-01	 1.769676e+00	-1.541039e+01
1	 7.353192e-01	 1.783798e+00	-1.555341e+01
1	 7.018201e-01	 1.797242e+00	-1.563121e+01
1	 6.682076e-01	 1.810008e+00	-1.567267e+01
1	 8.400289e-01	 1.750005e+00	-1.394024e+01
1	 8.067876e-01	 1.765576e+00	-1.423093e+01
1	 7.733722e-01	 1.780467e+00	-1.441058e+01
1	 7.398028e-01	 1.794675e+00	-1.450662e+01
1	 7.060995e-01	 1.808201e+00	-1.454721e+01
1	 6.722821e-01	 1.821044e+00	-1.456113e+01
1	 6.519099e-01	 1.765861e+00	-2.049995e+01
1	 6.190257e-01	 1.777656e+00	-2.066152e+01
1	 5.860688e-01	 1.788792e+00	-2.077439e+01
1	 5.530578e-01	 1.799272e+00	-2.084991e+01
1	 5.200111e-01	 1.809100e+00	-2.089968e+01
1	 4.869467e-01	 1.818278e+00	-2.093549e+01
1	 6.559843e-01	 1.776898e+00	-1.923672e+01
1	 6.228946e-01	 1.788766e+00	-1.935845e+01
1	 5.897317e-01	 1.799972e+00	-1.944947e+01
1	 5.565144e-01	 1.810517e+00	-1.951699e+01
1	 5.232611e-01	 1.820406e+00	-1.956836e+01
1	 4.899901e-01	 1.829642e+00	-1.961106e+01
1	 6.600588e-01	 1.787935e+00	-1.801084e+01
1	 6.267635e-01	 1.799876e+00	-1.809852e+01
1	 5.933946e-01	 1.811152e+00	-1.817004e+01
1	 5.599710e-01	 1.821763e+00	-1.822922e+01
1	 5.265112e-01	 1.831713e+00	-1.828000e+01
1	 4.930336e-01	 1.841007e+00	-1.832637e+01
1	 6.641332e-01	 1.798971e+00	-1.682270e+01
1	 6.306324e-01	 1.810987e+00	-1.688160e+01
1	 5.970575e-01	 1.822332e+00	-1.693562e+01
1	 5.634276e-01	 1.833008e+00	-1.698599e+01
1	 5.297613e-01	 1.843020e+00	-1.703399e+01
1	 4.960770e-01	 1.852371e+00	-1.708097e+01
1	 6.682076e-01	 1.810008e+00	-1.567267e+01
1	 6.345013e-01	 1.822097e+00	-1.570757e+01
1	 6.007205e-01	 1.833512e+00	-1.574578e+01
1	 5.668842e-01	 1.844254e+00	-1.578669e+01
1	 5.330113e-01	 1.854327e+00	-1.582974e+01
1	 4.991204e-01	 1.863735e+00	-1.587442e+01
1	 6.722821e-01	 1.821044e+00	-1.456113e+01
1	 6.383702e-01	 1.833207e+00	-1.457629e+01
1	 6.043834e-01	 1.844692e+00	-1.460006e+01
1	 5.703408e-01	 1.855499e+00	-1.463074e+01
1	 5.362614e-01	 1.865634e+00	-1.466667e+01
1	 5.021638e-01	 1.875099e+00	-1.470626e+01
1	 4.869467e-01	 1.818278e+00	-2.093549e+01
1	 4.538825e-01	 1.826812e+00	-2.097116e+01
1	 4.208357e-01	 1.834707e+00	-2.100865e+01
1	 3.878235e-01	 1.841968e+00	-2.104213e+01
1	 3.548625e-01	 1.848601e+00	-2.106585e+01
1	 3.219690e-01	 1.854613e+00	-2.107414e+01
1	 4.899901e-01	 1.829642e+00	-1.961106e+01
1	 4.567192e-01	 1.838230e+00	-1.965461e+01
1	 4.234660e-01	 1.846174e+00	-1.969962e+01
1	 3.902474e-01	 1.853480e+00	-1.974033e+01
1	 3.570804e-01	 1.860155e+00	-1.977112e+01
1	 3.239813e-01	 1.866204e+00	-1.978652e+01
1	 4.930336e-01	 1.841007e+00	-1.832637e+01
1	 4.595560e-01	 1.849647e+00	-1.837461e+01
1	 4.260962e-01	 1.857641e+00	-1.842449e+01
1	 3.926713e-01	 1.864992e+00	-1.847047e+01
1	 3.592983e-01	 1.871708e+00	-1.850715e+01
1	 3.259936e-01	 1.877795e+00	-1.852932e+01
1	 4.960770e-01	 1.852371e+00	-1.708097e+01
1	 4.623928e-01	 1.861065e+00	-1.713089e+01
1	 4.287264e-01	 1.869108e+00	-1.718318e+01
1	 3.950952e-01	 1.876505e+00	-1.723260e+01
1	 3.615162e-01	 1.883262e+00	-1.727406e+01
1	 3.280059e-01	 1.889387e+00	-1.730269e+01
1	 4.991204e-01	 1.863735e+00	-1.587442e+01
1	 4.652295e-01	 1.872483e+00	-1.592321e+01
1	 4.313566e-01	 1.880575e+00	-1.597560e+01
1	 3.975191e-01	 1.888017e+00	-1.602674e+01
1	 3.637341e-01	 1.894816e+00	-1.607196e+01
1	 3.300182e-01	 1.900978e+00	-1.610680e+01
1	 5.021638e-01	 1.875099e+00	-1.470626e+01
1	 4.680663e-01	 1.883900e+00	-1.475132e+01
1	 4.339868e-01	 1.892042e+00	-1.480167e+01
1	 3.999430e-01	 1.899529e+00	-1.485294e+01
1	 3.659520e-01	 1.906370e+00	-1.490097e+01
1	 3.320305e-01	 1.912569e+00	-1.494181e+01
1	 3.219690e-01	 1.854613e+00	-2.107414e+01
1	 2.891587e-01	 1.860011e+00	-2.106601e+01
1	 2.564471e-01	 1.864802e+00	-2.103826e+01
1	 2.238491e-01	 1.868995e+00	-2.098213e+01
1	 1.913792e-01	 1.872599e+00	-2.088903e+01
1	 1.590514e-01	 1.875621e+00	-2.075055e+01
1	 3.239813e-01	 1.866204e+00	-1.978652e+01
1	 2.909659e-01	 1.871636e+00	-1.978527e+01
1	 2.580499e-01	 1.876457e+00	-1.976369e+01
1	 2.252482e-01	 1.880677e+00	-1.971288e+01
1	 1.925753e-01	 1.884303e+00	-1.962405e+01
1	 1.600455e-01	 1.887344e+00	-1.948856e+01
1	 3.259936e-01	 1.877795e+00	-1.852932e+01
1	 2.927732e-01	 1.883261e+00	-1.853527e+01
1	 2.596527e-01	 1.888112e+00	-1.852060e+01
1	 2.266472e-01	 1.892358e+00	-1.847623e+01
1	 1.937715e-01	 1.896006e+00	-1.839312e+01
1	 1.610396e-01	 1.899067e+00	-1.826235e+01
1	 3.280059e-01	 1.889387e+00	-1.730269e+01
1	 2.945804e-01	 1.894886e+00	-1.731620e+01
1	 2.612555e-01	 1.899767e+00	-1.730921e+01
1	 2.280463e-01	 1.904039e+00	-1.727240e+01
1	 1.949676e-01	 1.907710e+00	-1.719647e+01
1	 1.620336e-01	 1.910789e+00	-1.707220e+01
1	 3.300182e-01	 1.900978e+00	-1.610680e+01
1	 2.963877e-01	 1.906511e+00	-1.612823e+01
1	 2.628583e-01	 1.911422e+00	-1.612970e+01
1	 2.294453e-01	 1.915720e+00	-1.610161e+01
1	 1.961637e-01	 1.919414e+00	-1.603435e+01
1	 1.630277e-01	 1.922512e+00	-1.591834e+01
1	 3.320305e-01	 1.912569e+00	-1.494181e+01
1	 2.981949e-01	 1.918136e+00	-1.497155e+01
1	 2.644611e-01	 1.923077e+00	-1.498227e+01
1	 2.308444e-01	 1.927402e+00	-1.496407e+01
1	 1.973598e-01	 1.931118e+00	-1.490698e+01
1	 1.640218e-01	 1.934234e+00	-1.480105e+01
1	 1.590514e-01	 1.875621e+00	-2.075055e+01
1	 1.268792e-01	 1.878072e+00	-2.056309e+01
1	 9.487573e-02	 1.879960e+00	-2.033099e+01
1	 6.305341e-02	 1.881297e+00	-2.005823e+01
1	 3.142432e-02	 1.882091e+00	-1.974901e+01
1	 0.000000e+00	 1.882353e+00	-1.940777e+01
1	 1.600455e-01	 1.887344e+00	-1.948856e+01
1	 1.276722e-01	 1.889810e+00	-1.930337e+01
1	 9.546871e-02	 1.891710e+00	-1.907218e+01
1	 6.344750e-02	 1.893055e+00	-1.879694e+01
1	 3.162073e-02	 1.893854e+00	-1.847996e+01
1	 0.000000e+00	 1.894118e+00	-1.812390e+01
1	 1.610396e-01	 1.899067e+00	-1.826235e+01
1	 1.284652e-01	 1.901548e+00	-1.808144e+01
1	 9.606168e-02	 1.903460e+00	-1.785241e+01
1	 6.384158e-02	 1.904813e+00	-1.757369e+01
1	 3.181713e-02	 1.905617e+00	-1.724423e+01
1	 0.000000e+00	 1.905882e+00	-1.686349e+01
1	 1.620336e-01	 1.910789e+00	-1.707220e+01
1	 1.292582e-01	 1.913286e+00	-1.689752e+01
1	 9.665465e-02	 1.915210e+00	-1.667177e+01
1	 6.423566e-02	 1.916571e+00	-1.638838e+01
1	 3.201353e-02	 1.917380e+00	-1.604150e+01
1	 0.000000e+00	 1.917647e+00	-1.562598e+01
1	 1.630277e-01	 1.922512e+00	-1.591834e+01
1	 1.300512e-01	 1.925024e+00	-1.575185e+01
1	 9.724763e-02	 1.926959e+00	-1.553037e+01
1	 6.462975e-02	 1.928329e+00	-1.524093e+01
1	 3.220993e-02	 1.929143e+00	-1.487146e+01
1	 0.000000e+00	 1.929412e+00	-1.441082e+01
1	 1.640218e-01	 1.934234e+00	-1.480105e+01
1	 1.308442e-01	 1.936762e+00	-1.464464e+01
1	 9.784060e-02	 1.938709e+00	-1.442831e+01
1	 6.502383e-02	 1.940087e+00	-1.413125e+01
1	 3.240633e-02	 1.940906e+00	-1.373379e+01
1	 0.000000e+00	 1.941176e+00	-1.321747e+01
1	 1.941176e+00	 0.000000e+00	 3.451392e+00
1	 1.940906e+00	 3.240633e-02	 3.270501e+00
1	 1.940087e+00	 6.502383e-02	 3.098091e+00
1	 1.938709e+00	 9.784060e-02	 2.940645e+00
1	 1.936762e+00	 1.308442e-01	 2.804705e+00
1	 1.934234e+00	 1.640218e-01	 2.696853e+00
1	 1.952941e+00	 0.000000e+00	 3.112849e+00
1	 1.952669e+00	 3.260274e-02	 2.952296e+00
1	 1.951845e+00	 6.541792e-02	 2.796217e+00
1	 1.950459e+00	 9.843357e-02	 2.652773e+00
1	 1.948500e+00	 1.316372e-01	 2.529913e+00
1	 1.945957e+00	 1.650158e-01	 2.435329e+00
1	 1.964706e+00	 0.000000e+00	 2.769919e+00
1	 1.964432e+00	 3.279914e-02	 2.637028e+00
1	 1.963603e+00	 6.581200e-02	 2.502755e+00
1	 1.962209e+00	 9.902655e-02	 2.377308e+00
1	 1.960238e+00	 1.324302e-01	 2.270103e+00
1	 1.957680e+00	 1.660099e-01	 2.189679e+00
1	 1.976471e+00	 0.000000e+00	 2.412874e+00
1	 1.976195e+00	 3.299554e-02	 2.320559e+00
1	 1.975361e+00	 6.620608e-02	 2.217546e+00
1	 1.973958e+00	 9.961952e-02	 2.116445e+00
1	 1.971976e+00	 1.332232e-01	 2.028185e+00
1	 1.969402e+00	 1.670040e-01	 1.961891e+00
1	 1.988235e+00	 0.000000e+00	 2.032216e+00
1	 1.987958e+00	 3.319194e-02	 1.998850e+00
1	 1.987120e+00	 6.660017e-02	 1.940435e+00
1	 1.985708e+00	 1.002125e-01	 1.872322e+00
1	 1.983713e+00	 1.340162e-01	 1.807000e+00
1	 1.981125e+00	 1.679981e-01	 1.753906e+00
1	 2.000000e+00	 0.000000e+00	 1.618672e+00
1	 1.999721e+00	 3.338834e-02	 1.667957e+00
1	 1.998878e+00	 6.699425e-02	 1.671270e+00
1	 1.997458e+00	 1.008055e-01	 1.647030e+00
1	 1.995451e+00	 1.348092e-01	 1.609322e+00
1	 1.992848e+00	 1.689921e-01	 1.567621e+00
1	 1.934234e+00	 1.640218e-01	 2.696853e+00
1	 1.931118e+00	 1.973598e-01	 2.604574e+00
1	 1.927402e+00	 2.308444e-01	 2.512374e+00
1	 1.923077e+00	 2.644611e-01	 2.421848e+00
1	 1.918136e+00	 2.981949e-01	 2.333856e+00
1	 1.912569e+00	 3.320305e-01	 2.248481e+00
1	 1.945957e+00	 1.650158e-01	 2.435329e+00
1	 1.942821e+00	 1.985559e-01	 2.356031e+00
1	 1.939083e+00	 2.322435e-01	 2.275462e+00
1	 1.934732e+00	 2.660639e-01	 2.195190e+00
1	 1.929761e+00	 3.000022e-01	 2.116022e+00
1	 1.924161e+00	 3.340428e-01	 2.037968e+00
1	 1.957680e+00	 1.660099e-01	 2.189679e+00
1	 1.954525e+00	 1.997521e-01	 2.123443e+00
1	 1.950764e+00	 2.336425e-01	 2.054811e+00
1	 1.946387e+00	 2.676667e-01	 1.985136e+00
1	 1.941386e+00	 3.018094e-01	 1.915087e+00
1	 1.935752e+00	 3.360551e-01	 1.844609e+00
1	 1.969402e+00	 1.670040e-01	 1.961891e+00
1	 1.966229e+00	 2.009482e-01	 1.907304e+00
1	 1.962445e+00	 2.350416e-01	 1.849925e+00
1	 1.958042e+00	 2.692695e-01	 1.790708e+00
1	 1.953011e+00	 3.036166e-01	 1.730095e+00
1	 1.947343e+00	 3.380674e-01	 1.667989e+00
1	 1.981125e+00	 1.679981e-01	 1.753906e+00
1	 1.977933e+00	 2.021443e-01	 1.708099e+00
1	 1.974126e+00	 2.364406e-01	 1.660319e+00
1	 1.969697e+00	 2.708723e-01	 1.610946e+00
1	 1.964636e+00	 3.054239e-01	 1.560115e+00
1	 1.958935e+00	 3.400797e-01	 1.507706e+00
1	 1.992848e+00	 1.689921e-01	 1.567621e+00
1	 1.989636e+00	 2.033404e-01	 1.526297e+00
1	 1.985808e+00	 2.378397e-01	 1.485520e+00
1	 1.981352e+00	 2.724750e-01	 1.444916e+00
1	 1.976261e+00	 3.072311e-01	 1.404237e+00
1	 1.970526e+00	 3.420920e-01	 1.363365e+00
1	 1.912569e+00	 3.320305e-01	 2.248481e+00
1	 1.906370e+00	 3.659520e-01	 2.165489e+00
1	 1.899529e+00	 3.999430e-01	 2.084603e+00
1	 1.892042e+00	 4.339868e-01	 2.005061e+00
1	 1.883900e+00	 4.680663e-01	 1.925842e+00
1	 1.875099e+00	 5.021638e-01	 1.845662e+00
1	 1.924161e+00	 3.340428e-01	 2.037968e+00
1	 1.917923e+00	 3.681699e-01	 1.962049e+00
1	 1.911042e+00	 4.023669e-01	 1.889157e+00
1	 1.903509e+00	 4.366171e-01	 1.818232e+00
1	 1.895318e+00	 4.709031e-01	 1.747870e+00
1	 1.886464e+00	 5.052072e-01	 1.676308e+00
1	 1.935752e+00	 3.360551e-01	 1.844609e+00
1	 1.929477e+00	 3.703878e-01	 1.775765e+00
1	 1.922554e+00	 4.047908e-01	 1.710423e+00
1	 1.914975e+00	 4.392473e-01	 1.647313e+00
1	 1.906735e+00	 4.737398e-01	 1.584676e+00
1	 1.897828e+00	 5.082506e-01	 1.520245e+00
1	 1.947343e+00	 3.380674e-01	 1.667989e+00
1	 1.941031e+00	 3.726057e-01	 1.606888e+00
1	 1.934066e+00	 4.072147e-01	 1.549044e+00
1	 1.926442e+00	 4.418775e-01	 1.493067e+00
1	 1.918153e+00	 4.765766e-01	 1.436870e+00
1	 1.909192e+00	 5.112941e-01	 1.377650e+00
1	 1.958935e+00	 3.400797e-01	 1.507706e+00
1	 1.952585e+00	 3.748236e-01	 1.455662e+00
1	 1.945579e+00	 4.096386e-01	 1.405649e+00
1	 1.937909e+00	 4.445077e-01	 1.356239e+00
1	 1.929571e+00	 4.794134e-01	 1.305046e+00
1	 1.920556e+00	 5.143375e-01	 1.248697e+00
1	 1.970526e+00	 3.420920e-01	 1.363365e+00
1	 1.964138e+00	 3.770414e-01	 1.322325e+00
1	 1.957091e+00	 4.120625e-01	 1.280850e+00
1	 1.949376e+00	 4.471380e-01	 1.237555e+00
1	 1.940988e+00	 4.822501e-01	 1.189782e+00
1	 1.931921e+00	 5.173809e-01	 1.133553e+00
1	 1.875099e+00	 5.021638e-01	 1.845662e+00
1	 1.865634e+00	 5.362614e-01	 1.751086e+00
1	 1.855499e+00	 5.703408e-01	 1.630501e+00
1	 1.844692e+00	 6.043834e-01	 1.485473e+00
1	 1.833207e+00	 6.383702e-01	 1.318004e+00
1	 1.821044e+00	 6.722821e-01	 1.130529e+00
1	 1.886464e+00	 5.052072e-01	 1.676308e+00
1	 1.876941e+00	 5.395115e-01	 1.591040e+00
1	 1.866745e+00	 5.737974e-01	 1.481417e+00
1	 1.855871e+00	 6.080463e-01	 1.348505e+00
1	 1.844318e+00	 6.422391e-01	 1.193793e+00
1	 1.832081e+00	 6.763565e-01	 1.019194e+00
1	 1.897828e+00	 5.082506e-01	 1.520245e+00
1	 1.888248e+00	 5.427615e-01	 1.442634e+00
1	 1.877990e+00	 5.772540e-01	 1.342334e+00
1	 1.867051e+00	 6.117093e-01	 1.219840e+00
1	 1.855428e+00	 6.461080e-01	 1.076089e+00
1	 1.843118e+00	 6.804309e-01	 9.124748e-01
1	 1.909192e+00	 5.112941e-01	 1.377650e+00
1	 1.899554e+00	 5.460116e-01	 1.305556e+00
1	 1.889236e+00	 5.807107e-01	 1.212619e+00
1	 1.878231e+00	 6.153722e-01	 1.098687e+00
1	 1.866538e+00	 6.499770e-01	 9.641126e-01
1	 1.854154e+00	 6.845054e-01	 8.097672e-01
1	 1.920556e+00	 5.143375e-01	 1.248697e+00
1	 1.910861e+00	 5.492617e-01	 1.179503e+00
1	 1.900481e+00	 5.841673e-01	 1.091653e+00
1	 1.889411e+00	 6.190351e-01	 9.842745e-01
1	 1.877649e+00	 6.538459e-01	 8.570998e-01
1	 1.865191e+00	 6.885798e-01	 7.104822e-01
1	 1.931921e+00	 5.173809e-01	 1.133553e+00
1	 1.922168e+00	 5.525118e-01	 1.064180e+00
1	 1.911726e+00	 5.876239e-01	 9.788307e-01
1	 1.900591e+00	 6.226980e-01	 8.758473e-01
1	 1.888759e+00	 6.577148e-01	 7.543060e-01
1	 1.876228e+00	 6.926543e-01	 6.140442e-01
1	 1.821044e+00	 6.722821e-01	 1.130529e+00
1	 1.808201e+00	 7.060995e-01	 9.188617e-01
1	 1.794675e+00	 7.398028e-01	 6.780178e-01
1	 1.780467e+00	 7.733722e-01	 4.104742e-01
1	 1.765576e+00	 8.067876e-01	 1.199324e-01
1	 1.750005e+00	 8.400289e-01	-1.886643e-01
1	 1.832081e+00	 6.763565e-01	 1.019194e+00
1	 1.819159e+00	 7.103789e-01	 8.217683e-01
1	 1.805552e+00	 7.442865e-01	 5.980975e-01
1	 1.791257e+00	 7.780593e-01	 3.506247e-01
1	 1.776277e+00	 8.116772e-01	 8.303941e-02
1	 1.760611e+00	 8.451200e-01	-1.997054e-01
1	 1.843118e+00	 6.804309e-01	 9.124748e-01
1	 1.830118e+00	 7.146583e-01	 7.272902e-01
1	 1.816429e+00	 7.487701e-01	 5.186165e-01
1	 1.802048e+00	 7.827464e-01	 2.887846e-01
1	 1.786977e+00	 8.165668e-01	 4.136159e-02
1	 1.771217e+00	 8.502111e-01	-2.188317e-01
1	 1.854154e+00	 6.845054e-01	 8.097672e-01
1	 1.841077e+00	 7.189377e-01	 6.350205e-01
1	 1.827305e+00	 7.532538e-01	 4.392354e-01
1	 1.812839e+00	 7.874335e-01	 2.245532e-01
1	 1.797678e+00	 8.214564e-01	-5.689805e-03
1	 1.781823e+00	 8.553021e-01	-2.469452e-01
1	 1.865191e+00	 6.885798e-01	 7.104822e-01
1	 1.852036e+00	 7.232171e-01	 5.445617e-01
1	 1.838182e+00	 7.577374e-01	 3.596225e-01
1	 1.823629e+00	 7.921206e-01	 1.575393e-01
1	 1.808378e+00	 8.263461e-01	-5.868955e-02
1	 1.792429e+00	 8.603932e-01	-2.849267e-01
1	 1.876228e+00	 6.926543e-01	 6.140442e-01
1	 1.862995e+00	 7.274964e-01	 4.555260e-01
1	 1.849059e+00	 7.622211e-01	 2.794540e-01
1	 1.834420e+00	 7.968077e-01	 8.736112e-02
1	 1.819079e+00	 8.312357e-01	-1.181989e-01
1	 1.803035e+00	 8.654843e-01	-3.336363e-01
1	 1.750005e+00	 8.400289e-01	-1.886643e-01
1	 1.733754e+00	 8.730759e-01	-5.109512e-01
1	 1.716827e+00	 9.059084e-01	-8.415458e-01
1	 1.699227e+00	 9.385060e-01	-1.172671e+00
1	 1.680958e+00	 9.708486e-01	-1.496078e+00
1	 1.662025e+00	 1.002916e+00	-1.803072e+00
1	 1.760611e+00	 8.451200e-01	-1.997054e-01
1	 1.744262e+00	 8.783673e-01	-4.943945e-01
1	 1.727232e+00	 9.113987e-01	-7.961977e-01
1	 1.709525e+00	 9.441939e-01	-1.096176e+00
1	 1.691145e+00	 9.767325e-01	-1.384598e+00
1	 1.672097e+00	 1.008994e+00	-1.650961e+00
1	 1.771217e+00	 8.502111e-01	-2.188317e-01
1	 1.754770e+00	 8.836586e-01	-4.891621e-01
1	 1.737637e+00	 9.168891e-01	-7.645701e-01
1	 1.719824e+00	 9.498818e-01	-1.034763e+00
1	 1.701333e+00	 9.826164e-01	-1.288287e+00
1	 1.682170e+00	 1.015073e+00	-1.512552e+00
1	 1.781823e+00	 8.553021e-01	-2.469452e-01
1	 1.765277e+00	 8.889500e-01	-4.964443e-01
1	 1.748042e+00	 9.223794e-01	-7.479685e-01
1	 1.730122e+00	 9.555697e-01	-9.896828e-01
1	 1.711521e+00	 9.885004e-01	-1.208176e+00
1	 1.692243e+00	 1.021151e+00	-1.388489e+00
1	 1.792429e+00	 8.603932e-01	-2.849267e-01
1	 1.775785e+00	 8.942414e-01	-5.174032e-01
1	 1.758447e+00	 9.278698e-01	-7.476672e-01
1	 1.740420e+00	 9.612577e-01	-9.621555e-01
1	 1.721708e+00	 9.943843e-01	-1.145269e+00
1	 1.702316e+00	 1.027229e+00	-1.279405e+00
1	 1.803035e+00	 8.654843e-01	-3.336363e-01
1	 1.786292e+00	 8.995327e-01	-5.531735e-01
1	 1.768852e+00	 9.333601e-01	-7.649107e-01
1	 1.750719e+00	 9.669456e-01	-9.533735e-01
1	 1.731896e+00	 1.000268e+00	-1.100548e+00
1	 1.712389e+00	 1.033307e+00	-1.185914e+00
1	 1.662025e+00	 1.002916e+00	-1.803072e+00
1	 1.642433e+00	 1.034688e+00	-2.047353e+00
1	 1.622190e+00	 1.066145e+00	-2.192901e+00
1	 1.601303e+00	 1.097267e+00	-2.247670e+00
1	 1.579780e+00	 1.128034e+00	-2.221658e+00
1	 1.557630e+00	 1.158428e+00	-2.126870e+00
1	 1.672097e+00	 1.008994e+00	-1.650961e+00
1	 1.652387e+00	 1.040959e+00	-1.852414e+00
1	 1.632022e+00	 1.072606e+00	-1.958029e+00
1	 1.611008e+00	 1.103917e+00	-1.976411e+00
1	 1.589354e+00	 1.134871e+00	-1.918512e+00
1	 1.567070e+00	 1.165449e+00	-1.797596e+00
1	 1.682170e+00	 1.015073e+00	-1.512552e+00
1	 1.662341e+00	 1.047230e+00	-1.669153e+00
1	 1.641853e+00	 1.079068e+00	-1.733448e+00
1	 1.620713e+00	 1.110567e+00	-1.714676e+00
1	 1.598929e+00	 1.141707e+00	-1.624748e+00
1	 1.576510e+00	 1.172470e+00	-1.478214e+00
1	 1.692243e+00	 1.021151e+00	-1.388489e+00
1	 1.672296e+00	 1.053501e+00	-1.497796e+00
1	 1.651685e+00	 1.085529e+00	-1.519051e+00
1	 1.630418e+00	 1.117217e+00	-1.462107e+00
1	 1.608503e+00	 1.148544e+00	-1.339843e+00
1	 1.585950e+00	 1.179490e+00	-1.168126e+00
1	 1.702316e+00	 1.027229e+00	-1.279405e+00
1	 1.682250e+00	 1.059771e+00	-1.338564e+00
1	 1.661516e+00	 1.091991e+00	-1.314730e+00
1	 1.640123e+00	 1.123867e+00	-1.218356e+00
1	 1.618078e+00	 1.155381e+00	-1.063291e+00
1	 1.595390e+00	 1.186511e+00	-8.667456e-01
1	 1.712389e+00	 1.033307e+00	-1.185914e+00
1	 1.692204e+00	 1.066042e+00	-1.191672e+00
1	 1.671348e+00	 1.098452e+00	-1.120384e+00
1	 1.649827e+00	 1.130517e+00	-9.830824e-01
1	 1.627652e+00	 1.162217e+00	-7.945947e-01
1	 1.604831e+00	 1.193532e+00	-5.735014e-01
1	 1.557630e+00	 1.158428e+00	-2.126870e+00
1	 1.534862e+00	 1.188429e+00	-1.986421e+00
1	 1.511488e+00	 1.218019e+00	-1.824983e+00
1	 1.487518e+00	 1.247179e+00	-1.659696e+00
1	 1.462964e+00	 1.275892e+00	-1.509377e+00
1	 1.437840e+00	 1.304141e+00	-1.394444e+00
1	 1.567070e+00	 1.165449e+00	-1.797596e+00
1	 1.544164e+00	 1.195632e+00	-1.637510e+00
1	 1.520648e+00	 1.225401e+00	-1.462427e+00
1	 1.496533e+00	 1.254738e+00	-1.289086e+00
1	 1.471831e+00	 1.283625e+00	-1.135863e+00
1	 1.446554e+00	 1.312045e+00	-1.022692e+00
1	 1.576510e+00	 1.172470e+00	-1.478214e+00
1	 1.553467e+00	 1.202834e+00	-1.299052e+00
1	 1.529809e+00	 1.232783e+00	-1.110377e+00
1	 1.505548e+00	 1.262297e+00	-9.286454e-01
1	 1.480697e+00	 1.291358e+00	-7.719231e-01
1	 1.455268e+00	 1.319949e+00	-6.598006e-01
1	 1.585950e+00	 1.179490e+00	-1.168126e+00
1	 1.562769e+00	 1.210037e+00	-9.704308e-01
1	 1.538969e+00	 1.240165e+00	-7.682280e-01
1	 1.514564e+00	 1.269855e+00	-5.778162e-01
1	 1.489564e+00	 1.299091e+00	-4.170762e-01
1	 1.463982e+00	 1.327852e+00	-3.053919e-01
1	 1.595390e+00	 1.186511e+00	-8.667456e-01
1	 1.572071e+00	 1.217240e+00	-6.510403e-01
1	 1.548130e+00	 1.247547e+00	-4.353906e-01
1	 1.523579e+00	 1.277414e+00	-2.360531e-01
1	 1.498430e+00	 1.306823e+00	-7.085117e-02
1	 1.472696e+00	 1.335756e+00	 4.090483e-02
1	 1.604831e+00	 1.193532e+00	-5.735014e-01
1	 1.581373e+00	 1.224442e+00	-3.402908e-01
1	 1.557291e+00	 1.254929e+00	-1.112882e-01
1	 1.532594e+00	 1.284973e+00	 9.717602e-02
1	 1.507297e+00	 1.314556e+00	 2.672120e-01
1	 1.481411e+00	 1.343660e+00	 3.794511e-01
1	 1.437840e+00	 1.304141e+00	-1.394444e+00
1	 1.412157e+00	 1.331908e+00	-1.347304e+00
1	 1.385931e+00	 1.359176e+00	-1.389965e+00
1	 1.359176e+00	 1.385931e+00	-1.528254e+00
1	 1.331908e+00	 1.412157e+00	-1.767806e+00
1	 1.304141e+00	 1.437840e+00	-2.114043e+00
1	 1.446554e+00	 1.312045e+00	-1.022692e+00
1	 1.420716e+00	 1.339980e+00	-9.787342e-01
1	 1.394331e+00	 1.367414e+00	-1.023364e+00
1	 1.367414e+00	 1.394331e+00	-1.162845e+00
1	 1.339980e+00	 1.420716e+00	-1.403280e+00
1	 1.312045e+00	 1.446554e+00	-1.750596e+00
1	 1.455268e+00	 1.319949e+00	-6.598006e-01
1	 1.429274e+00	 1.348052e+00	-6.184440e-01
1	 1.402731e+00	 1.375651e+00	-6.647390e-01
1	 1.375651e+00	 1.402731e+00	-8.053671e-01
1	 1.348052e+00	 1.429274e+00	-1.046882e+00
1	 1.319949e+00	 1.455268e+00	-1.395687e+00
1	 1.463982e+00	 1.327852e+00	-3.053919e-01
1	 1.437833e+00	 1.356124e+00	-2.661604e-01
1	 1.411130e+00	 1.383889e+00	-3.139032e-01
1	 1.383889e+00	 1.411130e+00	-4.557046e-01
1	 1.356124e+00	 1.437833e+00	-6.985474e-01
1	 1.327852e+00	 1.463982e+00	-1.049286e+00
1	 1.472696e+00	 1.335756e+00	 4.090483e-02
1	 1.446391e+00	 1.364196e+00	 7.838304e-02
1	 1.419530e+00	 1.392126e+00	 2.932396e-02
1	 1.392126e+00	 1.419530e+00	-1.137438e-01
1	 1.364196e+00	 1.446391e+00	-3.582115e-01
1	 1.335756e+00	 1.472696e+00	-7.113619e-01
1	 1.481411e+00	 1.343660e+00	 3.794511e-01
1	 1.454950e+00	 1.372268e+00	 4.154464e-01
1	 1.427929e+00	 1.400364e+00	 3.651193e-01
1	 1.400364e+00	 1.427929e+00	 2.206264e-01
1	 1.372268e+00	 1.454950e+00	-2.581238e-02
1	 1.343660e+00	 1.481411e+00	-3.818841e-01
1	 1.304141e+00	 1.437840e+00	-2.114043e+00
1	 1.275892e+00	 1.462964e+00	-2.583712e+00
1	 1.247179e+00	 1.487518e+00	-3.180723e+00
1	 1.218019e+00	 1.511488e+00	-3.889759e+00
1	 1.188429e+00	 1.534862e+00	-4.693831e+00
1	 1.158428e+00	 1.557630e+00	-5.574386e+00
1	 1.312045e+00	 1.446554e+00	-1.750596e+00
1	 1.283625e+00	 1.471831e+00	-2.219043e+00
1	 1.254738e+00	 1.496533e+00	-2.810593e+00
1	 1.225401e+00	 1.520648e+00	-3.511334e+00
1	 1.195632e+00	 1.544164e+00	-4.305741e+00
1	 1.165449e+00	 1.567070e+00	-5.176777e+00
1	 1.319949e+00	 1.455268e+00	-1.395687e+00
1	 1.291358e+00	 1.480697e+00	-1.863608e+00
1	 1.262297e+00	 1.505548e+00	-2.450734e+00
1	 1.232783e+00	 1.529809e+00	-3.144521e+00
1	 1.202834e+00	 1.553467e+00	-3.930877e+00
1	 1.172470e+00	 1.576510e+00	-4.794255e+00
1	 1.327852e+00	 1.463982e+00	-1.049286e+00
1	 1.299091e+00	 1.489564e+00	-1.517411e+00
1	 1.269855e+00	 1.514564e+00	-2.101211e+00
1	 1.240165e+00	 1.538969e+00	-2.789471e+00
1	 1.210037e+00	 1.562769e+00	-3.569498e+00
1	 1.179490e+00	 1.585950e+00	-4.427210e+00
1	 1.335756e+00	 1.472696e+00	-7.113619e-01
1	 1.306823e+00	 1.498430e+00	-1.180458e+00
1	 1.277414e+00	 1.523579e+00	-1.762088e+00
1	 1.247547e+00	 1.548130e+00	-2.446327e+00
1	 1.217240e+00	 1.572071e+00	-3.221854e+00
1	 1.186511e+00	 1.595390e+00	-4.076026e+00
1	 1.343660e+00	 1.481411e+00	-3.818841e-01
1	 1.314556e+00	 1.507297e+00	-8.527537e-01
1	 1.284973e+00	 1.532594e+00	-1.433426e+00
1	 1.254929e+00	 1.557291e+00	-2.115233e+00
1	 1.224442e+00	 1.581373e+00	-2.888192e+00
1	 1.193532e+00	 1.604831e+00	-3.741076e+00
1	 1.158428e+00	 1.557630e+00	-5.574386e+00
1	 1.128034e+00	 1.579780e+00	-6.523594e+00
1	 1.097267e+00	 1.601303e+00	-7.528824e+00
1	 1.066145e+00	 1.622190e+00	-8.562100e+00
1	 1.034688e+00	 1.642433e+00	-9.594086e+00
1	 1.002916e+00	 1.662025e+00	-1.059425e+01
1	 1.165449e+00	 1.567070e+00	-5.176777e+00
1	 1.134871e+00	 1.589354e+00	-6.116341e+00
1	 1.103917e+00	 1.611008e+00	-7.108344e+00
1	 1.072606e+00	 1.632022e+00	-8.121375e+00
1	 1.040959e+00	 1.652387e+00	-9.122410e+00
1	 1.008994e+00	 1.672097e+00	-1.007700e+01
1	 1.172470e+00	 1.576510e+00	-4.794255e+00
1	 1.141707e+00	 1.598929e+00	-5.725567e+00
1	 1.110567e+00	 1.620713e+00	-6.704763e+00
1	 1.079068e+00	 1.641853e+00	-7.697273e+00
1	 1.047230e+00	 1.662341e+00	-8.666647e+00
1	 1.015073e+00	 1.682170e+00	-9.574769e+00
1	 1.179490e+00	 1.585950e+00	-4.427210e+00
1	 1.148544e+00	 1.608503e+00	-5.351794e+00
1	 1.117217e+00	 1.630418e+00	-6.318691e+00
1	 1.085529e+00	 1.651685e+00	-7.290447e+00
1	 1.053501e+00	 1.672296e+00	-8.227441e+00
1	 1.021151e+00	 1.692243e+00	-9.088131e+00
1	 1.186511e+00	 1.595390e+00	-4.076026e+00
1	 1.155381e+00	 1.618078e+00	-4.995529e+00
1	 1.123867e+00	 1.640123e+00	-5.950720e+00
1	 1.091991e+00	 1.661516e+00	-6.901530e+00
1	 1.059771e+00	 1.682250e+00	-7.805422e+00
1	 1.027229e+00	 1.702316e+00	-8.617661e+00
1	 1.193532e+00	 1.604831e+00	-3.741076e+00
1	 1.162217e+00	 1.627652e+00	-4.657266e+00
1	 1.130517e+00	 1.649827e+00	-5.601431e+00
1	 1.098452e+00	 1.671348e+00	-6.531145e+00
1	 1.066042e+00	 1.692204e+00	-7.401204e+00
1	 1.033307e+00	 1.712389e+00	-8.163914e+00
1	 1.002916e+00	 1.662025e+00	-1.059425e+01
1	 9.708486e-01	 1.680958e+00	-1.150889e+01
1	 9.385060e-01	 1.699227e+00	-1.230326e+01
1	 9.059084e-01	 1.716827e+00	-1.297472e+01
1	 8.730759e-01	 1.733754e+00	-1.352102e+01
1	 8.400289e-01	 1.750005e+00	-1.394024e+01
1	 1.008994e+00	 1.672097e+00	-1.007700e+01
1	 9.767325e-01	 1.691145e+00	-1.093194e+01
1	 9.441939e-01	 1.709525e+00	-1.165809e+01
1	 9.113987e-01	 1.727232e+00	-1.225662e+01
1	 8.783673e-01	 1.744262e+00	-1.272925e+01
1	 8.451200e-01	 1.760611e+00	-1.307820e+01
1	 1.015073e+00	 1.682170e+00	-9.574769e+00
1	 9.826164e-01	 1.701333e+00	-1.037006e+01
1	 9.498818e-01	 1.719824e+00	-1.102979e+01
1	 9.168891e-01	 1.737637e+00	-1.155858e+01
1	 8.836586e-01	 1.754770e+00	-1.196182e+01
1	 8.502111e-01	 1.771217e+00	-1.224555e+01
1	 1.021151e+00	 1.692243e+00	-9.088131e+00
1	 9.885004e-01	 1.711521e+00	-9.823754e+00
1	 9.555697e-01	 1.730122e+00	-1.041878e+01
1	 9.223794e-01	 1.748042e+00	-1.088099e+01
1	 8.889500e-01	 1.765277e+00	-1.121908e+01
1	 8.553021e-01	 1.781823e+00	-1.144263e+01
1	 1.027229e+00	 1.702316e+00	-8.617661e+00
1	 9.943843e-01	 1.721708e+00	-9.293512e+00
1	 9.612577e-01	 1.740420e+00	-9.825498e+00
1	 9.278698e-01	 1.758447e+00	-1.022420e+01
1	 8.942414e-01	 1.775785e+00	-1.050137e+01
1	 8.603932e-01	 1.792429e+00	-1.066979e+01
1	 1.033307e+00	 1.712389e+00	-8.163914e+00
1	 1.000268e+00	 1.731896e+00	-8.779810e+00
1	 9.669456e-01	 1.750719e+00	-9.250340e+00
1	 9.333601e-01	 1.768852e+00	-9.588588e+00
1	 8.995327e-01	 1.786292e+00	-9.809023e+00
1	 8.654843e-01	 1.803035e+00	-9.927380e+00
1	 8.400289e-01	 1.750005e+00	-1.394024e+01
1	 8.067876e-01	 1.765576e+00	-1.423093e+01
1	 7.733722e-01	 1.780467e+00	-1.441058e+01
1	 7.398028e-01	 1.794675e+00	-1.450662e+01
1	 7.060995e-01	 1.808201e+00	-1.454721e+01
1	 6.722821e-01	 1.821044e+00	-1.456113e+01
1	 8.451200e-01	 1.760611e+00	-1.307820e+01
1	 8.116772e-01	 1.776277e+00	-1.330747e+01
1	 7.780593e-01	 1.791257e+00	-1.343653e+01
1	 7.442865e-01	 1.805552e+00	-1.349183e+01
1	 7.103789e-01	 1.819159e+00	-1.350050e+01
1	 6.763565e-01	 1.832081e+00	-1.349026e+01
1	 8.502111e-01	 1.771217e+00	-1.224555e+01
1	 8.165668e-01	 1.786977e+00	-1.241839e+01
1	 7.827464e-01	 1.802048e+00	-1.250098e+01
1	 7.487701e-01	 1.816429e+00	-1.251845e+01
1	 7.146583e-01	 1.830118e+00	-1.249660e+01
1	 6.804309e-01	 1.843118e+00	-1.246171e+01
1	 8.553021e-01	 1.781823e+00	-1.144263e+01
1	 8.214564e-01	 1.797678e+00	-1.156402e+01
1	 7.874335e-01	 1.812839e+00	-1.160416e+01
1	 7.532538e-01	 1.827305e+00	-1.158656e+01
1	 7.189377e-01	 1.841077e+00	-1.153533e+01
1	 6.845054e-01	 1.854154e+00	-1.147502e+01
1	 8.603932e-01	 1.792429e+00	-1.066979e+01
1	 8.263461e-01	 1.808378e+00	-1.074469e+01
1	 7.921206e-01	 1.823629e+00	-1.074630e+01
1	 7.577374e-01	 1.838182e+00	-1.069623e+01
1	 7.232171e-01	 1.852036e+00	-1.061655e+01
1	 6.885798e-01	 1.865191e+00	-1.052973e+01
1	 8.654843e-01	 1.803035e+00	-9.927380e+00
1	 8.312357e-01	 1.819079e+00	-9.960712e+00
1	 7.968077e-01	 1.834420e+00	-9.927638e+00
1	 7.622211e-01	 1.849059e+00	-9.847509e+00
1	 7.274964e-01	 1.862995e+00	-9.740086e+00
1	 6.926543e-01	 1.876228e+00	-9.625422e+00
1	 6.722821e-01	 1.821044e+00	-1.456113e+01
1	 6.383702e-01	 1.833207e+00	-1.457629e+01
1	 6.043834e-01	 1.844692e+00	-1.460006e+01
1	 5.703408e-01	 1.855499e+00	-1.463074e+01
1	 5.362614e-01	 1.865634e+00	-1.466667e+01
1	 5.021638e-01	 1.875099e+00	-1.470626e+01
1	 6.763565e-01	 1.832081e+00	-1.349026e+01
1	 6.422391e-01	 1.844318e+00	-1.348659e+01
1	 6.080463e-01	 1.855871e+00	-1.349492e+01
1	 5.737974e-01	 1.866745e+00	-1.351331e+01
1	 5.395115e-01	 1.876941e+00	-1.353986e+01
1	 5.052072e-01	 1.886464e+00	-1.357279e+01
1	 6.804309e-01	 1.843118e+00	-1.246171e+01
1	 6.461080e-01	 1.855428e+00	-1.243690e+01
1	 6.117093e-01	 1.867051e+00	-1.242662e+01
1	 5.772540e-01	 1.877990e+00	-1.242956e+01
1	 5.427615e-01	 1.888248e+00	-1.244458e+01
1	 5.082506e-01	 1.897828e+00	-1.247066e+01
1	 6.845054e-01	 1.854154e+00	-1.147502e+01
1	 6.499770e-01	 1.866538e+00	-1.142656e+01
1	 6.153722e-01	 1.878231e+00	-1.139444e+01
1	 5.807107e-01	 1.889236e+00	-1.137895e+01
1	 5.460116e-01	 1.899554e+00	-1.138059e+01
1	 5.112941e-01	 1.909192e+00	-1.140005e+01
1	 6.885798e-01	 1.865191e+00	-1.052973e+01
1	 6.538459e-01	 1.877649e+00	-1.045490e+01
1	 6.190351e-01	 1.889411e+00	-1.039771e+01
1	 5.841673e-01	 1.900481e+00	-1.036093e+01
1	 5.492617e-01	 1.910861e+00	-1.034761e+01
1	 5.143375e-01	 1.920556e+00	-1.036113e+01
1	 6.926543e-01	 1.876228e+00	-9.625422e+00
1	 6.577148e-01	 1.888759e+00	-9.521275e+00
1	 6.226980e-01	 1.900591e+00	-9.435755e+00
1	 5.876239e-01	 1.911726e+00	-9.374955e+00
1	 5.525118e-01	 1.922168e+00	-9.345414e+00
1	 5.173809e-01	 1.931921e+00	-9.354067e+00
1	 5.021638e-01	 1.875099e+00	-1.470626e+01
1	 4.680663e-01	 1.883900e+00	-1.475132e+01
1	 4.339868e-01	 1.892042e+00	-1.480167e+01
1	 3.999430e-01	 1.899529e+00	-1.485294e+01
1	 3.659520e-01	 1.906370e+00	-1.490097e+01
1	 3.320305e-01	 1.912569e+00	-1.494181e+01
1	 5.052072e-01	 1.886464e+00	-1.357279e+01
1	 4.709031e-01	 1.895318e+00	-1.361384e+01
1	 4.366171e-01	 1.903509e+00	-1.366284e+01
1	 4.023669e-01	 1.911042e+00	-1.371539e+01
1	 3.681699e-01	 1.917923e+00	-1.376722e+01
1	 3.340428e-01	 1.924161e+00	-1.381432e+01
1	 5.082506e-01	 1.897828e+00	-1.247066e+01
1	 4.737398e-01	 1.906735e+00	-1.250987e+01
1	 4.392473e-01	 1.914975e+00	-1.256106e+01
1	 4.047908e-01	 1.922554e+00	-1.261854e+01
1	 3.703878e-01	 1.929477e+00	-1.267677e+01
1	 3.360551e-01	 1.935752e+00	-1.273038e+01
1	 5.112941e-01	 1.909192e+00	-1.140005e+01
1	 4.765766e-01	 1.918153e+00	-1.143995e+01
1	 4.418775e-01	 1.926442e+00	-1.149690e+01
1	 4.072147e-01	 1.934066e+00	-1.156280e+01
1	 3.726057e-01	 1.941031e+00	-1.162960e+01
1	 3.380674e-01	 1.947343e+00	-1.168937e+01
1	 5.143375e-01	 1.920556e+00	-1.036113e+01
1	 4.794134e-01	 1.929571e+00	-1.040458e+01
1	 4.445077e-01	 1.937909e+00	-1.047096e+01
1	 4.096386e-01	 1.945579e+00	-1.054858e+01
1	 3.748236e-01	 1.952585e+00	-1.062572e+01
1	 3.400797e-01	 1.958935e+00	-1.069066e+01
1	 5.173809e-01	 1.931921e+00	-9.354067e+00
1	 4.822501e-01	 1.940988e+00	-9.404274e+00
1	 4.471380e-01	 1.949376e+00	-9.483800e+00
1	 4.120625e-01	 1.957091e+00	-9.576263e+00
1	 3.770414e-01	 1.964138e+00	-9.665098e+00
1	 3.420920e-01	 1.970526e+00	-9.733647e+00
1	 3.320305e-01	 1.912569e+00	-1.494181e+01
1	 2.981949e-01	 1.918136e+00	-1.497155e+01
1	 2.644611e-01	 1.923077e+00	-1.498227e+01
1	 2.308444e-01	 1.927402e+00	-1.496407e+01
1	 1.973598e-01	 1.931118e+00	-1.490698e+01
1	 1.640218e-01	 1.934234e+00	-1.480105e+01
1	 3.340428e-01	 1.924161e+00	-1.381432e+01
1	 3.000022e-01	 1.929761e+00	-1.385142e+01
1	 2.660639e-01	 1.934732e+00	-1.386970e+01
1	 2.322435e-01	 1.939083e+00	-1.385980e+01
1	 1.985559e-01	 1.942821e+00	-1.381230e+01
1	 1.650158e-01	 1.945957e+00	-1.371772e+01
1	 3.360551e-01	 1.935752e+00	-1.273038e+01
1	 3.018094e-01	 1.941386e+00	-1.277222e+01
1	 2.676667e-01	 1.946387e+00	-1.279393e+01
1	 2.336425e-01	 1.950764e+00	-1.278839e+01
1	 1.997521e-01	 1.954525e+00	-1.274845e+01
1	 1.660099e-01	 1.957680e+00	-1.266695e+01
1	 3.380674e-01	 1.947343e+00	-1.168937e+01
1	 3.036166e-01	 1.953011e+00	-1.173287e+01
1	 2.692695e-01	 1.958042e+00	-1.175394e+01
1	 2.350416e-01	 1.962445e+00	-1.174936e+01
1	 2.009482e-01	 1.966229e+00	-1.171598e+01
1	 1.670040e-01	 1.969402e+00	-1.165071e+01
1	 3.400797e-01	 1.958935e+00	-1.069066e+01
1	 3.054239e-01	 1.964636e+00	-1.073231e+01
1	 2.708723e-01	 1.969697e+00	-1.074874e+01
1	 2.364406e-01	 1.974126e+00	-1.074227e+01
1	 2.021443e-01	 1.977933e+00	-1.071542e+01
1	 1.679981e-01	 1.981125e+00	-1.067096e+01
1	 3.420920e-01	 1.970526e+00	-9.733647e+00
1	 3.072311e-01	 1.976261e+00	-9.769484e+00
1	 2.724750e-01	 1.981352e+00	-9.777340e+00
1	 2.378397e-01	 1.985808e+00	-9.766650e+00
1	 2.033404e-01	 1.989636e+00	-9.747301e+00
1	 1.689921e-01	 1.992848e+00	-9.729563e+00
1	 1.640218e-01	 1.934234e+00	-1.480105e+01
1	 1.308442e-01	 1.936762e+00	-1.464464e+01
1	 9.784060e-02	 1.938709e+00	-1.442831e+01
1	 6.502383e-02	 1.940087e+00	-1.413125e+01
1	 3.240633e-02	 1.940906e+00	-1.373379e+01
1	 0.000000e+00	 1.941176e+00	-1.321747e+01
1	 1.650158e-01	 1.945957e+00	-1.371772e+01
1	 1.316372e-01	 1.948500e+00	-1.357473e+01
1	 9.843357e-02	 1.950459e+00	-1.336673e+01
1	 6.541792e-02	 1.951845e+00	-1.306234e+01
1	 3.260274e-02	 1.952669e+00	-1.263148e+01
1	 0.000000e+00	 1.952941e+00	-1.204551e+01
1	 1.660099e-01	 1.957680e+00	-1.266695e+01
1	 1.324302e-01	 1.960238e+00	-1.254279e+01
1	 9.902655e-02	 1.962209e+00	-1.234836e+01
1	 6.581200e-02	 1.963603e+00	-1.203764e+01
1	 3.279914e-02	 1.964432e+00	-1.156599e+01
1	 0.000000e+00	 1.964706e+00	-1.089025e+01
1	 1.670040e-01	 1.969402e+00	-1.165071e+01
1	 1.332232e-01	 1.971976e+00	-1.155172e+01
1	 9.961952e-02	 1.973958e+00	-1.137557e+01
1	 6.620608e-02	 1.975361e+00	-1.105770e+01
1	 3.299554e-02	 1.976195e+00	-1.053477e+01
1	 0.000000e+00	 1.976471e+00	-9.744915e+00
1	 1.679981e-01	 1.981125e+00	-1.067096e+01
1	 1.340162e-01	 1.983713e+00	-1.060432e+01
1	 1.002125e-01	 1.985708e+00	-1.045069e+01
1	 6.660017e-02	 1.987120e+00	-1.012305e+01
1	 3.319194e-02	 1.987958e+00	-9.535341e+00
1	 0.000000e+00	 1.988235e+00	-8.602865e+00
1	 1.689921e-01	 1.992848e+00	-9.729563e+00
1	 1.348092e-01	 1.995451e+00	-9.703347e+00
1	 1.008055e-01	 1.997458e+00	-9.575981e+00
1	 6.699425e-02	 1.998878e+00	-9.234196e+00
1	 3.338834e-02	 1.999721e+00	-8.565286e+00
1	 0.000000e+00	 2.000000e+00	-7.457631e+00
